coord_x,coord_y,stress_xx,stress_yy,tau_xy,velocity_x,velocity_y,stress_1,eps,damage
5.00051e+0, 1.2368336e+2, -1709995.1, -1728054.9, -306.15118, 0.0004050048, -0.06089109, -1709990.0, 17908.01 
5.0006336e+0, 1.3368106e+2, -1617599.4, -1647634.1, -551.0554, -0.0004502897, -0.02425971, -1617589.3, 12331.255 
5.0007653e+0, 1.4367731e+2, -1523161.1, -1563038.8, -657.92554, -0.00046301726, -0.077346005, -1523150.3, 8807.044 
5.000907e+0, 1.5367381e+2, -1421261.3, -1463175.8, -624.44586, 0.00046591755, -0.05360495, -1421251.9, 12739.682 
5.0010383e+0, 1.6366936e+2, -1330887.6, -1386870.4, -596.58057, 0.0006308881, -0.042696357, -1330881.4, 5153.8115 
5.001153e+0, 1.736639e+2, -1229237.4, -1287161.4, -508.37732, -0.00046149295, -0.05452607, -1229232.9, 8855.769 
5.001277e+0, 1.8365772e+2, -1138720.1, -1210486.4, -486.05884, -0.0007577325, -0.057840146, -1138716.9, 1432.3438 
5.0014186e+0, 1.9365086e+2, -1036831.5, -1110586.3, -629.8941, 0.00027879124, -0.050008375, -1036826.1, 5390.256 
5.001548e+0, 2.0364316e+2, -946656.5, -1034566.9, -741.0863, 0.00066448736, -0.04746376, -946650.25, -2358.2607 
5.001656e+0, 2.136345e+2, -845272.2, -934958.6, -649.45276, -0.00005174438, -0.05605684, -845267.5, 1109.1508 
5.0017744e+0, 2.2362514e+2, -754859.1, -858359.25, -547.0115, -0.0004198696, -0.057780292, -754856.25, -6387.7954 
5.001911e+0, 2.3361509e+2, -652847.25, -758365.5, -609.9276, -0.00018393497, -0.05052452, -652843.7, -2276.5774 
5.002042e+0, 2.4360415e+2, -562607.4, -682476.6, -656.5871, 0.000021555796, -0.04712307, -562603.8, -9929.594 
5.0021625e+0, 2.535923e+2, -461091.8, -582792.6, -525.2748, 0.00016315308, -0.052856673, -461089.53, -6299.3545 
5.002285e+0, 2.6357976e+2, -370235.75, -505388.0, -485.44794, 0.00015820151, -0.055440754, -370234.0, -13320.532 
5.002412e+0, 2.7356642e+2, -268249.75, -405205.88, -710.76385, -0.000091697344, -0.05543337, -268246.06, -9202.342 
5.002546e+0, 2.835521e+2, -181134.36, -336141.16, -725.1216, -0.00019403573, -0.053301204, -181130.97, -19946.979 
5.0026894e+0, 2.9353672e+2, -79180.28, -236644.84, -482.3677, -0.000039568822, -0.050458126, -79178.8, -15843.657 
5.002825e+0, 3.035247e+2, 23032.762, -83353.19, -466.33932, 0.000046944693, -0.049417585, 23034.805, 23034.805 
5.0029457e+0, 3.1351635e+2, 27773.912, -79107.8, -671.45734, 0.0000146388265, -0.054816145, 27778.13, 27778.13 
1.5001531e+1, 1.23683095e+2, -1710307.9, -1728695.4, 774.6062, 0.0012078978, -0.06524414, -1710275.3, 17625.271 
1.50019e+1, 1.3368082e+2, -1617982.4, -1648420.0, 439.09995, -0.0013521208, -0.020696864, -1617976.0, 11946.862 
1.5002295e+1, 1.4367704e+2, -1523154.1, -1563023.6, 341.9537, -0.0013878461, -0.07219724, -1523151.3, 8808.665 
1.5002722e+1, 1.5367347e+2, -1421197.3, -1463043.3, 379.05246, 0.0013971467, -0.0568299, -1421193.9, 12800.979 
1.5003115e+1, 1.6366903e+2, -1330729.8, -1386544.9, 351.44202, 0.0018927936, -0.04754386, -1330727.5, 5310.7974 
1.5003458e+1, 1.7366368e+2, -1229064.1, -1286804.5, 434.84888, -0.0013851379, -0.049688246, -1229060.9, 9029.912 
1.500383e+1, 1.8365751e+2, -1138940.4, -1210939.8, 496.90842, -0.0022727875, -0.051461577, -1138936.9, 1214.2728 
1.5004256e+1, 1.9365051e+2, -1037115.44, -1111171.1, 362.6313, 0.00083564816, -0.055691767, -1037113.6, 5106.1606 
1.5004644e+1, 2.0364276e+2, -946530.4, -1034305.56, 141.86874, 0.0019943987, -0.055496883, -946530.1, -2234.2937 
1.5004967e+1, 2.1363428e+2, -845079.75, -934560.8, 217.8137, -0.00015579682, -0.05007059, -845079.2, 1299.7183 
1.5005322e+1, 2.2362496e+2, -754951.7, -858550.25, 449.90375, -0.0012587843, -0.04817247, -754949.7, -6479.402 
1.5005733e+1, 2.3361473e+2, -652988.7, -758657.0, 407.51773, -0.0005519675, -0.05494321, -652987.06, -2416.665 
1.5006126e+1, 2.4360377e+2, -562399.5, -682044.7, 258.32907, 0.00006462732, -0.05686907, -562398.94, -9720.936 
1.5006489e+1, 2.5359204e+2, -460825.13, -582239.5, 371.25687, 0.00048957794, -0.052928332, -460824.0, -6031.297 
1.5006857e+1, 2.6357952e+2, -370571.38, -506083.6, 481.25278, 0.00047466854, -0.049713857, -370569.66, -13654.212 
1.5007237e+1, 2.7356616e+2, -268685.66, -406110.03, 264.7974, -0.0002748231, -0.05081251, -268685.13, -9638.684 
1.5007637e+1, 2.835518e+2, -180809.6, -335465.7, 338.9773, -0.00058198726, -0.051751163, -180808.84, -19621.695 
1.5008068e+1, 2.9353637e+2, -78729.77, -235706.27, 592.6087, -0.00011825664, -0.055136476, -78727.54, -15389.335 
1.5008475e+1, 3.0352437e+2, 22788.885, -83857.91, 470.5027, 0.00013889627, -0.054932874, 22790.96, 22790.96 
1.5008837e+1, 3.135161e+2, 27411.576, -79859.45, 237.719, 0.000041657157, -0.051750943, 27412.102, 27412.102 
2.5002548e+1, 1.2368254e+2, -1710012.1, -1728577.6, -664.11505, 0.00067336985, -0.0653586, -1709988.4, 17917.658 
2.5003186e+1, 1.3368025e+2, -1617890.9, -1648532.8, -795.36176, -0.0009269705, -0.02043239, -1617870.3, 12058.156 
2.5003844e+1, 1.4367647e+2, -1523060.0, -1562949.1, -707.5639, -0.0006319005, -0.071844384, -1523047.5, 8918.041 
2.5004518e+1, 1.536729e+2, -1421197.0, -1462987.4, -695.487, 0.0006261044, -0.056984898, -1421185.5, 12814.977 
2.500517e+1, 1.6366845e+2, -1330762.6, -1386611.6, -837.4247, 0.000830403, -0.047825698, -1330750.0, 5293.927 
2.500579e+1, 1.7366311e+2, -1228827.5, -1286757.8, -979.4036, -0.00064631976, -0.04946821, -1228810.9, 9285.485 
2.500642e+1, 1.8365695e+2, -1138684.1, -1210805.5, -997.54626, -0.0010573106, -0.05116799, -1138670.4, 1486.4358 
2.5007072e+1, 1.9364993e+2, -1037404.4, -1111290.8, -829.0456, 0.00029667176, -0.05604949, -1037395.06, 4830.4194 
2.50077e+1, 2.0364217e+2, -946904.75, -1034507.1, -893.4085, 0.0008076959, -0.055924382, -946895.6, -2594.0771 
2.5008294e+1, 2.1363372e+2, -844689.75, -934398.56, -1026.9323, -0.00010499433, -0.049601782, -844678.0, 1706.5924 
2.5008905e+1, 2.2362438e+2, -754401.75, -858309.25, -943.752, -0.00058746414, -0.04747131, -754393.2, -5917.2207 
2.500955e+1, 2.3361415e+2, -653313.9, -758841.25, -867.5981, -0.00033163777, -0.055139095, -653306.75, -2730.578 
2.5010186e+1, 2.4360317e+2, -562995.9, -682233.56, -947.73395, -0.00006678474, -0.057486493, -562988.4, -10304.615 
2.5010803e+1, 2.5359148e+2, -460859.63, -582136.4, -1027.7009, 0.00019576035, -0.05315333, -460850.94, -6052.5923 
2.5011432e+1, 2.6357895e+2, -370420.97, -506154.9, -916.0295, 0.00019143999, -0.049559284, -370414.78, -13493.736 
2.5012073e+1, 2.735656e+2, -268567.5, -406241.0, -801.156, -0.00026165775, -0.05032064, -268562.84, -9510.656 
2.5012732e+1, 2.8355122e+2, -180735.23, -335217.5, -618.7288, -0.00039991326, -0.051384695, -180732.75, -19539.846 
2.501342e+1, 2.9353583e+2, -79395.25, -235748.7, -659.5767, 0.000005909131, -0.055696145, -79392.46, -16048.673 
2.50141e+1, 3.0352384e+2, 21993.793, -84303.55, -726.043, 0.00012422598, -0.05560229, 21998.752, 21998.752 
2.5014752e+1, 3.1351554e+2, 28165.252, -79618.0, -643.0912, -0.00023639968, -0.051102184, 28169.09, 28169.09 
3.5003564e+1, 1.23681694e+2, -1709734.1, -1728006.8, 387.85928, -0.0012123522, -0.06125393, -1709725.9, 18188.537 
3.5004494e+1, 1.3367935e+2, -1617709.3, -1648158.8, 162.34192, 0.00082118245, -0.023455415, -1617708.4, 12228.853 
3.5005414e+1, 1.4367558e+2, -1523030.8, -1562887.8, 262.13885, 0.0017971067, -0.076287344, -1523029.0, 8945.173 
3.5006297e+1, 1.5367208e+2, -1421191.0, -1462973.5, 277.67297, -0.0018527037, -0.054069143, -1421189.1, 12819.299 
3.5007203e+1, 1.6366765e+2, -1330985.6, -1387069.5, 167.85037, -0.0025580763, -0.043550566, -1330985.1, 5066.899 
3.5008147e+1, 1.7366217e+2, -1229088.3, -1287293.3, 35.486954, 0.0017466749, -0.053851, -1229088.3, 9017.32 
3.5009044e+1, 1.8365599e+2, -1138452.8, -1210326.4, -130.44902, 0.0028792382, -0.056954984, -1138452.5, 1713.7164 
3.5009864e+1, 1.9364913e+2, -1037095.44, -1110652.8, 17.060923, -0.0013423916, -0.05109216, -1037095.44, 5138.038 
3.501072e+1, 2.036414e+2, -947055.7, -1034818.3, 141.57536, -0.0028944614, -0.04876879, -947055.44, -2746.3342 
3.5011634e+1, 2.1363278e+2, -844917.2, -934865.75, 40.03182, 0.00009182527, -0.054631438, -844917.1, 1476.435 
3.5012522e+1, 2.2362341e+2, -754344.0, -858186.7, -119.533844, 0.001579925, -0.055655796, -754343.9, -5858.47 
3.5013363e+1, 2.3361331e+2, -653207.5, -758620.44, -82.451584, 0.00046917427, -0.051123727, -653207.44, -2623.035 
3.501422e+1, 2.4360238e+2, -563078.2, -682403.75, 58.264236, -0.00038050167, -0.049006358, -563078.2, -10386.664 
3.501511e+1, 2.5359058e+2, -460976.44, -582376.5, 12.661966, -0.0007229323, -0.053526692, -460976.44, -6169.379 
3.5016006e+1, 2.6357803e+2, -370268.94, -505837.25, 66.815865, -0.0006980398, -0.0549583, -370268.9, -13338.696 
3.5016915e+1, 2.735647e+2, -268371.16, -405830.9, 169.25113, -0.000060214774, -0.053939134, -268370.94, -9310.054 
3.501783e+1, 2.8355035e+2, -180794.69, -335338.28, 266.6839, 0.00034103982, -0.052200314, -180794.23, -19592.979 
3.5018745e+1, 2.93535e+2, -79497.234, -235959.72, 207.24396, 0.00032623563, -0.052145936, -79496.96, -16145.056 
3.5019696e+1, 3.03523e+2, 22157.139, -83962.55, 534.5604, 0.000002125255, -0.05145213, 22159.832, 22159.832 
3.5020694e+1, 3.135147e+2, 28367.13, -79189.52, 680.9531, -0.00083330495, -0.0528507, 28371.441, 28371.441 
4.500461e+1, 1.2368057e+2, -1709391.9, -1727687.4, -333.82727, -0.0010186357, -0.06087302, -1709385.9, 18539.541 
4.5005783e+1, 1.3367823e+2, -1617677.4, -1648236.6, -903.5038, 0.000502357, -0.023908483, -1617650.6, 12297.654 
4.500696e+1, 1.4367443e+2, -1522988.5, -1562961.8, -925.6255, 0.0017067092, -0.07683774, -1522967.1, 9018.31 
4.5008117e+1, 1.5367094e+2, -1420862.0, -1462910.0, -972.5172, -0.0014216647, -0.053782225, -1420839.5, 13180.137 
4.5009282e+1, 1.6366649e+2, -1330626.1, -1386929.4, -1088.56, -0.0021591806, -0.043061025, -1330605.1, 5458.1797 
4.501047e+1, 1.7366101e+2, -1229231.8, -1287390.8, -974.04095, 0.0012208587, -0.054222427, -1229215.5, 8901.4375 
4.5011616e+1, 1.8365483e+2, -1138675.3, -1210442.3, -1123.3641, 0.00216877, -0.057459246, -1138657.8, 1519.8723 
4.5012695e+1, 1.9364797e+2, -1036706.56, -1110470.6, -1302.6101, -0.0010113344, -0.050514802, -1036683.56, 5561.212 
4.50138e+1, 2.0364024e+2, -946602.3, -1034611.56, -1277.9596, -0.0022041032, -0.048055384, -946583.75, -2263.3142 
4.5014963e+1, 2.136316e+2, -845316.44, -935076.25, -1152.4268, -0.000014124427, -0.055368066, -845301.7, 1103.3574 
4.501609e+1, 2.2362223e+2, -754960.0, -858471.2, -1257.8516, 0.0010987072, -0.05679162, -754944.75, -6447.832 
4.5017174e+1, 2.3361215e+2, -653011.2, -758507.7, -1327.8586, 0.00033752626, -0.05088258, -652994.44, -2398.7263 
4.501828e+1, 2.4360123e+2, -562630.1, -682270.06, -1164.91, -0.000297057, -0.04807486, -562618.75, -9915.961 
4.501942e+1, 2.5358942e+2, -461078.8, -582527.5, -1148.5447, -0.0006825847, -0.05309982, -461067.94, -6249.4614 
4.5020577e+1, 2.6357684e+2, -370579.72, -505818.25, -1088.4784, -0.00067110726, -0.055137027, -370570.97, -13629.27 
4.502174e+1, 2.7356353e+2, -268741.2, -405797.47, -1057.6506, 0.000005505354, -0.054869983, -268733.03, -9660.774 
4.502291e+1, 2.8354922e+2, -181215.14, -335695.56, -1021.8784, 0.00031103764, -0.0529598, -181208.38, -19995.838 
4.5024073e+1, 2.9353383e+2, -79330.555, -236096.7, -1124.0018, -0.00002942073, -0.051151376, -79322.5, -15959.269 
4.5025295e+1, 3.0352184e+2, 22441.313, -83670.66, -680.8303, -0.0003027808, -0.05018823, 22445.682, 22445.682 
4.5026603e+1, 3.1351352e+2, 27290.24, -79491.93, -587.2501, -0.0004318202, -0.053929873, 27293.469, 27293.469 
5.500568e+1, 1.2367918e+2, -1709475.0, -1727857.3, 676.6931, 0.0012186813, -0.06418684, -1709450.1, 18488.81 
5.500705e+1, 1.3367686e+2, -1617977.8, -1648853.3, 13.781714, -0.001890453, -0.02178796, -1617977.8, 11984.041 
5.500849e+1, 1.4367303e+2, -1523139.3, -1563270.9, 102.05496, -0.00091520225, -0.0735067, -1523139.0, 8860.126 
5.500998e+1, 1.5366946e+2, -1420992.8, -1463177.1, 74.865524, 0.0018931101, -0.056111928, -1420992.6, 13041.403 
5.5011415e+1, 1.6366501e+2, -1330449.8, -1386564.3, -188.04872, 0.0020017165, -0.046349168, -1330449.1, 5628.584 
5.501276e+1, 1.7365964e+2, -1229008.6, -1286930.0, -93.28353, -0.0022213755, -0.05059996, -1229008.4, 9122.03 
5.5014133e+1, 1.8365346e+2, -1138917.0, -1210940.1, -138.0833, -0.0031883633, -0.05270079, -1138916.8, 1274.286 
5.501556e+1, 1.9364649e+2, -1037023.6, -1111123.4, -297.27826, 0.0012659032, -0.054294232, -1037022.44, 5236.9126 
5.501694e+1, 2.0363872e+2, -946470.8, -1034338.2, -414.33557, 0.0028479113, -0.053755797, -946468.9, -2133.5022 
5.501827e+1, 2.136302e+2, -845114.0, -934656.6, -310.43826, -0.0004367007, -0.051837437, -845112.94, 1305.9332 
5.501961e+1, 2.2362086e+2, -755002.6, -858557.8, -282.39746, -0.0020409876, -0.05091632, -755001.9, -6491.494 
5.502098e+1, 2.3361069e+2, -653096.25, -758681.75, -330.5441, -0.0007316881, -0.054386582, -653095.2, -2485.0356 
5.502236e+1, 2.4359971e+2, -562655.2, -682319.25, -253.82982, 0.00016313561, -0.054646596, -562654.6, -9937.031 
5.502374e+1, 2.53588e+2, -461093.2, -582554.8, -252.96431, 0.00029687624, -0.051877793, -461092.66, -6260.0444 
5.5025136e+1, 2.6357543e+2, -370521.53, -505695.16, -145.79515, 0.0002513382, -0.05013021, -370521.38, -13565.911 
5.502655e+1, 2.735621e+2, -268674.38, -405655.13, -110.283104, -0.000076700046, -0.053131543, -268674.28, -9588.074 
5.502797e+1, 2.8354776e+2, -181352.77, -335977.63, -0.18470354, -0.00050155487, -0.05366299, -181352.77, -20126.016 
5.5029404e+1, 2.9353234e+2, -79502.58, -236452.3, -92.86126, -0.0010700533, -0.052686434, -79502.52, -16124.783 
5.50309e+1, 3.0352035e+2, 22471.135, -83605.81, 288.36874, -0.0007986044, -0.051792186, 22471.918, 22471.918 
5.503248e+1, 3.1351206e+2, 27349.084, -79359.62, 367.27914, 0.00092561037, -0.05434863, 27350.35, 27350.35 
6.500674e+1, 1.2367752e+2, -1709254.0, -1727722.1, -489.0559, 0.0013239486, -0.06492627, -1709241.0, 18714.195 
6.500838e+1, 1.3367517e+2, -1617425.9, -1648942.0, -1162.5892, -0.0019974094, -0.021379434, -1617383.0, 12595.268 
6.501007e+1, 1.4367133e+2, -1522352.6, -1562985.6, -1032.9376, -0.00088623125, -0.07264156, -1522326.4, 9689.336 
6.501181e+1, 1.5366775e+2, -1420956.5, -1463220.6, -969.4738, 0.001677358, -0.05640006, -1420934.3, 13116.664 
6.50135e+1, 1.636633e+2, -1330636.9, -1386645.8, -1247.8475, 0.001800202, -0.04696679, -1330609.0, 5485.5596 
6.501511e+1, 1.7365792e+2, -1228603.6, -1286715.9, -1369.1958, -0.0019507053, -0.050153535, -1228571.4, 9575.791 
6.501673e+1, 1.8365175e+2, -1138441.1, -1210833.5, -1493.5651, -0.002818836, -0.052082293, -1138410.3, 1797.4669 
6.5018386e+1, 1.9364475e+2, -1037133.94, -1111327.6, -1426.1674, 0.0010919052, -0.054988883, -1037106.56, 5169.856 
6.502002e+1, 2.0363697e+2, -946705.9, -1034437.44, -1501.9216, 0.0024599896, -0.05464794, -946680.2, -2327.6772 
6.5021586e+1, 2.1362849e+2, -844976.44, -934551.1, -1587.7971, -0.00047377683, -0.05104895, -844948.3, 1487.4797 
6.502317e+1, 2.2361913e+2, -754784.2, -858435.5, -1591.4026, -0.001888697, -0.049641892, -754759.75, -6232.5483 
6.5024793e+1, 2.3360895e+2, -653241.94, -758742.3, -1538.9955, -0.000680114, -0.054649077, -653219.5, -2592.319 
6.502642e+1, 2.4359797e+2, -562988.94, -682476.44, -1426.1558, 0.00013108026, -0.055703625, -562971.9, -10237.231 
6.502805e+1, 2.5358623e+2, -461308.63, -582657.5, -1416.4441, 0.00020483375, -0.05243921, -461292.1, -6442.4897 
6.5029687e+1, 2.6357374e+2, -370717.13, -505775.3, -1310.9324, 0.00014613908, -0.049980294, -370704.4, -13732.006 
6.5031344e+1, 2.735604e+2, -269046.63, -405821.06, -1339.528, -0.00011609006, -0.051932395, -269033.5, -9930.454 
6.503303e+1, 2.8354606e+2, -181677.4, -336091.97, -1053.5736, -0.00048001594, -0.05265724, -181670.22, -20426.64 
6.5034753e+1, 2.935306e+2, -79441.14, -236378.73, -919.21216, -0.001012173, -0.05400353, -79435.75, -16041.023 
6.5036505e+1, 3.0351862e+2, 22456.84, -83552.07, -621.8292, -0.00078648457, -0.053513624, 22460.486, 22460.486 
6.503832e+1, 3.135104e+2, 26425.592, -79743.66, -611.005, 0.0007665037, -0.05310274, 26429.11, 26429.11 
7.5007784e+1, 1.2367559e+2, -1709138.8, -1727483.4, 656.5442, -0.00073493144, -0.06306778, -1709115.4, 18858.836 
7.5009745e+1, 1.3367319e+2, -1617584.6, -1649265.6, -96.445305, 0.0001644033, -0.02267966, -1617584.3, 12413.392 
7.5011706e+1, 1.4366934e+2, -1522330.1, -1562936.4, -160.6842, 0.0017683944, -0.07422837, -1522329.5, 9705.822 
7.50136e+1, 1.536658e+2, -1420905.9, -1463115.9, -125.303406, -0.0020655016, -0.05465637, -1420905.5, 13164.627 
7.5015527e+1, 1.6366133e+2, -1330801.3, -1386984.5, -242.71263, -0.0027607593, -0.04492189, -1330800.1, 5313.638 
7.5017494e+1, 1.7365588e+2, -1228805.8, -1287129.6, -334.55203, 0.0019955982, -0.052862227, -1228803.9, 9363.308 
7.5019395e+1, 1.8364969e+2, -1138362.1, -1210667.3, -616.7779, 0.0032262197, -0.055576976, -1138356.9, 1870.9424 
7.50212e+1, 1.9364277e+2, -1037010.9, -1111073.0, -572.21436, -0.0015226451, -0.05262441, -1037006.5, 5289.3325 
7.502303e+1, 2.03635e+2, -946819.0, -1034670.9, -579.54443, -0.0033428422, -0.050763953, -946815.2, -2443.4583 
7.502491e+1, 2.1362643e+2, -845131.4, -934868.7, -652.4485, -0.00015102112, -0.052979156, -845126.6, 1329.1721 
7.5026774e+1, 2.2361708e+2, -754724.5, -858308.3, -685.514, 0.0015056907, -0.052931096, -754719.94, -6172.5337 
7.502861e+1, 2.3360696e+2, -653147.3, -758545.0, -638.3984, 0.00047698864, -0.051703613, -653143.44, -2496.806 
7.5030464e+1, 2.43596e+2, -562961.3, -682417.25, -502.57974, -0.00040184744, -0.051295575, -562959.2, -10205.266 
7.5032336e+1, 2.535842e+2, -461297.03, -582628.5, -490.39218, -0.00096236425, -0.054762, -461295.06, -6425.5806 
7.503422e+1, 2.6357165e+2, -370761.47, -505861.75, -405.70355, -0.0009924073, -0.054634795, -370760.25, -13767.775 
7.5036126e+1, 2.7355838e+2, -269097.97, -405926.4, -440.27478, -0.00012474746, -0.051268596, -269096.53, -9973.833 
7.5038075e+1, 2.8354406e+2, -181493.03, -335705.47, 46.975357, 0.0003482918, -0.04996421, -181493.02, -20230.041 
7.504011e+1, 2.9352862e+2, -79228.195, -235919.83, 211.17032, 0.00011780565, -0.055109967, -79227.914, -15813.727 
7.504212e+1, 3.0351666e+2, 22489.488, -83466.82, 153.93826, -0.00028419864, -0.05535119, 22489.71, 22489.71 
7.504409e+1, 3.1350845e+2, 26440.238, -79718.16, 99.20298, -0.00092491077, -0.050220758, 26440.33, 26440.33 
8.500889e+1, 1.2367338e+2, -1707855.3, -1726656.0, -363.75253, -0.00066759455, -0.06214186, -1707848.3, 20147.645 
8.5011095e+1, 1.3367093e+2, -1617812.5, -1649664.3, -1230.8953, -0.00007345462, -0.023321675, -1617765.0, 12254.722 
8.50133e+1, 1.4366709e+2, -1522739.4, -1563191.4, -1270.9413, 0.0017913273, -0.074925914, -1522699.5, 9358.09 
8.5015464e+1, 1.5366355e+2, -1420189.4, -1462790.3, -1291.8562, -0.0018646974, -0.054252405, -1420150.3, 13941.938 
8.501764e+1, 1.6365907e+2, -1329863.6, -1386680.4, -1501.1779, -0.0025848271, -0.04428155, -1329824.0, 6311.9746 
8.5019845e+1, 1.7365359e+2, -1228935.9, -1287369.3, -1510.9688, 0.0018326892, -0.05342643, -1228896.9, 9292.723 
8.502199e+1, 1.836474e+2, -1138759.9, -1210811.4, -1720.7687, 0.0029313616, -0.05629323, -1138718.9, 1531.5923 
8.5024047e+1, 1.9364049e+2, -1036700.7, -1110840.9, -1741.5538, -0.00161006, -0.05173486, -1036659.8, 5658.3438 
8.502612e+1, 2.0363274e+2, -946372.56, -1034517.56, -1833.0946, -0.0032563468, -0.049614146, -946334.5, -1940.4629 
8.502823e+1, 2.1362413e+2, -845270.7, -935026.1, -1816.6488, 0.000037688034, -0.05383607, -845233.94, 1244.3823 
8.503033e+1, 2.2361478e+2, -755082.25, -858526.75, -1759.8613, 0.0016144932, -0.054384485, -755052.3, -6482.203 
8.5032415e+1, 2.3360465e+2, -653188.25, -758605.0, -1826.7933, 0.00020440052, -0.051350452, -653156.6, -2487.4111 
8.503451e+1, 2.4359372e+2, -562881.94, -682285.75, -1814.2195, -0.000716488, -0.050059445, -562854.4, -10078.027 
8.503661e+1, 2.5358194e+2, -461650.75, -582688.75, -1757.7463, -0.00074238575, -0.054247975, -461625.25, -6733.3564 
8.503875e+1, 2.6356936e+2, -371239.5, -506119.66, -1522.3888, -0.00068069354, -0.05493345, -371222.3, -14207.42 
8.504091e+1, 2.7355608e+2, -268933.34, -405899.97, -1523.7559, -0.0004902978, -0.052492622, -268916.38, -9771.109 
8.5043114e+1, 2.8354177e+2, -181445.94, -335489.9, -1144.3766, -0.0001256906, -0.050925348, -181437.44, -20151.963 
8.5045385e+1, 2.935264e+2, -81035.39, -236561.56, -1081.8536, 0.0005242078, -0.0537673, -81027.87, -17591.59 
8.504766e+1, 3.0351442e+2, 20567.838, -84263.68, -949.7712, 0.00025016945, -0.053574737, 20576.443, 20576.443 
8.504992e+1, 3.135062e+2, 27640.516, -79032.164, -914.9197, -0.0015902793, -0.051295433, 27648.361, 27648.361 
9.501005e+1, 1.2367088e+2, -1707717.9, -1726368.4, 489.597, 0.001488584, -0.062100142, -1707705.1, 20315.186 
9.50124e+1, 1.3366841e+2, -1618023.4, -1650096.3, -474.1087, -0.0027092416, -0.023308922, -1618016.4, 12028.102 
9.501485e+1, 1.4366454e+2, -1522834.6, -1563387.6, -191.01434, -0.00082647655, -0.07473019, -1522833.8, 9248.669 
9.50174e+1, 1.5366098e+2, -1420271.6, -1462956.5, -159.01889, 0.0022336745, -0.055176448, -1420271.0, 13846.3 
9.5019835e+1, 1.636565e+2, -1329895.5, -1386742.8, -696.474, 0.0022843643, -0.04503286, -1329887.0, 6274.13 
9.502215e+1, 1.7365104e+2, -1228959.3, -1287419.3, -753.8388, -0.0024164575, -0.05186167, -1228949.5, 9265.028 
9.5024496e+1, 1.8364485e+2, -1138776.0, -1210847.4, -726.52734, -0.0036767595, -0.054249633, -1138768.8, 1506.6582 
9.502692e+1, 1.9363791e+2, -1036722.8, -1110883.0, -707.0824, 0.0007889163, -0.052303303, -1036716.06, 5627.269 
9.502928e+1, 2.0363016e+2, -946344.0, -1034452.8, -1016.0846, 0.0026518053, -0.051172137, -946332.3, -1912.9926 
9.503155e+1, 2.1362159e+2, -845231.6, -934946.25, -1033.731, 0.000080970334, -0.053634364, -845219.75, 1283.6349 
9.503384e+1, 2.2361222e+2, -755198.3, -858768.94, -805.10394, -0.0015427434, -0.054022297, -755192.06, -6596.897 
9.50362e+1, 2.3360205e+2, -653336.9, -758906.75, -843.4352, -0.0014895987, -0.053556904, -653330.1, -2635.4011 
9.503856e+1, 2.4359111e+2, -562799.56, -682106.25, -980.3795, -0.00082643953, -0.051958717, -562791.5, -9989.532 
9.50409e+1, 2.5357938e+2, -461527.78, -582431.94, -950.4218, 0.0008306663, -0.050944373, -461520.3, -6603.513 
9.504327e+1, 2.6356685e+2, -371234.06, -506106.56, -486.02707, 0.0010474258, -0.050935514, -371232.3, -14192.636 
9.504569e+1, 2.7355346e+2, -268958.3, -405938.78, -451.6051, -0.001214986, -0.055572473, -268956.8, -9786.119 
9.5048136e+1, 2.8353915e+2, -181398.94, -335377.75, -444.85278, -0.0018979127, -0.055483952, -181397.66, -20086.639 
9.505059e+1, 2.9352388e+2, -80964.93, -236420.13, -449.86462, 0.00020734481, -0.05002468, -80963.63, -17502.668 
9.505313e+1, 3.0351192e+2, 20688.775, -84017.46, 459.30527, 0.00080597226, -0.04824401, 20690.79, 20690.79 
9.50558e+1, 3.135036e+2, 27742.07, -78789.71, 624.99457, -0.0012731056, -0.05625434, 27745.736, 27745.736 
1.05011195e+2, 1.2366815e+2, -1707584.4, -1726210.6, -268.02838, 0.001540233, -0.06275182, -1707580.5, 20466.574 
1.050138e+2, 1.3366565e+2, -1617008.8, -1650125.4, -1443.2576, -0.002707354, -0.022950204, -1616946.0, 13125.535 
1.0501649e+2, 1.4366175e+2, -1521386.5, -1562846.8, -1234.137, -0.000562749, -0.07357708, -1521349.8, 10760.003 
1.0501927e+2, 1.5365815e+2, -1420360.4, -1463113.5, -1192.8469, 0.0021787123, -0.055670936, -1420327.1, 13817.74 
1.0502197e+2, 1.6365367e+2, -1330417.6, -1387041.9, -1717.9929, 0.0020604702, -0.045938086, -1330365.6, 5823.2695 
1.0502453e+2, 1.7364824e+2, -1228109.3, -1287044.5, -1770.7283, -0.0025170788, -0.05107643, -1228056.1, 10186.061 
1.05027124e+2, 1.8364203e+2, -1137677.4, -1210425.6, -1859.6534, -0.0036058852, -0.053190228, -1137629.9, 2673.119 
1.0502977e+2, 1.9363506e+2, -1037165.6, -1111227.3, -1917.0974, 0.0010848623, -0.053349853, -1037116.06, 5255.238 
1.0503236e+2, 2.0362729e+2, -947190.5, -1034890.56, -2173.4438, 0.0028598332, -0.052641228, -947136.7, -2689.3035 
1.0503487e+2, 2.1361874e+2, -844726.8, -934715.8, -2222.375, -0.0003123753, -0.05266991, -844671.94, 1859.2673 
1.0503741e+2, 2.2360937e+2, -754326.7, -858311.94, -2099.8464, -0.0020235528, -0.05235114, -754284.3, -5661.3516 
1.0503999e+2, 2.335992e+2, -653855.06, -759120.6, -1985.32, -0.001190582, -0.054135807, -653817.6, -3094.977 
1.0504258e+2, 2.4358825e+2, -563826.25, -682618.7, -1927.8867, -0.00034856758, -0.053479426, -563795.0, -10965.018 
1.0504517e+2, 2.5357655e+2, -461455.75, -582424.7, -2023.1836, 0.00044692642, -0.051131673, -461421.9, -6477.18 
1.05047785e+2, 2.6356402e+2, -370934.34, -505890.0, -1692.1176, 0.0004800651, -0.050199773, -370913.13, -13845.644 
1.0505045e+2, 2.7355066e+2, -270114.4, -406413.97, -1600.8486, -0.0007800937, -0.054667052, -270095.6, -10897.167 
1.0505314e+2, 2.8353634e+2, -182693.88, -335996.88, -1517.3075, -0.0013352715, -0.055020154, -182678.86, -21340.105 
1.05055824e+2, 2.9352102e+2, -79980.53, -235956.31, -1593.7539, -0.0006480658, -0.051040072, -79964.25, -16475.41 
1.0505863e+2, 3.035091e+2, 21787.434, -83394.1, -682.9147, -0.00021371985, -0.04946323, 21791.867, 21791.867 
1.0506158e+2, 3.135008e+2, 24969.627, -80018.85, -568.2545, -0.00023408746, -0.055426147, 24972.703, 24972.703 
1.1501232e+2, 1.23665184e+2, -1707609.9, -1726258.0, 885.82416, -0.0005425495, -0.06405324, -1707567.9, 20508.307 
1.1501526e+2, 1.3366264e+2, -1617470.0, -1651067.6, -358.3669, -0.00009641598, -0.022244109, -1617466.1, 12634.902 
1.1501822e+2, 1.4365871e+2, -1521503.8, -1563083.9, -465.95984, 0.0025534038, -0.07146845, -1521498.5, 10641.035 
1.1502112e+2, 1.536551e+2, -1420424.1, -1463246.8, -471.69406, -0.0020098772, -0.05574016, -1420419.0, 13756.026 
1.1502402e+2, 1.6365059e+2, -1330443.4, -1387097.6, -660.0055, -0.0032339203, -0.046993513, -1330435.6, 5783.5015 
1.1502698e+2, 1.7364515e+2, -1228136.1, -1287096.3, -655.49677, 0.0014718625, -0.05106627, -1228128.9, 10143.525 
1.1502985e+2, 1.8363895e+2, -1137805.6, -1210684.0, -1164.7809, 0.003066918, -0.053102095, -1137787.0, 2546.2625 
1.15032576e+2, 1.9363193e+2, -1037306.2, -1111521.4, -1286.1608, -0.00070054136, -0.054870207, -1037283.9, 5118.0317 
1.15035355e+2, 2.0362416e+2, -947253.06, -1035025.25, -1107.245, -0.0025745532, -0.05402088, -947239.06, -2760.9517 
1.15038216e+2, 2.1361561e+2, -844788.5, -934834.3, -1084.9331, -0.001151805, -0.05095382, -844775.44, 1786.356 
1.1504103e+2, 2.2360627e+2, -754176.9, -857988.75, -1412.8729, 0.000121354184, -0.04939018, -754157.7, -5504.3013 
1.1504378e+2, 2.3359612e+2, -653665.44, -758728.44, -1371.9989, 0.0010653983, -0.053110592, -653647.5, -2894.5308 
1.1504657e+2, 2.4358514e+2, -563929.25, -682836.44, -896.39124, 0.0007012817, -0.054624226, -563922.5, -11062.098 
1.15049414e+2, 2.535734e+2, -461618.5, -582752.25, -923.8177, -0.001869105, -0.054748222, -461611.47, -6635.8755 
1.1505228e+2, 2.635609e+2, -370861.38, -505723.34, -947.89636, -0.002354279, -0.052672677, -370854.72, -13756.401 
1.1505517e+2, 2.7354762e+2, -269997.5, -406166.44, -918.12195, 0.0007807747, -0.04986071, -269991.3, -10762.864 
1.1505812e+2, 2.835333e+2, -182744.14, -336095.66, -355.70792, 0.0015000894, -0.049629048, -182743.31, -21374.678 
1.1506109e+2, 2.9351786e+2, -80075.29, -236130.23, -354.5084, -0.0020390393, -0.056703653, -80074.484, -16554.65 
1.1506414e+2, 3.035059e+2, 21772.762, -83399.67, -61.83229, -0.0027834037, -0.057093985, 21772.797, 21772.797 
1.1506728e+2, 3.1349775e+2, 24983.018, -79990.35, -57.890114, 0.0014842291, -0.04895151, 24983.049, 24983.049 
1.2501352e+2, 1.2366192e+2, -1705973.9, -1725153.3, -424.80603, -0.0007013529, -0.063374676, -1705964.4, 22143.695 
1.250167e+2, 1.3365933e+2, -1617628.3, -1651534.4, -1526.483, -0.00007224955, -0.023325011, -1617559.6, 12573.812 
1.250199e+2, 1.4365537e+2, -1521845.5, -1563449.3, -1518.4081, 0.0029057083, -0.07184778, -1521790.3, 10381.969 
1.2502304e+2, 1.5365174e+2, -1419334.1, -1462889.8, -1568.0088, -0.0022308852, -0.05495508, -1419277.8, 14929.896 
1.2502618e+2, 1.6364725e+2, -1329091.4, -1386548.0, -1829.2518, -0.0035484738, -0.046161994, -1329033.3, 7218.714 
1.2502939e+2, 1.7364179e+2, -1228581.3, -1287416.6, -1869.2559, 0.0018883266, -0.05205565, -1228521.9, 9783.492 
1.2503248e+2, 1.8363556e+2, -1138654.4, -1211181.0, -2365.8647, 0.0035690696, -0.054333407, -1138577.3, 1789.1299 
1.2503545e+2, 1.9362856e+2, -1036232.2, -1111085.9, -2392.573, -0.0011964141, -0.053685397, -1036155.8, 6279.1226 
1.2503844e+2, 2.0362079e+2, -945789.3, -1034329.5, -2186.1685, -0.0033092997, -0.052330256, -945735.4, -1224.1971 
1.2504153e+2, 2.1361223e+2, -845664.44, -935268.56, -2117.8967, -0.0008423399, -0.052008215, -845614.44, 980.64594 
1.2504458e+2, 2.2360288e+2, -755785.94, -858765.5, -2437.6953, 0.00079023355, -0.0511978, -755728.25, -7041.5337 
1.2504756e+2, 2.3359273e+2, -653273.5, -758537.2, -2584.8027, 0.0009163097, -0.052252855, -653210.06, -2423.9695 
1.2505059e+2, 2.4358177e+2, -562907.7, -682364.56, -2187.9197, 0.00021356049, -0.05281997, -562867.6, -9974.227 
1.2505366e+2, 2.5357002e+2, -462305.66, -583117.5, -2077.9272, -0.0018637046, -0.054987878, -462269.94, -7261.095 
1.2505676e+2, 2.6355746e+2, -372075.9, -506146.72, -2031.5366, -0.0021787842, -0.053904507, -372045.13, -14913.526 
1.2505989e+2, 2.7354422e+2, -270006.72, -405978.38, -2005.6362, 0.0005495173, -0.050217226, -269977.13, -10715.644 
1.2506306e+2, 2.8352994e+2, -182720.48, -336073.2, -1270.4099, 0.0012607193, -0.049365357, -182709.95, -21308.445 
1.2506631e+2, 2.935145e+2, -81751.44, -236965.61, -1181.2821, -0.0015875018, -0.056292705, -81742.45, -18189.723 
1.2506962e+2, 3.0350256e+2, 19993.342, -83993.67, -950.1383, -0.0023500798, -0.056806132, 20002.021, 20002.021 
1.2507296e+2, 3.134944e+2, 25388.982, -79485.39, -795.1887, 0.00064964424, -0.049269702, 25395.01, 25395.01 
1.3501477e+2, 1.2365838e+2, -1705562.5, -1724304.8, 396.42642, 0.0010365149, -0.060692593, -1705554.0, 22588.832 
1.3501811e+2, 1.3365573e+2, -1617667.8, -1651616.9, -789.6293, -0.0026255555, -0.02617693, -1617649.4, 12519.387 
1.3502155e+2, 1.4365177e+2, -1521982.5, -1563732.1, -477.905, 0.00049515784, -0.074702166, -1521977.0, 10230.518 
1.3502504e+2, 1.5364817e+2, -1419491.1, -1463210.0, -476.78342, 0.0014586928, -0.05332633, -1419485.9, 14756.958 
1.3502844e+2, 1.6364364e+2, -1329203.6, -1386775.3, -1128.5636, 0.0010613519, -0.043465126, -1329181.5, 7105.7344 
1.3503174e+2, 1.7363812e+2, -1228685.6, -1287636.1, -1226.2778, -0.0012306556, -0.05403218, -1228660.1, 9681.132 
1.3503504e+2, 1.8363188e+2, -1138636.0, -1211147.4, -1299.3206, -0.0020405175, -0.05687494, -1138612.8, 1789.6475 
1.3503836e+2, 1.9362496e+2, -1036204.1, -1111020.6, -1256.2, -0.00043720182, -0.04983916, -1036183.0, 6287.2876 
1.3504164e+2, 2.036172e+2, -945750.0, -1034237.56, -1583.4845, 0.00058020046, -0.047611598, -945721.6, -1175.2762 
1.3504484e+2, 2.1360855e+2, -845619.0, -935177.8, -1600.0703, 0.0005885333, -0.05578327, -845590.4, 1040.6061 
1.3504806e+2, 2.2359917e+2, -755933.25, -859076.5, -1382.4088, -0.0000064417677, -0.05769658, -755914.7, -7191.775 
1.3505132e+2, 2.3358908e+2, -653463.06, -758920.7, -1441.3848, -0.0016004174, -0.05156264, -653443.4, -2621.413 
1.3505462e+2, 2.4357815e+2, -562843.25, -682215.0, -1470.4395, -0.0017973286, -0.048121538, -562825.1, -9896.134 
1.3505791e+2, 2.5356638e+2, -462199.0, -582886.75, -1431.6719, 0.0004030904, -0.05191894, -462182.03, -7137.614 
1.3506123e+2, 2.6355383e+2, -371956.66, -505892.5, -1081.508, 0.00093595544, -0.053915236, -371947.9, -14780.618 
1.3506456e+2, 2.7354056e+2, -269891.5, -405729.3, -1008.7119, -0.0014376232, -0.055613667, -269884.0, -10586.52 
1.3506798e+2, 2.8352627e+2, -182669.58, -335954.13, -448.3857, -0.0019976867, -0.054114304, -182668.27, -21230.95 
1.350715e+2, 2.9351094e+2, -81715.43, -236874.61, -391.60953, 0.0006435151, -0.04997036, -81714.445, -18126.97 
1.3507506e+2, 3.0349904e+2, 20306.021, -83324.36, 90.50357, 0.0010032521, -0.048795305, 20306.1, 20306.1 
1.3507861e+2, 3.134908e+2, 25742.773, -78727.6, 281.70218, -0.0026838647, -0.05618045, 25743.533, 25743.533 
1.4501606e+2, 1.2365462e+2, -1704939.6, -1723877.3, -66.55897, 0.0018602879, -0.060579177, -1704939.4, 23240.354 
1.450196e+2, 1.3365191e+2, -1616647.1, -1651788.4, -1727.5496, -0.0033101824, -0.026413798, -1616562.4, 13643.823 
1.4502327e+2, 1.4364792e+2, -1520579.3, -1563194.6, -1577.6033, -0.0001445809, -0.073727526, -1520520.9, 11724.329 
1.4502701e+2, 1.5364431e+2, -1419419.1, -1463245.4, -1455.9125, 0.0021146778, -0.0539725, -1419370.8, 14910.015 
1.4503065e+2, 1.6363975e+2, -1329518.9, -1387068.0, -2105.7283, 0.0019334804, -0.044396296, -1329442.0, 6883.2837 
1.4503415e+2, 1.7363425e+2, -1227608.9, -1287268.8, -2202.3704, -0.0019213005, -0.052958492, -1227527.6, 10851.584 
1.4503768e+2, 1.8362801e+2, -1137348.4, -1210578.5, -2255.1238, -0.0031100595, -0.055422608, -1137279.0, 3161.4438 
1.4504124e+2, 1.9362105e+2, -1036892.4, -1111403.3, -2269.5615, 0.00010195664, -0.050779376, -1036823.3, 5685.2754 
1.4504476e+2, 2.0361328e+2, -946967.4, -1034889.56, -2754.1492, 0.0016693261, -0.049138635, -946881.2, -2296.4014 
1.4504816e+2, 2.1360466e+2, -844878.4, -934886.6, -2873.7002, 0.00042395698, -0.05481035, -844786.75, 1882.4985 
1.450516e+2, 2.2359528e+2, -754622.3, -858503.2, -2553.745, -0.0007945419, -0.0560696, -754559.56, -5798.4316 
1.4505512e+2, 2.3358515e+2, -653989.44, -759243.4, -2449.7908, -0.0019155265, -0.052473642, -653932.5, -3072.0286 
1.4505862e+2, 2.4357422e+2, -564120.56, -682689.56, -2510.9907, -0.0016731112, -0.049774874, -564067.4, -11099.825 
1.4506212e+2, 2.5356248e+2, -462683.22, -582946.75, -2495.6663, 0.00087430916, -0.051189948, -462631.44, -7548.834 
1.4506567e+2, 2.6354995e+2, -372170.8, -506039.5, -2030.2063, 0.0013048206, -0.052346542, -372140.03, -14934.692 
1.4506924e+2, 2.7353665e+2, -270385.7, -406055.47, -2111.8154, -0.0019382914, -0.055915244, -270352.84, -11017.056 
1.4507289e+2, 2.8352237e+2, -183191.16, -335968.47, -1780.896, -0.0027101932, -0.05509748, -183170.39, -21694.771 
1.4507663e+2, 2.9350707e+2, -82390.25, -236912.73, -1618.3887, 0.0008701206, -0.049519468, -82373.305, -18747.896 
1.4508043e+2, 3.034952e+2, 19377.504, -83598.66, -897.1037, 0.0015292473, -0.04791715, 19385.318, 19385.318 
1.4508428e+2, 3.1348696e+2, 24625.053, -79120.74, -952.58136, -0.0030087125, -0.05666318, 24633.799, 24633.799 
1.5501733e+2, 1.2365065e+2, -1705194.4, -1724398.1, 964.0025, 0.0017476141, -0.06299048, -1705146.1, 23072.457 
1.5502115e+2, 1.3364789e+2, -1617458.3, -1653453.3, -757.3007, -0.00215427, -0.024065351, -1617442.4, 12803.353 
1.5502505e+2, 1.4364384e+2, -1520629.3, -1563296.5, -816.6607, 0.0009611779, -0.06895831, -1520613.6, 11671.544 
1.5502895e+2, 1.5364015e+2, -1419352.4, -1463111.4, -726.1901, -0.00023942406, -0.05686616, -1419340.4, 14981.005 
1.5503283e+2, 1.6363561e+2, -1329585.1, -1387207.0, -1137.5214, -0.00090572645, -0.04892297, -1329562.6, 6803.2524 
1.5503664e+2, 1.7363018e+2, -1227702.0, -1287457.8, -1192.3737, -0.00023478203, -0.04888311, -1227678.3, 10740.995 
1.550404e+2, 1.8362391e+2, -1137439.3, -1210760.9, -1588.5237, 0.00028476206, -0.05003127, -1137404.9, 3075.649 
1.5504411e+2, 1.9361685e+2, -1036983.0, -1111593.9, -1655.2307, 0.00041880645, -0.056421906, -1036946.25, 5603.474 
1.550478e+2, 2.0360903e+2, -947086.9, -1035140.75, -1777.7917, -0.0000038884004, -0.056818273, -947051.0, -2424.7495 
1.5505148e+2, 2.1360053e+2, -845010.56, -935153.3, -1837.511, -0.0013235863, -0.049190983, -844973.1, 1736.6122 
1.5505518e+2, 2.235912e+2, -754560.2, -858362.3, -1843.8142, -0.0015948407, -0.046469245, -754527.44, -5726.1167 
1.5505889e+2, 2.3358095e+2, -653898.8, -759047.7, -1793.2509, -0.00008679825, -0.05493997, -653868.25, -2966.6948 
1.550626e+2, 2.4356997e+2, -564017.25, -682470.44, -1685.1981, 0.00052647357, -0.057640072, -563993.25, -10984.242 
1.550663e+2, 2.535583e+2, -462578.13, -582726.3, -1644.1978, -0.0004169605, -0.052748635, -462555.63, -7432.2754 
1.5507007e+2, 2.6354584e+2, -372349.44, -506403.28, -1112.7198, -0.0010224462, -0.049238037, -372340.2, -15094.518 
1.5507393e+2, 2.735325e+2, -270627.16, -406532.75, -1182.7428, -0.0010055718, -0.051260956, -270616.88, -11240.551 
1.5507782e+2, 2.8351822e+2, -182974.08, -335487.34, -1006.881, -0.0009543237, -0.052409254, -182967.42, -21451.033 
1.5508172e+2, 2.935029e+2, -82088.85, -236271.27, -877.716, -0.0008566439, -0.054760326, -82083.86, -18417.42 
1.5508574e+2, 3.0349103e+2, 19269.496, -83811.93, 95.46849, -0.0006990665, -0.053965107, 19269.584, 19269.584 
1.550899e+2, 3.1348288e+2, 24430.236, -79495.79, 83.08153, -0.0004495951, -0.05094634, 24430.303, 24430.303 
1.6501865e+2, 1.2364639e+2, -1703599.6, -1723352.0, -431.64587, 0.00094644376, -0.062537, -1703590.1, 24670.13 
1.6502272e+2, 1.3364357e+2, -1617150.3, -1653863.4, -1744.1787, -0.0015292381, -0.025132962, -1617067.5, 13220.435 
1.6502686e+2, 1.436395e+2, -1520338.0, -1563406.4, -1632.0634, 0.0022210614, -0.068125, -1520276.3, 12051.409 
1.6503096e+2, 1.536358e+2, -1418355.4, -1462835.8, -1748.5641, -0.0009917865, -0.056132745, -1418286.8, 16077.273 
1.6503504e+2, 1.6363123e+2, -1328541.3, -1386856.6, -2255.9019, -0.0021676377, -0.04864582, -1328454.1, 7954.703 
1.650391e+2, 1.7362577e+2, -1227768.0, -1287646.3, -2311.6687, 0.0005638158, -0.049623027, -1227678.9, 10783.543 
1.650431e+2, 1.8361951e+2, -1137747.4, -1210988.4, -2786.5415, 0.001676962, -0.050885294, -1137641.5, 2882.211 
1.6504699e+2, 1.9361244e+2, -1036195.1, -1111282.9, -2816.909, -0.000103136816, -0.055855248, -1036089.6, 6503.2783 
1.650509e+2, 2.0360462e+2, -946106.06, -1034758.94, -2793.53, -0.0012620718, -0.05588521, -946018.1, -1348.653 
1.6505483e+2, 2.135961e+2, -845341.2, -935418.5, -2773.4966, -0.0012846232, -0.04971625, -845255.9, 1497.262 
1.6505873e+2, 2.2358675e+2, -755441.3, -858720.0, -2877.3958, -0.0008319428, -0.047287077, -755361.25, -6516.422 
1.6506264e+2, 2.3357654e+2, -654312.1, -759155.75, -2885.871, 0.0003798609, -0.054012977, -654232.75, -3287.9214 
1.6506656e+2, 2.4356559e+2, -564095.3, -682536.75, -2702.257, 0.0004901494, -0.056397688, -564033.7, -10981.508 
1.6507047e+2, 2.5355387e+2, -462359.03, -582675.7, -2783.935, -0.0012850839, -0.05369026, -462294.66, -7127.881 
1.6507448e+2, 2.635414e+2, -372333.3, -506285.5, -2353.343, -0.0018219424, -0.050679028, -372291.97, -15002.846 
1.6507855e+2, 2.735281e+2, -271962.0, -407045.8, -2127.295, -0.00019395379, -0.05024417, -271928.5, -12509.072 
1.6508268e+2, 2.835138e+2, -184743.55, -336228.84, -1694.904, 0.00014697958, -0.050795168, -184724.6, -23165.244 
1.6508679e+2, 2.9349852e+2, -82634.055, -236432.4, -1796.9713, -0.0017961856, -0.055840634, -82613.06, -18903.52 
1.6509105e+2, 3.0348665e+2, 19114.963, -83757.8, -913.1873, -0.0021101297, -0.055612586, 19123.068, 19123.068 
1.6509548e+2, 3.1347856e+2, 23104.03, -80008.836, -673.7633, 0.00047009185, -0.049365953, 23108.432, 23108.432 
1.7502001e+2, 1.2364186e+2, -1703006.9, -1722135.4, 406.74072, -0.0005627552, -0.05917168, -1702998.3, 25306.545 
1.750243e+2, 1.3363898e+2, -1617057.3, -1653674.8, -968.7595, -0.0014389161, -0.029583491, -1617031.6, 13301.388 
1.7502868e+2, 1.4363493e+2, -1520607.0, -1563961.6, -745.4161, 0.0036185426, -0.07119589, -1520594.3, 11778.387 
1.7503302e+2, 1.5363124e+2, -1418684.4, -1463513.1, -841.1453, -0.0001773341, -0.05182667, -1418668.6, 15740.1 
1.7503732e+2, 1.6362664e+2, -1328673.1, -1387129.1, -1514.3844, -0.0018848317, -0.043621976, -1328633.9, 7819.9033 
1.7504157e+2, 1.7362106e+2, -1227872.9, -1287866.4, -1592.3816, 0.00048062057, -0.055094004, -1227830.6, 10677.885 
1.7504577e+2, 1.8361478e+2, -1137757.9, -1211012.9, -1911.3418, 0.0010852607, -0.057895977, -1137708.1, 2861.9617 
1.750499e+2, 1.9360785e+2, -1036196.06, -1111280.9, -1915.0614, -0.0014619663, -0.04920855, -1036147.25, 6490.759 
1.7505403e+2, 2.0360006e+2, -946109.2, -1034758.06, -2074.8604, -0.0021264553, -0.046495717, -946060.7, -1346.3652 
1.7505817e+2, 2.1359137e+2, -845349.06, -935431.5, -2083.0554, 0.00048620196, -0.05623981, -845300.94, 1498.4792 
1.7506227e+2, 2.2358197e+2, -755423.75, -858682.44, -2111.732, 0.0014449604, -0.05830135, -755380.56, -6489.085 
1.7506637e+2, 2.3357192e+2, -654291.7, -759111.9, -2108.8877, -0.00048713107, -0.049792368, -654249.3, -3259.209 
1.7507048e+2, 2.43561e+2, -564240.0, -682827.9, -1791.1193, -0.0017421267, -0.046272766, -564213.0, -11115.968 
1.7507468e+2, 2.535492e+2, -462547.22, -583041.56, -1849.7368, -0.0017581643, -0.05401897, -462518.84, -7306.0596 
1.750789e+2, 2.6353666e+2, -372044.84, -505660.6, -1730.6525, -0.0011517664, -0.05653783, -372022.44, -14686.835 
1.7508313e+2, 2.7352345e+2, -271582.8, -406252.16, -1562.2509, 0.0004931114, -0.05275863, -271564.7, -12099.66 
1.7508745e+2, 2.8350922e+2, -184833.25, -336412.63, -698.8199, 0.0005991856, -0.050228387, -184830.03, -23225.625 
1.7509186e+2, 2.934939e+2, -82826.15, -236803.7, -728.24713, -0.0019884335, -0.052905, -82822.7, -19068.049 
1.7509636e+2, 3.0348203e+2, 19343.379, -83240.695, -137.262, -0.002738197, -0.05300671, 19343.563, 19343.563 
1.7510097e+2, 3.1347394e+2, 23406.557, -79343.1, 45.505123, -0.00020902506, -0.05176965, 23406.576, 23406.576 
1.8502143e+2, 1.2363713e+2, -1701948.1, -1721409.4, 1.4221866, 0.00031854075, -0.05844877, -1701948.1, 26403.021 
1.8502593e+2, 1.3363416e+2, -1616255.1, -1653914.6, -1942.7211, -0.0022943201, -0.031084497, -1616155.1, 14224.971 
1.8503052e+2, 1.436301e+2, -1519545.6, -1563672.6, -1927.5897, 0.0028601, -0.070479296, -1519461.6, 12958.315 
1.8503511e+2, 1.5362638e+2, -1418051.4, -1463376.1, -1793.4034, 0.0006989067, -0.051927935, -1417980.5, 16475.793 
1.8503962e+2, 1.6362178e+2, -1328187.9, -1387028.9, -2390.1987, -0.0007156942, -0.04398267, -1328090.9, 8410.581 
1.8504405e+2, 1.736162e+2, -1227062.3, -1287609.6, -2454.0527, -0.0003011611, -0.05468985, -1226963.0, 11593.235 
1.8504846e+2, 1.8360989e+2, -1137080.5, -1210847.3, -2780.4033, -0.0002242569, -0.05720524, -1136975.9, 3642.0137 
1.8505283e+2, 1.9360295e+2, -1036390.7, -1111550.9, -2895.031, -0.0008782352, -0.049079876, -1036279.3, 6406.739 
1.8505716e+2, 2.0359515e+2, -946545.56, -1034947.56, -3144.5273, -0.000874441, -0.046640545, -946433.9, -1671.4287 
1.8506148e+2, 2.1358646e+2, -845292.0, -935356.4, -3121.3435, 0.0002784559, -0.056120813, -845183.94, 1663.5669 
1.8506579e+2, 2.2357707e+2, -755157.1, -858627.1, -3141.8608, 0.0005326706, -0.05821076, -755061.8, -6122.22 
1.850701e+2, 2.33567e+2, -654095.5, -759117.56, -3224.2366, -0.00076738535, -0.050278407, -653996.6, -2958.2847 
1.8507443e+2, 2.435561e+2, -564443.0, -682884.0, -2882.1487, -0.0014878314, -0.046624344, -564372.9, -11227.635 
1.8507884e+2, 2.5354427e+2, -463961.38, -583666.5, -2725.2314, -0.0011886038, -0.05297419, -463899.38, -8638.515 
1.8508327e+2, 2.6353177e+2, -373561.1, -506195.84, -2546.6477, -0.0007908885, -0.055407956, -373512.22, -16128.652 
1.850877e+2, 2.7351856e+2, -271492.88, -405995.06, -2633.0066, -0.00024791146, -0.053848762, -271441.34, -11928.342 
1.8509223e+2, 2.8350434e+2, -184462.94, -336266.53, -1828.123, -0.00026763263, -0.051692754, -184440.92, -22788.6 
1.8509687e+2, 2.9348904e+2, -84102.164, -237502.77, -1726.6794, -0.0012665855, -0.051471375, -84082.73, -20280.346 
1.8510161e+2, 3.0347717e+2, 17555.406, -83656.83, -1088.7662, -0.0017343713, -0.051103763, 17567.117, 17567.117 
1.8510641e+2, 3.1346908e+2, 22226.742, -79380.98, -910.3787, -0.0012646938, -0.053748995, 22234.898, 22234.898 
1.9502291e+2, 1.236322e+2, -1702268.3, -1722067.9, 893.4818, 0.0035523127, -0.06030258, -1702228.0, 26171.44 
1.9502757e+2, 1.3362914e+2, -1617145.0, -1655745.3, -1093.5492, -0.004088163, -0.029676573, -1617114.0, 13315.263 
1.9503237e+2, 1.4362505e+2, -1519567.4, -1563720.5, -1135.1509, -0.000045463923, -0.06601101, -1519538.3, 12931.278 
1.9503722e+2, 1.5362126e+2, -1417941.3, -1463152.3, -1007.826, 0.0016159428, -0.056364965, -1417918.9, 16587.705 
1.9504194e+2, 1.6361664e+2, -1328227.8, -1387112.1, -1592.3158, 0.0013151374, -0.04965791, -1328184.6, 8367.148 
1.9504657e+2, 1.7361116e+2, -1227129.8, -1287748.3, -1650.5857, -0.0017805253, -0.04852825, -1227084.8, 11520.759 
1.9505116e+2, 1.8360487e+2, -1137275.0, -1211247.8, -2090.964, -0.002261361, -0.04894004, -1137215.9, 3451.2468 
1.9505575e+2, 1.9359775e+2, -1036609.4, -1112006.6, -2220.4478, 0.0015962959, -0.05531513, -1036544.06, 6192.927 
1.950603e+2, 2.035899e+2, -946516.8, -1034892.3, -2347.6094, 0.0024401941, -0.056130078, -946454.5, -1640.6882 
1.9506478e+2, 2.1358138e+2, -845230.9, -935224.2, -2305.086, -0.0018714757, -0.04953833, -845171.9, 1725.4674 
1.950693e+2, 2.2357203e+2, -755275.4, -858858.56, -2373.2717, -0.003509547, -0.04727736, -755221.0, -6231.9795 
1.9507384e+2, 2.3356178e+2, -654249.7, -759424.44, -2461.9307, -0.0004911301, -0.05532234, -654192.06, -3102.6511 
1.950784e+2, 2.435508e+2, -564261.94, -682499.1, -2248.0527, 0.0011668856, -0.05716425, -564219.2, -11022.361 
1.9508296e+2, 2.5353917e+2, -463722.72, -583167.56, -2115.3955, 0.00038268542, -0.050614025, -463685.28, -8374.335 
1.9508757e+2, 2.6352674e+2, -373616.53, -506302.4, -1611.7605, -0.00073972146, -0.04750386, -373596.94, -16163.975 
1.9509225e+2, 2.7351344e+2, -271618.06, -406225.5, -1643.797, -0.00237672, -0.053552978, -271598.0, -12034.711 
1.95097e+2, 2.8349918e+2, -184444.16, -336187.5, -1136.1339, -0.0024235074, -0.055117533, -184435.66, -22732.662 
1.9510187e+2, 2.934839e+2, -84055.7, -237374.69, -1088.0948, 0.00032155396, -0.051485304, -84047.984, -20195.346 
1.9510679e+2, 3.0347207e+2, 17840.787, -83036.47, -247.47292, 0.0008308347, -0.049880635, 17841.395, 17841.395 
1.9511181e+2, 3.1346402e+2, 22546.182, -78685.5, -41.56878, -0.0027014632, -0.055324923, 22546.2, 22546.2 
2.0502439e+2, 1.2362702e+2, -1700638.6, -1721197.5, -296.67148, 0.0032857133, -0.05970228, -1700634.4, 27815.871 
2.050293e+2, 1.3362388e+2, -1616247.4, -1656034.4, -1881.9579, -0.0037138013, -0.031095859, -1616158.5, 14322.315 
2.0503432e+2, 1.4361976e+2, -1518607.0, -1563514.9, -1796.0015, 0.0007592492, -0.064194, -1518535.3, 13985.894 
2.0503934e+2, 1.5361595e+2, -1417212.4, -1462992.4, -1913.3075, 0.0009183048, -0.055978697, -1417132.5, 17426.053 
2.0504427e+2, 1.6361131e+2, -1327744.9, -1387046.9, -2646.9404, 0.00031743018, -0.05003166, -1327627.0, 8977.043 
2.0504911e+2, 1.7360581e+2, -1226883.9, -1287802.0, -2745.4517, -0.000989916, -0.04845221, -1226760.4, 11897.487 
2.0505393e+2, 1.8359952e+2, -1136948.1, -1211184.0, -3184.9236, -0.0010208698, -0.04878076, -1136811.6, 3907.9656 
2.0505868e+2, 1.9359237e+2, -1035815.9, -1111711.1, -3148.9773, 0.0009645198, -0.05568438, -1035685.44, 7104.135 
2.0506343e+2, 2.0358454e+2, -945808.9, -1034695.6, -3265.0164, 0.0012203191, -0.056471832, -945689.1, -822.6059 
2.0506811e+2, 2.13576e+2, -845445.7, -935492.2, -3399.4924, -0.0014449932, -0.0489327, -845317.5, 1632.5826 
2.0507284e+2, 2.2356665e+2, -755913.4, -859136.3, -3441.4788, -0.0024607205, -0.04634586, -755798.75, -6756.9443 
2.0507756e+2, 2.3355639e+2, -654787.5, -759628.75, -3333.671, -0.00063473836, -0.055098996, -654681.6, -3539.3745 
2.0508231e+2, 2.4354543e+2, -564548.6, -682549.06, -3153.5715, 0.0004727718, -0.057490546, -564464.4, -11214.723 
2.0508707e+2, 2.535338e+2, -463547.25, -582996.06, -3226.784, 0.00028769847, -0.051233396, -463460.16, -8096.4487 
2.0509188e+2, 2.6352137e+2, -373703.3, -506376.1, -2699.7495, -0.0005020951, -0.047830604, -373648.38, -16162.712 
2.0509677e+2, 2.7350804e+2, -273030.66, -406968.2, -2643.986, -0.0023053957, -0.05255619, -272978.47, -13362.561 
2.0510173e+2, 2.8349382e+2, -186204.38, -336694.47, -2088.4282, -0.0025126722, -0.054039735, -186175.39, -24419.877 
2.051068e+2, 2.9347855e+2, -85125.84, -237485.31, -1861.5674, 0.00009284513, -0.05253488, -85103.1, -21198.096 
2.0511194e+2, 3.0346677e+2, 16975.844, -83363.586, -896.9001, 0.0006350397, -0.051181376, 16983.861, 16983.861 
2.0511718e+2, 3.1345874e+2, 21576.219, -79128.26, -1005.4945, -0.0025595482, -0.053497527, 21586.256, 21586.256 
2.1502589e+2, 1.2362159e+2, -1700224.3, -1720349.0, 529.71295, -0.00047965016, -0.05660794, -1700210.4, 28293.11 
2.1503109e+2, 1.336184e+2, -1616286.4, -1656117.3, -1089.3984, -0.0012115303, -0.03530345, -1616256.6, 14278.131 
2.1503632e+2, 1.4361429e+2, -1518912.5, -1564145.8, -1073.3179, 0.005214926, -0.065004155, -1518887.0, 13687.944 
2.1504147e+2, 1.5361047e+2, -1417561.0, -1463716.3, -1199.265, -0.0013761331, -0.05085438, -1417529.9, 17082.418 
2.1504658e+2, 1.636058e+2, -1327914.8, -1387403.9, -1911.238, -0.0036762764, -0.04518236, -1327853.4, 8804.867 
2.150517e+2, 1.7360017e+2, -1227033.6, -1288114.8, -2001.6036, 0.0020058583, -0.054329533, -1226968.1, 11745.085 
2.1505673e+2, 1.8359384e+2, -1136878.3, -1211038.9, -2397.728, 0.0034145592, -0.056576673, -1136800.8, 3974.4773 
2.1506163e+2, 1.9358686e+2, -1035715.94, -1111498.8, -2354.215, -0.00270277, -0.050342366, -1035642.9, 7200.9556 
2.1506652e+2, 2.0357902e+2, -946022.7, -1035129.3, -2660.1887, -0.004442797, -0.047869023, -945943.3, -1022.8081 
2.1507145e+2, 2.1357033e+2, -845713.06, -936045.06, -2822.2852, 0.0014603464, -0.0541246, -845624.94, 1380.7518 
2.1507639e+2, 2.2356091e+2, -755766.7, -858834.8, -2683.3784, 0.0035220515, -0.055154637, -755696.9, -6598.9517 
2.1508127e+2, 2.3355085e+2, -654581.5, -759192.9, -2547.9963, -0.0011846973, -0.049788646, -654519.5, -3322.7432 
2.1508618e+2, 2.4353993e+2, -564631.6, -682701.4, -2414.2507, -0.0034788547, -0.047910746, -564582.3, -11278.671 
2.1509115e+2, 2.5352815e+2, -463687.5, -583264.8, -2494.5864, -0.0014320299, -0.054710407, -463635.5, -8216.466 
2.1509618e+2, 2.6351565e+2, -373708.53, -506364.94, -2041.4167, -0.000097922464, -0.05610673, -373677.13, -16135.575 
2.1510126e+2, 2.7350244e+2, -273013.78, -406914.16, -1998.8129, -0.00012922284, -0.050899733, -272983.97, -13313.115 
2.1510641e+2, 2.8348827e+2, -185837.84, -335911.34, -1296.5712, -0.00062606845, -0.048630066, -185826.64, -24016.791 
2.1511164e+2, 2.93473e+2, -84711.21, -236591.3, -1052.4061, -0.0018828776, -0.054570176, -84703.914, -20744.508 
2.1511702e+2, 3.0346122e+2, 16769.99, -83747.85, -52.192173, -0.0022188413, -0.05490776, 16770.018, 16770.018 
2.1512252e+2, 3.1345326e+2, 21248.18, -79754.984, -150.97067, -0.0009352826, -0.048429694, 21248.406, 21248.406 
2.250275e+2, 1.2361595e+2, -1698876.4, -1719513.1, -75.17771, -0.00017203287, -0.055556227, -1698876.0, 29682.652 
2.2503287e+2, 1.3361269e+2, -1615596.0, -1656278.8, -2012.8176, -0.0018044612, -0.03764936, -1615496.6, 15094.088 
2.2503832e+2, 1.4360857e+2, -1518104.6, -1564059.9, -2113.548, 0.0050175786, -0.06358735, -1518007.6, 14623.416 
2.2504368e+2, 1.5360473e+2, -1416372.9, -1463422.0, -2062.9026, -0.0006704072, -0.050366808, -1416282.5, 18386.08 
2.2504899e+2, 1.6360003e+2, -1326662.0, -1387027.3, -2742.6401, -0.002906872, -0.04536974, -1326537.6, 10177.232 
2.2505428e+2, 1.7359437e+2, -1226329.5, -1288005.0, -2836.9946, 0.0014145379, -0.05463549, -1226199.4, 12570.768 
2.2505948e+2, 1.8358803e+2, -1136654.8, -1211032.9, -3246.325, 0.0024906779, -0.056591444, -1136513.4, 4318.81 
2.2506459e+2, 1.9358104e+2, -1036045.2, -1111748.1, -3359.345, -0.0021870953, -0.049416322, -1035896.4, 7004.3813 
2.2506969e+2, 2.0357321e+2, -946366.8, -1035317.6, -3710.706, -0.0034870016, -0.046999034, -946212.3, -1234.7662 
2.250748e+2, 2.135645e+2, -845283.75, -935855.25, -3616.4834, 0.0010958574, -0.05498398, -845139.56, 1923.3408 
2.250799e+2, 2.2355509e+2, -755194.9, -858598.44, -3411.1873, 0.002685771, -0.05646435, -755082.44, -5927.296 
2.2508496e+2, 2.3354502e+2, -654913.44, -759406.7, -3527.8594, -0.0009819007, -0.049355295, -654794.44, -3540.563 
2.2509007e+2, 2.435341e+2, -565526.94, -683131.4, -3456.962, -0.0028989695, -0.046649676, -565425.44, -12064.692 
2.2509523e+2, 2.5352234e+2, -464653.9, -583727.9, -3399.4338, -0.0016768598, -0.054222047, -464556.94, -9080.736 
2.2510043e+2, 2.6350984e+2, -374490.6, -506531.38, -2850.2937, -0.0006037957, -0.056186777, -374429.1, -16830.41 
2.2510572e+2, 2.7349666e+2, -273523.66, -406920.9, -2689.6724, 0.00011903118, -0.051179018, -273469.44, -13741.645 
2.2511107e+2, 2.834825e+2, -186481.2, -336168.5, -2006.7772, -0.00020153134, -0.04871353, -186454.3, -24587.668 
2.2511649e+2, 2.9346722e+2, -85875.55, -237141.83, -2193.3562, -0.0023219222, -0.05375094, -85843.75, -21827.654 
2.2512205e+2, 3.0345544e+2, 15393.984, -84012.81, -1207.0659, -0.002862866, -0.05407254, 15408.64, 15408.64 
2.2512779e+2, 3.134475e+2, 19534.07, -80120.84, -711.4539, -0.0006012868, -0.04918749, 19539.148, 19539.148 
2.3502916e+2, 1.2361011e+2, -1699056.5, -1719886.4, 679.0158, 0.0041569243, -0.05648087, -1699034.4, 29581.566 
2.3503467e+2, 1.3360676e+2, -1616182.4, -1657491.5, -1276.7323, -0.0054500867, -0.03816546, -1616142.9, 14505.8125 
2.3504029e+2, 1.4360264e+2, -1518187.4, -1564237.6, -1316.7455, 0.00020855316, -0.05996827, -1518149.8, 14539.325 
2.3504595e+2, 1.5359873e+2, -1416384.3, -1463445.8, -1253.2955, 0.0029573555, -0.05442491, -1416350.9, 18376.605 
2.350515e+2, 1.63594e+2, -1326785.8, -1387279.4, -2117.0598, 0.0025301971, -0.050514106, -1326711.8, 10062.142 
2.3505683e+2, 1.7358842e+2, -1226469.1, -1288298.8, -2238.3228, -0.0026870412, -0.04950509, -1226388.3, 12440.136 
2.350622e+2, 1.835821e+2, -1136846.0, -1211436.8, -2606.098, -0.0037016838, -0.04898831, -1136755.0, 4135.508 
2.3506758e+2, 1.9357495e+2, -1036254.9, -1112186.8, -2708.2905, 0.0023802877, -0.05277754, -1036158.44, 6801.963 
2.3507291e+2, 2.0356709e+2, -946191.5, -1034954.44, -2949.009, 0.00391115, -0.053672113, -946093.6, -1056.1665 
2.3507811e+2, 2.135585e+2, -845052.25, -935367.8, -2838.7485, -0.002443865, -0.051656805, -844963.1, 2158.4595 
2.3508334e+2, 2.2354911e+2, -755395.0, -858998.25, -2833.0818, -0.004789199, -0.05049027, -755317.56, -6104.0283 
2.3508865e+2, 2.3353891e+2, -655190.75, -759970.4, -2979.7793, -0.000073211806, -0.053620055, -655106.06, -3792.4832 
2.3509398e+2, 2.4352796e+2, -565461.0, -682984.7, -2763.4336, 0.0020448002, -0.05343755, -565396.06, -11975.19 
2.3509929e+2, 2.5351632e+2, -464535.06, -583467.5, -2682.9956, -0.0005085109, -0.04993629, -464474.56, -8939.438 
2.3510467e+2, 2.6350388e+2, -374250.97, -506012.9, -2138.4033, -0.0019942045, -0.048376303, -374216.25, -16559.22 
2.3511012e+2, 2.7349064e+2, -273276.88, -406376.53, -1982.6058, -0.0014914003, -0.053301528, -273247.38, -13460.687 
2.3511568e+2, 2.8347644e+2, -186803.84, -336798.22, -1321.7117, -0.001197032, -0.054069158, -186792.2, -24866.432 
2.3512131e+2, 2.934612e+2, -86299.92, -237987.42, -1509.5321, -0.0013084671, -0.05022019, -86284.91, -22209.912 
2.3512706e+2, 3.0344945e+2, 16025.054, -82661.95, -457.44168, -0.0014070597, -0.048874885, 16027.174, 16027.174 
2.3513298e+2, 3.1344151e+2, 20339.896, -78389.6, 36.434883, -0.0015175616, -0.055462047, 20339.91, 20339.91 
2.4503085e+2, 1.2360407e+2, -1697479.8, -1719327.8, -129.81776, 0.004156285, -0.055479985, -1697479.0, 31196.207 
2.4503656e+2, 1.3360064e+2, -1614704.9, -1657501.3, -1970.6194, -0.005355703, -0.04038942, -1614614.4, 16094.525 
2.450424e+2, 1.4359652e+2, -1516675.8, -1563720.5, -2059.1436, 0.0007156372, -0.057715833, -1516585.8, 16163.489 
2.4504824e+2, 1.5359254e+2, -1416018.3, -1463411.1, -2091.3835, 0.0026738036, -0.054469608, -1415926.1, 18861.873 
2.4505395e+2, 1.635878e+2, -1326868.4, -1387506.1, -2944.1316, 0.00200557, -0.051427763, -1326725.8, 10108.8125 
2.4505949e+2, 1.7358223e+2, -1225651.5, -1288103.0, -3038.0945, -0.0024627408, -0.04873353, -1225504.1, 13385.06 
2.4506502e+2, 1.8357588e+2, -1135620.1, -1211030.6, -3483.8228, -0.003186992, -0.047868833, -1135459.5, 5491.872 
2.4507058e+2, 1.935687e+2, -1035545.75, -1112039.3, -3513.4226, 0.0023473334, -0.053606488, -1035384.75, 7636.884 
2.4507605e+2, 2.0356081e+2, -945986.44, -1034957.56, -3706.8975, 0.0036131495, -0.054785434, -945832.25, -733.4017 
2.4508144e+2, 2.1355227e+2, -845454.75, -935658.56, -3884.252, -0.0024808522, -0.050187707, -845287.8, 1895.0468 
2.4508686e+2, 2.2354288e+2, -755992.44, -859265.7, -4057.8423, -0.004684795, -0.0483379, -755833.2, -6558.4604 
2.4509233e+2, 2.3353265e+2, -655481.4, -760078.75, -3924.547, -0.00007536805, -0.05409452, -655334.4, -3959.3489 
2.4509782e+2, 2.435217e+2, -565594.5, -682950.2, -3453.5103, 0.0020031703, -0.05498752, -565492.94, -12010.638 
2.4510331e+2, 2.5351006e+2, -464878.06, -583531.25, -3421.0894, -0.00045768984, -0.049815983, -464779.5, -9183.139 
2.4510887e+2, 2.6349765e+2, -374936.63, -506250.94, -3041.3904, -0.002005461, -0.047422633, -374866.22, -17148.12 
2.451145e+2, 2.734844e+2, -274520.84, -406895.38, -3116.5405, -0.0018447068, -0.053019527, -274447.53, -14599.794 
2.4512023e+2, 2.834702e+2, -188244.73, -337346.88, -2334.6445, -0.0014920405, -0.0542337, -188208.19, -26221.414 
2.4512607e+2, 2.93455e+2, -87426.15, -238380.39, -2006.7231, -0.00084401044, -0.050423052, -87399.48, -23263.611 
2.4513201e+2, 3.034433e+2, 14984.351, -82857.85, -901.9412, -0.0008958448, -0.048942707, 14992.664, 14992.664 
2.4513811e+2, 3.1343538e+2, 18710.2, -78850.93, -1067.271, -0.0022319553, -0.05505989, 18721.873, 18721.873 
2.5503257e+2, 1.2359784e+2, -1697564.6, -1719507.0, 665.11554, -0.00016547559, -0.052508112, -1697544.5, 31191.797 
2.5503856e+2, 1.3359429e+2, -1615044.9, -1658203.1, -1173.1621, -0.0016006768, -0.04429558, -1615013.0, 15758.12 
2.550446e+2, 1.4359017e+2, -1516864.1, -1564111.8, -1520.5822, 0.0064474395, -0.056815606, -1516815.3, 15996.092 
2.5505048e+2, 1.5358622e+2, -1416178.3, -1463755.8, -1593.7596, -0.0014462766, -0.05058605, -1416125.0, 18725.094 
2.5505632e+2, 1.6358143e+2, -1326974.5, -1387740.0, -2157.6382, -0.004388615, -0.048186604, -1326898.0, 9998.975 
2.5506222e+2, 1.7357579e+2, -1225766.4, -1288337.9, -2198.9602, 0.0019583115, -0.052206915, -1225689.3, 13263.003 
2.5506797e+2, 1.8356942e+2, -1135672.6, -1211127.9, -2925.5603, 0.0038676201, -0.053083707, -1135559.4, 5455.3945 
2.5507352e+2, 1.935623e+2, -1035583.4, -1112118.4, -3001.069, -0.002148989, -0.051989194, -1035465.9, 7618.5107 
2.5507912e+2, 2.0355442e+2, -946281.5, -1035572.5, -3104.3223, -0.004182521, -0.050495185, -946173.7, -1012.0572 
2.550848e+2, 2.1354575e+2, -845805.94, -936380.6, -3261.4382, 0.00084128685, -0.05050798, -845688.6, 1557.8895 
2.5509045e+2, 2.2353636e+2, -755787.3, -858831.8, -3426.536, 0.002740046, -0.049892843, -755673.5, -6334.7925 
2.55096e+2, 2.3352621e+2, -655184.3, -759456.9, -3295.7805, -0.00094873086, -0.050928634, -655080.25, -3642.177 
2.5510162e+2, 2.4351528e+2, -565548.7, -682842.9, -2801.0352, -0.002854686, -0.051485382, -565481.8, -11936.739 
2.551073e+2, 2.535036e+2, -464892.56, -583532.9, -2764.33, -0.0014999782, -0.053681813, -464828.2, -9168.413 
2.5511307e+2, 2.6349115e+2, -375086.47, -506525.66, -2461.7988, -0.00071191747, -0.053054925, -375040.38, -17258.611 
2.5511885e+2, 2.7347797e+2, -274691.03, -407223.3, -2549.786, -0.0010089978, -0.050457545, -274642.0, -14731.123 
2.5512475e+2, 2.834638e+2, -187798.16, -336392.84, -1595.4673, -0.0011344041, -0.04943436, -187781.03, -25731.475 
2.551308e+2, 2.934486e+2, -86891.19, -237218.39, -1245.4159, -0.00091269054, -0.05416416, -86880.87, -22682.227 
2.551369e+2, 3.0343688e+2, 14697.018, -83392.04, -284.4139, -0.0012932973, -0.05402835, 14697.842, 14697.842 
2.5514317e+2, 3.1342906e+2, 18274.41, -79702.33, -471.99194, -0.0027893293, -0.04835844, 18276.684, 18276.684 
2.6503438e+2, 1.2359138e+2, -1696055.0, -1718816.6, -191.0318, -0.00015814845, -0.05135026, -1696053.5, 32746.172 
2.6504055e+2, 1.3358775e+2, -1614302.3, -1658120.8, -1859.9839, -0.0017748032, -0.047415525, -1614223.5, 16611.588 
2.6504678e+2, 1.4358367e+2, -1516163.9, -1564184.1, -2201.3608, 0.006698035, -0.05465004, -1516063.1, 16811.984 
2.6505283e+2, 1.5357967e+2, -1414343.5, -1463305.4, -2396.3599, -0.0014488929, -0.049380485, -1414226.5, 20687.855 
2.6505885e+2, 1.6357484e+2, -1324962.6, -1386952.6, -3092.3542, -0.0044312887, -0.048061598, -1324808.8, 12152.906 
2.650649e+2, 1.7356917e+2, -1225681.3, -1288455.8, -3129.6514, 0.0022403821, -0.05320311, -1225525.6, 13491.531 
2.650708e+2, 1.8356277e+2, -1136431.5, -1211633.6, -3803.151, 0.0041047134, -0.053932328, -1136239.6, 4840.111 
2.6507655e+2, 1.9355568e+2, -1035297.5, -1112121.5, -3919.2473, -0.0025759754, -0.050550465, -1035098.06, 8051.252 
2.650823e+2, 2.0354779e+2, -945501.5, -1035239.0, -4043.3289, -0.0046926495, -0.04872881, -945319.7, -93.0186 
2.6508814e+2, 2.135391e+2, -845704.75, -936370.6, -3886.6062, 0.0012250254, -0.05180881, -845538.44, 1773.4093 
2.6509392e+2, 2.2352968e+2, -756067.75, -859003.94, -3854.3748, 0.0033792076, -0.052029423, -755923.6, -6519.483 
2.6509964e+2, 2.3351957e+2, -655299.1, -759557.06, -4039.9766, -0.0011540278, -0.04998266, -655142.8, -3639.5623 
2.651054e+2, 2.4350865e+2, -565817.56, -682947.4, -3850.8105, -0.003391019, -0.049352735, -565691.1, -12080.95 
2.651113e+2, 2.5349694e+2, -466023.1, -584053.0, -3821.2788, -0.0014750712, -0.05374477, -465899.5, -10174.471 
2.651172e+2, 2.6348448e+2, -376445.5, -507026.5, -3310.9858, -0.00039097376, -0.054140013, -376361.6, -18514.578 
2.6512316e+2, 2.7347136e+2, -275368.4, -407379.7, -3115.8013, -0.0008817114, -0.050433535, -275294.9, -15319.017 
2.651292e+2, 2.8345722e+2, -188351.88, -336404.0, -2162.1873, -0.0012685702, -0.048780642, -188320.31, -26205.969 
2.6513544e+2, 2.93442e+2, -88460.13, -237714.14, -2227.78, -0.0014171591, -0.05376551, -88426.89, -24163.668 
2.6514176e+2, 3.0343032e+2, 12718.009, -84024.63, -1263.1359, -0.0017192393, -0.053822767, 12734.498, 12734.498 
2.651482e+2, 3.1342247e+2, 16892.254, -80045.08, -836.3729, -0.002332786, -0.04823636, 16899.469, 16899.469 
2.7503625e+2, 1.2358469e+2, -1696022.1, -1718758.3, 433.17444, 0.004107105, -0.051942065, -1696013.9, 32851.336 
2.7504253e+2, 1.3358104e+2, -1614310.1, -1658151.9, -1220.5208, -0.005814836, -0.049776357, -1614276.3, 16624.59 
2.7504894e+2, 1.43577e+2, -1516491.8, -1564869.0, -1427.4546, 0.0015334388, -0.051241405, -1516449.6, 16490.871 
2.750553e+2, 1.5357289e+2, -1414736.3, -1464112.6, -1594.6495, 0.0025449872, -0.050794818, -1414684.9, 20295.908 
2.750615e+2, 1.63568e+2, -1325093.1, -1387217.6, -2697.5774, 0.0017334903, -0.050994027, -1324976.3, 12052.33 
2.7506754e+2, 1.7356238e+2, -1225759.9, -1288634.3, -2800.6572, -0.0015073429, -0.051798128, -1225635.4, 13448.458 
2.750736e+2, 1.8355599e+2, -1136546.0, -1211889.9, -3078.3186, -0.0023258934, -0.05053285, -1136420.4, 4725.975 
2.750796e+2, 1.9354884e+2, -1035438.94, -1112411.1, -3123.855, 0.00091299735, -0.04927949, -1035312.4, 7903.973 
2.7508557e+2, 2.0354094e+2, -945278.6, -1034764.5, -3553.2815, 0.0018552464, -0.049413826, -945137.75, 156.02808 
2.7509144e+2, 2.1353227e+2, -845417.2, -935774.6, -3451.704, -0.0012245354, -0.054060943, -845285.5, 2093.1836 
2.7509734e+2, 2.2352286e+2, -756316.56, -859516.7, -3218.4004, -0.0025506755, -0.05472676, -756216.3, -6745.3936 
2.751033e+2, 2.3351271e+2, -655657.9, -760278.2, -3364.2002, -0.0007403403, -0.05117196, -655549.8, -3979.3528 
2.751093e+2, 2.4350178e+2, -565856.7, -682999.0, -3380.3794, 0.00020655006, -0.048544772, -565759.2, -12081.73 
2.7511522e+2, 2.534901e+2, -466000.66, -583994.75, -3388.0706, -0.00043341672, -0.050176173, -465903.47, -10111.397 
2.7512127e+2, 2.6347765e+2, -376139.0, -506380.25, -2609.8516, -0.0010115029, -0.050869893, -376086.72, -18172.846 
2.7512744e+2, 2.734645e+2, -275038.1, -406652.66, -2372.1028, -0.0014412148, -0.05281686, -274995.34, -14952.619 
2.7513367e+2, 2.834504e+2, -188514.95, -336682.63, -1631.379, -0.001886676, -0.05208115, -188496.98, -26315.941 
2.7514002e+2, 2.9343525e+2, -88709.26, -238181.47, -1734.5154, -0.0023483795, -0.049457435, -88689.13, -24359.596 
2.7514648e+2, 3.0342358e+2, 13311.15, -82741.36, -546.03925, -0.0021836928, -0.048595395, 13314.254, 13314.254 
2.7515313e+2, 3.1341577e+2, 17621.686, -78457.9, -89.2839, -0.0009473152, -0.05430118, 17621.768, 17621.768 
2.8503817e+2, 1.2357786e+2, -1694495.4, -1718595.6, -5.289095, 0.0047841584, -0.05063592, -1694495.4, 34436.688 
2.850446e+2, 1.3357413e+2, -1612370.3, -1657719.3, -1961.6421, -0.006422837, -0.0524373, -1612285.6, 18682.934 
2.850512e+2, 1.435701e+2, -1514697.6, -1564180.5, -2342.8945, 0.0011106627, -0.04856584, -1514586.9, 18421.123 
2.8505775e+2, 1.5356596e+2, -1414515.9, -1464144.0, -2213.8784, 0.0030680608, -0.051319644, -1414417.3, 20631.38 
2.850641e+2, 1.6356105e+2, -1325347.6, -1387649.3, -3189.7002, 0.0023898182, -0.05255326, -1325184.8, 11912.026 
2.8507027e+2, 1.735554e+2, -1224273.6, -1288256.8, -3424.2454, -0.002078176, -0.050503362, -1224091.0, 15061.112 
2.8507644e+2, 1.8354902e+2, -1134503.3, -1211026.3, -3786.864, -0.0031306436, -0.048539557, -1134316.4, 6898.4814 
2.8508267e+2, 1.9354182e+2, -1035320.94, -1112457.1, -3760.8157, 0.001571648, -0.050365537, -1035138.0, 8147.1016 
2.8508878e+2, 2.035339e+2, -946099.0, -1035293.6, -4261.474, 0.0029108191, -0.05127074, -945895.8, -533.1026 
2.850948e+2, 2.1352525e+2, -845351.9, -935888.2, -4544.372, -0.0016215906, -0.05263022, -845124.3, 2323.1516 
2.851008e+2, 2.2351585e+2, -755970.2, -859304.94, -4450.6533, -0.0035108896, -0.052306492, -755778.8, -6239.1655 
2.8510693e+2, 2.3350568e+2, -656459.94, -760601.44, -4211.9185, -0.00070002856, -0.051850636, -656289.8, -4650.4204 
2.8511304e+2, 2.4349475e+2, -567015.2, -683452.75, -3915.8481, 0.0007303536, -0.05033748, -566883.7, -13137.206 
2.8511918e+2, 2.534831e+2, -466154.7, -583963.7, -3875.4597, -0.00036529382, -0.0495129, -466027.3, -10166.568 
2.8512537e+2, 2.6347068e+2, -376131.1, -506249.03, -3186.886, -0.0012515337, -0.049121518, -376053.1, -18070.738 
2.8513166e+2, 2.7345753e+2, -276426.9, -407203.7, -3239.3208, -0.0017120232, -0.052486695, -276346.72, -16235.474 
2.8513807e+2, 2.8344342e+2, -190572.42, -337506.88, -2546.5889, -0.0019997489, -0.05251144, -190528.31, -28278.795 
2.8514457e+2, 2.9342827e+2, -90198.91, -238730.98, -2323.762, -0.0019802589, -0.04941853, -90162.56, -25764.75 
2.8515118e+2, 3.0341667e+2, 12143.035, -82903.46, -1013.96545, -0.0018218944, -0.048301034, 12153.851, 12153.851 
2.85158e+2, 3.1340888e+2, 15909.384, -78849.55, -1051.988, -0.0014798597, -0.0541415, 15921.062, 15921.062 
2.9504013e+2, 1.2357091e+2, -1695253.8, -1720164.5, 691.75806, 0.0018846636, -0.047414664, -1695234.5, 33765.586 
2.950468e+2, 1.3356704e+2, -1612996.5, -1659014.5, -1222.6073, -0.0036851363, -0.055395074, -1612964.0, 18074.102 
2.950536e+2, 1.43563e+2, -1514599.4, -1563987.3, -1909.3455, 0.005330939, -0.04661903, -1514525.6, 18551.992 
2.9506016e+2, 1.5355887e+2, -1414294.1, -1463708.0, -1832.3104, 0.00019861099, -0.05098529, -1414226.4, 20891.775 
2.9506665e+2, 1.6355395e+2, -1325598.0, -1388181.9, -2460.366, -0.0023519383, -0.05278002, -1325501.4, 11664.843 
2.950731e+2, 1.735483e+2, -1224621.9, -1288970.3, -2629.996, 0.00041041445, -0.049318857, -1224514.6, 14707.229 
2.9507947e+2, 1.8354185e+2, -1134549.8, -1211110.4, -3432.842, 0.0015210306, -0.04791423, -1134396.3, 6888.746 
2.950857e+2, 1.9353464e+2, -1035307.94, -1112440.1, -3481.54, -0.0005030592, -0.053734653, -1035151.1, 8204.526 
2.950919e+2, 2.0352669e+2, -946476.75, -1036087.6, -3642.6174, -0.0013606722, -0.054273404, -946328.94, -895.48346 
2.9509816e+2, 2.1351805e+2, -845816.1, -936838.44, -3860.9229, -0.0000716077, -0.047663342, -845652.6, 1865.5165 
2.9510432e+2, 2.2350866e+2, -755692.5, -858710.94, -4031.653, 0.00029480626, -0.044962693, -755534.94, -5924.6387 
2.9511052e+2, 2.3349845e+2, -656051.2, -759750.8, -3844.2734, -0.0010155557, -0.052032284, -655908.9, -4198.7197 
2.9511675e+2, 2.4348754e+2, -566867.5, -683139.3, -3268.3184, -0.0017011563, -0.054618802, -566775.7, -12958.569 
2.9512307e+2, 2.5347593e+2, -466077.4, -583765.44, -3179.2517, -0.0012389485, -0.05162217, -465991.6, -10060.55 
2.9512942e+2, 2.6346353e+2, -376305.3, -506557.8, -2765.4302, -0.0011387875, -0.048830282, -376246.63, -18194.19 
2.9513583e+2, 2.7345037e+2, -276639.78, -407611.1, -2865.21, -0.001720014, -0.04958967, -276577.13, -16395.744 
2.9514235e+2, 2.8343624e+2, -190265.44, -336840.2, -1936.6238, -0.0016520574, -0.050212357, -190239.86, -27920.195 
2.9514906e+2, 2.9342112e+2, -89817.15, -237888.6, -1678.137, -0.00039858956, -0.053401217, -89798.13, -25330.182 
2.9515585e+2, 3.0340952e+2, 11999.789, -83132.516, -405.57767, -0.0006885668, -0.052674834, 12001.519, 12001.519 
2.951628e+2, 3.134018e+2, 15653.308, -79293.49, -447.3522, -0.0038375559, -0.048153285, 15655.416, 15655.416 
3.0504218e+2, 1.2356372e+2, -1693767.3, -1719975.9, -345.45093, 0.0010032511, -0.046066273, -1693762.8, 35307.9 
3.0504906e+2, 1.3355978e+2, -1611713.4, -1658442.1, -1605.5021, -0.0030656504, -0.058911566, -1611658.3, 19450.955 
3.05056e+2, 1.435558e+2, -1513536.8, -1563890.3, -2243.5254, 0.0067162598, -0.04426771, -1513437.0, 19711.283 
3.0506265e+2, 1.5355161e+2, -1412380.4, -1463267.1, -2717.862, -0.0004581806, -0.049418572, -1412235.6, 22953.727 
3.0506927e+2, 1.6354667e+2, -1323641.8, -1387388.1, -3565.369, -0.0035953019, -0.05234597, -1323443.0, 13794.861 
3.050759e+2, 1.7354095e+2, -1224656.0, -1289099.0, -3453.312, 0.0011348084, -0.050460044, -1224471.4, 14822.258 
3.0508244e+2, 1.835345e+2, -1135374.0, -1211729.3, -4168.256, 0.0028179951, -0.04915244, -1135147.1, 6209.792 
3.0508876e+2, 1.9352728e+2, -1034602.5, -1112343.8, -4384.8696, -0.0010895145, -0.05250289, -1034355.94, 9071.6455 
3.050951e+2, 2.0351934e+2, -945168.56, -1035474.7, -4487.917, -0.0026098301, -0.05237867, -944946.06, 559.44464 
3.0510148e+2, 2.1351068e+2, -845968.94, -936906.94, -4237.307, 0.00017349578, -0.048316248, -845771.94, 1818.4679 
3.0510783e+2, 2.2350127e+2, -756517.06, -859146.6, -4265.9434, 0.0012162345, -0.04639077, -756340.06, -6657.374 
3.0511415e+2, 2.334911e+2, -656034.3, -759796.8, -4527.984, -0.0008897459, -0.051035985, -655837.06, -4054.7737 
3.051205e+2, 2.4348018e+2, -566752.2, -683009.8, -4250.208, -0.0020867444, -0.05287907, -566597.0, -12707.795 
3.0512694e+2, 2.5346854e+2, -467441.84, -584341.0, -4214.2627, -0.0016138655, -0.052199926, -467290.13, -11286.817 
3.0513343e+2, 2.6345614e+2, -378219.06, -507298.94, -3706.1663, -0.0013032032, -0.05031422, -378112.72, -19988.076 
3.0514e+2, 2.73443e+2, -277580.9, -407873.06, -3489.304, -0.0013380853, -0.0493968, -277487.53, -17234.25 
3.0514666e+2, 2.8342897e+2, -190805.52, -336881.9, -2417.2998, -0.0012432054, -0.049245447, -190765.53, -28374.225 
3.0515346e+2, 2.9341382e+2, -91059.64, -238275.75, -2434.9119, -0.00090167095, -0.053342655, -91019.375, -26479.885 
3.0516043e+2, 3.0340225e+2, 10232.885, -83639.73, -1191.2413, -0.0013677278, -0.05295346, 10247.999, 10247.999 
3.0516756e+2, 3.1339458e+2, 13489.211, -79976.945, -809.9616, -0.0033442434, -0.04769749, 13496.2295, 13496.2295 
3.1504428e+2, 1.23556286e+2, -1693687.0, -1719826.5, 206.42165, 0.002099471, -0.046559032, -1693685.4, 35458.133 
3.150513e+2, 1.3355239e+2, -1611149.0, -1657300.6, -998.848, -0.0045273704, -0.06298748, -1611127.4, 20054.277 
3.150584e+2, 1.4354847e+2, -1514147.9, -1565158.9, -1629.969, 0.005300107, -0.04153406, -1514095.9, 19124.17 
3.1506526e+2, 1.5354417e+2, -1413199.1, -1464954.6, -2096.1902, 0.0010177185, -0.04665609, -1413114.4, 22147.783 
3.1507206e+2, 1.6353914e+2, -1323586.1, -1387276.6, -3247.4216, -0.0014395552, -0.051270213, -1323421.0, 13890.508 
3.150787e+2, 1.7353342e+2, -1224446.3, -1288689.0, -3187.4465, 0.00014407128, -0.053859465, -1224288.4, 15079.068 
3.1508532e+2, 1.8352698e+2, -1135594.6, -1212207.1, -3540.276, 0.0008392795, -0.052211378, -1135431.4, 5999.3423 
3.1509185e+2, 1.935198e+2, -1034919.75, -1112992.5, -3689.328, -0.00025883247, -0.046846915, -1034745.8, 8755.217 
3.1509835e+2, 2.0351186e+2, -944838.0, -1034772.9, -4140.276, -0.0009521809, -0.04575056, -944647.8, 931.02216 
3.1510478e+2, 2.1350314e+2, -845520.94, -935981.56, -3954.9194, -0.0008436061, -0.054350156, -845348.4, 2315.8616 
3.1511125e+2, 2.2349371e+2, -756836.8, -859810.1, -3721.3105, -0.00065208366, -0.056245983, -756702.5, -6945.8115 
3.1511775e+2, 2.3348358e+2, -656509.94, -760757.06, -3930.7522, -0.000358552, -0.04893663, -656361.94, -4506.054 
3.1512424e+2, 2.4347268e+2, -566830.2, -683136.1, -3896.819, -0.0005348115, -0.04539378, -566699.8, -12737.048 
3.1513077e+2, 2.5346097e+2, -467443.44, -584329.25, -3905.6272, -0.0015236547, -0.05131103, -467313.06, -11235.663 
3.1513736e+2, 2.6344857e+2, -377868.47, -506557.63, -3117.2925, -0.0017447835, -0.05348458, -377793.0, -19594.086 
3.151441e+2, 2.734355e+2, -277194.97, -407022.7, -2854.8364, -0.0006017159, -0.05176213, -277132.22, -16805.357 
3.1515092e+2, 2.8342152e+2, -190889.3, -336983.66, -1930.1584, -0.00079164753, -0.04954229, -190863.8, -28399.414 
3.1515783e+2, 2.934064e+2, -91232.39, -238565.7, -1974.1284, -0.0033755125, -0.049490288, -91205.94, -26593.549 
3.1516492e+2, 3.0339482e+2, 10701.206, -82598.12, -697.337, -0.0037712862, -0.049372163, 10706.418, 10706.418 
3.1517226e+2, 3.1338716e+2, 14065.125, -78701.53, -317.68124, -0.00022857556, -0.052411284, 14066.213, 14066.213 
3.2504648e+2, 1.2354876e+2, -1692063.3, -1719974.9, -24.89883, 0.0034523876, -0.04548361, -1692063.1, 37154.063 
3.2505366e+2, 1.3354482e+2, -1609009.5, -1656296.6, -1771.8947, -0.005684204, -0.06570014, -1608943.3, 22312.662 
3.2506087e+2, 1.4354095e+2, -1512558.3, -1564601.9, -2641.746, 0.0039226925, -0.038929254, -1512424.5, 20869.373 
3.250679e+2, 1.5353659e+2, -1412725.3, -1464979.5, -2457.1055, 0.0019022326, -0.047105733, -1412609.9, 22726.553 
3.250748e+2, 1.6353153e+2, -1323339.8, -1387500.3, -3356.7588, 0.00007024088, -0.052809596, -1323164.6, 14221.564 
3.250816e+2, 1.735258e+2, -1222800.1, -1288257.6, -3730.519, -0.0005860752, -0.0528924, -1222588.3, 16854.043 
3.250883e+2, 1.8351933e+2, -1133644.1, -1211374.1, -4303.7075, -0.0005872216, -0.05039041, -1133406.6, 8098.9697 
3.2509497e+2, 1.9351213e+2, -1035039.75, -1113132.8, -4195.9346, 0.00034663503, -0.047147226, -1034814.94, 8761.2295 
3.2510158e+2, 2.0350417e+2, -945863.1, -1035368.0, -4632.9365, 0.00037688692, -0.046881206, -945623.94, 30.197748 
3.251081e+2, 2.1349546e+2, -845321.6, -935996.5, -4966.4785, -0.001140239, -0.053945817, -845050.44, 2689.1013 
3.251147e+2, 2.2348602e+2, -756262.4, -859527.5, -4936.872, -0.0016434003, -0.055343717, -756026.94, -6194.9707 
3.251213e+2, 2.334759e+2, -657314.2, -761133.5, -4682.475, -0.00035897127, -0.049467847, -657103.44, -5172.15 
3.2512793e+2, 2.4346499e+2, -568123.56, -683689.6, -4293.4785, 0.000003499889, -0.046229605, -567964.25, -13926.134 
3.2513455e+2, 2.534533e+2, -467712.06, -584386.5, -4254.3833, -0.0012996047, -0.05036102, -467557.13, -11404.546 
3.251413e+2, 2.634409e+2, -377891.2, -506360.9, -3545.7905, -0.0018282366, -0.051953424, -377793.38, -19519.47 
3.2514814e+2, 2.7342787e+2, -278624.16, -407492.88, -3568.8044, -0.0009649937, -0.05187373, -278525.4, -18123.576 
3.2515508e+2, 2.8341386e+2, -193145.34, -337877.72, -2682.695, -0.0011166757, -0.050282713, -193095.63, -30556.414 
3.2516214e+2, 2.9339877e+2, -93177.31, -239323.48, -2477.6553, -0.0030944003, -0.04897126, -93135.32, -28448.373 
3.2516938e+2, 3.0338725e+2, 9137.019, -82869.234, -1162.9155, -0.0033475198, -0.048531134, 9151.715, 9151.715 
3.251768e+2, 3.1337962e+2, 12440.822, -78955.61, -1085.8967, -0.0005353523, -0.05298747, 12453.723, 12453.723 
3.3504874e+2, 1.23541154e+2, -1693316.5, -1722562.4, 494.60068, 0.0050327927, -0.042857837, -1693308.1, 35983.754 
3.3505607e+2, 1.3353708e+2, -1609590.5, -1657505.0, -1174.9084, -0.0065512927, -0.06708145, -1609561.8, 21770.037 
3.3506346e+2, 1.4353321e+2, -1512220.5, -1563923.8, -2266.8027, 0.0025671278, -0.036450032, -1512121.4, 21248.236 
3.3507055e+2, 1.5352887e+2, -1412230.4, -1463986.6, -2123.9028, 0.0021958768, -0.050678, -1412143.4, 23268.822 
3.3507758e+2, 1.6352381e+2, -1323808.0, -1388484.6, -2768.7983, 0.0009338309, -0.056904186, -1323689.6, 13772.129 
3.350845e+2, 1.7351808e+2, -1223454.1, -1289600.0, -3090.6738, -0.0010771498, -0.047714908, -1223310.1, 16207.842 
3.3509135e+2, 1.835116e+2, -1133570.4, -1211209.9, -4089.1208, -0.0014980118, -0.04383884, -1133355.6, 8225.921 
3.350981e+2, 1.9350429e+2, -1034827.6, -1112714.3, -4056.5708, 0.0007251679, -0.053162985, -1034616.94, 9036.119 
3.351048e+2, 2.0349629e+2, -946296.6, -1036288.25, -4089.4587, 0.0013742034, -0.055493195, -946111.2, -379.8358 
3.3511147e+2, 2.1348765e+2, -845897.7, -937173.1, -4345.1226, -0.00076310505, -0.047405265, -845691.3, 2124.8833 
3.3511817e+2, 2.2347824e+2, -755973.06, -858897.4, -4644.4756, -0.0018127431, -0.044137433, -755763.94, -5855.4614 
3.3512485e+2, 2.3346801e+2, -656864.2, -760194.0, -4453.3657, -0.00087304873, -0.052477792, -656672.6, -4664.1885 
3.3513156e+2, 2.4345711e+2, -567984.9, -683394.8, -3768.7356, -0.00043989817, -0.054990456, -567861.94, -13746.645 
3.3513838e+2, 2.5344554e+2, -467659.38, -584231.3, -3676.4646, -0.0009648725, -0.049374033, -467543.56, -11314.7705 
3.351452e+2, 2.634332e+2, -378016.53, -506557.63, -3239.646, -0.0015892719, -0.04597264, -377934.94, -19585.273 
3.3515212e+2, 2.734201e+2, -278772.1, -407762.47, -3311.9187, -0.002373397, -0.049851682, -278687.13, -18209.018 
3.3515918e+2, 2.8340608e+2, -192891.63, -337319.13, -2175.3186, -0.0021924784, -0.05143066, -192858.88, -30243.166 
3.3516642e+2, 2.9339102e+2, -92878.76, -238634.78, -1927.525, -0.00024834057, -0.05157481, -92853.266, -28090.176 
3.351738e+2, 3.033795e+2, 9188.503, -82671.59, -676.82263, -0.0002772756, -0.05026529, 9193.489, 9193.489 
3.3518127e+2, 3.1337196e+2, 12443.445, -78863.44, -613.6649, -0.0040572784, -0.049714, 12447.569, 12447.569 
3.4505105e+2, 1.2353334e+2, -1691877.0, -1723041.5, -413.63992, 0.003916991, -0.0413642, -1691871.6, 37496.805 
3.4505853e+2, 1.3352923e+2, -1607717.1, -1656438.0, -1301.8295, -0.005644589, -0.06986705, -1607682.4, 23726.36 
3.4506607e+2, 1.4352542e+2, -1510729.8, -1563575.1, -2345.11, 0.0042434563, -0.034486957, -1510625.9, 22820.244 
3.4507328e+2, 1.5352102e+2, -1410223.0, -1463486.5, -3013.0261, 0.0013627037, -0.049592584, -1410053.0, 25436.1 
3.4508038e+2, 1.6351591e+2, -1321983.5, -1387783.1, -3999.4133, -0.0006644026, -0.05668087, -1321741.3, 15797.927 
3.4508744e+2, 1.7351016e+2, -1223619.6, -1289826.8, -3764.9912, -0.00031059716, -0.048217285, -1223406.1, 16189.347 
3.4509438e+2, 1.8350366e+2, -1134331.5, -1211785.3, -4491.789, 0.00001924387, -0.044519335, -1134071.9, 7587.5156 
3.4510124e+2, 1.9349633e+2, -1033606.6, -1112348.1, -4796.286, 0.000079449215, -0.05302798, -1033315.5, 10415.395 
3.4510803e+2, 2.0348834e+2, -944542.7, -1035600.75, -4958.69, 0.000014154345, -0.05488455, -944273.44, 1535.9335 
3.4511483e+2, 2.1347967e+2, -846330.7, -937547.9, -4760.37, -0.00021925705, -0.047005985, -846082.94, 1811.416 
3.4512162e+2, 2.2347026e+2, -757224.8, -859416.8, -4831.969, -0.00060953305, -0.043826956, -756996.8, -7010.154 
3.451284e+2, 2.3346005e+2, -656888.06, -760085.0, -5010.459, -0.0012901947, -0.051965337, -656645.4, -4558.802 
3.4513518e+2, 2.4344915e+2, -567820.75, -683207.0, -4617.013, -0.0014877679, -0.054605555, -567636.25, -13442.939 
3.4514213e+2, 2.5343758e+2, -469157.06, -584862.7, -4560.4795, -0.00083242444, -0.049752202, -468977.6, -12670.82 
3.4514907e+2, 2.6342526e+2, -380145.97, -507464.13, -4008.6475, -0.0009258761, -0.046524025, -380019.88, -21592.31 
3.4515607e+2, 2.7341217e+2, -279720.84, -408103.25, -3872.9148, -0.0024037135, -0.04947061, -279604.13, -19048.287 
3.4516323e+2, 2.8339815e+2, -193353.69, -337202.25, -2677.0066, -0.002560537, -0.0507818, -193303.89, -30610.656 
3.451706e+2, 2.9338312e+2, -94535.914, -239064.73, -2547.552, -0.0002762093, -0.05189879, -94491.02, -29650.645 
3.4517807e+2, 3.0337167e+2, 6850.1616, -83481.664, -1192.1218, -0.00015945303, -0.050693765, 6865.8916, 6865.8916 
3.451857e+2, 3.1336415e+2, 10522.726, -79493.5, -981.5525, -0.0041553183, -0.04864617, 10533.428, 10533.428 
3.5505342e+2, 1.23525344e+2, -1692127.6, -1723571.6, -18.06984, 0.00011899192, -0.041003495, -1692127.6, 37319.16 
3.5506108e+2, 1.3352129e+2, -1606931.3, -1654846.6, -815.6721, -0.0030254722, -0.07402417, -1606917.4, 24569.26 
3.5506877e+2, 1.4351754e+2, -1511508.3, -1565195.6, -1859.1533, 0.008863466, -0.033037376, -1511444.0, 22079.332 
3.5507604e+2, 1.5351303e+2, -1411282.1, -1465673.3, -2520.1934, -0.0005710243, -0.0439955, -1411165.6, 24401.887 
3.5508326e+2, 1.6350785e+2, -1321749.3, -1387308.0, -3829.7705, -0.0046708747, -0.05225696, -1321526.3, 16092.015 
3.5509038e+2, 1.7350206e+2, -1223153.1, -1288897.6, -3654.309, 0.0016470525, -0.054185934, -1222950.8, 16724.264 
3.5509744e+2, 1.8349555e+2, -1134645.0, -1212462.0, -3907.7808, 0.0038570196, -0.05219581, -1134449.3, 7289.527 
3.551044e+2, 1.9348831e+2, -1034089.8, -1113330.9, -4122.6685, -0.0015558559, -0.04701241, -1033875.9, 9933.871 
3.551113e+2, 2.0348032e+2, -944337.7, -1035145.44, -4825.337, -0.0036257678, -0.045412574, -944082.0, 1806.1223 
3.5511816e+2, 2.1347155e+2, -845989.3, -936846.44, -4724.597, 0.0004604968, -0.0524426, -845744.25, 2229.7283 
3.5512504e+2, 2.2346209e+2, -757402.4, -859797.06, -4358.1113, 0.0018800965, -0.05392603, -757217.25, -7150.6514 
3.5513192e+2, 2.3345199e+2, -657189.8, -760682.4, -4454.9927, -0.0016225966, -0.048138928, -656998.4, -4832.787 
3.5513884e+2, 2.4344112e+2, -567853.1, -683229.3, -4411.0596, -0.0031266387, -0.045531888, -567684.75, -13412.584 
3.5514578e+2, 2.5342944e+2, -469130.4, -584791.1, -4418.061, -0.0009067727, -0.05139841, -468961.88, -12575.3955 
3.5515288e+2, 2.634171e+2, -379925.13, -506990.56, -3495.3096, 0.000119977296, -0.05324008, -379829.03, -21321.475 
3.5516e+2, 2.734041e+2, -279502.38, -407582.7, -3293.3442, -0.0011486147, -0.050643932, -279417.75, -18782.785 
3.551673e+2, 2.8339013e+2, -193254.67, -336903.84, -2395.0916, -0.0022705924, -0.04844882, -193214.75, -30443.0 
3.551747e+2, 2.9337513e+2, -94447.29, -238815.31, -2325.995, -0.00299618, -0.05009013, -94409.83, -29491.059 
3.5518226e+2, 3.033637e+2, 7092.8984, -82913.18, -659.76404, -0.002813069, -0.04990179, 7097.7344, 7097.7344 
3.551901e+2, 3.1335616e+2, 10752.556, -78895.99, -389.14316, -0.0011081764, -0.049629565, 10754.244, 10754.244 
3.6505595e+2, 1.23517245e+2, -1690787.8, -1724223.3, -312.89236, 0.0011102195, -0.04066127, -1690784.9, 38741.348 
3.650637e+2, 1.3351318e+2, -1604256.1, -1653106.4, -1524.1464, -0.0039729555, -0.0759598, -1604208.6, 27357.344 
3.650715e+2, 1.4350949e+2, -1509629.6, -1564587.8, -2766.883, 0.0076768035, -0.031161375, -1509490.8, 24111.47 
3.650789e+2, 1.5350492e+2, -1410751.8, -1465858.5, -2665.07, 0.00023608452, -0.04384683, -1410623.1, 25023.734 
3.6508617e+2, 1.634997e+2, -1321366.9, -1387476.3, -3704.655, -0.003287186, -0.05292985, -1321160.0, 16538.213 
3.6509338e+2, 1.7349389e+2, -1221137.3, -1288268.0, -4199.343, 0.0010526753, -0.053953703, -1220875.6, 18879.445 
3.6510053e+2, 1.8348736e+2, -1132484.0, -1211593.4, -4782.257, 0.0026373998, -0.051425952, -1132196.0, 9623.043 
3.6510757e+2, 1.934801e+2, -1034690.9, -1113786.6, -4632.4023, -0.0009499248, -0.046430174, -1034420.5, 9469.716 
3.6511457e+2, 2.034721e+2, -945843.7, -1035796.0, -5181.777, -0.0024678286, -0.04522756, -945546.1, 422.5066 
3.6512148e+2, 2.1346334e+2, -845473.9, -936484.9, -5347.108, -0.00016835172, -0.052958734, -845160.8, 2893.6711 
3.6512846e+2, 2.2345388e+2, -756437.2, -859491.9, -5114.683, 0.00070582266, -0.054553244, -756184.0, -6036.9287 
3.6513543e+2, 2.3344377e+2, -658148.9, -761372.3, -5073.206, -0.0010714235, -0.047866963, -657900.2, -5653.967 
3.6514243e+2, 2.434329e+2, -569354.1, -683824.4, -4889.1616, -0.0019816495, -0.04487232, -569145.7, -14792.908 
3.6514947e+2, 2.5342125e+2, -469317.28, -584696.25, -4812.695, -0.0012743274, -0.051259335, -469116.88, -12649.863 
3.6515662e+2, 2.634089e+2, -379908.25, -506731.9, -3874.6484, -0.0008222831, -0.053335525, -379789.97, -21202.064 
3.651639e+2, 2.7339593e+2, -281380.4, -408239.97, -3779.6125, -0.0009124267, -0.05046204, -281267.9, -20552.816 
3.6517122e+2, 2.83382e+2, -196031.58, -338100.94, -2911.1794, -0.0016166819, -0.048081443, -195971.95, -33120.293 
3.651787e+2, 2.93367e+2, -96092.89, -239497.6, -2895.4636, -0.0033638505, -0.049703136, -96034.45, -31035.883 
3.651864e+2, 3.033556e+2, 5956.908, -82828.46, -1233.961, -0.0034718707, -0.049738824, 5974.0547, 5974.0547 
3.6519435e+2, 3.133481e+2, 8024.849, -79488.81, -825.30963, -0.0006762141, -0.05014223, 8032.632, 8032.632 
3.7505853e+2, 1.2350905e+2, -1692170.1, -1727085.6, 122.52149, 0.0067884508, -0.040385317, -1692169.8, 37436.8 
3.7506634e+2, 1.3350494e+2, -1604446.8, -1653516.5, -973.3111, -0.0083893, -0.075731754, -1604427.5, 27219.223 
3.7507424e+2, 1.4350128e+2, -1509239.6, -1563802.0, -2548.5703, 0.0008097298, -0.028859973, -1509120.9, 24561.816 
3.7508178e+2, 1.5349671e+2, -1410257.0, -1464870.4, -2508.581, 0.0036624854, -0.048967935, -1410142.0, 25585.338 
3.7508917e+2, 1.6349147e+2, -1322012.6, -1388831.5, -3225.2754, 0.003301242, -0.058554217, -1321857.3, 15921.433 
3.7509644e+2, 1.7348565e+2, -1222006.1, -1290056.4, -3653.7888, -0.0019955572, -0.047769874, -1221810.5, 18025.184 
3.7510365e+2, 1.834791e+2, -1132398.9, -1211408.6, -4749.466, -0.0034765187, -0.042511903, -1132114.4, 9785.733 
3.7511075e+2, 1.9347174e+2, -1034424.25, -1113261.1, -4691.564, 0.0017763071, -0.051024474, -1034146.0, 9826.124 
3.7511784e+2, 2.034637e+2, -945939.5, -1036023.6, -4706.45, 0.0032691052, -0.053944226, -945694.3, 356.5447 
3.7512484e+2, 2.1345505e+2, -845668.5, -936872.2, -4774.454, -0.0020460284, -0.048815902, -845419.25, 2716.4773 
3.7513188e+2, 2.2344562e+2, -756485.4, -859555.06, -4984.629, -0.0039804266, -0.04615104, -756244.9, -6016.752 
3.751389e+2, 2.3343539e+2, -658163.4, -761390.44, -5019.9097, 0.00029743375, -0.0509339, -657919.8, -5591.511 
3.75146e+2, 2.4342449e+2, -569196.0, -683485.4, -4466.7407, 0.0017850156, -0.052184816, -569021.7, -14586.556 
3.7515312e+2, 2.5341296e+2, -469160.6, -584315.56, -4325.8423, -0.0019217542, -0.04945812, -468998.34, -12450.015 
3.7516034e+2, 2.6340067e+2, -379864.84, -506569.38, -3739.7566, -0.0036483044, -0.04719639, -379754.56, -21085.957 
3.7516764e+2, 2.7338767e+2, -281343.3, -408126.4, -3711.1738, -0.0016430713, -0.048995182, -281234.75, -20438.646 
3.751751e+2, 2.8337368e+2, -196024.11, -338051.72, -2446.02, -0.00064072496, -0.049548708, -195982.0, -33049.11 
3.7518272e+2, 2.933587e+2, -96136.555, -239494.52, -2352.4297, -0.0015543494, -0.050640166, -96097.97, -31018.229 
3.751905e+2, 3.0334735e+2, 6384.0415, -81822.695, -1015.5386, -0.0022789075, -0.050156776, 6395.732, 6395.732 
3.7519845e+2, 3.1333998e+2, 8567.506, -78286.67, -682.7046, -0.0026890528, -0.050208647, 8572.871, 8572.871 
3.8506117e+2, 1.2350075e+2, -1690154.6, -1727798.4, -439.2417, 0.006423746, -0.038988054, -1690149.5, 39538.387 
3.8506913e+2, 1.3349664e+2, -1602376.9, -1652174.1, -1004.6108, -0.0078641735, -0.07679193, -1602356.6, 29371.516 
3.8507712e+2, 1.43493e+2, -1508011.3, -1563445.6, -2663.6604, 0.0015417829, -0.028278822, -1507883.5, 25880.35 
3.8508472e+2, 1.5348838e+2, -1408255.0, -1464246.8, -3348.4607, 0.0031516477, -0.048962243, -1408055.4, 27753.508 
3.850922e+2, 1.6348313e+2, -1320119.4, -1388181.5, -4258.357, 0.002421356, -0.058688644, -1319854.0, 18006.592 
3.8509953e+2, 1.7347729e+2, -1222040.8, -1290342.3, -3983.95, -0.0016306401, -0.047283366, -1221809.3, 18108.547 
3.851068e+2, 1.834707e+2, -1132901.0, -1211801.4, -4821.9634, -0.0026873627, -0.042011578, -1132607.4, 9374.931 
3.8511398e+2, 1.9346334e+2, -1033013.06, -1112716.5, -5113.5703, 0.00144833, -0.051551234, -1032686.4, 11368.217 
3.851211e+2, 2.0345527e+2, -944219.4, -1035511.9, -5310.981, 0.0025904658, -0.05453617, -943911.5, 2221.981 
3.851282e+2, 2.1344659e+2, -846219.1, -937508.8, -5421.1753, -0.0016516495, -0.04778351, -845898.4, 2320.1885 
3.851353e+2, 2.2343716e+2, -757700.2, -859918.7, -5635.1924, -0.0032556085, -0.044723596, -757390.5, -7079.505 
3.851424e+2, 2.3342696e+2, -658166.9, -761071.06, -5469.108, -0.00004473179, -0.051314797, -657877.0, -5465.992 
3.8514954e+2, 2.4341606e+2, -569221.25, -683450.7, -4814.298, 0.0010656603, -0.053177357, -569018.7, -14500.952 
3.8515675e+2, 2.5340453e+2, -470915.9, -585181.94, -4870.5894, -0.0017300112, -0.048883475, -470708.7, -14077.888 
3.85164e+2, 2.6339227e+2, -382088.7, -507472.97, -4379.821, -0.0031575167, -0.046065696, -381935.88, -23184.879 
3.8517138e+2, 2.7337924e+2, -282106.38, -408300.0, -4291.137, -0.002021051, -0.049179662, -281960.63, -21082.178 
3.8517892e+2, 2.8336534e+2, -196406.25, -337872.8, -2904.1785, -0.0011732441, -0.050271086, -196346.66, -33331.63 
3.851866e+2, 2.9335037e+2, -98416.86, -240211.03, -2587.2422, -0.00090448145, -0.050429694, -98369.67, -33208.215 
3.8519448e+2, 3.0333906e+2, 3339.5427, -82985.75, -1165.2151, -0.0014655048, -0.049460743, 3355.2678, 3355.2678 
3.8520256e+2, 3.1333166e+2, 7055.3965, -78741.09, -1235.7946, -0.0036107476, -0.0498958, 7073.193, 7073.193 
3.950639e+2, 1.2349234e+2, -1690920.3, -1729390.6, -318.19623, 0.00009883476, -0.036554627, -1690917.6, 38852.633 
3.95072e+2, 1.3348827e+2, -1601737.8, -1650894.9, -777.0223, -0.00256696, -0.07909471, -1601725.4, 30084.838 
3.950801e+2, 1.4348464e+2, -1508659.8, -1564812.3, -2302.7202, 0.009648316, -0.029380249, -1508565.4, 25280.326 
3.950877e+2, 1.5347998e+2, -1409143.4, -1466092.9, -2958.9272, -0.001158568, -0.044013895, -1408990.0, 26901.451 
3.9509517e+2, 1.6347465e+2, -1319815.5, -1387568.4, -4168.329, -0.0057017333, -0.0535084, -1319560.0, 18383.65 
3.9510265e+2, 1.734688e+2, -1221524.3, -1289305.3, -3949.0713, 0.0019750877, -0.052249543, -1221294.9, 18706.139 
3.9511e+2, 1.834622e+2, -1133156.1, -1212350.9, -4441.978, 0.0047141933, -0.04960297, -1132907.8, 9157.808 
3.951172e+2, 1.9345488e+2, -1033431.75, -1113574.0, -4666.423, -0.0017881739, -0.048221063, -1033160.94, 10976.509 
3.9512435e+2, 2.034468e+2, -944523.56, -1036120.2, -5261.444, -0.004237574, -0.047362287, -944222.3, 1994.1437 
3.9513156e+2, 2.13438e+2, -846498.44, -938086.4, -5436.39, 0.0008663554, -0.04968255, -846176.9, 2125.926 
3.951387e+2, 2.2342853e+2, -757398.4, -859296.9, -5322.608, 0.002591637, -0.049927477, -757121.1, -6725.551 
3.9514583e+2, 2.3341843e+2, -657783.94, -760250.4, -5104.2427, -0.0019970944, -0.04917794, -657530.3, -5035.903 
3.9515302e+2, 2.434076e+2, -569345.6, -683666.4, -4731.463, -0.0039087445, -0.048198257, -569150.1, -14549.526 
3.951603e+2, 2.53396e+2, -471129.4, -585605.0, -4834.448, -0.000775053, -0.049442, -470925.63, -14211.199 
3.9516762e+2, 2.633837e+2, -381978.47, -507219.56, -3979.8394, 0.00043089103, -0.04963163, -381852.13, -23017.16 
3.951751e+2, 2.733707e+2, -281979.5, -407950.84, -3824.1685, -0.0020711715, -0.05091575, -281863.5, -20901.508 
3.9518267e+2, 2.8335685e+2, -196062.31, -337047.28, -2806.0942, -0.003128823, -0.050297678, -196006.48, -32908.45 
3.9519042e+2, 2.93342e+2, -98005.92, -239293.16, -2569.1821, -0.0013471432, -0.049153082, -97959.22, -32715.494 
3.9519837e+2, 3.033307e+2, 3205.759, -83202.03, -687.7564, -0.0010168611, -0.04772698, 3211.233, 3211.233 
3.9520654e+2, 3.1332326e+2, 6746.661, -79229.875, -655.63434, -0.0035626246, -0.049232136, 6751.6606, 6751.6606 
4.0506673e+2, 1.23483844e+2, -1689757.1, -1730406.4, -617.5747, 0.000011757801, -0.03721905, -1689747.8, 40105.79 
4.0507492e+2, 1.3347982e+2, -1598551.5, -1648712.9, -1181.9603, -0.0025171961, -0.07902064, -1598523.6, 33369.496 
4.050831e+2, 1.4347622e+2, -1506271.5, -1564127.0, -2762.5098, 0.009679468, -0.028646264, -1506139.9, 27788.469 
4.0509072e+2, 1.5347148e+2, -1408190.5, -1466311.1, -2963.1904, -0.00095608213, -0.043239743, -1408039.9, 27934.93 
4.050983e+2, 1.6346611e+2, -1319120.0, -1387471.6, -4148.19, -0.00548758, -0.053119715, -1318869.1, 19158.201 
4.051058e+2, 1.7346022e+2, -1219969.0, -1288725.4, -4552.8296, 0.0018668933, -0.052987058, -1219668.8, 20416.201 
4.0511322e+2, 1.8345362e+2, -1131718.4, -1211919.3, -5297.613, 0.004494377, -0.05041677, -1131370.0, 10779.76 
4.0512046e+2, 1.9344628e+2, -1033642.4, -1113973.3, -5287.0376, -0.0017035258, -0.047269642, -1033295.9, 10925.786 
4.0512767e+2, 2.0343821e+2, -945160.9, -1036310.1, -5686.2896, -0.004050431, -0.046038363, -944807.5, 1493.2926 
4.051349e+2, 2.1342939e+2, -846099.75, -937711.5, -5477.6006, 0.0007417621, -0.050483227, -845773.44, 2613.7346 
4.051421e+2, 2.2341992e+2, -757049.4, -859324.56, -5252.2617, 0.0023621533, -0.05128575, -756780.3, -6300.388 
4.0514925e+2, 2.3340984e+2, -658775.44, -761011.5, -5601.6284, -0.0019197026, -0.048245188, -658469.44, -5890.634 
4.051565e+2, 2.4339901e+2, -570552.25, -684093.4, -5500.969, -0.0037245709, -0.046524253, -570286.4, -15601.333 
4.0516382e+2, 2.5338736e+2, -471322.25, -585472.2, -5270.25, -0.0008951295, -0.04989318, -471079.44, -14280.593 
4.0517125e+2, 2.633751e+2, -382236.38, -507080.8, -4187.2314, 0.00032291512, -0.050887063, -382096.1, -23176.857 
4.0517876e+2, 2.733622e+2, -284281.25, -408804.75, -4047.6855, -0.0015585719, -0.05049624, -284149.8, -23103.912 
4.0518638e+2, 2.8334832e+2, -199131.27, -338304.56, -3087.591, -0.002741978, -0.049165074, -199062.8, -35881.137 
4.0519416e+2, 2.9333347e+2, -99412.33, -239767.1, -3163.9685, -0.0024970875, -0.049152628, -99341.04, -34013.773 
4.0520218e+2, 3.0332217e+2, 2279.6921, -83006.914, -1304.4584, -0.0022581248, -0.048242725, 2299.6392, 2299.6392 
4.0521044e+2, 3.1331486e+2, 3292.9512, -80178.914, -629.8769, -0.0021392582, -0.04904811, 3297.7039, 3297.7039 
4.150697e+2, 1.23475246e+2, -1690974.6, -1732940.8, -358.41885, 0.0059950184, -0.04101065, -1690971.6, 38966.203 
4.1507792e+2, 1.3347128e+2, -1598342.8, -1648311.8, -791.5841, -0.0075470586, -0.076647, -1598330.3, 33646.418 
4.150861e+2, 1.434677e+2, -1506211.3, -1564024.4, -2668.6506, 0.0018546073, -0.026122665, -1506088.4, 27923.432 
4.1509387e+2, 1.5346292e+2, -1408155.6, -1466270.1, -2920.732, 0.0035505071, -0.046480387, -1408009.3, 28049.395 
4.151015e+2, 1.634575e+2, -1319685.3, -1388665.5, -3926.794, 0.0027510496, -0.05736244, -1319462.5, 18649.166 
4.1510898e+2, 1.734516e+2, -1220656.8, -1290160.0, -4292.184, -0.0017866241, -0.04969231, -1220392.8, 19776.883 
4.151164e+2, 1.8344495e+2, -1131788.6, -1212073.1, -5238.91, -0.003053751, -0.0447334, -1131448.3, 10786.463 
4.1512376e+2, 1.9343755e+2, -1033606.06, -1113911.9, -5261.8027, 0.0015093958, -0.048565563, -1033262.8, 11044.466 
4.1513103e+2, 2.0342948e+2, -944731.7, -1035432.1, -5472.259, 0.0028101942, -0.050293226, -944402.7, 1983.652 
4.151382e+2, 2.1342078e+2, -845617.2, -936704.3, -5236.2954, -0.0018787922, -0.050261382, -845317.2, 3154.41 
4.1514546e+2, 2.2341134e+2, -757587.1, -860414.7, -5204.456, -0.0036461442, -0.049001645, -757324.4, -6760.2886 
4.151527e+2, 2.3340112e+2, -659507.2, -762510.75, -5575.1987, 0.000043184704, -0.04843593, -659206.3, -6542.0674 
4.1516e+2, 2.4339023e+2, -570285.3, -683516.5, -5234.614, 0.0013070226, -0.047964234, -570043.8, -15272.838 
4.1516733e+2, 2.533787e+2, -470896.97, -584528.7, -4966.924, -0.0020208145, -0.050249144, -470680.28, -13796.217 
4.1517475e+2, 2.6336646e+2, -382079.3, -506680.5, -4209.647, -0.0032620588, -0.049978703, -381937.25, -22933.41 
4.151823e+2, 2.7335358e+2, -284160.16, -408515.47, -4134.4683, -0.00054238894, -0.048064712, -284022.88, -22892.705 
4.1518998e+2, 2.833397e+2, -199268.42, -338547.1, -2699.0962, -0.00019054244, -0.046944946, -199216.13, -35950.25 
4.1519785e+2, 2.933248e+2, -99659.24, -240157.81, -2675.3193, -0.0043064565, -0.050324272, -99608.32, -34196.293 
4.152059e+2, 3.0331355e+2, 3044.1863, -81267.97, -1318.1776, -0.0050766184, -0.050833113, 3064.7903, 3064.7903 
4.152142e+2, 3.133064e+2, 4302.334, -78004.18, -762.8953, 0.00050792296, -0.049305003, 4309.405, 4309.405 
4.2507276e+2, 1.2346662e+2, -1688805.8, -1733680.4, -703.3306, 0.006736415, -0.040490944, -1688794.8, 41227.594 
4.2508098e+2, 1.334627e+2, -1596013.9, -1646787.6, -955.0504, -0.007857323, -0.07553793, -1595995.9, 36065.035 
4.2508924e+2, 1.434591e+2, -1504853.4, -1563535.3, -2969.3013, 0.0008843658, -0.02756121, -1504703.5, 29392.637 
4.2509705e+2, 1.534543e+2, -1406390.9, -1465691.9, -3435.5945, 0.0037022636, -0.047189124, -1406192.5, 29950.578 
4.251047e+2, 1.6344887e+2, -1318015.5, -1388303.5, -4399.1807, 0.0033910933, -0.057122342, -1317741.3, 20455.08 
4.2511222e+2, 1.7344292e+2, -1219837.9, -1290256.9, -4371.7275, -0.0017883072, -0.048280638, -1219567.5, 20687.117 
4.2511967e+2, 1.8343624e+2, -1131189.9, -1211899.5, -5177.985, -0.0033529892, -0.04335307, -1130859.1, 11460.9795 
4.2512706e+2, 1.9342881e+2, -1032789.1, -1113577.8, -5280.0225, 0.0015128421, -0.049334604, -1032445.5, 11947.349 
4.2513436e+2, 2.0342073e+2, -944198.8, -1035403.94, -5700.9004, 0.0029674636, -0.05161996, -943843.9, 2628.2249 
4.2514157e+2, 2.1341202e+2, -845941.44, -937138.44, -6120.8306, -0.0018210316, -0.049261145, -845532.5, 3024.8909 
4.2514881e+2, 2.2340259e+2, -758068.7, -860506.3, -6277.437, -0.0036796213, -0.047285654, -757685.44, -7035.5186 
4.251561e+2, 2.3339236e+2, -659637.94, -762367.7, -5810.604, -0.00009641256, -0.048980217, -659310.3, -6560.272 
4.2516342e+2, 2.4338149e+2, -570733.44, -683624.7, -5010.9644, 0.001227948, -0.049311765, -570511.44, -15654.72 
4.2517078e+2, 2.5336996e+2, -472658.28, -585304.6, -5144.0474, -0.0017198182, -0.049672518, -472423.84, -15454.29 
4.2517826e+2, 2.6335776e+2, -384160.53, -507538.6, -4692.518, -0.0030694255, -0.04850999, -383982.3, -24893.148 
4.251858e+2, 2.7334487e+2, -284893.9, -408721.8, -4680.471, -0.0013814158, -0.047682967, -284717.25, -23501.781 
4.2519352e+2, 2.8333107e+2, -199796.19, -338405.38, -3089.0022, -0.00093227817, -0.047205746, -199727.38, -36376.355 
4.2520145e+2, 2.9331616e+2, -102543.06, -241116.95, -2621.4, -0.0028352945, -0.0503232, -102493.484, -36996.723 
4.2520955e+2, 3.0330497e+2, -584.3891, -82548.586, -1194.5769, -0.0034238163, -0.050638527, -566.9826, -566.9826 
4.2521787e+2, 3.1329784e+2, 2957.8787, -78192.67, -1394.8225, -0.0015251001, -0.049088452, 2981.846, 2981.846 
4.3507585e+2, 1.2345798e+2, -1689841.6, -1735844.1, -741.53485, 0.0023219944, -0.035841193, -1689829.6, 40277.418 
4.350842e+2, 1.3345402e+2, -1595683.4, -1646150.6, -882.22095, -0.0036316502, -0.075636, -1595668.0, 36477.82 
4.3509248e+2, 1.434504e+2, -1505090.3, -1564059.6, -2811.2307, 0.006537806, -0.032840542, -1504956.5, 29224.88 
4.3510026e+2, 1.5344562e+2, -1406737.3, -1466434.8, -3259.8745, -0.0003318657, -0.04548039, -1406559.8, 29668.422 
4.3510792e+2, 1.6344018e+2, -1318004.3, -1388302.6, -4340.3955, -0.003301416, -0.05257088, -1317737.3, 20544.248 
4.3511555e+2, 1.734342e+2, -1219773.0, -1290141.1, -4330.0815, 0.0016630631, -0.048657592, -1219507.5, 20832.652 
4.3512303e+2, 1.8342751e+2, -1131255.4, -1212046.3, -5113.483, 0.0032629254, -0.046094317, -1130933.0, 11472.751 
4.3513033e+2, 1.9342007e+2, -1032885.4, -1113788.6, -5210.8887, -0.0015257512, -0.049619213, -1032551.1, 11927.339 
4.3513763e+2, 2.0341195e+2, -944880.1, -1036817.25, -5666.1646, -0.003266234, -0.050169624, -944532.25, 2025.8038 
4.3514496e+2, 2.1340315e+2, -846748.44, -938799.4, -6077.677, 0.00073180627, -0.047522277, -846348.94, 2295.5215 
4.3515223e+2, 2.2339368e+2, -757416.2, -859138.75, -6165.4976, 0.0019149814, -0.046107303, -757043.8, -6306.528 
4.3515944e+2, 2.3338357e+2, -658721.56, -760446.06, -5701.152, -0.0021998254, -0.049859304, -658403.06, -5566.7217 
4.3516678e+2, 2.4337274e+2, -570882.7, -683901.5, -5038.756, -0.003667195, -0.050577313, -570658.5, -15716.172 
4.351742e+2, 2.533612e+2, -473021.94, -586023.1, -5189.8325, -0.00011707982, -0.0482257, -472784.1, -15728.709 
4.351817e+2, 2.6334897e+2, -384202.3, -507575.44, -4457.642, 0.00063915475, -0.046509217, -384041.44, -24866.219 
4.3518928e+2, 2.7333605e+2, -284903.47, -408655.44, -4389.6924, -0.003939816, -0.049197406, -284747.97, -23446.172 
4.35197e+2, 2.8332227e+2, -199278.03, -337228.7, -3168.9434, -0.004755193, -0.04976711, -199205.27, -35768.21 
4.3520498e+2, 2.933075e+2, -101911.37, -239727.83, -2788.8733, 0.0016370724, -0.049244184, -101854.96, -36273.434 
4.3521312e+2, 3.032964e+2, -862.73364, -83040.41, -812.7173, 0.0023533618, -0.047874186, -854.69684, -854.69684 
4.3522143e+2, 3.132892e+2, 2436.8604, -79112.4, -883.4302, -0.0078603355, -0.048433248, 2446.4297, 2446.4297 
4.4507906e+2, 1.2344928e+2, -1687855.8, -1736460.8, -826.9433, 0.0013445278, -0.036844566, -1687841.8, 42350.66 
4.4508746e+2, 1.3344538e+2, -1592642.0, -1644288.8, -915.4029, -0.0025422794, -0.07285913, -1592625.8, 39604.75 
4.4509578e+2, 1.434417e+2, -1502970.5, -1563541.5, -2872.2334, 0.0076489206, -0.033812705, -1502834.6, 31431.877 
4.4510356e+2, 1.5343688e+2, -1405335.3, -1466438.4, -3386.0232, -0.00087131315, -0.04498371, -1405148.3, 31165.531 
4.4511124e+2, 1.6343142e+2, -1316757.4, -1387826.3, -4628.563, -0.004422022, -0.05170839, -1316457.1, 21910.207 
4.4511887e+2, 1.7342542e+2, -1218812.9, -1289717.0, -4715.627, 0.0018882453, -0.049581297, -1218500.6, 21925.574 
4.4512638e+2, 1.834187e+2, -1130690.8, -1212091.4, -5540.216, 0.004045915, -0.047381215, -1130315.4, 12176.589 
4.4513366e+2, 1.9341128e+2, -1032360.4, -1113919.6, -5767.621, -0.0016370906, -0.04866023, -1031954.5, 12610.347 
4.45141e+2, 2.0340313e+2, -944320.06, -1036577.1, -6122.6577, -0.0037802225, -0.048476603, -943915.5, 2729.0972 
4.451483e+2, 2.133943e+2, -846712.06, -938761.2, -5734.6353, 0.00071625784, -0.047913462, -846356.1, 2374.9854 
4.451556e+2, 2.2338483e+2, -757868.8, -859399.06, -5531.7827, 0.0022060226, -0.04725293, -757568.3, -6744.245 
4.4516283e+2, 2.3337473e+2, -659425.5, -760855.56, -6017.6753, -0.001959635, -0.04924938, -659069.7, -6146.7446 
4.4517016e+2, 2.433639e+2, -571633.56, -684170.4, -5956.1, -0.0036326705, -0.049250524, -571319.2, -16290.29 
4.4517756e+2, 2.5335237e+2, -473779.0, -586278.0, -5729.917, -0.0005943683, -0.048170667, -473487.9, -16345.916 
4.4518507e+2, 2.6334015e+2, -385192.9, -507712.0, -4503.657, 0.00023251325, -0.047232773, -385027.56, -25765.848 
4.451927e+2, 2.7332726e+2, -286906.44, -409249.72, -4212.635, -0.0031767758, -0.049706895, -286761.53, -25373.625 
4.4520044e+2, 2.833135e+2, -201783.17, -338268.03, -3227.472, -0.003928644, -0.04981871, -201706.89, -38184.0 
4.4520837e+2, 2.9329878e+2, -103605.125, -240431.6, -3484.4229, 0.00040631052, -0.04843431, -103516.445, -37849.258 
4.4521654e+2, 3.0328766e+2, -2367.4407, -83151.76, -1392.8319, 0.00080860715, -0.046839364, -2343.4333, -2343.4333 
4.4522494e+2, 3.1328052e+2, -970.83636, -80052.484, -577.5725, -0.006334023, -0.048376456, -966.6183, -966.6183 
4.5508245e+2, 1.2344052e+2, -1688798.3, -1738433.4, -911.3006, 0.0036787742, -0.0434589, -1688781.5, 41496.69 
4.550908e+2, 1.3343677e+2, -1592430.8, -1643899.0, -894.95685, -0.0044787806, -0.067318924, -1592415.1, 39899.92 
4.5509908e+2, 1.4343306e+2, -1503337.6, -1564337.4, -2858.096, 0.004353259, -0.030626554, -1503204.0, 31147.404 
4.5510694e+2, 1.5342814e+2, -1405820.5, -1467467.5, -3365.0222, 0.0019047799, -0.04563637, -1405637.3, 30762.375 
4.5511463e+2, 1.634226e+2, -1316901.4, -1388148.5, -4661.314, -0.00021117255, -0.054385282, -1316597.6, 21856.293 
4.551222e+2, 1.7341658e+2, -1218894.5, -1289920.5, -4758.2485, -0.0009554061, -0.05103497, -1218577.1, 21935.742 
4.5512968e+2, 1.8340985e+2, -1130999.3, -1212756.3, -5484.6777, -0.00075704907, -0.04728761, -1130632.9, 11945.852 
4.5513707e+2, 1.934024e+2, -1032739.4, -1114699.5, -5683.758, 0.0009957784, -0.046523906, -1032347.06, 12304.888 
4.551444e+2, 2.0339426e+2, -943724.44, -1035330.9, -6201.383, 0.0011182934, -0.046553344, -943306.5, 3425.1272 
4.5515162e+2, 2.1338548e+2, -845925.75, -937142.1, -5856.1943, -0.0017176574, -0.050310418, -845551.3, 3266.1802 
4.551589e+2, 2.2337602e+2, -758535.94, -860784.2, -5519.5313, -0.002528311, -0.05059373, -758238.8, -7328.607 
4.551662e+2, 2.3336585e+2, -660405.3, -762848.94, -5960.6514, 0.0004516628, -0.04725205, -660059.7, -7049.6685 
4.5517355e+2, 2.4335498e+2, -571436.3, -683705.94, -5970.853, 0.0010093754, -0.045487348, -571119.6, -16003.191 
4.5518088e+2, 2.5334346e+2, -473348.97, -585348.4, -5767.403, -0.003007403, -0.04940265, -473052.75, -15823.416 
4.5518836e+2, 2.633313e+2, -384792.7, -506841.34, -4502.255, -0.004026421, -0.05049374, -384626.8, -25278.19 
4.5519605e+2, 2.733185e+2, -286550.13, -408423.2, -4208.7065, 0.0006354114, -0.049291898, -286404.94, -24931.027 
4.5520383e+2, 2.8330475e+2, -202183.88, -338985.16, -3166.5186, 0.0011945071, -0.047540553, -202110.61, -38502.035 
4.5521167e+2, 2.9328996e+2, -104154.734, -241476.36, -3397.737, -0.0060686725, -0.047861926, -104070.72, -38316.99 
4.552198e+2, 3.0327883e+2, -1489.0511, -81227.86, -1384.5115, -0.007500044, -0.047390476, -1465.019, -1465.019 
4.5522836e+2, 3.1327188e+2, 161.6294, -77549.055, -606.2355, 0.0023255993, -0.048869196, 166.35846, 166.35846 
4.650859e+2, 1.23431794e+2, -1686946.0, -1738971.5, -1103.288, 0.00459205, -0.044650193, -1686922.6, 43441.14 
4.6509424e+2, 1.3342808e+2, -1589629.8, -1642440.8, -1101.0396, -0.005081008, -0.06386353, -1589606.9, 42793.297 
4.651025e+2, 1.4342432e+2, -1501038.0, -1563464.1, -3123.581, 0.002700741, -0.033176165, -1500882.1, 33555.0 
4.651104e+2, 1.5341938e+2, -1404302.3, -1467045.4, -3341.8523, 0.0027435056, -0.046138026, -1404124.8, 32360.746 
4.6511808e+2, 1.6341382e+2, -1315861.8, -1388200.5, -4465.4316, 0.0014613111, -0.05342069, -1315587.1, 22952.822 
4.6512562e+2, 1.7340775e+2, -1217468.0, -1289845.3, -4834.8335, -0.0015144175, -0.0499618, -1217146.5, 23452.914 
4.6513307e+2, 1.8340099e+2, -1129463.3, -1212077.3, -5729.784, -0.0021483311, -0.046580512, -1129067.8, 13597.926 
4.6514043e+2, 1.9339351e+2, -1032617.4, -1114619.0, -5561.188, 0.0013575422, -0.046987757, -1032241.94, 12496.999 
4.6514776e+2, 2.0338538e+2, -944311.25, -1035743.8, -6020.9717, 0.0021929983, -0.047332767, -943916.5, 2902.1865 
4.6515498e+2, 2.133766e+2, -845567.0, -937140.7, -6543.101, -0.0018857723, -0.049818903, -845101.8, 3802.7183 
4.651622e+2, 2.2336714e+2, -757944.06, -860498.6, -6595.796, -0.0032731227, -0.04959504, -757521.6, -6524.2524 
4.6516952e+2, 2.3335695e+2, -661280.3, -763256.0, -6107.832, 0.0003853543, -0.047218956, -660915.75, -7818.5693 
4.6517685e+2, 2.433461e+2, -572941.9, -684279.9, -5425.7905, 0.0013454561, -0.04589439, -572678.06, -17474.45 
4.6518418e+2, 2.5333458e+2, -474111.97, -585551.06, -5526.1064, -0.0028173358, -0.04920125, -473838.6, -16522.293 
4.6519166e+2, 2.6332244e+2, -385529.88, -507021.03, -4799.945, -0.0040137237, -0.049784787, -385340.53, -25905.16 
4.651993e+2, 2.7330965e+2, -288657.06, -409279.2, -4862.8804, 0.00041797577, -0.04831977, -288461.34, -26900.826 
4.6520707e+2, 2.8329596e+2, -204764.73, -339758.88, -3447.947, 0.00093739235, -0.046840105, -204676.72, -40981.785 
4.6521494e+2, 2.932812e+2, -106021.836, -241856.97, -2816.5945, -0.005996819, -0.048407074, -105963.45, -40123.727 
4.6522307e+2, 3.032701e+2, -3339.7463, -81654.0, -899.89233, -0.007319809, -0.04833504, -3329.4072, -3329.4072 
4.652316e+2, 3.1326318e+2, -2928.5208, -78601.02, -1122.9026, 0.0021450229, -0.048577324, -2911.8616, -2911.8616 
4.7508946e+2, 1.2342311e+2, -1687782.6, -1740750.5, -1180.8969, 0.0040736306, -0.040626857, -1687756.4, 42692.61 
4.7509778e+2, 1.3341936e+2, -1589664.4, -1642550.9, -1081.2649, -0.0044173724, -0.062393405, -1589642.3, 42843.457 
4.7510606e+2, 1.4341548e+2, -1500952.6, -1563316.8, -3267.8088, 0.0026152625, -0.041245993, -1500781.9, 33741.625 
4.7511384e+2, 1.5341064e+2, -1404181.4, -1466847.8, -3517.7651, 0.0017167012, -0.04651077, -1403984.5, 32586.598 
4.7512153e+2, 1.634051e+2, -1316368.9, -1389295.5, -4439.03, 0.0006825085, -0.04898098, -1316099.8, 22525.648 
4.751291e+2, 1.7339894e+2, -1218129.3, -1291218.0, -4757.068, 0.00007592647, -0.04648279, -1217821.0, 22864.89 
4.7513655e+2, 1.8339211e+2, -1129242.1, -1211616.1, -5974.4824, -0.0003162607, -0.045287807, -1128811.1, 13941.617 
4.7514382e+2, 1.9338465e+2, -1032210.4, -1113815.1, -5874.127, -0.0004306952, -0.049903166, -1031789.7, 13036.146 
4.751511e+2, 2.033765e+2, -945013.4, -1037232.5, -5949.75, -0.00036937543, -0.050671846, -944631.06, 2274.6135 
4.7515836e+2, 2.1336766e+2, -846533.6, -939109.06, -6379.797, 0.000044674573, -0.046624593, -846096.0, 2896.2986 
4.751656e+2, 2.2335817e+2, -757357.3, -859228.75, -6841.1567, -0.00028914982, -0.044511653, -756899.94, -5814.602 
4.7517276e+2, 2.3334804e+2, -660366.06, -761359.7, -6447.572, -0.0019905276, -0.04900771, -659956.1, -6771.5776 
4.7518006e+2, 2.4333723e+2, -572965.56, -684330.3, -5356.171, -0.0023622739, -0.050200455, -572708.56, -17418.12 
4.7518748e+2, 2.5332576e+2, -474383.25, -586031.4, -5368.134, -0.00024325176, -0.04767967, -474125.75, -16722.838 
4.7519496e+2, 2.633136e+2, -385781.88, -507430.13, -5062.7383, -0.000043441138, -0.045385513, -385571.53, -26049.504 
4.752024e+2, 2.7330077e+2, -288865.63, -409672.75, -5205.618, -0.0035166142, -0.04682242, -288641.72, -26994.043 
4.7521013e+2, 2.8328708e+2, -203912.92, -337960.0, -3277.6584, -0.0043189065, -0.047589075, -203832.83, -40050.88 
4.752182e+2, 2.9327247e+2, -105044.96, -239669.64, -2560.6934, 0.000046372927, -0.049979236, -104996.27, -39070.992 
4.7522637e+2, 3.0326146e+2, -3767.393, -82336.47, -1159.8007, 0.0006560671, -0.04963947, -3750.2764, -3750.2764 
4.7523466e+2, 3.1325448e+2, -3580.5222, -79866.1, -1467.1228, -0.0060931696, -0.04757208, -3552.3171, -3552.3171 
4.8509312e+2, 1.23414434e+2, -1684474.1, -1740207.0, -954.73615, 0.003149388, -0.04128509, -1684457.8, 46076.13 
4.851014e+2, 1.3341072e+2, -1587571.3, -1641684.3, -808.0386, -0.0030307798, -0.057922814, -1587559.1, 45011.227 
4.8510963e+2, 1.4340675e+2, -1499864.9, -1563350.8, -3027.8333, 0.0035215863, -0.044292096, -1499720.8, 34888.434 
4.851174e+2, 1.5340187e+2, -1401990.4, -1466430.5, -3751.0327, 0.0006354886, -0.046629578, -1401772.8, 34884.273 
4.8512506e+2, 1.6339631e+2, -1313832.4, -1388208.9, -4947.137, -0.00084254966, -0.04756765, -1313504.8, 25206.807 
4.851326e+2, 1.7339012e+2, -1217614.5, -1291035.4, -4675.2505, 0.00094947685, -0.04643125, -1217318.0, 23454.195 
4.8514003e+2, 1.8338327e+2, -1129646.8, -1212200.0, -5604.88, 0.0013357826, -0.04580289, -1129268.0, 13571.308 
4.8514724e+2, 1.9337578e+2, -1030873.2, -1113630.8, -6154.5825, -0.0010384921, -0.049434867, -1030418.0, 14494.693 
4.8515448e+2, 2.033676e+2, -943203.94, -1036452.3, -6478.8296, -0.0018172382, -0.049795087, -942755.94, 4236.889 
4.8516172e+2, 2.1335876e+2, -847349.0, -939547.25, -6021.195, 0.00043161106, -0.0464621, -846957.44, 2122.0764 
4.851689e+2, 2.2334927e+2, -759152.6, -860007.2, -6056.2, 0.00081449666, -0.044695206, -758790.25, -7617.671 
4.8517606e+2, 2.3333916e+2, -660208.7, -761181.4, -6479.976, -0.0023170987, -0.048793003, -659794.5, -6522.8745 
4.851833e+2, 2.4332835e+2, -572437.75, -683967.5, -5973.159, -0.0032279168, -0.04977562, -572118.75, -16741.326 
4.8519066e+2, 2.533169e+2, -476513.9, -586971.25, -5746.696, 0.000059003654, -0.04744356, -476215.75, -18725.932 
4.851981e+2, 2.6330474e+2, -388704.75, -508557.22, -4961.677, 0.0006126758, -0.045384094, -388499.7, -28890.89 
4.8520556e+2, 2.7329198e+2, -289360.22, -409601.97, -4693.7207, -0.00407394, -0.047105033, -289177.28, -27443.06 
4.8521325e+2, 2.832783e+2, -204017.53, -337722.75, -3008.8167, -0.0050739422, -0.04775497, -203949.86, -40081.664 
4.852213e+2, 2.9326367e+2, -108652.016, -241146.22, -3229.7307, 0.0010333933, -0.049280092, -108573.336, -42562.105 
4.8522943e+2, 3.0325273e+2, -8298.712, -83819.125, -1775.1653, 0.0018726671, -0.048645318, -8257.009, -8257.009 
4.8523766e+2, 3.1324583e+2, -4793.1436, -79673.63, -970.0373, -0.0075633787, -0.047407173, -4780.579, -4780.579 
4.950969e+2, 1.2340579e+2, -1684943.9, -1741212.4, -1452.6934, 0.0017866517, -0.046530664, -1684906.4, 45712.21 
4.9510515e+2, 1.3340217e+2, -1587657.5, -1641936.9, -1262.4097, -0.0009659442, -0.050584894, -1587628.3, 45025.906 
4.9511328e+2, 1.433981e+2, -1500584.5, -1564906.0, -2986.9, 0.0053605707, -0.04252005, -1500446.0, 34247.99 
4.9512106e+2, 1.5339307e+2, -1402869.9, -1468261.1, -3603.413, -0.0005128851, -0.046494994, -1402671.9, 34071.29 
4.9512866e+2, 1.6338745e+2, -1313504.8, -1387535.5, -5317.566, -0.0030952105, -0.049037326, -1313124.8, 25673.586 
4.951361e+2, 1.7338131e+2, -1217029.5, -1289885.3, -5152.7656, 0.0011297475, -0.049633037, -1216666.9, 24191.479 
4.9514347e+2, 1.8337448e+2, -1130295.5, -1213599.6, -5545.6084, 0.002792874, -0.048040003, -1129927.9, 12997.485 
4.9515074e+2, 1.9336691e+2, -1031818.56, -1115566.0, -5973.816, -0.00054584147, -0.045786858, -1031394.56, 13605.009 
4.9515793e+2, 2.0335872e+2, -942673.4, -1035312.3, -6907.2065, -0.002228154, -0.044936888, -942161.2, 4918.839 
4.9516505e+2, 2.1334991e+2, -846496.9, -937809.3, -6581.047, -0.00064077467, -0.049126282, -846025.0, 3141.2527 
4.9517214e+2, 2.2334044e+2, -759596.0, -860959.7, -5999.515, 0.00012716666, -0.049817428, -759242.1, -7983.028 
4.9517936e+2, 2.333303e+2, -660974.06, -762710.9, -6287.2803, -0.0007516816, -0.046725597, -660587.0, -7228.464 
4.9518657e+2, 2.4331947e+2, -572344.06, -683683.94, -6391.318, -0.0014560195, -0.044936236, -571978.4, -16513.836 
4.9519378e+2, 2.53308e+2, -476209.66, -586324.3, -6292.3877, -0.0017495075, -0.048385665, -475851.25, -18274.191 
4.9520114e+2, 2.6329586e+2, -388197.47, -507495.06, -4799.64, -0.0018245853, -0.049454, -388004.7, -28308.94 
4.952087e+2, 2.7328318e+2, -288903.84, -408515.78, -4394.028, -0.0015458877, -0.04903649, -288742.63, -26922.436 
4.952164e+2, 2.8326952e+2, -204583.4, -338714.06, -3521.5273, -0.0016926124, -0.04738661, -204491.02, -40537.227 
4.9522418e+2, 2.9325488e+2, -109352.78, -242548.89, -3894.3433, -0.0026095733, -0.046502937, -109239.016, -43141.44 
4.9523222e+2, 3.0324394e+2, -7213.2695, -81527.06, -1424.3394, -0.0031250198, -0.045545, -7185.98, -7185.98 
4.9524072e+2, 3.132372e+2, -3480.4084, -76689.73, -429.9291, -0.0029301182, -0.04800023, -3477.8838, -3477.8838 
5.051008e+2, 1.2339721e+2, -1683466.9, -1741316.0, -1448.8536, 0.0022406455, -0.049036928, -1683430.6, 47272.12 
5.0510895e+2, 1.3339362e+2, -1584182.5, -1640896.0, -1475.1548, -0.0010968428, -0.045478135, -1584144.1, 48593.926 
5.0511706e+2, 1.433894e+2, -1496780.5, -1563423.6, -3198.1724, 0.0040842653, -0.044847414, -1496627.4, 38151.88 
5.0512475e+2, 1.5338439e+2, -1402022.9, -1468173.4, -3140.7056, 0.00030192416, -0.04696839, -1401874.0, 34954.44 
5.051323e+2, 1.6337873e+2, -1313866.0, -1388237.0, -4627.3237, -0.0016797, -0.048324056, -1313579.1, 25304.715 
5.051397e+2, 1.7337254e+2, -1214970.1, -1289466.0, -5355.6436, 0.00031533706, -0.049290106, -1214587.0, 26357.418 
5.05147e+2, 1.8336567e+2, -1127486.8, -1212363.0, -6156.756, 0.0012482012, -0.047950663, -1127042.5, 15969.284 
5.0515425e+2, 1.933581e+2, -1032242.6, -1115828.5, -5720.378, 0.000009198186, -0.045693573, -1031852.94, 13233.092 
5.051614e+2, 2.0334989e+2, -944319.9, -1036150.4, -6300.8203, -0.0009069926, -0.044803187, -943889.56, 3276.9026 
5.051684e+2, 2.1334109e+2, -845535.6, -937395.9, -6820.239, -0.0011134817, -0.048872914, -845032.0, 4220.726 
5.051755e+2, 2.233316e+2, -758022.94, -860320.3, -6631.0176, -0.0009726439, -0.049520083, -757594.9, -6249.2437 
5.0518256e+2, 2.3332144e+2, -662499.5, -763603.8, -6308.352, -0.00024730197, -0.046540774, -662107.44, -8662.192 
5.051898e+2, 2.4331063e+2, -574837.1, -684709.56, -6023.5244, -0.00046036823, -0.04483453, -574507.9, -18956.586 
5.051969e+2, 2.5329918e+2, -476200.03, -586087.1, -6079.608, -0.002419975, -0.048288707, -475864.7, -18201.123 
5.052042e+2, 2.6328707e+2, -387779.34, -506984.5, -4831.7793, -0.0029290027, -0.0492376, -387583.8, -27801.807 
5.052117e+2, 2.7327442e+2, -292193.78, -409800.4, -4783.9404, -0.0007057584, -0.04848879, -291999.53, -30093.344 
5.0521934e+2, 2.832608e+2, -209035.81, -340545.66, -3788.0378, -0.00048302318, -0.04682439, -208926.8, -44887.3 
5.05227e+2, 2.9324615e+2, -110060.71, -242585.7, -3306.9634, -0.0040876246, -0.04651901, -109978.234, -43795.18 
5.052351e+2, 3.0323526e+2, -7057.3623, -80844.05, -697.73596, -0.005061593, -0.04572134, -7050.765, -7050.765 
5.0524354e+2, 3.1322858e+2, -8674.509, -78540.414, -761.7582, -0.0009797818, -0.04752733, -8666.204, -8666.204 
5.151047e+2, 1.23388685e+2, -1683961.0, -1742421.9, -1464.6388, 0.004396842, -0.048888586, -1683924.4, 46861.95 
5.151129e+2, 1.3338503e+2, -1584848.3, -1642296.4, -1425.2474, -0.0033365823, -0.04250304, -1584812.9, 48009.363 
5.151209e+2, 1.4338069e+2, -1496504.9, -1562868.9, -3733.7336, -0.00019665378, -0.051101394, -1496295.5, 38569.18 
5.1512855e+2, 1.5337577e+2, -1401527.1, -1467230.9, -3794.5422, 0.002953488, -0.048034556, -1401308.8, 35604.08 
5.15136e+2, 1.6337013e+2, -1314768.5, -1390184.3, -4585.792, 0.0032044235, -0.04554527, -1314490.6, 24477.434 
5.151434e+2, 1.7336379e+2, -1216209.6, -1292022.0, -5158.721, -0.0014435408, -0.045594946, -1215860.1, 25170.135 
5.151506e+2, 1.8335682e+2, -1127020.4, -1211370.4, -6699.925, -0.003159903, -0.045652203, -1126491.5, 16606.924 
5.151577e+2, 1.9334932e+2, -1031403.4, -1114141.0, -6420.563, 0.0006028617, -0.0489319, -1030908.06, 14264.002 
5.1516473e+2, 2.0334113e+2, -944849.1, -1037304.75, -6296.8457, 0.0020244876, -0.04911519, -944422.25, 2830.07 
5.1517177e+2, 2.1333228e+2, -846402.4, -939158.5, -6661.9297, -0.0010383452, -0.045906734, -845926.3, 3412.751 
5.151788e+2, 2.2332276e+2, -757785.4, -859761.5, -7126.684, -0.0024796405, -0.0441492, -757289.75, -5857.4214 
5.151858e+2, 2.333126e+2, -662011.0, -762585.94, -6940.458, -0.00073811464, -0.04808918, -661534.3, -8002.479 
5.151928e+2, 2.4330181e+2, -574753.2, -684537.0, -6026.9087, -0.00020615297, -0.049137354, -574423.3, -18785.68 
5.152e+2, 2.532904e+2, -476266.9, -586133.7, -5953.5435, -0.0020603908, -0.04724522, -475945.25, -18195.766 
5.152073e+2, 2.6327837e+2, -387959.0, -507232.03, -5381.356, -0.0028196264, -0.045063183, -387716.7, -27848.979 
5.152146e+2, 2.7326563e+2, -292349.1, -410085.38, -5468.1475, -0.0014256416, -0.045657177, -292095.66, -30103.484 
5.152222e+2, 2.8325203e+2, -208261.17, -338904.8, -3608.7358, -0.0012954962, -0.04607778, -208161.56, -44036.23 
5.1522994e+2, 2.932375e+2, -109205.695, -240615.1, -2960.906, -0.0036165752, -0.049085222, -109139.016, -42871.207 
5.152379e+2, 3.0322665e+2, -7488.1577, -81497.17, -1397.4524, -0.0042149294, -0.04889819, -7461.7803, -7461.7803 
5.1524615e+2, 3.1321993e+2, -9268.124, -79717.09, -1667.4689, -0.0014923549, -0.046102177, -9228.679, -9228.679 
5.251089e+2, 1.2338026e+2, -1679265.8, -1740312.1, -1161.8767, 0.0039771604, -0.0491076, -1679243.8, 51625.27 
5.2511686e+2, 1.3337657e+2, -1583946.5, -1642628.6, -898.0614, -0.0023563541, -0.038156994, -1583932.8, 48972.285 
5.251248e+2, 1.433721e+2, -1496597.8, -1563541.1, -3214.4495, -0.00021021035, -0.054950662, -1496443.8, 38505.11 
5.2513236e+2, 1.5336716e+2, -1398454.9, -1466343.3, -4077.0813, 0.002430533, -0.04821339, -1398210.9, 38786.33 
5.2513975e+2, 1.633615e+2, -1310777.5, -1388505.9, -5140.107, 0.0027015256, -0.04363869, -1310439.1, 28613.563 
5.251471e+2, 1.7335513e+2, -1216084.3, -1292174.3, -4640.344, -0.0009435421, -0.044929396, -1215802.4, 25312.826 
5.2515423e+2, 1.8334815e+2, -1128432.3, -1212305.6, -5752.6035, -0.0024084067, -0.045738667, -1128039.6, 15144.066 
5.2516127e+2, 1.933406e+2, -1029848.44, -1113660.3, -6432.816, 0.00015390234, -0.048745014, -1029357.6, 15899.851 
5.2516824e+2, 2.033324e+2, -942442.44, -1036399.0, -6734.952, 0.0012156419, -0.0488034, -941962.06, 5375.7847 
5.2517515e+2, 2.1332352e+2, -847241.8, -939842.7, -6446.0986, -0.00059845496, -0.045800358, -846795.25, 2629.6812 
5.2518207e+2, 2.2331402e+2, -759744.56, -860526.9, -6619.957, -0.0016805272, -0.044094767, -759311.56, -7793.365 
5.25189e+2, 2.3330386e+2, -661825.25, -762235.56, -6761.1484, -0.0013108922, -0.047769405, -661372.06, -7754.553 
5.251959e+2, 2.4329309e+2, -574231.8, -684185.4, -5990.115, -0.0011440917, -0.048625708, -573906.44, -18183.3 
5.2520305e+2, 2.5328168e+2, -478549.56, -587189.3, -5872.3506, -0.0014247145, -0.04670916, -478233.06, -20398.178 
5.252102e+2, 2.6326963e+2, -391071.66, -508534.94, -5225.6865, -0.001817673, -0.044710953, -390839.66, -30886.602 
5.252175e+2, 2.7325696e+2, -292801.34, -410087.4, -5059.0386, -0.0024104496, -0.045851782, -292583.53, -30506.162 
5.252249e+2, 2.832434e+2, -208175.98, -338322.13, -3170.825, -0.0026706294, -0.046338882, -208098.78, -43888.574 
5.252327e+2, 2.9322892e+2, -113276.67, -241989.78, -3110.0496, -0.0022612175, -0.048479225, -113201.57, -46849.49 
5.252406e+2, 3.032181e+2, -12773.387, -83615.06, -1652.4034, -0.0023225092, -0.048106164, -12734.865, -12734.865 
5.252487e+2, 3.132114e+2, -9675.492, -79537.555, -1149.7705, -0.0034006867, -0.046499763, -9656.574, -9656.574 
5.351131e+2, 1.23371914e+2, -1678929.9, -1739669.6, -1968.2363, 0.0010342238, -0.0496558, -1678866.1, 52084.61 
5.3512096e+2, 1.3336825e+2, -1584188.6, -1643227.5, -1745.5809, 0.0016695671, -0.032518845, -1584137.0, 48849.535 
5.351288e+2, 1.4336362e+2, -1497565.1, -1565634.4, -3190.8582, 0.0038305782, -0.056516018, -1497415.9, 37616.016 
5.351363e+2, 1.5335855e+2, -1399622.6, -1468763.9, -3866.6519, -0.0011075211, -0.04755193, -1399407.0, 37674.656 
5.351437e+2, 1.6335285e+2, -1310209.8, -1387323.4, -5807.649, -0.0029328237, -0.04256033, -1309774.9, 29362.783 
5.351508e+2, 1.7334656e+2, -1215134.4, -1290283.3, -5492.847, 0.0016549412, -0.04712098, -1214735.0, 26464.21 
5.3515786e+2, 1.833396e+2, -1129137.0, -1213845.1, -5814.5513, 0.00318689, -0.04808235, -1128739.8, 14527.565 
5.351648e+2, 1.9333197e+2, -1030949.4, -1115928.8, -6319.751, -0.0012679824, -0.04535875, -1030482.0, 14860.205 
5.351717e+2, 2.033237e+2, -942265.8, -1035988.8, -7303.4717, -0.0031168435, -0.044151124, -941700.1, 5723.164 
5.3517854e+2, 2.133148e+2, -846783.5, -938903.4, -7155.3667, 0.00015650027, -0.04834515, -846231.0, 3279.3481 
5.351853e+2, 2.233053e+2, -759765.2, -860589.3, -6790.1895, 0.0012465932, -0.048999812, -759309.94, -7706.4653 
5.3519213e+2, 2.3329522e+2, -661994.56, -762540.94, -6820.3257, -0.001965336, -0.045731112, -661534.06, -7831.7183 
5.3519905e+2, 2.4328445e+2, -574236.75, -684120.94, -6514.844, -0.0032068214, -0.04364368, -573851.9, -18044.076 
5.35206e+2, 2.53273e+2, -478503.88, -587060.2, -6490.192, -0.00055271765, -0.046629667, -478117.22, -20197.322 
5.3521305e+2, 2.6326096e+2, -390759.34, -507847.78, -5300.9463, -0.000012070918, -0.047877636, -390519.84, -30481.756 
5.3522027e+2, 2.732483e+2, -292504.03, -409336.03, -5024.0024, -0.003651444, -0.048829634, -292288.4, -30126.543 
5.3522766e+2, 2.832348e+2, -208354.88, -338527.47, -3809.1616, -0.004586626, -0.047531, -208243.52, -43949.258 
5.352352e+2, 2.9322037e+2, -113501.05, -242389.16, -3887.5032, -0.00012208588, -0.0449942, -113383.9, -46947.918 
5.352431e+2, 3.032096e+2, -12055.139, -82049.586, -1428.3644, 0.000507748, -0.043700483, -12026.003, -12026.003 
5.352512e+2, 3.1320298e+2, -8904.007, -77639.49, -717.5583, -0.006605893, -0.04854333, -8896.517, -8896.517 
5.4511744e+2, 1.2336371e+2, -1677280.6, -1738978.4, -1385.0533, 0.00065740745, -0.051772542, -1677249.5, 53781.715 
5.4512525e+2, 1.3336e+2, -1580574.0, -1642933.4, -1807.3596, 0.0024052425, -0.027967911, -1580521.8, 52545.863 
5.451329e+2, 1.433552e+2, -1492988.8, -1563950.1, -3247.7883, 0.0035308008, -0.05792135, -1492840.5, 42274.0 
5.451403e+2, 1.5335011e+2, -1399035.6, -1468850.8, -2974.4224, -0.0010970273, -0.047585268, -1398909.1, 38255.254 
5.451476e+2, 1.6334437e+2, -1311171.8, -1388195.9, -4740.916, -0.0027912462, -0.04187649, -1310881.0, 28339.602 
5.4515463e+2, 1.7333804e+2, -1212801.3, -1289578.9, -5596.5903, 0.0015284143, -0.047188878, -1212395.5, 28887.145 
5.4516155e+2, 1.8333106e+2, -1125784.5, -1212589.6, -6382.5327, 0.0030435368, -0.04845982, -1125317.8, 18033.477 
5.451684e+2, 1.9332339e+2, -1031058.4, -1116361.9, -6047.0693, -0.0009348215, -0.045197427, -1030631.9, 14794.42 
5.451752e+2, 2.0331511e+2, -943704.7, -1036601.6, -6653.1763, -0.0027628199, -0.04362505, -943230.56, 4276.9087 
5.451819e+2, 2.1330623e+2, -846267.1, -938491.8, -6857.336, -0.00036356974, -0.047783338, -845760.06, 3834.3535 
5.4518855e+2, 2.2329672e+2, -758856.75, -860277.7, -6639.6484, 0.000547391, -0.048547197, -758423.94, -6736.41 
5.4519534e+2, 2.3328662e+2, -663161.06, -763311.3, -6649.7646, -0.0015138622, -0.045670018, -662721.5, -8934.91 
5.452021e+2, 2.4327587e+2, -576059.56, -684832.6, -6386.4814, -0.0024568706, -0.043823656, -575685.9, -19793.814 
5.4520893e+2, 2.5326443e+2, -478972.97, -587055.94, -6302.582, -0.0011691898, -0.046729445, -478606.7, -20602.678 
5.452159e+2, 2.632524e+2, -391113.47, -507614.5, -5013.6094, -0.000932055, -0.047713827, -390898.13, -30776.238 
5.45223e+2, 2.7323982e+2, -295385.94, -410306.44, -4835.789, -0.0027858783, -0.04808322, -295182.78, -32937.566 
5.4523027e+2, 2.8322634e+2, -212178.16, -340261.4, -3683.8367, -0.0034120888, -0.046813786, -212072.28, -47694.92 
5.452377e+2, 2.9321185e+2, -114623.35, -242903.58, -3582.4075, -0.0015684587, -0.045485068, -114523.38, -48004.207 
5.4524547e+2, 3.0320114e+2, -12500.389, -81330.69, -1006.30273, -0.0014275536, -0.044352204, -12485.68, -12485.68 
5.452535e+2, 3.1319463e+2, -14342.473, -79150.87, -540.0084, -0.004757287, -0.047272924, -14337.974, -14337.974 
5.551219e+2, 1.2335562e+2, -1677645.1, -1739827.6, -1482.431, 0.0026990867, -0.055323444, -1677609.9, 53500.637 
5.551296e+2, 1.3335177e+2, -1582083.1, -1646074.9, -1904.6178, 0.0000102110125, -0.02446693, -1582026.4, 51121.74 
5.551371e+2, 1.4334683e+2, -1492676.0, -1563328.0, -4002.6167, -0.0009232892, -0.05918464, -1492450.0, 42746.633 
5.551444e+2, 1.5334183e+2, -1398325.5, -1467478.3, -3867.9756, 0.0022313257, -0.04828425, -1398109.9, 39135.727 
5.5515146e+2, 1.6333608e+2, -1312146.8, -1390304.4, -4862.734, 0.0027976502, -0.041579515, -1311845.4, 27456.36 
5.5515844e+2, 1.7332959e+2, -1214175.1, -1292427.1, -5543.3013, -0.0011569918, -0.045266297, -1213784.4, 27581.145 
5.551653e+2, 1.8332249e+2, -1125550.3, -1212085.1, -7042.86, -0.002521659, -0.046983436, -1124980.9, 18454.275 
5.55172e+2, 1.9331487e+2, -1030478.6, -1115193.6, -6856.905, 0.0010104125, -0.048043773, -1029927.25, 15582.589 
5.5517864e+2, 2.0330662e+2, -943762.7, -1036763.44, -6950.189, 0.0019593097, -0.046965227, -943246.1, 4344.526 
5.5518526e+2, 2.1329777e+2, -846497.25, -938960.8, -7047.9414, -0.0020689815, -0.044348992, -845963.1, 3714.1497 
5.5519176e+2, 2.2328827e+2, -759007.2, -860551.94, -7175.494, -0.003545719, -0.04310989, -758502.6, -6732.183 
5.5519843e+2, 2.3327808e+2, -663297.9, -763566.7, -7249.6304, -0.00006107518, -0.047422692, -662776.44, -8906.138 
5.552051e+2, 2.4326728e+2, -575913.9, -684495.25, -6695.6387, 0.00088121666, -0.04877704, -575502.5, -19526.408 
5.552118e+2, 2.5325593e+2, -478803.6, -586628.6, -6554.813, -0.0031623435, -0.04700953, -478406.6, -20319.281 
5.5521864e+2, 2.6324394e+2, -390994.8, -507272.72, -5593.3555, -0.0043832134, -0.04449225, -390726.38, -30521.766 
5.552257e+2, 2.7323142e+2, -295273.84, -409999.9, -5483.971, -0.0000184929, -0.04393148, -295012.3, -32684.662 
5.552328e+2, 2.8321794e+2, -212032.08, -339866.5, -3815.3416, 0.00057185965, -0.04434598, -211918.31, -47458.63 
5.5524015e+2, 2.9320344e+2, -114538.93, -242543.98, -3597.4255, -0.0062862984, -0.04958767, -114437.914, -47836.11 
5.552478e+2, 3.0319273e+2, -12209.67, -80517.08, -1780.9995, -0.0077272845, -0.04961437, -12163.265, -12163.265 
5.552557e+2, 3.131864e+2, -13946.193, -78224.93, -1489.6068, 0.0016001282, -0.04302995, -13911.691, -13911.691 
5.651265e+2, 1.23347625e+2, -1672809.8, -1736963.6, -1448.6095, 0.002762713, -0.055620436, -1672777.0, 58411.805 
5.65134e+2, 1.3334371e+2, -1581400.1, -1647135.0, -1272.9001, 0.0004261204, -0.021939926, -1581375.5, 51851.82 
5.651414e+2, 1.433386e+2, -1492415.1, -1563834.9, -3285.9421, -0.001836308, -0.061609913, -1492264.3, 43012.926 
5.6514853e+2, 1.5333359e+2, -1395123.4, -1466414.1, -4107.0654, 0.0023815488, -0.048674893, -1394887.5, 42438.797 
5.651555e+2, 1.6332781e+2, -1308246.6, -1388902.1, -5313.4233, 0.003448861, -0.04062986, -1307898.1, 31484.727 
5.6516236e+2, 1.7332128e+2, -1213676.4, -1292698.1, -4941.4565, -0.001109188, -0.04452089, -1213368.6, 28078.479 
5.651691e+2, 1.8331414e+2, -1126383.3, -1212561.5, -6059.46, -0.0028752964, -0.04644076, -1125959.3, 17557.68 
5.6517565e+2, 1.9330652e+2, -1029458.3, -1114699.6, -6442.9434, 0.00063806406, -0.047637615, -1028974.06, 16617.635 
5.6518215e+2, 2.0329824e+2, -942294.44, -1036383.5, -6803.2397, 0.0017982592, -0.046744063, -941805.06, 5867.568 
5.651886e+2, 2.1328938e+2, -846690.0, -939473.44, -6924.949, -0.001597289, -0.044419754, -846176.0, 3583.6829 
5.651951e+2, 2.2327985e+2, -759805.5, -860808.25, -7106.678, -0.0029785912, -0.043233722, -759307.94, -7454.928 
5.652015e+2, 2.3326968e+2, -663694.1, -763532.25, -6948.5615, -0.0004427801, -0.04712623, -663212.8, -9260.198 
5.652081e+2, 2.4325891e+2, -576510.5, -684658.8, -6158.6045, 0.00019350795, -0.048235297, -576160.94, -20102.71 
5.6521463e+2, 2.5324756e+2, -480499.47, -587363.8, -6153.6006, -0.0028958307, -0.046594154, -480146.3, -21976.936 
5.6522137e+2, 2.632356e+2, -393077.88, -508074.47, -5426.484, -0.0038631307, -0.04428315, -392822.38, -32535.848 
5.652282e+2, 2.7322307e+2, -296628.84, -410442.3, -5372.8037, -0.00064654264, -0.044047657, -296375.78, -33966.336 
5.6523526e+2, 2.8320962e+2, -213354.81, -339817.56, -3456.2507, -0.00021089287, -0.044351507, -213260.42, -48719.33 
5.6524247e+2, 2.9319522e+2, -118002.44, -243444.56, -2926.912, -0.0052449214, -0.0486329, -117934.18, -51251.734 
5.6525e+2, 3.0318457e+2, -16406.422, -82153.99, -1190.539, -0.0064398227, -0.048659373, -16384.871, -16384.871 
5.652578e+2, 3.1317824e+2, -15368.712, -78633.32, -1221.1083, -0.000031608317, -0.043990754, -15345.151, -15345.151 
5.751311e+2, 1.2333973e+2, -1671728.5, -1734810.5, -2205.659, 0.0009069166, -0.05273851, -1671651.4, 59614.91 
5.751385e+2, 1.3333577e+2, -1581610.5, -1647668.5, -2144.977, 0.00348507, -0.02034491, -1581540.9, 51764.14 
5.7514566e+2, 1.4333054e+2, -1493419.8, -1565998.1, -3537.8367, 0.0005877067, -0.06514798, -1493247.6, 42108.527 
5.7515275e+2, 1.5332538e+2, -1396327.4, -1468931.0, -4215.0117, -0.00047239452, -0.048787963, -1396083.5, 41323.25 
5.7515967e+2, 1.6331956e+2, -1307878.5, -1388155.6, -6036.265, -0.0005779352, -0.039071783, -1307427.3, 32036.703 
5.7516634e+2, 1.7331308e+2, -1212979.3, -1291309.3, -5795.4517, 0.0014692367, -0.04488013, -1212552.8, 28974.645 
5.7517284e+2, 1.8330598e+2, -1126663.4, -1213197.3, -6475.2036, 0.0016399854, -0.04678379, -1126181.5, 17415.379 
5.751793e+2, 1.9329832e+2, -1029968.75, -1115779.5, -6761.9365, -0.0018894608, -0.04420902, -1029439.2, 16232.837 
5.751856e+2, 2.0329e+2, -942623.9, -1037063.75, -7370.7495, -0.0029367513, -0.043197468, -942052.06, 5701.521 
5.7519203e+2, 2.13281e+2, -846998.7, -940100.0, -7533.38, 0.000863615, -0.04772896, -846393.06, 3448.5781 
5.751983e+2, 2.2327146e+2, -759542.9, -860244.25, -7616.842, 0.0018957133, -0.048522785, -758970.0, -7034.777 
5.752046e+2, 2.332614e+2, -663324.75, -762743.44, -7447.8037, -0.0025142748, -0.044955973, -662769.9, -8736.235 
5.752109e+2, 2.432507e+2, -576536.7, -684675.1, -6696.5107, -0.004228975, -0.042622115, -576123.56, -19984.936 
5.752175e+2, 2.532393e+2, -480641.16, -587586.25, -6690.3667, -0.0005806362, -0.045530558, -480224.22, -21973.924 
5.7522404e+2, 2.632273e+2, -393054.25, -507930.3, -5879.3345, 0.00029044136, -0.046831284, -392754.13, -32386.283 
5.752307e+2, 2.732148e+2, -296580.5, -410243.2, -5806.6523, -0.0043805265, -0.048066013, -296284.63, -33793.9 
5.752376e+2, 2.8320143e+2, -212784.89, -338524.34, -4033.476, -0.005382608, -0.046625543, -212655.63, -48033.875 
5.752447e+2, 2.9318717e+2, -117347.3, -241944.39, -3548.2866, 0.0009875367, -0.043104805, -117246.33, -50484.96 
5.752521e+2, 3.031766e+2, -16436.541, -82043.03, -1450.9802, 0.0017276343, -0.04205788, -16404.467, -16404.467 
5.752597e+2, 3.1317014e+2, -15585.18, -78871.04, -1386.432, -0.00889366, -0.049631268, -15554.821, -15554.821 
5.8513594e+2, 1.2333204e+2, -1668784.8, -1732934.0, -1072.526, 0.0004517912, -0.0528879, -1668766.8, 62574.957 
5.8514315e+2, 1.3332796e+2, -1578735.9, -1648109.8, -2024.5471, 0.0045435326, -0.018448513, -1578676.9, 54704.82 
5.851501e+2, 1.4332259e+2, -1489805.0, -1564943.4, -3509.4983, 0.00059163733, -0.06524314, -1489641.5, 45792.75 
5.851571e+2, 1.5331738e+2, -1395079.1, -1468811.1, -3248.559, -0.000899517, -0.048492666, -1394936.3, 42549.0 
5.8516383e+2, 1.6331153e+2, -1307635.8, -1388244.3, -4912.5444, -0.0010760733, -0.038605697, -1307337.5, 32205.113 
5.851703e+2, 1.7330502e+2, -1211374.9, -1290698.6, -5462.603, 0.0015287735, -0.044727918, -1211000.4, 30605.914 
5.851767e+2, 1.8329792e+2, -1124750.0, -1212746.8, -6437.468, 0.0020292334, -0.046802733, -1124281.6, 19394.457 
5.8518296e+2, 1.9329019e+2, -1029242.0, -1115988.9, -6534.6553, -0.001616761, -0.04411826, -1028752.5, 16999.168 
5.851892e+2, 2.0328185e+2, -942397.0, -1036928.7, -7058.2866, -0.0028584446, -0.042975303, -941872.94, 5960.5483 
5.8519536e+2, 2.1327287e+2, -847039.94, -939992.3, -6874.2373, 0.00059105706, -0.047340054, -846534.3, 3387.0562 
5.8520156e+2, 2.2326332e+2, -759955.75, -860545.8, -6747.201, 0.0015277733, -0.048068397, -759505.2, -7490.2407 
5.8520764e+2, 2.3325327e+2, -663818.6, -763151.3, -7034.2725, -0.0024787665, -0.04464514, -663322.94, -9209.429 
5.8521384e+2, 2.4324255e+2, -577093.6, -684719.25, -6643.254, -0.003964721, -0.042383723, -576685.1, -20466.61 
5.8522016e+2, 2.532312e+2, -482003.13, -587954.8, -6398.6323, -0.00047029078, -0.045205057, -481618.1, -23288.191 
5.852266e+2, 2.632192e+2, -394946.2, -508520.22, -5193.096, 0.00023633975, -0.046497557, -394709.22, -34262.06 
5.8523315e+2, 2.7320668e+2, -298434.66, -410826.03, -4995.929, -0.004588087, -0.04788239, -298213.0, -35643.24 
5.852399e+2, 2.8319335e+2, -214830.94, -339249.63, -3584.0613, -0.005644914, -0.04655898, -214727.78, -50027.227 
5.8524686e+2, 2.9317912e+2, -120011.016, -242998.81, -3736.8953, 0.00082672766, -0.043079413, -119897.58, -53057.598 
5.852541e+2, 3.0316865e+2, -19315.78, -82584.555, -1445.2555, 0.0017047223, -0.041776597, -19282.781, -19282.781 
5.852615e+2, 3.1316227e+2, -18961.53, -79537.66, -643.0088, -0.008664242, -0.04848819, -18954.703, -18954.703 
5.951408e+2, 1.2332454e+2, -1669164.5, -1733801.3, -1474.957, 0.001297607, -0.055809792, -1669130.9, 62284.31 
5.951479e+2, 1.3332026e+2, -1580717.1, -1652254.5, -2521.367, 0.0037079498, -0.016290909, -1580628.4, 52828.832 
5.951547e+2, 1.4331475e+2, -1489637.8, -1564663.0, -4236.383, -0.001716852, -0.06210029, -1489399.4, 46111.94 
5.951615e+2, 1.5330958e+2, -1394479.9, -1467651.0, -4028.1406, 0.0009249234, -0.047811937, -1394258.8, 43302.99 
5.951681e+2, 1.6330373e+2, -1308181.1, -1389437.0, -5459.1655, 0.0017261564, -0.039172795, -1307816.0, 31803.088 
5.951744e+2, 1.7329712e+2, -1212171.1, -1292396.4, -5949.2104, -0.0007746056, -0.044103347, -1211732.4, 29951.516 
5.9518063e+2, 1.8328992e+2, -1125021.1, -1213343.3, -7031.291, -0.0014724811, -0.046518095, -1124464.9, 19289.572 
5.9518677e+2, 1.9328214e+2, -1029434.94, -1116395.1, -7142.4707, 0.0012325856, -0.04713141, -1028852.25, 16978.412 
5.951928e+2, 2.0327379e+2, -942067.1, -1036239.2, -7735.229, 0.001683808, -0.045855653, -941436.0, 6476.437 
5.9519875e+2, 2.1326496e+2, -846600.6, -939092.25, -7575.3667, -0.002210619, -0.04354592, -845984.25, 4014.8584 
5.9520465e+2, 2.2325543e+2, -760332.44, -861323.94, -7294.931, -0.0037167382, -0.042298537, -759808.2, -7715.8384 
5.952107e+2, 2.3324522e+2, -664412.2, -764325.44, -7532.185, -0.0005288392, -0.046032257, -663847.56, -9655.198 
5.952168e+2, 2.4323446e+2, -576869.7, -684177.6, -7347.2163, 0.0006007336, -0.04709198, -576368.94, -20071.012 
5.9522283e+2, 2.5322318e+2, -481590.4, -587057.9, -7156.2695, -0.0023831134, -0.045566745, -481107.06, -22698.701 
5.952291e+2, 2.632113e+2, -394659.72, -507879.88, -5680.939, -0.0036970894, -0.043528322, -394375.4, -33850.65 
5.952355e+2, 2.7319884e+2, -298244.3, -410295.6, -5423.5264, -0.0016116668, -0.043870747, -297982.4, -35335.55 
5.9524214e+2, 2.8318548e+2, -215205.31, -339851.72, -4290.1714, -0.0014444209, -0.04435066, -215057.83, -50280.08 
5.952488e+2, 2.9317114e+2, -120474.54, -243853.95, -4489.7144, -0.0051313536, -0.0480322, -120311.375, -53393.0 
5.9525585e+2, 3.0316064e+2, -18447.871, -80674.805, -1824.3689, -0.0057808133, -0.04723733, -18394.43, -18394.43 
5.9526336e+2, 3.1315458e+2, -17897.09, -77073.2, -961.439, -0.00031783982, -0.041260935, -17881.473, -17881.473 
6.051459e+2, 1.2331717e+2, -1665267.3, -1731335.0, -1343.6359, 0.00086944265, -0.05572768, -1665239.9, 66247.52 
6.051528e+2, 1.3331273e+2, -1579061.4, -1653212.4, -1631.8458, 0.0041347872, -0.016614456, -1579025.5, 54505.484 
6.051594e+2, 1.4330712e+2, -1487636.8, -1564259.6, -3145.1064, -0.0021870139, -0.06161683, -1487507.9, 48078.176 
6.05166e+2, 1.5330192e+2, -1392106.0, -1466836.9, -3711.243, 0.001296371, -0.04718394, -1391922.1, 45714.62 
6.0517234e+2, 1.6329601e+2, -1306041.3, -1389070.8, -5376.9, 0.002398418, -0.03863002, -1305694.5, 34000.098 
6.0517853e+2, 1.7328936e+2, -1210595.0, -1292392.3, -5501.0044, -0.0008773127, -0.044026535, -1210226.6, 31533.346 
6.0518456e+2, 1.832821e+2, -1123708.0, -1212807.0, -6451.9844, -0.0019429552, -0.046642628, -1123243.3, 20587.816 
6.051905e+2, 1.9327433e+2, -1029049.0, -1116193.1, -6389.087, 0.0011793878, -0.046950612, -1028583.06, 17324.117 
6.0519636e+2, 2.0326598e+2, -942302.8, -1036584.0, -6950.575, 0.0018282061, -0.04543982, -941793.1, 6195.868 
6.052021e+2, 2.132571e+2, -846328.8, -939261.5, -7383.6406, -0.0023229893, -0.043049306, -845745.8, 4330.172 
6.0520786e+2, 2.2324759e+2, -759941.7, -861014.7, -7370.6787, -0.003873672, -0.041884784, -759407.06, -7237.7144 
6.0521376e+2, 2.332374e+2, -665496.9, -764661.5, -6967.835, -0.00032354036, -0.0459883, -665009.7, -10740.516 
6.052196e+2, 2.4322662e+2, -578677.4, -685000.9, -6390.8604, 0.00079274486, -0.0472201, -578294.6, -21919.982 
6.0522544e+2, 2.5321537e+2, -482324.0, -587409.75, -6603.188, -0.0029327266, -0.04548826, -481910.7, -23425.656 
6.052315e+2, 2.632035e+2, -395193.13, -507819.13, -5546.1055, -0.0042736884, -0.043180082, -394920.7, -34319.387 
6.052378e+2, 2.7319106e+2, -300943.66, -411233.38, -5367.8457, -0.00082733965, -0.043135602, -300683.0, -37959.953 
6.052442e+2, 2.8317776e+2, -218704.02, -341088.0, -3849.7139, -0.00042122926, -0.043675743, -218583.05, -53729.473 
6.052507e+2, 2.9316345e+2, -122125.86, -244198.81, -3345.896, -0.006109305, -0.04828165, -122034.22, -55040.344 
6.052576e+2, 3.0315298e+2, -19844.443, -80799.76, -744.5537, -0.007292139, -0.047792245, -19835.35, -19835.35 
6.0526496e+2, 3.1314698e+2, -22465.404, -78727.82, -788.8332, 0.00059315196, -0.040875003, -22454.348, -22454.348 
6.15151e+2, 1.233099e+2, -1664092.5, -1729020.3, -1878.6501, -0.00079697423, -0.052680172, -1664038.3, 67520.5 
6.151577e+2, 1.3330539e+2, -1579286.1, -1653755.3, -2333.904, 0.0057329945, -0.019273695, -1579213.0, 54389.883 
6.1516416e+2, 1.432997e+2, -1488415.4, -1565929.5, -3867.816, -0.0009498526, -0.06363678, -1488222.9, 47435.688 
6.1517054e+2, 1.5329441e+2, -1392992.0, -1468744.3, -4421.222, 0.0002959812, -0.046617694, -1392734.9, 44975.543 
6.151767e+2, 1.6328844e+2, -1306274.8, -1389627.6, -6007.219, 0.001051852, -0.037058204, -1305844.0, 33925.04 
6.1518276e+2, 1.7328171e+2, -1210736.5, -1292713.3, -6107.8223, 0.0010427812, -0.044461027, -1210284.0, 31550.947 
6.151886e+2, 1.8327446e+2, -1123554.5, -1212497.4, -7279.488, 0.00038794734, -0.04715656, -1122962.6, 20943.357 
6.151942e+2, 1.9326675e+2, -1028821.6, -1115766.0, -7267.5073, -0.0015654502, -0.043819286, -1028218.3, 17763.21 
6.1519986e+2, 2.032584e+2, -942865.5, -1037788.3, -7554.8726, -0.0021315538, -0.04196471, -942268.0, 5795.4937 
6.152055e+2, 2.1324934e+2, -847108.4, -940853.94, -7910.8467, 0.000012399801, -0.045589425, -846445.5, 3706.549 
6.152111e+2, 2.2323976e+2, -759482.75, -860018.56, -8197.983, 0.00064304157, -0.046418887, -758818.7, -6572.7554 
6.152167e+2, 2.3322974e+2, -664760.1, -763126.4, -7875.4336, -0.0017199607, -0.044645626, -664133.6, -9789.399 
6.152223e+2, 2.4321905e+2, -578873.1, -685389.1, -6932.5894, -0.0030547602, -0.043141235, -578423.8, -21974.9 
6.152281e+2, 2.532077e+2, -482787.97, -588266.9, -7049.192, -0.00226328, -0.044999775, -482318.94, -23758.76 
6.15234e+2, 2.6319578e+2, -395185.06, -507665.63, -6443.9263, -0.0017962484, -0.045222368, -394817.13, -34140.168 
6.152399e+2, 2.7318338e+2, -300793.1, -410859.1, -6366.1353, -0.0020465928, -0.045385815, -300426.13, -37627.625 
6.152462e+2, 2.8317013e+2, -217960.75, -339483.4, -4233.3794, -0.002321515, -0.044404745, -217813.45, -52885.207 
6.152526e+2, 2.93156e+2, -121360.69, -242394.22, -3607.529, -0.0026111642, -0.044280797, -121253.26, -54186.406 
6.1525935e+2, 3.031456e+2, -20203.133, -81272.98, -1760.4956, -0.003405701, -0.043896183, -20152.424, -20152.424 
6.1526626e+2, 3.1313944e+2, -22994.01, -79696.305, -1950.2096, -0.0052090758, -0.04662451, -22927.014, -22927.014 
6.251562e+2, 1.2330288e+2, -1660008.1, -1726482.8, -669.365, -0.0006695637, -0.051390618, -1660001.5, 71626.17 
6.251628e+2, 1.332982e+2, -1577382.1, -1654395.5, -2041.7814, 0.0063515175, -0.020789318, -1577328.0, 56345.277 
6.25169e+2, 1.4329246e+2, -1486426.3, -1565783.8, -3750.4382, -0.0014770981, -0.062178366, -1486249.4, 49480.324 
6.2517524e+2, 1.5328708e+2, -1390473.4, -1468202.4, -3787.8862, -0.00008851277, -0.046841767, -1390289.3, 47493.094 
6.251812e+2, 1.6328105e+2, -1303736.5, -1388615.6, -5189.606, 0.0009350142, -0.037948024, -1303420.4, 36421.09 
6.25187e+2, 1.7327432e+2, -1209804.0, -1292406.5, -5251.397, 0.0013668465, -0.043892372, -1209471.4, 32435.885 
6.2519264e+2, 1.8326706e+2, -1123498.9, -1212869.9, -6453.2603, 0.00077790365, -0.045801476, -1123035.4, 20943.203 
6.2519807e+2, 1.9325931e+2, -1027717.2, -1115702.3, -6914.839, -0.0018334612, -0.043048527, -1027177.06, 18877.484 
6.252035e+2, 2.0325091e+2, -941385.2, -1037143.0, -7336.3457, -0.0025731244, -0.041767746, -940826.4, 7310.4243 
6.252089e+2, 2.1324186e+2, -847387.44, -940997.6, -6963.421, 0.00031760748, -0.04587412, -846872.25, 3353.1423 
6.252143e+2, 2.2323228e+2, -760632.56, -860645.5, -6990.2334, 0.0011499536, -0.046728883, -760146.4, -7827.0874 
6.2521964e+2, 2.3322225e+2, -664835.06, -763265.44, -7447.6504, -0.0020767378, -0.044128273, -664274.75, -9857.134 
6.25225e+2, 2.4321158e+2, -578742.06, -685063.2, -6859.2935, -0.00361121, -0.042216003, -578301.4, -21779.16 
6.2523067e+2, 2.5320023e+2, -484876.5, -588956.56, -6405.371, -0.0017275022, -0.04448645, -484483.78, -25850.537 
6.2523633e+2, 2.6318836e+2, -398103.1, -508779.4, -5367.2573, -0.0010819363, -0.045130167, -397843.4, -37093.656 
6.2524205e+2, 2.7317595e+2, -301663.8, -411008.5, -5293.0835, -0.0029738469, -0.04569539, -301408.2, -38537.082 
6.252481e+2, 2.8316277e+2, -218551.31, -339365.3, -3430.7017, -0.0035549651, -0.044500217, -218453.97, -53453.434 
6.2525433e+2, 2.931487e+2, -125512.33, -243987.44, -3449.9636, -0.0014848495, -0.042971235, -125411.95, -58273.3 
6.252609e+2, 3.0313835e+2, -25310.604, -82912.02, -1616.2206, -0.0017417254, -0.042445436, -25265.29, -25265.29 
6.252675e+2, 3.1313223e+2, -24494.246, -79524.79, -818.47925, -0.0067181354, -0.04751632, -24482.074, -24482.074 
6.351617e+2, 1.2329608e+2, -1660324.8, -1727222.0, -1393.08, 0.0011205988, -0.051676057, -1660295.8, 71398.445 
6.351679e+2, 1.3329118e+2, -1578987.8, -1657814.0, -2948.6704, 0.0060475427, -0.021253921, -1578877.6, 54864.49 
6.35174e+2, 1.4328532e+2, -1486604.9, -1566261.6, -4387.037, -0.0036823023, -0.057466935, -1486364.0, 49435.594 
6.3518e+2, 1.532799e+2, -1390411.1, -1468119.0, -4364.478, 0.00007955071, -0.047798887, -1390166.8, 47685.992 
6.351858e+2, 1.6327386e+2, -1303736.3, -1388631.3, -6161.933, 0.001945496, -0.04114017, -1303291.4, 36620.637 
6.351912e+2, 1.7326719e+2, -1209788.5, -1292449.1, -6305.258, 0.00019258322, -0.042403027, -1209310.4, 32667.059 
6.3519657e+2, 1.8325989e+2, -1124070.1, -1214133.8, -7113.6763, -0.00067029614, -0.04271179, -1123511.8, 20537.19 
6.35202e+2, 1.9325198e+2, -1028472.8, -1117273.8, -7474.6343, 0.00016820146, -0.044456743, -1027848.0, 18278.3 
6.352072e+2, 2.0324352e+2, -940949.44, -1036217.25, -8264.735, 0.00022101573, -0.044607628, -940237.75, 7971.3203 
6.352123e+2, 2.1323463e+2, -846682.8, -939553.7, -7985.5107, -0.0012552029, -0.044096574, -846001.2, 4295.1055 
6.352174e+2, 2.232251e+2, -761155.56, -861738.8, -7674.9985, -0.0020603712, -0.043150708, -760573.3, -8183.548 
6.352226e+2, 2.3321491e+2, -665678.6, -764952.9, -8036.175, -0.0015018381, -0.044359747, -665032.3, -10542.762 
6.3522786e+2, 2.4320418e+2, -578315.1, -684089.8, -7816.5317, -0.0011720665, -0.044180762, -577740.6, -21145.924 
6.352331e+2, 2.53193e+2, -484153.72, -587415.56, -7459.1616, -0.0013249167, -0.043955065, -483617.7, -24913.213 
6.352385e+2, 2.6318118e+2, -397862.16, -508229.66, -5927.474, -0.0019965132, -0.043087095, -397544.75, -36724.684 
6.3524413e+2, 2.7316883e+2, -301613.78, -410740.38, -5738.9233, -0.0036568234, -0.04424028, -301312.8, -38371.598 
6.352499e+2, 2.8315562e+2, -218906.67, -339896.16, -4507.2607, -0.0042040865, -0.04401564, -218738.98, -53668.234 
6.352559e+2, 2.9314145e+2, -125898.516, -244688.36, -4653.8496, -0.0025217438, -0.04409208, -125716.47, -58506.977 
6.3526213e+2, 3.0313116e+2, -24221.973, -80559.6, -1978.1401, -0.0021203705, -0.04321123, -24152.602, -24152.602 
6.352688e+2, 3.131253e+2, -23204.254, -76557.9, -1018.60004, -0.004422943, -0.044046503, -23184.814, -23184.814 
6.451672e+2, 1.2328946e+2, -1657112.5, -1725707.9, -823.129, 0.0007514973, -0.05059363, -1657102.6, 74656.51 
6.451732e+2, 1.3328439e+2, -1575919.1, -1658034.6, -2015.4852, 0.0065822783, -0.024210546, -1575869.8, 57939.094 
6.4517903e+2, 1.4327848e+2, -1482998.0, -1564997.1, -3254.6877, -0.0037095784, -0.054639447, -1482869.0, 52997.74 
6.451848e+2, 1.5327302e+2, -1389085.4, -1467731.5, -3442.0044, 0.00021668985, -0.046476368, -1388935.0, 48985.22 
6.4519036e+2, 1.6326693e+2, -1303545.0, -1389050.4, -5386.8003, 0.0020236678, -0.04096974, -1303207.0, 36772.895 
6.451956e+2, 1.732602e+2, -1207802.5, -1292070.1, -5847.537, -0.00023717262, -0.042399928, -1207398.6, 34647.258 
6.452007e+2, 1.8325287e+2, -1121397.0, -1213053.9, -6745.5396, -0.001110565, -0.04287462, -1120903.3, 23214.475 
6.452058e+2, 1.9324495e+2, -1028056.56, -1117232.8, -6481.15, 0.00065595115, -0.04482988, -1027588.0, 18607.33 
6.452108e+2, 2.0323648e+2, -941692.06, -1036764.2, -7088.662, 0.0009380031, -0.04471407, -941166.44, 7111.747 
6.452157e+2, 2.1322757e+2, -846286.5, -939573.2, -7612.554, -0.001689211, -0.043031923, -845669.4, 4696.1494 
6.452206e+2, 2.2321804e+2, -760430.5, -861301.94, -7568.613, -0.0028797144, -0.041733354, -759865.75, -7406.762 
6.452255e+2, 2.3320785e+2, -666825.44, -765379.56, -7075.615, -0.0011873172, -0.044188082, -666320.06, -11761.295 
6.4523053e+2, 2.4319713e+2, -580304.9, -684947.06, -6506.532, -0.00047611803, -0.044656634, -579901.8, -23237.955 
6.4523554e+2, 2.5318596e+2, -484843.06, -587669.56, -6826.278, -0.0017814575, -0.043851595, -484391.88, -25618.361 
6.452407e+2, 2.6317418e+2, -398386.06, -508103.7, -5693.6333, -0.0027728805, -0.042477265, -398091.4, -37202.547 
6.452461e+2, 2.7316183e+2, -304823.25, -411866.97, -5403.0903, -0.0030814018, -0.04331546, -304551.22, -41541.61 
6.4525163e+2, 2.8314868e+2, -222977.45, -341350.03, -3887.3728, -0.0033277923, -0.043365624, -222849.92, -57711.156 
6.452574e+2, 2.9313454e+2, -127259.305, -244834.42, -3408.5117, -0.0034911123, -0.044853862, -127160.57, -59883.387 
6.452634e+2, 3.031243e+2, -25089.713, -80389.16, -645.7531, -0.003464407, -0.044023324, -25082.174, -25082.174 
6.452698e+2, 3.1311852e+2, -28281.154, -78421.055, -756.15125, -0.0031578464, -0.04215413, -28269.754, -28269.754 
6.5517277e+2, 1.2328301e+2, -1656753.4, -1725091.0, -1291.8098, -0.0016861182, -0.048152804, -1656728.9, 75093.445 
6.551787e+2, 1.332778e+2, -1576422.9, -1659137.4, -2678.536, 0.00787959, -0.029499346, -1576336.3, 57537.184 
6.551842e+2, 1.4327188e+2, -1483339.9, -1565749.4, -4388.3784, -0.0017304748, -0.053582087, -1483106.8, 52824.598 
6.5518963e+2, 1.5326639e+2, -1389356.1, -1468409.8, -4668.757, 0.00030873116, -0.043047953, -1389081.4, 48903.844 
6.5519494e+2, 1.6326024e+2, -1304081.0, -1390285.5, -6053.5903, 0.0012107743, -0.03767946, -1303658.0, 36387.504 
6.552e+2, 1.7325336e+2, -1208472.9, -1293481.5, -6381.0894, -0.0000013258689, -0.043766923, -1207996.5, 34116.31 
6.5520495e+2, 1.8324597e+2, -1121101.5, -1212423.8, -7808.7397, -0.00064485054, -0.046051178, -1120438.5, 23746.656 
6.552097e+2, 1.9323815e+2, -1027523.25, -1116173.5, -7667.1123, -0.00026028196, -0.044258364, -1026865.06, 19396.719 
6.552144e+2, 2.0322974e+2, -942296.94, -1038068.4, -7876.6807, -0.00028371782, -0.04230247, -941653.5, 6690.948 
6.5521914e+2, 2.1322067e+2, -847196.25, -941434.1, -8292.265, -0.001106187, -0.042618867, -846472.2, 3960.9958 
6.552237e+2, 2.232111e+2, -759880.4, -860107.25, -8584.761, -0.0015315532, -0.04230021, -759150.4, -6623.2446 
6.552284e+2, 2.3320104e+2, -665945.75, -763537.44, -8184.1465, -0.0011173922, -0.043651674, -665264.2, -10638.592 
6.5523314e+2, 2.4319036e+2, -580630.2, -685596.5, -7280.718, -0.0013944077, -0.043769807, -580127.6, -23397.535 
6.552379e+2, 2.531791e+2, -485489.8, -588917.06, -7505.8174, -0.003039753, -0.04413382, -484947.94, -26107.322 
6.5524286e+2, 2.631673e+2, -398256.97, -507713.9, -6759.2905, -0.003445245, -0.043169882, -397841.13, -36884.742 
6.55248e+2, 2.7315503e+2, -304502.22, -411123.56, -6561.237, -0.0013834179, -0.042876724, -304099.97, -41023.42 
6.5525323e+2, 2.8314194e+2, -222218.02, -339683.63, -4480.7515, -0.001092716, -0.0425664, -222047.34, -56842.445 
6.552588e+2, 2.9312792e+2, -126493.78, -243026.38, -3888.622, -0.004415425, -0.045288045, -126364.164, -59022.023 
6.552646e+2, 3.0311772e+2, -25585.6, -81153.305, -1829.6978, -0.005701945, -0.04487287, -25525.418, -25525.418 
6.552707e+2, 3.1311187e+2, -29002.385, -79763.91, -2073.6948, -0.0028671324, -0.041681115, -28917.81, -28917.81 
6.6517854e+2, 1.2327681e+2, -1652468.8, -1722920.4, -201.73213, -0.0017796103, -0.04617832, -1652468.1, 79415.01 
6.651842e+2, 1.3327147e+2, -1574785.0, -1659217.4, -1850.317, 0.008133186, -0.03323656, -1574744.5, 59190.992 
6.651895e+2, 1.4326555e+2, -1482190.1, -1565963.4, -3604.293, -0.0020451841, -0.05052231, -1482035.4, 53958.113 
6.651947e+2, 1.5325996e+2, -1385979.4, -1467535.4, -4021.1113, 0.00019949157, -0.042430334, -1385781.5, 52266.598 
6.651997e+2, 1.6325374e+2, -1300100.8, -1388764.5, -5418.0586, 0.0013651184, -0.038516197, -1299770.9, 40338.33 
6.652045e+2, 1.7324685e+2, -1207685.6, -1293458.6, -5311.5835, 0.00049763836, -0.043773033, -1207357.9, 34818.82 
6.652092e+2, 1.8323945e+2, -1121814.0, -1213054.6, -6619.673, -0.00026892484, -0.045313388, -1121336.3, 22913.076 
6.652137e+2, 1.932316e+2, -1026454.6, -1115942.8, -7139.0645, -0.00092064525, -0.04305434, -1025888.7, 20437.396 
6.6521806e+2, 2.0322315e+2, -940556.25, -1037274.06, -7553.8916, -0.0011695842, -0.041304637, -939969.9, 8439.048 
6.652225e+2, 2.1321408e+2, -847471.1, -941587.6, -7124.641, -0.0006410795, -0.04309455, -846934.8, 3562.9685 
6.6522694e+2, 2.2320448e+2, -761202.1, -860784.94, -7136.1577, -0.00060199155, -0.043231517, -760693.4, -8101.5503 
6.652313e+2, 2.3319446e+2, -666297.3, -763769.44, -7636.478, -0.0015095884, -0.043015618, -665702.7, -11012.505 
6.652357e+2, 2.431838e+2, -580677.5, -685377.3, -7066.2915, -0.0022592675, -0.042391893, -580202.75, -23408.223 
6.652403e+2, 2.5317255e+2, -487178.72, -589446.8, -6549.066, -0.0026655667, -0.04372047, -486761.03, -27856.115 
6.6524494e+2, 2.6316074e+2, -400660.9, -508595.3, -5420.8984, -0.002658955, -0.043397438, -400389.3, -39368.844 
6.6524976e+2, 2.731485e+2, -305689.78, -411440.22, -5432.087, -0.0018945301, -0.04301673, -305411.5, -42271.094 
6.652548e+2, 2.8313544e+2, -223383.11, -339775.78, -3593.4382, -0.0019479737, -0.042322308, -223272.28, -58003.887 
6.652601e+2, 2.931215e+2, -130480.19, -244454.67, -3568.6997, -0.003652114, -0.04410849, -130368.555, -62963.44 
6.652656e+2, 3.0311134e+2, -30364.547, -82663.12, -1571.727, -0.0046342514, -0.043757454, -30317.354, -30317.354 
6.652714e+2, 3.1310555e+2, -30942.477, -79856.484, -720.08417, -0.004256695, -0.04264987, -30931.879, -30931.879 
6.751845e+2, 1.23270854e+2, -1652574.9, -1723235.3, -1151.0958, 0.0002656453, -0.04464691, -1652556.1, 79385.52 
6.751898e+2, 1.3326539e+2, -1575268.3, -1660353.5, -3042.7063, 0.0074042794, -0.035550587, -1575159.6, 58835.406 
6.7519474e+2, 1.4325947e+2, -1482711.1, -1567166.8, -4326.8115, -0.004518939, -0.045605935, -1482490.1, 53563.03 
6.751998e+2, 1.5325372e+2, -1386579.0, -1468805.0, -4630.7188, -0.00012692375, -0.0444123, -1386319.1, 51790.246 
6.752046e+2, 1.6324742e+2, -1300039.0, -1388636.8, -6679.8633, 0.0023872098, -0.043184202, -1299538.3, 40632.855 
6.7520905e+2, 1.7324062e+2, -1207431.5, -1293027.1, -6715.6104, 0.0012187804, -0.04253802, -1206907.8, 35330.02 
6.752134e+2, 1.8323322e+2, -1122369.5, -1214316.3, -7436.3296, -0.000007550949, -0.04097116, -1121772.0, 22538.363 
6.752176e+2, 1.9322525e+2, -1027263.7, -1117626.3, -7811.593, -0.001360716, -0.04126231, -1026593.4, 19795.072 
6.7522186e+2, 2.0321673e+2, -940059.06, -1036206.94, -8680.855, -0.0017687349, -0.04160495, -939281.6, 9190.206 
6.75226e+2, 2.1320777e+2, -846668.94, -939937.06, -8367.3545, -0.00030222654, -0.044389073, -845924.25, 4635.4478 
6.7523e+2, 2.231982e+2, -761769.4, -861973.94, -8048.6665, -0.00008171703, -0.0444951, -761127.0, -8473.639 
6.7523414e+2, 2.3318806e+2, -667215.0, -765625.7, -8450.404, -0.002335618, -0.042289, -666494.6, -11741.8545 
6.7523825e+2, 2.4317738e+2, -580157.3, -684218.75, -8124.718, -0.0030995167, -0.040569026, -579526.8, -22669.348 
6.752426e+2, 2.5316626e+2, -486347.1, -587645.6, -7680.7363, -0.00082644355, -0.042673334, -485768.03, -26801.32 
6.7524695e+2, 2.631545e+2, -400566.56, -508308.75, -6310.8193, -0.0005609304, -0.043196894, -400198.2, -39116.67 
6.752515e+2, 2.7314228e+2, -305801.16, -411536.78, -6258.234, -0.004413243, -0.04367977, -305432.03, -42230.508 
6.7525625e+2, 2.8312922e+2, -223657.47, -340187.56, -4745.3687, -0.005626903, -0.04258381, -223464.55, -58134.934 
6.7526126e+2, 2.9311523e+2, -130789.03, -244957.66, -4785.7793, -0.0013961339, -0.0414721, -130588.766, -63122.348 
6.752665e+2, 3.0310518e+2, -29227.207, -80141.36, -2234.603, -0.00061166513, -0.04086041, -29129.32, -29129.32 
6.7527205e+2, 3.1309956e+2, -29547.676, -76687.52, -1286.402, -0.00718635, -0.04489338, -29512.598, -29512.598 
6.851905e+2, 1.23265184e+2, -1649749.9, -1722721.9, 48.625393, 0.00037187073, -0.042479757, -1649749.9, 82247.35 
6.8519557e+2, 1.3325956e+2, -1571403.3, -1659609.4, -2253.9841, 0.0075677442, -0.039843403, -1571345.8, 62706.473 
6.852003e+2, 1.4325362e+2, -1478706.6, -1565697.9, -3537.7927, -0.0047029653, -0.042507544, -1478563.0, 57547.37 
6.8520504e+2, 1.5324783e+2, -1385634.1, -1468704.3, -3465.6995, -0.000070830014, -0.043579943, -1385489.8, 52677.293 
6.8520945e+2, 1.6324149e+2, -1300296.5, -1389173.9, -5401.3213, 0.0024510995, -0.04362362, -1299969.5, 40259.785 
6.852136e+2, 1.7323466e+2, -1205038.1, -1292304.9, -5894.488, 0.00083784445, -0.041947093, -1204641.8, 37654.543 
6.8521774e+2, 1.8322721e+2, -1119082.0, -1213016.3, -6779.2886, -0.00037111514, -0.040079147, -1118595.3, 25773.82 
6.852217e+2, 1.9321923e+2, -1026895.75, -1117734.8, -6555.0117, -0.0008213576, -0.041550636, -1026425.2, 20022.393 
6.852256e+2, 2.032107e+2, -941129.2, -1036880.2, -7266.262, -0.0010201922, -0.04214794, -940580.94, 7950.264 
6.852293e+2, 2.1320172e+2, -846412.5, -939958.56, -7808.345, -0.0007304337, -0.043350257, -845765.25, 4853.79 
6.852332e+2, 2.2319216e+2, -760966.06, -861496.2, -7754.4463, -0.00092439086, -0.0429479, -760371.44, -7658.735 
6.8523693e+2, 2.3318201e+2, -667900.9, -765840.3, -7227.6626, -0.002080031, -0.0423938, -667370.4, -12558.214 
6.8524086e+2, 2.4317133e+2, -581772.2, -684831.0, -6580.8647, -0.0024374404, -0.041342914, -581353.6, -24436.893 
6.852448e+2, 2.531602e+2, -487791.7, -588184.7, -6901.073, -0.0011907998, -0.042095523, -487319.53, -28293.791 
6.852489e+2, 2.6314852e+2, -402042.06, -508632.16, -5834.612, -0.001293584, -0.041880157, -401723.63, -40583.4 
6.852531e+2, 2.7313632e+2, -308171.0, -412263.06, -5489.405, -0.004162071, -0.042927135, -307882.3, -44622.375 
6.8525755e+2, 2.8312328e+2, -226439.0, -341126.2, -3789.7068, -0.0050571873, -0.04232972, -226313.9, -60926.203 
6.8526226e+2, 2.9310936e+2, -132960.42, -245626.28, -3418.354, -0.0019023817, -0.041513357, -132856.8, -65332.6 
6.852672e+2, 3.0309933e+2, -31483.732, -80497.055, -692.54987, -0.0013712074, -0.04066094, -31473.95, -31473.95 
6.852725e+2, 3.1309378e+2, -33979.32, -78031.555, -737.4888, -0.0065013776, -0.04338857, -33966.977, -33966.977 
6.951966e+2, 1.2325978e+2, -1650579.6, -1724555.4, -602.5612, -0.0013654637, -0.039696597, -1650574.8, 81475.32 
6.9520146e+2, 1.3325395e+2, -1572224.3, -1661374.8, -3110.1726, 0.008534264, -0.045969922, -1572116.0, 61991.27 
6.9520587e+2, 1.4324802e+2, -1478700.3, -1565746.3, -4876.994, -0.0027982355, -0.041101318, -1478427.9, 57737.496 
6.952102e+2, 1.5324226e+2, -1385414.4, -1468386.3, -4915.1543, 0.00031270384, -0.04016281, -1385124.3, 53097.465 
6.9521433e+2, 1.632359e+2, -1300767.8, -1390282.3, -6218.583, 0.0016057616, -0.040170725, -1300337.9, 39946.26 
6.952183e+2, 1.7322893e+2, -1205745.4, -1293781.4, -6559.741, -0.0005751678, -0.04194287, -1205259.3, 37093.207 
6.952221e+2, 1.8322143e+2, -1118891.3, -1212587.3, -8103.109, -0.0013401647, -0.04236239, -1118195.6, 26230.24 
6.952257e+2, 1.9321348e+2, -1026463.4, -1116893.4, -8028.9995, 0.00059763156, -0.043752383, -1025756.0, 20747.803 
6.9522923e+2, 2.0320496e+2, -941742.4, -1038223.7, -8245.38, 0.00093817204, -0.042919584, -941042.75, 7544.561 
6.9523275e+2, 2.131959e+2, -847322.2, -941832.6, -8657.515, -0.0018767503, -0.040186834, -846535.7, 4140.418 
6.9523627e+2, 2.2318631e+2, -760373.5, -860210.9, -8900.2, -0.0030412704, -0.03883313, -759586.3, -6816.2354 
6.952397e+2, 2.3317626e+2, -666979.94, -763884.25, -8457.853, -0.0008561566, -0.043251432, -666247.3, -11378.646 
6.9524336e+2, 2.4316561e+2, -582117.1, -685493.7, -7692.555, -0.00042718573, -0.044480648, -581547.8, -24575.0 
6.9524693e+2, 2.5315446e+2, -488439.44, -589463.1, -7965.867, -0.0035682712, -0.041945517, -487815.16, -28732.813 
6.9525075e+2, 2.6314276e+2, -401768.3, -507977.88, -6884.3594, -0.004622086, -0.03955152, -401323.94, -40126.945 
6.952547e+2, 2.7313063e+2, -307731.66, -411214.28, -6543.97, -0.0014327408, -0.040894203, -307319.47, -44003.465 
6.9525886e+2, 2.8311765e+2, -225904.83, -339846.13, -4842.8003, -0.0006722961, -0.041601032, -225699.38, -60256.31 
6.952632e+2, 2.9310375e+2, -132411.69, -244319.36, -4479.007, -0.0049064946, -0.043959223, -132232.7, -64653.79 
6.952678e+2, 3.030938e+2, -31835.23, -81049.93, -1826.1455, -0.006465464, -0.04289637, -31767.563, -31767.563 
6.9527286e+2, 3.1308827e+2, -34584.56, -79058.2, -1870.3965, -0.0026326373, -0.03853053, -34506.035, -34506.035 
7.0520294e+2, 1.2325461e+2, -1646720.8, -1723472.9, 217.80899, -0.0015681826, -0.03843235, -1646720.1, 85380.68 
7.0520747e+2, 1.332487e+2, -1569903.3, -1660540.4, -1878.1014, 0.008695569, -0.049601767, -1569864.4, 64294.3 
7.052116e+2, 1.432428e+2, -1477108.3, -1565579.6, -3445.0364, -0.0025949578, -0.037062176, -1476974.4, 59242.027 
7.052156e+2, 1.5323697e+2, -1381900.0, -1467368.9, -4047.6108, 0.0002455992, -0.039248202, -1381708.8, 56564.938 
7.0521945e+2, 1.6323052e+2, -1296930.6, -1388832.6, -5562.6177, 0.0014564676, -0.04119711, -1296595.1, 43741.633 
7.05223e+2, 1.7322354e+2, -1205334.5, -1293960.1, -5445.151, -0.00042384872, -0.042178415, -1205001.3, 37404.125 
7.052265e+2, 1.8321602e+2, -1119894.6, -1213290.0, -6841.466, -0.0011401467, -0.041884817, -1119396.1, 25082.857 
7.052298e+2, 1.9320805e+2, -1025133.44, -1116448.3, -7274.5024, 0.0003270348, -0.04283888, -1024557.56, 21999.469 
7.0523304e+2, 2.031995e+2, -939533.4, -1037291.6, -7602.3213, 0.0005351335, -0.042053204, -938945.7, 9695.011 
7.052362e+2, 2.1319045e+2, -847301.0, -941971.44, -7239.8394, -0.001753781, -0.04028968, -846750.56, 3979.1143 
7.0523936e+2, 2.2318085e+2, -761609.25, -860748.9, -7261.3423, -0.002709027, -0.039159726, -761080.25, -8256.552 
7.052426e+2, 2.331708e+2, -667934.56, -764260.9, -7689.7666, -0.0009832964, -0.042311184, -667324.56, -12402.487 
7.052458e+2, 2.4316019e+2, -582877.4, -685673.0, -7214.348, -0.00074740034, -0.043127425, -582373.5, -25347.404 
7.052491e+2, 2.53149e+2, -489411.47, -589744.1, -6781.047, -0.0035473863, -0.04191828, -488955.25, -29819.67 
7.052525e+2, 2.6313734e+2, -403141.84, -508284.88, -5411.004, -0.0044212746, -0.040206075, -402864.13, -41614.082 
7.0525616e+2, 2.7312523e+2, -310171.78, -412020.4, -5370.629, -0.0014067601, -0.04087116, -309889.34, -46520.688 
7.0526004e+2, 2.8311232e+2, -228841.25, -340672.9, -3787.6165, -0.00084467203, -0.041038543, -228713.13, -63217.855 
7.0526403e+2, 2.930985e+2, -135047.66, -244972.05, -3656.6516, -0.0053045047, -0.04320352, -134926.16, -67295.6 
7.052684e+2, 3.030886e+2, -34576.97, -81760.53, -1132.3005, -0.006785087, -0.04238118, -34549.813, -34549.813 
7.052731e+2, 3.1308308e+2, -38267.547, -80248.12, -435.997, -0.0022740527, -0.03911983, -38263.02, -38263.02 
7.152094e+2, 1.2324966e+2, -1646791.1, -1723729.3, -869.54517, -0.00039958907, -0.038608074, -1646781.3, 85368.05 
7.1521354e+2, 1.3324378e+2, -1569377.4, -1659597.4, -3220.4927, 0.008099189, -0.050947648, -1569262.5, 64944.26 
7.1521735e+2, 1.4323798e+2, -1477745.1, -1567009.0, -4435.7744, -0.00398902, -0.030600656, -1477525.3, 58738.547 
7.1522105e+2, 1.5323192e+2, -1382841.6, -1469353.8, -4944.977, -0.0002693197, -0.04062994, -1382560.0, 55763.242 
7.152246e+2, 1.6322537e+2, -1296913.9, -1388821.9, -7024.3745, 0.0019126389, -0.04634645, -1296380.1, 44007.223 
7.152278e+2, 1.7321844e+2, -1205067.5, -1293519.3, -7033.64, 0.0011375805, -0.04264576, -1204511.6, 37943.625 
7.152309e+2, 1.8321095e+2, -1120272.4, -1214190.3, -7806.624, 0.0001001951, -0.038890146, -1119628.0, 24900.758 
7.1523386e+2, 1.9320291e+2, -1025740.0, -1117705.8, -8089.1094, -0.0014972563, -0.03908161, -1025033.94, 21573.629 
7.1523684e+2, 2.0319434e+2, -939138.2, -1036417.44, -8931.748, -0.0020506775, -0.03968979, -938324.94, 10366.637 
7.1523964e+2, 2.1318528e+2, -846661.44, -940641.7, -8693.339, -0.0005012343, -0.04336572, -845864.06, 4916.0693 
7.1524245e+2, 2.231757e+2, -762099.0, -861773.0, -8466.299, -0.00017405956, -0.04353773, -761385.0, -8510.967 
7.1524525e+2, 2.3316564e+2, -668710.6, -765846.25, -8818.795, -0.0023465066, -0.03974858, -667916.5, -12943.616 
7.1524817e+2, 2.43155e+2, -582406.5, -684638.4, -8324.682, -0.0032123153, -0.037698068, -581733.06, -24656.1 
7.1525115e+2, 2.5314388e+2, -488700.1, -588164.2, -7900.8896, -0.001377489, -0.04199478, -488076.38, -28890.537 
7.152543e+2, 2.6313227e+2, -403090.44, -508050.06, -6721.4077, -0.0010403922, -0.043556884, -402661.75, -41361.902 
7.152575e+2, 2.7312014e+2, -310263.66, -412110.47, -6716.5195, -0.0038296173, -0.04266731, -309822.63, -46404.246 
7.15261e+2, 2.8310728e+2, -228785.72, -340443.06, -4818.139, -0.0051639597, -0.04062905, -228578.19, -63033.453 
7.152648e+2, 2.930935e+2, -135031.88, -244724.27, -4612.6475, -0.0033902405, -0.03955657, -134838.25, -67158.72 
7.152688e+2, 3.0308366e+2, -33796.97, -79882.81, -2434.817, -0.0028341457, -0.039368436, -33668.69, -33668.69 
7.152731e+2, 3.1307822e+2, -37274.926, -77995.07, -1837.5557, -0.0051001436, -0.044565402, -37192.17, -37192.17 
7.2521603e+2, 1.2324516e+2, -1643814.4, -1723686.4, 999.6172, -0.00019172305, -0.036308352, -1643801.8, 88391.734 
7.252198e+2, 1.332392e+2, -1565390.9, -1657973.4, -2237.691, 0.007813756, -0.054660533, -1565336.9, 68915.08 
7.252232e+2, 1.432334e+2, -1474422.6, -1565914.6, -3608.3723, -0.0042290343, -0.028353112, -1474280.5, 62028.242 
7.2522664e+2, 1.5322728e+2, -1381732.6, -1469401.1, -3534.4404, -0.00024039217, -0.039899718, -1381590.4, 56778.367 
7.252298e+2, 1.6322067e+2, -1296389.8, -1388985.6, -5440.07, 0.0020525055, -0.04647071, -1296071.3, 44362.293 
7.2523266e+2, 1.7321372e+2, -1202334.8, -1292594.3, -5897.4346, 0.0010804241, -0.042037513, -1201951.1, 40550.53 
7.2523534e+2, 1.8320619e+2, -1117035.3, -1212911.9, -6819.1563, -0.000048548092, -0.038023137, -1116552.6, 28022.68 
7.25238e+2, 1.9319811e+2, -1025583.2, -1117923.0, -6695.205, -0.0015350553, -0.03894103, -1025100.3, 21554.219 
7.252406e+2, 2.0318952e+2, -940441.2, -1037061.94, -7473.5537, -0.0020160854, -0.039815124, -939866.5, 8872.173 
7.2524303e+2, 2.131805e+2, -846643.44, -940605.6, -7842.5957, -0.0004938236, -0.042818483, -845993.4, 4833.7935 
7.2524554e+2, 2.231709e+2, -761493.4, -861517.06, -7792.285, -0.00019478894, -0.04278777, -760889.94, -7968.928 
7.25248e+2, 2.3316082e+2, -668938.7, -766032.25, -7460.124, -0.0024154598, -0.039761677, -668368.8, -13348.827 
7.2525054e+2, 2.431502e+2, -583332.5, -684822.9, -6700.4697, -0.0032648533, -0.03793945, -582892.06, -25767.99 
7.2525316e+2, 2.5313914e+2, -490645.03, -588787.5, -6835.513, -0.0013129615, -0.041363962, -490171.25, -30938.656 
7.2525597e+2, 2.6312754e+2, -405422.03, -508787.63, -5923.5615, -0.001034253, -0.042461604, -405083.7, -43737.438 
7.252588e+2, 2.7311546e+2, -311795.6, -412466.9, -5663.8647, -0.004231134, -0.041979752, -311477.97, -48013.492 
7.25262e+2, 2.831026e+2, -230436.63, -340798.6, -3581.9424, -0.0054854015, -0.04037476, -230320.48, -64730.008 
7.252654e+2, 2.9308888e+2, -138810.6, -246114.75, -3268.9353, -0.0026604747, -0.039726034, -138711.11, -70986.17 
7.25269e+2, 3.0307907e+2, -38130.543, -81030.516, -1061.0779, -0.0019950275, -0.039515626, -38104.313, -38104.313 
7.2527295e+2, 3.1307375e+2, -39809.25, -78180.77, -900.4039, -0.006050455, -0.043810617, -39788.133, -39788.133 
7.352227e+2, 1.2324106e+2, -1645333.0, -1726931.8, -35.177616, -0.0009101057, -0.031739242, -1645332.9, 86900.78 
7.352262e+2, 1.3323486e+2, -1566115.4, -1659573.5, -3479.9658, 0.0077912626, -0.060532622, -1565986.0, 68308.3 
7.3522925e+2, 1.4322905e+2, -1474345.9, -1565858.5, -5036.802, -0.0034418674, -0.029970437, -1474069.5, 62281.848 
7.3523223e+2, 1.53223e+2, -1381477.8, -1469005.8, -5011.6367, 0.0002578645, -0.037248492, -1381191.8, 57219.02 
7.3523504e+2, 1.6321638e+2, -1296828.9, -1390001.4, -6522.6606, 0.0018749482, -0.04200689, -1296374.4, 44101.016 
7.3523754e+2, 1.7320932e+2, -1202992.4, -1293973.4, -6878.1685, -0.00047524305, -0.040447768, -1202475.4, 40069.4 
7.3524e+2, 1.8320172e+2, -1116989.9, -1212802.6, -8347.112, -0.0015043189, -0.03910461, -1116268.1, 28351.098 
7.352422e+2, 1.9319364e+2, -1025347.56, -1117493.6, -8345.271, 0.000031475953, -0.0421021, -1024597.9, 22100.453 
7.352444e+2, 2.0318505e+2, -940799.8, -1037877.2, -8660.98, 0.00037615377, -0.04222207, -940033.2, 8749.322 
7.352465e+2, 2.1317601e+2, -847198.7, -941750.5, -8913.665, -0.001636751, -0.038992856, -846365.7, 4505.4785 
7.352486e+2, 2.2316642e+2, -761126.44, -860699.7, -9086.61, -0.0025718617, -0.037380874, -760304.0, -7338.8843 
7.352507e+2, 2.3315634e+2, -668377.25, -764808.25, -8812.448, -0.001330109, -0.042106856, -667578.56, -12514.602 
7.3525286e+2, 2.4314573e+2, -583516.56, -685136.9, -8091.0186, -0.001154239, -0.043330576, -582876.44, -25708.559 
7.352551e+2, 2.5313467e+2, -491008.56, -589475.94, -8222.948, -0.003169244, -0.04010304, -490326.6, -31050.344 
7.352575e+2, 2.631231e+2, -405129.7, -508095.7, -7081.755, -0.0041092588, -0.037347622, -404644.9, -43255.26 
7.3526007e+2, 2.7311108e+2, -311408.13, -411507.56, -6775.085, -0.002832732, -0.03904554, -310951.66, -47444.266 
7.352629e+2, 2.8309828e+2, -230141.06, -339999.06, -5037.5195, -0.0022258179, -0.040246364, -229910.55, -64277.55 
7.352658e+2, 2.9308456e+2, -138514.02, -245363.95, -4805.822, -0.003009567, -0.043316957, -138298.3, -70531.05 
7.352691e+2, 3.0307484e+2, -37945.87, -80504.75, -2084.5313, -0.0039799893, -0.042506646, -37844.016, -37844.016 
7.3527277e+2, 3.130696e+2, -39753.023, -77779.42, -1803.4995, -0.0053765005, -0.037497386, -39667.676, -39667.676 
7.452296e+2, 1.2323723e+2, -1642195.4, -1727101.4, 912.2576, -0.0009856496, -0.03055036, -1642185.5, 90085.695 
7.4523264e+2, 1.3323098e+2, -1562800.9, -1658113.5, -2086.0154, 0.007700321, -0.062917605, -1562755.1, 71577.27 
7.452353e+2, 1.4322521e+2, -1471567.5, -1564965.4, -3407.7886, -0.0030756074, -0.02731945, -1471443.3, 64945.89 
7.4523795e+2, 1.5321907e+2, -1378219.9, -1467964.1, -3888.3958, 0.00015468716, -0.03625293, -1378051.8, 60397.46 
7.4524033e+2, 1.6321242e+2, -1293959.3, -1389069.9, -5553.162, 0.001563515, -0.042180706, -1293636.1, 46878.4 
7.4524254e+2, 1.7320529e+2, -1202473.1, -1294192.4, -5542.147, -0.00045291087, -0.040566146, -1202139.5, 40444.74 
7.4524456e+2, 1.8319766e+2, -1117269.4, -1213153.4, -6944.3496, -0.0012997969, -0.03901683, -1116769.0, 27889.951 
7.452464e+2, 1.9318959e+2, -1023831.75, -1116938.5, -7259.094, 0.000082478095, -0.041575294, -1023269.2, 23468.924 
7.452482e+2, 2.0318098e+2, -938764.7, -1037116.8, -7628.908, 0.0003075322, -0.041546542, -938176.44, 10646.043 
7.452499e+2, 2.131719e+2, -847141.5, -941985.06, -7505.8384, -0.0017539562, -0.038753, -846551.2, 4360.252 
7.4525166e+2, 2.2316232e+2, -762118.1, -860950.9, -7563.8247, -0.0026713095, -0.03727665, -761542.6, -8537.168 
7.4525344e+2, 2.3315226e+2, -669402.75, -764988.8, -7677.907, -0.001319187, -0.04152226, -668790.0, -13686.056 
7.452552e+2, 2.4314168e+2, -584643.1, -685530.7, -7113.651, -0.0011396015, -0.04258507, -584144.0, -26936.389 
7.45257e+2, 2.5313064e+2, -492055.66, -589892.0, -6889.2456, -0.0033797857, -0.039861243, -491572.9, -32256.969 
7.4525905e+2, 2.6311907e+2, -406410.25, -508322.78, -5531.509, -0.004286871, -0.037390977, -406110.88, -44681.715 
7.4526125e+2, 2.7310708e+2, -314158.72, -412397.56, -5419.964, -0.0024692058, -0.038905833, -313860.6, -50314.086 
7.4526364e+2, 2.8309432e+2, -233352.3, -340940.03, -3829.455, -0.0018139516, -0.039836418, -233216.17, -67544.516 
7.4526626e+2, 2.930807e+2, -140360.97, -245627.47, -3596.9556, -0.003566513, -0.04248444, -140238.2, -72432.9 
7.452691e+2, 3.03071e+2, -39864.79, -80863.07, -827.07574, -0.004747475, -0.04156989, -39848.113, -39848.113 
7.452724e+2, 3.1306583e+2, -44598.25, -79589.24, -459.852, -0.004721856, -0.037111904, -44592.21, -44592.21 
7.552366e+2, 1.2323365e+2, -1642727.6, -1728322.8, -322.83334, -0.00052056613, -0.032484826, -1642726.4, 89579.9 
7.552393e+2, 1.332275e+2, -1562188.3, -1656974.5, -3534.5671, 0.00752706, -0.06212928, -1562056.6, 72310.1 
7.552416e+2, 1.4322177e+2, -1472076.9, -1566109.5, -4759.51, -0.0031223434, -0.020777976, -1471836.5, 64586.242 
7.5524384e+2, 1.5321547e+2, -1378993.3, -1469632.0, -5205.5522, -0.00052685896, -0.03676054, -1378695.4, 59789.223 
7.552458e+2, 1.632087e+2, -1294017.6, -1389257.8, -7106.5903, 0.0010958542, -0.046584405, -1293490.3, 47060.61 
7.5524753e+2, 1.7320162e+2, -1202373.3, -1294083.5, -7144.7026, 0.0009797447, -0.042252988, -1201820.0, 40800.375 
7.552492e+2, 1.83194e+2, -1117525.6, -1213765.1, -8183.0146, 0.00037491389, -0.037887182, -1116834.9, 27860.092 
7.552507e+2, 1.9318588e+2, -1024226.9, -1117763.6, -8406.92, -0.0012562673, -0.03771203, -1023477.25, 23297.191 
7.5525206e+2, 2.0317724e+2, -938694.1, -1036936.56, -9145.753, -0.002025758, -0.038079575, -937850.0, 11009.104 
7.552534e+2, 2.1316813e+2, -846961.8, -941605.5, -9103.194, -0.0009681747, -0.041764814, -846094.2, 4854.198 
7.552547e+2, 2.2315854e+2, -762208.4, -861134.6, -8965.416, -0.000741372, -0.041988324, -761402.44, -8359.985 
7.5525606e+2, 2.3314855e+2, -669585.06, -765336.1, -9031.364, -0.002292833, -0.03830317, -668740.6, -13600.195 
7.5525737e+2, 2.43138e+2, -584373.06, -684909.25, -8464.663, -0.0030478314, -0.036292896, -583665.4, -26421.582 
7.552589e+2, 2.5312692e+2, -491717.13, -589092.56, -8241.498, -0.0021222483, -0.040534128, -491024.53, -31672.326 
7.552605e+2, 2.6311538e+2, -406327.6, -508033.34, -7017.748, -0.0018660541, -0.0420911, -405845.66, -44380.32 
7.5526226e+2, 2.7310345e+2, -314137.0, -412248.2, -6933.5283, -0.0030510428, -0.041288078, -313649.44, -50067.063 
7.552642e+2, 2.8309074e+2, -233074.97, -340236.56, -5050.8706, -0.003996649, -0.039171703, -232837.42, -67130.46 
7.552665e+2, 2.9307717e+2, -140097.6, -244851.92, -4753.173, -0.004339465, -0.037664417, -139882.36, -72042.66 
7.5526905e+2, 3.0306754e+2, -39602.746, -80055.34, -2416.1606, -0.0044483854, -0.03707819, -39458.945, -39458.945 
7.5527185e+2, 3.1306234e+2, -44292.96, -78779.2, -2148.8406, -0.0041187136, -0.042025045, -44159.582, -44159.582 
7.6524377e+2, 1.2323055e+2, -1639546.0, -1728261.5, 1418.7427, -0.0001086603, -0.031650588, -1639523.4, 92813.44 
7.6524603e+2, 1.3322438e+2, -1558439.3, -1654798.9, -2310.4922, 0.006926371, -0.06349031, -1558383.9, 76013.34 
7.6524794e+2, 1.432187e+2, -1469558.6, -1565500.4, -3560.2012, -0.0033348117, -0.019074941, -1469426.6, 67026.32 
7.652497e+2, 1.532123e+2, -1377273.9, -1469639.8, -3720.2412, -0.0002803658, -0.036809403, -1377124.4, 61391.32 
7.6525134e+2, 1.6320546e+2, -1292205.6, -1388718.5, -5603.9194, 0.0014640416, -0.0473767, -1291881.4, 48701.246 
7.652527e+2, 1.7319836e+2, -1199927.8, -1293153.0, -5857.1655, 0.00081365317, -0.041656703, -1199561.1, 43090.973 
7.652539e+2, 1.8319073e+2, -1115354.1, -1213023.0, -6892.467, -0.000029051456, -0.036675747, -1114870.1, 29856.842 
7.652549e+2, 1.9318259e+2, -1023942.3, -1117976.5, -6930.087, -0.0013185695, -0.037481733, -1023434.3, 23372.533 
7.652559e+2, 2.0317394e+2, -939191.25, -1037117.25, -7670.3135, -0.0018704467, -0.038292505, -938594.1, 10297.561 
7.652568e+2, 2.1316482e+2, -846796.7, -941396.56, -7744.691, -0.00088626234, -0.0413081, -846166.8, 4813.955 
7.652578e+2, 2.2315525e+2, -761983.4, -861127.56, -7617.8564, -0.00077261846, -0.041247167, -761401.44, -8326.691 
7.652586e+2, 2.3314522e+2, -670095.94, -765762.8, -7630.38, -0.0025172145, -0.038074005, -669491.2, -14318.186 
7.652596e+2, 2.4313468e+2, -585298.75, -685034.3, -7085.967, -0.0032226099, -0.036310706, -584797.8, -27521.506 
7.652607e+2, 2.5312367e+2, -493369.22, -589478.3, -7002.901, -0.0017997478, -0.040252652, -492861.63, -33477.3 
7.652619e+2, 2.6311216e+2, -408369.44, -508637.8, -5820.204, -0.0015030074, -0.041615777, -408032.72, -46535.63 
7.6526326e+2, 2.7310026e+2, -315744.63, -412672.7, -5609.9414, -0.0035775045, -0.040850867, -315421.0, -51807.203 
7.6526475e+2, 2.8308755e+2, -234986.0, -340675.7, -3679.3005, -0.004752948, -0.038831215, -234858.08, -69120.016 
7.6526666e+2, 2.9307407e+2, -144102.88, -246293.56, -3483.5674, -0.0039835395, -0.037527747, -143984.27, -76113.88 
7.6526874e+2, 3.030645e+2, -44068.38, -81308.984, -1092.8142, -0.0037312268, -0.037012983, -44036.336, -44036.336 
7.652712e+2, 3.1305936e+2, -46542.746, -78893.47, -632.7894, -0.0045646853, -0.041737895, -46530.375, -46530.375 
7.752511e+2, 1.2322787e+2, -1640717.0, -1730804.6, 15.7572775, 0.00019592467, -0.028316429, -1640717.0, 91646.016 
7.752529e+2, 1.3322161e+2, -1558416.4, -1654890.6, -3901.1282, 0.0059170076, -0.06679318, -1558258.9, 76165.42 
7.752543e+2, 1.4321592e+2, -1469714.3, -1565942.8, -5065.9736, -0.0037254787, -0.021764334, -1469448.3, 67031.93 
7.7525574e+2, 1.5320952e+2, -1377491.4, -1470188.4, -5199.866, 0.00077811215, -0.036456674, -1377200.5, 61342.402 
7.7525693e+2, 1.6320266e+2, -1292482.8, -1389361.8, -7050.4204, 0.0025576826, -0.04491108, -1291972.4, 48637.754 
7.752579e+2, 1.7319551e+2, -1200246.4, -1293859.8, -7287.365, -0.0008197437, -0.03900072, -1199682.5, 42997.676 
7.752586e+2, 1.8318784e+2, -1115433.8, -1213218.9, -8499.976, -0.0023578655, -0.03540298, -1114700.4, 30054.982 
7.7525926e+2, 1.9317962e+2, -1023979.2, -1118092.4, -8570.312, -0.00024859715, -0.040546797, -1023205.1, 23630.676 
7.7525985e+2, 2.0317097e+2, -939182.06, -1037127.6, -9129.6, 0.00050392974, -0.041851763, -938338.3, 10582.366 
7.752603e+2, 2.1316195e+2, -846809.6, -941422.25, -9162.626, -0.0014671498, -0.037736762, -845930.44, 5078.749 
7.7526075e+2, 2.2315237e+2, -762046.7, -861226.44, -9135.72, -0.0026217205, -0.035586216, -761212.2, -8109.2207 
7.752612e+2, 2.3314226e+2, -670196.56, -765918.75, -9161.548, -0.0020792882, -0.04054408, -669327.6, -14125.594 
7.7526176e+2, 2.4313168e+2, -585233.9, -684830.25, -8627.139, -0.0018561315, -0.04203595, -584492.06, -27186.424 
7.752624e+2, 2.5312075e+2, -493279.56, -589220.6, -8548.611, -0.002342859, -0.03912411, -492523.8, -33110.94 
7.752632e+2, 2.6310933e+2, -408112.03, -508009.8, -7229.8115, -0.003027111, -0.03647618, -407591.5, -46066.516 
7.752641e+2, 2.7309743e+2, -315499.94, -412008.75, -6987.986, -0.004071966, -0.03787302, -314996.6, -51355.168 
7.752653e+2, 2.8308478e+2, -234845.67, -340201.1, -5331.664, -0.0042491057, -0.03877569, -234576.53, -68811.05 
7.7526665e+2, 2.9307127e+2, -143968.97, -245878.83, -5197.7666, -0.0026368808, -0.0415883, -143704.55, -75806.67 
7.752683e+2, 3.0306172e+2, -43474.938, -79928.72, -2297.7026, -0.0026650438, -0.04092309, -43330.684, -43330.684 
7.752704e+2, 3.1305683e+2, -45943.715, -77356.84, -1726.4324, -0.006004599, -0.036777563, -45849.117, -45849.117 
7.8525853e+2, 1.2322564e+2, -1637716.1, -1731298.1, 1678.1235, -0.00003457256, -0.027159078, -1637686.0, 94698.96 
7.852599e+2, 1.3321935e+2, -1554523.0, -1653089.6, -2416.4092, 0.005890777, -0.067791976, -1554463.9, 79982.836 
7.8526086e+2, 1.4321364e+2, -1466416.1, -1564711.1, -3549.392, -0.0029042151, -0.02156896, -1466288.1, 70214.56 
7.852619e+2, 1.532072e+2, -1374935.3, -1469397.9, -3685.6204, 0.0004296975, -0.0353615, -1374791.6, 63774.027 
7.8526264e+2, 1.632003e+2, -1290609.3, -1388917.8, -5495.9624, 0.001738191, -0.04362636, -1290302.9, 50330.383 
7.852631e+2, 1.731931e+2, -1199025.5, -1293762.6, -5693.1577, -0.0006946804, -0.038927693, -1198684.6, 44019.24 
7.852634e+2, 1.831854e+2, -1114398.6, -1212902.6, -6991.7773, -0.0017926793, -0.035852104, -1113904.8, 30874.629 
7.852636e+2, 1.9317718e+2, -1022830.75, -1117677.0, -7111.247, -0.000301467, -0.040126625, -1022300.56, 24559.297 
7.852637e+2, 2.031685e+2, -938284.06, -1036924.9, -7661.9497, 0.00010779208, -0.041058302, -937692.5, 11252.37 
7.852637e+2, 2.1315946e+2, -846701.4, -941648.06, -7836.497, -0.0016449807, -0.037596583, -846058.94, 4974.7075 
7.852638e+2, 2.2314987e+2, -762303.2, -861118.8, -7901.3564, -0.0025463244, -0.03572683, -761675.4, -8547.868 
7.852638e+2, 2.3313978e+2, -670919.94, -765948.3, -7686.5654, -0.0017260188, -0.040197846, -670302.25, -15075.989 
7.852639e+2, 2.4312924e+2, -586421.0, -685275.44, -6961.0933, -0.0015935042, -0.041420184, -585933.25, -28603.598 
7.852641e+2, 2.531183e+2, -494511.75, -589756.44, -6965.192, -0.0029297003, -0.038701784, -494005.06, -34568.266 
7.8526443e+2, 2.6310688e+2, -409541.66, -508260.8, -5737.6226, -0.0037661518, -0.036207665, -409209.28, -47660.55 
7.8526497e+2, 2.7309507e+2, -318213.84, -412816.22, -5531.619, -0.0035488566, -0.037654992, -317891.5, -54226.777 
7.852656e+2, 2.8308243e+2, -237988.6, -341132.38, -3822.6184, -0.0033237098, -0.038554907, -237847.11, -72058.8 
7.852665e+2, 2.9306898e+2, -145859.63, -246209.56, -3546.0552, -0.0031194824, -0.041274678, -145734.47, -77814.3 
7.852678e+2, 3.0305952e+2, -45478.754, -80333.664, -677.0422, -0.003610231, -0.0405875, -45465.605, -45465.605 
7.852694e+2, 3.1305465e+2, -50880.242, -79207.17, -546.09174, -0.005365851, -0.03653506, -50869.72, -50869.72 
7.952661e+2, 1.232238e+2, -1638858.6, -1733798.8, 179.95605, -0.0008067149, -0.027981367, -1638858.3, 93544.76 
7.9526705e+2, 1.3321748e+2, -1554504.0, -1653175.6, -4065.4543, 0.006727062, -0.066723324, -1554336.8, 80128.12 
7.952676e+2, 1.4321178e+2, -1466596.5, -1565182.4, -5203.5986, -0.0010165767, -0.018782955, -1466322.6, 70198.21 
7.9526806e+2, 1.5320529e+2, -1375163.8, -1469976.6, -5337.3306, -0.0012083737, -0.033600826, -1374864.3, 63720.09 
7.9526836e+2, 1.6319835e+2, -1290821.8, -1389453.8, -7105.06, -0.0008400033, -0.043417357, -1290312.5, 50339.94 
7.952684e+2, 1.7319109e+2, -1199267.0, -1294331.0, -7282.3027, 0.0009901498, -0.041199803, -1198712.4, 44011.234 
7.952683e+2, 1.8318333e+2, -1114506.6, -1213167.6, -8600.069, 0.0013415122, -0.037877087, -1113762.6, 31036.887 
7.95268e+2, 1.9317517e+2, -1022924.9, -1117907.1, -8719.056, -0.0013856345, -0.036576252, -1022131.1, 24748.451 
7.9526764e+2, 2.0316648e+2, -938545.3, -1037480.5, -9274.599, -0.0028238306, -0.036349006, -937683.4, 11281.399 
7.952672e+2, 2.131573e+2, -847034.94, -942321.44, -9435.748, -0.0014830194, -0.040553328, -846109.56, 4945.1274 
7.952668e+2, 2.2314769e+2, -762010.3, -860474.06, -9542.59, -0.00077512587, -0.041108433, -761094.0, -7945.128 
7.9526633e+2, 2.3313776e+2, -670493.8, -765034.06, -9349.199, -0.0014634511, -0.037327584, -669578.1, -14331.874 
7.95266e+2, 2.4312729e+2, -586392.44, -685169.8, -8531.244, -0.0023522873, -0.035097715, -585661.06, -28312.16 
7.9526573e+2, 2.5311628e+2, -494620.53, -589886.75, -8503.605, -0.0035713755, -0.038917754, -493867.44, -34410.71 
7.952656e+2, 2.6310483e+2, -409378.97, -507799.2, -7425.8286, -0.003821645, -0.040327393, -408821.84, -47252.945 
7.952656e+2, 2.7309304e+2, -317990.38, -412241.4, -7258.4717, -0.0021281366, -0.039923046, -317434.66, -53750.324 
7.9526585e+2, 2.8308052e+2, -237598.98, -340193.2, -5258.0947, -0.0020469148, -0.038186207, -237330.2, -71523.055 
7.9526633e+2, 2.9306716e+2, -145496.5, -245241.66, -4915.9663, -0.005273144, -0.03702802, -145254.81, -77316.836 
7.9526716e+2, 3.0305773e+2, -45588.266, -80307.445, -2457.028, -0.006392682, -0.036425084, -45415.25, -45415.25 
7.952683e+2, 3.130528e+2, -51092.977, -79430.484, -2404.929, -0.0029072629, -0.04051951, -50890.33, -50890.33 
8.052739e+2, 1.2322244e+2, -1635489.3, -1733811.8, 1891.3375, -0.0003313042, -0.028750466, -1635452.9, 96963.45 
8.052743e+2, 1.3321616e+2, -1550869.4, -1651273.4, -2365.2295, 0.005816845, -0.06573923, -1550813.8, 83664.28 
8.0527437e+2, 1.4321044e+2, -1463975.5, -1564496.5, -3381.3257, -0.0013650944, -0.017451132, -1463861.9, 72672.195 
8.052744e+2, 1.5320387e+2, -1372619.1, -1469503.9, -3678.1763, -0.00081554294, -0.03381374, -1372479.6, 66118.766 
8.052742e+2, 1.6319685e+2, -1288293.6, -1388656.8, -5611.958, -0.0002476451, -0.044286642, -1287980.8, 52686.297 
8.0527383e+2, 1.7318958e+2, -1197494.0, -1293851.0, -5764.1523, 0.0007250536, -0.040963672, -1197150.4, 45588.11 
8.052732e+2, 1.831818e+2, -1113290.1, -1212875.3, -7038.178, 0.00074074464, -0.03705198, -1112795.1, 32019.48 
8.052724e+2, 1.931736e+2, -1021958.75, -1117742.1, -7221.332, -0.0012996085, -0.036239337, -1021417.4, 25477.617 
8.052716e+2, 2.031649e+2, -937793.6, -1037089.56, -7780.9375, -0.0023887923, -0.03624585, -937187.6, 11792.697 
8.052707e+2, 2.1315573e+2, -847056.25, -942257.25, -7602.753, -0.0014156456, -0.040152468, -846452.94, 4617.2246 
8.052698e+2, 2.2314611e+2, -762609.94, -860809.4, -7571.968, -0.0010097063, -0.04059272, -762029.56, -8865.249 
8.052689e+2, 2.3313616e+2, -671022.3, -765387.06, -7853.093, -0.001857348, -0.037083488, -670373.25, -15111.495 
8.0526805e+2, 2.4312572e+2, -586922.0, -685086.8, -7310.9272, -0.0025957066, -0.034978017, -586380.5, -29016.168 
8.052673e+2, 2.5311476e+2, -496167.88, -590223.4, -7005.0835, -0.0030952138, -0.038622983, -495649.0, -36177.203 
8.0526674e+2, 2.6310334e+2, -411545.28, -508480.28, -5735.0874, -0.0031898138, -0.03998777, -411207.16, -49623.527 
8.0526626e+2, 2.7309158e+2, -319791.2, -412781.28, -5647.058, -0.0025037953, -0.03979315, -319449.53, -55750.758 
8.0526596e+2, 2.8307906e+2, -239566.66, -340614.06, -3706.1338, -0.002796349, -0.03810532, -239430.9, -73609.67 
8.05266e+2, 2.930658e+2, -149160.14, -246458.83, -3506.2383, -0.0050835996, -0.036672194, -149033.95, -81082.41 
8.052664e+2, 3.0305642e+2, -49783.14, -81385.04, -1004.83484, -0.005823719, -0.03600943, -49751.223, -49751.223 
8.0526704e+2, 3.1305158e+2, -54074.863, -79855.24, -286.06384, -0.003163679, -0.04051385, -54071.69, -54071.69 
8.152818e+2, 1.23221524e+2, -1636294.3, -1735599.5, 156.16295, 0.0012087184, -0.029493965, -1636294.0, 96131.3 
8.152817e+2, 1.3321528e+2, -1550564.3, -1650793.5, -4240.508, 0.0033194951, -0.064841814, -1550385.3, 84101.375 
8.152812e+2, 1.4320953e+2, -1464386.8, -1565477.0, -5067.3936, -0.0037499205, -0.017434625, -1464133.4, 72409.47 
8.152808e+2, 1.5320286e+2, -1373219.3, -1470836.8, -5306.6035, 0.0013713496, -0.035815157, -1372931.6, 65676.695 
8.1528014e+2, 1.6319579e+2, -1288525.3, -1389202.3, -7374.632, 0.0031575994, -0.046144854, -1287987.9, 52689.79 
8.152792e+2, 1.7318851e+2, -1197652.6, -1294251.8, -7550.5767, -0.0013076972, -0.038484998, -1197066.0, 45682.938 
8.1527805e+2, 1.8318072e+2, -1113492.8, -1213349.6, -8722.521, -0.0032579037, -0.03367668, -1112736.6, 32088.701 
8.152769e+2, 1.9317243e+2, -1022211.1, -1118279.0, -8871.95, -0.00018513472, -0.038793482, -1021398.6, 25507.918 
8.152756e+2, 2.031637e+2, -937522.2, -1036521.2, -9564.411, 0.0010390043, -0.040294427, -936606.6, 12385.435 
8.152742e+2, 2.1315464e+2, -846667.4, -941467.25, -9425.942, -0.0014540653, -0.036745805, -845739.25, 5341.4375 
8.1527275e+2, 2.2314508e+2, -762946.0, -861507.25, -9241.643, -0.0030908217, -0.034778148, -762086.94, -8912.424 
8.152714e+2, 2.33135e+2, -671575.8, -766475.94, -9467.081, -0.0028532543, -0.039199874, -670640.6, -15367.2295 
8.1527007e+2, 2.4312447e+2, -586626.9, -684382.25, -9078.225, -0.0024026982, -0.040444713, -585790.94, -28414.412 
8.152688e+2, 2.5311363e+2, -495680.6, -589134.06, -8820.416, -0.0016406808, -0.037878226, -494855.4, -35372.71 
8.152677e+2, 2.6310232e+2, -411378.2, -508045.9, -7387.8887, -0.0019731226, -0.035636872, -410816.84, -49223.227 
8.152668e+2, 2.7309057e+2, -319747.84, -412552.66, -7256.9766, -0.0045153145, -0.03751227, -319183.78, -55475.04 
8.152661e+2, 2.8307807e+2, -239467.6, -340234.2, -5483.3545, -0.0054034675, -0.038288374, -239170.08, -73338.87 
8.152656e+2, 2.9306477e+2, -149059.36, -246075.25, -5318.693, -0.0028187232, -0.039807163, -148768.64, -80807.13 
8.152654e+2, 3.0305552e+2, -48823.324, -79198.35, -2596.9346, -0.0022703705, -0.038958993, -48602.895, -48602.895 
8.152656e+2, 3.1305087e+2, -52964.313, -77284.96, -1844.6764, -0.005918734, -0.03693574, -52825.19, -52825.19 
8.2528985e+2, 1.2322116e+2, -1633439.8, -1735800.3, 1957.2227, 0.0011686821, -0.028356487, -1633402.4, 99026.56 
8.252892e+2, 1.3321489e+2, -1546572.1, -1648870.6, -2774.324, 0.003013486, -0.064417854, -1546497.0, 87993.484 
8.2528824e+2, 1.432091e+2, -1460941.5, -1564339.8, -3611.5344, -0.0032396964, -0.01880815, -1460815.5, 75731.57 
8.2528734e+2, 1.532024e+2, -1370818.5, -1470338.5, -3619.2998, 0.0011540252, -0.035358023, -1370687.0, 67925.875 
8.252862e+2, 1.6319527e+2, -1286631.1, -1388713.5, -5586.7544, 0.0026757927, -0.044683736, -1286326.4, 54356.336 
8.252847e+2, 1.7318796e+2, -1195786.3, -1293747.3, -5817.1914, -0.0011075214, -0.037826654, -1195442.1, 47312.31 
8.252831e+2, 1.8318012e+2, -1111856.9, -1212752.3, -6990.5425, -0.0028204357, -0.033612277, -1111374.9, 33456.2 
8.252814e+2, 1.9317183e+2, -1021588.44, -1118153.1, -7000.413, -0.0004323734, -0.038818937, -1021083.6, 25828.877 
8.252796e+2, 2.0316309e+2, -937453.7, -1036667.6, -7727.506, 0.0005342623, -0.0402627, -936855.4, 12142.72 
8.252776e+2, 2.1315402e+2, -846205.8, -941448.56, -8071.8467, -0.0013875886, -0.036426213, -845526.56, 5560.3247 
8.252758e+2, 2.2314446e+2, -762425.7, -861081.2, -8061.659, -0.0027101452, -0.03434257, -761771.25, -8590.534 
8.252739e+2, 2.3313437e+2, -672410.75, -766648.06, -7667.3857, -0.002715896, -0.03898963, -671791.0, -16511.578 
8.25272e+2, 2.4312387e+2, -588307.06, -684997.75, -6939.733, -0.002508312, -0.040375814, -587811.56, -30429.188 
8.2527024e+2, 2.5311306e+2, -497033.88, -589626.44, -7087.2417, -0.0019811706, -0.03775997, -496494.53, -37006.16 
8.252687e+2, 2.631018e+2, -412665.28, -508228.4, -5890.9614, -0.0022883136, -0.035362083, -412303.53, -50704.48 
8.252672e+2, 2.7309006e+2, -322095.97, -413210.94, -5609.184, -0.004316714, -0.03688791, -321751.94, -58038.207 
8.25266e+2, 2.830776e+2, -242386.4, -340993.75, -3680.6736, -0.004982481, -0.037667338, -242249.2, -76413.49 
8.25265e+2, 2.9306436e+2, -151793.4, -246730.98, -3322.4392, -0.0027902054, -0.039895743, -151677.28, -83711.79 
8.252644e+2, 3.0305514e+2, -51776.42, -79911.84, -674.6632, -0.0024831176, -0.03918935, -51760.254, -51760.254 
8.2526404e+2, 3.130506e+2, -57089.895, -78574.875, -729.08575, -0.006060203, -0.036156137, -57065.184, -57065.184 
8.3529806e+2, 1.2322128e+2, -1634452.3, -1738063.9, 236.80208, -0.00033147272, -0.02555411, -1634451.8, 97976.11 
8.3529687e+2, 1.3321494e+2, -1546705.9, -1649281.3, -4585.0093, 0.0046424423, -0.06443467, -1546501.4, 87988.64 
8.3529544e+2, 1.432091e+2, -1461088.9, -1564739.0, -5474.312, -0.00017326335, -0.021441942, -1460800.5, 75746.63 
8.3529395e+2, 1.5320241e+2, -1370977.9, -1470760.4, -5489.8164, -0.0012341725, -0.032720115, -1370676.8, 67936.15 
8.352922e+2, 1.6319527e+2, -1286856.4, -1389256.5, -7392.0176, -0.0013147675, -0.04026742, -1286325.5, 54357.242 
8.352904e+2, 1.7318785e+2, -1196053.9, -1294356.8, -7598.69, 0.0010670051, -0.038805053, -1195470.0, 47285.43 
8.352882e+2, 1.8317999e+2, -1111852.3, -1212786.0, -8890.988, 0.0015451127, -0.036526315, -1111075.0, 33757.42 
8.352859e+2, 1.9317174e+2, -1021528.2, -1118089.0, -8928.972, -0.0019181273, -0.03658272, -1020709.5, 26203.916 
8.352836e+2, 2.0316298e+2, -937889.4, -1037609.25, -9467.78, -0.0035314888, -0.03657567, -936998.44, 12000.699 
8.352812e+2, 2.1315378e+2, -846811.4, -942671.0, -9748.2295, -0.0012492697, -0.038877092, -845830.1, 5259.208 
8.3527875e+2, 2.2314416e+2, -761955.2, -860042.3, -9978.599, -0.00016345337, -0.038734756, -760950.3, -7766.829 
8.352763e+2, 2.3313425e+2, -671683.7, -765116.75, -9658.006, -0.0015765053, -0.0366907, -670695.75, -15415.192 
8.352739e+2, 2.4312384e+2, -588402.94, -685171.8, -8711.521, -0.002907447, -0.035336528, -587624.94, -30242.25 
8.3527166e+2, 2.5311294e+2, -497377.28, -590251.2, -8793.729, -0.0039500156, -0.03821181, -496552.0, -37062.414 
8.352695e+2, 2.6310164e+2, -412421.22, -507592.2, -7742.9316, -0.0040069227, -0.03875596, -411795.38, -50194.824 
8.352676e+2, 2.7309e+2, -321727.34, -412314.22, -7502.3286, -0.0021558134, -0.037759535, -321110.22, -57395.78 
8.352659e+2, 2.8307763e+2, -241889.08, -339814.63, -5469.6465, -0.0018764798, -0.036328472, -241584.52, -75749.03 
8.352643e+2, 2.9306448e+2, -151307.16, -245535.3, -5090.9565, -0.004810855, -0.037250746, -151032.9, -83068.6 
8.352632e+2, 3.0305532e+2, -52039.445, -80241.67, -2514.2466, -0.006124432, -0.03697947, -51817.055, -51817.055 
8.3526236e+2, 3.130507e+2, -57557.84, -79306.01, -2564.634, -0.003912679, -0.037881747, -57259.5, -57259.5 
8.453064e+2, 1.23221934e+2, -1630587.0, -1737712.8, 2219.3887, -0.00007104161, -0.02608906, -1630541.0, 101880.41 
8.453046e+2, 1.3321558e+2, -1543094.4, -1647771.4, -2637.9902, 0.0042957505, -0.062606536, -1543027.9, 91455.8 
8.453027e+2, 1.432097e+2, -1458369.9, -1563860.0, -3476.8003, 0.00019168267, -0.021266282, -1458255.4, 78285.94 
8.453007e+2, 1.5320295e+2, -1368512.5, -1470071.0, -3586.174, -0.0012072991, -0.03262464, -1368386.0, 70221.42 
8.452984e+2, 1.6319579e+2, -1284655.9, -1388589.5, -5527.6973, -0.0015266543, -0.04024082, -1284362.6, 56315.055 
8.4529597e+2, 1.7318834e+2, -1194476.5, -1293995.6, -5689.9307, 0.0008656242, -0.038959116, -1194152.3, 48598.508 
8.4529334e+2, 1.8318044e+2, -1110581.4, -1212517.9, -7057.2393, 0.0014902119, -0.03655241, -1110095.1, 34732.914 
8.452905e+2, 1.9317216e+2, -1020056.3, -1117737.0, -7342.8237, -0.0016321064, -0.035877045, -1019507.44, 27401.865 
8.452876e+2, 2.0316339e+2, -936588.5, -1036985.06, -7874.969, -0.0032028642, -0.035688132, -935974.56, 13020.662 
8.4528464e+2, 2.1315418e+2, -847098.3, -942763.25, -7572.89, -0.0014839303, -0.038931485, -846502.5, 4582.8823 
8.452817e+2, 2.2314458e+2, -763076.5, -860551.8, -7603.057, -0.0006281144, -0.039118018, -762487.06, -9307.474 
8.4527874e+2, 2.3313467e+2, -672033.06, -765282.75, -7982.7085, -0.0016154227, -0.036118872, -671354.7, -16078.086 
8.452758e+2, 2.4312426e+2, -588484.1, -684932.1, -7397.6104, -0.0026478549, -0.034336995, -587920.0, -30541.482 
8.45273e+2, 2.531134e+2, -498805.7, -590628.75, -7032.462, -0.0037091682, -0.037905816, -498270.22, -38785.01 
8.452704e+2, 2.6310208e+2, -414714.47, -508290.1, -5711.4253, -0.003918324, -0.03892584, -414367.16, -52771.25 
8.452679e+2, 2.730905e+2, -323997.38, -413005.0, -5656.561, -0.0024756365, -0.03791353, -323639.34, -59929.92 
8.4526557e+2, 2.830782e+2, -244234.64, -340328.22, -3803.9336, -0.002258181, -0.036231585, -244084.3, -78254.28 
8.4526354e+2, 2.9306513e+2, -154373.02, -246373.14, -3625.514, -0.0045676683, -0.036472525, -154230.38, -86272.164 
8.452618e+2, 3.03056e+2, -55538.047, -81190.23, -926.8685, -0.0057098987, -0.03613187, -55504.6, -55504.6 
8.4526044e+2, 3.1305143e+2, -61058.973, -80258.05, -226.1822, -0.0042981734, -0.038217645, -61056.31, -61056.31 
8.5531485e+2, 1.2322307e+2, -1631347.6, -1739407.9, 222.13628, 0.0016919668, -0.029603152, -1631347.1, 101063.086 
8.553126e+2, 1.3321677e+2, -1543116.4, -1647952.4, -4721.2876, 0.0021715916, -0.059163563, -1542904.1, 91567.984 
8.5531e+2, 1.4321084e+2, -1458641.3, -1564544.4, -5421.7764, -0.0018753888, -0.018613141, -1458364.4, 78165.664 
8.553075e+2, 1.53204e+2, -1368864.5, -1470908.9, -5499.6685, 0.0009399573, -0.03480767, -1368569.0, 70028.26 
8.5530466e+2, 1.6319676e+2, -1284835.8, -1389052.6, -7469.983, 0.0015861541, -0.044134755, -1284303.1, 56365.055 
8.553016e+2, 1.7318933e+2, -1194646.6, -1294422.6, -7633.6123, -0.001475675, -0.03838392, -1194065.9, 48675.086 
8.5529846e+2, 1.831814e+2, -1110951.5, -1213324.9, -8931.199, -0.0025514774, -0.034012802, -1110178.1, 34640.492 
8.552952e+2, 1.9317302e+2, -1020512.8, -1118679.5, -9184.917, 0.00021492405, -0.03653646, -1019660.8, 27239.941 
8.552917e+2, 2.0316423e+2, -936194.75, -1036153.75, -9935.977, 0.0010112121, -0.037301783, -935216.7, 13770.234 
8.5528815e+2, 2.1315515e+2, -846502.44, -941554.94, -9699.736, -0.0020743918, -0.036842376, -845522.75, 5553.264 
8.5528463e+2, 2.2314557e+2, -763480.1, -861407.44, -9443.907, -0.0038273556, -0.035910953, -762577.7, -9407.89 
8.552811e+2, 2.3313555e+2, -672729.5, -766670.7, -9733.946, -0.002723147, -0.037092414, -671731.5, -16463.395 
8.552777e+2, 2.431251e+2, -588139.94, -684120.94, -9395.971, -0.0018289031, -0.03695756, -587228.75, -29858.268 
8.552744e+2, 2.531143e+2, -498224.94, -589340.2, -9102.998, -0.0015153777, -0.036919188, -497324.4, -37848.402 
8.552711e+2, 2.6310313e+2, -414570.72, -507905.1, -7626.657, -0.0022431249, -0.036195245, -413951.63, -52365.742 
8.55268e+2, 2.7309152e+2, -323994.16, -412879.9, -7529.068, -0.0050554746, -0.03742791, -323360.9, -59661.42 
8.552652e+2, 2.8307924e+2, -244119.17, -339937.25, -5734.764, -0.005821563, -0.037261445, -243777.17, -77957.125 
8.5526264e+2, 2.9306617e+2, -154265.83, -245965.6, -5567.4385, -0.002321391, -0.0373768, -153929.05, -85981.125 
8.552604e+2, 3.0305713e+2, -54678.434, -79188.73, -2783.7156, -0.0016844446, -0.036512338, -54366.254, -54366.254 
8.552584e+2, 3.1305274e+2, -60055.426, -77919.03, -2079.9277, -0.007071503, -0.037318718, -59816.45, -59816.45 
8.6532354e+2, 1.2322484e+2, -1628215.5, -1739008.6, 2198.9626, 0.0018253574, -0.030033182, -1628171.9, 104221.1 
8.653206e+2, 1.3321854e+2, -1539367.4, -1646234.9, -2783.685, 0.0015975236, -0.057705075, -1539295.0, 95159.88 
8.653175e+2, 1.4321257e+2, -1455416.5, -1563671.0, -3409.5396, -0.0017579851, -0.019215636, -1455309.3, 81204.1 
8.6531436e+2, 1.5320565e+2, -1366157.0, -1470440.6, -3584.7766, 0.0012254785, -0.034860693, -1366033.9, 72547.22 
8.653111e+2, 1.6319835e+2, -1282329.0, -1388282.1, -5679.077, 0.00187459, -0.04367968, -1282025.5, 58627.03 
8.6530745e+2, 1.7319089e+2, -1192620.3, -1293829.6, -5884.29, -0.0015018075, -0.037669644, -1192279.3, 50446.477 
8.653037e+2, 1.8318294e+2, -1109461.5, -1212729.8, -7075.7715, -0.0027874352, -0.033423092, -1108979.0, 35824.684 
8.652998e+2, 1.9317454e+2, -1020087.2, -1118572.0, -6954.3257, -0.00003581933, -0.036820874, -1019598.56, 27287.396 
8.6529577e+2, 2.0316574e+2, -936258.25, -1036327.4, -7680.9, 0.0008720924, -0.03772393, -935672.1, 13300.061 
8.652917e+2, 2.1315664e+2, -845831.94, -941409.8, -8108.3584, -0.0019041648, -0.03589967, -845148.94, 5912.3584 
8.6528754e+2, 2.2314708e+2, -762666.5, -860917.7, -8058.322, -0.0035365038, -0.03457121, -762010.0, -8854.875 
8.652835e+2, 2.3313704e+2, -673543.8, -766938.0, -7642.7188, -0.0027186435, -0.03735928, -672922.5, -17669.074 
8.6527956e+2, 2.431266e+2, -589907.44, -684750.25, -7003.338, -0.0020061107, -0.037898656, -589393.06, -32037.318 
8.6527556e+2, 2.5311586e+2, -499682.06, -589823.5, -7188.745, -0.0016755486, -0.03656905, -499112.34, -39651.418 
8.652718e+2, 2.6310468e+2, -415877.13, -508094.5, -5927.697, -0.002293893, -0.035069883, -415497.66, -53927.188 
8.652681e+2, 2.7309313e+2, -325944.88, -413357.56, -5626.393, -0.0048413314, -0.036684528, -325584.22, -61900.52 
8.652647e+2, 2.8308088e+2, -246671.53, -340607.28, -3709.499, -0.005646115, -0.037001804, -246525.28, -80721.43 
8.652616e+2, 2.9306787e+2, -157461.2, -246950.55, -3436.0403, -0.002793588, -0.037721004, -157329.47, -89398.18 
8.652588e+2, 3.030589e+2, -58233.92, -80088.5, -652.8432, -0.0022238756, -0.036764063, -58214.438, -58214.438 
8.652563e+2, 3.130546e+2, -63883.008, -78918.32, -545.0403, -0.0065006604, -0.036127407, -63863.277, -63863.277 
8.7533236e+2, 1.2322716e+2, -1628711.9, -1740207.4, 187.45683, 0.0004698844, -0.02775906, -1628711.6, 103658.67 
8.753288e+2, 1.332208e+2, -1539314.4, -1646271.9, -4864.1973, 0.0023720106, -0.058027945, -1539093.6, 95338.805 
8.7532514e+2, 1.4321478e+2, -1455872.1, -1564720.1, -5441.438, 0.00025296136, -0.022714473, -1455600.9, 80890.7 
8.753214e+2, 1.5320782e+2, -1366743.9, -1471744.4, -5591.666, -0.0001674139, -0.03304296, -1366447.0, 72112.75 
8.753175e+2, 1.6320048e+2, -1282609.8, -1388932.5, -7725.452, -0.00037593543, -0.039386608, -1282051.4, 58580.313 
8.7531334e+2, 1.7319295e+2, -1192866.0, -1294389.5, -7935.826, 0.0005042179, -0.036839783, -1192249.4, 50456.207 
8.7530905e+2, 1.8318497e+2, -1109236.5, -1212305.8, -9191.562, 0.00030561272, -0.03457048, -1108423.3, 36360.543 
8.7530446e+2, 1.9317663e+2, -1019765.94, -1117965.4, -9094.425, -0.0021746354, -0.036767203, -1018930.8, 27934.744 
8.752999e+2, 2.0316781e+2, -936762.56, -1037411.1, -9636.615, -0.003180898, -0.037085753, -935848.2, 13103.574 
8.752952e+2, 2.1315862e+2, -846576.4, -942931.7, -9997.435, -0.0010766422, -0.03598092, -845550.0, 5491.968 
8.752906e+2, 2.2314902e+2, -762212.56, -859925.75, -10184.849, -0.0001753286, -0.03489232, -761162.3, -8026.1343 
8.7528586e+2, 2.3313908e+2, -672823.94, -765407.3, -9842.254, -0.001738589, -0.036988556, -671789.25, -16555.836 
8.752813e+2, 2.431287e+2, -590030.0, -684958.25, -9028.301, -0.0031041584, -0.03733613, -589179.0, -31843.87 
8.7527674e+2, 2.5311792e+2, -500034.78, -590478.3, -9156.728, -0.003968845, -0.03679249, -499117.06, -39676.246 
8.7527233e+2, 2.6310676e+2, -415594.72, -507400.34, -7946.361, -0.003925467, -0.03538136, -414911.97, -53361.55 
8.7526816e+2, 2.7309528e+2, -325552.13, -412396.25, -7664.794, -0.0021420943, -0.035714813, -324880.8, -61217.953 
8.752642e+2, 2.8308308e+2, -246291.16, -339653.22, -5807.694, -0.0021492934, -0.035586532, -245931.27, -80148.984 
8.7526035e+2, 2.9307014e+2, -157090.03, -246033.0, -5549.42, -0.0057658763, -0.03756514, -156745.13, -88835.92 
8.7525696e+2, 3.030612e+2, -58264.336, -79985.27, -2599.6313, -0.006932649, -0.036912322, -57957.535, -57957.535 
8.75254e+2, 3.130569e+2, -64094.25, -79082.79, -2440.501, -0.002986681, -0.034690738, -63706.887, -63706.887 
8.853412e+2, 1.2323013e+2, -1624782.8, -1739674.5, 2515.0825, 0.0004998482, -0.027425766, -1624727.6, 107613.53 
8.853372e+2, 1.3322373e+2, -1535654.3, -1645173.5, -2972.3374, 0.0022230323, -0.056998163, -1535573.6, 98830.29 
8.853328e+2, 1.4321762e+2, -1452692.3, -1563624.8, -3600.3096, 0.0007227463, -0.023820154, -1452575.6, 83888.164 
8.8532853e+2, 1.5321065e+2, -1364028.9, -1470849.5, -3391.2185, -0.00045352225, -0.032545734, -1363921.3, 74610.88 
8.8532406e+2, 1.6320328e+2, -1280403.8, -1388283.5, -5350.499, -0.0009492495, -0.038115796, -1280139.0, 60465.457 
8.853193e+2, 1.7319568e+2, -1191269.8, -1294070.0, -5579.549, 0.0006104879, -0.03660959, -1190967.9, 51710.973 
8.8531435e+2, 1.8318766e+2, -1107911.8, -1212010.5, -6982.156, 0.0007657826, -0.034773532, -1107445.5, 37311.813 
8.853092e+2, 1.931793e+2, -1018314.0, -1117615.3, -7367.3564, -0.0020780805, -0.03613913, -1017770.4, 29069.023 
8.85304e+2, 2.0317048e+2, -935462.25, -1036822.25, -7987.122, -0.0033074287, -0.03633131, -934836.75, 14089.071 
8.852988e+2, 2.1316126e+2, -846566.2, -942932.2, -7652.871, -0.00115039, -0.036539923, -845962.25, 5053.8794 
8.8529354e+2, 2.2315165e+2, -762978.9, -860216.25, -7663.8027, -0.00018442131, -0.03576389, -762378.56, -9268.254 
8.852882e+2, 2.3314175e+2, -673434.2, -765628.94, -8000.4194, -0.001727604, -0.036139727, -672745.1, -17537.787 
8.8528293e+2, 2.431314e+2, -590582.5, -684907.75, -7393.3364, -0.003116741, -0.035761163, -590006.56, -32697.74 
8.852778e+2, 2.5312063e+2, -501232.16, -590715.0, -7015.7466, -0.00411736, -0.036540132, -500685.44, -41271.113 
8.8527286e+2, 2.6310948e+2, -417456.44, -507872.9, -5609.807, -0.004089188, -0.035922382, -417109.72, -55586.063 
8.852681e+2, 2.7309805e+2, -328217.6, -413264.22, -5558.47, -0.0020607435, -0.03590001, -327855.84, -64220.156 
8.852635e+2, 2.830859e+2, -249195.77, -340467.78, -3777.4163, -0.0019529538, -0.03526586, -249039.7, -83285.06 
8.852591e+2, 2.93073e+2, -159406.98, -246553.0, -3593.1685, -0.005764957, -0.036490377, -159259.1, -91378.125 
8.8525504e+2, 3.0306414e+2, -60797.246, -80449.8, -700.3025, -0.0070627886, -0.03592972, -60772.324, -60772.324 
8.8525146e+2, 3.1305987e+2, -68798.38, -80586.96, -84.45767, -0.003031039, -0.035601206, -68797.77, -68797.77 
8.953504e+2, 1.23233676e+2, -1625823.5, -1741943.6, 304.61554, 0.0016988319, -0.028810797, -1625822.8, 106483.79 
8.953456e+2, 1.3322718e+2, -1536354.3, -1646754.1, -5215.804, 0.0012431644, -0.054792255, -1536108.4, 98261.72 
8.953407e+2, 1.43221e+2, -1452691.9, -1563749.6, -5732.781, -0.00020085419, -0.022831105, -1452396.6, 84033.97 
8.953358e+2, 1.5321402e+2, -1363921.3, -1470710.4, -5516.8174, 0.00020119677, -0.03323754, -1363637.0, 74862.1 
8.9533067e+2, 1.6320664e+2, -1280588.5, -1388718.1, -7558.119, -0.00008898502, -0.039525263, -1280062.8, 60508.766 
8.9532524e+2, 1.73199e+2, -1191521.6, -1294668.4, -7796.7793, -0.0009884295, -0.036906686, -1190935.5, 51710.668 
8.953197e+2, 1.8319094e+2, -1108458.3, -1213211.1, -9092.839, -0.0011547749, -0.03414556, -1107674.9, 37050.42 
8.95314e+2, 1.9318248e+2, -1018978.25, -1119010.3, -9435.957, -0.000022660319, -0.035003558, -1018096.0, 28712.213 
8.9530826e+2, 2.0317362e+2, -935048.2, -1035954.44, -10188.148, 0.000004046974, -0.035471804, -934029.8, 14865.136 
8.953023e+2, 2.131645e+2, -845929.44, -941602.4, -9900.92, -0.0020556885, -0.037521303, -844915.56, 6069.0044 
8.952964e+2, 2.231549e+2, -763330.06, -860922.0, -9834.714, -0.0032408035, -0.037120063, -762348.9, -9270.479 
8.952905e+2, 2.3314495e+2, -674030.94, -766832.44, -10128.875, -0.002595111, -0.034860093, -672938.25, -17762.281 
8.9528465e+2, 2.4313459e+2, -590151.7, -683961.9, -9517.861, -0.0021906383, -0.033272844, -589195.75, -31918.182 
8.9527893e+2, 2.531239e+2, -500611.0, -589331.44, -9156.735, -0.002374118, -0.0358589, -499675.8, -40293.496 
8.952734e+2, 2.6311278e+2, -417335.66, -507503.7, -7846.192, -0.0029712692, -0.03666341, -416658.0, -55166.902 
8.952679e+2, 2.731014e+2, -328216.34, -413160.97, -7807.648, -0.004370552, -0.037123516, -327504.66, -63901.59 
8.952627e+2, 2.8308925e+2, -249004.83, -339949.94, -5773.6133, -0.0047717057, -0.03592862, -248639.75, -82917.99 
8.9525783e+2, 2.9307646e+2, -159251.39, -246008.02, -5526.0503, -0.0031205148, -0.034576684, -158900.81, -91053.35 
8.952532e+2, 3.0306762e+2, -60119.21, -78785.68, -3080.5508, -0.0031139287, -0.03391498, -59623.96, -59623.96 
8.952488e+2, 3.1306347e+2, -67960.39, -78671.44, -2585.7239, -0.0064158244, -0.038630728, -67368.85, -67368.85 
9.053597e+2, 1.23237856e+2, -1622223.4, -1741129.3, 2243.5874, 0.0021240904, -0.029303446, -1622181.1, 110084.46 
9.0535426e+2, 1.3323136e+2, -1532469.4, -1645318.3, -2854.186, 0.0006504471, -0.052825764, -1532397.3, 101932.055 
9.053487e+2, 1.4322512e+2, -1449271.9, -1562699.8, -3230.9954, -0.00043969537, -0.02200839, -1449179.9, 87210.56 
9.053431e+2, 1.5321805e+2, -1361555.3, -1470228.9, -3470.0786, 0.0005126801, -0.033529624, -1361444.5, 77015.08 
9.053374e+2, 1.6321062e+2, -1278650.1, -1388197.0, -5720.569, 0.0003935396, -0.040208824, -1278352.3, 62180.324 
9.053314e+2, 1.7320296e+2, -1189307.6, -1293994.0, -5906.088, -0.0011090516, -0.0366528, -1188975.5, 53632.04 
9.053251e+2, 1.8319488e+2, -1106357.4, -1212449.3, -7075.19, -0.0015259231, -0.033491034, -1105887.6, 38799.242 
9.0531886e+2, 1.9318639e+2, -1018032.06, -1118812.3, -6943.8657, 0.00005356505, -0.03502349, -1017555.9, 29214.182 
9.0531236e+2, 2.0317751e+2, -934815.94, -1035911.25, -7607.903, 0.0002948502, -0.035522223, -934246.6, 14610.321 
9.0530586e+2, 2.1316837e+2, -845871.25, -941630.7, -7968.4956, -0.0020918285, -0.036353603, -845212.7, 5733.8027 
9.052993e+2, 2.2315879e+2, -763345.44, -860766.5, -8052.2446, -0.0034768095, -0.035707023, -762684.4, -9644.1 
9.052928e+2, 2.3314884e+2, -674354.56, -766809.2, -7679.714, -0.0027832626, -0.03508917, -673721.0, -18583.158 
9.052863e+2, 2.4313849e+2, -591000.7, -684192.06, -6885.905, -0.0022078522, -0.034198944, -590494.6, -33255.277 
9.0528e+2, 2.531278e+2, -502398.16, -590043.1, -7101.3926, -0.002026316, -0.035583984, -501826.5, -42482.65 
9.0527374e+2, 2.6311675e+2, -419382.78, -508011.22, -6018.848, -0.0026277525, -0.03572978, -418975.9, -57523.594 
9.0526766e+2, 2.7310538e+2, -329771.22, -413384.2, -5720.339, -0.0047763386, -0.03667505, -329381.7, -65817.81 
9.0526175e+2, 2.8309333e+2, -250897.63, -340163.25, -3537.5176, -0.005399677, -0.035967845, -250757.66, -85075.6 
9.052562e+2, 2.9308054e+2, -163441.83, -247319.16, -3161.6443, -0.0028854555, -0.035033733, -163322.81, -95515.65 
9.0525097e+2, 3.0307183e+2, -64996.297, -80325.89, -658.5994, -0.0025840702, -0.034181606, -64968.055, -64968.055 
9.0524596e+2, 3.1306773e+2, -70345.9, -79022.586, -582.4818, -0.00673293, -0.037550304, -70306.97, -70306.97 
9.153691e+2, 1.23242594e+2, -1622281.1, -1741386.4, 43.801342, 0.0018344223, -0.029009568, -1622281.1, 109938.05 
9.1536295e+2, 1.3323613e+2, -1532270.5, -1645007.3, -5101.505, 0.00037287606, -0.0510898, -1532040.1, 102242.41 
9.153568e+2, 1.4322984e+2, -1449885.1, -1564042.1, -5603.5586, -0.000121278696, -0.021345554, -1449610.6, 86733.42 
9.1535056e+2, 1.5322265e+2, -1362320.6, -1471938.5, -5851.9297, 0.0004953038, -0.033475768, -1362009.1, 76405.36 
9.153442e+2, 1.6321513e+2, -1278878.9, -1388797.1, -7878.625, 0.0005014403, -0.04025762, -1278317.0, 62171.21 
9.153375e+2, 1.7320746e+2, -1189502.9, -1294432.3, -8014.0996, 0.00004042664, -0.03591996, -1188894.3, 53669.188 
9.153307e+2, 1.8319936e+2, -1106155.0, -1212013.0, -9407.484, -0.0005892611, -0.032818265, -1105325.5, 39317.313 
9.153237e+2, 1.9319089e+2, -1017735.7, -1118218.0, -9330.468, -0.00164176, -0.036061488, -1016876.7, 29849.154 
9.153166e+2, 2.0318203e+2, -935253.5, -1036846.5, -9912.96, -0.0021284418, -0.036373693, -934295.3, 14517.447 
9.1530937e+2, 2.1317284e+2, -846503.0, -942950.25, -10233.89, -0.0013789186, -0.0332808, -845429.06, 5473.751 
9.1530216e+2, 2.2316325e+2, -762856.9, -859743.4, -10263.127, -0.0012522907, -0.03183057, -761781.6, -8784.845 
9.1529506e+2, 2.3315333e+2, -673661.3, -765318.3, -9898.105, -0.0023848983, -0.036668357, -672604.56, -17510.754 
9.152879e+2, 2.43143e+2, -591252.4, -684631.75, -9250.011, -0.003095022, -0.038175344, -590344.9, -33149.85 
9.152809e+2, 2.531323e+2, -502864.8, -590948.7, -9475.783, -0.0029522218, -0.035668943, -501856.97, -42557.195 
9.1527396e+2, 2.6312128e+2, -419029.03, -507202.3, -8165.2114, -0.003008766, -0.033284716, -418279.28, -56871.14 
9.1526735e+2, 2.7310994e+2, -329300.56, -412247.84, -7823.2153, -0.0034987936, -0.0347144, -328569.16, -65050.184 
9.1526085e+2, 2.8309795e+2, -250418.45, -338980.38, -6013.7334, -0.004092307, -0.035437178, -250011.97, -84375.484 
9.1525453e+2, 2.9308528e+2, -162930.9, -246144.97, -5726.6567, -0.0048719575, -0.037633292, -162538.66, -94777.6 
9.152486e+2, 3.030766e+2, -64857.54, -79924.42, -2610.7932, -0.0052013453, -0.036514774, -64417.965, -64417.965 
9.152431e+2, 3.130726e+2, -70423.31, -78903.016, -2380.0378, -0.004358271, -0.03275178, -69800.97, -69800.97 
9.253787e+2, 1.2324809e+2, -1618205.9, -1740223.5, 2634.279, 0.0013811991, -0.028154772, -1618149.0, 114016.305 
9.253719e+2, 1.3324156e+2, -1529063.0, -1644012.3, -3016.469, 0.0004866567, -0.05129815, -1528984.0, 105245.42 
9.2536503e+2, 1.4323522e+2, -1447174.6, -1563371.9, -3616.7058, 0.0007432269, -0.022615362, -1447062.1, 89229.37 
9.253582e+2, 1.53228e+2, -1358954.9, -1470985.6, -3472.3901, 0.0005444232, -0.032801222, -1358847.4, 79514.94 
9.253511e+2, 1.6322042e+2, -1275538.4, -1387603.0, -5346.6123, 0.00014215129, -0.03871616, -1275283.9, 65152.676 
9.2534375e+2, 1.7321269e+2, -1188044.4, -1294131.3, -5534.3286, 0.00009750991, -0.035745613, -1187756.4, 54755.805 
9.2533624e+2, 1.8320456e+2, -1105628.6, -1211867.6, -7000.1133, -0.00037015814, -0.03323851, -1105169.4, 39422.47 
9.2532855e+2, 1.9319609e+2, -1016746.06, -1117814.9, -7226.8594, -0.0018434637, -0.03549627, -1016231.9, 30442.943 
9.253208e+2, 2.0318723e+2, -934116.3, -1036392.75, -7872.926, -0.0024709948, -0.035532687, -933513.9, 15247.964 
9.25313e+2, 2.1317801e+2, -845864.56, -942775.6, -7674.539, -0.0013091435, -0.033573397, -845260.56, 5591.517 
9.253051e+2, 2.2316842e+2, -762788.1, -859692.9, -7589.1367, -0.00090351765, -0.032471944, -762197.4, -9251.244 
9.252973e+2, 2.3315853e+2, -674597.1, -765752.44, -7907.595, -0.0021042672, -0.036107235, -673916.25, -18873.146 
9.252895e+2, 2.4314821e+2, -592513.4, -684879.94, -7479.9575, -0.0030476856, -0.037101366, -591911.56, -34767.46 
9.252818e+2, 2.5313756e+2, -503710.2, -590947.25, -7051.1455, -0.0034691843, -0.03546652, -503143.94, -43895.37 
9.2527425e+2, 2.6312652e+2, -420218.75, -507335.3, -5440.3584, -0.003579687, -0.03345501, -419880.3, -58523.73 
9.252669e+2, 2.7311528e+2, -332399.3, -413327.78, -5403.279, -0.0030715421, -0.034209494, -332040.16, -68573.14 
9.252597e+2, 2.8310335e+2, -254012.86, -340052.66, -3773.2698, -0.003334987, -0.034590315, -253847.7, -88263.69 
9.2525274e+2, 2.9309067e+2, -164589.53, -246256.25, -3626.4497, -0.0051959828, -0.03717169, -164428.81, -96720.79 
9.252462e+2, 3.0308205e+2, -66506.61, -79956.0, -582.45416, -0.005954466, -0.03633318, -66481.43, -66481.43 
9.2524e+2, 3.1307814e+2, -76162.336, -80925.85, -23.240322, -0.004056771, -0.03260984, -76162.23, -76162.23 
9.353884e+2, 1.2325424e+2, -1618983.0, -1741943.6, 160.04738, 0.00074749533, -0.02685002, -1618982.8, 113122.27 
9.3538094e+2, 1.3324757e+2, -1529760.6, -1645604.9, -5512.5107, 0.0009222383, -0.05318254, -1529498.9, 104671.61 
9.3537337e+2, 1.4324114e+2, -1447284.9, -1563734.3, -5850.178, 0.002038045, -0.02553924, -1446991.6, 89241.77 
9.353659e+2, 1.5323395e+2, -1359013.8, -1471142.4, -5652.169, 0.0006087353, -0.031589076, -1358729.5, 79574.516 
9.353581e+2, 1.6322637e+2, -1275782.1, -1388100.5, -7895.17, -0.0006782407, -0.035798546, -1275229.9, 65148.438 
9.3535006e+2, 1.7321856e+2, -1188286.9, -1294718.6, -8154.058, -0.0008311891, -0.036059532, -1187665.8, 54788.94 
9.3534184e+2, 1.8321039e+2, -1105876.1, -1212491.4, -9310.218, -0.00083580817, -0.034610804, -1105069.3, 39465.57 
9.353335e+2, 1.932019e+2, -1017073.0, -1118519.3, -9461.11, -0.00075289846, -0.033519417, -1016198.2, 30419.8 
9.353251e+2, 2.0319302e+2, -933845.4, -1035806.25, -10238.859, -0.0010281781, -0.033205632, -932827.3, 15877.693 
9.353165e+2, 2.131838e+2, -845474.1, -941945.56, -10077.1045, -0.0018430657, -0.036853686, -844432.75, 6362.535 
9.35308e+2, 2.2317421e+2, -763225.25, -860572.94, -10056.809, -0.0022641318, -0.037111316, -762197.1, -9307.785 
9.352995e+2, 2.331643e+2, -675237.75, -767052.94, -10365.88, -0.0019412743, -0.03363662, -674082.0, -19095.445 
9.35291e+2, 2.43154e+2, -591930.8, -683625.25, -9761.6045, -0.0022024992, -0.031528257, -590903.1, -33815.67 
9.3528265e+2, 2.5314343e+2, -502908.13, -589174.2, -9311.276, -0.0036519137, -0.0350115, -501914.53, -42723.367 
9.352744e+2, 2.6313245e+2, -420135.9, -507030.2, -8000.8066, -0.0043449095, -0.03596233, -419405.38, -58106.76 
9.352663e+2, 2.7312118e+2, -332463.66, -413384.56, -8022.0103, -0.0034393538, -0.035010412, -331676.06, -68267.164 
9.352585e+2, 2.8310928e+2, -253811.17, -339548.25, -5908.179, -0.003112627, -0.033450887, -253405.95, -87880.336 
9.3525094e+2, 2.930967e+2, -164433.75, -245708.92, -5644.21, -0.004069349, -0.033903215, -164043.66, -96394.62 
9.3524367e+2, 3.0308816e+2, -65946.81, -78530.73, -3317.1963, -0.005098217, -0.03382625, -65125.93, -65125.93 
9.3523663e+2, 3.1308424e+2, -75445.97, -79306.5, -2933.2705, -0.005757977, -0.03663824, -73864.83, -73864.83 
9.453983e+2, 1.2326112e+2, -1614927.6, -1740913.6, 2517.1006, 0.0014595555, -0.02708006, -1614877.4, 117160.375 
9.453901e+2, 1.3325436e+2, -1525611.6, -1644527.8, -3005.7998, 0.00077267323, -0.052404936, -1525535.8, 108568.195 
9.453818e+2, 1.4324787e+2, -1443428.6, -1562304.1, -3259.992, 0.0018252385, -0.024267858, -1443339.3, 92828.2 
9.4537365e+2, 1.5324064e+2, -1357041.6, -1470539.3, -3192.1443, 0.00046360365, -0.031564865, -1356952.0, 81286.54 
9.453652e+2, 1.6323301e+2, -1274670.3, -1387970.1, -5492.5815, -0.0007412845, -0.03622557, -1274404.6, 65908.445 
9.453564e+2, 1.732252e+2, -1185852.9, -1293986.4, -5737.1357, -0.0008352578, -0.035416756, -1185549.3, 56840.56 
9.4534755e+2, 1.8321697e+2, -1103059.0, -1211503.5, -6917.322, -0.00073626265, -0.033565212, -1102619.5, 41850.8 
9.453385e+2, 1.9320846e+2, -1015977.4, -1118383.5, -6990.3135, -0.00048366212, -0.033382248, -1015502.44, 31051.457 
9.4532937e+2, 2.0319954e+2, -933700.0, -1035740.8, -7764.2964, -0.00075510563, -0.033478074, -933112.56, 15528.583 
9.453201e+2, 2.1319033e+2, -845408.25, -941865.44, -7943.434, -0.0019567173, -0.036519382, -844758.44, 5972.8657 
9.453109e+2, 2.2318076e+2, -763221.8, -860434.6, -8011.608, -0.0026262715, -0.036446698, -762566.0, -9740.719 
9.453017e+2, 2.3317085e+2, -675426.25, -767019.1, -7667.833, -0.0022951977, -0.033207208, -674788.75, -19866.35 
9.452925e+2, 2.4316058e+2, -592589.1, -683624.6, -6793.789, -0.002318783, -0.031226158, -592084.9, -35061.75 
9.452835e+2, 2.5315002e+2, -504953.75, -589833.7, -6969.567, -0.0031162014, -0.034595486, -504385.28, -45258.715 
9.4527453e+2, 2.6313907e+2, -422620.53, -507798.72, -5980.6025, -0.0037840947, -0.03561336, -422202.66, -60968.98 
9.452657e+2, 2.7312785e+2, -333652.63, -413537.13, -5736.9805, -0.004092889, -0.03508411, -333242.72, -69899.09 
9.452571e+2, 2.8311598e+2, -255045.6, -339460.9, -3448.1265, -0.0040610353, -0.03356867, -254904.97, -89445.09 
9.452489e+2, 2.931035e+2, -168955.84, -247179.92, -3051.766, -0.003449953, -0.03331708, -168836.95, -101254.336 
9.45241e+2, 3.03095e+2, -71447.05, -80367.234, -639.74646, -0.0040860595, -0.032959748, -71401.4, -71401.4 
9.452332e+2, 3.130912e+2, -77281.3, -79392.86, -531.91895, -0.006748898, -0.036363833, -77154.87, -77154.87 
9.5540833e+2, 1.2326861e+2, -1615248.1, -1741687.9, 75.938286, 0.0032826157, -0.028613718, -1615248.0, 116716.26 
9.553994e+2, 1.3326184e+2, -1526013.6, -1645418.6, -5462.2695, 0.000086095315, -0.049316242, -1525764.3, 108266.414 
9.5539045e+2, 1.4325531e+2, -1443755.4, -1563029.3, -5917.4937, 0.00026267685, -0.019369872, -1443462.5, 92632.15 
9.553815e+2, 1.5324797e+2, -1357305.1, -1471225.9, -5889.499, 0.000112419395, -0.032566644, -1357001.5, 81165.2 
9.5537233e+2, 1.6324028e+2, -1274851.6, -1388495.5, -7817.297, -0.00018841588, -0.039540518, -1274316.5, 65925.46 
9.553629e+2, 1.7323247e+2, -1186118.6, -1294558.1, -7970.98, -0.00006551898, -0.033933472, -1185535.9, 56782.707 
9.553533e+2, 1.8322423e+2, -1103255.4, -1211871.4, -9533.73, -0.00020496175, -0.030411778, -1102424.9, 41974.313 
9.553435e+2, 1.9321564e+2, -1016122.1, -1118723.3, -9681.923, -0.0009611022, -0.034859832, -1015216.5, 31266.979 
9.5533365e+2, 2.0320667e+2, -933920.6, -1036258.25, -10216.603, -0.0015547153, -0.03602144, -932910.6, 15660.527 
9.5532376e+2, 2.1319751e+2, -845718.44, -942491.06, -10333.992, -0.001724562, -0.03299188, -844627.2, 6034.0005 
9.5531386e+2, 2.2318794e+2, -762725.1, -859342.44, -10490.344, -0.0021547482, -0.031098502, -761599.25, -8844.35 
9.5530385e+2, 2.3317806e+2, -674760.7, -765581.6, -10179.382, -0.0031228496, -0.034606423, -673633.75, -18782.082 
9.5529395e+2, 2.431678e+2, -592792.44, -683990.25, -9410.34, -0.0033105225, -0.035613835, -591831.56, -34879.367 
9.552842e+2, 2.5315723e+2, -505364.97, -590645.7, -9593.837, -0.0019581844, -0.034205977, -504299.0, -45243.297 
9.552745e+2, 2.6314634e+2, -422290.75, -507052.4, -8291.448, -0.0020615514, -0.03270051, -421487.28, -60324.563 
9.55265e+2, 2.7313516e+2, -333235.9, -412511.6, -7981.384, -0.005047974, -0.034492582, -332440.34, -69168.164 
9.552558e+2, 2.8312334e+2, -254580.52, -338302.34, -6243.74, -0.006119751, -0.03480004, -254117.44, -88729.63 
9.552467e+2, 2.931109e+2, -168439.47, -246007.4, -5976.4976, -0.0033287655, -0.035140883, -167981.69, -100471.87 
9.5523804e+2, 3.0310252e+2, -71186.12, -79735.984, -2741.357, -0.0029839736, -0.03356666, -70382.66, -70382.66 
9.5522976e+2, 3.130988e+2, -77214.67, -78994.86, -2433.0933, -0.0072046635, -0.03216786, -75513.97, -75513.97 
9.654185e+2, 1.2327692e+2, -1610811.6, -1739971.3, 2667.1191, 0.003012932, -0.028144104, -1610756.6, 121126.3 
9.6540886e+2, 1.332701e+2, -1523018.6, -1644623.6, -2879.1084, -0.000051413997, -0.04955401, -1522950.5, 110999.36 
9.6539915e+2, 1.432635e+2, -1441287.6, -1562592.8, -3283.7498, 0.00045431932, -0.01842003, -1441198.9, 94815.555 
9.6538955e+2, 1.5325607e+2, -1353738.9, -1470289.6, -3382.0437, 0.0003797558, -0.032148734, -1353640.8, 84446.36 
9.653796e+2, 1.6324833e+2, -1271058.6, -1387017.1, -5426.122, 0.000061449005, -0.03953144, -1270805.3, 69357.69 
9.6536946e+2, 1.732405e+2, -1184634.6, -1294139.9, -5506.86, -0.000030574014, -0.034054738, -1184358.4, 57881.547 
9.6535915e+2, 1.8323223e+2, -1102883.6, -1211875.5, -6961.794, -0.0003089905, -0.030423785, -1102440.8, 41880.11 
9.6534866e+2, 1.9322363e+2, -1014631.1, -1118186.4, -7051.132, -0.00109676, -0.034326177, -1014153.2, 32251.963 
9.65338e+2, 2.0321468e+2, -932169.4, -1035544.6, -7581.3726, -0.0016414275, -0.035210773, -931616.3, 16876.629 
9.653273e+2, 2.1320547e+2, -845583.4, -942584.3, -7526.1895, -0.0016628893, -0.032415215, -845002.94, 5580.2334 
9.6531665e+2, 2.2319591e+2, -763463.44, -859478.44, -7627.669, -0.0019898787, -0.030785283, -762861.25, -10184.338 
9.65306e+2, 2.3318605e+2, -675559.5, -765693.9, -7801.3096, -0.0029695062, -0.03458719, -674889.25, -20115.816 
9.652954e+2, 2.431758e+2, -593602.9, -684189.44, -7283.758, -0.0033201424, -0.03568818, -593020.94, -36147.207 
9.652848e+2, 2.5316527e+2, -505953.78, -590792.0, -7031.957, -0.0024568187, -0.033969056, -505374.88, -46397.742 
9.6527445e+2, 2.6315436e+2, -423256.34, -507034.53, -5466.464, -0.0025272493, -0.032166243, -422901.16, -61817.277 
9.6526426e+2, 2.7314326e+2, -336442.34, -413532.13, -5328.4844, -0.004447823, -0.03373839, -336075.78, -72882.9 
9.6525425e+2, 2.831315e+2, -258440.25, -339461.75, -3770.9097, -0.005369745, -0.034120526, -258265.13, -92957.15 
9.652445e+2, 2.931191e+2, -170000.16, -246050.89, -3644.1504, -0.0042834305, -0.03509484, -169825.94, -102396.516 
9.65235e+2, 3.0311078e+2, -72660.64, -79778.664, -404.13937, -0.004274482, -0.03374018, -72637.766, -72637.766 
9.65226e+2, 3.131071e+2, -83124.766, -81222.836, 67.24256, -0.006010439, -0.031661607, -81220.46, -81220.46 
9.754289e+2, 1.23285934e+2, -1610956.5, -1740342.5, -95.51375, 0.00090599374, -0.026005866, -1610956.5, 120838.13 
9.7541845e+2, 1.33279e+2, -1523326.6, -1645418.1, -5681.524, 0.00026682348, -0.05262208, -1523062.8, 110799.8 
9.75408e+2, 1.4327236e+2, -1441783.1, -1563772.9, -5747.342, 0.0021107534, -0.020827867, -1441513.0, 94414.68 
9.7539765e+2, 1.5326488e+2, -1354363.1, -1471611.4, -5750.0654, 0.0011331096, -0.030484995, -1354081.8, 83919.19 
9.7538704e+2, 1.6325708e+2, -1271261.5, -1387419.9, -8198.159, -0.000012919969, -0.036643513, -1270685.8, 69391.59 
9.75376e+2, 1.7324917e+2, -1184702.8, -1294362.0, -8363.177, -0.00066781166, -0.035562728, -1184068.6, 58086.22 
9.753649e+2, 1.8324089e+2, -1102887.1, -1211981.8, -9420.841, -0.0010221611, -0.03316907, -1102079.6, 42156.35 
9.753538e+2, 1.9323233e+2, -1014718.6, -1118348.3, -9419.875, -0.0009548089, -0.032027975, -1013869.3, 32450.701 
9.753424e+2, 2.0322338e+2, -932147.0, -1035428.94, -10334.187, -0.001156437, -0.031468686, -931123.2, 17284.512 
9.7533095e+2, 2.1321413e+2, -845499.4, -942424.44, -10358.408, -0.0017830414, -0.03445126, -844404.7, 6093.5796 
9.753195e+2, 2.2320454e+2, -763650.8, -859906.8, -10199.625, -0.0021383178, -0.034909938, -762581.9, -9989.595 
9.753081e+2, 2.3319471e+2, -675872.9, -766316.8, -10310.896, -0.00195935, -0.033300072, -674712.25, -20023.54 
9.7529674e+2, 2.4318448e+2, -593271.6, -683422.3, -9820.509, -0.0025018882, -0.03193108, -592214.25, -35425.406 
9.752855e+2, 2.5317398e+2, -505515.3, -589768.8, -9577.821, -0.0044800565, -0.033875857, -504440.25, -45548.363 
9.752743e+2, 2.6316312e+2, -423085.44, -506559.9, -8268.065, -0.004976737, -0.033752516, -422274.38, -61276.168 
9.7526336e+2, 2.7315205e+2, -336326.22, -413215.56, -8183.623, -0.0024726891, -0.032817, -335464.88, -72358.11 
9.752526e+2, 2.8314036e+2, -258176.48, -338831.8, -6158.1167, -0.002137205, -0.031701483, -257709.0, -92487.586 
9.7524214e+2, 2.9312798e+2, -169792.73, -245433.72, -5921.6567, -0.0062903515, -0.03332747, -169331.97, -101989.49 
9.7523195e+2, 3.0311972e+2, -72286.01, -78776.12, -3340.6416, -0.007829898, -0.033469655, -70873.78, -70873.78 
9.752221e+2, 3.1311604e+2, -82689.76, -80159.195, -3017.3323, -0.0034080588, -0.03442407, -78152.59, -78152.59 
9.854394e+2, 1.23295784e+2, -1607084.1, -1739066.6, 2737.7495, 0.0011597993, -0.024577722, -1607027.3, 124670.83 
9.854282e+2, 1.3328871e+2, -1519135.0, -1644561.4, -3185.8218, 0.00037406542, -0.054068, -1519054.1, 114713.266 
9.85417e+2, 1.4328201e+2, -1437466.5, -1562202.0, -3352.015, 0.002122588, -0.020785404, -1437376.5, 98456.68 
9.8540586e+2, 1.5327449e+2, -1352133.0, -1470937.9, -3003.4453, 0.0011557372, -0.029876055, -1352057.1, 85849.61 
9.853945e+2, 1.6326666e+2, -1270054.6, -1387280.4, -5268.071, 0.000022567674, -0.03575956, -1269818.4, 70165.1 
9.8538274e+2, 1.732587e+2, -1182265.3, -1293664.0, -5601.105, -0.0006534548, -0.03497157, -1181984.4, 60077.15 
9.8537093e+2, 1.832504e+2, -1100181.6, -1210869.9, -6812.0596, -0.0010375507, -0.03281612, -1099764.0, 44378.89 
9.853589e+2, 1.932418e+2, -1014238.1, -1118291.4, -6852.234, -0.0010555158, -0.03173384, -1013788.8, 32438.283 
9.853468e+2, 2.0323285e+2, -932559.8, -1035545.44, -7747.5273, -0.0012641195, -0.031231964, -931980.25, 16334.561 
9.853346e+2, 2.1322362e+2, -844610.0, -941884.44, -7769.0, -0.0017908358, -0.03432552, -843993.44, 6411.9063 
9.853224e+2, 2.2321402e+2, -762522.7, -859483.2, -7630.3647, -0.0020864317, -0.034716006, -761925.9, -9426.549 
9.853102e+2, 2.3320416e+2, -676253.0, -766710.5, -7598.3145, -0.0019626666, -0.032617737, -675619.2, -21023.26 
9.852981e+2, 2.4319395e+2, -594494.9, -683547.3, -6997.548, -0.0024803781, -0.031078044, -593948.4, -37252.355 
9.85286e+2, 2.5318348e+2, -507496.53, -590145.1, -6879.942, -0.004305797, -0.033534706, -506927.75, -48129.164 
9.8527414e+2, 2.631727e+2, -425353.3, -507193.44, -5677.9976, -0.0049116183, -0.03372831, -424961.25, -64056.813 
9.852624e+2, 2.7316165e+2, -337670.56, -413466.38, -5522.968, -0.0030049453, -0.032660108, -337270.25, -74257.59 
9.8525083e+2, 2.8315e+2, -259565.78, -338865.94, -3350.7783, -0.0026769186, -0.031368155, -259424.45, -94297.586 
9.852396e+2, 2.931377e+2, -173712.2, -246672.47, -3019.2573, -0.0057032336, -0.03276326, -173587.48, -106340.15 
9.8522866e+2, 3.031295e+2, -77100.914, -80198.164, -507.77246, -0.0070155375, -0.03293046, -77019.79, -77019.79 
9.85218e+2, 3.131259e+2, -85493.24, -80589.96, -182.29007, -0.0042110537, -0.034364592, -80583.195, -80583.195 
9.954501e+2, 1.2330635e+2, -1607532.0, -1740169.8, 139.55972, 0.0033291904, -0.023802778, -1607531.9, 124062.69 
9.954381e+2, 1.3329913e+2, -1520158.9, -1646719.9, -5769.391, 0.00026130132, -0.054102648, -1519896.4, 113768.984 
9.9542606e+2, 1.4329235e+2, -1437583.4, -1562439.0, -6235.733, 0.000685507, -0.018623931, -1437272.8, 98459.03 
9.954142e+2, 1.5328482e+2, -1352005.5, -1470775.4, -5953.845, 0.00052663806, -0.030158717, -1351707.8, 86097.83 
9.95402e+2, 1.6327697e+2, -1270339.6, -1387992.3, -7858.3535, 0.00010968198, -0.036577612, -1269817.1, 70065.34 
9.953895e+2, 1.7326899e+2, -1182727.5, -1294635.5, -8097.152, -0.00010982454, -0.032554194, -1182144.6, 59816.207 
9.953769e+2, 1.8326063e+2, -1100379.6, -1211255.6, -9694.656, -0.00051289826, -0.02977509, -1099538.4, 44504.36 
9.9536407e+2, 1.9325197e+2, -1014341.44, -1118571.0, -9812.868, -0.001395093, -0.033181872, -1013425.6, 32701.854 
9.953512e+2, 2.03243e+2, -932469.3, -1035435.56, -10293.042, -0.0019400258, -0.0340308, -931450.44, 16765.0 
9.9533826e+2, 2.1323381e+2, -844576.3, -941769.94, -10231.329, -0.0017292909, -0.03229031, -843510.94, 6794.5225 
9.953253e+2, 2.2322424e+2, -762547.6, -859428.8, -10458.614, -0.0019134348, -0.030722586, -761431.5, -9032.28 
9.9531233e+2, 2.3321435e+2, -676268.06, -766695.06, -10493.802, -0.0028813935, -0.032477636, -675066.25, -20570.129 
9.952994e+2, 2.4320415e+2, -594292.7, -683109.2, -9770.685, -0.0031887272, -0.03279315, -593230.5, -36634.273 
9.952866e+2, 2.5319374e+2, -507289.0, -589668.3, -9634.527, -0.0021883126, -0.0329619, -506177.22, -47478.94 
9.952739e+2, 2.63183e+2, -425072.22, -506528.94, -8296.005, -0.0026298177, -0.032257225, -424235.88, -63432.207 
9.952614e+2, 2.7317196e+2, -337426.13, -412826.13, -8107.924, -0.005854982, -0.033187322, -336564.13, -73652.52 
9.9524903e+2, 2.8316033e+2, -259186.56, -337919.75, -6247.5806, -0.0066862926, -0.032899734, -258693.89, -93668.555 
9.95237e+2, 2.9314813e+2, -173313.73, -245708.08, -5987.7363, -0.0027948306, -0.033255894, -172821.83, -105676.76 
9.952253e+2, 3.0314e+2, -76580.39, -78980.695, -3130.926, -0.00228559, -0.032115962, -74427.48, -74427.48 
9.952138e+2, 3.1313658e+2, -85008.8, -79382.23, -2730.8474, -0.008274661, -0.03169846, -78274.79, -78274.79 
1.0054609e+3, 1.23317756e+2, -1601914.9, -1737638.3, 2770.767, 0.00351693, -0.023821896, -1601858.3, 129624.59 
1.0054482e+3, 1.3331044e+2, -1517389.5, -1646555.3, -2880.9136, 0.0005395098, -0.054137703, -1517325.3, 116229.36 
1.00543536e+3, 1.433036e+2, -1435481.4, -1561996.8, -3177.6548, 0.0006726773, -0.015820267, -1435401.6, 100220.03 
1.0054226e+3, 1.5329601e+2, -1348724.5, -1469655.5, -3212.1394, 0.00031153628, -0.029883197, -1348639.3, 89056.78 
1.0054096e+3, 1.632881e+2, -1266870.6, -1386646.0, -5268.629, -0.00011460093, -0.03753814, -1266639.4, 73134.05 
1.0053964e+3, 1.7328009e+2, -1181157.5, -1294215.5, -5274.191, -0.000015057864, -0.03217192, -1180912.0, 60939.965 
1.0053829e+3, 1.832717e+2, -1099594.3, -1211113.6, -6730.999, -0.0002219118, -0.028739065, -1099189.4, 44744.637 
1.00536935e+3, 1.9326302e+2, -1012372.5, -1117863.0, -6861.0757, -0.0012073403, -0.03289058, -1011928.1, 34090.996 
1.00535564e+3, 2.0325403e+2, -930487.8, -1034683.3, -7429.8745, -0.0018604673, -0.034093723, -929960.6, 18146.66 
1.0053419e+3, 2.1324483e+2, -844990.7, -942203.4, -7569.0625, -0.0018073592, -0.031844538, -844404.9, 5792.604 
1.0053282e+3, 2.2323528e+2, -763822.5, -859607.8, -7786.708, -0.0020710812, -0.030065034, -763193.6, -10902.466 
1.0053144e+3, 2.3322542e+2, -676563.56, -766291.06, -7500.702, -0.0030023567, -0.032291736, -675940.9, -21553.184 
1.00530066e+3, 2.4321523e+2, -594468.56, -683101.8, -6720.7495, -0.0032833442, -0.032751717, -593961.9, -37474.387 
1.005287e+3, 2.5320482e+2, -508226.8, -590164.1, -6849.1055, -0.0022996445, -0.032313075, -507658.25, -49068.74 
1.00527346e+3, 2.6319408e+2, -426533.94, -506684.44, -5578.7734, -0.0026338077, -0.03139763, -426147.5, -65452.76 
1.0052602e+3, 2.7318314e+2, -340100.3, -413474.4, -5304.461, -0.00554954, -0.03295422, -339718.8, -76916.664 
1.00524716e+3, 2.8317156e+2, -262430.25, -338705.0, -3492.5186, -0.0064477636, -0.032955084, -262270.66, -97355.37 
1.0052343e+3, 2.9315946e+2, -176013.9, -246239.11, -3256.6763, -0.0033095488, -0.032921165, -175863.2, -108828.86 
1.0052217e+3, 3.031514e+2, -79405.62, -79613.06, -347.5456, -0.0029116105, -0.03148995, -79146.65, -79146.65 
1.00520946e+3, 3.13148e+2, -89313.445, -80772.86, -106.31329, -0.007910554, -0.030952014, -80771.54, -80771.54 
1.015472e+3, 1.2332988e+2, -1601689.8, -1737173.5, -344.90704, 0.0019739263, -0.024521653, -1601688.9, 129675.23 
1.0154584e+3, 1.333225e+2, -1517820.1, -1647557.1, -6052.4834, 0.0011287429, -0.05416279, -1517538.4, 115898.03 
1.0154446e+3, 1.4331563e+2, -1435977.3, -1563164.5, -5898.6934, 0.001814553, -0.012480482, -1435704.3, 99799.44 
1.0154311e+3, 1.5330793e+2, -1349312.3, -1470921.9, -5825.691, 0.00039442544, -0.029122418, -1349033.9, 88545.48 
1.01541735e+3, 1.6329996e+2, -1266949.1, -1386821.3, -8204.596, -0.00066253473, -0.038593713, -1266390.3, 73267.195 
1.0154033e+3, 1.7329194e+2, -1181112.9, -1294195.6, -8277.935, -0.000337745, -0.033520482, -1180510.1, 61225.836 
1.01538904e+3, 1.8328355e+2, -1099674.0, -1211349.3, -9428.26, -0.00019784692, -0.029407347, -1098883.6, 44934.47 
1.01537466e+3, 1.9327487e+2, -1012558.1, -1118222.0, -9489.956, -0.00059114007, -0.031079074, -1011712.56, 34190.598 
1.0153601e+3, 2.0326586e+2, -930808.0, -1035287.2, -10446.693, -0.0011815643, -0.031771388, -929773.75, 18217.873 
1.0153456e+3, 2.1325657e+2, -845300.1, -942874.94, -10654.482, -0.002041381, -0.032792907, -844150.25, 5932.3022 
1.015331e+3, 2.2324699e+2, -763306.75, -858590.75, -10489.839, -0.0025680573, -0.032323305, -762165.56, -9989.24 
1.0153164e+3, 2.3323725e+2, -675962.8, -764991.7, -10144.806, -0.002438048, -0.032050107, -674821.44, -20549.717 
1.0153019e+3, 2.4322714e+2, -594622.06, -683305.5, -9619.145, -0.0028891407, -0.031140432, -593590.75, -37219.82 
1.0152874e+3, 2.5321668e+2, -508538.6, -590728.9, -9782.622, -0.0044520833, -0.03158888, -507390.28, -48916.855 
1.015273e+3, 2.6320595e+2, -426214.13, -505954.2, -8487.388, -0.004714355, -0.031072896, -425320.75, -64742.055 
1.01525895e+3, 2.7319503e+2, -339685.16, -412521.25, -8217.155, -0.002420437, -0.032019284, -338769.63, -76084.2 
1.015245e+3, 2.8318357e+2, -261999.25, -337695.8, -6320.2407, -0.002431295, -0.03165933, -261475.17, -96677.31 
1.0152313e+3, 2.931715e+2, -175614.34, -245273.75, -6065.9683, -0.00703135, -0.031816915, -175090.06, -108173.83 
1.015218e+3, 3.0316347e+2, -79177.58, -78984.78, -3252.8074, -0.008497044, -0.031005811, -75826.945, -75826.945 
1.015205e+3, 3.1316012e+2, -89170.15, -80283.36, -3029.629, -0.0035338306, -0.03192982, -79348.805, -79348.805 
1.02548316e+3, 1.2334298e+2, -1598121.6, -1735239.0, 2867.8538, 0.0017971329, -0.022607705, -1598061.8, 133174.02 
1.0254686e+3, 1.3333549e+2, -1514151.9, -1647050.6, -3143.9468, 0.0013449473, -0.055418685, -1514077.5, 119231.76 
1.0254541e+3, 1.4332852e+2, -1431812.3, -1561872.6, -2980.7112, 0.0018250379, -0.012161335, -1431744.0, 103633.46 
1.0254398e+3, 1.5332076e+2, -1346656.9, -1470289.3, -2698.5144, 0.0007564115, -0.028216, -1346598.0, 90855.58 
1.0254252e+3, 1.6331275e+2, -1264969.3, -1386238.4, -5092.6187, -0.00026228468, -0.037586544, -1264755.8, 74776.32 
1.0254103e+3, 1.7330468e+2, -1178610.0, -1293338.3, -5387.827, -0.0004966006, -0.033347994, -1178357.5, 63253.594 
1.02539524e+3, 1.8329628e+2, -1097368.3, -1210455.3, -6644.5103, -0.0005760334, -0.02952477, -1096979.3, 46714.273 
1.02538e+3, 1.9328758e+2, -1012082.4, -1118220.4, -6681.4487, -0.0005959672, -0.030388907, -1011663.44, 34115.316 
1.0253648e+3, 2.0327856e+2, -930908.9, -1035279.9, -7506.898, -0.000981565, -0.030714078, -930371.7, 17495.514 
1.0253493e+3, 2.1326926e+2, -844076.1, -942200.75, -7356.2817, -0.002028338, -0.03224314, -843527.75, 6430.4526 
1.02533385e+3, 2.2325969e+2, -762035.94, -858031.06, -7221.5674, -0.0026386105, -0.032091357, -761495.7, -9443.748 
1.02531835e+3, 2.3324993e+2, -676925.6, -765573.7, -7556.366, -0.0024001186, -0.03170918, -676286.1, -22138.629 
1.0253031e+3, 2.4323983e+2, -596492.8, -683701.25, -7190.454, -0.0028015657, -0.030765258, -595903.94, -39657.395 
1.0252877e+3, 2.5322944e+2, -509835.47, -590754.7, -6729.6294, -0.0044891667, -0.03135925, -509279.6, -50931.08 
1.0252726e+3, 2.6321876e+2, -427470.88, -506129.2, -5222.8057, -0.0048478786, -0.030795781, -427125.63, -66672.28 
1.0252577e+3, 2.7320787e+2, -341640.47, -413105.84, -5212.1924, -0.0025836914, -0.031285454, -341262.34, -78702.62 
1.02524295e+3, 2.8319645e+2, -264347.6, -338125.7, -3367.917, -0.0024937366, -0.030792722, -264194.2, -99522.48 
1.0252284e+3, 2.9318443e+2, -178427.16, -245887.83, -3115.7612, -0.006798014, -0.03146129, -178283.56, -111494.07 
1.0252141e+3, 3.0317652e+2, -82534.61, -79812.89, -380.66586, -0.008319628, -0.030959181, -79760.66, -79760.66 
1.0252003e+3, 3.1317317e+2, -93350.05, -81528.56, 16.336107, -0.00408115, -0.031812724, -81528.54, -81528.54 
1.0354945e+3, 1.2335693e+2, -1598001.3, -1735131.1, -4.248201, 0.0026518435, -0.018598543, -1598001.3, 133097.92 
1.03547916e+3, 1.3334922e+2, -1515186.0, -1649254.8, -6021.789, 0.0012128465, -0.057695884, -1514916.1, 118258.555 
1.0354637e+3, 1.4334217e+2, -1432155.1, -1562613.9, -5995.9614, 0.0008449606, -0.014342879, -1431880.1, 103363.74 
1.0354486e+3, 1.5333438e+2, -1346863.6, -1470778.6, -5734.5063, 0.0013192327, -0.027168976, -1346598.8, 90721.26 
1.0354331e+3, 1.6332634e+2, -1265310.5, -1387001.5, -7973.0073, 0.0008857293, -0.03482332, -1264790.3, 74608.586 
1.0354174e+3, 1.733182e+2, -1179027.6, -1294213.9, -8229.486, -0.0005599168, -0.03186813, -1178442.6, 63035.89 
1.0354015e+3, 1.8330975e+2, -1097524.5, -1210780.0, -9707.0205, -0.001371724, -0.029151898, -1096698.5, 46862.94 
1.03538536e+3, 1.9330102e+2, -1012170.56, -1118461.5, -9784.67, -0.0011628047, -0.03065558, -1011277.4, 34369.613 
1.03536926e+3, 2.0329201e+2, -930562.0, -1034615.94, -10295.155, -0.001248607, -0.03072247, -929553.2, 18182.178 
1.035353e+3, 2.132828e+2, -843727.56, -941428.06, -10094.081, -0.0018323446, -0.030364284, -842695.6, 7130.0137 
1.0353367e+3, 2.2327323e+2, -762588.1, -859082.7, -10373.064, -0.0023965235, -0.029660935, -761485.6, -9566.3 
1.03532046e+3, 2.3326337e+2, -677624.8, -767019.25, -10767.865, -0.0028523235, -0.031275112, -676346.06, -22330.063 
1.0353042e+3, 2.4325323e+2, -595797.7, -682281.8, -10024.375, -0.0030149298, -0.031472754, -594650.94, -38535.605 
1.03528805e+3, 2.5324297e+2, -508936.34, -588813.44, -9509.47, -0.002657987, -0.031561915, -507819.84, -49603.86 
1.0352721e+3, 2.6323235e+2, -427361.78, -505774.38, -8269.064, -0.0032853473, -0.030550541, -426499.25, -66179.414 
1.0352562e+3, 2.732215e+2, -341695.56, -413126.72, -8304.781, -0.0057823677, -0.030718904, -340742.72, -78316.52 
1.0352406e+3, 2.832101e+2, -264013.56, -337342.88, -6322.9565, -0.0062975427, -0.030296724, -263472.34, -98934.36 
1.0352253e+3, 2.9319814e+2, -178072.08, -245003.77, -6043.742, -0.0029840635, -0.031769875, -177530.72, -110875.48 
1.0352102e+3, 3.031903e+2, -81987.71, -78506.6, -3474.7986, -0.0029428957, -0.03129005, -76360.8, -76360.8 
1.03519544e+3, 3.1318706e+2, -92767.664, -80161.23, -3129.2798, -0.009312122, -0.030647548, -79427.195, -79427.195 
1.045506e+3, 1.23371765e+2, -1592577.8, -1732319.9, 3026.0627, 0.0029044014, -0.018526863, -1592512.3, 138441.48 
1.04548976e+3, 1.333639e+2, -1512258.4, -1649686.6, -3086.2358, 0.0017308207, -0.057781145, -1512189.1, 120841.664 
1.0454735e+3, 1.4335674e+2, -1429145.8, -1561654.0, -3090.8108, 0.00063364184, -0.013549834, -1429073.6, 106027.414 
1.0454574e+3, 1.5334892e+2, -1343726.3, -1469522.0, -2765.8533, 0.0010951383, -0.026855448, -1343665.5, 93512.055 
1.0454412e+3, 1.6334085e+2, -1262657.9, -1386200.8, -4903.005, 0.0008170293, -0.034600727, -1262463.6, 76793.1 
1.0454246e+3, 1.7333268e+2, -1177416.6, -1293998.8, -5089.9536, -0.00023227936, -0.031062653, -1177194.9, 64142.016 
1.0454077e+3, 1.8332417e+2, -1096115.5, -1210251.6, -6540.0645, -0.0009821634, -0.028256271, -1095742.0, 47678.082 
1.04539074e+3, 1.9331543e+2, -1010192.9, -1117605.3, -6569.5767, -0.0013667009, -0.030546349, -1009792.56, 35713.242 
1.04537375e+3, 2.033064e+2, -928897.2, -1033860.44, -7176.6763, -0.0016563812, -0.030926801, -928408.75, 19185.531 
1.0453567e+3, 2.1329719e+2, -844124.2, -941695.75, -7378.475, -0.0017523997, -0.029974252, -843569.4, 6115.1836 
1.0453396e+3, 2.2328763e+2, -763679.4, -859417.44, -7639.9644, -0.0020780226, -0.028897658, -763073.56, -11295.342 
1.0453224e+3, 2.3327778e+2, -677276.5, -766638.44, -7243.2534, -0.0028327433, -0.030546257, -676693.2, -22818.467 
1.0453053e+3, 2.4326767e+2, -595214.4, -681752.06, -6300.7656, -0.0031272531, -0.030827072, -594758.0, -38784.133 
1.0452883e+3, 2.5325742e+2, -510568.16, -589381.2, -6566.171, -0.0025833698, -0.031119166, -510024.84, -51950.473 
1.04527146e+3, 2.6324686e+2, -430026.38, -506517.66, -5631.3, -0.00320026, -0.030275969, -429614.0, -69436.086 
1.0452548e+3, 2.7323607e+2, -343625.53, -413485.7, -5313.1836, -0.0060864147, -0.030497637, -343223.75, -80939.95 
1.0452383e+3, 2.832247e+2, -265820.97, -337424.16, -3206.6133, -0.0067019686, -0.029988904, -265677.66, -101282.63 
1.04522206e+3, 2.932128e+2, -181388.19, -245802.89, -2898.8203, -0.0028706142, -0.03109999, -181257.98, -114746.445 
1.0452062e+3, 3.03205e+2, -86045.59, -79789.63, -260.6406, -0.0026463512, -0.03043413, -79778.8, -79778.8 
1.0451904e+3, 3.1320187e+2, -95802.234, -81013.02, -198.7997, -0.009620136, -0.02995305, -81010.35, -81010.35 
1.0555176e+3, 1.23387374e+2, -1592415.8, -1731995.4, -142.21896, 0.002587015, -0.021601167, -1592415.6, 138385.14 
1.0555005e+3, 1.333794e+2, -1513496.0, -1652286.1, -6251.2183, 0.0027593784, -0.05603556, -1513215.1, 119663.93 
1.0554834e+3, 1.4337212e+2, -1429388.8, -1562223.3, -6118.3394, 0.000999935, -0.010296312, -1429107.5, 105842.78 
1.05546646e+3, 1.5336426e+2, -1343802.5, -1469739.9, -5781.4824, 0.00015770532, -0.0271695, -1343537.6, 93489.75 
1.05544925e+3, 1.6335616e+2, -1262878.6, -1386707.1, -7997.261, -0.00032987652, -0.03649724, -1262364.3, 76742.58 
1.05543174e+3, 1.7334795e+2, -1177687.1, -1294615.5, -8188.0674, 0.00039019895, -0.030807527, -1177116.6, 64070.676 
1.0554141e+3, 1.8333943e+2, -1096138.9, -1210339.4, -9511.635, 0.00033794576, -0.026898077, -1095352.1, 47918.594 
1.0553963e+3, 1.9333068e+2, -1010223.7, -1117651.3, -9521.976, -0.0012930263, -0.030108513, -1009386.2, 35970.25 
1.0553784e+3, 2.033216e+2, -929253.7, -1034561.06, -10397.912, -0.002246346, -0.03128255, -928236.9, 19208.367 
1.05536036e+3, 2.1331233e+2, -844527.5, -942556.94, -10640.686, -0.0018124101, -0.030869909, -843385.75, 6150.3965 
1.0553424e+3, 2.233028e+2, -762993.4, -858029.06, -10527.338, -0.0017462526, -0.02957166, -761841.2, -10211.443 
1.0553244e+3, 2.3329307e+2, -676456.56, -764869.1, -10077.094, -0.0024235898, -0.029537255, -675322.56, -21597.604 
1.0553064e+3, 2.4328302e+2, -595601.0, -682439.75, -9595.332, -0.0032127227, -0.028962549, -594553.44, -38729.934 
1.0552885e+3, 2.5327268e+2, -511169.84, -590594.1, -9933.26, -0.004122967, -0.0300955, -509946.38, -52021.523 
1.0552707e+3, 2.632621e+2, -429550.38, -505516.75, -8581.227, -0.004468478, -0.029967485, -428593.1, -68564.414 
1.05525315e+3, 2.7325138e+2, -343009.7, -412102.47, -8187.9736, -0.0037908116, -0.03057974, -342052.6, -79918.92 
1.05523586e+3, 2.832401e+2, -265316.56, -336229.8, -6463.1763, -0.0040756823, -0.02984472, -264732.28, -100488.34 
1.05521865e+3, 2.932283e+2, -180898.8, -244683.9, -6240.8115, -0.006221865, -0.029531775, -180293.92, -113934.33 
1.0552018e+3, 3.0322057e+2, -85902.51, -79390.086, -3190.824, -0.0070571676, -0.028481087, -78087.32, -78087.32 
1.0551854e+3, 3.1321743e+2, -95825.81, -80857.945, -3041.421, -0.0054317997, -0.02970236, -80263.54, -80263.54 
1.0655294e+3, 1.2340398e+2, -1588014.5, -1729128.6, 3035.2996, 0.0027212456, -0.022009391, -1587949.3, 142688.84 
1.0655113e+3, 1.3339591e+2, -1510497.1, -1652430.4, -2839.1387, 0.0030292047, -0.05378761, -1510440.4, 122276.9 
1.0654933e+3, 1.4338851e+2, -1425981.6, -1561369.3, -2599.5674, 0.00030836655, -0.00957581, -1425931.6, 108858.195 
1.0654756e+3, 1.5338057e+2, -1340811.3, -1468965.1, -2545.7183, 0.0002722386, -0.026843362, -1340760.6, 96106.86 
1.0654574e+3, 1.6337243e+2, -1260050.9, -1385599.4, -4942.581, 0.00012524534, -0.036320217, -1259856.6, 79090.88 
1.06543906e+3, 1.7336419e+2, -1175111.1, -1293586.9, -4991.3555, 0.00026009034, -0.030459657, -1174901.3, 66126.84 
1.0654205e+3, 1.8335566e+2, -1094198.9, -1209671.9, -6259.0117, 0.000042222528, -0.026364537, -1093860.6, 49251.105 
1.0654019e+3, 1.9334687e+2, -1009537.56, -1117641.6, -6438.0024, -0.0010133676, -0.029315405, -1009155.5, 36042.246 
1.065383e+3, 2.033378e+2, -928920.3, -1034441.3, -7316.1323, -0.0017673989, -0.030462366, -928415.5, 18871.238 
1.0653641e+3, 2.1332851e+2, -843409.56, -942036.25, -7181.349, -0.0018824905, -0.0304628, -842889.4, 6488.361 
1.0653452e+3, 2.2331896e+2, -761960.2, -857312.3, -7028.724, -0.0020748433, -0.029397847, -761444.9, -9973.562 
1.06532626e+3, 2.3330927e+2, -677580.8, -765185.3, -7256.6143, -0.0025117975, -0.029207455, -676983.8, -23417.5 
1.0653075e+3, 2.4329925e+2, -597606.9, -683091.4, -6992.1484, -0.0031908182, -0.02847681, -597038.75, -41374.176 
1.0652887e+3, 2.5328892e+2, -511749.78, -590570.5, -6597.1353, -0.0042786105, -0.02948172, -511201.44, -53435.72 
1.06527e+3, 2.6327837e+2, -429821.56, -505153.34, -4901.7993, -0.0045594145, -0.029262705, -429503.94, -69634.73 
1.0652516e+3, 2.732677e+2, -345543.75, -412829.13, -4865.3237, -0.0033369155, -0.029863603, -345193.78, -83220.0 
1.0652333e+3, 2.832565e+2, -268779.72, -337171.78, -3361.7512, -0.0036222215, -0.029268034, -268614.88, -104531.34 
1.06521524e+3, 2.9324475e+2, -183042.25, -244975.45, -3227.391, -0.0068653673, -0.02933595, -182874.53, -116675.95 
1.0651974e+3, 3.0323708e+2, -88102.09, -79605.414, -184.33733, -0.007932345, -0.02842156, -79601.414, -79601.414 
1.0651801e+3, 3.13234e+2, -100990.47, -82517.555, 347.74713, -0.0047588293, -0.029377766, -82511.01, -82511.01 
1.0755414e+3, 1.2342146e+2, -1587318.0, -1727701.5, -128.3423, 0.0031700958, -0.020061297, -1587317.9, 143148.97 
1.07552245e+3, 1.334133e+2, -1511279.8, -1654107.9, -5988.5747, 0.0026388385, -0.051151622, -1511029.1, 121517.875 
1.07550345e+3, 1.4340575e+2, -1426632.0, -1562789.5, -5749.1094, -0.0013072678, -0.010937356, -1426389.8, 108231.25 
1.07548475e+3, 1.5339774e+2, -1341483.9, -1470397.5, -5678.9443, 0.0012262338, -0.025973445, -1341234.1, 95465.29 
1.0754658e+3, 1.6338953e+2, -1260139.1, -1385798.5, -8090.83, 0.0018581435, -0.034406785, -1259620.4, 79159.6 
1.0754465e+3, 1.7338128e+2, -1175113.1, -1293598.9, -8152.5605, -0.0005543428, -0.030033235, -1174554.8, 66305.91 
1.075427e+3, 1.8337272e+2, -1094477.9, -1210254.8, -9514.882, -0.0016991154, -0.026505042, -1093701.1, 49243.363 
1.07540734e+3, 1.933639e+2, -1009882.5, -1118387.0, -9698.759, -0.0005798986, -0.028205246, -1009022.4, 36008.598 
1.0753877e+3, 2.033548e+2, -928664.94, -1033938.56, -10390.696, -0.0004238202, -0.028613131, -927649.1, 19470.918 
1.0753679e+3, 2.1334557e+2, -843093.1, -941348.7, -10232.658, -0.0020042257, -0.02891401, -842038.75, 7171.853 
1.075348e+3, 2.2333603e+2, -762326.8, -858016.56, -10377.288, -0.0030435033, -0.028464321, -761214.4, -9910.208 
1.0753282e+3, 2.3332624e+2, -678073.1, -766203.4, -10647.293, -0.003061976, -0.02947585, -676805.06, -23405.105 
1.0753085e+3, 2.433162e+2, -596940.0, -681712.94, -10015.507, -0.0031053154, -0.02920285, -595772.8, -40274.49 
1.0752888e+3, 2.5330603e+2, -510922.6, -588771.7, -9564.421, -0.0032192515, -0.029219091, -509764.75, -52166.62 
1.0752691e+3, 2.6329556e+2, -429744.8, -504874.9, -8310.99, -0.0036426508, -0.028187258, -428836.44, -69135.68 
1.07524976e+3, 2.7328488e+2, -345601.9, -412890.9, -8357.684, -0.0046033436, -0.028420819, -344579.34, -82774.04 
1.0752306e+3, 2.8327367e+2, -268477.7, -336491.25, -6417.5454, -0.0051783635, -0.028288964, -267877.44, -103962.5 
1.0752117e+3, 2.93262e+2, -182751.39, -244222.86, -6192.4937, -0.0050600176, -0.03037548, -182133.78, -116104.12 
1.075193e+3, 3.032544e+2, -87380.85, -77929.68, -3697.3015, -0.005627344, -0.030080391, -76655.164, -76655.164 
1.0751746e+3, 3.132515e+2, -100159.88, -80672.64, -3299.3372, -0.0074679065, -0.028959021, -80129.195, -80129.195 
1.0855533e+3, 1.2343993e+2, -1582882.1, -1725094.1, 3242.675, 0.0024926558, -0.019567214, -1582808.3, 147477.75 
1.0855336e+3, 1.3343164e+2, -1508025.0, -1654293.5, -2837.3013, 0.003661958, -0.04812955, -1507970.0, 124397.21 
1.0855137e+3, 1.4342391e+2, -1422801.3, -1561548.4, -2782.4397, -0.0010966334, -0.014002417, -1422745.5, 111697.414 
1.08549416e+3, 1.5341589e+2, -1338383.1, -1469325.3, -2365.1523, 0.001131041, -0.02555154, -1338340.4, 98181.06 
1.0854743e+3, 1.6340767e+2, -1257772.3, -1385089.4, -4595.996, 0.0016873572, -0.03217141, -1257606.5, 80995.625 
1.085454e+3, 1.7339937e+2, -1173289.0, -1293190.4, -4918.6553, -0.0004536034, -0.029368969, -1173087.5, 67595.97 
1.0854336e+3, 1.8339077e+2, -1092764.6, -1209542.9, -6382.109, -0.0015185347, -0.026731215, -1092416.9, 50350.86 
1.08541295e+3, 1.9338194e+2, -1008150.56, -1117637.0, -6288.2485, -0.0006951442, -0.027973177, -1007790.56, 37063.695 
1.0853923e+3, 2.0337285e+2, -927313.94, -1033281.25, -6871.862, -0.000589632, -0.028003043, -926870.1, 20073.207 
1.0853717e+3, 2.133636e+2, -843018.1, -941327.2, -7028.2314, -0.0018458572, -0.028055929, -842518.2, 6515.7266 
1.08535096e+3, 2.2335407e+2, -762787.3, -858170.75, -7267.4536, -0.0027724174, -0.027607957, -762236.8, -11109.353 
1.0853301e+3, 2.3334429e+2, -677869.6, -766057.06, -7052.3115, -0.0030900228, -0.029125342, -677309.2, -24085.941 
1.08530946e+3, 2.4333426e+2, -596730.56, -681148.25, -6232.519, -0.0032121865, -0.029097436, -596272.9, -40951.42 
1.0852888e+3, 2.5332412e+2, -512696.6, -589116.7, -6302.356, -0.0030478744, -0.02878196, -512180.3, -54759.484 
1.0852683e+3, 2.6331368e+2, -432422.16, -505708.6, -5340.5146, -0.0035204093, -0.027605835, -432035.03, -72512.03 
1.0852479e+3, 2.7330306e+2, -346969.06, -413136.53, -5125.123, -0.005155049, -0.028066678, -346574.44, -84947.195 
1.0852278e+3, 2.8329194e+2, -269623.16, -336257.06, -2987.7327, -0.005737831, -0.027949419, -269489.47, -105753.06 
1.0852079e+3, 2.9328027e+2, -186513.94, -245207.55, -2632.9854, -0.00436461, -0.029691078, -186396.06, -120545.69 
1.0851884e+3, 3.0327275e+2, -92143.22, -79570.98, -176.97165, -0.0047321077, -0.029334955, -79568.484, -79568.484 
1.08516894e+3, 3.1326988e+2, -102380.984, -81165.05, -327.2016, -0.008289978, -0.028619712, -81160.0, -81160.0 
1.09556556e+3, 1.2345926e+2, -1582929.5, -1725205.5, 71.82029, 0.00088452426, -0.019813191, -1582929.5, 147167.08 
1.0955449e+3, 1.3345084e+2, -1509391.0, -1657126.8, -5882.352, 0.005821293, -0.044804104, -1509157.1, 123022.055 
1.0955242e+3, 1.434429e+2, -1422932.8, -1561840.4, -6073.7593, 0.0005473729, -0.018457884, -1422667.6, 111589.22 
1.0955036e+3, 1.5343493e+2, -1338294.3, -1469177.3, -5720.008, 0.00011070457, -0.025501646, -1338044.8, 98290.164 
1.0954826e+3, 1.6342671e+2, -1258187.9, -1385978.9, -7899.167, -0.00011857657, -0.029660702, -1257701.5, 80714.14 
1.09546155e+3, 1.734183e+2, -1173829.4, -1294328.3, -8193.139, 0.0003807236, -0.028501939, -1173274.9, 67223.03 
1.0954402e+3, 1.8340966e+2, -1092658.6, -1209334.3, -9627.403, 0.00019636814, -0.027024658, -1091869.5, 50713.06 
1.0954187e+3, 1.9340084e+2, -1007954.94, -1117227.0, -9540.854, -0.0013198036, -0.02849087, -1007128.2, 37540.74 
1.0953971e+3, 2.0339178e+2, -927531.4, -1033713.1, -10236.897, -0.0021007587, -0.028433131, -926553.44, 20204.463 
1.09537534e+3, 2.133825e+2, -843331.4, -941970.1, -10401.459, -0.0014694623, -0.02779516, -842246.44, 6602.45 
1.09535374e+3, 2.2337294e+2, -762420.3, -857399.94, -10488.2705, -0.0014768513, -0.02681373, -761275.9, -10333.474 
1.09533206e+3, 2.3336324e+2, -677414.3, -765062.2, -10255.077, -0.0026955814, -0.028220547, -676230.44, -23192.893 
1.09531045e+3, 2.4335326e+2, -596814.94, -681258.3, -9692.886, -0.0035452752, -0.028246848, -595716.6, -40581.242 
1.09528884e+3, 2.5334308e+2, -512884.56, -589484.0, -9805.228, -0.003702966, -0.028205456, -511649.34, -54414.305 
1.0952673e+3, 2.6333266e+2, -432018.34, -504846.13, -8514.827, -0.004149535, -0.027471386, -431036.06, -71698.91 
1.0952461e+3, 2.7332208e+2, -346518.3, -412096.22, -8237.646, -0.0050870553, -0.028688075, -345499.34, -84058.57 
1.095225e+3, 2.8331104e+2, -269065.56, -334967.13, -6572.9463, -0.0054377196, -0.02818409, -268416.38, -104867.25 
1.0952041e+3, 2.9329953e+2, -185913.03, -243887.28, -6322.1763, -0.00474886, -0.027410625, -185231.6, -119569.61 
1.0951835e+3, 3.0329207e+2, -92171.34, -79560.89, -3244.688, -0.005178816, -0.02635592, -78775.0, -78775.0 
1.0951633e+3, 3.1328917e+2, -102645.43, -81529.07, -3263.616, -0.0074391454, -0.028360391, -81036.17, -81036.17 
1.1055779e+3, 1.23479545e+2, -1578389.9, -1722984.5, 3156.686, 0.0012091293, -0.022426605, -1578321.0, 151576.86 
1.1055564e+3, 1.3347109e+2, -1506181.4, -1656914.8, -2224.763, 0.0064635244, -0.038479563, -1506148.5, 125832.2 
1.10553466e+3, 1.4346299e+2, -1419586.0, -1560753.6, -2462.5073, -0.00040499872, -0.020802911, -1419543.1, 114517.07 
1.10551305e+3, 1.53455e+2, -1335155.5, -1468068.9, -2451.9534, 0.00010737806, -0.025814598, -1335110.3, 101028.12 
1.1054912e+3, 1.6344675e+2, -1255357.1, -1384906.6, -4684.381, 0.00039599542, -0.028618623, -1255188.0, 83031.33 
1.1054691e+3, 1.7343831e+2, -1171546.5, -1293531.4, -4650.3535, 0.0005290442, -0.027763428, -1171369.5, 68932.36 
1.1054469e+3, 1.8342964e+2, -1090883.4, -1208692.1, -5964.665, 0.00016933131, -0.026464896, -1090582.1, 51804.78 
1.1054245e+3, 1.9342081e+2, -1006810.75, -1116906.6, -6192.769, -0.001203379, -0.027786262, -1006463.5, 38009.88 
1.1054019e+3, 2.0341171e+2, -926661.1, -1033245.9, -7027.5244, -0.0019943845, -0.027830381, -926199.75, 20362.785 
1.10537924e+3, 2.1340242e+2, -842593.06, -941554.7, -6874.8267, -0.0016890544, -0.027737146, -842117.75, 6535.812 
1.1053566e+3, 2.233929e+2, -762009.06, -856921.25, -6807.496, -0.0017084911, -0.026801152, -761523.25, -10776.317 
1.1053339e+3, 2.3338322e+2, -678071.8, -765088.75, -6852.4766, -0.0024175735, -0.027318843, -677535.5, -24693.713 
1.1053113e+3, 2.4337326e+2, -598039.3, -681687.1, -6444.6724, -0.0031754142, -0.027054181, -597545.7, -42606.332 
1.1052887e+3, 2.5336307e+2, -513543.28, -589703.7, -6335.9106, -0.004019714, -0.027816575, -513019.78, -55980.74 
1.10526636e+3, 2.633527e+2, -432665.56, -504529.84, -4907.5796, -0.004594706, -0.027456919, -432331.97, -73191.02 
1.105244e+3, 2.733422e+2, -349188.13, -412684.72, -4697.9175, -0.0046245884, -0.028245268, -348842.4, -87598.47 
1.105222e+3, 2.833312e+2, -272421.0, -335837.94, -3144.529, -0.0048487573, -0.027545286, -272265.47, -108913.836 
1.1052002e+3, 2.9331973e+2, -187390.94, -243874.78, -3084.131, -0.005542273, -0.02696025, -187223.03, -121759.14 
1.1051786e+3, 3.0331236e+2, -93770.81, -79656.52, 5.8775887, -0.006191441, -0.025952104, -79656.52, -79656.52 
1.1051574e+3, 3.133095e+2, -108135.3, -83555.62, 512.8795, -0.0063302238, -0.027758546, -83544.92, -83544.92 
1.1155905e+3, 1.2350065e+2, -1578374.4, -1722891.4, -192.36082, 0.0030428744, -0.026348643, -1578374.1, 151316.81 
1.115568e+3, 1.3349226e+2, -1506623.5, -1657834.0, -5382.0835, 0.005816635, -0.029756594, -1506432.1, 125341.08 
1.11554526e+3, 1.43484e+2, -1420079.5, -1561801.6, -5834.454, -0.0035213153, -0.021430148, -1419839.8, 114014.516 
1.1155228e+3, 1.5347594e+2, -1335692.3, -1469189.0, -5856.4844, 0.0009181413, -0.026431225, -1335435.8, 100497.44 
1.1155e+3, 1.6346765e+2, -1255344.9, -1384884.8, -8093.262, 0.00276222, -0.028782014, -1254841.3, 83173.3 
1.1154768e+3, 1.7345923e+2, -1171443.9, -1293333.4, -8067.963, 0.000053248834, -0.027125351, -1170912.1, 69184.734 
1.1154536e+3, 1.8345055e+2, -1091223.9, -1209403.4, -9376.738, -0.0013824048, -0.025170337, -1090484.5, 51697.44 
1.11543015e+3, 1.9344166e+2, -1007266.75, -1117835.9, -9586.893, -0.00047293, -0.026053764, -1006441.6, 37827.457 
1.1154066e+3, 2.0343255e+2, -926446.56, -1032774.7, -10416.433, -0.00056959304, -0.026350861, -925435.75, 20922.752 
1.11538306e+3, 2.1342328e+2, -842278.3, -940873.75, -10274.52, -0.0024692756, -0.027861377, -841219.0, 7230.22 
1.1153594e+3, 2.2341377e+2, -762029.2, -856933.4, -10280.529, -0.0033169247, -0.027452992, -760928.4, -10385.975 
1.1153357e+3, 2.334041e+2, -678166.75, -765270.06, -10335.06, -0.0022552304, -0.026415441, -676957.3, -24320.072 
1.1153121e+3, 2.4339415e+2, -597817.75, -681204.94, -9793.94, -0.002223955, -0.025550252, -596682.9, -41948.152 
1.1152886e+3, 2.53384e+2, -513312.8, -589156.4, -9657.721, -0.00406698, -0.027593393, -512102.34, -55268.215 
1.1152653e+3, 2.6337364e+2, -432343.88, -503780.94, -8514.591, -0.004916345, -0.027541246, -431343.06, -72407.44 
1.11524194e+3, 2.733632e+2, -348841.2, -411926.56, -8366.385, -0.0038416276, -0.026824884, -347750.47, -86712.51 
1.115219e+3, 2.8335226e+2, -272133.25, -335194.34, -6393.89, -0.004048024, -0.02610055, -271491.5, -108346.32 
1.1151962e+3, 2.9334083e+2, -187196.34, -243333.23, -6246.407, -0.0067737787, -0.028197555, -186509.69, -121252.38 
1.11517355e+3, 3.033335e+2, -93063.25, -78020.11, -3828.459, -0.0077884095, -0.027920315, -77101.83, -77101.83 
1.11515135e+3, 3.1333077e+2, -107319.38, -81737.84, -3462.5781, -0.0050589405, -0.02678944, -81277.45, -81277.45 
1.1256032e+3, 1.235228e+2, -1574766.5, -1721726.0, 3020.3833, 0.002517552, -0.028229108, -1574704.5, 154769.52 
1.1255797e+3, 1.3351446e+2, -1502644.1, -1656192.8, -1735.857, 0.006642308, -0.022944503, -1502624.5, 128931.164 
1.125556e+3, 1.4350607e+2, -1416401.0, -1560577.4, -2343.3218, -0.004028185, -0.025628231, -1416363.0, 117275.18 
1.1255326e+3, 1.5349796e+2, -1332784.6, -1468416.1, -2302.7668, 0.0009421159, -0.026546441, -1332745.5, 102971.836 
1.1255088e+3, 1.6348965e+2, -1252780.3, -1383931.9, -4488.2485, 0.0030553045, -0.026673146, -1252626.9, 85171.94 
1.1254846e+3, 1.734812e+2, -1169141.6, -1292469.5, -4685.3374, 0.000043850494, -0.026497887, -1168963.9, 70917.766 
1.1254604e+3, 1.834725e+2, -1089258.4, -1208558.3, -6056.7393, -0.0015514784, -0.025356976, -1088951.6, 53015.33 
1.12543605e+3, 1.9346361e+2, -1005986.8, -1117328.3, -5926.2803, -0.00055955193, -0.0257253, -1005672.3, 38381.87 
1.1254115e+3, 2.0345448e+2, -925661.94, -1032363.6, -6596.6924, -0.00047023248, -0.02561755, -925255.7, 20887.934 
1.1253868e+3, 2.1344522e+2, -841919.8, -940674.3, -6739.4673, -0.0020541237, -0.027017962, -841462.0, 6772.305 
1.1253622e+3, 2.2343571e+2, -761934.3, -856778.56, -6912.2876, -0.002984743, -0.026804157, -761433.2, -11105.773 
1.12533756e+3, 2.3342603e+2, -678211.75, -765206.06, -6838.2603, -0.0027381105, -0.026363261, -677677.5, -25255.244 
1.125313e+3, 2.434161e+2, -598068.9, -680766.2, -6164.5835, -0.002835969, -0.02559423, -597611.9, -43092.313 
1.12528846e+3, 2.5340602e+2, -514734.38, -589229.4, -5912.338, -0.0036106147, -0.026922852, -514268.06, -57649.65 
1.125264e+3, 2.6339573e+2, -434374.9, -504363.9, -4779.3135, -0.0041886717, -0.026511129, -434050.03, -75330.62 
1.1252399e+3, 2.733853e+2, -350027.13, -412173.8, -4795.239, -0.004309717, -0.026023297, -349659.3, -88837.78 
1.1252158e+3, 2.833744e+2, -273371.56, -334989.7, -2832.4038, -0.004787714, -0.025590265, -273241.63, -110313.305 
1.12519205e+3, 2.93363e+2, -191084.69, -244349.75, -2423.543, -0.0061028684, -0.028130492, -190974.66, -125934.87 
1.1251684e+3, 3.0335578e+2, -97864.73, -79518.69, -49.91922, -0.0069024456, -0.02793322, -79518.55, -79518.55 
1.1251451e+3, 3.1335312e+2, -109565.766, -82054.03, -122.29518, -0.0061015896, -0.026117433, -82053.484, -82053.484 
1.13561586e+3, 1.23545855e+2, -1575455.6, -1723161.1, -371.36557, 0.0001325412, -0.027965963, -1575454.8, 153793.48 
1.13559164e+3, 1.3353755e+2, -1502620.4, -1656160.8, -4812.08, 0.008636778, -0.017709963, -1502469.8, 128859.73 
1.135567e+3, 1.4352901e+2, -1416643.9, -1561074.5, -5865.971, -0.0024930735, -0.032692492, -1416406.0, 117007.21 
1.1355425e+3, 1.5352096e+2, -1333093.1, -1469047.4, -5897.682, 0.000259892, -0.02623817, -1332837.8, 102654.38 
1.1355177e+3, 1.6351263e+2, -1253140.9, -1384659.8, -7979.559, 0.0015969601, -0.022697203, -1252658.5, 84915.25 
1.13549255e+3, 1.7350408e+2, -1169546.1, -1293263.1, -8146.308, 0.00039148823, -0.025894199, -1169012.0, 70645.445 
1.1354673e+3, 1.8349533e+2, -1089122.4, -1208231.8, -9603.389, -0.00065277366, -0.026782103, -1088353.0, 53390.125 
1.1354417e+3, 1.9348648e+2, -1005750.0, -1116830.5, -9499.044, -0.0013789182, -0.026584676, -1004943.56, 38886.457 
1.13541625e+3, 2.0347737e+2, -925826.44, -1032708.75, -10112.115, -0.0015405228, -0.025492946, -924878.1, 21041.123 
1.1353908e+3, 2.1346809e+2, -842186.4, -941215.0, -10234.951, -0.0006251373, -0.02534027, -841139.6, 6870.565 
1.13536514e+3, 2.2345857e+2, -761820.6, -856512.5, -10403.517, -0.0010431529, -0.025030654, -760691.1, -10587.642 
1.1353394e+3, 2.334489e+2, -678067.25, -764855.75, -10331.06, -0.003829739, -0.027068824, -676854.44, -24656.09 
1.1353138e+3, 2.4343899e+2, -597648.56, -679841.56, -9779.291, -0.0048615774, -0.027002502, -596501.0, -42205.754 
1.1352883e+3, 2.53429e+2, -514266.72, -588230.25, -9562.083, -0.0027288473, -0.025852116, -513050.53, -56657.305 
1.1352629e+3, 2.6341876e+2, -434256.4, -504082.75, -8242.073, -0.0025756804, -0.024477014, -433296.75, -74803.05 
1.1352375e+3, 2.7340832e+2, -350029.03, -412090.38, -8214.232, -0.005971954, -0.025791073, -348960.22, -88364.31 
1.13521256e+3, 2.8339747e+2, -272756.1, -333606.5, -6638.797, -0.0069882786, -0.025934242, -272040.22, -109337.89 
1.13518775e+3, 2.933862e+2, -190351.64, -242752.1, -6312.148, -0.0037105712, -0.026833037, -189602.02, -124789.42 
1.1351631e+3, 3.0337903e+2, -97692.64, -79085.45, -3436.8528, -0.0037820304, -0.02610426, -78470.94, -78470.94 
1.13513894e+3, 3.133764e+2, -109581.875, -81929.76, -3405.4475, -0.009479707, -0.025738144, -81516.55, -81516.55 
1.1456288e+3, 1.2356994e+2, -1571706.8, -1723324.5, 2984.29, -0.00029862332, -0.028912036, -1571648.0, 157364.13 
1.14560366e+3, 1.3356172e+2, -1498115.0, -1653713.3, -999.95654, 0.009580897, -0.012127562, -1498108.6, 132984.06 
1.1455781e+3, 1.4355308e+2, -1413055.3, -1559633.0, -2391.1375, -0.0026817292, -0.036588326, -1413016.3, 120161.164 
1.1455525e+3, 1.5354502e+2, -1330044.6, -1467995.4, -2461.6172, 0.00007003074, -0.026345944, -1330000.6, 105255.65 
1.1455266e+3, 1.6353668e+2, -1250564.3, -1383665.5, -4391.0874, 0.0015181814, -0.020703424, -1250419.6, 86918.47 
1.1455005e+3, 1.735281e+2, -1167769.9, -1292663.3, -4356.3677, 0.00055806653, -0.025129976, -1167618.1, 71804.03 
1.14547424e+3, 1.8351933e+2, -1087712.1, -1207623.4, -5755.6577, -0.00037310846, -0.0267157, -1087436.5, 54071.574 
1.1454478e+3, 1.9351047e+2, -1004272.0, -1116182.6, -5907.002, -0.0012880381, -0.026128694, -1003961.06, 39633.9 
1.1454211e+3, 2.0350136e+2, -924456.0, -1032018.3, -6612.7974, -0.0016456775, -0.024888206, -924050.94, 21633.307 
1.1453945e+3, 2.1349207e+2, -841422.75, -940832.25, -6485.814, -0.0009451212, -0.024972225, -841001.4, 6773.857 
1.1453679e+3, 2.2348256e+2, -761545.0, -856082.9, -6497.692, -0.0012492157, -0.024604302, -761100.5, -11232.074 
1.1453412e+3, 2.3347291e+2, -678567.4, -764790.56, -6403.8726, -0.003384347, -0.02615121, -678094.4, -26131.354 
1.1453146e+3, 2.4346304e+2, -598637.6, -680051.3, -5955.52, -0.004340992, -0.025989586, -598204.25, -44144.57 
1.145288e+3, 2.5345308e+2, -515154.5, -588430.94, -6065.846, -0.003179234, -0.025359916, -514655.75, -58498.227 
1.1452616e+3, 2.6344284e+2, -435323.44, -503992.13, -4825.84, -0.0032640481, -0.024376562, -434985.94, -76728.23 
1.1452354e+3, 2.7343246e+2, -352505.47, -412647.5, -4452.0356, -0.0056239814, -0.02584926, -352177.7, -91818.26 
1.1452092e+3, 2.8342167e+2, -275611.63, -334141.16, -2809.7698, -0.0063327732, -0.025690112, -275477.06, -113011.84 
1.1451834e+3, 2.9341048e+2, -192004.1, -242699.88, -2738.2864, -0.0040326496, -0.025460625, -191856.61, -127281.96 
1.14515774e+3, 3.0340338e+2, -99659.77, -79489.99, 111.16009, -0.004355375, -0.02458385, -79489.375, -79489.375 
1.1451325e+3, 3.1340075e+2, -114189.03, -83703.65, 365.8358, -0.009013656, -0.025810184, -83699.26, -83699.26 
1.1556418e+3, 1.23594955e+2, -1573350.6, -1726765.8, -689.27673, 0.0007113008, -0.030756354, -1573347.5, 155419.63 
1.1556158e+3, 1.3358682e+2, -1497858.4, -1653164.9, -4215.9766, 0.009630624, -0.006273664, -1497744.0, 133102.7 
1.1555892e+3, 1.4357811e+2, -1413264.9, -1559986.0, -6010.0386, -0.004300502, -0.037926182, -1413019.0, 119913.04 
1.1555626e+3, 1.5357004e+2, -1330333.4, -1468530.9, -6144.8438, 0.00024704676, -0.026807936, -1330060.8, 104950.56 
1.15553565e+3, 1.6356167e+2, -1250601.6, -1383707.5, -8057.7935, 0.0025016398, -0.020327099, -1250115.6, 86977.45 
1.1555085e+3, 1.735531e+2, -1167766.6, -1292664.4, -8026.5254, 0.00053532654, -0.024221929, -1167253.0, 71924.21 
1.1554812e+3, 1.8354432e+2, -1087930.6, -1208089.4, -9315.315, -0.00066441944, -0.025382534, -1087212.8, 54050.547 
1.1554538e+3, 1.9353542e+2, -1004581.6, -1116790.9, -9437.136, -0.000457082, -0.024568168, -1003793.5, 39557.082 
1.1554261e+3, 2.0352629e+2, -924316.9, -1031669.75, -10234.968, -0.0010056923, -0.023873517, -923349.8, 22090.23 
1.1553984e+3, 2.1351701e+2, -841220.8, -940357.4, -10132.919, -0.0028098265, -0.025741238, -840195.7, 7335.1494 
1.1553707e+3, 2.2350754e+2, -761343.8, -855620.2, -10192.718, -0.0033506078, -0.025322013, -760254.44, -10630.701 
1.155343e+3, 2.3349795e+2, -678372.06, -764366.44, -10113.018, -0.001593172, -0.023786519, -677198.75, -25481.047 
1.15531534e+3, 2.434881e+2, -598731.4, -680230.4, -9575.292, -0.0016294302, -0.022826297, -597621.44, -43807.22 
1.1552877e+3, 2.5347805e+2, -515341.47, -588777.7, -9658.621, -0.0048744576, -0.02539427, -514092.38, -58179.727 
1.1552603e+3, 2.6346785e+2, -434753.16, -502757.97, -8580.61, -0.0060436437, -0.026013244, -433687.2, -75674.43 
1.1552329e+3, 2.734576e+2, -351815.66, -411170.53, -8250.226, -0.003467106, -0.026160914, -350690.22, -90576.85 
1.1552058e+3, 2.8344688e+2, -275261.63, -333358.16, -6409.2407, -0.003146722, -0.024887312, -274562.94, -112344.69 
1.15517884e+3, 2.9343575e+2, -191760.88, -242100.48, -6297.7827, -0.0069695557, -0.02399836, -190984.95, -126657.71 
1.1551521e+3, 3.0342868e+2, -99264.84, -78552.89, -3796.0767, -0.008414047, -0.023353381, -77879.06, -77879.06 
1.1551259e+3, 3.134261e+2, -113803.39, -82754.15, -3599.749, -0.004953546, -0.026343819, -82342.266, -82342.266 
1.1656552e+3, 1.2362106e+2, -1569518.9, -1727526.6, 2465.3474, 0.00082419754, -0.03136873, -1569480.4, 159030.9 
1.1656282e+3, 1.3361304e+2, -1492969.6, -1649735.4, -255.65811, 0.009793132, -0.0034976867, -1492969.1, 137620.8 
1.1656005e+3, 1.4360434e+2, -1410079.3, -1558607.5, -2121.745, -0.0048504546, -0.0377312, -1410048.9, 122626.234 
1.1655728e+3, 1.5359622e+2, -1327708.6, -1467650.9, -2308.5771, 0.00045560373, -0.0265256, -1327670.5, 107084.16 
1.1655448e+3, 1.6358784e+2, -1248132.0, -1382767.3, -4199.844, 0.002979336, -0.019909065, -1248001.1, 88835.73 
1.1655166e+3, 1.7357925e+2, -1165278.1, -1291721.8, -4305.7603, 0.00038144877, -0.023674684, -1165131.6, 73789.445 
1.16548814e+3, 1.8357043e+2, -1085688.5, -1207108.5, -5628.176, -0.0010475626, -0.02478679, -1085428.3, 55579.207 
1.16545975e+3, 1.9356151e+2, -1003352.0, -1116310.9, -5550.9756, -0.00037674248, -0.02406339, -1003079.9, 40014.965 
1.1654311e+3, 2.0355238e+2, -923726.1, -1031245.4, -6274.4263, -0.0007064248, -0.023376541, -923361.2, 21823.107 
1.1654023e+3, 2.1354312e+2, -841033.0, -940120.8, -6305.428, -0.0028177595, -0.025043983, -840633.4, 6641.697 
1.16537355e+3, 2.2353366e+2, -761377.7, -855452.5, -6468.739, -0.0035391345, -0.024681395, -760934.94, -11567.171 
1.1653447e+3, 2.3352407e+2, -678396.4, -764215.75, -6482.7466, -0.0017039353, -0.023630742, -677909.44, -26447.68 
1.165316e+3, 2.4351424e+2, -598865.75, -679880.75, -5862.563, -0.0015699043, -0.022789309, -598443.75, -44885.656 
1.16528735e+3, 2.5350425e+2, -516292.88, -588821.5, -5531.3276, -0.004559962, -0.024872893, -515873.47, -60217.383 
1.1652588e+3, 2.6349407e+2, -436164.8, -502891.78, -4379.404, -0.0057644485, -0.025100881, -435878.63, -78122.84 
1.1652305e+3, 2.7348384e+2, -353265.44, -411331.66, -4428.6875, -0.0036957846, -0.024970345, -352929.63, -93073.67 
1.16520226e+3, 2.834732e+2, -277018.0, -333420.88, -2684.5073, -0.0034825623, -0.023981918, -276890.5, -114930.2 
1.1651742e+3, 2.9346213e+2, -194738.69, -242743.55, -2359.5645, -0.0067977477, -0.024368577, -194623.0, -130554.24 
1.16514646e+3, 3.0345514e+2, -102883.19, -79613.34, 96.15776, -0.008119562, -0.023837615, -79612.945, -79612.945 
1.165119e+3, 3.1345263e+2, -116843.516, -83584.6, 179.15523, -0.0051952647, -0.02483461, -83583.64, -83583.64 
1.1756687e+3, 1.2364811e+2, -1571130.4, -1730863.8, -1561.6399, 0.00013442138, -0.03177904, -1571115.1, 157131.14 
1.1756406e+3, 1.336402e+2, -1492041.6, -1647754.8, -3775.598, 0.010011951, -0.003141974, -1491950.1, 138373.67 
1.1756119e+3, 1.4363159e+2, -1410231.5, -1558801.5, -5866.0347, -0.004614387, -0.036346972, -1410000.3, 122407.91 
1.17558315e+3, 1.5362343e+2, -1328004.3, -1468205.4, -6091.875, 0.0006444116, -0.025655448, -1327740.1, 106748.0 
1.1755541e+3, 1.63615e+2, -1248440.9, -1383375.9, -7862.0063, 0.0029922102, -0.019432858, -1247984.4, 88586.28 
1.1755248e+3, 1.7360635e+2, -1165627.8, -1292379.9, -7941.0444, 0.000074645235, -0.023423178, -1165132.1, 73523.32 
1.1754954e+3, 1.8359752e+2, -1085668.1, -1206993.1, -9390.235, -0.0015846754, -0.024797391, -1084945.6, 55796.375 
1.1754657e+3, 1.9358861e+2, -1003266.6, -1116101.6, -9342.976, -0.00095826935, -0.024444543, -1002498.25, 40331.06 
1.175436e+3, 2.035795e+2, -923723.4, -1031233.75, -10026.434, -0.00074094103, -0.023279047, -922796.3, 22122.379 
1.1754061e+3, 2.1357024e+2, -841068.2, -940195.4, -10052.164, -0.0012641585, -0.02305926, -840059.1, 6950.225 
1.1753763e+3, 2.2356078e+2, -761362.0, -855411.94, -10159.142, -0.0021642835, -0.022852257, -760277.2, -11175.05 
1.1753465e+3, 2.3355114e+2, -678408.94, -764203.94, -10162.386, -0.0035298234, -0.025419397, -677221.6, -26025.225 
1.1753168e+3, 2.4354135e+2, -598330.25, -678718.2, -9649.89, -0.00387224, -0.025487352, -597188.06, -43895.59 
1.175287e+3, 2.5353146e+2, -515683.16, -587508.94, -9352.576, -0.0024695264, -0.023823213, -514485.3, -59096.02 
1.1752574e+3, 2.6352137e+2, -436086.1, -502683.88, -8190.189, -0.002812523, -0.021873599, -435093.66, -77605.43 
1.1752279e+3, 2.7351114e+2, -353302.84, -411364.13, -8231.605, -0.006193829, -0.022393646, -352158.38, -92569.875 
1.1751986e+3, 2.8350052e+2, -276450.88, -332189.84, -6553.8335, -0.007096477, -0.022985814, -275690.66, -113997.97 
1.1751696e+3, 2.9348952e+2, -194108.38, -241348.69, -6243.0806, -0.0037311811, -0.026496427, -193297.23, -129496.766 
1.17514074e+3, 3.0348256e+2, -102566.58, -78852.836, -3727.335, -0.003840709, -0.025934314, -78280.77, -78280.77 
1.17511205e+3, 3.134802e+2, -116621.4, -82980.04, -3630.904, -0.009764765, -0.021281201, -82592.62, -82592.62 
1.18568234e+3, 1.23676434e+2, -1567235.6, -1731302.1, 2154.0552, -0.00020444997, -0.028917957, -1567207.4, 160761.31 
1.1856532e+3, 1.3366854e+2, -1487423.0, -1644349.8, 283.79544, 0.010034239, -0.0065344153, -1487422.5, 142623.63 
1.1856234e+3, 1.4366004e+2, -1407383.3, -1557678.9, -1946.2775, -0.0040261135, -0.034372758, -1407358.0, 124771.39 
1.1855935e+3, 1.536518e+2, -1325185.4, -1467357.3, -2234.6047, 0.00052124145, -0.024624111, -1325150.3, 109059.73 
1.18556336e+3, 1.6364335e+2, -1245675.3, -1382252.1, -3989.9866, 0.0026283653, -0.019056546, -1245558.8, 90734.266 
1.1855331e+3, 1.7363468e+2, -1163789.1, -1291692.0, -3910.988, 0.0002908828, -0.023024853, -1163669.6, 74708.33 
1.1855024e+3, 1.8362582e+2, -1084309.0, -1206354.4, -5294.7725, -0.0012292614, -0.024320958, -1084079.8, 56384.895 
1.1854718e+3, 1.9361691e+2, -1001910.5, -1115467.3, -5354.4805, -0.0012722516, -0.02383639, -1001658.56, 40893.434 
1.185441e+3, 2.0360778e+2, -922434.44, -1030614.6, -6080.4624, -0.0011705247, -0.022660904, -922093.75, 22547.713 
1.1854102e+3, 2.1359852e+2, -840045.0, -939737.56, -6086.0303, -0.0008589498, -0.022628792, -839674.9, 7057.3003 
1.1853792e+3, 2.2358906e+2, -760662.56, -854804.5, -6140.41, -0.001525619, -0.022436924, -760263.75, -11438.845 
1.18534826e+3, 2.3357947e+2, -678663.5, -764046.25, -5982.2837, -0.0037485815, -0.0246621, -678246.44, -27327.455 
1.1853174e+3, 2.4356969e+2, -599208.2, -678692.56, -5510.9224, -0.0044782907, -0.024599645, -598827.9, -45813.168 
1.18528664e+3, 2.5355986e+2, -516899.94, -587650.25, -5560.1187, -0.0026185515, -0.02314338, -516465.63, -61354.414 
1.1852559e+3, 2.635498e+2, -437553.63, -502910.28, -4472.287, -0.0026289343, -0.021442804, -437249.0, -80039.2 
1.18522525e+3, 2.7353957e+2, -354974.88, -411720.03, -4219.013, -0.0060104216, -0.022302909, -354662.9, -95353.17 
1.18519485e+3, 2.83529e+2, -278211.47, -332205.78, -2516.1511, -0.007005331, -0.02267605, -278094.47, -116681.086 
1.1851647e+3, 2.935181e+2, -196439.9, -241607.16, -2359.942, -0.0037556987, -0.025062576, -196316.94, -132796.56 
1.1851348e+3, 3.0351123e+2, -105588.68, -79676.9, 165.53384, -0.0038677196, -0.0244617, -79675.84, -79675.84 
1.1851051e+3, 3.1350887e+2, -120123.41, -84107.984, 321.34616, -0.009847892, -0.021558091, -84105.125, -84105.125 
1.19569615e+3, 1.23705834e+2, -1568636.5, -1734141.3, -2253.1912, -0.00054717954, -0.025355449, -1568605.9, 159074.78 
1.1956659e+3, 1.3369791e+2, -1486919.6, -1643254.3, -3615.3591, 0.009883132, -0.012799667, -1486836.0, 142922.4 
1.195635e+3, 1.436895e+2, -1407684.8, -1558213.8, -5689.886, -0.0032070351, -0.031878743, -1407470.0, 124370.695 
1.195604e+3, 1.5368122e+2, -1325633.3, -1468191.0, -5948.0522, 0.00008888601, -0.023489023, -1325385.5, 108536.47 
1.1955729e+3, 1.636727e+2, -1245746.0, -1382320.4, -7836.4404, 0.0019013375, -0.01878696, -1245297.8, 90707.59 
1.1955414e+3, 1.7366403e+2, -1163795.1, -1291675.1, -7791.3506, 0.0009112258, -0.022495935, -1163322.1, 74768.16 
1.19550966e+3, 1.8365519e+2, -1084397.6, -1206530.3, -9090.775, -0.00020400077, -0.023398252, -1083724.6, 56452.336 
1.1954779e+3, 1.9364625e+2, -1002044.56, -1115722.3, -9140.012, -0.0014027851, -0.022377029, -1001314.4, 40950.176 
1.195446e+3, 2.0363711e+2, -922468.0, -1030644.3, -9880.618, -0.0019914568, -0.021574989, -921572.94, 22781.168 
1.1954141e+3, 2.1362785e+2, -840094.2, -939781.06, -9889.868, -0.0014771374, -0.02352709, -839122.5, 7322.5693 
1.1953821e+3, 2.2361839e+2, -760397.6, -854200.75, -10058.798, -0.0015687875, -0.023195669, -759331.1, -10793.523 
1.19535e+3, 2.3360887e+2, -678356.6, -763386.8, -9927.204, -0.0025776264, -0.0216249, -677213.0, -26582.074 
1.195318e+3, 2.4359913e+2, -599183.25, -678631.2, -9416.785, -0.0036570851, -0.020528255, -598082.4, -45356.01 
1.195286e+3, 2.5358924e+2, -516945.9, -587732.0, -9459.153, -0.004835597, -0.02279987, -515703.7, -60880.445 
1.19525425e+3, 2.635792e+2, -437082.6, -501910.72, -8321.351, -0.0049540903, -0.023526732, -436031.5, -79109.72 
1.19522266e+3, 2.7356905e+2, -354459.06, -410593.28, -8067.01, -0.0033786, -0.024492621, -353322.78, -94301.78 
1.19519114e+3, 2.8355858e+2, -277807.94, -331296.16, -6529.974, -0.0035974507, -0.022966404, -277022.28, -115898.48 
1.1951598e+3, 2.9354775e+2, -196068.45, -240770.5, -6398.756, -0.006812807, -0.020187061, -195170.55, -131940.78 
1.1951286e+3, 3.0354095e+2, -105214.02, -78830.664, -3774.5208, -0.008002095, -0.019603359, -78301.28, -78301.28 
1.195098e+3, 3.1353855e+2, -119807.46, -83322.4, -3601.0164, -0.005662048, -0.025659313, -82970.38, -82970.38 
1.2057102e+3, 1.23736575e+2, -1564478.6, -1733473.8, 1784.2566, 0.00038188, -0.022175381, -1564459.8, 162919.77 
1.2056787e+3, 1.3372852e+2, -1482679.9, -1641286.3, 455.86795, 0.0088471295, -0.019023785, -1482678.5, 146779.88 
1.2056467e+3, 1.4372022e+2, -1404268.5, -1556875.4, -1694.8314, -0.0029729134, -0.025803704, -1404249.8, 127289.89 
1.20561466e+3, 1.5371186e+2, -1322933.1, -1467267.9, -1806.8027, 0.00017432818, -0.022573905, -1322910.5, 110711.266 
1.20558225e+3, 1.6370328e+2, -1243347.6, -1381324.6, -3697.183, 0.0018413574, -0.020404529, -1243248.6, 92457.11 
1.2055497e+3, 1.7369461e+2, -1161435.6, -1290699.4, -3768.7432, 0.0006932697, -0.022064513, -1161325.9, 76464.836 
1.205517e+3, 1.8368576e+2, -1082280.3, -1205653.3, -5107.676, -0.00029551503, -0.022013627, -1082069.1, 57808.293 
1.205484e+3, 1.9367678e+2, -1000587.0, -1115195.8, -5142.4927, -0.0009495447, -0.021834426, -1000356.7, 41608.598 
1.20545104e+3, 2.0366766e+2, -921498.94, -1030039.44, -5852.7363, -0.0015576475, -0.02144594, -921184.25, 22870.72 
1.20541796e+3, 2.1365838e+2, -839869.3, -939522.56, -5758.9766, -0.0020024274, -0.023104126, -839537.56, 6608.2197 
1.2053849e+3, 2.2364894e+2, -760532.94, -853985.6, -5914.0093, -0.0023212312, -0.0225714, -760160.1, -11921.941 
1.20535165e+3, 2.3363945e+2, -678432.75, -763160.94, -5921.631, -0.0023422264, -0.020932022, -678020.9, -27689.568 
1.2053186e+3, 2.4362972e+2, -599320.8, -678393.3, -5428.054, -0.0029721293, -0.019927414, -598949.94, -46523.387 
1.2052855e+3, 2.5361985e+2, -517457.38, -587702.8, -5262.884, -0.0047172112, -0.022543333, -517065.28, -62542.016 
1.20525256e+3, 2.6360983e+2, -437983.3, -501725.22, -4066.0369, -0.005151883, -0.023306787, -437725.0, -81103.53 
1.20521985e+3, 2.7359977e+2, -356367.97, -410871.0, -3957.8335, -0.0033929413, -0.023816476, -356082.06, -97361.945 
1.2051873e+3, 2.8358936e+2, -280139.78, -331571.44, -2464.3547, -0.0035282283, -0.02222815, -280021.97, -119199.67 
1.2051548e+3, 2.935786e+2, -198113.22, -240904.58, -2209.8726, -0.006961157, -0.019954948, -197999.39, -135071.8 
1.20512255e+3, 3.0357188e+2, -107693.23, -79507.95, 371.81644, -0.00805033, -0.01944885, -79503.05, -79503.05 
1.2050907e+3, 3.135695e+2, -123493.37, -84663.414, 405.84903, -0.004952907, -0.025101306, -84659.17, -84659.17 
1.21572435e+3, 1.2376842e+2, -1565106.8, -1734604.9, -2731.3167, 0.0018859766, -0.021128884, -1565062.8, 162004.66 
1.21569164e+3, 1.3376023e+2, -1483296.5, -1642435.3, -3612.898, 0.007073113, -0.025156327, -1483214.5, 145933.31 
1.21565856e+3, 1.4375201e+2, -1404501.0, -1557256.1, -5580.235, -0.0032703069, -0.01701267, -1404297.5, 126930.695 
1.2156253e+3, 1.5374354e+2, -1323117.0, -1467576.3, -5683.3555, 0.00063726044, -0.021853909, -1322893.8, 110417.484 
1.21559195e+3, 1.6373491e+2, -1243566.8, -1381719.9, -7569.1606, 0.0022532528, -0.023469737, -1243153.3, 92242.57 
1.2155582e+3, 1.7372623e+2, -1161686.6, -1291157.3, -7645.828, -0.00025771942, -0.02169197, -1161236.8, 76244.125 
1.2155243e+3, 1.8371737e+2, -1082420.9, -1205882.9, -9037.985, -0.0013670187, -0.02024025, -1081762.8, 57804.957 
1.21549025e+3, 1.9370838e+2, -1000723.1, -1115433.9, -9082.947, -0.0000347008, -0.022051554, -1000008.4, 41647.51 
1.2154562e+3, 2.0369922e+2, -921349.2, -1029705.25, -9836.918, -0.00013400646, -0.022078428, -920463.4, 23282.195 
1.21542186e+3, 2.1368998e+2, -839689.06, -939143.5, -9761.984, -0.0025102233, -0.021508224, -838739.94, 7096.074 
1.2153877e+3, 2.2368059e+2, -760461.6, -853835.0, -9843.225, -0.0037526186, -0.020723548, -759435.25, -11507.071 
1.2153534e+3, 2.3367105e+2, -678413.8, -763102.56, -9839.356, -0.0029577808, -0.02229315, -677285.6, -27264.082 
1.2153192e+3, 2.4366134e+2, -599002.4, -677701.9, -9410.376, -0.0024445916, -0.022357935, -597892.8, -45776.133 
1.2152851e+3, 2.5365156e+2, -517118.13, -586958.8, -9259.286, -0.0025558982, -0.022311809, -515911.4, -61698.707 
1.215251e+3, 2.636416e+2, -437704.9, -501108.6, -8167.5347, -0.003529418, -0.02096186, -436669.66, -80359.4 
1.2152169e+3, 2.7363157e+2, -356113.9, -410313.9, -8077.909, -0.0059387367, -0.02047102, -354935.6, -96527.11 
1.2151832e+3, 2.836212e+2, -279546.13, -330306.8, -6449.7944, -0.0065960586, -0.020541778, -278739.44, -118229.2 
1.2151497e+3, 2.9361048e+2, -197509.31, -239580.14, -6173.5854, -0.004357761, -0.024173757, -196622.1, -134006.9 
1.2151163e+3, 3.036038e+2, -107504.195, -79036.09, -3822.972, -0.0043111527, -0.023744017, -78531.64, -78531.64 
1.2150832e+3, 3.1360155e+2, -123394.93, -84359.04, -3828.0762, -0.007895661, -0.019870361, -83987.18, -83987.18 
1.22573875e+3, 1.2380164e+2, -1560455.8, -1731830.9, 1415.6469, 0.0020646635, -0.01810106, -1560444.1, 166297.72 
1.2257047e+3, 1.3379323e+2, -1480226.0, -1642398.3, 645.12195, 0.0056828912, -0.031223413, -1480223.5, 148600.84 
1.2256705e+3, 1.4378504e+2, -1401140.9, -1556079.9, -1340.4119, -0.0020188827, -0.011758225, -1401129.3, 129775.29 
1.2256362e+3, 1.537765e+2, -1320010.1, -1466413.4, -1498.0052, 0.00078197964, -0.020333061, -1319994.9, 112993.54 
1.2256016e+3, 1.637678e+2, -1240862.1, -1380716.3, -3441.0427, 0.0018395782, -0.024147922, -1240777.5, 94296.016 
1.2255668e+3, 1.737591e+2, -1159632.4, -1290497.8, -3518.7412, -0.00025973382, -0.021765495, -1159537.8, 77620.945 
1.2255318e+3, 1.8375023e+2, -1080692.5, -1205047.4, -4872.867, -0.0012806756, -0.019788962, -1080501.8, 58743.945 
1.2254966e+3, 1.9374123e+2, -999352.44, -1114760.0, -4809.625, -0.0004309799, -0.021328358, -999152.3, 42181.625 
1.2254613e+3, 2.0373207e+2, -920213.94, -1029053.6, -5543.5, -0.0005273717, -0.021272393, -919932.3, 23491.357 
1.2254259e+3, 2.1372284e+2, -838733.4, -938603.2, -5584.71, -0.0021738834, -0.020787159, -838422.06, 7091.99 
1.2253905e+3, 2.2371344e+2, -759822.75, -853352.25, -5698.785, -0.003162382, -0.020216186, -759476.8, -11870.592 
1.2253551e+3, 2.3370391e+2, -678532.8, -763005.0, -5620.46, -0.0028996125, -0.022295183, -678160.5, -28460.922 
1.2253197e+3, 2.4369423e+2, -599543.94, -677423.25, -5175.8438, -0.0026942017, -0.022373574, -599201.44, -47407.047 
1.2252844e+3, 2.536845e+2, -518188.66, -586911.8, -5031.343, -0.0027297898, -0.021460934, -517822.25, -63932.344 
1.2252492e+3, 2.636746e+2, -439111.63, -501287.72, -3951.302, -0.00357104, -0.019775858, -438861.53, -82874.51 
1.2252141e+3, 2.7366462e+2, -357398.6, -410472.94, -3848.6326, -0.005847628, -0.01984834, -357120.97, -99036.086 
1.2251792e+3, 2.8365427e+2, -280908.88, -330115.16, -2252.0576, -0.006410993, -0.020342898, -280806.0, -120619.85 
1.2251444e+3, 2.9364362e+2, -199968.4, -239890.69, -2070.0706, -0.004044586, -0.024212059, -199861.36, -137570.94 
1.22511e+3, 3.0363703e+2, -110724.36, -79990.58, 232.89917, -0.0040910365, -0.023597535, -79988.82, -79988.82 
1.22507565e+3, 3.136348e+2, -126248.62, -85208.82, 384.33655, -0.008192676, -0.018756602, -85205.23, -85205.23 
1.23575315e+3, 1.23836026e+2, -1559798.1, -1730151.8, -3047.796, 0.0007447227, -0.014311101, -1559743.6, 166661.34 
1.235718e+3, 1.3382736e+2, -1481554.6, -1644978.5, -3524.1665, 0.004598101, -0.037207607, -1481478.6, 147011.28 
1.2356826e+3, 1.4381914e+2, -1401574.8, -1556904.6, -5309.6987, 0.0003867098, -0.009182484, -1401393.5, 129176.95 
1.2356471e+3, 1.5381053e+2, -1320347.8, -1467041.9, -5452.254, 0.0005931253, -0.01817573, -1320145.4, 112509.484 
1.2356114e+3, 1.638018e+2, -1241110.1, -1381160.4, -7454.4487, 0.00070180866, -0.022941703, -1240714.5, 94025.94 
1.2355753e+3, 1.7379305e+2, -1159886.1, -1290962.8, -7546.212, 0.0004884228, -0.022204787, -1159453.1, 77373.02 
1.2355392e+3, 1.8378414e+2, -1080648.5, -1204904.0, -8897.307, -0.00032448396, -0.020372702, -1080014.6, 58898.71 
1.2355028e+3, 1.9377519e+2, -999284.3, -1114574.1, -8848.357, -0.0019546568, -0.019784909, -998609.2, 42392.04 
1.23546645e+3, 2.0376603e+2, -920257.25, -1029106.94, -9586.728, -0.0024610695, -0.019228917, -919419.4, 23671.459 
1.23542994e+3, 2.1375678e+2, -838813.4, -938745.0, -9625.532, -0.0011473412, -0.020821242, -837894.7, 7286.8413 
1.2353933e+3, 2.2374737e+2, -759689.06, -853057.7, -9797.262, -0.0009080183, -0.020829948, -758672.1, -11398.374 
1.2353568e+3, 2.3373789e+2, -678387.3, -762684.56, -9730.401, -0.0023062832, -0.021055765, -677278.75, -27912.012 
1.2353202e+3, 2.4372824e+2, -599208.6, -676710.44, -9305.347, -0.0036863808, -0.02022397, -598107.0, -46645.836 
1.2352837e+3, 2.5371853e+2, -517847.28, -586190.06, -9171.888, -0.0050515123, -0.020044452, -516637.78, -63081.523 
1.2352473e+3, 2.6370868e+2, -438797.88, -500621.22, -8045.108, -0.0051482404, -0.019625608, -437768.1, -82115.06 
1.2352112e+3, 2.736987e+2, -357121.88, -409857.5, -7932.939, -0.0033366254, -0.021728873, -355954.4, -98203.664 
1.23517506e+3, 2.8368843e+2, -280481.4, -329172.94, -6492.968, -0.0032958258, -0.021462684, -279630.44, -119779.0 
1.2351391e+3, 2.936779e+2, -199540.19, -238944.61, -6331.662, -0.006054717, -0.020159436, -198547.78, -136593.16 
1.2351034e+3, 3.0367136e+2, -110247.44, -78959.586, -3915.668, -0.0073205004, -0.019162228, -78476.984, -78476.984 
1.235068e+3, 3.1366915e+2, -125795.98, -84207.89, -3750.5232, -0.006042994, -0.021715125, -83872.37, -83872.37 
1.2457677e+3, 1.238717e+2, -1555280.1, -1726307.5, 1121.7427, 0.0017072434, -0.013747096, -1555272.8, 170782.6 
1.24573134e+3, 1.3386282e+2, -1478999.0, -1646022.1, 652.9555, 0.002677093, -0.037858963, -1478996.5, 149145.88 
1.2456948e+3, 1.438545e+2, -1397869.3, -1555697.9, -1176.1788, 0.0014031109, -0.007917989, -1397860.4, 132363.64 
1.2456581e+3, 1.5384583e+2, -1317125.3, -1465878.4, -1279.9745, 0.00067266636, -0.017927708, -1317114.3, 115194.75 
1.2456212e+3, 1.6383706e+2, -1238324.0, -1379977.5, -3254.12, 0.00034989265, -0.022909667, -1238249.3, 96145.62 
1.245584e+3, 1.7382829e+2, -1157613.8, -1290037.8, -3258.8782, 0.0004977625, -0.0212821, -1157533.6, 78947.15 
1.2455468e+3, 1.8381938e+2, -1078824.9, -1204124.4, -4585.8916, -0.000118499825, -0.019259878, -1078657.4, 59910.73 
1.24550916e+3, 1.9381039e+2, -997953.75, -1114053.9, -4683.143, -0.0018371248, -0.019451905, -997765.2, 42891.035 
1.2454715e+3, 2.0380124e+2, -919193.06, -1028465.5, -5433.318, -0.0024299154, -0.019295968, -918923.56, 23822.365 
1.245434e+3, 2.13792e+2, -838100.1, -938282.0, -5328.4766, -0.0011685537, -0.020738134, -837817.5, 7019.0254 
1.2453962e+3, 2.237826e+2, -759269.8, -852545.25, -5465.3438, -0.0009950413, -0.020414196, -758950.7, -12022.072 
1.2453584e+3, 2.3377313e+2, -678493.4, -762432.9, -5364.231, -0.0025928072, -0.019918727, -678151.94, -29130.633 
1.2453207e+3, 2.4376352e+2, -599649.4, -676558.94, -4926.3013, -0.0038876773, -0.019038998, -599335.1, -48219.6 
1.2452831e+3, 2.5375384e+2, -518445.94, -586134.9, -4910.985, -0.004742745, -0.019924378, -518091.5, -64881.055 
1.2452455e+3, 2.63744e+2, -439634.1, -500406.94, -3849.2634, -0.004728979, -0.019980121, -439391.28, -84084.38 
1.24520816e+3, 2.7373406e+2, -358799.9, -410040.28, -3643.3264, -0.0033236886, -0.021641359, -358542.16, -101138.125 
1.24517076e+3, 2.837239e+2, -282526.47, -329347.8, -2158.013, -0.0034367132, -0.020851852, -282427.22, -122923.12 
1.24513365e+3, 2.9371342e+2, -201421.78, -239040.03, -1955.29, -0.006121667, -0.018844193, -201320.42, -139713.86 
1.2450968e+3, 3.0370694e+2, -112593.555, -79489.56, 404.71216, -0.007318492, -0.017983045, -79484.62, -79484.62 
1.2450602e+3, 3.1370476e+2, -129277.56, -85364.24, 406.0936, -0.005653929, -0.022186633, -85360.49, -85360.49 
1.2557824e+3, 1.2390848e+2, -1554433.9, -1724200.8, -3019.3335, 0.0037065635, -0.013850328, -1554380.3, 171314.69 
1.2557448e+3, 1.3389945e+2, -1480735.1, -1649444.4, -3376.797, 0.000050052793, -0.034543473, -1480667.6, 147115.97 
1.2557071e+3, 1.4389092e+2, -1398275.4, -1556466.6, -5255.8003, 0.0012713921, -0.0076895542, -1398101.0, 131766.16 
1.2556693e+3, 1.538822e+2, -1317429.1, -1466383.3, -5380.177, 0.00093641126, -0.01913828, -1317235.0, 114717.51 
1.2556313e+3, 1.6387342e+2, -1238444.9, -1380096.6, -7398.2627, 0.00055805413, -0.023741217, -1238059.5, 95979.11 
1.2555927e+3, 1.7386466e+2, -1157699.3, -1290141.9, -7423.0806, -0.00014325461, -0.019238196, -1157284.5, 78839.84 
1.2555543e+3, 1.8385576e+2, -1079031.5, -1204514.5, -8738.66, -0.0005733514, -0.016756967, -1078425.9, 59785.85 
1.2555157e+3, 1.9384669e+2, -998190.2, -1114523.1, -8829.673, -0.00038244817, -0.020135501, -997523.8, 42776.684 
1.2554768e+3, 2.0383753e+2, -919040.3, -1028129.0, -9548.26, -0.00084076397, -0.02110003, -918210.9, 24179.514 
1.255438e+3, 2.1382831e+2, -837939.06, -937899.56, -9451.288, -0.002154559, -0.020524373, -837053.3, 7427.3525 
1.255399e+3, 2.2381896e+2, -759058.9, -852060.94, -9698.859, -0.0031317887, -0.019084167, -758058.1, -11485.848 
1.2553601e+3, 2.3380953e+2, -678272.9, -761975.0, -9613.642, -0.0036601862, -0.018881902, -677182.9, -28518.117 
1.2553212e+3, 2.4379992e+2, -599513.25, -676287.5, -9107.862, -0.0034282634, -0.018724458, -598447.56, -47688.742 
1.2552823e+3, 2.5379023e+2, -518356.47, -585931.8, -9085.7, -0.0021398524, -0.020943774, -517156.2, -64302.418 
1.2552437e+3, 2.6378042e+2, -439196.66, -499471.4, -8141.1924, -0.0026093374, -0.0207259, -438116.4, -83166.54 
1.255205e+3, 2.737706e+2, -358334.5, -409045.28, -7955.1895, -0.0057196505, -0.019676851, -357115.8, -100069.7 
1.2551665e+3, 2.8376046e+2, -281995.72, -328213.7, -6399.43, -0.0066816867, -0.018612634, -281126.0, -121980.53 
1.2551282e+3, 2.9375005e+2, -200909.56, -237921.92, -6184.906, -0.004360247, -0.020127306, -199903.39, -138655.86 
1.2550901e+3, 3.0374363e+2, -112351.06, -78953.29, -4005.003, -0.0043165437, -0.01983983, -78479.734, -78479.734 
1.2550522e+3, 3.137415e+2, -129107.57, -84984.56, -4026.3152, -0.0073040384, -0.02008193, -84620.164, -84620.164 
1.2657972e+3, 1.2394647e+2, -1550361.5, -1721235.8, 971.57306, 0.004384368, -0.016369987, -1550355.9, 174966.83 
1.2657584e+3, 1.3393734e+2, -1477667.9, -1649804.1, 921.3853, -0.0017949115, -0.028829914, -1477663.0, 149749.2 
1.2657195e+3, 1.4392862e+2, -1394304.6, -1554975.6, -1033.7115, 0.0027013647, -0.0110203605, -1394298.0, 135199.69 
1.2656805e+3, 1.539199e+2, -1314493.0, -1465273.1, -1179.1727, 0.0011124881, -0.019083928, -1314483.8, 117099.305 
1.2656413e+3, 1.639111e+2, -1236136.9, -1379174.5, -3093.8965, 0.000061394065, -0.022123529, -1236070.0, 97599.29 
1.2656017e+3, 1.7390233e+2, -1155460.4, -1289275.1, -3187.2705, -0.00039965418, -0.01891914, -1155384.5, 80370.89 
1.2655619e+3, 1.8389338e+2, -1076835.1, -1203455.1, -4489.7085, -0.00056880363, -0.017019086, -1076676.3, 61166.816 
1.2655221e+3, 1.9388433e+2, -996372.2, -1113663.1, -4382.4214, -0.0001137119, -0.019857138, -996208.7, 43723.113 
1.265482e+3, 2.0387514e+2, -917761.1, -1027442.56, -5068.045, -0.0005996654, -0.02040571, -917527.44, 24494.264 
1.265442e+3, 2.1386594e+2, -837616.6, -937700.56, -5115.068, -0.002426006, -0.019575179, -837355.9, 6756.0493 
1.2654018e+3, 2.238566e+2, -759016.75, -851679.44, -5388.934, -0.0034441694, -0.018388255, -758704.44, -12500.907 
1.2653618e+3, 2.3384717e+2, -678015.2, -761484.06, -5275.578, -0.0033074352, -0.019218067, -677683.06, -29387.254 
1.2653217e+3, 2.438376e+2, -599465.8, -675903.2, -4771.48, -0.00290624, -0.019255653, -599169.1, -48779.535 
1.2652816e+3, 2.5382793e+2, -519187.6, -586004.6, -4642.0454, -0.0022279513, -0.020376725, -518866.63, -66382.414 
1.2652417e+3, 2.6381817e+2, -440409.6, -499455.8, -3673.1326, -0.0029310195, -0.019624433, -440181.97, -85602.07 
1.2652017e+3, 2.7380842e+2, -359571.25, -409029.5, -3582.0847, -0.0057363287, -0.018890498, -359313.16, -102637.46 
1.2651621e+3, 2.8379834e+2, -283376.25, -327914.13, -2071.0178, -0.0065537333, -0.01833107, -283280.16, -124505.67 
1.2651226e+3, 2.93788e+2, -203174.38, -238035.48, -1771.3466, -0.004231428, -0.020674326, -203084.6, -142208.8 
1.2650833e+3, 3.0378163e+2, -115386.555, -80100.24, 424.11472, -0.0041898536, -0.020270253, -80095.14, -80095.14 
1.2650442e+3, 3.1377953e+2, -131580.44, -86001.89, 320.7311, -0.007054096, -0.019006908, -85999.63, -85999.63 
1.275812e+3, 1.23985514e+2, -1550187.8, -1720684.5, -2740.1316, 0.0033958068, -0.017236225, -1550143.6, 174796.48 
1.2757722e+3, 1.3397637e+2, -1478638.8, -1651575.6, -2895.9473, -0.003039473, -0.021398429, -1478590.4, 148439.5 
1.2757324e+3, 1.4396742e+2, -1394679.0, -1555521.9, -5365.1377, 0.005251892, -0.016957078, -1394500.3, 134617.25 
1.2756918e+3, 1.5395875e+2, -1314761.9, -1465707.6, -5582.505, 0.0011218652, -0.01798958, -1314555.8, 116646.74 
1.2756513e+3, 1.6394995e+2, -1236377.0, -1379598.3, -7274.5337, -0.001057658, -0.018580101, -1236008.5, 97280.27 
1.2756106e+3, 1.7394109e+2, -1155748.6, -1289766.1, -7344.012, -0.00036618044, -0.01998936, -1155347.4, 80028.18 
1.2755696e+3, 1.8393211e+2, -1076767.1, -1203198.9, -8716.683, -0.00025807973, -0.01946538, -1076169.0, 61294.49 
1.2755285e+3, 1.939231e+2, -996273.75, -1113368.5, -8627.956, -0.0008580958, -0.018750599, -995641.44, 43910.33 
1.2754872e+3, 2.0391396e+2, -917858.06, -1027591.56, -9423.778, -0.001502823, -0.017623058, -917054.7, 24586.797 
1.2754461e+3, 2.1390471e+2, -837717.25, -937927.2, -9479.058, -0.0021052354, -0.018045276, -836828.5, 6903.5254 
1.2754047e+3, 2.2389536e+2, -758774.06, -851210.9, -9579.831, -0.0022429202, -0.018263487, -757791.7, -11968.022 
1.2753634e+3, 2.3388596e+2, -677786.9, -760990.6, -9455.063, -0.0017740792, -0.020746028, -676725.94, -28810.135 
1.275322e+3, 2.4387641e+2, -599174.5, -675258.2, -9150.662, -0.0023940734, -0.020489572, -598089.44, -48080.22 
1.2752807e+3, 2.5386685e+2, -518895.22, -585378.94, -9046.523, -0.004794855, -0.01835165, -517686.22, -65583.055 
1.2752396e+3, 2.6385713e+2, -440110.5, -498823.8, -8004.787, -0.0054988777, -0.01684653, -439038.72, -84840.305 
1.2751986e+3, 2.7384734e+2, -359301.22, -408436.84, -7906.376, -0.0035736028, -0.019173289, -358060.34, -101766.234 
1.2751576e+3, 2.8383732e+2, -282732.1, -326538.66, -6533.1523, -0.00338104, -0.019782677, -281778.53, -123386.15 
1.2751168e+3, 2.938271e+2, -202508.05, -236610.47, -6251.667, -0.0058316668, -0.020372858, -201398.11, -140905.52 
1.2750763e+3, 3.038208e+2, -115267.55, -79841.67, -3885.6812, -0.0069393585, -0.019204855, -79420.48, -79420.48 
1.2750362e+3, 3.138187e+2, -131554.03, -85941.27, -3956.107, -0.0050727734, -0.01883447, -85600.695, -85600.695 
1.285827e+3, 1.2402571e+2, -1545830.3, -1719494.5, 1229.4889, 0.004108355, -0.020093866, -1545821.6, 178724.66 
1.2857862e+3, 1.3401665e+2, -1474958.6, -1649904.3, 1305.1104, -0.0047024265, -0.013903816, -1474948.9, 151686.22 
1.285745e+3, 1.4400755e+2, -1391742.9, -1554346.4, -1129.9485, 0.0065972577, -0.022271805, -1391735.0, 136989.14 
1.2857033e+3, 1.539989e+2, -1311644.1, -1464486.0, -1373.5498, 0.001153408, -0.018434206, -1311631.9, 119177.17 
1.2856615e+3, 1.639901e+2, -1233432.9, -1378364.8, -2950.7546, -0.0015349888, -0.016580472, -1233372.9, 99522.484 
1.2856194e+3, 1.7398119e+2, -1153735.0, -1289022.6, -2942.685, -0.00019059808, -0.019407688, -1153671.1, 81311.51 
1.2855774e+3, 1.839722e+2, -1075277.5, -1202439.9, -4301.828, 0.000025497196, -0.01956383, -1075132.1, 61938.543 
1.2855351e+3, 1.9396318e+2, -995160.56, -1112798.6, -4326.286, -0.0012624221, -0.018309124, -995001.6, 44157.332 
1.2854926e+3, 2.0395404e+2, -916752.2, -1026904.75, -5117.258, -0.0019522333, -0.017088778, -916514.94, 24733.682 
1.28545e+3, 2.139448e+2, -836253.3, -937086.25, -4976.3115, -0.0016990547, -0.018117454, -836008.3, 7330.854 
1.2854075e+3, 2.2393546e+2, -757616.44, -850506.9, -5063.781, -0.0016215517, -0.018360212, -757341.2, -11910.413 
1.285365e+3, 2.3392606e+2, -678033.25, -760995.94, -5094.9336, -0.0019323366, -0.019971728, -677721.5, -30198.693 
1.2853225e+3, 2.4391656e+2, -599908.6, -675017.2, -4837.3745, -0.0028466908, -0.019491004, -599598.4, -49982.39 
1.2852798e+3, 2.5390702e+2, -519478.0, -585035.25, -4632.5337, -0.004842427, -0.01810603, -519152.28, -67442.78 
1.2852375e+3, 2.6389733e+2, -440935.06, -498645.88, -3525.9543, -0.005339435, -0.01699619, -440720.44, -86916.164 
1.2851952e+3, 2.738876e+2, -360889.7, -408670.9, -3366.2583, -0.0033811897, -0.01915432, -360653.7, -104754.12 
1.285153e+3, 2.838776e+2, -284536.38, -326652.72, -2047.755, -0.0031025892, -0.01952261, -284437.06, -126439.76 
1.285111e+3, 2.9386747e+2, -204040.38, -236591.58, -1979.8721, -0.0055838935, -0.019752037, -203920.39, -143823.5 
1.2850693e+3, 3.0386123e+2, -117363.555, -80133.85, 368.37714, -0.0068981773, -0.018594695, -80130.2, -80130.2 
1.2850279e+3, 3.138592e+2, -135368.47, -87121.94, 721.5351, -0.005170686, -0.018894209, -87111.15, -87111.15 
1.2958422e+3, 1.2406694e+2, -1546981.4, -1721841.3, -2487.6277, 0.005208504, -0.022473596, -1546946.0, 177196.27 
1.2958e+3, 1.3405801e+2, -1474631.1, -1649013.4, -2824.5454, -0.0067565, -0.006408836, -1474585.4, 151644.28 
1.2957577e+3, 1.4404882e+2, -1392047.1, -1554667.4, -5440.255, 0.006957878, -0.027046984, -1391865.3, 136454.44 
1.2957148e+3, 1.5404017e+2, -1311972.4, -1464933.8, -5701.316, 0.0011837949, -0.020002535, -1311760.1, 118644.32 
1.2956719e+3, 1.6403137e+2, -1233608.6, -1378571.0, -7336.09, -0.001568222, -0.015713044, -1233238.4, 99252.46 
1.2956285e+3, 1.7402247e+2, -1153875.4, -1289238.4, -7337.758, 0.00003300797, -0.01749384, -1153478.8, 81099.37 
1.2955852e+3, 1.8401346e+2, -1075372.0, -1202606.3, -8631.665, 0.00022408096, -0.01777571, -1074789.1, 61877.31 
1.2955417e+3, 1.9400442e+2, -995272.75, -1113006.1, -8652.175, -0.0014099103, -0.01843998, -994640.3, 44114.746 
1.2954979e+3, 2.0399526e+2, -916544.7, -1026436.44, -9380.326, -0.0020793453, -0.018415611, -915749.75, 25094.99 
1.2954542e+3, 2.1398604e+2, -836053.9, -936596.4, -9234.913, -0.0012749658, -0.019544883, -835212.7, 7722.3306 
1.2954104e+3, 2.2397672e+2, -757690.0, -850583.44, -9572.407, -0.0015575014, -0.0186157, -756713.9, -11687.506 
1.2953666e+3, 2.3396735e+2, -678115.7, -761157.7, -9630.009, -0.0035941317, -0.017185412, -677013.56, -29895.27 
1.2953228e+3, 2.4395786e+2, -599463.2, -674112.0, -9204.255, -0.0041634105, -0.016581094, -598345.06, -49133.813 
1.2952791e+3, 2.5394833e+2, -519011.3, -584054.5, -8994.142, -0.0026907828, -0.019478125, -517790.53, -66486.0 
1.2952355e+3, 2.6393872e+2, -440526.56, -497780.03, -8035.992, -0.0028239216, -0.019733308, -439420.03, -86021.22 
1.295192e+3, 2.739291e+2, -360513.44, -407878.53, -7896.9956, -0.0051313313, -0.018784264, -359231.5, -103738.16 
1.2951484e+3, 2.8391916e+2, -284255.56, -326054.1, -6478.7666, -0.005625764, -0.0176178, -283274.4, -125683.9 
1.2951052e+3, 2.93909e+2, -203804.53, -236054.83, -6397.936, -0.0036357027, -0.018728683, -202581.66, -142891.78 
1.2950623e+3, 3.0390283e+2, -116595.45, -78521.055, -4344.686, -0.004310253, -0.018294642, -78031.57, -78031.57 
1.2950194e+3, 3.139009e+2, -134570.7, -85450.32, -4007.9624, -0.0076172045, -0.019068085, -85125.445, -85125.445 
1.3058576e+3, 1.2410949e+2, -1542432.3, -1722304.1, 2053.1882, 0.0058633178, -0.022483043, -1542408.8, 181316.52 
1.3058142e+3, 1.3410068e+2, -1469901.1, -1645634.9, 1288.853, -0.00811398, -0.0036610458, -1469891.6, 155920.03 
1.3057706e+3, 1.4409149e+2, -1389444.1, -1553467.4, -1069.9047, 0.0076680053, -0.02857065, -1389437.1, 138464.64 
1.3057266e+3, 1.5408282e+2, -1309638.4, -1464015.3, -1283.593, 0.0013049302, -0.019709451, -1309627.8, 120358.89 
1.3056822e+3, 1.64074e+2, -1231226.3, -1377483.6, -2892.3599, -0.0017735123, -0.014653481, -1231169.0, 100903.93 
1.3056377e+3, 1.7406508e+2, -1151361.3, -1288099.3, -2855.0393, -0.00014126068, -0.017230183, -1151301.6, 82858.91 
1.305593e+3, 1.8405604e+2, -1073010.0, -1201610.4, -4140.6934, 0.0002519341, -0.017868472, -1072876.8, 63372.2 
1.3055483e+3, 1.9404699e+2, -993418.0, -1112295.4, -4171.9087, -0.0009811022, -0.018314479, -993271.8, 45066.04 
1.3055032e+3, 2.0403783e+2, -915161.8, -1025546.7, -4946.3823, -0.0017103712, -0.018193936, -914940.6, 25486.994 
1.3054584e+3, 2.1402863e+2, -835781.25, -936229.75, -4882.2827, -0.0016213844, -0.019328976, -835544.5, 6973.2007 
1.3054134e+3, 2.2401933e+2, -757789.1, -850226.5, -5170.293, -0.0020790023, -0.018371675, -757500.8, -12891.969 
1.3053681e+3, 2.3400998e+2, -677747.2, -760588.9, -4911.494, -0.003563207, -0.016817903, -677457.0, -30756.512 
1.3053231e+3, 2.4400052e+2, -599187.5, -673611.06, -4389.9004, -0.0038333896, -0.016229728, -598929.44, -50136.27 
1.3052782e+3, 2.53991e+2, -519679.34, -584047.0, -4422.7163, -0.0023175695, -0.019402422, -519376.88, -68490.62 
1.3052332e+3, 2.639814e+2, -441546.84, -497702.97, -3617.8381, -0.0025656521, -0.019718057, -441314.72, -88334.49 
1.3051884e+3, 2.7397183e+2, -361394.9, -407743.78, -3496.0554, -0.005315441, -0.018490745, -361132.7, -106058.36 
1.3051438e+3, 2.8396198e+2, -285323.5, -325497.4, -1982.25, -0.0059954207, -0.01717359, -285225.94, -128055.09 
1.3050993e+3, 2.9395193e+2, -206324.13, -236184.31, -1445.7526, -0.0036965583, -0.01834313, -206254.3, -146984.95 
1.3050549e+3, 3.039458e+2, -119972.484, -79840.79, 626.34283, -0.0041466006, -0.017970756, -79831.016, -79831.016 
1.3050109e+3, 3.139439e+2, -136690.95, -86298.12, 240.66508, -0.007381144, -0.018741919, -86296.96, -86296.96 
1.3158733e+3, 1.2415315e+2, -1544513.1, -1726425.0, -1989.0416, 0.0056416793, -0.02343633, -1544491.4, 178806.03 
1.3158286e+3, 1.3414444e+2, -1469208.9, -1643963.1, -3418.9814, -0.008970799, -0.0042377976, -1469142.0, 156240.83 
1.3157837e+3, 1.4413533e+2, -1389616.3, -1553566.3, -5455.855, 0.0085747875, -0.027570888, -1389434.9, 138037.28 
1.3157383e+3, 1.5412664e+2, -1309854.3, -1464300.8, -5641.6885, 0.0014110574, -0.01799182, -1309648.4, 119908.69 
1.3156927e+3, 1.6411781e+2, -1231314.4, -1377557.9, -7244.9033, -0.0021831857, -0.013421552, -1230956.4, 100687.32 
1.3156469e+3, 1.7410886e+2, -1151455.5, -1288181.8, -7212.4575, -0.0006541462, -0.018239453, -1151076.0, 82655.45 
1.315601e+3, 1.8409981e+2, -1073192.8, -1201876.0, -8588.105, 0.00010421786, -0.019404233, -1072622.1, 63197.99 
1.315555e+3, 1.9409074e+2, -993612.25, -1112607.5, -8616.862, -0.00011067349, -0.017971482, -992991.56, 44917.51 
1.3155088e+3, 2.0408158e+2, -915143.75, -1025445.3, -9470.016, -0.0009972549, -0.01668974, -914336.6, 25662.191 
1.3154626e+3, 2.1407239e+2, -835736.6, -936112.06, -9420.2295, -0.0026485806, -0.017746996, -834860.2, 7228.7104 
1.3154161e+3, 2.2406311e+2, -757295.6, -849190.3, -9578.786, -0.0031111895, -0.017744286, -756307.8, -12128.037 
1.3153699e+3, 2.340538e+2, -677244.44, -759507.9, -9324.624, -0.002095148, -0.018590303, -676200.7, -29929.8 
1.3153234e+3, 2.440444e+2, -599167.44, -673529.4, -8981.583, -0.002126587, -0.018090194, -598098.0, -49734.77 
1.3152772e+3, 2.540349e+2, -519714.3, -584112.1, -9031.492, -0.0036312845, -0.017962385, -518471.66, -68015.54 
1.315231e+3, 2.6402533e+2, -441239.6, -497066.5, -8110.5776, -0.0044115433, -0.017194644, -440085.16, -87535.28 
1.315185e+3, 2.7401578e+2, -361095.16, -407085.22, -7983.7544, -0.0040963613, -0.018242344, -359748.63, -105104.85 
1.3151391e+3, 2.8400597e+2, -284293.72, -323328.7, -6765.893, -0.0044765435, -0.018014133, -283154.25, -126414.76 
1.3150932e+3, 2.939961e+2, -205238.88, -233908.67, -6265.0596, -0.0058729583, -0.018475756, -203929.61, -145093.19 
1.3150476e+3, 3.0399007e+2, -120378.71, -80680.88, -3830.1199, -0.006429859, -0.017517522, -80314.73, -80314.73 
1.3150023e+3, 3.1398803e+2, -137303.7, -87538.98, -4154.5664, -0.004545998, -0.017756289, -87194.516, -87194.516 
1.3258892e+3, 1.241983e+2, -1540482.6, -1726440.6, 3092.9158, 0.0049765003, -0.01961036, -1540431.1, 182423.78 
1.3258429e+3, 1.3418958e+2, -1464702.6, -1640765.8, 775.0872, -0.0089011425, -0.008824673, -1464699.3, 160241.27 
1.3257967e+3, 1.4418058e+2, -1386659.8, -1552281.9, -822.6, 0.009246688, -0.023992509, -1386655.6, 140373.0 
1.32575e+3, 1.5417184e+2, -1306906.8, -1463155.9, -1005.10754, 0.0013992472, -0.017518532, -1306900.4, 122213.914 
1.3257033e+3, 1.6416296e+2, -1228511.4, -1376400.6, -2759.6267, -0.002453337, -0.014438552, -1228459.9, 102741.32 
1.3256562e+3, 1.74154e+2, -1149285.9, -1287347.4, -2838.243, -0.00063885975, -0.018405454, -1149227.5, 84061.695 
1.325609e+3, 1.8414494e+2, -1071337.3, -1200848.4, -4236.2017, 0.00018430871, -0.019063914, -1071198.9, 64179.05 
1.3255617e+3, 1.9413587e+2, -992158.06, -1111762.6, -4058.8906, -0.00031712133, -0.01759715, -992020.5, 45446.258 
1.3255142e+3, 2.0412673e+2, -913969.9, -1024768.8, -4815.0313, -0.0011893713, -0.016244419, -913761.06, 25795.43 
1.3254666e+3, 2.1411753e+2, -834645.75, -935505.5, -4765.599, -0.0024417797, -0.017159605, -834421.06, 7225.454 
1.3254191e+3, 2.2410826e+2, -756433.94, -848407.2, -4999.936, -0.0027791306, -0.017398342, -756162.94, -12425.6 
1.3253714e+3, 2.3409899e+2, -677305.3, -759173.4, -5017.6963, -0.0019449558, -0.019016327, -676998.94, -31170.625 
1.3253239e+3, 2.4408959e+2, -599603.06, -673227.56, -4709.838, -0.0021694207, -0.01852925, -599303.0, -51382.72 
1.3252762e+3, 2.5408015e+2, -519963.2, -583740.25, -4415.0054, -0.003959004, -0.017319517, -519659.0, -69646.28 
1.3252288e+3, 2.6407066e+2, -441826.03, -496668.94, -3309.2307, -0.004713978, -0.016221032, -441627.1, -89521.055 
1.3251814e+3, 2.7406108e+2, -363087.2, -407390.78, -3068.0198, -0.0038382371, -0.018046165, -362875.75, -108676.26 
1.3251342e+3, 2.840514e+2, -286456.66, -323517.2, -1961.9131, -0.0040587494, -0.018136604, -286353.1, -130058.42 
1.3250871e+3, 2.9404157e+2, -206115.58, -233487.17, -2026.5377, -0.005953213, -0.018314954, -205966.34, -147575.44 
1.3250402e+3, 3.0403554e+2, -121818.96, -80922.336, 333.19913, -0.0066028237, -0.017276235, -80919.62, -80919.62 
1.3249935e+3, 3.1403357e+2, -141434.58, -89172.99, 905.4003, -0.0042331214, -0.01754177, -89157.305, -89157.305 
1.335905e+3, 1.2424466e+2, -1541500.1, -1728208.1, -1216.9923, 0.004122369, -0.018779485, -1541492.3, 180908.45 
1.3358574e+3, 1.342359e+2, -1464406.1, -1639890.8, -4326.3438, -0.008242842, -0.016115554, -1464299.5, 160187.0 
1.3358098e+3, 1.4422707e+2, -1386940.8, -1552669.4, -5235.992, 0.009671109, -0.01845956, -1386775.5, 139797.64 
1.335762e+3, 1.5421823e+2, -1307229.6, -1463681.5, -5341.5, 0.0012731225, -0.017969403, -1307047.5, 121612.234 
1.3357139e+3, 1.6420929e+2, -1228810.4, -1376894.9, -7257.841, -0.002665467, -0.017098077, -1228455.5, 102291.83 
1.3356656e+3, 1.742003e+2, -1149595.9, -1287868.6, -7341.4243, -0.00026747733, -0.017892092, -1149207.1, 83628.18 
1.335617e+3, 1.8419126e+2, -1071170.5, -1200395.1, -8774.117, 0.00035275333, -0.017241271, -1070577.5, 64346.492 
1.3355684e+3, 1.941822e+2, -991945.56, -1111240.0, -8613.996, -0.0014337954, -0.017190656, -991326.75, 45685.906 
1.3355197e+3, 2.0417306e+2, -913937.9, -1024632.25, -9374.437, -0.0021398638, -0.016639257, -913149.6, 25952.637 
1.3354708e+3, 2.1416388e+2, -834644.1, -935439.5, -9323.129, -0.0012427738, -0.017412765, -833789.06, 7403.2324 
1.3354218e+3, 2.2415462e+2, -756471.4, -848434.94, -9624.882, -0.0013894101, -0.01726465, -755474.8, -12191.799 
1.3353729e+3, 2.3414533e+2, -677349.1, -759244.44, -9656.656, -0.0030029651, -0.018226178, -676225.9, -30851.816 
1.335324e+3, 2.4413598e+2, -599035.44, -672034.2, -9251.975, -0.0037786916, -0.017709352, -597881.06, -50415.33 
1.3352753e+3, 2.541266e+2, -519385.38, -582483.0, -8965.139, -0.00348137, -0.017390251, -518136.3, -68578.84 
1.3352264e+3, 2.6411718e+2, -441310.4, -495559.53, -8141.547, -0.0037215461, -0.016600536, -440114.9, -88464.914 
1.3351777e+3, 2.741077e+2, -362575.0, -406340.0, -7935.371, -0.004593115, -0.01785407, -361180.6, -107437.87 
1.3351291e+3, 2.8409803e+2, -286396.56, -323413.63, -6476.114, -0.0047964035, -0.017568657, -285296.28, -129458.766 
1.3350809e+3, 2.9408818e+2, -206152.97, -233535.73, -6506.4893, -0.0041296277, -0.017781893, -204685.58, -146751.72 
1.3350326e+3, 3.0408227e+2, -120852.86, -78888.8, -4719.4917, -0.004898364, -0.017139848, -78364.57, -78364.57 
1.3349846e+3, 3.1408042e+2, -140433.3, -87008.19, -4181.8237, -0.006693648, -0.018104626, -86682.836, -86682.836 
1.3459212e+3, 1.242926e+2, -1537217.8, -1725873.4, 4285.961, 0.003923691, -0.014681182, -1537120.5, 184810.48 
1.345872e+3, 1.3428366e+2, -1460922.3, -1638893.0, -170.28267, -0.0072550788, -0.022743927, -1460922.1, 163096.3 
1.3458231e+3, 1.4427489e+2, -1383417.0, -1551231.8, -771.15314, 0.0081044445, -0.013179757, -1383413.5, 142690.95 
1.345774e+3, 1.5426597e+2, -1304051.9, -1462413.1, -778.15906, 0.0010679098, -0.017674984, -1304048.1, 124143.71 
1.3457246e+3, 1.64257e+2, -1225940.4, -1375550.5, -2794.9646, -0.0022009218, -0.018744899, -1225888.3, 104391.51 
1.345675e+3, 1.7424802e+2, -1147333.4, -1286820.6, -2714.23, -0.00012690079, -0.017294195, -1147280.6, 85087.13 
1.3456252e+3, 1.8423899e+2, -1069302.1, -1199420.1, -4109.275, 0.0003098937, -0.015894918, -1069172.5, 65283.793 
1.3455752e+3, 1.9422992e+2, -990405.6, -1110435.8, -4144.5547, -0.0015113604, -0.017090928, -990262.7, 46282.42 
1.3455251e+3, 2.0422079e+2, -912623.9, -1023680.4, -4965.0166, -0.0021726913, -0.017159674, -912402.4, 26232.314 
1.345475e+3, 2.1421163e+2, -833811.56, -934727.44, -4765.3765, -0.0011655797, -0.017659094, -833587.06, 7137.4136 
1.3454248e+3, 2.2420238e+2, -755978.56, -847907.7, -4906.93, -0.0013410696, -0.017023372, -755717.4, -12902.378 
1.3453746e+3, 2.3419312e+2, -676993.3, -758816.1, -4743.7515, -0.0031544564, -0.017228737, -676719.25, -31813.402 
1.3453244e+3, 2.441838e+2, -599019.9, -671342.5, -4328.163, -0.0039358656, -0.016766256, -598761.75, -51764.598 
1.3452742e+3, 2.5417447e+2, -520651.34, -582411.56, -4207.1035, -0.0033150357, -0.017591573, -520366.06, -71277.59 
1.3452241e+3, 2.6416507e+2, -442810.1, -495660.1, -3459.2654, -0.0034650865, -0.01712102, -442584.63, -91404.06 
1.345174e+3, 2.7415568e+2, -362791.1, -405860.63, -3373.7385, -0.004640071, -0.017631955, -362528.4, -109255.62 
1.3451241e+3, 2.8414607e+2, -286701.44, -322643.7, -1821.3127, -0.0048895017, -0.017091278, -286609.38, -131242.39 
1.3450745e+3, 2.941363e+2, -209004.14, -234012.48, -1214.287, -0.0038294343, -0.017653009, -208945.33, -151482.64 
1.3450249e+3, 3.041304e+2, -124601.83, -80127.625, 574.1025, -0.004610784, -0.017102988, -80120.21, -80120.21 
1.3449755e+3, 3.1412858e+2, -142370.06, -87440.37, 329.1456, -0.0072396244, -0.01786793, -87438.4, -87438.4 
1.3559374e+3, 1.24341846e+2, -1537072.3, -1724988.1, -293.07343, 0.0058662333, -0.011590125, -1537071.9, 184376.47 
1.3558868e+3, 1.3433267e+2, -1462141.3, -1641207.3, -5299.8784, -0.0061335843, -0.02875279, -1461984.5, 161553.75 
1.3558364e+3, 1.4432392e+2, -1383631.8, -1551645.9, -5209.855, 0.005035177, -0.008108674, -1383470.4, 142153.72 
1.355786e+3, 1.5431492e+2, -1304294.0, -1462769.6, -5173.627, 0.00075915136, -0.016827492, -1304125.4, 123586.81 
1.3557354e+3, 1.6430593e+2, -1225934.3, -1375360.6, -7436.3105, -0.0012980489, -0.019568589, -1225565.1, 104235.22 
1.3556844e+3, 1.7429696e+2, -1147281.5, -1286602.4, -7380.2637, -0.00019525428, -0.016587218, -1146891.6, 84996.35 
1.3556334e+3, 1.8428794e+2, -1069467.8, -1199679.1, -8736.78, 0.00007119717, -0.0148694115, -1068884.1, 65092.516 
1.3555822e+3, 1.9427884e+2, -990604.0, -1110764.5, -8765.974, -0.00077117607, -0.017243983, -989967.9, 46097.957 
1.3555308e+3, 2.0426969e+2, -912371.7, -1023079.0, -9625.294, -0.0015293895, -0.017763678, -911541.06, 26614.266 
1.3554792e+3, 2.1426058e+2, -833538.2, -934089.6, -9445.497, -0.0020812238, -0.0178454, -832658.6, 7586.13 
1.3554278e+3, 2.2425139e+2, -755679.9, -847214.06, -9575.05, -0.0024521213, -0.016638253, -754689.0, -12354.214 
1.3553761e+3, 2.3424217e+2, -676718.56, -758158.3, -9422.301, -0.0025506073, -0.01604942, -675642.6, -31217.486 
1.3553245e+3, 2.4423288e+2, -598758.94, -670744.8, -9197.713, -0.0028688263, -0.015701713, -597602.3, -51086.24 
1.3552731e+3, 2.542236e+2, -520374.06, -581854.2, -9103.953, -0.0035241235, -0.017868621, -519054.28, -70447.07 
1.3552217e+3, 2.6421425e+2, -442529.88, -495112.3, -7994.02, -0.0039731055, -0.01774659, -441341.4, -90642.445 
1.3551703e+3, 2.7420482e+2, -362572.78, -405376.06, -7885.0444, -0.004110005, -0.0173448, -361166.44, -108375.56 
1.3551192e+3, 2.841953e+2, -285619.78, -320371.7, -6915.2905, -0.004494782, -0.016661791, -284294.25, -129410.055 
1.355068e+3, 2.941857e+2, -207867.58, -231636.73, -6360.658, -0.0051915986, -0.017958952, -206272.5, -149294.11 
1.3550171e+3, 3.041799e+2, -124906.625, -80741.695, -4090.3215, -0.0058304905, -0.017199196, -80366.07, -80366.07 
1.3549666e+3, 3.1417802e+2, -142870.5, -88377.53, -4282.5405, -0.005922842, -0.016708843, -88043.02, -88043.02 
1.3659537e+3, 1.243925e+2, -1533474.4, -1721389.6, 4636.441, 0.003709444, -0.013639876, -1533360.1, 187591.81 
1.3659017e+3, 1.3438317e+2, -1458998.0, -1641528.8, -678.1676, -0.0034589306, -0.029475357, -1458995.5, 164047.75 
1.36585e+3, 1.4437433e+2, -1379060.0, -1549786.1, -441.47513, 0.0034744416, -0.006211724, -1379058.9, 146071.05 
1.3657983e+3, 1.5436532e+2, -1301086.9, -1461506.8, -413.78137, 0.0005640857, -0.015975984, -1301085.8, 126132.625 
1.3657464e+3, 1.6435628e+2, -1223317.8, -1374031.9, -2750.3848, -0.0009254342, -0.019546019, -1223267.5, 106039.33 
1.3656941e+3, 1.7434733e+2, -1144736.5, -1285312.6, -2776.7092, -0.00031146707, -0.016908225, -1144681.6, 86713.016 
1.3656417e+3, 1.8433829e+2, -1067197.9, -1198483.0, -4128.036, -0.000102317106, -0.015113323, -1067068.3, 66414.98 
1.365589e+3, 1.9432919e+2, -988990.7, -1109911.4, -3982.9734, -0.0004985027, -0.01688062, -988859.6, 46712.715 
1.3655363e+3, 2.0432006e+2, -911189.75, -1022244.0, -4801.012, -0.001234973, -0.0171345, -910982.56, 26679.244 
1.3654834e+3, 2.1431094e+2, -832838.44, -933501.3, -4759.7056, -0.0023139138, -0.017420912, -832613.9, 7137.2046 
1.3654305e+3, 2.2430179e+2, -755309.2, -846370.75, -4928.122, -0.002793122, -0.016505625, -755043.25, -13202.393 
1.3653778e+3, 2.3429261e+2, -677068.3, -757663.9, -4680.486, -0.002375451, -0.016295156, -676797.4, -32866.68 
1.3653249e+3, 2.442834e+2, -599270.9, -670588.5, -4364.19, -0.0025267648, -0.015834661, -599004.8, -52983.547 
1.3652718e+3, 2.542741e+2, -519953.97, -581300.25, -4301.2476, -0.0035120354, -0.017326823, -519653.84, -71541.75 
1.365219e+3, 2.642648e+2, -442380.47, -494221.16, -3160.325, -0.0040705972, -0.017074186, -442188.53, -91985.09 
1.3651665e+3, 2.7425545e+2, -365040.9, -405753.7, -2759.1184, -0.0040224125, -0.01714991, -364854.78, -112560.016 
1.365114e+3, 2.8424603e+2, -288492.56, -320621.9, -1777.8484, -0.0045044785, -0.016520722, -288394.5, -134007.17 
1.3650616e+3, 2.942365e+2, -208640.45, -230882.89, -1665.4882, -0.0056625456, -0.017408386, -208516.44, -152035.84 
1.3650092e+3, 3.0423075e+2, -126032.4, -81063.22, 527.3787, -0.0061308164, -0.01652544, -81057.04, -81057.04 
1.3649572e+3, 3.142289e+2, -146439.17, -89972.516, 902.5515, -0.005411465, -0.016268307, -89958.09, -89958.09 
1.37597e+3, 1.2444447e+2, -1532539.5, -1718966.4, 50.67546, 0.002544426, -0.010016593, -1532539.5, 187903.08 
1.3759167e+3, 1.3443498e+2, -1460375.1, -1644150.6, -5270.0854, 0.00023176696, -0.02656056, -1460224.1, 162311.6 
1.3758637e+3, 1.4442597e+2, -1379354.5, -1550320.0, -5196.632, 0.002950969, -0.006554084, -1379196.8, 145427.11 
1.3758105e+3, 1.5441693e+2, -1301342.8, -1461959.9, -5178.3877, 0.000421161, -0.015084743, -1301176.0, 125536.49 
1.3757573e+3, 1.6440788e+2, -1223420.4, -1374141.1, -7403.2324, -0.0009967313, -0.018886695, -1223057.6, 105743.53 
1.3757037e+3, 1.743989e+2, -1144880.8, -1285454.4, -7438.347, -0.00051780074, -0.018052451, -1144488.3, 86401.0 
1.3756499e+3, 1.8438986e+2, -1067101.1, -1198118.9, -8903.705, -0.00032755177, -0.016305268, -1066498.9, 66478.914 
1.375596e+3, 1.9438082e+2, -988863.3, -1109538.3, -8776.311, -0.00064318365, -0.016013535, -988228.4, 46838.11 
1.3755418e+3, 2.043717e+2, -911186.25, -1022158.2, -9589.716, -0.0012462335, -0.015429441, -910363.6, 26792.117 
1.3754877e+3, 2.1436258e+2, -832854.4, -933469.1, -9557.226, -0.00203561, -0.016483495, -831954.56, 7290.514 
1.3754335e+3, 2.2435343e+2, -754849.44, -845377.94, -9779.497, -0.002573402, -0.016565863, -753805.06, -12470.375 
1.3753791e+3, 2.3434433e+2, -676572.3, -756635.3, -9559.154, -0.0026542102, -0.01770393, -675446.8, -32022.809 
1.375325e+3, 2.4433513e+2, -599060.9, -670141.3, -9014.321, -0.0028944314, -0.016932964, -597935.5, -52421.438 
1.3752708e+3, 2.5432593e+2, -519829.97, -580957.4, -8936.509, -0.0033924181, -0.015986295, -518550.28, -70945.78 
1.3752167e+3, 2.6431665e+2, -441662.9, -492669.6, -8313.961, -0.003884873, -0.015176819, -440341.94, -90646.72 
1.3751626e+3, 2.7430743e+2, -364256.44, -404139.22, -7963.2104, -0.0044742255, -0.017070564, -362725.25, -110939.57 
1.3751087e+3, 2.8429803e+2, -288128.5, -319905.4, -6410.4956, -0.0050360435, -0.0166996, -286884.03, -133006.53 
1.3750549e+3, 2.9428858e+2, -208361.31, -230305.3, -6254.631, -0.005416334, -0.015959568, -206703.78, -150733.48 
1.3750014e+3, 3.0428287e+2, -125453.42, -79850.5, -4663.0674, -0.0056947805, -0.0150573235, -79378.57, -79378.57 
1.374948e+3, 3.1428108e+2, -145907.44, -88742.69, -4330.962, -0.0059323004, -0.016739484, -88416.43, -88416.43 
1.3859864e+3, 1.24497704e+2, -1529023.5, -1716360.3, 4369.784, -0.00005152692, -0.01804624, -1528921.6, 190999.27 
1.3859318e+3, 1.3448822e+2, -1457001.9, -1643760.8, -300.031, 0.002420805, -0.021359146, -1457001.4, 165012.5 
1.3858774e+3, 1.4447907e+2, -1374902.0, -1548406.3, -470.4613, 0.0009730376, -0.010677913, -1374900.8, 149202.88 
1.385823e+3, 1.5447001e+2, -1297480.3, -1460309.8, -432.18552, 0.0006513699, -0.0153268855, -1297479.1, 128713.125 
1.3857684e+3, 1.6446097e+2, -1220313.4, -1372781.4, -2587.1274, 0.00006570476, -0.017390786, -1220269.5, 108011.52 
1.3857134e+3, 1.7445195e+2, -1142878.5, -1284668.5, -2675.0527, -0.00036443767, -0.017508833, -1142828.1, 87541.25 
1.3856582e+3, 1.8444291e+2, -1065416.5, -1196947.4, -4113.8286, -0.000669992, -0.016308118, -1065288.0, 67169.99 
1.385603e+3, 1.9443387e+2, -987329.3, -1108443.5, -3956.3428, -0.0010145972, -0.015911672, -987200.2, 47346.277 
1.3855475e+3, 2.0442478e+2, -909946.7, -1021269.06, -4708.5503, -0.0013980862, -0.015106084, -909747.9, 26887.625 
1.385492e+3, 2.144157e+2, -832029.3, -932808.44, -4538.2295, -0.0017044789, -0.015907178, -831825.4, 6899.3115 
1.3854362e+3, 2.2440657e+2, -754173.8, -844696.5, -4765.758, -0.002193487, -0.015997615, -753923.6, -13109.547 
1.3853808e+3, 2.3439746e+2, -675861.4, -755958.44, -4803.3384, -0.0027324248, -0.017497905, -675574.4, -32671.107 
1.385325e+3, 2.4438833e+2, -598897.56, -669250.56, -4284.571, -0.0031877996, -0.016898042, -598637.56, -53644.688 
1.3852695e+3, 2.5437915e+2, -521687.63, -581046.75, -3869.4832, -0.003569134, -0.015796304, -521436.47, -74353.74 
1.3852142e+3, 2.6436996e+2, -443786.2, -492927.1, -3158.2815, -0.0039777122, -0.014733216, -443584.03, -94411.24 
1.3851587e+3, 2.7436078e+2, -364314.72, -403433.56, -3122.7488, -0.0045612743, -0.016373575, -364067.0, -112804.34 
1.3851035e+3, 2.843515e+2, -288016.47, -318907.28, -1609.4272, -0.0049627097, -0.016114341, -287932.84, -134579.0 
1.3850483e+3, 2.943421e+2, -210908.69, -230608.77, -1116.1605, -0.004984826, -0.015902998, -210845.64, -155399.69 
1.3849933e+3, 3.0433643e+2, -128986.24, -81066.43, 460.3384, -0.0054133707, -0.015217603, -81062.01, -81062.01 
1.3849387e+3, 3.1433466e+2, -147650.9, -89150.02, 425.84015, -0.0066020247, -0.016742727, -89146.92, -89146.92 
1.3960028e+3, 1.2455229e+2, -1529131.6, -1716403.1, -408.9732, 0.0019175783, -0.01164288, -1529130.8, 190255.42 
1.3959473e+3, 1.3454273e+2, -1457600.1, -1644801.4, -4502.286, 0.003448776, -0.014877847, -1457491.9, 163987.84 
1.3958913e+3, 1.4453338e+2, -1375163.6, -1548712.9, -5336.2007, -0.0020860217, -0.017528353, -1374999.6, 148571.6 
1.3958356e+3, 1.5452439e+2, -1297755.9, -1460622.4, -5352.224, 0.0011133773, -0.016355159, -1297580.3, 128079.28 
1.3957796e+3, 1.6451533e+2, -1220586.0, -1373130.5, -7513.293, 0.001891692, -0.0152108595, -1220216.9, 107531.27 
1.3957231e+3, 1.7450629e+2, -1143113.5, -1285053.3, -7595.692, 0.000033057717, -0.01563888, -1142708.3, 87128.695 
1.3956666e+3, 1.8449724e+2, -1065210.8, -1196464.6, -8905.828, -0.0011328822, -0.0153444605, -1064609.3, 67316.336 
1.3956098e+3, 1.9448823e+2, -987141.1, -1107974.6, -8779.151, -0.0015839892, -0.016434899, -986506.6, 47507.34 
1.395553e+3, 2.0447916e+2, -909704.25, -1020689.25, -9609.026, -0.0017045401, -0.015874445, -908878.44, 27224.236 
1.3954963e+3, 2.144701e+2, -831774.7, -932238.1, -9459.284, -0.001388898, -0.015537455, -830891.75, 7299.685 
1.3954392e+3, 2.2446102e+2, -754200.9, -844708.7, -9624.211, -0.0017371104, -0.014797781, -753188.8, -12908.177 
1.3953821e+3, 2.344519e+2, -675950.25, -756059.3, -9657.824, -0.0026842155, -0.015869822, -674802.3, -32432.469 
1.3953252e+3, 2.4444279e+2, -598155.4, -667646.8, -9427.258, -0.0034610946, -0.015869388, -596899.2, -52440.03 
1.3952681e+3, 2.5443372e+2, -520875.84, -579364.0, -9051.8125, -0.004106264, -0.016628077, -519507.0, -72958.97 
1.3952114e+3, 2.644246e+2, -443547.75, -492457.22, -7837.579, -0.0044269846, -0.015595422, -442322.47, -93685.08 
1.3951546e+3, 2.7441546e+2, -364166.28, -403104.44, -7769.8364, -0.004398184, -0.015040685, -362673.13, -111946.18 
1.395098e+3, 2.8440621e+2, -287173.13, -317145.44, -6843.3955, -0.0044232006, -0.0148094315, -285684.56, -132867.05 
1.3950415e+3, 2.943969e+2, -210027.45, -228774.88, -6390.5205, -0.0045154598, -0.017398706, -208056.33, -153147.64 
1.3949852e+3, 3.0439132e+2, -128968.46, -81031.82, -4332.5796, -0.00543847, -0.017123144, -80643.39, -80643.39 
1.3949291e+3, 3.1438956e+2, -147768.22, -89313.32, -4341.4346, -0.0076910825, -0.016057517, -88992.64, -88992.64 
1.4060195e+3, 1.2460806e+2, -1525039.9, -1715700.6, 3428.9683, 0.00061303366, -0.020709524, -1524978.1, 193861.34 
1.4059627e+3, 1.3459867e+2, -1453063.4, -1642153.6, 682.21564, 0.004514035, -0.009942697, -1453060.9, 167870.53 
1.4059055e+3, 1.4458925e+2, -1371709.1, -1547272.4, -535.2193, -0.0029854048, -0.021371193, -1371707.5, 151316.28 
1.4058483e+3, 1.5458025e+2, -1295114.3, -1459651.6, -652.34045, 0.0008121216, -0.01644607, -1295111.8, 130000.375 
1.4057907e+3, 1.645712e+2, -1217932.3, -1371635.6, -2577.8264, 0.0019329977, -0.013543608, -1217889.1, 109311.64 
1.4057331e+3, 1.7456216e+2, -1140228.3, -1283461.0, -2396.614, 0.00006706487, -0.014635191, -1140188.1, 89101.27 
1.4056751e+3, 1.8455309e+2, -1062762.1, -1195343.3, -3701.376, -0.0010301931, -0.01484977, -1062658.9, 68719.34 
1.405617e+3, 1.9454405e+2, -985628.0, -1107362.6, -3844.9565, -0.0013997167, -0.016321281, -985506.7, 47960.125 
1.4055587e+3, 2.04535e+2, -908465.3, -1019719.94, -4780.925, -0.00160847, -0.0159606, -908260.25, 27295.314 
1.4055005e+3, 2.1452595e+2, -830720.1, -931355.44, -4662.79, -0.0016027341, -0.0155333895, -830504.56, 7139.5376 
1.4054422e+3, 2.245169e+2, -753659.56, -843961.56, -4745.816, -0.00203462, -0.014496767, -753410.8, -13677.886 
1.4053836e+3, 2.3450783e+2, -676498.0, -755867.9, -4450.791, -0.0027477925, -0.015054103, -676249.2, -34427.348 
1.4053254e+3, 2.4449876e+2, -598766.2, -667289.06, -4215.083, -0.0033440215, -0.0149356965, -598507.9, -54597.152 
1.405267e+3, 2.5448972e+2, -520567.25, -578578.9, -4238.878, -0.0038874072, -0.016113969, -520259.16, -74260.0 
1.4052087e+3, 2.6448065e+2, -443597.63, -491582.78, -2971.148, -0.00425323, -0.015422772, -443414.34, -95326.38 
1.4051506e+3, 2.7447158e+2, -366573.2, -403385.88, -2494.4922, -0.004452029, -0.015063568, -366404.94, -116228.1 
1.4050925e+3, 2.8446242e+2, -289850.75, -317247.72, -1435.8989, -0.0046368404, -0.014703565, -289775.72, -137509.16 
1.4050347e+3, 2.9445323e+2, -210806.17, -227970.27, -1134.4136, -0.0048196, -0.016798574, -210731.52, -156374.77 
1.404977e+3, 3.0444768e+2, -130172.91, -81397.305, 918.5951, -0.0056161704, -0.015841886, -81380.016, -81380.016 
1.4049195e+3, 3.1444594e+2, -150969.97, -90717.805, 1070.996, -0.007520696, -0.014026759, -90698.77, -90698.77 
1.4160362e+3, 1.2466518e+2, -1526144.3, -1717964.8, -1705.9762, 0.0016946235, -0.015836459, -1526129.1, 192150.81 
1.4159782e+3, 1.3465588e+2, -1452433.8, -1640596.3, -3630.1885, 0.0055675576, -0.0061388672, -1452363.8, 168007.17 
1.4159197e+3, 1.4464644e+2, -1372117.0, -1547771.1, -5585.6333, -0.002426072, -0.022931833, -1371939.6, 150523.84 
1.415861e+3, 1.5463741e+2, -1295480.9, -1460239.9, -5732.4814, -0.00012452005, -0.015874652, -1295281.6, 129270.28 
1.4158021e+3, 1.6462837e+2, -1217675.0, -1370998.5, -7413.7534, 0.00061069505, -0.012288201, -1217317.4, 109323.125 
1.415743e+3, 1.7461935e+2, -1140001.3, -1282825.5, -7275.198, -0.00022248282, -0.014316644, -1139631.6, 89097.26 
1.4156836e+3, 1.8461029e+2, -1063130.5, -1195947.5, -8762.362, -0.0006033027, -0.014679637, -1062554.9, 68262.79 
1.415624e+3, 1.946012e+2, -985984.0, -1108045.4, -8900.165, -0.0006696563, -0.015632572, -985338.5, 47568.3 
1.4155644e+3, 2.0459214e+2, -908287.75, -1019332.6, -9711.897, -0.0012284175, -0.015432459, -907444.75, 27550.904 
1.4155048e+3, 2.1458311e+2, -830561.2, -930968.8, -9609.719, -0.0023260827, -0.015830398, -829649.75, 7434.3164 
1.4154449e+3, 2.245741e+2, -753112.25, -842779.56, -9875.379, -0.003019474, -0.014931452, -752037.5, -12865.058 
1.4153852e+3, 2.345651e+2, -675914.9, -754669.8, -9605.154, -0.0029969504, -0.014876, -674760.4, -33499.77 
1.4153253e+3, 2.4455607e+2, -598680.7, -667127.6, -9155.59, -0.0029905925, -0.014028614, -597477.2, -54128.227 
1.4152656e+3, 2.5454706e+2, -520565.34, -578533.94, -9167.938, -0.0030783038, -0.0143267615, -519149.97, -73712.59 
1.4152059e+3, 2.6453805e+2, -442732.84, -489744.53, -8211.44, -0.003598854, -0.014282807, -441339.84, -93814.164 
1.4151463e+3, 2.7452907e+2, -365670.88, -401480.03, -7762.466, -0.004829722, -0.016458718, -364060.6, -114447.055 
1.415087e+3, 2.8452006e+2, -289209.63, -315916.06, -6238.91, -0.00571861, -0.015771614, -287824.06, -136121.86 
1.4150277e+3, 2.9451096e+2, -210202.66, -226726.77, -5911.892, -0.0060530747, -0.013961177, -208305.38, -154514.08 
1.4149687e+3, 3.045055e+2, -129889.31, -80847.0, -4327.5146, -0.0061312956, -0.011346042, -80468.06, -80468.06 
1.4149097e+3, 3.1450376e+2, -150739.83, -90210.78, -4214.9585, -0.006344924, -0.011083439, -89918.68, -89918.68 
1.4260533e+3, 1.2472381e+2, -1521566.3, -1718042.3, 3125.943, 0.0020739988, -0.0181231, -1521516.5, 196188.8 
1.4259939e+3, 1.347146e+2, -1447974.5, -1637649.8, 1719.8362, 0.0050577777, -0.005427969, -1447958.9, 171836.69 
1.425934e+3, 1.447052e+2, -1369040.6, -1546247.0, -584.0257, -0.0017216405, -0.021874, -1369038.6, 152849.05 
1.425874e+3, 1.5469615e+2, -1291916.6, -1458513.3, -523.09485, 0.00020671802, -0.014710852, -1291915.0, 132061.33 
1.4258134e+3, 1.6468708e+2, -1214500.4, -1369690.0, -2250.2542, 0.0006201444, -0.011639199, -1214467.8, 111597.38 
1.425753e+3, 1.7467803e+2, -1137982.4, -1282128.9, -2542.1953, -0.0005182404, -0.0149314515, -1137937.5, 90216.46 
1.4256921e+3, 1.8466894e+2, -1061274.4, -1194811.6, -4020.8442, -0.0009004424, -0.015223966, -1061153.4, 69089.53 
1.4256312e+3, 1.9465989e+2, -983904.25, -1106816.1, -3737.348, -0.0006347917, -0.014564878, -983790.7, 48541.043 
1.4255702e+3, 2.0465083e+2, -906552.44, -1018280.2, -4393.961, -0.0010617215, -0.013918669, -906379.9, 28040.64 
1.425509e+3, 2.146418e+2, -829885.4, -930467.3, -4352.7593, -0.0022435663, -0.015180484, -829697.4, 6811.5835 
1.4254479e+3, 2.246328e+2, -752655.9, -842073.56, -4729.6416, -0.002967893, -0.014772704, -752406.44, -13809.249 
1.4253867e+3, 2.3462383e+2, -675137.44, -753816.44, -4705.455, -0.002926825, -0.014788985, -674857.06, -34172.06 
1.4253254e+3, 2.4461485e+2, -598399.0, -666453.0, -4285.95, -0.0029920572, -0.013894464, -598130.2, -55357.168 
1.4252642e+3, 2.546059e+2, -521857.34, -578644.7, -3990.3396, -0.0032640928, -0.014067488, -521578.3, -76717.27 
1.4252031e+3, 2.645969e+2, -444437.3, -489605.72, -3047.8103, -0.003792104, -0.013839457, -444232.6, -97283.805 
1.4251421e+3, 2.7458805e+2, -366952.25, -401146.25, -2931.3645, -0.0048201224, -0.015773445, -366702.78, -117666.9 
1.4250813e+3, 2.845791e+2, -290470.3, -315040.38, -1162.1984, -0.005673258, -0.014937426, -290415.47, -139291.95 
1.4250207e+3, 2.9457012e+2, -212749.31, -226474.05, -487.79343, -0.006206158, -0.01306554, -212731.98, -159520.6 
1.4249602e+3, 3.045647e+2, -132874.9, -81962.76, 1231.1957, -0.0062829526, -0.012208631, -81933.0, -81933.0 
1.4248998e+3, 3.1456295e+2, -151492.72, -90320.46, 1247.6055, -0.0060901046, -0.01568956, -90295.03, -90295.03 
1.4360705e+3, 1.2478385e+2, -1523013.5, -1720758.3, -2304.2813, 0.0011427847, -0.01624541, -1522986.6, 194130.3 
1.4360097e+3, 1.3477464e+2, -1447842.3, -1637166.9, -3145.1526, 0.0034673281, -0.006772147, -1447790.0, 171417.22 
1.4359483e+3, 1.4476529e+2, -1369013.0, -1545972.8, -5501.094, -0.000996833, -0.019087005, -1368842.3, 152456.64 
1.4358868e+3, 1.5475626e+2, -1291887.6, -1458218.8, -5483.781, 0.0013761895, -0.01314842, -1291707.0, 131680.36 
1.4358251e+3, 1.6474715e+2, -1215143.4, -1370814.5, -7399.9497, 0.0015120588, -0.011379292, -1214792.4, 110684.125 
1.435763e+3, 1.7473798e+2, -1138608.6, -1283322.6, -7673.456, -0.00086261437, -0.016225616, -1138202.9, 89363.52 
1.4357008e+3, 1.8472889e+2, -1060842.6, -1193844.1, -8960.194, -0.0017836177, -0.016242735, -1060241.8, 69413.695 
1.4356384e+3, 1.9471993e+2, -983488.5, -1105828.5, -8716.927, -0.0011618652, -0.013187179, -982870.56, 48872.9 
1.435576e+3, 2.047109e+2, -906535.9, -1018136.9, -9609.158, -0.0010957659, -0.011627485, -905714.56, 28117.203 
1.4355133e+3, 2.1470188e+2, -829845.7, -930375.44, -9580.678, -0.0015773654, -0.013729597, -828940.75, 6979.5313 
1.4354506e+3, 2.2469287e+2, -752567.94, -841913.5, -9776.541, -0.002131967, -0.014083164, -751510.7, -13502.097 
1.435388e+3, 2.346839e+2, -675091.4, -753701.2, -9751.096, -0.0026336135, -0.014774029, -673899.9, -33803.45 
1.4353254e+3, 2.4467495e+2, -597821.3, -665238.5, -9608.511, -0.0033588486, -0.014446652, -596478.6, -54294.55 
1.4352627e+3, 2.5466606e+2, -521244.03, -577397.6, -9336.462, -0.004445913, -0.015210865, -519732.38, -75460.98 
1.4352001e+3, 2.6465717e+2, -444084.66, -488910.2, -8218.055, -0.0048527266, -0.013999695, -442625.53, -96267.05 
1.4351378e+3, 2.7464834e+2, -366673.28, -400555.03, -8095.903, -0.004560247, -0.01296657, -364838.2, -116393.2 
1.4350756e+3, 2.846395e+2, -289274.1, -312530.63, -6272.0264, -0.0046836943, -0.012270032, -287690.44, -137158.75 
1.4350136e+3, 2.9463065e+2, -211540.88, -223912.36, -5616.6045, -0.0053639933, -0.014400667, -209371.4, -156753.17 
1.4349517e+3, 3.046253e+2, -132685.47, -81610.234, -3495.5615, -0.00621267, -0.018511698, -81372.12, -81372.12 
1.43489e+3, 3.1462348e+2, -151353.17, -90100.3, -3461.68, -0.0072808, -0.027215257, -89905.28, -89905.28 
1.446088e+3, 1.2484548e+2, -1518712.5, -1719746.5, 2569.8584, 0.002512791, -0.013805047, -1518679.8, 197833.3 
1.4460257e+3, 1.3483626e+2, -1442995.1, -1634251.4, 2172.8943, 0.002951535, -0.008797503, -1442970.4, 175632.95 
1.445963e+3, 1.4482696e+2, -1365328.8, -1544495.0, -329.28586, -0.000021401123, -0.016788872, -1365328.1, 155366.42 
1.4458999e+3, 1.5481786e+2, -1288974.8, -1457131.0, -626.42896, 0.0010751452, -0.013093916, -1288972.5, 133811.19 
1.4458367e+3, 1.6480874e+2, -1212357.1, -1369446.1, -2510.7476, 0.001063451, -0.011645806, -1212317.0, 112556.086 
1.4457732e+3, 1.7479956e+2, -1135694.8, -1281907.6, -2296.2346, -0.00024318698, -0.014707442, -1135658.8, 91304.234 
1.4457095e+3, 1.8479048e+2, -1058338.0, -1192488.6, -3479.7583, -0.0010908353, -0.014659013, -1058247.8, 70804.27 
1.4456457e+3, 1.9478148e+2, -982215.0, -1105093.3, -3596.154, -0.0014571218, -0.013296068, -982109.9, 49030.31 
1.4455818e+3, 2.0477247e+2, -905539.3, -1017326.06, -4565.371, -0.0016265949, -0.012060626, -905353.2, 27875.242 
1.4455177e+3, 2.1476348e+2, -828370.44, -929352.6, -4391.864, -0.0015447284, -0.013096794, -828179.8, 7136.8877 
1.4454536e+3, 2.2475448e+2, -751412.06, -841101.0, -4499.9546, -0.0018981872, -0.013085795, -751186.9, -13782.0625 
1.4453895e+3, 2.3474552e+2, -675109.1, -753481.06, -4366.002, -0.0026336461, -0.014141892, -674866.7, -35374.1 
1.4453255e+3, 2.4473658e+2, -597956.4, -664794.06, -4292.8086, -0.0034436204, -0.014003497, -597681.75, -56101.72 
1.4452612e+3, 2.5472772e+2, -520681.1, -576620.56, -4283.0903, -0.0044297962, -0.014777209, -520355.06, -76688.0 
1.4451973e+3, 2.6471886e+2, -444073.4, -488505.38, -3477.7048, -0.004843194, -0.013354646, -443802.88, -98049.1 
1.4451334e+3, 2.747101e+2, -368498.38, -401061.8, -3400.8464, -0.00459025, -0.011956706, -368147.0, -120306.99 
1.4450698e+3, 2.847013e+2, -291985.94, -312279.9, -1573.1879, -0.0046133907, -0.012073431, -291864.72, -141938.69 
1.4450063e+3, 2.9469258e+2, -215518.22, -224277.52, -1191.006, -0.0051412694, -0.016101057, -215359.17, -163347.67 
1.444943e+3, 3.0468735e+2, -135888.33, -82611.76, 2015.4811, -0.0062261242, -0.015291744, -82535.62, -82535.62 
1.4448802e+3, 3.146857e+2, -150374.34, -89140.76, 2260.025, -0.007750626, -0.012262574, -89057.46, -89057.46 
1.4561054e+3, 1.2490846e+2, -1519038.5, -1720238.1, -2606.394, 0.0019658464, -0.0132541405, -1519004.8, 196891.17 
1.4560416e+3, 1.3489926e+2, -1442762.0, -1633504.5, -2833.82, 0.003124279, -0.011173266, -1442719.9, 175266.17 
1.4559776e+3, 1.4488998e+2, -1365988.5, -1545565.4, -5465.489, 0.0009834403, -0.014776189, -1365822.4, 154254.55 
1.455913e+3, 1.5488078e+2, -1289591.6, -1458210.8, -5733.766, -0.0003883197, -0.014121356, -1289396.9, 132770.27 
1.4558484e+3, 1.6487165e+2, -1212053.5, -1368656.1, -7565.7856, -0.00038789265, -0.012218055, -1211688.9, 112567.85 
1.4557834e+3, 1.7486256e+2, -1135394.1, -1281097.4, -7396.7246, 0.0010430649, -0.011071431, -1135019.6, 91326.05 
1.4557183e+3, 1.8485348e+2, -1058669.6, -1193015.4, -8768.992, 0.0006483373, -0.011157903, -1058099.8, 70334.914 
1.455653e+3, 1.948444e+2, -982498.4, -1105635.0, -8885.118, -0.0016577024, -0.014623632, -981860.56, 48663.082 
1.4555876e+3, 2.0483537e+2, -905240.6, -1016688.5, -9622.128, -0.0025876483, -0.014611927, -904415.94, 28196.092 
1.455522e+3, 2.1482643e+2, -828103.9, -928726.1, -9470.821, -0.0020858229, -0.013103371, -827220.25, 7479.4883 
1.4554566e+3, 2.2481748e+2, -751215.44, -840628.75, -9843.843, -0.0022155456, -0.011839846, -750144.5, -13357.107 
1.4553909e+3, 2.3480855e+2, -674873.4, -753000.4, -9713.234, -0.0029727446, -0.0129979765, -673683.9, -34808.914 
1.4553253e+3, 2.4479964e+2, -597849.2, -664616.5, -9431.528, -0.0033851, -0.012683308, -596542.5, -55580.21 
1.4552598e+3, 2.5479078e+2, -520602.3, -576477.5, -9422.772, -0.0034310434, -0.012827413, -519056.06, -76006.87 
1.4551944e+3, 2.6478192e+2, -443866.97, -488108.8, -9094.04, -0.003945198, -0.011972011, -442070.6, -96934.734 
1.455129e+3, 2.7477312e+2, -368269.53, -400646.25, -9036.751, -0.004996356, -0.0128305005, -365918.06, -118695.96 
1.4550637e+3, 2.847644e+2, -291212.03, -310693.3, -7037.378, -0.0055629085, -0.014179825, -288935.8, -139628.19 
1.4549987e+3, 2.9475576e+2, -214835.55, -222796.17, -6659.4116, -0.005717768, -0.017616244, -211057.61, -159665.44 
1.4549342e+3, 3.047508e+2, -135311.75, -81530.38, -1627.1088, -0.0065258597, -0.0023094807, -81481.2, -81481.2 
1.4548706e+3, 3.1474945e+2, -149756.86, -88041.61, -1402.8708, -0.0077596954, 0.02839279, -88009.734, -88009.734 
1.4661232e+3, 1.2497311e+2, -1513948.6, -1718484.1, 2811.518, 0.0029310728, -0.012598303, -1513910.0, 201352.38 
1.4660579e+3, 1.3496384e+2, -1438748.9, -1631978.9, 2177.814, 0.0024698367, -0.01186247, -1438724.4, 178628.81 
1.4659922e+3, 1.4495458e+2, -1362404.4, -1543800.5, -428.95303, 0.0008885644, -0.013210159, -1362403.4, 157040.67 
1.4659263e+3, 1.5494534e+2, -1286082.4, -1456468.4, -260.41788, 0.00020024563, -0.013164957, -1286081.9, 135452.5 
1.4658602e+3, 1.6493618e+2, -1209017.8, -1367187.4, -2083.5505, 0.000009420191, -0.011758748, -1208990.4, 114633.836 
1.4657937e+3, 1.749271e+2, -1133214.8, -1280051.3, -2261.902, 0.00037110096, -0.010874741, -1133179.9, 92533.33 
1.4657271e+3, 1.8491802e+2, -1056719.3, -1191987.0, -3661.0388, 0.0000043054356, -0.0107930135, -1056620.3, 71182.04 
1.4656603e+3, 1.9490892e+2, -980242.0, -1104460.6, -3501.311, -0.0012009015, -0.013721748, -980143.4, 49747.926 
1.4655934e+3, 2.048999e+2, -903406.25, -1015603.44, -4170.3267, -0.0019290644, -0.013674268, -903251.5, 28728.246 
1.4655265e+3, 2.1489096e+2, -827599.3, -928287.44, -4174.2627, -0.002164103, -0.012582398, -827426.56, 6640.825 
1.4654595e+3, 2.2488204e+2, -750868.5, -839881.4, -4528.6855, -0.0025175547, -0.011726731, -750638.7, -14483.789 
1.4653923e+3, 2.3487315e+2, -673973.25, -751986.25, -4262.232, -0.0029972733, -0.013224385, -673741.06, -35498.973 
1.4653254e+3, 2.4486427e+2, -597272.75, -664000.0, -3823.0127, -0.003273568, -0.011587535, -597054.44, -56725.465 
1.4652583e+3, 2.5485542e+2, -520979.44, -576323.06, -3656.569, -0.003308546, -0.00891561, -520738.9, -78323.44 
1.4651914e+3, 2.648466e+2, -444102.5, -488056.66, -3386.1099, -0.0039108507, -0.011691289, -443843.2, -99340.805 
1.4651243e+3, 2.7483767e+2, -366872.53, -399800.22, -3399.8425, -0.005146452, -0.02220062, -366525.16, -119935.62 
1.4650576e+3, 2.8482908e+2, -291531.1, -310404.9, -2446.7864, -0.0057926406, -0.013593071, -291219.06, -142545.13 
1.4649908e+3, 2.9482076e+2, -220753.08, -225231.9, -2535.543, -0.0058418363, 0.011537974, -219609.6, -168854.2 
1.4649253e+3, 3.0481493e+2, -142791.72, -90437.84, 4139.323, -0.006590728, -0.032513198, -90112.586, -90112.586 
1.4648609e+3, 3.1481278e+2, -145400.06, -88226.18, 413.4873, -0.007371249, -0.039115522, -88223.195, -88223.195 
1.476141e+3, 1.250392e+2, -1514990.8, -1720196.1, -2583.6392, 0.003956829, -0.010876061, -1514958.1, 199656.58 
1.4760742e+3, 1.3502981e+2, -1439600.9, -1633545.5, -3109.5781, 0.001149787, -0.011483974, -1439551.1, 177155.75 
1.4760071e+3, 1.4502051e+2, -1362125.9, -1543085.9, -5505.3457, 0.000005376411, -0.011918724, -1361958.5, 156839.48 
1.4759398e+3, 1.5501134e+2, -1285845.0, -1455747.5, -5392.152, 0.0021819843, -0.0108044455, -1285674.1, 135213.72 
1.475872e+3, 1.6500217e+2, -1209489.0, -1367925.0, -7399.184, 0.0015808352, -0.010592149, -1209144.1, 113833.49 
1.4758042e+3, 1.7499298e+2, -1133615.3, -1280759.9, -7566.907, -0.0018532813, -0.013261418, -1133227.1, 91840.414 
1.4757359e+3, 1.8498388e+2, -1056507.3, -1191455.6, -8824.243, -0.0024432628, -0.012675577, -1055932.6, 71224.03 
1.4756677e+3, 1.9497488e+2, -980051.06, -1103930.1, -8693.845, -0.00022525257, -0.011012197, -979443.9, 49801.16 
1.4755994e+3, 2.0496587e+2, -903506.6, -1015699.8, -9582.355, -0.00006203454, -0.010017042, -902694.06, 28639.166 
1.4755309e+3, 2.149569e+2, -827639.1, -928351.7, -9587.461, -0.00196987, -0.011713918, -826734.56, 6686.755 
1.4754623e+3, 2.2494799e+2, -750400.2, -838916.25, -9701.096, -0.0028885913, -0.012564917, -749349.44, -13840.767 
1.4753938e+3, 2.3493913e+2, -673545.3, -751051.7, -9459.266, -0.0028051403, -0.014540079, -672407.56, -34812.164 
1.4753254e+3, 2.4493033e+2, -596970.3, -663314.4, -9214.568, -0.0031694989, -0.010650691, -595714.25, -56032.66 
1.4752568e+3, 2.5492162e+2, -520659.88, -575626.06, -9061.938, -0.00407335, -0.003419127, -519204.4, -77437.18 
1.4751883e+3, 2.649127e+2, -444052.0, -487981.25, -8595.892, -0.004769831, -0.012483679, -442429.9, -98575.31 
1.47512e+3, 2.7490363e+2, -366815.6, -399735.4, -8612.585, -0.0052023944, -0.038962916, -364698.5, -118755.1 
1.4750515e+3, 2.848952e+2, -291699.7, -310793.75, -9361.889, -0.005451435, -0.009923098, -287875.47, -139849.48 
1.474983e+3, 2.948874e+2, -220984.56, -225723.25, -9437.091, -0.005580083, 0.06943649, -213623.92, -163521.52 
1.4749162e+3, 3.0487972e+2, -149709.38, -104969.29, 3012.9404, -0.0065418384, -0.10665792, -104767.305, -104767.305 
1.4748514e+3, 3.1487754e+2, -138602.47, -74366.07, -400.83194, -0.005508214, -0.013918473, -74363.57, -74363.57 
1.486159e+3, 1.2510689e+2, -1510672.6, -1718191.3, 2546.266, 0.0033565336, -0.010373114, -1510641.5, 203310.1 
1.4860907e+3, 1.3509747e+2, -1434849.4, -1631285.3, 2588.5725, 0.0017993668, -0.01074641, -1434815.3, 181228.48 
1.486022e+3, 1.4508815e+2, -1357942.1, -1541421.4, 190.05342, 0.0007627558, -0.010770106, -1357941.9, 160193.28 
1.4859532e+3, 1.5507892e+2, -1282831.4, -1454630.0, -161.18002, 0.0015644277, -0.0103657115, -1282831.1, 137394.34 
1.4858839e+3, 1.6506971e+2, -1206785.1, -1366617.3, -2197.7524, 0.0010222488, -0.010292592, -1206754.9, 115560.73 
1.4858145e+3, 1.7506053e+2, -1130746.9, -1279348.5, -2076.987, -0.0010147113, -0.012626828, -1130717.9, 93687.836 
1.4857449e+3, 1.8505144e+2, -1054018.4, -1190138.4, -3297.1685, -0.0015592513, -0.012250098, -1053938.6, 72556.27 
1.4856751e+3, 1.9504242e+2, -978583.6, -1103085.0, -3325.0908, -0.00055668043, -0.011107723, -978494.9, 50088.41 
1.4856052e+3, 2.0503344e+2, -902249.0, -1014846.0, -4163.887, -0.00063946325, -0.009458166, -902095.25, 28576.107 
1.4855352e+3, 2.1502446e+2, -825936.25, -927279.2, -3990.6064, -0.0018352113, -0.00945474, -825779.4, 6979.8384 
1.4854652e+3, 2.2501555e+2, -749154.9, -838024.8, -4150.585, -0.0025960254, -0.011430679, -748961.5, -14114.899 
1.4853953e+3, 2.3500668e+2, -673739.3, -750846.3, -4158.3164, -0.0029196155, -0.017184742, -673515.7, -36582.19 
1.4853252e+3, 2.4499793e+2, -597507.2, -662725.4, -3878.1152, -0.0033611956, -0.011014385, -597277.4, -58258.313 
1.4852552e+3, 2.5498936e+2, -521057.5, -574971.25, -3515.9995, -0.004050588, 0.0041940017, -520829.16, -79725.82 
1.4851853e+3, 2.6498044e+2, -444275.7, -487179.3, -2452.9753, -0.004777808, -0.011572187, -444135.9, -100945.195 
1.4851154e+3, 2.7497122e+2, -366976.78, -398912.0, -1923.9164, -0.005343589, -0.05830765, -366861.28, -121580.43 
1.4850454e+3, 2.8496304e+2, -290161.66, -310076.97, -3310.9624, -0.0052460115, -0.008867267, -289625.63, -142264.44 
1.484975e+3, 2.949558e+2, -214922.08, -223138.77, -3060.4106, -0.0046346835, 0.12852588, -213907.48, -164475.34 
1.4849073e+3, 3.049458e+2, -164521.16, -135540.55, 8227.473, -0.007990961, -0.17312983, -133367.72, -133367.72 
1.4848414e+3, 3.1494322e+2, -137444.72, -44067.367, -2913.624, -0.00879418, 0.08878986, -43976.543, -43976.543 
1.4961772e+3, 1.2517595e+2, -1510451.5, -1717517.4, -2617.5068, 0.0016132392, -0.0103881, -1510418.4, 202856.33 
1.4961073e+3, 1.351666e+2, -1434666.3, -1630575.0, -2617.664, 0.0037154031, -0.009777833, -1434631.3, 180735.16 
1.4960371e+3, 1.4515725e+2, -1358789.8, -1542852.1, -5281.549, 0.0024373569, -0.009724292, -1358638.4, 158819.75 
1.4959666e+3, 1.5514791e+2, -1283535.4, -1455971.4, -5578.2236, -0.0010187039, -0.01126413, -1283355.1, 136194.42 
1.495896e+3, 1.6513868e+2, -1206609.6, -1366177.3, -7407.8857, -0.001041199, -0.01049946, -1206266.4, 115373.61 
1.495825e+3, 1.7512953e+2, -1130614.3, -1278903.5, -7323.7266, 0.0020513742, -0.009731177, -1130253.4, 93476.13 
1.495754e+3, 1.8512042e+2, -1054210.6, -1190363.5, -8743.421, 0.0016271431, -0.0101590175, -1053651.4, 72167.36 
1.4956826e+3, 1.9511135e+2, -978683.56, -1103231.4, -8776.441, -0.002029229, -0.013456018, -978068.2, 49839.61 
1.4956112e+3, 2.0510237e+2, -901978.44, -1014244.0, -9430.692, -0.0031586215, -0.011264939, -901191.75, 28803.953 
1.4955398e+3, 2.1509351e+2, -825702.75, -926701.4, -9289.345, -0.0017947698, -0.0059445724, -824855.5, 7227.224 
1.4954683e+3, 2.2508457e+2, -749263.25, -838173.4, -9710.742, -0.0018307475, -0.00867727, -748215.0, -14044.93 
1.4953966e+3, 2.3507562e+2, -673778.4, -750928.9, -9730.579, -0.0033630263, -0.021077178, -672570.0, -36312.203 
1.4953251e+3, 2.4506696e+2, -596774.9, -661240.2, -9232.134, -0.0038995657, -0.012434856, -595478.8, -57136.027 
1.4952536e+3, 2.5505856e+2, -520359.2, -573515.8, -8889.975, -0.0034462477, 0.013919634, -518911.8, -78486.766 
1.4951822e+3, 2.650497e+2, -443219.1, -484969.38, -7660.739, -0.0040867613, -0.009135597, -441857.8, -99345.84 
1.495111e+3, 2.7504042e+2, -365926.6, -396707.47, -7179.3955, -0.00564761, -0.08024482, -364334.44, -119731.32 
1.4950395e+3, 2.8503248e+2, -289893.2, -309637.56, -9038.4375, -0.0052975477, -0.010116709, -286380.56, -139699.92 
1.4949676e+3, 2.950259e+2, -215101.33, -223662.7, -8676.291, -0.003218171, 0.18909113, -209707.19, -160961.8 
1.494898e+3, 3.0501303e+2, -186870.55, -181955.16, 2534.9539, -0.011230784, -0.23111314, -180882.1, -180882.1 
1.4948308e+3, 3.1500766e+2, -114951.734, 2667.807, -7959.7754, -0.0089676995, 0.061545115, 3204.0315, 3204.0315 
1.5061954e+3, 1.2524675e+2, -1505376.0, -1715522.8, 3006.1433, 0.0027043973, -0.009826353, -1505333.0, 207248.08 
1.506124e+3, 1.3523732e+2, -1430976.8, -1629206.9, 2526.8357, 0.0029388054, -0.009751099, -1430944.5, 183728.77 
1.5060523e+3, 1.4522795e+2, -1355334.6, -1541271.0, -56.93222, 0.0018414573, -0.009364919, -1355334.6, 161430.64 
1.5059803e+3, 1.5521859e+2, -1279607.6, -1454137.9, 129.50291, -0.00003999622, -0.010668354, -1279607.5, 139249.44 
1.505908e+3, 1.6520934e+2, -1203082.0, -1364592.9, -1630.2852, -0.00017283882, -0.009869103, -1203065.5, 117882.04 
1.5058357e+3, 1.7520018e+2, -1128273.5, -1277859.1, -1783.2837, 0.0014100221, -0.009000976, -1128252.3, 94785.02 
1.505763e+3, 1.8519105e+2, -1052206.3, -1189331.1, -3183.2961, 0.00085419166, -0.0092573585, -1052132.4, 72994.31 
1.5056902e+3, 1.9518198e+2, -976375.1, -1102035.5, -3102.882, -0.0017473507, -0.012343068, -976298.56, 50917.176 
1.5056172e+3, 2.0517299e+2, -900059.06, -1013149.3, -3804.6462, -0.002697588, -0.010835225, -899931.2, 29372.521 
1.5055442e+3, 2.1516411e+2, -824941.06, -926159.8, -3829.3818, -0.0019108916, -0.006944344, -824796.4, 6594.4653 
1.5054712e+3, 2.251552e+2, -748742.0, -837757.06, -4197.501, -0.0020253044, -0.008669004, -748544.5, -15066.369 
1.505398e+3, 2.3514627e+2, -672566.94, -750156.1, -4057.8967, -0.0032692763, -0.017814996, -672355.3, -36789.758 
1.5053251e+3, 2.451376e+2, -595830.44, -660467.2, -3776.9932, -0.003709452, -0.010717512, -595610.5, -57959.95 
1.505252e+3, 2.5512916e+2, -520791.0, -573386.25, -3916.97, -0.003185648, 0.00963327, -520500.9, -80767.65 
1.5051791e+3, 2.651204e+2, -444628.47, -484220.84, -2865.8416, -0.004098603, -0.009586153, -444422.13, -102602.98 
1.5051064e+3, 2.7511132e+2, -369219.1, -396894.7, -2550.481, -0.0063279932, -0.06763812, -368986.0, -125078.14 
1.5050334e+3, 2.8510338e+2, -288469.16, -308216.0, -3035.873, -0.0056136497, -0.00855273, -288012.97, -142027.3 
1.5049605e+3, 2.950965e+2, -202612.84, -217955.06, -2424.608, -0.002073171, 0.15706903, -202238.78, -154185.56 
1.504889e+3, 3.050831e+2, -201308.38, -215260.67, 6757.002, -0.0116008185, -0.19741124, -198572.48, -198572.48 
1.5048194e+3, 3.1507453e+2, -118541.37, 41283.684, 3405.503, -0.00348041, 0.004725101, 41356.21, 41356.21 
1.5162139e+3, 1.25319e+2, -1506348.0, -1717131.0, -2581.5505, 0.005203178, -0.008774781, -1506316.4, 205556.45 
1.5161408e+3, 1.3530946e+2, -1431723.1, -1630637.6, -2987.4456, 0.00026807524, -0.010311628, -1431678.4, 182288.02 
1.5160677e+3, 1.4530006e+2, -1355089.6, -1540662.0, -5291.3013, -0.00022641994, -0.009370831, -1354938.9, 161119.73 
1.515994e+3, 1.5529075e+2, -1279463.5, -1453546.5, -5161.303, 0.0033884787, -0.009021061, -1279310.5, 138839.17 
1.5159205e+3, 1.6528149e+2, -1203564.9, -1365291.0, -7186.3696, 0.0025637636, -0.008662277, -1203246.1, 116994.33 
1.5158463e+3, 1.7527226e+2, -1128607.5, -1278446.1, -7326.739, -0.0020902003, -0.009881024, -1128250.1, 94080.81 
1.515772e+3, 1.8526314e+2, -1052121.9, -1189097.8, -8507.731, -0.0028402763, -0.00912244, -1051595.4, 72824.945 
1.5156977e+3, 1.9525409e+2, -976329.94, -1101818.3, -8464.934, -0.00009459192, -0.008452452, -975761.5, 50747.49 
1.5156233e+3, 2.0524509e+2, -900183.44, -1013304.3, -9375.312, -0.000005903025, -0.008698347, -899411.7, 29185.498 
1.5155487e+3, 2.1523611e+2, -824981.1, -926243.25, -9420.992, -0.0022602687, -0.011698932, -824112.06, 6573.0327 
1.5154742e+3, 2.2522725e+2, -748489.8, -837264.44, -9562.691, -0.0030677642, -0.010721804, -747471.44, -14699.351 
1.5153995e+3, 2.3521847e+2, -672347.3, -749681.06, -9456.468, -0.0027892939, -0.008137967, -671207.75, -36349.63 
1.515325e+3, 2.4520974e+2, -596103.2, -661021.0, -9507.944, -0.0029612659, -0.006454651, -594739.25, -57795.484 
1.5152504e+3, 2.55201e+2, -520992.13, -573841.5, -9664.556, -0.003314918, -0.007470576, -519280.22, -80251.195 
1.5151758e+3, 2.6519245e+2, -443846.8, -482671.7, -8577.703, -0.004861517, -0.011902376, -442036.16, -100923.01 
1.5151015e+3, 2.7518395e+2, -368483.4, -395402.2, -8220.507, -0.0075574596, -0.021878157, -366171.53, -122975.26 
1.5150274e+3, 2.8517568e+2, -287664.88, -306715.22, -5737.492, -0.006295826, -0.005926832, -286070.34, -140792.9 
1.5149537e+3, 2.951676e+2, -202483.08, -217922.98, -5352.2534, -0.0012489244, 0.032614592, -200809.19, -153452.64 
1.51488e+3, 3.0515596e+2, -211868.52, -236885.98, -6996.9453, -0.009065558, -0.06338109, -210044.58, -210044.58 
1.5148066e+3, 3.1514567e+2, -106956.74, 65939.65, -9731.19, -0.008537534, 0.10190678, 66485.63, 66485.63 
1.5262325e+3, 1.2539297e+2, -1502066.8, -1715328.3, 2876.3936, 0.0045324536, -0.007651235, -1502027.9, 209120.22 
1.526158e+3, 1.3538338e+2, -1426854.8, -1628519.3, 2911.8816, 0.001315951, -0.009610374, -1426812.8, 186429.36 
1.5260832e+3, 1.4537394e+2, -1350696.1, -1538665.1, 575.40436, 0.00065399276, -0.00884096, -1350694.4, 164640.27 
1.5260081e+3, 1.553646e+2, -1276730.1, -1452345.8, 381.85233, 0.0025183344, -0.008225531, -1276729.3, 140696.75 
1.5259326e+3, 1.6535532e+2, -1201190.8, -1364085.9, -1514.1584, 0.0017251087, -0.007825104, -1201176.6, 118340.28 
1.525857e+3, 1.7534609e+2, -1125594.4, -1276905.4, -1366.3743, -0.0015286035, -0.009325194, -1125582.1, 96025.4 
1.5257813e+3, 1.8533695e+2, -1049447.4, -1187901.9, -2503.737, -0.0021024162, -0.008575768, -1049402.1, 74294.89 
1.5257055e+3, 1.953279e+2, -974657.1, -1101075.5, -2596.402, -0.00010311199, -0.0075656264, -974603.8, 51182.043 
1.5256295e+3, 2.0531887e+2, -898658.6, -1012609.3, -3479.09, -0.00018652425, -0.007976865, -898552.5, 29321.764 
1.5255532e+3, 2.1530987e+2, -822795.7, -925209.1, -3480.2505, -0.002213088, -0.011641734, -822677.5, 7284.9126 
1.5254772e+3, 2.25301e+2, -746557.25, -836314.06, -3706.9685, -0.0029487545, -0.009588273, -746404.44, -14355.019 
1.525401e+3, 2.3529223e+2, -671594.5, -749310.2, -3822.3706, -0.0026132744, -0.004217407, -671406.94, -37271.59 
1.5253249e+3, 2.4528341e+2, -595667.75, -661154.6, -3928.5686, -0.003074079, -0.006973601, -595432.9, -59211.2 
1.5252486e+3, 2.5527456e+2, -519589.7, -573492.94, -4009.915, -0.0041205892, -0.018701304, -519293.03, -80984.58 
1.5251727e+3, 2.6526606e+2, -442784.97, -483059.75, -3749.445, -0.0048663295, -0.009283419, -442438.88, -102047.01 
1.5250967e+3, 2.7525783e+2, -368207.63, -396116.97, -4624.712, -0.005393987, 0.015563357, -367461.25, -124988.74 
1.5250215e+3, 2.852491e+2, -289969.63, -307065.72, -622.3296, -0.0062578, -0.00903976, -289947.0, -145389.28 
1.5249467e+3, 2.9524004e+2, -211369.67, -221952.38, -800.23596, -0.0070169442, -0.07556854, -211309.5, -164662.94 
1.524871e+3, 3.0523115e+2, -211266.83, -228103.95, -1617.5408, -0.0034627058, 0.0641286, -211112.83, -211112.83 
1.5247943e+3, 3.1521806e+2, -101764.71, 62064.58, 11885.9375, -0.013698489, -0.123675875, 62922.418, 62922.418 
1.5362512e+3, 1.2546837e+2, -1501987.9, -1715017.0, -2439.5847, 0.001856513, -0.006276608, -1501959.9, 208449.27 
1.5361752e+3, 1.3545881e+2, -1426972.5, -1628313.8, -2446.5457, 0.0047344556, -0.008138961, -1426942.8, 185560.13 
1.5360987e+3, 1.4544934e+2, -1351339.4, -1539562.6, -5123.7207, 0.0032332584, -0.007978999, -1351200.0, 163395.69 
1.536022e+3, 1.5543994e+2, -1277143.0, -1453093.0, -5295.951, -0.0014836948, -0.008030647, -1276983.8, 139704.17 
1.535945e+3, 1.6543065e+2, -1200970.4, -1363579.8, -6840.854, -0.0015680253, -0.00718801, -1200683.1, 118095.73 
1.5358679e+3, 1.7542145e+2, -1125460.1, -1276439.8, -6750.497, 0.0019784016, -0.007688454, -1125158.9, 95710.17 
1.5357906e+3, 1.8541229e+2, -1049750.1, -1188352.0, -8120.215, 0.001716565, -0.00770871, -1049276.0, 73682.76 
1.5357131e+3, 1.9540317e+2, -974848.3, -1101443.4, -8215.888, -0.0015305161, -0.008997242, -974317.4, 50730.758 
1.5356354e+3, 2.0539415e+2, -898667.2, -1012614.9, -8858.997, -0.0026206519, -0.008212494, -897982.5, 29154.105 
1.5355578e+3, 2.1538518e+2, -822847.3, -925224.9, -8892.597, -0.001923742, -0.007453493, -822080.6, 7143.864 
1.5354802e+3, 2.2537628e+2, -746801.9, -836745.44, -9378.919, -0.0019768786, -0.005835024, -745834.25, -14522.568 
1.5354025e+3, 2.3536742e+2, -671789.0, -749724.56, -9519.446, -0.0027499679, -0.0054200045, -670643.1, -37244.68 
1.5353249e+3, 2.4535856e+2, -595784.56, -661461.3, -9395.545, -0.004028652, -0.011414637, -594466.94, -58981.457 
1.5352471e+3, 2.5534967e+2, -519756.4, -573893.25, -9505.002, -0.005702654, -0.024083694, -518136.1, -80563.43 
1.5351695e+3, 2.653411e+2, -444523.9, -486748.94, -9660.852, -0.004208227, -0.002263261, -442418.53, -102762.125 
1.535092e+3, 2.7533284e+2, -369848.72, -399621.6, -10454.267, -0.000015679863, 0.044282675, -366544.56, -124807.125 
1.5350153e+3, 2.8532368e+2, -289699.16, -306543.63, -4932.7734, -0.005793913, -0.017042415, -288360.97, -144533.67 
1.5349393e+3, 2.953138e+2, -210694.6, -220574.19, -5485.561, -0.019727074, -0.16478112, -208252.45, -162328.58 
1.5348616e+3, 3.0530852e+2, -189998.81, -183830.02, -11502.427, 0.005638231, 0.18040009, -175005.63, -175005.63 
1.5347822e+3, 3.1529835e+2, -128661.19, 5918.78, 716.4108, -0.0048993207, -0.013553578, 5922.5933, 5922.5933 
1.5462701e+3, 1.2554558e+2, -1496763.3, -1712639.6, 3388.186, 0.0027737105, -0.0071083014, -1496710.1, 212942.61 
1.5461923e+3, 1.35536e+2, -1423796.3, -1626901.1, 3202.3804, 0.0037630317, -0.0066230143, -1423745.8, 188000.73 
1.5461144e+3, 1.455265e+2, -1348520.0, -1538261.8, 784.5679, 0.0024563286, -0.0061658975, -1348516.8, 165322.78 
1.546036e+3, 1.5551707e+2, -1273343.4, -1451332.5, 880.1152, -0.0006461075, -0.007514856, -1273339.0, 142593.05 
1.5459575e+3, 1.6550775e+2, -1197469.1, -1362034.0, -683.6957, -0.0006917419, -0.0071083102, -1197466.3, 120557.07 
1.5458788e+3, 1.7549852e+2, -1123296.4, -1275514.5, -865.3966, 0.0018087379, -0.007179606, -1123291.4, 96822.375 
1.5458e+3, 1.8548937e+2, -1047716.8, -1187238.3, -2109.9077, 0.0013904445, -0.006889291, -1047684.9, 74518.66 
1.5457208e+3, 1.9548024e+2, -972168.25, -1100021.0, -1955.8922, -0.0014427883, -0.008139088, -972138.3, 52154.645 
1.5456417e+3, 2.0547119e+2, -896412.4, -1011584.1, -2518.0166, -0.002510506, -0.0076398565, -896357.4, 30024.273 
1.5455624e+3, 2.1546221e+2, -821767.6, -924753.75, -2570.7935, -0.0019779643, -0.0070729633, -821703.5, 6766.2427 
1.5454833e+3, 2.2545327e+2, -746004.6, -836594.9, -2969.4854, -0.002028759, -0.0051983176, -745907.4, -15350.183 
1.545404e+3, 2.3544438e+2, -670229.6, -749199.75, -3032.5676, -0.0027227812, -0.004609758, -670113.4, -37469.063 
1.5453248e+3, 2.4543548e+2, -594087.3, -660861.25, -2761.8062, -0.0041250265, -0.010561153, -593973.25, -59241.63 
1.5452456e+3, 2.5542656e+2, -518503.66, -573557.75, -2852.8767, -0.006034041, -0.022642408, -518356.22, -81537.12 
1.5451665e+3, 2.654179e+2, -442866.22, -487503.56, -2513.7168, -0.0039844643, -0.0018150526, -442725.1, -103821.17 
1.5450874e+3, 2.7540943e+2, -365523.44, -399017.9, -2446.3242, 0.0014010007, 0.041263822, -365345.72, -124358.88 
1.545009e+3, 2.8540018e+2, -293725.38, -309095.84, 1989.5133, -0.0060920655, -0.017380059, -293472.03, -150394.55 
1.5449311e+3, 2.9539037e+2, -232739.64, -230643.81, 751.69574, -0.024019519, -0.15388244, -230402.1, -185228.42 
1.5448521e+3, 3.0538628e+2, -178748.42, -149553.31, -4900.0435, 0.010655248, 0.1747157, -148752.84, -148752.84 
1.5447712e+3, 3.153779e+2, -121153.0, -37001.754, 2127.5542, -0.019145852, -0.080752425, -36948.0, -36948.0 
1.5562892e+3, 1.2562428e+2, -1497415.4, -1713387.1, -2514.5217, 0.005569624, -0.009107173, -1497386.1, 211495.28 
1.5562098e+3, 1.356147e+2, -1424104.1, -1627404.5, -2652.0154, -0.00015221012, -0.0050327554, -1424069.5, 186905.78 
1.5561302e+3, 1.456052e+2, -1348422.1, -1537972.3, -4580.0303, -0.00042114296, -0.003687212, -1348311.5, 164756.89 
1.5560503e+3, 1.5559576e+2, -1273404.5, -1451143.4, -4549.268, 0.0034753482, -0.006788794, -1273288.1, 141872.78 
1.5559702e+3, 1.6558641e+2, -1198009.9, -1362855.4, -6387.522, 0.0028584767, -0.007359878, -1197762.8, 119489.85 
1.5558898e+3, 1.7557712e+2, -1123645.0, -1276156.6, -6544.3887, -0.0011670935, -0.0074507487, -1123364.6, 95978.95 
1.5558092e+3, 1.8556796e+2, -1047480.75, -1186692.4, -7495.7134, -0.0019587763, -0.0059956373, -1047078.3, 74355.02 
1.5557286e+3, 1.9555889e+2, -972023.25, -1099542.1, -7401.693, -0.00020741644, -0.0054164594, -971595.06, 51927.23 
1.555648e+3, 2.0554982e+2, -896578.6, -1011778.06, -8233.016, -0.00053100596, -0.0064203003, -895993.2, 29617.893 
1.5555671e+3, 2.1554077e+2, -821841.8, -924901.8, -8293.895, -0.0023937118, -0.009788881, -821178.6, 6521.118 
1.5554865e+3, 2.2553185e+2, -746085.9, -836794.56, -8450.334, -0.0029506641, -0.006917528, -745305.4, -15518.039 
1.5554057e+3, 2.3552297e+2, -670337.1, -749407.25, -8526.06, -0.0026781652, -0.0017245748, -669428.25, -37553.957 
1.5553248e+3, 2.4551407e+2, -594249.8, -661155.9, -8342.765, -0.0035604113, -0.004879179, -593225.25, -59263.664 
1.555244e+3, 2.555051e+2, -518698.94, -573900.94, -8434.927, -0.0052896296, -0.015098244, -517438.84, -81389.73 
1.5551634e+3, 2.654963e+2, -443070.6, -487915.28, -7731.246, -0.0043486813, -0.0078108544, -441775.16, -103639.58 
1.555083e+3, 2.754875e+2, -365738.22, -399451.97, -7839.748, -0.0012425536, 0.007919545, -364004.34, -123782.766 
1.5550026e+3, 2.8547862e+2, -294851.22, -311231.84, -7180.878, -0.007055864, -0.008006823, -292149.03, -149840.02 
1.5549223e+3, 2.954697e+2, -232973.08, -230884.2, -8004.294, -0.019590981, -0.040395718, -223856.5, -179460.06 
1.5548423e+3, 3.054641e+2, -164227.95, -119776.734, -3398.0676, 0.010400997, 0.030543081, -119518.47, -119518.47 
1.5547618e+3, 3.1545904e+2, -133388.88, -63677.863, 972.9693, -0.011653997, -0.07864582, -63664.285, -63664.285 
1.5663083e+3, 1.2570485e+2, -1494023.9, -1711840.4, 3364.3083, 0.0048526106, -0.0062721577, -1493972.0, 214120.0 
1.5662272e+3, 1.356952e+2, -1419515.5, -1625239.3, 3395.4805, 0.00053206534, -0.0059144497, -1419459.5, 190726.97 
1.566146e+3, 1.4568569e+2, -1344245.3, -1536002.0, 1495.0599, 0.00024104699, -0.004991587, -1344233.5, 168046.25 
1.5660645e+3, 1.5567625e+2, -1270882.8, -1449937.4, 1403.6213, 0.003322798, -0.0058640246, -1270871.8, 143500.48 
1.5659828e+3, 1.6566688e+2, -1195714.0, -1361584.9, -119.115395, 0.002640753, -0.0058276122, -1195713.9, 120750.09 
1.5659007e+3, 1.7565757e+2, -1120605.3, -1274547.6, 95.05556, -0.0010844152, -0.0065328185, -1120605.1, 97949.97 
1.5658188e+3, 1.8564841e+2, -1044990.5, -1185592.1, -822.80695, -0.0019161733, -0.0055396105, -1044985.7, 75659.43 
1.5657365e+3, 1.956393e+2, -970824.2, -1099020.0, -989.48914, -0.00030149432, -0.005206228, -970816.56, 51917.79 
1.5656543e+3, 2.0563023e+2, -895375.25, -1011146.0, -1752.0914, -0.00051014713, -0.005624341, -895348.75, 29474.422 
1.5655719e+3, 2.1562119e+2, -819653.5, -923799.0, -1676.0651, -0.002157183, -0.007848064, -819626.56, 7285.3438 
1.5654895e+3, 2.2561221e+2, -743970.75, -835740.06, -1716.3473, -0.0028041787, -0.006563609, -743938.6, -14938.901 
1.5654072e+3, 2.356033e+2, -669118.3, -748758.06, -1680.9435, -0.002751168, -0.004910469, -669082.9, -37995.715 
1.5653248e+3, 2.4559443e+2, -593918.44, -660961.7, -1363.6107, -0.003308861, -0.0035823686, -593890.75, -60716.586 
1.5652426e+3, 2.5558558e+2, -519211.1, -574052.94, -1227.9008, -0.004283056, -0.0030734283, -519183.63, -83922.86 
1.5651605e+3, 2.6557666e+2, -444024.94, -487061.22, 458.13907, -0.0047742883, -0.008708972, -444020.06, -106672.05 
1.5650783e+3, 2.7556768e+2, -368169.4, -399326.9, 1235.0599, -0.004846611, -0.02472388, -368120.53, -128684.37 
1.5649961e+3, 2.855592e+2, -294189.88, -310071.22, 701.50214, -0.006560431, -0.0023269597, -294158.94, -152639.83 
1.5649137e+3, 2.955513e+2, -224883.84, -226155.4, 1918.8945, -0.009201151, 0.06032129, -223498.14, -179901.45 
1.5648323e+3, 3.055432e+2, -166569.69, -126892.48, 3402.9426, -0.00089324714, -0.09101776, -126602.74, -126602.74 
1.5647519e+3, 3.1554076e+2, -146267.17, -65598.984, -10933.133, -0.008410001, 0.10852925, -64143.46, -64143.46 
1.5763275e+3, 1.2578698e+2, -1494061.1, -1711740.5, -2100.3108, 0.002042231, -0.00056166644, -1494040.9, 213246.28 
1.576245e+3, 1.3577725e+2, -1419794.4, -1625313.8, -2138.5747, 0.004111885, -0.00844443, -1419772.1, 189610.3 
1.576162e+3, 1.457677e+2, -1344692.9, -1536452.0, -4327.165, 0.0029317448, -0.008578663, -1344595.3, 166880.75 
1.5760787e+3, 1.5575828e+2, -1271083.6, -1450166.9, -4393.939, 0.00008363058, -0.00473077, -1270975.9, 142592.58 
1.5759954e+3, 1.6574895e+2, -1195417.8, -1360824.0, -5559.948, -0.00017058969, -0.0030582931, -1195231.0, 120428.79 
1.575912e+3, 1.7573969e+2, -1120441.3, -1273937.6, -5435.077, 0.0011635883, -0.004722396, -1120249.0, 97501.586 
1.5758282e+3, 1.8573047e+2, -1045420.56, -1186294.3, -6595.3286, 0.00043191467, -0.0053312993, -1045112.44, 74728.43 
1.5757445e+3, 1.9572128e+2, -971077.3, -1099567.4, -6744.964, -0.001543523, -0.006876317, -970724.2, 51206.68 
1.5756607e+3, 2.0571223e+2, -895228.7, -1010868.4, -7171.473, -0.0020363403, -0.004969359, -894785.6, 29234.043 
1.5755767e+3, 2.1570323e+2, -819586.5, -923557.4, -7136.857, -0.0015153583, -0.0019981908, -819098.9, 7008.9053 
1.5754928e+3, 2.2569424e+2, -743954.9, -835593.9, -7453.804, -0.0019088094, -0.0045865676, -743352.56, -15156.614 
1.5754089e+3, 2.3568523e+2, -669027.2, -748527.25, -7450.6245, -0.0030010107, -0.013358836, -668334.94, -38050.66 
1.5753248e+3, 2.4567643e+2, -593721.6, -660554.25, -7199.0415, -0.0033986147, -0.005808483, -592954.94, -60584.41 
1.575241e+3, 2.5566778e+2, -518900.28, -573415.3, -7058.7236, -0.0032356048, 0.013302469, -518001.16, -83545.9 
1.5751572e+3, 2.6565892e+2, -442306.6, -483439.72, -5170.823, -0.0054284874, -0.004806327, -441666.53, -105124.22 
1.5750737e+3, 2.756498e+2, -366486.13, -395698.8, -4549.918, -0.009411723, -0.05637573, -365793.88, -127162.32 
1.5749897e+3, 2.856419e+2, -292181.78, -305833.6, -6523.4067, -0.004610544, -0.0005870102, -289565.88, -148857.22 
1.5749054e+3, 2.9563513e+2, -224198.64, -224799.77, -4930.7603, 0.007021045, 0.14609686, -219559.28, -176783.92 
1.5748224e+3, 3.0562356e+2, -189181.9, -174080.14, 45.147324, -0.024586275, -0.18263724, -174080.02, -174080.02 
1.5747412e+3, 3.1561783e+2, -112874.06, 4245.777, -12009.175, -0.0111727165, -0.012337251, 5464.486, 5464.486 
1.5863469e+3, 1.2587091e+2, -1489295.5, -1709584.0, 4017.2505, 0.0025054761, -0.002549621, -1489222.3, 217242.38 
1.5862627e+3, 1.3586119e+2, -1417013.4, -1624066.5, 3895.9192, 0.004218476, -0.0061252033, -1416940.1, 191619.77 
1.5861781e+3, 1.4585164e+2, -1342156.0, -1534982.4, 2018.5079, 0.002779899, -0.0060862526, -1342134.9, 168518.69 
1.5860932e+3, 1.5584219e+2, -1267869.4, -1448385.9, 2193.328, -0.0002640355, -0.004761872, -1267842.8, 144903.39 
1.5860082e+3, 1.6583286e+2, -1192721.3, -1359487.4, 1057.3153, -0.00040884555, -0.0035519279, -1192714.5, 122123.17 
1.5859231e+3, 1.7582358e+2, -1118906.4, -1273130.6, 913.0943, 0.0013370374, -0.004257481, -1118901.0, 98027.56 
1.5858378e+3, 1.8581437e+2, -1043649.44, -1185245.5, 16.013388, 0.0007398018, -0.0044618133, -1043649.44, 75369.35 
1.5857524e+3, 1.9580518e+2, -968132.1, -1097964.1, 261.57294, -0.0013931316, -0.005861254, -968131.56, 52977.21 
1.585667e+3, 2.0579611e+2, -892818.9, -1009789.94, -105.4298, -0.0020002935, -0.0042260783, -892818.8, 30378.941 
1.5855816e+3, 2.1578708e+2, -818697.1, -923175.75, -200.34091, -0.00150915, -0.0019108296, -818696.7, 6589.468 
1.5854959e+3, 2.2577807e+2, -743409.9, -835216.94, -510.44266, -0.0021289643, -0.0038867663, -743407.06, -16032.668 
1.5854104e+3, 2.3576908e+2, -668093.8, -747965.0, -485.36096, -0.0034899383, -0.011103232, -668090.9, -38628.156 
1.585325e+3, 2.4576023e+2, -592621.5, -659942.5, -410.54608, -0.0034039381, -0.0053998614, -592619.0, -61069.813 
1.5852393e+3, 2.5575155e+2, -517650.97, -572589.7, -434.58966, -0.0022816279, 0.009646067, -517647.53, -84013.16 
1.5851541e+3, 2.6574278e+2, -443220.1, -482601.7, 447.94916, -0.0052854978, -0.0034587043, -443215.0, -107494.62 
1.5850687e+3, 2.757339e+2, -372336.16, -397155.34, 179.0197, -0.011325346, -0.043935962, -372334.88, -134527.36 
1.5849833e+3, 2.85726e+2, -289476.25, -302829.78, -1356.9243, -0.0040125763, -0.0012611048, -289339.78, -149455.16 
1.5848976e+3, 2.9571906e+2, -204350.67, -215490.22, -876.8322, 0.013268624, 0.115609944, -204282.08, -162329.23 
1.5848127e+3, 3.0570698e+2, -200772.25, -203559.94, 4773.0044, -0.03306156, -0.14963458, -197193.73, -197193.73 
1.5847296e+3, 3.156997e+2, -123939.6, 42313.598, 3992.599, 0.011064242, 0.06352535, 42409.42, 42409.42 
1.5963665e+3, 1.259564e+2, -1489889.9, -1710163.9, -2031.136, 0.004658339, -0.008779398, -1489871.1, 215755.81 
1.5962803e+3, 1.3594677e+2, -1417327.0, -1624393.0, -2081.3887, 0.002013304, -0.00062642386, -1417306.1, 190415.33 
1.596194e+3, 1.459372e+2, -1342001.9, -1534385.4, -3546.244, 0.00078756904, 0.00019398866, -1341936.5, 167878.52 
1.5961076e+3, 1.5592773e+2, -1267841.6, -1447936.8, -3457.6628, 0.0012774587, -0.0055846926, -1267775.3, 144132.66 
1.596021e+3, 1.6591837e+2, -1193151.4, -1360084.0, -4715.2324, 0.00096244144, -0.0060870387, -1193018.3, 120981.414 
1.5959342e+3, 1.7590906e+2, -1119115.3, -1273489.8, -4823.244, -0.00007862708, -0.0046561514, -1118964.8, 97126.12 
1.5958475e+3, 1.8589988e+2, -1043251.7, -1184339.4, -5380.2354, -0.00047330203, -0.0030111116, -1043046.8, 75133.91 
1.5957604e+3, 1.9589078e+2, -967905.4, -1097258.4, -5227.5894, -0.00024196337, -0.0027843118, -967694.5, 52575.6 
1.5956734e+3, 2.0588167e+2, -893119.44, -1010244.7, -5958.6665, -0.00086683105, -0.0035109574, -892817.06, 29542.227 
1.5955862e+3, 2.1587256e+2, -818817.2, -923464.94, -6048.805, -0.0021203319, -0.006453488, -818468.75, 5979.8813 
1.5954992e+3, 2.2586359e+2, -743302.75, -835074.2, -6125.3003, -0.0033051383, -0.0038445645, -742895.7, -16359.192 
1.595412e+3, 2.3585469e+2, -668030.1, -747855.8, -6145.3145, -0.0043416442, 0.00054241566, -667559.8, -38936.082 
1.595325e+3, 2.4584575e+2, -592709.94, -660137.5, -6229.1187, -0.003475241, -0.003139006, -592139.3, -61428.04 
1.5952379e+3, 2.5583678e+2, -517723.38, -572737.2, -6355.8823, -0.0015313264, -0.0125240795, -516998.63, -84199.625 
1.5951508e+3, 2.6582822e+2, -443285.13, -482753.88, -6544.8735, -0.0044454494, -0.0032262127, -442228.16, -107345.12 
1.5950637e+3, 2.7581987e+2, -372372.53, -397240.94, -6467.67, -0.010776576, 0.012281957, -370791.03, -133826.08 
1.594977e+3, 2.8581136e+2, -289248.8, -302536.8, -3807.465, -0.0051496136, -0.0069684195, -288235.2, -149187.02 
1.5948907e+3, 2.9580295e+2, -204992.83, -216967.5, -4247.0967, 0.008857006, -0.036664784, -203639.45, -162508.78 
1.5948033e+3, 3.057936e+2, -207377.77, -216969.08, -9549.986, -0.023810431, 0.029242342, -201486.97, -201486.97 
1.594716e+3, 3.1578353e+2, -119529.586, 53070.086, -5581.855, -0.0069795134, 0.043637473, 53250.414, 53250.414 
1.6063862e+3, 1.2604386e+2, -1486633.3, -1708251.4, 4095.9792, 0.0051565124, -0.0060269325, -1486557.5, 218212.34 
1.6062982e+3, 1.3603419e+2, -1413832.6, -1622389.5, 4343.541, 0.0012940334, -0.0014672148, -1413742.1, 193122.47 
1.6062103e+3, 1.4602464e+2, -1339230.0, -1533013.0, 3094.1885, 0.0002176106, -0.00070869765, -1339180.6, 169777.61 
1.6061223e+3, 1.5601517e+2, -1266021.1, -1446964.6, 2995.184, 0.0019747217, -0.0043614437, -1265971.6, 145079.47 
1.6060339e+3, 1.660058e+2, -1191123.5, -1358785.8, 2081.5793, 0.0016468571, -0.004499781, -1191097.8, 122045.11 
1.6059455e+3, 1.7599651e+2, -1116293.6, -1271808.3, 2348.1711, -0.00040560495, -0.003757071, -1116258.1, 98975.74 
1.605857e+3, 1.8598732e+2, -1041176.3, -1183267.4, 1806.2258, -0.0010092456, -0.0024859381, -1041153.4, 76170.58 
1.6057685e+3, 1.959782e+2, -967306.1, -1096850.9, 1659.6263, -0.0003987576, -0.0024628679, -967284.9, 52128.49 
1.60568e+3, 2.0596908e+2, -892209.5, -1009623.3, 1106.5554, -0.00085892715, -0.0032701376, -892199.06, 29303.535 
1.6055912e+3, 2.1595998e+2, -816382.4, -922122.9, 1343.8492, -0.002074266, -0.0060994094, -816365.3, 7226.6865 
1.6055024e+3, 2.2595099e+2, -741064.1, -834305.25, 1184.9547, -0.0030431687, -0.0024484973, -741049.06, -15369.009 
1.6054139e+3, 2.3594207e+2, -666638.2, -747440.9, 939.81104, -0.0037295986, 0.0036433174, -666627.25, -38859.727 
1.605325e+3, 2.4593306e+2, -591479.9, -659633.3, 843.6947, -0.0036338714, -0.0033993195, -591469.44, -61613.71 
1.6052364e+3, 2.5592402e+2, -516395.3, -572320.2, 750.64703, -0.0031853032, -0.019909352, -516385.25, -84440.875 
1.6051476e+3, 2.6591542e+2, -440299.53, -483269.5, -509.57608, -0.0040099514, -0.000321806, -440293.5, -106264.94 
1.6050588e+3, 2.759071e+2, -364736.28, -395518.0, -1435.3037, -0.0058217146, 0.03817567, -364669.5, -128559.43 
1.6049705e+3, 2.8589806e+2, -289538.78, -305172.13, 1267.892, -0.006327826, -0.0135078635, -289436.6, -151238.1 
1.604883e+3, 2.958887e+2, -220772.19, -226017.98, -1349.3811, -0.005752243, -0.114359595, -220445.44, -180155.22 
1.6047938e+3, 3.0588177e+2, -201441.72, -200423.06, -2743.8816, -0.0048610386, 0.13363597, -198141.64, -198141.64 
1.6047037e+3, 3.1587008e+2, -102990.96, 41431.086, 16493.43, -0.013558407, -0.12395203, 43290.74, 43290.74 
1.6164057e+3, 1.26133e+2, -1486640.4, -1707582.9, -1780.8403, 0.004426738, 0.0017393315, -1486626.1, 217270.45 
1.6163163e+3, 1.3612324e+2, -1413857.8, -1621870.6, -1613.8967, 0.0014813883, -0.0062229536, -1413845.3, 192146.67 
1.6162266e+3, 1.4611368e+2, -1339641.4, -1533460.8, -2770.5764, 0.0004614649, -0.00572833, -1339601.9, 168483.8 
1.6161367e+3, 1.5610425e+2, -1266206.8, -1447156.1, -2825.2075, 0.0019681123, -0.0016807681, -1266162.6, 144015.53 
1.6160469e+3, 1.6609493e+2, -1190758.6, -1357819.1, -3417.6436, 0.0017379696, -0.00020462256, -1190688.8, 121580.8 
1.6159569e+3, 1.7608567e+2, -1116078.9, -1271017.6, -3250.6829, -0.000058386617, -0.001945803, -1116010.8, 98349.53 
1.6158667e+3, 1.8607646e+2, -1041571.8, -1183856.4, -4012.135, -0.0011922776, -0.0025996258, -1041458.8, 74991.65 
1.6157766e+3, 1.9606727e+2, -967455.9, -1097179.0, -4126.044, -0.0016551531, -0.00415094, -967324.8, 51215.72 
1.6156864e+3, 2.060582e+2, -891804.56, -1008818.25, -4286.4624, -0.0017611325, -0.0031910466, -891647.75, 28981.729 
1.6155963e+3, 2.1604916e+2, -816120.3, -921492.4, -4130.6445, -0.0016415919, -0.0018761457, -815958.6, 6759.3975 
1.6155058e+3, 2.2604012e+2, -741539.25, -835230.4, -4673.2207, -0.0017350429, -0.00024076934, -741306.75, -16500.242 
1.6154155e+3, 2.3603107e+2, -666971.0, -748191.75, -4908.0493, -0.001973004, -0.00063377275, -666675.5, -39780.137 
1.6153252e+3, 2.4602206e+2, -591409.25, -659573.9, -4925.118, -0.0039776242, -0.005355663, -591055.25, -62071.633 
1.6152349e+3, 2.560131e+2, -516562.1, -572714.3, -5040.312, -0.007287718, -0.013347745, -516113.25, -85041.68 
1.6151445e+3, 2.6600426e+2, -442559.47, -488033.66, -6253.038, -0.0040689763, 0.00438501, -441715.28, -108557.38 
1.6150542e+3, 2.7599552e+2, -367123.94, -400510.94, -7230.5063, 0.0033376815, 0.033429563, -365625.34, -130381.734 
1.6149643e+3, 2.859861e+2, -292846.97, -311961.78, -5561.629, -0.007892908, -0.018765593, -291346.56, -154010.3 
1.6148745e+3, 2.9597634e+2, -221799.64, -227562.95, -8159.6846, -0.031164236, -0.111153275, -216027.72, -176596.02 
1.6147843e+3, 3.0597135e+2, -176731.61, -149214.19, -8088.2495, 0.025102984, 0.14634053, -147012.89, -147012.89 
1.6146924e+3, 3.1596363e+2, -143931.52, -44906.414, 6101.221, -0.0076957126, -0.019971756, -44531.914, -44531.914 
1.6264255e+3, 1.26224e+2, -1484195.8, -1706194.6, 4739.855, 0.0028421348, 0.0009888556, -1484094.6, 218910.19 
1.6263342e+3, 1.3621429e+2, -1411631.5, -1620552.5, 4750.272, 0.0029436224, -0.0045124707, -1411523.5, 193576.44 
1.6262428e+3, 1.4620472e+2, -1337258.8, -1531956.4, 3942.6104, 0.0017396916, -0.004019466, -1337179.0, 170014.6 
1.6261514e+3, 1.5619528e+2, -1263559.4, -1445510.1, 4188.7646, 0.0011519294, -0.0012299692, -1263463.0, 145823.08 
1.6260599e+3, 1.6618598e+2, -1188777.6, -1356543.8, 3716.706, 0.0008361238, -0.00010941232, -1188695.4, 122681.96 
1.6259682e+3, 1.7617671e+2, -1115248.3, -1270273.1, 3677.1816, 0.00013422547, -0.0018326181, -1115161.1, 98306.875 
1.6258764e+3, 1.8616752e+2, -1040433.75, -1183121.1, 3240.8267, -0.0007477642, -0.0020953382, -1040360.2, 75197.91 
1.6257846e+3, 1.9615833e+2, -964864.25, -1095722.6, 3462.2856, -0.0014638832, -0.0028681157, -964772.7, 52875.457 
1.6256928e+3, 2.0614925e+2, -889590.4, -1007729.94, 3301.805, -0.0018118812, -0.0020069417, -889498.2, 30239.023 
1.625601e+3, 2.161402e+2, -815245.44, -921013.4, 3142.5635, -0.0019201697, -0.0012868481, -815152.2, 6673.7964 
1.6255093e+3, 2.2613116e+2, -740471.94, -834641.2, 2786.0222, -0.001808784, -0.0005013524, -740389.56, -16474.953 
1.6254173e+3, 2.3612206e+2, -664727.7, -747079.3, 3053.2424, -0.0014875776, -0.002149529, -664614.6, -38610.92 
1.6253254e+3, 2.4611303e+2, -589391.94, -659074.5, 2941.3542, -0.0037922098, -0.003555859, -589268.0, -61175.91 
1.6252336e+3, 2.5610405e+2, -515204.25, -572546.2, 2590.5137, -0.007949365, -0.0047439085, -515087.47, -84907.46 
1.6251417e+3, 2.6609507e+2, -440055.16, -487609.88, 2871.2253, -0.004177958, 0.0027603111, -439882.4, -107614.336 
1.6250499e+3, 2.7608603e+2, -362153.06, -399012.84, 3607.9468, 0.004884021, 0.009887101, -361803.22, -127446.375 
1.6249579e+3, 2.8607672e+2, -293446.56, -313732.6, 5206.598, -0.007915424, -0.011630758, -292188.3, -155740.44 
1.624866e+3, 2.9606748e+2, -231208.08, -231916.2, 5521.486, -0.035126437, -0.038938135, -226029.31, -187490.8 
1.6247745e+3, 3.060616e+2, -167861.97, -131046.67, 927.90015, 0.030178377, 0.059196778, -131023.3, -131023.3 
1.6246815e+3, 3.160558e+2, -140369.19, -73550.22, -5175.301, -0.029252052, -0.014833539, -73151.75, -73151.75 
1.6364454e+3, 1.263166e+2, -1484524.1, -1706343.1, -1241.3347, 0.00075912167, -0.004074729, -1484517.1, 217579.97 
1.6363522e+3, 1.3630699e+2, -1411855.4, -1620546.5, -1219.235, 0.0050613787, 0.0012295804, -1411848.3, 192343.14 
1.6362593e+3, 1.4629747e+2, -1337124.3, -1531165.9, -1809.9772, 0.0033755486, 0.0016437338, -1337107.4, 169177.44 
1.636166e+3, 1.5628801e+2, -1263522.1, -1444857.0, -1616.8236, -0.0003010745, -0.0022141167, -1263507.8, 144869.64 
1.6360728e+3, 1.662787e+2, -1189023.0, -1356667.4, -2116.286, -0.00075142976, -0.0025924984, -1188996.4, 121472.336 
1.6359796e+3, 1.7626946e+2, -1115227.8, -1270157.1, -2129.2197, 0.00016926153, -0.002793572, -1115198.4, 97360.87 
1.6358863e+3, 1.862603e+2, -1040073.0, -1182317.5, -2141.6025, 0.000047709498, -0.0010578454, -1040040.75, 74608.22 
1.6357929e+3, 1.9625117e+2, -964639.6, -1095067.3, -2012.8059, -0.0002855473, 0.0005146226, -964608.56, 52129.777 
1.6356994e+3, 2.0624207e+2, -889976.4, -1008387.6, -2449.9622, -0.0013207864, -0.00017363092, -889925.75, 28901.967 
1.6356061e+3, 2.1623291e+2, -815429.5, -921408.7, -2602.174, -0.0028972237, -0.0035061354, -815365.7, 5551.6665 
1.6355126e+3, 2.2622387e+2, -739977.2, -833659.06, -2694.415, -0.003074984, -0.0025422918, -739899.75, -16893.867 
1.6354191e+3, 2.3621488e+2, -664371.9, -746327.7, -2515.6846, -0.002267282, -0.0013741966, -664294.75, -39200.563 
1.6353257e+3, 2.4620587e+2, -589986.6, -660323.4, -3003.8115, -0.0032581992, 0.0014378091, -589858.56, -62676.164 
1.6352321e+3, 2.5619683e+2, -515575.22, -573362.44, -3243.3875, -0.0055656694, 0.005565962, -515393.75, -86123.0 
1.6351388e+3, 2.6618776e+2, -438803.63, -485008.34, -2208.352, -0.004583971, -0.005182614, -438698.3, -107338.27 
1.6350456e+3, 2.7617854e+2, -360884.44, -396320.6, -1993.7198, -0.0013415376, -0.03142507, -360772.63, -127322.13 
1.6349517e+3, 2.8617004e+2, -292129.94, -310799.22, -4237.546, -0.005992931, 0.0100398315, -291213.13, -155679.64 
1.6348574e+3, 2.961622e+2, -231073.17, -231219.52, -2686.5771, -0.016423468, 0.104669936, -228458.77, -190848.45 
1.6347645e+3, 3.0615216e+2, -176436.48, -149216.53, 1215.1877, 0.0052842596, -0.14342241, -149162.39, -149162.39 
1.634672e+3, 3.161473e+2, -118201.42, -28615.049, -10994.801, -0.013427484, -0.019043803, -27285.408, -27285.408 
1.646465e+3, 1.2641123e+2, -1481922.9, -1704789.3, 5112.896, 0.0028819398, -0.0027683673, -1481805.6, 219364.25 
1.6463703e+3, 1.364016e+2, -1409995.1, -1619258.1, 5276.8296, 0.0033390818, 0.0008448766, -1409862.1, 193402.17 
1.6462757e+3, 1.463921e+2, -1335763.8, -1529724.0, 5023.8496, 0.0017636549, 0.0013542474, -1335633.8, 169723.56 
1.6461807e+3, 1.5638272e+2, -1262869.5, -1443812.8, 5305.5835, 0.00036190907, -0.0016433697, -1262714.0, 144735.28 
1.6460858e+3, 1.6637343e+2, -1188122.5, -1356021.9, 5228.175, 0.00015216658, -0.001658458, -1187959.9, 121580.52 
1.6459909e+3, 1.7636418e+2, -1112987.6, -1268798.5, 5339.0264, 0.00019301804, -0.0015243432, -1112804.9, 98826.12 
1.645896e+3, 1.8635504e+2, -1037992.1, -1180892.8, 5417.405, -0.00018738177, -0.00034023877, -1037787.06, 75933.52 
1.645801e+3, 1.9634591e+2, -963767.9, -1094230.6, 5448.128, -0.00041191638, 0.000021755674, -963540.75, 52269.15 
1.645706e+3, 2.0633683e+2, -889127.5, -1007932.4, 5243.3916, -0.001250605, -0.00008699196, -888896.5, 29002.637 
1.6456111e+3, 2.1632767e+2, -813449.8, -920382.9, 5399.9404, -0.002541931, -0.0018303739, -813177.8, 6811.001 
1.6455162e+3, 2.2631861e+2, -738077.6, -832726.0, 5260.049, -0.003272838, -0.0014690075, -737786.25, -15708.683 
1.6454211e+3, 2.3630957e+2, -663218.0, -745735.5, 5004.407, -0.0034704723, -0.0018436391, -662915.6, -38749.453 
1.6453259e+3, 2.4630055e+2, -588463.75, -659775.25, 4620.0933, -0.0031626453, 0.0016660693, -588165.7, -61911.094 
1.6452308e+3, 2.562915e+2, -512699.53, -572034.5, 4896.5063, -0.0027435734, 0.007483836, -512298.16, -83955.01 
1.6451359e+3, 2.662824e+2, -439140.56, -483913.28, 5647.608, -0.0047440724, -0.0051155733, -438439.16, -108006.914 
1.645041e+3, 2.7627322e+2, -368242.66, -398350.06, 5298.3564, -0.007883976, -0.03537675, -367337.47, -134815.22 
1.6449453e+3, 2.8626505e+2, -287586.03, -305263.0, 2934.0037, -0.00428963, 0.013359758, -287111.78, -152509.3 
1.6448495e+3, 2.9625762e+2, -206912.48, -219011.42, 5340.0093, 0.0019598342, 0.123279676, -204892.77, -168217.55 
1.6447547e+3, 3.062461e+2, -185746.4, -172925.92, 8172.094, -0.017696768, -0.17669214, -168949.9, -168949.9 
1.644661e+3, 3.1624156e+2, -135387.5, 1423.8003, -7416.0103, 0.0052721743, 0.12084549, 1824.6191, 1824.6191 
1.656485e+3, 1.2650754e+2, -1482191.1, -1704446.5, -1034.26, 0.006742496, 0.0016876033, -1482186.4, 218039.81 
1.6563885e+3, 1.3649786e+2, -1410203.6, -1618825.9, -846.51025, -0.0007803631, -0.003066093, -1410200.1, 192120.94 
1.656292e+3, 1.4648841e+2, -1335595.5, -1528790.9, -882.725, -0.001674975, -0.0021092435, -1335591.5, 168822.06 
1.6561954e+3, 1.5647914e+2, -1262474.6, -1442827.6, -616.953, 0.0023517879, -0.00001284793, -1262472.5, 144032.02 
1.6560988e+3, 1.664699e+2, -1188002.1, -1355576.0, -232.68637, 0.0024787902, 0.0014609641, -1188001.8, 120593.28 
1.6560023e+3, 1.7646068e+2, -1112985.0, -1268384.6, -169.61852, 0.00004768957, 0.0012711384, -1112984.8, 97700.66 
1.6559057e+3, 1.8645152e+2, -1038037.06, -1180659.1, -285.06046, -0.0012490633, 0.00013323483, -1038036.5, 74738.58 
1.6558091e+3, 1.9644238e+2, -963644.94, -1093870.4, -262.31854, -0.0015889788, -0.0031771022, -963644.4, 51220.215 
1.6557126e+3, 2.0643333e+2, -888861.06, -1007346.56, -190.5788, -0.0014970738, -0.001059192, -888860.75, 28092.678 
1.6556162e+3, 2.1642426e+2, -813247.94, -919903.2, -100.748955, -0.0012433078, 0.0027038963, -813247.8, 5794.455 
1.6555196e+3, 2.2641516e+2, -738498.0, -833568.06, -429.69016, -0.0027734528, 0.0018773178, -738496.06, -17364.668 
1.655423e+3, 2.36406e+2, -663477.7, -746309.2, -682.16156, -0.005150236, -0.0032381238, -663472.06, -40250.97 
1.6553263e+3, 2.4639696e+2, -588101.9, -659079.1, -950.6591, -0.0034478942, -0.0023156323, -588089.1, -62779.32 
1.6552296e+3, 2.5638795e+2, -512315.56, -571259.4, -897.17114, 0.0001987674, 0.0017445715, -512301.9, -84903.68 
1.6551328e+3, 2.6637903e+2, -438885.72, -483393.88, -1357.4084, -0.0049781688, 0.0035937747, -438844.34, -109358.77 
1.6550359e+3, 2.763701e+2, -367671.3, -397110.56, -1304.6027, -0.014810656, -0.0024130715, -367613.6, -136040.73 
1.6549392e+3, 2.8636166e+2, -284740.8, -299481.8, -837.40375, -0.002966608, -0.0056462917, -284693.4, -151037.66 
1.6548423e+3, 2.9635364e+2, -206367.53, -218376.11, 503.09113, 0.0193551, 0.009090036, -206346.5, -170612.11 
1.6547449e+3, 3.0634373e+2, -201374.39, -205026.89, -4136.8687, -0.03802006, -0.005562227, -198678.6, -198678.6 
1.6546482e+3, 3.1633472e+2, -112063.234, 51968.973, -12154.043, -0.006169593, 0.024519712, 52864.64, 52864.64 
1.6665049e+3, 1.2660576e+2, -1481372.5, -1702789.6, 5390.382, 0.004488926, 0.0015136151, -1481241.3, 218022.25 
1.6664065e+3, 1.3659619e+2, -1409825.8, -1617525.6, 6030.691, 0.0005688314, -0.0016797247, -1409650.8, 191706.67 
1.6663082e+3, 1.4658679e+2, -1335121.9, -1528380.3, 6493.031, -0.00024263054, -0.0008989191, -1334904.0, 168545.58 
1.6662101e+3, 1.565775e+2, -1260729.1, -1441632.4, 6457.2866, 0.0019950992, 0.00037034237, -1260498.9, 145041.7 
1.666112e+3, 1.665683e+2, -1186377.1, -1353878.0, 7011.18, 0.0019485839, 0.0014810818, -1186084.3, 121546.54 
1.6660137e+3, 1.7655912e+2, -1112821.4, -1267491.6, 7370.6616, 0.00004764266, 0.0010843311, -1112471.0, 97249.57 
1.6659157e+3, 1.8655002e+2, -1037997.0, -1180506.6, 7557.779, -0.001187717, 0.0006219059, -1037597.3, 74212.61 
1.6658175e+3, 1.9654088e+2, -962219.94, -1092968.4, 7543.117, -0.0016896444, -0.0015536157, -961786.2, 52113.2 
1.6657193e+3, 2.0653181e+2, -886994.6, -1006112.56, 7690.3755, -0.0016134017, -0.00039537693, -886500.2, 29488.045 
1.6656213e+3, 2.1652274e+2, -811578.7, -918776.3, 7720.3657, -0.0012275316, 0.0013992294, -811025.5, 7051.6597 
1.665523e+3, 2.2651365e+2, -736819.7, -832949.06, 7499.467, -0.0024129716, 0.0022463757, -736238.1, -16071.875 
1.6654249e+3, 2.3650448e+2, -661156.6, -745330.44, 7535.6797, -0.004291421, 0.00051244267, -660487.3, -38231.242 
1.6653267e+3, 2.4649537e+2, -585895.44, -658100.1, 7189.693, -0.0033704727, -0.0026095682, -585186.5, -60841.035 
1.6652285e+3, 2.5648624e+2, -510631.63, -570589.75, 6785.09, -0.0011772778, -0.0061134407, -509873.38, -83438.484 
1.66513e+3, 2.6647735e+2, -435559.38, -482775.56, 4987.0083, -0.00515769, 0.0071584173, -435038.38, -106516.55 
1.6650313e+3, 2.7646858e+2, -360836.03, -395035.16, 4436.282, -0.012305698, 0.022212755, -360269.94, -129661.77 
1.6649331e+3, 2.8645954e+2, -282325.6, -301002.25, 3151.2146, -0.0029963502, -0.016421068, -281808.25, -149111.75 
1.6648349e+3, 2.9645064e+2, -210753.86, -222203.56, -699.1989, 0.014150544, -0.066027485, -210711.31, -175927.58 
1.6647354e+3, 3.0644274e+2, -194753.45, -196580.52, 1261.2595, -0.032008134, 0.10275167, -194109.64, -194109.64 
1.6646361e+3, 3.1643185e+2, -99338.766, 52219.656, 14625.679, 0.0064120716, -0.09413972, 53618.156, 53618.156 
1.6765247e+3, 1.2670568e+2, -1480812.0, -1700753.8, -798.5729, -0.0009571394, -0.00058394094, -1480809.0, 217475.5 
1.6764246e+3, 1.366963e+2, -1409049.6, -1615698.0, -226.38446, 0.005028869, 0.0026757894, -1409049.4, 191327.08 
1.6763246e+3, 1.4668693e+2, -1335450.5, -1528707.4, 872.6325, 0.0036847875, 0.0028223593, -1335446.6, 167021.69 
1.6762248e+3, 1.5667757e+2, -1261143.9, -1441717.0, 853.3042, -0.000010426623, -0.000006684633, -1261139.9, 143420.13 
1.676125e+3, 1.6666842e+2, -1185962.1, -1352420.6, 1206.5636, -0.00040478923, -0.00035213356, -1185953.4, 120696.35 
1.6760251e+3, 1.7665933e+2, -1112252.9, -1266154.1, 1545.5691, 0.00012535194, -0.0010341689, -1112237.4, 96501.125 
1.6759254e+3, 1.8665029e+2, -1038004.06, -1180444.1, 2204.8835, -0.00040476306, 0.0012756968, -1037969.94, 72857.42 
1.6758257e+3, 1.9664119e+2, -962219.3, -1092797.0, 2163.1965, -0.0011221297, 0.0034658653, -962183.5, 50733.023 
1.675726e+3, 2.066321e+2, -886943.2, -1005854.3, 2212.2021, -0.0017736814, 0.0012597344, -886902.06, 28103.498 
1.6756263e+3, 2.1662295e+2, -811472.75, -918469.75, 2213.9734, -0.0023501134, -0.004235947, -811427.0, 5668.0977 
1.6755268e+3, 2.2661391e+2, -736748.44, -832762.3, 1978.325, -0.0021315564, 0.0005881501, -736707.7, -17523.965 
1.675427e+3, 2.3660484e+2, -661114.06, -745217.2, 1960.4163, -0.0014125535, 0.008496975, -661068.4, -39795.766 
1.6753271e+3, 2.4659562e+2, -586302.94, -658948.2, 1459.8939, -0.0032758792, 0.00020283132, -586273.56, -62910.68 
1.6752273e+3, 2.565863e+2, -511186.13, -571720.44, 1004.8742, -0.0066548293, -0.015850117, -511169.44, -85715.234 
1.6751273e+3, 2.6657736e+2, -436954.7, -485731.84, -1065.9979, -0.005024804, 0.0055246465, -436931.4, -109389.45 
1.6750272e+3, 2.765685e+2, -362944.2, -399464.13, -1559.2598, -0.0006634518, 0.03858572, -362877.72, -133248.98 
1.6749272e+3, 2.8655866e+2, -288596.06, -314037.0, -2675.4675, -0.0053397417, -0.01705942, -288317.75, -156592.6 
1.6748273e+3, 2.9654858e+2, -212750.39, -226043.22, -7056.417, -0.01540382, -0.098758675, -209703.1, -175879.17 
1.6747263e+3, 3.065431e+2, -170812.03, -146769.73, -6727.3164, 0.005793084, 0.13211946, -145015.36, -145015.36 
1.6746244e+3, 3.1653547e+2, -147333.89, -48007.35, 7705.464, -0.002780709, -0.0068603815, -47413.137, -47413.137 
1.6865444e+3, 1.2680763e+2, -1481609.5, -1700937.3, 6198.7524, 0.00088403735, 0.00065141625, -1481434.5, 215850.97 
1.6864426e+3, 1.3679823e+2, -1407924.9, -1614639.8, 6088.9688, 0.003948378, 0.0021227158, -1407745.8, 191631.75 
1.6863409e+3, 1.4678894e+2, -1334357.3, -1526691.8, 7541.6035, 0.002731517, 0.0024686172, -1334062.0, 167406.52 
1.6862394e+3, 1.567797e+2, -1262109.3, -1440883.1, 8373.448, 0.00031118738, 0.0007797051, -1261717.9, 141841.14 
1.6861378e+3, 1.6677059e+2, -1186907.1, -1352556.3, 9176.937, -0.000164872, 0.0005180271, -1186400.4, 119247.94 
1.6860364e+3, 1.7676154e+2, -1111092.8, -1265139.8, 9095.329, -0.0001525564, -0.0005489336, -1110557.6, 97179.44 
1.6859351e+3, 1.867525e+2, -1036303.0, -1178921.3, 9979.619, -0.000420459, 0.0014065579, -1035608.06, 74217.445 
1.685834e+3, 1.9674346e+2, -961097.3, -1091641.5, 10291.385, -0.0005839485, 0.0033042093, -960291.0, 51623.324 
1.6857326e+3, 2.0673437e+2, -886091.56, -1005451.75, 10451.827, -0.001527128, 0.0017669866, -885183.25, 28820.006 
1.6856314e+3, 2.1672523e+2, -810081.06, -917730.75, 10329.236, -0.002706546, -0.002648864, -809098.9, 6993.959 
1.6855302e+3, 2.2671616e+2, -734813.94, -831784.75, 10091.608, -0.0024149118, 0.0006053246, -733774.8, -15593.056 
1.685429e+3, 2.3670705e+2, -658588.06, -743996.94, 10040.036, -0.0012387077, 0.00589576, -657423.7, -37152.63 
1.6853277e+3, 2.4669783e+2, -583927.1, -658235.8, 9404.836, -0.0033772925, 0.0014597763, -582755.25, -60393.87 
1.6852263e+3, 2.566885e+2, -509022.8, -571207.44, 9184.21, -0.007252234, -0.008186273, -507694.75, -83241.984 
1.6851248e+3, 2.6667935e+2, -432246.75, -484532.2, 8070.253, -0.0041171955, 0.0029092769, -431029.44, -104486.98 
1.685023e+3, 2.766702e+2, -353924.2, -396483.7, 8213.603, 0.0028319731, 0.018554332, -352394.03, -123761.83 
1.6849212e+3, 2.866604e+2, -286484.66, -316107.78, 8957.561, -0.006940376, -0.007395043, -283986.7, -153258.63 
1.6848193e+3, 2.966505e+2, -220221.33, -230540.88, 9365.114, -0.026089223, -0.038759552, -214688.66, -181863.7 
1.6847171e+3, 3.066442e+2, -158541.6, -129733.19, 882.9383, 0.0213751, 0.053413913, -129706.15, -129706.15 
1.6846135e+3, 3.166379e+2, -139566.61, -75455.32, -1475.0414, -0.024775837, -0.016676404, -75421.4, -75421.4 
1.6965641e+3, 1.269113e+2, -1482041.4, -1701705.3, 502.02048, 0.0059095286, 0.0031643398, -1482040.3, 214229.17 
1.6964605e+3, 1.369018e+2, -1408713.4, -1614934.4, 422.69104, -0.00047025987, -0.0011900669, -1408712.5, 189650.2 
1.6963571e+3, 1.4689262e+2, -1333480.4, -1523777.8, 1508.982, -0.0008723937, 0.00008344229, -1333468.4, 166983.98 
1.6962539e+3, 1.5688364e+2, -1260986.0, -1438344.3, 2302.8198, 0.0020104058, 0.0022461691, -1260956.1, 141584.36 
1.6961507e+3, 1.6687459e+2, -1187145.6, -1352900.5, 3889.6287, 0.0015194915, 0.0030746602, -1187054.4, 117574.805 
1.6960478e+3, 1.7686549e+2, -1111289.5, -1265121.5, 3794.3723, -0.00081431307, 0.0016896361, -1111196.0, 95522.32 
1.695945e+3, 1.868565e+2, -1035808.75, -1177530.6, 4502.6343, -0.0010747253, 0.0011383184, -1035665.8, 73140.65 
1.6958421e+3, 1.9684748e+2, -960622.75, -1090484.3, 4773.9434, -0.00014683789, -0.0003601995, -960447.44, 50447.223 
1.6957393e+3, 2.0683847e+2, -886313.56, -1005812.25, 5071.0903, -0.00096042355, 0.0018193121, -886098.75, 26884.459 
1.6956367e+3, 2.1682936e+2, -810231.0, -917925.5, 4944.7437, -0.0025368088, 0.00446401, -810004.44, 5068.031 
1.695534e+3, 2.268202e+2, -734881.75, -831826.0, 4716.9004, -0.003315973, 0.0016546809, -734652.8, -17490.7 
1.6954312e+3, 2.3681095e+2, -658658.5, -744056.06, 4612.0996, -0.00352607, -0.005418429, -658410.1, -39157.46 
1.6953284e+3, 2.4680184e+2, -584130.06, -658659.9, 3609.7441, -0.0035514268, 0.0019452411, -583955.6, -62613.5 
1.6952254e+3, 2.567927e+2, -509097.56, -571446.8, 3553.8547, -0.0035878278, 0.015583632, -508895.63, -85463.93 
1.6951223e+3, 2.6678327e+2, -432159.0, -484430.06, 3241.9524, -0.003038107, -0.0013807837, -431958.7, -106434.39 
1.6950193e+3, 2.7677357e+2, -353429.47, -395470.78, 2706.3574, -0.0020279912, -0.03781802, -353255.97, -125636.86 
1.6949156e+3, 2.867648e+2, -283966.5, -310707.0, 237.3561, -0.007270965, 0.01498713, -283964.4, -154259.42 
1.6948114e+3, 2.9675663e+2, -220255.02, -230248.9, 1973.2145, -0.016759748, 0.12007889, -219879.53, -188094.2 
1.694708e+3, 3.0674562e+2, -170610.98, -155032.22, -796.4297, 0.009114981, -0.15524074, -154991.61, -154991.61 
1.6946039e+3, 3.1674019e+2, -113083.36, -21494.877, -11032.904, -0.012142772, -0.006625829, -20184.58, -20184.58 
1.7065838e+3, 1.2701689e+2, -1480848.5, -1699264.9, 6499.346, 0.004272842, 0.0022116909, -1480655.3, 214579.34 
1.7064784e+3, 1.3700755e+2, -1411711.6, -1614726.0, 7671.226, 0.00055626687, 0.0003140108, -1411422.1, 185904.13 
1.7063732e+3, 1.4699847e+2, -1336295.1, -1524545.5, 9466.136, -0.000037297552, 0.0013382027, -1335820.4, 163595.02 
1.7062683e+3, 1.5698949e+2, -1260482.8, -1437326.4, 9436.325, 0.0014928367, 0.0019584447, -1259980.8, 141522.52 
1.7061637e+3, 1.669805e+2, -1186298.3, -1351452.1, 11320.726, 0.001296589, 0.002883406, -1185525.8, 118065.445 
1.7060591e+3, 1.769715e+2, -1111813.0, -1264412.8, 11886.179, -0.00016386615, 0.002402002, -1110892.6, 94786.95 
1.7059547e+3, 1.8696253e+2, -1036262.44, -1177337.6, 12820.567, -0.0008299899, 0.0018101194, -1035106.8, 72660.62 
1.7058505e+3, 1.9695354e+2, -959686.2, -1089548.8, 12743.144, -0.0008065992, -0.0001868679, -958447.5, 51407.92 
1.705746e+3, 2.0694453e+2, -884743.06, -1004856.44, 13196.04, -0.001204158, 0.001792605, -883310.44, 28633.426 
1.7056419e+3, 2.1693541e+2, -808134.6, -916729.3, 13373.602, -0.0017487552, 0.004591288, -806511.9, 7521.266 
1.7055377e+3, 2.2692625e+2, -732863.5, -830963.94, 13158.505, -0.0029039877, 0.0022531154, -731129.2, -15006.246 
1.7054333e+3, 2.3691697e+2, -656683.4, -743183.0, 13000.757, -0.004067274, -0.004641249, -654771.6, -36557.85 
1.705329e+3, 2.4690779e+2, -580945.1, -657517.9, 11962.301, -0.003487347, 0.0019429766, -579119.9, -58816.1 
1.7052245e+3, 2.5689858e+2, -503724.38, -569080.4, 11898.727, -0.0021996738, 0.015162387, -501625.5, -79231.6 
1.70512e+3, 2.6688913e+2, -431054.25, -483771.66, 11339.974, -0.0035325491, -0.0007938205, -428718.44, -104231.85 
1.7050153e+3, 2.7687946e+2, -359567.3, -397810.34, 10900.309, -0.0056615807, -0.03719091, -356678.63, -130097.125 
1.7049101e+3, 2.8687084e+2, -276935.3, -304339.63, 7873.9517, -0.0055194283, 0.01606454, -274834.06, -146168.23 
1.7048043e+3, 2.968629e+2, -194952.8, -218115.0, 8674.805, -0.006190697, 0.12511022, -192064.14, -161320.53 
1.7046988e+3, 3.068509e+2, -174996.56, -171384.9, 7467.455, -0.0051090913, -0.17083356, -165508.03, -165508.03 
1.7045933e+3, 3.1684592e+2, -125407.8, 5116.1445, -2661.0032, -0.0019399913, 0.11010753, 5170.372, 5170.372 
1.7166033e+3, 1.2712416e+2, -1480069.0, -1695666.9, -333.2562, -0.00064546015, -0.00012109626, -1480068.4, 214115.16 
1.716496e+3, 1.3711512e+2, -1410132.4, -1611460.9, 975.4218, 0.0043812427, 0.004354546, -1410127.6, 186144.3 
1.7163892e+3, 1.4710608e+2, -1336591.1, -1525109.0, 4253.8643, 0.0027969338, 0.004404318, -1336495.1, 161865.5 
1.7162827e+3, 1.5709703e+2, -1260931.1, -1437396.9, 4180.193, -0.0005744826, 0.00056565256, -1260832.1, 139617.25 
1.7161766e+3, 1.6708814e+2, -1185579.1, -1349245.3, 5719.693, -0.00008231308, 0.0011106699, -1185379.5, 117157.08 
1.7160705e+3, 1.7707929e+2, -1111006.3, -1262517.8, 6275.051, 0.0012892601, 0.0022470881, -1110746.8, 93876.47 
1.7159645e+3, 1.8707037e+2, -1036432.7, -1177526.8, 7673.448, -0.000083509134, 0.0032820008, -1036016.56, 70693.945 
1.7158586e+3, 1.9706139e+2, -959762.2, -1089415.3, 7557.9985, -0.0023644117, 0.0027130174, -959323.06, 49475.586 
1.715753e+3, 2.0705236e+2, -884499.44, -1004131.3, 7932.1084, -0.0021159342, 0.0016485357, -883975.8, 26911.22 
1.7156473e+3, 2.1704325e+2, -807910.7, -916163.7, 8083.689, -0.000669263, -0.00037284355, -807310.4, 5665.998 
1.7155415e+3, 2.2703414e+2, -733090.06, -831388.25, 7720.208, -0.0015232573, 0.0030130127, -732487.44, -17421.729 
1.7154357e+3, 2.3702492e+2, -656862.94, -743503.4, 7602.293, -0.0032392978, 0.0065011415, -656200.94, -39044.965 
1.7153299e+3, 2.4701558e+2, -581211.8, -658043.5, 6707.863, -0.003362143, 0.0011199189, -580630.56, -61383.117 
1.715224e+3, 2.5700614e+2, -503904.03, -569375.94, 6365.1426, -0.0031039186, -0.007424182, -503290.97, -81950.836 
1.7151175e+3, 2.6699695e+2, -430953.56, -483542.5, 4404.421, -0.0055174376, 0.0058591412, -430587.25, -107157.17 
1.7150111e+3, 2.7698776e+2, -359224.34, -397142.13, 4729.5015, -0.008326232, 0.02046017, -358643.34, -133123.33 
1.7149046e+3, 2.8697842e+2, -275762.16, -302195.8, 4743.719, -0.0020368297, -0.009489681, -274936.66, -147325.11 
1.7147982e+3, 2.9696923e+2, -194771.77, -218440.06, 3636.4575, 0.0052335905, -0.03628048, -194225.66, -164524.17 
1.7146899e+3, 3.0696064e+2, -180286.02, -181728.98, -5208.099, -0.021383379, 0.05087616, -175749.66, -175749.66 
1.7145811e+3, 3.169521e+2, -117311.84, 24572.076, -10776.633, -0.0064334148, 0.030740231, 25385.934, 25385.934 
1.7266227e+3, 1.2723348e+2, -1486106.8, -1697302.6, 6821.805, 0.001313214, 0.0015114986, -1485886.6, 207225.61 
1.7265137e+3, 1.3722454e+2, -1409754.5, -1609875.6, 7310.974, 0.0030239597, 0.004245639, -1409487.8, 185712.1 
1.7264052e+3, 1.4721559e+2, -1336335.6, -1523602.0, 10980.796, 0.0018347002, 0.0042492924, -1335694.0, 161593.5 
1.726297e+3, 1.5720664e+2, -1263686.6, -1437343.0, 11845.886, 0.00021603394, 0.0012106943, -1262882.4, 136492.88 
1.7261893e+3, 1.6719782e+2, -1187817.4, -1349277.0, 13975.9, 0.00037943362, 0.0016322796, -1186616.5, 114844.914 
1.7260815e+3, 1.7718905e+2, -1110724.5, -1261348.5, 14181.799, 0.0007686413, 0.002178788, -1109400.9, 94146.7 
1.7259741e+3, 1.8718019e+2, -1035975.9, -1176960.5, 15787.555, -0.00030539464, 0.0033080927, -1034229.6, 71404.81 
1.7258668e+3, 1.971712e+2, -959559.25, -1088906.8, 15990.938, -0.0018167885, 0.0033402028, -957611.6, 50110.78 
1.7257597e+3, 2.071622e+2, -883602.4, -1003334.7, 16524.652, -0.0018153107, 0.002149686, -881363.56, 28447.049 
1.7256525e+3, 2.1715309e+2, -805780.9, -914819.1, 16502.846, -0.0010620197, -0.0006745202, -803337.94, 8561.989 
1.7255452e+3, 2.2714396e+2, -730345.9, -830503.25, 15975.509, -0.0017307984, 0.0030586785, -727859.44, -13869.963 
1.7254381e+3, 2.371347e+2, -653164.3, -742108.75, 15900.902, -0.0027713885, 0.007930093, -650407.1, -34326.88 
1.7253307e+3, 2.4712528e+2, -578208.44, -657055.94, 14880.37, -0.0031320099, 0.0010039108, -575493.6, -57321.24 
1.7252232e+3, 2.5711572e+2, -502067.75, -568872.56, 14388.089, -0.0034377917, -0.010938719, -499100.7, -78834.68 
1.7251153e+3, 2.6710656e+2, -425420.9, -481386.2, 11615.062, -0.005454356, 0.008005329, -423106.06, -100750.1 
1.7250071e+3, 2.770974e+2, -348244.44, -393082.84, 11741.697, -0.0075578685, 0.03283602, -345355.78, -120910.22 
1.7248996e+3, 2.8708756e+2, -273312.56, -305669.75, 9880.839, -0.0019586731, -0.016950004, -270533.88, -143991.83 
1.7247917e+3, 2.970777e+2, -200906.78, -221784.08, 4222.2095, 0.004328288, -0.07618168, -200085.22, -171446.36 
1.7246813e+3, 3.0707097e+2, -161497.94, -156282.77, 1901.2847, -0.020289503, 0.11845928, -155663.22, -155663.22 
1.7245701e+3, 3.1706154e+2, -101297.414, 6106.794, 10267.993, 0.0007055771, -0.09748472, 7079.617, 7079.617 
1.7366417e+3, 1.2734452e+2, -1485687.8, -1696709.4, 1875.9244, 0.005986532, 0.0049075307, -1485671.0, 206353.08 
1.7365311e+3, 1.3733554e+2, -1410225.4, -1609154.3, 2128.731, -0.0011288209, 0.0017027898, -1410202.6, 183909.42 
1.736421e+3, 1.4732677e+2, -1335695.5, -1520825.9, 4980.538, -0.00095021847, 0.0024675017, -1335561.6, 160636.44 
1.7363112e+3, 1.5731806e+2, -1262578.3, -1434670.6, 5966.5806, 0.0025441437, 0.0031495518, -1262371.6, 135911.77 
1.7362018e+3, 1.6730934e+2, -1187604.8, -1348581.1, 9058.467, 0.0017038898, 0.003570875, -1187096.6, 113272.15 
1.7360927e+3, 1.7730059e+2, -1110565.0, -1260501.3, 9137.151, -0.0011505178, 0.002161119, -1110010.3, 92444.36 
1.7359838e+3, 1.8729176e+2, -1035761.9, -1176153.6, 10531.626, -0.0012376579, 0.0024607487, -1034976.25, 69564.75 
1.735875e+3, 1.9728284e+2, -959204.2, -1088107.3, 10785.04, 0.00010012236, 0.0025937273, -958308.06, 48320.457 
1.7357664e+3, 2.0727387e+2, -883607.94, -1003281.44, 11595.243, -0.00072832603, 0.003352296, -882494.8, 26221.586 
1.7356579e+3, 2.1726477e+2, -805865.8, -914768.25, 11483.322, -0.0026024336, 0.002782696, -804668.1, 6137.431 
1.7355491e+3, 2.2725557e+2, -730706.8, -831084.8, 10734.241, -0.0031955293, 0.002589959, -729571.75, -16676.049 
1.7354405e+3, 2.372462e+2, -653458.94, -742646.0, 10632.121, -0.0029396142, 0.0012927298, -652209.0, -37221.477 
1.7353317e+3, 2.472368e+2, -578601.25, -657877.8, 9264.583, -0.0030132653, 0.0019576591, -577532.94, -60453.42 
1.7352228e+3, 2.5722733e+2, -502440.5, -569699.4, 8871.43, -0.0034672664, 0.0033079872, -501290.03, -82117.5 
1.7351134e+3, 2.6721787e+2, -426081.2, -482877.13, 6301.4126, -0.0035617074, 0.0047969255, -425390.47, -104125.36 
1.7350039e+3, 2.7720827e+2, -350281.34, -397363.7, 6272.0747, -0.003445427, -0.00035970518, -349460.13, -126101.18 
1.7348944e+3, 2.8719822e+2, -280147.0, -319821.72, 3477.4941, -0.0057632294, -0.0019194453, -279844.5, -154386.64 
1.7347848e+3, 2.9718822e+2, -200526.75, -220626.88, -2136.531, -0.010326116, 0.015261943, -200302.16, -172746.34 
1.7346731e+3, 3.0718172e+2, -134291.2, -99960.97, -3342.4414, 0.0016231642, -0.008139945, -99638.57, -99638.57 
1.7345601e+3, 3.1717706e+2, -155031.63, -107334.95, 4067.2397, -0.0029772941, -0.0026597602, -106990.62, -106990.62 
1.7466606e+3, 1.2745744e+2, -1486161.4, -1695177.6, 7891.426, 0.0038192468, 0.0047709425, -1485863.9, 205053.63 
1.7465484e+3, 1.374486e+2, -1416701.5, -1610392.0, 8918.351, 0.00078897196, 0.0016701941, -1416291.8, 176712.38 
1.7464367e+3, 1.4743997e+2, -1341079.6, -1521482.3, 12726.162, 0.00032333512, 0.0026466714, -1340186.3, 154902.25 
1.7463252e+3, 1.5743141e+2, -1263796.8, -1433458.5, 13564.617, 0.0018769295, 0.003659346, -1262719.1, 134453.36 
1.7462143e+3, 1.6742279e+2, -1188812.8, -1348405.5, 16979.4, 0.0012367673, 0.0040462427, -1187026.3, 112230.65 
1.7461038e+3, 1.7741407e+2, -1112519.9, -1260509.1, 17226.445, -0.0008735722, 0.0026256263, -1110541.1, 90801.21 
1.7459933e+3, 1.8740533e+2, -1036295.94, -1175462.4, 19054.76, -0.00089982525, 0.0027774058, -1033734.1, 69693.97 
1.7458832e+3, 1.9739647e+2, -957429.5, -1086428.1, 19424.08, 0.00036377102, 0.002477173, -954568.1, 50946.855 
1.7457733e+3, 2.0738749e+2, -881969.94, -1002803.1, 20201.135, -0.0007020768, 0.003649708, -878682.1, 28920.729 
1.7456631e+3, 2.1737836e+2, -804366.9, -914233.1, 20023.957, -0.0027543462, 0.0040028123, -800831.1, 8861.298 
1.7455532e+3, 2.2736911e+2, -728476.3, -830151.25, 19338.82, -0.0032014612, 0.0026769028, -724922.25, -13139.288 
1.745443e+3, 2.3735967e+2, -650051.56, -741215.1, 19302.6, -0.0027790363, -0.0007994356, -646133.0, -32257.639 
1.745333e+3, 2.4735025e+2, -574133.3, -656701.2, 17608.975, -0.0028270883, 0.0032104854, -570534.75, -54566.945 
1.7452224e+3, 2.5734073e+2, -496465.94, -567792.56, 17116.652, -0.003299676, 0.010163871, -492571.03, -74509.805 
1.7451116e+3, 2.6733106e+2, -420602.66, -481521.53, 14395.127, -0.0037629625, 0.0013372013, -417372.38, -97216.43 
1.7450006e+3, 2.7732116e+2, -345793.03, -396492.13, 14304.953, -0.0036762978, -0.019610167, -342035.34, -119782.68 
1.7448895e+3, 2.8731132e+2, -276992.66, -319307.5, 15256.21, -0.0052919346, 0.011915463, -272065.8, -147716.28 
1.744778e+3, 2.973017e+2, -196928.53, -216724.22, 15878.873, -0.009818528, 0.076577395, -188115.25, -161671.39 
1.744665e+3, 3.072943e+2, -118366.53, -80701.92, 2828.444, 0.0020771907, -0.10206473, -80490.7, -80490.7 
1.7445508e+3, 3.1729203e+2, -154280.27, -133792.94, -4862.497, -0.012861682, 0.07538903, -132697.44, -132697.44 
1.7566796e+3, 1.2757199e+2, -1485952.8, -1692537.4, 1105.5889, -0.0011728529, 0.0030562822, -1485946.8, 203848.03 
1.7565654e+3, 1.375634e+2, -1415503.8, -1607354.1, 2543.7527, 0.0054052775, 0.003157042, -1415470.0, 176409.11 
1.7564519e+3, 1.4755495e+2, -1340207.9, -1519300.4, 7980.2383, 0.0029814714, 0.0039670677, -1339853.0, 154108.95 
1.756339e+3, 1.575465e+2, -1263224.6, -1431498.9, 8591.451, -0.0006783502, 0.0032719912, -1262787.1, 133257.52 
1.7562267e+3, 1.6753797e+2, -1188663.0, -1347439.4, 11788.466, -0.00024580566, 0.003746105, -1187792.6, 110335.59 
1.7561148e+3, 1.7752935e+2, -1112024.6, -1259177.3, 12156.354, 0.0006820031, 0.0035003684, -1111027.1, 89185.63 
1.7560029e+3, 1.875207e+2, -1035772.2, -1174112.4, 14485.701, 0.00014544919, 0.0038972143, -1034271.6, 68025.96 
1.7558914e+3, 1.975119e+2, -957118.1, -1085397.6, 14655.419, -0.00055978, 0.0029409544, -955465.1, 48918.656 
1.75578e+3, 2.0750292e+2, -882395.94, -1003451.7, 15123.639, -0.0014813353, 0.0034579372, -880535.1, 25936.59 
1.7556687e+3, 2.1749373e+2, -804528.2, -914560.8, 15024.223, -0.0023699803, 0.0035465478, -802513.6, 6048.124 
1.7555572e+3, 2.2748448e+2, -728504.44, -830265.06, 14441.435, -0.002424172, 0.0032654852, -726494.7, -15842.23 
1.7554457e+3, 2.3747505e+2, -650210.9, -741541.44, 14333.733, -0.0022778513, 0.0013721705, -648014.1, -35269.28 
1.7553343e+3, 2.4746554e+2, -574844.7, -658209.7, 12349.114, -0.0024643773, 0.005015916, -573053.8, -58215.695 
1.7552222e+3, 2.574559e+2, -497177.2, -569292.1, 11839.706, -0.003257754, 0.010085574, -495283.1, -78350.22 
1.75511e+3, 2.67446e+2, -421455.56, -483350.2, 8820.929, -0.0063003832, -0.0021892737, -420223.0, -101193.78 
1.7549974e+3, 2.7743605e+2, -345054.4, -395031.06, 8567.788, -0.008819404, -0.024877552, -343626.38, -122499.16 
1.7548846e+3, 2.8742686e+2, -271285.88, -307462.6, 8562.469, -0.00044377774, 0.022911541, -269361.63, -146144.27 
1.7547716e+3, 2.9741812e+2, -195909.0, -214507.95, 10216.246, 0.007032222, 0.1043473, -191393.56, -166090.66 
1.754657e+3, 3.074087e+2, -133297.36, -111952.76, -285.14996, -0.024248423, -0.15178597, -111948.95, -111948.95 
1.7545421e+3, 3.1740516e+2, -113474.375, -50197.957, -10614.701, -0.0052406588, 0.030342406, -48464.797, -48464.797 
1.766698e+3, 1.2768854e+2, -1494333.5, -1693689.6, 7707.6797, 0.0015440269, 0.002708273, -1494036.0, 194616.81 
1.766582e+3, 1.3768019e+2, -1418847.9, -1606388.6, 9489.234, 0.0031785495, 0.0043236613, -1418369.0, 172365.63 
1.7664671e+3, 1.4767186e+2, -1343750.9, -1519771.5, 15616.887, 0.0014258069, 0.0046794093, -1342376.0, 150440.1 
1.7663528e+3, 1.5766351e+2, -1267672.9, -1432086.1, 16069.105, 0.000530387, 0.0031418505, -1266117.1, 128780.92 
1.766239e+3, 1.6765513e+2, -1191782.4, -1347231.5, 19908.207, 0.0008760927, 0.0036520287, -1189273.3, 107706.9 
1.7661256e+3, 1.7764662e+2, -1112916.3, -1258080.9, 20751.88, 0.0007291602, 0.0037370904, -1110007.9, 89055.61 
1.7660125e+3, 1.8763801e+2, -1036740.1, -1174330.3, 23228.336, -0.0003330089, 0.0043460866, -1032924.5, 68223.35 
1.7658997e+3, 1.9762923e+2, -957840.75, -1085358.4, 23057.469, -0.0013249115, 0.0036629231, -953799.6, 49434.35 
1.7657869e+3, 2.0762025e+2, -881300.1, -1002646.2, 23737.383, -0.0014202001, 0.0036110494, -876821.94, 28499.926 
1.7656742e+3, 2.1761106e+2, -801006.0, -912699.1, 23961.523, -0.0012813569, 0.002699207, -796082.56, 11329.411 
1.7655614e+3, 2.2760177e+2, -724550.2, -829241.3, 23134.535, -0.0020079596, 0.004030366, -719665.8, -10162.736 
1.7654486e+3, 2.3759227e+2, -645781.06, -740207.1, 22703.313, -0.0028337475, 0.0045910277, -640606.0, -29009.83 
1.7653356e+3, 2.4758261e+2, -569957.1, -656664.1, 20536.85, -0.002549621, 0.0037156634, -565338.9, -51648.19 
1.7652224e+3, 2.5757277e+2, -491666.63, -567527.1, 20163.959, -0.0024559558, 0.002581627, -486640.06, -70853.086 
1.7651087e+3, 2.6756296e+2, -415487.84, -482024.2, 16853.248, -0.0064400937, 0.0029957232, -411462.53, -93579.234 
1.7649946e+3, 2.77553e+2, -338385.3, -393225.94, 16025.04, -0.010535959, -0.0028656742, -334045.97, -114064.87 
1.7648801e+3, 2.875433e+2, -264603.0, -305403.03, 9902.766, 0.0002755719, 0.0074033197, -262326.47, -140250.39 
1.7647652e+3, 2.9753402e+2, -188616.97, -211082.34, 6496.0884, 0.011387219, 0.04130381, -186873.81, -162706.86 
1.7646495e+3, 3.075262e+2, -126078.695, -107986.55, 9290.052, -0.030636633, -0.059627026, -104065.875, -104065.875 
1.7645338e+3, 3.175218e+2, -101868.07, -37484.727, 7312.477, 0.0071593174, 0.034312602, -36664.645, -36664.645 
1.7767161e+3, 1.2780674e+2, -1493078.9, -1689832.8, 2464.4546, 0.0068440586, 0.0034871239, -1493048.0, 194446.36 
1.7765985e+3, 1.3779867e+2, -1417816.4, -1603135.4, 4035.562, -0.0023900757, 0.0052811806, -1417728.5, 171845.1 
1.776482e+3, 1.4779046e+2, -1343729.5, -1518710.3, 10386.004, -0.0019468137, 0.005165508, -1343115.1, 148538.63 
1.7763664e+3, 1.577822e+2, -1267209.9, -1430232.8, 11006.128, 0.0036460445, 0.0033440148, -1266470.3, 127264.67 
1.776251e+3, 1.6777399e+2, -1190712.4, -1344417.3, 15393.165, 0.003217929, 0.0038227402, -1189186.0, 106629.3 
1.7761362e+3, 1.7776567e+2, -1112047.8, -1255863.9, 16082.583, -0.00030761588, 0.003649607, -1110271.3, 87625.625 
1.7760219e+3, 1.877571e+2, -1037093.5, -1174768.1, 18613.26, -0.0020026378, 0.004468478, -1034621.44, 65359.31 
1.7759077e+3, 1.9774829e+2, -957811.25, -1085187.8, 18551.582, -0.0023523576, 0.0044991015, -955164.4, 46902.773 
1.7757937e+3, 2.0773937e+2, -880894.56, -1001766.6, 19411.605, -0.0009160579, 0.0038949195, -877853.6, 26301.006 
1.7756797e+3, 2.1773021e+2, -800881.4, -912357.4, 19458.695, 0.0006279497, 0.0019984758, -797582.4, 8662.03 
1.7755657e+3, 2.2772086e+2, -725405.25, -830980.8, 18287.414, -0.0017073515, 0.005347337, -722327.3, -13991.302 
1.7754516e+3, 2.3771124e+2, -646442.44, -741568.8, 17868.03, -0.004975323, 0.008243414, -643196.94, -32766.78 
1.7753373e+3, 2.4770145e+2, -570328.25, -657474.9, 15494.299, -0.0035713252, -0.0008816313, -567655.44, -55129.195 
1.7752227e+3, 2.5769147e+2, -492139.1, -568564.25, 15115.424, -0.0011690122, -0.01135473, -489258.16, -74634.02 
1.7751074e+3, 2.6768178e+2, -416475.34, -484189.28, 11442.979, -0.004244712, 0.017587854, -414593.88, -97874.94 
1.7749919e+3, 2.7767193e+2, -341133.1, -398933.34, 10270.801, -0.008626282, 0.046496663, -339362.28, -120547.08 
1.7748757e+3, 2.8766048e+2, -272003.8, -320729.4, 2948.2583, -0.0035538184, -0.038486447, -271826.06, -150898.45 
1.7747588e+3, 2.9764915e+2, -188922.06, -211774.0, 488.184, 0.0013799871, -0.120874904, -188911.64, -165872.66 
1.7746423e+3, 3.0764723e+2, -107968.914, -70691.016, 6236.335, -0.012859895, 0.20564112, -69675.39, -69675.39 
1.7745256e+3, 3.1764087e+2, -150066.58, -137882.75, 4453.6055, -0.0030636897, -0.01899922, -136428.4, -136428.4 
1.7867337e+3, 1.2792678e+2, -1500755.0, -1691438.0, 8954.355, 0.0037306554, 0.005017902, -1500335.4, 185982.6 
1.7866148e+3, 1.3791886e+2, -1425228.4, -1604178.8, 10073.464, 0.0008008185, 0.0038772025, -1424663.1, 163732.63 
1.7864966e+3, 1.4791091e+2, -1350204.1, -1518953.0, 17455.336, -0.00005136692, 0.004295973, -1348417.4, 142056.2 
1.7863794e+3, 1.5790288e+2, -1272188.3, -1430046.5, 19059.016, 0.0021246332, 0.00418351, -1269919.8, 122632.51 
1.786263e+3, 1.6789481e+2, -1194851.8, -1345322.0, 23923.727, 0.0018540567, 0.0047420254, -1191139.6, 103491.75 
1.7861469e+3, 1.7788656e+2, -1114401.3, -1255720.6, 24082.219, -0.00033235666, 0.004184287, -1110410.1, 86302.08 
1.7860311e+3, 1.8787809e+2, -1037730.4, -1174141.5, 27086.951, -0.0012143443, 0.0047511454, -1032548.6, 66246.66 
1.7859158e+3, 1.9786933e+2, -956541.1, -1083764.8, 27644.676, -0.0011406292, 0.004377515, -950793.8, 50087.242 
1.7858006e+3, 2.078604e+2, -879369.56, -1001423.25, 28429.908, -0.0008083775, 0.004166009, -873072.3, 29896.3 
1.7856856e+3, 2.1785118e+2, -798500.7, -911494.2, 27998.525, -0.00045052246, 0.0032021021, -791943.5, 13115.324 
1.7855702e+3, 2.2784178e+2, -721729.1, -829665.56, 26850.932, -0.0019247506, 0.005896682, -715418.44, -8267.495 
1.7854549e+3, 2.3783211e+2, -641248.0, -739647.56, 26793.51, -0.0040120063, 0.007569688, -634425.4, -25179.55 
1.7853391e+3, 2.478222e+2, -564915.8, -656381.1, 23884.549, -0.0033882826, -0.0003293326, -559054.4, -47711.46 
1.785223e+3, 2.5781208e+2, -486258.4, -567122.6, 23215.342, -0.002126965, -0.0093423, -480067.47, -66625.336 
1.7851065e+3, 2.6780224e+2, -407362.88, -481002.84, 19706.91, -0.0034213786, 0.017463794, -402420.75, -86882.38 
1.7849897e+3, 2.7779227e+2, -328383.78, -394803.25, 18269.701, -0.005047331, 0.044659156, -323690.13, -106053.984 
1.7848715e+3, 2.877805e+2, -264130.66, -321002.84, 12748.413, -0.0051579704, -0.039020035, -261403.72, -141652.23 
1.7847528e+3, 2.9776877e+2, -186243.69, -213554.23, 16207.4795, -0.007750643, -0.12183453, -178705.83, -156839.2 
1.7846356e+3, 3.077668e+2, -95838.61, -67180.85, 11676.343, -0.0031268545, 0.22310622, -63025.855, -63025.855 
1.7845182e+3, 3.1775883e+2, -136753.67, -150098.69, -4259.2944, -0.008655018, -0.1226037, -135510.13, -135510.13 
1.7967512e+3, 1.280484e+2, -1500362.5, -1689539.8, 3647.467, -0.0025810061, 0.007007613, -1500292.1, 184834.03 
1.7966306e+3, 1.3804057e+2, -1424804.6, -1601337.6, 4833.1763, 0.0077963667, 0.0016575569, -1424672.5, 162530.48 
1.796511e+3, 1.4803295e+2, -1348530.4, -1514137.6, 12760.493, 0.0036404487, 0.0031404542, -1347553.0, 141724.7 
1.7963924e+3, 1.5802528e+2, -1270519.1, -1426079.0, 14341.997, -0.0022282542, 0.005438598, -1269208.0, 122144.83 
1.7962745e+3, 1.6801731e+2, -1194905.4, -1344941.0, 19787.652, -0.0017116956, 0.0061859046, -1192339.5, 101091.18 
1.7961574e+3, 1.7800911e+2, -1114111.4, -1254531.6, 19982.57, 0.00014483106, 0.005126223, -1111323.0, 84188.22 
1.7960405e+3, 1.8800077e+2, -1036844.6, -1171958.6, 23074.219, 0.0011466846, 0.0051112818, -1033012.8, 64580.313 
1.795924e+3, 1.9799213e+2, -955876.4, -1082274.0, 23498.076, 0.0018049994, 0.0038661396, -951649.3, 48028.285 
1.7958075e+3, 2.0798318e+2, -880061.5, -1002792.9, 24243.664, -0.0010921933, 0.004565136, -875446.1, 26319.195 
1.7956911e+3, 2.1797389e+2, -798879.06, -912184.0, 23836.477, -0.00487515, 0.005285184, -794068.7, 9787.657 
1.7955747e+3, 2.2796445e+2, -721647.7, -829544.6, 22504.51, -0.0031679776, 0.0053849323, -717142.0, -11193.102 
1.7954582e+3, 2.3795472e+2, -641417.2, -740181.0, 22295.234, -0.00011302295, 0.004085726, -636617.44, -28573.38 
1.795341e+3, 2.4794476e+2, -566162.6, -659161.25, 18865.03, -0.0018782004, 0.005636964, -562481.5, -52339.773 
1.7952237e+3, 2.5793454e+2, -487303.38, -569413.0, 18489.63, -0.0055007273, 0.006827147, -483331.9, -71090.04 
1.7951061e+3, 2.6792428e+2, -407753.8, -481929.2, 15479.691, -0.0041930936, 0.0015492439, -404653.0, -90310.61 
1.794988e+3, 2.7791384e+2, -327949.7, -393979.2, 12891.878, -0.00062079215, -0.008667284, -325521.9, -109077.4 
1.794868e+3, 2.8790337e+2, -261817.61, -316013.7, 4220.94, -0.0051012146, 0.013002051, -261490.84, -142943.61 
1.7947468e+3, 2.9789308e+2, -191097.38, -223480.0, 10664.799, -0.015740743, 0.0530029, -187900.63, -167252.27 
1.7946292e+3, 3.07884e+2, -119025.19, -116215.29, 11971.18, -0.0034339172, -0.06793224, -105566.9, -105566.9 
1.7945118e+3, 3.1787786e+2, -93252.45, -61432.71, -10135.266, -0.00020973702, -0.015839744, -58478.66, -58478.66 
1.8067679e+3, 1.2817173e+2, -1509580.9, -1689893.9, 9259.748, 0.0013760319, 0.005334222, -1509106.6, 174811.0 
1.8066457e+3, 1.3816428e+2, -1435611.5, -1602828.0, 11752.824, 0.004449277, 0.0037978087, -1434789.4, 151201.19 
1.8065248e+3, 1.481569e+2, -1357659.8, -1516256.8, 20833.195, 0.0013856953, 0.0049742702, -1354968.8, 133094.28 
1.806405e+3, 1.5814939e+2, -1276047.4, -1426290.1, 21728.268, -0.00047187862, 0.0054452275, -1272968.1, 117168.29 
1.806286e+3, 1.6814163e+2, -1199383.3, -1345178.0, 27837.219, -0.000099684235, 0.005843233, -1194249.0, 97963.61 
1.8061677e+3, 1.7813358e+2, -1117670.9, -1254453.6, 28836.355, 0.000059644073, 0.0050672595, -1111840.1, 82451.39 
1.8060495e+3, 1.8812531e+2, -1038967.06, -1172341.1, 32101.336, 0.00040807817, 0.0054486846, -1031642.9, 64729.62 
1.8059321e+3, 1.9811673e+2, -955416.8, -1081366.6, 31999.836, 0.001169575, 0.0047591194, -947753.0, 50703.586 
1.8058145e+3, 2.0810778e+2, -878169.44, -1001878.2, 32876.48, -0.0010392988, 0.0054704254, -869975.06, 30569.074 
1.8056971e+3, 2.1809848e+2, -795615.7, -910699.75, 32990.227, -0.004332705, 0.0057339356, -786829.44, 15805.926 
1.8055795e+3, 2.2808896e+2, -717392.9, -828663.7, 31254.516, -0.0029772834, 0.005106973, -709214.94, -4486.159 
1.8054616e+3, 2.3807912e+2, -635337.75, -738339.7, 30402.97, -0.000071171366, 0.0033636098, -627033.25, -20208.078 
1.8053433e+3, 2.4806906e+2, -558092.7, -656533.7, 26794.049, -0.0017538826, 0.007699558, -551272.3, -42348.613 
1.8052247e+3, 2.5805876e+2, -477303.28, -565962.75, 26844.01, -0.005413401, 0.01233087, -469809.03, -58784.176 
1.8051057e+3, 2.6804823e+2, -403073.1, -481627.28, 22918.748, -0.0040414277, -0.002274362, -396875.38, -83747.44 
1.8049863e+3, 2.7803752e+2, -328762.9, -394603.9, 19609.393, -0.00016085168, -0.024932098, -323365.2, -108132.2 
1.8048646e+3, 2.8802758e+2, -242429.0, -302503.75, 10753.838, -0.0049595064, 0.030111628, -240562.0, -123231.76 
1.8047422e+3, 2.980179e+2, -157072.88, -214694.89, 17433.42, -0.016351487, 0.11131797, -152209.0, -132783.7 
1.804623e+3, 3.080048e+2, -137833.3, -161371.69, 19010.156, -0.0048713535, -0.17774725, -127244.05, -127244.05 
1.8045041e+3, 3.1799915e+2, -95938.45, 1322.5569, -2902.6318, 0.002833716, 0.116477504, 1409.1052, 1409.1052 
1.8167846e+3, 1.2829657e+2, -1507805.5, -1683557.0, 3488.846, 0.008488698, 0.002600714, -1507736.3, 174957.98 
1.8166605e+3, 1.3828966e+2, -1433201.8, -1597272.5, 6263.575, -0.00422975, 0.008451977, -1432963.0, 151799.08 
1.8165383e+3, 1.4828247e+2, -1357040.3, -1514413.5, 17028.727, -0.0036251415, 0.008551614, -1355218.8, 131613.66 
1.8164174e+3, 1.5827507e+2, -1275319.9, -1423643.1, 17822.025, 0.004580961, 0.0050049154, -1273208.5, 115696.39 
1.8162972e+3, 1.6826755e+2, -1198024.8, -1341582.0, 23940.527, 0.0042745415, 0.0046964837, -1194137.5, 96841.14 
1.8161777e+3, 1.7825973e+2, -1116419.5, -1251568.3, 24993.215, -0.00054844277, 0.004509587, -1111945.5, 81109.67 
1.8160586e+3, 1.8825154e+2, -1039171.4, -1172472.0, 28732.021, -0.0026563942, 0.005842029, -1033242.1, 61893.3 
1.81594e+3, 1.9824298e+2, -955350.1, -1080862.1, 28576.629, -0.002657123, 0.006366302, -949150.06, 48069.36 
1.8158215e+3, 2.082341e+2, -877761.8, -1000985.25, 29110.832, -0.001003175, 0.0066135633, -871230.75, 28075.746 
1.815703e+3, 2.1822481e+2, -795378.0, -910534.2, 29192.766, 0.00057083374, 0.0056327567, -788400.3, 12997.1045 
1.8155843e+3, 2.2821516e+2, -718509.9, -831245.06, 27340.416, -0.0013394984, 0.005268596, -712229.25, -8737.328 
1.8154654e+3, 2.3820515e+2, -636215.9, -740168.1, 26442.309, -0.0041440325, 0.0039111883, -629876.4, -24286.264 
1.8153459e+3, 2.4819499e+2, -558380.7, -657224.8, 22451.35, -0.0035020083, 0.005612439, -553520.1, -45830.418 
1.8152261e+3, 2.5818458e+2, -477955.34, -567449.56, 22059.305, -0.0024344202, 0.008590645, -472813.4, -63021.746 
1.8151055e+3, 2.6817396e+2, -405063.2, -485794.97, 16578.371, -0.0031162214, 0.006773799, -401791.38, -89895.64 
1.8149844e+3, 2.7816308e+2, -329369.0, -395906.7, 14662.68, -0.0033464155, -0.0034714998, -326281.13, -112278.9 
1.814862e+3, 2.8815293e+2, -239272.89, -296526.28, 8937.118, -0.004259237, 0.0071606725, -237910.27, -121808.5 
1.814739e+3, 2.9814297e+2, -160910.53, -223969.53, 12094.671, -0.009980093, 0.041350584, -158670.36, -140471.1 
1.8146168e+3, 3.0812955e+2, -159738.08, -205825.58, 4826.616, -0.009045797, -0.059868425, -159238.02, -159238.02 
1.8144944e+3, 3.181205e+2, -65089.25, 69954.08, -9396.071, -0.00033878675, 0.07425252, 70604.71, 70604.71 
1.8268001e+3, 1.2842321e+2, -1523441.5, -1687754.5, 10032.999, 0.004674538, 0.0055745966, -1522831.1, 158622.03 
1.8266748e+3, 1.3841654e+2, -1443482.6, -1598677.0, 12171.688, -0.0004990827, 0.0069792424, -1442533.9, 140984.69 
1.8265514e+3, 1.4840965e+2, -1366434.8, -1515870.9, 24249.39, -0.0012506986, 0.0072431834, -1362598.3, 122987.76 
1.8264295e+3, 1.5840255e+2, -1284053.9, -1424818.4, 25737.27, 0.0029679772, 0.0053636166, -1279495.8, 108160.08 
1.826308e+3, 1.6839522e+2, -1204503.1, -1342742.9, 32244.996, 0.0030623146, 0.005696912, -1197351.8, 92375.664 
1.8261877e+3, 1.7838757e+2, -1119419.5, -1251043.1, 32938.95, 0.0000073306705, 0.0057555027, -1111636.6, 80165.68 
1.8260676e+3, 1.8837951e+2, -1040974.5, -1172328.4, 37160.723, -0.0021657294, 0.0063307467, -1031190.3, 62691.11 
1.825948e+3, 1.9837101e+2, -956010.0, -1080203.8, 37564.74, -0.0029809405, 0.0059934626, -945531.9, 50432.902 
1.8258286e+3, 2.0836215e+2, -876155.1, -1000253.75, 38022.082, -0.0011356814, 0.0069554416, -865432.2, 32619.297 
1.825709e+3, 2.1835287e+2, -790249.8, -908173.94, 37750.984, 0.0013347395, 0.007142061, -779200.0, 20942.469 
1.8255894e+3, 2.2834314e+2, -712377.56, -829335.94, 35840.406, -0.00096730667, 0.0057078134, -702268.5, -30.691801 
1.8254694e+3, 2.3833299e+2, -629259.75, -737902.94, 35459.145, -0.0046951612, 0.0027917747, -618710.8, -14373.512 
1.8253489e+3, 2.4832271e+2, -550824.94, -655470.4, 30678.781, -0.003500266, 0.007805137, -542494.1, -36056.043 
1.8252277e+3, 2.5831214e+2, -469411.06, -565277.0, 29275.906, -0.0013428519, 0.013972803, -461177.75, -52636.203 
1.8251058e+3, 2.6830122e+2, -392675.13, -482208.3, 22958.984, -0.0035909344, 0.001382445, -387131.06, -76482.24 
1.8249832e+3, 2.7829e+2, -312548.88, -390845.03, 22159.656, -0.0056977887, -0.018167883, -306712.25, -93953.65 
1.8248598e+3, 2.8827977e+2, -230372.05, -296949.06, 13327.028, -0.0023090364, 0.026026065, -227803.4, -112944.805 
1.8247359e+3, 2.9826972e+2, -161191.53, -228045.4, 9438.789, -0.0031283074, 0.0889907, -159884.47, -142927.16 
1.8246111e+3, 3.0825484e+2, -144963.22, -199966.61, 12568.799, -0.013488345, -0.13374022, -142227.23, -142227.23 
1.8244858e+3, 3.182458e+2, -37131.77, 77327.67, 13917.057, -0.0028776692, 0.018754128, 78995.54, 78995.54 
1.8368152e+3, 1.2855136e+2, -1522683.5, -1684712.6, 5591.8804, -0.004032829, 0.011175639, -1522490.8, 157706.58 
1.8366888e+3, 1.3854483e+2, -1442288.4, -1594581.1, 7717.103, 0.00925075, 0.0025641515, -1441898.4, 140362.98 
1.8365642e+3, 1.485383e+2, -1364748.5, -1511043.6, 20431.102, 0.004308289, 0.003732738, -1361948.8, 122376.58 
1.8364409e+3, 1.5853158e+2, -1282420.5, -1420511.0, 22034.744, -0.0028761297, 0.0064001153, -1278989.8, 107401.61 
1.8363187e+3, 1.6852446e+2, -1204030.8, -1341024.8, 29261.523, -0.0015756666, 0.008104554, -1198042.4, 90418.58 
1.8361974e+3, 1.7851695e+2, -1118610.4, -1248768.8, 29954.275, 0.001172267, 0.008182911, -1112047.8, 78486.89 
1.8360764e+3, 1.8850903e+2, -1040020.94, -1170089.6, 34067.06, 0.00063172216, 0.006932003, -1031638.5, 60973.73 
1.835956e+3, 1.9850065e+2, -955116.7, -1078462.1, 34547.688, -0.00058575167, 0.004500473, -946099.5, 48594.816 
1.8358356e+3, 2.0849182e+2, -876411.94, -1000839.5, 35227.652, -0.0013659396, 0.006700053, -867130.6, 29650.146 
1.8357153e+3, 2.1848251e+2, -790454.0, -908346.06, 34795.77, -0.002162167, 0.0090884585, -780950.2, 17921.85 
1.8355946e+3, 2.2847277e+2, -712553.9, -829726.56, 32161.217, -0.0023900277, 0.0061070304, -704306.8, -3339.1865 
1.8354736e+3, 2.3846254e+2, -629642.1, -739093.6, 31789.975, -0.002186005, 0.0014743869, -621078.75, -18011.008 
1.835352e+3, 2.4845213e+2, -552612.6, -659443.8, 26521.324, -0.0016429044, 0.014428823, -546390.9, -41221.063 
1.8352298e+3, 2.5844136e+2, -470992.53, -568582.6, 24976.889, -0.0020950658, 0.027146274, -464971.53, -57696.09 
1.8351066e+3, 2.684299e+2, -393590.97, -484245.75, 18076.434, -0.0056890165, -0.018931558, -390119.5, -80731.734 
1.8349825e+3, 2.7841815e+2, -316022.97, -398125.3, 17534.885, -0.00809455, -0.06966832, -312434.78, -100932.04 
1.8348582e+3, 2.884081e+2, -239426.0, -315728.56, 8343.357, 0.00042097003, 0.09282364, -238524.34, -124923.05 
1.8347327e+3, 2.9839808e+2, -160273.42, -225817.23, 3192.0188, 0.00459392, 0.266823, -160118.33, -144418.72 
1.8346058e+3, 3.0838048e+2, -121831.66, -152233.58, 4677.374, -0.018279543, -0.4483361, -121128.305, -121128.305 
1.8344784e+3, 3.1837687e+2, -94699.914, -43536.563, 5396.701, -0.008972897, 0.11274144, -42973.516, -42973.516 
1.8468295e+3, 1.2868065e+2, -1540090.8, -1688000.0, 10234.69, -0.0002496644, 0.008398792, -1539386.0, 139544.33 
1.846702e+3, 1.386746e+2, -1456507.0, -1596361.5, 13222.073, 0.0065909466, 0.0048615383, -1455267.9, 125721.555 
1.8465762e+3, 1.4866845e+2, -1376989.1, -1513130.4, 26878.09, 0.0026040333, 0.005811373, -1371874.8, 111174.98 
1.846452e+3, 1.5866205e+2, -1292353.5, -1421618.6, 28731.328, -0.0017062674, 0.0070292773, -1286255.1, 98857.45 
1.846329e+3, 1.6865522e+2, -1211774.8, -1342178.5, 37027.055, -0.0008387648, 0.007990919, -1201994.8, 85184.945 
1.8462068e+3, 1.7864792e+2, -1123550.0, -1248596.6, 38210.277, 0.00068217877, 0.0077999816, -1112798.5, 76452.64 
1.846085e+3, 1.8864018e+2, -1042563.8, -1169784.0, 42470.99, 0.0004979429, 0.0072842636, -1029688.44, 61638.535 
1.8459639e+3, 1.9863193e+2, -954437.25, -1076698.9, 42966.664, 0.00009478529, 0.0057029407, -940847.8, 52559.918 
1.8458427e+3, 2.0862317e+2, -874553.8, -999550.9, 43907.52, -0.001250234, 0.0071329195, -860672.1, 34821.53 
1.8457218e+3, 2.1861388e+2, -787391.4, -906537.2, 43909.055, -0.0030378115, 0.008291519, -772957.94, 24626.87 
1.8456002e+3, 2.286041e+2, -707069.3, -827757.1, 40890.04, -0.003101394, 0.0070477384, -694520.25, 5160.3657 
1.8454783e+3, 2.3859383e+2, -620704.5, -735621.25, 40330.574, -0.0021086733, 0.004562364, -607963.0, -6181.695 
1.8453556e+3, 2.4858321e+2, -542400.9, -656528.7, 34938.62, -0.0010733451, 0.013198323, -532554.44, -28669.105 
1.8452322e+3, 2.5857216e+2, -459165.56, -565042.2, 34012.9, -0.0013022232, 0.021713115, -449180.56, -43187.188 
1.8451078e+3, 2.685606e+2, -380558.84, -481146.0, 25884.766, -0.0061585433, -0.011629017, -374288.6, -66181.54 
1.8449825e+3, 2.785487e+2, -302184.44, -394421.38, 24731.31, -0.009572908, -0.050524343, -295971.75, -85747.83 
1.8448567e+3, 2.88538e+2, -230712.61, -314022.25, 20802.967, 0.001609263, 0.07641515, -225806.84, -113478.234 
1.84473e+3, 2.9852736e+2, -155301.89, -222969.67, 21684.428, 0.0085688755, 0.21819668, -148949.38, -134516.94 
1.8446012e+3, 3.085113e+2, -103361.2, -136304.22, 7799.934, -0.017088404, -0.38397384, -101607.74, -101607.74 
1.8444717e+3, 3.185082e+2, -85151.48, -63404.254, -1054.481, -0.013680591, 0.21527453, -63353.242, -63353.242 
1.8568431e+3, 1.2881108e+2, -1536494.1, -1679676.9, 6979.6743, 0.008194538, 0.002427132, -1536154.6, 141497.55 
1.8567143e+3, 1.3880573e+2, -1454245.1, -1589257.3, 9612.614, -0.003153016, 0.010964241, -1453564.1, 126140.625 
1.8565878e+3, 1.4879997e+2, -1375472.1, -1508406.3, 23750.816, -0.0029806353, 0.010867545, -1371356.1, 110404.96 
1.8564627e+3, 1.5879385e+2, -1290163.0, -1416533.4, 25834.373, 0.0036912924, 0.0070754657, -1285085.6, 98735.3 
1.8563388e+3, 1.6878733e+2, -1210041.6, -1337961.9, 34758.023, 0.002957293, 0.0062511633, -1201207.4, 84677.57 
1.8562159e+3, 1.7878032e+2, -1122121.6, -1244821.4, 35838.586, -0.0011703555, 0.005802963, -1112420.8, 75532.86 
1.8560936e+3, 1.887728e+2, -1041987.4, -1167996.9, 40211.848, -0.0017868098, 0.0076242653, -1030248.6, 59778.79 
1.8559718e+3, 1.9876471e+2, -953673.4, -1074681.9, 40735.004, -0.0010091697, 0.008704691, -941238.56, 50868.105 
1.8558499e+3, 2.0875604e+2, -873994.0, -998252.8, 41346.207, -0.0012753591, 0.008158779, -861493.9, 32697.736 
1.855728e+3, 2.1874678e+2, -786835.1, -905677.06, 41397.36, -0.0017651917, 0.006305388, -773836.5, 22445.748 
1.8556057e+3, 2.2873701e+2, -707538.25, -828956.4, 38145.42, -0.0029534067, 0.008746031, -696548.9, 1829.1686 
1.855483e+3, 2.3872669e+2, -621144.5, -736440.6, 37412.08, -0.0044120215, 0.010264724, -610068.75, -9589.461 
1.8553595e+3, 2.4871585e+2, -542972.25, -657804.6, 31178.992, -0.0020727422, 0.0043412144, -535052.75, -32467.314 
1.8552351e+3, 2.587046e+2, -460278.88, -567566.6, 30279.887, 0.00023409793, 0.00021122329, -452322.94, -47627.008 
1.8551095e+3, 2.686932e+2, -383557.34, -487445.22, 21240.484, -0.005213341, 0.024665212, -379382.38, -72575.05 
1.854983e+3, 2.786815e+2, -301894.1, -393936.3, 19562.773, -0.009857353, 0.039497096, -297908.75, -88986.36 
1.8548554e+3, 2.8866938e+2, -224445.36, -301074.7, 14259.792, 0.00087396, -0.035846956, -221877.81, -110836.734 
1.854727e+3, 2.986576e+2, -157538.73, -227234.28, 16057.177, 0.0072536827, -0.07794763, -154017.23, -140860.84 
1.854597e+3, 3.0864817e+2, -120267.305, -171542.19, 2751.3816, -0.009124736, 0.1597839, -120120.086, -120120.086 
1.8544659e+3, 3.186368e+2, -38430.645, 32840.5, -9793.248, -0.022535292, 0.01458924, 34161.68, 34161.68 
1.8668558e+3, 1.2894297e+2, -1554464.5, -1683018.0, 11247.355, 0.006690366, 0.0062693907, -1553487.9, 122871.89 
1.866726e+3, 1.3893804e+2, -1475538.3, -1594229.3, 14326.018, -0.001841776, 0.00924485, -1473833.5, 104574.58 
1.8665986e+3, 1.4893271e+2, -1391944.6, -1512170.8, 30377.375, -0.0019488197, 0.009574597, -1384705.1, 95755.17 
1.866473e+3, 1.58927e+2, -1299553.1, -1416900.4, 32323.428, 0.003844807, 0.0075289533, -1291238.6, 91277.71 
1.8663484e+3, 1.6892077e+2, -1218268.0, -1338690.3, 41285.438, 0.0030589036, 0.0070365085, -1205473.3, 79104.016 
1.8662249e+3, 1.7891404e+2, -1129535.4, -1245170.3, 42616.64, -0.0010121692, 0.006633416, -1115526.5, 71116.66 
1.8661019e+3, 1.8890677e+2, -1046499.0, -1167601.4, 47757.145, -0.0021100084, 0.008138278, -1029932.1, 58782.266 
1.8659794e+3, 1.9889891e+2, -954790.06, -1072757.4, 48785.758, -0.0016936866, 0.00875542, -937228.8, 53562.746 
1.8658571e+3, 2.088904e+2, -872703.4, -996245.0, 49524.22, -0.0013548649, 0.008368886, -855301.7, 37573.223 
1.8657346e+3, 2.1888125e+2, -782286.2, -902169.1, 49910.98, -0.0011449415, 0.0070159044, -764227.06, 30737.37 
1.8656115e+3, 2.2887154e+2, -701261.75, -825823.3, 46895.234, -0.0027271349, 0.009761624, -685580.6, 11479.135 
1.8654881e+3, 2.388612e+2, -612612.75, -732216.06, 46791.563, -0.004602235, 0.011474721, -596482.3, 2678.7532 
1.8653637e+3, 2.488503e+2, -532217.7, -653559.56, 39988.41, -0.0025487216, 0.0029890223, -520224.78, -18956.717 
1.8652385e+3, 2.5883886e+2, -447148.2, -562562.06, 39077.69, -0.00039849427, -0.0037309271, -435161.8, -31781.87 
1.8651119e+3, 2.6882738e+2, -370663.13, -484074.16, 30071.496, -0.005378655, 0.032379683, -363182.9, -57690.46 
1.864984e+3, 2.788155e+2, -288231.0, -389469.6, 28790.086, -0.009499316, 0.059701502, -280616.44, -73007.52 
1.8648548e+3, 2.8880277e+2, -209390.89, -295588.38, 15989.395, 0.0009885267, -0.06125796, -206520.48, -96786.69 
1.8647246e+3, 2.987904e+2, -142805.06, -222169.61, 12184.803, 0.0071673333, -0.14629407, -140976.47, -129121.55 
1.8645932e+3, 3.0878308e+2, -112853.14, -169851.95, 11483.033, -0.006050141, 0.32005027, -110626.73, -110626.73 
1.8644604e+3, 3.1876814e+2, -23488.746, 51918.82, 5505.0205, -0.024851354, -0.18285802, 52318.586, 52318.586 
1.8768679e+3, 1.2907602e+2, -1553289.1, -1677217.8, 6359.429, -0.00062633277, 0.013828329, -1552963.6, 122092.22 
1.8767369e+3, 1.390714e+2, -1471748.6, -1586938.5, 10747.73, 0.005429015, 0.003130783, -1470754.4, 106346.625 
1.8766087e+3, 1.4906654e+2, -1389372.1, -1506419.8, 29261.473, 0.0023998276, 0.0049933833, -1382464.5, 96684.17 
1.8764827e+3, 1.5906127e+2, -1298003.6, -1411737.4, 30562.102, 0.000058984086, 0.008703444, -1290311.4, 90889.05 
1.8763575e+3, 1.690554e+2, -1216897.9, -1334674.3, 39053.246, 0.0005321496, 0.00962757, -1205125.1, 78132.695 
1.8762334e+3, 1.7904899e+2, -1127462.8, -1240654.1, 40821.8, 0.0003236183, 0.009146846, -1114276.6, 71044.16 
1.87611e+3, 1.8904199e+2, -1044556.5, -1163256.9, 46401.715, -0.0011909774, 0.0087523805, -1028570.4, 58818.938 
1.875987e+3, 1.990344e+2, -953104.7, -1068854.0, 47260.043, -0.002216091, 0.0071151354, -936259.94, 53203.785 
1.8758641e+3, 2.0902611e+2, -871730.0, -993956.1, 47773.047, -0.0015029323, 0.0081716785, -855273.3, 36271.68 
1.8757412e+3, 2.1901716e+2, -781238.06, -899658.75, 48181.56, -0.0013187972, 0.009344445, -764111.44, 29521.24 
1.8756177e+3, 2.2900756e+2, -700638.8, -824428.7, 44642.05, -0.002816269, 0.010208669, -686219.3, 9507.563 
1.8754935e+3, 2.3899728e+2, -612052.5, -731219.8, 44550.773, -0.0037248302, 0.009983934, -597238.7, 588.8292 
1.8753684e+3, 2.4898642e+2, -532888.4, -654999.06, 36922.0, -0.0027422996, 0.008945126, -522592.53, -22658.436 
1.8752421e+3, 2.5897494e+2, -447619.44, -563449.25, 35763.49, -0.0025797936, 0.007911449, -437467.0, -35420.645 
1.8751144e+3, 2.6896307e+2, -371126.5, -485193.9, 25470.002, -0.006630947, 0.010885742, -365697.7, -61534.816 
1.8749855e+3, 2.7895075e+2, -291621.63, -396493.22, 23859.729, -0.009297984, 0.010349666, -286448.4, -80164.58 
1.8748547e+3, 2.8893822e+2, -218219.33, -313721.16, 9240.528, 0.0017757255, 0.013816185, -217333.45, -108927.08 
1.8747228e+3, 2.9892594e+2, -141931.31, -220381.34, 5169.7344, 0.008127074, 0.033280913, -141592.1, -131065.03 
1.8745893e+3, 3.089152e+2, -95968.2, -134615.02, 4450.3223, -0.009479729, -0.008379929, -95462.35, -95462.35 
1.8744552e+3, 3.189057e+2, -72640.414, -50240.387, 6635.235, -0.015947634, -0.02819537, -48422.465, -48422.465 
1.8868786e+3, 1.2920976e+2, -1582375.8, -1685315.4, 9880.822, 0.0000035458938, 0.011181104, -1581435.9, 92309.35 
1.8867469e+3, 1.3920574e+2, -1485263.0, -1587588.9, 14198.855, 0.0063156593, 0.0061855535, -1483329.4, 92455.41 
1.8866183e+3, 1.492013e+2, -1403610.9, -1508860.1, 32909.375, 0.0025463398, 0.007089348, -1394168.0, 83660.12 
1.8864916e+3, 1.591964e+2, -1314901.6, -1415191.0, 34653.8, -0.0011013747, 0.008671755, -1304092.4, 75783.695 
1.8863662e+3, 1.6919096e+2, -1228481.9, -1335632.8, 44270.63, -0.00027749996, 0.009702794, -1212557.5, 69371.92 
1.8862416e+3, 1.7918496e+2, -1132977.6, -1238905.4, 46606.992, 0.0006262024, 0.009732975, -1115391.0, 68597.445 
1.8861178e+3, 1.891783e+2, -1049319.5, -1161997.8, 52411.195, -0.00052618823, 0.0093233995, -1028710.4, 57343.133 
1.8859945e+3, 1.9917102e+2, -957004.44, -1066989.6, 53681.31, -0.0017687255, 0.007845195, -935147.4, 52977.496 
1.8858711e+3, 2.0916305e+2, -872680.6, -990921.3, 54985.836, -0.0017765154, 0.008311832, -851062.75, 39140.254 
1.8857478e+3, 2.1915439e+2, -778905.8, -895198.0, 56369.914, -0.0016894619, 0.00890951, -756067.1, 36220.742 
1.8856238e+3, 2.2914504e+2, -695756.25, -819799.56, 53144.87, -0.0033188532, 0.0109045785, -676101.3, 18278.322 
1.8854992e+3, 2.3913497e+2, -603957.2, -725175.2, 53716.023, -0.0045051114, 0.011685216, -583579.4, 12898.949 
1.8853734e+3, 2.4912415e+2, -523453.03, -649999.75, 46231.117, -0.0027549968, 0.008758005, -508362.9, -9778.707 
1.8852465e+3, 2.5911275e+2, -435416.4, -556947.94, 46258.633, -0.0016759143, 0.006611732, -419812.44, -19116.104 
1.8851177e+3, 2.6910087e+2, -354091.25, -477576.8, 35356.414, -0.008209062, 0.012728784, -344684.56, -41871.83 
1.8849877e+3, 2.790884e+2, -270391.22, -388368.63, 33514.49, -0.01262739, 0.013203036, -261535.34, -56600.617 
1.8848553e+3, 2.890755e+2, -201887.22, -310982.53, 21256.91, 0.0057510817, 0.014905508, -197891.7, -90830.32 
1.8847215e+3, 2.990627e+2, -128929.04, -218149.45, 21713.447, 0.017073307, 0.03805313, -123925.29, -114738.71 
1.8845864e+3, 3.090514e+2, -74197.85, -126437.07, 5213.8384, -0.027418882, -0.035288837, -73682.56, -73682.56 
1.8844508e+3, 3.190429e+2, -63640.637, -66169.875, 2744.224, -0.009313649, 0.09471661, -61883.664, -61883.664 
1.8968882e+3, 1.2934415e+2, -1578413.6, -1676810.8, 9939.773, 0.004472051, 0.0045903665, -1577419.6, 95008.71 
1.8967564e+3, 1.3934083e+2, -1483341.1, -1580472.1, 13019.575, 0.002948706, 0.014170217, -1481626.3, 92834.625 
1.8966272e+3, 1.4933686e+2, -1401852.4, -1503348.1, 30517.602, 0.000051346386, 0.012382989, -1393383.1, 83116.71 
1.8964998e+3, 1.593323e+2, -1311779.6, -1408542.4, 33149.348, -0.00022167216, 0.0074359104, -1301512.6, 77031.78 
1.8963741e+3, 1.6932735e+2, -1225314.6, -1328424.0, 43851.434, 0.00022000865, 0.008048756, -1209187.5, 71405.41 
1.8962494e+3, 1.7932184e+2, -1130603.5, -1232637.3, 45666.17, -0.00014358269, 0.009257107, -1113150.5, 69496.43 
1.8961252e+3, 1.893156e+2, -1047350.06, -1157058.8, 51016.14, -0.00029377037, 0.010079569, -1027293.5, 57414.637 
1.8960017e+3, 1.9930868e+2, -954403.44, -1061231.8, 52639.16, -0.0005641769, 0.010011427, -932824.56, 53951.273 
1.895878e+3, 2.0930113e+2, -869784.7, -984597.1, 54048.58, -0.0020839542, 0.008629055, -848344.75, 40505.188 
1.8957543e+3, 2.1929288e+2, -776215.94, -889385.44, 55338.8, -0.003075188, 0.0070528793, -753653.9, 37276.85 
1.89563e+3, 2.2928387e+2, -693898.44, -815663.75, 51688.066, -0.0045587462, 0.012111972, -674916.5, 18102.459 
1.895505e+3, 2.3927413e+2, -602088.6, -720889.25, 52121.277, -0.0059929173, 0.015679546, -582463.44, 12651.103 
1.8953787e+3, 2.4926348e+2, -522214.34, -647323.1, 43658.766, -0.0023039489, 0.0030219848, -508485.44, -11266.385 
1.895251e+3, 2.5925213e+2, -434281.66, -554598.25, 44078.906, 0.00054519676, -0.005996361, -419861.34, -20531.2 
1.8951216e+3, 2.6924068e+2, -354458.88, -478241.16, 32269.012, -0.010880208, 0.038575333, -346551.72, -45109.332 
1.8949905e+3, 2.7922854e+2, -269205.16, -386052.4, 29012.332, -0.019343738, 0.06791755, -262398.13, -58836.46 
1.8948567e+3, 2.8921452e+2, -199557.39, -306203.4, 13307.294, 0.012854049, -0.06864535, -197921.98, -92223.03 
1.8947208e+3, 2.9920074e+2, -136900.5, -234489.53, 15696.517, 0.033754945, -0.1465545, -134437.95, -126604.11 
1.8945837e+3, 3.091922e+2, -96418.125, -173284.38, -93.80871, -0.063322365, 0.32141995, -96418.01, -96418.01 
1.8944472e+3, 3.1917715e+2, -23594.98, 16250.861, -8014.6626, 0.000674379, -0.05760544, 17802.521, 17802.521 
1.906897e+3, 1.2947887e+2, -1600926.1, -1680365.8, 10208.119, 0.004927652, 0.007482017, -1599635.4, 71472.766 
1.9067648e+3, 1.3947617e+2, -1509713.9, -1586295.8, 13892.839, 0.0022046177, 0.012685176, -1507271.5, 65863.195 
1.9066353e+3, 1.4947273e+2, -1421435.9, -1507248.5, 32167.59, -0.00009342914, 0.011764449, -1410716.6, 64451.637 
1.9065078e+3, 1.594687e+2, -1323291.5, -1408602.3, 35254.04, 0.0015142042, 0.008522241, -1310608.5, 66599.234 
1.9063815e+3, 1.6946422e+2, -1236820.4, -1328576.5, 46079.51, 0.0013313134, 0.008534426, -1217674.4, 61577.23 
1.9062567e+3, 1.7945918e+2, -1143018.3, -1233090.3, 48093.176, -0.00062919914, 0.009123112, -1122166.5, 59134.51 
1.9061323e+3, 1.8945347e+2, -1055519.4, -1154978.4, 54449.195, -0.0008979148, 0.010314447, -1031507.9, 51849.26 
1.9060086e+3, 1.9944708e+2, -958373.9, -1057295.8, 57180.76, -0.00029528985, 0.010606585, -932230.44, 53189.17 
1.9058847e+3, 2.0944002e+2, -872268.6, -980142.75, 59118.863, -0.0016305512, 0.00909254, -846179.2, 41309.6 
1.9057609e+3, 2.1943228e+2, -777139.25, -883924.8, 61018.98, -0.0033774455, 0.0075917174, -749451.2, 40113.473 
1.905636e+3, 2.2942379e+2, -692960.6, -809387.44, 58416.273, -0.0049958876, 0.012520089, -668704.3, 22943.447 
1.9055109e+3, 2.3941456e+2, -598515.56, -713282.75, 60668.35, -0.0056665745, 0.01563959, -572391.5, 21346.852 
1.905384e+3, 2.4940436e+2, -513500.94, -638054.8, 53344.14, -0.0018904041, 0.0008015953, -493777.78, 2060.525 
1.9052559e+3, 2.5939342e+2, -420251.3, -543185.4, 55185.664, 0.00015693346, -0.009460483, -399112.94, -1167.5813 
1.9051257e+3, 2.6938236e+2, -345482.13, -471995.66, 43374.9, -0.013104651, 0.0454645, -332039.47, -31985.414 
1.9049937e+3, 2.7937046e+2, -261492.67, -378160.13, 42196.5, -0.02200418, 0.08217544, -247830.8, -45660.05 
1.9048588e+3, 2.8935644e+2, -171440.88, -287678.66, 26102.37, 0.01582444, -0.09606468, -165848.39, -61540.637 
1.9047216e+3, 2.9934263e+2, -98529.02, -222923.5, 28728.441, 0.038201287, -0.1987988, -92214.805, -85771.414 
1.904582e+3, 3.0933437e+2, -98129.91, -196514.25, 17218.725, -0.07958819, 0.46340796, -95203.42, -95203.42 
1.9044426e+3, 3.1931576e+2, -25905.412, 62718.297, 3701.6785, 0.024162645, -0.20424208, 62872.64, 62872.64 
1.9169046e+3, 1.2961383e+2, -1597005.4, -1670439.1, 8813.591, 0.0020699159, 0.013798877, -1595962.4, 73823.14 
1.9167721e+3, 1.3961169e+2, -1505287.9, -1576521.8, 13248.135, 0.0029857275, 0.0057648052, -1502903.8, 68902.63 
1.9166425e+3, 1.4960891e+2, -1418051.5, -1499260.4, 32373.256, 0.0010289534, 0.0081134, -1406725.6, 67108.02 
1.9165151e+3, 1.5960549e+2, -1320481.0, -1401347.0, 34874.06, 0.002625719, 0.011263192, -1307519.0, 68348.25 
1.9163887e+3, 1.696015e+2, -1233914.3, -1321601.8, 45069.563, 0.0020044881, 0.010328735, -1214880.8, 63025.547 
1.9162634e+3, 1.7959696e+2, -1139384.5, -1225134.3, 47546.05, -0.0010642189, 0.008804379, -1118236.9, 61714.098 
1.916139e+3, 1.8959185e+2, -1051028.8, -1145107.6, 54271.83, -0.0021985525, 0.010061506, -1026248.0, 55752.773 
1.9160151e+3, 1.9958615e+2, -954441.4, -1048417.0, 56708.46, -0.0015543229, 0.010713568, -927783.4, 56273.293 
1.9158912e+3, 2.0957969e+2, -868505.94, -971745.6, 58383.348, -0.001152265, 0.0102713825, -842194.94, 43925.094 
1.915767e+3, 2.1957257e+2, -772827.2, -874540.25, 60300.02, -0.002173579, 0.00981281, -744801.0, 43388.906 
1.9156422e+3, 2.2956477e+2, -687910.6, -798613.8, 57434.69, -0.0043320935, 0.012149809, -663496.7, 26769.54 
1.9155166e+3, 2.3955624e+2, -593458.25, -702517.6, 60027.29, -0.0054408237, 0.012786962, -566890.75, 25459.084 
1.9153896e+3, 2.495468e+2, -508982.72, -628343.8, 52451.605, -0.0025955322, 0.0022843834, -489209.25, 5233.155 
1.9152613e+3, 2.595366e+2, -415939.88, -533880.9, 53232.246, -0.0016656414, -0.0041657076, -395467.38, 1075.1516 
1.91513e+3, 2.6952583e+2, -342933.2, -466484.25, 38687.51, -0.014279574, 0.033625692, -331818.8, -33170.766 
1.9149968e+3, 2.7951422e+2, -257681.52, -369962.72, 39832.08, -0.02156272, 0.055869255, -244986.38, -44224.37 
1.9148615e+3, 2.8950143e+2, -167142.81, -279057.8, 24390.742, 0.013747265, -0.059462823, -162058.11, -59171.117 
1.9147235e+3, 2.994885e+2, -97683.75, -222168.7, 21617.625, 0.02879721, -0.10892366, -94036.56, -89023.23 
1.9145806e+3, 3.094776e+2, -103397.65, -206578.25, 1496.8231, -0.072467014, 0.32912934, -103375.94, -103375.94 
1.9144364e+3, 3.1946075e+2, -16861.61, 87079.94, -26369.637, 0.042582486, -0.15741345, 93387.11, 93387.11 
1.9269113e+3, 1.2974885e+2, -1624192.9, -1678246.5, 8212.007, 0.0037344412, 0.013000129, -1622972.9, 45489.414 
1.9267787e+3, 1.3974725e+2, -1524717.8, -1579893.9, 12109.297, 0.0019236119, 0.008187956, -1522177.1, 48300.793 
1.926649e+3, 1.4974503e+2, -1435434.8, -1501475.3, 31017.486, 0.00015119696, 0.010234613, -1423151.3, 49348.566 
1.9265214e+3, 1.5974215e+2, -1337645.8, -1403709.3, 33411.54, 0.0022963774, 0.012862687, -1323694.3, 50833.84 
1.926395e+3, 1.697387e+2, -1247695.8, -1321818.1, 43709.543, 0.0020454577, 0.012359233, -1227450.3, 49111.563 
1.9262697e+3, 1.7973472e+2, -1150127.5, -1223654.9, 46872.332, -0.00058963086, 0.010904414, -1127321.1, 51279.664 
1.9261451e+3, 1.8973027e+2, -1060732.6, -1142024.6, 53970.93, -0.0020021554, 0.010893703, -1033814.1, 46830.37 
1.9260211e+3, 1.9972524e+2, -963965.7, -1045218.6, 56698.664, -0.0019819115, 0.010733258, -934840.8, 47852.87 
1.9258972e+3, 2.0971952e+2, -875586.0, -966125.3, 59497.176, -0.0018520135, 0.010390288, -846094.3, 38655.367 
1.9257729e+3, 2.1971321e+2, -777845.2, -867804.8, 62832.918, -0.002372348, 0.00993607, -745551.7, 41259.992 
1.925648e+3, 2.297063e+2, -689834.44, -789061.1, 60936.74, -0.0036638605, 0.012733107, -660868.06, 28011.281 
1.9255221e+3, 2.3969871e+2, -593325.56, -691905.2, 64951.188, -0.0047426834, 0.014099388, -561079.25, 29874.412 
1.9253948e+3, 2.4969023e+2, -509406.28, -617531.1, 58977.055, -0.0040619904, 0.0045306105, -483462.22, 9574.519 
1.9252662e+3, 2.5968102e+2, -415732.34, -521681.34, 62168.836, -0.0041496847, -0.0012894964, -387029.06, 8097.8965 
1.9251344e+3, 2.6967132e+2, -333074.1, -449110.3, 50643.64, -0.012395967, 0.02856824, -314080.0, -16857.924 
1.9250005e+3, 2.7966067e+2, -239018.25, -351301.94, 57416.16, -0.01641131, 0.0435371, -214857.4, -15531.005 
1.9248646e+3, 2.8964853e+2, -158653.95, -274481.16, 39191.805, 0.008115228, -0.045963027, -146639.14, -45193.81 
1.9247256e+3, 2.996361e+2, -86709.28, -204848.47, 31405.895, 0.015028689, -0.07572687, -78879.35, -75312.32 
1.9245799e+3, 3.096257e+2, -71804.69, -167539.69, 21765.389, -0.060936105, 0.22732587, -67088.64, -67088.64 
1.9244318e+3, 3.1961164e+2, 15902.272, 64962.887, 4571.96, 0.038939606, -0.063309774, 65385.313, 65385.313 
1.9369169e+3, 1.298838e+2, -1623049.6, -1673479.1, 8458.109, 0.007786599, 0.009696533, -1621668.9, 45471.168 
1.9367842e+3, 1.3988268e+2, -1521578.6, -1573061.4, 12876.442, -0.00038078983, 0.015586555, -1518537.8, 50613.156 
1.9366547e+3, 1.4988096e+2, -1431837.0, -1493449.5, 31010.34, -0.0020448386, 0.014875042, -1418932.0, 52235.664 
1.9365272e+3, 1.598786e+2, -1334342.5, -1395915.3, 33313.13, 0.0014908477, 0.013105616, -1319768.5, 53422.313 
1.9364008e+3, 1.6987577e+2, -1243703.1, -1312601.4, 43476.887, 0.0021394507, 0.014153212, -1222681.8, 52536.848 
1.9362754e+3, 1.7987247e+2, -1146201.5, -1214616.6, 46625.08, 0.00026858668, 0.014581028, -1122581.4, 54669.734 
1.9361508e+3, 1.8986867e+2, -1055900.6, -1131428.9, 53645.242, -0.0010794867, 0.0123444535, -1028060.3, 51227.99 
1.9360267e+3, 1.9986436e+2, -958590.5, -1033792.7, 56412.438, -0.0016420351, 0.009780995, -928396.25, 52934.13 
1.9359025e+3, 2.0985956e+2, -868736.4, -951581.25, 59231.227, -0.0031717569, 0.00884553, -837880.5, 45497.004 
1.9357784e+3, 2.1985422e+2, -771379.1, -853829.2, 62508.863, -0.0046526124, 0.008620847, -737725.2, 47704.55 
1.9356534e+3, 2.2984838e+2, -682349.75, -772937.06, 60465.12, -0.0036510048, 0.014422595, -652095.1, 35391.832 
1.9355275e+3, 2.3984195e+2, -585596.2, -675514.94, 64265.277, -0.002794802, 0.01857735, -552124.94, 37425.125 
1.9353999e+3, 2.4983467e+2, -500123.28, -598048.9, 57670.95, -0.005697999, 0.0067577017, -473433.63, 18187.602 
1.9352709e+3, 2.598268e+2, -404936.7, -499094.22, 61178.42, -0.008930958, -0.001655664, -374819.53, 18878.615 
1.9351389e+3, 2.6981887e+2, -320141.7, -422429.9, 49275.723, -0.008628285, 0.029981444, -300265.97, -4490.1587 
1.9350047e+3, 2.7980986e+2, -231263.52, -335264.2, 56017.28, -0.0066794776, 0.04628315, -206831.06, -8967.139 
1.934868e+3, 2.8979766e+2, -162964.03, -283346.88, 34950.78, -0.002060329, -0.05840525, -153552.55, -53568.703 
1.9347276e+3, 2.997852e+2, -71014.25, -171429.72, 24878.182, -0.005813759, -0.10698887, -65188.598, -63082.37 
1.9345796e+3, 3.0977914e+2, -33153.12, -87114.984, 10575.873, -0.0429103, 0.17034642, -31154.408, -31154.408 
1.9344293e+3, 3.1976867e+2, -56277.836, -89996.73, 20241.271, 0.011020781, 0.0745122, -46794.35, -46794.35 
1.9469213e+3, 1.3001794e+2, -1646830.5, -1677932.0, 4933.1997, 0.004066804, 0.010238771, -1646066.8, 19758.752 
1.9467895e+3, 1.4001743e+2, -1537806.3, -1575309.4, 9480.595, 0.004057868, 0.015295101, -1535545.8, 32284.6 
1.94666e+3, 1.5001611e+2, -1447971.6, -1496983.1, 25080.658, 0.000044334825, 0.012934691, -1437412.1, 32431.27 
1.9465323e+3, 1.6001414e+2, -1350608.8, -1398149.4, 26936.588, 0.0008728576, 0.0096947765, -1338454.0, 33408.547 
1.9464058e+3, 1.7001195e+2, -1257844.0, -1311330.3, 37338.297, 0.0017332712, 0.010032811, -1238659.5, 35224.543 
1.9462804e+3, 1.8000935e+2, -1159936.9, -1213725.6, 41056.906, 0.00032689332, 0.010867255, -1137750.0, 38159.62 
1.9461559e+3, 1.900063e+2, -1067095.0, -1128053.3, 48457.01, -0.00075623294, 0.012428567, -1040328.56, 37610.94 
1.9460319e+3, 2.0000282e+2, -968044.1, -1029436.94, 51373.45, -0.0009010276, 0.013205055, -938894.9, 41078.7 
1.9459076e+3, 2.0999892e+2, -876613.5, -944159.4, 54044.855, -0.0018720592, 0.012096181, -846656.9, 35354.977 
1.9457833e+3, 2.1999459e+2, -779559.3, -846268.8, 57472.08, -0.0029779188, 0.011048446, -746464.25, 37590.023 
1.945658e+3, 2.2998989e+2, -690020.4, -761962.3, 56336.457, -0.0027167278, 0.012661959, -659150.44, 26949.879 
1.9455321e+3, 2.3998472e+2, -594691.3, -664668.56, 61579.5, -0.0026656974, 0.013087244, -558854.56, 29296.244 
1.9454043e+3, 2.4997912e+2, -506832.56, -580942.5, 56944.77, -0.00607737, 0.0058300565, -475948.03, 14257.728 
1.9452749e+3, 2.599731e+2, -412257.8, -483350.6, 63898.57, -0.00946407, 0.0015440184, -374683.94, 17580.762 
1.9451427e+3, 2.6996702e+2, -322810.34, -399422.63, 52933.754, -0.005055911, 0.025108567, -295776.28, -1452.0062 
1.945008e+3, 2.799602e+2, -236965.11, -311055.66, 62320.12, 0.000039779577, 0.03586459, -201511.08, -5119.977 
1.9448696e+3, 2.89951e+2, -184716.88, -260704.58, 59702.535, -0.011125072, -0.0421288, -151944.03, -53462.785 
1.944728e+3, 2.9994205e+2, -85942.29, -137062.16, 76737.484, -0.029151125, -0.05336486, -30619.887, -30051.127 
1.9445813e+3, 3.0993637e+2, 3073.6328, -103794.11, 32957.344, -0.010233184, 0.20992815, 12420.055, 12420.055 
1.9444318e+3, 3.1991717e+2, -6823.9004, -198356.6, -16151.901, 0.06393905, -0.17999883, -5471.366, -5471.366 
1.9569248e+3, 1.3015133e+2, -1642238.9, -1667402.9, 8055.0576, -0.0038976714, 0.012370956, -1639881.3, 24637.016 
1.9567938e+3, 1.4015146e+2, -1535246.6, -1568572.0, 11317.881, 0.011738063, 0.010815897, -1531766.4, 34750.633 
1.9566645e+3, 1.5015046e+2, -1446466.8, -1492918.1, 24624.088, 0.004171743, 0.007923765, -1435843.1, 32683.668 
1.9565366e+3, 1.6014884e+2, -1347380.5, -1391135.9, 27107.541, -0.00038820202, 0.0050296816, -1334423.6, 36119.055 
1.9564103e+3, 1.7014731e+2, -1252479.6, -1299957.8, 37254.37, 0.0002607985, 0.003021435, -1232043.6, 40514.06 
1.9562848e+3, 1.8014546e+2, -1155090.9, -1203394.8, 40949.1, -0.00041806255, 0.0028522287, -1131701.9, 42874.004 
1.9561602e+3, 1.9014323e+2, -1061410.3, -1115999.4, 48445.4, -0.00089083373, 0.012242733, -1033099.44, 43498.09 
1.9560364e+3, 2.0014066e+2, -962635.9, -1017819.2, 51121.145, -0.00034129262, 0.02081219, -932135.6, 46487.227 
1.9559121e+3, 2.1013767e+2, -869613.6, -929191.44, 53516.332, 0.0009667645, 0.019904226, -838154.06, 42498.047 
1.9557878e+3, 2.2013436e+2, -771966.3, -830263.56, 56870.336, 0.0015358872, 0.0163618, -737209.75, 45474.777 
1.9556624e+3, 2.301309e+2, -679525.94, -739880.75, 55350.008, -0.0015097839, 0.008052547, -646661.3, 38057.21 
1.955536e+3, 2.4012719e+2, -583763.1, -641443.06, 60547.246, -0.0047984836, 0.0006437054, -545538.06, 41216.62 
1.955408e+3, 2.5012365e+2, -491046.06, -548174.2, 55346.402, -0.0054924246, 0.004365419, -457327.47, 31462.053 
1.9552784e+3, 2.601199e+2, -398912.84, -456116.03, 63216.61, -0.0062632617, 0.010325582, -358128.63, 32697.783 
1.9551459e+3, 2.7011573e+2, -304348.25, -361267.4, 51315.688, -0.0026432131, 0.014617256, -274128.66, 18738.463 
1.9550104e+3, 2.8011164e+2, -209886.3, -254666.61, 56057.74, 0.0011253961, 0.010645368, -171912.64, 22994.326 
1.95487e+3, 2.9010874e+2, -138858.77, -164538.86, 52723.59, -0.020144517, 0.005845885, -97434.24, -498.97018 
1.9669278e+3, 1.302837e+2, -1657334.4, -1670471.8, 3379.8608, 0.003241952, 0.016235305, -1656515.9, 6705.362 
1.9667974e+3, 1.4028421e+2, -1550400.8, -1571095.5, 4292.5947, 0.0043834113, 0.011578323, -1549545.8, 15670.465 
1.9666684e+3, 1.5028375e+2, -1459087.1, -1493290.6, 15926.591, -0.0005167602, 0.014383713, -1452819.5, 14400.977 
1.9665405e+3, 1.6028269e+2, -1359388.0, -1392934.8, 19042.068, 0.0007251189, 0.017813325, -1350785.3, 18445.818 
1.9664142e+3, 1.702815e+2, -1264842.8, -1302036.4, 26910.648, 0.002212226, 0.019575005, -1250728.3, 20514.393 
1.9662887e+3, 1.8028003e+2, -1167051.4, -1204079.3, 28656.03, 0.0006710531, 0.019655246, -1151448.9, 21808.197 
1.9661643e+3, 1.9027832e+2, -1071330.1, -1112382.8, 35395.523, -0.001486416, 0.015196191, -1050939.8, 24334.09 
1.9660404e+3, 2.0027639e+2, -972524.56, -1013593.94, 37409.844, -0.0019716325, 0.011455329, -950384.06, 26908.71 
1.965916e+3, 2.1027441e+2, -877777.5, -920108.5, 39952.387, -0.0021217, 0.0125740385, -853730.5, 25581.61 
1.9657914e+3, 2.2027232e+2, -781407.25, -822002.9, 43731.277, -0.0027299135, 0.013908419, -753492.75, 27839.883 
1.965666e+3, 2.3027027e+2, -687827.5, -726938.9, 41654.87, -0.0030366743, 0.015209443, -661366.3, 21986.47 
1.9655393e+3, 2.4026816e+2, -593519.9, -629770.1, 46873.824, -0.0033232307, 0.015574668, -561388.9, 23984.598 
1.965411e+3, 2.502662e+2, -497092.8, -530078.2, 39383.38, -0.0046376884, 0.01510007, -470888.2, 16504.229 
1.965281e+3, 2.6026428e+2, -406149.7, -437402.1, 45511.805, -0.0064559295, 0.015125975, -373656.22, 15754.965 
1.965148e+3, 2.7026245e+2, -315839.22, -336053.4, 34143.89, -0.0042515914, 0.010297322, -290337.9, 1091.4515 
1.9650118e+3, 2.8026104e+2, -221709.48, -230020.48, 35749.473, -0.0006797047, 0.0011905438, -189874.81, 3568.1443 
1.96487e+3, 2.9026163e+2, -119787.78, -113306.83, 12697.931, -0.022008065, 0.02362825, -103442.414, -8005.205 
1.9769304e+3, 1.3041502e+2, -1656823.8, -1668281.8, 5696.7393, 0.016630365, 0.02125639, -1654473.5, 7460.7256 
1.9768003e+3, 1.4041576e+2, -1546962.1, -1565166.8, 5935.8877, -0.010713857, 0.01554709, -1545197.6, 18729.406 
1.9766717e+3, 1.5041594e+2, -1454254.3, -1484281.1, 15105.977, -0.009982397, 0.026289504, -1447969.9, 17955.39 
1.976544e+3, 1.6041546e+2, -1357496.3, -1389253.1, 18131.094, 0.0033000454, 0.038036574, -1349273.6, 18656.389 
1.9764176e+3, 1.7041443e+2, -1265203.1, -1301385.4, 26374.39, 0.0062274826, 0.046896376, -1251311.5, 18628.602 
1.9762921e+3, 1.804131e+2, -1166615.4, -1200732.5, 29203.475, 0.002453201, 0.047877725, -1149853.4, 22099.754 
1.9761677e+3, 1.9041166e+2, -1067368.4, -1102640.6, 36176.74, -0.0031163269, 0.016321672, -1044757.94, 29209.35 
1.9760439e+3, 2.0041019e+2, -967199.0, -1001928.94, 37995.14, -0.0063178837, -0.012715262, -942788.7, 33192.94 
1.9759193e+3, 2.1040931e+2, -869129.9, -901870.4, 39947.9, -0.010042793, -0.00848568, -842328.1, 35662.094 
1.9757947e+3, 2.2040854e+2, -773481.8, -805061.7, 43357.7, -0.013215418, 0.00346774, -743128.3, 36869.38 
1.9756688e+3, 2.3040807e+2, -677623.75, -705113.1, 40741.2, -0.0067971125, 0.029504027, -648371.2, 33631.27 
1.975542e+3, 2.4040759e+2, -584287.44, -610381.2, 46547.754, -0.0009803678, 0.04929838, -548992.7, 35014.313 
1.9754133e+3, 2.5040692e+2, -485915.16, -506965.78, 38612.883, -0.0053768884, 0.032157872, -456418.75, 29595.033 
1.975283e+3, 2.6040652e+2, -391070.72, -406013.22, 43548.47, -0.010100301, 0.013644211, -354357.25, 33660.25 
1.975149e+3, 2.7040732e+2, -296220.0, -295509.3, 31075.697, -0.009250283, 0.012373584, -264786.94, 25222.922 
1.9750123e+3, 2.8040844e+2, -211841.9, -209831.83, 34895.457, -0.005643824, 0.011047943, -175926.94, 16071.778 
1.9748698e+3, 2.904095e+2, -112877.88, -99891.46, 8843.836, -0.017248772, 0.008146855, -95413.11, -1424.9354 
1.9869322e+3, 1.3054493e+2, -1664606.6, -1670693.6, 2433.6582, -0.0054247095, 0.008454063, -1663753.3, -3092.0105 
1.9868037e+3, 1.4054583e+2, -1550227.1, -1566322.6, 0.71296495, 0.018672898, 0.0098650735, -1550227.1, 12425.234 
1.9866751e+3, 1.5054584e+2, -1458357.0, -1486332.9, 3430.6465, 0.008536599, 0.000047699967, -1457942.5, 6709.966 
1.9865473e+3, 1.6054524e+2, -1360324.0, -1386345.0, 3451.102, 0.002833788, -0.011854066, -1359874.0, 6784.227 
1.9864206e+3, 1.7054465e+2, -1271148.9, -1295557.1, 13319.148, -0.0025152743, -0.029019685, -1265288.1, 3375.9478 
1.9862948e+3, 1.8054397e+2, -1179141.6, -1199941.0, 20348.848, -0.007842905, -0.034985866, -1166689.0, 3981.5537 
1.9861707e+3, 1.9054396e+2, -1076606.3, -1098786.5, 28237.602, 0.0006548577, 0.012240625, -1057359.1, 15311.64 
1.9860472e+3, 2.005439e+2, -974843.8, -998889.94, 28940.975, 0.010219129, 0.05342808, -955527.9, 19143.492 
1.9859226e+3, 2.1054359e+2, -874739.06, -894833.9, 27808.496, 0.009142479, 0.04592334, -855218.5, 21455.758 
1.9857976e+3, 2.2054346e+2, -779126.0, -796258.6, 28566.775, 0.0059850314, 0.02862754, -757868.8, 20806.912 
1.985671e+3, 2.3054375e+2, -684312.44, -690529.6, 25344.477, 0.0027685105, -0.0017730636, -661886.6, 18786.271 
1.9855438e+3, 2.4054447e+2, -594968.25, -596770.6, 33337.05, -0.00028348767, -0.023242258, -562520.2, 20145.57 
1.9854152e+3, 2.5054598e+2, -491884.44, -486672.4, 28688.953, -0.0030150346, -0.008074304, -460471.34, 24179.756 
1.9852844e+3, 2.6054794e+2, -392041.25, -384904.03, 34979.723, -0.00486036, 0.0092336545, -353311.34, 33320.363 
1.9851501e+3, 2.7055064e+2, -287324.2, -272370.88, 16147.544, -0.003286815, 0.025223006, -262053.05, 26552.309 
1.9850129e+3, 2.805535e+2, -197788.25, -186556.83, 14255.54, -0.00034246876, 0.03351033, -176850.77, 13726.643 
1.9848703e+3, 2.905553e+2, -93937.18, -85034.36, -6891.4204, -0.016760208, 0.012778546, -81281.7, 11278.089 
1.996934e+3, 1.306739e+2, -1660648.3, -1664913.6, -4394.7715, 0.011370612, 0.01947876, -1657896.0, 1501.3601 
1.9968063e+3, 1.4067513e+2, -1552807.3, -1566470.6, 1582.0878, -0.0026982338, 0.023605656, -1552626.5, 8758.912 
1.996678e+3, 1.5067509e+2, -1469937.9, -1493448.3, 12966.579, -0.0052471864, 0.02045177, -1464191.1, -805.41595 
1.9965501e+3, 1.606745e+2, -1371899.9, -1388648.0, 16187.715, -0.001487168, 0.017685872, -1362048.5, 3343.036 
1.9964232e+3, 1.70675e+2, -1269968.4, -1286326.0, 6644.027, 0.008428248, 0.05025195, -1267609.8, -222.9896 
1.9962971e+3, 1.8067496e+2, -1171660.0, -1190856.4, -1260.546, 0.0034788179, 0.0372527, -1171577.5, -2190.5552 
1.9961731e+3, 1.9067457e+2, -1066612.1, -1087828.6, -2508.6045, -0.0063876915, -0.0010351704, -1066319.5, 5071.1855 
1.9960497e+3, 2.0067488e+2, -966493.4, -990099.3, -6471.262, -0.0024275305, 0.018206382, -964835.75, 8551.903 
1.995925e+3, 2.1067503e+2, -870722.5, -884958.06, 3187.7678, -0.0058738943, -0.0027435212, -870041.25, 5344.957 
1.9958e+3, 2.2067587e+2, -777297.2, -785087.94, 11285.837, -0.0057647484, 0.0007302826, -769253.4, 8124.6523 
1.9956729e+3, 2.306783e+2, -673615.25, -667374.25, 3468.7837, -0.005693712, 0.052363362, -665828.94, 13525.428 
1.9955449e+3, 2.4068056e+2, -580893.25, -568957.94, 6879.3105, -0.0077132336, 0.012954327, -565818.56, 15513.66 
1.9954163e+3, 2.5068432e+2, -479198.94, -453960.06, -7536.0127, 0.0026650124, 0.030740524, -451881.16, 31414.242 
1.9952855e+3, 2.606884e+2, -388844.97, -364904.84, -2444.9238, -0.0073414464, 0.02673338, -364657.72, 20598.043 
1.995151e+3, 2.7069184e+2, -290226.16, -266000.38, -7175.127, -0.01764076, 0.012322776, -264034.75, 23187.178 
1.9950135e+3, 2.8069562e+2, -183419.94, -160591.94, 336.39835, -0.000030616677, 0.016124597, -160586.98, 28597.867 
1.9948712e+3, 2.90699e+2, -89668.96, -81252.96, -4639.476, -0.019973123, 0.027722023, -79197.414, 11954.389 
