coord_x,coord_y,stress_xx,stress_yy,tau_xy,velocity_x,velocity_y,stress_1,eps,damage
4.9998674e+0, 1.2341771e+2, -1720737.4, -1720646.8, -747.54065, 0.00005246618, -0.06361988, -1719943.1, 10557.236 
5.000073e+0, 1.3341494e+2, -1636350.5, -1660103.3, -625.1295, -0.00004302057, -0.055068843, -1636334.1, -3806.5237 
5.000273e+0, 1.434115e+2, -1535920.4, -1566264.3, -727.76105, 0.00015494396, -0.06837832, -1535903.0, -1341.7642 
5.000454e+0, 1.5340821e+2, -1431571.8, -1463731.6, -1103.052, -0.00010444708, -0.06263104, -1431534.0, 5059.3975 
5.000644e+0, 1.6340394e+2, -1341478.9, -1390780.1, -1115.1664, -0.00013727452, -0.06015168, -1341453.6, -2818.5022 
5.00085e+0, 1.7339867e+2, -1237708.1, -1290294.3, -630.9159, 0.0002631136, -0.06277519, -1237700.5, 2986.4092 
5.0010425e+0, 1.8339258e+2, -1145537.0, -1213190.0, -550.15894, 0.00031617197, -0.06361232, -1145532.5, -2785.826 
5.001209e+0, 1.933857e+2, -1042272.4, -1112353.5, -927.3381, -0.0002686696, -0.065021, -1042260.1, 2553.7751 
5.001388e+0, 2.0337796e+2, -951740.06, -1038184.0, -980.9715, -0.00041121687, -0.064127125, -951728.94, -4839.1196 
5.001593e+0, 2.1336932e+2, -847965.6, -937485.94, -674.2909, 0.00026571043, -0.061205305, -847960.56, 1013.93646 
5.001787e+0, 2.2335985e+2, -756113.56, -861149.6, -622.17706, 0.00044232883, -0.05896584, -756109.9, -5042.407 
5.0019604e+0, 2.333495e+2, -652662.3, -760315.0, -868.6632, -0.00031773568, -0.060981285, -652655.3, 513.4443 
5.0021386e+0, 2.4333829e+2, -561664.1, -685261.8, -1045.0796, -0.000564459, -0.06266218, -561655.3, -6376.702 
5.002327e+0, 2.5332618e+2, -458286.0, -584594.5, -1109.5538, 0.0001666964, -0.06617601, -458276.25, -879.1377 
5.002521e+0, 2.6331326e+2, -366972.22, -509401.88, -957.2427, 0.0005217707, -0.06560274, -366965.8, -7441.9053 
5.0027263e+0, 2.732995e+2, -262760.38, -408273.47, -652.7689, 0.0001384109, -0.06054971, -262757.44, -1098.7295 
5.002915e+0, 2.8328463e+2, -174303.0, -339152.25, -745.8912, -0.00022715502, -0.059183482, -174299.63, -10495.235 
5.0030744e+0, 2.9326856e+2, -71637.94, -239100.16, -1179.6809, -0.00051960454, -0.06791553, -71629.625, -5667.723 
5.00327e+0, 3.03256e+2, 32634.287, -84256.15, -1073.2848, -0.00040538356, -0.06809086, 32644.14, 32644.14 
5.003531e+0, 3.132474e+2, 41495.75, -77567.516, -794.75824, 0.0004618455, -0.055212907, 41501.055, 41501.055 
1.4999603e+1, 1.2341728e+2, -1720440.6, -1720037.4, 874.1515, 0.00014900182, -0.0656317, -1719342.0, 11162.691 
1.500022e+1, 1.3341457e+2, -1636054.8, -1659496.0, 931.66113, -0.00013092281, -0.054660216, -1636017.9, -3486.6758 
1.5000819e+1, 1.4341113e+2, -1536463.5, -1567378.8, 682.4596, 0.00046528951, -0.06668309, -1536448.4, -1883.6184 
1.5001363e+1, 1.5340772e+2, -1432273.6, -1465174.1, 283.88583, -0.00031323684, -0.06288231, -1432271.3, 4326.8916 
1.5001932e+1, 1.6340344e+2, -1340825.9, -1389436.1, 386.39993, -0.00041158518, -0.06120955, -1340822.8, -2182.6292 
1.500255e+1, 1.733983e+2, -1236800.0, -1288423.6, 900.4086, 0.000789098, -0.062488504, -1236784.4, 3906.1826 
1.5003127e+1, 1.8339227e+2, -1145980.6, -1214102.5, 781.1169, 0.00094900886, -0.061702818, -1145971.6, -3221.9988 
1.5003626e+1, 1.9338533e+2, -1042973.44, -1113799.4, 371.122, -0.00080595637, -0.06099349, -1042971.5, 1846.154 
1.5004164e+1, 2.0337754e+2, -951381.1, -1037443.56, 482.38116, -0.0012337202, -0.06099191, -951378.44, -4484.422 
1.500478e+1, 2.1336892e+2, -847405.25, -936327.8, 823.29584, 0.0007969606, -0.064445436, -847397.6, 1580.8086 
1.5005362e+1, 2.2335944e+2, -756404.1, -861748.44, 761.88074, 0.0013270474, -0.0654105, -756398.56, -5327.1865 
1.500588e+1, 2.3334906e+2, -653117.8, -761256.3, 492.86658, -0.00095349207, -0.06459686, -653115.56, 57.48895 
1.5006416e+1, 2.4333782e+2, -561834.8, -685614.56, 322.49216, -0.0016933399, -0.062380627, -561833.94, -6550.8584 
1.500698e+1, 2.5332576e+2, -458399.9, -584830.8, 256.3906, 0.00050010905, -0.06026911, -458399.38, -998.12274 
1.5007564e+1, 2.6331288e+2, -366531.1, -508487.3, 587.1234, 0.001565054, -0.059832267, -366528.7, -7000.781 
1.5008178e+1, 2.7329907e+2, -262212.8, -407134.22, 921.51855, 0.00041531303, -0.06563446, -262206.97, -544.0303 
1.5008746e+1, 2.8328422e+2, -174847.11, -340278.22, 539.3307, -0.00068108627, -0.06611417, -174845.36, -11036.72 
1.5009224e+1, 2.9326814e+2, -72398.875, -240684.56, 38.570423, -0.0015579963, -0.059376866, -72398.86, -6433.086 
1.500981e+1, 3.032556e+2, 32865.637, -83779.13, 730.15564, -0.0012158523, -0.057649434, 32870.207, 32870.207 
1.5010594e+1, 3.132468e+2, 41921.664, -76673.61, 1121.6571, 0.0013877642, -0.06925501, 41932.27, 41932.27 
2.4999368e+1, 1.2341647e+2, -1719641.8, -1719704.0, -662.899, 0.000542987, -0.06533581, -1719009.3, 11503.321 
2.500035e+1, 1.3341375e+2, -1636450.9, -1659793.0, -1060.6895, -0.00061083655, -0.055009667, -1636402.8, -3863.5193 
2.5001338e+1, 1.4341031e+2, -1537117.0, -1567738.5, -1181.1637, 0.00035969986, -0.06638578, -1537071.5, -2498.5571 
2.50023e+1, 1.534069e+2, -1431657.9, -1464906.3, -848.83044, 0.00016803588, -0.0627668, -1431636.1, 4970.1113 
2.5003257e+1, 1.6340262e+2, -1339855.3, -1388894.9, -790.9858, 0.00007661591, -0.061230656, -1339842.5, -1194.1844 
2.500422e+1, 1.7339748e+2, -1237330.6, -1288595.5, -1187.3525, 0.00027061568, -0.06254608, -1237303.1, 3395.493 
2.5005162e+1, 1.8339145e+2, -1147026.1, -1214713.8, -1508.1515, 0.0002527076, -0.06160883, -1146992.5, -4234.835 
2.500608e+1, 1.9338451e+2, -1042361.2, -1113643.0, -1255.9757, -0.00017182529, -0.060418457, -1042339.06, 2486.7205 
2.5007004e+1, 2.0337671e+2, -950105.7, -1036847.8, -1118.7072, -0.0002442603, -0.060377605, -950091.25, -3189.0208 
2.500795e+1, 2.1336807e+2, -847585.9, -936418.0, -1391.638, 0.00032824138, -0.064614594, -847564.1, 1422.5979 
2.5008884e+1, 2.2335859e+2, -757329.4, -862158.1, -1544.62, 0.00039304537, -0.06600681, -757306.6, -6226.8965 
2.50098e+1, 2.3334822e+2, -653459.7, -761376.4, -1291.8678, -0.00048291395, -0.06493905, -653444.25, -262.9191 
2.501072e+1, 2.4333699e+2, -561641.06, -685532.7, -1095.0491, -0.0007440942, -0.062450904, -561631.4, -6340.066 
2.5011653e+1, 2.5332493e+2, -457711.53, -584522.8, -1054.9788, 0.00015438994, -0.060070563, -457702.78, -293.29138 
2.50126e+1, 2.63312e+2, -366122.06, -508221.72, -922.9755, 0.00060014875, -0.05954836, -366116.06, -6579.976 
2.5013572e+1, 2.7329823e+2, -263677.97, -407757.3, -1132.18, 0.0001614071, -0.06560888, -263669.1, -1997.9979 
2.5014532e+1, 2.8328338e+2, -176435.88, -341108.94, -1297.1034, -0.00037729318, -0.066081695, -176425.66, -12608.892 
2.5015455e+1, 2.9326734e+2, -70516.99, -239870.58, -1009.68713, -0.0010606204, -0.058833335, -70510.97, -4537.039 
2.5016442e+1, 3.0325475e+2, 35288.05, -82562.28, -360.54813, -0.0009443132, -0.05725789, 35289.156, 35289.156 
2.5017536e+1, 3.1324595e+2, 38937.54, -78035.54, -458.0934, 0.00069764775, -0.07028848, 38939.332, 38939.332 
3.4999168e+1, 1.23415284e+2, -1720010.6, -1720460.4, 676.8023, 0.0012204305, -0.06269361, -1719522.4, 11001.929 
3.5000464e+1, 1.3341247e+2, -1636879.5, -1660672.3, 194.45969, -0.0014838794, -0.05611481, -1636877.9, -4326.004 
3.5001835e+1, 1.4340903e+2, -1536628.0, -1566732.6, 458.85544, -0.00016905814, -0.06749307, -1536621.0, -2035.4396 
3.5003266e+1, 1.5340571e+2, -1430998.9, -1463549.4, 868.23535, 0.0013336675, -0.06228166, -1430975.6, 5642.1763 
3.5004625e+1, 1.6340145e+2, -1340421.0, -1390055.9, 426.71875, 0.0013201591, -0.06022118, -1340417.4, -1757.7493 
3.500586e+1, 1.733962e+2, -1238128.3, -1290238.1, -56.37057, -0.0012966925, -0.062944606, -1238128.1, 2582.9863 
3.5007155e+1, 1.8339011e+2, -1146714.5, -1214072.0, 129.54811, -0.0017815251, -0.06333406, -1146714.3, -3943.3816 
3.5008568e+1, 1.9338323e+2, -1041841.94, -1112569.3, 484.15796, 0.0016255735, -0.06328601, -1041838.6, 2999.6736 
3.5009903e+1, 2.0337546e+2, -950495.94, -1037647.56, 87.14867, 0.0025469176, -0.06228389, -950495.8, -3581.3745 
3.5011104e+1, 2.1336679e+2, -848148.7, -937580.06, -286.31137, -0.0011424257, -0.061720077, -848147.8, 851.5398 
3.5012355e+1, 2.233573e+2, -756990.4, -861459.2, -95.68195, -0.002362129, -0.06077393, -756990.25, -5897.849 
3.5013717e+1, 2.3334698e+2, -652949.06, -760319.5, 223.65012, 0.0010854849, -0.0620152, -652948.6, 244.87187 
3.5015053e+1, 2.4333578e+2, -561488.5, -685212.9, 403.16455, 0.0022712965, -0.06287455, -561487.2, -6183.973 
3.5016337e+1, 2.5332367e+2, -457633.13, -584354.5, 436.24026, -0.000871972, -0.065554306, -457631.63, -209.879 
3.5017627e+1, 2.6331076e+2, -366477.9, -508955.72, 224.54276, -0.0023697286, -0.06473347, -366477.53, -6929.084 
3.501891e+1, 2.7329704e+2, -264115.1, -408669.9, -58.998623, -0.00062565197, -0.06049803, -264115.06, -2431.929 
3.502027e+1, 2.8328216e+2, -175972.55, -340151.22, 669.19464, 0.00067246973, -0.059121232, -175969.83, -12141.069 
3.5021767e+1, 2.932661e+2, -69887.85, -238545.08, 1131.467, 0.000958683, -0.066240996, -69880.26, -3893.9097 
3.5023168e+1, 3.032535e+2, 35108.754, -82913.23, 403.8121, 0.0004002543, -0.06686964, 35110.137, 35110.137 
3.5024357e+1, 3.1324488e+2, 38614.563, -78723.47, 6.3153, -0.0016074664, -0.058385484, 38614.563, 38614.563 
4.499893e+1, 1.2341365e+2, -1720831.3, -1720895.6, -892.2812, 0.00083229755, -0.06242446, -1719970.6, 10569.617 
4.5000637e+1, 1.3341081e+2, -1635689.1, -1660191.8, -1056.6202, -0.001177573, -0.05687252, -1635643.6, -3075.5679 
4.50024e+1, 1.4340737e+2, -1534958.1, -1565932.5, -904.03357, 0.00080574694, -0.06689406, -1534931.8, -330.1452 
4.5004186e+1, 1.5340407e+2, -1431838.5, -1463959.6, -1195.8937, 0.0008860254, -0.06222451, -1431794.0, 4839.9927 
4.5005918e+1, 1.633998e+2, -1342004.0, -1391055.6, -1749.4156, 0.0004566206, -0.060414784, -1341941.6, -3265.7998 
4.5007572e+1, 1.7339452e+2, -1236788.1, -1289862.9, -1564.8953, -0.0006783985, -0.062800035, -1236742.0, 3985.573 
4.5009255e+1, 1.8338841e+2, -1144371.4, -1212829.6, -1294.0345, -0.00076032407, -0.06330066, -1144346.9, -1559.4763 
4.5011e+1, 1.9338153e+2, -1042777.94, -1112851.4, -1391.9818, 0.0010171847, -0.06421129, -1042750.3, 2104.4963 
4.501269e+1, 2.0337377e+2, -952816.94, -1038829.94, -1751.7356, 0.0014237243, -0.06328573, -952781.3, -5850.391 
4.501429e+1, 2.1336512e+2, -847818.56, -937522.44, -1582.1725, -0.000698909, -0.061168823, -847790.6, 1225.0895 
4.5015925e+1, 2.2335562e+2, -755309.6, -860633.4, -1346.763, -0.0013348854, -0.059441067, -755292.44, -4183.635 
4.5017624e+1, 2.333453e+2, -652684.44, -760161.9, -1558.8998, 0.00081619155, -0.06137885, -652661.9, 548.0565 
4.5019314e+1, 2.433341e+2, -562366.6, -685590.94, -1652.857, 0.0014715187, -0.06285502, -562344.5, -7024.82 
4.502099e+1, 2.53322e+2, -459054.7, -584995.06, -1667.4551, -0.0007301805, -0.06594813, -459032.6, -1594.4323 
4.5022663e+1, 2.633091e+2, -367308.34, -509392.9, -1740.4388, -0.0018563913, -0.06511764, -367287.03, -7722.1406 
4.5024318e+1, 2.7329534e+2, -262149.22, -407775.25, -1599.908, -0.0008630128, -0.06010028, -262131.64, -432.09857 
4.5026058e+1, 2.832805e+2, -174002.16, -339003.75, -823.3655, 0.00015298955, -0.05870804, -173998.05, -10152.938 
4.5027927e+1, 2.9326442e+2, -73656.53, -240121.84, -887.94196, 0.0010866768, -0.067269, -73651.8, -7649.1665 
4.502972e+1, 3.0325186e+2, 30499.107, -85037.695, -1563.029, 0.0006803721, -0.067819074, 30520.25, 30520.25 
4.5031342e+1, 3.1324327e+2, 42926.418, -76579.02, -1532.5085, -0.0021555002, -0.056337602, 42946.066, 42946.066 
5.499865e+1, 1.2341157e+2, -1720508.3, -1720231.6, 931.2644, -0.00065150316, -0.06446191, -1719428.5, 11132.027 
5.500086e+1, 1.334088e+2, -1635389.6, -1659575.0, 727.14575, 0.00029784348, -0.057280395, -1635367.8, -2780.0781 
5.5003035e+1, 1.434054e+2, -1535465.3, -1566971.6, 263.334, 0.0032667688, -0.06459247, -1535463.1, -841.9491 
5.500506e+1, 1.5340196e+2, -1432499.9, -1465319.5, -141.39552, -0.001184675, -0.06258891, -1432499.3, 4155.4453 
5.500714e+1, 1.6339764e+2, -1341732.5, -1390497.9, 14.854786, -0.0025303892, -0.061814103, -1341732.5, -3035.4456 
5.500936e+1, 1.7339244e+2, -1236346.4, -1288948.4, 342.84848, 0.0021071031, -0.06211176, -1236344.1, 4403.862 
5.501146e+1, 1.8338639e+2, -1144554.4, -1213199.0, -268.69226, 0.0032875536, -0.06151674, -1144553.3, -1745.884 
5.5013365e+1, 1.9337946e+2, -1043077.1, -1113471.0, -531.6031, -0.0019939689, -0.06319979, -1043073.1, 1802.1654 
5.5015355e+1, 2.0337167e+2, -952498.8, -1038178.94, -93.94239, -0.0036158361, -0.06339025, -952498.75, -5547.201 
5.501751e+1, 2.1336307e+2, -847390.9, -936635.2, 232.9268, 0.0016355042, -0.06294775, -847390.25, 1645.604 
5.501959e+1, 2.2335358e+2, -755637.56, -861301.06, -105.16851, 0.003439422, -0.06199032, -755637.44, -4508.615 
5.502152e+1, 2.333432e+2, -653156.6, -761136.5, -430.19873, -0.001281888, -0.063015886, -653154.9, 75.673454 
5.502351e+1, 2.4333197e+2, -562459.6, -685786.2, -335.67722, -0.0031293554, -0.062398925, -562458.75, -7118.136 
5.50256e+1, 2.5331992e+2, -459075.5, -585040.2, -315.1809, 0.0005607, -0.061293036, -459074.72, -1615.9557 
5.50277e+1, 2.63307e+2, -367005.25, -508760.5, -0.68409836, 0.0021034272, -0.0607351, -367005.25, -7419.9375 
5.5029804e+1, 2.7329323e+2, -261793.64, -407019.0, 211.56958, -0.00056412356, -0.064369686, -261793.34, -73.10222 
5.503189e+1, 2.8327838e+2, -174224.34, -339448.4, -6.0390368, -0.0019336104, -0.0647863, -174224.34, -10358.57 
5.5033934e+1, 2.9326236e+2, -73976.86, -240805.27, -283.87384, -0.0006698425, -0.061987832, -73976.375, -7953.636 
5.5036104e+1, 3.032498e+2, 30798.066, -84436.26, 903.3794, -0.00010663005, -0.060199905, 30805.146, 30805.146 
5.503849e+1, 3.1324112e+2, 43308.973, -75739.2, 1316.1044, -0.0009986887, -0.06402727, 43323.523, 43323.523 
6.499844e+1, 1.2340913e+2, -1718933.3, -1719389.5, -589.80585, -0.00017329614, -0.06438576, -1718529.0, 12055.559 
6.500103e+1, 1.3340633e+2, -1636249.6, -1659973.9, -1152.8372, -0.0003237445, -0.05850997, -1636193.8, -3581.8323 
6.500361e+1, 1.4340293e+2, -1536883.9, -1567960.6, -1639.2336, 0.0029695628, -0.06362908, -1536797.6, -2152.4912 
6.5006036e+1, 1.5339948e+2, -1430628.1, -1464773.1, -1594.6715, -0.00069204526, -0.062395178, -1430553.8, 6125.325 
6.50085e+1, 1.6339512e+2, -1338870.3, -1388949.5, -1383.1292, -0.0019038417, -0.062098835, -1338832.0, -110.40509 
6.501106e+1, 1.7338996e+2, -1237709.8, -1289362.1, -1365.2201, 0.0016864089, -0.06225056, -1237673.8, 3098.689 
6.501353e+1, 1.833839e+2, -1147496.1, -1214840.3, -2059.909, 0.002620299, -0.0612393, -1147433.1, -4601.433 
6.501582e+1, 1.9337696e+2, -1041769.8, -1113141.4, -2195.6453, -0.0014411366, -0.062023412, -1041702.3, 3197.478 
6.5018183e+1, 2.0336916e+2, -949403.7, -1036597.56, -1900.3715, -0.002728868, -0.062300954, -949362.3, -2386.1323 
6.5020674e+1, 2.1336053e+2, -847937.8, -936752.8, -1938.8035, 0.0011698328, -0.06375883, -847895.5, 1165.0546 
6.502311e+1, 2.2335105e+2, -758041.06, -862576.2, -2292.6694, 0.0024772116, -0.06365292, -757990.8, -6837.2554 
6.502543e+1, 2.3334067e+2, -653453.0, -761444.75, -2223.6924, -0.0011212534, -0.06353748, -653407.25, -151.93716 
6.502779e+1, 2.4332945e+2, -561275.25, -685179.75, -1933.8107, -0.0024944919, -0.061981525, -561245.06, -5879.717 
6.503023e+1, 2.533174e+2, -458113.9, -584507.6, -1860.1884, 0.0003944003, -0.06038808, -458086.53, -603.1371 
6.503269e+1, 2.633045e+2, -367117.2, -508658.2, -1476.203, 0.0016602639, -0.060056183, -367101.78, -7491.892 
6.503519e+1, 2.7329072e+2, -264594.84, -408204.13, -1517.0569, -0.00025897985, -0.06521929, -264578.84, -2834.0242 
6.5037656e+1, 2.8327587e+2, -176884.17, -340807.6, -1860.2845, -0.0015272144, -0.0657129, -176863.06, -12972.755 
6.5040064e+1, 2.932599e+2, -70726.24, -239364.53, -1895.7354, -0.0014203392, -0.06023247, -70704.93, -4657.8 
6.5042615e+1, 3.032473e+2, 34825.027, -82413.61, -515.0106, -0.0010311161, -0.058205947, 34827.293, 34827.293 
6.504544e+1, 3.1323862e+2, 37773.703, -78290.1, -432.38623, -0.0001780021, -0.06651604, 37775.313, 37775.313 
7.499831e+1, 1.2340629e+2, -1719163.4, -1719860.1, 645.8481, 0.0022389623, -0.062107485, -1718777.9, 11834.479 
7.500115e+1, 1.334034e+2, -1636525.6, -1660538.6, 11.799942, -0.0030482446, -0.0605578, -1636525.6, -3885.1545 
7.5004107e+1, 1.4340003e+2, -1536760.5, -1567705.4, 163.06035, -0.000108219785, -0.063998744, -1536759.6, -2085.8462 
7.5007105e+1, 1.5339659e+2, -1430436.0, -1464372.8, 333.7229, 0.002337179, -0.061642334, -1430432.8, 6274.61 
7.500998e+1, 1.6339226e+2, -1338945.4, -1389098.8, -426.79715, 0.0023060217, -0.061267145, -1338941.8, -192.053 
7.501268e+1, 1.7338705e+2, -1237834.1, -1289622.3, -588.16437, -0.0019369038, -0.06321112, -1237827.4, 2973.3962 
7.5015444e+1, 1.8338098e+2, -1147582.6, -1215024.9, -263.4351, -0.0027727962, -0.06246087, -1147581.6, -4721.2607 
7.5018364e+1, 1.9337404e+2, -1041860.9, -1113322.6, -196.40508, 0.0026387149, -0.06068389, -1041860.3, 3067.9746 
7.502117e+1, 2.0336623e+2, -949624.06, -1037040.06, -877.745, 0.004028516, -0.06002625, -949615.25, -2610.49 
7.5023794e+1, 2.1335757e+2, -848177.3, -937249.5, -1105.1973, -0.0020777914, -0.06361063, -848163.6, 926.119 
7.5026494e+1, 2.2334805e+2, -757856.4, -862201.6, -733.91516, -0.0041946475, -0.064435594, -757851.2, -6668.316 
7.5029355e+1, 2.3333773e+2, -653197.2, -760910.06, -521.513, 0.0012638725, -0.062954, -653194.6, 89.49588 
7.5032175e+1, 2.4332654e+2, -561149.3, -684904.5, -583.16437, 0.0033101595, -0.061601985, -561146.56, -5752.669 
7.5034875e+1, 2.5331447e+2, -458014.6, -584291.56, -584.5063, -0.0012169457, -0.063189566, -458011.9, -499.81427 
7.5037634e+1, 2.6330158e+2, -367225.63, -508879.0, -344.41476, -0.0031439879, -0.0630416, -367224.78, -7586.212 
7.504047e+1, 2.732878e+2, -264742.5, -408517.06, -419.2562, 0.000039798906, -0.06269825, -264741.28, -2968.0674 
7.504337e+1, 2.8327298e+2, -176767.63, -340566.2, 143.69125, 0.001324887, -0.061556637, -176767.5, -12848.877 
7.504632e+1, 2.9325697e+2, -70583.49, -239030.86, 287.52853, -0.0011932692, -0.06194531, -70583.0, -4507.2515 
7.504927e+1, 3.0324438e+2, 34618.652, -82802.31, 109.25996, -0.0021062628, -0.061751787, 34618.754, 34618.754 
7.50522e+1, 3.132357e+2, 37531.44, -78817.805, -146.85959, 0.0002800839, -0.06390411, 37531.625, 37531.625 
8.499815e+1, 1.2340304e+2, -1719546.9, -1720481.1, -805.9229, 0.0026439861, -0.060858656, -1719082.5, 11561.709 
8.5001373e+1, 1.334001e+2, -1634636.8, -1660086.6, -1515.2338, -0.0033957474, -0.06221182, -1634546.9, -1873.9116 
8.500472e+1, 1.4339672e+2, -1534341.3, -1566372.8, -1415.5593, -0.00012199338, -0.0631238, -1534278.9, 427.3265 
8.5008097e+1, 1.5339331e+2, -1431725.1, -1464735.8, -1274.2301, 0.0024477593, -0.06120762, -1431676.0, 5063.6123 
8.5011345e+1, 1.6338898e+2, -1341482.9, -1390710.5, -2169.4397, 0.0024425646, -0.061223164, -1341387.4, -2605.3928 
8.5014415e+1, 1.7338371e+2, -1235854.6, -1289167.4, -2535.2966, -0.0019174325, -0.06334114, -1235734.4, 5099.151 
8.501754e+1, 1.8337761e+2, -1143883.0, -1213139.6, -2282.9312, -0.0028586464, -0.06285285, -1143807.9, -914.54944 
8.502082e+1, 1.933707e+2, -1042846.94, -1113606.4, -1998.0292, 0.0024339322, -0.06151378, -1042790.56, 2170.61 
8.5023993e+1, 2.033629e+2, -952700.5, -1038746.75, -2547.425, 0.0039241263, -0.060570836, -952625.2, -5587.5815 
8.502698e+1, 2.1335422e+2, -847596.7, -937267.1, -2721.8235, -0.0016835599, -0.062530674, -847514.2, 1608.4862 
8.503004e+1, 2.233447e+2, -755464.06, -860831.44, -2341.1487, -0.003725137, -0.062722415, -755412.06, -4196.218 
8.5033244e+1, 2.3333438e+2, -653537.8, -760771.56, -2198.9045, 0.0009831289, -0.062481206, -653492.75, -175.78218 
8.5036415e+1, 2.4332319e+2, -563233.5, -685896.7, -2293.699, 0.0027502987, -0.062145915, -563190.6, -7764.0205 
8.5039496e+1, 2.5331113e+2, -459264.44, -584943.1, -2427.062, -0.0011521629, -0.064255275, -459217.56, -1672.6825 
8.504262e+1, 2.632982e+2, -367301.97, -508924.44, -2298.7866, -0.002876063, -0.06371062, -367264.66, -7593.278 
8.5045797e+1, 2.732845e+2, -263266.88, -407810.9, -2242.143, -0.0003204423, -0.06128532, -263232.13, -1426.2715 
8.504906e+1, 2.8326967e+2, -175770.67, -339861.38, -1364.5488, 0.0008469742, -0.0599109, -175759.33, -11808.173 
8.5052437e+1, 2.9325363e+2, -74264.375, -240546.05, -1184.4779, -0.00079962367, -0.06359962, -74255.94, -8147.592 
8.505579e+1, 3.0324107e+2, 30345.766, -84698.2, -1434.266, -0.0015655436, -0.06395447, 30363.645, 30363.645 
8.505905e+1, 3.1323245e+2, 40755.906, -77126.07, -1384.7585, -0.00043273857, -0.06128637, 40772.17, 40772.17 
9.499796e+1, 1.233994e+2, -1719875.9, -1721151.5, 971.3542, 0.0009983035, -0.06053945, -1719351.6, 11328.213 
9.500169e+1, 1.3339639e+2, -1634964.0, -1660753.5, 240.5347, -0.0013865829, -0.06347138, -1634961.8, -2252.4363 
9.5005435e+1, 1.4339302e+2, -1534271.4, -1566226.3, -351.19116, 0.0029040014, -0.06099544, -1534267.5, 474.87988 
9.5009005e+1, 1.533896e+2, -1431582.8, -1464444.8, -338.66556, -0.0003637253, -0.061087154, -1431579.3, 5196.5483 
9.5012593e+1, 1.6338526e+2, -1341888.5, -1391548.1, -357.7098, -0.001508801, -0.06195783, -1341885.9, -3067.4863 
9.501626e+1, 1.7337994e+2, -1236376.5, -1290235.0, -545.8579, 0.001706451, -0.06264695, -1236371.0, 4499.546 
9.501981e+1, 1.8337381e+2, -1143689.6, -1212731.4, -1343.4818, 0.0023121024, -0.06241334, -1143663.5, -732.9163 
9.502321e+1, 1.933669e+2, -1042511.8, -1112919.3, -1259.5099, -0.0020213495, -0.06449305, -1042489.3, 2508.984 
9.502665e+1, 2.0335911e+2, -952753.56, -1038864.6, -907.1918, -0.0030097282, -0.063907444, -952744.0, -5669.4575 
9.503022e+1, 2.1335047e+2, -847739.6, -937555.06, -900.83636, 0.0022978021, -0.06053322, -847730.6, 1428.7002 
9.5033723e+1, 2.2334097e+2, -755387.06, -860658.06, -1243.3005, 0.0037955812, -0.058538355, -755372.4, -4119.97 
9.503708e+1, 2.3333064e+2, -653413.4, -760513.6, -1247.1376, -0.0019268882, -0.06211611, -653398.9, -45.22313 
9.504052e+1, 2.4331942e+2, -563341.9, -686126.25, -872.77814, -0.004104249, -0.063603334, -563335.7, -7872.255 
9.504409e+1, 2.5330737e+2, -459430.16, -585282.2, -912.7995, 0.00054902065, -0.063616805, -459423.53, -1841.7603 
9.504765e+1, 2.6329446e+2, -367217.9, -508735.34, -789.20514, 0.0023769587, -0.06209765, -367213.5, -7505.256 
9.5051175e+1, 2.7328074e+2, -263141.06, -407527.0, -740.2573, -0.0013316938, -0.060958024, -263137.28, -1294.651 
9.5054764e+1, 2.8326592e+2, -175620.53, -339529.28, -330.66782, -0.002915282, -0.060727853, -175619.86, -11632.041 
9.5058435e+1, 2.932499e+2, -74100.1, -240207.61, -257.32715, -0.00025762935, -0.06519414, -74099.7, -7954.8447 
9.506217e+1, 3.032374e+2, 30727.904, -83906.08, 624.0106, 0.0005494073, -0.06483874, 30731.3, 30731.3 
9.5065993e+1, 3.1322885e+2, 41146.38, -76263.92, 902.47595, -0.002316228, -0.05866903, 41153.313, 41153.313 
1.04997836e+2, 1.2339531e+2, -1718429.5, -1720382.8, -812.26605, 0.00031255328, -0.060543224, -1718135.9, 12584.123 
1.05001986e+2, 1.333923e+2, -1635308.1, -1660731.8, -1110.4736, -0.0009951887, -0.065049365, -1635259.8, -2510.328 
1.0500611e+2, 1.4338896e+2, -1535148.8, -1567127.9, -1743.893, 0.0041380413, -0.05893751, -1535054.0, -271.7303 
1.05010025e+2, 1.5338546e+2, -1429478.4, -1464032.6, -2301.655, -0.00084431644, -0.061399296, -1429325.8, 7490.5923 
1.0501397e+2, 1.6338107e+2, -1338795.4, -1389926.8, -2356.931, -0.0025601895, -0.06325674, -1338686.9, 172.45418 
1.05018035e+2, 1.7337582e+2, -1237386.4, -1290477.4, -1828.8776, 0.0022452706, -0.06221126, -1237323.4, 3587.7056 
1.0502197e+2, 1.8336968e+2, -1146420.9, -1214301.9, -2529.7825, 0.003403795, -0.06114466, -1146326.8, -3355.6887 
1.05025664e+2, 1.9336273e+2, -1041507.94, -1112779.8, -3037.6362, -0.002340389, -0.06409828, -1041378.75, 3660.4033 
1.0502945e+2, 2.0335494e+2, -950064.25, -1037378.2, -2838.5205, -0.0039594397, -0.06425251, -949972.1, -2856.5547 
1.05033405e+2, 2.1334632e+2, -848308.94, -937555.0, -2490.7893, 0.0021789263, -0.061317, -848239.44, 960.6609 
1.05037265e+2, 2.2333682e+2, -757662.44, -861984.75, -2829.49, 0.004160203, -0.05935232, -757585.75, -6292.586 
1.0504095e+2, 2.3332646e+2, -653424.2, -760849.5, -3192.7327, -0.0017603339, -0.06219521, -653329.4, 65.27374 
1.0504474e+2, 2.4331525e+2, -561989.8, -685386.44, -2892.274, -0.004117993, -0.06300815, -561922.06, -6417.561 
1.05048664e+2, 2.533032e+2, -459360.8, -585088.3, -2653.5557, 0.0003850096, -0.062506326, -459304.8, -1682.1693 
1.0505259e+2, 2.632903e+2, -368306.13, -509071.78, -2294.1973, 0.0021852057, -0.061319083, -368268.75, -8519.736 
1.0505649e+2, 2.7327657e+2, -265011.5, -408244.3, -2257.6104, -0.0013113893, -0.062080715, -264975.94, -3092.5388 
1.0506044e+2, 2.8326178e+2, -177219.13, -340279.7, -2028.4497, -0.0028297342, -0.062148035, -177193.9, -13165.396 
1.05064444e+2, 2.9324576e+2, -73208.1, -239797.6, -2166.4998, -0.00040588822, -0.063825846, -73179.94, -6994.618 
1.05068564e+2, 3.0323327e+2, 31920.041, -83018.77, -1129.645, 0.0003117083, -0.06292581, 31931.143, 31931.143 
1.0507284e+2, 3.1322473e+2, 37793.027, -77507.96, -987.6207, -0.0023591607, -0.060639128, 37801.49, 37801.49 
1.1499777e+2, 1.2339077e+2, -1718026.1, -1719550.3, 494.0257, 0.0005644152, -0.06077014, -1717880.0, 12884.42 
1.1500224e+2, 1.3338783e+2, -1634744.9, -1659572.1, 162.86217, -0.002228988, -0.0669447, -1634743.9, -1950.6218 
1.1500675e+2, 1.4338452e+2, -1535825.1, -1568515.1, -83.115204, 0.0035579742, -0.056938767, -1535824.9, -999.323 
1.15011156e+2, 1.5338089e+2, -1430401.3, -1465925.0, -561.0558, 0.00097872, -0.062140107, -1430392.4, 6468.8823 
1.1501548e+2, 1.6337645e+2, -1338246.9, -1388794.1, -1339.4651, -0.0007422468, -0.065106384, -1338211.4, 693.4254 
1.1501974e+2, 1.7337129e+2, -1236555.3, -1288769.9, -946.06226, -0.00028385912, -0.06203415, -1236538.1, 4417.11 
1.1502398e+2, 1.8336524e+2, -1146921.5, -1215339.1, -930.738, 0.00042104506, -0.05904975, -1146908.9, -3894.2712 
1.1502821e+2, 1.933582e+2, -1042279.8, -1114366.3, -1291.4999, 0.0014165144, -0.060368795, -1042256.7, 2826.947 
1.15032405e+2, 2.0335034e+2, -949786.0, -1036794.6, -1770.4076, 0.0009992875, -0.06162979, -949749.94, -2589.3838 
1.1503651e+2, 2.1334173e+2, -847824.5, -936555.4, -1557.8036, -0.0019833106, -0.06484019, -847797.2, 1447.8258 
1.1504066e+2, 2.2333223e+2, -758024.8, -862737.3, -1363.1138, -0.0025526646, -0.06509588, -758007.06, -6669.033 
1.1504487e+2, 2.3332185e+2, -653966.3, -761962.9, -1616.0436, 0.0014160105, -0.06271882, -653942.1, -502.32095 
1.1504907e+2, 2.4331065e+2, -561784.3, -684945.7, -1662.6901, 0.002589551, -0.060395442, -561761.9, -6212.134 
1.1505322e+2, 2.532986e+2, -459008.25, -584345.75, -1500.6315, -0.0016068685, -0.06093039, -458990.28, -1322.7955 
1.1505743e+2, 2.6328573e+2, -368166.78, -508773.1, -1018.60114, -0.0033581979, -0.06135778, -368159.4, -8365.82 
1.15061745e+2, 2.7327204e+2, -264922.16, -408050.22, -961.75653, -0.0002971765, -0.06462004, -264915.7, -2987.632 
1.150661e+2, 2.8325725e+2, -177359.23, -340556.44, -478.1891, 0.0010053996, -0.06416072, -177357.84, -13284.696 
1.15070485e+2, 2.9324123e+2, -73411.24, -240189.28, -569.7281, -0.0012312507, -0.059568074, -73409.3, -7179.6597 
1.1507497e+2, 3.0322877e+2, 31914.246, -82997.21, 35.68371, -0.0022262742, -0.058275938, 31914.258, 31914.258 
1.15079574e+2, 3.132201e+2, 37834.668, -77409.13, 75.589645, -0.0006330787, -0.06705791, 37834.715, 37834.715 
1.2499773e+2, 1.233859e+2, -1717665.1, -1719943.3, -672.0516, 0.0015063157, -0.05937042, -1717481.6, 13330.428 
1.2500256e+2, 1.3338289e+2, -1633011.6, -1659023.5, -1812.6763, -0.0031381154, -0.06991731, -1632886.0, -44.32216 
1.2500747e+2, 1.4337961e+2, -1533919.0, -1567562.4, -2205.8323, 0.0027875751, -0.056163628, -1533775.0, 1098.8347 
1.2501226e+2, 1.5337598e+2, -1430732.9, -1466010.8, -1684.161, 0.0017621774, -0.061230548, -1430652.6, 6256.772 
1.2501696e+2, 1.6337152e+2, -1339442.5, -1389688.1, -2398.7366, 0.0003403303, -0.064587355, -1339328.3, -375.26306 
1.2502152e+2, 1.7336634e+2, -1235352.0, -1288583.9, -3145.966, -0.0011988784, -0.06272431, -1235166.6, 5837.2373 
1.2502609e+2, 1.8336025e+2, -1144694.5, -1214214.9, -3389.3584, -0.0009951263, -0.060054194, -1144529.6, -1466.0735 
1.2503073e+2, 1.9335322e+2, -1042485.5, -1114347.1, -2851.7158, 0.0022723307, -0.060029194, -1042372.5, 2759.8145 
1.2503527e+2, 2.0334539e+2, -951258.7, -1037763.06, -3212.92, 0.00263152, -0.060616247, -951139.56, -3930.2947 
1.2503967e+2, 2.1333672e+2, -847606.56, -936787.3, -3749.4954, -0.0023977414, -0.06442705, -847449.2, 1844.8615 
1.2504414e+2, 2.233272e+2, -756847.5, -861962.1, -3602.0154, -0.0038742286, -0.06509438, -756724.2, -5337.0264 
1.2504874e+2, 2.3331687e+2, -654300.0, -761821.25, -3076.564, 0.0013577351, -0.062749624, -654212.0, -723.3075 
1.2505329e+2, 2.4330567e+2, -563166.44, -685589.4, -2873.8157, 0.0031640548, -0.060580656, -563099.0, -7500.5474 
1.2505776e+2, 2.5329363e+2, -459911.66, -584823.75, -3125.837, -0.0016283838, -0.061492097, -459833.5, -2117.197 
1.2506232e+2, 2.6328075e+2, -368571.88, -508910.34, -2839.7056, -0.0036847044, -0.061780006, -368514.44, -8672.06 
1.2506698e+2, 2.7326706e+2, -265110.1, -408072.06, -2828.255, -0.00035882642, -0.06393147, -265054.16, -3077.4514 
1.250717e+2, 2.8325227e+2, -177756.55, -340538.28, -2167.401, 0.0010631282, -0.06324738, -177727.7, -13606.055 
1.2507647e+2, 2.932363e+2, -75031.836, -240742.88, -1908.7698, -0.001346237, -0.060156114, -75009.85, -8731.763 
1.2508133e+2, 3.0322382e+2, 29996.027, -83843.305, -1177.5549, -0.002381043, -0.059141293, 30008.207, 30008.207 
1.2508628e+2, 3.132152e+2, 37671.684, -77451.25, -1190.6396, -0.00056667376, -0.06574747, 37683.996, 37683.996 
1.3499771e+2, 1.23380706e+2, -1718805.9, -1722275.5, 905.3229, 0.003112929, -0.056234505, -1718583.9, 12279.173 
1.3500294e+2, 1.3337749e+2, -1633958.8, -1660962.4, -229.66045, -0.0037348638, -0.07396101, -1633956.8, -1062.1427 
1.3500823e+2, 1.433742e+2, -1533219.6, -1566122.9, -994.6416, 0.0018122854, -0.05660553, -1533189.6, 1737.151 
1.3501334e+2, 1.5337074e+2, -1429721.1, -1463931.3, -542.02655, 0.001499506, -0.05868107, -1429712.5, 7248.14 
1.3501838e+2, 1.6336632e+2, -1340382.3, -1391623.1, -938.3651, 0.0006732758, -0.061706327, -1340365.1, -1361.0989 
1.3502334e+2, 1.733609e+2, -1236680.3, -1291317.4, -1613.7795, -0.0005234163, -0.06426965, -1236632.6, 4424.456 
1.3502829e+2, 1.8335472e+2, -1144147.4, -1213084.5, -2231.4924, -0.00087050314, -0.06412454, -1144075.1, -957.4714 
1.3503319e+2, 1.9334784e+2, -1041576.1, -1112471.4, -1766.551, 0.0002584072, -0.06304148, -1041532.1, 3652.9868 
1.3503805e+2, 2.0334004e+2, -951856.6, -1038996.06, -1868.7386, 0.00096083235, -0.061195668, -951816.56, -4555.0815 
1.3504289e+2, 2.1333131e+2, -848509.94, -938648.9, -2347.3757, 0.00086093973, -0.06014761, -848448.8, 898.27856 
1.3504772e+2, 2.2332178e+2, -756239.6, -860698.75, -2402.6047, 0.00010199918, -0.059439458, -756184.4, -4743.873 
1.3505255e+2, 2.3331149e+2, -653398.44, -759948.2, -1924.604, -0.0018698529, -0.062290557, -653363.7, 177.54977 
1.350574e+2, 2.4330033e+2, -563349.8, -685959.44, -1606.0535, -0.0022868824, -0.063508525, -563328.8, -7678.183 
1.350623e+2, 2.5328824e+2, -460320.44, -585661.9, -1833.6449, 0.00025645326, -0.064144805, -460293.63, -2524.6404 
1.3506722e+2, 2.6327536e+2, -368648.28, -509057.47, -1494.6549, 0.0010774987, -0.0625805, -368632.38, -8737.093 
1.350722e+2, 2.7326173e+2, -265131.03, -408093.13, -1477.898, -0.0014658698, -0.06010325, -265115.75, -3086.5374 
1.3507725e+2, 2.8324693e+2, -177387.86, -339742.7, -880.8317, -0.0025677579, -0.059479073, -177383.08, -13209.151 
1.350824e+2, 2.9323095e+2, -74588.2, -239792.8, -646.995, -0.000788178, -0.06543982, -74585.664, -8255.118 
1.3508764e+2, 3.032185e+2, 30059.398, -83680.13, 315.22803, -0.00023106374, -0.065362826, 30060.271, 30060.271 
1.3509297e+2, 3.1321e+2, 37640.05, -77472.195, 344.6342, -0.0021149723, -0.056981213, 37641.082, 37641.082 
1.4499776e+2, 1.23375036e+2, -1717341.0, -1722114.5, -963.19324, 0.0028700035, -0.055709682, -1717154.0, 13764.534 
1.4500338e+2, 1.3337179e+2, -1633122.1, -1660551.9, -1111.7861, -0.0036299478, -0.076016806, -1633077.1, -126.67118 
1.4500901e+2, 1.4336854e+2, -1532854.3, -1566205.0, -1840.9437, 0.0024707345, -0.054056484, -1532753.0, 2229.224 
1.4501446e+2, 1.5336503e+2, -1428476.9, -1463650.6, -2666.194, 0.00095655693, -0.058623143, -1428275.9, 8740.796 
1.4501986e+2, 1.6336058e+2, -1338828.8, -1391003.9, -3345.9463, -0.00007823181, -0.06284487, -1338615.1, 445.23544 
1.4502521e+2, 1.7335516e+2, -1236292.1, -1291239.1, -2711.7915, 0.00041028296, -0.06397829, -1236158.5, 4954.822 
1.4503048e+2, 1.8334897e+2, -1144434.6, -1213408.6, -3045.76, 0.00033757702, -0.06333576, -1144300.5, -1126.3939 
1.4503567e+2, 1.9334206e+2, -1041455.7, -1112624.8, -3677.8281, -0.00091191323, -0.06356213, -1041266.1, 3975.703 
1.4504087e+2, 2.0333426e+2, -951411.4, -1038676.75, -3967.8972, -0.00089264615, -0.062174156, -951231.3, -3913.0947 
1.4504607e+2, 2.1332555e+2, -848499.6, -938488.3, -3393.1711, 0.0015287786, -0.059947826, -848371.9, 1031.7778 
1.4505126e+2, 2.2331603e+2, -756724.4, -861017.56, -3286.0688, 0.0017728864, -0.05863305, -756620.94, -5124.0127 
1.4505637e+2, 2.3330572e+2, -654010.44, -760389.1, -3857.3157, -0.002111888, -0.06198603, -653870.75, -272.88028 
1.4506154e+2, 2.4329455e+2, -563796.7, -686102.7, -3898.1575, -0.0034295146, -0.06346741, -563672.56, -7965.2373 
1.450668e+2, 2.532825e+2, -460519.22, -585651.75, -3624.8142, 0.0001886653, -0.063890666, -460414.3, -2588.7473 
1.4507209e+2, 2.6326963e+2, -368936.6, -509023.25, -2982.1775, 0.0015779769, -0.062289406, -368873.13, -8921.395 
1.4507739e+2, 2.7325594e+2, -266218.16, -408442.9, -2854.8354, -0.0014120283, -0.060130622, -266160.88, -4075.3232 
1.4508277e+2, 2.832412e+2, -178941.14, -340397.38, -2261.5984, -0.0028688135, -0.059633903, -178909.47, -14679.313 
1.4508827e+2, 2.9322523e+2, -75830.15, -240326.2, -2452.2864, -0.0012419287, -0.06532482, -75793.6, -9406.91 
1.4509389e+2, 3.032128e+2, 29062.766, -83702.2, -1534.7657, -0.0005656432, -0.06522657, 29083.65, 29083.65 
1.4509961e+2, 3.1320438e+2, 36028.59, -77718.2, -1150.2552, -0.001816871, -0.05735187, 36040.22, 36040.22 
1.5499784e+2, 1.2336891e+2, -1716918.1, -1721240.5, 356.71964, 0.0007516148, -0.057731844, -1716888.9, 14089.719 
1.5500383e+2, 1.333658e+2, -1632179.1, -1658612.0, 217.13768, -0.0028366135, -0.0760954, -1632177.3, 831.815 
1.5500985e+2, 1.4336264e+2, -1533881.8, -1568314.1, -468.34125, 0.0047479807, -0.04851893, -1533875.4, 1164.7164 
1.5501565e+2, 1.5335885e+2, -1429896.9, -1466568.9, -1279.9973, 0.00012954853, -0.06103376, -1429852.3, 7225.0728 
1.5502137e+2, 1.6335429e+2, -1338073.9, -1389449.1, -2105.4001, -0.0019176583, -0.06797939, -1337987.8, 1134.2166 
1.5502706e+2, 1.7334911e+2, -1235118.4, -1288821.3, -1495.647, 0.0015896583, -0.061879147, -1235076.8, 6095.976 
1.550327e+2, 1.8334301e+2, -1145207.4, -1214999.8, -1848.5237, 0.0026074264, -0.05774055, -1145158.5, -1925.9277 
1.5503818e+2, 1.9333589e+2, -1042618.5, -1115024.9, -2476.5674, -0.001255533, -0.061622374, -1042533.94, 2768.3286 
1.5504369e+2, 2.03328e+2, -950696.7, -1037203.2, -2705.799, -0.0029299823, -0.0635403, -950612.1, -3232.6382 
1.5504922e+2, 2.1331942e+2, -847423.8, -936259.9, -2122.907, -0.00035092287, -0.06375256, -847373.1, 2090.485 
1.5505475e+2, 2.2330995e+2, -757433.25, -862471.75, -2136.564, 0.0011681811, -0.06258825, -757389.8, -5833.3657 
1.550602e+2, 2.3329954e+2, -655080.1, -762598.25, -2726.3284, 0.00055234553, -0.061841957, -655011.0, -1352.5466 
1.550657e+2, 2.4328831e+2, -563537.6, -685562.44, -2576.658, -0.00036627488, -0.060529705, -563483.25, -7714.8296 
1.5507127e+2, 2.5327632e+2, -460007.3, -584570.06, -2271.2078, -0.0017777069, -0.060806233, -459965.9, -2079.978 
1.5507689e+2, 2.632635e+2, -368672.84, -508445.44, -1807.8529, -0.0020793276, -0.060931254, -368649.47, -8637.796 
1.5508255e+2, 2.732498e+2, -266008.7, -407984.94, -1723.7026, -0.00024796042, -0.06389347, -265987.75, -3842.1497 
1.5508829e+2, 2.8323507e+2, -179210.27, -340935.25, -942.1777, 0.00005085107, -0.06360007, -179204.77, -14914.575 
1.550941e+2, 2.9321915e+2, -76212.96, -241092.38, -1096.4673, -0.0026720327, -0.060012817, -76205.664, -9759.27 
1.5510005e+2, 3.032067e+2, 29519.703, -82711.31, -165.96605, -0.0033062142, -0.058944907, 29519.947, 29519.947 
1.551062e+2, 3.131982e+2, 36647.055, -76374.25, 206.48337, 0.0002322688, -0.06649087, 36647.434, 36647.434 
1.6499795e+2, 1.2336248e+2, -1716356.5, -1721676.3, -725.00543, 0.000920827, -0.056570344, -1716259.4, 14782.275 
1.6500433e+2, 1.3335934e+2, -1630369.6, -1657536.9, -1702.6082, -0.0032087062, -0.07872545, -1630263.3, 2809.1365 
1.6501072e+2, 1.4335622e+2, -1532243.0, -1567833.1, -2646.422, 0.0048401146, -0.04684647, -1532047.4, 3055.7004 
1.6501686e+2, 1.5335236e+2, -1429130.1, -1466625.6, -2302.3196, 0.00058610045, -0.06106293, -1428989.4, 8151.394 
1.6502292e+2, 1.6334778e+2, -1337668.9, -1389338.5, -2852.8403, -0.0016209317, -0.06881043, -1337511.9, 1673.8293 
1.6502894e+2, 1.733426e+2, -1234833.5, -1288715.5, -3470.5176, 0.00078710675, -0.06168287, -1234610.9, 6625.5996 
1.6503488e+2, 1.833365e+2, -1144941.8, -1215016.3, -4211.881, 0.0017293195, -0.056906443, -1144689.5, -1393.1707 
1.6504073e+2, 1.9332938e+2, -1041955.6, -1114883.4, -3758.1736, -0.00029785957, -0.060915746, -1041762.5, 3603.6653 
1.6504656e+2, 2.0332147e+2, -950054.5, -1036965.0, -3776.5645, -0.0015192794, -0.06320787, -949890.75, -2447.1782 
1.6505238e+2, 2.1331286e+2, -847820.94, -936518.6, -4354.8022, -0.0011221535, -0.06423086, -847607.6, 1920.1434 
1.6505821e+2, 2.2330339e+2, -758184.75, -862837.6, -4656.245, -0.00044204676, -0.063390106, -757978.0, -6357.3555 
1.65064e+2, 2.3329298e+2, -654989.4, -762554.25, -4142.0156, 0.000693134, -0.06204715, -654830.1, -1107.4756 
1.6506985e+2, 2.4328178e+2, -563292.44, -685329.5, -3481.4082, 0.0006135317, -0.060341835, -563193.2, -7360.658 
1.6507573e+2, 2.532698e+2, -461133.25, -584990.6, -3635.2124, -0.0017616262, -0.060636718, -461026.66, -3076.7114 
1.6508166e+2, 2.63257e+2, -370449.9, -509187.66, -3467.653, -0.002651032, -0.060870454, -370363.28, -10287.698 
1.6508764e+2, 2.732433e+2, -267014.5, -408368.75, -3544.5388, -0.0006430712, -0.06408568, -266925.7, -4716.2314 
1.6509373e+2, 2.8322858e+2, -179742.55, -340967.97, -2634.6663, 0.000015751852, -0.06377449, -179699.52, -15345.604 
1.650999e+2, 2.9321268e+2, -77118.96, -241292.36, -2259.5269, -0.0020143474, -0.059664227, -77087.87, -10578.009 
1.6510622e+2, 3.0320024e+2, 28154.58, -83078.22, -1159.2638, -0.0027066173, -0.058505256, 28166.662, 28166.662 
1.6511267e+2, 3.131918e+2, 34594.332, -77076.08, -1280.6045, -0.0007069781, -0.066776425, 34609.016, 34609.016 
1.7499815e+2, 1.2335575e+2, -1717698.0, -1724420.6, 727.57007, 0.0033751952, -0.052147124, -1717620.3, 13487.41 
1.7500488e+2, 1.3335241e+2, -1631070.5, -1658970.6, -198.07008, -0.004742586, -0.08389204, -1631069.0, 2071.2468 
1.7501165e+2, 1.433493e+2, -1531630.1, -1566571.3, -1421.6912, 0.0027433268, -0.049032252, -1531572.4, 3598.4133 
1.7501813e+2, 1.5334561e+2, -1428266.8, -1464850.0, -1130.0193, 0.002302803, -0.058736492, -1428231.9, 8975.082 
1.7502451e+2, 1.6334106e+2, -1338522.1, -1391095.4, -1681.6051, 0.0007878301, -0.0653679, -1338468.4, 783.21594 
1.750308e+2, 1.7333566e+2, -1236034.1, -1291191.3, -2290.58, -0.0019743303, -0.06335627, -1235939.1, 5365.322 
1.7503704e+2, 1.8332946e+2, -1144367.1, -1213834.1, -2926.2666, -0.0022707519, -0.06077652, -1144244.0, -878.92303 
1.750433e+2, 1.9332251e+2, -1041040.25, -1112990.0, -2450.778, 0.0019249336, -0.06143013, -1040956.9, 4476.5757 
1.7504948e+2, 2.0331465e+2, -950849.44, -1038597.06, -2731.4414, 0.003270469, -0.06121039, -950764.5, -3254.2039 
1.7505555e+2, 2.133059e+2, -848961.7, -938875.3, -3355.7341, -0.00080785045, -0.06145325, -848836.6, 759.4582 
1.7506163e+2, 2.2329637e+2, -757504.44, -861432.1, -3357.137, -0.0030408793, -0.06110147, -757396.1, -5706.5557 
1.7506781e+2, 2.3328608e+2, -653958.75, -760405.3, -2788.857, -0.0016295626, -0.062586695, -653885.75, -95.43467 
1.75074e+2, 2.4327493e+2, -563418.5, -685564.56, -2437.301, -0.00044831715, -0.06282991, -563369.9, -7470.3174 
1.7508015e+2, 2.532629e+2, -461497.84, -585732.0, -2654.606, 0.00016648891, -0.063298725, -461441.16, -3423.6714 
1.750864e+2, 2.6325005e+2, -370586.2, -509459.78, -2181.2507, -0.00023400385, -0.062073924, -370551.94, -10408.58 
1.750927e+2, 2.7323642e+2, -267120.6, -408563.75, -2197.4077, -0.002542994, -0.060840916, -267086.47, -4809.496 
1.7509912e+2, 2.8322172e+2, -179246.56, -339896.22, -1362.7498, -0.0028838636, -0.06028278, -179235.02, -14813.836 
1.7510569e+2, 2.932058e+2, -76513.92, -239975.19, -1016.2789, 0.0006318791, -0.064075656, -76507.6, -9930.654 
1.7511235e+2, 3.0319345e+2, 28010.73, -83314.28, 31.02263, 0.0010980146, -0.06369147, 28010.738, 28010.738 
1.7511904e+2, 3.131851e+2, 34297.406, -77658.98, -106.9273, -0.0045123985, -0.05862054, 34297.508, 34297.508 
1.8499841e+2, 1.2334858e+2, -1715989.1, -1724808.6, -1012.0786, 0.0034610303, -0.05104502, -1715874.5, 15303.396 
1.8500552e+2, 1.333452e+2, -1629554.8, -1658165.0, -1122.4095, -0.004680858, -0.08670994, -1629510.8, 3700.2463 
1.8501262e+2, 1.4334214e+2, -1530770.6, -1566196.0, -2318.7231, 0.0031231435, -0.047540557, -1530619.5, 4621.5874 
1.850194e+2, 1.5333845e+2, -1427232.0, -1464426.5, -2988.1194, 0.0018675704, -0.05750266, -1426993.5, 10283.801 
1.8502611e+2, 1.6333385e+2, -1337527.5, -1391008.4, -3852.0227, 0.00018466635, -0.064819254, -1337251.5, 2070.6858 
1.8503273e+2, 1.7332841e+2, -1235018.1, -1291171.4, -3538.4988, -0.0014771936, -0.06410044, -1234796.0, 6579.5664 
1.850393e+2, 1.8332219e+2, -1143426.4, -1213389.3, -3906.2913, -0.0015210612, -0.062010106, -1143209.0, 227.57774 
1.8504585e+2, 1.9331524e+2, -1041236.3, -1113019.6, -4325.0938, 0.001273817, -0.06164967, -1040976.7, 4528.052 
1.8505232e+2, 2.0330739e+2, -951571.8, -1039072.9, -4841.6265, 0.0022087118, -0.06066089, -951304.75, -3723.1865 
1.850587e+2, 2.1329863e+2, -848637.3, -938895.7, -4418.28, -0.00036552636, -0.060640752, -848421.56, 1245.8895 
1.8506512e+2, 2.2328909e+2, -756827.2, -860991.3, -4053.0803, -0.0020100647, -0.060299713, -756669.7, -4908.7183 
1.8507157e+2, 2.3327881e+2, -654842.75, -760676.94, -4439.4795, -0.0018253558, -0.06228061, -654656.8, -795.1775 
1.8507807e+2, 2.4326767e+2, -565054.9, -686326.3, -4607.924, -0.0012481129, -0.0628762, -564880.0, -8909.195 
1.8508455e+2, 2.5325564e+2, -462044.75, -586006.1, -4481.778, 0.0000027867125, -0.06341408, -461882.94, -3794.1663 
1.850911e+2, 2.632428e+2, -370548.63, -509254.06, -3605.43, 0.000013136569, -0.06205423, -370454.97, -10240.389 
1.8509774e+2, 2.7322918e+2, -267908.34, -408729.38, -3371.7983, -0.002359863, -0.060312133, -267827.66, -5479.6836 
1.8510449e+2, 2.8321448e+2, -180864.48, -340446.4, -2624.6772, -0.002926433, -0.059776634, -180821.33, -16329.359 
1.8511136e+2, 2.9319862e+2, -78929.164, -240922.27, -2812.9397, 0.00006139146, -0.0646043, -78880.336, -12232.688 
1.8511835e+2, 3.0318627e+2, 25729.78, -84125.266, -1711.251, 0.000514547, -0.06426982, 25756.428, 25756.428 
1.8512544e+2, 3.131779e+2, 33808.55, -77605.55, -1348.3464, -0.0040869946, -0.05732862, 33824.867, 33824.867 
1.9499871e+2, 1.2334097e+2, -1716221.4, -1725279.4, 176.62634, 0.0011568618, -0.05325478, -1716218.0, 15034.504 
1.9500618e+2, 1.333377e+2, -1628776.0, -1656562.3, 119.748146, -0.0030419307, -0.087190345, -1628775.5, 4508.945 
1.9501364e+2, 1.4333472e+2, -1531434.3, -1567558.6, -1091.6455, 0.0059619, -0.04237876, -1531401.3, 3912.5073 
1.950207e+2, 1.5333085e+2, -1428191.1, -1466399.0, -1759.4347, -0.00070261594, -0.057339985, -1428110.3, 9241.529 
1.9502772e+2, 1.6332617e+2, -1337187.6, -1390310.3, -2655.8853, -0.0034251844, -0.067137904, -1337055.1, 2342.3098 
1.9503473e+2, 1.7332083e+2, -1234430.5, -1289960.0, -2343.3306, 0.0022137673, -0.06393569, -1234331.8, 7118.0435 
1.9504163e+2, 1.8331464e+2, -1144004.5, -1214578.5, -2879.639, 0.0038994472, -0.060641006, -1143887.1, -376.65125 
1.9504836e+2, 1.9330755e+2, -1042054.2, -1114710.0, -3326.4946, -0.0021943557, -0.06157347, -1041902.25, 3677.6958 
1.950551e+2, 2.0329969e+2, -950957.5, -1037808.56, -3606.2197, -0.004613066, -0.06152586, -950808.06, -3150.8843 
1.9506189e+2, 2.1329103e+2, -847750.3, -937053.94, -3136.9817, 0.00018028062, -0.061747517, -847640.25, 2101.5571 
1.9506864e+2, 2.2328153e+2, -757356.06, -862068.2, -3066.1658, 0.002545657, -0.06095145, -757266.4, -5431.474 
1.9507535e+2, 2.3327117e+2, -655664.6, -762370.25, -3509.0945, 0.000045423454, -0.061156094, -655549.4, -1612.8002 
1.950821e+2, 2.4325998e+2, -564916.56, -686034.4, -3379.833, -0.0017991673, -0.060552344, -564822.3, -8776.077 
1.950889e+2, 2.5324798e+2, -461725.72, -585323.8, -3195.828, -0.0021893252, -0.061067484, -461643.13, -3479.4197 
1.9509579e+2, 2.632352e+2, -370213.88, -508524.1, -2456.163, -0.0018503534, -0.060846977, -370170.28, -9881.163 
1.9510277e+2, 2.7322158e+2, -267585.97, -408013.03, -2258.3267, -0.00018863761, -0.062391166, -267549.7, -5127.377 
1.9510981e+2, 2.832069e+2, -181108.86, -340907.28, -1568.127, -0.00022836615, -0.062148962, -181093.48, -16527.322 
1.9511689e+2, 2.9319105e+2, -79285.875, -241647.19, -1772.3915, -0.0035855104, -0.06143354, -79266.53, -12544.714 
1.9512422e+2, 3.031787e+2, 26163.84, -83195.63, -156.75352, -0.004276721, -0.060432345, 26164.064, 26164.064 
1.9513185e+2, 3.1317034e+2, 34342.44, -76364.78, 308.5621, 0.00032566173, -0.06255812, 34343.3, 34343.3 
2.0499912e+2, 1.2333307e+2, -1715383.3, -1725992.5, -973.95013, 0.0015802666, -0.05302918, -1715294.6, 16035.347 
2.050069e+2, 1.3332984e+2, -1626600.8, -1654885.5, -1373.5682, -0.0036370945, -0.08834943, -1626534.3, 6827.4336 
2.0501469e+2, 1.433269e+2, -1529893.8, -1567237.4, -2727.914, 0.005475247, -0.03992753, -1529695.5, 5694.9414 
2.050221e+2, 1.5332294e+2, -1427119.8, -1466530.6, -2850.7551, -0.0002519214, -0.057937015, -1426914.6, 10514.682 
2.0502941e+2, 1.6331822e+2, -1336170.1, -1389837.0, -3637.744, -0.0027216396, -0.06883567, -1335924.6, 3550.808 
2.0503671e+2, 1.7331292e+2, -1234034.8, -1289677.8, -3873.3708, 0.0018588128, -0.06292077, -1233766.5, 7761.0313 
2.050439e+2, 1.8330672e+2, -1144053.5, -1214894.1, -4574.7407, 0.0031710656, -0.058471292, -1143759.3, -171.11038 
2.0505093e+2, 1.9329959e+2, -1041434.06, -1114794.1, -4434.2266, -0.001964631, -0.061264474, -1041167.0, 4491.0273 
2.0505796e+2, 2.0329168e+2, -950008.25, -1037249.6, -4591.366, -0.004055712, -0.062361687, -949767.3, -2031.7466 
2.0506504e+2, 2.1328305e+2, -848089.9, -937037.25, -4910.606, -0.00021687376, -0.062276106, -847819.56, 2000.45 
2.050721e+2, 2.2327358e+2, -758476.06, -862742.1, -5167.0757, 0.0018159354, -0.061116137, -758220.6, -6307.6533 
2.050791e+2, 2.3326318e+2, -655935.44, -762712.25, -4927.364, 0.00021853484, -0.060901873, -655708.5, -1693.689 
2.0508614e+2, 2.4325198e+2, -564662.7, -685724.7, -4305.0264, -0.0012480378, -0.06004882, -564509.8, -8385.282 
2.0509325e+2, 2.5324002e+2, -462396.94, -585393.94, -4271.2104, -0.0023270654, -0.0606349, -462248.78, -4006.998 
2.0510043e+2, 2.6322722e+2, -371748.75, -509089.6, -3817.45, -0.0022684096, -0.0606754, -371642.72, -11275.704 
2.051077e+2, 2.7321365e+2, -269615.66, -408850.28, -3910.4197, -0.00006635424, -0.062820226, -269505.94, -7005.7925 
2.0511505e+2, 2.8319898e+2, -182852.97, -341647.4, -3062.0408, 0.00007546892, -0.062501885, -182793.94, -18150.07 
2.0512249e+2, 2.9318315e+2, -79233.16, -241543.88, -2830.4587, -0.0038222787, -0.060410127, -79183.81, -12384.476 
2.0513013e+2, 3.031708e+2, 26210.16, -82623.43, -1211.4296, -0.004653225, -0.059405483, 26223.645, 26223.645 
2.0513804e+2, 3.131625e+2, 29969.443, -77836.13, -1014.4738, 0.0006073132, -0.064232334, 29978.988, 29978.988 
2.1499957e+2, 1.2332488e+2, -1716596.6, -1728475.4, 239.12839, 0.004721322, -0.050353628, -1716591.8, 14818.485 
2.1500766e+2, 1.3332158e+2, -1626596.0, -1654872.1, -70.94195, -0.0064594806, -0.09017228, -1626595.8, 6846.7456 
2.1501578e+2, 1.4331867e+2, -1529782.0, -1567008.8, -1563.5743, 0.0016533936, -0.04016626, -1529716.4, 5754.6787 
2.1502355e+2, 1.5331471e+2, -1426997.8, -1466279.6, -1709.851, 0.0031639815, -0.05928527, -1426923.5, 10586.337 
2.1503119e+2, 1.6330999e+2, -1336529.4, -1390577.1, -2607.0981, 0.0022400871, -0.06991212, -1336403.9, 3152.2388 
2.1503867e+2, 1.7330465e+2, -1234497.6, -1290637.0, -2858.6704, -0.002473597, -0.06106553, -1234352.5, 7256.0566 
2.1504611e+2, 1.8329845e+2, -1143852.1, -1214486.6, -3418.865, -0.0036407062, -0.05550809, -1143687.1, -17.73588 
2.1505357e+2, 1.9329132e+2, -1041116.2, -1114135.3, -3245.997, 0.0018564705, -0.0607232, -1040972.2, 4766.8223 
2.1506095e+2, 2.032834e+2, -950486.44, -1038227.56, -3621.754, 0.003708596, -0.06316542, -950337.25, -2520.5935 
2.1506819e+2, 2.132747e+2, -848735.4, -938368.4, -3982.7324, -0.0015227789, -0.062240507, -848558.75, 1343.1575 
2.1507546e+2, 2.2326519e+2, -758139.6, -862045.06, -4035.5461, -0.0040754788, -0.0608003, -757983.1, -5987.9287 
2.1508281e+2, 2.3325486e+2, -655414.1, -761618.8, -3755.8804, -0.0012698884, -0.06148882, -655281.5, -1185.1123 
2.1509019e+2, 2.4324371e+2, -564583.06, -685533.4, -3257.0745, 0.00035540602, -0.061304554, -564495.4, -8289.778 
2.1509758e+2, 2.5323176e+2, -462421.63, -585414.75, -3252.365, -0.00049382006, -0.062047057, -462335.7, -4012.7751 
2.1510503e+2, 2.6321897e+2, -371892.0, -509357.75, -2818.8804, -0.001299119, -0.06150312, -371834.22, -11386.066 
2.1511254e+2, 2.7320537e+2, -269787.03, -409189.1, -2917.814, -0.001909376, -0.061675224, -269725.97, -7144.6387 
2.1512021e+2, 2.831907e+2, -182544.3, -340971.97, -1626.9476, -0.0019331692, -0.060920503, -182527.6, -17802.617 
2.151281e+2, 2.931749e+2, -78878.5, -240693.0, -1306.8828, -0.0008331749, -0.061426193, -78867.95, -11987.854 
2.1513607e+2, 3.0316263e+2, 26374.346, -82155.31, -558.8822, -0.00082986814, -0.06105986, 26377.225, 26377.225 
2.1514404e+2, 3.131544e+2, 30163.111, -77433.93, -566.87225, -0.0030351875, -0.06255106, 30166.1, 30166.1 
2.250001e+2, 1.2331634e+2, -1715417.9, -1729666.8, -1043.7076, 0.004679395, -0.048458017, -1715341.9, 16152.059 
2.2500853e+2, 1.3331302e+2, -1624064.3, -1653313.0, -1050.6156, -0.006244656, -0.09211685, -1624026.6, 9499.912 
2.2501697e+2, 1.4331013e+2, -1527856.1, -1566193.6, -2745.5164, 0.0020650122, -0.040569525, -1527660.5, 7894.244 
2.2502501e+2, 1.5330617e+2, -1426094.6, -1466067.9, -3210.2341, 0.0029339436, -0.058082618, -1425838.4, 11755.154 
2.2503293e+2, 1.6330144e+2, -1336106.9, -1390759.5, -4144.7515, 0.0017427027, -0.068377234, -1335794.4, 3845.6716 
2.2504069e+2, 1.7329602e+2, -1233377.5, -1290530.5, -4184.2095, -0.0024681294, -0.061610773, -1233072.9, 8620.17 
2.2504845e+2, 1.832898e+2, -1142420.5, -1213776.0, -4797.917, -0.0033963392, -0.05689123, -1142099.4, 1654.7192 
2.2505617e+2, 1.932827e+2, -1040988.7, -1113982.0, -4906.198, 0.0017513373, -0.060494155, -1040660.4, 5163.1934 
2.2506382e+2, 2.0327479e+2, -951239.5, -1038871.1, -5296.669, 0.0035150559, -0.062014036, -950920.56, -3019.3828 
2.2507136e+2, 2.1326603e+2, -848800.6, -938771.5, -5236.2847, -0.0012633562, -0.061556604, -848496.94, 1489.9098 
2.2507891e+2, 2.2325651e+2, -757648.3, -861580.94, -5110.2705, -0.003767981, -0.060574643, -757397.7, -5317.4165 
2.2508651e+2, 2.3324622e+2, -655814.7, -761478.9, -5149.9585, -0.0017513591, -0.061645877, -655564.25, -1383.1145 
2.2509418e+2, 2.4323508e+2, -565869.5, -686176.0, -4909.146, -0.00029383434, -0.061640613, -565669.5, -9379.261 
2.2510186e+2, 2.532231e+2, -463811.84, -586199.44, -4980.8755, -0.00008407331, -0.062167216, -463609.47, -5201.863 
2.2510959e+2, 2.6321033e+2, -372830.56, -509634.8, -4407.3877, -0.00062750326, -0.06125624, -372688.72, -12155.869 
2.2511739e+2, 2.7319676e+2, -269850.66, -408996.88, -4187.8433, -0.0025651045, -0.060793936, -269724.72, -7058.954 
2.2512536e+2, 2.831821e+2, -183119.3, -340825.22, -2790.452, -0.0028865482, -0.060155332, -183069.94, -18260.787 
2.2513352e+2, 2.931663e+2, -82963.42, -242214.53, -2629.192, -0.000026173793, -0.062232696, -82920.02, -15956.004 
2.251418e+2, 3.031541e+2, 21829.178, -83982.69, -1785.6002, 0.00035111315, -0.061935294, 21859.3, 21859.3 
2.2515008e+2, 3.131459e+2, 31394.365, -76513.44, -1751.6658, -0.004286674, -0.06048244, 31422.793, 31422.793 
2.3500066e+2, 1.2330747e+2, -1716473.9, -1731828.1, 150.71568, 0.0014150343, -0.047384866, -1716472.4, 15108.455 
2.350095e+2, 1.3330415e+2, -1623659.5, -1652478.0, 256.82166, -0.0030309497, -0.09417539, -1623657.3, 9956.172 
2.3501827e+2, 1.433013e+2, -1528121.6, -1566738.5, -1786.9045, 0.0066760117, -0.041132037, -1528039.1, 7602.2446 
2.3502648e+2, 1.5329733e+2, -1426500.3, -1466908.9, -2318.9294, -0.00090320327, -0.05435598, -1426367.6, 11312.658 
2.3503461e+2, 1.6329256e+2, -1336236.8, -1391037.3, -2995.97, -0.004183499, -0.06424625, -1336073.5, 3653.6738 
2.3504283e+2, 1.7328706e+2, -1233471.8, -1290723.8, -2974.6873, 0.0017730413, -0.064502604, -1233317.6, 8463.242 
2.3505089e+2, 1.8328078e+2, -1142597.1, -1214134.5, -3903.6768, 0.0037689286, -0.062536076, -1142384.8, 1457.5797 
2.3505872e+2, 1.9327371e+2, -1041183.06, -1114389.3, -4074.8894, -0.0021761972, -0.060580183, -1040956.94, 4954.706 
2.350666e+2, 2.0326582e+2, -951122.3, -1038639.3, -4221.8066, -0.004474942, -0.058948852, -950919.1, -2930.1038 
2.3507452e+2, 2.1325707e+2, -848642.56, -938437.5, -4107.4707, 0.00048621482, -0.06023878, -848455.06, 1619.5723 
2.3508242e+2, 2.2324756e+2, -757705.0, -861679.25, -4157.466, 0.002540985, -0.06043408, -757539.06, -5371.003 
2.3509021e+2, 2.3323724e+2, -655922.0, -761687.2, -4236.616, -0.0012517278, -0.061388247, -655752.56, -1483.4883 
2.350981e+2, 2.432261e+2, -565995.4, -686423.8, -3912.2402, -0.003125078, -0.061089106, -565868.44, -9490.118 
2.3510607e+2, 2.5321412e+2, -463958.78, -586481.75, -3963.7678, -0.0010538356, -0.061047114, -463830.7, -5334.8604 
2.3511411e+2, 2.6320133e+2, -372518.97, -508948.88, -3217.595, -0.0002533979, -0.05997536, -372443.13, -11822.178 
2.3512223e+2, 2.7318785e+2, -269469.16, -408132.63, -2968.856, -0.0020986919, -0.060162045, -269405.63, -6652.3037 
2.3513046e+2, 2.8317326e+2, -182958.86, -340418.3, -2093.7769, -0.0028434389, -0.060168657, -182931.03, -18034.742 
2.3513879e+2, 2.9315743e+2, -82822.18, -241912.34, -2056.6072, -0.0012930501, -0.06284216, -82795.6, -15744.605 
2.3514736e+2, 3.0314526e+2, 22031.605, -83546.15, -31.526205, -0.000990097, -0.06207359, 22031.615, 22031.615 
2.3515621e+2, 3.131371e+2, 31498.195, -76119.16, 262.4724, -0.0033244395, -0.058049582, 31498.836, 31498.836 
2.4500136e+2, 1.23298235e+2, -1714551.4, -1732476.5, -1298.9517, 0.0011633355, -0.048750784, -1714457.8, 17213.594 
2.450105e+2, 1.33295e+2, -1621763.1, -1650742.9, -974.04297, -0.0028643808, -0.09293799, -1621730.4, 11972.713 
2.4501954e+2, 1.4329219e+2, -1527509.1, -1566773.6, -2960.2964, 0.0068768645, -0.03907576, -1527287.3, 8443.413 
2.4502803e+2, 1.5328814e+2, -1424712.4, -1466621.9, -3453.8506, -0.0011630978, -0.054781966, -1424429.6, 13340.706 
2.4503647e+2, 1.632833e+2, -1333977.3, -1390112.9, -4203.5474, -0.004522931, -0.065627545, -1333664.1, 6153.443 
2.4504493e+2, 1.7327783e+2, -1233144.9, -1290672.4, -4172.474, 0.002059229, -0.06386461, -1232843.9, 9027.431 
2.4505325e+2, 1.8327154e+2, -1143269.8, -1214797.9, -5046.871, 0.004235703, -0.061048407, -1142915.4, 1017.51904 
2.4506137e+2, 1.9326444e+2, -1040547.56, -1114483.5, -5260.821, -0.0023769902, -0.060572963, -1040175.1, 5827.522 
2.4506949e+2, 2.0325652e+2, -949731.7, -1037810.75, -5521.495, -0.0049880072, -0.05970772, -949386.9, -1306.6415 
2.4507767e+2, 2.132478e+2, -848679.75, -938203.3, -5425.469, 0.00030983062, -0.060298234, -848352.1, 1813.4509 
2.4508582e+2, 2.2323827e+2, -758861.94, -862453.0, -5462.5703, 0.00268284, -0.05996488, -758574.7, -6315.778 
2.450939e+2, 2.3322795e+2, -656624.56, -762357.6, -5642.4326, -0.00082783395, -0.060767625, -656324.25, -1964.0687 
2.4510203e+2, 2.432168e+2, -566088.06, -686192.44, -5284.368, -0.00282608, -0.0604405, -565856.0, -9386.535 
2.4511024e+2, 2.5320482e+2, -464397.25, -586304.8, -4960.0903, -0.0016831276, -0.060600363, -464195.78, -5609.09 
2.4511856e+2, 2.6319212e+2, -373821.44, -509350.63, -4001.123, -0.0010384297, -0.059836842, -373703.44, -12991.887 
2.4512698e+2, 2.7317858e+2, -272197.56, -409277.03, -4059.287, -0.0015098072, -0.060515974, -272077.44, -9233.635 
2.4513549e+2, 2.8316402e+2, -185595.69, -341595.34, -3447.4434, -0.0019178432, -0.060416583, -185519.53, -20532.896 
2.4514407e+2, 2.9314825e+2, -82345.7, -241620.39, -3533.533, -0.002123261, -0.06181417, -82267.35, -15126.165 
2.4515292e+2, 3.0313608e+2, 22808.115, -82745.86, -1408.3453, -0.0022606903, -0.060936872, 22826.902, 22826.902 
2.4516211e+2, 3.1312796e+2, 26255.66, -78157.63, -1001.52905, -0.0023616913, -0.059165582, 26265.266, 26265.266 
2.5500217e+2, 1.23288654e+2, -1715530.0, -1734482.8, -494.13696, 0.003906854, -0.052660353, -1715517.1, 16248.129 
2.550115e+2, 1.3328557e+2, -1621133.4, -1649453.1, -67.917725, -0.00572724, -0.08842145, -1621133.3, 12662.328 
2.5502083e+2, 1.432828e+2, -1527665.5, -1567101.0, -1777.7386, 0.002664711, -0.03440115, -1527585.5, 8237.175 
2.550297e+2, 1.5327862e+2, -1425047.3, -1467309.8, -2208.2104, 0.0020760708, -0.05929564, -1424932.1, 12931.447 
2.5503844e+2, 1.6327374e+2, -1334064.8, -1390291.0, -3425.9692, 0.0006411189, -0.07245386, -1333856.8, 6054.6255 
2.5504702e+2, 1.7326838e+2, -1233180.3, -1290758.6, -3487.7505, -0.0015252169, -0.05978082, -1232969.8, 8994.375 
2.5505555e+2, 1.832621e+2, -1143511.8, -1215314.3, -3946.3774, -0.001901009, -0.052555107, -1143295.5, 730.0246 
2.5506407e+2, 1.9325487e+2, -1040862.5, -1115127.1, -4066.0676, 0.0010234317, -0.06045259, -1040640.5, 5455.9604 
2.550725e+2, 2.0324688e+2, -949659.7, -1037644.44, -4709.437, 0.0017753082, -0.06418595, -949408.3, -1233.6335 
2.550808e+2, 2.1323822e+2, -848523.56, -937880.2, -4697.3403, -0.0017168663, -0.06170111, -848277.3, 1982.205 
2.5508913e+2, 2.2322871e+2, -759080.7, -862909.44, -4463.542, -0.0031617675, -0.059176076, -758889.2, -6536.5176 
2.5509757e+2, 2.3321834e+2, -656950.9, -763013.3, -4578.7837, -0.0005003987, -0.059797414, -656753.6, -2299.2 
2.55106e+2, 2.4320719e+2, -565658.25, -685265.94, -4348.538, 0.00047384886, -0.059695713, -565500.4, -8936.681 
2.5511444e+2, 2.531953e+2, -463812.34, -585058.0, -4063.683, -0.0019855008, -0.060796786, -463676.28, -4996.1704 
2.5512296e+2, 2.6318258e+2, -373880.2, -509440.72, -3149.637, -0.0029394778, -0.060789876, -373807.03, -13002.493 
2.5513163e+2, 2.7316907e+2, -272408.06, -409685.97, -3215.8748, -0.0008164812, -0.06180796, -272332.78, -9395.653 
2.5514045e+2, 2.831545e+2, -185704.0, -341771.53, -2125.3574, -0.00016770582, -0.06089243, -185675.06, -20594.969 
2.551494e+2, 2.9313874e+2, -82481.47, -241787.53, -2108.3777, -0.002549863, -0.059243955, -82453.57, -15219.11 
2.551585e+2, 3.0312657e+2, 23041.785, -82125.33, -823.23364, -0.0034778367, -0.058589596, 23048.229, 23048.229 
2.551678e+2, 3.1311843e+2, 26612.088, -77359.734, -616.4238, -0.001419368, -0.063596964, 26615.742, 26615.742 
2.6500306e+2, 1.23278886e+2, -1714734.8, -1736041.9, -1276.7118, 0.0044791354, -0.051427163, -1714658.6, 17202.395 
2.6501262e+2, 1.3327584e+2, -1617694.9, -1647290.9, -1059.0441, -0.006139362, -0.087747425, -1617657.1, 16233.957 
2.6502222e+2, 1.4327304e+2, -1524769.4, -1565902.3, -3048.5574, 0.0017195852, -0.03694416, -1524544.6, 11373.6875 
2.6503137e+2, 1.5326886e+2, -1424582.3, -1467453.0, -3398.4553, 0.0027159941, -0.058898885, -1424314.5, 13644.839 
2.6504037e+2, 1.6326396e+2, -1334452.9, -1390845.1, -4605.292, 0.0017197178, -0.070614316, -1334079.3, 5928.098 
2.650492e+2, 1.7325853e+2, -1231573.4, -1290361.6, -4863.1206, -0.0022229026, -0.059682973, -1231173.9, 10886.692 
2.6505795e+2, 1.8325225e+2, -1141164.5, -1214176.5, -5419.019, -0.0031790007, -0.053260013, -1140764.5, 3357.7302 
2.6506674e+2, 1.9324501e+2, -1040953.0, -1115111.9, -5199.012, 0.0014707425, -0.05997618, -1040590.3, 5602.6523 
2.6507542e+2, 2.0323703e+2, -951131.2, -1038667.44, -5683.8906, 0.0028924148, -0.06313471, -950763.6, -2492.4272 
2.6508397e+2, 2.1322833e+2, -848549.9, -938300.06, -6074.058, -0.0020127823, -0.061350558, -848140.7, 2215.8137 
2.6509252e+2, 2.2321881e+2, -758155.8, -862196.1, -5990.916, -0.004118637, -0.059300184, -757812.0, -5362.24 
2.651012e+2, 2.3320846e+2, -657417.8, -762848.6, -5555.653, -0.00062647124, -0.05989512, -657125.9, -2574.7231 
2.6510987e+2, 2.4319732e+2, -567314.56, -686144.3, -5120.9604, 0.0008655827, -0.05973764, -567094.3, -10434.032 
2.6511857e+2, 2.5318545e+2, -465235.7, -585945.56, -5556.4897, -0.0017357887, -0.060737442, -464980.44, -6203.589 
2.6512736e+2, 2.6317272e+2, -374689.6, -509612.28, -5049.8643, -0.0028784764, -0.06059524, -374500.88, -13599.565 
2.6513627e+2, 2.7315924e+2, -272805.84, -409584.06, -4757.868, -0.0010142557, -0.061422646, -272640.53, -9606.919 
2.6514533e+2, 2.8314468e+2, -186688.5, -341936.9, -3166.7456, -0.0004406754, -0.06056322, -186623.94, -21447.627 
2.6515454e+2, 2.9312894e+2, -85941.305, -243163.31, -2864.0889, -0.0025336542, -0.05945076, -85889.14, -18558.67 
2.6516393e+2, 3.0311683e+2, 19206.902, -83361.9, -1594.6721, -0.0033258419, -0.058849007, 19231.69, 19231.69 
2.651735e+2, 3.1310877e+2, 26032.0, -76972.45, -1412.7385, -0.001453117, -0.06291012, 26051.373, 26051.373 
2.7500397e+2, 1.2326895e+2, -1716246.8, -1739144.5, -221.79071, 0.0028459853, -0.045133732, -1716244.6, 15713.838 
2.7501392e+2, 1.3326578e+2, -1617700.1, -1647301.9, 129.26604, -0.004137285, -0.09086397, -1617699.6, 16289.939 
2.7502376e+2, 1.4326292e+2, -1524879.1, -1566130.0, -2323.1077, 0.004005888, -0.04666351, -1524748.8, 11268.79 
2.7503306e+2, 1.5325886e+2, -1424711.3, -1467733.4, -2765.7175, 0.00079238, -0.053690307, -1424534.1, 13523.213 
2.7504227e+2, 1.6325398e+2, -1334817.4, -1391612.5, -3491.7705, -0.0012565464, -0.06021612, -1334603.5, 5501.704 
2.7505144e+2, 1.7324835e+2, -1232016.4, -1291271.5, -3639.7075, -0.00012101985, -0.06345609, -1231793.8, 10366.6 
2.7506047e+2, 1.8324198e+2, -1140929.1, -1213681.0, -4765.483, 0.0002883508, -0.06297109, -1140618.3, 3604.4465 
2.7506936e+2, 1.932349e+2, -1040566.25, -1114329.3, -4667.8237, -0.0009445479, -0.059180215, -1040272.0, 6019.9927 
2.750782e+2, 2.0322698e+2, -951581.5, -1039619.3, -4658.327, -0.0015021872, -0.056707576, -951335.7, -2965.976 
2.7508712e+2, 2.1321815e+2, -849215.4, -939663.1, -4933.32, -0.00066363683, -0.05929348, -848947.06, 1509.182 
2.7509597e+2, 2.2320859e+2, -757636.4, -861092.06, -5237.394, -0.0003652282, -0.060300376, -757371.94, -4821.883 
2.751048e+2, 2.3319834e+2, -656640.7, -761227.56, -4897.56, -0.0011786399, -0.06101941, -656411.9, -1761.4979 
2.7511367e+2, 2.4318723e+2, -567844.6, -687233.0, -4198.696, -0.0015442652, -0.060534377, -567697.2, -10938.094 
2.7512264e+2, 2.5317526e+2, -466078.94, -587662.44, -4564.0947, -0.0009771242, -0.06043613, -465907.84, -7031.1196 
2.751317e+2, 2.631625e+2, -374418.88, -508999.06, -4083.8135, -0.00095418195, -0.059308242, -374295.06, -13293.448 
2.7514085e+2, 2.7314907e+2, -272308.75, -408480.7, -3810.1648, -0.002058631, -0.059450217, -272202.25, -9069.115 
2.7515015e+2, 2.8313458e+2, -186288.06, -341021.28, -2370.2715, -0.002642537, -0.059467472, -186251.77, -20976.582 
2.751596e+2, 2.9311886e+2, -85570.555, -242316.23, -2109.031, -0.0021169577, -0.062263906, -85542.18, -18113.076 
2.7516928e+2, 3.031068e+2, 19599.18, -82462.414, -433.35397, -0.0018936201, -0.061572753, 19601.02, 19601.02 
2.7517915e+2, 3.130989e+2, 26398.227, -76092.48, -170.54465, -0.0024179996, -0.057461374, 26398.512, 26398.512 
2.85005e+2, 1.2325861e+2, -1713778.8, -1739593.5, -1704.7197, 0.0023651952, -0.046806782, -1713666.8, 18393.053 
2.8501523e+2, 1.3325553e+2, -1615804.8, -1645800.3, -838.7623, -0.0031982607, -0.08712622, -1615781.4, 18308.648 
2.8502533e+2, 1.4325264e+2, -1524260.9, -1566221.3, -3159.1921, 0.0044870046, -0.047501918, -1524024.4, 12093.92 
2.8503484e+2, 1.5324853e+2, -1422343.0, -1467190.6, -3857.3857, -0.0001532043, -0.053689696, -1422013.6, 16144.926 
2.8504428e+2, 1.6324362e+2, -1331932.3, -1390431.4, -4684.9414, -0.002438118, -0.059679523, -1331559.5, 8647.225 
2.850537e+2, 1.7323798e+2, -1231997.5, -1291421.9, -4494.1265, 0.0007506635, -0.06318333, -1231659.5, 10602.444 
2.85063e+2, 1.8323158e+2, -1142162.8, -1214639.8, -5592.587, 0.0017549183, -0.06290643, -1141733.8, 2590.8687 
2.8507206e+2, 1.9322447e+2, -1039455.25, -1114212.6, -6141.657, -0.0017553071, -0.05922596, -1038954.06, 7440.2144 
2.8508115e+2, 2.0321654e+2, -949381.56, -1038461.94, -6354.7017, -0.0030640834, -0.05677267, -948930.56, -458.38892 
2.8509027e+2, 2.1320772e+2, -849442.5, -939592.94, -5862.2866, 0.000044973935, -0.059171807, -849062.9, 1495.7035 
2.8509936e+2, 2.2319815e+2, -759388.75, -862150.6, -5951.8867, 0.0011962906, -0.060032178, -759045.2, -6392.886 
2.8510836e+2, 2.3318788e+2, -657278.1, -761852.7, -6595.527, -0.0016269193, -0.060698535, -656863.75, -2110.8828 
2.8511745e+2, 2.4317677e+2, -567616.44, -686855.0, -6180.211, -0.0028554646, -0.060207214, -567297.0, -10435.312 
2.8512672e+2, 2.531648e+2, -466726.25, -587597.9, -5482.7183, -0.0008075075, -0.060191624, -466478.06, -7499.049 
2.8513598e+2, 2.631521e+2, -376064.88, -509631.38, -4433.7524, -0.00017653429, -0.05907506, -375917.84, -14814.224 
2.8514534e+2, 2.7313867e+2, -274632.5, -409508.94, -4633.0874, -0.0024897514, -0.05907025, -274473.53, -11238.488 
2.8515488e+2, 2.831242e+2, -188621.7, -341721.72, -3574.2031, -0.0034264931, -0.059027683, -188538.31, -23161.424 
2.851646e+2, 2.9310855e+2, -87286.86, -242662.86, -3447.3533, -0.001475135, -0.061947852, -87210.41, -19680.006 
2.851745e+2, 3.0309653e+2, 17933.963, -82900.26, -1681.237, -0.00093150046, -0.061383348, 17961.986, 17961.986 
2.8518465e+2, 3.1308863e+2, 23875.398, -76993.1, -1614.1855, -0.0034460316, -0.057394292, 23901.225, 23901.225 
2.950062e+2, 1.2324789e+2, -1714377.4, -1740826.4, -1125.904, 0.0030128807, -0.056657217, -1714329.5, 17835.227 
2.9501656e+2, 1.332451e+2, -1615057.4, -1644275.9, -167.11086, -0.0033208088, -0.076609366, -1615056.4, 19135.887 
2.950269e+2, 1.4324224e+2, -1524640.0, -1567010.6, -2109.9883, 0.0031548026, -0.039518513, -1524535.3, 11685.224 
2.950367e+2, 1.532379e+2, -1422978.8, -1468498.8, -2721.1592, -0.00015971469, -0.058785684, -1422816.6, 15446.102 
2.950464e+2, 1.6323291e+2, -1331846.5, -1390254.0, -4116.373, -0.001868901, -0.06886388, -1331557.9, 8753.827 
2.9505593e+2, 1.7322741e+2, -1231751.9, -1290939.3, -4044.1575, 0.00041596257, -0.05899521, -1231476.8, 10888.683 
2.9506543e+2, 1.8322106e+2, -1142829.0, -1216040.8, -4551.6157, 0.0012450697, -0.053285163, -1142547.1, 1880.6533 
2.9507482e+2, 1.9321373e+2, -1040355.9, -1116062.4, -4963.2505, -0.0010262907, -0.06005807, -1040031.9, 6467.7817 
2.9508418e+2, 2.0320569e+2, -948841.56, -1037321.56, -5752.985, -0.0018899345, -0.06313179, -948469.06, 109.38516 
2.9509342e+2, 2.1319704e+2, -848582.06, -937816.2, -5394.103, 0.00013712714, -0.0609335, -848257.2, 2406.05 
2.9510266e+2, 2.2318754e+2, -760155.1, -863745.2, -5062.454, 0.000632703, -0.058543418, -759908.3, -7151.8975 
2.9511192e+2, 2.3317711e+2, -658432.5, -764224.8, -5598.648, -0.0019884391, -0.058993146, -658137.0, -3278.4312 
2.951213e+2, 2.4316595e+2, -566816.8, -685160.9, -5386.3037, -0.003123201, -0.05880185, -566572.1, -9604.271 
2.951307e+2, 2.5315416e+2, -465510.72, -585027.7, -4753.049, -0.0012003533, -0.059997775, -465322.0, -6238.401 
2.9514024e+2, 2.631415e+2, -376183.75, -509819.44, -3672.0137, -0.0004976732, -0.059839, -376082.9, -14875.642 
2.951498e+2, 2.7312806e+2, -275057.7, -410345.4, -3857.2556, -0.0023537439, -0.060195237, -274947.78, -11608.528 
2.9515955e+2, 2.8311357e+2, -188558.58, -341544.06, -2674.5625, -0.0028833807, -0.05921563, -188511.83, -23030.516 
2.9516953e+2, 2.9309797e+2, -87143.97, -242286.58, -2530.7622, -0.00063145463, -0.05871363, -87102.7, -19468.443 
2.951797e+2, 3.0308592e+2, 17886.762, -82880.66, -668.10864, -0.00042100513, -0.05845716, 17891.191, 17891.191 
2.951901e+2, 3.13078e+2, 23745.709, -77099.77, -574.9868, -0.0045538475, -0.062317833, 23748.986, 23748.986 
3.0500746e+2, 1.2323709e+2, -1712875.5, -1741667.8, -1585.8005, 0.0029169042, -0.05819628, -1712788.4, 19482.287 
3.0501804e+2, 1.3323437e+2, -1611641.8, -1642539.5, -1235.4427, -0.0033580216, -0.071655, -1611592.4, 22705.158 
3.0502853e+2, 1.432314e+2, -1521706.1, -1565814.3, -3487.287, 0.002277129, -0.04231105, -1521432.1, 14894.411 
3.050386e+2, 1.5322708e+2, -1422558.1, -1468603.5, -3652.171, 0.0005893823, -0.05981791, -1422270.3, 16098.632 
3.0504853e+2, 1.6322206e+2, -1332282.0, -1390913.8, -4950.5806, -0.00070918526, -0.06843548, -1331867.0, 8551.074 
3.0505827e+2, 1.7321654e+2, -1229675.5, -1290428.8, -5430.308, -0.00043620478, -0.058242228, -1229194.0, 13278.263 
3.0506796e+2, 1.8321015e+2, -1139898.0, -1214732.9, -6063.8745, -0.000177566, -0.05258431, -1139409.8, 5125.095 
3.0507758e+2, 1.932028e+2, -1040610.0, -1116239.8, -5613.882, -0.00015719599, -0.06000398, -1040195.56, 6411.265 
3.0508712e+2, 2.0319475e+2, -950707.06, -1038437.1, -6166.9463, -0.00030836358, -0.06332049, -950275.7, -1589.9884 
3.0509657e+2, 2.1318607e+2, -848544.2, -938064.94, -6839.0425, -0.0007523021, -0.06059962, -848024.7, 2746.0085 
3.05106e+2, 2.2317655e+2, -759032.4, -863097.4, -6738.1196, -0.0011409621, -0.057986334, -758597.9, -5733.941 
3.0511552e+2, 2.3316614e+2, -658680.0, -764179.75, -6016.7837, -0.0014272871, -0.05881824, -658337.94, -3371.931 
3.051251e+2, 2.43155e+2, -568252.1, -685808.7, -5469.2583, -0.001615885, -0.05883331, -567998.25, -10923.018 
3.0513468e+2, 2.531432e+2, -467414.2, -585951.25, -6101.803, -0.0016274832, -0.059841767, -467100.9, -7909.999 
3.0514437e+2, 2.6313058e+2, -377890.6, -510312.3, -5485.444, -0.0016742069, -0.059669435, -377663.75, -16349.278 
3.051542e+2, 2.7311713e+2, -275945.53, -410386.4, -5011.5713, -0.0018070885, -0.06038033, -275758.97, -12312.797 
3.051642e+2, 2.8310266e+2, -189467.58, -341963.0, -3552.6602, -0.0017875723, -0.059526574, -189384.86, -23796.834 
3.0517435e+2, 2.9308707e+2, -89089.97, -243313.47, -3671.1755, -0.0014435053, -0.05867267, -89002.625, -21261.62 
3.0518472e+2, 3.0307508e+2, 15441.958, -83334.24, -1688.4767, -0.001740661, -0.05814119, 15470.8125, 15470.8125 
3.051954e+2, 3.1306717e+2, 20386.076, -77824.21, -999.2179, -0.0034422535, -0.061885614, 20396.242, 20396.242 
3.150088e+2, 1.23226225e+2, -1714276.9, -1744550.3, -781.635, 0.0020444433, -0.05152151, -1714256.8, 18120.5 
3.1501964e+2, 1.3322331e+2, -1612282.4, -1643861.0, -340.64572, -0.0033261203, -0.07217248, -1612278.8, 22127.018 
3.1503034e+2, 1.4322019e+2, -1521618.8, -1565642.0, -2929.4863, 0.0018291957, -0.055796027, -1521424.6, 15011.699 
3.1504056e+2, 1.5321605e+2, -1422308.8, -1468113.9, -3164.8108, 0.0020648239, -0.056901447, -1422091.1, 16385.76 
3.1505066e+2, 1.6321109e+2, -1332912.6, -1392236.4, -3939.8787, 0.0010166154, -0.05855264, -1332652.1, 7873.45 
3.1506068e+2, 1.7320532e+2, -1230530.6, -1292187.0, -4295.7305, -0.0018016066, -0.060805034, -1230232.8, 12349.374 
3.1507057e+2, 1.8319884e+2, -1139392.0, -1213676.4, -5602.0415, -0.0025110329, -0.060587738, -1138971.9, 5673.768 
3.150803e+2, 1.9319168e+2, -1039796.6, -1114580.8, -5303.2544, 0.00083350786, -0.059123725, -1039422.4, 7293.3013 
3.1509003e+2, 2.031837e+2, -951482.7, -1040067.9, -5299.1963, 0.0016561426, -0.057538036, -951166.8, -2372.879 
3.1509966e+2, 2.1317483e+2, -849706.9, -940461.94, -5835.63, -0.0025904186, -0.05823561, -849333.2, 1547.6752 
3.1510937e+2, 2.2316526e+2, -758190.1, -861326.4, -6053.173, -0.004094178, -0.058314387, -757836.06, -4861.294 
3.151191e+2, 2.33155e+2, -657404.44, -761506.4, -5417.611, 0.0000011578186, -0.060105786, -657123.25, -2048.1184 
3.151288e+2, 2.4314392e+2, -568991.0, -687306.9, -4860.6997, 0.0015741225, -0.06023298, -568791.6, -11607.983 
3.1513855e+2, 2.53132e+2, -468606.34, -588413.7, -5476.298, -0.0020881728, -0.059724826, -468356.53, -9055.666 
3.1514844e+2, 2.6311928e+2, -377421.9, -509325.03, -4550.6206, -0.003669851, -0.058615547, -377265.1, -15840.012 
3.1515858e+2, 2.7310595e+2, -275159.72, -408659.6, -4021.6814, -0.0008881666, -0.05968105, -275038.7, -11483.035 
3.151688e+2, 2.8309155e+2, -189617.63, -342130.25, -2834.1255, -0.0001815895, -0.05994391, -189564.98, -23868.08 
3.151791e+2, 2.9307586e+2, -89443.24, -243939.17, -3009.4878, -0.0038030057, -0.06160531, -89384.64, -21534.117 
3.1518966e+2, 3.0306393e+2, 16233.936, -81598.24, -933.9539, -0.004781893, -0.060269777, 16242.851, 16242.851 
3.152006e+2, 3.1305626e+2, 21412.023, -75563.06, -247.42146, -0.00031738242, -0.05651837, 21412.654, 21412.654 
3.2501024e+2, 1.2321502e+2, -1711077.3, -1743887.1, -2068.2449, 0.0018272325, -0.05223553, -1710947.4, 21539.64 
3.2502127e+2, 1.3321216e+2, -1610518.3, -1643138.6, -965.21155, -0.002176006, -0.06731629, -1610489.8, 24025.379 
3.2503217e+2, 1.4320889e+2, -1520772.9, -1565848.3, -3332.6672, 0.0017363155, -0.06080315, -1520527.9, 16019.16 
3.2504258e+2, 1.5320475e+2, -1419611.0, -1467535.6, -4258.034, 0.0013212857, -0.056428757, -1419235.6, 19352.105 
3.250529e+2, 1.6319977e+2, -1329706.5, -1390889.4, -5298.2456, 0.00030764609, -0.055418454, -1329251.0, 11385.517 
3.2506308e+2, 1.7319396e+2, -1230555.3, -1292320.1, -4879.6084, -0.0011603099, -0.061135575, -1230172.1, 12521.355 
3.2507318e+2, 1.8318744e+2, -1140852.0, -1214679.8, -6025.264, -0.0015252763, -0.06247951, -1140363.5, 4393.8315 
3.250831e+2, 1.9318028e+2, -1038697.9, -1114402.0, -6759.9526, 0.00012233888, -0.0586384, -1038099.0, 8728.521 
3.2509297e+2, 2.0317228e+2, -949214.7, -1039086.6, -7060.134, 0.00039256868, -0.055959933, -948663.44, 242.45306 
3.2510284e+2, 2.1316339e+2, -849619.9, -940509.8, -6489.097, -0.0020734407, -0.058219712, -849158.94, 1834.0762 
3.251127e+2, 2.231538e+2, -759542.56, -861942.4, -6458.665, -0.002856116, -0.059084613, -759136.8, -6049.7744 
3.251226e+2, 2.3314357e+2, -658815.3, -762145.5, -7106.2686, -0.00026055213, -0.06000746, -658328.9, -3141.6118 
3.2513252e+2, 2.4313249e+2, -570009.9, -687773.0, -6858.756, 0.0006261052, -0.05968295, -569611.8, -12316.058 
3.2514244e+2, 2.5312054e+2, -468391.13, -588308.0, -6265.306, -0.0019986962, -0.059636734, -468064.7, -8651.701 
3.2515252e+2, 2.6310784e+2, -377268.38, -509104.7, -4949.8467, -0.0031030609, -0.058682304, -377082.78, -15545.632 
3.251628e+2, 2.7309453e+2, -277975.9, -409864.38, -5196.5103, -0.0010664536, -0.05922922, -277771.47, -14103.945 
3.2517323e+2, 2.8308016e+2, -193646.64, -343489.2, -4028.4917, -0.0007001338, -0.059276205, -193538.42, -27729.955 
3.2518378e+2, 2.9306453e+2, -91770.17, -244395.47, -3459.3877, -0.003776391, -0.061366994, -91691.805, -23730.262 
3.2519454e+2, 3.0305263e+2, 14647.041, -81942.0, -1391.6042, -0.0045224084, -0.060376804, 14667.087, 14667.087 
3.2520565e+2, 3.1304502e+2, 18952.299, -76412.016, -1639.5333, -0.0005270546, -0.056789763, 18980.479, 18980.479 
3.3501184e+2, 1.232035e+2, -1710812.6, -1743353.6, -1692.0558, 0.0022337262, -0.060495835, -1710724.9, 21875.172 
3.3502302e+2, 1.3320088e+2, -1610043.3, -1642180.0, -571.6602, 0.00007321072, -0.057164073, -1610033.1, 24592.605 
3.35034e+2, 1.4319754e+2, -1521623.6, -1567612.6, -2445.1646, 0.0019850302, -0.057416134, -1521494.0, 15164.357 
3.3504468e+2, 1.5319318e+2, -1420767.0, -1469918.4, -3253.4731, -0.0016101815, -0.05832357, -1420552.6, 18148.547 
3.3505517e+2, 1.6318811e+2, -1329343.8, -1390148.1, -4905.5386, -0.0028152536, -0.058912676, -1328950.5, 11800.374 
3.350655e+2, 1.7318243e+2, -1229856.4, -1290909.9, -4622.5195, 0.0014116504, -0.059317745, -1229508.4, 13297.938 
3.3507577e+2, 1.8317595e+2, -1141692.8, -1216446.9, -5155.0146, 0.002677275, -0.058417123, -1141338.9, 3531.0059 
3.3508587e+2, 1.9316858e+2, -1039916.75, -1116915.4, -5740.845, -0.0022279967, -0.05851426, -1039491.06, 7451.047 
3.3509597e+2, 2.0316051e+2, -948619.25, -1037836.56, -6537.3823, -0.004012786, -0.05843362, -948142.75, 878.6027 
3.3510602e+2, 2.1315175e+2, -848622.7, -938441.0, -6085.5947, 0.00067712547, -0.060467068, -848212.25, 2894.8286 
3.3511606e+2, 2.2314219e+2, -760310.2, -863530.75, -5899.5396, 0.0023886028, -0.060276918, -759974.1, -6773.4766 
3.35126e+2, 2.3313184e+2, -659993.6, -764588.8, -6498.9736, -0.0021200918, -0.058594562, -659591.3, -4289.0684 
3.3513612e+2, 2.4312072e+2, -569312.3, -686312.6, -5955.739, -0.0042711534, -0.05727246, -569009.94, -11598.689 
3.3514637e+2, 2.531089e+2, -467325.38, -586006.44, -5307.6445, -0.0014128088, -0.059567932, -467088.47, -7561.342 
3.3515665e+2, 2.6309627e+2, -377610.06, -509693.13, -4617.3413, -0.00012697965, -0.059803717, -377448.88, -15798.237 
3.3516696e+2, 2.730829e+2, -278596.3, -411125.13, -5001.772, -0.0022703325, -0.059009645, -278407.8, -14626.096 
3.3517748e+2, 2.8306854e+2, -192882.67, -341902.8, -3079.6711, -0.0032245351, -0.05759742, -192819.05, -26896.447 
3.351884e+2, 2.9305306e+2, -90780.6, -242205.81, -2354.282, -0.001554563, -0.058181155, -90744.01, -22669.977 
3.3519945e+2, 3.0304122e+2, 14246.553, -82570.93, -756.139, -0.0012047049, -0.058586884, 14252.458, 14252.458 
3.352106e+2, 3.1303346e+2, 18261.336, -77726.05, -1102.7157, -0.0038189802, -0.062233012, 18274.002, 18274.002 
3.4501356e+2, 1.2319192e+2, -1708239.3, -1742712.3, -1841.0205, 0.0022384871, -0.06403807, -1708141.3, 24572.201 
3.4502482e+2, 1.3318934e+2, -1607245.1, -1641857.0, -1863.0754, 0.0005123979, -0.049792837, -1607145.1, 27593.758 
3.4503597e+2, 1.4318584e+2, -1518764.4, -1566536.0, -3936.8438, 0.00081018696, -0.05924615, -1518442.1, 18331.063 
3.4504685e+2, 1.5318146e+2, -1419910.1, -1469668.4, -3636.0142, -0.0012518006, -0.05982262, -1419645.9, 19170.092 
3.4505755e+2, 1.6317637e+2, -1329391.8, -1390721.4, -5083.755, -0.0018235869, -0.059402987, -1328973.1, 11892.727 
3.4506804e+2, 1.7317066e+2, -1227796.3, -1290566.6, -5931.015, 0.0011137555, -0.058008604, -1227240.8, 15681.097 
3.4507844e+2, 1.8316413e+2, -1138829.1, -1215315.1, -6771.6187, 0.0018482812, -0.056665994, -1138234.3, 6751.5693 
3.4508872e+2, 1.9315672e+2, -1039732.1, -1117019.9, -6244.737, -0.001999444, -0.05897176, -1039230.8, 7827.501 
3.4509897e+2, 2.0314862e+2, -949885.0, -1038499.8, -6731.2827, -0.0032819845, -0.059838697, -949376.6, -238.86014 
3.4510916e+2, 2.1313988e+2, -848987.6, -938658.75, -7322.1777, 0.00068960356, -0.06022545, -848393.6, 2829.7236 
3.4511936e+2, 2.2313035e+2, -760050.56, -863613.2, -7410.562, 0.0019417694, -0.059224077, -759523.0, -6206.0693 
3.451295e+2, 2.3311993e+2, -659469.06, -764605.06, -6989.051, -0.002434685, -0.058497977, -659006.5, -3587.5745 
3.4513974e+2, 2.4310881e+2, -569263.6, -685962.1, -6128.153, -0.00431943, -0.057610273, -568942.7, -11414.759 
3.4515014e+2, 2.5309703e+2, -470333.88, -587021.4, -6338.319, -0.0009995124, -0.059195176, -469990.6, -10347.2295 
3.451606e+2, 2.6308447e+2, -381608.2, -511400.06, -5834.803, 0.00026139736, -0.059184995, -381346.4, -19579.893 
3.451711e+2, 2.730711e+2, -278844.3, -411091.7, -5500.4775, -0.0028809202, -0.059144612, -278615.9, -14718.379 
3.451818e+2, 2.8305674e+2, -191878.47, -341232.28, -3576.7397, -0.003984165, -0.058020763, -191792.86, -25754.555 
3.4519285e+2, 2.930413e+2, -93961.125, -243573.45, -3848.116, -0.0007000355, -0.05788998, -93862.22, -25672.686 
3.452041e+2, 3.0302948e+2, 9422.003, -84231.49, -2210.261, -0.000009725074, -0.057952844, 9474.138, 9474.138 
3.452155e+2, 3.1302175e+2, 16346.084, -77885.96, -1416.2245, -0.004986798, -0.06206182, 16367.364, 16367.364 
3.5501534e+2, 1.2318033e+2, -1709264.4, -1744826.1, -1291.3113, 0.0018219457, -0.06289559, -1709217.5, 23609.594 
3.5502675e+2, 1.3317752e+2, -1609018.3, -1645513.0, -1340.9707, -0.00084101723, -0.045147993, -1608969.0, 25885.654 
3.5503802e+2, 1.4317378e+2, -1518311.8, -1565624.8, -3473.8606, -0.0017984841, -0.06623077, -1518058.0, 18833.225 
3.550491e+2, 1.531696e+2, -1418966.4, -1467753.9, -3187.6775, 0.0023096828, -0.060953107, -1418759.0, 20173.229 
3.5505992e+2, 1.6316457e+2, -1330411.8, -1392845.4, -4321.8374, 0.0031877516, -0.056947432, -1330114.0, 10867.522 
3.550706e+2, 1.7315863e+2, -1229279.5, -1293629.6, -5084.3853, -0.0019645682, -0.057177633, -1228880.3, 14159.435 
3.5508114e+2, 1.8315199e+2, -1138324.9, -1214278.0, -6377.851, -0.0039008958, -0.057149265, -1137793.1, 7311.659 
3.550916e+2, 1.9314471e+2, -1038788.3, -1115087.0, -5958.2754, 0.0006836877, -0.059992746, -1038325.8, 8850.233 
3.55102e+2, 2.0313665e+2, -950513.44, -1039815.06, -6150.2944, 0.0023854612, -0.06021345, -950091.9, -836.8566 
3.5511228e+2, 2.131278e+2, -849995.1, -940745.3, -6662.867, -0.0019018104, -0.057600837, -849508.56, 1833.2258 
3.551226e+2, 2.2311822e+2, -759591.2, -862649.2, -6730.319, -0.003968251, -0.05600982, -759153.5, -5717.6763 
3.55133e+2, 2.3310786e+2, -658712.0, -762985.6, -6310.36, -0.0013146625, -0.0596417, -658331.5, -2794.3838 
3.5514343e+2, 2.4309678e+2, -569564.5, -686525.1, -5903.7476, 0.00021720538, -0.06055366, -569267.25, -11621.478 
3.551538e+2, 2.5308496e+2, -470850.38, -588098.94, -6216.5957, -0.0007390025, -0.058545012, -470521.7, -10760.091 
3.551644e+2, 2.630724e+2, -381081.5, -510315.97, -4819.689, -0.0017941991, -0.056924213, -380902.0, -19017.262 
3.551752e+2, 2.730591e+2, -278181.0, -409575.94, -4283.052, -0.0029582991, -0.059600417, -278041.53, -14026.573 
3.5518616e+2, 2.8304476e+2, -192487.06, -342293.72, -3361.8604, -0.0031112276, -0.060394924, -192411.66, -26256.11 
3.5519716e+2, 2.9302922e+2, -94795.27, -245239.7, -3863.4185, -0.0011134704, -0.060271356, -94696.13, -26388.236 
3.5520852e+2, 3.0301744e+2, 10446.746, -82066.29, -1130.61, -0.00079529214, -0.058393218, 10460.562, 10460.562 
3.5522032e+2, 3.1300995e+2, 17669.418, -74879.77, -94.95499, -0.0042398917, -0.056741126, 17669.516, 17669.516 
3.6501724e+2, 1.2316849e+2, -1705856.1, -1742825.4, -2360.6794, 0.0009971139, -0.06296113, -1705706.0, 27237.13 
3.650288e+2, 1.3316563e+2, -1607128.3, -1645880.4, -1452.7667, 0.000574125, -0.040927704, -1607073.8, 27897.445 
3.6504018e+2, 1.431617e+2, -1516349.6, -1565519.8, -3376.955, -0.0017995154, -0.071625285, -1516118.9, 20890.842 
3.650514e+2, 1.531575e+2, -1416595.6, -1467365.3, -4510.6396, 0.0019509346, -0.060795255, -1416198.0, 22852.771 
3.6506242e+2, 1.6315244e+2, -1328062.9, -1391978.3, -6060.0435, 0.0027642127, -0.053990632, -1327493.4, 13607.015 
3.650732e+2, 1.7314646e+2, -1228559.5, -1293467.8, -5429.173, -0.0018981014, -0.057584412, -1228108.5, 15050.504 
3.650839e+2, 1.8313979e+2, -1138487.4, -1214622.4, -6336.8823, -0.0035501716, -0.05905943, -1137963.5, 7260.8657 
3.6509448e+2, 1.931325e+2, -1038100.1, -1115060.8, -7076.824, 0.0008186229, -0.059429444, -1037454.8, 9840.974 
3.65105e+2, 2.0312443e+2, -949433.1, -1039585.06, -7645.611, 0.002250468, -0.05841413, -948789.3, 585.5706 
3.651154e+2, 2.1311554e+2, -849580.7, -940860.4, -7329.119, -0.0023645395, -0.05721006, -848995.94, 2466.068 
3.6512592e+2, 2.2310592e+2, -759833.0, -862528.25, -7125.642, -0.0042996085, -0.056369428, -759340.94, -5784.6797 
3.6513644e+2, 2.3309563e+2, -660557.6, -763538.94, -7293.719, -0.0006562892, -0.05928216, -660043.6, -4386.4497 
3.6514696e+2, 2.4308455e+2, -571888.7, -687834.6, -7114.8335, 0.0009918206, -0.059957653, -571453.75, -13688.082 
3.651575e+2, 2.5307268e+2, -470346.22, -588186.9, -7113.1987, -0.0016261172, -0.05876468, -469918.4, -10036.535 
3.651682e+2, 2.6306012e+2, -379762.56, -509245.7, -5636.0938, -0.0030435962, -0.057367533, -379517.72, -17512.686 
3.651792e+2, 2.730469e+2, -281788.06, -410729.34, -5480.417, -0.0018652636, -0.059002634, -281555.53, -17420.89 
3.651903e+2, 2.830326e+2, -198239.72, -344821.3, -4433.018, -0.0014535628, -0.059511077, -198105.78, -31830.986 
3.6520147e+2, 2.9301706e+2, -95988.02, -245669.47, -4046.8362, -0.0026731726, -0.0607296, -95878.695, -27451.555 
3.6521298e+2, 3.0300528e+2, 10932.88, -81084.56, -1127.8181, -0.0032161719, -0.05910535, 10946.7, 10946.7 
3.6522493e+2, 3.1299794e+2, 12372.135, -76563.46, -1041.2339, -0.00242469, -0.055378627, 12384.324, 12384.324 
3.7501922e+2, 1.23156436e+2, -1704386.0, -1739822.6, -1863.9955, -0.00026549032, -0.064197294, -1704288.3, 28773.234 
3.7503096e+2, 1.3315366e+2, -1606989.6, -1645615.9, -1064.3326, 0.0047087544, -0.037134778, -1606960.3, 28128.3 
3.7504247e+2, 1.4314958e+2, -1517838.6, -1568598.9, -2864.7224, 0.0007626071, -0.07545249, -1517677.5, 19450.943 
3.7505373e+2, 1.5314518e+2, -1418455.8, -1471213.3, -3957.5374, -0.0022385665, -0.059370108, -1418160.5, 21011.215 
3.7506488e+2, 1.6314001e+2, -1327393.1, -1390624.8, -5630.4556, -0.0030087496, -0.05053179, -1326895.6, 14326.68 
3.7507588e+2, 1.7313413e+2, -1227335.8, -1290969.6, -5032.211, 0.0011803899, -0.0591826, -1226940.3, 16339.465 
3.7508672e+2, 1.8312752e+2, -1139285.6, -1216284.9, -5842.2256, 0.0026964378, -0.06235248, -1138844.9, 6499.7837 
3.7509736e+2, 1.931201e+2, -1039375.06, -1117705.9, -6545.3657, -0.0014792181, -0.057346072, -1038831.9, 8585.437 
3.7510797e+2, 2.0311195e+2, -949186.44, -1039084.6, -7150.332, -0.0034939293, -0.05450678, -948621.25, 875.91986 
3.751186e+2, 2.1310309e+2, -849015.06, -939676.94, -6845.267, -0.00083032256, -0.058936693, -848501.1, 3082.9226 
3.7512925e+2, 2.230935e+2, -759995.2, -862840.4, -6842.1157, 0.00067373563, -0.060136642, -759542.0, -5863.943 
3.751398e+2, 2.330832e+2, -660883.75, -764220.3, -7055.1094, -0.00042054584, -0.057514545, -660404.3, -4625.41 
3.751504e+2, 2.4307212e+2, -571870.75, -687794.75, -6328.982, -0.0018015137, -0.05600675, -571526.25, -13638.781 
3.7516123e+2, 2.5306022e+2, -470323.34, -588042.0, -6194.1045, -0.0036095125, -0.059786815, -469998.3, -9994.275 
3.7517208e+2, 2.6304764e+2, -379806.1, -509203.28, -5560.1504, -0.0035511374, -0.06034798, -379567.6, -17440.32 
3.7518308e+2, 2.7303448e+2, -281791.88, -410705.88, -5612.4043, 0.0003075784, -0.057431232, -281547.97, -17291.498 
3.7519428e+2, 2.8302023e+2, -197502.11, -343273.7, -3451.2524, 0.0009239242, -0.055597592, -197420.45, -31024.465 
3.7520573e+2, 2.9300478e+2, -95201.96, -243841.56, -2804.6167, -0.0052966736, -0.05939697, -95149.06, -26601.781 
3.7521738e+2, 3.0299306e+2, 10711.86, -81283.234, -1110.1677, -0.0071630655, -0.06005073, 10725.255, 10725.255 
3.7522933e+2, 3.1298566e+2, 12014.303, -77237.38, -1321.8579, 0.00033039146, -0.057617128, 12033.876, 12033.876 
3.850214e+2, 1.231443e+2, -1700307.0, -1737113.1, -1752.8909, -0.00026806013, -0.06657797, -1700223.8, 32956.563 
3.850332e+2, 1.3314144e+2, -1605382.1, -1646804.8, -2523.3955, 0.005628415, -0.03253008, -1605228.9, 29979.309 
3.850448e+2, 1.4313719e+2, -1515900.6, -1568253.9, -4505.3984, -0.00029609055, -0.07580336, -1515515.8, 21734.129 
3.8505623e+2, 1.5313275e+2, -1416402.3, -1470510.4, -3855.5276, -0.0022556263, -0.05972069, -1416128.9, 23164.486 
3.8506746e+2, 1.6312756e+2, -1325671.1, -1390305.4, -5074.0522, -0.0024200883, -0.050554033, -1325275.3, 16069.046 
3.8507858e+2, 1.7312166e+2, -1226117.9, -1290972.9, -6095.4697, 0.0013056378, -0.05846027, -1225549.9, 17852.203 
3.8508955e+2, 1.8311498e+2, -1138266.3, -1216137.0, -7496.192, 0.0024519467, -0.061374202, -1137551.3, 7916.2607 
3.851003e+2, 1.9310755e+2, -1038466.5, -1117579.4, -7095.5605, -0.0018182416, -0.057131257, -1037835.1, 9705.325 
3.8511106e+2, 2.0309937e+2, -948557.56, -1038783.9, -7296.131, -0.003627975, -0.054812204, -947971.4, 1649.1411 
3.851218e+2, 2.130905e+2, -849545.3, -939893.1, -7561.6724, -0.00024557472, -0.05918937, -848916.8, 2790.5415 
3.8513252e+2, 2.230809e+2, -761050.9, -863639.25, -7809.5005, 0.0012807018, -0.06024127, -760459.8, -6658.3813 
3.8514316e+2, 2.3307058e+2, -660541.3, -764444.75, -7926.339, -0.0011911918, -0.057336066, -659940.1, -4037.545 
3.8515392e+2, 2.4305952e+2, -571174.7, -687054.94, -7063.907, -0.0028491677, -0.05556924, -570745.7, -12734.472 
3.8516483e+2, 2.5304765e+2, -473000.7, -588771.2, -6661.74, -0.0026670706, -0.05911898, -472618.6, -12491.36 
3.8517585e+2, 2.6303512e+2, -383990.3, -511215.75, -5907.7856, -0.0021317243, -0.05979726, -383716.56, -21466.36 
3.8518688e+2, 2.730219e+2, -282367.1, -411132.44, -6076.6455, -0.0010138274, -0.057720337, -282080.97, -17701.363 
3.8519818e+2, 2.8300768e+2, -196685.5, -342231.13, -4013.8481, -0.0011285832, -0.05588593, -196574.89, -30055.941 
3.852098e+2, 2.9299235e+2, -99401.8, -245050.47, -3741.1208, -0.0037366939, -0.057898376, -99305.766, -30636.4 
3.8522166e+2, 3.029807e+2, 4547.4106, -83762.21, -2141.188, -0.0046410393, -0.058477417, 4599.296, 4599.296 
3.8523367e+2, 3.1297326e+2, 11274.868, -77210.36, -1823.5614, -0.0019964136, -0.059641194, 11312.434, 11312.434 
3.9502364e+2, 1.23132125e+2, -1700819.6, -1738183.0, -1355.4359, 0.00096137426, -0.06999047, -1700770.5, 32529.143 
3.950355e+2, 1.3312902e+2, -1607991.6, -1652192.5, -2328.024, 0.0033784874, -0.027146045, -1607869.4, 27460.768 
3.9504716e+2, 1.4312455e+2, -1515175.0, -1566792.0, -4035.8428, -0.004956216, -0.0727206, -1514861.3, 22512.469 
3.950588e+2, 1.5312026e+2, -1414926.9, -1467502.8, -3326.667, 0.001766156, -0.06178829, -1414717.3, 24698.506 
3.9507023e+2, 1.6311511e+2, -1326931.5, -1392923.0, -4757.697, 0.004363988, -0.05397984, -1326590.3, 14875.954 
3.950813e+2, 1.7310901e+2, -1228015.6, -1294915.1, -5809.785, -0.0014112338, -0.055507034, -1227514.8, 16011.369 
3.950923e+2, 1.8310222e+2, -1137908.8, -1215431.3, -7032.486, -0.004104834, -0.056250066, -1137276.0, 8316.776 
3.951033e+2, 1.9309482e+2, -1037621.94, -1115839.9, -6594.918, -0.00031601256, -0.05868551, -1037069.75, 10595.395 
3.9511418e+2, 2.0308669e+2, -948795.75, -1039263.4, -7070.5396, 0.0016003095, -0.059160255, -948246.5, 1498.3794 
3.951249e+2, 2.130778e+2, -850033.6, -940916.06, -7394.8613, -0.0005491751, -0.058056634, -849435.8, 2396.051 
3.9513567e+2, 2.2306818e+2, -761258.4, -864081.75, -7260.968, -0.0022784194, -0.05685363, -760748.1, -6821.8647 
3.9514655e+2, 2.3305778e+2, -660740.06, -764806.06, -7280.2026, -0.0029329865, -0.058640577, -660233.2, -4205.0874 
3.9515743e+2, 2.4304669e+2, -570750.8, -686098.9, -6949.4517, -0.0022735635, -0.058447674, -570333.6, -12196.901 
3.951684e+2, 2.5303498e+2, -472405.2, -587511.2, -6688.514, 0.0010061925, -0.05688558, -472017.84, -11766.36 
3.9517945e+2, 2.6302248e+2, -384026.66, -511268.06, -5213.266, 0.0010920251, -0.055938188, -383813.4, -21439.637 
3.951907e+2, 2.730092e+2, -282641.5, -411576.1, -5196.686, -0.0055730282, -0.05971603, -282432.38, -17928.41 
3.952021e+2, 2.8299496e+2, -196700.95, -342091.6, -3950.7048, -0.007317259, -0.06006611, -196593.67, -29950.05 
3.9521378e+2, 2.9297972e+2, -99307.91, -244766.13, -3890.0203, 0.0016334059, -0.05625858, -99203.945, -30410.627 
3.9522573e+2, 3.029681e+2, 5134.0195, -82455.695, -1182.1102, 0.0038262242, -0.054586112, 5149.97, 5149.97 
3.9523792e+2, 3.1296074e+2, 11854.082, -75739.77, -592.3775, -0.008944681, -0.06145136, 11858.088, 11858.088 
4.0502602e+2, 1.2311982e+2, -1696877.0, -1735336.1, -2038.8344, 0.00046271327, -0.068827994, -1696769.3, 36650.957 
4.0503797e+2, 1.3311653e+2, -1606046.9, -1653605.1, -2104.052, 0.0044518295, -0.026633412, -1605954.0, 29498.572 
4.0504965e+2, 1.4311191e+2, -1512493.0, -1566265.9, -3464.7935, -0.005509369, -0.07411584, -1512270.6, 25227.21 
4.0506142e+2, 1.5310758e+2, -1412987.5, -1466990.6, -4462.5225, 0.0017174718, -0.061743945, -1412621.3, 26918.814 
4.0507296e+2, 1.631024e+2, -1325517.9, -1392745.9, -6609.21, 0.0046043135, -0.053029247, -1324874.3, 16716.617 
4.0508413e+2, 1.7309624e+2, -1226092.8, -1294532.6, -6110.1226, -0.0013633587, -0.05493571, -1225551.6, 18099.723 
4.0509525e+2, 1.830894e+2, -1136023.1, -1214752.8, -6665.7715, -0.00408623, -0.056108568, -1135462.8, 10255.475 
4.051063e+2, 1.9308199e+2, -1037554.6, -1115998.8, -7193.7104, -0.00005381255, -0.058967058, -1036900.4, 10890.508 
4.0511724e+2, 2.0307383e+2, -949619.75, -1040015.1, -8164.146, 0.0017908891, -0.059307437, -948888.3, 982.5005 
4.051281e+2, 2.1306492e+2, -849479.8, -941064.3, -8248.134, -0.0010509244, -0.05699064, -848742.9, 3215.1885 
4.0513894e+2, 2.2305529e+2, -760171.9, -863332.4, -7897.5815, -0.0028537055, -0.05544576, -759570.8, -5518.207 
4.0514988e+2, 2.3304491e+2, -662166.44, -765148.25, -7544.0156, -0.0023359326, -0.058683436, -661616.7, -5462.4424 
4.0516084e+2, 2.4303383e+2, -573520.0, -687524.1, -7188.7915, -0.0014129183, -0.059186973, -573068.5, -14805.698 
4.0517187e+2, 2.5302213e+2, -473100.25, -588064.8, -7669.7275, 0.00020449178, -0.05669546, -472590.84, -12213.213 
4.0518302e+2, 2.6300964e+2, -383772.1, -510617.75, -6381.9424, -0.00014881518, -0.055126827, -383451.8, -20952.025 
4.0519437e+2, 2.7299643e+2, -285397.7, -412223.25, -5733.065, -0.0046089576, -0.058993656, -285139.06, -20509.668 
4.052059e+2, 2.829822e+2, -201129.83, -344168.28, -4290.82, -0.005736016, -0.05986317, -201001.23, -34232.543 
4.0521762e+2, 2.9296693e+2, -101182.555, -245791.03, -4487.6597, 0.0003192928, -0.057439588, -101043.42, -32124.803 
4.052297e+2, 3.0295536e+2, 4330.959, -81999.78, -1654.1937, 0.0016839651, -0.055466257, 4362.6436, 4362.6436 
4.0524206e+2, 3.129481e+2, 6881.118, -77075.44, -1079.1835, -0.0072713466, -0.0584286, 6894.988, 6894.988 
4.150285e+2, 1.23107426e+2, -1695169.4, -1731850.3, -1533.1228, -0.0017843657, -0.062906116, -1695105.4, 38436.426 
4.1504055e+2, 1.33104e+2, -1606429.8, -1654424.5, -1896.0737, 0.008767235, -0.030915845, -1606354.9, 29220.326 
4.1505232e+2, 1.4309923e+2, -1514136.5, -1569681.9, -3204.3599, -0.0020318492, -0.07992457, -1513952.3, 23669.732 
4.150641e+2, 1.5309472e+2, -1414931.0, -1471027.1, -4175.491, -0.002292116, -0.059662122, -1414622.0, 25044.26 
4.150757e+2, 1.6308942e+2, -1324911.5, -1391528.8, -6204.162, -0.0015618493, -0.04781069, -1324338.6, 17379.398 
4.1508707e+2, 1.7308336e+2, -1224918.6, -1292128.8, -5681.0723, 0.0013105766, -0.056646656, -1224441.8, 19335.75 
4.150983e+2, 1.8307658e+2, -1136630.6, -1216012.5, -6586.163, 0.0022607825, -0.060786944, -1136087.9, 9756.244 
4.1510928e+2, 1.9306906e+2, -1038577.94, -1118146.5, -7184.5723, -0.00096194196, -0.0580522, -1037934.4, 9983.242 
4.1512027e+2, 2.0306084e+2, -949815.7, -1040457.94, -7709.553, -0.0028597265, -0.05543178, -949164.6, 833.6522 
4.151313e+2, 2.130519e+2, -849534.0, -941156.2, -7682.281, -0.0017678704, -0.05597207, -848894.3, 3191.6108 
4.1514227e+2, 2.2304226e+2, -759726.75, -862361.44, -7831.571, -0.0006218307, -0.055917643, -759132.56, -4952.282 
4.151532e+2, 2.3303199e+2, -661588.06, -763940.44, -7608.8384, 0.00046178928, -0.057550237, -661025.5, -4744.511 
4.1516417e+2, 2.4302092e+2, -574066.3, -688650.94, -6748.976, -0.0002809208, -0.05790637, -573670.1, -15280.851 
4.151753e+2, 2.5300905e+2, -473979.1, -589820.0, -7088.625, -0.0047712545, -0.058399837, -473546.94, -13041.382 
4.1518655e+2, 2.6299655e+2, -383183.7, -509290.66, -6223.9927, -0.0055835764, -0.057162993, -382877.25, -20249.13 
4.1519803e+2, 2.7298352e+2, -284451.88, -410158.47, -5701.076, 0.0014266208, -0.055773042, -284193.88, -19438.012 
4.1520962e+2, 2.8296942e+2, -201205.83, -344213.97, -3819.1484, 0.0030347768, -0.055596605, -201103.9, -34209.715 
4.1522133e+2, 2.9295397e+2, -101555.74, -246421.16, -3893.104, -0.007094788, -0.061177246, -101451.19, -32405.951 
4.1523346e+2, 3.0294245e+2, 4644.467, -81172.11, -1473.1865, -0.010218914, -0.060720857, 4669.749, 4669.749 
4.1524607e+2, 3.1293538e+2, 7337.7944, -75911.5, -1010.7757, 0.0021462347, -0.0510467, 7350.065, 7350.065 
4.2503107e+2, 1.23094894e+2, -1691743.8, -1729034.4, -1451.4141, -0.0022708513, -0.06259083, -1691687.4, 41977.31 
4.2504326e+2, 1.330913e+2, -1604277.3, -1655385.3, -3066.7642, 0.00998344, -0.032653693, -1604093.9, 31605.975 
4.250551e+2, 1.4308642e+2, -1511090.4, -1569243.8, -4589.958, -0.0021631655, -0.077129595, -1510730.4, 27017.154 
4.250669e+2, 1.5308182e+2, -1412360.5, -1470608.1, -4135.1953, -0.0024835172, -0.058894947, -1412068.4, 27724.328 
4.2507854e+2, 1.6307646e+2, -1322903.3, -1390861.5, -5578.4326, -0.0016926384, -0.04842357, -1322448.4, 19396.82 
4.2509e+2, 1.7307037e+2, -1224284.8, -1292034.8, -6336.583, 0.0013599767, -0.056926806, -1223697.1, 20207.658 
4.2510128e+2, 1.8306355e+2, -1136601.6, -1216486.8, -7926.7974, 0.002361629, -0.06048295, -1135822.8, 10148.926 
4.2511234e+2, 1.9305602e+2, -1036990.94, -1117956.6, -7866.558, -0.0010384279, -0.05680015, -1036233.7, 11811.886 
4.251234e+2, 2.0304774e+2, -947671.56, -1039423.75, -7940.2603, -0.0029269087, -0.054178942, -946989.44, 3137.11 
4.2513445e+2, 2.130388e+2, -850125.3, -941339.4, -7805.9556, -0.0014926482, -0.056645233, -849462.1, 2752.1042 
4.2514548e+2, 2.2302917e+2, -761848.4, -863571.3, -8116.8486, -0.00032624917, -0.05715849, -761204.75, -6896.087 
4.2515647e+2, 2.3301888e+2, -662000.2, -764420.4, -8651.34, 0.00010826608, -0.056472275, -661274.56, -4865.1357 
4.251675e+2, 2.4300782e+2, -573556.9, -688146.4, -7895.3174, -0.00081477617, -0.055874582, -573015.44, -14497.729 
4.251787e+2, 2.52996e+2, -475425.6, -590156.3, -7174.4746, -0.004485626, -0.058396176, -474978.7, -14344.859 
4.2519003e+2, 2.629835e+2, -386010.2, -510468.88, -6028.9985, -0.0050358735, -0.058160525, -385718.8, -22962.635 
4.252015e+2, 2.729705e+2, -286911.9, -411231.13, -6456.5244, 0.0009808519, -0.05546394, -286577.5, -21693.795 
4.2521316e+2, 2.829564e+2, -203244.9, -344566.22, -4662.0107, 0.0022244253, -0.05426329, -203091.28, -36069.6 
4.2522505e+2, 2.9294106e+2, -104157.07, -246940.25, -3946.8105, -0.006807415, -0.05953382, -104048.055, -34876.008 
4.2523724e+2, 3.0292958e+2, 1400.7734, -82019.664, -1487.9258, -0.009602696, -0.05976339, 1427.3043, 1427.3043 
4.2524984e+2, 3.1292254e+2, 3426.4663, -77114.57, -1290.1832, 0.0012686097, -0.052882917, 3447.1284, 3447.1284 
4.3503374e+2, 1.2308223e+2, -1691942.8, -1729476.6, -704.92725, -0.0010118989, -0.06767408, -1691929.6, 41859.15 
4.3504602e+2, 1.3307841e+2, -1606404.4, -1659787.9, -2663.2195, 0.008155442, -0.03194128, -1606271.9, 29554.242 
4.350579e+2, 1.4307348e+2, -1510767.5, -1568608.6, -4417.2993, -0.0058670826, -0.06589584, -1510432.0, 27442.346 
4.3506986e+2, 1.5306889e+2, -1411467.8, -1468807.4, -4017.0981, 0.0009987128, -0.059372507, -1411187.8, 28731.79 
4.3508154e+2, 1.630635e+2, -1323824.1, -1392797.0, -5518.5938, 0.0040298505, -0.054716423, -1323385.4, 18586.895 
4.3509293e+2, 1.7305729e+2, -1225644.6, -1294887.0, -6276.593, -0.0011064907, -0.05585431, -1225080.3, 18952.957 
4.3510425e+2, 1.8305038e+2, -1136602.8, -1216530.5, -7551.6875, -0.0035827577, -0.05538534, -1135895.5, 10205.254 
4.351155e+2, 1.9304283e+2, -1036713.6, -1117380.0, -7412.685, -0.0003585548, -0.05521105, -1036038.1, 12136.583 
4.351266e+2, 2.030346e+2, -947486.5, -1039014.1, -8009.234, 0.0013567454, -0.055426486, -946790.94, 3464.658 
4.351376e+2, 2.1302564e+2, -849949.2, -940989.3, -8004.482, -0.00027210353, -0.05892888, -849250.8, 3092.3105 
4.3514863e+2, 2.23016e+2, -762503.2, -864950.94, -7813.322, -0.0018699013, -0.059125725, -761910.75, -7473.0366 
4.351597e+2, 2.3300561e+2, -662911.7, -766278.3, -8206.622, -0.003211843, -0.055449404, -662264.2, -5724.7393 
4.3517083e+2, 2.4299455e+2, -572784.4, -686477.06, -7773.751, -0.002940179, -0.053138856, -572255.3, -13607.446 
4.351821e+2, 2.5298285e+2, -474255.06, -587647.7, -7154.6875, 0.00067078054, -0.05680339, -473805.4, -13042.98 
4.3519345e+2, 2.6297045e+2, -386438.13, -511268.13, -5907.141, 0.001087983, -0.058182374, -386159.2, -23275.12 
4.3520486e+2, 2.729573e+2, -287745.16, -412896.38, -6290.24, -0.0054187407, -0.057827666, -287429.8, -22416.89 
4.3521655e+2, 2.8294322e+2, -202538.28, -343010.63, -4278.3687, -0.007457308, -0.05564415, -202408.1, -35257.04 
4.352287e+2, 2.929281e+2, -103160.36, -244635.69, -3529.9248, 0.00045253642, -0.05299506, -103072.336, -33773.215 
4.3524098e+2, 3.029167e+2, 1697.3171, -81120.58, -1502.2296, 0.002458122, -0.05310507, 1724.557, 1724.557 
4.3525335e+2, 3.129096e+2, 3646.9993, -76564.6, -1415.9745, -0.00889161, -0.063014425, 3671.9875, 3671.9875 
4.450366e+2, 1.2306951e+2, -1686843.6, -1726776.5, -1069.4543, -0.00087038527, -0.06493983, -1686815.0, 47098.445 
4.4504893e+2, 1.3306545e+2, -1604559.4, -1660971.9, -2640.3796, 0.008424003, -0.03709446, -1604436.0, 31517.164 
4.4506085e+2, 1.4306049e+2, -1509039.3, -1568221.1, -4154.5547, -0.0068423077, -0.06256901, -1508749.0, 29252.914 
4.4507286e+2, 1.5305585e+2, -1409332.3, -1467852.6, -4678.9434, 0.0013204913, -0.05812494, -1408960.5, 31086.863 
4.450846e+2, 1.6305041e+2, -1321820.0, -1392578.1, -6586.9976, 0.004929953, -0.054808863, -1321212.0, 20888.518 
4.4509602e+2, 1.7304413e+2, -1223286.3, -1294685.1, -6567.289, -0.0011722214, -0.05525267, -1222687.3, 21474.877 
4.4510734e+2, 1.8303718e+2, -1134273.6, -1215530.1, -7409.9063, -0.004120137, -0.054660317, -1133603.4, 12626.906 
4.451186e+2, 1.9302961e+2, -1036914.44, -1117441.0, -7520.865, -0.00034553473, -0.055618566, -1036218.0, 12086.264 
4.4512975e+2, 2.0302136e+2, -949055.7, -1040087.3, -8445.471, 0.0016400215, -0.055958986, -948278.75, 2106.457 
4.4514078e+2, 2.1301241e+2, -849590.56, -941242.25, -8884.617, -0.0003361423, -0.05744924, -848737.25, 3735.69 
4.4515184e+2, 2.2300273e+2, -761091.1, -864204.0, -8624.293, -0.0021011606, -0.05707246, -760374.8, -5807.094 
4.4516292e+2, 2.3299234e+2, -663454.1, -766386.94, -8028.7407, -0.0032367976, -0.055939265, -662831.6, -6162.0967 
4.451741e+2, 2.429813e+2, -574812.6, -687309.1, -7408.0083, -0.002781808, -0.054593302, -574326.94, -15549.029 
4.4518536e+2, 2.5296962e+2, -476541.16, -588635.75, -7944.704, 0.00091599167, -0.0557051, -475980.88, -15088.764 
4.4519675e+2, 2.6295725e+2, -388401.47, -511873.16, -6919.819, 0.001148437, -0.055998042, -388014.88, -25001.393 
4.4520822e+2, 2.7294412e+2, -288701.28, -412985.28, -6254.9517, -0.0060698777, -0.057865504, -288387.28, -23245.09 
4.4521996e+2, 2.8293005e+2, -203958.34, -343293.94, -4137.015, -0.008101006, -0.056892112, -203835.63, -36555.547 
4.452321e+2, 2.92915e+2, -108245.805, -246710.42, -4346.018, 0.0012977008, -0.05311265, -108109.53, -38681.82 
4.452444e+2, 3.0290365e+2, -4077.649, -83137.38, -2294.5483, 0.003616065, -0.05231804, -4011.1104, -4011.1104 
4.452569e+2, 3.128966e+2, 2970.9192, -76052.02, -1843.6545, -0.009941561, -0.06189723, 3013.9094, 3013.9094 
4.5503962e+2, 1.2305674e+2, -1686345.5, -1725782.9, -668.98596, -0.0018504993, -0.05427629, -1686334.1, 47704.53 
4.5505196e+2, 1.3305241e+2, -1605056.1, -1662039.8, -2708.5515, 0.010722726, -0.047978837, -1604927.8, 31153.31 
4.5506388e+2, 1.430474e+2, -1509867.0, -1569977.4, -4029.2979, -0.0051563745, -0.066991165, -1509598.1, 28531.818 
4.550759e+2, 1.530427e+2, -1410251.6, -1469795.1, -4499.211, -0.0014255, -0.055235434, -1409913.6, 30262.436 
4.550877e+2, 1.6303723e+2, -1321833.4, -1392645.1, -6406.4365, 0.0011219613, -0.048892222, -1321258.4, 20971.387 
4.550992e+2, 1.7303091e+2, -1223113.4, -1294346.5, -6380.4883, 0.001030676, -0.055080943, -1222546.4, 21745.34 
4.5511058e+2, 1.8302393e+2, -1134401.4, -1215803.1, -7578.7114, 0.00051182206, -0.058135085, -1133701.9, 12658.228 
4.551217e+2, 1.9301635e+2, -1037107.6, -1117884.6, -7773.674, -0.00095789373, -0.057942882, -1036366.3, 12067.965 
4.5513284e+2, 2.0300807e+2, -949600.94, -1041264.4, -8213.389, -0.0019079464, -0.05582138, -948870.8, 1644.6833 
4.5514396e+2, 2.1299908e+2, -850278.7, -942656.3, -8518.91, -0.0016383602, -0.05242196, -849499.6, 3104.0835 
4.5515507e+2, 2.229894e+2, -760421.25, -862769.44, -8633.9795, -0.0011251479, -0.051212076, -759698.0, -4999.381 
4.5516616e+2, 2.3297906e+2, -662458.56, -764277.5, -8146.6743, -0.00018584623, -0.05783151, -661810.9, -5011.172 
4.5517734e+2, 2.4296804e+2, -575413.94, -688508.94, -7462.473, -0.0004852894, -0.059964746, -574923.6, -16015.838 
4.551885e+2, 2.529563e+2, -477549.44, -590701.7, -7963.5605, -0.0033894163, -0.055078745, -476991.72, -15968.865 
4.551999e+2, 2.6294392e+2, -387678.63, -510324.66, -6566.891, -0.0044470346, -0.051771436, -387328.0, -24183.682 
4.5521158e+2, 2.7293092e+2, -287639.4, -410591.88, -5826.731, -0.0014777962, -0.055760372, -287363.88, -22092.295 
4.5522338e+2, 2.829169e+2, -204311.03, -343793.97, -4507.3965, -0.00043052746, -0.057996906, -204165.53, -36756.66 
4.5523527e+2, 2.929017e+2, -108851.78, -247940.16, -4910.6284, -0.0036752645, -0.059277408, -108678.625, -39120.855 
4.5524755e+2, 3.028904e+2, -3603.9595, -82139.445, -1379.4188, -0.0052027474, -0.056903753, -3579.7383, -3579.7383 
4.5526052e+2, 3.1288362e+2, 3437.879, -74631.83, -542.8574, -0.002863014, -0.050669484, 3441.6533, 3441.6533 
4.650427e+2, 1.2304384e+2, -1683596.9, -1724593.4, -439.27078, -0.0024891512, -0.05148206, -1683592.1, 50572.863 
4.650551e+2, 1.3303936e+2, -1601740.8, -1661280.8, -3031.3267, 0.011617276, -0.054188058, -1601586.9, 34622.117 
4.6506706e+2, 1.430344e+2, -1506295.9, -1569320.0, -4305.021, -0.0044499133, -0.061530948, -1506003.1, 32254.436 
4.6507907e+2, 1.5302955e+2, -1407589.4, -1469656.1, -4559.3496, -0.0019756025, -0.05435296, -1407256.1, 33048.926 
4.6509084e+2, 1.6302398e+2, -1319700.5, -1391836.4, -6456.5576, 0.00016754735, -0.050759282, -1319127.1, 23232.623 
4.6510237e+2, 1.7301765e+2, -1222440.4, -1294049.9, -6625.9814, 0.0014583886, -0.05493849, -1221832.5, 22589.078 
4.6511373e+2, 1.8301068e+2, -1134506.3, -1216367.1, -7997.426, 0.0015354842, -0.056714408, -1133732.3, 12757.785 
4.651249e+2, 1.9300304e+2, -1035478.25, -1117756.3, -8389.393, -0.0010520555, -0.057075158, -1034631.56, 13933.24 
4.6513602e+2, 2.029947e+2, -947182.56, -1040203.7, -8750.075, -0.002555173, -0.05560611, -946366.6, 4279.834 
4.6514717e+2, 2.1298571e+2, -850341.4, -942693.25, -8383.54, -0.001621242, -0.052952055, -849586.5, 3148.315 
4.6515825e+2, 2.2297603e+2, -762166.0, -863567.75, -8424.858, -0.0006871174, -0.0517327, -761470.8, -6641.1685 
4.6516934e+2, 2.3296571e+2, -664035.94, -765012.06, -8946.611, 0.00007845704, -0.0567202, -663249.4, -6318.8193 
4.651805e+2, 2.429547e+2, -576505.3, -688957.6, -8484.195, -0.000596255, -0.058358237, -575868.8, -16830.28 
4.651917e+2, 2.5294295e+2, -477739.34, -590731.5, -7951.036, -0.0042628134, -0.05551231, -477182.6, -16028.85 
4.652031e+2, 2.6293057e+2, -388263.84, -510183.2, -6295.742, -0.0051554427, -0.052911922, -387939.63, -24664.523 
4.6521476e+2, 2.7291763e+2, -292070.78, -412246.38, -6448.6797, -0.00008576531, -0.05458638, -291725.72, -26324.002 
4.6522656e+2, 2.829037e+2, -209718.23, -346030.2, -5202.88, 0.0012256426, -0.055871177, -209519.94, -41981.418 
4.6523842e+2, 2.928885e+2, -108671.336, -247536.58, -4786.415, -0.0057410067, -0.059316713, -108506.555, -38819.22 
4.6525076e+2, 3.028772e+2, -2349.1665, -80805.5, -1096.7935, -0.0081723435, -0.057772532, -2333.8367, -2333.8367 
4.6526372e+2, 3.128705e+2, -5182.1216, -77977.586, -573.24536, -0.0004784034, -0.049348276, -5177.6074, -5177.6074 
4.7504592e+2, 1.2303084e+2, -1684239.5, -1725960.8, 225.49124, -0.0027906212, -0.05648025, -1684238.3, 50054.254 
4.7505838e+2, 1.3302629e+2, -1602274.3, -1662429.9, -2834.3826, 0.011125647, -0.05587323, -1602141.0, 34196.023 
4.750704e+2, 1.4302142e+2, -1506787.4, -1570379.9, -4313.85, -0.0047293915, -0.046412043, -1506496.1, 31888.625 
4.7508237e+2, 1.5301634e+2, -1408092.3, -1470731.8, -4608.863, -0.00042650857, -0.055369888, -1407755.0, 32679.588 
4.7509414e+2, 1.6301063e+2, -1319923.5, -1392334.3, -6651.375, 0.0019536193, -0.060155377, -1319317.5, 23173.016 
4.7510558e+2, 1.7300437e+2, -1222593.9, -1294428.5, -6853.105, 0.00018478105, -0.054855682, -1221945.9, 22605.818 
4.751169e+2, 1.829974e+2, -1134978.3, -1217400.8, -7849.7744, -0.00093148445, -0.050613664, -1134237.3, 12382.736 
4.7512817e+2, 1.9298968e+2, -1036085.06, -1119012.1, -8135.421, -0.0006799926, -0.05315725, -1035294.5, 13401.398 
4.7513932e+2, 2.0298128e+2, -946797.75, -1039380.2, -8958.828, -0.00047703597, -0.055292785, -945938.8, 4839.333 
4.7515035e+2, 2.1297228e+2, -849706.1, -941377.44, -8715.314, -0.0003653084, -0.058706235, -848884.9, 3981.2234 
4.7516137e+2, 2.2296263e+2, -762754.56, -864795.7, -8536.39, -0.0007714845, -0.058267433, -762045.4, -7084.545 
4.7517243e+2, 2.329523e+2, -664961.0, -766925.0, -8984.717, -0.0022650198, -0.05283299, -664175.4, -7113.278 
4.7518358e+2, 2.4294129e+2, -575907.5, -687681.06, -8302.353, -0.002984398, -0.050229136, -575294.2, -16124.006 
4.7519487e+2, 2.5292957e+2, -476824.75, -588706.1, -7726.895, -0.0019850123, -0.056900494, -476293.63, -15008.79 
4.7520626e+2, 2.6291722e+2, -388539.0, -510595.56, -6744.133, -0.0013429734, -0.059016243, -388167.47, -24761.64 
4.7521773e+2, 2.729043e+2, -292587.3, -413289.28, -7060.317, -0.0016204721, -0.05428669, -292175.75, -26643.14 
4.752295e+2, 2.8289038e+2, -209100.34, -344718.34, -4540.5864, -0.0026642676, -0.05080527, -208948.48, -41279.438 
4.7524163e+2, 2.9287532e+2, -107962.96, -245736.83, -3800.3193, -0.0052117133, -0.053786807, -107858.22, -38041.664 
4.7525403e+2, 3.028641e+2, -2176.3286, -80023.984, -2025.9662, -0.0058383537, -0.05523737, -2123.6392, -2123.6392 
4.752666e+2, 3.1285736e+2, -4906.1904, -77385.02, -2013.7952, -0.0023232326, -0.056906477, -4850.2813, -4850.2813 
4.8504928e+2, 1.2301782e+2, -1680341.0, -1725862.3, 201.80296, -0.0023826645, -0.053775057, -1680340.1, 54079.99 
4.850618e+2, 1.3301311e+2, -1598560.0, -1661308.5, -3277.3328, 0.010590204, -0.06270216, -1598389.4, 38076.96 
4.850738e+2, 1.4300832e+2, -1503798.6, -1569256.4, -4777.729, -0.0051785824, -0.041518074, -1503451.8, 35061.6 
4.8508576e+2, 1.5300317e+2, -1406119.5, -1470036.0, -4761.414, 0.00026049564, -0.053565744, -1405766.8, 34796.86 
4.8509747e+2, 1.629974e+2, -1318550.5, -1392394.6, -6570.657, 0.0029362447, -0.06067743, -1317970.4, 24649.908 
4.8510888e+2, 1.7299107e+2, -1220073.1, -1294077.3, -7102.473, -0.0003160856, -0.055321563, -1219397.6, 25284.621 
4.851202e+2, 1.8298405e+2, -1132132.1, -1216282.1, -8260.144, -0.0019896042, -0.050738987, -1131329.0, 15422.088 
4.8513144e+2, 1.929763e+2, -1036001.1, -1119112.5, -8052.129, -0.00031137496, -0.052449618, -1035228.2, 13598.787 
4.8514256e+2, 2.029679e+2, -948253.25, -1040184.8, -8757.854, 0.0005415156, -0.054189935, -947426.4, 3482.8813 
4.8515353e+2, 2.129589e+2, -849940.25, -941611.25, -9218.29, -0.00044471156, -0.058164325, -849022.44, 3974.9219 
4.8516452e+2, 2.2294922e+2, -762205.9, -864646.94, -9226.452, -0.0015160018, -0.0581179, -761381.5, -6289.328 
4.8517555e+2, 2.3293889e+2, -664770.3, -766979.7, -8857.691, -0.0026884496, -0.05268017, -664008.4, -6814.7554 
4.8518667e+2, 2.4292788e+2, -576534.2, -687637.3, -7879.635, -0.002888093, -0.049897805, -575978.1, -16676.537 
4.8519793e+2, 2.5291622e+2, -480111.03, -589853.3, -8013.5835, -0.0010463427, -0.055983216, -479528.94, -18113.127 
4.852093e+2, 2.629039e+2, -392558.6, -512275.38, -7256.284, -0.00060119084, -0.058097795, -392120.4, -28583.896 
4.852207e+2, 2.7289096e+2, -292736.0, -413175.78, -6968.993, -0.0032825607, -0.05469219, -292334.1, -26670.88 
4.852324e+2, 2.828771e+2, -208563.97, -343865.75, -4193.225, -0.0047132573, -0.051483873, -208434.14, -40634.777 
4.852446e+2, 2.928621e+2, -114717.45, -248327.69, -3935.49, -0.0031894192, -0.05235364, -114601.63, -44655.543 
4.85257e+2, 3.0285096e+2, -10841.108, -83253.49, -2361.8481, -0.002790076, -0.05337944, -10764.155, -10764.155 
4.8526946e+2, 3.1284428e+2, -3810.0256, -75866.43, -2037.0284, -0.0051841247, -0.058469977, -3752.485, -3752.485 
4.9505284e+2, 1.23004794e+2, -1681937.8, -1729196.3, 672.43756, -0.0012806993, -0.043527525, -1681928.1, 52619.67 
4.9506533e+2, 1.3299981e+2, -1598841.9, -1661941.0, -3303.397, 0.009996463, -0.07450407, -1598669.4, 37927.297 
4.950773e+2, 1.4299504e+2, -1503677.5, -1569056.1, -5041.9, -0.0058130347, -0.04659063, -1503290.9, 35352.383 
4.950892e+2, 1.5299001e+2, -1405896.0, -1469644.6, -5084.4995, 0.00009870494, -0.049083922, -1405493.0, 35199.504 
4.951009e+2, 1.6298425e+2, -1319176.9, -1393751.0, -6556.211, 0.0031125054, -0.052636046, -1318604.9, 24144.21 
4.9511233e+2, 1.7297772e+2, -1220961.1, -1295931.5, -6986.759, -0.000094169875, -0.05627175, -1220315.6, 24497.395 
4.9512362e+2, 1.829706e+2, -1131974.6, -1215961.3, -8642.094, -0.0017290253, -0.056802977, -1131094.6, 15788.353 
4.951347e+2, 1.9296293e+2, -1035570.06, -1118265.1, -8562.205, 0.000045615157, -0.05479895, -1034692.8, 14265.141 
4.951457e+2, 2.0295458e+2, -948717.0, -1041196.56, -8850.956, 0.00053247885, -0.05235147, -947877.5, 3162.35 
4.951567e+2, 2.1294552e+2, -850683.4, -943153.1, -9191.784, -0.0017889895, -0.051712938, -849778.56, 3350.0532 
4.9516767e+2, 2.2293581e+2, -761821.3, -863815.0, -9326.195, -0.002909051, -0.051668864, -760975.56, -5751.751 
4.9517867e+2, 2.3292546e+2, -664127.7, -765586.44, -8995.982, -0.0013384186, -0.055973366, -663336.25, -6011.1055 
4.9518976e+2, 2.4291445e+2, -576727.8, -687969.1, -8309.669, -0.0004901735, -0.05683276, -576110.5, -16677.559 
4.9520084e+2, 2.5290284e+2, -480509.56, -590656.75, -8512.495, -0.0013456441, -0.052974887, -479855.6, -18308.78 
4.9521214e+2, 2.6289058e+2, -392107.38, -511299.88, -6989.209, -0.0027087075, -0.05069994, -391698.94, -28031.793 
4.9522367e+2, 2.7287766e+2, -292181.88, -411825.7, -6506.7183, -0.0050850315, -0.055717073, -291829.06, -26035.395 
4.9523538e+2, 2.8286377e+2, -208591.2, -343661.06, -4906.832, -0.0051046214, -0.057411563, -208413.19, -40483.6 
4.9524733e+2, 2.9284886e+2, -114793.51, -248410.16, -4961.2573, 0.00016367067, -0.054655936, -114609.55, -44533.51 
4.952596e+2, 3.0283776e+2, -10146.557, -81751.45, -1586.1388, 0.0008750729, -0.05216311, -10111.438, -10111.438 
4.9527234e+2, 3.1283122e+2, -3160.4265, -74087.17, -783.52124, -0.008991665, -0.054660384, -3151.7722, -3151.7722 
5.0505656e+2, 1.2299166e+2, -1678349.9, -1729601.8, 816.85815, -0.00086533534, -0.04088987, -1678336.9, 56339.59 
5.05069e+2, 1.3298663e+2, -1595036.8, -1659364.8, -2912.1946, 0.009604502, -0.07933992, -1594905.1, 41820.55 
5.0508094e+2, 1.4298198e+2, -1501516.0, -1568702.8, -4350.1133, -0.0053849686, -0.043345105, -1501235.5, 37535.78 
5.050928e+2, 1.5297684e+2, -1402927.0, -1469280.1, -5239.718, -0.00023775683, -0.048491523, -1402515.8, 38305.973 
5.051044e+2, 1.6297099e+2, -1315869.8, -1392538.4, -7140.7236, 0.0025729337, -0.053506523, -1315210.4, 27668.78 
5.051158e+2, 1.7296447e+2, -1220147.4, -1295788.8, -6859.063, 0.0004459168, -0.055393655, -1219530.5, 25412.668 
5.05127e+2, 1.829573e+2, -1132375.4, -1216434.4, -8209.018, -0.0008365538, -0.05523673, -1131581.3, 15431.939 
5.0513804e+2, 1.929496e+2, -1034172.75, -1117904.3, -8722.051, -0.0003446235, -0.055025935, -1033273.9, 15814.793 
5.05149e+2, 2.0294121e+2, -946629.5, -1040492.94, -9260.083, -0.00040521286, -0.0532822, -945724.6, 5446.213 
5.0515985e+2, 2.1293214e+2, -850493.06, -943399.94, -9085.16, -0.0016397795, -0.050868813, -849613.0, 3646.7585 
5.051708e+2, 2.2292243e+2, -762841.2, -864082.06, -9001.415, -0.0021348745, -0.050092112, -762047.06, -6692.095 
5.051817e+2, 2.329121e+2, -665838.9, -766074.8, -9127.194, -0.0010680679, -0.05600999, -665014.56, -7558.399 
5.051927e+2, 2.429011e+2, -578624.06, -688876.5, -8692.752, -0.0007281806, -0.057651144, -577942.94, -18379.102 
5.052038e+2, 2.5288948e+2, -480848.5, -590928.94, -8605.986, -0.002013236, -0.052682567, -480179.75, -18502.072 
5.05215e+2, 2.6287723e+2, -392261.75, -510878.1, -6852.363, -0.0032226916, -0.04967845, -391867.22, -28069.367 
5.052265e+2, 2.7286437e+2, -296460.28, -413269.22, -6625.4683, -0.0042288075, -0.0548752, -296085.7, -30161.861 
5.052382e+2, 2.8285056e+2, -214366.69, -345980.0, -5280.9624, -0.004032636, -0.057062875, -214155.14, -46095.855 
5.0525e+2, 2.9283562e+2, -115714.01, -248457.52, -5117.011, -0.001134563, -0.055459764, -115517.05, -45311.574 
5.052622e+2, 3.0282462e+2, -9854.919, -80884.06, -1351.4879, -0.00097243616, -0.052875794, -9829.213, -9829.213 
5.0527495e+2, 3.1281817e+2, -10746.583, -76959.32, -878.84296, -0.0072024595, -0.05251477, -10734.921, -10734.921 
5.150605e+2, 1.2297845e+2, -1679443.1, -1731912.5, 871.4691, -0.0011296162, -0.04602559, -1679428.6, 55377.348 
5.150728e+2, 1.3297363e+2, -1593767.9, -1656838.6, -3357.2202, 0.009383985, -0.07743122, -1593589.6, 43263.54 
5.150847e+2, 1.4296912e+2, -1502430.4, -1570655.8, -4475.777, -0.0039502527, -0.032008823, -1502138.0, 36759.46 
5.150965e+2, 1.5296362e+2, -1404422.6, -1472407.0, -5265.456, -0.0007580274, -0.05160661, -1404017.3, 36934.043 
5.1510805e+2, 1.629576e+2, -1315703.3, -1392234.0, -7602.1577, 0.0013145312, -0.06296223, -1314955.4, 28055.055 
5.151193e+2, 1.7295125e+2, -1219555.6, -1294637.1, -7433.991, 0.001272745, -0.052808594, -1218826.6, 26245.941 
5.1513046e+2, 1.8294418e+2, -1132819.6, -1217418.1, -8340.751, 0.00063106336, -0.046399225, -1132005.1, 15136.802 
5.151414e+2, 1.929363e+2, -1034938.2, -1119499.6, -8725.891, -0.0014500786, -0.053217202, -1034047.1, 15171.904 
5.151523e+2, 2.029278e+2, -946556.7, -1040325.06, -9645.831, -0.0022522656, -0.056806833, -945574.7, 5727.6313 
5.1516306e+2, 2.1291876e+2, -850208.25, -942809.2, -9568.882, -0.00010825357, -0.055277284, -849229.8, 4161.083 
5.15174e+2, 2.2290908e+2, -762939.25, -864287.8, -9363.038, 0.000648812, -0.05308943, -762081.5, -6595.718 
5.1518476e+2, 2.3289877e+2, -666067.9, -766535.06, -9454.211, -0.001799042, -0.053045373, -665185.94, -7599.2 
5.151956e+2, 2.428878e+2, -578504.94, -688582.25, -8801.456, -0.0034293046, -0.05277897, -577805.6, -18111.28 
5.152067e+2, 2.5287613e+2, -480695.63, -590499.8, -8653.101, -0.0030402325, -0.054866593, -480017.9, -18209.367 
5.1521784e+2, 2.628639e+2, -392187.97, -510581.78, -7391.366, -0.0022917767, -0.054539867, -391728.28, -27799.635 
5.152291e+2, 2.728511e+2, -296389.88, -413030.44, -7297.6504, -0.00096222776, -0.052364677, -295935.06, -29881.244 
5.152407e+2, 2.8283736e+2, -213991.69, -345098.13, -5152.9688, -0.0016386025, -0.051001083, -213789.47, -45600.867 
5.152526e+2, 2.9282248e+2, -115366.86, -247491.42, -4776.045, -0.006648063, -0.054892644, -115194.445, -44859.848 
5.152647e+2, 3.0281147e+2, -9843.8125, -80544.97, -1993.5306, -0.007846571, -0.05533732, -9787.646, -9787.646 
5.152774e+2, 3.128051e+2, -10769.985, -76798.875, -1781.7772, -0.0004813295, -0.051881656, -10721.939, -10721.939 
5.250645e+2, 1.2296539e+2, -1676664.8, -1733774.5, 1654.2308, -0.000988946, -0.045614805, -1676616.9, 58317.215 
5.250768e+2, 1.3296057e+2, -1588552.4, -1653709.8, -3905.8203, 0.008501516, -0.07819232, -1588319.1, 48662.137 
5.250885e+2, 1.4295612e+2, -1498413.6, -1569059.0, -5146.3555, -0.0029379101, -0.029858379, -1498040.6, 40984.344 
5.2510023e+2, 1.5295054e+2, -1402496.1, -1472087.0, -4788.1074, -0.0004180321, -0.050993785, -1402168.3, 38911.234 
5.2511173e+2, 1.6294445e+2, -1314623.9, -1392261.5, -6712.4424, 0.0011071, -0.06338156, -1314047.8, 29091.44 
5.251229e+2, 1.7293806e+2, -1217144.9, -1294033.9, -7451.2915, 0.00094989245, -0.053031825, -1216429.4, 28772.453 
5.251339e+2, 1.8293096e+2, -1130129.5, -1216541.6, -8799.943, 0.000408824, -0.046236843, -1129242.4, 18029.111 
5.2514476e+2, 1.9292305e+2, -1034609.44, -1119767.4, -8693.4375, -0.0011681957, -0.05228251, -1033731.0, 15617.997 
5.251556e+2, 2.0291452e+2, -947351.94, -1040658.2, -9370.202, -0.0017716136, -0.055836853, -946420.25, 5012.194 
5.2516633e+2, 2.1290548e+2, -850248.8, -942684.5, -9489.214, -0.00014422444, -0.05589724, -849284.75, 4236.2905 
5.25177e+2, 2.228958e+2, -762837.7, -864462.0, -9433.033, 0.00031590584, -0.05415901, -761969.5, -6353.5586 
5.251877e+2, 2.3288548e+2, -666499.0, -767097.6, -9538.455, -0.0019242158, -0.052022934, -665602.56, -7885.545 
5.2519846e+2, 2.4287452e+2, -579330.44, -688571.06, -8771.043, -0.0033857743, -0.05090339, -578630.7, -18806.084 
5.252095e+2, 2.5286287e+2, -483148.06, -591105.44, -8468.749, -0.0029922277, -0.05494674, -482487.78, -20549.31 
5.252205e+2, 2.6285067e+2, -395497.7, -511862.63, -7230.141, -0.0023044643, -0.055602435, -395050.2, -30991.975 
5.252318e+2, 2.728379e+2, -298162.75, -413671.97, -7166.846, -0.0011563916, -0.05212914, -297719.78, -31536.713 
5.2524316e+2, 2.8282422e+2, -215411.9, -345255.75, -4806.093, -0.0018470356, -0.04986387, -215234.25, -46916.785 
5.2525496e+2, 2.9280937e+2, -119898.66, -249099.33, -4502.58, -0.006491617, -0.05385935, -119741.93, -49278.977 
5.2526706e+2, 3.0279842e+2, -15461.222, -82261.28, -1953.1521, -0.0076378295, -0.054753534, -15404.162, -15404.162 
5.252796e+2, 3.1279215e+2, -13543.213, -77063.516, -1296.5684, -0.000993504, -0.05246457, -13516.759, -13516.759 
5.350688e+2, 1.22952476e+2, -1679565.9, -1739813.5, 1638.2041, -0.00045787098, -0.040073104, -1679521.4, 55539.188 
5.3508085e+2, 1.3294747e+2, -1588951.0, -1654603.5, -4321.4517, 0.006958815, -0.08149454, -1588667.8, 48441.87 
5.3509253e+2, 1.4294297e+2, -1497901.8, -1568070.4, -5655.06, -0.0023648036, -0.036619212, -1497448.9, 41704.902 
5.3510416e+2, 1.529376e+2, -1401751.1, -1470631.3, -5324.959, 0.00072278565, -0.046853475, -1401341.9, 39864.348 
5.351155e+2, 1.6293156e+2, -1315395.5, -1393921.5, -6997.78, 0.0018798854, -0.05512971, -1314776.8, 28488.777 
5.351265e+2, 1.7292489e+2, -1218347.9, -1296556.4, -7650.1523, -0.00047507387, -0.055884883, -1217606.6, 27724.209 
5.351375e+2, 1.8291764e+2, -1130188.6, -1216689.6, -9342.708, -0.0014571339, -0.05432529, -1129191.0, 18211.023 
5.3514826e+2, 1.9290982e+2, -1034376.4, -1119329.5, -9325.043, 0.000394711, -0.0522012, -1033364.9, 16113.686 
5.3515893e+2, 2.0290138e+2, -947337.94, -1040669.8, -9726.791, 0.0008746693, -0.0506387, -946335.06, 5226.3237 
5.351695e+2, 2.1289231e+2, -850339.06, -942873.06, -9770.663, -0.0016431217, -0.052964672, -849318.6, 4331.6294 
5.351801e+2, 2.2288258e+2, -763038.4, -864844.6, -9847.239, -0.0029592342, -0.053415645, -762094.6, -6349.0503 
5.351907e+2, 2.3287222e+2, -666754.4, -767578.94, -9975.681, -0.00150954, -0.052791294, -665776.8, -7929.7354 
5.352014e+2, 2.4286124e+2, -579008.94, -687844.25, -9255.348, -0.00081925694, -0.051809765, -578227.44, -18272.781 
5.3521216e+2, 2.5284973e+2, -482696.53, -590097.25, -8976.931, -0.0019623376, -0.0531129, -481951.38, -19883.803 
5.3522307e+2, 2.6283756e+2, -395321.97, -511401.7, -7521.988, -0.0031913114, -0.05317271, -394836.56, -30649.855 
5.352342e+2, 2.728248e+2, -298110.38, -413421.3, -7391.9966, -0.00451228, -0.0539546, -297638.44, -31326.703 
5.352456e+2, 2.828111e+2, -215293.53, -344825.84, -5255.3022, -0.0044627027, -0.05322357, -215080.66, -46634.637 
5.352573e+2, 2.927963e+2, -119791.62, -248666.69, -5015.0903, -0.0012637011, -0.05243879, -119596.75, -49005.984 
5.3526926e+2, 3.027855e+2, -14622.762, -80277.25, -2162.599, -0.001052617, -0.051436085, -14551.6045, -14551.6045 
5.352816e+2, 3.127793e+2, -12533.053, -74697.54, -1441.9618, -0.007973647, -0.054129463, -12499.623, -12499.623 
5.4507315e+2, 1.2293956e+2, -1675754.9, -1740837.3, 1800.5826, 0.0006533322, -0.039931126, -1675705.1, 59482.03 
5.450851e+2, 1.3293463e+2, -1584461.5, -1651539.1, -3481.6853, 0.0053738076, -0.07936325, -1584281.3, 52954.207 
5.4509664e+2, 1.429301e+2, -1495325.3, -1567387.1, -4406.023, -0.0019539192, -0.039181896, -1495056.9, 44223.047 
5.451081e+2, 1.529247e+2, -1398971.1, -1470244.3, -5334.9854, 0.0009697469, -0.04661534, -1398574.0, 42758.86 
5.4511935e+2, 1.629186e+2, -1312497.6, -1393027.4, -7593.2046, 0.0019699011, -0.053328246, -1311788.0, 31604.684 
5.451303e+2, 1.7291188e+2, -1216977.6, -1296318.4, -7309.284, -0.0003798075, -0.05560539, -1216309.9, 29148.605 
5.451411e+2, 1.8290457e+2, -1129589.8, -1216657.9, -8551.105, -0.0013556241, -0.05496717, -1128757.9, 18772.232 
5.451517e+2, 1.9289674e+2, -1033084.2, -1118951.1, -8901.506, 0.00044789247, -0.05234282, -1032171.06, 17435.668 
5.4516226e+2, 2.0288828e+2, -946052.4, -1040395.56, -9569.953, 0.00085472775, -0.050185688, -945091.4, 6598.3633 
5.451727e+2, 2.1287918e+2, -850482.56, -943354.6, -9779.904, -0.0017970394, -0.0517713, -849463.9, 4315.1133 
5.451832e+2, 2.2286944e+2, -763812.7, -864918.3, -9830.452, -0.0031243067, -0.052205574, -762865.75, -6991.4116 
5.451936e+2, 2.328591e+2, -667762.5, -767607.8, -9463.646, -0.0014765799, -0.05314107, -666873.44, -8897.791 
5.4520416e+2, 2.4284816e+2, -580530.1, -688537.75, -8596.097, -0.00066179817, -0.052688736, -579850.25, -19767.314 
5.452148e+2, 2.5283664e+2, -484435.56, -591044.94, -8874.432, -0.0018534636, -0.052169982, -483701.88, -21506.092 
5.4522556e+2, 2.628245e+2, -397036.28, -511688.66, -7599.6543, -0.0031946006, -0.0514562, -396534.75, -32220.037 
5.452366e+2, 2.728118e+2, -300689.16, -413982.2, -7174.3516, -0.004771757, -0.053920273, -300236.63, -33797.363 
5.4524785e+2, 2.827981e+2, -218738.83, -345959.3, -4986.787, -0.0047578346, -0.054087516, -218543.66, -49970.582 
5.452594e+2, 2.927834e+2, -123623.49, -250063.6, -4750.6284, -0.0011196183, -0.052286237, -123445.25, -52727.93 
5.452713e+2, 3.0277264e+2, -18457.094, -81283.586, -1723.8604, -0.000763621, -0.050672, -18409.83, -18409.83 
5.4528356e+2, 3.1276655e+2, -16402.486, -75648.89, -1508.1307, -0.008183251, -0.053797945, -16364.122, -16364.122 
5.550778e+2, 1.2292666e+2, -1676457.5, -1742366.0, 1274.4609, 0.002320927, -0.04542336, -1676432.9, 58880.81 
5.550895e+2, 1.3292202e+2, -1582872.8, -1648366.0, -4337.628, 0.0037276496, -0.07198883, -1582586.6, 54772.293 
5.5510086e+2, 1.4291751e+2, -1496433.6, -1569747.9, -4913.7, -0.00172629, -0.037688017, -1496105.8, 43297.504 
5.551122e+2, 1.529118e+2, -1400798.0, -1474079.9, -5726.226, 0.00034114352, -0.050096694, -1400353.3, 41105.97 
5.5512327e+2, 1.6290554e+2, -1312321.9, -1392734.4, -8159.22, 0.001368111, -0.057718594, -1311502.3, 32018.287 
5.551341e+2, 1.72899e+2, -1216296.6, -1294982.0, -7926.277, 0.0011350806, -0.05238684, -1215506.1, 30078.72 
5.551448e+2, 1.8289174e+2, -1129801.4, -1217145.8, -9038.789, 0.00058177806, -0.048552137, -1128875.8, 18780.059 
5.551552e+2, 1.9288379e+2, -1033567.75, -1119978.3, -9341.908, -0.0009239532, -0.05266681, -1032569.3, 17164.416 
5.551656e+2, 2.0287523e+2, -946465.94, -1041258.7, -10175.813, -0.0017098779, -0.05418894, -945385.94, 6431.81 
5.551759e+2, 2.1286608e+2, -850899.3, -944218.5, -10417.71, -0.0007217022, -0.052217036, -849750.5, 4156.7017 
5.551862e+2, 2.2285637e+2, -763286.3, -863819.8, -10368.1045, -0.0004177244, -0.050561033, -762228.2, -6225.71 
5.551965e+2, 2.3284613e+2, -667015.6, -766029.56, -9989.556, -0.0017936027, -0.05310538, -666017.8, -7915.0283 
5.552069e+2, 2.4283522e+2, -580842.9, -689127.4, -9141.721, -0.0027460977, -0.053540822, -580076.5, -19866.83 
5.552174e+2, 2.5282365e+2, -485070.47, -592280.56, -9402.434, -0.002605992, -0.052048188, -484252.13, -21928.87 
5.5522805e+2, 2.6281148e+2, -396673.8, -510825.25, -8072.5977, -0.0024106721, -0.050401382, -396105.75, -31663.408 
5.5523896e+2, 2.7279887e+2, -300100.84, -412594.53, -7646.5815, -0.002236505, -0.052207775, -299583.44, -33017.527 
5.5525e+2, 2.827853e+2, -218437.88, -345136.25, -5560.439, -0.0029582314, -0.052686367, -218194.31, -49495.402 
5.552614e+2, 2.927706e+2, -123397.54, -249435.45, -5350.6504, -0.005557137, -0.053277273, -123170.8, -52327.906 
5.5527306e+2, 3.0275986e+2, -18463.443, -81105.28, -1961.7986, -0.0061895824, -0.052226443, -18402.064, -18402.064 
5.552854e+2, 3.127538e+2, -16617.121, -75704.266, -1629.652, -0.0024424784, -0.051714744, -16572.209, -16572.209 
5.650826e+2, 1.2291404e+2, -1673072.5, -1743057.3, 2577.5166, 0.0027322783, -0.04836068, -1672977.6, 62459.67 
5.65094e+2, 1.3290952e+2, -1578405.8, -1646006.1, -4657.026, 0.0022251066, -0.06489333, -1578086.4, 59395.344 
5.6510514e+2, 1.429049e+2, -1492930.0, -1568576.8, -5447.8735, -0.0003064778, -0.040040582, -1492539.8, 46987.3 
5.651164e+2, 1.5289913e+2, -1398028.6, -1473475.5, -4803.054, 0.00057612435, -0.051193144, -1397724.0, 43859.477 
5.651274e+2, 1.6289282e+2, -1309996.4, -1392230.6, -6743.276, 0.0008386633, -0.05747298, -1309447.1, 34198.21 
5.65138e+2, 1.7288622e+2, -1214320.4, -1294654.9, -7555.871, 0.0010216573, -0.051416777, -1213615.9, 32094.266 
5.651485e+2, 1.8287894e+2, -1128172.8, -1216702.4, -9234.804, 0.000734517, -0.04736156, -1127219.8, 20561.734 
5.651587e+2, 1.9287094e+2, -1032856.5, -1119940.5, -9239.284, -0.00093734794, -0.05225173, -1031887.06, 17972.648 
5.65169e+2, 2.0286235e+2, -946258.3, -1041158.25, -9807.654, -0.0017565968, -0.054344073, -945255.3, 6688.5317 
5.651791e+2, 2.1285322e+2, -850817.8, -944131.3, -9626.2, -0.00054063427, -0.052483756, -849835.1, 4198.151 
5.6518924e+2, 2.2284351e+2, -763629.75, -864160.7, -9513.318, -0.00019689872, -0.050671857, -762737.44, -6608.8955 
5.651993e+2, 2.3283325e+2, -668020.2, -766788.56, -10040.649, -0.0019635796, -0.05247775, -667009.8, -8780.744 
5.6520957e+2, 2.4282235e+2, -581986.94, -689303.6, -9564.434, -0.003119172, -0.052739978, -581141.2, -20805.252 
5.6521994e+2, 2.5281078e+2, -486549.3, -592474.1, -8957.636, -0.002773075, -0.052374724, -485797.16, -23348.012 
5.652304e+2, 2.6279867e+2, -398920.22, -511577.5, -7200.502, -0.0023588676, -0.051099397, -398461.88, -33893.99 
5.652411e+2, 2.727861e+2, -303554.34, -414018.6, -7298.681, -0.0019663142, -0.051487546, -303074.2, -36383.082 
5.65252e+2, 2.8277257e+2, -222089.98, -346290.56, -5392.9287, -0.0027593365, -0.05135298, -221856.25, -53032.582 
5.652632e+2, 2.9275793e+2, -125792.9, -249915.39, -5064.2383, -0.0060833874, -0.05326289, -125586.62, -54619.438 
5.652748e+2, 3.0274725e+2, -20996.893, -81378.21, -1658.9366, -0.0068705366, -0.05278069, -20951.348, -20951.348 
5.6528693e+2, 3.1274128e+2, -22998.242, -77787.445, -833.377, -0.0019746397, -0.051005658, -22985.568, -22985.568 
5.7508755e+2, 1.229017e+2, -1675210.5, -1747545.3, 1773.1246, 0.0018967623, -0.049028106, -1675167.0, 60391.195 
5.750987e+2, 1.3289706e+2, -1579590.5, -1648539.6, -5611.937, 0.00083816925, -0.05804171, -1579136.8, 58467.035 
5.7510966e+2, 1.4289223e+2, -1492437.6, -1567654.0, -6079.062, 0.0022305152, -0.046107437, -1491949.5, 47701.633 
5.7512075e+2, 1.5288666e+2, -1397109.3, -1471668.4, -5355.0586, 0.0016150926, -0.05003874, -1396726.6, 44979.164 
5.7513154e+2, 1.6288042e+2, -1310846.0, -1394053.3, -7430.573, 0.0003481824, -0.052810516, -1310187.8, 33579.203 
5.7514197e+2, 1.7287356e+2, -1215667.8, -1297500.0, -8252.209, -0.00064646394, -0.052552577, -1214843.9, 30990.207 
5.751522e+2, 1.8286613e+2, -1128341.0, -1217105.1, -9911.894, -0.0008430122, -0.051120475, -1127247.8, 20659.307 
5.7516235e+2, 1.9285819e+2, -1032738.5, -1119735.9, -9911.398, 0.0002956794, -0.05116611, -1031623.6, 18361.082 
5.751724e+2, 2.0284966e+2, -945854.94, -1040345.8, -10489.869, 0.00052716833, -0.05089409, -944704.44, 7363.937 
5.751823e+2, 2.1284056e+2, -850364.6, -943203.7, -10314.342, -0.0011917874, -0.05257284, -849232.5, 4924.948 
5.751923e+2, 2.2283083e+2, -764339.3, -865616.7, -10200.676, -0.0023160928, -0.052417025, -763322.1, -7069.223 
5.752022e+2, 2.3282045e+2, -669086.94, -768953.9, -10700.838, -0.002017313, -0.051313918, -667953.2, -9598.613 
5.7521224e+2, 2.428095e+2, -581328.6, -687867.6, -10187.808, -0.0019333137, -0.050409477, -580363.1, -19901.3 
5.752224e+2, 2.5279808e+2, -485448.8, -590089.8, -9594.529, -0.002414743, -0.05310948, -484576.34, -22002.627 
5.752327e+2, 2.6278603e+2, -398985.38, -511589.38, -7960.295, -0.002988068, -0.053404555, -398425.44, -33733.867 
5.752431e+2, 2.7277347e+2, -303957.9, -414748.4, -8073.017, -0.0037617402, -0.05168342, -303372.75, -36557.69 
5.7525384e+2, 2.827599e+2, -221841.73, -345626.38, -5744.7837, -0.004045106, -0.05009391, -221575.69, -52628.074 
5.75265e+2, 2.9274535e+2, -125479.48, -248948.6, -5302.036, -0.0031360702, -0.05235384, -125252.22, -54161.746 
5.7527643e+2, 3.0273476e+2, -20208.28, -79363.2, -2638.2231, -0.0033138315, -0.05244036, -20090.852, -20090.852 
5.752882e+2, 3.1272894e+2, -21943.188, -75442.516, -2044.5042, -0.00623159, -0.051535342, -21865.17, -21865.17 
5.850927e+2, 1.2288954e+2, -1670794.1, -1746644.5, 2131.5344, 0.0027808582, -0.050462373, -1670734.3, 64943.19 
5.851035e+2, 1.3288492e+2, -1575591.0, -1647332.6, -4479.312, -0.00095715735, -0.050917298, -1575312.4, 62410.484 
5.851143e+2, 1.4287989e+2, -1489110.4, -1566824.3, -4521.2754, 0.0032483179, -0.05233805, -1488848.3, 50923.87 
5.851252e+2, 1.5287429e+2, -1394389.3, -1471173.6, -5080.215, 0.0017665717, -0.050381325, -1394054.6, 47772.23 
5.8513576e+2, 1.6286802e+2, -1308420.3, -1393354.1, -7893.32, -0.0000043878977, -0.049643267, -1307692.9, 36195.37 
5.85146e+2, 1.728611e+2, -1213595.1, -1296915.6, -7662.5874, -0.00046758255, -0.05234487, -1212896.3, 33059.887 
5.851561e+2, 1.8285362e+2, -1126763.4, -1216785.6, -8694.871, -0.00042515693, -0.052588813, -1125931.3, 22098.262 
5.8516604e+2, 1.9284566e+2, -1031887.75, -1119813.5, -9077.721, 0.00019687784, -0.0511196, -1030960.3, 19147.21 
5.851759e+2, 2.028371e+2, -945421.06, -1040355.2, -10083.667, 0.00016228143, -0.049883015, -944361.8, 7829.6133 
5.851855e+2, 2.1282798e+2, -850243.56, -943328.56, -10465.787, -0.0012333419, -0.0520036, -849081.4, 5199.337 
5.8519524e+2, 2.2281824e+2, -764490.4, -865550.7, -10444.827, -0.0021253205, -0.052178454, -763422.1, -7045.944 
5.85205e+2, 2.3280787e+2, -670009.8, -769209.06, -9839.173, -0.0018767064, -0.051073857, -669043.4, -10565.625 
5.8521485e+2, 2.4279696e+2, -583015.25, -688495.5, -8805.544, -0.0018423196, -0.050080884, -582285.25, -21700.426 
5.8522475e+2, 2.5278556e+2, -487798.38, -591077.6, -9227.247, -0.0023567062, -0.052482966, -486980.44, -24283.93 
5.852348e+2, 2.6277357e+2, -401338.7, -512202.03, -8103.8076, -0.0030860684, -0.052754745, -400749.44, -35935.36 
5.852451e+2, 2.7276102e+2, -305644.5, -414968.56, -7553.767, -0.0043028216, -0.05164803, -305125.03, -38187.934 
5.852556e+2, 2.8274754e+2, -224163.53, -346137.03, -4842.095, -0.004515786, -0.050261043, -223971.61, -54902.47 
5.8526653e+2, 2.92733e+2, -131381.0, -251219.06, -4555.736, -0.0023758023, -0.051737446, -131208.06, -59996.656 
5.8527786e+2, 3.027225e+2, -26787.666, -81506.945, -1891.9607, -0.002332854, -0.05156534, -26722.328, -26722.328 
5.8528936e+2, 3.1271675e+2, -23356.803, -75004.94, -1680.0269, -0.0073985644, -0.05165352, -23302.213, -23302.213 
5.95098e+2, 1.22877546e+2, -1670177.1, -1745464.3, 999.2222, 0.0053059044, -0.05271326, -1670163.9, 65631.22 
5.951085e+2, 1.3287306e+2, -1575251.8, -1646745.6, -5614.651, -0.003156526, -0.043526944, -1574813.5, 63025.547 
5.95119e+2, 1.4286785e+2, -1490431.4, -1569656.0, -5323.161, 0.0027837118, -0.05872595, -1490075.3, 49814.867 
5.951297e+2, 1.5286204e+2, -1396184.8, -1474965.4, -5763.579, 0.0010494842, -0.052151132, -1395765.4, 46181.61 
5.951401e+2, 1.6285567e+2, -1308125.5, -1392823.5, -8656.53, -0.00026255145, -0.0479141, -1307249.8, 36759.71 
5.951502e+2, 1.7284885e+2, -1212760.0, -1295266.3, -8455.329, 0.0014333822, -0.05088049, -1211902.4, 34173.934 
5.9516e+2, 1.828414e+2, -1127079.6, -1217497.6, -9554.799, 0.0018456755, -0.051905625, -1126081.0, 22068.357 
5.9516966e+2, 1.9283333e+2, -1032545.94, -1121223.6, -9937.874, -0.0011532556, -0.052036107, -1031445.9, 18782.52 
5.9517926e+2, 2.0282468e+2, -946034.56, -1041654.6, -10859.747, -0.0027134623, -0.05115463, -944816.75, 7496.471 
5.951888e+2, 2.128155e+2, -850887.06, -944652.9, -11204.387, -0.00073188473, -0.05083596, -849566.8, 4836.3896 
5.951983e+2, 2.2280574e+2, -763698.25, -863880.75, -11282.816, 0.00018256623, -0.0500943, -762443.25, -5944.54 
5.9520775e+2, 2.3279554e+2, -668837.8, -766751.8, -10724.036, -0.0015577365, -0.05168123, -667677.06, -9078.217 
5.9521735e+2, 2.4278466e+2, -583454.94, -689361.44, -9637.312, -0.002773107, -0.05159815, -582585.06, -21879.91 
5.9522706e+2, 2.527732e+2, -488737.28, -592940.2, -10015.768, -0.002587033, -0.05063179, -487783.3, -24965.504 
5.952369e+2, 2.6276118e+2, -400808.28, -510970.2, -8725.019, -0.0027197606, -0.049410034, -400121.53, -35185.863 
5.9524703e+2, 2.727487e+2, -304754.2, -412919.28, -8146.5674, -0.0037296652, -0.051396277, -304144.06, -37086.504 
5.9525734e+2, 2.8273535e+2, -223878.77, -345322.06, -5927.018, -0.0042707785, -0.05172366, -223590.17, -54401.55 
5.952679e+2, 2.9272088e+2, -131227.27, -250778.64, -5779.9746, -0.0035969052, -0.051402412, -130948.46, -59618.063 
5.9527886e+2, 3.027104e+2, -26577.514, -80922.73, -1992.3079, -0.003701379, -0.050232865, -26504.572, -26504.572 
5.952905e+2, 3.127047e+2, -23352.309, -74525.13, -1445.2245, -0.0058983015, -0.051420547, -23311.525, -23311.525 
6.0510343e+2, 1.22865885e+2, -1666458.0, -1743594.5, 2390.699, 0.005902431, -0.055803187, -1666384.0, 69525.43 
6.051136e+2, 1.3286139e+2, -1571675.1, -1646609.9, -5348.968, -0.0048204404, -0.035415795, -1571295.3, 66658.27 
6.0512394e+2, 1.4285594e+2, -1486177.9, -1568593.5, -5469.216, 0.0040790634, -0.061517984, -1485816.5, 54190.297 
6.051344e+2, 1.5285008e+2, -1393104.4, -1474338.3, -4622.6016, 0.0015167161, -0.053276345, -1392842.1, 49222.156 
6.0514456e+2, 1.6284366e+2, -1305896.8, -1392353.9, -6961.223, -0.00049461424, -0.047517892, -1305339.9, 38787.414 
6.0515434e+2, 1.7283678e+2, -1210895.9, -1294945.5, -7875.7056, 0.001048467, -0.050171364, -1210164.4, 36030.305 
6.05164e+2, 1.8282929e+2, -1125401.3, -1217013.8, -9694.468, 0.0015518725, -0.051138036, -1124386.6, 23881.36 
6.051734e+2, 1.928212e+2, -1031173.94, -1120857.1, -9627.594, -0.0008779932, -0.051699925, -1030152.06, 20195.28 
6.0518277e+2, 2.0281252e+2, -945180.1, -1041432.1, -10064.109, -0.002218018, -0.051093154, -944139.06, 8293.342 
6.0519195e+2, 2.1280332e+2, -851204.75, -945007.0, -9902.296, -0.0008744111, -0.050670415, -850170.8, 4351.771 
6.0520124e+2, 2.2279356e+2, -764622.4, -864265.3, -9930.026, -0.0003055278, -0.049865168, -763642.44, -7024.3022 
6.052104e+2, 2.3278336e+2, -669594.56, -767021.06, -10458.972, -0.0016765211, -0.051503617, -668484.44, -9766.289 
6.052198e+2, 2.4277252e+2, -584257.1, -689505.44, -9901.99, -0.0026981665, -0.0513438, -583333.6, -22509.281 
6.0522926e+2, 2.5276104e+2, -490381.2, -593488.1, -9313.442, -0.0027948048, -0.049999513, -489546.7, -26609.96 
6.052389e+2, 2.6274905e+2, -403353.88, -511720.28, -7423.5703, -0.0029305806, -0.048692595, -402847.7, -37793.41 
6.052487e+2, 2.7273667e+2, -308732.7, -414333.2, -7481.782, -0.0032862127, -0.05124774, -308205.25, -41029.477 
6.052588e+2, 2.8272334e+2, -228025.11, -346741.56, -5748.1084, -0.0037742297, -0.051796004, -227747.44, -58441.09 
6.052692e+2, 2.9270893e+2, -132790.92, -250967.42, -5519.054, -0.0044712857, -0.050859325, -132533.73, -61086.168 
6.052799e+2, 3.0269852e+2, -28053.383, -80799.016, -1477.3743, -0.004843718, -0.04939657, -28012.035, -28012.035 
6.052913e+2, 3.126929e+2, -31216.607, -77439.74, -673.1369, -0.004681112, -0.051081646, -31206.809, -31206.809 
6.15109e+2, 1.22854546e+2, -1666836.9, -1744493.4, 1292.5636, 0.004588426, -0.05963457, -1666815.4, 69205.24 
6.15119e+2, 1.3284989e+2, -1573874.3, -1651233.4, -6202.947, -0.0059964303, -0.026637865, -1573380.1, 64686.164 
6.1512905e+2, 1.4284416e+2, -1486053.4, -1568432.5, -6457.6475, 0.007027071, -0.060889184, -1485550.3, 54572.063 
6.151392e+2, 1.5283838e+2, -1392350.3, -1472901.8, -5650.866, 0.0030904633, -0.053781483, -1391955.8, 50223.125 
6.15149e+2, 1.6283196e+2, -1306810.8, -1394350.0, -7889.1763, -0.00072375266, -0.048388477, -1306105.5, 38136.41 
6.151586e+2, 1.7282489e+2, -1212311.9, -1297944.3, -8748.366, -0.0014982123, -0.050177187, -1211427.3, 34883.836 
6.15168e+2, 1.828173e+2, -1125452.5, -1217166.9, -10608.317, -0.0011913511, -0.050302733, -1124241.4, 24144.297 
6.151772e+2, 1.9280924e+2, -1030874.56, -1120272.9, -10553.978, 0.0008875493, -0.050199855, -1029645.5, 20819.125 
6.151863e+2, 2.0280059e+2, -944812.4, -1040695.0, -11101.097, 0.00139488, -0.04979061, -943543.9, 9005.401 
6.151952e+2, 2.1279141e+2, -850840.75, -944277.7, -10971.737, -0.0016094187, -0.05142915, -849569.75, 5069.4067 
6.1520416e+2, 2.2278166e+2, -765289.44, -865647.8, -10820.224, -0.0034040809, -0.05135187, -764136.1, -7401.305 
6.152132e+2, 2.3277134e+2, -670610.7, -769065.3, -11272.62, -0.0022143691, -0.050614968, -669336.5, -10500.538 
6.152223e+2, 2.4276046e+2, -583655.56, -688160.8, -10858.344, -0.0017186162, -0.049454704, -582539.25, -21596.719 
6.152314e+2, 2.5274915e+2, -489332.44, -591221.44, -10330.333, -0.0029924905, -0.050474662, -488295.6, -25241.982 
6.152407e+2, 2.627372e+2, -403391.7, -511698.44, -8419.376, -0.0036862022, -0.050370857, -402741.1, -37570.8 
6.152503e+2, 2.727248e+2, -309130.56, -415022.84, -8454.181, -0.0029765726, -0.051210213, -308459.84, -41167.805 
6.152602e+2, 2.8271145e+2, -227838.19, -346157.06, -6333.0767, -0.0030729014, -0.050620914, -227500.17, -58077.527 
6.152703e+2, 2.926971e+2, -132511.92, -250087.75, -5996.1846, -0.0050687324, -0.05013088, -132206.92, -60643.652 
6.1528087e+2, 3.026868e+2, -27548.002, -79405.81, -2760.0588, -0.0058233947, -0.04901776, -27401.516, -27401.516 
6.152919e+2, 3.126813e+2, -30589.244, -75904.15, -2200.2402, -0.0037716664, -0.05067407, -30482.664, -30482.664 
6.2511474e+2, 1.22843474e+2, -1660998.0, -1740861.8, 1670.3387, 0.0049347524, -0.06033894, -1660963.1, 75166.01 
6.251244e+2, 1.3283867e+2, -1571425.9, -1652557.5, -4834.849, -0.007390928, -0.023401346, -1571138.8, 67037.55 
6.251343e+2, 1.428327e+2, -1483230.4, -1567990.0, -4888.175, 0.008200335, -0.06440218, -1482949.5, 57285.188 
6.251441e+2, 1.528269e+2, -1388631.5, -1471616.6, -5054.883, 0.0033352673, -0.05351437, -1388324.8, 53966.617 
6.251537e+2, 1.6282044e+2, -1303229.5, -1393348.9, -7852.147, -0.0010595304, -0.04594705, -1302550.5, 41804.117 
6.2516296e+2, 1.728133e+2, -1210290.4, -1297797.6, -7848.591, -0.0013902711, -0.049859203, -1209592.0, 36832.754 
6.251721e+2, 1.8280561e+2, -1124346.3, -1216989.4, -9135.892, -0.0008853749, -0.0512599, -1123454.0, 25046.068 
6.2518096e+2, 1.9279754e+2, -1030212.6, -1120217.0, -9484.028, 0.0007131372, -0.05024169, -1029224.1, 21354.984 
6.251898e+2, 2.0278889e+2, -944386.25, -1040651.44, -10532.669, 0.0009901028, -0.049161755, -943247.3, 9416.578 
6.251984e+2, 2.1277972e+2, -850330.8, -944206.0, -10881.571, -0.0016466007, -0.050850928, -849085.94, 5667.9233 
6.2520707e+2, 2.2276995e+2, -765107.6, -865572.0, -10773.067, -0.0032104985, -0.05085026, -763965.44, -7115.7866 
6.252158e+2, 2.3275962e+2, -672051.4, -769767.4, -10291.869, -0.0021872863, -0.0501872, -670979.1, -12028.334 
6.252246e+2, 2.4274877e+2, -585920.1, -688924.4, -9390.295, -0.0018045214, -0.049279217, -585071.06, -24013.768 
6.2523353e+2, 2.5273746e+2, -491181.13, -591727.3, -9666.502, -0.0030470141, -0.050933678, -490260.22, -27092.168 
6.2524253e+2, 2.627256e+2, -405088.47, -512050.47, -8276.659, -0.0037344825, -0.050888907, -404451.8, -39167.473 
6.252518e+2, 2.727132e+2, -311485.0, -415708.34, -7790.9053, -0.003101525, -0.05043418, -310905.84, -43500.25 
6.252614e+2, 2.8269994e+2, -231160.23, -347134.4, -5052.8413, -0.0032007513, -0.049397554, -230940.5, -61404.824 
6.252713e+2, 2.9268563e+2, -137825.45, -252014.72, -4711.5854, -0.005032897, -0.050496597, -137631.38, -65955.516 
6.2528163e+2, 3.026754e+2, -33159.89, -80993.62, -1817.2067, -0.005727815, -0.05004103, -33090.953, -33090.953 
6.2529224e+2, 3.1267e+2, -33492.043, -76083.16, -1369.6909, -0.0038901397, -0.050010756, -33448.043, -33448.043 
6.3512075e+2, 1.22832656e+2, -1659518.0, -1737914.9, 132.69345, 0.0068183695, -0.05784064, -1659517.8, 76717.38 
6.3513e+2, 1.328277e+2, -1572315.9, -1654524.5, -6008.918, -0.009001543, -0.025448509, -1571879.0, 66404.64 
6.351396e+2, 1.4282155e+2, -1484348.0, -1570440.6, -5813.9204, 0.0076635648, -0.07186291, -1483957.1, 56386.797 
6.351492e+2, 1.5281564e+2, -1389864.1, -1474253.1, -5889.208, 0.0022988054, -0.05254066, -1389455.1, 52946.625 
6.351585e+2, 1.6280913e+2, -1303181.5, -1393313.6, -9031.297, -0.0015356278, -0.040395297, -1302285.4, 42180.258 
6.351675e+2, 1.7280197e+2, -1209885.5, -1297055.8, -9122.807, 0.0011834302, -0.04923097, -1208941.0, 37594.87 
6.351762e+2, 1.8279427e+2, -1124646.3, -1217706.0, -10247.852, 0.0022495582, -0.05389879, -1123531.1, 25080.145 
6.351848e+2, 1.9278613e+2, -1030758.94, -1121405.4, -10537.28, -0.0012645782, -0.05171948, -1029550.1, 21140.924 
6.351933e+2, 2.0277742e+2, -944902.0, -1041736.9, -11563.264, -0.0031855798, -0.049161904, -943540.4, 9236.073 
6.3520163e+2, 2.1276817e+2, -850876.0, -945320.06, -11890.262, -0.0010640118, -0.049043726, -849402.06, 5464.969 
6.352101e+2, 2.227584e+2, -764532.06, -864350.1, -11964.464, -0.0000037638997, -0.048507493, -763118.0, -6155.09 
6.3521844e+2, 2.3274817e+2, -671169.7, -767923.0, -11548.686, -0.0016402313, -0.05017585, -669810.3, -10747.269 
6.3522685e+2, 2.4273737e+2, -586144.4, -689351.3, -10376.828, -0.0028843742, -0.05066767, -585111.4, -23942.424 
6.3523555e+2, 2.52726e+2, -491799.47, -592889.3, -10554.412, -0.0029841557, -0.05138898, -490709.28, -27428.916 
6.352443e+2, 2.6271412e+2, -404663.72, -510995.22, -9351.885, -0.003156395, -0.050350796, -403847.47, -38450.73 
6.3525325e+2, 2.7270186e+2, -310762.63, -414047.9, -8935.301, -0.003637461, -0.0489924, -309995.34, -42478.535 
6.352625e+2, 2.8268868e+2, -230797.08, -346207.53, -6108.28, -0.0041072466, -0.048128963, -230474.69, -60828.758 
6.352721e+2, 2.9267442e+2, -137636.97, -251380.27, -5736.2173, -0.0044587855, -0.051851276, -137348.42, -65562.555 
6.352821e+2, 3.0266422e+2, -32671.84, -79673.766, -2656.0842, -0.004699169, -0.052336678, -32522.22, -32522.22 
6.3529253e+2, 3.1265897e+2, -32939.957, -74605.65, -2161.8254, -0.0049880026, -0.04913551, -32828.09, -32828.09 
6.4512676e+2, 1.22822165e+2, -1655474.8, -1734690.0, 1341.5974, 0.0072745844, -0.05802454, -1655452.0, 80886.01 
6.451358e+2, 1.3281703e+2, -1568713.0, -1655327.6, -5011.484, -0.010033757, -0.025084058, -1568424.0, 69964.305 
6.4514506e+2, 1.428107e+2, -1479329.9, -1569318.9, -5324.6514, 0.008302993, -0.07055258, -1479016.0, 61434.336 
6.451544e+2, 1.5280469e+2, -1387189.1, -1473955.3, -4837.009, 0.0021711427, -0.05292529, -1386920.3, 55588.887 
6.451634e+2, 1.6279809e+2, -1301689.0, -1393053.8, -7663.7188, -0.0020389576, -0.041526478, -1301050.6, 43523.18 
6.4517206e+2, 1.7279093e+2, -1207373.5, -1296184.8, -8289.6045, 0.0013335388, -0.04872191, -1206606.4, 40037.813 
6.4518046e+2, 1.8278319e+2, -1121947.6, -1216936.3, -9850.94, 0.0027008096, -0.052479777, -1120936.9, 27783.027 
6.4518875e+2, 1.92775e+2, -1029424.44, -1121393.5, -10003.65, -0.0013883635, -0.051233776, -1028348.9, 22451.352 
6.4519686e+2, 2.0276624e+2, -944482.5, -1041680.56, -10693.801, -0.0035608658, -0.049368303, -943319.9, 9566.1875 
6.4520496e+2, 2.1275699e+2, -851327.25, -945585.44, -10507.769, -0.0009673003, -0.049268264, -850170.06, 4806.6694 
6.45213e+2, 2.227472e+2, -765373.44, -864640.1, -10513.462, 0.00027504767, -0.048586994, -764272.1, -7199.6694 
6.45221e+2, 2.32737e+2, -671539.9, -767979.2, -10897.4375, -0.0019095566, -0.049774475, -670323.8, -11151.359 
6.452291e+2, 2.427262e+2, -586704.56, -689405.3, -10095.775, -0.003345604, -0.04990238, -585721.5, -24443.316 
6.4523745e+2, 2.5271487e+2, -494312.38, -593900.94, -9647.853, -0.002799817, -0.05055699, -493386.34, -29996.904 
6.452459e+2, 2.6270303e+2, -408185.94, -512186.97, -8031.598, -0.0027602194, -0.049709264, -407569.34, -42063.816 
6.452545e+2, 2.7269083e+2, -313640.16, -414878.34, -8039.67, -0.004100702, -0.04908229, -313005.7, -45380.53 
6.4526343e+2, 2.826777e+2, -233441.97, -346684.72, -5621.6445, -0.0047441954, -0.04838242, -233163.58, -63409.883 
6.452728e+2, 2.926635e+2, -141559.7, -252443.13, -5139.5776, -0.0035959429, -0.050881658, -141321.98, -69429.19 
6.4528245e+2, 3.026534e+2, -37444.863, -80992.95, -1658.2131, -0.0035121003, -0.0509612, -37381.813, -37381.813 
6.452926e+2, 3.1264824e+2, -37760.375, -75944.64, -1215.4934, -0.0063874414, -0.049410995, -37721.723, -37721.723 
6.5513295e+2, 1.2281199e+2, -1655168.5, -1734210.5, 151.4065, 0.0062944912, -0.060575053, -1655168.1, 81269.55 
6.551417e+2, 1.3280663e+2, -1570889.9, -1659925.5, -5634.946, -0.010540961, -0.022483543, -1570534.6, 67955.62 
6.5515083e+2, 1.4280014e+2, -1479753.9, -1570304.4, -6653.064, 0.010023042, -0.06094894, -1479267.6, 61286.176 
6.551597e+2, 1.5279402e+2, -1387121.8, -1473958.0, -6357.1816, 0.002880697, -0.054563552, -1386658.9, 55954.89 
6.5516835e+2, 1.6278733e+2, -1302180.9, -1394201.4, -8783.576, -0.0025920991, -0.048948247, -1301349.9, 43329.332 
6.5517664e+2, 1.7278014e+2, -1208081.5, -1297720.0, -9280.482, -0.0007970086, -0.04834859, -1207130.8, 39619.11 
6.551848e+2, 1.8277237e+2, -1122256.4, -1217606.0, -11159.912, 0.00059738365, -0.047286388, -1120967.6, 27858.324 
6.551927e+2, 1.927641e+2, -1029627.9, -1121863.3, -11393.158, 0.00018034452, -0.048920594, -1028241.44, 22665.563 
6.552004e+2, 2.0275533e+2, -944142.0, -1041028.5, -11979.694, -0.00044534545, -0.049764603, -942682.7, 10310.348 
6.552081e+2, 2.1274611e+2, -850875.2, -944672.1, -11769.108, -0.001313207, -0.051361784, -849421.0, 5662.2363 
6.5521586e+2, 2.2273636e+2, -765786.94, -865476.06, -11672.569, -0.002168253, -0.050895307, -764438.44, -7259.5806 
6.5522355e+2, 2.3272608e+2, -672253.94, -769389.4, -12005.353, -0.002944369, -0.049025323, -670792.1, -11512.632 
6.5523136e+2, 2.4271528e+2, -586324.5, -688522.94, -11431.835, -0.0032634537, -0.047162134, -585061.3, -23675.932 
6.552393e+2, 2.5270402e+2, -493623.13, -592393.06, -11061.572, -0.0025165454, -0.048550162, -492399.44, -28903.746 
6.552474e+2, 2.6269224e+2, -408115.47, -511942.38, -9095.823, -0.0025483689, -0.048963945, -407324.66, -41713.47 
6.5525573e+2, 2.7268e+2, -313837.78, -415094.03, -8989.097, -0.004516774, -0.050557703, -313045.94, -45314.855 
6.552643e+2, 2.826669e+2, -233075.2, -345666.6, -6885.078, -0.0051648594, -0.050017282, -232655.73, -62796.297 
6.5527326e+2, 2.9265288e+2, -141018.97, -251092.69, -6510.1846, -0.0025085039, -0.047840733, -140635.27, -68638.086 
6.552826e+2, 3.0264285e+2, -37042.168, -79912.32, -2577.8806, -0.002224481, -0.046303507, -36887.71, -36887.71 
6.5529245e+2, 3.126377e+2, -37503.098, -75035.33, -1996.9517, -0.008112296, -0.050707534, -37397.145, -37397.145 
6.6513926e+2, 1.22802116e+2, -1649088.4, -1730765.6, 564.1104, 0.006034238, -0.058256436, -1649084.5, 87450.055 
6.651479e+2, 1.3279648e+2, -1568089.8, -1661168.6, -4119.024, -0.011041394, -0.027017497, -1567907.8, 70681.96 
6.6515666e+2, 1.427899e+2, -1476548.4, -1569677.1, -5310.345, 0.010772962, -0.05810954, -1476246.6, 64407.664 
6.651652e+2, 1.5278372e+2, -1382904.1, -1472397.4, -5426.5522, 0.0034798281, -0.05304944, -1382576.4, 60138.453 
6.651734e+2, 1.6277696e+2, -1298291.0, -1393084.1, -7930.9277, -0.0023978965, -0.048757263, -1297632.1, 47148.816 
6.651814e+2, 1.7276967e+2, -1206493.9, -1297843.6, -8230.514, -0.0014712213, -0.048809163, -1205758.3, 41094.13 
6.6518915e+2, 1.8276186e+2, -1121724.6, -1217666.1, -9969.969, -0.00029375032, -0.047885224, -1120699.5, 28229.47 
6.6519666e+2, 1.9275358e+2, -1028502.75, -1121510.6, -10097.695, 0.00051929266, -0.04854615, -1027419.06, 23591.04 
6.652041e+2, 2.0274478e+2, -942870.4, -1040594.2, -10840.262, 0.00043052647, -0.048765354, -941682.3, 11413.957 
6.6521144e+2, 2.1273556e+2, -850490.4, -944707.7, -11212.817, -0.0016012058, -0.050623357, -849174.3, 6012.359 
6.652188e+2, 2.2272578e+2, -766249.25, -865707.44, -11252.6455, -0.003011586, -0.05051009, -764992.06, -7709.6426 
6.652261e+2, 2.3271552e+2, -673888.06, -770167.8, -10923.753, -0.0028846995, -0.04914971, -672664.2, -13281.119 
6.652335e+2, 2.4270473e+2, -588376.3, -689151.94, -10061.119, -0.0027621342, -0.04749764, -587381.7, -25892.83 
6.65241e+2, 2.526935e+2, -495024.66, -592644.7, -10152.132, -0.002764778, -0.04837173, -493980.06, -30381.334 
6.6524875e+2, 2.6268178e+2, -409625.44, -512153.06, -8355.36, -0.003102971, -0.048479356, -408949.0, -43235.24 
6.652568e+2, 2.7266958e+2, -317408.13, -416314.94, -7877.2407, -0.0042723566, -0.05029347, -316784.7, -48951.473 
6.65265e+2, 2.8265655e+2, -237751.22, -347316.56, -5571.0796, -0.0047423975, -0.049930174, -237468.69, -67507.586 
6.6527355e+2, 2.9264253e+2, -144691.73, -252269.2, -5490.891, -0.0034378697, -0.047802184, -144412.19, -72313.875 
6.652826e+2, 3.0263263e+2, -40403.668, -80553.45, -1661.2819, -0.0033501163, -0.046119735, -40335.047, -40335.047 
6.6529214e+2, 3.1262752e+2, -43146.08, -76701.766, -924.07513, -0.0066163624, -0.049892467, -43120.65, -43120.65 
6.751458e+2, 1.2279252e+2, -1648612.9, -1729920.8, -986.9422, 0.006385123, -0.051131748, -1648600.9, 88027.69 
6.751541e+2, 1.3278657e+2, -1569099.6, -1663395.5, -5069.9478, -0.011548165, -0.03829077, -1568827.9, 69858.95 
6.751627e+2, 1.4277993e+2, -1477138.1, -1571040.5, -6544.5195, 0.010577252, -0.061667867, -1476684.3, 64067.637 
6.7517084e+2, 1.5277374e+2, -1383419.8, -1473573.9, -6729.873, 0.003946776, -0.048618414, -1382920.1, 59892.375 
6.7517865e+2, 1.6276695e+2, -1298652.1, -1393914.8, -9461.002, -0.0015466514, -0.04145281, -1297721.5, 47157.54 
6.751862e+2, 1.7275952e+2, -1206821.9, -1298626.8, -9812.059, -0.0008101188, -0.050028056, -1205784.9, 41167.04 
6.7519355e+2, 1.8275161e+2, -1121743.8, -1217806.1, -11285.638, -0.000092011236, -0.0538797, -1120435.6, 28593.629 
6.752007e+2, 1.9274339e+2, -1028489.75, -1121535.5, -11332.221, -0.00028833692, -0.04997998, -1027129.5, 23980.516 
6.7520773e+2, 2.027346e+2, -943370.2, -1041635.75, -12272.48, -0.00080630893, -0.046487432, -941860.6, 11335.479 
6.7521465e+2, 2.127253e+2, -851161.56, -946099.94, -12685.244, -0.001856702, -0.04728371, -849495.8, 5791.531 
6.7522156e+2, 2.2271548e+2, -765897.06, -864974.3, -12674.484, -0.0024166987, -0.04764455, -764301.4, -6917.8296 
6.7522854e+2, 2.3270527e+2, -673275.9, -768872.94, -12337.268, -0.0018309719, -0.050062146, -671709.4, -12225.71 
6.7523557e+2, 2.426945e+2, -588376.7, -689087.4, -11339.203, -0.001894132, -0.05063481, -587115.8, -25526.748 
6.752427e+2, 2.5268328e+2, -495263.1, -593015.75, -11380.129, -0.0035049599, -0.04986327, -493955.75, -30256.752 
6.7525005e+2, 2.6267156e+2, -409227.97, -511165.16, -9795.388, -0.0043765227, -0.04823079, -408295.25, -42481.516 
6.752577e+2, 2.7265948e+2, -316840.1, -414972.72, -9387.99, -0.003457328, -0.04846246, -315950.03, -48017.895 
6.7526555e+2, 2.826465e+2, -237615.98, -346848.06, -6745.416, -0.0035809055, -0.04828407, -237201.02, -67141.72 
6.752737e+2, 2.9263252e+2, -144759.03, -252146.16, -6557.1553, -0.0061965105, -0.050449144, -144360.13, -72163.37 
6.752824e+2, 3.026226e+2, -39945.17, -79276.086, -2983.6533, -0.0066881925, -0.049955513, -39720.117, -39720.117 
6.752916e+2, 3.1261772e+2, -42555.992, -75120.39, -2334.146, -0.0023343386, -0.047223113, -42389.535, -42389.535 
6.8515253e+2, 1.22783236e+2, -1643983.9, -1727810.5, 21.423185, 0.0068034725, -0.04829092, -1643983.9, 92735.75 
6.851606e+2, 1.3277707e+2, -1564763.4, -1662708.4, -3346.4563, -0.011563052, -0.045179255, -1564649.3, 74130.65 
6.851688e+2, 1.4277044e+2, -1472700.0, -1569942.0, -5221.9424, 0.010180043, -0.056749653, -1472420.4, 68424.51 
6.8517655e+2, 1.5276413e+2, -1380547.9, -1473173.1, -5596.5713, 0.0035658528, -0.047589142, -1380210.9, 62695.87 
6.85184e+2, 1.6275725e+2, -1296511.1, -1393464.8, -8343.463, -0.0016693443, -0.042887222, -1295798.4, 49176.02 
6.851911e+2, 1.7274979e+2, -1204150.1, -1297845.4, -8631.479, -0.00018173982, -0.04938458, -1203361.6, 43685.78 
6.8519807e+2, 1.8274185e+2, -1119104.5, -1216915.8, -10101.477, 0.0006778209, -0.05215924, -1118072.1, 31052.912 
6.8520474e+2, 1.9273357e+2, -1027434.8, -1121422.9, -10367.679, -0.0008171629, -0.049889807, -1026304.8, 24901.465 
6.852114e+2, 2.0272474e+2, -943372.0, -1041887.94, -11355.2705, -0.0018942524, -0.047351185, -942080.1, 11212.62 
6.85218e+2, 2.1271542e+2, -851239.6, -946389.0, -11286.189, -0.0017510956, -0.047324907, -849919.2, 5464.9043 
6.852244e+2, 2.2270562e+2, -765902.8, -864815.1, -11074.902, -0.0016349566, -0.0470258, -764677.94, -7197.6406 
6.85231e+2, 2.3269542e+2, -673773.56, -768873.2, -11199.141, -0.0017537032, -0.049322143, -672472.56, -12892.344 
6.852376e+2, 2.4268468e+2, -589679.2, -689535.75, -10411.243, -0.0023029435, -0.050027758, -588605.25, -26919.896 
6.852443e+2, 2.5267345e+2, -497862.6, -594153.4, -10226.478, -0.0037962007, -0.049910627, -496788.5, -32993.25 
6.852513e+2, 2.6266178e+2, -412332.47, -512075.0, -8599.182, -0.0044529354, -0.048505127, -411596.53, -45686.813 
6.852585e+2, 2.726498e+2, -319600.5, -415615.8, -8440.427, -0.0031625447, -0.04792897, -318864.2, -50836.727 
6.8526596e+2, 2.8263688e+2, -240555.92, -347573.78, -5731.402, -0.0032228858, -0.047441576, -240249.86, -70095.91 
6.8527377e+2, 2.926229e+2, -149074.95, -253578.05, -5219.469, -0.006505263, -0.05053955, -148814.9, -76524.01 
6.85282e+2, 3.0261308e+2, -44975.883, -80551.33, -1575.0924, -0.007248849, -0.050542913, -44906.28, -44906.28 
6.852908e+2, 3.126083e+2, -47718.883, -76352.05, -1003.0687, -0.0021204439, -0.047198955, -47683.79, -47683.79 
6.9515944e+2, 1.22774236e+2, -1644419.4, -1728898.8, -1410.0922, 0.007219122, -0.04950759, -1644395.8, 92411.95 
6.9516724e+2, 1.3276796e+2, -1565394.3, -1664159.4, -4151.1895, -0.011135625, -0.047989734, -1565220.1, 73649.14 
6.951752e+2, 1.427614e+2, -1473290.1, -1571279.8, -6752.5815, 0.009558039, -0.043888766, -1472827.0, 68106.67 
6.9518244e+2, 1.5275484e+2, -1381141.9, -1474529.5, -7320.4463, 0.0023717044, -0.04971566, -1380571.5, 62426.36 
6.951894e+2, 1.6274779e+2, -1296771.9, -1394125.0, -9844.447, -0.002737319, -0.05249474, -1295786.4, 49280.555 
6.951961e+2, 1.7274041e+2, -1204356.6, -1298369.4, -10059.615, 0.00038652864, -0.04705225, -1203292.3, 43846.984 
6.952027e+2, 1.8273251e+2, -1119463.1, -1217724.1, -11707.858, 0.0019253605, -0.043310523, -1118087.4, 31129.36 
6.952089e+2, 1.927241e+2, -1027870.7, -1122377.4, -12013.204, -0.0011067542, -0.04837873, -1026367.56, 24931.686 
6.952151e+2, 2.0271517e+2, -943193.44, -1041551.94, -12873.173, -0.0028859188, -0.051111568, -941536.5, 11850.016 
6.952212e+2, 2.127059e+2, -850918.56, -945736.0, -12765.185, -0.001328537, -0.050472274, -849230.06, 6247.321 
6.9522727e+2, 2.2269614e+2, -766041.56, -865083.7, -12617.259, -0.00070838066, -0.048474126, -764459.5, -6886.314 
6.952334e+2, 2.3268592e+2, -674092.06, -769479.5, -12750.382, -0.0025777868, -0.047086213, -672417.1, -12743.942 
6.9523954e+2, 2.426752e+2, -589551.4, -689187.5, -11966.128, -0.003903902, -0.046003185, -588134.44, -26356.096 
6.9524586e+2, 2.52664e+2, -497635.53, -593583.06, -11779.109, -0.0036986775, -0.04863686, -496210.63, -32322.557 
6.9525236e+2, 2.6265234e+2, -412154.9, -511580.06, -10039.199, -0.0034599777, -0.04924406, -411151.34, -45149.023 
6.9525915e+2, 2.7264035e+2, -319489.66, -415212.22, -9846.644, -0.0033512567, -0.048568174, -318487.25, -50367.52 
6.952662e+2, 2.826275e+2, -240098.81, -346398.8, -7151.4077, -0.0036248493, -0.04733004, -239619.86, -69374.22 
6.9527364e+2, 2.9261366e+2, -148566.06, -252235.11, -6650.082, -0.0046526277, -0.048337262, -148141.22, -75759.766 
6.952815e+2, 3.0260393e+2, -44408.977, -79047.89, -3019.6392, -0.0053525562, -0.048207935, -44147.71, -44147.71 
6.952898e+2, 3.125992e+2, -47153.88, -74854.18, -2462.9265, -0.005571605, -0.049509473, -46936.598, -46936.598 
7.051666e+2, 1.2276566e+2, -1638573.5, -1727834.8, -365.10284, 0.006684217, -0.04659743, -1638572.0, 98319.87 
7.051741e+2, 1.327592e+2, -1560806.6, -1662895.1, -2516.2637, -0.010301808, -0.054958466, -1560744.6, 78210.56 
7.0518166e+2, 1.4275268e+2, -1469816.1, -1570318.6, -5516.966, 0.0096624745, -0.038488306, -1469514.3, 71504.92 
7.051884e+2, 1.5274602e+2, -1377677.9, -1473545.6, -6014.0767, 0.0022859639, -0.048418913, -1377302.0, 65782.35 
7.0519495e+2, 1.6273887e+2, -1293547.0, -1393194.5, -8317.403, -0.0029698494, -0.05408284, -1292857.5, 52296.72 
7.052012e+2, 1.7273146e+2, -1202107.9, -1297943.8, -8645.969, 0.00003328079, -0.047476765, -1201334.1, 45892.918 
7.0520735e+2, 1.827235e+2, -1117943.1, -1217494.5, -10493.738, 0.0016740689, -0.042746227, -1116849.0, 32455.924 
7.052131e+2, 1.9271505e+2, -1026853.1, -1122390.4, -10698.51, -0.00076726585, -0.04753696, -1025669.75, 25718.158 
7.0521885e+2, 2.0270611e+2, -942378.56, -1041152.06, -11423.0625, -0.0023430223, -0.050234646, -941074.7, 12400.676 
7.052245e+2, 2.1269684e+2, -850652.5, -945497.7, -11521.154, -0.0015524089, -0.050095577, -849273.06, 6293.1455 
7.052301e+2, 2.2268707e+2, -766565.1, -865420.1, -11583.926, -0.0013485859, -0.048436727, -765225.8, -7563.8433 
7.052357e+2, 2.3267686e+2, -675477.1, -770336.3, -11592.48, -0.0027781276, -0.04695205, -674081.0, -14318.873 
7.0524144e+2, 2.4266614e+2, -591186.2, -689568.7, -10629.394, -0.0037070115, -0.0456547, -590050.9, -28183.637 
7.0524734e+2, 2.5265497e+2, -499414.84, -593898.25, -10379.464, -0.0033169545, -0.047856167, -498288.03, -34311.617 
7.052534e+2, 2.6264337e+2, -414400.8, -512221.3, -8566.286, -0.0032284125, -0.048458748, -413656.3, -47566.12 
7.052597e+2, 2.726314e+2, -322620.88, -416355.84, -8361.32, -0.004035253, -0.048792645, -321880.88, -53673.52 
7.052663e+2, 2.826186e+2, -243850.16, -347410.22, -5732.083, -0.0044205585, -0.04790201, -243533.86, -73201.04 
7.0527333e+2, 2.9260486e+2, -153232.83, -253598.67, -5379.9863, -0.003610117, -0.04759799, -152945.27, -80477.54 
7.052807e+2, 3.0259526e+2, -49511.535, -80459.71, -1736.5947, -0.0038684248, -0.046933863, -49414.395, -49414.395 
7.052886e+2, 3.125906e+2, -51773.332, -76033.22, -1266.9774, -0.007112744, -0.04971901, -51707.344, -51707.344 
7.151739e+2, 1.2275748e+2, -1640153.6, -1731256.9, -2158.7698, 0.0051936326, -0.03984009, -1640102.5, 96869.58 
7.151811e+2, 1.3275075e+2, -1561213.0, -1663907.9, -3776.542, -0.009109001, -0.06580534, -1561074.4, 77963.68 
7.151882e+2, 1.4274426e+2, -1469989.9, -1570839.0, -7124.7744, 0.010407441, -0.0400745, -1469489.1, 71612.59 
7.151946e+2, 1.5273763e+2, -1377820.8, -1473982.4, -7720.159, 0.0032066265, -0.043976862, -1377205.0, 65961.75 
7.152006e+2, 1.6273046e+2, -1293944.3, -1394123.1, -10013.74, -0.002459315, -0.048242893, -1292953.1, 52283.703 
7.1520644e+2, 1.7272288e+2, -1202623.5, -1299092.3, -10319.388, -0.001190502, -0.050432913, -1201531.9, 45779.258 
7.1521205e+2, 1.8271482e+2, -1118153.8, -1217991.8, -12240.222, -0.0000067748665, -0.04985307, -1116675.0, 32715.105 
7.1521735e+2, 1.927064e+2, -1026989.25, -1122748.3, -12457.002, 0.00012797747, -0.047339987, -1025395.25, 26077.396 
7.152226e+2, 2.026975e+2, -942478.3, -1041421.0, -13082.619, -0.00042887017, -0.045119382, -940777.75, 12782.221 
7.152278e+2, 2.126882e+2, -850809.4, -945820.9, -13146.418, -0.002380288, -0.046494737, -849023.94, 6627.1953 
7.152329e+2, 2.2267838e+2, -766580.3, -865404.7, -13307.368, -0.003456045, -0.047036912, -764819.75, -7072.549 
7.1523803e+2, 2.3266813e+2, -675463.56, -770273.2, -13335.054, -0.0024283528, -0.048727617, -673623.7, -13776.093 
7.1524334e+2, 2.4265742e+2, -590884.5, -688898.7, -12259.09, -0.0018956686, -0.04865401, -589374.44, -27421.91 
7.152487e+2, 2.526464e+2, -499088.53, -593118.6, -11981.599, -0.0026857932, -0.04753307, -497585.8, -33524.918 
7.152543e+2, 2.626348e+2, -414200.78, -511646.72, -10193.91, -0.0037060007, -0.04629402, -413145.8, -46971.797 
7.1526015e+2, 2.7262288e+2, -322501.6, -415911.84, -9989.987, -0.005188662, -0.048632316, -321445.16, -53154.125 
7.152663e+2, 2.8261012e+2, -243576.7, -346614.8, -7395.0776, -0.005599737, -0.049077637, -243048.67, -72632.51 
7.152728e+2, 2.925964e+2, -152944.25, -252755.14, -7057.8496, -0.0033169338, -0.048164602, -152447.66, -79897.234 
7.1527976e+2, 3.0258688e+2, -49139.906, -79400.32, -3119.2769, -0.0027958849, -0.046613287, -48821.715, -48821.715 
7.152872e+2, 3.1258234e+2, -51469.98, -74994.5, -2558.9143, -0.007002489, -0.048049867, -51194.85, -51194.85 
7.251815e+2, 1.2274967e+2, -1635639.9, -1731656.3, -959.08746, 0.0055905906, -0.037135944, -1635630.4, 101418.24 
7.251883e+2, 1.3274284e+2, -1555404.9, -1660981.9, -1601.9547, -0.008367049, -0.071274444, -1555380.6, 83734.875 
7.25195e+2, 1.4273642e+2, -1465379.8, -1569385.6, -5106.517, 0.008978271, -0.036586307, -1465129.6, 76048.85 
7.252009e+2, 1.5272968e+2, -1374386.6, -1473401.8, -6257.622, 0.0032660586, -0.042280592, -1373992.8, 69251.78 
7.2520643e+2, 1.6272242e+2, -1291169.1, -1393374.1, -8790.07, -0.0015688882, -0.04806885, -1290418.8, 54896.934 
7.2521174e+2, 1.727148e+2, -1200727.9, -1298675.6, -8862.11, -0.0012761093, -0.05025695, -1199932.5, 47457.86 
7.252168e+2, 1.8270671e+2, -1116666.1, -1217530.1, -10552.326, -0.00066874165, -0.04959944, -1115574.0, 33895.617 
7.252217e+2, 1.9269827e+2, -1025200.56, -1122117.0, -10715.521, -0.000087465756, -0.04700997, -1024029.94, 27522.46 
7.2522646e+2, 2.0268935e+2, -941073.94, -1041110.0, -11490.339, -0.00028331747, -0.044679783, -939771.1, 13868.794 
7.2523105e+2, 2.1268e+2, -851184.8, -946461.75, -11724.873, -0.0021827877, -0.045864154, -849763.1, 5968.3 
7.252357e+2, 2.2267018e+2, -767621.7, -865646.4, -11781.452, -0.0032792448, -0.046381336, -766225.56, -8397.929 
7.2524035e+2, 2.3265997e+2, -676022.6, -770111.44, -11550.243, -0.0024705064, -0.048434585, -674625.44, -14697.793 
7.252451e+2, 2.4264929e+2, -591707.56, -689147.8, -10505.134, -0.002080837, -0.0486667, -590587.9, -28555.535 
7.2525e+2, 2.5263822e+2, -501283.4, -594163.75, -10622.953, -0.0028436885, -0.047703393, -500083.9, -35943.215 
7.2525513e+2, 2.626267e+2, -417128.66, -512455.63, -8986.146, -0.0036777756, -0.046303257, -416288.94, -50035.395 
7.2526044e+2, 2.7261484e+2, -325914.78, -416817.88, -8569.915, -0.0046286373, -0.047734126, -325113.9, -56744.08 
7.252661e+2, 2.8260213e+2, -247394.08, -347731.66, -5813.5923, -0.0051053376, -0.047929853, -247058.36, -76564.09 
7.252721e+2, 2.925885e+2, -156825.22, -253953.2, -5497.9097, -0.004348506, -0.048404645, -156515.0, -83886.95 
7.2527856e+2, 3.0257905e+2, -53358.344, -80271.18, -1455.8129, -0.0041689915, -0.047315326, -53279.82, -53279.82 
7.2528565e+2, 3.1257463e+2, -57730.19, -76744.34, -672.4945, -0.005709032, -0.04684502, -57706.434, -57706.434 
7.351893e+2, 1.22742236e+2, -1637133.3, -1734948.8, -2758.0076, 0.0076924516, -0.03838208, -1637055.5, 100065.95 
7.351957e+2, 1.3273546e+2, -1554699.1, -1659702.1, -2978.5425, -0.0080570895, -0.07175853, -1554614.8, 84573.16 
7.3520195e+2, 1.4272915e+2, -1466016.6, -1570819.0, -6946.361, 0.0055001257, -0.028399313, -1465558.3, 75691.625 
7.3520726e+2, 1.5272215e+2, -1375428.0, -1475673.1, -8204.461, 0.0024999373, -0.043120924, -1374761.0, 68557.414 
7.3521227e+2, 1.6271475e+2, -1291395.9, -1393965.1, -10703.46, -0.00036970453, -0.053157087, -1290290.9, 55100.125 
7.352171e+2, 1.7270719e+2, -1200740.5, -1298829.0, -10761.288, -0.0003396838, -0.047228854, -1199573.8, 47891.418 
7.352217e+2, 1.8269911e+2, -1116691.6, -1217681.8, -12281.896, -0.00043932657, -0.042600032, -1115219.4, 34324.69 
7.3522604e+2, 1.926906e+2, -1025303.2, -1122357.0, -12384.511, -0.0013360069, -0.046548158, -1023747.75, 27879.816 
7.3523027e+2, 2.026816e+2, -941405.06, -1041779.44, -13485.764, -0.0018049736, -0.048530396, -939624.75, 14090.963 
7.352344e+2, 2.1267222e+2, -851574.2, -947302.25, -13799.607, -0.0010728213, -0.047959447, -849624.6, 6183.063 
7.352385e+2, 2.226624e+2, -767292.7, -865008.1, -13502.607, -0.0010498841, -0.046417367, -765461.2, -7557.2705 
7.352426e+2, 2.3265228e+2, -675567.06, -769117.0, -13175.671, -0.0028779856, -0.0462727, -673746.75, -13743.712 
7.352469e+2, 2.4264164e+2, -591903.0, -689430.94, -12385.681, -0.004110236, -0.045964997, -590354.6, -28247.334 
7.3525125e+2, 2.526305e+2, -501688.0, -594890.94, -12560.446, -0.00373558, -0.048312366, -500024.97, -35808.53 
7.352558e+2, 2.62619e+2, -416747.8, -511549.28, -10776.668, -0.0032144894, -0.048279833, -415538.2, -49208.72 
7.352606e+2, 2.7260724e+2, -325347.38, -415478.22, -10327.039, -0.0025426175, -0.04617901, -324179.28, -55734.746 
7.352658e+2, 2.8259462e+2, -247039.02, -346774.6, -7507.94, -0.003129485, -0.04469371, -246477.0, -75909.04 
7.352713e+2, 2.9258102e+2, -156602.84, -253195.78, -7171.907, -0.0065902323, -0.048326287, -156073.23, -83371.8 
7.3527724e+2, 3.0257162e+2, -52686.367, -78534.75, -3275.4402, -0.00777567, -0.04890359, -52277.773, -52277.773 
7.352838e+2, 3.1256738e+2, -56930.625, -74753.016, -2551.7053, -0.003405059, -0.04603594, -56572.484, -56572.484 
7.451974e+2, 1.2273535e+2, -1631633.3, -1735539.0, -991.705, 0.0069588115, -0.03734074, -1631623.9, 105565.13 
7.452033e+2, 1.3272856e+2, -1549035.0, -1656525.5, -1240.7012, -0.0064670006, -0.07272109, -1549020.8, 90234.89 
7.4520904e+2, 1.427223e+2, -1462560.3, -1569644.8, -5508.654, 0.0049000797, -0.025811564, -1462277.6, 79039.53 
7.452138e+2, 1.527152e+2, -1372329.1, -1474976.9, -6261.259, 0.0017878168, -0.04275809, -1371948.5, 71437.94 
7.4521834e+2, 1.6270772e+2, -1288336.6, -1393170.4, -8429.751, -0.0008156117, -0.053924356, -1287663.1, 57796.74 
7.452225e+2, 1.7270012e+2, -1197817.9, -1298112.9, -8809.354, 0.00012291789, -0.04621567, -1197050.0, 50484.44 
7.452266e+2, 1.82692e+2, -1114320.9, -1216992.5, -10668.737, 0.00036931725, -0.040704805, -1113224.0, 36389.914 
7.4523044e+2, 1.9268344e+2, -1024964.56, -1122632.4, -10946.301, -0.0015388386, -0.046080828, -1023752.75, 27945.066 
7.4523413e+2, 2.026744e+2, -941845.1, -1041972.06, -11985.393, -0.002540138, -0.048930753, -940430.44, 13355.82 
7.4523765e+2, 2.1266504e+2, -850676.8, -946755.9, -11829.342, -0.0011763703, -0.04774917, -849241.8, 6636.236 
7.452412e+2, 2.2265522e+2, -766300.3, -864670.9, -11449.137, -0.00070005335, -0.04572427, -764985.4, -7011.179 
7.452448e+2, 2.326451e+2, -676976.8, -770072.2, -11771.113, -0.0026315725, -0.045542397, -675511.5, -15437.919 
7.4524856e+2, 2.4263446e+2, -594464.4, -690286.5, -11196.638, -0.0039906115, -0.045194726, -593173.5, -30995.66 
7.452524e+2, 2.5262338e+2, -503741.25, -595345.44, -10729.755, -0.0037839457, -0.04743159, -502501.25, -38214.777 
7.452564e+2, 2.6261187e+2, -418718.38, -511986.75, -8597.828, -0.0034085591, -0.04750695, -417932.4, -51533.4 
7.4526066e+2, 2.726002e+2, -328181.88, -416387.7, -8511.023, -0.0028367427, -0.046053715, -327368.13, -58854.434 
7.452653e+2, 2.8258765e+2, -250700.2, -347810.66, -5926.992, -0.0032104386, -0.04475759, -250339.8, -79703.164 
7.4527025e+2, 2.925741e+2, -161530.72, -254803.86, -5538.1187, -0.005741558, -0.047444053, -161203.03, -88433.69 
7.452757e+2, 3.025648e+2, -58126.168, -80054.65, -1613.0278, -0.006916483, -0.04775788, -58008.152, -58008.152 
7.452817e+2, 3.1256062e+2, -61682.3, -75888.234, -1158.8024, -0.0047587496, -0.04638125, -61588.395, -61588.395 
7.552057e+2, 1.22728996e+2, -1634006.5, -1740628.0, -3174.452, 0.0035448752, -0.034330055, -1633912.0, 103339.35 
7.552111e+2, 1.3272211e+2, -1548957.9, -1656558.9, -3178.6597, -0.0037240512, -0.07411671, -1548864.1, 90454.77 
7.552163e+2, 1.4271583e+2, -1462424.3, -1569524.8, -7470.813, 0.006920705, -0.028405398, -1461905.6, 79474.836 
7.5522053e+2, 1.5270878e+2, -1372199.5, -1474855.8, -8228.878, 0.0011091626, -0.04131418, -1371544.1, 71905.36 
7.552244e+2, 1.627013e+2, -1288826.1, -1394296.0, -10384.376, -0.002812573, -0.05074242, -1287813.4, 57709.418 
7.5522816e+2, 1.7269354e+2, -1198536.1, -1299683.5, -10731.935, 0.00012367367, -0.047050275, -1197410.0, 50188.88 
7.552316e+2, 1.8268532e+2, -1114760.0, -1217966.5, -12806.151, 0.0016586838, -0.043507837, -1113194.8, 36484.707 
7.5523484e+2, 1.9267672e+2, -1025330.5, -1123480.1, -13135.233, -0.00080318924, -0.04562939, -1023603.06, 28160.621 
7.5523794e+2, 2.026677e+2, -941479.56, -1041293.25, -13801.255, -0.002603041, -0.04620151, -939606.4, 14245.689 
7.55241e+2, 2.126584e+2, -850175.9, -945707.5, -13538.667, -0.0024002704, -0.04544409, -848294.25, 7648.9907 
7.55244e+2, 2.226486e+2, -766791.56, -865617.06, -13583.691, -0.002100455, -0.044370513, -764958.5, -6919.2437 
7.55247e+2, 2.3263833e+2, -677766.44, -771676.56, -14006.63, -0.0018101432, -0.046114754, -675721.9, -15582.013 
7.552501e+2, 2.4262765e+2, -593912.44, -689118.9, -13080.11, -0.0019494639, -0.046185203, -592148.1, -29903.607 
7.5525343e+2, 2.5261673e+2, -502856.3, -593409.44, -12524.999, -0.0030768265, -0.04521337, -501155.84, -36804.293 
7.552569e+2, 2.6260534e+2, -418616.3, -511604.9, -10542.643, -0.0042143287, -0.044249874, -417436.0, -50972.965 
7.5526065e+2, 2.725936e+2, -328357.22, -416557.03, -10490.289, -0.00529634, -0.047202583, -327126.7, -58548.523 
7.5526464e+2, 2.8258106e+2, -250406.66, -346984.8, -7920.995, -0.005181005, -0.047789752, -249761.33, -79060.23 
7.552691e+2, 2.9256764e+2, -161128.63, -253730.5, -7542.366, -0.0021509773, -0.045843463, -160518.33, -87685.68 
7.55274e+2, 3.0255842e+2, -57790.203, -79070.03, -3355.1545, -0.0020816384, -0.04415217, -57273.734, -57273.734 
7.552794e+2, 3.125543e+2, -61469.016, -75032.664, -2815.817, -0.0094163325, -0.047719356, -60907.684, -60907.684 
7.652142e+2, 1.2272323e+2, -1629149.9, -1741532.8, -1121.069, 0.0031619777, -0.033961065, -1629138.8, 108169.19 
7.652191e+2, 1.3271636e+2, -1542879.8, -1653243.6, -699.8044, -0.0023415925, -0.0723514, -1542875.4, 96499.99 
7.652237e+2, 1.4271003e+2, -1458020.3, -1568041.9, -4993.5503, 0.0056988434, -0.02973534, -1457794.1, 83643.195 
7.652274e+2, 1.5270294e+2, -1368742.5, -1474175.3, -6389.8184, 0.0012298758, -0.040589694, -1368356.8, 75150.13 
7.652307e+2, 1.626954e+2, -1285882.9, -1393443.9, -8898.908, -0.0020394202, -0.04897714, -1285151.5, 60429.31 
7.652338e+2, 1.7268756e+2, -1196497.3, -1299192.3, -8827.447, -0.00039780582, -0.047085546, -1195744.0, 51913.55 
7.6523674e+2, 1.8267931e+2, -1113183.8, -1217598.3, -10615.418, 0.0006220713, -0.044347465, -1112115.4, 37623.035 
7.652393e+2, 1.9267069e+2, -1023308.75, -1122912.6, -10799.631, -0.00043570378, -0.04473594, -1022151.25, 29671.72 
7.6524186e+2, 2.0266163e+2, -939710.44, -1040697.8, -11491.667, -0.0015167535, -0.044343963, -938419.3, 15492.262 
7.652443e+2, 2.126523e+2, -850719.5, -946240.06, -11862.833, -0.0024104496, -0.044644956, -849268.25, 6734.744 
7.6524675e+2, 2.226425e+2, -768407.25, -866224.56, -12168.3125, -0.0027680553, -0.044278312, -766916.3, -8817.135 
7.6524913e+2, 2.3263226e+2, -678299.94, -771673.7, -11729.644, -0.0019615726, -0.045735706, -676849.0, -16649.482 
7.652517e+2, 2.4262162e+2, -594177.56, -688971.0, -10360.694, -0.0016977319, -0.04559561, -593058.4, -30754.521 
7.652544e+2, 2.526107e+2, -504914.03, -594176.5, -10558.333, -0.0028570665, -0.044688173, -503682.16, -39271.434 
7.652573e+2, 2.6259938e+2, -421877.22, -512680.63, -9007.438, -0.0040323483, -0.043774724, -420992.3, -54470.42 
7.6526046e+2, 2.7258766e+2, -331863.97, -417715.0, -8603.333, -0.0051406417, -0.046697352, -331010.28, -62373.734 
7.652639e+2, 2.8257516e+2, -253987.8, -347972.7, -5803.5327, -0.0051805973, -0.04727345, -253630.78, -82871.87 
7.652678e+2, 2.925618e+2, -164865.77, -254776.78, -5506.0654, -0.0026358184, -0.045412324, -164529.83, -91640.03 
7.65272e+2, 3.0255267e+2, -62090.945, -80072.945, -1282.3448, -0.0025849398, -0.043682877, -61999.957, -61999.957 
7.652769e+2, 3.1254864e+2, -67903.586, -77015.3, -533.4725, -0.008731115, -0.046864085, -67872.46, -67872.46 
7.752231e+2, 1.22718e+2, -1630713.3, -1744962.5, -3435.1711, 0.0055230986, -0.03618259, -1630610.1, 106749.08 
7.752273e+2, 1.3271125e+2, -1542288.9, -1652216.4, -2938.1997, -0.0022212907, -0.06769584, -1542210.4, 97215.2 
7.752312e+2, 1.4270486e+2, -1458766.1, -1569728.8, -7173.2573, 0.0014648124, -0.029925711, -1458304.4, 83183.69 
7.7523434e+2, 1.5269761e+2, -1369905.8, -1476721.1, -8518.144, 0.0020461865, -0.040533032, -1369230.8, 74328.516 
7.752371e+2, 1.6268992e+2, -1285989.6, -1393797.4, -11049.525, 0.0012276047, -0.0485279, -1284868.9, 60765.586 
7.752396e+2, 1.726821e+2, -1196332.8, -1298959.3, -10981.76, -0.0014139522, -0.046408314, -1195170.8, 52540.176 
7.752419e+2, 1.8267386e+2, -1113182.5, -1217664.5, -12708.028, -0.00259291, -0.043420058, -1111659.0, 38132.77 
7.752439e+2, 1.9266523e+2, -1023393.75, -1123138.1, -12859.779, -0.0004259469, -0.043444186, -1021762.44, 30113.941 
7.7524585e+2, 2.0265615e+2, -940297.4, -1041940.1, -13758.1455, 0.0005669439, -0.043293893, -938468.06, 15497.376 
7.7524763e+2, 2.1264668e+2, -851485.5, -947856.7, -14168.811, -0.0013359424, -0.04522305, -849445.5, 6612.6094 
7.752494e+2, 2.2263683e+2, -767784.94, -864950.06, -14178.999, -0.0028091602, -0.04534269, -765758.1, -7603.4663 
7.7525127e+2, 2.3262675e+2, -677322.94, -769594.4, -13669.271, -0.003005938, -0.04450364, -675340.56, -15087.149 
7.7525324e+2, 2.4261619e+2, -594425.3, -689375.06, -12572.466, -0.003101841, -0.043579705, -592788.75, -30431.887 
7.752553e+2, 2.526052e+2, -505558.34, -595415.56, -12831.991, -0.003096554, -0.0456932, -503761.78, -39297.004 
7.752576e+2, 2.625938e+2, -421535.5, -511864.9, -11082.0, -0.0029833468, -0.04582172, -420195.78, -53619.402 
7.7526015e+2, 2.7258223e+2, -331287.72, -416338.7, -10624.682, -0.0026477692, -0.04471011, -329980.53, -61290.8 
7.75263e+2, 2.8256986e+2, -253642.03, -347007.88, -7838.5166, -0.0034268233, -0.043559853, -252988.52, -82177.445 
7.7526623e+2, 2.9255652e+2, -164636.61, -254015.6, -7543.8853, -0.0068070083, -0.046009686, -164004.34, -91062.586 
7.752699e+2, 3.0254745e+2, -61482.6, -78490.914, -3475.4297, -0.007934131, -0.04601192, -60799.848, -60799.848 
7.7527416e+2, 3.1254357e+2, -67224.94, -75244.12, -2781.9526, -0.0033215906, -0.044048827, -66354.36, -66354.36 
7.852321e+2, 1.2271347e+2, -1625476.4, -1745069.5, -1147.7911, 0.0052322126, -0.037774693, -1625465.4, 111938.3 
7.8523564e+2, 1.3270676e+2, -1536609.9, -1649404.3, -1049.409, -0.00072944065, -0.061751854, -1536600.1, 102869.47 
7.85239e+2, 1.4270028e+2, -1454637.3, -1568487.8, -5263.0127, 0.0001129237, -0.03140267, -1454394.5, 87138.49 
7.852415e+2, 1.5269294e+2, -1366309.8, -1476020.4, -6003.3076, 0.001475541, -0.0408234, -1365982.3, 77622.72 
7.852436e+2, 1.6268522e+2, -1282663.9, -1392832.8, -8372.786, 0.0013801716, -0.047605697, -1282031.3, 63649.508 
7.852454e+2, 1.7267735e+2, -1193946.0, -1298381.5, -8770.728, -0.0010159987, -0.045022942, -1193214.5, 54543.21 
7.852471e+2, 1.8266906e+2, -1111521.9, -1217183.6, -10747.179, -0.0022531992, -0.042048987, -1110439.8, 39399.2 
7.852485e+2, 1.9266039e+2, -1022375.1, -1122939.1, -10949.29, -0.0008539065, -0.04313146, -1021196.75, 30727.143 
7.852498e+2, 2.0265128e+2, -939656.6, -1041823.5, -11854.363, -0.00014878542, -0.043508135, -938299.25, 15713.97 
7.8525096e+2, 2.1264182e+2, -850829.75, -947752.94, -11685.134, -0.0012103226, -0.044682465, -849440.9, 6665.1074 
7.8525215e+2, 2.2263196e+2, -767416.25, -864681.6, -11416.723, -0.002189077, -0.044299252, -766094.1, -7891.6123 
7.8525335e+2, 2.326219e+2, -678627.44, -770095.8, -11762.694, -0.0028574634, -0.04366306, -677139.0, -16837.8 
7.852547e+2, 2.4261135e+2, -596769.1, -690301.44, -11149.847, -0.003284857, -0.042974826, -595458.3, -33053.77 
7.852561e+2, 2.5260034e+2, -507471.78, -596162.4, -10779.544, -0.0032171856, -0.04533974, -506180.4, -41668.113 
7.8525776e+2, 2.6258898e+2, -423252.66, -512071.0, -8647.271, -0.0029636559, -0.045443278, -422418.6, -55795.035 
7.852597e+2, 2.725775e+2, -334454.9, -417157.22, -8425.78, -0.0023702239, -0.04365922, -333605.2, -64868.94 
7.852619e+2, 2.8256518e+2, -257970.6, -348277.28, -5679.185, -0.0030821487, -0.042297, -257614.84, -86757.97 
7.8526455e+2, 2.925519e+2, -169402.63, -255511.2, -5277.9233, -0.006888903, -0.04567422, -169080.33, -96093.38 
7.852676e+2, 3.025429e+2, -66397.1, -79635.03, -1345.2692, -0.00822303, -0.04610152, -66261.78, -66261.78 
7.8527117e+2, 3.125392e+2, -72563.28, -76508.945, -804.1899, -0.0032212185, -0.043256875, -72405.67, -72405.67 
7.952414e+2, 1.22709565e+2, -1627046.4, -1748490.6, -3642.8657, 0.0024693084, -0.038878188, -1626937.3, 110504.83 
7.952443e+2, 1.3270286e+2, -1536867.6, -1650127.1, -3606.9058, 0.0019859425, -0.054641802, -1536752.9, 102755.0 
7.9524684e+2, 1.4269625e+2, -1454703.0, -1568790.3, -7555.1665, 0.0013559542, -0.034069836, -1454204.9, 87367.75 
7.952486e+2, 1.526889e+2, -1366359.4, -1476254.3, -8208.028, -0.00038259462, -0.04145036, -1365749.6, 77894.88 
7.952502e+2, 1.6268115e+2, -1283216.4, -1394075.3, -10748.108, -0.0013502004, -0.046283465, -1282183.9, 63536.684 
7.952514e+2, 1.7267318e+2, -1194658.6, -1299985.0, -11170.771, 0.0006414161, -0.043006573, -1193487.0, 54311.63 
7.9525244e+2, 1.8266481e+2, -1111799.6, -1217880.9, -13001.173, 0.0012710841, -0.04029919, -1110229.5, 39651.277 
7.9525316e+2, 1.9265608e+2, -1022593.06, -1123445.9, -13150.537, -0.0016940399, -0.04371222, -1020906.56, 31059.713 
7.952539e+2, 2.0264696e+2, -939341.75, -1041173.75, -14129.122, -0.003458178, -0.0448863, -937417.7, 16637.953 
7.9525435e+2, 2.1263757e+2, -850373.7, -946811.25, -13982.726, -0.001960643, -0.04313262, -848387.2, 7760.386 
7.952549e+2, 2.2262774e+2, -767867.8, -865608.94, -13791.654, -0.0010083243, -0.041349813, -765959.06, -7715.224 
7.952554e+2, 2.3261756e+2, -679399.4, -771675.25, -14139.992, -0.0016448203, -0.04317747, -677281.25, -16937.508 
7.952561e+2, 2.4260695e+2, -596390.6, -689467.1, -13322.057, -0.0023935947, -0.043652583, -594521.4, -32073.744 
7.952569e+2, 2.5259608e+2, -506810.2, -594662.4, -12896.974, -0.0032388535, -0.04376311, -504956.0, -40401.8 
7.9525787e+2, 2.625848e+2, -422987.3, -511338.4, -11001.733, -0.0038948557, -0.042875037, -421637.97, -54973.465 
7.952591e+2, 2.7257332e+2, -334327.78, -416729.56, -10854.399, -0.0041091964, -0.043450985, -332921.97, -64144.914 
7.9526067e+2, 2.8256106e+2, -257554.3, -347233.9, -7883.624, -0.004043819, -0.043245677, -256866.53, -85969.234 
7.952627e+2, 2.9254788e+2, -168987.92, -254368.81, -7412.467, -0.0033298912, -0.044501804, -168349.19, -95322.81 
7.952651e+2, 3.02539e+2, -65883.04, -78217.945, -3653.8394, -0.003990125, -0.044166107, -64881.945, -64881.945 
7.9526794e+2, 3.1253535e+2, -72028.34, -75063.67, -3173.7441, -0.007919054, -0.04425941, -70028.06, -70028.06 
8.052509e+2, 1.2270641e+2, -1621985.3, -1747882.4, -942.7962, 0.001845316, -0.039848037, -1621978.3, 115494.82 
8.052531e+2, 1.3269973e+2, -1531490.5, -1648092.8, -983.9591, 0.0033739316, -0.04796083, -1531482.3, 108056.445 
8.052549e+2, 1.4269295e+2, -1450175.6, -1567355.6, -4865.5747, 0.00031792826, -0.03808363, -1449973.9, 91631.08 
8.052561e+2, 1.5268558e+2, -1363104.5, -1475531.8, -5858.472, -0.0006628597, -0.041484457, -1362800.1, 80877.195 
8.0525696e+2, 1.6267776e+2, -1280571.9, -1393468.5, -8576.573, -0.0010859896, -0.043688186, -1279924.0, 65829.72 
8.052575e+2, 1.7266974e+2, -1191602.8, -1299175.6, -8655.732, 0.00065303565, -0.042269368, -1190910.8, 56921.734 
8.052578e+2, 1.8266128e+2, -1108881.0, -1217001.0, -10376.545, 0.0011485222, -0.040667593, -1107894.1, 42021.18 
8.0525786e+2, 1.9265252e+2, -1021497.7, -1123459.8, -10639.372, -0.0016574871, -0.043043293, -1020399.3, 31601.852 
8.0525786e+2, 2.0264336e+2, -939261.7, -1041161.3, -11684.177, -0.0033098261, -0.0435683, -937939.1, 16151.673 
8.052577e+2, 2.12634e+2, -850340.2, -946713.5, -11894.295, -0.0019078224, -0.04232241, -848893.94, 7288.7363 
8.0525756e+2, 2.2262418e+2, -768064.5, -865802.3, -11907.824, -0.0010466686, -0.040968485, -766634.6, -8355.733 
8.0525744e+2, 2.3261397e+2, -679907.56, -772131.2, -11698.76, -0.0017727115, -0.042921297, -678446.7, -18067.707 
8.052574e+2, 2.4260336e+2, -597168.9, -689371.06, -10517.815, -0.0024284127, -0.043257296, -595984.25, -33501.44 
8.052575e+2, 2.5259256e+2, -509274.75, -595222.9, -10408.475, -0.0027926126, -0.042632416, -508032.22, -43443.453 
8.0525786e+2, 2.6258135e+2, -426612.8, -512588.84, -8713.932, -0.0034159527, -0.041565035, -425738.53, -59040.004 
8.052584e+2, 2.725699e+2, -337313.75, -417766.25, -8551.288, -0.004741994, -0.043351375, -336414.88, -67604.05 
8.052593e+2, 2.8255767e+2, -260313.92, -347716.3, -5652.7607, -0.0049177627, -0.043575652, -259949.86, -89019.266 
8.052606e+2, 2.9254457e+2, -173727.33, -255718.92, -5223.582, -0.0022586063, -0.04325397, -173395.88, -100337.195 
8.052624e+2, 3.025358e+2, -71702.59, -79949.36, -1330.0321, -0.0023541553, -0.042326413, -71493.4, -71493.4 
8.0526453e+2, 3.1253222e+2, -76748.02, -76272.85, -888.5788, -0.009309204, -0.044418126, -75590.64, -75590.64 
8.1526065e+2, 1.22703955e+2, -1622570.0, -1749303.0, -3455.9043, 0.0031174405, -0.040718053, -1622475.9, 115021.305 
8.152621e+2, 1.3269728e+2, -1531749.0, -1648803.5, -3678.396, 0.0035358882, -0.04168916, -1531633.5, 107929.164 
8.1526315e+2, 1.4269032e+2, -1450861.1, -1568913.6, -7438.6665, -0.0028272294, -0.04334482, -1450394.3, 91236.516 
8.152636e+2, 1.5268287e+2, -1363919.4, -1477384.9, -8368.791, 0.00045321812, -0.04100286, -1363305.4, 80398.39 
8.152638e+2, 1.6267501e+2, -1280736.4, -1393966.6, -10907.78, 0.0018486141, -0.03996976, -1279695.1, 66085.695 
8.152637e+2, 1.7266692e+2, -1191655.0, -1299359.8, -10925.425, -0.00084941863, -0.042696323, -1190557.9, 57302.27 
8.1526333e+2, 1.8265842e+2, -1109190.6, -1217666.1, -12983.186, -0.0023375298, -0.04297367, -1107658.4, 42285.06 
8.152626e+2, 1.9264965e+2, -1021868.7, -1124319.0, -13329.241, -0.00085170305, -0.04125144, -1020162.9, 31866.611 
8.152619e+2, 2.0264046e+2, -939510.4, -1041782.06, -14071.726, -0.00008294822, -0.039829616, -937609.56, 16509.887 
8.152611e+2, 2.12631e+2, -850641.8, -947357.1, -14181.61, -0.0011465305, -0.042178486, -848605.25, 7606.858 
8.1526023e+2, 2.2262116e+2, -767811.25, -865227.1, -14307.724, -0.0022313888, -0.042910684, -765753.3, -7444.679 
8.152594e+2, 2.32611e+2, -679517.4, -771251.0, -14131.399, -0.00312462, -0.04287586, -677389.75, -16981.816 
8.152587e+2, 2.4260049e+2, -597026.2, -688988.7, -13077.176, -0.0033350985, -0.04189577, -595202.75, -32691.594 
8.1525815e+2, 2.5258967e+2, -509236.7, -595066.44, -13007.723, -0.0019394584, -0.041911695, -507308.63, -42691.574 
8.152577e+2, 2.625785e+2, -426417.5, -512083.1, -11019.249, -0.0016926628, -0.041399, -425022.78, -58296.137 
8.152576e+2, 2.7256706e+2, -337158.97, -417248.6, -10759.643, -0.0043992293, -0.043352883, -335738.66, -66900.07 
8.152578e+2, 2.825549e+2, -259934.08, -346671.28, -8217.515, -0.00574324, -0.043350395, -259162.4, -88204.62 
8.152584e+2, 2.9254192e+2, -173280.34, -254566.31, -7908.284, -0.0034579623, -0.04194863, -172518.1, -99433.1 
8.152594e+2, 3.0253324e+2, -71241.96, -78742.65, -3523.8098, -0.0031004366, -0.040581606, -69846.21, -69846.21 
8.15261e+2, 3.125297e+2, -76418.17, -75161.984, -2921.2666, -0.0077859284, -0.043824084, -72802.055, -72802.055 
8.252706e+2, 1.22702286e+2, -1616502.5, -1747451.1, -649.802, 0.0024167588, -0.04295212, -1616499.3, 121014.39 
8.2527125e+2, 1.3269559e+2, -1527115.6, -1647864.3, -1511.6705, 0.0047256663, -0.034590323, -1527096.8, 112482.53 
8.252715e+2, 1.4268841e+2, -1446873.4, -1567978.9, -5212.836, -0.0036723479, -0.046410963, -1446649.4, 95000.08 
8.252713e+2, 1.526809e+2, -1359661.0, -1476263.6, -5764.7485, 0.00038995125, -0.041600194, -1359376.8, 84346.36 
8.2527083e+2, 1.6267301e+2, -1276748.5, -1392675.1, -8274.613, 0.0022325919, -0.038626466, -1276160.9, 69639.734 
8.2526994e+2, 1.7266484e+2, -1189850.0, -1299090.3, -8586.607, -0.0010449887, -0.04179464, -1189179.1, 58701.375 
8.2526886e+2, 1.8265632e+2, -1108390.8, -1217579.0, -10720.113, -0.002770363, -0.04243643, -1107348.3, 42615.9 
8.252675e+2, 1.926475e+2, -1019769.9, -1123562.1, -10807.197, -0.00069554953, -0.040737446, -1018656.56, 33393.918 
8.2526606e+2, 2.0263828e+2, -937143.0, -1041012.3, -11451.551, 0.0003514014, -0.039344028, -935895.44, 18245.26 
8.2526445e+2, 2.126288e+2, -850412.75, -947715.2, -11565.99, -0.0012862654, -0.041754223, -849056.8, 7176.9497 
8.2526296e+2, 2.2261892e+2, -768782.5, -865395.2, -11658.223, -0.0025867657, -0.042400423, -767395.6, -9065.228 
8.2526135e+2, 2.3260884e+2, -680921.8, -771445.6, -11591.756, -0.002820189, -0.041971184, -679461.06, -19031.777 
8.252599e+2, 2.4259834e+2, -598868.6, -689678.7, -10687.513, -0.0028269368, -0.04092277, -597627.75, -35095.617 
8.252586e+2, 2.5258753e+2, -510856.53, -595795.25, -10693.969, -0.0024400544, -0.04164731, -509530.84, -44892.81 
8.252575e+2, 2.6257637e+2, -428053.3, -512250.7, -8666.1, -0.0024413897, -0.041351423, -427170.63, -60423.242 
8.2525665e+2, 2.7256504e+2, -340792.72, -418257.2, -8225.708, -0.003505879, -0.042286042, -339928.9, -71070.32 
8.2525617e+2, 2.8255296e+2, -264703.97, -348190.28, -5588.2104, -0.0043810974, -0.041915942, -264331.56, -93354.516 
8.25256e+2, 2.9254e+2, -176884.86, -255565.38, -5407.7974, -0.004640558, -0.041853957, -176514.92, -103411.195 
8.252562e+2, 3.025314e+2, -74716.31, -79323.87, -1112.7407, -0.005049595, -0.040843714, -74461.66, -74461.66 
8.252571e+2, 3.12528e+2, -83305.15, -77327.17, -419.45245, -0.005910636, -0.04185186, -77297.88, -77297.88 
8.352808e+2, 1.22701325e+2, -1617096.4, -1748825.5, -3417.8127, -0.00008516268, -0.046456803, -1617007.8, 120515.28 
8.3528066e+2, 1.3269457e+2, -1528263.0, -1650412.0, -4529.786, 0.006816832, -0.026775565, -1528095.3, 111494.086 
8.3528006e+2, 1.4268719e+2, -1447274.8, -1568990.6, -7773.3735, -0.00248257, -0.047525834, -1446780.4, 94881.38 
8.3527917e+2, 1.526796e+2, -1359897.6, -1476884.5, -8179.086, -0.0007635058, -0.04318051, -1359328.5, 84407.266 
8.35278e+2, 1.6267166e+2, -1277230.3, -1393766.8, -11034.513, 0.000273429, -0.039447267, -1276194.6, 69619.164 
8.352763e+2, 1.7266344e+2, -1190401.6, -1300375.9, -11431.872, -0.00008693022, -0.03970975, -1189225.9, 58668.47 
8.3527446e+2, 1.8265486e+2, -1108372.8, -1217680.9, -13159.734, -0.00049965666, -0.03936375, -1106810.8, 43167.77 
8.352724e+2, 1.9264601e+2, -1019681.25, -1123410.0, -13121.267, -0.0011439777, -0.041371208, -1018047.25, 34017.816 
8.352703e+2, 2.026368e+2, -937337.75, -1041376.5, -14192.813, -0.0017869798, -0.041799285, -935436.3, 18719.105 
8.352679e+2, 2.1262729e+2, -850683.44, -948289.6, -14422.238, -0.0022537769, -0.041077696, -848597.0, 7651.6084 
8.352656e+2, 2.2261743e+2, -768655.9, -865167.0, -14284.215, -0.002236876, -0.03968051, -766586.1, -8240.846 
8.352633e+2, 2.3260735e+2, -680745.44, -771060.3, -14149.604, -0.001035931, -0.04028896, -678580.56, -18136.557 
8.352611e+2, 2.4259686e+2, -598852.44, -689568.8, -13203.669, -0.0010752421, -0.04029852, -596969.7, -34422.99 
8.35259e+2, 2.5258604e+2, -510947.5, -595858.75, -13185.606, -0.0041749384, -0.04179472, -508947.06, -44294.375 
8.352571e+2, 2.625749e+2, -427640.38, -511234.72, -11360.822, -0.005453439, -0.041409876, -426123.9, -59362.125 
8.352556e+2, 2.725637e+2, -340250.9, -416970.72, -10994.128, -0.0021347655, -0.040268023, -338706.5, -69834.59 
8.352543e+2, 2.8255168e+2, -264375.8, -347314.3, -8026.8877, -0.0010748801, -0.03940431, -263606.13, -92616.56 
8.352534e+2, 2.9253876e+2, -176713.7, -254920.03, -7735.9927, -0.005849697, -0.042860296, -175955.83, -102839.78 
8.3525294e+2, 3.025302e+2, -74186.48, -77875.91, -3926.3303, -0.008130797, -0.042918082, -71693.09, -71693.09 
8.3525306e+2, 3.12527e+2, -82664.67, -75681.56, -3397.6323, -0.0037753724, -0.03864926, -74301.27, -74301.27 
8.4529114e+2, 1.2270118e+2, -1611856.6, -1746614.8, -687.4716, -0.001012169, -0.047954787, -1611853.1, 125671.42 
8.4529024e+2, 1.3269436e+2, -1523547.8, -1649779.9, -1855.2062, 0.007933621, -0.02125992, -1523520.5, 116070.85 
8.452888e+2, 1.4268677e+2, -1442353.9, -1567589.6, -4777.085, -0.0029612188, -0.050535616, -1442171.9, 99493.94 
8.4528714e+2, 1.5267916e+2, -1356385.8, -1476007.1, -5303.907, -0.0011653664, -0.043237712, -1356151.1, 87589.26 
8.4528524e+2, 1.6267115e+2, -1274519.5, -1393153.9, -8352.697, 0.00008972006, -0.03751892, -1273934.4, 71884.5 
8.452828e+2, 1.7266285e+2, -1187021.3, -1299451.0, -8606.914, 0.00010483292, -0.039080158, -1186366.3, 61533.87 
8.452802e+2, 1.826542e+2, -1105116.6, -1216602.9, -10289.008, -0.00017613338, -0.039574813, -1104175.0, 45809.793 
8.4527737e+2, 1.9264534e+2, -1019040.44, -1123591.3, -10600.126, -0.0013188566, -0.041109417, -1017976.56, 34095.246 
8.452744e+2, 2.026361e+2, -937993.06, -1041716.25, -11864.39, -0.0021613345, -0.04117566, -936653.25, 17509.14 
8.452713e+2, 2.1262659e+2, -850271.8, -948026.1, -11805.712, -0.0021296816, -0.040473875, -848866.25, 7389.2944 
8.452682e+2, 2.2261673e+2, -767911.44, -864872.56, -11569.675, -0.001902292, -0.039153956, -766550.0, -8197.854 
8.4526515e+2, 2.3260663e+2, -681304.5, -771494.9, -11723.022, -0.0013005474, -0.039972864, -679805.7, -19354.633 
8.452622e+2, 2.4259616e+2, -600285.25, -689842.56, -10820.275, -0.0015179047, -0.040027097, -598996.5, -36442.8 
8.452593e+2, 2.5258538e+2, -513389.53, -596496.75, -10457.983, -0.0037728667, -0.04115121, -512093.72, -47434.56 
8.452567e+2, 2.6257432e+2, -430747.16, -512100.94, -8544.471, -0.0047809, -0.04059302, -429859.44, -63091.73 
8.452544e+2, 2.7256313e+2, -343263.28, -417818.06, -8459.897, -0.0026809245, -0.039803643, -342315.34, -73438.016 
8.4525234e+2, 2.825512e+2, -267667.66, -347997.8, -5512.378, -0.0020382656, -0.03901132, -267291.16, -96296.83 
8.4525067e+2, 2.925384e+2, -181910.66, -256485.25, -4978.442, -0.005187713, -0.04177301, -181579.78, -108459.86 
8.452495e+2, 3.025299e+2, -80123.25, -79553.41, -1129.3683, -0.0068624266, -0.041797295, -78673.58, -78673.58 
8.452487e+2, 3.125268e+2, -86888.86, -76516.15, -729.1079, -0.0045808614, -0.039252605, -76465.15, -76465.15 
8.553017e+2, 1.2270178e+2, -1611543.6, -1746149.9, -3332.6648, -0.00056195544, -0.047636997, -1611461.1, 126057.59 
8.553e+2, 1.3269489e+2, -1524318.8, -1651542.4, -4780.5254, 0.0081616845, -0.017821064, -1524139.4, 115446.88 
8.5529774e+2, 1.4268708e+2, -1442988.3, -1569058.9, -7633.7935, -0.004965975, -0.055263307, -1442527.8, 99134.89 
8.5529536e+2, 1.5267944e+2, -1357007.9, -1477447.0, -8123.4893, -0.0009267728, -0.04195194, -1356462.5, 87275.14 
8.552926e+2, 1.6267139e+2, -1274795.5, -1393853.3, -11045.179, 0.0014485773, -0.033160176, -1273779.5, 72037.055 
8.5528934e+2, 1.7266299e+2, -1187256.1, -1300024.4, -11251.649, -0.00041396933, -0.039757587, -1186144.5, 61754.234 
8.55286e+2, 1.8265428e+2, -1105621.6, -1217704.5, -13229.127, -0.0016584735, -0.042746525, -1104081.4, 45902.867 
8.5528237e+2, 1.9264536e+2, -1019633.5, -1124913.8, -13610.141, -0.0012763563, -0.040047023, -1017902.5, 34169.223 
8.552786e+2, 2.0263608e+2, -937807.8, -1041425.7, -14517.277, -0.001006558, -0.037801497, -935812.3, 18350.246 
8.552748e+2, 2.1262659e+2, -849940.4, -947346.25, -14354.206, -0.0010385459, -0.039927308, -847869.1, 8386.412 
8.5527086e+2, 2.2261673e+2, -768122.56, -865251.06, -14389.942, -0.0016280395, -0.040594324, -766035.5, -7683.3604 
8.55267e+2, 2.326066e+2, -681701.94, -772268.1, -14608.119, -0.0034271725, -0.040887818, -679404.0, -18952.52 
8.5526323e+2, 2.4259612e+2, -599875.25, -688937.4, -13608.784, -0.0039771795, -0.04007367, -597842.25, -35288.125 
8.5525966e+2, 2.5258547e+2, -512791.7, -595155.44, -13226.461, -0.0014571438, -0.039801188, -510719.8, -46061.246 
8.552562e+2, 2.6257446e+2, -430540.8, -511525.88, -11278.623, -0.0008124789, -0.038992036, -428999.4, -62233.055 
8.55253e+2, 2.7256325e+2, -343228.88, -417569.53, -11177.785, -0.0049876454, -0.040750682, -341584.56, -72708.55 
8.552502e+2, 2.8255138e+2, -267119.44, -346653.4, -8325.885, -0.0069072056, -0.04053732, -266257.22, -95264.65 
8.5524774e+2, 2.9253873e+2, -181251.94, -254876.7, -7829.036, -0.0028674344, -0.038814977, -180428.63, -107311.984 
8.5524577e+2, 3.0253038e+2, -79569.21, -78111.55, -3709.1921, -0.0016953631, -0.037818097, -75060.26, -75060.26 
8.552443e+2, 3.1252727e+2, -86450.01, -75225.72, -3226.548, -0.0081392145, -0.043335408, -74364.32, -74364.32 
8.653125e+2, 1.2270325e+2, -1605416.5, -1743198.5, -94.7491, -0.0007582832, -0.048161946, -1605416.5, 132087.94 
8.6530995e+2, 1.3269624e+2, -1519895.6, -1651362.8, -2179.9521, 0.008788325, -0.0138804875, -1519859.5, 119713.42 
8.653069e+2, 1.4268824e+2, -1438489.0, -1567957.8, -5184.6523, -0.005943855, -0.057343956, -1438281.8, 103369.55 
8.6530364e+2, 1.5268055e+2, -1352921.3, -1476332.6, -5513.1987, -0.0009798042, -0.042284653, -1352675.5, 91051.44 
8.653001e+2, 1.6267243e+2, -1271325.6, -1392839.5, -8321.176, 0.0019563388, -0.032191437, -1270758.5, 75047.95 
8.6529607e+2, 1.7266397e+2, -1185019.1, -1299615.1, -8641.94, -0.00041015347, -0.03921963, -1184371.1, 63518.082 
8.652919e+2, 1.826552e+2, -1103928.8, -1217285.3, -10706.501, -0.0019342, -0.042510618, -1102926.4, 47048.785 
8.652874e+2, 1.9264624e+2, -1017426.25, -1124224.1, -10732.598, -0.0012713076, -0.039658736, -1016358.4, 35704.656 
8.6528283e+2, 2.0263694e+2, -935716.9, -1040630.25, -11431.323, -0.00083519117, -0.03729358, -934485.8, 19668.365 
8.652782e+2, 2.1262743e+2, -849891.6, -947551.0, -11689.826, -0.0010776354, -0.039497584, -848511.8, 7735.4683 
8.652735e+2, 2.2261757e+2, -769279.06, -865667.44, -11941.354, -0.0017336883, -0.040249243, -767821.7, -9477.734 
8.652688e+2, 2.3260745e+2, -682704.44, -772553.7, -11713.033, -0.0033009558, -0.040576316, -681202.6, -20759.498 
8.6526424e+2, 2.42597e+2, -600927.25, -689040.7, -10537.264, -0.003779949, -0.039713547, -599684.6, -37139.117 
8.6525977e+2, 2.525864e+2, -514889.66, -595758.75, -10553.654, -0.0016291895, -0.03924113, -513535.06, -48885.473 
8.6525553e+2, 2.6257545e+2, -433438.13, -512317.72, -8732.165, -0.0011324766, -0.038417738, -432483.03, -65726.11 
8.6525154e+2, 2.725643e+2, -346650.3, -418611.75, -8395.656, -0.004933148, -0.040592935, -345683.78, -76817.695 
8.6524785e+2, 2.8255245e+2, -270825.6, -347512.9, -5533.7593, -0.0066589154, -0.04061779, -270428.34, -99446.36 
8.652446e+2, 2.925399e+2, -185376.2, -255895.34, -5270.6187, -0.0028913883, -0.03865572, -184984.45, -111879.26 
8.652418e+2, 3.0253166e+2, -84317.7, -79268.07, -1133.3597, -0.0018388533, -0.0372726, -79025.36, -79025.36 
8.652395e+2, 3.1252867e+2, -92600.664, -77067.86, -597.7642, -0.008011378, -0.042177472, -77044.88, -77044.88 
8.753235e+2, 1.227055e+2, -1605527.3, -1743606.1, -2852.7217, -0.0015516889, -0.049468346, -1605468.4, 132014.06 
8.753201e+2, 1.3269834e+2, -1521387.0, -1654597.9, -5204.656, 0.009742398, -0.009509584, -1521183.9, 118368.47 
8.7531614e+2, 1.4269014e+2, -1439048.0, -1569261.1, -8147.87, -0.0060521807, -0.05708817, -1438540.1, 103092.72 
8.7531215e+2, 1.5268235e+2, -1353229.4, -1477130.8, -8452.274, -0.0013148795, -0.044069994, -1352655.5, 91053.76 
8.7530774e+2, 1.6267416e+2, -1271724.1, -1393807.8, -11279.08, 0.0016654846, -0.03426094, -1270690.9, 75098.49 
8.753029e+2, 1.7266569e+2, -1185504.6, -1300730.8, -11589.821, 0.000033225348, -0.03760184, -1184350.5, 63522.07 
8.7529784e+2, 1.8265687e+2, -1103882.3, -1217262.5, -13587.457, -0.0011917987, -0.03925531, -1102276.8, 47682.16 
8.752926e+2, 1.9264789e+2, -1017272.2, -1123952.4, -13592.245, -0.0013172678, -0.039868448, -1015567.6, 36479.223 
8.752872e+2, 2.0263857e+2, -936080.56, -1041402.0, -14482.273, -0.0015930899, -0.039354473, -934125.44, 20012.738 
8.7528163e+2, 2.1262899e+2, -850444.2, -948718.06, -14778.903, -0.0021490012, -0.039171197, -848269.8, 7962.123 
8.7527615e+2, 2.2261913e+2, -768943.8, -864981.8, -14827.805, -0.0022329495, -0.0383003, -766706.56, -8377.822 
8.7527055e+2, 2.3260908e+2, -682167.25, -771390.5, -14543.174, -0.0011602967, -0.03915795, -679856.6, -19429.412 
8.752652e+2, 2.4259868e+2, -600902.5, -688893.0, -13539.506, -0.0012212821, -0.038980424, -598866.2, -36337.105 
8.752598e+2, 2.5258803e+2, -515053.72, -596004.25, -13599.939, -0.0040641194, -0.039398696, -512830.0, -48196.582 
8.7525475e+2, 2.625771e+2, -433048.2, -511397.72, -11620.167, -0.0053597623, -0.038769532, -431361.1, -64620.508 
8.7525e+2, 2.7256608e+2, -346161.6, -417421.3, -11236.932, -0.0027616674, -0.039443366, -344431.63, -75582.836 
8.752455e+2, 2.8255433e+2, -270469.84, -346545.25, -8461.156, -0.001809397, -0.039403394, -269540.16, -98576.26 
8.7524134e+2, 2.9254177e+2, -185100.48, -255079.19, -8225.651, -0.005095085, -0.04105026, -184146.61, -111059.75 
8.7523764e+2, 3.025336e+2, -83803.93, -77926.84, -4011.4446, -0.0068697585, -0.0398442, -75892.79, -75892.79 
8.7523454e+2, 3.125308e+2, -92093.555, -75657.11, -3455.3943, -0.004618396, -0.036267113, -74960.234, -74960.234 
8.8533473e+2, 1.22708626e+2, -1599097.0, -1740565.5, 144.92485, -0.0020789227, -0.049965512, -1599096.8, 138355.0 
8.8533044e+2, 1.3270134e+2, -1517022.1, -1654613.6, -2276.9353, 0.010507496, -0.0071133017, -1516984.5, 122538.66 
8.853257e+2, 1.4269295e+2, -1434622.3, -1568211.0, -5004.772, -0.006268839, -0.05768822, -1434435.0, 107170.39 
8.853208e+2, 1.5268508e+2, -1348922.9, -1475879.8, -5395.92, -0.0012964251, -0.044139583, -1348693.9, 94988.55 
8.853155e+2, 1.6267684e+2, -1267806.3, -1392566.0, -8383.501, 0.0018268161, -0.033873755, -1267245.5, 78517.76 
8.853098e+2, 1.726683e+2, -1182654.4, -1300025.1, -8611.761, -0.0000045360553, -0.0372147, -1182025.9, 65821.164 
8.853039e+2, 1.8265942e+2, -1101858.1, -1216673.1, -10544.972, -0.0013215343, -0.038934346, -1100897.6, 49036.17 
8.852978e+2, 1.9265042e+2, -1016101.56, -1123757.3, -10862.173, -0.0013216316, -0.03977205, -1015016.5, 37005.6 
8.852915e+2, 2.0264107e+2, -935419.2, -1041259.25, -11984.821, -0.0015099354, -0.03937452, -934079.0, 20034.719 
8.852851e+2, 2.1263148e+2, -849904.06, -948635.8, -11893.223, -0.0021303874, -0.039039224, -848491.6, 7715.9946 
8.852787e+2, 2.2262162e+2, -768652.7, -864643.7, -11697.883, -0.0022561979, -0.038005732, -767247.7, -8943.246 
8.852723e+2, 2.3261158e+2, -683253.6, -771665.9, -11783.737, -0.0012418474, -0.03872169, -681710.06, -21307.38 
8.8526607e+2, 2.4260122e+2, -602932.94, -689548.6, -10992.994, -0.001329889, -0.03858834, -601559.5, -39055.19 
8.852598e+2, 2.525906e+2, -517011.75, -596660.06, -10797.694, -0.004186834, -0.03947488, -515573.9, -50965.523 
8.852539e+2, 2.625797e+2, -435068.4, -511665.25, -8674.868, -0.005395612, -0.03888558, -434098.25, -67383.1 
8.8524824e+2, 2.7256873e+2, -349586.2, -418296.06, -8410.249, -0.0024533675, -0.03854817, -348571.72, -79749.14 
8.8524294e+2, 2.8255707e+2, -274890.66, -347791.2, -5615.7217, -0.0014733403, -0.038111597, -274460.6, -103523.695 
8.852379e+2, 2.9254457e+2, -189547.33, -256363.73, -5266.3833, -0.0055860593, -0.04091673, -189134.78, -116075.57 
8.8523334e+2, 3.025365e+2, -88381.48, -78959.74, -1044.6663, -0.007587327, -0.040263046, -78845.3, -78845.3 
8.8522935e+2, 3.1253383e+2, -97884.734, -77241.88, -505.65625, -0.0039172755, -0.03566382, -77229.5, -77229.5 
8.953461e+2, 1.2271254e+2, -1598927.0, -1740360.5, -2809.4258, -0.0024040556, -0.04980817, -1598871.1, 138542.33 
8.95341e+2, 1.3270512e+2, -1518068.9, -1656955.5, -5488.3384, 0.011087298, -0.006474273, -1517852.4, 121633.83 
8.953353e+2, 1.4269656e+2, -1435250.3, -1569693.0, -8060.169, -0.0066164862, -0.059063017, -1434768.8, 106801.23 
8.953296e+2, 1.5268862e+2, -1349496.8, -1477187.0, -8391.267, -0.0009968417, -0.04269354, -1348947.6, 94700.125 
8.953235e+2, 1.6268033e+2, -1268115.9, -1393285.1, -11560.778, 0.0023296163, -0.031325337, -1267057.1, 78671.99 
8.9531684e+2, 1.7267169e+2, -1182900.1, -1300655.1, -11834.992, -0.0004920121, -0.037923943, -1181722.4, 66091.266 
8.9531004e+2, 1.8266277e+2, -1102251.6, -1217609.9, -13657.434, -0.002277583, -0.04123647, -1100656.8, 49244.42 
8.95303e+2, 1.926537e+2, -1016617.75, -1124893.4, -13922.604, -0.0013179414, -0.03940298, -1014856.1, 37133.81 
8.952959e+2, 2.0264432e+2, -935282.25, -1040996.56, -15076.411, -0.00074356067, -0.037585806, -933174.1, 20907.703 
8.952886e+2, 2.1263477e+2, -849609.3, -948028.9, -14995.163, -0.0011506947, -0.03908341, -847375.4, 8800.143 
8.952813e+2, 2.226249e+2, -768724.2, -864774.2, -14881.586, -0.001896589, -0.03919122, -766471.3, -8199.118 
8.95274e+2, 2.3261486e+2, -683481.6, -772111.56, -14980.996, -0.0033391016, -0.03917293, -681017.9, -20647.252 
8.952668e+2, 2.426045e+2, -602649.5, -688909.06, -14034.832, -0.0038769804, -0.038505115, -600423.44, -37951.18 
8.9525974e+2, 2.525939e+2, -516641.63, -595776.8, -13790.594, -0.0022416355, -0.03947961, -514307.25, -49731.484 
8.95253e+2, 2.625831e+2, -434736.16, -510814.22, -11845.551, -0.0016780973, -0.03878697, -432934.44, -66252.54 
8.952463e+2, 2.7257222e+2, -349295.4, -417534.88, -11638.705, -0.0038683265, -0.037887078, -347364.97, -78576.2 
8.952401e+2, 2.8256062e+2, -274390.38, -346573.28, -8623.85, -0.0052790274, -0.036747217, -273374.34, -102471.99 
8.952342e+2, 2.925482e+2, -189071.1, -255107.48, -8202.88, -0.004550213, -0.038495723, -188067.4, -115043.74 
8.952288e+2, 3.025402e+2, -87803.5, -77438.55, -4169.5933, -0.004432438, -0.038743287, -75969.44, -75969.44 
8.952239e+2, 3.125376e+2, -97295.97, -75711.99, -3701.6814, -0.0058016786, -0.0399195, -75094.8, -75094.8 
9.053578e+2, 1.22717366e+2, -1592875.1, -1737538.0, 404.76593, -0.002772648, -0.049769502, -1592874.0, 144492.16 
9.053518e+2, 1.327098e+2, -1512959.4, -1656309.4, -2543.791, 0.011966339, -0.005845104, -1512914.3, 126525.92 
9.053452e+2, 1.4270109e+2, -1429995.3, -1568162.9, -5146.641, -0.0065355175, -0.059771433, -1429803.9, 111721.7 
9.053386e+2, 1.526931e+2, -1345764.3, -1476210.1, -5389.45, -0.0012675427, -0.042304162, -1345542.0, 98061.96 
9.0533155e+2, 1.6268474e+2, -1265348.9, -1392609.0, -8479.477, 0.001991801, -0.030375898, -1264786.4, 80899.56 
9.0532404e+2, 1.7267604e+2, -1179808.0, -1299837.8, -8843.227, -0.00030494726, -0.037857763, -1179160.0, 68611.125 
9.053163e+2, 1.8266705e+2, -1099166.4, -1216583.9, -10764.482, -0.0018195705, -0.041575495, -1098187.6, 51671.484 
9.0530837e+2, 1.9265796e+2, -1014937.06, -1124554.6, -10815.932, -0.0012900374, -0.038963586, -1013880.06, 38068.26 
9.053003e+2, 2.0264857e+2, -934527.8, -1040668.94, -11820.709, -0.0009712588, -0.036759015, -933227.3, 20813.137 
9.052921e+2, 2.1263899e+2, -849443.1, -947917.1, -11976.888, -0.0012327386, -0.038862947, -848007.4, 8126.7104 
9.0528387e+2, 2.2262913e+2, -769055.4, -864885.0, -12045.104, -0.0018595492, -0.03934859, -767564.56, -9333.819 
9.0527564e+2, 2.3261908e+2, -684144.9, -772440.2, -11972.434, -0.0033519869, -0.039120544, -682550.25, -22221.078 
9.052676e+2, 2.4260874e+2, -603651.5, -688918.8, -10893.626, -0.003895502, -0.03821782, -602281.75, -39851.15 
9.052596e+2, 2.5259823e+2, -519081.78, -596394.4, -10732.01, -0.0021639876, -0.03891835, -517619.7, -53086.074 
9.052519e+2, 2.6258746e+2, -438126.75, -511810.63, -8844.518, -0.0016838466, -0.038291592, -437079.97, -70440.77 
9.0524435e+2, 2.725766e+2, -352445.53, -418452.16, -8657.615, -0.0044338177, -0.038271256, -351328.88, -82583.26 
9.052372e+2, 2.8256506e+2, -277612.6, -347104.56, -5667.75, -0.005908321, -0.037340313, -277153.38, -106294.83 
9.052304e+2, 2.925528e+2, -194150.08, -256465.38, -5228.912, -0.004012864, -0.03763299, -193714.36, -120735.586 
9.0522414e+2, 3.0254492e+2, -93911.33, -79195.41, -1064.9802, -0.003513938, -0.037434436, -79118.734, -79118.734 
9.0521824e+2, 3.1254235e+2, -102378.664, -77016.945, -636.0696, -0.0064902124, -0.04076385, -77001.0, -77001.0 
9.1536963e+2, 1.2272301e+2, -1592975.1, -1737939.4, -2528.9011, -0.00320637, -0.049837433, -1592931.0, 144379.89 
9.153628e+2, 1.327153e+2, -1514051.8, -1658704.8, -5676.3916, 0.013084512, -0.0052126693, -1513829.4, 125556.95 
9.1535527e+2, 1.4270647e+2, -1430495.6, -1569314.8, -8509.982, -0.006128778, -0.059881374, -1429975.9, 111497.05 
9.1534764e+2, 1.526984e+2, -1346086.8, -1477052.4, -8814.22, -0.0020721687, -0.04285174, -1345496.1, 98055.85 
9.1533965e+2, 1.6268997e+2, -1265718.4, -1393547.6, -11665.184, 0.00086716545, -0.030854259, -1264662.6, 80971.99 
9.153313e+2, 1.726812e+2, -1180290.5, -1300919.6, -11938.481, 0.00045732604, -0.037103284, -1179120.3, 68600.21 
9.153227e+2, 1.8267217e+2, -1099298.9, -1216880.8, -14124.3955, -0.0001769932, -0.040190272, -1097626.0, 52182.973 
9.153138e+2, 1.9266306e+2, -1014973.94, -1124691.0, -14247.392, -0.0012634265, -0.038461443, -1013154.0, 38744.34 
9.153047e+2, 2.0265365e+2, -934641.75, -1040972.3, -15118.084, -0.0021284833, -0.03679582, -932534.0, 21456.635 
9.152956e+2, 2.1264404e+2, -849651.1, -948374.8, -15223.571, -0.0022784658, -0.038408823, -847356.94, 8727.673 
9.152864e+2, 2.2263417e+2, -768950.2, -864651.0, -15304.383, -0.0021662826, -0.038585156, -766562.3, -8380.919 
9.1527736e+2, 2.3262414e+2, -683997.2, -772080.75, -15230.105, -0.0015098995, -0.03862119, -681438.1, -21158.559 
9.1526824e+2, 2.4261384e+2, -603420.06, -688356.0, -14251.246, -0.0016690191, -0.037744634, -601092.6, -38711.934 
9.1525936e+2, 2.5260335e+2, -518862.53, -595854.0, -14120.278, -0.0037958056, -0.037850708, -516354.56, -51871.29 
9.152506e+2, 2.625926e+2, -437817.53, -511058.22, -12040.084, -0.0050870865, -0.037439626, -435889.03, -69300.61 
9.1524225e+2, 2.7258182e+2, -352191.8, -417739.88, -11788.519, -0.0042498587, -0.03961022, -350136.2, -81441.65 
9.1523415e+2, 2.8257033e+2, -277087.4, -345782.25, -9037.744, -0.0036943809, -0.03971659, -275918.28, -105111.4 
9.152264e+2, 2.925582e+2, -193559.48, -255026.63, -8680.245, -0.0039932444, -0.038168598, -192357.2, -119431.25 
9.152191e+2, 3.025504e+2, -93344.5, -77787.414, -4086.689, -0.004722433, -0.036285292, -76779.22, -76779.22 
9.1521245e+2, 3.1254798e+2, -101943.79, -75748.3, -3521.305, -0.006161578, -0.03847714, -75283.2, -75283.2 
9.253818e+2, 1.2272966e+2, -1586067.1, -1735189.4, 1001.92694, -0.0028590255, -0.04974197, -1586060.4, 151185.39 
9.25374e+2, 1.3272181e+2, -1509358.3, -1658176.3, -2308.4255, 0.013333477, -0.0044372412, -1509322.5, 130000.06 
9.253655e+2, 1.4271283e+2, -1426232.1, -1568262.6, -5166.291, -0.0069348295, -0.05949127, -1426044.5, 115366.08 
9.253569e+2, 1.5270469e+2, -1341303.5, -1475579.1, -5577.4644, -0.0018949962, -0.042996094, -1341072.1, 102418.24 
9.2534804e+2, 1.6269618e+2, -1261118.0, -1391988.5, -8525.45, 0.0015523765, -0.03113042, -1260565.0, 85008.72 
9.253387e+2, 1.7268738e+2, -1177769.6, -1300384.9, -8723.819, 0.00037159215, -0.036518868, -1177152.0, 70508.04 
9.253291e+2, 1.826783e+2, -1097917.6, -1216486.6, -10865.756, -0.00063971995, -0.039246626, -1096930.1, 52818.863 
9.253192e+2, 1.9266914e+2, -1013269.0, -1124078.9, -11042.6455, -0.0011470227, -0.03845631, -1012179.25, 39659.35 
9.253092e+2, 2.0265971e+2, -933026.56, -1040443.7, -11980.047, -0.0017121753, -0.037226308, -931706.7, 22224.475 
9.252991e+2, 2.126501e+2, -849138.2, -948460.8, -12080.849, -0.0023509418, -0.03800614, -847689.94, 8335.413 
9.25289e+2, 2.2264022e+2, -769144.9, -864516.3, -12151.028, -0.002474542, -0.03771518, -767621.1, -9498.982 
9.252789e+2, 2.3263022e+2, -685127.06, -772289.3, -12051.662, -0.0014700433, -0.0382333, -683491.44, -23271.314 
9.2526895e+2, 2.4261993e+2, -605234.0, -688853.25, -11071.625, -0.0014691147, -0.037719466, -603792.9, -41471.96 
9.25259e+2, 2.526095e+2, -520741.38, -596434.75, -11009.872, -0.0039798957, -0.03781865, -519172.47, -54749.29 
9.2524934e+2, 2.625988e+2, -439955.5, -511350.8, -8941.796, -0.005372915, -0.037247486, -438852.63, -72324.734 
9.252399e+2, 2.7258807e+2, -356030.0, -418789.94, -8571.804, -0.003881069, -0.03895301, -354880.3, -86247.06 
9.252309e+2, 2.8257668e+2, -281846.63, -347122.88, -5729.0156, -0.0031895263, -0.039111555, -281347.63, -110602.805 
9.2522216e+2, 2.925646e+2, -197497.83, -255986.75, -5499.5386, -0.004729039, -0.038874112, -196985.22, -124122.01 
9.2521393e+2, 3.025569e+2, -97404.94, -78551.81, -995.05316, -0.005796282, -0.037237328, -78499.445, -78499.445 
9.2520636e+2, 3.125546e+2, -109110.69, -78007.66, -370.2043, -0.0052007274, -0.03696623, -78003.25, -78003.25 
9.3539417e+2, 1.227372e+2, -1586532.6, -1736278.1, -2354.4268, -0.001884615, -0.049523342, -1586495.6, 150676.28 
9.3538535e+2, 1.3272922e+2, -1510305.1, -1660322.3, -5814.9683, 0.012792146, -0.0035411424, -1510080.1, 129169.95 
9.353759e+2, 1.427201e+2, -1426817.0, -1569673.4, -8506.757, -0.008841674, -0.058674175, -1426312.3, 115027.14 
9.3536645e+2, 1.5271185e+2, -1341870.1, -1476864.9, -8851.721, -0.0008838583, -0.04278355, -1341292.3, 102127.93 
9.3535656e+2, 1.6270328e+2, -1261468.3, -1392771.3, -12093.201, 0.0037610985, -0.03122834, -1260363.8, 85140.45 
9.353461e+2, 1.7269441e+2, -1178048.8, -1301082.3, -12364.131, -0.00049056235, -0.036084827, -1176818.5, 70772.52 
9.353355e+2, 1.826853e+2, -1098034.1, -1216860.6, -14265.749, -0.0030102963, -0.038710956, -1096345.4, 53334.9 
9.353247e+2, 1.9267611e+2, -1013424.2, -1124461.5, -14363.15, -0.0009739236, -0.038887665, -1011596.4, 40173.992 
9.3531376e+2, 2.0266664e+2, -933189.0, -1040782.7, -15461.505, 0.00003213791, -0.03800714, -931011.25, 22851.941 
9.353027e+2, 2.1265703e+2, -849336.8, -948871.9, -15593.155, -0.0015743803, -0.037656303, -846951.1, 9006.381 
9.352916e+2, 2.2264715e+2, -768978.8, -864165.0, -15655.205, -0.0028262346, -0.036754988, -766470.1, -8415.75 
9.3528044e+2, 2.3263717e+2, -684898.8, -771795.7, -15558.049, -0.0030639032, -0.037953146, -682197.3, -22045.219 
9.352694e+2, 2.426269e+2, -605065.25, -688451.75, -14481.419, -0.0031190594, -0.03810384, -602621.94, -40369.313 
9.3525857e+2, 2.526165e+2, -520665.38, -596164.94, -14380.2, -0.002879633, -0.03872817, -518019.16, -53664.402 
9.352479e+2, 2.6260585e+2, -439505.44, -510265.03, -12479.604, -0.0028732088, -0.037649304, -437368.97, -70909.96 
9.3523747e+2, 2.7259523e+2, -355493.03, -417532.7, -12169.491, -0.0033902316, -0.036460627, -353191.3, -84628.06 
9.3522745e+2, 2.8258392e+2, -281412.22, -346055.2, -9029.27, -0.0042993827, -0.035774693, -280174.72, -109500.79 
9.352178e+2, 2.9257187e+2, -197196.13, -255095.05, -8701.196, -0.0061855568, -0.039740853, -195916.75, -123124.74 
9.352086e+2, 3.0256423e+2, -96821.35, -77024.6, -4596.4624, -0.0068050777, -0.04011343, -76009.44, -76009.44 
9.352e+2, 3.125621e+2, -108458.78, -76368.3, -4102.3916, -0.0038003612, -0.036118787, -75852.16, -75852.16 
9.4540673e+2, 1.22745745e+2, -1580635.0, -1734382.4, 1037.2896, -0.0020265991, -0.049111906, -1580628.0, 156460.25 
9.4539696e+2, 1.3273765e+2, -1504315.4, -1658711.5, -2347.4517, 0.013378453, -0.0030445685, -1504279.8, 134887.72 
9.453865e+2, 1.4272842e+2, -1421008.1, -1567866.0, -4995.8525, -0.008892631, -0.058485303, -1420838.4, 120419.47 
9.4537604e+2, 1.527201e+2, -1338050.4, -1475993.0, -5357.4893, -0.00088420085, -0.041874267, -1337842.6, 105496.77 
9.453652e+2, 1.6271146e+2, -1258659.9, -1391978.9, -8591.747, 0.0038661754, -0.030140687, -1258108.5, 87315.695 
9.4535375e+2, 1.7270254e+2, -1174659.5, -1299943.8, -8830.341, -0.00025243772, -0.036084186, -1174040.3, 73471.305 
9.453422e+2, 1.8269338e+2, -1094736.8, -1215790.6, -10787.31, -0.002803252, -0.039188813, -1093783.0, 55818.285 
9.453303e+2, 1.9268414e+2, -1011863.75, -1124302.6, -11061.306, -0.0012375436, -0.038363997, -1010785.9, 40905.88 
9.4531834e+2, 2.0267466e+2, -932557.1, -1040419.3, -12211.224, -0.0003398305, -0.03697023, -931191.94, 22592.857 
9.4530624e+2, 2.1266502e+2, -849027.56, -948533.06, -12049.519, -0.0012582862, -0.037417684, -847589.2, 8289.891 
9.4529414e+2, 2.2265515e+2, -769140.7, -864189.56, -11979.573, -0.0022572826, -0.03696158, -767654.1, -9678.276 
9.45282e+2, 2.3264518e+2, -685555.06, -772168.9, -12141.646, -0.0033622647, -0.037643235, -683885.2, -23811.645 
9.4526994e+2, 2.4263494e+2, -606101.25, -688450.2, -11206.617, -0.0037870386, -0.03750688, -604603.44, -42429.52 
9.452581e+2, 2.5262457e+2, -523083.66, -596728.75, -10897.145, -0.0026825941, -0.038454298, -521505.06, -57229.496 
9.452464e+2, 2.6261398e+2, -442843.38, -511256.56, -8887.614, -0.0023410546, -0.03757376, -441707.63, -75328.34 
9.45235e+2, 2.726034e+2, -358521.84, -418435.78, -8839.299, -0.003891178, -0.036239736, -357244.97, -88761.945 
9.4522387e+2, 2.825922e+2, -284594.03, -346564.3, -5841.605, -0.0051262924, -0.03530976, -284048.2, -113455.17 
9.452132e+2, 2.9258022e+2, -202775.39, -256684.86, -5315.8506, -0.005555697, -0.03883211, -202256.2, -129546.086 
9.45203e+2, 3.0257273e+2, -103520.5, -78921.61, -1014.45624, -0.0058318875, -0.039213922, -78879.84, -78879.84 
9.4519335e+2, 3.125707e+2, -113434.6, -77438.96, -516.7795, -0.005239542, -0.036359146, -77431.54, -77431.54 
9.5541954e+2, 1.22755185e+2, -1581211.3, -1735740.8, -2294.1392, -0.0031678916, -0.048523273, -1581177.1, 155818.6 
9.554089e+2, 1.3274701e+2, -1504850.6, -1659962.9, -5732.0093, 0.0149183795, -0.002885059, -1504639.1, 134436.78 
9.553974e+2, 1.4273769e+2, -1421525.3, -1569061.5, -8720.033, -0.0073885457, -0.058823954, -1421011.6, 120155.445 
9.5538586e+2, 1.5272929e+2, -1338570.8, -1477229.6, -9161.329, -0.0018099577, -0.040355973, -1337968.1, 105281.34 
9.553739e+2, 1.6272058e+2, -1258902.1, -1392635.9, -12139.796, 0.0020819977, -0.028034726, -1257809.0, 87525.78 
9.553615e+2, 1.727116e+2, -1174904.8, -1300535.0, -12293.003, 0.0009313341, -0.036457494, -1173713.1, 73709.7 
9.5534885e+2, 1.8270236e+2, -1095174.5, -1216723.9, -14495.347, -0.00040020674, -0.040552672, -1093469.8, 56043.38 
9.553359e+2, 1.9269308e+2, -1012370.44, -1125407.3, -14815.704, -0.0019148682, -0.036997594, -1010460.8, 41143.39 
9.553229e+2, 2.0268357e+2, -932304.4, -1039959.44, -15836.6455, -0.002632955, -0.03434175, -930023.06, 23674.37 
9.553098e+2, 2.1267398e+2, -848613.7, -947698.8, -15648.296, -0.0013622617, -0.037280004, -846201.1, 9590.309 
9.5529664e+2, 2.2266412e+2, -769243.1, -864379.5, -15597.305, -0.0009106509, -0.038197864, -766751.25, -8863.281 
9.5528346e+2, 2.3265412e+2, -685870.5, -772767.7, -15743.795, -0.0025196178, -0.037311256, -683106.06, -23120.09 
9.552704e+2, 2.426439e+2, -605728.5, -687600.8, -14916.298, -0.0036029583, -0.03603159, -603095.56, -41009.336 
9.552575e+2, 2.526336e+2, -522538.94, -595524.25, -14650.366, -0.0033268335, -0.037108332, -519707.97, -55520.89 
9.552448e+2, 2.6262307e+2, -442654.3, -510765.53, -12436.26, -0.003615341, -0.037067153, -440454.63, -74164.414 
9.552323e+2, 2.7261248e+2, -358528.78, -418278.22, -12315.926, -0.0053204917, -0.038094413, -356089.72, -87695.66 
9.5522016e+2, 2.8260133e+2, -283984.03, -345081.44, -9606.153, -0.0057345456, -0.037461, -282509.28, -112005.7 
9.552084e+2, 2.9258955e+2, -202008.97, -254882.17, -9176.9375, -0.0030846342, -0.036227893, -200461.45, -127842.4 
9.5519716e+2, 3.0258214e+2, -102784.21, -77163.75, -4404.7056, -0.003160329, -0.03477675, -76427.64, -76427.64 
9.551865e+2, 3.1258017e+2, -112810.875, -75810.664, -3764.4578, -0.009407709, -0.03758431, -75431.55, -75431.55 
9.654327e+2, 1.2276574e+2, -1574892.1, -1734260.1, 1529.682, -0.0032952593, -0.04792527, -1574877.5, 162014.9 
9.6542096e+2, 1.3275746e+2, -1499271.5, -1658187.1, -1935.3898, 0.015565836, -0.0021214103, -1499247.9, 139725.48 
9.6540844e+2, 1.4274806e+2, -1416613.5, -1567457.6, -5099.1943, -0.0073133414, -0.05879888, -1416441.3, 124624.164 
9.653958e+2, 1.527396e+2, -1333652.5, -1475627.0, -5487.673, -0.0017833177, -0.040325608, -1333440.6, 109707.82 
9.653828e+2, 1.6273081e+2, -1254469.1, -1391261.9, -8405.631, 0.0020815884, -0.02781843, -1253954.6, 91279.94 
9.653694e+2, 1.7272176e+2, -1172250.3, -1300089.1, -8756.879, 0.000917773, -0.03563032, -1171653.1, 75670.07 
9.6535563e+2, 1.8271248e+2, -1093346.5, -1216052.0, -11026.628, -0.00030601383, -0.03945975, -1092363.5, 57050.613 
9.653417e+2, 1.9270319e+2, -1010429.56, -1124561.1, -10911.562, -0.001551519, -0.036508583, -1009395.75, 42109.51 
9.6532756e+2, 2.0269366e+2, -930703.56, -1039394.7, -11789.458, -0.002280277, -0.034203306, -929439.5, 24159.16 
9.653134e+2, 2.1268404e+2, -848162.7, -947791.0, -12155.637, -0.0017310412, -0.03684737, -846701.0, 8991.859 
9.652991e+2, 2.2267418e+2, -769497.56, -864261.8, -12363.767, -0.0015136022, -0.037609335, -767911.06, -10121.586 
9.652849e+2, 2.326642e+2, -686987.8, -772972.2, -12053.828, -0.0022245815, -0.036925305, -685330.0, -25442.785 
9.652708e+2, 2.4265401e+2, -607465.1, -688065.7, -11015.601, -0.002939179, -0.035691608, -605986.75, -43999.582 
9.6525675e+2, 2.5264376e+2, -524320.8, -596068.5, -11123.288, -0.003646198, -0.036427766, -522635.9, -58548.18 
9.65243e+2, 2.6263326e+2, -444703.44, -511035.5, -9062.609, -0.0043849885, -0.03633853, -443487.53, -77297.125 
9.6522945e+2, 2.7262273e+2, -362319.88, -419338.88, -8583.571, -0.005169777, -0.038007885, -361055.72, -92762.086 
9.652162e+2, 2.8261164e+2, -288703.4, -346303.94, -5704.2573, -0.00521554, -0.037621133, -288143.94, -117741.516 
9.652034e+2, 2.9259995e+2, -206150.98, -255808.16, -5511.093, -0.0036273608, -0.035677064, -205546.7, -133029.8 
9.651911e+2, 3.0259272e+2, -107289.445, -78222.98, -855.9172, -0.0040793703, -0.033881605, -78197.8, -78197.8 
9.651794e+2, 3.1259078e+2, -120141.08, -78290.23, -373.21826, -0.009033321, -0.037265956, -78286.9, -78286.9 
9.75446e+2, 1.2277727e+2, -1576073.9, -1736883.9, -2183.61, -0.0026290126, -0.047329772, -1576044.3, 160735.25 
9.7543323e+2, 1.327689e+2, -1499754.1, -1659344.4, -5586.4746, 0.015406515, -0.00082816684, -1499558.9, 139302.53 
9.754197e+2, 1.4275941e+2, -1416948.3, -1568275.3, -8852.425, -0.008510098, -0.058440555, -1416432.1, 124522.1 
9.75406e+2, 1.5275086e+2, -1333987.0, -1476422.6, -9261.146, -0.00096164393, -0.0415796, -1333387.4, 109650.62 
9.7539186e+2, 1.6274203e+2, -1255052.3, -1392546.0, -12301.596, 0.0035613251, -0.029238412, -1253960.4, 91164.31 
9.753773e+2, 1.7273289e+2, -1172934.8, -1301599.5, -12656.457, -0.00017251751, -0.033755388, -1171701.6, 75512.55 
9.753625e+2, 1.8272358e+2, -1093147.3, -1215730.3, -14782.146, -0.0022862845, -0.03624416, -1091389.9, 57915.563 
9.7534746e+2, 1.9271429e+2, -1010042.6, -1123807.5, -14636.234, -0.00029061484, -0.036784194, -1008189.8, 43206.582 
9.753323e+2, 2.0270476e+2, -931142.7, -1040309.4, -15647.776, 0.0003384198, -0.036239307, -928944.0, 24545.867 
9.7531694e+2, 2.1269506e+2, -848880.8, -949286.25, -16023.027, -0.002363472, -0.03614912, -846385.8, 9199.044 
9.753016e+2, 2.2268519e+2, -769126.06, -863497.94, -16189.192, -0.003895483, -0.035401024, -766426.1, -8744.319 
9.752863e+2, 2.3267528e+2, -686346.8, -771625.9, -15883.505, -0.0024274737, -0.036493313, -683484.5, -23705.729 
9.752711e+2, 2.4266513e+2, -607430.75, -687940.06, -14779.113, -0.0018653922, -0.0363652, -604803.5, -42925.234 
9.7525597e+2, 2.5265485e+2, -524540.0, -596418.75, -14852.217, -0.003699602, -0.036348898, -521592.0, -57613.05 
9.7524107e+2, 2.626444e+2, -444150.2, -509749.72, -12952.897, -0.0047250544, -0.035405204, -441685.2, -75603.83 
9.752265e+2, 2.72634e+2, -361578.0, -417651.94, -12534.593, -0.0036256635, -0.03612162, -358903.6, -90720.22 
9.752122e+2, 2.82623e+2, -288223.44, -345139.16, -9457.151, -0.0037395689, -0.035938505, -286693.16, -116402.055 
9.7519827e+2, 2.9261136e+2, -205826.25, -254916.44, -9201.846, -0.007006641, -0.037006933, -204158.08, -131752.84 
9.751848e+2, 3.0260417e+2, -106917.09, -77192.82, -4779.144, -0.008384764, -0.03622497, -76443.31, -76443.31 
9.7517204e+2, 3.1260234e+2, -119829.266, -77333.08, -4363.944, -0.0045682867, -0.035425104, -76889.57, -76889.57 
9.8545957e+2, 1.2278993e+2, -1569713.6, -1735899.1, 1459.7225, -0.0023637903, -0.046851162, -1569700.9, 166954.61 
9.8544574e+2, 1.327815e+2, -1493368.1, -1656612.3, -1563.0377, 0.015811551, -0.00018523863, -1493353.1, 145384.67 
9.854311e+2, 1.4277199e+2, -1411859.4, -1566642.8, -4788.6196, -0.008813075, -0.057335533, -1411711.4, 129119.67 
9.854163e+2, 1.5276335e+2, -1330010.0, -1475520.4, -5453.3457, -0.00089049974, -0.040813226, -1329805.9, 113109.87 
9.8540103e+2, 1.6275443e+2, -1251505.6, -1391331.6, -8575.168, 0.003862086, -0.028737856, -1250981.6, 94021.52 
9.8538536e+2, 1.7274526e+2, -1169602.8, -1300402.5, -8502.978, -0.0000934548, -0.033276524, -1169052.3, 78040.77 
9.8536944e+2, 1.827359e+2, -1090335.9, -1214760.3, -10472.91, -0.0023513106, -0.035771497, -1089460.5, 59724.25 
9.8535335e+2, 1.9272658e+2, -1008501.8, -1123513.1, -10909.765, -0.00033101844, -0.03636073, -1007476.1, 43800.008 
9.85337e+2, 2.02717e+2, -930332.1, -1039992.7, -12177.533, 0.00039636396, -0.035801575, -928996.1, 24373.73 
9.853206e+2, 2.1270733e+2, -848367.75, -949074.9, -11912.55, -0.0021591217, -0.03548257, -846977.8, 8487.029 
9.853041e+2, 2.2269744e+2, -768913.94, -863230.94, -11778.534, -0.003693304, -0.034597915, -767465.25, -9903.515 
9.852877e+2, 2.3268755e+2, -686852.9, -771715.6, -11990.243, -0.0026119298, -0.035839368, -685191.3, -25532.695 
9.8527133e+2, 2.4267742e+2, -608627.1, -688072.9, -11123.646, -0.0021801614, -0.035902932, -607099.06, -45341.203 
9.852551e+2, 2.526672e+2, -526956.25, -597129.25, -10782.644, -0.0035528531, -0.03608377, -525336.8, -61478.605 
9.8523915e+2, 2.6265678e+2, -447305.66, -510544.16, -8730.467, -0.00439745, -0.035039175, -446122.5, -80162.41 
9.852234e+2, 2.7264646e+2, -364880.9, -418506.66, -8682.626, -0.0038112097, -0.035002906, -363510.13, -95448.71 
9.85208e+2, 2.8263554e+2, -291828.56, -345874.63, -5735.809, -0.00419168, -0.03468805, -291226.53, -121058.164 
9.8519295e+2, 2.9262397e+2, -210690.48, -256252.38, -5302.5845, -0.0071227523, -0.037135404, -210081.5, -137799.75 
9.8517835e+2, 3.0261686e+2, -112613.02, -78601.69, -815.9376, -0.008348938, -0.036866974, -78582.125, -78582.125 
9.851644e+2, 3.1261522e+2, -125998.586, -78947.195, -121.691154, -0.0048532174, -0.034373213, -78946.88, -78946.88 
9.9547344e+2, 1.228036e+2, -1571007.3, -1738692.5, -2598.6482, -0.0024794426, -0.04647237, -1570967.0, 165554.55 
9.954585e+2, 1.3279517e+2, -1493218.5, -1656471.0, -5457.1436, 0.016666237, -0.00011036488, -1493036.3, 145567.83 
9.9544275e+2, 1.4278562e+2, -1412407.5, -1567932.4, -8781.183, -0.008413091, -0.055621073, -1411913.4, 128784.24 
9.954268e+2, 1.5277687e+2, -1330818.9, -1477309.0, -9448.667, -0.0015047673, -0.03831479, -1330212.0, 112571.44 
9.954104e+2, 1.6276787e+2, -1251505.0, -1391415.9, -12539.162, 0.0030958748, -0.026588602, -1250390.1, 94481.53 
9.9539363e+2, 1.7275868e+2, -1169416.0, -1300093.3, -12462.479, 0.000977971, -0.034000453, -1168238.1, 78723.516 
9.953765e+2, 1.827493e+2, -1090897.4, -1215975.5, -14507.847, -0.00082554255, -0.037665375, -1089236.6, 59816.867 
9.9535924e+2, 1.9273989e+2, -1009318.4, -1125257.3, -14937.656, -0.0015435733, -0.035314847, -1007424.75, 43721.08 
9.953418e+2, 2.0273027e+2, -930002.4, -1039355.75, -16124.718, -0.0018506539, -0.033200502, -927674.25, 25565.77 
9.953242e+2, 2.1272063e+2, -847768.8, -947843.3, -15850.054, -0.0012165232, -0.03483849, -845318.44, 10016.005 
9.9530673e+2, 2.2271079e+2, -769068.5, -863522.06, -15784.02, -0.00123672, -0.03501524, -766500.7, -9069.754 
9.952891e+2, 2.3270085e+2, -687279.7, -772552.4, -15997.717, -0.0028081413, -0.034983296, -684377.2, -24848.94 
9.9527156e+2, 2.4269071e+2, -608193.1, -687109.1, -15156.934, -0.0037747952, -0.034420002, -605382.1, -43754.62 
9.952542e+2, 2.5268057e+2, -526319.7, -595727.25, -14833.411, -0.003247707, -0.035636347, -523282.5, -59555.465 
9.9523705e+2, 2.6267022e+2, -447079.44, -509968.34, -12724.892, -0.0034930168, -0.03517454, -444602.28, -78774.03 
9.952201e+2, 2.726599e+2, -364841.72, -418286.75, -12656.813, -0.005618392, -0.03457354, -361995.88, -94066.53 
9.9520355e+2, 2.8264904e+2, -291255.84, -344513.44, -9742.687, -0.006454155, -0.033810403, -289529.53, -119493.72 
9.9518746e+2, 2.9263762e+2, -210033.22, -254661.56, -9322.326, -0.0042815, -0.036115263, -208164.17, -136016.08 
9.9517167e+2, 3.0263063e+2, -111658.55, -76360.95, -4907.187, -0.0044107004, -0.03589634, -75691.44, -75691.44 
9.9515647e+2, 3.1262916e+2, -125004.4, -76604.336, -4249.1514, -0.009726036, -0.034006134, -76234.125, -76234.125 
1.0054875e+3, 1.2281853e+2, -1565540.1, -1738627.9, 1543.9905, -0.0026840423, -0.045211483, -1565526.4, 170848.86 
1.0054715e+3, 1.3281004e+2, -1486464.4, -1653174.3, -1141.4291, 0.016997198, -0.0014819752, -1486456.6, 152001.75 
1.0054546e+3, 1.4280051e+2, -1406665.3, -1565873.9, -4618.971, -0.008182084, -0.053985454, -1406531.4, 134020.33 
1.00543745e+3, 1.5279165e+2, -1326332.5, -1476144.0, -5119.765, -0.0013377641, -0.037393346, -1326157.8, 116480.695 
1.0054199e+3, 1.6278258e+2, -1247741.1, -1390192.0, -8130.0806, 0.0032331941, -0.026234966, -1247278.6, 97448.87 
1.0054019e+3, 1.7277333e+2, -1166392.6, -1299185.4, -8483.8545, 0.0011954985, -0.033534404, -1165852.8, 80965.21 
1.0053837e+3, 1.8276392e+2, -1088448.3, -1215194.3, -10731.328, -0.00060386816, -0.03706419, -1087546.1, 61364.21 
1.00536525e+3, 1.9275446e+2, -1007373.1, -1124748.1, -10644.525, -0.0016482361, -0.03456251, -1006415.6, 44587.42 
1.0053466e+3, 2.0274483e+2, -928422.3, -1038567.9, -11598.65, -0.002075741, -0.03240348, -927214.2, 25883.258 
1.00532785e+3, 2.1273519e+2, -847228.1, -947497.0, -11819.597, -0.0011044742, -0.034286708, -845853.7, 9338.113 
1.00530915e+3, 2.2272535e+2, -769460.75, -863592.75, -12005.573, -0.0009517574, -0.034597743, -767953.7, -10665.483 
1.0052904e+3, 2.3271543e+2, -688355.75, -773016.25, -11820.8955, -0.0028336833, -0.034367338, -686736.25, -27350.707 
1.00527175e+3, 2.4270532e+2, -609572.9, -687232.0, -10793.081, -0.0039993543, -0.033599533, -608100.75, -46616.227 
1.0052532e+3, 2.5269523e+2, -528217.8, -596030.44, -10760.363, -0.0033980678, -0.03466943, -526551.3, -62967.777 
1.0052349e+3, 2.6268494e+2, -449580.56, -510496.94, -8752.811, -0.0035838864, -0.034335896, -448347.84, -82663.65 
1.00521676e+3, 2.7267468e+2, -368205.97, -419287.78, -8428.166, -0.005750581, -0.034428246, -366851.3, -99066.484 
1.005199e+3, 2.8266388e+2, -295225.3, -345285.28, -5406.0674, -0.006548711, -0.033709407, -294648.16, -124757.57 
1.0051817e+3, 2.9265255e+2, -215129.98, -255893.83, -5042.6143, -0.004074945, -0.0345611, -214515.47, -142513.78 
1.0051648e+3, 3.0264568e+2, -117538.02, -77968.57, -717.8729, -0.004229066, -0.033894077, -77955.55, -77955.55 
1.0051484e+3, 3.1264427e+2, -130781.61, -78235.51, -502.6934, -0.010526191, -0.034022957, -78230.695, -78230.695 
1.0155019e+3, 1.2283458e+2, -1567268.8, -1742423.5, -2720.708, -0.003061886, -0.043454148, -1567226.5, 168991.45 
1.0154847e+3, 1.3282602e+2, -1486434.0, -1653220.4, -5088.325, 0.016863242, -0.004039929, -1486278.9, 152022.97 
1.0154666e+3, 1.428165e+2, -1406967.6, -1566523.6, -8833.354, -0.008123399, -0.052387126, -1406480.1, 133914.97 
1.0154483e+3, 1.5280758e+2, -1326725.8, -1477042.8, -9399.17, -0.0005456302, -0.037824344, -1326140.4, 116342.28 
1.0154295e+3, 1.627984e+2, -1248348.1, -1391555.0, -12305.201, 0.0040614028, -0.027426234, -1247298.5, 97273.98 
1.01541035e+3, 1.7278908e+2, -1167126.0, -1300783.1, -12607.828, 0.0006422236, -0.032036226, -1165947.1, 80716.67 
1.0153909e+3, 1.827796e+2, -1088379.1, -1215102.8, -14863.399, -0.0015746605, -0.03431533, -1086659.1, 62097.547 
1.0153713e+3, 1.9277014e+2, -1007129.7, -1124276.6, -14782.765, -0.00079875736, -0.034055732, -1005293.06, 45556.258 
1.0153515e+3, 2.027605e+2, -928661.0, -1039071.56, -15798.038, -0.0005967327, -0.033155262, -926445.0, 26498.752 
1.0153315e+3, 2.1275082e+2, -847649.2, -948374.1, -16026.577, -0.0017638139, -0.03380147, -845160.6, 9878.018 
1.0153116e+3, 2.2274096e+2, -769197.44, -863043.8, -16174.402, -0.0026461578, -0.03342957, -766488.0, -9352.753 
1.01529166e+3, 2.3273109e+2, -687949.9, -772146.94, -15980.751, -0.002712101, -0.033956524, -685018.75, -25786.68 
1.0152718e+3, 2.4272104e+2, -609386.6, -686789.4, -14975.109, -0.0030242486, -0.03335184, -606590.44, -45259.824 
1.015252e+3, 2.5271094e+2, -528155.1, -595819.56, -14947.763, -0.003992909, -0.033220254, -525000.1, -61570.758 
1.0152326e+3, 2.6270074e+2, -449092.5, -509376.56, -12937.207, -0.004604368, -0.03260345, -446433.4, -80903.83 
1.0152133e+3, 2.7269053e+2, -367661.8, -418008.9, -12615.402, -0.004384434, -0.034532383, -364677.66, -97048.125 
1.01519436e+3, 2.8267983e+2, -294581.7, -343773.94, -9702.6875, -0.0047158683, -0.034307733, -292737.1, -123002.734 
1.0151757e+3, 2.9266864e+2, -214503.11, -254414.38, -9378.676, -0.006404409, -0.032458715, -212409.1, -140564.88 
1.0151576e+3, 3.0266187e+2, -117220.72, -77105.87, -4845.342, -0.0076406715, -0.030867165, -76528.914, -76528.914 
1.01514004e+3, 3.1266046e+2, -130664.67, -77690.96, -4569.6743, -0.0075797136, -0.03437931, -77299.66, -77299.66 
1.0255166e+3, 1.2285194e+2, -1560421.6, -1741793.6, 1250.2994, -0.002885447, -0.040982828, -1560413.0, 175634.95 
1.0254981e+3, 1.3284327e+2, -1480208.6, -1650232.3, -752.4861, 0.01672641, -0.008087121, -1480205.3, 157927.48 
1.0254788e+3, 1.4283381e+2, -1402617.3, -1565020.0, -4507.579, -0.0079754125, -0.04876623, -1402492.3, 137733.2 
1.02545924e+3, 1.5282479e+2, -1322383.5, -1475762.6, -5140.7583, -0.00041210992, -0.036807325, -1322211.4, 120102.516 
1.02543935e+3, 1.6281553e+2, -1244104.4, -1390208.0, -8047.2295, 0.00413473, -0.028082708, -1243662.5, 100742.21 
1.0254189e+3, 1.7280616e+2, -1163908.5, -1299981.5, -8082.856, 0.00051186717, -0.031470433, -1163430.1, 83066.516 
1.0253983e+3, 1.8279663e+2, -1085762.4, -1214013.6, -10217.697, -0.0017065082, -0.0330224, -1084953.4, 63636.43 
1.02537744e+3, 1.9278716e+2, -1005323.75, -1123485.9, -10385.637, -0.0004900627, -0.033385754, -1004417.9, 46264.754 
1.0253564e+3, 2.0277749e+2, -927693.7, -1038828.06, -11537.101, -0.0001364498, -0.03287242, -926508.6, 26268.645 
1.0253352e+3, 2.127678e+2, -847237.44, -948513.6, -11575.09, -0.001968201, -0.033251286, -845931.3, 8941.08 
1.0253141e+3, 2.2275794e+2, -768934.06, -862567.56, -11618.842, -0.003150627, -0.032692183, -767513.8, -10544.774 
1.0252929e+3, 2.3274809e+2, -688452.0, -771916.1, -11541.014, -0.0026804816, -0.0332315, -686885.56, -27820.064 
1.02527186e+3, 2.4273807e+2, -610762.94, -687075.06, -10609.073, -0.0027055242, -0.03269557, -609315.5, -48151.836 
1.02525085e+3, 2.5272802e+2, -530320.44, -596587.1, -10525.3545, -0.00405753, -0.032755293, -528688.8, -65426.62 
1.02523014e+3, 2.6271784e+2, -451726.44, -509809.13, -8519.127, -0.004876683, -0.03206017, -450502.7, -85140.69 
1.0252096e+3, 2.7270773e+2, -371297.28, -418837.25, -8266.494, -0.0043829596, -0.033331744, -369900.88, -102439.77 
1.02518946e+3, 2.826971e+2, -298786.0, -344691.44, -5374.686, -0.0046518, -0.032953646, -298165.13, -128600.06 
1.0251696e+3, 2.9268602e+2, -218501.3, -255251.34, -5105.079, -0.0068570627, -0.03205128, -217805.31, -146131.23 
1.0251503e+3, 3.0267936e+2, -121740.69, -78124.26, -589.08374, -0.008139099, -0.030808998, -78116.305, -78116.305 
1.0251315e+3, 3.1267804e+2, -137718.28, -79988.73, 24.783516, -0.0069585014, -0.033311836, -79988.72, -79988.72 
1.03553146e+3, 1.22870445e+2, -1561985.8, -1745065.8, -3648.1973, -0.002338939, -0.038391408, -1561913.0, 173953.55 
1.0355117e+3, 1.3286167e+2, -1480156.6, -1650259.9, -5265.2456, 0.016548283, -0.013359343, -1479993.9, 157958.64 
1.0354912e+3, 1.4285229e+2, -1402977.5, -1565911.8, -8774.439, -0.007822611, -0.043485623, -1402506.4, 137538.08 
1.03547044e+3, 1.5284313e+2, -1322933.9, -1476980.0, -9331.479, -0.00086456083, -0.034586582, -1322370.8, 119763.38 
1.0354492e+3, 1.628338e+2, -1244353.6, -1390752.6, -12394.72, 0.0035199153, -0.028289795, -1243311.6, 100914.086 
1.0354276e+3, 1.7282438e+2, -1164111.4, -1300447.0, -12464.585, 0.0007212336, -0.031694535, -1162981.1, 83336.83 
1.0354058e+3, 1.8281484e+2, -1085981.3, -1214515.5, -14582.07, -0.001192416, -0.03296866, -1084347.6, 64063.87 
1.03538364e+3, 1.9280533e+2, -1005593.3, -1124091.1, -14743.342, -0.00068496796, -0.03256316, -1003786.5, 46718.168 
1.0353614e+3, 2.0279564e+2, -927725.2, -1038924.94, -15872.403, -0.00063744007, -0.03167791, -925503.94, 27095.596 
1.035339e+3, 2.1278591e+2, -847263.25, -948570.1, -15894.439, -0.0017795983, -0.032629147, -844828.0, 9866.797 
1.0353165e+3, 2.2277606e+2, -768772.56, -862210.2, -15981.101, -0.0026427805, -0.032306775, -766114.8, -9323.412 
1.0352941e+3, 2.3276626e+2, -688289.9, -771542.4, -15921.03, -0.0027529504, -0.032217056, -685349.06, -26461.506 
1.0352719e+3, 2.4275628e+2, -610542.4, -686559.6, -14985.086, -0.0030162386, -0.031660117, -607695.06, -46709.59 
1.0352495e+3, 2.5274622e+2, -530139.44, -596126.06, -14894.459, -0.0036681923, -0.03317124, -526933.25, -63849.414 
1.03522755e+3, 2.6273608e+2, -451288.75, -508796.1, -12955.154, -0.004501618, -0.032583427, -448504.97, -83321.81 
1.0352058e+3, 2.727261e+2, -370835.9, -417768.66, -12729.549, -0.0056858463, -0.030896569, -367605.63, -100324.32 
1.03518434e+3, 2.827156e+2, -298219.75, -343378.75, -9681.359, -0.0062719905, -0.029767573, -296231.72, -126847.36 
1.0351633e+3, 2.927045e+2, -217995.17, -253992.61, -9366.144, -0.0055962987, -0.03323953, -215704.03, -144211.11 
1.0351427e+3, 3.0269793e+2, -120897.266, -76127.53, -5213.707, -0.0059879688, -0.03353034, -75528.38, -75528.38 
1.0351226e+3, 3.126968e+2, -136819.03, -77874.74, -4723.4834, -0.008680009, -0.030808745, -77498.63, -77498.63 
1.0455466e+3, 1.2289041e+2, -1556378.0, -1744186.4, 915.4607, -0.002289754, -0.03520365, -1556373.5, 179297.44 
1.0455257e+3, 1.3288149e+2, -1473595.6, -1647571.8, -463.07956, 0.015992245, -0.020618217, -1473594.4, 164164.14 
1.0455038e+3, 1.4287215e+2, -1397032.5, -1563910.8, -4110.154, -0.0071323654, -0.03821076, -1396931.3, 142918.5 
1.0454817e+3, 1.5286289e+2, -1318617.8, -1475938.0, -4724.5713, -0.0008519633, -0.03260879, -1318476.0, 123464.72 
1.0454592e+3, 1.6285343e+2, -1240856.6, -1389507.1, -7858.33, 0.0032048177, -0.028773459, -1240442.4, 103590.94 
1.0454364e+3, 1.72844e+2, -1160972.4, -1299285.0, -7928.677, 0.0009800347, -0.031717326, -1160519.3, 85606.54 
1.0454133e+3, 1.8283442e+2, -1083376.8, -1213755.4, -10072.938, -0.0007100241, -0.032561786, -1082603.1, 65616.58 
1.0453899e+3, 1.9282484e+2, -1003666.7, -1123775.4, -10317.822, -0.00091679196, -0.031991653, -1002786.8, 47526.676 
1.0453663e+3, 2.0281513e+2, -926074.4, -1038025.75, -11478.051, -0.00113981, -0.030985152, -924909.7, 27498.936 
1.0453427e+3, 2.1280542e+2, -846542.3, -947996.8, -11347.4, -0.0015623464, -0.03189506, -845288.6, 9215.098 
1.045319e+3, 2.2279559e+2, -769012.3, -862191.3, -11368.997, -0.0021089728, -0.031578418, -767645.2, -11045.03 
1.0452953e+3, 2.3278578e+2, -689237.0, -771967.3, -11459.359, -0.0029734748, -0.031574704, -687679.0, -28982.705 
1.04527175e+3, 2.427758e+2, -611820.0, -686551.7, -10584.891, -0.003602144, -0.031031568, -610349.7, -49555.69 
1.0452481e+3, 2.5276583e+2, -532225.3, -596412.06, -10291.061, -0.003706858, -0.032347552, -530615.75, -67723.984 
1.045225e+3, 2.6275578e+2, -454031.75, -509393.38, -8224.292, -0.004279639, -0.031727295, -452835.84, -87845.37 
1.0452019e+3, 2.7274582e+2, -373791.6, -418540.75, -8111.4204, -0.0059285085, -0.030395687, -372366.66, -105278.6 
1.0451792e+3, 2.8273535e+2, -301600.06, -343851.1, -5154.2974, -0.0066622403, -0.029434593, -300980.38, -131789.94 
1.0451569e+3, 2.927244e+2, -223419.2, -255382.89, -4731.684, -0.0053255837, -0.032658182, -222733.47, -151435.56 
1.0451349e+3, 3.0271795e+2, -127265.27, -77933.66, -544.35846, -0.005552547, -0.032702696, -77927.65, -77927.65 
1.0451135e+3, 3.1271696e+2, -141533.53, -78948.016, -371.6595, -0.009296109, -0.029748138, -78945.805, -78945.805 
1.055562e+3, 1.2291164e+2, -1557160.0, -1745904.6, -4010.6353, -0.002793726, -0.0321096, -1557074.8, 178388.22 
1.0555397e+3, 1.329025e+2, -1474141.5, -1648732.3, -4922.4316, 0.015110767, -0.029477231, -1474002.9, 163549.63 
1.0555166e+3, 1.4289324e+2, -1397704.4, -1565289.0, -8684.913, -0.0060385577, -0.03294782, -1397255.5, 142387.77 
1.0554933e+3, 1.5288381e+2, -1319311.9, -1477440.9, -9308.429, -0.000492384, -0.030842576, -1318765.9, 122969.766 
1.0554695e+3, 1.6287427e+2, -1241096.6, -1390108.8, -12346.174, 0.0030646143, -0.029496768, -1240080.6, 103748.66 
1.0554453e+3, 1.728648e+2, -1161161.3, -1299751.3, -12396.577, 0.0012438494, -0.03156462, -1160061.1, 85860.875 
1.0554209e+3, 1.8285516e+2, -1083733.8, -1214526.9, -14573.327, -0.0003391334, -0.031840034, -1082129.6, 65886.6 
1.0553963e+3, 1.9284554e+2, -1004132.7, -1124747.9, -14805.904, -0.0011999912, -0.031624734, -1002341.75, 47768.94 
1.0553715e+3, 2.0283578e+2, -925919.44, -1037699.5, -16024.631, -0.0017005255, -0.030714905, -923667.56, 28538.648 
1.0553464e+3, 2.1282613e+2, -846256.7, -947406.1, -15923.754, -0.0013480656, -0.031052282, -843809.06, 10491.876 
1.0553214e+3, 2.2281632e+2, -769014.1, -862186.44, -15919.903, -0.001624038, -0.030524723, -766369.06, -9971.948 
1.05529636e+3, 2.3280647e+2, -689381.94, -772233.06, -15988.549, -0.0033490455, -0.031259693, -686403.56, -27910.025 
1.0552715e+3, 2.4279653e+2, -611335.06, -685491.5, -15156.626, -0.0044737323, -0.030752854, -608356.9, -47765.824 
1.05524674e+3, 2.5278667e+2, -531610.75, -595074.7, -14886.932, -0.0041610296, -0.030378329, -528292.2, -65604.46 
1.05522215e+3, 2.6277667e+2, -453668.4, -508552.63, -12747.708, -0.00422807, -0.029600978, -450852.06, -86066.414 
1.0551979e+3, 2.727667e+2, -373575.2, -417952.88, -12610.498, -0.005227358, -0.0316873, -370242.1, -103358.914 
1.0551738e+3, 2.8275636e+2, -300898.44, -342231.06, -9900.458, -0.0059673474, -0.03173195, -298649.38, -129664.43 
1.05515e+3, 2.9274553e+2, -222620.81, -253571.75, -9555.985, -0.006062611, -0.030361114, -219908.19, -148817.38 
1.05512686e+3, 3.0273923e+2, -126781.96, -76754.94, -4937.959, -0.006824892, -0.02848962, -76272.19, -76272.19 
1.0551042e+3, 3.1273824e+2, -141245.53, -78080.305, -4651.54, -0.008951886, -0.03005447, -77739.59, -77739.59 
1.0655778e+3, 1.2293434e+2, -1549745.4, -1742716.5, 491.70667, -0.0023393976, -0.028634278, -1549744.1, 185496.33 
1.06555395e+3, 1.3292497e+2, -1469155.6, -1647942.4, -277.6327, 0.013759606, -0.036680378, -1469155.3, 168177.13 
1.0655295e+3, 1.4291571e+2, -1393293.5, -1564000.6, -4142.4365, -0.0052510574, -0.027146535, -1393193.1, 146229.9 
1.06550485e+3, 1.5290618e+2, -1314583.9, -1475845.5, -4483.496, -0.000015732867, -0.029795546, -1314459.4, 127057.11 
1.0654799e+3, 1.6289653e+2, -1236570.4, -1388692.4, -7492.615, 0.0031768077, -0.03139443, -1236202.3, 107408.81 
1.0654543e+3, 1.72887e+2, -1157798.1, -1298998.6, -7844.0874, 0.0010159777, -0.031251457, -1157363.8, 88340.71 
1.06542856e+3, 1.8287733e+2, -1081009.0, -1213359.1, -10111.064, -0.0006198863, -0.030216228, -1080241.1, 67558.04 
1.06540255e+3, 1.9286768e+2, -1002331.3, -1123914.5, -9937.319, -0.001015704, -0.031049456, -1001524.5, 48369.242 
1.0653765e+3, 2.0285793e+2, -924946.2, -1037319.0, -10969.892, -0.0013790264, -0.030789802, -923885.3, 28104.02 
1.06535025e+3, 2.1284825e+2, -845736.44, -947335.2, -11228.252, -0.0016886105, -0.030684344, -844510.3, 9573.873 
1.0653239e+3, 2.2283845e+2, -768735.4, -861719.0, -11411.05, -0.0021882572, -0.029863527, -767355.5, -11175.138 
1.0652976e+3, 2.3282863e+2, -690058.44, -772162.44, -11137.797, -0.0032121544, -0.0307713, -688574.4, -30297.895 
1.06527135e+3, 2.4281871e+2, -612797.44, -685716.2, -10142.635, -0.0040436075, -0.030347725, -611412.94, -51039.29 
1.0652453e+3, 2.5280887e+2, -533547.9, -595579.9, -10226.702, -0.004444393, -0.029732607, -531905.4, -69435.375 
1.0652193e+3, 2.6279896e+2, -456087.97, -508869.34, -8304.613, -0.0047993916, -0.02888642, -454812.16, -90244.77 
1.06519364e+3, 2.7278906e+2, -377417.25, -418913.56, -7932.0786, -0.0050794166, -0.03132683, -375952.72, -109288.53 
1.0651683e+3, 2.8277877e+2, -305272.63, -343137.72, -5062.0806, -0.00557897, -0.03135824, -304607.56, -135842.52 
1.0651432e+3, 2.927681e+2, -226018.89, -253990.48, -4844.4136, -0.006603306, -0.029135741, -225203.64, -154333.83 
1.0651187e+3, 3.0276188e+2, -130651.37, -77501.79, -332.40396, -0.00758492, -0.027209688, -77499.71, -77499.71 
1.0650947e+3, 3.1276095e+2, -148791.75, -80715.51, 89.40246, -0.008144415, -0.030529462, -80715.39, -80715.39 
1.0755936e+3, 1.2295835e+2, -1549656.1, -1742428.8, -4835.8438, -0.0013034947, -0.025233746, -1549534.9, 185470.42 
1.0755685e+3, 1.329487e+2, -1470550.9, -1650882.5, -5138.621, 0.012003316, -0.04251359, -1470404.6, 166695.28 
1.0755427e+3, 1.429394e+2, -1393653.4, -1564880.1, -8721.621, -0.004773705, -0.020920124, -1393210.3, 145980.53 
1.0755167e+3, 1.5292978e+2, -1314761.8, -1476274.5, -8986.211, 0.00051667215, -0.029376581, -1314263.4, 127021.83 
1.07549034e+3, 1.6292004e+2, -1237234.8, -1390058.8, -12201.4375, 0.0034179608, -0.034268763, -1236266.8, 107113.87 
1.0754635e+3, 1.7291044e+2, -1158625.9, -1300715.6, -12576.077, 0.00034281053, -0.030789027, -1157521.4, 87953.484 
1.0754364e+3, 1.8290073e+2, -1080856.5, -1213065.0, -14838.271, -0.0015168994, -0.027836312, -1079211.6, 68358.38 
1.07540905e+3, 1.9289109e+2, -1001960.1, -1123182.1, -14684.216, -0.00045559515, -0.030293839, -1000206.75, 49457.6 
1.07538156e+3, 2.0288135e+2, -925182.25, -1037828.56, -15665.896, -0.00038528471, -0.03113846, -923044.2, 28715.725 
1.075354e+3, 2.128716e+2, -846205.6, -948296.0, -15889.363, -0.002541181, -0.030729229, -843789.75, 10065.617 
1.0753263e+3, 2.2286177e+2, -768359.25, -860911.5, -16165.329, -0.0037177259, -0.02953998, -765617.06, -9665.365 
1.07529856e+3, 2.3285206e+2, -689490.06, -770962.2, -15932.993, -0.0026267108, -0.030114243, -686485.0, -28438.004 
1.07527114e+3, 2.428422e+2, -612711.8, -685502.94, -14872.2705, -0.002497369, -0.0298107, -609790.44, -49646.805 
1.0752435e+3, 2.5283232e+2, -533667.3, -595754.56, -14924.697, -0.0046096826, -0.030293992, -530266.0, -68025.805 
1.0752163e+3, 2.6282242e+2, -455497.47, -507549.5, -13140.023, -0.00597541, -0.029449081, -452368.5, -88031.13 
1.0751892e+3, 2.728127e+2, -376674.44, -417276.2, -12816.189, -0.005482176, -0.029402554, -372967.4, -106534.54 
1.0751626e+3, 2.828025e+2, -304635.0, -341694.2, -9689.046, -0.0055340827, -0.028478522, -302254.7, -133722.1 
1.0751362e+3, 2.9279187e+2, -225493.06, -252712.16, -9399.251, -0.0070162984, -0.028919457, -222562.8, -151926.1 
1.07511036e+3, 3.0278572e+2, -129977.9, -75884.195, -5427.2407, -0.00792291, -0.028686408, -75345.05, -75345.05 
1.0750848e+3, 3.1278497e+2, -148133.23, -79133.11, -5169.9966, -0.006983459, -0.03114187, -78747.88, -78747.88 
1.0856097e+3, 1.2298387e+2, -1543088.6, -1738333.0, 58.8351, -0.00029706187, -0.02375458, -1543088.6, 191666.5 
1.0855833e+3, 1.3297395e+2, -1465500.0, -1651175.9, 1.154705, 0.010192069, -0.046465542, -1465500.0, 171352.3 
1.08555615e+3, 1.4296456e+2, -1387543.1, -1563070.4, -3857.841, -0.0036303, -0.01823294, -1387458.4, 151486.08 
1.0855288e+3, 1.5295482e+2, -1310062.5, -1474784.8, -4382.12, 0.0006154756, -0.028351722, -1309946.0, 131093.88 
1.0855011e+3, 1.62945e+2, -1233638.3, -1388722.1, -7679.6245, 0.0029249804, -0.034477018, -1233258.9, 109877.055 
1.0854728e+3, 1.7293537e+2, -1155571.0, -1299614.6, -7540.0835, 0.0003336162, -0.03087863, -1155177.4, 90053.18 
1.0854443e+3, 1.8292563e+2, -1078288.9, -1212197.3, -9597.49, -0.0013065448, -0.027670337, -1077604.5, 69721.51 
1.0854156e+3, 1.9291596e+2, -999894.6, -1122629.9, -10008.098, -0.0006478478, -0.029608121, -999083.9, 50336.863 
1.0853869e+3, 2.0290618e+2, -923509.94, -1037003.94, -11268.739, -0.00067035324, -0.030263172, -922401.9, 29114.656 
1.0853578e+3, 2.1289644e+2, -845672.06, -947981.75, -11037.166, -0.0023640913, -0.030399201, -844494.94, 9117.131 
1.08532876e+3, 2.228866e+2, -768604.6, -860757.44, -11103.832, -0.0034176984, -0.029468276, -767285.56, -11577.268 
1.0852997e+3, 2.3287691e+2, -690084.94, -770990.2, -11256.336, -0.0030048776, -0.029601933, -688548.06, -30744.678 
1.0852707e+3, 2.4286708e+2, -613671.75, -685371.25, -10355.673, -0.0031090293, -0.029135691, -612206.0, -52306.344 
1.0852418e+3, 2.528573e+2, -535778.25, -596169.25, -9974.737, -0.004520479, -0.030115085, -534173.4, -72177.57 
1.0852133e+3, 2.6284745e+2, -458286.13, -508071.66, -7971.525, -0.005636134, -0.029355077, -457040.88, -92948.516 
1.0851848e+3, 2.7283776e+2, -379478.53, -417816.78, -7927.2705, -0.0059150546, -0.02844296, -377904.06, -111716.94 
1.0851567e+3, 2.8282768e+2, -307915.2, -342074.97, -4948.165, -0.006154839, -0.02738592, -307212.88, -138926.88 
1.0851289e+3, 2.9281715e+2, -231074.53, -254170.02, -4533.011, -0.006559593, -0.02930302, -230216.69, -159827.47 
1.0851017e+3, 3.028111e+2, -136433.2, -77809.695, -530.9249, -0.0071295593, -0.029419472, -77804.88, -77804.88 
1.08507484e+3, 3.1281045e+2, -152085.36, -79955.05, -408.96796, -0.0073786494, -0.029673915, -79952.73, -79952.73 
1.0956261e+3, 1.2301073e+2, -1542308.4, -1736619.9, -5057.045, 0.000413029, -0.023386076, -1542176.9, 192314.92 
1.0955981e+3, 1.3300055e+2, -1467499.5, -1655319.1, -4639.14, 0.008304336, -0.04894846, -1467385.0, 169206.7 
1.0955697e+3, 1.4299093e+2, -1388477.3, -1565067.4, -8725.351, -0.002025473, -0.018406851, -1388047.3, 150638.7 
1.09554105e+3, 1.529811e+2, -1310790.0, -1476320.4, -9288.82, 0.0003278449, -0.026803007, -1310270.4, 130511.87 
1.09551184e+3, 1.6297126e+2, -1233559.4, -1388570.6, -12548.09, 0.0017649723, -0.032502078, -1232550.1, 110328.7 
1.0954822e+3, 1.729616e+2, -1155311.9, -1299109.0, -12415.334, 0.00083970395, -0.03144336, -1154247.9, 90725.625 
1.0954524e+3, 1.8295182e+2, -1078844.8, -1213366.0, -14467.854, -0.0002614529, -0.029335715, -1077306.3, 69762.84 
1.0954222e+3, 1.9294208e+2, -1000722.5, -1124340.6, -14845.498, -0.0015210838, -0.028973926, -998964.7, 50200.117 
1.09539196e+3, 2.0293225e+2, -923280.5, -1036518.7, -16188.636, -0.00212311, -0.028347963, -921011.6, 30249.422 
1.09536156e+3, 2.1292254e+2, -845204.3, -947016.5, -15994.728, -0.0012979578, -0.029740881, -842750.6, 10605.479 
1.09533116e+3, 2.2291276e+2, -768636.4, -860817.9, -15992.391, -0.0015809746, -0.029592417, -765940.7, -10488.673 
1.0953007e+3, 2.3290303e+2, -690315.3, -771431.94, -16114.416, -0.0042849923, -0.029225525, -687231.3, -29683.904 
1.0952703e+3, 2.4289323e+2, -613083.8, -684097.9, -15320.013, -0.005702016, -0.028333424, -609919.75, -50276.242 
1.0952401e+3, 2.5288352e+2, -535018.3, -594535.7, -14980.29, -0.0042120335, -0.029248826, -531460.5, -69721.914 
1.09520994e+3, 2.6287377e+2, -457936.03, -507270.53, -12880.797, -0.0039573205, -0.02865156, -454775.47, -90941.19 
1.09518014e+3, 2.7286413e+2, -379304.75, -417347.0, -12806.023, -0.0064280666, -0.028377378, -375395.63, -109466.86 
1.0951506e+3, 2.828541e+2, -307196.9, -340452.84, -10062.557, -0.0074458728, -0.027943905, -304389.25, -136362.17 
1.0951214e+3, 2.928437e+2, -230262.38, -252345.63, -9716.122, -0.0053102965, -0.03024757, -226596.16, -156467.03 
1.09509274e+3, 3.0283776e+2, -135855.42, -76447.91, -5223.3716, -0.005321141, -0.02942153, -75992.14, -75992.14 
1.0950646e+3, 3.128372e+2, -151663.47, -78846.59, -4971.267, -0.009423152, -0.026105419, -78508.766, -78508.766 
1.10564254e+3, 1.2303904e+2, -1535375.5, -1732211.0, -558.29626, 0.0017237589, -0.024396729, -1535373.9, 198840.61 
1.10561326e+3, 1.3302869e+2, -1462536.4, -1655570.9, 466.3627, 0.005700907, -0.045572594, -1462535.3, 173780.72 
1.1055836e+3, 1.4301883e+2, -1382707.0, -1563364.8, -3796.473, -0.0003084056, -0.020094745, -1382627.3, 155785.23 
1.10555336e+3, 1.5300895e+2, -1306027.3, -1474771.6, -4223.692, 0.0006577244, -0.027024368, -1305921.6, 134587.78 
1.1055227e+3, 1.6299903e+2, -1229652.1, -1387213.0, -7360.1885, 0.0011926974, -0.031644393, -1229309.1, 113297.516 
1.1054917e+3, 1.7298932e+2, -1151949.0, -1298020.9, -7715.824, 0.0007017817, -0.03077698, -1151542.5, 93159.19 
1.10546045e+3, 1.8297952e+2, -1075987.4, -1212218.3, -9977.365, -0.00007134206, -0.029007018, -1075260.5, 71537.35 
1.1054289e+3, 1.9296972e+2, -998885.06, -1123685.1, -9745.07, -0.0014592775, -0.029130071, -998128.7, 50765.11 
1.1053972e+3, 2.029599e+2, -922083.9, -1035896.7, -10793.937, -0.0022327555, -0.028560326, -921069.25, 29920.965 
1.1053654e+3, 2.129502e+2, -844404.75, -946586.9, -10995.989, -0.0016449763, -0.02918743, -843234.8, 9850.377 
1.10533364e+3, 2.2294043e+2, -768313.8, -860392.1, -11167.576, -0.0019227366, -0.028732087, -766978.75, -11797.707 
1.1053016e+3, 2.329307e+2, -691143.7, -771585.94, -10944.325, -0.0042223893, -0.028953176, -689681.3, -32405.021 
1.1052699e+3, 2.4292094e+2, -614616.6, -684224.0, -10047.757, -0.0055342647, -0.028264772, -613195.25, -53823.2 
1.1052381e+3, 2.529113e+2, -536993.7, -594849.94, -10083.435, -0.0046021556, -0.02861597, -535286.7, -73820.09 
1.1052067e+3, 2.6290157e+2, -460432.97, -507699.9, -8129.8755, -0.0044504036, -0.027980873, -459073.72, -95512.05 
1.1051754e+3, 2.72892e+2, -382786.6, -418291.53, -7827.8374, -0.0061015254, -0.028716989, -381137.4, -115481.734 
1.10514455e+3, 2.8288203e+2, -310902.84, -341004.16, -5037.4272, -0.006906083, -0.028551247, -310082.22, -142329.02 
1.1051139e+3, 2.9287177e+2, -233540.94, -252633.47, -4793.6733, -0.005892734, -0.029508628, -232404.95, -162550.9 
1.10508375e+3, 3.0286595e+2, -139987.23, -77329.484, -252.51407, -0.0061897347, -0.028261833, -77328.47, -77328.47 
1.1050542e+3, 3.1286547e+2, -159074.73, -81440.86, 56.98231, -0.008662579, -0.026518619, -81440.82, -81440.82 
1.1156593e+3, 1.2306859e+2, -1534836.1, -1731176.0, -5394.182, 0.0030865078, -0.025248215, -1534688.0, 199236.89 
1.1156286e+3, 1.3305815e+2, -1463996.9, -1658563.1, -4048.382, 0.0025316288, -0.037644617, -1463912.8, 172114.58 
1.1155976e+3, 1.4304805e+2, -1383248.1, -1564399.6, -8900.711, 0.0014440978, -0.023026435, -1382811.9, 155314.53 
1.1155659e+3, 1.5303811e+2, -1306318.5, -1475369.4, -9461.972, 0.0014291, -0.028684562, -1305790.5, 134433.03 
1.1155338e+3, 1.6302815e+2, -1230324.5, -1388630.4, -12396.356, 0.001005037, -0.031670563, -1229359.6, 112961.586 
1.1155014e+3, 1.7301834e+2, -1152784.3, -1299749.6, -12679.323, -0.000009420926, -0.029075406, -1151698.4, 92719.055 
1.1154686e+3, 1.8300848e+2, -1075790.1, -1211797.3, -15036.268, -0.00067372835, -0.027034136, -1074147.6, 72366.445 
1.11543566e+3, 1.9299872e+2, -998463.7, -1122813.1, -14844.369, -0.0006235352, -0.029967373, -996716.1, 51893.57 
1.1154026e+3, 2.029889e+2, -922251.25, -1036237.44, -15861.346, -0.0012751449, -0.030557442, -920085.25, 30620.732 
1.1153693e+3, 2.1297917e+2, -844773.3, -947331.75, -16041.28, -0.0032643552, -0.028719928, -842322.8, 10478.466 
1.115336e+3, 2.229694e+2, -767979.4, -859673.6, -16295.95, -0.0042293794, -0.027015746, -765169.4, -10272.235 
1.1153026e+3, 2.3295973e+2, -690677.7, -770599.56, -16103.81, -0.002966921, -0.028767223, -687554.9, -30563.002 
1.11526944e+3, 2.4294999e+2, -614461.7, -683876.9, -15174.71, -0.002951724, -0.028829318, -611289.4, -52202.086 
1.1152362e+3, 2.5294036e+2, -536971.75, -594765.8, -15196.728, -0.005681133, -0.02820087, -533219.44, -72037.76 
1.1152033e+3, 2.629307e+2, -459890.03, -506515.38, -13252.784, -0.0069778906, -0.027340986, -456386.34, -93109.945 
1.1151706e+3, 2.7292117e+2, -382175.6, -416931.97, -12958.845, -0.005004876, -0.029421903, -377875.84, -112506.22 
1.11513816e+3, 2.8291133e+2, -310221.47, -339466.56, -10122.396, -0.0047134366, -0.029177153, -307059.7, -139593.5 
1.11510605e+3, 2.929012e+2, -232907.97, -251159.23, -9867.433, -0.008320991, -0.027126914, -228593.23, -159027.45 
1.11507446e+3, 3.028955e+2, -139395.2, -75913.31, -5603.859, -0.009679395, -0.025978867, -75422.43, -75422.43 
1.11504346e+3, 3.1289503e+2, -158559.42, -80159.17, -5371.6353, -0.005178823, -0.030867765, -79792.84, -79792.84 
1.1256764e+3, 1.23099625e+2, -1527036.0, -1728272.9, -558.6963, 0.0050357347, -0.028383838, -1527034.5, 206586.39 
1.1256443e+3, 1.3308914e+2, -1458472.8, -1657412.5, 1118.4996, -0.0010769367, -0.029786475, -1458466.5, 177257.06 
1.12561196e+3, 1.4307882e+2, -1378556.1, -1562880.9, -3845.447, 0.0036168408, -0.027490633, -1378475.9, 159348.97 
1.1255786e+3, 1.5306887e+2, -1301551.0, -1473673.9, -4564.4565, 0.0018381508, -0.029362677, -1301430.0, 138492.3 
1.12554505e+3, 1.6305886e+2, -1225908.9, -1387080.8, -7377.491, 0.00032535367, -0.02992837, -1225571.9, 116448.43 
1.1255111e+3, 1.7304899e+2, -1149568.3, -1298859.9, -7269.764, -0.00018664835, -0.028631514, -1149215.1, 94902.1 
1.12547696e+3, 1.8303907e+2, -1073235.8, -1210749.4, -9540.128, -0.0005554886, -0.027261522, -1072577.1, 73637.32 
1.1254425e+3, 1.9302928e+2, -996462.9, -1121983.4, -9809.291, -0.0006951333, -0.029412221, -995700.9, 52609.324 
1.1254078e+3, 2.0301946e+2, -920842.3, -1035564.75, -11034.985, -0.0014353694, -0.029712908, -919790.56, 30616.021 
1.1253732e+3, 2.1300972e+2, -844271.4, -947140.4, -10908.75, -0.003427435, -0.028560767, -843127.3, 9374.747 
1.1253384e+3, 2.2299995e+2, -767983.6, -859313.2, -11055.893, -0.004379654, -0.02715211, -766664.3, -12066.483 
1.1253034e+3, 2.3299031e+2, -691183.7, -770455.5, -11084.249, -0.0030738378, -0.028448334, -689663.0, -32970.758 
1.1252688e+3, 2.429806e+2, -615431.06, -683855.4, -10194.712, -0.0029524607, -0.028415438, -613944.44, -55157.16 
1.12523414e+3, 2.52971e+2, -538542.06, -595083.6, -9976.965, -0.005576068, -0.028363155, -536833.25, -75951.83 
1.1251997e+3, 2.629614e+2, -461941.28, -506629.63, -7966.747, -0.0069436166, -0.027625715, -460563.5, -97587.87 
1.1251655e+3, 2.7295196e+2, -385366.22, -417564.03, -7773.942, -0.0053533334, -0.028872414, -383587.53, -118519.48 
1.1251317e+3, 2.829422e+2, -314331.9, -340243.38, -4911.626, -0.0050994824, -0.028330611, -313432.13, -146268.39 
1.1250982e+3, 2.9293212e+2, -237951.13, -252381.8, -4611.6665, -0.008169269, -0.027116882, -236603.25, -167340.86 
1.1250651e+3, 3.0292654e+2, -144856.39, -77395.305, -425.16193, -0.009301946, -0.026394852, -77392.625, -77392.625 
1.12503245e+3, 3.1292617e+2, -163292.5, -81390.266, -201.4248, -0.005071005, -0.03077057, -81389.77, -81389.77 
1.1356937e+3, 1.2313194e+2, -1528314.3, -1731039.0, -5490.3784, 0.006801473, -0.032356158, -1528165.6, 205138.63 
1.1356602e+3, 1.3312148e+2, -1459086.9, -1658697.6, -3906.6743, -0.005048181, -0.022042079, -1459010.4, 176396.34 
1.13562636e+3, 1.4311092e+2, -1379095.8, -1563910.8, -9007.895, 0.0060435077, -0.033107113, -1378657.8, 158852.5 
1.1355916e+3, 1.5310097e+2, -1302086.6, -1474699.6, -9752.609, 0.0019149166, -0.029230105, -1301537.4, 138070.42 
1.1355564e+3, 1.6309094e+2, -1226082.4, -1387367.4, -12636.619, -0.0008298198, -0.026789553, -1225098.4, 116607.625 
1.135521e+3, 1.73081e+2, -1149680.6, -1299064.4, -12542.205, 0.000039593073, -0.029242806, -1148634.9, 95168.58 
1.1354853e+3, 1.8307103e+2, -1073641.5, -1211586.1, -14782.428, 0.00007694129, -0.029267495, -1072075.1, 73825.97 
1.1354493e+3, 1.9306122e+2, -996983.25, -1123071.1, -15035.175, -0.0015837157, -0.027649123, -995215.2, 52782.145 
1.1354132e+3, 2.0305136e+2, -920700.56, -1035281.9, -16285.463, -0.0026347288, -0.026455354, -918430.9, 31663.064 
1.135377e+3, 2.1304163e+2, -844024.94, -946627.6, -16171.302, -0.0023319921, -0.028684136, -841536.5, 10652.86 
1.1353407e+3, 2.2303186e+2, -767877.2, -859077.94, -16331.971, -0.0027087282, -0.028873986, -765040.7, -10755.668 
1.13530435e+3, 2.3302224e+2, -691158.44, -770387.6, -16364.119, -0.0044468595, -0.027998127, -687911.6, -31532.361 
1.1352682e+3, 2.4301258e+2, -615010.06, -682954.56, -15453.895, -0.005315484, -0.027121289, -611660.25, -53186.277 
1.1352321e+3, 2.5300303e+2, -538091.75, -594086.2, -15234.805, -0.0043951236, -0.029046532, -534215.06, -73647.43 
1.1351962e+3, 2.6299345e+2, -461469.1, -505565.3, -13366.186, -0.0046226047, -0.02873588, -457734.0, -95072.74 
1.1351604e+3, 2.7298412e+2, -384933.1, -416584.97, -13213.079, -0.0071263793, -0.027140351, -380142.4, -115389.63 
1.135125e+3, 2.8297445e+2, -313632.78, -338698.7, -10257.227, -0.007951966, -0.02611093, -309970.5, -143122.9 
1.13509e+3, 2.9296446e+2, -237253.34, -250802.44, -9934.275, -0.005537496, -0.029399922, -232003.56, -163057.95 
1.1350554e+3, 3.0295897e+2, -144217.94, -75904.93, -5666.7524, -0.0052521713, -0.029373307, -75438.05, -75438.05 
1.1350214e+3, 3.1295878e+2, -162754.17, -80048.85, -5417.2324, -0.0084503135, -0.026228182, -79695.53, -79695.53 
1.1457113e+3, 1.2316581e+2, -1521172.8, -1730579.5, -375.33652, 0.008185446, -0.03282775, -1521172.1, 211800.33 
1.14567615e+3, 1.3315538e+2, -1451785.0, -1655108.0, 1123.8433, -0.009024234, -0.017065698, -1451778.8, 183295.81 
1.1456408e+3, 1.4314471e+2, -1373900.6, -1562044.3, -3631.075, 0.00928183, -0.03611322, -1373830.5, 163348.6 
1.1456046e+3, 1.531347e+2, -1298042.9, -1473620.0, -4436.27, 0.002510117, -0.02932825, -1297930.9, 141346.4 
1.145568e+3, 1.6312464e+2, -1222458.5, -1385944.6, -7376.163, -0.0018706254, -0.025053173, -1222126.4, 119249.42 
1.145531e+3, 1.7311466e+2, -1146378.9, -1297728.9, -7341.6006, -0.00027003285, -0.028547056, -1146023.6, 97450.07 
1.14549376e+3, 1.8310465e+2, -1070857.4, -1210647.3, -9553.354, 0.00023397639, -0.02926304, -1070207.5, 75364.26 
1.1454563e+3, 1.9309478e+2, -994852.94, -1122559.4, -9614.031, -0.0016888825, -0.027405186, -994133.25, 53535.242 
1.1454187e+3, 2.030849e+2, -918876.44, -1034291.0, -10833.29, -0.0027962467, -0.026010664, -917868.4, 31896.951 
1.1453809e+3, 2.1307516e+2, -843097.0, -945999.2, -10849.352, -0.0021669006, -0.028201593, -841965.56, 9895.138 
1.1453431e+3, 2.2306542e+2, -767735.4, -858781.2, -11023.622, -0.0024562469, -0.02849212, -766419.7, -12463.436 
1.1453052e+3, 2.330558e+2, -691600.06, -770434.2, -10968.913, -0.0046785697, -0.02792912, -690102.3, -34051.906 
1.1452675e+3, 2.4304618e+2, -615962.0, -682756.6, -10086.911, -0.005785337, -0.027083859, -614471.94, -56327.117 
1.14522986e+3, 2.5303668e+2, -540441.06, -594526.75, -9927.251, -0.004547475, -0.028448004, -538676.5, -78438.58 
1.1451924e+3, 2.630272e+2, -464608.75, -506269.6, -8023.2354, -0.004503644, -0.027957803, -463117.0, -100786.125 
1.1451551e+3, 2.730179e+2, -387764.9, -417184.38, -7848.933, -0.007024722, -0.026938392, -385801.84, -121380.01 
1.1451182e+3, 2.830083e+2, -316295.6, -338733.44, -4943.765, -0.007874946, -0.026289066, -315254.63, -148738.73 
1.1450817e+3, 2.929984e+2, -241102.16, -251368.78, -4595.195, -0.0053721094, -0.029614288, -239345.86, -170733.0 
1.1450455e+3, 3.02993e+2, -149403.97, -77343.96, -250.78732, -0.0051091155, -0.029447269, -77343.086, -77343.086 
1.1450099e+3, 3.1299293e+2, -169103.38, -82181.56, -87.25571, -0.008763459, -0.02558537, -82181.48, -82181.48 
1.1557292e+3, 1.2320102e+2, -1523319.4, -1735197.0, -5027.2456, 0.008621685, -0.031328306, -1523200.1, 209427.28 
1.1556925e+3, 1.3319063e+2, -1451329.3, -1654080.3, -4399.2715, -0.013001525, -0.0142537765, -1451233.8, 183495.38 
1.15565576e+3, 1.4317995e+2, -1374440.3, -1562913.8, -9087.229, 0.013066398, -0.037105605, -1374003.1, 162830.66 
1.1556178e+3, 1.5316984e+2, -1298745.1, -1474977.3, -9852.216, 0.0034650294, -0.02961057, -1298196.1, 140736.73 
1.1555796e+3, 1.6315973e+2, -1222734.4, -1386519.8, -12715.042, -0.0028916397, -0.024393924, -1221753.1, 119278.914 
1.1555412e+3, 1.731497e+2, -1146610.4, -1298221.6, -12680.472, -0.0010681993, -0.0267542, -1145557.1, 97573.05 
1.1555024e+3, 1.8313968e+2, -1070998.6, -1210936.9, -14923.821, -0.00009654595, -0.027603889, -1069424.8, 75803.77 
1.1554634e+3, 1.9312976e+2, -995036.75, -1122907.9, -14980.897, -0.0011514443, -0.028453626, -993305.1, 54020.633 
1.1554242e+3, 2.0311984e+2, -918900.7, -1034301.0, -16304.596, -0.0021468443, -0.02790688, -916641.25, 32781.54 
1.15538485e+3, 2.1311013e+2, -843110.4, -946020.94, -16352.2, -0.0028490128, -0.027154073, -840574.56, 10943.438 
1.15534544e+3, 2.2310041e+2, -767563.4, -858424.44, -16453.48, -0.0035007675, -0.026262753, -764675.7, -11062.318 
1.155306e+3, 2.3309079e+2, -691454.6, -770094.56, -16380.431, -0.0039106263, -0.028206047, -688179.1, -32471.498 
1.1552667e+3, 2.4308118e+2, -615604.06, -681964.4, -15670.228, -0.004626686, -0.02813749, -612089.8, -54288.06 
1.1552276e+3, 2.5307176e+2, -540063.75, -593727.06, -15560.003, -0.0059687616, -0.026662622, -535878.44, -75984.37 
1.15518846e+3, 2.6306236e+2, -464121.3, -505237.72, -13417.729, -0.0064420993, -0.025456553, -460130.06, -98143.67 
1.1551498e+3, 2.730531e+2, -387331.7, -416208.16, -13188.249, -0.0051674135, -0.028174065, -382215.06, -118138.0 
1.15511134e+3, 2.8304356e+2, -315551.72, -337074.4, -10532.266, -0.0050954, -0.028692417, -311255.34, -145084.95 
1.1550731e+3, 2.930338e+2, -240344.89, -249656.1, -10245.674, -0.007695013, -0.027826268, -233746.67, -165480.81 
1.1550354e+3, 3.0302852e+2, -148931.38, -76190.09, -5789.542, -0.008807446, -0.026754403, -75732.19, -75732.19 
1.1549983e+3, 3.1302845e+2, -168767.23, -81265.516, -5597.9336, -0.0060482756, -0.028826961, -80908.84, -80908.84 
1.1657474e+3, 1.2323799e+2, -1515368.9, -1734398.3, 1539.3324, 0.010254515, -0.02916747, -1515358.1, 216907.02 
1.165709e+3, 1.3322754e+2, -1444600.8, -1650617.9, 545.1239, -0.016153412, -0.0168511, -1444599.3, 189768.2 
1.1656707e+3, 1.4321691e+2, -1370273.0, -1561276.5, -3686.1377, 0.015195731, -0.03413352, -1370201.9, 166269.84 
1.1656311e+3, 1.5320672e+2, -1294240.8, -1473373.0, -4080.2434, 0.0038369151, -0.028569143, -1294147.9, 144423.55 
1.1655913e+3, 1.6319653e+2, -1218248.4, -1385099.5, -6953.1787, -0.0035442158, -0.024564033, -1217959.1, 122712.31 
1.1655514e+3, 1.7318644e+2, -1142998.9, -1297337.3, -7206.2676, -0.0011472824, -0.026311133, -1142663.1, 100107.164 
1.1655111e+3, 1.8317634e+2, -1067831.8, -1209444.4, -9633.675, 0.00019728733, -0.026842013, -1067179.4, 77689.72 
1.1654705e+3, 1.9316643e+2, -993044.9, -1121871.6, -9514.548, -0.001014013, -0.028098306, -992345.94, 54620.457 
1.16542965e+3, 2.0315652e+2, -917867.56, -1033873.75, -10697.595, -0.0021984873, -0.027783688, -916889.3, 32174.217 
1.1653888e+3, 2.1314678e+2, -842271.3, -945795.44, -10819.569, -0.003207805, -0.026829291, -841152.6, 10006.288 
1.1653478e+3, 2.2313705e+2, -766913.44, -857726.4, -11010.293, -0.0038857528, -0.025746211, -765597.6, -12343.336 
1.1653069e+3, 2.3312747e+2, -692205.0, -770022.25, -10845.0205, -0.0037694627, -0.027515218, -690721.9, -35373.668 
1.16526596e+3, 2.4311788e+2, -617107.5, -682141.0, -10025.953, -0.0042158677, -0.027521668, -615596.94, -58154.938 
1.1652251e+3, 2.531085e+2, -541147.0, -593748.94, -9961.129, -0.005938662, -0.026585555, -539323.9, -79789.875 
1.1651846e+3, 2.6309913e+2, -465392.16, -505045.7, -7895.365, -0.006624017, -0.025650708, -463877.94, -102252.12 
1.16514415e+3, 2.7308995e+2, -390758.9, -417064.03, -7647.98, -0.0051493403, -0.02812786, -388696.94, -124981.1 
1.1651043e+3, 2.8308052e+2, -320083.03, -337988.84, -4952.7847, -0.0049657505, -0.028369406, -318804.38, -152996.05 
1.1650644e+3, 2.9307088e+2, -244613.89, -250400.86, -4674.6387, -0.007779748, -0.02710461, -242009.69, -174107.02 
1.16502516e+3, 3.0306572e+2, -153517.97, -77212.86, -215.65192, -0.008946816, -0.02606682, -77212.25, -77212.25 
1.1649864e+3, 3.1306568e+2, -174743.42, -83071.17, 185.2988, -0.0058488725, -0.02912246, -83070.8, -83070.8 
1.17576614e+3, 1.2327645e+2, -1517136.4, -1737975.5, -3235.8486, 0.0124184685, -0.028781064, -1517088.9, 214799.3 
1.1757257e+3, 1.3326588e+2, -1444898.1, -1651081.4, -5896.861, -0.018689599, -0.023399983, -1444729.6, 189262.16 
1.1756857e+3, 1.4325534e+2, -1370514.8, -1561624.8, -9149.394, 0.015992511, -0.028022666, -1370077.8, 166017.38 
1.1756446e+3, 1.532451e+2, -1294447.0, -1473740.6, -9350.003, 0.003688348, -0.0265309, -1293960.6, 144234.81 
1.1756034e+3, 1.6323482e+2, -1218921.6, -1386454.3, -12459.11, -0.0040011047, -0.025424203, -1218000.1, 122296.14 
1.1755618e+3, 1.7322461e+2, -1143847.9, -1299021.4, -12731.133, -0.0006704312, -0.026955558, -1142810.3, 99586.06 
1.1755199e+3, 1.8321446e+2, -1067809.9, -1209336.3, -15266.726, 0.0009283457, -0.026773022, -1066181.8, 78313.92 
1.17547765e+3, 1.9320458e+2, -992828.25, -1121436.6, -15200.882, -0.0012571744, -0.02652202, -991056.0, 55536.633 
1.1754353e+3, 2.0319468e+2, -917937.5, -1034047.5, -16253.446, -0.002925186, -0.025918785, -915705.2, 32984.434 
1.1753928e+3, 2.131849e+2, -842495.75, -946225.3, -16333.62, -0.003309836, -0.027127543, -839984.56, 10800.957 
1.17535025e+3, 2.2317514e+2, -766645.3, -857119.1, -16738.717, -0.0037620945, -0.026673054, -763647.75, -10766.773 
1.1753076e+3, 2.3316564e+2, -691837.44, -769266.9, -16637.547, -0.0042159306, -0.02591758, -688413.8, -33439.605 
1.1752652e+3, 2.431561e+2, -616788.06, -681495.7, -15579.724, -0.00450645, -0.025388766, -613232.3, -56164.836 
1.1752228e+3, 2.531467e+2, -540926.2, -593242.9, -15460.634, -0.004600751, -0.028084544, -536698.8, -77539.305 
1.1751805e+3, 2.631374e+2, -464927.7, -504005.53, -13728.803, -0.0052545727, -0.02830474, -460586.72, -99335.72 
1.1751386e+3, 2.731283e+2, -390275.63, -415998.88, -13565.729, -0.006934756, -0.026856488, -384443.66, -121103.64 
1.1750969e+3, 2.8311896e+2, -319345.5, -336381.97, -10596.666, -0.007386429, -0.025488677, -314267.8, -148836.28 
1.1750556e+3, 2.9310942e+2, -243883.95, -248766.55, -10254.621, -0.0057026334, -0.027415099, -235784.03, -168258.94 
1.17501475e+3, 3.0310437e+2, -152702.75, -75363.39, -6029.1523, -0.0056819194, -0.0272851, -74896.195, -74896.195 
1.1749744e+3, 3.1310448e+2, -174004.84, -81305.586, -5679.0347, -0.008315929, -0.026517455, -80958.97, -80958.97 
1.1857849e+3, 1.23316824e+2, -1509479.9, -1734944.9, 3948.736, 0.012414855, -0.024977166, -1509410.8, 222081.88 
1.1857427e+3, 1.3330604e+2, -1438928.0, -1649367.4, -892.32574, -0.018734857, -0.029173868, -1438924.3, 194673.97 
1.1857009e+3, 1.4329551e+2, -1365407.9, -1560047.1, -3377.62, 0.016393926, -0.022944052, -1365349.4, 170352.08 
1.18565835e+3, 1.5328515e+2, -1289643.1, -1472311.6, -3688.7417, 0.0036164825, -0.025126118, -1289568.6, 148234.44 
1.1856155e+3, 1.6327478e+2, -1214363.1, -1384526.4, -7188.1133, -0.004225094, -0.026231954, -1214060.0, 125844.68 
1.1855723e+3, 1.7326456e+2, -1140569.6, -1297662.6, -6955.7197, -0.0006798673, -0.026765255, -1140262.3, 101742.66 
1.1855287e+3, 1.8325438e+2, -1065422.8, -1208540.1, -9166.757, 0.0009918706, -0.025877101, -1064838.0, 79266.53 
1.1854848e+3, 1.9324444e+2, -990353.9, -1120693.5, -9516.805, -0.0013924405, -0.02542556, -989662.7, 56539.234 
1.18544094e+3, 2.0323452e+2, -915513.5, -1032650.2, -10821.753, -0.0030350375, -0.024903424, -914522.1, 33777.01 
1.18539676e+3, 2.1322475e+2, -841774.56, -945584.3, -10556.409, -0.0030334715, -0.026794387, -840711.94, 9682.985 
1.1853525e+3, 2.2321503e+2, -766976.8, -857042.56, -10734.223, -0.0033616181, -0.02669361, -765715.2, -13224.928 
1.1853083e+3, 2.3320553e+2, -691737.4, -769066.44, -10855.896, -0.0043017147, -0.025557347, -690242.25, -35658.855 
1.18526414e+3, 2.4319603e+2, -616772.44, -680870.44, -9964.787, -0.004744407, -0.024855092, -615259.0, -58582.617 
1.1852202e+3, 2.5318667e+2, -543057.56, -593628.8, -9700.299, -0.0043175183, -0.027826156, -541260.7, -82492.75 
1.1851764e+3, 2.631774e+2, -468173.03, -504797.28, -7861.5674, -0.0047977176, -0.028096791, -466556.84, -105697.945 
1.1851327e+3, 2.7316836e+2, -392742.84, -416457.38, -7746.9473, -0.007095711, -0.026239922, -390436.4, -127489.11 
1.1850895e+3, 2.831591e+2, -321575.1, -336115.84, -4824.272, -0.0077376296, -0.024862712, -320120.1, -155082.1 
1.1850465e+3, 2.9314968e+2, -248211.28, -249454.58, -4405.627, -0.0052638063, -0.02752969, -244383.66, -177253.16 
1.18500404e+3, 3.0314472e+2, -158537.73, -77186.47, -208.00145, -0.0050558387, -0.027488692, -77185.94, -77185.94 
1.184962e+3, 3.1314492e+2, -179379.17, -83064.375, -230.25789, -0.0089111645, -0.025605377, -83063.82, -83063.82 
1.1958041e+3, 1.23358816e+2, -1509508.6, -1734331.4, -963.1192, 0.011352942, -0.0196355, -1509504.5, 221576.7 
1.19576e+3, 1.3334778e+2, -1440198.0, -1651869.9, -7753.6187, -0.016991986, -0.034343045, -1439914.3, 193275.03 
1.1957163e+3, 1.4333719e+2, -1366201.1, -1561859.6, -8921.691, 0.01635947, -0.018713135, -1365795.1, 169497.97 
1.1956722e+3, 1.5332666e+2, -1290578.0, -1474180.1, -8952.388, 0.0035794796, -0.024191275, -1290142.6, 147253.81 
1.1956277e+3, 1.633162e+2, -1214280.5, -1384189.1, -12925.887, -0.0043168804, -0.026938707, -1213302.8, 126196.02 
1.1955829e+3, 1.7330603e+2, -1140218.3, -1296910.8, -12835.912, -0.00113184, -0.025867797, -1139173.8, 102424.73 
1.19553775e+3, 1.8329586e+2, -1065889.0, -1209521.0, -14846.471, 0.00042576322, -0.024268003, -1064370.5, 79327.516 
1.1954922e+3, 1.9328582e+2, -991101.25, -1122167.1, -15124.075, -0.0014627759, -0.024726883, -989378.6, 56417.855 
1.19544655e+3, 2.0327584e+2, -915233.75, -1031982.25, -16711.455, -0.0026940773, -0.024580657, -912888.75, 35005.426 
1.1954007e+3, 2.1326615e+2, -841257.7, -944526.1, -16539.613, -0.0024501807, -0.025875863, -838673.4, 11315.93 
1.195355e+3, 2.2325645e+2, -766939.25, -857003.4, -16448.39, -0.0027696197, -0.025886077, -764029.3, -11945.127 
1.1953091e+3, 2.3324692e+2, -691903.6, -769369.1, -16499.81, -0.0041058203, -0.026306696, -688535.7, -34357.977 
1.19526334e+3, 2.4323742e+2, -616350.7, -679930.44, -15955.962, -0.0049977293, -0.02571903, -612571.06, -56300.43 
1.1952175e+3, 2.532282e+2, -542521.06, -592500.25, -15780.984, -0.005031992, -0.025906114, -537955.25, -79594.016 
1.19517215e+3, 2.63219e+2, -467713.0, -503832.84, -13621.401, -0.005205732, -0.025237912, -463152.03, -102700.625 
1.19512685e+3, 2.7321e+2, -392376.44, -415635.66, -13438.109, -0.0057523707, -0.026259722, -386234.44, -123694.85 
1.1950819e+3, 2.832008e+2, -320737.2, -334281.44, -10895.012, -0.006189907, -0.026365187, -314681.1, -150051.52 
1.1950372e+3, 2.931915e+2, -247338.97, -247517.47, -10560.969, -0.0065101655, -0.02749638, -236866.88, -170146.19 
1.1949932e+3, 3.0318666e+2, -158317.11, -76565.71, -6007.7183, -0.007080609, -0.026784912, -76126.58, -76126.58 
1.19494945e+3, 3.1318685e+2, -179355.61, -82808.77, -5955.605, -0.007748436, -0.026324423, -82442.79, -82442.79 
1.2058233e+3, 1.23402566e+2, -1504716.5, -1731004.3, 5946.1626, 0.009688108, -0.019801717, -1504560.4, 226092.13 
1.20577745e+3, 1.3339135e+2, -1434163.0, -1651137.9, -2542.6873, -0.013511228, -0.034207612, -1434133.1, 198629.27 
1.2057319e+3, 1.4338063e+2, -1358112.9, -1558734.3, -3209.9182, 0.01389115, -0.016984569, -1358061.5, 176806.02 
1.20568626e+3, 1.5337001e+2, -1285397.8, -1472280.4, -2728.7542, 0.0032694018, -0.023455195, -1285357.9, 151613.6 
1.2056401e+3, 1.633595e+2, -1210872.0, -1383028.0, -6620.772, -0.0033753044, -0.026625142, -1210617.8, 128456.82 
1.20559365e+3, 1.7334929e+2, -1136397.9, -1295586.4, -7139.715, -0.0009812547, -0.02479115, -1136078.4, 105096.36 
1.2055468e+3, 1.8333909e+2, -1062099.3, -1207650.0, -9407.425, 0.00020451515, -0.023041656, -1061493.8, 81780.78 
1.2054996e+3, 1.9332902e+2, -989281.4, -1121218.8, -9026.897, -0.0012950838, -0.024596103, -988666.6, 56706.55 
1.2054522e+3, 2.0331904e+2, -914557.06, -1031701.5, -10284.793, -0.0023727198, -0.024814812, -913660.94, 33810.0 
1.2054048e+3, 2.1330933e+2, -839914.56, -944012.25, -10632.435, -0.0025163656, -0.024961684, -838839.7, 10726.484 
1.2053573e+3, 2.2329965e+2, -765487.3, -855892.9, -10820.331, -0.002904759, -0.024588155, -764210.3, -12549.311 
1.2053098e+3, 2.3329012e+2, -692602.3, -769266.0, -10474.855, -0.0037416138, -0.026139433, -691196.9, -37442.52 
1.2052623e+3, 2.4328066e+2, -618172.9, -680248.5, -9715.376, -0.0045379247, -0.025940936, -616687.8, -60840.902 
1.2052149e+3, 2.5327146e+2, -543622.6, -592514.06, -9739.985, -0.005281158, -0.025009785, -541753.7, -83816.59 
1.2051677e+3, 2.6326233e+2, -468818.38, -503480.38, -7670.025, -0.00557185, -0.02400987, -467196.97, -107170.266 
1.2051208e+3, 2.7325338e+2, -395678.0, -416338.38, -7323.478, -0.00509232, -0.026256237, -393345.4, -131231.13 
1.2050742e+3, 2.8324428e+2, -325019.94, -335159.06, -4765.8706, -0.005347191, -0.026746707, -323131.47, -158927.98 
1.20502785e+3, 2.932351e+2, -250723.5, -247969.81, -4643.568, -0.0071468516, -0.026668858, -244503.27, -178209.73 
1.204982e+3, 3.0323035e+2, -162151.52, -77345.055, -115.667496, -0.008055166, -0.025684936, -77344.9, -77344.9 
1.20493665e+3, 3.1323063e+2, -186144.52, -85111.34, 412.16302, -0.006806582, -0.026733857, -85109.66, -85109.66 
1.2158427e+3, 1.2344784e+2, -1504182.4, -1729599.5, 1295.4662, 0.0087882215, -0.021868357, -1504175.0, 226033.86 
1.2157951e+3, 1.3343649e+2, -1435943.4, -1654460.8, -8400.685, -0.008831363, -0.030166576, -1435620.9, 196699.16 
1.2157479e+3, 1.4342558e+2, -1358501.6, -1559278.9, -9244.345, 0.009556695, -0.0171095, -1358076.9, 176350.17 
1.2157004e+3, 1.5341496e+2, -1285454.0, -1472340.8, -8854.703, 0.0026985074, -0.022849819, -1285035.5, 151495.6 
1.2156527e+3, 1.634044e+2, -1211583.0, -1384507.6, -12399.096, -0.0017253158, -0.0254933, -1210698.4, 127936.086 
1.2156045e+3, 1.7339405e+2, -1137365.0, -1297479.1, -12820.262, -0.00038837045, -0.023563495, -1136345.0, 104390.92 
1.2155559e+3, 1.8338381e+2, -1061748.3, -1206797.5, -15441.878, 0.00018790101, -0.022119213, -1060122.6, 82713.77 
1.2155071e+3, 1.9337381e+2, -988627.9, -1119877.8, -15180.102, -0.00095522875, -0.024902707, -986895.06, 58039.188 
1.215458e+3, 2.0336387e+2, -914876.9, -1032410.94, -16126.303, -0.0021292125, -0.025437173, -912704.44, 34327.336 
1.215409e+3, 2.1335408e+2, -840542.06, -945260.2, -16386.336, -0.003181808, -0.024025287, -838037.8, 11089.89 
1.2153597e+3, 2.2334437e+2, -765057.6, -854927.2, -16946.164, -0.0037342436, -0.022843104, -761968.4, -10745.59 
1.2153104e+3, 2.3333493e+2, -691952.8, -767923.9, -16699.879, -0.0032366575, -0.025119113, -688443.94, -35128.582 
1.2152612e+3, 2.4332553e+2, -617905.1, -679719.9, -15643.023, -0.0034703105, -0.025543973, -614171.9, -58764.56 
1.2152121e+3, 2.5331634e+2, -543516.6, -592264.0, -15606.472, -0.0051577394, -0.025060348, -538948.3, -81450.88 
1.2151633e+3, 2.6330724e+2, -468206.7, -502158.75, -13878.656, -0.005960361, -0.02427414, -463255.5, -103668.875 
1.21511474e+3, 2.732984e+2, -395003.16, -414886.78, -13608.802, -0.0051177647, -0.026222484, -388091.5, -126418.266 
1.2150664e+3, 2.832894e+2, -324464.56, -333934.4, -10746.564, -0.0052275555, -0.026067758, -317456.06, -153694.53 
1.2150183e+3, 2.9328027e+2, -250252.03, -246885.78, -10559.294, -0.007285125, -0.02500787, -237876.31, -172025.48 
1.2149707e+3, 3.0327561e+2, -161216.38, -75263.19, -6515.9478, -0.008122987, -0.024125597, -74772.03, -74772.03 
1.21492356e+3, 3.1327602e+2, -185206.3, -82947.87, -6089.606, -0.006207549, -0.026961416, -82586.5, -82586.5 
1.2258622e+3, 1.2349487e+2, -1497091.0, -1726319.3, 7047.8545, 0.0063696927, -0.023345558, -1496874.5, 232873.55 
1.2258131e+3, 1.334835e+2, -1430699.6, -1652933.3, -2531.6306, -0.0031738987, -0.024191055, -1430670.9, 201188.67 
1.225764e+3, 1.434724e+2, -1353506.5, -1557609.5, -3012.2488, 0.0053983456, -0.020785613, -1353462.1, 180506.17 
1.225715e+3, 1.5346174e+2, -1279922.5, -1470425.9, -3022.144, 0.0019292631, -0.022371283, -1279874.5, 156198.14 
1.2256654e+3, 1.6345115e+2, -1206147.9, -1382130.1, -6580.607, -0.00037684408, -0.022874102, -1205902.1, 132274.38 
1.22561544e+3, 1.7344075e+2, -1134077.5, -1296138.6, -6348.12, 0.0000616139, -0.023026446, -1133829.3, 106449.16 
1.22556515e+3, 1.8343046e+2, -1059585.3, -1205966.6, -8768.596, 0.00003128998, -0.022540957, -1059061.9, 83317.41 
1.2255146e+3, 1.9342044e+2, -985799.5, -1118778.8, -9222.65, -0.0010109321, -0.024057403, -985162.9, 59314.457 
1.2254639e+3, 2.0341048e+2, -912053.6, -1030862.7, -10430.822, -0.0019961137, -0.024152204, -911144.8, 35430.145 
1.2254129e+3, 2.1340068e+2, -839905.75, -944771.7, -10027.016, -0.0027979882, -0.023808418, -838955.6, 9715.361 
1.22536205e+3, 2.2339101e+2, -765520.56, -854802.0, -10299.092, -0.0033366834, -0.022917502, -764347.94, -13582.027 
1.225311e+3, 2.3338157e+2, -691757.94, -767511.06, -10458.915, -0.0033315453, -0.024095457, -690340.44, -37482.277 
1.2252603e+3, 2.4337222e+2, -617734.5, -679043.0, -9581.641, -0.0035874643, -0.024304708, -616271.94, -61322.043 
1.2252094e+3, 2.5336304e+2, -545244.8, -592522.56, -9296.57, -0.0045169066, -0.02515527, -543482.5, -86442.82 
1.2251588e+3, 2.63354e+2, -470889.56, -502643.56, -7536.1675, -0.0052556987, -0.024749177, -469191.78, -110063.414 
1.2251084e+3, 2.7334523e+2, -397275.16, -415193.1, -7478.564, -0.005538002, -0.025360687, -394564.0, -133349.7 
1.22505836e+3, 2.833363e+2, -326846.06, -333697.9, -4592.5845, -0.005833094, -0.02478386, -324542.34, -161240.64 
1.2250085e+3, 2.933273e+2, -254800.97, -247644.86, -4009.5847, -0.0063938964, -0.024949566, -245848.97, -180459.03 
1.2249592e+3, 3.0332276e+2, -167057.6, -77007.88, -20.878202, -0.0070250123, -0.024370704, -77007.88, -77007.88 
1.2249104e+3, 3.1332323e+2, -190074.8, -84384.84, -140.3173, -0.007153652, -0.025942452, -84384.66, -84384.66 
1.235882e+3, 1.2354343e+2, -1498126.0, -1727838.4, 978.8145, 0.0040943753, -0.022172607, -1498121.8, 231150.58 
1.23583116e+3, 1.335321e+2, -1430823.0, -1652993.4, -8621.836, 0.0030483177, -0.016979812, -1430488.9, 200894.33 
1.2357803e+3, 1.4352083e+2, -1354198.0, -1559029.9, -8921.639, 0.0012623532, -0.027057314, -1353810.1, 179683.69 
1.23572946e+3, 1.5351012e+2, -1280893.3, -1472242.8, -8907.797, 0.0009884075, -0.021893784, -1280479.5, 155119.33 
1.2356782e+3, 1.6349949e+2, -1206036.5, -1381665.6, -12762.314, 0.0006799879, -0.019096678, -1205113.9, 132588.95 
1.2356266e+3, 1.7348911e+2, -1133706.0, -1295311.8, -12631.247, 0.00036489486, -0.023035483, -1132724.6, 107080.01 
1.2355745e+3, 1.8347879e+2, -1060196.6, -1207235.0, -14755.094, -0.00029770576, -0.023960793, -1058730.6, 83175.1 
1.2355222e+3, 1.9346868e+2, -986695.44, -1120555.1, -15125.073, -0.0014304165, -0.022234086, -985007.7, 58997.08 
1.2354697e+3, 2.0345868e+2, -911594.1, -1029824.25, -16672.377, -0.0020206787, -0.021311471, -909288.06, 36814.652 
1.2354171e+3, 2.1344894e+2, -839185.1, -943287.9, -16369.926, -0.0015225882, -0.024210827, -836671.7, 11526.396 
1.2353644e+3, 2.234393e+2, -765510.56, -854819.25, -16381.287, -0.0019256664, -0.024503607, -762600.7, -12308.1045 
1.2353118e+3, 2.3342986e+2, -691963.5, -767920.3, -16485.22, -0.0040111174, -0.023052098, -688539.94, -36154.977 
1.235259e+3, 2.4342053e+2, -617261.94, -678027.1, -15890.618, -0.004806781, -0.02230086, -613357.3, -58880.805 
1.2352066e+3, 2.534114e+2, -544672.8, -591317.56, -15670.528, -0.0034117277, -0.02528201, -539897.1, -83331.41 
1.2351542e+3, 2.6340243e+2, -470521.3, -501859.6, -13736.638, -0.0035769837, -0.025399873, -465352.56, -106698.695 
1.23510204e+3, 2.7339372e+2, -397008.28, -414588.22, -13646.498, -0.006446369, -0.02367121, -389565.84, -128826.63 
1.2350502e+3, 2.833849e+2, -325759.44, -331363.03, -11045.239, -0.007248368, -0.022888564, -317166.2, -154340.42 
1.2349986e+3, 2.93376e+2, -253614.13, -245068.02, -10516.567, -0.0044810167, -0.026567286, -237989.55, -173076.92 
1.2349475e+3, 3.0337158e+2, -166834.5, -76403.625, -6293.1563, -0.0048167603, -0.026483515, -75967.78, -75967.78 
1.23489685e+3, 3.133721e+2, -190108.13, -84289.5, -6368.037, -0.010040818, -0.023439245, -83907.66, -83907.66 
1.24590196e+3, 1.2359383e+2, -1493652.6, -1727894.0, 6429.5303, 0.0016141688, -0.022135217, -1493476.3, 235302.19 
1.2458496e+3, 1.3358256e+2, -1423077.3, -1648666.6, -2179.9497, 0.008155597, -0.013437952, -1423056.3, 207832.6 
1.2457969e+3, 1.4357124e+2, -1346899.8, -1555985.3, -2612.5967, -0.0020614571, -0.027804665, -1346867.1, 186132.69 
1.2457442e+3, 1.5356046e+2, -1276305.9, -1470782.0, -2374.7354, 0.0007977598, -0.022277728, -1276276.9, 158828.63 
1.24569125e+3, 1.6354978e+2, -1202633.8, -1380397.8, -6079.8066, 0.0020892336, -0.018870791, -1202426.1, 134784.02 
1.2456377e+3, 1.7353936e+2, -1129751.0, -1293778.5, -6483.373, 0.0004460913, -0.022025995, -1129495.1, 109817.125 
1.245584e+3, 1.83529e+2, -1056360.8, -1205490.4, -8710.398, -0.00079173874, -0.022791661, -1055853.6, 85559.93 
1.2455299e+3, 1.9351886e+2, -984720.25, -1119756.0, -8393.79, -0.0012079254, -0.021875683, -984200.5, 59312.508 
1.2454757e+3, 2.0350885e+2, -910461.6, -1029146.94, -9742.9, -0.0014851349, -0.021162668, -909667.1, 35943.977 
1.24542125e+3, 2.1349911e+2, -837607.44, -942408.8, -10020.596, -0.0014093525, -0.02335993, -836657.9, 11048.541 
1.24536686e+3, 2.234895e+2, -764105.9, -853842.75, -10256.751, -0.0018972512, -0.02357456, -762948.5, -13147.642 
1.2453124e+3, 2.3348005e+2, -692247.7, -767798.9, -9995.545, -0.0036090333, -0.022975931, -690947.6, -39054.44 
1.2452579e+3, 2.4347073e+2, -618423.06, -677959.1, -9300.918, -0.004379828, -0.02235937, -617003.9, -63019.418 
1.2452036e+3, 2.534617e+2, -545906.25, -591285.9, -9260.716, -0.0034980273, -0.024322173, -544089.1, -88015.945 
1.24514945e+3, 2.6345277e+2, -472133.94, -501796.63, -7316.8223, -0.003738867, -0.024219446, -470427.3, -112266.55 
1.2450956e+3, 2.734441e+2, -399954.84, -415195.7, -6991.2373, -0.0060036452, -0.023535963, -397233.7, -136988.1 
1.24504186e+3, 2.8343534e+2, -329195.13, -331603.6, -4487.6987, -0.0066975593, -0.023076724, -325752.9, -163421.61 
1.2449885e+3, 2.934266e+2, -257073.22, -245277.08, -4317.86, -0.00457336, -0.025868846, -243865.5, -179448.58 
1.2449357e+3, 3.0342227e+2, -171206.38, -77621.16, -94.45472, -0.005175453, -0.025456453, -77621.06, -77621.06 
1.2448832e+3, 3.1342286e+2, -195962.22, -86416.336, 236.25642, -0.009996598, -0.023167826, -86415.82, -86415.82 
1.2559222e+3, 1.23645805e+2, -1495625.3, -1731754.8, -262.45856, -0.0005506353, -0.025120096, -1495624.9, 232644.22 
1.2558682e+3, 1.3363463e+2, -1422758.6, -1647566.1, -7650.9536, 0.012404478, -0.012353443, -1422498.5, 207880.14 
1.2558135e+3, 1.4362337e+2, -1347287.9, -1556292.0, -9042.01, -0.004810814, -0.024422966, -1346897.5, 185591.55 
1.2557593e+3, 1.5361251e+2, -1276633.4, -1471299.3, -8988.203, 0.0011040473, -0.023354711, -1276219.3, 158376.23 
1.2557043e+3, 1.6360174e+2, -1203277.8, -1381728.6, -12232.737, 0.003680213, -0.021293353, -1202443.1, 134257.73 
1.255649e+3, 1.7359124e+2, -1130569.8, -1295379.8, -12547.546, 0.00031593768, -0.020135961, -1129619.9, 109183.85 
1.2555934e+3, 1.8358088e+2, -1056067.4, -1204768.6, -15040.228, -0.0014837834, -0.019589787, -1054561.4, 86344.05 
1.2555377e+3, 1.9357073e+2, -984230.2, -1118717.5, -14804.548, -0.00047749156, -0.022752462, -982619.75, 60384.8 
1.2554817e+3, 2.0356074e+2, -910755.56, -1029762.2, -15978.302, -0.00053851417, -0.02316452, -908647.6, 36454.992 
1.2554254e+3, 2.1355098e+2, -838104.8, -943406.75, -16214.326, -0.0023375775, -0.021400351, -835664.7, 11533.624 
1.2553693e+3, 2.2354132e+2, -763753.56, -853073.3, -16667.266, -0.0031118982, -0.020509277, -760744.8, -11451.947 
1.255313e+3, 2.3353192e+2, -691770.1, -766799.6, -16457.398, -0.002254912, -0.023789855, -688319.0, -36934.023 
1.2552567e+3, 2.4352264e+2, -618120.4, -677334.06, -15691.635, -0.0025307431, -0.024228245, -614219.1, -60743.33 
1.2552005e+3, 2.5351366e+2, -545690.44, -590828.1, -15642.848, -0.0047755353, -0.022316348, -540799.25, -85235.32 
1.2551446e+3, 2.635048e+2, -471476.44, -500406.38, -13814.751, -0.00566818, -0.021323979, -465939.34, -108288.43 
1.2550889e+3, 2.7349618e+2, -399272.2, -413729.84, -13515.68, -0.004252531, -0.024941877, -391173.6, -131438.39 
1.2550335e+3, 2.8348753e+2, -328595.1, -330284.88, -11020.636, -0.0043199304, -0.025258116, -318387.0, -156566.9 
1.2549783e+3, 2.9347888e+2, -256553.95, -244094.63, -10850.331, -0.0068990346, -0.02268935, -237812.77, -173908.25 
1.2549236e+3, 3.0347466e+2, -170474.1, -75985.664, -6694.75, -0.008307917, -0.021171726, -75513.68, -75513.68 
1.2548693e+3, 3.1347528e+2, -195249.67, -84788.33, -6373.311, -0.00693998, -0.025366725, -84421.82, -84421.82 
1.2659425e+3, 1.2369997e+2, -1487696.5, -1729650.3, 5703.564, -0.0011734896, -0.021423582, -1487562.1, 240176.16 
1.265887e+3, 1.3368869e+2, -1417012.6, -1644861.5, -507.51596, 0.014640975, -0.016954305, -1417011.5, 212837.42 
1.2658305e+3, 1.4367747e+2, -1343218.5, -1554785.1, -2583.0088, -0.006277833, -0.021103064, -1343187.0, 188771.78 
1.2657744e+3, 1.5366653e+2, -1271312.9, -1469277.3, -2693.8052, 0.00070614374, -0.021668343, -1271276.1, 162789.88 
1.2657176e+3, 1.636557e+2, -1197754.4, -1379553.9, -5833.377, 0.0040665246, -0.02090617, -1197567.4, 138604.75 
1.2656605e+3, 1.7364512e+2, -1126940.1, -1294203.3, -5797.2666, 0.0006963059, -0.02027806, -1126739.4, 111536.29 
1.2656032e+3, 1.8363471e+2, -1053275.0, -1203450.5, -8235.864, -0.0011965567, -0.019704571, -1052824.6, 87553.13 
1.2655455e+3, 1.9362459e+2, -981428.06, -1117368.4, -8441.985, -0.00034980482, -0.02205204, -980905.8, 61571.164 
1.2654877e+3, 2.0361458e+2, -908451.06, -1028655.8, -9721.957, -0.0004397653, -0.022211352, -907669.8, 36905.273 
1.2654297e+3, 2.1360478e+2, -837194.75, -943042.9, -9533.904, -0.0021683476, -0.021046678, -836342.9, 10328.207 
1.2653716e+3, 2.2359514e+2, -763456.6, -852463.06, -9838.428, -0.0029393882, -0.020314824, -762382.1, -13616.542 
1.2653135e+3, 2.3358577e+2, -691765.9, -766311.3, -9788.619, -0.002138248, -0.023036193, -690502.0, -39644.633 
1.2652555e+3, 2.4357653e+2, -618524.9, -676956.0, -9042.92, -0.0023773052, -0.02330633, -617157.4, -64209.53 
1.2651975e+3, 2.5356758e+2, -546879.44, -590875.0, -8857.647, -0.0045447866, -0.021820255, -545163.06, -90127.41 
1.2651397e+3, 2.6355875e+2, -473184.47, -500307.22, -7091.228, -0.0054283426, -0.020929927, -471442.34, -114320.23 
1.2650822e+3, 2.735502e+2, -401752.97, -414009.44, -6923.394, -0.0039472864, -0.024191288, -398635.2, -139429.47 
1.2650248e+3, 2.8354162e+2, -331610.25, -330513.8, -4412.227, -0.004090107, -0.024402231, -326615.88, -165326.11 
1.2649678e+3, 2.9353312e+2, -260175.17, -244627.86, -4038.178, -0.0072317678, -0.02202599, -243641.58, -180268.33 
1.2649113e+3, 3.0352896e+2, -175059.89, -77105.1, 39.154697, -0.008721515, -0.020603502, -77105.086, -77105.086 
1.2648551e+3, 3.1352967e+2, -201232.45, -86691.66, 174.83275, -0.0062112594, -0.024895191, -86691.39, -86691.39 
1.2759633e+3, 1.23755954e+2, -1488870.6, -1731325.6, -2386.8892, -0.0018567751, -0.0179172, -1488847.1, 238342.66 
1.2759058e+3, 1.3374446e+2, -1417739.8, -1646094.5, -6799.1445, 0.015359629, -0.025419865, -1417537.5, 211764.83 
1.2758477e+3, 1.4373328e+2, -1343735.3, -1555758.8, -8769.951, -0.006891832, -0.017730843, -1343373.1, 188038.81 
1.2757897e+3, 1.5372226e+2, -1271911.0, -1470291.4, -8875.723, -0.00024621745, -0.017843997, -1271514.6, 162005.25 
1.2757312e+3, 1.6371138e+2, -1198003.5, -1379809.4, -12340.868, 0.0034919064, -0.018403307, -1197169.6, 138456.89 
1.2756722e+3, 1.7370075e+2, -1127091.6, -1294394.5, -12367.38, 0.0014524426, -0.022044083, -1126182.4, 111548.42 
1.2756129e+3, 1.8369028e+2, -1053651.4, -1204183.4, -14630.49, -0.00018885527, -0.022355342, -1052242.6, 87590.62 
1.2755534e+3, 1.9368014e+2, -981887.9, -1118268.4, -14809.589, -0.0007612295, -0.019999657, -980298.25, 61634.453 
1.2754938e+3, 2.036701e+2, -908231.1, -1028153.75, -16228.746, -0.0011009917, -0.018872242, -906073.75, 37957.2 
1.2754339e+3, 2.1366031e+2, -836888.94, -942388.9, -16072.955, -0.0010764938, -0.022125745, -834494.56, 11632.386 
1.275374e+3, 2.2365068e+2, -763245.4, -852022.1, -16357.94, -0.0016305004, -0.022543205, -760327.2, -12105.93 
1.2753141e+3, 2.3364137e+2, -691616.94, -766008.7, -16321.742, -0.0031811271, -0.020838227, -688193.44, -37880.93 
1.2752542e+3, 2.4363217e+2, -618101.94, -676075.9, -15611.741, -0.003773013, -0.019892108, -614165.2, -61762.64 
1.2751943e+3, 2.5362322e+2, -546463.06, -589983.2, -15438.969, -0.0029348566, -0.02277037, -541542.4, -87052.12 
1.2751348e+3, 2.6361445e+2, -472714.8, -499296.53, -13802.491, -0.0032345338, -0.022836434, -466844.38, -110268.12 
1.2750754e+3, 2.7360603e+2, -401332.28, -413088.66, -13658.615, -0.005205271, -0.02125189, -392340.66, -133681.8 
1.275016e+3, 2.8359753e+2, -330766.53, -328690.75, -11122.543, -0.0060964166, -0.020554157, -318557.78, -157815.77 
1.2749572e+3, 2.935891e+2, -259307.03, -242728.98, -10745.997, -0.005535306, -0.023978971, -237446.56, -174621.72 
1.2748988e+3, 3.0358502e+2, -174556.42, -75950.68, -6908.8594, -0.0064413776, -0.023782808, -75468.96, -75468.96 
1.2748407e+3, 3.1358585e+2, -200878.61, -85802.516, -6793.4517, -0.008318761, -0.02139013, -85402.85, -85402.85 
1.2859842e+3, 1.2381407e+2, -1482337.3, -1727659.4, 3662.3206, -0.00012856147, -0.016611787, -1482282.6, 244337.58 
1.2859249e+3, 1.3380238e+2, -1411379.5, -1644706.5, 594.1708, 0.013215648, -0.028183056, -1411378.0, 217356.75 
1.285865e+3, 1.4379114e+2, -1336890.5, -1553289.8, -1968.3223, -0.0060310415, -0.0149936555, -1336872.6, 193972.38 
1.2858051e+3, 1.5378e+2, -1267160.3, -1468776.5, -2172.4756, 0.00028351686, -0.017876638, -1267136.8, 165817.31 
1.2857448e+3, 1.6376904e+2, -1194204.0, -1378179.8, -5677.09, 0.0036695704, -0.019486675, -1194029.0, 141032.5 
1.285684e+3, 1.7375839e+2, -1123220.1, -1292693.6, -5725.845, 0.0013862496, -0.021496635, -1123026.9, 114138.91 
1.2856229e+3, 1.837479e+2, -1050231.3, -1202891.8, -7901.834, -0.00027804612, -0.021117875, -1049823.4, 89445.125 
1.2855615e+3, 1.937377e+2, -979537.56, -1117586.4, -7931.2197, -0.00065958017, -0.019548973, -979083.4, 62285.207 
1.2855e+3, 2.0372765e+2, -906236.6, -1026860.1, -9339.979, -0.0009153394, -0.018804228, -905517.75, 37949.363 
1.2854382e+3, 2.1371786e+2, -835458.44, -941315.7, -9245.252, -0.00089322234, -0.021749647, -834657.06, 10905.821 
1.2853764e+3, 2.2370827e+2, -762500.3, -851406.25, -9532.02, -0.0014161272, -0.021982104, -761489.8, -13832.832 
1.2853146e+3, 2.3369896e+2, -691530.8, -765796.06, -9502.82, -0.0030143417, -0.020242345, -690334.1, -40585.918 
1.2852529e+3, 2.4368979e+2, -618434.75, -675472.4, -8843.729, -0.0036256344, -0.019335633, -617095.0, -65256.96 
1.2851912e+3, 2.5368088e+2, -547886.4, -589883.06, -8594.659, -0.0026606391, -0.022424331, -546195.56, -92270.33 
1.2851296e+3, 2.6367217e+2, -474876.16, -499528.38, -6889.77, -0.0030474402, -0.022482557, -473081.28, -117070.67 
1.2850684e+3, 2.736638e+2, -403692.13, -413475.88, -6703.2573, -0.0055763195, -0.020470893, -400285.56, -142192.88 
1.2850073e+3, 2.836554e+2, -333219.16, -328302.75, -4178.2314, -0.006411232, -0.019645605, -325913.25, -165738.3 
1.2849465e+3, 2.9364705e+2, -263097.0, -242934.2, -3673.3186, -0.004647395, -0.02356228, -242285.84, -180029.33 
1.2848862e+3, 3.0364314e+2, -179597.36, -77592.74, 150.0389, -0.0055141947, -0.023514168, -77592.52, -77592.52 
1.2848261e+3, 3.1364402e+2, -205656.53, -87535.12, 156.16095, -0.009293782, -0.020447908, -87534.914, -87534.914 
1.2960054e+3, 1.23874016e+2, -1481793.9, -1726137.4, -3819.6643, 0.00020438049, -0.016131239, -1481734.1, 244298.61 
1.2959443e+3, 1.3386215e+2, -1413041.9, -1647799.8, -5379.781, 0.009118337, -0.02687426, -1412918.6, 215230.44 
1.2958826e+3, 1.4385074e+2, -1337735.4, -1554688.1, -8639.774, -0.0041309902, -0.012759052, -1337391.9, 192868.92 
1.2958208e+3, 1.5383948e+2, -1267863.8, -1469995.8, -8927.562, 0.0018144231, -0.020785982, -1267470.1, 164901.13 
1.2957585e+3, 1.6382845e+2, -1194476.1, -1378594.0, -12211.472, 0.0043091644, -0.023151685, -1193669.8, 140809.64 
1.2956958e+3, 1.7381783e+2, -1123440.6, -1293037.3, -12253.561, 0.00065371004, -0.01904819, -1122559.9, 114023.53 
1.2956329e+3, 1.8380733e+2, -1050437.0, -1203217.8, -14521.893, -0.0012671348, -0.016873222, -1049069.0, 89617.25 
1.2955695e+3, 1.9379702e+2, -979765.9, -1117976.5, -14556.006, -0.00015867729, -0.02047801, -978249.56, 62537.62 
1.295506e+3, 2.0378695e+2, -906105.1, -1026535.5, -16001.714, -0.00009691002, -0.021361083, -904015.2, 38870.72 
1.2954424e+3, 2.1377724e+2, -835298.25, -940974.75, -15936.072, -0.0015328809, -0.020065255, -832947.44, 12033.762 
1.2953788e+3, 2.2376765e+2, -762376.56, -851148.6, -16209.426, -0.0021769963, -0.019047434, -759509.4, -12434.36 
1.295315e+3, 2.337583e+2, -691465.44, -765637.5, -16180.912, -0.0017977587, -0.021152176, -688089.2, -38922.58 
1.2952514e+3, 2.4374916e+2, -617914.56, -674370.94, -15679.179, -0.0021665716, -0.021332137, -613852.44, -62596.19 
1.2951879e+3, 2.5374037e+2, -547336.2, -588736.06, -15468.893, -0.0037327174, -0.020812465, -542194.75, -88852.37 
1.2951244e+3, 2.6373172e+2, -474359.06, -498437.28, -13677.629, -0.0048075854, -0.02002521, -468176.8, -112749.79 
1.2950613e+3, 2.737234e+2, -403233.94, -412476.53, -13487.6875, -0.005099689, -0.021831993, -393597.8, -136088.94 
1.2949982e+3, 2.837151e+2, -332163.53, -326046.88, -11224.044, -0.0051551573, -0.021537956, -317471.97, -157881.75 
1.2949355e+3, 2.9370695e+2, -262032.33, -240617.69, -10752.054, -0.0048118164, -0.020555483, -236150.9, -174481.05 
1.2948734e+3, 3.0370313e+2, -179287.38, -76834.25, -6767.9297, -0.006197723, -0.019652817, -76389.1, -76389.1 
1.2948114e+3, 3.1370395e+2, -205490.78, -87080.48, -6726.7173, -0.009152265, -0.022246659, -86699.57, -86699.57 
1.3060269e+3, 1.23935975e+2, -1473698.9, -1722523.3, 2458.1018, 0.003049453, -0.019038027, -1473674.6, 251751.02 
1.3059638e+3, 1.3392396e+2, -1407529.3, -1647379.1, 1579.8247, 0.0046258876, -0.022833183, -1407518.9, 220024.45 
1.3059004e+3, 1.4391236e+2, -1332225.3, -1552562.0, -2108.1887, 0.00027042898, -0.015226329, -1332205.1, 197452.02 
1.3058366e+3, 1.5390106e+2, -1262582.8, -1467814.1, -2180.6528, 0.0019237305, -0.020617647, -1262559.6, 169208.16 
1.3057724e+3, 1.6388999e+2, -1189822.8, -1376907.9, -5211.8916, 0.002482289, -0.021815317, -1189677.6, 144198.55 
1.3057077e+3, 1.7387928e+2, -1119691.1, -1291875.0, -5457.7666, 0.000595148, -0.018673996, -1119518.3, 116462.84 
1.3056429e+3, 1.8386875e+2, -1047067.06, -1201465.5, -7836.82, -0.0004894371, -0.016919935, -1046670.3, 91414.1 
1.3055776e+3, 1.9385846e+2, -977267.9, -1116601.0, -7614.4316, 0.000023159468, -0.020249939, -976852.94, 63332.293 
1.3055123e+3, 2.0384838e+2, -904428.5, -1025766.6, -8927.407, -0.00020280486, -0.020894704, -903775.2, 38508.844 
1.3054468e+3, 2.1383862e+2, -834046.2, -940505.7, -9062.043, -0.0015355774, -0.01924401, -833280.4, 11099.21 
1.3053812e+3, 2.2382906e+2, -761338.56, -850084.0, -9409.388, -0.0021293492, -0.018196201, -760351.9, -13878.49 
1.3053156e+3, 2.3381974e+2, -691538.7, -765078.94, -9086.307, -0.0017062468, -0.020901581, -690432.6, -41867.96 
1.30525e+3, 2.4381062e+2, -618721.3, -674130.1, -8472.819, -0.0021019531, -0.021160882, -617454.7, -66800.805 
1.3051845e+3, 2.5380188e+2, -548350.0, -588655.44, -8431.417, -0.0038841912, -0.019783631, -546657.3, -93917.695 
1.3051191e+3, 2.637933e+2, -475687.6, -498014.6, -6697.0015, -0.0049123806, -0.018832553, -473832.88, -119009.19 
1.3050541e+3, 2.73785e+2, -405918.0, -412711.9, -6289.1772, -0.0046387543, -0.02161368, -402167.0, -145262.17 
1.3049892e+3, 2.837768e+2, -335446.03, -326297.25, -4084.2617, -0.004707006, -0.021490099, -324739.25, -165753.95 
1.3049245e+3, 2.937688e+2, -265169.16, -240821.94, -3935.2927, -0.0053848014, -0.01943969, -240201.67, -179137.81 
1.3048603e+3, 3.0376506e+2, -183297.06, -77809.664, -67.85471, -0.0068246946, -0.018375706, -77809.62, -77809.62 
1.3047963e+3, 3.1376594e+2, -211436.42, -89130.94, 320.54034, -0.008299085, -0.022128275, -89130.09, -89130.09 
1.3160485e+3, 1.23999715e+2, -1474695.0, -1724425.5, -4241.544, 0.0024409683, -0.019144824, -1474623.0, 250177.94 
1.3159837e+3, 1.3398755e+2, -1409213.6, -1650466.8, -4792.9, -0.000071603055, -0.017141169, -1409118.4, 217801.75 
1.3159183e+3, 1.4397569e+2, -1332680.0, -1553012.1, -8852.034, 0.0063274233, -0.020848565, -1332324.9, 196711.48 
1.3158526e+3, 1.5396446e+2, -1262797.3, -1467952.5, -9010.155, 0.00092665525, -0.018050486, -1262402.3, 168744.14 
1.3157864e+3, 1.6395338e+2, -1190476.0, -1378047.9, -11960.901, -0.0011812345, -0.0168229, -1189716.4, 143538.61 
1.3157198e+3, 1.7394252e+2, -1120432.5, -1293224.9, -12173.385, 0.0010510932, -0.019974317, -1119579.0, 115782.375 
1.315653e+3, 1.8393192e+2, -1046901.06, -1200997.6, -14650.653, 0.0015882415, -0.020222673, -1045520.56, 91944.78 
1.315586e+3, 1.939217e+2, -976970.6, -1115950.5, -14484.99, -0.00010814841, -0.018977752, -975477.0, 64088.45 
1.3155186e+3, 2.0391165e+2, -904624.44, -1026159.4, -15717.207, -0.0011045611, -0.017943827, -902624.75, 39039.277 
1.3154511e+3, 2.1390182e+2, -834372.44, -941127.7, -15827.075, -0.0010111757, -0.019241987, -832075.4, 11684.923 
1.3153836e+3, 2.2389224e+2, -760814.3, -848944.2, -16337.347, -0.0014490501, -0.019126391, -757883.2, -12028.976 
1.3153161e+3, 2.3388302e+2, -690919.75, -763781.7, -16068.09, -0.0026863148, -0.019532004, -687533.6, -39589.113 
1.3152486e+3, 2.4387398e+2, -618459.5, -673573.44, -15388.441, -0.0033292088, -0.019006075, -614454.0, -64420.918 
1.3151811e+3, 2.5386524e+2, -548195.9, -588297.8, -15345.545, -0.003220687, -0.019336259, -542997.56, -90878.69 
1.3151138e+3, 2.638567e+2, -474902.53, -496345.75, -13809.589, -0.0035350781, -0.018793857, -468141.06, -113938.67 
1.3150467e+3, 2.7384853e+2, -405102.44, -410968.56, -13438.514, -0.0043570683, -0.019777574, -394280.63, -137998.33 
1.3149798e+3, 2.8384042e+2, -334929.56, -325156.5, -11148.649, -0.0052475813, -0.019531678, -317870.5, -159508.67 
1.3149132e+3, 2.9383245e+2, -264729.38, -239828.77, -10997.709, -0.0064626667, -0.0202384, -235667.05, -175226.97 
1.3148469e+3, 3.038288e+2, -182492.17, -76053.05, -7446.578, -0.0074553536, -0.019643368, -75534.6, -75534.6 
1.3147812e+3, 3.1382984e+2, -210703.9, -87430.89, -7062.258, -0.0069180685, -0.019917618, -87027.62, -87027.62 
1.3260704e+3, 1.2406536e+2, -1466557.1, -1722366.3, 2300.8035, 0.006711793, -0.019339474, -1466536.5, 257621.22 
1.3260035e+3, 1.340532e+2, -1402363.3, -1647239.6, 1933.1398, -0.005709252, -0.013129297, -1402348.0, 223928.72 
1.3259365e+3, 1.4404124e+2, -1327845.4, -1551388.0, -1625.6051, 0.009225592, -0.023176864, -1327833.5, 200560.53 
1.3258687e+3, 1.5402995e+2, -1258201.5, -1466578.6, -2217.5925, 0.0016174328, -0.017917834, -1258177.9, 172326.78 
1.3258006e+3, 1.6401881e+2, -1185884.0, -1375959.8, -5253.043, -0.0017088025, -0.015411976, -1185738.9, 146874.89 
1.325732e+3, 1.7400792e+2, -1116738.0, -1291558.9, -4989.6216, 0.0009228027, -0.019453501, -1116595.6, 118124.88 
1.3256633e+3, 1.8399729e+2, -1043936.7, -1199907.5, -7351.2793, 0.0016749523, -0.020184472, -1043590.94, 93233.88 
1.3255942e+3, 1.9398701e+2, -974222.3, -1115041.9, -7688.096, -0.0002268419, -0.018429538, -973803.8, 65121.61 
1.3255249e+3, 2.0397694e+2, -902017.06, -1024481.3, -9072.146, -0.0012337485, -0.01721111, -901348.6, 39675.523 
1.3254556e+3, 2.1396713e+2, -833173.94, -940099.6, -8638.527, -0.0008440399, -0.019109039, -832480.5, 10639.779 
1.3253862e+3, 2.2395758e+2, -760591.2, -848389.4, -8935.832, -0.0012617608, -0.019050948, -759690.94, -14476.985 
1.3253166e+3, 2.339484e+2, -691014.56, -763436.2, -9009.055, -0.0028524513, -0.018477347, -689910.7, -42606.72 
1.3252471e+3, 2.4393938e+2, -618790.5, -672856.5, -8379.9, -0.0035307053, -0.0177752, -617521.44, -68129.336 
1.3251776e+3, 2.539307e+2, -549485.7, -588059.3, -7943.294, -0.0029566558, -0.019208279, -547914.0, -96436.555 
1.3251084e+3, 2.6392224e+2, -476776.78, -496276.5, -6348.3457, -0.0032205367, -0.018758476, -474892.16, -121331.83 
1.3250393e+3, 2.7391416e+2, -407251.66, -411077.8, -6239.5635, -0.00466339, -0.018358208, -402638.47, -146999.03 
1.3249703e+3, 2.8390613e+2, -337313.97, -324764.53, -3867.621, -0.005633752, -0.01794126, -323668.3, -165950.25 
1.3249017e+3, 2.9389825e+2, -268255.28, -239985.72, -3148.899, -0.006132367, -0.020192875, -239639.22, -179843.95 
1.3248335e+3, 3.038947e+2, -187137.5, -77470.67, 339.15182, -0.007023875, -0.01963327, -77469.625, -77469.625 
1.3247657e+3, 3.138958e+2, -215487.77, -89076.945, 236.18044, -0.007339329, -0.017820615, -89076.51, -89076.51 
1.3360928e+3, 1.2413266e+2, -1467809.1, -1724835.0, -3342.113, 0.010074078, -0.021876732, -1467765.6, 255732.61 
1.3360238e+3, 1.3412067e+2, -1401748.8, -1645560.5, -5192.0547, -0.011994178, -0.010273809, -1401638.3, 223977.5 
1.3359547e+3, 1.4410867e+2, -1328898.3, -1553052.0, -8515.04, 0.009868085, -0.023289448, -1328575.3, 199157.89 
1.3358851e+3, 1.5409723e+2, -1259352.4, -1468623.4, -9034.556, 0.0034932522, -0.01959862, -1258963.0, 170882.42 
1.3358149e+3, 1.6408603e+2, -1185771.6, -1375532.0, -12174.268, -0.000039873514, -0.01652809, -1184993.8, 146961.39 
1.3357444e+3, 1.7407522e+2, -1116486.9, -1290927.8, -11985.705, 0.00029822468, -0.017440008, -1115667.1, 118394.06 
1.3356736e+3, 1.8406454e+2, -1044596.4, -1201167.8, -14268.44, 0.00021488054, -0.017561657, -1043306.7, 92859.0 
1.3356026e+3, 1.9405414e+2, -975052.25, -1116603.9, -14556.3545, -0.00033324858, -0.018531993, -973570.8, 64696.84 
1.3355313e+3, 2.0404404e+2, -901458.25, -1023193.56, -16152.34, -0.00079899025, -0.018260442, -899351.56, 41015.223 
1.33546e+3, 2.1403433e+2, -832435.9, -938538.94, -15793.793, -0.0010417984, -0.018755691, -830134.8, 12326.972 
1.3353884e+3, 2.2402483e+2, -760558.9, -848316.75, -15991.85, -0.001535303, -0.018031465, -757735.56, -13180.701 
1.3353169e+3, 2.3401563e+2, -691127.0, -763631.5, -16056.799, -0.0023296888, -0.017754117, -687730.2, -41085.016 
1.3352455e+3, 2.4400665e+2, -617995.44, -671168.0, -15519.371, -0.0028696598, -0.017408663, -613797.3, -65064.28 
1.3351741e+3, 2.5399807e+2, -548622.94, -586240.7, -15118.17, -0.0031901326, -0.019325502, -543300.25, -92483.03 
1.3351028e+3, 2.639897e+2, -476387.88, -495432.06, -13553.146, -0.004035461, -0.01870556, -469346.22, -116446.94 
1.3350317e+3, 2.7398166e+2, -406963.44, -410430.3, -13465.226, -0.005628779, -0.017308794, -395120.53, -140142.53 
1.3349608e+3, 2.8397375e+2, -335938.4, -321862.28, -11222.097, -0.0059313835, -0.01661753, -315653.84, -158598.28 
1.3348903e+3, 2.9396605e+2, -266832.7, -236932.48, -10506.692, -0.0045189294, -0.019264072, -233609.75, -174478.92 
1.33482e+3, 3.0396262e+2, -187106.0, -77279.73, -7066.499, -0.005760203, -0.018347096, -76826.914, -76826.914 
1.33475e+3, 3.1396368e+2, -215648.4, -89267.47, -7163.243, -0.009943995, -0.015699562, -88862.75, -88862.75 
1.3461153e+3, 1.2420228e+2, -1459936.8, -1723264.8, 5299.662, 0.008617448, -0.016825218, -1459830.1, 262985.9 
1.3460442e+3, 1.3419016e+2, -1395121.8, -1642590.3, 855.6588, -0.011978903, -0.012539812, -1395118.8, 229815.97 
1.3459732e+3, 1.441782e+2, -1323773.8, -1550693.1, -1974.5829, 0.01166471, -0.020621926, -1323756.5, 203295.45 
1.3459013e+3, 1.5416668e+2, -1254287.8, -1466368.8, -1756.4467, 0.0033761112, -0.019152094, -1254273.3, 174891.56 
1.3458292e+3, 1.6415544e+2, -1181118.6, -1373841.1, -4919.7856, -0.00095808925, -0.017102532, -1180993.1, 150281.92 
1.3457568e+3, 1.7414455e+2, -1112422.9, -1289619.1, -5371.8574, 0.00019334884, -0.017070882, -1112260.1, 121121.62 
1.3456841e+3, 1.8413386e+2, -1040873.5, -1199025.0, -7717.715, 0.00052255613, -0.016695004, -1040497.8, 94988.7 
1.345611e+3, 1.9412346e+2, -972934.7, -1115222.1, -7151.4287, -0.00022884761, -0.017987473, -972576.1, 65012.21 
1.3455379e+3, 2.0411336e+2, -900334.4, -1022492.8, -8441.287, -0.00089163915, -0.017794037, -899753.8, 39933.563 
1.3454643e+3, 2.1410365e+2, -831170.5, -937827.4, -8695.88, -0.0013593832, -0.017858908, -830466.1, 11316.325 
1.3453908e+3, 2.2409418e+2, -759311.8, -847026.44, -9105.071, -0.0017843011, -0.017211625, -758376.6, -14501.245 
1.3453174e+3, 2.34085e+2, -691082.3, -762937.4, -8659.008, -0.002039745, -0.017761536, -690053.56, -44088.22 
1.3452439e+3, 2.4407607e+2, -618782.6, -670670.56, -7935.0806, -0.002571265, -0.017392255, -617596.25, -69543.61 
1.3451704e+3, 2.5406754e+2, -550065.1, -586094.5, -7860.4404, -0.0036088515, -0.018161563, -548424.9, -98288.67 
1.3450971e+3, 2.6405928e+2, -478271.6, -495186.0, -6317.79, -0.004575711, -0.017510042, -476172.34, -123954.8 
1.3450241e+3, 2.740513e+2, -409494.72, -410535.53, -5794.71, -0.0054963804, -0.017476315, -404197.1, -149901.5 
1.3449512e+3, 2.840435e+2, -338662.28, -321511.75, -3567.3984, -0.0056470414, -0.016784653, -320799.3, -164427.19 
1.3448784e+3, 2.9403594e+2, -270065.16, -236831.86, -3318.2275, -0.004718075, -0.017689053, -236503.8, -178057.83 
1.3448061e+3, 3.040326e+2, -191438.06, -78693.26, 9.588724, -0.006028902, -0.016795374, -78693.26, -78693.26 
1.3447341e+3, 3.140337e+2, -220455.86, -91058.99, 375.706, -0.010023634, -0.0164965, -91057.91, -91057.91 
1.3561381e+3, 1.2427374e+2, -1462094.0, -1727004.4, -742.09546, 0.007312715, -0.018116068, -1462092.0, 260023.72 
1.356065e+3, 1.3426144e+2, -1396283.8, -1644545.8, -6898.978, -0.0078061065, -0.017964235, -1396092.1, 228144.08 
1.3559917e+3, 1.4424953e+2, -1323546.3, -1549977.8, -8781.97, 0.014129952, -0.015904598, -1323206.1, 203146.9 
1.3559179e+3, 1.5423803e+2, -1254018.6, -1465539.3, -8574.138, 0.0017615333, -0.017228164, -1253671.6, 174793.97 
1.3558438e+3, 1.6422674e+2, -1182141.4, -1375645.4, -11995.422, -0.0037596214, -0.017338507, -1181400.6, 149175.69 
1.3557693e+3, 1.7421569e+2, -1113588.5, -1291732.4, -12411.073, 0.00047921154, -0.017975535, -1112728.0, 119956.66 
1.3556947e+3, 1.8420497e+2, -1040162.44, -1197335.5, -14942.695, 0.0020997773, -0.01711998, -1038754.44, 96035.19 
1.3556196e+3, 1.9419472e+2, -972013.25, -1113238.6, -14478.371, -0.0000056337763, -0.01679651, -970544.25, 66345.85 
1.3555442e+3, 2.0418467e+2, -900723.1, -1023260.1, -15563.109, -0.001438385, -0.015985033, -898777.4, 40211.25 
1.3554688e+3, 2.1417487e+2, -831746.3, -938928.2, -15781.378, -0.0017795562, -0.016556317, -829470.94, 11613.685 
1.3553934e+3, 2.241654e+2, -758574.7, -845409.25, -16419.176, -0.0020385329, -0.016595775, -755573.75, -12396.164 
1.3553177e+3, 2.3415631e+2, -690231.75, -761135.6, -16032.595, -0.0020498645, -0.01831758, -686775.0, -41508.453 
1.3552421e+3, 2.4414748e+2, -618507.6, -670068.9, -15269.9795, -0.0026877606, -0.017563282, -614324.7, -66971.625 
1.3551666e+3, 2.54139e+2, -549897.44, -585695.4, -15205.397, -0.004275301, -0.015771499, -544310.7, -94874.43 
1.3550915e+3, 2.6413077e+2, -477255.03, -493031.53, -13692.645, -0.0049038935, -0.015249295, -469340.97, -117824.07 
1.3550162e+3, 2.741229e+2, -408443.13, -408296.6, -13187.343, -0.004409406, -0.018885605, -395182.3, -141588.44 
1.3549413e+3, 2.841152e+2, -338048.25, -320168.06, -11060.745, -0.0050082076, -0.018469214, -314886.16, -159216.89 
1.3548666e+3, 2.941078e+2, -269540.1, -235667.98, -10836.66, -0.0070222826, -0.01528155, -232497.75, -174755.67 
1.3547921e+3, 3.0410454e+2, -190702.52, -77094.266, -7533.742, -0.00799577, -0.014842114, -76596.86, -76596.86 
1.3547182e+3, 3.1410566e+2, -219770.28, -89477.03, -7137.415, -0.007442756, -0.020643631, -89087.21, -89087.21 
1.3661613e+3, 1.24347456e+2, -1455527.0, -1723192.8, 6934.1597, 0.0030156146, -0.014064818, -1455347.5, 266045.84 
1.3660859e+3, 1.3433503e+2, -1389584.1, -1641859.0, 97.28071, -0.0039563207, -0.021050489, -1389584.0, 233931.2 
1.3660103e+3, 1.443231e+2, -1316950.6, -1547388.1, -1218.5233, 0.009969838, -0.012819985, -1316944.3, 208687.89 
1.3659348e+3, 1.5431151e+2, -1248888.1, -1463723.8, -1670.4452, 0.0013137937, -0.016084626, -1248875.1, 178870.4 
1.3658586e+3, 1.6430017e+2, -1177697.9, -1373247.5, -5259.5034, -0.0025780778, -0.017117638, -1177556.5, 152300.28 
1.3657822e+3, 1.7428912e+2, -1110215.5, -1289869.8, -4725.3643, 0.0005393292, -0.017448077, -1110091.3, 121873.78 
1.3657053e+3, 1.842784e+2, -1037455.75, -1196018.4, -7059.6343, 0.0016920198, -0.016474959, -1037142.06, 96928.01 
1.3656281e+3, 1.9426812e+2, -969180.2, -1111925.8, -7469.193, -0.000116153285, -0.01612914, -968790.4, 67380.38 
1.3655508e+3, 2.0425807e+2, -898143.7, -1021536.25, -8738.776, -0.0013503795, -0.015448393, -897527.9, 40741.465 
1.3654733e+3, 2.1424828e+2, -830819.0, -938026.4, -8194.088, -0.0016246854, -0.016348034, -830196.3, 10168.864 
1.3653958e+3, 2.2423883e+2, -758551.5, -844760.5, -8587.922, -0.002040866, -0.016220566, -757704.3, -15246.515 
1.365318e+3, 2.342298e+2, -690380.9, -760600.9, -8650.976, -0.0024712312, -0.017235182, -689330.75, -44784.406 
1.3652405e+3, 2.4422102e+2, -618856.6, -669280.25, -7996.093, -0.003103562, -0.016498132, -617619.0, -70986.586 
1.3651629e+3, 2.542126e+2, -551082.25, -585346.94, -7523.517, -0.004111064, -0.015479273, -549503.1, -100788.06 
1.3650855e+3, 2.6420444e+2, -479003.94, -492547.84, -5877.079, -0.004573799, -0.014909988, -476809.3, -126014.45 
1.3650084e+3, 2.7419668e+2, -411076.34, -408270.47, -5636.71, -0.004396451, -0.017678576, -403864.72, -150993.92 
1.3649313e+3, 2.841891e+2, -340987.56, -320040.3, -3435.938, -0.0052563255, -0.01742189, -319491.13, -164546.0 
1.3648544e+3, 2.941818e+2, -272376.47, -235526.9, -2771.356, -0.0075713657, -0.015534095, -235319.64, -178302.72 
1.3647781e+3, 3.0417863e+2, -194394.11, -78010.586, 457.00012, -0.008330955, -0.014561327, -78008.8, -78008.8 
1.3647018e+3, 3.141798e+2, -224818.8, -91157.83, 509.87607, -0.006924187, -0.017697819, -91155.88, -91155.88 
1.3761845e+3, 1.2442305e+2, -1454922.3, -1721006.1, 113.17751, 0.010177179, -0.011314584, -1454922.1, 265730.44 
1.3761069e+3, 1.3441056e+2, -1389869.6, -1642035.0, -7370.308, -0.0007486058, -0.022697557, -1389654.4, 233120.66 
1.3760293e+3, 1.4439858e+2, -1318011.9, -1549408.9, -8357.259, 0.0012882049, -0.011068515, -1317710.5, 207181.8 
1.3759516e+3, 1.5438685e+2, -1250138.0, -1465993.0, -8737.151, 0.0017656988, -0.015482911, -1249784.9, 177222.58 
1.3758735e+3, 1.6437545e+2, -1177028.0, -1371534.3, -12495.365, 0.0013663841, -0.016465016, -1176228.5, 152890.5 
1.3757949e+3, 1.7436455e+2, -1109381.6, -1287936.4, -12081.476, 0.00035438995, -0.015788103, -1108567.9, 122658.086 
1.3757159e+3, 1.8435386e+2, -1038236.6, -1197471.8, -14321.286, -0.00021727418, -0.014953418, -1036958.9, 96371.914 
1.3756368e+3, 1.9434343e+2, -970120.4, -1113704.0, -14693.347, -0.00047648698, -0.015923623, -968632.2, 66800.74 
1.3755573e+3, 2.0433335e+2, -897358.8, -1019781.2, -16193.845, -0.00080706656, -0.015950844, -895252.94, 42278.84 
1.3754778e+3, 2.1432368e+2, -829898.8, -936065.4, -15725.423, -0.0010669049, -0.016926395, -827618.56, 12007.793 
1.375398e+3, 2.243143e+2, -758526.6, -844679.6, -16002.345, -0.0018951474, -0.015873518, -755650.3, -13932.015 
1.3753183e+3, 2.3430526e+2, -690466.06, -760733.25, -16064.357, -0.003292595, -0.014688984, -686967.7, -43160.78 
1.3752386e+3, 2.4429652e+2, -617980.5, -667419.25, -15530.58, -0.0037972191, -0.01438996, -613506.6, -67614.1 
1.375159e+3, 2.5428817e+2, -550172.3, -583412.9, -15095.4375, -0.003287195, -0.01714443, -544340.3, -96365.984 
1.3750796e+3, 2.6428014e+2, -478424.16, -491292.3, -13490.54, -0.00379053, -0.016302643, -469911.94, -119858.836 
1.3750002e+3, 2.742725e+2, -410578.4, -407170.88, -13272.721, -0.005622051, -0.013717572, -395493.0, -143365.06 
1.3749212e+3, 2.8426504e+2, -339708.8, -317340.53, -10930.439, -0.0064898306, -0.013587338, -312886.28, -158685.11 
1.3748422e+3, 2.9425782e+2, -271068.94, -232745.72, -10248.289, -0.0063694846, -0.018774232, -230177.28, -173905.42 
1.3747638e+3, 3.0425477e+2, -194183.98, -77485.7, -7384.082, -0.007159507, -0.016136346, -77020.336, -77020.336 
1.3746856e+3, 3.142561e+2, -224791.25, -90928.87, -7347.787, -0.009060786, -0.00682809, -90526.75, -90526.75 
1.3862078e+3, 1.24500945e+2, -1449078.3, -1717476.8, 7548.09, 0.0027665717, -0.016478105, -1448866.1, 271023.2 
1.3861284e+3, 1.344884e+2, -1383584.4, -1640314.4, 47.31177, 0.0036540309, -0.019838126, -1383584.4, 238427.8 
1.3860485e+3, 1.4447632e+2, -1310780.5, -1546110.9, -1183.8478, -0.0019675444, -0.011143576, -1310774.5, 213356.05 
1.3859688e+3, 1.5446453e+2, -1244742.5, -1463610.9, -835.1563, 0.001785, -0.0149822775, -1244739.4, 181506.83 
1.3858886e+3, 1.644531e+2, -1172715.3, -1369551.6, -4459.589, 0.0026932776, -0.015724203, -1172614.3, 155743.75 
1.3858077e+3, 1.7444217e+2, -1105445.9, -1286170.9, -4917.952, 0.00044986454, -0.014893306, -1105312.3, 125153.086 
1.3857268e+3, 1.8443146e+2, -1034816.44, -1195626.9, -7267.9063, -0.00068338227, -0.014109095, -1034488.6, 98081.64 
1.3856454e+3, 1.9442102e+2, -967950.5, -1112524.9, -6811.116, -0.0006718597, -0.015600947, -967630.3, 67042.27 
1.3855639e+3, 2.0441096e+2, -895675.1, -1018445.3, -8149.4087, -0.00082261063, -0.015613954, -895136.56, 41634.77 
1.3854823e+3, 2.1440132e+2, -828355.94, -934818.3, -8254.114, -0.001076633, -0.015817918, -827719.8, 11145.778 
1.3854004e+3, 2.2439197e+2, -757475.44, -843618.2, -8650.045, -0.001905394, -0.014775905, -756615.44, -15658.177 
1.3853186e+3, 2.3438296e+2, -690474.0, -760234.0, -8310.733, -0.0032787775, -0.014490975, -689497.56, -46451.9 
1.3852368e+3, 2.4437425e+2, -618619.7, -666719.06, -7747.4063, -0.003835131, -0.014271898, -617402.6, -72271.766 
1.385155e+3, 2.5436598e+2, -551644.3, -583141.94, -7619.7686, -0.0033847152, -0.016265359, -549897.8, -102685.89 
1.3850735e+3, 2.6435804e+2, -480475.9, -491076.47, -6072.849, -0.003953863, -0.015428459, -477715.63, -128425.7 
1.384992e+3, 2.7435046e+2, -413217.06, -407276.75, -5622.673, -0.0059690177, -0.013586409, -403887.94, -152523.94 
1.3849108e+3, 2.8434312e+2, -342459.7, -316526.56, -3004.8008, -0.0066572246, -0.013129977, -316182.97, -162747.0 
1.38483e+3, 2.9433608e+2, -274836.44, -232415.88, -2308.013, -0.0057138884, -0.017010668, -232290.67, -176785.84 
1.3847493e+3, 3.0433312e+2, -198815.69, -79204.7, 539.6724, -0.006606234, -0.016167335, -79202.266, -79202.266 
1.384669e+3, 3.1433445e+2, -227869.36, -92045.09, 665.2895, -0.0100121265, -0.0118525615, -92041.836, -92041.836 
1.3962314e+3, 1.2458096e+2, -1450161.1, -1719146.5, -577.3702, 0.0013607513, -0.012114875, -1450159.9, 268945.38 
1.3961498e+3, 1.3456823e+2, -1385283.4, -1643325.9, -6748.12, 0.008810483, -0.0142423045, -1385107.0, 236123.08 
1.396068e+3, 1.4455599e+2, -1310615.8, -1545364.1, -8626.6875, -0.0015913199, -0.012278741, -1310299.1, 213050.89 
1.3959861e+3, 1.5454425e+2, -1244439.5, -1462731.3, -8436.534, 0.0013767275, -0.014573254, -1244114.0, 181350.94 
1.3959037e+3, 1.6453283e+2, -1173621.5, -1371228.9, -11847.581, 0.0020995045, -0.014982753, -1172913.8, 154663.31 
1.3958208e+3, 1.7452173e+2, -1106464.6, -1288051.5, -12273.579, 0.000740147, -0.014600183, -1105638.8, 124046.95 
1.3957377e+3, 1.8451099e+2, -1034201.0, -1194145.0, -14739.572, -0.00015110713, -0.01375802, -1032854.06, 98936.92 
1.3956542e+3, 1.9450064e+2, -967249.9, -1110930.5, -14361.594, -0.0007894743, -0.015084037, -965828.4, 68063.875 
1.3955705e+3, 2.0449062e+2, -895881.8, -1018763.56, -15688.43, -0.0012977489, -0.01444979, -893910.5, 42080.07 
1.3954867e+3, 2.1448095e+2, -828635.7, -935311.44, -15806.97, -0.0015487443, -0.013314354, -826342.75, 11742.458 
1.3954028e+3, 2.2447161e+2, -756875.3, -842319.0, -16307.399, -0.0020516599, -0.013114176, -753868.75, -13691.905 
1.3953188e+3, 2.3446263e+2, -689836.3, -758881.8, -15995.574, -0.0026491545, -0.016326597, -686310.7, -44045.953 
1.3952349e+3, 2.4445401e+2, -618256.3, -665950.75, -15516.328, -0.003419421, -0.015777145, -613652.8, -69303.516 
1.395151e+3, 2.5444582e+2, -551341.2, -582498.44, -15415.286, -0.004457139, -0.012881384, -545003.5, -98573.9 
1.3950673e+3, 2.644379e+2, -479571.8, -489176.7, -13850.178, -0.005066621, -0.012448829, -469715.1, -121208.125 
1.3949837e+3, 2.7443042e+2, -412325.7, -405362.44, -13416.829, -0.0055354545, -0.017401377, -394982.84, -144402.33 
1.3949004e+3, 2.8442326e+2, -341127.53, -313696.9, -10755.278, -0.0059263697, -0.016034702, -309982.75, -157331.88 
1.3948174e+3, 2.944165e+2, -273546.22, -229659.19, -10071.626, -0.005902544, -0.009735815, -227458.23, -172741.14 
1.3947347e+3, 3.044136e+2, -198464.56, -78430.19, -6925.652, -0.006932682, -0.014520462, -78031.92, -78031.92 
1.3946523e+3, 3.1441468e+2, -227559.38, -91362.21, -6777.0127, -0.009858658, -0.03417916, -91025.83, -91025.83 
1.406255e+3, 1.2466315e+2, -1443152.4, -1716689.5, 5470.9976, 0.00050481415, -0.015437741, -1443043.0, 275256.78 
1.4061716e+3, 1.3465044e+2, -1378591.9, -1640318.0, 1795.9924, 0.009380146, -0.011717526, -1378579.6, 241844.9 
1.4060876e+3, 1.4463808e+2, -1304744.1, -1543184.6, -480.26282, -0.002056108, -0.014708335, -1304743.3, 217802.28 
1.4060035e+3, 1.5462631e+2, -1238889.6, -1460740.9, -1025.4741, 0.0012594472, -0.013518987, -1238884.9, 185776.03 
1.4059189e+3, 1.6461483e+2, -1168448.4, -1368866.4, -4398.468, 0.00216008, -0.012913118, -1168351.9, 158421.55 
1.405834e+3, 1.7460367e+2, -1102570.0, -1286376.8, -4178.7954, 0.0006115215, -0.01444953, -1102475.0, 126407.72 
1.4057487e+3, 1.845929e+2, -1030917.5, -1192259.8, -6509.844, -0.00022443535, -0.014041589, -1030655.3, 100332.96 
1.4056629e+3, 1.9458258e+2, -964555.56, -1109348.4, -6653.848, -0.00048436818, -0.01395607, -964250.44, 68838.96 
1.4055772e+3, 2.0457256e+2, -893943.7, -1017640.1, -8105.365, -0.0010644691, -0.013053341, -893414.9, 41772.797 
1.4054912e+3, 2.1456288e+2, -827587.44, -934686.3, -7910.8286, -0.0019264687, -0.013060529, -827006.25, 10276.228 
1.4054051e+3, 2.2455354e+2, -756031.0, -841078.8, -8307.647, -0.0024711664, -0.0131259, -755227.06, -15853.127 
1.4053191e+3, 2.3454463e+2, -689442.9, -757872.5, -8104.2686, -0.0024057738, -0.015566729, -688496.2, -47034.88 
1.405233e+3, 2.4453604e+2, -618417.06, -665508.3, -7722.539, -0.003072418, -0.014975158, -617182.94, -73637.555 
1.4051469e+3, 2.5452787e+2, -551791.9, -582247.5, -7602.1646, -0.0047139456, -0.0128737055, -549999.7, -104374.086 
1.4050609e+3, 2.6452002e+2, -480656.7, -488590.0, -6285.93, -0.0054306295, -0.012232562, -477190.5, -129488.03 
1.4049752e+3, 2.745126e+2, -415317.3, -405721.4, -6089.3774, -0.005254855, -0.016010197, -402766.9, -152991.75 
1.4048897e+3, 2.8450552e+2, -345030.5, -313485.4, -3409.1711, -0.0057324553, -0.015481919, -313121.2, -161276.78 
1.4048046e+3, 2.9449892e+2, -278566.56, -230003.92, -2763.243, -0.0067591784, -0.011830481, -229847.19, -175937.95 
1.4047198e+3, 3.044962e+2, -203181.08, -79722.625, 1366.4934, -0.0077114715, -0.011321358, -79707.51, -79707.51 
1.4046353e+3, 3.1449747e+2, -229166.36, -91265.04, 1781.9395, -0.009082778, -0.018212209, -91242.016, -91242.016 
1.4162791e+3, 1.2474738e+2, -1443565.3, -1717135.8, -2766.162, 0.0014486267, -0.011113421, -1443537.3, 273937.2 
1.4161935e+3, 1.3473469e+2, -1378245.5, -1639185.6, -5254.687, 0.006931997, -0.0113927685, -1378139.6, 241459.14 
1.4161074e+3, 1.4472225e+2, -1306054.9, -1545440.0, -8111.248, -0.0031909337, -0.018020993, -1305780.3, 215940.28 
1.4160211e+3, 1.5471037e+2, -1240222.3, -1463074.6, -8621.038, 0.0013362308, -0.011936348, -1239889.3, 183947.97 
1.4159343e+3, 1.6469884e+2, -1168262.8, -1368141.3, -12014.353, 0.002624384, -0.009864089, -1167543.1, 158407.13 
1.4158472e+3, 1.746877e+2, -1102301.1, -1285618.6, -11881.181, 0.00013915639, -0.0144275315, -1101534.3, 126525.12 
1.4157596e+3, 1.8467692e+2, -1031273.2, -1192854.4, -14176.518, -0.0007414663, -0.014712092, -1030038.8, 100126.15 
1.4156719e+3, 1.9466655e+2, -964956.4, -1110048.5, -14340.729, 0.00014756764, -0.012334301, -963552.5, 68713.98 
1.415584e+3, 2.0465651e+2, -893662.06, -1016960.9, -15836.215, -0.00034105137, -0.011542707, -891660.56, 42704.324 
1.4154957e+3, 2.1464683e+2, -827291.3, -934014.8, -15670.553, -0.002332741, -0.0146545265, -825037.94, 11421.799 
1.4154077e+3, 2.2463754e+2, -755641.06, -840234.4, -16083.146, -0.0031780761, -0.014368827, -752686.5, -14135.784 
1.4153191e+3, 2.346287e+2, -689085.4, -757095.1, -15912.498, -0.002516608, -0.012407512, -685546.44, -44909.14 
1.415231e+3, 2.4462016e+2, -618130.0, -664889.6, -15571.305, -0.0027911558, -0.012186919, -613419.25, -70698.125 
1.4151427e+3, 2.5461194e+2, -551515.5, -581650.1, -15463.213, -0.004341175, -0.016129049, -544992.6, -100190.984 
1.4150545e+3, 2.6460415e+2, -480179.94, -487589.16, -14558.544, -0.00523445, -0.014499521, -468862.06, -121984.086 
1.4149666e+3, 2.7459687e+2, -414894.2, -404809.9, -14389.469, -0.0053086374, -0.009219841, -394604.75, -145655.4 
1.4148788e+3, 2.845899e+2, -343810.97, -310895.16, -11466.019, -0.0062715067, -0.011543131, -307294.84, -156277.02 
1.4147913e+3, 2.945833e+2, -277350.3, -227415.95, -10824.885, -0.008460291, -0.023906903, -225170.3, -172087.7 
1.4147048e+3, 3.0458084e+2, -202274.28, -77878.89, -5284.3745, -0.009102063, -0.0062585548, -77654.81, -77654.81 
1.4146185e+3, 3.1458277e+2, -228327.92, -89580.18, -4853.659, -0.007975174, 0.039047714, -89410.6, -89410.6 
1.4263034e+3, 1.2483404e+2, -1436191.0, -1715601.5, 4682.6084, 0.0062865973, -0.011072198, -1436112.6, 280512.72 
1.4262158e+3, 1.348213e+2, -1371262.6, -1636241.9, 2511.4238, 0.005498205, -0.009575596, -1371238.8, 247511.38 
1.4261274e+3, 1.4480883e+2, -1300082.6, -1542766.6, -790.7634, -0.0018902216, -0.015713537, -1300080.0, 220792.3 
1.4260389e+3, 1.5479684e+2, -1235239.9, -1460941.5, -594.59625, 0.0014117889, -0.012301345, -1235238.4, 187751.34 
1.42595e+3, 1.6478527e+2, -1163884.3, -1366265.6, -3709.285, 0.0022608265, -0.0104672825, -1163816.4, 161286.89 
1.4258605e+3, 1.747741e+2, -1098164.4, -1283876.8, -4022.9292, 0.00017108674, -0.012733532, -1098077.3, 129135.34 
1.4257708e+3, 1.847633e+2, -1027613.56, -1191192.4, -6472.472, -0.0006152894, -0.012814928, -1027357.9, 101960.72 
1.425681e+3, 1.9475287e+2, -962294.9, -1108923.6, -6415.015, 0.000030971652, -0.012402495, -962014.75, 69405.92 
1.4255907e+3, 2.0474282e+2, -891291.75, -1015264.5, -7728.9033, -0.00037138615, -0.011952507, -890811.75, 42707.395 
1.4255004e+3, 2.1473317e+2, -825434.6, -932589.25, -7544.1865, -0.0019298655, -0.013725129, -824906.06, 10707.553 
1.4254099e+3, 2.247239e+2, -754628.25, -839393.44, -8055.6226, -0.002817817, -0.013334868, -753869.44, -16165.003 
1.4253195e+3, 2.3471506e+2, -689087.06, -756790.75, -8026.015, -0.002762547, -0.012495648, -688148.6, -48357.47 
1.425229e+3, 2.4470656e+2, -618393.1, -663919.8, -7493.4233, -0.0031339817, -0.011757354, -617191.44, -75316.94 
1.4251386e+3, 2.5469843e+2, -552269.56, -580927.9, -6955.965, -0.0041248463, -0.013671689, -550670.44, -106716.336 
1.4250483e+3, 2.6469067e+2, -480958.66, -487718.94, -6092.0273, -0.0050247964, -0.013920591, -477371.88, -131341.64 
1.4249578e+3, 2.7468333e+2, -414106.06, -404226.66, -6234.467, -0.0056881574, -0.014143858, -401212.16, -153109.97 
1.424868e+3, 2.8467643e+2, -345171.34, -310524.56, -4608.9795, -0.0066616074, -0.011166252, -309921.9, -159752.11 
1.4247781e+3, 2.9467005e+2, -285755.94, -230478.34, -4625.0176, -0.008201457, -0.008163604, -230094.05, -177861.63 
1.4246893e+3, 3.046672e+2, -210935.48, -84735.34, 2924.7173, -0.008876864, -0.022797255, -84667.59, -84667.59 
1.4246018e+3, 3.1466818e+2, -225545.55, -90536.19, 649.5292, -0.008095941, -0.044488315, -90533.06, -90533.06 
1.4363278e+3, 1.24922715e+2, -1438043.0, -1718907.1, -3232.2915, 0.0013714072, -0.016586171, -1438005.9, 277750.38 
1.436238e+3, 1.3490993e+2, -1372485.6, -1638166.1, -4774.7666, 0.004857985, -0.006518477, -1372399.8, 245481.92 
1.4361477e+3, 1.4489743e+2, -1300005.6, -1542068.6, -8547.458, 0.0009160863, -0.009768068, -1299704.3, 220299.86 
1.436057e+3, 1.5488543e+2, -1235001.5, -1460203.0, -8476.233, 0.0013511897, -0.014154087, -1234683.0, 187438.77 
1.4359656e+3, 1.648738e+2, -1164555.1, -1367489.4, -11452.454, 0.0012553916, -0.013503566, -1163910.9, 160324.81 
1.435874e+3, 1.748626e+2, -1098914.1, -1285170.1, -11755.307, 0.0005429461, -0.009713747, -1098175.1, 128170.33 
1.4357822e+3, 1.8485174e+2, -1027670.9, -1191076.1, -14350.857, -0.00011785604, -0.009065782, -1026420.1, 102031.74 
1.43569e+3, 1.9484127e+2, -962285.5, -1108805.1, -14330.779, -0.00073404016, -0.013860252, -960897.0, 69657.51 
1.4355975e+3, 2.0483123e+2, -890997.2, -1014598.7, -15582.4, -0.0009797039, -0.013743147, -889063.0, 43589.875 
1.435505e+3, 2.1482165e+2, -825176.3, -931971.25, -15444.978, -0.00085558847, -0.010599668, -822987.5, 11759.104 
1.4354123e+3, 2.2481239e+2, -754603.3, -839273.75, -16100.081, -0.0016272258, -0.010473546, -751645.2, -14807.871 
1.4353196e+3, 2.3480348e+2, -689067.1, -756712.6, -16079.825, -0.0033163084, -0.015542322, -685439.4, -46514.684 
1.435227e+3, 2.4479504e+2, -617349.56, -661744.9, -15461.094, -0.004177949, -0.013267041, -612495.75, -71488.45 
1.4351343e+3, 2.5478715e+2, -551242.6, -578766.56, -14958.369, -0.004160218, -0.0056706057, -544678.6, -101593.96 
1.4350417e+3, 2.647794e+2, -481132.94, -488074.38, -13975.507, -0.004896983, -0.010804194, -470203.63, -125042.805 
1.4349493e+3, 2.7477178e+2, -414286.6, -404598.6, -14140.797, -0.006537298, -0.030694347, -394495.13, -147260.0 
1.4348568e+3, 2.84765e+2, -345200.1, -310484.88, -14518.48, -0.00699946, -0.013785293, -305213.44, -155911.83 
1.4347644e+3, 2.947591e+2, -285917.88, -230634.03, -14498.743, -0.0060187317, 0.03648032, -227062.34, -175702.56 
1.4346738e+3, 3.0475506e+2, -215232.64, -93755.3, -828.44183, -0.0071718865, -0.06361635, -93749.65, -93749.65 
1.4345852e+3, 3.1475592e+2, -221705.42, -83020.29, -2862.6348, -0.004369461, -0.031841848, -82961.23, -82961.23 
1.4463526e+3, 1.2501393e+2, -1429889.4, -1715483.1, 4562.223, 0.0014980589, -0.013310599, -1429816.5, 285045.9 
1.4462607e+3, 1.3500103e+2, -1366009.6, -1635258.9, 3755.341, 0.0039671645, -0.0084252, -1365957.3, 251031.48 
1.446168e+3, 1.4498849e+2, -1294642.1, -1540104.8, -127.08985, 0.0009585552, -0.010971874, -1294642.1, 224469.63 
1.446075e+3, 1.5497644e+2, -1229273.3, -1458030.6, -646.39825, 0.0014366951, -0.012267993, -1229271.5, 191958.42 
1.4459814e+3, 1.6496475e+2, -1159129.6, -1365075.6, -3845.85, 0.0014333008, -0.0115231415, -1159057.9, 164286.48 
1.4458875e+3, 1.7495348e+2, -1095055.0, -1283531.6, -3768.978, 0.00084718695, -0.010341314, -1094979.6, 130475.3 
1.4457935e+3, 1.8494259e+2, -1024445.94, -1189481.4, -6052.2227, 0.00009899888, -0.01007491, -1024224.3, 103337.35 
1.445699e+3, 1.949321e+2, -959040.94, -1107186.4, -6047.0854, -0.0008160027, -0.013124405, -958794.5, 70869.83 
1.4456044e+3, 2.0492205e+2, -888380.0, -1013230.44, -7508.687, -0.001165923, -0.012182329, -887930.06, 43832.785 
1.4455095e+3, 2.1491246e+2, -823950.7, -931300.44, -7576.079, -0.0008993283, -0.009108541, -823418.6, 10438.112 
1.4454147e+3, 2.249032e+2, -753785.0, -838180.4, -8078.339, -0.0015780642, -0.010313068, -753018.7, -17071.21 
1.4453197e+3, 2.348943e+2, -688427.56, -755724.1, -7657.7905, -0.003295992, -0.017945746, -687567.2, -49532.414 
1.4452247e+3, 2.4488594e+2, -617435.0, -660975.3, -7139.2236, -0.0041739163, -0.012813725, -616294.25, -76177.58 
1.4451298e+3, 2.5487816e+2, -552853.5, -578770.44, -7176.744, -0.004052742, 0.0027633917, -550998.9, -108806.05 
1.4450352e+3, 2.6487043e+2, -482926.34, -487007.7, -5383.65, -0.005025462, -0.01011601, -479209.6, -134940.81 
1.4449406e+3, 2.7486277e+2, -416304.3, -403672.9, -4061.5754, -0.0072326316, -0.052240457, -402479.66, -156135.78 
1.4448458e+3, 2.8485626e+2, -344981.03, -309744.9, -4609.1543, -0.0069126915, -0.013171148, -309152.0, -160744.63 
1.4447509e+3, 2.9485098e+2, -279686.25, -227295.53, -4080.47, -0.0037768895, 0.100011624, -226979.63, -176520.48 
1.4446582e+3, 3.0484462e+2, -229298.86, -123643.29, 7327.483, -0.009655406, -0.13028537, -123137.53, -123137.53 
1.444568e+3, 3.148452e+2, -223292.14, -59917.184, -5222.2246, -0.013445102, 0.07827288, -59750.426, -59750.426 
1.4563777e+3, 1.251073e+2, -1430197.5, -1715443.8, -3390.9973, 0.0048061423, -0.004892635, -1430157.1, 283790.38 
1.4562833e+3, 1.3509429e+2, -1366017.4, -1634929.3, -4164.757, 0.0027106279, -0.013674209, -1365952.9, 250122.1 
1.4561884e+3, 1.4508167e+2, -1295763.5, -1542112.9, -7898.7236, -0.00084279734, -0.016478091, -1295510.5, 222688.17 
1.4560932e+3, 1.5506954e+2, -1230470.0, -1460028.0, -8351.315, 0.0016560174, -0.0076311664, -1230166.5, 190150.84 
1.4559975e+3, 1.6505781e+2, -1159234.1, -1364878.0, -11920.482, 0.002358526, -0.0062069185, -1158545.5, 163886.98 
1.4559014e+3, 1.7504644e+2, -1094982.6, -1283274.8, -11908.698, 0.0010422089, -0.013799332, -1094232.4, 130311.37 
1.455805e+3, 1.8503554e+2, -1024505.94, -1189554.1, -13927.662, 0.00009711634, -0.014442759, -1023338.94, 103311.76 
1.4557083e+3, 1.950251e+2, -959174.5, -1107283.6, -13956.384, -0.00040984177, -0.01049802, -957870.9, 70882.11 
1.4556113e+3, 2.0501505e+2, -888625.94, -1013578.3, -15722.853, -0.0011154981, -0.008041574, -886677.94, 44173.664 
1.4555141e+3, 2.1500537e+2, -824123.2, -931622.4, -15806.345, -0.0019568726, -0.009136667, -821847.25, 11099.058 
1.455417e+3, 2.249961e+2, -753013.5, -836602.0, -16139.299, -0.002514827, -0.012366107, -750005.56, -14968.566 
1.4553198e+3, 2.349873e+2, -687678.44, -754162.4, -15770.154, -0.0028058353, -0.019549474, -684127.44, -47004.113 
1.4552227e+3, 2.4497902e+2, -617444.75, -660981.0, -15525.388, -0.0032771965, -0.010539702, -612475.44, -73270.984 
1.4551254e+3, 2.549713e+2, -552879.6, -578803.3, -15583.832, -0.003969926, 0.011374249, -545571.6, -104291.4 
1.4550285e+3, 2.6496363e+2, -480330.03, -481631.7, -13329.696, -0.005548051, -0.011797896, -467635.28, -124279.73 
1.4549316e+3, 2.7495605e+2, -413755.3, -398391.47, -12062.424, -0.007927566, -0.078270316, -391772.53, -146342.94 
1.4548348e+3, 2.849501e+2, -344178.6, -308067.47, -12850.874, -0.006574153, -0.00881608, -303961.2, -156473.19 
1.4547375e+3, 2.949457e+2, -279224.84, -226563.98, -12159.892, -0.0017026003, 0.1826294, -223891.75, -174360.58 
1.4546426e+3, 3.049357e+2, -254695.42, -176513.16, -1080.5443, -0.017089391, -0.22571607, -176498.22, -176498.22 
1.4545502e+3, 3.1493327e+2, -201543.53, -14408.033, -12622.667, -0.0154720945, 0.03636302, -13560.448, -13560.448 
1.466403e+3, 1.2520307e+2, -1422980.9, -1712977.9, 4788.0, 0.003700195, -0.0076798764, -1422901.9, 290107.1 
1.4663064e+3, 1.3519e+2, -1358735.5, -1632268.0, 3566.5083, 0.0031753196, -0.011425535, -1358689.0, 256448.03 
1.4662093e+3, 1.4517732e+2, -1289011.1, -1539037.1, -275.01892, 0.0003171005, -0.013317685, -1289010.9, 228250.39 
1.4661117e+3, 1.5516514e+2, -1225693.3, -1457927.4, -99.428764, 0.0015352892, -0.00886378, -1225693.3, 193687.61 
1.4660136e+3, 1.6515332e+2, -1155171.6, -1363236.5, -3397.3953, 0.001854152, -0.007780834, -1155116.3, 166380.2 
1.4659151e+3, 1.7514193e+2, -1090146.5, -1281221.5, -3633.0654, 0.00092517614, -0.012326052, -1090077.4, 133530.64 
1.4658165e+3, 1.8513098e+2, -1020110.75, -1187473.8, -5878.439, 0.00021046535, -0.012634231, -1019904.5, 105810.766 
1.4657176e+3, 1.951205e+2, -956728.44, -1106145.9, -5880.0166, -0.00020324925, -0.010453154, -956497.44, 71320.625 
1.4656183e+3, 2.0511042e+2, -886772.9, -1012464.0, -7390.3564, -0.0009489324, -0.008601428, -886339.8, 43577.04 
1.4655189e+3, 2.1510074e+2, -821821.75, -930286.44, -7188.7964, -0.0019390633, -0.009438898, -821347.4, 10664.287 
1.4654194e+3, 2.2509149e+2, -751228.6, -835606.7, -7732.369, -0.0026082154, -0.01161183, -750525.9, -16423.518 
1.46532e+3, 2.3508269e+2, -687321.9, -753839.1, -7970.866, -0.0028891983, -0.016856305, -686380.0, -50191.395 
1.4652205e+3, 2.450744e+2, -617434.3, -660339.1, -7801.7324, -0.0032236162, -0.009766966, -616059.75, -77789.85 
1.4651209e+3, 2.5506663e+2, -552605.06, -578022.9, -7408.5957, -0.0037591874, 0.006607014, -550603.3, -110257.43 
1.4650217e+3, 2.6505905e+2, -481811.16, -481031.13, -5997.3193, -0.005576038, -0.01206149, -475411.16, -132991.0 
1.4649224e+3, 2.750517e+2, -419876.22, -400020.63, -6582.0654, -0.008355938, -0.064871855, -398036.88, -153544.94 
1.4648235e+3, 2.850458e+2, -344802.5, -305942.94, -5715.962, -0.006818936, -0.0065340046, -305119.63, -158569.67 
1.4647245e+3, 2.9504126e+2, -267290.1, -219745.86, -4248.4336, -0.0014142991, 0.15113932, -219369.22, -170774.69 
1.464627e+3, 3.050307e+2, -273893.47, -211513.77, 5806.626, -0.017937299, -0.19811554, -210977.86, -210977.86 
1.4645311e+3, 3.1502536e+2, -199327.75, 56941.254, 6896.479, 0.0011889399, -0.0021914262, 57126.71, 57126.71 
1.4764285e+3, 1.2530094e+2, -1424462.5, -1715469.6, -3154.7915, -0.000060723996, -0.016390167, -1424428.3, 287621.53 
1.4763296e+3, 1.3528785e+2, -1360137.4, -1634493.4, -4177.044, 0.004781956, -0.0042418647, -1360073.9, 254104.27 
1.4762302e+3, 1.4527513e+2, -1289025.5, -1538516.6, -8444.89, 0.0031941605, -0.0049603437, -1288740.0, 227562.86 
1.4761302e+3, 1.5526281e+2, -1225482.4, -1457327.6, -8354.261, 0.0010119568, -0.01423719, -1225181.8, 193241.66 
1.4760299e+3, 1.6525099e+2, -1155710.1, -1364208.9, -11294.308, 0.00030375927, -0.013712309, -1155100.1, 165439.2 
1.4759292e+3, 1.7523962e+2, -1090803.6, -1282196.5, -11521.585, 0.00054587657, -0.007032548, -1090112.5, 132538.2 
1.4758281e+3, 1.8522863e+2, -1020360.25, -1187652.3, -14235.898, 0.00031814052, -0.006398435, -1019157.44, 105600.89 
1.4757268e+3, 1.9521804e+2, -956785.3, -1106225.8, -14265.138, -0.00019571451, -0.012635995, -955435.8, 71426.33 
1.4756252e+3, 2.0520794e+2, -886386.0, -1011708.2, -15451.865, -0.0007079172, -0.01279153, -884508.94, 44452.133 
1.4755237e+3, 2.1519835e+2, -821517.3, -929605.6, -15314.58, -0.0011607325, -0.009672393, -819389.4, 11665.837 
1.475422e+3, 2.251891e+2, -751736.4, -836612.8, -16175.23, -0.002132654, -0.008316924, -748758.25, -15612.434 
1.47532e+3, 2.3518024e+2, -687768.44, -754774.56, -16437.783, -0.003608261, -0.010554277, -683953.2, -48720.477 
1.4752181e+3, 2.4517187e+2, -616620.3, -658708.56, -16099.8125, -0.004049014, -0.01065228, -611168.0, -73853.44 
1.4751165e+3, 2.5516406e+2, -551823.56, -576432.7, -15762.095, -0.003587817, -0.010543538, -544132.0, -104740.7 
1.4750148e+3, 2.6515666e+2, -482746.75, -482941.6, -15168.403, -0.005227565, -0.009895694, -467675.47, -126211.53 
1.474913e+3, 2.751497e+2, -420809.22, -401854.84, -15696.48, -0.00865335, -0.011650499, -392996.38, -149464.13 
1.4748122e+3, 2.851433e+2, -342426.1, -301144.5, -10529.596, -0.00786556, -0.009233637, -298613.88, -153019.03 
1.4747119e+3, 2.9513752e+2, -265694.4, -216837.36, -9438.617, -0.0033008729, -0.0037883406, -215077.33, -167425.97 
1.4746112e+3, 3.051299e+2, -279651.7, -222871.86, -12795.069, -0.0110284705, -0.020341951, -220121.75, -220121.75 
1.4745104e+3, 3.1512383e+2, -198223.66, 61704.02, -10282.429, 0.0004991864, 0.16792196, 62110.145, 62110.145 
1.4864542e+3, 1.2540142e+2, -1416391.1, -1711822.4, 4740.935, 0.0012892712, -0.012492518, -1416315.1, 294749.9 
1.486353e+3, 1.3538823e+2, -1353890.0, -1631646.8, 4497.533, 0.0038072744, -0.006954169, -1353817.3, 259377.16 
1.4862512e+3, 1.4537546e+2, -1283594.3, -1536452.8, 336.49817, 0.0024375732, -0.007332209, -1283593.8, 231725.88 
1.486149e+3, 1.5536311e+2, -1219330.4, -1454853.4, -61.65724, 0.0014890463, -0.0123759145, -1219330.4, 198110.25 
1.4860463e+3, 1.6535123e+2, -1150111.9, -1361511.9, -3143.32, 0.0008909844, -0.011742605, -1150065.1, 169491.86 
1.4859432e+3, 1.7533982e+2, -1087610.5, -1280671.8, -2992.863, 0.00041283623, -0.007749552, -1087564.1, 134104.86 
1.48584e+3, 1.853288e+2, -1017754.56, -1186504.0, -5385.055, 0.0000017681544, -0.007077642, -1017582.94, 106194.03 
1.4857362e+3, 1.9531818e+2, -952961.8, -1104469.3, -5418.224, -0.00019809906, -0.011411384, -952768.3, 73112.63 
1.4856325e+3, 2.0530805e+2, -882942.25, -1010159.8, -6866.549, -0.00066180725, -0.011764661, -882572.7, 45407.543 
1.4855285e+3, 2.1529838e+2, -819882.9, -928909.3, -7081.9917, -0.0012726296, -0.010295964, -819424.75, 10650.198 
1.4854243e+3, 2.2528912e+2, -750534.7, -835720.4, -7693.7026, -0.0020807208, -0.007854059, -749845.44, -17679.8 
1.48532e+3, 2.3528029e+2, -686131.3, -753698.56, -7287.1704, -0.003268946, -0.00676629, -685354.3, -51102.098 
1.4852159e+3, 2.4527186e+2, -615584.44, -658438.5, -7083.857, -0.0043460173, -0.010623801, -614443.8, -78109.07 
1.4851119e+3, 2.552639e+2, -551834.1, -576675.06, -7644.8076, -0.005054477, -0.020260023, -549670.0, -111257.09 
1.4850079e+3, 2.6525652e+2, -481889.5, -483680.75, -7477.696, -0.005289378, -0.0074666366, -475253.97, -134768.77 
1.484904e+3, 2.7524972e+2, -416045.03, -400668.34, -7673.2236, -0.0053033144, 0.021312721, -397494.44, -154942.61 
1.4848007e+3, 2.8524286e+2, -345413.56, -303232.2, -2450.5977, -0.00806206, -0.012868498, -303090.3, -158471.31 
1.4846985e+3, 2.9523608e+2, -287675.53, -228420.45, -4569.346, -0.012600484, -0.09989025, -228070.16, -181384.81 
1.4845951e+3, 3.052313e+2, -276547.75, -204287.3, -5313.506, -0.0006703061, 0.09715261, -203898.67, -203898.67 
1.4844902e+3, 3.1522205e+2, -191561.28, 19267.86, 13256.166, -0.032143712, -0.17897575, 20098.09, 20098.09 
1.4964803e+3, 1.2550415e+2, -1416503.3, -1711353.8, -3501.662, 0.005155283, -0.0018302882, -1416461.6, 293596.9 
1.4963765e+3, 1.3549079e+2, -1353733.5, -1631057.8, -3802.5066, 0.0010692938, -0.01593161, -1353681.4, 258507.98 
1.4962725e+3, 1.4547795e+2, -1284562.8, -1538165.4, -7677.472, -0.00053984404, -0.01580515, -1284330.5, 229984.63 
1.496168e+3, 1.5546563e+2, -1220406.0, -1456494.5, -8023.4565, 0.0026625881, -0.0054204543, -1220133.6, 196302.27 
1.496063e+3, 1.654537e+2, -1150148.3, -1361117.9, -11605.816, 0.0028257398, -0.0047040363, -1149511.8, 169041.08 
1.4959574e+3, 1.7544217e+2, -1087369.1, -1280164.4, -11511.69, 0.0003839372, -0.013046339, -1086684.3, 133981.55 
1.4958517e+3, 1.8543115e+2, -1017840.25, -1186710.0, -13414.398, -0.0006600042, -0.0125589045, -1016781.3, 105992.5 
1.4957458e+3, 1.954206e+2, -953217.6, -1104776.3, -13488.978, -0.00032321768, -0.0071835667, -952026.44, 72850.836 
1.4956397e+3, 2.0541042e+2, -883474.8, -1011051.9, -15406.395, -0.0008693429, -0.0066000316, -881640.7, 45336.39 
1.4955331e+3, 2.154006e+2, -820244.75, -929644.06, -15628.759, -0.0021081688, -0.011488387, -818055.8, 11017.346 
1.4954267e+3, 2.2539137e+2, -749729.1, -834116.06, -15974.558, -0.0023784076, -0.009818171, -746806.4, -15642.639 
1.4953203e+3, 2.3538266e+2, -685428.56, -752254.06, -15648.913, -0.0021474299, -0.0049336604, -681945.56, -48696.45 
1.4952138e+3, 2.4537419e+2, -616585.6, -660512.2, -15670.96, -0.0043171705, -0.00942261, -611568.1, -76235.984 
1.4951073e+3, 2.5536603e+2, -552832.7, -578734.2, -16258.606, -0.008183137, -0.022701781, -544997.25, -107584.984 
1.495001e+3, 2.6535854e+2, -482347.06, -484688.53, -15642.639, -0.005778383, -0.0053010797, -467831.4, -128346.06 
1.4948949e+3, 2.7535173e+2, -416576.13, -401832.06, -15836.376, 0.0016068531, 0.032516062, -391735.9, -150184.0 
1.4947893e+3, 2.8534448e+2, -348811.66, -310124.53, -12271.476, -0.007707799, -0.015303174, -306560.4, -162937.06 
1.4946842e+3, 2.9533696e+2, -290635.47, -233509.28, -14701.65, -0.030221362, -0.12666176, -229947.78, -184250.84 
1.4945789e+3, 3.053347e+2, -247935.31, -145006.08, -12077.916, 0.0138223795, 0.13058163, -143607.83, -143607.83 
1.4944723e+3, 3.1532997e+2, -216561.97, -35982.914, 3211.267, -0.003672155, -0.08381136, -35925.824, -35925.824 
1.5065065e+3, 1.2560944e+2, -1409573.6, -1709049.4, 5536.375, 0.00378102, -0.006159511, -1409471.4, 299555.28 
1.5064006e+3, 1.3559604e+2, -1346392.4, -1628377.9, 4614.7803, 0.0019003104, -0.012805214, -1346316.9, 264840.97 
1.506294e+3, 1.4558314e+2, -1277795.9, -1534910.1, 617.97394, 0.00051468087, -0.012273939, -1277794.4, 235489.95 
1.506187e+3, 1.5557075e+2, -1216109.4, -1454449.4, 887.8184, 0.0019329959, -0.006880018, -1216106.0, 199299.89 
1.5060796e+3, 1.6555876e+2, -1146409.8, -1359685.3, -2406.524, 0.0020414884, -0.0064660674, -1146382.6, 171140.64 
1.5059718e+3, 1.755472e+2, -1082064.4, -1277940.6, -2692.0146, 0.00080163067, -0.0120286215, -1082027.4, 137609.27 
1.5058637e+3, 1.8553613e+2, -1013012.5, -1184360.3, -4814.4346, -0.00015014943, -0.011191564, -1012877.3, 108867.75 
1.5057553e+3, 1.9552553e+2, -951055.44, -1103699.8, -4759.6294, -0.00057093304, -0.0069129313, -950907.2, 72941.734 
1.5056469e+3, 2.0551534e+2, -881886.94, -1010095.44, -6201.241, -0.0013394392, -0.0063739317, -881587.7, 44361.215 
1.5055381e+3, 2.1550553e+2, -817577.94, -928173.75, -5927.8433, -0.0023365144, -0.010680117, -817261.1, 10783.937 
1.5054291e+3, 2.2549623e+2, -747562.94, -833342.3, -6519.1826, -0.0025842518, -0.009468346, -747070.3, -16934.275 
1.5053204e+3, 2.3548746e+2, -684602.06, -752074.4, -7063.056, -0.0023808007, -0.0059167626, -683870.6, -51648.527 
1.5052116e+3, 2.4547899e+2, -616093.5, -659922.8, -6772.321, -0.0042667403, -0.008177868, -615070.94, -80765.836 
1.5051027e+3, 2.5547087e+2, -552372.3, -578209.3, -6043.531, -0.0077715004, -0.015776852, -551028.56, -114643.8 
1.5049942e+3, 2.6546332e+2, -482165.5, -484717.47, -4093.356, -0.00587802, -0.0056700124, -479153.88, -140695.08 
1.5048857e+3, 2.7545628e+2, -416546.6, -401960.34, -3882.9043, 0.00056662917, 0.012987448, -400991.1, -160463.38 
1.5047775e+3, 2.8544918e+2, -352592.4, -311480.66, -323.09753, -0.007886954, -0.0130709335, -311478.1, -168880.84 
1.5046696e+3, 2.9544225e+2, -300563.94, -236983.08, 1232.1338, -0.028268646, -0.065356374, -236959.2, -192294.02 
1.5045622e+3, 3.0543938e+2, -244203.95, -129256.516, -919.8561, 0.011639624, 0.065245405, -129249.15, -129249.15 
1.5044542e+3, 3.1543815e+2, -226785.81, -72087.01, -9542.699, -0.016777895, 0.08566059, -71500.58, -71500.58 
1.5165329e+3, 1.2571695e+2, -1411090.6, -1711695.1, -2711.7998, -0.0006660001, -0.018007591, -1411066.1, 296906.78 
1.5164246e+3, 1.3570358e+2, -1347974.5, -1630827.6, -3471.249, 0.0048868046, -0.0021209489, -1347931.9, 262172.13 
1.5163156e+3, 1.4569063e+2, -1277755.5, -1534176.9, -7935.754, 0.003777824, -0.0018839729, -1277510.1, 234720.9 
1.5162061e+3, 1.5567808e+2, -1215769.5, -1453672.0, -7768.6997, -0.00025679078, -0.014129092, -1215516.1, 198837.75 
1.5160964e+3, 1.6566607e+2, -1147062.5, -1360941.5, -10454.165, -0.00057521724, -0.0136427935, -1146552.8, 169918.89 
1.5159863e+3, 1.7565455e+2, -1082891.9, -1279170.5, -10760.05, 0.0014674978, -0.0061483597, -1082303.8, 136281.02 
1.5158759e+3, 1.8564342e+2, -1013201.44, -1184331.3, -13488.587, 0.0010714057, -0.00494884, -1012144.8, 108548.86 
1.515765e+3, 1.9563273e+2, -950953.1, -1103473.1, -13459.6045, -0.000949527, -0.009936343, -949774.44, 73024.016 
1.515654e+3, 2.0562254e+2, -881312.8, -1008972.06, -14431.3955, -0.0020368441, -0.009883166, -879701.7, 45196.496 
1.515543e+3, 2.1561286e+2, -817193.7, -927277.75, -14244.209, -0.002303896, -0.007764984, -815380.44, 11612.785 
1.5154317e+3, 2.256035e+2, -748602.94, -835393.5, -15199.954, -0.0029135132, -0.007002613, -746017.9, -16932.963 
1.5153205e+3, 2.355945e+2, -685462.75, -753835.2, -15750.084, -0.003830583, -0.0095063, -682009.06, -50835.84 
1.5152094e+3, 2.4558611e+2, -614698.9, -657062.75, -15336.638, -0.0041805035, -0.0066113337, -609729.6, -76474.21 
1.5150982e+3, 2.555783e+2, -551066.4, -575500.44, -14629.277, -0.004159489, 0.00024120822, -544223.75, -108891.9 
1.5149872e+3, 2.6557064e+2, -481836.1, -484037.7, -12305.698, -0.005973599, -0.009268982, -470582.06, -133175.16 
1.5148766e+3, 2.7556318e+2, -416076.5, -400891.0, -12360.8545, -0.009034406, -0.03806349, -393977.2, -154496.81 
1.5147658e+3, 2.85557e+2, -348561.1, -302907.8, -11782.785, -0.0081474865, -0.0032539782, -300046.16, -158505.42 
1.5146549e+3, 2.9555213e+2, -297247.97, -229871.6, -9578.494, -0.0040345765, 0.09301388, -228536.34, -184947.88 
1.5145452e+3, 3.055449e+2, -258750.42, -159737.73, -4374.3037, -0.01289589, -0.12284274, -159544.86, -159544.86 
1.5144363e+3, 3.155415e+2, -200255.27, -18114.416, -13466.997, -0.029463898, -0.1186621, -17124.088, -17124.088 
1.5265596e+3, 1.2582722e+2, -1403038.0, -1707669.8, 5324.8823, 0.0011320614, -0.0127199525, -1402945.0, 303947.38 
1.5264487e+3, 1.3581376e+2, -1342369.8, -1627963.6, 5578.988, 0.0037694452, -0.005476839, -1342260.9, 266763.56 
1.5263374e+3, 1.4580074e+2, -1272885.0, -1532418.5, 1450.8292, 0.002735325, -0.005050354, -1272876.9, 238275.03 
1.5262257e+3, 1.5578817e+2, -1209441.3, -1451146.1, 1016.47736, 0.0003156211, -0.01179502, -1209437.0, 203838.14 
1.5261133e+3, 1.657761e+2, -1141339.6, -1357974.9, -1709.4615, -0.00007646821, -0.011021114, -1141326.1, 174067.1 
1.5260008e+3, 1.7576453e+2, -1080247.1, -1277686.8, -1411.388, 0.0008496535, -0.0062549766, -1080237.0, 137269.86 
1.525888e+3, 1.8575339e+2, -1011012.25, -1183240.4, -3680.3047, 0.00035832473, -0.005598838, -1010933.7, 108682.336 
1.5257747e+3, 1.9574268e+2, -946888.5, -1101445.0, -3664.0354, -0.0010643204, -0.010051237, -946801.7, 74919.41 
1.5256613e+3, 2.0573245e+2, -877782.44, -1007452.44, -4979.83, -0.0019101617, -0.009393974, -877591.5, 46229.668 
1.525548e+3, 2.1572274e+2, -815764.8, -926688.8, -5336.8667, -0.0021582595, -0.006167935, -815508.6, 10407.959 
1.5254343e+3, 2.2571336e+2, -747488.94, -834373.4, -5757.9824, -0.0030266268, -0.0058384663, -747109.0, -19100.654 
1.5253207e+3, 2.3570435e+2, -683847.75, -752617.44, -5042.985, -0.0044105556, -0.010169804, -683479.94, -53383.156 
1.5252072e+3, 2.4569593e+2, -613693.4, -656788.9, -4901.9404, -0.0043589366, -0.006601458, -613142.8, -80963.67 
1.5250935e+3, 2.556881e+2, -550744.2, -575361.94, -5701.524, -0.0031455413, 0.0031162342, -549487.8, -115231.96 
1.5249802e+3, 2.6568052e+2, -484491.75, -483343.0, -3771.9321, -0.0064178156, -0.008291988, -480101.97, -143771.48 
1.5248671e+3, 2.756731e+2, -425305.9, -403233.9, -2788.1455, -0.013163614, -0.043567166, -402887.16, -164484.03 
1.5247537e+3, 2.8566724e+2, -348223.28, -299372.72, -2755.4028, -0.007389061, -0.0012825901, -299217.78, -158757.17 
1.5246408e+3, 2.9566285e+2, -277735.97, -218606.5, -2681.0557, 0.008470414, 0.11646447, -218485.17, -175981.6 
1.5245283e+3, 3.0565414e+2, -271127.2, -185580.38, 2727.8816, -0.027672537, -0.15940203, -185493.47, -185493.47 
1.5244175e+3, 3.1565177e+2, -217052.3, 20921.133, -609.5794, 0.014802204, 0.110341966, 20922.695, 20922.695 
1.5365864e+3, 1.2593982e+2, -1402764.1, -1706326.0, -3308.0215, 0.0058629634, 0.0013267521, -1402728.1, 303061.0 
1.5364732e+3, 1.3592617e+2, -1341763.6, -1626586.0, -3189.5454, 0.000047011574, -0.017473487, -1341728.0, 266194.66 
1.5363593e+3, 1.4591314e+2, -1273920.1, -1534307.5, -6725.69, -0.0007659072, -0.015672214, -1273746.5, 236303.94 
1.536245e+3, 1.559006e+2, -1210684.9, -1452942.6, -7147.6685, 0.0026606608, -0.0029152718, -1210474.1, 201699.13 
1.5361305e+3, 1.6588852e+2, -1141181.8, -1357011.4, -10483.358, 0.002306734, -0.0022489533, -1140673.8, 173617.97 
1.5360154e+3, 1.7587686e+2, -1079749.3, -1276601.9, -10246.443, -0.00074646185, -0.0108835315, -1079217.4, 137188.61 
1.5359001e+3, 1.8586574e+2, -1011023.1, -1183264.8, -11874.492, -0.0017324558, -0.010926062, -1010208.4, 108306.734 
1.5357846e+3, 1.9585505e+2, -947112.06, -1101632.1, -11945.684, -0.0011055307, -0.007445638, -946194.06, 74425.63 
1.5356688e+3, 2.0584479e+2, -878567.0, -1008826.4, -13785.919, -0.0012428383, -0.0056265243, -877123.94, 45596.406 
1.5355529e+3, 2.1583492e+2, -816242.5, -927651.5, -14116.709, -0.0018722416, -0.005844227, -814481.6, 10335.645 
1.535437e+3, 2.2582561e+2, -746058.6, -831454.06, -14257.622, -0.0029475589, -0.005654639, -743741.06, -16832.56 
1.5353209e+3, 2.3581679e+2, -682690.8, -750179.75, -13662.011, -0.0044541876, -0.00784647, -680030.06, -51035.2 
1.5352048e+3, 2.4580827e+2, -615275.8, -660009.7, -13727.879, -0.00499867, -0.008167462, -611399.0, -80320.75 
1.5350889e+3, 2.5580013e+2, -552042.94, -577989.6, -14639.632, -0.0047307867, -0.006897253, -545455.44, -112297.164 
1.5349731e+3, 2.6579276e+2, -482394.2, -478877.13, -13764.759, -0.0070837773, -0.0011508283, -466759.0, -131528.4 
1.5348572e+3, 2.7578598e+2, -423401.78, -399049.6, -12568.075, -0.011473474, 0.000009099357, -393726.72, -156429.95 
1.5347418e+3, 2.8577965e+2, -348266.34, -299675.0, -8963.1, -0.0061368905, -0.0127075305, -298074.4, -158715.78 
1.534627e+3, 2.9577398e+2, -278115.6, -220687.61, -9691.063, 0.0065991757, -0.017874451, -219096.31, -177682.06 
1.5345113e+3, 3.057675e+2, -280567.34, -204858.5, -13568.952, -0.028208232, 0.01009117, -202500.08, -202500.08 
1.5343963e+3, 3.1576225e+2, -207277.52, 45267.355, -9592.5625, -0.009569331, 0.10534664, 45631.19, 45631.19 
1.5466136e+3, 1.2605514e+2, -1396659.0, -1704527.8, 6464.4575, 0.004042838, -0.0039029694, -1396523.3, 308135.72 
1.5464976e+3, 1.3604146e+2, -1334544.0, -1624070.1, 5536.447, 0.0011903095, -0.013002658, -1334438.3, 272354.72 
1.5463814e+3, 1.4602837e+2, -1267237.0, -1530568.8, 1970.2991, 0.00038913896, -0.011525991, -1267222.3, 241699.03 
1.5462647e+3, 1.5601578e+2, -1207265.8, -1450825.9, 2487.7354, 0.0020524128, -0.004953066, -1207240.3, 203804.33 
1.5461476e+3, 1.6600367e+2, -1138275.6, -1355668.6, -381.53708, 0.0015940537, -0.0044811284, -1138275.0, 174888.34 
1.54603e+3, 1.75992e+2, -1074787.5, -1274235.0, -586.5335, -0.0006649031, -0.009809416, -1074785.8, 140491.92 
1.5459123e+3, 1.8598084e+2, -1006688.6, -1181206.3, -2389.121, -0.0016091425, -0.009033836, -1006655.94, 110731.125 
1.5457945e+3, 1.9597013e+2, -945327.6, -1100731.0, -2430.5588, -0.0012907472, -0.005903667, -945289.6, 74202.42 
1.5456763e+3, 2.0595984e+2, -876899.56, -1007545.4, -3659.613, -0.0016527125, -0.005196036, -876797.1, 44795.805 
1.545558e+3, 2.1594995e+2, -813370.0, -925865.2, -3118.574, -0.0024764938, -0.0072865034, -813283.6, 10406.321 
1.5454395e+3, 2.2594061e+2, -743923.0, -830791.5, -3775.3098, -0.00326801, -0.0054605803, -743759.25, -17977.818 
1.545321e+3, 2.3593178e+2, -681731.25, -749926.0, -4702.45, -0.0040816157, -0.0035797993, -681408.5, -53540.465 
1.5452026e+3, 2.4592324e+2, -614608.8, -659081.1, -4303.4155, -0.0052079507, -0.0071591297, -614196.2, -84244.37 
1.5450843e+3, 2.5591502e+2, -551917.94, -577443.44, -3229.0579, -0.0064296625, -0.014088155, -551515.75, -119483.28 
1.5449658e+3, 2.6590765e+2, -480502.63, -479045.84, -3576.4043, -0.0067973053, 0.00082343846, -476124.4, -142019.83 
1.5448475e+3, 2.7590096e+2, -416650.16, -396925.06, -5224.742, -0.0066806185, 0.023315405, -395626.6, -159456.72 
1.5447298e+3, 2.858942e+2, -349421.56, -302837.2, -2605.0686, -0.006909523, -0.01739984, -302691.97, -164455.55 
1.5446126e+3, 2.9588765e+2, -294253.1, -230453.11, -5112.0503, -0.006787345, -0.084921315, -230046.1, -189745.52 
1.5444943e+3, 3.0588305e+2, -278830.13, -195179.31, -3653.6958, -0.013128623, 0.10026895, -195020.03, -195020.03 
1.5443757e+3, 3.158748e+2, -190028.92, 42703.527, 16975.537, -0.018362122, -0.16728938, 43935.207, 43935.207 
1.5566407e+3, 1.2617278e+2, -1398520.1, -1707897.6, -2017.0878, -0.0011714997, -0.018493341, -1398506.9, 304999.0 
1.5565225e+3, 1.3615915e+2, -1336560.5, -1627103.8, -2774.9688, 0.0051568546, 0.0014474962, -1336534.0, 269105.75 
1.5564038e+3, 1.4614601e+2, -1266810.6, -1528791.4, -6891.352, 0.0039641107, 0.0008223469, -1266629.5, 241139.06 
1.5562844e+3, 1.5613331e+2, -1206472.5, -1449040.4, -6503.1206, -0.0006386487, -0.0142701445, -1206298.3, 203594.4 
1.5561648e+3, 1.6612121e+2, -1138778.4, -1356585.9, -8633.988, -0.0010935112, -0.013331766, -1138436.6, 173574.7 
1.556045e+3, 1.761096e+2, -1075481.3, -1275173.3, -8903.418, 0.00050420605, -0.004301447, -1075085.1, 139040.1 
1.5559249e+3, 1.8609843e+2, -1007009.25, -1181440.3, -11217.871, -0.000057553316, -0.002039543, -1006290.8, 109944.17 
1.5558043e+3, 1.960876e+2, -945292.1, -1100581.1, -11252.177, -0.0016349673, -0.005448395, -944481.0, 73859.86 
1.5556838e+3, 2.0607737e+2, -875885.1, -1005434.1, -12109.108, -0.0029394494, -0.00733336, -874763.0, 45678.305 
1.555563e+3, 2.1606758e+2, -812705.9, -924336.75, -11704.459, -0.004032705, -0.009806399, -811491.9, 11045.329 
1.555442e+3, 2.2605817e+2, -745659.25, -834246.7, -12681.73, -0.0040310584, -0.0049302327, -743879.56, -19250.152 
1.5553212e+3, 2.3604913e+2, -683017.0, -752540.5, -13586.452, -0.0033137396, 0.0024567933, -680456.25, -53738.145 
1.5552004e+3, 2.4604063e+2, -612399.25, -654491.75, -13223.032, -0.0050992547, -0.0036513181, -608590.0, -79788.62 
1.5550795e+3, 2.5603262e+2, -550279.06, -573997.9, -12198.292, -0.008483571, -0.018255578, -545125.44, -114245.56 
1.5549587e+3, 2.660251e+2, -484075.94, -486425.88, -12296.282, -0.0056523704, -0.002965179, -472898.63, -139944.81 
1.5548381e+3, 2.760179e+2, -420108.34, -404264.9, -14123.655, 0.0011453853, 0.024104515, -395993.1, -160969.05 
1.5547177e+3, 2.8601068e+2, -352694.8, -309522.22, -13091.256, -0.010384497, -0.011742379, -305862.75, -168767.75 
1.5545975e+3, 2.9600376e+2, -295559.84, -232090.56, -15536.912, -0.033279978, -0.07005633, -228491.33, -189328.67 
1.5544777e+3, 3.0600053e+2, -255539.67, -146944.86, -11154.027, 0.02189189, 0.07569889, -145811.05, -145811.05 
1.5543565e+3, 3.1599677e+2, -234286.4, -51628.133, 2801.93, -0.0012687505, -0.023467572, -51585.16, -51585.16 
1.5666683e+3, 1.2629335e+2, -1390622.9, -1703249.1, 6315.1455, 0.0017168586, -0.011949369, -1390495.4, 311829.1 
1.5665475e+3, 1.3627964e+2, -1332131.1, -1624239.8, 7105.6353, 0.0036701576, -0.0027192, -1331958.4, 272500.44 
1.5664262e+3, 1.4626648e+2, -1263239.6, -1527473.4, 3514.5876, 0.0021489654, -0.0029051637, -1263192.9, 243395.02 
1.5663043e+3, 1.5625378e+2, -1200914.0, -1446683.9, 2983.954, -0.0003063555, -0.0110203875, -1200877.9, 207834.36 
1.5661822e+3, 1.6624166e+2, -1133732.9, -1353887.0, 846.30676, -0.0005955168, -0.009909359, -1133729.6, 177101.55 
1.5660599e+3, 1.7623e+2, -1073117.9, -1273723.4, 1076.454, 0.00009507937, -0.004422327, -1073112.1, 139833.42 
1.5659373e+3, 1.8621878e+2, -1004713.1, -1179777.1, -616.1526, -0.0005967834, -0.0031257893, -1004710.94, 110344.39 
1.5658143e+3, 1.9620799e+2, -941563.56, -1098310.5, -283.54703, -0.001963271, -0.00601331, -941563.0, 75598.13 
1.5656912e+3, 2.0619772e+2, -873024.56, -1004407.4, -1598.0411, -0.0030949246, -0.0063848943, -873005.1, 46256.727 
1.5655681e+3, 2.161879e+2, -811283.94, -923785.8, -2237.6104, -0.004004491, -0.006808634, -811239.44, 10118.713 
1.5654448e+3, 2.2617847e+2, -744118.25, -832851.2, -2434.9468, -0.004286839, -0.0039385115, -744051.5, -20600.928 
1.5653215e+3, 2.361694e+2, -681119.3, -751083.6, -1334.47, -0.0039737504, -0.00079664576, -681093.9, -55554.34 
1.5651982e+3, 2.4616091e+2, -611245.25, -654326.44, -1701.0127, -0.005406948, -0.0032144927, -611178.2, -83555.336 
1.5650748e+3, 2.561529e+2, -549533.1, -573923.9, -3072.3186, -0.008081721, -0.009457867, -549152.06, -119450.91 
1.5649517e+3, 2.6614523e+2, -483367.38, -485951.4, -1429.2589, -0.0055093192, -0.0032761572, -482732.72, -150956.38 
1.5648286e+3, 2.7613786e+2, -419800.72, -404105.63, 475.36765, 0.0005936083, 0.0038497667, -404091.25, -170242.36 
1.5647055e+3, 2.861308e+2, -354014.9, -310074.75, 3608.5706, -0.010882883, -0.0061497223, -309780.38, -173862.55 
1.5645826e+3, 2.961244e+2, -298473.8, -232503.64, 4914.8247, -0.03376394, -0.009332039, -232139.48, -194158.83 
1.5644604e+3, 3.061202e+2, -251329.19, -137570.64, 964.0929, 0.02581728, 0.005565368, -137562.47, -137562.47 
1.564337e+3, 3.1611836e+2, -244278.7, -82288.516, -8559.965, -0.033720396, 0.051321737, -81837.445, -81837.445 
1.576696e+3, 1.2641637e+2, -1389662.9, -1700173.3, -2712.0076, 0.008390711, 0.0052702012, -1389639.1, 311479.94 
1.5765725e+3, 1.3640255e+2, -1330964.8, -1621521.3, -2155.0024, -0.0011609964, -0.017950857, -1330948.8, 272305.53 
1.5764485e+3, 1.463894e+2, -1264459.5, -1529654.1, -4934.9155, -0.002653233, -0.015181457, -1264367.6, 241015.7 
1.5763244e+3, 1.5637676e+2, -1202223.8, -1448638.4, -5454.538, 0.0018985186, 0.0005806525, -1202103.1, 205404.08 
1.5761997e+3, 1.663646e+2, -1133599.0, -1353004.9, -7988.367, 0.0017548824, 0.0010476083, -1133308.6, 176317.97 
1.5760747e+3, 1.7635281e+2, -1072659.3, -1272595.9, -7810.2246, -0.0014948362, -0.00875368, -1072354.6, 139387.2 
1.5759496e+3, 1.8634166e+2, -1004176.3, -1178525.4, -9037.856, -0.002629534, -0.0096453065, -1003709.06, 110142.164 
1.5758243e+3, 1.9633098e+2, -941366.3, -1097589.8, -8870.581, -0.0023712441, -0.006875649, -940864.25, 75091.64 
1.5756989e+3, 2.0632066e+2, -874388.44, -1006972.2, -10473.405, -0.0024242885, -0.0027447273, -873566.2, 44490.95 
1.5755732e+3, 2.1631068e+2, -812080.4, -925363.1, -11045.838, -0.0027034304, 0.000696268, -811013.4, 9141.605 
1.5754475e+3, 2.263013e+2, -741924.3, -828289.25, -11173.6455, -0.004214425, -0.0027758142, -740502.1, -18255.17 
1.5753217e+3, 2.3629239e+2, -679543.1, -747735.5, -10213.303, -0.00616216, -0.012296028, -678046.3, -53712.12 
1.575196e+3, 2.4628386e+2, -613851.94, -659665.56, -10825.038, -0.0061478834, -0.0049498677, -611422.94, -85005.04 
1.5750702e+3, 2.5627568e+2, -551353.1, -577656.94, -12136.789, -0.005271487, 0.012218484, -546608.8, -118110.99 
1.5749446e+3, 2.6626801e+2, -479570.3, -478060.1, -10219.509, -0.0066852025, -0.00076695136, -468567.8, -137994.6 
1.5748191e+3, 2.7626067e+2, -416028.6, -396195.56, -8537.593, -0.009191791, -0.038613077, -393026.7, -160381.77 
1.5746935e+3, 2.8625467e+2, -350460.06, -302468.94, -7111.8843, -0.0072032036, 0.00096914364, -301437.2, -166733.19 
1.5745677e+3, 2.9624978e+2, -297507.4, -230265.44, -4928.133, -0.0036155065, 0.10293323, -229906.19, -193154.13 
1.5744427e+3, 3.0624172e+2, -269470.94, -175443.48, -5425.9946, -0.0133361975, -0.122682266, -175131.4, -175131.4 
1.5743181e+3, 3.162381e+2, -195799.86, 17294.195, -19152.992, -0.02559593, -0.051189966, 19001.99, 19001.99 
1.5867239e+3, 1.2654229e+2, -1385157.5, -1699006.4, 7760.428, 0.0055549624, -0.0011374487, -1384965.8, 314919.34 
1.5865977e+3, 1.3652848e+2, -1325058.9, -1619396.4, 6793.9272, 0.00011120034, -0.011615455, -1324902.1, 277118.28 
1.5864712e+3, 1.4651528e+2, -1258857.3, -1526267.1, 4334.9287, -0.0012871652, -0.009645319, -1258787.0, 245362.8 
1.5863444e+3, 1.5650259e+2, -1199100.5, -1446474.8, 4924.121, 0.0016583925, -0.0016314639, -1199002.5, 207271.6 
1.5862173e+3, 1.6649042e+2, -1130809.5, -1351277.3, 2951.7637, 0.0012574138, -0.001476212, -1130770.0, 177623.5 
1.5860897e+3, 1.7647867e+2, -1068690.8, -1270353.3, 2968.2642, -0.0017963555, -0.007695073, -1068647.1, 141861.42 
1.5859622e+3, 1.8646748e+2, -1001053.4, -1177145.0, 1467.0432, -0.0029232383, -0.00743239, -1001041.1, 111577.03 
1.5858345e+3, 1.9645676e+2, -939745.2, -1096752.6, 1099.1101, -0.0025711162, -0.004803848, -939737.5, 74985.84 
1.5857065e+3, 2.0644642e+2, -872338.9, -1005116.3, 400.51086, -0.0026976475, -0.002568309, -872337.7, 44487.0 
1.5855783e+3, 2.1643645e+2, -809259.6, -923309.6, 1381.2279, -0.0032105253, -0.0016317465, -809242.94, 9679.519 
1.5854502e+3, 2.2642705e+2, -740045.25, -827895.3, 399.91412, -0.00461177, -0.002826045, -740043.44, -19028.875 
1.585322e+3, 2.3641811e+2, -678288.2, -747416.0, -951.7534, -0.0062918463, -0.008001363, -678275.1, -55172.867 
1.5851937e+3, 2.4640952e+2, -611986.75, -658342.44, -638.8643, -0.005947451, -0.0038009242, -611978.0, -86791.58 
1.5850656e+3, 2.564013e+2, -548834.06, -576009.06, 893.8738, -0.004581481, 0.0069628935, -548804.7, -121537.69 
1.5849374e+3, 2.663937e+2, -480439.97, -477830.3, 1263.0308, -0.007726644, -0.00015147892, -477319.16, -147977.38 
1.5848093e+3, 2.763865e+2, -422307.44, -398150.66, -579.57245, -0.013292066, -0.026867429, -398136.78, -166724.67 
1.5846811e+3, 2.8638053e+2, -348822.66, -298623.25, -1309.1472, -0.005075712, -0.00011900334, -298589.13, -165118.38 
1.5845533e+3, 2.9637563e+2, -283902.47, -222630.77, -967.6089, 0.010051461, 0.079600915, -222615.48, -187096.92 
1.5844251e+3, 3.063675e+2, -278801.06, -191126.83, 5102.911, -0.032676797, -0.10434727, -190830.81, -190830.81 
1.5842985e+3, 3.16364e+2, -201310.8, 54836.56, 2578.0266, 0.016889786, 0.055359796, 54862.5, 54862.5 
1.5967517e+3, 1.2667067e+2, -1387656.6, -1703109.3, -1266.2284, -0.001977783, -0.018712698, -1387651.5, 310975.34 
1.596623e+3, 1.3665694e+2, -1327124.3, -1622595.1, -1986.0153, 0.0049238736, 0.0075099156, -1327110.9, 273650.8 
1.5964939e+3, 1.4664368e+2, -1258116.5, -1523921.4, -4554.2915, 0.0033214698, 0.005607596, -1258038.5, 244853.08 
1.5963645e+3, 1.5663089e+2, -1198265.0, -1444277.9, -4103.6807, -0.00030229962, -0.012769471, -1198196.5, 206820.28 
1.5962347e+3, 1.6661876e+2, -1131004.1, -1351288.5, -5645.2544, -0.0010453523, -0.011940177, -1130859.6, 176276.02 
1.5961048e+3, 1.7660716e+2, -1069008.0, -1270574.6, -5721.382, -0.0012624809, -0.0024863807, -1068845.8, 140403.66 
1.5959747e+3, 1.8659593e+2, -1001861.75, -1178483.1, -7352.9165, -0.002083517, 0.0008243921, -1001556.2, 109803.41 
1.5958445e+3, 1.9658506e+2, -940009.94, -1097141.3, -7656.8125, -0.0027011752, -0.00076960225, -939637.7, 73828.53 
1.5957141e+3, 2.0657477e+2, -870538.44, -1001280.4, -8191.754, -0.0038062786, -0.005217363, -870027.2, 45539.727 
1.5955836e+3, 2.1656495e+2, -808128.94, -920801.7, -7406.2217, -0.0053255702, -0.011962788, -807644.25, 10018.815 
1.595453e+3, 2.2655551e+2, -742581.25, -833018.0, -8619.032, -0.0053841034, -0.0032614383, -741767.1, -22011.404 
1.5953222e+3, 2.3654638e+2, -679951.94, -750826.1, -9886.522, -0.0045855027, 0.01076982, -678598.7, -56753.367 
1.5951915e+3, 2.4653774e+2, -609093.9, -652323.56, -9508.903, -0.0050481833, -0.00092235336, -607094.7, -83164.89 
1.595061e+3, 2.5652957e+2, -546803.06, -571717.56, -8255.706, -0.006298539, -0.025068063, -544315.75, -118305.89 
1.59493e+3, 2.6652214e+2, -483656.34, -484339.34, -9125.463, -0.008596166, 0.00086311507, -474866.0, -146783.06 
1.5947992e+3, 2.7651516e+2, -425209.78, -403802.0, -10567.345, -0.011199976, 0.043980878, -399464.56, -169313.3 
1.5946688e+3, 2.865081e+2, -348955.13, -298923.38, -8822.37, -0.0055162823, -0.016094455, -297413.25, -165193.0 
1.5945388e+3, 2.9650152e+2, -282532.97, -220691.34, -9671.996, 0.0033912754, -0.10462128, -219213.95, -184929.3 
1.5944079e+3, 3.0649808e+2, -271788.44, -176023.0, -9754.311, -0.02321264, 0.11911306, -175039.56, -175039.56 
1.594277e+3, 3.1649324e+2, -228656.58, 1172.8735, -2164.701, -0.0026053612, 0.079684824, 1193.2605, 1193.2605 
1.6067798e+3, 1.2680206e+2, -1382062.1, -1699093.9, 7420.5625, 0.0004281482, -0.010043469, -1381888.6, 315450.75 
1.6066484e+3, 1.3678825e+2, -1323019.4, -1619503.8, 8488.117, 0.0040693674, 0.0013918359, -1322776.6, 276698.22 
1.6065167e+3, 1.46775e+2, -1254917.8, -1522223.1, 6299.932, 0.001905472, 0.00065153127, -1254769.4, 246835.13 
1.6063847e+3, 1.5676229e+2, -1194769.5, -1442363.8, 6006.8047, -0.0008963793, -0.0088640675, -1194623.9, 209105.3 
1.6062525e+3, 1.6675013e+2, -1127977.8, -1349556.3, 4625.346, -0.0010120966, -0.0077651115, -1127881.3, 177966.98 
1.60612e+3, 1.7673849e+2, -1066685.6, -1269001.8, 4680.9775, -0.0007076848, -0.0022042992, -1066577.4, 141385.13 
1.6059874e+3, 1.8672727e+2, -999227.44, -1176314.9, 3850.7437, -0.0018786821, -0.00042488953, -999143.7, 110928.79 
1.6058546e+3, 1.9671641e+2, -936984.1, -1094971.0, 4565.414, -0.00331656, -0.002187537, -936852.3, 75326.53 
1.6057219e+3, 2.0670612e+2, -868444.44, -1000737.8, 3355.6704, -0.0042805257, -0.0044663604, -868359.4, 45920.36 
1.6055888e+3, 2.1669626e+2, -806401.56, -920143.2, 2297.6414, -0.005161447, -0.008309862, -806355.2, 10021.177 
1.6054559e+3, 2.2668678e+2, -740163.06, -831168.4, 2169.3398, -0.005313918, -0.0020251877, -740111.4, -21642.078 
1.6053227e+3, 2.3667763e+2, -677108.5, -748944.44, 3652.9028, -0.0048333243, 0.007627859, -676923.25, -56364.11 
1.6051894e+3, 2.4666896e+2, -607704.7, -652166.06, 2868.6208, -0.0055943867, -0.0021136564, -607520.4, -84876.42 
1.6050562e+3, 2.5666073e+2, -546778.94, -572101.5, 906.6466, -0.007260683, -0.022001054, -546746.5, -122022.05 
1.6049229e+3, 2.6665324e+2, -479849.4, -483087.13, 612.4454, -0.008023961, 0.0031195665, -479737.44, -152939.16 
1.6047895e+3, 2.7664614e+2, -415299.03, -400085.0, 2171.1636, -0.007844245, 0.044575524, -399781.22, -170913.5 
1.6046566e+3, 2.866388e+2, -349711.2, -302569.28, 3650.15, -0.0068968176, -0.020241862, -302288.3, -171348.61 
1.604524e+3, 2.966318e+2, -298723.3, -229570.0, 658.906, -0.006839598, -0.118381284, -229563.73, -196555.55 
1.6043904e+3, 3.0662933e+2, -262126.38, -160384.27, -1465.1891, -0.008919584, 0.15698968, -160363.17, -160363.17 
1.6042568e+3, 3.1662264e+2, -213533.9, -22998.207, 9965.796, -0.015821101, -0.13488601, -22478.373, -22478.373 
1.616808e+3, 1.2693599e+2, -1380409.5, -1694880.6, -1424.337, 0.007378946, 0.011251159, -1380403.0, 315624.03 
1.6166738e+3, 1.3692203e+2, -1322024.8, -1616312.6, -754.97974, -0.00026493016, -0.019162735, -1322022.8, 276140.88 
1.6165394e+3, 1.4690888e+2, -1256057.5, -1523638.0, -2699.4724, -0.0029028647, -0.014741844, -1256030.4, 244262.31 
1.616405e+3, 1.5689634e+2, -1195498.5, -1443358.4, -2913.9927, -0.0006007894, 0.0049015745, -1195464.3, 206951.53 
1.6162701e+3, 1.6688414e+2, -1127996.6, -1349181.1, -4027.2048, 0.00040719748, 0.0052121924, -1127923.3, 176611.86 
1.6161352e+3, 1.7687233e+2, -1066470.0, -1268084.1, -4019.8, -0.00025097543, -0.0055906633, -1066389.9, 140260.98 
1.6160001e+3, 1.8686119e+2, -998062.7, -1173559.5, -4807.785, -0.0022224414, -0.008057262, -997931.06, 110828.914 
1.615865e+3, 1.9685052e+2, -936266.7, -1093316.3, -4282.7393, -0.004329572, -0.007408013, -936150.0, 74714.49 
1.6157295e+3, 2.0684017e+2, -870524.5, -1004897.3, -5407.278, -0.004241745, -0.00076081435, -870307.25, 42658.74 
1.6155942e+3, 2.1683013e+2, -807580.7, -922442.7, -6378.9375, -0.0032796415, 0.006873109, -807227.56, 7836.9985 
1.6154586e+3, 2.2682068e+2, -737331.56, -825212.9, -6580.7837, -0.004714698, -0.000077671386, -736841.5, -19684.33 
1.615323e+3, 2.3681165e+2, -675328.6, -745159.7, -5309.302, -0.0070405114, -0.015523385, -674927.25, -55681.695 
1.6151872e+3, 2.46803e+2, -611094.25, -659116.4, -6499.9814, -0.00754446, -0.005587239, -610230.0, -88899.57 
1.6150515e+3, 2.5679472e+2, -549132.9, -576926.6, -8291.769, -0.007462777, 0.016360115, -546847.2, -123435.2 
1.6149157e+3, 2.6678684e+2, -477346.7, -477931.56, -8002.422, -0.0059657292, 0.0035758582, -469631.34, -144142.42 
1.6147801e+3, 2.767793e+2, -413799.25, -397183.4, -6976.335, -0.0034454023, -0.03231351, -394642.78, -167080.27 
1.6146442e+3, 2.867726e+2, -354144.4, -311421.06, -8396.756, -0.009610585, -0.0026943341, -309830.03, -180201.73 
1.6145083e+3, 2.9676676e+2, -302079.1, -234996.84, -10083.951, -0.02104278, 0.073783286, -233513.78, -201827.88 
1.6143733e+3, 3.0676037e+2, -255714.25, -147769.61, -6164.329, 0.011094073, -0.07373551, -147418.73, -147418.73 
1.614238e+3, 3.1675714e+2, -216942.16, -34340.086, -1917.3529, -0.008076046, -0.086796604, -34319.957, -34319.957 
1.6268362e+3, 1.270729e+2, -1376255.1, -1693183.9, 9231.627, 0.005872313, 0.0029022442, -1375986.5, 318698.8 
1.6266993e+3, 1.3705903e+2, -1319846.8, -1615285.6, 8575.857, -0.00061492674, -0.010547077, -1319598.0, 277223.1 
1.6265623e+3, 1.4704587e+2, -1253632.1, -1521671.5, 7468.733, -0.0025941883, -0.007950534, -1253424.3, 245526.0 
1.6264252e+3, 1.5703325e+2, -1192225.5, -1440911.4, 7972.1265, 0.0003730041, 0.0020004958, -1191970.1, 209103.7 
1.6262878e+3, 1.670211e+2, -1125061.3, -1346882.6, 7355.8066, 0.00067202933, 0.0018571191, -1124817.6, 178375.34 
1.6261505e+3, 1.7700937e+2, -1064556.4, -1266424.9, 7697.6035, -0.0014148164, -0.0051779724, -1064263.4, 141044.64 
1.6260126e+3, 1.8699822e+2, -996583.9, -1173062.8, 6653.093, -0.0029334493, -0.0056759357, -996333.44, 111083.805 
1.6258751e+3, 1.9698751e+2, -933819.25, -1092022.9, 5973.387, -0.0037041488, -0.0042650453, -933594.06, 75928.11 
1.6257372e+3, 2.0697716e+2, -867583.94, -1002480.4, 5921.2783, -0.003776562, -0.0005834645, -867324.5, 44299.16 
1.6255994e+3, 2.169671e+2, -805268.7, -920597.25, 7231.8057, -0.0036462848, 0.0030863355, -804817.0, 8905.239 
1.6254614e+3, 2.2695762e+2, -735839.25, -825113.5, 6016.8545, -0.005106981, -0.0010963167, -735435.56, -19620.455 
1.6253233e+3, 2.3694855e+2, -673343.44, -744509.44, 4308.6963, -0.007143869, -0.0116060525, -673083.56, -55179.62 
1.6251852e+3, 2.4693985e+2, -607753.44, -657240.7, 4287.7144, -0.007473013, -0.0038992288, -607384.7, -87395.41 
1.625047e+3, 2.5693148e+2, -544694.1, -574856.25, 6100.9517, -0.007145495, 0.013938491, -543506.8, -121435.36 
1.6249087e+3, 2.669235e+2, -475889.44, -478330.2, 5378.1514, -0.0059126327, 0.00086438755, -471594.94, -147445.31 
1.6247706e+3, 2.7691582e+2, -415746.56, -398490.28, 2869.83, -0.0038288648, -0.03597986, -398025.53, -171800.89 
1.624632e+3, 2.8690928e+2, -350436.63, -307416.94, 3067.6135, -0.009699088, 0.0025400012, -307199.3, -178910.47 
1.6244932e+3, 2.9690373e+2, -292486.53, -230521.13, 8014.3535, -0.020922218, 0.0972721, -229501.36, -199157.78 
1.6243559e+3, 3.0689606e+2, -261446.52, -159981.92, 7983.044, 0.013454014, -0.123570204, -159357.67, -159357.67 
1.6242187e+3, 3.168948e+2, -223608.86, -22922.83, -3700.7764, -0.01542875, 0.12865965, -22854.607, -22854.607 
1.6368645e+3, 1.2721235e+2, -1378972.3, -1696538.1, -765.52515, 0.00001275825, -0.018572263, -1378970.5, 314348.25 
1.6367249e+3, 1.3719875e+2, -1320903.0, -1617032.8, -952.682, 0.0014148817, 0.014760552, -1320899.9, 274552.38 
1.6365851e+3, 1.4718552e+2, -1252820.6, -1519582.6, -1035.9307, 0.00052365137, 0.010520752, -1252816.6, 244765.19 
1.6364455e+3, 1.5717271e+2, -1191843.0, -1439056.5, -793.633, 0.0015342431, -0.011435195, -1191840.4, 207866.77 
1.6363056e+3, 1.6716066e+2, -1124766.6, -1345521.3, -1683.3978, 0.000029516938, -0.010965371, -1124753.8, 177071.42 
1.6361655e+3, 1.7714916e+2, -1064222.1, -1265632.9, -1350.4138, -0.0037089996, -0.0017131087, -1064213.1, 139724.9 
1.6360255e+3, 1.8713798e+2, -997855.56, -1175541.9, -1763.2274, -0.003854334, 0.003558449, -997838.06, 108209.7 
1.6358854e+3, 1.9712707e+2, -934455.1, -1092892.3, -2452.5552, -0.0019767063, 0.004909694, -934417.2, 73737.39 
1.6357452e+3, 2.0711678e+2, -865172.8, -997205.94, -2878.756, -0.0031936618, -0.0034384988, -865110.06, 45145.34 
1.6356046e+3, 2.171069e+2, -803804.4, -917535.3, -1766.1466, -0.005894863, -0.016312491, -803776.94, 8575.246 
1.6354643e+3, 2.2709736e+2, -738980.8, -831598.75, -2738.2483, -0.006241835, -0.0036038817, -738899.94, -24454.377 
1.6353239e+3, 2.3708814e+2, -675160.7, -748212.0, -4415.184, -0.005451959, 0.017157478, -674894.8, -58358.723 
1.6351832e+3, 2.4707937e+2, -604351.1, -650143.0, -4613.1763, -0.005633951, 0.0008581277, -603891.0, -85269.03 
1.6350424e+3, 2.5707096e+2, -542792.7, -570837.9, -3011.5403, -0.00658877, -0.029659634, -542473.0, -121768.805 
1.6349018e+3, 2.6706314e+2, -480027.4, -486759.2, -4338.14, -0.008272194, -0.0014290579, -477902.53, -155121.56 
1.634761e+3, 2.7705568e+2, -417575.4, -401946.25, -6956.512, -0.0095120575, 0.041898753, -399298.47, -174444.38 
1.6346197e+3, 2.8704873e+2, -342694.34, -291216.97, -6803.9478, -0.006127776, -0.015169398, -290332.88, -163410.75 
1.6344784e+3, 2.9704255e+2, -290243.1, -226401.39, -1279.3824, -0.0038201474, -0.08552707, -226375.77, -197392.97 
1.6343383e+3, 3.0703714e+2, -282543.78, -203485.47, -1708.4169, -0.009705703, 0.09371895, -203448.56, -203448.56 
1.6341986e+3, 3.170308e+2, -189965.8, 49178.637, -16385.932, -0.010703575, 0.051562164, 50296.16, 50296.16 
1.6468927e+3, 1.2735493e+2, -1378315.8, -1694582.8, 8695.382, -0.0007010374, -0.008341396, -1378076.9, 313844.66 
1.6467504e+3, 1.3734125e+2, -1316341.8, -1613348.4, 9828.899, 0.0030391836, 0.006931488, -1316016.9, 278038.84 
1.6466081e+3, 1.473281e+2, -1249592.8, -1517220.4, 9896.171, 0.0012993269, 0.004545145, -1249227.3, 246957.31 
1.6464657e+3, 1.573154e+2, -1191732.9, -1438236.9, 9962.528, 0.00024241666, -0.008082986, -1191331.0, 206977.9 
1.6463232e+3, 1.6730337e+2, -1124191.9, -1344926.5, 9413.361, -0.0006806451, -0.0066949646, -1123791.1, 176635.53 
1.6461806e+3, 1.7729184e+2, -1060974.0, -1263463.1, 9300.242, -0.0029131216, 0.00007294204, -1060547.8, 141992.08 
1.6460381e+3, 1.8728067e+2, -994866.75, -1172859.0, 9831.366, -0.0033171535, 0.002302519, -994325.4, 110323.984 
1.6458955e+3, 1.9726981e+2, -933686.56, -1091591.1, 10774.922, -0.0023470249, 0.0009170001, -932954.7, 73801.07 
1.6457528e+3, 2.072595e+2, -864379.3, -997336.25, 9559.579, -0.0035236601, -0.0036287121, -863695.5, 45161.137 
1.64561e+3, 2.1724959e+2, -800480.75, -916055.06, 8251.783, -0.0057950797, -0.010928189, -799894.56, 11059.126 
1.6454671e+3, 2.2724004e+2, -735115.44, -829132.06, 8610.955, -0.006011585, -0.0016599064, -734333.25, -21285.824 
1.6453244e+3, 2.3723076e+2, -672391.7, -746541.56, 10149.251, -0.005058522, 0.013268421, -671027.6, -55889.17 
1.6451813e+3, 2.4722192e+2, -602513.3, -649899.56, 8432.068, -0.0051805396, -0.0019220542, -601057.56, -83832.6 
1.6450381e+3, 2.5721344e+2, -540706.2, -570180.9, 6364.9385, -0.006284586, -0.030013721, -539390.44, -120082.57 
1.644895e+3, 2.6720563e+2, -475506.56, -484608.28, 6751.611, -0.008754107, 0.0024284646, -471915.28, -150530.6 
1.6447516e+3, 2.771982e+2, -410385.53, -398898.84, 8010.5854, -0.010733675, 0.052468944, -394785.44, -171327.63 
1.6446078e+3, 2.8719085e+2, -337572.25, -290245.38, 1894.681, -0.004467799, -0.026965236, -290169.66, -164640.2 
1.6444637e+3, 2.971841e+2, -289225.38, -228947.58, -1278.2621, 0.0015371995, -0.13185407, -228920.48, -201325.44 
1.6443208e+3, 3.0717945e+2, -285317.9, -212975.42, 8406.158, -0.021200463, 0.17463373, -212011.48, -212011.48 
1.6441788e+3, 3.171698e+2, -174550.58, 73155.67, 5653.2275, 0.0071446495, -0.14361951, 73284.625, 73284.625 
1.6569209e+3, 1.2750015e+2, -1376142.9, -1690179.8, 542.54346, 0.0009815792, 0.01595126, -1376142.0, 314356.63 
1.656776e+3, 1.3748622e+2, -1315979.0, -1610522.9, 938.05786, 0.0040600486, -0.019160535, -1315976.0, 276658.84 
1.656631e+3, 1.4747322e+2, -1250320.0, -1517139.8, 242.0708, 0.000468475, -0.013639616, -1250319.8, 244442.45 
1.6564858e+3, 1.5746087e+2, -1191596.1, -1437801.3, 611.37146, -0.0024601885, 0.0059348564, -1191594.6, 205288.9 
1.656341e+3, 1.674488e+2, -1124523.0, -1345335.8, 1262.6761, -0.0013100842, 0.0076137297, -1124515.9, 174485.81 
1.6561961e+3, 1.7743708e+2, -1061128.3, -1262874.0, 954.84595, -0.00017286766, 0.00038034839, -1061123.8, 139992.7 
1.6560508e+3, 1.8742602e+2, -993089.94, -1168650.5, 835.46716, -0.002000483, -0.0060476754, -993085.94, 110139.03 
1.6559057e+3, 1.9741534e+2, -932508.8, -1089270.4, 1736.2001, -0.0043122647, -0.012488237, -932489.56, 72839.71 
1.6557606e+3, 2.0740503e+2, -866850.6, -1002475.9, 1319.0543, -0.004468147, -0.0011030256, -866837.8, 40592.73 
1.6556154e+3, 2.17395e+2, -801760.94, -918427.8, -18.13174, -0.0039921184, 0.0147453295, -801760.9, 7768.1763 
1.6554703e+3, 2.2738542e+2, -731963.56, -822417.1, -292.08432, -0.0048457016, 0.0027808626, -731962.6, -20339.926 
1.6553248e+3, 2.3737617e+2, -670754.44, -743092.94, 1089.6022, -0.0059509915, -0.020480243, -670738.06, -57024.973 
1.6551793e+3, 2.4736732e+2, -606518.7, -658152.7, -584.6955, -0.0060923854, -0.009537897, -606512.06, -90712.07 
1.6550338e+3, 2.573588e+2, -542789.94, -574434.5, -2564.544, -0.0063040205, 0.01364731, -542583.44, -124699.68 
1.6548882e+3, 2.6735082e+2, -471352.6, -475967.6, -2138.3179, -0.0071261995, 0.008998, -470514.16, -150552.4 
1.6547424e+3, 2.7734318e+2, -409663.72, -397444.75, -1270.8505, -0.007247696, -0.012728589, -397313.97, -175277.55 
1.6545959e+3, 2.8733557e+2, -348830.47, -313493.56, -9100.176, -0.0059084636, -0.02361488, -311287.72, -187176.75 
1.6544488e+3, 2.9732853e+2, -294849.47, -240353.25, -12145.066, -0.007794288, -0.008918773, -237769.14, -211588.83 
1.6543035e+3, 3.0732232e+2, -269961.84, -181121.8, -949.9285, -0.015053229, 0.04670945, -181111.64, -181111.64 
1.6541591e+3, 3.1731597e+2, -210508.14, -2137.9497, -107.00028, 0.002383527, -0.07426007, -2137.8948, -2137.8948 
1.6669491e+3, 1.2764828e+2, -1372312.0, -1687977.5, 10911.675, 0.0033483806, 0.0064478857, -1371935.3, 317111.53 
1.6668016e+3, 1.3763452e+2, -1318613.8, -1611115.6, 10514.545, 0.0017998209, -0.010752437, -1318236.3, 272945.3 
1.6666538e+3, 1.4762157e+2, -1251352.0, -1516364.9, 10929.135, -0.0010630159, -0.0070212414, -1250902.0, 242406.52 
1.6665061e+3, 1.576092e+2, -1188253.9, -1434829.1, 11576.911, -0.0014497953, 0.004552697, -1187711.5, 207718.31 
1.6663587e+3, 1.6759722e+2, -1122263.8, -1342925.8, 12934.88, -0.000437174, 0.004578233, -1121508.1, 176039.14 
1.6662112e+3, 1.7758557e+2, -1062167.4, -1262319.1, 13474.539, -0.00028145427, -0.0020788973, -1061264.4, 138397.06 
1.6660637e+3, 1.875745e+2, -993112.75, -1168757.4, 12906.877, -0.002126568, -0.0046250485, -992169.44, 109600.22 
1.665916e+3, 1.9756386e+2, -928583.3, -1087056.8, 12162.569, -0.0041791545, -0.006632514, -927655.3, 76218.695 
1.6657685e+3, 2.0755352e+2, -863235.8, -999699.8, 13145.161, -0.0042198743, -0.000040433697, -861981.1, 43994.152 
1.665621e+3, 2.1754345e+2, -800854.3, -917294.56, 14436.955, -0.003563987, 0.009025278, -799091.06, 8983.025 
1.6654733e+3, 2.2753386e+2, -730867.8, -822555.4, 12754.517, -0.0043567475, 0.00046855994, -729126.6, -18958.615 
1.6653255e+3, 2.3752458e+2, -666932.9, -741598.06, 10954.708, -0.0055247853, -0.017293254, -665358.8, -53100.016 
1.6651775e+3, 2.4751566e+2, -601694.0, -655869.9, 10943.112, -0.0063735815, -0.006574693, -599567.06, -85220.94 
1.6650295e+3, 2.575071e+2, -538136.56, -572341.06, 12745.3545, -0.0071689105, 0.016054131, -533909.7, -117479.13 
1.6648814e+3, 2.6749894e+2, -469673.2, -475483.6, 10682.936, -0.005529877, 0.0033817855, -461507.47, -142997.33 
1.6647333e+3, 2.7749112e+2, -410896.97, -397779.44, 7621.938, -0.0025152399, -0.030548261, -394282.78, -173696.17 
1.6645841e+3, 2.8748387e+2, -339940.9, -308320.4, 8398.79, -0.008153557, -0.010265665, -306228.03, -183570.2 
1.6644347e+3, 2.9747716e+2, -275748.84, -235225.52, 16236.788, -0.01980519, 0.04958892, -229522.44, -204798.83 
1.6642866e+3, 3.074683e+2, -273054.1, -197551.08, 7187.3164, -0.0008115218, -0.0496351, -196872.98, -196872.98 
1.6641387e+3, 3.174632e+2, -225267.52, 584.2379, -7380.3096, -0.000017906335, 0.048554335, 825.1523, 825.1523 
1.6769774e+3, 1.2779896e+2, -1374573.3, -1689843.3, 202.69571, 0.0052863793, -0.017087627, -1374573.1, 312996.97 
1.6768266e+3, 1.377856e+2, -1318642.4, -1611062.4, 621.4979, -0.002068224, 0.01624757, -1318641.0, 271060.22 
1.6766764e+3, 1.4777264e+2, -1250521.9, -1514308.8, 2923.993, -0.0026867946, 0.011966883, -1250489.5, 241338.7 
1.6765264e+3, 1.5776008e+2, -1187972.3, -1432852.8, 3081.4258, 0.0015596994, -0.006370772, -1187933.4, 206017.64 
1.6763762e+3, 1.6774824e+2, -1121361.8, -1340167.9, 3710.008, 0.001012534, -0.00838836, -1121298.9, 174768.31 
1.6762263e+3, 1.7773685e+2, -1061364.0, -1260702.9, 4405.588, -0.0023575854, -0.005759638, -1061266.6, 136912.1 
1.6760762e+3, 1.877258e+2, -994695.3, -1171897.8, 4980.9233, -0.003167649, 0.0037398739, -994555.44, 105731.66 
1.6759264e+3, 1.9771504e+2, -929236.25, -1087777.5, 4095.7227, -0.0026432013, 0.013058532, -929130.5, 73262.09 
1.6757764e+3, 2.0770472e+2, -860498.8, -993706.6, 4256.5693, -0.0032434163, -0.000912091, -860362.94, 44130.594 
1.6756263e+3, 2.1769471e+2, -799429.25, -914448.25, 5494.7095, -0.004243635, -0.022049814, -799167.3, 7424.0444 
1.6754763e+3, 2.2768512e+2, -734257.44, -829627.3, 4405.524, -0.004375957, -0.0057039214, -734054.3, -25368.725 
1.6753262e+3, 2.3767579e+2, -668548.9, -744842.4, 2580.412, -0.0041677, 0.019692319, -668461.7, -57684.4 
1.6751759e+3, 2.4766682e+2, -598179.4, -648518.06, 2010.8987, -0.006233693, 0.004045332, -598099.2, -85234.305 
1.6750254e+3, 2.5765818e+2, -536775.25, -569415.25, 3534.0798, -0.009039913, -0.023733346, -536397.0, -121447.49 
1.6748747e+3, 2.676499e+2, -474600.53, -485467.06, 683.1668, -0.0040917266, -0.011683981, -474557.75, -157527.13 
1.6747239e+3, 2.7764198e+2, -410835.56, -397254.8, -1599.7269, 0.003502094, 0.006082051, -397068.94, -177960.33 
1.6745728e+3, 2.8763583e+2, -325249.2, -278235.44, 1932.2244, -0.01135564, 0.0095136035, -278156.16, -156987.56 
1.6744213e+3, 2.976304e+2, -275553.47, -236364.98, 8053.4155, -0.03513579, 0.025137912, -234774.53, -211553.34 
1.6742699e+3, 3.0761757e+2, -315444.75, -284947.06, -9920.064, 0.024065016, -0.08764399, -282004.3, -282004.3 
1.6741171e+3, 3.176095e+2, -145855.11, 169163.89, -23749.771, -0.00306704, 0.077239186, 170944.36, 170944.36 
1.6870053e+3, 1.2795286e+2, -1378059.0, -1688973.3, 9921.27, 0.0030126665, -0.007851749, -1377742.8, 308319.22 
1.686852e+3, 1.3793953e+2, -1315662.6, -1607398.8, 11481.367, -0.00038852976, 0.010348369, -1315211.5, 272981.16 
1.6866991e+3, 1.4792667e+2, -1249389.6, -1512729.5, 14264.957, -0.0011482048, 0.007092876, -1248619.1, 241699.58 
1.6865464e+3, 1.5791422e+2, -1190600.3, -1432998.5, 14387.288, 0.001705694, -0.0059214635, -1189749.3, 202691.4 
1.6863938e+3, 1.6790244e+2, -1122323.9, -1339766.5, 15128.149, 0.0006676504, -0.0054371688, -1121276.4, 173279.63 
1.6862412e+3, 1.7789112e+2, -1058371.1, -1258119.4, 15228.469, -0.0029676235, -0.0011640247, -1057216.8, 139450.33 
1.6860889e+3, 1.878801e+2, -992711.25, -1169610.5, 17182.193, -0.0032113777, 0.003253117, -991057.8, 107717.31 
1.6859366e+3, 1.9786935e+2, -930213.06, -1087245.8, 18127.625, -0.0017360788, 0.006331111, -928147.6, 72732.945 
1.6857842e+3, 2.0785905e+2, -860072.0, -993867.44, 17141.447, -0.0026132562, -0.0016630224, -857910.8, 45070.402 
1.6856319e+3, 2.1784906e+2, -794730.44, -912159.5, 15903.167, -0.0042528864, -0.014657809, -792614.8, 12464.197 
1.6854794e+3, 2.2783938e+2, -729635.94, -827058.9, 16467.582, -0.0043271948, -0.00454156, -726927.6, -19753.746 
1.6853268e+3, 2.3782994e+2, -665830.4, -743386.7, 17857.459, -0.0037375595, 0.012494945, -661916.25, -52649.582 
1.6851743e+3, 2.4782097e+2, -594918.7, -647674.9, 15353.822, -0.0054074633, 0.0047060703, -590775.56, -79421.266 
1.6850214e+3, 2.578123e+2, -531325.56, -567515.4, 12949.805, -0.008056643, -0.013559015, -527169.1, -113730.1 
1.6848682e+3, 2.6780373e+2, -468655.56, -484018.13, 11397.878, -0.004201609, -0.018106863, -462592.25, -147069.19 
1.6847147e+3, 2.7779543e+2, -404326.06, -395156.44, 13468.811, 0.0024613203, -0.018600551, -385513.5, -167908.86 
1.6845615e+3, 2.877897e+2, -319830.06, -275544.0, 7985.2876, -0.010720233, 0.03265606, -274148.16, -154487.44 
1.6844079e+3, 2.9778478e+2, -273505.84, -236422.72, -1916.643, -0.03272425, 0.09915034, -236323.92, -214615.75 
1.6842529e+3, 3.0776986e+2, -311255.22, -284361.6, 4776.62, 0.027334273, -0.21012957, -283538.4, -283538.4 
1.6840959e+3, 3.1776288e+2, -122403.516, 204222.23, 19321.803, -0.016652018, 0.054579806, 205361.27, 205361.27 
1.697033e+3, 1.2810944e+2, -1375684.0, -1683868.1, 1853.4227, -0.001042451, 0.014797654, -1375672.9, 308854.8 
1.6968773e+3, 1.3809596e+2, -1314937.1, -1604059.3, 2536.9028, 0.0038472973, -0.012888422, -1314914.9, 271744.72 
1.6967216e+3, 1.4808327e+2, -1249730.9, -1511939.5, 4750.6895, 0.001540174, -0.009227581, -1249644.9, 239139.08 
1.6965663e+3, 1.580711e+2, -1190355.4, -1431965.5, 5287.544, 0.000089909896, 0.0016097042, -1190239.6, 200663.5 
1.6964112e+3, 1.680594e+2, -1122692.6, -1339931.9, 7228.3623, -0.00063051924, 0.0067952103, -1122452.4, 170565.63 
1.6962564e+3, 1.7804801e+2, -1058172.6, -1256786.3, 7061.571, -0.0026928703, 0.008355688, -1057921.9, 137207.63 
1.6961014e+3, 1.8803707e+2, -990614.06, -1164832.6, 8396.586, -0.0026965516, -0.0036103758, -990210.3, 107026.445 
1.6959468e+3, 1.980264e+2, -929063.1, -1085019.8, 9394.649, -0.0013421675, -0.018890556, -928499.25, 70841.766 
1.6957921e+3, 2.0801619e+2, -862603.56, -999091.5, 9293.661, -0.0022821433, -0.00069817604, -861973.6, 39467.676 
1.6956374e+3, 2.1800621e+2, -795724.25, -913870.3, 7938.1685, -0.0040316815, 0.02368149, -795193.25, 8345.977 
1.6954827e+3, 2.2799642e+2, -726609.75, -820610.5, 7676.505, -0.0043945806, 0.0007099486, -725986.94, -20352.078 
1.6953278e+3, 2.3798685e+2, -664695.9, -741038.1, 9075.037, -0.0041065463, -0.034464553, -663631.94, -55903.38 
1.6951728e+3, 2.4797796e+2, -599069.44, -656232.25, 6877.595, -0.003855637, -0.0007938365, -598253.6, -88437.8 
1.6950175e+3, 2.5796935e+2, -533309.3, -571529.7, 4145.199, -0.0044304673, 0.047499675, -532864.94, -120964.766 
1.6948618e+3, 2.6796037e+2, -465596.16, -477545.78, 1533.7391, -0.006299853, -0.019528981, -465402.44, -151414.13 
1.6947056e+3, 2.7795142e+2, -406967.78, -400556.4, 4472.084, -0.0066914433, -0.11353882, -398259.75, -182184.25 
1.6945504e+3, 2.8794524e+2, -336989.06, -311095.03, -35.660027, -0.0049886154, 0.06623128, -311095.0, -192958.72 
1.694395e+3, 2.9793996e+2, -271131.13, -231102.0, -13143.923, -0.0087712845, 0.29810953, -227171.94, -206983.42 
1.6942358e+3, 3.0792546e+2, -257575.22, -172614.7, -9420.213, -0.001986428, -0.4631251, -171582.75, -171582.75 
1.694075e+3, 3.179257e+2, -230730.14, -20055.842, 5666.7656, -0.010623573, 0.07834518, -19903.525, -19903.525 
1.7070608e+3, 1.2826891e+2, -1376327.4, -1683450.9, 12194.124, 0.000052750336, 0.008904114, -1375844.0, 307120.94 
1.7069022e+3, 1.3825554e+2, -1319519.9, -1604892.5, 11929.796, 0.0048285425, -0.009358664, -1319022.0, 266073.7 
1.706744e+3, 1.4824301e+2, -1252384.4, -1510796.3, 15097.719, 0.0012532914, -0.00544394, -1251505.4, 235713.27 
1.706586e+3, 1.58231e+2, -1190091.8, -1429506.4, 16325.77, -0.001525197, 0.0040773754, -1188983.6, 200352.72 
1.7064285e+3, 1.6821937e+2, -1123352.0, -1338665.9, 19554.58, -0.0007572377, 0.0057118973, -1121590.5, 169859.77 
1.7062712e+3, 1.7820805e+2, -1060289.8, -1256444.9, 20139.771, -0.0005697324, 0.003281514, -1058243.4, 135317.9 
1.706114e+3, 1.8819718e+2, -990909.5, -1164719.3, 20724.6, -0.0016790569, -0.0032166855, -988472.56, 107195.234 
1.7059569e+3, 1.9818658e+2, -925478.6, -1082603.3, 20229.324, -0.0022606095, -0.011419351, -922915.94, 74855.58 
1.7058e+3, 2.0817633e+2, -859768.75, -996745.4, 21847.62, -0.0024267402, 0.0009458192, -856368.5, 43503.387 
1.7056431e+3, 2.1816632e+2, -795263.3, -912981.5, 23003.393, -0.002808302, 0.017609848, -790927.9, 11042.382 
1.705486e+3, 2.2815652e+2, -724599.25, -820209.75, 21103.232, -0.0038321137, -0.00019212249, -720148.5, -16082.539 
1.7053287e+3, 2.3814692e+2, -658938.75, -738590.4, 19622.549, -0.0044934, -0.028773084, -654367.06, -48207.17 
1.7051713e+3, 2.481379e+2, -594082.4, -654365.3, 19274.03, -0.0030281825, -0.00020441783, -588446.8, -80198.48 
1.705014e+3, 2.5812915e+2, -529977.7, -570429.94, 20190.434, -0.0019376259, 0.042814415, -521624.97, -111290.73 
1.7048557e+3, 2.681201e+2, -456349.3, -473767.47, 15566.9795, -0.0071897814, -0.017029058, -447220.8, -134798.05 
1.7046973e+3, 2.781111e+2, -391954.2, -395994.47, 15265.39, -0.011898291, -0.10495861, -378575.84, -164065.33 
1.7045394e+3, 2.8810418e+2, -339875.94, -320814.25, 19003.914, -0.00046121248, 0.06076503, -309085.13, -192506.44 
1.7043814e+3, 2.9809806e+2, -283445.1, -231840.4, 16806.344, 0.0070763296, 0.2799188, -226849.66, -208210.64 
1.7042193e+3, 3.0808622e+2, -217886.97, -114352.336, -2516.9802, -0.022932032, -0.4511003, -114291.18, -114291.18 
1.7040558e+3, 3.1808946e+2, -227911.42, -108152.62, -7028.1733, 0.00092509174, 0.20794179, -107741.57, -107741.57 
1.7170884e+3, 1.2843086e+2, -1377655.6, -1684379.5, 2364.637, 0.003007611, -0.007978381, -1377637.5, 303740.2 
1.716927e+3, 1.3841778e+2, -1319685.6, -1603837.5, 2774.585, 0.0041705193, 0.0075711324, -1319658.6, 263847.25 
1.716766e+3, 1.4840542e+2, -1251145.3, -1507101.1, 6985.317, -0.00041274974, 0.0078045875, -1250954.8, 234672.4 
1.7166057e+3, 1.583935e+2, -1188756.5, -1425828.8, 7817.5815, -0.0033209978, 0.003284693, -1188499.0, 199244.78 
1.7164457e+3, 1.6838202e+2, -1122116.1, -1335470.3, 11034.75, -0.000358325, -0.0031017666, -1121547.0, 168309.34 
1.716286e+3, 1.7837082e+2, -1059679.9, -1254803.5, 11679.781, 0.002549521, -0.01039248, -1058983.3, 132982.7 
1.7161265e+3, 1.8836005e+2, -992448.0, -1167439.1, 13023.957, -0.00053335, 0.0031153285, -991484.0, 102587.59 
1.7159672e+3, 1.9834952e+2, -925653.6, -1082357.0, 12385.487, -0.0043207943, 0.01898773, -924680.75, 71494.22 
1.7158079e+3, 2.0833924e+2, -857072.2, -990908.7, 13372.921, -0.002909508, 0.0014241774, -855749.06, 42526.406 
1.7156486e+3, 2.1832915e+2, -794168.06, -910807.1, 14561.331, -0.00065957825, -0.02334409, -792377.7, 7996.516 
1.7154893e+3, 2.2831947e+2, -727783.94, -826787.44, 13200.306, -0.0027762442, -0.003226505, -726054.1, -23584.998 
1.7153299e+3, 2.3830998e+2, -660097.06, -740801.0, 11530.272, -0.005310698, 0.024016146, -658482.0, -53919.73 
1.7151701e+3, 2.4830069e+2, -591076.06, -648018.44, 10285.448, -0.0030687198, 0.0023012024, -589275.2, -82621.96 
1.7150103e+3, 2.5829157e+2, -529194.1, -568720.5, 11677.425, -0.0006470881, -0.027975358, -526002.0, -117259.8 
1.7148499e+3, 2.6828298e+2, -460457.97, -482384.78, 7900.1167, -0.0067745317, -0.0040035658, -457908.13, -147081.58 
1.7146893e+3, 2.782746e+2, -391638.84, -395622.5, 5907.0566, -0.01270342, 0.02106838, -387396.84, -174487.89 
1.7145285e+3, 2.8826657e+2, -331332.25, -302178.06, 6123.131, 0.0022131328, -0.0048024156, -300944.25, -185956.9 
1.7143671e+3, 2.982593e+2, -283531.84, -229500.5, 8132.1626, 0.012561525, -0.011830911, -228303.08, -211244.48 
1.7142034e+3, 3.0825314e+2, -231804.98, -145097.81, -5351.4883, -0.030489357, -0.034235105, -144768.78, -144768.78 
1.714039e+3, 3.1825015e+2, -179753.64, -17451.488, -15585.3125, -0.008259733, 0.09505216, -15968.436, -15968.436 
1.7271157e+3, 1.2859596e+2, -1382046.5, -1682237.8, 11522.545, 0.005232272, -0.004341883, -1381604.9, 298154.8 
1.7269515e+3, 1.3858317e+2, -1323345.6, -1602121.6, 13843.549, 0.0006743718, 0.007732704, -1322659.9, 259225.27 
1.726788e+3, 1.4857092e+2, -1255165.3, -1507617.9, 19152.205, -0.0014159464, 0.0065841055, -1253720.5, 230284.66 
1.7266253e+3, 1.585591e+2, -1191664.9, -1425606.5, 19378.023, 0.0001791601, 0.0010194142, -1190070.6, 196050.47 
1.7264628e+3, 1.6854773e+2, -1123890.1, -1334943.9, 22400.105, 0.00096678897, -0.001822322, -1121538.9, 166693.53 
1.7263007e+3, 1.7853667e+2, -1059913.4, -1253127.9, 22789.354, 0.00018532677, -0.0047661113, -1057261.8, 133078.97 
1.7261389e+3, 1.8852597e+2, -992831.4, -1165833.0, 25986.74, -0.0014174862, 0.003944018, -989012.25, 103433.46 
1.7259774e+3, 1.9851547e+2, -926612.9, -1081521.5, 27039.295, -0.0026288023, 0.01381437, -922028.8, 72519.8 
1.7258158e+3, 2.0850521e+2, -856203.9, -990802.8, 26616.916, -0.0020487045, 0.00068941794, -851131.5, 45517.414 
1.7256543e+3, 2.1849512e+2, -789465.5, -908339.2, 25607.818, -0.0010732473, -0.018617803, -784183.75, 14564.043 
1.7254926e+3, 2.284854e+2, -723416.44, -824325.75, 26093.465, -0.0025509617, -0.00078565866, -717068.44, -16225.514 
1.7253311e+3, 2.3847589e+2, -657229.5, -739318.4, 27248.123, -0.0042611, 0.024265211, -649008.25, -46071.723 
1.7251691e+3, 2.4846646e+2, -585854.06, -646410.5, 23742.2, -0.0028540788, 0.00033231615, -577655.5, -72626.85 
1.7250068e+3, 2.5845718e+2, -520197.66, -564954.0, 21948.277, -0.0013874682, -0.03428642, -511230.8, -104111.66 
1.7248443e+3, 2.6844868e+2, -457563.4, -481564.2, 20432.783, -0.0054895356, 0.0040270058, -445867.63, -136664.75 
1.7246813e+3, 2.784404e+2, -394869.47, -396367.66, 21452.28, -0.00889261, 0.049377877, -374153.22, -162868.98 
1.7245176e+3, 2.8843203e+2, -317350.03, -291701.3, 15051.925, 0.0004002196, -0.030160073, -284751.3, -171385.33 
1.7243534e+3, 2.9842433e+2, -254010.53, -215837.7, 11637.594, 0.004379773, -0.10067491, -212569.6, -197128.73 
1.7241879e+3, 3.084202e+2, -233564.16, -156015.48, 7248.942, -0.01751429, 0.13556053, -155343.7, -155343.7 
1.7240214e+3, 3.1841302e+2, -185452.58, 15913.311, -792.1945, -0.010209236, -0.12464288, 15916.427, 15916.427 
1.7371425e+3, 1.2876368e+2, -1379049.0, -1674701.6, 2655.1265, 0.006975012, 0.0070187454, -1379025.1, 299091.16 
1.7369756e+3, 1.3875118e+2, -1321028.5, -1596725.9, 4532.49, -0.0046796347, -0.00012439376, -1320954.0, 259284.69 
1.7368098e+3, 1.4873907e+2, -1255185.1, -1506747.8, 10920.419, -0.0023371964, -0.0010187845, -1254712.0, 227645.36 
1.7366445e+3, 1.5872732e+2, -1191791.1, -1424551.4, 11189.804, 0.0065268115, -0.0018626582, -1191254.4, 193217.98 
1.7364797e+3, 1.6871613e+2, -1124076.4, -1334301.6, 14521.114, 0.0025882986, 0.0055490774, -1123078.0, 163504.25 
1.7363152e+3, 1.7870522e+2, -1058863.6, -1250362.8, 14878.331, -0.005685578, 0.012566847, -1057714.5, 130974.63 
1.7361511e+3, 1.8869461e+2, -990357.25, -1160413.9, 18102.723, -0.0033890766, 0.00005089601, -988451.56, 102341.46 
1.7359874e+3, 1.9868417e+2, -925682.44, -1079452.5, 19029.871, 0.0017312123, -0.015702227, -923362.4, 69532.81 
1.7358236e+3, 2.0867401e+2, -858733.3, -995809.4, 19069.473, -0.00044822055, 0.0013603102, -856129.9, 38864.926 
1.7356598e+3, 2.18664e+2, -789999.3, -909108.06, 17960.266, -0.003992277, 0.021867976, -787350.06, 9743.156 
1.7354962e+3, 2.2865419e+2, -720573.3, -818292.8, 17790.738, -0.0030881036, 0.0034388048, -717435.1, -18245.959 
1.7353323e+3, 2.3864448e+2, -656591.56, -738016.44, 19038.445, -0.0014052523, -0.021639625, -652360.0, -51076.016 
1.7351681e+3, 2.4863513e+2, -589791.56, -654517.6, 15757.709, -0.0024285743, -0.0016028625, -586159.1, -82783.41 
1.7350036e+3, 2.5862595e+2, -521402.56, -567310.94, 13365.978, -0.004410393, 0.024109185, -517794.66, -112328.77 
1.7348386e+3, 2.6861706e+2, -454151.38, -474157.28, 10440.876, -0.00313972, 0.0004966895, -449695.06, -142142.42 
1.7346731e+3, 2.786084e+2, -394965.66, -395776.53, 12638.945, -0.00029472675, -0.03341712, -382725.66, -173088.36 
1.7345072e+3, 2.8860068e+2, -323104.9, -303913.88, 7564.3955, -0.008016982, 0.0060264836, -301290.8, -189577.42 
1.7343408e+3, 2.9859355e+2, -254396.13, -218778.61, 1711.9456, -0.021236464, 0.0664205, -218696.52, -204913.05 
1.7341727e+3, 3.08586e+2, -228120.47, -143775.92, -5856.729, 0.026146637, -0.08092315, -143371.19, -143371.19 
1.7340024e+3, 3.1858227e+2, -205880.58, -20383.441, -10328.377, -0.021151055, -0.024138093, -19810.135, -19810.135 
1.7471689e+3, 1.2893456e+2, -1387034.9, -1678559.0, 13609.145, 0.0037950566, 0.0072277947, -1386401.0, 290040.72 
1.7469995e+3, 1.3892204e+2, -1325793.5, -1597512.5, 13490.371, -0.0002301251, -0.00024496415, -1325125.3, 253439.06 
1.7468311e+3, 1.4891015e+2, -1259228.4, -1505272.3, 21068.553, -0.0009284354, 0.000555918, -1257437.4, 223243.39 
1.7466635e+3, 1.588987e+2, -1196862.1, -1423721.6, 22636.316, 0.0036674899, 0.0018147182, -1194625.5, 188167.63 
1.7464964e+3, 1.6888765e+2, -1128211.8, -1334110.9, 27605.408, 0.0019161447, 0.0057874587, -1124574.9, 160326.6 
1.7463295e+3, 1.7887683e+2, -1060763.5, -1249510.0, 28555.373, -0.0033213866, 0.008933232, -1056538.0, 130469.37 
1.7461634e+3, 1.888663e+2, -991238.5, -1160536.8, 30715.648, -0.0024610695, 0.0005552569, -985838.06, 103272.52 
1.7459974e+3, 1.9885589e+2, -924437.06, -1077823.1, 30152.797, 0.0007803347, -0.010539276, -918722.5, 72489.89 
1.7458314e+3, 2.088458e+2, -856961.44, -993739.94, 32198.572, -0.0007124755, 0.003234086, -849760.75, 43550.75 
1.7456657e+3, 2.1883579e+2, -788328.7, -907622.5, 33405.49, -0.0034362022, 0.02043328, -779611.3, 15798.491 
1.7454998e+3, 2.2882591e+2, -717179.06, -817509.1, 31185.822, -0.002601038, 0.0036031366, -708275.6, -10769.309 
1.7453337e+3, 2.3881611e+2, -649874.7, -735249.25, 29749.39, -0.00090238254, -0.02067567, -640530.94, -40928.805 
1.7451674e+3, 2.488067e+2, -583836.94, -652208.7, 28488.572, -0.002293407, 0.0006280856, -573522.56, -71828.05 
1.7450008e+3, 2.5879747e+2, -516504.2, -565338.8, 29044.264, -0.0047764652, 0.029961947, -502977.16, -99191.8 
1.7448333e+3, 2.6878843e+2, -443704.2, -469719.0, 22728.895, -0.0022154704, -0.00048450392, -430523.9, -124650.234 
1.7446654e+3, 2.7877954e+2, -379676.5, -390760.28, 21425.516, 0.0020747965, -0.04545688, -363087.75, -155127.33 
1.7444971e+3, 2.8877157e+2, -317765.1, -307424.7, 17552.992, -0.010460831, 0.018655501, -294296.3, -184257.61 
1.7443283e+3, 2.9876426e+2, -253136.2, -217178.31, 13636.331, -0.028488964, 0.10840297, -212591.98, -200481.34 
1.7441577e+3, 3.0875635e+2, -202102.0, -118755.53, 7073.139, 0.040910594, -0.15208174, -118159.53, -118159.53 
1.7439844e+3, 3.187549e+2, -188519.31, -43443.316, 4144.2563, -0.038974043, 0.10214779, -43325.027, -43325.027 
1.7571951e+3, 1.29108e+2, -1389862.0, -1682051.3, 4594.107, -0.0014129517, 0.0042292275, -1389789.9, 284952.2 
1.7570232e+3, 1.3909535e+2, -1326653.1, -1597055.8, 5111.0317, 0.0092295995, 0.002675933, -1326556.6, 250309.44 
1.7568521e+3, 1.4908381e+2, -1257168.6, -1499524.9, 12942.778, 0.0013693735, 0.006132507, -1256479.4, 222499.89 
1.756682e+3, 1.5907274e+2, -1194509.6, -1418114.3, 14430.088, -0.004570808, 0.00916951, -1193582.3, 187505.33 
1.7565127e+3, 1.6906187e+2, -1126654.5, -1330233.4, 20158.229, 0.00009050676, 0.0017814721, -1124677.6, 158516.42 
1.7563438e+3, 1.7905116e+2, -1060390.5, -1247971.8, 20875.7, 0.003981248, -0.0070967954, -1058095.4, 127203.586 
1.7561755e+3, 1.890407e+2, -992998.94, -1163552.0, 23342.822, -0.00013667192, 0.0053199288, -989861.9, 97539.58 
1.7560074e+3, 1.9903038e+2, -924105.7, -1076716.0, 22885.467, -0.0041820044, 0.018303642, -920747.7, 68755.07 
1.7558393e+3, 2.0902032e+2, -854056.7, -987539.4, 24697.932, -0.002184177, 0.0040418427, -849633.5, 41967.848 
1.7556715e+3, 2.190103e+2, -787650.5, -906208.4, 25748.15, 0.00014266401, -0.013172522, -782300.06, 11399.294 
1.7555034e+3, 2.2900045e+2, -720593.94, -824493.6, 23700.338, -0.0013140244, 0.0032988144, -715443.06, -19647.031 
1.7553353e+3, 2.3899063e+2, -650774.94, -736894.5, 22096.85, -0.003050164, 0.021139909, -645436.2, -47543.832 
1.7551668e+3, 2.4898106e+2, -581047.6, -646293.3, 20096.19, -0.0026022608, 0.003149629, -575354.6, -75368.63 
1.7549978e+3, 2.5897163e+2, -516416.7, -565066.6, 20884.488, -0.002596891, -0.016578456, -508681.3, -106603.07 
1.7548282e+3, 2.6896265e+2, -448348.94, -479300.47, 14570.2295, -0.003197339, 0.0062711984, -442569.3, -138403.1 
1.754658e+3, 2.7895373e+2, -382883.0, -397566.66, 12474.345, -0.0024736614, 0.023699401, -375750.3, -169496.61 
1.7544873e+3, 2.8894454e+2, -319161.25, -309927.16, 7013.651, -0.0043726373, -0.005987549, -306147.25, -197803.48 
1.754316e+3, 2.9893625e+2, -250116.33, -209792.1, 4943.3457, -0.01338781, -0.010582435, -209194.94, -198769.83 
1.7541431e+3, 3.0893227e+2, -190899.45, -96990.94, 1252.3512, 0.010219038, 0.007249998, -96974.234, -96974.234 
1.7539683e+3, 3.18929e+2, -211182.95, -95055.22, -5962.0337, -0.02549793, 0.035506554, -94749.93, -94749.93 
1.7672208e+3, 1.2928396e+2, -1397853.3, -1678268.1, 12429.964, -0.00020846841, 0.003357659, -1397303.4, 275714.22 
1.7670463e+3, 1.3927194e+2, -1335952.9, -1595938.5, 16484.783, 0.007946155, 0.005028495, -1334911.8, 240223.61 
1.7668729e+3, 1.4926061e+2, -1266062.9, -1501808.6, 25171.813, 0.0011912877, 0.006081992, -1263405.1, 213841.47 
1.7667003e+3, 1.5924965e+2, -1199589.3, -1418219.3, 25771.531, -0.0030407165, 0.006612192, -1196592.5, 182761.45 
1.7665288e+3, 1.6923897e+2, -1130935.1, -1330429.3, 31545.748, 0.0003673739, 0.0027505807, -1126065.6, 155392.9 
1.7663579e+3, 1.7922843e+2, -1063777.8, -1247140.1, 32074.385, 0.0028196701, -0.0025086377, -1058329.1, 125232.72 
1.7661873e+3, 1.8921812e+2, -994655.75, -1162123.8, 36713.98, -0.00043358628, 0.0069476045, -986960.5, 98702.305 
1.7660171e+3, 1.992079e+2, -924001.7, -1075280.0, 38096.563, -0.003547784, 0.016958788, -914949.5, 72813.68 
1.7658472e+3, 2.091978e+2, -852992.06, -987662.9, 38085.684, -0.0017866626, 0.004099511, -842967.44, 46894.625 
1.7656772e+3, 2.191877e+2, -783854.8, -904160.9, 36804.813, 0.00044296155, -0.012002754, -773488.5, 18472.23 
1.7655072e+3, 2.2917788e+2, -715760.44, -821758.6, 36942.676, -0.0014062432, 0.005155617, -704155.6, -10098.384 
1.765337e+3, 2.3916805e+2, -645688.2, -734619.44, 38113.58, -0.003651665, 0.024775377, -631589.06, -35435.297 
1.7651664e+3, 2.4915831e+2, -574179.25, -644582.0, 33217.965, -0.0024133346, 0.0035861463, -560980.56, -62731.477 
1.7649953e+3, 2.5914866e+2, -506548.6, -561868.7, 30896.023, -0.0014079218, -0.021393426, -492740.06, -92396.53 
1.7648236e+3, 2.691396e+2, -437458.7, -476114.47, 26793.56, -0.003795774, 0.011366596, -423749.28, -121316.8 
1.7646512e+3, 2.7913055e+2, -371552.25, -394698.75, 27010.389, -0.0047547803, 0.041662607, -353740.1, -149218.84 
1.764478e+3, 2.8912073e+2, -309311.47, -308466.2, 19541.02, -0.0016959425, -0.01684408, -289343.25, -182725.88 
1.7643037e+3, 2.9911187e+2, -238719.25, -203559.69, 17855.63, -0.006819199, -0.050128933, -196082.1, -187378.08 
1.764129e+3, 3.091094e+2, -173286.2, -83236.16, 9670.926, -0.0041845054, 0.08186198, -82209.25, -82209.25 
1.7639528e+3, 3.191044e+2, -200809.95, -109863.85, -2050.9685, -0.009570769, -0.054502394, -109817.625, -109817.625 
1.777246e+3, 1.2946226e+2, -1390918.0, -1663104.1, 4609.177, 0.0035662192, 0.002820793, -1390840.0, 280430.66 
1.7770688e+3, 1.3945119e+2, -1332550.9, -1586829.9, 7616.6616, 0.00078803935, 0.008156299, -1332323.0, 241055.88 
1.7768931e+3, 1.4944002e+2, -1266612.8, -1501170.3, 17618.74, -0.00043204258, 0.0042205565, -1265296.8, 210191.56 
1.7767185e+3, 1.5942907e+2, -1199467.9, -1416717.8, 18375.348, 0.0036330377, -0.001193152, -1197924.6, 179671.05 
1.7765447e+3, 1.694186e+2, -1130673.5, -1329005.6, 24527.555, 0.0013645558, 0.006960913, -1127685.3, 152012.97 
1.7763716e+3, 1.7940831e+2, -1061984.5, -1242883.6, 25134.97, -0.0036012349, 0.014429007, -1058557.0, 123242.164 
1.776199e+3, 1.8939824e+2, -991724.06, -1155655.9, 29907.523, -0.0021403553, 0.005453401, -986438.2, 97459.65 
1.776027e+3, 1.9938815e+2, -923386.3, -1073680.4, 30932.44, 0.0009380262, -0.0047489656, -917269.0, 68727.46 
1.775855e+3, 2.0937802e+2, -856045.25, -993702.8, 31165.973, -0.00027656995, 0.00540732, -849318.0, 38777.97 
1.7756832e+3, 2.1936786e+2, -784062.4, -904288.1, 29979.688, -0.0024274893, 0.015602187, -777001.3, 13194.426 
1.775511e+3, 2.2935806e+2, -712617.2, -815144.9, 29625.008, -0.0028762037, 0.0064796214, -704672.7, -12381.185 
1.7753388e+3, 2.3934826e+2, -645567.94, -734467.0, 30669.436, -0.0027132442, -0.004313648, -636014.0, -41626.6 
1.7751661e+3, 2.4933834e+2, -578831.44, -654195.0, 25555.332, -0.0015893839, 0.005216581, -570983.1, -74498.37 
1.7749931e+3, 2.5932845e+2, -508305.53, -565365.0, 23311.156, -0.0014653262, 0.015229591, -499992.97, -101411.01 
1.7748193e+3, 2.6931915e+2, -435289.88, -471578.7, 18962.482, -0.0040562674, 0.010810998, -427189.38, -126516.38 
1.7746447e+3, 2.793099e+2, -371589.88, -394658.1, 18218.488, -0.0049994905, 0.00030930803, -361561.3, -158797.95 
1.7744687e+3, 2.893003e+2, -312822.56, -315315.03, 8792.198, -0.0041704257, -0.004925429, -305188.72, -200330.84 
1.7742918e+3, 2.9929146e+2, -243088.28, -212330.75, 9704.651, -0.010996178, 0.013995697, -209524.72, -202580.03 
1.7741156e+3, 3.0928686e+2, -179169.13, -96085.74, 4048.2395, 0.0074694646, 0.021342268, -95888.95, -95888.95 
1.773938e+3, 3.1928238e+2, -188672.63, -87548.695, -5460.407, -0.018638842, -0.011432933, -87254.7, -87254.7 
1.7872706e+3, 1.2964398e+2, -1404116.0, -1669652.4, 15519.596, 0.006848993, 0.005517878, -1403212.0, 266277.63 
1.7870907e+3, 1.396329e+2, -1345105.4, -1590220.8, 15266.112, -0.0020055976, 0.007202917, -1344158.3, 227440.0 
1.7869127e+3, 1.4962213e+2, -1276164.8, -1500661.9, 27891.096, -0.002266999, 0.005809478, -1272751.5, 200952.3 
1.7867361e+3, 1.5961158e+2, -1207411.8, -1416074.3, 30402.94, 0.004804075, 0.0026441081, -1203072.3, 172734.8 
1.7865601e+3, 1.6960137e+2, -1137020.8, -1329372.4, 37991.406, 0.0022463675, 0.007813187, -1129789.0, 148118.34 
1.7863852e+3, 1.7959122e+2, -1065732.5, -1242655.1, 39108.285, -0.0041508903, 0.012759651, -1057473.3, 122533.484 
1.7862105e+3, 1.8958119e+2, -994644.2, -1156877.0, 42476.92, -0.002439336, 0.005605647, -984195.5, 97909.41 
1.7860368e+3, 1.9957113e+2, -923672.5, -1072360.9, 41770.31, 0.0016469181, -0.003108041, -912741.7, 71461.664 
1.7858627e+3, 2.0956114e+2, -853946.94, -990915.44, 44610.598, -0.00010688515, 0.007246029, -840698.75, 45602.77 
1.7856891e+3, 2.1955106e+2, -780614.9, -902137.56, 46192.184, -0.0032539158, 0.018139046, -765050.2, 23350.244 
1.7855151e+3, 2.2954111e+2, -707981.25, -814784.4, 42922.65, -0.0031190782, 0.0073127253, -692869.44, -2371.6243 
1.7853409e+3, 2.3953111e+2, -637677.94, -731575.25, 40619.6, -0.001953089, -0.0059776586, -622545.0, -29949.285 
1.7851663e+3, 2.4952115e+2, -570009.06, -650642.56, 38026.598, -0.0014178136, 0.0071342634, -554905.06, -60211.527 
1.784991e+3, 2.5951117e+2, -499225.75, -562120.2, 39611.855, -0.0021551026, 0.022112718, -480096.03, -83304.48 
1.7848153e+3, 2.695016e+2, -425545.88, -469147.38, 32455.695, -0.004229629, 0.011020963, -408248.72, -109363.38 
1.7846386e+3, 2.79492e+2, -359802.16, -390716.97, 27686.982, -0.0043214494, -0.008264749, -343549.9, -142571.11 
1.7844601e+3, 2.8948238e+2, -294137.94, -307478.0, 18528.38, -0.0051990347, 0.00094914046, -281115.6, -178042.14 
1.7842807e+3, 2.9947346e+2, -222457.38, -209741.86, 23354.96, -0.013512505, 0.03618562, -191894.75, -186733.42 
1.7841028e+3, 3.0946714e+2, -172387.88, -109291.74, 15671.132, 0.013047575, -0.0029875112, -105613.9, -105613.9 
1.7839232e+3, 3.1946248e+2, -177935.3, -59938.117, 865.7596, -0.023520136, 0.025020685, -59931.766, -59931.766 
1.7972946e+3, 1.2982832e+2, -1409609.0, -1677087.8, 5762.6597, 0.0092985565, 0.0108312685, -1409484.9, 258198.31 
1.7971122e+3, 1.398168e+2, -1344909.6, -1588855.0, 7449.837, -0.002631977, 0.0039007247, -1344682.4, 225113.81 
1.7969319e+3, 1.4980659e+2, -1271973.6, -1491220.1, 21513.344, -0.0043846336, 0.00896582, -1269882.6, 202013.61 
1.7967533e+3, 1.5979674e+2, -1204251.4, -1408383.5, 23446.244, 0.0028746657, 0.012870056, -1201593.0, 172399.69 
1.7965755e+3, 1.6978675e+2, -1135382.3, -1325014.5, 31371.145, 0.0031436125, 0.006568787, -1130327.3, 145763.22 
1.7963985e+3, 1.7977674e+2, -1065493.9, -1241442.5, 32335.137, -0.0013611324, 0.0002470122, -1059739.6, 118448.87 
1.796222e+3, 1.897667e+2, -996708.75, -1160646.5, 36254.316, -0.002123695, 0.007816637, -989049.06, 91237.875 
1.7960462e+3, 1.9975664e+2, -922645.0, -1069865.5, 35789.49, -0.0005087793, 0.014209134, -914405.7, 67980.16 
1.7958707e+3, 2.0974693e+2, -850010.2, -982654.6, 38277.313, -0.0010084669, 0.008199144, -839757.06, 44723.79 
1.7956951e+3, 2.197371e+2, -780325.9, -901715.8, 39544.57, -0.002388081, 0.0017546425, -768580.1, 17997.016 
1.7955193e+3, 2.2972684e+2, -712807.0, -824772.1, 36299.58, -0.0022269, 0.009337106, -702068.44, -13390.599 
1.7953433e+3, 2.3971646e+2, -638594.7, -733207.2, 33863.168, -0.0018688561, 0.015479073, -627723.7, -36943.98 
1.7951666e+3, 2.497066e+2, -566541.9, -643389.94, 30531.582, -0.0023482451, 0.0070060315, -555888.6, -63012.38 
1.7949896e+3, 2.5969675e+2, -499468.9, -562599.2, 32367.135, -0.0037737018, -0.00025983664, -485823.56, -90850.81 
1.7948116e+3, 2.6968685e+2, -430970.4, -480234.34, 24849.717, -0.0042486493, 0.0148492595, -420613.22, -123543.41 
1.7946331e+3, 2.7967688e+2, -361822.44, -394762.9, 19633.645, -0.002611238, 0.021772275, -352665.56, -153497.92 
1.7944522e+3, 2.89667e+2, -291569.03, -302570.2, 9803.702, -0.004480749, -0.0033844647, -285828.22, -184564.11 
1.7942706e+3, 2.9965785e+2, -227240.16, -220913.0, 15443.797, -0.014886114, 0.0017222326, -208312.1, -204957.84 
1.7940903e+3, 3.0965033e+2, -188075.03, -142072.98, 7217.617, 0.007856988, 0.031957086, -140967.14, -140967.14 
1.793908e+3, 3.1964394e+2, -163274.56, -24695.344, -17894.31, -0.014527823, 0.008238971, -22422.0, -22422.0 
1.8073177e+3, 1.300149e+2, -1425637.6, -1675618.8, 13108.003, 0.0053610774, 0.01148191, -1424952.1, 240902.83 
1.8071331e+3, 1.400041e+2, -1356829.9, -1588313.6, 19614.818, 0.00253806, 0.0065234364, -1355179.5, 212781.14 
1.8069506e+3, 1.4999413e+2, -1284539.5, -1494927.4, 33970.01, -0.0026639532, 0.009091334, -1279190.5, 190867.77 
1.80677e+3, 1.5998445e+2, -1214744.6, -1410486.5, 34210.4, 0.0002145182, 0.011498803, -1208937.9, 163215.34 
1.8065903e+3, 1.6997471e+2, -1143756.8, -1326725.4, 42238.223, 0.0024455767, 0.0074711116, -1134476.8, 139771.88 
1.8064114e+3, 1.7996491e+2, -1070523.9, -1240504.4, 43156.188, 0.0004701127, 0.002713422, -1060194.6, 116149.89 
1.8062332e+3, 1.8995516e+2, -998876.9, -1158446.6, 49865.66, -0.0016978363, 0.009168924, -984575.56, 93864.79 
1.8060558e+3, 1.9994527e+2, -923059.5, -1068682.0, 51714.453, -0.0018355891, 0.015048532, -906563.1, 73974.18 
1.8058784e+3, 2.0993547e+2, -849209.0, -983820.25, 51239.43, -0.0015021994, 0.008623164, -831924.3, 50709.023 
1.8057011e+3, 2.199255e+2, -775511.44, -899188.6, 49235.598, -0.001733278, 0.0012675027, -758304.75, 26426.264 
1.8055236e+3, 2.2991529e+2, -706554.2, -821009.06, 49280.64, -0.0021394077, 0.0107371975, -688259.7, -1428.6862 
1.8053459e+3, 2.3990493e+2, -631997.75, -730664.44, 50905.883, -0.0025109502, 0.019074123, -610442.5, -21509.672 
1.8051673e+3, 2.498948e+2, -556358.0, -641247.44, 43557.047, -0.0028999362, 0.0069497987, -537985.2, -46953.13 
1.8049882e+3, 2.5988466e+2, -484659.97, -557381.44, 40663.29, -0.0039246287, -0.00395249, -466471.6, -73340.13 
1.8048084e+3, 2.6987463e+2, -421140.1, -477517.66, 35258.2, -0.004693878, 0.018821325, -404187.47, -108957.766 
1.8046276e+3, 2.798645e+2, -354684.34, -392675.84, 34737.1, -0.0031519125, 0.032837894, -334088.38, -136759.33 
1.8044451e+3, 2.8985435e+2, -268843.34, -292829.63, 23318.037, -0.002520769, -0.010479755, -254615.02, -155186.36 
1.8042615e+3, 2.9984468e+2, -197133.05, -214754.03, 24489.115, -0.012494673, -0.018612547, -179917.75, -178394.75 
1.8040782e+3, 3.0983642e+2, -186238.28, -157282.1, 18127.87, -0.003612992, 0.064814664, -148560.3, -148560.3 
1.803893e+3, 3.1982884e+2, -149630.98, 5224.759, -6904.3955, -0.005438359, -0.013853529, 5531.989, 5531.989 
1.8173401e+3, 1.3020355e+2, -1417376.6, -1656214.5, 6421.7114, -0.0013351337, 0.010141427, -1417204.1, 246802.22 
1.8171534e+3, 1.4019401e+2, -1353158.6, -1578177.6, 11498.732, 0.0103099495, 0.012771808, -1352572.5, 213526.98 
1.8169688e+3, 1.5018417e+2, -1285646.6, -1495322.1, 27072.941, 0.0006710905, 0.008396263, -1282207.4, 185988.56 
1.8167861e+3, 1.6017444e+2, -1214417.1, -1408709.6, 27877.139, -0.00325624, 0.0044300514, -1210496.4, 159794.92 
1.8166046e+3, 1.7016496e+2, -1143099.9, -1324502.6, 36817.22, 0.00060503976, 0.010066107, -1135912.3, 136472.02 
1.8164241e+3, 1.8015547e+2, -1067819.1, -1234136.0, 37784.258, 0.0016109267, 0.013997413, -1059637.8, 114839.695 
1.8162444e+3, 1.9014618e+2, -994660.44, -1149367.1, 44235.137, -0.0013820226, 0.009299748, -982905.5, 93662.91 
1.8160652e+3, 2.0013665e+2, -922746.25, -1068098.4, 45768.875, -0.0028474827, 0.004768463, -909535.2, 69126.48 
1.8158862e+3, 2.1012647e+2, -853746.9, -993167.56, 45755.734, -0.0016977423, 0.009392592, -840071.8, 40689.582 
1.8157074e+3, 2.2011614e+2, -775162.8, -898172.06, 43727.363, -0.0014507152, 0.012666286, -761202.9, 21660.105 
1.8155281e+3, 2.3010637e+2, -701661.5, -810912.94, 42882.26, -0.0030714958, 0.010600739, -686840.4, -1881.7821 
1.8153486e+3, 2.4009635e+2, -632359.1, -731800.4, 44728.66, -0.0041455715, 0.007698527, -615200.8, -28144.09 
1.8151684e+3, 2.500856e+2, -563049.56, -655234.25, 37375.66, -0.0028506645, 0.0084310165, -549800.2, -60637.97 
1.8149877e+3, 2.6007476e+2, -486432.5, -560859.75, 33192.152, -0.0025920183, 0.010672751, -473780.56, -82512.164 
1.8148054e+3, 2.7006492e+2, -418315.44, -471235.56, 26041.607, -0.0060446253, 0.02118469, -407650.03, -114284.91 
1.8146223e+3, 2.8005493e+2, -355157.63, -393206.25, 28732.012, -0.0067141755, 0.021029856, -339722.5, -144259.75 
1.8144387e+3, 2.900443e+2, -272642.13, -301686.88, 19489.135, 0.0011922908, -0.019524436, -262859.66, -165292.73 
1.8142536e+3, 3.000341e+2, -199484.42, -221714.05, 14555.98, -0.0054240427, -0.01775383, -192284.88, -192284.88 
1.8140665e+3, 3.1002575e+2, -189383.34, -162096.64, 2179.6956, -0.024596317, 0.09540864, -161923.63, -161923.63 
1.8138774e+3, 3.2001778e+2, -146458.9, 15151.217, -13981.811, 0.0029632305, -0.016351867, 16351.941, 16351.941 
1.8273613e+3, 1.3039497e+2, -1439983.0, -1664038.9, 16210.96, -0.0025388915, 0.006438351, -1438816.3, 223314.16 
1.8271725e+3, 1.4038578e+2, -1372186.3, -1582126.9, 17644.73, 0.009134134, 0.013481298, -1370713.6, 193506.78 
1.826986e+3, 1.5037645e+2, -1300801.8, -1497035.3, 36043.383, 0.0014639125, 0.010241133, -1294390.9, 171920.88 
1.8268016e+3, 1.6036718e+2, -1225668.0, -1408562.6, 39158.125, -0.00087590376, 0.005828379, -1217636.9, 150765.72 
1.8266185e+3, 1.7035809e+2, -1152011.5, -1324372.8, 49993.785, 0.00039733105, 0.009830746, -1138560.4, 131931.28 
1.8264364e+3, 1.803489e+2, -1075014.4, -1234986.0, 51774.12, -0.00082058, 0.013143556, -1059720.1, 112861.62 
1.8262552e+3, 1.9033965e+2, -999648.8, -1151902.6, 55919.15, -0.001565403, 0.009703574, -981318.0, 93354.24 
1.8260744e+3, 2.0033015e+2, -922453.9, -1065988.3, 55073.125, -0.0010738033, 0.005655189, -903757.94, 73007.36 
1.8258941e+3, 2.1032022e+2, -851071.44, -989271.94, 59023.07, -0.001670772, 0.01026906, -829295.06, 49567.82 
1.8257137e+3, 2.2031002e+2, -771807.56, -896088.8, 60911.168, -0.0027629407, 0.014073274, -746933.1, 34029.934 
1.8255328e+3, 2.3030004e+2, -695186.1, -810125.1, 55477.863, -0.0034002045, 0.010518362, -672777.4, 10283.282 
1.8253517e+3, 2.402898e+2, -620719.7, -727169.44, 52991.438, -0.0035997385, 0.006120372, -598838.1, -13677.264 
1.8251698e+3, 2.5027898e+2, -552887.9, -651511.6, 49794.313, -0.0032399257, 0.0106678875, -532120.3, -44853.355 
1.8249872e+3, 2.6026803e+2, -477037.47, -557979.25, 50095.316, -0.0036589883, 0.01601585, -453107.78, -63733.176 
1.824803e+3, 2.7025777e+2, -399967.84, -465324.97, 38001.168, -0.005627338, 0.01711725, -382526.78, -91051.94 
1.824618e+3, 2.8024742e+2, -331152.3, -386116.75, 37400.063, -0.005016669, 0.010571605, -312222.94, -118646.586 
1.8244328e+3, 2.9023647e+2, -265708.34, -304948.1, 28075.396, -0.00043444746, -0.0058261403, -251076.69, -155392.88 
1.8242459e+3, 3.0022603e+2, -197505.98, -217529.23, 22131.146, -0.009655447, 0.009498957, -183227.28, -183227.28 
1.8240556e+3, 3.1021777e+2, -152294.25, -132971.81, 16151.963, -0.020219428, 0.051082954, -123812.164, -123812.164 
1.8238637e+3, 3.202102e+2, -112424.55, -330.64297, 3603.9214, 0.010947949, -0.015563035, -214.89316, -214.89316 
1.8373819e+3, 1.3058856e+2, -1442012.5, -1666587.0, 9150.265, -0.0013261024, 0.003193172, -1441640.3, 218592.7 
1.837191e+3, 1.4057936e+2, -1370937.3, -1576934.3, 11478.091, 0.002857008, 0.011649769, -1370299.8, 192023.53 
1.8370026e+3, 1.5057075e+2, -1296683.5, -1486470.5, 31014.943, 0.0005291727, 0.0133303655, -1291743.6, 172663.92 
1.8368168e+3, 1.6056225e+2, -1221738.3, -1398914.8, 33770.547, 0.0046299514, 0.011553223, -1215519.6, 150971.39 
1.8366319e+3, 1.7055364e+2, -1148832.3, -1316936.4, 44657.29, 0.0009873954, 0.0078074466, -1137705.4, 130869.86 
1.8364483e+3, 1.8054478e+2, -1074560.3, -1233786.9, 46485.06, -0.005582009, 0.005528514, -1061982.8, 108679.21 
1.8362658e+3, 1.9053537e+2, -1002582.06, -1157640.3, 51659.453, -0.0019338735, 0.010899376, -986947.56, 85806.93 
1.8360837e+3, 2.0052573e+2, -920370.7, -1061200.8, 50873.53, 0.002594944, 0.014055427, -903915.75, 70933.28 
1.8359017e+3, 2.1051645e+2, -844996.9, -976734.56, 53899.133, -0.001859627, 0.010768114, -825755.06, 51184.797 
1.83572e+3, 2.2050676e+2, -771917.3, -896845.3, 55660.113, -0.006050539, 0.007772201, -750716.5, 28318.254 
1.8355377e+3, 2.3049612e+2, -701642.94, -823820.06, 50403.355, -0.003193952, 0.010921945, -683533.56, -2394.433 
1.8353552e+3, 2.4048525e+2, -620739.44, -727195.44, 47510.664, -0.0008900936, 0.01295939, -602619.8, -19373.967 
1.8351716e+3, 2.5047493e+2, -547883.0, -641144.1, 43101.875, -0.0044320803, 0.012928581, -531014.06, -45667.277 
1.8349873e+3, 2.6046437e+2, -478084.56, -560162.2, 43921.355, -0.007848727, 0.01201426, -459012.9, -71562.47 
1.8348014e+3, 2.7045324e+2, -407197.1, -480345.56, 31510.314, -0.0029920158, 0.0067943987, -395495.3, -105935.86 
1.8346146e+3, 2.8044194e+2, -336243.28, -397118.1, 29898.873, 0.0022866707, 0.0035762666, -324014.78, -132344.3 
1.834427e+3, 2.9043084e+2, -270198.28, -313415.78, 18864.633, -0.010374964, 0.037969753, -263122.3, -169342.98 
1.8342377e+3, 3.0042046e+2, -189193.19, -197812.67, 14730.869, -0.028488375, 0.065965615, -178154.56, -178154.56 
1.8340462e+3, 3.104126e+2, -130675.45, -90057.195, 10885.801, 0.023108639, -0.10755555, -87323.73, -87323.73 
1.8338518e+3, 3.204069e+2, -172453.72, -131707.17, -5193.7046, -0.005966379, 0.056876432, -131055.586, -131055.586 
1.8474014e+3, 1.3078424e+2, -1464026.4, -1668566.6, 14883.46, 0.0052332603, 0.011384935, -1462949.0, 195366.34 
1.8472083e+3, 1.4077564e+2, -1393027.4, -1579873.5, 21330.254, -0.00088652445, 0.0065431455, -1390623.3, 169776.53 
1.8470185e+3, 1.5076761e+2, -1315738.8, -1489860.8, 42173.906, -0.002661375, 0.010555412, -1306061.6, 156416.89 
1.846831e+3, 1.6075958e+2, -1237356.6, -1401916.8, 43917.87, 0.0041816384, 0.012780704, -1226369.4, 138187.72 
1.8466449e+3, 1.7075127e+2, -1160964.5, -1320312.1, 54052.074, 0.0024795744, 0.009967732, -1144359.9, 122278.81 
1.84646e+3, 1.8074267e+2, -1080745.4, -1232287.5, 55327.69, -0.003715179, 0.007271627, -1062695.3, 106027.57 
1.8462761e+3, 1.9073366e+2, -1006223.1, -1154408.5, 64538.387, -0.002466623, 0.010572572, -982056.3, 88754.875 
1.8460928e+3, 2.0072435e+2, -923536.5, -1060480.4, 67001.87, 0.00092013134, 0.0127888005, -896208.4, 76694.13 
1.8459095e+3, 2.1071504e+2, -844718.0, -977423.6, 65777.94, -0.0019392472, 0.01120637, -817639.4, 57354.17 
1.8457264e+3, 2.2070532e+2, -765382.5, -892764.94, 63891.406, -0.005381419, 0.009048545, -738859.06, 38229.777 
1.8455428e+3, 2.3069476e+2, -693637.25, -819039.2, 63628.83, -0.003582608, 0.010529201, -667007.1, 12185.304 
1.8453589e+3, 2.4068387e+2, -612057.06, -723350.25, 65328.477, -0.001356812, 0.012245203, -581887.9, -588.5812 
1.8451737e+3, 2.506734e+2, -536565.3, -637875.94, 55075.36, -0.0037833154, 0.014918913, -512392.44, -28990.596 
1.8449877e+3, 2.606626e+2, -462499.06, -554480.75, 51919.645, -0.006949085, 0.014157617, -439129.9, -53622.37 
1.8448003e+3, 2.7065116e+2, -388469.53, -474360.1, 43993.766, -0.005470674, 0.0003145512, -369935.16, -82315.35 
1.8446118e+3, 2.8063947e+2, -316725.97, -391921.66, 45397.832, -0.0017426806, -0.004469207, -295378.4, -105643.86 
1.8444218e+3, 2.9062817e+2, -260209.89, -314833.75, 32634.889, -0.006843367, 0.06191462, -244966.23, -153120.45 
1.8442301e+3, 3.0061752e+2, -176181.77, -186911.16, 30182.049, -0.020741472, 0.09814617, -150891.34, -150891.34 
1.8440376e+3, 3.106093e+2, -91343.86, -59331.55, 14329.796, 0.021777006, -0.19948305, -53854.223, -53854.223 
1.8438417e+3, 3.2060453e+2, -150724.75, -177781.78, -4407.6563, -0.022707382, 0.1193594, -150024.84, -150024.84 
1.8574198e+3, 1.3098171e+2, -1458454.9, -1652432.6, 8135.116, 0.011575646, 0.022378648, -1458114.3, 198266.02 
1.8572246e+3, 1.40974e+2, -1388351.1, -1568276.8, 15087.928, -0.0027855805, 0.0004072144, -1387094.6, 171361.13 
1.8570334e+3, 1.5096651e+2, -1313636.0, -1484107.3, 37589.074, -0.0062972303, 0.0055713137, -1305715.6, 154813.58 
1.8568446e+3, 1.6095889e+2, -1236136.1, -1398201.3, 39476.234, 0.00027418233, 0.012184923, -1227031.9, 135571.98 
1.8566573e+3, 1.7095076e+2, -1161107.9, -1319354.4, 50657.68, 0.0042192223, 0.0146551225, -1146280.6, 118403.086 
1.8564712e+3, 1.8094242e+2, -1076941.3, -1223266.1, 51886.57, 0.0018945804, 0.014256881, -1060410.0, 106355.43 
1.8562861e+3, 1.9093423e+2, -999561.06, -1140367.3, 60349.133, -0.0035159218, 0.008939352, -977235.5, 91610.195 
1.8561016e+3, 2.0092554e+2, -922983.94, -1059707.4, 62757.66, -0.0050122584, 0.005193704, -898545.56, 72385.13 
1.8559174e+3, 2.1091579e+2, -849617.8, -987710.6, 62234.113, -0.0018197485, 0.012170097, -825709.94, 47316.48 
1.8557331e+3, 2.2090569e+2, -763278.75, -888422.4, 60238.08, -0.001028347, 0.016421236, -738995.2, 36130.29 
1.8555482e+3, 2.3089585e+2, -686911.7, -805427.0, 58829.684, -0.0045623686, 0.009202571, -662668.44, 14553.442 
1.8553628e+3, 2.4088548e+2, -612878.44, -725463.25, 60182.926, -0.005879856, 0.004839051, -586764.44, -7441.2046 
1.8551762e+3, 2.5087425e+2, -543842.6, -653214.5, 49252.18, -0.0013881186, 0.017184915, -524932.9, -43499.383 
1.8549888e+3, 2.6086274e+2, -462932.22, -555571.4, 46800.39, -0.00080395874, 0.02299271, -443405.16, -59858.652 
1.8547998e+3, 2.7085158e+2, -384530.8, -466345.03, 38613.457, -0.014626616, -0.0022051006, -369185.03, -83529.48 
1.8546095e+3, 2.8084016e+2, -316868.63, -391982.25, 37010.65, -0.018654417, -0.0152240805, -301696.88, -113929.47 
1.854417e+3, 2.9082856e+2, -264770.38, -322971.38, 21237.53, 0.015946932, 0.05917756, -257844.9, -167962.97 
1.854223e+3, 3.008173e+2, -183969.77, -202050.47, 26475.244, 0.019023849, 0.10266366, -165033.94, -165033.94 
1.8540294e+3, 3.108077e+2, -101339.34, -82942.59, 13766.313, -0.05244287, -0.18059814, -75584.36, -75584.36 
1.8538344e+3, 3.2080173e+2, -128471.73, -139638.6, -7081.6597, -0.0032632188, 0.08520508, -125037.14, -125037.14 
1.8674365e+3, 1.3118102e+2, -1491215.0, -1660356.5, 15033.058, 0.0043694573, 0.011729529, -1489889.3, 164537.92 
1.8672399e+3, 1.4117418e+2, -1412691.9, -1572669.3, 20861.73, 0.0027884769, 0.010806128, -1410016.1, 146477.95 
1.8670474e+3, 1.5116715e+2, -1334350.3, -1488806.8, 44747.26, -0.0029964787, 0.009889017, -1322323.1, 136239.72 
1.8668574e+3, 1.6115998e+2, -1251735.9, -1398958.6, 47331.58, -0.00031451648, 0.009414506, -1237832.0, 122801.31 
1.8666689e+3, 1.7115246e+2, -1174072.0, -1318716.3, 61345.42, 0.002560145, 0.0114226015, -1151558.8, 111148.34 
1.8664818e+3, 1.8114464e+2, -1088986.8, -1224803.1, 64431.973, 0.0008550652, 0.012235418, -1063284.1, 101499.61 
1.8662956e+3, 1.9113667e+2, -1006932.2, -1141976.1, 69734.54, -0.0028800843, 0.010457037, -977386.56, 89475.11 
1.8661103e+3, 2.0112821e+2, -923429.06, -1055866.9, 69728.24, -0.004045541, 0.008534811, -893486.75, 75457.61 
1.865925e+3, 2.1111883e+2, -848513.1, -982559.8, 74653.72, -0.0018763305, 0.011033184, -815210.44, 55826.03 
1.8657397e+3, 2.2110902e+2, -761736.75, -885206.9, 77383.95, -0.00095273624, 0.012847846, -724479.44, 48653.223 
1.8655539e+3, 2.3109926e+2, -680425.56, -802150.75, 70998.88, -0.005244595, 0.010384959, -647772.94, 27455.404 
1.8653671e+3, 2.4108893e+2, -600048.25, -718926.8, 68413.78, -0.007524502, 0.0081816, -568859.3, 8470.152 
1.8651794e+3, 2.5107756e+2, -528608.6, -646866.3, 62375.277, -0.00052853074, 0.013252173, -501790.4, -22349.447 
1.8649903e+3, 2.610659e+2, -446361.13, -548841.56, 64949.688, 0.001523278, 0.016777659, -414872.75, -33317.047 
1.8647999e+3, 2.710547e+2, -373732.88, -463618.5, 51119.883, -0.018423816, 0.009233197, -350608.8, -66943.55 
1.8646078e+3, 2.810431e+2, -305276.34, -385109.63, 44259.434, -0.024207916, 0.00069586624, -285592.34, -99814.08 
1.864413e+3, 2.9103115e+2, -235615.89, -306654.72, 31658.338, 0.026960287, 0.020362688, -223555.06, -135659.08 
1.864217e+3, 3.0101955e+2, -152019.81, -199565.02, 45949.695, 0.032991976, 0.049989134, -124057.41, -124057.41 
1.8640225e+3, 3.1100965e+2, -92920.914, -104788.97, 30965.87, -0.088084236, -0.05741683, -67325.625, -67325.625 
1.8638267e+3, 3.210015e+2, -117635.81, -88789.49, -2486.3276, 0.021849042, 0.042233124, -88576.766, -88576.766 
1.877452e+3, 1.3138185e+2, -1488470.5, -1653055.0, 10707.34, -0.006653991, -0.0044134352, -1487776.8, 164682.14 
1.8772544e+3, 1.4137587e+2, -1410070.9, -1564510.5, 16830.809, 0.010748635, 0.027997624, -1408258.0, 146259.7 
1.8770605e+3, 1.5136932e+2, -1332146.6, -1481750.1, 41784.313, 0.0025903129, 0.01765401, -1321267.4, 135314.31 
1.8768695e+3, 1.6136262e+2, -1247222.5, -1387733.6, 44147.195, 0.0006990852, 0.005243977, -1234503.3, 124144.06 
1.8766801e+3, 1.7135596e+2, -1168141.8, -1305591.6, 57742.32, -0.0008944917, 0.003993274, -1147104.4, 113608.266 
1.8764919e+3, 1.8134883e+2, -1087700.3, -1221890.5, 61174.633, -0.004253193, 0.0056705233, -1063998.4, 98783.96 
1.876305e+3, 1.913408e+2, -1009217.7, -1146063.0, 67571.89, -0.0010416394, 0.014565349, -981475.8, 83385.45 
1.876119e+3, 2.0133244e+2, -919077.56, -1046204.44, 67288.83, 0.0017826612, 0.018918153, -890077.0, 76866.38 
1.8759325e+3, 2.11324e+2, -839856.1, -964801.8, 71152.84, -0.0023301654, 0.007801465, -807642.2, 61383.535 
1.8757464e+3, 2.2131495e+2, -760875.7, -883924.06, 74085.98, -0.005689739, 0.0010143303, -726098.5, 45015.77 
1.8755595e+3, 2.3130481e+2, -685212.75, -812364.3, 67917.68, -0.0060583954, 0.01447204, -655757.94, 17456.035 
1.8753721e+3, 2.4129418e+2, -597711.0, -714406.3, 64810.113, -0.005645567, 0.021393392, -568853.2, 6465.2065 
1.8751827e+3, 2.512833e+2, -522616.28, -634785.0, 57375.598, -0.0010281572, 0.0026442853, -498467.16, -21042.4 
1.8749924e+3, 2.6127198e+2, -448225.88, -552571.44, 59292.86, -0.0008473906, -0.0044101733, -421419.9, -41884.305 
1.8748003e+3, 2.7126038e+2, -381509.44, -479169.63, 44014.96, -0.01577717, 0.037976127, -364599.94, -82950.57 
1.8746065e+3, 2.8124836e+2, -303099.63, -380039.72, 37747.33, -0.017900456, 0.046198912, -287673.44, -103906.09 
1.8744099e+3, 2.9123598e+2, -227583.14, -290894.3, 25379.05, 0.01950229, -0.068719976, -218665.69, -132777.58 
1.8742123e+3, 3.012243e+2, -160839.58, -220357.88, 41712.797, 0.014875909, -0.07431953, -139358.47, -139358.47 
1.8740168e+3, 3.112157e+2, -115076.87, -150803.28, 26071.209, -0.059737954, 0.23042816, -101336.24, -101336.24 
1.8738173e+3, 3.2120353e+2, -81144.05, -375.93835, -36445.234, 0.00930022, -0.048748434, 13637.864, 13637.864 
1.8874663e+3, 1.315842e+2, -1520159.4, -1660215.8, 13962.624, -0.002285489, 0.007574893, -1518781.0, 131694.97 
1.8872674e+3, 1.4157872e+2, -1437794.4, -1569227.0, 21738.262, 0.008597545, 0.01686601, -1434292.3, 118237.34 
1.8870726e+3, 1.5157296e+2, -1355881.3, -1485655.8, 48430.074, 0.00078633096, 0.013118624, -1339800.4, 114785.77 
1.8868807e+3, 1.6156694e+2, -1267693.9, -1391523.8, 51130.586, 0.00071170134, 0.007946061, -1249310.6, 107334.42 
1.8866904e+3, 1.7156075e+2, -1183294.0, -1307875.1, 62971.883, 0.00072828715, 0.008102669, -1157009.3, 101696.49 
1.8865016e+3, 1.8155411e+2, -1096949.4, -1219469.1, 65648.78, -0.0025749162, 0.009188758, -1068417.8, 92353.08 
1.8863139e+3, 1.9154668e+2, -1017762.3, -1142355.6, 76785.18, -0.0017181362, 0.012292465, -981181.1, 81662.48 
1.886127e+3, 2.0153888e+2, -927915.9, -1044832.9, 80124.12, 0.00034630237, 0.0136381155, -887191.4, 77728.72 
1.88594e+3, 2.115309e+2, -842326.75, -961495.6, 80131.445, -0.0025542607, 0.008895932, -802054.5, 64943.63 
1.885753e+3, 2.215223e+2, -756869.06, -876710.3, 80720.26, -0.005586085, 0.0058784625, -716259.9, 52822.387 
1.8855654e+3, 2.3151258e+2, -680985.4, -805165.9, 80831.35, -0.005235952, 0.014113977, -641149.6, 30028.33 
1.885377e+3, 2.4150229e+2, -592013.4, -707437.8, 83215.62, -0.0041513136, 0.01797299, -548455.94, 24822.863 
1.8851866e+3, 2.5149167e+2, -509532.63, -626008.4, 71719.25, -0.003630107, 0.0013824629, -475383.8, -1.0764397 
1.8849951e+3, 2.614805e+2, -428839.88, -543177.94, 70586.27, -0.004892527, -0.004093055, -395175.44, -17683.344 
1.8848014e+3, 2.7146873e+2, -360772.84, -472367.75, 59048.76, -0.009568956, 0.041885395, -335329.22, -55721.39 
1.8846059e+3, 2.814563e+2, -280728.88, -373367.8, 55494.195, -0.0076253195, 0.050140932, -254763.5, -73034.15 
1.8844074e+3, 2.9144323e+2, -204037.0, -285350.53, 31522.402, 0.0066737365, -0.08691783, -193248.33, -109391.19 
1.8842082e+3, 3.0143112e+2, -137851.83, -211467.78, 42080.246, -0.007717387, -0.0938763, -118752.97, -118752.97 
1.8840115e+3, 3.1142318e+2, -119447.984, -159878.39, 46457.453, -0.028867742, 0.31131053, -88998.12, -88998.12 
1.883809e+3, 3.2140934e+2, -25641.193, 46035.15, -21228.041, 0.0031836184, -0.1447906, 51850.36, 51850.36 
1.8974793e+3, 1.3178763e+2, -1517521.5, -1649269.9, 10115.624, 0.0062744594, 0.026938245, -1516749.3, 131733.17 
1.897279e+3, 1.417826e+2, -1432638.5, -1556845.0, 18724.047, 0.001986648, -0.0063716187, -1429877.3, 120654.45 
1.8970837e+3, 1.5177776e+2, -1351452.4, -1475019.5, 45832.47, -0.0040235883, 0.0038998765, -1336308.6, 116270.45 
1.896891e+3, 1.6177252e+2, -1265814.3, -1385982.0, 48842.137, 0.00016822625, 0.014268945, -1248466.6, 106163.695 
1.8967003e+3, 1.7176662e+2, -1182758.0, -1304903.4, 61372.324, 0.0047812494, 0.018116258, -1157248.8, 99439.586 
1.8965107e+3, 1.8176042e+2, -1091399.4, -1206413.0, 63736.492, 0.0025607925, 0.017563999, -1063061.1, 95687.93 
1.896322e+3, 1.9175407e+2, -1008771.1, -1123320.5, 74033.73, -0.004329178, 0.0052959975, -972443.56, 88367.516 
1.8961345e+3, 2.0174718e+2, -925518.1, -1039892.5, 77895.54, -0.0065789423, -0.0011388303, -886071.5, 76807.05 
1.895947e+3, 2.1173933e+2, -843396.6, -963249.5, 78692.53, -0.0026932177, 0.014391656, -804410.5, 60545.074 
1.8957596e+3, 2.2173108e+2, -750771.1, -863762.75, 78647.07, -0.0010740798, 0.023336861, -710431.3, 56605.33 
1.895571e+3, 2.3172241e+2, -670830.56, -784362.94, 77843.17, -0.0028467819, 0.008954146, -631253.8, 37867.59 
1.8953818e+3, 2.4171306e+2, -589455.5, -702201.75, 80806.97, -0.00481178, 0.00006294762, -547301.0, 23911.965 
1.8951908e+3, 2.5170252e+2, -511904.38, -630886.56, 68950.49, -0.009079557, 0.010572353, -480327.56, -7011.2944 
1.8949984e+3, 2.6169136e+2, -426238.7, -537970.0, 66353.82, -0.010314317, 0.017686922, -395364.5, -19938.898 
1.8948033e+3, 2.7167964e+2, -357154.9, -464743.6, 52473.137, 0.00039091185, 0.015595961, -335800.97, -58260.27 
1.894606e+3, 2.8166702e+2, -290377.72, -393400.84, 49566.758, 0.0063654827, 0.009830645, -270402.88, -90738.68 
1.8944061e+3, 2.9165286e+2, -220802.44, -320906.75, 25896.164, -0.01330143, -0.004933754, -214500.1, -132697.05 
1.8942048e+3, 3.0163983e+2, -124614.96, -184274.75, 31614.137, -0.039634824, 0.012462501, -110979.05, -110979.05 
1.8940057e+3, 3.116316e+2, -101348.99, -117132.96, 35982.8, 0.0023819022, 0.060159788, -72402.875, -72402.875 
1.8938027e+3, 3.21621e+2, -70927.35, -52609.246, 4055.2625, 0.023594342, -0.05077509, -51751.64, -51751.64 
1.9074903e+3, 1.3199136e+2, -1555970.5, -1657623.4, 12492.708, 0.0047537317, 0.016795233, -1554457.8, 92028.09 
1.9072896e+3, 1.419874e+2, -1459523.9, -1561105.0, 20541.078, 0.0033386897, 0.0024637303, -1455527.5, 92997.19 
1.9070937e+3, 1.5198317e+2, -1374732.8, -1479656.5, 46594.71, -0.0021736543, 0.008673839, -1357028.3, 93537.71 
1.9069006e+3, 1.6197851e+2, -1285392.3, -1387350.5, 50005.766, 0.0019980774, 0.014284035, -1264961.0, 87650.664 
1.906709e+3, 1.7197336e+2, -1200345.3, -1304201.6, 65303.07, 0.003501025, 0.013964771, -1168840.6, 85821.6 
1.906519e+3, 1.819679e+2, -1108016.8, -1206918.9, 69468.45, -0.00015949212, 0.012186458, -1072196.0, 84519.71 
1.90633e+3, 1.9196226e+2, -1019412.06, -1120837.0, 76855.89, -0.0034647065, 0.0075954166, -978045.3, 80725.71 
1.9061418e+3, 2.019561e+2, -931475.75, -1033932.1, 79466.46, -0.0038232815, 0.005275867, -888156.4, 72674.81 
1.9059537e+3, 2.1194905e+2, -850646.44, -956228.0, 85786.805, -0.0031860531, 0.012961888, -802708.7, 60191.72 
1.9057657e+3, 2.2194164e+2, -758947.0, -857822.1, 90088.336, -0.0031818359, 0.017302431, -705622.75, 59350.453 
1.9055766e+3, 2.3193389e+2, -671460.56, -773681.9, 86750.35, -0.0027270573, 0.007845522, -621883.94, 45164.902 
1.9053867e+3, 2.4192552e+2, -585467.7, -689839.5, 89289.91, -0.0035424575, 0.0024895319, -534231.9, 34898.97 
1.905195e+3, 2.5191593e+2, -509358.13, -618853.7, 85098.29, -0.009594342, 0.01542699, -462917.78, 8307.116 
1.9050016e+3, 2.619057e+2, -420611.84, -524622.06, 90231.17, -0.011488618, 0.021052705, -368471.88, 4853.5786 
1.9048055e+3, 2.718945e+2, -339124.7, -447393.5, 76211.21, 0.0015750147, -0.0012627826, -299778.16, -24343.338 
1.9046067e+3, 2.8188246e+2, -272561.63, -380424.94, 76597.09, 0.008044456, -0.0075438675, -232814.36, -55261.586 
1.9044048e+3, 2.9186866e+2, -219314.95, -330019.38, 72172.836, -0.02061374, 0.0513596, -183712.31, -104023.83 
1.9042026e+3, 3.0185476e+2, -100347.516, -180079.39, 80068.59, -0.04507389, 0.07525061, -50769.21, -50769.21 
1.9040027e+3, 3.1184235e+2, -28812.875, -107213.945, 42196.32, 0.03866521, -0.14048028, -10418.172, -10418.172 
1.903799e+3, 3.2183212e+2, -11232.444, -61606.6, 6764.6953, 0.00093948195, 0.07999143, -10339.837, -10339.837 
1.9174999e+3, 1.3219546e+2, -1550809.9, -1644482.6, 12660.441, -0.00035952544, -0.0015318971, -1549128.9, 95356.586 
1.9172993e+3, 1.4219277e+2, -1456898.6, -1551543.5, 19644.846, 0.0079840645, 0.024629593, -1452983.0, 93529.02 
1.9171028e+3, 1.5218903e+2, -1372892.5, -1472618.5, 44877.16, 0.002230917, 0.018587451, -1355671.4, 92877.26 
1.916909e+3, 1.6218492e+2, -1280194.9, -1374468.0, 48500.293, 0.004255118, 0.010588395, -1259699.0, 90889.945 
1.916717e+3, 1.7218076e+2, -1192954.0, -1287717.9, 63259.54, -0.00079557596, 0.002379918, -1161299.1, 91330.46 
1.9165266e+3, 1.821762e+2, -1105022.0, -1199811.3, 67919.04, -0.0070820767, 0.00041783336, -1069596.0, 85078.06 
1.9163373e+3, 1.921711e+2, -1017946.75, -1116287.8, 75813.805, -0.00014212253, 0.016945826, -976754.3, 79970.16 
1.9161487e+3, 2.0216566e+2, -924032.6, -1017139.75, 77784.57, 0.00497503, 0.024583861, -879934.75, 78842.91 
1.9159599e+3, 2.1215992e+2, -838877.6, -931502.56, 83305.805, -0.0043658162, 0.0050799036, -789876.4, 70957.52 
1.915771e+3, 2.2215372e+2, -753277.56, -845873.1, 88400.4, -0.010929032, -0.0054374463, -699785.0, 63109.504 
1.9155817e+3, 2.3214686e+2, -667066.0, -763876.1, 85531.336, -0.0046395077, 0.011976096, -617192.56, 47769.234 
1.9153914e+3, 2.4213964e+2, -574858.94, -667454.56, 86992.805, -0.0004974219, 0.023139505, -522611.13, 44421.72 
1.9151989e+3, 2.5213182e+2, -494016.13, -587030.1, 82233.99, -0.0053451555, 0.0148437, -446049.2, 23060.117 
1.9150047e+3, 2.6212332e+2, -410618.22, -503599.84, 89011.16, -0.009555698, 0.0057487157, -356688.03, 14504.426 
1.914808e+3, 2.7211335e+2, -332084.78, -432922.25, 72308.63, -0.007853988, -0.005750592, -294352.6, -21062.352 
1.9146077e+3, 2.8210288e+2, -254913.86, -344172.8, 67063.83, -0.0055411817, 0.00007773609, -218986.86, -43593.66 
1.9144037e+3, 2.9209122e+2, -212279.95, -314176.8, 69917.3, -0.011373784, 0.068497784, -176717.28, -99209.6 
1.9142015e+3, 3.0207676e+2, -131088.55, -242248.52, 85934.68, -0.015249926, 0.08221351, -84326.44, -84326.44 
1.9140032e+3, 3.1205544e+2, -89159.44, -238344.08, 44310.285, 0.0793927, -0.25160295, -76991.08, -76991.08 
1.9137977e+3, 3.2204175e+2, 17634.225, -3655.1538, -7716.6655, -0.09228659, 0.16487671, 20137.02, 20137.02 
1.9275081e+3, 1.3239962e+2, -1583236.0, -1650152.5, 10515.212, 0.0038921984, 0.006958741, -1581622.5, 60862.492 
1.9273074e+3, 1.4239766e+2, -1487176.6, -1556712.6, 17687.768, 0.005860362, 0.01897331, -1482936.0, 61568.227 
1.9271106e+3, 1.5239471e+2, -1398216.3, -1476342.4, 42733.215, 0.000103158745, 0.014062842, -1379382.4, 67150.58 
1.9269165e+3, 1.6239136e+2, -1301587.8, -1376859.1, 46812.32, 0.0036355776, 0.009133153, -1279158.1, 69407.68 
1.9267243e+3, 1.7238802e+2, -1209815.1, -1287109.0, 59643.348, 0.0017828121, 0.008237804, -1177392.3, 73206.34 
1.9265333e+3, 1.823843e+2, -1119126.4, -1196945.5, 63898.805, -0.0037254456, 0.0088911215, -1083222.8, 69412.27 
1.9263436e+3, 1.9238003e+2, -1032876.94, -1112090.0, 74979.33, -0.0016056763, 0.015206571, -987686.25, 66990.766 
1.9261545e+3, 2.0237552e+2, -939370.3, -1013539.3, 79192.625, 0.0017096454, 0.01783773, -889009.25, 67711.88 
1.9259654e+3, 2.123709e+2, -847296.94, -922415.8, 81835.05, -0.0017962701, 0.00756532, -794813.7, 63952.516 
1.9257762e+3, 2.2236593e+2, -758850.5, -834904.44, 85659.305, -0.0060359687, 0.0016877644, -703156.75, 57658.027 
1.925586e+3, 2.323604e+2, -677032.9, -751505.7, 87383.65, -0.007433857, 0.012620858, -619282.7, 43586.496 
1.9253951e+3, 2.4235468e+2, -588174.25, -655065.3, 92843.63, -0.0062775305, 0.02026041, -522935.72, 41989.65 
1.925202e+3, 2.523488e+2, -499779.66, -564794.8, 87619.516, -0.0006877156, 0.013347084, -438831.78, 28150.836 
1.9250073e+3, 2.6234257e+2, -419020.06, -481487.56, 96507.336, -0.0011604899, 0.0050220015, -348818.06, 20225.941 
1.9248089e+3, 2.7233535e+2, -350836.34, -406853.06, 91086.39, -0.016314086, -0.0014776398, -283549.38, -12434.882 
1.9246072e+3, 2.8232816e+2, -265464.7, -305619.3, 97332.22, -0.017061833, 0.005757641, -186160.61, -12975.428 
1.9243996e+3, 2.9232135e+2, -263298.22, -270225.84, 107279.11, -0.00028591906, 0.057351906, -159427.02, -84174.98 
1.937515e+3, 1.3260357e+2, -1578875.5, -1638280.4, 10602.469, 0.01091952, 0.02340495, -1577039.9, 63446.35 
1.9373143e+3, 1.4260218e+2, -1482531.4, -1544393.6, 18210.623, 0.00052357453, 0.0017673876, -1477568.8, 64931.07 
1.9371174e+3, 1.5260018e+2, -1393479.6, -1464354.9, 41859.13, -0.004935179, 0.0039320826, -1374071.9, 70447.38 
1.9369233e+3, 1.625977e+2, -1298638.6, -1368834.9, 46135.848, 0.0021171144, 0.0096675055, -1275767.9, 70775.91 
1.9367309e+3, 1.7259507e+2, -1206893.1, -1278813.6, 58736.918, 0.008117272, 0.023372173, -1173982.8, 74587.06 
1.9365396e+3, 1.8259217e+2, -1112451.9, -1181156.8, 62524.492, 0.0043134154, 0.026746206, -1075464.3, 75133.88 
1.9363493e+3, 1.9258894e+2, -1023044.75, -1091108.6, 72770.01, -0.006826285, 0.004719649, -976742.06, 75887.34 
1.9361597e+3, 2.0258555e+2, -933701.6, -1001588.75, 77774.016, -0.008871091, -0.0043954146, -882786.7, 71876.055 
1.9359705e+3, 2.12582e+2, -842182.75, -910551.6, 80696.375, 0.0040240926, 0.019198604, -788728.8, 67968.78 
1.935781e+3, 2.225783e+2, -748580.7, -812155.4, 83236.76, 0.00704334, 0.029949626, -691268.1, 67465.85 
1.9355898e+3, 2.3257443e+2, -661694.75, -719208.2, 83932.72, -0.011934528, 0.007865973, -601729.1, 59042.44 
1.935398e+3, 2.4257055e+2, -575992.25, -629601.1, 90710.02, -0.018799039, -0.0032852606, -508209.22, 54600.324 
1.9352044e+3, 2.5256687e+2, -483738.78, -531023.8, 85140.63, 0.0048496635, 0.011805749, -419018.97, 45826.65 
1.9350086e+3, 2.625634e+2, -396236.25, -433781.44, 90869.21, 0.010045132, 0.020300444, -322220.78, 44659.086 
1.9348085e+3, 2.7256063e+2, -313907.78, -329865.4, 85354.7, -0.025951175, 0.012458456, -236159.78, 32747.076 
1.9346052e+3, 2.825585e+2, -229718.64, -230328.78, 93553.53, -0.026896764, 0.0070008584, -136469.67, 34457.902 
1.9343917e+3, 2.9255918e+2, -185717.72, -109080.26, 67002.15, 0.009829666, 0.004326744, -70213.42, 2707.5156 
1.9475205e+3, 1.3280672e+2, -1608423.5, -1646792.8, 5772.3154, 0.009001674, 0.017631533, -1607573.9, 30921.643 
1.94732e+3, 1.4280604e+2, -1506632.4, -1548202.4, 12957.709, 0.002017521, 0.0075882906, -1502924.1, 37577.855 
1.9471233e+3, 1.5280482e+2, -1414153.0, -1466040.5, 34214.953, -0.0025380321, 0.010935276, -1397158.0, 45356.082 
1.946929e+3, 1.6280304e+2, -1318258.3, -1370105.8, 38322.38, 0.0036686484, 0.0141052, -1297914.9, 46616.652 
1.9467363e+3, 1.7280108e+2, -1226033.8, -1278589.6, 51411.68, 0.0051910384, 0.016565299, -1194573.6, 51977.27 
1.9465446e+3, 1.8279897e+2, -1130504.6, -1180705.6, 55711.73, 0.00029573988, 0.01597973, -1094500.0, 54071.51 
1.9463542e+3, 1.9279675e+2, -1034587.5, -1085778.8, 63305.81, -0.0047489638, 0.0062267208, -991898.75, 58694.28 
1.9461644e+3, 2.027944e+2, -942416.5, -994164.0, 66644.97, -0.0050836024, 0.002834826, -896799.0, 55817.055 
1.9459747e+3, 2.1279195e+2, -854848.44, -902458.7, 71352.84, -0.0005031656, 0.017704887, -803434.5, 51205.742 
1.9457844e+3, 2.227895e+2, -762975.2, -803655.06, 75071.16, 0.00012694276, 0.024216948, -705537.3, 51127.004 
1.9455929e+3, 2.3278725e+2, -667436.1, -702582.44, 72319.48, -0.00792419, 0.0073214583, -610585.3, 48100.79 
1.9454004e+3, 2.4278511e+2, -580434.9, -612143.9, 76496.06, -0.0109852925, -0.0018509243, -518167.6, 42539.32 
1.9452056e+3, 2.5278342e+2, -496113.5, -512012.06, 69833.945, -0.0007885199, 0.011875677, -433777.88, 28945.67 
1.9450088e+3, 2.6278228e+2, -411304.13, -412545.56, 72188.64, -0.00042575927, 0.021339452, -339733.53, 25001.38 
1.9448073e+3, 2.727826e+2, -314910.6, -291962.44, 55208.96, -0.019227542, 0.017245987, -247047.83, 19683.955 
1.9446027e+3, 2.827838e+2, -234527.1, -196102.5, 50363.754, -0.010616791, 0.0085167, -161411.0, 7308.655 
1.9443868e+3, 2.9278785e+2, -73828.22, -12044.357, -16643.719, -0.00031810894, -0.014474146, -7846.051, 62834.035 
1.9575249e+3, 1.3300908e+2, -1608376.3, -1642659.8, 6670.3574, 0.0039160275, 0.0049006534, -1607124.1, 29388.31 
1.9573249e+3, 1.4300916e+2, -1502425.3, -1539518.9, 15155.128, 0.0066104573, 0.02214328, -1497020.9, 41491.074 
1.9571283e+3, 1.5300857e+2, -1410313.9, -1456568.5, 33841.754, 0.0032020614, 0.02437855, -1392451.8, 48065.883 
1.9569339e+3, 1.6300741e+2, -1313748.5, -1358775.4, 37366.156, 0.005945326, 0.01877631, -1292637.6, 49891.098 
1.9567409e+3, 1.7300613e+2, -1219474.8, -1264590.3, 49573.668, -0.0029707938, -0.0020575672, -1187567.9, 56973.375 
1.9565491e+3, 1.830048e+2, -1126072.0, -1171612.8, 54760.37, -0.009405601, -0.007865478, -1089536.5, 57017.813 
1.9563587e+3, 1.9300355e+2, -1030525.25, -1076156.1, 62474.47, 0.0027634373, 0.017788108, -986830.5, 61736.074 
1.9561687e+3, 2.0300221e+2, -934925.6, -977015.75, 64396.805, 0.006628505, 0.02798896, -888222.3, 62357.477 
1.955978e+3, 2.1300082e+2, -844072.5, -879783.2, 68143.71, -0.013471399, 0.005321207, -791483.7, 61109.453 
1.9557871e+3, 2.2299962e+2, -754607.56, -786401.06, 73274.63, -0.019908592, -0.0043732533, -695525.1, 59079.813 
1.9555955e+3, 2.3299892e+2, -658666.2, -683527.0, 70287.414, 0.0047169817, 0.013416926, -599718.5, 56893.45 
1.9554023e+3, 2.4299845e+2, -568844.4, -586831.3, 72220.914, 0.011162085, 0.022378083, -505059.13, 53557.574 
1.955206e+3, 2.529985e+2, -481566.44, -481493.88, 64251.164, -0.019629072, 0.012658165, -417278.97, 43337.023 
1.9550078e+3, 2.6299915e+2, -398707.2, -386637.28, 68374.23, -0.029391985, 0.0071327393, -324032.2, 38577.273 
1.9548057e+3, 2.7300116e+2, -303350.94, -268362.16, 50113.223, 0.0077657253, 0.010010412, -232777.47, 31812.387 
1.9545996e+3, 2.83004e+2, -224830.4, -176833.16, 44368.684, 0.027746255, 0.012985122, -150388.61, 16173.263 
1.9543847e+3, 2.9300717e+2, -98002.53, -62564.133, 2377.1597, -0.038966056, 0.01674388, -62405.387, 6125.603 
1.9675285e+3, 1.332106e+2, -1627266.8, -1643993.3, 2308.0833, 0.009202187, 0.015352993, -1626954.1, 7583.641 
1.967329e+3, 1.4321108e+2, -1517081.3, -1543500.5, 8794.89, 0.0035987657, 0.01880287, -1514421.3, 22111.807 
1.9671325e+3, 1.5321065e+2, -1428505.8, -1463107.4, 22309.686, 0.0009087203, 0.016215382, -1417574.6, 20962.639 
1.966938e+3, 1.6320986e+2, -1331059.5, -1362293.4, 24735.826, 0.007494771, 0.014593951, -1317423.3, 23121.834 
1.966745e+3, 1.7320931e+2, -1231166.3, -1263541.4, 34544.93, 0.0014504067, 0.014229245, -1209204.3, 33345.98 
1.9665532e+3, 1.8320867e+2, -1135277.6, -1168593.8, 37995.24, -0.005473373, 0.015394356, -1110449.3, 34107.188 
1.9663626e+3, 1.9320805e+2, -1042546.9, -1072341.1, 45767.57, 0.0030482274, 0.023554504, -1009313.0, 37249.63 
1.9661722e+3, 2.0320752e+2, -947254.5, -972220.3, 47467.566, 0.0075231763, 0.024515018, -910655.94, 37911.973 
1.9659811e+3, 2.1320729e+2, -847965.0, -868130.75, 48636.043, -0.00611727, 0.008007362, -808377.7, 42192.176 
1.9657898e+3, 2.2320732e+2, -756177.56, -774016.7, 51857.344, -0.012260827, 0.002190106, -712478.25, 40091.25 
1.9655974e+3, 2.332079e+2, -665784.56, -671922.3, 48253.563, 0.0023096565, 0.020092987, -620502.4, 34061.61 
1.9654036e+3, 2.432088e+2, -575010.3, -573286.8, 49506.22, 0.0061159744, 0.027748063, -524634.9, 31920.336 
1.9652064e+3, 2.5321034e+2, -471683.75, -459482.06, 37590.363, -0.014926702, 0.012081004, -427500.7, 31039.336 
1.9650073e+3, 2.6321247e+2, -380615.8, -362049.56, 37162.56, -0.022542188, 0.0026560742, -333028.22, 27490.793 
1.9648041e+3, 2.7321565e+2, -285478.88, -249870.67, 15375.444, 0.0038750242, 0.008497621, -244150.53, 18337.396 
1.9645973e+3, 2.832194e+2, -185363.23, -151388.83, 6797.458, 0.020303192, 0.015770005, -150079.3, 14371.9795 
1.9643849e+3, 2.9322207e+2, -60330.11, -62354.29, -13312.698, -0.037094407, 0.026963126, -47991.082, 18433.885 
1.9775313e+3, 1.3341102e+2, -1618209.8, -1631062.3, 3948.943, 0.017239263, 0.036303848, -1617093.4, 15480.32 
1.9773327e+3, 1.4341174e+2, -1520194.1, -1543933.9, 7726.0586, -0.0032766077, 0.011782202, -1517901.1, 16665.398 
1.9771363e+3, 1.5341122e+2, -1430028.9, -1464082.4, 19912.656, -0.005959367, 0.0018494048, -1420855.9, 15715.72 
1.9769415e+3, 1.6341062e+2, -1329836.0, -1359265.5, 25239.633, 0.0087223435, 0.009009564, -1315334.9, 23242.77 
1.9767487e+3, 1.7341077e+2, -1230391.6, -1259079.8, 35101.457, 0.012228956, 0.047420833, -1206816.5, 33759.703 
1.976557e+3, 1.834107e+2, -1132801.9, -1159793.3, 37420.79, 0.0039060093, 0.058297005, -1106517.6, 36059.137 
1.9763656e+3, 1.9341046e+2, -1037270.94, -1059288.4, 44381.492, -0.0030519094, 0.019665876, -1002553.2, 42025.813 
1.9761749e+3, 2.0341057e+2, -942633.25, -961572.6, 47092.566, 0.0016128811, 0.0013715482, -904067.7, 42510.145 
1.9759838e+3, 2.1341154e+2, -841946.06, -854707.75, 48154.504, 0.015875526, 0.02011581, -799751.5, 48817.035 
1.9757922e+3, 2.2341274e+2, -748553.75, -757298.2, 49428.016, 0.012751628, 0.02996144, -703304.94, 47251.86 
1.9755985e+3, 2.3341434e+2, -656441.3, -652350.94, 44962.32, -0.0154081695, 0.021916717, -609387.3, 43153.65 
1.9754039e+3, 2.4341635e+2, -566258.25, -555643.1, 48584.816, -0.020196231, 0.014704449, -512076.84, 42444.227 
1.9752073e+3, 2.5341907e+2, -464600.72, -445024.75, 36703.92, 0.014964952, 0.010193402, -416826.13, 39668.37 
1.9750075e+3, 2.634223e+2, -373623.78, -346982.38, 32576.469, 0.015811233, 0.009531726, -325108.38, 33354.445 
1.9748026e+3, 2.7342606e+2, -285115.16, -248077.16, 13848.842, -0.03810173, 0.014443489, -243471.63, 16954.412 
1.9745958e+3, 2.8342983e+2, -186490.39, -153580.05, 11526.829, -0.036140304, 0.014888549, -149944.4, 12444.725 
1.9743873e+3, 2.9343244e+2, -55873.375, -56096.715, 1403.4395, 0.017139358, 0.009738572, -54577.17, 9786.461 
1.9875343e+3, 1.3360815e+2, -1615996.6, -1629729.9, -13838.064, -0.00048052083, 0.001594578, -1607415.1, 23226.799 
1.9873354e+3, 1.4360972e+2, -1534361.0, -1540701.5, -4714.6177, 0.014981667, 0.016463153, -1531849.9, 776.79193 
1.9871394e+3, 1.5361056e+2, -1434718.6, -1454585.9, 10569.214, -0.0026286475, 0.032342657, -1430147.6, 4470.761 
1.9869445e+3, 1.6361058e+2, -1335207.3, -1357098.3, 17227.678, -0.0031450107, 0.025845945, -1325742.0, 10875.971 
1.9867517e+3, 1.7361031e+2, -1243335.4, -1261105.5, 25881.797, 0.0076899775, -0.013587447, -1224856.0, 13764.641 
1.9865596e+3, 1.8361041e+2, -1148953.6, -1162594.4, 28017.666, 0.0019346529, -0.02699248, -1126938.1, 13681.481 
1.986368e+3, 1.9361132e+2, -1047231.75, -1056613.4, 32812.656, -0.020891188, -0.005229093, -1018776.3, 23834.264 
1.986177e+3, 2.0361243e+2, -949671.1, -958231.7, 34509.42, -0.0238336, 0.012037661, -919177.56, 25422.176 
1.985986e+3, 2.1361409e+2, -847354.44, -847586.75, 34397.164, -0.00007706605, 0.026552832, -813073.25, 33510.418 
1.985794e+3, 2.2361611e+2, -751528.7, -746559.44, 33825.402, 0.004468498, 0.023736568, -715127.5, 33436.367 
1.9855997e+3, 2.3361868e+2, -652688.9, -635944.1, 28357.281, -0.022073133, -0.005351222, -614749.06, 35789.348 
1.9854046e+3, 2.4362203e+2, -558964.44, -537819.9, 33619.758, -0.02557074, -0.00862346, -513149.25, 39356.28 
1.9852076e+3, 2.536263e+2, -458242.16, -429728.72, 22918.299, 0.010905436, 0.023617636, -416994.66, 37469.41 
1.9850075e+3, 2.6363063e+2, -360267.97, -331117.88, 17263.746, 0.016080653, 0.036983058, -323099.38, 33322.117 
1.9848025e+3, 2.7363464e+2, -258120.4, -233158.13, 274.98657, -0.0337456, 0.02246875, -233155.1, 25226.896 
1.984596e+3, 2.8363845e+2, -158344.66, -139200.06, 773.94336, -0.034565065, 0.010526251, -139168.83, 21175.75 
1.9843891e+3, 2.936412e+2, -64740.516, -58942.074, -3208.4585, 0.020455735, 0.008665767, -57516.98, 4800.789 
1.9975373e+3, 1.338059e+2, -1617675.4, -1638264.0, 16898.174, 0.0031520745, 0.022407917, -1608182.9, 20521.037 
1.9973373e+3, 1.4380704e+2, -1543453.6, -1539319.0, 16914.508, 0.010268877, 0.030899769, -1524345.9, 6347.0376 
1.9971421e+3, 1.5380803e+2, -1441443.6, -1449634.1, 3174.8125, 0.0069392845, -0.0025311306, -1440357.1, -7673.959 
1.9969477e+3, 1.6380903e+2, -1337924.0, -1354162.6, -7304.0815, 0.0034901237, 0.024029074, -1335122.1, -448.9024 
1.996754e+3, 1.7380975e+2, -1233073.0, -1252377.9, 1766.2548, -0.007855835, 0.04429891, -1232912.8, 3753.4456 
1.9965617e+3, 1.838099e+2, -1132368.6, -1155232.1, 1044.4985, 0.0017697456, 0.01639584, -1132321.0, 6343.6826 
1.9963706e+3, 1.9381092e+2, -1026828.2, -1044326.6, -6214.659, 0.017602568, 0.03574616, -1024845.6, 15809.188 
1.9961794e+3, 2.0381236e+2, -934135.06, -944626.3, -5420.2134, 0.006630594, 0.03654701, -931837.8, 10802.867 
1.9959877e+3, 2.1381411e+2, -843713.1, -835958.6, 4786.228, -0.009257753, -0.020564385, -833676.25, 10947.217 
1.9957955e+3, 2.2381756e+2, -750056.25, -735475.94, 7196.503, -0.007988247, 0.023431238, -732522.25, 14067.446 
1.9956009e+3, 2.3382182e+2, -642100.2, -617467.06, -817.8874, -0.006372993, 0.053626515, -617439.94, 31107.889 
1.9954057e+3, 2.4382609e+2, -551067.9, -519891.88, 715.46967, 0.023387376, 0.010568395, -519875.47, 30630.545 
1.9952078e+3, 2.5383136e+2, -457929.2, -415886.03, -8327.406, -0.011919582, 0.007381802, -414296.72, 38157.88 
1.9950074e+3, 2.6383674e+2, -356101.97, -321715.6, 2425.7527, -0.049640894, 0.015821053, -321545.3, 32856.414 
1.9948037e+3, 2.7384138e+2, -252499.23, -229396.69, -193.68411, 0.02289053, 0.025679097, -229395.06, 26961.23 
1.9945976e+3, 2.8384525e+2, -156360.28, -136540.64, 483.28323, 0.02721668, 0.006474432, -136528.88, 21789.406 
1.9943897e+3, 2.9384825e+2, -65850.52, -60707.12, -1539.4427, -0.049189124, 0.028568462, -60281.57, 7.4880056 
