coord_x,coord_y,stress_xx,stress_yy,tau_xy,velocity_x,velocity_y,stress_1,eps,damage
5.0025797e+0, 3.4909764e+1, -2541640.3, -2601704.8, 87.82252, 0.00015274152, 0.005595837, -2541640.0, 56244.203 
5.002597e+0, 4.490618e+1, -2450916.8, -2519268.5, -25.33958, 0.0002840885, -0.012364025, -2450916.8, 49002.434 
5.0026107e+0, 5.4902375e+1, -2352482.0, -2421356.8, -183.06847, -0.00029518863, -0.0010518586, -2352481.5, 49475.063 
5.002634e+0, 6.4897776e+1, -2263755.0, -2343263.0, -210.36998, -0.00033460086, 0.0032334204, -2263754.5, 40247.305 
5.0026673e+0, 7.489241e+1, -2165063.8, -2245114.5, -167.8655, 0.00019236411, -0.0017459219, -2165063.5, 40990.82 
5.002686e+0, 8.4886384e+1, -2076355.5, -2166820.0, -188.0008, 0.0002754989, -0.002781953, -2076355.1, 31758.162 
5.00269e+0, 9.4879705e+1, -1978239.6, -2068911.3, -116.34731, -0.000104695115, -0.0017495248, -1978239.5, 31939.297 
5.002707e+0, 1.04872346e+2, -1889233.6, -1990112.4, -67.08702, -0.00018669452, -0.0007666507, -1889233.6, 23017.252 
5.00274e+0, 1.1486431e+2, -1790391.1, -1891838.3, -215.85577, 0.000045655877, -0.0018034736, -1790390.8, 23938.863 
5.002755e+0, 1.24855585e+2, -1701956.5, -1814049.8, -325.3362, 0.00008440415, -0.0015113857, -1701955.5, 14459.616 
5.00275e+0, 1.3484617e+2, -1604077.6, -1716209.3, -143.67867, -0.000080756, -0.0018408749, -1604077.4, 14430.144 
5.002766e+0, 1.4483605e+2, -1515000.8, -1637134.4, 7.231173, -0.000085260865, -0.001416925, -1515000.8, 5605.649 
5.002802e+0, 1.5482531e+2, -1416007.5, -1538726.1, -155.74173, 0.00007915397, -0.0023050464, -1416007.3, 6704.4736 
5.002816e+0, 1.6481389e+2, -1327427.0, -1460692.0, -382.74506, 0.000111329915, -0.0017815707, -1327425.9, -2602.1006 
5.002806e+0, 1.7480175e+2, -1229696.1, -1362859.5, -348.562, 0.0000024381561, -0.00193078, -1229695.3, -2752.5715 
5.0028193e+0, 1.8478894e+2, -1141018.3, -1284633.4, -102.85175, -0.00006689992, -0.0013272054, -1141018.1, -11949.962 
5.0028574e+0, 1.9477543e+2, -1041877.9, -1186186.4, 5.5768642, -0.000095478565, -0.0019063441, -1041877.9, -10677.331 
5.002873e+0, 2.0476128e+2, -952750.1, -1107175.6, -211.58707, -0.000001971761, -0.0012344178, -952749.9, -19410.479 
5.002863e+0, 2.1474645e+2, -855125.94, -1009399.3, -391.70068, 0.00022564919, -0.0012897511, -855124.94, -19640.285 
5.002874e+0, 2.2473092e+2, -766618.25, -931596.0, -264.02274, 0.0001515141, -0.00084933825, -766617.9, -28980.998 
5.002908e+0, 2.3471467e+2, -667443.7, -832995.5, -190.22023, -0.00025385525, -0.0022426604, -667443.44, -27647.463 
5.002929e+0, 2.4469775e+2, -578657.94, -755034.6, -222.23299, -0.0002484003, -0.0015113784, -578657.6, -36695.746 
5.002934e+0, 2.5468016e+2, -480514.78, -656838.4, -75.05994, 0.00021733694, -0.00044951437, -480514.75, -36380.25 
5.002946e+0, 2.6466185e+2, -391678.38, -578400.75, 49.49414, 0.0002656108, 0.0005216315, -391678.34, -45364.527 
5.002969e+0, 2.7464285e+2, -292689.6, -479655.22, -59.46151, -0.00015913662, -0.0009017052, -292689.56, -44189.773 
5.0029916e+0, 2.8462315e+2, -204601.13, -403257.38, -118.481514, -0.00019832583, -0.0017221652, -204601.05, -53907.875 
5.0030166e+0, 2.9460263e+2, -105743.62, -304603.3, -73.13016, 0.0002098417, -0.004432703, -105743.586, -52849.668 
5.0030386e+0, 3.045849e+2, -17691.861, -176087.1, -34.887882, 0.00014051564, -0.0022649874, -17691.854, -17691.854 
5.0030583e+0, 3.1456995e+2, -16765.953, -175326.05, -53.259434, -0.0004899926, 0.0034270624, -16765.936, -16765.936 
5.003072e+0, 3.2455942e+2, 47578.15, -42521.313, -118.40504, 0.00030539077, -0.0038807308, 47578.305, 47578.305 
1.5007739e+1, 3.490966e+1, -2541863.0, -2602235.8, 169.4368, 0.00045333483, -0.0058273445, -2541862.5, 56022.62 
1.500779e+1, 4.490633e+1, -2451199.8, -2519878.8, 119.080124, 0.00085835013, 0.004909736, -2451199.5, 48718.34 
1.5007831e+1, 5.49023e+1, -2352780.3, -2421971.0, -36.102093, -0.0008843658, -0.0017801484, -2352780.3, 49177.223 
1.5007903e+1, 6.489762e+1, -2263685.3, -2343097.0, -0.25847122, -0.0010032612, -0.0037244083, -2263685.3, 40317.99 
1.5008003e+1, 7.4892336e+1, -2164994.0, -2244937.3, 43.278816, 0.00057555456, -0.0026359656, -2164994.0, 41060.965 
1.5008059e+1, 8.4886336e+1, -2076229.0, -2166526.8, -132.08366, 0.0008263042, -0.0012784095, -2076228.8, 31884.93 
1.500807e+1, 9.487967e+1, -1978112.0, -2068616.6, -61.77842, -0.00031582563, -0.0016723438, -1978112.0, 32067.111 
1.5008122e+1, 1.04872294e+2, -1889523.0, -1990678.6, 157.61035, -0.00055965636, -0.0014957115, -1889522.8, 22728.604 
1.500822e+1, 1.1486422e+2, -1790689.3, -1892412.1, 12.018301, 0.0001366846, -0.0026633064, -1790689.3, 23641.273 
1.5008263e+1, 1.2485549e+2, -1701637.0, -1813333.1, -341.36392, 0.00025317995, -0.0021914388, -1701635.9, 14780.126 
1.5008253e+1, 1.3484612e+2, -1603748.1, -1715475.5, -162.91603, -0.00024230526, -0.002003202, -1603747.9, 14759.999 
1.5008298e+1, 1.4483602e+2, -1515330.3, -1637729.3, 260.31735, -0.00025647457, -0.0011707859, -1515329.6, 5277.0225 
1.5008406e+1, 1.5482524e+2, -1416352.4, -1539340.9, 102.62872, 0.00023727292, -0.0017577934, -1416352.3, 6360.1973 
1.5008448e+1, 1.648138e+2, -1327382.3, -1460543.1, -444.15103, 0.0003334139, -0.0013185552, -1327380.8, -2556.0137 
1.5008418e+1, 1.7480166e+2, -1229641.1, -1362697.6, -415.39798, 0.000008380502, -0.0019455679, -1229639.8, -2696.3015 
1.5008458e+1, 1.8478888e+2, -1140850.3, -1284200.8, 180.58437, -0.00020414795, -0.0014791633, -1140850.0, -11781.096 
1.5008573e+1, 1.947754e+2, -1041714.4, -1185746.9, 296.80362, -0.00028699424, -0.0018122833, -1041713.75, -10512.843 
1.500862e+1, 2.0476124e+2, -953101.2, -1107802.0, -298.12128, -0.0000063122243, -0.0013578951, -953100.56, -19760.77 
1.5008588e+1, 2.1474636e+2, -855491.94, -1010043.4, -486.45398, 0.0006746465, -0.002132873, -855490.44, -20004.79 
1.5008621e+1, 2.247308e+2, -766522.0, -931330.94, 15.490786, 0.00045520923, -0.0014010733, -766522.0, -28884.014 
1.5008725e+1, 2.347146e+2, -667347.5, -832696.8, 99.76149, -0.0007636092, -0.0013557434, -667347.44, -27550.629 
1.5008786e+1, 2.4469769e+2, -578425.56, -754409.7, -213.88966, -0.00074495253, -0.0012815302, -578425.3, -36462.87 
1.5008801e+1, 2.546801e+2, -480284.75, -656197.4, -75.29539, 0.0006502062, -0.0032110626, -480284.72, -36149.82 
1.500884e+1, 2.6466182e+2, -391904.56, -578767.0, 240.29353, 0.00079814915, -0.0027449615, -391904.28, -45590.06 
1.5008906e+1, 2.7464283e+2, -292941.63, -480045.97, 137.94446, -0.0004780874, -0.0018203664, -292941.53, -44441.266 
1.5008976e+1, 2.846231e+2, -204554.08, -403070.4, 36.574944, -0.0005944139, -0.00091538584, -204554.06, -53860.457 
1.500905e+1, 2.9460263e+2, -105689.93, -304390.9, 79.83755, 0.0006307121, -0.002598618, -105689.9, -52795.758 
1.5009116e+1, 3.0458486e+2, -17718.768, -176146.81, 159.6361, 0.00042364755, -0.0016572126, -17718.607, -17718.607 
1.5009175e+1, 3.145699e+2, -16787.111, -175412.38, 143.17326, -0.0014618909, 0.00021337236, -16786.982, -16786.982 
1.5009215e+1, 3.245594e+2, 48022.855, -41707.816, -245.47984, 0.00090926094, -0.004138525, 48023.527, 48023.527 
2.5012878e+1, 3.4909546e+1, -2542122.3, -2602019.3, -453.2361, 0.00021819769, -0.0076978006, -2542118.8, 55767.5 
2.501298e+1, 4.490627e+1, -2451187.5, -2520092.8, -153.61998, 0.00050520827, 0.0077814097, -2451187.3, 48731.28 
2.501308e+1, 5.490219e+1, -2352411.5, -2421974.5, -120.385956, -0.00044723533, -0.0021080647, -2352411.3, 49547.11 
2.501319e+1, 6.48975e+1, -2263318.8, -2342880.3, -87.65729, -0.0005428847, -0.0049905973, -2263318.8, 40685.66 
2.5013316e+1, 7.489223e+1, -2165321.0, -2245072.5, -98.06483, 0.00026409517, -0.0025210583, -2165321.0, 40735.19 
2.501341e+1, 8.488624e+1, -2076515.0, -2166753.0, -336.4608, 0.0003787428, -0.0007521031, -2076513.8, 31600.99 
2.5013474e+1, 9.4879556e+1, -1977433.1, -2068385.4, -452.7001, -0.00024125742, -0.0017624729, -1977430.9, 32749.36 
2.501356e+1, 1.0487217e+2, -1888960.4, -1990407.3, -296.36984, -0.0003188591, -0.0017426736, -1888959.5, 23293.105 
2.5013673e+1, 1.148641e+2, -1791420.4, -1892771.8, -140.78409, 0.00017114391, -0.0025919531, -1791420.1, 22911.53 
2.501375e+1, 1.2485538e+2, -1702277.3, -1813687.6, -403.33905, 0.00017923558, -0.002043518, -1702275.8, 14141.403 
2.5013787e+1, 1.3484599e+2, -1602794.3, -1715045.1, -610.277, -0.00031960802, -0.0020468624, -1602790.9, 15718.159 
2.501386e+1, 1.448359e+2, -1514411.9, -1637298.6, -389.68063, -0.00028166315, -0.0012890307, -1514410.6, 6197.218 
2.5013974e+1, 1.5482514e+2, -1417338.4, -1539840.4, -203.02832, 0.0003248982, -0.0018321347, -1417338.1, 5375.5 
2.5014043e+1, 1.6481367e+2, -1328376.6, -1461126.9, -430.8167, 0.0004020539, -0.0013266848, -1328375.3, -3549.4 
2.501407e+1, 1.7480154e+2, -1228466.3, -1362233.8, -517.8975, -0.00008794993, -0.0018676352, -1228464.3, -1519.5767 
2.5014135e+1, 1.8478876e+2, -1139616.3, -1283600.1, -291.0216, -0.00026091453, -0.0013852074, -1139615.8, -10545.615 
2.5014246e+1, 1.9477528e+2, -1042965.6, -1186330.3, -331.75098, -0.00008021574, -0.0017883058, -1042964.9, -11762.824 
2.5014317e+1, 2.047611e+2, -954500.06, -1108560.3, -589.83966, 0.00015683532, -0.0014171812, -954497.8, -21156.854 
2.501435e+1, 2.1474624e+2, -854274.7, -1009575.2, -449.7358, 0.00045681794, -0.0022958096, -854273.4, -18786.602 
2.5014412e+1, 2.2473069e+2, -765073.75, -930688.75, -97.56049, 0.00027442002, -0.0014790838, -765073.7, -27434.527 
2.501452e+1, 2.3471448e+2, -668214.3, -833213.56, -174.48029, -0.00044768266, -0.001148305, -668214.1, -28416.143 
2.5014603e+1, 2.4469757e+2, -579688.5, -754968.4, -458.21304, -0.00042154983, -0.0011005588, -579687.3, -37723.684 
2.501467e+1, 2.5467998e+2, -479945.84, -655977.44, -532.9413, 0.0004404692, -0.0034315214, -479944.25, -35808.258 
2.5014746e+1, 2.6466167e+2, -391233.8, -578513.56, -356.30978, 0.0004997527, -0.0030849127, -391233.13, -44917.867 
2.5014845e+1, 2.746427e+2, -293023.53, -480215.44, -283.59326, -0.00035906775, -0.0019640974, -293023.13, -44521.754 
2.501495e+1, 2.84623e+2, -204910.47, -403163.3, -222.22226, -0.0003569447, -0.0008083626, -204910.22, -54215.55 
2.5015065e+1, 2.9460254e+2, -105928.06, -304437.88, -185.91919, 0.0006381904, -0.0021965792, -105927.88, -53032.836 
2.5015178e+1, 3.0458477e+2, -17949.625, -176145.2, -30.006245, 0.00033197767, -0.0016906513, -17949.62, -17949.62 
2.501529e+1, 3.145698e+2, -17063.188, -175476.42, 82.66649, -0.0014967843, -0.0011275499, -17063.145, -17063.145 
2.5015357e+1, 3.2455933e+2, 48295.387, -41511.043, -557.90845, 0.0008342519, -0.0034500095, 48298.85, 48298.85 
3.5017994e+1, 3.4909415e+1, -2541439.5, -2600626.3, -172.10248, -0.0005716544, -0.000112253205, -2541439.0, 56448.754 
3.5018158e+1, 4.4906e+1, -2451119.8, -2519942.5, 90.97849, -0.00078639697, -0.0037785713, -2451119.5, 48801.434 
3.5018352e+1, 5.4902047e+1, -2352355.0, -2421836.8, 123.298485, 0.0009937607, -0.0020452188, -2352354.8, 49605.105 
3.5018504e+1, 6.48974e+1, -2263340.3, -2342921.8, -55.1901, 0.0010236788, -0.00060395774, -2263340.3, 40665.168 
3.501861e+1, 7.489209e+1, -2165347.5, -2245108.8, -67.68124, -0.0007474879, -0.0013986204, -2165347.5, 40709.836 
3.5018745e+1, 8.488607e+1, -2076747.9, -2167182.3, -40.582073, -0.0010726649, -0.0012051681, -2076747.9, 31368.535 
3.5018906e+1, 9.4879365e+1, -1977676.5, -2068815.5, -152.81746, 0.00010596751, -0.002016119, -1977676.3, 32505.877 
3.5019028e+1, 1.0487199e+2, -1888686.9, -1989812.0, -396.35715, 0.00052237726, -0.0015157163, -1888685.4, 23569.06 
3.50191e+1, 1.1486397e+2, -1791148.6, -1892151.0, -245.51865, 0.0001369763, -0.0015888364, -1791148.0, 23184.973 
3.501921e+1, 1.24855235e+2, -1702673.5, -1814447.0, -20.312489, -0.00014670703, -0.0010752529, -1702673.5, 13745.118 
3.5019356e+1, 1.348458e+2, -1603195.8, -1715835.8, -218.65257, -0.00032874712, -0.0019657544, -1603195.4, 15315.723 
3.5019454e+1, 1.448357e+2, -1514111.4, -1636579.4, -612.3417, -0.00017746272, -0.0017705554, -1514108.4, 6501.649 
3.5019505e+1, 1.5482497e+2, -1417010.5, -1539106.4, -435.65265, 0.00033169557, -0.0025215498, -1417009.0, 5706.2373 
3.5019606e+1, 1.6481352e+2, -1328549.5, -1461395.9, 44.81901, 0.00029997953, -0.0018078547, -1328549.5, -3722.1743 
3.501976e+1, 1.7480138e+2, -1228640.3, -1362539.6, -28.30345, -0.00030047566, -0.0016885322, -1228640.3, -1693.9694 
3.501985e+1, 1.8478857e+2, -1139742.4, -1283753.5, -620.654, -0.00025031855, -0.0010507818, -1139739.6, -10667.802 
3.5019878e+1, 1.9477509e+2, -1043075.5, -1186485.9, -678.0059, 0.0005062255, -0.001835579, -1043072.3, -11868.322 
3.5019973e+1, 2.0476092e+2, -954264.06, -1107966.6, -38.269646, 0.00046904426, -0.0014168099, -954264.06, -20921.275 
3.5020143e+1, 2.1474609e+2, -854051.56, -1008954.6, 123.283424, -0.00043747452, -0.001779652, -854051.5, -18563.316 
3.5020247e+1, 2.2473057e+2, -765248.4, -930980.0, -390.40823, -0.0004063399, -0.0010982484, -765247.44, -27606.984 
3.5020292e+1, 2.3471431e+2, -668406.1, -833510.9, -489.9355, 0.0006679586, -0.0016071702, -668404.7, -28605.111 
3.502038e+1, 2.446974e+2, -579857.0, -755186.44, -66.56721, 0.000704489, -0.0009766114, -579856.94, -37891.594 
3.502054e+1, 2.546798e+2, -480128.7, -656186.25, -119.21139, -0.0004325313, -0.0011189303, -480128.6, -35990.88 
3.5020673e+1, 2.6466152e+2, -391129.4, -578257.56, -348.5688, -0.00064918475, -0.0005162352, -391128.75, -44811.758 
3.5020784e+1, 2.7464253e+2, -292934.56, -479912.5, -289.1194, 0.00018057504, -0.0013273726, -292934.1, -44431.023 
3.5020915e+1, 2.846228e+2, -204843.83, -402999.44, -49.929173, 0.0004916478, -0.0014047532, -204843.81, -54147.473 
3.5021064e+1, 2.9460236e+2, -105866.086, -304277.2, -7.2583227, 0.0002097958, -0.003209627, -105866.086, -52969.426 
3.5021225e+1, 3.0458465e+2, -17761.041, -175710.06, 145.49243, -0.00015937322, -0.0023517595, -17760.906, -17760.906 
3.5021392e+1, 3.145697e+2, -16896.031, -174997.98, 257.37674, -0.00062675367, -0.0005524966, -16895.611, -16895.611 
3.50215e+1, 3.2455924e+2, 47979.33, -42062.563, -341.7864, 0.00005704702, -0.0017889144, 47980.625, 47980.625 
4.5023143e+1, 3.4909236e+1, -2541024.5, -2600916.3, 16.017366, -0.00032487357, 0.002961071, -2541024.5, 56864.96 
4.5023364e+1, 4.4905722e+1, -2450774.3, -2519655.0, -312.4648, -0.00077682186, -0.008536697, -2450773.0, 49150.832 
4.5023602e+1, 5.490183e+1, -2352568.8, -2421847.5, -272.21448, 0.000864307, -0.0016323316, -2352567.5, 49394.348 
4.5023796e+1, 6.4897203e+1, -2263592.3, -2343129.3, -497.7044, 0.0008898301, 0.0014274863, -2263589.0, 40418.22 
4.5023942e+1, 7.489187e+1, -2164744.3, -2244913.8, -556.3221, -0.0007459258, -0.0014210378, -2164740.3, 41319.285 
4.5024112e+1, 8.4885836e+1, -2076213.5, -2166931.3, -431.7959, -0.0009836972, -0.0019248407, -2076211.4, 31907.256 
4.5024315e+1, 9.4879127e+1, -1978315.1, -2069126.5, -316.7042, 0.0002284671, -0.0020084153, -1978314.0, 31870.396 
4.5024467e+1, 1.0487176e+2, -1889161.6, -1990052.1, -646.10596, 0.0005258801, -0.0012581624, -1889157.5, 23099.133 
4.5024568e+1, 1.1486373e+2, -1790048.1, -1891626.1, -808.2665, -0.00013776809, -0.0015799357, -1790041.8, 24293.563 
4.5024705e+1, 1.24855e+2, -1701796.9, -1814035.8, -531.833, -0.00030243304, -0.001132735, -1701794.4, 14626.515 
4.5024887e+1, 1.3484555e+2, -1604406.0, -1716440.8, -342.46072, 0.00005421535, -0.0018952388, -1604404.9, 14108.491 
4.5025018e+1, 1.4483546e+2, -1515149.3, -1637130.5, -746.29584, 0.00014926858, -0.0016644475, -1515144.8, 5467.646 
4.5025086e+1, 1.5482472e+2, -1415519.9, -1538390.1, -955.6773, -0.000025058476, -0.0024809036, -1415512.5, 7205.106 
4.5025212e+1, 1.6481328e+2, -1327127.3, -1460634.1, -575.6972, -0.000085124055, -0.0018019392, -1327124.8, -2295.1045 
4.50254e+1, 1.7480114e+2, -1230297.0, -1363265.9, -432.94064, -0.000021188356, -0.0016828565, -1230295.5, -3346.924 
4.5025516e+1, 1.8478833e+2, -1141447.0, -1284682.9, -890.0813, 0.00016477933, -0.00111407, -1141441.5, -12367.311 
4.5025566e+1, 1.9477484e+2, -1041330.2, -1185713.1, -924.6838, 0.0004883714, -0.0020396158, -1041324.25, -10117.873 
4.5025685e+1, 2.0476069e+2, -952303.5, -1106935.8, -387.4006, 0.0002661736, -0.0014954347, -952302.5, -18957.328 
4.5025882e+1, 2.1474585e+2, -855731.9, -1009695.56, -459.44122, -0.00054858427, -0.00143838, -855730.5, -20240.033 
4.502602e+1, 2.2473033e+2, -767358.06, -931962.7, -998.96265, -0.0003670094, -0.00083541736, -767352.0, -29709.33 
4.5026094e+1, 2.3471408e+2, -667262.8, -832915.06, -911.4453, 0.0009111868, -0.001973588, -667257.8, -27455.969 
4.5026216e+1, 2.4469715e+2, -578162.25, -754454.1, -353.726, 0.00087114226, -0.0013329026, -578161.56, -36193.87 
4.5026395e+1, 2.5467956e+2, -480712.03, -656599.4, -346.30237, -0.00064566324, -0.0007416143, -480711.38, -36571.293 
4.5026562e+1, 2.6466128e+2, -392319.4, -578644.94, -538.6417, -0.00086175994, 0.000050270573, -392317.84, -45998.535 
4.502671e+1, 2.746423e+2, -293069.1, -479820.47, -502.91058, 0.0003861358, -0.0011952913, -293067.75, -44562.47 
4.5026878e+1, 2.8462258e+2, -204658.69, -402940.56, -298.9637, 0.0006662599, -0.0015182177, -204658.23, -53959.734 
4.5027065e+1, 2.9460216e+2, -105919.88, -304313.9, -357.40466, -0.00018891848, -0.0033484395, -105919.24, -53020.395 
4.5027268e+1, 3.0458444e+2, -17861.078, -175507.89, -288.57968, -0.0001919832, -0.0021885473, -17860.55, -17860.55 
4.5027488e+1, 3.1456953e+2, -17277.967, -174887.33, -229.4759, 0.0008030208, 0.0003255993, -17277.633, -17277.633 
4.502765e+1, 3.2455906e+2, 48090.94, -42248.12, -453.62613, -0.0011518967, -0.0022641679, 48093.22, 48093.22 
5.502833e+1, 3.4909004e+1, -2542358.3, -2603537.0, 215.7747, 0.00091139757, 0.0016060891, -2542357.5, 55534.195 
5.5028594e+1, 4.4905436e+1, -2450734.0, -2519498.3, -216.03873, 0.0005039481, -0.0064896652, -2450733.3, 49193.27 
5.5028826e+1, 5.4901546e+1, -2352501.5, -2421663.3, -176.03355, -0.00085311645, -0.0008686797, -2352501.3, 49463.62 
5.502906e+1, 6.4896905e+1, -2263686.0, -2343360.8, -252.15898, -0.000961266, 0.001132967, -2263685.0, 40325.098 
5.50293e+1, 7.4891543e+1, -2164843.8, -2245146.8, -308.16412, 0.00024401148, -0.0025762557, -2164842.5, 41220.27 
5.502951e+1, 8.488552e+1, -2075995.9, -2166503.3, -429.0724, 0.00061511475, -0.0029067982, -2075993.8, 32127.957 
5.5029696e+1, 9.487886e+1, -1978092.0, -2068690.1, -316.59433, 0.000102771155, -0.0017460259, -1978090.9, 32096.127 
5.502988e+1, 1.0487148e+2, -1889473.1, -1990650.3, -352.13538, -0.00032748375, -0.00096956413, -1889471.9, 22787.4 
5.5030066e+1, 1.148634e+2, -1790373.0, -1892236.9, -509.0494, -0.00067157485, -0.0025551762, -1790370.5, 23967.994 
5.503023e+1, 1.2485467e+2, -1701462.0, -1813331.5, -671.3416, -0.0003133622, -0.0022052552, -1701458.0, 14966.081 
5.503038e+1, 1.3484529e+2, -1604051.1, -1715720.6, -488.42117, 0.0007902592, -0.0018294766, -1604048.9, 14467.108 
5.503054e+1, 1.448352e+2, -1515519.3, -1637902.5, -332.95737, 0.0006686341, -0.0009729722, -1515518.3, 5096.638 
5.5030715e+1, 1.548244e+2, -1415897.3, -1539202.6, -531.3926, -0.00076428225, -0.0017137295, -1415895.0, 6825.732 
5.503086e+1, 1.6481295e+2, -1326899.9, -1460122.0, -864.9134, -0.00078391033, -0.0013080774, -1326894.3, -2061.3506 
5.503098e+1, 1.7480084e+2, -1230039.0, -1362734.3, -735.9629, 0.000723322, -0.0018487023, -1230034.9, -3083.3472 
5.5031127e+1, 1.8478803e+2, -1141461.9, -1284779.8, -360.12082, 0.00096502487, -0.0015728894, -1141460.9, -12383.935 
5.503131e+1, 1.9477455e+2, -1041357.5, -1185833.1, -376.39642, -0.00016478376, -0.0023973135, -1041356.5, -10147.22 
5.503146e+1, 2.0476037e+2, -952477.6, -1107261.6, -736.1727, -0.0004834137, -0.0016491179, -952474.1, -19125.945 
5.503157e+1, 2.1474554e+2, -855895.94, -1010023.06, -828.5261, 0.000096281845, -0.0012721497, -855891.5, -20397.836 
5.503173e+1, 2.2473e+2, -767159.9, -931592.2, -495.84732, 0.00035307446, -0.00069114316, -767158.4, -29512.514 
5.503192e+1, 2.3471378e+2, -667059.5, -832536.44, -384.82065, 0.00025337996, -0.0022473042, -667058.6, -27253.797 
5.503209e+1, 2.4469687e+2, -578147.56, -754498.44, -517.0926, 0.000062162166, -0.0021631094, -578146.06, -36175.547 
5.5032235e+1, 2.5467926e+2, -480719.6, -656629.75, -529.51355, -0.00024407178, -0.0022826, -480718.0, -36575.004 
5.503242e+1, 2.6466098e+2, -392210.25, -578500.56, -294.13074, -0.00020286025, -0.0013718671, -392209.78, -45887.582 
5.503263e+1, 2.7464202e+2, -292976.03, -479651.8, -243.91232, 0.00023928983, -0.0015611573, -292975.72, -44467.77 
5.5032843e+1, 2.846223e+2, -204800.47, -403133.28, -171.94551, 0.00013757824, -0.0011539957, -204800.33, -54099.203 
5.5033064e+1, 2.9460186e+2, -106070.53, -304522.03, -235.33377, -0.0005938975, -0.0026272947, -106070.25, -53168.633 
5.50333e+1, 3.0458418e+2, -17771.463, -175265.45, -181.32652, 0.00019664221, -0.0012203311, -17771.254, -17771.254 
5.503357e+1, 3.1456923e+2, -17187.299, -174616.2, -122.34745, 0.0027886548, 0.0014202616, -17187.203, -17187.203 
5.5033803e+1, 3.2455873e+2, 48036.395, -42373.363, 290.04456, -0.0028200543, -0.004874537, 48037.324, 48037.324 
6.50335e+1, 3.4908658e+1, -2542325.5, -2603459.0, -294.9796, 0.0011291323, -0.0011887065, -2542324.0, 55571.117 
6.503381e+1, 4.4905162e+1, -2450556.8, -2519491.5, -189.1228, 0.00067719404, -0.0021347792, -2450556.3, 49372.97 
6.503408e+1, 5.490121e+1, -2352003.5, -2421514.3, -298.08243, -0.001105262, -0.0011146683, -2352002.3, 49965.734 
6.5034354e+1, 6.4896554e+1, -2263304.8, -2343198.0, -372.82922, -0.0011995133, -0.00066206534, -2263303.0, 40710.65 
6.5034646e+1, 7.4891204e+1, -2165068.0, -2245276.3, -343.9344, 0.0004694998, -0.002729352, -2165066.8, 40999.42 
6.5034896e+1, 8.4885186e+1, -2076102.3, -2166519.8, -591.63495, 0.00087051495, -0.0023809164, -2076098.4, 32026.668 
6.503511e+1, 9.4878525e+1, -1977376.1, -2068300.1, -700.2263, -0.00005969794, -0.001547793, -1977370.8, 32819.56 
6.5035325e+1, 1.0487114e+2, -1888992.5, -1990532.3, -700.44086, -0.00051650533, -0.0010106709, -1888987.6, 23275.014 
6.5035546e+1, 1.14863046e+2, -1791134.6, -1892741.0, -615.2183, -0.000471224, -0.002743627, -1791131.0, 23211.037 
6.503574e+1, 1.2485431e+2, -1701940.8, -1813509.3, -871.7859, -0.00012177452, -0.002402116, -1701934.0, 14493.645 
6.503591e+1, 1.3484494e+2, -1602797.9, -1715054.3, -1022.3739, 0.0005457966, -0.0018891824, -1602788.5, 15730.991 
6.50361e+1, 1.4483485e+2, -1514573.1, -1637463.3, -814.91125, 0.0004367417, -0.00094604434, -1514567.6, 6050.687 
6.503631e+1, 1.5482405e+2, -1417281.5, -1539892.8, -640.77185, -0.00049562386, -0.0016556699, -1417278.1, 5446.103 
6.5036476e+1, 1.648126e+2, -1328134.0, -1460739.4, -984.4365, -0.0004560856, -0.001322734, -1328126.8, -3290.2114 
6.5036607e+1, 1.7480047e+2, -1228519.9, -1362013.8, -1142.5083, 0.0006275639, -0.0020449434, -1228510.1, -1554.961 
6.503678e+1, 1.8478769e+2, -1139923.5, -1283936.6, -773.8639, 0.00072310976, -0.0016420914, -1139919.4, -10838.809 
6.5037e+1, 1.947742e+2, -1042856.2, -1186465.8, -695.1698, -0.0002526912, -0.0020024676, -1042852.8, -11640.114 
6.503718e+1, 2.0476003e+2, -954226.3, -1108197.6, -1085.8636, -0.00038754335, -0.0013779274, -954218.7, -20867.064 
6.50373e+1, 2.1474516e+2, -854742.4, -1009532.1, -1057.1287, 0.0004117334, -0.0017638325, -854735.2, -19237.941 
6.5037477e+1, 2.2472963e+2, -765593.1, -930764.1, -552.20575, 0.0005429696, -0.0011669783, -765591.25, -27941.795 
6.503773e+1, 2.3471342e+2, -668001.5, -832887.2, -605.19885, -0.00007102441, -0.0018452854, -667999.25, -28191.008 
6.5037924e+1, 2.4469651e+2, -579630.5, -755120.9, -972.0361, -0.00027675956, -0.001696184, -579625.1, -37651.184 
6.5038085e+1, 2.5467893e+2, -480633.88, -656480.8, -930.3601, -0.00002287484, -0.0026529576, -480628.97, -36482.555 
6.5038294e+1, 2.6466066e+2, -391641.25, -578247.4, -568.56354, 0.00012816119, -0.0019479193, -391639.5, -45313.9 
6.5038544e+1, 2.746417e+2, -293002.8, -479694.34, -644.0358, 0.00015243108, -0.0016270435, -293000.6, -44489.234 
6.50388e+1, 2.8462198e+2, -205028.13, -403232.47, -622.44464, -0.000106802676, -0.00096576475, -205026.17, -54321.64 
6.5039057e+1, 2.946015e+2, -106246.125, -304572.72, -543.1257, -0.0006967788, -0.002483909, -106244.63, -53339.633 
6.503933e+1, 3.045838e+2, -18088.947, -175512.92, -542.4604, 0.00025857825, -0.00111266, -18087.078, -18087.078 
6.5039617e+1, 3.1456888e+2, -17598.516, -174976.3, -695.17694, 0.0030507823, 0.0014939555, -17595.443, -17595.443 
6.503996e+1, 3.245584e+2, 47971.844, -42060.395, 441.81375, -0.0029081893, -0.004500141, 47974.01, 47974.01 
7.5038666e+1, 3.4908196e+1, -2540962.5, -2600681.3, -48.114536, 0.00030594962, -0.0053727203, -2540962.5, 56937.156 
7.503903e+1, 4.490489e+1, -2450755.5, -2519842.3, -16.197695, -0.00024273088, 0.004536058, -2450755.5, 49176.41 
7.503937e+1, 5.490084e+1, -2352220.8, -2421899.8, -123.27908, 0.00006436082, -0.0023577232, -2352220.5, 49751.113 
7.503968e+1, 6.489615e+1, -2263246.3, -2343096.0, -280.92065, 0.00012738476, -0.0039366917, -2263245.3, 40772.387 
7.5039977e+1, 7.4890846e+1, -2165004.8, -2245168.0, -252.15372, -0.000071830924, -0.0018952416, -2165004.0, 41065.543 
7.504027e+1, 8.4884834e+1, -2076293.3, -2166949.0, -383.25705, -0.00021138974, -0.0003643027, -2076291.6, 31836.838 
7.5040543e+1, 9.487812e+1, -1977572.3, -2068739.0, -489.2888, -0.00029003486, -0.0014105446, -1977569.6, 32624.72 
7.504079e+1, 1.0487073e+2, -1888864.3, -1990194.5, -721.05664, -0.00007793832, -0.0013732131, -1888859.1, 23407.68 
7.504101e+1, 1.1486267e+2, -1790995.0, -1892393.5, -638.19324, 0.00043616167, -0.0021549666, -1790991.0, 23354.672 
7.5041234e+1, 1.2485392e+2, -1702215.6, -1814079.8, -578.3136, 0.00024053341, -0.0017358513, -1702212.6, 14218.807 
7.504147e+1, 1.348445e+2, -1603088.8, -1715637.6, -722.709, -0.0006955979, -0.0020757385, -1603084.1, 15439.699 
7.504168e+1, 1.4483441e+2, -1514253.8, -1636835.5, -982.93225, -0.0005509112, -0.0015732821, -1514245.9, 6376.8423 
7.504186e+1, 1.5482366e+2, -1416948.9, -1539236.5, -816.96136, 0.00073959446, -0.0022944822, -1416943.4, 5784.6826 
7.5042063e+1, 1.648122e+2, -1328408.6, -1461298.6, -589.7807, 0.00084708503, -0.0018302352, -1328406.1, -3565.8105 
7.5042284e+1, 1.7480007e+2, -1228813.4, -1362601.4, -735.2217, -0.00031150336, -0.002273228, -1228809.4, -1850.0381 
7.504248e+1, 1.8478724e+2, -1139795.3, -1283698.3, -997.26575, -0.00056075316, -0.0013260567, -1139788.4, -10703.596 
7.5042653e+1, 1.947738e+2, -1042711.56, -1186203.8, -931.73254, 0.00018451265, -0.00086205255, -1042705.56, -11488.857 
7.5042856e+1, 2.0475963e+2, -954163.4, -1108025.4, -716.5678, 0.00051540154, -0.0006838225, -954160.0, -20804.547 
7.504306e+1, 2.1474476e+2, -854684.4, -1009369.94, -672.9496, 0.00039116264, -0.0029054806, -854681.44, -19180.275 
7.504328e+1, 2.2472924e+2, -765710.7, -931025.7, -658.0941, 0.00018844502, -0.0022515552, -765708.06, -28054.627 
7.5043494e+1, 2.3471303e+2, -668119.0, -833158.44, -723.2858, -0.00010193752, -0.0007844484, -668115.8, -28303.625 
7.5043714e+1, 2.4469613e+2, -579491.1, -754969.8, -757.8897, -0.00016940296, 0.000049279486, -579487.9, -37510.016 
7.504393e+1, 2.5467852e+2, -480494.53, -656307.5, -705.9349, -0.0000029265711, -0.0018693439, -480491.7, -36341.42 
7.504418e+1, 2.6466024e+2, -391768.1, -578582.2, -460.6272, 0.000090568305, -0.0016889364, -391766.97, -45437.43 
7.5044465e+1, 2.7464128e+2, -293140.22, -480048.66, -539.231, 0.00010528159, -0.0013958429, -293138.66, -44623.145 
7.504475e+1, 2.8462154e+2, -204882.19, -402936.53, -485.41183, -0.000090292, -0.0009494997, -204881.0, -54172.29 
7.5045043e+1, 2.946011e+2, -106089.49, -304244.5, -405.83304, -0.00054570945, -0.0029048997, -106088.664, -53179.67 
7.504534e+1, 3.045834e+2, -18339.992, -176029.73, -468.71613, -0.000049744274, -0.0018375005, -18338.6, -18338.6 
7.5045645e+1, 3.1456843e+2, -17896.06, -175496.8, -622.62585, 0.0015964734, 0.0006200109, -17893.602, -17893.602 
7.5046134e+1, 3.2455802e+2, 48411.36, -41074.74, 1272.8914, -0.0015185357, -0.0012214773, 48429.46, 48429.46 
8.504385e+1, 3.4907767e+1, -2540523.8, -2600064.3, -16.73103, 0.000017220118, -0.0038900857, -2540523.8, 57380.055 
8.504426e+1, 4.490444e+1, -2450829.8, -2520057.0, -518.18494, -0.0005021031, 0.0023231725, -2450825.8, 49110.473 
8.5044646e+1, 5.4900396e+1, -2352240.3, -2422064.0, -516.2291, 0.00048383046, -0.0023329863, -2352236.5, 49739.496 
8.5045016e+1, 6.4895713e+1, -2262990.8, -2342960.0, -692.44794, 0.000557765, -0.0030493308, -2262984.8, 41037.188 
8.504533e+1, 7.4890405e+1, -2164404.8, -2244859.3, -722.9788, -0.0003408544, -0.0015935958, -2164398.3, 41675.684 
8.5045654e+1, 8.4884375e+1, -2075967.0, -2166879.3, -843.1121, -0.00060586265, -0.0004581745, -2075959.1, 32173.82 
8.504597e+1, 9.4877654e+1, -1978026.8, -2069048.4, -809.8613, -0.00020956609, -0.0017049146, -1978019.6, 32179.29 
8.504625e+1, 1.0487026e+2, -1888991.9, -1990224.0, -1009.2266, 0.0001802512, -0.0015220642, -1888981.8, 23289.52 
8.50465e+1, 1.1486221e+2, -1789961.3, -1891841.5, -1043.4418, 0.0005703644, -0.0017909779, -1789950.6, 24399.584 
8.504675e+1, 1.2485347e+2, -1701551.6, -1813881.3, -991.74493, 0.00024413722, -0.0013085868, -1701542.9, 14893.062 
8.504701e+1, 1.3484402e+2, -1604104.3, -1716273.3, -932.30316, -0.0008466697, -0.0020550084, -1604096.5, 14431.936 
8.504724e+1, 1.4483392e+2, -1515049.4, -1637126.9, -1217.6835, -0.00065017294, -0.0017260967, -1515037.1, 5590.1606 
8.5047454e+1, 1.5482318e+2, -1415706.1, -1538549.0, -1339.6224, 0.0009225737, -0.0023673517, -1415691.5, 7041.1787 
8.5047674e+1, 1.6481173e+2, -1327283.3, -1460791.3, -1109.3549, 0.0010301525, -0.0017898516, -1327274.0, -2429.1902 
8.504793e+1, 1.7479959e+2, -1229919.4, -1363197.9, -996.53143, -0.00043555218, -0.0020811616, -1229912.0, -2948.0295 
8.504814e+1, 1.8478677e+2, -1141078.9, -1284276.0, -1273.7322, -0.0007122447, -0.0012664393, -1141067.5, -11978.085 
8.5048324e+1, 1.9477332e+2, -1042013.4, -1185842.0, -1328.9202, 0.00030346584, -0.0012394782, -1042001.06, -10779.738 
8.5048544e+1, 2.0475915e+2, -953119.3, -1107475.0, -1024.3347, 0.0006634504, -0.0009666006, -953112.5, -19752.424 
8.504881e+1, 2.1474431e+2, -855072.8, -1009527.56, -1023.29944, 0.0003052098, -0.0025113134, -855066.06, -19560.365 
8.504905e+1, 2.2472878e+2, -766623.75, -931437.4, -1197.4297, 0.000059271577, -0.0018441644, -766615.06, -28957.121 
8.5049266e+1, 2.3471256e+2, -668377.3, -833299.0, -1139.712, -0.00006647919, -0.0010876277, -668369.44, -28552.668 
8.504951e+1, 2.4469566e+2, -579369.94, -754830.7, -872.5492, -0.00005750505, -0.00030789146, -579365.56, -37383.164 
8.504979e+1, 2.5467807e+2, -480137.25, -656070.4, -918.33685, 0.00009861761, -0.0015454328, -480132.47, -35977.69 
8.505007e+1, 2.646598e+2, -391656.22, -578507.25, -901.32837, 0.000015079279, -0.0012022329, -391651.88, -45317.836 
8.5050356e+1, 2.746408e+2, -293793.0, -480374.8, -835.8589, -0.0003429245, -0.0013323349, -293789.25, -45269.164 
8.505067e+1, 2.8462106e+2, -205590.94, -403255.66, -545.3115, -0.00019670208, -0.0010890447, -205589.44, -54876.133 
8.505105e+1, 2.9460064e+2, -105966.234, -304206.3, -630.08826, 0.0005202432, -0.0029787477, -105964.234, -53050.664 
8.505138e+1, 3.0458292e+2, -17925.031, -176053.13, -888.8024, 0.0001882322, -0.0019307651, -17920.035, -17920.035 
8.505167e+1, 3.1456792e+2, -17487.646, -175569.22, -915.6971, -0.0013346268, 0.00043409664, -17482.342, -17482.342 
8.505225e+1, 3.245575e+2, 47069.336, -41618.527, 1079.0056, 0.0002921714, -0.0006030979, 47082.46, 47082.46 
9.5049024e+1, 3.490738e+1, -2541352.5, -2601770.8, 112.643166, 0.00020686664, 0.0031404006, -2541352.3, 56555.39 
9.5049495e+1, 4.4903812e+1, -2450823.5, -2520025.3, -325.67963, -0.00011990997, -0.008679979, -2450821.8, 49120.64 
9.504993e+1, 5.4899895e+1, -2352232.5, -2422019.8, -321.8885, 0.00013697245, -0.0010713633, -2352231.0, 49749.97 
9.505034e+1, 6.489524e+1, -2263043.8, -2343078.8, -510.6932, 0.00007186524, 0.0019216624, -2263040.5, 40986.164 
9.505072e+1, 7.488987e+1, -2164457.5, -2244983.0, -540.7588, -0.00035380325, -0.0018159872, -2164454.0, 41625.203 
9.505106e+1, 8.4883827e+1, -2075907.0, -2166758.5, -830.0896, -0.00034134148, -0.002626409, -2075899.4, 32238.967 
9.505138e+1, 9.487713e+1, -1977959.6, -2068924.0, -798.60675, 0.00014143581, -0.00241896, -1977952.6, 32251.418 
9.5051694e+1, 1.04869746e+2, -1889072.8, -1990334.8, -735.8602, 0.00024144517, -0.0014563954, -1889067.4, 23208.967 
9.5052016e+1, 1.1486169e+2, -1790044.1, -1891967.1, -765.7925, -0.000068284004, -0.0016516119, -1790038.4, 24316.982 
9.505229e+1, 1.2485294e+2, -1701459.4, -1813661.4, -1121.6754, -0.00013773216, -0.0011128391, -1701448.3, 14992.827 
9.505253e+1, 1.3484353e+2, -1603996.3, -1716047.1, -1067.6544, 0.000049082675, -0.0018336646, -1603986.1, 14547.328 
9.505278e+1, 1.4483342e+2, -1515241.0, -1637602.1, -879.78064, 0.00011190554, -0.0014111673, -1515234.6, 5397.741 
9.505307e+1, 1.5482263e+2, -1415914.0, -1539039.5, -992.58496, 0.000044721153, -0.0018846118, -1415906.0, 6832.0415 
9.505332e+1, 1.648112e+2, -1327079.8, -1460399.4, -1271.2291, 0.00007855624, -0.001209905, -1327067.6, -2217.4287 
9.505354e+1, 1.7479907e+2, -1229699.0, -1362786.9, -1167.9204, 0.00023049673, -0.0014811052, -1229688.8, -2719.7913 
9.5053774e+1, 1.8478628e+2, -1141145.1, -1284467.0, -1012.8074, 0.00023418973, -0.0014576605, -1141138.0, -12043.496 
9.505402e+1, 1.9477277e+2, -1042105.9, -1186032.5, -1057.9895, 0.00008296589, -0.0031088092, -1042098.1, -10871.444 
9.5054275e+1, 2.047586e+2, -953133.1, -1107517.1, -1007.2385, 0.00005041033, -0.0022103155, -953126.56, -19761.123 
9.5054543e+1, 2.147438e+2, -855097.8, -1009554.56, -1011.10626, 0.00014181818, -0.00061617116, -855091.2, -19580.412 
9.5054793e+1, 2.2472826e+2, -766503.75, -931209.2, -1154.832, 0.00013202034, 0.000026735697, -766495.6, -28832.701 
9.5055014e+1, 2.3471203e+2, -668271.0, -833032.75, -1096.5186, 0.0000050326103, -0.002737787, -668263.7, -28441.764 
9.5055306e+1, 2.4469513e+2, -579438.4, -755039.25, -597.6774, 0.00004565352, -0.0027374758, -579436.4, -37448.727 
9.5055664e+1, 2.5467756e+2, -480255.72, -656268.25, -634.6683, 0.00026093677, -0.0016795121, -480253.44, -36093.52 
9.505597e+1, 2.646593e+2, -391544.94, -578261.6, -988.0822, -0.00012672185, -0.00049260457, -391539.7, -45200.6 
9.5056224e+1, 2.746403e+2, -293679.25, -480081.47, -935.64856, -0.0012022255, -0.0014405536, -293674.56, -45149.535 
9.505658e+1, 2.8462058e+2, -205731.4, -403579.84, -215.31116, -0.00043202887, -0.0013784316, -205731.17, -55012.895 
9.505706e+1, 2.946001e+2, -106133.055, -304557.6, -282.3775, 0.0024499684, -0.0027241895, -106132.66, -53213.926 
9.505744e+1, 3.0458236e+2, -17959.768, -176093.81, -810.0541, 0.0009257984, -0.001411589, -17955.617, -17955.617 
9.50577e+1, 3.145674e+2, -17506.225, -175587.94, -847.8817, -0.005716238, 0.0008737933, -17501.678, -17501.678 
9.505833e+1, 3.2455695e+2, 46812.34, -42161.227, 829.1795, 0.002461565, -0.002604999, 46820.066, 46820.066 
1.0505425e+2, 3.4906867e+1, -2541027.3, -2602855.0, -61.528233, 0.00012872802, 0.0033381227, -2541027.3, 56885.402 
1.05054766e+2, 4.490325e+1, -2449663.0, -2519337.3, -495.10623, 0.0005305149, -0.0089906845, -2449659.5, 50288.652 
1.0505522e+2, 5.4899347e+1, -2351576.0, -2421562.8, -412.2064, -0.00013536747, -0.00095617375, -2351573.5, 50412.844 
1.0505567e+2, 6.48947e+1, -2263012.5, -2343146.5, -561.14856, -0.0003412375, 0.0020505348, -2263008.5, 41023.32 
1.0505609e+2, 7.4889314e+1, -2164804.0, -2245240.5, -602.70605, -0.000103211874, -0.002098259, -2164799.5, 41285.2 
1.0505647e+2, 8.488327e+1, -2075873.5, -2166757.5, -922.17554, 0.00005778871, -0.002898207, -2075864.1, 32279.703 
1.0505682e+2, 9.487657e+1, -1976923.5, -2068440.1, -955.8881, 0.0001412947, -0.0022394669, -1976913.5, 33295.926 
1.05057165e+2, 1.0486918e+2, -1888374.3, -1990154.5, -1004.1637, 0.000032253316, -0.0012942587, -1888364.4, 23917.55 
1.0505751e+2, 1.1486111e+2, -1790926.6, -1892546.3, -1058.5967, -0.00027476475, -0.0020068404, -1790915.6, 23445.443 
1.0505781e+2, 1.2485236e+2, -1702096.6, -1813904.5, -1418.8557, -0.0001596669, -0.0014977546, -1702078.6, 14368.114 
1.05058074e+2, 1.3484295e+2, -1602811.8, -1715390.4, -1408.439, 0.00039643873, -0.0017323801, -1602794.3, 15744.783 
1.0505836e+2, 1.4483283e+2, -1514208.8, -1637265.3, -1184.1769, 0.00037399118, -0.0011849687, -1514197.3, 6440.701 
1.0505867e+2, 1.5482205e+2, -1416752.3, -1539625.4, -1175.9125, -0.00026548476, -0.0019179923, -1416741.0, 6002.745 
1.0505894e+2, 1.648106e+2, -1327990.5, -1460734.4, -1533.9381, -0.00026465056, -0.0012941108, -1327972.8, -3116.7012 
1.0505917e+2, 1.7479849e+2, -1229168.0, -1362383.5, -1560.1799, 0.00042989667, -0.00139457, -1229149.8, -2175.0667 
1.05059415e+2, 1.847857e+2, -1140383.4, -1284189.6, -1316.5785, 0.00055143883, -0.0013208656, -1140371.3, -11271.185 
1.05059706e+2, 1.9477218e+2, -1042168.56, -1186170.1, -1328.0592, 0.000054563632, -0.0030473555, -1042156.3, -10923.915 
1.0505998e+2, 2.0475803e+2, -953663.6, -1107672.4, -1408.7753, -0.000105128776, -0.0022457286, -953650.75, -20279.555 
1.0506025e+2, 2.1474321e+2, -855870.7, -1009862.94, -1345.9933, 0.000106334024, -0.00077215256, -855858.9, -20342.428 
1.05060525e+2, 2.2472768e+2, -766849.8, -931399.94, -1276.9, 0.00016600316, -0.000084601044, -766839.94, -29171.31 
1.0506081e+2, 2.3471145e+2, -667214.7, -832588.9, -1354.9602, 0.000049089085, -0.002619423, -667203.56, -27375.988 
1.0506113e+2, 2.4469455e+2, -578756.75, -754572.1, -1099.9167, 0.00010159306, -0.0027169574, -578749.9, -36756.61 
1.0506147e+2, 2.5467697e+2, -481985.6, -657009.25, -963.8578, 0.00033473835, -0.0021278316, -481980.28, -37814.805 
1.05061814e+2, 2.646587e+2, -393320.3, -579038.1, -963.5681, -0.00015199046, -0.0010043245, -393315.3, -46970.723 
1.0506213e+2, 2.7463973e+2, -292570.0, -479511.7, -1006.5945, -0.0014638547, -0.0015539504, -292564.6, -44034.145 
1.0506253e+2, 2.8462002e+2, -204333.33, -402863.97, -514.1493, -0.00046221438, -0.0013093413, -204332.0, -53608.348 
1.0506303e+2, 2.9459956e+2, -107233.0, -305079.5, -423.01718, 0.003194419, -0.002726873, -107232.09, -54307.984 
1.05063446e+2, 3.0458182e+2, -19540.926, -176909.36, -571.4892, 0.0009989644, -0.0015170347, -19538.852, -19538.852 
1.0506376e+2, 3.1456682e+2, -17174.578, -175441.27, -618.82227, -0.008016843, 0.00059648324, -17172.16, -17172.16 
1.0506439e+2, 3.2455638e+2, 46782.21, -42275.63, 197.74048, 0.0040508052, -0.003595574, 46782.65, 46782.65 
1.150595e+2, 3.490624e+1, -2541789.3, -2604371.5, 171.05154, -0.0002564595, -0.0031515814, -2541788.8, 56130.043 
1.15060076e+2, 4.4902748e+1, -2449513.5, -2519006.5, -429.81046, 0.0014349322, 0.0011819178, -2449510.8, 50442.19 
1.1506054e+2, 5.489876e+1, -2351405.3, -2421214.3, -349.36758, -0.00036580235, -0.001961511, -2351403.5, 50588.633 
1.15061e+2, 6.489408e+1, -2263073.8, -2343309.8, -479.25946, -0.0007201773, -0.0025597552, -2263071.0, 40966.97 
1.15061454e+2, 7.488873e+1, -2164863.5, -2245410.0, -519.83734, 0.0003911081, -0.002438714, -2164860.0, 41230.234 
1.1506189e+2, 8.488269e+1, -2075933.8, -2166886.8, -658.9288, 0.00056334835, -0.0013108236, -2075928.9, 32220.574 
1.15062304e+2, 9.4875985e+1, -1976991.6, -2068572.4, -689.827, -0.0002352363, -0.0011780838, -1976986.4, 33228.887 
1.1506266e+2, 1.0486857e+2, -1888480.6, -1990388.5, -1128.2881, -0.0004538609, -0.0010374617, -1888468.1, 23819.758 
1.1506298e+2, 1.1486047e+2, -1791029.3, -1892770.8, -1185.6144, -0.00007360231, -0.0028422265, -1791015.4, 23351.885 
1.1506331e+2, 1.2485172e+2, -1702080.9, -1813843.9, -1090.6385, 0.00014484263, -0.0024475928, -1702070.3, 14382.842 
1.1506366e+2, 1.3484232e+2, -1602805.3, -1715331.5, -1073.6569, 0.00019554199, -0.0017498168, -1602795.0, 15750.085 
1.1506397e+2, 1.4483221e+2, -1514214.5, -1637252.1, -1314.6838, 0.00013559776, -0.0010470038, -1514200.4, 6443.694 
1.1506425e+2, 1.5482141e+2, -1416754.4, -1539605.4, -1312.5447, -0.000039218023, -0.0024533186, -1416740.3, 6009.674 
1.15064524e+2, 1.6480997e+2, -1328027.1, -1460806.3, -1334.5988, -0.000033609293, -0.0020291253, -1328013.6, -3151.4216 
1.1506481e+2, 1.7479785e+2, -1229198.0, -1362468.1, -1354.7942, 0.00016407852, -0.0018153916, -1229184.3, -2203.3457 
1.1506509e+2, 1.8478505e+2, -1140413.1, -1284266.1, -1257.6066, 0.00024155309, -0.0008638257, -1140402.1, -11295.786 
1.15065396e+2, 1.9477156e+2, -1042204.75, -1186245.9, -1270.8213, 0.00019380923, -0.0011049638, -1042193.56, -10955.003 
1.1506568e+2, 2.047574e+2, -953526.94, -1107455.4, -1465.5149, 0.00017168105, -0.0011050364, -953513.0, -20135.635 
1.15065925e+2, 2.1474257e+2, -855727.25, -1009623.2, -1406.1313, 0.00018222077, -0.0029335332, -855714.44, -20191.69 
1.15066245e+2, 2.2472703e+2, -766993.2, -931689.1, -889.4954, 0.00014182508, -0.002137741, -766988.4, -29313.498 
1.1506663e+2, 2.3471083e+2, -667395.06, -832895.44, -953.07294, 0.000041328934, -0.000776793, -667389.56, -27555.844 
1.1506696e+2, 2.4469393e+2, -578546.56, -754089.75, -1429.3546, 0.00009048178, -0.0003077074, -578534.94, -36535.633 
1.1506722e+2, 2.5467637e+2, -481749.97, -656473.6, -1317.2351, 0.0002951353, -0.002890284, -481740.03, -37568.582 
1.1506759e+2, 2.646581e+2, -393354.22, -579161.5, -355.64056, -0.00009558028, -0.002716757, -393353.56, -47003.05 
1.1506808e+2, 2.7463913e+2, -292667.25, -479646.5, -363.85, -0.0011634318, -0.0016786746, -292666.56, -44130.25 
1.1506853e+2, 2.8461945e+2, -204195.08, -402591.03, -789.26166, -0.00031021342, -0.00088876346, -204191.94, -53462.523 
1.1506895e+2, 2.94599e+2, -107069.43, -304771.63, -733.0689, 0.0027521516, -0.0029693674, -107066.71, -54137.0 
1.1506938e+2, 3.0458125e+2, -19578.639, -176993.78, -34.96581, 0.00039115723, -0.002226643, -19578.63, -19578.63 
1.1506985e+2, 3.1456625e+2, -17221.873, -175561.78, -44.090458, -0.00829526, -0.00033067132, -17221.861, -17221.861 
1.15070455e+2, 3.2455578e+2, 46813.95, -42202.004, -746.64655, 0.0050384053, -0.0035949165, 46820.21, 46820.21 
1.2506476e+2, 3.4905583e+1, -2541220.8, -2602926.0, -432.41638, -0.00039172114, -0.0040870328, -2541217.8, 56707.48 
1.2506536e+2, 4.4902152e+1, -2450275.8, -2519571.3, -289.35944, 0.0017077848, 0.0024137923, -2450274.5, 49684.164 
1.2506586e+2, 5.489813e+1, -2351378.0, -2421426.8, -541.72266, -0.00036059463, -0.0022487629, -2351373.8, 50624.477 
1.2506635e+2, 6.489343e+1, -2262391.5, -2343078.0, -872.90704, -0.00082464074, -0.003187809, -2262382.0, 41662.203 
1.2506686e+2, 7.4888086e+1, -2163851.0, -2245005.5, -904.77386, 0.00034295584, -0.0021681117, -2163841.0, 42255.71 
1.2506732e+2, 8.488203e+1, -2075330.6, -2166676.5, -1057.1616, 0.00057803147, -0.0008478489, -2075318.4, 32837.55 
1.2506776e+2, 9.487531e+1, -1977619.1, -2068966.5, -1080.2953, -0.00015662215, -0.0012576731, -1977606.4, 32615.46 
1.2506816e+2, 1.048679e+2, -1888916.8, -1990550.5, -1477.0203, -0.00036882533, -0.0011431928, -1888895.4, 23399.154 
1.2506849e+2, 1.14859805e+2, -1789808.9, -1892161.3, -1417.8759, -0.000033736265, -0.002430068, -1789789.1, 24584.61 
1.2506884e+2, 1.2485104e+2, -1700984.8, -1813501.4, -1313.4374, 0.00014396694, -0.002067309, -1700969.4, 15490.263 
1.2506922e+2, 1.3484162e+2, -1603467.6, -1715839.4, -1444.2736, 0.00015552183, -0.0019890391, -1603449.0, 15102.943 
1.2506954e+2, 1.4483151e+2, -1514985.5, -1637471.0, -1800.431, 0.00009978187, -0.0013397956, -1514959.0, 5691.93 
1.2506983e+2, 1.5482074e+2, -1416376.5, -1539265.8, -1688.872, -0.00003064783, -0.002198992, -1416353.3, 6403.314 
1.2507012e+2, 1.6480929e+2, -1327472.6, -1460732.0, -1551.2201, 0.000011834598, -0.0017831683, -1327454.5, -2585.6357 
1.2507045e+2, 1.7479715e+2, -1229022.1, -1362567.5, -1655.7935, 0.00023784899, -0.0021751907, -1229001.6, -2013.87 
1.2507077e+2, 1.8478435e+2, -1140540.6, -1284200.3, -1730.6699, 0.00025624462, -0.0012226233, -1140519.9, -11406.596 
1.2507106e+2, 1.9477087e+2, -1043004.9, -1186489.3, -1625.4629, 0.000053346583, -0.0008009404, -1042986.5, -11741.218 
1.2507136e+2, 2.047567e+2, -953996.5, -1107742.1, -1648.4866, 0.000037316007, -0.0007114525, -953978.8, -20594.79 
1.2507166e+2, 2.1474187e+2, -854490.8, -1009075.25, -1765.3457, 0.00023015583, -0.0030785, -854470.6, -18941.104 
1.2507199e+2, 2.2472635e+2, -766147.94, -931107.5, -1384.7188, 0.0002616612, -0.0024077229, -766136.3, -28454.674 
1.2507237e+2, 2.3471016e+2, -669620.25, -833810.0, -1185.4441, 0.00011283994, -0.00072233466, -669611.7, -29771.36 
1.2507273e+2, 2.4469326e+2, -580645.94, -755167.56, -1480.564, 0.000050109444, 0.0000049550404, -580633.4, -38627.6 
1.2507303e+2, 2.5467572e+2, -479870.22, -655665.56, -1643.9083, 0.00007368712, -0.002390966, -479854.84, -35676.86 
1.2507343e+2, 2.6465744e+2, -391312.78, -578034.06, -844.1149, -0.00013511693, -0.0023435657, -391308.97, -44951.973 
1.2507395e+2, 2.7463847e+2, -294946.1, -480603.63, -684.8216, -0.0006222847, -0.0017960866, -294943.56, -46400.867 
1.2507443e+2, 2.846188e+2, -207154.08, -403732.7, -940.0454, -0.000062226994, -0.0010681571, -207149.6, -56413.973 
1.2507486e+2, 2.945984e+2, -106635.15, -304294.72, -851.6605, 0.0016914366, -0.002715214, -106631.48, -53695.863 
1.2507537e+2, 3.0458066e+2, -18277.049, -176144.8, 127.842705, 0.00020109513, -0.0023648483, -18276.945, -18276.945 
1.2507595e+2, 3.145657e+2, -17852.941, -175617.94, 313.90216, -0.0050587547, -0.0018178654, -17852.316, -17852.316 
1.2507646e+2, 3.2455525e+2, 45854.36, -42428.793, -1331.6233, 0.0028703613, -0.0031593165, 45874.44, 45874.44 
1.3507001e+2, 3.4904897e+1, -2539011.5, -2598436.8, -603.90393, -0.0003025892, 0.0004272476, -2539005.3, 58926.7 
1.350706e+2, 4.490147e+1, -2450704.5, -2520482.5, -34.81989, 0.0013631248, -0.0050387005, -2450704.5, 49260.97 
1.350712e+2, 5.4897463e+1, -2351834.8, -2422391.0, -278.07907, -0.00015351601, -0.001830519, -2351833.8, 50171.027 
1.3507174e+2, 6.489275e+1, -2262449.8, -2343210.0, -701.4424, -0.0006924079, 0.00007310051, -2262443.8, 41607.215 
1.3507228e+2, 7.488738e+1, -2163910.0, -2245130.0, -733.3228, -0.00025264945, -0.0012993533, -2163903.3, 42200.297 
1.3507277e+2, 8.48813e+1, -2075375.0, -2166778.3, -1104.8734, 0.00009001927, -0.001475924, -2075361.6, 32801.453 
1.3507321e+2, 9.4874567e+1, -1977659.5, -2069061.4, -1129.608, 0.000337794, -0.0024508277, -1977645.6, 32583.527 
1.3507362e+2, 1.0486717e+2, -1888776.8, -1990335.1, -1189.9196, 0.00025824484, -0.00160247, -1888762.8, 23538.91 
1.3507403e+2, 1.1485911e+2, -1789686.1, -1891938.1, -1126.4911, -0.00017153996, -0.00079722167, -1789673.8, 24706.871 
1.3507442e+2, 1.2485033e+2, -1701237.5, -1814032.5, -1425.6964, -0.000178902, -0.0003928912, -1701219.5, 15247.131 
1.3507476e+2, 1.3484086e+2, -1603718.0, -1716375.5, -1558.7195, 0.0002614616, -0.0024447243, -1603696.5, 14863.025 
1.350751e+2, 1.4483075e+2, -1514776.5, -1637028.6, -1645.8469, 0.0002470804, -0.0020524461, -1514754.4, 5904.1494 
1.3507542e+2, 1.5482002e+2, -1416173.0, -1538798.6, -1531.6721, -0.0002493281, -0.001177757, -1416153.9, 6609.744 
1.3507576e+2, 1.6480856e+2, -1327673.5, -1461132.9, -1440.224, -0.00013732867, -0.0005830169, -1327657.9, -2781.9976 
1.350761e+2, 1.7479639e+2, -1229239.1, -1362986.5, -1542.1508, 0.0006304396, -0.002476992, -1229221.3, -2226.094 
1.3507643e+2, 1.8478358e+2, -1140356.4, -1283807.4, -1841.6179, 0.0005749383, -0.0023756458, -1140332.8, -11211.924 
1.3507669e+2, 1.9477014e+2, -1042798.25, -1186073.9, -1742.7849, -0.00037243305, -0.0020931107, -1042777.06, -11524.551 
1.3507701e+2, 2.0475598e+2, -954187.6, -1108192.9, -1275.465, -0.0005122134, -0.0010512009, -954177.06, -20785.83 
1.3507742e+2, 2.1474113e+2, -854716.25, -1009552.8, -1377.7496, 0.00023623582, -0.0012614165, -854704.0, -19167.139 
1.3507776e+2, 2.247256e+2, -765804.3, -930425.75, -1764.388, 0.00050663133, -0.0009427634, -765785.44, -28096.502 
1.3507804e+2, 2.3470944e+2, -669239.4, -833078.0, -1588.8344, 0.00023933398, -0.0024038285, -669224.0, -29376.615 
1.3507842e+2, 2.4469256e+2, -580886.2, -755718.56, -838.42194, -0.000042506927, -0.0017219997, -580882.1, -38869.375 
1.350789e+2, 2.54675e+2, -480159.94, -656275.2, -966.0339, -0.00034500984, -0.0006636957, -480154.63, -35969.582 
1.3507934e+2, 2.6465672e+2, -391082.44, -577568.94, -1288.9537, -0.0003046653, 0.000051313295, -391073.53, -44709.477 
1.3507974e+2, 2.746378e+2, -294670.88, -480081.47, -1169.5471, 0.00013112517, -0.0019044608, -294663.5, -46113.875 
1.3508022e+2, 2.8461814e+2, -206933.2, -403279.28, -411.37137, 0.00025250102, -0.0018311546, -206932.34, -56190.09 
1.3508078e+2, 2.9459774e+2, -106452.56, -303842.6, -284.8494, -0.00000078900143, -0.0019815767, -106452.15, -53510.344 
1.3508141e+2, 3.045801e+2, -17991.727, -175546.11, 217.96614, 0.0003908281, -0.0019551397, -17991.426, -17991.426 
1.3508208e+2, 3.145651e+2, -17570.54, -175006.64, 386.13812, 0.0015799557, -0.0038826123, -17569.592, -17569.592 
1.3508238e+2, 3.2455474e+2, 46130.29, -41836.97, -1954.768, -0.0024110617, -0.0022942736, 46173.707, 46173.707 
1.4507529e+2, 3.4904233e+1, -2538729.0, -2599082.8, -159.61003, 0.00019187828, 0.0014881798, -2538728.8, 59209.81 
1.450759e+2, 4.490073e+1, -2449500.3, -2520042.0, -652.97516, 0.00039375442, -0.0069754515, -2449494.3, 50478.5 
1.4507656e+2, 5.4896724e+1, -2351115.8, -2422188.8, -535.50073, 0.00014817993, -0.0015170388, -2351111.8, 50900.26 
1.4507717e+2, 6.489201e+1, -2262099.8, -2343093.8, -849.53876, -0.00013846361, 0.00095849065, -2262091.0, 41967.305 
1.4507772e+2, 7.488662e+1, -2164029.0, -2245246.8, -851.2336, -0.0005019347, -0.0016021495, -2164020.0, 42091.082 
1.4507821e+2, 8.4880537e+1, -2075310.1, -2166819.5, -1244.512, -0.00031744203, -0.0020308536, -2075293.3, 32877.33 
1.4507869e+2, 9.487381e+1, -1976657.6, -2068640.3, -1273.7938, 0.00044694758, -0.0022835915, -1976639.9, 33596.65 
1.4507914e+2, 1.0486639e+2, -1887976.4, -1990023.9, -1384.2169, 0.0005235414, -0.0013794428, -1887957.6, 24351.588 
1.4507957e+2, 1.1485832e+2, -1790203.8, -1892284.3, -1514.9954, -0.00012912293, -0.0012175138, -1790181.3, 24207.086 
1.4507997e+2, 1.2484955e+2, -1701794.3, -1814195.9, -1850.7628, -0.00027363526, -0.0007567481, -1701763.9, 14710.471 
1.4508033e+2, 1.3484009e+2, -1603198.3, -1716020.1, -1662.5631, 0.000115179806, -0.0020060565, -1603173.8, 15393.281 
1.4508069e+2, 1.4482997e+2, -1514075.9, -1636903.0, -1679.7603, 0.0002415893, -0.00158598, -1514052.9, 6613.2344 
1.4508104e+2, 1.5481922e+2, -1415798.8, -1538866.3, -1946.5497, 0.000089304056, -0.0015054983, -1415768.0, 7003.607 
1.4508139e+2, 1.6480775e+2, -1327635.9, -1460947.1, -2006.2343, 0.00006095288, -0.0009295654, -1327605.6, -2721.8413 
1.4508174e+2, 1.7479561e+2, -1230001.8, -1363201.8, -1794.9491, 0.00016835125, -0.0020094456, -1229977.5, -2974.5955 
1.4508206e+2, 1.8478279e+2, -1140904.9, -1284165.9, -1962.3501, 0.00016590772, -0.0019224973, -1140878.0, -11749.591 
1.4508237e+2, 1.9476934e+2, -1041703.6, -1185637.4, -2126.6646, 0.00004421527, -0.0025528567, -1041672.25, -10411.872 
1.450827e+2, 2.0475519e+2, -953404.7, -1107718.3, -1723.6053, -0.000039586484, -0.0015868557, -953385.44, -19986.389 
1.4508311e+2, 2.1474034e+2, -856525.4, -1010346.56, -1556.1398, -0.00008523002, -0.00095249526, -856509.6, -20965.059 
1.4508349e+2, 2.2472483e+2, -767399.2, -931197.3, -1969.397, 0.00006463313, -0.00052806205, -767375.5, -29678.89 
1.4508379e+2, 2.3470865e+2, -667375.44, -832182.2, -2179.0908, 0.00042816455, -0.0027056127, -667346.6, -27491.492 
1.4508419e+2, 2.4469177e+2, -579113.5, -754722.6, -1398.2961, 0.00019130815, -0.0022454269, -579102.4, -37081.85 
1.4508468e+2, 2.546742e+2, -482627.56, -657316.25, -1154.9729, -0.0007246625, -0.00085532543, -482619.94, -38427.27 
1.4508514e+2, 2.6465595e+2, -393937.47, -578785.25, -1440.0652, -0.00047875696, 0.000000008731759, -393926.25, -47554.727 
1.4508556e+2, 2.74637e+2, -293705.25, -479434.78, -1471.4143, 0.0010853847, -0.0020370418, -293693.6, -45136.652 
1.4508606e+2, 2.846174e+2, -205228.83, -402411.03, -695.5791, 0.00062667445, -0.0018165703, -205226.38, -54476.914 
1.4508666e+2, 2.9459706e+2, -107527.67, -304301.9, -727.70544, -0.0021828031, -0.001554526, -107524.98, -54576.07 
1.4508733e+2, 3.0457938e+2, -20288.951, -175883.4, -377.56293, -0.00009648209, -0.0013917456, -20288.035, -20288.035 
1.4508808e+2, 3.145645e+2, -20093.162, -175441.52, -21.19269, 0.0077771503, -0.0034964264, -20093.158, -20093.158 
1.4508837e+2, 3.2455418e+2, 47870.5, -40729.496, -1666.1555, -0.0064298566, -0.0023710574, 47901.82, 47901.82 
1.550806e+2, 3.4903583e+1, -2541897.3, -2605581.3, 36.670273, 0.0010490849, -0.0008302115, -2541897.3, 56047.57 
1.5508124e+2, 4.4899932e+1, -2449283.8, -2519635.5, -512.9659, -0.0011943708, -0.0035702924, -2449280.3, 50700.41 
1.5508196e+2, 5.489593e+1, -2350878.8, -2421719.8, -396.42136, 0.00051750906, -0.0013039408, -2350876.5, 51143.29 
1.5508258e+2, 6.489122e+1, -2262102.3, -2343074.3, -799.5873, 0.00080606854, -0.00046736738, -2262094.3, 41971.684 
1.5508315e+2, 7.488582e+1, -2164034.3, -2245229.0, -802.6814, -0.00043044126, -0.0030415368, -2164026.3, 42092.516 
1.5508369e+2, 8.4879756e+1, -2075359.6, -2166930.5, -1056.0879, -0.0006630573, -0.002519023, -2075347.5, 32830.8 
1.550842e+2, 9.487303e+1, -1976718.6, -2068747.6, -1083.0062, 0.00016329683, -0.00080163917, -1976705.9, 33538.348 
1.5508467e+2, 1.04865596e+2, -1888221.0, -1990552.9, -1432.3282, 0.000420477, -0.0004947196, -1888200.9, 24116.178 
1.550851e+2, 1.1485744e+2, -1790456.6, -1892807.1, -1563.0023, 0.00007117975, -0.0036319634, -1790432.8, 23964.084 
1.550855e+2, 1.24848686e+2, -1701430.1, -1813483.9, -1694.6017, -0.00016659689, -0.0030968843, -1701404.5, 15078.238 
1.550859e+2, 1.3483931e+2, -1602832.6, -1715286.4, -1505.801, -0.00028907848, -0.00070268917, -1602812.5, 15762.159 
1.550863e+2, 1.448292e+2, -1514565.1, -1637934.9, -1612.2397, 0.000072614865, 0.00002579261, -1514544.0, 6129.754 
1.5508667e+2, 1.5481833e+2, -1416309.4, -1539925.4, -1874.5155, 0.00095341535, -0.0031420114, -1416280.9, 6499.3633 
1.5508702e+2, 1.6480686e+2, -1327248.4, -1460170.5, -2099.7515, 0.00057978893, -0.002777787, -1327215.3, -2322.5835 
1.5508732e+2, 1.7479478e+2, -1229591.6, -1362382.6, -1895.1163, -0.0011378357, -0.0007995299, -1229564.6, -2553.6655 
1.5508768e+2, 1.84782e+2, -1141203.6, -1284746.1, -1661.8143, -0.00096595363, 0.000084186446, -1141184.4, -12048.055 
1.5508808e+2, 1.9476847e+2, -1042036.4, -1186252.3, -1814.1494, 0.0012601174, -0.0022110883, -1042013.56, -10744.774 
1.5508844e+2, 2.0475432e+2, -953121.5, -1107159.0, -1998.5194, 0.0014060334, -0.0023159855, -953095.56, -19687.984 
1.5508875e+2, 2.147395e+2, -856230.1, -1009728.9, -1846.8517, -0.0007399188, -0.002106746, -856207.9, -20655.2 
1.5508913e+2, 2.24724e+2, -767741.56, -931934.94, -1493.8324, -0.0010549424, -0.0011334271, -767728.0, -30023.287 
1.5508959e+2, 2.3470777e+2, -667766.8, -832957.6, -1678.7426, 0.00065491465, -0.0016703835, -667749.75, -27886.082 
1.5508999e+2, 2.4469091e+2, -578733.1, -753924.94, -1794.5608, 0.0007189109, -0.0016041021, -578714.7, -36685.652 
1.5509038e+2, 2.5467336e+2, -482181.9, -656475.44, -1582.6588, -0.001076247, -0.0028986998, -482167.56, -37966.703 
1.5509085e+2, 2.6465514e+2, -393931.88, -578795.5, -960.7959, -0.0006811086, -0.0024157239, -393926.9, -47547.457 
1.5509142e+2, 2.7463624e+2, -293732.53, -479490.6, -960.81616, 0.0022160949, -0.0021883054, -293727.56, -45162.875 
1.5509197e+2, 2.8461662e+2, -205352.42, -402607.38, -827.4038, 0.0010397948, -0.0010492408, -205348.95, -54591.73 
1.5509248e+2, 2.9459623e+2, -107642.88, -304494.1, -882.5149, -0.0048610843, -0.0014310197, -107638.92, -54682.03 
1.5509315e+2, 3.045786e+2, -19650.482, -174550.56, -382.03082, -0.0012654832, -0.0006793531, -19649.541, -19649.541 
1.5509398e+2, 3.1456384e+2, -19424.703, -174051.55, -24.081968, 0.013533683, -0.00074935524, -19424.7, -19424.7 
1.5509443e+2, 3.2455352e+2, 47941.4, -40562.344, 263.81924, -0.009262768, -0.0033780346, 47942.184, 47942.184 
1.6508593e+2, 3.490278e+1, -2541732.5, -2606024.3, -675.4299, 0.0018890612, -0.0018234336, -2541725.5, 56227.098 
1.6508663e+2, 4.4899136e+1, -2447896.0, -2519009.5, -375.48306, -0.0022918931, -0.0014514211, -2447894.0, 52094.375 
1.6508736e+2, 5.489511e+1, -2350275.5, -2421462.5, -517.6359, 0.00020994841, -0.001411136, -2350271.8, 51756.164 
1.6508801e+2, 6.489038e+1, -2261880.0, -2343141.8, -1064.4941, 0.0010234076, -0.0011686251, -2261866.0, 42208.06 
1.650886e+2, 7.488498e+1, -2163578.0, -2245191.3, -1184.9508, 0.000034106906, -0.0026398324, -2163560.8, 42566.254 
1.6508916e+2, 8.48789e+1, -2074884.8, -2166774.3, -1426.0756, -0.0003759709, -0.0019517486, -2074862.6, 33323.965 
1.6508971e+2, 9.4872165e+1, -1976552.6, -2068766.3, -1445.9196, -0.00017650859, -0.0010516644, -1976529.9, 33722.74 
1.6509019e+2, 1.04864724e+2, -1888056.9, -1990528.0, -1832.4574, 0.00006553868, -0.0007826191, -1888024.0, 24301.566 
1.6509064e+2, 1.14856586e+2, -1789953.9, -1892618.5, -1737.8336, 0.00034789662, -0.0031393545, -1789924.5, 24480.912 
1.6509107e+2, 1.2484781e+2, -1700941.1, -1813309.8, -1835.6534, 0.00019417217, -0.00262954, -1700911.1, 15580.201 
1.6509148e+2, 1.3483843e+2, -1602643.4, -1715273.8, -2071.4038, -0.00042191346, -0.0011173361, -1602605.3, 15978.107 
1.6509189e+2, 1.4482829e+2, -1514641.8, -1637897.6, -2224.9368, -0.00022752433, -0.0004453651, -1514601.5, 6080.9917 
1.6509229e+2, 1.5481745e+2, -1416768.9, -1540068.1, -1928.2236, 0.00083288096, -0.0027914445, -1416738.8, 6050.11 
1.6509263e+2, 1.6480598e+2, -1327479.4, -1460331.4, -2062.957, 0.00066168245, -0.0023506468, -1327447.3, -2546.012 
1.6509296e+2, 1.747939e+2, -1228751.9, -1362039.3, -2320.2358, -0.00083346467, -0.0010953387, -1228711.5, -1691.8878 
1.6509333e+2, 1.847811e+2, -1140565.8, -1284484.0, -2139.7595, -0.0007969511, -0.00021985157, -1140534.0, -11388.879 
1.6509375e+2, 1.947676e+2, -1043055.75, -1186811.8, -2000.0659, 0.00090834365, -0.0017450952, -1043027.94, -11750.429 
1.6509412e+2, 2.0475341e+2, -954019.9, -1107466.1, -2257.1533, 0.0010559802, -0.0018532214, -953986.6, -20570.332 
1.6509444e+2, 2.1473862e+2, -855113.4, -1009105.0, -2343.9014, -0.00051551533, -0.0024988153, -855077.75, -19516.328 
1.6509482e+2, 2.2472312e+2, -766895.2, -931577.6, -1761.8724, -0.0007535554, -0.0015483875, -766876.4, -29162.957 
1.6509531e+2, 2.347069e+2, -669387.1, -833821.06, -1605.4276, 0.00048416975, -0.0011802239, -669371.44, -29499.145 
1.6509575e+2, 2.4469002e+2, -580344.2, -754578.7, -1951.9835, 0.0004723829, -0.0009874554, -580322.3, -38284.586 
1.6509612e+2, 2.546725e+2, -481137.1, -655823.5, -2122.8662, -0.00095180806, -0.003041303, -481111.28, -36901.793 
1.6509661e+2, 2.6465428e+2, -392652.63, -578213.0, -1451.8472, -0.00053604576, -0.0026239427, -392641.28, -46253.2 
1.650972e+2, 2.7463537e+2, -294861.47, -480104.03, -1455.8601, 0.001976453, -0.0016629169, -294850.03, -46276.71 
1.6509779e+2, 2.8461573e+2, -206998.33, -403324.97, -1391.4563, 0.00071816996, -0.00053050794, -206988.47, -56222.637 
1.6509832e+2, 2.9459533e+2, -107827.07, -304474.22, -1281.3168, -0.0049055805, -0.0017804366, -107818.72, -54853.234 
1.65099e+2, 3.0457777e+2, -19433.266, -174363.73, -1127.2722, -0.0011455497, -0.00064316933, -19425.064, -19425.064 
1.650998e+2, 3.1456298e+2, -20042.447, -174276.48, -1423.8373, 0.0136846285, 0.0011419363, -20029.305, -20029.305 
1.651005e+2, 3.245527e+2, 47115.6, -41040.652, 605.40686, -0.009170225, -0.002269685, 47119.76, 47119.76 
1.7509127e+2, 3.4901825e+1, -2539318.5, -2601095.5, 178.89043, 0.0026668776, -0.0015362622, -2539318.0, 58644.11 
1.7509206e+2, 4.4898337e+1, -2448143.5, -2519483.5, -434.7233, -0.0029340573, -0.0005973423, -2448140.8, 51855.316 
1.7509277e+2, 5.489426e+1, -2350546.0, -2421986.3, -583.4143, -0.00077856064, -0.0018364216, -2350541.3, 51494.973 
1.7509344e+2, 6.48895e+1, -2262107.5, -2343590.0, -958.2604, 0.00051664555, -0.0011736574, -2262096.3, 41986.41 
1.7509407e+2, 7.488409e+1, -2163803.0, -2245632.5, -1074.507, 0.00086548645, -0.0004626874, -2163788.8, 42346.906 
1.7509466e+2, 8.487799e+1, -2074925.6, -2166854.0, -1315.8766, 0.00050668174, -0.00036747602, -2074906.8, 33288.797 
1.7509523e+2, 9.4871217e+1, -1976612.0, -2068839.0, -1335.0762, -0.00058830227, -0.002973966, -1976592.6, 33669.355 
1.7509575e+2, 1.04863785e+2, -1887888.8, -1990155.3, -1793.3096, -0.00054645125, -0.0022083109, -1887857.3, 24477.504 
1.7509618e+2, 1.1485572e+2, -1789780.5, -1892227.3, -1700.5298, 0.00068207737, 0.00015471732, -1789752.3, 24661.559 
1.7509665e+2, 1.2484693e+2, -1701378.6, -1814228.3, -1757.5154, 0.0007836096, 0.0005473163, -1701351.3, 15148.785 
1.7509708e+2, 1.3483742e+2, -1603111.1, -1716204.4, -1987.7787, -0.00030464891, -0.0031882385, -1603076.1, 15516.996 
1.750975e+2, 1.448273e+2, -1514095.8, -1636783.3, -2250.8245, -0.0006652563, -0.0029289012, -1514054.5, 6637.845 
1.7509787e+2, 1.5481657e+2, -1416197.4, -1538914.4, -1960.7703, -0.00024944238, -0.0005250567, -1416166.1, 6631.301 
1.7509826e+2, 1.6480511e+2, -1327938.6, -1461282.1, -1895.0256, 0.00030616942, 0.0002726121, -1327911.8, -3002.0146 
1.7509864e+2, 1.7479295e+2, -1229242.5, -1363034.3, -2143.6326, 0.0010092532, -0.0028445509, -1229208.1, -2178.9797 
1.7509902e+2, 1.847801e+2, -1140345.1, -1283995.0, -2253.9875, 0.0006150815, -0.0027531306, -1140309.8, -11155.012 
1.7509936e+2, 1.9476666e+2, -1042816.25, -1186283.6, -2121.706, -0.00097156997, -0.0011638129, -1042784.94, -11498.287 
1.7509975e+2, 2.0475252e+2, -954163.9, -1107756.3, -2040.5132, -0.0010466266, -0.00024476225, -954136.75, -20711.504 
1.7510016e+2, 2.1473767e+2, -855288.1, -1009401.94, -2118.3176, 0.0005375834, -0.0021601238, -855259.0, -19688.37 
1.7510056e+2, 2.2472216e+2, -766649.44, -931051.94, -1899.9261, 0.0009032767, -0.0017856715, -766627.5, -28904.863 
1.75101e+2, 2.34706e+2, -669146.6, -833250.4, -1754.1763, -0.00009217561, -0.0012173802, -669127.9, -29246.691 
1.7510144e+2, 2.4468912e+2, -580631.06, -755145.6, -1697.2397, -0.00053829286, -0.00039808112, -580614.56, -38568.082 
1.7510189e+2, 2.5467154e+2, -481453.0, -656415.2, -1853.2787, -0.00038253333, -0.0013556816, -481433.38, -37214.766 
1.751024e+2, 2.6465333e+2, -392723.06, -578311.44, -1556.16, -0.000076833945, -0.00070050894, -392710.03, -46312.6 
1.7510296e+2, 2.746344e+2, -294927.34, -480179.28, -1572.3303, 0.0003990595, -0.00048203857, -294914.0, -46331.23 
1.7510356e+2, 2.8461474e+2, -206792.66, -402877.97, -1171.1074, -0.0003242816, -0.00024978383, -206785.67, -56010.42 
1.751042e+2, 2.945944e+2, -107611.93, -304004.97, -1050.975, -0.0024408763, -0.0025845568, -107606.305, -54631.63 
1.7510486e+2, 3.045768e+2, -19923.775, -175439.55, -1327.7305, 0.00018797423, -0.0012586716, -19912.44, -19912.44 
1.7510553e+2, 3.14562e+2, -20556.377, -175407.03, -1640.5906, 0.008428664, 0.0022181603, -20538.996, -20538.996 
1.7510656e+2, 3.2455164e+2, 46909.625, -41422.367, 2730.2756, -0.006307607, 0.0008975963, 46993.938, 46993.938 
1.8509662e+2, 3.4900895e+1, -2537964.5, -2599559.0, 632.89954, 0.0011914271, -0.00020152262, -2537958.0, 60013.195 
1.850975e+2, 4.489741e+1, -2448992.5, -2520083.5, -1167.758, -0.0010611553, -0.0019596436, -2448973.5, 51031.844 
1.850982e+2, 5.489333e+1, -2350630.0, -2422215.8, -1162.1866, -0.00061066257, -0.0019076981, -2350611.3, 51434.027 
1.8509889e+2, 6.488857e+1, -2261480.3, -2343334.0, -1221.3989, 0.000010047038, -0.00082728674, -2261462.0, 42629.83 
1.8509957e+2, 7.4883157e+1, -2162624.5, -2245113.0, -1145.7809, 0.0007640966, -0.0005910053, -2162608.5, 43536.434 
1.8510018e+2, 8.4877044e+1, -2074037.0, -2166460.0, -1507.0939, 0.0006521298, -0.00059818494, -2074012.4, 34192.43 
1.8510075e+2, 9.4870263e+1, -1976850.3, -2069014.9, -1525.792, -0.00036645998, -0.0029129996, -1976825.0, 33446.324 
1.8510127e+2, 1.0486283e+2, -1888202.6, -1990348.5, -1873.5873, -0.0004962207, -0.0020891225, -1888168.4, 24175.807 
1.8510178e+2, 1.1485476e+2, -1789038.5, -1891937.8, -1995.0195, 0.00030624014, 0.00008965261, -1788999.9, 25423.377 
1.8510225e+2, 1.2484596e+2, -1700667.0, -1813995.3, -2199.3215, 0.00056400034, 0.00048673432, -1700624.4, 15885.132 
1.8510267e+2, 1.3483644e+2, -1603368.9, -1716469.3, -2055.6755, 0.00024278404, -0.0030443529, -1603331.5, 15271.232 
1.8510309e+2, 1.4482632e+2, -1514309.3, -1636840.5, -2246.677, -0.00019566074, -0.0027854568, -1514268.1, 6433.826 
1.8510349e+2, 1.548156e+2, -1415487.3, -1538500.5, -2503.1375, -0.00076003117, -0.00060422585, -1415436.4, 7370.6763 
1.8510388e+2, 1.6480413e+2, -1327357.6, -1461112.5, -2583.5854, -0.00023494082, 0.000155194, -1327307.8, -2388.448 
1.851043e+2, 1.7479193e+2, -1229738.8, -1363400.8, -2421.5527, 0.0014630798, -0.0027959156, -1229694.9, -2656.0002 
1.8510467e+2, 1.8477911e+2, -1140857.5, -1284062.6, -2439.1785, 0.0010941871, -0.0027544177, -1140815.9, -11651.417 
1.8510501e+2, 1.9476569e+2, -1042585.9, -1185982.8, -2447.4353, -0.0015232951, -0.0014504972, -1042544.06, -11247.899 
1.8510541e+2, 2.0475154e+2, -954049.2, -1107914.5, -2260.7847, -0.001587638, -0.00043591947, -954015.94, -20581.152 
1.8510585e+2, 2.1473669e+2, -855735.2, -1009857.2, -2318.412, 0.0011516832, -0.0018358686, -855700.3, -20119.975 
1.8510628e+2, 2.2472118e+2, -766956.6, -930924.06, -2379.6997, 0.0014746721, -0.0015391409, -766922.06, -29189.738 
1.8510668e+2, 2.3470502e+2, -669049.3, -832958.8, -2343.4185, -0.0008998983, -0.0017086826, -669015.8, -29125.152 
1.8510713e+2, 2.4468815e+2, -580709.9, -755329.5, -1914.9352, -0.0012949049, -0.00093917316, -580688.9, -38632.906 
1.8510766e+2, 2.546706e+2, -481717.88, -656742.94, -1860.8713, 0.0005293966, -0.0011714417, -481698.1, -37469.938 
1.8510818e+2, 2.6465234e+2, -393033.16, -578427.9, -1776.6323, 0.00066022755, -0.0003865826, -393016.13, -46609.105 
1.851087e+2, 2.7463344e+2, -295218.97, -480302.56, -1750.2568, -0.0011484573, -0.0007177379, -295202.44, -46610.01 
1.8510932e+2, 2.8461376e+2, -207097.23, -403123.56, -1102.9644, -0.0012618066, -0.0005773757, -207091.03, -56306.1 
1.8511006e+2, 2.9459342e+2, -107758.055, -304205.0, -1274.2754, 0.00058586354, -0.0024743257, -107749.79, -54765.39 
1.8511072e+2, 3.0457577e+2, -19821.33, -176085.98, -1961.823, 0.0010110652, -0.0012265611, -19796.705, -19796.705 
1.851113e+2, 3.145609e+2, -19203.361, -175457.67, -2213.9814, -0.0002053671, 0.0015514219, -19171.998, -19171.998 
1.8511254e+2, 3.2455054e+2, 44115.15, -42539.254, 2990.1729, -0.000740998, 0.0017969214, 44218.207, 44218.207 
1.9510198e+2, 3.489998e+1, -2539131.8, -2601926.8, 524.9517, -0.002490149, 0.0021820713, -2539127.3, 58852.816 
1.9510293e+2, 4.489636e+1, -2448965.0, -2519996.0, -1029.9911, 0.0032287221, -0.005438877, -2448950.0, 51065.477 
1.9510366e+2, 5.489233e+1, -2350578.5, -2422099.3, -1019.47546, 0.0006444536, -0.0016460635, -2350564.0, 51491.066 
1.9510438e+2, 6.4887583e+1, -2261331.8, -2343027.5, -968.3717, -0.00052507396, -0.0001395722, -2261320.3, 42781.336 
1.9510512e+2, 7.4882156e+1, -2162503.8, -2244807.8, -892.93604, -0.000252595, -0.0029446802, -2162494.0, 43660.68 
1.9510575e+2, 8.487606e+1, -2074080.4, -2166525.0, -1687.3179, 0.000065289365, -0.002581336, -2074049.6, 34164.91 
1.9510627e+2, 9.4869316e+1, -1976876.1, -2069063.1, -1711.0042, 0.00043646342, -0.00094838976, -1976844.4, 33436.246 
1.951068e+2, 1.0486186e+2, -1888422.6, -1990804.1, -1575.0269, 0.00017425937, -0.00048146668, -1888398.4, 23955.314 
1.9510737e+2, 1.1485371e+2, -1789309.4, -1892394.1, -1686.8403, -0.00076807453, -0.0032084498, -1789281.8, 25151.777 
1.9510786e+2, 1.2484491e+2, -1700416.1, -1813463.8, -2366.0205, -0.0004545661, -0.0026918978, -1700366.6, 16153.072 
1.9510826e+2, 1.348355e+2, -1603095.9, -1715900.9, -2230.9844, 0.0011889925, -0.00077473, -1603051.8, 15560.336 
1.9510868e+2, 1.4482535e+2, -1514782.3, -1637804.8, -2041.8378, 0.0011317248, -0.00011915781, -1514748.4, 5963.091 
1.9510913e+2, 1.5481451e+2, -1415997.3, -1539499.6, -2286.779, -0.0007388566, -0.0029393132, -1415954.9, 6862.7383 
1.9510953e+2, 1.6480304e+2, -1327088.9, -1460513.4, -2677.7378, -0.0009710678, -0.0025933527, -1327035.1, -2105.0388 
1.951099e+2, 1.7479092e+2, -1229457.6, -1362748.5, -2522.437, 0.00057015044, -0.0010213231, -1229409.9, -2361.0378 
1.9511029e+2, 1.8477812e+2, -1140872.5, -1284061.6, -2372.6418, 0.00066393305, -0.00032502512, -1140833.3, -11659.023 
1.9511066e+2, 1.9476464e+2, -1042605.25, -1186003.6, -2379.07, -0.00081790274, -0.0025694936, -1042565.75, -11259.537 
1.9511108e+2, 2.047505e+2, -954197.9, -1108129.4, -2183.4768, -0.00064845284, -0.0023550426, -954166.9, -20721.877 
1.9511154e+2, 2.1473564e+2, -855895.0, -1010084.25, -2236.756, 0.0013313005, -0.0015288396, -855862.56, -20272.041 
1.9511198e+2, 2.2472014e+2, -766902.75, -930785.4, -2424.4014, 0.0009858208, -0.00082906865, -766866.9, -29124.363 
1.9511233e+2, 2.3470397e+2, -668995.0, -832779.9, -2394.1614, -0.001953156, -0.0026371805, -668960.0, -29059.123 
1.9511282e+2, 2.4468713e+2, -580633.7, -755137.3, -1708.9143, -0.0018272229, -0.0025657474, -580616.94, -38550.816 
1.9511344e+2, 2.5466955e+2, -481682.4, -656544.94, -1644.4695, 0.0017465494, -0.002429789, -481666.94, -37428.79 
1.9511397e+2, 2.646513e+2, -392996.84, -578303.3, -1883.5011, 0.0016359958, -0.0016158333, -392977.7, -46560.81 
1.9511442e+2, 2.7463242e+2, -295179.97, -480135.8, -1869.0278, -0.002684563, -0.0023115021, -295161.1, -46558.855 
1.9511506e+2, 2.8461277e+2, -207429.55, -403799.72, -847.4579, -0.0021139125, -0.0014858155, -207425.89, -56631.04 
1.9511592e+2, 2.9459238e+2, -108151.31, -304916.72, -998.97504, 0.0041192467, -0.0014833072, -108146.24, -55151.598 
1.9511661e+2, 3.0457467e+2, -20241.71, -176936.16, -1825.7881, 0.0013177317, -0.0005704078, -20220.44, -20220.44 
1.951171e+2, 3.145597e+2, -19589.01, -176301.69, -2080.2424, -0.012088085, -0.00077648537, -19561.402, -19561.402 
1.9511844e+2, 3.2454935e+2, 44504.785, -41686.285, 2148.2522, 0.0073617264, 0.0005229601, 44558.297, 44558.297 
2.051074e+2, 3.4899017e+1, -2538278.3, -2602855.0, -99.78141, -0.0036613517, 0.0017720802, -2538278.0, 59711.535 
2.0510837e+2, 4.4895345e+1, -2448151.8, -2519425.8, -773.9455, 0.0052782376, -0.0061463197, -2448143.3, 51882.207 
2.0510913e+2, 5.489133e+1, -2348929.8, -2421110.8, -705.055, 0.0008102695, -0.0015637613, -2348922.8, 53142.01 
2.0510988e+2, 6.488659e+1, -2260345.8, -2342635.0, -974.60864, -0.0012030539, 0.00012932776, -2260334.3, 43777.145 
2.0511062e+2, 7.488115e+1, -2163434.0, -2245371.5, -1110.919, -0.00068621396, -0.0031179406, -2163419.0, 42745.613 
2.0511128e+2, 8.487505e+1, -2074833.8, -2167029.0, -1898.4315, 0.0000039943134, -0.0027278648, -2074794.6, 33429.78 
2.0511185e+2, 9.4868296e+1, -1975129.5, -2068353.4, -1988.0017, 0.000874798, -0.00058335747, -1975087.1, 35203.496 
2.0511241e+2, 1.0486083e+2, -1886635.8, -1990026.8, -1985.3972, 0.0005967836, -0.00023012025, -1886597.6, 25766.252 
2.0511296e+2, 1.1485265e+2, -1790089.6, -1892895.3, -1940.6676, -0.0008942562, -0.0037325756, -1790053.0, 24390.924 
2.0511346e+2, 1.2484386e+2, -1701365.8, -1813837.8, -2499.485, -0.0007986347, -0.0031583705, -1701310.1, 15219.9 
2.0511389e+2, 1.3483444e+2, -1601855.3, -1715228.1, -2592.0798, 0.00096494704, -0.00029484998, -1601796.1, 16826.234 
2.0511432e+2, 1.4482431e+2, -1513551.5, -1637423.8, -2506.5693, 0.0011887492, 0.0004472351, -1513500.8, 7220.911 
2.0511475e+2, 1.5481342e+2, -1416695.5, -1540077.0, -2405.4312, -0.00022628739, -0.0032013876, -1416648.6, 6179.5596 
2.0511515e+2, 1.6480196e+2, -1327955.5, -1460732.0, -2604.1, -0.00073612254, -0.0029463226, -1327904.5, -2963.806 
2.0511554e+2, 1.7478988e+2, -1229138.5, -1362398.9, -2621.4316, -0.00026478773, -0.000672269, -1229087.0, -2027.7994 
2.0511593e+2, 1.8477707e+2, -1140385.9, -1284100.9, -2656.5593, 0.00011056898, 0.00017257195, -1140336.8, -11152.242 
2.0511633e+2, 1.9476357e+2, -1042349.75, -1186163.1, -2841.0154, 0.0003751549, -0.0025295361, -1042293.6, -10976.804 
2.0511675e+2, 2.047494e+2, -954075.6, -1107751.3, -2652.3418, 0.00032022002, -0.0025591815, -954029.9, -20574.22 
2.0511718e+2, 2.1473458e+2, -856658.06, -1010119.3, -2361.5842, -0.000087799315, -0.0017419936, -856621.75, -21020.885 
2.0511761e+2, 2.2471909e+2, -767852.9, -931496.06, -2310.6563, -0.00036342343, -0.0008895211, -767820.25, -30067.486 
2.0511806e+2, 2.3470291e+2, -668506.9, -832839.25, -2531.804, -0.000506212, -0.0023676602, -668467.9, -28556.5 
2.0511857e+2, 2.4468605e+2, -580021.0, -754542.44, -2124.0876, -0.00018642383, -0.0023438747, -579995.1, -37918.535 
2.0511912e+2, 2.546685e+2, -483162.75, -656965.0, -1944.4242, 0.00064806873, -0.0026777862, -483141.0, -38892.637 
2.0511967e+2, 2.646503e+2, -394613.13, -579131.56, -1867.3826, -0.0000516056, -0.002054457, -394594.22, -48167.25 
2.051202e+2, 2.7463138e+2, -294111.44, -479708.9, -1946.4447, -0.0025112391, -0.002624212, -294091.03, -45478.676 
2.0512088e+2, 2.8461173e+2, -206215.9, -403181.28, -1140.3226, -0.0007672802, -0.0017095063, -206209.31, -55404.316 
2.0512173e+2, 2.9459134e+2, -109676.09, -305660.3, -944.8518, 0.0058351606, -0.0016576219, -109671.54, -56666.766 
2.0512243e+2, 3.045736e+2, -22243.207, -178134.72, -912.0892, 0.00060305715, -0.001049474, -22237.871, -22237.871 
2.0512299e+2, 3.145586e+2, -18892.957, -176225.08, -921.3815, -0.018524986, -0.0019683985, -18887.56, -18887.56 
2.0512426e+2, 3.2454827e+2, 43245.367, -41855.195, 924.5196, 0.01202495, -0.0011027998, 43255.41, 43255.41 
2.1511291e+2, 3.4898007e+1, -2538869.0, -2604098.8, -917.221, -0.0024574136, -0.0013218505, -2538856.3, 59143.223 
2.1511382e+2, 4.489435e+1, -2447972.5, -2519140.0, -431.06027, 0.005186197, -0.00419553, -2447970.0, 52065.242 
2.1511465e+2, 5.489034e+1, -2348762.0, -2420821.0, -353.20514, -0.00009644612, -0.0016535859, -2348760.3, 53314.293 
2.1511543e+2, 6.488559e+1, -2260615.0, -2343133.3, -1213.9512, -0.0020558941, -0.000006843641, -2260597.3, 43523.867 
2.1511611e+2, 7.4880135e+1, -2163686.8, -2245864.3, -1355.1833, -0.0005781944, -0.0012059268, -2163664.5, 42510.086 
2.151168e+2, 8.4874e+1, -2074983.1, -2167346.0, -1445.3778, 0.00042263867, -0.0011233463, -2074960.5, 33274.18 
2.151175e+2, 9.4867194e+1, -1975316.4, -2068681.8, -1524.055, 0.0009284767, -0.001757827, -1975291.5, 35009.93 
2.1511805e+2, 1.0485972e+2, -1886566.8, -1989893.4, -2335.1978, 0.0007599282, -0.0012825838, -1886514.0, 25860.58 
2.1511851e+2, 1.14851594e+2, -1790001.1, -1892725.8, -2302.3713, -0.0001346204, -0.0016076893, -1789949.5, 24504.771 
2.1511902e+2, 1.24842785e+2, -1701511.0, -1814172.9, -2122.7468, -0.000533566, -0.001031507, -1701471.0, 15069.504 
2.1511954e+2, 1.3483332e+2, -1602045.3, -1715573.5, -2201.375, -0.00039579577, -0.0015284015, -1602002.6, 16630.68 
2.1511999e+2, 1.4482318e+2, -1513398.1, -1637065.8, -2783.5815, 0.000017331795, -0.0009974345, -1513335.5, 7397.169 
2.1512036e+2, 1.5481238e+2, -1416513.9, -1539692.3, -2694.829, 0.00073143234, -0.0014888436, -1416454.9, 6383.7466 
2.1512076e+2, 1.648009e+2, -1327973.9, -1460762.5, -2416.2744, 0.00040001204, -0.0010112469, -1327929.9, -2978.8677 
2.1512118e+2, 1.7478879e+2, -1229191.4, -1362432.3, -2424.3604, -0.0010568191, -0.0016872867, -1229147.4, -2077.5715 
2.151216e+2, 1.8477596e+2, -1140767.8, -1284796.0, -2640.9133, -0.0005808377, -0.0011819105, -1140719.3, -11523.864 
2.1512203e+2, 1.9476244e+2, -1042738.94, -1186875.0, -2822.5696, 0.0020047324, -0.0013814964, -1042683.7, -11355.649 
2.1512242e+2, 2.0474829e+2, -953575.7, -1106670.8, -2798.4543, 0.0012971021, -0.001121663, -953524.56, -20057.889 
2.1512277e+2, 2.1473353e+2, -856120.0, -1008988.94, -2520.5188, -0.003051687, -0.0024509707, -856078.44, -20467.152 
2.1512324e+2, 2.2471803e+2, -768239.25, -932286.9, -2007.6736, -0.002565095, -0.0016837112, -768214.7, -30451.594 
2.1512383e+2, 2.3470181e+2, -668949.06, -833694.25, -2206.84, 0.0033068622, -0.0009492671, -668919.5, -28997.375 
2.1512431e+2, 2.4468495e+2, -579751.94, -753933.7, -2437.4067, 0.0035108791, -0.00035426184, -579717.9, -37630.473 
2.1512473e+2, 2.5466746e+2, -482831.16, -656303.25, -2283.1255, -0.0026820516, -0.0019578398, -482801.13, -38542.316 
2.1512529e+2, 2.6464924e+2, -394727.88, -579367.6, -1318.4797, -0.0043146852, -0.0017337648, -394718.47, -48281.168 
2.1512605e+2, 2.746303e+2, -294298.9, -479984.16, -1360.6201, -0.0007239484, -0.0017132196, -294288.94, -45666.145 
2.1512677e+2, 2.8461066e+2, -205945.66, -402549.25, -1551.6979, 0.0026571513, -0.0012776081, -205933.42, -55118.055 
2.1512744e+2, 2.945903e+2, -109360.56, -304963.53, -1395.8267, 0.005785206, -0.002948737, -109350.6, -56335.785 
2.1512817e+2, 3.045726e+2, -22197.584, -178090.47, -129.24397, -0.0011167431, -0.0026178586, -22197.477, -22197.477 
2.1512896e+2, 3.145576e+2, -18885.512, -176235.64, -77.00598, -0.019783359, -0.0021023504, -18885.475, -18885.475 
2.1512999e+2, 3.2454726e+2, 43377.992, -41573.934, -2036.1436, 0.013366342, -0.0030539797, 43426.766, 43426.766 
2.2511846e+2, 3.4897012e+1, -2538433.3, -2603418.3, -1163.7947, -0.00017055568, -0.003011784, -2538412.5, 59596.695 
2.2511928e+2, 4.489339e+1, -2446720.5, -2518949.3, -45.560005, 0.0016129821, -0.0022836607, -2446720.3, 53324.266 
2.2512019e+2, 5.4889315e+1, -2349031.0, -2421389.3, -426.29395, -0.00041432385, -0.0016811987, -2349028.5, 53056.14 
2.25121e+2, 6.488453e+1, -2260534.5, -2343404.3, -1620.315, -0.0009260629, -0.00060687814, -2260502.8, 43628.668 
2.2512169e+2, 7.4879056e+1, -2161592.5, -2245150.8, -1701.738, 0.00010899979, -0.00096081616, -2161558.0, 44627.26 
2.2512239e+2, 8.48729e+1, -2073022.3, -2166437.5, -1616.1008, 0.00045453614, -0.0008771133, -2072994.3, 35251.184 
2.2512309e+2, 9.486609e+1, -1976067.6, -2069101.1, -1559.3962, 0.00007443442, -0.0023985934, -1976041.5, 34270.71 
2.2512367e+2, 1.04858615e+2, -1887564.3, -1990486.8, -2507.184, 0.000158339, -0.0016764109, -1887503.1, 24882.371 
2.2512415e+2, 1.14850484e+2, -1788503.4, -1892116.4, -2634.962, 0.0007270341, -0.000552604, -1788436.4, 26028.81 
2.2512463e+2, 1.2484167e+2, -1699948.6, -1813514.8, -2402.272, 0.00031902036, -0.00012464637, -1699897.9, 16653.654 
2.2512516e+2, 1.3483219e+2, -1602989.8, -1716144.4, -2383.6475, -0.0011286117, -0.0024701143, -1602939.5, 15705.022 
2.2512563e+2, 1.4482203e+2, -1514489.4, -1637501.0, -3037.6982, -0.0008753721, -0.0020255211, -1514414.5, 6329.514 
2.2512601e+2, 1.5481125e+2, -1415463.9, -1539099.1, -3077.369, 0.0012052832, -0.0007180885, -1415387.4, 7462.3193 
2.251264e+2, 1.6479978e+2, -1326710.6, -1460367.6, -2904.811, 0.0011943002, -0.00010454684, -1326647.5, -1685.4072 
2.2512682e+2, 1.7478761e+2, -1229363.4, -1362754.9, -3029.9297, -0.0010741056, -0.0024318802, -1229294.6, -2213.4502 
2.2512725e+2, 1.847748e+2, -1141406.3, -1284864.8, -3052.7312, -0.0010489714, -0.0021448566, -1141341.4, -12134.489 
2.2512767e+2, 1.947613e+2, -1043413.1, -1186969.1, -2698.2605, 0.001475825, -0.0010030534, -1043362.44, -12023.364 
2.2512807e+2, 2.0474716e+2, -954075.94, -1107142.5, -2733.257, 0.0012219548, -0.0003882242, -954027.1, -20549.438 
2.2512843e+2, 2.1473238e+2, -855423.0, -1008916.94, -3177.9543, -0.0020973233, -0.0024488892, -855357.2, -19734.588 
2.2512889e+2, 2.2471689e+2, -767549.06, -931584.5, -2700.2903, -0.0019049641, -0.0019672494, -767504.6, -29730.215 
2.2512947e+2, 2.347007e+2, -670413.1, -834018.25, -2228.1587, 0.0021908144, -0.0010254533, -670382.75, -30449.723 
2.2512998e+2, 2.4468385e+2, -581453.44, -754854.06, -2313.2166, 0.0024312814, -0.00025670766, -581422.6, -39324.44 
2.2513041e+2, 2.5466636e+2, -481995.03, -655981.4, -2556.752, -0.0016850788, -0.0017312161, -481957.47, -37687.82 
2.2513099e+2, 2.6464814e+2, -393807.75, -578604.5, -1518.6516, -0.0028502792, -0.0016120903, -393795.28, -47347.188 
2.2513178e+2, 2.7462924e+2, -296720.7, -480833.75, -1203.4164, -0.0006421795, -0.0019605185, -296712.84, -48079.523 
2.251325e+2, 2.8460962e+2, -208712.1, -403510.66, -1411.0022, 0.0016021702, -0.0015091553, -208701.88, -57876.336 
2.2513315e+2, 2.9458928e+2, -109127.484, -304458.06, -1334.0334, 0.0038777147, -0.0027247441, -109118.375, -56093.813 
2.2513396e+2, 3.0457166e+2, -21431.531, -177067.72, 585.52405, -0.00047735017, -0.0028610122, -21429.328, -21429.328 
2.2513492e+2, 3.145567e+2, -20755.875, -176472.58, 1067.2599, -0.01259058, -0.0039079622, -20748.56, -20748.56 
2.2513564e+2, 3.245464e+2, 42882.88, -41774.71, -3303.6777, 0.0082458425, -0.0044326475, 43011.605, 43011.605 
2.35124e+2, 3.489603e+1, -2537315.0, -2601144.0, -902.70624, 0.0031084244, -0.0033902463, -2537302.3, 60716.617 
2.3512475e+2, 4.489246e+1, -2447406.3, -2520436.3, -93.80048, -0.0052931034, -0.00042750227, -2447406.0, 52647.637 
2.3512574e+2, 5.4888266e+1, -2349741.8, -2422917.3, -469.3, -0.0002026545, -0.00164997, -2349738.8, 52356.094 
2.351266e+2, 6.4883405e+1, -2260676.3, -2343685.3, -1346.1563, 0.002063365, -0.0016540722, -2260654.3, 43488.16 
2.3512734e+2, 7.487791e+1, -2161737.0, -2245427.3, -1421.9897, 0.0013360145, -0.0023069931, -2161713.0, 44483.434 
2.3512803e+2, 8.487176e+1, -2072934.0, -2166235.8, -1848.7509, 0.00009520998, -0.0019309943, -2072897.4, 35359.34 
2.3512866e+2, 9.4864964e+1, -1975971.3, -2068885.8, -1801.1665, -0.0016822788, -0.0025411728, -1975936.4, 34386.85 
2.3512925e+2, 1.0485748e+2, -1887767.1, -1990952.3, -2233.435, -0.0011994096, -0.0014484447, -1887718.9, 24677.713 
2.3512982e+2, 1.1484933e+2, -1788724.9, -1892589.5, -2350.029, 0.0016676536, -0.0005187351, -1788671.6, 25804.85 
2.3513032e+2, 1.2484049e+2, -1699925.9, -1813497.3, -2653.9282, 0.0016930875, -0.00038626, -1699863.9, 16699.182 
2.3513077e+2, 1.34831e+2, -1602958.4, -1716112.8, -2645.1, -0.0012832978, -0.0031367538, -1602896.5, 15759.562 
2.351312e+2, 1.4482084e+2, -1514535.9, -1637628.1, -2784.1694, -0.0015154427, -0.0026550347, -1514473.0, 6282.54 
2.3513168e+2, 1.5481006e+2, -1415531.1, -1539228.6, -2813.0789, 0.0011882118, -0.00084801466, -1415467.1, 7394.1084 
2.351321e+2, 1.6479857e+2, -1326961.5, -1460883.8, -3068.7295, 0.0016310287, -0.00017780041, -1326891.3, -1917.3761 
2.3513247e+2, 1.7478637e+2, -1229623.6, -1363262.3, -3197.8745, -0.0003679141, -0.0029210872, -1229547.1, -2453.733 
2.3513286e+2, 1.8477358e+2, -1140771.6, -1283496.9, -3054.412, -0.0013244896, -0.0027368595, -1140706.4, -11487.555 
2.3513326e+2, 1.9476017e+2, -1042762.06, -1185554.4, -2705.9011, -0.0011412973, -0.0013591594, -1042710.8, -11360.752 
2.351337e+2, 2.0474604e+2, -954867.4, -1108794.8, -2587.3945, 0.00012061437, -0.00032544858, -954823.94, -21335.244 
2.3513415e+2, 2.1473114e+2, -856278.2, -1010640.4, -3014.2886, 0.0025625804, -0.0017671314, -856219.4, -20584.625 
2.351346e+2, 2.2471564e+2, -766748.1, -929898.06, -2925.274, 0.0014486775, -0.0017632938, -766695.7, -28909.11 
2.3513502e+2, 2.3469955e+2, -669544.75, -832232.75, -2477.1743, -0.003630506, -0.0025168483, -669507.06, -29562.93 
2.3513553e+2, 2.4468274e+2, -581832.94, -755684.1, -2006.2882, -0.0032110335, -0.0019558123, -581809.8, -39700.887 
2.3513615e+2, 2.546652e+2, -482421.03, -656921.75, -2223.0022, 0.003401526, -0.001968335, -482392.72, -38111.8 
2.3513678e+2, 2.64647e+2, -393319.72, -577582.56, -1793.3204, 0.0040270733, -0.0016712869, -393302.25, -46842.953 
2.3513739e+2, 2.7462813e+2, -296174.44, -479742.2, -1504.3685, -0.0021907885, -0.003303234, -296162.1, -47518.22 
2.3513807e+2, 2.846086e+2, -208495.81, -403096.28, -1106.5499, -0.0037269061, -0.0023713373, -208489.52, -57653.996 
2.3513882e+2, 2.9458836e+2, -108942.44, -304078.06, -1004.8769, 0.00017319396, -0.0010590048, -108937.266, -55903.21 
2.3513977e+2, 3.0457073e+2, -20720.072, -175499.66, 724.42114, 0.0023651079, -0.00183743, -20716.682, -20716.682 
2.3514089e+2, 3.1455588e+2, -20045.564, -174866.86, 1199.8086, 0.0025993155, -0.0072662355, -20036.268, -20036.268 
2.351412e+2, 3.2454562e+2, 42805.41, -41946.586, -4552.48, -0.0030401729, -0.005285273, 43049.246, 43049.246 
2.4512953e+2, 3.4895003e+1, -2537590.8, -2601534.5, -556.7569, 0.0042380276, -0.00092193205, -2537585.8, 60443.02 
2.4513036e+2, 4.489136e+1, -2445557.3, -2519901.8, -1134.8473, -0.0073175044, -0.0022421696, -2445539.8, 54524.645 
2.4513133e+2, 5.488715e+1, -2348296.0, -2422576.0, -1022.8674, 0.000105809464, -0.0017823736, -2348282.0, 53823.805 
2.4513222e+2, 6.488228e+1, -2259650.3, -2343239.5, -1347.8058, 0.0029764306, -0.0011568557, -2259628.5, 44525.0 
2.45133e+2, 7.487678e+1, -2161619.8, -2245410.8, -1316.9463, 0.0010507187, -0.0022767582, -2161599.0, 44608.414 
2.4513368e+2, 8.4870607e+1, -2072993.8, -2166488.3, -2099.041, -0.00034878845, -0.0019273818, -2072946.6, 35321.332 
2.4513428e+2, 9.48638e+1, -1975216.3, -2068764.9, -2304.0613, -0.0011876469, -0.0020972975, -1975159.5, 35175.1 
2.4513489e+2, 1.048563e+2, -1886843.8, -1990496.3, -2437.7207, -0.0008108432, -0.0013096285, -1886786.4, 25621.713 
2.4513549e+2, 1.1484813e+2, -1788526.9, -1892487.4, -2330.602, 0.0008505238, -0.0014734095, -1788474.6, 26013.588 
2.4513601e+2, 1.2483929e+2, -1699862.4, -1813634.4, -2936.2717, 0.0011193007, -0.0010872731, -1699786.6, 16788.127 
2.4513641e+2, 1.348298e+2, -1602246.8, -1715916.4, -3058.8677, -0.000094754956, -0.002158514, -1602164.5, 16503.34 
2.4513686e+2, 1.4481965e+2, -1513859.5, -1637289.5, -2935.0364, -0.00051877, -0.0017303007, -1513789.8, 6977.567 
2.4513733e+2, 1.5480883e+2, -1415826.9, -1539367.5, -2904.1877, -0.000093994495, -0.0018257551, -1415758.6, 7114.5874 
2.4513775e+2, 1.6479735e+2, -1327520.6, -1461141.5, -3245.245, 0.0003140003, -0.001176057, -1327441.8, -2455.905 
2.4513812e+2, 1.7478517e+2, -1229678.1, -1363288.6, -3127.79, 0.0007063367, -0.0019022387, -1229604.9, -2499.6912 
2.451385e+2, 1.8477237e+2, -1140495.6, -1283449.0, -3071.1973, 0.000017977414, -0.0015534803, -1140429.6, -11199.041 
2.4513888e+2, 1.9475895e+2, -1042306.94, -1185427.0, -3443.1003, -0.0018479308, -0.0020317242, -1042224.1, -10862.073 
2.4513932e+2, 2.0474482e+2, -954736.75, -1108557.0, -3257.6675, -0.0009843529, -0.0013382168, -954667.75, -21167.076 
2.4513981e+2, 2.1472993e+2, -857192.1, -1010932.75, -2735.8118, 0.0028845838, -0.0014542524, -857143.44, -21496.955 
2.4514024e+2, 2.2471444e+2, -767800.5, -930466.8, -2676.7773, 0.0022334019, -0.0011520237, -767756.44, -29958.143 
2.4514063e+2, 2.3469836e+2, -669409.4, -832225.2, -3161.6643, -0.0034686672, -0.002749009, -669348.0, -29392.018 
2.4514115e+2, 2.4468155e+2, -581587.7, -755249.75, -2685.8228, -0.003530024, -0.0024286972, -581546.2, -39425.51 
2.451418e+2, 2.5466403e+2, -483725.34, -657235.5, -2262.1978, 0.0027687592, -0.0020047005, -483695.84, -39403.48 
2.4514243e+2, 2.6464584e+2, -394869.97, -578039.06, -1908.5854, 0.004079832, -0.0015005603, -394850.1, -48379.617 
2.4514303e+2, 2.7462703e+2, -296509.16, -479591.2, -1990.5206, -0.00031412265, -0.0031838364, -296487.53, -47832.723 
2.451437e+2, 2.846075e+2, -208661.05, -402834.44, -1477.2201, -0.0030896147, -0.002281859, -208649.81, -57803.63 
2.4514446e+2, 2.9458728e+2, -110202.22, -304342.28, -1356.5475, -0.003994054, -0.0009720502, -110192.74, -57148.3 
2.4514543e+2, 3.0456975e+2, -22794.555, -175263.63, 106.37456, 0.0014840106, -0.0016285416, -22794.48, -22794.48 
2.4514666e+2, 3.14555e+2, -23946.549, -175444.05, 598.5358, 0.014555635, -0.006775766, -23944.184, -23944.184 
2.451469e+2, 3.2454482e+2, 45245.875, -40576.97, -3905.9329, -0.010836822, -0.003957597, 45423.273, 45423.273 
2.5513503e+2, 3.4893933e+1, -2538946.3, -2604340.3, 919.06915, 0.0032708936, 0.004254057, -2538933.3, 59106.156 
2.5513607e+2, 4.4890103e+1, -2445358.0, -2519491.8, -1259.6666, -0.0047134073, -0.0075423704, -2445336.5, 54740.29 
2.55137e+2, 5.488598e+1, -2348062.8, -2422124.5, -1163.94, 0.0004804975, -0.002073111, -2348044.5, 54072.95 
2.5513786e+2, 6.488114e+1, -2259581.8, -2343097.5, -1308.0491, 0.0018908196, 0.0008076166, -2259561.5, 44603.313 
2.5513864e+2, 7.487564e+1, -2161554.8, -2245279.5, -1276.3298, -0.000689952, -0.0009454953, -2161535.3, 44683.28 
2.5513932e+2, 8.4869456e+1, -2073364.1, -2167257.5, -2133.6836, -0.0008910894, -0.0009243531, -2073315.6, 34963.633 
2.5513995e+2, 9.4862586e+1, -1975581.9, -2069532.3, -2334.0981, 0.001411174, -0.0011027044, -1975523.9, 34822.613 
2.5514057e+2, 1.04855075e+2, -1886634.8, -1990108.9, -2342.357, 0.0012058882, -0.0012604084, -1886581.8, 25838.5 
2.5514114e+2, 1.1484691e+2, -1788332.8, -1892101.1, -2237.5884, -0.001648127, -0.0033634887, -1788284.5, 26215.695 
2.5514165e+2, 1.24838084e+2, -1700097.6, -1814086.0, -3023.979, -0.0013372515, -0.0022037297, -1700017.4, 16569.295 
2.551421e+2, 1.348286e+2, -1602458.3, -1716373.6, -3145.6511, 0.002341459, 0.00037779944, -1602371.4, 16308.294 
2.5514254e+2, 1.4481843e+2, -1513794.0, -1637211.1, -2926.281, 0.0020140323, 0.00067306147, -1513724.8, 7054.679 
2.5514296e+2, 1.5480757e+2, -1415785.4, -1539287.9, -2895.481, -0.0026028852, -0.00360735, -1415717.6, 7168.042 
2.5514337e+2, 1.647961e+2, -1327284.4, -1460689.4, -3292.7092, -0.0026954878, -0.003050851, -1327203.1, -2205.0918 
2.5514376e+2, 1.74784e+2, -1229428.1, -1362813.5, -3177.5107, 0.0021109004, 0.0005472906, -1229352.4, -2235.7766 
2.5514418e+2, 1.8477118e+2, -1141183.6, -1284855.8, -3030.2366, 0.002876276, 0.0013121971, -1141119.8, -11877.373 
2.5514454e+2, 1.9475763e+2, -1043033.6, -1186890.1, -3391.4138, -0.0007735254, -0.00300281, -1042953.7, -11578.58 
2.5514495e+2, 2.0474349e+2, -953809.7, -1106630.6, -3370.6062, -0.0021164485, -0.00336816, -953735.4, -20221.664 
2.5514537e+2, 2.1472877e+2, -856214.8, -1008908.4, -2865.595, -0.0009198779, -0.0014907101, -856161.06, -20503.113 
2.5514582e+2, 2.247133e+2, -768651.75, -932227.75, -2621.1108, 0.00055238226, -0.00015486694, -768609.75, -30800.258 
2.551463e+2, 2.3469709e+2, -670320.94, -834099.56, -3086.7249, 0.0023285002, -0.0017905527, -670262.75, -30294.277 
2.5514683e+2, 2.4468026e+2, -580855.1, -753786.6, -2750.683, 0.0011757724, -0.001737047, -580811.4, -38677.977 
2.5514734e+2, 2.5466284e+2, -482937.56, -655666.5, -2342.0999, -0.0032933757, -0.0018461071, -482905.8, -38601.805 
2.5514796e+2, 2.646447e+2, -394990.84, -578293.3, -1896.7328, -0.0023551844, -0.0011086472, -394971.22, -48489.605 
2.5514868e+2, 2.746259e+2, -296661.6, -479918.9, -1971.4622, 0.004785153, -0.0016809162, -296640.38, -47974.31 
2.5514936e+2, 2.8460637e+2, -208472.95, -402445.06, -1436.2104, 0.00317392, -0.0012888082, -208462.31, -57604.824 
2.5515002e+2, 2.9458615e+2, -109998.945, -303918.75, -1315.5286, -0.008623684, -0.002378795, -109990.02, -56934.34 
2.5515097e+2, 3.045687e+2, -22003.602, -173559.3, -234.88582, -0.0029426704, -0.0021979786, -22003.236, -22003.236 
2.5515223e+2, 3.145541e+2, -23133.645, -173692.69, 231.13704, 0.023432378, -0.0026984804, -23133.29, -23133.29 
2.551527e+2, 3.2454404e+2, 45529.168, -39910.45, -786.10266, -0.015383425, -0.0005577826, 45536.402, 45536.402 
2.6514062e+2, 3.489272e+1, -2536366.0, -2603638.3, 727.71936, 0.00045976366, 0.003731378, -2536358.0, 61693.22 
2.651418e+2, 4.488889e+1, -2445904.0, -2519540.8, -1366.1628, -0.00012181599, -0.0069048605, -2445878.5, 54210.215 
2.6514268e+2, 5.488478e+1, -2347534.8, -2421632.3, -1351.1293, 0.00059459504, -0.0017856726, -2347510.3, 54618.938 
2.6514348e+2, 6.4879954e+1, -2258937.3, -2342929.3, -1621.7839, 0.0002808077, 0.0008089776, -2258906.0, 45270.445 
2.651443e+2, 7.4874437e+1, -2161327.3, -2245305.3, -1747.9027, -0.0011285781, -0.0011569872, -2161290.8, 44939.65 
2.6514503e+2, 8.4868234e+1, -2072853.6, -2167086.5, -2426.2869, -0.00061698235, -0.0011511871, -2072791.3, 35499.996 
2.6514566e+2, 9.486136e+1, -1974093.5, -2068897.4, -2309.9739, 0.0019179261, -0.0011341987, -1974037.3, 36321.348 
2.651463e+2, 1.0485384e+2, -1885552.1, -1989715.5, -2534.9517, 0.0015793687, -0.001056024, -1885490.5, 26941.871 
2.651468e+2, 1.14845656e+2, -1789045.5, -1892582.0, -2729.39, -0.0017984835, -0.0028893512, -1788973.6, 25538.828 
2.651473e+2, 1.24836825e+2, -1700742.8, -1814345.3, -3253.7983, -0.0017450831, -0.0019751452, -1700649.6, 15949.42 
2.651478e+2, 1.3482733e+2, -1601320.5, -1715774.5, -3113.1423, 0.0019555364, -0.00018170725, -1601235.9, 17456.148 
2.6514822e+2, 1.4481716e+2, -1512704.4, -1636864.8, -3196.1233, 0.0020224527, 0.0003105644, -1512622.3, 8169.5273 
2.6514858e+2, 1.548063e+2, -1416319.6, -1539747.6, -3353.392, -0.0017918156, -0.0027120567, -1416228.6, 6669.428 
2.65149e+2, 1.6479483e+2, -1327820.1, -1460766.5, -3575.7036, -0.0022011076, -0.002292327, -1327724.1, -2713.5413 
2.651494e+2, 1.7478272e+2, -1228673.5, -1362252.1, -3583.3865, 0.0010721919, -0.00034125138, -1228577.5, -1448.3496 
2.651498e+2, 1.8476991e+2, -1140635.6, -1284781.4, -3486.974, 0.002013545, 0.00037274286, -1140551.4, -11296.577 
2.651502e+2, 1.9475634e+2, -1043876.1, -1187478.5, -3270.9443, 0.0004065055, -0.0022520837, -1043801.6, -12413.989 
2.6515058e+2, 2.0474221e+2, -954640.7, -1106854.9, -3215.5916, -0.00096461317, -0.002401129, -954572.8, -21046.568 
2.6515096e+2, 2.1472749e+2, -856064.5, -1008640.8, -3585.5063, -0.0020808666, -0.0019314958, -855980.3, -20309.912 
2.6515144e+2, 2.2471203e+2, -768394.5, -932099.5, -3394.4724, -0.0007245779, -0.00078755175, -768324.1, -30502.236 
2.6515192e+2, 2.3469584e+2, -670714.4, -834294.4, -2938.726, 0.003380166, -0.0012559191, -670661.56, -30680.8 
2.651524e+2, 2.44679e+2, -581503.3, -753983.56, -2495.0684, 0.0024489786, -0.0009393676, -581467.25, -39321.586 
2.651529e+2, 2.546616e+2, -483445.2, -655815.9, -2820.95, -0.0041772868, -0.0018044913, -483399.03, -39082.77 
2.651535e+2, 2.6464346e+2, -395578.47, -578465.2, -2627.1174, -0.0035296718, -0.0011652884, -395540.72, -49046.95 
2.6515424e+2, 2.7462468e+2, -297569.9, -480248.56, -2484.3545, 0.005452407, -0.0010829042, -297536.13, -48858.035 
2.6515493e+2, 2.8460518e+2, -209343.22, -402672.5, -1767.3788, 0.0041675656, -0.00072205754, -209327.06, -58457.676 
2.651556e+2, 2.9458493e+2, -110503.41, -303968.66, -1741.2694, -0.009063933, -0.0026467827, -110487.734, -57420.223 
2.6515654e+2, 3.0456755e+2, -22537.602, -173565.11, -1536.3256, -0.003733453, -0.0015955449, -22521.975, -22521.975 
2.6515767e+2, 3.14553e+2, -24228.748, -173971.89, -1805.144, 0.023577182, 0.00078343716, -24206.99, -24206.99 
2.6515847e+2, 3.245429e+2, 44187.93, -40283.863, 310.8644, -0.01505474, 0.00032268977, 44189.074, 44189.074 
2.7514628e+2, 3.4891373e+1, -2535736.0, -2602367.3, 124.4173, -0.0041268594, -0.0021860013, -2535735.8, 62328.703 
2.751475e+2, 4.4887716e+1, -2445814.5, -2519370.5, -1232.8616, 0.0063386243, -0.0006506133, -2445793.8, 54306.57 
2.7514833e+2, 5.488356e+1, -2347447.0, -2421466.0, -1209.2083, 0.00043566345, -0.0009535742, -2347427.3, 54713.83 
2.7514917e+2, 6.487869e+1, -2259162.3, -2343407.8, -1675.9658, -0.0018486963, -0.0010485683, -2259128.8, 45059.836 
2.7514997e+2, 7.4873143e+1, -2161554.5, -2245789.5, -1802.2686, -0.00035667696, -0.0028343075, -2161515.8, 44727.207 
2.7515072e+2, 8.486694e+1, -2072615.0, -2166625.3, -2207.85, 0.00041622546, -0.002544166, -2072563.1, 35740.69 
2.751514e+2, 9.486011e+1, -1973874.9, -2068433.0, -2091.1245, 0.00042337607, -0.002136965, -1973828.6, 36542.168 
2.7515197e+2, 1.04852594e+2, -1885933.3, -1990455.5, -2896.4392, 0.0003700855, -0.0007063426, -1885853.0, 26591.498 
2.7515247e+2, 1.1484439e+2, -1789398.4, -1893318.8, -3095.195, 0.00025115782, -0.00018576349, -1789306.4, 25218.576 
2.7515295e+2, 1.24835536e+2, -1700455.1, -1813789.3, -2890.4568, -0.00024023258, -0.00047292007, -1700381.5, 16230.204 
2.7515352e+2, 1.3482603e+2, -1601089.3, -1715205.4, -2742.2004, -0.0011207431, -0.0036602442, -1601023.4, 17681.361 
2.7515393e+2, 1.4481586e+2, -1513015.6, -1637488.3, -3599.7607, -0.00037293942, -0.0026617895, -1512911.6, 7892.783 
2.7515426e+2, 1.5480503e+2, -1416600.6, -1540356.9, -3764.7886, 0.002129555, 0.0007071182, -1416486.3, 6424.328 
2.7515462e+2, 1.6479354e+2, -1327806.4, -1460803.6, -3295.5, 0.0015762539, 0.0009541284, -1327724.8, -2701.4307 
2.7515507e+2, 1.7478135e+2, -1228710.9, -1362298.3, -3290.5415, -0.002286022, -0.004373392, -1228629.9, -1487.3177 
2.7515545e+2, 1.8476856e+2, -1140257.5, -1283986.5, -3788.8896, -0.002375016, -0.0041555017, -1140157.6, -10889.621 
2.7515578e+2, 1.9475512e+2, -1043445.5, -1186646.5, -3588.7278, 0.0016587437, 0.00012484276, -1043355.6, -11955.956 
2.7515617e+2, 2.0474099e+2, -955296.75, -1108221.1, -3094.611, 0.0023147217, 0.0013979065, -955234.1, -21695.85 
2.751566e+2, 2.1472612e+2, -856769.44, -1010091.1, -3444.9214, -0.0007659402, -0.0027496226, -856692.06, -21008.184 
2.75157e+2, 2.2471064e+2, -767609.9, -930429.5, -3482.1736, -0.0016462439, -0.002952719, -767535.44, -29699.982 
2.7515748e+2, 2.346946e+2, -669870.75, -832531.56, -3044.1545, -0.00006178396, -0.0011226634, -669813.75, -29820.883 
2.7515796e+2, 2.446778e+2, -582064.4, -755186.94, -2547.7866, 0.00046538352, -0.000041639578, -582026.9, -39869.44 
2.751585e+2, 2.546603e+2, -484056.16, -657115.2, -2862.3372, -0.00020733276, -0.0018726009, -484008.84, -39679.793 
2.751591e+2, 2.6464215e+2, -395353.66, -577985.1, -2682.4219, 0.00022657726, -0.0016414102, -395314.25, -48807.355 
2.7515972e+2, 2.746234e+2, -297316.34, -479692.56, -2543.6414, 0.0019343975, -0.0013377318, -297280.88, -48590.07 
2.7516043e+2, 2.846039e+2, -209297.56, -402626.1, -1636.4772, 0.00018598638, -0.0005563939, -209283.7, -58401.844 
2.7516124e+2, 2.9458368e+2, -110494.945, -303940.94, -1603.6073, -0.0055901874, -0.0018422374, -110481.65, -57401.746 
2.7516207e+2, 3.0456626e+2, -23031.795, -174558.14, -2010.902, -0.0011232982, 0.00011550187, -23005.111, -23005.111 
2.7516302e+2, 3.1455162e+2, -24692.467, -174986.39, -2306.2708, 0.015494195, 0.0037478812, -24657.084, -24657.084 
2.7516428e+2, 3.2454148e+2, 44117.145, -40298.21, 3475.5745, -0.010198599, -0.0011837042, 44260.004, 44260.004 
2.8515205e+2, 3.4890175e+1, -2534636.3, -2602118.3, -43.860336, -0.0047114566, -0.0039395327, -2534636.3, 63439.953 
2.8515318e+2, 4.4886532e+1, -2445389.3, -2519203.5, -778.3454, 0.0070045553, 0.00107115, -2445381.0, 54730.984 
2.8515404e+2, 5.4882354e+1, -2346469.0, -2421034.3, -860.36664, -0.000017208884, -0.001124628, -2346459.0, 55693.844 
2.851549e+2, 6.487746e+1, -2257994.0, -2343107.3, -1609.4641, -0.0022238775, -0.0017503616, -2257963.8, 46237.08 
2.851557e+2, 7.4871904e+1, -2160268.3, -2245440.5, -1680.6991, 0.00060876907, -0.002639125, -2160235.3, 46020.094 
2.8515646e+2, 8.486569e+1, -2071825.6, -2166273.0, -2113.0366, 0.0011204391, -0.002142326, -2071778.4, 36537.78 
2.8515714e+2, 9.485885e+1, -1974518.8, -2068773.9, -2259.5974, -0.0008209244, -0.0022590621, -1974464.6, 35918.586 
2.851577e+2, 1.0485131e+2, -1886217.8, -1990803.5, -3154.5151, -0.0007329763, -0.0009547676, -1886122.6, 26334.385 
2.8515822e+2, 1.1484309e+2, -1787235.9, -1892496.6, -3118.3872, 0.0015039762, -0.00013035684, -1787143.6, 27393.941 
2.851587e+2, 1.2483423e+2, -1698561.8, -1812944.4, -2970.4907, 0.0011277143, -0.00036194082, -1698484.6, 18139.816 
2.8515917e+2, 1.3482471e+2, -1602390.5, -1715982.3, -3163.7861, -0.0020274504, -0.0037487124, -1602302.5, 16415.213 
2.8515962e+2, 1.4481455e+2, -1514402.6, -1638086.9, -3953.23, -0.0016329089, -0.0029154043, -1514276.4, 6540.9854 
2.8515995e+2, 1.5480371e+2, -1414767.6, -1539423.0, -3778.274, 0.002577703, 0.00031895496, -1414653.1, 8270.332 
2.851603e+2, 1.6479221e+2, -1326110.0, -1460238.6, -3369.116, 0.002522932, 0.0007242989, -1326025.4, -989.09564 
2.8516072e+2, 1.7478001e+2, -1230292.1, -1363324.8, -3534.2576, -0.0021503782, -0.0041255546, -1230198.4, -3042.5977 
2.8516108e+2, 1.8476722e+2, -1141859.6, -1284358.3, -4007.2014, -0.0028001424, -0.003901903, -1141747.0, -12465.852 
2.851614e+2, 1.9475381e+2, -1042346.25, -1185710.0, -3971.639, 0.00094757497, -0.00013376623, -1042236.3, -10823.777 
2.8516176e+2, 2.0473967e+2, -954149.4, -1107991.8, -3510.8752, 0.0020782668, 0.0011271599, -954069.3, -20518.195 
2.8516218e+2, 2.147248e+2, -857708.3, -1010850.8, -3357.9907, 0.00031599985, -0.002481715, -857634.7, -21937.783 
2.851626e+2, 2.2470932e+2, -768804.25, -930758.3, -3286.5955, -0.00087772176, -0.0026610403, -768737.56, -30889.066 
2.8516302e+2, 2.3469329e+2, -670141.8, -832379.94, -3525.1824, -0.0014421032, -0.0013890656, -670065.25, -30059.533 
2.8516352e+2, 2.446765e+2, -582204.9, -755368.3, -3227.9424, -0.00073952746, -0.00045966258, -582144.7, -39974.523 
2.8516406e+2, 2.5465897e+2, -484503.2, -657430.75, -2979.8047, 0.0013876866, -0.0019750027, -484451.84, -40110.004 
2.8516465e+2, 2.6464084e+2, -395668.4, -578111.5, -2535.6836, 0.0015479164, -0.0015683001, -395633.2, -49113.438 
2.8516525e+2, 2.7462208e+2, -297168.97, -479615.3, -2646.264, -0.00054730487, -0.001248644, -297130.6, -48426.965 
2.8516597e+2, 2.8460258e+2, -209553.2, -402853.06, -1933.1849, -0.0015195353, -0.00030674168, -209533.88, -58639.18 
2.851668e+2, 2.9458237e+2, -111828.414, -304725.34, -2015.3843, -0.0011883983, -0.0012610307, -111807.36, -58714.53 
2.8516763e+2, 3.045649e+2, -23991.307, -175906.95, -2579.7646, 0.00039346947, 0.00039704875, -23947.51, -23947.51 
2.851684e+2, 3.1455016e+2, -22569.883, -174867.02, -2956.8188, 0.003506057, 0.003003888, -22512.498, -22512.498 
2.8516996e+2, 3.2454002e+2, 40941.918, -41812.684, 3882.029, -0.002472911, 0.000027946491, 41123.625, 41123.625 
2.9515788e+2, 3.4889108e+1, -2535622.8, -2604108.5, -1219.363, -0.0015394111, -0.0017653691, -2535601.3, 62485.484 
2.9515877e+2, 4.4885337e+1, -2445509.5, -2519499.3, -514.7582, 0.0021935208, -0.0014811839, -2445506.0, 54617.613 
2.951598e+2, 5.4881155e+1, -2346614.3, -2421320.8, -583.6543, -0.0007771468, -0.0022456194, -2346609.8, 55554.91 
2.951607e+2, 6.4876264e+1, -2258117.3, -2343373.5, -1640.0566, -0.0009710648, -0.0013697947, -2258085.8, 46126.84 
2.951615e+2, 7.48707e+1, -2160390.8, -2245697.5, -1712.9185, 0.0017381548, -0.00068480516, -2160356.3, 45910.785 
2.951622e+2, 8.4864455e+1, -2072085.9, -2166839.3, -2266.631, 0.001498079, -0.000055796067, -2072031.6, 36296.57 
2.951628e+2, 9.485757e+1, -1974777.8, -2069340.8, -2412.8538, -0.0018566607, -0.0015541251, -1974716.3, 35679.535 
2.9516342e+2, 1.0485e+2, -1886146.5, -1990609.8, -2896.6367, -0.0017613809, -0.001758495, -1886066.3, 26403.645 
2.95164e+2, 1.1484178e+2, -1787189.9, -1892296.3, -2854.4292, 0.0019876016, -0.0025715788, -1787112.4, 27438.05 
2.9516447e+2, 1.248329e+2, -1698942.6, -1813715.5, -3429.225, 0.002338588, -0.0015640119, -1698840.3, 17797.154 
2.9516482e+2, 1.3482338e+2, -1602771.8, -1716723.0, -3628.615, -0.00091593893, -0.00065624865, -1602656.4, 16074.409 
2.951652e+2, 1.448132e+2, -1514036.3, -1637385.9, -3548.2341, -0.00183964, -0.0006152474, -1513934.3, 6896.3 
2.951657e+2, 1.5480235e+2, -1414456.8, -1538696.1, -3361.8118, -0.00026097227, -0.0036434007, -1414365.9, 8570.854 
2.9516605e+2, 1.6479087e+2, -1326452.9, -1460916.4, -3913.6475, 0.0007814948, -0.0027717385, -1326339.0, -1289.555 
2.951663e+2, 1.7477868e+2, -1230600.9, -1364004.9, -4090.307, 0.0012463629, 0.0001370888, -1230475.5, -3306.831 
2.9516667e+2, 1.8476589e+2, -1141740.6, -1284208.8, -3636.41, 0.00047971902, 0.0008452659, -1141647.9, -12353.549 
2.9516706e+2, 1.9475241e+2, -1042269.06, -1185567.8, -3583.7085, -0.0016315131, -0.002855386, -1042179.5, -10753.3125 
2.9516742e+2, 2.0473827e+2, -953925.06, -1107437.4, -3894.1755, -0.0014837388, -0.0029645374, -953826.3, -20261.723 
2.9516774e+2, 2.147235e+2, -857427.0, -1010284.5, -3762.1987, 0.0011622476, -0.0011932992, -857334.44, -21624.889 
2.9516816e+2, 2.2470804e+2, -769230.56, -931615.8, -3159.8882, 0.0014500414, -0.000058350746, -769169.1, -31307.986 
2.951686e+2, 2.3469189e+2, -670600.7, -833304.25, -3378.0183, -0.0009055029, -0.002025782, -670530.56, -30511.3 
2.9516906e+2, 2.4467511e+2, -581802.0, -754476.75, -3331.7915, -0.001231816, -0.0021097763, -581737.75, -39553.9 
2.951696e+2, 2.5465766e+2, -484066.63, -656473.06, -3096.181, 0.0007372795, -0.0021117993, -484011.03, -39656.316 
2.9517016e+2, 2.6463956e+2, -395873.66, -578506.2, -2487.0962, 0.00055990845, -0.0009772842, -395839.78, -49307.47 
2.9517078e+2, 2.7462077e+2, -297411.75, -480053.72, -2588.916, -0.0020724963, -0.0008391978, -297375.06, -48658.535 
2.9517147e+2, 2.8460124e+2, -209765.69, -403258.66, -2068.6816, -0.0011051588, 0.000020998505, -209743.58, -58835.688 
2.9517233e+2, 2.94581e+2, -112036.53, -305121.8, -2153.637, 0.004054957, -0.00089182926, -112012.516, -58906.25 
2.9517314e+2, 3.0456343e+2, -24614.787, -177213.38, -2260.8723, 0.00086603535, -0.000669019, -24581.299, -24581.299 
2.9517382e+2, 3.145486e+2, -23205.623, -176208.69, -2609.6409, -0.0121520115, -0.0012470771, -23161.127, -23161.127 
2.9517558e+2, 3.2453847e+2, 40901.984, -41723.137, 2903.6714, 0.00789078, 0.0037911462, 41003.902, 41003.902 
3.0516365e+2, 3.4887993e+1, -2535700.3, -2603925.5, -1595.8368, 0.0011347561, 0.00020574544, -2535663.0, 62434.527 
3.0516455e+2, 4.488415e+1, -2442846.5, -2518906.5, -388.61182, -0.0020368188, -0.0047485866, -2442844.5, 57290.74 
3.051656e+2, 5.4879934e+1, -2345753.8, -2421631.5, -779.9248, -0.00032058236, -0.0023687456, -2345745.5, 56430.91 
3.0516654e+2, 6.487501e+1, -2257647.5, -2343245.0, -2000.46, 0.0007224704, -0.00031867283, -2257600.8, 46623.973 
3.051673e+2, 7.486943e+1, -2159579.3, -2245416.5, -2024.6431, 0.0010508836, -0.0005362654, -2159531.5, 46748.08 
3.05168e+2, 8.486317e+1, -2071074.8, -2166648.5, -2636.3228, 0.0005720456, -0.00031516637, -2071002.1, 37338.74 
3.051686e+2, 9.4856244e+1, -1973461.5, -2068998.9, -2703.3723, -0.00076153607, -0.0017048316, -1973385.0, 37023.594 
3.051692e+2, 1.0484867e+2, -1885149.9, -1990126.4, -3003.5334, -0.0007813881, -0.0019097617, -1885064.0, 27418.871 
3.0516973e+2, 1.14840455e+2, -1787653.1, -1892521.3, -3029.8804, 0.00059726636, -0.0028338656, -1787565.6, 26997.787 
3.051702e+2, 1.2483157e+2, -1699378.5, -1814120.5, -3786.839, 0.0010576117, -0.0016186833, -1699253.8, 17396.775 
3.0517057e+2, 1.3482204e+2, -1601221.5, -1716199.6, -3744.6965, 0.000532204, -0.00016642784, -1601099.6, 17644.285 
3.0517092e+2, 1.4481184e+2, -1512686.0, -1636758.9, -3460.745, -0.00028376942, -0.00019305658, -1512589.5, 8254.345 
3.0517137e+2, 1.54801e+2, -1415793.1, -1539396.5, -3648.6978, -0.0014171661, -0.0039426084, -1415685.5, 7264.68 
3.0517173e+2, 1.6478948e+2, -1327706.9, -1461347.9, -4402.4277, -0.0007739164, -0.00301929, -1327562.1, -2499.2537 
3.0517197e+2, 1.7477736e+2, -1228917.3, -1363048.8, -4149.8057, 0.0018047973, 0.00078318216, -1228788.9, -1607.1075 
3.0517226e+2, 1.8476453e+2, -1140300.0, -1283811.9, -3463.018, 0.0016343624, 0.0014077566, -1140216.5, -10909.066 
3.0517268e+2, 1.9475102e+2, -1043846.75, -1186657.3, -3703.5288, -0.001544965, -0.003446339, -1043750.8, -12311.017 
3.05173e+2, 2.047369e+2, -955547.56, -1107870.3, -4254.381, -0.0019894443, -0.0036820676, -955428.8, -21850.61 
3.051733e+2, 2.1472216e+2, -856769.56, -1009568.5, -4155.522, 0.0005964228, -0.0009138461, -856656.7, -20933.955 
3.0517367e+2, 2.2470671e+2, -768443.3, -931484.3, -3402.2417, 0.0012763161, 0.00044470056, -768372.3, -30498.158 
3.0517414e+2, 2.3469053e+2, -671348.0, -833914.9, -3325.5852, -0.0001853962, -0.0021594905, -671280.0, -31247.404 
3.0517462e+2, 2.4467376e+2, -582722.94, -754686.3, -3229.36, -0.000580793, -0.0023124884, -582662.3, -40465.13 
3.051751e+2, 2.5465634e+2, -484374.25, -656354.0, -3279.2974, 0.0002309842, -0.001744142, -484311.75, -39944.023 
3.0517566e+2, 2.6463822e+2, -396299.8, -578871.1, -2733.0786, -0.0004151872, -0.0006714899, -396258.9, -49713.67 
3.0517626e+2, 2.746194e+2, -298255.97, -480641.4, -2711.3606, -0.0027360383, -0.0013191487, -298215.66, -49486.01 
3.05177e+2, 2.8459987e+2, -210483.17, -403570.4, -2092.7163, -0.0006349348, -0.0006064097, -210460.5, -59539.44 
3.0517787e+2, 2.9457965e+2, -112295.89, -305193.78, -1936.4205, 0.0066209706, -0.0009251681, -112276.45, -59157.156 
3.0517864e+2, 3.0456206e+2, -24766.004, -177730.19, -1292.0261, 0.00093619706, -0.0010098901, -24755.092, -24755.092 
3.051794e+2, 3.145472e+2, -22838.748, -176501.08, -1281.5509, -0.020025136, -0.002957972, -22828.06, -22828.06 
3.05181e+2, 3.2453707e+2, 37620.67, -42802.027, 1822.1239, 0.013026165, 0.0029092215, 37661.934, 37661.934 
3.1516948e+2, 3.488684e+1, -2534514.0, -2601533.0, -633.1892, 0.0033076066, 0.0019726395, -2534508.0, 63600.813 
3.1517038e+2, 4.4882968e+1, -2443592.3, -2520443.0, -577.5499, -0.0057342807, -0.008682016, -2443587.8, 56558.875 
3.1517145e+2, 5.4878694e+1, -2346528.3, -2423204.0, -967.923, 0.0012432286, -0.001561011, -2346516.0, 55672.75 
3.1517237e+2, 6.4873725e+1, -2257666.3, -2343330.0, -1944.6067, 0.0027983559, 0.0013562221, -2257622.3, 46615.227 
3.1517312e+2, 7.48681e+1, -2159597.3, -2245486.3, -1966.3917, -0.0013541012, -0.002074278, -2159552.3, 46740.09 
3.151738e+2, 8.4861827e+1, -2071189.9, -2166895.0, -2704.4773, -0.0015955177, -0.002772713, -2071113.5, 37240.53 
3.1517443e+2, 9.48549e+1, -1973565.9, -2069249.0, -2772.2214, 0.0022930116, -0.002650762, -1973485.6, 36936.227 
3.1517503e+2, 1.0484733e+2, -1885204.5, -1990209.8, -3116.573, 0.002053683, -0.0014449517, -1885112.0, 27384.049 
3.1517547e+2, 1.14839114e+2, -1787713.5, -1892611.5, -3144.151, -0.0025621336, -0.0010599057, -1787619.4, 26957.217 
3.1517592e+2, 1.2483023e+2, -1699290.8, -1813913.3, -3745.997, -0.0025938167, -0.0005985261, -1699168.4, 17495.238 
3.1517634e+2, 1.3482068e+2, -1601126.9, -1715979.1, -3702.72, 0.0022789997, -0.0021116901, -1601007.6, 17749.62 
3.151767e+2, 1.4481047e+2, -1513046.1, -1637504.3, -3741.082, 0.0029038696, -0.0015300232, -1512933.8, 7923.5303 
3.1517702e+2, 1.5479961e+2, -1416178.6, -1540152.3, -3928.6543, -0.0010299928, -0.0008219635, -1416054.3, 6909.4116 
3.1517735e+2, 1.6478811e+2, -1327211.5, -1460361.6, -4210.469, -0.0021799041, -0.00022820488, -1327078.5, -2002.2285 
3.1517765e+2, 1.74776e+2, -1228424.4, -1362018.6, -3956.7783, -0.00030595867, -0.0019514783, -1228307.3, -1112.1815 
3.1517795e+2, 1.8476316e+2, -1140757.5, -1284775.8, -3858.1858, 0.00077882, -0.0019492229, -1140654.1, -11333.426 
3.1517825e+2, 1.9474965e+2, -1044320.2, -1187657.5, -4100.4985, 0.001004683, -0.0020458512, -1044203.0, -12749.663 
3.1517857e+2, 2.0473552e+2, -955356.9, -1107454.6, -4064.0981, 0.0003442789, -0.0012448891, -955248.4, -21656.49 
3.151789e+2, 2.1472077e+2, -856582.6, -1009120.25, -3955.0042, -0.0013077289, -0.0015743314, -856480.1, -20743.826 
3.1517926e+2, 2.2470534e+2, -768349.9, -931241.06, -3643.5088, -0.001261532, -0.0010124254, -768268.44, -30380.81 
3.1517965e+2, 2.3468919e+2, -671242.25, -833682.75, -3578.156, 0.0006871991, -0.0018225029, -671163.5, -31117.77 
3.1518012e+2, 2.4467242e+2, -582817.0, -754851.25, -3191.3738, 0.0011208147, -0.0011609048, -582757.8, -40547.633 
3.151806e+2, 2.54655e+2, -484477.94, -656535.25, -3230.417, -0.00015760204, -0.00090312964, -484417.28, -40036.41 
3.1518114e+2, 2.6463687e+2, -396309.72, -578836.6, -2776.1287, -0.0014027079, -0.0006300354, -396267.53, -49708.992 
3.1518173e+2, 2.7461803e+2, -298262.6, -480602.25, -2753.4092, -0.0026109894, -0.002628899, -298221.03, -49478.016 
3.1518248e+2, 2.8459853e+2, -210262.08, -403021.25, -2108.7341, -0.00012882345, -0.0021249785, -210239.0, -59304.777 
3.151833e+2, 2.9457834e+2, -112085.81, -304615.63, -1952.3546, 0.0066690743, -0.0013296085, -112066.02, -58934.047 
3.1518418e+2, 3.045608e+2, -24813.79, -177723.42, -834.6364, 0.0006088883, -0.0006675167, -24809.234, -24809.234 
3.15185e+2, 3.1454593e+2, -22916.19, -176542.11, -790.0095, -0.020661078, -0.002303773, -22912.127, -22912.127 
3.151863e+2, 3.2453576e+2, 38148.082, -41712.023, -1669.5295, 0.013263887, -0.0023095154, 38182.97, 38182.97 
3.2517532e+2, 3.4885627e+1, -2533361.0, -2601873.0, 35.08517, 0.0032701422, 0.0011340383, -2533361.0, 64759.707 
3.2517633e+2, 4.488175e+1, -2442231.3, -2519928.0, -1522.9435, -0.0052882386, -0.005984059, -2442201.5, 57957.32 
3.2517734e+2, 5.4877436e+1, -2345120.0, -2422658.8, -1244.4263, 0.0012496734, -0.0011934269, -2345100.3, 57100.93 
3.2517824e+2, 6.4872444e+1, -2256564.5, -2342984.5, -1758.7213, 0.0026443212, 0.000622661, -2256528.8, 47721.3 
3.2517898e+2, 7.4866796e+1, -2159005.5, -2245395.3, -1890.8269, -0.0013818631, -0.0026158928, -2158964.0, 47341.156 
3.2517967e+2, 8.4860504e+1, -2070635.5, -2166759.0, -2683.706, -0.0016264286, -0.0029193494, -2070560.6, 37806.336 
3.251803e+2, 9.4853574e+1, -1972672.3, -2068938.8, -2723.3142, 0.0021225277, -0.002189854, -1972595.3, 37839.54 
3.2518083e+2, 1.0484599e+2, -1884434.4, -1990015.9, -3254.4521, 0.002038232, -0.00085871137, -1884334.1, 28175.021 
3.2518125e+2, 1.1483776e+2, -1787558.5, -1892702.8, -3350.1357, -0.0021077958, -0.0008664566, -1787451.8, 27138.057 
3.2518166e+2, 1.2482886e+2, -1699088.1, -1813839.3, -3734.6008, -0.0023635086, -0.0007947183, -1698966.6, 17710.389 
3.251821e+2, 1.348193e+2, -1600460.6, -1715648.6, -3789.986, 0.0015248249, -0.0026917732, -1600336.1, 18434.58 
3.2518244e+2, 1.448091e+2, -1512372.9, -1637291.9, -4173.981, 0.0023033465, -0.0018180633, -1512233.5, 8637.204 
3.251827e+2, 1.5479824e+2, -1415856.6, -1540133.4, -4074.371, -0.00025344544, -0.00008169148, -1415723.3, 7253.942 
3.2518297e+2, 1.6478673e+2, -1327281.5, -1460467.5, -4002.4204, -0.0013280561, 0.0002051212, -1327161.4, -2071.4395 
3.2518333e+2, 1.7477459e+2, -1228909.8, -1362349.1, -4301.3184, -0.00079371035, -0.0032756357, -1228771.3, -1562.2927 
3.251836e+2, 1.8476176e+2, -1140963.1, -1284683.1, -4642.779, 0.000011794446, -0.0030577965, -1140813.4, -11478.844 
3.2518384e+2, 1.947483e+2, -1043848.06, -1187206.6, -4283.4795, 0.001114098, -0.0007785783, -1043720.2, -12253.499 
3.251841e+2, 2.0473416e+2, -955192.25, -1107506.3, -3709.8506, 0.00082379265, 0.00019954031, -955102.0, -21496.785 
3.2518443e+2, 2.1471937e+2, -857355.6, -1009668.94, -3910.3477, -0.0010087175, -0.0023837844, -857255.25, -21505.281 
3.251848e+2, 2.2470394e+2, -769163.56, -931321.8, -3985.9392, -0.0013089449, -0.0022585338, -769065.6, -31164.37 
3.2518515e+2, 2.3468785e+2, -671660.56, -833554.75, -3844.5168, 0.0001056688, -0.0014659791, -671569.4, -31510.422 
3.2518557e+2, 2.4467108e+2, -583328.06, -755128.0, -3171.7727, 0.00066967215, -0.00048224514, -583269.56, -41046.324 
3.2518607e+2, 2.5465366e+2, -485165.0, -656911.6, -3148.376, 0.00027060785, -0.0013647594, -485107.3, -40713.234 
3.251866e+2, 2.6463553e+2, -396910.34, -578806.3, -2660.8242, -0.0006421219, -0.001374617, -396871.4, -50299.8 
3.251872e+2, 2.7461675e+2, -298950.34, -480618.7, -2453.55, -0.0021531237, -0.0026625635, -298917.22, -50161.48 
3.251879e+2, 2.8459725e+2, -211234.97, -403227.16, -1768.5756, -0.00060860935, -0.002089349, -211218.67, -60271.992 
3.251887e+2, 2.945771e+2, -113416.99, -305017.44, -1727.2737, 0.0045209615, -0.001972801, -113401.42, -60257.168 
3.2518962e+2, 3.045596e+2, -26575.09, -177775.86, -72.99636, 0.0005697337, -0.0013656415, -26575.055, -26575.055 
3.2519057e+2, 3.145448e+2, -25941.273, -177163.02, 522.55835, -0.014135173, -0.0023016066, -25939.467, -25939.467 
3.2519153e+2, 3.2453465e+2, 38998.344, -40985.01, -2660.0767, 0.008914076, -0.005004677, 39086.71, 39086.71 
3.351812e+2, 3.488436e+1, -2535553.0, -2606379.0, 841.59534, 0.0011214366, -0.0021248898, -2535543.0, 62590.11 
3.3518237e+2, 4.4880486e+1, -2441740.3, -2518859.8, -1679.7454, -0.0009860479, 0.0029074245, -2441703.8, 58467.46 
3.351833e+2, 5.4876155e+1, -2344574.0, -2421518.0, -1419.7162, -0.00023282148, -0.0012379886, -2344547.8, 57665.87 
3.3518413e+2, 6.487116e+1, -2256777.0, -2343478.8, -1841.8943, 0.00036908023, -0.0023594645, -2256738.0, 47524.65 
3.3518487e+2, 7.4865514e+1, -2159221.3, -2245914.5, -1970.7952, 0.00078557845, -0.0022229445, -2159176.5, 47141.277 
3.351856e+2, 8.4859216e+1, -2070689.6, -2166901.3, -2669.1946, 0.00031374232, -0.000904372, -2070615.6, 37763.92 
3.3518615e+2, 9.485228e+1, -1972731.1, -2069092.6, -2706.758, -0.0010892014, -0.00040972172, -1972655.1, 37792.49 
3.3518666e+2, 1.0484467e+2, -1884607.3, -1990366.5, -3524.2737, -0.00066717603, -0.00015480552, -1884490.0, 28032.254 
3.3518708e+2, 1.1483639e+2, -1787691.6, -1893048.5, -3623.791, 0.0016943584, -0.0021405458, -1787567.1, 27036.125 
3.3518746e+2, 1.2482747e+2, -1699177.9, -1814024.6, -3571.9824, 0.001447613, -0.002119639, -1699066.9, 17623.828 
3.3518788e+2, 1.3481791e+2, -1600596.5, -1715869.0, -3619.6296, -0.0015741645, -0.002001651, -1600483.0, 18301.26 
3.3518818e+2, 1.4480773e+2, -1512214.4, -1636911.3, -4544.362, -0.0018438766, -0.0011261444, -1512049.0, 8835.281 
3.351884e+2, 1.5479687e+2, -1415641.0, -1539702.0, -4458.1274, 0.0008574115, -0.0015590716, -1415481.0, 7509.6187 
3.3518866e+2, 1.6478534e+2, -1327807.5, -1461608.4, -3926.125, 0.0015994266, -0.0015608334, -1327692.4, -2588.8423 
3.3518898e+2, 1.7477311e+2, -1229507.9, -1363551.8, -4203.8555, 0.00021602813, -0.0032879228, -1229376.3, -2152.9417 
3.3518925e+2, 1.8476032e+2, -1140332.5, -1283335.3, -4846.483, -0.00069158495, -0.002074354, -1140168.4, -10819.681 
3.351894e+2, 1.9474693e+2, -1043153.94, -1185780.3, -4506.713, -0.0010726552, 0.0003606416, -1043011.7, -11531.793 
3.3518964e+2, 2.0473282e+2, -955546.3, -1108259.4, -3772.8596, -0.0004399111, 0.00071893225, -955453.2, -21834.977 
3.3519e+2, 2.1471797e+2, -857774.94, -1010481.3, -3958.7793, 0.0013196018, -0.0033341453, -857672.44, -21908.709 
3.3519033e+2, 2.2470254e+2, -768924.0, -930798.6, -4128.179, 0.00093526655, -0.0033101144, -768818.75, -30903.695 
3.3519062e+2, 2.346865e+2, -671381.9, -832991.75, -3994.6804, -0.0018450028, -0.0010907514, -671283.2, -31210.98 
3.35191e+2, 2.4466975e+2, -583312.8, -755065.25, -3176.924, -0.0018023285, -0.00024221101, -583254.06, -41017.78 
3.3519152e+2, 2.546523e+2, -485182.2, -656869.1, -3144.61, 0.0014402191, -0.0030384175, -485124.63, -40717.344 
3.3519208e+2, 2.6463422e+2, -396573.13, -578072.9, -2735.3054, 0.0017223414, -0.0028478566, -396531.9, -49947.367 
3.3519262e+2, 2.746155e+2, -298608.16, -479850.5, -2533.2307, -0.0013968787, -0.0015090195, -298572.78, -49804.875 
3.3519328e+2, 2.8459606e+2, -211211.53, -403087.63, -1890.033, -0.0020185234, -0.0006059255, -211192.92, -60234.44 
3.3519402e+2, 2.9457587e+2, -113395.83, -304905.6, -1846.3102, 0.00030608004, -0.0028462757, -113378.03, -60221.836 
3.3519495e+2, 3.0455846e+2, -25652.838, -175768.72, 50.54172, 0.0007673535, -0.0030349158, -25652.822, -25652.822 
3.351961e+2, 3.1454378e+2, -25033.69, -175080.63, 655.32544, -0.0009955498, -0.0029141442, -25030.828, -25030.828 
3.3519673e+2, 3.2453376e+2, 38882.67, -41148.934, -3503.2583, 0.00026595304, -0.005340791, 39035.727, 39035.727 
3.451872e+2, 3.488308e+1, -2533035.8, -2605385.8, 385.38623, -0.0013146304, -0.002489214, -2533033.5, 65112.133 
3.4518838e+2, 4.4879204e+1, -2442020.3, -2518898.8, -1245.6477, 0.0024026257, 0.0034090152, -2442000.3, 58183.62 
3.4518924e+2, 5.487488e+1, -2343768.5, -2421025.8, -1464.844, -0.0004969394, -0.0016014834, -2343740.8, 58485.395 
3.4519008e+2, 6.4869875e+1, -2255677.8, -2343211.8, -2143.4075, -0.00089207164, -0.002666064, -2255625.3, 48649.84 
3.4519082e+2, 7.486422e+1, -2158111.3, -2245629.8, -2211.7856, 0.0013090814, -0.0014969801, -2158055.5, 48275.117 
3.4519148e+2, 8.4857905e+1, -2069821.8, -2166523.8, -2886.9177, 0.0010639074, -0.00019132964, -2069735.6, 38656.813 
3.4519202e+2, 9.4850945e+1, -1972702.0, -2069109.4, -2900.438, -0.0017499771, -0.0008169225, -1972614.9, 37845.82 
3.451925e+2, 1.0484331e+2, -1884276.3, -1990441.3, -3644.8733, -0.0013625489, -0.00087165134, -1884151.3, 28384.225 
3.4519294e+2, 1.14835024e+2, -1785637.1, -1892284.3, -3732.367, 0.0024268336, -0.0023018841, -1785506.8, 29109.988 
3.451933e+2, 1.2482609e+2, -1697580.1, -1813357.1, -3853.2676, 0.0022726702, -0.0019312591, -1697452.1, 19252.133 
3.4519362e+2, 1.3481653e+2, -1602016.8, -1716667.6, -3868.716, -0.0020926304, -0.0016748849, -1601886.4, 16911.469 
3.4519392e+2, 1.4480633e+2, -1513618.1, -1637618.4, -4590.5, -0.0025629967, -0.0011221112, -1513448.4, 7449.502 
3.4519413e+2, 1.5479545e+2, -1413890.5, -1538862.8, -4705.19, 0.001165956, -0.0023828968, -1413713.6, 9290.727 
3.4519437e+2, 1.6478394e+2, -1325855.1, -1460698.0, -4373.1284, 0.0021080747, -0.0019833578, -1325713.5, -596.1246 
3.451946e+2, 1.7477173e+2, -1230544.6, -1364065.9, -4108.791, 0.000022398188, -0.0019738746, -1230418.3, -3181.3596 
3.4519482e+2, 1.8475893e+2, -1141939.0, -1284050.5, -4432.3813, -0.0010219662, -0.0010145021, -1141800.9, -12438.519 
3.4519497e+2, 1.9474553e+2, -1042850.5, -1185555.9, -4746.6367, -0.0009224597, -0.0010160947, -1042692.8, -11199.076 
3.4519523e+2, 2.0473142e+2, -954834.25, -1107817.0, -4416.77, -0.00029023777, -0.0007832235, -954706.8, -21074.873 
3.451955e+2, 2.147166e+2, -858421.25, -1010715.25, -4153.837, 0.00093917747, -0.002389193, -858308.06, -22530.885 
3.451958e+2, 2.2470117e+2, -769955.8, -931263.8, -4007.8865, 0.00077406806, -0.0019341031, -769856.3, -31927.893 
3.4519607e+2, 2.3468512e+2, -671641.6, -833037.0, -4121.5576, -0.0009613817, -0.0015555475, -671536.44, -31450.736 
3.4519646e+2, 2.4466838e+2, -583422.25, -754839.56, -3452.5764, -0.0011921896, -0.0011717302, -583352.75, -41103.09 
3.4519693e+2, 2.5465098e+2, -486253.38, -657092.7, -3264.2964, 0.00028169525, -0.0028564914, -486191.03, -41770.734 
3.4519744e+2, 2.646329e+2, -398098.25, -578426.75, -2782.531, 0.0008539246, -0.0022957772, -398055.34, -51458.074 
3.45198e+2, 2.746142e+2, -300020.7, -480162.94, -2745.1504, 0.00038689308, -0.0014426148, -299978.84, -51198.504 
3.451986e+2, 2.845948e+2, -212347.44, -403338.5, -2123.8335, -0.0008384956, -0.0007599545, -212323.81, -61353.16 
3.4519932e+2, 2.9457468e+2, -114150.68, -304958.16, -1923.8971, -0.0029138813, -0.0029089681, -114131.28, -60963.21 
3.4520024e+2, 3.0455732e+2, -26671.277, -175079.84, -151.33151, -0.00023300122, -0.0031809662, -26671.123, -26671.123 
3.4520143e+2, 3.1454274e+2, -28225.527, -175429.25, 206.3681, 0.00805646, -0.0033400848, -28225.238, -28225.238 
3.45202e+2, 3.2453278e+2, 39075.383, -41105.79, -3172.0815, -0.0054768925, -0.0040986906, 39200.68, 39200.68 
3.5519323e+2, 3.488178e+1, -2531283.3, -2601792.0, -586.6376, -0.0040447423, -0.00012497512, -2531278.3, 66880.164 
3.5519436e+2, 4.4877902e+1, -2442374.0, -2519603.0, -1152.5715, 0.004929328, -0.003875166, -2442357.0, 57839.56 
3.5519525e+2, 5.487359e+1, -2344145.5, -2421780.5, -1355.642, 0.00033736535, -0.002266517, -2344122.0, 58116.766 
3.5519606e+2, 6.486858e+1, -2255786.0, -2343483.0, -2206.5981, -0.001245832, -0.0004896289, -2255730.5, 48557.37 
3.551968e+2, 7.486289e+1, -2158218.0, -2245901.8, -2275.593, 0.0002841565, -0.00045808157, -2158159.0, 48184.637 
3.5519743e+2, 8.485655e+1, -2069815.4, -2166569.8, -3079.8408, 0.0006878612, -0.0006808294, -2069717.4, 38688.26 
3.5519794e+2, 9.484957e+1, -1972681.9, -2069149.5, -3098.7798, -0.00008151304, -0.003249716, -1972582.4, 37891.656 
3.5519838e+2, 1.0484193e+2, -1884404.8, -1990749.4, -3473.871, -0.00022230476, -0.0028997078, -1884291.4, 28257.518 
3.5519886e+2, 1.14833646e+2, -1785808.1, -1892615.1, -3551.552, 0.00029456653, -0.0014301598, -1785690.1, 28939.934 
3.5519916e+2, 1.2482472e+2, -1697635.6, -1813430.4, -4453.677, 0.0002946434, -0.00033558908, -1697464.6, 19253.049 
3.5519937e+2, 1.3481514e+2, -1602004.6, -1716701.3, -4483.405, -0.00024224063, -0.001683766, -1601829.6, 16981.904 
3.551996e+2, 1.448049e+2, -1513767.4, -1638006.8, -4160.764, -0.00011951661, -0.0017579662, -1513628.3, 7283.5737 
3.5519993e+2, 1.5479402e+2, -1414131.5, -1539303.1, -4252.1787, 0.0007090545, -0.0025980463, -1413987.3, 9031.182 
3.5520014e+2, 1.6478251e+2, -1325437.0, -1459764.1, -5034.671, 0.00034610636, -0.0011581059, -1325248.6, -117.449615 
3.552002e+2, 1.7477041e+2, -1230021.9, -1363074.6, -4802.5884, -0.0013011096, 0.0005672562, -1229848.8, -2598.9138 
3.5520035e+2, 1.8475759e+2, -1142450.1, -1285185.8, -4176.8926, -0.0010231629, 0.00011789745, -1142328.0, -12952.497 
3.5520062e+2, 1.9474405e+2, -1043443.7, -1186779.5, -4457.8857, 0.0013674818, -0.0047240295, -1043305.2, -11797.071 
3.5520083e+2, 2.0472993e+2, -954413.44, -1106896.1, -4802.5073, 0.0011466258, -0.004157204, -954262.3, -20615.875 
3.5520095e+2, 2.1471526e+2, -857936.75, -1009729.3, -4564.7344, -0.001962772, 0.0003104781, -857799.56, -22009.184 
3.552012e+2, 2.2469984e+2, -770152.2, -931641.4, -3959.9636, -0.001641613, 0.0016887233, -770055.1, -32113.746 
3.5520157e+2, 2.3468374e+2, -671855.2, -833486.25, -4054.472, 0.0025268232, -0.0027980877, -671753.56, -31654.184 
3.552019e+2, 2.44667e+2, -583164.8, -754186.2, -3687.7617, 0.0022564502, -0.0031815195, -583085.4, -40821.996 
3.5520223e+2, 2.5464967e+2, -485981.4, -656399.4, -3513.7122, -0.0030474688, -0.00096178753, -485909.0, -41475.824 
3.5520273e+2, 2.6463166e+2, -398050.34, -578288.44, -2841.8318, -0.0030353772, 0.00013077584, -398005.53, -51395.742 
3.5520333e+2, 2.7461293e+2, -299985.25, -480044.06, -2794.1938, 0.0031042323, -0.0023789897, -299941.9, -51148.805 
3.5520396e+2, 2.8459352e+2, -212079.05, -402600.3, -2141.1128, 0.0027252461, -0.002428703, -212055.0, -61071.79 
3.5520455e+2, 2.9457346e+2, -113876.56, -304216.13, -1941.8063, -0.0052352934, -0.002221447, -113856.75, -60676.844 
3.5520545e+2, 3.0455616e+2, -26190.973, -173939.58, -592.3782, -0.0023651419, -0.001910951, -26188.598, -26188.598 
3.552066e+2, 3.145417e+2, -27711.787, -174260.97, -261.30463, 0.013304849, -0.0035932271, -27711.32, -27711.32 
3.5520726e+2, 3.2453176e+2, 39073.203, -41021.996, -1069.5964, -0.008588963, -0.0014491354, 39087.484, 39087.484 
3.6519936e+2, 3.4880587e+1, -2530304.5, -2601053.5, -495.96863, -0.003853402, 0.0003997341, -2530301.0, 67869.195 
3.6520037e+2, 4.487668e+1, -2441212.8, -2519520.8, -921.0935, 0.0045118867, -0.0058553256, -2441202.0, 59006.5 
3.652013e+2, 5.4872346e+1, -2342936.0, -2421698.5, -1056.1315, 0.0006300266, -0.0020020143, -2342922.0, 59329.0 
3.652021e+2, 6.486731e+1, -2254484.5, -2342978.3, -2076.484, -0.0009823611, 0.00031523517, -2254435.8, 49864.516 
3.6520278e+2, 7.4861604e+1, -2157239.8, -2245541.8, -2104.0334, -0.00026307473, -0.0009150333, -2157189.5, 49166.62 
3.652034e+2, 8.4855235e+1, -2068892.9, -2166457.3, -3000.3027, 0.00036838016, -0.0014246901, -2068800.6, 39617.98 
3.652039e+2, 9.484823e+1, -1971259.4, -2068789.4, -3224.0503, 0.000933427, -0.0032520422, -1971152.9, 39334.297 
3.6520433e+2, 1.0484058e+2, -1883473.8, -1990286.3, -3596.9346, 0.00048857566, -0.0025751798, -1883352.9, 29209.371 
3.6520475e+2, 1.148323e+2, -1786880.8, -1893125.6, -3526.6375, -0.0010343875, -0.0012139064, -1786763.8, 27879.617 
3.6520502e+2, 1.2482335e+2, -1698235.1, -1813868.1, -4455.8193, -0.0008863274, -0.00026017285, -1698063.8, 18667.346 
3.652052e+2, 1.3481377e+2, -1599305.4, -1715546.5, -4549.762, 0.0010538998, -0.0017831771, -1599127.6, 19697.4 
3.652054e+2, 1.4480351e+2, -1511457.1, -1636983.5, -4173.1367, 0.0012886832, -0.0017001535, -1511318.6, 9606.803 
3.6520565e+2, 1.5479264e+2, -1416145.0, -1540402.5, -4145.124, -0.0003208582, -0.0020247477, -1416006.9, 7025.2954 
3.6520582e+2, 1.6478112e+2, -1327677.3, -1460729.5, -5068.363, -0.001016143, -0.0008495603, -1327484.5, -2339.6296 
3.6520585e+2, 1.7476901e+2, -1228360.3, -1362126.3, -5237.41, -0.00070593035, -0.00023702228, -1228155.5, -891.9263 
3.6520597e+2, 1.8475619e+2, -1140397.8, -1284335.1, -4577.7456, -0.0000018834806, -0.00054145564, -1140252.3, -10863.12 
3.652062e+2, 1.9474266e+2, -1044482.06, -1187436.3, -4385.1357, 0.0011370754, -0.0038521916, -1044347.7, -12825.861 
3.6520636e+2, 2.0472854e+2, -956088.94, -1107505.0, -4706.1475, 0.0006334284, -0.0032153514, -955942.75, -22282.67 
3.6520645e+2, 2.1471387e+2, -858074.94, -1009557.4, -4818.423, -0.0016874915, -0.00030497793, -857921.8, -22117.791 
3.6520663e+2, 2.2469847e+2, -769921.44, -931433.0, -4130.571, -0.0013330458, 0.00083012617, -769815.9, -31861.025 
3.6520696e+2, 2.3468237e+2, -672512.9, -833676.75, -3945.5386, 0.002018758, -0.0024222839, -672416.3, -32303.68 
3.6520728e+2, 2.4466565e+2, -584171.4, -754552.3, -3717.2021, 0.0018059125, -0.0024547304, -584090.4, -41813.844 
3.6520758e+2, 2.5464833e+2, -486863.5, -656703.0, -3788.3538, -0.0024375333, -0.0008805445, -486779.06, -42332.813 
3.65208e+2, 2.6463032e+2, -398781.0, -578384.7, -3014.965, -0.0022824057, -0.000120322504, -398730.38, -52107.68 
3.652086e+2, 2.7461162e+2, -300749.28, -480108.75, -2843.985, 0.0029247198, -0.0026123943, -300704.2, -51898.434 
3.652092e+2, 2.8459224e+2, -213085.53, -402767.84, -2246.6582, 0.0022995933, -0.002457859, -213058.92, -62063.34 
3.652098e+2, 2.9457223e+2, -115533.33, -304667.06, -2194.287, -0.0050897445, -0.0018297291, -115507.875, -62315.906 
3.652106e+2, 3.0455497e+2, -27770.717, -174549.66, -1320.1692, -0.0021475302, -0.0011975231, -27758.846, -27758.846 
3.652117e+2, 3.145405e+2, -28166.424, -174314.17, -1470.7108, 0.012991701, -0.0026776555, -28151.627, -28151.627 
3.6521253e+2, 3.245306e+2, 37932.992, -41488.18, -475.2427, -0.008433077, -0.00091427244, 37935.836, 37935.836 
3.7520555e+2, 3.4879497e+1, -2531619.8, -2603748.5, -1167.8652, -0.0009816749, -0.00077102974, -2531600.8, 66579.96 
3.752064e+2, 4.4875517e+1, -2441438.5, -2520051.5, -813.8504, 0.0013578685, -0.0029193456, -2441430.0, 58789.836 
3.752074e+2, 5.487113e+1, -2343190.0, -2422219.3, -936.5674, 0.0003968219, -0.0008788973, -2343178.8, 59084.047 
3.752082e+2, 6.486606e+1, -2254519.5, -2343070.3, -2224.4307, -0.00017298624, -0.00015172322, -2254463.8, 49848.816 
3.7520885e+2, 7.486033e+1, -2157268.3, -2245631.0, -2259.3557, -0.00039364543, -0.0027505269, -2157210.5, 49158.07 
3.7520942e+2, 8.4853935e+1, -2069287.8, -2167299.5, -3069.269, 0.000079645135, -0.0023990672, -2069191.8, 39239.56 
3.752099e+2, 9.484691e+1, -1971658.4, -2069641.9, -3284.5435, 0.0013116461, -0.0010087923, -1971548.4, 38951.79 
3.752103e+2, 1.0483924e+2, -1883320.6, -1990019.4, -3933.1624, 0.0007779501, -0.0000768183, -1883175.9, 29399.5 
3.7521058e+2, 1.1483095e+2, -1786711.3, -1892831.6, -3872.0686, -0.0016399524, -0.0016038131, -1786570.1, 28086.494 
3.7521085e+2, 1.24822e+2, -1698375.5, -1814157.4, -4224.052, -0.0013581703, -0.0015854134, -1698221.6, 18522.736 
3.752111e+2, 1.348124e+2, -1599504.5, -1715854.1, -4305.472, 0.001819355, -0.0019677202, -1599345.5, 19492.967 
3.7521124e+2, 1.4480215e+2, -1511445.4, -1636943.5, -4843.745, 0.0017241791, -0.0010021074, -1511258.6, 9680.134 
3.752113e+2, 1.5479128e+2, -1416080.6, -1540318.3, -4832.3735, -0.0019021984, -0.00072430354, -1415893.0, 7152.428 
3.752114e+2, 1.6477974e+2, -1327925.5, -1461299.6, -4752.714, -0.0020335345, -0.0010162637, -1327756.4, -2597.894 
3.7521157e+2, 1.7476755e+2, -1228681.1, -1362737.1, -4896.4443, 0.0016400799, -0.004129333, -1228502.5, -1224.6093 
3.7521166e+2, 1.8475474e+2, -1140112.0, -1283712.8, -5080.2817, 0.0019476879, -0.0028536601, -1139932.5, -10529.073 
3.752117e+2, 1.9474134e+2, -1044146.94, -1186767.8, -4910.4595, -0.0014405889, 0.0012429737, -1043978.06, -12443.199 
3.752118e+2, 2.0472723e+2, -956244.44, -1107862.5, -4723.6323, -0.001703531, 0.001708631, -956097.44, -22424.37 
3.7521195e+2, 2.1471243e+2, -858250.8, -1009954.94, -4819.2354, 0.0015037649, -0.0039740046, -858097.9, -22279.91 
3.7521213e+2, 2.2469704e+2, -769637.94, -930805.7, -4288.4365, 0.0014720487, -0.0041623856, -769523.94, -31555.066 
3.7521234e+2, 2.3468104e+2, -672219.44, -833043.1, -4112.602, -0.0022004375, -0.000555456, -672114.4, -31988.781 
3.7521258e+2, 2.4466437e+2, -584318.7, -754803.2, -3935.1953, -0.0022644743, 0.0007981546, -584227.94, -41938.773 
3.752129e+2, 2.54647e+2, -486997.44, -656977.25, -4002.58, 0.0017848955, -0.0024717106, -486903.22, -42443.71 
3.7521333e+2, 2.6462898e+2, -398530.72, -577818.2, -3070.2625, 0.0027181006, -0.0028468058, -398478.16, -51842.14 
3.752138e+2, 2.7461034e+2, -300507.56, -479535.84, -2898.193, 0.000054643097, -0.0021955355, -300460.66, -51642.29 
3.7521437e+2, 2.8459102e+2, -213034.14, -402623.44, -2431.484, -0.0018176064, -0.00096933247, -213002.95, -61995.14 
3.7521496e+2, 2.9457098e+2, -115462.31, -304537.1, -2381.8298, -0.0027107613, -0.0017043176, -115432.31, -62228.074 
3.7521577e+2, 3.0455372e+2, -28107.148, -175216.11, -1470.7122, 0.00019692835, -0.0009948702, -28092.447, -28092.447 
3.752167e+2, 3.1453922e+2, -28515.088, -175010.33, -1613.0841, 0.0075360714, -0.00068620226, -28497.328, -28497.328 
3.752178e+2, 3.2452923e+2, 37881.77, -41392.758, 947.5078, -0.0053275228, -0.0022913301, 37893.094, 37893.094 
3.8521174e+2, 3.487839e+1, -2531113.0, -2604742.0, -1165.4207, 0.001612351, -0.0016233377, -2531094.8, 67097.02 
3.852126e+2, 4.4874358e+1, -2438104.8, -2518809.0, -821.8001, -0.0020364097, -0.0013113025, -2438096.3, 62134.887 
3.8521352e+2, 5.486992e+1, -2341589.3, -2421822.5, -929.1359, 0.00007758481, -0.0009608747, -2341578.5, 60696.08 
3.8521433e+2, 6.486481e+1, -2253811.5, -2343080.5, -2330.703, 0.0008798239, -0.00076275266, -2253750.8, 50573.96 
3.8521492e+2, 7.485905e+1, -2156559.5, -2245646.0, -2556.3315, 0.00023460401, -0.0026607537, -2156486.3, 49894.92 
3.852155e+2, 8.485265e+1, -2068434.3, -2167032.5, -3222.0789, 0.000042602263, -0.0019654103, -2068329.0, 40114.926 
3.8521594e+2, 9.4845605e+1, -1970800.1, -2069372.8, -3118.5063, 0.0003540174, -0.00061145186, -1970701.5, 39811.457 
3.8521627e+2, 1.04837924e+2, -1882274.1, -1989725.3, -3945.1602, 0.00017062541, 0.00012222664, -1882129.5, 30458.781 
3.852165e+2, 1.1482961e+2, -1785199.4, -1892300.0, -4157.982, -0.00053774135, -0.0017753489, -1785038.1, 29631.62 
3.8521674e+2, 1.24820635e+2, -1697527.5, -1813909.9, -4374.37, -0.00033319544, -0.0018645057, -1697363.3, 19394.365 
3.8521695e+2, 1.3481101e+2, -1600618.6, -1716574.1, -4403.534, 0.0008412068, -0.0020723431, -1600451.6, 18400.244 
3.8521707e+2, 1.4480078e+2, -1512179.1, -1637239.0, -5205.8457, 0.0005426583, -0.0010344513, -1511962.8, 8989.499 
3.8521704e+2, 1.547899e+2, -1414143.8, -1539337.4, -5193.855, -0.0013475701, -0.00078440615, -1413928.8, 9130.144 
3.852171e+2, 1.6477837e+2, -1326196.9, -1460720.5, -4784.781, -0.0010113184, -0.0010384948, -1326026.9, -854.9692 
3.8521722e+2, 1.7476614e+2, -1229779.1, -1363571.4, -4807.8877, 0.0017446657, -0.0040400163, -1229606.6, -2314.9827 
3.8521728e+2, 1.8475334e+2, -1141585.3, -1284127.4, -5238.469, 0.0015111257, -0.002782195, -1141392.9, -11975.807 
3.8521725e+2, 1.9473995e+2, -1043952.3, -1186370.4, -5218.6523, -0.0020032022, 0.0011520198, -1043761.4, -12213.023 
3.8521728e+2, 2.0472586e+2, -955708.06, -1107700.5, -4842.9463, -0.0019203267, 0.0016488391, -955553.94, -21867.459 
3.852174e+2, 2.1471106e+2, -858302.8, -1010087.25, -4822.9155, 0.0021594889, -0.0037916156, -858149.7, -22318.225 
3.8521755e+2, 2.2469567e+2, -770187.1, -930864.56, -4511.4634, 0.0020898827, -0.0039936407, -770060.56, -32078.25 
3.852177e+2, 2.3467968e+2, -673537.06, -833475.44, -4544.371, -0.0026359116, -0.00067840196, -673408.06, -33269.14 
3.852179e+2, 2.4466303e+2, -585494.3, -755167.1, -4147.86, -0.0027877174, 0.00061403663, -585392.94, -43090.637 
3.852182e+2, 2.5464565e+2, -486974.2, -656750.44, -3964.64, 0.002271525, -0.0024701345, -486881.66, -42409.152 
3.8521856e+2, 2.6462767e+2, -398585.38, -577784.7, -3212.6167, 0.0030916543, -0.0025691756, -398527.8, -51878.953 
3.85219e+2, 2.7460903e+2, -302012.44, -480217.75, -3299.0154, -0.0009914369, -0.001522863, -301951.4, -53120.258 
3.8521948e+2, 2.845897e+2, -214773.38, -403208.7, -2734.1396, -0.0023440095, -0.00037137413, -214733.7, -63713.215 
3.852201e+2, 2.945697e+2, -116123.56, -304609.78, -2619.4849, -0.00044125435, -0.001729233, -116087.164, -62870.39 
3.852209e+2, 3.0455244e+2, -28250.613, -175586.1, -1649.9375, 0.0011225747, -0.0011929654, -28232.139, -28232.139 
3.8522175e+2, 3.145379e+2, -28152.082, -175158.73, -1657.4752, 0.0022115721, -0.00051010516, -28133.396, -28133.396 
3.8522294e+2, 3.2452795e+2, 34444.684, -42810.18, 1215.3136, -0.0024575207, -0.0012108049, 34463.797, 34463.797 
3.9521798e+2, 3.4877264e+1, -2531430.5, -2605407.3, -257.28842, 0.0039118924, -0.0021450086, -2531429.8, 66772.97 
3.9521888e+2, 4.4873202e+1, -2438335.8, -2519269.3, -1146.3792, -0.0056623067, -0.0009252113, -2438319.8, 61922.914 
3.9521974e+2, 5.4868716e+1, -2341817.0, -2422276.0, -1266.8735, -0.00034682796, -0.0021557808, -2341797.0, 60489.38 
3.952205e+2, 6.486356e+1, -2254203.0, -2343912.0, -2483.7122, 0.0021278765, -0.001504934, -2254134.3, 50202.57 
3.9522105e+2, 7.4857783e+1, -2156933.5, -2246473.3, -2700.0083, 0.0015396436, -0.00079885573, -2156852.3, 49541.523 
3.9522156e+2, 8.4851354e+1, -2068213.8, -2166609.5, -3279.7356, 0.00021539586, -0.00023207562, -2068104.6, 40352.027 
3.9522198e+2, 9.484432e+1, -1970604.1, -2068954.0, -3181.921, -0.0018607969, -0.0019054681, -1970501.4, 40024.29 
3.9522228e+2, 1.04836605e+2, -1882665.9, -1990508.3, -4164.0625, -0.0012863573, -0.001790872, -1882505.4, 30095.752 
3.952225e+2, 1.1482826e+2, -1785564.4, -1893095.4, -4374.251, 0.0021154396, -0.0017474502, -1785386.8, 29296.17 
3.9522266e+2, 1.24819264e+2, -1697573.9, -1814015.3, -4636.6724, 0.0020402437, -0.0011773077, -1697389.6, 19381.488 
3.9522278e+2, 1.3480963e+2, -1600681.8, -1716664.0, -4663.8706, -0.0017541768, -0.002107997, -1600494.5, 18370.93 
3.9522284e+2, 1.447994e+2, -1512138.8, -1637138.0, -5195.4893, -0.002141958, -0.0017385259, -1511923.1, 9042.748 
3.9522287e+2, 1.5478851e+2, -1414126.5, -1539228.4, -5181.5737, 0.0011489905, -0.0020960518, -1413912.3, 9160.244 
3.9522287e+2, 1.6477698e+2, -1326281.3, -1460849.4, -5181.755, 0.0018660617, -0.000928375, -1326082.1, -896.62213 
3.9522284e+2, 1.747648e+2, -1229862.8, -1363689.3, -5207.8433, -0.00022505273, -0.00029703963, -1229660.5, -2355.5623 
3.9522284e+2, 1.8475199e+2, -1141529.1, -1284019.6, -5329.695, -0.0011330826, -0.00052208314, -1141330.0, -11899.486 
3.952228e+2, 1.9473852e+2, -1043909.56, -1186253.4, -5305.0103, -0.0007351368, -0.0037022906, -1043712.1, -12149.865 
3.952228e+2, 2.0472445e+2, -955694.6, -1107649.6, -4994.29, -0.00020634264, -0.0029946077, -955530.6, -21830.342 
3.9522287e+2, 2.1470973e+2, -858306.94, -1010041.25, -4973.3647, 0.00047201157, -0.00007720434, -858144.1, -22299.557 
3.9522293e+2, 2.2469436e+2, -770259.56, -931021.1, -4869.1074, 0.0006827861, 0.00091727806, -770112.25, -32116.926 
3.95223e+2, 2.346783e+2, -673580.6, -833635.94, -4906.1064, 0.00037557696, -0.0026238596, -673430.4, -33277.777 
3.9522317e+2, 2.4466161e+2, -585163.4, -754510.25, -4056.178, -0.000071676965, -0.0027264487, -585066.25, -42750.29 
3.9522344e+2, 2.5464433e+2, -486666.63, -656095.9, -3863.2456, -0.0006851838, -0.0010082743, -486578.6, -42093.33 
3.952238e+2, 2.6462638e+2, -398808.84, -578172.44, -3629.0051, -0.0008179292, 0.00047104392, -398735.44, -52074.1 
3.9522412e+2, 2.7460772e+2, -302218.3, -480622.72, -3726.438, -0.00038590666, -0.0006152986, -302140.5, -53296.41 
3.952246e+2, 2.845884e+2, -214606.08, -402857.9, -2646.948, 0.00041193774, -0.00058912294, -214568.86, -63535.28 
3.9522526e+2, 2.945684e+2, -115992.36, -304236.34, -2512.869, 0.001688778, -0.0018947447, -115958.82, -62729.254 
3.9522597e+2, 3.0455112e+2, -28368.107, -175766.97, -1644.6033, 0.00071145623, -0.0017528567, -28349.76, -28349.76 
3.952268e+2, 3.145366e+2, -28270.947, -175374.5, -1648.5364, -0.0030163939, -0.0020159662, -28252.477, -28252.477 
3.9522794e+2, 3.2452667e+2, 34621.75, -42386.508, 186.78563, 0.00012077958, 0.0020882352, 34622.203, 34622.203 
4.0522426e+2, 3.4876102e+1, -2529472.3, -2604081.3, 84.1762, 0.002918045, -0.0017292012, -2529472.3, 68741.96 
4.0522522e+2, 4.4872048e+1, -2437719.5, -2519320.5, -1501.2704, -0.0045318543, -0.00018175822, -2437692.0, 62561.945 
4.0522602e+2, 5.486752e+1, -2341067.8, -2422276.3, -1641.7944, 0.00007544888, -0.002278259, -2341034.5, 61263.652 
4.052267e+2, 6.486234e+1, -2252916.3, -2343465.0, -2456.21, 0.0019913563, -0.0018556988, -2252849.8, 51499.246 
4.0522727e+2, 7.4856544e+1, -2154893.5, -2245655.5, -2383.853, 0.0010055074, -0.00069076574, -2154830.8, 51574.97 
4.052277e+2, 8.48501e+1, -2066588.1, -2166017.0, -3211.4075, -0.00013064613, -0.00007323, -2066484.5, 41984.445 
4.0522805e+2, 9.484304e+1, -1970625.8, -2069148.0, -3447.1675, -0.0014012145, -0.002131465, -1970505.3, 40032.82 
4.0522832e+2, 1.0483531e+2, -1882954.1, -1990908.8, -4262.3633, -0.000753565, -0.0021098743, -1882786.1, 29827.666 
4.0522853e+2, 1.1482694e+2, -1784626.3, -1892888.4, -4252.226, 0.001937575, -0.0018492325, -1784459.5, 30236.318 
4.052286e+2, 1.2481794e+2, -1696079.6, -1813302.0, -4665.324, 0.0016347911, -0.0010151471, -1695894.3, 20889.797 
4.0522864e+2, 1.3480832e+2, -1599739.6, -1716219.0, -4640.9014, -0.0018808623, -0.0016266298, -1599555.0, 19323.406 
4.0522864e+2, 1.4479806e+2, -1511941.4, -1637305.1, -4976.4097, -0.0019184502, -0.001490227, -1511744.1, 9234.892 
4.0522867e+2, 1.5478714e+2, -1414536.4, -1539698.4, -5168.078, 0.0017942454, -0.002678161, -1414323.4, 8762.496 
4.052286e+2, 1.6477562e+2, -1326438.1, -1460733.3, -5432.5913, 0.0020607007, -0.0013914526, -1326218.8, -1019.89264 
4.052285e+2, 1.7476346e+2, -1229427.3, -1363286.6, -5267.867, -0.0014373676, 0.0003896466, -1229220.3, -1902.266 
4.052284e+2, 1.8475065e+2, -1141233.9, -1284047.8, -5184.9634, -0.0019457217, 0.00017684125, -1141045.9, -11602.211 
4.0522838e+2, 1.9473717e+2, -1043996.1, -1186487.3, -5328.081, 0.0008340348, -0.0042411857, -1043797.2, -12221.527 
4.0522835e+2, 2.0472308e+2, -956036.06, -1107646.9, -5154.1255, 0.0011973958, -0.003682772, -955861.06, -22147.352 
4.0522826e+2, 2.1470839e+2, -859177.4, -1010288.4, -5061.9995, -0.0011232411, 0.00030129, -859008.0, -23150.28 
4.0522832e+2, 2.2469303e+2, -770989.25, -931272.0, -4861.9956, -0.001059815, 0.0016115451, -770841.94, -32833.56 
4.0522835e+2, 2.3467697e+2, -673238.9, -833367.94, -4797.7627, 0.0016876478, -0.0024627713, -673095.25, -32929.582 
4.0522847e+2, 2.4466029e+2, -585103.25, -754336.44, -3961.7915, 0.0015890657, -0.0027802018, -585010.56, -42681.62 
4.0522867e+2, 2.5464302e+2, -488482.8, -656816.2, -4046.479, -0.0017522419, -0.00090920343, -488385.6, -43887.45 
4.0522894e+2, 2.646251e+2, -400664.8, -578798.06, -3829.2876, -0.0023385019, 0.00053305284, -400582.53, -53908.445 
4.0522924e+2, 2.7460644e+2, -302244.34, -480368.97, -3583.5916, 0.00025578667, -0.0008016337, -302172.28, -53315.63 
4.0522972e+2, 2.8458712e+2, -214501.11, -402738.34, -2335.983, 0.0015941858, -0.00066671305, -214472.13, -63426.13 
4.0523028e+2, 2.9456714e+2, -117544.195, -304931.16, -2347.7576, 0.0015082604, -0.001442403, -117514.79, -64272.91 
4.05231e+2, 3.0454987e+2, -30660.26, -176585.1, -1312.6041, -0.00019572438, -0.0011911961, -30648.453, -30648.453 
4.052318e+2, 3.1453538e+2, -30478.652, -176132.69, -1054.1122, -0.003898294, -0.0018556124, -30471.023, -30471.023 
4.0523285e+2, 3.245255e+2, 33546.645, -41913.684, 230.91904, 0.0010287896, 0.0014340914, 33547.35, 33547.35 
4.152306e+2, 3.4874904e+1, -2528661.5, -2602509.5, 536.24316, -0.0011268756, -0.00042479494, -2528657.8, 69568.23 
4.1523162e+2, 4.4870883e+1, -2437960.5, -2519789.0, -1792.0226, 0.0009527641, 0.0008996277, -2437921.3, 62344.07 
4.1523233e+2, 5.486632e+1, -2341274.0, -2422738.0, -1932.6072, 0.001253129, -0.0014191692, -2341228.3, 61081.73 
4.1523293e+2, 6.486113e+1, -2252744.0, -2343152.8, -2406.8108, 0.00056257035, -0.0018442331, -2252680.0, 51680.953 
4.152335e+2, 7.485534e+1, -2154770.8, -2245358.5, -2337.253, -0.0012316451, -0.002182195, -2154710.5, 51707.12 
4.152339e+2, 8.4848875e+1, -2067038.1, -2166899.8, -3694.824, -0.0009756804, -0.0013507741, -2066901.6, 41579.313 
4.1523415e+2, 9.484177e+1, -1971005.9, -2070027.9, -3932.187, 0.0014773451, -0.0013787588, -1970850.0, 39700.54 
4.152344e+2, 1.0483402e+2, -1882871.0, -1990826.1, -4160.5083, 0.0015746813, -0.00096610375, -1882710.9, 29915.568 
4.1523454e+2, 1.1482564e+2, -1784591.1, -1892839.5, -4142.2705, -0.00084468536, -0.0020654774, -1784432.9, 30275.725 
4.152346e+2, 1.2481665e+2, -1696066.4, -1813196.4, -5067.5645, -0.0013434573, -0.001329711, -1695847.5, 20949.229 
4.1523457e+2, 1.3480704e+2, -1599677.4, -1716100.0, -5057.8784, 0.00023387658, -0.00067293603, -1599458.0, 19432.861 
4.152345e+2, 1.4479676e+2, -1512279.9, -1638008.3, -5131.0273, 0.00094755896, -0.00037297833, -1512070.8, 8920.857 
4.1523445e+2, 1.547858e+2, -1414899.8, -1540432.4, -5307.2236, 0.00073080615, -0.0025937117, -1414675.8, 8423.352 
4.1523433e+2, 1.6477424e+2, -1326154.9, -1460108.4, -5675.5464, -0.00022015502, -0.002379318, -1325914.9, -702.5958 
4.1523412e+2, 1.7476213e+2, -1229141.3, -1362617.9, -5521.6772, -0.0019708336, -0.0017210646, -1228913.3, -1582.1747 
4.15234e+2, 1.8474934e+2, -1141510.0, -1284581.1, -5379.182, -0.0010968694, -0.00055688625, -1141308.0, -11851.533 
4.152339e+2, 1.9473585e+2, -1044294.06, -1187045.3, -5511.329, 0.0026618515, -0.00084060297, -1044081.56, -12493.043 
4.1523382e+2, 2.0472175e+2, -955898.4, -1107314.8, -5437.8394, 0.0022982904, -0.0007530029, -955703.3, -21976.578 
4.1523367e+2, 2.1470703e+2, -859031.0, -1009936.4, -5351.0073, -0.002647034, -0.0023704036, -858841.5, -22970.518 
4.152336e+2, 2.2469167e+2, -770884.2, -931010.5, -4950.0044, -0.0031261768, -0.0015529972, -770731.3, -32709.863 
4.1523364e+2, 2.3467569e+2, -673122.9, -833135.0, -4882.258, 0.001422477, -0.00037764467, -672974.06, -32795.97 
4.1523373e+2, 2.4465904e+2, -585318.7, -754735.1, -4340.4863, 0.002260454, 0.00017788996, -585207.56, -42866.215 
4.1523382e+2, 2.546417e+2, -488684.56, -657247.0, -4428.455, -0.0011067532, -0.0020543428, -488568.3, -44057.12 
4.1523403e+2, 2.6462376e+2, -400243.88, -577890.3, -3789.521, -0.0017000133, -0.0021220655, -400163.06, -53475.977 
4.152344e+2, 2.7460518e+2, -301828.56, -479429.8, -3536.4546, 0.00091234525, -0.0019853525, -301758.2, -52889.305 
4.1523477e+2, 2.8458592e+2, -214632.36, -402910.8, -2663.374, 0.0013206172, -0.00060971046, -214594.69, -63536.895 
4.1523525e+2, 2.9456595e+2, -117667.95, -305150.56, -2683.5002, -0.0008131546, -0.0004204424, -117629.555, -64375.793 
4.1523594e+2, 3.045487e+2, -30324.13, -175774.3, -1304.5979, -0.0015909087, 0.00039652962, -30312.43, -30312.43 
4.1523677e+2, 3.1453425e+2, -30152.885, -175300.11, -1027.497, -0.00083800446, -0.00016724209, -30145.611, -30145.611 
4.152377e+2, 3.2452443e+2, 34465.45, -39902.727, -468.92245, 0.00036590925, -0.0028375566, 34468.406, 34468.406 
4.2523703e+2, 3.487379e+1, -2526154.5, -2602058.3, 580.4175, -0.0037283548, -0.00035200376, -2526150.0, 72086.8 
4.2523804e+2, 4.4869727e+1, -2437872.0, -2519669.3, -1659.671, 0.005004697, 0.00007997866, -2437838.3, 62438.324 
4.2523867e+2, 5.486519e+1, -2339093.8, -2421602.0, -1521.9081, 0.0011532715, -0.0011128866, -2339065.8, 63255.438 
4.2523926e+2, 6.4859986e+1, -2250846.0, -2342557.0, -2270.3806, -0.0009916163, -0.0011929154, -2250789.8, 53582.223 
4.2523974e+2, 7.485416e+1, -2155153.5, -2245874.3, -2552.996, -0.0013713082, -0.0020144242, -2155081.8, 51347.5 
4.252401e+2, 8.484767e+1, -2067246.5, -2167281.8, -3822.5164, -0.00038784675, -0.0014402139, -2067100.6, 41392.09 
4.2524034e+2, 9.484054e+1, -1968504.6, -2069068.9, -3808.0903, 0.0020561453, -0.0014916161, -1968360.6, 42202.02 
4.252405e+2, 1.04832776e+2, -1880198.4, -1989567.8, -4109.909, 0.0016685928, -0.00088438485, -1880044.1, 32594.51 
4.2524058e+2, 1.1482439e+2, -1784829.8, -1892964.9, -4155.5107, -0.0017411214, -0.0015591661, -1784670.3, 30050.559 
4.2524058e+2, 1.2481538e+2, -1697100.8, -1814001.4, -5120.8765, -0.0019263045, -0.0010634384, -1696876.9, 19932.24 
4.252405e+2, 1.3480574e+2, -1599056.1, -1716082.5, -5337.6665, 0.0013513482, -0.0013511427, -1598813.3, 20090.352 
4.2524037e+2, 1.4479546e+2, -1510958.8, -1637307.1, -5414.141, 0.001927571, -0.0008184963, -1510727.1, 10277.274 
4.2524022e+2, 1.5478452e+2, -1414418.6, -1540117.4, -5188.151, -0.0004226012, -0.0015393841, -1414204.9, 8906.778 
4.2524e+2, 1.6477296e+2, -1326265.3, -1460330.8, -5540.193, -0.001370894, -0.0014771627, -1326036.6, -811.79877 
4.252398e+2, 1.747608e+2, -1229253.1, -1362851.8, -5810.377, -0.0007911764, -0.0027666346, -1229000.9, -1656.8593 
4.2523962e+2, 1.84748e+2, -1141499.9, -1284473.0, -5677.6816, 0.00016625295, -0.0016280361, -1141274.8, -11805.267 
4.2523944e+2, 1.9473456e+2, -1044330.75, -1186955.4, -5484.3794, 0.0015351458, 0.0001820881, -1044120.1, -12518.862 
4.2523926e+2, 2.0472045e+2, -956050.5, -1107323.0, -5422.268, 0.0009927984, 0.000486909, -955856.44, -22117.016 
4.252391e+2, 2.1470574e+2, -859373.06, -1010028.94, -5471.409, -0.0016725824, -0.003001663, -859174.6, -23290.863 
4.2523897e+2, 2.2469036e+2, -771431.25, -931216.44, -4989.495, -0.0018908745, -0.0026144714, -771275.6, -33241.402 
4.252389e+2, 2.3467441e+2, -673974.2, -833449.0, -4999.0186, 0.0006382495, -0.00025225405, -673817.6, -33626.95 
4.2523897e+2, 2.4465775e+2, -586032.6, -754946.56, -4567.2666, 0.0011489103, 0.0006882229, -585909.25, -43555.438 
4.25239e+2, 2.5464043e+2, -488960.75, -657231.8, -4374.208, -0.0006125927, -0.0020591642, -488847.13, -44323.563 
4.2523915e+2, 2.646225e+2, -400813.4, -578006.0, -3543.6418, -0.00083523814, -0.00222982, -400742.56, -54043.22 
4.252394e+2, 2.7460396e+2, -303557.03, -480091.84, -3653.598, 0.0007081702, -0.0017300552, -303481.44, -54600.49 
4.2523977e+2, 2.8458473e+2, -216444.16, -403507.9, -2947.787, 0.000527035, -0.00044659345, -216397.72, -65328.01 
4.2524022e+2, 2.9456472e+2, -118500.75, -305265.72, -2706.56, -0.0016340356, -0.0008813738, -118461.53, -65196.04 
4.252408e+2, 3.0454755e+2, -31094.953, -175519.6, -1183.638, -0.001307031, 0.00022035693, -31085.254, -31085.254 
4.2524168e+2, 3.1453317e+2, -32502.773, -175762.89, -912.0286, 0.0019067089, 0.0010505813, -32496.967, -32496.967 
4.2524248e+2, 3.2452336e+2, 33044.31, -40818.91, -727.3075, -0.001155486, -0.00398315, 33051.47, 33051.47 
4.3524355e+2, 3.4872752e+1, -2527833.5, -2605500.0, -998.6824, -0.0050361217, -0.0013925475, -2527820.8, 70426.19 
4.3524444e+2, 4.4868577e+1, -2437530.5, -2519092.3, -1419.8813, 0.0077421768, -0.002471646, -2437505.8, 62782.207 
4.3524513e+2, 5.4864097e+1, -2338782.3, -2420995.8, -1274.361, -0.00013435906, -0.0013072995, -2338762.5, 63569.34 
4.3524563e+2, 6.4858896e+1, -2251366.8, -2343622.3, -2805.9114, -0.0026838914, 0.00004015138, -2251281.5, 53101.19 
4.3524602e+2, 7.4853e+1, -2155624.8, -2246930.3, -3090.0242, 0.0003761089, -0.00033381063, -2155520.3, 50920.37 
4.3524635e+2, 8.4846467e+1, -2067147.6, -2167169.3, -3599.9731, 0.0014797953, -0.00044394663, -2067018.3, 41486.258 
4.352466e+2, 9.483932e+1, -1968478.1, -2068990.9, -3577.7798, 0.0005120046, -0.0023881588, -1968351.0, 42223.55 
4.3524668e+2, 1.0483157e+2, -1880319.1, -1989764.8, -4744.092, -0.0002981239, -0.0017690907, -1880113.9, 32536.77 
4.3524662e+2, 1.1482319e+2, -1784866.3, -1893139.3, -4805.312, -0.0009386902, -0.00039395734, -1784653.4, 30079.219 
4.3524653e+2, 1.2481414e+2, -1697448.3, -1814755.8, -5101.369, -0.00035621756, -0.0002637572, -1697226.9, 19594.465 
4.3524644e+2, 1.3480441e+2, -1599443.3, -1716883.9, -5297.567, 0.0015445456, -0.0035117385, -1599204.8, 19711.79 
4.3524626e+2, 1.4479412e+2, -1510577.3, -1636471.9, -5759.484, 0.0011718842, -0.002688824, -1510314.4, 10703.034 
4.35246e+2, 1.5478328e+2, -1414019.5, -1539249.6, -5553.0234, -0.0016737011, 0.00039186043, -1413773.8, 9349.985 
4.3524572e+2, 1.6477175e+2, -1326758.9, -1461323.4, -5796.5527, -0.0015118022, 0.0011457216, -1326509.8, -1272.8284 
4.3524548e+2, 1.7475949e+2, -1229747.1, -1363878.0, -6051.8325, 0.0019329471, -0.0028465015, -1229474.6, -2117.6328 
4.3524522e+2, 1.8474665e+2, -1141163.5, -1283786.6, -5867.925, 0.0017923169, -0.0030075377, -1140922.5, -11439.784 
4.3524495e+2, 1.9473326e+2, -1044016.4, -1186244.5, -5680.7197, -0.0023026292, -0.00096646964, -1043789.9, -12175.92 
4.3524468e+2, 2.0471919e+2, -956159.8, -1107491.8, -5758.291, -0.0025283264, 0.00018489723, -955941.06, -22189.277 
4.3524447e+2, 2.1470447e+2, -859453.5, -1010204.25, -5808.133, 0.0015612675, -0.0017742891, -859230.0, -23333.93 
4.352443e+2, 2.246891e+2, -771478.56, -931271.4, -5143.9463, 0.002330996, -0.0017590486, -771313.1, -33266.484 
4.3524417e+2, 2.3467311e+2, -674042.44, -833546.1, -5145.272, -0.0006421657, -0.0019089943, -673876.6, -33673.215 
4.352441e+2, 2.4465647e+2, -585757.0, -754242.3, -4825.429, -0.0016093694, -0.0010272559, -585618.9, -43252.55 
4.352441e+2, 2.5463924e+2, -488644.47, -656501.0, -4642.5117, -0.00027710188, -0.0010246077, -488516.2, -43980.816 
4.352442e+2, 2.6462135e+2, -401052.9, -578477.56, -3797.3647, 0.00020342818, -0.00001324816, -400971.66, -54260.72 
4.3524438e+2, 2.7460274e+2, -303821.22, -480622.88, -3898.0725, -0.00030183146, -0.00015816987, -303735.34, -54842.395 
4.3524468e+2, 2.845835e+2, -216109.63, -402718.97, -3021.1577, -0.00075857126, -0.00018045613, -216060.72, -64979.0 
4.3524513e+2, 2.9456353e+2, -118155.484, -304437.25, -2779.343, -0.001121459, -0.0026914596, -118114.02, -64836.91 
4.352457e+2, 3.0454642e+2, -30744.217, -174706.33, -1570.0457, 0.00047576774, -0.0015555167, -30727.096, -30727.096 
4.3524644e+2, 3.145321e+2, -32132.22, -174941.27, -1314.0122, 0.004329232, 0.0018158082, -32120.133, -32120.133 
4.352472e+2, 3.2452226e+2, 31839.918, -43244.63, -154.47145, -0.0035194021, -0.002252777, 31840.236, 31840.236 
4.4525018e+2, 3.4871787e+1, -2526743.5, -2604874.5, -1185.3741, -0.0021217398, -0.0026360916, -2526725.5, 71530.766 
4.452509e+2, 4.4867602e+1, -2434851.0, -2518438.3, -441.5928, 0.0036346656, -0.0017913464, -2434848.5, 65448.82 
4.4525158e+2, 5.4863054e+1, -2338326.0, -2421457.3, -1017.99274, -0.00057507504, -0.0014152753, -2338313.8, 64028.348 
4.4525206e+2, 6.4857805e+1, -2250641.0, -2343566.3, -2920.6619, -0.0013859861, -0.0004412283, -2250549.3, 53844.19 
4.4525242e+2, 7.485188e+1, -2152524.5, -2245719.8, -2877.2195, 0.0013916283, -0.0007428942, -2152435.8, 54015.754 
4.4525266e+2, 8.484533e+1, -2064475.9, -2166057.0, -3336.8467, 0.0016595684, -0.0005823086, -2064366.4, 44149.266 
4.452528e+2, 9.483818e+1, -1969306.5, -2069588.6, -3491.1777, -0.00073752523, -0.0020460472, -1969185.1, 41400.63 
4.4525284e+2, 1.0483039e+2, -1881564.8, -1990611.3, -4773.856, -0.0012014296, -0.0015381882, -1881356.1, 31305.91 
4.4525272e+2, 1.1482199e+2, -1783210.1, -1892567.0, -4902.796, 0.00040833632, -0.0008994535, -1782990.8, 31753.633 
4.4525257e+2, 1.2481293e+2, -1695046.1, -1813683.6, -5049.8936, 0.0009873579, -0.00066644355, -1694831.6, 22001.594 
4.452524e+2, 1.348032e+2, -1598855.4, -1716679.8, -4917.6123, 0.0004561067, -0.002920588, -1598650.4, 20278.014 
4.4525215e+2, 1.4479291e+2, -1510915.8, -1636751.5, -5576.263, -0.00022932726, -0.002202415, -1510669.1, 10360.22 
4.452518e+2, 1.5478204e+2, -1414303.8, -1539502.1, -5859.836, -0.001093132, -0.00040573845, -1414030.0, 9105.826 
4.452515e+2, 1.647705e+2, -1326630.4, -1461293.3, -5932.3555, -0.00039954323, 0.0004473235, -1326369.6, -1120.4664 
4.4525117e+2, 1.7475824e+2, -1228877.3, -1363490.3, -5719.843, 0.0019895511, -0.0019312024, -1228634.6, -1265.5607 
4.452508e+2, 1.8474542e+2, -1140609.6, -1283469.6, -5712.343, 0.0013147364, -0.002122057, -1140381.5, -10886.747 
4.4525042e+2, 1.9473201e+2, -1045057.0, -1186708.0, -5857.0356, -0.002738288, -0.0019186429, -1044815.2, -13188.981 
4.4525012e+2, 2.0471793e+2, -957316.3, -1108029.5, -5769.905, -0.0025776161, -0.0009097824, -957095.75, -23331.7 
4.4524986e+2, 2.1470323e+2, -859043.8, -1009987.1, -5719.9736, 0.002280988, -0.001120534, -858827.4, -22919.176 
4.4524962e+2, 2.2468787e+2, -770954.75, -930892.94, -5210.7437, 0.0028209751, -0.0008361411, -770785.2, -32726.494 
4.4524938e+2, 2.3467189e+2, -675245.75, -833966.06, -5099.9375, -0.0015012496, -0.002388219, -675082.06, -34866.656 
4.4524923e+2, 2.4465527e+2, -587381.0, -754855.3, -4586.202, -0.0024734354, -0.0017560946, -587255.5, -44877.27 
4.452492e+2, 2.5463805e+2, -489333.66, -656667.94, -4632.7593, 0.0003820474, -0.00069153716, -489205.47, -44658.504 
4.4524923e+2, 2.6462016e+2, -401448.03, -578531.2, -3920.0083, 0.0010390695, 0.00041843174, -401361.3, -54638.91 
4.4524935e+2, 2.7460158e+2, -304609.25, -480847.2, -3695.6746, -0.0008588012, -0.0007394713, -304531.8, -55627.44 
4.452496e+2, 2.8458235e+2, -217344.72, -403138.53, -2640.5776, -0.0014954823, -0.0008101138, -217307.2, -66214.2 
4.4524997e+2, 2.9456243e+2, -120070.33, -305179.7, -2676.2854, -0.00061919505, -0.0022345213, -120031.64, -66743.53 
4.4525048e+2, 3.045453e+2, -32528.877, -175151.97, -1789.615, 0.0008995099, -0.0014275679, -32506.426, -32506.426 
4.4525114e+2, 3.1453103e+2, -33026.14, -174987.95, -1691.0411, 0.003131054, -0.000065055094, -33006.0, -33006.0 
4.4525194e+2, 3.245212e+2, 30280.742, -44375.813, 493.64978, -0.00266656, -0.00023389241, 30284.008, 30284.008 
4.552569e+2, 3.4870896e+1, -2525121.8, -2601578.8, -1159.5919, 0.004585702, -0.0040680636, -2525104.3, 73160.9 
4.552574e+2, 4.4866797e+1, -2435865.0, -2520663.3, -801.82806, -0.0066892607, 0.0018298356, -2435857.5, 64447.848 
4.552581e+2, 5.486205e+1, -2339396.0, -2423764.0, -1357.4619, -0.00027465125, -0.0014385079, -2339374.3, 62977.57 
4.5525858e+2, 6.4856714e+1, -2250524.0, -2343359.8, -2844.834, 0.0025951117, -0.0024720433, -2250437.0, 53967.113 
4.5525888e+2, 7.48508e+1, -2152435.8, -2245496.8, -2800.3242, 0.001721142, -0.0030439817, -2152351.5, 54110.53 
4.5525903e+2, 8.4844255e+1, -2064764.8, -2166659.8, -4017.9, 0.00028624965, -0.0017491459, -2064606.5, 43919.688 
4.55259e+2, 9.483708e+1, -1969531.9, -2070166.0, -4179.073, -0.0017505301, -0.00058551534, -1969358.6, 41237.813 
4.5525894e+2, 1.0482926e+2, -1881717.4, -1991033.4, -4668.1665, -0.0011635484, -0.00029684327, -1881518.4, 31154.805 
4.5525888e+2, 1.148208e+2, -1783426.0, -1893020.9, -4781.2905, 0.0022271355, -0.002914217, -1783217.8, 31538.33 
4.552587e+2, 1.24811746e+2, -1694843.0, -1813202.4, -5480.396, 0.0021006723, -0.0021584397, -1694589.9, 22255.01 
4.5525837e+2, 1.348021e+2, -1598630.8, -1716173.5, -5365.028, -0.0018122768, 0.00015928072, -1598386.4, 20552.893 
4.5525798e+2, 1.4479178e+2, -1511433.3, -1637779.8, -5927.204, -0.002231492, 0.0004219427, -1511155.8, 9884.669 
4.5525762e+2, 1.5478078e+2, -1414813.1, -1540543.1, -6197.256, 0.0011295589, -0.0036767053, -1414508.4, 8639.826 
4.5525724e+2, 1.6476922e+2, -1326244.5, -1460507.3, -5984.6353, 0.0018300926, -0.003262289, -1325978.3, -716.6326 
4.5525688e+2, 1.7475708e+2, -1228538.3, -1362699.4, -5774.1045, -0.0003893899, -0.00012074335, -1228290.1, -909.63574 
4.5525643e+2, 1.8474428e+2, -1140920.8, -1284022.6, -6319.9604, -0.0010883987, 0.0008179844, -1140642.3, -11136.153 
4.5525593e+2, 1.9473079e+2, -1045306.25, -1187255.9, -6471.264, -0.000111368325, -0.0026958892, -1045011.8, -13373.662 
4.5525554e+2, 2.0471671e+2, -957203.0, -1107841.4, -5705.467, 0.0005020283, -0.0027252864, -956987.2, -23210.982 
4.5525524e+2, 2.1470203e+2, -859012.4, -1009818.75, -5636.115, 0.0007052638, -0.0009874174, -858802.06, -22881.979 
4.552549e+2, 2.246867e+2, -770842.7, -930520.3, -5786.9497, -0.00009455185, 0.00014521116, -770633.25, -32562.994 
4.5525455e+2, 2.3467073e+2, -675056.56, -833561.25, -5699.7773, -0.0020074528, -0.0017955945, -674851.9, -34625.094 
4.5525435e+2, 2.4465412e+2, -587494.3, -755001.4, -4622.747, -0.0016398651, -0.0015820642, -587366.8, -44977.313 
4.5525432e+2, 2.5463688e+2, -489501.53, -656877.4, -4645.0757, 0.0013183272, -0.0009955607, -489372.72, -44814.273 
4.552543e+2, 2.64619e+2, -401154.78, -577775.1, -4251.8833, 0.0016570853, -0.000771566, -401052.5, -54318.734 
4.552543e+2, 2.7460048e+2, -304265.3, -480054.88, -4045.664, -0.001024308, -0.003265531, -304172.25, -55256.953 
4.5525444e+2, 2.8458124e+2, -217512.7, -403343.28, -2897.0068, -0.0017493754, -0.0022432846, -217467.55, -66363.93 
4.5525476e+2, 2.9456136e+2, -120267.19, -305439.94, -2921.1377, -0.0001613269, 0.00027989215, -120221.12, -66922.57 
4.5525518e+2, 3.0454424e+2, -32467.004, -174942.34, -1948.8737, 0.000058098623, 0.00044068016, -32440.35, -32440.35 
4.5525578e+2, 3.145299e+2, -32946.414, -174761.0, -1850.6649, -0.0013789139, -0.0043323515, -32922.266, -32922.266 
4.5525664e+2, 3.2452023e+2, 30750.139, -43192.676, 728.4972, 0.0010339968, 0.001975201, 30757.316, 30757.316 
4.6526358e+2, 3.4870017e+1, -2524506.8, -2601986.8, -422.99228, 0.0049484293, -0.002419496, -2524504.5, 73769.3 
4.652641e+2, 4.4865853e+1, -2432537.8, -2519422.3, -1962.0798, -0.0072563933, 0.0014528097, -2432493.5, 67821.09 
4.6526468e+2, 5.4861075e+1, -2337017.5, -2422964.8, -1685.3807, 0.0005046261, -0.0018204512, -2336984.5, 65376.965 
4.652651e+2, 6.4855707e+1, -2249276.5, -2342941.0, -2535.4583, 0.0032018516, -0.0026298673, -2249207.8, 55206.105 
4.6526536e+2, 7.4849784e+1, -2152830.0, -2245876.8, -2712.0547, 0.0005668313, -0.002725977, -2152751.3, 53720.863 
4.6526542e+2, 8.484322e+1, -2064802.3, -2166947.0, -4168.155, -0.0007578683, -0.0013956359, -2064632.5, 43903.86 
4.6526533e+2, 9.483602e+1, -1966957.4, -2069181.6, -4219.6035, -0.00070389063, -0.0006587663, -1966783.5, 43823.434 
4.6526518e+2, 1.0482817e+2, -1878973.8, -1989942.8, -4521.3647, 0.00004831808, -0.00046956644, -1878789.9, 33893.977 
4.6526504e+2, 1.1481969e+2, -1783142.0, -1893134.3, -4579.5146, 0.0015504232, -0.0028406489, -1782951.6, 31815.258 
4.6526477e+2, 1.2481061e+2, -1695452.0, -1813564.5, -5528.077, 0.0010724495, -0.0020213954, -1695193.9, 21661.977 
4.6526438e+2, 1.3480099e+2, -1598709.9, -1716263.8, -5691.929, -0.0015459326, 0.00016095479, -1598434.9, 20515.463 
4.652639e+2, 1.4479063e+2, -1510836.3, -1637688.5, -6054.3647, -0.0014807321, 0.00040531225, -1510548.0, 10503.611 
4.652635e+2, 1.5477963e+2, -1413201.9, -1539989.1, -5937.112, 0.0014944432, -0.003581384, -1412924.5, 10235.052 
4.65263e+2, 1.6476806e+2, -1325189.3, -1459923.6, -5883.422, 0.0016547919, -0.003267418, -1324932.9, 340.15787 
4.652625e+2, 1.7475592e+2, -1230065.3, -1363371.5, -6017.886, -0.0012813135, -0.00045862814, -1229794.1, -2402.2136 
4.65262e+2, 1.8474312e+2, -1142459.8, -1284790.9, -6419.7803, -0.0015648362, 0.00066674454, -1142170.9, -12653.455 
4.6526143e+2, 1.9472963e+2, -1043868.6, -1186590.6, -6314.6216, 0.0010766778, -0.0020812221, -1043589.75, -11940.312 
4.6526098e+2, 2.0471556e+2, -955715.1, -1107004.1, -5603.683, 0.0014932469, -0.0021526953, -955507.8, -21720.363 
4.6526057e+2, 2.1470088e+2, -860859.3, -1010609.94, -5570.099, -0.00058583746, -0.0013552431, -860652.4, -24721.082 
4.6526015e+2, 2.2468556e+2, -773188.56, -931504.6, -5634.1816, -0.0014045294, -0.000266807, -772988.3, -34906.887 
4.6525973e+2, 2.3466961e+2, -674766.2, -833256.44, -5642.9307, -0.0007868856, -0.0012392941, -674565.5, -34327.848 
4.6525946e+2, 2.4465302e+2, -586779.56, -754584.94, -4622.6826, -0.00012973578, -0.0010786015, -586652.3, -44252.004 
4.652593e+2, 2.5463578e+2, -490903.66, -657452.25, -4491.849, 0.000574681, -0.0017263769, -490782.63, -46213.324 
4.6525922e+2, 2.646179e+2, -403124.72, -578441.25, -4025.8782, 0.00033938215, -0.0016342952, -403032.3, -56287.87 
4.6525916e+2, 2.7459943e+2, -305352.4, -480269.34, -4019.427, -0.0009876676, -0.0029704513, -305260.1, -56334.473 
4.6525925e+2, 2.8458023e+2, -218265.9, -403461.53, -2917.5066, -0.0008360582, -0.0017027525, -218219.95, -67106.29 
4.652595e+2, 2.9456037e+2, -121329.18, -305718.8, -2659.6729, 0.0010623877, -0.0000054949583, -121290.83, -67982.39 
4.6525985e+2, 3.0454326e+2, -33900.063, -175799.39, -1491.8907, -0.00023702628, -0.00014270344, -33884.38, -33884.38 
4.6526036e+2, 3.145289e+2, -34306.336, -175576.4, -1611.9232, -0.005363896, -0.0046048556, -34287.945, -34287.945 
4.652612e+2, 3.2451925e+2, 27833.547, -43118.668, 600.8893, 0.0034937433, 0.0013885293, 27838.635, 27838.635 
4.752702e+2, 3.4869155e+1, -2526716.5, -2606699.5, 1133.7657, -0.00047062236, 0.0020247365, -2526700.5, 71581.75 
4.7527102e+2, 4.4864777e+1, -2432105.5, -2518442.5, -2490.2017, 0.00097223005, -0.0025251412, -2432033.8, 68291.54 
4.752714e+2, 5.486011e+1, -2336448.0, -2421858.0, -2252.4746, 0.0016948237, -0.0025229673, -2336388.8, 65982.14 
4.7527164e+2, 6.485478e+1, -2249539.0, -2343553.3, -2885.7888, 0.0007388469, -0.001096003, -2249450.5, 54972.63 
4.752718e+2, 7.4848825e+1, -2153112.3, -2246517.0, -3057.9658, -0.0019430425, -0.000048844442, -2153012.3, 53469.16 
4.7527182e+2, 8.4842217e+1, -2064846.4, -2167087.0, -4171.4126, -0.0015231275, 0.0003281803, -2064676.5, 43869.68 
4.7527176e+2, 9.483498e+1, -1967032.4, -2069329.5, -4217.768, 0.00217274, -0.0021121905, -1966858.8, 43758.363 
4.7527155e+2, 1.0482712e+2, -1879101.3, -1990175.1, -5038.438, 0.0022986876, -0.0019140965, -1878873.1, 33820.977 
4.752712e+2, 1.14818655e+2, -1783249.9, -1893355.1, -5103.45, -0.0013932186, -0.00088379247, -1783013.9, 31763.254 
4.752708e+2, 1.24809556e+2, -1695725.5, -1814142.9, -5827.736, -0.0019096801, -0.00041501154, -1695439.4, 21426.945 
4.752704e+2, 1.3479982e+2, -1598971.1, -1716852.3, -5983.3535, 0.0009824139, -0.0026105074, -1598668.1, 20293.477 
4.7526988e+2, 1.4478949e+2, -1510622.0, -1637222.3, -6130.326, 0.001733373, -0.001990608, -1510325.9, 10737.049 
4.7526938e+2, 1.5477857e+2, -1413034.3, -1539528.5, -6014.005, 0.0001657003, -0.00044847003, -1412749.0, 10421.003 
4.752688e+2, 1.6476698e+2, -1325483.1, -1460458.4, -6600.767, -0.00071815954, 0.00007512628, -1325161.1, 122.37786 
4.7526813e+2, 1.7475475e+2, -1230300.6, -1363894.4, -6743.8887, -0.0008495358, -0.0027342949, -1229961.1, -2557.8618 
4.7526753e+2, 1.8474194e+2, -1142225.5, -1284360.3, -6267.037, -0.0003164249, -0.0022744632, -1141949.8, -12420.897 
4.7526702e+2, 1.9472855e+2, -1043710.3, -1186180.0, -6143.0156, 0.00094422, -0.0002142186, -1043445.94, -11785.776 
4.7526646e+2, 2.0471449e+2, -955750.56, -1106938.5, -6380.636, 0.00056865864, 0.0005779448, -955481.75, -21683.865 
4.752658e+2, 2.1469979e+2, -860818.3, -1010524.56, -6373.3267, -0.001633442, -0.00217401, -860547.5, -24605.469 
4.7526532e+2, 2.2468446e+2, -773163.2, -931489.3, -5560.1016, -0.0012788031, -0.0019401886, -772968.2, -34876.023 
4.7526497e+2, 2.3466854e+2, -674803.75, -833284.94, -5539.4526, 0.0019590608, -0.0007142286, -674610.4, -34362.137 
4.7526458e+2, 2.4465196e+2, -586658.75, -754218.44, -5167.7266, 0.001966112, -0.00027488646, -586499.5, -44088.8 
4.7526425e+2, 2.546347e+2, -490720.8, -657080.2, -5060.971, -0.0017066114, -0.0028376952, -490567.0, -45987.42 
4.7526404e+2, 2.6461688e+2, -403152.75, -578420.94, -4148.452, -0.0027671375, -0.0021937822, -403054.6, -56300.08 
4.7526398e+2, 2.7459842e+2, -305398.5, -480295.94, -4121.201, -0.0007924588, -0.00012293892, -305301.44, -56366.055 
4.7526404e+2, 2.8457925e+2, -217927.77, -402648.25, -3234.0874, 0.0011162179, 0.00062562013, -217871.16, -66747.95 
4.752642e+2, 2.945594e+2, -120967.87, -304873.34, -2991.0347, 0.0029383786, -0.0028146424, -120919.234, -67601.41 
4.7526446e+2, 3.0454227e+2, -34214.42, -176394.95, -1629.1183, -0.000081911916, -0.0029452657, -34195.758, -34195.758 
4.752649e+2, 3.1452796e+2, -34651.227, -176252.72, -1723.6787, -0.008899219, -0.0012755032, -34630.25, -34630.25 
4.7526562e+2, 3.2451832e+2, 29007.977, -40557.96, -650.25745, 0.004778753, -0.0016553788, 29014.055, 29014.055 
4.8527706e+2, 3.4868312e+1, -2522006.8, -2605048.5, 842.72217, -0.003864053, 0.00014056612, -2521998.0, 76292.33 
4.8527783e+2, 4.4863936e+1, -2434204.0, -2519384.0, -1344.4802, 0.0064786472, -0.001554195, -2434182.8, 66150.57 
4.852781e+2, 5.485927e+1, -2335120.8, -2421114.5, -1571.0763, 0.0010267185, -0.0019977917, -2335092.3, 67286.96 
4.8527825e+2, 6.485392e+1, -2247022.8, -2342851.0, -2751.4973, -0.0016749585, -0.0009105353, -2246943.8, 57487.656 
4.852783e+2, 7.484791e+1, -2151001.3, -2246022.5, -2942.1545, -0.0013976183, -0.00008749868, -2150910.3, 55580.05 
4.8527828e+2, 8.484127e+1, -2063338.0, -2166565.0, -3862.6414, -0.00017861233, 0.00011898608, -2063193.6, 45361.855 
4.8527816e+2, 9.483402e+1, -1966737.3, -2069389.0, -3972.273, 0.0020107161, -0.0024387958, -1966583.8, 44042.83 
4.852779e+2, 1.04826145e+2, -1879015.8, -1990291.0, -5072.7246, 0.0015751692, -0.0020132442, -1878785.0, 33918.703 
4.8527744e+2, 1.14817664e+2, -1782435.9, -1893096.1, -5124.3345, -0.0016692076, -0.00038925893, -1782199.1, 32587.678 
4.8527694e+2, 1.2480855e+2, -1694467.0, -1813786.4, -5624.5, -0.0017439659, -0.00005293026, -1694202.5, 22673.674 
4.8527643e+2, 1.3479878e+2, -1597480.3, -1716372.0, -5650.51, 0.0015857486, -0.00315198, -1597212.3, 21759.564 
4.8527586e+2, 1.4478844e+2, -1509752.6, -1636814.5, -5919.603, 0.0020618709, -0.002465746, -1509477.5, 11595.718 
4.8527524e+2, 1.5477753e+2, -1414120.6, -1540050.1, -6019.1064, -0.00056085247, 0.00019271925, -1413833.5, 9346.672 
4.8527452e+2, 1.6476594e+2, -1326449.0, -1461034.5, -6656.4634, -0.0013397896, 0.0009023387, -1326120.6, -826.9362 
4.852738e+2, 1.7475371e+2, -1228749.6, -1363263.8, -6605.142, -0.00010649987, -0.0027283619, -1228426.1, -1012.4911 
4.852731e+2, 1.8474089e+2, -1140769.6, -1283588.5, -5991.77, 0.00049659447, -0.0026569408, -1140518.6, -10979.461 
4.8527253e+2, 1.947275e+2, -1045406.44, -1186938.4, -6033.793, 0.00039286786, -0.0005026577, -1045149.7, -13479.189 
4.8527184e+2, 2.0471343e+2, -957784.44, -1107874.9, -6501.516, -0.00017110557, 0.00045757001, -957503.3, -23695.18 
4.8527113e+2, 2.1469875e+2, -860124.56, -1010109.1, -6485.346, -0.0012502363, -0.0020474794, -859844.6, -23892.488 
4.852705e+2, 2.2468343e+2, -772128.3, -930878.44, -5454.795, -0.0006327056, -0.0019393647, -771941.1, -33838.895 
4.8527008e+2, 2.3466751e+2, -676188.0, -833842.2, -5361.8726, 0.001887641, -0.0012622381, -676005.9, -35747.64 
4.8526967e+2, 2.4465096e+2, -588662.4, -754909.44, -5123.741, 0.0016503168, -0.0006977244, -588504.6, -46084.066 
4.852692e+2, 2.5463375e+2, -491545.16, -657165.0, -5040.602, -0.0017187293, -0.002352048, -491391.88, -46802.813 
4.852689e+2, 2.6461592e+2, -403706.38, -578446.1, -3895.4785, -0.0026224812, -0.0015928801, -403619.6, -56855.805 
4.8526877e+2, 2.745975e+2, -306827.22, -480709.84, -3700.4287, -0.00067249726, -0.0003344301, -306748.5, -57804.035 
4.8526874e+2, 2.8457835e+2, -219645.28, -403138.7, -2889.8147, 0.0011367566, -0.000052778803, -219599.78, -68467.72 
4.852688e+2, 2.945585e+2, -122457.99, -305239.78, -2856.094, 0.0027691277, -0.00355156, -122413.375, -69086.97 
4.85269e+2, 3.0454144e+2, -35632.004, -176645.5, -1217.7063, -0.000018392306, -0.0031215718, -35621.49, -35621.49 
4.852694e+2, 3.1452718e+2, -36242.324, -176582.8, -758.92633, -0.008084011, -0.00013230588, -36238.22, -36238.22 
4.8526993e+2, 3.2451752e+2, 27226.184, -41312.742, -1054.9131, 0.0042064567, -0.0035557079, 27242.416, 27242.416 
4.952841e+2, 3.486749e+1, -2520811.3, -2602504.5, -2152.382, -0.005474446, -0.007431715, -2520754.8, 77543.85 
4.9528456e+2, 4.4863304e+1, -2434419.3, -2520081.0, -1068.5243, 0.0095156375, 0.0038572303, -2434405.8, 65933.75 
4.9528486e+2, 5.485854e+1, -2335466.3, -2421903.0, -1258.7924, -0.0013317035, -0.00036820624, -2335447.8, 66938.41 
4.95285e+2, 6.4853114e+1, -2247386.8, -2343573.5, -3202.4233, -0.0040692133, -0.0019335726, -2247280.3, 57159.2 
4.95285e+2, 7.484705e+1, -2151327.8, -2246719.3, -3394.1265, 0.0018736251, -0.0025618733, -2151207.0, 55291.78 
4.9528486e+2, 8.484037e+1, -2063499.5, -2166961.3, -4178.636, 0.0030454274, -0.0018245449, -2063331.0, 45233.26 
4.952846e+2, 9.4833106e+1, -1966920.3, -2069798.0, -4286.043, -0.0008995918, -0.0017525625, -1966742.0, 43893.49 
4.9528417e+2, 1.0482522e+2, -1879098.0, -1990443.3, -5400.261, -0.0018400792, -0.0008999837, -1878836.8, 33876.043 
4.952837e+2, 1.1481672e+2, -1782501.8, -1893236.4, -5450.5996, 0.00043020147, -0.0012057489, -1782234.1, 32561.918 
4.9528316e+2, 1.2480759e+2, -1694508.4, -1813869.9, -5859.1797, 0.0012257624, -0.0008051663, -1694221.5, 22664.05 
4.9528253e+2, 1.3479784e+2, -1597535.1, -1716489.0, -5886.173, 0.0004397363, -0.0016831304, -1597244.6, 21736.45 
4.9528182e+2, 1.4478748e+2, -1509974.8, -1637188.9, -6502.76, -0.00022541777, -0.0012049293, -1509643.3, 11439.36 
4.9528107e+2, 1.547765e+2, -1414294.0, -1540436.5, -6604.944, -0.0007656687, -0.0014020695, -1413949.1, 9241.038 
4.952803e+2, 1.6476493e+2, -1326330.6, -1460792.0, -6730.5083, -0.00041893678, -0.00052578765, -1325994.6, -690.9774 
4.9527952e+2, 1.7475274e+2, -1228653.1, -1363028.8, -6672.955, 0.0009000996, -0.00067066506, -1228322.6, -899.53375 
4.9527875e+2, 1.8473992e+2, -1140903.6, -1283815.3, -6640.887, 0.0009009419, -0.0007327211, -1140595.8, -11047.055 
4.952779e+2, 1.9472647e+2, -1045516.56, -1187177.4, -6694.124, -0.0005560019, -0.002724335, -1045200.94, -13520.46 
4.9527717e+2, 2.0471242e+2, -957755.75, -1107739.9, -6585.8, -0.0007721315, -0.0022243983, -957467.1, -23648.906 
4.9527642e+2, 2.1469775e+2, -860105.7, -1009991.56, -6553.581, 0.0004042718, -0.00107013, -859819.7, -23857.867 
4.9527577e+2, 2.2468247e+2, -772048.0, -930628.56, -5973.339, 0.00046123637, -0.00042891648, -771823.3, -33711.61 
4.9527514e+2, 2.3466654e+2, -676095.25, -833591.56, -5895.0337, -0.0007484212, -0.0027693484, -675874.94, -35607.117 
4.952746e+2, 2.4464999e+2, -588531.06, -754589.5, -5381.331, -0.0008572306, -0.0022208092, -588356.8, -45926.89 
4.952741e+2, 2.5463286e+2, -491415.53, -656854.56, -5287.3477, 0.00029156628, -0.00042954116, -491246.72, -46648.797 
4.9527374e+2, 2.6461506e+2, -403456.66, -577826.6, -4222.2197, 0.0004143018, 0.00005706959, -403354.47, -56582.184 
4.952735e+2, 2.7459663e+2, -306564.97, -480098.97, -4034.939, -0.0006435012, -0.0032935226, -306471.2, -57518.24 
4.9527338e+2, 2.845775e+2, -219660.6, -403088.34, -3162.2075, -0.00060177216, -0.0034307293, -219606.1, -68465.76 
4.9527335e+2, 2.9455772e+2, -122492.875, -305222.88, -3119.7957, 0.0007206928, -0.0024214855, -122439.625, -69105.36 
4.9527353e+2, 3.0454072e+2, -34989.945, -175202.36, -1392.0925, -0.00007424741, -0.00092197955, -34976.125, -34976.125 
4.952739e+2, 3.1452653e+2, -35575.1, -175093.05, -932.2033, -0.0033870384, -0.0009599411, -35568.875, -35568.875 
4.9527416e+2, 3.2451683e+2, 26180.68, -43436.785, -2273.3438, 0.001897057, -0.0044721747, 26254.836, 26254.836 
5.0529116e+2, 3.4866896e+1, -2521446.5, -2601966.3, -1726.1412, -0.00041166862, -0.006839456, -2521409.8, 76894.64 
5.0529134e+2, 4.4862694e+1, -2429474.5, -2518790.8, -708.3873, 0.0016006684, 0.003538602, -2429468.8, 70876.69 
5.052917e+2, 5.485783e+1, -2334267.5, -2422479.0, -1246.3517, -0.0011328242, -0.0005287001, -2334249.8, 68143.35 
5.052918e+2, 6.485235e+1, -2246797.8, -2343415.0, -3317.546, -0.0010135962, -0.0020439061, -2246684.0, 57762.887 
5.052917e+2, 7.484627e+1, -2149446.5, -2245912.8, -3240.5886, 0.0022279327, -0.002726336, -2149337.8, 57168.727 
5.0529146e+2, 8.4839576e+1, -2061589.8, -2166414.0, -4081.092, 0.0021598502, -0.0017444252, -2061431.1, 47140.938 
5.0529104e+2, 9.4832283e+1, -1965968.9, -2069710.8, -4236.991, -0.0014750918, -0.0011041426, -1965796.1, 44847.406 
5.0529057e+2, 1.04824364e+2, -1878258.1, -1990193.3, -5207.784, -0.0018878115, -0.0005128928, -1878016.4, 34704.75 
5.0529003e+2, 1.1481584e+2, -1781221.8, -1892762.9, -5272.978, 0.0011534628, -0.0019604617, -1780973.1, 33831.605 
5.052894e+2, 1.24806695e+2, -1693551.1, -1813624.8, -5847.529, 0.0017918603, -0.0014155784, -1693267.0, 23627.268 
5.0528866e+2, 1.3479695e+2, -1597687.0, -1716767.9, -5960.2065, -0.00015892317, -0.0007697178, -1597389.5, 21600.375 
5.052878e+2, 1.4478658e+2, -1510030.3, -1637261.5, -6592.9756, -0.00095289486, -0.00030274282, -1509689.5, 11401.967 
5.0528693e+2, 1.5477559e+2, -1413325.3, -1539951.0, -6510.8945, -0.0004906547, -0.0021855226, -1412991.4, 10207.804 
5.052861e+2, 1.6476399e+2, -1325458.0, -1460503.9, -6435.212, 0.00016080456, -0.001607307, -1325152.0, 160.75949 
5.052852e+2, 1.747518e+2, -1229022.9, -1363326.1, -6568.8745, 0.001006147, -0.00051883573, -1228702.4, -1270.1614 
5.052843e+2, 1.8473898e+2, -1141434.8, -1284029.6, -6886.4053, 0.0007102697, -0.000113230555, -1141103.0, -11545.142 
5.052834e+2, 1.9472554e+2, -1045313.25, -1187017.5, -6805.1914, -0.00085439434, -0.002485897, -1044987.2, -13297.596 
5.052825e+2, 2.0471148e+2, -957559.06, -1107568.0, -6278.632, -0.0007902926, -0.0022430364, -957296.75, -23469.436 
5.052817e+2, 2.1469684e+2, -860889.75, -1010285.75, -6227.74, 0.0010979992, -0.0011934722, -860630.56, -24659.76 
5.05281e+2, 2.2468157e+2, -773206.8, -931047.0, -5938.2544, 0.0009050302, -0.000402853, -772983.75, -34863.188 
5.0528014e+2, 2.3466565e+2, -676999.56, -833881.44, -5901.115, -0.0016360339, -0.0023132504, -676777.9, -36501.41 
5.052795e+2, 2.4464913e+2, -589306.56, -754657.44, -5174.466, -0.0017124257, -0.0018103315, -589144.75, -46706.375 
5.0527894e+2, 2.5463203e+2, -492395.47, -657010.6, -5044.428, 0.0010306333, -0.0005996327, -492241.03, -47634.86 
5.052785e+2, 2.6461422e+2, -404650.6, -578132.4, -4105.7354, 0.0016167813, -0.00042808498, -404553.47, -57773.152 
5.0527817e+2, 2.7459583e+2, -307953.63, -480501.3, -4062.7102, -0.00030272934, -0.0037896908, -307858.03, -58897.285 
5.0527793e+2, 2.845767e+2, -221191.47, -403424.16, -3110.091, -0.0012095158, -0.0034719585, -221138.4, -69990.62 
5.052778e+2, 2.94557e+2, -124310.61, -305690.3, -2836.9753, -0.0009460689, -0.0014549858, -124266.24, -70924.99 
5.0527793e+2, 3.0454004e+2, -36899.742, -175145.6, -995.26666, -0.00015592904, -0.0005076216, -36892.58, -36892.58 
5.052782e+2, 3.145259e+2, -38084.45, -175291.28, -662.66583, 0.0012872656, -0.0029573112, -38081.246, -38081.246 
5.052784e+2, 3.2451633e+2, 25352.23, -44112.996, -1832.1748, -0.0009548928, -0.0034526673, 25400.521, 25400.521 
5.152983e+2, 3.4866527e+1, -2521472.8, -2602112.8, -324.7794, 0.0105597405, 0.001070362, -2521471.3, 76836.69 
5.152983e+2, 4.486211e+1, -2430477.0, -2520961.0, -1375.2207, -0.016099961, -0.0018762724, -2430456.3, 69895.14 
5.1529866e+2, 5.4857135e+1, -2335296.5, -2424679.5, -1901.8573, 0.0013213295, -0.002284929, -2335256.0, 67144.09 
5.1529866e+2, 6.4851606e+1, -2246619.3, -2343065.5, -3424.9656, 0.006872796, -0.0013370061, -2246497.8, 57956.34 
5.152984e+2, 7.4845564e+1, -2149280.8, -2245538.3, -3350.6826, -0.000038428912, -0.0008321536, -2149164.3, 57349.07 
5.15298e+2, 8.483887e+1, -2061875.3, -2166999.3, -4640.377, -0.0024082635, 0.00014076871, -2061670.8, 46908.316 
5.152976e+2, 9.483152e+1, -1966217.1, -2070293.9, -4794.824, 0.000007730333, -0.0004901681, -1965996.8, 44654.348 
5.15297e+2, 1.0482357e+2, -1878339.4, -1990405.4, -5419.2964, 0.0010537779, -0.00077292597, -1878078.0, 34651.01 
5.1529634e+2, 1.1481502e+2, -1781339.1, -1892988.1, -5481.013, 0.0006301281, -0.0026577131, -1781070.8, 33741.96 
5.1529557e+2, 1.2480585e+2, -1693771.1, -1814058.0, -6358.753, 0.00018147637, -0.001899184, -1693435.9, 23466.652 
5.1529473e+2, 1.3479608e+2, -1597885.6, -1717206.1, -6469.329, -0.00029480035, -0.00034639603, -1597535.9, 21462.416 
5.1529384e+2, 1.447857e+2, -1509865.8, -1636924.5, -6897.249, -0.00030295269, 0.00028075153, -1509492.4, 11607.558 
5.152928e+2, 1.5477474e+2, -1413138.8, -1539615.6, -6822.4043, 0.00019475559, -0.0022393854, -1412771.9, 10435.617 
5.1529187e+2, 1.6476314e+2, -1325729.3, -1461013.3, -6824.6143, 0.0004037362, -0.0023672858, -1325385.9, -64.74209 
5.152909e+2, 1.747509e+2, -1229325.4, -1363883.1, -6949.3066, 0.00029144448, -0.0020685534, -1228967.5, -1526.4032 
5.152899e+2, 1.8473808e+2, -1141319.1, -1283726.1, -7336.731, -0.000033176835, -0.00065870525, -1140942.1, -11375.427 
5.1528883e+2, 1.9472468e+2, -1045146.06, -1186686.4, -7262.6597, -0.0005969076, -0.00004368764, -1044774.4, -13076.426 
5.152878e+2, 2.0471066e+2, -957494.06, -1107380.1, -6607.891, -0.00030924845, 0.00013060278, -957203.3, -23367.814 
5.15287e+2, 2.1469599e+2, -860851.1, -1010129.4, -6554.9023, 0.0009156554, -0.0023001, -860563.9, -24584.666 
5.152861e+2, 2.2468072e+2, -773191.1, -930913.1, -6397.007, 0.0007440309, -0.0017051309, -772932.1, -34803.277 
5.1528513e+2, 2.3466486e+2, -676973.06, -833740.8, -6361.5303, -0.0009835934, -0.00010020005, -676715.4, -36430.973 
5.152844e+2, 2.4464835e+2, -589112.94, -754227.9, -5479.09, -0.0011048939, 0.00033736706, -588931.3, -46485.227 
5.1528376e+2, 2.5463122e+2, -492209.0, -656583.75, -5347.5063, 0.0006082988, -0.0026446604, -492035.22, -47421.316 
5.152832e+2, 2.6461345e+2, -404670.25, -578045.8, -4485.2026, 0.0011383005, -0.0028238965, -404554.28, -57766.383 
5.1528275e+2, 2.7459508e+2, -307987.63, -480444.94, -4438.9165, 0.00030108524, -0.0020728656, -307873.44, -58905.52 
5.1528245e+2, 2.8457606e+2, -220819.19, -402509.0, -3448.3044, -0.0008211512, -0.00051667436, -220753.77, -69599.24 
5.152822e+2, 2.9455638e+2, -123904.91, -304739.16, -3180.1123, -0.0023034243, -0.0006390646, -123849.0, -70501.49 
5.152822e+2, 3.0453947e+2, -36436.395, -174132.92, -1339.2843, -0.0002968263, -0.0017068738, -36423.367, -36423.367 
5.152825e+2, 3.145254e+2, -37642.926, -174303.64, -1013.847, 0.005910092, -0.0060170298, -37635.406, -37635.406 
5.152826e+2, 3.2451594e+2, 25836.617, -42944.563, -1530.0343, -0.004342222, -0.0006450738, 25870.637, 25870.637 
5.253053e+2, 3.4866005e+1, -2519638.8, -2603008.5, 503.43442, 0.008062478, 0.0029560772, -2519635.8, 78677.516 
5.253055e+2, 4.4861484e+1, -2427559.5, -2519342.0, -2647.5313, -0.012153673, -0.0027215222, -2427483.3, 72874.13 
5.253056e+2, 5.485653e+1, -2332803.0, -2423238.5, -2046.8441, 0.002023358, -0.0026078715, -2332756.8, 69649.17 
5.2530557e+2, 6.4851004e+1, -2245223.0, -2342789.0, -2727.4683, 0.0058486187, -0.0012712674, -2245147.0, 59313.2 
5.2530515e+2, 7.4844927e+1, -2148920.8, -2245784.3, -3071.4146, -0.0011674527, -0.0005261532, -2148823.5, 57696.152 
5.2530473e+2, 8.4838206e+1, -2061272.5, -2166826.0, -4610.305, -0.0028705616, 0.00026526515, -2061071.5, 47514.113 
5.253042e+2, 9.483084e+1, -1964345.8, -2069491.0, -4567.106, 0.0010329133, -0.0009884601, -1964147.8, 46509.99 
5.253035e+2, 1.0482286e+2, -1876615.0, -1989973.8, -5166.6855, 0.0020787711, -0.0011032007, -1876380.0, 36355.86 
5.253027e+2, 1.1481429e+2, -1780896.8, -1893198.4, -5382.8677, 0.00007113967, -0.0019724232, -1780639.4, 34180.574 
5.253018e+2, 1.2480511e+2, -1693440.1, -1813819.8, -6276.1157, -0.0007666061, -0.0013038664, -1693113.8, 23796.07 
5.2530086e+2, 1.3479534e+2, -1597047.1, -1716704.5, -6134.887, -0.00036141757, -0.0010433021, -1596733.4, 22272.3 
5.2529985e+2, 1.4478494e+2, -1509088.5, -1636869.1, -6490.0366, 0.00019582109, -0.00046110456, -1508759.8, 12347.748 
5.252988e+2, 1.5477395e+2, -1412509.6, -1539623.1, -6784.249, 0.00092593546, -0.001659202, -1412148.6, 11066.584 
5.2529764e+2, 1.6476235e+2, -1325314.6, -1460681.3, -7017.5015, 0.0006604369, -0.0015236853, -1324951.9, 377.05328 
5.2529657e+2, 1.7475012e+2, -1229956.9, -1364024.5, -6790.5864, -0.00070067216, -0.0021306477, -1229613.9, -2165.0823 
5.2529544e+2, 1.8473731e+2, -1142097.9, -1284108.4, -6860.0034, -0.0008349208, -0.0010418524, -1141767.4, -12193.008 
5.252943e+2, 1.947239e+2, -1044909.56, -1186588.4, -6940.8877, 0.0003760674, -0.00008538314, -1044570.3, -12864.758 
5.2529323e+2, 2.0470989e+2, -957209.2, -1107204.8, -6545.4385, 0.0006704111, 0.00030413087, -956924.1, -23081.076 
5.2529216e+2, 2.1469522e+2, -861615.0, -1010466.94, -6552.214, -0.00007488064, -0.0020572653, -861327.2, -25340.44 
5.2529114e+2, 2.2467996e+2, -774173.75, -931166.56, -6312.8433, -0.00030227314, -0.0015911581, -773920.3, -35784.035 
5.2529013e+2, 2.3466411e+2, -677530.94, -833775.0, -6190.0376, 0.00007340618, -0.00031857888, -677286.06, -36994.484 
5.252893e+2, 2.4464762e+2, -589749.1, -754456.94, -5296.5073, 0.00015097686, 0.000092043374, -589578.94, -47125.785 
5.252885e+2, 2.546305e+2, -493273.66, -657014.9, -5335.052, -0.000111530644, -0.002586323, -493100.0, -48479.113 
5.252879e+2, 2.6461276e+2, -405954.13, -578281.8, -4550.8003, 0.000082156825, -0.0023761496, -405834.03, -59039.363 
5.2528733e+2, 2.7459446e+2, -309795.13, -480892.06, -4286.052, 0.0008078801, -0.0011214266, -309687.84, -60713.574 
5.2528685e+2, 2.8457543e+2, -222636.34, -402977.7, -3087.7131, -0.00006790756, 0.00015182764, -222583.5, -71422.99 
5.2528656e+2, 2.9455578e+2, -125221.61, -304948.5, -3005.1956, -0.002861327, -0.00118108, -125171.375, -71818.16 
5.252865e+2, 3.045389e+2, -37981.074, -174476.67, -1588.674, -0.0005533459, -0.0020606073, -37962.586, -37962.586 
5.252867e+2, 3.145249e+2, -40202.254, -175146.28, -1541.8936, 0.00789599, -0.0045066364, -40184.64, -40184.64 
5.252867e+2, 3.2451546e+2, 24099.604, -42786.785, -1096.0471, -0.0058228034, -0.0001833398, 24117.56, 24117.56 
5.3531235e+2, 3.486535e+1, -2521551.3, -2607228.0, 1989.9154, -0.006447955, -0.0005252798, -2521505.0, 76814.41 
5.35313e+2, 4.4860828e+1, -2426565.5, -2517074.3, -3337.4507, 0.010997525, 0.000489935, -2426442.5, 73921.32 
5.353127e+2, 5.485602e+1, -2331575.0, -2420772.5, -2804.384, 0.001145911, -0.0016589909, -2331486.8, 70924.08 
5.353123e+2, 6.4850515e+1, -2245764.5, -2344030.8, -3120.8533, -0.0031189113, -0.0017780315, -2245665.3, 58799.45 
5.35312e+2, 7.484434e+1, -2149526.0, -2247093.8, -3445.493, -0.0013016358, -0.0016341157, -2149404.5, 57120.816 
5.353115e+2, 8.483758e+1, -2061152.4, -2166626.5, -4831.9556, 0.00030244148, -0.0011787334, -2060931.5, 47660.242 
5.3531086e+2, 9.483022e+1, -1964233.0, -2069277.1, -4794.4927, 0.0016181943, -0.0024774144, -1964014.6, 46649.066 
5.3531003e+2, 1.0482224e+2, -1877016.3, -1990800.9, -5709.939, 0.0013737157, -0.0014954918, -1876730.4, 36011.547 
5.353091e+2, 1.14813626e+2, -1781299.4, -1894037.1, -5917.386, -0.0005356874, -0.00006234123, -1780989.6, 33836.684 
5.353081e+2, 1.2480444e+2, -1693152.6, -1813261.0, -6653.324, -0.0011510066, 0.0002445225, -1692785.1, 24131.277 
5.35307e+2, 1.3479467e+2, -1596740.9, -1716117.4, -6524.1025, -0.0003915608, -0.002731196, -1596385.4, 22626.82 
5.353059e+2, 1.4478426e+2, -1509635.6, -1637974.3, -6836.9443, 0.0005417026, -0.002376004, -1509272.5, 11841.644 
5.353047e+2, 1.5477322e+2, -1413103.3, -1540794.5, -7111.397, 0.0016654292, -0.0005139429, -1412708.4, 10513.928 
5.3530353e+2, 1.6476162e+2, -1324950.3, -1459851.8, -7653.5894, 0.00089314644, 0.0007499635, -1324517.4, 818.7331 
5.3530216e+2, 1.7474943e+2, -1229510.5, -1363128.9, -7450.0454, -0.001951789, -0.0008663332, -1229096.4, -1641.0088 
5.3530097e+2, 1.8473664e+2, -1142223.3, -1284340.6, -7068.984, -0.0017073395, -0.0012730145, -1141872.5, -12291.646 
5.352998e+2, 1.947232e+2, -1045103.2, -1186884.6, -7133.8975, 0.001960341, -0.0023385733, -1044745.1, -13032.626 
5.352986e+2, 2.0470917e+2, -957305.06, -1107271.4, -7136.5728, 0.002072112, -0.0014790007, -956966.25, -23116.137 
5.3529733e+2, 2.1469453e+2, -861686.9, -1010518.7, -7150.0103, -0.0018030603, -0.00061115396, -861344.2, -25350.672 
5.352962e+2, 2.2467929e+2, -773972.4, -930699.2, -6664.6753, -0.0021579484, -0.00021021068, -773689.44, -35546.53 
5.352952e+2, 2.3466344e+2, -677323.44, -833296.25, -6539.855, 0.0014662403, -0.0027077345, -677049.7, -36751.418 
5.352942e+2, 2.4464695e+2, -589886.56, -754674.4, -5703.958, 0.001964605, -0.0022879108, -589689.4, -47229.65 
5.352933e+2, 2.5462988e+2, -493441.13, -657284.4, -5735.14, -0.0011206974, -0.0006490395, -493240.63, -48613.355 
5.352925e+2, 2.6461214e+2, -405589.6, -577368.5, -5050.069, -0.0015243522, 0.00061321957, -405441.25, -58640.543 
5.352918e+2, 2.7459386e+2, -309355.56, -479938.06, -4799.525, 0.0012071383, -0.0008546738, -309220.63, -60240.75 
5.3529125e+2, 2.845749e+2, -222561.16, -402736.53, -3307.7085, 0.0009890335, -0.0012274308, -222500.45, -71334.62 
5.352909e+2, 2.9455525e+2, -125193.12, -304775.6, -3214.0938, -0.002740359, -0.0029369234, -125135.61, -71777.16 
5.352907e+2, 3.0453843e+2, -38062.42, -174489.3, -2177.9373, -0.00095331436, -0.001650829, -38027.66, -38027.66 
5.352907e+2, 3.1452444e+2, -40251.184, -175164.61, -2144.3906, 0.00747714, 0.0010724644, -40217.11, -40217.11 
5.352907e+2, 3.24515e+2, 24659.076, -41449.406, -243.22699, -0.005673572, -0.0018897008, 24659.97, 24659.97 
5.4531974e+2, 3.486494e+1, -2514493.3, -2603876.3, 1154.2137, -0.010530051, -0.0044240053, -2514478.3, 83845.18 
5.453202e+2, 4.4860473e+1, -2431324.3, -2519501.5, -1196.477, 0.017763097, 0.0026284999, -2431308.0, 69059.37 
5.4531974e+2, 5.485564e+1, -2330379.0, -2420286.5, -1845.9391, -0.00029951648, -0.0010520319, -2330341.0, 72073.66 
5.453193e+2, 6.48501e+1, -2242306.0, -2342804.5, -3229.01, -0.0064714556, -0.001978071, -2242202.3, 62266.582 
5.453189e+2, 7.484389e+1, -2147246.3, -2246453.0, -3230.3481, 0.00012872019, -0.0018699917, -2147141.3, 59388.695 
5.453183e+2, 8.483708e+1, -2059716.3, -2166281.0, -4372.585, 0.002592276, -0.0013084759, -2059537.1, 49059.426 
5.4531753e+2, 9.48297e+1, -1963423.5, -2069231.4, -4653.227, 0.0005846198, -0.0023442178, -1963219.3, 47449.59 
5.453166e+2, 1.04821704e+2, -1876210.3, -1990423.8, -5752.3315, -0.00039532705, -0.0013577332, -1875921.3, 36825.96 
5.4531556e+2, 1.1481309e+2, -1780293.9, -1893551.3, -5579.735, -0.00026856622, -0.00019741933, -1780019.6, 34812.113 
5.453144e+2, 1.2480387e+2, -1692239.9, -1813179.9, -6220.6895, -0.000058407008, 0.00015432746, -1691920.8, 25001.227 
5.4531324e+2, 1.3479407e+2, -1595787.9, -1716013.0, -6596.8184, 0.00022074759, -0.0024258257, -1595427.0, 23591.033 
5.453119e+2, 1.4478366e+2, -1508920.1, -1637533.9, -7022.4346, 0.00037915914, -0.002062008, -1508537.9, 12582.281 
5.453107e+2, 1.5477261e+2, -1413603.3, -1540935.3, -6699.653, 0.00041187636, -0.0006120275, -1413251.8, 9976.54 
5.453093e+2, 1.64761e+2, -1325454.6, -1460262.5, -7095.994, 0.00011401107, 0.00060455094, -1325082.3, 259.8713 
5.4530793e+2, 1.7474882e+2, -1228454.0, -1362765.0, -7390.3716, -0.0005581856, -0.0006481392, -1228048.5, -587.1001 
5.453065e+2, 1.8473601e+2, -1141097.5, -1283849.6, -7219.769, -0.00032847302, -0.0010748649, -1140733.3, -11146.245 
5.453052e+2, 1.9472258e+2, -1045775.8, -1187247.4, -7158.5977, 0.0009006964, -0.0025927725, -1045414.5, -13695.829 
5.453039e+2, 2.0470855e+2, -958503.7, -1107681.0, -7101.4116, 0.0007015808, -0.0017314131, -958166.4, -24310.207 
5.453025e+2, 2.1469393e+2, -862267.75, -1010633.44, -6978.554, -0.0011003724, -0.00034164323, -861940.2, -25940.814 
5.4530126e+2, 2.246787e+2, -774360.75, -930850.94, -6357.152, -0.0010376455, 0.00014799119, -774102.94, -35954.246 
5.4530007e+2, 2.3466285e+2, -677761.94, -833475.9, -6438.483, 0.0011241772, -0.0027568047, -677496.2, -37192.15 
5.4529893e+2, 2.4464637e+2, -590645.25, -754722.56, -5760.228, 0.0011834039, -0.002334358, -590443.25, -47977.895 
5.452979e+2, 2.546293e+2, -495232.25, -657781.25, -5491.06, -0.0011641548, -0.00021455009, -495046.97, -50414.418 
5.45297e+2, 2.6461166e+2, -407366.84, -577961.3, -4579.828, -0.0012634167, 0.0009720014, -407243.97, -60438.246 
5.4529625e+2, 2.7459338e+2, -309950.34, -479943.22, -4617.0293, 0.0012632074, -0.0012152282, -309825.03, -60840.297 
5.452956e+2, 2.8457442e+2, -223209.06, -402908.13, -3343.038, 0.0011197177, -0.0015707532, -223146.89, -71976.36 
5.452951e+2, 2.9455477e+2, -127240.03, -305602.1, -3269.7554, -0.0022084964, -0.0023911642, -127180.12, -73817.164 
5.452948e+2, 3.0453798e+2, -40292.965, -175282.7, -2229.7507, -0.0011178812, -0.000730579, -40256.145, -40256.145 
5.452947e+2, 3.1452405e+2, -41580.9, -175476.84, -2012.4952, 0.0053102374, 0.0017376317, -41550.656, -41550.656 
5.452947e+2, 3.2451463e+2, 22292.38, -42256.566, 634.76276, -0.00408116, -0.0014993433, 22298.621, 22298.621 
5.5532753e+2, 3.4864753e+1, -2513015.0, -2600483.3, -4905.2676, -0.0054224962, -0.008684271, -2512740.8, 85584.47 
5.55327e+2, 4.4860378e+1, -2432092.8, -2521684.3, -488.9666, 0.010013987, 0.0038079333, -2432090.0, 68278.195 
5.553269e+2, 5.485537e+1, -2331499.3, -2422695.8, -1041.8977, -0.0022718636, -0.00075162074, -2331487.3, 70930.055 
5.553265e+2, 6.4849746e+1, -2242358.3, -2342857.5, -3894.6921, -0.004885982, -0.0019069831, -2242207.5, 62264.84 
5.553259e+2, 7.484354e+1, -2147213.0, -2246434.5, -3917.708, 0.0029206427, -0.001339832, -2147058.5, 59474.777 
5.5532515e+2, 8.48367e+1, -2060180.9, -2167335.3, -4761.7017, 0.0040806704, -0.00027919505, -2059969.8, 48630.605 
5.553242e+2, 9.482925e+1, -1963929.0, -2070321.0, -5025.706, -0.0019087181, -0.000783252, -1963692.1, 46981.24 
5.553232e+2, 1.0482122e+2, -1875871.3, -1989757.0, -6229.78, -0.003129293, -0.000752896, -1875531.5, 37220.504 
5.5532205e+2, 1.1481263e+2, -1779907.5, -1892849.5, -6074.6123, 0.0007526982, -0.0021411348, -1779581.8, 35254.37 
5.553208e+2, 1.248034e+2, -1692908.4, -1814593.1, -6592.7646, 0.0023073754, -0.0013853135, -1692552.3, 24374.37 
5.553194e+2, 1.3479353e+2, -1596501.5, -1717502.5, -6947.1772, 0.0013696344, -0.00035598184, -1596103.9, 22919.416 
5.5531806e+2, 1.4478311e+2, -1508350.9, -1636332.6, -7660.025, -0.0002560171, 0.00022942864, -1507894.0, 13231.454 
5.5531657e+2, 1.5477213e+2, -1412956.6, -1539674.3, -7365.2, -0.0026341842, -0.0018082488, -1412529.9, 10703.138 
5.5531514e+2, 1.6476052e+2, -1325967.6, -1461307.4, -7352.9023, -0.0016033617, -0.0016776212, -1325569.4, -222.48065 
5.5531365e+2, 1.7474826e+2, -1229034.8, -1363904.3, -7622.3843, 0.0031605212, -0.0013514058, -1228605.3, -1138.4025 
5.5531216e+2, 1.8473543e+2, -1141076.5, -1283681.1, -7857.221, 0.0030252805, -0.0004912664, -1140644.9, -11052.209 
5.553106e+2, 1.9472201e+2, -1045710.7, -1187036.3, -7807.864, -0.0025314705, -0.001073243, -1045280.6, -13556.464 
5.5530906e+2, 2.0470801e+2, -958272.2, -1107178.0, -7539.565, -0.0031539185, -0.00061577815, -957891.4, -24029.97 
5.553077e+2, 2.1469343e+2, -862040.25, -1010112.94, -7417.127, 0.0017431651, -0.0011162476, -861669.6, -25665.191 
5.5530626e+2, 2.2467819e+2, -774540.2, -931192.9, -6718.2773, 0.0027031505, -0.00040295607, -774252.56, -36098.9 
5.55305e+2, 2.3466234e+2, -677996.25, -833866.1, -6786.551, -0.00078950997, -0.0007237881, -677701.3, -37392.297 
5.553037e+2, 2.446459e+2, -590245.8, -753801.9, -6415.229, -0.0019280618, -0.00030335397, -589994.56, -47524.37 
5.5530256e+2, 2.5462887e+2, -494742.38, -656816.06, -6168.613, -0.00037509517, -0.0011149372, -494507.94, -49871.004 
5.553015e+2, 2.6461124e+2, -407477.7, -578108.75, -4794.7476, 0.000624106, -0.0010055882, -407343.06, -60533.176 
5.5530065e+2, 2.7459297e+2, -310120.4, -480185.56, -4810.8086, 0.0009884774, -0.0021331, -309984.4, -60995.45 
5.5529994e+2, 2.84574e+2, -223238.72, -402815.25, -3890.7297, 0.00039890542, -0.0009896449, -223154.45, -71979.805 
5.552993e+2, 2.945544e+2, -127231.44, -305486.25, -3826.538, -0.0013495188, 0.00020473174, -127149.336, -73782.53 
5.552988e+2, 3.045376e+2, -39994.75, -174558.31, -2583.563, -0.0011112846, 0.0006404888, -39945.164, -39945.164 
5.552985e+2, 3.1452367e+2, -41272.473, -174733.0, -2367.8242, 0.001551912, -0.0019849406, -41230.477, -41230.477 
5.5529857e+2, 3.2451433e+2, 21984.479, -42674.844, 609.4772, -0.0012470358, 0.0008008045, 21990.223, 21990.223 
5.653351e+2, 3.486482e+1, -2518126.0, -2602076.8, -3572.7104, 0.0048371293, -0.0056363135, -2517974.3, 80350.336 
5.6533426e+2, 4.486035e+1, -2420810.0, -2517941.8, -258.75766, -0.006459183, 0.0016581714, -2420809.3, 79559.18 
5.653342e+2, 5.485519e+1, -2329282.8, -2423461.0, -823.0482, -0.0007525965, -0.0010641565, -2329275.8, 73143.36 
5.653337e+2, 6.4849496e+1, -2242677.3, -2343100.3, -3634.8882, 0.0020612804, -0.0014288615, -2242546.0, 61929.043 
5.6533295e+2, 7.484327e+1, -2145486.8, -2245654.8, -3702.9832, 0.0019636808, -0.001186236, -2145350.0, 61185.914 
5.6533206e+2, 8.483642e+1, -2058109.1, -2166653.8, -4561.9316, 0.00088204467, -0.00015968988, -2057917.8, 50685.34 
5.65331e+2, 9.482894e+1, -1962922.0, -2070159.4, -4539.508, -0.0013142532, -0.00038000735, -1962730.3, 47946.145 
5.6532985e+2, 1.04820885e+2, -1875060.3, -1989630.8, -5704.353, -0.0014193171, -0.00050058437, -1874776.9, 37978.375 
5.6532854e+2, 1.14812255e+2, -1778480.8, -1892413.6, -6046.717, 0.0007146225, -0.0024963843, -1778160.8, 36678.97 
5.6532717e+2, 1.2480301e+2, -1691622.1, -1814108.9, -6667.4053, 0.0015336294, -0.0017949509, -1691260.3, 25670.19 
5.6532574e+2, 1.3479313e+2, -1596444.0, -1717576.4, -6421.2544, 0.000941999, -0.0002196597, -1596104.5, 22922.662 
5.653242e+2, 1.4478269e+2, -1508308.0, -1636429.1, -7097.9526, -0.00017579508, 0.0004384983, -1507916.0, 13213.519 
5.653226e+2, 1.547717e+2, -1411752.1, -1539177.4, -7455.63, -0.0018697199, -0.0020573854, -1411317.4, 11919.7705 
5.653209e+2, 1.6476008e+2, -1324890.3, -1460907.4, -7541.699, -0.0011008494, -0.002103908, -1324473.3, 877.7951 
5.6531936e+2, 1.7474784e+2, -1229616.5, -1364279.4, -7341.363, 0.0023586703, -0.0016361041, -1229217.5, -1746.2483 
5.653177e+2, 1.84735e+2, -1142026.6, -1284033.9, -7431.5596, 0.0021939662, -0.00040820704, -1141638.9, -12041.888 
5.6531596e+2, 1.9472161e+2, -1045933.25, -1187030.1, -7405.875, -0.0019976108, -0.00036744607, -1045545.6, -13817.379 
5.653144e+2, 2.047076e+2, -958191.4, -1107160.6, -7144.7607, -0.0023533439, -0.00016506665, -957849.5, -23984.02 
5.653128e+2, 2.14693e+2, -861915.3, -1010099.2, -7275.0835, 0.0015907158, -0.0018950051, -861559.0, -25550.373 
5.6531125e+2, 2.2467777e+2, -774881.56, -931152.6, -6673.3584, 0.0021383844, -0.0011371818, -774597.1, -36439.33 
5.653098e+2, 2.3466195e+2, -679632.25, -834442.06, -6450.8853, -0.0011626583, 0.000024040613, -679363.9, -39051.06 
5.6530845e+2, 2.4464552e+2, -591877.5, -754415.8, -6015.3145, -0.0018754847, 0.0005513962, -591655.2, -49181.434 
5.6530714e+2, 2.546285e+2, -494889.7, -656704.56, -6126.7954, 0.00038608492, -0.0017169588, -494658.03, -50017.535 
5.6530595e+2, 2.6461086e+2, -407717.6, -578190.3, -4867.2534, 0.0010744182, -0.0018355659, -407578.75, -60765.355 
5.65305e+2, 2.745926e+2, -312163.53, -481110.4, -4756.9077, -0.00006660777, -0.0017723731, -312029.72, -63037.4 
5.653041e+2, 2.845737e+2, -225514.25, -403406.7, -3643.2664, -0.00052108365, -0.00016905232, -225439.67, -74261.945 
5.653033e+2, 2.9455414e+2, -128557.53, -305618.84, -3323.2166, -0.00020889354, 0.000630477, -128495.18, -75125.75 
5.653028e+2, 3.0453736e+2, -41259.797, -175144.66, -2058.5903, -0.00042615933, 0.0005308164, -41228.152, -41228.152 
5.653024e+2, 3.1452343e+2, -42775.44, -175467.84, -2213.2185, -0.0012214041, -0.0027796866, -42738.54, -42738.54 
5.653023e+2, 3.2451412e+2, 19054.465, -43434.516, 686.96576, 0.00048380202, 0.0012502496, 19062.016, 19062.016 
5.753425e+2, 3.486511e+1, -2518301.0, -2602792.8, 1849.1342, 0.019565212, 0.0038285432, -2518260.8, 80061.305 
5.753419e+2, 4.486039e+1, -2422135.8, -2520436.5, -1815.2191, -0.0305819, -0.0033985886, -2422102.3, 78265.99 
5.7534164e+2, 5.485511e+1, -2330482.3, -2425899.3, -2412.4612, 0.0038045149, -0.0019185117, -2330421.5, 71998.46 
5.75341e+2, 6.484933e+1, -2242723.3, -2343281.0, -3788.17, 0.013674851, -0.00059872936, -2242580.8, 61895.727 
5.7534003e+2, 7.4843085e+1, -2145562.5, -2245819.8, -3842.019, -0.0023018795, -0.001370524, -2145415.5, 61122.207 
5.753389e+2, 8.483622e+1, -2058057.6, -2166573.8, -5215.9023, -0.0064443448, -0.000841424, -2057807.5, 50797.426 
5.753378e+2, 9.482875e+1, -1962823.9, -2070062.4, -5206.4004, 0.0019657179, -0.0009966659, -1962571.8, 48106.41 
5.753366e+2, 1.0482066e+2, -1875638.5, -1990907.9, -6034.6147, 0.0041681547, -0.0005587741, -1875323.4, 37434.066 
5.753351e+2, 1.1481196e+2, -1779114.1, -1893751.3, -6355.661, -0.00027297018, -0.001452327, -1778762.9, 36079.836 
5.7533354e+2, 1.24802686e+2, -1691192.8, -1813198.6, -7327.5205, -0.0020319894, -0.0012103429, -1690754.3, 26179.307 
5.75332e+2, 1.3479286e+2, -1595937.8, -1716623.4, -7105.521, -0.0009029371, -0.0017838103, -1595520.9, 23508.965 
5.753303e+2, 1.4478241e+2, -1508937.4, -1637738.3, -7452.2354, 0.0005100783, -0.0011841502, -1508507.6, 12624.571 
5.753286e+2, 1.5477134e+2, -1412431.8, -1540564.9, -7786.524, 0.002228632, -0.0014662023, -1411960.4, 11280.374 
5.7532686e+2, 1.6475971e+2, -1324585.1, -1460204.4, -8186.5166, 0.0013235689, -0.000885253, -1324092.8, 1262.0325 
5.75325e+2, 1.747475e+2, -1229255.4, -1363532.3, -8003.914, -0.0024502408, -0.0015507287, -1228780.0, -1305.5149 
5.7532316e+2, 1.847347e+2, -1141963.1, -1283887.5, -7905.4453, -0.0023548258, -0.0007641823, -1141524.1, -11924.159 
5.7532144e+2, 1.947213e+2, -1045884.44, -1186907.5, -7876.773, 0.0020121296, -0.0003792576, -1045445.9, -13714.732 
5.753197e+2, 2.047073e+2, -958452.3, -1107660.1, -7575.287, 0.0025415223, -0.00029723693, -958068.75, -24200.195 
5.753179e+2, 2.1469264e+2, -862218.0, -1010619.94, -7693.436, -0.0012292013, -0.002677025, -861820.25, -25808.139 
5.7531625e+2, 2.2467743e+2, -774558.44, -930388.2, -7354.6772, -0.0022661884, -0.0020318816, -774212.1, -36050.957 
5.7531464e+2, 2.3466167e+2, -679261.7, -833626.06, -7149.2993, -0.00019733266, -0.0003669728, -678931.25, -38615.688 
5.753131e+2, 2.4464527e+2, -592104.4, -754805.06, -6303.725, 0.00096459733, 0.0003641672, -591860.56, -49384.176 
5.753117e+2, 2.546282e+2, -495148.56, -657176.9, -6392.538, 0.0010923122, -0.0020532089, -494896.75, -50253.344 
5.753104e+2, 2.6461056e+2, -407678.22, -577928.2, -5499.182, 0.00021179473, -0.0016443303, -407500.78, -60684.445 
5.753092e+2, 2.7459234e+2, -312090.5, -480828.7, -5399.7163, -0.0018359335, -0.00027786175, -311917.9, -62922.965 
5.753082e+2, 2.845735e+2, -225041.1, -402276.53, -3959.9468, -0.0016437251, 0.00086718216, -224952.67, -73772.77 
5.753074e+2, 2.94554e+2, -128087.56, -304451.97, -3640.2234, 0.0011491316, -0.0008684922, -128012.46, -74641.45 
5.753067e+2, 3.0453724e+2, -41629.27, -175793.08, -2465.895, 0.00082822103, -0.0008904133, -41583.965, -41583.965 
5.753062e+2, 3.1452328e+2, -43190.426, -176219.16, -2603.802, -0.003151188, -0.0009853225, -43139.48, -43139.48 
5.75306e+2, 3.2451397e+2, 19873.584, -41554.344, -285.81354, 0.0011728061, 0.000031214906, 19874.912, 19874.912 
5.8535e+2, 3.4865084e+1, -2511814.3, -2602088.3, 2322.1934, 0.011174707, 0.004539242, -2511754.5, 86567.62 
5.8534974e+2, 4.4860297e+1, -2424143.5, -2520452.8, -4105.6177, -0.016884942, -0.0023856086, -2423968.8, 76400.36 
5.853491e+2, 5.4855096e+1, -2328530.8, -2423945.0, -3004.8535, 0.003123735, -0.001949353, -2328436.3, 73983.86 
5.853482e+2, 6.4849335e+1, -2240396.8, -2342699.5, -2926.307, 0.008283689, -0.0009503869, -2240313.0, 64163.3 
5.853472e+2, 7.484305e+1, -2144516.3, -2245899.5, -3246.0083, -0.0021802636, -0.001283027, -2144412.5, 62125.59 
5.85346e+2, 8.4836143e+1, -2056952.9, -2166267.0, -5033.877, -0.004419816, -0.00081545033, -2056721.6, 51884.15 
5.8534473e+2, 9.482864e+1, -1960687.4, -2069237.5, -5208.0967, 0.0020653142, -0.0015586185, -1960438.1, 50241.074 
5.8534324e+2, 1.04820535e+2, -1873769.4, -1990319.5, -5955.877, 0.0035573137, -0.00096775685, -1873465.8, 39292.918 
5.8534175e+2, 1.1481181e+2, -1778793.9, -1893902.0, -5871.514, -0.0002930989, -0.0009109801, -1778495.1, 36349.09 
5.8534e+2, 1.2480252e+2, -1690961.0, -1813093.5, -6848.773, -0.0018611646, -0.0005569159, -1690578.1, 26357.049 
5.8533823e+2, 1.347927e+2, -1594667.9, -1715995.1, -7082.5273, -0.0009897932, -0.0019304252, -1594255.8, 24775.768 
5.8533645e+2, 1.4478223e+2, -1507842.9, -1637475.5, -7425.0913, 0.00043604473, -0.0014703427, -1507418.9, 13715.171 
5.853346e+2, 1.5477113e+2, -1412556.5, -1540882.6, -7288.8657, 0.0024750135, -0.0011519962, -1412143.9, 11098.903 
5.853327e+2, 1.6475949e+2, -1324828.1, -1460229.4, -7659.2173, 0.0015064827, -0.00033962418, -1324396.3, 960.70654 
5.8533067e+2, 1.7474729e+2, -1228933.1, -1363270.1, -7774.3804, -0.0027631845, -0.0011890652, -1228484.8, -1008.1767 
5.8532876e+2, 1.8473448e+2, -1141578.3, -1283736.5, -7800.922, -0.0026462225, -0.00083404634, -1141151.5, -11549.409 
5.8532685e+2, 1.9472109e+2, -1045830.1, -1186923.4, -7859.2813, 0.0023239586, -0.0011493112, -1045393.7, -13660.372 
5.8532494e+2, 2.0470706e+2, -958843.3, -1107776.1, -7488.691, 0.0028678896, -0.00077471073, -958467.7, -24597.023 
5.8532304e+2, 2.1469244e+2, -863335.7, -1011078.94, -7328.8623, -0.0015543965, -0.0017528936, -862973.0, -26958.957 
5.853212e+2, 2.2467723e+2, -775630.7, -930718.4, -7031.8613, -0.0026265993, -0.0011543847, -775312.5, -37149.53 
5.853194e+2, 2.3466149e+2, -679602.0, -833593.06, -7099.347, 0.00009962933, -0.0011590729, -679275.4, -38957.977 
5.8531773e+2, 2.4464507e+2, -592521.5, -754923.75, -6091.903, 0.0012856119, -0.0005860254, -592293.3, -49815.25 
5.8531624e+2, 2.5462806e+2, -496537.9, -657717.44, -5904.092, 0.0007126249, -0.0014363795, -496321.94, -51677.06 
5.8531475e+2, 2.6461044e+2, -409236.5, -578274.0, -5023.292, -0.00026294327, -0.0005723471, -409087.34, -62269.824 
5.8531344e+2, 2.7459225e+2, -313421.34, -481040.53, -4808.876, -0.0016995012, -0.000030850224, -313283.5, -64287.69 
5.8531225e+2, 2.845734e+2, -226536.67, -402828.25, -3249.7805, -0.0013488674, 0.00036469576, -226476.78, -75296.22 
5.8531135e+2, 2.9455394e+2, -129905.875, -305161.97, -3369.4038, 0.0010704153, -0.0020272206, -129841.12, -76469.53 
5.853105e+2, 3.045372e+2, -43578.9, -176202.84, -2236.4253, 0.00057779695, -0.001117995, -43541.2, -43541.2 
5.8530986e+2, 3.145233e+2, -45461.883, -176770.95, -1734.803, -0.0033464946, 0.0016044389, -45438.97, -45438.97 
5.8530945e+2, 3.2451403e+2, 17717.49, -42090.313, 175.31444, 0.0016878325, -0.0016372893, 17718.004, 17718.004 
5.9535754e+2, 3.4864792e+1, -2514285.5, -2607381.8, 1461.798, -0.017423397, -0.0023893646, -2514262.5, 84062.51 
5.9535784e+2, 4.48601e+1, -2422142.8, -2516058.3, -4525.6045, 0.029768491, 0.003926643, -2421925.3, 78445.81 
5.953565e+2, 5.485515e+1, -2326227.8, -2419292.3, -3511.8628, -0.0021524106, -0.0012641874, -2326095.3, 76324.164 
5.9535533e+2, 6.484949e+1, -2240855.0, -2343834.5, -3418.242, -0.011979149, -0.0023346762, -2240741.8, 63733.18 
5.9535444e+2, 7.484313e+1, -2145094.3, -2247157.3, -3724.8887, 0.0017541914, -0.000962138, -2144958.5, 61578.71 
5.953532e+2, 8.483617e+1, -2057256.4, -2166927.8, -5411.5864, 0.005757238, -0.00017554685, -2056990.0, 51615.59 
5.953517e+2, 9.482861e+1, -1960994.0, -2069904.9, -5578.701, -0.0006452134, -0.0020740738, -1960709.0, 49970.516 
5.9535e+2, 1.0482048e+2, -1873609.1, -1990025.9, -6661.382, -0.002504568, -0.0016848975, -1873229.3, 39530.01 
5.953483e+2, 1.1481179e+2, -1778580.5, -1893583.1, -6590.6255, 0.000513651, -0.00081525015, -1778204.0, 36640.367 
5.953465e+2, 1.2480249e+2, -1691344.3, -1813942.3, -7251.876, 0.00155209, 0.00015829866, -1690916.8, 26018.81 
5.953446e+2, 1.347926e+2, -1595098.3, -1716888.4, -7471.185, 0.00043275856, -0.00082916726, -1594641.6, 24390.826 
5.9534264e+2, 1.4478213e+2, -1507608.6, -1637001.5, -8069.073, -0.0003237116, -0.0005812522, -1507107.4, 14027.845 
5.9534055e+2, 1.5477106e+2, -1412294.4, -1540371.3, -7943.2026, -0.00068839744, -0.0010895092, -1411803.6, 11439.918 
5.953385e+2, 1.6475941e+2, -1325033.4, -1460637.1, -8174.842, -0.0003193739, -0.00038684503, -1324542.3, 815.40826 
5.9533644e+2, 1.7474718e+2, -1229163.1, -1363707.8, -8282.984, 0.0008583996, -0.00058151904, -1228655.1, -1177.637 
5.953343e+2, 1.8473436e+2, -1141708.0, -1283981.8, -8343.609, 0.0007899021, -0.000649948, -1141220.4, -11617.143 
5.953322e+2, 1.9472094e+2, -1045961.2, -1187169.0, -8399.26, -0.00064997684, -0.0025865925, -1045463.4, -13728.492 
5.953301e+2, 2.0470692e+2, -958573.56, -1107213.9, -8094.2866, -0.0008585571, -0.0015557125, -958134.06, -24262.055 
5.9532815e+2, 2.1469237e+2, -863064.44, -1010487.3, -7938.9443, 0.00030315612, 0.00067229406, -862638.1, -26623.422 
5.953261e+2, 2.2467719e+2, -775774.3, -930960.7, -7530.7944, 0.0005530161, 0.0012873597, -775409.75, -37246.2 
5.9532416e+2, 2.3466137e+2, -679757.06, -833861.4, -7590.2656, -0.00022260145, -0.0023048697, -679384.1, -39065.7 
5.953224e+2, 2.4464498e+2, -592285.56, -754318.6, -6601.2954, -0.0006405226, -0.0022067574, -592017.06, -49538.035 
5.953207e+2, 2.5462806e+2, -496305.22, -657123.2, -6416.163, -0.00066121493, 0.000020753741, -496049.66, -51404.527 
5.953191e+2, 2.6461047e+2, -408939.06, -577515.7, -5615.1313, -0.0004331391, 0.0012820747, -408752.22, -61934.98 
5.9531754e+2, 2.745923e+2, -313062.6, -480262.94, -5413.4053, 0.00009705234, -0.00088942033, -312887.5, -63892.305 
5.953163e+2, 2.8457347e+2, -226841.67, -403393.25, -3658.98, 0.00016921289, -0.0015010869, -226765.88, -75585.92 
5.953152e+2, 2.9455397e+2, -130294.76, -305823.22, -3754.132, -0.00031554248, -0.002882386, -130214.5, -76843.18 
5.953143e+2, 3.045373e+2, -42835.926, -174483.02, -2713.9028, -0.0010474722, -0.00028928186, -42780.004, -42780.004 
5.953135e+2, 3.1452355e+2, -44646.008, -174929.48, -2230.8562, -0.0020411317, 0.0048902584, -44607.82, -44607.82 
5.9531295e+2, 3.2451427e+2, 17410.908, -42590.64, -663.4344, 0.0019911237, -0.0036921988, 17418.244, 17418.244 
6.053656e+2, 3.4865105e+1, -2507772.3, -2603522.0, 735.978, -0.019324766, -0.006084195, -2507766.8, 90555.22 
6.0536534e+2, 4.4860458e+1, -2426639.5, -2518884.8, -53.84993, 0.032695774, 0.0044389893, -2426639.5, 73728.086 
6.053641e+2, 5.485545e+1, -2324242.5, -2418971.8, -1496.1582, -0.0027496798, -0.0009748398, -2324219.0, 78197.59 
6.0536283e+2, 6.4849734e+1, -2236458.8, -2342171.8, -3696.4841, -0.013389263, -0.0022556, -2236329.8, 68142.78 
6.053617e+2, 7.4843323e+1, -2142799.5, -2246534.0, -3725.7588, 0.0023896967, -0.0010690434, -2142666.0, 63869.414 
6.053603e+2, 8.483633e+1, -2056181.5, -2166680.0, -4881.4844, 0.0067555644, -0.00017515794, -2055966.3, 52637.715 
6.0535866e+2, 9.482875e+1, -1960437.3, -2069904.0, -4917.935, -0.0010859981, -0.001654966, -1960216.8, 50461.45 
6.053569e+2, 1.048206e+2, -1872780.9, -1989720.5, -6176.6426, -0.0032973124, -0.0013257862, -1872455.6, 40302.45 
6.0535496e+2, 1.148119e+2, -1776868.9, -1892842.4, -6322.872, 0.00053818675, -0.0010295428, -1776525.1, 38318.23 
6.05353e+2, 1.24802575e+2, -1689877.1, -1813613.3, -6976.7266, 0.0020066977, -0.00021937757, -1689485.0, 27449.76 
6.05351e+2, 1.3479266e+2, -1594766.1, -1717114.4, -7024.099, 0.00090705, -0.00092494517, -1594364.3, 24667.775 
6.053488e+2, 1.4478217e+2, -1507341.8, -1636764.8, -7652.685, -0.00025889667, -0.000548838, -1506890.9, 14243.913 
6.053466e+2, 1.547711e+2, -1411575.5, -1539913.8, -7705.65, -0.001500394, -0.0010880121, -1411114.5, 12128.56 
6.0534436e+2, 1.6475946e+2, -1324508.6, -1460562.8, -7978.213, -0.00087684416, -0.00049938844, -1324042.4, 1314.849 
6.0534215e+2, 1.7474721e+2, -1229133.5, -1363889.1, -8002.2153, 0.0017911225, -0.0008968283, -1228660.0, -1182.6705 
6.053398e+2, 1.8473437e+2, -1141904.6, -1284095.4, -7961.3735, 0.0017283346, -0.0007879948, -1141460.3, -11857.2 
6.0533756e+2, 1.9472095e+2, -1046301.1, -1187341.0, -7924.515, -0.0013595031, -0.002138861, -1045857.25, -14122.585 
6.0533535e+2, 2.0470695e+2, -958868.9, -1107108.0, -7696.2144, -0.0018555515, -0.0011401152, -958470.4, -24598.623 
6.0533315e+2, 2.1469241e+2, -863506.44, -1010435.75, -7671.779, 0.0005520097, 0.00037662184, -863106.94, -27092.668 
6.05331e+2, 2.2467725e+2, -776411.94, -931321.7, -7144.408, 0.0012326959, 0.0009109135, -776083.1, -37920.16 
6.053289e+2, 2.3466145e+2, -680312.4, -834181.7, -7105.746, -0.00004794444, -0.0020472272, -679984.9, -39667.04 
6.0532695e+2, 2.4464506e+2, -593067.94, -754295.4, -6282.4927, -0.00087876944, -0.0018549854, -592823.5, -50345.242 
6.053251e+2, 2.5462815e+2, -498270.44, -657639.3, -6151.539, -0.0012001983, -0.00014984609, -498033.34, -53389.293 
6.053233e+2, 2.646106e+2, -411000.53, -578349.4, -5216.906, -0.0006948948, 0.00078049215, -410838.06, -64022.11 
6.053217e+2, 2.7459246e+2, -313664.34, -480387.97, -5285.8623, 0.00077785435, -0.0014835112, -313496.94, -64503.133 
6.0532033e+2, 2.8457364e+2, -227400.88, -403287.4, -3715.9126, 0.0007561229, -0.0017018189, -227322.4, -76144.14 
6.05319e+2, 2.9455417e+2, -132784.25, -306628.7, -3307.7205, -0.0010418481, -0.0021062726, -132721.34, -79352.125 
6.0531795e+2, 3.0453753e+2, -45834.98, -175230.06, -1937.1323, -0.0017905829, -0.00026876412, -45805.99, -45805.99 
6.05317e+2, 3.1452388e+2, -46958.824, -175308.14, -1899.2985, -0.00126126, 0.0020698532, -46930.727, -46930.727 
6.053163e+2, 3.2451466e+2, 15977.31, -43245.73, -623.891, 0.0020574874, -0.002491058, 15983.881, 15983.881 
6.153741e+2, 3.4865952e+1, -2505125.8, -2597432.5, -7121.4854, 0.001886022, -0.0069406643, -2504579.8, 93733.92 
6.153723e+2, 4.48613e+1, -2428632.3, -2523998.8, 930.66394, -0.0023857523, -0.000069377995, -2428623.0, 71736.055 
6.1537176e+2, 5.4855955e+1, -2326925.8, -2424540.8, -334.3465, 0.0006929632, -0.0010327108, -2326924.5, 75486.945 
6.153707e+2, 6.485005e+1, -2236689.3, -2342409.3, -4685.779, 0.001552237, -0.0009031334, -2236482.0, 67987.54 
6.153691e+2, 7.484362e+1, -2142818.3, -2246608.8, -4743.9146, 0.00014220733, -0.0015516608, -2142602.0, 63930.51 
6.153674e+2, 8.4836614e+1, -2056149.6, -2166778.5, -5395.565, -0.00024966057, -0.0007367883, -2055887.1, 52713.973 
6.153657e+2, 9.4829047e+1, -1960445.6, -2070027.3, -5432.023, 0.00041630436, -0.00042428696, -1960177.1, 50498.207 
6.153638e+2, 1.0482088e+2, -1873021.9, -1990252.1, -6662.7817, 0.00047205907, -0.000028838596, -1872644.4, 40110.934 
6.1536175e+2, 1.1481211e+2, -1777120.6, -1893404.4, -6805.6895, -0.00013689701, -0.0015134215, -1776723.8, 38117.48 
6.153596e+2, 1.2480276e+2, -1689971.3, -1813817.5, -7663.1504, -0.0001422218, -0.0015498318, -1689498.9, 27434.012 
6.1535734e+2, 1.3479282e+2, -1594836.0, -1717306.3, -7712.1934, 0.00052312063, -0.0020733695, -1594352.3, 24677.945 
6.15355e+2, 1.4478232e+2, -1507423.5, -1636949.8, -8188.0474, 0.00049858633, -0.001266296, -1506908.0, 14225.202 
6.153527e+2, 1.5477127e+2, -1411689.6, -1540112.3, -8238.564, -0.00028733417, -0.001138156, -1411163.3, 12078.252 
6.153503e+2, 1.6475959e+2, -1324567.9, -1460675.4, -8616.94, -0.00035709122, -0.0006696079, -1324024.5, 1331.3019 
6.1534786e+2, 1.7474735e+2, -1229174.1, -1363997.9, -8639.246, 0.00035174712, -0.0020223723, -1228622.8, -1146.7722 
6.153454e+2, 1.8473451e+2, -1141851.9, -1283962.6, -8539.648, 0.00045421993, -0.0012105332, -1141340.5, -11738.782 
6.15343e+2, 1.9472112e+2, -1046269.75, -1187216.0, -8500.977, -0.00011038313, -0.000040775758, -1045758.9, -14025.882 
6.153406e+2, 2.0470713e+2, -958864.8, -1107027.9, -8340.275, -0.0004810884, 0.00032682111, -958396.8, -24526.77 
6.1533815e+2, 2.1469255e+2, -863487.2, -1010343.25, -8319.463, -0.0006296005, -0.0023125415, -863017.4, -27004.563 
6.153359e+2, 2.2467738e+2, -776389.75, -931211.8, -7617.5933, -0.0003144958, -0.0019429327, -776015.9, -37854.375 
6.153337e+2, 2.3466164e+2, -680333.9, -834094.2, -7565.6665, 0.00053515844, -0.0005576366, -679962.5, -39646.566 
6.153315e+2, 2.446453e+2, -592944.3, -753865.5, -7090.982, 0.0003487528, 0.00023313166, -592632.44, -50156.34 
6.153294e+2, 2.5462836e+2, -498074.5, -657177.6, -6978.824, -0.0010356599, -0.0017554107, -497768.97, -53127.094 
6.1532754e+2, 2.6461083e+2, -411172.38, -578643.4, -5435.7725, -0.0010739845, -0.0017923699, -410996.13, -64182.34 
6.153258e+2, 2.7459267e+2, -313949.25, -480754.3, -5466.3027, 0.00045002953, -0.0018441201, -313770.3, -64778.62 
6.153242e+2, 2.845739e+2, -226877.89, -401958.7, -4574.18, 0.000489958, -0.0004327676, -226758.47, -75582.78 
6.1532277e+2, 2.9455453e+2, -132150.81, -305190.5, -4207.8535, -0.0012204492, 0.000107307664, -132048.55, -78683.02 
6.1532146e+2, 3.0453792e+2, -45815.168, -175093.73, -2270.1243, -0.0017880071, -0.0009677854, -45775.316, -45775.316 
6.1532044e+2, 3.1452417e+2, -47019.297, -175262.48, -2204.1829, -0.0009843644, -0.006156392, -46981.426, -46981.426 
6.1531967e+2, 3.245151e+2, 16058.666, -42809.39, -931.79333, 0.0018618519, 0.0015987951, 16073.411, 16073.411 
6.253821e+2, 3.486682e+1, -2513738.5, -2601516.5, -5250.8647, 0.015463456, -0.003587689, -2513425.5, 84879.65 
6.2538016e+2, 4.486204e+1, -2410689.8, -2517183.5, -1023.2425, -0.02376442, -0.0012698439, -2410680.0, 89671.88 
6.253795e+2, 5.485653e+1, -2324772.3, -2425513.5, -971.1156, 0.0023684006, -0.0010014243, -2324763.0, 77642.94 
6.253784e+2, 6.485054e+1, -2239265.3, -2343676.3, -3954.5735, 0.010404685, -0.00041726202, -2239115.5, 65349.066 
6.253765e+2, 7.484411e+1, -2141037.5, -2245713.0, -3951.224, -0.000719597, -0.0014349892, -2140888.5, 65639.07 
6.253747e+2, 8.483708e+1, -2053019.6, -2165741.3, -4951.0723, -0.0040640375, -0.00076918263, -2052802.6, 55793.97 
6.253728e+2, 9.482947e+1, -1958466.8, -2069558.6, -5234.1304, 0.00086150033, -0.00036352625, -1958220.8, 52450.44 
6.2537074e+2, 1.0482126e+2, -1871773.9, -1989969.9, -6447.4595, 0.002306292, -0.000018276976, -1871423.1, 41328.426 
6.2536854e+2, 1.1481247e+2, -1776437.3, -1893378.1, -6527.242, 0.000017915085, -0.0017094831, -1776074.1, 38763.668 
6.253662e+2, 1.24803096e+2, -1689225.3, -1813521.5, -7400.9253, -0.00078826374, -0.0016135338, -1688786.1, 28143.43 
6.2536377e+2, 1.3479315e+2, -1593697.6, -1716801.0, -7399.567, 0.000017550108, -0.0016232049, -1593254.5, 25772.475 
6.2536126e+2, 1.4478263e+2, -1506574.8, -1636815.4, -7898.2573, 0.0004613109, -0.0009157528, -1506097.5, 15032.478 
6.2535876e+2, 1.5477155e+2, -1411611.4, -1540354.3, -8030.708, 0.00050108845, -0.0015750737, -1411112.4, 12126.314 
6.253562e+2, 1.6475987e+2, -1324489.3, -1460557.8, -8355.149, 0.00020731689, -0.0011691632, -1323978.1, 1374.9698 
6.253536e+2, 1.7474763e+2, -1228758.8, -1363700.9, -8279.551, -0.0004651122, -0.0017752759, -1228252.6, -779.45667 
6.2535095e+2, 1.8473482e+2, -1141637.1, -1283732.9, -8231.435, -0.00043013337, -0.0007611802, -1141161.9, -11563.031 
6.253483e+2, 1.9472142e+2, -1046847.4, -1187376.6, -8200.369, 0.0003872817, 0.00001676204, -1046370.44, -14640.494 
6.253457e+2, 2.0470744e+2, -959709.94, -1107509.8, -7965.0063, 0.00037312563, 0.00005316135, -959281.94, -25414.88 
6.253432e+2, 2.1469286e+2, -863756.5, -1010561.9, -8043.1733, -0.0005640092, -0.0028550809, -863317.2, -27307.219 
6.253407e+2, 2.246777e+2, -776668.6, -930941.94, -7389.9023, -0.00074391114, -0.0023000797, -776315.44, -38157.004 
6.253383e+2, 2.3466198e+2, -681924.0, -834445.06, -7146.722, -0.00007020696, -0.0002105401, -681589.9, -41277.387 
6.25336e+2, 2.4464566e+2, -594663.06, -754681.9, -6595.069, 0.00018889361, 0.00056361064, -594391.7, -51919.246 
6.253337e+2, 2.5462875e+2, -498073.13, -657184.0, -6687.6875, -0.000024579875, -0.002255634, -497792.53, -53154.234 
6.2533164e+2, 2.646112e+2, -411324.63, -578299.5, -5075.858, -0.00028698705, -0.0023909328, -411170.47, -64360.41 
6.253298e+2, 2.745931e+2, -316891.5, -481743.16, -4704.51, -0.000612505, -0.0016906548, -316757.34, -67769.83 
6.2532806e+2, 2.8457436e+2, -230182.38, -403004.34, -3735.8254, -0.0006694111, 0.000077637764, -230101.66, -78930.61 
6.253264e+2, 2.9455507e+2, -133145.08, -305125.16, -3715.8835, -0.00041451273, 0.0005029286, -133064.83, -79704.43 
6.2532496e+2, 3.045385e+2, -46610.094, -175380.73, -1928.8126, -0.0005829109, -0.001101948, -46581.21, -46581.21 
6.253238e+2, 3.145247e+2, -49456.934, -176380.56, -1866.209, -0.001266827, -0.0073092924, -49429.5, -49429.5 
6.253228e+2, 3.2451576e+2, 12865.22, -42894.496, -297.59674, 0.0010590829, 0.0018628575, 12866.809, 12866.809 
6.353898e+2, 3.4867704e+1, -2515670.0, -2606241.8, 5223.759, 0.022355897, 0.0034368373, -2515369.5, 82926.98 
6.353888e+2, 4.4862697e+1, -2411352.5, -2517605.0, -3862.9158, -0.03331801, 0.00040866018, -2411212.3, 89133.41 
6.353875e+2, 5.4857165e+1, -2324803.8, -2425573.3, -3953.783, 0.0024828939, -0.00089963176, -2324649.0, 77750.81 
6.353859e+2, 6.485117e+1, -2238982.8, -2343448.0, -3859.89, 0.013933902, -0.0006783089, -2238840.3, 65618.22 
6.35384e+2, 7.484476e+1, -2140934.8, -2245574.3, -3834.0376, -0.00039614766, -0.00080187863, -2140794.5, 65726.83 
6.3538206e+2, 8.483769e+1, -2053584.0, -2166861.3, -5759.5493, -0.0051300027, -0.00034386074, -2053291.9, 55298.656 
6.3537997e+2, 9.4829994e+1, -1958979.4, -2070682.1, -6040.7305, 0.00036469987, -0.0013116912, -1958653.6, 52012.35 
6.3537776e+2, 1.0482174e+2, -1871888.3, -1990266.4, -7060.73, 0.0024407422, -0.001120925, -1871468.5, 41278.38 
6.353753e+2, 1.1481293e+2, -1776548.4, -1893677.8, -7138.74, 0.0008651122, -0.0016554157, -1776114.9, 38718.277 
6.353728e+2, 1.2480356e+2, -1689211.4, -1813506.8, -7973.1797, -0.00016385366, -0.00057547266, -1688702.0, 28223.04 
6.3537025e+2, 1.3479364e+2, -1593690.4, -1716797.5, -7975.205, -0.00061893516, 0.0002124042, -1593175.9, 25846.48 
6.353676e+2, 1.447831e+2, -1506824.9, -1637339.5, -8622.149, -0.0002868064, 0.00035986025, -1506257.8, 14867.845 
6.3536483e+2, 1.5477194e+2, -1411842.1, -1540885.8, -8748.6455, 0.0008918036, -0.002351832, -1411251.8, 11983.149 
6.353621e+2, 1.6476026e+2, -1324354.8, -1460279.6, -8888.835, 0.00077179086, -0.0019533248, -1323775.9, 1573.4421 
6.353592e+2, 1.7474806e+2, -1228657.8, -1363430.5, -8815.913, -0.00075961853, -0.0003324285, -1228083.5, -614.523 
6.353564e+2, 1.8473524e+2, -1141603.5, -1283637.6, -9013.612, -0.0009941607, 0.00044825184, -1141033.8, -11439.272 
6.353536e+2, 1.9472185e+2, -1046770.8, -1187259.0, -8990.023, 0.00019854333, -0.00171285, -1046197.9, -14472.078 
6.353509e+2, 2.0470786e+2, -959839.94, -1107821.1, -8463.221, 0.0007418482, -0.0017436027, -959357.44, -25494.52 
6.353482e+2, 2.1469328e+2, -863953.5, -1010912.44, -8521.745, 0.0005722833, -0.0015243072, -863461.0, -27455.193 
6.353455e+2, 2.2467814e+2, -776328.06, -930106.2, -8184.3145, -0.00022736946, -0.0004742857, -775893.7, -37739.598 
6.353429e+2, 2.3466247e+2, -681528.1, -833549.56, -7962.9175, -0.0017455829, -0.00086896925, -681112.2, -40804.47 
6.353404e+2, 2.4464616e+2, -594867.0, -755008.9, -6976.611, -0.0012061391, -0.0006497629, -594563.6, -52096.082 
6.3533807e+2, 2.5462922e+2, -498364.16, -657575.25, -7037.4556, 0.0016937986, -0.001793159, -498053.72, -53420.207 
6.353358e+2, 2.6461172e+2, -410829.47, -577113.4, -5981.8657, 0.0014854893, -0.0012574119, -410614.56, -63809.645 
6.353336e+2, 2.745937e+2, -316324.53, -480456.88, -5644.691, -0.0023441918, -0.0010850534, -316130.66, -67149.11 
6.3533175e+2, 2.8457502e+2, -230154.78, -402907.4, -4055.8318, -0.0026407402, -0.000083651306, -230059.61, -78894.97 
6.3533e+2, 2.945557e+2, -133206.61, -305097.3, -4002.971, 0.0012248419, -0.0007002843, -133113.44, -79759.39 
6.353284e+2, 3.0453914e+2, -46696.49, -175341.52, -2641.3718, 0.0016404856, -0.0007386145, -46642.277, -46642.277 
6.3532704e+2, 3.1452546e+2, -49523.035, -176335.48, -2586.7766, -0.0020805662, -0.0022372764, -49470.29, -49470.29 
6.353258e+2, 3.2451648e+2, 14267.819, -39800.586, -1046.2904, -0.00034138619, -0.0012608006, 14288.059, 14288.059 
6.453979e+2, 3.486842e+1, -2502147.8, -2601748.5, 5290.629, 0.0059996704, 0.003957504, -2501867.5, 96422.125 
6.4539725e+2, 4.4863385e+1, -2423503.8, -2522067.3, -4506.129, -0.0074489014, 0.0009010709, -2423298.0, 77040.84 
6.4539534e+2, 5.485798e+1, -2322365.0, -2422836.3, -3670.4595, 0.000802148, -0.0012311024, -2322231.0, 80160.805 
6.453935e+2, 6.4852023e+1, -2232847.5, -2341281.8, -2999.081, 0.0034987715, -0.0011329543, -2232764.8, 71685.44 
6.453916e+2, 7.484553e+1, -2139429.3, -2245713.8, -3563.5874, 0.00026220275, -0.0006315024, -2139310.0, 67203.87 
6.453895e+2, 8.4838414e+1, -2053374.3, -2166932.3, -5694.816, -0.0008688357, -0.0001309989, -2053089.4, 55494.094 
6.4538723e+2, 9.48307e+1, -1957540.4, -2070123.3, -5559.298, 0.00025762347, -0.0016743148, -1957266.5, 53392.574 
6.453848e+2, 1.0482242e+2, -1870089.6, -1989691.5, -6430.9277, 0.00077494245, -0.0013760079, -1869744.8, 42995.41 
6.453822e+2, 1.14813596e+2, -1775199.4, -1893300.8, -6545.356, 0.00065623055, -0.0010664334, -1774837.8, 39988.94 
6.4537954e+2, 1.24804206e+2, -1688236.1, -1813233.9, -7422.723, 0.0003472863, -0.000069033995, -1687796.9, 29121.912 
6.453767e+2, 1.3479425e+2, -1593172.6, -1716746.9, -7549.5874, -0.00018869946, -0.00036590258, -1592713.1, 26303.168 
6.453738e+2, 1.447837e+2, -1506237.8, -1637120.8, -8186.9937, -0.00016381145, -0.0001605337, -1505727.6, 15392.085 
6.453709e+2, 1.5477256e+2, -1410866.8, -1540452.6, -8094.807, 0.00046416454, -0.0015602128, -1410363.0, 12865.823 
6.45368e+2, 1.6476087e+2, -1323821.4, -1460114.9, -8263.375, 0.0004267765, -0.0010097928, -1323322.3, 2021.1622 
6.45365e+2, 1.7474864e+2, -1229374.6, -1363883.9, -8395.823, -0.00032998706, -0.0005160296, -1228852.6, -1389.4285 
6.45362e+2, 1.8473582e+2, -1142318.1, -1283990.6, -8618.905, -0.00048367816, -0.00023639062, -1141795.8, -12206.913 
6.45359e+2, 1.9472243e+2, -1046222.8, -1186993.8, -8657.976, 0.00001966075, -0.0021998356, -1045692.3, -13972.173 
6.45356e+2, 2.0470846e+2, -959295.7, -1107356.6, -8160.0967, 0.00035792883, -0.0017241467, -958847.3, -24990.15 
6.4535314e+2, 2.1469389e+2, -865082.9, -1011254.94, -7962.537, 0.000522074, -0.0006497599, -864650.44, -28650.65 
6.453503e+2, 2.2467877e+2, -777882.6, -930750.94, -7588.1616, -0.000043359036, 0.00021389681, -777506.9, -39358.94 
6.453475e+2, 2.346631e+2, -681994.1, -833675.75, -7722.3394, -0.0014446395, -0.0015388939, -681602.0, -41300.41 
6.453448e+2, 2.446468e+2, -595349.94, -754833.25, -6672.865, -0.0011221777, -0.0013678696, -595071.25, -52610.03 
6.453423e+2, 2.5462994e+2, -500500.06, -658209.2, -6312.541, 0.0011895237, -0.0010437369, -500247.8, -55621.145 
6.4533985e+2, 2.6461247e+2, -413215.8, -577890.06, -5324.6445, 0.001101214, -0.00015505173, -413043.8, -66246.086 
6.4533746e+2, 2.745945e+2, -317151.0, -480502.8, -5392.174, -0.0017893199, -0.0009309563, -316973.2, -67999.08 
6.453354e+2, 2.8457582e+2, -230931.5, -402928.72, -3753.014, -0.0019990066, -0.00082259317, -230849.66, -79692.64 
6.4533347e+2, 2.945565e+2, -135605.06, -305917.88, -3538.3865, 0.0009518909, -0.002261295, -135531.58, -82185.35 
6.453318e+2, 3.0454e+2, -49510.977, -176076.95, -2068.234, 0.0011218584, -0.0010097153, -49477.188, -49477.188 
6.453302e+2, 3.145264e+2, -51744.97, -176770.42, -1677.8629, -0.002051082, 0.0013032627, -51722.457, -51722.457 
6.453288e+2, 3.2451743e+2, 12156.712, -40380.117, -665.86316, -0.0001888299, -0.0027938746, 12165.149, 12165.149 
6.5540624e+2, 3.4868994e+1, -2502718.3, -2602711.0, -2108.7263, -0.030260388, -0.0010788437, -2502673.8, 95610.09 
6.554055e+2, 4.4864097e+1, -2421455.3, -2518199.8, -3614.4268, 0.048628855, 0.0003799622, -2421320.5, 79011.41 
6.554033e+2, 5.485895e+1, -2320446.8, -2418971.8, -2775.6172, -0.0024510487, -0.001931547, -2320368.5, 82013.63 
6.554012e+2, 6.485305e+1, -2233912.0, -2343490.3, -4086.9888, -0.01892531, -0.001744458, -2233759.8, 70680.28 
6.5539926e+2, 7.4846405e+1, -2140492.5, -2247989.5, -4640.8843, 0.0011957653, -0.00086209195, -2140292.5, 66212.625 
6.5539706e+2, 8.483923e+1, -2053057.9, -2166366.5, -6157.1035, 0.007934408, -0.00010258115, -2052724.3, 55851.23 
6.553945e+2, 9.4831556e+1, -1957226.5, -2069539.3, -6033.1826, 0.00046058916, -0.0015285589, -1956903.4, 53747.33 
6.553919e+2, 1.0482329e+2, -1870303.3, -1990109.3, -7162.3657, -0.0024531921, -0.0008957151, -1869876.5, 42855.184 
6.553891e+2, 1.1481444e+2, -1775398.8, -1893747.3, -7279.128, -0.00048435456, -0.00001927868, -1774952.8, 39865.703 
6.553862e+2, 1.24805e+2, -1688459.6, -1813718.8, -8119.2197, 0.00073328556, -0.000019739484, -1687935.6, 28975.344 
6.553832e+2, 1.3479498e+2, -1593404.6, -1717244.9, -8239.445, 0.0011371224, -0.0030303388, -1592858.8, 26150.268 
6.553802e+2, 1.4478444e+2, -1506082.5, -1636781.3, -8805.136, 0.00068629277, -0.0022322321, -1505492.0, 15620.43 
6.553771e+2, 1.5477335e+2, -1410715.3, -1540112.5, -8719.902, -0.0006984563, 0.00058831845, -1410130.3, 13090.739 
6.5537393e+2, 1.6476168e+2, -1324082.9, -1460629.3, -9136.488, -0.00073296425, 0.0014275307, -1323474.3, 1861.2499 
6.553707e+2, 1.7474937e+2, -1229594.1, -1364404.1, -9267.618, 0.00070789916, -0.002116167, -1228960.0, -1503.928 
6.553675e+2, 1.8473652e+2, -1142369.3, -1284139.5, -9070.425, 0.0009334553, -0.0025660722, -1141791.3, -12209.25 
6.553644e+2, 1.9472314e+2, -1046360.7, -1187165.9, -9092.587, -0.00018150042, -0.0016088741, -1045775.94, -14062.806 
6.5536124e+2, 2.0470919e+2, -959027.4, -1106698.1, -9071.207, -0.00071037567, -0.00012715421, -958472.25, -24622.342 
6.55358e+2, 2.1469468e+2, -864738.5, -1010538.6, -8894.83, -0.000581205, -0.00018123769, -864197.9, -28205.752 
6.55355e+2, 2.2467956e+2, -778132.6, -931249.0, -8120.9272, -0.00017701722, -0.00009453047, -777703.1, -39562.875 
6.5535206e+2, 2.3466383e+2, -682319.9, -834229.9, -8228.637, 0.0005491986, -0.0022251243, -681875.44, -41581.168 
6.553492e+2, 2.4464758e+2, -594819.7, -753600.0, -7457.288, 0.0002316208, -0.001655209, -594470.25, -52016.586 
6.553464e+2, 2.546308e+2, -499938.16, -656888.3, -7119.5303, -0.0012978158, -0.00005681711, -499615.88, -54997.78 
6.553438e+2, 2.6461336e+2, -413373.8, -578170.9, -5865.0596, -0.0012097466, 0.00091020233, -413165.34, -66376.61 
6.553413e+2, 2.7459535e+2, -317373.34, -480837.9, -5909.449, 0.0007414471, -0.001184362, -317160.0, -68194.52 
6.55339e+2, 2.8457668e+2, -230710.97, -402314.1, -4454.177, 0.0008982261, -0.002076965, -230595.44, -79447.086 
6.553369e+2, 2.9455742e+2, -135378.14, -305256.84, -4245.9146, -0.0010389079, -0.0041292687, -135272.1, -81934.94 
6.5533495e+2, 3.0454102e+2, -48927.38, -174688.23, -2647.336, -0.0018424499, -0.0018328248, -48871.676, -48871.676 
6.553333e+2, 3.1452754e+2, -51145.395, -175348.42, -2260.6074, -0.0013201702, 0.0034802028, -51104.26, -51104.26 
6.553317e+2, 3.2451856e+2, 11244.396, -42099.395, -1469.9375, 0.00126432, -0.002952478, 11284.871, 11284.871 
6.65415e+2, 3.4870338e+1, -2502567.3, -2602186.0, -2245.0112, -0.02289934, -0.005045275, -2502516.5, 95754.01 
6.6541344e+2, 4.4865435e+1, -2415780.5, -2516868.0, 771.57184, 0.037178155, 0.0011015874, -2415774.8, 84543.96 
6.6541135e+2, 5.4860157e+1, -2318428.0, -2419493.8, -948.9575, -0.0018191085, -0.0013286584, -2318419.3, 83951.195 
6.6540927e+2, 6.485417e+1, -2232539.0, -2343050.5, -4466.6006, -0.014325516, -0.0014952943, -2232358.8, 72070.39 
6.6540706e+2, 7.48475e+1, -2138213.3, -2247087.0, -4133.8223, 0.0011411717, -0.0011959879, -2138056.5, 68437.84 
6.6540456e+2, 8.484031e+1, -2050821.5, -2165680.3, -5069.3237, 0.006257876, -0.00036951108, -2050598.1, 57966.8 
6.654019e+2, 9.4832593e+1, -1955844.9, -2069264.9, -5446.643, 0.0003653372, -0.0010380374, -1955583.9, 55056.61 
6.65399e+2, 1.04824305e+2, -1869171.4, -1989824.5, -6920.8394, -0.001905983, -0.0004954633, -1868775.6, 43946.19 
6.6539603e+2, 1.1481542e+2, -1774120.4, -1893371.8, -6980.937, -0.0002898495, -0.0006104401, -1773713.0, 41095.77 
6.6539294e+2, 1.24805965e+2, -1687229.9, -1813346.3, -7780.165, 0.000665664, -0.000575225, -1686751.8, 30149.748 
6.653898e+2, 1.3479595e+2, -1592535.8, -1717036.8, -7798.844, 0.00090956583, -0.0024477877, -1592049.1, 26950.594 
6.6538656e+2, 1.4478537e+2, -1505593.5, -1636665.9, -8375.002, 0.0005430989, -0.001689472, -1505060.5, 16042.72 
6.653832e+2, 1.5477428e+2, -1410766.6, -1540259.5, -8523.282, -0.0004937405, -0.00017234679, -1410208.0, 13003.9375 
6.653798e+2, 1.6476259e+2, -1323881.5, -1460607.0, -8989.175, -0.00048703692, 0.00051872124, -1323293.0, 2033.6445 
6.653764e+2, 1.7475028e+2, -1228359.4, -1363859.8, -8913.129, 0.0006546523, -0.0019179032, -1227775.6, -328.50583 
6.65373e+2, 1.8473744e+2, -1141572.1, -1283684.8, -8600.189, 0.0008123833, -0.0018432793, -1141053.6, -11480.596 
6.653697e+2, 1.9472405e+2, -1047778.94, -1187795.6, -8526.106, -0.00011313069, -0.0010079494, -1047261.7, -15557.543 
6.6536635e+2, 2.0471011e+2, -960768.06, -1107342.3, -8490.292, -0.0006802483, 0.000047026813, -960277.94, -26437.123 
6.6536295e+2, 2.1469562e+2, -864819.6, -1010389.9, -8537.958, -0.00084903673, -0.00075631967, -864320.56, -28337.662 
6.653597e+2, 2.2468051e+2, -778027.8, -931077.2, -7751.501, -0.00032162026, -0.0005500037, -777636.25, -39505.31 
6.653566e+2, 2.3466481e+2, -683572.8, -834732.0, -7544.193, 0.0010069085, -0.0015771326, -683197.2, -42912.434 
6.653535e+2, 2.4464858e+2, -596456.25, -754018.2, -6811.098, 0.0006202938, -0.0010352656, -596162.4, -53718.426 
6.6535044e+2, 2.5463182e+2, -501056.0, -657077.06, -6882.891, -0.0017488751, -0.00075838855, -500752.94, -56144.76 
6.6534764e+2, 2.646144e+2, -414580.28, -578446.5, -5583.6104, -0.0016571095, -0.000076864075, -414390.25, -67611.67 
6.65345e+2, 2.7459642e+2, -319208.97, -481451.06, -5316.203, 0.0012785861, -0.0012473606, -319034.97, -70079.98 
6.653425e+2, 2.845778e+2, -232792.75, -402734.4, -3799.8655, 0.0014394608, -0.0014853928, -232707.83, -81570.4 
6.653402e+2, 2.9455858e+2, -137627.6, -305737.0, -3563.713, -0.0016525567, -0.003185032, -137552.08, -84226.41 
6.6533816e+2, 3.0454224e+2, -51239.73, -175213.03, -1936.623, -0.0023161669, -0.0015813394, -51209.484, -51209.484 
6.6533625e+2, 3.1452876e+2, -53403.918, -175832.45, -1876.3412, -0.000091573806, 0.0017713789, -53375.168, -53375.168 
6.653344e+2, 3.2451987e+2, 9266.54, -42787.84, -930.4362, 0.0006963854, -0.0025254, 9283.165, 9283.165 
6.7542416e+2, 3.487233e+1, -2501989.0, -2600443.5, -5500.824, 0.02140028, -0.008068746, -2501682.8, 96568.41 
6.7542094e+2, 4.4867316e+1, -2418539.5, -2523391.3, 528.30524, -0.031848352, 0.0028953229, -2418536.8, 81763.35 
6.754196e+2, 5.486157e+1, -2321737.3, -2426359.0, -1045.9979, 0.002112425, 0.0003825817, -2321726.8, 80629.734 
6.754176e+2, 6.4855385e+1, -2232009.8, -2341813.3, -5272.8286, 0.013267482, -0.00050771056, -2231757.0, 72660.23 
6.7541486e+2, 7.48488e+1, -2137487.5, -2245660.3, -4983.0054, 0.00022340845, -0.001616595, -2137258.5, 69223.2 
6.7541206e+2, 8.48416e+1, -2051435.9, -2167073.5, -5781.25, -0.004392536, -0.00088514946, -2051147.5, 57404.75 
6.7540926e+2, 9.4833803e+1, -1956519.8, -2070733.9, -6139.454, -0.000013243852, -0.00024931092, -1956190.6, 54438.082 
6.754063e+2, 1.0482544e+2, -1869276.8, -1990049.8, -7594.3184, 0.0018540224, -0.0001625114, -1868801.1, 43909.582 
6.7540306e+2, 1.14816524e+2, -1774216.3, -1893591.9, -7655.017, 0.0010229044, -0.0026069216, -1773727.4, 41070.676 
6.753998e+2, 1.2480706e+2, -1687277.3, -1813424.0, -8554.08, 0.00017631859, -0.0016418353, -1686699.9, 30190.863 
6.753964e+2, 1.3479707e+2, -1592563.6, -1717111.6, -8577.8545, -0.00067403534, 0.00092114124, -1591975.6, 27013.018 
6.7539287e+2, 1.4478648e+2, -1505857.5, -1637235.0, -9128.258, -0.00047092742, 0.0010944695, -1505226.4, 15866.058 
6.7538935e+2, 1.5477528e+2, -1411043.9, -1540852.4, -9268.581, 0.00086307345, -0.003439077, -1410385.4, 12816.688 
6.7538583e+2, 1.6476358e+2, -1323768.9, -1460320.1, -9567.054, 0.00094109157, -0.0032734768, -1323101.9, 2215.0205 
6.753822e+2, 1.7475136e+2, -1228272.9, -1363578.4, -9491.446, -0.0003656588, -0.00017011078, -1227610.4, -173.64241 
6.753786e+2, 1.8473855e+2, -1141490.0, -1283461.3, -9618.038, -0.0006627926, 0.0015160051, -1140841.4, -11279.23 
6.753749e+2, 1.9472516e+2, -1047637.8, -1187529.1, -9558.463, 0.00016430263, -0.00040511, -1046987.75, -15294.339 
6.7537135e+2, 2.047112e+2, -960824.0, -1107496.5, -8993.707, 0.00027478076, -0.001013237, -960274.6, -26444.432 
6.7536783e+2, 2.1469669e+2, -864961.94, -1010585.7, -9020.201, -0.00041159455, -0.0022415954, -864405.3, -28432.895 
6.753644e+2, 2.2468162e+2, -777767.4, -930400.44, -8615.133, -0.0005012313, -0.0011359474, -777282.6, -39162.445 
6.7536104e+2, 2.3466599e+2, -683273.25, -834007.8, -8424.183, 0.000093713774, 0.00022021613, -682803.94, -42530.6 
6.753577e+2, 2.4464975e+2, -596630.06, -754306.3, -7488.9326, 0.00014641073, 0.0003695121, -596275.2, -53842.863 
6.7535454e+2, 2.5463292e+2, -501279.8, -657392.44, -7543.4985, -0.00045311978, -0.0029439942, -500916.16, -56319.03 
6.753515e+2, 2.6461557e+2, -414210.2, -577600.0, -6266.265, -0.00051883626, -0.0028645257, -413970.22, -67202.8 
6.753487e+2, 2.7459764e+2, -318850.9, -480549.34, -6001.025, 0.00004356846, -0.00115133, -318628.5, -69685.59 
6.75346e+2, 2.8457913e+2, -232481.23, -401943.13, -4555.986, -0.00010773992, 0.0007121481, -232358.83, -81234.26 
6.7534345e+2, 2.9455996e+2, -137310.33, -304931.38, -4327.077, -0.0011000956, 0.00020871413, -137198.7, -83886.56 
6.753412e+2, 3.0454364e+2, -51246.71, -175079.42, -2506.422, -0.00065637584, -0.00040595254, -51196.0, -51196.0 
6.753391e+2, 3.1453013e+2, -53468.36, -175740.9, -2426.2637, 0.001524779, -0.0033517836, -53420.234, -53420.234 
6.753371e+2, 3.2452133e+2, 10138.434, -40720.23, -1502.8704, -0.0017156986, -0.0015660262, 10182.804, 10182.804 
6.854327e+2, 3.487411e+1, -2507001.5, -2602978.5, -3557.3171, 0.02771217, -0.0036709376, -2506869.8, 91363.82 
6.854297e+2, 4.4868982e+1, -2404885.5, -2517941.5, -2391.4802, -0.04193883, 0.0014543845, -2404835.0, 95448.94 
6.8542796e+2, 5.4863125e+1, -2319347.8, -2426483.8, -1691.4148, 0.002933447, -0.00013333543, -2319321.0, 83020.29 
6.8542564e+2, 6.485688e+1, -2233186.3, -2342641.3, -3775.7822, 0.017480228, -0.0003950791, -2233056.3, 71346.445 
6.854227e+2, 7.4850273e+1, -2135451.5, -2244907.8, -4251.7266, -0.0002160136, -0.0011900807, -2135286.8, 71180.664 
6.8541974e+2, 8.484304e+1, -2048462.1, -2166105.8, -5737.4634, -0.006235296, -0.00059027266, -2048182.9, 60355.25 
6.854167e+2, 9.483519e+1, -1954690.6, -2070327.1, -5724.625, 0.00020285872, -0.0005510044, -1954407.9, 56207.227 
6.8541354e+2, 1.048268e+2, -1868014.9, -1989693.4, -6877.2354, 0.002680094, -0.0004494103, -1867627.4, 45069.95 
6.854101e+2, 1.14817865e+2, -1773249.8, -1893366.8, -6984.956, 0.00091351685, -0.0022358738, -1772844.9, 41940.023 
6.854066e+2, 1.2480838e+2, -1686330.8, -1813197.5, -7980.4272, -0.00014737365, -0.001265979, -1685830.8, 31047.055 
6.854029e+2, 1.3479838e+2, -1591410.3, -1716768.0, -8095.6953, -0.00044217668, 0.0006228114, -1590889.6, 28086.297 
6.853993e+2, 1.4478776e+2, -1504726.8, -1636839.1, -8665.735, -0.0001662533, 0.00082122156, -1504160.9, 16919.078 
6.853956e+2, 1.5477656e+2, -1410282.5, -1540633.5, -8628.46, 0.0007170807, -0.0029448587, -1409713.9, 13475.743 
6.853918e+2, 1.6476485e+2, -1323615.0, -1460201.4, -8829.698, 0.00066363224, -0.002705846, -1323046.6, 2257.859 
6.8538797e+2, 1.7475262e+2, -1229260.4, -1364010.6, -8867.578, -0.00041919114, -0.00027347644, -1228679.4, -1255.1068 
6.853841e+2, 1.8473981e+2, -1142326.8, -1283834.4, -9146.156, -0.00062330614, 0.0010980214, -1141738.0, -12188.232 
6.853802e+2, 1.9472642e+2, -1046822.9, -1187113.8, -9197.226, 0.00014576783, -0.0007391724, -1046222.5, -14541.516 
6.853764e+2, 2.0471247e+2, -960063.0, -1107097.5, -8611.362, 0.00038095238, -0.0011499948, -959560.4, -25742.69 
6.8537277e+2, 2.1469796e+2, -866100.56, -1011134.94, -8554.813, 0.00001995364, -0.00206384, -865597.75, -29637.791 
6.85369e+2, 2.246829e+2, -779364.9, -930805.9, -8170.7056, -0.0003107589, -0.0010260062, -778925.3, -40817.77 
6.8536544e+2, 2.346673e+2, -684109.8, -834054.06, -8100.7676, -0.000610629, -0.00015448236, -683673.44, -43413.063 
6.8536186e+2, 2.446511e+2, -597487.5, -754629.1, -7108.8647, -0.00039479183, 0.00011023033, -597166.56, -54747.402 
6.853585e+2, 2.546343e+2, -502664.97, -657988.44, -6967.3213, 0.00040019167, -0.0024027498, -502353.06, -57769.234 
6.853553e+2, 2.6461694e+2, -415819.06, -577776.6, -5631.988, 0.00039099058, -0.0021674715, -415623.44, -68869.64 
6.853522e+2, 2.745991e+2, -320926.16, -480959.34, -5445.7354, -0.00055265555, -0.0010280459, -320741.06, -71812.23 
6.853493e+2, 2.845806e+2, -234699.7, -402559.75, -4024.9353, -0.0011290641, 0.0006065687, -234603.23, -83493.19 
6.853466e+2, 2.945615e+2, -138980.0, -305325.5, -3921.864, -0.0012840162, 0.00026759095, -138887.6, -85590.36 
6.853441e+2, 3.045452e+2, -53088.68, -175483.27, -2090.2292, -0.00006103689, -0.00018615936, -53052.996, -53052.996 
6.853419e+2, 3.1453174e+2, -56334.234, -176661.14, -1786.9089, 0.0028554155, -0.0029685241, -56307.703, -56307.703 
6.8533975e+2, 3.24523e+2, 7549.267, -40972.313, -655.7221, -0.0027758605, -0.0010955706, 7558.127, 7558.127 
6.954407e+2, 3.487571e+1, -2507176.3, -2604380.0, 6316.7295, 0.0018800983, 0.0070017623, -2506767.5, 91450.625 
6.9543934e+2, 4.4870457e+1, -2404456.5, -2515710.8, -5282.8906, -0.0022362634, -0.0027070348, -2404206.3, 96063.24 
6.9543636e+2, 5.4864806e+1, -2318000.8, -2423735.0, -4767.4893, 0.0010598486, -0.0025320014, -2317786.3, 84538.76 
6.954335e+2, 6.485861e+1, -2233681.3, -2344201.5, -3812.157, 0.001813605, -0.0010158481, -2233549.8, 70835.73 
6.9543064e+2, 7.48519e+1, -2136279.0, -2246670.8, -4232.574, -0.0002548343, -0.000047951293, -2136117.0, 70334.41 
6.954276e+2, 8.484461e+1, -2048510.1, -2166107.0, -6705.4727, -0.0006179907, 0.0003874301, -2048129.0, 60393.777 
6.9542426e+2, 9.4836736e+1, -1954633.6, -2070259.8, -6712.087, 0.0008940445, -0.0017757994, -1954245.3, 56354.656 
6.954208e+2, 1.04828335e+2, -1868160.1, -1990073.5, -7634.439, 0.0009901515, -0.0012574238, -1867683.9, 44998.344 
6.9541717e+2, 1.1481941e+2, -1773411.9, -1893777.5, -7738.837, -0.00042995714, 0.00015108427, -1772916.4, 41853.387 
6.954135e+2, 1.2480989e+2, -1686546.1, -1813643.1, -8697.465, -0.00035380686, 0.00033963812, -1685953.6, 30909.357 
6.9540966e+2, 1.347998e+2, -1591651.4, -1717232.3, -8805.8125, 0.0013211158, -0.0028165681, -1591037.0, 27924.977 
6.954058e+2, 1.4478919e+2, -1504696.0, -1636723.8, -9504.165, 0.0012403773, -0.0020662895, -1504015.4, 17050.578 
6.954017e+2, 1.5477806e+2, -1410226.6, -1540499.9, -9474.356, -0.00074749056, 0.00077470485, -1409541.3, 13633.787 
6.9539773e+2, 1.6476634e+2, -1323683.3, -1460339.3, -9714.846, -0.0011014238, 0.001600456, -1322996.0, 2293.732 
6.953937e+2, 1.7475404e+2, -1229324.4, -1364146.5, -9754.624, 0.00033855828, -0.0019768123, -1228622.4, -1212.082 
6.9538957e+2, 1.8474121e+2, -1142409.5, -1284016.4, -9742.185, 0.00069579657, -0.002569645, -1141742.4, -12206.344 
6.953856e+2, 1.9472784e+2, -1046965.2, -1187313.9, -9780.013, -0.00015225439, -0.0018820895, -1046286.94, -14619.844 
6.953815e+2, 2.047139e+2, -960060.44, -1106963.4, -9583.462, -0.00027470008, -0.00049163704, -959437.9, -25634.209 
6.953776e+2, 2.1469942e+2, -866065.6, -1010965.0, -9535.362, 0.00042656955, -0.00045470512, -865440.8, -29495.076 
6.953736e+2, 2.2468436e+2, -779279.6, -930543.6, -8846.263, 0.00017973024, -0.00031517618, -778764.06, -40670.773 
6.9536984e+2, 2.3466875e+2, -684056.1, -833802.94, -8768.471, -0.0011637383, -0.0024172692, -683544.44, -43298.23 
6.953661e+2, 2.4465257e+2, -597329.8, -754183.25, -7903.8013, -0.0010183464, -0.0015956421, -596932.56, -54527.86 
6.953625e+2, 2.5463584e+2, -502514.75, -657518.06, -7761.347, 0.0008397817, 0.0004931433, -502127.1, -57558.46 
6.95359e+2, 2.6461858e+2, -415588.38, -577158.7, -6443.481, 0.001059991, 0.0015503658, -415331.8, -68593.664 
6.953557e+2, 2.746007e+2, -320695.38, -480330.7, -6265.3916, -0.0006167809, -0.00088549417, -320449.84, -71536.81 
6.953526e+2, 2.8458223e+2, -234601.7, -402271.78, -4653.4795, -0.0017169219, -0.001513446, -234472.66, -83378.53 
6.953497e+2, 2.9456314e+2, -138942.77, -305053.4, -4535.4873, -0.0021588623, -0.0025883648, -138819.02, -85537.86 
6.95347e+2, 3.045469e+2, -52729.59, -174516.38, -2911.5005, -0.0004479504, -0.0008022894, -52660.023, -52660.023 
6.9534457e+2, 3.1453356e+2, -55931.293, -175646.6, -2617.718, 0.003894691, 0.0022253268, -55874.08, -55874.08 
6.953422e+2, 3.2452485e+2, 7738.0405, -40395.45, -963.6228, -0.0027161983, -0.0011109624, 7757.324, 7757.324 
7.054496e+2, 3.4877548e+1, -2490909.0, -2598382.8, 6080.7856, -0.013206075, 0.0055267117, -2490566.3, 107633.984 
7.054481e+2, 4.487228e+1, -2420829.5, -2522606.3, -3673.2651, 0.021710988, -0.0020447292, -2420697.0, 79554.66 
7.054448e+2, 5.4866725e+1, -2314974.5, -2421093.3, -3670.9524, -0.00058871135, -0.0021295634, -2314847.8, 87458.34 
7.054417e+2, 6.486054e+1, -2225297.8, -2340985.3, -3541.0981, -0.007915215, -0.00095312134, -2225189.5, 79177.27 
7.0543873e+2, 7.485374e+1, -2134591.0, -2246780.3, -3728.1047, 0.0003869301, -0.00039232982, -2134467.3, 71966.12 
7.054355e+2, 8.4846395e+1, -2048840.0, -2166398.3, -5892.158, 0.0033577606, 0.00009942081, -2048545.5, 59959.8 
7.054319e+2, 9.483853e+1, -1953040.3, -2069602.8, -6006.2583, 0.00070318405, -0.0015205335, -1952731.6, 57850.793 
7.054282e+2, 1.048301e+2, -1865976.6, -1989378.4, -7118.0396, -0.0005379725, -0.0008913999, -1865567.4, 47097.58 
7.054243e+2, 1.14821136e+2, -1771776.9, -1893341.0, -7257.203, -0.0002604513, 0.00016739368, -1771345.1, 43407.67 
7.0542043e+2, 1.2481159e+2, -1685391.6, -1813256.4, -8175.6914, 0.00024350377, 0.000267324, -1684871.0, 31975.41 
7.054163e+2, 1.3480148e+2, -1591232.6, -1717199.0, -8177.0576, 0.000982265, -0.0026873655, -1590704.1, 28241.326 
7.0541215e+2, 1.4479086e+2, -1504474.6, -1636722.3, -8862.512, 0.0007766961, -0.0018828443, -1503883.4, 17166.145 
7.05408e+2, 1.5477972e+2, -1409716.5, -1540353.5, -8958.62, -0.00045879305, 0.0008571388, -1409105.0, 14053.655 
7.054037e+2, 1.6476801e+2, -1322971.8, -1460130.8, -9327.835, -0.00064617256, 0.0016608146, -1322340.4, 2933.2375 
7.053994e+2, 1.7475569e+2, -1228447.3, -1363880.4, -9388.167, 0.00032128204, -0.0018583346, -1227799.6, -405.45996 
7.053951e+2, 1.8474284e+2, -1142007.1, -1283774.8, -9252.163, 0.0005348717, -0.0023991184, -1141405.9, -11885.839 
7.053908e+2, 1.9472948e+2, -1047914.44, -1187732.5, -9189.652, -0.000102143276, -0.0016573013, -1047313.06, -15662.017 
7.053866e+2, 2.0471556e+2, -961215.7, -1107343.9, -9006.891, -0.00027238016, -0.00021901728, -960662.6, -26875.094 
7.0538235e+2, 2.1470109e+2, -866371.94, -1010935.0, -8922.76, 0.000090573725, -0.00014331462, -865823.25, -29893.889 
7.053782e+2, 2.2468604e+2, -779627.8, -930636.6, -8177.2925, 0.000029611243, 0.0000046385244, -779186.3, -41109.527 
7.053741e+2, 2.3467045e+2, -685251.9, -834327.44, -8178.4907, -0.0005358614, -0.00211993, -684804.5, -44574.848 
7.053702e+2, 2.4465428e+2, -598703.94, -754382.25, -7322.871, -0.0005970188, -0.0013819874, -598360.2, -55972.266 
7.053663e+2, 2.546376e+2, -503865.44, -657690.8, -7106.781, -0.000057294383, 0.00058388826, -503537.78, -58986.355 
7.053627e+2, 2.6462033e+2, -417125.66, -577761.4, -5852.29, 0.00022304228, 0.0016051007, -416912.75, -70192.08 
7.053591e+2, 2.746025e+2, -322161.88, -480927.88, -5891.652, 0.0001884311, -0.00078987057, -321943.56, -73048.12 
7.0535576e+2, 2.8458405e+2, -236338.4, -402594.25, -4282.957, -0.00063149823, -0.0014811317, -236228.16, -85151.88 
7.0535266e+2, 2.94565e+2, -141671.19, -305874.78, -4023.5112, -0.002397485, -0.0027326115, -141572.66, -88309.766 
7.053498e+2, 3.0454883e+2, -55506.387, -175153.77, -2311.5566, -0.0012106269, -0.0009703093, -55461.742, -55461.742 
7.053471e+2, 3.1453556e+2, -57948.19, -175893.16, -2069.76, 0.003583168, 0.002205837, -57911.883, -57911.883 
7.053446e+2, 3.2452685e+2, 5458.064, -41704.145, -255.21759, -0.0023635651, -0.0008855051, 5459.445, 5459.445 
7.1545905e+2, 3.4879592e+1, -2493092.0, -2601900.8, -6886.9756, -0.01933321, -0.0061404766, -2492657.8, 105522.12 
7.154563e+2, 4.487439e+1, -2419651.0, -2521692.5, -1694.2408, 0.032181602, 0.0026867867, -2419622.8, 80608.21 
7.154534e+2, 5.4868853e+1, -2314671.5, -2420560.3, -1566.4352, -0.0020777553, 0.0006262532, -2314648.3, 87636.89 
7.154502e+2, 6.486263e+1, -2225915.0, -2341876.8, -5265.977, -0.012664961, -0.00031082655, -2225676.3, 78669.836 
7.154469e+2, 7.485577e+1, -2134918.0, -2247529.3, -5484.8823, 0.0015874356, -0.0019916533, -2134651.5, 71761.92 
7.154433e+2, 8.484838e+1, -2048872.4, -2166723.3, -6377.9136, 0.0059075244, -0.0012569496, -2048528.1, 59957.633 
7.154395e+2, 9.4840515e+1, -1953183.0, -2069978.6, -6479.871, -0.0002623692, -0.000012678064, -1952824.6, 57738.313 
7.154356e+2, 1.0483205e+2, -1866261.1, -1989938.8, -8001.23, -0.0019408744, 0.0004667695, -1865745.6, 46900.168 
7.154316e+2, 1.1482301e+2, -1772047.9, -1893901.6, -8139.3115, 0.0011617391, -0.0018330195, -1771506.6, 43227.777 
7.1542734e+2, 1.2481346e+2, -1685392.4, -1813281.6, -9075.517, 0.001483523, -0.0012241979, -1684751.5, 32076.576 
7.1542305e+2, 1.3480338e+2, -1591216.0, -1717209.6, -9082.203, -0.0011642884, 0.00047448126, -1590564.8, 28361.967 
7.1541864e+2, 1.4479275e+2, -1504635.6, -1637075.5, -9629.485, -0.0012941342, 0.00090631243, -1503939.1, 17091.89 
7.1541417e+2, 1.5478152e+2, -1409910.9, -1540735.6, -9719.801, 0.0013003874, -0.0021696845, -1409192.8, 13948.239 
7.1540976e+2, 1.6476977e+2, -1323110.4, -1460360.6, -10158.193, 0.0016777173, -0.0019004262, -1322362.6, 2893.4424 
7.1540517e+2, 1.7475751e+2, -1228597.8, -1364100.1, -10215.626, -0.00038435252, -0.00018089447, -1227832.0, -455.61087 
7.154006e+2, 1.8474469e+2, -1141918.1, -1283580.8, -10183.999, -0.0009198781, 0.0010575382, -1141189.8, -11687.668 
7.1539605e+2, 1.9473132e+2, -1047818.0, -1187516.5, -10125.939, 0.00022438484, -0.00026064366, -1047087.9, -15454.787 
7.153916e+2, 2.047174e+2, -961091.0, -1107022.9, -9765.788, 0.00026912126, -0.0002761314, -960440.4, -26670.86 
7.153871e+2, 2.1470295e+2, -866266.25, -1010621.4, -9681.163, -0.0009077301, -0.0009550312, -865619.9, -29708.643 
7.1538275e+2, 2.2468792e+2, -779712.9, -930698.7, -9069.484, -0.0006960735, -0.000013130075, -779170.06, -41111.613 
7.153784e+2, 2.3467234e+2, -685339.1, -834396.4, -9066.921, 0.0010804632, 0.0003812503, -684789.6, -44578.48 
7.153743e+2, 2.446562e+2, -598387.94, -753632.2, -8113.6426, 0.0007002035, 0.00048865745, -597965.06, -55595.82 
7.153702e+2, 2.5463954e+2, -503561.84, -656914.5, -7904.19, -0.0021427593, -0.0017651323, -503155.5, -58622.96 
7.153662e+2, 2.6462227e+2, -417290.72, -577989.25, -6651.322, -0.0019583527, -0.0015214531, -417015.88, -70314.26 
7.153625e+2, 2.7460447e+2, -322360.0, -481177.97, -6673.764, 0.0017174368, -0.0007507159, -322080.06, -73203.766 
7.15359e+2, 2.8458604e+2, -235974.1, -401816.1, -5150.3374, 0.0018759726, 0.00041129685, -235814.3, -84757.53 
7.153555e+2, 2.9456705e+2, -141298.61, -305027.2, -4900.829, -0.0021249445, -0.00050434406, -141152.05, -87909.305 
7.153524e+2, 3.0455095e+2, -55183.316, -174336.36, -2949.8955, -0.0023489185, -0.0007538008, -55110.33, -55110.33 
7.1534956e+2, 3.1453764e+2, -57668.258, -175090.02, -2703.3613, 0.002042334, -0.0024074719, -57606.055, -57606.055 
7.1534693e+2, 3.2452902e+2, 4772.6274, -42803.52, -602.3594, -0.0018304639, -0.00039580153, 4780.253, 4780.253 
7.2546846e+2, 3.488219e+1, -2501653.8, -2605835.3, -5793.147, -0.0042905803, -0.007988954, -2501332.5, 96821.98 
7.254649e+2, 4.4876942e+1, -2399529.0, -2513774.5, 790.0932, 0.008864145, 0.0036913743, -2399523.5, 100682.44 
7.254621e+2, 5.4871213e+1, -2313179.0, -2421834.3, -476.753, -0.00054627185, 0.0005270847, -2313177.0, 89085.23 
7.254588e+2, 6.4864904e+1, -2229620.3, -2343660.8, -4941.7974, -0.0031884003, -0.0006564211, -2229406.5, 74917.484 
7.2545516e+2, 7.4858046e+1, -2132315.0, -2246206.0, -4792.202, 0.001155014, -0.0016541217, -2132113.8, 74277.48 
7.2545123e+2, 8.485064e+1, -2044661.9, -2165260.8, -5576.7754, 0.0022392196, -0.0008632045, -2044404.5, 64059.2 
7.2544724e+2, 9.4842714e+1, -1951496.8, -2069758.8, -5866.686, -0.00013405146, -0.00022190492, -1951206.5, 59334.926 
7.254431e+2, 1.04834214e+2, -1865501.0, -1989756.5, -7437.082, -0.0006312658, 0.00010592244, -1865057.4, 47567.254 
7.254388e+2, 1.1482517e+2, -1771080.9, -1893611.1, -7434.0566, 0.0008802207, -0.0018567287, -1770631.5, 44081.934 
7.254343e+2, 1.2481558e+2, -1684244.6, -1812976.1, -8373.336, 0.00089185836, -0.0010758545, -1683702.3, 33104.99 
7.254298e+2, 1.348055e+2, -1589784.1, -1716774.0, -8533.713, -0.00069927267, 0.0006185687, -1589213.3, 29692.852 
7.254252e+2, 1.4479484e+2, -1503373.9, -1636596.5, -9137.304, -0.0007612571, 0.00091472623, -1502750.1, 18260.54 
7.254205e+2, 1.547836e+2, -1409484.4, -1540657.5, -9141.581, 0.00083813665, -0.002438598, -1408850.4, 14270.348 
7.254157e+2, 1.6477184e+2, -1323137.5, -1460393.6, -9475.217, 0.0010906274, -0.0021314863, -1322486.5, 2749.409 
7.254109e+2, 1.7475957e+2, -1228790.8, -1364237.6, -9457.413, -0.00014777656, -0.000024186917, -1228133.6, -777.4321 
7.254061e+2, 1.8474676e+2, -1142064.6, -1283562.9, -9459.503, -0.0005412368, 0.0013660963, -1141435.0, -11953.183 
7.254013e+2, 1.9473338e+2, -1047770.6, -1187412.0, -9464.99, -0.000006944373, -0.00006592861, -1047132.0, -15519.176 
7.253966e+2, 2.0471947e+2, -961236.75, -1107050.9, -9125.209, -0.0000025853408, -0.00029760567, -960667.94, -26918.717 
7.2539186e+2, 2.14705e+2, -867026.3, -1010951.25, -9160.379, -0.00059866154, -0.0012911287, -866445.6, -30554.75 
7.253872e+2, 2.2469e+2, -780613.2, -930917.25, -8562.423, -0.00039869724, -0.00028075173, -780127.0, -42088.984 
7.253827e+2, 2.3467444e+2, -686128.75, -834550.6, -8386.033, 0.00071704836, 0.00061414205, -685656.44, -45465.99 
7.253782e+2, 2.4465832e+2, -599444.6, -754017.75, -7459.005, 0.00040205652, 0.0007424345, -599085.56, -56737.18 
7.253739e+2, 2.5464165e+2, -505099.22, -657561.06, -7547.807, -0.0015696371, -0.002040539, -504726.47, -60214.86 
7.2536975e+2, 2.6462445e+2, -418936.53, -578331.06, -6215.431, -0.0014969446, -0.0018838429, -418694.56, -72014.1 
7.2536576e+2, 2.7460665e+2, -324085.56, -481571.94, -5850.3027, 0.0009472323, -0.0006689406, -323868.53, -75013.88 
7.25362e+2, 2.8458828e+2, -237806.14, -402305.78, -4258.1294, 0.0012185029, 0.0009235153, -237696.0, -86661.266 
7.2535837e+2, 2.9456934e+2, -142951.7, -305469.97, -4221.4604, -0.0011133587, 0.0004277128, -142842.13, -89621.78 
7.2535497e+2, 3.045532e+2, -57256.348, -175176.86, -2420.7468, -0.0014949406, -0.00023457645, -57206.676, -57206.676 
7.253519e+2, 3.1453997e+2, -60624.527, -176354.36, -2479.7134, 0.00060156645, -0.00331045, -60571.418, -60571.418 
7.2534907e+2, 3.2453144e+2, 1401.3507, -42745.496, 272.79584, -0.0016814176, 0.00037255726, 1403.0363, 1403.0363 
7.354777e+2, 3.4885255e+1, -2499716.5, -2602269.8, 1499.2719, 0.028115531, -0.0016388394, -2499694.5, 98429.93 
7.3547393e+2, 4.4879863e+1, -2402440.8, -2519142.5, -2086.547, -0.042727176, 0.001607058, -2402403.3, 97773.914 
7.354709e+2, 5.4873776e+1, -2315667.8, -2427037.8, -3351.5237, 0.003493298, -0.0019627968, -2315567.0, 86670.016 
7.3546743e+2, 6.4867324e+1, -2229048.5, -2342872.3, -5016.039, 0.01809204, -0.0018211312, -2228828.0, 75472.234 
7.354634e+2, 7.4860543e+1, -2131909.0, -2245430.3, -4865.267, -0.0006732594, 0.0003025031, -2131701.0, 74665.7 
7.3545927e+2, 8.4853125e+1, -2045241.3, -2166402.8, -6712.292, -0.006665007, 0.0009902057, -2044870.5, 63568.863 
7.354551e+2, 9.4845086e+1, -1952035.4, -2070899.9, -6997.5366, 0.000885905, -0.0018764909, -1951624.9, 58893.266 
7.354507e+2, 1.04836546e+2, -1865452.3, -1989717.4, -8259.277, 0.0029399379, -0.0016984128, -1864905.8, 47696.06 
7.354461e+2, 1.1482753e+2, -1771031.5, -1893560.5, -8261.41, -0.0008653905, -0.00021982178, -1770477.0, 44213.19 
7.354414e+2, 1.2481793e+2, -1684529.8, -1813601.6, -9200.066, -0.001275132, 0.00045292574, -1683877.3, 32906.957 
7.3543656e+2, 1.3480775e+2, -1590114.1, -1717424.0, -9350.354, 0.0019561483, -0.0017983996, -1589431.0, 29452.904 
7.3543173e+2, 1.4479707e+2, -1503416.9, -1636644.9, -10106.229, 0.0019543574, -0.0014337694, -1502654.6, 18334.018 
7.354267e+2, 1.5478589e+2, -1409502.1, -1540672.9, -10116.32, -0.0015453381, -0.00036252767, -1408726.5, 14371.836 
7.354217e+2, 1.6477413e+2, -1323075.8, -1460299.3, -10357.045, -0.0019962587, 0.00046891766, -1322298.5, 2914.996 
7.354167e+2, 1.7476185e+2, -1228766.4, -1364132.4, -10337.4, 0.0008746369, -0.0011720757, -1227981.5, -647.51776 
7.3541164e+2, 1.84749e+2, -1142093.3, -1283591.6, -10348.759, 0.0013750892, -0.0010127503, -1141340.4, -11880.697 
7.354066e+2, 1.9473566e+2, -1047800.8, -1187447.8, -10356.287, -0.0007387215, -0.00089475996, -1047036.94, -15446.377 
7.354016e+2, 2.0472173e+2, -961361.75, -1107200.4, -10040.449, -0.0009931558, -0.00028421337, -960673.75, -26946.844 
7.353966e+2, 2.1470727e+2, -867164.2, -1011112.3, -10069.803, 0.00081166776, -0.0012179952, -866463.2, -30594.47 
7.3539174e+2, 2.2469226e+2, -780375.6, -930303.1, -9417.622, 0.0007534123, -0.00075714313, -779786.4, -41770.656 
7.353869e+2, 2.3467675e+2, -685894.06, -833913.0, -9247.1045, -0.0013834039, -0.0011132883, -685318.6, -45150.758 
7.353822e+2, 2.4466065e+2, -599683.6, -754402.7, -8376.585, -0.001295361, -0.00039852885, -599231.44, -56905.805 
7.353776e+2, 2.5464398e+2, -505352.06, -657964.5, -8449.323, 0.0012730889, -0.0005361235, -504885.7, -60396.797 
7.3537326e+2, 2.646268e+2, -418381.53, -577085.9, -7018.558, 0.0012071029, 0.00013527318, -418071.75, -71414.305 
7.35369e+2, 2.746091e+2, -323551.53, -480261.0, -6665.303, -0.001852301, -0.00055705867, -323268.53, -74437.64 
7.353649e+2, 2.8459075e+2, -237849.27, -402249.16, -5097.2627, -0.0022156113, 0.00023107941, -237691.38, -86680.85 
7.3536116e+2, 2.9457185e+2, -143028.36, -305436.2, -5048.466, 0.00050415844, 0.00021957463, -142871.58, -89675.51 
7.353575e+2, 3.0455568e+2, -57542.125, -175565.13, -3250.576, 0.0010453373, 0.0005401646, -57452.668, -57452.668 
7.353541e+2, 3.1454244e+2, -60934.707, -176771.7, -3292.9978, -0.00080192386, -0.0009833609, -60841.17, -60841.17 
7.353511e+2, 3.2453403e+2, 3624.561, -37854.375, -597.429, -0.0019370426, 0.0013723302, 3633.1643, 3633.1643 
7.454868e+2, 3.4888107e+1, -2491638.8, -2598483.8, 2427.0444, 0.01831741, 0.001481742, -2491583.8, 106512.92 
7.454834e+2, 4.4882667e+1, -2408334.8, -2521959.0, -4399.507, -0.028222965, 0.00026380463, -2408164.8, 91985.164 
7.454798e+2, 5.4876596e+1, -2312133.3, -2425254.5, -3354.656, 0.0029146066, -0.0022158595, -2312033.8, 90175.63 
7.454759e+2, 6.487012e+1, -2223147.8, -2340707.5, -3370.9333, 0.012527449, -0.0016672524, -2223051.0, 81221.76 
7.454718e+2, 7.4863267e+1, -2130060.8, -2245285.3, -3993.1223, -0.00071995135, 0.00015153216, -2129922.5, 76417.555 
7.454675e+2, 8.4855807e+1, -2044634.9, -2166347.3, -6370.3813, -0.004750144, 0.0008656871, -2044302.4, 64110.72 
7.4546295e+2, 9.484774e+1, -1950326.0, -2070311.9, -6289.68, 0.0010071986, -0.0016232604, -1949997.3, 60494.895 
7.454583e+2, 1.04839176e+2, -1863412.1, -1989121.8, -7369.1235, 0.0024435846, -0.0013641629, -1862981.6, 49594.38 
7.454534e+2, 1.1483012e+2, -1769231.6, -1893090.0, -7629.5005, -0.00072839286, -0.00011639029, -1768763.4, 45901.375 
7.4544847e+2, 1.2482049e+2, -1683143.9, -1813070.3, -8697.266, -0.0011058002, 0.0004117954, -1682564.3, 34194.863 
7.454434e+2, 1.348103e+2, -1589619.4, -1717332.4, -8655.579, 0.0015126566, -0.001895899, -1589035.5, 29823.504 
7.454383e+2, 1.447996e+2, -1503184.1, -1636668.3, -9308.5, 0.0015731732, -0.0013722952, -1502538.1, 18425.695 
7.45433e+2, 1.547884e+2, -1408786.0, -1540496.5, -9410.9, -0.0011331461, 0.000114841125, -1408117.0, 14956.588 
7.454277e+2, 1.6477664e+2, -1322286.8, -1459907.9, -9761.224, -0.0015428894, 0.0009078227, -1321597.9, 3591.0217 
7.454224e+2, 1.7476435e+2, -1228482.0, -1364006.8, -9800.352, 0.00056267256, -0.0012804125, -1227777.0, -467.5607 
7.454171e+2, 1.8475151e+2, -1142188.9, -1283681.0, -9803.463, 0.0010006098, -0.0013581208, -1141512.9, -12077.669 
7.454118e+2, 1.9473815e+2, -1048039.75, -1187615.3, -9843.272, -0.0004194238, -0.0011307552, -1047349.0, -15782.907 
7.454065e+2, 2.0472424e+2, -961664.5, -1107219.1, -9519.923, -0.0006127795, -0.00026295034, -961044.5, -27342.086 
7.454013e+2, 2.1470979e+2, -867771.5, -1011254.75, -9389.013, 0.0005515889, -0.0007809311, -867159.7, -31315.676 
7.4539614e+2, 2.2469479e+2, -781258.5, -930563.1, -8691.669, 0.00036540336, -0.0004319701, -780754.25, -42763.324 
7.453911e+2, 2.346793e+2, -687117.9, -834345.75, -8706.004, -0.0013463222, -0.0014799976, -686604.9, -46461.957 
7.453861e+2, 2.4466321e+2, -600919.9, -754700.9, -7733.3975, -0.0010994294, -0.00072694494, -600531.94, -58231.473 
7.453813e+2, 2.546466e+2, -506337.88, -658157.5, -7438.415, 0.0013545253, 0.000008693891, -505974.3, -61510.914 
7.4537665e+2, 2.6462942e+2, -419700.03, -577423.9, -6070.456, 0.0011542012, 0.00092498807, -419466.72, -72835.09 
7.453721e+2, 2.7461174e+2, -325775.6, -481065.78, -6165.2583, -0.0020814952, -0.00023109443, -325531.22, -76726.33 
7.453678e+2, 2.8459343e+2, -240282.22, -402856.72, -4533.7236, -0.0023883055, -0.00013389587, -240155.89, -89171.69 
7.453638e+2, 2.9457456e+2, -145073.61, -305884.6, -4174.9326, 0.00066429697, -0.0011037923, -144965.3, -91795.96 
7.453599e+2, 3.0455852e+2, -59739.04, -176261.45, -2165.1726, 0.0010713761, 0.00041533966, -59698.82, -59698.82 
7.4535626e+2, 3.1454527e+2, -63629.57, -177725.61, -1818.9382, -0.0014502263, 0.0026307527, -63600.58, -63600.58 
7.453529e+2, 3.245369e+2, 525.97833, -38434.91, 122.22669, -0.001211429, -0.00037507128, 526.36176, 526.36176 
7.5549585e+2, 3.4890798e+1, -2493008.5, -2601579.0, 289.05276, -0.026332349, 0.0019183363, -2493007.5, 105062.64 
7.5549316e+2, 4.488538e+1, -2406270.0, -2517681.0, -4647.166, 0.0407946, -0.0004296298, -2406076.5, 94046.79 
7.5548875e+2, 5.487963e+1, -2309913.0, -2420816.0, -3685.1692, -0.00159055, -0.00061730685, -2309790.8, 92388.85 
7.5548446e+2, 6.4873224e+1, -2224218.3, -2343031.5, -4542.5913, -0.01538937, -0.00041925203, -2224045.0, 80197.55 
7.554803e+2, 7.4866176e+1, -2131215.0, -2247704.5, -5133.036, 0.000723714, -0.0017632464, -2130989.3, 75322.2 
7.5547576e+2, 8.485863e+1, -2044433.6, -2165995.3, -7192.523, 0.0061491, -0.00091080175, -2044009.5, 64375.805 
7.554709e+2, 9.485064e+1, -1950095.8, -2069911.5, -7126.2383, 0.0003280668, 0.00021984361, -1949673.4, 60790.33 
7.554659e+2, 1.0484206e+2, -1863864.3, -1990115.4, -8256.109, -0.0014777351, 0.0007521321, -1863326.6, 49221.242 
7.5546086e+2, 1.1483289e+2, -1769752.3, -1894117.8, -8500.009, 0.0009616794, -0.0013102421, -1769174.0, 45463.59 
7.554557e+2, 1.24823235e+2, -1683088.5, -1812960.5, -9739.601, 0.0009855625, -0.00094738835, -1682362.1, 34370.117 
7.5545025e+2, 1.348131e+2, -1589516.1, -1717155.1, -9708.572, -0.0015701503, -0.000045146775, -1588781.9, 30049.855 
7.554448e+2, 1.4480238e+2, -1503320.9, -1637035.9, -10163.457, -0.0014348695, 0.00071286416, -1502552.8, 18383.805 
7.554394e+2, 1.5479112e+2, -1408996.5, -1540886.1, -10255.338, 0.0016140803, -0.00076891383, -1408203.8, 14843.154 
7.5543386e+2, 1.6477934e+2, -1322377.0, -1460055.5, -10763.311, 0.0018731226, -0.0004832742, -1321540.6, 3621.7498 
7.5542814e+2, 1.7476706e+2, -1228563.8, -1364118.1, -10804.681, -0.0009035418, -0.00050386507, -1227708.0, -425.15192 
7.554226e+2, 1.8475421e+2, -1142269.1, -1283828.4, -10715.472, -0.0013458296, 0.000024588542, -1141462.5, -12053.913 
7.5541705e+2, 1.9474085e+2, -1048150.06, -1187782.0, -10748.904, 0.00077152945, -0.00085960404, -1047327.44, -15787.671 
7.554115e+2, 2.0472695e+2, -961489.06, -1106761.3, -10493.917, 0.00091327843, -0.00022596498, -960734.94, -27058.947 
7.5540596e+2, 2.1471253e+2, -867572.7, -1010777.3, -10371.878, -0.001161369, -0.000031548017, -866825.44, -31008.203 
7.5540054e+2, 2.2469756e+2, -781351.94, -930633.44, -9634.688, -0.0013703074, 0.0005833575, -780732.7, -42768.754 
7.553952e+2, 2.3468204e+2, -687227.44, -834444.25, -9642.415, 0.000494321, -0.0006856173, -686598.56, -46482.6 
7.5539e+2, 2.4466598e+2, -600469.9, -753679.0, -8580.033, 0.0006935744, -0.00035368282, -599990.9, -57717.617 
7.5538486e+2, 2.5464943e+2, -505896.53, -657104.7, -8292.167, -0.0009784059, -0.00027386184, -505443.16, -61007.66 
7.553799e+2, 2.6463228e+2, -419974.9, -577843.5, -7121.751, -0.001316344, 0.0006542847, -419654.28, -73050.805 
7.553752e+2, 2.746146e+2, -326058.2, -481511.0, -7207.4365, -0.00011000901, 0.00027010174, -325724.75, -76947.805 
7.553706e+2, 2.8459632e+2, -239733.08, -401686.2, -5265.6655, 0.00023253344, -0.0002277573, -239562.05, -88605.96 
7.553663e+2, 2.9457748e+2, -144570.66, -304658.9, -4906.7393, -0.00050128344, -0.0033945052, -144420.4, -91279.86 
7.553623e+2, 3.0456153e+2, -59278.7, -175125.39, -3138.0945, -0.0011444563, -0.00049433054, -59193.758, -59193.758 
7.5535834e+2, 3.1454846e+2, -63137.184, -176564.03, -2797.897, -0.0014812573, 0.007332009, -63068.207, -63068.207 
7.553547e+2, 3.2453996e+2, -561.5607, -40537.03, -1030.0651, 0.0002680493, -0.0045755594, -535.03625, -535.03625 
7.655057e+2, 3.4894237e+1, -2486962.5, -2600895.5, 651.15784, -0.02410314, -0.00006479656, -2486958.8, 111077.664 
7.6550233e+2, 4.488871e+1, -2406152.5, -2517971.8, -687.91943, 0.038892508, -0.0013317601, -2406148.3, 93942.34 
7.6549786e+2, 5.4882944e+1, -2307540.3, -2420003.0, -1852.9376, -0.002120911, -0.000029989229, -2307509.8, 94637.32 
7.6549333e+2, 6.4876497e+1, -2221212.5, -2342086.5, -4691.6274, -0.015098981, 0.00049025554, -2221030.5, 83179.79 
7.654888e+2, 7.4869394e+1, -2129011.3, -2247166.8, -4532.3936, 0.0012703814, -0.0017353543, -2128837.8, 77442.32 
7.6548404e+2, 8.486181e+1, -2042451.4, -2165429.8, -5939.459, 0.006440385, -0.0011802118, -2042165.1, 66189.125 
7.6547897e+2, 9.4853777e+1, -1947876.6, -2069229.9, -6283.334, -0.00024306541, 0.00027848085, -1947552.1, 62880.848 
7.654737e+2, 1.0484516e+2, -1861955.8, -1989433.0, -7721.904, -0.0020727653, 0.000921424, -1861489.8, 51027.68 
7.6546836e+2, 1.1483598e+2, -1768957.6, -1893996.0, -7663.5664, 0.0012614098, -0.001272583, -1768489.6, 46117.75 
7.654628e+2, 1.248263e+2, -1682462.3, -1812911.4, -8727.559, 0.0014940345, -0.00088469643, -1681880.9, 34821.39 
7.6545715e+2, 1.3481613e+2, -1587946.3, -1716679.5, -8934.188, -0.0015865897, 0.00024114134, -1587329.1, 31472.791 
7.654515e+2, 1.448054e+2, -1501772.8, -1636361.4, -9554.923, -0.0016437297, 0.0008787417, -1501097.9, 19809.22 
7.6544577e+2, 1.5479413e+2, -1408627.8, -1540817.9, -9543.588, 0.0015827514, -0.0011243962, -1407942.3, 15075.262 
7.6543987e+2, 1.6478233e+2, -1322461.8, -1460189.5, -9927.316, 0.0019442231, -0.0008436452, -1321749.9, 3383.1555 
7.6543397e+2, 1.7477006e+2, -1228237.8, -1364081.5, -9984.888, -0.00082942314, -0.00027796175, -1227507.8, -254.22966 
7.654281e+2, 1.847572e+2, -1141973.6, -1283595.3, -9913.514, -0.0013649557, 0.00047252394, -1141283.1, -11903.699 
7.654222e+2, 1.9474384e+2, -1048590.0, -1187901.9, -9834.154, 0.0005505859, -0.00060538435, -1047899.2, -16388.777 
7.6541644e+2, 2.0472993e+2, -962177.5, -1107003.1, -9528.719, 0.00075367786, -0.00018974004, -961553.25, -27906.674 
7.654106e+2, 2.1471553e+2, -868061.8, -1010900.2, -9564.896, -0.0009712959, -0.00024089454, -867424.2, -31636.447 
7.654049e+2, 2.2470057e+2, -781854.3, -930762.94, -8896.217, -0.0010876828, 0.00049558165, -781324.7, -43390.375 
7.653993e+2, 2.3468508e+2, -688122.06, -834756.25, -8774.195, 0.00058723526, -0.00022356001, -687598.94, -47512.688 
7.653938e+2, 2.4466905e+2, -601769.9, -753950.8, -7717.3994, 0.00052764855, 0.000022361264, -601379.5, -59136.23 
7.653884e+2, 2.5465253e+2, -507863.56, -657701.94, -7716.4697, -0.0014876596, -0.0006960049, -507467.22, -63061.96 
7.6538324e+2, 2.646354e+2, -421975.38, -578483.25, -6505.528, -0.0015942751, 0.000043206623, -421705.44, -75132.484 
7.653782e+2, 2.7461773e+2, -327217.72, -481792.7, -6200.1943, 0.0005032527, 0.00016569096, -326969.4, -78223.32 
7.6537335e+2, 2.8459948e+2, -241188.28, -401975.34, -4234.816, 0.00080761686, 0.00012705626, -241076.81, -90151.945 
7.6536876e+2, 2.9458073e+2, -147642.25, -305742.16, -4237.0693, -0.0010569717, -0.0026577835, -147528.78, -94419.83 
7.653644e+2, 3.0456483e+2, -62378.78, -175593.6, -2498.41, -0.0017883216, -0.0005272347, -62323.67, -62323.67 
7.653603e+2, 3.1455183e+2, -65198.773, -176503.92, -2081.2659, -0.00096235, 0.005182924, -65159.87, -65159.87 
7.6535636e+2, 3.2454333e+2, -2924.162, -42632.305, -303.2998, 0.0006791732, -0.0039622635, -2921.8457, -2921.8457 
7.755161e+2, 3.4898296e+1, -2488874.5, -2603853.0, -6063.67, 0.01627501, -0.0039922665, -2488555.5, 109441.04 
7.7551085e+2, 4.4892558e+1, -2407510.0, -2522083.0, -565.086, -0.021571444, -0.0023649065, -2407507.0, 92545.766 
7.755071e+2, 5.4886496e+1, -2309687.8, -2424485.8, -1587.1002, 0.00065361266, -0.00028996618, -2309665.8, 92446.58 
7.755026e+2, 6.487992e+1, -2221089.8, -2341547.5, -6010.0996, 0.008408191, 0.0011179876, -2220790.8, 83386.1 
7.754975e+2, 7.487287e+1, -2128602.8, -2246426.3, -5889.636, 0.0010273246, -0.0001093748, -2128309.3, 77936.69 
7.754923e+2, 8.4865266e+1, -2042958.1, -2166665.5, -6719.8125, -0.0020904336, -0.00021022424, -2042594.1, 65726.25 
7.7548707e+2, 9.4857115e+1, -1948539.0, -2070554.5, -7038.583, -0.0007517482, -0.0011577824, -1948134.3, 62265.926 
7.754816e+2, 1.0484847e+2, -1861879.9, -1989242.1, -8885.545, 0.0000796923, -0.00053017196, -1861263.0, 51222.043 
7.7547586e+2, 1.1483932e+2, -1768793.1, -1893729.8, -8845.372, 0.0003664716, -0.00021538575, -1768170.0, 46404.594 
7.7547e+2, 1.2482962e+2, -1682784.0, -1813671.1, -9542.953, 0.00064335216, 0.0003547187, -1682091.9, 34577.844 
7.754642e+2, 1.3481939e+2, -1588376.0, -1717487.8, -9730.204, 0.00094102125, -0.000791375, -1587646.8, 31123.324 
7.754582e+2, 1.4480862e+2, -1501788.4, -1636349.5, -10706.079, 0.00047081825, -0.0005671548, -1500941.9, 19933.617 
7.75452e+2, 1.5479736e+2, -1408598.8, -1540743.9, -10705.736, -0.00082617404, -0.001034727, -1407737.0, 15248.765 
7.7544594e+2, 1.6478558e+2, -1322515.8, -1460367.3, -10834.961, -0.0008377738, -0.00033679098, -1321669.4, 3431.9453 
7.754398e+2, 1.7477326e+2, -1228361.5, -1364272.1, -10881.161, 0.00053275423, -0.0005213578, -1227495.8, -273.77606 
7.7543366e+2, 1.8476042e+2, -1141868.9, -1283306.5, -11015.669, 0.00055676955, 0.00013108426, -1141016.0, -11668.21 
7.754274e+2, 1.9474709e+2, -1048451.1, -1187581.4, -10946.649, -0.00089962874, -0.00036000638, -1047595.1, -16116.501 
7.754213e+2, 2.0473318e+2, -962272.25, -1107142.9, -10461.491, -0.00086247455, -0.0001463967, -961520.7, -27905.994 
7.754153e+2, 2.1471876e+2, -868204.44, -1011074.2, -10487.648, 0.0008167836, -0.001267258, -867438.7, -31682.621 
7.754092e+2, 2.2470382e+2, -781738.5, -930349.94, -9933.384, 0.00088492467, -0.00052310876, -781077.5, -43174.926 
7.754033e+2, 2.3468836e+2, -687982.6, -834318.94, -9816.493, -0.0008444998, -0.000043992128, -687327.06, -47272.99 
7.7539754e+2, 2.4467234e+2, -601835.1, -754006.56, -8741.894, -0.001337369, 0.0004014411, -601334.56, -59123.62 
7.7539194e+2, 2.546558e+2, -507949.03, -657769.8, -8734.849, -0.00045889034, -0.00124252, -507441.5, -63068.45 
7.753864e+2, 2.6463872e+2, -421511.47, -577413.3, -7339.4883, -0.00002536744, -0.0008578106, -421166.72, -74626.305 
7.753811e+2, 2.7462116e+2, -326784.66, -480677.34, -7032.1587, -0.00009006712, -0.00046427132, -326464.0, -77751.234 
7.75376e+2, 2.8460297e+2, -241331.55, -402129.72, -5386.1597, -0.00041587508, 0.0008635006, -241151.33, -90260.29 
7.753711e+2, 2.9458418e+2, -147802.92, -305906.6, -5387.018, -0.0011155831, 0.0007116219, -147619.6, -94544.62 
7.753664e+2, 3.045683e+2, -61770.938, -174176.58, -3203.0522, -0.0011037828, 0.00019190986, -61679.74, -61679.74 
7.7536213e+2, 3.1455532e+2, -64598.188, -175040.67, -2780.735, -0.000015619988, -0.002946851, -64528.22, -64528.22 
7.7535796e+2, 3.2454702e+2, -3345.0576, -43221.848, -1218.7076, 0.00008070914, 0.0008613182, -3307.8462, -3307.8462 
7.8552586e+2, 3.4902275e+1, -2495169.8, -2606182.8, -4380.983, 0.0232435, -0.004260672, -2494997.3, 102960.51 
7.8552055e+2, 4.4896558e+1, -2390971.8, -2515286.0, -1775.709, -0.033039242, 0.0019176136, -2390946.5, 109067.28 
7.855164e+2, 5.4890317e+1, -2307490.0, -2424789.8, -1670.4906, 0.0018617093, -0.0008501875, -2307466.3, 94608.74 
7.855116e+2, 6.488366e+1, -2223100.5, -2342749.0, -4505.9453, 0.013359735, -0.00082304236, -2222931.0, 81209.195 
7.8550625e+2, 7.487661e+1, -2125736.3, -2245239.0, -4817.873, 0.00022784421, 0.00019797684, -2125542.3, 80666.96 
7.855007e+2, 8.486898e+1, -2039113.4, -2165268.3, -6253.8877, -0.0043615145, 0.00070229813, -2038804.1, 69479.85 
7.8549516e+2, 9.486077e+1, -1947399.6, -2070509.6, -6292.684, 0.000014011482, -0.0013596282, -1947078.9, 63285.582 
7.8548944e+2, 1.0485208e+2, -1861236.4, -1989206.5, -7903.6743, 0.0014293784, -0.0010083171, -1860750.1, 51699.51 
7.854834e+2, 1.1484292e+2, -1766527.8, -1892923.8, -8144.5747, -0.000291939, -0.00006765584, -1766005.1, 48534.305 
7.8547734e+2, 1.2483319e+2, -1680526.8, -1812759.5, -8995.968, -0.00034430562, 0.0005824873, -1679917.5, 36717.17 
7.854712e+2, 1.3482292e+2, -1587945.8, -1717486.6, -8946.6875, 0.0014093476, -0.0010772317, -1587330.8, 31404.559 
7.854648e+2, 1.4481215e+2, -1501837.1, -1636538.1, -9806.831, 0.0012021784, -0.0008087359, -1501126.9, 19714.037 
7.8545845e+2, 1.5480089e+2, -1407641.5, -1540456.0, -9942.635, -0.0011117081, -0.0006285939, -1406901.3, 16050.046 
7.85452e+2, 1.647891e+2, -1321504.3, -1459864.6, -10152.372, -0.0013623658, 0.00012056982, -1320763.3, 4303.65 
7.854456e+2, 1.7477676e+2, -1228516.6, -1364344.8, -10128.811, 0.0006189014, -0.0006596721, -1227765.5, -577.82416 
7.8543913e+2, 1.8476394e+2, -1142308.6, -1283462.4, -10230.053, 0.00088204216, -0.00017987705, -1141571.0, -12257.525 
7.8543264e+2, 1.9475059e+2, -1048243.3, -1187448.0, -10288.158, -0.000765889, -0.00036913605, -1047487.06, -16042.868 
7.854262e+2, 2.0473671e+2, -962204.7, -1107025.1, -9867.315, -0.00089337607, -0.000019299596, -961535.44, -27955.203 
7.854199e+2, 2.1472229e+2, -869193.44, -1011467.94, -9776.696, 0.0006644727, -0.0011767896, -868524.75, -32803.24 
7.8541356e+2, 2.2470735e+2, -782999.75, -930721.94, -9101.398, 0.0007330401, -0.0005706754, -782441.1, -44573.22 
7.8540736e+2, 2.3469192e+2, -688918.5, -834523.25, -9025.663, -0.00087340677, -0.00035537893, -688361.1, -48341.98 
7.854012e+2, 2.4467593e+2, -602799.44, -754302.0, -7975.4385, -0.0011861034, 0.00016757459, -602380.75, -60204.867 
7.853953e+2, 2.546594e+2, -509125.4, -658195.6, -7858.323, -0.00006541272, -0.0010028909, -508712.28, -64374.484 
7.8538954e+2, 2.6464236e+2, -422986.7, -577576.9, -6398.6055, 0.00015608096, -0.00066245213, -422722.28, -76217.42 
7.85384e+2, 2.7462482e+2, -329170.28, -481274.53, -6279.5757, -0.0006410976, -0.0009054233, -328911.47, -80234.71 
7.853785e+2, 2.846067e+2, -244004.02, -402912.44, -4670.2407, -0.000934455, 0.0004864641, -243866.88, -93012.31 
7.8537333e+2, 2.9458794e+2, -149787.05, -306397.0, -4332.8066, -0.0007132692, 0.0012155239, -149667.27, -96629.28 
7.853684e+2, 3.0457208e+2, -63970.37, -174854.17, -1988.2363, -0.000481535, 0.00024487622, -63934.73, -63934.73 
7.8536385e+2, 3.1455913e+2, -67889.22, -176238.19, -2059.333, 0.000032277538, -0.0049115745, -67850.09, -67850.09 
7.8535944e+2, 3.2455093e+2, -6380.2324, -43106.055, -261.58948, -0.00047549445, 0.002279331, -6378.369, -6378.369 
7.955352e+2, 3.4906194e+1, -2492406.5, -2601667.0, 5583.246, 0.0029478192, -0.0015432283, -2492122.0, 105797.54 
7.955312e+2, 4.4900686e+1, -2391835.3, -2515446.8, -5221.5337, -0.004661879, 0.010543457, -2391615.0, 108358.23 
7.955257e+2, 5.4894376e+1, -2307227.5, -2424395.3, -5233.67, 0.0016997777, -0.0016702936, -2306994.3, 95041.01 
7.9552037e+2, 6.4887655e+1, -2223190.3, -2343641.8, -4578.4126, 0.003003075, -0.0048655597, -2223016.5, 81084.38 
7.9551506e+2, 7.488057e+1, -2126276.3, -2246360.8, -4849.648, -0.0010289949, -0.00059038686, -2126080.8, 80089.664 
7.955094e+2, 8.487291e+1, -2039301.5, -2165485.0, -7713.8984, -0.0014956074, 0.0015570521, -2038831.6, 69413.88 
7.9550344e+2, 9.486469e+1, -1947400.5, -2070603.4, -7772.6445, 0.0017810655, -0.00055412995, -1946912.0, 63413.965 
7.954973e+2, 1.04855955e+2, -1861560.9, -1990073.1, -8648.697, 0.002078282, -0.0006906352, -1860981.5, 51430.13 
7.954911e+2, 1.1484672e+2, -1767004.0, -1893844.9, -8869.206, -0.0007812446, -0.0006856025, -1766386.8, 48115.35 
7.9548466e+2, 1.24836974e+2, -1680496.5, -1812624.4, -10263.823, -0.0014821087, -0.000035147987, -1679703.9, 36893.746 
7.9547817e+2, 1.3482672e+2, -1587833.3, -1717285.8, -10232.811, 0.00012212414, -0.0007430194, -1587029.4, 31668.691 
7.9547155e+2, 1.4481595e+2, -1502019.9, -1637017.9, -10706.508, 0.000750089, -0.000050850747, -1501176.1, 19627.646 
7.9546493e+2, 1.5480465e+2, -1407904.5, -1540963.4, -10825.052, 0.0003522933, 0.00003704054, -1407029.6, 15884.846 
7.9545814e+2, 1.6479284e+2, -1321479.6, -1459789.1, -11344.509, -0.00003566438, 0.0005382301, -1320555.4, 4474.9224 
7.9545134e+2, 1.7478052e+2, -1228457.0, -1364224.3, -11331.194, -0.00039567993, -0.0007089714, -1227517.8, -366.81192 
7.954446e+2, 1.8476766e+2, -1142391.1, -1283647.5, -11166.834, -0.0001701256, -0.00046433441, -1141513.8, -12236.949 
7.954379e+2, 1.9475432e+2, -1048391.9, -1187659.9, -11213.453, 0.00067429146, -0.00059730595, -1047494.8, -16087.148 
7.954311e+2, 2.0474045e+2, -962110.56, -1106736.1, -11053.393, 0.00038976426, 0.0001849472, -961270.6, -27727.006 
7.954244e+2, 2.1472606e+2, -869052.9, -1011145.06, -10972.88, -0.0011635453, -0.00013641585, -868210.5, -32525.88 
7.954178e+2, 2.2471114e+2, -782897.94, -930456.0, -10055.691, -0.0012598234, 0.00021231598, -782215.8, -44385.01 
7.954113e+2, 2.346957e+2, -688873.1, -834271.9, -9972.281, 0.00026193945, -0.0010906704, -688192.4, -48210.38 
7.95405e+2, 2.4467975e+2, -602687.3, -753933.7, -9049.048, 0.0006603732, -0.0005849528, -602147.9, -60009.37 
7.9539865e+2, 2.5466326e+2, -509011.63, -657805.0, -8929.5625, -0.00025236557, -0.000083199324, -508477.66, -64177.69 
7.953926e+2, 2.6464623e+2, -422857.44, -577235.5, -7466.229, -0.0008919802, 0.00048147765, -422497.2, -76030.445 
7.9538673e+2, 2.7462873e+2, -329069.38, -480904.5, -7347.0522, -0.0011806544, -0.0011806024, -328714.7, -80076.2 
7.95381e+2, 2.8461063e+2, -243486.89, -401741.38, -5652.842, -0.00087300857, -0.0008482593, -243285.23, -92469.38 
7.953755e+2, 2.94592e+2, -149285.34, -305177.38, -5318.4907, 0.00004132921, -0.00076633145, -149104.11, -96105.64 
7.953703e+2, 3.0457616e+2, -64266.25, -175300.14, -2971.167, 0.000038838498, -0.00027015005, -64186.8, -64186.8 
7.953654e+2, 3.1456324e+2, -68239.29, -176769.33, -3021.9243, -0.0007442023, -0.0014840923, -68155.21, -68155.21 
7.9536074e+2, 3.2455513e+2, -4483.568, -38887.992, -1170.5352, -0.0010808457, 0.0007038911, -4443.789, -4443.789 
8.055452e+2, 3.4910572e+1, -2476607.8, -2595127.8, 5969.4653, -0.011147425, 0.0003797582, -2476308.0, 121568.6 
8.0554116e+2, 4.490497e+1, -2408143.5, -2522901.0, -3961.1096, 0.016752202, 0.005980329, -2408007.0, 91924.39 
8.0553526e+2, 5.4898757e+1, -2303246.3, -2421918.3, -3813.4624, 0.00041318848, -0.001158301, -2303123.8, 98868.41 
8.055296e+2, 6.489204e+1, -2213687.0, -2339825.0, -3749.3914, -0.0053848, -0.0028459283, -2213575.8, 90482.29 
8.05524e+2, 7.4884856e+1, -2124835.8, -2246523.0, -4039.2576, -0.00034353542, -0.0007667772, -2124701.8, 81426.74 
8.055181e+2, 8.4877133e+1, -2039890.4, -2166012.3, -6686.1216, 0.0019051849, 0.0007998607, -2039537.0, 68667.11 
8.055118e+2, 9.486891e+1, -1944496.9, -2069435.9, -6823.196, 0.0012144812, -0.00020434825, -1944125.4, 66159.36 
8.0550534e+2, 1.0486014e+2, -1858297.1, -1988885.3, -7810.3447, 0.0005501046, -0.00012655457, -1857831.6, 54538.926 
8.054988e+2, 1.14850864e+2, -1766345.5, -1893955.3, -7882.238, -0.000098246725, -0.0008347593, -1765860.5, 48601.094 
8.0549204e+2, 1.2484109e+2, -1680351.6, -1812748.3, -9243.685, -0.000446819, -0.00026295907, -1679709.4, 36848.023 
8.0548525e+2, 1.3483083e+2, -1586222.6, -1716712.1, -9417.129, -0.00046467173, -0.00038645952, -1585546.5, 33111.375 
8.0547833e+2, 1.4482003e+2, -1500299.1, -1636222.8, -9931.705, -0.00008821339, 0.00029011464, -1499577.3, 21186.432 
8.054713e+2, 1.5480871e+2, -1407640.1, -1540893.8, -9874.368, 0.000744725, -0.00024385557, -1406912.5, 15962.118 
8.0546427e+2, 1.6479689e+2, -1321635.5, -1459953.4, -10344.331, 0.00064291153, 0.00020334905, -1320866.1, 4124.2754 
8.054572e+2, 1.7478457e+2, -1227820.5, -1364022.8, -10454.315, -0.0004632227, -0.00051624025, -1227022.6, 88.51969 
8.054501e+2, 1.8477173e+2, -1141865.1, -1283375.6, -10333.219, -0.0004927793, -0.00023280465, -1141114.5, -11877.458 
8.05443e+2, 1.9475837e+2, -1049173.9, -1188017.8, -10278.748, 0.0006312157, -0.0008448987, -1048417.1, -17049.162 
8.0543596e+2, 2.047445e+2, -963109.2, -1107052.8, -10043.283, 0.00049135333, -0.00014774286, -962411.9, -28908.006 
8.05429e+2, 2.1473013e+2, -869188.94, -1011045.9, -10022.107, -0.0010870226, -0.000111860965, -868484.4, -32839.742 
8.05422e+2, 2.2471525e+2, -783131.7, -930352.8, -9182.722, -0.0011975105, 0.00036222482, -782561.1, -44770.484 
8.054152e+2, 2.3469982e+2, -690289.4, -834762.2, -9110.712, 0.00032477628, -0.0010664938, -689717.1, -49775.37 
8.054086e+2, 2.4468388e+2, -604489.56, -754351.9, -8080.938, 0.0006357007, -0.00064520724, -604055.06, -61957.16 
8.05402e+2, 2.5466746e+2, -510586.16, -658130.06, -7884.0044, -0.00045143563, -0.00019272165, -510166.06, -65907.04 
8.0539554e+2, 2.6465046e+2, -424588.7, -577839.4, -6451.1274, -0.0009974948, 0.0005137476, -424317.63, -77892.12 
8.053894e+2, 2.7463296e+2, -330936.9, -481624.53, -6406.232, -0.00089157396, -0.0007657515, -330665.03, -82068.0 
8.053834e+2, 2.8461486e+2, -245337.2, -401995.34, -4767.7764, -0.000528392, -0.00085982727, -245192.23, -94418.14 
8.053776e+2, 2.9459628e+2, -151386.47, -305558.72, -4640.553, 0.000051231036, -0.0021465272, -151246.92, -98290.625 
8.0537206e+2, 3.0458054e+2, -66865.82, -176067.73, -2220.409, -0.00018363348, -0.00071800686, -66820.69, -66820.69 
8.053669e+2, 3.1456766e+2, -71408.18, -177823.05, -1773.8987, -0.0010806812, 0.001696427, -71378.62, -71378.62 
8.0536187e+2, 3.2455957e+2, -7932.899, -39584.15, -286.81107, -0.00093074044, -0.0015666846, -7930.3003, -7930.3003 
8.155559e+2, 3.4915343e+1, -2480235.5, -2601546.3, -6768.2676, -0.020291148, 0.0015958361, -2479859.0, 117970.6 
8.1555045e+2, 4.4909397e+1, -2406600.5, -2521495.0, -2115.6843, 0.03212046, -0.0092243, -2406561.5, 93326.36 
8.155449e+2, 5.490342e+1, -2302742.5, -2420946.8, -1907.8633, -0.0018120542, 0.00044199673, -2302711.5, 99234.92 
8.155391e+2, 6.489675e+1, -2214558.0, -2341116.8, -5919.6377, -0.012186933, 0.0040981765, -2214281.8, 89730.23 
8.1553304e+2, 7.488941e+1, -2125321.8, -2247639.8, -6229.989, 0.001900584, -0.00045782124, -2125005.3, 81078.62 
8.1552666e+2, 8.4881616e+1, -2039940.3, -2166382.5, -7233.699, 0.0056905025, -0.0012816756, -2039527.8, 68632.4 
8.1552017e+2, 9.4873375e+1, -1944753.3, -2069886.9, -7357.547, -0.0013050073, -0.0002416192, -1944322.1, 65918.78 
8.1551343e+2, 1.04864605e+2, -1858491.9, -1989212.4, -9231.526, -0.0027855118, 0.00063338276, -1857843.1, 54483.79 
8.155065e+2, 1.148553e+2, -1766440.8, -1894202.5, -9312.38, 0.0015193011, -0.00060585036, -1765765.5, 48652.613 
8.154995e+2, 1.2484548e+2, -1680587.5, -1813370.5, -10138.307, 0.0023386457, -0.00017616752, -1679817.9, 36696.48 
8.154924e+2, 1.3483517e+2, -1586561.0, -1717371.5, -10295.856, -0.00050229457, -0.000013964708, -1585755.6, 32859.727 
8.154851e+2, 1.4482437e+2, -1500227.1, -1636018.5, -11193.139, -0.0012739681, 0.00028610814, -1499310.8, 21410.521 
8.154778e+2, 1.5481305e+2, -1407521.9, -1540652.3, -11154.36, 0.00020103349, -0.0013187758, -1406593.8, 16238.32 
8.154704e+2, 1.6480123e+2, -1321789.8, -1460326.4, -11347.45, 0.00073160033, -0.0007605859, -1320866.5, 4081.4587 
8.15463e+2, 1.7478889e+2, -1228042.9, -1364420.1, -11440.018, 0.00024521508, -0.00012107896, -1227090.0, -21.095125 
8.1545556e+2, 1.8477605e+2, -1141807.1, -1283182.3, -11597.606, -0.00023029115, 0.00043508422, -1140862.0, -11667.28 
8.1544816e+2, 1.9476269e+2, -1049075.8, -1187786.3, -11552.492, -0.0006972086, -0.0011082471, -1048120.2, -16794.652 
8.154408e+2, 2.0474884e+2, -963067.25, -1106960.3, -11016.339, -0.0004314451, -0.00092789554, -962228.75, -28767.361 
8.1543344e+2, 2.1473446e+2, -869214.56, -1010979.75, -10983.663, 0.00057405373, -0.00095300016, -868368.6, -32766.484 
8.154263e+2, 2.2471958e+2, -783097.8, -930153.7, -10437.983, 0.00056935917, -0.000023041228, -782360.6, -44612.598 
8.154191e+2, 2.347042e+2, -690221.44, -834527.25, -10372.696, -0.000560692, -0.0003919748, -689479.6, -49580.816 
8.1541204e+2, 2.4468829e+2, -604179.1, -753652.6, -9106.497, -0.0010072375, -0.00011346631, -603626.4, -61571.656 
8.154052e+2, 2.546719e+2, -510315.7, -657419.1, -8908.762, -0.00069290004, -0.0011871818, -509778.13, -65562.695 
8.153985e+2, 2.6465493e+2, -424607.78, -577742.3, -7565.7593, -0.00033671822, -0.00039836558, -424234.9, -77853.31 
8.1539196e+2, 2.7463746e+2, -330978.6, -481530.44, -7509.6563, 0.00008838276, 0.00024644448, -330604.94, -82052.055 
8.153857e+2, 2.8461942e+2, -245230.08, -401629.75, -5805.6064, 0.000027489836, 0.00027147637, -245014.88, -94285.1 
8.1537956e+2, 2.9460084e+2, -151297.6, -305182.22, -5674.757, -0.0006359907, -0.0029961718, -151088.61, -98176.75 
8.153738e+2, 3.0458516e+2, -66241.5, -174624.13, -3337.3254, -0.0010952033, -0.0011049928, -66138.836, -66138.836 
8.1536824e+2, 3.1457242e+2, -70742.61, -176324.9, -2902.278, -0.0010762644, 0.00461177, -70662.89, -70662.89 
8.1536293e+2, 3.2456428e+2, -8688.251, -40964.492, -1367.9965, -0.00020458619, -0.0044336594, -8630.374, -8630.374 
8.255665e+2, 3.49206e+1, -2487059.0, -2606294.0, -5729.5747, -0.0052968003, -0.00037095507, -2486784.3, 110993.836 
8.255602e+2, 4.491456e+1, -2386646.0, -2513250.5, 635.0202, 0.010458399, -0.0074143587, -2386642.8, 113194.53 
8.2555467e+2, 5.490842e+1, -2301045.5, -2421701.5, -489.52966, -0.000824351, 0.00044312415, -2301043.5, 100853.98 
8.2554865e+2, 6.4901656e+1, -2218007.3, -2343092.5, -5364.1045, -0.0038531988, 0.0035163965, -2217777.8, 86186.14 
8.255421e+2, 7.4894303e+1, -2121968.5, -2246280.5, -5339.5024, 0.0015911732, -0.00037367165, -2121739.8, 84296.234 
8.255355e+2, 8.488647e+1, -2035120.0, -2164580.3, -6141.0293, 0.0026339793, -0.0010359094, -2034829.4, 73283.266 
8.255286e+2, 9.487817e+1, -1943677.4, -2069931.1, -6390.556, -0.0009833018, -0.00033824902, -1943354.8, 66839.2 
8.255216e+2, 1.0486936e+2, -1858155.3, -1989226.6, -8359.231, -0.0015714118, 0.0005265343, -1857624.4, 54655.965 
8.255143e+2, 1.14860035e+2, -1764089.0, -1893258.1, -8438.194, 0.0010410588, -0.00037920894, -1763540.0, 50831.61 
8.2550704e+2, 1.24850206e+2, -1678156.1, -1812443.4, -9218.049, 0.0016423799, 0.00004893487, -1677526.4, 38941.695 
8.2549953e+2, 1.3483988e+2, -1585959.8, -1717359.4, -9253.403, 0.00012912073, -0.00013112076, -1585311.3, 33258.027 
8.2549196e+2, 1.4482903e+2, -1500120.6, -1636186.1, -10185.148, -0.00050061, 0.00013161715, -1499362.5, 21313.006 
8.254843e+2, 1.548177e+2, -1406528.0, -1540401.8, -10386.4375, -0.00014963635, -0.0012111714, -1405727.0, 17059.447 
8.254766e+2, 1.6480587e+2, -1320770.4, -1459764.6, -10629.036, 0.00014713712, -0.0006525959, -1319962.3, 4940.143 
8.2546884e+2, 1.7479353e+2, -1228256.3, -1364471.9, -10525.225, 0.0003691477, -0.00024725983, -1227447.8, -424.40424 
8.2546103e+2, 1.847807e+2, -1142293.8, -1283381.8, -10605.485, 0.00010403243, 0.00043676893, -1141501.0, -12351.765 
8.254533e+2, 1.9476736e+2, -1048738.0, -1187599.4, -10647.744, -0.00070122996, -0.00060608616, -1047926.25, -16646.334 
8.254456e+2, 2.0475349e+2, -962903.25, -1106730.6, -10146.404, -0.00051840686, -0.0004212463, -962190.94, -28775.252 
8.2543796e+2, 2.1473913e+2, -870461.44, -1011452.4, -10074.197, 0.0007184237, -0.0009796539, -869745.25, -34188.867 
8.254304e+2, 2.2472428e+2, -784670.56, -930678.1, -9463.137, 0.00070329354, -0.0001753828, -784059.75, -46357.68 
8.254229e+2, 2.347089e+2, -690949.25, -834660.75, -9374.793, -0.0007357392, -0.00020230735, -690340.25, -50487.613 
8.254156e+2, 2.4469303e+2, -604898.7, -753751.5, -8187.281, -0.0011497956, 0.00011093944, -604449.75, -62441.39 
8.254084e+2, 2.5467664e+2, -511913.72, -657961.56, -8186.8066, -0.0004049577, -0.0012824646, -511456.22, -67287.336 
8.2540137e+2, 2.6465973e+2, -426509.06, -578065.25, -6775.8193, -0.000025160309, -0.00066330354, -426206.75, -79872.016 
8.253945e+2, 2.746423e+2, -332905.28, -481860.06, -6424.0723, -0.000059150443, -0.000017489905, -332628.75, -84123.25 
8.253879e+2, 2.846243e+2, -247538.75, -402412.72, -4562.5903, -0.00021853295, 0.00042753818, -247404.45, -96722.54 
8.2538146e+2, 2.9460573e+2, -154115.25, -306201.1, -4428.75, -0.0005464406, -0.0019547245, -153986.4, -101122.76 
8.253753e+2, 3.0459008e+2, -68918.42, -175144.19, -2172.5598, -0.00088734744, -0.0008060228, -68874.0, -68874.0 
8.253695e+2, 3.1457743e+2, -73089.38, -176658.69, -1990.6165, -0.0010222236, 0.0022567648, -73051.14, -73051.14 
8.253638e+2, 3.2456934e+2, -11618.271, -42451.38, -400.74753, -0.0001811837, -0.003141634, -11613.063, -11613.063 
8.35577e+2, 3.4926254e+1, -2486042.5, -2604408.0, 368.1462, 0.028637888, -0.0048168683, -2486041.5, 111681.35 
8.3557045e+2, 4.492032e+1, -2389207.0, -2517962.8, -2444.642, -0.041157685, 0.008095035, -2389160.8, 110620.22 
8.3556455e+2, 5.49137e+1, -2303201.0, -2426223.8, -3526.3723, 0.002770922, -0.0008736271, -2303100.0, 98745.82 
8.3555824e+2, 6.490674e+1, -2217697.8, -2342795.3, -5717.0127, 0.016590942, -0.0031399194, -2217437.0, 86477.01 
8.355513e+2, 7.4899465e+1, -2121835.5, -2246026.0, -5690.63, -0.0008338171, -0.0004714077, -2121575.3, 84410.04 
8.355443e+2, 8.4891623e+1, -2035624.6, -2165562.3, -7671.753, -0.005985628, 0.0010929806, -2035173.3, 72888.78 
8.355372e+2, 9.4883245e+1, -1944090.1, -2070873.1, -7922.65, 0.0016207477, -0.0004969049, -1943597.0, 66547.21 
8.3552986e+2, 1.0487438e+2, -1858214.5, -1989466.5, -9241.253, 0.0033072582, -0.00029290142, -1857567.0, 54664.137 
8.3552223e+2, 1.1486505e+2, -1764250.1, -1893522.8, -9317.162, -0.0011911917, -0.00016441161, -1763582.0, 50740.54 
8.3551455e+2, 1.24855205e+2, -1678254.1, -1812610.6, -10587.534, -0.001948247, 0.00037819563, -1677424.9, 38994.11 
8.3550674e+2, 1.3484485e+2, -1585990.4, -1717486.8, -10634.464, 0.0012724102, -0.0006574092, -1585135.9, 33384.633 
8.3549875e+2, 1.4483398e+2, -1500426.1, -1636917.8, -11221.59, 0.0018530188, -0.00014690343, -1499509.8, 21117.186 
8.3549076e+2, 1.5482262e+2, -1406920.4, -1541172.5, -11398.607, -0.00037301157, -0.00012347894, -1405959.5, 16778.809 
8.354827e+2, 1.6481078e+2, -1320601.1, -1459386.1, -11925.214, -0.0010402974, 0.00035083885, -1319583.9, 5270.4927 
8.3547467e+2, 1.7479844e+2, -1228045.6, -1364044.5, -11837.691, -0.000021196985, -0.0008137813, -1227023.0, -47.77016 
8.3546656e+2, 1.8478562e+2, -1142346.9, -1283504.3, -11662.981, 0.00046637317, -0.00011973852, -1141389.8, -12288.846 
8.354585e+2, 1.9477229e+2, -1048857.8, -1187744.1, -11692.472, 0.00036505095, 0.00052940176, -1047880.3, -16648.72 
8.354504e+2, 2.0475844e+2, -962834.8, -1106495.1, -11473.468, 0.000060914765, 0.001164151, -961924.25, -28556.994 
8.354424e+2, 2.1474409e+2, -870365.56, -1011174.25, -11409.176, -0.00044832018, -0.00032098975, -869447.06, -33939.24 
8.354345e+2, 2.2472925e+2, -784516.2, -930355.44, -10508.94, -0.00057794346, -0.0001314536, -783762.8, -46109.438 
8.354267e+2, 2.347139e+2, -690857.75, -834345.8, -10411.745, -0.00034313079, -0.00042545848, -690106.25, -50302.46 
8.3541906e+2, 2.4469803e+2, -605008.4, -753830.8, -9430.111, -0.00004289712, 0.000075687036, -604413.2, -62453.883 
8.354115e+2, 2.5468165e+2, -512017.16, -658032.0, -9423.826, 0.00029804037, -0.00060386566, -511411.44, -67291.6 
8.354041e+2, 2.6466477e+2, -425963.0, -576833.8, -7884.0874, -0.00006150312, -0.00036879076, -425552.13, -79266.81 
8.353969e+2, 2.746474e+2, -332363.72, -480588.84, -7542.4453, -0.0011981111, -0.001375046, -331980.9, -83525.59 
8.3539e+2, 2.846295e+2, -247416.31, -401980.3, -5744.4985, -0.0011819426, -0.00024349391, -247203.11, -96572.05 
8.3538324e+2, 2.94611e+2, -153988.98, -305798.84, -5604.659, 0.00017471812, 0.0007459043, -153782.34, -100970.17 
8.353768e+2, 3.0459538e+2, -68750.25, -174644.88, -3210.9766, 0.00024205471, 0.000089136665, -68652.98, -68652.98 
8.353706e+2, 3.1458265e+2, -72948.63, -176174.06, -3016.6516, -0.0009923244, -0.0046611163, -72860.55, -72860.55 
8.353647e+2, 3.2457474e+2, -11315.419, -41556.598, -1601.8844, -0.00086089084, 0.0018299938, -11230.803, -11230.803 
8.455875e+2, 3.4931868e+1, -2479097.3, -2600631.0, 2066.0896, 0.020784657, -0.0035111264, -2479062.3, 118605.55 
8.4558105e+2, 4.4925952e+1, -2392592.8, -2519806.0, -4377.477, -0.029896453, 0.010309729, -2392442.3, 107283.516 
8.4557456e+2, 5.491929e+1, -2299531.0, -2424651.3, -3647.2297, 0.002496348, -0.0012581771, -2299424.8, 102366.29 
8.4556776e+2, 6.4912283e+1, -2212300.8, -2340646.3, -3999.209, 0.012576566, -0.004241974, -2212176.3, 91683.4 
8.4556067e+2, 7.490498e+1, -2119838.8, -2245559.0, -4373.2207, -0.0007707457, -0.00030608184, -2119687.0, 86244.32 
8.4555334e+2, 8.48971e+1, -2034514.6, -2165421.5, -6902.204, -0.0045886436, 0.0016743356, -2034151.8, 73856.68 
8.4554577e+2, 9.488868e+1, -1941396.8, -2069963.6, -6970.539, 0.0015543426, -0.00037612932, -1941020.0, 69071.02 
8.455381e+2, 1.04879774e+2, -1855573.1, -1988539.9, -8091.4644, 0.0029109153, -0.00045202757, -1855082.6, 57095.684 
8.4553015e+2, 1.1487041e+2, -1763437.4, -1893511.3, -8265.847, -0.0007581401, -0.00041633754, -1762914.3, 51355.82 
8.4552217e+2, 1.2486053e+2, -1677753.0, -1812590.3, -9655.145, -0.0015476452, 0.00017754543, -1677065.3, 39301.594 
8.45514e+2, 1.3485016e+2, -1584277.0, -1716880.5, -9786.872, 0.0007371081, -0.0006605663, -1583558.5, 34909.91 
8.4550565e+2, 1.4483927e+2, -1498663.5, -1636080.1, -10313.299, 0.0013372711, -0.0000029387443, -1497893.9, 22681.17 
8.454973e+2, 1.5482791e+2, -1406617.4, -1541062.4, -10179.972, 0.00013980827, 0.00011034535, -1405850.9, 16835.506 
8.4548897e+2, 1.6481605e+2, -1320785.9, -1459605.8, -10640.725, -0.0004003773, 0.0005394872, -1319975.0, 4827.6426 
8.4548044e+2, 1.7480372e+2, -1227499.8, -1363935.3, -10838.609, -0.00021699327, -0.0007982862, -1226644.1, 279.45554 
8.4547204e+2, 1.8479088e+2, -1141845.0, -1283133.6, -10766.535, 0.00006817623, -0.0003181325, -1141029.3, -11979.96 
8.4546363e+2, 1.9477756e+2, -1049546.0, -1187963.1, -10677.0205, 0.0004389449, 0.0001059498, -1048727.3, -17547.35 
8.454552e+2, 2.0476371e+2, -963795.94, -1106823.0, -10421.137, 0.00022785005, 0.0008403967, -963040.7, -29725.145 
8.454468e+2, 2.147494e+2, -870574.44, -1011162.3, -10409.699, -0.00060616626, -0.00020582508, -869807.9, -34351.914 
8.454386e+2, 2.2473456e+2, -784855.3, -930265.75, -9515.198, -0.0006902571, 0.000028270675, -784235.3, -46633.996 
8.4543043e+2, 2.3471922e+2, -692335.3, -834832.06, -9444.7705, 0.0000049669397, -0.00066406734, -691712.0, -51960.496 
8.4542245e+2, 2.4470338e+2, -606852.5, -754315.9, -8352.882, 0.00028449018, -0.000104002065, -606380.9, -64474.04 
8.454146e+2, 2.5468704e+2, -513530.97, -658348.44, -8091.1523, 0.0000708094, -0.00019918113, -513080.3, -69013.36 
8.454068e+2, 2.646702e+2, -427636.03, -577271.7, -6604.311, -0.0004010038, 0.000096310585, -427345.1, -81113.016 
8.453993e+2, 2.7465287e+2, -334666.13, -481327.47, -6669.1265, -0.0011612643, -0.001452624, -334363.5, -85961.64 
8.45392e+2, 2.8463498e+2, -249744.05, -402409.06, -4934.5728, -0.0009797688, -0.00051395415, -249584.7, -99007.54 
8.453849e+2, 2.9461655e+2, -156092.77, -306129.8, -4587.587, 0.00032056103, 0.0006839176, -155952.63, -103194.97 
8.453781e+2, 3.0460098e+2, -71271.03, -175343.63, -2082.185, 0.00036635625, 0.00022788657, -71229.39, -71229.39 
8.4537166e+2, 3.145883e+2, -76329.03, -177290.83, -1852.273, -0.00090326194, -0.00430767, -76295.06, -76295.06 
8.453653e+2, 3.2458046e+2, -14591.853, -41965.598, -332.30124, -0.0013573951, 0.0022000384, -14587.819, -14587.819 
8.555978e+2, 3.4937468e+1, -2479002.8, -2600872.3, 1447.5425, -0.02013177, 0.0022819315, -2478985.8, 118627.27 
8.5559213e+2, 4.4931498e+1, -2391411.5, -2516894.3, -5358.273, 0.031171173, 0.0019511797, -2391183.3, 108488.21 
8.555847e+2, 5.492513e+1, -2297976.0, -2421505.8, -4709.757, -0.0010041954, -0.00088006206, -2297796.8, 103937.125 
8.555773e+2, 6.4918214e+1, -2212818.8, -2341971.5, -5265.8237, -0.0111015355, -0.00088686554, -2212604.5, 91197.09 
8.555701e+2, 7.4910784e+1, -2120500.8, -2246979.0, -5631.286, 0.0012993893, 0.0000576251, -2120250.5, 85623.97 
8.555625e+2, 8.490284e+1, -2034625.0, -2165627.0, -7996.448, 0.004842199, 0.0010028593, -2034138.6, 73813.58 
8.555545e+2, 9.489441e+1, -1941486.8, -2070152.0, -8069.4814, -0.0007323197, -0.000037910155, -1940982.6, 69052.195 
8.555464e+2, 1.04885474e+2, -1855859.5, -1989175.6, -9457.97, -0.0017956917, -0.000078615485, -1855191.9, 56930.5 
8.555382e+2, 1.14876054e+2, -1763707.4, -1894132.8, -9633.224, 0.0018232891, -0.0010550256, -1762999.8, 51214.965 
8.555298e+2, 1.2486614e+2, -1677939.4, -1813068.6, -10692.505, 0.0020601575, -0.00046062996, -1677098.5, 39213.285 
8.5552126e+2, 1.3485575e+2, -1584552.9, -1717382.4, -10811.489, -0.001214987, -0.00023420966, -1583678.6, 34735.08 
8.555126e+2, 1.4484487e+2, -1498462.8, -1635596.4, -11715.825, -0.0015634872, 0.0004917482, -1497469.1, 23051.172 
8.555039e+2, 1.5483353e+2, -1406353.3, -1540524.8, -11605.577, 0.0012236526, -0.0003724994, -1405356.8, 17274.633 
8.5549515e+2, 1.6482167e+2, -1321085.4, -1460320.9, -11774.916, 0.001699344, 0.000051222996, -1320096.6, 4650.9907 
8.5548633e+2, 1.7480928e+2, -1227875.1, -1364710.0, -11947.439, -0.00027620725, -0.00030121385, -1226839.8, 29.231285 
8.554775e+2, 1.8479644e+2, -1141709.5, -1282826.1, -12119.6, -0.0009910973, -0.00021694558, -1140676.3, -11681.238 
8.5546875e+2, 1.947831e+2, -1049392.9, -1187599.4, -12039.746, -0.0003603984, -0.0016250481, -1048351.9, -17226.373 
8.5546e+2, 2.0476928e+2, -963768.94, -1106760.8, -11562.739, 0.0000137605, -0.00108203, -962839.94, -29579.055 
8.554513e+2, 2.1475498e+2, -870596.25, -1011107.2, -11542.184, 0.000058972048, -0.0005554911, -869654.44, -34253.27 
8.5544264e+2, 2.2474016e+2, -784801.2, -930058.8, -10848.376, 0.00014491288, 0.0002797661, -783995.5, -46449.094 
8.554341e+2, 2.3472485e+2, -692271.44, -834602.44, -10780.276, 0.00027283584, -0.0009075826, -691459.56, -51763.098 
8.554257e+2, 2.4470904e+2, -606437.7, -753373.0, -9516.636, -0.000077392084, -0.00040123143, -605823.9, -63972.484 
8.554175e+2, 2.546928e+2, -513138.28, -657395.75, -9260.037, -0.0009855299, -0.000030303958, -512546.3, -68535.53 
8.5540944e+2, 2.6467597e+2, -427848.38, -577599.8, -7889.3843, -0.0010471299, 0.00071654335, -427433.88, -81258.26 
8.554016e+2, 2.746586e+2, -334886.44, -481680.3, -7937.5425, -0.00014302318, -0.00041614228, -334458.47, -86112.9 
8.5539395e+2, 2.8464076e+2, -249232.6, -401231.9, -6044.932, 0.00018138155, -0.00043171895, -248992.58, -98471.875 
8.553865e+2, 2.9462236e+2, -155598.88, -304905.63, -5703.4175, -0.00008549106, -0.001758855, -155381.33, -102680.78 
8.553794e+2, 3.046069e+2, -71053.42, -174663.42, -3340.638, -0.00042460315, -0.00025484047, -70945.82, -70945.82 
8.553725e+2, 3.1459436e+2, -76107.016, -176633.1, -3104.5422, -0.0008127595, 0.0023863236, -76011.234, -76011.234 
8.553659e+2, 3.2458648e+2, -13720.644, -39981.254, -1505.4366, -0.001801755, -0.0014939733, -13634.623, -13634.623 
8.656088e+2, 3.4943858e+1, -2470917.8, -2598891.0, 1663.3135, -0.02315243, 0.0024728044, -2470896.0, 126654.164 
8.656025e+2, 4.4937748e+1, -2393981.8, -2518231.5, -1415.4005, 0.03687619, -0.0028756845, -2393965.8, 105644.4 
8.6559486e+2, 5.4931426e+1, -2294876.0, -2420082.5, -2143.9678, -0.0015866503, -0.000120695586, -2294839.3, 106832.76 
8.6558723e+2, 6.4924484e+1, -2208338.5, -2340560.5, -4651.044, -0.013518593, 0.0015121782, -2208175.3, 95564.93 
8.655796e+2, 7.491695e+1, -2118136.8, -2246622.8, -4862.206, 0.0015759993, 0.000032956857, -2117953.0, 87860.98 
8.655716e+2, 8.490895e+1, -2032945.5, -2165115.5, -6684.2466, 0.0059921457, 0.00007154559, -2032608.4, 75283.92 
8.655633e+2, 9.4900507e+1, -1939646.8, -2069555.6, -6846.6177, -0.00063994975, -0.0003031563, -1939286.9, 70688.22 
8.6555487e+2, 1.0489154e+2, -1853852.8, -1988615.9, -8497.607, -0.002161105, 0.00012861362, -1853319.0, 58743.91 
8.655463e+2, 1.1488209e+2, -1761349.1, -1893425.4, -8640.028, 0.0016482318, -0.00057587767, -1760786.4, 53369.28 
8.6553746e+2, 1.2487215e+2, -1675995.6, -1812237.8, -9559.157, 0.0021615685, -0.00006178704, -1675328.3, 40924.797 
8.655286e+2, 1.3486172e+2, -1584139.8, -1717337.0, -9551.421, -0.00078422145, -0.0002772253, -1583458.3, 34896.793 
8.655196e+2, 1.4485084e+2, -1498400.6, -1635788.6, -10549.536, -0.0013241541, 0.0002000691, -1497595.3, 22866.553 
8.655105e+2, 1.5483947e+2, -1405208.0, -1540218.3, -10816.452, 0.0007548226, -0.0006900022, -1404347.0, 18226.223 
8.655014e+2, 1.6482759e+2, -1319833.6, -1459646.0, -11050.44, 0.001257716, -0.000087032735, -1318965.6, 5723.9644 
8.6549217e+2, 1.7481524e+2, -1227906.0, -1364658.6, -10863.329, 0.00005961255, -0.00006460272, -1227048.5, -237.6622 
8.6548305e+2, 1.8480237e+2, -1142201.0, -1283057.4, -10922.147, -0.00051278376, 0.00017076267, -1141359.1, -12422.41 
8.654738e+2, 1.9478905e+2, -1049402.4, -1187614.9, -11011.332, -0.00041208902, -0.0013212076, -1048530.6, -17463.379 
8.6546475e+2, 2.0477524e+2, -963860.75, -1106643.9, -10555.013, -0.00016054913, -0.00093999674, -963084.7, -29882.043 
8.654556e+2, 2.1476094e+2, -871525.1, -1011411.1, -10481.305, 0.00019658532, -0.0006239856, -870744.1, -35401.344 
8.654466e+2, 2.2474614e+2, -785986.94, -930337.9, -9772.934, 0.0002786848, 0.00031627284, -785328.25, -47840.438 
8.6543775e+2, 2.3473085e+2, -693194.1, -834774.25, -9652.287, 0.000053241656, -0.00043137488, -692539.06, -52901.46 
8.6542904e+2, 2.4471508e+2, -607577.25, -753607.06, -8443.871, -0.00033848302, -0.000079179634, -607090.6, -65298.336 
8.654204e+2, 2.546988e+2, -514967.13, -657982.1, -8468.287, -0.000923373, -0.00052480097, -514467.44, -70515.93 
8.65412e+2, 2.6468202e+2, -429820.44, -578047.1, -7019.747, -0.0007616313, 0.0003410867, -429488.75, -83372.74 
8.654038e+2, 2.7466476e+2, -336604.44, -481986.13, -6630.887, 0.00024181273, 0.0003869639, -336302.63, -88017.18 
8.653957e+2, 2.846469e+2, -251296.52, -401714.97, -4666.739, 0.00025633958, 0.00031487958, -251151.88, -100691.73 
8.653879e+2, 2.946286e+2, -158637.2, -305863.6, -4639.8496, -0.0007647522, -0.002473208, -158491.13, -105851.39 
8.6538047e+2, 3.046132e+2, -74216.625, -175331.84, -2330.756, -0.00087502215, -0.00055938, -74162.93, -74162.93 
8.653733e+2, 3.1460074e+2, -78962.42, -177160.14, -1904.2672, 0.000038242142, 0.004687867, -78925.51, -78925.51 
8.653663e+2, 3.2459286e+2, -16529.14, -41260.72, -483.70468, -0.0017935918, -0.0030643244, -16519.684, -16519.684 
8.756205e+2, 3.4950894e+1, -2473674.8, -2603357.8, -6966.6753, 0.003315184, -0.001743595, -2473301.5, 124179.69 
8.756124e+2, 4.494457e+1, -2394265.0, -2520467.5, -1050.7135, -0.0016276698, -0.004839822, -2394256.3, 105286.91 
8.756052e+2, 5.4938096e+1, -2296140.8, -2422755.8, -1719.4902, 0.00020526639, 0.00093436404, -2296117.3, 105489.37 
8.755975e+2, 6.4931035e+1, -2208954.8, -2341452.5, -6463.3057, 0.0009398853, 0.0031469679, -2208640.3, 95035.695 
8.755892e+2, 7.492344e+1, -2118413.0, -2247325.5, -6675.748, 0.0003558167, -0.00030426504, -2118068.3, 87682.11 
8.755807e+2, 8.491538e+1, -2033052.3, -2165599.0, -7725.699, 0.0004743652, -0.001064199, -2032603.5, 75225.82 
8.755722e+2, 9.4906896e+1, -1939910.9, -2070113.3, -7889.1357, 0.0013294123, -0.0010585557, -1939434.6, 70477.8 
8.7556344e+2, 1.0489791e+2, -1854129.4, -1989149.5, -9760.238, 0.0009214322, 0.00020098273, -1853427.5, 58572.99 
8.755544e+2, 1.1488843e+2, -1761614.8, -1893942.0, -9897.391, -0.00079468125, 0.00080370274, -1760878.6, 53214.855 
8.755452e+2, 1.2487847e+2, -1675953.3, -1812198.8, -10998.981, -0.0006224458, 0.0011735333, -1675071.1, 41119.96 
8.7553596e+2, 1.3486804e+2, -1584065.1, -1717262.8, -11005.515, 0.0015520995, -0.00071066496, -1583161.9, 35131.254 
8.755266e+2, 1.4485712e+2, -1498833.6, -1636784.0, -11673.891, 0.001443594, -0.0007338472, -1497852.6, 22547.64 
8.7551713e+2, 1.5484568e+2, -1405743.0, -1541265.0, -11911.624, -0.0010214732, -0.00087400904, -1404704.0, 17808.354 
8.7550765e+2, 1.648338e+2, -1319539.8, -1458999.1, -12475.466, -0.0013193047, 0.00006614853, -1318432.6, 6196.147 
8.7549806e+2, 1.7482147e+2, -1227551.6, -1363947.8, -12309.54, 0.00069295865, -0.000052203162, -1226449.6, 299.93692 
8.754885e+2, 1.8480866e+2, -1142323.1, -1283366.3, -12160.647, 0.0012103339, 0.0007891394, -1141282.4, -12407.121 
8.754789e+2, 1.9479533e+2, -1049585.1, -1187951.8, -12234.786, 0.00011552438, 0.00066555734, -1048511.56, -17505.682 
8.7546945e+2, 2.0478149e+2, -963754.6, -1106394.8, -11902.677, -0.00034127038, 0.00092037953, -962768.2, -29626.879 
8.7546e+2, 2.1476722e+2, -871422.4, -1011135.7, -11830.602, -0.00013867153, -0.00045846505, -870427.7, -35146.305 
8.754506e+2, 2.2475243e+2, -785799.06, -929900.94, -11040.27, -0.0002180758, 0.00017086968, -784958.1, -47531.938 
8.754414e+2, 2.3473719e+2, -693030.5, -834326.5, -10922.226, -0.00062100793, 0.0006472452, -692191.2, -52615.63 
8.7543225e+2, 2.4472143e+2, -607697.3, -753770.44, -9782.8545, -0.0005418365, 0.0007626916, -607045.06, -65314.94 
8.7542325e+2, 2.5470513e+2, -515095.6, -658153.0, -9797.434, 0.00004776069, -0.0015798486, -514427.72, -70538.09 
8.754145e+2, 2.6468837e+2, -429203.47, -576704.94, -8220.068, 0.00025999994, -0.00087095576, -428746.8, -82693.07 
8.754059e+2, 2.7467123e+2, -336001.28, -480604.25, -7840.97, 0.00006026626, 0.0009917899, -335577.34, -87355.36 
8.7539744e+2, 2.8465348e+2, -251372.64, -401711.56, -6047.1816, -0.0006356942, 0.0016452017, -251129.8, -100733.67 
8.753893e+2, 2.9463512e+2, -158713.06, -305896.03, -6012.357, -0.0017417434, -0.0016729143, -158467.86, -105892.09 
8.7538147e+2, 3.0461976e+2, -73609.414, -173955.6, -3515.4453, -0.00108861, -0.0006998966, -73486.41, -73486.41 
8.7537396e+2, 3.1460738e+2, -78353.13, -175737.6, -3087.5544, 0.0014875144, 0.0031440516, -78255.336, -78255.336 
8.7536657e+2, 3.2459953e+2, -17405.096, -42852.766, -1433.6842, -0.0014725779, -0.0027176484, -17324.578, -17324.578 
8.8563174e+2, 3.4958154e+1, -2479084.5, -2606374.0, -4827.8027, 0.015882356, -0.0034153275, -2478901.8, 118508.38 
8.856231e+2, 4.4951797e+1, -2376891.5, -2513792.0, -765.4279, -0.021151202, 0.00053086306, -2376887.0, 122585.32 
8.8561565e+2, 5.4945093e+1, -2293791.3, -2423512.0, -1375.0773, 0.0016556438, 0.00045402395, -2293776.8, 107761.375 
8.856076e+2, 6.4937925e+1, -2210589.0, -2342423.0, -5177.654, 0.008974058, 0.0008480068, -2210386.0, 93222.34 
8.855989e+2, 7.4930334e+1, -2114889.8, -2245784.5, -5176.301, 0.00003860685, -0.00029177978, -2114685.5, 90997.38 
8.855901e+2, 8.492225e+1, -2028499.8, -2164021.8, -6569.8184, -0.0025587236, -0.00012474827, -2028182.0, 79580.04 
8.855812e+2, 9.4913703e+1, -1937974.1, -2069838.9, -6864.4063, 0.0014245916, -0.0006149642, -1937617.8, 72228.08 
8.8557196e+2, 1.04904674e+2, -1853165.9, -1988841.0, -8537.773, 0.0020680514, 0.00020443361, -1852630.8, 59303.54 
8.8556254e+2, 1.1489517e+2, -1760505.9, -1893578.0, -8553.505, -0.0007672038, 0.00044425327, -1759958.4, 54069.03 
8.8555306e+2, 1.2488519e+2, -1674599.9, -1811914.0, -9810.138, -0.0010094123, 0.00087170664, -1673902.6, 42222.633 
8.855434e+2, 1.3487473e+2, -1582062.8, -1716679.6, -10062.879, 0.001494912, -0.0005407258, -1581314.6, 36913.047 
8.8553363e+2, 1.4486378e+2, -1497097.0, -1636005.3, -10658.585, 0.0016559061, -0.00034261314, -1496284.0, 24051.033 
8.8552374e+2, 1.5485235e+2, -1405619.6, -1541280.9, -10483.577, -0.0006535242, -0.0005115759, -1404814.3, 17632.799 
8.8551384e+2, 1.6484046e+2, -1319880.1, -1459193.1, -10970.428, -0.0011430737, 0.00019183474, -1319021.6, 5542.0093 
8.855039e+2, 1.7482813e+2, -1227075.4, -1363750.3, -11162.093, 0.00032585135, -0.00036851084, -1226169.8, 514.69147 
8.85494e+2, 1.8481529e+2, -1141762.1, -1283026.5, -11142.741, 0.00084581977, 0.0004303435, -1140888.6, -12078.384 
8.854841e+2, 1.9480197e+2, -1049837.1, -1188023.0, -11053.877, 0.0003308814, 0.00068546354, -1048958.5, -18017.66 
8.854742e+2, 2.0478816e+2, -964386.0, -1106530.4, -10667.064, -0.0000647512, 0.0011357263, -963589.94, -30513.813 
8.854643e+2, 2.1477388e+2, -872114.44, -1011312.6, -10642.15, -0.00032574378, -0.00024143117, -871305.5, -36089.46 
8.8545454e+2, 2.2475912e+2, -786702.7, -930108.0, -9877.752, -0.00044142167, 0.00021064273, -786025.5, -48664.777 
8.854449e+2, 2.3474388e+2, -694311.94, -834733.3, -9857.225, -0.0004434338, 0.00032939514, -693623.4, -54113.395 
8.8543534e+2, 2.4472813e+2, -609105.25, -754112.94, -8658.011, -0.00030373663, 0.0006681836, -608590.1, -66925.875 
8.8542604e+2, 2.547119e+2, -516456.38, -658486.94, -8419.784, -0.000015268633, -0.0008305717, -515958.97, -72135.555 
8.8541687e+2, 2.646952e+2, -430905.72, -577012.94, -6878.9634, 0.000044015866, -0.0003197252, -430582.56, -84595.35 
8.854079e+2, 2.7467805e+2, -338583.66, -481351.5, -6887.062, -0.0001689968, 0.00021294587, -338252.2, -90097.01 
8.853991e+2, 2.846603e+2, -254145.25, -402527.2, -5124.545, -0.0007206542, 0.0010882406, -253968.47, -103639.6 
8.853906e+2, 2.9464206e+2, -160925.31, -306451.6, -4792.6167, -0.0014697147, -0.00026427727, -160767.64, -108259.75 
8.853823e+2, 3.046267e+2, -75779.516, -174407.23, -2279.397, -0.00074487226, 0.000112466034, -75726.86, -75726.86 
8.853744e+2, 3.146144e+2, -81241.56, -176523.83, -2174.954, 0.0015259107, 0.0004405508, -81191.945, -81191.945 
8.8536674e+2, 3.2460663e+2, -21100.455, -44058.965, 5.868668, -0.0015537504, -0.00070220564, -21100.453, -21100.453 
8.956427e+2, 3.4965602e+1, -2477344.8, -2603472.3, 3369.7014, 0.017379966, -0.0030311507, -2477254.8, 120082.44 
8.9563465e+2, 4.495937e+1, -2378927.5, -2516577.0, -4431.6685, -0.025968226, 0.011683046, -2378785.0, 120613.34 
8.956263e+2, 5.495238e+1, -2294871.5, -2425809.0, -4991.8765, 0.0027654297, -0.0012504295, -2294681.5, 106785.28 
8.956176e+2, 6.49451e+1, -2210161.8, -2342114.0, -5583.938, 0.011799324, -0.004536077, -2209925.8, 93612.3 
8.956088e+2, 7.493757e+1, -2114855.5, -2245656.3, -5601.589, 0.0004059977, 0.000004917801, -2114616.0, 90995.76 
8.955996e+2, 8.492947e+1, -2029146.9, -2165172.0, -8320.138, -0.0036332894, 0.002464565, -2028639.8, 79051.4 
8.955901e+2, 9.492084e+1, -1938441.5, -2070907.3, -8602.963, -0.000030142037, 0.0007793884, -1937885.1, 71890.71 
8.955806e+2, 1.0491176e+2, -1853047.0, -1988799.5, -9753.594, 0.0016149284, 0.0001476736, -1852349.8, 59515.09 
8.955709e+2, 1.14902236e+2, -1760466.9, -1893564.3, -9783.43, 0.0012240532, -0.0013191949, -1759751.5, 54206.547 
8.955609e+2, 1.2489223e+2, -1675063.8, -1812878.8, -11081.352, 0.0004905508, -0.0006679432, -1674178.4, 41877.8 
8.9555085e+2, 1.3488173e+2, -1582568.6, -1717665.3, -11311.558, -0.0005459838, 0.00012008528, -1581628.1, 36531.047 
8.955407e+2, 1.4487077e+2, -1496800.4, -1635376.9, -12187.105, -0.00024254424, 0.0011267778, -1495736.8, 24529.8 
8.9553046e+2, 1.5485938e+2, -1405253.4, -1540598.4, -12035.487, 0.001434086, 0.00028516588, -1404191.4, 18186.754 
8.9552015e+2, 1.6484748e+2, -1320169.9, -1459936.4, -12212.986, 0.0012381149, 0.00028453703, -1319110.8, 5384.0146 
8.9550984e+2, 1.7483509e+2, -1227456.0, -1364538.9, -12382.464, -0.00089107547, -0.0009611619, -1226346.5, 269.67685 
8.9549947e+2, 1.8482223e+2, -1141656.3, -1282732.8, -12575.568, -0.0012615684, -0.0007310232, -1140544.0, -11801.89 
8.9548916e+2, 1.9480893e+2, -1049703.6, -1187685.9, -12492.753, 0.00024398295, -0.0009312344, -1048581.8, -17709.193 
8.9547884e+2, 2.0479514e+2, -964348.25, -1106427.1, -12032.498, 0.00054939516, -0.000023782299, -963336.44, -30328.809 
8.954686e+2, 2.1478088e+2, -872098.5, -1011221.1, -12005.571, -0.00041159298, 0.0000065860404, -871070.06, -35922.695 
8.9545846e+2, 2.2476614e+2, -786699.1, -930061.1, -11241.692, -0.00046759524, 0.00039463962, -785823.0, -48530.977 
8.9544845e+2, 2.3475088e+2, -694322.2, -834680.3, -11216.457, 0.00040539633, -0.00115591, -693431.5, -53990.145 
8.9543855e+2, 2.4473518e+2, -608743.06, -753282.8, -9981.602, 0.00027197448, -0.00020389058, -608057.0, -66461.68 
8.954288e+2, 2.5471902e+2, -516107.9, -657643.6, -9748.996, -0.0009969933, 0.0014451671, -515439.53, -71685.98 
8.954192e+2, 2.6470232e+2, -431020.4, -577141.9, -8318.678, -0.0012829093, 0.0017301583, -430548.38, -84631.29 
8.9540976e+2, 2.7468514e+2, -338696.4, -481498.88, -8319.917, -0.00047435256, -0.0017417398, -338213.3, -90127.81 
8.9540064e+2, 2.8466746e+2, -253643.64, -401417.7, -6349.169, -0.00015619458, -0.0010679701, -253371.34, -103112.484 
8.9539176e+2, 2.9464933e+2, -160447.63, -305305.84, -6014.4624, -0.00017733518, 0.0016917057, -160198.34, -107761.66 
8.953832e+2, 3.0463403e+2, -75799.83, -174239.25, -3640.2214, 0.000016056792, 0.001766437, -75665.4, -75665.4 
8.953749e+2, 3.1462166e+2, -81278.055, -176395.83, -3528.8052, 0.00026416773, -0.0032399688, -81147.32, -81147.32 
8.9536685e+2, 3.2461408e+2, -19926.611, -41388.055, -1184.3413, -0.0020806938, 0.0027718965, -19861.451, -19861.451 
9.05654e+2, 3.4973264e+1, -2465966.8, -2597880.3, 4259.316, 0.0025006894, -0.00028601743, -2465829.5, 131432.81 
9.056461e+2, 4.4966996e+1, -2388512.3, -2520631.0, -4661.312, -0.0031279395, 0.008394233, -2388348.0, 110975.68 
9.0563697e+2, 5.496009e+1, -2290453.3, -2423032.8, -3886.7185, 0.0014653483, -0.0013200572, -2290339.5, 111051.766 
9.0562785e+2, 6.4952815e+1, -2202659.5, -2339289.8, -3929.0952, 0.0029273096, -0.0034621253, -2202546.8, 100915.85 
9.0561867e+2, 7.49452e+1, -2113494.3, -2245858.8, -4498.071, 0.00065183494, 0.00015955172, -2113341.8, 92195.484 
9.0560913e+2, 8.493705e+1, -2029135.4, -2165394.0, -7299.641, -0.00034428795, 0.002178853, -2028745.5, 78871.52 
9.055993e+2, 9.492839e+1, -1935644.4, -2069792.0, -7252.3706, 0.000092741415, 0.00053366134, -1935253.4, 74448.44 
9.055893e+2, 1.0491927e+2, -1849721.3, -1987696.6, -8478.226, 0.00064192794, 0.000026000343, -1849202.3, 62588.965 
9.0557915e+2, 1.1490971e+2, -1758532.3, -1893158.5, -8815.046, 0.0012938208, -0.0012402042, -1757957.5, 55927.336 
9.0556884e+2, 1.2489966e+2, -1673895.0, -1812381.5, -10018.148, 0.00089831545, -0.00055743963, -1673174.1, 42809.195 
9.0555835e+2, 1.3488916e+2, -1582090.3, -1717508.5, -9872.458, -0.00057198066, 0.000093456525, -1581374.3, 36712.016 
9.055478e+2, 1.448782e+2, -1496278.8, -1635321.5, -10785.762, -0.0004915439, 0.0009985109, -1495447.1, 24746.7 
9.055372e+2, 1.5486677e+2, -1403769.3, -1540071.1, -11045.618, 0.0012106741, 0.00007598291, -1402879.9, 19425.734 
9.055264e+2, 1.6485485e+2, -1318850.1, -1459380.5, -11337.521, 0.0012753463, 0.00023632852, -1317941.3, 6481.0454 
9.055157e+2, 1.7484246e+2, -1227584.4, -1364701.3, -11238.236, -0.0003855167, -0.0005671616, -1226669.4, -125.5637 
9.0550494e+2, 1.8482961e+2, -1142236.1, -1282879.9, -11285.302, -0.00092347834, -0.0003022025, -1141336.4, -12666.509 
9.054942e+2, 1.9481632e+2, -1049917.8, -1187672.5, -11293.2295, -0.00023026743, -0.00088461326, -1048998.0, -18197.93 
9.0548354e+2, 2.0480254e+2, -964576.1, -1106389.9, -10895.085, 0.00003878918, -0.00013582397, -963744.0, -30808.822 
9.054728e+2, 2.1478829e+2, -872706.44, -1011377.8, -10845.621, -0.00014430514, -0.000048299386, -871863.3, -36788.555 
9.0546227e+2, 2.2477354e+2, -787554.9, -930262.94, -9999.349, -0.000062931125, 0.0005160722, -786857.6, -49638.367 
9.0545183e+2, 2.3475833e+2, -695350.7, -834975.0, -9897.411, 0.00025366095, -0.0007286494, -694652.56, -55284.152 
9.054415e+2, 2.4474265e+2, -610018.2, -753481.3, -8719.017, -0.0000040443047, 0.00009928784, -609490.2, -67968.08 
9.054314e+2, 2.5472653e+2, -517963.2, -658124.56, -8658.64, -0.0009027118, 0.0011754535, -517430.3, -73750.23 
9.0542144e+2, 2.6470986e+2, -433101.53, -577835.9, -7190.4272, -0.001074791, 0.0015502099, -432745.2, -86901.86 
9.054116e+2, 2.746927e+2, -340412.72, -482028.66, -6979.483, -0.00045705354, -0.0011181675, -340069.6, -92058.14 
9.054021e+2, 2.8467506e+2, -255367.25, -401608.4, -4948.88, -0.00015509261, -0.0005803817, -255199.97, -105015.555 
9.053928e+2, 2.9465696e+2, -163121.7, -305945.78, -4774.046, -0.00000037357623, 0.0010007836, -162962.3, -110600.52 
9.0538377e+2, 3.0464172e+2, -79185.35, -175443.95, -2438.8047, -0.00002298501, 0.0012475089, -79123.6, -79123.6 
9.053751e+2, 3.146294e+2, -84807.93, -177671.83, -2162.5444, -0.00047615598, -0.002021692, -84757.59, -84757.59 
9.053667e+2, 3.246219e+2, -23144.3, -41627.813, 153.36755, -0.0016261829, 0.0023273467, -23143.027, -23143.027 
9.1566545e+2, 3.4981102e+1, -2466926.8, -2599696.3, -2360.9207, -0.02493887, 0.0041992175, -2466884.8, 130300.54 
9.156573e+2, 4.497469e+1, -2386611.0, -2517256.5, -4324.8667, 0.04070956, -0.0060685873, -2386468.0, 112780.086 
9.1564775e+2, 5.496816e+1, -2288858.3, -2419761.0, -3668.754, -0.0018180514, -0.000072728355, -2288755.5, 112556.45 
9.1563827e+2, 6.496097e+1, -2203754.0, -2341445.0, -6021.622, -0.015123253, 0.002678798, -2203491.0, 99891.43 
9.156287e+2, 7.495315e+1, -2114421.5, -2247940.8, -6555.5244, 0.0007936467, 0.00019197847, -2114100.5, 91358.73 
9.156188e+2, 8.494491e+1, -2028856.9, -2165043.5, -8264.047, 0.0063343844, -0.00037196503, -2028357.1, 79182.74 
9.156085e+2, 9.493629e+1, -1935515.8, -2069498.1, -8239.393, 0.0014050378, -0.0010106076, -1935010.9, 74613.53 
9.1559815e+2, 1.04927145e+2, -1850369.1, -1988980.6, -10067.179, -0.00079371594, -0.00013951217, -1849641.9, 62072.164 
9.1558754e+2, 1.1491752e+2, -1759127.8, -1894420.3, -10382.485, -0.00020557374, 0.00031970526, -1758335.6, 55472.727 
9.1557676e+2, 1.2490745e+2, -1673565.5, -1811799.5, -11442.014, 0.0003882237, 0.0008746585, -1672624.8, 43282.3 
9.155659e+2, 1.3489696e+2, -1581758.8, -1716915.3, -11322.039, 0.000992493, -0.0004947226, -1580816.9, 37192.953 
9.1555494e+2, 1.4488597e+2, -1496757.9, -1636343.4, -12071.263, 0.00055149494, -0.0004225822, -1495721.6, 24395.922 
9.155439e+2, 1.5487447e+2, -1404314.4, -1541133.9, -12305.223, -0.00091478915, -0.0009555629, -1403216.5, 19013.553 
9.1553277e+2, 1.6486256e+2, -1318739.0, -1459079.5, -12918.282, -0.00062931096, 0.00007707116, -1317559.9, 6787.123 
9.155216e+2, 1.7485021e+2, -1227410.0, -1364347.6, -12828.143, 0.0014992157, 0.00062825525, -1226218.6, 249.45732 
9.155104e+2, 1.8483736e+2, -1142212.0, -1282904.0, -12621.645, 0.001393132, 0.0014207038, -1141088.6, -12494.75 
9.1549927e+2, 1.9482407e+2, -1049958.1, -1187712.8, -12624.975, -0.0010686857, 0.00052125286, -1048810.6, -18086.43 
9.154882e+2, 2.0481029e+2, -964532.7, -1106210.5, -12347.627, -0.0014429376, 0.0006161734, -963464.6, -30605.33 
9.154771e+2, 2.1479604e+2, -872650.7, -1011185.2, -12300.306, 0.00038833413, -0.00035751262, -871567.06, -36568.203 
9.154661e+2, 2.2478132e+2, -787406.75, -929909.6, -11403.101, 0.0006574457, 0.0005834478, -786500.06, -49356.934 
9.154553e+2, 2.3476614e+2, -695232.94, -834625.25, -11299.946, -0.000780699, 0.0013003924, -694322.9, -55031.066 
9.154445e+2, 2.4475047e+2, -609990.8, -753320.6, -10190.39, -0.0010273813, 0.0013842793, -609269.94, -67824.55 
9.1543394e+2, 2.5473434e+2, -517933.16, -657958.56, -10131.339, 0.00005911316, -0.0012543199, -517203.9, -73600.35 
9.154236e+2, 2.647177e+2, -432808.1, -577150.7, -8526.32, 0.00037319565, -0.0005058871, -432306.2, -86539.74 
9.1541344e+2, 2.7470064e+2, -340145.75, -481337.38, -8308.956, -0.00020169959, 0.0017119583, -339658.47, -91724.84 
9.154034e+2, 2.8468305e+2, -255198.78, -401121.3, -6419.66, -0.0006844495, 0.0021631015, -254916.9, -104810.73 
9.153937e+2, 2.9466492e+2, -162955.94, -305455.75, -6247.491, -0.0008454821, -0.0019521835, -162682.56, -110398.86 
9.1538435e+2, 3.0464974e+2, -78878.74, -174624.27, -3835.9104, -0.0007997828, -0.0010996633, -78725.305, -78725.305 
9.1537523e+2, 3.1463754e+2, -84501.055, -176852.95, -3548.3152, -0.0008174134, 0.003443647, -84364.92, -84364.92 
9.153665e+2, 3.2463e+2, -22861.563, -40839.43, -1156.0542, -0.00041484836, -0.0016237228, -22787.527, -22787.527 
9.256775e+2, 3.4989917e+1, -2463665.0, -2600937.0, -1285.7273, -0.015735703, 0.0028799041, -2463653.0, 133445.94 
9.2566836e+2, 4.4983318e+1, -2379891.3, -2515132.3, 232.66208, 0.028318154, -0.008157143, -2379890.8, 119272.78 
9.2565876e+2, 5.4976714e+1, -2286757.3, -2419944.3, -1172.9705, -0.001538671, 0.0009165947, -2286746.8, 114481.43 
9.256489e+2, 6.496945e+1, -2202302.5, -2341177.3, -5414.492, -0.010572025, 0.0042983256, -2202091.8, 101207.805 
9.256388e+2, 7.496157e+1, -2110507.3, -2246482.3, -5304.034, 0.0011090942, -0.00002913233, -2110300.8, 95075.9 
9.256284e+2, 8.4953284e+1, -2024935.4, -2163666.8, -6546.7603, 0.0050307093, -0.0010962632, -2024627.1, 82830.72 
9.256179e+2, 9.494462e+1, -1933995.6, -2069306.0, -6957.897, 0.0010951728, -0.00088248943, -1933638.8, 75904.05 
9.2560697e+2, 1.04935445e+2, -1849468.0, -1988772.4, -8911.297, -0.00061888766, 0.00036763324, -1848900.3, 62732.426 
9.25596e+2, 1.1492579e+2, -1757368.5, -1893818.6, -8821.864, -0.000068148955, 0.0007030883, -1756800.5, 56926.85 
9.2558485e+2, 1.249157e+2, -1671582.0, -1811177.1, -9911.366, 0.0004873999, 0.0010601127, -1670881.8, 44944.465 
9.255735e+2, 1.3490516e+2, -1580041.3, -1716428.0, -10249.677, 0.0010422796, -0.0005598608, -1579275.3, 38654.105 
9.2556214e+2, 1.4489417e+2, -1495598.5, -1635907.3, -11011.647, 0.0006119105, -0.00048180335, -1494739.5, 25297.7 
9.2555064e+2, 1.5488265e+2, -1404309.6, -1541260.0, -10866.188, -0.00079689326, -0.00074366154, -1403452.8, 18697.137 
9.2553914e+2, 1.6487074e+2, -1318793.4, -1459046.8, -11367.026, -0.00068042113, 0.0003121228, -1317878.1, 6388.671 
9.255275e+2, 1.7485838e+2, -1226586.3, -1363883.8, -11394.59, 0.00104915, 0.0006180336, -1225647.0, 740.9229 
9.2551595e+2, 1.8484554e+2, -1141531.6, -1282623.8, -11274.493, 0.001117399, 0.0013366786, -1140636.4, -12122.595 
9.255043e+2, 1.9483224e+2, -1050274.8, -1187926.3, -11315.631, -0.0005791295, 0.000540523, -1049350.8, -18706.615 
9.254928e+2, 2.0481846e+2, -965205.1, -1106403.3, -11030.058, -0.0009290498, 0.0006906771, -964348.7, -31569.502 
9.254813e+2, 2.1480423e+2, -873256.4, -1011354.3, -11002.248, 0.00014956828, -0.0002612106, -872385.3, -37466.64 
9.2546993e+2, 2.2478952e+2, -788159.75, -929949.5, -10145.761, 0.00024160747, 0.0006311163, -787437.44, -50374.746 
9.254586e+2, 2.3477438e+2, -696572.5, -834952.4, -10035.71, -0.000759993, 0.0012144884, -695848.5, -56637.316 
9.254475e+2, 2.4475873e+2, -611616.94, -753902.44, -8867.057, -0.00086950464, 0.0012367808, -611066.5, -69701.945 
9.254365e+2, 2.547426e+2, -519398.72, -658471.7, -8777.471, 0.00002582039, -0.0013846119, -518846.9, -75324.375 
9.254257e+2, 2.64726e+2, -434294.56, -577281.9, -7134.783, 0.00026445565, -0.00054320483, -433939.44, -88254.34 
9.254151e+2, 2.7470902e+2, -342365.63, -481812.06, -6902.7056, -0.00026796284, 0.0018565039, -342024.75, -94173.016 
9.254047e+2, 2.8469142e+2, -257938.56, -402049.13, -5043.933, -0.0006698865, 0.0023702222, -257762.23, -107738.37 
9.253946e+2, 2.9467338e+2, -165621.58, -306363.28, -4909.7354, -0.0007031903, -0.0018201026, -165450.5, -113249.4 
9.2538476e+2, 3.0465823e+2, -81343.97, -175039.94, -2465.257, -0.0007046473, -0.0008631121, -81279.15, -81279.15 
9.253753e+2, 3.1464612e+2, -87247.46, -177385.83, -2097.3005, -0.000967818, 0.0039977618, -87198.69, -87198.69 
9.253661e+2, 3.246386e+2, -26600.05, -42501.63, 156.26395, -0.00027583554, -0.0020824524, -26598.514, -26598.514 
9.3569e+2, 3.499951e+1, -2466912.8, -2606212.3, -5796.448, 0.020972135, -0.0028101064, -2466672.0, 130332.71 
9.3567914e+2, 4.4992694e+1, -2381630.3, -2520065.0, -973.63617, -0.027733631, -0.0006235621, -2381623.5, 117448.18 
9.3566984e+2, 5.498566e+1, -2289282.0, -2425223.8, -2251.9639, 0.0015876519, 0.0016797438, -2289244.8, 111895.94 
9.3565977e+2, 6.497821e+1, -2202205.3, -2340704.0, -6780.5728, 0.011440524, 0.0023981885, -2201874.0, 101339.62 
9.3564904e+2, 7.497038e+1, -2110225.5, -2245906.5, -6703.006, 0.0014634139, -0.00043236703, -2109895.0, 95395.26 
9.356382e+2, 8.4962076e+1, -2025590.4, -2165138.0, -8183.633, -0.0025649325, -0.00036928768, -2025112.1, 82259.64 
9.356272e+2, 9.495331e+1, -1934676.4, -2070789.5, -8571.078, -0.0005267066, 0.0005644502, -1934138.8, 75318.914 
9.3561596e+2, 1.049441e+2, -1849218.8, -1988341.4, -10247.257, 0.00078341895, 0.0014027014, -1848468.0, 63079.92 
9.356046e+2, 1.1493446e+2, -1757147.3, -1893391.6, -10179.181, 0.0013397387, 0.00014678501, -1756391.0, 57251.39 
9.3559295e+2, 1.2492433e+2, -1672211.9, -1812467.8, -11420.166, 0.0010252849, 0.00025498477, -1671288.1, 44453.543 
9.3558115e+2, 1.3491373e+2, -1580676.3, -1717743.6, -11733.159, -0.0001582261, -0.00020129787, -1579679.3, 38166.324 
9.3556935e+2, 1.4490269e+2, -1495341.1, -1635410.9, -12565.218, -0.00014664521, 0.00056212425, -1494222.9, 25730.814 
9.355574e+2, 1.5489124e+2, -1404026.8, -1540734.4, -12438.57, 0.0011086956, 0.00046716628, -1402904.3, 19161.65 
9.3554544e+2, 1.6487932e+2, -1318860.6, -1459185.1, -12731.13, 0.0007227848, 0.0008604053, -1317714.9, 6467.831 
9.3553346e+2, 1.7486693e+2, -1226698.1, -1364047.4, -12757.612, -0.001338218, -0.00038475593, -1225523.3, 780.86145 
9.355214e+2, 1.8485408e+2, -1141670.1, -1282822.0, -12871.882, -0.00129355, -0.00022590859, -1140506.0, -12075.921 
9.355094e+2, 1.9484076e+2, -1050392.8, -1188109.5, -12905.67, 0.00096416153, -0.00058228977, -1049193.8, -18633.213 
9.3549746e+2, 2.04827e+2, -965181.06, -1106287.6, -12456.106, 0.0011812637, 0.0002023567, -964089.94, -31394.418 
9.354855e+2, 2.1481277e+2, -873263.8, -1011243.94, -12423.708, -0.00075796695, 0.0001616386, -872154.1, -37319.3 
9.354736e+2, 2.247981e+2, -788027.25, -929566.44, -11688.26, -0.0011518758, 0.0006494312, -787068.56, -50089.793 
9.3546194e+2, 2.3478296e+2, -696426.06, -834557.6, -11586.819, 0.0001006614, -0.00064334966, -695460.9, -56333.77 
9.354504e+2, 2.4476734e+2, -611515.06, -753602.25, -10292.253, 0.00023595494, -0.000101612706, -610773.4, -69493.24 
9.35439e+2, 2.5475127e+2, -519330.0, -658190.8, -10196.119, -0.0008934413, 0.00043548748, -518585.34, -75147.64 
9.354277e+2, 2.6473472e+2, -434000.34, -576560.5, -8655.28, -0.0012214298, 0.0011313385, -433476.75, -87876.88 
9.354167e+2, 2.7471772e+2, -342073.16, -481076.78, -8433.248, -0.00064713985, -0.00028510572, -341563.38, -93797.03 
9.354059e+2, 2.8470019e+2, -257849.84, -401701.66, -6499.204, -0.00023747572, 0.00043894755, -257556.8, -107618.75 
9.3539536e+2, 2.946822e+2, -165542.44, -306025.2, -6350.6006, 0.00022532653, 0.000979531, -165255.94, -113141.32 
9.353851e+2, 3.0466712e+2, -80888.836, -173930.53, -3925.2683, 0.000086412256, 0.0015846221, -80723.53, -80723.53 
9.3537515e+2, 3.14655e+2, -86800.74, -176260.28, -3558.0361, -0.0010205193, 0.00029220743, -86659.45, -86659.45 
9.3536556e+2, 3.2464758e+2, -26907.846, -42924.566, -1401.4766, -0.0011425278, 0.00056948204, -26786.14, -26786.14 
9.457019e+2, 3.5008952e+1, -2471207.5, -2607386.0, -3221.5654, 0.02396204, -0.003974624, -2471131.5, 125780.94 
9.4569105e+2, 4.5002225e+1, -2367047.3, -2513905.0, -2763.721, -0.033479955, 0.0072168796, -2366995.3, 131983.0 
9.4568104e+2, 5.4995e+1, -2285530.8, -2424433.8, -2368.889, 0.0026492614, 0.00029329397, -2285490.5, 115558.68 
9.4567055e+2, 6.498746e+1, -2202332.5, -2341170.8, -4599.257, 0.014261627, -0.001449079, -2202180.3, 100942.55 
9.456594e+2, 7.4979645e+1, -2108048.3, -2245262.0, -5001.873, 0.00073778885, 0.00007667564, -2107866.3, 97333.41 
9.4564813e+2, 8.497131e+1, -2022514.0, -2164151.8, -7187.9995, -0.0040404405, 0.0014485476, -2022150.1, 85131.19 
9.4563663e+2, 9.496248e+1, -1931971.4, -2070003.0, -7222.959, 0.000098500765, 0.0006052553, -1931594.4, 77773.42 
9.45625e+2, 1.04953215e+2, -1846917.9, -1987506.5, -8654.34, 0.0018045321, 0.00068843993, -1846387.1, 65071.36 
9.456131e+2, 1.1494355e+2, -1755508.3, -1892889.0, -8948.072, 0.0010115866, -0.0002593328, -1754927.9, 58625.35 
9.4560105e+2, 1.2493341e+2, -1670929.4, -1812104.8, -10243.238, 0.00037627466, 0.00020242292, -1670190.1, 45462.617 
9.4558895e+2, 1.3492277e+2, -1579532.4, -1717449.1, -10143.002, -0.00008198901, 0.00011588667, -1578790.4, 38966.426 
9.455766e+2, 1.4491172e+2, -1494147.5, -1634931.1, -10948.379, 0.00016640585, 0.0009232016, -1493301.1, 26564.012 
9.4556427e+2, 1.5490027e+2, -1402776.3, -1540214.1, -11115.105, 0.0011342445, 0.00056292315, -1401883.1, 20094.346 
9.455518e+2, 1.6488832e+2, -1318066.4, -1458960.8, -11507.247, 0.0006907878, 0.00078259595, -1317132.8, 6961.732 
9.4553936e+2, 1.7487593e+2, -1226881.8, -1364289.1, -11563.875, -0.0012021173, -0.0005502739, -1225915.4, 300.649 
9.4552684e+2, 1.8486306e+2, -1141985.8, -1282837.4, -11660.133, -0.0012183512, -0.000300231, -1141027.1, -12685.135 
9.455144e+2, 1.9484977e+2, -1050339.9, -1187953.9, -11537.116, 0.0007723116, -0.00039116095, -1049379.4, -18907.021 
9.4550204e+2, 2.0483601e+2, -965309.8, -1106223.6, -10988.65, 0.0009717049, 0.00047829968, -964458.06, -31850.885 
9.4548965e+2, 2.148218e+2, -874121.56, -1011539.44, -10944.393, -0.00072270154, 0.00036347413, -873255.4, -38508.98 
9.4547737e+2, 2.2480713e+2, -789134.7, -929914.25, -10222.418, -0.0010373696, 0.0007612424, -788396.25, -51506.08 
9.454652e+2, 2.3479201e+2, -697314.5, -834805.75, -10207.23, 0.000109025146, -0.00066642754, -696560.8, -57522.43 
9.4545317e+2, 2.4477641e+2, -612473.7, -753657.94, -8913.849, 0.00025089624, 0.000075083524, -611913.1, -70721.91 
9.4544137e+2, 2.5476038e+2, -521002.1, -658586.44, -8718.172, -0.000762345, 0.0011800575, -520451.88, -77103.51 
9.454297e+2, 2.6474386e+2, -436206.9, -577262.3, -7223.202, -0.0011690244, 0.0016497513, -435837.97, -90327.734 
9.4541824e+2, 2.747269e+2, -344511.66, -481923.16, -7162.158, -0.00090054923, -0.0008543381, -344139.34, -96462.836 
9.45407e+2, 2.8470942e+2, -260182.36, -402148.03, -5081.763, -0.00044181154, -0.00013308511, -260000.69, -110152.914 
9.45396e+2, 2.9469147e+2, -167883.31, -306468.63, -4673.074, 0.0004600308, 0.0016292826, -167725.92, -115702.3 
9.4538534e+2, 3.0467644e+2, -83668.71, -174750.19, -2337.6226, 0.00034770707, 0.0019913674, -83608.76, -83608.76 
9.4537497e+2, 3.1466436e+2, -90254.07, -177407.13, -2208.2803, -0.0011577532, -0.001184482, -90198.16, -90198.16 
9.453649e+2, 3.2465705e+2, -30373.354, -43592.72, 180.10416, -0.0011515963, 0.0017903296, -30370.9, -30370.9 
9.557134e+2, 3.5018307e+1, -2467116.5, -2600583.5, 6791.936, 0.0014283533, -0.0016925995, -2466771.8, 130049.164 
9.5570385e+2, 4.5011902e+1, -2367951.0, -2513080.5, -6717.538, -0.0010186442, 0.015279981, -2367640.8, 131242.7 
9.556924e+2, 5.500468e+1, -2284692.8, -2422719.0, -6347.3506, 0.0019572496, -0.002732036, -2284401.3, 116552.836 
9.556811e+2, 6.499713e+1, -2202415.3, -2342287.0, -5358.8896, 0.0021724605, -0.0067396876, -2202210.3, 100818.03 
9.556698e+2, 7.498927e+1, -2108696.0, -2246649.8, -5748.817, -0.00081806205, 0.0013081772, -2108457.0, 96648.29 
9.556582e+2, 8.4980905e+1, -2022672.1, -2164251.8, -8894.664, -0.0007767448, 0.0041056494, -2022115.5, 85071.79 
9.556462e+2, 9.497203e+1, -1931965.3, -2070024.5, -8940.508, 0.0024199297, -0.00045434127, -1931388.6, 77885.49 
9.556341e+2, 1.0496273e+2, -1847361.1, -1988534.4, -10169.826, 0.0024608423, -0.0013830194, -1846632.3, 64733.016 
9.556218e+2, 1.1495301e+2, -1756008.0, -1893947.0, -10450.552, -0.0007196538, -0.00053142663, -1755220.8, 58239.867 
9.5560926e+2, 1.2494284e+2, -1670734.1, -1811720.0, -11758.759, -0.0012444797, 0.00075884484, -1669760.1, 45800.066 
9.555967e+2, 1.3493225e+2, -1579343.9, -1717066.8, -11674.997, 0.0009809926, 0.00039971163, -1578361.3, 39302.863 
9.5558393e+2, 1.4492117e+2, -1494495.5, -1635627.8, -12504.553, 0.0012932498, 0.00073884125, -1493396.1, 26376.398 
9.555711e+2, 1.5490966e+2, -1403110.4, -1540922.0, -12660.226, -0.00037734007, -0.0002445304, -1401957.0, 19928.37 
9.5555824e+2, 1.648977e+2, -1318217.0, -1459235.6, -13099.838, -0.0005247809, 0.00020514196, -1317010.5, 6992.206 
9.555453e+2, 1.7488529e+2, -1227027.1, -1364567.3, -13153.37, 0.0009496871, -0.000036047437, -1225780.5, 343.7445 
9.555324e+2, 1.8487243e+2, -1141787.5, -1282400.6, -13136.183, 0.0008440648, 0.0008341137, -1140570.8, -12320.66 
9.555195e+2, 1.9485918e+2, -1050164.3, -1187508.4, -13021.831, -0.0008919669, 0.0008643913, -1048940.5, -18560.36 
9.5550656e+2, 2.0484543e+2, -965278.56, -1106065.8, -12605.623, -0.0011833634, 0.0013766505, -964158.75, -31643.938 
9.5549375e+2, 2.1483122e+2, -874087.0, -1011385.44, -12562.306, 0.00006648659, 0.0003794175, -872947.06, -38293.016 
9.55481e+2, 2.2481656e+2, -789146.56, -929889.7, -11708.629, 0.00028078462, 0.0009527528, -788179.1, -51381.402 
9.554684e+2, 2.3480146e+2, -697355.75, -834797.9, -11687.365, -0.0006427969, 0.00084360107, -696369.0, -57423.152 
9.55456e+2, 2.4478589e+2, -612217.3, -753006.75, -10512.976, -0.00068690884, 0.0015168731, -611436.6, -70338.2 
9.554437e+2, 2.547699e+2, -520740.1, -657917.75, -10325.068, 0.0002134338, 0.0010088788, -519967.28, -76712.11 
9.554315e+2, 2.647534e+2, -436185.0, -577142.2, -8807.716, 0.00011695968, 0.0011973422, -435636.78, -90219.98 
9.554196e+2, 2.7473646e+2, -344491.22, -481818.5, -8739.726, -0.0011036826, -0.00007603659, -343937.25, -96354.38 
9.55408e+2, 2.8471902e+2, -259586.84, -400843.3, -6526.3057, -0.0012352497, 0.00046702533, -259285.95, -109532.3 
9.5539653e+2, 2.9470113e+2, -167333.06, -305145.5, -6125.3716, 0.000040588246, 0.00044240558, -167061.34, -115132.63 
9.5538545e+2, 3.046862e+2, -83667.58, -174531.0, -3981.7024, 0.00009533809, 0.0006710424, -83493.43, -83493.43 
9.553746e+2, 3.1467414e+2, -90240.61, -177216.0, -3833.765, -0.0014406238, -0.00070073426, -90071.945, -90071.945 
9.55364e+2, 3.2466692e+2, -29147.113, -40885.457, -1382.4216, -0.00050522154, 0.0017101492, -28986.504, -28986.504 
9.657257e+2, 3.5028553e+1, -2448589.3, -2592332.8, 6689.8604, -0.014460631, 0.0015472755, -2448278.5, 148441.9 
9.657157e+2, 4.5021993e+1, -2386812.8, -2521982.3, -3466.6501, 0.023362326, 0.0053071296, -2386723.8, 112060.76 
9.6570385e+2, 5.5014914e+1, -2280901.3, -2420555.5, -3644.5142, 0.00024381132, -0.0013512135, -2280806.3, 120047.67 
9.656921e+2, 6.500737e+1, -2191938.5, -2337973.5, -4333.6016, -0.007319061, -0.002260536, -2191810.0, 111117.87 
9.6568036e+2, 7.499939e+1, -2105996.0, -2246157.5, -4588.159, 0.00007438099, 0.0007379626, -2105846.0, 99160.05 
9.656683e+2, 8.4990954e+1, -2022460.4, -2164423.5, -7178.666, 0.003071168, 0.002112357, -2022098.4, 84990.42 
9.6565586e+2, 9.4982076e+1, -1929690.9, -2069178.9, -7369.1636, 0.0017571381, -0.00026092347, -1929302.6, 79873.1 
9.656432e+2, 1.0497275e+2, -1844606.9, -1987689.1, -8829.667, 0.0006760927, -0.00044996775, -1844064.0, 67203.086 
9.656305e+2, 1.1496297e+2, -1754105.6, -1893532.8, -8938.018, -0.00022005386, -0.00029471063, -1753535.0, 59827.914 
9.6561754e+2, 1.2495277e+2, -1669237.3, -1811113.6, -10219.524, -0.00022272524, 0.00068149576, -1668504.9, 46957.926 
9.656044e+2, 1.3494217e+2, -1578268.6, -1716654.4, -10379.663, 0.0007069395, 0.0003792516, -1577494.4, 40072.42 
9.6559125e+2, 1.449311e+2, -1493697.3, -1635439.8, -11202.702, 0.00064412924, 0.0006851907, -1492817.4, 26858.078 
9.6557796e+2, 1.5491953e+2, -1402337.1, -1540743.0, -11180.841, -0.0004558803, -0.00041528314, -1401439.8, 20348.785 
9.655646e+2, 1.6490756e+2, -1317406.8, -1458899.8, -11566.45, -0.0003132751, 0.000200816, -1316467.5, 7438.45 
9.6555126e+2, 1.7489515e+2, -1226423.9, -1364300.4, -11517.318, 0.0011663627, 0.00042131793, -1225468.5, 559.02765 
9.6553785e+2, 1.8488231e+2, -1141569.4, -1282255.1, -11481.992, 0.00093903614, 0.0012746856, -1140638.4, -12485.037 
9.655245e+2, 1.9486906e+2, -1050552.0, -1187671.8, -11569.349, -0.0010536701, 0.0008197023, -1049582.8, -19299.271 
9.655111e+2, 2.0485531e+2, -965823.56, -1106144.8, -11261.391, -0.0013428741, 0.0011052607, -964925.56, -32507.482 
9.6549785e+2, 2.1484111e+2, -874483.94, -1011418.75, -11195.007, 0.00018365752, 0.00010423782, -873574.7, -39017.605 
9.654847e+2, 2.2482647e+2, -789813.06, -929965.3, -10263.465, 0.00046019125, 0.00085000927, -789065.44, -52364.82 
9.654716e+2, 2.3481138e+2, -698813.9, -835262.9, -10121.657, -0.0006532506, 0.0011445294, -698067.1, -59218.664 
9.654587e+2, 2.4479584e+2, -613988.9, -753511.06, -8931.983, -0.00085704966, 0.0015707568, -613419.4, -72418.555 
9.6544594e+2, 2.5477988e+2, -522496.16, -658427.2, -8850.523, -0.000049828017, 0.00008520249, -521922.34, -78764.95 
9.6543336e+2, 2.6476339e+2, -437865.2, -577519.6, -7253.867, 0.00008048847, 0.0005147435, -437489.44, -92170.8 
9.6542096e+2, 2.747465e+2, -346042.7, -482146.53, -7002.145, -0.0006014677, 0.00082433847, -345683.4, -98199.18 
9.654088e+2, 2.8472912e+2, -261597.06, -401253.84, -4898.351, -0.00082946045, 0.0012835208, -261425.47, -111770.86 
9.65397e+2, 2.947113e+2, -170608.67, -306208.72, -4807.8423, -0.0003923736, -0.00066505326, -170438.42, -118609.055 
9.653854e+2, 3.0469638e+2, -87266.61, -175483.1, -2599.1553, -0.00054907694, -0.0000027864103, -87190.1, -87190.1 
9.653741e+2, 3.1468445e+2, -93328.48, -177924.42, -2087.9155, -0.0015409014, 0.0017634623, -93276.98, -93276.98 
9.653631e+2, 3.2467726e+2, -32093.373, -41950.516, 46.72509, 0.00009715607, 0.00019609414, -32093.152, -32093.152 
9.757387e+2, 3.5039508e+1, -2453042.0, -2599324.3, -10414.066, -0.02532404, 0.005342453, -2452304.3, 144308.48 
9.7572696e+2, 4.5032436e+1, -2384967.0, -2521537.3, -1218.5986, 0.040934402, -0.018179387, -2384956.3, 113725.91 
9.7571546e+2, 5.50256e+1, -2281151.0, -2421097.0, -1444.28, -0.0022863038, 0.0034481294, -2281136.0, 119613.21 
9.757035e+2, 6.501808e+1, -2192987.3, -2339151.5, -7212.1787, -0.014806067, 0.009666721, -2192632.3, 110190.74 
9.756911e+2, 7.50099e+1, -2106353.3, -2246992.8, -7446.0186, 0.002804585, -0.0012337785, -2105960.0, 98942.945 
9.7567844e+2, 8.500138e+1, -2022501.3, -2164897.0, -8307.708, 0.007279067, -0.0034359933, -2022018.3, 84968.375 
9.7566557e+2, 9.499253e+1, -1929973.5, -2069788.0, -8505.687, -0.0012779909, 0.00093295524, -1929458.0, 79615.33 
9.756525e+2, 1.0498319e+2, -1844835.4, -1988065.1, -10563.809, -0.0030364506, 0.002830271, -1844060.5, 67104.37 
9.756393e+2, 1.14973366e+2, -1754282.6, -1893880.6, -10667.526, 0.0020068232, 0.0003369273, -1753472.3, 59788.92 
9.756259e+2, 1.2496312e+2, -1669506.5, -1811722.6, -11839.936, 0.0028210713, 0.00011255231, -1668527.5, 46833.996 
9.756123e+2, 1.3495247e+2, -1578516.9, -1717255.5, -11997.607, -0.00066395465, 0.00012480773, -1577487.0, 39978.87 
9.7559863e+2, 1.4494137e+2, -1493660.5, -1635392.3, -12733.418, -0.0014388207, 0.0007523854, -1492525.6, 27048.936 
9.755849e+2, 1.5492985e+2, -1402340.4, -1540735.8, -12719.686, 0.0005871856, -0.00007024943, -1401181.1, 20506.543 
9.755711e+2, 1.6491786e+2, -1317406.5, -1458783.6, -13209.541, 0.0009984707, 0.0006634918, -1316182.9, 7622.05 
9.755572e+2, 1.7490548e+2, -1226392.9, -1364182.9, -13168.186, -0.00021964234, 0.0008301029, -1225145.8, 780.69995 
9.755433e+2, 1.8489261e+2, -1141770.5, -1282615.8, -13125.459, -0.0005842225, 0.001155897, -1140557.8, -12505.271 
9.755295e+2, 1.9487931e+2, -1050761.6, -1188046.5, -13203.955, -0.00002537557, -0.00028484745, -1049503.3, -19320.328 
9.7551566e+2, 2.0486557e+2, -965747.7, -1105909.4, -12822.898, 0.00008219664, -0.00011803003, -964584.25, -32266.723 
9.7550195e+2, 2.148514e+2, -874425.6, -1011176.75, -12758.545, -0.00029265133, -0.00041454379, -873245.5, -38789.15 
9.754883e+2, 2.2483678e+2, -789607.25, -929463.25, -11947.811, -0.00034223273, 0.0004912596, -788593.9, -51994.32 
9.754747e+2, 2.3482174e+2, -698605.06, -834749.5, -11812.965, -0.000089810856, 0.00043686767, -697587.7, -58840.633 
9.754613e+2, 2.4480622e+2, -613911.75, -753249.1, -10527.917, -0.00044026473, 0.00047180717, -613120.75, -72221.62 
9.754481e+2, 2.5479025e+2, -522443.25, -658177.9, -10447.714, -0.0013973282, -0.0014698595, -521643.78, -78588.18 
9.754351e+2, 2.6477385e+2, -437535.78, -576694.2, -8800.8125, -0.0011250026, -0.00035653368, -436981.4, -91764.99 
9.7542226e+2, 2.7475703e+2, -345738.38, -481323.47, -8550.031, 0.00045094674, 0.0018260994, -345201.3, -97820.07 
9.754096e+2, 2.8473967e+2, -261642.86, -401127.72, -6681.0044, 0.0005417701, 0.0022916745, -261323.58, -111772.29 
9.753973e+2, 2.9472184e+2, -170651.52, -306085.75, -6587.0625, -0.00089516223, -0.0017030456, -170331.9, -118605.72 
9.753852e+2, 3.0470696e+2, -86541.195, -173866.45, -4104.4253, -0.0015753936, -0.00010875905, -86348.71, -86348.71 
9.7537345e+2, 3.1469518e+2, -92602.24, -176281.92, -3588.3105, -0.0015376447, 0.0058882525, -92448.65, -92448.65 
9.7536206e+2, 3.2468793e+2, -32965.305, -43539.996, -1449.4738, 0.00058256206, -0.0026317849, -32770.223, -32770.223 
9.8575157e+2, 3.5051003e+1, -2464318.0, -2607829.5, -7158.9365, -0.0015227576, 0.0034416683, -2463961.8, 132538.42 
9.857389e+2, 4.5043793e+1, -2356008.5, -2508960.8, 739.88824, 0.0071401214, -0.0131604485, -2356005.0, 142565.88 
9.857272e+2, 5.5036753e+1, -2278834.8, -2421648.3, -173.1056, -0.0005627334, 0.0028457332, -2278834.5, 121805.445 
9.8571485e+2, 6.5029126e+1, -2198571.3, -2342117.3, -5691.9, -0.0021218262, 0.0075777504, -2198346.0, 104368.69 
9.8570186e+2, 7.5020957e+1, -2103058.3, -2245623.3, -5715.093, 0.0022290691, -0.00072971405, -2102829.5, 101965.266 
9.8568875e+2, 8.50124e+1, -2016781.3, -2162757.5, -6721.14, 0.0026719987, -0.0023577118, -2016472.4, 90406.19 
9.856754e+2, 9.500348e+1, -1927788.4, -2069377.1, -7019.1655, -0.00085518026, 0.0006078731, -1927441.3, 81524.73 
9.856619e+2, 1.04994096e+2, -1843779.1, -1987707.4, -9057.218, -0.0012336125, 0.002307759, -1843211.4, 67846.64 
9.8564816e+2, 1.1498426e+2, -1752614.4, -1893221.9, -9102.691, 0.0015715744, 0.00075441494, -1752027.5, 61126.785 
9.8563427e+2, 1.2497399e+2, -1667690.5, -1811227.5, -10206.994, 0.0019164298, 0.0006010354, -1666968.3, 48286.668 
9.856202e+2, 1.349633e+2, -1576685.6, -1716750.1, -10330.968, -0.00029810768, -0.000121558514, -1575927.8, 41431.914 
9.85606e+2, 1.4495218e+2, -1492115.4, -1634755.0, -11156.876, -0.00077315245, 0.00049212074, -1491248.0, 28220.723 
9.8559177e+2, 1.5494065e+2, -1401817.8, -1540563.6, -11221.013, 0.0005834575, 0.00034942603, -1400916.0, 20665.713 
9.855775e+2, 1.6492866e+2, -1317272.6, -1458696.0, -11711.792, 0.00066482235, 0.0010941314, -1316309.3, 7389.86 
9.8556316e+2, 1.7491625e+2, -1226152.1, -1364057.3, -11730.551, -0.0005623033, 0.00062682695, -1225161.5, 659.2528 
9.8554885e+2, 1.849034e+2, -1141555.6, -1282504.6, -11677.309, -0.0006977159, 0.00082934374, -1140594.8, -12647.978 
9.855345e+2, 1.9489011e+2, -1050757.5, -1188038.1, -11587.772, 0.00035528222, -0.00023001892, -1049786.3, -19709.162 
9.855202e+2, 2.0487636e+2, -966085.5, -1105979.6, -11125.351, 0.00045693445, 0.00017160838, -965206.25, -32994.555 
9.85506e+2, 2.1486221e+2, -875333.8, -1011531.7, -11124.71, -0.00045389787, -0.000020812828, -874431.1, -40080.742 
9.854918e+2, 2.2484761e+2, -790634.75, -929642.2, -10382.338, -0.00062668935, 0.00067864096, -789863.56, -53370.07 
9.854778e+2, 2.3483258e+2, -699492.56, -834875.2, -10317.801, -0.00005338366, 0.00007716337, -698710.75, -60069.957 
9.854639e+2, 2.4481708e+2, -615001.2, -753521.75, -9051.004, -0.00019953541, 0.00024123039, -614412.25, -73619.625 
9.854502e+2, 2.5480115e+2, -524065.06, -658717.75, -8942.637, -0.0011245706, -0.0008221606, -523473.75, -80524.95 
9.854367e+2, 2.6478475e+2, -439531.22, -577087.3, -7261.5464, -0.001107413, 0.00013518908, -439148.97, -94039.69 
9.854234e+2, 2.74768e+2, -348423.2, -482045.5, -7051.049, -0.00007257584, 0.00101833, -348052.16, -100778.46 
9.8541033e+2, 2.847507e+2, -264519.9, -402058.75, -5163.305, 0.00012207174, 0.0015982391, -264326.34, -114883.086 
9.8539746e+2, 2.947329e+2, -173041.14, -306792.8, -4847.7817, -0.00054717244, -0.0007312716, -172865.67, -121248.07 
9.8538494e+2, 3.047181e+2, -88778.81, -174193.38, -2280.3733, -0.0010744228, 0.00040873644, -88717.98, -88717.98 
9.853727e+2, 3.1470636e+2, -95417.49, -176881.69, -2096.6047, -0.0014687956, 0.0036144108, -95363.57, -95363.57 
9.8536086e+2, 3.246992e+2, -36939.46, -45246.336, 166.98392, 0.00037724923, -0.0015815819, -36936.105, -36936.105 
9.957645e+2, 3.506294e+1, -2464503.5, -2609131.3, 4595.085, 0.047103416, -0.0024487772, -2464357.8, 132025.56 
9.957514e+2, 4.5055878e+1, -2359141.3, -2513122.0, -4487.9146, -0.06523375, 0.0133163985, -2359010.5, 139442.14 
9.957391e+2, 5.504829e+1, -2280453.5, -2425009.3, -5248.161, 0.0044714315, -0.0019181742, -2280263.3, 120263.58 
9.957261e+2, 6.5040475e+1, -2197975.3, -2341800.8, -6081.0054, 0.025606344, -0.0050896187, -2197718.8, 104884.78 
9.957127e+2, 7.5032455e+1, -2102981.8, -2245562.8, -6144.8237, -0.0009715945, 0.0017216081, -2102717.5, 101964.555 
9.956991e+2, 8.50239e+1, -2017430.4, -2163867.5, -8826.8125, -0.008665759, 0.0037904733, -2016900.3, 89865.695 
9.9568534e+2, 9.5014834e+1, -1928285.3, -2070421.9, -9100.023, 0.0022142918, -0.00090033247, -1927705.0, 81149.69 
9.9567133e+2, 1.0500538e+2, -1843764.0, -1987773.6, -10598.651, 0.0047530932, -0.0011374166, -1842988.3, 67959.07 
9.95657e+2, 1.1499559e+2, -1752627.1, -1893297.4, -10659.646, -0.0009851848, 0.0010262665, -1751823.9, 61219.395 
9.9564266e+2, 1.24985315e+2, -1667912.5, -1811703.5, -11826.828, -0.0021016493, 0.0019315908, -1666946.1, 48197.867 
9.956282e+2, 1.3497458e+2, -1576959.0, -1717256.4, -11941.118, 0.0014137247, -0.00035699437, -1575949.9, 41299.414 
9.956135e+2, 1.4496343e+2, -1492306.1, -1635077.3, -12949.224, 0.0020208037, -0.000013771295, -1491141.1, 28217.436 
9.9559873e+2, 1.5495187e+2, -1401937.5, -1540866.3, -13015.429, -0.00029045998, 0.00083476683, -1400728.6, 20743.094 
9.95584e+2, 1.6493988e+2, -1317325.0, -1458772.8, -13307.1875, -0.0010127457, 0.0015114599, -1316084.0, 7505.2466 
9.9556917e+2, 1.7492746e+2, -1226243.4, -1364171.5, -13330.827, -0.000096705815, -0.000066980436, -1224966.9, 744.171 
9.955543e+2, 1.8491462e+2, -1141449.4, -1282206.6, -13362.4, 0.00029151543, 0.0003432237, -1140192.0, -12355.153 
9.955395e+2, 1.9490133e+2, -1050644.9, -1187739.8, -13280.515, 0.00016052432, 0.000771019, -1049370.3, -19403.355 
9.955247e+2, 2.0488761e+2, -966135.9, -1105998.0, -12842.505, -0.000076437485, 0.001700867, -964966.44, -32865.074 
9.9551e+2, 2.1487346e+2, -875396.3, -1011549.0, -12837.473, -0.000386994, 0.0011263698, -874196.44, -39956.316 
9.954954e+2, 2.2485887e+2, -790562.9, -929421.7, -12019.47, -0.00052441296, 0.0013233877, -789530.2, -53146.953 
9.9548084e+2, 2.3484384e+2, -699435.94, -834663.3, -11957.192, -0.0005011045, 0.0000032840042, -698386.75, -59856.367 
9.954665e+2, 2.4482839e+2, -614892.9, -753156.4, -10771.519, -0.00015237746, 0.000739099, -614058.75, -73376.78 
9.954523e+2, 2.5481248e+2, -523958.44, -658354.0, -10662.642, 0.00046238196, 0.001671648, -523117.75, -80280.06 
9.954382e+2, 2.6479614e+2, -439264.97, -576429.9, -8970.77, -0.000137822, 0.0017647375, -438680.75, -93682.89 
9.9542445e+2, 2.7477935e+2, -348163.03, -481387.28, -8770.5625, -0.001994581, -0.0013202286, -347588.13, -100425.92 
9.9541086e+2, 2.8476214e+2, -264110.88, -401066.4, -6813.6104, -0.0018563009, -0.0005134972, -263772.75, -114441.59 
9.9539757e+2, 2.9474443e+2, -172643.1, -305802.3, -6497.519, 0.0004783197, 0.00195388, -172326.8, -120822.46 
9.953846e+2, 3.047297e+2, -88691.14, -173874.28, -3931.0789, 0.00067025993, 0.0014256056, -88510.11, -88510.11 
9.953719e+2, 3.147179e+2, -95371.96, -176610.6, -3740.4446, -0.0014289006, -0.0042343317, -95200.11, -95200.11 
9.953595e+2, 3.247109e+2, -36218.113, -43477.09, -1633.5472, -0.0005311562, 0.0029331252, -35867.445, -35867.445 
1.0057772e+3, 3.507493e+1, -2449679.8, -2599955.0, 5163.2656, 0.02346891, -0.0044197678, -2449502.5, 146763.31 
1.0057644e+3, 4.506802e+1, -2373102.0, -2519875.5, -4897.354, -0.032402266, 0.017291011, -2372938.8, 125394.97 
1.00575104e+3, 5.506039e+1, -2276106.8, -2422865.3, -4227.764, 0.003144754, -0.002235962, -2275985.0, 124423.3 
1.0057375e+3, 6.505252e+1, -2188553.5, -2337997.8, -3858.7524, 0.013734271, -0.006780704, -2188454.0, 114031.375 
1.0057238e+3, 7.504444e+1, -2100347.8, -2245092.8, -4407.1772, -0.0007081828, 0.0016301255, -2100213.8, 104350.875 
1.0057097e+3, 8.503584e+1, -2016886.6, -2163880.3, -7514.518, -0.004571359, 0.004440733, -2016503.5, 90145.336 
1.0056954e+3, 9.5026755e+1, -1925950.4, -2069551.1, -7499.3184, 0.0020546233, -0.00039605715, -1925559.8, 83178.17 
1.0056808e+3, 1.05017275e+2, -1840962.0, -1986878.3, -8797.97, 0.0033460613, -0.0010715249, -1840433.5, 70397.336 
1.0056661e+3, 1.1500742e+2, -1750412.8, -1892690.1, -9078.207, -0.0007377407, 0.00040393538, -1749835.9, 63091.496 
1.0056512e+3, 1.2499712e+2, -1666249.5, -1811014.0, -10398.023, -0.0015248598, 0.0015198534, -1665506.5, 49521.867 
1.00563616e+3, 1.3498637e+2, -1576259.5, -1717020.3, -10383.598, 0.0010346083, 0.00031717398, -1575497.6, 41635.99 
1.005621e+3, 1.4497522e+2, -1491737.3, -1634941.0, -11241.129, 0.0015097155, 0.00074801303, -1490860.3, 28382.717 
1.00560576e+3, 1.5496364e+2, -1400693.9, -1540376.0, -11261.301, -0.00014296523, 0.00071958324, -1399791.8, 21564.572 
1.0055905e+3, 1.6495165e+2, -1316124.3, -1458374.6, -11593.508, -0.00063810835, 0.0011370815, -1315185.6, 8288.434 
1.0055751e+3, 1.7493922e+2, -1225919.4, -1364161.0, -11662.266, 0.00010372912, -0.00010553976, -1224942.5, 653.43787 
1.0055598e+3, 1.8492635e+2, -1141467.8, -1282093.5, -11731.056, 0.0002997159, 0.00047316717, -1140495.9, -12774.0205 
1.0055445e+3, 1.949131e+2, -1050823.5, -1187708.3, -11730.615, -0.00006990629, 0.00091660337, -1049825.5, -19973.684 
1.0055292e+3, 2.0489939e+2, -966439.1, -1105984.4, -11313.775, -0.00025285347, 0.001714894, -965527.8, -33541.707 
1.005514e+3, 2.1488523e+2, -875935.25, -1011658.5, -11205.094, -0.00020800199, 0.00089332164, -875016.44, -40891.645 
1.00549884e+3, 2.2487065e+2, -791445.7, -929640.5, -10276.878, -0.00027668668, 0.0011524243, -790685.6, -54417.94 
1.0054838e+3, 2.3485565e+2, -700745.1, -835115.94, -10212.453, -0.0004874351, 0.00018773112, -699973.4, -61558.7 
1.005469e+3, 2.448402e+2, -616316.9, -753433.7, -9013.811, -0.00026358527, 0.0010018812, -615726.9, -75160.9 
1.0054542e+3, 2.5482437e+2, -525525.3, -658699.7, -8814.045, 0.0003501199, 0.0017349953, -524944.5, -82223.2 
1.0054397e+3, 2.6480806e+2, -441143.44, -577052.56, -7139.913, -0.000121892925, 0.0017334981, -440769.38, -95888.195 
1.0054254e+3, 2.747913e+2, -350295.5, -482165.9, -7088.4663, -0.0017533834, -0.0013248242, -349915.56, -102870.28 
1.0054114e+3, 2.847741e+2, -266193.9, -401361.22, -5132.519, -0.0015908774, -0.000467835, -265999.28, -116785.516 
1.0053976e+3, 2.947565e+2, -174947.9, -306215.4, -4829.9805, 0.00052793644, 0.0020813034, -174770.42, -123384.125 
1.0053841e+3, 3.047418e+2, -91881.19, -175121.08, -2369.1604, 0.00048922206, 0.0012379613, -91813.81, -91813.81 
1.0053709e+3, 3.1473002e+2, -99556.1, -178329.52, -2176.0403, -0.0017767143, -0.0052200905, -99496.04, -99496.04 
1.00535795e+3, 3.2472312e+2, -39643.613, -42987.395, 116.28857, -0.0006133463, 0.0037416753, -39639.574, -39639.574 
1.0157897e+3, 3.5087013e+1, -2447162.5, -2594117.8, -2673.8472, -0.052397497, -0.0036225917, -2447114.0, 149033.5 
1.01577766e+3, 4.508025e+1, -2371471.8, -2517118.3, -4797.0684, 0.07775015, 0.0045476286, -2371314.0, 126899.56 
1.0157631e+3, 5.507296e+1, -2274748.0, -2420202.5, -4269.801, -0.0033121523, 0.0008638694, -2274622.8, 125662.3 
1.0157488e+3, 6.5065145e+1, -2189530.5, -2339963.3, -6170.144, -0.027820053, -0.00019112563, -2189278.0, 113083.81 
1.0157349e+3, 7.5056845e+1, -2101309.5, -2247041.8, -6660.786, 0.0022529783, -0.00041952773, -2101005.8, 103437.35 
1.0157204e+3, 8.5048175e+1, -2016776.8, -2163709.8, -9074.884, 0.011127093, 0.0009267782, -2016218.4, 90309.68 
1.0157055e+3, 9.503915e+1, -1925800.9, -2069366.0, -9086.689, -0.0006777067, 0.0016886722, -1925228.0, 83388.48 
1.01569034e+3, 1.0502964e+2, -1841420.6, -1987880.6, -10512.563, -0.0037550926, 0.0017030962, -1840669.9, 70039.766 
1.01567514e+3, 1.1501969e+2, -1750944.8, -1893719.3, -10770.492, 0.0016743853, -0.00091357226, -1750136.9, 62670.383 
1.0156598e+3, 1.2500934e+2, -1666252.6, -1810980.3, -12238.851, 0.0025539163, -0.0002237866, -1665225.0, 49683.58 
1.01564415e+3, 1.3499865e+2, -1576184.6, -1716954.8, -12239.104, -0.0010246828, 0.0017188056, -1575128.4, 41885.07 
1.0156286e+3, 1.4498748e+2, -1491755.8, -1635024.3, -12846.344, -0.0016175286, 0.0025202327, -1490613.0, 28509.908 
1.0156128e+3, 1.5497588e+2, -1400784.8, -1540512.1, -12872.546, 0.0007883689, 0.00013624085, -1399608.8, 21627.838 
1.01559706e+3, 1.6496386e+2, -1316340.6, -1458714.6, -13420.952, 0.00132631, 0.00015343113, -1315086.6, 8267.822 
1.0155811e+3, 1.749514e+2, -1226087.8, -1364500.8, -13486.777, 0.00004804731, 0.00039483566, -1224785.9, 690.4367 
1.0155653e+3, 1.8493854e+2, -1141509.9, -1282114.5, -13443.969, -0.000522322, 0.0011178032, -1140236.0, -12633.602 
1.01554945e+3, 1.9492528e+2, -1050889.9, -1187748.5, -13444.535, -0.00036853022, 0.00038061533, -1049581.6, -19849.217 
1.01553366e+3, 2.0491157e+2, -966302.9, -1105572.0, -13074.089, -0.00018168143, 0.0005077628, -965086.2, -33219.484 
1.0155179e+3, 2.1489744e+2, -875780.2, -1011249.6, -12976.453, 0.000023940645, -0.00046924638, -874548.4, -40543.313 
1.0155023e+3, 2.248829e+2, -791356.06, -929412.06, -12031.251, 0.000041137508, 0.00031550354, -790315.4, -54167.723 
1.0154868e+3, 2.3486792e+2, -700693.9, -834890.2, -11965.829, -0.00015276631, 0.000594286, -699635.3, -61340.887 
1.0154714e+3, 2.4485253e+2, -616032.3, -752727.6, -10772.09, -0.0005718125, 0.0010710058, -615188.6, -74743.24 
1.0154562e+3, 2.548367e+2, -525230.6, -657989.9, -10583.556, -0.0012197233, -0.00025414716, -524392.25, -81791.79 
1.0154411e+3, 2.648204e+2, -441151.72, -576963.7, -8927.802, -0.0009569044, 0.0003070143, -440567.34, -95807.37 
1.0154264e+3, 2.748037e+2, -350321.6, -482101.0, -8866.125, 0.0002659463, 0.000650496, -349727.78, -102804.07 
1.0154118e+3, 2.8478655e+2, -265817.34, -400461.75, -6826.702, 0.0005205339, 0.0013974387, -265472.1, -116380.234 
1.01539746e+3, 2.94769e+2, -174586.02, -305313.06, -6530.643, -0.00033637334, 0.0000022756074, -174260.58, -122996.48 
1.01538345e+3, 3.0475432e+2, -91771.63, -174773.4, -4256.044, -0.0014119627, 0.000045127115, -91553.97, -91553.97 
1.01536974e+3, 3.1474262e+2, -99450.31, -177999.3, -4049.9856, -0.0025323418, -0.0002422817, -99242.05, -99242.05 
1.0153563e+3, 3.2473582e+2, -38030.77, -39448.54, -1660.1471, -0.00010221093, 0.001152481, -36934.496, -36934.496 
1.02580324e+3, 3.5100424e+1, -2445637.8, -2595182.0, -863.5948, -0.03521776, 0.0017930475, -2445632.8, 150383.27 
1.0257899e+3, 4.509336e+1, -2364678.3, -2514995.5, 5.3081098, 0.054122947, -0.006431153, -2364678.3, 133406.8 
1.0257754e+3, 5.5086076e+1, -2271077.0, -2419698.8, -1258.583, -0.001993727, 0.0019147975, -2271066.3, 129090.33 
1.0257608e+3, 6.507822e+1, -2186896.3, -2339002.3, -5442.6665, -0.019032564, 0.0044145286, -2186701.8, 115531.9 
1.0257461e+3, 7.5069845e+1, -2098766.0, -2246125.8, -5306.42, 0.0018930109, -0.0004831554, -2098575.0, 105740.516 
1.025731e+3, 8.506112e+1, -2014246.1, -2163002.3, -6857.1924, 0.008002938, -0.0007540479, -2013930.6, 92470.484 
1.02571554e+3, 9.505206e+1, -1922984.1, -2068518.6, -7241.806, -0.00056488026, 0.0013781748, -1922624.6, 85865.31 
1.02570005e+3, 1.0504252e+2, -1838915.8, -1986938.5, -9069.889, -0.0027120025, 0.0022118832, -1838362.1, 72221.29 
1.0256843e+3, 1.1503254e+2, -1749671.8, -1893380.6, -9061.236, 0.0014782388, -0.000100813355, -1749102.6, 63578.63 
1.0256683e+3, 1.2502217e+2, -1665127.9, -1810675.5, -10301.948, 0.002161075, 0.00024605138, -1664402.3, 50380.543 
1.0256524e+3, 1.3501143e+2, -1574175.9, -1716205.6, -10466.929, -0.0006774935, 0.0011886325, -1573408.8, 43479.402 
1.0256361e+3, 1.4500025e+2, -1489917.9, -1634284.5, -11267.134, -0.0012254337, 0.0018325517, -1489043.8, 29953.895 
1.0256199e+3, 1.5498863e+2, -1400313.5, -1540439.1, -11348.546, 0.00056819, 0.00014668072, -1399400.3, 21711.158 
1.0256035e+3, 1.6497661e+2, -1316230.5, -1458604.6, -11796.642, 0.000998203, 0.00052363554, -1315259.6, 7969.669 
1.0255872e+3, 1.7496417e+2, -1225603.0, -1364194.0, -11704.395, 0.00008717293, 0.00079512957, -1224621.4, 729.82275 
1.0255708e+3, 1.849513e+2, -1141149.9, -1281956.3, -11632.095, -0.00034317703, 0.0013838133, -1140195.4, -12718.111 
1.0255545e+3, 1.9493803e+2, -1051228.8, -1187915.0, -11625.524, -0.00024217111, 0.00036112737, -1050247.0, -20639.613 
1.0255381e+3, 2.0492433e+2, -966846.25, -1105707.9, -11228.669, -0.00011925657, 0.0004157448, -965944.1, -34202.51 
1.0255218e+3, 2.1491024e+2, -876200.44, -1011339.0, -11243.521, -0.000016977441, -0.00043842485, -875271.3, -41391.48 
1.0255057e+3, 2.2489569e+2, -791972.94, -929394.6, -10418.915, -0.00003374034, 0.00042620423, -791187.5, -55165.207 
1.02548964e+3, 2.3488075e+2, -702054.5, -835241.1, -10289.654, -0.00019976545, 0.0007947219, -701264.25, -63095.496 
1.0254738e+3, 2.4486536e+2, -617785.6, -753299.25, -9028.87, -0.0005404122, 0.0010562527, -617186.7, -76867.2 
1.025458e+3, 2.5484955e+2, -526957.1, -658574.4, -9019.09, -0.0010474274, -0.00083267165, -526342.0, -83867.62 
1.0254425e+3, 2.648333e+2, -442798.8, -577211.4, -7368.608, -0.0008050973, -0.00006584648, -442396.06, -97762.54 
1.0254271e+3, 2.748167e+2, -352298.06, -482489.0, -6995.3257, 0.0002139478, 0.0013095342, -351923.28, -105126.65 
1.0254121e+3, 2.8479955e+2, -268326.1, -401211.13, -4821.7695, 0.00039815737, 0.0018175319, -268151.34, -119186.97 
1.0253972e+3, 2.94782e+2, -177689.84, -306336.63, -4688.717, -0.00043856815, -0.001182434, -177519.19, -126382.8 
1.0253827e+3, 3.047674e+2, -94810.44, -175305.1, -2414.376, -0.0013607248, -0.00012980086, -94738.086, -94738.086 
1.0253684e+3, 3.1475583e+2, -102358.54, -178458.28, -1829.061, -0.0021178334, 0.0034405729, -102314.6, -102314.6 
1.0253545e+3, 3.24749e+2, -41388.344, -41182.06, 13.537782, -0.00042916962, -0.0012039724, -41181.17, -41181.17 
1.03581764e+3, 3.511486e+1, -2450242.3, -2603484.0, -5606.9624, 0.048116986, 0.010498502, -2450037.3, 145837.14 
1.0358014e+3, 4.5107177e+1, -2365895.8, -2519315.5, -1104.4984, -0.06817644, -0.015947314, -2365887.8, 132061.89 
1.035788e+3, 5.5099654e+1, -2273567.0, -2424527.5, -2188.303, 0.005451591, 0.0014330242, -2273535.3, 126488.22 
1.03577316e+3, 6.50917e+1, -2187008.8, -2338566.8, -7667.6416, 0.026986439, 0.007523947, -2186621.8, 115479.78 
1.0357573e+3, 7.508335e+1, -2098306.0, -2245409.5, -7575.481, -0.001151686, 0.0009718628, -2097917.0, 106266.36 
1.0357416e+3, 8.507458e+1, -2014662.1, -2164261.8, -8369.353, -0.009277282, -0.0010358919, -2014195.4, 92073.91 
1.0357259e+3, 9.50654e+1, -1923692.4, -2069919.0, -8728.797, 0.0017223987, -0.00075640465, -1923173.3, 85185.98 
1.0357098e+3, 1.0505583e+2, -1838967.3, -1986889.9, -11081.808, 0.0044605304, 0.0010110642, -1838141.8, 72311.27 
1.0356935e+3, 1.1504589e+2, -1749562.8, -1893249.8, -11087.02, -0.0007828026, 0.002369693, -1748712.3, 63838.156 
1.035677e+3, 1.250355e+2, -1665368.0, -1811263.0, -11908.397, -0.0017082084, 0.002430866, -1664402.4, 50249.848 
1.0356605e+3, 1.3502467e+2, -1574536.4, -1716868.4, -12067.818, 0.0015295906, -0.000843602, -1573520.5, 43237.81 
1.0356438e+3, 1.4501345e+2, -1490150.0, -1634651.1, -13219.265, 0.0018710727, -0.00075034593, -1488950.6, 29917.598 
1.035627e+3, 1.5500185e+2, -1400467.3, -1540775.4, -13297.43, -0.0006074348, 0.0006519166, -1399218.1, 21763.809 
1.03561014e+3, 1.6498984e+2, -1316063.9, -1458256.0, -13492.9375, -0.0011778023, 0.0019914738, -1314794.9, 8304.925 
1.03559315e+3, 1.749774e+2, -1225492.6, -1363881.5, -13417.727, 0.00016834807, 0.0011225193, -1224203.8, 1017.86346 
1.0355763e+3, 1.8496455e+2, -1141214.8, -1281966.4, -13532.849, 0.00060020696, 0.001356814, -1139925.4, -12577.867 
1.0355593e+3, 1.9495128e+2, -1051251.8, -1187923.5, -13529.091, 0.00018067456, 0.0007671812, -1049925.4, -20447.844 
1.0355425e+3, 2.0493759e+2, -966903.1, -1105754.6, -12956.086, -0.00012446004, 0.0012516833, -965704.56, -34092.785 
1.0355257e+3, 2.1492347e+2, -876316.6, -1011416.5, -12965.982, -0.00032507494, 0.00074714253, -875083.5, -41333.484 
1.035509e+3, 2.2490895e+2, -791794.0, -928910.44, -12355.852, -0.00047217336, 0.0013247342, -790689.44, -54797.125 
1.0354924e+3, 2.3489404e+2, -701821.0, -834732.56, -12238.716, -0.0006089499, 0.00082347885, -700703.44, -62664.95 
1.0354761e+3, 2.4487868e+2, -617794.75, -753267.75, -10768.655, -0.00027823375, 0.0009847339, -616944.1, -76755.04 
1.03545986e+3, 2.5486287e+2, -527019.2, -658578.25, -10751.221, 0.00053507474, -0.0002307391, -526146.4, -83802.516 
1.0354437e+3, 2.6484668e+2, -442244.03, -575922.0, -9213.566, 0.00009041217, 0.00043529473, -441612.0, -97109.43 
1.0354278e+3, 2.748301e+2, -351712.06, -481194.94, -8861.961, -0.0016551312, 0.0008424159, -351108.38, -104443.516 
1.03541225e+3, 2.8481305e+2, -268268.7, -400909.44, -6676.8774, -0.0016623121, 0.0010150048, -267933.44, -119101.37 
1.0353968e+3, 2.9479554e+2, -177660.81, -306073.7, -6535.6035, 0.000052955947, -0.0016201308, -177329.03, -126325.15 
1.03538185e+3, 3.0478102e+2, -93981.88, -173445.38, -4271.83, 0.00030375755, 0.00053744204, -93752.89, -93752.89 
1.0353671e+3, 3.147696e+2, -101495.25, -176563.53, -3700.6875, -0.0007716335, 0.005934279, -101313.26, -101313.26 
1.0353526e+3, 3.2476267e+2, -43152.348, -44661.82, -1695.2983, -0.0016135162, -0.0033303706, -42051.37, -42051.37 
1.0458309e+3, 3.5129097e+1, -2451870.8, -2607042.8, -2456.6045, 0.04074947, 0.0066270656, -2451832.0, 143903.06 
1.045815e+3, 4.5121425e+1, -2349241.8, -2511097.0, -2778.4468, -0.056516934, -0.006571569, -2349194.3, 148616.0 
1.04580045e+3, 5.51138e+1, -2271763.3, -2423668.8, -1880.5725, 0.0040604016, 0.0006327946, -2271739.8, 128145.06 
1.045785e+3, 6.5105784e+1, -2189547.5, -2340498.0, -4681.62, 0.022198226, 0.0038022199, -2189402.5, 112561.05 
1.0457688e+3, 7.509741e+1, -2094181.1, -2244087.8, -5257.8843, -0.00061642926, 0.001305437, -2093996.9, 110048.64 
1.04575254e+3, 8.50886e+1, -2009132.9, -2161968.8, -7089.9565, -0.007278803, 0.00059642567, -2008804.8, 97327.18 
1.0457363e+3, 9.507937e+1, -1922121.3, -2069563.4, -7107.431, 0.001578972, -0.0004696404, -1921779.4, 86442.91 
1.04571976e+3, 1.05069764e+2, -1838235.4, -1986845.3, -9001.824, 0.0037241594, 0.00066528766, -1837692.1, 72624.38 
1.0457028e+3, 1.1505979e+2, -1746821.4, -1892209.4, -9221.139, -0.0006885582, 0.0020593533, -1746238.9, 66175.29 
1.0456858e+3, 1.2504938e+2, -1662652.0, -1810247.4, -10302.872, -0.0014365002, 0.0023561385, -1661936.3, 52579.953 
1.0456687e+3, 1.3503852e+2, -1573890.8, -1716844.9, -10367.122, 0.0013774174, -0.00046920727, -1573142.8, 43479.758 
1.0456515e+3, 1.450273e+2, -1489845.5, -1634552.1, -11297.349, 0.0016896401, -0.00023458348, -1488968.8, 29763.88 
1.045634e+3, 1.5501569e+2, -1399154.5, -1540176.8, -11265.05, -0.0004612154, 0.0010000255, -1398260.3, 22586.217 
1.0456167e+3, 1.6500364e+2, -1314824.0, -1457726.6, -11572.369, -0.00096765865, 0.0020555556, -1313892.9, 9071.48 
1.0455992e+3, 1.749912e+2, -1225412.1, -1363905.1, -11687.525, 0.00018747328, 0.0008250461, -1224432.8, 653.5518 
1.0455818e+3, 1.8497835e+2, -1141352.4, -1281970.4, -11811.262, 0.00054531865, 0.0010076388, -1140367.3, -13154.967 
1.04556434e+3, 1.949651e+2, -1050910.3, -1187688.1, -11766.298, 0.00014822019, 0.0006804637, -1049905.5, -20563.248 
1.045547e+3, 2.049514e+2, -966849.25, -1105590.8, -11200.307, -0.000108497894, 0.0014100488, -965950.94, -34474.6 
1.0455297e+3, 2.1493731e+2, -877525.56, -1011856.25, -11097.371, -0.00022301654, 0.0011309433, -876614.94, -43000.492 
1.0455125e+3, 2.249228e+2, -793205.7, -929395.2, -10379.15, -0.00031949775, 0.0015186028, -792419.2, -56662.6 
1.0454953e+3, 2.349079e+2, -702361.9, -834823.2, -10386.464, -0.00043843538, 0.0004072077, -701552.44, -63649.754 
1.0454783e+3, 2.4489257e+2, -618388.6, -753155.8, -8964.325, -0.00018726026, 0.00069358957, -617794.94, -77741.95 
1.0454615e+3, 2.5487682e+2, -528857.3, -659075.0, -8721.372, 0.00041052123, 0.00037789604, -528275.75, -86068.42 
1.0454448e+3, 2.6486066e+2, -444664.44, -576669.9, -7150.0933, -0.000045326535, 0.0009861477, -444278.28, -99912.58 
1.04542844e+3, 2.748441e+2, -354073.22, -481912.4, -7153.964, -0.0016093265, 0.000332483, -353674.13, -107146.414 
1.04541235e+3, 2.848271e+2, -270665.34, -401464.97, -5094.785, -0.0016290663, 0.0006734797, -270467.2, -121772.734 
1.0453965e+3, 2.9480964e+2, -180487.06, -306850.8, -4715.0063, -0.00011251236, -0.00049646676, -180311.38, -129445.8 
1.0453808e+3, 3.047952e+2, -96831.78, -173998.92, -2430.1426, 0.00016623565, 0.0010145582, -96755.33, -96755.33 
1.0453655e+3, 3.147838e+2, -104071.94, -176990.47, -2281.7744, -0.00060225505, 0.0035453772, -104000.6, -104000.6 
1.0453504e+3, 3.2477695e+2, -46353.723, -46439.36, 259.3982, -0.0013808939, -0.0013986862, -46133.633, -46133.633 
1.05584376e+3, 3.5143244e+1, -2450951.3, -2606453.3, 6909.1113, -0.030875169, -0.0061426423, -2450645.0, 144951.4 
1.05583e+3, 4.5136055e+1, -2349666.0, -2508663.3, -7573.7734, 0.05200257, 0.016575163, -2349306.0, 148361.03 
1.0558128e+3, 5.512842e+1, -2269782.8, -2420046.0, -6779.7085, -0.004323772, -0.0004449719, -2269477.5, 130264.18 
1.0557964e+3, 6.512037e+1, -2189626.5, -2342149.5, -5159.128, -0.02008346, -0.004909291, -2189452.3, 112368.305 
1.0557805e+3, 7.511194e+1, -2095283.3, -2246212.5, -5703.5923, 0.0027091755, 0.0008184404, -2095068.0, 108835.125 
1.0557639e+3, 8.510309e+1, -2009473.0, -2162120.3, -9637.33, 0.009025125, 0.0036623455, -2008867.0, 97122.89 
1.0557467e+3, 9.5093846e+1, -1922002.3, -2069486.6, -9661.113, -0.0005152541, 0.0016629143, -1921372.0, 86708.34 
1.0557295e+3, 1.05084196e+2, -1838429.6, -1987551.9, -10464.949, -0.0030118246, 0.000980264, -1837698.8, 72476.21 
1.0557122e+3, 1.1507415e+2, -1747259.4, -1893027.4, -10681.376, 0.0012054953, -0.00037916773, -1746480.9, 65792.63 
1.0556947e+3, 1.250637e+2, -1662867.0, -1810542.8, -12445.7295, 0.0019405568, 0.00057443965, -1661825.5, 52550.33 
1.05567686e+3, 1.3505287e+2, -1573953.5, -1717073.4, -12508.523, -0.0006482024, 0.0017955942, -1572868.5, 43613.477 
1.05565906e+3, 1.4504164e+2, -1489732.5, -1634393.3, -12962.587, -0.0010582365, 0.0027074362, -1488580.1, 30011.912 
1.05564125e+3, 1.5503001e+2, -1399148.0, -1540084.0, -12947.9375, 0.00069577637, 0.0012239804, -1397968.3, 22737.695 
1.0556233e+3, 1.6501796e+2, -1315116.0, -1458214.1, -13595.855, 0.001077057, 0.0010275253, -1313835.8, 8988.392 
1.0556052e+3, 1.750055e+2, -1225644.9, -1364379.0, -13701.264, 0.000103871746, 0.00005185952, -1224304.6, 641.67554 
1.0555873e+3, 1.8499263e+2, -1141296.6, -1281801.6, -13556.863, -0.00035665845, 0.0004385095, -1140000.5, -12928.175 
1.05556935e+3, 1.9497937e+2, -1050908.1, -1187566.3, -13517.994, -0.000301745, 0.00022325697, -1049583.8, -20381.531 
1.0555514e+3, 2.0496571e+2, -966731.44, -1105204.8, -13252.133, -0.00012852844, 0.0010376388, -965474.6, -34138.5 
1.05553344e+3, 2.1495165e+2, -877334.2, -1011445.75, -13163.486, 0.00017252976, 0.0008695734, -876054.4, -42580.43 
1.0555156e+3, 2.2493716e+2, -793221.5, -929349.6, -12082.694, 0.0002573834, 0.0011552788, -792157.4, -56541.37 
1.05549805e+3, 2.3492225e+2, -702465.56, -834826.7, -12082.635, 0.00013869301, -0.00036369386, -701371.6, -63609.54 
1.0554805e+3, 2.4490693e+2, -618033.75, -752259.0, -11027.767, -0.0003065466, 0.00023246638, -617133.75, -77221.68 
1.0554631e+3, 2.5489128e+2, -528442.9, -658149.44, -10801.9, -0.0011752552, 0.0009844324, -527549.5, -85483.805 
1.0554459e+3, 2.6487514e+2, -444748.47, -576743.9, -8984.993, -0.0011003922, 0.0015739567, -444139.66, -99915.945 
1.05542906e+3, 2.748586e+2, -354186.84, -482026.47, -8976.797, 0.000012069049, -0.00021707488, -353559.6, -107173.66 
1.0554124e+3, 2.8484163e+2, -270128.94, -400252.72, -7034.8984, 0.00013432413, 0.0007310238, -269749.72, -121197.484 
1.0553959e+3, 2.9482427e+2, -179944.17, -305617.78, -6670.584, -0.00092055567, 0.0019363834, -179591.1, -128868.83 
1.0553797e+3, 3.0480984e+2, -96755.88, -173748.78, -4212.796, -0.001602849, 0.0012686859, -96526.055, -96526.055 
1.0553639e+3, 3.1479844e+2, -104044.84, -176791.66, -4058.0854, -0.0015504869, -0.0031456621, -103819.17, -103819.17 
1.0553484e+3, 3.247918e+2, -45370.117, -44092.336, -1526.211, -0.00000277889, 0.004127363, -43076.688, -43076.688 
1.0658578e+3, 3.5158563e+1, -2433295.3, -2595792.3, 6373.161, -0.032126293, -0.007956339, -2433045.8, 162400.6 
1.065843e+3, 4.5151427e+1, -2369967.8, -2519661.8, -2255.3232, 0.052392285, 0.016859338, -2369933.8, 127582.54 
1.0658257e+3, 5.514369e+1, -2263379.0, -2418006.3, -3525.2405, -0.003401568, -0.0001133903, -2263298.8, 136293.27 
1.0658087e+3, 6.513557e+1, -2176143.0, -2336048.0, -4241.149, -0.019465879, -0.0047432776, -2176030.5, 125641.03 
1.06579214e+3, 7.5127083e+1, -2093987.6, -2246090.8, -4210.513, 0.002412434, 0.0007045806, -2093871.1, 109883.55 
1.065775e+3, 8.511819e+1, -2011312.0, -2163403.0, -7337.3306, 0.008572733, 0.0035320343, -2010958.9, 94882.96 
1.0657572e+3, 9.5108926e+1, -1918495.5, -2068130.0, -7593.857, -0.0006074657, 0.0017686962, -1918111.1, 89821.55 
1.0657395e+3, 1.0509924e+2, -1834041.5, -1985818.1, -8726.021, -0.0029188301, 0.0011396324, -1833541.5, 76486.12 
1.0657216e+3, 1.1508914e+2, -1746205.0, -1892935.8, -8852.513, 0.0013698898, -0.00036525817, -1745672.9, 66453.68 
1.0657035e+3, 1.2507868e+2, -1662394.5, -1810411.9, -10445.6, 0.0020901102, 0.00055841636, -1661661.0, 52568.12 
1.06568515e+3, 1.3506784e+2, -1571752.8, -1716088.0, -10482.103, -0.0006416124, 0.001922867, -1570995.5, 45339.918 
1.0656669e+3, 1.4505658e+2, -1487610.1, -1633583.5, -11076.834, -0.0010769118, 0.002732607, -1486774.4, 31671.287 
1.0656484e+3, 1.5504493e+2, -1398800.0, -1540132.1, -11249.103, 0.00078891777, 0.00087067386, -1397910.3, 22649.58 
1.0656299e+3, 1.6503285e+2, -1315111.1, -1458224.9, -11848.919, 0.0011402452, 0.00074187457, -1314136.8, 8541.324 
1.0656113e+3, 1.7502038e+2, -1224931.5, -1364045.9, -11761.841, 0.000004768201, 0.00028631728, -1223944.1, 856.16614 
1.0655928e+3, 1.8500754e+2, -1140748.6, -1281428.3, -11548.637, -0.00041156454, 0.00087480963, -1139806.9, -12880.579 
1.0655742e+3, 1.949943e+2, -1051574.8, -1187753.4, -11517.718, -0.00011092171, 0.0005509643, -1050607.5, -21551.354 
1.0655558e+3, 2.0498064e+2, -967504.8, -1105461.3, -11288.017, 0.00005307216, 0.0010639981, -966587.25, -35397.344 
1.06553726e+3, 2.1496657e+2, -877219.6, -1011259.75, -11303.626, 0.00005540762, 0.00044502382, -876273.06, -42945.4 
1.0655189e+3, 2.249521e+2, -793356.1, -929172.2, -10225.474, 0.00006842366, 0.0009121248, -792590.56, -57121.03 
1.06550075e+3, 2.3493722e+2, -704282.3, -835453.9, -10074.15, 0.00011829959, 0.00015838053, -703513.1, -65897.79 
1.06548265e+3, 2.4492195e+2, -620272.44, -753027.25, -9041.304, -0.00024788763, 0.00085182814, -619659.5, -79894.45 
1.0654647e+3, 2.549063e+2, -529831.94, -658505.06, -9059.531, -0.0011311956, 0.0010505778, -529197.2, -87278.766 
1.0654469e+3, 2.648902e+2, -446017.22, -576951.7, -7221.187, -0.0010544067, 0.0014769592, -445620.2, -101543.99 
1.06542945e+3, 2.7487367e+2, -356277.3, -482620.0, -6922.5884, 0.0000666426, -0.000050381343, -355899.13, -109661.13 
1.06541224e+3, 2.8485674e+2, -272480.66, -400783.88, -4929.932, 0.00023791999, 0.0010008547, -272291.5, -123887.664 
1.0653952e+3, 2.9483947e+2, -182273.97, -306146.1, -4775.6626, -0.0007711688, 0.002126336, -182090.13, -131516.78 
1.06537856e+3, 3.0482507e+2, -99831.52, -174971.95, -2383.7786, -0.0017505023, 0.0011276413, -99755.98, -99755.98 
1.0653621e+3, 3.1481367e+2, -108138.91, -178497.86, -2220.547, -0.002302659, -0.0038798084, -108068.89, -108068.89 
1.0653461e+3, 3.2480717e+2, -49075.867, -43592.7, 416.1084, 0.00026410862, 0.0046378607, -43561.305, -43561.305 
1.0758729e+3, 3.517478e+1, -2432961.8, -2591780.3, -12156.889, 0.015477974, -0.0021426948, -2432036.5, 163250.78 
1.07585475e+3, 4.5167416e+1, -2369680.3, -2523410.5, -25.918703, -0.025857016, 0.00069438847, -2369680.3, 127679.11 
1.0758389e+3, 5.515951e+1, -2266028.5, -2423065.3, -1234.0894, 0.004629927, 0.0013228027, -2266018.8, 133418.1 
1.0758219e+3, 6.5151286e+1, -2176997.0, -2336235.0, -7993.038, 0.012337542, 0.0019373258, -2176596.8, 124920.81 
1.07580386e+3, 7.5142753e+1, -2093684.9, -2245716.5, -7949.494, -0.0007452069, 0.00085278787, -2093270.4, 110330.86 
1.0757859e+3, 8.5133815e+1, -2011306.5, -2164120.8, -8421.861, -0.0043061767, 0.001036475, -2010843.8, 94845.0 
1.07576795e+3, 9.512449e+1, -1918975.8, -2069082.5, -8684.961, 0.0008137128, 0.0003577052, -1918475.0, 89305.18 
1.0757496e+3, 1.05114765e+2, -1834416.8, -1986330.0, -11089.338, 0.0022428131, 0.0012030246, -1833611.5, 76263.95 
1.0757311e+3, 1.1510467e+2, -1746361.3, -1893326.8, -11204.18, 0.00016403747, 0.0015313159, -1745512.0, 66462.46 
1.0757124e+3, 1.2509418e+2, -1662365.3, -1810510.6, -12101.052, -0.00024867422, 0.0018947604, -1661383.4, 52693.95 
1.0756936e+3, 1.350833e+2, -1571857.1, -1716265.3, -12155.56, 0.0009140415, 0.00040122453, -1570841.1, 45342.785 
1.0756747e+3, 1.4507201e+2, -1488020.8, -1634270.1, -13219.7295, 0.0009688456, 0.00052691146, -1486835.4, 31459.105 
1.0756557e+3, 1.5506032e+2, -1399113.4, -1540776.6, -13377.712, -0.0000067928017, 0.00009860748, -1397861.1, 22547.879 
1.07563645e+3, 1.6504824e+2, -1314928.6, -1457869.3, -13638.836, -0.00039307302, 0.0010786048, -1313638.9, 8888.395 
1.07561745e+3, 1.7503582e+2, -1224821.3, -1363734.6, -13567.13, -0.00014793842, 0.0013360317, -1223508.6, 1140.5863 
1.0755983e+3, 1.8502297e+2, -1140750.4, -1281343.4, -13623.418, 0.00016255162, 0.0021208252, -1139442.4, -12667.367 
1.0755792e+3, 1.9500974e+2, -1051529.1, -1187663.1, -13599.914, 0.0005384281, 0.0015184662, -1050183.8, -21278.973 
1.0755601e+3, 2.0499608e+2, -967546.7, -1105465.3, -13097.854, 0.00032493286, 0.0014402515, -966313.8, -35275.215 
1.07554115e+3, 2.1498199e+2, -877313.06, -1011316.1, -13109.739, -0.00053415523, -0.00009372295, -876042.56, -42866.086 
1.0755222e+3, 2.2496755e+2, -793142.06, -928569.56, -12365.989, -0.0008011489, 0.00078899437, -792022.1, -56704.063 
1.0755033e+3, 2.3495273e+2, -704005.9, -834826.1, -12230.239, -0.000452893, 0.001761882, -702872.3, -65409.023 
1.07548475e+3, 2.4493748e+2, -620324.94, -753049.2, -10873.171, -0.00010668053, 0.0023813448, -619440.06, -79827.266 
1.0754662e+3, 2.549218e+2, -529917.75, -658566.75, -10880.624, 0.00022304719, 0.00065667863, -529004.0, -87237.56 
1.0754479e+3, 2.6490572e+2, -445571.22, -575908.3, -9245.67, -0.00016605032, 0.00080947, -444918.63, -100994.766 
1.07542984e+3, 2.7488932e+2, -355812.47, -481581.2, -8963.468, -0.0012630956, 0.00071498274, -355176.84, -109092.04 
1.07541196e+3, 2.8487244e+2, -272330.06, -400348.56, -6873.3193, -0.0011107789, 0.0014300055, -271962.1, -123711.94 
1.0753944e+3, 2.9485518e+2, -182136.67, -305726.47, -6716.6772, 0.0001392355, 0.00037480253, -181772.72, -131353.16 
1.0753772e+3, 3.0484083e+2, -99722.97, -174667.81, -4409.365, -0.00057873776, 0.0006548075, -99464.44, -99464.44 
1.07536025e+3, 3.1482947e+2, -108041.06, -178224.66, -4233.8564, -0.0029844092, 0.0005454757, -107786.58, -107786.58 
1.0753435e+3, 3.24823e+2, -47546.754, -40202.375, -1605.3413, -0.0006099023, 0.0006216845, -39866.813, -39866.813 
1.08588696e+3, 3.5191458e+1, -2446453.3, -2599886.3, -7278.777, 0.022025011, 0.004938422, -2446108.8, 149015.11 
1.08586855e+3, 4.5183823e+1, -2337435.5, -2508630.8, -505.21216, -0.035356455, -0.008217766, -2337434.0, 159764.61 
1.08585194e+3, 5.517591e+1, -2265609.5, -2423967.0, -255.17593, 0.0053626485, 0.0017647904, -2265609.3, 133667.02 
1.08583435e+3, 6.516765e+1, -2184980.3, -2340466.3, -5484.975, 0.016082918, 0.005240915, -2184787.0, 116570.33 
1.08581565e+3, 7.515905e+1, -2088963.3, -2243720.8, -5753.8345, -0.0012207038, 0.0009433566, -2088749.6, 114691.766 
1.08579725e+3, 8.5150063e+1, -2003628.9, -2160907.8, -6623.3096, -0.0058384496, 0.000016151856, -2003350.4, 102179.086 
1.0857787e+3, 9.51407e+1, -1917328.9, -2068825.3, -6802.3647, 0.0012688058, 0.00021435013, -1917024.0, 90597.25 
1.0857599e+3, 1.0513094e+2, -1834280.6, -1986488.0, -9083.517, 0.0031296432, 0.0014737443, -1833740.4, 75976.5 
1.0857406e+3, 1.1512082e+2, -1743770.4, -1892281.6, -9161.368, -0.000017243716, 0.0018205078, -1743207.4, 68608.8 
1.0857213e+3, 1.2511028e+2, -1659635.6, -1809514.1, -10092.737, -0.000684932, 0.0020496056, -1658959.0, 54960.305 
1.085702e+3, 1.3509938e+2, -1571096.0, -1716214.1, -10282.51, 0.0009821564, 0.0002233701, -1570371.0, 45655.203 
1.0856825e+3, 1.4508808e+2, -1487526.8, -1634102.6, -11308.042, 0.0011741932, 0.00041266097, -1486659.5, 31477.512 
1.08566284e+3, 1.5507638e+2, -1397647.9, -1540126.0, -11220.021, -0.00003901263, 0.00050836237, -1396769.8, 23481.863 
1.0856432e+3, 1.6506432e+2, -1313560.1, -1457239.4, -11433.781, -0.0004405559, 0.00154526, -1312656.0, 9713.974 
1.0856235e+3, 1.7505187e+2, -1224647.1, -1363686.9, -11531.572, 0.000023583065, 0.0013858681, -1223697.3, 794.6459 
1.08560376e+3, 1.8503901e+2, -1140922.1, -1281437.1, -11704.786, 0.0003105481, 0.0019507599, -1139953.8, -13335.925 
1.0855841e+3, 1.9502577e+2, -1051297.1, -1187564.8, -11733.935, 0.0004145487, 0.0013238796, -1050294.1, -21546.486 
1.0855644e+3, 2.0501211e+2, -967524.25, -1105283.1, -11157.906, 0.00018680087, 0.0014511304, -966626.4, -35745.047 
1.0855448e+3, 2.1499808e+2, -878453.7, -1011642.8, -11042.119, -0.0004141796, 0.0003092459, -877544.44, -44525.45 
1.0855254e+3, 2.2498365e+2, -794466.44, -928986.1, -10370.386, -0.0006317144, 0.0011366081, -793671.7, -58511.258 
1.085506e+3, 2.3496884e+2, -704665.4, -834908.25, -10374.505, -0.00049345393, 0.0016655542, -703844.2, -66538.69 
1.0854867e+3, 2.4495362e+2, -621046.5, -753059.44, -8895.435, -0.00017471873, 0.0020847393, -620449.8, -80995.055 
1.0854676e+3, 2.5493798e+2, -531626.9, -659043.8, -8677.18, 0.00034288375, 0.00039406362, -531038.6, -89430.6 
1.0854487e+3, 2.6492193e+2, -447752.9, -576511.1, -7103.6294, -0.00010232625, 0.0007451696, -447362.2, -103597.07 
1.0854301e+3, 2.7490556e+2, -358051.9, -482215.34, -7051.7944, -0.0015478502, 0.0010332033, -357652.7, -111727.055 
1.08541176e+3, 2.8488874e+2, -274713.5, -400937.0, -4956.517, -0.0013217492, 0.001625939, -274519.2, -126428.59 
1.0853936e+3, 2.9487148e+2, -184817.86, -306446.34, -4697.091, 0.0004508074, -0.00006303402, -184636.73, -134377.13 
1.0853757e+3, 3.048572e+2, -102455.82, -175209.69, -2275.8735, -0.00020158417, 0.00094771717, -102384.695, -102384.695 
1.0853582e+3, 3.1484595e+2, -110965.164, -178854.16, -1802.8889, -0.0030355873, 0.0030109598, -110917.32, -110917.32 
1.085341e+3, 3.2483947e+2, -51117.824, -41753.223, 180.33673, -0.0007831935, -0.0010098346, -41749.75, -41749.75 
1.0959004e+3, 3.520853e+1, -2447662.5, -2605159.5, 9291.734, -0.00009867177, 0.012812809, -2447116.3, 147840.31 
1.0958838e+3, 4.5200607e+1, -2339558.0, -2508824.3, -6891.5537, 0.0035912914, -0.011734964, -2339277.8, 157756.42 
1.095865e+3, 5.5192804e+1, -2264865.3, -2422712.0, -6520.861, 0.00050522294, 0.0014704124, -2264596.3, 134514.38 
1.0958463e+3, 6.518456e+1, -2184458.3, -2340990.5, -5719.8936, -0.00065214926, 0.0060719238, -2184249.5, 116942.08 
1.09582774e+3, 7.517588e+1, -2089515.4, -2244754.8, -6033.842, 0.00034355262, 0.0009957298, -2089281.3, 113995.27 
1.0958088e+3, 8.516684e+1, -2004286.6, -2161664.3, -9349.789, 0.00092801807, 0.000110501205, -2003733.1, 101632.07 
1.0957895e+3, 9.515744e+1, -1917569.3, -2069380.4, -9508.919, 0.0009121732, 0.0010293121, -1916975.9, 90481.34 
1.09577e+3, 1.0514765e+2, -1834240.6, -1986696.1, -10752.626, 0.0007900653, 0.001905764, -1833486.0, 76067.17 
1.0957503e+3, 1.1513749e+2, -1743906.5, -1892573.6, -10844.427, 0.0005629275, 0.0008899508, -1743119.6, 68533.06 
1.09573044e+3, 1.2512694e+2, -1660041.9, -1810258.3, -12276.254, 0.000259288, 0.0013343795, -1659045.3, 54710.996 
1.0957105e+3, 1.35116e+2, -1571406.9, -1716914.4, -12449.914, -0.00013925538, 0.0011067278, -1570349.3, 45514.168 
1.0956903e+3, 1.4510468e+2, -1487335.4, -1633717.6, -13154.642, -0.00006228041, 0.0019341365, -1486162.6, 31811.63 
1.0956702e+3, 1.55093e+2, -1397534.8, -1539797.5, -13088.976, 0.00048431352, 0.001830629, -1396340.5, 23748.178 
1.0956499e+3, 1.6508093e+2, -1313794.4, -1457648.6, -13564.816, 0.00061940146, 0.002116138, -1312526.4, 9680.672 
1.0956296e+3, 1.7506844e+2, -1224832.0, -1364077.6, -13659.588, 0.00039211145, 0.0006625944, -1223504.6, 824.80164 
1.0956092e+3, 1.8505557e+2, -1140990.3, -1281520.8, -13650.057, 0.00006199803, 0.0006954899, -1139676.6, -13221.063 
1.09558895e+3, 1.9504233e+2, -1051394.8, -1187686.5, -13678.191, -0.00039259414, 0.00022684009, -1050035.6, -21450.205 
1.09556876e+3, 2.0502868e+2, -967344.94, -1104837.8, -13251.777, -0.0003411756, 0.001192534, -966079.3, -35360.387 
1.0955486e+3, 2.150147e+2, -878244.6, -1011194.3, -13148.174, 0.00022609472, 0.0015007232, -876956.75, -44100.594 
1.0955285e+3, 2.2500028e+2, -794476.6, -928919.0, -12327.198, 0.00030797752, 0.0018899855, -793355.6, -58358.19 
1.09550856e+3, 2.3498546e+2, -704681.8, -834875.94, -12328.88, -0.00016811171, 0.00018085478, -703524.56, -66381.92 
1.0954887e+3, 2.4497025e+2, -620701.0, -752191.06, -10970.035, -0.00048483588, 0.00030630265, -619792.06, -80500.41 
1.095469e+3, 2.549547e+2, -531269.2, -658190.7, -10767.391, -0.0006151978, 0.00024943275, -530362.2, -88918.01 
1.09544955e+3, 2.6493868e+2, -447734.97, -576361.56, -9150.434, -0.0007938262, 0.0011916053, -447087.28, -103486.414 
1.0954303e+3, 2.7492234e+2, -358024.34, -482081.5, -9091.518, -0.000992542, 0.00096746435, -357361.63, -111600.27 
1.09541126e+3, 2.8490552e+2, -274341.5, -400090.03, -6954.5366, -0.0006185342, 0.0016319689, -273958.06, -126032.086 
1.09539255e+3, 2.9488835e+2, -184464.22, -305613.66, -6700.5156, 0.00017014123, 0.0005963635, -184094.75, -134000.42 
1.09537415e+3, 3.0487415e+2, -101780.04, -173702.55, -4350.5503, -0.00057826104, 0.0018511965, -101517.83, -101517.83 
1.095356e+3, 3.14863e+2, -110272.98, -177337.36, -3887.9958, -0.0026092888, 0.0037242295, -110048.32, -110048.32 
1.0953382e+3, 3.2485652e+2, -52481.785, -44425.246, -1949.6985, -0.0004932687, -0.00047871168, -43978.22, -43978.22 
1.105915e+3, 3.5226125e+1, -2424732.8, -2597767.3, 8738.73, -0.008244756, 0.00672331, -2424292.5, 170491.66 
1.1058977e+3, 4.5218217e+1, -2362400.3, -2519187.0, -4139.5596, 0.01887269, -0.00325239, -2362291.3, 134570.6 
1.1058783e+3, 5.521039e+1, -2258335.5, -2418764.3, -3876.406, -0.0018486691, 0.0009354536, -2258241.8, 140696.58 
1.105859e+3, 6.5202105e+1, -2171015.5, -2335329.8, -3674.3083, -0.0072463243, 0.0028785863, -2170933.5, 130086.16 
1.10584e+3, 7.5193375e+1, -2087923.6, -2244904.8, -4081.5693, 0.0016776726, 0.0010414862, -2087817.6, 115287.516 
1.10582046e+3, 8.518428e+1, -2005762.0, -2162701.3, -7277.156, 0.004159188, 0.0012381786, -2005425.4, 99768.86 
1.1058004e+3, 9.5174843e+1, -1914626.0, -2068221.6, -7376.1807, 0.00035074155, 0.0012538502, -1914272.6, 93014.055 
1.1057803e+3, 1.0516503e+2, -1830309.5, -1985080.4, -8638.616, -0.00075564766, 0.0016693153, -1829828.9, 79554.1 
1.10576004e+3, 1.1515483e+2, -1742260.9, -1892066.0, -8803.49, 0.00066371, 0.0006339002, -1741745.4, 69737.48 
1.1057396e+3, 1.2514424e+2, -1658980.6, -1809931.1, -10192.819, 0.00089120877, 0.0012619835, -1658295.5, 55291.02 
1.105719e+3, 1.3513328e+2, -1569515.3, -1716175.6, -10186.792, -0.000013795215, 0.0013962368, -1568811.1, 46882.887 
1.1056983e+3, 1.4512195e+2, -1485588.8, -1633022.9, -10917.416, -0.00016692183, 0.0021530858, -1484784.8, 33020.246 
1.1056775e+3, 1.5511025e+2, -1397002.1, -1539703.4, -11093.974, 0.00043523082, 0.0015757652, -1396144.9, 23774.766 
1.1056566e+3, 1.6509816e+2, -1313627.0, -1457646.8, -11631.835, 0.00061038235, 0.0017981104, -1312693.6, 9344.54 
1.10563576e+3, 1.7508568e+2, -1224240.8, -1363885.0, -11625.08, 0.0003560633, 0.00069685205, -1223279.6, 880.946 
1.1056149e+3, 1.850728e+2, -1140407.9, -1281155.9, -11510.022, 0.00004207784, 0.00090396445, -1139472.8, -13186.094 
1.1055939e+3, 1.9505955e+2, -1051534.6, -1187644.4, -11434.005, -0.00034931436, 0.00041140127, -1050580.8, -22164.295 
1.1055731e+3, 2.0504594e+2, -967783.0, -1104881.8, -11039.288, -0.00028363854, 0.001304456, -966899.8, -36349.863 
1.10555224e+3, 2.1503195e+2, -878668.06, -1011229.75, -11053.562, 0.00025274238, 0.0015284796, -877752.7, -45065.67 
1.1055316e+3, 2.2501755e+2, -795102.8, -929027.75, -10173.202, 0.0002918181, 0.0019250021, -794334.44, -59506.316 
1.105511e+3, 2.3500274e+2, -705868.06, -835211.2, -10076.979, -0.0002132699, 0.00029505353, -705087.7, -68114.53 
1.1054906e+3, 2.4498758e+2, -622171.56, -752577.0, -8851.432, -0.0005356785, 0.0005511966, -621573.5, -82451.625 
1.10547036e+3, 2.5497204e+2, -532993.9, -658693.3, -8842.921, -0.00068342045, 0.00069100974, -532374.8, -91100.65 
1.1054502e+3, 2.649561e+2, -449609.66, -576820.1, -7168.695, -0.00075749535, 0.001605331, -449206.97, -105776.48 
1.1054304e+3, 2.7493975e+2, -360069.3, -482616.1, -6921.3325, -0.00075107487, 0.0011330306, -359679.63, -114089.03 
1.10541075e+3, 2.8492302e+2, -276663.84, -400600.9, -4734.352, -0.0005708667, 0.0018007403, -276483.25, -128728.5 
1.10539146e+3, 2.9490587e+2, -187362.23, -306405.06, -4531.8613, -0.00035346765, 0.0010482647, -187189.97, -137267.38 
1.10537246e+3, 3.0489174e+2, -104782.5, -174372.02, -2295.964, -0.0009706034, 0.0018826704, -104706.83, -104706.83 
1.1053536e+3, 3.1488064e+2, -113133.75, -177935.55, -2108.7742, -0.0022232358, 0.002610821, -113065.195, -113065.195 
1.1053352e+3, 3.248742e+2, -55600.73, -46006.9, 227.87463, -0.0002063864, 0.0011697976, -46001.49, -46001.49 
1.1159305e+3, 3.5244164e+1, -2428766.5, -2602286.5, -10592.601, -0.007076222, -0.008847254, -2428122.3, 166485.0 
1.11591086e+3, 4.5236492e+1, -2359558.3, -2517192.5, -2213.5457, 0.016407585, 0.0136754, -2359527.3, 137155.38 
1.11589186e+3, 5.5228543e+1, -2258074.0, -2417992.0, -2197.8826, -0.002349726, 0.00017665324, -2258043.8, 140716.67 
1.11587234e+3, 6.522018e+1, -2172539.8, -2337169.8, -7244.394, -0.0066247527, -0.003134656, -2172221.5, 128620.914 
1.11585215e+3, 7.521141e+1, -2088495.4, -2246247.0, -7558.9507, 0.0027688595, 0.0011056297, -2088134.0, 114794.33 
1.1158319e+3, 8.520229e+1, -2005566.8, -2162876.8, -8744.401, 0.0047356407, 0.0031012243, -2005082.1, 99935.69 
1.1158114e+3, 9.5192796e+1, -1914803.5, -2068582.8, -8868.664, -0.00039966704, 0.0010316569, -1914293.6, 92817.06 
1.11579075e+3, 1.0518294e+2, -1830707.0, -1985724.8, -10923.244, -0.0017486574, 0.0009661004, -1829941.1, 79266.23 
1.1157699e+3, 1.15172714e+2, -1742504.4, -1892637.1, -11084.158, 0.00037595772, 0.00090297766, -1741690.5, 69617.016 
1.1157488e+3, 1.2516211e+2, -1658915.9, -1809896.0, -12132.957, 0.0012433063, 0.0016843495, -1657947.1, 55464.313 
1.1157276e+3, 1.3515115e+2, -1569531.4, -1716197.5, -12145.328, 0.0010175604, 0.0012333017, -1568532.5, 46986.434 
1.1157063e+3, 1.4513978e+2, -1485969.0, -1633690.6, -13102.165, 0.000547064, 0.0013976542, -1484816.0, 32814.23 
1.1156848e+3, 1.5512805e+2, -1397325.6, -1540349.1, -13265.23, -0.000110688416, 0.00012494659, -1396105.8, 23639.584 
1.11566335e+3, 1.6511594e+2, -1313583.8, -1457592.8, -13620.9375, -0.0002775869, 0.0008302622, -1312306.8, 9557.215 
1.1156418e+3, 1.7510346e+2, -1224252.8, -1363859.0, -13616.2295, -0.00004334431, 0.0013483276, -1222937.1, 1049.2125 
1.11562036e+3, 1.850906e+2, -1140304.4, -1280887.9, -13639.8955, 0.00015467255, 0.0022744806, -1138993.3, -12880.953 
1.1155989e+3, 1.9507737e+2, -1051398.9, -1187365.1, -13574.392, 0.0003008692, 0.001617692, -1050056.9, -21815.033 
1.1155774e+3, 2.0506376e+2, -967803.25, -1104881.9, -13132.443, 0.00016389675, 0.0017283938, -966556.44, -36181.21 
1.11555606e+3, 2.1504976e+2, -878692.44, -1011257.5, -13150.502, -0.0002813661, 0.0006305637, -877400.5, -44888.04 
1.1155347e+3, 2.2503538e+2, -794933.44, -928605.56, -12266.784, -0.00056703895, 0.001404838, -793817.1, -59163.67 
1.1155135e+3, 2.3502062e+2, -705694.94, -834812.1, -12175.809, -0.00063116045, 0.0017480297, -704556.8, -67758.83 
1.1154924e+3, 2.4500547e+2, -622187.1, -752500.06, -10992.528, -0.00044702066, 0.002488122, -621266.3, -82319.836 
1.1154716e+3, 2.5498992e+2, -532991.2, -658621.4, -10977.203, -0.00006959604, 0.0016194487, -532039.25, -90940.445 
1.1154509e+3, 2.64974e+2, -449210.7, -575899.44, -9234.437, -0.00019669298, 0.002006108, -448541.13, -105286.29 
1.11543044e+3, 2.7495775e+2, -359672.75, -481709.5, -8998.997, -0.00081819366, 0.0014875311, -359012.75, -113598.42 
1.1154102e+3, 2.8494105e+2, -276358.16, -399943.4, -6892.166, -0.0011218507, 0.0021096938, -275974.97, -128397.055 
1.1153903e+3, 2.94924e+2, -187057.14, -305758.44, -6691.802, -0.0011692522, 0.0013113959, -186681.08, -136935.8 
1.1153706e+3, 3.0490986e+2, -104587.81, -173875.22, -4324.339, -0.0014683796, 0.0011430166, -104318.97, -104318.97 
1.1153513e+3, 3.1489876e+2, -112958.195, -177481.17, -4138.7827, -0.0019638313, -0.00017691203, -112693.805, -112693.805 
1.11533225e+3, 3.248925e+2, -54686.652, -43903.824, -1814.0724, -0.00010620738, 0.0037780774, -43606.813, -43606.813 
1.12594545e+3, 3.526317e+1, -2439645.5, -2604344.8, -6745.8857, 0.00034089887, -0.009081803, -2439369.5, 155051.52 
1.125925e+3, 4.5255542e+1, -2333335.3, -2506542.5, 1128.4869, 0.00220598, 0.014069049, -2333328.0, 163167.98 
1.1259054e+3, 5.5247384e+1, -2257355.3, -2419869.0, -391.4485, 0.00057907624, 0.00031886395, -2257354.3, 141221.42 
1.12588525e+3, 6.5238917e+1, -2177708.8, -2339799.0, -5484.28, 0.00020642407, -0.0031308262, -2177523.5, 123135.305 
1.1258645e+3, 7.523014e+1, -2084140.9, -2244216.5, -5298.966, 0.0011433127, 0.0011162471, -2083965.6, 118779.164 
1.1258436e+3, 8.522098e+1, -1999142.5, -2160172.0, -6505.7666, 0.0012701544, 0.0030837567, -1998880.1, 105954.47 
1.1258225e+3, 9.5211446e+1, -1912763.5, -2068021.0, -6743.293, 0.00032481062, 0.0009998156, -1912471.1, 94456.77 
1.1258013e+3, 1.0520155e+2, -1829962.8, -1985750.1, -8708.771, 0.00003414075, 0.001026492, -1829477.5, 79547.484 
1.1257797e+3, 1.1519129e+2, -1740263.1, -1891931.6, -8861.385, 0.00034460847, 0.0011201965, -1739747.1, 71378.32 
1.1257581e+3, 1.2518066e+2, -1656472.1, -1808887.8, -10048.888, 0.000628152, 0.0017962538, -1655812.5, 57417.19 
1.1257362e+3, 1.3516968e+2, -1568422.9, -1715819.1, -10171.339, 0.00090461934, 0.0010692604, -1567724.4, 47613.02 
1.12571426e+3, 1.4515829e+2, -1485163.6, -1633481.4, -11030.6455, 0.00064942235, 0.0013043279, -1484347.8, 33101.03 
1.1256923e+3, 1.5514654e+2, -1395954.6, -1539879.6, -11001.665, -0.000057987516, 0.00037994617, -1395118.5, 24445.527 
1.12567015e+3, 1.6513442e+2, -1312334.9, -1456967.1, -11309.035, -0.00021154108, 0.0011124888, -1311456.0, 10226.914 
1.12564795e+3, 1.7512193e+2, -1223964.9, -1363696.6, -11317.956, 0.00011752449, 0.0013720324, -1223054.0, 751.1182 
1.1256258e+3, 1.8510908e+2, -1140411.1, -1280893.3, -11364.937, 0.00022746177, 0.0022358384, -1139497.8, -13566.562 
1.1256038e+3, 1.9509587e+2, -1051423.0, -1187321.9, -11412.091, 0.00011944943, 0.0017602864, -1050471.3, -22410.602 
1.1255816e+3, 2.0508224e+2, -967974.06, -1104925.9, -11032.933, -0.00002486075, 0.0018640117, -967090.94, -36896.82 
1.12555966e+3, 2.1506825e+2, -879267.7, -1011449.44, -11022.247, -0.00026409866, 0.00053808256, -878354.9, -46023.566 
1.12553775e+3, 2.2505388e+2, -795712.44, -928652.0, -10130.362, -0.0004545928, 0.0012973543, -794944.94, -60472.79 
1.12551585e+3, 2.3503916e+2, -706876.3, -835037.06, -10056.05, -0.00052961614, 0.001835647, -706092.06, -69475.66 
1.12549424e+3, 2.4502403e+2, -623523.0, -752809.94, -8796.349, -0.00044441826, 0.0026635148, -622927.25, -84162.63 
1.1254728e+3, 2.5500852e+2, -534379.25, -658923.06, -8616.629, -0.00025870872, 0.0017849826, -533785.94, -92869.29 
1.1254514e+3, 2.6499265e+2, -450816.9, -576277.25, -6885.283, -0.00037195874, 0.0020363564, -450440.2, -107367.81 
1.1254303e+3, 2.7497637e+2, -361766.5, -482314.4, -6845.7764, -0.0008026594, 0.001289572, -361378.97, -116147.42 
1.1254095e+3, 2.8495973e+2, -278677.66, -400485.2, -4864.2964, -0.0010284313, 0.0020107478, -278483.72, -131089.0 
1.1253889e+3, 2.949427e+2, -189583.27, -306401.03, -4652.181, -0.0010615713, 0.0016664555, -189398.3, -139836.75 
1.1253686e+3, 3.0492866e+2, -107600.266, -174848.25, -2196.27, -0.0013447454, 0.0015072476, -107528.62, -107528.62 
1.1253487e+3, 3.149176e+2, -116594.64, -178758.69, -1983.1718, -0.0019358105, -0.000303976, -116531.44, -116531.44 
1.1253291e+3, 3.249114e+2, -58058.875, -44043.918, 331.33325, -0.0003594147, 0.0034732607, -44036.09, -44036.09 
1.1359601e+3, 3.5282925e+1, -2433568.5, -2593435.0, 4784.2476, 0.011324591, 0.0010347378, -2433425.5, 160802.14 
1.13593996e+3, 4.5275223e+1, -2338036.0, -2513246.5, -4446.717, -0.020819703, 0.0029932878, -2337923.3, 158379.58 
1.1359192e+3, 5.52668e+1, -2259794.0, -2425253.0, -5591.334, 0.0059195524, 0.0011593928, -2259605.3, 138780.2 
1.13589816e+3, 6.525821e+1, -2176546.8, -2338704.0, -6254.4897, 0.011165296, 0.0011382344, -2176306.0, 124163.86 
1.1358771e+3, 7.5249434e+1, -2083899.1, -2243573.5, -6180.656, -0.0024952823, 0.0010673526, -2083660.1, 118895.555 
1.1358556e+3, 8.5240257e+1, -1999873.1, -2161164.3, -9201.54, -0.0050904094, 0.0017321316, -1999349.9, 105295.805 
1.1358337e+3, 9.523068e+1, -1913101.8, -2068823.3, -9413.779, 0.0020989073, 0.0011157616, -1912534.8, 94204.77 
1.1358117e+3, 1.0522074e+2, -1830062.8, -1986241.4, -10565.028, 0.0037790292, 0.0016563917, -1829351.3, 79485.63 
1.1357897e+3, 1.15210444e+2, -1740555.9, -1892521.8, -10719.75, 0.00045829694, 0.0013035659, -1739803.4, 71134.48 
1.1357673e+3, 1.2519978e+2, -1656779.6, -1809375.1, -12318.37, -0.0007554032, 0.0016988636, -1655791.6, 57250.797 
1.1357449e+3, 1.3518876e+2, -1568608.6, -1716271.1, -12438.009, -0.00012580019, 0.0009337969, -1567568.3, 47582.207 
1.1357223e+3, 1.4517736e+2, -1485082.8, -1633338.1, -13027.79, 0.00024663837, 0.0017539278, -1483946.8, 33315.258 
1.1356997e+3, 1.5516563e+2, -1395949.1, -1539778.3, -13013.685, 0.00040328497, 0.0019419788, -1394781.1, 24595.895 
1.135677e+3, 1.651535e+2, -1312390.6, -1457040.9, -13558.502, 0.00051996263, 0.0023555083, -1311130.6, 10365.153 
1.13565415e+3, 1.75141e+2, -1223958.4, -1363752.5, -13569.238, 0.0006577949, 0.00090639247, -1222653.4, 964.8993 
1.13563135e+3, 1.8512814e+2, -1140467.1, -1281045.3, -13464.455, 0.00021587539, 0.001116851, -1139189.1, -13444.709 
1.1356086e+3, 1.9511491e+2, -1051518.1, -1187505.4, -13513.745, -0.0007859457, 0.0010870312, -1050188.1, -22314.184 
1.1355859e+3, 2.051013e+2, -967977.75, -1104848.9, -13208.804, -0.00077333784, 0.0017926763, -966714.7, -36707.258 
1.13556325e+3, 2.1508731e+2, -879234.3, -1011379.4, -13194.898, 0.00013252295, 0.0011046106, -877929.7, -45785.164 
1.13554075e+3, 2.2507295e+2, -795558.56, -928297.2, -12305.31, 0.00036172135, 0.0015358586, -794427.44, -60142.254 
1.1355183e+3, 2.3505825e+2, -706716.2, -834703.6, -12241.124, -0.00007775003, 0.0008214067, -705555.94, -69126.57 
1.135496e+3, 2.4504316e+2, -623198.9, -752084.9, -10938.602, -0.00058265094, 0.0014168995, -622277.1, -83699.89 
1.13547385e+3, 2.550277e+2, -534061.8, -658211.44, -10767.336, -0.0011645221, 0.0013413286, -533134.9, -92406.234 
1.1354519e+3, 2.6501185e+2, -450806.28, -576143.25, -9088.027, -0.0012383055, 0.0017868283, -450150.75, -107266.695 
1.1354302e+3, 2.749956e+2, -361762.8, -482188.56, -9040.695, -0.0007696244, 0.0006253008, -361087.9, -116044.71 
1.13540865e+3, 2.8497902e+2, -278351.1, -399737.88, -7059.5073, -0.00044967738, 0.0015776637, -277941.9, -130735.87 
1.1353876e+3, 2.9496205e+2, -189244.38, -305649.75, -6849.8027, -0.00021993268, 0.0021001855, -188842.69, -139470.4 
1.13536656e+3, 3.0494803e+2, -107303.02, -174200.53, -4374.4927, -0.000730752, 0.002836456, -107018.18, -107018.18 
1.1353461e+3, 3.1493706e+2, -116321.73, -178129.84, -4161.923, -0.0022040368, 0.0018607776, -116042.74, -116042.74 
1.13532566e+3, 3.2493085e+2, -57336.465, -42372.52, -1760.2671, -0.0010897393, 0.00054718694, -42168.242, -42168.242 
1.1459751e+3, 3.5303202e+1, -2418768.3, -2589006.5, 5858.953, 0.006035118, 0.0073292595, -2418567.0, 175461.97 
1.1459546e+3, 4.5295247e+1, -2352024.3, -2519844.5, -4269.013, -0.0107668815, -0.00546212, -2351915.8, 144190.98 
1.1459331e+3, 5.528693e+1, -2253193.0, -2421871.0, -3121.5845, 0.004001714, 0.0017050245, -2253135.3, 145053.14 
1.1459115e+3, 6.527833e+1, -2165672.0, -2334101.0, -3463.8074, 0.006827267, 0.004338069, -2165600.8, 134671.75 
1.1458897e+3, 7.526946e+1, -2082365.9, -2243543.5, -4069.067, -0.0011732168, 0.0012778727, -2082263.3, 120096.29 
1.14586756e+3, 8.526022e+1, -2000535.9, -2161914.8, -7037.5933, -0.0026931702, 0.00089901674, -2000229.6, 104220.47 
1.14584506e+3, 9.525061e+1, -1909815.4, -2067645.0, -7152.801, 0.001497459, 0.0009744348, -1909491.9, 97052.375 
1.1458225e+3, 1.05240636e+2, -1826067.0, -1984491.0, -8397.08, 0.0025052105, 0.0018349271, -1825623.1, 83018.734 
1.1457997e+3, 1.15230314e+2, -1739083.1, -1891975.3, -8441.597, 0.00057415676, 0.0014674972, -1738618.5, 72124.62 
1.1457767e+3, 1.2521963e+2, -1655966.8, -1809241.1, -9822.952, -0.00021821777, 0.0018374436, -1655339.8, 57508.11 
1.1457536e+3, 1.3520858e+2, -1566727.1, -1715609.0, -9901.365, -0.000049463477, 0.0010553162, -1566071.5, 48884.594 
1.1457303e+3, 1.4519717e+2, -1483239.8, -1632580.4, -10622.282, 0.00018719428, 0.0018200024, -1482488.0, 34579.93 
1.14570715e+3, 1.5518542e+2, -1395384.4, -1539637.5, -10731.741, 0.00051628635, 0.001961434, -1394590.4, 24592.732 
1.14568375e+3, 1.6517328e+2, -1312130.8, -1456922.4, -11280.47, 0.0005275747, 0.0023767934, -1311257.1, 10044.798 
1.1456603e+3, 1.7516078e+2, -1223204.3, -1363394.9, -11292.121, 0.0002860443, 0.0009849732, -1222300.5, 1123.9713 
1.14563696e+3, 1.851479e+2, -1139873.8, -1280777.8, -11200.564, -0.0000035773346, 0.0011236523, -1138989.0, -13438.331 
1.1456135e+3, 1.9513467e+2, -1051678.1, -1187608.6, -11203.996, -0.00038207488, 0.00088314625, -1050760.8, -23080.473 
1.14559025e+3, 2.0512109e+2, -968326.7, -1104775.1, -10778.914, -0.00038656752, 0.0017251122, -967480.44, -37666.785 
1.1455669e+3, 2.151071e+2, -879581.56, -1011286.06, -10672.269, -0.00005562571, 0.0015365047, -878722.4, -46771.855 
1.1455437e+3, 2.2509277e+2, -796148.06, -928480.75, -9842.51, 0.0000037441412, 0.0020164761, -795420.06, -61328.99 
1.14552066e+3, 2.3507807e+2, -707685.44, -835009.5, -9869.273, -0.00024436603, 0.00089804, -706925.0, -70689.84 
1.1454977e+3, 2.4506299e+2, -624435.4, -752334.0, -8654.311, -0.0005539968, 0.0012902095, -623852.44, -85469.53 
1.1454748e+3, 2.5504756e+2, -535729.06, -658660.94, -8647.951, -0.0009170759, 0.0012433016, -535123.7, -94589.63 
1.1454524e+3, 2.6503173e+2, -452727.1, -576599.7, -6993.406, -0.0010454912, 0.0018330219, -452333.5, -109644.375 
1.1454299e+3, 2.7501553e+2, -364009.47, -482806.16, -6753.1865, -0.00094300386, 0.00092180877, -363626.8, -118778.945 
1.14540786e+3, 2.8499895e+2, -280640.63, -400214.72, -4616.5977, -0.0006846926, 0.0017925882, -280462.66, -133452.36 
1.14538595e+3, 2.9498205e+2, -191446.23, -306093.8, -4415.009, -0.00017415882, 0.0019364886, -191276.47, -142100.42 
1.1453645e+3, 3.0496812e+2, -109822.36, -174840.27, -2032.7793, -0.00054860825, 0.0027541376, -109758.87, -109758.87 
1.14534326e+3, 3.1495717e+2, -119473.55, -179082.5, -1810.2689, -0.0021749367, 0.0023905383, -119418.62, -119418.62 
1.14532225e+3, 3.2495102e+2, -61129.633, -43531.98, 437.41092, -0.0009943263, 0.00021072908, -43521.113, -43521.113 
1.1559906e+3, 3.532393e+1, -2425932.3, -2601992.8, -5957.279, -0.010094136, 0.010886507, -2425730.8, 168094.92 
1.155969e+3, 4.5315605e+1, -2348341.5, -2514797.3, -3620.4658, 0.021078771, -0.011969767, -2348262.8, 147644.42 
1.15594715e+3, 5.530765e+1, -2251438.8, -2417822.3, -2766.6611, -0.0031956777, 0.0020375552, -2251392.8, 146592.42 
1.15592495e+3, 6.5299124e+1, -2167434.3, -2336671.5, -6964.676, -0.008293813, 0.0067786444, -2167148.3, 132920.53 
1.1559024e+3, 7.5290084e+1, -2083259.6, -2245635.5, -7456.6035, 0.003722222, 0.0016733978, -2082918.0, 119239.42 
1.1558795e+3, 8.5280746e+1, -2000402.5, -2162160.3, -8583.731, 0.0058601745, 0.00044116602, -1999948.3, 104300.625 
1.1558565e+3, 9.527111e+1, -1910102.9, -2068088.9, -8730.534, -0.0009326493, 0.0006467482, -1909621.9, 96721.414 
1.1558332e+3, 1.05261125e+2, -1826287.8, -1984703.0, -10922.097, -0.0024574266, 0.001704368, -1825538.3, 82902.93 
1.1558098e+3, 1.15250796e+2, -1739083.8, -1892071.6, -10971.398, 0.00068557536, 0.0016238206, -1738301.0, 72241.4 
1.15578614e+3, 1.252401e+2, -1656023.9, -1809502.0, -11811.302, 0.0016859361, 0.0021707262, -1655120.1, 57527.094 
1.15576245e+3, 1.3522902e+2, -1566918.0, -1715959.1, -11896.06, 0.00079460867, 0.0013845552, -1565974.5, 48781.305 
1.1557385e+3, 1.452176e+2, -1483510.5, -1633030.4, -12974.754, 0.0003405564, 0.0016106577, -1482393.0, 34474.816 
1.1557146e+3, 1.552058e+2, -1395570.9, -1540049.8, -13071.978, 0.00031123607, 0.0008165679, -1394397.8, 24585.688 
1.15569055e+3, 1.6519365e+2, -1312129.6, -1456964.3, -13368.259, -0.0000814948, 0.001504663, -1310906.0, 10196.369 
1.1556665e+3, 1.7518115e+2, -1223248.8, -1363461.9, -13390.723, -0.0008293093, 0.001507595, -1221981.4, 1243.4846 
1.1556424e+3, 1.851683e+2, -1139894.3, -1280771.9, -13492.548, -0.00042115725, 0.002012921, -1138613.6, -13262.639 
1.1556184e+3, 1.9515504e+2, -1051665.8, -1187578.8, -13491.567, 0.0009784881, 0.0010319793, -1050339.4, -22858.691 
1.1555945e+3, 2.0514147e+2, -968106.5, -1104305.3, -12941.006, 0.00083015533, 0.0016633174, -966887.8, -37273.934 
1.15557045e+3, 2.1512753e+2, -879383.75, -1010863.94, -12852.389, -0.00078204804, 0.0018810033, -878139.2, -46388.77 
1.1555466e+3, 2.251132e+2, -796231.6, -928536.9, -12123.894, -0.0013700573, 0.0027145988, -795129.8, -61239.023 
1.1555229e+3, 2.350985e+2, -707735.44, -835072.0, -12140.561, -0.0009782526, 0.0018816221, -706588.3, -70553.41 
1.1554993e+3, 2.4508342e+2, -624428.7, -752257.25, -10889.681, -0.0004580383, 0.002101189, -623507.6, -85325.016 
1.155476e+3, 2.55068e+2, -535719.9, -658608.75, -10880.566, 0.00022149982, 0.0014460558, -534763.94, -94430.14 
1.15545265e+3, 2.6505223e+2, -452317.6, -575673.94, -9255.875, -0.000053410957, 0.0021615354, -451626.97, -109138.43 
1.1554297e+3, 2.7503607e+2, -363593.53, -481890.34, -9027.874, -0.0013281796, 0.002057054, -362908.53, -118261.96 
1.1554068e+3, 2.8501958e+2, -280328.94, -399457.6, -6788.8906, -0.0016760541, 0.0025901445, -279943.3, -133134.88 
1.1553844e+3, 2.950027e+2, -191155.92, -305355.78, -6592.598, -0.0008951613, 0.0012334578, -190776.6, -141802.78 
1.1553622e+3, 3.0498877e+2, -109517.0, -174133.38, -4393.066, -0.0008170257, 0.0014326703, -109219.695, -109219.695 
1.1553403e+3, 3.149779e+2, -119148.61, -178364.44, -4165.2397, -0.001983233, 0.0014818899, -118857.055, -118857.055 
1.1553187e+3, 3.2497182e+2, -61107.117, -43408.453, -1888.0709, -0.00034064156, 0.0022423116, -43209.277, -43209.277 
1.16600625e+3, 3.5345477e+1, -2427655.3, -2605601.5, -2799.3506, -0.0058680833, 0.005090258, -2427611.3, 166003.17 
1.16598375e+3, 4.5337158e+1, -2330357.0, -2506225.3, 327.95084, 0.016837144, -0.004397986, -2330356.3, 165339.78 
1.1659613e+3, 5.532909e+1, -2250770.0, -2417826.3, -700.7975, -0.0028855053, 0.0017369508, -2250767.0, 147007.98 
1.16593845e+3, 6.532051e+1, -2170839.5, -2338839.0, -5164.7837, -0.0067431363, 0.004132716, -2170680.8, 129178.33 
1.1659151e+3, 7.531144e+1, -2078610.6, -2243871.3, -5068.182, 0.0034182987, 0.0014876454, -2078455.4, 123492.72 
1.1658917e+3, 8.530207e+1, -1994293.5, -2159565.5, -6133.0386, 0.0052340287, 0.0012789197, -1994066.3, 109973.69 
1.1658679e+3, 9.5292395e+1, -1908636.4, -2067752.3, -6317.363, -0.0006347128, 0.0012825625, -1908385.9, 97748.86 
1.1658441e+3, 1.05282374e+2, -1825890.5, -1984833.4, -8451.573, -0.0019855401, 0.0019338732, -1825442.4, 82790.664 
1.1658199e+3, 1.1527199e+2, -1736462.1, -1891129.0, -8662.072, 0.00071887317, 0.0013582206, -1735978.5, 74356.14 
1.1657956e+3, 1.2526126e+2, -1653134.9, -1808267.9, -9638.775, 0.0015465468, 0.0018974658, -1652538.3, 59901.52 
1.16577126e+3, 1.3525018e+2, -1565873.0, -1715609.5, -9690.369, 0.00072513736, 0.001463787, -1565248.5, 49299.85 
1.1657467e+3, 1.4523874e+2, -1482907.8, -1632804.1, -10645.411, 0.00028322748, 0.0017601565, -1482155.5, 34505.066 
1.165722e+3, 1.5522693e+2, -1394258.5, -1539472.3, -10606.6455, 0.0002080338, 0.00082609185, -1393487.9, 25288.33 
1.16569735e+3, 1.6521478e+2, -1310973.8, -1456551.6, -10862.983, -0.00000847293, 0.0015030883, -1310167.6, 10727.741 
1.1656728e+3, 1.7520227e+2, -1223015.8, -1363477.1, -10936.113, -0.00042276166, 0.0016289141, -1222169.4, 848.51917 
1.1656481e+3, 1.851894e+2, -1139831.5, -1280620.6, -11038.332, -0.0001902568, 0.00225418, -1138971.3, -13827.213 
1.1656233e+3, 1.9517617e+2, -1051341.0, -1187282.8, -10984.483, 0.0005845955, 0.0013885462, -1050459.1, -23185.426 
1.1655986e+3, 2.0516258e+2, -968103.5, -1104261.8, -10527.48, 0.00040518894, 0.0018343143, -967294.4, -37887.508 
1.1655741e+3, 2.1514866e+2, -880177.1, -1011175.56, -10628.576, -0.0006812224, 0.0016133221, -879320.4, -47776.934 
1.1655495e+3, 2.2513434e+2, -797197.25, -928719.7, -9872.683, -0.0010857036, 0.0023843322, -796460.3, -62776.613 
1.1655252e+3, 2.3511966e+2, -708631.1, -835226.3, -9724.057, -0.0007964467, 0.001891051, -707888.56, -72061.01 
1.1655009e+3, 2.451046e+2, -625425.75, -752461.8, -8357.881, -0.0004593859, 0.002244522, -624878.25, -86903.17 
1.1654768e+3, 2.550892e+2, -537043.06, -658945.6, -8220.17, -0.000041151725, 0.0014767029, -536491.25, -96365.19 
1.1654529e+3, 2.6507342e+2, -453869.13, -576018.5, -6652.5327, -0.00020910166, 0.0022280044, -453507.88, -111227.38 
1.1654292e+3, 2.7505735e+2, -365466.22, -482347.63, -6614.1553, -0.0010676096, 0.0023156027, -365093.13, -120654.95 
1.1654059e+3, 2.8504086e+2, -282630.06, -400080.7, -4462.5093, -0.001477201, 0.0026670485, -282460.75, -135861.1 
1.1653827e+3, 2.95024e+2, -194213.08, -306327.4, -4326.1167, -0.001217437, 0.0007785828, -194046.39, -145281.7 
1.16535984e+3, 3.050102e+2, -112680.484, -174963.89, -2155.414, -0.0011045849, 0.0012717139, -112605.984, -112605.984 
1.1653373e+3, 3.1499937e+2, -121955.125, -179048.4, -1878.7887, -0.0016643686, 0.0025877943, -121893.37, -121893.37 
1.1653149e+3, 3.249933e+2, -63857.938, -44369.934, 471.79626, -0.00017884262, 0.0024375673, -44358.52, -44358.52 
1.176022e+3, 3.5367692e+1, -2426117.8, -2602292.5, 1186.7793, 0.0110167395, -0.006804098, -2426109.8, 167287.11 
1.1759989e+3, 4.5359635e+1, -2333229.3, -2510558.5, -4127.548, -0.012775757, 0.012835783, -2333133.3, 162342.7 
1.1759754e+3, 5.535113e+1, -2252262.8, -2421293.5, -4947.4185, 0.0027455136, 0.00092377636, -2252118.0, 145441.13 
1.1759519e+3, 6.5342385e+1, -2170145.0, -2338253.0, -6290.749, 0.0061550057, -0.002026708, -2169909.8, 129734.98 
1.1759281e+3, 7.53334e+1, -2078595.4, -2243613.5, -6282.3687, -0.00068472483, 0.0009139218, -2078356.6, 123376.36 
1.1759039e+3, 8.532404e+1, -1994833.6, -2160310.3, -8986.369, -0.0018917429, 0.0030419985, -1994347.1, 109477.6 
1.17587954e+3, 9.531432e+1, -1908846.9, -2068313.5, -9139.11, 0.0016137117, 0.0026064052, -1908324.8, 97595.14 
1.17585495e+3, 1.0530423e+2, -1826113.9, -1985558.9, -10351.469, 0.002333212, 0.0024330074, -1825444.6, 82574.14 
1.1758302e+3, 1.1529379e+2, -1736885.6, -1891945.0, -10565.895, 0.0006313196, 0.00078363495, -1736169.0, 73952.04 
1.1758053e+3, 1.2528303e+2, -1653321.9, -1808535.5, -12077.85, -0.00015237479, 0.0011961028, -1652387.6, 59838.79 
1.17578015e+3, 1.3527194e+2, -1565939.4, -1715807.3, -12132.785, -0.000084406995, 0.0013857268, -1564963.5, 49371.74 
1.17575504e+3, 1.452605e+2, -1482806.1, -1632671.3, -12772.441, 0.000019281448, 0.0022233743, -1481725.4, 34721.887 
1.1757296e+3, 1.552487e+2, -1394211.0, -1539386.8, -12755.008, 0.00013139317, 0.0017224161, -1393098.9, 25464.063 
1.1757044e+3, 1.6523655e+2, -1311140.6, -1456847.5, -13205.282, 0.00051831646, 0.0021698072, -1309953.5, 10728.584 
1.175679e+3, 1.75224e+2, -1223146.6, -1363750.1, -13263.734, 0.0011113012, 0.001431227, -1221906.4, 898.56506 
1.17565356e+3, 1.8521114e+2, -1139723.8, -1280408.5, -13238.821, 0.00048546982, 0.00201067, -1138488.8, -13557.66 
1.17562816e+3, 1.9519792e+2, -1051256.0, -1187100.0, -13197.023, -0.0012533324, 0.0019406776, -1049985.9, -22925.32 
1.1756029e+3, 2.0518434e+2, -968300.25, -1104589.1, -12890.101, -0.0013486176, 0.0022098958, -967091.8, -37898.12 
1.17557764e+3, 2.1517037e+2, -880325.1, -1011499.2, -12980.457, 0.000015730271, 0.0008478037, -879053.0, -47722.4 
1.17555246e+3, 2.2515607e+2, -796886.9, -928086.9, -12096.688, 0.0004491262, 0.0012314627, -795780.9, -62310.082 
1.17552735e+3, 2.3514143e+2, -708346.0, -834628.75, -11963.478, 0.000060046896, 0.0011246831, -707222.6, -71608.45 
1.1755025e+3, 2.4512643e+2, -625184.5, -751916.56, -10683.008, -0.0006056492, 0.0018607166, -624290.25, -86528.984 
1.17547765e+3, 2.5511104e+2, -536791.2, -658423.0, -10554.359, -0.0015340932, 0.0014000062, -535882.1, -95970.31 
1.17545314e+3, 2.650953e+2, -453844.5, -575872.44, -9010.116, -0.0014078036, 0.0021083818, -453182.8, -111116.766 
1.17542885e+3, 2.7507922e+2, -365401.44, -482219.47, -8967.175, -0.00030358112, 0.0018337128, -364717.13, -120493.46 
1.17540464e+3, 2.8506276e+2, -282388.38, -399566.6, -6830.0503, -0.00032943118, 0.0021585778, -281991.63, -135606.69 
1.1753809e+3, 2.95046e+2, -193974.13, -305821.0, -6695.51, -0.0012693146, 0.00058299524, -193574.73, -145025.14 
1.1753573e+3, 3.050322e+2, -112221.766, -174002.25, -4417.1826, -0.0014897186, 0.0021604125, -111907.54, -111907.54 
1.1753341e+3, 3.1502146e+2, -121515.41, -178107.11, -4136.3228, -0.00134619, 0.005412717, -121214.68, -121214.68 
1.1753111e+3, 3.2501546e+2, -63538.79, -43616.918, -1834.4149, -0.0006426345, 0.0009861513, -43449.414, -43449.414 
1.1860377e+3, 3.539062e+1, -2417576.3, -2595835.8, 2710.274, 0.008725912, -0.00671253, -2417535.0, 175637.02 
1.18601404e+3, 4.5382625e+1, -2339202.0, -2514744.8, -2433.7063, -0.011807615, 0.01505048, -2339168.3, 156082.39 
1.18599e+3, 5.537398e+1, -2246576.5, -2419809.3, -2493.8594, 0.0035665997, 0.00068404037, -2246540.5, 150794.69 
1.1859657e+3, 6.536515e+1, -2161943.8, -2334597.5, -3466.6426, 0.006662646, -0.0027496698, -2161874.3, 137547.53 
1.1859412e+3, 7.535614e+1, -2076957.5, -2243178.8, -3794.0386, -0.0010364036, 0.0014928384, -2076871.0, 124639.09 
1.1859164e+3, 8.534674e+1, -1994580.3, -2160521.8, -6676.2534, -0.0023162554, 0.003613548, -1994312.0, 109290.09 
1.18589126e+3, 9.5336974e+1, -1905335.6, -2066965.4, -6788.8745, 0.0018775805, 0.00206095, -1905051.0, 100646.836 
1.185866e+3, 1.0532686e+2, -1822318.5, -1984021.0, -7874.618, 0.0026628424, 0.0018926737, -1821936.0, 85861.0 
1.18584044e+3, 1.15316406e+2, -1735537.3, -1891590.9, -7940.6436, 0.0004436044, 0.0012238515, -1735134.3, 74765.22 
1.1858148e+3, 1.2530562e+2, -1652572.8, -1808309.1, -9381.95, -0.00033223323, 0.0018043582, -1652009.6, 59995.51 
1.185789e+3, 1.3529451e+2, -1564196.0, -1715104.3, -9450.372, 0.00014047643, 0.0015030268, -1563606.5, 50507.64 
1.1857632e+3, 1.4528303e+2, -1481074.6, -1632064.8, -10152.516, 0.00029516258, 0.002177361, -1480395.0, 35831.383 
1.1857373e+3, 1.5527123e+2, -1393370.9, -1539178.8, -10303.349, 0.00015487414, 0.0017616332, -1392646.4, 25695.822 
1.1857113e+3, 1.6525905e+2, -1310503.9, -1456445.5, -10786.209, 0.00036565508, 0.0022066117, -1309711.0, 10750.467 
1.1856852e+3, 1.7524652e+2, -1222426.8, -1363309.5, -10690.779, 0.0008697359, 0.001425123, -1221620.1, 964.23315 
1.1856592e+3, 1.8523364e+2, -1139334.5, -1280209.4, -10617.332, 0.00036744776, 0.0019621744, -1138538.8, -13828.342 
1.1856331e+3, 1.9522044e+2, -1051523.4, -1187206.0, -10679.743, -0.0010505354, 0.0019117211, -1050688.0, -23848.049 
1.1856071e+3, 2.0520684e+2, -968669.8, -1104658.3, -10328.204, -0.0011314068, 0.0023129766, -967889.9, -38916.79 
1.18558116e+3, 2.1519288e+2, -880372.4, -1011419.75, -10228.044, 0.000020106601, 0.0011484319, -879578.94, -48469.04 
1.1855553e+3, 2.2517858e+2, -797096.75, -927980.3, -9355.033, 0.00039133348, 0.0015357969, -796431.44, -63181.473 
1.1855295e+3, 2.3516397e+2, -709230.8, -834832.06, -9398.86, 0.000019718582, 0.0012490733, -708531.44, -73138.125 
1.1855039e+3, 2.4514899e+2, -626520.3, -752290.56, -8291.938, -0.0006155413, 0.0019802575, -625976.0, -88435.836 
1.1854785e+3, 2.5513363e+2, -538540.2, -658943.8, -8267.908, -0.0014991051, 0.0017066704, -537975.1, -98284.6 
1.1854532e+3, 2.651179e+2, -455624.8, -576397.5, -6668.2593, -0.0013898187, 0.0021980267, -455257.75, -113413.24 
1.1854282e+3, 2.7510187e+2, -367096.38, -482663.0, -6505.938, -0.00031878377, 0.0013297378, -366731.28, -122729.37 
1.1854035e+3, 2.8508544e+2, -284215.2, -399996.94, -4408.276, -0.00030863192, 0.0018624765, -284047.6, -137884.73 
1.1853789e+3, 2.9506868e+2, -196300.52, -306488.84, -4266.287, -0.0012130647, 0.0013069817, -196135.58, -147808.52 
1.18535474e+3, 3.0505493e+2, -114818.46, -174583.72, -1899.2152, -0.0013583224, 0.002459231, -114758.17, -114758.17 
1.1853308e+3, 3.1504425e+2, -124503.625, -178877.08, -1681.016, -0.0009944116, 0.0038532717, -124451.7, -124451.7 
1.1853071e+3, 3.2503825e+2, -67033.29, -44882.023, 465.66577, -0.00090092473, 0.00064969994, -44872.24, -44872.24 
1.1960536e+3, 3.5414132e+1, -2416584.5, -2592541.0, -3421.3403, -0.006178289, 0.0011425007, -2416518.0, 176423.86 
1.1960292e+3, 4.5406073e+1, -2338840.3, -2514897.8, -3528.9177, 0.008921141, 0.007132223, -2338769.5, 156251.13 
1.1960045e+3, 5.5397487e+1, -2246861.8, -2420229.5, -3651.4426, 0.0008753953, 0.00091158494, -2246785.0, 150319.95 
1.19597964e+3, 6.538863e+1, -2162673.0, -2335836.5, -6468.9336, -0.0014627699, 0.00032405986, -2162431.8, 136759.9 
1.1959544e+3, 7.5379527e+1, -2077376.6, -2244223.8, -6741.606, 0.0012709259, 0.002862908, -2077104.6, 124176.26 
1.1959287e+3, 8.5370064e+1, -1994666.9, -2160918.0, -8586.585, 0.0018905104, 0.0033412445, -1994224.6, 109149.02 
1.195903e+3, 9.5360243e+1, -1905625.6, -2067435.0, -8727.595, 0.00061951467, 0.00017674165, -1905156.3, 100313.59 
1.19587705e+3, 1.0535012e+2, -1822493.0, -1984247.6, -10438.162, 0.00007705511, 0.00064190786, -1821822.3, 85746.805 
1.1958508e+3, 1.15339674e+2, -1735594.3, -1891761.8, -10498.178, 0.00016033177, 0.0024227258, -1734891.6, 74779.78 
1.1958246e+3, 1.2532888e+2, -1652640.6, -1808575.8, -11570.77, 0.0005470211, 0.0033866111, -1651786.6, 59990.555 
1.1957981e+3, 1.3531773e+2, -1564331.8, -1715411.9, -11648.814, 0.0010746614, 0.0017731834, -1563438.9, 50447.563 
1.1957716e+3, 1.4530623e+2, -1481406.4, -1632711.6, -12519.79, 0.0009282226, 0.0017625751, -1480377.4, 35621.76 
1.1957449e+3, 1.5529437e+2, -1393660.8, -1539778.9, -12652.726, 0.00019516195, 0.0011697426, -1392573.3, 25542.19 
1.1957181e+3, 1.6528219e+2, -1310337.5, -1456116.9, -13068.351, -0.00037477314, 0.0018107657, -1309175.3, 11059.462 
1.1956914e+3, 1.7526968e+2, -1222276.8, -1363004.0, -12995.176, -0.0007645315, 0.001589426, -1221086.8, 1270.5011 
1.1956647e+3, 1.8525682e+2, -1139456.3, -1280423.9, -12992.523, -0.00038777126, 0.002068165, -1138268.8, -13785.411 
1.19563796e+3, 1.952436e+2, -1051618.4, -1187408.8, -13053.128, 0.0006839175, 0.0014136479, -1050375.0, -23762.006 
1.19561136e+3, 2.0523001e+2, -968455.4, -1104226.1, -12598.508, 0.0005755801, 0.002218138, -967296.25, -38550.16 
1.1955847e+3, 2.152161e+2, -880191.9, -1011022.8, -12506.803, -0.00059568684, 0.0023192307, -879007.0, -48124.535 
1.1955581e+3, 2.2520182e+2, -797189.0, -928132.5, -11774.782, -0.001002715, 0.0030276135, -796138.6, -63116.137 
1.1955317e+3, 2.3518717e+2, -709307.7, -834981.5, -11810.187, -0.0008114562, 0.0021179665, -708207.5, -73041.56 
1.1955053e+3, 2.4517217e+2, -626479.6, -752176.6, -10700.358, -0.0005818182, 0.0025307555, -625575.25, -88262.39 
1.19547926e+3, 2.5515684e+2, -538466.94, -658839.3, -10672.627, -0.0002596275, 0.0023487725, -537528.0, -98064.914 
1.1954534e+3, 2.6514113e+2, -455333.94, -575763.4, -8965.527, -0.00043764728, 0.0024953377, -454670.16, -113053.29 
1.1954276e+3, 2.7512512e+2, -366818.34, -482069.4, -8817.333, -0.0010506889, 0.00084152917, -366147.66, -122373.76 
1.1954021e+3, 2.8510877e+2, -283990.9, -399444.06, -6903.9907, -0.001326653, 0.0018002138, -283579.53, -137645.11 
1.19537696e+3, 2.9509205e+2, -196056.84, -305938.47, -6760.666, -0.0011313286, 0.0028423795, -195642.45, -147544.36 
1.1953519e+3, 3.0507833e+2, -114473.234, -173865.33, -4255.862, -0.0008521204, 0.0022435142, -114169.82, -114169.82 
1.1953274e+3, 3.1506765e+2, -124170.766, -178168.48, -4040.7512, -0.0007023308, -0.0015073534, -123870.06, -123870.06 
1.1953031e+3, 3.2506177e+2, -66931.77, -44576.84, -1926.1309, -0.0011502594, 0.0014009873, -44412.098, -44412.098 
1.20606974e+3, 3.5438588e+1, -2415310.0, -2593509.0, -378.56232, -0.006147367, 0.0062570465, -2415309.3, 177392.92 
1.20604455e+3, 4.5430297e+1, -2330440.3, -2511153.5, -754.2187, 0.010303797, -0.002382168, -2330437.0, 164346.17 
1.2060193e+3, 5.542177e+1, -2244200.0, -2419393.5, -1026.977, 0.0007589316, 0.0020283079, -2244194.0, 152672.9 
1.2059935e+3, 6.54129e+1, -2161376.0, -2335664.3, -4284.526, -0.0018288125, 0.004007203, -2161270.8, 137683.23 
1.2059675e+3, 7.54037e+1, -2073578.8, -2242846.5, -4372.7188, 0.0015345283, 0.0023543152, -2073465.9, 127578.13 
1.2059413e+3, 8.5394186e+1, -1990854.8, -2159444.8, -5871.5483, 0.002189841, 0.0019829988, -1990650.5, 112486.68 
1.2059149e+3, 9.5384353e+1, -1903966.5, -2067021.0, -6071.961, 0.0003601886, 0.0007921947, -1903740.8, 101492.85 
1.2058882e+3, 1.053742e+2, -1821145.3, -1983746.0, -7923.8535, -0.00015834272, 0.0016147554, -1820760.0, 86573.12 
1.20586134e+3, 1.15363725e+2, -1733178.1, -1890756.5, -8015.756, 0.00048163004, 0.0023499462, -1732771.4, 76664.35 
1.2058344e+3, 1.253529e+2, -1650288.0, -1807662.5, -9049.769, 0.0008669293, 0.0029666778, -1649769.4, 61772.508 
1.2058071e+3, 1.3534172e+2, -1562952.6, -1714957.5, -9166.257, 0.0009176057, 0.0016828519, -1562401.9, 51249.367 
1.2057799e+3, 1.4533022e+2, -1480328.5, -1632200.8, -9953.503, 0.00069245324, 0.001939085, -1479678.9, 36085.22 
1.2057526e+3, 1.5531835e+2, -1392570.3, -1539268.8, -9861.001, 0.00024468623, 0.0015684015, -1391910.4, 25970.047 
1.2057252e+3, 1.6530615e+2, -1309537.5, -1455830.0, -10273.636, -0.00021800953, 0.0021819714, -1308819.6, 11180.279 
1.2056977e+3, 1.7529364e+2, -1221921.3, -1362902.3, -10414.243, -0.0006695518, 0.0017315021, -1221156.1, 966.42596 
1.2056703e+3, 1.8528076e+2, -1139183.6, -1280276.8, -10455.064, -0.00034368454, 0.0020925272, -1138413.1, -14164.378 
1.2056428e+3, 1.9526753e+2, -1051231.4, -1187215.3, -10430.552, 0.0006517771, 0.0013912149, -1050436.0, -24057.57 
1.2056155e+3, 2.0525397e+2, -968291.9, -1103948.9, -9997.901, 0.0005345519, 0.0021861063, -967559.0, -39047.594 
1.2055881e+3, 2.1524005e+2, -880812.8, -1011096.4, -9990.05, -0.00055825483, 0.0023336366, -880051.25, -49403.55 
1.20556094e+3, 2.2522579e+2, -798193.7, -928484.1, -9251.975, -0.001037952, 0.0031042423, -797539.94, -64752.434 
1.2055338e+3, 2.3521115e+2, -710292.1, -835309.4, -9165.498, -0.0010160265, 0.0022505438, -709623.7, -74692.805 
1.20550685e+3, 2.4519618e+2, -627318.44, -752321.56, -7943.487, -0.000660389, 0.0025722443, -626815.7, -89737.98 
1.20547995e+3, 2.5518087e+2, -539288.0, -658942.94, -7824.753, 0.0000731457, 0.0022142848, -538778.44, -99550.68 
1.20545335e+3, 2.6516518e+2, -456529.8, -576029.94, -6153.625, -0.00009744502, 0.002451548, -456213.75, -114832.445 
1.2054269e+3, 2.751492e+2, -368924.34, -482746.8, -6106.5347, -0.0011307719, 0.0011472745, -368597.66, -125059.59 
1.20540075e+3, 2.8513286e+2, -286362.66, -400114.34, -4263.7363, -0.0014308309, 0.0022482695, -286203.06, -140504.81 
1.20537475e+3, 2.951162e+2, -198317.0, -306541.84, -4099.4844, -0.00088361633, 0.0032765158, -198161.94, -150300.42 
1.2053491e+3, 3.051025e+2, -117173.08, -174893.19, -1668.8221, -0.00068619475, 0.0020665978, -117124.87, -117124.87 
1.20532386e+3, 3.1509182e+2, -127575.234, -179506.36, -1649.4813, -0.0010616623, -0.0029917436, -127522.9, -127522.9 
1.2052988e+3, 3.2508606e+2, -70037.25, -44336.277, 770.9798, -0.001179017, 0.0031379408, -44313.17, -44313.17 
1.2160859e+3, 3.5463774e+1, -2417706.8, -2598413.0, -852.72864, 0.0029990266, 0.009381477, -2417702.8, 174752.56 
1.2160601e+3, 4.5455158e+1, -2330875.8, -2512076.8, -3493.4255, -0.0020203283, -0.012732575, -2330808.5, 163731.14 
1.2160341e+3, 5.5446696e+1, -2244630.8, -2420203.0, -3690.9834, 0.0024013598, 0.00376268, -2244553.3, 152069.52 
1.2160077e+3, 6.5437806e+1, -2161585.0, -2336062.8, -6537.562, 0.0029025883, 0.008062165, -2161340.5, 137369.31 
1.21598095e+3, 7.542853e+1, -2073790.6, -2243250.8, -6653.3174, 0.0003044793, 0.000522077, -2073529.9, 127270.83 
1.215954e+3, 8.541897e+1, -1991179.5, -2160157.0, -8386.285, -0.00025874065, -0.00008999957, -1990764.4, 112130.01 
1.2159268e+3, 9.540913e+1, -1904248.4, -2067692.0, -8566.1455, 0.000755681, 0.0032099807, -1903800.6, 101190.15 
1.21589944e+3, 1.05398946e+2, -1821270.3, -1984088.0, -10165.723, 0.001218932, 0.004176096, -1820638.0, 86452.58 
1.2158718e+3, 1.15388416e+2, -1733369.8, -1891130.6, -10269.461, 0.0011889254, 0.0013305534, -1732704.1, 76489.695 
1.2158441e+3, 1.2537755e+2, -1650541.0, -1808149.4, -11473.943, 0.0007004792, 0.0011122621, -1649710.1, 61590.066 
1.2158163e+3, 1.3536637e+2, -1563162.8, -1715397.4, -11581.056, -0.000111529844, 0.0013600223, -1562286.8, 51123.12 
1.21578835e+3, 1.4535485e+2, -1480156.0, -1631912.3, -12293.805, -0.00022711417, 0.0025892863, -1479166.5, 36356.168 
1.21576026e+3, 1.5534301e+2, -1392444.0, -1539015.4, -12225.203, 0.0002433716, 0.0027304753, -1391431.3, 26207.377 
1.2157322e+3, 1.6533081e+2, -1309837.4, -1456425.3, -12684.409, 0.00055822474, 0.0031425757, -1308747.9, 11010.366 
1.215704e+3, 1.7531826e+2, -1222170.1, -1363460.1, -12810.438, 0.0007174397, 0.0018525627, -1221018.0, 863.37506 
1.2156759e+3, 1.8530536e+2, -1139123.8, -1280157.4, -12770.186, 0.00025689727, 0.0020883696, -1137976.8, -13969.06 
1.2156477e+3, 1.9529215e+2, -1051204.6, -1187118.4, -12754.337, -0.00082643563, 0.001778465, -1050018.0, -23880.785 
1.2156196e+3, 2.0527856e+2, -968294.2, -1103905.0, -12454.222, -0.0009022382, 0.0022197973, -967159.9, -38889.664 
1.21559165e+3, 2.1526466e+2, -880775.94, -1011042.9, -12451.52, -0.00006484782, 0.001434066, -879596.44, -49189.945 
1.2155637e+3, 2.2525041e+2, -798024.8, -928149.56, -11639.698, -0.000074602685, 0.0020698153, -796991.8, -64445.6 
1.2155359e+3, 2.3523581e+2, -710123.75, -834985.06, -11556.589, -0.0007708368, 0.001797868, -709063.1, -74373.79 
1.2155082e+3, 2.4522085e+2, -627106.5, -751862.75, -10338.717, -0.00087954185, 0.0022116522, -626255.5, -89419.68 
1.2154806e+3, 2.5520557e+2, -539088.75, -658526.8, -10232.012, -0.00041946603, 0.0014725939, -538218.5, -99232.875 
1.2154532e+3, 2.6518995e+2, -456478.34, -575830.4, -8705.075, -0.00035016186, 0.002178898, -455846.75, -114707.82 
1.2154262e+3, 2.7517396e+2, -368841.44, -482556.94, -8654.5625, -0.0006992203, 0.0021506925, -368186.53, -124891.07 
1.2153993e+3, 2.8515765e+2, -286075.34, -399486.78, -6721.509, -0.000821389, 0.0031423103, -285678.38, -140223.02 
1.2153725e+3, 2.9514098e+2, -198008.27, -305923.44, -6564.6167, -0.00056848244, 0.002752667, -197610.4, -149992.06 
1.21534616e+3, 3.0512732e+2, -117180.68, -174938.78, -4216.537, -0.0009083963, 0.0019624052, -116874.48, -116874.48 
1.21532016e+3, 3.1511667e+2, -127580.914, -179519.73, -4183.5103, -0.0021066633, -0.0010759605, -127246.1, -127246.1 
1.21529445e+3, 3.2511106e+2, -68169.98, -40386.496, -1809.2037, -0.0011698679, 0.005840177, -40269.18, -40269.18 
1.2261024e+3, 3.5489604e+1, -2411521.8, -2598841.3, 1500.8093, 0.00668089, 0.0064465534, -2411509.8, 180692.45 
1.2260758e+3, 4.5480937e+1, -2327150.0, -2510008.8, -1562.4746, -0.0043753795, -0.007198546, -2327136.5, 167150.52 
1.2260491e+3, 5.547243e+1, -2241159.5, -2418378.8, -1370.5227, 0.0013106233, 0.003178093, -2241149.0, 155221.52 
1.2260219e+3, 6.546351e+1, -2158811.3, -2335208.3, -3688.4944, 0.0028834043, 0.0061293365, -2158734.3, 139723.64 
1.2259944e+3, 7.54542e+1, -2071222.4, -2242494.5, -3956.4963, 0.0008670709, 0.0011512884, -2071131.0, 129418.086 
1.22596666e+3, 8.544461e+1, -1988414.1, -2159079.3, -5844.205, 0.00032044802, 0.0010260735, -1988214.3, 114428.88 
1.2259389e+3, 9.543473e+1, -1901283.1, -2066524.5, -5896.7686, 0.00089581154, 0.0031532547, -1901072.9, 103667.0 
1.2259108e+3, 1.0542451e+2, -1818808.0, -1983192.6, -7376.578, 0.0011244832, 0.0037776872, -1818477.6, 88362.42 
1.2258825e+3, 1.1541395e+2, -1731817.4, -1890677.9, -7543.073, 0.0010318862, 0.0013336119, -1731460.0, 77483.59 
1.225854e+3, 1.2540306e+2, -1649156.4, -1807584.8, -8694.346, 0.00059351855, 0.0014159377, -1648680.6, 62369.566 
1.2258255e+3, 1.3539186e+2, -1561525.8, -1714748.0, -8702.521, -0.000061338804, 0.001871053, -1561033.1, 52126.863 
1.2257968e+3, 1.4538035e+2, -1478743.3, -1631323.4, -9504.236, -0.00011270572, 0.002800062, -1478153.6, 37119.383 
1.22576796e+3, 1.5536848e+2, -1391562.3, -1538683.8, -9642.443, 0.00032543484, 0.0022143445, -1390932.9, 26456.22 
1.2257391e+3, 1.6535626e+2, -1309073.4, -1456066.6, -10012.1, 0.00062316825, 0.0026630166, -1308394.5, 11114.285 
1.22571036e+3, 1.753437e+2, -1221248.0, -1363011.8, -9928.433, 0.0007775222, 0.0020616653, -1220556.0, 1075.9889 
1.2256815e+3, 1.8533081e+2, -1138489.3, -1279758.1, -9866.254, 0.00026188995, 0.002569247, -1137803.5, -14045.224 
1.2256527e+3, 1.953176e+2, -1051365.3, -1187078.4, -9872.595, -0.0008941598, 0.002144878, -1050650.8, -24762.92 
1.2256239e+3, 2.0530401e+2, -968739.9, -1104092.8, -9575.68, -0.0009630871, 0.0023842126, -968065.8, -40044.96 
1.2255951e+3, 2.152901e+2, -880989.94, -1011127.8, -9610.067, -0.00002403847, 0.001349795, -880284.1, -50126.902 
1.2255664e+3, 2.2527584e+2, -798174.8, -927963.56, -8829.2705, 0.00007058611, 0.0019297085, -797576.94, -65280.074 
1.22553796e+3, 2.3526128e+2, -710681.94, -834993.9, -8760.183, -0.0005220267, 0.0018116867, -710067.6, -75627.89 
1.2255095e+3, 2.4524634e+2, -628161.0, -752180.6, -7612.714, -0.0007149207, 0.00225541, -627695.5, -91109.4 
1.2254812e+3, 2.5523105e+2, -540657.9, -659058.8, -7608.5566, -0.00051789096, 0.0013799722, -540170.94, -101435.15 
1.22545324e+3, 2.6521546e+2, -458192.34, -576277.3, -6147.6543, -0.00061352336, 0.0022682585, -457873.16, -116984.34 
1.2254253e+3, 2.7519953e+2, -370708.6, -483050.94, -5966.1255, -0.0010283515, 0.0027517, -370392.63, -127347.65 
1.2253977e+3, 2.8518322e+2, -287934.94, -400023.84, -3881.425, -0.0008998119, 0.0031370788, -287800.72, -142596.06 
1.2253704e+3, 2.9516658e+2, -199753.8, -306403.44, -3804.9312, -0.00014902458, 0.0011576639, -199618.22, -152250.73 
1.2253433e+3, 3.0515298e+2, -119343.23, -175568.47, -1601.7854, -0.0004170552, 0.002137217, -119297.63, -119297.63 
1.2253164e+3, 3.151424e+2, -130679.79, -180590.64, -1315.5258, -0.0019403743, 0.0039938823, -130645.14, -130645.14 
1.2252899e+3, 3.2513678e+2, -71568.46, -40877.7, 547.7036, -0.0017238901, 0.0034806936, -40867.93, -40867.93 
1.2361191e+3, 3.5515976e+1, -2413705.8, -2602341.0, -1279.2633, 0.0065089813, -0.00007536766, -2413697.0, 178246.61 
1.2360917e+3, 4.5507458e+1, -2326883.5, -2509244.8, -4162.621, -0.00085911027, 0.008904748, -2326788.5, 167238.84 
1.23606406e+3, 5.5498815e+1, -2240766.5, -2417545.0, -4058.4734, -0.0017262375, 0.000929946, -2240673.5, 155438.47 
1.2360361e+3, 6.548985e+1, -2159201.5, -2336181.3, -6012.9106, -0.00047277188, 0.00021067474, -2158997.3, 139202.39 
1.236008e+3, 7.548056e+1, -2071665.3, -2243445.0, -6264.0684, 0.0026530337, 0.0035283007, -2071437.1, 128853.72 
1.23597965e+3, 8.547094e+1, -1988525.9, -2159268.8, -8272.1455, 0.0029241736, 0.0043317387, -1988126.0, 114259.02 
1.23595096e+3, 9.5461e+1, -1901412.8, -2066738.5, -8349.061, 0.0007742278, 0.0013445717, -1900992.1, 103490.32 
1.2359221e+3, 1.0545074e+2, -1819121.8, -1983823.1, -9877.716, -0.00005996911, 0.001331721, -1818531.4, 88051.54 
1.2358931e+3, 1.1544017e+2, -1732062.0, -1891246.3, -10028.664, 0.00020511018, 0.0021006865, -1731432.8, 77253.89 
1.2358639e+3, 1.2542929e+2, -1649145.6, -1807623.4, -11039.04, 0.00047597257, 0.00331566, -1648380.4, 62412.9 
1.2358346e+3, 1.3541807e+2, -1561606.0, -1714823.5, -11069.33, 0.000733928, 0.002992761, -1560810.4, 52092.805 
1.2358053e+3, 1.4540651e+2, -1479057.4, -1631948.4, -11997.353, 0.00072372775, 0.0026759987, -1478121.8, 36894.758 
1.2357757e+3, 1.553946e+2, -1391809.0, -1539235.9, -12116.07, 0.0004075853, 0.00046011232, -1390819.9, 26313.266 
1.2357462e+3, 1.6538239e+2, -1308923.8, -1455770.3, -12346.034, 0.00008519404, 0.0011615834, -1307893.0, 11359.887 
1.23571664e+3, 1.7536986e+2, -1221173.0, -1362762.0, -12283.55, -0.00021975015, 0.0023742109, -1220115.3, 1260.4467 
1.2356871e+3, 1.8535697e+2, -1138532.6, -1279828.0, -12411.833, -0.00022575512, 0.003427898, -1137450.6, -13948.729 
1.23565756e+3, 1.9534375e+2, -1051354.8, -1187113.6, -12415.821, 0.00008500131, 0.0025111316, -1050228.6, -24597.053 
1.23562805e+3, 2.0533016e+2, -968770.3, -1104191.8, -11975.393, -0.0000008414834, 0.0027010913, -967719.5, -39954.953 
1.2355985e+3, 2.1531625e+2, -881051.9, -1011240.2, -12006.27, -0.0004016652, 0.0019414035, -879953.9, -50052.94 
1.2355692e+3, 2.2530201e+2, -798075.4, -927703.25, -11315.217, -0.00048415264, 0.0025280775, -797095.06, -65054.53 
1.2355399e+3, 2.3528744e+2, -710581.94, -834755.44, -11258.786, -0.00032096155, 0.0022330484, -709569.4, -75386.14 
1.2355107e+3, 2.4527252e+2, -628192.9, -752170.5, -10133.882, -0.00030476906, 0.0026696448, -627370.0, -91040.47 
1.2354818e+3, 2.5525725e+2, -540657.4, -659041.7, -10124.832, -0.00037146977, 0.0018374894, -539797.7, -101318.5 
1.23545304e+3, 2.6524168e+2, -457845.6, -575569.8, -8716.196, -0.0009651008, 0.0026761596, -457203.75, -116571.766 
1.2354243e+3, 2.7522576e+2, -370339.88, -482363.97, -8547.092, -0.0020540545, 0.0030308433, -369691.5, -126903.81 
1.235396e+3, 2.852095e+2, -287782.53, -399712.72, -6314.4585, -0.0016383005, 0.002406123, -287427.44, -142480.33 
1.235368e+3, 2.9519287e+2, -199637.52, -306119.5, -6243.045, 0.0003039812, -0.0013287339, -199272.73, -152162.81 
1.23534024e+3, 3.0517936e+2, -118910.445, -174613.08, -4397.971, 0.00062286964, 0.0026193138, -118565.34, -118565.34 
1.2353126e+3, 3.1516892e+2, -130199.4, -179621.52, -4106.983, -0.0008438228, 0.011834483, -129860.43, -129860.43 
1.23528525e+3, 3.2516316e+2, -71908.125, -41620.703, -2210.683, -0.0030116807, -0.0036606288, -41460.195, -41460.195 
1.2461358e+3, 3.5543343e+1, -2408720.0, -2598202.5, 1118.0823, 0.0014642894, -0.0030862885, -2408713.5, 182962.14 
1.2461077e+3, 4.5534927e+1, -2324864.8, -2509409.5, -376.3349, 0.004250942, 0.014753632, -2324864.0, 168894.14 
1.2460792e+3, 5.5526114e+1, -2237530.5, -2417148.5, -1255.6703, -0.00061818823, 0.00096135016, -2237521.8, 158322.67 
1.2460505e+3, 6.551707e+1, -2155308.0, -2334492.5, -3430.1775, -0.0010901223, -0.0014969368, -2155242.5, 142690.67 
1.24602176e+3, 7.550776e+1, -2068598.3, -2242172.8, -3457.9187, 0.001979527, 0.0034848445, -2068529.4, 131494.9 
1.24599256e+3, 8.549812e+1, -1986096.3, -2158460.0, -5485.701, 0.0025256977, 0.0048077786, -1985921.9, 116196.93 
1.2459631e+3, 9.548813e+1, -1899380.5, -2066111.9, -5702.6777, 0.00086676376, 0.0013685132, -1899185.8, 105030.87 
1.2459336e+3, 1.0547785e+2, -1816981.3, -1982950.5, -7148.216, 0.000238527, 0.0013241345, -1816673.9, 89643.484 
1.2459038e+3, 1.1546726e+2, -1729582.5, -1890201.6, -7176.3315, 0.00052764575, 0.0024782845, -1729262.5, 79158.71 
1.2458739e+3, 1.2545633e+2, -1647084.3, -1806847.5, -8250.97, 0.00071317435, 0.0035725753, -1646659.3, 63868.883 
1.24584384e+3, 1.354451e+2, -1560475.9, -1714502.6, -8402.339, 0.00073390186, 0.0026683682, -1560018.9, 52619.426 
1.24581374e+3, 1.4543352e+2, -1478077.0, -1631489.0, -9175.097, 0.0006606367, 0.0025196848, -1477530.1, 37221.574 
1.2457836e+3, 1.554216e+2, -1390394.0, -1538583.3, -9111.794, 0.00044853694, 0.0011607921, -1389835.9, 27032.645 
1.2457533e+3, 1.6540937e+2, -1307840.4, -1455263.6, -9413.156, 0.00007417676, 0.001842889, -1307241.8, 11746.523 
1.245723e+3, 1.7539683e+2, -1221072.6, -1362742.3, -9519.419, -0.0003876266, 0.0022539068, -1220435.8, 675.47516 
1.24569274e+3, 1.8538396e+2, -1138573.9, -1279782.6, -9647.058, -0.00028199365, 0.002990982, -1137917.9, -14680.342 
1.2456625e+3, 1.9537073e+2, -1050868.3, -1186831.3, -9643.555, 0.00039559332, 0.0022285448, -1050187.6, -24820.518 
1.2456322e+3, 2.0535716e+2, -968320.3, -1103837.1, -9166.795, 0.000252762, 0.002722681, -967703.06, -40202.94 
1.2456021e+3, 2.1534325e+2, -881245.0, -1011172.56, -9084.964, -0.00056737725, 0.0023268217, -880612.8, -50976.44 
1.2455719e+3, 2.2532901e+2, -798736.06, -927974.4, -8416.701, -0.0006169204, 0.002902879, -798190.2, -66414.26 
1.2455419e+3, 2.3531444e+2, -711476.7, -835108.1, -8456.986, -0.000033185614, 0.0022833971, -710900.9, -76982.18 
1.2455121e+3, 2.4529953e+2, -629082.1, -752251.06, -7293.816, -0.00019644905, 0.0026656138, -628651.7, -92586.87 
1.2454823e+3, 2.5528428e+2, -541778.7, -659233.4, -7092.9854, -0.0009726684, 0.0020491472, -541351.9, -103137.66 
1.24545276e+3, 2.652687e+2, -459110.78, -576007.06, -5693.48, -0.0011181807, 0.002731717, -458834.13, -118467.28 
1.2454235e+3, 2.7525285e+2, -371410.3, -482666.6, -5769.353, -0.0007239283, 0.002580558, -371111.94, -128589.44 
1.2453943e+3, 2.8523657e+2, -289416.75, -400041.25, -3711.5159, -0.0008573991, 0.0021791812, -289292.34, -144610.69 
1.2453655e+3, 2.9522002e+2, -203009.16, -307247.94, -3524.0637, -0.0013160462, -0.0006380298, -202890.16, -156046.1 
1.2453369e+3, 3.052065e+2, -122049.305, -175275.23, -1516.1111, -0.0008711012, 0.0026887339, -122006.16, -122006.16 
1.2453086e+3, 3.1519613e+2, -131896.4, -179617.03, -1183.6427, 0.00009900827, 0.009890842, -131867.06, -131867.06 
1.2452805e+3, 3.2519037e+2, -73818.836, -43610.555, 451.1148, -0.0017754132, -0.0037365342, -43603.816, -43603.816 
1.2561527e+3, 3.557149e+1, -2406429.8, -2592000.8, -2481.779, -0.0068446957, -0.003915877, -2406396.8, 185003.1 
1.2561238e+3, 4.5563155e+1, -2326340.8, -2512709.0, -2893.483, 0.009570915, 0.013814464, -2326295.8, 167185.66 
1.2560946e+3, 5.555414e+1, -2238997.0, -2420246.8, -3643.9731, 0.0031564264, 0.0025769835, -2238923.8, 156645.9 
1.2560652e+3, 6.554498e+1, -2155261.5, -2334518.5, -5927.5596, -0.000007671472, -0.00034422486, -2155065.8, 142593.73 
1.2560356e+3, 7.5535655e+1, -2068630.4, -2242269.0, -5989.0186, -0.00040974803, 0.0017614155, -2068424.1, 131326.84 
1.2560056e+3, 8.552598e+1, -1986525.0, -2159288.0, -8029.707, 0.000030016086, 0.00337235, -1986152.6, 115693.16 
1.2559755e+3, 9.551596e+1, -1899745.9, -2066871.1, -8225.463, 0.0010501349, 0.002710235, -1899342.0, 104601.836 
1.2559451e+3, 1.0550565e+2, -1817016.9, -1983040.8, -9524.792, 0.0015346233, 0.0030551571, -1816472.3, 89572.64 
1.2559147e+3, 1.1549504e+2, -1729711.6, -1890368.1, -9578.594, 0.0016025369, 0.0025601988, -1729142.6, 79006.3 
1.255884e+3, 1.254841e+2, -1647439.9, -1807464.9, -10854.654, 0.001118486, 0.002655147, -1646707.0, 63549.24 
1.2558532e+3, 1.354728e+2, -1560729.4, -1715018.1, -10982.098, 0.00009445724, 0.0013144964, -1559951.6, 52415.188 
1.2558223e+3, 1.4546123e+2, -1477956.8, -1631282.3, -11513.917, -0.0001146808, 0.0023949472, -1477096.9, 37383.313 
1.2557913e+3, 1.5544936e+2, -1390389.0, -1538453.8, -11484.073, 0.00039011863, 0.0037183086, -1389503.6, 27093.021 
1.2557603e+3, 1.6543712e+2, -1308098.1, -1455728.8, -12025.146, 0.00041319453, 0.0041599246, -1307125.0, 11591.52 
1.2557293e+3, 1.7542452e+2, -1221241.3, -1363142.3, -12113.983, 0.000039887756, 0.0018051459, -1220214.6, 625.4016 
1.2556984e+3, 1.8541162e+2, -1138525.8, -1279753.5, -12016.818, -0.00006407362, 0.0016105783, -1137510.5, -14544.105 
1.2556674e+3, 1.9539839e+2, -1050882.3, -1186831.3, -12030.089, 0.00012942275, 0.0014886318, -1049825.9, -24729.967 
1.2556364e+3, 2.0538484e+2, -968216.4, -1103560.4, -11718.015, -0.00007676146, 0.0025397884, -967209.4, -39980.613 
1.2556055e+3, 2.1537097e+2, -881113.44, -1010901.0, -11647.292, -0.0006287097, 0.0025848446, -880076.44, -50711.668 
1.2555745e+3, 2.2535673e+2, -798843.0, -928136.4, -10961.537, -0.00050367025, 0.0031500258, -797920.25, -66415.98 
1.2555438e+3, 2.3534214e+2, -711547.7, -835256.25, -10993.33, 0.0002474644, 0.0020540075, -710578.4, -76931.14 
1.2555131e+3, 2.4532725e+2, -628709.3, -751478.56, -9861.182, -0.0003936736, 0.002350147, -627922.25, -92129.11 
1.2554827e+3, 2.553121e+2, -541423.0, -658507.56, -9681.896, -0.0022551836, 0.0020952348, -540627.8, -102685.83 
1.2554525e+3, 2.6529652e+2, -459274.03, -576312.5, -8213.772, -0.0011610833, 0.002539939, -458700.4, -118605.93 
1.2554225e+3, 2.7528057e+2, -371547.5, -482964.44, -8287.545, 0.002566871, 0.0015483098, -370934.44, -128684.01 
1.2553926e+3, 2.8526437e+2, -289078.97, -399265.38, -6579.171, 0.001109386, 0.0024356998, -288687.53, -144278.22 
1.255363e+3, 2.9524788e+2, -202644.23, -306460.16, -6393.171, -0.0048375567, 0.0028221924, -202252.02, -155681.13 
1.2553334e+3, 3.0523443e+2, -121446.47, -174079.03, -3924.5981, -0.004613402, 0.0023532088, -121155.44, -121155.44 
1.2553045e+3, 3.1522402e+2, -131363.81, -178515.64, -3607.4106, 0.00083440926, -0.0007090515, -131089.42, -131089.42 
1.2552758e+3, 3.252184e+2, -74853.336, -45628.438, -2187.3147, 0.0015169876, 0.0028904548, -45465.637, -45465.637 
1.2661697e+3, 3.560051e+1, -2404942.0, -2591461.0, 495.3166, -0.0014646983, 0.0019183639, -2404940.8, 186174.69 
1.2661399e+3, 4.5591983e+1, -2321428.0, -2510825.8, -1101.9655, 0.001765571, 0.0038489297, -2321421.5, 171777.23 
1.2661101e+3, 5.5583024e+1, -2234806.8, -2418807.3, -938.33655, 0.0037367297, 0.0032434985, -2234802.0, 160484.69 
1.2660798e+3, 6.5573835e+1, -2151829.0, -2333268.5, -3057.4773, 0.0029656477, 0.0030452022, -2151777.5, 145599.14 
1.2660494e+3, 7.556442e+1, -2066032.1, -2241431.0, -3353.6746, -0.00008699975, 0.0016581523, -2065968.0, 133500.94 
1.2660187e+3, 8.55547e+1, -1984071.5, -2158365.0, -5250.221, -0.0004431432, 0.0023380893, -1983913.5, 117650.63 
1.2659878e+3, 9.554467e+1, -1897089.5, -2065813.3, -5296.4233, 0.0012746983, 0.002826192, -1896923.4, 106739.08 
1.2659568e+3, 1.0553434e+2, -1814728.8, -1982141.4, -6613.981, 0.0017106569, 0.0034443121, -1814467.9, 91295.945 
1.2659255e+3, 1.15523696e+2, -1728389.5, -1889947.9, -6758.822, 0.0011219009, 0.0024223933, -1728107.3, 79760.86 
1.265894e+3, 1.2551273e+2, -1646103.4, -1806870.3, -7900.5776, 0.00072363106, 0.0024608348, -1645716.0, 64259.492 
1.2658626e+3, 1.3550143e+2, -1558696.0, -1714094.4, -7860.935, 0.0004262607, 0.0016084297, -1558299.4, 53786.785 
1.265831e+3, 1.4548984e+2, -1476273.8, -1630628.8, -8452.392, 0.0002939086, 0.002626007, -1475812.3, 38387.58 
1.2657993e+3, 1.5547796e+2, -1389836.5, -1538353.3, -8614.353, 0.00037821624, 0.003361038, -1389338.5, 26977.908 
1.2657675e+3, 1.654657e+2, -1307582.4, -1455446.9, -9082.96, 0.00036040045, 0.0038070297, -1307026.5, 11409.935 
1.2657358e+3, 1.754531e+2, -1220007.6, -1362510.3, -9004.229, 0.00026070978, 0.0020093322, -1219440.9, 1119.0114 
1.265704e+3, 1.8544018e+2, -1137570.0, -1279271.9, -8877.569, 0.00008149745, 0.0020468368, -1137016.0, -14329.556 
1.2656723e+3, 1.9542697e+2, -1050939.4, -1186825.6, -8922.934, -0.000114493145, 0.0018086378, -1050356.0, -25539.986 
1.2656406e+3, 2.0541342e+2, -968632.7, -1103629.9, -8667.5625, -0.00023892483, 0.0025793912, -968078.5, -41129.695 
1.2656088e+3, 2.1539953e+2, -881501.5, -1010949.6, -8684.199, -0.00031293946, 0.0022658408, -880921.5, -51836.68 
1.2655772e+3, 2.2538531e+2, -799121.56, -928081.6, -7933.5044, -0.00030224494, 0.0029315895, -798635.3, -67411.14 
1.2655458e+3, 2.3537074e+2, -711870.4, -835216.7, -7787.403, -0.000113862574, 0.0022619735, -711380.7, -78013.73 
1.2655143e+3, 2.4535586e+2, -629387.4, -751717.25, -6801.5522, -0.0005148061, 0.0026190374, -629010.4, -93497.56 
1.2654832e+3, 2.5534067e+2, -542520.9, -658922.5, -6936.9487, -0.0014905728, 0.0021864306, -542108.94, -104447.3 
1.2654522e+3, 2.6532513e+2, -460581.75, -576519.3, -5351.376, -0.0007689599, 0.0024727997, -460335.25, -120521.3 
1.2654214e+3, 2.7530923e+2, -373359.66, -483416.03, -5055.074, 0.0015186815, 0.0013501821, -373127.97, -131158.36 
1.2653908e+3, 2.8529307e+2, -290966.06, -399886.63, -3478.9387, 0.00044718635, 0.0029135803, -290855.06, -146726.92 
1.2653603e+3, 2.952766e+2, -204120.64, -306882.16, -3465.0322, -0.0035879067, 0.004695605, -204003.92, -157714.58 
1.26533e+3, 3.0526316e+2, -123453.29, -174851.39, -1089.1633, -0.0033681982, 0.0021571906, -123430.22, -123430.22 
1.2653004e+3, 3.1525272e+2, -134624.63, -179861.47, -1250.1703, 0.00054446294, -0.0060407487, -134590.11, -134590.11 
1.2652709e+3, 3.252473e+2, -77878.766, -45078.348, 931.56885, 0.00032206645, 0.0069088247, -45051.91, -45051.91 
1.2761867e+3, 3.5630226e+1, -2406620.5, -2595077.3, -273.10056, 0.0118105905, 0.01158822, -2406620.0, 184204.11 
1.2761562e+3, 4.5621353e+1, -2321246.5, -2510137.8, -3662.3723, -0.0149440775, -0.011668604, -2321175.5, 171735.5 
1.2761258e+3, 5.56126e+1, -2234667.0, -2418135.3, -3527.0776, 0.0021704766, 0.0033368801, -2234599.3, 160397.52 
1.2760948e+3, 6.5603447e+1, -2152456.8, -2334424.0, -5813.274, 0.0069684973, 0.007890446, -2152271.3, 144815.34 
1.2760635e+3, 7.5593925e+1, -2066523.9, -2242471.3, -6072.7764, 0.0020224566, 0.0026631423, -2066314.5, 132865.36 
1.276032e+3, 8.5584146e+1, -1984120.4, -2158535.8, -7693.429, 0.00041650786, 0.0016108375, -1983781.6, 117494.02 
1.2760003e+3, 9.5574105e+1, -1897220.3, -2066047.8, -7767.862, 0.001448156, 0.0021137432, -1896863.6, 106510.48 
1.2759684e+3, 1.05563745e+2, -1815019.3, -1982641.8, -9254.455, 0.0010555425, 0.0029373425, -1814509.9, 90965.71 
1.2759364e+3, 1.1555307e+2, -1728602.0, -1890378.8, -9382.745, -0.00052025367, 0.0021581328, -1728059.6, 79520.62 
1.2759043e+3, 1.255421e+2, -1646032.9, -1806745.3, -10299.022, -0.00029740442, 0.0028373196, -1645375.5, 64312.19 
1.275872e+3, 1.3553083e+2, -1558725.6, -1714041.0, -10294.568, 0.0014210872, 0.0031080537, -1558046.3, 53751.953 
1.2758397e+3, 1.4551921e+2, -1476666.1, -1631304.3, -11121.647, 0.0015145936, 0.0031072055, -1475870.4, 38041.676 
1.2758072e+3, 1.5550724e+2, -1390127.6, -1538926.8, -11256.776, 0.0003227723, 0.00087201013, -1389280.9, 26748.53 
1.2757747e+3, 1.6549498e+2, -1307432.1, -1455171.4, -11475.157, -0.000048999573, 0.0015473459, -1306546.1, 11603.328 
1.2757422e+3, 1.7548244e+2, -1219950.1, -1362293.6, -11427.955, 0.0002758722, 0.0027460603, -1219038.5, 1234.0066 
1.2757097e+3, 1.8546954e+2, -1137695.8, -1279482.9, -11542.719, 0.00012110192, 0.00387813, -1136762.1, -14363.367 
1.2756771e+3, 1.954563e+2, -1051000.9, -1186987.6, -11581.569, -0.00039672208, 0.0029858514, -1050021.5, -25492.94 
1.2756446e+3, 2.0544273e+2, -968652.8, -1103682.9, -11210.812, -0.00031232074, 0.0028501595, -967728.4, -41066.89 
1.2756123e+3, 2.1542883e+2, -881527.25, -1010997.6, -11227.79, 0.0002519094, 0.0015296668, -880560.8, -51763.12 
1.27558e+3, 2.2541463e+2, -798897.0, -927543.7, -10477.025, -0.00008286033, 0.002387909, -798049.3, -67112.47 
1.2755477e+3, 2.3540011e+2, -711663.4, -834739.4, -10359.132, -0.0010545348, 0.0028670745, -710797.56, -77718.42 
1.2755156e+3, 2.4538524e+2, -629670.75, -752257.94, -9493.169, -0.00062053226, 0.003415286, -628940.0, -93714.98 
1.2754835e+3, 2.5537e+2, -542735.6, -659409.94, -9609.521, 0.0008822459, 0.002339665, -541949.5, -104575.23 
1.2754518e+3, 2.6535448e+2, -460000.25, -575309.06, -7982.133, -0.00016635985, 0.0025459214, -459450.3, -119923.95 
1.2754202e+3, 2.7533868e+2, -372825.9, -482269.16, -7714.057, -0.0033003073, 0.0018857104, -372284.84, -130603.73 
1.2753887e+3, 2.8532255e+2, -290961.56, -399873.06, -6257.2764, -0.0024625082, 0.0036197281, -290603.25, -146764.0 
1.2753576e+3, 2.953061e+2, -204062.78, -306865.94, -6235.0674, 0.0017908298, 0.005207545, -203686.02, -157685.55 
1.2753266e+3, 3.052926e+2, -123729.69, -175475.02, -3821.1663, 0.0020944865, 0.0021266637, -123449.03, -123449.03 
1.2752962e+3, 3.152821e+2, -134860.69, -180311.47, -3982.2402, -0.00085132517, -0.006726785, -134514.4, -134514.4 
1.2752658e+3, 3.252769e+2, -74713.766, -38398.12, -1876.8287, -0.0050943927, 0.008413344, -38301.383, -38301.383 
1.286204e+3, 3.566078e+1, -2399518.5, -2595030.0, 2240.3113, 0.0071553076, 0.009298285, -2399492.8, 191031.81 
1.2861727e+3, 4.565183e+1, -2318667.0, -2508613.0, -712.6615, -0.0055285534, -0.008305541, -2318664.3, 173948.14 
1.2861414e+3, 5.564305e+1, -2232316.3, -2416861.3, -831.74646, 0.0007890161, 0.0026666722, -2232312.5, 162385.94 
1.2861097e+3, 6.5633875e+1, -2150175.0, -2333622.3, -3095.063, 0.0031994963, 0.0064500067, -2150122.8, 146665.5 
1.2860775e+3, 7.562433e+1, -2063498.9, -2241325.3, -3144.7224, 0.0021529065, 0.0029438897, -2063443.4, 135438.6 
1.2860453e+3, 8.5614514e+1, -1981158.4, -2157317.5, -4674.476, 0.0015576279, 0.0022572572, -1981034.5, 119943.53 
1.2860128e+3, 9.560444e+1, -1895048.9, -2065250.9, -4829.726, 0.0013104364, 0.002135365, -1894912.0, 108164.78 
1.2859802e+3, 1.05594054e+2, -1813019.5, -1981891.3, -6296.7793, 0.00081810856, 0.002776613, -1812785.1, 92393.46 
1.2859474e+3, 1.1558336e+2, -1726274.3, -1889462.4, -6367.1357, 0.00012896801, 0.0022104576, -1726026.1, 81257.22 
1.2859145e+3, 1.2557237e+2, -1644121.4, -1805975.4, -7308.3164, 0.00024357234, 0.0028641666, -1643792.1, 65599.02 
1.2858814e+3, 1.3556106e+2, -1557817.5, -1713754.5, -7469.0146, 0.0010748717, 0.0028892413, -1557460.6, 54041.195 
1.2858483e+3, 1.4554943e+2, -1475730.6, -1630800.1, -8202.907, 0.0010503071, 0.0030548396, -1475297.9, 38317.87 
1.2858151e+3, 1.5553747e+2, -1388522.8, -1538095.0, -8071.5864, 0.00031327503, 0.0013215363, -1388088.4, 27644.672 
1.2857819e+3, 1.6552521e+2, -1306231.1, -1454653.3, -8272.429, 0.000104743376, 0.0019621826, -1305771.5, 12081.811 
1.2857486e+3, 1.7551264e+2, -1219830.3, -1362334.3, -8419.536, 0.00039180237, 0.0027012825, -1219334.5, 641.8545 
1.2857154e+3, 1.8549974e+2, -1137707.9, -1279402.0, -8545.545, 0.00020801462, 0.003700015, -1137194.4, -15091.528 
1.285682e+3, 1.954865e+2, -1050509.3, -1186647.5, -8502.676, -0.00031842268, 0.0029867, -1049980.3, -25747.662 
1.2856488e+3, 2.0547293e+2, -968133.0, -1103427.4, -8100.5757, -0.00029046295, 0.003079911, -967649.75, -41284.24 
1.2856156e+3, 2.1545905e+2, -881412.7, -1010912.0, -8096.601, 0.00023178359, 0.0019873506, -880908.44, -52406.766 
1.2855825e+3, 2.2544484e+2, -799226.2, -927559.75, -7440.563, -0.000056532605, 0.002586014, -798796.2, -68155.35 
1.2855496e+3, 2.3543033e+2, -712604.6, -835022.56, -7485.4736, -0.0009821563, 0.0024555835, -712148.6, -79365.516 
1.2855168e+3, 2.4541545e+2, -630585.3, -752443.8, -6466.545, -0.0005472255, 0.0030770113, -630243.1, -95314.32 
1.2854838e+3, 2.5540024e+2, -543286.3, -659397.3, -6209.2607, 0.0009947204, 0.0025916859, -542955.2, -105877.36 
1.2854514e+3, 2.6538473e+2, -461013.94, -575584.6, -4793.6997, -0.00020235109, 0.0030091978, -460813.72, -121583.97 
1.285419e+3, 2.7536896e+2, -375047.06, -483100.22, -4946.934, -0.0036845163, 0.0023216968, -374821.06, -133436.69 
1.2853867e+3, 2.8535286e+2, -292939.34, -400430.66, -3328.7542, -0.0025484378, 0.0031951382, -292836.34, -149294.03 
1.2853548e+3, 2.9533643e+2, -204767.73, -306831.75, -3091.2449, 0.0024615508, 0.0031690605, -204674.2, -158970.86 
1.285323e+3, 3.0532297e+2, -125126.27, -176173.27, -830.10657, 0.0024843272, 0.0026968443, -125112.78, -125112.78 
1.2852918e+3, 3.1531253e+2, -138144.2, -181847.86, -746.32416, -0.0012940702, 0.00020745114, -138131.47, -138131.47 
1.2852605e+3, 3.253073e+2, -78034.62, -37870.516, 519.0293, -0.005712059, 0.004785616, -37863.81, -37863.81 
1.2962215e+3, 3.5692015e+1, -2402538.8, -2599544.0, -2408.3167, -0.008221817, -0.000073245144, -2402509.3, 187709.16 
1.2961896e+3, 4.5683175e+1, -2318540.8, -2508762.0, -3262.382, 0.019607285, 0.0072015724, -2318485.0, 173820.34 
1.2961571e+3, 5.567421e+1, -2232376.5, -2417031.0, -3410.271, -0.0006805965, 0.001412975, -2232313.5, 162079.55 
1.2961245e+3, 6.5664977e+1, -2150261.3, -2333835.5, -5610.794, -0.005671798, 0.000947414, -2150089.8, 146393.67 
1.2960918e+3, 7.565547e+1, -2063636.1, -2241555.0, -5684.658, 0.0009813334, 0.0027720758, -2063454.8, 135122.0 
1.2960587e+3, 8.564565e+1, -1981482.8, -2157882.8, -7356.9927, 0.0027949603, 0.0038357356, -1981176.5, 119496.39 
1.2960255e+3, 9.563553e+1, -1895340.1, -2065784.4, -7500.9775, 0.0008787706, 0.002672804, -1895010.6, 107761.48 
1.2959921e+3, 1.05625115e+2, -1813175.0, -1982199.6, -8837.582, 0.0008515083, 0.002885378, -1812714.3, 92159.945 
1.2959585e+3, 1.1561439e+2, -1726473.6, -1889792.6, -8918.264, 0.0023265288, 0.0024852096, -1725988.0, 80991.15 
1.2959248e+3, 1.2560338e+2, -1644480.5, -1806594.9, -9961.325, 0.001798638, 0.0026606012, -1643870.6, 65216.605 
1.295891e+3, 1.3559203e+2, -1558114.1, -1714299.6, -10101.173, -0.0003155878, 0.0014718567, -1557463.6, 53734.918 
1.295857e+3, 1.455804e+2, -1475518.1, -1630329.8, -10647.3, -0.00068730814, 0.0026842626, -1474789.4, 38523.047 
1.2958232e+3, 1.555685e+2, -1388402.4, -1537704.8, -10563.548, 0.000286463, 0.003949958, -1387658.6, 27770.428 
1.295789e+3, 1.6555622e+2, -1306563.5, -1455224.1, -10978.299, 0.0006217403, 0.0043616835, -1305757.1, 11792.206 
1.295755e+3, 1.7554359e+2, -1220085.1, -1362809.6, -11102.216, 0.0005297121, 0.002094964, -1219226.6, 446.49335 
1.295721e+3, 1.8553068e+2, -1137597.5, -1279242.1, -11045.664, 0.00028011997, 0.0020544813, -1136741.4, -14941.664 
1.295687e+3, 1.9551745e+2, -1050455.5, -1186526.5, -11017.982, -0.000009106215, 0.0021156163, -1049569.1, -25639.94 
1.295653e+3, 2.0550391e+2, -968182.4, -1103462.0, -10740.653, -0.00024008813, 0.003321137, -967334.94, -41272.938 
1.295619e+3, 2.1549001e+2, -881438.25, -1010949.94, -10744.852, -0.00033697215, 0.003437145, -880552.9, -52354.76 
1.2955852e+3, 2.254758e+2, -799310.1, -927718.6, -10139.789, -0.00026182548, 0.0034121815, -798514.4, -68176.97 
1.2955514e+3, 2.3546126e+2, -712650.94, -835139.25, -10178.755, -0.00017585202, 0.0012542894, -711810.9, -79330.91 
1.2955177e+3, 2.4544643e+2, -630124.0, -751458.1, -9037.925, -0.00041930884, 0.0018809041, -629454.5, -94829.17 
1.2954843e+3, 2.554313e+2, -542872.6, -658493.3, -8818.92, -0.0008466973, 0.002980705, -542203.8, -105430.28 
1.295451e+3, 2.654158e+2, -461288.6, -576106.6, -7764.172, -0.0008234678, 0.003852039, -460765.94, -121840.66 
1.2954175e+3, 2.7539998e+2, -375220.88, -483553.7, -7887.4805, -0.0003348987, 0.0027110397, -374649.6, -133569.3 
1.2953846e+3, 2.8538388e+2, -292448.44, -399472.13, -5748.223, -0.00035511047, 0.0018226, -292140.6, -148902.33 
1.295352e+3, 2.9536748e+2, -204384.89, -305929.1, -5548.6226, -0.0011284401, -0.0010658957, -204082.6, -158683.64 
1.2953196e+3, 3.0535412e+2, -124966.32, -175768.05, -4068.9878, -0.0016247537, 0.0039029482, -124642.48, -124642.48 
1.2952872e+3, 3.1534383e+2, -137924.13, -181446.0, -3978.8555, -0.00096288923, 0.013991972, -137563.36, -137563.36 
1.2952551e+3, 3.2533842e+2, -78394.02, -38683.02, -2534.1523, -0.002206971, -0.0037752953, -38521.953, -38521.953 
1.306239e+3, 3.5724193e+1, -2400402.8, -2597208.3, 420.6443, -0.0037242027, -0.0026943176, -2400402.0, 189501.3 
1.3062063e+3, 4.571543e+1, -2313323.8, -2507043.3, -9.503315, 0.01225699, 0.011576108, -2313323.8, 178665.27 
1.3061729e+3, 5.570634e+1, -2228699.0, -2416094.8, -520.5203, 0.00062117033, 0.0016125065, -2228697.5, 165380.75 
1.3061397e+3, 6.5697044e+1, -2147236.8, -2332563.3, -2647.8333, -0.0024479448, -0.0002399463, -2147199.0, 148970.31 
1.3061062e+3, 7.5687516e+1, -2061196.3, -2240565.0, -2802.3098, 0.0008966918, 0.0024204531, -2061152.5, 137110.19 
1.3060723e+3, 8.5677683e+1, -1979241.1, -2157027.3, -4501.719, 0.0018307376, 0.0037955714, -1979127.3, 121231.82 
1.3060382e+3, 9.566753e+1, -1893080.6, -2064892.8, -4565.664, 0.0008656095, 0.002524456, -1892959.5, 109499.086 
1.306004e+3, 1.0565709e+2, -1811169.4, -1981254.3, -5779.991, 0.0009796678, 0.0028466037, -1810973.3, 93587.555 
1.3059697e+3, 1.1564637e+2, -1724967.8, -1889077.1, -5820.3735, 0.001980665, 0.0027902266, -1724761.6, 81904.266 
1.3059352e+3, 1.2563533e+2, -1642939.4, -1805907.6, -6726.5664, 0.001532208, 0.0031644045, -1642662.1, 66111.91 
1.3059005e+3, 1.3562396e+2, -1556276.1, -1713474.1, -6675.9897, -0.00008147306, 0.0019933803, -1555993.1, 54892.313 
1.3058658e+3, 1.4561233e+2, -1474096.0, -1629795.9, -7257.2485, -0.00033508582, 0.0028661916, -1473758.5, 39241.035 
1.3058312e+3, 1.556004e+2, -1387848.4, -1537566.4, -7466.267, 0.0005186212, 0.0036305157, -1387477.0, 27639.488 
1.3057964e+3, 1.6558813e+2, -1305972.0, -1454923.6, -7868.372, 0.0006087533, 0.0041546556, -1305557.5, 11679.264 
1.3057615e+3, 1.7557548e+2, -1218875.1, -1362226.5, -7779.267, 0.00018622592, 0.0024488892, -1218454.3, 906.347 
1.3057266e+3, 1.8556257e+2, -1136636.5, -1278710.3, -7682.7993, 0.00005264657, 0.0024104163, -1136222.3, -14735.059 
1.3056919e+3, 1.9554935e+2, -1050398.5, -1186442.1, -7729.919, 0.00022435513, 0.0020708167, -1049960.6, -26343.893 
1.3056572e+3, 2.055358e+2, -968398.3, -1103463.3, -7423.7246, 0.00005143331, 0.0031641657, -967991.5, -42241.973 
1.3056225e+3, 2.1552192e+2, -881527.06, -1010878.3, -7383.9893, -0.0003284859, 0.0034044243, -881106.94, -53221.363 
1.3055877e+3, 2.255077e+2, -799424.8, -927769.5, -6790.2104, -0.0002873271, 0.0037069388, -799066.56, -69041.734 
1.3055532e+3, 2.3549317e+2, -712865.94, -835200.75, -6759.01, -0.000019984876, 0.00206851, -712493.6, -80326.25 
1.3055187e+3, 2.4547833e+2, -630709.5, -751516.0, -5728.683, -0.0004756063, 0.0024263181, -630438.5, -96125.78 
1.3054845e+3, 2.554632e+2, -544359.2, -658971.4, -5835.0767, -0.0014025475, 0.0026361174, -544062.9, -107602.06 
1.3054504e+3, 2.6544777e+2, -462490.38, -576545.1, -4790.5776, -0.0009061692, 0.0036038377, -462289.53, -123677.11 
1.3054164e+3, 2.7543193e+2, -375141.63, -483349.28, -4574.811, 0.0008812112, 0.0033381032, -374948.56, -134181.3 
1.3053825e+3, 2.8541583e+2, -293281.78, -399548.78, -2467.3328, 0.0002760627, 0.0023856468, -293224.53, -150299.48 
1.3053492e+3, 2.9539946e+2, -208062.66, -307365.3, -2545.8027, -0.002784982, -0.0012964106, -207997.44, -162911.83 
1.3053158e+3, 3.0538613e+2, -128288.16, -176396.64, -1056.6099, -0.003178317, 0.0039229156, -128264.96, -128264.96 
1.3052827e+3, 3.1537598e+2, -138825.31, -181007.16, -595.77606, -0.00016098823, 0.014999244, -138816.9, -138816.9 
1.3052498e+3, 3.2537046e+2, -79075.95, -40717.617, 638.44116, -0.0005711941, -0.004336167, -40706.992, -40706.992 
1.3162568e+3, 3.5757118e+1, -2397798.5, -2591199.5, -528.42, 0.011775225, -0.0012112783, -2397797.0, 191783.52 
1.3162228e+3, 4.5748433e+1, -2314698.0, -2509154.5, -3140.2644, -0.015881537, 0.008949789, -2314647.3, 177018.39 
1.316189e+3, 5.5739254e+1, -2229626.8, -2417845.3, -3543.6035, 0.003812933, 0.002806254, -2229560.0, 164195.61 
1.3161549e+3, 6.572988e+1, -2147412.8, -2333056.8, -5289.5933, 0.008355541, 0.0014186368, -2147262.0, 148585.4 
1.3161205e+3, 7.5720304e+1, -2061465.0, -2241090.3, -5446.0825, 0.0014033705, 0.0019660336, -2061300.1, 136641.27 
1.3160858e+3, 8.5710436e+1, -1979417.1, -2157289.8, -7125.646, -0.00062467, 0.002729373, -1979132.1, 120905.945 
1.3160509e+3, 9.570027e+1, -1893238.3, -2065150.5, -7202.2095, 0.0010928488, 0.0019346972, -1892937.1, 109200.555 
1.316016e+3, 1.0568983e+2, -1811267.5, -1981432.9, -8425.074, 0.0011137548, 0.002733794, -1810851.5, 93388.51 
1.3159807e+3, 1.1567911e+2, -1725049.9, -1889239.3, -8472.304, -0.00022277297, 0.003145523, -1724613.9, 81731.24 
1.3159455e+3, 1.2566808e+2, -1642878.8, -1805741.3, -9301.532, -0.000065977314, 0.004214525, -1642349.3, 66103.97 
1.3159102e+3, 1.3565674e+2, -1556262.4, -1713369.6, -9285.415, 0.0012711856, 0.0039027324, -1555715.5, 54848.87 
1.3158746e+3, 1.4564507e+2, -1474544.4, -1630596.4, -9965.759, 0.00144622, 0.0034432674, -1473910.5, 38768.25 
1.3158391e+3, 1.5563305e+2, -1388218.6, -1538295.8, -10148.447, 0.00084947655, 0.0012006859, -1387535.5, 27260.996 
1.3158035e+3, 1.6562076e+2, -1305805.6, -1454594.1, -10380.129, 0.00014304077, 0.002120989, -1305085.0, 11831.895 
1.315768e+3, 1.7560819e+2, -1218795.1, -1361945.1, -10325.373, -0.00056935777, 0.0035454696, -1218054.1, 985.986 
1.3157324e+3, 1.8559527e+2, -1136777.5, -1278908.0, -10435.263, -0.000464433, 0.004290454, -1136015.4, -14848.744 
1.3156968e+3, 1.9558203e+2, -1050459.5, -1186590.3, -10479.031, 0.0003316764, 0.0026982636, -1049657.5, -26361.074 
1.3156612e+3, 2.0556846e+2, -968308.2, -1103300.6, -10035.405, 0.00048440832, 0.0027557777, -967566.25, -42136.902 
1.3156259e+3, 2.155546e+2, -881465.2, -1010726.0, -10012.755, 0.000077979515, 0.0022503163, -880694.2, -53128.918 
1.3155903e+3, 2.255404e+2, -799410.8, -927681.9, -9529.994, -0.00023538795, 0.003646375, -798706.7, -69002.3 
1.3155551e+3, 2.3552589e+2, -712819.9, -835139.25, -9504.212, -0.00047328102, 0.0045678583, -712085.8, -80239.195 
1.3155198e+3, 2.4551104e+2, -630854.8, -751843.75, -8540.363, -0.0007408058, 0.0044320417, -630254.94, -96262.86 
1.3154848e+3, 2.5549588e+2, -544474.75, -659253.3, -8640.53, -0.0009940623, 0.0017057137, -543827.94, -107687.195 
1.3154498e+3, 2.6548043e+2, -462114.53, -575717.44, -7397.817, -0.0006795105, 0.0025065006, -461634.8, -123342.66 
1.315415e+3, 2.7546468e+2, -374796.94, -482565.53, -7215.849, 0.00019440608, 0.0042162007, -374315.9, -133869.69 
1.3153803e+3, 2.8544864e+2, -293369.2, -399726.72, -5662.8594, -0.0004795576, 0.00468017, -293068.53, -150464.83 
1.315346e+3, 2.9543224e+2, -208066.11, -307443.63, -5709.9893, -0.0028118077, 0.0019884512, -207739.11, -162974.81 
1.315312e+3, 3.0541897e+2, -127297.77, -174419.33, -3648.4756, -0.0025685597, 0.0027920112, -127016.95, -127016.95 
1.3152781e+3, 3.1540883e+2, -137964.36, -179266.33, -3206.1077, 0.000941203, 0.0045300974, -137716.97, -137716.97 
1.3152444e+3, 3.2540345e+2, -80842.13, -44281.57, -2112.1409, -0.00093278324, 0.0028848753, -44159.953, -44159.953 
1.3262747e+3, 3.579107e+1, -2392772.3, -2589184.3, 2202.194, 0.008816458, 0.0031902108, -2392747.5, 196500.31 
1.3262399e+3, 4.578224e+1, -2314271.0, -2509268.3, -542.7575, -0.011094331, 0.0025386778, -2314269.3, 177064.97 
1.3262051e+3, 5.577309e+1, -2226522.8, -2416749.0, -521.1511, 0.0032432787, 0.0029569836, -2226521.3, 166902.77 
1.3261703e+3, 6.576371e+1, -2143666.8, -2331475.3, -2255.4631, 0.0065907734, 0.0034931425, -2143639.8, 151876.25 
1.326135e+3, 7.575408e+1, -2058736.4, -2239984.0, -2346.2256, 0.0012356744, 0.002481135, -2058706.0, 138904.3 
1.3260993e+3, 8.5744184e+1, -1977225.1, -2156321.3, -3842.5256, -0.000205302, 0.0028461532, -1977142.8, 122564.59 
1.3260639e+3, 9.573402e+1, -1891330.8, -2064288.6, -3915.49, 0.0013444816, 0.0025896137, -1891242.3, 110564.78 
1.326028e+3, 1.0572356e+2, -1809468.1, -1980651.3, -5107.153, 0.0012102737, 0.0032420245, -1809316.0, 94593.53 
1.3259919e+3, 1.157128e+2, -1723224.4, -1888466.4, -5191.696, -0.00024092746, 0.0029739132, -1723061.4, 82953.45 
1.325956e+3, 1.2570176e+2, -1641304.8, -1805084.1, -6083.4917, -0.0001221978, 0.0037629427, -1641079.1, 67044.055 
1.3259198e+3, 1.356904e+2, -1555119.9, -1712885.6, -6228.631, 0.0012770239, 0.0035730186, -1554874.3, 55360.188 
1.3258836e+3, 1.4567871e+2, -1473327.3, -1630024.4, -6805.33, 0.0013946678, 0.0035458177, -1473032.3, 39316.67 
1.3258472e+3, 1.556667e+2, -1386688.1, -1537569.4, -6696.175, 0.0006435842, 0.0018784396, -1386391.5, 28075.27 
1.3258108e+3, 1.656544e+2, -1304636.1, -1453998.0, -6880.3115, 0.00013763887, 0.002592492, -1304319.9, 12267.374 
1.3257745e+3, 1.7564182e+2, -1218589.6, -1361833.4, -6975.891, -0.00010339741, 0.0033310284, -1218250.8, 459.87698 
1.3257381e+3, 1.8562889e+2, -1136678.6, -1278911.0, -7090.5996, -0.00009468675, 0.004144163, -1136326.0, -15488.868 
1.3257018e+3, 1.9561565e+2, -1049706.3, -1186264.1, -7107.705, 0.0001682039, 0.003159878, -1049337.3, -26370.28 
1.3256654e+3, 2.0560208e+2, -967722.2, -1102972.5, -6761.9, 0.00015589106, 0.0032020886, -967384.94, -42284.996 
1.3256292e+3, 2.155882e+2, -881749.75, -1010809.0, -6818.7334, -0.00011866088, 0.002271955, -881390.5, -54154.535 
1.3255928e+3, 2.25574e+2, -799757.06, -927634.0, -6269.9556, -0.00027836004, 0.0033905033, -799450.4, -70075.34 
1.3255568e+3, 2.3555951e+2, -712871.94, -834945.8, -6188.1934, -0.00029898548, 0.004121992, -712559.0, -81041.89 
1.3255207e+3, 2.4554467e+2, -631107.7, -751981.56, -5270.8193, -0.00048145026, 0.0044094613, -630878.25, -97215.734 
1.3254848e+3, 2.5552952e+2, -545050.44, -659519.1, -5225.761, -0.00083331985, 0.0026250724, -544812.4, -109001.24 
1.325449e+3, 2.6551408e+2, -463111.84, -575898.2, -3884.3188, -0.00082319713, 0.0030052739, -462978.25, -125015.76 
1.3254136e+3, 2.7549836e+2, -376630.72, -483157.9, -3919.5923, -0.0004159846, 0.0032263745, -376486.7, -136370.22 
1.3253781e+3, 2.854823e+2, -295106.1, -400394.7, -2648.2305, -0.0007419997, 0.004662339, -295039.53, -152765.88 
1.325343e+3, 2.9546598e+2, -208876.6, -307613.34, -2499.6604, -0.0019645458, 0.0049349735, -208813.34, -164379.53 
1.325308e+3, 3.054527e+2, -128357.07, -174612.69, -497.3525, -0.0019026104, 0.00302053, -128351.73, -128351.73 
1.3252734e+3, 3.1544247e+2, -140226.38, -179985.86, -824.4653, 0.00035847136, -0.002749148, -140209.28, -140209.28 
1.325239e+3, 3.2543728e+2, -83553.32, -44538.22, 1043.9207, -0.0012176473, 0.007370721, -44510.305, -44510.305 
1.3362925e+3, 3.5825825e+1, -2395156.0, -2593194.0, -2228.1995, -0.0047439574, 0.009229084, -2395130.8, 193776.42 
1.336257e+3, 4.5816734e+1, -2313720.3, -2508896.3, -2794.8481, 0.013354188, -0.0060384898, -2313680.3, 177316.13 
1.3362214e+3, 5.580768e+1, -2226607.5, -2416637.3, -2817.3206, 0.00000039170436, 0.002515841, -2226565.8, 166519.4 
1.3361855e+3, 6.579832e+1, -2144105.5, -2331927.0, -5167.1885, -0.003250661, 0.0058658984, -2143963.5, 151213.33 
1.3361494e+3, 7.578866e+1, -2058974.6, -2240342.8, -5249.6235, 0.0006755625, 0.0036276686, -2058822.8, 138448.77 
1.3361132e+3, 8.577875e+1, -1977366.8, -2156570.3, -6535.9385, 0.0020192475, 0.0037436888, -1977128.6, 122240.016 
1.3360767e+3, 9.5768565e+1, -1891446.6, -2064531.3, -6621.3843, 0.0015051373, 0.004071546, -1891193.6, 110274.77 
1.33604e+3, 1.0575808e+2, -1809609.8, -1980988.0, -7749.7983, 0.0012356718, 0.0041976166, -1809260.0, 94311.21 
1.3360032e+3, 1.1574729e+2, -1723402.5, -1888824.8, -7844.1455, 0.0011965393, 0.0024529595, -1723031.4, 82645.57 
1.3359664e+3, 1.2573619e+2, -1641620.3, -1805647.8, -8753.228, 0.00082308863, 0.002280891, -1641154.4, 66631.14 
1.3359295e+3, 1.3572481e+2, -1555387.3, -1713386.4, -8884.849, 0.00024107938, 0.0016897849, -1554889.3, 55008.04 
1.3358925e+3, 1.4571314e+2, -1473175.8, -1629630.6, -9384.853, -0.000020637202, 0.0033794641, -1472614.8, 39396.81 
1.3358553e+3, 1.5570118e+2, -1386585.8, -1537229.1, -9319.535, -0.0000136497665, 0.0048218807, -1386011.4, 28117.486 
1.3358182e+3, 1.6568887e+2, -1304855.6, -1454340.1, -9671.153, 0.00039802102, 0.004890718, -1304232.5, 12016.813 
1.335781e+3, 1.7567624e+2, -1218728.8, -1362129.5, -9755.329, 0.001215168, 0.002156532, -1218068.1, 305.06976 
1.335744e+3, 1.856633e+2, -1136710.4, -1278977.6, -9649.645, 0.0008765561, 0.0025419944, -1136058.8, -15558.828 
1.3357067e+3, 1.9565007e+2, -1049803.1, -1186352.3, -9686.13, -0.00027785552, 0.0035331307, -1049119.4, -26489.709 
1.3356696e+3, 2.056365e+2, -967857.56, -1103181.9, -9596.202, -0.00081527425, 0.00434521, -967180.5, -42417.836 
1.3356325e+3, 2.156226e+2, -881816.75, -1010973.1, -9638.483, -0.0008609738, 0.0032533556, -881101.44, -54202.617 
1.3355954e+3, 2.2560841e+2, -799585.06, -927283.6, -8898.062, -0.00047637083, 0.0030166886, -798968.06, -69930.125 
1.3355586e+3, 2.355939e+2, -712740.94, -834619.94, -8854.886, 0.00027208327, 0.0013376364, -712101.0, -80920.98 
1.3355218e+3, 2.4557911e+2, -631021.06, -751772.75, -8189.3047, 0.00012516794, 0.0028362928, -630468.2, -97143.09 
1.335485e+3, 2.55564e+2, -544914.6, -659291.0, -8142.007, -0.0009842718, 0.005143938, -544337.94, -108864.75 
1.3354485e+3, 2.6554856e+2, -463082.75, -575901.4, -6724.661, -0.0013914474, 0.0048617315, -462683.34, -125058.8 
1.3354121e+3, 2.755328e+2, -376609.6, -483128.4, -6765.2593, -0.0010311649, 0.00066138967, -376181.63, -136402.7 
1.3353759e+3, 2.855168e+2, -294814.2, -399820.72, -5579.766, -0.00063591293, 0.002709273, -294518.53, -152582.64 
1.3353398e+3, 2.9550052e+2, -208578.86, -307093.25, -5440.0537, -0.00047431397, 0.007655861, -208279.36, -164184.17 
1.3353041e+3, 3.0548722e+2, -128831.21, -175696.66, -3422.0562, -0.001353604, 0.0044921893, -128582.66, -128582.66 
1.3352686e+3, 3.1547686e+2, -140590.88, -180777.6, -3727.9375, -0.0019469502, -0.007232236, -140247.98, -140247.98 
1.3352333e+3, 3.254719e+2, -80828.78, -38811.19, -1904.6215, -0.0015957017, 0.009367459, -38725.035, -38725.035 
1.3463105e+3, 3.5861492e+1, -2392328.0, -2594433.0, 1171.554, -0.0027731797, 0.008441197, -2392321.3, 196236.48 
1.3462745e+3, 4.5852324e+1, -2306878.3, -2505249.3, 151.82986, 0.012635184, -0.0045899325, -2306878.0, 183769.52 
1.3462378e+3, 5.5843276e+1, -2224177.8, -2415277.3, 123.74192, -0.00040254966, 0.003410963, -2224177.8, 168558.56 
1.346201e+3, 6.58339e+1, -2143138.8, -2331566.0, -1913.7034, -0.0032038745, 0.006325045, -2143119.5, 151708.77 
1.346164e+3, 7.5824225e+1, -2056948.1, -2239461.5, -1988.3918, 0.0011942092, 0.0038048243, -2056926.5, 139996.55 
1.346127e+3, 8.5814285e+1, -1974932.4, -2155568.5, -3240.3254, 0.0022714955, 0.0036076817, -1974874.3, 124146.13 
1.3460897e+3, 9.580407e+1, -1889027.6, -2063526.1, -3366.6836, 0.00095744, 0.0036355217, -1888962.8, 112157.76 
1.3460523e+3, 1.0579357e+2, -1807430.3, -1980079.1, -4502.148, 0.00079896336, 0.0040896405, -1807312.9, 95910.48 
1.3460146e+3, 1.1578276e+2, -1721740.3, -1888110.4, -4575.021, 0.0015523068, 0.0030720143, -1721614.5, 83714.79 
1.3459769e+3, 1.2577167e+2, -1640129.0, -1804883.3, -5299.5674, 0.0012553023, 0.0030348774, -1639958.8, 67479.35 
1.3459392e+3, 1.3576025e+2, -1553923.0, -1712646.9, -5245.395, 0.0002083991, 0.0022144986, -1553749.9, 55799.984 
1.3459013e+3, 1.4574859e+2, -1472041.5, -1629104.5, -5757.64, -0.00012427349, 0.0035489115, -1471830.8, 39833.57 
1.3458635e+3, 1.557366e+2, -1386019.5, -1536951.5, -5893.7783, 0.00012761942, 0.004560765, -1385789.8, 27991.93 
1.3458255e+3, 1.6572429e+2, -1304197.9, -1454058.0, -6246.4814, 0.0004434297, 0.0047443495, -1303938.0, 11964.267 
1.3457876e+3, 1.7571165e+2, -1217401.5, -1361516.8, -6253.083, 0.00090832927, 0.0024975282, -1217130.6, 895.5692 
1.3457496e+3, 1.856987e+2, -1135590.5, -1278392.8, -6111.1025, 0.00063915, 0.0028139146, -1135329.5, -15176.427 
1.3457116e+3, 1.9568546e+2, -1049710.8, -1186282.3, -6106.66, -0.00011530729, 0.0034292426, -1049438.3, -27155.35 
1.3456737e+3, 2.0567189e+2, -967895.75, -1103153.5, -5950.34, -0.0004623642, 0.00435562, -967634.5, -43218.684 
1.3456358e+3, 2.1565801e+2, -881253.44, -1010662.6, -5902.925, -0.0004887521, 0.0037091335, -880984.75, -54432.79 
1.345598e+3, 2.256438e+2, -799386.3, -927210.2, -5243.6606, -0.0004464365, 0.0035058812, -799171.56, -70480.48 
1.3455603e+3, 2.3562929e+2, -713570.2, -834992.5, -5371.287, -0.00034688183, 0.0015457944, -713333.06, -82499.79 
1.3455227e+3, 2.4561448e+2, -631794.9, -751979.9, -4774.015, -0.00023350466, 0.0027305037, -631605.5, -98627.13 
1.3454853e+3, 2.5559938e+2, -544953.75, -659133.2, -4755.307, -0.00028307774, 0.0047468813, -544756.06, -109629.664 
1.3454477e+3, 2.6558396e+2, -463354.13, -575896.2, -3461.9063, -0.000956206, 0.004754742, -463247.72, -125970.1 
1.3454105e+3, 2.7556822e+2, -377813.34, -483562.16, -3439.2056, -0.0019116683, 0.0013297653, -377701.6, -138269.72 
1.3453735e+3, 2.855522e+2, -296010.16, -400055.63, -2144.0627, -0.0011984278, 0.0027758584, -295966.0, -154377.28 
1.3453367e+3, 2.9553595e+2, -209151.47, -307075.16, -2132.5608, 0.00058163103, 0.0060349144, -209105.05, -165357.1 
1.3453001e+3, 3.0552265e+2, -130461.414, -176913.94, -346.5521, -0.0005595459, 0.0045562326, -130458.836, -130458.836 
1.3452637e+3, 3.155123e+2, -143732.56, -182544.39, -440.23285, -0.002991472, -0.0026701088, -143727.58, -143727.58 
1.3452274e+3, 3.2550737e+2, -82940.2, -36976.305, 975.22205, -0.0020227751, 0.0070313946, -36955.62, -36955.62 
1.3563289e+3, 3.58979e+1, -2393865.3, -2596886.8, 29.636585, 0.0075883656, 0.0037274575, -2393865.3, 194335.75 
1.3562916e+3, 4.5888788e+1, -2307355.0, -2505428.5, -3280.3877, -0.0039842688, 0.0032493384, -2307300.8, 182989.73 
1.3562542e+3, 5.587968e+1, -2224201.0, -2415168.5, -3263.9292, 0.0010883396, 0.0050757593, -2224145.3, 168234.27 
1.3562167e+3, 6.587028e+1, -2143155.5, -2331774.8, -4489.09, 0.002959186, 0.005533727, -2143048.8, 151423.02 
1.3561788e+3, 7.586059e+1, -2057035.4, -2239712.5, -4599.218, 0.0022822518, 0.003386198, -2056919.6, 139647.05 
1.3561408e+3, 8.5850614e+1, -1975195.3, -2156024.3, -5931.9253, 0.0011844828, 0.002863114, -1975000.9, 123663.52 
1.3561028e+3, 9.584037e+1, -1889375.6, -2064028.1, -6062.3516, -0.00009895506, 0.0019651852, -1889165.5, 111599.29 
1.3560644e+3, 1.0582985e+2, -1807690.4, -1980404.1, -7252.5244, 0.000013915378, 0.0033056622, -1807386.4, 95481.45 
1.3560261e+3, 1.1581905e+2, -1721883.0, -1888329.3, -7324.1143, 0.0010914443, 0.00447817, -1721561.4, 83412.39 
1.3559875e+3, 1.2580796e+2, -1640034.5, -1804666.3, -7959.634, 0.0012637263, 0.00536164, -1639650.6, 67431.76 
1.355949e+3, 1.3579658e+2, -1553869.3, -1712499.9, -7946.371, 0.0008028045, 0.0044359905, -1553472.3, 55721.773 
1.3559105e+3, 1.4578487e+2, -1472305.5, -1629611.8, -8514.114, 0.00063062296, 0.0039465064, -1471846.0, 39462.703 
1.3558716e+3, 1.5577282e+2, -1386201.8, -1537398.1, -8640.36, 0.000778874, 0.0020004858, -1385709.5, 27717.13 
1.3558328e+3, 1.6576052e+2, -1304223.5, -1454072.4, -8829.807, 0.00026252988, 0.002903417, -1303705.0, 11842.367 
1.3557942e+3, 1.757479e+2, -1217499.5, -1361538.9, -8863.581, -0.00067663443, 0.0040005217, -1216956.1, 714.93567 
1.3557553e+3, 1.8573496e+2, -1135624.0, -1278363.9, -8957.245, -0.00055971276, 0.004486374, -1135064.1, -15266.31 
1.3557167e+3, 1.957217e+2, -1049683.8, -1186224.0, -8951.398, 0.00043997137, 0.0029527475, -1049099.4, -27171.588 
1.355678e+3, 2.0570813e+2, -967822.8, -1102969.0, -8629.752, 0.000834494, 0.0035510026, -967273.94, -43213.277 
1.3556392e+3, 2.1569426e+2, -881207.1, -1010516.5, -8610.471, 0.00066465826, 0.0038134512, -880636.3, -54439.652 
1.3556007e+3, 2.2568005e+2, -799563.56, -927618.06, -8182.34, -0.00032051315, 0.0047440296, -799042.8, -70707.016 
1.355562e+3, 2.3566554e+2, -713698.7, -835332.56, -8289.486, -0.0020225258, 0.0042015957, -713136.4, -82658.23 
1.3555236e+3, 2.4565071e+2, -631727.75, -751834.56, -7479.423, -0.0014399484, 0.0038505455, -631263.8, -98640.34 
1.3554853e+3, 2.5563556e+2, -544908.6, -659001.3, -7486.8037, 0.0010245307, 0.0019357188, -544419.44, -109647.7 
1.3554472e+3, 2.6562017e+2, -463247.2, -575681.44, -6553.5195, 0.00020781085, 0.0030900927, -462866.5, -125943.79 
1.355409e+3, 2.756045e+2, -377663.38, -483326.63, -6520.12, -0.0031082355, 0.004834905, -377262.56, -138186.2 
1.355371e+3, 2.8558847e+2, -295898.97, -399892.56, -4909.444, -0.0024080023, 0.004568908, -295667.72, -154434.48 
1.3553335e+3, 2.9557216e+2, -209084.67, -306942.2, -4935.6484, 0.0011713507, 0.0006003114, -208836.36, -165443.33 
1.3552961e+3, 3.055589e+2, -130548.78, -177151.38, -3691.42, 0.00037906904, 0.0035450223, -130258.19, -130258.19 
1.3552587e+3, 3.155487e+2, -143728.45, -182670.22, -3738.1934, -0.0030499378, 0.010207186, -143372.86, -143372.86 
1.3552216e+3, 3.255436e+2, -82055.76, -35212.684, -2094.8123, -0.0027762097, 0.00021378203, -35119.188, -35119.188 
1.3663472e+3, 3.5935375e+1, -2388757.3, -2594107.0, 2665.6155, 0.007803207, 0.0008822474, -2388722.5, 199111.14 
1.3663091e+3, 4.592635e+1, -2307471.5, -2505817.0, 358.37463, -0.0056436695, 0.0098666875, -2307470.8, 182451.53 
1.3662708e+3, 5.5917126e+1, -2221251.3, -2414185.8, 94.48314, 0.001745037, 0.0044769715, -2221251.3, 170761.44 
1.3662323e+3, 6.5907663e+1, -2139382.5, -2330294.3, -1057.5662, 0.00392964, 0.0033219187, -2139376.8, 154728.66 
1.3661936e+3, 7.5897956e+1, -2053959.4, -2238568.0, -1290.4961, 0.0018321411, 0.003484099, -2053950.4, 142250.14 
1.3661548e+3, 8.588797e+1, -1972880.5, -2154961.3, -2724.9436, 0.00077140203, 0.003865784, -1972839.8, 125458.58 
1.3661158e+3, 9.58777e+1, -1888073.1, -2063443.0, -2751.6965, 0.00056608644, 0.0028536108, -1888030.0, 112368.95 
1.3660768e+3, 1.0586717e+2, -1806505.6, -1979765.4, -3656.2954, 0.00058572495, 0.0037202951, -1806428.5, 96073.69 
1.3660374e+3, 1.1585636e+2, -1720168.0, -1887468.8, -3660.2046, 0.0007199864, 0.0042914934, -1720087.9, 84520.2 
1.3659982e+3, 1.2584525e+2, -1638402.9, -1804014.6, -4403.4097, 0.0007796264, 0.0051103476, -1638285.9, 68431.09 
1.3659589e+3, 1.3583384e+2, -1552649.3, -1712016.1, -4567.865, 0.0008610462, 0.0044108597, -1552518.4, 56310.33 
1.3659193e+3, 1.4582212e+2, -1471028.9, -1629020.5, -5044.149, 0.00082865334, 0.004094401, -1470868.0, 40075.58 
1.3658799e+3, 1.5581007e+2, -1384599.9, -1536636.1, -5025.332, 0.0008240248, 0.002325085, -1384433.9, 28627.717 
1.3658403e+3, 1.6579774e+2, -1303020.4, -1453503.9, -5185.987, 0.00036937834, 0.0032214443, -1302841.9, 12340.533 
1.3658008e+3, 1.7578512e+2, -1217316.0, -1361447.1, -5221.2256, -0.0003580087, 0.0042157248, -1217127.1, 179.08952 
1.3657612e+3, 1.8577218e+2, -1135529.5, -1278287.8, -5302.3213, -0.00038874775, 0.0047121416, -1135332.9, -15899.862 
1.3657217e+3, 1.9575891e+2, -1048986.3, -1185838.0, -5329.5225, 0.00019011507, 0.003234017, -1048779.0, -27216.002 
1.3656822e+3, 2.0574534e+2, -967154.4, -1102641.5, -5058.694, 0.00049031054, 0.0035520222, -966965.75, -43269.72 
1.3656425e+3, 2.1573146e+2, -881073.9, -1010416.06, -5120.897, 0.00048250784, 0.003324599, -880871.44, -55039.36 
1.3656032e+3, 2.2571726e+2, -799520.8, -927511.6, -4724.9126, -0.000108610424, 0.004475263, -799346.6, -71375.41 
1.3655639e+3, 2.3570274e+2, -713375.44, -835115.6, -4654.5103, -0.0012727248, 0.004781769, -713197.75, -83084.26 
1.3655245e+3, 2.4568792e+2, -631725.75, -751721.56, -3718.1267, -0.001212351, 0.0044428096, -631610.6, -99351.836 
1.3654855e+3, 2.5567278e+2, -545804.9, -659314.6, -3740.9744, 0.000043601147, 0.001877012, -545681.7, -111274.63 
1.3654464e+3, 2.6565737e+2, -464198.2, -576110.9, -2989.0112, -0.00030349515, 0.0031121403, -464118.4, -127560.33 
1.3654074e+3, 2.7564168e+2, -377824.44, -483358.1, -3061.0586, -0.0019336849, 0.0054869973, -377735.72, -139024.02 
1.3653688e+3, 2.856257e+2, -296418.88, -399940.44, -1473.9432, -0.0016829761, 0.0047152787, -296397.9, -155529.31 
1.3653302e+3, 2.9560938e+2, -210900.31, -307573.53, -1527.9247, -0.00010377695, -0.00064373814, -210876.17, -167847.73 
1.3652919e+3, 3.0559614e+2, -132076.3, -177208.73, -272.53714, -0.00067186565, 0.0035676, -132074.66, -132074.66 
1.3652535e+3, 3.1558603e+2, -144368.31, -182387.56, 158.31963, -0.0023410453, 0.013587109, -144367.66, -144367.66 
1.3652156e+3, 3.2558087e+2, -83485.89, -36992.29, 1223.4169, -0.0016822562, -0.0018457175, -36960.12, -36960.12 
1.3763657e+3, 3.5973695e+1, -2388596.3, -2591873.5, -2275.8555, 0.0020643712, -0.00070506975, -2388571.0, 198887.39 
1.3763265e+3, 4.5964774e+1, -2307828.5, -2506912.3, -2316.8528, 0.0012325991, 0.015606159, -2307801.5, 181744.14 
1.3762873e+3, 5.59554e+1, -2221830.0, -2415259.8, -2590.4587, 0.0017419046, 0.0025109649, -2221795.3, 169842.34 
1.376248e+3, 6.594587e+1, -2139921.0, -2331131.5, -3867.0017, 0.001558871, 0.0003764537, -2139842.8, 153888.08 
1.3762085e+3, 7.5936145e+1, -2054546.4, -2239385.3, -4089.5217, 0.00036734308, 0.0039356295, -2054456.0, 141370.28 
1.3761689e+3, 8.5926145e+1, -1973065.3, -2155083.0, -5659.536, 0.000728878, 0.005976647, -1972889.4, 125034.81 
1.3761291e+3, 9.591588e+1, -1888045.4, -2063464.9, -5682.701, 0.0022657067, 0.0053961775, -1887861.5, 112163.31 
1.3760892e+3, 1.0590533e+2, -1806420.4, -1979716.5, -6267.4634, 0.0019757075, 0.004926305, -1806194.0, 95934.08 
1.376049e+3, 1.15894504e+2, -1720227.5, -1887528.6, -6313.0684, 0.0003470926, 0.0030385205, -1719989.6, 84244.62 
1.3760088e+3, 1.2588337e+2, -1638780.1, -1804639.5, -7193.493, -0.00009427618, 0.0031211392, -1638468.8, 67874.65 
1.3759686e+3, 1.3587192e+2, -1552920.3, -1712531.4, -7334.744, 0.00047568948, 0.0028178177, -1552583.9, 55871.65 
1.3759285e+3, 1.4586021e+2, -1471013.9, -1628927.8, -7672.8477, 0.0005698701, 0.004100471, -1470642.0, 39928.4 
1.375888e+3, 1.5584819e+2, -1384637.5, -1536597.9, -7697.0405, 0.00034346682, 0.0047395355, -1384248.6, 28439.527 
1.3758478e+3, 1.6583586e+2, -1303120.5, -1453608.0, -8048.0513, 0.00060343224, 0.0050920313, -1302691.4, 12117.658 
1.3758074e+3, 1.758232e+2, -1217308.4, -1361516.4, -8078.8784, 0.0012779867, 0.0034517117, -1216857.1, 75.8665 
1.375767e+3, 1.8581025e+2, -1135544.9, -1278390.0, -7966.1104, 0.0007127145, 0.003915665, -1135102.0, -16042.086 
1.3757266e+3, 1.95797e+2, -1049055.9, -1185968.4, -8010.3335, -0.0007640556, 0.004151493, -1048588.9, -27398.963 
1.3756862e+3, 2.057834e+2, -967274.44, -1102865.8, -7874.71, -0.0011838459, 0.0042007836, -966818.6, -43495.598 
1.375646e+3, 2.1576948e+2, -881162.7, -1010587.06, -7939.1265, -0.0008159112, 0.0023738728, -880677.5, -55218.113 
1.3756058e+3, 2.2575529e+2, -799379.75, -927180.8, -7569.676, 0.000092963535, 0.0030671346, -798932.94, -71334.445 
1.3755655e+3, 2.357408e+2, -713232.4, -834802.94, -7517.5347, 0.0013072714, 0.0037200563, -712769.3, -83028.78 
1.3755254e+3, 2.45726e+2, -631650.0, -751645.4, -6673.6646, 0.00008122168, 0.0046841465, -631279.94, -99394.37 
1.3754855e+3, 2.557109e+2, -545734.7, -659249.94, -6706.539, -0.0029657779, 0.004149856, -545339.9, -111306.21 
1.3754456e+3, 2.6569545e+2, -464303.56, -576371.5, -5883.7603, -0.0022951018, 0.0045564566, -463995.5, -127810.73 
1.375406e+3, 2.7567974e+2, -377907.28, -483571.56, -5956.8784, 0.0012118733, 0.0037152942, -377572.53, -139233.64 
1.3753663e+3, 2.8566372e+2, -296328.88, -399830.06, -4587.496, 0.0005919429, 0.0035536853, -296125.94, -155630.2 
1.375327e+3, 2.9564747e+2, -210774.84, -307372.75, -4635.981, -0.003221954, 0.0018867496, -210552.86, -167897.67 
1.3752876e+3, 3.056343e+2, -131213.28, -175523.61, -3370.3662, -0.0035891135, 0.004419337, -130958.39, -130958.39 
1.3752486e+3, 3.156242e+2, -143647.98, -181083.02, -2957.4158, -0.0009546608, 0.008300517, -143415.78, -143415.78 
1.3752097e+3, 3.25619e+2, -85532.65, -41266.45, -1926.4462, 0.00063156476, 0.0009945907, -41182.77, -41182.77 
1.386384e+3, 3.6013004e+1, -2387501.8, -2589559.0, 1125.506, -0.0011544576, 0.0006933245, -2387495.5, 199577.53 
1.3863441e+3, 4.600407e+1, -2303512.0, -2505524.0, 576.1319, 0.004263965, 0.012023435, -2303510.3, 185650.31 
1.386304e+3, 5.5994654e+1, -2219111.8, -2414620.8, 283.37717, 0.0019028865, 0.002320337, -2219111.3, 172141.48 
1.3862638e+3, 6.59851e+1, -2137834.5, -2330004.0, -817.45917, 0.0010788398, 0.0014175026, -2137831.0, 155515.48 
1.3862236e+3, 7.597537e+1, -2053319.5, -2238683.8, -736.2334, 0.0005489699, 0.0046166386, -2053316.6, 142125.22 
1.386183e+3, 8.5965365e+1, -1971550.3, -2154499.3, -2019.2115, 0.0008905022, 0.00610743, -1971527.9, 126011.98 
1.3861422e+3, 9.595507e+1, -1885307.6, -2062227.6, -2121.6548, 0.0020088027, 0.004927933, -1885282.3, 114358.54 
1.3861014e+3, 1.0594451e+2, -1803888.8, -1978608.6, -2843.516, 0.0017689447, 0.004460505, -1803842.5, 97901.836 
1.3860607e+3, 1.1593365e+2, -1718877.4, -1886981.8, -3008.2268, 0.0005383797, 0.0030467578, -1718823.6, 85027.06 
1.3860196e+3, 1.259225e+2, -1637604.9, -1804039.9, -3704.868, 0.00018165674, 0.0034341388, -1637522.4, 68437.4 
1.3859786e+3, 1.3591106e+2, -1551480.0, -1711772.9, -3621.465, 0.0006081917, 0.0032889782, -1551398.3, 56673.766 
1.3859375e+3, 1.4589934e+2, -1469918.3, -1628371.4, -3894.0256, 0.00063757383, 0.0044111344, -1469822.6, 40364.27 
1.3858964e+3, 1.5588732e+2, -1384246.1, -1536357.0, -3972.2444, 0.0003824893, 0.00465308, -1384142.5, 28162.32 
1.3858552e+3, 1.6587497e+2, -1302483.5, -1453311.1, -4263.8853, 0.0004896514, 0.0049265902, -1302363.0, 12062.662 
1.385814e+3, 1.758623e+2, -1215777.0, -1360785.8, -4288.5854, 0.0009789102, 0.00345733, -1215650.3, 899.61237 
1.3857728e+3, 1.8584935e+2, -1134221.4, -1277739.9, -4206.575, 0.0006827427, 0.003953247, -1134098.1, -15421.309 
1.3857317e+3, 1.9583608e+2, -1048595.0, -1185748.6, -4227.396, -0.00026894046, 0.004111007, -1048464.9, -27657.988 
1.3856906e+3, 2.0582248e+2, -967210.6, -1102807.4, -4029.1062, -0.00078183634, 0.004378231, -967091.0, -44150.957 
1.3856494e+3, 2.1580859e+2, -881227.0, -1010574.4, -3999.276, -0.0009067687, 0.0030539203, -881103.44, -56027.06 
1.3856083e+3, 2.2579437e+2, -799374.75, -927093.94, -3624.8218, -0.00025000138, 0.0035195884, -799271.94, -72056.4 
1.3855672e+3, 2.3577988e+2, -712996.75, -834593.3, -3700.671, 0.0009612636, 0.0033608975, -712884.25, -83526.58 
1.3855264e+3, 2.4576506e+2, -631560.5, -751628.7, -3082.2568, 0.000092278475, 0.0043247268, -631481.44, -99978.64 
1.3854855e+3, 2.5574994e+2, -545766.4, -659265.6, -3189.542, -0.0024830257, 0.004447434, -545676.8, -112025.93 
1.3854448e+3, 2.6573452e+2, -464469.75, -576240.44, -2236.3406, -0.0019598731, 0.0046237004, -464425.03, -128622.97 
1.3854043e+3, 2.757188e+2, -378429.0, -483600.94, -2134.8691, 0.0010328151, 0.002886128, -378385.7, -140429.55 
1.3853638e+3, 2.8570282e+2, -297313.1, -400265.03, -946.48645, 0.00024401973, 0.0036675034, -297304.4, -157191.53 
1.3853236e+3, 2.9568654e+2, -212163.63, -307991.13, -1050.3339, -0.003346178, 0.004324902, -212152.11, -169879.97 
1.3852833e+3, 3.0567336e+2, -132309.38, -175689.23, 2.2341158, -0.0033361285, 0.0042362954, -132309.38, -132309.38 
1.3852434e+3, 3.1566325e+2, -144271.22, -181041.16, -241.28789, -0.00044867842, 0.0017789401, -144269.63, -144269.63 
1.3852037e+3, 3.2565817e+2, -86594.76, -42003.34, 1323.348, 0.00048634945, 0.004539271, -41964.1, -41964.1 
1.3964024e+3, 3.605311e+1, -2386288.5, -2586738.8, 340.94565, -0.0031534128, 0.0035813889, -2386288.0, 200392.05 
1.3963619e+3, 4.60441e+1, -2304604.3, -2506967.8, -2569.001, 0.0043943934, 0.0030686418, -2304571.8, 184196.47 
1.3963209e+3, 5.603471e+1, -2219737.5, -2415653.3, -2764.3418, 0.0021159807, 0.003320664, -2219698.5, 171161.9 
1.3962798e+3, 6.602517e+1, -2137596.8, -2329491.5, -3801.9055, 0.0016731442, 0.0049088923, -2137521.3, 155432.47 
1.3962385e+3, 7.601545e+1, -2053091.4, -2238253.0, -3740.1887, 0.0017073865, 0.005421523, -2053015.9, 142033.19 
1.3961971e+3, 8.600542e+1, -1971831.5, -2154912.5, -4638.2217, 0.0011212159, 0.0050050104, -1971714.1, 125433.24 
1.3961557e+3, 9.5995086e+1, -1885689.3, -2062715.9, -4768.497, 0.00041851547, 0.0025262374, -1885560.9, 113687.76 
1.3961141e+3, 1.05984494e+2, -1804304.8, -1979248.5, -5775.342, 0.00046672698, 0.002957621, -1804114.3, 97238.11 
1.3960722e+3, 1.1597364e+2, -1719123.5, -1887483.5, -5905.8755, 0.00103117, 0.0039110677, -1718916.5, 84542.336 
1.3960303e+3, 1.259625e+2, -1637461.3, -1803666.4, -6367.0576, 0.0011553705, 0.0053135627, -1637217.8, 68350.195 
1.3959885e+3, 1.3595109e+2, -1551373.8, -1711470.9, -6338.7085, 0.0010008306, 0.005198088, -1551123.1, 56556.742 
1.3959466e+3, 1.4593935e+2, -1470036.0, -1628546.3, -6729.653, 0.0008523139, 0.0049286517, -1469750.9, 40044.027 
1.3959047e+3, 1.5592727e+2, -1384278.9, -1536466.8, -6796.81, 0.0007159632, 0.0027545693, -1383976.0, 27937.12 
1.3958627e+3, 1.6591494e+2, -1302522.9, -1453386.9, -6874.2188, 0.000048807746, 0.003341354, -1302210.3, 11823.714 
1.3958207e+3, 1.7590228e+2, -1215893.9, -1360898.9, -6936.818, -0.0008140385, 0.004062174, -1215562.9, 595.19885 
1.3957787e+3, 1.8588933e+2, -1134343.0, -1277844.8, -7118.2534, -0.00024011308, 0.0045953454, -1133990.8, -15705.719 
1.3957366e+3, 1.9587602e+2, -1048615.4, -1185793.1, -7133.5044, 0.0012190702, 0.0033095686, -1048245.4, -27830.053 
1.3956948e+3, 2.0586246e+2, -967081.75, -1102610.0, -6883.327, 0.0011036232, 0.004246745, -966733.06, -44184.688 
1.3956527e+3, 2.1584857e+2, -881122.7, -1010429.94, -6858.4844, -0.00015245845, 0.0050392365, -880759.94, -56075.504 
1.3956109e+3, 2.2583437e+2, -799444.6, -927298.4, -6427.652, -0.0011094828, 0.0054640095, -799122.3, -72298.61 
1.3955691e+3, 2.3581983e+2, -713097.75, -834808.6, -6524.694, -0.0018381934, 0.0035715494, -712748.94, -83782.87 
1.3955273e+3, 2.45805e+2, -631683.94, -751903.1, -6094.1665, -0.00096981385, 0.00351876, -631375.75, -100264.3 
1.3954856e+3, 2.5578985e+2, -545851.6, -659465.8, -6181.475, 0.00080110715, 0.003116482, -545516.25, -112256.484 
1.3954441e+3, 2.6577446e+2, -464190.6, -575724.06, -5214.837, 0.00015415002, 0.003590358, -463947.3, -128536.49 
1.3954026e+3, 2.7575877e+2, -378185.56, -483132.34, -5141.054, -0.0020827146, 0.002935521, -377934.3, -140369.86 
1.3953613e+3, 2.857428e+2, -297354.7, -400422.06, -4205.327, -0.0023583763, 0.004938256, -297183.38, -157462.38 
1.39532e+3, 2.9572654e+2, -212192.02, -308139.25, -4273.9272, -0.0009222498, 0.006780168, -212002.02, -170121.77 
1.395279e+3, 3.057133e+2, -132574.64, -176435.45, -2938.2966, -0.00042143968, 0.0032631787, -132378.67, -132378.67 
1.3952383e+3, 3.1570303e+2, -144446.25, -181555.3, -3213.977, -0.00093523925, -0.0058694, -144169.95, -144169.95 
1.3951977e+3, 3.2569817e+2, -84995.164, -38722.6, -2004.4531, -0.002232751, 0.008796699, -38635.934, -38635.934 
1.4064212e+3, 3.6094272e+1, -2381976.5, -2586585.5, 3004.9534, 0.0003523221, 0.007859326, -2381932.5, 204344.19 
1.4063795e+3, 4.6085095e+1, -2304460.8, -2506374.5, 556.0609, 0.0003733226, -0.0041373563, -2304459.3, 183907.3 
1.4063378e+3, 5.6075823e+1, -2217319.5, -2414060.0, 867.4599, 0.0026062003, 0.004905413, -2217315.8, 173141.73 
1.4062957e+3, 6.60663e+1, -2134697.0, -2328235.0, -424.25708, 0.003049823, 0.0075511867, -2134696.3, 157854.63 
1.4062536e+3, 7.605651e+1, -2050341.4, -2237009.0, -641.93665, 0.0013591702, 0.0041624485, -2050339.3, 144307.4 
1.4062113e+3, 8.6046463e+1, -1969742.9, -2153847.8, -1356.7859, 0.0005280704, 0.0033976908, -1969732.9, 127012.18 
1.406169e+3, 9.603615e+1, -1884804.3, -2062224.8, -1370.2316, 0.00057899934, 0.0028917224, -1884793.8, 114052.516 
1.4061265e+3, 1.0602556e+2, -1803434.8, -1978716.9, -2179.8093, 0.00078746054, 0.00395261, -1803407.6, 97542.31 
1.4060839e+3, 1.1601469e+2, -1717533.5, -1886575.6, -2089.9019, 0.0010973375, 0.0045467243, -1717507.8, 85548.8 
1.4060412e+3, 1.2600355e+2, -1635882.1, -1802921.4, -2493.7695, 0.0011235507, 0.005308324, -1635845.0, 69320.766 
1.4059985e+3, 1.359921e+2, -1550241.5, -1710919.3, -2652.0647, 0.00095313386, 0.0044879047, -1550197.8, 57080.145 
1.4059559e+3, 1.4598036e+2, -1468813.8, -1628012.6, -3073.0366, 0.0007379353, 0.004486721, -1468754.4, 40638.504 
1.405913e+3, 1.559683e+2, -1382690.1, -1535734.9, -3109.3801, 0.00061633013, 0.0032526795, -1382627.0, 28884.17 
1.4058702e+3, 1.6595595e+2, -1301443.5, -1452802.8, -3138.8005, 0.0001476888, 0.003908118, -1301378.5, 12253.651 
1.4058274e+3, 1.7594329e+2, -1215978.5, -1360867.3, -3146.42, -0.0004896742, 0.00400286, -1215910.3, -154.02512 
1.4057845e+3, 1.8593031e+2, -1134389.0, -1277875.1, -3237.763, -0.00014908335, 0.004470364, -1134316.0, -16432.7 
1.4057417e+3, 1.9591703e+2, -1047824.0, -1185388.8, -3229.082, 0.0008875614, 0.0035770964, -1047748.25, -27734.645 
1.405699e+3, 2.0590344e+2, -966072.9, -1102028.5, -3062.276, 0.0009335724, 0.0044502206, -966003.94, -43857.203 
1.4056562e+3, 2.1588954e+2, -880188.5, -1009895.0, -3103.2583, 0.00010018212, 0.0048453286, -880114.3, -55831.445 
1.4056134e+3, 2.2587532e+2, -799027.25, -927166.06, -2694.0508, -0.00082729466, 0.0052140593, -798970.6, -72548.414 
1.4055708e+3, 2.3586078e+2, -713376.3, -834969.94, -2759.199, -0.0018215681, 0.0035456507, -713313.75, -84749.03 
1.4055282e+3, 2.4584594e+2, -631935.5, -751868.9, -2246.9258, -0.0010660854, 0.0037082112, -631893.44, -101183.28 
1.4054857e+3, 2.5583082e+2, -545764.06, -659257.1, -2189.6558, 0.0008958866, 0.0035290238, -545721.8, -112863.37 
1.4054433e+3, 2.658154e+2, -464302.97, -575709.6, -1376.3083, 0.0001960581, 0.0038670155, -464285.97, -129276.47 
1.405401e+3, 2.7579972e+2, -378708.8, -483310.2, -1562.2142, -0.0023851576, 0.0028620192, -378685.47, -141522.25 
1.4053588e+3, 2.857837e+2, -297630.28, -400288.38, -730.9546, -0.0024358863, 0.0045752423, -297625.1, -158305.33 
1.4053166e+3, 2.957675e+2, -211842.4, -307778.97, -632.16925, -0.00018208327, 0.006213212, -211838.25, -170359.34 
1.4052747e+3, 3.057542e+2, -133343.39, -177324.86, 728.0692, 0.00023360267, 0.0035945193, -133331.34, -133331.34 
1.4052331e+3, 3.1574395e+2, -146626.6, -182929.78, 397.35544, -0.0013755464, -0.004026464, -146622.25, -146622.25 
1.4051916e+3, 3.2573918e+2, -86365.234, -36930.305, 1307.7662, -0.0031330523, 0.008093517, -36895.73, -36895.73 
1.41644e+3, 3.6136281e+1, -2384909.8, -2591776.5, -1985.8042, 0.006452336, 0.012814333, -2384890.5, 200974.31 
1.4163972e+3, 4.6126893e+1, -2303292.0, -2504759.0, -1789.9989, -0.006380435, -0.009994584, -2303276.0, 184680.84 
1.4163548e+3, 5.6117797e+1, -2216975.3, -2412931.0, -1609.2432, 0.003237997, 0.006846501, -2216962.0, 173083.98 
1.4163119e+3, 6.6108274e+1, -2135527.0, -2329291.5, -3475.1587, 0.004738957, 0.009620703, -2135464.8, 156674.56 
1.4162686e+3, 7.609839e+1, -2050894.6, -2237885.3, -3657.8826, -0.000018825402, 0.0016223479, -2050823.0, 143413.16 
1.4162256e+3, 8.6088336e+1, -1969784.8, -2153787.0, -4253.807, -0.0006178501, 0.0015418347, -1969686.5, 126648.26 
1.4161824e+3, 9.6078056e+1, -1884770.5, -2062126.6, -4266.5337, 0.0017736141, 0.0050279377, -1884667.9, 113767.57 
1.416139e+3, 1.0606749e+2, -1803299.0, -1978349.6, -4884.3804, 0.0020613899, 0.0065576765, -1803162.8, 97376.2 
1.4160956e+3, 1.16056636e+2, -1717456.5, -1886319.5, -4842.7603, 0.0008195461, 0.005043404, -1717317.6, 85327.79 
1.4160521e+3, 1.2604547e+2, -1636215.3, -1803405.6, -5309.381, 0.00036867653, 0.0040502395, -1636046.9, 68708.08 
1.4160085e+3, 1.3603398e+2, -1550507.0, -1711344.4, -5449.1265, 0.0005082205, 0.0019746223, -1550322.6, 56544.832 
1.415965e+3, 1.4602223e+2, -1468916.4, -1628112.1, -5774.964, 0.0003187179, 0.0034234836, -1468707.3, 40275.35 
1.4159214e+3, 1.560102e+2, -1382785.6, -1535832.3, -5840.868, 0.0001205048, 0.005456476, -1382563.1, 28537.48 
1.4158776e+3, 1.6599785e+2, -1301432.1, -1452712.4, -6042.679, 0.00054073386, 0.005983775, -1301191.1, 12030.457 
1.4158341e+3, 1.7598517e+2, -1215846.8, -1360716.3, -6046.2363, 0.0012609567, 0.0034180947, -1215594.9, -249.00739 
1.4157905e+3, 1.859722e+2, -1134331.9, -1277865.6, -5899.3364, 0.00058606814, 0.0038245618, -1134089.8, -16616.873 
1.4157468e+3, 1.9595893e+2, -1047853.1, -1185438.0, -5922.115, -0.00091428193, 0.004665167, -1047598.7, -27995.637 
1.4157033e+3, 2.0594531e+2, -966169.75, -1102233.8, -5932.355, -0.00087785115, 0.0048994455, -965911.56, -44175.29 
1.4156595e+3, 2.159314e+2, -880245.56, -1010061.5, -5983.355, -0.00012612138, 0.0029452352, -879970.3, -56097.566 
1.4156161e+3, 2.2591716e+2, -799038.0, -927268.06, -5680.207, 0.00026705346, 0.0032926423, -798786.9, -72774.68 
1.4155725e+3, 2.3590264e+2, -713341.7, -835000.5, -5727.2026, 0.00034610968, 0.0033539033, -713072.6, -84917.984 
1.4155291e+3, 2.4588782e+2, -631746.9, -751531.5, -5152.091, -0.00048223606, 0.004754675, -631525.7, -101225.78 
1.4154857e+3, 2.558727e+2, -545630.7, -658991.4, -5120.617, -0.0017513342, 0.00542113, -545399.9, -112951.99 
1.4154425e+3, 2.6585728e+2, -464523.7, -576255.6, -4493.36, -0.0015398978, 0.005278181, -464343.25, -129744.15 
1.4153993e+3, 2.7584153e+2, -378900.66, -483780.8, -4658.935, -0.0003546854, 0.0027233625, -378694.13, -141940.77 
1.4153562e+3, 2.8582555e+2, -297347.25, -399777.66, -3823.9924, -0.00048341934, 0.0028462007, -297204.7, -158294.69 
1.4153132e+3, 2.9580933e+2, -211623.97, -307386.3, -3738.0735, -0.0010699887, 0.003009672, -211478.27, -170409.33 
1.4152706e+3, 3.057961e+2, -133680.53, -178167.69, -2657.7605, -0.0012073689, 0.005266674, -133522.31, -133522.31 
1.4152278e+3, 3.1578583e+2, -146793.31, -183440.11, -2966.1704, -0.0020117313, 0.0068064188, -146554.8, -146554.8 
1.4151853e+3, 3.25781e+2, -84800.6, -33875.152, -2183.3782, -0.002396222, 0.002391285, -33781.715, -33781.715 
1.4264588e+3, 3.6179283e+1, -2382574.8, -2593337.5, 1487.775, 0.0047245603, 0.008776265, -2382564.3, 202879.28 
1.4264151e+3, 4.6169907e+1, -2297140.0, -2501230.8, 1544.0463, -0.00063259766, -0.003882644, -2297128.5, 190406.95 
1.4263716e+3, 5.6160766e+1, -2215429.5, -2411783.5, 1382.9055, 0.0008063622, 0.005432819, -2215419.8, 174205.11 
1.4263278e+3, 6.6151243e+1, -2135340.8, -2329226.8, -100.98943, 0.0017836671, 0.0073320386, -2135340.8, 156377.52 
1.4262839e+3, 7.614138e+1, -2049599.6, -2237267.3, -38.09465, 0.001107564, 0.0025862367, -2049599.6, 144215.38 
1.4262399e+3, 8.6131316e+1, -1967877.0, -2152724.3, -556.8208, 0.00091573497, 0.0028343885, -1967875.4, 128038.14 
1.4261958e+3, 9.612103e+1, -1882736.9, -2060966.5, -575.405, 0.0014186028, 0.0048141796, -1882735.0, 115279.35 
1.4261515e+3, 1.0611047e+2, -1801561.1, -1977467.8, -1192.6986, 0.0013942199, 0.005780652, -1801553.0, 98564.945 
1.4261073e+3, 1.1609959e+2, -1716292.5, -1885673.4, -1321.1879, 0.00087042747, 0.0043220567, -1716282.3, 85942.266 
1.426063e+3, 1.2608843e+2, -1635174.9, -1802865.9, -1697.8004, 0.0005042755, 0.003958264, -1635157.8, 69176.164 
1.4260186e+3, 1.3607696e+2, -1549427.8, -1710761.0, -1645.4094, 0.00040065945, 0.002910326, -1549411.0, 57035.41 
1.4259742e+3, 1.460652e+2, -1468041.3, -1627565.9, -1801.999, 0.00032971546, 0.0040925993, -1468020.9, 40540.617 
1.4259298e+3, 1.5605314e+2, -1382255.1, -1535494.0, -1801.9034, 0.00041252244, 0.004987288, -1382234.0, 28445.615 
1.4258853e+3, 1.6604081e+2, -1300660.0, -1452379.1, -1986.0785, 0.00076116883, 0.005525816, -1300634.0, 12166.688 
1.4258409e+3, 1.760281e+2, -1214169.1, -1359932.8, -2080.954, 0.0012062697, 0.0038130875, -1214139.5, 785.5576 
1.4257964e+3, 1.8601514e+2, -1132942.4, -1277090.6, -1992.256, 0.0004683592, 0.004284978, -1132914.9, -15862.714 
1.4257519e+3, 1.9600184e+2, -1047691.8, -1185253.5, -1966.0459, -0.0009886776, 0.0045988774, -1047663.7, -28481.387 
1.4257073e+3, 2.0598823e+2, -966377.0, -1102391.9, -1877.7483, -0.0009442194, 0.0047310526, -966351.06, -45035.395 
1.425663e+3, 2.159743e+2, -880095.7, -1010040.2, -1919.1327, -0.0001066293, 0.0029965455, -880067.3, -56615.05 
1.4256187e+3, 2.2596006e+2, -798499.56, -926880.75, -1652.3229, 0.00034924227, 0.0036521505, -798478.3, -72886.53 
1.4255743e+3, 2.3594554e+2, -712486.8, -834500.0, -1635.2338, 0.0004734355, 0.0041393954, -712464.9, -84730.71 
1.42553e+3, 2.4593072e+2, -631196.06, -751263.25, -1172.791, -0.00039298332, 0.005048991, -631184.6, -101305.08 
1.4254858e+3, 2.5591558e+2, -545636.1, -658994.1, -1326.0527, -0.0018018179, 0.0046172165, -545620.56, -113592.88 
1.4254417e+3, 2.6590014e+2, -464743.4, -576354.1, -732.5622, -0.0015213314, 0.0050162263, -464738.6, -130559.59 
1.4253975e+3, 2.758844e+2, -378996.6, -483794.97, -690.66174, -0.000113458314, 0.004107829, -378992.06, -142658.86 
1.4253536e+3, 2.858684e+2, -297504.13, -399790.53, 89.9141, -0.0004764427, 0.0035639198, -297504.03, -159014.08 
1.4253098e+3, 2.9585218e+2, -212010.27, -307461.22, -71.78653, -0.0015727737, 0.0014117751, -212010.2, -171361.05 
1.4252661e+3, 3.0583894e+2, -134132.72, -178136.48, 944.5017, -0.001398747, 0.0051535275, -134112.45, -134112.45 
1.4252226e+3, 3.1582874e+2, -147179.06, -183392.27, 1116.399, -0.0011947968, 0.011080101, -147144.69, -147144.69 
1.4251791e+3, 3.258238e+2, -85379.65, -34339.39, 1027.9248, -0.0022813387, -0.000035132303, -34318.7, -34318.7 
1.4364778e+3, 3.62231e+1, -2384237.0, -2595484.0, -308.74777, -0.0010937855, 0.000075886106, -2384236.5, 200777.42 
1.4364335e+3, 4.6213874e+1, -2297808.3, -2501826.8, -2120.86, 0.011678086, 0.00909404, -2297786.3, 189318.28 
1.4363886e+3, 5.620455e+1, -2215672.8, -2412040.3, -2179.662, -0.0035818166, 0.0019174975, -2215648.5, 173547.28 
1.436344e+3, 6.6195023e+1, -2135251.0, -2328952.3, -2776.5945, -0.003953942, 0.0025251124, -2135211.0, 156078.1 
1.4362992e+3, 7.6185256e+1, -2049563.0, -2237048.5, -2759.7844, 0.0037344329, 0.0057524224, -2049522.4, 143862.58 
1.4362542e+3, 8.617521e+1, -1968002.1, -2152741.5, -3417.4773, 0.004024723, 0.0060670534, -1967939.0, 127544.48 
1.4362092e+3, 9.616487e+1, -1882918.5, -2061095.8, -3457.5254, -0.00002836429, 0.0031156228, -1882851.5, 114733.19 
1.4361642e+3, 1.0615427e+2, -1801890.0, -1977946.8, -4052.0825, -0.0005899532, 0.0028793241, -1801796.9, 97891.72 
1.4361191e+3, 1.1614339e+2, -1716480.1, -1886017.8, -4164.8105, 0.0010514586, 0.0028257486, -1716377.9, 85417.37 
1.436074e+3, 1.2613225e+2, -1635097.9, -1802545.0, -4454.5474, 0.001130773, 0.0046966206, -1634979.4, 68925.0 
1.4360286e+3, 1.3612083e+2, -1549333.6, -1710464.9, -4431.146, 0.00035908635, 0.006213067, -1549211.9, 56804.543 
1.4359833e+3, 1.4610907e+2, -1467980.1, -1627378.4, -4607.0747, 0.00052632747, 0.0059394953, -1467847.1, 40284.44 
1.4359382e+3, 1.56097e+2, -1382180.1, -1535330.8, -4619.5786, 0.0011679507, 0.0026121223, -1382040.9, 28208.938 
1.4358929e+3, 1.6608465e+2, -1300813.0, -1452733.6, -4658.4185, 0.0007511857, 0.003311033, -1300670.3, 11700.756 
1.4358477e+3, 1.7607196e+2, -1214362.9, -1360281.1, -4779.602, -0.00026686658, 0.0049406183, -1214206.5, 288.80685 
1.4358023e+3, 1.8605897e+2, -1132929.6, -1276978.1, -4975.75, -0.0003308275, 0.0055333893, -1132757.9, -16135.455 
1.435757e+3, 1.9604568e+2, -1047547.9, -1185099.0, -4944.0195, 0.00013582189, 0.0036091495, -1047370.4, -28617.617 
1.4357117e+3, 2.0603207e+2, -966344.8, -1102511.6, -4650.413, 0.00019314264, 0.004125228, -966186.2, -45300.074 
1.4356665e+3, 2.1601814e+2, -880108.8, -1010136.3, -4707.0317, 0.000021219757, 0.004560555, -879938.7, -56916.02 
1.4356212e+3, 2.2600392e+2, -798421.3, -926768.4, -4554.472, -0.000432793, 0.005787732, -798259.9, -73097.83 
1.4355761e+3, 2.3598939e+2, -712447.2, -834456.56, -4559.3394, -0.0011463535, 0.0056860885, -712277.06, -84972.6 
1.435531e+3, 2.4597451e+2, -631372.25, -751695.94, -4250.5728, -0.0007526732, 0.0047428394, -631222.3, -101772.195 
1.4354858e+3, 2.5595936e+2, -545770.25, -659356.5, -4395.8643, 0.0002117057, 0.0015940084, -545600.4, -114001.55 
1.4354408e+3, 2.659439e+2, -464588.16, -576099.56, -3822.338, -0.0002018062, 0.003431429, -464457.28, -130707.23 
1.435396e+3, 2.7592826e+2, -378878.03, -483584.1, -3786.6711, -0.0014996717, 0.0068866466, -378741.28, -142837.58 
1.435351e+3, 2.8591225e+2, -297686.94, -400253.6, -3072.2725, -0.0021601242, 0.006491595, -297595.0, -159534.42 
1.4353064e+3, 2.9589593e+2, -212153.5, -307802.66, -3238.3972, -0.0018670073, 0.0013772164, -212043.98, -171823.6 
1.4352618e+3, 3.058827e+2, -133509.5, -176984.88, -2459.6743, -0.0006339954, 0.0034718018, -133370.78, -133370.78 
1.4352173e+3, 3.1587258e+2, -146694.4, -182580.4, -2306.3943, 0.00075009046, 0.009233915, -146546.78, -146546.78 
1.4351727e+3, 3.258676e+2, -86986.57, -37823.41, -2456.1445, -0.003152277, 0.0012767825, -37701.008, -37701.008 
1.4464967e+3, 3.6267972e+1, -2380604.8, -2591182.0, 2573.5166, 0.00004016919, -0.0021893042, -2380573.3, 204001.0 
1.4464514e+3, 4.6258903e+1, -2298253.0, -2502365.0, 1297.1797, 0.0074870344, 0.015256161, -2298244.8, 188418.44 
1.4464058e+3, 5.6249475e+1, -2213852.5, -2411491.3, 1147.0359, -0.0014371533, 0.0014504594, -2213845.8, 174909.9 
1.44636e+3, 6.6239923e+1, -2132550.0, -2327372.3, 955.2896, -0.001393131, 0.000601363, -2132545.3, 158303.9 
1.4463145e+3, 7.623018e+1, -2047435.5, -2235779.0, 926.85455, 0.0028955836, 0.0056037703, -2047431.0, 145513.7 
1.4462687e+3, 8.622014e+1, -1966578.1, -2152067.5, 106.423004, 0.0027475015, 0.006569086, -1966578.1, 128465.055 
1.4462228e+3, 9.6209794e+1, -1882074.5, -2060678.9, 25.119421, 0.00013572992, 0.0035366272, -1882074.5, 115070.05 
1.4461769e+3, 1.0619919e+2, -1800977.1, -1977342.0, -282.86386, -0.00017738012, 0.0031755161, -1800976.8, 98271.65 
1.4461309e+3, 1.1618831e+2, -1715247.1, -1885217.5, -204.03978, 0.0009661422, 0.0031475613, -1715246.9, 86108.14 
1.4460848e+3, 1.2617718e+2, -1633767.8, -1801784.1, -449.33478, 0.0010971254, 0.0047730613, -1633766.6, 69697.586 
1.4460388e+3, 1.3616574e+2, -1548178.3, -1709800.6, -501.75177, 0.00073842163, 0.005698692, -1548176.6, 57399.582 
1.4459927e+3, 1.4615399e+2, -1466938.5, -1626894.6, -710.01886, 0.00068807567, 0.005618046, -1466935.4, 40755.996 
1.4459467e+3, 1.561419e+2, -1380974.1, -1534716.1, -833.8672, 0.0007713339, 0.0030298638, -1380969.6, 28840.059 
1.4459005e+3, 1.6612954e+2, -1299975.9, -1452154.6, -793.03687, 0.00032033212, 0.0036553112, -1299971.8, 11959.158 
1.4458543e+3, 1.7611687e+2, -1214470.8, -1360182.1, -707.2932, -0.00037953412, 0.004776093, -1214467.3, -412.16843 
1.4458083e+3, 1.8610388e+2, -1132774.3, -1276974.0, -823.9697, -0.00011666926, 0.005358608, -1132769.5, -16587.178 
1.445762e+3, 1.9609058e+2, -1046085.1, -1184428.5, -909.0136, 0.00064118346, 0.0038000736, -1046079.2, -27766.355 
1.4457159e+3, 2.0607696e+2, -964836.6, -1101694.4, -710.5571, 0.00047887306, 0.0044319034, -964832.94, -44386.7 
1.44567e+3, 2.1606302e+2, -879519.3, -1009808.75, -692.0662, -0.00023904548, 0.0048319884, -879515.6, -56932.797 
1.445624e+3, 2.2604878e+2, -798320.8, -926707.56, -537.3954, -0.00074018067, 0.0057311533, -798318.56, -73596.2 
1.4455779e+3, 2.3603424e+2, -712403.06, -834414.3, -632.3043, -0.001169875, 0.005080232, -712399.8, -85534.91 
1.4455318e+3, 2.4601936e+2, -631176.9, -751650.06, -344.21082, -0.0007752196, 0.0046376097, -631175.94, -102165.3 
1.445486e+3, 2.5600418e+2, -545232.06, -659133.4, -346.2141, 0.0000492954, 0.0026702038, -545231.0, -114071.58 
1.44544e+3, 2.6598874e+2, -463959.84, -575712.3, 158.35413, -0.00013717088, 0.0039539626, -463959.63, -130648.89 
1.4453943e+3, 2.7597305e+2, -378451.63, -483303.84, 93.88825, -0.000981848, 0.0058081113, -378451.56, -142987.0 
1.4453486e+3, 2.8595704e+2, -297770.3, -400427.78, 719.0785, -0.0019115758, 0.006250374, -297765.28, -160143.8 
1.4453028e+3, 2.9594073e+2, -212775.83, -308201.44, 683.64124, -0.002372761, 0.0035287298, -212770.94, -172989.64 
1.4452575e+3, 3.059275e+2, -133850.22, -176860.95, 1219.1547, -0.0011306755, 0.0037935765, -133815.7, -133815.7 
1.445212e+3, 3.1591737e+2, -146443.38, -182261.9, 953.73895, 0.0010437585, 0.0051745865, -146417.98, -146417.98 
1.4451665e+3, 3.259124e+2, -86697.83, -38364.684, 1199.647, -0.0026094012, 0.004044637, -38334.926, -38334.926 
1.456516e+3, 3.6313686e+1, -2378308.3, -2584858.3, -986.8943, 0.0041949907, -0.0011026382, -2378303.5, 205823.0 
1.4564693e+3, 4.6304795e+1, -2299009.3, -2503488.0, -1744.5522, -0.006386302, 0.01754121, -2298994.3, 187219.31 
1.4564228e+3, 5.6295294e+1, -2214227.3, -2412271.3, -1861.5627, 0.0046397024, 0.0028691615, -2214209.8, 174096.92 
1.4563763e+3, 6.6285706e+1, -2132525.0, -2327216.8, -1880.7968, 0.005878461, 0.00039680622, -2132507.0, 157893.64 
1.4563298e+3, 7.627596e+1, -2047674.8, -2235803.0, -1955.5245, -0.00025077735, 0.0034122101, -2047654.5, 144841.56 
1.456283e+3, 8.626592e+1, -1966967.1, -2152425.5, -2903.1897, -0.00125505, 0.0054292544, -1966921.6, 127672.766 
1.4562364e+3, 9.6255594e+1, -1882191.1, -2060839.8, -2942.3499, 0.0012524922, 0.0052971845, -1882142.8, 114553.0 
1.4561896e+3, 1.0624501e+2, -1800823.6, -1976904.6, -3007.5654, 0.001635274, 0.0055265487, -1800772.3, 98027.18 
1.4561427e+3, 1.16234146e+2, -1715182.9, -1884932.6, -2971.1714, 0.0005808591, 0.0046772547, -1715130.9, 85774.914 
1.4560959e+3, 1.26223e+2, -1633904.1, -1801849.9, -3267.2678, 0.0005966864, 0.0044304617, -1633840.6, 69174.48 
1.456049e+3, 1.3621153e+2, -1548278.3, -1709890.6, -3330.581, 0.0013060163, 0.0026430625, -1548209.6, 56917.758 
1.4560021e+3, 1.461998e+2, -1467169.9, -1627232.8, -3452.2148, 0.0007105443, 0.0038960634, -1467095.5, 40147.043 
1.455955e+3, 1.5618773e+2, -1381139.5, -1534935.4, -3577.24, -0.0005364083, 0.0054056416, -1381056.4, 28304.436 
1.4559081e+3, 1.6617538e+2, -1299745.3, -1451690.4, -3682.6904, -0.00049898704, 0.0057923687, -1299656.0, 11825.77 
1.4558612e+3, 1.761627e+2, -1214179.6, -1359751.8, -3601.1758, 0.00038035848, 0.0036404384, -1214090.6, -484.56775 
1.4558142e+3, 1.861497e+2, -1132898.1, -1277351.3, -3444.1162, 0.0007437149, 0.0041742763, -1132816.0, -17082.725 
1.4557673e+3, 1.961364e+2, -1046282.4, -1184804.6, -3561.1826, 0.0005840673, 0.004872926, -1046190.9, -28327.03 
1.4557204e+3, 2.0612277e+2, -964827.06, -1101626.4, -3715.5532, 0.000037268986, 0.005415376, -964726.25, -44728.906 
1.4556733e+3, 2.1610883e+2, -879445.94, -1009711.5, -3696.1763, -0.0008750318, 0.0040846774, -879341.2, -57207.168 
1.4556265e+3, 2.2609456e+2, -798374.4, -926983.9, -3442.6729, -0.0007439542, 0.003971615, -798282.25, -74008.57 
1.4555795e+3, 2.3607999e+2, -712443.9, -834616.0, -3554.5107, -0.000016588023, 0.0027723718, -712340.56, -85924.03 
1.4555329e+3, 2.4606514e+2, -631086.5, -751543.4, -3318.4275, -0.0006256742, 0.004775941, -630995.1, -102433.06 
1.455486e+3, 2.5605002e+2, -545172.8, -659075.2, -3335.0164, -0.0020063454, 0.0071696094, -545075.25, -114364.836 
1.4554392e+3, 2.6603454e+2, -464010.44, -575914.1, -2997.0232, -0.0011838302, 0.0062193563, -463930.22, -131068.22 
1.4553925e+3, 2.7601877e+2, -378506.78, -483510.06, -3081.8987, 0.0011033098, 0.0014396688, -378416.4, -143399.83 
1.4553459e+3, 2.8600276e+2, -297735.22, -400424.0, -2609.862, -0.00011906397, 0.003350772, -297668.94, -160495.48 
1.4552994e+3, 2.959865e+2, -212739.19, -308213.3, -2628.3699, -0.0032743078, 0.007711986, -212666.88, -173334.25 
1.4552529e+3, 3.0597323e+2, -133967.84, -177295.31, -2041.255, -0.002847211, 0.0060139904, -133871.89, -133871.89 
1.4552067e+3, 3.1596297e+2, -146499.84, -182581.47, -2289.5955, -0.00022137768, -0.0007344319, -146355.13, -146355.13 
1.4551602e+3, 3.2595816e+2, -85949.87, -36928.08, -2165.3406, -0.0010509455, 0.008038953, -36832.617, -36832.617 
1.4665349e+3, 3.6360663e+1, -2377071.5, -2583304.5, 2442.4343, 0.0030752807, 0.003087282, -2377042.5, 206623.55 
1.4664875e+3, 4.6351668e+1, -2298175.3, -2503548.3, 2006.1876, -0.004848861, 0.010194857, -2298155.5, 187598.55 
1.4664401e+3, 5.63422e+1, -2211695.8, -2411422.8, 1865.8737, 0.0046911933, 0.0041718637, -2211678.3, 176168.61 
1.4663927e+3, 6.633261e+1, -2130118.3, -2325929.0, 1469.2593, 0.0054837265, 0.0031819444, -2130107.3, 159833.75 
1.466345e+3, 7.6322836e+1, -2047138.1, -2235382.0, 1404.9757, -0.00051126577, 0.003423165, -2047127.6, 144909.03 
1.4662977e+3, 8.6312807e+1, -1966322.0, -2151816.8, 929.6114, -0.0012297536, 0.0046270955, -1966317.3, 127817.72 
1.46625e+3, 9.630249e+1, -1880408.1, -2059648.4, 1070.2062, 0.0016530668, 0.0049214535, -1880401.8, 115834.32 
1.4662023e+3, 1.0629192e+2, -1799137.6, -1975945.0, 957.4817, 0.0019763084, 0.005601439, -1799132.4, 99207.266 
1.4661546e+3, 1.1628107e+2, -1714287.6, -1884363.9, 871.9358, 0.00060213316, 0.005126859, -1714283.1, 86162.86 
1.4661068e+3, 1.262699e+2, -1633251.6, -1801513.5, 655.1819, 0.00040644238, 0.0048537394, -1633249.0, 69306.27 
1.4660591e+3, 1.3625844e+2, -1547454.6, -1709395.6, 590.8527, 0.00096284936, 0.0029061101, -1547452.4, 57215.297 
1.4660114e+3, 1.462467e+2, -1466272.8, -1626566.9, 632.55426, 0.0005603615, 0.003979517, -1466270.3, 40512.508 
1.4659636e+3, 1.5623465e+2, -1380578.9, -1534461.1, 745.92554, -0.00018084409, 0.005393413, -1380575.3, 28325.62 
1.4659157e+3, 1.662223e+2, -1298967.5, -1451352.4, 636.65784, -0.000064972715, 0.0058521675, -1298964.8, 12057.163 
1.465868e+3, 1.7620961e+2, -1212518.3, -1358930.8, 476.38016, 0.0005719317, 0.0037237664, -1212516.8, 629.6122 
1.4658202e+3, 1.8619661e+2, -1131663.3, -1276704.0, 613.94855, 0.00056132005, 0.004241501, -1131660.6, -16387.0 
1.4657724e+3, 1.961833e+2, -1046419.06, -1184775.0, 669.20135, 0.000019431094, 0.0049999296, -1046415.8, -29011.57 
1.4657246e+3, 2.0616966e+2, -964943.25, -1101671.8, 575.5796, -0.00030692972, 0.005538846, -964940.9, -45403.055 
1.4656769e+3, 2.1615571e+2, -878485.1, -1009228.25, 539.562, -0.000703309, 0.0042113857, -878482.9, -56808.313 
1.4656292e+3, 2.2614144e+2, -797231.94, -926490.0, 740.82654, -0.0004445334, 0.004127018, -797227.7, -73413.27 
1.4655814e+3, 2.3612684e+2, -711546.3, -834270.06, 670.87415, 0.0001737263, 0.0030227404, -711542.6, -85585.21 
1.4655338e+3, 2.4611199e+2, -630380.94, -751182.75, 844.3605, -0.0005190758, 0.0048863213, -630375.0, -102271.93 
1.4654861e+3, 2.5609684e+2, -544786.44, -658876.9, 758.75244, -0.0018569948, 0.007034241, -544781.4, -114529.8 
1.4654385e+3, 2.6608136e+2, -463781.72, -575934.0, 1003.4398, -0.0013770527, 0.006251212, -463772.75, -131369.45 
1.4653909e+3, 2.7606556e+2, -378092.13, -483423.16, 907.9573, 0.0002968994, 0.0017659131, -378084.3, -143526.22 
1.4653434e+3, 2.8604954e+2, -297072.94, -400030.03, 1263.9985, -0.00032723809, 0.0035265682, -297057.44, -160342.34 
1.4652959e+3, 2.960333e+2, -211946.75, -307778.72, 1283.9469, -0.0021512043, 0.007638444, -211929.56, -173055.25 
1.4652486e+3, 3.0602e+2, -134073.47, -177878.39, 1689.0454, -0.0021589564, 0.0061388547, -134008.44, -134008.44 
1.4652012e+3, 3.1600967e+2, -147408.81, -183339.42, 1324.174, -0.0011264354, -0.00039805993, -147360.08, -147360.08 
1.465154e+3, 3.2600492e+2, -85672.23, -34988.44, 1541.4014, -0.0013863642, 0.008240148, -34941.605, -34941.605 
1.4765538e+3, 3.6408603e+1, -2378231.5, -2584660.8, -1300.5645, -0.0006072507, 0.0085798595, -2378223.3, 204972.95 
1.4765055e+3, 4.6399358e+1, -2298437.8, -2504180.5, -643.98535, 0.004853263, -0.0024755762, -2298435.8, 186850.98 
1.4764574e+3, 5.638999e+1, -2212398.8, -2412147.3, -778.653, 0.0010259455, 0.005505307, -2212395.8, 174982.9 
1.476409e+3, 6.638041e+1, -2130557.0, -2326149.8, -1871.6938, 0.0005175551, 0.0077380203, -2130539.0, 158933.38 
1.4763604e+3, 7.63706e+1, -2047191.6, -2235375.8, -1860.7603, 0.00095422636, 0.004761951, -2047173.3, 144395.3 
1.476312e+3, 8.636058e+1, -1966117.4, -2151218.5, -1715.4763, 0.0011796071, 0.0040822574, -1966101.5, 127565.37 
1.4762636e+3, 9.6350294e+1, -1880413.3, -2059269.3, -1656.7892, 0.0014363866, 0.0032006134, -1880397.9, 115369.67 
1.4762151e+3, 1.0633974e+2, -1799428.6, -1976234.5, -2012.1123, 0.0012701491, 0.0042640115, -1799405.8, 98465.35 
1.4761665e+3, 1.1632888e+2, -1714423.5, -1884578.6, -2072.431, 0.0008041288, 0.004918066, -1714398.3, 85579.16 
1.476118e+3, 1.2631774e+2, -1633356.4, -1801604.0, -2080.4668, 0.00031404122, 0.005808011, -1633330.6, 68756.02 
1.4760694e+3, 1.3630627e+2, -1547505.9, -1709401.8, -2145.2683, -0.00021361804, 0.005408206, -1547477.4, 56721.605 
1.4760207e+3, 1.4629455e+2, -1465990.6, -1625946.5, -2182.777, 0.00018736863, 0.005310611, -1465960.9, 40353.043 
1.4759721e+3, 1.5628251e+2, -1380297.3, -1534001.0, -2094.82, 0.0012582664, 0.003748143, -1380268.6, 28163.193 
1.4759235e+3, 1.6627015e+2, -1299240.5, -1451923.0, -2034.489, 0.0011223537, 0.0045258664, -1299213.4, 11339.606 
1.475875e+3, 1.7625745e+2, -1212808.3, -1359401.0, -2214.647, 0.0002403066, 0.004713165, -1212774.9, -97.30201 
1.4758264e+3, 1.8624444e+2, -1131550.1, -1276462.8, -2363.276, -0.0004398753, 0.0052270014, -1131511.5, -16706.662 
1.4757776e+3, 1.9623113e+2, -1046213.7, -1184523.5, -2297.529, -0.0010122589, 0.004352271, -1046175.5, -29240.064 
1.475729e+3, 2.062175e+2, -964941.5, -1101806.5, -2140.0986, -0.00068494136, 0.0050018025, -964908.06, -45839.063 
1.4756805e+3, 2.1620354e+2, -878542.8, -1009398.9, -2216.2375, 0.000009619675, 0.005017135, -878505.3, -57299.535 
1.4756319e+3, 2.2618927e+2, -797258.1, -926644.9, -2240.9937, 0.0000025951756, 0.0057896064, -797219.3, -73873.66 
1.4755833e+3, 2.3617467e+2, -711580.3, -834425.6, -2321.1487, -0.00053577946, 0.0052950424, -711536.44, -86047.75 
1.4755347e+3, 2.4615978e+2, -630458.5, -751414.44, -2221.4573, -0.000504992, 0.0049475706, -630417.75, -102782.99 
1.4754862e+3, 2.5614455e+2, -544843.94, -659113.3, -2320.205, 0.000027161092, 0.0030669218, -544796.8, -115013.07 
1.4754377e+3, 2.6612908e+2, -463863.38, -576181.7, -2118.8972, -0.0010245022, 0.004527594, -463823.44, -131887.95 
1.4753893e+3, 2.7611333e+2, -378180.5, -483662.06, -2220.2534, -0.0031051305, 0.0062341783, -378133.78, -144043.89 
1.4753409e+3, 2.860973e+2, -296985.03, -399967.47, -2047.1345, -0.0022864745, 0.006381773, -296944.34, -160697.23 
1.4752926e+3, 2.9608098e+2, -211911.13, -307850.38, -2032.3256, 0.00069025223, 0.0038010178, -211868.1, -173461.17 
1.4752443e+3, 3.0606762e+2, -134515.92, -178971.42, -1835.2594, 0.0005290515, 0.0045025246, -134440.3, -134440.3 
1.475196e+3, 3.1605735e+2, -147648.45, -183978.27, -2095.4043, -0.0019748933, 0.0056986655, -147528.0, -147528.0 
1.4751478e+3, 3.2605255e+2, -84202.72, -32049.07, -1846.135, -0.0035360854, 0.0049734567, -31983.803, -31983.803 
1.486573e+3, 3.6457416e+1, -2376854.3, -2585979.0, 1934.3422, -0.0005933458, 0.009620369, -2376836.5, 205881.38 
1.4865239e+3, 4.64481e+1, -2294530.3, -2501279.8, 2078.6255, 0.006293373, -0.006129527, -2294509.5, 190299.66 
1.4864746e+3, 5.643885e+1, -2211785.0, -2410945.0, 2582.4138, 0.00055200525, 0.0061416514, -2211751.5, 175148.19 
1.4864254e+3, 6.642931e+1, -2130467.3, -2325937.0, 1851.8307, -0.0000037564348, 0.009115986, -2130449.8, 158543.55 
1.486376e+3, 7.6419497e+1, -2045303.9, -2234282.8, 1921.2772, 0.0015207536, 0.0048109936, -2045284.4, 145805.1 
1.4863266e+3, 8.640947e+1, -1964353.6, -2150190.5, 2123.7305, 0.0016476396, 0.0041654217, -1964329.4, 128858.33 
1.4862773e+3, 9.6399206e+1, -1880099.3, -2058885.5, 2037.4451, 0.0010747733, 0.0041069803, -1880076.0, 115212.27 
1.4862278e+3, 1.0638866e+2, -1799107.5, -1975798.0, 1841.9244, 0.0008303489, 0.0048550884, -1799088.3, 98303.414 
1.4861783e+3, 1.1637781e+2, -1713324.0, -1883760.1, 1941.2554, 0.00075188087, 0.0045231, -1713301.9, 86196.086 
1.4861289e+3, 1.2636667e+2, -1632193.1, -1800692.0, 2137.5994, 0.00050139084, 0.0053515215, -1632166.0, 69441.06 
1.4860794e+3, 1.3635524e+2, -1546710.4, -1708715.0, 2220.0164, 0.00023151148, 0.005524607, -1546680.0, 57039.203 
1.48603e+3, 1.463435e+2, -1465229.5, -1625694.1, 2124.5967, 0.00046460633, 0.0057024104, -1465201.4, 40632.76 
1.4859806e+3, 1.5633145e+2, -1379009.4, -1533423.4, 1871.9042, 0.0010115678, 0.004124918, -1378986.8, 28965.549 
1.4859311e+3, 1.6631909e+2, -1298186.0, -1451233.9, 1954.1017, 0.0007895934, 0.0046941843, -1298161.0, 11912.417 
1.4858817e+3, 1.7630638e+2, -1212710.8, -1359218.9, 2070.8887, 0.00010675671, 0.00481031, -1212681.5, -483.6104 
1.4858323e+3, 1.862934e+2, -1131182.5, -1276239.1, 1990.1171, -0.00036064695, 0.0053740675, -1131155.3, -16829.908 
1.4857829e+3, 1.9628006e+2, -1044692.3, -1183752.3, 1931.9156, -0.0006645078, 0.004482284, -1044665.44, -28209.56 
1.4857334e+3, 2.0626642e+2, -963511.94, -1101214.4, 2037.8306, -0.00045408864, 0.0049779564, -963481.75, -44892.16 
1.4856839e+3, 2.1625245e+2, -877859.56, -1009192.7, 1936.8829, -0.000013141366, 0.0048442343, -877831.0, -57104.395 
1.4856346e+3, 2.2623815e+2, -796711.94, -926386.06, 1864.7146, -0.0001493314, 0.005874088, -796685.1, -73818.5 
1.4855853e+3, 2.3622355e+2, -710823.4, -834082.06, 1827.0741, -0.0007781686, 0.005827163, -710796.3, -85786.53 
1.4855358e+3, 2.4620862e+2, -629652.75, -751199.1, 1900.3242, -0.0006596114, 0.005268601, -629623.06, -102467.01 
1.4854863e+3, 2.561934e+2, -543836.2, -658776.4, 1782.7732, 0.000025890637, 0.0028311005, -543808.56, -114503.21 
1.485437e+3, 2.661779e+2, -462958.2, -575902.8, 1913.2776, -0.000886027, 0.004524786, -462925.78, -131468.5 
1.4853877e+3, 2.7616212e+2, -377649.13, -483517.13, 1852.7151, -0.0028418615, 0.007040978, -377616.72, -144004.86 
1.4853384e+3, 2.8614601e+2, -296445.16, -399889.0, 1884.6195, -0.002219213, 0.006655087, -296410.8, -160641.48 
1.4852892e+3, 2.961297e+2, -211031.84, -307600.16, 1751.8108, 0.00038810668, 0.0025871077, -211000.08, -173070.56 
1.4852399e+3, 3.0611634e+2, -133561.7, -178667.73, 1884.3322, 0.00022112441, 0.004639072, -133483.13, -133483.13 
1.4851907e+3, 3.1610605e+2, -146819.66, -183695.2, 2001.4758, -0.0018702717, 0.008935475, -146711.34, -146711.34 
1.4851415e+3, 3.2610118e+2, -84035.125, -32061.0, 1453.5156, -0.0030557476, 0.0030414956, -32020.383, -32020.383 
1.4965922e+3, 3.6506984e+1, -2378312.0, -2588535.0, 467.55228, 0.000943116, 0.008518404, -2378311.0, 203921.16 
1.4965421e+3, 4.6497703e+1, -2294049.0, -2499426.5, -1272.8214, 0.0026977656, -0.0044750907, -2294041.3, 190281.81 
1.4964919e+3, 5.6488585e+1, -2211153.0, -2409234.0, -766.0439, 0.0018581334, 0.0063047013, -2211150.0, 175262.39 
1.4964418e+3, 6.6479105e+1, -2130664.5, -2325906.0, -973.3728, 0.0018782568, 0.008627016, -2130659.5, 157845.81 
1.4963914e+3, 7.646929e+1, -2045566.6, -2234335.3, -931.2272, 0.0013708676, 0.004097916, -2045562.1, 145039.44 
1.4963411e+3, 8.645928e+1, -1964651.6, -2150425.5, -898.7, 0.0008600364, 0.004632209, -1964647.3, 128052.42 
1.4962909e+3, 9.644903e+1, -1880193.8, -2058996.5, -938.2121, 0.0004979382, 0.0066402224, -1880188.9, 114611.27 
1.4962406e+3, 1.0643849e+2, -1798941.0, -1975336.6, -847.6748, 0.00041532968, 0.006679134, -1798936.9, 97966.48 
1.4961903e+3, 1.1642765e+2, -1713195.3, -1883294.3, -804.48694, 0.00041253053, 0.0040015937, -1713191.5, 85818.08 
1.49614e+3, 1.2641655e+2, -1632012.1, -1800264.3, -722.1412, 0.00082903466, 0.004001736, -1632009.0, 69109.375 
1.4960897e+3, 1.3640514e+2, -1546536.5, -1708447.8, -659.37836, 0.0016387523, 0.0041141436, -1546533.8, 56696.316 
1.4960395e+3, 1.463934e+2, -1465687.4, -1626536.1, -559.7674, 0.001051461, 0.0055624195, -1465685.5, 39659.734 
1.4959891e+3, 1.5638132e+2, -1379423.6, -1534090.3, -801.9377, -0.00049662864, 0.0059182635, -1379419.4, 28044.271 
1.4959389e+3, 1.6636895e+2, -1297937.5, -1450662.6, -936.82336, -0.0006860899, 0.0058944966, -1297931.8, 11653.128 
1.4958885e+3, 1.7635626e+2, -1212398.5, -1358702.3, -814.5284, 0.000005880975, 0.0042633163, -1212394.0, -684.8887 
1.4958383e+3, 1.8634328e+2, -1131245.8, -1276462.9, -673.23334, 0.00042896345, 0.0049709096, -1131242.6, -17406.225 
1.4957881e+3, 1.9632994e+2, -1044803.1, -1184018.8, -763.80255, 0.00063034083, 0.0052206647, -1044798.94, -28831.83 
1.4957377e+3, 2.0631626e+2, -963649.3, -1101543.3, -877.5714, 0.00012670123, 0.005375584, -963643.7, -45542.695 
1.4956875e+3, 2.1630226e+2, -877951.8, -1009437.2, -981.68256, -0.00068284525, 0.0039030763, -877944.5, -57706.11 
1.4956373e+3, 2.2628796e+2, -796704.9, -926440.25, -1042.102, -0.0008262412, 0.0047263866, -796696.5, -74318.01 
1.4955871e+3, 2.3627335e+2, -710806.7, -834141.56, -1108.9634, -0.0007749046, 0.0049884794, -710796.75, -86275.05 
1.4955367e+3, 2.4625842e+2, -629734.1, -751498.0, -1115.7048, -0.0010666755, 0.0058677658, -629723.9, -103055.945 
1.4954865e+3, 2.562432e+2, -543914.75, -659093.8, -1259.3292, -0.0016527333, 0.005704213, -543900.94, -115083.67 
1.4954363e+3, 2.6622766e+2, -463006.6, -576113.9, -1311.3586, -0.001006546, 0.0059323655, -462991.38, -132021.84 
1.495386e+3, 2.7621183e+2, -377714.94, -483784.13, -1372.3589, 0.00045250208, 0.0046813013, -377697.2, -144572.58 
1.495336e+3, 2.8619573e+2, -296623.5, -400386.2, -1337.5981, -0.000545204, 0.0047399085, -296606.28, -161323.9 
1.4952858e+3, 2.9617938e+2, -211194.08, -308005.16, -1495.887, -0.002835889, 0.0038143485, -211170.97, -173728.3 
1.4952356e+3, 3.0616605e+2, -133319.64, -178306.86, -1664.9874, -0.002856825, 0.0064105224, -133258.11, -133258.11 
1.4951855e+3, 3.1615573e+2, -146764.75, -183707.6, -1554.5692, -0.0013114905, 0.00942951, -146699.45, -146699.45 
1.4951353e+3, 3.2615075e+2, -85536.11, -35268.332, -2154.5789, -0.00032926333, 0.0022812616, -35176.152, -35176.152 
1.5066114e+3, 3.65578e+1, -2374968.5, -2588012.8, 3693.8188, 0.0042400337, 0.0077000945, -2374904.5, 206829.67 
1.5065604e+3, 4.654857e+1, -2294376.0, -2498867.0, 2684.876, 0.00081773393, 0.0011283987, -2294340.8, 189483.95 
1.5065092e+3, 5.6539434e+1, -2210171.8, -2408130.5, 2720.1223, 0.00091810984, 0.0058632586, -2210134.5, 175779.72 
1.506458e+3, 6.6529983e+1, -2129646.5, -2324872.8, 2707.5376, 0.001654315, 0.0073051034, -2129609.0, 158397.88 
1.5064068e+3, 7.6520234e+1, -2045223.4, -2233597.3, 2928.8472, 0.0017134274, 0.0048526675, -2045177.9, 144924.47 
1.5063557e+3, 8.6510247e+1, -1964175.5, -2149894.5, 3164.977, 0.0011926666, 0.005439998, -1964121.5, 128078.68 
1.5063044e+3, 9.649999e+1, -1878941.3, -2058130.6, 3267.4385, 0.00051420875, 0.0064229392, -1878881.8, 115418.94 
1.5062533e+3, 1.06489465e+2, -1797898.8, -1974591.8, 3443.051, 0.0005444667, 0.006529299, -1797831.6, 98572.18 
1.5062022e+3, 1.1647864e+2, -1712762.3, -1882845.3, 3363.2495, 0.0008798272, 0.0046020676, -1712695.8, 85814.13 
1.5061511e+3, 1.2646754e+2, -1631442.8, -1799842.3, 3384.2244, 0.0009941699, 0.0047370405, -1631374.9, 69243.875 
1.5061e+3, 1.3645613e+2, -1545363.8, -1707665.0, 3260.3252, 0.0011650539, 0.0045277285, -1545298.3, 57432.242 
1.5060489e+3, 1.464444e+2, -1464659.4, -1625675.3, 3557.0652, 0.0007097978, 0.005608373, -1464580.8, 40264.664 
1.5059978e+3, 1.5643233e+2, -1379330.5, -1533694.9, 3788.4578, -0.00015092187, 0.0056521664, -1379237.6, 27726.23 
1.5059467e+3, 1.6641997e+2, -1297621.1, -1450514.1, 3762.7136, -0.00032735112, 0.0058230334, -1297528.5, 11556.388 
1.5058956e+3, 1.7640728e+2, -1210760.4, -1357945.6, 3570.3787, -0.000067190376, 0.0046459404, -1210673.9, 535.4343 
1.5058444e+3, 1.8639426e+2, -1129667.4, -1275768.9, 3579.4866, 0.00030744338, 0.0052669896, -1129579.8, -16242.959 
1.5057933e+3, 1.963809e+2, -1044024.56, -1183664.4, 3514.1055, 0.00065507466, 0.005264897, -1043936.1, -28468.51 
1.5057424e+3, 2.0636724e+2, -962968.4, -1101221.1, 3408.3367, 0.00015731747, 0.0055608978, -962884.4, -45282.695 
1.5056911e+3, 2.163532e+2, -877029.9, -1009012.2, 3414.022, -0.0007463037, 0.0043591033, -876941.6, -57202.473 
1.50564e+3, 2.2633888e+2, -795670.7, -926020.6, 3386.421, -0.0009461942, 0.004913542, -795582.75, -73703.34 
1.505589e+3, 2.3632425e+2, -709695.25, -833700.4, 3262.9343, -0.0008248466, 0.0046281824, -709609.5, -85586.62 
1.5055378e+3, 2.463093e+2, -628622.06, -751190.2, 3165.454, -0.001050726, 0.005748976, -628540.4, -102371.016 
1.5054868e+3, 2.5629404e+2, -542881.7, -658795.56, 3008.3582, -0.0015435148, 0.0062554767, -542803.7, -114484.695 
1.5054357e+3, 2.6627848e+2, -461706.8, -575621.44, 2876.156, -0.0008659916, 0.0061421627, -461634.25, -131162.72 
1.5053846e+3, 2.762626e+2, -376056.88, -483145.8, 2820.9473, 0.00059696956, 0.003959039, -375982.6, -143355.69 
1.5053335e+3, 2.8624648e+2, -295531.28, -400190.5, 2759.5002, -0.00054439943, 0.00453286, -295458.6, -160673.67 
1.5052824e+3, 2.962301e+2, -211048.1, -308234.5, 2666.989, -0.0031136796, 0.0050775604, -210974.95, -174029.48 
1.5052313e+3, 3.0621675e+2, -132847.38, -178270.28, 2223.7678, -0.0030738814, 0.0065106973, -132738.77, -132738.77 
1.5051802e+3, 3.162064e+2, -145165.69, -183179.16, 1976.2018, -0.0012754417, 0.0067120874, -145063.22, -145063.22 
1.505129e+3, 3.262014e+2, -83720.29, -34905.164, 1749.7048, 0.000120142264, 0.0042680185, -34842.53, -34842.53 
1.516631e+3, 3.660958e+1, -2376292.5, -2588884.5, -1436.7697, 0.008167265, 0.0070875543, -2376282.8, 204943.9 
1.5165786e+3, 4.660041e+1, -2294484.8, -2499036.5, -275.38705, -0.00044149268, 0.008969139, -2294484.5, 188832.28 
1.5165265e+3, 5.6591177e+1, -2210521.8, -2408265.8, -234.11827, -0.0013454412, 0.0050339466, -2210521.5, 174885.69 
1.5164743e+3, 6.658175e+1, -2129570.3, -2324106.8, -209.86478, 0.00014459729, 0.005504299, -2129570.0, 157929.56 
1.5164223e+3, 7.6572096e+1, -2044995.3, -2232829.3, -28.922033, 0.00222273, 0.0065102517, -2044995.3, 144598.8 
1.5163702e+3, 8.656215e+1, -1964119.3, -2149506.3, 330.93317, 0.0021011361, 0.006518126, -1964118.6, 127572.95 
1.5163182e+3, 9.6551895e+1, -1878978.4, -2057856.5, 396.25168, 0.00076570304, 0.0045256414, -1878977.5, 114814.49 
1.5162662e+3, 1.0654137e+2, -1798118.1, -1974813.8, 542.3552, 0.0009016313, 0.005177267, -1798116.5, 97778.625 
1.5162142e+3, 1.1653057e+2, -1712887.4, -1883068.9, 503.21326, 0.0017511706, 0.005972168, -1712886.0, 85115.08 
1.5161622e+3, 1.2651946e+2, -1631664.3, -1800177.6, 750.15424, 0.00095235143, 0.0069061643, -1631660.9, 68449.03 
1.5161103e+3, 1.3650803e+2, -1545552.5, -1707840.4, 596.0764, -0.0007323267, 0.0061870315, -1545550.4, 56671.594 
1.5160583e+3, 1.4649633e+2, -1464200.9, -1624608.9, 642.4652, -0.0003431077, 0.0057909572, -1464198.3, 40138.313 
1.5160063e+3, 1.5648432e+2, -1378804.8, -1532783.8, 858.8844, 0.0014161796, 0.004016435, -1378800.0, 27654.383 
1.5159543e+3, 1.6647196e+2, -1297914.5, -1451233.1, 1171.3828, 0.0012114819, 0.0050099627, -1297905.5, 10669.904 
1.5159024e+3, 1.7645922e+2, -1211156.0, -1358621.6, 958.0128, -0.00020694072, 0.0057786615, -1211149.8, -449.64957 
1.5158506e+3, 1.864462e+2, -1129846.3, -1275982.9, 712.1876, -0.00053100946, 0.00608497, -1129842.9, -17015.008 
1.5157987e+3, 1.9643281e+2, -1044107.06, -1183813.1, 656.92175, -0.00036057708, 0.004751248, -1044104.0, -29145.018 
1.5157467e+3, 2.0641914e+2, -962915.3, -1101167.1, 567.19666, -0.00031180095, 0.005633913, -962913.0, -45819.992 
1.5156949e+3, 2.1640514e+2, -876961.2, -1008984.8, 550.9375, -0.00046328732, 0.0059390874, -876958.9, -57728.63 
1.5156429e+3, 2.263908e+2, -795757.3, -926315.9, 502.06122, -0.00075817906, 0.0061427276, -795755.4, -74384.664 
1.515591e+3, 2.3637614e+2, -709777.9, -833992.8, 343.37207, -0.0010388864, 0.0046243337, -709776.94, -86262.445 
1.515539e+3, 2.4636115e+2, -628810.9, -751612.7, 132.22041, -0.00076592824, 0.005060364, -628810.75, -103149.47 
1.5154871e+3, 2.5634584e+2, -543034.1, -659173.2, -40.53865, -0.000054340715, 0.0048904396, -543034.1, -115222.79 
1.5154351e+3, 2.6633027e+2, -461758.78, -575805.6, -254.05275, -0.00066777767, 0.0054024053, -461758.22, -131794.23 
1.5153831e+3, 2.7631438e+2, -376122.9, -483362.66, -366.709, -0.002118655, 0.0046964665, -376121.66, -144002.25 
1.5153311e+3, 2.8629825e+2, -295676.78, -400581.97, -725.52747, -0.0020328579, 0.005791428, -295671.75, -161394.14 
1.5152791e+3, 2.9628184e+2, -211231.83, -308734.3, -778.7819, -0.0008444526, 0.006265094, -211225.61, -174787.13 
1.5152271e+3, 3.0626836e+2, -133222.4, -179206.72, -1039.4736, -0.00084538106, 0.0050218245, -133198.92, -133198.92 
1.5151751e+3, 3.1625792e+2, -145429.33, -183808.95, -1319.5641, -0.0020038055, 0.0010922181, -145384.0, -145384.0 
1.515123e+3, 3.262531e+2, -83075.64, -33523.043, -1898.4927, -0.0017419904, 0.008912581, -33450.414, -33450.414 
1.5266503e+3, 3.6662483e+1, -2376128.5, -2587553.3, 2184.1914, 0.0044138553, 0.0036147423, -2376106.0, 204602.28 
1.526597e+3, 4.665345e+1, -2292223.3, -2497817.3, 3446.1729, 0.0026460472, 0.014592028, -2292165.5, 190631.39 
1.5265436e+3, 5.664416e+1, -2210262.0, -2408045.5, 3621.5266, -0.0005184375, 0.0052692066, -2210195.8, 174692.22 
1.5264907e+3, 6.663472e+1, -2129441.5, -2323918.3, 4022.0942, -0.000029871459, 0.0044590733, -2129358.5, 157621.95 
1.5264377e+3, 7.662508e+1, -2044073.0, -2232240.8, 3914.7397, 0.002002268, 0.006537396, -2043991.5, 145083.33 
1.5263848e+3, 8.6615145e+1, -1963251.0, -2148679.0, 4119.429, 0.0021219316, 0.007020212, -1963159.5, 128012.73 
1.5263319e+3, 9.660492e+1, -1878703.4, -2057308.4, 4191.713, 0.0011180604, 0.0050880145, -1878605.1, 114667.3 
1.526279e+3, 1.0659443e+2, -1797650.3, -1974177.0, 4633.7114, 0.0010703623, 0.005608617, -1797528.6, 97846.586 
1.5262261e+3, 1.1658364e+2, -1711781.3, -1882139.6, 4778.104, 0.0015288824, 0.0062430967, -1711647.4, 85833.6 
1.5261732e+3, 1.2657253e+2, -1630922.9, -1799609.4, 5236.649, 0.00094172615, 0.0069831708, -1630760.5, 68829.22 
1.5261205e+3, 1.3656111e+2, -1545629.3, -1707661.0, 5277.144, -0.00028255396, 0.0060459124, -1545457.5, 56244.164 
1.5260677e+3, 1.465494e+2, -1463766.6, -1624422.0, 5227.337, -0.000057436515, 0.00582808, -1463596.8, 40219.68 
1.526015e+3, 1.5653737e+2, -1376834.8, -1531774.5, 4920.283, 0.0012191549, 0.004551991, -1376678.8, 29255.592 
1.5259622e+3, 1.66525e+2, -1296096.8, -1450177.8, 5168.7813, 0.001115974, 0.005429942, -1295923.5, 12131.907 
1.5259096e+3, 1.765123e+2, -1210783.4, -1358248.6, 5298.0977, 0.00019234572, 0.005605673, -1210593.3, -413.1293 
1.5258567e+3, 1.8649925e+2, -1129639.6, -1275893.4, 5241.0825, -0.0003766676, 0.0059407786, -1129452.0, -17144.174 
1.525804e+3, 1.9648586e+2, -1043195.44, -1183352.3, 5213.9575, -0.0007675829, 0.00498146, -1043001.75, -28562.65 
1.5257512e+3, 2.0647217e+2, -961595.44, -1100529.1, 5095.172, -0.000586039, 0.005836069, -961408.8, -44835.547 
1.5256985e+3, 2.1645814e+2, -875347.1, -1008247.56, 5000.2285, -0.0003262253, 0.0059627425, -875159.25, -56448.55 
1.5256457e+3, 2.2644378e+2, -794254.25, -925988.25, 4808.1514, -0.00044525566, 0.0061772065, -794078.94, -73227.49 
1.525593e+3, 2.3642907e+2, -708432.0, -833668.44, 4540.5454, -0.00059435796, 0.0048407195, -708267.6, -85271.93 
1.5255402e+3, 2.4641407e+2, -627409.25, -750984.94, 4313.3594, -0.00056970096, 0.0051947352, -627258.9, -102116.09 
1.5254873e+3, 2.5639874e+2, -541834.9, -658676.0, 4320.6694, -0.0003517039, 0.004694063, -541675.3, -114382.414 
1.5254344e+3, 2.663831e+2, -460841.1, -575752.8, 4047.4666, -0.0010333468, 0.0053692837, -460698.72, -131252.81 
1.5253817e+3, 2.7636722e+2, -375260.7, -483312.28, 3789.5828, -0.0022980503, 0.0051325667, -375127.94, -143526.19 
1.5253288e+3, 2.8635105e+2, -294054.03, -399966.72, 3292.5437, -0.0018741596, 0.0060966765, -293951.75, -160191.48 
1.5252757e+3, 2.963346e+2, -208538.83, -307664.7, 3306.7175, -0.00021428229, 0.0060067237, -208428.64, -172507.2 
1.5252228e+3, 3.0632108e+2, -131351.97, -179025.86, 2946.1467, -0.00053109275, 0.004799838, -131170.6, -131170.6 
1.5251699e+3, 3.1631055e+2, -144856.2, -183971.94, 2650.601, -0.0023726386, 0.0015410082, -144677.4, -144677.4 
1.5251169e+3, 3.2630572e+2, -82039.45, -31926.07, 1718.348, -0.0021365052, 0.008533068, -31867.219, -31867.219 
1.5366694e+3, 3.6716282e+1, -2375581.5, -2584588.3, 194.7262, -0.0031979186, -0.0010829874, -2375581.3, 204599.75 
1.5366153e+3, 4.670743e+1, -2292945.5, -2498202.8, -236.3571, 0.0075771655, 0.01878887, -2292945.3, 189322.75 
1.5365611e+3, 5.669811e+1, -2210380.8, -2408153.3, 77.681206, 0.0019101205, 0.0061551537, -2210380.8, 173978.53 
1.536507e+3, 6.668864e+1, -2129729.3, -2324329.3, 1250.6635, 0.00044396182, 0.0039744177, -2129721.3, 156730.75 
1.5364532e+3, 7.667897e+1, -2044527.0, -2232660.8, 1143.1323, 0.0012034714, 0.00558605, -2044520.1, 144026.73 
1.5363994e+3, 8.666905e+1, -1963376.8, -2148465.5, 1180.2294, 0.0015259488, 0.0071598445, -1963369.1, 127274.8 
1.5363456e+3, 9.665887e+1, -1878639.8, -2056966.8, 1276.7301, 0.0013657004, 0.00712677, -1878630.6, 114113.15 
1.5362917e+3, 1.0664841e+2, -1797426.9, -1973570.4, 1956.6399, 0.00096699205, 0.0071638394, -1797405.1, 97441.086 
1.536238e+3, 1.1663765e+2, -1711603.9, -1881592.0, 2012.0508, 0.00048527578, 0.0058151293, -1711580.1, 85371.57 
1.5361844e+3, 1.2662658e+2, -1630805.4, -1799220.5, 2299.5732, 0.00087292725, 0.0057036662, -1630774.0, 68286.125 
1.5361308e+3, 1.3661519e+2, -1545457.8, -1707418.3, 2380.452, 0.0016149464, 0.00472337, -1545422.8, 55749.02 
1.5360771e+3, 1.4660345e+2, -1464347.1, -1625543.4, 2721.922, 0.0010249302, 0.0058562346, -1464301.1, 38985.65 
1.5360236e+3, 1.5659137e+2, -1377451.0, -1532751.6, 2399.319, -0.00028169408, 0.0066552456, -1377413.9, 27991.307 
1.5359701e+3, 1.66579e+2, -1295928.1, -1449603.5, 2245.9717, -0.00020273202, 0.0067159305, -1295895.3, 11631.097 
1.5359165e+3, 1.765663e+2, -1210482.3, -1357658.1, 2376.2314, 0.0008695176, 0.0045073912, -1210443.9, -793.0852 
1.535863e+3, 1.8655328e+2, -1129625.9, -1275988.1, 2548.5793, 0.0004327357, 0.0052457666, -1129581.5, -17803.018 
1.5358093e+3, 1.9653991e+2, -1043217.94, -1183487.0, 2505.5894, -0.00084222126, 0.0058861338, -1043173.25, -29263.623 
1.5357558e+3, 2.0652619e+2, -961754.44, -1100835.3, 2322.232, -0.00083531806, 0.006206308, -961715.6, -45671.727 
1.5357022e+3, 2.1651213e+2, -875503.25, -1008597.44, 2203.502, -0.00034487707, 0.0047964347, -875466.8, -57285.055 
1.5356487e+3, 2.2649772e+2, -794639.56, -926753.7, 1874.5123, -0.00007560577, 0.005330957, -794613.0, -74290.11 
1.535595e+3, 2.3648296e+2, -708729.1, -834328.06, 1601.8789, 0.00020641499, 0.0052919025, -708708.75, -86241.17 
1.5355414e+3, 2.4646795e+2, -627239.44, -750740.06, 1254.0084, -0.0006146804, 0.0060150004, -627226.7, -102611.98 
1.5354876e+3, 2.5645265e+2, -541686.9, -658544.2, 1222.4486, -0.0023005197, 0.0054344772, -541674.1, -114909.35 
1.535434e+3, 2.66437e+2, -461150.44, -576557.8, 885.8369, -0.0019854868, 0.0059049106, -461143.63, -132225.56 
1.5353802e+3, 2.76421e+2, -375532.38, -484006.72, 626.6716, -0.00041443383, 0.005224066, -375528.78, -144454.23 
1.5353264e+3, 2.8640482e+2, -294039.2, -400139.72, 114.22615, -0.00040546927, 0.005512675, -294039.06, -160805.63 
1.5352726e+3, 2.9638833e+2, -208632.7, -307971.53, 61.43052, -0.0012561799, 0.0045373854, -208632.67, -173237.84 
1.5352187e+3, 3.063748e+2, -131820.14, -180134.1, -693.4319, -0.0020820764, 0.005752943, -131810.19, -131810.19 
1.5351649e+3, 3.1636423e+2, -145242.38, -184867.13, -953.4429, -0.002616517, 0.0071124937, -145219.45, -145219.45 
1.5351108e+3, 3.263593e+2, -81520.2, -30596.572, -1947.7155, -0.0014175832, 0.0030358997, -30522.186, -30522.186 
1.5466885e+3, 3.6771226e+1, -2375436.0, -2581932.3, 3577.9158, -0.001848974, 0.00092107843, -2375374.0, 204268.8 
1.5466335e+3, 4.6762416e+1, -2294928.8, -2499184.0, 3143.9268, 0.0032680887, 0.016326679, -2294880.3, 186848.73 
1.5465784e+3, 5.67531e+1, -2209174.3, -2407398.5, 3386.9856, 0.0035001873, 0.0052424, -2209116.5, 174703.86 
1.5465234e+3, 6.6743666e+1, -2128114.0, -2322931.3, 4808.194, 0.0024670567, 0.00419233, -2127995.5, 157917.28 
1.5464686e+3, 7.673405e+1, -2044488.8, -2232051.8, 5117.83, 0.000889571, 0.0067111175, -2044349.1, 143657.89 
1.5464139e+3, 8.672415e+1, -1963582.9, -2148165.8, 5504.3203, 0.0009827921, 0.007776879, -1963418.9, 126685.1 
1.5463592e+3, 9.671397e+1, -1878134.8, -2056312.1, 5621.9507, 0.001626287, 0.006607858, -1877957.5, 114246.21 
1.5463045e+3, 1.0670353e+2, -1796998.9, -1973132.5, 6298.2666, 0.0012589056, 0.0066374564, -1796774.0, 97532.11 
1.54625e+3, 1.1669278e+2, -1711597.0, -1881325.3, 6176.0605, 0.00042363576, 0.0057494477, -1711372.5, 85038.85 
1.5461956e+3, 1.2668173e+2, -1630189.5, -1798665.8, 6442.293, 0.000894472, 0.0058718175, -1629943.5, 68576.28 
1.546141e+3, 1.3667034e+2, -1543708.3, -1706246.5, 6406.5483, 0.0020881072, 0.005113475, -1543456.1, 57175.227 
1.5460867e+3, 1.4665861e+2, -1463140.6, -1624675.5, 7050.201, 0.0013401426, 0.006187323, -1462833.5, 39912.67 
1.5460323e+3, 1.5664655e+2, -1377848.0, -1532664.5, 7286.408, -0.0005288722, 0.006666826, -1377505.9, 27358.666 
1.5459779e+3, 1.6663417e+2, -1296041.5, -1449697.8, 7218.995, -0.0005296797, 0.0067797294, -1295703.1, 11282.643 
1.5459235e+3, 1.7662147e+2, -1208802.6, -1356873.1, 6988.392, 0.0006718183, 0.0049683265, -1208473.5, 636.8349 
1.5458691e+3, 1.8660843e+2, -1127530.4, -1274964.6, 6971.4424, 0.00055651495, 0.005644063, -1127201.4, -15963.372 
1.5458149e+3, 1.9659503e+2, -1041664.1, -1182705.0, 6941.048, -0.00023340908, 0.0059175813, -1041323.4, -27954.037 
1.5457603e+3, 2.0658128e+2, -960535.1, -1100610.4, 6726.3174, -0.0004441696, 0.0061148913, -960212.9, -44708.914 
1.5457061e+3, 2.1656719e+2, -874349.3, -1008274.4, 6524.6494, -0.0003857667, 0.004736157, -874032.2, -56390.023 
1.5456516e+3, 2.2655277e+2, -793315.4, -926056.7, 6274.5093, -0.00036967584, 0.0055404385, -793019.44, -73236.0 
1.5455972e+3, 2.3653801e+2, -707423.5, -833684.6, 6368.267, -0.00035406172, 0.0057295975, -707103.06, -85174.93 
1.5455428e+3, 2.4652295e+2, -625852.7, -750631.9, 5901.665, -0.0007815925, 0.0063676727, -625574.2, -101498.48 
1.5454881e+3, 2.5650758e+2, -539619.6, -658020.5, 5437.4893, -0.0017109903, 0.0057258517, -539370.44, -113144.09 
1.5454334e+3, 2.664919e+2, -458835.84, -575686.44, 4952.5566, -0.0014193514, 0.0061119446, -458626.3, -130246.234 
1.5453789e+3, 2.7647588e+2, -373410.94, -483279.1, 4906.8184, -0.00023722606, 0.0053173895, -373192.22, -142655.33 
1.5453242e+3, 2.8645962e+2, -292480.66, -399805.16, 4295.045, -0.00047638678, 0.0055816444, -292309.03, -159612.84 
1.5452693e+3, 2.964431e+2, -207701.45, -307897.56, 4024.7798, -0.001764959, 0.0045277285, -207540.03, -172681.98 
1.5452147e+3, 3.0642954e+2, -130456.92, -179815.9, 3188.5066, -0.0024484117, 0.0062253354, -130251.805, -130251.805 
1.5451598e+3, 3.1641895e+2, -142923.0, -184096.7, 3144.4397, -0.0017242224, 0.008609754, -142684.23, -142684.23 
1.5451047e+3, 3.2641396e+2, -78448.34, -29655.127, 1439.8423, -0.0012562802, 0.0020252583, -29612.676, -29612.676 
1.5567076e+3, 3.6827058e+1, -2374280.5, -2578463.5, 218.91658, 0.003381793, 0.0060699214, -2374280.3, 204815.44 
1.5566516e+3, 4.6818238e+1, -2295511.0, -2499664.0, 445.26892, -0.0061728614, 0.010510036, -2295510.3, 185671.78 
1.5565957e+3, 5.680894e+1, -2209572.8, -2407553.8, 647.6885, 0.004520236, 0.0033808018, -2209570.8, 173702.36 
1.55654e+3, 6.679959e+1, -2127866.3, -2321849.0, 1612.9567, 0.005165843, 0.0048217084, -2127852.8, 157511.92 
1.5564841e+3, 7.679007e+1, -2044177.8, -2231043.3, 1938.9857, 0.000724464, 0.009022535, -2044157.6, 143300.39 
1.5564285e+3, 8.6780214e+1, -1963623.9, -2147906.8, 2698.2285, 0.00037980734, 0.008675191, -1963584.4, 125970.26 
1.556373e+3, 9.6770036e+1, -1878170.3, -2056142.8, 2787.0667, 0.0017496467, 0.0046003703, -1878126.6, 113527.66 
1.5563174e+3, 1.0675959e+2, -1797236.1, -1973351.4, 3454.8135, 0.0016974813, 0.0049217883, -1797168.4, 96588.3 
1.556262e+3, 1.1674885e+2, -1711767.0, -1881492.6, 3392.1428, 0.0008980373, 0.005937943, -1711699.3, 84162.625 
1.5562066e+3, 1.267378e+2, -1630380.1, -1798782.5, 3903.03, 0.00087121385, 0.007027416, -1630289.6, 67680.555 
1.5561514e+3, 1.3672641e+2, -1543863.5, -1706204.8, 3795.4766, 0.0014836122, 0.006696442, -1543774.8, 56307.02 
1.5560962e+3, 1.4671473e+2, -1462705.9, -1623516.9, 4108.7925, 0.001024888, 0.0067638336, -1462601.0, 39595.207 
1.556041e+3, 1.5670273e+2, -1377320.1, -1531715.9, 4353.499, 0.00003062744, 0.005251962, -1377197.5, 27116.41 
1.5559857e+3, 1.6669035e+2, -1296459.8, -1450601.8, 4692.699, -0.00020893714, 0.0061121015, -1296317.0, 10118.092 
1.5559305e+3, 1.766776e+2, -1209316.8, -1357711.4, 4446.9565, -0.0002468811, 0.006651019, -1209183.6, -623.4979 
1.5558755e+3, 1.8666454e+2, -1127708.5, -1275141.4, 4137.1426, 0.00013380681, 0.0068547344, -1127592.5, -16904.326 
1.5558203e+3, 1.966511e+2, -1041752.1, -1182892.9, 4120.201, 0.0007919299, 0.005287886, -1041631.94, -28812.248 
1.5557651e+3, 2.0663734e+2, -960882.56, -1101312.0, 3929.2178, 0.0003374112, 0.0057828645, -960772.75, -45818.14 
1.5557098e+3, 2.1662322e+2, -874592.94, -1008781.06, 3727.1716, -0.000640672, 0.0056263045, -874489.5, -57396.324 
1.5556547e+3, 2.266088e+2, -793011.2, -925425.06, 3345.54, -0.0013709934, 0.0066271583, -792926.7, -73692.375 
1.5555994e+3, 2.3659407e+2, -707163.6, -833311.8, 3409.617, -0.002079104, 0.00617545, -707071.5, -85692.81 
1.555544e+3, 2.4657895e+2, -626504.06, -752139.7, 2975.2493, -0.001074764, 0.0063648736, -626433.7, -102906.84 
1.5554887e+3, 2.5656348e+2, -540177.0, -659302.44, 2500.2485, 0.0008462299, 0.005602889, -540124.5, -114445.99 
1.5554333e+3, 2.6654777e+2, -458739.56, -575682.9, 1762.6946, 0.00023536995, 0.0060198945, -458713.0, -130880.34 
1.5553777e+3, 2.7653173e+2, -373369.6, -483391.56, 1686.1216, -0.0017292248, 0.0053787283, -373343.75, -143354.28 
1.555322e+3, 2.8651544e+2, -292859.7, -400768.78, 931.61957, -0.0020060698, 0.0061371936, -292851.66, -160702.44 
1.5552664e+3, 2.9649886e+2, -208012.25, -308683.53, 685.3438, -0.0018408665, 0.005611851, -208007.6, -173695.89 
1.5552105e+3, 3.0648524e+2, -130372.99, -179792.58, -174.45456, -0.0017872825, 0.0060790535, -130372.375, -130372.375 
1.5551548e+3, 3.1647465e+2, -143166.42, -184632.14, -247.06602, -0.00030209692, 0.006582735, -143164.95, -143164.95 
1.5550987e+3, 3.2646957e+2, -79973.93, -32690.58, -2048.6475, -0.0020363561, 0.005351075, -32601.984, -32601.984 
1.5667267e+3, 3.6884022e+1, -2373932.3, -2578399.3, 3077.8254, 0.0027373303, 0.009853397, -2373886.0, 204651.38 
1.5666696e+3, 4.6875107e+1, -2295931.3, -2499082.8, 4174.343, -0.0038629577, 0.0020803993, -2295845.5, 184779.02 
1.5666129e+3, 5.6865984e+1, -2210268.3, -2407110.5, 4645.0503, 0.0037038764, 0.005905956, -2210158.8, 172555.38 
1.5665561e+3, 6.685668e+1, -2128384.5, -2321465.3, 5331.0063, 0.0041906293, 0.0076336996, -2128237.5, 156567.69 
1.5664995e+3, 7.684716e+1, -2044181.5, -2230394.5, 5534.0693, 0.0009623202, 0.0069074067, -2044017.3, 142881.28 
1.5664428e+3, 8.6837333e+1, -1963469.8, -2147455.3, 6580.147, 0.0007998273, 0.0066774846, -1963234.8, 125760.04 
1.5663865e+3, 9.6827203e+1, -1877955.0, -2055558.8, 6689.1685, 0.0019921688, 0.005202573, -1877703.4, 113390.65 
1.5663302e+3, 1.0681679e+2, -1796862.1, -1972690.9, 7554.5127, 0.0019776318, 0.005862498, -1796538.1, 96657.93 
1.5662739e+3, 1.1680607e+2, -1711229.1, -1880708.9, 7751.773, 0.0012811255, 0.0061291438, -1710875.3, 84425.86 
1.5662178e+3, 1.2679504e+2, -1630213.0, -1798328.8, 8592.338, 0.0007293653, 0.0069694235, -1629775.0, 67634.22 
1.5661618e+3, 1.3678367e+2, -1544369.3, -1706088.9, 8651.878, 0.00046741473, 0.006654686, -1543907.8, 55612.88 
1.5661056e+3, 1.46772e+2, -1462362.3, -1623384.8, 8786.608, 0.00058523857, 0.006717718, -1461884.1, 39750.85 
1.5660498e+3, 1.5675998e+2, -1375111.5, -1530563.3, 8495.073, 0.00098362, 0.0051500783, -1374648.8, 29104.148 
1.5659937e+3, 1.667476e+2, -1294523.6, -1449524.1, 8848.73, 0.0006491949, 0.006030539, -1294020.1, 11854.037 
1.5659377e+3, 1.7673485e+2, -1208797.1, -1357347.4, 9003.371, -0.00022378795, 0.0066301664, -1208253.5, -254.31494 
1.5658817e+3, 1.8672177e+2, -1127220.1, -1275050.1, 8842.233, -0.00020532854, 0.0069076787, -1126693.0, -16565.725 
1.5658258e+3, 1.967083e+2, -1040226.8, -1182232.6, 8722.182, 0.0003110819, 0.005504215, -1039693.06, -27433.941 
1.5657698e+3, 2.0669453e+2, -959083.4, -1100448.5, 8506.797, 0.00009830714, 0.0061319903, -958573.3, -44179.15 
1.5657137e+3, 2.1668038e+2, -873095.56, -1008103.1, 8551.67, -0.00045332633, 0.0060348455, -872556.0, -56023.117 
1.5656577e+3, 2.2666594e+2, -791359.6, -925159.8, 7939.142, -0.000977467, 0.0068004937, -790890.2, -72215.71 
1.5656015e+3, 2.3665114e+2, -704852.8, -832616.56, 7444.1685, -0.0016153927, 0.006033203, -704420.56, -83601.164 
1.5655454e+3, 2.4663599e+2, -624226.6, -751249.56, 7018.109, -0.00095261214, 0.006240957, -623840.0, -100872.164 
1.5654893e+3, 2.566205e+2, -538571.56, -658772.9, 7062.4395, 0.0006227468, 0.0056150886, -538158.0, -113038.1 
1.5654328e+3, 2.666047e+2, -457159.44, -575371.7, 6258.211, -0.000039132665, 0.0062239305, -456829.06, -129554.63 
1.5653765e+3, 2.7658865e+2, -371229.6, -482781.7, 5904.7656, -0.0020010355, 0.0058021424, -370917.9, -141486.17 
1.5653199e+3, 2.8657234e+2, -290503.34, -400073.47, 4980.488, -0.0018414, 0.0066756695, -290277.44, -158685.5 
1.5652634e+3, 2.965557e+2, -205533.25, -307910.75, 4892.083, -0.00123694, 0.0062489836, -205300.02, -171545.1 
1.5652066e+3, 3.0654198e+2, -127986.26, -179062.42, 3737.7498, -0.0014233468, 0.0057902914, -127714.18, -127714.18 
1.5651499e+3, 3.165313e+2, -140730.39, -183869.72, 3243.781, 0.00012233816, 0.0047676885, -140487.84, -140487.84 
1.565093e+3, 3.2652625e+2, -77282.766, -31731.14, 1992.5033, -0.0028491267, 0.0076059964, -31644.152, -31644.152 
1.5767457e+3, 3.6941868e+1, -2375588.0, -2580549.8, -884.8779, -0.00046699436, 0.012431749, -2375584.3, 202386.17 
1.5766878e+3, 4.6932837e+1, -2295277.0, -2497673.5, 1405.3827, 0.004143854, -0.0074625746, -2295267.3, 184791.47 
1.5766302e+3, 5.6923956e+1, -2210049.3, -2406028.5, 1815.1814, 0.0016677364, 0.010876335, -2210032.5, 172113.45 
1.5765725e+3, 6.69147e+1, -2128668.3, -2321303.3, 2279.529, 0.0011617282, 0.011584231, -2128641.3, 155595.42 
1.5765148e+3, 7.690512e+1, -2044288.0, -2230127.5, 2526.0364, 0.0012803355, 0.002293476, -2044253.8, 142076.72 
1.5764575e+3, 8.6895335e+1, -1963523.3, -2147144.0, 3845.6553, 0.0016621383, 0.0031332462, -1963442.8, 124983.55 
1.5764001e+3, 9.6885294e+1, -1877936.1, -2055163.5, 3960.9382, 0.0021528886, 0.0074182283, -1877847.6, 112677.16 
1.576343e+3, 1.06874935e+2, -1796718.1, -1971930.1, 4809.753, 0.002019831, 0.008405647, -1796586.1, 96040.14 
1.576286e+3, 1.1686425e+2, -1711010.0, -1879942.3, 4961.386, 0.0014478248, 0.0063226344, -1710864.5, 83866.516 
1.5762289e+3, 1.2685326e+2, -1630015.9, -1797697.0, 5792.817, 0.0004137555, 0.0062056733, -1629816.0, 67022.586 
1.576172e+3, 1.3684195e+2, -1544174.6, -1705724.5, 5879.836, -0.0008517361, 0.005537676, -1543960.9, 54988.656 
1.576115e+3, 1.4683025e+2, -1463022.3, -1624507.5, 6341.8535, 0.000021974545, 0.00628893, -1462773.5, 38290.715 
1.5760584e+3, 1.5681817e+2, -1375764.0, -1531469.5, 6002.395, 0.0020821379, 0.00605392, -1375533.0, 27649.744 
1.5760016e+3, 1.6680579e+2, -1294401.4, -1448941.8, 5981.2227, 0.001731657, 0.0064467066, -1294170.3, 11133.733 
1.5759449e+3, 1.7679305e+2, -1208543.5, -1356807.5, 6162.037, 0.00035341442, 0.005434052, -1208287.9, -859.1406 
1.5758881e+3, 1.8677996e+2, -1127531.4, -1275598.1, 6268.721, -0.00054596603, 0.0062649255, -1127266.4, -17709.525 
1.5758313e+3, 1.967665e+2, -1040542.9, -1182709.0, 6120.568, -0.0013985228, 0.0064980434, -1040279.8, -28590.916 
1.5757746e+3, 2.0675272e+2, -959033.25, -1100241.5, 5610.9526, -0.0009629803, 0.0071263323, -958810.6, -44986.63 
1.5757176e+3, 2.1673857e+2, -873067.44, -1008149.7, 5671.9927, 0.00003239915, 0.006119246, -872829.7, -56867.06 
1.5756609e+3, 2.2672404e+2, -792166.6, -926877.8, 5168.6963, 0.00043234773, 0.0062875794, -791968.6, -73863.61 
1.575604e+3, 2.3670913e+2, -705477.2, -833987.1, 4678.931, 0.0004068701, 0.0054552886, -705307.06, -85055.98 
1.5755469e+3, 2.4669397e+2, -623875.06, -750644.2, 3952.265, -0.0006795774, 0.0060633663, -623752.0, -101352.3 
1.57549e+3, 2.566785e+2, -538302.94, -658425.7, 3984.8184, -0.0020795313, 0.0056875716, -538170.94, -113619.58 
1.5754326e+3, 2.666627e+2, -457598.84, -576520.8, 3198.5679, -0.0020647196, 0.006599255, -457512.88, -130806.64 
1.5753753e+3, 2.7664655e+2, -371594.97, -483733.9, 2819.4832, -0.0013164167, 0.006415659, -371524.13, -142659.78 
1.575318e+3, 2.8663015e+2, -290595.16, -400487.53, 1668.9525, -0.00028734357, 0.00706107, -290569.8, -159544.77 
1.5752605e+3, 2.9661348e+2, -205731.83, -308502.13, 1606.926, -0.00016116412, 0.006369039, -205706.7, -172518.34 
1.575203e+3, 3.0659974e+2, -128656.555, -180579.8, 336.39987, -0.001523952, 0.0052745924, -128654.375, -128654.375 
1.5751451e+3, 3.1658894e+2, -141191.17, -184809.2, -124.00578, -0.00090870034, 0.0027011973, -141190.81, -141190.81 
1.5750872e+3, 3.2658392e+2, -76450.67, -29853.082, -1513.6182, -0.0035517588, 0.008477508, -29803.967, -29803.967 
1.5867648e+3, 3.700074e+1, -2376672.3, -2582360.5, 2723.459, -0.000043488268, 0.010793895, -2376636.3, 200757.16 
1.5867059e+3, 4.6991765e+1, -2293682.5, -2495405.0, 4728.9097, 0.0053511043, -0.0062104645, -2293571.8, 185909.53 
1.5866472e+3, 5.698297e+1, -2210709.5, -2405042.0, 5249.3687, 0.0011592144, 0.009439022, -2210567.8, 170999.77 
1.5865886e+3, 6.6973776e+1, -2130054.3, -2321460.5, 6029.5957, 0.00076466595, 0.010615766, -2129864.5, 153793.22 
1.5865302e+3, 7.696425e+1, -2044904.1, -2229752.3, 6367.324, 0.0017782362, 0.0033103481, -2044685.0, 141066.0 
1.586472e+3, 8.695452e+1, -1963809.9, -2146312.8, 8018.3335, 0.0018656531, 0.0039881277, -1963458.3, 124388.05 
1.5864137e+3, 9.694454e+1, -1878498.5, -2054499.8, 8392.336, 0.001518929, 0.0071560475, -1878099.3, 111844.89 
1.5863557e+3, 1.0693423e+2, -1797267.3, -1971821.0, 9356.06, 0.0014244069, 0.007966318, -1796767.3, 95278.0 
1.5862979e+3, 1.1692357e+2, -1711109.3, -1879568.6, 9357.022, 0.0014065418, 0.0061434656, -1710591.1, 83558.57 
1.58624e+3, 1.269126e+2, -1629551.1, -1797267.8, 10133.927, 0.0009801157, 0.006154909, -1628941.0, 67316.164 
1.5861824e+3, 1.3690127e+2, -1542807.8, -1704772.6, 10017.843, 0.00020236874, 0.00548711, -1542190.4, 56177.723 
1.5861246e+3, 1.4688958e+2, -1462166.5, -1623771.4, 10784.464, 0.00036612854, 0.0063533024, -1461449.9, 39032.727 
1.5860671e+3, 1.5687752e+2, -1376167.9, -1531339.6, 10983.691, 0.0011844932, 0.0063839895, -1375394.3, 27206.637 
1.5860096e+3, 1.6686514e+2, -1293974.1, -1448773.6, 11044.872, 0.0008940724, 0.006794153, -1293190.0, 11532.217 
1.585952e+3, 1.768524e+2, -1206255.4, -1355697.9, 10903.412, 0.00037855518, 0.005721082, -1205464.1, 1383.0262 
1.5858944e+3, 1.868393e+2, -1125432.5, -1274740.5, 10869.086, -0.00007343771, 0.006412694, -1124645.4, -15669.901 
1.5858369e+3, 1.968258e+2, -1039557.4, -1182323.9, 10863.294, -0.00078868243, 0.006383921, -1038735.5, -27627.725 
1.5857793e+3, 2.06812e+2, -957683.94, -1099873.3, 10262.74, -0.00072098436, 0.007042596, -956947.0, -43703.902 
1.5857217e+3, 2.167978e+2, -870582.94, -1007201.2, 10048.557, -0.00028198556, 0.006255389, -869847.75, -54465.668 
1.585664e+3, 2.2678325e+2, -789790.2, -926101.1, 9671.346, 0.0001687846, 0.006413895, -789107.44, -71582.6 
1.5856063e+3, 2.3676829e+2, -703716.9, -833471.4, 9681.807, 0.00054055854, 0.0056057903, -702998.44, -83327.06 
1.5855485e+3, 2.467531e+2, -621996.56, -750117.3, 8712.814, -0.0005137635, 0.006355025, -621406.8, -99586.46 
1.5854906e+3, 2.567376e+2, -535806.75, -657614.8, 8269.62, -0.0021831235, 0.0060331174, -535247.9, -111275.47 
1.5854324e+3, 2.667217e+2, -455135.75, -575857.9, 7365.5317, -0.002042247, 0.0068150605, -454688.03, -128560.164 
1.5853743e+3, 2.767055e+2, -369322.03, -483144.25, 7142.924, -0.00087623677, 0.0064846235, -368875.53, -140588.98 
1.5853162e+3, 2.8668904e+2, -287927.3, -399600.47, 5862.4824, 0.0000009439248, 0.006904978, -287620.38, -157172.63 
1.5852576e+3, 2.9667237e+2, -202504.6, -307452.7, 5680.0806, -0.0003101663, 0.0059417803, -202198.06, -169586.48 
1.5851991e+3, 3.066585e+2, -125899.016, -180336.23, 4162.111, -0.0019195207, 0.006220008, -125582.63, -125582.63 
1.5851405e+3, 3.1664762e+2, -138673.05, -184348.38, 3707.175, -0.00088766264, 0.0055440944, -138374.11, -138374.11 
1.5850815e+3, 3.2664257e+2, -73101.82, -27668.654, 1736.8535, -0.0029831587, 0.006698388, -27602.354, -27602.354 
1.5967838e+3, 3.7060454e+1, -2377726.8, -2583606.5, 726.32214, 0.00189943, 0.007618518, -2377724.0, 199084.0 
1.596724e+3, 4.7051623e+1, -2293456.0, -2493893.8, 1398.3964, 0.0026416618, 0.0006565577, -2293446.3, 185448.39 
1.5966643e+3, 5.7042843e+1, -2210407.0, -2403659.5, 1972.2413, 0.0013821648, 0.0044497773, -2210386.8, 170593.89 
1.5966049e+3, 6.703374e+1, -2130173.0, -2321054.0, 3230.0986, 0.001715903, 0.0071066557, -2130118.5, 152951.58 
1.5965454e+3, 7.702432e+1, -2044807.9, -2229093.5, 3595.4749, 0.0022200404, 0.007556369, -2044737.8, 140424.56 
1.5964863e+3, 8.701468e+1, -1963399.5, -2144912.0, 5232.281, 0.001550662, 0.007306326, -1963248.8, 124008.09 
1.5964273e+3, 9.700475e+1, -1878132.3, -2053360.1, 5552.6206, 0.00022847956, 0.005447812, -1877956.5, 111397.586 
1.5963684e+3, 1.06994465e+2, -1797406.6, -1971784.4, 6667.4907, 0.000364516, 0.0058540944, -1797152.0, 94302.8 
1.5963097e+3, 1.1698384e+2, -1711173.3, -1879555.3, 6692.699, 0.0011540764, 0.005782217, -1710907.6, 82651.38 
1.5962511e+3, 1.2697287e+2, -1629871.9, -1797593.0, 7638.811, 0.0019453972, 0.006633099, -1629524.6, 66141.9 
1.5961927e+3, 1.3696153e+2, -1543038.3, -1704842.5, 7482.455, 0.0026233918, 0.0062519126, -1542693.0, 55084.637 
1.5961343e+3, 1.469499e+2, -1461775.0, -1622690.1, 8005.2017, 0.001146729, 0.0068348213, -1461377.8, 38513.883 
1.5960757e+3, 1.569379e+2, -1375706.0, -1530475.8, 8242.762, -0.0011647571, 0.00634598, -1375268.3, 26741.033 
1.5960175e+3, 1.6692552e+2, -1294380.0, -1449497.3, 8630.787, -0.0012668438, 0.0071854275, -1293901.3, 10229.23 
1.5959592e+3, 1.7691275e+2, -1206778.9, -1356404.3, 8398.556, -0.00007517393, 0.007135832, -1206309.0, -53.190113 
1.595901e+3, 1.8689962e+2, -1125661.5, -1274894.0, 7968.9375, 0.0008665512, 0.0071899556, -1125237.1, -16852.79 
1.5958425e+3, 1.9688609e+2, -1039635.5, -1182541.3, 8043.1743, 0.0013449579, 0.0054964833, -1039184.25, -28667.346 
1.5957841e+3, 2.0687224e+2, -958155.56, -1100864.6, 7672.0425, 0.00034323867, 0.006253772, -957744.3, -45091.637 
1.5957259e+3, 2.16858e+2, -870962.7, -1007922.8, 7422.18, -0.0013258752, 0.0065350635, -870561.6, -55769.383 
1.5956673e+3, 2.2684345e+2, -789653.5, -925793.9, 6722.2437, -0.0015021135, 0.0071636466, -789322.4, -72387.43 
1.5956087e+3, 2.368285e+2, -703621.8, -833406.0, 6724.87, -0.0009822766, 0.0063602477, -703274.25, -84192.99 
1.5955502e+3, 2.4681325e+2, -622606.44, -751598.56, 5782.9126, -0.00049137685, 0.00699109, -622347.7, -101116.8 
1.5954913e+3, 2.567976e+2, -536291.7, -658868.75, 5342.0757, -0.0002675261, 0.0065285466, -536059.3, -112675.37 
1.5954325e+3, 2.6678172e+2, -455199.28, -576296.7, 4271.5166, -0.0005076834, 0.0068157264, -455048.78, -129508.78 
1.5953736e+3, 2.7676547e+2, -369408.38, -483611.88, 4054.5483, -0.00079811626, 0.005955432, -369264.6, -141565.52 
1.5953143e+3, 2.8674898e+2, -288177.38, -400407.16, 2736.3423, -0.0009367373, 0.006152613, -288110.7, -158249.86 
1.595255e+3, 2.967322e+2, -202876.16, -308388.53, 2487.6636, -0.0019482608, 0.0049174274, -202817.55, -170792.22 
1.5951955e+3, 3.0671826e+2, -126528.64, -181860.44, 707.43726, -0.0028052102, 0.0082502235, -126519.59, -126519.59 
1.595136e+3, 3.1670734e+2, -139163.97, -185592.5, 264.08105, 0.0000058564306, 0.012472074, -139162.45, -139162.45 
1.595076e+3, 3.267021e+2, -73920.8, -28936.766, -1673.469, -0.0020466174, 0.002484886, -28874.596, -28874.596 
1.6068028e+3, 3.7121326e+1, -2377537.8, -2583160.8, 3916.608, 0.0046095205, 0.0064621423, -2377463.0, 198748.48 
1.606742e+3, 4.7112617e+1, -2295496.8, -2493665.8, 4994.9375, 0.00044576317, 0.0044553373, -2295371.0, 182926.03 
1.6066813e+3, 5.7103884e+1, -2211779.5, -2403106.3, 5509.5503, 0.0011768006, 0.004323814, -2211621.0, 168761.56 
1.6066208e+3, 6.709486e+1, -2131196.5, -2320384.3, 7351.8643, 0.0020972393, 0.006171398, -2130911.3, 151559.63 
1.6065605e+3, 7.708555e+1, -2045695.9, -2228476.0, 7977.7783, 0.0021953082, 0.0075244987, -2045348.3, 139213.98 
1.6065006e+3, 8.707595e+1, -1964525.8, -2145096.8, 9501.203, 0.0015116497, 0.0073815743, -1964027.3, 122629.125 
1.6064408e+3, 9.706604e+1, -1879008.6, -2053198.8, 9486.14, 0.0005322612, 0.0051266593, -1878493.5, 110259.875 
1.6063811e+3, 1.07055806e+2, -1797717.5, -1971202.4, 10900.221, 0.00067679735, 0.00564183, -1797035.3, 93818.414 
1.6063216e+3, 1.1704523e+2, -1710991.3, -1878735.3, 11159.677, 0.0011541158, 0.005965303, -1710252.1, 82705.234 
1.6062622e+3, 1.270343e+2, -1629899.3, -1797148.9, 12368.186, 0.0015274064, 0.0069040316, -1628989.5, 66074.95 
1.606203e+3, 1.37023e+2, -1543516.9, -1704618.5, 12471.542, 0.0019961023, 0.006554822, -1542557.1, 54618.24 
1.6061439e+3, 1.4701137e+2, -1461384.8, -1622383.4, 12949.095, 0.0010020531, 0.007033021, -1460349.9, 38939.418 
1.6060846e+3, 1.5699936e+2, -1373601.0, -1529275.3, 12757.996, -0.0006098729, 0.006422112, -1372562.4, 28844.52 
1.6060255e+3, 1.6698699e+2, -1292934.5, -1448870.3, 13078.241, -0.00072773214, 0.007032884, -1291845.3, 11683.037 
1.6059664e+3, 1.7697416e+2, -1206709.5, -1356385.8, 13062.009, -0.0000859959, 0.0066372924, -1205578.1, 75.63112 
1.6059074e+3, 1.8696102e+2, -1124591.6, -1274451.3, 12762.474, 0.0005179204, 0.007145205, -1123512.5, -15729.987 
1.6058482e+3, 1.9694752e+2, -1036762.94, -1181240.4, 12802.365, 0.0010414056, 0.006342851, -1035637.3, -25722.166 
1.6057892e+3, 2.069336e+2, -955693.2, -1100054.6, 12384.676, 0.000369339, 0.0066595026, -954638.44, -42587.12 
1.6057299e+3, 2.1691932e+2, -869526.4, -1007525.6, 12288.311, -0.0009998461, 0.0060769706, -868440.7, -54249.28 
1.6056706e+3, 2.269047e+2, -787888.06, -925216.6, 11335.173, -0.001313572, 0.0070610875, -786958.75, -70624.266 
1.6056113e+3, 2.3688975e+2, -701029.9, -832444.1, 10983.451, -0.001053791, 0.006982136, -700118.2, -81637.12 
1.6055518e+3, 2.4687444e+2, -619853.0, -750922.75, 10032.399, -0.0005670269, 0.007488419, -619089.5, -98458.26 
1.6054924e+3, 2.5685874e+2, -533443.56, -658063.44, 9827.113, -0.0001642991, 0.006615586, -532673.44, -109888.4 
1.6054326e+3, 2.6684278e+2, -452183.06, -575362.4, 8614.844, -0.00037736987, 0.0068441317, -451583.47, -126641.86 
1.6053727e+3, 2.7682647e+2, -366211.06, -482616.16, 8262.126, -0.0007833444, 0.006117451, -365627.56, -138526.3 
1.6053127e+3, 2.868099e+2, -285273.47, -399757.66, 6707.3066, -0.0010234325, 0.006800003, -284881.84, -155618.2 
1.6052525e+3, 2.9679307e+2, -200248.48, -307805.84, 6293.7773, -0.0021079073, 0.0060584974, -199881.45, -168452.64 
1.605192e+3, 3.0677906e+2, -123365.34, -180874.9, 4579.972, -0.0028515074, 0.008273535, -123002.88, -123002.88 
1.6051315e+3, 3.1676808e+2, -135090.4, -184269.47, 4407.373, 0.000033746477, 0.010957646, -134698.55, -134698.55 
1.6050707e+3, 3.2676277e+2, -69696.5, -28194.67, 1976.5173, -0.0013141693, 0.0044479724, -28100.752, -28100.752 
1.6168216e+3, 3.7183112e+1, -2377986.0, -2582241.8, -114.51049, 0.007256349, 0.0061410526, -2377986.0, 197620.13 
1.6167597e+3, 4.7174522e+1, -2295483.5, -2492788.5, 1947.7653, -0.0017797182, 0.0072372113, -2295464.3, 182226.13 
1.616698e+3, 5.716587e+1, -2211525.0, -2401994.5, 2478.1238, 0.0005481846, 0.006856524, -2211492.8, 168282.36 
1.6166368e+3, 6.7156935e+1, -2130716.8, -2318740.8, 4610.531, 0.001978809, 0.006562005, -2130603.8, 151258.86 
1.6165757e+3, 7.714772e+1, -2045383.4, -2227205.5, 5147.677, 0.0017058244, 0.005173049, -2045237.8, 138715.22 
1.6165149e+3, 8.713816e+1, -1964911.1, -2145495.8, 6745.823, 0.0015480064, 0.0057736444, -1964659.5, 121387.16 
1.6164543e+3, 9.712826e+1, -1879060.6, -2053203.4, 6834.8633, 0.0016018836, 0.0056739817, -1878792.9, 109350.914 
1.6163938e+3, 1.07118085e+2, -1797376.4, -1970053.8, 8466.116, 0.0016133095, 0.0065653543, -1796962.3, 93281.164 
1.6163334e+3, 1.1710759e+2, -1710739.9, -1877678.5, 8640.911, 0.0011478123, 0.0064692236, -1710293.8, 82052.53 
1.6162734e+3, 1.2709673e+2, -1629720.8, -1796432.9, 9680.182, 0.00012504566, 0.0070631574, -1629160.5, 65292.234 
1.6162133e+3, 1.3708547e+2, -1543266.8, -1704075.9, 9810.359, -0.00061152043, 0.0065350905, -1542670.5, 53892.59 
1.6161533e+3, 1.4707384e+2, -1461844.4, -1623142.6, 10617.887, 0.00024233936, 0.007093178, -1461148.4, 37528.746 
1.6160935e+3, 1.5706179e+2, -1374088.9, -1529930.0, 10336.531, 0.0017421163, 0.0066664345, -1373406.3, 27388.895 
1.6160336e+3, 1.6704938e+2, -1293106.9, -1448857.9, 10288.944, 0.00145801, 0.006610004, -1292430.1, 10486.671 
1.6159737e+3, 1.7703655e+2, -1206666.8, -1356311.6, 10377.045, 0.00004165726, 0.0048840228, -1205950.6, -908.27875 
1.615914e+3, 1.8702343e+2, -1124734.5, -1274691.0, 10383.178, -0.00083145435, 0.006627754, -1124019.0, -16847.924 
1.615854e+3, 1.9700992e+2, -1037026.2, -1181573.0, 10317.99, -0.0011508889, 0.00852713, -1036293.4, -26989.814 
1.6157942e+3, 2.06996e+2, -956019.8, -1100557.6, 9467.422, -0.00045386402, 0.008030014, -955402.3, -43962.25 
1.6157341e+3, 2.1698163e+2, -869747.1, -1008099.6, 9442.398, 0.00022705871, 0.0050530112, -869105.7, -55524.99 
1.6156742e+3, 2.2696696e+2, -788366.1, -926345.75, 8602.595, 0.00019213074, 0.006351442, -787831.8, -72107.46 
1.615614e+3, 2.3695195e+2, -701426.8, -833419.6, 8248.472, -0.00008295747, 0.0076091955, -700913.4, -83041.72 
1.6155536e+3, 2.4693657e+2, -619993.44, -751349.75, 7135.0537, -0.00083424075, 0.007954882, -619607.0, -99584.73 
1.6154933e+3, 2.5692084e+2, -533575.3, -658534.1, 6913.257, -0.0017234723, 0.00632935, -533194.0, -111017.62 
1.6154328e+3, 2.669048e+2, -452539.94, -576349.44, 5580.044, -0.0015738086, 0.006836076, -452288.97, -127955.41 
1.615372e+3, 2.7688846e+2, -366584.16, -483672.66, 5226.933, -0.0009166386, 0.0067905015, -366351.28, -139857.42 
1.6153112e+3, 2.868718e+2, -285745.06, -400994.6, 3507.6194, -0.00048518894, 0.008476575, -285638.4, -156981.42 
1.61525e+3, 2.9685485e+2, -200628.28, -308828.84, 3103.471, -0.0011809437, 0.008783792, -200539.34, -169716.38 
1.6151887e+3, 3.0684078e+2, -123347.19, -181084.48, 1426.8425, -0.0022281636, 0.0063124057, -123311.95, -123311.95 
1.6151272e+3, 3.1682968e+2, -135431.9, -185090.78, 1267.5958, -0.00081162626, 0.0019036417, -135399.58, -135399.58 
1.6150655e+3, 3.2682443e+2, -70942.1, -30564.787, -1435.4993, -0.0018015469, 0.011622027, -30513.816, -30513.816 
1.6268404e+3, 3.7246096e+1, -2379595.0, -2580693.3, 3180.1514, 0.0049595702, 0.0048061376, -2379544.5, 195444.34 
1.6267775e+3, 4.7237659e+1, -2297585.0, -2493255.8, 6005.4917, 0.001983711, 0.011138113, -2297401.0, 179670.73 
1.6267149e+3, 5.7229006e+1, -2213485.3, -2402189.0, 6434.0723, 0.000113111164, 0.006282531, -2213266.3, 165890.22 
1.6266528e+3, 6.7220134e+1, -2132407.0, -2318744.3, 8683.322, 0.0009879159, 0.0053908178, -2132003.3, 149240.08 
1.6265906e+3, 7.721099e+1, -2046937.5, -2227018.8, 8986.112, 0.0016285954, 0.005296925, -2046490.3, 136842.72 
1.6265291e+3, 8.720152e+1, -1965917.3, -2144877.0, 11036.165, 0.0017261738, 0.0063811336, -1965239.3, 120186.58 
1.6264677e+3, 9.71917e+1, -1879463.5, -2052322.1, 11637.633, 0.0018761441, 0.0063375696, -1878683.6, 108838.516 
1.6264063e+3, 1.07181564e+2, -1798138.1, -1970046.3, 13333.456, 0.0016354715, 0.006993998, -1797110.0, 92511.3 
1.6263454e+3, 1.1717109e+2, -1711904.3, -1877779.4, 13268.874, 0.0009351202, 0.0065492787, -1710849.5, 80874.516 
1.6262843e+3, 1.2716025e+2, -1630159.3, -1796241.0, 14333.056, 0.00017873218, 0.006946605, -1628931.4, 64898.953 
1.6262235e+3, 1.3714902e+2, -1542243.9, -1703144.8, 14301.746, -0.00033814946, 0.0064265416, -1540982.5, 54957.785 
1.6261628e+3, 1.4713739e+2, -1461070.9, -1622694.6, 15268.625, 0.00025304948, 0.0069695436, -1459641.1, 38413.215 
1.6261023e+3, 1.5712534e+2, -1374248.4, -1529849.8, 15266.598, 0.0013653246, 0.0064233453, -1372764.6, 27407.75 
1.6260417e+3, 1.6711293e+2, -1292134.6, -1448381.1, 15356.201, 0.0012828793, 0.0069745136, -1290639.8, 11654.206 
1.625981e+3, 1.7710012e+2, -1203849.4, -1354915.1, 15421.287, 0.00050826767, 0.0062035467, -1202291.1, 2128.3503 
1.6259205e+3, 1.8708694e+2, -1122540.0, -1274017.5, 15241.701, -0.00046992756, 0.007010525, -1121021.6, -14472.983 
1.6258599e+3, 1.9707337e+2, -1036175.2, -1181434.6, 15045.007, -0.0014261835, 0.007335367, -1034633.3, -25951.627 
1.6257992e+3, 2.070594e+2, -954443.5, -1100066.4, 14142.1455, -0.0006474469, 0.007576163, -953082.8, -42264.277 
1.6257386e+3, 2.1704502e+2, -866543.75, -1006871.4, 14083.444, 0.00061961164, 0.0062743705, -865144.25, -52184.9 
1.6256778e+3, 2.2703032e+2, -785093.9, -925301.94, 13189.401, 0.00037369842, 0.007114041, -783863.94, -68760.336 
1.6256167e+3, 2.3701522e+2, -698696.1, -832597.75, 12977.563, -0.00061311095, 0.0070719677, -697449.94, -80198.4 
1.6255556e+3, 2.4699979e+2, -617313.3, -750550.06, 11709.8125, -0.0009630078, 0.0075304694, -616292.0, -96889.266 
1.6254945e+3, 2.56984e+2, -530697.0, -657654.44, 11285.839, -0.00084050995, 0.0067088036, -529701.56, -108144.14 
1.6254331e+3, 2.6696792e+2, -449563.53, -575569.7, 9759.423, -0.0013022028, 0.0072578406, -448812.13, -125096.945 
1.6253714e+3, 2.769515e+2, -363486.88, -482767.22, 9430.375, -0.001964072, 0.006788889, -362745.9, -136869.73 
1.6253097e+3, 2.869348e+2, -282173.78, -399812.84, 7729.1133, -0.00087604765, 0.008564819, -281668.16, -153628.25 
1.6252477e+3, 2.969178e+2, -196453.83, -307442.56, 7439.7744, 0.0001689489, 0.009221162, -195957.34, -165750.89 
1.6251855e+3, 3.069036e+2, -119692.45, -180331.92, 5217.488, -0.0013116221, 0.0061216927, -119246.81, -119246.81 
1.625123e+3, 3.168924e+2, -132236.98, -184226.92, 4451.428, -0.0018179112, 0.0007641585, -131858.6, -131858.6 
1.6250603e+3, 3.2688716e+2, -66666.766, -28042.77, 2104.4585, -0.0021059387, 0.0123535795, -27928.445, -27928.445 
1.6368589e+3, 3.731002e+1, -2378761.3, -2577153.0, -287.22058, 0.0006048442, 0.003661256, -2378761.0, 195601.66 
1.6367951e+3, 4.7301757e+1, -2297867.8, -2493047.5, 2790.558, 0.008147503, 0.01519825, -2297828.0, 178615.61 
1.6367316e+3, 5.729307e+1, -2213703.5, -2401912.8, 3377.2861, -0.00034173197, 0.0041178158, -2213643.0, 164885.7 
1.6366684e+3, 6.728424e+1, -2132580.8, -2318424.5, 5977.5474, -0.00042538703, 0.0036791016, -2132388.8, 148226.5 
1.6366057e+3, 7.727517e+1, -2046831.9, -2226277.8, 6323.168, 0.0015915614, 0.0068252427, -2046609.4, 136094.66 
1.6365433e+3, 8.7265813e+1, -1965257.1, -2142920.3, 8521.031, 0.001766543, 0.008188052, -1964849.4, 119946.36 
1.636481e+3, 9.7256124e+1, -1878989.3, -2050818.5, 9011.359, 0.0015563939, 0.0070814826, -1878518.0, 108372.7 
1.6364188e+3, 1.0724604e+2, -1798444.5, -1970261.3, 10646.084, 0.0010479066, 0.007238678, -1797787.4, 91202.19 
1.636357e+3, 1.17235556e+2, -1711893.0, -1877744.5, 10677.534, 0.0004278876, 0.00645244, -1711208.5, 79883.805 
1.6362955e+3, 1.2722473e+2, -1630181.0, -1796157.5, 12120.169, 0.0009769965, 0.0067901365, -1629300.6, 63897.84 
1.636234e+3, 1.372135e+2, -1542350.8, -1702988.0, 11998.786, 0.0015984044, 0.006320621, -1541459.5, 53848.91 
1.6361725e+3, 1.4720191e+2, -1461049.8, -1622231.4, 12675.109, 0.0005422809, 0.0067821895, -1460059.1, 37362.93 
1.6361111e+3, 1.5718989e+2, -1374085.4, -1529459.6, 12726.949, -0.0009989594, 0.0059672887, -1373049.9, 26489.945 
1.6360497e+3, 1.671775e+2, -1292257.4, -1448502.5, 13070.237, -0.00050897524, 0.007988124, -1291171.5, 10489.594 
1.6359885e+3, 1.7716472e+2, -1204110.4, -1355222.6, 13025.787, 0.001079391, 0.009679373, -1202995.8, 790.81494 
1.6359271e+3, 1.8715148e+2, -1123125.6, -1274935.3, 12428.882, 0.0008615162, 0.008020854, -1122114.9, -16198.549 
1.6358657e+3, 1.9713779e+2, -1036511.5, -1182182.3, 12340.223, -0.0005380308, 0.0037050021, -1035473.56, -27423.143 
1.6358045e+3, 2.071238e+2, -954638.25, -1100681.6, 11707.808, -0.00047952324, 0.005915647, -953705.6, -43518.18 
1.635743e+3, 2.1710944e+2, -866855.94, -1007553.9, 11575.842, 0.00023841686, 0.009293795, -865909.9, -53581.563 
1.6356814e+3, 2.2709467e+2, -785408.06, -925886.2, 10300.946, -0.00062629674, 0.0090208845, -784656.75, -70183.72 
1.6356197e+3, 2.3707949e+2, -698953.0, -833256.3, 10124.44, -0.00250614, 0.005506143, -698194.0, -81572.29 
1.6355577e+3, 2.47064e+2, -617763.3, -751724.75, 8841.722, -0.0010270723, 0.0063648345, -617182.25, -98408.69 
1.6354957e+3, 2.5704816e+2, -531100.44, -658732.44, 8429.358, 0.0019426161, 0.0076286537, -530546.1, -109617.29 
1.6354334e+3, 2.6703197e+2, -449854.0, -576450.5, 6758.45, 0.000012512581, 0.007947704, -449494.22, -126406.86 
1.635371e+3, 2.7701548e+2, -363707.2, -483513.44, 6462.081, -0.004006757, 0.006064468, -363359.66, -138110.53 
1.6353084e+3, 2.8699872e+2, -282265.5, -400319.5, 4724.6904, -0.0021814695, 0.007165205, -282076.72, -154663.38 
1.6352455e+3, 2.9698166e+2, -196768.83, -308389.3, 4356.6255, 0.0017687735, 0.0075641274, -196599.05, -167018.7 
1.6351824e+3, 3.0696738e+2, -120953.875, -183180.89, 1887.2849, -0.00051805365, 0.007280294, -120896.69, -120896.69 
1.635119e+3, 3.1695598e+2, -133035.66, -185857.75, 1309.7207, -0.004224472, 0.0059307152, -133003.2, -133003.2 
1.6350552e+3, 3.2695073e+2, -65098.082, -24914.076, -1321.7301, -0.0018307756, 0.007347179, -24870.648, -24870.648 
1.6468774e+3, 3.7375015e+1, -2381869.8, -2577843.0, 3447.9067, 0.001122863, 0.0036513074, -2381809.3, 191916.44 
1.6468126e+3, 4.736685e+1, -2299690.3, -2492585.8, 5938.7637, 0.0053825974, 0.015121379, -2299507.5, 176298.17 
1.646748e+3, 5.735827e+1, -2215898.5, -2401626.8, 6997.9834, 0.0013085079, 0.0043046377, -2215635.3, 162254.47 
1.6466841e+3, 6.7349535e+1, -2134899.5, -2318491.0, 10323.659, 0.0015466359, 0.0043387576, -2134321.0, 145654.42 
1.6466205e+3, 7.7340543e+1, -2048878.0, -2226177.0, 10905.632, 0.0018050557, 0.0077002575, -2048209.6, 133853.7 
1.6465573e+3, 8.7331253e+1, -1967376.6, -2143159.5, 13054.389, 0.0011615374, 0.0084690405, -1966412.4, 117741.99 
1.6464941e+3, 9.7321624e+1, -1881133.9, -2050999.3, 13185.786, 0.0008760534, 0.006673992, -1880116.4, 106132.445 
1.6464314e+3, 1.0731159e+2, -1799529.6, -1970096.5, 15138.727, 0.0008968879, 0.006926432, -1798196.4, 90150.69 
1.6463688e+3, 1.1730116e+2, -1711307.9, -1876691.6, 15426.813, 0.00093247986, 0.0065384493, -1709881.1, 80568.266 
1.6463064e+3, 1.2729035e+2, -1629814.1, -1795668.5, 17018.434, 0.0012871107, 0.007169492, -1628085.9, 64469.31 
1.6462441e+3, 1.3727915e+2, -1542805.6, -1702867.3, 16971.625, 0.0014440727, 0.006798461, -1541025.9, 53639.14 
1.646182e+3, 1.4726757e+2, -1460881.5, -1621932.3, 17674.379, 0.0005534276, 0.0072533265, -1458964.6, 37813.887 
1.6461198e+3, 1.5725556e+2, -1372558.9, -1528480.9, 17597.807, -0.00062405254, 0.006483699, -1370597.4, 28298.871 
1.6460578e+3, 1.6724315e+2, -1290968.1, -1448080.6, 17869.213, -0.0005099509, 0.007627376, -1288961.5, 12056.42 
1.645996e+3, 1.7723031e+2, -1203450.9, -1355078.9, 17713.588, 0.00042966893, 0.008345408, -1201409.1, 1734.6138 
1.6459338e+3, 1.8721706e+2, -1121466.4, -1274420.1, 17180.768, 0.00071007217, 0.0078108795, -1119560.3, -14286.603 
1.6458718e+3, 1.9720335e+2, -1033066.25, -1180806.1, 17274.395, 0.0002464653, 0.0052872547, -1031073.3, -23665.39 
1.6458097e+3, 2.071893e+2, -951455.6, -1099569.0, 16541.143, -0.00016454587, 0.0068006148, -949630.8, -40085.32 
1.6457474e+3, 2.1717487e+2, -864871.94, -1007014.1, 16372.679, -0.00042661148, 0.0084699085, -863010.44, -51323.4 
1.645685e+3, 2.2716004e+2, -783189.5, -925465.56, 14909.933, -0.00082616333, 0.008380204, -781643.8, -67811.445 
1.6456226e+3, 2.3714481e+2, -695587.1, -832243.1, 14540.406, -0.001555465, 0.005978753, -694057.1, -78075.445 
1.64556e+3, 2.4712925e+2, -614069.94, -750575.4, 13129.113, -0.00069430436, 0.006684568, -612818.6, -94684.445 
1.6454971e+3, 2.571133e+2, -527422.8, -657577.1, 12798.438, 0.0008726142, 0.0072511514, -526176.25, -105886.1 
1.645434e+3, 2.670971e+2, -446256.63, -575329.06, 10936.473, -0.00025998792, 0.007961959, -445336.5, -122887.21 
1.6453707e+3, 2.770805e+2, -360003.38, -482392.8, 10545.941, -0.0025653027, 0.0069241514, -359101.3, -134489.63 
1.6453072e+3, 2.8706366e+2, -278435.94, -399266.47, 8543.434, -0.0015370203, 0.006852404, -277834.84, -151058.1 
1.6452436e+3, 2.9704654e+2, -192882.97, -307281.88, 7802.6807, 0.00069110084, 0.005261496, -192353.23, -163408.52 
1.6451794e+3, 3.0703217e+2, -116933.6, -182236.2, 5349.694, -0.0014703121, 0.008024169, -116498.25, -116498.25 
1.6451152e+3, 3.1702074e+2, -128675.65, -184726.81, 5473.953, -0.0041694236, 0.011559767, -128146.06, -128146.06 
1.6450505e+3, 3.270153e+2, -59807.586, -22681.854, 1705.5079, -0.00045288404, 0.0042906534, -22603.67, -22603.67 
1.6568956e+3, 3.7440875e+1, -2383050.5, -2578214.8, 1221.8628, 0.0032240348, 0.0038637144, -2383043.0, 190037.25 
1.65683e+3, 4.743279e+1, -2299702.5, -2490953.8, 2815.7356, -0.0019730777, 0.0133968685, -2299661.3, 175498.31 
1.6567646e+3, 5.742439e+1, -2215307.3, -2399787.8, 3867.714, 0.0038265956, 0.005844793, -2215226.3, 162015.44 
1.6566998e+3, 6.7415786e+1, -2134427.8, -2317009.0, 7612.1577, 0.004999417, 0.0062454636, -2134111.0, 145215.14 
1.6566353e+3, 7.74069e+1, -2048535.0, -2224933.8, 8186.4883, 0.001969361, 0.008257544, -2048155.9, 133257.22 
1.6565712e+3, 8.739765e+1, -1967504.1, -2143099.3, 10456.856, 0.00015649901, 0.008027811, -1966883.6, 116620.164 
1.6565073e+3, 9.7388023e+1, -1880983.5, -2050604.8, 10703.599, -0.0002562697, 0.0056645004, -1880310.8, 105287.266 
1.6564438e+3, 1.07378066e+2, -1799179.6, -1968991.5, 13014.91, 0.0008302882, 0.0063102613, -1798187.9, 89507.75 
1.6563804e+3, 1.1736772e+2, -1711145.6, -1875793.0, 13168.65, 0.0018631987, 0.0066959793, -1710099.1, 79697.95 
1.6563174e+3, 1.2735698e+2, -1629941.5, -1795435.9, 14485.055, 0.0010901811, 0.007930013, -1628683.3, 63219.125 
1.6562544e+3, 1.3734579e+2, -1542714.1, -1702576.9, 14503.294, -0.00011928156, 0.007775734, -1541409.0, 52602.95 
1.6561915e+3, 1.4733422e+2, -1460981.5, -1622090.6, 15471.653, 0.0003272239, 0.008254405, -1459509.3, 36616.152 
1.6561288e+3, 1.573222e+2, -1372680.3, -1528675.3, 15333.9795, 0.001347326, 0.0076073906, -1371187.3, 27055.906 
1.656066e+3, 1.6730973e+2, -1291350.4, -1448707.1, 15390.555, 0.0004498381, 0.006316287, -1289859.3, 10505.992 
1.6560034e+3, 1.7729683e+2, -1203668.4, -1355544.3, 15289.769, -0.0012720749, 0.0037412758, -1202144.4, 347.38666 
1.6559407e+3, 1.872836e+2, -1121562.3, -1274575.5, 14922.354, -0.00058987207, 0.0068897773, -1120120.6, -15499.065 
1.655878e+3, 1.9726995e+2, -1033297.75, -1181191.0, 14928.965, 0.000817879, 0.010681316, -1031805.8, -25050.451 
1.6558151e+3, 2.0725583e+2, -951896.6, -1100355.9, 13736.716, 0.00007909413, 0.009457007, -950636.3, -41742.695 
1.6557519e+3, 2.1724127e+2, -865196.5, -1007836.75, 13639.638, -0.0015583823, 0.00465507, -863904.0, -52867.723 
1.655689e+3, 2.2722636e+2, -783738.44, -926858.9, 12330.225, -0.00054788706, 0.005927234, -782683.94, -69501.64 
1.6556257e+3, 2.372111e+2, -696081.1, -833461.75, 11937.741, 0.0015369015, 0.008203912, -695051.56, -79719.4 
1.6555622e+3, 2.4719545e+2, -614370.56, -751297.3, 10267.675, -0.00019217102, 0.0082401, -613604.94, -96119.58 
1.6554986e+3, 2.5717944e+2, -527767.44, -658426.4, 9946.434, -0.0035808384, 0.005697512, -527014.56, -107372.445 
1.6554347e+3, 2.6716316e+2, -446666.6, -576511.6, 7948.1777, -0.0019459903, 0.0073672393, -446181.88, -124379.92 
1.6553706e+3, 2.7714652e+2, -360416.8, -483679.22, 7597.6763, 0.0018440433, 0.009166524, -359950.25, -135985.33 
1.6553062e+3, 2.8712955e+2, -279050.06, -400836.03, 5596.261, 0.00067905727, 0.0072987736, -278793.44, -152662.2 
1.6552417e+3, 2.9711226e+2, -193408.92, -308631.72, 4839.945, -0.0032587312, 0.0019397533, -193205.97, -164905.27 
1.6551767e+3, 3.0709788e+2, -116805.49, -182433.5, 2083.6487, -0.0042695254, 0.008311439, -116739.41, -116739.41 
1.6551115e+3, 3.170865e+2, -129060.05, -186088.7, 2283.085, -0.0017768106, 0.018231263, -128968.8, -128968.8 
1.655046e+3, 3.2708073e+2, -61936.27, -26946.973, -1319.5393, 0.00089058146, 0.0014559568, -26897.28, -26897.28 
1.6669136e+3, 3.7507865e+1, -2385688.8, -2575372.3, 4364.531, 0.0035755537, 0.0056113997, -2385588.3, 186835.45 
1.666847e+3, 4.7499913e+1, -2305510.5, -2492926.3, 7245.349, -0.001793952, 0.011021091, -2305230.8, 169270.83 
1.6667807e+3, 5.749162e+1, -2218382.0, -2400233.8, 7887.0464, 0.0035936567, 0.006919516, -2218040.5, 158542.36 
1.6667151e+3, 6.748311e+1, -2136620.8, -2316684.8, 11576.506, 0.004417615, 0.007140536, -2135879.8, 142786.66 
1.6666497e+3, 7.747432e+1, -2050807.0, -2224742.5, 12202.918, 0.0012230728, 0.007749846, -2049955.1, 130797.39 
1.6665849e+3, 8.746515e+1, -1969510.5, -2143243.0, 14917.897, 0.0004283095, 0.00783136, -1968238.9, 114603.445 
1.6665204e+3, 9.7455597e+1, -1881932.9, -2050104.5, 15388.868, 0.0012927656, 0.006353375, -1880536.3, 104399.64 
1.666456e+3, 1.074457e+2, -1800330.1, -1968847.1, 17873.848, 0.0015616086, 0.0070095505, -1798455.3, 88577.68 
1.6663921e+3, 1.1743541e+2, -1712986.9, -1875975.1, 17922.357, 0.0010876182, 0.007198355, -1711039.4, 78094.33 
1.6663283e+3, 1.274247e+2, -1630955.1, -1795512.3, 19330.738, 0.00044572237, 0.007958431, -1628714.9, 62523.895 
1.6662647e+3, 1.3741353e+2, -1542100.4, -1701873.6, 19378.78, 0.00006548732, 0.007289703, -1539783.5, 53564.6 
1.6662012e+3, 1.4740196e+2, -1460131.4, -1621704.3, 20422.123, 0.0005894479, 0.007880503, -1457590.1, 37871.46 
1.6661377e+3, 1.5738992e+2, -1371749.3, -1528161.6, 20244.55, 0.0013643024, 0.0077008805, -1369171.5, 28408.05 
1.6660744e+3, 1.6737746e+2, -1289829.4, -1448075.6, 20353.621, 0.00061901973, 0.007089863, -1287253.5, 12448.152 
1.6660109e+3, 1.7736453e+2, -1201300.4, -1354446.9, 20394.928, -0.0008801639, 0.0050318707, -1198630.9, 3197.416 
1.6659474e+3, 1.8735124e+2, -1119387.5, -1273870.3, 19946.092, -0.0005407614, 0.0073028444, -1116853.8, -12895.165 
1.6658841e+3, 1.9733752e+2, -1031751.2, -1180794.3, 19770.945, 0.00050868065, 0.009805783, -1029173.1, -23080.125 
1.6658205e+3, 2.0732336e+2, -949598.75, -1099871.4, 18392.229, 0.000032693286, 0.008825561, -947380.44, -39148.633 
1.6657567e+3, 2.1730874e+2, -861187.1, -1006448.94, 18202.86, -0.0011987983, 0.0049924445, -858940.8, -48565.76 
1.6656929e+3, 2.2729377e+2, -779577.56, -925472.8, 16874.46, -0.0003090032, 0.006441161, -777651.3, -65129.53 
1.6656289e+3, 2.3727842e+2, -692618.0, -832388.2, 16634.36, 0.0015682199, 0.008570321, -690665.56, -75993.29 
1.6655646e+3, 2.4726272e+2, -611058.6, -750394.25, 14714.643, -0.00014382423, 0.008614447, -609521.6, -92695.37 
1.6655003e+3, 2.572466e+2, -524346.7, -657491.75, 14224.069, -0.0034480477, 0.0059905187, -522844.06, -103860.2 
1.6654356e+3, 2.672302e+2, -442523.0, -575487.2, 12081.237, -0.0019494272, 0.0071634087, -441434.2, -120289.63 
1.6653708e+3, 2.772135e+2, -355291.7, -482076.56, 11553.689, 0.001758415, 0.008531785, -354247.4, -130938.9 
1.6653055e+3, 2.8719643e+2, -274512.75, -399540.72, 9290.083, 0.0005236646, 0.008004924, -273826.22, -148350.58 
1.66524e+3, 2.9717907e+2, -189847.61, -307794.9, 8667.936, -0.0034032504, 0.00446077, -189214.0, -161568.11 
1.6651742e+3, 3.0716458e+2, -112215.55, -180863.14, 5658.9473, -0.0039381566, 0.007853712, -111752.18, -111752.18 
1.665108e+3, 3.1715307e+2, -123170.516, -184217.11, 5401.7383, -0.00093788025, 0.01327087, -122696.23, -122696.23 
1.6650416e+3, 3.2714722e+2, -56480.86, -26619.771, 2205.257, 0.0011779165, 0.003781228, -26457.791, -26457.791 
1.6769314e+3, 3.7575763e+1, -2382810.3, -2568044.3, 218.64027, 0.003122549, 0.0077603296, -2382810.0, 188948.31 
1.6768639e+3, 4.756798e+1, -2305676.8, -2492636.5, 4635.1196, 0.0015942341, 0.008600107, -2305561.8, 168272.72 
1.6767968e+3, 5.755976e+1, -2218667.3, -2399776.8, 5304.9805, 0.001783884, 0.007840305, -2218512.0, 157403.3 
1.6767304e+3, 6.755134e+1, -2136478.8, -2315421.8, 8849.667, 0.0016938029, 0.0075869826, -2136042.0, 141955.67 
1.6766644e+3, 7.754264e+1, -2050467.9, -2223361.0, 9518.774, -0.000117015225, 0.0067295018, -2049945.4, 130137.54 
1.6765986e+3, 8.7533575e+1, -1969261.5, -2142163.0, 12614.576, 0.001324718, 0.007829607, -1968346.0, 113825.71 
1.6765334e+3, 9.752413e+1, -1881598.3, -2049041.4, 13040.613, 0.0041598524, 0.007994339, -1880588.8, 103675.57 
1.6764684e+3, 1.075143e+2, -1800240.3, -1968276.9, 15483.081, 0.0025703253, 0.008552228, -1798825.5, 87535.164 
1.6764037e+3, 1.17504045e+2, -1712737.3, -1875346.9, 15615.173, -0.0009479163, 0.007962622, -1711251.4, 77209.766 
1.6763392e+3, 1.2749337e+2, -1630850.5, -1795173.5, 17292.076, -0.0006230665, 0.0075263376, -1629050.5, 61515.305 
1.6762748e+3, 1.3748223e+2, -1542052.5, -1701598.3, 17274.623, 0.0011809116, 0.005798708, -1540203.5, 52471.492 
1.6762108e+3, 1.4747064e+2, -1460354.8, -1622014.6, 18216.5, 0.00094633066, 0.006604236, -1458327.5, 36460.93 
1.6761465e+3, 1.574586e+2, -1371842.5, -1528344.0, 18044.861, -0.00012374355, 0.0072053247, -1369788.9, 27117.61 
1.6760826e+3, 1.6744617e+2, -1289879.3, -1448129.1, 18137.152, 0.0001639355, 0.009416586, -1287827.1, 11201.235 
1.6760185e+3, 1.7743327e+2, -1201395.1, -1354668.0, 18122.71, 0.0007659589, 0.01036503, -1199281.5, 1873.3365 
1.6759545e+3, 1.8741989e+2, -1119815.6, -1274793.1, 17468.602, 0.00012772116, 0.00849444, -1117871.0, -14585.249 
1.6758902e+3, 1.9740605e+2, -1032054.06, -1181690.5, 17351.896, -0.0007655642, 0.004421222, -1030068.3, -24646.832 
1.675826e+3, 2.0739183e+2, -950092.4, -1101047.4, 16084.993, -0.0003779207, 0.0059989654, -948397.5, -40836.684 
1.6757616e+3, 2.1737719e+2, -861675.7, -1007517.7, 15829.749, 0.000110117704, 0.00855972, -859977.3, -50272.965 
1.6756971e+3, 2.2736217e+2, -779874.9, -926072.2, 14111.737, -0.0003134432, 0.009170534, -778525.2, -66673.57 
1.6756323e+3, 2.3734671e+2, -692927.4, -833206.75, 13888.126, -0.0010334551, 0.0072778226, -691565.6, -77562.66 
1.6755673e+3, 2.4733092e+2, -611632.9, -751848.0, 11857.828, -0.00053447497, 0.008020722, -610637.2, -94479.46 
1.675502e+3, 2.5731477e+2, -524869.8, -658927.3, 11445.577, 0.00031954105, 0.007922767, -523899.63, -105583.5 
1.6754366e+3, 2.6729822e+2, -443152.3, -577030.1, 9379.254, -0.00072737737, 0.0072970935, -442498.4, -122020.33 
1.675371e+3, 2.7728134e+2, -355907.13, -483571.06, 8767.105, -0.002318367, 0.0052416655, -355307.88, -132664.42 
1.6753048e+3, 2.8726426e+2, -274967.16, -400717.84, 6030.7104, -0.0018672567, 0.008993759, -274678.63, -149867.48 
1.6752385e+3, 2.9724684e+2, -190312.89, -309117.44, 5614.3096, -0.0007412869, 0.012520145, -190048.17, -163066.58 
1.6751717e+3, 3.0723217e+2, -112710.21, -182395.5, 2867.4138, -0.00080505654, 0.0063063097, -112592.42, -112592.42 
1.6751048e+3, 3.1722036e+2, -123507.0, -185426.86, 2470.98, -0.0007516856, -0.004091844, -123408.55, -123408.55 
1.6750374e+3, 3.272147e+2, -57408.89, -28553.996, -618.7332, -0.0020542264, 0.012947189, -28540.734, -28540.734 
1.686949e+3, 3.76447e+1, -2387836.0, -2571364.3, 3599.655, 0.0012856162, 0.008087364, -2387765.5, 183317.33 
1.6868806e+3, 4.7636977e+1, -2308404.5, -2491894.8, 7838.387, 0.003661724, 0.007099667, -2308070.5, 165087.98 
1.6868128e+3, 5.762894e+1, -2223179.5, -2399965.5, 9163.396, 0.0016336677, 0.007882868, -2222706.0, 152531.23 
1.6867454e+3, 6.762066e+1, -2140972.0, -2316239.0, 13154.153, 0.0015357875, 0.007877058, -2139990.5, 137327.97 
1.6866785e+3, 7.7612066e+1, -2053747.9, -2223523.8, 13831.338, 0.00097551284, 0.00681373, -2052628.5, 126774.07 
1.6866122e+3, 8.760311e+1, -1971937.3, -2142253.5, 17264.799, 0.0016774759, 0.007960821, -1970204.8, 111285.586 
1.6865462e+3, 9.759376e+1, -1883806.9, -2048922.1, 17719.73, 0.0029835138, 0.008237286, -1881926.6, 101655.375 
1.6864806e+3, 1.07583985e+2, -1801738.5, -1968475.8, 20222.896, 0.0018829673, 0.008545521, -1799320.8, 86356.984 
1.6864152e+3, 1.1757377e+2, -1713152.8, -1874908.6, 20357.248, -0.00020150836, 0.0075720134, -1710630.1, 77147.75 
1.6863501e+3, 1.2756312e+2, -1631068.8, -1794885.5, 22223.074, 0.00022665142, 0.007637971, -1628107.6, 61774.645 
1.6862851e+3, 1.3755201e+2, -1542095.8, -1701165.8, 22172.213, 0.0015087845, 0.006802713, -1539063.0, 52928.06 
1.6862203e+3, 1.4754045e+2, -1460012.9, -1621642.3, 23210.107, 0.0008154056, 0.007412378, -1456745.9, 37358.53 
1.6861556e+3, 1.575284e+2, -1370932.6, -1527765.6, 23161.1, -0.00073108176, 0.0073643643, -1367583.8, 28638.717 
1.686091e+3, 1.6751593e+2, -1288660.1, -1447849.9, 23145.611, -0.000018485574, 0.009083221, -1285363.1, 12981.55 
1.6860263e+3, 1.7750297e+2, -1199602.3, -1354092.6, 22931.396, 0.0014476759, 0.009749441, -1196270.4, 4201.272 
1.6859615e+3, 1.8748957e+2, -1117074.3, -1274013.3, 22207.012, 0.0004668672, 0.008380166, -1113992.5, -11389.419 
1.6858967e+3, 1.9747566e+2, -1028064.0, -1180218.1, 22096.93, -0.001268276, 0.005067462, -1024919.9, -20180.572 
1.6858317e+3, 2.0746139e+2, -946548.8, -1100070.6, 20752.084, -0.00044915432, 0.0067542447, -943793.1, -36913.855 
1.6857666e+3, 2.1744666e+2, -859225.06, -1007011.94, 20579.748, 0.0010913545, 0.009158624, -856412.8, -47389.242 
1.6857013e+3, 2.2743155e+2, -776820.75, -925309.0, 18675.48, -0.00008479312, 0.009246161, -774507.94, -63336.336 
1.6856359e+3, 2.3741601e+2, -688594.06, -831867.06, 18225.883, -0.002267816, 0.0065538827, -686311.9, -72988.08 
1.68557e+3, 2.4740013e+2, -606782.1, -750623.8, 15890.577, -0.00090921635, 0.0076823034, -605047.56, -89568.01 
1.6855042e+3, 2.5738385e+2, -519462.9, -657314.8, 15374.261, 0.0017768422, 0.00876096, -517769.06, -100130.05 
1.6854379e+3, 2.673672e+2, -438446.5, -575516.0, 13202.916, -0.000033227516, 0.00781694, -437186.34, -117384.445 
1.6853714e+3, 2.7735025e+2, -352499.34, -482642.8, 12692.325, -0.0035634101, 0.004588036, -351273.1, -129304.87 
1.6853045e+3, 2.8733307e+2, -270398.56, -399177.22, 9860.407, -0.0025227312, 0.008756617, -269647.94, -145511.33 
1.6852371e+3, 2.9731563e+2, -184120.13, -307087.34, 9441.949, 0.0008160421, 0.01360312, -183399.34, -157091.67 
1.6851696e+3, 3.0730078e+2, -108025.664, -182070.08, 6187.6865, 0.00062620797, 0.005984562, -107512.13, -107512.13 
1.6851017e+3, 3.1728876e+2, -119582.766, -184576.67, 5185.3843, -0.0015244622, -0.0069057695, -119171.664, -119171.664 
1.6850334e+3, 3.2728317e+2, -52104.52, -24436.576, 2688.8755, -0.0034009248, 0.015055105, -24177.684, -24177.684 
1.6969664e+3, 3.771451e+1, -2391389.0, -2576677.3, 833.7147, -0.0011861044, 0.00813945, -2391385.3, 179013.31 
1.6968971e+3, 4.7706813e+1, -2307459.5, -2488675.0, 4909.305, 0.004628664, 0.00593476, -2307326.5, 165147.52 
1.6968283e+3, 5.769903e+1, -2222089.3, -2396997.5, 6244.9077, 0.0020820398, 0.007571593, -2221866.5, 152683.78 
1.6967604e+3, 6.76909e+1, -2140601.8, -2314930.0, 10686.166, 0.0025746238, 0.008310492, -2139949.0, 136680.9 
1.6966927e+3, 7.7682424e+1, -2053325.9, -2222130.8, 11377.518, 0.0031292175, 0.0075819558, -2052562.5, 126150.56 
1.6966256e+3, 8.7673575e+1, -1971631.5, -2140991.5, 15043.77, 0.0014781287, 0.008237056, -1970305.6, 110494.19 
1.6965589e+3, 9.766431e+1, -1883547.4, -2047824.9, 15516.237, -0.0006387954, 0.0077860947, -1882094.8, 100795.81 
1.6964927e+3, 1.07654594e+2, -1801843.6, -1968095.1, 18115.125, 0.00019157183, 0.007731025, -1799892.6, 85093.086 
1.6964266e+3, 1.17644414e+2, -1713044.8, -1874401.4, 18278.873, 0.0020038127, 0.0064693866, -1710999.9, 76085.625 
1.696361e+3, 1.2763382e+2, -1631015.4, -1794626.9, 20238.152, 0.0019810353, 0.008140163, -1628549.3, 60640.2 
1.6962954e+3, 1.3762276e+2, -1541924.5, -1700793.0, 20167.582, 0.0010777825, 0.009422716, -1539404.3, 51893.566 
1.69623e+3, 1.4761122e+2, -1459892.8, -1621338.3, 21181.63, 0.00018983433, 0.009545714, -1457160.0, 36250.926 
1.6961646e+3, 1.5759917e+2, -1370881.6, -1527747.8, 21110.885, -0.0009894168, 0.007786341, -1368090.3, 27438.705 
1.6960992e+3, 1.6758664e+2, -1289100.9, -1448818.1, 21055.443, -0.0002457213, 0.006800747, -1286371.8, 11279.965 
1.6960339e+3, 1.7757359e+2, -1199898.9, -1354918.1, 20879.004, 0.0012637747, 0.0050294534, -1197136.0, 2643.6033 
1.6959687e+3, 1.8756016e+2, -1117446.5, -1274781.9, 20125.072, 0.0003916019, 0.007480494, -1114913.0, -13001.743 
1.6959032e+3, 1.9754626e+2, -1028449.75, -1181003.9, 19902.504, -0.0013889341, 0.010076798, -1025895.94, -21848.477 
1.6958375e+3, 2.075319e+2, -946912.8, -1100947.3, 18132.635, -0.00040728328, 0.009975586, -944807.06, -38618.91 
1.6957717e+3, 2.1751708e+2, -859463.06, -1007968.0, 18054.318, 0.0015196897, 0.0073496597, -857299.6, -48966.105 
1.6957057e+3, 2.2750185e+2, -777325.7, -926691.06, 16284.923, 0.00007695638, 0.0073410138, -775570.75, -65088.29 
1.6956395e+3, 2.3748626e+2, -689249.06, -833395.75, 15797.705, -0.0025478238, 0.0064143185, -687538.06, -74902.52 
1.6955732e+3, 2.4747023e+2, -607581.25, -752466.4, 13193.103, -0.0013486868, 0.007622036, -606389.7, -91597.234 
1.6955063e+3, 2.5745383e+2, -520131.9, -658977.3, 12648.065, 0.0011801814, 0.008539109, -518989.16, -102035.92 
1.6954392e+3, 2.6743713e+2, -438794.84, -576501.8, 10138.294, 0.00008769592, 0.0085779065, -438052.47, -118935.53 
1.6953719e+3, 2.774201e+2, -352827.5, -483631.0, 9757.91, -0.0025849352, 0.006373474, -352103.56, -130819.72 
1.695304e+3, 2.874028e+2, -270649.88, -400196.0, 7101.8037, -0.0017318887, 0.0074387407, -270261.72, -146808.5 
1.6952361e+3, 2.9738522e+2, -184641.52, -308697.9, 6580.8525, 0.0014191844, 0.007846396, -184293.4, -158667.86 
1.6951676e+3, 3.0737022e+2, -109684.49, -186035.1, 2960.9495, -0.00008806005, 0.0069722277, -109569.836, -109569.836 
1.6950987e+3, 3.1735808e+2, -120502.46, -186724.5, 2217.056, -0.0052461866, 0.0052108653, -120428.32, -120428.32 
1.6950297e+3, 3.2735243e+2, -49039.32, -18900.74, -750.9552, -0.0017432054, 0.0085612405, -18882.04, -18882.04 
1.7069834e+3, 3.778527e+1, -2396910.0, -2576046.5, 4132.4546, 0.00089663354, 0.010264148, -2396814.8, 172890.4 
1.7069134e+3, 4.777773e+1, -2313168.5, -2489681.5, 9023.905, 0.0032951904, 0.0031917451, -2312708.5, 159070.69 
1.7068438e+3, 5.7770133e+1, -2226304.3, -2397126.3, 9956.367, 0.0024850913, 0.008614076, -2225726.0, 148127.5 
1.706775e+3, 6.776216e+1, -2144546.3, -2315157.8, 14704.147, 0.0029456376, 0.009616509, -2143288.3, 132643.5 
1.7067067e+3, 7.77538e+1, -2056960.9, -2222227.0, 15537.767, 0.0024534315, 0.007686712, -2055512.8, 122500.81 
1.706639e+3, 8.774506e+1, -1975076.5, -2141409.0, 19465.209, 0.0012074161, 0.007948857, -1972828.9, 107270.33 
1.7065716e+3, 9.7735894e+1, -1886570.0, -2048009.8, 19960.646, 0.0002712502, 0.007544112, -1884138.8, 98050.36 
1.7065047e+3, 1.07726276e+2, -1804138.3, -1968210.5, 22937.268, 0.0008107638, 0.007995882, -1800992.0, 83291.39 
1.706438e+3, 1.1771617e+2, -1714180.9, -1874002.6, 23264.762, 0.0016818893, 0.0073773875, -1710863.1, 75519.25 
1.7063718e+3, 1.2770562e+2, -1631577.5, -1794513.4, 25304.498, 0.0015753902, 0.008529602, -1627738.0, 60747.813 
1.7063056e+3, 1.3769455e+2, -1541860.5, -1700395.1, 25226.15, 0.0009332387, 0.008884972, -1537943.3, 52650.934 
1.7062394e+3, 1.4768301e+2, -1459307.6, -1621092.3, 26132.78, 0.00039617225, 0.00911711, -1455191.1, 37516.137 
1.7061737e+3, 1.5767096e+2, -1369515.9, -1527014.8, 25866.807, -0.00028679342, 0.007802292, -1365376.5, 29448.965 
1.7061079e+3, 1.676584e+2, -1286993.0, -1448038.5, 25952.592, 0.000024216595, 0.00725973, -1282914.1, 14034.43 
1.7060418e+3, 1.7764533e+2, -1197048.8, -1353757.3, 25922.521, 0.0008013981, 0.0060040727, -1192872.0, 6204.693 
1.7059758e+3, 1.8763183e+2, -1115077.5, -1274218.0, 25038.494, 0.00028253396, 0.007979194, -1111231.0, -10022.093 
1.7059098e+3, 1.9761786e+2, -1026675.06, -1180657.5, 24813.2, -0.00080154114, 0.009716849, -1022775.3, -19429.465 
1.7058435e+3, 2.0760342e+2, -943453.56, -1099968.4, 22979.938, -0.00024550187, 0.009596906, -940149.3, -34662.047 
1.705777e+3, 2.175885e+2, -853529.9, -1005882.0, 22737.656, 0.0010477757, 0.0071232477, -850208.8, -42575.402 
1.7057103e+3, 2.275732e+2, -772086.5, -925386.4, 20504.676, 0.00010039087, 0.007527967, -769391.25, -59607.797 
1.7056434e+3, 2.3755747e+2, -685618.2, -832712.75, 19938.006, -0.0016180697, 0.0073208166, -682963.6, -71025.92 
1.7055762e+3, 2.4754135e+2, -603475.44, -751180.7, 17563.525, -0.001061086, 0.007899212, -601415.7, -87320.125 
1.7055087e+3, 2.5752485e+2, -515180.3, -657403.06, 17187.506, 0.00027934852, 0.0076006665, -513132.72, -96875.46 
1.7054407e+3, 2.6750806e+2, -433625.66, -575074.44, 14086.284, -0.00019353646, 0.008736285, -432236.5, -113814.555 
1.7053726e+3, 2.774909e+2, -347310.25, -482052.97, 13404.672, -0.0015072757, 0.008527667, -345989.66, -125399.77 
1.7053041e+3, 2.8747347e+2, -265148.3, -398636.44, 10549.931, -0.0011837821, 0.007062908, -264319.66, -141559.05 
1.7052352e+3, 2.9745576e+2, -179386.61, -307170.47, 9699.753, 0.00057328766, 0.0033875338, -178654.52, -153720.16 
1.705166e+3, 3.074407e+2, -104474.64, -184435.48, 6299.014, -0.00069656357, 0.008366208, -103981.47, -103981.47 
1.705096e+3, 3.1742853e+2, -114863.23, -184978.9, 6664.1514, -0.0040234174, 0.015848242, -114235.45, -114235.45 
1.705026e+3, 3.2742265e+2, -43394.09, -17326.93, 1782.7314, -0.001635355, 0.0030493776, -17205.572, -17205.572 
1.7170003e+3, 3.7856853e+1, -2393520.3, -2567696.0, 1510.428, 0.004194644, 0.012636421, -2393507.0, 175496.58 
1.7169294e+3, 4.7849557e+1, -2313213.5, -2488467.8, 6378.0693, 0.00061706896, 0.0006001477, -2312981.5, 158093.55 
1.7168592e+3, 5.784212e+1, -2226152.5, -2395728.0, 7348.0034, 0.0025161568, 0.01032749, -2225834.5, 147313.5 
1.7167896e+3, 6.783429e+1, -2144184.0, -2313334.0, 12359.598, 0.0026765212, 0.011219402, -2143285.8, 131939.11 
1.7167205e+3, 7.782606e+1, -2056471.1, -2220384.3, 13210.472, 0.00019451845, 0.007492569, -2055413.3, 121892.23 
1.7166519e+3, 8.7817436e+1, -1974766.0, -2140227.3, 17360.615, 0.000921514, 0.007436309, -1972964.1, 106425.805 
1.7165841e+3, 9.780837e+1, -1885985.9, -2046649.8, 17929.512, 0.0033460178, 0.007411821, -1884009.3, 97469.516 
1.7165166e+3, 1.0779887e+2, -1803651.3, -1966920.0, 21172.69, 0.0023550747, 0.00895059, -1800950.3, 82621.7 
1.7164494e+3, 1.17788866e+2, -1713813.3, -1872930.8, 21452.408, -0.00035162075, 0.009498018, -1710971.8, 74698.24 
1.7163825e+3, 1.2777834e+2, -1631613.1, -1794318.9, 23441.613, -0.00021736084, 0.008799848, -1628303.1, 59470.02 
1.7163157e+3, 1.3776727e+2, -1541860.4, -1700310.6, 23389.61, 0.00088577054, 0.0063240738, -1538479.9, 51401.65 
1.7162491e+3, 1.4775573e+2, -1459614.8, -1621721.3, 24338.297, 0.0010311075, 0.0070671504, -1456039.5, 35955.273 
1.7161827e+3, 1.5774363e+2, -1369595.9, -1527382.1, 24107.145, 0.0007735835, 0.0075670406, -1365994.9, 28118.309 
1.7161162e+3, 1.6773109e+2, -1287031.9, -1448147.3, 24136.033, 0.00032803018, 0.009625965, -1283493.9, 12742.231 
1.7160498e+3, 1.7771803e+2, -1197146.1, -1354050.6, 23970.879, -0.00014066293, 0.010821551, -1193565.6, 4798.409 
1.7159832e+3, 1.8770447e+2, -1115417.1, -1275144.0, 22747.617, -0.0001279319, 0.009286111, -1112240.6, -11743.503 
1.7159164e+3, 1.9769035e+2, -1026861.44, -1181595.5, 22662.813, -0.00006161081, 0.0055414005, -1023610.44, -20975.197 
1.7158496e+3, 2.0767586e+2, -943913.06, -1101195.4, 21081.68, -0.00023689476, 0.0068236724, -941136.3, -36358.98 
1.7157826e+3, 2.1766089e+2, -854261.6, -1007364.7, 20621.178, -0.00037701408, 0.00825241, -851532.8, -44608.754 
1.7157151e+3, 2.2764546e+2, -773012.75, -927480.2, 17648.898, -0.00014391301, 0.009334337, -771021.9, -61946.64 
1.7156474e+3, 2.3762958e+2, -686116.4, -834307.44, 17256.008, 0.00021256345, 0.008842785, -684133.5, -72902.59 
1.7155795e+3, 2.4761339e+2, -603555.8, -751680.06, 15145.0205, -0.0003816006, 0.008314813, -602023.1, -88633.586 
1.7155112e+3, 2.5759682e+2, -515673.94, -658533.9, 14626.589, -0.0012011108, 0.0062380014, -514191.78, -98639.88 
1.7154427e+3, 2.6757988e+2, -434656.94, -577597.25, 11072.981, -0.0009522076, 0.008654715, -433804.25, -116086.4 
1.7153735e+3, 2.775626e+2, -348201.47, -484420.47, 10500.408, -0.00040576688, 0.010827805, -347396.8, -127509.45 
1.7153043e+3, 2.87545e+2, -265945.44, -400671.88, 7712.606, -0.0009868339, 0.0073989555, -265505.34, -143445.55 
1.7152345e+3, 2.975271e+2, -179898.25, -308604.22, 6830.336, -0.0018753903, 0.00047644734, -179536.78, -155301.52 
1.7151643e+3, 3.0751204e+2, -103763.695, -183738.06, 3070.6604, -0.0012807064, 0.010190082, -103645.97, -103645.97 
1.7150937e+3, 3.175e+2, -114903.06, -186034.14, 3452.808, 0.0013522727, 0.024383279, -114735.85, -114735.85 
1.7150228e+3, 3.2749358e+2, -47037.055, -25225.863, -1330.6656, -0.0042867945, -0.00068005564, -25144.98, -25144.98 
1.7270169e+3, 3.7929386e+1, -2400149.8, -2569672.3, 4453.6636, 0.0048865103, 0.008881724, -2400032.8, 168260.08 
1.726945e+3, 4.792237e+1, -2320305.3, -2489334.5, 9827.776, 0.0001513016, 0.006594467, -2319735.8, 150625.8 
1.726874e+3, 5.791508e+1, -2232868.8, -2396486.8, 11247.344, 0.0021434561, 0.008925864, -2232099.3, 140333.97 
1.7268038e+3, 6.790741e+1, -2150247.5, -2314522.3, 16761.55, 0.0025621308, 0.009308267, -2148554.8, 125953.45 
1.726734e+3, 7.7899355e+1, -2061378.9, -2220944.5, 17625.459, 0.0006401692, 0.007952808, -2059455.3, 117131.99 
1.7266649e+3, 8.789087e+1, -1978445.1, -2140610.8, 22124.541, 0.0013060827, 0.008382894, -1975480.9, 103189.55 
1.7265965e+3, 9.788191e+1, -1888085.4, -2046241.4, 22729.223, 0.003315277, 0.007972657, -1884883.8, 95874.45 
1.7265283e+3, 1.0787247e+2, -1805479.8, -1966993.4, 26002.791, 0.0022664436, 0.008856082, -1801396.6, 81453.93 
1.7264606e+3, 1.1786253e+2, -1715556.1, -1872901.6, 26137.771, -0.00024190178, 0.008915865, -1711327.9, 73620.14 
1.7263933e+3, 1.2785207e+2, -1632785.9, -1794285.6, 28243.742, -0.00002185168, 0.008770239, -1627989.0, 59061.586 
1.7263259e+3, 1.3784105e+2, -1541933.8, -1699779.0, 28277.988, 0.0010309898, 0.0070889015, -1537020.6, 52137.945 
1.7262588e+3, 1.478295e+2, -1459001.6, -1621302.4, 29402.182, 0.0011003019, 0.0078081107, -1453839.4, 37432.32 
1.726192e+3, 1.5781741e+2, -1368224.0, -1526598.6, 29321.635, 0.00085804006, 0.008141248, -1362969.8, 30420.492 
1.7261249e+3, 1.6780484e+2, -1285344.9, -1447673.3, 29237.895, 0.00031280975, 0.009613993, -1280239.3, 15274.221 
1.7260578e+3, 1.7779171e+2, -1195055.8, -1353350.4, 28907.342, -0.00039124937, 0.010011404, -1189941.9, 7700.0767 
1.7259906e+3, 1.8777807e+2, -1111817.9, -1274188.6, 27533.74, 0.00003785373, 0.009056741, -1107275.9, -7500.249 
1.7259233e+3, 1.977639e+2, -1021349.5, -1179689.4, 27341.361, 0.00093810976, 0.0063398923, -1016761.3, -14846.738 
1.7258558e+3, 2.0774929e+2, -939694.2, -1100215.8, 25466.373, -0.00015000712, 0.0074185086, -935750.9, -31693.26 
1.7257881e+3, 2.1773422e+2, -852083.5, -1007213.75, 24939.762, -0.0016498041, 0.008281764, -848172.6, -41967.14 
1.7257202e+3, 2.2771871e+2, -768907.06, -926280.8, 22166.092, -0.00029275703, 0.00925025, -765844.56, -57487.01 
1.7256518e+3, 2.3770273e+2, -678864.5, -831698.8, 21988.074, 0.0018048408, 0.008878506, -675764.0, -65249.91 
1.7255831e+3, 2.4768642e+2, -597292.4, -750077.5, 19096.438, 0.00006586731, 0.008674483, -594941.7, -82267.74 
1.7255141e+3, 2.5766972e+2, -511560.9, -657867.3, 18044.857, -0.0027362867, 0.0068263183, -509368.2, -94530.55 
1.7254446e+3, 2.6765266e+2, -429299.0, -576060.6, 14691.32, -0.0014082943, 0.008332661, -427842.8, -110837.94 
1.7253748e+3, 2.7763522e+2, -340862.13, -481976.13, 14386.58, 0.0013518203, 0.009474401, -339410.34, -120234.78 
1.7253046e+3, 2.8761753e+2, -260180.67, -399224.47, 11236.253, -0.0003236822, 0.008398614, -259278.52, -137929.33 
1.725234e+3, 2.975995e+2, -176352.94, -307982.13, 10356.116, -0.0037444765, 0.0048225466, -175543.13, -152017.39 
1.725163e+3, 3.0758435e+2, -98443.086, -181609.75, 6349.079, -0.002494343, 0.009583734, -97961.18, -97961.18 
1.7250915e+3, 3.1757215e+2, -107714.37, -183601.78, 5979.7944, 0.0028704682, 0.01683536, -107246.055, -107246.055 
1.7250197e+3, 3.2756564e+2, -39978.51, -25234.826, 2092.128, -0.0031817013, 0.003611941, -24943.703, -24943.703 
1.737033e+3, 3.8002762e+1, -2401919.3, -2571585.8, 733.2646, 0.003945228, 0.00375636, -2401916.3, 165657.61 
1.7369604e+3, 4.7996032e+1, -2318797.8, -2485488.0, 7417.811, 0.0006125727, 0.015956732, -2318468.3, 151171.55 
1.7368887e+3, 5.7988894e+1, -2231613.0, -2393099.8, 8750.422, 0.0015326543, 0.0059811594, -2231140.3, 140569.42 
1.7368177e+3, 6.798141e+1, -2149717.3, -2312663.8, 14647.019, 0.0023225534, 0.005903574, -2148411.0, 125371.94 
1.7367473e+3, 7.797354e+1, -2060658.6, -2218992.5, 15586.5625, 0.0021846918, 0.008831138, -2059138.9, 116721.35 
1.7366777e+3, 8.7965196e+1, -1978018.0, -2139072.3, 20417.002, 0.001840737, 0.01016874, -1975470.0, 102471.914 
1.7366086e+3, 9.795635e+1, -1887838.0, -2044932.9, 20958.06, 0.0013593726, 0.008944539, -1885090.0, 94938.63 
1.73654e+3, 1.0794698e+2, -1805555.6, -1966573.6, 24223.936, 0.0012163182, 0.008168422, -1801990.3, 80130.26 
1.7364718e+3, 1.17937066e+2, -1715321.0, -1872235.6, 24457.64, 0.0010532321, 0.00666811, -1711597.3, 72620.375 
1.7364039e+3, 1.2792666e+2, -1632574.0, -1793712.1, 26740.465, 0.0011250091, 0.008532904, -1628252.5, 58067.074 
1.7363362e+3, 1.3791573e+2, -1541662.5, -1699198.3, 26779.291, 0.0008965786, 0.009852511, -1537234.8, 51192.02 
1.7362686e+3, 1.479042e+2, -1458854.0, -1621099.4, 27828.38, 0.00055786, 0.010214915, -1454213.6, 36326.1 
1.736201e+3, 1.5789212e+2, -1368088.1, -1526602.1, 27701.29, 0.00012223277, 0.009066606, -1363386.6, 29271.502 
1.7361335e+3, 1.6787949e+2, -1285657.0, -1448479.1, 27487.463, -0.000046829868, 0.007913671, -1281141.8, 13640.183 
1.7360659e+3, 1.7786627e+2, -1195330.0, -1354197.0, 27208.395, -0.00030702102, 0.005408294, -1190799.4, 6111.974 
1.7359982e+3, 1.878526e+2, -1112371.3, -1275405.5, 25823.387, 0.0004395152, 0.007878181, -1108378.8, -9333.365 
1.7359304e+3, 1.9783838e+2, -1021930.3, -1181023.0, 25451.912, 0.0017885246, 0.010686969, -1017957.7, -16772.992 
1.7358623e+3, 2.0782365e+2, -940336.56, -1101904.5, 22954.4, -0.00019216037, 0.010317215, -937138.6, -33809.64 
1.7357938e+3, 2.1780843e+2, -852348.06, -1008432.2, 22642.27, -0.0029806725, 0.007296387, -849129.9, -43651.555 
1.7357253e+3, 2.2779284e+2, -768968.1, -926803.1, 20256.14, -0.00061639963, 0.007702191, -766409.94, -58778.96 
1.7356563e+3, 2.3777683e+2, -679477.56, -833111.2, 19783.139, 0.0030353316, 0.0079413, -676971.0, -67183.03 
1.7355868e+3, 2.4776034e+2, -598745.06, -753344.3, 16002.458, 0.00025560748, 0.009187809, -597106.0, -85156.516 
1.735517e+3, 2.5774345e+2, -512540.7, -660398.06, 15223.431, -0.0043715965, 0.008873327, -510989.53, -96874.305 
1.7354468e+3, 2.677262e+2, -429450.53, -576747.44, 12318.336, -0.0016010401, 0.007535617, -428427.47, -112143.78 
1.7353763e+3, 2.777087e+2, -341339.16, -483214.1, 11702.901, 0.0036072265, 0.005018701, -340380.3, -121924.984 
1.7353052e+3, 2.8769094e+2, -261073.67, -401482.4, 7692.854, 0.00035677612, 0.01045604, -260653.45, -140023.78 
1.7352337e+3, 2.9767284e+2, -177020.27, -309983.2, 7148.356, -0.0059261844, 0.01588476, -176637.06, -153830.06 
1.7351617e+3, 3.0765745e+2, -98860.09, -183242.5, 3794.972, -0.004331506, 0.006538353, -98689.766, -98689.766 
1.7350896e+3, 3.176449e+2, -108051.516, -185343.55, 3160.1733, 0.0021714952, -0.0057489322, -107922.52, -107922.52 
1.7350169e+3, 3.276386e+2, -40263.375, -26623.953, -467.043, -0.0012729097, 0.016684234, -26607.979, -26607.979 
1.7470486e+3, 3.807716e+1, -2410827.3, -2573407.8, 4153.3877, 0.0021460347, 0.0077232895, -2410721.0, 156123.6 
1.7469755e+3, 4.8070535e+1, -2326099.8, -2486887.5, 11273.027, 0.002519479, 0.010202424, -2325313.3, 143596.5 
1.7469029e+3, 5.8063656e+1, -2238535.3, -2394109.0, 12259.384, 0.001967082, 0.008024336, -2237575.3, 133401.94 
1.7468312e+3, 6.805637e+1, -2155466.5, -2313325.5, 18742.934, 0.0024369177, 0.007936623, -2153271.8, 119776.77 
1.7467605e+3, 7.8048646e+1, -2065112.5, -2219097.3, 19802.848, 0.0024632188, 0.00844186, -2062606.5, 112517.6 
1.7466903e+3, 8.804044e+1, -1982614.9, -2139875.3, 24802.883, 0.0019012709, 0.009550319, -1978795.8, 98408.83 
1.7466207e+3, 9.803172e+1, -1892378.3, -2045606.5, 25362.451, 0.0009498747, 0.008912715, -1888289.3, 91000.79 
1.7465515e+3, 1.0802246e+2, -1808842.5, -1966918.1, 29018.889, 0.0009912074, 0.008620259, -1803683.8, 77697.05 
1.7464828e+3, 1.1801265e+2, -1716837.8, -1871772.3, 29480.258, 0.0013622667, 0.0074959, -1711418.0, 72058.95 
1.7464145e+3, 1.280023e+2, -1633313.4, -1793480.9, 31848.684, 0.0014071492, 0.008858291, -1627212.8, 58365.582 
1.7463464e+3, 1.379914e+2, -1541685.6, -1698617.9, 31857.395, 0.0009880429, 0.00950644, -1535465.1, 52220.164 
1.7462783e+3, 1.4797989e+2, -1458047.8, -1620620.1, 32865.36, 0.00056362763, 0.009866964, -1451655.1, 38142.95 
1.7462103e+3, 1.5796779e+2, -1366104.1, -1525559.1, 32563.865, 0.000021963104, 0.008974531, -1359710.4, 32206.172 
1.7461422e+3, 1.6795512e+2, -1283228.0, -1447784.1, 32173.469, 0.00017498627, 0.008233883, -1277161.3, 16879.533 
1.7460743e+3, 1.7794184e+2, -1192404.9, -1353159.6, 31954.604, 0.0005278048, 0.0061732368, -1186285.9, 9884.754 
1.746006e+3, 1.8792811e+2, -1109262.1, -1274483.9, 30692.492, 0.0003098682, 0.008270652, -1103744.8, -5439.402 
1.7459376e+3, 1.9791383e+2, -1018693.6, -1180044.3, 30411.842, 0.00025471707, 0.010409421, -1013151.9, -12706.481 
1.7458689e+3, 2.0789902e+2, -935427.8, -1100516.5, 27768.736, -0.000044795135, 0.010179406, -930882.1, -28291.56 
1.7458e+3, 2.1788366e+2, -845117.0, -1005976.1, 27528.598, -0.00036072757, 0.007711969, -840536.3, -35795.42 
1.7457306e+3, 2.2786795e+2, -762934.94, -925295.6, 24549.734, -0.00017003824, 0.007922553, -759304.06, -52409.16 
1.745661e+3, 2.378518e+2, -675578.7, -832557.25, 23443.307, 0.00007104759, 0.0076004835, -672152.4, -63099.06 
1.7455909e+3, 2.4783517e+2, -593294.25, -751857.56, 19710.492, -0.0006064642, 0.009124823, -590880.8, -79664.734 
1.7455202e+3, 2.5781813e+2, -504540.56, -657698.4, 19506.28, -0.0013742566, 0.00966925, -502095.25, -88712.26 
1.7454493e+3, 2.678008e+2, -422806.9, -574863.4, 16233.602, -0.0004907653, 0.007966015, -421093.13, -105540.31 
1.7453781e+3, 2.777832e+2, -337258.56, -482464.66, 15014.589, 0.00082457345, 0.004581279, -335722.25, -117996.414 
1.7453061e+3, 2.8776526e+2, -254987.06, -399531.78, 10959.093, -0.0009225279, 0.010637531, -254160.89, -134259.69 
1.7452337e+3, 2.977471e+2, -168117.53, -307039.5, 10809.392, -0.0034273267, 0.017311636, -167281.48, -145202.0 
1.7451608e+3, 3.0773145e+2, -92728.36, -182684.83, 6850.045, -0.002561064, 0.006101999, -92209.734, -92209.734 
1.745088e+3, 3.1771865e+2, -104621.65, -185007.06, 5343.857, 0.0004895027, -0.009481289, -104267.96, -104267.96 
1.7450143e+3, 3.277125e+2, -35431.074, -22390.607, 2919.166, -0.0026067377, 0.019485775, -21766.965, -21766.965 
1.757064e+3, 3.81524e+1, -2408934.0, -2567988.5, 1922.8981, -0.00041524845, 0.014103049, -2408910.8, 157196.58 
1.7569903e+3, 4.8145822e+1, -2325881.0, -2485263.5, 8721.323, 0.0048317504, -0.0021845838, -2325405.3, 142766.56 
1.756917e+3, 5.813925e+1, -2237807.3, -2391920.8, 9978.564, 0.0023256866, 0.012559986, -2237164.0, 133072.34 
1.7568447e+3, 6.8132156e+1, -2154707.3, -2310752.8, 17047.965, 0.0023197583, 0.012534247, -2152866.5, 119439.37 
1.7567733e+3, 7.812458e+1, -2064563.8, -2216823.5, 17962.291, 0.0019197776, 0.007230369, -2062473.5, 111906.55 
1.7567027e+3, 8.811651e+1, -1982400.8, -2138532.8, 23048.158, 0.001640374, 0.0075953435, -1979069.5, 97389.695 
1.7566326e+3, 9.810791e+1, -1891741.5, -2043931.4, 23802.72, 0.0011056982, 0.008264629, -1888105.6, 90437.81 
1.756563e+3, 1.080988e+2, -1808226.8, -1965256.6, 27766.625, 0.00093559903, 0.009768887, -1803461.5, 77171.15 
1.7564939e+3, 1.1808912e+2, -1716348.5, -1870402.0, 28177.33, 0.0008546478, 0.01017557, -1711356.5, 71371.08 
1.7564249e+3, 1.2807883e+2, -1633260.1, -1793132.3, 30480.047, 0.0010310207, 0.009519649, -1627646.1, 57182.285 
1.7563565e+3, 1.380679e+2, -1541493.3, -1698281.0, 30543.049, 0.0011653594, 0.0071999542, -1535753.4, 51182.016 
1.756288e+3, 1.4805642e+2, -1458260.5, -1620907.8, 31618.734, 0.00088541786, 0.007836998, -1452330.0, 36718.01 
1.7562196e+3, 1.5804431e+2, -1366378.1, -1525940.5, 31276.926, 0.000096215575, 0.008224, -1360466.4, 30700.223 
1.7561512e+3, 1.6803162e+2, -1283570.5, -1448642.8, 30608.486, 0.0004888629, 0.009901874, -1278077.8, 15213.304 
1.7560825e+3, 1.7801833e+2, -1192423.3, -1353761.9, 30419.035, 0.001548471, 0.010475436, -1186878.6, 8542.69 
1.7560138e+3, 1.8800452e+2, -1109323.3, -1274966.9, 29016.639, -0.0004100216, 0.009610562, -1104387.3, -6830.6787 
1.755945e+3, 1.9799015e+2, -1018850.1, -1180715.5, 28703.86, -0.0031967475, 0.006929012, -1013910.75, -14213.276 
1.7558758e+3, 2.0797527e+2, -935907.94, -1101791.5, 25918.072, 0.00010207837, 0.0080162035, -931952.75, -30109.514 
1.7558062e+3, 2.1795987e+2, -845858.44, -1007822.4, 25513.902, 0.0050237947, 0.009264512, -841934.4, -37940.195 
1.7557362e+3, 2.2794396e+2, -764323.8, -928476.9, 21976.76, 0.00064655236, 0.009520569, -761432.5, -55282.42 
1.7556658e+3, 2.3792757e+2, -676521.25, -834914.7, 21037.65, -0.0062600514, 0.0075741033, -673774.7, -65463.902 
1.755595e+3, 2.4791086e+2, -593380.2, -752392.6, 17419.885, -0.0022402566, 0.008463865, -591494.2, -81019.77 
1.755524e+3, 2.578938e+2, -504962.4, -658949.2, 16984.773, 0.0052193133, 0.009551216, -503111.22, -90469.46 
1.755452e+3, 2.6787633e+2, -424131.13, -577888.3, 13055.377, 0.0012412949, 0.009798149, -423030.5, -108217.44 
1.7553797e+3, 2.7785847e+2, -338215.38, -484819.84, 12011.376, -0.0065533733, 0.007800078, -337237.8, -120249.82 
1.7553072e+3, 2.8784043e+2, -254992.17, -400061.25, 8271.324, -0.0036499794, 0.008977622, -254522.1, -135357.45 
1.755234e+3, 2.9782212e+2, -168705.25, -308877.53, 7866.754, 0.0035896082, 0.0098530045, -168265.13, -146921.11 
1.7551604e+3, 3.078063e+2, -94974.5, -187952.34, 3328.8718, 0.0018848593, 0.008651236, -94855.47, -94855.47 
1.7550863e+3, 3.177933e+2, -105393.8, -187048.0, 2124.9092, -0.0044811117, 0.0052198158, -105338.54, -105338.54 
1.7550118e+3, 3.2778716e+2, -31471.184, -15316.798, -291.3883, -0.0055439523, 0.0121735465, -15311.544, -15311.544 
1.7670791e+3, 3.822826e+1, -2419121.5, -2569810.0, 4347.648, 0.0016359182, 0.01210074, -2418996.0, 146367.86 
1.7670044e+3, 4.8222014e+1, -2335467.3, -2486927.0, 11764.18, 0.004097079, 0.0011291442, -2334559.0, 132866.25 
1.7669305e+3, 5.8215666e+1, -2245513.8, -2392787.3, 13553.297, 0.0018976537, 0.011452925, -2244276.8, 125210.66 
1.7668578e+3, 6.820877e+1, -2162479.8, -2312590.0, 21021.342, 0.0019913318, 0.011496513, -2159591.5, 111963.445 
1.7667858e+3, 7.820137e+1, -2071889.0, -2218168.3, 21841.395, 0.0015539627, 0.0075528775, -2068697.4, 104930.05 
1.7667148e+3, 8.819349e+1, -1987673.5, -2138868.5, 27527.115, 0.0015838132, 0.008039713, -1982817.8, 92886.89 
1.7666441e+3, 9.8185074e+1, -1894898.8, -2043438.9, 28613.92, 0.0017184968, 0.008597552, -1889577.3, 88209.875 
1.7665742e+3, 1.0817607e+2, -1811013.6, -1965578.1, 32625.686, 0.0014785135, 0.009800836, -1804409.1, 75466.24 
1.7665046e+3, 1.1816648e+2, -1718509.4, -1870372.4, 32833.83, 0.0009947219, 0.009931646, -1711714.5, 70255.016 
1.7664354e+3, 1.2815623e+2, -1634375.8, -1793050.5, 35196.586, 0.0009798487, 0.009517106, -1626919.0, 57150.805 
1.7663665e+3, 1.3814537e+2, -1541197.1, -1697419.0, 35278.004, 0.0010880601, 0.0075854035, -1533600.1, 52576.223 
1.7662977e+3, 1.4813389e+2, -1457758.5, -1620297.9, 36388.297, 0.00083548, 0.008118024, -1449984.0, 38304.617 
1.7662288e+3, 1.5812182e+2, -1365834.5, -1525333.8, 36306.094, 0.00014890557, 0.008239889, -1357959.1, 32447.898 
1.76616e+3, 1.6810912e+2, -1281316.1, -1447733.8, 35895.89, 0.0004863035, 0.009951212, -1273903.6, 18627.986 
1.7660911e+3, 1.7809579e+2, -1187911.8, -1351854.8, 35769.766, 0.0014886435, 0.0106955245, -1180447.3, 14214.914 
1.7660218e+3, 1.880819e+2, -1104747.3, -1273711.0, 33846.535, 0.0000867271, 0.009683628, -1098219.4, -1421.0731 
1.7659526e+3, 1.9806743e+2, -1014340.6, -1179329.8, 33272.746, -0.0021377425, 0.006842203, -1007883.4, -8943.257 
1.7658827e+3, 2.0805244e+2, -930965.44, -1100508.9, 30330.113, -0.00018280678, 0.007894467, -925702.94, -24616.068 
1.7658128e+3, 2.1803692e+2, -840349.0, -1006201.0, 29708.85, 0.0032624076, 0.009240067, -835187.9, -31948.924 
1.765742e+3, 2.280209e+2, -758041.9, -926623.4, 26107.611, 0.00037654617, 0.009865334, -754091.25, -48695.258 
1.765671e+3, 2.3800439e+2, -669425.0, -832682.94, 25816.725, -0.0043221596, 0.008411476, -665439.75, -57881.86 
1.7655995e+3, 2.4798754e+2, -586264.0, -750443.75, 21865.688, -0.0014206934, 0.008513486, -583401.75, -73678.78 
1.7655277e+3, 2.579703e+2, -498041.5, -657101.06, 20573.62, 0.0038871623, 0.008652976, -495423.5, -83531.56 
1.765455e+3, 2.6795268e+2, -417316.06, -576154.9, 16111.71, 0.0003738185, 0.0103684375, -415698.28, -101633.63 
1.765382e+3, 2.779347e+2, -331349.72, -482964.94, 15592.986, -0.0061169066, 0.010316426, -329762.66, -113521.73 
1.7653085e+3, 2.879165e+2, -248234.42, -397875.72, 11841.238, -0.0032211414, 0.007998616, -247303.22, -128884.05 
1.7652346e+3, 2.9789805e+2, -162641.67, -307235.97, 10734.923, 0.0036316963, 0.004253, -161849.03, -141248.92 
1.76516e+3, 3.0788213e+2, -89337.82, -186776.3, 6635.3276, 0.0018323103, 0.010852345, -88888.05, -88888.05 
1.765085e+3, 3.1786907e+2, -99385.82, -185236.39, 6936.441, -0.0044613173, 0.017847061, -98828.99, -98828.99 
1.7650095e+3, 3.2786268e+2, -25885.82, -12829.941, 2286.3555, -0.0047368044, 0.004745993, -12441.132, -12441.132 
1.7770936e+3, 3.8304776e+1, -2418156.0, -2566675.5, 1897.2986, 0.005107251, 0.0074729663, -2418131.8, 146482.36 
1.7770183e+3, 4.829899e+1, -2333889.5, -2482434.0, 9944.884, 0.0016854078, 0.011816162, -2333226.8, 133444.05 
1.7769438e+3, 5.829282e+1, -2244193.8, -2388996.0, 11566.74, 0.0010619746, 0.0072087897, -2243275.8, 125455.58 
1.7768706e+3, 6.8286127e+1, -2162052.5, -2310712.0, 19333.346, 0.0012999959, 0.0075470787, -2159579.3, 111217.625 
1.776798e+3, 7.827893e+1, -2070930.3, -2215615.5, 20393.344, 0.00093894923, 0.008742493, -2068110.9, 104756.58 
1.7767265e+3, 8.827128e+1, -1986472.6, -2135781.0, 26460.723, 0.0014831137, 0.009821909, -1981921.9, 93020.516 
1.7766558e+3, 9.8263067e+1, -1894107.6, -2041079.8, 27374.455, 0.0022679742, 0.009353344, -1889174.5, 87848.266 
1.7765853e+3, 1.0825416e+2, -1811125.8, -1965055.1, 31394.273, 0.0021414591, 0.009081606, -1804969.0, 74141.1 
1.7765155e+3, 1.18244596e+2, -1718320.9, -1869623.9, 31774.434, 0.0014603361, 0.007917616, -1711919.0, 69284.88 
1.776446e+3, 1.2823443e+2, -1634295.6, -1792456.9, 34263.953, 0.0010522618, 0.009114505, -1627191.8, 56111.633 
1.7763765e+3, 1.3822365e+2, -1541084.5, -1696765.1, 34309.51, 0.00044062416, 0.00957605, -1533858.6, 51550.598 
1.7763074e+3, 1.4821224e+2, -1457549.3, -1619813.6, 35128.91, 0.000253534, 0.009883563, -1450270.6, 37250.418 
1.7762382e+3, 1.5820016e+2, -1365319.5, -1524758.8, 35186.805, 0.00006203124, 0.008768566, -1357899.4, 31739.893 
1.7761691e+3, 1.6818747e+2, -1281204.6, -1447689.8, 34931.36, 0.00017660418, 0.008995854, -1274172.5, 17591.213 
1.7760998e+3, 1.7817414e+2, -1188223.0, -1352399.8, 34575.246, 0.00045950434, 0.008318405, -1181238.6, 12655.7705 
1.7760302e+3, 1.8816015e+2, -1105637.6, -1275688.8, 32091.504, 0.001241544, 0.008967443, -1099782.9, -3751.5852 
1.7759602e+3, 1.9814557e+2, -1014887.3, -1181012.6, 31657.47, 0.0018936313, 0.0090413485, -1009059.0, -10884.719 
1.7758898e+3, 2.0813046e+2, -931626.2, -1102236.3, 28673.184, -0.0009839718, 0.009119139, -926936.2, -26613.887 
1.7758194e+3, 2.1811481e+2, -840910.6, -1007592.0, 27940.006, -0.003917255, 0.007966632, -836351.9, -33876.07 
1.7757481e+3, 2.2809872e+2, -758201.4, -927276.0, 23791.387, -0.00065120135, 0.0091892015, -754917.3, -50283.953 
1.7756765e+3, 2.3808217e+2, -669855.44, -834094.9, 23519.172, 0.0039606034, 0.0098728845, -666553.9, -59758.242 
1.7756043e+3, 2.4806513e+2, -587778.44, -753875.7, 19475.459, 0.0009953401, 0.009236918, -585525.44, -76562.77 
1.7755318e+3, 2.5804764e+2, -499415.6, -660103.8, 18026.48, -0.0040794876, 0.007102673, -497418.16, -86284.04 
1.7754583e+3, 2.6802987e+2, -417855.38, -577637.3, 12929.241, -0.0024199774, 0.009728833, -416815.94, -103507.78 
1.7753844e+3, 2.7801177e+2, -331926.34, -484741.16, 12573.628, 0.0010407829, 0.012015974, -330898.7, -115413.32 
1.77531e+3, 2.879934e+2, -249284.34, -400393.53, 8985.419, -0.0005154825, 0.007802052, -248751.92, -131086.53 
1.7752354e+3, 2.9797474e+2, -163325.86, -308989.97, 7599.687, -0.0028925166, 0.0009024821, -162930.44, -143082.1 
1.7751598e+3, 3.079589e+2, -88558.516, -185976.14, 3086.771, -0.0022505533, 0.013102979, -88460.805, -88460.805 
1.7750838e+3, 3.1794593e+2, -99581.195, -186641.81, 3491.5615, -0.0008693398, 0.02841201, -99441.39, -99441.39 
1.7750075e+3, 3.2793894e+2, -29595.035, -21007.11, -1268.9187, -0.0017533079, -0.0030314052, -20823.541, -20823.541 
1.7871076e+3, 3.8382146e+1, -2429928.3, -2569105.5, 4315.8906, 0.0051120953, 0.0066702827, -2429794.8, 134061.28 
1.7870316e+3, 4.8376673e+1, -2345371.3, -2485124.0, 13221.077, 0.00025953687, 0.014856741, -2344131.5, 121778.06 
1.7869566e+3, 5.837072e+1, -2254594.8, -2390845.0, 14571.2295, 0.0018947389, 0.006351469, -2253053.8, 114914.055 
1.7868829e+3, 6.836431e+1, -2170122.5, -2311602.3, 23101.275, 0.002260882, 0.0071231327, -2166446.0, 103584.72 
1.78681e+3, 7.835739e+1, -2077023.4, -2215903.0, 24693.795, 0.0017071393, 0.010141445, -2072763.3, 99335.22 
1.7867382e+3, 8.834988e+1, -1992547.8, -2137415.5, 30676.121, 0.0016697368, 0.010513002, -1986319.8, 87852.32 
1.786667e+3, 9.834177e+1, -1899449.6, -2041999.0, 31102.045, 0.0017155791, 0.008618563, -1892959.1, 83292.48 
1.7865963e+3, 1.0833301e+2, -1814830.6, -1965016.6, 35573.18, 0.0016802291, 0.008531213, -1806830.9, 71506.54 
1.7865261e+3, 1.1832361e+2, -1720440.5, -1868846.1, 36434.113, 0.0014398939, 0.008119579, -1711978.4, 68451.24 
1.7864563e+3, 1.2831357e+2, -1635842.4, -1792044.9, 39220.652, 0.0011469633, 0.009393949, -1626547.6, 55980.363 
1.7863867e+3, 1.3830286e+2, -1541954.8, -1696162.9, 39496.207, 0.0004264391, 0.0097404905, -1532427.4, 52205.496 
1.7863171e+3, 1.4829147e+2, -1456676.9, -1619286.4, 40244.695, 0.0005765393, 0.010153428, -1447261.8, 39482.81 
1.7862476e+3, 1.582794e+2, -1361988.5, -1522907.3, 40065.84, 0.0010147765, 0.009233568, -1352564.6, 36298.055 
1.786178e+3, 1.682667e+2, -1278258.6, -1446237.5, 39480.33, 0.00037216968, 0.008809834, -1269442.3, 21545.035 
1.7861085e+3, 1.7825332e+2, -1186089.5, -1351355.4, 39093.883, -0.00061515084, 0.007498965, -1177308.4, 15809.818 
1.7860384e+3, 1.8823932e+2, -1101820.9, -1274407.5, 36829.926, 0.00059551117, 0.008754064, -1094290.0, 965.58374 
1.7859681e+3, 1.9822468e+2, -1008615.7, -1178562.8, 36786.67, 0.0026491205, 0.009860733, -1000994.56, -3595.5786 
1.7858975e+3, 2.0820948e+2, -925331.75, -1100161.9, 33648.043, -0.00022209737, 0.009936185, -919079.4, -19531.441 
1.7858262e+3, 2.1819371e+2, -835031.5, -1005731.7, 33030.85, -0.003990468, 0.008247206, -828862.9, -27160.404 
1.7857546e+3, 2.281775e+2, -751210.3, -925365.1, 28265.012, -0.0007908373, 0.008950789, -746737.8, -42876.383 
1.7856823e+3, 2.381608e+2, -661089.94, -831244.75, 27294.285, 0.0041578193, 0.009495968, -656818.94, -50793.78 
1.7856094e+3, 2.481436e+2, -580142.06, -751655.75, 23030.13, 0.0006302084, 0.009412477, -577103.5, -68909.92 
1.785536e+3, 2.5812596e+2, -493742.63, -658838.56, 22242.744, -0.0053509683, 0.0076347156, -490798.44, -80431.945 
1.7854619e+3, 2.6810807e+2, -410241.1, -575285.6, 17093.623, -0.0023557711, 0.009434763, -408489.3, -95947.305 
1.7853872e+3, 2.7808982e+2, -321908.25, -481410.1, 16371.654, 0.0033259606, 0.011145779, -320245.16, -105524.5 
1.785312e+3, 2.8807127e+2, -242109.28, -398889.03, 12228.246, 0.00013992784, 0.00902836, -241161.25, -124258.945 
1.7852363e+3, 2.9805246e+2, -159809.58, -308667.34, 10916.483, -0.0052579837, 0.004504267, -159013.28, -139926.42 
1.7851599e+3, 3.080365e+2, -82352.516, -182897.67, 6368.2314, -0.004028904, 0.011787159, -81950.78, -81950.78 
1.7850831e+3, 3.1802344e+2, -91255.48, -183780.81, 6226.0947, -0.0000010752752, 0.021171847, -90838.4, -90838.4 
1.785006e+3, 3.2801625e+2, -23589.408, -22308.756, 2234.9626, 0.0008015912, 0.0012985447, -20624.2, -20624.2 
1.797121e+3, 3.8460225e+1, -2428500.8, -2564600.0, 1716.5797, 0.0030363502, 0.0072619994, -2428479.3, 134611.58 
1.7970444e+3, 4.8454997e+1, -2344261.5, -2482082.3, 11623.793, -0.0007580129, 0.013625782, -2343288.0, 121854.03 
1.7969692e+3, 5.844929e+1, -2253131.8, -2387152.8, 13198.266, 0.003086142, 0.007320772, -2251844.5, 115353.445 
1.796895e+3, 6.8443197e+1, -2168466.5, -2307156.3, 22064.396, 0.0035992977, 0.0085571, -2165040.8, 104216.83 
1.7968218e+3, 7.843659e+1, -2075946.3, -2212697.8, 23453.938, 0.0029586926, 0.011321394, -2072035.5, 99286.82 
1.7967495e+3, 8.842918e+1, -1992764.8, -2136970.5, 29639.115, 0.0019186605, 0.010345912, -1986910.6, 86484.33 
1.796678e+3, 9.8421127e+1, -1899008.9, -2040516.1, 30332.854, 0.00030708537, 0.007015116, -1892781.0, 82692.94 
1.7966071e+3, 1.08412564e+2, -1813769.3, -1962203.9, 34976.38, 0.000347882, 0.008175969, -1805940.5, 71617.34 
1.7965366e+3, 1.1840338e+2, -1719524.5, -1866326.4, 35699.285, 0.0010021763, 0.009521909, -1711303.5, 68344.25 
1.7964666e+3, 1.2839347e+2, -1635344.6, -1790489.4, 38341.99, 0.0011361258, 0.010028743, -1626386.3, 55358.613 
1.7963967e+3, 1.3838287e+2, -1541488.9, -1695065.1, 38729.75, 0.00053147395, 0.008877686, -1532274.6, 51574.16 
1.796327e+3, 1.483715e+2, -1457018.1, -1619764.6, 39625.47, 0.0012952778, 0.009568825, -1447882.9, 38077.29 
1.7962572e+3, 1.5835942e+2, -1362277.5, -1523227.5, 39363.633, 0.0024634534, 0.009656034, -1353166.1, 34912.465 
1.7961873e+3, 1.683467e+2, -1278506.6, -1446685.5, 38250.97, 0.00069792586, 0.009217478, -1270215.5, 19987.793 
1.7961173e+3, 1.7833331e+2, -1185920.3, -1351348.1, 38030.52, -0.0018802085, 0.0077034337, -1177596.1, 14738.294 
1.796047e+3, 1.8831931e+2, -1101650.9, -1274401.0, 35815.363, -0.0012458243, 0.008838391, -1094519.8, -48.079197 
1.7959763e+3, 1.9830465e+2, -1008681.94, -1178946.9, 35582.047, 0.0009026578, 0.009675508, -1001545.1, -4929.8813 
1.7959051e+3, 2.0828941e+2, -925853.56, -1101342.4, 31776.598, 0.0013998505, 0.010384192, -920276.8, -21512.117 
1.7958336e+3, 2.1827357e+2, -835641.8, -1007372.0, 31264.385, 0.000952737, 0.009532909, -830127.06, -29206.996 
1.7957613e+3, 2.2825713e+2, -752644.6, -928594.06, 26449.848, -0.0004960368, 0.008996977, -748754.5, -45673.6 
1.7956884e+3, 2.382402e+2, -662249.94, -833818.06, 25235.219, -0.0020332434, 0.007792608, -658615.2, -53368.246 
1.7956148e+3, 2.4822292e+2, -580474.44, -752643.44, 20056.174, -0.0018078829, 0.009234305, -578168.94, -70752.64 
1.7955406e+3, 2.5820524e+2, -494091.25, -660112.6, 19526.021, -0.001197573, 0.009896797, -491825.7, -82235.945 
1.7954658e+3, 2.6818717e+2, -411185.0, -577549.5, 14642.644, -0.00024732194, 0.009624223, -409906.03, -98139.26 
1.7953904e+3, 2.7816874e+2, -323021.8, -483941.4, 13469.934, 0.0010639089, 0.00843194, -321902.1, -107954.76 
1.7953143e+3, 2.8815004e+2, -243220.36, -401591.47, 8183.0234, -0.0011561367, 0.011770799, -242798.66, -126668.29 
1.7952374e+3, 2.981311e+2, -160537.03, -310706.7, 7360.575, -0.0044796793, 0.014326022, -160177.13, -141860.98 
1.7951603e+3, 3.081149e+2, -82385.96, -183555.08, 3623.8691, -0.0038193741, 0.0070865387, -82256.32, -82256.32 
1.7950827e+3, 3.181016e+2, -91563.48, -185272.7, 2901.7954, -0.0003189954, -0.0022945984, -91473.71, -91473.71 
1.7950045e+3, 3.2809466e+2, -24144.66, -24361.834, -1115.1831, 0.0010886996, 0.018376878, -23132.79, -23132.79 
1.8071339e+3, 3.853893e+1, -2442797.8, -2567933.3, 3966.6396, 0.0021667972, 0.009966038, -2442672.0, 119647.42 
1.8070568e+3, 4.8533955e+1, -2355978.5, -2484282.0, 14394.15, 0.0013902484, 0.008774338, -2354383.5, 109984.695 
1.8069811e+3, 5.852864e+1, -2263594.3, -2389000.5, 16352.316, 0.003147806, 0.010377167, -2261497.0, 104923.195 
1.8069065e+3, 6.852276e+1, -2178489.5, -2309950.8, 25315.89, 0.0031337265, 0.010150902, -2173783.0, 94695.01 
1.8068331e+3, 7.85163e+1, -2084539.6, -2214316.5, 26200.656, 0.0022941923, 0.0089084385, -2079449.5, 91091.7 
1.8067604e+3, 8.8509154e+1, -1999220.5, -2137119.3, 33287.69, 0.001972036, 0.0093221, -1991605.6, 81005.63 
1.8066888e+3, 9.850137e+1, -1903688.6, -2040152.9, 34894.87, 0.0011813091, 0.008888293, -1895283.5, 79404.01 
1.8066175e+3, 1.0849296e+2, -1818052.9, -1962834.5, 39543.11, 0.0007949155, 0.009566296, -1807956.9, 68813.055 
1.806547e+3, 1.18483886e+2, -1722864.3, -1866391.6, 39915.855, 0.0008857294, 0.009448671, -1712510.3, 66348.56 
1.8064767e+3, 1.2847409e+2, -1637092.1, -1790155.0, 42466.063, 0.0012321331, 0.00968673, -1626099.8, 54855.16 
1.8064067e+3, 1.3846357e+2, -1541307.9, -1693577.1, 42803.504, 0.0010748657, 0.008803698, -1530100.5, 52957.438 
1.8063366e+3, 1.4845231e+2, -1456391.0, -1618242.8, 44122.457, 0.0010889877, 0.0091831125, -1445144.3, 40024.08 
1.8062668e+3, 1.5844032e+2, -1361611.3, -1521878.3, 44490.906, 0.0013928824, 0.009047975, -1350088.8, 37196.99 
1.8061967e+3, 1.6842763e+2, -1276313.4, -1445612.6, 43460.035, 0.00070797245, 0.009647691, -1265808.8, 23601.361 
1.8061264e+3, 1.7841424e+2, -1181170.1, -1348979.6, 43411.785, -0.00042546514, 0.009360427, -1170604.9, 20936.533 
1.8060556e+3, 1.8840021e+2, -1096407.1, -1272100.1, 40852.94, -0.0006516679, 0.009576108, -1087372.4, 6306.514 
1.8059847e+3, 1.9838549e+2, -1003276.5, -1176517.9, 40294.0, -0.000014264307, 0.008764031, -994363.2, 1459.8195 
1.8059132e+3, 2.0837018e+2, -919465.94, -1099109.6, 36074.203, 0.00088894373, 0.009502767, -912492.6, -14519.477 
1.8058409e+3, 2.1835425e+2, -827779.5, -1004409.56, 35617.684, 0.0014934771, 0.009573561, -820867.6, -20738.273 
1.8057682e+3, 2.2833772e+2, -745045.0, -926124.2, 30981.068, -0.0003951197, 0.009469605, -739891.06, -37599.88 
1.8056947e+3, 2.3832065e+2, -655128.1, -831596.8, 30255.572, -0.002737923, 0.008341578, -650084.94, -45626.375 
1.8056205e+3, 2.4830322e+2, -571847.9, -750001.4, 24285.846, -0.0016147046, 0.009705085, -568596.6, -61967.254 
1.8055457e+3, 2.5828537e+2, -483577.03, -656478.9, 23309.277, 0.00044533468, 0.01047629, -480489.78, -71685.5 
1.80547e+3, 2.6826712e+2, -402508.38, -575141.94, 18077.748, -0.00034263608, 0.009283994, -400635.66, -89652.62 
1.8053938e+3, 2.7824855e+2, -316995.72, -482586.2, 16774.098, -0.0016336247, 0.006996371, -315313.63, -102148.26 
1.8053167e+3, 2.8822976e+2, -235506.98, -398714.47, 11413.022, -0.0016948963, 0.012060443, -234712.75, -119363.37 
1.805239e+3, 2.982107e+2, -150913.03, -307593.1, 11343.024, -0.0015197396, 0.016942024, -150096.11, -132560.11 
1.805161e+3, 3.0819425e+2, -76270.02, -183125.4, 6964.4336, -0.0025419123, 0.006287119, -75818.016, -75818.016 
1.8050823e+3, 3.1818068e+2, -88809.71, -185196.97, 4852.67, -0.0020797215, -0.00740573, -88566.016, -88566.016 
1.8050031e+3, 3.2817394e+2, -18918.73, -19424.955, 2457.5002, -0.00015034826, 0.02214008, -16701.342, -16701.342 
1.8171461e+3, 3.8618168e+1, -2441169.5, -2563254.5, 2841.4526, 0.0013637186, 0.012456768, -2441103.3, 120439.56 
1.8170688e+3, 4.861347e+1, -2354155.8, -2479405.5, 13073.944, 0.004875576, 0.00285526, -2352805.5, 110783.31 
1.8169926e+3, 5.86086e+1, -2262004.5, -2385081.3, 15023.245, 0.0021314668, 0.01397932, -2260197.3, 105439.49 
1.8169177e+3, 6.8602866e+1, -2178077.8, -2308353.8, 24537.85, 0.0012965959, 0.011360914, -2173609.3, 94083.68 
1.816844e+3, 7.8596497e+1, -2083379.1, -2211253.5, 25652.799, 0.00047804537, 0.004609938, -2078424.9, 91330.375 
1.8167712e+3, 8.858972e+1, -1997160.6, -2132018.8, 32873.137, 0.0017682044, 0.007896272, -1989574.1, 82247.516 
1.8166994e+3, 9.8582345e+1, -1902312.0, -2036470.3, 34259.547, 0.0029702773, 0.012468099, -1894069.6, 79824.42 
1.816628e+3, 1.0857406e+2, -1818002.4, -1961925.8, 38933.543, 0.0020171078, 0.011699244, -1808145.3, 67829.875 
1.8165572e+3, 1.1856504e+2, -1722563.4, -1865247.0, 39530.7, 0.0006024223, 0.0085258065, -1712343.4, 65720.164 
1.8164867e+3, 1.2855533e+2, -1636913.6, -1789189.4, 42207.535, 0.0010119512, 0.008927791, -1625997.1, 54161.56 
1.8164165e+3, 1.3854492e+2, -1540727.4, -1691913.0, 42532.707, 0.001723221, 0.009175215, -1529583.3, 52677.55 
1.8163465e+3, 1.485338e+2, -1455384.6, -1615789.8, 43465.688, 0.00032930623, 0.009036977, -1444363.8, 40005.758 
1.8162763e+3, 1.58522e+2, -1360771.0, -1520021.3, 43854.83, -0.0014055268, 0.008004827, -1349492.9, 36992.523 
1.816206e+3, 1.6850936e+2, -1276295.4, -1445546.6, 42820.992, 0.00043794428, 0.010232072, -1266078.4, 22530.74 
1.8161355e+3, 1.7849602e+2, -1181190.4, -1349086.3, 42767.83, 0.0025851638, 0.011902498, -1170924.0, 19816.088 
1.8160646e+3, 1.8848191e+2, -1096908.0, -1273028.8, 39810.45, 0.001299266, 0.010644346, -1088327.3, 4550.7773 
1.8159932e+3, 1.9846714e+2, -1003640.56, -1177357.5, 39264.37, -0.0005665692, 0.0073137246, -995178.06, -155.08827 
1.8159212e+3, 2.0845173e+2, -919965.2, -1100399.1, 34679.105, -0.0011497982, 0.007691893, -913529.5, -16355.656 
1.8158486e+3, 2.1843573e+2, -828028.4, -1005318.0, 34173.586, -0.0013026443, 0.008566195, -821669.3, -22338.52 
1.8157753e+3, 2.2841917e+2, -745253.1, -926751.4, 28987.16, -0.0005250249, 0.010073401, -740736.0, -39243.023 
1.8157014e+3, 2.3840207e+2, -655634.2, -832904.7, 28260.771, 0.00058339536, 0.010367712, -651237.8, -47577.113 
1.8156266e+3, 2.4838445e+2, -573238.3, -753133.44, 21850.074, 0.00035400575, 0.010609922, -570622.44, -64789.09 
1.8155509e+3, 2.5836638e+2, -484778.16, -659325.56, 20748.111, -0.0002365698, 0.009937694, -482345.75, -74335.26 
1.8154745e+3, 2.6834795e+2, -403578.97, -577531.94, 14808.748, -0.0024824673, 0.0086566815, -402327.3, -92136.24 
1.8153974e+3, 2.783292e+2, -317640.34, -484231.53, 13557.812, -0.004790051, 0.0064490847, -316544.16, -104169.22 
1.8153195e+3, 2.8831032e+2, -235285.67, -398703.88, 8028.4824, -0.0013259847, 0.010297798, -234892.19, -120332.65 
1.8152408e+3, 2.9829127e+2, -151669.72, -309700.75, 7805.8794, 0.0035172577, 0.013554412, -151285.1, -134538.5 
1.8151617e+3, 3.0827454e+2, -78839.66, -189035.06, 3058.461, -0.0009647084, 0.0096614435, -78754.836, -78754.836 
1.815082e+3, 3.182607e+2, -89380.77, -186749.34, 1052.2001, -0.0071954634, 0.0043037888, -89369.41, -89369.41 
1.815002e+3, 3.28254e+2, -14974.766, -11575.684, -959.25165, -0.0013139729, 0.012369667, -11323.66, -11323.66 
1.8271576e+3, 3.86978e+1, -2456724.8, -2565853.8, 4317.8916, 0.0022590077, 0.010789602, -2456554.3, 104208.31 
1.82708e+3, 4.8693493e+1, -2368826.0, -2483386.0, 14804.603, 0.004030411, 0.005326074, -2366943.8, 95860.984 
1.8270035e+3, 5.8688855e+1, -2273999.0, -2387329.3, 16542.336, 0.0018025724, 0.010992637, -2271633.8, 93216.45 
1.8269284e+3, 6.868348e+1, -2188068.5, -2309609.0, 27070.756, 0.0015537969, 0.010609983, -2182311.8, 84591.15 
1.8268546e+3, 7.867747e+1, -2092036.9, -2212191.8, 29057.082, 0.0012956441, 0.007737758, -2085378.9, 83582.97 
1.8267816e+3, 8.867089e+1, -2005202.1, -2133793.0, 36053.72, 0.0017808499, 0.00917245, -1995783.5, 75242.75 
1.8267097e+3, 9.8663676e+1, -1909042.8, -2037256.1, 36769.445, 0.0022276905, 0.010737003, -1899246.4, 73850.555 
1.8266381e+3, 1.08655624e+2, -1822776.4, -1961681.8, 42014.69, 0.0019634564, 0.010485156, -1811056.9, 64118.94 
1.8265672e+3, 1.1864684e+2, -1725464.3, -1864149.5, 43370.742, 0.001362408, 0.008916449, -1713018.0, 64243.977 
1.8264966e+3, 1.2863731e+2, -1639183.3, -1788352.0, 46591.33, 0.0010612728, 0.0094647305, -1625826.9, 53528.402 
1.8264264e+3, 1.3862707e+2, -1542290.3, -1690880.4, 47416.64, 0.0009942194, 0.009529639, -1528448.5, 53007.31 
1.826356e+3, 1.4861608e+2, -1455689.9, -1614820.4, 48058.723, 0.00042774386, 0.009701997, -1442302.1, 41261.4 
1.8262859e+3, 1.5860434e+2, -1358919.0, -1517779.8, 48089.805, -0.00056304235, 0.008887304, -1345495.6, 40182.883 
1.8262154e+3, 1.685918e+2, -1273254.1, -1442980.5, 47216.496, 0.00064448063, 0.00987093, -1261003.1, 26798.143 
1.8261448e+3, 1.7857851e+2, -1177288.1, -1346116.5, 47492.813, 0.0023140803, 0.010106346, -1164845.0, 25086.498 
1.8260737e+3, 1.8856446e+2, -1092446.1, -1270595.0, 44624.35, 0.001101786, 0.010147118, -1081893.3, 10175.834 
1.826002e+3, 1.9854972e+2, -998219.94, -1174502.0, 44585.926, -0.00079433335, 0.008996528, -987584.75, 6629.0054 
1.8259297e+3, 2.0853429e+2, -913207.94, -1097618.8, 39970.086, -0.0011251315, 0.008966512, -904917.4, -8552.44 
1.8258567e+3, 2.1851818e+2, -819532.1, -1001640.7, 39514.7, -0.000714221, 0.008723815, -811327.7, -12805.025 
1.825783e+3, 2.2850156e+2, -736305.1, -923326.9, 33493.254, -0.00033268685, 0.010007693, -730487.9, -29802.215 
1.8257083e+3, 2.3848434e+2, -646591.56, -829415.56, 32629.94, 0.00025799617, 0.010195965, -640942.4, -38088.055 
1.8256329e+3, 2.4846661e+2, -563866.3, -750092.25, 26284.553, 0.0002260505, 0.010080254, -560227.56, -55199.37 
1.8255566e+3, 2.584484e+2, -474893.84, -655975.25, 25473.396, -0.00015861033, 0.009345192, -471378.63, -64171.86 
1.8254794e+3, 2.6842982e+2, -394494.72, -574863.9, 18941.387, -0.0024562483, 0.009668017, -392527.06, -83138.32 
1.8254013e+3, 2.784109e+2, -309559.8, -481824.88, 17937.035, -0.0047295555, 0.008917903, -307711.97, -96137.88 
1.8253225e+3, 2.8839192e+2, -226479.97, -395761.0, 11858.78, -0.0012713894, 0.009109008, -225653.25, -111892.9 
1.8252431e+3, 2.9837266e+2, -142546.4, -306794.4, 10683.671, 0.0033534823, 0.008208951, -141854.39, -125905.34 
1.8251628e+3, 3.083558e+2, -72242.586, -187578.7, 6385.4995, -0.0008043649, 0.011384952, -71890.13, -71890.13 
1.825082e+3, 3.1834188e+2, -85041.32, -185678.8, 6068.004, -0.0060400944, 0.014380448, -84676.766, -84676.766 
1.825001e+3, 3.2833502e+2, -10270.998, -8922.185, 2006.7695, -0.0018385944, 0.0055370545, -7479.5303, -7479.5303 
1.8371686e+3, 3.8777792e+1, -2453901.0, -2558969.8, 3210.9795, 0.003357178, 0.008553117, -2453803.0, 106175.5 
1.8370907e+3, 4.8773912e+1, -2367605.3, -2479744.5, 14240.713, 0.0012533538, 0.01116324, -2365825.0, 96191.586 
1.8370141e+3, 5.8769435e+1, -2272152.5, -2382668.8, 16095.342, 0.0017723973, 0.004796009, -2269856.0, 94204.41 
1.8369389e+3, 6.8764514e+1, -2185679.5, -2303674.3, 26735.477, 0.00268481, 0.009030948, -2179904.5, 86204.4 
1.8368648e+3, 7.875898e+1, -2090377.6, -2207854.5, 28613.71, 0.0031096516, 0.014423575, -2083778.9, 84384.13 
1.8367918e+3, 8.875255e+1, -2004992.6, -2132429.5, 35857.86, 0.0017371564, 0.011509451, -1995596.0, 74630.07 
1.8367195e+3, 9.874538e+1, -1908119.3, -2034658.4, 36786.496, -0.00013326036, 0.005939324, -1898202.1, 74094.0 
1.836648e+3, 1.0873763e+2, -1821109.3, -1957454.3, 42099.3, 0.00091709127, 0.007518528, -1809157.9, 65214.34 
1.836577e+3, 1.1872919e+2, -1723909.3, -1860203.9, 43317.63, 0.002640208, 0.009981116, -1711307.1, 65147.855 
1.8365064e+3, 1.2871993e+2, -1637968.8, -1785207.1, 46332.15, 0.0013575626, 0.01063661, -1624602.5, 53943.19 
1.8364361e+3, 1.3870987e+2, -1541357.6, -1688518.8, 47186.53, -0.0006885444, 0.009812101, -1527527.3, 53116.957 
1.8363658e+3, 1.4869899e+2, -1455731.8, -1614331.4, 47885.742, 0.00075439474, 0.010803935, -1442395.1, 40355.72 
1.8362954e+3, 1.5868732e+2, -1358532.4, -1516589.6, 48019.215, 0.0021264246, 0.010936558, -1345087.4, 39777.88 
1.8362248e+3, 1.686749e+2, -1272485.8, -1441175.4, 46903.51, 0.00092074246, 0.009040949, -1260321.6, 26665.443 
1.836154e+3, 1.786617e+2, -1176595.0, -1344460.8, 47103.2, -0.00034211797, 0.0056749033, -1164281.1, 24835.158 
1.8360828e+3, 1.8864778e+2, -1092109.0, -1269662.8, 43771.42, -0.0005926831, 0.008763039, -1081904.8, 9347.922 
1.8360108e+3, 1.9863315e+2, -997758.25, -1173742.1, 43864.69, -0.00087304367, 0.01260184, -987430.8, 5965.3594 
1.8359384e+3, 2.086177e+2, -913445.25, -1098161.9, 38988.91, 0.00022158552, 0.012129112, -905552.94, -10005.508 
1.8358651e+3, 2.1860157e+2, -819955.25, -1002512.3, 38405.082, 0.0019451637, 0.009599152, -812204.9, -14499.201 
1.8357907e+3, 2.2858481e+2, -737111.56, -925182.44, 31507.316, -0.00018630692, 0.009492494, -731973.56, -32103.795 
1.8357158e+3, 2.3856747e+2, -647032.9, -830756.94, 30751.36, -0.0030068276, 0.008691093, -642022.4, -39982.668 
1.8356396e+3, 2.4854967e+2, -564243.0, -750977.75, 24010.855, -0.0016462175, 0.008675691, -561205.06, -56990.78 
1.8355627e+3, 2.5853136e+2, -475411.6, -657250.75, 22882.69, 0.00041854786, 0.0086504165, -472576.25, -66182.72 
1.8354848e+3, 2.6851273e+2, -395252.63, -576864.6, 15319.341, -0.0006271261, 0.012185454, -393969.47, -85393.05 
1.8354057e+3, 2.7849367e+2, -310385.38, -484188.9, 14622.224, -0.002303678, 0.014342393, -309163.78, -98400.8 
1.8353261e+3, 2.8847438e+2, -227811.83, -398953.06, 8660.549, -0.0021620884, 0.008443857, -227374.69, -114422.79 
1.8352456e+3, 2.9845485e+2, -143328.45, -308609.25, 7042.2383, -0.0016423826, 0.0007589415, -143028.94, -127885.67 
1.8351641e+3, 3.0843812e+2, -71582.92, -186728.31, 1669.7526, -0.0012950381, 0.0118611, -71558.71, -71558.71 
1.8350823e+3, 3.1842428e+2, -85660.86, -187571.48, 1810.0198, 0.00065642485, 0.024467189, -85628.73, -85628.73 
1.835e+3, 3.2841688e+2, -13736.954, -16040.239, -1496.8118, -0.004236569, 0.0011431553, -13000.019, -13000.019 
1.8471786e+3, 3.8858086e+1, -2471126.3, -2563948.3, 3518.4263, 0.0037777177, 0.008840197, -2470993.0, 88198.664 
1.8471007e+3, 4.88546e+1, -2382623.0, -2482409.5, 15703.894, 0.00084842776, 0.012416752, -2380210.0, 81015.97 
1.847024e+3, 5.885055e+1, -2285386.8, -2384814.8, 18047.426, 0.0025438261, 0.00699783, -2282212.3, 81053.26 
1.8469486e+3, 6.884592e+1, -2197782.3, -2306421.0, 28538.908, 0.0030395596, 0.009164258, -2190741.5, 74569.37 
1.8468744e+3, 7.884066e+1, -2100621.0, -2209474.0, 29949.164, 0.0024541148, 0.012325145, -2092925.1, 74437.34 
1.8468013e+3, 8.883454e+1, -2013306.8, -2133193.0, 37986.36, 0.0017701722, 0.010961346, -2002284.1, 67138.4 
1.846729e+3, 9.882769e+1, -1914720.8, -2034709.5, 39739.387, 0.0009724084, 0.007584524, -1902753.0, 68736.61 
1.8466575e+3, 1.08820185e+2, -1826850.1, -1957545.5, 45148.234, 0.0010200206, 0.008844764, -1812770.6, 60792.547 
1.8465866e+3, 1.18811965e+2, -1728733.3, -1859826.4, 46188.2, 0.0015197397, 0.010493807, -1714094.4, 61549.29 
1.846516e+3, 1.2880291e+2, -1641438.4, -1784351.9, 49211.773, 0.00139044, 0.010599008, -1626131.8, 51600.547 
1.8464456e+3, 1.387931e+2, -1543072.8, -1686571.9, 50147.168, 0.0007814221, 0.00927681, -1527285.3, 52543.363 
1.8463753e+3, 1.4878245e+2, -1456186.3, -1612078.8, 51652.426, 0.0013136384, 0.010128801, -1440625.4, 41307.824 
1.846305e+3, 1.5877098e+2, -1357928.9, -1513848.9, 52740.145, 0.0016465681, 0.010503626, -1341765.1, 42280.344 
1.8462344e+3, 1.6875874e+2, -1271047.6, -1438581.4, 51662.402, 0.00025711773, 0.010022205, -1256397.6, 29767.861 
1.8461634e+3, 1.787457e+2, -1173788.9, -1341191.4, 52004.367, -0.00099072, 0.00823958, -1158949.0, 29344.088 
1.846092e+3, 1.887319e+2, -1087544.8, -1266292.1, 48637.42, -0.0002547168, 0.009368452, -1075167.5, 15261.069 
1.84602e+3, 1.987173e+2, -990918.3, -1169182.5, 48852.617, 0.0006177771, 0.010762715, -978408.3, 14163.14 
1.8459472e+3, 2.0870195e+2, -906053.3, -1093971.9, 43884.95, 0.000496394, 0.011369944, -896309.94, -1588.0107 
1.8458736e+3, 2.1868584e+2, -812357.44, -998406.06, 43744.008, 0.0007996066, 0.010367473, -802585.56, -5705.8257 
1.8457991e+3, 2.2866906e+2, -728432.7, -921421.1, 36744.668, -0.0003648625, 0.0099638, -721673.3, -22629.217 
1.8457234e+3, 2.3865166e+2, -636617.9, -826112.06, 36429.25, -0.0019984997, 0.008856516, -629855.8, -28641.166 
1.8456468e+3, 2.4863377e+2, -554300.75, -747087.6, 29091.836, -0.0016961577, 0.009170673, -550006.4, -46616.406 
1.8455692e+3, 2.5861537e+2, -466349.78, -653703.6, 27806.287, -0.0009384228, 0.009149783, -462310.0, -56739.785 
1.8454903e+3, 2.685966e+2, -384241.2, -572707.0, 19768.602, -0.00031070507, 0.011585142, -382189.94, -74435.64 
1.8454105e+3, 2.7857742e+2, -297453.53, -479363.84, 19211.906, 0.00033889632, 0.0129193915, -295446.7, -85504.56 
1.8453299e+3, 2.8855798e+2, -219060.3, -396778.2, 12907.76, -0.0017914764, 0.008975877, -218127.69, -105995.04 
1.8452483e+3, 2.985383e+2, -138947.02, -307810.75, 11501.365, -0.004653463, 0.003565409, -138167.25, -123841.59 
1.845166e+3, 3.0852145e+2, -64563.227, -182888.55, 5550.262, -0.0024364253, 0.011639729, -64303.45, -64303.45 
1.845083e+3, 3.185076e+2, -76660.984, -184405.48, 5464.1045, 0.0032076638, 0.020189414, -76384.59, -76384.59 
1.8449995e+3, 3.2849997e+2, -9118.988, -17603.684, 2683.531, -0.00413621, 0.0036818043, -8341.49, -8341.49 
1.8571882e+3, 3.8938594e+1, -2469893.3, -2560451.0, 2574.767, 0.0036151654, 0.008962711, -2469820.3, 88582.68 
1.8571101e+3, 4.893552e+1, -2379582.3, -2475450.5, 15749.721, 0.0012867225, 0.011515153, -2377061.3, 83371.76 
1.8570334e+3, 5.893201e+1, -2283189.3, -2379305.8, 17880.064, 0.0029934885, 0.012852305, -2279971.0, 82496.37 
1.8569578e+3, 6.892761e+1, -2196780.8, -2303456.0, 28590.53, 0.0024323056, 0.009682743, -2189601.3, 74909.1 
1.8568836e+3, 7.8922516e+1, -2098879.0, -2205390.8, 30181.184, 0.0003776539, 0.0054271207, -2090921.4, 75639.03 
1.8568106e+3, 8.89168e+1, -2010981.8, -2127680.3, 38284.535, 0.0017143826, 0.008806895, -1999543.1, 69073.16 
1.8567385e+3, 9.8910403e+1, -1912923.9, -2030162.8, 39902.074, 0.0035447557, 0.012558779, -1900632.0, 70047.15 
1.856667e+3, 1.0890315e+2, -1825800.8, -1954491.6, 45297.246, 0.0014834241, 0.012279311, -1811455.9, 61294.344 
1.8565959e+3, 1.1889513e+2, -1727533.6, -1856632.4, 46397.402, -0.001176412, 0.010432993, -1712588.8, 62240.08 
1.8565254e+3, 1.2888631e+2, -1640224.5, -1781162.3, 49495.668, 0.00084886176, 0.009832201, -1624579.0, 52336.16 
1.856455e+3, 1.3887672e+2, -1541492.8, -1682712.1, 50453.496, 0.00335169, 0.008571171, -1525319.5, 53689.566 
1.8563847e+3, 1.4886639e+2, -1454194.1, -1607332.9, 51728.703, 0.00164195, 0.0087428, -1438358.3, 42752.223 
1.8563144e+3, 1.5885524e+2, -1356231.9, -1509880.9, 52786.87, -0.0007106442, 0.008475616, -1339844.5, 43375.137 
1.8562439e+3, 1.6884324e+2, -1270188.0, -1436319.8, 51473.082, -0.0009417368, 0.011933653, -1255532.8, 29804.38 
1.856173e+3, 1.7883043e+2, -1172779.1, -1338856.6, 51930.21, -0.0006201431, 0.014862003, -1157878.3, 29584.602 
1.8561015e+3, 1.8881671e+2, -1087031.9, -1264932.6, 48413.258, 0.001312, 0.010934296, -1074710.3, 14886.994 
1.8560293e+3, 1.9880216e+2, -990318.9, -1167664.9, 48620.94, 0.002942113, 0.0052697794, -977863.75, 13876.031 
1.8559563e+3, 2.0878693e+2, -905544.56, -1092627.4, 42921.703, -0.0002632613, 0.008126618, -896167.2, -2278.2678 
1.8558824e+3, 2.1877098e+2, -811844.25, -997199.3, 42803.09, -0.0034686548, 0.011156741, -802437.3, -6391.937 
1.8558075e+3, 2.2875425e+2, -728297.25, -921249.56, 35256.457, -0.0008705916, 0.011091932, -722057.0, -23847.703 
1.8557316e+3, 2.3873687e+2, -636523.75, -826314.9, 34809.055, 0.0021512792, 0.010110856, -630340.94, -29961.184 
1.8556543e+3, 2.487189e+2, -554879.56, -748624.4, 26515.53, -0.0007184458, 0.011133946, -551316.25, -48760.535 
1.8555759e+3, 2.587004e+2, -466738.84, -654945.3, 25343.688, -0.004258229, 0.010888229, -463385.8, -58648.78 
1.8554963e+3, 2.686815e+2, -384590.9, -573802.1, 16820.795, -0.0013777827, 0.008564968, -383107.2, -76184.836 
1.8554157e+3, 2.786622e+2, -297931.84, -480812.97, 15795.222, 0.003031587, 0.0056465315, -296577.66, -87466.234 
1.8553339e+3, 2.886427e+2, -219906.66, -399108.5, 8260.788, -0.00045527556, 0.010983616, -219526.66, -108224.05 
1.855251e+3, 2.9862297e+2, -139415.97, -309434.06, 7295.467, -0.0064341007, 0.01602172, -139103.5, -125607.23 
1.8551677e+3, 3.086059e+2, -64610.945, -183289.98, 1779.4473, -0.0050872085, 0.010065458, -64584.27, -64584.27 
1.8550836e+3, 3.185918e+2, -77563.586, -186238.58, 1510.8499, 0.0011042448, 0.0012549771, -77542.586, -77542.586 
1.8549992e+3, 3.2858428e+2, -10241.049, -20708.148, -2057.1904, -0.00048015852, 0.015978942, -9851.247, -9851.247 
1.867197e+3, 3.9019313e+1, -2487591.3, -2564599.3, 3185.0022, 0.0027967647, 0.009620529, -2487459.8, 70152.14 
1.8671189e+3, 4.90166e+1, -2395307.5, -2479356.0, 16115.032, 0.0024808014, 0.0111342305, -2392323.8, 67314.71 
1.867042e+3, 5.901344e+1, -2297766.3, -2382499.0, 17763.195, 0.0022747302, 0.011748785, -2294193.3, 67476.24 
1.8669666e+3, 6.90094e+1, -2209062.8, -2305820.0, 29155.271, 0.0024366688, 0.010024488, -2200956.8, 62752.25 
1.8668926e+3, 7.9004645e+1, -2108917.3, -2206655.5, 31166.373, 0.0010782223, 0.00733673, -2099824.8, 65930.67 
1.8668196e+3, 8.8999254e+1, -2020042.9, -2128540.0, 39099.535, 0.0014978941, 0.009602332, -2007420.9, 60387.516 
1.8667474e+3, 9.899316e+1, -1921289.5, -2030619.8, 40537.625, 0.0026290799, 0.011951949, -1907899.0, 61969.17 
1.866676e+3, 1.08986214e+2, -1832937.9, -1954411.9, 46447.613, 0.001857399, 0.011382703, -1817213.4, 54722.83 
1.8666051e+3, 1.1897851e+2, -1733267.6, -1855709.0, 48143.875, 0.00049064175, 0.009486528, -1716605.1, 57406.566 
1.8665345e+3, 1.2897003e+2, -1644462.3, -1779476.1, 51990.79, 0.00083381956, 0.010049021, -1626762.3, 49332.438 
1.8664643e+3, 1.389608e+2, -1544508.9, -1680545.4, 53573.92, 0.0016261563, 0.01038719, -1525943.9, 52241.297 
1.8663941e+3, 1.4895074e+2, -1456359.6, -1605145.5, 54796.324, 0.0010077767, 0.010287443, -1438356.9, 41926.793 
1.8663238e+3, 1.589399e+2, -1357266.6, -1506894.9, 55749.234, 0.00036635046, 0.009215212, -1338779.5, 43610.65 
1.8662533e+3, 1.6892818e+2, -1269745.4, -1432727.1, 54985.246, 0.00030202145, 0.010871225, -1252929.9, 31574.994 
1.8661824e+3, 1.7891565e+2, -1170264.5, -1334262.0, 56250.17, -0.00005308812, 0.0123558715, -1152825.5, 33802.313 
1.8661109e+3, 1.889022e+2, -1083128.9, -1260369.4, 53263.17, 0.0007610079, 0.01081064, -1068354.1, 20405.273 
1.8660389e+3, 1.9888791e+2, -985172.4, -1162521.5, 54202.695, 0.0019543336, 0.007673116, -969918.56, 20980.916 
1.8659656e+3, 2.0887287e+2, -899584.9, -1087887.1, 48326.164, -0.00042977816, 0.009102088, -887906.7, 5140.3364 
1.8658915e+3, 2.1885702e+2, -804395.0, -991617.06, 48708.418, -0.0030368231, 0.010511082, -792481.0, 2721.175 
1.8658163e+3, 2.2884043e+2, -719054.44, -915773.44, 41168.184, -0.00065853924, 0.010745217, -710786.5, -13421.589 
1.86574e+3, 2.388231e+2, -625268.44, -820024.75, 40963.81, 0.0023058383, 0.010219439, -617003.2, -17468.51 
1.865662e+3, 2.4880514e+2, -543599.1, -743451.94, 32044.422, -0.00023921777, 0.011316968, -538586.8, -36876.145 
1.865583e+3, 2.587866e+2, -455687.28, -649779.7, 31545.174, -0.0031920725, 0.011111194, -450689.06, -46796.668 
1.8655027e+3, 2.687676e+2, -374375.28, -569500.06, 22842.229, -0.0017300938, 0.008582119, -371736.94, -65658.6 
1.8654212e+3, 2.7874827e+2, -288273.84, -476593.5, 21653.355, 0.0008271793, 0.0055743326, -285816.16, -77548.05 
1.8653384e+3, 2.8872868e+2, -209455.03, -394628.56, 13641.336, -0.00018450743, 0.011871497, -208455.5, -97995.65 
1.8652545e+3, 2.9870886e+2, -128461.12, -305243.63, 13353.716, -0.0033672235, 0.017922496, -127458.1, -114803.836 
1.8651699e+3, 3.0869162e+2, -57163.617, -181881.03, 6831.5186, -0.005011412, 0.008824154, -56790.527, -56790.527 
1.8650846e+3, 3.186773e+2, -72931.69, -184759.77, 5457.8164, -0.001317863, -0.0032722766, -72665.945, -72665.945 
1.864999e+3, 3.2866994e+2, -7061.7637, -17619.982, 3038.2085, -0.00014489317, 0.020478824, -6249.9204, -6249.9204 
1.877205e+3, 3.9100114e+1, -2485467.3, -2558250.8, 3658.042, 0.0023837027, 0.011090416, -2485283.8, 71536.1 
1.8771271e+3, 4.909773e+1, -2394026.8, -2475556.5, 16156.824, 0.0034188342, 0.010871731, -2390941.8, 67901.56 
1.8770501e+3, 5.9094816e+1, -2295582.8, -2377698.5, 18123.658, 0.0010952086, 0.0073158788, -2291760.5, 69111.24 
1.8769749e+3, 6.9091207e+1, -2206729.8, -2300247.8, 29864.45, 0.00295363, 0.010422593, -2198006.5, 64900.684 
1.876901e+3, 7.90869e+1, -2107111.5, -2201836.3, 31736.033, 0.0030262014, 0.013527521, -2097461.8, 67487.6 
1.876828e+3, 8.908178e+1, -2018513.9, -2124369.3, 39519.645, 0.000978767, 0.011627949, -2005387.4, 61612.17 
1.876756e+3, 9.9075943e+1, -1919337.5, -2025957.4, 41049.285, -0.00032524831, 0.008166171, -1905364.5, 63692.273 
1.8766847e+3, 1.0906938e+2, -1830594.9, -1948906.1, 47007.91, 0.0019315995, 0.008142205, -1814191.8, 56929.438 
1.876614e+3, 1.1906209e+2, -1730800.9, -1850059.8, 48685.113, 0.0040590838, 0.0083652735, -1713450.4, 59742.26 
1.8765436e+3, 1.2905404e+2, -1641855.6, -1773438.3, 52479.137, 0.000853645, 0.010922886, -1623489.0, 51782.332 
1.8764734e+3, 1.3904524e+2, -1542328.1, -1675381.6, 53951.293, -0.0026576812, 0.012969795, -1523201.1, 54156.504 
1.8764034e+3, 1.4903551e+2, -1454837.6, -1601262.3, 55065.004, -0.00023765571, 0.012912397, -1436441.0, 43012.13 
1.876333e+3, 1.5902494e+2, -1355235.8, -1502205.6, 56166.06, 0.0029604516, 0.01150209, -1336229.3, 45327.406 
1.8762627e+3, 1.6901356e+2, -1267390.6, -1427277.8, 55423.906, 0.0027337715, 0.008139574, -1250057.4, 33610.832 
1.876192e+3, 1.7900136e+2, -1168058.8, -1329004.4, 56695.33, 0.00060216326, 0.0043092305, -1150092.6, 35695.125 
1.8761204e+3, 1.8898834e+2, -1081265.8, -1255598.0, 53274.02, -0.0013962483, 0.009987308, -1066274.9, 21640.387 
1.8760483e+3, 1.9897449e+2, -983471.0, -1158203.1, 54164.027, -0.0018452129, 0.015559358, -968043.25, 22007.959 
1.8759751e+3, 2.0895962e+2, -898474.56, -1085194.4, 47614.543, -0.00033477985, 0.012880469, -887033.6, 5163.0635 
1.8759009e+3, 2.1894394e+2, -802834.5, -988538.0, 48235.715, 0.00088613457, 0.008645955, -791052.94, 3297.4412 
1.8758254e+3, 2.2892752e+2, -718208.1, -913908.0, 40187.664, -0.00016921204, 0.009478951, -710276.9, -13765.555 
1.8757488e+3, 2.3891033e+2, -624651.2, -818448.1, 39749.895, -0.0010847455, 0.009989181, -616814.94, -18135.225 
1.8756704e+3, 2.4889244e+2, -543262.0, -742926.1, 29387.309, -0.00013646136, 0.0103918305, -539026.5, -38171.4 
1.8755907e+3, 2.5887394e+2, -455142.78, -649345.75, 29005.646, 0.0009234439, 0.010233034, -450903.13, -47866.637 
1.8755095e+3, 2.6885498e+2, -374427.03, -570023.06, 19739.527, -0.0023905733, 0.011391496, -372454.8, -67232.57 
1.875427e+3, 2.788356e+2, -288094.9, -476654.44, 18280.268, -0.0060497303, 0.011569319, -286339.03, -78926.89 
1.8753433e+3, 2.8881598e+2, -209054.86, -394387.53, 9324.547, -0.0006589847, 0.011472541, -208586.9, -98982.54 
1.8752582e+3, 2.9879606e+2, -129039.97, -306950.22, 9025.213, 0.0042391373, 0.010609158, -128583.305, -116783.72 
1.8751724e+3, 3.0877858e+2, -59441.145, -187287.39, 1970.6545, -0.0028692295, 0.008796889, -59410.773, -59410.773 
1.8750857e+3, 3.1876406e+2, -72954.59, -185405.84, 517.91534, -0.005680724, 0.0050564427, -72952.21, -72952.21 
1.8749987e+3, 3.287568e+2, -4590.468, -11931.318, -2422.591, -0.0028411765, 0.014513014, -3863.056, -3863.056 
1.8872122e+3, 3.91806e+1, -2504176.8, -2561240.0, 2526.7595, 0.0030400886, 0.011448861, -2504065.0, 51966.184 
1.8871345e+3, 4.917864e+1, -2410762.3, -2479672.3, 15044.115, 0.0030682024, 0.0096514, -2407621.0, 50429.367 
1.8870577e+3, 5.917613e+1, -2308869.8, -2380090.5, 17202.11, 0.0015510187, 0.009036422, -2304932.8, 55142.375 
1.8869826e+3, 6.9172883e+1, -2219063.5, -2302351.0, 28748.832, 0.0035873863, 0.011142487, -2210104.0, 52002.87 
1.8869089e+3, 7.9168916e+1, -2119148.5, -2203697.3, 30552.717, 0.0026382841, 0.012841797, -2109263.5, 54882.184 
1.886836e+3, 8.916418e+1, -2028812.5, -2125238.5, 38744.742, 0.000823334, 0.011485404, -2015173.8, 51018.465 
1.8867642e+3, 9.915872e+1, -1928051.0, -2026064.3, 40706.305, 0.0005041843, 0.009038058, -1913350.0, 54895.508 
1.886693e+3, 1.09152555e+2, -1838037.5, -1948130.0, 46952.367, 0.0018622435, 0.009717174, -1820733.1, 49572.957 
1.8866223e+3, 1.1914567e+2, -1737503.5, -1848970.3, 48806.43, 0.00296697, 0.010536289, -1719154.0, 53219.59 
1.8865521e+3, 1.2913801e+2, -1648256.0, -1772087.1, 52695.52, 0.0011461191, 0.011230827, -1628867.5, 45581.145 
1.8864822e+3, 1.391296e+2, -1548220.3, -1673380.1, 54333.176, -0.0008685529, 0.011035447, -1527924.8, 48606.383 
1.8864122e+3, 1.4912032e+2, -1458709.9, -1597698.3, 56583.43, 0.00029748914, 0.011477331, -1438587.5, 40034.41 
1.8863423e+3, 1.5911025e+2, -1357104.0, -1497837.6, 58786.9, 0.0018489953, 0.011450742, -1335779.0, 44941.613 
1.8862718e+3, 1.6909933e+2, -1268394.9, -1422824.9, 58409.04, 0.0019744544, 0.009746955, -1248791.6, 34036.02 
1.8862014e+3, 1.7908756e+2, -1168256.4, -1323856.6, 60111.715, 0.0012149073, 0.0070022084, -1147739.3, 37203.547 
1.8861298e+3, 1.89075e+2, -1080435.8, -1250045.9, 57127.16, -0.00084878656, 0.01062494, -1062989.1, 24077.033 
1.8860577e+3, 1.9906156e+2, -981225.56, -1151862.6, 58870.402, -0.0020483981, 0.014295071, -962886.1, 26311.785 
1.8859847e+3, 2.0904712e+2, -893407.5, -1078502.8, 53217.13, 0.00008066156, 0.012109678, -879197.8, 12141.526 
1.8859103e+3, 2.190318e+2, -794030.1, -980233.9, 54901.523, 0.0021876327, 0.0088095665, -779048.06, 14441.364 
1.8858348e+3, 2.2901565e+2, -709907.94, -907018.5, 46574.28, -0.00033680798, 0.010020289, -699457.25, -3809.6167 
1.8857577e+3, 2.3899871e+2, -617214.06, -811920.8, 46987.418, -0.002496714, 0.010584536, -606468.0, -8654.32 
1.8856789e+3, 2.4898101e+2, -532945.8, -735823.75, 36708.555, -0.00030706625, 0.010329125, -526508.1, -26520.979 
1.8855987e+3, 2.589627e+2, -441192.8, -640819.6, 36885.71, 0.0018826282, 0.00986173, -434595.38, -32428.422 
1.8855168e+3, 2.689438e+2, -362702.28, -564002.94, 26992.008, -0.001939273, 0.011985028, -359145.8, -54793.758 
1.8854333e+3, 2.789244e+2, -279014.4, -471695.75, 25948.713, -0.0061209067, 0.013023933, -275581.03, -69039.195 
1.8853486e+3, 2.889048e+2, -198891.06, -389292.4, 16571.332, -0.0006229461, 0.010632453, -197459.56, -88725.36 
1.8852624e+3, 2.9888484e+2, -116950.97, -301382.7, 16018.402, 0.0048578344, 0.007197942, -115570.07, -104640.32 
1.8851751e+3, 3.0886725e+2, -51004.59, -184960.97, 9128.262, -0.002593655, 0.010389567, -50385.418, -50385.418 
1.8850872e+3, 3.188526e+2, -67488.25, -183564.02, 8589.666, -0.0063271597, 0.013063162, -66856.05, -66856.05 
1.8849985e+3, 3.2884523e+2, -367.19818, -8182.0234, 3295.908, -0.0013496386, 0.0073440825, 837.2267, 837.2267 
1.8972188e+3, 3.9260805e+1, -2500690.5, -2552867.0, 3896.4624, 0.003194705, 0.010675843, -2500401.0, 54844.168 
1.8971412e+3, 4.9259305e+1, -2408622.5, -2474076.3, 16129.924, 0.0019607441, 0.008197616, -2404863.5, 52396.414 
1.8970647e+3, 5.9257257e+1, -2306830.0, -2374864.0, 18140.611, 0.0025459384, 0.0134140905, -2302295.3, 56984.84 
1.89699e+3, 6.9254327e+1, -2217159.0, -2297543.0, 29384.998, 0.0038957116, 0.011640047, -2207562.8, 53746.004 
1.8969162e+3, 7.9250664e+1, -2116850.0, -2198440.8, 31382.668, 0.0007363832, 0.008375654, -2106175.5, 57169.0 
1.8968436e+3, 8.924636e+1, -2026125.5, -2118979.0, 39578.516, 0.0006068794, 0.010102831, -2011544.9, 53841.805 
1.8967718e+3, 9.9241394e+1, -1925548.3, -2020151.9, 41458.92, 0.0029480897, 0.012044402, -1909951.0, 57484.52 
1.8967009e+3, 1.0923566e+2, -1835418.3, -1941903.3, 47640.688, 0.0013673727, 0.013456158, -1817215.6, 52276.027 
1.8966305e+3, 1.19229205e+2, -1735007.8, -1843099.6, 49403.484, -0.0010422595, 0.013774564, -1715830.3, 55724.734 
1.8965605e+3, 1.2922193e+2, -1645617.5, -1766003.5, 53267.98, 0.0013623118, 0.010723296, -1625432.3, 48194.05 
1.8964906e+3, 1.3921392e+2, -1544873.8, -1666174.6, 55059.24, 0.003981582, 0.006799241, -1523609.6, 52095.055 
1.8964209e+3, 1.4920525e+2, -1454557.8, -1588534.6, 57440.46, 0.0015404657, 0.007993826, -1433303.0, 44486.6 
1.8963511e+3, 1.5919581e+2, -1353747.1, -1489905.3, 59434.88, -0.0018684918, 0.009800111, -1331453.3, 48428.695 
1.896281e+3, 1.6918547e+2, -1265480.8, -1415942.5, 58838.605, -0.0010425249, 0.013716035, -1245204.3, 36779.27 
1.8962105e+3, 1.7917427e+2, -1164995.0, -1316488.6, 60643.504, 0.00108356, 0.016161574, -1143709.9, 40383.535 
1.8961392e+3, 1.8916215e+2, -1077056.5, -1242363.6, 57379.535, 0.001052907, 0.011862655, -1059091.9, 27120.166 
1.8960673e+3, 1.9914918e+2, -977471.7, -1143778.8, 59326.875, 0.00029942984, 0.00677131, -958477.3, 29861.828 
1.8959941e+3, 2.0913532e+2, -890140.6, -1071155.5, 53540.64, 0.0004584396, 0.008598919, -875490.1, 14984.736 
1.89592e+3, 2.1912058e+2, -791328.75, -973656.25, 54958.996, 0.0007044286, 0.010798479, -776043.8, 16575.62 
1.8958442e+3, 2.2910483e+2, -707896.25, -902327.4, 45136.848, -0.0014030923, 0.011856449, -697928.8, -3155.0325 
1.8957669e+3, 2.3908821e+2, -614791.6, -806924.25, 45966.62, -0.0027415247, 0.011518558, -604360.7, -7424.0547 
1.8956879e+3, 2.4907084e+2, -530991.1, -731648.56, 35168.46, -0.0011828276, 0.011064004, -525005.8, -25898.908 
1.8956071e+3, 2.5905275e+2, -439473.38, -637334.44, 34811.03, -0.000101532634, 0.0100444965, -433527.5, -32243.459 
1.8955243e+3, 2.69034e+2, -361973.94, -563000.4, 23081.246, -0.0003930364, 0.010532231, -359357.88, -55889.9 
1.8954399e+3, 2.7901468e+2, -278085.1, -470646.44, 22369.6, -0.00042490047, 0.010830015, -275520.6, -69863.37 
1.8953541e+3, 2.8899506e+2, -198702.63, -389496.25, 12934.796, -0.0010636596, 0.009784486, -197829.7, -89980.34 
1.8952668e+3, 2.989751e+2, -116565.414, -300802.75, 11745.382, -0.0028629324, 0.0062740985, -115819.65, -105774.72 
1.8951784e+3, 3.089576e+2, -50876.71, -185138.86, 3414.9294, -0.0038295428, 0.013030279, -50789.91, -50789.91 
1.8950887e+3, 3.1894296e+2, -67988.305, -185262.33, 3003.0603, -0.00067484827, 0.022042057, -67911.45, -67911.45 
1.8949984e+3, 3.2893527e+2, -1202.5475, -9772.338, -2645.5044, -0.0021205212, -0.00072951533, -451.66858, -451.66858 
1.9072245e+3, 3.93406e+1, -2518368.5, -2557563.0, 1852.334, 0.0034015218, 0.0115602845, -2518281.0, 36182.152 
1.9071472e+3, 4.933951e+1, -2424783.0, -2477603.0, 13747.747, 0.0024500238, 0.00905295, -2421419.0, 35054.82 
1.9070712e+3, 5.9337854e+1, -2321191.0, -2377521.5, 15532.91, 0.001243653, 0.013256587, -2317191.8, 41298.38 
1.9069965e+3, 6.933533e+1, -2229448.0, -2299255.0, 26536.762, 0.0038472828, 0.011559306, -2220505.8, 40009.28 
1.9069229e+3, 7.933206e+1, -2127766.5, -2199643.0, 28703.639, 0.0016351845, 0.008777416, -2117710.5, 44836.383 
1.9068506e+3, 8.9328146e+1, -2036482.4, -2119739.8, 36764.25, 0.0008470524, 0.010407374, -2022572.3, 42013.055 
1.9067791e+3, 9.932357e+1, -1935863.3, -2020628.9, 38557.844, 0.0028519095, 0.012073081, -1920948.5, 45681.59 
1.9067083e+3, 1.09318286e+2, -1844839.9, -1941208.6, 45099.01, 0.0015685657, 0.012251665, -1827026.9, 41655.113 
1.906638e+3, 1.1931231e+2, -1743948.9, -1842092.0, 47258.656, -0.0006417297, 0.011708297, -1724892.6, 45847.902 
1.9065683e+3, 1.2930557e+2, -1652693.1, -1763336.1, 51913.535, 0.0010984014, 0.010993552, -1632149.8, 40656.754 
1.9064987e+3, 1.3929814e+2, -1550685.5, -1663027.1, 54311.016, 0.003454194, 0.009712172, -1528722.8, 46156.51 
1.9064291e+3, 1.4929001e+2, -1460583.3, -1585075.0, 56654.234, 0.0018801086, 0.0100611765, -1438661.1, 38297.813 
1.9063595e+3, 1.5928116e+2, -1360173.6, -1486143.8, 58651.76, -0.0007563672, 0.010179568, -1337093.9, 41951.86 
1.9062896e+3, 1.6927145e+2, -1270142.3, -1410241.3, 59277.582, -0.00091700366, 0.012532104, -1248427.0, 32713.78 
1.9062194e+3, 1.7926095e+2, -1168151.0, -1310131.9, 62413.32, 0.00021339345, 0.014281724, -1144616.0, 38627.805 
1.9061483e+3, 1.8924956e+2, -1078419.4, -1235052.6, 60226.645, 0.0012166087, 0.01097853, -1057939.5, 27415.96 
1.9060765e+3, 1.9923729e+2, -976828.94, -1135488.1, 63412.75, 0.0012726142, 0.006897719, -954598.94, 32876.754 
1.9060035e+3, 2.0922413e+2, -889068.2, -1062864.3, 58377.344, -0.00016706508, 0.00920634, -871280.1, 18324.414 
1.9059296e+3, 2.1921007e+2, -789919.75, -964821.56, 61131.91, -0.0006847367, 0.011501722, -770671.2, 21071.164 
1.9058536e+3, 2.29195e+2, -702747.6, -892700.44, 52526.227, -0.0007661471, 0.011858782, -689190.56, 4699.625 
1.9057763e+3, 2.3917899e+2, -603971.9, -794733.4, 55344.934, -0.0008602255, 0.011441113, -589077.75, 6969.239 
1.9056968e+3, 2.491621e+2, -521384.03, -722377.4, 44292.773, -0.0011838832, 0.011111718, -512056.16, -13843.662 
1.9056158e+3, 2.591444e+2, -432203.94, -629229.0, 44491.254, -0.0014272955, 0.010075413, -422623.03, -22237.24 
1.9055322e+3, 2.69126e+2, -351766.56, -553948.0, 33085.06, 0.00013644982, 0.010606144, -346490.22, -43924.01 
1.905447e+3, 2.7910703e+2, -264325.63, -460405.06, 34218.36, 0.0018628383, 0.010819203, -258525.64, -53773.492 
1.9053599e+3, 2.890875e+2, -188485.61, -385218.13, 25085.242, -0.0013290443, 0.009574185, -185337.39, -78393.92 
1.9052719e+3, 2.9906744e+2, -105383.06, -295495.1, 22716.998, -0.006064272, 0.0068582394, -102706.234, -93566.266 
1.9051817e+3, 3.0904993e+2, -39518.598, -179335.67, 11837.403, -0.0027567062, 0.012926247, -38523.484, -38523.484 
1.9050907e+3, 3.1903523e+2, -60400.49, -182355.64, 11628.322, 0.0039724247, 0.019525079, -59301.64, -59301.64 
1.9049989e+3, 3.2902724e+2, 11836.446, -9577.993, 4939.789, -0.0038641666, 0.0026181664, 12921.006, 12921.006 
1.9172294e+3, 3.9419955e+1, -2517130.8, -2554167.8, 3224.2236, 0.0032959033, 0.0128269475, -2516852.3, 36833.402 
1.9171527e+3, 4.9419227e+1, -2422367.3, -2472079.3, 15341.927, 0.0031197902, 0.011034403, -2418013.8, 37678.953 
1.917077e+3, 5.941792e+1, -2318818.8, -2371951.5, 17096.836, -0.0009214596, 0.0109774945, -2313792.8, 43912.813 
1.9170026e+3, 6.941582e+1, -2227015.0, -2293347.3, 27565.627, 0.0036260705, 0.011375701, -2217055.0, 42671.086 
1.9169295e+3, 7.9412997e+1, -2125580.5, -2194336.5, 29638.523, 0.0036412608, 0.011547732, -2114568.0, 47185.797 
1.9168574e+3, 8.9409447e+1, -2034128.9, -2114105.5, 37497.11, 0.0010773536, 0.011552413, -2019298.5, 44490.125 
1.916786e+3, 9.940526e+1, -1933165.0, -2014495.8, 39381.38, 0.0012102111, 0.010548559, -1917221.5, 48608.184 
1.9167154e+3, 1.09400444e+2, -1841292.6, -1933378.4, 45900.445, 0.0019215327, 0.008601538, -1822321.6, 45555.117 
1.9166453e+3, 1.19395e+2, -1740259.4, -1834092.0, 48079.617, 0.0016552173, 0.0069274316, -1719998.4, 49931.668 
1.9165757e+3, 1.2938894e+2, -1648483.5, -1753897.9, 52820.34, 0.00031639656, 0.011561774, -1626571.4, 45418.1 
1.9165063e+3, 1.393822e+2, -1547140.9, -1654799.0, 54970.246, -0.0004769632, 0.01608245, -1524033.0, 50022.582 
1.916437e+3, 1.4937463e+2, -1456959.6, -1576874.9, 57189.844, 0.0012828214, 0.014732187, -1434058.4, 42071.41 
1.9163677e+3, 1.5936634e+2, -1355579.6, -1476338.8, 59428.67, 0.002859728, 0.011574254, -1331239.3, 46971.816 
1.916298e+3, 1.6935739e+2, -1264301.1, -1397476.6, 60151.285, 0.0010279873, 0.008308116, -1241155.3, 39143.29 
1.916228e+3, 1.7934774e+2, -1162790.1, -1298073.1, 63194.81, -0.0011071713, 0.005554268, -1137863.0, 44530.324 
1.9161572e+3, 1.8933725e+2, -1072945.4, -1222660.8, 60958.055, 0.000035822224, 0.009095487, -1051265.3, 33230.895 
1.9160856e+3, 1.9932593e+2, -971425.6, -1123411.4, 64107.625, 0.0007674455, 0.012596569, -947996.6, 38610.45 
1.9160128e+3, 2.093136e+2, -883458.44, -1050563.9, 58515.01, -0.0014107072, 0.012729668, -865005.94, 23721.92 
1.9159389e+3, 2.1930039e+2, -783638.6, -951513.7, 61519.19, -0.002329766, 0.011492179, -763508.25, 27349.154 
1.9158633e+3, 2.2928621e+2, -696846.2, -879962.44, 52522.848, 0.00027512814, 0.011293989, -682850.8, 10145.378 
1.9157858e+3, 2.3927109e+2, -598323.44, -782663.7, 55119.453, 0.0021816106, 0.011127893, -583099.5, 12044.967 
1.9157062e+3, 2.4925484e+2, -518314.9, -715507.9, 41761.97, -0.0006602163, 0.010663646, -509835.13, -12531.465 
1.9156244e+3, 2.5923765e+2, -429262.44, -622295.7, 42220.01, -0.002761336, 0.009927559, -420432.06, -20959.861 
1.9155402e+3, 2.6921982e+2, -347695.75, -544979.0, 30249.992, -0.0006164363, 0.012162342, -343161.66, -41514.637 
1.9154543e+3, 2.7920145e+2, -260404.67, -452493.22, 30931.916, 0.00034516887, 0.011972228, -255546.58, -51719.598 
1.9153664e+3, 2.8918204e+2, -189649.97, -387842.6, 21681.611, -0.0014367418, 0.009023559, -187305.8, -81288.81 
1.9152771e+3, 2.9916182e+2, -106268.375, -297352.0, 19207.646, -0.0031563428, 0.009714918, -104356.76, -96141.6 
1.9151857e+3, 3.0914417e+2, -40205.684, -180607.8, 5586.184, 0.00013464445, 0.011013719, -39983.777, -39983.777 
1.9150928e+3, 3.1912923e+2, -62234.62, -185701.61, 6091.9756, 0.0018597747, 0.004484331, -61934.766, -61934.766 
1.915e+3, 3.2912084e+2, 5833.6143, -24073.893, 2232.4758, -0.002959892, 0.017004207, 5999.3413, 5999.3413 
1.927234e+3, 3.9498645e+1, -2532300.0, -2558560.3, 652.68713, 0.0046124393, 0.0100586, -2532283.8, 20630.607 
1.9271575e+3, 4.949829e+1, -2435395.8, -2474764.0, 11823.216, 0.00057805906, 0.012716269, -2432118.0, 22799.998 
1.9270822e+3, 5.9497297e+1, -2331326.8, -2374424.5, 13145.9, 0.0014256187, 0.009540123, -2327633.5, 29294.19 
1.9270083e+3, 6.949555e+1, -2238775.8, -2295427.8, 22620.367, 0.0044278484, 0.011184985, -2230852.0, 28092.713 
1.9269353e+3, 7.9493093e+1, -2137151.0, -2195961.3, 24349.164, 0.001998108, 0.013103679, -2128378.5, 32590.426 
1.9268633e+3, 8.9489985e+1, -2044750.0, -2114206.8, 32334.582, 0.00006617674, 0.012811656, -2032027.5, 30971.918 
1.9267924e+3, 9.948626e+1, -1943592.0, -2014605.8, 34621.457, 0.0015069976, 0.011679331, -1929506.8, 35529.082 
1.926722e+3, 1.09481946e+2, -1850696.1, -1932332.0, 41230.758, 0.002593403, 0.011077418, -1833496.1, 33581.98 
1.926652e+3, 1.1947703e+2, -1749321.5, -1832867.4, 43272.23, 0.00247804, 0.010293661, -1730949.1, 38177.1 
1.9265828e+3, 1.2947151e+2, -1657455.0, -1751610.9, 47962.83, 0.00067778735, 0.011552034, -1637326.0, 33854.316 
1.9265136e+3, 1.3946536e+2, -1556679.5, -1652512.6, 50024.777, -0.0005656344, 0.012665408, -1535325.1, 37915.55 
1.9264445e+3, 1.4945851e+2, -1464590.1, -1572086.4, 53282.984, 0.00080383715, 0.0125357555, -1442655.1, 32652.707 
1.9263753e+3, 1.5945101e+2, -1362173.5, -1471059.8, 56523.492, 0.0023788428, 0.011632178, -1338137.6, 39243.723 
1.9263057e+3, 1.6944294e+2, -1271155.8, -1390846.0, 57510.03, 0.0013659359, 0.010211792, -1248001.9, 31458.602 
1.926236e+3, 1.7943418e+2, -1170862.8, -1291795.3, 61057.188, -0.00022205648, 0.008663296, -1145397.9, 36148.32 
1.9261654e+3, 1.8942468e+2, -1079910.6, -1214225.3, 60162.484, 0.00016390163, 0.0116779385, -1056903.5, 26735.818 
1.9260943e+3, 1.9941442e+2, -977992.44, -1114451.1, 64736.477, 0.00083461596, 0.014448159, -952168.3, 33571.61 
1.9260216e+3, 2.0940323e+2, -887749.44, -1039085.94, 61112.906, -0.0003409371, 0.013215852, -866152.75, 21696.748 
1.9259478e+3, 2.1939121e+2, -785994.2, -939294.75, 66621.61, -0.0012345173, 0.011071202, -761088.06, 28879.316 
1.9258724e+3, 2.2937821e+2, -698523.0, -867438.56, 59383.72, -0.0000237515, 0.0105231255, -679735.75, 12358.943 
1.9257952e+3, 2.3936425e+2, -598698.9, -768629.3, 64415.383, 0.0012088903, 0.010030234, -577041.25, 17190.066 
1.9257154e+3, 2.4934924e+2, -515507.56, -701134.56, 53519.547, -0.0004213844, 0.010748271, -501182.4, -4803.908 
1.9256331e+3, 2.593332e+2, -419386.34, -604325.8, 58930.41, -0.0014863828, 0.011552037, -402204.63, -3668.6997 
1.9255483e+3, 2.6931617e+2, -341381.06, -535333.3, 46262.26, -0.0011297142, 0.011831969, -330911.53, -30208.877 
1.9254614e+3, 2.792983e+2, -261194.84, -445942.88, 44945.563, -0.0012150205, 0.010208631, -250840.77, -47963.2 
1.9253726e+3, 2.892797e+2, -184604.23, -375256.38, 41993.113, -0.0012186167, 0.012156602, -175764.66, -70704.57 
1.9252829e+3, 2.9926032e+2, -86868.97, -281060.97, 46800.32, -0.00085387763, 0.014804388, -76178.59, -68928.4 
1.9251908e+3, 3.092419e+2, -18367.955, -188335.03, 26477.896, 0.0011213993, 0.009356347, -14338.682, -14338.682 
1.9250965e+3, 3.1922522e+2, -23124.54, -182895.25, 14900.5205, 0.0009766134, -0.00013305106, -21746.77, -21746.77 
1.9250013e+3, 3.292163e+2, 10780.719, -20108.92, 3603.0964, -0.0043869116, 0.018685166, 11195.432, 11195.432 
1.9372377e+3, 3.9576665e+1, -2530764.0, -2554405.5, 2958.337, 0.0063312165, 0.006967516, -2530399.5, 21750.4 
1.9371618e+3, 4.9576652e+1, -2433778.8, -2470647.8, 13167.988, -0.0035879896, 0.014116326, -2429558.8, 24591.336 
1.9370872e+3, 5.9575933e+1, -2329799.8, -2370598.0, 14725.564, 0.005403764, 0.008492712, -2325040.0, 31117.012 
1.9370134e+3, 6.957449e+1, -2237050.3, -2291101.3, 23558.1, 0.0053599887, 0.01107493, -2228224.0, 29947.379 
1.9369407e+3, 7.957237e+1, -2134937.8, -2190728.8, 25324.156, -0.0015744744, 0.013899774, -2125157.3, 35034.703 
1.936869e+3, 8.956971e+1, -2041481.9, -2106739.5, 33068.008, -0.0016439252, 0.013863893, -2027655.0, 34563.023 
1.9367982e+3, 9.9566513e+1, -1940599.3, -2007774.5, 35420.035, 0.0024442854, 0.013541165, -1925373.9, 38875.477 
1.936728e+3, 1.0956273e+2, -1847400.6, -1924805.1, 42051.184, 0.0031458982, 0.016072212, -1828952.5, 37333.953 
1.9366585e+3, 1.19558364e+2, -1746127.4, -1825610.5, 44026.438, 0.002249696, 0.0171806, -1726558.6, 41770.7 
1.9365892e+3, 1.2955332e+2, -1653353.5, -1742716.4, 48705.324, 0.0013689867, 0.010506641, -1631939.3, 38439.47 
1.9365203e+3, 1.3954772e+2, -1551924.1, -1642561.8, 50872.22, 0.0010184587, 0.0034497215, -1529112.4, 43321.082 
1.9364513e+3, 1.4954172e+2, -1458415.9, -1558723.1, 54220.64, 0.00023212342, 0.006222998, -1434709.8, 39782.586 
1.9363825e+3, 1.5953518e+2, -1356752.5, -1458860.8, 57113.78, -0.0005894247, 0.010539273, -1331200.5, 45355.88 
1.9363132e+3, 1.6952807e+2, -1264917.5, -1377042.8, 57852.133, 0.00045861417, 0.0152447615, -1240420.4, 38205.875 
1.9362435e+3, 1.7952032e+2, -1164088.0, -1277224.5, 61647.55, 0.0013249689, 0.018572293, -1136987.9, 43714.082 
1.9361733e+3, 1.8951192e+2, -1071433.3, -1196112.0, 60962.14, 0.0007921953, 0.01651064, -1046579.9, 36204.38 
1.9361024e+3, 1.9950287e+2, -969265.4, -1095719.1, 65527.836, 0.0006670924, 0.013172125, -941434.4, 43438.637 
1.9360301e+3, 2.0949312e+2, -877217.56, -1016569.25, 61728.81, 0.0012392357, 0.011446062, -853806.5, 33161.96 
1.9359565e+3, 2.1948263e+2, -775859.75, -918127.6, 67101.445, 0.001214514, 0.0098403, -749204.94, 39866.367 
1.9358812e+3, 2.294711e+2, -687798.9, -845255.9, 59483.43, -0.0011771026, 0.008640781, -667853.9, 23330.502 
1.935804e+3, 2.394587e+2, -586905.2, -744228.44, 64485.875, -0.0032560537, 0.0077357152, -563851.1, 29454.791 
1.9357242e+3, 2.4944547e+2, -503343.1, -675644.3, 52578.996, -0.0012406248, 0.0113433385, -488565.63, 6869.93 
1.9356419e+3, 2.5943115e+2, -406961.94, -578744.8, 58452.11, 0.000900213, 0.014241385, -388959.25, 8616.521 
1.9355567e+3, 2.6941517e+2, -338821.9, -530391.25, 41114.48, -0.0016971036, 0.009783388, -330370.75, -30638.09 
1.9354683e+3, 2.7939764e+2, -257872.73, -438902.5, 38734.848, -0.0025350593, 0.006789498, -249932.89, -48028.58 
1.9353788e+3, 2.8938028e+2, -172154.33, -349039.94, 41844.96, -0.0010882377, 0.019502627, -162754.75, -58680.465 
1.9352894e+3, 2.993626e+2, -78322.664, -264228.16, 47320.43, -0.003927976, 0.020009156, -66970.875, -60723.27 
1.935197e+3, 3.093429e+2, -40468.285, -234688.95, 24077.723, -0.0051081185, 0.007394938, -37527.863, -37527.863 
1.935102e+3, 3.1932318e+2, -41713.77, -220862.55, 10367.385, 0.0003325002, 0.008743677, -41115.8, -41115.8 
1.9350027e+3, 3.293136e+2, 18149.986, -2815.598, -21538.943, -0.0058105006, 0.011508466, 31621.63, 31621.63 
1.9472408e+3, 3.9653605e+1, -2543156.0, -2556874.3, -283.33813, 0.0015710092, 0.013950271, -2543150.3, 8245.644 
1.9471657e+3, 4.9653876e+1, -2443540.8, -2471584.5, 7150.6753, 0.0031845272, 0.0143642435, -2441822.8, 11570.53 
1.9470914e+3, 5.965356e+1, -2339882.8, -2372084.3, 8753.515, 0.0014716723, 0.013865069, -2337657.3, 17739.133 
1.947018e+3, 6.9652396e+1, -2247273.8, -2292700.8, 16789.088, 0.004277259, 0.012510649, -2241742.5, 15665.333 
1.9469456e+3, 7.965056e+1, -2145362.0, -2192124.3, 18453.533, 0.0013626406, 0.010478571, -2138957.0, 20468.82 
1.9468743e+3, 8.9648294e+1, -2051508.5, -2107015.5, 25675.123, 0.00025187185, 0.009563032, -2041453.6, 19994.248 
1.9468036e+3, 9.964553e+1, -1951004.0, -2008283.6, 27660.975, 0.003157125, 0.008988144, -1939827.1, 23647.87 
1.9467336e+3, 1.0964222e+2, -1857338.5, -1924061.3, 34162.77, 0.0027028243, 0.0113925105, -1842949.8, 22557.766 
1.9466643e+3, 1.1963839e+2, -1756073.3, -1824722.9, 36015.12, 0.00062960264, 0.013428485, -1740645.9, 26899.098 
1.9465953e+3, 1.2963401e+2, -1661474.5, -1739431.0, 40926.414, 0.00066566566, 0.012640209, -1643934.9, 25653.094 
1.9465268e+3, 1.3962914e+2, -1559756.0, -1639228.8, 43053.484, 0.00184649, 0.011170828, -1540904.1, 30731.523 
1.9464579e+3, 1.4962384e+2, -1467016.8, -1553984.9, 45884.707, 0.001414159, 0.01164902, -1447284.8, 26402.71 
1.9463892e+3, 1.5961811e+2, -1367775.3, -1455061.5, 48363.293, 0.00048675586, 0.0120980255, -1346274.5, 29469.307 
1.94632e+3, 1.6961189e+2, -1275031.5, -1370117.1, 49767.004, 0.0006821029, 0.012034014, -1253748.0, 24056.678 
1.9462505e+3, 1.7960522e+2, -1174596.8, -1270022.0, 54483.37, 0.0008712193, 0.01153316, -1149887.5, 29982.58 
1.9461805e+3, 1.8959811e+2, -1081763.9, -1185383.3, 54929.547, -0.00007679317, 0.00977896, -1058065.3, 23874.4 
1.9461097e+3, 1.9959049e+2, -981827.44, -1086400.4, 60858.71, -0.00067874166, 0.007977831, -953878.94, 30135.477 
1.9460376e+3, 2.095823e+2, -888709.5, -1003598.2, 58086.375, -0.00012699133, 0.009753897, -864460.06, 21634.482 
1.9459644e+3, 2.1957353e+2, -788136.9, -905024.1, 64614.44, 0.0003330255, 0.011464377, -759456.0, 28724.531 
1.9458891e+3, 2.2956397e+2, -698614.2, -826522.9, 59878.68, -0.0005768509, 0.012193638, -674957.94, 15316.399 
1.945812e+3, 2.3955372e+2, -600237.8, -726856.25, 68817.56, -0.0016388312, 0.01228634, -570038.1, 22336.484 
1.945732e+3, 2.4954286e+2, -517156.84, -652278.44, 60853.72, -0.00086183386, 0.012292681, -493791.1, 689.97577 
1.9456492e+3, 2.5953126e+2, -426185.94, -556623.3, 74698.44, 0.0006043939, 0.011671687, -392241.47, 4353.5396 
1.9455631e+3, 2.6951855e+2, -359670.94, -498056.66, 69289.98, -0.0016842826, 0.011657158, -330941.63, -32222.254 
1.9454733e+3, 2.7950484e+2, -286170.7, -406784.2, 92518.4, -0.0026535434, 0.012225334, -236039.4, -35185.543 
1.9453846e+3, 2.8948638e+2, -228599.1, -441079.47, 98156.94, 0.006346007, 0.0055949045, -190195.72, -87161.26 
1.9452985e+3, 2.994626e+2, -50052.96, -319923.84, 44084.594, 0.0065085706, 0.0032714983, -43034.098, -37766.22 
1.9452056e+3, 3.0944082e+2, 47430.746, -168892.13, -11374.629, -0.0089927185, 0.015808448, 48027.2, 48027.2 
1.9451074e+3, 3.1942338e+2, -30370.139, -189371.1, 13421.077, 0.0007245323, 0.020298446, -29245.24, -29245.24 
1.945003e+3, 3.2941574e+2, 1702.9397, 11704.23, -8944.616, 0.0004954853, 0.00781608, 16951.152, 16951.152 
1.9572435e+3, 3.9729598e+1, -2541332.5, -2552575.5, 4801.03, -0.0031770244, 0.023013765, -2539561.5, 11089.813 
1.9571693e+3, 4.9730107e+1, -2442162.3, -2467075.8, 8831.235, 0.013130978, 0.014506398, -2439349.5, 13296.746 
1.9570953e+3, 5.973021e+1, -2337843.3, -2367717.0, 10411.777, -0.006120514, 0.021749089, -2334572.5, 20072.717 
1.9570224e+3, 6.972928e+1, -2245182.3, -2288116.0, 17606.893, 0.002573601, 0.014528441, -2238885.5, 17768.85 
1.9569503e+3, 7.972769e+1, -2143325.5, -2187558.8, 19268.762, 0.0070230905, 0.005370569, -2136109.0, 22560.934 
1.956879e+3, 8.972577e+1, -2049028.5, -2101532.8, 26202.26, 0.0034223285, 0.0033549273, -2038189.8, 22498.943 
1.9568084e+3, 9.972338e+1, -1948544.0, -2002761.4, 28268.396, 0.003241461, 0.0021841463, -1936486.5, 26225.563 
1.9567388e+3, 1.09720506e+2, -1854132.5, -1916830.5, 34805.67, 0.0011016637, 0.0027975272, -1838639.3, 26101.035 
1.9566697e+3, 1.1971719e+2, -1752793.6, -1817283.8, 36758.195, -0.0023152337, 0.0049758167, -1736141.8, 30630.922 
1.956601e+3, 1.2971355e+2, -1657039.8, -1729413.4, 41687.53, -0.0010038721, 0.017302077, -1638023.9, 30784.463 
1.9565326e+3, 1.397095e+2, -1555853.9, -1630174.9, 43490.055, 0.0018622918, 0.028645786, -1535810.5, 35037.62 
1.9564639e+3, 1.4970486e+2, -1461878.1, -1542693.6, 46025.207, 0.003149031, 0.023961743, -1441039.5, 31853.982 
1.9563952e+3, 1.5969983e+2, -1361865.6, -1442641.6, 48681.543, 0.003533246, 0.015802218, -1338999.5, 35943.313 
1.9563262e+3, 1.6969456e+2, -1266806.5, -1352744.8, 50199.176, 0.0015828462, 0.004968045, -1243697.6, 33296.76 
1.9562568e+3, 1.79689e+2, -1166380.5, -1252331.4, 54878.234, -0.0007717622, -0.0047090566, -1139653.0, 39395.973 
1.9561867e+3, 1.8968336e+2, -1070632.9, -1161984.1, 55053.477, -0.002216937, -0.0028214587, -1044774.25, 36329.94 
1.9561161e+3, 1.9967738e+2, -970989.75, -1064122.5, 61101.125, -0.0030370848, 0.0014028446, -940733.06, 42429.63 
1.9560443e+3, 2.0967095e+2, -875517.75, -976644.56, 58469.188, -0.0030717307, 0.009295128, -848781.06, 36444.883 
1.9559713e+3, 2.196641e+2, -774070.5, -876219.2, 64846.434, -0.0028218615, 0.016968142, -742600.0, 44693.02 
1.9558962e+3, 2.2965696e+2, -679246.44, -786384.3, 59305.44, 0.0009093752, 0.021814961, -652898.1, 36464.754 
1.955819e+3, 2.3964946e+2, -582157.94, -689504.1, 67845.17, 0.0037658117, 0.023577893, -549322.3, 42114.11 
1.9557385e+3, 2.496416e+2, -490305.22, -597833.3, 58313.87, 0.00030129982, 0.01441513, -464752.94, 28760.512 
1.9556554e+3, 2.5963366e+2, -398233.9, -500379.28, 72514.96, -0.0023605963, 0.0054357112, -360611.4, 34979.92 
1.955568e+3, 2.6962665e+2, -307920.9, -391879.22, 61611.242, -0.0026879713, 0.016549988, -275346.78, 22313.277 
1.9554763e+3, 2.7962026e+2, -232443.78, -296120.72, 85449.55, -0.0041238144, 0.022785328, -173093.9, 26628.74 
1.9672461e+3, 3.980454e+1, -2547426.3, -2553368.0, -752.89935, 0.0023133045, 0.007536157, -2547332.3, 2584.4844 
1.9671722e+3, 4.98053e+1, -2450734.3, -2469335.8, 4222.674, 0.0037486276, 0.0047528795, -2449820.5, 2088.801 
1.967099e+3, 5.980556e+1, -2343717.5, -2368446.0, 4440.25, 0.0008675477, 0.0075663, -2342944.5, 10962.339 
1.9670263e+3, 6.980497e+1, -2251563.0, -2288697.8, 9893.853, 0.0061721522, 0.011589934, -2249091.5, 6821.074 
1.9669545e+3, 7.9803735e+1, -2151022.5, -2189428.5, 10995.23, 0.003148239, 0.014741576, -2148097.5, 9827.195 
1.9668832e+3, 8.9802027e+1, -2057103.5, -2103884.8, 16531.006, -0.0019160121, 0.018191691, -2051851.6, 8089.754 
1.966813e+3, 9.979985e+1, -1956286.0, -2003985.5, 17350.418, -0.0010811373, 0.020271072, -1950642.5, 11320.138 
1.9667435e+3, 1.09797284e+2, -1861082.5, -1915709.4, 23156.633, 0.002012952, 0.01591705, -1852587.4, 11400.44 
1.9666746e+3, 1.19794324e+2, -1760693.1, -1816557.1, 24494.23, 0.003163222, 0.010749388, -1751474.5, 14542.248 
1.9666062e+3, 1.297911e+2, -1665186.1, -1726789.9, 28706.828, 0.0020929282, 0.009561171, -1653882.9, 14165.631 
1.966538e+3, 1.3978754e+2, -1565388.5, -1628027.3, 29780.64, 0.0015999135, 0.009185757, -1553490.0, 16593.406 
1.9664693e+3, 1.497837e+2, -1469774.1, -1536974.5, 32349.361, 0.0007841284, 0.0092968345, -1456732.6, 15388.254 
1.9664007e+3, 1.5977965e+2, -1370426.9, -1437480.3, 35086.19, 0.00016219192, 0.009817903, -1355424.5, 18736.156 
1.9663316e+3, 1.6977555e+2, -1276402.1, -1344940.9, 36097.78, 0.00068913144, 0.013668532, -1260897.6, 15303.26 
1.9662623e+3, 1.7977124e+2, -1180018.1, -1247139.4, 40596.75, 0.0013120339, 0.016924072, -1160906.1, 17336.965 
1.9661924e+3, 1.8976681e+2, -1083530.4, -1152959.8, 40078.813, 0.0012435506, 0.01763877, -1065222.3, 15064.116 
1.9661218e+3, 1.9976224e+2, -985041.44, -1054846.6, 45372.082, 0.001165813, 0.017428298, -962700.56, 19630.795 
1.9660501e+3, 2.0975745e+2, -889033.94, -961035.5, 43344.266, 0.00087423075, 0.014642379, -868689.5, 15688.712 
1.9659771e+3, 2.1975254e+2, -791239.7, -861929.25, 50542.984, 0.000022760732, 0.011709863, -764909.1, 21517.197 
1.9659019e+3, 2.2974774e+2, -696711.75, -765096.9, 44213.516, -0.00095556007, 0.009848656, -675011.9, 13461.486 
1.9658245e+3, 2.3974292e+2, -605143.9, -670666.44, 52966.703, -0.00057368446, 0.008542987, -575625.4, 14895.187 
1.9657436e+3, 2.4973845e+2, -511036.56, -566705.56, 42250.777, 0.00016190973, 0.015364966, -488275.72, 4288.652 
1.9656597e+3, 2.5973433e+2, -428760.28, -475446.03, 54891.33, -0.0027854044, 0.019869592, -392454.63, 2149.8892 
1.965571e+3, 2.6973116e+2, -330347.88, -349606.03, 31215.57, 0.0009883529, -0.009109735, -307309.97, -10674.179 
1.9654779e+3, 2.7972987e+2, -236371.33, -242677.88, 31693.844, -0.0012426627, 0.022687076, -207674.28, -9025.734 
1.9772483e+3, 3.9878586e+1, -2547711.5, -2551900.5, -1132.7114, 0.0079109175, -0.013234369, -2547425.0, 1766.1411 
1.9771749e+3, 4.9879527e+1, -2449801.0, -2467972.5, 7125.7314, -0.012555228, -0.0071264333, -2447340.0, 3841.782 
1.9771026e+3, 5.9879786e+1, -2343774.0, -2367147.3, 6463.7456, 0.013365594, -0.013687218, -2342105.8, 11073.693 
1.9770302e+3, 6.9879526e+1, -2250695.3, -2286335.0, 10533.066, 0.011414921, 0.0077265035, -2247815.0, 7366.9043 
1.9769582e+3, 7.987862e+1, -2150295.5, -2188309.8, 11813.956, -0.005062222, 0.029676586, -2146923.0, 10267.643 
1.9768873e+3, 8.9877e+1, -2057911.9, -2104262.3, 17583.762, -0.010891948, 0.040491663, -2051996.3, 7210.39 
1.9768171e+3, 9.98749e+1, -1957245.9, -2003200.0, 18974.09, -0.007055318, 0.04693941, -1950424.3, 10802.978 
1.9767481e+3, 1.0987253e+2, -1860110.1, -1911346.5, 24727.262, 0.0043472173, 0.036679555, -1850123.1, 13127.373 
1.9766794e+3, 1.1986981e+2, -1759183.1, -1811927.5, 26091.887, 0.012340223, 0.020641394, -1748457.1, 16820.04 
1.976611e+3, 1.2986675e+2, -1660898.6, -1718714.1, 30035.363, 0.0068478924, -0.007287148, -1648119.8, 19187.484 
1.9765429e+3, 1.3986349e+2, -1559421.9, -1618482.1, 30909.688, 0.00055617397, -0.03178122, -1546203.5, 23135.475 
1.9764742e+3, 1.4986053e+2, -1462237.4, -1523039.0, 33057.73, -0.004020567, -0.021951102, -1447727.0, 23640.953 
1.9764058e+3, 1.5985756e+2, -1364514.0, -1425075.8, 35262.543, -0.00742055, -0.0042127348, -1348315.0, 25082.137 
1.9763365e+3, 1.6985469e+2, -1269200.1, -1328829.4, 35836.51, -0.0023220896, 0.027460916, -1252397.5, 23027.709 
1.9762671e+3, 1.7985174e+2, -1174010.5, -1233006.0, 40963.695, 0.004030741, 0.05610888, -1153029.1, 24424.994 
1.9761972e+3, 1.8984842e+2, -1075054.6, -1134205.3, 41152.246, 0.0067127375, 0.053219505, -1053952.5, 25534.22 
1.9761267e+3, 1.9984508e+2, -975129.56, -1033534.44, 46822.594, 0.008288152, 0.042337716, -949149.25, 32370.268 
1.976055e+3, 2.0984195e+2, -873373.2, -928947.6, 44522.43, 0.007789445, 0.018386612, -848678.25, 34871.75 
1.9759819e+3, 2.19839e+2, -775310.6, -830194.6, 51485.305, 0.004631823, -0.006552562, -744410.5, 41168.383 
1.9759062e+3, 2.298365e+2, -676212.2, -724856.7, 43723.316, -0.0067259497, -0.023005571, -650501.44, 37102.125 
1.9758286e+3, 2.3983437e+2, -583286.4, -628037.5, 52703.902, -0.012570078, -0.030682776, -548404.9, 41219.535 
1.9757469e+3, 2.4983358e+2, -484607.66, -512992.22, 39130.29, -0.0020850117, 0.013041088, -457175.4, 34456.746 
1.9756618e+3, 2.5983337e+2, -405479.38, -426986.28, 50356.008, -0.0049131718, 0.0493139, -364741.44, 28892.715 
1.9755721e+3, 2.6983216e+2, -313668.3, -315520.2, 27812.613, 0.01031902, -0.061595008, -286766.22, 8879.923 
1.9754781e+3, 2.7983373e+2, -218736.4, -206628.97, 18552.637, -0.014248034, 0.028516548, -193167.36, 4463.106 
1.9872503e+3, 3.995319e+1, -2551115.3, -2550561.3, 3167.6023, 0.011903014, 0.045321748, -2547658.5, 801.36804 
1.9871777e+3, 4.9954116e+1, -2451416.3, -2470491.5, 4899.2974, -0.0065683387, 0.05443016, -2450231.5, 219.29085 
1.9871055e+3, 5.995425e+1, -2350752.0, -2371550.5, 3325.0872, -0.0072619673, 0.04809841, -2350233.3, 2216.3284 
1.9870336e+3, 6.9953465e+1, -2254842.5, -2288411.3, 6220.9873, 0.0042986046, 0.019054817, -2253726.8, 730.55597 
1.9869621e+3, 7.9952085e+1, -2150403.0, -2186758.3, 5760.0317, 0.0052174586, -0.012024028, -2149512.3, 6958.518 
1.9868913e+3, 8.9950424e+1, -2061150.9, -2102425.0, 11179.483, 0.011694748, -0.032033633, -2058317.4, 169.7443 
1.9868211e+3, 9.9948424e+1, -1966193.3, -2005261.0, 14302.232, 0.021585526, -0.044317376, -1961517.1, -1010.46075 
1.986752e+3, 1.0994659e+2, -1868573.9, -1913074.3, 19952.385, 0.0035384048, -0.020605115, -1860938.1, 1586.5197 
1.9866833e+3, 1.19944535e+2, -1765972.0, -1813506.3, 20995.52, -0.01668948, 0.008941732, -1758026.5, 6518.2764 
1.9866157e+3, 1.299423e+2, -1659882.5, -1715358.6, 23973.115, -0.0104325805, 0.04182576, -1650958.5, 15608.427 
1.9865482e+3, 1.3993981e+2, -1552895.3, -1612539.3, 21685.814, 0.0011849449, 0.067708746, -1545844.1, 22746.908 
1.9864795e+3, 1.4993705e+2, -1459532.9, -1516185.1, 19843.129, 0.009922935, 0.05626564, -1453274.1, 17344.174 
1.9864106e+3, 1.5993422e+2, -1368387.5, -1419764.6, 19632.262, 0.014767629, 0.034836497, -1361744.5, 10901.366 
1.9863409e+3, 1.6993156e+2, -1276500.3, -1319801.3, 19504.398, 0.004861748, -0.008547378, -1269010.4, 5661.6353 
1.9862708e+3, 1.7992914e+2, -1186939.8, -1225105.6, 25949.54, -0.005664045, -0.04671284, -1173811.9, 2883.784 
1.986201e+3, 1.899275e+2, -1085828.0, -1118826.3, 29452.617, -0.009796599, -0.04328894, -1068568.0, 10143.593 
1.9861305e+3, 1.9992627e+2, -987626.6, -1020128.94, 38112.938, -0.011878185, -0.029483592, -962444.75, 18279.102 
1.9860588e+3, 2.0992573e+2, -881328.56, -908457.2, 36270.58, -0.009033394, 0.006494011, -856168.9, 26560.303 
1.985986e+3, 2.1992554e+2, -782484.44, -810677.44, 43126.875, -0.004558376, 0.03982066, -751208.7, 33522.254 
1.9859102e+3, 2.299255e+2, -678108.75, -698080.2, 33378.54, 0.0045872196, 0.0439601, -653254.25, 33477.08 
1.9858322e+3, 2.3992598e+2, -584864.9, -600690.6, 40002.543, 0.012457971, 0.042936858, -552000.06, 36726.566 
1.9857495e+3, 2.4992743e+2, -493751.22, -487878.8, 19217.938, 0.0011861054, 0.045550074, -471374.06, 19338.451 
1.985663e+3, 2.5992948e+2, -415123.53, -401058.88, 26053.41, -0.01927946, 0.037237737, -381105.4, 11586.909 
1.9855732e+3, 2.6993126e+2, -301723.25, -286845.38, 6211.7573, 0.029624034, -0.025567025, -284592.88, 10082.203 
1.9854786e+3, 2.7993467e+2, -200291.4, -185846.13, -8399.256, -0.011970485, 0.038630392, -181991.14, 14650.346 
1.9972518e+3, 4.002592e+1, -2552143.8, -2546533.0, -1814.5929, -0.012650603, -0.00017638945, -2545997.3, 1749.9762 
1.9971807e+3, 5.0026727e+1, -2447111.8, -2470392.8, -6380.258, 0.023360413, -0.004779901, -2445477.8, 4261.519 
1.9971085e+3, 6.002681e+1, -2341148.5, -2367897.3, -3559.5818, -0.0022822863, -0.0025854069, -2340683.0, 11055.652 
1.9970371e+3, 7.002645e+1, -2256156.5, -2289340.5, 3459.2944, 0.0051045376, 0.013424919, -2255799.8, -2057.6511 
1.996966e+3, 8.002543e+1, -2159920.0, -2190489.8, 3691.4253, 0.0054636598, 0.017819848, -2159480.5, -3728.5474 
1.9968948e+3, 9.0024316e+1, -2059935.1, -2099315.5, 1065.7013, -0.0076014344, 0.033159986, -2059906.3, -2143.3354 
1.9968244e+3, 1.0002265e+2, -1956612.6, -2000847.4, -2557.9497, -0.008088005, 0.036208138, -1956465.3, 3314.0828 
1.9967557e+3, 1.1002036e+2, -1859717.1, -1910303.8, -5713.4194, 0.005132451, 0.024055362, -1859079.9, 2721.907 
1.9966877e+3, 1.2001787e+2, -1760107.0, -1811333.3, -11155.829, 0.0052640033, 0.016792107, -1757783.0, 6043.217 
1.9966203e+3, 1.3001521e+2, -1668595.5, -1717705.5, -4036.54, 0.0035105972, -0.0033890058, -1668265.9, -2413.7434 
1.9965534e+3, 1.400127e+2, -1575372.5, -1621399.9, -2132.0486, 0.006221544, -0.004831243, -1575273.9, -7396.997 
1.9964842e+3, 1.5001042e+2, -1474017.4, -1518162.8, 5487.208, -0.0022803168, -0.002352503, -1473345.6, -3446.5232 
1.996415e+3, 1.6000831e+2, -1374028.0, -1416506.6, 14532.915, -0.0054345774, -0.0016279292, -1369531.9, 2387.9392 
1.9963448e+3, 1.7000721e+2, -1271974.1, -1306201.6, 9650.908, 0.0012240093, 0.029851288, -1269440.5, 4490.0674 
1.9962741e+3, 1.8000627e+2, -1176652.1, -1206486.8, 9764.89, 0.0010165005, 0.030438764, -1173740.3, 2199.4841 
1.9962043e+3, 1.9000632e+2, -1074458.9, -1091760.0, -1495.8564, 0.0044911853, 0.033827048, -1074330.4, 3608.9385 
1.9961336e+3, 2.0000689e+2, -982789.25, -998079.25, -6089.353, 0.0034844927, 0.031943828, -980660.5, -726.7072 
1.9960622e+3, 2.1000771e+2, -881149.44, -884251.06, -10598.88, 0.004629813, 0.0045559723, -871988.5, 9937.137 
1.9959892e+3, 2.2000945e+2, -790069.44, -791860.2, -3473.3708, 0.004420032, 0.0057455488, -787377.9, -3469.1777 
1.9959134e+3, 2.3001163e+2, -684169.44, -673975.0, -7290.5903, -0.007806096, 0.0041366485, -670176.5, 15710.815 
1.9958347e+3, 2.4001466e+2, -588807.6, -575872.1, 5603.104, -0.0045234514, 0.008337391, -573782.6, 14074.848 
1.9957508e+3, 2.5001815e+2, -487713.2, -463057.7, -3870.4067, -0.0030756865, -0.00824099, -462464.38, 27358.848 
1.9956632e+3, 2.6002216e+2, -394893.75, -365224.97, 17453.408, -0.016383676, -0.0311522, -357153.44, 34630.69 
1.995574e+3, 2.70028e+2, -282029.84, -256766.83, 975.2743, 0.030433862, 0.090686806, -256729.23, 36997.938 
1.9954793e+3, 2.800316e+2, -192599.78, -183983.7, -17352.596, -0.020014325, -0.018486392, -170412.38, 25279.475 
