coord_x,coord_y,stress_xx,stress_yy,tau_xy,velocity_x,velocity_y,stress_1,eps,damage
5.0025624e+0, 3.484874e+1, -2543771.0, -2605195.3, -186.22658, 0.00034847326, -0.0052237995, -2543770.5, 54711.89 
5.002571e+0, 4.484534e+1, -2451341.0, -2519172.3, 82.90055, -0.00027988953, 0.0048513697, -2451341.0, 49174.617 
5.0025946e+0, 5.4841393e+1, -2352770.8, -2421160.5, -303.18024, -0.00019567247, -0.0009453853, -2352769.3, 49784.96 
5.0026214e+0, 6.483672e+1, -2264649.0, -2344361.0, -380.7944, -0.000014406065, -0.002385728, -2264647.3, 39952.902 
5.00265e+0, 7.483136e+1, -2166019.3, -2246262.8, -152.3814, 0.0002738764, -0.001139255, -2166019.0, 40633.523 
5.002673e+0, 8.482531e+1, -2076933.4, -2167385.3, -54.90068, 0.00028700253, -0.00024108206, -2076933.4, 31778.59 
5.0026894e+0, 9.481858e+1, -1978466.5, -2069297.3, -42.77739, 0.0000055086034, -0.0017993874, -1978466.4, 32311.43 
5.002703e+0, 1.048112e+2, -1889556.3, -1990511.5, -130.76167, -0.00007280531, -0.0011461625, -1889556.1, 23294.156 
5.0027144e+0, 1.14803165e+2, -1791301.9, -1892526.0, -258.61963, 0.000066432214, -0.00012443514, -1791301.3, 23627.725 
5.0027287e+0, 1.2479441e+2, -1702896.3, -1814781.6, -205.19185, -0.000027139788, 0.0007135055, -1702895.9, 14118.864 
5.0027454e+0, 1.3478494e+2, -1604348.0, -1716622.4, -33.486748, -0.0003725914, -0.00069723953, -1604348.0, 14759.538 
5.0027645e+0, 1.4477484e+2, -1514974.9, -1637045.1, -121.420975, -0.00015052356, -0.0009090963, -1514974.8, 6231.748 
5.002786e+0, 1.547641e+2, -1416618.8, -1538909.6, -435.26035, 0.0006880098, -0.0019578557, -1416617.3, 6694.512 
5.002795e+0, 1.6475263e+2, -1328469.3, -1461646.6, -462.14896, 0.00056784524, -0.0013536596, -1328467.6, -3043.6814 
5.0027907e+0, 1.7474048e+2, -1230239.1, -1363604.5, -136.78192, -0.00060434814, -0.0011461838, -1230239.0, -2695.8252 
5.002803e+0, 1.8472765e+2, -1141054.3, -1284302.9, -23.534306, -0.00072183425, -0.00048847205, -1141054.3, -11385.466 
5.0028336e+0, 1.9471419e+2, -1042468.3, -1186083.3, -236.84023, 0.00033096716, -0.0013519035, -1042467.94, -10667.093 
5.0028497e+0, 2.0470002e+2, -953749.44, -1107915.3, -335.4183, 0.00053486077, -0.0010023497, -953748.7, -19809.096 
5.0028497e+0, 2.1468519e+2, -855549.6, -1009857.2, -213.00021, -0.00021229683, -0.0014062527, -855549.4, -19464.227 
5.0028634e+0, 2.2466965e+2, -766662.8, -931445.5, -131.10622, -0.00039304685, -0.0004015705, -766662.7, -28425.383 
5.002892e+0, 2.3465344e+2, -667904.0, -833021.2, -222.85732, 0.00007210047, -0.00021581694, -667903.7, -27507.527 
5.002907e+0, 2.4463652e+2, -579388.6, -755189.25, -291.15677, 0.00024182348, -0.0002399957, -579388.2, -36826.195 
5.002906e+0, 2.5461888e+2, -481211.2, -657002.9, -151.55452, 0.000068070505, -0.0025913785, -481211.06, -36476.316 
5.002924e+0, 2.646006e+2, -392181.84, -578488.9, 20.198446, -0.000015997051, -0.00192691, -392181.84, -45267.848 
5.002965e+0, 2.7458167e+2, -292764.34, -479539.63, -84.69738, 0.000008594872, -0.00007720438, -292764.28, -43664.766 
5.0029856e+0, 2.8456196e+2, -204833.56, -403372.16, -293.8929, -0.000119386204, 0.0008060943, -204833.13, -53540.39 
5.002983e+0, 2.9454148e+2, -106537.805, -305020.1, -314.33945, -0.0004272584, -0.002084164, -106537.31, -53043.766 
5.003005e+0, 3.0452374e+2, -18132.986, -175666.25, -154.84755, -0.00032417927, -0.0010942625, -18132.834, -18132.834 
5.003056e+0, 3.1450883e+2, -16607.879, -174602.67, -138.8504, 0.0002720285, 0.00234301, -16607.756, -16607.756 
5.0030935e+0, 3.244983e+2, 47217.883, -44290.81, -11.73943, 0.00048920227, -0.0007900085, 47217.887, 47217.887 
1.5007688e+1, 3.4848776e+1, -2542300.3, -2602243.5, -152.93834, 0.0010401552, 0.0040829936, -2542300.0, 56182.06 
1.5007712e+1, 4.4845212e+1, -2452040.8, -2520610.3, 252.53925, -0.000837654, -0.008006961, -2452039.8, 48477.074 
1.5007783e+1, 5.484128e+1, -2353511.3, -2422671.8, -128.85439, -0.0005874254, -0.0017484037, -2353511.0, 49044.496 
1.5007862e+1, 6.4836633e+1, -2264241.3, -2343494.3, -184.36237, -0.000042268304, 0.0010386446, -2264240.8, 40360.15 
1.500795e+1, 7.483129e+1, -2165594.8, -2245355.5, 44.7859, 0.0008206526, -0.0018101417, -2165594.8, 41058.52 
1.5008019e+1, 8.4825253e+1, -2076915.1, -2167309.3, 88.08885, 0.00085975335, -0.0019439968, -2076915.0, 31797.352 
1.5008068e+1, 9.4818556e+1, -1978455.9, -2069235.1, 100.05035, 0.000014787629, -0.0012350968, -1978455.8, 32322.31 
1.500811e+1, 1.04811154e+2, -1889810.4, -1990981.8, -55.875008, -0.00021974348, -0.00043464915, -1889810.4, 23040.26 
1.5008144e+1, 1.1480307e+2, -1791558.3, -1893007.9, -183.53795, 0.00019963681, -0.0015050473, -1791557.9, 23372.008 
1.5008186e+1, 1.2479431e+2, -1702605.9, -1814114.0, -55.980583, -0.00008364307, -0.0014723781, -1702605.9, 14409.776 
1.5008236e+1, 1.3478489e+2, -1604047.8, -1715932.9, 117.58785, -0.001118886, -0.002288833, -1604047.6, 15060.22 
1.5008293e+1, 1.447748e+2, -1515580.0, -1638196.6, -24.908237, -0.00045259605, -0.0013091674, -1515580.0, 5627.0205 
1.5008356e+1, 1.5476398e+2, -1417243.1, -1540101.5, -338.8348, 0.0020623368, -0.0005059214, -1417242.3, 6070.7153 
1.5008384e+1, 1.6475253e+2, -1327895.5, -1460421.0, -402.64725, 0.0017034863, 0.00043514854, -1327894.3, -2469.105 
1.5008374e+1, 1.7474045e+2, -1229634.5, -1362322.8, -78.3525, -0.0018128852, -0.0006658276, -1229634.4, -2090.8281 
1.500841e+1, 1.8472762e+2, -1141463.3, -1285049.1, 119.912415, -0.0021683117, -0.00064941176, -1141463.3, -11794.12 
1.50085e+1, 1.9471411e+2, -1042909.0, -1186882.4, -90.17649, 0.0009906949, -0.0013969726, -1042909.0, -11107.33 
1.500855e+1, 2.0469993e+2, -953556.44, -1107453.3, -275.48364, 0.0016052516, -0.0008149485, -953555.94, -19615.385 
1.500855e+1, 2.1468511e+2, -855345.4, -1009347.0, -155.75061, -0.00063863886, -0.0008575726, -855345.2, -19259.51 
1.500859e+1, 2.2466959e+2, -766847.94, -931757.6, 44.753254, -0.0011793213, -0.00047311408, -766847.9, -28610.002 
1.5008676e+1, 2.3465335e+2, -668105.8, -833360.2, -42.133293, 0.00021585022, -0.0019888924, -668105.8, -27708.66 
1.5008721e+1, 2.4463643e+2, -579176.9, -754626.06, -281.44162, 0.0007231502, -0.0014249036, -579176.44, -36613.55 
1.5008716e+1, 2.5461888e+2, -480997.25, -656392.5, -148.31783, 0.00020137551, -0.00054131134, -480997.13, -36262.18 
1.5008771e+1, 2.6460057e+2, -392399.28, -578847.06, 313.27188, -0.00004734432, -0.000096596596, -392398.75, -45484.617 
1.5008894e+1, 2.7458158e+2, -293010.8, -479927.88, 220.27518, 0.000025337422, -0.0024676037, -293010.56, -43910.215 
1.5008956e+1, 2.8456187e+2, -204900.92, -403403.72, -278.14233, -0.00035965696, -0.0016771344, -204900.53, -53606.797 
1.5008949e+1, 2.9454142e+2, -106592.09, -305040.28, -311.83646, -0.0012809369, 0.00024711428, -106591.6, -53097.48 
1.5009016e+1, 3.0452368e+2, -18124.549, -175628.83, 171.36388, -0.00097238744, -0.00014045146, -18124.363, -18124.363 
1.500917e+1, 3.1450868e+2, -16589.197, -174571.53, 201.82347, 0.0008189162, -0.0055066654, -16588.94, -16588.94 
1.500928e+1, 3.2449827e+2, 48035.824, -42635.45, 160.20248, 0.0014655074, -0.0016241077, 48036.11, 48036.11 
2.5012782e+1, 3.4848678e+1, -2542613.3, -2601687.8, -375.6851, 0.0011856327, 0.005336655, -2542611.0, 55872.01 
2.501286e+1, 4.484509e+1, -2452130.0, -2521023.0, -200.27612, -0.0008752854, -0.010664995, -2452129.3, 48388.637 
2.5012997e+1, 5.4841155e+1, -2353151.0, -2422850.0, -40.580734, -0.0005634353, -0.0016942527, -2353151.0, 49405.535 
2.5013125e+1, 6.48365e+1, -2263650.5, -2343120.0, -116.14202, 0.00000034491296, 0.002105637, -2263650.3, 40951.992 
2.5013244e+1, 7.4831164e+1, -2165587.3, -2245264.0, -278.0602, 0.00084598013, -0.0015734327, -2165586.3, 41068.313 
2.5013345e+1, 8.4825134e+1, -2077255.9, -2167516.3, -428.1785, 0.0007642381, -0.0019956732, -2077253.8, 31459.803 
2.5013432e+1, 9.481844e+1, -1978785.8, -2069448.0, -443.60928, -0.0003220328, -0.0010106001, -1978783.5, 31995.742 
2.5013512e+1, 1.0481103e+2, -1889897.9, -1991145.1, -509.87024, -0.00045153414, -0.00035387772, -1889895.4, 22956.512 
2.5013593e+1, 1.1480293e+2, -1791036.0, -1892860.4, -442.6365, 0.00044772096, -0.0020282806, -1791034.1, 23897.16 
2.5013667e+1, 1.2479418e+2, -1701982.4, -1813765.0, -442.1181, 0.00030018642, -0.0019163938, -1701980.6, 15036.43 
2.501373e+1, 1.3478477e+2, -1604120.5, -1715918.4, -555.9946, -0.00097172125, -0.0019285085, -1604117.8, 14991.397 
2.5013807e+1, 1.4477468e+2, -1516017.0, -1638511.6, -513.9093, -0.00066095864, -0.0007683285, -1516014.9, 5193.3267 
2.50139e+1, 1.5476385e+2, -1417463.4, -1540346.0, -251.16962, 0.001368501, -0.00046808977, -1417462.9, 5851.3096 
2.501396e+1, 1.647524e+2, -1327827.8, -1460423.1, -341.97723, 0.0012629693, 0.00019498508, -1327826.9, -2400.426 
2.5013986e+1, 1.7474031e+2, -1229218.3, -1362151.5, -672.55347, -0.0011923535, -0.0009452228, -1229214.8, -1669.8594 
2.501405e+1, 1.847275e+2, -1141038.5, -1284828.8, -616.0577, -0.0015355056, -0.00076272304, -1141035.9, -11365.448 
2.5014147e+1, 1.94714e+2, -1043063.94, -1186934.5, -335.45908, 0.00047577798, -0.0011240513, -1043063.2, -11260.323 
2.501422e+1, 2.0469981e+2, -953925.25, -1107769.3, -359.26126, 0.0010034556, -0.0005385986, -953924.44, -19982.691 
2.5014266e+1, 2.1468498e+2, -855102.4, -1009433.75, -572.0097, -0.0001377842, -0.0010145128, -855100.25, -19013.188 
2.5014335e+1, 2.2466944e+2, -766595.7, -931597.6, -496.86804, -0.0005402189, -0.0007849214, -766594.2, -28354.877 
2.501443e+1, 2.3465322e+2, -668714.44, -833618.6, -342.68317, -0.000106055915, -0.002146177, -668713.7, -28315.268 
2.5014508e+1, 2.4463631e+2, -579572.44, -754901.8, -456.08505, 0.00017464571, -0.0012729879, -579571.25, -37007.18 
2.501456e+1, 2.5461876e+2, -479942.9, -655948.6, -591.5397, 0.00028025638, 0.00007828629, -479940.9, -35204.785 
2.5014654e+1, 2.6460046e+2, -391498.22, -578516.06, -318.66818, 0.00026129288, 0.00028488747, -391497.7, -44582.32 
2.501479e+1, 2.7458146e+2, -293914.06, -480520.72, -249.5628, 0.000093237875, -0.003147769, -293913.75, -44812.008 
2.5014892e+1, 2.845617e+2, -205890.8, -403873.7, -456.52625, -0.00028966056, -0.0023632126, -205889.75, -54594.652 
2.501495e+1, 2.945413e+2, -105880.086, -304631.97, -389.02664, -0.00092481426, 0.00078413985, -105879.32, -52384.05 
2.5015065e+1, 3.0452356e+2, -17235.074, -175376.03, 36.182503, -0.0006672502, -0.000014004373, -17235.064, -17235.064 
2.501526e+1, 3.1450853e+2, -17082.252, -174998.36, -47.887104, 0.0006661146, -0.0077615567, -17082.238, -17082.238 
2.5015405e+1, 3.2449818e+2, 47202.473, -42197.91, -332.03143, 0.0012661864, -0.00035670877, 47203.707, 47203.707 
3.5017842e+1, 3.4848443e+1, -2543135.3, -2602772.8, -24.031921, 0.00076692493, -0.0014885125, -2543135.3, 55349.86 
3.5018018e+1, 4.484498e+1, -2451837.8, -2520422.8, 95.811165, -0.00040346503, -0.003240311, -2451837.8, 48681.395 
3.501823e+1, 5.4841024e+1, -2352857.8, -2422227.5, 254.6144, -0.00014232693, -0.00079601654, -2352856.8, 49701.098 
3.5018402e+1, 6.483635e+1, -2263944.5, -2343740.8, -67.08961, 0.000098417055, 0.00081027404, -2263944.3, 40659.406 
3.5018528e+1, 7.483099e+1, -2165892.0, -2245900.0, -232.08176, 0.0003450384, -0.00042614224, -2165891.5, 40764.88 
3.5018653e+1, 8.4824944e+1, -2077304.8, -2167568.3, -286.01175, -0.000009589323, -0.00040894074, -2077303.9, 31411.637 
3.501878e+1, 9.481822e+1, -1978831.1, -2069490.9, -298.94327, -0.0010132289, -0.0011187888, -1978830.1, 31951.277 
3.5018912e+1, 1.0481081e+2, -1889783.4, -1990874.0, -278.61755, -0.0007777448, -0.00091274845, -1889782.6, 23071.33 
3.501906e+1, 1.1480274e+2, -1790926.3, -1892580.0, -209.12227, 0.0007968363, -0.0016952989, -1790925.8, 24007.285 
3.5019168e+1, 1.2479399e+2, -1702213.3, -1814185.8, -465.7543, 0.0011120844, -0.00062948844, -1702211.4, 14807.465 
3.501923e+1, 1.3478458e+2, -1604355.3, -1716353.4, -583.5122, 0.000050472678, 0.0003775396, -1604352.1, 14758.973 
3.501931e+1, 1.4477448e+2, -1515549.9, -1637501.4, -371.8535, -0.0007925979, 0.0007061284, -1515548.8, 5661.3647 
3.5019413e+1, 1.547637e+2, -1416993.1, -1539293.8, -105.583725, -0.0013929224, -0.001834639, -1416993.0, 6322.6216 
3.5019523e+1, 1.6475223e+2, -1328434.8, -1461638.4, -195.34392, -0.0007607121, -0.0020723792, -1328434.5, -3006.413 
3.5019633e+1, 1.7474006e+2, -1229855.4, -1363419.1, -524.11676, 0.0012349852, -0.0019721282, -1229853.3, -2305.977 
3.501972e+1, 1.8472727e+2, -1140583.1, -1283770.3, -614.6749, 0.0011586607, -0.00082871085, -1140580.5, -10907.743 
3.501977e+1, 1.9471382e+2, -1042574.6, -1185818.0, -338.5286, -0.0012236348, -0.00053687906, -1042573.8, -10769.397 
3.5019863e+1, 2.0469967e+2, -954322.1, -1108506.3, -161.14304, -0.0012808436, -0.00017722041, -954321.94, -20378.744 
3.5020006e+1, 2.1468477e+2, -855543.4, -1010208.7, -366.43765, 0.0012772314, -0.0018685091, -855542.5, -19453.281 
3.5020104e+1, 2.2466922e+2, -766356.25, -931037.06, -533.84424, 0.0015043272, -0.0013457272, -766354.5, -28112.994 
3.5020158e+1, 2.3465304e+2, -668445.0, -833019.4, -388.01587, -0.0009129379, -0.0006856408, -668444.1, -28044.025 
3.5020268e+1, 2.4463615e+2, -579841.5, -755318.75, -89.83504, -0.0014114705, 0.00020528193, -579841.5, -37275.805 
3.5020438e+1, 2.5461853e+2, -480239.2, -656401.06, -209.32672, 0.00028799678, -0.000727724, -480238.94, -35500.66 
3.5020572e+1, 2.6460022e+2, -391412.0, -578314.06, -467.7871, 0.00088370027, -0.00078591733, -391410.8, -44493.17 
3.502066e+1, 2.7458122e+2, -293828.22, -480267.56, -419.9871, 0.00020255292, -0.0021177582, -293827.25, -44723.6 
3.5020792e+1, 2.845615e+2, -205756.81, -403532.03, -31.899849, 0.00007456775, -0.0012739766, -205756.81, -54459.984 
3.502098e+1, 2.9454112e+2, -105727.086, -304312.2, 60.84461, 0.00061274576, -0.00046298443, -105727.07, -52230.07 
3.502116e+1, 3.0452338e+2, -17441.629, -175704.05, 40.80232, 0.00056048314, -0.0007127949, -17441.62, -17441.62 
3.502133e+1, 3.1450835e+2, -17315.047, -175343.4, -65.72053, -0.00019702972, -0.004439602, -17315.02, -17315.02 
3.5021472e+1, 3.2449803e+2, 47460.992, -41601.26, -284.85727, -0.00012234134, 0.0030192547, 47461.906, 47461.906 
4.502295e+1, 3.48482e+1, -2542481.5, -2603553.8, -22.332659, 0.00015438255, -0.0033803463, -2542481.5, 56006.176 
4.5023197e+1, 4.4844761e+1, -2450870.0, -2519751.0, -348.2132, -0.00040867142, 0.0009046602, -2450868.3, 49653.113 
4.5023453e+1, 5.4840785e+1, -2353300.0, -2422224.3, -351.76297, 0.0007556821, -0.00064351043, -2353298.3, 49262.06 
4.5023662e+1, 6.4836097e+1, -2264823.8, -2344314.5, -570.7734, 0.00071927684, -0.0005523825, -2264819.8, 39786.453 
4.5023823e+1, 7.4830735e+1, -2165599.5, -2245913.3, -524.6997, -0.000569069, -0.0006549215, -2165596.0, 41062.695 
4.5023996e+1, 8.482468e+1, -2076348.5, -2167117.5, -523.21674, -0.00086588104, -0.00015377943, -2076345.5, 32372.57 
4.5024168e+1, 9.481796e+1, -1978009.9, -2069080.4, -508.2654, -0.000111521, -0.0010709218, -1978007.1, 32776.824 
4.5024338e+1, 1.04810566e+2, -1889506.8, -1990699.9, -557.3985, 0.0002071555, -0.00081867893, -1889503.8, 23352.74 
4.5024493e+1, 1.1480249e+2, -1791683.9, -1892928.4, -602.43243, 0.00006132677, -0.001276008, -1791680.4, 23255.19 
4.502463e+1, 1.2479374e+2, -1703006.5, -1814649.4, -803.9856, 0.00027062907, -0.0002723022, -1703000.8, 14020.625 
4.502474e+1, 1.347843e+2, -1603893.3, -1716221.3, -754.037, 0.0008544946, 0.0002595225, -1603888.3, 15225.564 
4.5024854e+1, 1.447742e+2, -1514620.0, -1636934.0, -735.66986, 0.00012342857, 0.00044565042, -1514615.5, 6597.2007 
4.5024955e+1, 1.5476345e+2, -1416714.1, -1539038.0, -914.1926, -0.0020344176, -0.0018758886, -1416707.3, 6610.9033 
4.502509e+1, 1.6475198e+2, -1328731.1, -1461887.9, -901.1322, -0.0016103679, -0.0019784262, -1328725.0, -3294.5247 
4.5025244e+1, 1.7473981e+2, -1230312.5, -1363775.0, -655.2389, 0.0016492272, -0.0018385851, -1230309.3, -2759.3699 
4.502536e+1, 1.8472698e+2, -1140760.4, -1283798.5, -739.2159, 0.0019026884, -0.00078614894, -1140756.5, -11081.129 
4.5025426e+1, 1.9471356e+2, -1042216.9, -1185557.0, -971.5496, -0.0011764527, -0.00073237706, -1042210.3, -10403.326 
4.502554e+1, 2.046994e+2, -954106.7, -1108482.1, -851.76587, -0.0016313957, -0.00032525204, -954102.0, -20156.23 
4.5025703e+1, 2.1468452e+2, -856086.56, -1010572.2, -689.1501, 0.00086239754, -0.0016429325, -856083.5, -19991.695 
4.5025837e+1, 2.2466896e+2, -766645.3, -931027.25, -754.365, 0.001331822, -0.0010695183, -766641.8, -28397.729 
4.5025924e+1, 2.3465279e+2, -667519.5, -832411.56, -821.02167, -0.00050533185, -0.0007282498, -667515.44, -27112.848 
4.502607e+1, 2.446359e+2, -579341.94, -755181.3, -543.7403, -0.0009961341, -0.00006982408, -579340.25, -36772.1 
4.5026267e+1, 2.5461826e+2, -481655.03, -657218.56, -508.5622, 0.000073620635, -0.0011304735, -481653.53, -36912.62 
4.5026433e+1, 2.6459998e+2, -392728.28, -578726.6, -712.27747, 0.0004716137, -0.0008276743, -392725.56, -45805.285 
4.5026547e+1, 2.7458102e+2, -293123.8, -479683.4, -650.8484, 0.00007174226, -0.0012342664, -293121.53, -44015.51 
4.5026726e+1, 2.845613e+2, -204840.14, -403152.84, -211.56671, 0.00023970254, -0.00052054005, -204839.92, -53540.777 
4.502698e+1, 2.9454085e+2, -106480.99, -304689.72, -330.50336, 0.0010771122, -0.0010915013, -106480.44, -52980.926 
4.5027202e+1, 3.0452314e+2, -18513.775, -176151.02, -478.4246, 0.00088536635, -0.0008789279, -18512.324, -18512.324 
4.502739e+1, 3.1450814e+2, -17552.89, -175345.0, -318.28802, -0.00053679856, -0.0019178166, -17552.248, -17552.248 
4.502757e+1, 3.2449776e+2, 47909.89, -41613.28, -525.01624, -0.0009421079, 0.0030032445, 47912.973, 47912.973 
5.50281e+1, 3.4847963e+1, -2543385.8, -2605335.8, 405.47348, -0.00068089284, -0.00036568262, -2543383.3, 55106.805 
5.50284e+1, 4.4844437e+1, -2450909.0, -2519768.8, -408.32495, -0.0009012699, 0.0018088097, -2450906.5, 49617.953 
5.5028653e+1, 5.4840446e+1, -2353306.5, -2422217.5, -419.45398, 0.0020994304, -0.0012298119, -2353304.0, 49259.754 
5.50289e+1, 6.4835757e+1, -2264724.0, -2344128.5, -232.35782, 0.0018287731, -0.0019802842, -2264723.3, 39886.203 
5.502913e+1, 7.4830407e+1, -2165498.5, -2245730.3, -179.10155, -0.0019107207, -0.002244299, -2165498.0, 41163.918 
5.502937e+1, 8.4824365e+1, -2076323.1, -2167063.8, -407.4622, -0.0018242511, -0.0012166599, -2076321.3, 32399.889 
5.5029607e+1, 9.481766e+1, -1977977.6, -2069038.9, -395.92163, 0.0023501778, -0.00087498984, -1977975.9, 32811.027 
5.502978e+1, 1.0481026e+2, -1889608.0, -1990864.3, -591.45496, 0.002469917, -0.00007408285, -1889604.5, 23254.893 
5.502989e+1, 1.14802174e+2, -1791788.4, -1893089.5, -638.05206, -0.0017717583, -0.000772363, -1791784.3, 23154.318 
5.5030054e+1, 1.2479341e+2, -1702902.8, -1814456.4, -519.4515, -0.0022292382, -0.00083717064, -1702900.3, 14124.215 
5.5030274e+1, 1.3478398e+2, -1603794.8, -1716018.9, -462.26834, 0.0014125296, -0.0022601536, -1603792.9, 15324.134 
5.5030435e+1, 1.4477387e+2, -1514956.1, -1637624.5, -751.6226, 0.0020503944, -0.001536755, -1514951.6, 6264.456 
5.503053e+1, 1.5476309e+2, -1417055.9, -1539748.4, -935.5248, -0.00058961776, -0.0006043336, -1417048.8, 6272.91 
5.5030656e+1, 1.6475163e+2, -1328292.0, -1460961.9, -800.592, -0.0013236083, 0.0004563825, -1328287.1, -2853.2644 
5.503082e+1, 1.7473951e+2, -1229870.8, -1362792.9, -552.3273, 0.00004537373, -0.0005529929, -1229868.5, -2315.8264 
5.503098e+1, 1.847267e+2, -1141151.1, -1284663.4, -603.5317, 0.00070379104, -0.00063757197, -1141148.6, -11470.331 
5.50311e+1, 1.9471319e+2, -1042628.6, -1186474.8, -833.2829, 0.00056745065, -0.0017026581, -1042623.75, -10813.227 
5.503124e+1, 2.0469904e+2, -953846.1, -1107897.4, -840.6353, -0.000107836095, -0.00097421295, -953841.5, -19892.07 
5.503137e+1, 2.1468419e+2, -855799.75, -1009947.0, -681.8507, -0.0013795858, -0.00034713763, -855796.75, -19701.85 
5.503153e+1, 2.2466865e+2, -766727.3, -931262.6, -495.6401, -0.0010623122, 0.000033436314, -766725.8, -28478.795 
5.5031735e+1, 2.3465244e+2, -667614.3, -832679.8, -553.78876, 0.0010631916, -0.0022579553, -667612.5, -27206.596 
5.503191e+1, 2.4463554e+2, -579246.6, -755145.3, -647.8838, 0.0013822821, -0.0020804242, -579244.25, -36672.62 
5.503205e+1, 2.5461793e+2, -481551.94, -657166.1, -625.0523, -0.00038978894, -0.0011337347, -481549.72, -36805.613 
5.503223e+1, 2.6459968e+2, -392559.53, -578472.8, -377.96634, -0.0010227917, 0.00014391604, -392558.78, -45635.547 
5.503245e+1, 2.7458072e+2, -292935.6, -479442.25, -299.26907, -0.0003136248, -0.00049531803, -292935.13, -43826.3 
5.503269e+1, 2.84561e+2, -205052.72, -403662.47, -169.31357, 0.00018610108, -0.00010579682, -205052.58, -53750.55 
5.5032945e+1, 2.9454052e+2, -106711.07, -305231.66, -301.9392, 0.0004339277, -0.00110622, -106710.61, -53207.805 
5.50332e+1, 3.0452278e+2, -18258.154, -175483.56, -280.58273, 0.00026990406, -0.0005118857, -18257.652, -18257.652 
5.5033445e+1, 3.1450787e+2, -17286.713, -174601.31, -113.525185, -0.00037284594, -0.00019793889, -17286.63, -17286.63 
5.503369e+1, 3.2449743e+2, 47271.082, -42883.703, -195.50737, -0.0012509829, -0.00041184877, 47271.504, 47271.504 
6.5033233e+1, 3.4847596e+1, -2543757.5, -2604801.3, -142.31003, -0.00022009647, 0.0019011153, -2543757.0, 54736.516 
6.503359e+1, 4.4844043e+1, -2451505.8, -2520161.8, -485.4057, -0.0006450676, -0.001063891, -2451502.3, 49026.04 
6.5033877e+1, 5.484007e+1, -2352333.5, -2421877.0, -598.10175, 0.0010997299, -0.0010011604, -2352328.3, 50239.055 
6.503416e+1, 6.483539e+1, -2263403.8, -2343404.8, -433.91357, 0.0011110767, -0.00073310395, -2263401.5, 41211.66 
6.503446e+1, 7.483003e+1, -2165427.5, -2245609.5, -427.70792, -0.0007178504, -0.0021781346, -2165425.3, 41240.49 
6.5034735e+1, 8.482399e+1, -2077012.5, -2167454.0, -793.1251, -0.000599989, -0.0015949529, -2077005.5, 31719.291 
6.5034986e+1, 9.4817275e+1, -1978681.5, -2069429.3, -866.30634, 0.0015986623, -0.0009073893, -1978673.3, 32117.33 
6.5035194e+1, 1.0480987e+2, -1889673.1, -1990874.5, -1053.1744, 0.0014659438, 0.0000722893, -1889662.1, 23201.043 
6.503535e+1, 1.14801794e+2, -1790700.3, -1892550.3, -993.38354, -0.0011751647, -0.00062830054, -1790690.5, 24251.805 
6.503554e+1, 1.2479303e+2, -1701940.6, -1813966.3, -873.7435, -0.0015056748, -0.00088160014, -1701933.8, 15094.47 
6.503577e+1, 1.3478358e+2, -1604267.6, -1716228.1, -917.9272, 0.0006635435, -0.0026917986, -1604260.1, 14860.627 
6.5035963e+1, 1.4477347e+2, -1515809.1, -1638177.6, -1140.304, 0.0013376649, -0.0018835376, -1515798.5, 5421.3403 
6.50361e+1, 1.547627e+2, -1416952.3, -1539834.5, -1066.2549, 0.00038295687, -0.00035665327, -1416943.0, 6382.6543 
6.5036255e+1, 1.6475123e+2, -1327662.0, -1460463.9, -1018.6301, -0.00031802585, 0.0009030927, -1327654.3, -2216.433 
6.5036416e+1, 1.7473914e+2, -1229647.9, -1362511.3, -1127.9327, -0.0007450445, -0.0003398717, -1229638.4, -2081.9084 
6.503658e+1, 1.8472631e+2, -1141466.9, -1285007.8, -1138.7721, -0.00036058194, -0.00061564834, -1141457.9, -11775.887 
6.503677e+1, 1.947128e+2, -1042949.2, -1186830.6, -1073.5347, 0.00092757045, -0.0018278223, -1042941.2, -11126.635 
6.5036935e+1, 2.0469862e+2, -953613.9, -1107538.9, -1062.0494, 0.0006010611, -0.0011335904, -953606.56, -19653.143 
6.503707e+1, 2.146838e+2, -855165.2, -1009362.75, -1032.594, -0.0015279661, -0.0004100809, -855158.25, -19059.684 
6.5037256e+1, 2.246683e+2, -766753.25, -931475.3, -874.7454, -0.0014592852, 0.000091985516, -766748.6, -28497.88 
6.50375e+1, 2.3465206e+2, -668750.8, -833445.6, -981.4388, 0.0010992762, -0.0020525237, -668744.94, -28335.15 
6.50377e+1, 2.4463515e+2, -579991.6, -755195.4, -1095.5172, 0.0015875454, -0.0019766765, -579984.8, -37409.26 
6.503786e+1, 2.5461757e+2, -480910.56, -656507.6, -937.7508, -0.0003038385, -0.001410309, -480905.53, -36157.758 
6.5038073e+1, 2.645993e+2, -391829.4, -578178.94, -560.7485, -0.0009663065, -0.00025343313, -391827.72, -44900.906 
6.5038353e+1, 2.7458036e+2, -293249.72, -479611.3, -684.8558, -0.00019690435, -0.00071706506, -293247.2, -44134.703 
6.503863e+1, 2.8456065e+2, -205648.16, -403802.38, -662.3737, 0.000075270415, -0.00002840887, -205645.94, -54340.246 
6.5038896e+1, 2.9454017e+2, -106945.305, -305215.78, -482.15295, -0.0002454197, -0.00057679584, -106944.13, -53437.78 
6.5039194e+1, 3.0452242e+2, -18143.027, -175305.34, -249.2066, -0.00036981338, -0.00017780515, -18142.633, -18142.633 
6.5039504e+1, 3.145075e+2, -16962.328, -174379.97, -323.40067, -0.00023392326, -0.000828498, -16961.662, -16961.662 
6.5039825e+1, 3.2449707e+2, 47114.64, -43436.63, -302.88535, -0.0003407418, -0.0014303237, 47115.652, 47115.652 
7.5038344e+1, 3.4847105e+1, -2541997.0, -2601165.0, 75.59907, 0.0014876338, 0.0034862247, -2541996.8, 56501.617 
7.503878e+1, 4.484358e+1, -2451686.0, -2520470.8, -159.05412, 0.00034083065, -0.007609759, -2451685.5, 48847.297 
7.50391e+1, 5.483966e+1, -2352541.0, -2422246.3, -267.06323, -0.0022400822, 0.0000381807, -2352540.0, 50031.297 
7.5039446e+1, 6.4835e+1, -2263409.5, -2343405.0, -404.30908, -0.0014388676, 0.0031664213, -2263407.5, 41209.496 
7.5039816e+1, 7.482962e+1, -2165421.8, -2245608.8, -402.47418, 0.0029610319, -0.00047554699, -2165419.8, 41250.066 
7.504011e+1, 8.4823555e+1, -2077134.1, -2167732.5, -685.21387, 0.0027645072, -0.001294371, -2077129.0, 31600.223 
7.5040317e+1, 9.4816816e+1, -1978801.9, -2069714.3, -755.64844, -0.0023533741, -0.001162056, -1978795.6, 31999.59 
7.5040567e+1, 1.0480941e+2, -1889584.6, -1990622.8, -798.6832, -0.002793785, -0.00036442597, -1889578.3, 23289.465 
7.5040865e+1, 1.1480135e+2, -1790608.1, -1892296.3, -735.7061, 0.0018024456, -0.0008385349, -1790602.9, 24343.934 
7.504109e+1, 1.247926e+2, -1702030.6, -1814154.4, -945.39026, 0.0023751562, -0.00041514923, -1702022.6, 15009.868 
7.5041246e+1, 1.3478316e+2, -1604354.5, -1716424.1, -995.542, -0.0014019056, -0.0010642889, -1604345.6, 14779.386 
7.504144e+1, 1.4477304e+2, -1515651.5, -1637898.8, -922.35095, -0.0019972078, -0.00061509834, -1515644.6, 5579.625 
7.504168e+1, 1.5476225e+2, -1416797.3, -1539545.3, -841.1087, 0.0008707542, -0.0011187159, -1416791.5, 6538.401 
7.504187e+1, 1.647508e+2, -1327885.5, -1460860.1, -1021.1338, 0.0013614668, -0.000606359, -1327877.6, -2435.4773 
7.5042015e+1, 1.7473866e+2, -1229878.1, -1362919.5, -1135.1035, -0.0007502173, -0.0011876096, -1229868.4, -2307.3416 
7.504219e+1, 1.8472585e+2, -1141337.8, -1284789.0, -1004.2036, -0.0013016362, -0.0007230023, -1141330.8, -11644.087 
7.5042415e+1, 1.9471234e+2, -1042817.9, -1186594.0, -934.5989, -0.00011324099, -0.0011153889, -1042811.8, -10992.865 
7.504262e+1, 2.0469818e+2, -953581.8, -1107395.3, -950.5682, 0.00047174608, -0.0008042913, -953575.94, -19618.205 
7.504281e+1, 2.1468337e+2, -855138.4, -1009218.6, -921.93384, 0.00037684222, -0.0018150175, -855132.9, -19029.922 
7.5043005e+1, 2.2466783e+2, -766947.1, -931906.25, -889.00653, 0.000090822294, -0.00087917014, -766942.3, -28687.156 
7.5043213e+1, 2.346516e+2, -668960.6, -833880.4, -998.0502, -0.00041549015, -0.00014073685, -668954.56, -28540.287 
7.5043434e+1, 2.4463469e+2, -579660.6, -754630.3, -861.88824, -0.00036751706, 0.00020957147, -579656.4, -37076.453 
7.5043684e+1, 2.5461712e+2, -480566.9, -655904.8, -696.1617, 0.00030074155, -0.001954422, -480564.16, -35812.15 
7.504395e+1, 2.6459885e+2, -392049.75, -578669.1, -462.9208, 0.00057593186, -0.0020010888, -392048.6, -45117.547 
7.504425e+1, 2.7457988e+2, -293477.28, -480159.13, -592.10297, 0.00039848976, -0.0018912542, -293475.4, -44358.38 
7.504455e+1, 2.8456017e+2, -205298.13, -403161.44, -546.6325, -0.00010532167, -0.00028056666, -205296.61, -53986.5 
7.5044847e+1, 2.9453975e+2, -106575.2, -304513.84, -367.4861, -0.0010027883, 0.00049199606, -106574.52, -53064.367 
7.504518e+1, 3.0452207e+2, -18271.457, -175518.5, -8.479122, -0.0010738282, 0.00012975797, -18271.457, -18271.457 
7.504558e+1, 3.1450707e+2, -17132.28, -174621.61, -76.30173, -0.00011933946, -0.0037810586, -17132.242, -17132.242 
7.5045973e+1, 3.244967e+2, 47175.824, -43241.55, -76.33271, 0.0017091859, -0.00011705013, 47175.89, 47175.89 
8.504348e+1, 3.48466e+1, -2541085.5, -2601078.5, 316.19873, 0.0009486302, 0.0018151662, -2541084.0, 57419.4 
8.5043967e+1, 4.48431e+1, -2451267.5, -2520169.5, -655.3082, 0.0011228962, -0.00675599, -2451261.5, 49276.195 
8.5044366e+1, 5.483917e+1, -2352581.8, -2422163.0, -490.21066, -0.0020380935, -0.00036307, -2352578.3, 49997.78 
8.5044754e+1, 6.4834505e+1, -2263702.3, -2343667.5, -730.1565, -0.0016144093, 0.0026693335, -2263695.5, 40926.25 
8.5045135e+1, 7.4829125e+1, -2165385.3, -2245709.5, -821.62506, 0.0026116502, 0.00017262386, -2165376.8, 41297.715 
8.504546e+1, 8.482306e+1, -2076635.9, -2167466.3, -987.96313, 0.0024983604, -0.00052160537, -2076625.1, 32108.877 
8.5045713e+1, 9.4816315e+1, -1977893.6, -2069246.1, -909.9899, -0.0022594593, -0.00135901, -1977884.6, 32915.49 
8.5046005e+1, 1.04808904e+2, -1888965.1, -1990409.1, -988.7539, -0.002578171, -0.00087010226, -1888955.4, 23917.273 
8.5046333e+1, 1.1480084e+2, -1791057.5, -1892579.6, -1072.8175, 0.0018925815, -0.000932833, -1791046.3, 23905.514 
8.5046583e+1, 1.24792084e+2, -1702562.9, -1814494.1, -1397.2472, 0.0023846906, -0.000042755575, -1702545.4, 14492.118 
8.504676e+1, 1.3478264e+2, -1603802.3, -1716230.3, -1414.5316, -0.001440737, -0.000164841, -1603784.5, 15345.671 
8.5046977e+1, 1.4477251e+2, -1514888.5, -1637344.4, -1323.9259, -0.0020897798, 0.00003541719, -1514874.1, 6355.096 
8.5047233e+1, 1.5476173e+2, -1417094.5, -1539486.9, -1292.4337, 0.00073013623, -0.001559194, -1417080.9, 6253.974 
8.5047454e+1, 1.6475028e+2, -1328470.0, -1461348.1, -1431.9152, 0.0013166026, -0.001387971, -1328454.6, -3007.417 
8.504763e+1, 1.7473812e+2, -1229519.3, -1362962.5, -1461.5526, -0.0005496632, -0.0014761407, -1229503.3, -1937.0625 
8.504783e+1, 1.8472533e+2, -1140662.3, -1284253.9, -1370.1564, -0.0011879519, -0.0006406817, -1140649.3, -10957.462 
8.5048056e+1, 1.9471183e+2, -1042929.6, -1186469.8, -1308.8412, -0.00045982812, -0.0007920283, -1042917.7, -11093.828 
8.504829e+1, 2.0469768e+2, -954286.56, -1107872.8, -1311.734, 0.00026774305, -0.00062631647, -954275.3, -20312.672 
8.5048515e+1, 2.1468283e+2, -855756.6, -1009673.06, -1435.1193, 0.001000956, -0.0022195864, -855743.25, -19635.156 
8.5048735e+1, 2.2466731e+2, -767079.5, -931795.4, -1389.6575, 0.00057044096, -0.0013258286, -767067.75, -28807.465 
8.5048944e+1, 2.3465109e+2, -668429.1, -833489.6, -1180.6597, -0.0011949452, -0.0000015738145, -668420.7, -28001.445 
8.5049194e+1, 2.446342e+2, -579341.8, -754449.56, -967.00385, -0.0012559065, 0.00066612277, -579336.44, -36751.637 
8.50495e+1, 2.5461665e+2, -481007.9, -656131.1, -1162.2078, 0.00063865323, -0.0014908548, -481000.2, -36243.26 
8.50498e+1, 2.6459837e+2, -392815.78, -578943.56, -1023.108, 0.0012177731, -0.0017672263, -392810.16, -45874.15 
8.505012e+1, 2.7457938e+2, -294166.3, -480427.75, -852.00037, 0.00025975786, -0.002156918, -294162.4, -45040.453 
8.5050446e+1, 2.845597e+2, -205759.36, -403245.8, -710.8989, -0.00039746022, -0.0007159786, -205756.81, -54441.832 
8.505079e+1, 2.945393e+2, -106694.28, -304443.47, -808.62067, -0.0007007042, 0.00028119455, -106690.98, -53176.098 
8.5051185e+1, 3.0452162e+2, -18490.816, -175719.28, -518.6587, -0.0006579835, 0.0001744688, -18489.105, -18489.105 
8.505162e+1, 3.1450662e+2, -17748.672, -175012.33, -490.2732, -0.00016280769, -0.0034432034, -17747.143, -17747.143 
8.505208e+1, 3.244962e+2, 46535.14, -42947.184, -324.75888, 0.0021373483, -0.00027793398, 46536.32, 46536.32 
9.5048636e+1, 3.4846088e+1, -2543303.5, -2605599.8, 235.28818, -0.001856319, -0.0030417508, -2543302.5, 55205.78 
9.504917e+1, 4.484258e+1, -2450975.3, -2519542.0, -446.8636, 0.0016950791, 0.001389669, -2450972.5, 49570.305 
9.504965e+1, 5.48386e+1, -2352257.8, -2421463.5, -277.60352, 0.0016145813, -0.0021798583, -2352256.8, 50324.914 
9.505007e+1, 6.4833915e+1, -2263860.5, -2344003.8, -619.31866, 0.0005135625, -0.0021476161, -2263855.8, 40771.887 
9.5050424e+1, 7.482856e+1, -2165543.8, -2246063.8, -710.20953, -0.0017080437, -0.00021578599, -2165537.5, 41142.625 
9.5050794e+1, 8.48225e+1, -2076489.8, -2167174.5, -775.8121, -0.0013542206, 0.0007196066, -2076483.1, 32256.348 
9.505119e+1, 9.4815767e+1, -1977742.4, -2068952.8, -695.97394, 0.0017768326, -0.0014889378, -1977737.0, 33068.418 
9.5051503e+1, 1.0480835e+2, -1889151.8, -1990710.1, -998.97144, 0.0020151085, -0.0014351807, -1889142.0, 23736.11 
9.505176e+1, 1.1480027e+2, -1791235.6, -1892901.5, -1085.9706, -0.00086636434, -0.00091568334, -1791224.1, 23733.229 
9.505203e+1, 1.247915e+2, -1702597.9, -1814552.3, -1199.1982, -0.0014419353, 0.00023941285, -1702585.1, 14458.157 
9.505231e+1, 1.3478206e+2, -1603834.9, -1716289.1, -1210.5399, 0.00048617602, 0.000016630976, -1603821.9, 15314.007 
9.505256e+1, 1.4477195e+2, -1514813.8, -1637271.8, -1365.3619, 0.0009933951, 0.00008196463, -1514798.5, 6436.4824 
9.505277e+1, 1.5476117e+2, -1417009.6, -1539409.5, -1339.8745, -0.000050580027, -0.0016798945, -1416994.9, 6345.649 
9.505301e+1, 1.647497e+2, -1328518.0, -1461439.9, -1203.3512, -0.00045766807, -0.001445775, -1328507.1, -3054.271 
9.505327e+1, 1.7473754e+2, -1229568.5, -1363074.4, -1224.6108, -0.00015643609, -0.0012198607, -1229557.3, -1985.3387 
9.50535e+1, 1.8472475e+2, -1140552.8, -1284045.8, -1435.1864, -0.000051632713, -0.00037043588, -1140538.5, -10841.015 
9.5053697e+1, 1.9471127e+2, -1042826.56, -1186232.0, -1382.4873, -0.00016014898, -0.00084980694, -1042813.2, -10983.804 
9.5053923e+1, 2.0469712e+2, -954497.0, -1108347.3, -1185.5054, -0.0000313611, -0.00059754495, -954487.9, -20519.584 
9.505419e+1, 2.1468224e+2, -855994.4, -1010153.0, -1300.6166, 0.0003561391, -0.0016471625, -855983.4, -19869.426 
9.5054454e+1, 2.2466671e+2, -766698.9, -931031.3, -1245.542, -0.000025142721, -0.0012572879, -766689.44, -28423.338 
9.5054704e+1, 2.3465054e+2, -668050.06, -832666.25, -1037.7545, -0.0012822114, -0.0016106233, -668043.56, -27618.88 
9.5054984e+1, 2.4463364e+2, -579670.44, -755191.9, -924.8276, -0.0011116872, -0.0005810364, -579665.56, -37075.4 
9.505529e+1, 2.5461605e+2, -481390.9, -656894.9, -1120.889, 0.0006914004, -0.00004354501, -481383.75, -36621.18 
9.5055616e+1, 2.6459777e+2, -392511.34, -578351.9, -919.3753, 0.00094351656, 0.00041133325, -392506.8, -45565.137 
9.5055956e+1, 2.7457884e+2, -293849.5, -479766.7, -747.1734, -0.0006180678, -0.0015376941, -293846.5, -44719.203 
9.5056325e+1, 2.8455913e+2, -205883.23, -403589.88, -514.081, -0.0008096488, -0.0013286922, -205881.9, -54561.637 
9.505674e+1, 2.9453874e+2, -106848.13, -304821.78, -606.9608, 0.0006119883, -0.0011787724, -106846.27, -53325.78 
9.5057184e+1, 3.0452102e+2, -18458.154, -175642.19, -367.23804, 0.0008311587, -0.000032244585, -18457.295, -18457.295 
9.505765e+1, 3.1450608e+2, -17703.912, -174914.83, -342.0359, -0.00035661677, 0.00012384074, -17703.168, -17703.168 
9.505812e+1, 3.244957e+2, 47207.164, -41569.04, -226.04173, 0.0009493048, -0.0018908591, 47207.74, 47207.74 
1.0505385e+2, 3.4845555e+1, -2542447.3, -2605538.3, -397.97357, -0.0022582118, -0.0024361964, -2542444.8, 56068.887 
1.0505439e+2, 4.4842014e+1, -2450338.8, -2519527.8, -91.57792, 0.0011749791, 0.0018476369, -2450338.5, 50209.676 
1.0505492e+2, 5.4838014e+1, -2352290.0, -2421759.8, -438.19034, 0.0025406843, -0.0019270091, -2352287.3, 50300.246 
1.05055384e+2, 6.4833313e+1, -2263762.3, -2343980.8, -895.65875, 0.0014152902, -0.0023055824, -2263752.3, 40881.37 
1.0505577e+2, 7.482794e+1, -2164736.3, -2245681.3, -830.31696, -0.0024103005, -0.0010243924, -2164727.8, 41958.297 
1.0505618e+2, 8.482189e+1, -2075714.1, -2166812.3, -995.48114, -0.0022094538, 0.00012242902, -2075703.3, 33042.24 
1.0505662e+2, 9.4815165e+1, -1977868.5, -2069032.9, -1071.5154, 0.0023136865, -0.00095236464, -1977856.0, 32955.41 
1.0505697e+2, 1.0480775e+2, -1889474.4, -1991077.8, -1439.6678, 0.0027183974, -0.00070835016, -1889454.0, 23430.057 
1.05057225e+2, 1.1479963e+2, -1790822.8, -1892884.6, -1471.8002, -0.0013040433, -0.0010189425, -1790801.5, 24161.977 
1.05057515e+2, 1.2479086e+2, -1701962.5, -1814123.8, -1481.6563, -0.0019280914, -0.00031731336, -1701943.0, 15106.51 
1.05057836e+2, 1.3478144e+2, -1604004.8, -1716248.6, -1361.5356, 0.0011267427, -0.0005829875, -1603988.3, 15153.69 
1.0505811e+2, 1.4477132e+2, -1515199.9, -1637686.6, -1561.6083, 0.0016401157, -0.0001899025, -1515180.0, 6061.0913 
1.0505834e+2, 1.5476052e+2, -1416346.9, -1539341.1, -1760.9376, -0.00061904924, -0.0012144505, -1416321.6, 7025.1997 
1.05058596e+2, 1.6474906e+2, -1327725.0, -1460922.3, -1708.5323, -0.0011471249, -0.00080213294, -1327703.1, -2243.9478 
1.0505888e+2, 1.7473692e+2, -1230263.6, -1363236.6, -1567.455, 0.00023683361, -0.0010245611, -1230245.1, -2667.022 
1.05059125e+2, 1.847241e+2, -1141591.9, -1284668.1, -1738.4932, 0.00064977835, -0.00048292906, -1141570.8, -11867.149 
1.0505934e+2, 1.9471063e+2, -1042635.3, -1186296.9, -1867.8334, -0.000015034263, -0.0011078967, -1042611.06, -10775.343 
1.05059594e+2, 2.0469646e+2, -953844.1, -1107989.3, -1652.0643, -0.00039325104, -0.0006272914, -953826.44, -19851.85 
1.0505987e+2, 2.1468161e+2, -855742.8, -1010024.06, -1509.4565, -0.00045172413, -0.0010292918, -855728.06, -19607.828 
1.0506016e+2, 2.2466607e+2, -766847.25, -931026.7, -1474.5759, -0.00044920843, -0.00085514825, -766834.06, -28561.701 
1.0506045e+2, 2.346499e+2, -668620.0, -832888.8, -1624.3774, -0.00038472246, -0.0024048574, -668603.94, -28173.049 
1.05060756e+2, 2.44633e+2, -580307.25, -755488.4, -1497.3741, -0.00023822949, -0.0015260444, -580294.44, -37698.098 
1.0506108e+2, 2.5461543e+2, -481499.13, -656959.9, -1299.8094, -0.0000069686894, 0.00005944705, -481489.5, -36720.81 
1.0506143e+2, 2.6459718e+2, -392397.22, -578122.06, -1026.5356, -0.000022290153, 0.0008933252, -392391.53, -45443.836 
1.0506179e+2, 2.745782e+2, -293893.56, -479656.6, -1105.7999, -0.0003345474, -0.0014527254, -293886.97, -44753.73 
1.0506221e+2, 2.8455853e+2, -206143.28, -403629.1, -802.5242, -0.0001980354, -0.0014683201, -206140.02, -54813.86 
1.0506267e+2, 2.945381e+2, -107125.92, -304905.84, -690.5575, 0.00045410456, -0.001334767, -107123.51, -53597.156 
1.05063155e+2, 3.0452043e+2, -18770.643, -175724.5, -399.4354, 0.00041669302, -0.0003145044, -18769.627, -18769.627 
1.0506366e+2, 3.145055e+2, -18073.186, -174978.36, -401.53976, -0.00040631703, -0.00041975407, -18072.158, -18072.158 
1.0506417e+2, 3.244951e+2, 46944.95, -41437.11, -610.1867, 0.0010745235, -0.00085405225, 46949.16, 46949.16 
1.15059115e+2, 3.4844995e+1, -2540710.5, -2602004.0, -457.2577, -0.00035043166, 0.0035187046, -2540707.0, 57812.063 
1.1505962e+2, 4.4841403e+1, -2450957.0, -2520800.8, -56.21413, -0.00041468698, -0.0052779163, -2450957.0, 49597.18 
1.15060166e+2, 5.48374e+1, -2352945.8, -2423103.5, -396.29153, 0.00076623465, 0.00034640817, -2352943.5, 49649.984 
1.1506069e+2, 6.483269e+1, -2263631.5, -2343742.5, -606.22314, 0.0010788691, 0.0020955869, -2263627.0, 41012.645 
1.15061186e+2, 7.4827284e+1, -2164596.5, -2245428.8, -537.0783, 0.00041644706, -0.0022401984, -2164593.0, 42099.65 
1.1506163e+2, 8.482121e+1, -2075864.6, -2167103.8, -1010.059, -0.00015403723, -0.0022694776, -2075853.5, 32898.61 
1.1506201e+2, 9.481451e+1, -1978012.9, -2069335.1, -1090.4697, -0.0006048794, 0.00024290626, -1977999.9, 32817.992 
1.1506238e+2, 1.0480708e+2, -1889530.6, -1991200.8, -1263.6318, -0.00039681353, 0.0012835506, -1889515.0, 23375.684 
1.15062736e+2, 1.1479894e+2, -1790879.0, -1893010.4, -1290.0922, 0.0005145015, -0.0012387217, -1790862.8, 24107.557 
1.15063064e+2, 1.2479017e+2, -1701766.1, -1813659.5, -1484.0326, 0.00082592043, -0.0016895344, -1701746.4, 15309.915 
1.1506335e+2, 1.3478076e+2, -1603795.8, -1715771.4, -1369.3202, 0.00049469585, -0.0019513689, -1603779.0, 15369.476 
1.15063645e+2, 1.4477065e+2, -1515556.5, -1638435.6, -1347.0642, -0.000109665365, -0.0007752549, -1515541.8, 5705.8477 
1.1506394e+2, 1.5475981e+2, -1416732.6, -1540114.3, -1536.8654, -0.0010040926, -0.00017032068, -1416713.5, 6640.216 
1.1506421e+2, 1.6474836e+2, -1327498.0, -1460409.3, -1841.5942, -0.00079569215, 0.0005277065, -1327472.5, -2006.3397 
1.1506446e+2, 1.7473623e+2, -1229998.8, -1362699.4, -1711.8309, 0.0006208177, -0.00089058495, -1229976.6, -2391.8218 
1.1506472e+2, 1.8472342e+2, -1141806.5, -1285125.4, -1509.6985, 0.0009149358, -0.00096707273, -1141790.6, -12080.22 
1.1506499e+2, 1.9470991e+2, -1042881.2, -1186772.0, -1625.3793, -0.000040395622, -0.0015669516, -1042862.8, -11020.022 
1.1506528e+2, 2.0469575e+2, -953579.9, -1107522.5, -1622.4825, -0.00083044614, -0.00072051596, -953562.75, -19581.152 
1.1506556e+2, 2.1468093e+2, -855470.75, -1009523.44, -1488.0936, -0.0014293006, -0.0003669125, -855456.4, -19329.59 
1.1506586e+2, 2.246654e+2, -767116.75, -931571.56, -1445.588, -0.0007263571, -0.00012992944, -767104.06, -28825.135 
1.1506618e+2, 2.3464918e+2, -668910.7, -833458.75, -1592.6776, 0.0014548376, -0.002405116, -668895.25, -28457.31 
1.15066506e+2, 2.4463229e+2, -579979.9, -754754.56, -1327.1278, 0.001329821, -0.0021774084, -579969.8, -37366.35 
1.1506685e+2, 2.5461477e+2, -481166.25, -656168.56, -1126.0024, -0.0014623902, -0.0011576737, -481159.0, -36383.71 
1.1506722e+2, 2.645965e+2, -392527.47, -578401.1, -969.1571, -0.0016941562, -0.00028514335, -392522.44, -45568.32 
1.15067646e+2, 2.7457756e+2, -294048.97, -479961.97, -1051.9376, 0.0010660029, -0.0018951405, -294043.03, -44903.207 
1.1506809e+2, 2.8455788e+2, -205968.52, -403219.44, -617.56573, 0.0013961331, -0.0011448388, -205966.58, -54633.926 
1.1506857e+2, 2.945375e+2, -106954.66, -304454.47, -500.61188, -0.0011648317, -0.0002164966, -106953.38, -53420.93 
1.1506909e+2, 3.045198e+2, -18766.404, -175705.0, -257.77158, -0.0018770196, -0.0006721356, -18765.98, -18765.98 
1.1506966e+2, 3.1450483e+2, -18074.283, -174979.42, -261.78784, -0.00032104168, -0.004981304, -18073.848, -18073.848 
1.15070224e+2, 3.244945e+2, 46536.24, -42322.71, -496.4274, 0.0024513933, 0.0027938583, 46539.01, 46539.01 
1.2506434e+2, 3.4844312e+1, -2541667.3, -2602007.8, -639.7607, 0.0014113997, 0.0034799362, -2541660.5, 56865.23 
1.250649e+2, 4.484073e+1, -2450468.5, -2520715.5, -849.28485, -0.001487997, -0.0056232074, -2450458.3, 50102.58 
1.2506546e+2, 5.483672e+1, -2351451.0, -2422544.0, -639.4533, -0.00055375334, 0.00072846893, -2351445.3, 51154.938 
1.2506603e+2, 6.4831996e+1, -2262312.5, -2343223.8, -745.8025, 0.00049519126, 0.0027283693, -2262305.8, 42340.793 
1.2506658e+2, 7.4826574e+1, -2164813.0, -2245643.8, -896.84705, 0.0016169626, -0.0018628072, -2164803.0, 41896.55 
1.2506706e+2, 8.4820485e+1, -2076375.8, -2167521.3, -1442.2335, 0.001028765, -0.002169399, -2076352.9, 32406.262 
1.2506744e+2, 9.4813764e+1, -1977489.5, -2069241.5, -1479.9735, -0.0013805666, 0.000040026018, -1977465.6, 33359.516 
1.2506783e+2, 1.04806334e+2, -1888694.5, -1990675.0, -1608.3083, -0.001452551, 0.001147699, -1888669.1, 24228.809 
1.2506823e+2, 1.1479821e+2, -1790804.3, -1892855.6, -1514.9526, 0.0009963246, -0.0009138704, -1790781.8, 24195.732 
1.2506859e+2, 1.2478943e+2, -1701876.0, -1813945.0, -1811.1443, 0.0015103447, -0.0012898678, -1701846.8, 15216.814 
1.2506889e+2, 1.3478e+2, -1603135.5, -1715681.0, -2068.3113, -0.00006988251, -0.001892717, -1603097.5, 16058.336 
1.250692e+2, 1.4476988e+2, -1514884.4, -1637937.3, -2043.6002, -0.0007805009, -0.00083102385, -1514850.5, 6404.6016 
1.2506951e+2, 1.5475908e+2, -1417398.4, -1540274.4, -1719.3215, -0.00054256915, -0.000093750496, -1417374.4, 5986.6733 
1.250698e+2, 1.6474761e+2, -1328437.5, -1461076.9, -1944.0426, -0.0001769401, 0.00054703583, -1328409.0, -2935.5085 
1.2507007e+2, 1.7473547e+2, -1229473.8, -1362653.9, -2226.8657, 0.00032776792, -0.0011356076, -1229436.5, -1844.2084 
1.2507035e+2, 1.8472266e+2, -1140702.8, -1284420.5, -2005.119, 0.00033853544, -0.0011951438, -1140674.9, -10956.924 
1.2507066e+2, 1.9470917e+2, -1042668.44, -1186504.0, -1768.0221, -0.00019988888, -0.0014611967, -1042646.75, -10796.605 
1.2507096e+2, 2.04695e+2, -954105.3, -1107797.4, -1845.8013, -0.00062339916, -0.00067513424, -954083.1, -20094.229 
1.2507124e+2, 2.1468018e+2, -856229.3, -1009912.8, -2018.145, -0.0009164082, -0.00081948243, -856202.8, -20068.604 
1.2507156e+2, 2.2466466e+2, -767607.8, -931814.3, -1875.2656, -0.00041841442, -0.00034573916, -767586.4, -29300.053 
1.250719e+2, 2.3464844e+2, -668736.5, -833368.0, -1718.2, 0.000973414, -0.0015595002, -668718.56, -28273.291 
1.2507226e+2, 2.4463154e+2, -579767.94, -754554.56, -1488.0557, 0.00088595983, -0.001440032, -579755.3, -37144.6 
1.2507261e+2, 2.5461403e+2, -481832.8, -656414.06, -1585.951, -0.00091507426, -0.0018635868, -481818.4, -37035.883 
1.2507302e+2, 2.6459578e+2, -393416.75, -578871.3, -1417.2048, -0.0010535748, -0.0012525948, -393405.94, -46444.6 
1.2507348e+2, 2.7457684e+2, -294093.22, -480021.1, -1362.5201, 0.000740559, -0.0017482516, -294083.25, -44936.27 
1.2507395e+2, 2.8455716e+2, -205813.33, -402959.53, -980.77844, 0.00084194547, -0.00052792445, -205808.45, -54468.75 
1.2507446e+2, 2.945368e+2, -107624.12, -304599.47, -962.97437, -0.0010749863, 0.00010833027, -107619.414, -54080.04 
1.2507501e+2, 3.0451912e+2, -19767.254, -175951.67, -611.6257, -0.0015309515, -0.0007412889, -19764.86, -19764.86 
1.2507564e+2, 3.1450415e+2, -18705.055, -175072.44, -489.73123, -0.00019702599, -0.0055682114, -18703.521, -18703.521 
1.2507625e+2, 3.2449383e+2, 46331.574, -42682.258, -463.95743, 0.0017864781, 0.0033059, 46333.996, 46333.996 
1.3506952e+2, 3.48435e+1, -2542775.0, -2604297.3, -17.825678, 0.0030134744, -0.0024367203, -2542775.0, 55758.625 
1.3507017e+2, 4.4839993e+1, -2450068.5, -2519939.3, -544.1343, -0.0020606045, 0.0006516881, -2450064.3, 50503.832 
1.3507083e+2, 5.4835963e+1, -2351038.8, -2421721.3, -340.45, -0.0014568127, -0.0007281323, -2351037.0, 51570.434 
1.3507143e+2, 6.4831233e+1, -2262596.5, -2343800.3, -839.1384, -0.00036340803, -0.000318091, -2262588.0, 42066.023 
1.3507196e+2, 7.4825823e+1, -2165090.8, -2246242.5, -994.6673, 0.0012109585, 0.00007092634, -2165078.5, 41628.43 
1.3507245e+2, 8.4819716e+1, -2076438.0, -2167659.8, -1199.0349, 0.0013321494, 0.00036571134, -2076422.3, 32344.512 
1.3507292e+2, 9.481294e+1, -1977554.4, -2069381.8, -1229.7528, -0.00009485246, -0.0015235645, -1977537.9, 33295.27 
1.3507335e+2, 1.04805514e+2, -1888508.1, -1990352.8, -1620.7671, -0.0005127757, -0.0010627821, -1888482.4, 24423.629 
1.3507372e+2, 1.1479745e+2, -1790602.1, -1892525.0, -1533.1952, 0.00015738505, -0.000051460975, -1790579.0, 24406.01 
1.3507408e+2, 1.2478866e+2, -1702352.6, -1814913.9, -1621.318, 0.00015312478, 0.0008393438, -1702329.3, 14741.86 
1.3507445e+2, 1.3477916e+2, -1603628.1, -1716689.5, -1869.5615, -0.00057882315, -0.0004462661, -1603597.1, 15567.117 
1.3507478e+2, 1.4476903e+2, -1514315.9, -1636728.5, -2160.8604, -0.0004180451, -0.0003706723, -1514277.8, 6985.766 
1.3507508e+2, 1.5475829e+2, -1416802.1, -1539004.8, -1848.033, 0.00072359364, -0.00096382387, -1416774.1, 6594.499 
1.3507538e+2, 1.6474682e+2, -1328912.3, -1462113.6, -1717.4653, 0.0006877737, -0.00071469933, -1328890.1, -3409.1177 
1.3507567e+2, 1.7473462e+2, -1230001.5, -1363733.0, -1985.6671, -0.0006417384, -0.00175433, -1229972.0, -2371.4187 
1.3507599e+2, 1.847218e+2, -1140277.3, -1283609.1, -1991.4067, -0.001071322, -0.0011764306, -1140249.6, -10523.368 
1.3507631e+2, 1.9470838e+2, -1042244.6, -1185619.5, -1763.4645, -0.00050210103, -0.0008092851, -1042222.94, -10365.152 
1.3507661e+2, 2.0469423e+2, -954396.25, -1108424.9, -1883.7145, 0.0001956378, -0.0004980415, -954373.2, -20376.729 
1.3507691e+2, 2.1467933e+2, -856535.7, -1010575.56, -2053.843, 0.0010359725, -0.0023570547, -856508.3, -20365.875 
1.3507722e+2, 2.2466382e+2, -767327.94, -931266.56, -1678.2728, 0.00044598235, -0.0014785653, -767310.8, -29016.234 
1.350776e+2, 2.3464766e+2, -668456.8, -832777.1, -1514.7902, -0.001782154, 0.00010824638, -668442.8, -27990.025 
1.3507797e+2, 2.446308e+2, -579946.3, -754914.56, -1539.9639, -0.001533177, 0.0006485724, -579932.75, -37314.64 
1.3507837e+2, 2.546132e+2, -482016.63, -656805.56, -1646.0154, 0.0015639081, -0.0020754607, -482001.13, -37210.703 
1.3507882e+2, 2.6459494e+2, -393326.44, -578677.75, -1153.1504, 0.0018062418, -0.0020196836, -393319.28, -46349.94 
1.3507928e+2, 2.7457604e+2, -294008.66, -479805.75, -1084.4803, -0.0012793072, -0.0010315502, -294002.3, -44847.62 
1.350798e+2, 2.845564e+2, -205795.36, -402901.72, -995.9457, -0.0018205794, 0.00037348934, -205790.33, -54443.01 
1.3508034e+2, 2.9453602e+2, -107597.86, -304543.53, -992.54913, 0.00065254216, -0.000340677, -107592.86, -54045.777 
1.3508093e+2, 3.0451834e+2, -19537.176, -175500.63, -392.29202, 0.001353668, -0.0005317384, -19536.19, -19536.19 
1.3508159e+2, 3.1450346e+2, -18471.615, -174604.64, -258.73093, -0.000051078132, -0.0022903327, -18471.188, -18471.188 
1.3508226e+2, 3.244931e+2, 46386.547, -42515.957, -70.73318, -0.0009136002, 0.0007646227, 46386.6, 46386.6 
1.4507475e+2, 3.484272e+1, -2541318.3, -2604690.3, 277.54123, 0.0021701967, -0.0027587006, -2541317.0, 57224.3 
1.450755e+2, 4.4839168e+1, -2448924.5, -2519196.3, -656.1531, -0.001673484, 0.000972828, -2448918.3, 51657.883 
1.4507619e+2, 5.483514e+1, -2351538.0, -2421784.0, -779.9829, -0.0005808374, -0.0015286269, -2351529.3, 51086.28 
1.4507681e+2, 6.4830405e+1, -2263231.0, -2344232.0, -1287.3899, 0.00009961057, -0.00122955, -2263210.5, 41451.477 
1.4507736e+2, 7.4824995e+1, -2163951.8, -2245812.5, -1220.3915, 0.00030322745, 0.00013559597, -2163933.8, 42781.383 
1.4507788e+2, 8.4818894e+1, -2075062.8, -2167056.5, -1372.8073, 0.0004810366, 0.0006953618, -2075042.3, 33732.637 
1.4507839e+2, 9.48121e+1, -1977642.5, -2069475.0, -1383.0381, 0.00063984015, -0.0016935237, -1977621.8, 33219.66 
1.4507884e+2, 1.04804665e+2, -1888837.9, -1990535.9, -1804.188, 0.0003782685, -0.0013820111, -1888805.9, 24108.43 
1.4507924e+2, 1.14796594e+2, -1789877.9, -1892194.6, -1927.7025, -0.00033808834, -0.00013966579, -1789841.6, 25151.756 
1.4507963e+2, 1.247878e+2, -1701664.6, -1814647.4, -1994.3347, -0.0005545938, 0.0009478951, -1701629.4, 15450.092 
1.4508e+2, 1.347783e+2, -1604199.0, -1717020.0, -1783.8223, -0.00022366618, -0.00018010833, -1604170.8, 15001.909 
1.4508036e+2, 1.4476818e+2, -1514877.3, -1637082.5, -2137.8267, 0.00018409798, -0.000281355, -1514839.9, 6432.0444 
1.4508064e+2, 1.5475741e+2, -1416031.3, -1538715.1, -2490.993, 0.0006762776, -0.0014152012, -1415980.8, 7396.486 
1.4508097e+2, 1.6474596e+2, -1327861.5, -1461544.1, -2371.4949, 0.0003992503, -0.0010721133, -1327819.5, -2329.8518 
1.450813e+2, 1.7473376e+2, -1229850.1, -1363650.4, -2072.4016, -0.00072331226, -0.0013122434, -1229818.1, -2209.032 
1.4508162e+2, 1.8472095e+2, -1140976.9, -1284010.0, -2191.0027, -0.00097544864, -0.00062799966, -1140943.4, -11208.68 
1.4508194e+2, 1.947075e+2, -1043427.44, -1186289.9, -2480.6987, -0.00026198968, -0.00093165383, -1043384.4, -11518.022 
1.4508227e+2, 2.0469335e+2, -955046.44, -1108621.8, -2473.9675, 0.00044423572, -0.00076736894, -955006.56, -21001.477 
1.4508258e+2, 2.1467847e+2, -855689.4, -1010081.2, -2242.4363, 0.0011358584, -0.0021876409, -855656.8, -19505.922 
1.4508292e+2, 2.2466294e+2, -766464.6, -930768.6, -1926.8752, 0.00032495815, -0.0013305509, -766442.06, -28139.094 
1.4508328e+2, 2.3464681e+2, -669142.0, -833043.7, -2022.3186, -0.0022028817, -0.00029109494, -669117.06, -28655.863 
1.4508368e+2, 2.4462995e+2, -580947.75, -755492.3, -2005.4142, -0.0018417932, 0.000329433, -580924.7, -38298.203 
1.4508413e+2, 2.5461236e+2, -481657.88, -656734.6, -1982.3492, 0.001843099, -0.0015956772, -481635.44, -36836.594 
1.4508457e+2, 2.645941e+2, -392752.8, -578171.3, -1450.4414, 0.0021854204, -0.0013742549, -392741.47, -45763.77 
1.4508507e+2, 2.745752e+2, -295128.78, -480076.97, -1309.7854, -0.0013783643, -0.00096733106, -295119.5, -45956.66 
1.450856e+2, 2.8455558e+2, -207427.1, -403822.22, -1134.1826, -0.0020764903, -0.00011569241, -207420.55, -56065.117 
1.450862e+2, 2.9453516e+2, -107911.91, -304824.97, -1228.4453, 0.0006225835, -0.001351809, -107904.24, -54348.9 
1.4508682e+2, 3.045175e+2, -19267.373, -175149.56, -738.4641, 0.0014281605, -0.00050636986, -19263.875, -19263.875 
1.4508751e+2, 3.145027e+2, -19004.855, -174650.98, -674.7774, -0.000027390292, 0.0006501223, -19001.932, -19001.932 
1.4508823e+2, 3.244923e+2, 45234.117, -42667.055, -230.01018, -0.0011286184, -0.0021057832, 45234.72, 45234.72 
1.5508005e+2, 3.4841955e+1, -2541691.5, -2605439.8, 733.96814, -0.0010871614, 0.0023825357, -2541683.0, 56865.848 
1.5508088e+2, 4.4838256e+1, -2449138.0, -2519626.8, -775.49414, -0.0003673189, -0.00445193, -2449129.5, 51455.56 
1.5508156e+2, 5.483425e+1, -2351730.8, -2422203.3, -906.4534, 0.0019988648, -0.0016818746, -2351719.0, 50905.203 
1.550822e+2, 6.482953e+1, -2263106.5, -2343937.8, -935.73004, 0.0018243972, -0.000058489313, -2263095.5, 41575.008 
1.550828e+2, 7.482411e+1, -2163836.0, -2245517.8, -861.0424, -0.0011098641, -0.0016112534, -2163826.8, 42896.84 
1.5508336e+2, 8.4818006e+1, -2075092.5, -2167101.5, -1490.3694, -0.0015095647, -0.0011188426, -2075068.4, 33715.12 
1.5508385e+2, 9.481125e+1, -1977658.3, -2069521.0, -1508.999, 0.0008210045, -0.00051416707, -1977633.4, 33216.33 
1.5508433e+2, 1.0480379e+2, -1889053.8, -1991007.4, -1558.315, 0.0012047171, 0.00013658282, -1889029.9, 23892.836 
1.5508477e+2, 1.1479567e+2, -1790115.6, -1892679.5, -1672.2266, -0.00051740214, -0.0011451916, -1790088.4, 24913.992 
1.5508519e+2, 1.2478688e+2, -1701282.1, -1813877.9, -2115.2288, -0.0006478187, -0.00090251694, -1701242.5, 15846.065 
1.5508553e+2, 1.3477744e+2, -1603784.1, -1716224.9, -1914.9117, 0.0009578638, -0.001058314, -1603751.5, 15429.574 
1.5508589e+2, 1.447673e+2, -1515516.3, -1638388.4, -1932.0321, 0.0010029961, -0.0005502487, -1515485.9, 5794.6123 
1.5508625e+2, 1.5475646e+2, -1416696.0, -1540081.8, -2272.0327, -0.0006565814, -0.0014645625, -1416654.1, 6732.5215 
1.5508658e+2, 1.6474497e+2, -1327332.5, -1460474.3, -2366.5708, -0.0010249675, -0.0005573763, -1327290.5, -1791.3954 
1.5508693e+2, 1.7473288e+2, -1229308.5, -1362506.8, -2075.9158, 0.000038648253, 0.0001536021, -1229276.3, -1658.5367 
1.5508725e+2, 1.8472007e+2, -1141480.0, -1285077.5, -2312.9805, 0.0005630565, 0.0004248917, -1141442.8, -11699.501 
1.5508753e+2, 1.9470653e+2, -1043968.56, -1187385.4, -2600.9722, 0.00048500346, -0.0018097139, -1043921.44, -12045.486 
1.5508786e+2, 2.0469236e+2, -954612.5, -1107801.0, -2140.5054, 0.0001225208, -0.0014755141, -954582.56, -20567.828 
1.5508828e+2, 2.1467759e+2, -855280.56, -1009184.56, -1897.1083, -0.00057378307, -0.00036758388, -855257.2, -19097.504 
1.5508863e+2, 2.2466208e+2, -766652.4, -931134.06, -2111.0747, -0.00076318695, 0.000053614083, -766625.25, -28313.691 
1.5508898e+2, 2.3464586e+2, -669337.3, -833433.1, -2223.2217, -0.00038012865, -0.0026921849, -669307.2, -28836.742 
1.550894e+2, 2.4462898e+2, -580902.1, -755408.3, -1726.9633, -0.00012321876, -0.0023261036, -580885.06, -38249.156 
1.5508986e+2, 2.5461143e+2, -481624.38, -656639.56, -1684.8644, -0.000018965682, -0.0004456185, -481608.16, -36800.34 
1.5509035e+2, 2.6459324e+2, -392528.4, -577689.0, -1594.3602, 0.00014065435, 0.00063481595, -392514.7, -45528.305 
1.5509084e+2, 2.7457434e+2, -294878.0, -479570.88, -1475.0299, 0.00036389282, -0.0015347714, -294866.22, -45694.83 
1.5509139e+2, 2.845547e+2, -207577.05, -404109.03, -835.8306, -0.000020668556, -0.0019565038, -207573.5, -56209.484 
1.5509203e+2, 2.9453427e+2, -108101.31, -305151.7, -905.79706, -0.0011259371, -0.0029096669, -108097.15, -54533.008 
1.550927e+2, 3.0451664e+2, -19186.691, -174970.86, -707.489, -0.001239849, -0.0006541101, -19183.479, -19183.479 
1.550934e+2, 3.1450182e+2, -18908.021, -174439.06, -660.0812, -0.00013093032, 0.003262814, -18905.22, -18905.22 
1.5509418e+2, 3.2449144e+2, 45731.145, -41606.72, -16.96258, 0.0010298913, -0.005314547, 45731.15, 45731.15 
1.6508536e+2, 3.484105e+1, -2540794.8, -2604071.8, 105.48153, -0.002518782, 0.0030161194, -2540794.5, 57763.22 
1.6508625e+2, 4.483737e+1, -2449753.5, -2520261.8, -838.9594, 0.0016418702, -0.004858428, -2449743.5, 50850.29 
1.6508694e+2, 5.4833347e+1, -2350445.3, -2421925.0, -991.2412, 0.0018700967, -0.0008979617, -2350431.5, 52201.59 
1.650876e+2, 6.4828604e+1, -2261543.8, -2343162.5, -1114.1968, 0.0010734529, 0.00084112247, -2261528.5, 43151.152 
1.6508825e+2, 7.482318e+1, -2164237.5, -2245701.8, -1166.8657, -0.00085501553, -0.0017490835, -2164220.8, 42512.1 
1.6508883e+2, 8.4817076e+1, -2075701.1, -2167488.8, -1863.8085, -0.0011226296, -0.0014892875, -2075663.3, 33129.316 
1.6508935e+2, 9.4810313e+1, -1976421.1, -2069008.9, -1919.3563, 0.0003977637, -0.00024856807, -1976381.4, 34477.504 
1.6508985e+2, 1.0480285e+2, -1887779.8, -1990511.5, -2019.1129, 0.00078586146, 0.000413679, -1887740.0, 25191.979 
1.6509032e+2, 1.1479471e+2, -1790666.6, -1893088.0, -1990.7583, -0.000047487087, -0.0015252727, -1790628.0, 24383.85 
1.6509072e+2, 1.24785915e+2, -1701916.9, -1814082.9, -2464.6917, -0.00012830368, -0.0013734641, -1701862.8, 15235.228 
1.6509111e+2, 1.3477649e+2, -1602872.6, -1715674.6, -2611.4417, 0.0006124166, -0.0010096035, -1602812.3, 16378.151 
1.6509147e+2, 1.4476635e+2, -1514503.0, -1638094.9, -2556.1748, 0.00047169518, -0.00022712782, -1514450.1, 6839.6704 
1.6509184e+2, 1.5475547e+2, -1416778.5, -1540338.3, -2355.022, -0.00062831014, -0.0011327624, -1416733.6, 6662.606 
1.650922e+2, 1.64744e+2, -1327873.4, -1460559.6, -2487.175, -0.00078379834, -0.0004060885, -1327826.8, -2318.0188 
1.6509253e+2, 1.7473193e+2, -1230116.8, -1362713.5, -2649.0615, 0.00010383965, -0.000086262546, -1230063.9, -2436.6873 
1.6509287e+2, 1.847191e+2, -1141770.9, -1285359.6, -2750.7236, 0.000595959, 0.00019485712, -1141718.3, -11965.508 
1.6509317e+2, 1.9470555e+2, -1042402.2, -1186798.4, -2577.138, 0.00064549176, -0.0015804773, -1042356.2, -10470.716 
1.6509353e+2, 2.046914e+2, -953246.75, -1106986.5, -2186.374, 0.00006921438, -0.0011520236, -953215.7, -19191.346 
1.650939e+2, 2.146766e+2, -856675.1, -1009765.9, -2311.669, -0.001225731, -0.00036632275, -856640.2, -20471.059 
1.650943e+2, 2.2466111e+2, -768650.5, -932178.94, -2530.9102, -0.0010222449, -0.000032818243, -768611.4, -30290.346 
1.6509467e+2, 2.346449e+2, -669051.1, -833380.2, -2509.5603, 0.000884734, -0.0025912013, -669012.8, -28532.85 
1.6509509e+2, 2.4462803e+2, -580102.5, -754750.44, -1956.8833, 0.0009635379, -0.002188704, -580080.56, -37435.21 
1.6509557e+2, 2.5461048e+2, -482778.84, -656943.25, -1802.9128, -0.0010717788, -0.00045743512, -482760.2, -37943.098 
1.6509607e+2, 2.645923e+2, -394077.5, -578512.56, -1736.8729, -0.0010781147, 0.0004919323, -394061.13, -47065.563 
1.6509658e+2, 2.745734e+2, -294466.25, -479484.34, -1942.2089, 0.0012817702, -0.0017791297, -294445.84, -45265.15 
1.6509718e+2, 2.8455374e+2, -206642.17, -403409.3, -1320.3296, 0.0012634378, -0.0019047654, -206633.31, -55260.086 
1.6509782e+2, 2.9453334e+2, -108868.055, -305249.66, -1036.8184, -0.0015687415, -0.002099809, -108862.58, -55289.56 
1.6509853e+2, 3.0451572e+2, -20812.902, -175866.89, -715.04956, -0.0023041693, -0.00063228444, -20809.605, -20809.605 
1.6509928e+2, 3.145009e+2, -19853.268, -174997.7, -860.2805, -0.00048828736, 0.0006254676, -19848.496, -19848.496 
1.6510011e+2, 3.2449058e+2, 45559.51, -41310.566, -329.1187, 0.0024676926, -0.00321168, 45560.758, 45560.758 
1.750907e+2, 3.4840012e+1, -2539225.8, -2600896.5, -230.80472, -0.0022327704, -0.00068062416, -2539224.8, 59343.074 
1.7509161e+2, 4.483651e+1, -2449965.0, -2520697.5, -488.9358, 0.0043172776, -0.0004184639, -2449961.5, 50640.652 
1.7509234e+2, 5.483242e+1, -2350698.0, -2422424.0, -624.5782, -0.0009041481, 0.00078668946, -2350692.5, 51949.797 
1.7509304e+2, 6.482765e+1, -2261655.5, -2343379.3, -1251.1738, -0.002091577, 0.0014822606, -2261636.3, 43052.816 
1.7509371e+2, 7.482221e+1, -2164339.3, -2245902.3, -1313.0468, 0.0009978279, -0.00033376474, -2164318.3, 42424.12 
1.7509432e+2, 8.481609e+1, -2075789.9, -2167674.8, -1519.8976, 0.0015463266, -0.00046456573, -2075764.8, 33037.56 
1.7509489e+2, 9.4809294e+1, -1976532.4, -2069203.9, -1564.6561, -0.00063040154, -0.0008680328, -1976505.9, 34362.914 
1.750954e+2, 1.0480183e+2, -1887749.5, -1990425.0, -2224.4817, -0.00085293304, -0.00050870754, -1887701.4, 25240.684 
1.7509584e+2, 1.147937e+2, -1790617.6, -1892981.8, -2207.2117, 0.0010331174, -0.0013054827, -1790570.0, 24451.682 
1.7509627e+2, 1.247849e+2, -1702168.9, -1814625.8, -2203.0664, 0.00096528337, -0.0005124774, -1702125.8, 14982.222 
1.7509668e+2, 1.3477543e+2, -1603154.5, -1716232.8, -2337.018, -0.0012206377, -0.000064773114, -1603106.3, 16094.478 
1.7509708e+2, 1.447653e+2, -1514159.3, -1637361.5, -2614.369, -0.0013726939, 0.0006669815, -1514103.9, 7196.217 
1.7509745e+2, 1.5475449e+2, -1416415.0, -1539573.4, -2422.7854, 0.000702477, -0.00043282437, -1416367.4, 7038.6055 
1.750978e+2, 1.64743e+2, -1328165.5, -1461138.4, -2562.1152, 0.0010485315, -0.0006073921, -1328116.1, -2597.731 
1.7509809e+2, 1.7473087e+2, -1230413.4, -1363323.9, -2722.8875, -0.0005136531, -0.0019749522, -1230357.6, -2720.106 
1.7509845e+2, 1.8471804e+2, -1141454.6, -1284708.1, -2406.435, -0.0008364877, -0.0012748891, -1141414.1, -11651.184 
1.7509887e+2, 1.9470458e+2, -1042096.56, -1186122.1, -2222.1638, 0.00022333565, -0.00028720326, -1042062.25, -10167.231 
1.7509921e+2, 2.0469041e+2, -953499.25, -1107493.3, -2551.3784, 0.000255463, 0.00016330043, -953457.0, -19423.182 
1.750995e+2, 2.1467556e+2, -856932.8, -1010276.1, -2697.2766, -0.0008719536, -0.00212034, -856885.4, -20706.082 
1.750999e+2, 2.2466007e+2, -768588.1, -932083.44, -2160.9436, -0.00049527, -0.0015439586, -768559.56, -30228.277 
1.7510037e+2, 2.3464389e+2, -669023.2, -833260.56, -2112.6353, 0.0015895504, -0.000082985105, -668996.06, -28506.24 
1.7510083e+2, 2.4462704e+2, -579869.1, -754217.75, -2155.7666, 0.0014232484, 0.00064000033, -579842.5, -37187.555 
1.7510122e+2, 2.5460953e+2, -482524.94, -656375.75, -2026.7267, -0.0013583214, -0.0015920638, -482501.3, -37674.695 
1.7510174e+2, 2.6459128e+2, -394421.7, -579223.6, -1413.634, -0.0015207093, -0.0017266052, -394410.88, -47405.625 
1.7510237e+2, 2.7457234e+2, -294868.88, -480243.72, -1591.6462, 0.0013857802, -0.0017098809, -294855.22, -45664.48 
1.75103e+2, 2.8455272e+2, -206192.23, -402451.28, -1422.4972, 0.001788742, -0.000033101976, -206181.92, -54798.87 
1.751036e+2, 2.9453245e+2, -108374.65, -304198.25, -1164.058, -0.00078061444, 0.0009920438, -108367.734, -54785.754 
1.751043e+2, 3.045148e+2, -21021.777, -176340.48, -531.75885, -0.0018512578, -0.0004464652, -21019.957, -21019.957 
1.7510511e+2, 3.1449986e+2, -20094.889, -175560.47, -657.6396, -0.0010946466, -0.007057172, -20092.107, -20092.107 
1.7510602e+2, 3.2448965e+2, 45495.402, -41450.234, -57.892536, 0.003188589, 0.0039994405, 45495.44, 45495.44 
1.850961e+2, 3.4839058e+1, -2538232.8, -2601625.0, -152.05109, -0.0017871174, -0.0022402783, -2538232.5, 60344.71 
1.8509698e+2, 4.4835538e+1, -2448822.5, -2520042.0, -811.28076, 0.003937516, 0.00087558734, -2448813.3, 51798.406 
1.8509778e+2, 5.4831445e+1, -2350460.0, -2422172.8, -590.5052, -0.0013273237, -0.000056471446, -2350455.3, 52196.62 
1.8509851e+2, 6.482666e+1, -2261571.3, -2343701.0, -1314.2568, -0.002266923, 0.0001878558, -2261550.3, 43148.477 
1.850992e+2, 7.4821204e+1, -2162883.3, -2245574.8, -1519.3892, 0.001387089, -0.00026219556, -2162855.5, 43896.746 
1.8509983e+2, 8.481506e+1, -2074373.0, -2166971.0, -1698.7803, 0.0019679284, -0.000020682462, -2074341.9, 34470.49 
1.8510042e+2, 9.480827e+1, -1977155.9, -2069516.0, -1635.7972, -0.0007529536, -0.0011194345, -1977126.9, 33752.094 
1.8510094e+2, 1.048008e+2, -1888524.1, -1990934.4, -2320.7874, -0.0011779434, -0.0007568049, -1888471.6, 24480.564 
1.8510139e+2, 1.1479266e+2, -1789301.3, -1892473.1, -2427.7646, 0.00088071736, -0.00080088445, -1789244.1, 25787.71 
1.8510184e+2, 1.2478385e+2, -1700662.4, -1814063.0, -2427.8223, 0.00097073964, -0.000059450947, -1700610.4, 16507.832 
1.8510227e+2, 1.3477436e+2, -1603372.4, -1716532.3, -2407.5269, -0.0010817908, -0.000533075, -1603321.1, 15890.136 
1.8510267e+2, 1.4476421e+2, -1514837.0, -1637482.9, -2771.0308, -0.0012221972, 0.0000986176, -1514774.5, 6536.154 
1.8510304e+2, 1.5475343e+2, -1416627.3, -1539445.1, -2834.331, 0.0007341211, -0.00020055339, -1416561.9, 6854.423 
1.8510339e+2, 1.6474196e+2, -1328001.9, -1461362.1, -3009.1772, 0.0010348983, -0.00027913583, -1327934.0, -2405.1572 
1.8510371e+2, 1.7472976e+2, -1229307.3, -1363103.0, -3081.2732, -0.0004934829, -0.0023259998, -1229236.4, -1588.1825 
1.8510407e+2, 1.8471695e+2, -1140594.3, -1283970.3, -2801.8315, -0.00089951645, -0.001679409, -1140539.5, -10765.775 
1.8510449e+2, 1.9470352e+2, -1043698.5, -1186557.9, -2746.1045, -0.00005615034, -0.000045933128, -1043645.75, -11740.294 
1.8510486e+2, 2.0468937e+2, -955377.3, -1108595.6, -3115.5688, 0.00021519192, 0.0005442953, -955314.0, -21269.86 
1.8510514e+2, 2.146745e+2, -855961.4, -1010011.5, -3135.1157, -0.00016118068, -0.002166767, -855897.6, -19707.773 
1.8510555e+2, 2.2465898e+2, -767049.8, -931095.94, -2429.9802, -0.00009494822, -0.0017291798, -767013.8, -28671.938 
1.8510604e+2, 2.3464283e+2, -670002.8, -833517.44, -2293.8496, 0.00046399448, -0.00008359095, -669970.6, -29470.479 
1.8510649e+2, 2.4462599e+2, -581451.5, -754951.75, -2432.0205, 0.00048322364, 0.0007250784, -581417.44, -38752.254 
1.8510692e+2, 2.5460848e+2, -482190.84, -656189.06, -2570.1782, -0.00013045777, -0.0015294583, -482152.88, -37316.027 
1.8510745e+2, 2.6459023e+2, -393894.38, -578852.4, -1836.253, -0.00026155767, -0.0016759069, -393876.13, -46860.688 
1.8510808e+2, 2.7457133e+2, -296172.44, -480800.34, -1577.5619, 0.00016803447, -0.0016541767, -296158.97, -46958.11 
1.8510874e+2, 2.8455174e+2, -207827.97, -403063.1, -1398.1814, 0.00034459564, 0.00009190891, -207817.95, -56424.895 
1.8510939e+2, 2.9453143e+2, -108580.16, -304134.4, -1563.6536, 0.0002235421, 0.0012663046, -108567.65, -54975.816 
1.851101e+2, 3.045138e+2, -20781.748, -176082.03, -952.5008, -0.00039546206, -0.000107818225, -20775.906, -20775.906 
1.8511091e+2, 3.1449887e+2, -20392.502, -175560.23, -757.9293, -0.0015960375, -0.006767705, -20388.799, -20388.799 
1.8511187e+2, 3.2448867e+2, 44162.42, -42112.492, -39.13008, 0.0022424366, 0.004298191, 44162.44, 44162.44 
1.9510156e+2, 3.483819e+1, -2541255.0, -2607771.3, -637.41113, -0.0012236288, -0.0017302339, -2541249.0, 57336.633 
1.9510235e+2, 4.4834462e+1, -2448437.8, -2519262.0, -682.4694, 0.0006050764, -0.0008646598, -2448431.3, 52191.1 
1.9510324e+2, 5.483041e+1, -2350028.5, -2421283.5, -457.84232, 0.0004835128, -0.0033453514, -2350025.5, 52636.434 
1.9510403e+2, 6.482563e+1, -2261936.5, -2344427.8, -1112.1841, 0.0004069036, -0.0029761344, -2261921.5, 42787.176 
1.9510473e+2, 7.4820143e+1, -2163276.0, -2246324.5, -1310.7448, 0.0003508415, -0.0014932621, -2163255.3, 43507.203 
1.9510536e+2, 8.4814e+1, -2074270.8, -2166754.8, -1869.431, 0.00020378761, -0.0001395822, -2074232.9, 34589.832 
1.9510593e+2, 9.480722e+1, -1977035.3, -2069271.6, -1815.8473, -0.00003396471, -0.0010129588, -1976999.5, 33889.64 
1.9510648e+2, 1.0479974e+2, -1888707.5, -1991297.4, -2009.0315, -0.00025632896, -0.0003542814, -1888668.1, 24294.262 
1.95107e+2, 1.14791594e+2, -1789509.0, -1892860.6, -2103.6045, -0.00047338984, -0.000027394672, -1789466.1, 25576.178 
1.9510745e+2, 1.2478276e+2, -1700653.6, -1814024.1, -2594.979, -0.00009630089, -0.00000016820364, -1700594.3, 16534.691 
1.9510786e+2, 1.3477325e+2, -1603356.0, -1716468.4, -2584.4631, 0.0009341879, -0.0023610033, -1603297.0, 15925.111 
1.9510826e+2, 1.4476311e+2, -1514947.0, -1637702.1, -2722.9622, 0.0008322438, -0.0018754479, -1514886.6, 6434.949 
1.951086e+2, 1.5475231e+2, -1416744.0, -1539668.4, -2780.0703, -0.0005008704, -0.00042192283, -1416681.3, 6745.979 
1.95109e+2, 1.6474083e+2, -1328145.4, -1461630.9, -2838.096, -0.00077252876, 0.0005592766, -1328085.1, -2545.281 
1.9510938e+2, 1.7472863e+2, -1229474.5, -1363366.5, -2903.495, 0.00012786085, -0.001201603, -1229411.6, -1752.2361 
1.9510972e+2, 1.8471582e+2, -1140530.6, -1283802.8, -3070.7515, 0.00034128793, -0.0010609068, -1140464.8, -10679.806 
1.9511007e+2, 1.9470237e+2, -1043606.25, -1186376.6, -3030.3364, -0.00021389023, -0.0008133543, -1043541.94, -11625.274 
1.9511043e+2, 2.0468824e+2, -955400.2, -1108588.6, -2774.2197, -0.000061316714, 0.000027528547, -955350.0, -21294.701 
1.9511084e+2, 2.1467339e+2, -856011.5, -1010015.6, -2772.2478, 0.00088089256, -0.0005770531, -855961.6, -19760.81 
1.9511123e+2, 2.2465788e+2, -766856.0, -930665.2, -2677.1958, 0.00016746162, -0.0006391625, -766812.3, -28459.533 
1.9511162e+2, 2.3464173e+2, -669801.1, -833050.94, -2564.4722, -0.0024399187, -0.002490088, -669760.9, -29249.84 
1.951121e+2, 2.4462488e+2, -581677.5, -755396.94, -2172.8162, -0.0018179446, -0.0018236097, -581650.3, -38974.254 
1.9511265e+2, 2.5460735e+2, -482436.25, -656680.94, -2287.3218, 0.0025312859, -0.0003213493, -482406.22, -37558.492 
1.951132e+2, 2.6458916e+2, -393505.44, -577955.2, -1956.3318, 0.0026013558, 0.00055846246, -393484.7, -46458.555 
1.9511373e+2, 2.745703e+2, -295766.25, -479832.22, -1717.8495, -0.0023336872, -0.0016125011, -295750.22, -46539.15 
1.9511437e+2, 2.845507e+2, -208113.28, -403584.88, -1171.1637, -0.0030030895, -0.0014574439, -208106.27, -56703.0 
1.9511516e+2, 2.9453033e+2, -108915.77, -304714.16, -1315.5004, 0.0014015068, -0.0011591753, -108906.94, -55304.38 
1.9511594e+2, 3.0451277e+2, -20474.682, -175461.98, -877.83716, 0.0019939211, 0.00036598588, -20469.709, -20469.709 
1.9511673e+2, 3.1449792e+2, -20060.836, -174869.56, -692.82776, -0.002003977, 0.001146701, -20057.734, -20057.734 
1.9511765e+2, 3.244876e+2, 44139.066, -42152.203, -153.61957, -0.00034279187, -0.0019971093, 44139.34, 44139.34 
2.0510702e+2, 3.483721e+1, -2541285.0, -2607507.5, -1264.788, 0.0002746848, -0.0004503135, -2541261.0, 57334.258 
2.0510782e+2, 4.4833434e+1, -2446611.3, -2518907.0, -229.1258, -0.0021226886, -0.0029878977, -2446610.8, 54021.64 
2.0510875e+2, 5.4829365e+1, -2348974.5, -2421325.0, -808.46747, 0.0011963997, -0.002821241, -2348965.5, 53706.695 
2.0510955e+2, 6.4824563e+1, -2261199.5, -2344087.0, -1600.7909, 0.0018531824, -0.0018414664, -2261168.8, 43550.457 
2.0511028e+2, 7.4819064e+1, -2163129.0, -2246271.5, -1421.7819, -0.00037080786, -0.0019260403, -2163104.8, 43668.35 
2.0511092e+2, 8.4812903e+1, -2074043.4, -2166910.5, -2073.1975, -0.0009083056, -0.001002616, -2073997.1, 34836.38 
2.0511149e+2, 9.4806105e+1, -1975599.6, -2068840.4, -2322.934, 0.00035876434, -0.0010920241, -1975541.9, 35358.305 
2.0511204e+2, 1.0479862e+2, -1887292.3, -1990645.8, -2474.507, 0.00044288213, -0.00018995786, -1887233.0, 25740.502 
2.0511258e+2, 1.1479046e+2, -1789782.8, -1893028.8, -2398.7192, -0.00075335836, -0.00020935701, -1789727.0, 25326.48 
2.0511307e+2, 1.2478162e+2, -1701297.5, -1814354.0, -2957.7947, -0.00050260767, -0.0001387778, -1701220.3, 15919.876 
2.0511349e+2, 1.3477212e+2, -1602950.6, -1716305.4, -2991.0012, 0.0013192841, -0.0020228068, -1602871.9, 16361.374 
2.0511386e+2, 1.4476196e+2, -1514156.9, -1637518.9, -3076.1135, 0.0012015001, -0.0016399743, -1514080.3, 7252.4927 
2.0511423e+2, 1.5475117e+2, -1416042.5, -1539534.6, -3146.1191, -0.0010338161, -0.00092615664, -1415962.4, 7476.267 
2.051146e+2, 1.6473967e+2, -1327794.6, -1461316.1, -3113.872, -0.0012931642, 0.0002668995, -1327722.0, -2170.8003 
2.05115e+2, 1.747275e+2, -1230210.1, -1363605.3, -2940.6113, 0.0006320196, -0.00022591809, -1230145.3, -2474.7317 
2.0511536e+2, 1.8471466e+2, -1141397.3, -1284419.5, -3195.4226, 0.0009983416, -0.00016829411, -1141325.9, -11529.603 
2.0511566e+2, 1.9470121e+2, -1043024.4, -1186286.6, -3375.7483, -0.00038344652, -0.001515529, -1042944.9, -11016.68 
2.0511603e+2, 2.0468704e+2, -954542.8, -1107976.8, -2934.9922, -0.00044994862, -0.00090216263, -954486.7, -20419.86 
2.0511648e+2, 2.1467222e+2, -856753.6, -1010167.5, -2777.6372, 0.0009644414, -0.00018970529, -856703.4, -20491.299 
2.0511688e+2, 2.2465673e+2, -768089.2, -931272.0, -2974.9846, 0.00045177716, 0.00015757476, -768034.94, -29671.07 
2.0511724e+2, 2.3464058e+2, -669918.5, -833156.75, -3114.7769, -0.0022739533, -0.0023270533, -669859.1, -29336.854 
2.051177e+2, 2.4462374e+2, -581498.5, -755258.06, -2424.6729, -0.0018538624, -0.0020487958, -581464.7, -38777.4 
2.0511831e+2, 2.5460622e+2, -482998.25, -656879.1, -2244.1667, 0.0021986498, -0.0006473891, -482969.28, -38110.355 
2.0511888e+2, 2.6458806e+2, -394210.84, -578112.06, -2181.57, 0.0024401303, 0.0005350397, -394184.97, -47147.813 
2.051194e+2, 2.7456918e+2, -296201.25, -479875.44, -2271.7761, -0.0017813977, -0.0008658148, -296173.16, -46951.32 
2.0512006e+2, 2.845496e+2, -208764.11, -403811.63, -1459.347, -0.0025569648, -0.0011966694, -208753.19, -57339.266 
2.0512086e+2, 2.9452923e+2, -110010.63, -305195.97, -1242.5035, 0.0007591913, -0.0028715967, -110002.73, -56389.39 
2.051217e+2, 3.045117e+2, -21599.715, -175628.77, -756.96265, 0.0013868234, -0.00047931963, -21595.996, -21595.996 
2.0512252e+2, 3.144969e+2, -20945.96, -174933.75, -701.33844, -0.0012106807, 0.0045940652, -20942.766, -20942.766 
2.0512342e+2, 3.2448658e+2, 43592.477, -42283.332, -287.52362, -0.0004329905, -0.004439839, 43593.438, 43593.438 
2.1511249e+2, 3.4836128e+1, -2538027.5, -2600896.0, -363.2217, 0.002625471, 0.0015649409, -2538025.5, 60580.535 
2.1511336e+2, 4.4832462e+1, -2447642.0, -2521071.8, -291.2616, -0.0042639477, -0.0054918313, -2447640.8, 53000.945 
2.1511427e+2, 5.4828304e+1, -2350073.3, -2423632.5, -871.3832, 0.00082328083, 0.0013520182, -2350063.0, 52619.625 
2.151151e+2, 6.4823455e+1, -2260874.5, -2343394.0, -1545.112, 0.0020773534, 0.0034098006, -2260845.8, 43884.434 
2.1511583e+2, 7.4817955e+1, -2162783.0, -2245525.8, -1368.3962, -0.00080673635, -0.0015965069, -2162760.3, 44023.613 
2.1511649e+2, 8.4811765e+1, -2074495.5, -2167830.5, -1940.4984, -0.0014250067, -0.0025889322, -2074455.1, 34389.41 
2.1511711e+2, 9.4804925e+1, -1976070.3, -2069794.4, -2183.9453, 0.00040402033, -0.0013520534, -1976019.4, 34892.297 
2.1511768e+2, 1.04797415e+2, -1887164.9, -1990402.4, -2579.4624, 0.0009103311, -0.00025506457, -1887100.5, 25884.816 
2.1511818e+2, 1.1478926e+2, -1789642.8, -1892760.1, -2510.0835, -0.000027230735, -0.0013073845, -1789581.8, 25483.453 
2.1511865e+2, 1.2478044e+2, -1701341.0, -1814449.9, -2870.62, -0.0003120462, -0.00046579426, -1701268.3, 15883.445 
2.1511908e+2, 1.3477094e+2, -1602998.3, -1716407.9, -2898.5725, 0.00013061003, 0.00038683298, -1602924.1, 16320.457 
2.1511948e+2, 1.4476079e+2, -1514306.8, -1637794.1, -3041.4026, -0.00005520982, 0.0007096348, -1514232.0, 7112.3594 
2.1511985e+2, 1.5474993e+2, -1416203.9, -1539819.5, -3110.7083, -0.0009238957, -0.001708694, -1416125.8, 7324.9805 
2.1512024e+2, 1.6473845e+2, -1327495.8, -1460671.0, -3224.8762, -0.00061054894, -0.0011103374, -1327417.8, -1854.5267 
2.151206e+2, 1.7472634e+2, -1229919.3, -1362901.9, -3057.0332, 0.001011832, 0.0006037956, -1229849.0, -2167.1611 
2.1512096e+2, 1.8471351e+2, -1141726.9, -1285035.9, -3107.6638, 0.0010783562, 0.0009799706, -1141659.5, -11852.061 
2.1512128e+2, 1.9469999e+2, -1043376.7, -1186939.3, -3277.9888, -0.0005920811, -0.0021548874, -1043301.9, -11361.764 
2.1512164e+2, 2.0468582e+2, -954300.1, -1107445.9, -2987.742, -0.0009632588, -0.002224722, -954241.9, -20163.0 
2.1512209e+2, 2.1467105e+2, -856499.8, -1009608.1, -2838.003, 0.00011622337, -0.00095236296, -856447.2, -20223.568 
2.1512249e+2, 2.2465558e+2, -768325.6, -931739.2, -2961.9272, 0.0007282867, 0.00067418313, -768271.94, -29896.637 
2.1512288e+2, 2.346394e+2, -670163.94, -833642.2, -3095.1646, 0.0008085357, 0.00029506028, -670105.4, -29571.543 
2.1512336e+2, 2.4462256e+2, -581203.5, -754677.75, -2335.4321, 0.00026175656, -0.000052223397, -581172.06, -38473.188 
2.1512394e+2, 2.5460505e+2, -482703.06, -656281.44, -2155.4766, -0.0010120311, -0.002433009, -482676.3, -37805.875 
2.151245e+2, 2.645869e+2, -394377.6, -578377.75, -2249.7412, -0.0006372066, -0.0016368495, -394350.1, -47301.543 
2.1512507e+2, 2.7456805e+2, -296374.47, -480149.97, -2342.1863, 0.0016712947, 0.0005507174, -296344.63, -47111.492 
2.1512574e+2, 2.8454846e+2, -208412.77, -403089.97, -1341.4597, 0.0014930625, 0.00079256814, -208403.53, -56978.504 
2.1512651e+2, 2.9452813e+2, -109672.53, -304423.06, -1119.5847, -0.0016426395, -0.0039059836, -109666.09, -56041.92 
2.1512735e+2, 3.045106e+2, -21491.166, -175408.66, -641.521, -0.0021018307, -0.0025846355, -21488.492, -21488.492 
2.1512829e+2, 3.144959e+2, -20865.807, -174724.36, -584.25, 0.00071536994, 0.003785813, -20863.588, -20863.588 
2.1512923e+2, 3.2448557e+2, 43743.117, -41915.574, -209.43587, 0.0018156234, -0.0032105886, 43743.63, 43743.63 
2.2511795e+2, 3.4835e+1, -2537188.0, -2600519.0, 227.11662, 0.0025359679, 0.0008255931, -2537187.3, 61429.773 
2.2511894e+2, 4.483136e+1, -2447267.8, -2520918.3, -1603.6799, -0.0031030048, -0.0030837266, -2447232.8, 53419.848 
2.2511984e+2, 5.4827166e+1, -2349189.3, -2423244.0, -1122.2174, 0.00010500154, 0.0012653857, -2349172.3, 53521.44 
2.2512066e+2, 6.4822304e+1, -2259848.8, -2343063.5, -1441.9371, 0.0010624506, 0.0026152413, -2259823.8, 44917.668 
2.2512141e+2, 7.4816793e+1, -2161975.3, -2245301.8, -1728.5762, -0.0004222932, -0.0011943249, -2161939.3, 44856.04 
2.251221e+2, 8.48106e+1, -2073945.9, -2167734.5, -2295.9595, -0.00068076374, -0.0017778361, -2073889.6, 34966.367 
2.2512273e+2, 9.480373e+1, -1975806.0, -2069827.5, -2179.9036, 0.0003758018, -0.0009803673, -1975755.5, 35167.906 
2.251233e+2, 1.0479621e+2, -1886943.4, -1990366.0, -2674.6719, 0.00067307043, -0.00027338963, -1886874.3, 26122.834 
2.251238e+2, 1.1478805e+2, -1789280.9, -1892664.5, -2811.377, 0.00014950166, -0.0016536998, -1789204.5, 25872.67 
2.2512425e+2, 1.2477921e+2, -1700842.3, -1814279.4, -3081.1687, -0.00022547925, -0.00081215316, -1700758.6, 16405.066 
2.2512472e+2, 1.3476972e+2, -1602396.9, -1716184.3, -3108.902, -0.00043652428, 0.0003908688, -1602312.0, 16944.691 
2.2512512e+2, 1.4475955e+2, -1513964.3, -1637680.0, -3367.7542, -0.00037358093, 0.00091785, -1513872.6, 7483.777 
2.251255e+2, 1.547487e+2, -1416591.1, -1540072.6, -3327.1628, -0.000007374685, -0.0014521197, -1416501.5, 6961.296 
2.2512585e+2, 1.647372e+2, -1327929.8, -1460862.5, -3493.1418, 0.00014836836, -0.0011820347, -1327838.0, -2262.6135 
2.251262e+2, 1.747251e+2, -1229690.1, -1362796.3, -3640.4836, 0.00007419772, -0.00020793157, -1229590.6, -1896.5969 
2.2512655e+2, 1.8471228e+2, -1141295.0, -1284856.5, -3607.9639, 0.000076512624, 0.00038284596, -1141204.4, -11384.6875 
2.251269e+2, 1.9469875e+2, -1043112.0, -1186874.3, -3459.7056, 0.00015745393, -0.0014740004, -1043028.8, -11076.612 
2.2512728e+2, 2.0468459e+2, -954467.75, -1107482.8, -3339.3147, -0.00007227119, -0.0014110293, -954394.9, -20303.953 
2.2512765e+2, 2.1466981e+2, -857376.44, -1010005.1, -3455.4927, -0.00065761845, -0.00130715, -857298.25, -21062.451 
2.2512807e+2, 2.2465435e+2, -768980.0, -931971.5, -3247.292, -0.00012258253, 0.000039988925, -768915.4, -30527.93 
2.2512853e+2, 2.3463818e+2, -669580.4, -833277.7, -3068.2817, 0.0016851363, 0.00040762697, -669522.9, -28977.049 
2.25129e+2, 2.4462134e+2, -580925.75, -754433.56, -2619.634, 0.001274338, 0.00042412066, -580886.25, -38175.457 
2.251295e+2, 2.5460386e+2, -484467.97, -657045.9, -2708.8623, -0.0017122652, -0.0020478326, -484425.47, -39543.23 
2.2513008e+2, 2.6458567e+2, -396218.4, -579117.1, -2439.9468, -0.0015403153, -0.0016300684, -396185.84, -49125.574 
2.2513072e+2, 2.7456686e+2, -296136.16, -479877.97, -2250.1282, 0.0023396076, -0.00015054298, -296108.6, -46863.863 
2.251314e+2, 2.845473e+2, -207792.86, -402681.63, -1518.6461, 0.002334795, 0.0005603169, -207781.03, -56344.563 
2.2513214e+2, 2.94527e+2, -110556.97, -304781.28, -1617.0194, -0.0022994352, -0.0022742967, -110543.5, -56908.168 
2.25133e+2, 3.0450946e+2, -23137.041, -175878.44, -1073.2048, -0.0028552362, -0.0018791392, -23129.502, -23129.502 
2.2513396e+2, 3.1449473e+2, -22500.102, -175204.14, -914.04755, 0.0015643643, 0.00020308887, -22494.629, -22494.629 
2.2513495e+2, 3.244845e+2, 43023.195, -41681.953, -225.20435, 0.0018137476, -0.0013597502, 43023.797, 43023.797 
2.3512343e+2, 3.4833825e+1, -2540335.0, -2607024.0, 783.5034, 0.00006391582, -0.0025757165, -2540325.8, 58302.76 
2.3512457e+2, 4.4830123e+1, -2446357.0, -2519105.8, -1517.8147, 0.0012126758, 0.004011607, -2446325.3, 54339.58 
2.3512544e+2, 5.4825956e+1, -2348200.0, -2421289.8, -1053.7484, -0.00097317406, -0.0028818315, -2348184.8, 54520.91 
2.3512627e+2, 6.48211e+1, -2260373.0, -2344100.0, -1443.8121, -0.0011747149, -0.0039530997, -2260348.0, 44405.117 
2.3512705e+2, 7.481559e+1, -2162520.3, -2246395.0, -1726.4835, 0.000730779, -0.00072936376, -2162484.8, 44322.46 
2.3512775e+2, 8.480939e+1, -2073739.3, -2167284.3, -2228.7449, 0.0012380191, 0.0013107554, -2073686.1, 35181.76 
2.3512837e+2, 9.4802535e+1, -1975595.6, -2069354.1, -2113.7307, 0.00023920547, -0.000017705785, -1975548.0, 35387.152 
2.3512894e+2, 1.0479501e+2, -1887177.5, -1990879.1, -2751.0452, -0.00025844894, -0.00025154348, -1887104.5, 25904.389 
2.3512942e+2, 1.147868e+2, -1789516.6, -1893181.3, -2887.7715, -0.0002172671, -0.0012833752, -1789436.3, 25653.018 
2.3512988e+2, 1.2477794e+2, -1700884.1, -1814408.0, -2964.8052, -0.00027419953, -0.001176627, -1700806.8, 16369.366 
2.3513035e+2, 1.3476843e+2, -1602452.1, -1716324.9, -2988.683, -0.00042728492, -0.0018980888, -1602373.8, 16895.543 
2.3513079e+2, 1.4475825e+2, -1513908.0, -1637525.0, -3520.203, 0.00018946444, -0.00091613433, -1513807.9, 7561.103 
2.3513111e+2, 1.5474744e+2, -1416516.0, -1539898.5, -3485.7476, 0.001650224, -0.00021054575, -1416417.6, 7057.4 
2.3513147e+2, 1.6473594e+2, -1328188.0, -1461407.8, -3445.7156, 0.0009518521, -0.000010821593, -1328099.0, -2511.2083 
2.3513179e+2, 1.7472376e+2, -1229986.5, -1363352.6, -3584.5981, -0.002126838, -0.0025854162, -1229890.3, -2183.1477 
2.3513216e+2, 1.8471093e+2, -1141052.3, -1284310.3, -3557.1484, -0.001977308, -0.0018838263, -1140964.0, -11131.251 
2.3513258e+2, 1.946975e+2, -1042870.5, -1186290.6, -3410.5198, 0.0017853304, 0.0004595181, -1042789.44, -10824.937 
2.3513292e+2, 2.0468335e+2, -954682.4, -1107905.1, -3576.3328, 0.002136865, 0.0014346493, -954598.94, -20495.865 
2.351332e+2, 2.1466851e+2, -857590.5, -1010440.9, -3699.198, -0.0013796012, -0.0012735697, -857501.0, -21252.512 
2.351336e+2, 2.2465304e+2, -768663.9, -931309.94, -2924.5789, -0.002075694, -0.0016889336, -768611.3, -30211.074 
2.3513415e+2, 2.3463692e+2, -669282.9, -832604.5, -2728.9907, 0.00045066106, -0.0018681306, -669237.25, -28679.092 
2.3513465e+2, 2.446201e+2, -581118.94, -754782.06, -3040.0188, 0.0012228223, -0.0005454335, -581065.75, -38342.81 
2.3513503e+2, 2.546026e+2, -484634.38, -657403.44, -3154.5093, -0.00004701952, 0.0004029997, -484576.78, -39682.45 
2.351356e+2, 2.6458445e+2, -395860.94, -578401.9, -2003.5468, -0.00039254592, 0.00045118638, -395838.97, -48766.64 
2.3513633e+2, 2.7456564e+2, -295815.53, -479138.6, -1780.4568, 0.00035196746, -0.002863324, -295798.22, -46541.55 
2.3513706e+2, 2.8454608e+2, -208034.78, -403075.97, -1764.868, 0.000107453365, -0.0017855336, -208018.81, -56570.586 
2.3513776e+2, 2.9452583e+2, -110785.766, -305218.6, -1891.1573, -0.0013184408, 0.0018842504, -110767.375, -57120.555 
2.3513858e+2, 3.045083e+2, -22886.254, -175325.92, -971.86835, -0.0010324921, 0.0014985387, -22880.057, -22880.057 
2.3513958e+2, 3.144935e+2, -22242.701, -174598.66, -796.7233, 0.0013793362, -0.0060087196, -22238.535, -22238.535 
2.351406e+2, 3.2448342e+2, 43554.727, -40531.348, 252.83748, -0.00035257443, 0.0010667188, 43555.484, 43555.484 
2.4512903e+2, 3.483266e+1, -2537756.8, -2606814.0, 308.04678, -0.0025148897, -0.003003673, -2537755.3, 60884.566 
2.4513018e+2, 4.482892e+1, -2446289.0, -2518926.0, -633.2634, 0.0038088488, 0.0036331925, -2446283.5, 54393.16 
2.4513108e+2, 5.482476e+1, -2347515.8, -2420778.0, -1040.6385, -0.0006330545, -0.003284128, -2347501.0, 55216.363 
2.4513191e+2, 6.48199e+1, -2259542.3, -2344034.8, -1848.727, -0.0016565337, -0.004271851, -2259501.8, 45263.125 
2.451327e+2, 7.481436e+1, -2161514.8, -2246242.3, -1801.4167, 0.0009722689, -0.00084507646, -2161476.5, 45342.793 
2.4513341e+2, 8.480815e+1, -2072771.0, -2166848.8, -2298.1868, 0.0014419652, 0.0011986932, -2072714.9, 36165.184 
2.4513401e+2, 9.4801295e+1, -1975315.4, -2069266.6, -2423.2527, -0.00041450586, -0.00033694817, -1975252.9, 35694.453 
2.4513458e+2, 1.0479375e+2, -1886866.6, -1990911.0, -3021.8062, -0.0008553056, -0.00045855498, -1886778.9, 26242.33 
2.4513508e+2, 1.1478554e+2, -1788061.8, -1892673.8, -3033.8171, 0.00024055583, -0.0010353171, -1787973.9, 27127.852 
2.4513556e+2, 1.2477666e+2, -1699674.1, -1813964.4, -3255.7576, 0.00041194202, -0.0009239623, -1699581.4, 17607.219 
2.4513601e+2, 1.3476713e+2, -1603071.3, -1716751.6, -3322.9922, -0.00043398488, -0.0021468992, -1602974.3, 16307.87 
2.451364e+2, 1.4475696e+2, -1514600.3, -1637787.1, -3728.17, -0.00017956171, -0.0012191904, -1514487.6, 6894.2207 
2.4513677e+2, 1.5474615e+2, -1415661.4, -1539406.4, -3727.2961, 0.0012951783, -0.00007098598, -1415549.3, 7938.4644 
2.451371e+2, 1.6473463e+2, -1327190.0, -1461132.1, -3768.593, 0.00092408014, 0.00023246669, -1327084.0, -1483.5721 
2.4513742e+2, 1.7472243e+2, -1230020.4, -1363592.9, -3774.5044, -0.0014865274, -0.002611734, -1229913.8, -2193.6333 
2.4513777e+2, 1.8470961e+2, -1141526.1, -1284321.6, -3658.6533, -0.0015085057, -0.0020367373, -1141432.4, -11586.673 
2.4513817e+2, 1.946962e+2, -1043712.2, -1186501.4, -3640.654, 0.0011355941, 0.00034205607, -1043619.44, -11642.131 
2.4513851e+2, 2.0468205e+2, -955232.75, -1108275.1, -3829.3936, 0.0015525598, 0.0014553316, -955137.0, -21021.197 
2.451388e+2, 2.146672e+2, -856509.94, -1010059.94, -3814.308, -0.0005514589, -0.001001129, -856415.25, -20153.957 
2.451392e+2, 2.2465172e+2, -767916.06, -930785.2, -3094.492, -0.0013054701, -0.0016092858, -767857.3, -29444.238 
2.451397e+2, 2.3463562e+2, -671479.0, -833491.2, -3127.242, -0.00052705285, -0.00249108, -671418.6, -30847.75 
2.451402e+2, 2.4461882e+2, -583277.3, -755718.6, -3357.748, 0.00019577068, -0.0011362175, -583211.94, -40476.47 
2.4514063e+2, 2.5460136e+2, -483215.47, -656619.4, -3218.5479, 0.0008466658, 0.00069437805, -483155.75, -38249.023 
2.451412e+2, 2.645832e+2, -394261.47, -577542.5, -2138.7444, 0.00065084343, 0.0010203595, -394236.5, -47151.88 
2.451419e+2, 2.745644e+2, -297870.44, -480072.44, -2255.8208, -0.0005336965, -0.0027222598, -297842.5, -48573.53 
2.4514262e+2, 2.8454483e+2, -210896.11, -404236.88, -2196.188, -0.00097311626, -0.001984856, -210871.17, -59410.727 
2.4514334e+2, 2.945246e+2, -111340.484, -305227.4, -1948.4473, -0.0005335556, 0.0014426891, -111320.91, -57662.07 
2.4514417e+2, 3.0450708e+2, -22517.29, -175104.8, -941.5233, 0.000034517085, 0.001562355, -22511.48, -22511.48 
2.4514516e+2, 3.1449232e+2, -22487.139, -174656.73, -1020.52344, 0.00081231765, -0.0045308145, -22480.295, -22480.295 
2.4514624e+2, 3.244822e+2, 42080.41, -41539.645, -218.98251, -0.00095895835, 0.0007026025, 42080.984, 42080.984 
2.5513473e+2, 3.483151e+1, -2536083.3, -2603385.3, -914.5314, -0.005243972, -0.00059671537, -2536071.0, 62580.234 
2.5513577e+2, 4.4827738e+1, -2446956.8, -2520364.0, -437.26022, 0.004755317, -0.0038528943, -2446954.0, 53733.996 
2.5513673e+2, 5.4823583e+1, -2348228.0, -2422304.8, -814.277, 0.0010245965, -0.00013056071, -2348219.0, 54509.88 
2.551376e+2, 6.4818704e+1, -2259462.3, -2343839.0, -1795.3599, -0.00050056144, 0.0013485273, -2259424.0, 45352.574 
2.551384e+2, 7.4813116e+1, -2161420.3, -2246026.5, -1752.4105, 0.00033058, -0.0015167282, -2161384.0, 45447.42 
2.5513908e+2, 8.480687e+1, -2073001.6, -2167310.0, -2412.164, -0.0000025468526, -0.0019584442, -2072940.0, 35952.574 
2.5513965e+2, 9.4799995e+1, -1975540.8, -2069734.1, -2538.9348, -0.0015963406, -0.0018815744, -1975472.4, 35487.563 
2.5514024e+2, 1.04792446e+2, -1886862.9, -1990958.5, -2811.1519, -0.001164061, -0.00089082157, -1886787.1, 26246.912 
2.5514084e+2, 1.1478424e+2, -1788088.8, -1892721.5, -2815.9812, 0.0014607664, -0.0009032937, -1788013.1, 27101.336 
2.551413e+2, 1.2477536e+2, -1699804.9, -1814257.9, -3595.4622, 0.00175917, -0.00009356576, -1699692.0, 17509.42 
2.5514162e+2, 1.3476582e+2, -1603175.8, -1717025.3, -3672.9739, -0.00047887003, -0.0004611654, -1603057.4, 16237.544 
2.55142e+2, 1.4475563e+2, -1514553.8, -1637789.1, -3500.4795, -0.0014440541, -0.00006635192, -1514454.4, 6940.4604 
2.5514242e+2, 1.547448e+2, -1415650.6, -1539417.5, -3486.8538, -0.0009954822, -0.0009771918, -1415552.5, 7948.4126 
2.5514275e+2, 1.6473329e+2, -1327207.5, -1461192.5, -3973.6982, 0.0000759021, -0.00040825584, -1327089.8, -1476.0781 
2.5514308e+2, 1.7472112e+2, -1230012.8, -1363641.5, -3989.1914, 0.0018356155, -0.00041266324, -1229893.9, -2160.7813 
2.5514337e+2, 1.847083e+2, -1141480.4, -1284261.6, -3718.129, 0.001335537, -0.00018361579, -1141383.6, -11524.936 
2.551437e+2, 1.9469485e+2, -1043688.44, -1186435.1, -3697.4385, -0.0016973146, -0.0017185118, -1043592.7, -11602.183 
2.5514406e+2, 2.0468071e+2, -955189.56, -1108186.9, -3662.037, -0.0016980482, -0.0012025557, -955101.94, -20972.896 
2.5514445e+2, 2.1466589e+2, -856491.44, -1009961.5, -3637.2512, 0.0017236614, -0.00050294126, -856405.3, -20131.088 
2.5514483e+2, 2.2465043e+2, -768030.5, -930980.06, -3502.6711, 0.0020147986, 0.0001814604, -767955.25, -29529.395 
2.551452e+2, 2.346343e+2, -671568.94, -833687.1, -3555.4634, -0.0012806873, -0.001550603, -671491.0, -30907.09 
2.5514567e+2, 2.4461749e+2, -582973.9, -755138.25, -2902.819, -0.0017711069, -0.0013644118, -582925.0, -40176.48 
2.5514624e+2, 2.5460005e+2, -482949.72, -656020.0, -2730.9543, 0.0009885493, -0.0010598201, -482906.66, -37987.21 
2.5514683e+2, 2.6458192e+2, -394531.9, -578112.7, -2590.6743, 0.0015726744, 0.00015436047, -394495.34, -47398.15 
2.551474e+2, 2.7456307e+2, -298130.13, -480665.84, -2742.4636, -0.00039169635, 0.000119891745, -298088.9, -48807.297 
2.5514808e+2, 2.8454354e+2, -210415.03, -403295.38, -1894.678, -0.0009863727, -0.00015059892, -210396.42, -58923.348 
2.5514892e+2, 2.9452333e+2, -110862.32, -304225.0, -1614.9824, 0.000043085933, -0.003346581, -110848.83, -57177.47 
2.5514978e+2, 3.0450583e+2, -22738.957, -175433.48, -964.3054, 0.0003596717, -0.001509111, -22732.867, -22732.867 
2.5515074e+2, 3.1449115e+2, -22730.348, -175049.64, -1056.8646, -0.00012720171, 0.0042011016, -22723.016, -22723.016 
2.5515187e+2, 3.2448086e+2, 41145.77, -43435.523, -98.37305, -0.00012470731, -0.0022904333, 41145.883, 41145.883 
2.6514044e+2, 3.4830353e+1, -2535824.3, -2602253.5, -1345.3923, -0.0031636194, 0.00027030238, -2535797.0, 62865.523 
2.6514143e+2, 4.4826567e+1, -2445359.5, -2520352.3, -651.50195, 0.0018444868, -0.005563134, -2445353.8, 55345.707 
2.651424e+2, 5.482237e+1, -2347242.5, -2422618.8, -795.67566, 0.0012785789, 0.00039941893, -2347234.3, 55506.566 
2.6514333e+2, 6.481745e+1, -2258507.3, -2343476.5, -1888.6708, 0.0005913245, 0.0025044163, -2258465.5, 46323.6 
2.651441e+2, 7.4811846e+1, -2160893.3, -2245849.3, -1998.2155, -0.00023204117, -0.0014621265, -2160846.3, 45997.62 
2.6514477e+2, 8.480558e+1, -2072427.5, -2167313.0, -2706.4102, -0.000663892, -0.0023701603, -2072350.4, 36554.918 
2.651454e+2, 9.4798684e+1, -1974095.6, -2069326.5, -2788.384, -0.0006771147, -0.002074169, -1974014.0, 36958.85 
2.6514596e+2, 1.0479111e+2, -1885780.9, -1990496.4, -3095.6702, -0.00026650727, -0.00091411255, -1885689.5, 27357.518 
2.6514652e+2, 1.1478291e+2, -1789018.4, -1893227.6, -3125.1572, 0.00059831335, -0.0008193189, -1788924.8, 26202.701 
2.6514697e+2, 1.24774024e+2, -1700601.4, -1814673.0, -3837.8765, 0.00079665944, 0.000090294496, -1700472.4, 16742.195 
2.651473e+2, 1.3476448e+2, -1601496.9, -1716251.8, -3812.3313, 0.0002661233, -0.00016854402, -1601370.4, 17937.697 
2.651477e+2, 1.4475428e+2, -1512910.4, -1637144.9, -3722.86, -0.0005141535, -0.00003728463, -1512798.9, 8609.201 
2.6514804e+2, 1.5474342e+2, -1416545.5, -1540043.9, -3842.4658, -0.001551382, -0.0016204761, -1416426.0, 7088.351 
2.6514837e+2, 1.6473192e+2, -1328407.9, -1461586.3, -4219.771, -0.0007531222, -0.000845214, -1328274.3, -2647.111 
2.651487e+2, 1.7471977e+2, -1229469.8, -1363174.6, -4104.2603, 0.002075739, 0.0003288913, -1229343.9, -1597.6064 
2.65149e+2, 1.8470694e+2, -1140634.5, -1284053.5, -4028.0452, 0.001912227, 0.00059852825, -1140521.5, -10649.557 
2.6514927e+2, 1.9469345e+2, -1043722.0, -1186636.1, -4177.068, -0.0016060389, -0.0021733085, -1043600.0, -11595.974 
2.6514962e+2, 2.0467933e+2, -955711.0, -1108209.9, -3935.1653, -0.0018914533, -0.0020374192, -955609.56, -21466.951 
2.6515e+2, 2.1466453e+2, -857726.06, -1010332.6, -3790.4097, 0.0014759233, -0.00073846465, -857632.0, -21344.504 
2.651504e+2, 2.2464907e+2, -769002.94, -931552.1, -3824.5674, 0.0020255512, 0.00058878167, -768913.0, -30474.014 
2.6515073e+2, 2.3463295e+2, -670700.06, -833370.5, -3844.9846, -0.000658483, -0.00046543207, -670609.25, -30012.162 
2.6515117e+2, 2.4461615e+2, -582218.9, -754544.94, -2960.3352, -0.0012469448, -0.0007068343, -582168.06, -39406.438 
2.6515177e+2, 2.5459874e+2, -485017.7, -656781.8, -2923.7986, 0.0005932037, -0.00209504, -484967.94, -40035.46 
2.6515234e+2, 2.645806e+2, -397063.94, -579263.44, -2947.908, 0.0009949727, -0.0009476354, -397016.25, -49906.137 
2.651529e+2, 2.745618e+2, -297990.1, -480557.84, -2806.8372, -0.00029245278, 0.00085592584, -297946.94, -48652.594 
2.6515356e+2, 2.8454226e+2, -209607.55, -402645.06, -1761.5365, -0.0005832698, 0.0006728098, -209591.48, -58105.8 
2.6515442e+2, 2.9452205e+2, -111975.64, -304503.78, -1828.78, 0.0003054063, -0.00452512, -111958.27, -58274.34 
2.6515532e+2, 3.0450457e+2, -24667.691, -176297.63, -1275.3096, 0.0002307431, -0.002492112, -24656.967, -24656.967 
2.6515627e+2, 3.1448993e+2, -23933.45, -175573.05, -1133.1772, -0.00094556855, 0.0060790726, -23924.982, -23924.982 
2.651574e+2, 3.244796e+2, 40249.848, -43575.996, 465.5212, 0.0007467406, -0.0034714686, 40252.434, 40252.434 
2.7514622e+2, 3.4829193e+1, -2536145.8, -2602918.3, -1181.4557, 0.0034428593, -0.00033749634, -2536124.8, 62549.047 
2.7514708e+2, 4.4825408e+1, -2445622.0, -2520972.3, -584.252, -0.0047311797, -0.0018163011, -2445617.5, 55093.383 
2.7514818e+2, 5.4821104e+1, -2347532.5, -2423253.3, -722.6044, 0.00017673477, -0.0015499698, -2347525.5, 55227.574 
2.751491e+2, 6.481614e+1, -2258702.0, -2343865.3, -1946.9238, 0.0015999436, -0.00055991655, -2258657.5, 46144.35 
2.7514985e+2, 7.4810547e+1, -2161074.5, -2246228.3, -2058.0527, -0.00073652377, -0.00072818156, -2161024.8, 45831.813 
2.7515054e+2, 8.480427e+1, -2072555.9, -2167620.3, -2599.579, -0.0005986829, -0.00019112515, -2072484.9, 36433.195 
2.751512e+2, 9.4797343e+1, -1974242.6, -2069639.6, -2676.2385, 0.002200857, -0.0009910316, -1974167.6, 36818.43 
2.7515173e+2, 1.04789756e+2, -1885851.8, -1990618.0, -3386.1177, 0.001744402, -0.0005542974, -1885742.4, 27317.955 
2.7515215e+2, 1.1478154e+2, -1789068.4, -1893329.3, -3424.5867, -0.002248207, -0.0007865867, -1788956.0, 26184.861 
2.751526e+2, 1.2477265e+2, -1700518.1, -1814537.0, -3560.8215, -0.0023745035, -0.0003345231, -1700407.0, 16821.006 
2.7515307e+2, 1.347631e+2, -1601460.8, -1716110.0, -3522.5593, 0.001731121, -0.0011938198, -1601352.5, 17968.936 
2.751534e+2, 1.447529e+2, -1513160.3, -1637638.3, -4130.2764, 0.002471783, -0.0010668323, -1513023.3, 8398.282 
2.7515367e+2, 1.5474202e+2, -1416780.5, -1540524.5, -4262.6797, -0.00048890186, -0.0020164049, -1416633.9, 6894.366 
2.7515396e+2, 1.6473052e+2, -1328161.6, -1461136.8, -3996.416, -0.001584413, -0.0010892435, -1328041.6, -2400.6826 
2.7515432e+2, 1.7471838e+2, -1229256.4, -1362711.5, -3867.34, -0.000603455, -0.00030173676, -1229144.5, -1384.663 
2.7515462e+2, 1.8470557e+2, -1140925.5, -1284627.9, -4294.3784, 0.00033691252, 0.00036981105, -1140797.4, -10911.943 
2.751549e+2, 1.9469205e+2, -1043992.94, -1187235.5, -4452.813, 0.0012228691, -0.0011125163, -1043854.6, -11836.807 
2.751552e+2, 2.0467791e+2, -955473.56, -1107663.9, -3953.2522, 0.0007808678, -0.0011479452, -955370.94, -21214.531 
2.751555e+2, 2.1466315e+2, -857490.3, -1009761.8, -3804.0662, -0.0011661224, -0.0016619738, -857395.3, -21094.223 
2.751559e+2, 2.246477e+2, -769047.9, -931561.44, -3771.4084, -0.0011101698, -0.0003068732, -768960.4, -30507.986 
2.751563e+2, 2.346316e+2, -670745.3, -833414.06, -3787.6096, 0.0012395742, 0.00075646304, -670657.1, -30046.8 
2.7515674e+2, 2.4461481e+2, -582215.4, -754500.1, -3200.728, 0.0016089249, 0.00078750856, -582155.9, -39381.04 
2.751572e+2, 2.5459737e+2, -485009.16, -656721.44, -3175.5896, -0.00032644277, -0.0024529367, -484950.47, -40004.6 
2.7515778e+2, 2.6457927e+2, -396779.63, -578673.1, -2757.4753, -0.001023504, -0.002267026, -396737.8, -49614.477 
2.751584e+2, 2.7456048e+2, -297729.0, -479941.2, -2597.2734, -0.0002505991, -0.00039280974, -297691.97, -48384.82 
2.751591e+2, 2.8454098e+2, -209785.48, -402998.47, -1918.4259, 0.00019905764, 0.00054176105, -209766.44, -58268.16 
2.751599e+2, 2.9452077e+2, -112175.766, -304873.4, -1998.9281, 0.0002483053, -0.0023015386, -112155.03, -58458.465 
2.7516076e+2, 3.0450326e+2, -24466.963, -175806.9, -1131.3281, -0.0003498609, -0.0015045063, -24458.506, -24458.506 
2.7516177e+2, 3.1448862e+2, -23729.56, -175052.61, -974.4561, -0.0016564492, 0.0015134995, -23723.285, -23723.285 
2.7516297e+2, 3.2447845e+2, 41364.582, -41139.57, 463.307, 0.0016089424, -0.0029577606, 41367.184, 41367.184 
2.85152e+2, 3.4827983e+1, -2536341.3, -2604614.3, -517.4772, 0.0055415193, -0.0007552108, -2536337.5, 62348.3 
2.8515288e+2, 4.4824162e+1, -2442438.8, -2519410.8, -1278.9114, -0.0065686153, 0.000912351, -2442417.5, 58305.844 
2.8515396e+2, 5.4819834e+1, -2346158.5, -2422544.3, -1109.9673, -0.00032760086, -0.0016716683, -2346142.5, 56623.22 
2.8515488e+2, 6.481485e+1, -2258181.5, -2343939.3, -1984.5836, 0.0018514909, -0.0016858146, -2258135.8, 46678.824 
2.851556e+2, 7.4809235e+1, -2159888.5, -2245986.0, -2119.6907, -0.00034825417, -0.0008723377, -2159836.5, 47033.074 
2.851563e+2, 8.480295e+1, -2071421.5, -2167143.8, -2699.2844, -0.0004125124, 0.00028505188, -2071345.5, 37585.58 
2.8515697e+2, 9.479601e+1, -1974192.9, -2069697.1, -2697.6663, 0.0018217304, -0.0002831779, -1974116.8, 36882.41 
2.851575e+2, 1.0478841e+2, -1885720.6, -1990778.8, -3473.8186, 0.0014400521, -0.00006933506, -1885605.9, 27467.777 
2.851579e+2, 1.1478016e+2, -1787477.3, -1892776.8, -3597.7854, -0.0017764645, -0.0010073121, -1787354.5, 27799.965 
2.8515834e+2, 1.2477125e+2, -1699089.1, -1813889.0, -3719.0847, -0.0019972036, -0.00088635314, -1698968.8, 18272.855 
2.8515878e+2, 1.347617e+2, -1602110.9, -1716527.5, -3790.5916, 0.001059116, -0.0016646262, -1601985.4, 17349.822 
2.851591e+2, 1.4475149e+2, -1513915.9, -1638042.1, -4488.0767, 0.0019129917, -0.0010954045, -1513753.9, 7681.471 
2.8515932e+2, 1.5474062e+2, -1415360.0, -1539896.1, -4415.447, 0.0003396524, -0.0012087853, -1415203.8, 8338.212 
2.8515962e+2, 1.6472909e+2, -1326778.1, -1460524.6, -4121.0894, -0.0007664957, -0.00060386234, -1326651.3, -996.52655 
2.8515995e+2, 1.7471695e+2, -1230216.1, -1363271.5, -4284.5967, -0.0013536355, -0.0014188418, -1230078.3, -2304.4614 
2.851602e+2, 1.8470412e+2, -1142221.4, -1285154.8, -4670.122, -0.0005808166, -0.0007682903, -1142069.0, -12169.574 
2.8516045e+2, 1.9469064e+2, -1043527.75, -1186917.4, -4491.0415, 0.001710548, -0.000497611, -1043387.25, -11355.571 
2.8516075e+2, 2.0467651e+2, -954579.1, -1107266.1, -4051.1743, 0.0015056537, -0.00007049876, -954471.75, -20301.572 
2.8516105e+2, 2.1466175e+2, -857698.3, -1009860.1, -4169.617, -0.0015210971, -0.0015936984, -857584.2, -21269.26 
2.851614e+2, 2.246463e+2, -769790.8, -931754.1, -4027.4453, -0.0017778343, -0.00087076536, -769690.7, -31224.512 
2.851618e+2, 2.346302e+2, -671709.0, -833695.94, -3884.6282, 0.0011325289, -0.0000007545369, -671615.9, -30991.941 
2.8516224e+2, 2.4461344e+2, -583052.1, -754956.5, -3398.6748, 0.0017360501, 0.00047733655, -582985.0, -40196.633 
2.851627e+2, 2.54596e+2, -485043.72, -656781.7, -3423.1125, -0.0003453218, -0.0015769011, -484975.53, -40016.273 
2.8516322e+2, 2.645779e+2, -396720.97, -578275.0, -2884.1985, -0.0010106314, -0.0014898607, -396675.16, -49538.547 
2.8516385e+2, 2.7455914e+2, -298993.97, -480174.72, -2761.5867, -0.000005038449, -0.0012192804, -298951.88, -49631.69 
2.8516456e+2, 2.8453967e+2, -211507.27, -403795.3, -2059.2693, 0.00036119187, -0.00020655377, -211485.22, -59974.12 
2.851653e+2, 2.9451948e+2, -112717.62, -305136.56, -1954.1741, -0.000043418186, -0.0009651717, -112697.77, -58988.59 
2.851662e+2, 3.0450198e+2, -24792.748, -175762.22, -1034.5156, -0.00090008037, -0.0005688723, -24785.66, -24785.66 
2.8516722e+2, 3.144873e+2, -25292.9, -175597.39, -991.2388, -0.0022371244, -0.0009484679, -25286.363, -25286.363 
2.8516838e+2, 3.2447726e+2, 39266.625, -40727.508, 77.506584, 0.0023584706, -0.0017553475, 39266.7, 39266.7 
2.951577e+2, 3.4826738e+1, -2537991.3, -2608042.5, 1260.2424, 0.0033585662, -0.000984631, -2537968.5, 60729.5 
2.9515886e+2, 4.4822833e+1, -2442178.3, -2518837.5, -1632.8563, -0.003951656, 0.0026963255, -2442143.5, 58592.746 
2.9515982e+2, 5.481855e+1, -2345823.8, -2421870.0, -1507.2329, -0.00029057765, -0.00007524175, -2345794.0, 56984.31 
2.9516068e+2, 6.481356e+1, -2258398.5, -2344402.3, -1885.5883, 0.0013681111, -0.0009879246, -2258357.3, 46469.926 
2.9516146e+2, 7.48079e+1, -2160134.8, -2246473.8, -2006.5217, 0.0008631022, -0.0018481297, -2160088.0, 46794.44 
2.9516214e+2, 8.4801596e+1, -2071409.0, -2167146.5, -2868.1377, -0.00012573169, -0.00084724353, -2071323.1, 37621.242 
2.951627e+2, 9.479467e+1, -1974170.9, -2069679.0, -2873.349, -0.0016456058, 0.00007054147, -1974084.5, 36927.727 
2.9516324e+2, 1.0478706e+2, -1885950.0, -1991197.6, -3401.117, -0.0010674961, 0.0005382953, -1885840.3, 27246.615 
2.9516372e+2, 1.14778765e+2, -1787716.4, -1893210.6, -3517.0088, 0.0017938311, -0.0014735674, -1787599.3, 27568.766 
2.9516414e+2, 1.2476984e+2, -1699235.5, -1814189.8, -3970.9963, 0.0016915081, -0.0015599406, -1699098.5, 18157.09 
2.9516447e+2, 1.3476028e+2, -1602272.1, -1716804.1, -4047.8115, -0.001641766, -0.0016143889, -1602129.3, 17219.992 
2.9516476e+2, 1.4475006e+2, -1513755.3, -1637724.1, -4357.845, -0.001997033, -0.00018453634, -1513602.3, 7846.986 
2.9516506e+2, 1.5473923e+2, -1415215.3, -1539562.5, -4276.938, 0.0009279738, 0.00072854524, -1415068.3, 8487.283 
2.951653e+2, 1.6472769e+2, -1327108.4, -1461185.1, -4485.4272, 0.0015736031, 0.00057030766, -1326958.5, -1289.9135 
2.9516554e+2, 1.7471547e+2, -1230551.4, -1363937.9, -4656.3193, -0.0003055643, -0.0029954119, -1230389.0, -2600.7024 
2.9516578e+2, 1.8470265e+2, -1141849.0, -1284470.9, -4504.0796, -0.00089336163, -0.0027633067, -1141706.9, -11792.8545 
2.9516605e+2, 1.9468923e+2, -1043178.9, -1186190.1, -4312.479, -0.0000264258, -0.00029399822, -1043048.94, -11003.446 
2.951663e+2, 2.0467512e+2, -954837.3, -1107719.6, -4331.9478, 0.00038033715, 0.0011855561, -954714.7, -20530.879 
2.9516655e+2, 2.146603e+2, -857945.94, -1010359.94, -4462.0957, 0.00025410778, -0.00059267157, -857815.44, -21486.516 
2.9516688e+2, 2.2464487e+2, -769557.3, -931207.06, -4034.9102, -0.0001495602, -0.0011168716, -769456.7, -30976.385 
2.9516724e+2, 2.3462878e+2, -671458.0, -833122.1, -3885.4587, -0.0008748365, -0.0026129854, -671364.7, -30726.828 
2.9516765e+2, 2.4461202e+2, -583118.2, -755053.06, -3436.3347, -0.00071926526, -0.0015276762, -583049.5, -40247.492 
2.9516816e+2, 2.5459462e+2, -485127.75, -656917.44, -3457.8208, 0.00046150532, 0.0004540554, -485058.16, -40085.47 
2.9516867e+2, 2.6457652e+2, -396551.53, -577853.44, -3019.402, 0.00088343304, 0.0012576226, -396501.25, -49351.363 
2.9516926e+2, 2.745578e+2, -298807.13, -479714.5, -2903.9624, 0.00041259496, -0.0016510696, -298760.5, -49427.07 
2.9516995e+2, 2.8453833e+2, -211327.6, -403445.75, -1937.0323, -0.00007390773, -0.0015324821, -211308.06, -59783.93 
2.9517075e+2, 2.945182e+2, -112560.46, -304806.6, -1817.2151, -0.0005774128, -0.00046087464, -112543.28, -58821.47 
2.9517162e+2, 3.0450073e+2, -24792.523, -175692.1, -1188.969, -0.0014416644, 0.00031664668, -24783.156, -24783.156 
2.9517257e+2, 3.1448606e+2, -25280.254, -175535.9, -1155.1183, -0.0026964943, -0.0014404794, -25271.375, -25271.375 
2.9517367e+2, 3.2447606e+2, 39909.098, -39394.375, -283.6266, 0.0029664666, 0.00008282593, 39910.11, 39910.11 
3.051635e+2, 3.4825397e+1, -2534170.5, -2605268.5, 768.3476, -0.0010956603, -0.0016443477, -2534162.3, 64548.934 
3.051648e+2, 4.4821537e+1, -2444185.5, -2520018.3, -1345.0596, 0.0012543852, 0.0029707637, -2444161.8, 56587.33 
3.051657e+2, 5.4817224e+1, -2345100.3, -2421728.8, -1695.6328, 0.00017706676, -0.000094443436, -2345062.8, 57728.477 
3.0516654e+2, 6.4812225e+1, -2256622.5, -2343612.3, -2216.0132, 0.000030682975, -0.0010184109, -2256566.3, 48274.008 
3.0516732e+2, 7.480656e+1, -2159307.0, -2246160.3, -2150.2825, 0.0008804724, -0.0015864724, -2159253.8, 47641.945 
3.05168e+2, 8.480024e+1, -2070930.0, -2167137.8, -3076.712, 0.00025175192, -0.00079094194, -2070831.8, 38125.914 
3.051685e+2, 9.4793284e+1, -1973179.6, -2069417.9, -3242.0337, -0.0019819625, -0.0006202928, -1973070.5, 37955.29 
3.0516905e+2, 1.0478565e+2, -1884849.6, -1990821.5, -3675.8982, -0.0014155571, -0.00015939433, -1884722.3, 28378.24 
3.0516952e+2, 1.1477736e+2, -1787127.5, -1893081.0, -3654.925, 0.0022053986, -0.0013683153, -1787001.5, 28180.268 
3.0516988e+2, 1.2476842e+2, -1698873.6, -1814190.9, -4264.6226, 0.0021956984, -0.0010487624, -1698716.1, 18553.334 
3.0517018e+2, 1.3475883e+2, -1601719.8, -1716738.3, -4319.746, -0.0017964793, -0.0011420127, -1601557.8, 17805.6 
3.0517045e+2, 1.4474863e+2, -1513369.8, -1637529.0, -4419.526, -0.0023751815, -0.000092505834, -1513212.6, 8250.825 
3.0517077e+2, 1.5473777e+2, -1415594.0, -1539725.1, -4487.5366, 0.00081143045, 0.00006493479, -1415431.9, 8137.833 
3.0517098e+2, 1.6472624e+2, -1327440.8, -1461390.8, -4902.3486, 0.0017517438, 0.00015018744, -1327261.6, -1578.8652 
3.0517113e+2, 1.7471403e+2, -1229807.5, -1363670.9, -4789.586, 0.00020104418, -0.002055159, -1229636.4, -1833.8918 
3.0517137e+2, 1.847012e+2, -1141204.1, -1284017.4, -4414.9883, -0.0006450167, -0.0017891193, -1141067.8, -11139.644 
3.0517164e+2, 1.9468778e+2, -1044034.94, -1186494.1, -4512.2246, -0.00070318254, -0.0007707263, -1043892.1, -11832.497 
3.0517188e+2, 2.0467368e+2, -956125.0, -1108388.6, -4716.9395, -0.00019030328, 0.00038977136, -955979.0, -21781.088 
3.051721e+2, 2.1465887e+2, -858270.94, -1010551.5, -4632.0386, 0.00096563826, -0.00043917864, -858130.2, -21787.178 
3.0517235e+2, 2.2464344e+2, -769439.8, -931074.4, -4078.6538, 0.00073797506, -0.0006520806, -769336.94, -30842.652 
3.051727e+2, 2.3462735e+2, -671723.4, -833155.5, -4139.5195, -0.0010803313, -0.0025560113, -671617.3, -30965.488 
3.051731e+2, 2.4461062e+2, -583789.4, -755098.06, -3770.1987, -0.0012197472, -0.0016294678, -583706.44, -40890.6 
3.0517355e+2, 2.5459322e+2, -486457.38, -657287.4, -3557.8792, 0.00059139903, 0.00047191177, -486383.3, -41397.06 
3.0517408e+2, 2.6457515e+2, -397981.16, -578540.25, -2983.939, 0.0011084068, 0.00145734, -397931.84, -50768.563 
3.0517462e+2, 2.7455646e+2, -299350.56, -480000.16, -3072.8933, 0.00009825018, -0.0011891661, -299298.3, -49951.5 
3.051753e+2, 2.84537e+2, -211799.4, -403264.78, -2201.238, -0.00033177403, -0.0013634217, -211774.11, -60236.766 
3.051761e+2, 2.9451683e+2, -114346.875, -305253.78, -2000.0247, -0.000063148116, -0.0012454777, -114325.92, -60591.184 
3.0517697e+2, 3.0449945e+2, -26767.926, -176132.16, -1176.2369, -0.0006464357, -0.00011212296, -26758.664, -26758.664 
3.0517793e+2, 3.1448483e+2, -26180.088, -175441.63, -853.9287, -0.0022372308, 0.000075886936, -26175.201, -26175.201 
3.05179e+2, 3.244748e+2, 39425.113, -40606.42, -559.032, 0.0018132783, -0.0007360125, 39429.016, 39429.016 
3.1516942e+2, 3.4823975e+1, -2531464.3, -2599773.0, -650.1382, -0.007722098, -0.002677576, -2531458.0, 67266.95 
3.151707e+2, 4.4820267e+1, -2444688.8, -2521107.8, -1064.8778, 0.0088777365, 0.00182587, -2444673.8, 56087.52 
3.151716e+2, 5.481587e+1, -2345673.5, -2422935.8, -1373.1287, 0.0010222457, -0.001632979, -2345649.0, 57155.41 
3.1517246e+2, 6.481084e+1, -2256502.3, -2343387.0, -2336.1855, -0.002134866, -0.0017330057, -2256439.5, 48414.28 
3.151732e+2, 7.480521e+1, -2159177.8, -2245908.5, -2283.749, -0.00023627025, -0.00016537303, -2159117.5, 47791.32 
3.1517386e+2, 8.4798884e+1, -2071212.1, -2167732.5, -3117.719, 0.00069398375, 0.00037468705, -2071111.5, 37859.414 
3.151744e+2, 9.4791853e+1, -1973465.9, -2070025.4, -3277.1318, 0.0005783461, -0.0022860768, -1973354.8, 37685.023 
3.151749e+2, 1.04784206e+2, -1884834.0, -1990729.4, -3723.8196, 0.00023286574, -0.0020736528, -1884703.3, 28411.555 
3.1517532e+2, 1.1477594e+2, -1787117.3, -1892990.3, -3704.6436, -0.00035787682, -0.000733612, -1786987.8, 28207.99 
3.1517568e+2, 1.24767005e+2, -1698967.9, -1814373.3, -4474.187, -0.0003206635, 0.0005659026, -1698794.6, 18488.65 
3.1517592e+2, 1.3475741e+2, -1601790.9, -1716909.3, -4531.7007, 0.00041307422, -0.00027008637, -1601612.8, 17764.604 
3.151762e+2, 1.4474717e+2, -1513483.3, -1637802.9, -4479.2573, 0.0005380295, -0.0007651431, -1513322.0, 8155.7383 
3.1517646e+2, 1.5473627e+2, -1415743.3, -1540011.8, -4542.12, 0.0000051295788, -0.0030308892, -1415577.5, 8007.0283 
3.1517664e+2, 1.6472477e+2, -1327236.6, -1460935.1, -5001.9893, -0.00012532061, -0.0017573726, -1327049.8, -1352.3641 
3.1517678e+2, 1.7471263e+2, -1229589.5, -1363182.3, -4892.5244, 0.00018954692, 0.0012333224, -1229410.5, -1594.2528 
3.1517696e+2, 1.8469982e+2, -1141374.9, -1284421.9, -4634.0737, 0.00010728835, 0.0019595192, -1141224.9, -11283.086 
3.1517714e+2, 1.9468631e+2, -1044232.06, -1186918.6, -4731.194, -0.00041272558, -0.0018797204, -1044075.4, -12001.294 
3.1517738e+2, 2.0467219e+2, -955961.25, -1108042.9, -4760.4556, -0.00025484886, -0.0023283255, -955812.4, -21599.85 
3.151776e+2, 2.1465743e+2, -858099.6, -1010179.75, -4670.288, 0.00066241034, -0.0010777595, -857956.3, -21599.19 
3.1517786e+2, 2.2464201e+2, -769569.0, -931345.7, -4174.307, 0.000908581, 0.00047998, -769461.4, -30953.076 
3.1517816e+2, 2.3462594e+2, -671879.1, -833455.94, -4233.325, 0.00038246415, -0.000004880274, -671768.3, -31102.447 
3.151785e+2, 2.446092e+2, -583443.75, -754326.7, -3975.848, 0.00009021004, 0.000051007235, -583351.3, -40521.51 
3.151789e+2, 2.5459185e+2, -486079.97, -656456.8, -3773.3213, 0.00007365796, -0.001389676, -485996.44, -40996.5 
3.1517938e+2, 2.6457378e+2, -398147.78, -578853.8, -2909.204, -0.00024475346, -0.00072502985, -398100.97, -50924.16 
3.1517997e+2, 2.745551e+2, -299573.5, -480366.56, -2977.2808, -0.00091472344, 0.00010358403, -299524.5, -50164.234 
3.1518063e+2, 2.8453565e+2, -211547.98, -402608.66, -2394.9685, -0.0004427747, 0.0002027583, -211517.97, -59967.27 
3.151814e+2, 2.945155e+2, -114073.07, -304539.28, -2211.8672, 0.001408742, -0.0032365378, -114047.39, -60299.42 
3.1518224e+2, 3.0449817e+2, -26224.66, -174961.95, -1083.0496, 0.0013781228, -0.0017707702, -26216.773, -26216.773 
3.1518322e+2, 3.1448367e+2, -25622.66, -174252.75, -748.195, -0.0009252888, 0.003459924, -25618.893, -25618.893 
3.151843e+2, 3.244735e+2, 37596.188, -44381.598, -478.8564, -0.0010006278, -0.0040307245, 37598.984, 37598.984 
3.2517546e+2, 3.482276e+1, -2530565.0, -2600360.8, -584.56323, -0.006650884, -0.0015103172, -2530560.0, 68176.84 
3.251766e+2, 4.4818956e+1, -2442758.3, -2520315.5, -987.49164, 0.00814454, -0.0012249487, -2442745.8, 58028.465 
3.2517755e+2, 5.481458e+1, -2344119.5, -2422322.0, -783.6194, 0.0006532545, -0.0016673522, -2344111.8, 58705.38 
3.251784e+2, 6.480953e+1, -2255432.5, -2343243.0, -2099.061, -0.0022829433, -0.0006707669, -2255382.5, 49484.12 
3.2517913e+2, 7.4803853e+1, -2158373.3, -2245904.0, -2427.1008, -0.0003279101, -0.00008711793, -2158306.0, 48616.086 
3.251798e+2, 8.4797496e+1, -2070306.5, -2167481.5, -3209.0725, 0.00088385056, 0.00024235024, -2070200.6, 38783.863 
3.2518032e+2, 9.479046e+1, -1972319.4, -2069649.9, -3192.4954, 0.0012921895, -0.0017951808, -1972214.9, 38838.613 
3.251808e+2, 1.047828e+2, -1884014.8, -1990458.8, -3792.3674, 0.00060727604, -0.0015264668, -1883879.9, 29248.707 
3.2518116e+2, 1.1477452e+2, -1787393.6, -1893242.6, -3889.0474, -0.0012578882, -0.0007545796, -1787250.9, 27958.807 
3.2518145e+2, 1.24765575e+2, -1699077.0, -1814483.3, -4508.5176, -0.0010733196, 0.0003273593, -1698901.1, 18396.197 
3.2518172e+2, 1.3475597e+2, -1600416.0, -1716271.9, -4515.8403, 0.0013448137, -0.0003240462, -1600240.3, 19151.19 
3.2518193e+2, 1.4474571e+2, -1512142.0, -1637293.1, -4684.025, 0.0015167122, -0.00067353935, -1511966.9, 9525.075 
3.2518214e+2, 1.547348e+2, -1415991.6, -1540309.5, -4726.5874, -0.00077538274, -0.0028318835, -1415812.1, 7786.65 
3.251823e+2, 1.6472328e+2, -1327868.0, -1461194.6, -5004.237, -0.0011717277, -0.0016606962, -1327680.5, -1968.7684 
3.2518244e+2, 1.7471117e+2, -1229499.5, -1363095.6, -5093.9375, 0.0005415167, 0.0009935675, -1229305.5, -1474.926 
3.251826e+2, 1.8469834e+2, -1141099.0, -1284370.0, -5112.927, 0.0008762672, 0.0017039708, -1140916.8, -10960.6 
3.251827e+2, 1.9468485e+2, -1044198.4, -1186974.9, -5071.2, -0.0003475229, -0.001793567, -1044018.44, -11929.963 
3.2518286e+2, 2.0467071e+2, -955958.75, -1107834.9, -4868.149, -0.00058371923, -0.0021439185, -955802.9, -21575.963 
3.2518303e+2, 2.1465598e+2, -858230.7, -1010065.2, -4836.331, 0.00030238778, -0.001059702, -858076.8, -21705.447 
3.251833e+2, 2.2464056e+2, -770193.94, -931540.3, -4409.602, 0.0006752179, 0.00055324787, -770073.5, -31551.146 
3.2518357e+2, 2.3462449e+2, -673155.94, -833978.56, -4294.003, 0.00045440427, 0.00036850935, -673041.4, -32361.48 
3.251839e+2, 2.4460778e+2, -584545.6, -754746.7, -3981.2424, 0.000236472, 0.0002805788, -584452.56, -41608.8 
3.2518423e+2, 2.5459042e+2, -486164.47, -656362.75, -4100.4834, 0.0000214503, -0.0018115672, -486065.75, -41051.906 
3.251847e+2, 2.6457238e+2, -398104.16, -578513.44, -3239.143, -0.00032483644, -0.0012631036, -398046.0, -50855.48 
3.2518527e+2, 2.7455372e+2, -300735.97, -480610.03, -2923.8584, -0.00082624285, 0.000077515695, -300688.44, -51314.805 
3.2518592e+2, 2.845343e+2, -213289.08, -403331.72, -2328.8726, -0.00045539576, 0.00048558583, -213260.55, -61696.684 
3.2518664e+2, 2.9451418e+2, -115381.305, -305088.72, -2412.7568, 0.0009779338, -0.0028871845, -115350.625, -61589.613 
3.2518747e+2, 3.0449685e+2, -27175.207, -174933.1, -1312.9966, 0.0012154022, -0.0015832221, -27163.541, -27163.541 
3.251885e+2, 3.1448242e+2, -26696.504, -174261.81, -1244.9028, -0.000004481048, 0.003220791, -26686.002, -26686.002 
3.2518956e+2, 3.2447225e+2, 36280.227, -45268.69, -262.51273, -0.0014079091, -0.004245876, 36281.07, 36281.07 
3.3518165e+2, 3.4821737e+1, -2534379.5, -2608131.8, -1698.1472, 0.0015878489, 0.0016807495, -2534340.5, 64406.406 
3.3518246e+2, 4.48176e+1, -2442395.0, -2519698.5, -786.0726, -0.0004046993, -0.006065124, -2442387.0, 58400.453 
3.3518356e+2, 5.481334e+1, -2343750.5, -2421580.0, -573.3904, -0.0008860366, -0.0002949291, -2343746.3, 59083.082 
3.3518445e+2, 6.480829e+1, -2256014.8, -2344452.0, -2305.187, -0.00058518996, 0.0020501653, -2255954.8, 48923.992 
3.351851e+2, 7.48025e+1, -2158944.5, -2247137.8, -2630.3025, 0.00052209623, -0.0012594144, -2158866.0, 48069.406 
3.3518574e+2, 8.479609e+1, -2070248.1, -2167431.8, -3186.1042, 0.0008181069, -0.0011022439, -2070143.8, 38854.566 
3.3518624e+2, 9.47891e+1, -1972272.0, -2069588.9, -3167.7952, 0.0002483241, 0.0007086612, -1972169.0, 38897.848 
3.351867e+2, 1.0478143e+2, -1884191.3, -1990806.4, -4121.251, -0.00023508543, 0.0013202941, -1884032.3, 29109.762 
3.35187e+2, 1.1477309e+2, -1787539.6, -1893590.5, -4223.565, -0.00062526617, -0.0013871689, -1787371.8, 27851.99 
3.3518726e+2, 1.2476412e+2, -1699054.3, -1814488.8, -4342.4443, -0.00022288288, -0.0016348156, -1698891.1, 18420.45 
3.3518755e+2, 1.3475454e+2, -1600431.6, -1716298.4, -4340.4644, 0.0010679489, -0.0012474005, -1600269.3, 19136.375 
3.3518773e+2, 1.4474428e+2, -1512237.8, -1637481.6, -5148.608, 0.00067709346, 0.0001296397, -1512026.5, 9479.541 
3.3518776e+2, 1.547334e+2, -1416049.9, -1540470.8, -5204.0977, -0.0015670976, 0.00043501527, -1415832.5, 7780.1855 
3.3518788e+2, 1.6472185e+2, -1327988.1, -1461526.4, -4933.4263, -0.0014748614, 0.00030435584, -1327806.1, -2080.207 
3.351881e+2, 1.7470965e+2, -1229665.3, -1363452.6, -5005.6045, 0.0012210656, -0.002532286, -1229478.3, -1632.6874 
3.351882e+2, 1.8469681e+2, -1141059.4, -1284233.4, -5375.457, 0.0016356412, -0.0022858107, -1140857.9, -10886.641 
3.3518827e+2, 1.9468336e+2, -1044141.5, -1186806.9, -5343.2896, -0.00051173125, -0.00059994304, -1043941.6, -11838.695 
3.3518836e+2, 2.0466927e+2, -955890.94, -1107715.1, -4951.8857, -0.001168928, 0.0007434472, -955729.56, -21488.447 
3.3518854e+2, 2.146545e+2, -858198.0, -1009933.4, -4913.803, -0.00012852815, -0.00043329323, -858039.0, -21653.332 
3.3518872e+2, 2.2463912e+2, -769998.5, -931132.8, -4671.718, 0.000043472664, -0.00036208163, -769863.2, -31326.547 
3.351889e+2, 2.3462306e+2, -672935.0, -833561.0, -4564.0283, -0.00078356307, -0.0012854347, -672805.44, -32111.514 
3.3518922e+2, 2.4460636e+2, -584756.3, -755181.94, -3935.3972, -0.0007180187, -0.0008384228, -584665.5, -41807.77 
3.3518958e+2, 2.5458896e+2, -486415.44, -656844.6, -4036.1086, 0.00038433465, -0.0008959647, -486319.9, -41291.977 
3.3519003e+2, 2.6457098e+2, -397612.78, -577460.2, -3452.2766, 0.0007562616, -0.00026985753, -397546.56, -50342.113 
3.3519056e+2, 2.7455235e+2, -300196.66, -479503.78, -3157.4827, 0.00027274975, -0.001173094, -300141.06, -50754.09 
3.3519113e+2, 2.8453296e+2, -213460.94, -403599.75, -2441.4202, -0.00039215648, -0.00042442186, -213429.6, -61852.75 
3.3519182e+2, 2.9451284e+2, -115571.734, -305413.97, -2511.0393, -0.0012447425, -0.0003674776, -115538.53, -61764.617 
3.3519262e+2, 3.0449554e+2, -27147.492, -174847.75, -1236.33, -0.0010067779, 0.00032232562, -27137.143, -27137.143 
3.351937e+2, 3.1448105e+2, -26697.623, -174168.03, -1160.6224, 0.0005407394, -0.0003893504, -26688.49, -26688.49 
3.3519483e+2, 3.2447103e+2, 37546.336, -42524.93, -8.893488, 0.00037193927, -0.0016137933, 37546.336, 37546.336 
3.4518778e+2, 3.4820557e+1, -2534495.3, -2608372.5, -1833.7109, 0.0054479, 0.0003828482, -2534449.8, 64308.668 
3.4518853e+2, 4.4816422e+1, -2437883.0, -2518326.3, -379.45532, -0.0062263343, -0.0028191055, -2437881.3, 62917.96 
3.4518963e+2, 5.481205e+1, -2342733.5, -2421941.0, -1084.1713, -0.0006234973, 0.00003554662, -2342718.8, 60123.16 
3.4519053e+2, 6.4806944e+1, -2255733.3, -2344472.8, -2816.2573, 0.0017379681, 0.0011919033, -2255644.0, 49247.914 
3.4519112e+2, 7.4801147e+1, -2157310.3, -2246477.0, -2647.3013, 0.0005430898, -0.0014397679, -2157231.8, 49717.06 
3.4519172e+2, 8.4794724e+1, -2068585.1, -2166819.5, -3165.1133, -0.00016306927, -0.0010071058, -2068483.3, 40528.406 
3.4519222e+2, 9.478771e+1, -1971930.1, -2069636.4, -3329.778, -0.00032157564, 0.0006411807, -1971816.9, 39263.625 
3.451926e+2, 1.0478002e+2, -1883796.0, -1990772.3, -4324.0996, -0.00024515024, 0.0012332624, -1883621.5, 29534.227 
3.4519288e+2, 1.14771664e+2, -1785670.9, -1892838.8, -4356.5283, 0.000091559516, -0.001335448, -1785494.0, 29743.57 
3.4519312e+2, 1.2476268e+2, -1697628.6, -1814002.1, -4521.2036, 0.00025432755, -0.0015840312, -1697453.1, 19872.473 
3.4519336e+2, 1.3475306e+2, -1601459.6, -1717011.3, -4660.6797, 0.00023620189, -0.0013485694, -1601271.9, 18147.95 
3.4519348e+2, 1.4474282e+2, -1513192.8, -1637880.6, -5473.2915, -0.00001730178, 0.00009048046, -1512953.0, 8567.363 
3.451935e+2, 1.5473193e+2, -1414562.3, -1539666.5, -5399.2285, -0.00053477194, 0.000684769, -1414329.8, 9297.292 
3.4519356e+2, 1.6472039e+2, -1326391.0, -1460879.5, -5092.0444, -0.00045826394, 0.00048069746, -1326198.5, -458.24063 
3.4519368e+2, 1.7470816e+2, -1230296.8, -1363865.5, -5093.0313, 0.0002831657, -0.0028339303, -1230102.9, -2242.8726 
3.4519374e+2, 1.8469533e+2, -1142198.3, -1284660.8, -5355.208, 0.00050320284, -0.0025151563, -1141997.3, -12011.612 
3.4519377e+2, 1.9468191e+2, -1044277.5, -1186740.1, -5319.0977, 0.00013472924, -0.0001336008, -1044079.2, -11961.928 
3.4519383e+2, 2.0466782e+2, -955924.25, -1107755.0, -4999.1904, -0.00018398472, 0.001250635, -955759.8, -21504.463 
3.4519398e+2, 2.1465306e+2, -858890.5, -1010329.9, -5057.7764, -0.0004407779, -0.0006207143, -858721.75, -22321.729 
3.4519413e+2, 2.2463764e+2, -770567.9, -931180.3, -4894.2886, -0.0006015957, -0.0007920857, -770418.9, -31867.975 
3.4519428e+2, 2.3462163e+2, -672766.5, -833229.9, -4860.956, -0.0006582638, -0.0014475852, -672619.4, -31911.408 
3.4519452e+2, 2.4460493e+2, -584804.5, -755143.06, -4088.671, -0.00038459676, -0.000735934, -584706.4, -41834.76 
3.4519488e+2, 2.5458756e+2, -487636.1, -657379.6, -3926.8538, 0.00027620394, -0.00051861885, -487545.3, -42503.51 
3.451953e+2, 2.6456958e+2, -399328.94, -578057.7, -3503.0952, 0.000556617, 0.0001405212, -399260.3, -52042.145 
3.4519574e+2, 2.7455097e+2, -301797.94, -480013.1, -3639.9211, 0.0003863622, -0.0010226527, -301723.63, -52323.08 
3.4519628e+2, 2.8453162e+2, -214451.02, -403750.78, -2758.7795, -0.00021124813, -0.00040762936, -214410.81, -62820.63 
3.4519696e+2, 2.9451153e+2, -115628.03, -305106.5, -2439.944, -0.0012816966, -0.0003316211, -115596.62, -61809.67 
3.451978e+2, 3.0449423e+2, -27728.746, -175284.14, -1197.7769, -0.0011695327, 0.00038469798, -27719.025, -27719.025 
3.4519878e+2, 3.144797e+2, -29013.46, -175488.11, -1273.9365, 0.0003367181, -0.00026918043, -29002.38, -29002.38 
3.451999e+2, 3.244698e+2, 35196.586, -41842.875, 25.35568, 0.00048094476, -0.0002452816, 35196.594, 35196.594 
3.5519385e+2, 3.4819233e+1, -2531172.0, -2601640.8, 441.61688, 0.0051933075, -0.0050980104, -2531169.3, 67602.2 
3.5519484e+2, 4.4815403e+1, -2439252.3, -2521033.8, -1043.649, -0.009527222, 0.007948177, -2439239.0, 61570.234 
3.5519576e+2, 5.481072e+1, -2344122.8, -2424790.5, -1772.9235, 0.0012793482, -0.0005990333, -2344083.8, 58771.19 
3.551966e+2, 6.48055e+1, -2255362.3, -2343813.0, -2673.1763, 0.004604876, -0.002993959, -2255281.5, 49624.5 
3.5519722e+2, 7.4799806e+1, -2156935.5, -2245765.3, -2497.275, -0.00021892796, -0.0007042209, -2156865.5, 50096.473 
3.5519776e+2, 8.4793395e+1, -2068868.1, -2167449.0, -3479.4114, -0.0020088158, 0.00042837652, -2068745.5, 40279.24 
3.5519817e+2, 9.47863e+1, -1972215.4, -2070283.1, -3648.903, -0.00048310327, -0.0018052342, -1972079.8, 39014.504 
3.5519856e+2, 1.0477858e+2, -1883822.5, -1990863.6, -4281.0986, 0.0004927652, -0.0015749813, -1883651.5, 29518.39 
3.5519883e+2, 1.14770256e+2, -1785707.3, -1892928.0, -4307.429, 0.0008680951, -0.0006544302, -1785534.5, 29716.96 
3.55199e+2, 1.2476126e+2, -1697893.4, -1814561.5, -4969.4556, 0.00035177742, 0.00032958333, -1697682.0, 19657.553 
3.5519913e+2, 1.347516e+2, -1601708.3, -1717567.4, -5113.6226, -0.0011293198, -0.0006870818, -1601483.0, 17951.352 
3.5519922e+2, 1.4474131e+2, -1513010.3, -1637564.0, -5318.7188, -0.000595458, -0.0007306292, -1512783.6, 8751.402 
3.551993e+2, 1.5473045e+2, -1414418.0, -1539333.1, -5234.105, 0.00216123, -0.0018633285, -1414199.1, 9442.474 
3.5519934e+2, 1.6471891e+2, -1326432.8, -1460934.3, -5565.752, 0.0017563031, -0.0010066777, -1326202.9, -448.2801 
3.5519928e+2, 1.7470673e+2, -1230300.5, -1363926.5, -5582.5, -0.0021650624, -0.00015071197, -1230067.6, -2193.68 
3.5519928e+2, 1.846939e+2, -1142110.5, -1284486.6, -5382.094, -0.0024025629, 0.00074454496, -1141907.4, -11907.736 
3.5519934e+2, 1.9468047e+2, -1044220.56, -1186563.3, -5333.465, 0.0015103822, -0.00034746493, -1044021.0, -11889.6455 
3.5519937e+2, 2.0466636e+2, -956042.1, -1108002.5, -5249.5557, 0.0022387565, -0.0004520326, -955861.0, -21591.365 
3.551994e+2, 2.146516e+2, -859027.6, -1010569.44, -5309.207, -0.00065861596, -0.0015639324, -858841.9, -22427.477 
3.551995e+2, 2.246362e+2, -770526.1, -931055.75, -4967.688, -0.0012802326, -0.00077287084, -770372.56, -31807.297 
3.5519964e+2, 2.346202e+2, -672728.06, -833105.25, -4929.3687, 0.00071363425, -0.00022827143, -672576.7, -31854.568 
3.5519987e+2, 2.4460351e+2, -584592.2, -754588.4, -4326.6074, 0.0011275891, 0.0004999747, -584482.1, -41596.6 
3.5520014e+2, 2.545862e+2, -487412.66, -656806.75, -4172.3325, -0.0002855812, -0.0006419471, -487309.97, -42254.54 
3.5520047e+2, 2.6456818e+2, -399579.1, -578563.0, -3696.6016, -0.00085498724, 0.000008965392, -399502.75, -52271.0 
3.5520086e+2, 2.7454957e+2, -302051.03, -480565.44, -3824.412, -0.0004301135, 0.00042762587, -301969.13, -52554.77 
3.5520145e+2, 2.8453022e+2, -213965.0, -402663.56, -2620.3694, 0.0000640372, 0.0004730013, -213928.61, -62324.727 
3.5520214e+2, 2.945102e+2, -115136.2, -303981.56, -2294.6792, 0.00068375986, -0.002593224, -115108.32, -61308.2 
3.5520294e+2, 3.0449292e+2, -27999.455, -175662.55, -1550.0907, 0.00054676674, -0.0012519505, -27983.186, -27983.186 
3.5520384e+2, 3.1447843e+2, -29288.39, -175933.61, -1639.5621, -0.000569891, 0.003296535, -29270.063, -29270.063 
3.5520494e+2, 3.2446852e+2, 36138.566, -39821.664, 100.843025, -0.0009935326, -0.00005673175, 36138.7, 36138.7 
3.6519998e+2, 3.481793e+1, -2528361.5, -2599857.5, 1008.2391, 0.0019954618, -0.0039895116, -2528347.3, 70437.055 
3.6520115e+2, 4.4814107e+1, -2440690.5, -2521785.0, -2481.326, -0.0047848877, 0.007920377, -2440614.8, 60207.063 
3.6520198e+2, 5.4809415e+1, -2342429.5, -2424024.8, -1890.3816, 0.0012909702, -0.0010160473, -2342385.8, 60482.05 
3.652027e+2, 6.480419e+1, -2252930.5, -2342851.5, -2133.1306, 0.0029216085, -0.0033109726, -2252880.0, 52038.965 
3.6520335e+2, 7.479847e+1, -2156062.8, -2245569.3, -2459.7527, -0.00032396798, -0.0003973133, -2155995.3, 50979.797 
3.6520386e+2, 8.4792036e+1, -2068457.8, -2167439.3, -3785.5203, -0.0014229623, 0.0007958914, -2068313.3, 40724.76 
3.6520422e+2, 9.478492e+1, -1971152.5, -2069947.9, -3780.5383, -0.00016401966, -0.001988399, -1971008.0, 40099.695 
3.6520454e+2, 1.0477719e+2, -1882887.4, -1990654.5, -4226.603, 0.0005726373, -0.0018250283, -1882721.9, 30461.744 
3.6520478e+2, 1.1476885e+2, -1785651.9, -1893165.5, -4384.907, 0.0007455696, -0.0004357373, -1785473.3, 29792.018 
3.6520493e+2, 1.24759845e+2, -1697555.8, -1814345.4, -5203.6113, 0.00023680158, 0.0006658531, -1697324.4, 20029.22 
3.6520496e+2, 1.3475019e+2, -1600282.4, -1716821.0, -5036.8037, -0.0010197728, -0.0006329801, -1600065.0, 19383.17 
3.65205e+2, 1.447399e+2, -1512115.9, -1637360.4, -5007.3154, -0.0005047385, -0.0008802256, -1511916.0, 9632.951 
3.6520508e+2, 1.54729e+2, -1415362.3, -1540045.1, -5245.3955, 0.0019665854, -0.00212209, -1415141.9, 8513.896 
3.6520505e+2, 1.6471745e+2, -1327345.1, -1461240.9, -5875.48, 0.0016374651, -0.0010301331, -1327087.9, -1318.9684 
3.652049e+2, 1.747053e+2, -1229613.9, -1363442.3, -5783.764, -0.0018101037, 0.00044478368, -1229364.4, -1476.2253 
3.6520484e+2, 1.8469247e+2, -1141277.4, -1284174.5, -5496.989, -0.002082469, 0.0011973127, -1141066.3, -11052.5205 
3.6520487e+2, 1.9467902e+2, -1044543.44, -1186833.0, -5597.1743, 0.0012258511, -0.00089052337, -1044323.6, -12177.999 
3.6520484e+2, 2.046649e+2, -956654.4, -1108099.8, -5517.486, 0.0018225525, -0.0010867154, -956453.6, -22169.762 
3.652048e+2, 2.1465017e+2, -859250.75, -1010501.6, -5349.765, -0.00067300716, -0.0012709323, -859061.75, -22633.344 
3.6520484e+2, 2.2463478e+2, -771025.06, -931343.2, -4896.9946, -0.0009965504, -0.00021608129, -770875.6, -32296.445 
3.6520496e+2, 2.3461875e+2, -673988.4, -833768.4, -4948.8423, 0.001176717, -0.00015804096, -673835.25, -33099.18 
3.6520514e+2, 2.446021e+2, -585883.8, -754890.25, -4445.454, 0.0013358623, 0.000336022, -585766.94, -42867.555 
3.6520532e+2, 2.545848e+2, -488319.13, -656935.4, -4358.1675, -0.00083514105, -0.0007551994, -488206.56, -43137.56 
3.6520562e+2, 2.6456684e+2, -400181.7, -578777.6, -3691.4746, -0.0014188795, -0.000027803226, -400105.4, -52860.277 
3.6520603e+2, 2.7454817e+2, -302062.5, -480464.66, -3514.5127, -0.00014302671, 0.00049857463, -301993.3, -52565.617 
3.6520654e+2, 2.8452888e+2, -214487.98, -402811.03, -2396.3262, 0.0006775014, 0.00046510005, -214457.5, -62840.383 
3.6520723e+2, 2.9450884e+2, -117796.06, -305085.63, -2544.0615, 0.0010066597, -0.0029078845, -117761.51, -63948.25 
3.6520797e+2, 3.044916e+2, -30833.1, -176559.63, -1831.7103, 0.0004699566, -0.0013735137, -30810.08, -30810.08 
3.652088e+2, 3.1447718e+2, -30504.951, -176029.55, -1391.1436, -0.0011914392, 0.0039771292, -30491.652, -30491.652 
3.6520988e+2, 3.2446727e+2, 35221.535, -40346.348, 302.46075, -0.00043529447, -0.0014689834, 35222.746, 35222.746 
3.7520617e+2, 3.4816658e+1, -2530866.3, -2605061.5, 555.1299, -0.0039689513, 0.0032496813, -2530862.0, 67934.805 
3.7520745e+2, 4.4812557e+1, -2439535.3, -2519410.3, -2342.442, 0.0073833093, -0.0020921521, -2439466.8, 61370.3 
3.752082e+2, 5.4808134e+1, -2341203.5, -2421506.0, -1762.6434, -0.00046841908, -0.0012387538, -2341165.0, 61715.33 
3.7520885e+2, 6.4802986e+1, -2253507.5, -2344087.0, -2388.4458, -0.00299509, -0.00005442745, -2253444.5, 51486.156 
3.752095e+2, 7.479715e+1, -2156677.0, -2246881.8, -2713.7349, 0.00015835311, -0.00048361966, -2156595.3, 50392.652 
3.7521e+2, 8.479067e+1, -2068419.5, -2167394.5, -3931.2666, 0.0013914875, 0.00017801723, -2068263.6, 40787.85 
3.752103e+2, 9.4783574e+1, -1971085.6, -2069871.1, -3926.5352, 0.00057109736, -0.00008486816, -1970929.8, 40191.13 
3.7521055e+2, 1.0477582e+2, -1883156.5, -1991246.3, -4405.3945, 0.000023641214, 0.0002865677, -1882977.3, 30219.64 
3.7521076e+2, 1.1476742e+2, -1785953.1, -1893783.9, -4559.18, -0.00022558814, -0.0006438049, -1785760.6, 29518.605 
3.7521085e+2, 1.2475841e+2, -1697247.0, -1813665.5, -5375.53, -0.00010272123, -0.00045536534, -1696999.3, 20368.287 
3.7521085e+2, 1.3474882e+2, -1599948.0, -1716098.9, -5217.392, 0.0004313576, -0.0011426823, -1599714.1, 19747.553 
3.7521082e+2, 1.4473853e+2, -1512539.6, -1638275.8, -5327.7905, 0.00018649502, -0.00041612217, -1512314.3, 9248.165 
3.7521076e+2, 1.5472756e+2, -1415825.0, -1540997.9, -5558.75, -0.0009198911, -0.00027121263, -1415578.6, 8091.184 
3.752107e+2, 1.64716e+2, -1327168.8, -1460872.9, -5946.765, -0.0006641652, 0.00029724115, -1326904.9, -1121.7554 
3.7521058e+2, 1.7470384e+2, -1229437.4, -1363038.0, -5852.41, 0.0011125429, -0.00089089526, -1229181.5, -1279.2454 
3.752105e+2, 1.8469103e+2, -1141490.8, -1284583.0, -5806.115, 0.0012004294, -0.00094191, -1141255.6, -11227.66 
3.7521034e+2, 1.9467753e+2, -1044764.1, -1187260.3, -5907.38, -0.000611092, -0.0017438361, -1044519.7, -12359.631 
3.7521026e+2, 2.0466346e+2, -956344.6, -1107474.5, -5677.2466, -0.0012384566, -0.0007405073, -956131.7, -21833.564 
3.752102e+2, 2.1464875e+2, -858944.56, -1009840.0, -5509.536, -0.0005136641, 0.00016337406, -858743.7, -22301.604 
3.752102e+2, 2.246334e+2, -771142.6, -931527.8, -5164.9824, 0.00015939923, 0.0008359659, -770976.5, -32383.783 
3.7521023e+2, 2.3461734e+2, -674104.8, -833989.3, -5215.7847, 0.00077125686, -0.001149196, -673934.9, -33184.906 
3.7521031e+2, 2.4460068e+2, -585768.1, -754586.1, -4596.62, 0.0003156974, -0.0011193397, -585643.06, -42729.74 
3.7521052e+2, 2.5458342e+2, -488206.28, -656620.1, -4506.5527, -0.0013900727, -0.00086252496, -488085.75, -43003.223 
3.752108e+2, 2.6456547e+2, -399912.78, -578156.75, -3724.468, -0.0012301537, 0.000018047145, -399834.97, -52576.633 
3.7521115e+2, 2.7454686e+2, -301798.78, -479845.16, -3544.271, 0.0011395994, -0.0006949593, -301728.25, -52287.688 
3.7521163e+2, 2.8452757e+2, -214860.31, -403467.4, -2784.044, 0.0015876279, -0.00035642055, -214819.22, -63189.277 
3.752122e+2, 2.945075e+2, -118149.93, -305808.94, -2937.1272, -0.0002172637, -0.0014248174, -118103.97, -64277.582 
3.7521288e+2, 3.044903e+2, -30112.973, -175023.4, -1790.7195, -0.001293038, -0.00008927553, -30090.848, -30090.848 
3.7521374e+2, 3.1447592e+2, -29763.799, -174380.33, -1338.9285, -0.0015523278, 0.0020054646, -29751.404, -29751.404 
3.7521484e+2, 3.2446602e+2, 34147.484, -42466.57, 275.33746, 0.0019497662, -0.004363421, 34148.473, 34148.473 
3.852126e+2, 3.481546e+1, -2527758.3, -2605210.3, 335.83484, -0.0054314523, 0.0030481291, -2527757.0, 71051.61 
3.8521373e+2, 4.4811267e+1, -2438325.0, -2518705.0, -957.9445, 0.01034517, -0.004114826, -2438313.5, 62536.11 
3.8521448e+2, 5.480688e+1, -2339894.0, -2420726.3, -1459.8322, -0.00081028685, -0.0008055737, -2339867.8, 63024.81 
3.852151e+2, 6.4801735e+1, -2252627.3, -2344037.5, -2893.0708, -0.004357804, 0.0010434209, -2252535.8, 52407.168 
3.852157e+2, 7.479584e+1, -2155999.8, -2246949.5, -2862.6445, 0.00024137774, -0.00064566225, -2155909.8, 51091.086 
3.8521612e+2, 8.4789336e+1, -2067387.6, -2167042.3, -3740.7927, 0.0019964308, -0.00025892133, -2067247.4, 41817.164 
3.8521641e+2, 9.478224e+1, -1969483.1, -2069216.9, -3853.9055, 0.0006960702, 0.00026643046, -1969334.4, 41799.625 
3.8521662e+2, 1.04774475e+2, -1881773.9, -1990746.4, -4562.2, -0.00017435366, 0.0007169108, -1881583.1, 31626.938 
3.8521674e+2, 1.14766054e+2, -1785674.9, -1893816.0, -4529.2983, -0.00057362206, -0.00091373856, -1785485.5, 29807.178 
3.8521677e+2, 1.2475702e+2, -1697227.3, -1813847.6, -5219.648, -0.00023050176, -0.00087799877, -1696994.1, 20387.063 
3.8521674e+2, 1.347474e+2, -1599246.8, -1715958.9, -5509.858, 0.0009253764, -0.0011052126, -1598987.3, 20488.18 
3.8521665e+2, 1.4473712e+2, -1511566.6, -1637856.8, -5925.2256, 0.0005104262, -0.00016552878, -1511289.3, 10286.953 
3.852165e+2, 1.5472616e+2, -1415172.5, -1540754.6, -5734.5894, -0.0016453682, -0.000078475576, -1414911.3, 8772.395 
3.8521633e+2, 1.6471459e+2, -1326973.4, -1460860.9, -5795.7974, -0.001282437, 0.00025128198, -1326723.0, -925.97565 
3.852162e+2, 1.747024e+2, -1229762.4, -1363287.1, -5942.6567, 0.001888463, -0.0013782034, -1229498.5, -1582.1503 
3.8521606e+2, 1.846896e+2, -1141821.1, -1284684.4, -6028.5024, 0.0019881472, -0.0013116885, -1141567.1, -11525.24 
3.8521585e+2, 1.9467613e+2, -1044710.1, -1187179.4, -5882.3906, -0.0013747538, -0.0013636828, -1044467.7, -12293.746 
3.852157e+2, 2.0466205e+2, -956400.9, -1107458.3, -5635.21, -0.002033633, -0.0003081551, -956190.94, -21879.016 
3.852156e+2, 2.1464735e+2, -859615.56, -1010123.75, -5765.5483, 0.0003896795, -0.00014686471, -859395.0, -22939.1 
3.8521552e+2, 2.24632e+2, -771793.25, -931651.8, -5426.5103, 0.00097459747, 0.00036512935, -771609.25, -33002.773 
3.852155e+2, 2.3461597e+2, -674172.25, -833825.6, -5256.5757, -0.0005537693, -0.0011085824, -673999.4, -33235.855 
3.8521552e+2, 2.445993e+2, -585875.2, -754561.7, -4615.831, -0.0010008119, -0.0009134304, -585748.94, -42822.246 
3.8521567e+2, 2.5458205e+2, -488972.06, -656902.56, -4632.312, -0.00018799458, -0.0009014926, -488844.38, -43748.477 
3.8521588e+2, 2.6456413e+2, -401222.78, -578472.44, -3854.8882, 0.000256919, -0.00023352461, -401138.97, -53867.4 
3.852162e+2, 2.7454555e+2, -303837.66, -480507.44, -3792.0933, 0.0002574091, -0.001105633, -303756.3, -54302.793 
3.8521662e+2, 2.8452626e+2, -216610.58, -404033.3, -2925.5789, 0.00015590637, -0.0004955452, -216564.92, -64922.297 
3.8521713e+2, 2.9450625e+2, -118381.195, -305620.34, -2563.1506, -0.000004745225, -0.0007799691, -118346.11, -64507.36 
3.8521782e+2, 3.0448905e+2, -30014.855, -174711.27, -1340.5822, -0.00054724526, 0.00025423904, -30002.436, -30002.436 
3.852186e+2, 3.144747e+2, -30902.404, -174643.89, -1506.4574, -0.0016363233, 0.00072716415, -30886.62, -30886.62 
3.8521966e+2, 3.2446483e+2, 31450.857, -43778.883, 127.64067, 0.0020975599, -0.0040062503, 31451.074, 31451.074 
3.9521915e+2, 3.4814328e+1, -2527539.0, -2604649.8, -1692.3447, -0.002762514, -0.004000593, -2527501.8, 71317.66 
3.9521998e+2, 4.4810218e+1, -2439174.5, -2520533.0, -849.4801, 0.004814298, 0.001230189, -2439165.5, 61694.348 
3.952208e+2, 5.480566e+1, -2340820.8, -2422623.8, -1304.7903, 0.00012411491, 0.00023096119, -2340800.0, 62104.465 
3.9522147e+2, 6.480043e+1, -2252550.5, -2343913.0, -3181.386, -0.0015550058, 0.00015666736, -2252440.0, 52515.863 
3.9522192e+2, 7.4794555e+1, -2155876.0, -2246771.0, -3162.8083, -0.000058223755, -0.00087291194, -2155766.0, 51247.26 
3.9522228e+2, 8.478804e+1, -2067552.6, -2167431.8, -3739.807, 0.0005528066, -0.00052706915, -2067412.8, 41664.434 
3.952226e+2, 9.4780916e+1, -1969697.1, -2069648.0, -3846.719, 0.00023095269, -0.0008046448, -1969549.3, 41597.74 
3.9522272e+2, 1.0477314e+2, -1881721.1, -1990608.9, -5017.4434, -0.00007265498, -0.00039534847, -1881490.4, 31732.848 
3.9522272e+2, 1.1476473e+2, -1785564.4, -1893646.3, -4996.7954, -0.00036625942, -0.0012439991, -1785333.9, 29971.79 
3.952227e+2, 1.2475567e+2, -1697717.5, -1814905.6, -5227.7056, -0.00018833256, -0.00065700855, -1697484.8, 19909.61 
3.9522266e+2, 1.3474599e+2, -1599805.9, -1717066.9, -5497.774, 0.0005238916, -0.00056980853, -1599548.6, 19940.656 
3.9522254e+2, 1.4473568e+2, -1511258.4, -1637150.6, -6306.9497, 0.0004784997, -0.00011211167, -1510943.3, 10647.142 
3.9522228e+2, 1.5472476e+2, -1414820.1, -1539978.0, -6132.1694, -0.0004024328, -0.0014109837, -1414520.4, 9176.883 
3.9522204e+2, 1.6471319e+2, -1327229.4, -1461388.0, -6004.9, -0.00037157233, -0.0010567805, -1326961.1, -1150.519 
3.9522183e+2, 1.74701e+2, -1230055.8, -1363852.5, -6141.132, 0.0006745016, -0.0010894849, -1229774.5, -1844.3523 
3.9522162e+2, 1.8468818e+2, -1141585.6, -1284139.3, -6238.178, 0.00046170116, -0.000056761517, -1141313.1, -11257.358 
3.9522138e+2, 1.9467476e+2, -1044469.56, -1186607.1, -6096.1646, -0.0011690329, 0.00014712184, -1044208.56, -12021.245 
3.9522114e+2, 2.0466067e+2, -956650.75, -1107944.1, -5950.7266, -0.00076649233, 0.00020126715, -956417.06, -22091.684 
3.9522097e+2, 2.1464592e+2, -859870.3, -1010636.75, -6077.6445, 0.0019614603, -0.0020607188, -859625.7, -23155.76 
3.9522082e+2, 2.2463056e+2, -771501.1, -931048.25, -5541.723, 0.0014618892, -0.0015072401, -771308.8, -32688.408 
3.9522073e+2, 2.3461461e+2, -673897.8, -833189.5, -5368.738, -0.0027543202, -0.00012042093, -673717.1, -32940.324 
3.952207e+2, 2.4459799e+2, -585960.3, -754651.5, -4926.919, -0.002612552, 0.0008229681, -585816.56, -42876.844 
3.952208e+2, 2.545807e+2, -489051.66, -657015.2, -4946.6665, 0.0026098848, -0.0008763333, -488906.1, -43796.957 
3.9522094e+2, 2.645628e+2, -401171.13, -578315.2, -4071.2834, 0.0029008023, -0.00075531495, -401077.6, -53792.777 
3.9522117e+2, 2.745442e+2, -303789.72, -480350.28, -4002.874, -0.0026369893, -0.0007960556, -303699.03, -54232.43 
3.9522153e+2, 2.8452498e+2, -216041.42, -402761.75, -2928.8499, -0.003442128, -0.0000048338466, -215995.5, -64340.31 
3.952221e+2, 2.9450506e+2, -117803.15, -304307.25, -2564.139, 0.0014847278, -0.0009019242, -117767.91, -63917.465 
3.9522275e+2, 3.0448788e+2, -30401.13, -175453.83, -1600.7797, 0.0024630534, -0.0002603485, -30383.467, -30383.467 
3.9522344e+2, 3.1447348e+2, -31323.035, -175497.42, -1766.0394, -0.0014695699, 0.000083741244, -31301.406, -31301.406 
3.952244e+2, 3.2446367e+2, 32315.281, -41944.89, -292.92584, 0.00013805964, -0.0006667897, 32316.438, 32316.438 
4.052257e+2, 3.481324e+1, -2528018.5, -2603538.5, -1906.1946, 0.0010571858, -0.0058720987, -2527970.5, 70859.65 
4.0522635e+2, 4.480919e+1, -2435278.3, -2519770.3, -739.36523, -0.0016199719, 0.0041276985, -2435271.8, 65598.13 
4.052272e+2, 5.480449e+1, -2339427.3, -2423139.8, -1026.2745, 0.00034451403, -0.0001433577, -2339414.5, 63501.387 
4.0522784e+2, 6.4799196e+1, -2251251.8, -2343435.5, -2855.1934, 0.0010311727, -0.0012595403, -2251163.5, 53804.434 
4.0522823e+2, 7.479332e+1, -2153444.8, -2245721.5, -3003.6504, 0.00025562363, -0.00089675584, -2153347.0, 53678.395 
4.0522856e+2, 8.478679e+1, -2065677.3, -2166868.3, -3806.5884, -0.00020084203, -0.00015116743, -2065534.3, 43555.21 
4.0522876e+2, 9.4779617e+1, -1969934.5, -2070120.9, -3938.6704, -0.00028480316, -0.0011132972, -1969780.0, 41379.777 
4.0522885e+2, 1.0477182e+2, -1881862.0, -1990745.4, -5073.02, -0.00019151528, -0.0008542259, -1881626.1, 31610.025 
4.052288e+2, 1.1476341e+2, -1783637.9, -1892757.1, -5151.6274, 0.00008766522, -0.0012761693, -1783395.1, 31923.352 
4.052287e+2, 1.2475435e+2, -1695922.3, -1814329.9, -5386.541, 0.00017861553, -0.0004913791, -1695677.8, 21729.62 
4.0522859e+2, 1.3474463e+2, -1600223.9, -1717566.8, -5320.9443, 0.00006610488, -0.00044122693, -1599983.1, 19519.47 
4.0522838e+2, 1.4473431e+2, -1511950.8, -1637383.4, -6021.22, 0.0001345806, -0.0001255645, -1511662.4, 9941.383 
4.0522805e+2, 1.547234e+2, -1414222.1, -1539577.3, -6133.88, 0.00040078277, -0.0016932387, -1413922.8, 9787.895 
4.0522775e+2, 1.6471183e+2, -1326424.4, -1461180.8, -6142.773, 0.00030516135, -0.0012623597, -1326144.9, -320.9843 
4.0522748e+2, 1.7469963e+2, -1229865.5, -1363960.8, -6117.35, -0.00020062325, -0.00082807057, -1229587.0, -1643.4512 
4.0522718e+2, 1.8468681e+2, -1141786.8, -1284142.3, -6218.0303, -0.00041422382, 0.0002438734, -1141515.6, -11446.418 
4.0522683e+2, 1.9467339e+2, -1045157.56, -1186831.9, -6285.644, -0.00029913298, 0.00000050010124, -1044879.25, -12678.548 
4.0522656e+2, 2.0465931e+2, -957330.8, -1108246.0, -6076.424, 0.00025519394, -0.000018970602, -957086.5, -22747.805 
4.0522632e+2, 2.1464457e+2, -859910.0, -1010604.5, -5938.361, 0.0013131115, -0.0019188168, -859676.3, -23193.123 
4.052261e+2, 2.2462921e+2, -771690.44, -930964.6, -5421.0835, 0.0007207571, -0.0013547572, -771506.1, -32872.5 
4.0522593e+2, 2.3461327e+2, -675309.56, -833709.94, -5474.3013, -0.001776147, -0.00037144523, -675120.56, -34330.69 
4.0522587e+2, 2.4459666e+2, -587626.44, -755259.4, -4999.555, -0.0015357638, 0.0004883699, -587477.44, -44524.78 
4.0522587e+2, 2.545794e+2, -489896.0, -657205.3, -4853.8584, 0.0019108223, -0.0009044636, -489755.28, -44633.383 
4.0522596e+2, 2.645615e+2, -401735.34, -578358.7, -3942.0652, 0.0019137146, -0.00057116884, -401647.4, -54350.0 
4.052261e+2, 2.7454296e+2, -304791.16, -480624.1, -3828.2976, -0.0021730273, -0.00051709526, -304707.84, -55228.88 
4.0522644e+2, 2.8452376e+2, -217518.22, -403079.44, -2734.5408, -0.0025741158, -0.000019668714, -217477.92, -65810.586 
4.0522695e+2, 2.9450384e+2, -119944.98, -304983.13, -2771.9502, 0.0015016726, -0.0016682633, -119903.46, -66041.13 
4.0522754e+2, 3.044867e+2, -32818.863, -176278.38, -1880.4633, 0.0022230672, -0.0008631727, -32794.22, -32794.22 
4.052282e+2, 3.1447232e+2, -33277.875, -176105.88, -1483.5273, -0.0012517265, 0.00076783134, -33262.465, -33262.465 
4.0522906e+2, 3.2446256e+2, 31250.262, -41821.023, -66.18862, -0.00029151476, 0.0000676473, 31250.322, 31250.322 
4.152322e+2, 3.481219e+1, -2526553.5, -2600640.5, -320.0226, 0.0058919694, -0.0029609494, -2526552.3, 72288.36 
4.1523287e+2, 4.480818e+1, -2435850.0, -2520920.3, -1220.5165, -0.008893334, 0.004808864, -2435832.5, 65047.445 
4.1523367e+2, 5.480337e+1, -2340016.0, -2424357.3, -1529.4274, -0.0001142082, -0.0018079907, -2339988.3, 62938.56 
4.1523427e+2, 6.4798003e+1, -2251490.0, -2343946.0, -2874.1594, 0.0033885275, -0.0031563283, -2251400.8, 53578.86 
4.1523466e+2, 7.479212e+1, -2153699.5, -2246235.8, -3010.7861, 0.0011133843, -0.00073344616, -2153601.8, 53435.49 
4.1523486e+2, 8.478556e+1, -2065926.1, -2167372.5, -4335.061, -0.0003397512, 0.00081591983, -2065741.3, 43360.234 
4.1523492e+2, 9.477836e+1, -1970132.0, -2070609.5, -4476.1914, -0.00087367086, -0.0007182979, -1969932.9, 41239.176 
4.1523495e+2, 1.04770534e+2, -1881938.8, -1990980.9, -5004.176, -0.00053462543, -0.000712616, -1881709.6, 31539.209 
4.1523492e+2, 1.14762105e+2, -1783762.4, -1893028.0, -5069.8306, 0.0007537906, -0.0010367879, -1783527.6, 31803.746 
4.1523477e+2, 1.24753036e+2, -1695836.3, -1814099.6, -5940.575, 0.00081700337, -0.00037205292, -1695538.6, 21881.62 
4.152345e+2, 1.3474333e+2, -1600080.1, -1717320.9, -5892.718, -0.00045609885, -0.0006860481, -1599784.8, 19730.57 
4.1523418e+2, 1.4473301e+2, -1512115.8, -1637745.0, -6099.4287, -0.00051056873, -0.00020152355, -1511820.3, 9796.13 
4.1523388e+2, 1.547221e+2, -1414421.9, -1539972.4, -6199.1177, 0.0007837474, -0.0010158749, -1414116.5, 9606.978 
4.1523352e+2, 1.647105e+2, -1326421.6, -1461111.1, -6498.8696, 0.00074419955, -0.00045845477, -1326108.9, -271.8996 
4.1523314e+2, 1.7469831e+2, -1229857.3, -1363878.9, -6478.6406, -0.0007798788, -0.00059323735, -1229544.9, -1588.2394 
4.152327e+2, 1.8468547e+2, -1141924.3, -1284390.8, -6556.9185, -0.00071007595, -0.00033144615, -1141623.1, -11540.7295 
4.1523233e+2, 1.9467203e+2, -1045274.4, -1187093.9, -6622.6704, 0.0011606364, -0.001664392, -1044965.8, -12751.679 
4.1523197e+2, 2.0465796e+2, -957093.1, -1107726.9, -6222.355, 0.0010290828, -0.00090718776, -956836.5, -22484.535 
4.1523162e+2, 2.1464328e+2, -859693.44, -1010079.25, -6081.204, -0.0013824265, 0.00010158044, -859447.94, -22952.07 
4.1523135e+2, 2.2462794e+2, -771823.8, -931188.4, -5850.7876, -0.001162805, 0.00065303466, -771609.3, -32963.13 
4.1523114e+2, 2.3461196e+2, -675432.25, -833950.4, -5909.71, 0.002080191, -0.0017540281, -675212.2, -34409.355 
4.1523096e+2, 2.4459533e+2, -587396.06, -754741.8, -5105.738, 0.0019795324, -0.0017406716, -587240.44, -44274.78 
4.1523087e+2, 2.545781e+2, -489670.4, -656683.75, -4950.5625, -0.0020046216, -0.000983508, -489523.78, -44389.465 
4.152309e+2, 2.6456028e+2, -401609.44, -577992.1, -4270.1514, -0.0024343873, 0.00026670136, -401506.13, -54196.715 
4.1523105e+2, 2.7454174e+2, -304651.56, -480263.9, -4165.7886, 0.0013392387, -0.00026305442, -304552.8, -55062.035 
4.152313e+2, 2.8452253e+2, -217669.72, -403344.78, -2921.7417, 0.0023676208, -0.00048690932, -217623.75, -65944.6 
4.1523173e+2, 2.945026e+2, -120135.445, -305293.38, -2944.992, 0.0001404067, -0.0030221827, -120088.61, -66214.19 
4.1523224e+2, 3.044855e+2, -32234.922, -174939.6, -2018.4985, -0.0010268007, -0.0015418075, -32206.377, -32206.377 
4.152329e+2, 3.1447124e+2, -32638.87, -174676.19, -1623.4103, -0.0009974353, 0.002665781, -32620.316, -32620.316 
4.1523373e+2, 3.2446152e+2, 31134.877, -42005.824, -270.3606, 0.0006230242, -0.0015881849, 31135.877, 31135.877 
4.2523876e+2, 3.4811196e+1, -2523495.3, -2600878.0, 729.0469, 0.0043643066, 0.00063722284, -2523488.5, 75361.836 
4.2523956e+2, 4.4807023e+1, -2434715.8, -2520420.3, -2249.8596, -0.0059579066, 0.00028160634, -2434656.8, 66234.48 
4.2524025e+2, 5.480226e+1, -2338154.3, -2423463.3, -2005.4386, 0.000044200693, -0.001725634, -2338107.0, 64830.797 
4.2524073e+2, 6.47969e+1, -2250038.0, -2343537.8, -2813.827, 0.0023264312, -0.001509992, -2249953.5, 55036.914 
4.2524102e+2, 7.479096e+1, -2153501.0, -2246440.0, -2900.667, 0.00053019385, -0.0008184494, -2153410.5, 53637.91 
4.252412e+2, 8.4784377e+1, -2065444.0, -2167415.8, -4270.6333, -0.00040359644, 0.00020523464, -2065265.5, 43847.594 
4.252412e+2, 9.4777143e+1, -1967740.1, -2069709.9, -4354.3057, -0.00038353537, -0.0005482386, -1967554.5, 43629.402 
4.2524114e+2, 1.04769304e+2, -1879723.6, -1990198.4, -4865.163, -0.000023113089, -0.00027372822, -1879509.8, 33751.07 
4.2524105e+2, 1.1476084e+2, -1783995.9, -1893425.9, -5010.1934, 0.00071162055, -0.00087932, -1783767.0, 31576.754 
4.252408e+2, 1.2475176e+2, -1696272.9, -1814254.9, -6042.822, 0.00056870107, -0.00043443352, -1695964.1, 21468.568 
4.2524046e+2, 1.3474207e+2, -1598840.0, -1716634.0, -6067.7715, -0.0005464931, -0.0009093653, -1598528.4, 20999.418 
4.2524004e+2, 1.4473173e+2, -1510821.8, -1637474.1, -6224.746, -0.00050592783, -0.00030511853, -1510516.5, 11112.488 
4.2523968e+2, 1.5472078e+2, -1414366.1, -1540297.3, -6357.299, 0.0008094465, -0.00067366153, -1414046.1, 9690.292 
4.2523926e+2, 1.647092e+2, -1326646.9, -1461005.5, -6758.517, 0.0007632882, -0.00013101447, -1326307.8, -457.89926 
4.2523873e+2, 1.7469701e+2, -1230075.6, -1363767.3, -6639.6475, -0.0008021735, -0.00079544395, -1229746.6, -1777.3271 
4.2523825e+2, 1.8468417e+2, -1142057.5, -1284560.5, -6526.34, -0.0006862553, -0.0007454775, -1141759.3, -11664.154 
4.252378e+2, 1.9467072e+2, -1044742.0, -1186942.6, -6542.3916, 0.0013300757, -0.0019322657, -1044441.6, -12214.7 
4.2523736e+2, 2.0465665e+2, -956682.7, -1107405.3, -6285.5317, 0.0010414339, -0.0009812864, -956421.06, -22056.268 
4.2523694e+2, 2.1464199e+2, -860673.6, -1010430.44, -6324.1563, -0.0018716805, 0.0002713345, -860407.06, -23898.549 
4.2523658e+2, 2.2462666e+2, -773059.4, -931667.2, -6059.2705, -0.0014938111, 0.0008492873, -772828.25, -34169.547 
4.2523625e+2, 2.3461068e+2, -675632.8, -833908.56, -5924.946, 0.0026691006, -0.0017854525, -675411.3, -34596.008 
4.2523605e+2, 2.4459408e+2, -587516.6, -754621.2, -5048.264, 0.0025226944, -0.0018492322, -587364.25, -44386.33 
4.2523587e+2, 2.545769e+2, -490918.16, -657104.44, -5045.242, -0.002641973, -0.000983172, -490765.13, -45618.676 
4.252358e+2, 2.6455906e+2, -403079.38, -578396.9, -4435.1914, -0.0031323181, 0.00024003515, -402967.25, -55645.895 
4.252359e+2, 2.7454054e+2, -305488.88, -480329.72, -4314.9375, 0.0018964603, -0.000484013, -305382.44, -55879.984 
4.2523608e+2, 2.8452137e+2, -218667.83, -403610.72, -3015.5413, 0.003084232, -0.00057225075, -218618.67, -66928.07 
4.2523643e+2, 2.9450145e+2, -122096.44, -306035.25, -2797.4968, -0.00030218283, -0.002566565, -122053.91, -68168.234 
4.2523688e+2, 3.0448437e+2, -34133.72, -175133.97, -1611.9617, -0.0016692721, -0.0014239161, -34115.293, -34115.293 
4.252375e+2, 3.144702e+2, -33994.625, -174588.28, -1440.7911, -0.00065578526, 0.0013920442, -33979.863, -33979.863 
4.252383e+2, 3.2446048e+2, 29497.113, -43237.99, -391.0519, 0.00015381681, -0.0019560414, 29499.217, 29499.217 
4.3524545e+2, 3.4810257e+1, -2526871.0, -2607837.3, 623.0123, -0.003014459, 0.0048995316, -2526866.3, 71993.2 
4.3524638e+2, 4.4805735e+1, -2434271.3, -2519507.8, -2526.0725, 0.0062629688, -0.008985374, -2434196.5, 66707.39 
4.3524683e+2, 5.4801154e+1, -2337598.3, -2422377.0, -2299.8542, 0.00074323046, -0.000060514303, -2337535.8, 65412.883 
4.3524718e+2, 6.479585e+1, -2250130.3, -2343815.3, -3143.5837, -0.0018782462, 0.0033578335, -2250025.0, 54975.75 
4.3524745e+2, 7.478984e+1, -2153612.8, -2246750.0, -3232.9766, -0.0013834191, -0.0011224666, -2153500.8, 53558.86 
4.3524757e+2, 8.478322e+1, -2065545.9, -2167677.8, -4317.5938, -0.0004201878, -0.0018347309, -2065363.6, 43760.82 
4.352476e+2, 9.477599e+1, -1967870.1, -2069987.5, -4392.707, 0.0010608557, -0.00058472616, -1967681.6, 43513.67 
4.3524745e+2, 1.0476813e+2, -1879988.4, -1990780.8, -5410.718, 0.0012449303, 0.00043445043, -1879724.8, 33547.64 
4.3524715e+2, 1.14759624e+2, -1784226.8, -1894007.6, -5563.8896, 0.000011519433, -0.00079613825, -1783945.5, 31410.174 
4.3524683e+2, 1.2475052e+2, -1696276.5, -1814289.4, -6175.1, -0.0005160574, -0.00065602444, -1695954.3, 21490.633 
4.3524644e+2, 1.3474081e+2, -1598844.5, -1716679.4, -6192.9014, -0.00026045946, -0.0011123715, -1598519.9, 21020.076 
4.35246e+2, 1.4473046e+2, -1511081.9, -1638006.0, -6595.526, 0.00007535411, -0.00043327492, -1510740.0, 10901.336 
4.352455e+2, 1.5471949e+2, -1414631.6, -1540850.4, -6727.297, 0.00049466186, -0.0006395105, -1414274.1, 9475.049 
4.3524498e+2, 1.6470788e+2, -1326427.6, -1460543.8, -7112.425, 0.0003806938, -0.0002398887, -1326051.5, -188.8403 
4.3524435e+2, 1.7469573e+2, -1229828.8, -1363269.1, -7001.8975, -0.00032937268, -0.001398473, -1229462.4, -1480.4618 
4.3524382e+2, 1.846829e+2, -1142089.1, -1284621.0, -6694.658, -0.0003844173, -0.0010138912, -1141775.4, -11668.021 
4.3524328e+2, 1.9466947e+2, -1044819.56, -1187040.4, -6700.7563, 0.00030177794, -0.0009305781, -1044504.56, -12265.362 
4.3524277e+2, 2.0465538e+2, -956801.2, -1107594.9, -6778.9165, 0.00033850758, -0.00031464957, -956497.06, -22119.898 
4.352422e+2, 2.1464069e+2, -860765.4, -1010607.7, -6825.9985, -0.00036562775, -0.001243251, -860455.06, -23933.86 
4.3524176e+2, 2.2462538e+2, -772833.3, -931151.0, -6224.0347, -0.0004297321, -0.0006081133, -772589.0, -33917.734 
4.352414e+2, 2.3460945e+2, -675410.06, -833385.4, -6080.7725, 0.00025245117, -0.0005840687, -675176.4, -34349.086 
4.352411e+2, 2.4459288e+2, -587582.06, -754662.8, -5428.7173, 0.00032953508, -0.000015677128, -587405.8, -44416.152 
4.3524083e+2, 2.5457567e+2, -491001.4, -657180.3, -5430.5034, -0.000310152, -0.00090869266, -490824.13, -45665.715 
4.3524072e+2, 2.6455784e+2, -402932.34, -578008.44, -4600.4834, -0.00053448847, -0.0005710482, -402811.56, -55478.285 
4.352407e+2, 2.7453938e+2, -305324.3, -479933.44, -4471.912, -0.00025922907, -0.0011313085, -305209.84, -55695.797 
4.352408e+2, 2.8452024e+2, -218389.38, -402944.34, -3432.9812, -0.0000690522, -0.00029710686, -218325.55, -66623.8 
4.3524104e+2, 2.945004e+2, -121795.85, -305357.0, -3229.6365, 0.000054191398, -0.00045966156, -121739.04, -67842.87 
4.3524146e+2, 3.0448332e+2, -33912.598, -174627.14, -1639.4987, 0.0000279186, -0.0005687809, -33893.496, -33893.496 
4.352421e+2, 3.1446916e+2, -33812.79, -174113.58, -1451.3204, -0.00024210557, -0.002762221, -33797.777, -33797.777 
4.3524283e+2, 3.2445943e+2, 28950.229, -44221.68, -494.1037, -0.001630565, -0.0011569037, 28953.564, 28953.564 
4.452523e+2, 3.480926e+1, -2523959.8, -2606627.5, -117.144135, -0.004326687, 0.00071918307, -2523959.5, 74909.664 
4.452531e+2, 4.4804814e+1, -2433828.3, -2519558.5, -1144.5957, 0.0085353935, -0.0033627825, -2433813.0, 67099.97 
4.4525352e+2, 5.480015e+1, -2335718.3, -2421722.8, -1576.9407, 0.00033789006, -0.000049304213, -2335689.3, 67269.14 
4.452538e+2, 6.47948e+1, -2247762.8, -2343105.8, -3090.2888, -0.0030222086, 0.0014587751, -2247662.8, 57348.297 
4.4525397e+2, 7.4788773e+1, -2151532.3, -2246190.3, -3316.4236, -0.001145578, -0.0009158611, -2151416.3, 55653.832 
4.45254e+2, 8.478213e+1, -2064013.4, -2167071.0, -4291.3306, 0.00028258018, -0.0010832603, -2063835.0, 45300.145 
4.4525394e+2, 9.477487e+1, -1967542.5, -2069971.0, -4332.6426, 0.0012224022, -0.0009863257, -1967359.5, 43846.652 
4.4525373e+2, 1.0476698e+2, -1879808.6, -1990922.9, -5467.137, 0.0010078566, -0.00021749677, -1879540.3, 33743.29 
4.4525334e+2, 1.1475847e+2, -1782880.3, -1893582.8, -5514.273, -0.00046782996, -0.0007119079, -1782606.3, 32760.762 
4.4525293e+2, 1.2474935e+2, -1694690.8, -1813759.9, -5984.528, -0.0007508015, -0.00030775263, -1694390.8, 23065.652 
4.4525248e+2, 1.3473962e+2, -1598160.1, -1716568.8, -6119.574, 0.0002809631, -0.0010264091, -1597844.6, 21707.018 
4.452519e+2, 1.4472926e+2, -1510788.4, -1637822.4, -6605.828, 0.0005177787, -0.00060924934, -1510445.9, 11207.368 
4.4525132e+2, 1.5471826e+2, -1414523.1, -1540749.0, -6458.855, -0.00012824811, -0.0010749403, -1414193.5, 9567.441 
4.4525066e+2, 1.6470668e+2, -1326318.5, -1460691.5, -6756.5464, -0.00018852916, -0.00052782445, -1325979.6, -105.153656 
4.4525003e+2, 1.7469451e+2, -1229218.1, -1363162.0, -7006.67, 0.00039947694, -0.0010824378, -1228852.6, -858.7693 
4.4524935e+2, 1.8468168e+2, -1141705.0, -1284286.3, -6910.221, 0.00036470234, -0.0004695208, -1141370.9, -11251.467 
4.4524875e+2, 1.9466825e+2, -1045943.7, -1187438.5, -6795.76, -0.00037402636, -0.000572041, -1045618.06, -13366.93 
4.452481e+2, 2.0465417e+2, -958225.56, -1108211.4, -6724.4937, -0.00031451095, -0.00031827117, -957924.7, -23535.676 
4.452475e+2, 2.1463948e+2, -860960.5, -1010637.9, -6660.753, 0.00065226207, -0.0018118463, -860664.6, -24131.588 
4.4524693e+2, 2.2462417e+2, -772647.0, -930928.6, -6006.4673, 0.00050244195, -0.0010900731, -772419.4, -33736.34 
4.452465e+2, 2.3460828e+2, -676031.8, -833517.3, -6019.7813, -0.00092352054, -0.00021852703, -675802.0, -34963.188 
4.4524607e+2, 2.4459173e+2, -588693.4, -755009.7, -5535.851, -0.0009018852, 0.0004976915, -588509.4, -45508.26 
4.4524577e+2, 2.545745e+2, -492349.97, -657647.4, -5391.6646, 0.0008017942, -0.0010834694, -492174.28, -47004.6 
4.4524553e+2, 2.645567e+2, -404436.63, -578503.44, -4265.74, 0.00085542887, -0.0009915675, -404332.13, -56987.766 
4.4524544e+2, 2.7453828e+2, -306954.4, -480469.25, -4184.491, -0.0010558543, -0.0012513181, -306853.56, -57328.63 
4.4524547e+2, 2.8451914e+2, -219652.27, -403226.7, -3378.0469, -0.0013471529, -0.00024739455, -219590.13, -67877.8 
4.4524562e+2, 2.9449934e+2, -122401.445, -305301.53, -3279.6157, 0.00034221786, -0.0004023211, -122342.66, -68436.234 
4.45246e+2, 3.0448234e+2, -35061.2, -175145.4, -1725.2413, 0.00088815606, -0.00021270613, -35039.957, -35039.957 
4.4524655e+2, 3.1446815e+2, -36444.246, -175387.52, -1776.2213, -0.000007045149, -0.0017487683, -36421.543, -36421.543 
4.4524723e+2, 3.244585e+2, 26265.295, -43905.14, -237.84322, -0.002179573, -0.0016901447, 26266.102, 26266.102 
4.5525926e+2, 3.480821e+1, -2521153.5, -2600845.8, -1779.6063, -0.00015321703, -0.011097428, -2521113.8, 77765.75 
4.5525977e+2, 4.480422e+1, -2434473.0, -2521018.3, -1125.1376, 0.0017755692, 0.01574675, -2434458.3, 66460.336 
4.5526022e+2, 5.4799247e+1, -2336497.0, -2423349.5, -1512.763, -0.0010885751, -0.0015300139, -2336470.8, 66496.69 
4.552605e+2, 6.479374e+1, -2248187.3, -2343974.5, -3485.5774, -0.0014149571, -0.0065669273, -2248060.8, 56960.676 
4.5526055e+2, 7.478774e+1, -2151921.8, -2247014.8, -3713.1372, 0.0010220698, -0.00024762156, -2151777.0, 55303.07 
4.552605e+2, 8.478109e+1, -2064041.5, -2167218.3, -4640.0674, 0.0016165903, 0.0021961508, -2063833.3, 45312.09 
4.552603e+2, 9.477379e+1, -1967584.9, -2070108.4, -4682.2827, 0.00019353857, -0.0017168416, -1967371.5, 43845.38 
4.5526e+2, 1.0476588e+2, -1879840.3, -1991056.5, -5718.314, -0.00061725226, -0.0021015906, -1879547.1, 33747.29 
4.552596e+2, 1.1475737e+2, -1782913.4, -1893716.5, -5762.03, -0.00076388946, -0.00062443624, -1782614.5, 32763.21 
4.5525905e+2, 1.2474823e+2, -1694949.4, -1814261.0, -6336.594, -0.00023744469, 0.00055608846, -1694613.8, 22853.477 
4.5525852e+2, 1.3473846e+2, -1598429.4, -1717090.4, -6470.8228, 0.0010364479, -0.00067858933, -1598077.6, 21485.377 
4.5525786e+2, 1.4472811e+2, -1510529.5, -1637252.8, -7027.9185, 0.0008191584, -0.00082797883, -1510141.0, 11523.579 
4.5525715e+2, 1.5471715e+2, -1414242.0, -1540150.1, -6890.8164, -0.0010489462, -0.001935206, -1413866.0, 9905.965 
4.552564e+2, 1.6470554e+2, -1326769.3, -1461606.0, -6992.3267, -0.00094850105, -0.0009774579, -1326407.5, -522.009 
4.5525572e+2, 1.7469332e+2, -1229715.0, -1364130.3, -7223.666, 0.0013453227, 0.00006259358, -1229327.9, -1322.4786 
4.5525494e+2, 1.8468049e+2, -1141547.5, -1283917.5, -7448.125, 0.0015049061, 0.0008144406, -1141159.0, -11027.769 
4.5525414e+2, 1.9466707e+2, -1045742.75, -1187018.1, -7348.9663, -0.00074879115, -0.0007992047, -1045361.5, -13098.784 
4.5525342e+2, 2.0465301e+2, -958086.5, -1107932.6, -6918.5063, -0.00094382727, -0.0009293181, -957767.75, -23367.348 
4.5525274e+2, 2.1463834e+2, -860845.7, -1010379.5, -6842.72, 0.0012093788, -0.0015194963, -860533.25, -23989.04 
4.5525214e+2, 2.2462305e+2, -772738.75, -931031.5, -6362.8765, 0.001293509, -0.00068356196, -772483.4, -33789.285 
4.5525154e+2, 2.3460713e+2, -676137.0, -833660.3, -6381.1904, -0.0010040723, -0.0006097042, -675878.9, -35028.855 
4.5525104e+2, 2.445906e+2, -588512.94, -754489.06, -5980.854, -0.0012849444, -0.00018089951, -588297.7, -45285.527 
4.5525062e+2, 2.5457343e+2, -492111.6, -657087.8, -5841.3447, 0.00078886154, -0.0014860643, -491905.0, -46724.637 
4.552503e+2, 2.6455563e+2, -404350.88, -578274.3, -4465.4365, 0.0011094853, -0.0010590802, -404236.28, -56881.523 
4.5525014e+2, 2.7453724e+2, -306916.78, -480296.94, -4373.2817, -0.0006403286, -0.0008839209, -306806.53, -57271.39 
4.552501e+2, 2.845181e+2, -219615.8, -402923.2, -3626.939, -0.0009350825, -0.000393218, -219544.06, -67821.625 
4.552502e+2, 2.9449832e+2, -122350.58, -304987.9, -3528.6118, 0.0005298261, -0.0022003031, -122282.43, -68365.95 
4.5525047e+2, 3.0448133e+2, -35322.88, -175569.08, -2101.3662, 0.0009499439, -0.00029724382, -35291.402, -35291.402 
4.5525092e+2, 3.1446716e+2, -36728.09, -175858.45, -2149.1465, 0.000056864134, 0.0039547943, -36694.9, -36694.9 
4.552515e+2, 3.244576e+2, 28518.354, -39116.91, -487.43997, -0.0016545468, -0.0034266184, 28521.865, 28521.865 
4.6526626e+2, 3.4807426e+1, -2520698.5, -2599604.5, -1177.8346, 0.0025284698, -0.008106485, -2520681.0, 78206.35 
4.6526662e+2, 4.4803384e+1, -2430945.0, -2520013.3, -1531.0916, -0.0027524407, 0.011832778, -2430918.8, 70008.18 
4.6526703e+2, 5.4798377e+1, -2335458.0, -2423629.5, -1647.627, -0.00077524496, -0.0017280916, -2335427.3, 67548.59 
4.6526724e+2, 6.479283e+1, -2247549.5, -2343965.3, -3346.9392, 0.00060954725, -0.0054603033, -2247433.5, 57596.707 
4.652672e+2, 7.4786794e+1, -2150116.0, -2246436.8, -3353.7366, 0.0013854741, -0.00044251524, -2149999.3, 57090.125 
4.6526706e+2, 8.47801e+1, -2062045.0, -2166593.8, -4445.3257, 0.0010714298, 0.0018122228, -2061856.4, 47298.56 
4.6526676e+2, 9.477279e+1, -1966287.9, -2069841.6, -4658.2197, -0.00045025468, -0.0010803585, -1966078.8, 45147.953 
4.6526635e+2, 1.0476486e+2, -1878788.3, -1990683.5, -5603.3296, -0.00087902154, -0.0013873336, -1878508.4, 34796.055 
4.6526584e+2, 1.1475632e+2, -1781897.5, -1893358.8, -5675.702, -0.000114473216, -0.00087159884, -1781609.3, 33778.71 
4.6526524e+2, 1.2474717e+2, -1694189.3, -1814116.3, -6375.171, 0.000393908, 0.000015260914, -1693851.4, 23626.387 
4.652646e+2, 1.3473739e+2, -1598114.4, -1717160.1, -6396.563, 0.0006179828, -0.00076238357, -1597771.8, 21801.889 
4.652638e+2, 1.4472702e+2, -1510218.0, -1637173.8, -7014.3555, 0.00030657093, -0.00053260825, -1509831.6, 11843.634 
4.65263e+2, 1.5471604e+2, -1413612.1, -1539932.4, -7202.3716, -0.00059379806, -0.001355588, -1413202.8, 10579.888 
4.6526217e+2, 1.6470446e+2, -1326353.3, -1461431.5, -7221.291, -0.00039747683, -0.0006071566, -1325968.3, -71.947975 
4.6526134e+2, 1.7469221e+2, -1230124.3, -1364359.1, -7012.006, 0.0010178674, -0.00032523772, -1229759.0, -1742.6527 
4.652605e+2, 1.8467939e+2, -1141973.3, -1284148.1, -7198.269, 0.0009995128, 0.00022466753, -1141609.8, -11467.686 
4.6525958e+2, 1.9466595e+2, -1045300.9, -1186832.5, -7313.737, -0.000644754, -0.00096407393, -1044923.94, -12650.312 
4.6525875e+2, 2.0465192e+2, -957538.4, -1107519.0, -6891.0767, -0.0007373123, -0.00069376035, -957222.44, -22811.193 
4.65258e+2, 2.1463725e+2, -861225.75, -1010419.3, -6857.064, 0.0009352535, -0.00090229453, -860911.25, -24356.41 
4.6525726e+2, 2.2462197e+2, -773959.75, -931516.94, -6490.9917, 0.0011250452, -0.0002758634, -773692.8, -34988.14 
4.6525657e+2, 2.3460604e+2, -678047.8, -834462.3, -6403.679, -0.00040189893, -0.0010980403, -677786.1, -36925.484 
4.6525595e+2, 2.4458952e+2, -589907.6, -754881.6, -5763.8022, -0.00072544557, -0.00080505555, -589706.5, -46683.89 
4.6525544e+2, 2.545724e+2, -491961.78, -656692.9, -5687.0313, 0.00037418332, -0.0013526566, -491765.66, -46575.223 
4.6525502e+2, 2.6455462e+2, -404286.03, -578093.75, -4560.202, 0.0005607688, -0.00054367015, -404166.47, -56801.867 
4.6525478e+2, 2.7453622e+2, -308779.06, -481032.0, -4476.8853, -0.00034763615, -0.0004331915, -308662.8, -59117.95 
4.6525466e+2, 2.8451714e+2, -222080.48, -403698.28, -3405.9707, -0.0004447752, -0.00035052092, -222016.64, -70284.7 
4.652547e+2, 2.9449737e+2, -124184.195, -305453.7, -3186.0127, 0.0004387097, -0.0029739295, -124128.21, -70202.55 
4.6525487e+2, 3.044804e+2, -37049.07, -176094.84, -1779.3933, 0.0007729785, -0.0008269087, -37026.305, -37026.305 
4.6525523e+2, 3.1446627e+2, -38777.387, -176527.27, -1459.2186, 0.00040666127, 0.004960203, -38761.93, -38761.93 
4.652557e+2, 3.2445675e+2, 26551.336, -39149.0, -305.38477, -0.0014376054, -0.0031525725, 26552.756, 26552.756 
4.752732e+2, 3.480689e+1, -2521945.8, -2602327.0, -126.139046, 0.0038329319, 0.008235487, -2521945.8, 76946.9 
4.7527358e+2, 4.4802323e+1, -2431188.5, -2520588.0, -2079.6787, -0.0052751107, -0.012824444, -2431140.0, 69797.11 
4.752739e+2, 5.4797536e+1, -2335650.8, -2424141.8, -2219.0261, 0.0010867635, -0.00077098183, -2335595.3, 67389.016 
4.7527403e+2, 6.479206e+1, -2247489.0, -2343912.0, -3450.1987, 0.0029852297, 0.0038757971, -2247365.5, 57672.22 
4.7527394e+2, 7.478592e+1, -2150099.3, -2246388.5, -3451.877, 0.00010433501, -0.0014107889, -2149975.8, 57122.33 
4.7527367e+2, 8.4779185e+1, -2062428.5, -2167383.8, -4973.899, -0.0011853595, -0.0018722297, -2062193.4, 46970.66 
4.7527325e+2, 9.4771856e+1, -1966638.8, -2070629.5, -5188.519, -0.0007709524, 0.00078491744, -1966380.5, 44855.258 
4.7527274e+2, 1.047639e+2, -1878879.6, -1990927.4, -5858.0283, 0.00006385246, 0.0016693533, -1878574.1, 34739.633 
4.7527218e+2, 1.1475532e+2, -1782021.0, -1893609.0, -5924.6196, 0.0013684473, -0.0014144109, -1781707.3, 33690.58 
4.752715e+2, 1.2474614e+2, -1694238.0, -1814172.9, -6836.116, 0.0011092577, -0.0017881086, -1693849.6, 23638.148 
4.7527066e+2, 1.3473637e+2, -1598146.0, -1717217.1, -6862.6426, -0.0008801707, -0.0012362776, -1597751.8, 21831.818 
4.7526976e+2, 1.4472598e+2, -1510557.8, -1637846.9, -7355.7344, -0.0009594029, 0.00022672684, -1510134.0, 11551.357 
4.752689e+2, 1.5471499e+2, -1413965.9, -1540616.0, -7533.9995, 0.0010834158, 0.00052315736, -1413519.3, 10273.94 
4.7526795e+2, 1.6470337e+2, -1325985.5, -1460679.4, -7649.3457, 0.0013139921, 0.000504177, -1325552.5, 354.39395 
4.7526696e+2, 1.7469116e+2, -1229752.8, -1363571.5, -7451.109, -0.0004771311, -0.0020928383, -1229339.1, -1312.5616 
4.75266e+2, 1.8467833e+2, -1142183.9, -1284537.6, -7531.3564, -0.0010114908, -0.0020534447, -1141786.5, -11634.225 
4.7526506e+2, 1.946649e+2, -1045526.4, -1187269.4, -7637.4565, -0.00013020211, -0.0010746475, -1045116.06, -12832.154 
4.752641e+2, 2.0465086e+2, -957533.94, -1107446.5, -7307.3613, 0.00019687678, 0.00031026173, -957178.56, -22757.045 
4.752632e+2, 2.1463622e+2, -861220.25, -1010341.1, -7276.452, -0.00010438331, 0.0000101154565, -860866.0, -24300.908 
4.7526237e+2, 2.2462092e+2, -773815.3, -931214.7, -7022.3105, 0.00007382568, 0.00013411451, -773502.6, -34787.8 
4.7526154e+2, 2.3460503e+2, -677857.1, -834149.56, -6940.4014, 0.00078349933, -0.0016711447, -677549.56, -36678.902 
4.7526082e+2, 2.4458852e+2, -589785.6, -754624.06, -5816.8276, 0.0006590751, -0.0013760843, -589580.6, -46548.203 
4.752603e+2, 2.5457144e+2, -491907.28, -656486.06, -5721.163, -0.00042241966, -0.00073201064, -491708.63, -46508.656 
4.752598e+2, 2.6455367e+2, -404291.47, -577916.0, -5218.949, -0.0007560518, 0.0005054361, -404134.75, -56760.824 
4.7525936e+2, 2.7453527e+2, -308713.72, -480844.4, -5160.9307, -0.00019216817, 0.000097765726, -308559.1, -59005.008 
4.7525913e+2, 2.8451625e+2, -221754.81, -402982.1, -3513.1538, 0.00010125338, -0.00013261869, -221686.73, -69945.836 
4.7525913e+2, 2.944965e+2, -123899.63, -304737.66, -3268.518, 0.00005343189, -0.0028179432, -123840.58, -69906.46 
4.752592e+2, 3.0447957e+2, -36621.26, -175077.92, -2229.4685, 0.00033535803, -0.0017517604, -36585.37, -36585.37 
4.7525942e+2, 3.1446552e+2, -38313.58, -175483.5, -1928.9999, 0.0010040842, 0.0017137856, -38286.457, -38286.457 
4.752598e+2, 3.2445604e+2, 25495.734, -41307.96, -654.4226, -0.0015536497, -0.0010668515, 25502.145, 25502.145 
4.852803e+2, 3.480627e+1, -2518775.0, -2603339.8, 615.3537, 0.002390116, 0.008607299, -2518770.8, 80127.93 
4.8528066e+2, 4.4801563e+1, -2429271.8, -2519760.5, -2030.3081, -0.0020525448, -0.014305531, -2429226.3, 71718.38 
4.8528084e+2, 5.4796785e+1, -2332819.5, -2422814.8, -1985.2626, 0.0011595763, -0.00046138815, -2332775.8, 70215.76 
4.8528084e+2, 6.47913e+1, -2245152.8, -2343121.5, -3107.5344, 0.0017141767, 0.0047413423, -2245054.3, 59990.98 
4.8528066e+2, 7.478512e+1, -2149421.0, -2246418.3, -3349.412, -0.00053462206, -0.0013314191, -2149305.5, 57800.24 
4.8528033e+2, 8.4778345e+1, -2061892.8, -2167419.5, -4915.9614, -0.0011730172, -0.002305835, -2061664.3, 47507.91 
4.8527983e+2, 9.4771e+1, -1964678.3, -2069956.3, -4937.0366, -0.00009078298, 0.00013696693, -1964447.3, 46796.98 
4.852792e+2, 1.0476301e+2, -1876823.8, -1990272.5, -5652.8745, 0.00065713463, 0.0012347468, -1876542.8, 36779.707 
4.8527852e+2, 1.147544e+2, -1781346.1, -1893606.8, -5805.8926, 0.0010463286, -0.0011648004, -1781046.6, 34360.164 
4.8527768e+2, 1.24745205e+2, -1693926.8, -1814113.3, -6748.3174, 0.0005752873, -0.001250369, -1693549.0, 23947.88 
4.8527676e+2, 1.3473544e+2, -1597480.9, -1716961.4, -6788.486, -0.0008556838, -0.0008455291, -1597096.4, 22496.377 
4.8527578e+2, 1.4472502e+2, -1509824.3, -1637750.8, -7139.3413, -0.0006563335, 0.00030498873, -1509427.0, 12267.686 
4.852748e+2, 1.54714e+2, -1413286.9, -1540537.9, -7137.799, 0.0013537108, 0.00011496453, -1412887.8, 10914.996 
4.8527375e+2, 1.6470237e+2, -1325385.5, -1460306.0, -7473.99, 0.0013144483, 0.00013287284, -1324972.8, 943.89026 
4.8527262e+2, 1.7469019e+2, -1229692.9, -1363480.1, -7606.2046, -0.0010266416, -0.0018357531, -1229261.9, -1225.7218 
4.852715e+2, 1.8467736e+2, -1142522.9, -1284698.3, -7585.8574, -0.0013679815, -0.001582374, -1142119.3, -11957.518 
4.8527047e+2, 1.9466393e+2, -1045938.06, -1187470.1, -7484.715, 0.0005498319, -0.00085721374, -1045543.3, -13249.88 
4.852694e+2, 2.0464988e+2, -958114.6, -1107647.0, -7180.8726, 0.00088067487, 0.00020629205, -957770.56, -23339.486 
4.852684e+2, 2.1463524e+2, -862210.94, -1010725.6, -7145.0728, -0.00060242484, -0.0004944476, -861868.0, -25293.408 
4.8526743e+2, 2.2461998e+2, -774389.9, -931285.8, -6794.129, -0.00064991025, -0.00014024304, -774096.2, -35372.03 
4.852665e+2, 2.346041e+2, -677215.5, -833615.9, -6745.2964, 0.00094379706, -0.0009947408, -676925.1, -36045.426 
4.8526567e+2, 2.4458762e+2, -589772.06, -754469.7, -5707.2075, 0.0009822655, -0.0005654962, -589574.5, -46533.207 
4.8526502e+2, 2.545705e+2, -494651.75, -657646.4, -5655.821, -0.00078181014, -0.00072027434, -494455.75, -49246.9 
4.852644e+2, 2.645528e+2, -407260.53, -578939.1, -5053.1895, -0.0011520919, 0.00007061054, -407111.9, -59729.324 
4.8526388e+2, 2.7453446e+2, -309360.72, -480731.1, -4827.2134, 0.00012708124, -0.00038654474, -309224.84, -59662.445 
4.8526356e+2, 2.8451544e+2, -221980.73, -402769.22, -3124.9602, 0.0004920415, 0.00015391789, -221926.73, -70177.94 
4.8526347e+2, 2.9449576e+2, -125923.91, -305382.0, -3028.5046, -0.00026477536, -0.00076826155, -125872.81, -71931.26 
4.8526347e+2, 3.0447888e+2, -38906.25, -175388.27, -2072.914, -0.00026427978, -0.00096858246, -38874.773, -38874.773 
4.852636e+2, 3.144648e+2, -39611.2, -175300.33, -1785.9302, 0.00066255673, -0.0024517337, -39587.695, -39587.695 
4.8526385e+2, 3.2445538e+2, 23771.996, -43275.145, -311.58582, -0.0013766679, 0.0009544227, 23773.445, 23773.445 
4.9528754e+2, 3.4805584e+1, -2520690.8, -2607314.8, 10.851568, -0.0015554806, -0.0053722435, -2520690.8, 78214.34 
4.952879e+2, 4.480108e+1, -2429151.8, -2519579.0, -2359.88, 0.0063010044, 0.0049849963, -2429090.3, 71859.16 
4.9528787e+2, 5.479612e+1, -2332644.5, -2422538.0, -2323.71, -0.00039117315, -0.00072591635, -2332584.5, 70413.58 
4.9528772e+2, 6.479055e+1, -2245557.3, -2344004.0, -3636.1902, -0.0028503588, -0.001987326, -2245423.3, 59629.44 
4.9528748e+2, 7.4784386e+1, -2149828.3, -2247321.3, -3874.4832, -0.00061564875, -0.0003116734, -2149674.5, 57438.516 
4.9528706e+2, 8.477759e+1, -2061873.9, -2167446.0, -5076.8506, 0.000859002, 0.00017975594, -2061630.4, 47549.254 
4.9528646e+2, 9.477019e+1, -1964679.3, -2069992.8, -5094.705, 0.0014626984, -0.0027586215, -1964433.4, 46818.777 
4.9528575e+2, 1.04762174e+2, -1877124.1, -1990849.3, -6253.794, 0.0009098982, -0.0023244445, -1876781.3, 36549.453 
4.9528486e+2, 1.14753574e+2, -1781618.3, -1894192.9, -6410.633, -0.0009098368, -0.00020463338, -1781254.4, 34160.63 
4.952839e+2, 1.2474437e+2, -1693972.1, -1814226.1, -7117.8906, -0.0011043327, 0.001393413, -1693552.3, 23952.963 
4.952829e+2, 1.3473457e+2, -1597515.6, -1717074.3, -7156.1133, 0.00050883705, 0.00032734976, -1597088.9, 22512.432 
4.9528182e+2, 1.4472413e+2, -1509825.9, -1637738.9, -7490.9517, 0.0010331908, -0.00022006441, -1509388.6, 12314.731 
4.952807e+2, 1.547131e+2, -1413311.4, -1540551.5, -7488.178, 0.00034362613, -0.002345023, -1412872.1, 10939.476 
4.9527952e+2, 1.6470146e+2, -1325650.9, -1460802.9, -8048.6064, -0.00025312853, -0.0015638053, -1325173.3, 752.33234 
4.9527827e+2, 1.7468926e+2, -1229929.6, -1363978.3, -8183.3643, -0.00074484723, 0.00024459604, -1229431.9, -1386.7988 
4.9527705e+2, 1.8467645e+2, -1142326.4, -1284348.0, -7929.81, -0.00025147307, 0.0013638384, -1141885.0, -11714.29 
4.9527588e+2, 1.9466302e+2, -1045752.56, -1187114.1, -7825.4507, 0.0013532497, -0.00033938707, -1045320.7, -13018.389 
4.9527472e+2, 2.0464899e+2, -958076.56, -1107515.8, -7702.0933, 0.0013091045, -0.0008900501, -957680.6, -23240.732 
4.9527353e+2, 2.1463434e+2, -862159.94, -1010608.4, -7673.498, -0.00063003186, -0.0022704005, -861764.4, -25180.967 
4.9527246e+2, 2.2461909e+2, -774336.2, -931114.44, -7016.941, -0.0010996374, -0.0010291421, -774022.75, -35289.98 
4.9527144e+2, 2.3460327e+2, -677186.3, -833476.8, -6955.7837, 0.00014807128, 0.0008091867, -676877.4, -35989.434 
4.9527055e+2, 2.445868e+2, -589777.8, -754405.5, -6440.3345, 0.00032399103, 0.0014934132, -589526.25, -46476.81 
4.9526966e+2, 2.5456968e+2, -494597.8, -657581.06, -6407.844, -0.0007655847, -0.0012544204, -494346.28, -49129.13 
4.952689e+2, 2.6455197e+2, -406882.2, -578098.1, -5147.591, -0.0007544774, -0.00169567, -406727.56, -59336.883 
4.952684e+2, 2.745337e+2, -309010.38, -479897.72, -4898.205, 0.0005689949, -0.0017810127, -308870.1, -59300.223 
4.95268e+2, 2.845147e+2, -221972.92, -402623.53, -3660.689, 0.000724491, 0.000506675, -221898.77, -70143.04 
4.952677e+2, 2.9449508e+2, -125916.87, -305268.8, -3586.1663, -0.00055950525, 0.0029847429, -125845.19, -71897.086 
4.952676e+2, 3.0447823e+2, -38487.977, -174440.06, -2299.8484, -0.0010489816, 0.0013566128, -38449.082, -38449.082 
4.9526766e+2, 3.1446418e+2, -39177.38, -174320.3, -2000.4756, -0.0005370909, -0.0074321046, -39147.773, -39147.773 
4.952679e+2, 3.244548e+2, 23250.926, -44215.12, -500.18713, -0.0009881135, 0.0029076738, 23254.635, 23254.635 
5.052949e+2, 3.480503e+1, -2517939.0, -2605027.3, -583.8423, -0.002071474, -0.009385969, -2517935.0, 80975.555 
5.052951e+2, 4.4800636e+1, -2428074.3, -2519696.8, -1403.5294, 0.006056936, 0.010865239, -2428052.8, 72901.07 
5.0529504e+2, 5.479556e+1, -2331021.8, -2422430.8, -1914.3184, -0.0006887444, -0.0008256072, -2330981.8, 72021.79 
5.0529474e+2, 6.4789915e+1, -2243339.5, -2343316.0, -3657.4302, -0.002940092, -0.00413298, -2243206.0, 61852.906 
5.052943e+2, 7.4783736e+1, -2147406.3, -2246517.8, -3701.0574, -0.00019813853, -0.00023723226, -2147268.3, 59851.03 
5.0529385e+2, 8.4776926e+1, -2059951.6, -2166861.8, -4743.298, 0.0012726706, 0.0011283027, -2059741.5, 49444.61 
5.0529313e+2, 9.476948e+1, -1964081.8, -2070043.4, -4966.3154, 0.0013089435, -0.0024001717, -1963849.5, 47409.586 
5.052923e+2, 1.04761444e+2, -1876660.9, -1990763.4, -6293.9395, 0.0005554793, -0.0022567653, -1876314.8, 37023.11 
5.052913e+2, 1.1475283e+2, -1780351.1, -1893692.4, -6249.7266, -0.0010621614, -0.000085632484, -1780007.5, 35414.72 
5.052902e+2, 1.247436e+2, -1692485.5, -1813823.6, -6823.743, -0.0010479859, 0.0013427533, -1692102.9, 25409.764 
5.052891e+2, 1.3473377e+2, -1596274.9, -1716775.1, -6993.1313, 0.000773854, -0.00014761832, -1595870.4, 23738.678 
5.052879e+2, 1.4472333e+2, -1509036.3, -1637366.9, -7507.1357, 0.0010703106, -0.0006018012, -1508598.6, 13112.677 
5.0528663e+2, 1.5471229e+2, -1413722.0, -1540722.8, -7492.862, -0.00032508938, -0.002054744, -1413281.4, 10538.055 
5.0528526e+2, 1.6470067e+2, -1326264.3, -1461242.4, -7893.638, -0.00064083113, -0.0010556848, -1325804.1, 129.26009 
5.0528395e+2, 1.7468846e+2, -1229452.6, -1363875.6, -7877.326, 0.00024280748, 0.00046670032, -1228992.5, -939.3956 
5.052826e+2, 1.8467563e+2, -1141625.3, -1283945.6, -7669.139, 0.0006535741, 0.0013349326, -1141213.1, -11034.392 
5.0528127e+2, 1.946622e+2, -1046071.94, -1187204.4, -7719.8696, 0.0005217627, -0.0005734701, -1045650.94, -13340.586 
5.0527996e+2, 2.0464818e+2, -958742.5, -1107751.0, -7677.4956, 0.00026417887, -0.0009159589, -958347.94, -23900.09 
5.052787e+2, 2.1463354e+2, -862492.4, -1010681.06, -7654.108, -0.00015124916, -0.0016090145, -862098.06, -25506.887 
5.0527745e+2, 2.2461832e+2, -775031.0, -931248.8, -6897.6963, -0.00024412922, -0.00052329875, -774727.0, -35986.547 
5.052764e+2, 2.346025e+2, -679223.06, -834238.3, -6789.0825, 0.00006140738, 0.00019069224, -678926.3, -38030.76 
5.052753e+2, 2.4458604e+2, -591629.75, -755025.7, -6289.2715, -0.00004485473, 0.00077175914, -591388.0, -48331.195 
5.052743e+2, 2.5456896e+2, -494610.47, -657303.94, -6131.949, -0.00064676214, -0.00089683273, -494379.7, -49155.49 
5.0527346e+2, 2.6455128e+2, -406775.56, -577715.9, -4753.6646, -0.00062414893, -0.0009986453, -406643.47, -59246.02 
5.052728e+2, 2.7453303e+2, -310932.75, -480486.22, -4701.3066, 0.00013709023, -0.0016043216, -310802.47, -61226.117 
5.0527227e+2, 2.8451407e+2, -224780.05, -403748.9, -3654.3406, 0.0004516642, 0.00005405321, -224705.47, -72943.44 
5.0527185e+2, 2.9449448e+2, -128127.82, -306124.56, -3514.8645, 0.00019005236, 0.0017756505, -128058.44, -74104.17 
5.052717e+2, 3.0447766e+2, -40394.305, -174857.55, -2063.0122, -0.00034832215, 0.0012771933, -40362.66, -40362.66 
5.052716e+2, 3.1446368e+2, -41423.4, -174896.95, -1939.8292, -0.0011766038, -0.0040760892, -41395.215, -41395.215 
5.052718e+2, 3.2445434e+2, 21041.633, -44050.906, 13.594437, -0.00130635, 0.0014654907, 21041.635, 21041.635 
5.153023e+2, 3.48046e+1, -2515062.0, -2599169.5, -1613.2362, 0.0004424164, -0.0045035076, -2515031.3, 83883.766 
5.153023e+2, 4.4800237e+1, -2428890.5, -2521490.3, -1630.5021, -0.001873791, 0.0047834823, -2428861.8, 72095.9 
5.153022e+2, 5.4795086e+1, -2331967.3, -2424395.8, -2102.8706, 0.000104738785, -0.000779845, -2331919.5, 71088.66 
5.153019e+2, 6.478939e+1, -2243411.0, -2343475.5, -4115.311, 0.00093131245, -0.0021876704, -2243242.0, 61821.957 
5.1530135e+2, 7.478317e+1, -2147429.5, -2246623.8, -4166.545, 0.00064850703, -0.0010019947, -2147254.8, 59870.06 
5.1530063e+2, 8.477633e+1, -2060322.4, -2167682.5, -5236.4233, 0.00023109013, 0.00070824276, -2060067.5, 49124.46 
5.152998e+2, 9.476886e+1, -1964473.8, -2070897.4, -5452.458, -0.00039066758, 0.0008632128, -1964195.1, 47070.094 
5.152989e+2, 1.047608e+2, -1876557.9, -1990542.4, -6677.414, -0.00036122047, 0.0010548766, -1876168.0, 37176.105 
5.152977e+2, 1.14752166e+2, -1780222.0, -1893454.9, -6639.5576, 0.00038349515, -0.00071541005, -1779834.0, 35594.79 
5.152966e+2, 1.2474291e+2, -1692795.0, -1814446.4, -7250.463, 0.0005367002, -0.0011127553, -1692364.4, 25155.055 
5.1529527e+2, 1.3473304e+2, -1596614.9, -1717439.9, -7413.0913, 0.00003234108, -0.0020862252, -1596161.8, 23454.451 
5.1529396e+2, 1.447226e+2, -1509034.9, -1637327.8, -8152.697, -0.00038783357, -0.0008483108, -1508518.8, 13199.772 
5.1529247e+2, 1.5471159e+2, -1413666.1, -1540667.9, -8149.4863, -0.0007068861, 0.00069770456, -1413145.3, 10681.126 
5.152911e+2, 1.6469997e+2, -1326208.1, -1461131.3, -8191.6973, -0.0000021334704, 0.0014331434, -1325712.5, 227.79744 
5.152896e+2, 1.7468771e+2, -1229425.5, -1363790.9, -8166.371, 0.0018459442, -0.0009716843, -1228931.0, -870.64105 
5.152882e+2, 1.8467487e+2, -1141755.1, -1284179.6, -8268.899, 0.0013493606, -0.0013532692, -1141276.6, -11090.514 
5.152866e+2, 1.9466145e+2, -1046192.3, -1187456.9, -8325.963, -0.0017977802, -0.0014762807, -1045703.3, -13385.573 
5.152852e+2, 2.0464745e+2, -958724.3, -1107639.8, -8110.9326, -0.0021246213, 0.000023846458, -958283.8, -23828.74 
5.152838e+2, 2.1463284e+2, -862461.06, -1010565.4, -8081.6865, 0.00076478743, 0.0012391035, -862021.3, -25423.158 
5.1528245e+2, 2.2461762e+2, -774890.9, -930890.5, -7446.2427, 0.001760485, 0.0012365557, -774536.25, -35788.844 
5.152812e+2, 2.3460177e+2, -679072.25, -833891.4, -7346.444, 0.00058061077, -0.002598828, -678724.44, -37821.79 
5.1528e+2, 2.4458534e+2, -591386.56, -754436.5, -6565.7866, -0.00017744757, -0.0024383876, -591122.6, -48058.992 
5.1527894e+2, 2.5456834e+2, -494379.06, -656740.0, -6400.7607, -0.00045722205, 0.00026064145, -494127.13, -48896.934 
5.15278e+2, 2.6455072e+2, -406825.0, -577652.06, -5348.648, -0.0007679192, 0.0019135302, -406657.7, -59254.66 
5.1527715e+2, 2.7453244e+2, -310956.63, -480447.94, -5309.681, -0.0011016142, -0.000012896531, -310790.47, -61208.453 
5.152765e+2, 2.845135e+2, -224637.36, -403311.03, -4056.6306, -0.00029342127, -0.0011178217, -224545.3, -72777.54 
5.15276e+2, 2.9449385e+2, -127996.6, -305675.84, -3902.5388, 0.0018413727, -0.003896452, -127910.93, -73950.81 
5.152757e+2, 3.0447713e+2, -40311.2, -174579.94, -2356.65, 0.0016509193, -0.00096440373, -40269.85, -40269.85 
5.152756e+2, 3.144633e+2, -41359.117, -174640.0, -2233.753, -0.0013219463, 0.0067646047, -41321.69, -41321.69 
5.1527566e+2, 3.2445392e+2, 22769.39, -40304.17, -320.25122, -0.002303685, -0.0030253292, 22771.016, 22771.016 
5.253098e+2, 3.4804374e+1, -2513620.3, -2598780.8, -557.4469, 0.0017621256, 0.0014404552, -2513616.5, 85300.68 
5.253096e+2, 4.479984e+1, -2425613.8, -2520407.0, -1956.5763, -0.00390637, -0.0025204886, -2425573.3, 75388.19 
5.2530944e+2, 5.4794717e+1, -2330448.5, -2424191.8, -1842.3097, 0.00040732324, -0.00082773174, -2330412.3, 72599.42 
5.253091e+2, 6.4789003e+1, -2242259.8, -2343237.5, -3530.0996, 0.0020302224, 0.00028228006, -2242136.5, 62931.28 
5.2530843e+2, 7.478273e+1, -2145358.0, -2245948.0, -3730.3472, 0.0008839919, -0.0011540861, -2145219.8, 61909.36 
5.2530754e+2, 8.477585e+1, -2058131.8, -2166951.8, -5038.2144, -0.000076524135, -0.0002454109, -2057899.0, 51297.75 
5.253066e+2, 9.4768363e+1, -1963001.3, -2070517.9, -5071.439, -0.00089499366, 0.0011006843, -1962762.5, 48507.543 
5.253055e+2, 1.04760274e+2, -1875402.8, -1990330.5, -6137.3555, -0.0006066452, 0.0015435304, -1875075.9, 38273.434 
5.2530426e+2, 1.147516e+2, -1778983.8, -1893182.5, -6414.435, 0.0009059172, -0.0010105792, -1778624.6, 36809.707 
5.25303e+2, 1.24742314e+2, -1691757.5, -1814077.0, -7251.0645, 0.0011235828, -0.001400958, -1691329.1, 26196.133 
5.253015e+2, 1.3473244e+2, -1596436.5, -1717486.6, -7184.862, -0.00010964687, -0.0014831958, -1596011.6, 23610.46 
5.253e+2, 1.4472198e+2, -1508882.1, -1637398.5, -7837.284, -0.00065225107, -0.00017621179, -1508405.9, 13318.609 
5.252985e+2, 1.5471096e+2, -1412563.0, -1540262.3, -7955.2456, -0.0004117753, 0.00052068825, -1412069.3, 11763.283 
5.2529687e+2, 1.6469933e+2, -1325100.4, -1460639.5, -8039.728, 0.00024652915, 0.0009701973, -1324625.1, 1321.4285 
5.252953e+2, 1.7468707e+2, -1229599.1, -1363906.8, -8082.1274, 0.0013713788, -0.0010895007, -1229114.5, -1047.9218 
5.252937e+2, 1.8467423e+2, -1142419.0, -1284434.6, -8261.082, 0.000840109, -0.0012141337, -1141940.1, -11747.745 
5.25292e+2, 1.9466083e+2, -1046661.3, -1187595.8, -8166.6655, -0.001571429, -0.0011801624, -1046189.6, -13865.802 
5.252904e+2, 2.0464683e+2, -959004.94, -1107703.5, -7717.4253, -0.0017160322, 0.00014513693, -958605.5, -24144.348 
5.2528894e+2, 2.1463221e+2, -862670.8, -1010572.7, -7677.4185, 0.00073027477, 0.0008054442, -862273.3, -25669.111 
5.252874e+2, 2.24617e+2, -775113.6, -930882.6, -7240.4834, 0.0014522439, 0.0008341779, -774777.8, -36024.48 
5.25286e+2, 2.3460118e+2, -679526.44, -833981.2, -7229.2964, 0.00017315522, -0.0022800432, -679188.8, -38280.45 
5.2528465e+2, 2.4458478e+2, -592421.56, -754688.3, -6389.6943, -0.00033547482, -0.0020908432, -592170.3, -49101.156 
5.252835e+2, 2.545678e+2, -496509.94, -657503.5, -6361.133, 0.000057924106, -0.00018088799, -496259.0, -51023.387 
5.252824e+2, 2.6455018e+2, -409083.25, -578543.8, -5390.7036, -0.00024685587, 0.001468722, -408911.94, -61503.703 
5.252814e+2, 2.7453196e+2, -312273.78, -480873.44, -5248.2173, -0.0013765409, 0.0004910952, -312110.56, -62523.61 
5.2528065e+2, 2.8451303e+2, -225405.7, -403042.94, -3841.8445, -0.00089608505, -0.0006067624, -225322.64, -73550.31 
5.2528006e+2, 2.9449344e+2, -129210.49, -305645.16, -3503.0, 0.0014713531, -0.004506601, -129140.97, -75176.76 
5.252796e+2, 3.044767e+2, -42449.313, -175557.0, -1831.767, 0.0015238093, -0.0013781996, -42424.11, -42424.11 
5.2527934e+2, 3.1446293e+2, -44087.426, -175936.38, -1845.7396, -0.0011932265, 0.008147831, -44061.594, -44061.594 
5.252793e+2, 3.244536e+2, 20211.736, -40567.875, -568.44714, -0.001720948, -0.003995406, 20217.053, 20217.053 
5.3531736e+2, 3.4804332e+1, -2516454.8, -2604719.5, -183.72762, 0.0019640194, 0.008337541, -2516454.3, 82463.266 
5.353171e+2, 4.479945e+1, -2425427.8, -2520102.0, -2576.2036, -0.00072698237, -0.010880625, -2425357.8, 75607.625 
5.3531677e+2, 5.479443e+1, -2330172.0, -2423740.8, -2488.5007, 0.00024873522, -0.0009591677, -2330106.0, 72908.56 
5.353162e+2, 6.478874e+1, -2242542.0, -2343919.5, -3769.6616, 0.000637902, 0.0032180196, -2242402.3, 62668.18 
5.353155e+2, 7.47824e+1, -2145718.8, -2246680.8, -3960.1545, 0.0005617277, -0.00075921084, -2145563.8, 61568.797 
5.3531456e+2, 8.4775466e+1, -2058194.4, -2167073.3, -5716.757, 0.00025589336, -0.0016695422, -2057895.0, 51305.426 
5.353134e+2, 9.476796e+1, -1962994.1, -2070599.0, -5760.24, -0.00036924213, -0.0013442122, -1962686.6, 48587.33 
5.353121e+2, 1.0475984e+2, -1875856.8, -1991346.3, -6510.0957, -0.00028144146, -0.00046798016, -1875491.0, 37862.55 
5.3531086e+2, 1.14751115e+2, -1779493.6, -1894253.4, -6769.171, 0.00059315824, -0.0010096759, -1779095.8, 36343.39 
5.353094e+2, 1.2474182e+2, -1691650.1, -1813836.0, -7887.032, 0.00079893536, 0.00023661173, -1691143.1, 26387.01 
5.353078e+2, 1.3473198e+2, -1596285.0, -1717210.8, -7833.9375, 0.00025873128, 0.0013834466, -1595779.5, 23847.11 
5.3530616e+2, 1.447215e+2, -1509073.4, -1637803.0, -8246.26, 0.00013018538, 0.001315556, -1508547.3, 13181.998 
5.353044e+2, 1.547104e+2, -1412774.4, -1540706.8, -8354.987, 0.00045581677, -0.0022575574, -1412231.0, 11606.975 
5.3530276e+2, 1.6469875e+2, -1325204.1, -1460842.1, -8650.644, 0.00011302901, -0.0021158806, -1324654.6, 1297.7174 
5.3530097e+2, 1.7468652e+2, -1229697.5, -1364113.9, -8697.095, -0.0009701478, -0.000024449208, -1229137.1, -1065.051 
5.352992e+2, 1.8467373e+2, -1142266.4, -1284046.0, -8805.899, -0.0007657179, 0.0014516405, -1141721.6, -11523.983 
5.3529745e+2, 1.946603e+2, -1046470.0, -1187200.8, -8716.992, 0.0009007298, 0.0001917727, -1045932.1, -13603.175 
5.3529567e+2, 2.046463e+2, -958963.9, -1107545.6, -8132.476, 0.0011647475, -0.00045406242, -958520.06, -24053.86 
5.35294e+2, 2.1463168e+2, -862671.94, -1010458.4, -8088.4614, -0.00017091527, -0.0025559217, -862230.56, -25621.102 
5.352924e+2, 2.2461648e+2, -775174.6, -930865.2, -7849.8687, -0.0009466896, -0.0014943688, -774779.9, -36021.473 
5.352908e+2, 2.3460072e+2, -679549.6, -833971.7, -7842.368, -0.0010892476, 0.00081660243, -679152.4, -38239.465 
5.352893e+2, 2.4458432e+2, -592412.44, -754673.6, -6937.3633, -0.0005360195, 0.001444687, -592116.4, -49042.71 
5.35288e+2, 2.545673e+2, -496486.44, -657500.7, -6903.3486, 0.00084109267, -0.0020488868, -496191.0, -50950.44 
5.352867e+2, 2.6454967e+2, -408910.63, -578080.5, -5735.2144, 0.00083141157, -0.001974616, -408716.4, -61303.234 
5.3528565e+2, 2.7453148e+2, -312127.66, -480432.13, -5584.0356, -0.0008094232, 0.000018596858, -311942.6, -62351.28 
5.3528476e+2, 2.8451267e+2, -224948.78, -401920.25, -4346.257, -0.0013909783, 0.0014149811, -224842.11, -73066.195 
5.35284e+2, 2.944932e+2, -128714.09, -304471.9, -4029.107, -0.00074535474, -0.0005838058, -128621.78, -74655.016 
5.352834e+2, 3.0447647e+2, -42576.117, -175761.31, -2285.5789, -0.0005489826, -0.00015393645, -42536.906, -42536.906 
5.352831e+2, 3.1446257e+2, -44263.715, -176221.36, -2281.732, -0.0008338051, 0.0010340426, -44224.273, -44224.273 
5.352829e+2, 3.2445326e+2, 19619.482, -41651.504, -932.22797, 0.0002283999, -0.0018249339, 19633.662, 19633.662 
5.453251e+2, 3.4804252e+1, -2513345.3, -2605342.0, -36.934185, 0.0014768272, 0.004335555, -2513345.3, 85573.21 
5.4532474e+2, 4.4799352e+1, -2423129.3, -2519114.5, -1992.327, 0.0013415124, -0.0063599898, -2423087.8, 77878.555 
5.453242e+2, 5.479428e+1, -2326870.5, -2422225.5, -2169.1484, 0.0000922491, -0.00089667155, -2326821.3, 76194.74 
5.4532355e+2, 6.4788544e+1, -2240029.5, -2343304.3, -3603.9868, -0.00046340076, 0.0017639133, -2239904.0, 65168.28 
5.453227e+2, 7.4782157e+1, -2145214.3, -2247062.5, -3840.1985, -0.00009785344, -0.0005302249, -2145069.5, 62065.258 
5.453216e+2, 8.477519e+1, -2057599.4, -2166982.8, -5581.4697, 0.00024824718, -0.0010709973, -2057315.4, 51887.797 
5.4532033e+2, 9.476766e+1, -1960600.5, -2069618.3, -5693.724, 0.0005025208, -0.0018083133, -1960304.0, 50972.945 
5.453189e+2, 1.04759514e+2, -1873439.8, -1990518.6, -6511.1245, 0.00045299358, -0.0010497614, -1873078.9, 40277.926 
5.453175e+2, 1.14750765e+2, -1778767.9, -1894255.0, -6497.867, 0.00007699836, -0.00066475413, -1778403.4, 37039.1 
5.453158e+2, 1.2474145e+2, -1691343.4, -1813797.4, -7527.3125, -0.000040040784, 0.0007050005, -1690882.4, 26651.395 
5.453141e+2, 1.3473158e+2, -1595341.6, -1716831.3, -7670.225, 0.000118564676, 0.001093102, -1594859.3, 24771.238 
5.453123e+2, 1.447211e+2, -1508111.5, -1637536.6, -8082.85, 0.00042782855, 0.0009812117, -1507608.8, 14124.541 
5.4531044e+2, 1.5471e+2, -1412433.6, -1540738.8, -8108.838, 0.00090370805, -0.0018471006, -1411923.1, 11918.962 
5.4530853e+2, 1.6469832e+2, -1325151.5, -1460805.5, -8474.568, 0.0003205548, -0.0015955627, -1324624.1, 1332.354 
5.4530656e+2, 1.7468609e+2, -1229853.0, -1364169.6, -8431.941, -0.001451737, -0.00009315418, -1229325.8, -1249.5319 
5.453047e+2, 1.8467328e+2, -1142300.5, -1284116.0, -8427.524, -0.001193981, 0.0011701062, -1141801.5, -11599.688 
5.453028e+2, 1.9465989e+2, -1046080.94, -1187021.0, -8525.445, 0.0013612558, 0.000117256146, -1045567.1, -13234.004 
5.453009e+2, 2.0464587e+2, -958962.7, -1107482.4, -8183.4766, 0.0017238645, -0.00037668407, -958513.1, -24042.78 
5.4529905e+2, 2.1463127e+2, -864205.6, -1011130.1, -8153.841, -0.00042068947, -0.0023886506, -863754.5, -27140.98 
5.4529727e+2, 2.246161e+2, -777021.56, -931514.3, -7723.383, -0.0013537173, -0.0012905073, -776636.4, -37874.1 
5.4529554e+2, 2.3460034e+2, -680488.06, -834163.44, -7574.016, -0.0008953392, 0.0009952115, -680115.7, -39199.03 
5.4529387e+2, 2.4458395e+2, -592851.0, -754667.1, -6596.9883, -0.0003272836, 0.0016469482, -592582.5, -49505.316 
5.4529244e+2, 2.5456697e+2, -496882.4, -657456.2, -6458.8247, 0.0003803778, -0.0017474571, -496623.03, -51379.184 
5.45291e+2, 2.6454934e+2, -409826.1, -578090.44, -5239.246, 0.0003996786, -0.0020102507, -409663.13, -62246.906 
5.452898e+2, 2.7453122e+2, -314616.1, -481167.0, -5047.048, -0.00039900112, -0.0008793106, -314463.28, -64869.242 
5.4528874e+2, 2.8451243e+2, -227883.34, -403107.7, -3787.241, -0.000835911, 0.001090566, -227801.52, -76023.26 
5.4528785e+2, 2.94493e+2, -130607.516, -305133.7, -3878.1614, -0.00089113036, 0.0013963927, -130521.38, -76552.695 
5.452872e+2, 3.0447632e+2, -43877.063, -175771.4, -2271.5286, -0.0010079633, 0.00045364388, -43837.953, -43837.953 
5.4528666e+2, 3.144624e+2, -46025.992, -176431.97, -1781.821, -0.0011328867, -0.0042081927, -46001.65, -46001.65 
5.452864e+2, 3.2445323e+2, 16977.838, -42561.54, 139.3777, 0.00092543894, 0.0008342765, 16978.164, 16978.164 
5.553329e+2, 3.4804136e+1, -2513371.5, -2605384.8, -952.5115, 0.00033715466, -0.009246007, -2513361.8, 85557.77 
5.553325e+2, 4.4799507e+1, -2423387.5, -2519709.5, -2377.5127, 0.0024049457, 0.009513068, -2423328.8, 77636.0 
5.5533177e+2, 5.4794234e+1, -2327153.5, -2422835.5, -2553.8037, -0.00009240896, -0.00066664495, -2327085.3, 75931.11 
5.5533093e+2, 6.478839e+1, -2240423.0, -2344199.5, -4347.9, -0.0013418177, -0.00356133, -2240241.0, 64832.652 
5.5532986e+2, 7.4781996e+1, -2145564.5, -2247941.5, -4578.061, -0.0010707433, -0.00044515543, -2145360.0, 61776.344 
5.5532867e+2, 8.4775007e+1, -2057717.1, -2167345.8, -5784.3804, -0.000074133226, 0.0013130653, -2057412.8, 51792.17 
5.5532736e+2, 9.476744e+1, -1960795.0, -2070013.3, -5888.2944, 0.0016474831, -0.0005232759, -1960478.4, 50800.66 
5.553258e+2, 1.04759276e+2, -1873442.8, -1990493.1, -7294.5957, 0.0015232369, -0.00036450758, -1872989.9, 40369.195 
5.55324e+2, 1.1475053e+2, -1778711.6, -1894202.8, -7295.9106, -0.0006339067, -0.000014280684, -1778252.5, 37192.29 
5.553223e+2, 1.2474119e+2, -1691551.4, -1814284.4, -8006.112, -0.0013630948, 0.00014206776, -1691031.3, 26505.092 
5.553204e+2, 1.3473126e+2, -1595557.3, -1717347.1, -8140.7813, -0.000498127, -0.0019860833, -1595015.5, 24618.076 
5.553185e+2, 1.4472076e+2, -1508164.5, -1637650.3, -8635.34, 0.00027719626, -0.0009654664, -1507591.1, 14145.359 
5.5531645e+2, 1.547097e+2, -1412496.0, -1540870.9, -8662.478, 0.0009521178, 0.0013907118, -1411914.1, 11930.858 
5.553144e+2, 1.6469805e+2, -1325082.1, -1460627.6, -9137.579, 0.0007945504, 0.002130668, -1324468.9, 1490.3589 
5.553123e+2, 1.7468579e+2, -1229747.8, -1363979.9, -9103.269, -0.00030037088, -0.0011582029, -1229133.3, -1053.9479 
5.553102e+2, 1.8467294e+2, -1142493.5, -1284466.0, -8859.057, -0.00059912127, -0.0017232171, -1141942.9, -11737.769 
5.553081e+2, 1.9465953e+2, -1046310.3, -1187430.1, -8944.539, 0.000005058962, -0.0012386382, -1045745.7, -13409.1045 
5.553061e+2, 2.0464554e+2, -958978.94, -1107405.9, -8969.125, 0.0001900998, 0.00031137682, -958438.94, -23965.215 
5.55304e+2, 2.1463096e+2, -864166.8, -1011020.1, -8950.926, -0.00010833816, 0.0009218052, -863623.25, -27006.674 
5.553021e+2, 2.246158e+2, -776752.94, -930945.7, -8098.27, -0.000010380305, 0.0011753116, -776328.75, -37563.547 
5.5530024e+2, 2.3460004e+2, -680245.4, -833617.1, -7940.7754, 0.0005700963, -0.0014211148, -679835.4, -38915.77 
5.552985e+2, 2.445837e+2, -592687.75, -754236.56, -7122.4995, 0.00022352189, -0.0011189391, -592374.3, -49294.523 
5.5529684e+2, 2.5456676e+2, -496714.94, -657065.06, -6990.263, -0.0012115742, 0.00049045915, -496410.78, -51165.09 
5.552953e+2, 2.6454923e+2, -409590.53, -577469.9, -5989.4683, -0.0014146814, 0.00100194, -409377.13, -61959.496 
5.5529386e+2, 2.7453107e+2, -314309.13, -480526.2, -5814.706, -0.00015044241, -0.0021517253, -314105.94, -64510.59 
5.5529267e+2, 2.8451228e+2, -228101.16, -403517.88, -4048.0354, 0.0006337229, -0.0013234338, -228007.8, -76228.21 
5.552917e+2, 2.9449287e+2, -130916.52, -305649.9, -4100.7676, 0.000784579, 0.0016330774, -130820.336, -76850.25 
5.552909e+2, 3.044762e+2, -43219.37, -174206.83, -2807.4565, -0.00005905763, 0.000509575, -43159.227, -43159.227 
5.552902e+2, 3.1446236e+2, -45287.066, -174752.19, -2346.937, -0.0020323158, -0.007771022, -45244.535, -45244.535 
5.552898e+2, 3.244534e+2, 17755.795, -40803.92, -529.1895, 0.00046446302, 0.003929572, 17760.576, 17760.576 
5.6534076e+2, 3.48043e+1, -2511168.3, -2602759.5, -589.3094, 0.0006014492, -0.008181608, -2511164.5, 87753.46 
5.653402e+2, 4.4799674e+1, -2421571.8, -2519768.8, -1615.5635, 0.0007060687, 0.008819356, -2421545.3, 79417.94 
5.6533945e+2, 5.4794323e+1, -2325809.5, -2423204.8, -2130.7517, 0.00017907145, -0.00066794566, -2325763.0, 77252.664 
5.653384e+2, 6.478842e+1, -2238185.0, -2343287.3, -4071.544, -0.0003032176, -0.0033106247, -2238027.5, 67046.06 
5.653372e+2, 7.4782014e+1, -2142065.3, -2246382.8, -3991.2136, -0.0005830768, -0.00042773876, -2141912.8, 65223.45 
5.653358e+2, 8.4774995e+1, -2054955.9, -2166542.3, -5092.886, -0.00012945454, 0.0013289056, -2054723.9, 54481.207 
5.653344e+2, 9.4767374e+1, -1960473.1, -2070416.9, -5363.845, 0.0010647995, -0.00024880207, -1960212.1, 51067.65 
5.6533265e+2, 1.0475919e+2, -1873416.6, -1990533.1, -6941.889, 0.0010167008, -0.000014057799, -1873006.6, 40353.43 
5.6533074e+2, 1.1475043e+2, -1777289.8, -1893551.9, -7002.394, -0.00039900976, 0.00022538606, -1776869.6, 38576.254 
5.653288e+2, 1.2474106e+2, -1689793.4, -1813788.8, -7665.157, -0.0008474666, 0.00014953481, -1689321.4, 28216.21 
5.653268e+2, 1.3473111e+2, -1594236.1, -1717063.6, -7783.448, -0.00022710768, -0.0023516885, -1593744.9, 25890.258 
5.6532466e+2, 1.447206e+2, -1507239.6, -1637193.0, -8394.433, 0.00012277202, -0.0013270365, -1506699.6, 15038.627 
5.6532246e+2, 1.5470953e+2, -1412481.6, -1540830.8, -8365.284, 0.0001768294, 0.0014564797, -1411938.8, 11907.872 
5.6532025e+2, 1.6469786e+2, -1325227.0, -1460811.9, -8764.4795, 0.00034616966, 0.002355484, -1324662.8, 1298.1418 
5.65318e+2, 1.746856e+2, -1229157.1, -1363769.4, -8874.972, 0.0006329321, -0.001086781, -1228574.5, -493.4009 
5.653157e+2, 1.8467276e+2, -1142068.6, -1284253.3, -8683.616, 0.00032305502, -0.0017195217, -1141540.3, -11333.308 
5.6531346e+2, 1.9465935e+2, -1047291.8, -1187884.3, -8584.336, -0.00066756614, -0.0011991673, -1046769.6, -14431.243 
5.653112e+2, 2.0464535e+2, -959963.3, -1107722.0, -8480.935, -0.0008439266, 0.00035560926, -959478.1, -25002.62 
5.6530905e+2, 2.146308e+2, -863796.9, -1010668.8, -8405.971, -0.00008741635, 0.0009537195, -863317.3, -26699.186 
5.6530696e+2, 2.2461565e+2, -776439.25, -930735.5, -7600.298, 0.0005298137, 0.0010645032, -776065.75, -37299.06 
5.6530493e+2, 2.3459989e+2, -681452.8, -834156.25, -7688.144, 0.0010048505, -0.0018361687, -681066.75, -40145.65 
5.6530297e+2, 2.4458356e+2, -594656.1, -754749.2, -6980.9497, 0.0003879902, -0.0015178623, -594352.3, -51271.215 
5.653011e+2, 2.5456667e+2, -499134.9, -657740.25, -6782.704, -0.0015130001, 0.00049187464, -498845.38, -53598.844 
5.6529945e+2, 2.6454917e+2, -411588.2, -578272.25, -5763.404, -0.001785004, 0.0012139579, -411389.16, -63971.004 
5.652979e+2, 2.7453104e+2, -314526.44, -480455.38, -5803.727, -0.0001180591, -0.0019610326, -314323.7, -64727.934 
5.652966e+2, 2.8451228e+2, -228280.22, -403200.1, -4016.8127, 0.0009321696, -0.0016089025, -228188.02, -76408.25 
5.652954e+2, 2.9449287e+2, -133630.78, -306514.75, -3591.36, 0.0011806227, 0.00033470022, -133556.22, -79586.22 
5.652945e+2, 3.0447626e+2, -46774.305, -175219.17, -2077.8125, 0.00023587188, 0.00003725106, -46740.7, -46740.7 
5.6529367e+2, 3.1446254e+2, -48076.17, -175376.14, -1989.3821, -0.0020808293, -0.0051598614, -48045.09, -48045.09 
5.652931e+2, 3.244536e+2, 15715.084, -41356.41, -691.637, 0.00020134833, 0.0026355977, 15723.464, 15723.464 
5.7534873e+2, 3.4804708e+1, -2509222.5, -2598939.0, -759.09784, 0.002045027, 0.005734402, -2509216.0, 89698.0 
5.7534796e+2, 4.479986e+1, -2422429.3, -2521611.8, -2139.0942, -0.0034345258, -0.006375208, -2422383.0, 78578.24 
5.753471e+2, 5.479452e+1, -2326738.5, -2425165.5, -2627.2515, 0.00082196406, -0.00087339856, -2326668.5, 76345.18 
5.75346e+2, 6.478862e+1, -2237998.8, -2342980.0, -4474.4795, 0.0023795082, 0.0018267452, -2237808.5, 67263.164 
5.753447e+2, 7.478218e+1, -2141881.0, -2246040.3, -4408.654, 0.0011675234, -0.00047065396, -2141694.8, 65439.926 
5.753431e+2, 8.4775114e+1, -2055439.8, -2167575.5, -5937.5503, 0.000034525536, -0.00072865345, -2055126.3, 54077.66 
5.7534134e+2, 9.476744e+1, -1960930.8, -2071453.1, -6203.2803, -0.0010655153, -0.00085961376, -1960583.6, 50695.41 
5.753395e+2, 1.0475921e+2, -1873447.6, -1990708.5, -7375.474, -0.0009038842, 0.000046099456, -1872985.6, 40374.18 
5.7533747e+2, 1.14750445e+2, -1777340.8, -1893723.5, -7431.2573, 0.00064956845, 0.00010331751, -1776868.1, 38577.566 
5.753354e+2, 1.2474106e+2, -1690009.0, -1814247.9, -8243.652, 0.0012562122, 0.00065755274, -1689464.5, 28073.125 
5.753332e+2, 1.347311e+2, -1594475.9, -1717560.4, -8360.7705, 0.00079954375, -0.00031880362, -1593910.5, 25724.855 
5.7533085e+2, 1.4472055e+2, -1507210.4, -1637089.4, -9178.917, -0.00005617759, -0.00028410714, -1506564.9, 15173.772 
5.7532847e+2, 1.5470946e+2, -1412393.0, -1540702.6, -9162.351, -0.0013507974, -0.00127057, -1411742.0, 12105.232 
5.75326e+2, 1.6469778e+2, -1325413.6, -1461186.9, -9239.868, -0.00095302257, -0.0005034464, -1324787.8, 1173.9379 
5.7532364e+2, 1.7468554e+2, -1229381.1, -1364192.5, -9334.498, 0.0013538044, -0.000008025955, -1228737.8, -656.0174 
5.7532126e+2, 1.846727e+2, -1141947.0, -1283921.0, -9460.149, 0.0015091485, 0.0008513355, -1141319.5, -11111.931 
5.753188e+2, 1.9465931e+2, -1047123.6, -1187540.1, -9377.884, -0.00076349394, 0.000080034086, -1046500.06, -14161.213 
5.7531637e+2, 2.0464532e+2, -959826.4, -1107391.4, -8943.147, -0.001457403, -0.00016171782, -959286.4, -24810.518 
5.7531404e+2, 2.1463075e+2, -863691.2, -1010360.56, -8858.735, -0.00034377168, -0.0019177219, -863158.06, -26539.568 
5.753118e+2, 2.246156e+2, -776681.4, -931134.06, -8361.049, 0.00032726847, -0.0013287182, -776230.06, -37463.055 
5.753095e+2, 2.3459987e+2, -681679.44, -834583.8, -8450.53, 0.0004951426, -0.00047038822, -681213.8, -40292.5 
5.753074e+2, 2.4458355e+2, -594351.25, -754071.44, -7619.2964, 0.00018720992, 0.0001899257, -593988.6, -50907.39 
5.753054e+2, 2.5456667e+2, -498791.53, -657032.9, -7426.297, -0.00069568225, -0.0014901378, -498443.78, -53197.273 
5.753036e+2, 2.645492e+2, -411723.34, -578466.0, -6053.951, -0.0009059964, -0.0010591452, -411503.84, -64085.9 
5.7530195e+2, 2.7453107e+2, -314744.3, -480728.8, -6064.3457, -0.000298596, -0.00046760208, -314523.03, -64927.676 
5.753004e+2, 2.8451234e+2, -227755.14, -401850.75, -4871.7305, 0.00016199064, 0.0000026011862, -227618.92, -75839.914 
5.75299e+2, 2.94493e+2, -133004.84, -305069.16, -4489.8994, 0.00040184055, -0.0023281553, -132887.77, -78919.14 
5.752979e+2, 3.044765e+2, -46662.934, -174938.36, -2465.0642, -0.000087274646, -0.0009013736, -46615.582, -46615.582 
5.75297e+2, 3.144629e+2, -48016.938, -175178.94, -2344.9434, -0.0013790468, 0.002947592, -47973.71, -47973.71 
5.7529634e+2, 3.2445377e+2, 15350.189, -41957.066, -1029.7012, 0.00006454257, -0.0025805829, 15368.686, 15368.686 
5.8535683e+2, 3.4805188e+1, -2506086.8, -2599473.5, 69.456924, 0.001230693, 0.007410124, -2506086.5, 92822.625 
5.8535594e+2, 4.4800198e+1, -2419363.5, -2520232.5, -2527.0696, -0.001762816, -0.009338782, -2419300.3, 81657.695 
5.853549e+2, 5.4794884e+1, -2324100.5, -2423965.5, -2151.4705, 0.0005685533, -0.00047504986, -2324054.3, 78955.92 
5.853536e+2, 6.478896e+1, -2236333.8, -2342716.5, -3755.2656, 0.0015950741, 0.0032327017, -2236201.5, 68866.76 
5.853521e+2, 7.4782455e+1, -2141047.5, -2246202.8, -4202.938, 0.0013421482, -0.0006238578, -2140879.8, 66252.08 
5.853504e+2, 8.477535e+1, -2054265.9, -2167233.3, -5979.29, 0.00048182262, -0.0013146593, -2053950.3, 55251.273 
5.853484e+2, 9.476766e+1, -1958569.9, -2070519.8, -5904.5923, -0.0010868653, -0.0006428915, -1958259.4, 53017.582 
5.8534646e+2, 1.047594e+2, -1871026.0, -1989972.0, -6873.767, -0.0010425085, 0.00024868725, -1870630.1, 42727.73 
5.853443e+2, 1.1475059e+2, -1775841.1, -1893433.4, -7117.1304, 0.0007835875, -0.00060420035, -1775411.9, 40032.375 
5.8534205e+2, 1.2474119e+2, -1689227.5, -1813977.5, -8110.8525, 0.0014364527, 0.00019891011, -1688702.3, 28834.092 
5.853396e+2, 1.3473122e+2, -1594651.9, -1717729.8, -8079.358, 0.0007590827, 0.0007486696, -1594123.8, 25510.408 
5.853371e+2, 1.4472066e+2, -1507374.1, -1637380.9, -8823.327, -0.000047055702, 0.00075555104, -1506778.0, 14959.497 
5.8533454e+2, 1.5470953e+2, -1411392.0, -1540400.5, -8990.83, -0.0009861339, -0.0019805199, -1410768.5, 13078.075 
5.85332e+2, 1.6469784e+2, -1324240.8, -1460645.0, -9100.627, -0.0007729986, -0.0015974806, -1323636.3, 2324.791 
5.8532935e+2, 1.7468561e+2, -1229494.6, -1364248.0, -9009.543, 0.00074183336, 0.00004898523, -1228894.9, -813.7478 
5.8532673e+2, 1.8467277e+2, -1142450.9, -1284144.0, -9186.649, 0.00094049744, 0.00139659, -1141857.8, -11650.973 
5.853241e+2, 1.9465938e+2, -1047172.7, -1187516.8, -9245.328, -0.0003469455, 0.0003548592, -1046566.25, -14228.1875 
5.853215e+2, 2.046454e+2, -960047.8, -1107430.0, -8798.327, -0.00072681054, -0.00023995923, -959524.44, -25049.363 
5.85319e+2, 2.1463084e+2, -864905.3, -1010867.5, -8811.689, -0.000060749877, -0.0024443045, -864375.25, -27757.576 
5.8531654e+2, 2.2461571e+2, -778060.1, -931553.0, -8309.561, 0.0000780951, -0.001646405, -777611.56, -38845.55 
5.853141e+2, 2.346e+2, -682515.75, -834706.6, -8054.5386, -0.00039888808, 0.000202733, -682090.7, -41170.656 
5.8531183e+2, 2.445837e+2, -594931.75, -754303.3, -7118.3457, -0.00038371404, 0.00086813094, -594614.44, -51534.652 
5.853096e+2, 2.5456682e+2, -499245.47, -657194.6, -7241.779, 0.00019877304, -0.0019777084, -498914.13, -53669.016 
5.853076e+2, 2.6454934e+2, -412768.75, -578438.1, -5799.8223, 0.0001870945, -0.0016966477, -412565.97, -65149.64 
5.853058e+2, 2.745313e+2, -317952.78, -481715.38, -5366.469, -0.0005142702, -0.000021487876, -317777.1, -68183.96 
5.8530414e+2, 2.8451264e+2, -231331.17, -403124.34, -4169.682, -0.00055625546, 0.00077128195, -231230.03, -79453.734 
5.8530253e+2, 2.9449332e+2, -134758.97, -305432.06, -4192.7334, 0.00015632328, -0.0021520974, -134656.03, -80690.484 
5.853013e+2, 3.0447683e+2, -47755.98, -175023.16, -2152.2612, 0.0001449737, -0.0008956245, -47719.594, -47719.594 
5.853002e+2, 3.144633e+2, -49832.246, -175625.0, -1877.581, -0.00068694947, 0.0032795176, -49804.227, -49804.227 
5.8529943e+2, 3.2445416e+2, 12578.74, -43328.65, -344.63187, -0.0005383547, -0.0029606503, 12580.864, 12580.864 
5.9536505e+2, 3.4805736e+1, -2510126.0, -2607822.8, -678.6182, -0.001591589, -0.0015130343, -2510121.5, 88782.34 
5.953641e+2, 4.4800666e+1, -2418670.3, -2518847.3, -3097.4998, 0.0049443254, -0.001652794, -2418574.5, 82378.95 
5.953628e+2, 5.479539e+1, -2323294.3, -2422371.8, -2761.1704, -0.0004902674, 0.0004396494, -2323217.5, 79787.74 
5.953613e+2, 6.478944e+1, -2237065.8, -2344345.5, -4389.4385, -0.0022382573, 0.001385058, -2236886.5, 68176.96 
5.953596e+2, 7.478283e+1, -2141830.5, -2247909.5, -4817.057, 0.0001228915, -0.00087070593, -2141612.3, 65516.035 
5.953578e+2, 8.477568e+1, -2054066.9, -2166931.5, -6493.3027, 0.0011562788, -0.0006144662, -2053694.5, 55503.81 
5.953557e+2, 9.4768023e+1, -1958367.4, -2070178.3, -6429.264, 0.0007037917, 0.0002936835, -1957998.9, 53274.563 
5.9535354e+2, 1.0475974e+2, -1871455.4, -1990892.4, -7540.2876, 0.00034845553, 0.00057825784, -1870981.1, 42373.426 
5.9535116e+2, 1.1475084e+2, -1776295.9, -1894395.1, -7775.431, 0.000104380626, -0.0018216571, -1775786.1, 39655.676 
5.9534866e+2, 1.2474141e+2, -1689164.3, -1813862.3, -8923.858, -0.00009568884, -0.0011014796, -1688528.8, 29005.412 
5.9534603e+2, 1.3473146e+2, -1594527.3, -1717568.3, -8901.145, -0.00024646608, 0.0009733884, -1593886.6, 25745.053 
5.953434e+2, 1.447209e+2, -1507620.5, -1637974.9, -9303.677, 0.000107475884, 0.0017927358, -1506959.9, 14775.317 
5.953406e+2, 1.5470973e+2, -1411691.5, -1541056.0, -9455.657, 0.0010110214, -0.0009157525, -1411004.0, 12840.61 
5.9533787e+2, 1.6469803e+2, -1324132.5, -1460354.1, -9875.683, 0.0006708246, -0.0011324066, -1323420.3, 2539.1182 
5.95335e+2, 1.7468579e+2, -1229359.8, -1363932.4, -9799.141, -0.0010582212, -0.00078664126, -1228650.0, -570.74884 
5.953322e+2, 1.8467297e+2, -1142568.1, -1284320.9, -9847.141, -0.0011940175, 0.0001630063, -1141887.3, -11682.367 
5.953294e+2, 1.9465956e+2, -1047278.44, -1187722.5, -9899.843, 0.0004902198, -0.00025327032, -1046584.0, -14247.723 
5.9532666e+2, 2.0464559e+2, -960102.06, -1107518.1, -9489.345, 0.001161281, 0.00007191805, -959493.75, -25020.453 
5.953239e+2, 2.1463102e+2, -864963.06, -1010974.7, -9502.006, 0.0006775461, -0.00089726894, -864347.3, -27731.438 
5.9532124e+2, 2.2461592e+2, -777638.1, -930621.8, -8919.269, -0.00024149028, -0.00012325645, -777119.9, -38355.95 
5.953187e+2, 2.3460026e+2, -682077.9, -833750.9, -8669.92, -0.0016577968, 0.00026183174, -681583.9, -40666.527 
5.953162e+2, 2.4458398e+2, -595224.5, -754814.9, -7715.523, -0.001300317, 0.0006372841, -594852.3, -51775.4 
5.9531385e+2, 2.545671e+2, -499572.28, -657782.3, -7823.6387, 0.0011283333, -0.0011375459, -499186.34, -53943.75 
5.9531164e+2, 2.6454964e+2, -412129.6, -576999.5, -6619.889, 0.0014300598, -0.00087596907, -411864.22, -64450.71 
5.9530956e+2, 2.7453166e+2, -317242.9, -480182.44, -6215.8296, -0.0007839422, -0.0005041918, -317006.13, -67416.766 
5.953077e+2, 2.8451306e+2, -231418.23, -403174.25, -4599.521, -0.001254602, 0.0007906766, -231295.16, -79523.23 
5.9530604e+2, 2.9449376e+2, -134918.31, -305576.3, -4592.9326, 0.00035191025, 0.00054462964, -134794.8, -80833.77 
5.953046e+2, 3.044773e+2, -47471.89, -174286.52, -2687.1082, 0.0008371648, -0.00005130007, -47414.977, -47414.977 
5.953034e+2, 3.144637e+2, -49538.715, -174854.88, -2424.5789, -0.000014976794, -0.0033115507, -49491.824, -49491.824 
5.953024e+2, 3.2445478e+2, 12617.797, -43040.047, -819.87134, -0.00159179, 0.00096123543, 12629.871, 12629.871 
6.0537344e+2, 3.4806502e+1, -2507020.3, -2606761.0, -666.7866, -0.0012047566, -0.0040349877, -2507016.0, 91880.34 
6.053722e+2, 4.4801438e+1, -2416459.5, -2518504.5, -1328.2606, 0.00420874, 0.0016429671, -2416442.0, 84503.81 
6.0537076e+2, 5.479605e+1, -2320503.3, -2421764.3, -2145.0366, -0.00033032842, -0.000053734126, -2320458.0, 82540.74 
6.0536915e+2, 6.479004e+1, -2234073.5, -2343371.8, -4299.9106, -0.0019898005, -0.0002724105, -2233904.5, 71153.09 
6.0536724e+2, 7.47834e+1, -2139362.0, -2247192.8, -4232.7705, -0.00044446217, -0.0008368683, -2139196.0, 67926.63 
6.053652e+2, 8.477622e+1, -2052045.0, -2166314.5, -5725.2886, 0.00066804414, -0.000051224524, -2051758.9, 57434.227 
6.0536295e+2, 9.476852e+1, -1956796.1, -2069782.3, -6052.382, 0.0012759976, 0.000119933895, -1956472.9, 54795.688 
6.0536057e+2, 1.047602e+2, -1870294.1, -1990555.9, -7386.1006, 0.0009832765, 0.0004093129, -1869842.3, 43507.84 
6.05358e+2, 1.1475129e+2, -1775710.3, -1894336.0, -7331.8027, -0.0002961013, -0.0011728832, -1775258.8, 40178.582 
6.053553e+2, 1.24741845e+2, -1688297.9, -1813581.5, -8327.725, -0.0007659713, -0.00073577475, -1687746.8, 29783.285 
6.053525e+2, 1.3473187e+2, -1592581.3, -1716754.8, -8457.432, -0.0003369058, -0.00014702213, -1592007.9, 27619.906 
6.0534966e+2, 1.447213e+2, -1505865.4, -1637309.3, -8881.06, 0.00031481413, 0.0007976164, -1505268.1, 16463.273 
6.0534674e+2, 1.5471013e+2, -1411471.5, -1541141.9, -8865.409, 0.0012032852, -0.0000013880153, -1410868.1, 12972.651 
6.053438e+2, 1.646984e+2, -1324492.1, -1460531.1, -9346.021, 0.00076628174, 0.00019303523, -1323853.0, 2102.5754 
6.053408e+2, 1.7468616e+2, -1229548.1, -1364013.0, -9421.019, -0.0011585653, -0.0007209688, -1228891.3, -815.67847 
6.053377e+2, 1.8467334e+2, -1142607.3, -1284341.8, -9383.316, -0.0013237669, -0.00050284714, -1141988.8, -11787.468 
6.053347e+2, 1.9465993e+2, -1047185.25, -1187670.4, -9344.706, 0.0005157125, -0.0010497194, -1046566.4, -14233.666 
6.053317e+2, 2.0464595e+2, -960115.8, -1107470.1, -8984.901, 0.0011624421, -0.00014162977, -959570.0, -25100.363 
6.053288e+2, 2.1463142e+2, -865512.4, -1011157.6, -8924.469, 0.00045083446, 0.00027465707, -864967.56, -28355.506 
6.0532594e+2, 2.2461633e+2, -778446.5, -930723.8, -8322.699, -0.0003197502, 0.0008216314, -777992.94, -39232.99 
6.053232e+2, 2.3460068e+2, -683235.25, -833984.0, -8344.701, -0.0011623991, -0.0008745139, -682774.75, -41861.426 
6.053205e+2, 2.4458443e+2, -596724.6, -755231.0, -7326.2583, -0.0008834713, -0.0005792293, -596386.75, -53314.098 
6.05318e+2, 2.5456756e+2, -501439.9, -658369.3, -6996.076, 0.0007121206, -0.00007704142, -501128.63, -55890.832 
6.0531557e+2, 2.6455018e+2, -413857.13, -577525.9, -5897.967, 0.0008666782, 0.00050215924, -413644.84, -66236.43 
6.053133e+2, 2.7453223e+2, -318281.5, -480369.84, -6043.032, -0.00069661165, -0.001126789, -318056.53, -68472.33 
6.053112e+2, 2.8451362e+2, -232485.08, -403331.53, -4394.691, -0.0009992974, -0.00023841507, -232372.1, -80605.61 
6.053094e+2, 2.944944e+2, -136914.52, -306194.22, -4106.3545, 0.00019988844, 0.0010394675, -136814.95, -82859.836 
6.053079e+2, 3.0447793e+2, -50244.777, -175179.31, -2207.414, 0.00061401114, 0.00047188174, -50205.785, -50205.785 
6.0530645e+2, 3.144644e+2, -52954.906, -176040.25, -2090.0808, 0.00007820817, -0.004590694, -52919.426, -52919.426 
6.053053e+2, 3.2445553e+2, 9626.316, -42803.38, -20.520164, -0.0013894767, 0.002051937, 9626.324, 9626.324 
6.153819e+2, 3.4807462e+1, -2504045.5, -2600656.0, -1910.5239, 0.0019155797, -0.0010085738, -2504007.8, 94879.234 
6.1538035e+2, 4.4802472e+1, -2417804.5, -2521428.3, -1839.3052, -0.0029821524, 0.0011334298, -2417771.8, 83163.97 
6.153789e+2, 5.479686e+1, -2322030.8, -2424904.3, -2600.7761, 0.0008588316, -0.0017670493, -2321965.0, 81025.695 
6.1537707e+2, 6.4790744e+1, -2233947.5, -2343138.8, -5038.3936, 0.0017644106, -0.0017632638, -2233715.5, 71335.14 
6.15375e+2, 7.478415e+1, -2139166.0, -2246871.8, -4989.1143, -0.0004648981, -0.00056254416, -2138935.5, 68179.945 
6.153727e+2, 8.477694e+1, -2052571.4, -2167532.0, -6366.5386, -0.0008513197, 0.00039012136, -2052219.9, 56966.1 
6.153703e+2, 9.4769126e+1, -1957376.3, -2071043.1, -6676.3843, 0.0007592096, -0.0010144506, -1956985.5, 54277.066 
6.153677e+2, 1.0476078e+2, -1870176.4, -1990342.8, -8180.223, 0.00093269115, -0.00018605342, -1869622.1, 43722.277 
6.153649e+2, 1.1475191e+2, -1775541.3, -1894082.6, -8140.0137, -0.00047214897, 0.001098323, -1774984.9, 40446.37 
6.1536205e+2, 1.24742456e+2, -1688491.3, -1814019.3, -8869.478, -0.0007121507, 0.0010820501, -1687867.6, 29656.328 
6.1535907e+2, 1.3473241e+2, -1592828.5, -1717250.1, -8992.257, 0.00034769851, -0.002440042, -1592182.0, 27440.453 
6.15356e+2, 1.4472182e+2, -1505887.5, -1637283.9, -9746.836, 0.0005492556, -0.0019664096, -1505168.5, 16557.78 
6.1535287e+2, 1.5471068e+2, -1411461.6, -1541097.3, -9737.725, -0.0002120012, 0.0007798201, -1410734.3, 13101.027 
6.1534965e+2, 1.6469897e+2, -1324614.6, -1460790.8, -10092.668, -0.0003499387, 0.002270699, -1323870.6, 2079.3918 
6.1534643e+2, 1.7468669e+2, -1229670.4, -1364285.9, -10164.066, 0.00021179864, 0.00013602957, -1228907.3, -836.8327 
6.153432e+2, 1.8467386e+2, -1142556.8, -1284199.3, -10006.1045, 0.00028121908, -0.0006708417, -1141853.4, -11657.14 
6.1534005e+2, 1.9466044e+2, -1047160.94, -1187546.1, -9962.835, -0.00019630829, -0.002008111, -1046457.4, -14129.806 
6.1533684e+2, 2.0464648e+2, -960075.2, -1107268.8, -9810.466, -0.000517214, -0.000811797, -959424.2, -24959.799 
6.153337e+2, 2.1463199e+2, -865433.0, -1010956.5, -9757.831, -0.0006415656, 0.0011175065, -864781.6, -28175.143 
6.153306e+2, 2.246169e+2, -778538.9, -930827.4, -9023.025, -0.00021521494, 0.0012620231, -778006.1, -39251.723 
6.1532766e+2, 2.3460121e+2, -683339.6, -834121.25, -9038.926, 0.0008551017, -0.0030632801, -682799.7, -41891.61 
6.153248e+2, 2.4458499e+2, -596230.6, -754085.7, -8015.288, 0.00068934803, -0.0026600652, -595824.7, -52757.652 
6.15322e+2, 2.5456825e+2, -500918.4, -657196.44, -7694.4, -0.00091994903, 0.0011762079, -500540.5, -55309.41 
6.1531943e+2, 2.6455086e+2, -414199.7, -578081.2, -6563.4985, -0.0013278957, 0.0023773373, -413937.25, -66535.84 
6.153169e+2, 2.7453285e+2, -318659.6, -481002.75, -6692.884, -0.00031269528, -0.0018740541, -318384.13, -68806.31 
6.153148e+2, 2.8451425e+2, -232132.44, -402463.94, -5031.469, 0.0000754917, -0.0021937531, -231983.94, -80223.79 
6.1531276e+2, 2.9449508e+2, -136546.05, -305263.13, -4747.2505, -0.00029384482, -0.00042244943, -136412.58, -82464.5 
6.153109e+2, 3.0447873e+2, -50197.16, -174896.53, -2907.5242, -0.00045363468, 0.0007094153, -50129.402, -50129.402 
6.1530936e+2, 3.1446522e+2, -52930.203, -175790.73, -2787.842, -0.00035600006, -0.0011548441, -52866.977, -52866.977 
6.1530805e+2, 3.2445645e+2, 11321.716, -39083.254, -530.373, -0.00011602167, 0.00062649173, 11327.296, 11327.296 
6.2539047e+2, 3.4808594e+1, -2502488.3, -2599721.8, -772.2018, 0.0036274437, 0.0021474396, -2502482.0, 96393.766 
6.2538874e+2, 4.4803515e+1, -2413514.0, -2520132.8, -2409.5723, -0.0053118714, -0.0015640776, -2413459.5, 87465.984 
6.253871e+2, 5.4797864e+1, -2320044.3, -2424796.5, -2248.923, 0.00089973304, -0.0013175133, -2319996.0, 82984.92 
6.2538505e+2, 6.4791703e+1, -2232463.0, -2342740.5, -4210.8745, 0.0028151379, -0.00025268976, -2232302.5, 72738.92 
6.2538284e+2, 7.4785066e+1, -2136863.3, -2246067.5, -4492.8213, 0.00008507883, -0.00024278519, -2136678.8, 70427.72 
6.2538034e+2, 8.4777814e+1, -2050335.3, -2166845.5, -6005.072, -0.00085556426, 0.00007830227, -2050026.6, 59150.793 
6.253777e+2, 9.476997e+1, -1956013.9, -2070786.3, -5995.4614, 0.00014795116, -0.0013472828, -1955701.5, 55552.78 
6.253749e+2, 1.0476159e+2, -1868861.1, -1990025.8, -7428.348, 0.00048537957, -0.00046182607, -1868407.5, 44928.96 
6.2537193e+2, 1.147527e+2, -1773557.3, -1893423.5, -7683.0303, 0.0000970304, 0.0009668065, -1773066.8, 42356.78 
6.2536883e+2, 1.2474321e+2, -1686873.8, -1813598.8, -8593.207, 0.000023273875, 0.0012600122, -1686293.6, 31222.873 
6.253657e+2, 1.3473314e+2, -1592699.1, -1717540.6, -8707.388, 0.0002944152, -0.0017713602, -1592094.8, 27520.56 
6.2536234e+2, 1.4472254e+2, -1505954.8, -1637240.8, -9489.026, 0.00008302139, -0.0015541932, -1505272.5, 16446.73 
6.25359e+2, 1.547114e+2, -1410972.1, -1540747.9, -9432.243, -0.0006677905, 0.00010118644, -1410290.1, 13538.17 
6.253556e+2, 1.6469967e+2, -1324038.8, -1460766.5, -9722.25, -0.00046328164, 0.0013854096, -1323351.0, 2592.1658 
6.2535214e+2, 1.746874e+2, -1229051.6, -1364253.1, -9827.767, 0.00080890435, 0.00003769119, -1228341.0, -277.36838 
6.253487e+2, 1.8467455e+2, -1142201.9, -1283881.3, -9727.374, 0.00085134147, -0.00019677595, -1141537.1, -11347.634 
6.253453e+2, 1.9466117e+2, -1048009.06, -1187785.6, -9653.245, -0.0004993919, -0.0012037324, -1047345.5, -15024.868 
6.2534183e+2, 2.0464721e+2, -961271.06, -1107663.9, -9441.377, -0.0010675981, -0.0004602867, -960664.7, -26207.34 
6.253385e+2, 2.1463272e+2, -866037.75, -1011041.5, -9380.799, -0.000716492, 0.00013509975, -865433.4, -28833.994 
6.253352e+2, 2.2461763e+2, -779137.9, -931138.7, -8644.344, 0.000015413289, 0.0004758056, -778647.9, -39900.65 
6.2533206e+2, 2.3460196e+2, -684419.8, -834657.6, -8621.065, 0.001183499, -0.0018941428, -683926.7, -43025.977 
6.2532896e+2, 2.4458575e+2, -597429.44, -754176.94, -7683.756, 0.0008517023, -0.0014371233, -597053.7, -53994.19 
6.25326e+2, 2.5456905e+2, -502566.25, -657454.56, -7619.061, -0.001237047, 0.00025210148, -502192.38, -56969.082 
6.2532324e+2, 2.645517e+2, -416184.75, -578807.44, -6325.135, -0.0015587608, 0.0011133039, -415939.1, -68545.82 
6.253206e+2, 2.7453372e+2, -320488.34, -481654.34, -6037.3145, 0.00021343841, -0.0013473617, -320262.5, -70693.125 
6.2531817e+2, 2.8451517e+2, -233907.78, -402779.75, -4299.009, 0.0006085371, -0.0014217538, -233798.42, -82047.04 
6.253159e+2, 2.9449603e+2, -138876.17, -305852.72, -4141.597, -0.0006565309, -0.0012529816, -138773.52, -84834.555 
6.253139e+2, 3.0447972e+2, -52954.566, -175684.75, -2285.4485, -0.0010435645, 0.00032122753, -52912.02, -52912.02 
6.253122e+2, 3.1446627e+2, -55792.242, -176643.23, -2001.4124, -0.00037609748, 0.0014213929, -55759.105, -55759.105 
6.2531066e+2, 3.2445753e+2, 8295.426, -39864.504, -161.60245, 0.000725226, -0.0010726593, 8295.968, 8295.968 
6.3539904e+2, 3.4809884e+1, -2504708.3, -2604544.3, 262.0347, 0.004072933, 0.0054400265, -2504707.5, 94155.69 
6.353973e+2, 4.4804576e+1, -2413280.8, -2519595.3, -3417.0737, -0.003461841, -0.006128441, -2413171.0, 87744.25 
6.3539535e+2, 5.479904e+1, -2319660.3, -2424091.8, -3305.5476, -0.00007785101, 0.0009912277, -2319555.8, 83413.7 
6.3539314e+2, 6.4792883e+1, -2232859.8, -2343719.3, -4755.8394, 0.0014995977, 0.0038426474, -2232656.0, 72373.734 
6.353907e+2, 7.478613e+1, -2137329.3, -2247107.3, -5025.2646, 0.001108679, 0.00011373961, -2137099.5, 69996.305 
6.353881e+2, 8.477884e+1, -2050291.5, -2166812.0, -6860.1743, 0.00042004543, -0.00088006456, -2049889.0, 59278.426 
6.3538516e+2, 9.477101e+1, -1955930.8, -2070716.6, -6866.3423, -0.00057390897, -0.0009824025, -1955521.5, 55722.66 
6.353821e+2, 1.047626e+2, -1869274.4, -1990946.8, -8068.363, -0.00032649946, -0.0004606618, -1868741.6, 44584.855 
6.3537896e+2, 1.1475362e+2, -1774017.8, -1894389.1, -8304.753, 0.001288186, -0.0012434565, -1773447.5, 41967.105 
6.353757e+2, 1.2474409e+2, -1687107.0, -1814054.0, -9492.919, 0.0013157147, 0.000020989743, -1686401.0, 31106.91 
6.353723e+2, 1.3473402e+2, -1592894.6, -1717981.8, -9608.908, -0.00042597408, 0.0014703122, -1592160.8, 27445.775 
6.353687e+2, 1.447234e+2, -1505836.9, -1636992.3, -10198.157, -0.0010130247, 0.0016180639, -1505048.6, 16661.986 
6.353652e+2, 1.5471224e+2, -1410856.4, -1540501.4, -10148.686, -0.00031285128, -0.0018483894, -1410066.6, 13753.295 
6.353615e+2, 1.6470052e+2, -1324254.4, -1461162.4, -10446.193, 0.00026456034, -0.002074884, -1323461.9, 2473.0652 
6.3535786e+2, 1.7468822e+2, -1229289.5, -1364687.0, -10539.824, 0.00071334804, -0.0008920425, -1228474.0, -418.42776 
6.3535416e+2, 1.8467538e+2, -1142120.8, -1283635.0, -10639.042, 0.0004933859, 0.0008403154, -1141325.4, -11144.053 
6.353505e+2, 1.9466203e+2, -1047885.8, -1187517.9, -10578.232, -0.000474318, 0.0011422135, -1047089.0, -14776.825 
6.3534695e+2, 2.0464809e+2, -961151.25, -1107434.8, -10116.603, -0.000654038, 0.00078718865, -960454.94, -26006.19 
6.353433e+2, 2.1463357e+2, -865937.8, -1010841.5, -10050.223, 0.000082409526, -0.0024464664, -865244.06, -28653.094 
6.3533986e+2, 2.246185e+2, -779176.9, -931108.7, -9452.896, 0.00032435052, -0.0013817038, -778591.0, -39852.37 
6.353364e+2, 2.346029e+2, -684452.7, -834636.94, -9425.279, 0.000004211538, 0.0022243077, -683863.5, -42971.887 
6.353331e+2, 2.445867e+2, -597397.75, -754000.44, -8471.751, -0.0002476319, 0.0026903208, -596940.75, -53890.46 
6.3532996e+2, 2.5456992e+2, -502522.7, -657282.2, -8410.941, -0.00042533508, -0.002590791, -502066.9, -56852.34 
6.35327e+2, 2.6455262e+2, -415754.94, -577834.9, -6934.3545, -0.00009268255, -0.0029098885, -415458.8, -68074.516 
6.353242e+2, 2.745348e+2, -320094.44, -480659.1, -6639.536, 0.0008428248, 0.00030321538, -319820.34, -70261.18 
6.3532156e+2, 2.8451627e+2, -233790.16, -402300.8, -5086.342, 0.00063408085, 0.00176008, -233636.77, -81896.27 
6.3531905e+2, 2.9449713e+2, -138750.64, -305392.44, -4938.182, -0.00093456625, -0.0015275865, -138604.44, -84676.36 
6.3531685e+2, 3.0448085e+2, -52576.3, -174777.97, -3021.165, -0.0012418216, -0.00062555406, -52501.656, -52501.656 
6.353149e+2, 3.1446752e+2, -55390.47, -175713.89, -2733.4165, -0.000041246803, 0.0032237049, -55328.406, -55328.406 
6.3531315e+2, 3.2445872e+2, 7392.684, -41622.418, -780.2831, 0.0011299197, -0.0030209448, 7405.1025, 7405.1025 
6.4540786e+2, 3.4811294e+1, -2499804.3, -2603941.5, 626.00037, 0.0004962309, 0.0031336197, -2499800.5, 99048.8 
6.45406e+2, 4.480596e+1, -2412703.0, -2519208.8, -2473.4548, 0.0019343037, -0.0036616349, -2412645.5, 88256.09 
6.4540374e+2, 5.48004e+1, -2316548.0, -2422446.3, -2602.2263, -0.00024861062, 0.0007955365, -2316484.3, 86471.99 
6.454013e+2, 6.4794207e+1, -2229659.3, -2342859.5, -4187.958, -0.0005581243, 0.0026599038, -2229504.5, 75512.3 
6.453987e+2, 7.478741e+1, -2135520.0, -2246950.8, -4427.908, 0.0011206137, -0.00024719228, -2135344.5, 71739.1 
6.453958e+2, 8.478006e+1, -2048696.3, -2166400.3, -6413.877, 0.0012323974, -0.0005867954, -2048347.9, 60807.574 
6.453927e+2, 9.477221e+1, -1953813.0, -2070034.8, -6661.3696, -0.00034374453, -0.00020640007, -1953432.5, 57799.95 
6.4538944e+2, 1.0476376e+2, -1867306.1, -1990252.1, -7838.982, -0.00051224366, 0.00012809246, -1866808.4, 46506.754 
6.453861e+2, 1.1475475e+2, -1773060.5, -1894187.8, -7792.6514, 0.00087216333, -0.001574957, -1772561.3, 42842.188 
6.453826e+2, 1.247452e+2, -1686327.1, -1813849.3, -8844.961, 0.0010393354, -0.0006037333, -1685716.5, 31780.469 
6.453789e+2, 1.3473512e+2, -1591537.6, -1717482.0, -8850.125, -0.00015689881, 0.0012355174, -1590918.8, 28676.959 
6.4537513e+2, 1.4472449e+2, -1504577.3, -1636768.1, -9512.34, -0.00053803367, 0.0017171425, -1503896.3, 17803.713 
6.453713e+2, 1.547133e+2, -1410245.5, -1540574.0, -9789.8, -0.000009413384, -0.0014633929, -1409514.3, 14295.409 
6.453675e+2, 1.6470155e+2, -1323916.8, -1460805.8, -10114.886, 0.00017885456, -0.0017796687, -1323173.5, 2751.3 
6.4536357e+2, 1.7468926e+2, -1229566.6, -1364607.6, -9888.379, -0.000010250968, -0.0011120286, -1228846.4, -801.2855 
6.453597e+2, 1.8467644e+2, -1142631.0, -1283937.9, -9934.434, -0.00008809675, 0.00047964204, -1141936.0, -11765.13 
6.4535576e+2, 1.9466309e+2, -1047848.7, -1187546.5, -10040.649, -0.00003582721, 0.0010640811, -1047130.7, -14828.947 
6.4535195e+2, 2.0464915e+2, -961144.5, -1107372.0, -9648.392, 0.00009742625, 0.0008586749, -960510.6, -26072.262 
6.4534813e+2, 2.1463463e+2, -866811.8, -1011179.2, -9662.673, 0.00033403386, -0.0023722865, -866167.94, -29587.418 
6.4534444e+2, 2.2461958e+2, -780173.94, -931141.56, -8998.479, 0.00007979448, -0.001460704, -779639.44, -40911.457 
6.4534074e+2, 2.3460402e+2, -685311.3, -834581.3, -8706.57, -0.000736259, 0.0018266831, -684805.2, -43924.586 
6.453372e+2, 2.4458784e+2, -598474.5, -754553.4, -7663.498, -0.0007128067, 0.0023637717, -598099.1, -55060.023 
6.453339e+2, 2.5457108e+2, -503543.47, -657832.75, -7731.1035, 0.00028941085, -0.0023976688, -503157.06, -57953.695 
6.453306e+2, 2.6455382e+2, -416925.88, -577718.0, -6359.951, 0.0006870167, -0.0026195499, -416674.72, -69301.88 
6.4532757e+2, 2.74536e+2, -322590.28, -481172.4, -6138.2534, 0.0003643612, 0.00020408396, -322353.06, -72805.92 
6.453247e+2, 2.8451756e+2, -236935.25, -403381.28, -4534.265, -0.00006361657, 0.001832463, -236811.83, -85083.87 
6.453221e+2, 2.9449844e+2, -141303.08, -306181.6, -4373.2905, -0.0006003825, -0.0006036484, -141187.16, -87272.055 
6.4531964e+2, 3.0448225e+2, -54341.926, -174864.03, -2410.8025, -0.00060491887, -0.00054929056, -54293.723, -54293.723 
6.453175e+2, 3.1446892e+2, -56731.66, -175579.45, -2100.4075, -0.00000770881, 0.00037914296, -56694.55, -56694.55 
6.453155e+2, 3.2446018e+2, 4825.0684, -43621.97, -73.92589, 0.0008949039, -0.0011553614, 4825.181, 4825.181 
6.554167e+2, 3.481282e+1, -2499946.0, -2604245.5, -1749.2308, -0.006543438, -0.003911935, -2499916.5, 98917.76 
6.554147e+2, 4.4807613e+1, -2412729.8, -2519465.5, -2874.9756, 0.010330606, 0.004805837, -2412652.3, 88233.125 
6.5541226e+2, 5.480193e+1, -2316621.0, -2422710.5, -2989.4016, 0.00023903091, -0.0015437527, -2316536.8, 86404.36 
6.554096e+2, 6.479566e+1, -2230042.5, -2343746.3, -5078.995, -0.003272916, -0.0030282557, -2229816.0, 75186.51 
6.554067e+2, 7.478884e+1, -2135913.0, -2247847.8, -5317.6777, 0.0002506719, -0.0012221369, -2135661.0, 71408.305 
6.554036e+2, 8.478146e+1, -2049095.8, -2167299.3, -7119.2207, 0.0016160235, 0.0007786584, -2048668.5, 60473.24 
6.5540034e+2, 9.477354e+1, -1954224.4, -2070942.1, -7356.1475, 0.00067400525, 0.0009216733, -1953762.6, 57456.73 
6.553969e+2, 1.0476507e+2, -1867207.6, -1990069.8, -8704.578, -0.00018250874, 0.0012242674, -1866594.0, 46708.41 
6.553932e+2, 1.1475607e+2, -1772948.1, -1893985.1, -8672.964, -0.0009498867, -0.00028940334, -1772329.9, 43060.645 
6.553895e+2, 1.2474652e+2, -1686306.4, -1813839.3, -9607.982, -0.0006147005, -0.00069875666, -1685586.5, 31897.59 
6.5538555e+2, 1.347364e+2, -1591527.6, -1717492.5, -9613.855, 0.0009438401, -0.0019993468, -1590798.1, 28785.057 
6.553816e+2, 1.4472574e+2, -1505108.4, -1637826.8, -10387.584, 0.0012714021, -0.0008355405, -1504300.4, 17387.377 
6.553775e+2, 1.5471452e+2, -1410782.9, -1541670.3, -10648.611, 0.0002195792, 0.0009409761, -1409922.3, 13875.449 
6.553734e+2, 1.6470279e+2, -1323527.3, -1459987.3, -10977.641, -0.00064525503, 0.0017694337, -1322649.8, 3263.002 
6.553693e+2, 1.7469051e+2, -1229138.4, -1363743.1, -10772.346, -0.0012943294, -0.00071603083, -1228281.8, -248.94902 
6.5536517e+2, 1.846777e+2, -1142810.6, -1284307.9, -10721.881, -0.0008845417, -0.0010910829, -1142002.9, -11844.303 
6.55361e+2, 1.946643e+2, -1048056.3, -1187968.1, -10816.459, 0.0007385558, -0.0011248902, -1047225.0, -14935.2705 
6.5535694e+2, 2.0465036e+2, -961226.06, -1107491.9, -10529.4, 0.0011210892, -0.00009551027, -960471.94, -26045.549 
6.553529e+2, 2.1463588e+2, -866878.6, -1011306.7, -10541.554, 0.00008732653, 0.000022461329, -866113.25, -29544.912 
6.5534896e+2, 2.2462085e+2, -779710.5, -930101.2, -9768.415, -0.0006777106, 0.000018420073, -779078.7, -40363.082 
6.55345e+2, 2.346053e+2, -684841.6, -833511.44, -9489.949, -0.0011142475, -0.0025289613, -684238.3, -43370.367 
6.553413e+2, 2.4458918e+2, -598693.3, -754839.5, -8450.151, -0.00064058474, -0.0018660427, -598237.4, -55211.234 
6.553377e+2, 2.5457245e+2, -503798.66, -658183.56, -8498.834, 0.0008872425, 0.00045703072, -503332.2, -58142.188 
6.5533423e+2, 2.645552e+2, -416652.8, -577046.0, -7302.1226, 0.00083086896, 0.0014565167, -416321.06, -68961.79 
6.553309e+2, 2.7453738e+2, -322275.4, -480428.06, -7097.9575, -0.0011054864, -0.0014445739, -321957.5, -72423.93 
6.553278e+2, 2.84519e+2, -236719.97, -402861.8, -5180.686, -0.0014193942, -0.0008361609, -236558.58, -84844.56 
6.55325e+2, 2.9449996e+2, -141141.66, -305697.8, -5001.136, 0.00024680723, 0.0013787511, -140989.81, -87089.445 
6.553224e+2, 3.0448377e+2, -53986.754, -173874.66, -3029.9663, 0.00073366106, 0.00042874384, -53910.227, -53910.227 
6.5532e+2, 3.144705e+2, -56371.688, -174569.38, -2724.8428, -0.00025852548, -0.0065766494, -56308.902, -56308.902 
6.553179e+2, 3.2446188e+2, 4504.8955, -44059.42, -953.4464, 0.00006535477, 0.0040903366, 4523.607, 4523.607 
6.6542584e+2, 3.4814748e+1, -2497849.0, -2602657.0, -1132.4146, -0.0037685123, -0.003117803, -2497836.8, 100978.61 
6.654234e+2, 4.4809476e+1, -2409115.8, -2518911.3, -1331.2809, 0.0058537875, 0.0019160113, -2409099.8, 91767.445 
6.6542083e+2, 5.4803705e+1, -2313978.3, -2422682.3, -2040.337, 0.00067153206, -0.001568347, -2313940.0, 88983.68 
6.6541797e+2, 6.479738e+1, -2227383.8, -2342775.3, -4716.049, -0.0014273498, -0.0019904932, -2227191.5, 77794.234 
6.6541487e+2, 7.4790525e+1, -2133414.3, -2246936.8, -4731.0376, -0.0002940989, -0.0010355584, -2133217.5, 73835.44 
6.6541153e+2, 8.47831e+1, -2046960.0, -2166744.3, -6198.406, 0.0004948748, 0.00042549364, -2046640.1, 62485.45 
6.65408e+2, 9.477514e+1, -1952461.0, -2070559.6, -6301.4917, 0.00094129785, 0.00036670605, -1952125.6, 59078.02 
6.654043e+2, 1.0476663e+2, -1865596.3, -1989655.3, -7859.0615, 0.0005287504, 0.00093142927, -1865100.4, 48186.727 
6.654004e+2, 1.14757605e+2, -1771444.3, -1893626.1, -8130.5625, -0.00082454743, 0.00018441894, -1770905.6, 44469.875 
6.6539645e+2, 1.2474803e+2, -1685014.4, -1813400.3, -9204.6045, -0.00084479613, -0.0001156632, -1684357.9, 33111.49 
6.653923e+2, 1.347379e+2, -1590767.9, -1717288.1, -9323.059, 0.00061745435, -0.0020263449, -1590084.6, 29483.94 
6.6538805e+2, 1.4472722e+2, -1504512.3, -1637576.0, -9985.694, 0.0010272089, -0.0011004994, -1503767.1, 17906.152 
6.6538376e+2, 1.54716e+2, -1410228.5, -1541433.4, -9764.362, 0.00025009303, 0.000858752, -1409505.8, 14277.453 
6.653794e+2, 1.6470425e+2, -1323133.5, -1459982.1, -10092.165, -0.00043298045, 0.0019222806, -1322393.3, 3505.0903 
6.65375e+2, 1.7469199e+2, -1228862.3, -1363786.9, -10401.425, -0.0010093127, -0.00027297984, -1228065.1, -46.52448 
6.653706e+2, 1.8467915e+2, -1142648.5, -1284181.1, -10463.1045, -0.00071689405, -0.0008581817, -1141879.3, -11734.871 
6.653663e+2, 1.9466576e+2, -1048307.06, -1188031.9, -10344.908, 0.00057120994, -0.0016666016, -1047545.3, -15269.702 
6.6536194e+2, 2.0465182e+2, -961649.0, -1107481.1, -9937.371, 0.0007715418, -0.0004967369, -960974.94, -26562.809 
6.653576e+2, 2.1463737e+2, -867439.56, -1011337.7, -9777.112, -0.00026708926, 0.00080106617, -866778.25, -30224.465 
6.653534e+2, 2.2462235e+2, -780691.06, -930524.44, -9087.925, -0.00072884443, 0.00090260117, -780141.9, -41440.95 
6.653493e+2, 2.346068e+2, -686414.25, -834209.3, -9293.917, -0.00051837094, -0.0027688642, -685832.1, -44978.79 
6.6534525e+2, 2.4459068e+2, -600332.0, -755016.5, -8233.107, -0.000105621555, -0.0022643232, -599895.0, -56883.766 
6.6534144e+2, 2.5457403e+2, -505676.06, -658472.94, -7745.3833, 0.0005393436, 0.0010321096, -505284.47, -60109.98 
6.6533774e+2, 2.645568e+2, -418631.06, -577858.06, -6413.892, 0.00033775088, 0.0021114375, -418373.13, -71029.74 
6.6533417e+2, 2.74539e+2, -323419.13, -480868.72, -6508.7095, -0.00087241805, -0.0017594559, -323150.5, -73632.84 
6.653309e+2, 2.8452063e+2, -237755.75, -402842.53, -4701.727, -0.0009859216, -0.001487326, -237621.94, -85924.055 
6.6532785e+2, 2.9450166e+2, -143553.42, -306317.78, -4442.3564, 0.00023862855, 0.0011619753, -143432.27, -89548.555 
6.65325e+2, 3.0448553e+2, -57309.887, -174965.25, -2356.0352, 0.00049386336, 0.00057012355, -57262.727, -57262.727 
6.653224e+2, 3.1447226e+2, -59946.105, -175763.38, -2246.6538, -0.0004588283, -0.0061802226, -59902.54, -59902.54 
6.6532016e+2, 3.2446375e+2, 1612.1892, -44030.152, -270.52863, 0.0003621912, 0.0037564829, 1613.7927, 1613.7927 
6.7543507e+2, 3.4817025e+1, -2497005.5, -2601042.0, -1951.2892, 0.0072144065, 0.0043483176, -2496968.8, 101824.38 
6.754322e+2, 4.4811517e+1, -2410225.8, -2521533.0, -2025.3855, -0.009548534, -0.010575299, -2410189.0, 90658.11 
6.754296e+2, 5.48057e+1, -2315308.0, -2425457.3, -2681.1155, 0.0010285844, 0.00037555842, -2315242.8, 87661.34 
6.754266e+2, 6.4799327e+1, -2227406.0, -2342810.5, -5628.8047, 0.0042515444, 0.0047669653, -2227132.3, 77834.52 
6.754231e+2, 7.479242e+1, -2133348.5, -2246868.0, -5663.5557, -0.0005818751, 0.00013482424, -2133066.8, 73967.71 
6.754195e+2, 8.478495e+1, -2047077.4, -2167083.8, -7013.69, -0.0019370045, -0.0013920915, -2046668.9, 62438.65 
6.7541575e+2, 9.4776964e+1, -1952623.4, -2070934.3, -7113.149, 0.0005374996, -0.001621456, -1952197.3, 58988.49 
6.754119e+2, 1.0476841e+2, -1866080.0, -1990664.5, -8769.944, 0.001544616, -0.0005446242, -1865465.6, 47803.9 
6.7540765e+2, 1.1475933e+2, -1771912.5, -1894654.8, -9031.723, 0.00094393437, -0.000034184017, -1771251.5, 44107.063 
6.7540336e+2, 1.2474971e+2, -1685220.4, -1813867.5, -10077.381, 0.00011555389, 0.001057101, -1684435.8, 33017.07 
6.7539907e+2, 1.3473956e+2, -1590985.9, -1717758.9, -10192.856, -0.0009623759, 0.00069787994, -1590171.6, 29380.658 
6.7539454e+2, 1.4472888e+2, -1504102.1, -1636747.1, -10861.271, -0.0010059992, 0.00059825927, -1503218.6, 18438.293 
6.7539e+2, 1.5471768e+2, -1409810.3, -1540572.8, -10657.141, 0.00008485554, -0.0013694572, -1408947.4, 14819.32 
6.7538536e+2, 1.6470593e+2, -1323685.6, -1461139.5, -11008.522, 0.00064555637, -0.0008563429, -1322809.5, 3072.4312 
6.7538077e+2, 1.746936e+2, -1229434.6, -1365014.8, -11298.015, 0.0006140651, 0.00021083382, -1228499.6, -496.92993 
6.753761e+2, 1.8468076e+2, -1142465.3, -1283797.6, -11325.955, 0.00026112454, 0.0009370538, -1141563.4, -11434.727 
6.7537147e+2, 1.9466738e+2, -1048128.56, -1187601.3, -11211.945, -0.0004415907, -0.00077677594, -1047233.0, -14973.369 
6.753669e+2, 2.0465347e+2, -961404.56, -1106914.6, -10850.968, -0.00079527765, -0.0004166818, -960599.9, -26203.959 
6.753623e+2, 2.1463905e+2, -867176.2, -1010766.7, -10699.554, -0.000731923, 0.00016805383, -866383.3, -29846.098 
6.753579e+2, 2.2462405e+2, -781110.25, -931338.75, -10008.379, -0.00018913233, 0.001268045, -780446.44, -41762.156 
6.7535347e+2, 2.3460847e+2, -686857.44, -835083.4, -10195.324, 0.0009014634, 0.00058394915, -686159.5, -45322.438 
6.7534924e+2, 2.4459238e+2, -599557.3, -753296.25, -9060.561, 0.0008115923, 0.000684144, -599025.1, -56030.42 
6.753452e+2, 2.5457582e+2, -504882.66, -656647.75, -8595.523, -0.0006649917, -0.00040194916, -504397.38, -59240.293 
6.753412e+2, 2.645586e+2, -418860.56, -578233.9, -7167.532, -0.00074593857, -0.00023751956, -418538.88, -71213.36 
6.7533743e+2, 2.7454084e+2, -323716.4, -481351.44, -7237.5366, 0.00083368004, -0.0008995594, -323384.78, -73884.98 
6.753339e+2, 2.8452247e+2, -237486.48, -402081.1, -5671.9536, 0.0009858944, -0.00036537024, -237291.27, -85611.35 
6.753305e+2, 2.945035e+2, -143240.81, -305486.5, -5428.673, -0.0005537971, -0.0009974338, -143059.38, -89193.92 
6.753275e+2, 3.0448747e+2, -57284.957, -174709.84, -3039.947, -0.0011645914, -0.000021461181, -57206.31, -57206.31 
6.753247e+2, 3.1447428e+2, -59969.863, -175554.28, -2909.1643, -0.0006319397, 0.0007069178, -59896.688, -59896.688 
6.753222e+2, 3.2446575e+2, 3280.4414, -40314.727, -1041.0754, 0.0016025853, -0.0015304347, 3305.2888, 3305.2888 
6.8544436e+2, 3.4819394e+1, -2494695.8, -2602119.5, -442.57242, 0.007878955, 0.0057275244, -2494693.8, 104076.17 
6.854414e+2, 4.4813755e+1, -2404002.5, -2518857.5, -2746.0132, -0.0100987265, -0.010373909, -2403937.0, 96888.19 
6.854384e+2, 5.4807913e+1, -2312995.0, -2424675.3, -2394.7632, 0.000527348, 0.0010216946, -2312943.5, 89938.914 
6.854351e+2, 6.480149e+1, -2226562.0, -2342993.3, -4498.1914, 0.004215059, 0.00536807, -2226388.5, 78556.87 
6.854315e+2, 7.4794525e+1, -2130988.3, -2246329.0, -4908.7754, 0.0002753556, 0.00017688985, -2130779.8, 76233.875 
6.854276e+2, 8.478702e+1, -2044256.9, -2166026.8, -6707.948, -0.001226517, -0.0015475221, -2043888.4, 65198.82 
6.854236e+2, 9.4778997e+1, -1950897.6, -2070417.8, -6823.349, -0.000035559926, -0.0015807758, -1950509.4, 60656.496 
6.854194e+2, 1.0477042e+2, -1864823.1, -1990404.8, -8265.776, 0.00077351497, -0.0005142044, -1864281.4, 48968.445 
6.8541497e+2, 1.1476131e+2, -1770342.9, -1894247.4, -8269.583, 0.0011627384, -0.00024530044, -1769793.4, 45545.867 
6.8541044e+2, 1.2475166e+2, -1683698.4, -1813440.6, -9260.832, 0.00067434105, 0.0008783946, -1683040.8, 34393.12 
6.8540585e+2, 1.3474149e+2, -1589966.3, -1717590.5, -9352.235, -0.00078293064, 0.00087698293, -1589284.6, 30248.852 
6.854011e+2, 1.4473079e+2, -1503344.4, -1636500.0, -10180.838, -0.0011019855, 0.000825763, -1502570.5, 19067.775 
6.8539625e+2, 1.5471958e+2, -1409260.8, -1540425.3, -10448.359, -0.00016016114, -0.0014610672, -1408433.6, 15314.529 
6.853914e+2, 1.6470781e+2, -1323272.6, -1460947.6, -10806.584, 0.0005077867, -0.0011209218, -1322429.5, 3433.974 
6.853865e+2, 1.7469548e+2, -1229169.9, -1364888.9, -10563.871, 0.0008612747, -0.00004453779, -1228352.6, -368.28598 
6.853816e+2, 1.8468264e+2, -1142507.3, -1283719.4, -10429.729, 0.00049489096, 0.0010206837, -1141741.1, -11630.909 
6.8537664e+2, 1.9466928e+2, -1048814.9, -1187846.9, -10477.479, -0.0006836796, 0.000019216277, -1048029.7, -15788.575 
6.853718e+2, 2.0465538e+2, -962310.1, -1107216.6, -10206.907, -0.0009822232, 0.00006944499, -961594.7, -27217.414 
6.85367e+2, 2.1464096e+2, -867824.8, -1010960.4, -10258.645, -0.00025436404, -0.00082559726, -867093.3, -30574.697 
6.853622e+2, 2.2462596e+2, -781613.3, -931392.25, -9484.112, 0.00031403403, 0.00025648953, -781015.2, -42349.625 
6.8535763e+2, 2.3461041e+2, -687436.1, -835165.75, -9155.872, 0.00068637164, 0.001244187, -686870.8, -46052.87 
6.8535316e+2, 2.4459435e+2, -600503.56, -753589.8, -8096.846, 0.0004324466, 0.0015284951, -600076.56, -57101.047 
6.8534875e+2, 2.545778e+2, -506487.72, -657276.9, -8390.545, -0.0005492255, -0.0011064769, -506022.28, -60884.426 
6.853446e+2, 2.645606e+2, -420803.0, -578606.9, -6985.8916, -0.00045597187, -0.001046864, -420494.34, -73188.375 
6.853406e+2, 2.745429e+2, -326139.63, -481925.3, -6497.307, 0.00090682413, -0.000106491556, -325869.13, -76389.516 
6.8533677e+2, 2.8452456e+2, -240014.34, -402808.53, -4796.4185, 0.0009971872, 0.00056889764, -239873.16, -88213.92 
6.853332e+2, 2.9450566e+2, -145235.0, -305971.56, -4681.0283, -0.00043115643, -0.0016717011, -145098.8, -91254.27 
6.8532985e+2, 3.044896e+2, -59461.27, -175335.0, -2207.1418, -0.0009364349, -0.00037026528, -59419.246, -59419.246 
6.8532693e+2, 3.1447652e+2, -63197.766, -176680.58, -1930.9182, -0.00029634542, 0.0030457417, -63164.918, -63164.918 
6.853241e+2, 3.2446805e+2, -121.708374, -40869.867, -482.8333, 0.000978997, -0.0027446304, -115.98798, -115.98798 
6.954536e+2, 3.4821847e+1, -2497785.0, -2608729.5, 1148.3394, -0.00019159901, 0.0020633775, -2497773.3, 100972.836 
6.954508e+2, 4.481617e+1, -2403566.0, -2517646.0, -4314.606, 0.0018499764, 0.00054859975, -2403403.0, 97398.625 
6.9544727e+2, 5.4810315e+1, -2312171.5, -2423151.8, -4063.7896, -0.0007385164, 0.00056100485, -2312022.8, 90836.21 
6.954437e+2, 6.4803857e+1, -2227089.0, -2344366.8, -5048.0386, -0.00068540825, 0.00077142083, -2226872.3, 78050.05 
6.954399e+2, 7.4796814e+1, -2131698.5, -2247827.5, -5417.956, 0.002083073, -0.000740662, -2131446.3, 75545.06 
6.954359e+2, 8.478927e+1, -2044472.0, -2166478.3, -7770.699, 0.0021101295, -0.00029779013, -2043979.0, 65086.23 
6.954315e+2, 9.478122e+1, -1951048.4, -2070821.1, -7902.2026, -0.00077811367, 0.00018635605, -1950529.3, 60614.824 
6.95427e+2, 1.0477263e+2, -1864770.5, -1990367.6, -9084.944, -0.0015306068, 0.0007980285, -1864116.8, 49111.527 
6.9542235e+2, 1.147635e+2, -1770335.0, -1894224.6, -9088.845, 0.00003295976, -0.0004553301, -1769671.8, 45646.02 
6.954176e+2, 1.24753825e+2, -1683870.6, -1813790.8, -10277.126, 0.0008620333, -0.00045254081, -1683062.8, 34349.797 
6.9541264e+2, 1.3474362e+2, -1590124.8, -1717936.1, -10366.789, 0.00087628106, -0.0011233258, -1589289.4, 30223.127 
6.954076e+2, 1.4473289e+2, -1503826.0, -1637518.8, -11106.977, 0.00043309163, -0.0002047655, -1502909.5, 18708.227 
6.954025e+2, 1.5472163e+2, -1409768.3, -1541471.8, -11358.59, -0.0004992091, 0.00028164918, -1408795.8, 14932.288 
6.953974e+2, 1.6470985e+2, -1322854.3, -1460050.8, -11722.063, -0.00070288236, 0.0007739065, -1321859.9, 3983.6057 
6.953922e+2, 1.7469758e+2, -1228742.0, -1363943.6, -11497.797, -0.00009504276, -0.0009408476, -1227771.1, 192.68294 
6.95387e+2, 1.8468475e+2, -1142590.8, -1283895.9, -11482.177, 0.00006726192, -0.00036930936, -1141663.9, -11574.354 
6.953818e+2, 1.946714e+2, -1048894.6, -1188036.9, -11527.269, -0.0002803461, 0.0007332725, -1047946.1, -15725.786 
6.953767e+2, 2.0465748e+2, -962422.4, -1107435.3, -11056.744, 0.0000022534823, 0.0009061729, -961584.2, -27227.553 
6.953716e+2, 2.1464303e+2, -867988.6, -1011198.0, -11095.923, 0.0010185938, -0.00213056, -867134.0, -30635.723 
6.953667e+2, 2.2462805e+2, -781128.06, -930248.8, -10410.196, 0.0007597873, -0.0019488694, -780404.8, -41759.848 
6.9536173e+2, 2.346126e+2, -686928.25, -833977.9, -10096.409, -0.0009765964, -0.00043999057, -686238.3, -45441.766 
6.9535697e+2, 2.4459654e+2, -601111.6, -754727.06, -9110.268, -0.0010958662, 0.00054034597, -600573.25, -57619.32 
6.953524e+2, 2.545799e+2, -507123.53, -658493.4, -9380.26, 0.0006962544, -0.001173064, -506544.44, -61427.395 
6.953479e+2, 2.6456276e+2, -420068.2, -576943.4, -7818.1284, 0.000997394, -0.0005106309, -419679.53, -72394.52 
6.953436e+2, 2.7454516e+2, -325387.6, -480158.3, -7343.8623, -0.00047072722, 0.0006150666, -325039.9, -75582.49 
6.953396e+2, 2.845269e+2, -239912.05, -402432.1, -5647.953, -0.00073396025, 0.0013308915, -239716.02, -88079.76 
6.9533575e+2, 2.9450804e+2, -145165.4, -305650.66, -5525.993, 0.0004568616, -0.0010386382, -144975.36, -91154.055 
6.9533217e+2, 3.0449203e+2, -59196.535, -174568.6, -3145.7395, 0.00090704253, -0.0005100537, -59110.83, -59110.83 
6.953289e+2, 3.1447896e+2, -62932.8, -175899.06, -2869.781, 0.0004700114, 0.0013594726, -62859.945, -62859.945 
6.9532585e+2, 3.2447055e+2, -583.4739, -41616.813, -1250.0916, -0.001331632, -0.00036370577, -545.4248, -545.4248 
7.054632e+2, 3.4824547e+1, -2491481.5, -2605061.5, 952.7442, -0.0046960586, -0.00093192304, -2491473.5, 107245.96 
7.0546013e+2, 4.4818947e+1, -2406574.0, -2519582.8, -2253.55, 0.00774963, 0.004968353, -2406529.0, 94245.336 
7.054564e+2, 5.481299e+1, -2308504.8, -2421836.5, -2937.7522, -0.00044978652, -0.00047838935, -2308428.8, 94404.07 
7.0545244e+2, 6.4806473e+1, -2221575.3, -2342237.5, -4533.0273, -0.00266285, -0.0018307405, -2221405.3, 83491.484 
7.0544845e+2, 7.4799407e+1, -2129461.0, -2247310.8, -4563.6616, 0.0014437634, -0.00068716664, -2129284.5, 77681.32 
7.054441e+2, 8.4791815e+1, -2043404.1, -2166509.3, -6737.127, 0.0023662061, 0.0007774055, -2043036.5, 66003.766 
7.0543945e+2, 9.478371e+1, -1948888.8, -2070316.0, -7007.753, -0.00013769451, 0.0005113517, -1948485.6, 62633.977 
7.054347e+2, 1.0477508e+2, -1862425.3, -1989506.1, -8404.857, -0.0010965633, 0.0008133579, -1861871.8, 51332.508 
7.054298e+2, 1.1476592e+2, -1769144.5, -1893940.3, -8589.041, -0.00036556573, -0.00025799987, -1768556.1, 46737.906 
7.054247e+2, 1.24756224e+2, -1683014.5, -1813513.4, -9800.574, 0.00030981086, -0.00033492094, -1682282.6, 35106.35 
7.0541954e+2, 1.3474602e+2, -1588833.0, -1717459.1, -9818.536, 0.0009188702, -0.0013708491, -1588087.8, 31401.285 
7.0541424e+2, 1.4473526e+2, -1502640.3, -1637206.1, -10422.415, 0.0007537441, -0.00040823044, -1501837.9, 19756.627 
7.054089e+2, 1.5472399e+2, -1409134.1, -1541422.3, -10353.208, -0.0002631337, 0.0005886726, -1408328.8, 15376.215 
7.0540345e+2, 1.6471219e+2, -1322570.4, -1459916.8, -10744.57, -0.00069512695, 0.0011300076, -1321734.9, 4085.667 
7.0539796e+2, 1.746999e+2, -1228920.6, -1364042.3, -10959.545, -0.00047010186, -0.0010707966, -1228037.5, -96.56674 
7.0539254e+2, 1.846871e+2, -1142721.0, -1283904.8, -11075.452, -0.0001997718, -0.00079225155, -1141857.5, -11790.894 
7.05387e+2, 1.9467373e+2, -1048401.7, -1187738.8, -11013.663, 0.00010540618, 0.00025009172, -1047536.5, -15339.104 
7.053816e+2, 2.0465983e+2, -962162.56, -1107261.5, -10494.128, 0.00036991533, 0.00083256414, -961407.5, -27073.889 
7.0537627e+2, 2.1464539e+2, -868986.5, -1011637.9, -10406.829, 0.00059598347, -0.0012524755, -868231.25, -31756.088 
7.0537096e+2, 2.2463043e+2, -782652.0, -930559.6, -9727.116, 0.00017698466, -0.0012277262, -782015.06, -43393.348 
7.053658e+2, 2.34615e+2, -688608.3, -834357.8, -9719.747, -0.000990554, -0.0011638154, -687962.94, -47189.992 
7.053608e+2, 2.4459897e+2, -602696.94, -755255.4, -8543.464, -0.00082354393, -0.00028265954, -602220.0, -59289.93 
7.053558e+2, 2.5458238e+2, -508112.5, -658729.56, -8103.0405, 0.0009250079, -0.000507269, -507677.84, -62584.984 
7.053511e+2, 2.6456526e+2, -421210.72, -577113.2, -6529.3833, 0.001055153, 0.00031824823, -420937.72, -73677.21 
7.053466e+2, 2.7454767e+2, -327773.25, -480928.4, -6659.5386, -0.0007340987, 0.000032492786, -327484.22, -78051.5 
7.053423e+2, 2.8452948e+2, -242784.19, -403301.9, -5009.4346, -0.001085978, 0.00074112054, -242628.02, -91016.87 
7.053382e+2, 2.9451066e+2, -147754.33, -306402.4, -4733.184, 0.0002813838, 0.00006330895, -147613.25, -93817.664 
7.0533437e+2, 3.044947e+2, -61597.26, -174914.58, -2390.1335, 0.00084211765, 0.00034745553, -61546.87, -61546.87 
7.053308e+2, 3.1448168e+2, -65564.19, -176364.73, -2008.861, 0.00045067805, -0.00038729474, -65527.78, -65527.78 
7.053275e+2, 3.2447335e+2, -3953.655, -43093.91, 5.6493077, -0.001218061, 0.0007069186, -3953.6543, -3953.6543 
7.1547294e+2, 3.4827453e+1, -2488204.5, -2598190.8, -3499.957, -0.00629146, -0.0033235662, -2488093.3, 110597.78 
7.154693e+2, 4.4822034e+1, -2407294.3, -2521690.8, -2253.8503, 0.008543476, 0.003931414, -2407249.8, 93494.26 
7.154655e+2, 5.4815906e+1, -2309631.5, -2424256.8, -2829.8125, 0.0011042022, -0.0020011023, -2309561.5, 93242.55 
7.1546143e+2, 6.4809304e+1, -2221707.8, -2342418.0, -5892.083, -0.0022275664, -0.002745884, -2221420.8, 83448.09 
7.1545696e+2, 7.4802256e+1, -2129460.0, -2247384.8, -5954.524, -0.0012683916, 0.0001756423, -2129160.0, 77777.89 
7.154524e+2, 8.479462e+1, -2043792.6, -2167441.0, -7540.669, -0.0000040830887, 0.0016935673, -2043334.5, 65678.234 
7.1544755e+2, 9.4786435e+1, -1949346.3, -2071297.4, -7788.0996, 0.0016365062, -0.00038464586, -1948850.9, 62242.12 
7.154425e+2, 1.0477774e+2, -1862750.6, -1990214.8, -9507.311, 0.0016306236, -0.00026476427, -1862045.4, 51132.83 
7.1543723e+2, 1.1476855e+2, -1769445.4, -1894616.0, -9690.696, -0.00017456425, 0.00027930472, -1768699.5, 46568.74 
7.154319e+2, 1.2475883e+2, -1683004.8, -1813572.5, -10683.093, -0.0009016429, 0.0010147508, -1682136.4, 35227.027 
7.1542645e+2, 1.3474861e+2, -1588869.1, -1717512.3, -10701.962, -0.00043250906, -0.00012955832, -1587984.9, 31478.723 
7.154209e+2, 1.4473787e+2, -1502535.1, -1636966.5, -11486.158, 0.000020071804, 0.00008903893, -1501560.8, 20008.2 
7.1541524e+2, 1.547266e+2, -1409010.5, -1541169.6, -11424.892, 0.00043633473, -0.00033277276, -1408030.1, 15649.372 
7.1540946e+2, 1.6471478e+2, -1322944.1, -1460706.3, -11798.561, 0.00032583205, 0.00017274603, -1321941.0, 3854.14 
7.154037e+2, 1.7470245e+2, -1229301.9, -1364853.8, -12002.285, -0.00036567723, -0.00054247567, -1228247.4, -331.38644 
7.1539795e+2, 1.8468961e+2, -1142618.3, -1283699.5, -11937.601, -0.000353385, -0.00038051885, -1141615.3, -11573.461 
7.153923e+2, 1.9467625e+2, -1048346.75, -1187528.3, -11873.563, 0.00045143111, -0.0012622563, -1047341.1, -15168.451 
7.153865e+2, 2.0466238e+2, -962096.6, -1106988.6, -11648.778, 0.0001814737, -0.00002260192, -961166.06, -26857.453 
7.1538085e+2, 2.14648e+2, -868874.4, -1011342.8, -11571.33, -0.0013076661, 0.00151075, -867940.7, -31491.006 
7.1537524e+2, 2.2463305e+2, -782669.4, -930563.6, -10696.108, -0.0013117495, 0.0020275414, -781899.8, -43303.773 
7.153698e+2, 2.3461759e+2, -688650.2, -834385.3, -10681.284, 0.00040202154, -0.0010519142, -687871.44, -47123.836 
7.153645e+2, 2.446016e+2, -602005.56, -753684.5, -9390.1875, 0.0009883757, -0.00095776585, -601426.44, -58522.168 
7.1535933e+2, 2.5458512e+2, -507440.0, -657119.8, -8959.896, 0.00023888466, 0.0007866051, -506905.56, -61839.82 
7.153543e+2, 2.6456806e+2, -421577.63, -577670.3, -7710.9595, -0.00013870116, 0.0013980479, -421197.63, -73964.625 
7.1534944e+2, 2.745504e+2, -328134.66, -481551.72, -7836.4214, -0.000048624523, -0.0016948777, -327735.4, -78329.54 
7.1534485e+2, 2.8453222e+2, -242410.45, -402439.8, -5786.195, -0.00026189486, -0.001031973, -242201.52, -90617.266 
7.153405e+2, 2.945135e+2, -147418.44, -305487.66, -5493.803, -0.0008583421, 0.0015663864, -147227.72, -93460.0 
7.1533644e+2, 3.0449766e+2, -61132.695, -173706.61, -3387.8662, -0.0009303339, 0.0020647182, -61030.832, -61030.832 
7.153326e+2, 3.144847e+2, -65083.047, -175138.39, -3026.0396, -0.00027812165, -0.0022018035, -64999.91, -64999.91 
7.1532905e+2, 3.2447642e+2, -3642.0461, -42217.918, -875.4397, 0.0009713754, 0.0006010245, -3622.189, -3622.189 
7.2548276e+2, 3.4830847e+1, -2488688.8, -2598942.8, -1595.8627, -0.00041612567, 0.0004462191, -2488665.8, 109992.01 
7.2547877e+2, 4.482525e+1, -2398489.0, -2518461.8, -1883.6869, 0.00015575145, -0.0028905668, -2398459.3, 102253.16 
7.2547483e+2, 5.48191e+1, -2307416.5, -2424277.5, -2036.5112, 0.0014955907, -0.0009509461, -2307381.0, 95391.69 
7.254705e+2, 6.481245e+1, -2221291.3, -2342556.3, -5155.227, 0.0010987784, 0.00067930634, -2221072.5, 83765.61 
7.254657e+2, 7.480534e+1, -2126790.5, -2246401.8, -5369.452, -0.0012767727, 0.00007464654, -2126550.0, 80357.766 
7.2546077e+2, 8.479766e+1, -2040662.1, -2166319.8, -6862.6733, -0.0012778797, 0.00035098125, -2040288.5, 68694.48 
7.254557e+2, 9.478945e+1, -1947534.3, -2070838.0, -6921.24, 0.0013195187, -0.00050309504, -1947147.0, 63916.473 
7.254504e+2, 1.04780726e+2, -1861292.4, -1989873.1, -8550.465, 0.0018672526, -0.000028412618, -1860726.3, 52422.69 
7.2544485e+2, 1.1477149e+2, -1767376.0, -1893997.1, -8640.428, 0.0001803559, -0.00006442813, -1766789.1, 48450.25 
7.2543913e+2, 1.2476175e+2, -1681185.5, -1813046.4, -9694.513, -0.00064777356, 0.0007626577, -1680476.6, 36858.305 
7.254334e+2, 1.347515e+2, -1588176.8, -1717548.5, -9908.517, -0.0005273231, 0.00042952088, -1587422.3, 32013.107 
7.2542757e+2, 1.4474073e+2, -1502113.0, -1636708.4, -10821.367, -0.00016336677, 0.00060087553, -1501248.5, 20292.338 
7.2542155e+2, 1.5472946e+2, -1408426.4, -1540825.1, -10848.247, 0.0004530534, -0.0007920405, -1407543.4, 16107.944 
7.254155e+2, 1.6471764e+2, -1322371.0, -1460598.4, -11130.678, 0.00047302825, -0.00029019229, -1321480.5, 4286.6294 
7.254095e+2, 1.7470531e+2, -1228561.5, -1364686.1, -11087.141, -0.00016621122, 0.00006395416, -1227664.4, 223.60362 
7.254034e+2, 1.8469246e+2, -1142339.4, -1283520.4, -10984.03, -0.00023026406, 0.00042431397, -1141489.9, -11475.953 
7.253974e+2, 1.9467911e+2, -1049551.9, -1188061.8, -11014.228, 0.0003551953, -0.0012472103, -1048681.5, -16536.678 
7.2539145e+2, 2.0466524e+2, -963447.7, -1107412.1, -10773.829, 0.00009818122, -0.00038942613, -962645.9, -28365.188 
7.2538537e+2, 2.1465087e+2, -869151.4, -1011238.2, -10690.746, -0.0011273768, 0.0012418953, -868351.5, -31929.957 
7.253795e+2, 2.2463594e+2, -782787.25, -930598.75, -9841.25, -0.0010332548, 0.002137913, -782134.94, -43567.15 
7.253738e+2, 2.3462048e+2, -689362.2, -834723.94, -9815.493, 0.0005930259, -0.00024261296, -688702.44, -47983.156 
7.2536814e+2, 2.4460453e+2, -603311.6, -753775.0, -8688.619, 0.00097454624, -0.00024655706, -602811.56, -59935.87 
7.253627e+2, 2.545881e+2, -510045.75, -657805.6, -8682.759, -0.000121916484, 0.0004708181, -509537.28, -64500.547 
7.253574e+2, 2.6457107e+2, -424345.63, -578658.0, -7384.3555, -0.00037753343, 0.0010608474, -423993.06, -76789.47 
7.253522e+2, 2.7455348e+2, -329469.4, -481874.47, -7016.0796, 0.0003945175, -0.0008457926, -329147.13, -79771.08 
7.2534734e+2, 2.8453532e+2, -243617.88, -402456.56, -4769.229, 0.000313407, -0.0004425802, -243474.81, -91920.77 
7.2534275e+2, 2.945166e+2, -150271.08, -306308.06, -4583.82, -0.0008273894, 0.0001782313, -150136.53, -96399.34 
7.253384e+2, 3.045008e+2, -64777.71, -174886.63, -2621.357, -0.0012074253, 0.0012437815, -64715.34, -64715.34 
7.253343e+2, 3.1448793e+2, -68457.49, -176166.83, -2519.8613, -0.00053489895, 0.0005884222, -68398.57, -68398.57 
7.253305e+2, 3.244797e+2, -6393.061, -42513.96, -283.288, 0.0016923657, -0.00048343427, -6390.8394, -6390.8394 
7.3549277e+2, 3.483466e+1, -2491815.5, -2605847.8, 487.60815, 0.011520275, 0.009312218, -2491813.5, 106806.98 
7.354885e+2, 4.4828588e+1, -2398921.0, -2519302.8, -3473.1663, -0.015833773, -0.014491677, -2398821.0, 101858.95 
7.354842e+2, 5.482254e+1, -2307690.0, -2424939.5, -3659.1155, 0.0008867168, 0.0022338817, -2307576.0, 95163.17 
7.3547953e+2, 6.4815885e+1, -2221548.8, -2343197.8, -5923.4824, 0.006774323, 0.0076986286, -2221261.0, 83543.37 
7.354745e+2, 7.480864e+1, -2127083.0, -2247072.5, -6132.18, 0.00095429225, -0.0008480665, -2126770.5, 80104.89 
7.354693e+2, 8.480091e+1, -2040731.3, -2166531.0, -7985.817, -0.0016623363, -0.0028837677, -2040226.3, 68724.805 
7.3546386e+2, 9.479272e+1, -1947599.8, -2071035.6, -8053.6123, -0.0007829116, 0.00003147163, -1947076.5, 63954.91 
7.3545825e+2, 1.0478398e+2, -1861420.3, -1990156.3, -9511.393, -0.000006126415, 0.0013081818, -1860721.3, 52395.727 
7.354525e+2, 1.14774704e+2, -1767551.8, -1894289.5, -9597.769, 0.0006475609, -0.001157195, -1766829.0, 48378.863 
7.354465e+2, 1.2476491e+2, -1681589.3, -1813883.8, -10882.994, 0.0008066828, -0.00083976204, -1680700.0, 36603.863 
7.3544043e+2, 1.3475463e+2, -1588564.0, -1718365.8, -11087.198, 0.00041849702, 0.0004051457, -1587623.8, 31780.887 
7.354342e+2, 1.4474383e+2, -1502129.3, -1636795.3, -11834.614, 0.0000972474, 0.0011203156, -1501097.1, 20413.334 
7.354279e+2, 1.5473254e+2, -1408457.6, -1540908.4, -11865.526, -0.00013806656, -0.00085670524, -1407403.1, 16217.999 
7.3542166e+2, 1.6472073e+2, -1322289.8, -1460414.9, -12136.278, -0.00014623035, -0.000327677, -1321231.5, 4505.283 
7.354153e+2, 1.7470843e+2, -1228527.1, -1364499.9, -12091.664, 0.00009514211, 0.0007357158, -1227460.3, 397.29694 
7.3540896e+2, 1.8469557e+2, -1142435.8, -1283662.1, -12240.218, 0.0001057686, 0.0015678123, -1141382.8, -11399.336 
7.354025e+2, 1.9468223e+2, -1049603.5, -1188193.4, -12275.413, -0.00013980526, 0.00008198976, -1048524.56, -16410.277 
7.353962e+2, 2.0466833e+2, -963307.94, -1107091.3, -11664.396, 0.00008449443, -0.00033043823, -962367.8, -28117.523 
7.3538995e+2, 2.1465395e+2, -869067.7, -1010937.25, -11573.656, 0.0008272347, -0.0016366307, -868129.75, -31738.594 
7.353838e+2, 2.2463907e+2, -782856.3, -930581.75, -10958.153, 0.00074399624, -0.000457076, -782047.8, -43510.645 
7.353777e+2, 2.3462364e+2, -689424.6, -834713.0, -10931.531, -0.00028479623, 0.0011721759, -688606.75, -47918.41 
7.3537177e+2, 2.4460769e+2, -603405.3, -753846.5, -9859.943, -0.0006400355, 0.0016683345, -602761.9, -59917.15 
7.35366e+2, 2.5459123e+2, -510119.9, -657868.3, -9851.382, -0.00022601782, -0.0012483031, -509465.94, -64459.813 
7.353604e+2, 2.6457423e+2, -423769.75, -577351.9, -8179.2295, 0.0001770754, -0.00050569465, -423335.4, -76162.82 
7.35355e+2, 2.7455676e+2, -328948.7, -480531.16, -7803.019, 0.00059853436, 0.0022446644, -328548.06, -79204.414 
7.3534983e+2, 2.8453866e+2, -243487.75, -401930.34, -5959.194, 0.0006415578, 0.0021975103, -243263.94, -91742.94 
7.353449e+2, 2.9451996e+2, -150121.44, -305791.97, -5789.867, 0.0001866781, -0.0037446455, -149906.39, -96202.0 
7.3534024e+2, 3.045042e+2, -64746.754, -174655.67, -3552.6882, -0.00021797439, -0.0017973401, -64632.035, -64632.035 
7.353358e+2, 3.1449142e+2, -68452.81, -175963.94, -3427.1094, -0.000391806, 0.0074175904, -68343.68, -68343.68 
7.353317e+2, 3.244832e+2, -5738.594, -40910.29, -1046.2153, 0.0010679485, -0.0024516361, -5707.501, -5707.501 
7.4550277e+2, 3.4838474e+1, -2485420.3, -2605701.8, 958.6077, 0.00667073, 0.007261117, -2485412.5, 113170.41 
7.454984e+2, 4.483234e+1, -2397863.8, -2518447.8, -3090.76, -0.007445383, -0.010217002, -2397784.5, 102858.5 
7.454937e+2, 5.482628e+1, -2304376.8, -2422953.3, -2801.0095, -0.0001683512, 0.0016282895, -2304310.5, 98391.98 
7.454887e+2, 6.481958e+1, -2218299.8, -2342510.5, -4520.1597, 0.0029653904, 0.0056256307, -2218135.5, 86632.75 
7.4548346e+2, 7.481227e+1, -2124726.3, -2246855.3, -4963.4355, 0.00155953, -0.0007521311, -2124525.0, 82314.875 
7.45478e+2, 8.480449e+1, -2038470.1, -2165754.3, -7219.288, 0.00023372694, -0.0020919747, -2038062.0, 70853.984 
7.454722e+2, 9.4796264e+1, -1945375.6, -2070270.0, -7390.678, -0.0009877566, -0.00005744744, -1944939.8, 66056.86 
7.4546623e+2, 1.0478749e+2, -1859608.9, -1989610.5, -8863.523, -0.0008708301, 0.0010852547, -1859007.3, 54075.316 
7.4546015e+2, 1.147782e+2, -1766524.0, -1894140.0, -9014.586, 0.00069978833, -0.00073346845, -1765890.4, 49283.336 
7.454539e+2, 1.2476838e+2, -1680610.8, -1813612.9, -10242.315, 0.0011741329, -0.00053739507, -1679826.6, 37443.3 
7.4544746e+2, 1.3475806e+2, -1586975.5, -1717820.8, -10196.004, 0.00043363075, -0.0002125218, -1586185.8, 33185.254 
7.454409e+2, 1.4474724e+2, -1500645.9, -1636447.3, -10900.004, -0.00006248599, 0.0006081616, -1499776.5, 21700.533 
7.4543434e+2, 1.5473594e+2, -1407557.1, -1540862.1, -11129.888, -0.00026857498, -0.00015535536, -1406634.3, 16953.65 
7.454277e+2, 1.6472411e+2, -1321836.5, -1460061.5, -11544.108, -0.00017715932, 0.0004049781, -1320879.1, 4824.7407 
7.45421e+2, 1.747118e+2, -1229010.5, -1364616.1, -11522.375, 0.00024431894, 0.00021690906, -1228038.4, -213.84239 
7.454144e+2, 1.8469894e+2, -1142995.1, -1283873.8, -11604.147, 0.00024035503, 0.0009108318, -1142045.6, -12095.365 
7.4540764e+2, 1.9468561e+2, -1049071.9, -1187892.5, -11567.593, -0.00025295216, 0.0005212277, -1048114.56, -16033.434 
7.45401e+2, 2.0467174e+2, -962910.7, -1106837.4, -10976.11, -0.000039886218, 0.00034109413, -962078.44, -27861.447 
7.4539447e+2, 2.1465737e+2, -870278.1, -1011468.8, -10992.633, 0.0009627404, -0.0017254673, -869427.4, -33069.527 
7.45388e+2, 2.2464247e+2, -784633.2, -931031.2, -10308.938, 0.00093918934, -0.00094698666, -783910.8, -45407.074 
7.453816e+2, 2.346271e+2, -691059.6, -835064.56, -10039.422, -0.00027275653, 0.0007309064, -690363.06, -49708.582 
7.453753e+2, 2.4461116e+2, -604876.0, -754463.0, -8798.144, -0.0007038946, 0.0014427828, -604360.3, -61549.688 
7.453692e+2, 2.5459468e+2, -510970.88, -658220.2, -8713.109, -0.00021327764, -0.0010866604, -510457.1, -65485.145 
7.4536335e+2, 2.6457775e+2, -424862.56, -577266.44, -7082.3022, 0.00019477401, -0.00043118955, -424534.16, -77396.07 
7.4535763e+2, 2.7456033e+2, -331959.38, -481365.2, -6959.8354, 0.0005182036, 0.0017000958, -331635.84, -82327.22 
7.4535215e+2, 2.845423e+2, -247054.48, -403108.8, -5175.565, 0.0005620687, 0.0018676986, -246883.02, -95397.58 
7.453469e+2, 2.9452366e+2, -152392.47, -306343.16, -4941.7085, 0.00021378051, -0.0028872944, -152234.02, -98565.74 
7.453419e+2, 3.0450794e+2, -66518.31, -174864.6, -2546.382, -0.00016745097, -0.001441927, -66458.5, -66458.5 
7.4533725e+2, 3.144952e+2, -70946.36, -176505.64, -2129.3127, -0.00040127512, 0.0052386844, -70903.42, -70903.42 
7.453329e+2, 3.2448703e+2, -9622.971, -42665.47, 110.0877, 0.0012558438, -0.001701908, -9622.604, -9622.604 
7.5551295e+2, 3.484231e+1, -2486125.3, -2607145.8, -1225.2512, -0.011937484, -0.0037151137, -2486112.8, 112432.66 
7.555086e+2, 4.4836453e+1, -2397190.5, -2517167.0, -4059.6506, 0.02096, 0.00710599, -2397053.5, 103549.484 
7.555033e+2, 5.483027e+1, -2303577.5, -2421567.3, -3835.5493, -0.001655214, -0.0021365606, -2303453.0, 99210.45 
7.5549793e+2, 6.482351e+1, -2218959.0, -2344082.3, -5553.1753, -0.008720965, -0.0039624395, -2218713.0, 86016.664 
7.554925e+2, 7.481619e+1, -2125492.0, -2248518.5, -5960.8955, 0.0008029979, 0.00018455937, -2125204.0, 81597.44 
7.5548667e+2, 8.480837e+1, -2038749.9, -2166395.3, -8335.638, 0.003983522, 0.0020250739, -2038207.9, 70670.266 
7.554806e+2, 9.4800043e+1, -1945629.3, -2070865.0, -8511.013, 0.00034760643, -0.0006765047, -1945053.4, 65906.195 
7.554743e+2, 1.04791224e+2, -1859825.5, -1990170.5, -10009.907, -0.00091439567, -0.0004391297, -1859061.3, 53984.797 
7.554679e+2, 1.14781916e+2, -1766759.3, -1894678.1, -10157.321, 0.00037463085, 0.0009535333, -1765957.8, 49179.563 
7.554613e+2, 1.2477209e+2, -1680489.9, -1813413.3, -11260.504, 0.0005876769, 0.0013553662, -1679542.6, 37690.902 
7.5545454e+2, 1.3476175e+2, -1586899.3, -1717601.6, -11217.537, -0.00035471717, -0.0013363388, -1585943.5, 33391.33 
7.5544775e+2, 1.4475092e+2, -1501079.3, -1637332.4, -12065.391, -0.00059259206, -0.00077236653, -1500019.1, 21422.021 
7.554408e+2, 1.5473956e+2, -1408013.5, -1541764.3, -12280.601, -0.00003879047, 0.001189605, -1406895.3, 16657.115 
7.5543386e+2, 1.647277e+2, -1321786.9, -1459974.6, -12771.851, 0.00026491916, 0.0017907233, -1320616.4, 5052.0435 
7.554268e+2, 1.7471538e+2, -1228934.8, -1364474.3, -12758.24, 0.0002801125, -0.001314908, -1227744.3, 45.11362 
7.554198e+2, 1.8470255e+2, -1142902.3, -1283702.3, -12566.517, 0.00017891004, -0.0012752638, -1141789.5, -11874.373 
7.5541276e+2, 1.9468923e+2, -1049036.3, -1187750.3, -12525.315, -0.000064568616, 0.00020646284, -1047914.3, -15868.697 
7.5540584e+2, 2.0467538e+2, -963021.56, -1106966.9, -12262.716, -0.0002821781, 0.0015477652, -961984.4, -27803.02 
7.553989e+2, 2.14661e+2, -870368.94, -1011586.56, -12281.179, -0.00048202006, 0.0005871166, -869308.9, -32986.64 
7.553921e+2, 2.2464614e+2, -784190.6, -930046.4, -11381.954, -0.0002454985, 0.00037681495, -783307.75, -44839.875 
7.553854e+2, 2.346308e+2, -690614.3, -834061.2, -11122.033, 0.00048229954, -0.0013097518, -689757.1, -49138.902 
7.5537884e+2, 2.4461491e+2, -604805.0, -754202.5, -9826.555, 0.0005461056, -0.0006170206, -604161.44, -61387.55 
7.5537246e+2, 2.545985e+2, -510949.75, -657998.25, -9729.696, -0.0001357851, 0.00070445356, -510308.75, -65374.074 
7.553662e+2, 2.6458156e+2, -424788.34, -576940.25, -8373.869, -0.00029588837, 0.0010621814, -424328.88, -77228.25 
7.553601e+2, 2.7456415e+2, -331846.78, -481006.4, -8261.951, 0.00016618286, -0.002017059, -331390.53, -82119.12 
7.553543e+2, 2.8454614e+2, -246723.94, -402364.78, -6047.0786, 0.00009492326, -0.0010454989, -246489.34, -95041.57 
7.553488e+2, 2.9452762e+2, -152142.92, -305599.94, -5792.976, -0.00067185465, 0.0021527845, -151924.55, -98295.23 
7.5534356e+2, 3.0451196e+2, -65992.09, -173559.95, -3650.9329, -0.0009844501, 0.0018659637, -65868.32, -65868.32 
7.5533855e+2, 3.144992e+2, -70371.77, -175159.67, -3251.3486, -0.0005613862, -0.0048632994, -70270.99, -70270.99 
7.5533384e+2, 3.2449114e+2, -10309.837, -43914.336, -1026.359, 0.0020696733, 0.0014814383, -10278.519, -10278.519 
7.6552343e+2, 3.4846765e+1, -2482338.3, -2602821.0, -334.49213, -0.009248766, -0.0056718593, -2482337.3, 116164.445 
7.655185e+2, 4.4840974e+1, -2396116.3, -2518394.0, -1153.3818, 0.014737995, 0.008702525, -2396105.3, 104453.16 
7.6551306e+2, 5.483461e+1, -2300458.5, -2421878.5, -2585.643, -0.0005178946, -0.001993222, -2300403.5, 102217.3 
7.655074e+2, 6.4827746e+1, -2214521.3, -2342131.0, -5384.919, -0.0056568445, -0.0043158582, -2214294.5, 90393.69 
7.6550156e+2, 7.482042e+1, -2122726.3, -2247353.5, -5179.528, 0.000035243516, 0.00038452863, -2122511.5, 84248.516 
7.654955e+2, 8.481255e+1, -2036965.0, -2166096.0, -7109.71, 0.0022837953, 0.0023572752, -2036574.8, 72262.31 
7.654891e+2, 9.4804174e+1, -1943482.3, -2070419.9, -7375.616, 0.0007930215, -0.00067098025, -1943055.1, 67864.03 
7.654825e+2, 1.0479531e+2, -1857484.4, -1989443.3, -9023.247, -0.000013103122, -0.0005313349, -1856870.1, 56135.906 
7.6547563e+2, 1.1478596e+2, -1764616.1, -1894061.1, -9174.4375, -0.000072974755, 0.0010263867, -1763969.1, 51128.46 
7.654688e+2, 1.2477611e+2, -1678725.1, -1812739.4, -10333.298, -0.00013760276, 0.0015504987, -1677933.1, 39261.105 
7.654617e+2, 1.3476576e+2, -1585978.0, -1717367.0, -10499.137, -0.0001885467, -0.0010591082, -1585144.3, 34151.348 
7.6545453e+2, 1.447549e+2, -1500643.6, -1637114.6, -11310.995, -0.000088852794, -0.0006844183, -1499712.5, 21689.469 
7.6544726e+2, 1.5474355e+2, -1407728.0, -1541653.1, -11149.419, 0.00018349578, 0.0007844894, -1406806.1, 16707.178 
7.654399e+2, 1.647317e+2, -1321442.5, -1459985.1, -11495.043, 0.0002275961, 0.0013752857, -1320495.3, 5134.2993 
7.654326e+2, 1.7471933e+2, -1228028.6, -1364219.3, -11660.182, 0.000008580262, -0.0012125616, -1227037.5, 713.0273 
7.654252e+2, 1.8470648e+2, -1142253.3, -1283352.3, -11597.579, -0.000025342615, -0.0011504723, -1141306.4, -11429.979 
7.6541793e+2, 1.9469318e+2, -1049849.0, -1188113.3, -11626.235, 0.00013035213, -0.00017333207, -1048878.3, -16871.271 
7.6541066e+2, 2.0467934e+2, -964168.44, -1107282.3, -11343.319, -0.000053062486, 0.0011904343, -963274.94, -29132.336 
7.6540333e+2, 2.14665e+2, -870862.1, -1011579.06, -11175.826, -0.0006241644, 0.000843438, -869980.06, -33696.855 
7.653962e+2, 2.2465013e+2, -784650.25, -930179.0, -10316.339, -0.00050276925, 0.00079219486, -783922.56, -45493.895 
7.6538914e+2, 2.346348e+2, -691637.56, -834460.9, -10462.151, 0.0004015637, -0.00127395, -690875.25, -50296.297 
7.653823e+2, 2.4461894e+2, -606260.2, -754359.6, -9271.678, 0.00063620607, -0.0006746779, -605682.0, -62947.633 
7.6537555e+2, 2.546026e+2, -513320.4, -658570.6, -8948.641, 0.00010005531, 0.00091850077, -512771.16, -67876.57 
7.6536894e+2, 2.645857e+2, -427280.47, -577885.8, -7459.0903, -0.0002322857, 0.0012802031, -426911.97, -79851.8 
7.6536256e+2, 2.745683e+2, -333118.47, -481391.88, -7362.1885, -0.0003080944, -0.0021298886, -332753.8, -83523.06 
7.653564e+2, 2.845503e+2, -248122.02, -402478.22, -5182.412, -0.0002115823, -0.00094681914, -247948.2, -96541.484 
7.6535064e+2, 2.9453185e+2, -155572.31, -306726.3, -4964.4106, 0.000013451269, 0.003115262, -155409.45, -101821.77 
7.6534504e+2, 3.0451626e+2, -70033.625, -174696.06, -2762.2554, -0.0003635159, 0.0020938895, -69960.77, -69960.77 
7.653398e+2, 3.1450358e+2, -73511.63, -175859.5, -2532.0715, -0.001253903, -0.007295077, -73449.03, -73449.03 
7.653348e+2, 3.244956e+2, -12838.349, -44520.19, -39.998592, 0.0011819787, 0.0030153731, -12838.298, -12838.298 
7.755341e+2, 3.485174e+1, -2479027.8, -2595903.5, -3158.3906, 0.010599001, -0.00032855643, -2478942.5, 119510.67 
7.755282e+2, 4.484584e+1, -2398282.8, -2523582.3, -1790.1149, -0.019787012, -0.0025668174, -2398257.3, 102253.484 
7.75523e+2, 5.483925e+1, -2303120.0, -2427440.8, -3052.5413, 0.002768858, 0.001366141, -2303045.0, 99530.37 
7.755172e+2, 6.483225e+1, -2214226.5, -2341401.8, -6764.3467, 0.009454839, 0.0029110096, -2213867.8, 90776.2 
7.755108e+2, 7.4824905e+1, -2122236.0, -2246448.5, -6614.989, -0.00077468104, -0.000048211226, -2121884.8, 84831.234 
7.755043e+2, 8.4817016e+1, -2037327.9, -2167014.8, -8159.7095, -0.0039324374, -0.00044361537, -2036816.5, 71976.73 
7.754976e+2, 9.48086e+1, -1943942.1, -2071390.0, -8403.618, 0.0004656764, -0.00015581973, -1943390.4, 67485.37 
7.754907e+2, 1.0479968e+2, -1857747.8, -1990037.6, -10218.286, 0.0016425651, 0.0005540789, -1856963.1, 55999.992 
7.7548355e+2, 1.1479028e+2, -1764880.8, -1894611.0, -10365.457, -0.0006519914, -0.00025698976, -1764057.8, 50997.48 
7.754763e+2, 1.2478039e+2, -1679012.6, -1813363.8, -11561.437, -0.00101334, 0.00032682196, -1678025.0, 39127.293 
7.754689e+2, 1.3477002e+2, -1586292.6, -1717982.4, -11722.2, 0.00075435615, 0.00038885244, -1585257.4, 33996.492 
7.754614e+2, 1.4475915e+2, -1500313.4, -1636476.3, -12511.2, 0.001260001, 0.0006277521, -1499173.4, 22186.893 
7.7545375e+2, 1.5474781e+2, -1407391.6, -1540957.8, -12367.242, 0.00036938785, -0.0010974278, -1406256.3, 17215.205 
7.754461e+2, 1.6473596e+2, -1321707.5, -1460552.8, -12607.579, -0.00024291434, -0.00055006315, -1320571.9, 5015.6685 
7.754384e+2, 1.747236e+2, -1228363.9, -1364836.6, -12755.337, -0.0005418516, 0.00027766812, -1227182.0, 526.7795 
7.7543074e+2, 1.8471074e+2, -1142357.0, -1283497.9, -12935.372, -0.00037143624, 0.00093839894, -1141181.3, -11346.461 
7.7542305e+2, 1.946974e+2, -1049915.1, -1188237.0, -12968.653, 0.0003077876, -0.0006074016, -1048709.6, -16744.053 
7.7541536e+2, 2.0468354e+2, -963882.94, -1106651.1, -12467.3125, 0.00055667246, -0.000493388, -962802.4, -28701.207 
7.754078e+2, 2.1466926e+2, -870594.9, -1010929.56, -12304.796, 0.00032413928, -0.00065197714, -869524.1, -33282.82 
7.754003e+2, 2.2465442e+2, -784997.3, -930768.56, -11535.179, 0.0000037571756, 0.0004419151, -784090.2, -45703.496 
7.753929e+2, 2.3463906e+2, -692005.06, -835106.8, -11665.126, -0.00042737962, 0.0005562146, -691060.44, -50523.223 
7.753856e+2, 2.4462323e+2, -605800.06, -753250.1, -10508.289, -0.00029290412, 0.0009991262, -605054.94, -62362.48 
7.753785e+2, 2.5460693e+2, -512813.28, -657406.75, -10203.991, 0.00044731295, -0.00023335694, -512096.72, -67244.6 
7.753717e+2, 2.6459008e+2, -427201.28, -577556.25, -8448.277, 0.00027182247, 0.00040766783, -426728.06, -79710.945 
7.75365e+2, 2.7457276e+2, -333114.1, -481104.28, -8330.355, -0.0009139715, 0.0008918295, -332646.63, -83459.484 
7.753585e+2, 2.845548e+2, -247928.44, -401863.75, -6558.1987, -0.00040456338, 0.0017650233, -247649.55, -96286.72 
7.753523e+2, 2.9453635e+2, -155332.11, -306060.8, -6358.1016, 0.0020337238, 0.00051154423, -155064.39, -101520.59 
7.753464e+2, 3.045208e+2, -69768.305, -173988.06, -3649.0137, 0.0014706948, -0.00035595914, -69640.7, -69640.7 
7.753408e+2, 3.145082e+2, -73311.74, -175189.05, -3397.7026, -0.0024290064, -0.0029813654, -73198.555, -73198.555 
7.7533555e+2, 3.2450032e+2, -11828.315, -42087.664, -1026.1588, -0.0012501446, 0.0030398362, -11793.557, -11793.557 
7.855447e+2, 3.4856853e+1, -2479621.8, -2598570.8, -1253.9558, 0.010743557, 0.005074308, -2479608.5, 118794.51 
7.855386e+2, 4.4850722e+1, -2387938.0, -2518619.0, -3539.435, -0.01909158, -0.008981866, -2387842.3, 112620.72 
7.85533e+2, 5.484418e+1, -2299989.0, -2425999.0, -2478.4216, 0.0024676316, 0.0017246383, -2299940.3, 102586.75 
7.855268e+2, 6.483718e+1, -2213970.8, -2341915.0, -4891.795, 0.008979657, 0.0053605256, -2213784.0, 90811.8 
7.8552014e+2, 7.4829745e+1, -2119564.0, -2245805.3, -5510.075, -0.0006047294, -0.0004937481, -2119324.0, 87344.625 
7.855132e+2, 8.48218e+1, -2033924.9, -2165717.8, -7500.4893, -0.0036661546, -0.0016556896, -2033499.5, 75246.97 
7.8550625e+2, 9.4813365e+1, -1941903.8, -2070784.4, -7541.392, 0.00025544126, 0.00015164269, -1941463.9, 69365.14 
7.85499e+2, 1.0480441e+2, -1856332.9, -1989613.8, -9158.02, 0.0014470204, 0.0011145157, -1855706.5, 57210.277 
7.854915e+2, 1.1479498e+2, -1763303.6, -1894150.1, -9242.036, -0.00030226656, -0.0007835674, -1762654.1, 52355.207 
7.854839e+2, 1.2478505e+2, -1677525.5, -1812977.0, -10463.745, -0.0006128473, -0.00027137905, -1676722.0, 40384.62 
7.8547615e+2, 1.3477466e+2, -1585059.1, -1717749.6, -10552.681, 0.000655509, 0.0007863858, -1584225.1, 34983.33 
7.854683e+2, 1.4476377e+2, -1499164.1, -1636157.0, -11431.986, 0.00094830827, 0.0012248482, -1498216.8, 23098.406 
7.854603e+2, 1.5475239e+2, -1406202.8, -1540635.5, -11744.159, 0.00016771397, -0.0011391821, -1405184.5, 18242.049 
7.8545225e+2, 1.6474052e+2, -1320901.9, -1460115.9, -12141.275, -0.00022697134, -0.00070927094, -1319851.0, 5691.8467 
7.854442e+2, 1.7472818e+2, -1228693.5, -1364973.9, -12015.474, -0.00018880735, 0.0005715467, -1227642.3, 21.65626 
7.8543615e+2, 1.8471532e+2, -1143012.8, -1283745.4, -12016.208, -0.00004159039, 0.0014379292, -1141994.1, -12204.218 
7.854281e+2, 1.9470197e+2, -1050033.1, -1188229.3, -11967.572, 0.00020935596, -0.00018594039, -1049004.5, -17083.744 
7.854201e+2, 2.0468815e+2, -964022.56, -1106668.0, -11493.784, 0.00037377974, -0.00029997985, -963102.4, -29046.1 
7.854122e+2, 2.1467385e+2, -871389.1, -1011259.56, -11600.776, 0.0004306056, -0.0008256222, -870433.5, -34237.14 
7.854043e+2, 2.2465903e+2, -786076.06, -930979.56, -10786.986, 0.00012722824, 0.0003424283, -785277.44, -46935.914 
7.853965e+2, 2.3464371e+2, -693320.2, -835404.6, -10440.313, -0.0005983603, 0.001006561, -692557.1, -52065.375 
7.853889e+2, 2.4462788e+2, -607292.2, -753768.4, -9227.922, -0.00045689935, 0.0013557632, -606713.1, -64066.35 
7.853815e+2, 2.546116e+2, -514301.13, -657919.1, -9351.456, 0.00064398505, -0.00070498575, -513694.78, -68888.43 
7.853743e+2, 2.645948e+2, -429041.8, -577889.2, -7640.744, 0.0005203625, 0.000040918505, -428650.63, -81679.61 
7.8536725e+2, 2.7457753e+2, -336217.3, -482039.8, -7325.87, -0.0009785187, 0.0017405299, -335850.2, -86709.79 
7.853604e+2, 2.8455964e+2, -251121.94, -402840.9, -5486.2744, -0.00060462166, 0.002110323, -250923.81, -99608.195 
7.853539e+2, 2.945412e+2, -157165.02, -306401.56, -5269.3794, 0.0018976725, -0.0016863048, -156979.19, -103482.87 
7.8534764e+2, 3.045257e+2, -71877.734, -174626.67, -2547.633, 0.0015519358, -0.0009447175, -71814.6, -71814.6 
7.8534174e+2, 3.145132e+2, -77362.92, -176768.23, -2423.2412, -0.001916032, 0.0030115866, -77303.88, -77303.88 
7.8533614e+2, 3.2450533e+2, -16509.58, -42684.66, -182.49176, -0.001700428, -0.000102281105, -16508.307, -16508.307 
7.955551e+2, 3.4862098e+1, -2484529.0, -2609621.0, 2876.2595, -0.0049818894, 0.010506254, -2484462.8, 113888.664 
7.9554975e+2, 4.4855633e+1, -2386560.5, -2514954.8, -5714.8813, 0.010129947, -0.011410875, -2386306.8, 114108.14 
7.955431e+2, 5.484938e+1, -2297868.0, -2421789.0, -4856.7866, -0.0008400131, -0.00038167386, -2297678.0, 104798.125 
7.955364e+2, 6.484245e+1, -2214773.3, -2343984.5, -5721.2134, -0.0042451196, 0.0038949086, -2214520.5, 90023.63 
7.9552954e+2, 7.483487e+1, -2120628.5, -2248075.5, -6281.719, 0.0003625688, -0.00095814915, -2120319.8, 86298.586 
7.955224e+2, 8.4826845e+1, -2034016.9, -2165899.8, -8862.274, 0.0018813798, -0.0015723796, -2033424.0, 75272.97 
7.9551494e+2, 9.4818395e+1, -1941922.1, -2070883.8, -8923.986, 0.000090980764, 0.0002723668, -1941307.5, 69472.195 
7.955073e+2, 1.0480944e+2, -1856391.3, -1989892.4, -10323.421, -0.00030343133, 0.001233144, -1855597.6, 57269.93 
7.954995e+2, 1.1479997e+2, -1763428.6, -1894436.3, -10404.976, 0.0007908375, -0.000691447, -1762607.4, 52352.88 
7.954915e+2, 1.2479002e+2, -1677674.4, -1813310.4, -11778.389, 0.00080254703, -0.00036244967, -1676659.1, 40398.605 
7.954834e+2, 1.347796e+2, -1585187.0, -1718053.8, -11870.503, -0.00034365148, 0.00030139947, -1584134.9, 35025.04 
7.954752e+2, 1.4476867e+2, -1499699.8, -1637314.8, -12626.735, -0.0007760016, 0.0012249915, -1498550.9, 22716.193 
7.9546684e+2, 1.5475723e+2, -1406806.6, -1541835.4, -12911.158, -0.00038794463, 0.0003577717, -1405583.1, 17796.006 
7.954585e+2, 1.6474535e+2, -1320683.9, -1459649.8, -13503.082, 0.00016423111, 0.0006127242, -1319384.0, 6111.6963 
7.9545003e+2, 1.74733e+2, -1228441.1, -1364430.0, -13395.739, 0.00090215204, -0.00014803941, -1227134.1, 482.4861 
7.9544157e+2, 1.8472017e+2, -1142885.8, -1283505.6, -13217.708, 0.00082954444, 0.0005983401, -1141654.1, -11911.822 
7.9543316e+2, 1.9470686e+2, -1049943.8, -1188006.5, -13165.653, -0.00015848406, 0.0009643647, -1048699.5, -16826.76 
7.954248e+2, 2.0469303e+2, -964259.2, -1107100.1, -12777.998, -0.00050777016, 0.0014980835, -963125.1, -29116.807 
7.954165e+2, 2.1467869e+2, -871656.3, -1011713.5, -12873.453, -0.00020184445, 0.00012557274, -870482.9, -34334.098 
7.9540825e+2, 2.246639e+2, -785543.5, -929753.6, -12046.043, -0.00010696623, 0.0004548538, -784544.2, -46250.4 
7.9540014e+2, 2.3464866e+2, -692761.1, -834116.5, -11717.543, -0.00023795902, 0.00028156515, -691796.4, -51353.23 
7.953922e+2, 2.4463287e+2, -607592.3, -754248.6, -10481.202, 0.000007547384, 0.00060350285, -606847.0, -64249.14 
7.953844e+2, 2.5461656e+2, -514635.75, -658476.9, -10582.174, 0.0006713913, -0.0005801788, -513861.4, -69103.664 
7.953768e+2, 2.6459977e+2, -428616.6, -576873.75, -8927.546, 0.0005044436, 0.000119336335, -428080.94, -81158.67 
7.953694e+2, 2.7458256e+2, -335769.63, -480956.2, -8625.946, -0.00059404096, 0.00070761994, -335258.94, -86167.93 
7.9536223e+2, 2.8456473e+2, -250846.89, -402082.13, -6529.05, -0.00084595353, 0.00041026843, -250565.53, -99299.92 
7.953553e+2, 2.9454637e+2, -156928.88, -305664.03, -6300.701, -0.00017448916, -0.0035163488, -156662.44, -103216.61 
7.9534876e+2, 3.0453092e+2, -71866.02, -174453.23, -3903.6458, 0.000062415376, 0.000093874965, -71717.695, -71717.695 
7.953425e+2, 3.1451848e+2, -77355.03, -176619.36, -3783.7205, 0.00007042181, 0.010458879, -77211.016, -77211.016 
7.953365e+2, 3.2451054e+2, -15750.358, -40904.316, -1392.2809, -0.0004956359, -0.006021188, -15673.529, -15673.529 
8.055662e+2, 3.486778e+1, -2471919.0, -2605431.3, 2751.32, -0.009791491, 0.004698443, -2471862.5, 126433.43 
8.055603e+2, 4.4861346e+1, -2394024.8, -2518800.5, -2020.6334, 0.018283652, -0.0038698523, -2393992.0, 106366.81 
8.055533e+2, 5.4855e+1, -2294556.8, -2420325.8, -3054.901, -0.0018079376, -0.00085816794, -2294482.5, 107938.43 
8.055463e+2, 6.4848e+1, -2208179.8, -2341569.8, -5199.6226, -0.007873787, 0.0009316554, -2207977.5, 96512.14 
8.0553913e+2, 7.4840385e+1, -2117852.3, -2247546.0, -5238.459, 0.0009452337, -0.0005496627, -2117641.0, 88923.33 
8.055316e+2, 8.4832305e+1, -2032541.4, -2165645.3, -7550.2354, 0.0036411476, -0.00018459198, -2032114.5, 76528.95 
8.0552375e+2, 9.482381e+1, -1939470.8, -2070172.0, -7835.3584, -0.00022988564, 0.000104788705, -1939002.6, 71724.12 
8.0551577e+2, 1.048148e+2, -1853880.6, -1988996.6, -9441.955, -0.0012309997, 0.0007230676, -1853224.0, 59591.04 
8.0550754e+2, 1.1480531e+2, -1761923.5, -1894041.5, -9612.728, 0.00085089635, -0.00025806463, -1761227.8, 53680.28 
8.0549926e+2, 1.2479533e+2, -1676450.1, -1812988.1, -10984.488, 0.0011685517, 0.0001299492, -1675572.1, 41433.64 
8.0549073e+2, 1.3478488e+2, -1583551.6, -1717537.3, -11105.258, -0.00041650108, -0.00008754141, -1582637.4, 36470.785 
8.054821e+2, 1.4477393e+2, -1498250.8, -1636657.1, -11745.266, -0.0009126543, 0.0007191065, -1497261.1, 23954.414 
8.0547345e+2, 1.5476249e+2, -1406477.6, -1541741.8, -11542.099, -0.00017271128, 0.0005742524, -1405499.9, 17827.82 
8.054647e+2, 1.6475059e+2, -1320758.3, -1459839.9, -11998.778, 0.00035069083, 0.0009942036, -1319730.8, 5713.602 
8.0545586e+2, 1.7473823e+2, -1227999.4, -1364389.9, -12230.4375, 0.0006301951, -0.00020794399, -1226911.4, 654.00275 
8.0544704e+2, 1.8472539e+2, -1142361.4, -1283166.0, -12231.543, 0.00047887492, 0.00024485524, -1141306.8, -11615.51 
8.054382e+2, 1.9471209e+2, -1050089.8, -1187984.5, -12239.5, -0.00016739304, 0.0004782055, -1049011.8, -17190.18 
8.054295e+2, 2.0469828e+2, -964896.1, -1107221.1, -11792.986, -0.0003767812, 0.0011317083, -963925.56, -29968.602 
8.0542076e+2, 2.1468396e+2, -872689.1, -1012039.7, -11594.791, -0.00015064122, 0.00014952391, -871730.94, -35633.668 
8.0541223e+2, 2.2466917e+2, -786825.8, -930107.6, -10765.138, -0.000002517956, 0.00041694447, -786021.56, -47779.406 
8.0540377e+2, 2.3465395e+2, -694203.25, -834567.0, -10887.663, 0.000055444914, -0.00028922956, -693363.75, -52972.45 
8.0539536e+2, 2.446382e+2, -609100.56, -754554.06, -9630.644, 0.00005097146, 0.00012718265, -608465.7, -65920.0 
8.053872e+2, 2.5462192e+2, -516284.34, -658863.8, -9233.8, -0.000017027724, -0.00027607632, -515688.84, -70983.72 
8.053792e+2, 2.6460516e+2, -430485.84, -577383.8, -7501.38, 0.00000057589955, 0.00034668678, -430103.78, -83234.5 
8.0537146e+2, 2.74588e+2, -337820.1, -481582.4, -7487.603, 0.00013243263, -0.0001158268, -337431.2, -88393.41 
8.0536395e+2, 2.8457022e+2, -253261.13, -402683.3, -5362.1865, -0.00019055558, -0.00019315211, -253068.95, -101856.984 
8.0535674e+2, 2.9455188e+2, -160075.47, -306598.6, -5151.041, -0.0011123624, -0.002411727, -159894.6, -106503.08 
8.0534977e+2, 3.045365e+2, -75217.71, -175289.25, -2816.07, -0.0008945085, 0.000707616, -75138.53, -75138.53 
8.0534315e+2, 3.1452414e+2, -80579.31, -177399.19, -2338.953, 0.0009587981, 0.007959494, -80522.84, -80522.84 
8.053368e+2, 3.245163e+2, -19120.895, -42062.746, 96.555435, 0.000021902051, -0.005260955, -19120.488, -19120.488 
8.1557775e+2, 3.487383e+1, -2470534.5, -2601413.0, -7077.43, -0.005953127, -0.009984677, -2470152.8, 128083.67 
8.155705e+2, 4.486773e+1, -2394820.5, -2522000.5, -1681.962, 0.00937211, 0.011651316, -2394798.3, 105498.164 
8.1556374e+2, 5.486098e+1, -2296281.8, -2424060.0, -2552.9507, -0.000883736, -0.00004081889, -2296230.8, 106131.734 
8.1555647e+2, 6.48538e+1, -2208469.5, -2341823.8, -6955.489, -0.0037565704, -0.0032234942, -2208107.8, 96325.23 
8.155488e+2, 7.484622e+1, -2117878.5, -2247628.5, -7027.112, 0.0011777356, 0.0005599094, -2117499.3, 89008.0 
8.1554085e+2, 8.483812e+1, -2032916.3, -2166617.5, -8675.414, 0.002284562, 0.002247616, -2032355.6, 76230.87 
8.155326e+2, 9.482951e+1, -1939942.1, -2071182.1, -8942.584, -0.00070497586, -0.0003150649, -1939335.6, 71335.195 
8.155243e+2, 1.0482045e+2, -1854156.9, -1989648.3, -10839.0205, -0.0015086752, -0.000307208, -1853295.3, 59464.434 
8.155157e+2, 1.14810936e+2, -1762182.6, -1894662.0, -11011.118, 0.000029531559, 0.00045218715, -1761273.6, 53579.3 
8.15507e+2, 1.2480092e+2, -1676621.6, -1813426.0, -12157.672, 0.0006318137, 0.0010985192, -1675549.6, 41401.426 
8.154981e+2, 1.3479042e+2, -1583788.4, -1717997.3, -12271.554, 0.0002528312, -0.00040091987, -1582675.5, 36378.42 
8.154891e+2, 1.4477947e+2, -1497891.5, -1635889.8, -13210.945, 0.0002426037, -0.00020664201, -1496638.1, 24523.053 
8.1548005e+2, 1.547681e+2, -1406054.5, -1540922.6, -13037.354, 0.00065449544, -0.0002816103, -1404805.8, 18466.9 
8.154709e+2, 1.647562e+2, -1321109.6, -1460629.0, -13268.694, 0.00032646934, 0.00059268187, -1319858.9, 5530.358 
8.154617e+2, 1.7474379e+2, -1228419.5, -1365232.0, -13474.775, -0.00080938917, 0.00028556926, -1227105.0, 405.91644 
8.154525e+2, 1.8473093e+2, -1142401.8, -1283228.9, -13588.38, -0.00091754674, 0.00029789686, -1141102.6, -11465.638 
8.154433e+2, 1.9471759e+2, -1050142.9, -1188015.0, -13597.196, 0.00009377025, -0.0013957742, -1048814.8, -17047.11 
8.1543416e+2, 2.047038e+2, -964574.1, -1106486.9, -13177.391, 0.00057777023, -0.0010618551, -963360.94, -29458.127 
8.1542504e+2, 2.1468954e+2, -872360.7, -1011257.94, -12986.25, 0.0004502017, -0.00060717686, -871157.0, -35114.566 
8.154161e+2, 2.2467479e+2, -787071.44, -930580.6, -12086.085, 0.00035076265, 0.00025980728, -786060.7, -47873.566 
8.154072e+2, 2.3465954e+2, -694502.75, -835079.0, -12190.508, 0.0002586255, -0.00072413945, -693453.44, -53116.76 
8.153985e+2, 2.4464379e+2, -608490.25, -753166.2, -10905.024, -0.00028607284, -0.00010539887, -607672.94, -65182.16 
8.1538993e+2, 2.5462765e+2, -515663.7, -657413.75, -10525.532, -0.0013571248, 0.00018715645, -514886.4, -70237.305 
8.153816e+2, 2.6461098e+2, -430568.3, -577384.9, -8870.838, -0.0009694344, 0.0007203554, -430034.25, -83221.53 
8.153735e+2, 2.7459374e+2, -337921.5, -481624.88, -8844.885, 0.0011316657, -0.0007468289, -337379.16, -88397.82 
8.153656e+2, 2.84576e+2, -253026.16, -402073.34, -6586.2354, 0.0012130043, 0.00016458206, -252735.69, -101580.47 
8.15358e+2, 2.9455778e+2, -159864.2, -305971.72, -6366.7417, -0.0011056274, 0.0012594566, -159587.3, -106253.3 
8.1535065e+2, 3.0454242e+2, -74542.45, -173684.81, -4150.4106, -0.0014318066, 0.00094658596, -74369.01, -74369.01 
8.153436e+2, 3.1453007e+2, -79863.08, -175741.16, -3686.8428, 0.00086367346, -0.0032585459, -79721.516, -79721.516 
8.1533694e+2, 3.2452244e+2, -19464.027, -42596.105, -1125.3474, -0.00012384291, 0.0014438869, -19409.41, -19409.41 
8.2558906e+2, 3.488036e+1, -2477804.3, -2602674.5, -4741.684, 0.0044273776, -0.007202743, -2477624.5, 120548.11 
8.255813e+2, 4.4874215e+1, -2377048.8, -2515302.0, -1498.8112, -0.0076409527, 0.008606369, -2377032.5, 123200.31 
8.255742e+2, 5.4867303e+1, -2293009.0, -2424533.3, -1961.7765, 0.000807779, 0.0002640577, -2292979.8, 109320.8 
8.2556665e+2, 6.4860034e+1, -2209493.3, -2342425.8, -5711.716, 0.0035428123, -0.0018922578, -2209248.3, 95123.56 
8.2555854e+2, 7.485243e+1, -2115018.0, -2246330.8, -5794.086, 0.00019976741, 0.0004949114, -2114763.0, 91683.29 
8.255502e+2, 8.484429e+1, -2029092.1, -2165350.3, -7512.9253, -0.0010517006, 0.0017330636, -2028679.1, 79846.86 
8.255417e+2, 9.483564e+1, -1937518.1, -2070647.0, -7693.537, -0.00011268199, -0.0002730732, -1937075.0, 73535.76 
8.255329e+2, 1.04826525e+2, -1852221.1, -1989052.0, -9547.789, 0.00017519685, -0.000114272916, -1851558.1, 61141.984 
8.255239e+2, 1.1481697e+2, -1759923.4, -1893948.9, -9675.16, -0.00021785189, 0.0003575649, -1759228.6, 55565.14 
8.2551485e+2, 1.2480693e+2, -1674777.3, -1812747.8, -10782.36, -0.00017335088, 0.00094138423, -1673939.6, 42952.51 
8.2550555e+2, 1.3479641e+2, -1583321.8, -1717985.5, -10845.336, 0.00037380823, -0.000362688, -1582454.0, 36541.254 
8.2549614e+2, 1.4478545e+2, -1497613.0, -1635899.5, -11928.193, 0.0006068785, -0.00016497109, -1496591.6, 24510.967 
8.2548666e+2, 1.5477405e+2, -1404824.1, -1540459.4, -12202.303, 0.0005078197, -0.00047699554, -1403735.0, 19479.293 
8.254771e+2, 1.6476214e+2, -1319765.5, -1460033.6, -12551.169, 0.00009917304, 0.00032715613, -1318651.3, 6679.735 
8.254675e+2, 1.7474973e+2, -1228043.4, -1365111.5, -12414.069, -0.000655754, 0.00016859206, -1226928.1, 524.55725 
8.2545793e+2, 1.8473686e+2, -1142689.8, -1283345.5, -12372.462, -0.00064268557, 0.00034232237, -1141609.8, -12030.878 
8.254484e+2, 1.9472353e+2, -1050794.5, -1188326.5, -12378.591, 0.00020641144, -0.0011666944, -1049689.1, -17979.79 
8.254388e+2, 2.0470975e+2, -965215.25, -1106596.5, -12003.326, 0.000508053, -0.0007794952, -964203.44, -30358.918 
8.254293e+2, 2.1469551e+2, -872780.75, -1011291.1, -12057.554, 0.00020041557, -0.00042045067, -871738.94, -35754.945 
8.254199e+2, 2.2468077e+2, -787677.4, -930694.44, -11155.411, 0.00014797912, 0.00045532762, -786812.5, -48683.984 
8.2541066e+2, 2.3466553e+2, -695619.75, -835472.94, -10939.9375, 0.00033023884, -0.00041284336, -694769.1, -54491.254 
8.2540154e+2, 2.4464983e+2, -610092.75, -753551.1, -9679.618, -0.00007799601, 0.000113374925, -609442.56, -67010.78 
8.253926e+2, 2.546337e+2, -517954.03, -658118.1, -9751.253, -0.0011738341, 0.00009414745, -517278.9, -72689.11 
8.2538384e+2, 2.6461703e+2, -433014.66, -578045.4, -8119.609, -0.0009458563, 0.00060791516, -432561.5, -85808.45 
8.253754e+2, 2.7459988e+2, -339991.03, -482101.16, -7788.5835, 0.0008415943, -0.0005549634, -339565.44, -90644.27 
8.253671e+2, 2.845822e+2, -255232.78, -402503.5, -5395.717, 0.0009783941, 0.000628696, -255035.36, -103940.82 
8.2535905e+2, 2.9456404e+2, -163069.2, -306871.6, -5105.618, -0.000840289, 0.0019505571, -162888.16, -109615.45 
8.2535136e+2, 3.0454874e+2, -78005.97, -174468.72, -2900.927, -0.0010881335, 0.0006688272, -77918.805, -77918.805 
8.2534397e+2, 3.1453645e+2, -82939.37, -176310.03, -2713.1685, 0.00074835797, -0.0059146895, -82860.59, -82860.59 
8.253369e+2, 3.245289e+2, -22714.133, -43824.88, -57.969307, -0.00022384897, 0.0035165416, -22713.973, -22713.973 
8.356001e+2, 3.4887284e+1, -2475982.3, -2600264.0, 3851.3508, 0.019791404, 0.009350752, -2475863.0, 122241.8 
8.355927e+2, 4.4880795e+1, -2378868.0, -2517651.8, -4796.06, -0.031048264, -0.009223047, -2378702.5, 121465.69 
8.3558494e+2, 5.487393e+1, -2293944.0, -2426466.3, -5317.3716, 0.0030900238, 0.00018021604, -2293731.0, 108504.484 
8.3557683e+2, 6.4866644e+1, -2209225.0, -2342459.5, -6446.688, 0.013294554, 0.0038282063, -2208913.8, 95393.27 
8.3556837e+2, 7.4858963e+1, -2115021.5, -2246457.8, -6530.542, -0.0017825022, -0.0005369042, -2114697.8, 91684.45 
8.3555967e+2, 8.4850776e+1, -2029439.6, -2166016.8, -9000.048, -0.005988299, -0.0011628662, -2028849.0, 79613.375 
8.355508e+2, 9.484211e+1, -1937840.9, -2071295.0, -9183.882, 0.0013066392, 0.00013806073, -1937211.9, 73335.54 
8.355416e+2, 1.0483297e+2, -1852393.9, -1989503.4, -10875.604, 0.0034051898, 0.001064763, -1851536.6, 61100.4 
8.3553225e+2, 1.1482336e+2, -1760120.6, -1894389.6, -11002.287, -0.000020376654, -0.0004061033, -1759225.0, 55506.086 
8.355227e+2, 1.24813296e+2, -1674849.3, -1812986.3, -12330.979, -0.0012245714, -0.00014740402, -1673757.1, 43072.6 
8.35513e+2, 1.3480277e+2, -1583350.5, -1718197.8, -12402.8955, 0.000006034401, -0.00003909952, -1582219.1, 36713.69 
8.355032e+2, 1.4479178e+2, -1498046.3, -1636898.6, -13156.287, 0.00028183256, 0.0006762693, -1496810.8, 24229.93 
8.354933e+2, 1.547803e+2, -1405350.4, -1541510.3, -13406.931, -0.00047543755, -0.00013133533, -1404042.8, 19110.299 
8.354834e+2, 1.6476837e+2, -1319560.1, -1459547.8, -14030.828, -0.00033555835, 0.0001712965, -1318167.6, 7102.3755 
8.354734e+2, 1.7475599e+2, -1227802.1, -1364584.1, -13908.385, 0.00079833344, -0.00046351634, -1226402.1, 989.1512 
8.354634e+2, 1.8474315e+2, -1142688.6, -1283329.8, -13835.837, 0.0009971744, 0.00038029754, -1141340.5, -11823.25 
8.354534e+2, 1.9472985e+2, -1050802.4, -1188306.9, -13837.216, 0.00014419413, 0.0008218484, -1049423.8, -17776.125 
8.3544344e+2, 2.0471606e+2, -965313.1, -1106810.9, -13333.55, -0.00046305035, 0.0015880597, -964067.6, -30284.88 
8.3543354e+2, 2.147018e+2, -872939.0, -1011502.5, -13376.558, -0.0007908753, 0.00055493513, -871659.5, -35737.0 
8.3542377e+2, 2.2468705e+2, -787361.4, -929952.1, -12593.943, -0.00056231837, 0.00094288005, -786257.6, -48190.723 
8.3541405e+2, 2.3467188e+2, -695311.9, -834683.56, -12383.021, 0.00024920484, 0.00054377574, -694220.25, -54004.574 
8.354045e+2, 2.4465619e+2, -610308.3, -753854.25, -11134.918, 0.0005680198, 0.0007340832, -609449.7, -67080.34 
8.353952e+2, 2.5464004e+2, -518174.75, -658443.8, -11193.521, 0.00027582355, -0.00047113447, -517287.13, -72759.39 
8.3538604e+2, 2.646234e+2, -432521.34, -576927.44, -9359.384, -0.0001170198, 0.0000929863, -431917.28, -85226.58 
8.3537716e+2, 2.7460635e+2, -339526.66, -480941.6, -9027.678, -0.00058311166, 0.0003638037, -338952.7, -90094.82 
8.3536845e+2, 2.8458872e+2, -254889.2, -401556.0, -6868.9116, -0.000700483, 0.0011906049, -254568.22, -103537.71 
8.353601e+2, 2.945706e+2, -162700.42, -305924.03, -6592.537, -0.00039406016, 0.00005920932, -162397.61, -109189.375 
8.35352e+2, 3.045554e+2, -77807.77, -173880.95, -4145.752, -0.000027165084, -0.000023667164, -77629.21, -77629.21 
8.3534425e+2, 3.145432e+2, -82767.055, -175760.13, -3941.2336, 0.00059324154, -0.0010309881, -82600.31, -82600.31 
8.3533674e+2, 3.2453564e+2, -22269.133, -42669.684, -1306.0038, -0.00035598467, 0.0014802098, -22185.863, -22185.863 
8.456116e+2, 3.4894428e+1, -2461553.0, -2596670.8, 4627.5347, 0.0052908617, 0.01055839, -2461394.8, 136640.06 
8.4560406e+2, 4.4887772e+1, -2389337.5, -2521987.5, -4451.555, -0.008282443, -0.012363326, -2389188.3, 110911.55 
8.455958e+2, 5.488102e+1, -2290144.0, -2423781.8, -3663.9517, 0.0013644338, 0.00016614799, -2290043.8, 112122.48 
8.4558713e+2, 6.487372e+1, -2201642.0, -2339917.3, -4609.4453, 0.0040522316, 0.004900537, -2201488.5, 102749.17 
8.455784e+2, 7.486592e+1, -2111974.8, -2246206.3, -5323.994, -0.0008815399, -0.0005304074, -2111763.8, 94550.24 
8.455693e+2, 8.4857666e+1, -2027907.0, -2165549.8, -8043.6245, -0.0020385433, -0.0015489921, -2027438.5, 80956.47 
8.4556e+2, 9.484898e+1, -1935827.4, -2070598.3, -8101.639, 0.0008600797, 0.000078223224, -1935342.0, 75138.04 
8.455504e+2, 1.0483981e+2, -1850450.4, -1988914.8, -9706.605, 0.0015855905, 0.0011895908, -1849773.3, 62796.76 
8.455406e+2, 1.1483016e+2, -1758617.4, -1894046.1, -9868.605, -0.000022962628, -0.00023354436, -1757902.0, 56762.445 
8.455306e+2, 1.2482006e+2, -1673225.4, -1812447.8, -11292.619, -0.0005427681, -0.0000127049325, -1672315.4, 44448.063 
8.455205e+2, 1.3480951e+2, -1581049.8, -1717348.9, -11437.226, 0.00015782309, -0.00004611788, -1580096.6, 38770.105 
8.455103e+2, 1.4479849e+2, -1496217.3, -1636322.6, -12122.494, 0.00021942612, 0.0007638113, -1495176.0, 25798.818 
8.4550005e+2, 1.5478699e+2, -1405247.3, -1541785.3, -12109.885, -0.0003938844, 0.00031134774, -1404181.5, 18906.104 
8.454897e+2, 1.6477504e+2, -1319928.4, -1459605.4, -12665.42, -0.0002530896, 0.0005450449, -1318789.3, 6415.421 
8.4547925e+2, 1.7476267e+2, -1227871.9, -1364501.9, -12721.322, 0.0007188051, -0.00061544403, -1226697.5, 628.2997 
8.454688e+2, 1.8474983e+2, -1142602.3, -1283223.4, -12718.131, 0.0008593195, 0.00019135672, -1141461.3, -12009.603 
8.454584e+2, 1.9473654e+2, -1050577.5, -1188156.8, -12703.273, 0.000064207736, 0.0011484693, -1049414.4, -17832.398 
8.45448e+2, 2.0472275e+2, -965506.1, -1106830.0, -12152.396, -0.0004154436, 0.0019454552, -964468.75, -30751.63 
8.4543777e+2, 2.1470848e+2, -874052.1, -1012002.5, -12092.842, -0.00055955356, 0.00042776624, -873000.06, -37143.188 
8.454276e+2, 2.2469378e+2, -788820.2, -930177.7, -11305.286, -0.0004374233, 0.00058945327, -787921.75, -49920.65 
8.4541744e+2, 2.3467864e+2, -696914.3, -835010.94, -11204.949, -0.000049495386, 0.00022093463, -696011.1, -55861.645 
8.454075e+2, 2.4466299e+2, -611994.56, -754440.44, -9821.144, 0.00029716583, 0.00058947626, -611320.6, -69017.79 
8.453977e+2, 2.5464684e+2, -519492.13, -658865.7, -9612.635, 0.0005670025, -0.00024964198, -518832.28, -74371.266 
8.453882e+2, 2.6463026e+2, -434073.47, -577076.06, -7768.8726, 0.0002151517, 0.00028580302, -433652.66, -87029.01 
8.453788e+2, 2.7461323e+2, -342439.16, -481748.06, -7652.407, -0.0008357963, 0.00008031336, -342020.06, -93229.734 
8.4536976e+2, 2.8459567e+2, -258280.67, -402574.0, -5609.249, -0.0009814358, 0.00045699184, -258062.94, -107100.43 
8.4536093e+2, 2.9457757e+2, -165474.63, -306625.06, -5445.5874, -0.000024716122, -0.0011089748, -165264.84, -112125.055 
8.453525e+2, 3.0456245e+2, -80473.21, -174516.98, -2955.5972, 0.00042323524, -0.00007627814, -80380.414, -80380.414 
8.453443e+2, 3.145503e+2, -86127.336, -176719.98, -2639.369, 0.0003827659, 0.0019009179, -86050.51, -86050.51 
8.4533644e+2, 3.245428e+2, -26388.572, -43870.402, -77.13255, -0.0007554567, -0.0002459419, -26388.232, -26388.232 
8.556233e+2, 3.4901774e+1, -2466719.5, -2606565.0, -4931.539, -0.032373622, -0.00022999801, -2466545.8, 131416.88 
8.556155e+2, 4.4895092e+1, -2386894.8, -2518265.8, -3914.7295, 0.050713904, -0.0038430276, -2386778.3, 113249.97 
8.5560656e+2, 5.4888487e+1, -2288351.8, -2420257.8, -3187.519, -0.0036610388, 0.00018121532, -2288274.8, 113818.24 
8.555976e+2, 6.488119e+1, -2203107.0, -2342681.8, -6596.933, -0.020274794, 0.0022626484, -2202795.8, 101368.6 
8.5558856e+2, 7.487324e+1, -2113292.0, -2248947.5, -7271.514, 0.0023364804, 0.00031371237, -2112903.5, 93338.88 
8.55579e+2, 8.486489e+1, -2027871.1, -2165653.3, -9366.295, 0.008972526, 0.000077337485, -2027237.4, 81086.82 
8.5556924e+2, 9.485617e+1, -1935809.5, -2070683.4, -9438.742, -0.0011336135, -0.00037022092, -1935152.3, 75257.375 
8.5555923e+2, 1.0484697e+2, -1850654.9, -1989453.9, -11138.354, -0.004325435, 0.00046243996, -1849766.8, 62733.047 
8.5554904e+2, 1.1483731e+2, -1758852.6, -1894600.5, -11303.162, -0.00020602922, 0.0006986162, -1757917.9, 56676.54 
8.555387e+2, 1.2482717e+2, -1673455.4, -1812975.5, -12644.304, 0.0015108098, 0.0011147074, -1672318.8, 44374.992 
8.555281e+2, 1.3481657e+2, -1581333.0, -1717903.0, -12780.372, 0.00069902913, -0.00033294666, -1580147.3, 38650.313 
8.555175e+2, 1.4480552e+2, -1496220.4, -1636310.9, -13771.976, 0.0003439773, 0.00023063236, -1494879.3, 26026.576 
8.555068e+2, 1.5479404e+2, -1405194.3, -1541724.8, -13763.574, 0.00053989206, 0.0008204131, -1403820.5, 19197.93 
8.554959e+2, 1.647821e+2, -1319958.3, -1459759.3, -14072.399, 0.00021338541, 0.0013485823, -1318555.8, 6579.7227 
8.554851e+2, 1.7476971e+2, -1227948.1, -1364683.5, -14125.361, -0.0006675525, -0.00037490667, -1226504.3, 752.6996 
8.5547423e+2, 1.8475685e+2, -1142576.9, -1283161.0, -14133.701, -0.00077900337, -0.0001874415, -1141170.0, -11787.16 
8.5546345e+2, 1.9474356e+2, -1050594.0, -1188089.3, -14115.054, -0.00007248153, 0.000068613546, -1049160.0, -17646.807 
8.5545266e+2, 2.0472978e+2, -965434.75, -1106636.0, -13720.084, 0.00044314953, 0.00060856796, -964113.94, -30465.762 
8.5544187e+2, 2.1471554e+2, -873990.44, -1011774.6, -13655.731, 0.0006733147, -0.0006336877, -872650.06, -36862.3 
8.554312e+2, 2.2470085e+2, -788668.94, -929818.5, -12789.614, 0.00034761, -0.00047883965, -787519.44, -49587.707 
8.554207e+2, 2.3468573e+2, -696765.94, -834616.1, -12692.468, -0.0005777579, -0.0011843942, -695607.06, -55527.168 
8.5541034e+2, 2.4467012e+2, -611673.56, -753717.8, -11186.257, -0.00077734457, -0.00019870044, -610798.0, -68565.164 
8.5540015e+2, 2.5465405e+2, -519245.38, -658150.56, -10969.867, -0.00017612289, 0.00064843567, -518384.4, -73994.07 
8.553902e+2, 2.6463747e+2, -434004.16, -576771.4, -9380.071, 0.000070621136, 0.0010985787, -433390.5, -86837.91 
8.553804e+2, 2.7462047e+2, -342323.9, -481427.75, -9270.148, -0.00009679423, -0.0012261856, -341708.84, -92989.62 
8.5537094e+2, 2.8460294e+2, -258077.69, -402084.3, -6934.4507, -0.0000884429, -0.0013805003, -257744.55, -106853.375 
8.5536176e+2, 2.945849e+2, -165313.48, -306158.97, -6751.785, 0.00021402976, -0.001626016, -164990.56, -111922.6 
8.553528e+2, 3.045698e+2, -80124.086, -173552.67, -4354.6504, 0.00028445123, 0.0004436152, -79921.555, -79921.555 
8.553443e+2, 3.1455776e+2, -85757.14, -175734.06, -4044.197, 0.00010315089, 0.003118721, -85575.73, -85575.73 
8.55336e+2, 3.245503e+2, -26095.057, -43079.984, -1597.0211, -0.0014763646, -0.0016561747, -25946.2, -25946.2 
8.6563545e+2, 3.4909865e+1, -2468418.5, -2607675.8, -3648.382, -0.017729301, -0.0049790875, -2468323.0, 129560.234 
8.656267e+2, 4.490321e+1, -2372844.8, -2513235.3, 17.528301, 0.028392212, 0.0038422642, -2372844.8, 127103.875 
8.656177e+2, 5.4896355e+1, -2285214.3, -2420616.8, -1811.0388, -0.0023620832, 0.0001509901, -2285190.0, 116825.67 
8.6560833e+2, 6.4888936e+1, -2203055.8, -2342807.0, -6351.434, -0.011503251, -0.0003800886, -2202767.5, 101320.81 
8.6559874e+2, 7.4881005e+1, -2110370.3, -2247673.0, -5941.1235, 0.0018054686, 0.00037958164, -2110113.5, 96052.66 
8.655888e+2, 8.487262e+1, -2024158.0, -2164509.5, -7565.1816, 0.005497541, 0.0010508475, -2023751.4, 84496.984 
8.6557853e+2, 9.486383e+1, -1932794.1, -2069897.6, -7979.807, -0.0009332828, -0.0003818755, -1932331.1, 78003.32 
8.655681e+2, 1.0485458e+2, -1848079.9, -1988645.6, -9910.152, -0.0028651522, 0.00008471276, -1847384.6, 65040.582 
8.6555755e+2, 1.1484488e+2, -1756773.6, -1894036.8, -10087.576, -0.000012415928, 0.00062202004, -1756036.3, 58484.004 
8.6554676e+2, 1.2483472e+2, -1671970.4, -1812399.1, -11363.995, 0.0010812824, 0.0011303695, -1671056.6, 45563.188 
8.655358e+2, 1.348241e+2, -1580876.8, -1717835.3, -11371.201, 0.0003014784, -0.0004670573, -1579939.0, 38784.82 
8.655247e+2, 1.4481303e+2, -1495704.6, -1636034.1, -12313.217, 0.00006605167, -0.00006527662, -1494632.4, 26199.896 
8.655135e+2, 1.5480156e+2, -1403670.5, -1540969.6, -12326.776, 0.00048271372, 0.00040473402, -1402572.6, 20372.232 
8.6550224e+2, 1.647896e+2, -1318510.9, -1459331.8, -12710.357, 0.00032588243, 0.0011561139, -1317372.9, 7689.188 
8.65491e+2, 1.747772e+2, -1227383.1, -1364689.8, -12853.697, -0.00045590758, -0.000010934681, -1226190.3, 993.41675 
8.6547965e+2, 1.8476433e+2, -1142581.5, -1283054.6, -12889.324, -0.0006470373, 0.00008404678, -1141408.6, -12098.956 
8.654684e+2, 1.9475102e+2, -1051324.5, -1188355.1, -12855.206, -0.00019492602, -0.0004574523, -1050129.0, -18689.012 
8.654572e+2, 2.0473726e+2, -966403.3, -1106768.5, -12438.315, 0.0003160039, -0.000090020236, -965309.6, -31734.764 
8.65446e+2, 2.1472305e+2, -874831.9, -1011889.2, -12308.333, 0.00082670583, -0.0007892744, -873735.3, -38021.203 
8.6543494e+2, 2.2470838e+2, -789578.9, -930197.2, -11377.3955, 0.0005769753, -0.00022325222, -788664.3, -50806.418 
8.65424e+2, 2.3469327e+2, -697484.9, -834936.94, -11443.708, -0.00052998017, -0.0006507973, -696538.6, -56532.61 
8.654131e+2, 2.446777e+2, -612725.44, -753596.3, -10135.624, -0.00087716145, 0.000101813865, -611999.94, -69841.195 
8.654025e+2, 2.5466168e+2, -521847.13, -658812.06, -9918.468, -0.00036853197, 0.00011824317, -521132.6, -76816.85 
8.653921e+2, 2.6464513e+2, -437089.97, -577933.3, -8170.26, -0.0000054229163, 0.0005591821, -436617.6, -90139.99 
8.653819e+2, 2.7462816e+2, -344228.94, -482004.28, -8037.7925, 0.00016698861, -0.0008229027, -343761.6, -95117.695 
8.65372e+2, 2.846107e+2, -259761.31, -402181.5, -5689.096, 0.00016488892, -0.00045987626, -259534.42, -108719.05 
8.653624e+2, 2.945927e+2, -168411.8, -306906.9, -5341.6855, 0.00007915459, -0.0006791631, -168206.08, -115214.53 
8.653531e+2, 3.0457768e+2, -83941.016, -174789.31, -2801.489, -0.00005687497, 0.00037542914, -83854.7, -83854.7 
8.653441e+2, 3.145657e+2, -89450.2, -176935.52, -2608.4448, -0.00029677586, 0.00083754316, -89372.5, -89372.5 
8.653354e+2, 3.245583e+2, -29368.467, -43653.996, -227.71045, -0.001346957, -0.0006141153, -29364.838, -29364.838 
8.7564796e+2, 3.491857e+1, -2465091.0, -2600714.3, -1690.2927, 0.036994595, -0.004962995, -2465070.0, 132728.25 
8.7563777e+2, 4.4911984e+1, -2376353.5, -2520378.0, -2584.1682, -0.057580195, 0.010821992, -2376307.3, 123555.45 
8.7562895e+2, 5.490457e+1, -2288675.3, -2427804.3, -4254.917, 0.004055044, 0.00008757128, -2288545.3, 113390.1 
8.756194e+2, 6.489694e+1, -2202108.0, -2341060.3, -7455.0415, 0.023264242, -0.0030002515, -2201709.3, 102300.875 
8.7560904e+2, 7.4889135e+1, -2109432.0, -2245856.3, -7112.8755, -0.001793355, -0.00016857295, -2109062.0, 97024.445 
8.755986e+2, 8.488078e+1, -2024856.8, -2165996.0, -9113.796, -0.009485526, 0.0015044232, -2024270.6, 83897.77 
8.7558806e+2, 9.4871885e+1, -1933524.8, -2071439.9, -9508.633, 0.0010162428, -0.000041490064, -1932872.3, 77383.336 
8.755773e+2, 1.0486255e+2, -1848372.0, -1989268.0, -11450.873, 0.004445154, -0.00001205368, -1847447.4, 64899.637 
8.755662e+2, 1.1485281e+2, -1757058.0, -1894651.3, -11624.752, 0.00045177908, -0.00027493437, -1756082.8, 58359.844 
8.7555486e+2, 1.24842614e+2, -1671932.3, -1812397.5, -12968.146, -0.00137722, 0.000248748, -1670745.1, 45797.344 
8.755435e+2, 1.3483201e+2, -1580821.1, -1717816.0, -12988.234, -0.00089403515, -0.00048358293, -1579600.6, 39045.742 
8.755319e+2, 1.4482096e+2, -1495676.0, -1636070.5, -13714.023, -0.00057612854, -0.00017177007, -1494348.9, 26405.854 
8.7552035e+2, 1.5480945e+2, -1403714.6, -1541037.5, -13727.544, -0.00041509158, -0.0007798273, -1402355.9, 20511.604 
8.755086e+2, 1.6479747e+2, -1318812.8, -1459939.6, -14353.708, 0.00010582528, 0.00013955975, -1317367.6, 7617.1455 
8.7549686e+2, 1.7478503e+2, -1227678.3, -1365277.0, -14478.718, 0.0010434459, 0.0004468105, -1226171.3, 935.4074 
8.754851e+2, 1.8477215e+2, -1142511.0, -1282935.5, -14484.637, 0.0009241225, 0.0008873107, -1141032.5, -11799.632 
8.754734e+2, 1.9475886e+2, -1051264.4, -1188199.5, -14450.443, -0.00035929002, -0.00053685927, -1049756.1, -18392.957 
8.754617e+2, 2.0474513e+2, -966143.44, -1106258.0, -13976.81, -0.00068604597, -0.00025684971, -964762.8, -31265.064 
8.754501e+2, 2.1473096e+2, -874589.75, -1011357.4, -13851.883, 0.00004516258, -0.00019064848, -873200.94, -37564.363 
8.754385e+2, 2.247163e+2, -789730.7, -930474.75, -12818.161, 0.00029840745, 0.0011386276, -788572.8, -50792.57 
8.754272e+2, 2.3470119e+2, -697723.4, -835250.1, -12862.145, -0.00003862236, 0.0015264321, -696530.8, -56602.34 
8.754159e+2, 2.446856e+2, -612445.6, -752887.9, -11886.415, -0.00017778971, 0.0013343081, -611446.75, -69365.62 
8.754048e+2, 2.546696e+2, -521500.0, -658013.3, -11688.886, -0.00013248838, -0.0016325867, -520506.38, -76268.54 
8.753939e+2, 2.6465315e+2, -436894.25, -577524.7, -9473.414, -0.00007686194, -0.0011250024, -436258.94, -89859.68 
8.753834e+2, 2.7463624e+2, -344125.75, -481636.63, -9314.452, -0.0000034134564, 0.0010684723, -343497.7, -94932.7 
8.7537307e+2, 2.846188e+2, -259316.95, -401071.9, -7354.3535, -0.00016236074, 0.0028555435, -258936.42, -108200.64 
8.7536293e+2, 2.946009e+2, -167911.28, -305751.53, -7027.9077, -0.00043086993, 0.0015570163, -167553.89, -114642.67 
8.7535316e+2, 3.045859e+2, -83754.62, -174247.22, -4190.6123, -0.0006299359, -0.00018477679, -83560.97, -83560.97 
8.7534374e+2, 3.1457388e+2, -89324.53, -176437.22, -3977.4966, -0.000835932, -0.004488007, -89143.3, -89143.3 
8.753347e+2, 3.245667e+2, -28706.527, -42031.98, -1667.1586, -0.0005513994, 0.002629815, -28501.113, -28501.113 
8.8565993e+2, 3.4927338e+1, -2461638.3, -2598109.0, 279.85367, 0.025180578, -0.0000072582916, -2461637.5, 136074.67 
8.856499e+2, 4.4920665e+1, -2373963.0, -2519477.5, -4503.1113, -0.04069178, 0.0049321544, -2373823.8, 125953.68 
8.856403e+2, 5.491328e+1, -2284691.3, -2426187.5, -3327.0166, 0.003393959, -0.0002072009, -2284613.0, 117236.87 
8.856302e+2, 6.490562e+1, -2198052.5, -2339800.8, -4739.2354, 0.016999349, -0.0013534594, -2197894.3, 106030.81 
8.856195e+2, 7.4897736e+1, -2106337.8, -2245084.3, -5588.5444, -0.0016073778, -0.00033844725, -2106113.0, 99889.37 
8.8560873e+2, 8.488931e+1, -2022270.9, -2165177.5, -8274.153, -0.007194678, 0.0008855159, -2021793.4, 86291.37 
8.8559765e+2, 9.4880384e+1, -1931407.9, -2070835.6, -8259.979, 0.0010004682, 0.00030096952, -1930920.3, 79252.0 
8.855864e+2, 1.0487103e+2, -1846449.8, -1988628.3, -9921.614, 0.0036215868, 0.00042856752, -1845760.8, 66503.27 
8.8557476e+2, 1.14861235e+2, -1755278.5, -1894084.8, -9999.286, 0.00033652404, -0.00065611966, -1754561.9, 59798.05 
8.855631e+2, 1.2485102e+2, -1670180.8, -1811936.1, -11416.839, -0.0011171807, -0.000098459386, -1669267.1, 47192.95 
8.8555115e+2, 1.348404e+2, -1578875.9, -1717268.5, -11669.925, -0.00058348454, 0.00012785905, -1577898.6, 40665.574 
8.855392e+2, 1.448293e+2, -1494172.6, -1635607.6, -12568.657, -0.000344346, 0.00059792097, -1493064.5, 27608.479 
8.855271e+2, 1.5481776e+2, -1403483.3, -1541208.3, -12721.618, -0.000429675, -0.00071941933, -1402318.0, 20467.926 
8.8551503e+2, 1.6480578e+2, -1318892.9, -1459750.0, -13260.761, -0.00007661607, -0.00016829101, -1317655.3, 7248.096 
8.855028e+2, 1.7479336e+2, -1227524.1, -1364995.4, -13023.711, 0.0007730517, 0.00017477912, -1226301.1, 723.9787 
8.8549054e+2, 1.8478051e+2, -1142455.8, -1282921.0, -12901.273, 0.000815438, 0.00090047275, -1141280.6, -12129.451 
8.854783e+2, 1.947672e+2, -1051307.4, -1188259.1, -12966.638, -0.000019670842, 0.000038241586, -1050090.5, -18809.107 
8.8546616e+2, 2.0475346e+2, -966286.2, -1106276.8, -12588.786, -0.00044052303, 0.0003895757, -965163.1, -31747.04 
8.854541e+2, 2.1473931e+2, -874911.0, -1011480.06, -12688.948, -0.00037617015, -0.00003440717, -873742.06, -38187.12 
8.8544214e+2, 2.2472465e+2, -790596.44, -930399.0, -11654.963, -0.00012917587, 0.00096066255, -789631.44, -51933.08 
8.854303e+2, 2.3470958e+2, -700015.56, -835887.44, -11305.304, 0.00023473657, 0.0012051484, -699081.3, -59235.082 
8.854186e+2, 2.4469402e+2, -614992.1, -753947.6, -10160.7705, 0.00028167048, 0.0012066785, -614253.06, -72254.5 
8.85407e+2, 2.5467804e+2, -522508.53, -658344.8, -10245.128, -0.0000470875, -0.00119587, -521740.16, -77585.016 
8.853957e+2, 2.646616e+2, -437775.56, -577261.06, -8113.305, -0.00032428396, -0.0006729903, -437305.25, -90988.99 
8.853846e+2, 2.7464473e+2, -347015.63, -482358.38, -7777.9834, -0.00055924244, 0.0009381066, -346570.1, -98088.64 
8.853739e+2, 2.8462738e+2, -262849.1, -402161.63, -5784.913, -0.00057943806, 0.0024730433, -262609.28, -111957.53 
8.8536334e+2, 2.9460952e+2, -170420.13, -306391.75, -5662.949, -0.00017081453, 0.001281524, -170184.69, -117358.016 
8.8535315e+2, 3.045946e+2, -86358.95, -174898.03, -2912.6055, -0.00022298693, 0.00028566463, -86263.24, -86263.24 
8.853433e+2, 3.1458265e+2, -93275.91, -177749.66, -2598.068, -0.00096617854, -0.0024896928, -93196.08, -93196.08 
8.853337e+2, 3.245755e+2, -33172.727, -42704.754, -183.6223, -0.00062218314, 0.001909992, -33169.19, -33169.19 
8.956714e+2, 3.4936184e+1, -2462490.0, -2601006.8, 2171.896, -0.037276693, 0.008636053, -2462456.0, 135169.63 
8.9566296e+2, 4.4929317e+1, -2372298.0, -2515040.5, -6326.1694, 0.055787534, -0.010899506, -2372018.0, 127674.62 
8.9565176e+2, 5.492241e+1, -2282286.8, -2421312.8, -5332.599, -0.0030581867, -0.0006427481, -2282082.5, 119677.914 
8.956408e+2, 6.4914864e+1, -2199261.3, -2342776.8, -6210.5527, -0.02136633, 0.0036324058, -2198993.0, 104841.555 
8.956301e+2, 7.4906707e+1, -2107827.8, -2248242.8, -6995.632, 0.0016192506, -0.0002150689, -2107480.0, 98434.21 
8.95619e+2, 8.489817e+1, -2022214.4, -2165058.8, -9876.311, 0.008669346, -0.0005722325, -2021534.8, 86463.22 
8.956073e+2, 9.488928e+1, -1931274.9, -2070654.3, -9886.927, -0.0006467854, 0.0006503397, -1930577.0, 79508.16 
8.9559543e+2, 1.04879916e+2, -1846491.3, -1988812.4, -11505.189, -0.0037029642, 0.0013032394, -1845567.1, 66609.79 
8.955835e+2, 1.148701e+2, -1755339.8, -1894304.4, -11593.513, -0.0002504143, -0.0006197809, -1754379.1, 59893.855 
8.9557135e+2, 1.2485985e+2, -1670625.8, -1812865.0, -12978.164, 0.0012929488, -0.000009850089, -1669451.3, 46922.293 
8.95559e+2, 1.3484915e+2, -1579346.8, -1718213.6, -13214.626, 0.0009040601, 0.0012303327, -1578100.4, 40377.91 
8.9554656e+2, 1.44838e+2, -1494467.9, -1636237.1, -14268.955, 0.00056051725, 0.0020724724, -1493046.0, 27541.48 
8.95534e+2, 1.5482643e+2, -1403768.3, -1541820.1, -14406.38, 0.0002568416, 0.00034465728, -1402280.9, 20420.115 
8.9552134e+2, 1.6481446e+2, -1318417.5, -1458885.5, -14811.28, -0.00026099716, 0.00008641644, -1316872.8, 7945.6885 
8.9550865e+2, 1.748021e+2, -1227069.0, -1364093.6, -14597.998, -0.0009887337, -0.00071039307, -1225531.1, 1408.4854 
8.9549595e+2, 1.8478924e+2, -1142574.5, -1283155.6, -14543.093, -0.0006981974, 0.00026230383, -1141085.8, -12020.384 
8.954833e+2, 1.9477595e+2, -1051457.9, -1188510.1, -14596.557, 0.0006937424, 0.0011439909, -1049920.5, -18724.893 
8.954707e+2, 2.0476219e+2, -966499.0, -1106687.3, -14162.158, 0.0007918804, 0.0016992636, -965082.6, -31752.1 
8.954581e+2, 2.1474798e+2, -875170.9, -1011881.9, -14242.908, -0.0005238651, -0.00026351158, -873702.75, -38233.027 
8.954457e+2, 2.2473337e+2, -790018.2, -929137.0, -13446.537, -0.0007200545, -0.00052311854, -788730.44, -51117.43 
8.9543337e+2, 2.3471837e+2, -699385.56, -834548.94, -13126.479, 0.0002744935, -0.001226075, -698122.56, -58362.582 
8.9542115e+2, 2.4470286e+2, -615156.4, -754256.06, -11541.1875, 0.00050504424, -0.00006526358, -614205.3, -72293.4 
8.9540917e+2, 2.546869e+2, -522785.06, -658716.6, -11588.058, -0.00013033726, 0.001102048, -521804.25, -77735.88 
8.953974e+2, 2.646705e+2, -437350.4, -576224.2, -9910.902, -0.00078336283, 0.0016057122, -436646.66, -90417.42 
8.9538586e+2, 2.7465367e+2, -346548.47, -481250.94, -9600.112, -0.0014765356, -0.00092548085, -345867.72, -97473.695 
8.953746e+2, 2.8463632e+2, -262726.16, -401803.38, -7216.0107, -0.0011057737, -0.001085001, -262352.75, -111788.82 
8.953636e+2, 2.9461852e+2, -170346.94, -306071.2, -7068.443, 0.0006908902, -0.0011516523, -169979.8, -117241.27 
8.95353e+2, 3.0460367e+2, -86046.43, -173997.03, -4615.348, 0.0009698044, 0.0016989934, -85804.9, -85804.9 
8.9534265e+2, 3.1459185e+2, -92947.766, -176813.77, -4305.795, -0.0007715447, 0.0059505273, -92727.28, -92727.28 
8.9533263e+2, 3.245847e+2, -32241.623, -40631.957, -1818.8599, -0.0015461063, -0.0023693722, -31864.299, -31864.299 
9.056843e+2, 3.4946024e+1, -2449818.5, -2598748.0, 2881.5005, -0.03142133, 0.0066103335, -2449762.8, 147766.3 
9.056747e+2, 4.4938973e+1, -2378241.0, -2518381.3, -1486.2808, 0.049274698, -0.011535793, -2378225.3, 121372.82 
9.056634e+2, 5.4932034e+1, -2278341.8, -2419838.3, -2758.3286, -0.0031307137, -0.0000468058, -2278288.0, 123378.18 
9.056521e+2, 6.4924437e+1, -2192406.3, -2340218.0, -5836.908, -0.01924642, 0.0045086453, -2192176.3, 111564.375 
9.0564084e+2, 7.491621e+1, -2104695.8, -2247529.0, -5742.0933, 0.0017308682, -0.000048718204, -2104465.3, 101355.94 
9.0562916e+2, 8.4907603e+1, -2020387.4, -2164603.8, -7865.3213, 0.008080243, -0.000858768, -2019959.8, 87945.84 
9.0561706e+2, 9.489866e+1, -1928706.6, -2069847.9, -8208.907, -0.000701572, 0.00018141627, -1928230.9, 81762.36 
9.056048e+2, 1.0488926e+2, -1843774.6, -1987904.1, -10203.318, -0.0035678267, 0.0011539178, -1843055.9, 69029.45 
9.0559226e+2, 1.1487942e+2, -1753195.9, -1893659.6, -10430.082, -0.00024039549, 0.00005056519, -1752425.6, 61756.12 
9.055796e+2, 1.2486913e+2, -1668872.3, -1812331.0, -11720.765, 0.0012321366, 0.00051732245, -1667921.0, 48361.535 
9.055668e+2, 1.3485841e+2, -1578021.6, -1717895.5, -11707.826, 0.0007906877, 0.000647731, -1577048.4, 41339.23 
9.055539e+2, 1.4484724e+2, -1493255.0, -1635686.5, -12614.312, 0.0005119697, 0.0013442867, -1492146.4, 28350.598 
9.055408e+2, 1.5483567e+2, -1402577.3, -1541275.4, -12509.991, 0.00042091362, 0.0004514409, -1401457.9, 21152.586 
9.055277e+2, 1.6482368e+2, -1317656.8, -1458728.6, -12976.165, -0.000039897877, 0.0005134688, -1316473.1, 8254.917 
9.055146e+2, 1.7481127e+2, -1226850.8, -1364218.6, -13319.322, -0.0008972515, -0.0004754104, -1225571.3, 1278.1915 
9.055014e+2, 1.8479845e+2, -1142536.8, -1282963.3, -13475.816, -0.0007402019, 0.00019313343, -1141255.3, -12279.897 
9.0548825e+2, 1.9478516e+2, -1051676.9, -1188455.3, -13338.174, 0.0005389472, 0.00064283726, -1050388.4, -19282.854 
9.0547514e+2, 2.0477143e+2, -967156.5, -1106702.3, -12656.762, 0.00078532874, 0.0012681953, -966017.8, -32777.656 
9.0546215e+2, 2.1475723e+2, -876524.7, -1012276.2, -12416.238, -0.00012798258, -0.00006758809, -875398.4, -40019.27 
9.0544915e+2, 2.2474264e+2, -791433.9, -929696.4, -11700.581, -0.00038884478, -0.00016438757, -790450.7, -52928.49 
9.0543634e+2, 2.3472765e+2, -699888.6, -834682.8, -11933.059, 0.000039593495, -0.0012405665, -698840.4, -59171.227 
9.054237e+2, 2.4471217e+2, -615756.9, -753975.44, -10341.657, 0.00011478824, -0.0001644263, -614987.4, -73166.6 
9.0541124e+2, 2.5469625e+2, -525130.7, -659317.7, -9913.843, -0.00019990718, 0.0012939748, -524402.2, -80425.414 
9.0539896e+2, 2.6467988e+2, -440420.38, -577244.0, -8217.8955, -0.0004525427, 0.001866329, -439928.56, -93791.33 
9.05387e+2, 2.746631e+2, -348981.56, -481967.72, -8178.0503, -0.00068548153, -0.0008949746, -348480.53, -100178.9 
9.0537524e+2, 2.8464583e+2, -265147.5, -402288.22, -5660.711, -0.0005800384, -0.0013108263, -264914.25, -114443.14 
9.0536386e+2, 2.9462805e+2, -173730.63, -307010.7, -5288.7427, 0.00013934531, -0.0016414021, -173521.1, -120875.945 
9.053527e+2, 3.046133e+2, -89616.555, -174750.73, -2799.8274, 0.0003373528, 0.0013549719, -89524.58, -89524.58 
9.053419e+2, 3.1460157e+2, -96256.375, -177441.97, -2354.117, -0.00038514298, 0.006244231, -96188.17, -96188.17 
9.053314e+2, 3.245944e+2, -35790.438, -42176.574, -145.16862, -0.0006590764, -0.002822319, -35787.14, -35787.14 
9.156981e+2, 3.495667e+1, -2454372.0, -2605949.8, -9541.481, 0.025813024, -0.0034884599, -2453773.8, 143650.92 
9.156855e+2, 4.494944e+1, -2378834.3, -2522333.0, -959.8863, -0.03661261, -0.00041441046, -2378827.8, 120667.74 
9.156752e+2, 5.4942083e+1, -2280664.8, -2424605.0, -2079.0002, 0.0019508805, 0.0013292483, -2280634.8, 120933.01 
9.1566396e+2, 6.4934295e+1, -2192680.5, -2339973.8, -8200.45, 0.014193693, 0.002197623, -2192225.3, 111418.625 
9.156517e+2, 7.4926126e+1, -2104372.0, -2246955.8, -8155.4063, -0.00071497256, 0.00016796283, -2103907.0, 101817.09 
9.156393e+2, 8.491751e+1, -2020713.3, -2165685.8, -9305.77, -0.005397295, -0.00021095677, -2020118.4, 87690.125 
9.156269e+2, 9.490847e+1, -1929239.8, -2071048.6, -9630.762, 0.00050308654, -0.0009251585, -1928588.8, 81308.336 
9.156142e+2, 1.04899004e+2, -1844177.0, -1988717.9, -11907.696, 0.002413039, 0.00020400099, -1843202.5, 68787.3 
9.156012e+2, 1.1488913e+2, -1753543.8, -1894456.3, -12133.603, 0.00020154148, 0.0012260628, -1752506.6, 61580.004 
9.155881e+2, 1.2487882e+2, -1668813.0, -1812255.9, -13362.706, -0.0008287524, 0.0013939838, -1667578.8, 48608.945 
9.155748e+2, 1.3486806e+2, -1578009.5, -1717834.0, -13352.834, -0.00063808623, -0.0012983911, -1576745.8, 41547.242 
9.155613e+2, 1.4485691e+2, -1493101.6, -1635351.6, -14330.99, -0.00034287042, -0.0011614123, -1491672.3, 28730.041 
9.155478e+2, 1.5484539e+2, -1402389.4, -1540910.6, -14245.141, 0.0001403792, -0.00022633129, -1400939.5, 21575.795 
9.155342e+2, 1.6483335e+2, -1318276.5, -1460068.3, -14696.811, 0.00047638422, 0.0010799998, -1316769.1, 7863.9326 
9.155205e+2, 1.7482087e+2, -1227509.4, -1365590.6, -15003.82, 0.00067348406, 0.0006685121, -1225897.9, 857.4992 
9.1550684e+2, 1.84808e+2, -1142276.4, -1282495.3, -15138.762, 0.00040244707, 0.0005723856, -1140660.6, -11778.934 
9.1549325e+2, 1.9479474e+2, -1051435.9, -1187940.3, -15008.914, -0.00038595873, -0.0012082966, -1049805.1, -18793.42 
9.154796e+2, 2.0478104e+2, -966723.9, -1105793.0, -14417.712, -0.00030119455, -0.00060954114, -965244.9, -32099.096 
9.1546607e+2, 2.1476695e+2, -876083.94, -1011340.1, -14194.489, 0.0006945738, 0.0004840948, -874610.3, -39326.434 
9.1545266e+2, 2.2475237e+2, -791877.5, -930568.25, -13274.809, 0.0006711156, 0.0017320215, -790618.3, -53191.492 
9.154393e+2, 2.3473732e+2, -700407.44, -835611.06, -13473.799, -0.0004815046, 0.0007755344, -699077.8, -59503.402 
9.154262e+2, 2.4472184e+2, -615097.06, -752507.7, -12139.913, -0.00083101384, 0.0007273753, -614032.75, -72306.805 
9.154132e+2, 2.5470603e+2, -524456.7, -657759.5, -11739.803, -0.0002971722, -0.00031725495, -523430.7, -79549.63 
9.154005e+2, 2.6468968e+2, -440416.13, -577189.8, -9883.027, 0.0004919639, 0.00041145735, -439705.7, -93664.78 
9.15388e+2, 2.7467299e+2, -349005.44, -481940.3, -9824.299, 0.0015453931, 0.0007757634, -348283.3, -100078.3 
9.1537577e+2, 2.8465572e+2, -264638.88, -401125.78, -7327.865, 0.00081165566, 0.001349286, -264246.56, -113872.6 
9.153639e+2, 2.9463804e+2, -173247.11, -305824.34, -6960.15, -0.0017157228, -0.00042266469, -172882.7, -120335.43 
9.153523e+2, 3.0462334e+2, -89018.91, -173291.1, -4470.49, -0.0019458322, -0.00050048705, -88782.42, -88782.42 
9.15341e+2, 3.1461167e+2, -95640.8, -175964.67, -4027.9956, 0.0001411905, -0.0006009879, -95439.31, -95439.31 
9.1533e+2, 3.2460463e+2, -36589.05, -43697.773, -1708.2145, 0.0017381787, 0.00018019238, -36199.875, -36199.875 
9.2571086e+2, 3.4967318e+1, -2464787.3, -2609497.5, -6566.6187, 0.02787355, -0.0060804915, -2464490.0, 132830.34 
9.2569816e+2, 4.4960204e+1, -2352673.0, -2510915.3, -1806.5519, -0.04153861, 0.007899697, -2352652.3, 146737.81 
9.2568713e+2, 5.495263e+1, -2278018.0, -2424797.8, -1765.0526, 0.0025606838, 0.000573717, -2277996.8, 123467.516 
9.256753e+2, 6.494473e+1, -2197271.5, -2342552.8, -5728.2505, 0.016546216, -0.0013817508, -2197046.0, 106495.695 
9.256626e+2, 7.493657e+1, -2100945.3, -2245635.0, -6107.8794, -0.0008153135, 0.00017385349, -2100688.0, 104933.77 
9.2564976e+2, 8.4927917e+1, -2014918.5, -2163484.0, -8097.8125, -0.006320668, 0.0011516672, -2014478.4, 93228.11 
9.256369e+2, 9.4918805e+1, -1926513.8, -2070347.3, -8270.856, 0.00052056374, -0.00051559275, -1926039.6, 83756.07 
9.2562366e+2, 1.04909286e+2, -1842650.8, -1988426.1, -10179.335, 0.0027840645, -0.000002370908, -1841943.4, 69945.66 
9.256102e+2, 1.1489937e+2, -1751523.1, -1893920.3, -10325.745, 0.00026886398, 0.0007774711, -1750778.4, 63207.94 
9.255965e+2, 1.2488902e+2, -1666756.3, -1811374.0, -11720.001, -0.0008690126, 0.0010565334, -1665812.6, 50274.98 
9.255827e+2, 1.3487826e+2, -1576922.3, -1717403.1, -11797.332, -0.0005751789, -0.0011936633, -1575938.4, 42254.566 
9.2556876e+2, 1.4486709e+2, -1492493.3, -1635330.1, -12843.368, -0.00034245034, -0.0009397802, -1491347.6, 28954.846 
9.2555475e+2, 1.5485555e+2, -1401485.6, -1540764.6, -13084.641, -0.0001136959, -0.00014430555, -1400267.0, 22148.72 
9.2554057e+2, 1.6484351e+2, -1317273.4, -1459557.9, -13502.903, 0.00028964697, 0.0011157849, -1316003.3, 8530.386 
9.255265e+2, 1.7483103e+2, -1226932.9, -1365298.0, -13207.788, 0.0008952536, 0.0006831502, -1225683.4, 972.5524 
9.255123e+2, 1.8481815e+2, -1142186.4, -1282366.5, -13124.889, 0.0006667356, 0.0006128422, -1140968.1, -12185.988 
9.254981e+2, 1.9480489e+2, -1051852.9, -1188086.1, -13220.9375, -0.00046516018, -0.0010843213, -1050581.6, -19669.516 
9.25484e+2, 2.047912e+2, -967303.3, -1105983.6, -12898.65, -0.0005612209, -0.0005596299, -966113.8, -33067.53 
9.2547e+2, 2.1477711e+2, -876504.56, -1011453.2, -13058.964, 0.00045076554, 0.00032700493, -875252.44, -40068.152 
9.2545605e+2, 2.2476256e+2, -792548.75, -930493.2, -12014.632, 0.0006080481, 0.0016359173, -791510.1, -54183.04 
9.254423e+2, 2.3474753e+2, -702119.9, -836064.3, -11591.921, -0.0001992242, 0.0010227625, -701124.06, -61649.79 
9.2542857e+2, 2.447321e+2, -617326.1, -753220.06, -10265.77, -0.0004932162, 0.000858325, -616555.0, -74929.47 
9.2541516e+2, 2.547163e+2, -526594.56, -658431.3, -10381.965, -0.00022909313, -0.00083535357, -525782.0, -82001.62 
9.254019e+2, 2.6470003e+2, -442430.88, -577629.44, -8499.87, 0.0003164594, -0.0001471734, -441898.6, -95958.71 
9.2538893e+2, 2.7468333e+2, -350971.78, -482399.47, -8176.669, 0.001136815, 0.00089885993, -350465.03, -102361.516 
9.2537624e+2, 2.8466615e+2, -266978.3, -401540.78, -5781.723, 0.0005598124, 0.0020751285, -266730.34, -116458.44 
9.253638e+2, 2.9464853e+2, -176645.84, -306728.72, -5577.4336, -0.0013624002, 0.0007993106, -176407.14, -123962.58 
9.253517e+2, 3.0463386e+2, -92782.945, -174360.92, -3113.4155, -0.0015379708, -0.00040693945, -92664.3, -92664.3 
9.2533994e+2, 3.1462222e+2, -99197.93, -176914.23, -2911.753, -0.00002708486, -0.0034920075, -99088.99, -99088.99 
9.253285e+2, 3.2461533e+2, -40182.64, -44857.45, -178.16827, 0.001498542, 0.0023192186, -40175.86, -40175.86 
9.357228e+2, 3.497802e+1, -2458914.3, -2599872.5, 8707.125, -0.011348468, -0.002923151, -2458378.5, 138837.05 
9.3571234e+2, 4.497124e+1, -2354954.3, -2511823.5, -7443.3296, 0.015037236, 0.014034023, -2354601.8, 144680.1 
9.3569916e+2, 5.496359e+1, -2277735.0, -2424429.3, -7469.881, -0.0005044045, -0.0018045716, -2277355.8, 124001.27 
9.356863e+2, 6.495564e+1, -2196870.3, -2343317.3, -5974.227, -0.0050953995, -0.0058768447, -2196626.8, 106807.97 
9.356737e+2, 7.4947435e+1, -2101539.0, -2246876.8, -6328.4907, 0.00094732235, 0.00003365047, -2101264.0, 104251.3 
9.356606e+2, 8.493874e+1, -2015486.1, -2164189.0, -10324.271, 0.0024699413, 0.003071512, -2014772.8, 92827.61 
9.3564695e+2, 9.4929594e+1, -1926739.3, -2070893.5, -10508.31, -0.00045771964, 0.0010823285, -1925977.3, 83712.76 
9.356331e+2, 1.0492002e+2, -1842739.6, -1988848.8, -11748.868, -0.0012805066, 0.0003798696, -1841800.9, 69982.93 
9.356192e+2, 1.1491005e+2, -1751750.5, -1894401.1, -11888.082, 0.000029382218, -0.000953132, -1750766.5, 63115.004 
9.356051e+2, 1.24899685e+2, -1666927.9, -1811695.3, -13618.658, 0.0006637905, -0.00022652822, -1665657.9, 50325.258 
9.355907e+2, 1.3488895e+2, -1577000.1, -1717677.5, -13706.091, 0.0006447116, 0.0005539247, -1575677.1, 42411.26 
9.3557626e+2, 1.4487773e+2, -1492887.3, -1636270.5, -14472.064, 0.00030572654, 0.0014690605, -1491441.1, 28757.148 
9.355617e+2, 1.5486608e+2, -1401962.0, -1541756.8, -14689.659, -0.00036520622, 0.00053360197, -1400435.0, 21877.354 
9.355471e+2, 1.6485405e+2, -1316799.1, -1458513.0, -15289.126, -0.0004952566, 0.0007065389, -1315168.4, 9261.9795 
9.355324e+2, 1.7484164e+2, -1226441.1, -1364204.0, -15023.156, -0.000021023288, -0.00023349385, -1224821.9, 1730.001 
9.355178e+2, 1.848288e+2, -1142368.0, -1282740.9, -14962.533, 0.00018995441, 0.00037984084, -1140790.8, -12112.982 
9.3550307e+2, 1.9481552e+2, -1052035.9, -1188465.3, -15046.664, 0.00011568502, 0.00066583895, -1050396.1, -19588.236 
9.354884e+2, 2.048018e+2, -967608.3, -1106612.3, -14603.071, -0.00018404216, 0.0010716168, -966090.75, -33148.383 
9.3547386e+2, 2.1478766e+2, -876864.75, -1012103.8, -14741.924, -0.00070858066, -0.00043789388, -875276.44, -40195.418 
9.3545943e+2, 2.2477312e+2, -791850.3, -928956.0, -13824.844, -0.00042494916, -0.00013376762, -790470.2, -53246.637 
9.3544513e+2, 2.3475821e+2, -701399.9, -834465.06, -13431.096, 0.00071301614, -0.00021977871, -700057.7, -60688.09 
9.3543094e+2, 2.4474283e+2, -617587.3, -753683.1, -12069.132, 0.00088660646, 0.0003523212, -616525.3, -75004.945 
9.3541694e+2, 2.5472698e+2, -526887.75, -658933.44, -12163.555, -0.000059372065, -0.0004263709, -525776.6, -82101.1 
9.354032e+2, 2.6471072e+2, -441960.44, -576593.25, -10127.443, -0.0008873848, 0.000060006358, -441202.88, -95368.03 
9.353897e+2, 2.746941e+2, -350555.66, -481335.03, -9806.822, -0.0015866425, -0.0003018679, -349824.38, -101826.52 
9.353765e+2, 2.8467697e+2, -266799.2, -401003.94, -7716.115, -0.001138214, 0.0011449549, -266357.0, -116191.37 
9.353636e+2, 2.9465944e+2, -176422.55, -306190.94, -7515.8525, 0.0008474718, 0.002049566, -175988.69, -123650.99 
9.3535095e+2, 3.046448e+2, -92615.08, -173850.28, -4709.422, 0.0011265797, 0.0014231222, -92342.98, -92342.98 
9.3533874e+2, 3.1463322e+2, -99074.73, -176431.28, -4488.559, -0.00085962465, -0.0028888218, -98815.15, -98815.15 
9.353268e+2, 3.2462642e+2, -39029.965, -42240.9, -1740.3184, -0.001132658, 0.003674173, -38267.684, -38267.684 
9.4573617e+2, 3.498972e+1, -2435130.5, -2589919.5, 8699.567, -0.020620765, 0.0018647084, -2434643.0, 162457.94 
9.4572496e+2, 4.4982705e+1, -2381873.0, -2525182.5, -4297.524, 0.02953372, 0.0036255326, -2381744.3, 117425.42 
9.4571143e+2, 5.4975146e+1, -2271456.0, -2421526.0, -4508.2593, -0.0012557309, -0.0010512982, -2271320.8, 129922.94 
9.456981e+2, 6.4967185e+1, -2181029.0, -2336459.3, -4837.1094, -0.010666137, -0.0016973966, -2180878.5, 122443.195 
9.456849e+2, 7.495885e+1, -2099101.5, -2246603.3, -5196.307, 0.0011129583, -0.00010976992, -2098918.8, 106484.625 
9.4567126e+2, 8.4950083e+1, -2017233.6, -2165444.0, -8445.149, 0.004591722, 0.0014234364, -2016754.0, 90735.29 
9.4565713e+2, 9.494091e+1, -1923985.5, -2069944.9, -8617.445, -0.00032360942, 0.0007710126, -1923478.5, 86100.63 
9.456428e+2, 1.0493131e+2, -1838763.5, -1987218.1, -10200.262, -0.0018694618, 0.00066831044, -1838065.9, 73607.305 
9.4562835e+2, 1.1492131e+2, -1750032.9, -1893870.6, -10318.065, 0.000032703232, -0.0007885849, -1749296.5, 64474.703 
9.456136e+2, 1.2491091e+2, -1665889.6, -1811652.5, -11920.92, 0.00087937526, -0.000010265956, -1664921.1, 50952.055 
9.455988e+2, 1.3490012e+2, -1574785.3, -1717069.8, -12155.032, 0.0006832217, 0.0009906233, -1573754.4, 44224.492 
9.455838e+2, 1.448889e+2, -1490601.6, -1635285.6, -12950.635, 0.00034447384, 0.0017560293, -1489451.5, 30637.463 
9.4556874e+2, 1.5487723e+2, -1401216.9, -1541507.6, -12818.016, -0.00017357573, 0.00028148358, -1400055.4, 22147.959 
9.455536e+2, 1.648652e+2, -1316779.1, -1458475.5, -13431.623, -0.00042185304, 0.0002737781, -1315517.1, 8804.17 
9.455384e+2, 1.7485279e+2, -1226506.3, -1364205.9, -13639.792, -0.00035614238, -0.0004525381, -1225168.1, 1274.7192 
9.4552314e+2, 1.8483993e+2, -1142412.1, -1282723.1, -13697.794, -0.00010659809, 0.00044850112, -1141087.4, -12518.679 
9.4550794e+2, 1.9482666e+2, -1051828.4, -1188362.3, -13622.984, 0.00037013483, 0.0011069854, -1050482.4, -19783.617 
9.454928e+2, 2.0481294e+2, -967676.8, -1106446.3, -12975.346, 0.0002412126, 0.0014648675, -966474.06, -33640.867 
9.454777e+2, 2.147988e+2, -877913.8, -1012438.0, -12743.569, -0.0005332237, -0.0005688208, -876717.25, -41745.496 
9.4546276e+2, 2.2478428e+2, -793276.56, -929297.1, -11856.981, -0.0005014362, -0.0004728784, -792250.7, -55136.6 
9.454479e+2, 2.347694e+2, -702777.6, -834790.6, -11997.146, 0.0003694541, -0.00040773736, -701696.2, -62436.332 
9.454332e+2, 2.4475406e+2, -618931.9, -753993.9, -10665.029, 0.00060730544, 0.00047219574, -618094.9, -76684.59 
9.454187e+2, 2.5473824e+2, -528128.6, -659242.44, -10351.047, 0.00010722733, 0.00016592536, -527316.5, -83751.31 
9.454044e+2, 2.6472205e+2, -443760.8, -576862.5, -8243.19, -0.0006344844, 0.0005490794, -443252.25, -97528.14 
9.4539046e+2, 2.7470544e+2, -353914.66, -482371.63, -8094.148, -0.001679823, -0.0005390911, -353406.66, -105519.984 
9.453767e+2, 2.8468838e+2, -270376.28, -402053.88, -5941.614, -0.0012816242, 0.00037274216, -270108.72, -120054.76 
9.453633e+2, 2.9467088e+2, -178782.97, -306668.38, -5613.1294, 0.0009834169, 0.0009665674, -178537.06, -126311.57 
9.4535017e+2, 3.046563e+2, -95120.74, -174602.47, -2760.537, 0.0012519282, 0.0013733889, -95024.984, -95024.984 
9.453374e+2, 3.1464478e+2, -103008.23, -177888.52, -2511.9177, -0.0010794282, -0.00034420198, -102924.055, -102924.055 
9.4532496e+2, 3.2463804e+2, -43479.79, -42679.605, 181.48386, -0.0014495056, 0.0018696388, -42640.37, -42640.37 
9.557504e+2, 3.5002208e+1, -2442098.0, -2601163.0, -13421.394, -0.0077754525, 0.0076942253, -2440973.5, 156004.81 
9.5573646e+2, 4.4994533e+1, -2379218.8, -2524337.3, -929.1173, 0.011738978, -0.019085193, -2379212.8, 119840.73 
9.5572394e+2, 5.49872e+1, -2271912.3, -2422171.5, -1143.6196, -0.0001743151, 0.0021548213, -2271903.8, 129221.86 
9.5571053e+2, 6.497925e+1, -2182711.3, -2338223.0, -8700.3125, -0.0040223715, 0.009079927, -2182226.0, 120977.42 
9.5569617e+2, 7.4970716e+1, -2099557.8, -2247765.5, -9052.087, -0.000018605091, -0.00027231325, -2099006.8, 106280.17 
9.556818e+2, 8.4961855e+1, -2016981.9, -2165715.0, -9443.043, 0.0015297049, -0.0029491908, -2016384.8, 90989.23 
9.5566744e+2, 9.4952667e+1, -1924223.0, -2070465.0, -9613.07, 0.0006541901, -0.000999676, -1923593.8, 85870.15 
9.5565265e+2, 1.0494306e+2, -1839076.1, -1987673.6, -12366.795, 0.00020815711, 0.00090230297, -1838054.0, 73504.09 
9.556375e+2, 1.1493304e+2, -1750142.6, -1894231.5, -12495.699, 0.00018981738, 0.0008709642, -1749067.0, 64589.215 
9.5562226e+2, 1.249226e+2, -1666217.9, -1812532.8, -13501.699, 0.000024128503, 0.0013902412, -1664982.5, 50776.168 
9.5560694e+2, 1.3491173e+2, -1575248.9, -1718017.8, -13715.236, -0.00024390909, 0.00037506898, -1573943.3, 43921.94 
9.5559144e+2, 1.4490047e+2, -1490444.4, -1634885.9, -14959.95, -0.00013542167, 0.00035372973, -1488911.3, 31064.219 
9.555758e+2, 1.5488884e+2, -1400980.6, -1541068.4, -14846.231, 0.00035669009, -0.00071336795, -1399424.5, 22664.885 
9.555601e+2, 1.648768e+2, -1317146.8, -1459293.3, -15253.825, 0.00031331298, -0.0001713188, -1315528.3, 8679.168 
9.555443e+2, 1.7486434e+2, -1226896.1, -1365029.0, -15445.288, -0.00026017748, -0.00011014268, -1225190.3, 1139.2905 
9.5552856e+2, 1.8485147e+2, -1142266.9, -1282476.9, -15425.658, -0.00028232127, 0.0007520529, -1140589.9, -12134.264 
9.555129e+2, 1.9483821e+2, -1051748.8, -1188116.5, -15352.639, 0.0003129617, 0.00045759793, -1050041.6, -19456.123 
9.554972e+2, 2.0482454e+2, -967318.94, -1105608.1, -14929.041, 0.0006587833, 0.0008347217, -965725.6, -33006.08 
9.554816e+2, 2.1481048e+2, -877519.4, -1011564.8, -14711.885, 0.0007211563, -0.0001663418, -875923.7, -41066.215 
9.554661e+2, 2.2479595e+2, -793542.7, -929834.7, -13677.328, 0.00017435019, 0.00038195265, -792183.7, -55184.086 
9.554506e+2, 2.3478106e+2, -703087.56, -835362.1, -13802.4375, -0.0010813718, 0.00028329005, -701662.7, -62516.895 
9.554354e+2, 2.4476571e+2, -618438.3, -752918.4, -12419.048, -0.0011088741, 0.0011254257, -617301.06, -76004.984 
9.5542043e+2, 2.5475e+2, -527669.3, -658136.4, -12112.852, 0.00022832728, 0.0009052218, -526554.25, -83104.125 
9.5540565e+2, 2.6473382e+2, -443628.25, -576464.9, -10289.748, 0.0007852451, 0.0012718483, -442835.94, -97227.44 
9.5539105e+2, 2.7471727e+2, -353755.38, -481968.84, -10147.495, 0.00044172333, 0.000050781848, -352957.22, -105186.43 
9.5537674e+2, 2.847002e+2, -269904.75, -401028.2, -7574.938, -0.00013628058, -0.00026217502, -269468.6, -119530.92 
9.5536286e+2, 2.946828e+2, -178379.78, -305658.78, -7235.552, -0.00076996617, -0.0021208506, -177969.77, -125861.07 
9.553492e+2, 3.046683e+2, -94961.51, -174020.92, -4725.0845, -0.00090494164, -0.00025928998, -94680.11, -94680.11 
9.5533586e+2, 3.1465685e+2, -102824.77, -177310.95, -4471.515, -0.00078959094, 0.003928816, -102557.305, -102557.305 
9.553229e+2, 3.246501e+2, -42710.19, -40952.67, -1692.3616, 0.00017922312, -0.002842964, -39924.52, -39924.52 
9.657641e+2, 3.501498e+1, -2458534.0, -2611086.3, -9294.373, 0.0070777447, 0.004714102, -2457969.8, 138883.45 
9.657495e+2, 4.5007268e+1, -2339379.0, -2505857.8, 130.20305, -0.008755626, -0.013055326, -2339378.8, 159549.97 
9.6573645e+2, 5.499977e+1, -2271349.0, -2422998.8, -426.84668, 0.0009299587, 0.001675792, -2271347.8, 129654.48 
9.657225e+2, 6.499173e+1, -2193656.0, -2344058.5, -6686.0825, 0.0038388008, 0.0066610593, -2193359.3, 109721.875 
9.6570766e+2, 7.4983186e+1, -2094795.3, -2245913.8, -6795.806, -0.00040702615, -0.00007598757, -2094490.3, 110674.66 
9.6569276e+2, 8.497427e+1, -2007845.9, -2161846.3, -7778.0894, -0.0014748636, -0.0018423955, -2007454.0, 99798.2 
9.6567774e+2, 9.496503e+1, -1922081.0, -2070009.4, -8070.3813, 0.0006756263, -0.00066732906, -1921642.0, 87700.74 
9.656624e+2, 1.0495537e+2, -1839028.6, -1988070.3, -10605.275, 0.0012649974, 0.000827505, -1838277.8, 73159.68 
9.656468e+2, 1.14945315e+2, -1747384.1, -1893332.5, -10822.824, 0.0002502924, 0.00073565374, -1746585.9, 66950.055 
9.6563107e+2, 1.2493483e+2, -1663145.9, -1811222.4, -11909.3955, -0.00028618274, 0.0010952357, -1662194.3, 53444.51 
9.656151e+2, 1.3492393e+2, -1574540.6, -1717842.8, -11857.167, -0.00032423125, -0.00014201805, -1573566.1, 44179.273 
9.6559906e+2, 1.4491268e+2, -1490360.1, -1634908.4, -13043.478, -0.00009071175, 0.000079449455, -1489192.5, 30663.363 
9.655829e+2, 1.5490104e+2, -1399956.6, -1540621.5, -13177.404, 0.00044156305, -0.0003182981, -1398732.9, 23236.996 
9.655666e+2, 1.6488898e+2, -1315865.6, -1458889.0, -13574.01, 0.0004506042, 0.0003399638, -1314588.8, 9499.289 
9.655503e+2, 1.748765e+2, -1225895.6, -1364789.0, -13539.555, -0.00006132377, 0.000009315901, -1224588.1, 1622.2959 
9.6553403e+2, 1.8486361e+2, -1141854.5, -1282125.0, -13492.109, -0.00019853804, 0.0005042201, -1140568.5, -12231.945 
9.6551776e+2, 1.9485037e+2, -1052610.8, -1188393.9, -13486.862, 0.00009547834, -0.00015693546, -1051284.1, -20817.707 
9.6550155e+2, 2.0483671e+2, -968442.8, -1105836.0, -13146.913, 0.000370817, 0.00041346182, -967196.1, -34595.88 
9.6548533e+2, 2.1482268e+2, -878050.56, -1011528.56, -13159.094, 0.00061182067, 0.000189402, -876765.6, -42027.75 
9.654693e+2, 2.2480819e+2, -794187.2, -930060.4, -12109.789, 0.00029861266, 0.00096617406, -793116.3, -56236.48 
9.654534e+2, 2.3479328e+2, -704245.7, -835875.8, -11954.541, -0.0006824807, 0.0005087072, -703168.8, -64142.816 
9.6543765e+2, 2.4477795e+2, -620065.25, -753134.44, -10529.24, -0.00084055244, 0.0010016793, -619237.25, -78061.22 
9.65422e+2, 2.547623e+2, -530370.5, -658856.2, -10413.8, -0.000057669942, 0.00047218977, -529531.94, -86202.305 
9.6540666e+2, 2.6474616e+2, -446489.94, -577418.5, -8639.051, 0.0005612536, 0.0009980453, -445922.38, -100434.79 
9.653915e+2, 2.7472964e+2, -355522.78, -482426.5, -8461.666, 0.00094352884, 0.00042371213, -354961.06, -107311.555 
9.6537673e+2, 2.8471267e+2, -271784.13, -401247.47, -5897.6196, 0.00040961817, 0.0003251438, -271516.03, -121700.12 
9.6536225e+2, 2.946953e+2, -182147.44, -306763.75, -5638.142, -0.0009904251, -0.0018022773, -181892.86, -129906.5 
9.6534806e+2, 3.0468085e+2, -99247.09, -175179.5, -3046.969, -0.001229179, -0.00052146066, -99125.02, -99125.02 
9.6533424e+2, 3.146695e+2, -106520.81, -178162.53, -2511.2715, -0.00039277333, 0.0027717568, -106432.9, -106432.9 
9.6532077e+2, 3.246628e+2, -46502.69, -42577.34, 60.65282, 0.00055315474, -0.0025975201, -42576.402, -42576.402 
9.7577727e+2, 3.5028017e+1, -2454940.5, -2606379.5, 10130.197, 0.022946455, -0.0044495654, -2454265.8, 142459.8 
9.7576386e+2, 4.5020726e+1, -2343313.5, -2509358.0, -7287.37, -0.031437915, 0.0144695705, -2342994.3, 155802.8 
9.75749e+2, 5.5012774e+1, -2272035.5, -2424867.8, -7780.286, 0.0020184168, -0.0016650722, -2271640.5, 129234.36 
9.757341e+2, 6.500457e+1, -2192504.0, -2343653.5, -6212.7256, 0.012410016, -0.005672169, -2192249.0, 110706.24 
9.757193e+2, 7.499614e+1, -2094971.6, -2246141.8, -6344.0947, -0.00026770553, 0.00045175396, -2094705.9, 110332.06 
9.7570395e+2, 8.498723e+1, -2008785.8, -2163079.0, -10674.358, -0.00444424, 0.003461893, -2008050.8, 99074.484 
9.756882e+2, 9.497788e+1, -1922473.4, -2070978.8, -10957.186, -0.00007094503, 0.0012750935, -1921669.3, 87547.52 
9.7567225e+2, 1.0496814e+2, -1839150.5, -1988700.0, -12015.878, 0.0014894331, 0.0005191845, -1838191.3, 73121.09 
9.756562e+2, 1.14958026e+2, -1747769.3, -1894087.9, -12224.172, 0.00021337612, -0.0007950904, -1746755.0, 66656.39 
9.756399e+2, 1.24947526e+2, -1663123.1, -1811090.6, -14096.954, -0.00019505821, -0.00051237294, -1661792.1, 53722.2 
9.7562337e+2, 1.3493666e+2, -1574386.9, -1717656.9, -14062.071, 0.00023858281, -0.0005661472, -1573019.6, 44601.137 
9.756067e+2, 1.4492539e+2, -1490558.8, -1635456.3, -14809.491, 0.00033430426, 0.000714508, -1489060.6, 30670.68 
9.7559e+2, 1.5491372e+2, -1400209.0, -1541211.3, -14939.765, 0.00013989874, 0.0011821468, -1398643.4, 23202.14 
9.755732e+2, 1.6490164e+2, -1315855.4, -1458810.5, -15455.5625, 0.00008011573, 0.0016134628, -1314203.5, 9760.499 
9.755563e+2, 1.7488916e+2, -1225923.9, -1364721.5, -15422.388, 0.00019249335, -0.00005510251, -1224230.9, 1855.5071 
9.755395e+2, 1.8487628e+2, -1141897.5, -1282142.9, -15565.211, 0.000071205424, -0.00018626591, -1140190.8, -11978.207 
9.755226e+2, 1.9486302e+2, -1052606.3, -1188376.5, -15561.727, -0.00029000986, -0.0007399576, -1050845.5, -20503.074 
9.7550577e+2, 2.0484936e+2, -968455.56, -1105876.1, -14944.079, -0.0005408616, 0.00016789499, -966849.2, -34373.0 
9.754891e+2, 2.1483533e+2, -878119.7, -1011587.4, -14952.92, -0.0006561208, 0.0005059101, -876464.94, -41851.203 
9.7547245e+2, 2.2482087e+2, -793966.6, -929517.1, -14048.38, -0.00006735291, 0.0013221564, -792526.0, -55770.402 
9.75456e+2, 2.3480599e+2, -704039.6, -835326.6, -13894.467, 0.0012245005, 0.00033847152, -702585.25, -63683.89 
9.7543967e+2, 2.447907e+2, -619937.4, -752773.25, -12560.377, 0.0010474756, 0.00022237109, -618760.2, -77709.01 
9.754235e+2, 2.5477505e+2, -530225.4, -658483.4, -12452.232, -0.00073642307, -0.0009605787, -529027.6, -85823.09 
9.754076e+2, 2.6475897e+2, -446245.94, -576888.94, -10392.617, -0.0011298812, -0.000118185075, -445424.38, -100062.24 
9.75392e+2, 2.7474248e+2, -355335.4, -481922.84, -10207.357, 0.0000005390949, 0.0006165964, -354517.63, -106994.05 
9.7537667e+2, 2.8472558e+2, -271547.0, -400554.13, -7991.261, 0.0003923784, 0.001973849, -271053.88, -121364.46 
9.753616e+2, 2.9470825e+2, -181889.17, -306059.3, -7742.2056, 0.000055469893, 0.0014752814, -181408.3, -129549.07 
9.753468e+2, 3.0469388e+2, -98521.76, -173487.73, -4857.168, -0.000025122803, 0.0003966813, -98208.36, -98208.36 
9.7533244e+2, 3.1468257e+2, -105805.41, -176456.97, -4319.2153, 0.000056378816, -0.0031931656, -105542.33, -105542.33 
9.7531843e+2, 3.2467604e+2, -47158.418, -43748.777, -1776.7405, -0.00024370903, 0.0020749627, -42991.24, -42991.24 
9.857912e+2, 3.5041752e+1, -2429086.0, -2593574.3, 9417.298, 0.004897294, -0.0056210975, -2428548.8, 168042.3 
9.857773e+2, 4.5034465e+1, -2374170.5, -2525001.8, -5113.816, -0.0060971226, 0.01592528, -2373997.3, 124665.13 
9.857618e+2, 5.5026454e+1, -2264236.5, -2421576.8, -5075.937, 0.000450616, -0.0015047455, -2264073.0, 136667.8 
9.857464e+2, 6.5018183e+1, -2174012.8, -2335342.8, -4319.7993, 0.0028399145, -0.0060197087, -2173897.3, 128924.62 
9.85731e+2, 7.500968e+1, -2093379.8, -2246131.0, -4794.153, 0.0005862029, 0.0005278941, -2093229.4, 111675.79 
9.8571515e+2, 8.5000724e+1, -2012008.6, -2165122.5, -8834.26, -0.000491049, 0.0035554187, -2011500.6, 95492.34 
9.856988e+2, 9.499133e+1, -1918756.6, -2069625.3, -8956.984, -0.00034166223, 0.00093381305, -1918226.8, 90858.305 
9.8568225e+2, 1.0498154e+2, -1833841.5, -1986559.9, -10106.711, -0.00006497933, 0.00025952284, -1833175.5, 78005.45 
9.856657e+2, 1.1497139e+2, -1746314.6, -1893814.5, -10255.745, 0.00030160457, -0.00048100116, -1745605.0, 67675.445 
9.8564875e+2, 1.2496086e+2, -1662648.0, -1811088.5, -12145.849, 0.0004619112, 0.0000029118662, -1661660.8, 53722.89 
9.8563164e+2, 1.3494997e+2, -1572295.6, -1716868.5, -12331.002, 0.00038339553, -0.00018600127, -1571251.4, 46238.992 
9.856144e+2, 1.4493868e+2, -1488278.3, -1634628.3, -13132.42, 0.000184919, 0.00076288846, -1487109.1, 32491.928 
9.8559713e+2, 1.5492697e+2, -1399148.3, -1540954.1, -13188.601, -0.00008825843, 0.0007307128, -1397932.1, 23783.629 
9.855798e+2, 1.6491489e+2, -1315481.1, -1458512.1, -13713.678, -0.00008889485, 0.001263631, -1314178.1, 9656.053 
9.855624e+2, 1.7490241e+2, -1226248.9, -1364771.1, -13672.351, 0.000228837, 0.00026538872, -1224912.4, 1044.0906 
9.855449e+2, 1.8488954e+2, -1142232.3, -1282283.0, -13771.42, 0.00022121496, 0.00040037942, -1140891.0, -12808.422 
9.8552746e+2, 1.9487628e+2, -1052127.9, -1188138.0, -13767.409, -0.00012779782, -0.0002874734, -1050748.3, -20535.842 
9.855101e+2, 2.0486262e+2, -968162.94, -1105748.3, -13144.509, -0.00043835782, 0.00030375758, -966918.4, -34572.113 
9.854928e+2, 2.148486e+2, -878938.25, -1012033.5, -13163.239, -0.00069858023, 0.00014881146, -877648.94, -43164.945 
9.8547566e+2, 2.2483414e+2, -795191.75, -929538.0, -12262.191, -0.00024766597, 0.0008432137, -794081.7, -57456.145 
9.854586e+2, 2.3481931e+2, -705717.2, -835554.3, -12033.739, 0.0009364428, 0.00012318604, -704611.25, -65840.414 
9.854417e+2, 2.4480405e+2, -621815.06, -753455.94, -10627.395, 0.00096116983, 0.00025751092, -620962.6, -80042.41 
9.85425e+2, 2.5478843e+2, -531549.75, -658923.1, -10573.109, -0.00032716876, -0.00067652384, -530678.06, -87604.62 
9.854085e+2, 2.6477236e+2, -447723.16, -576986.4, -8478.401, -0.0008171655, -0.000031715233, -447169.44, -101938.69 
9.853923e+2, 2.7475595e+2, -358267.25, -482723.6, -8184.7686, -0.00042606163, 0.000025198602, -357731.3, -110339.6 
9.8537636e+2, 2.8473908e+2, -274977.16, -401653.06, -5972.7104, -0.000031031675, 0.0015635233, -274696.16, -125139.14 
9.8536074e+2, 2.9472184e+2, -184751.14, -306915.5, -5716.6978, 0.0004183765, 0.0021893014, -184484.22, -132757.97 
9.853454e+2, 3.0470753e+2, -101416.17, -174167.11, -2899.8982, 0.00046535936, 0.0011277652, -101300.76, -101300.76 
9.853305e+2, 3.1469625e+2, -109580.11, -177538.39, -2738.9888, 0.000028664424, -0.0037006931, -109469.9, -109469.9 
9.853159e+2, 3.2468978e+2, -51561.94, -44725.918, 122.99823, -0.00074157875, 0.0029484506, -44723.703, -44723.703 
9.958056e+2, 3.505606e+1, -2432153.5, -2596731.3, -12712.725, -0.03739844, -0.0011459647, -2431177.5, 165273.3 
9.957903e+2, 4.504848e+1, -2371248.3, -2523382.5, -1811.3953, 0.053815167, -0.0018477094, -2371226.8, 127298.17 
9.95775e+2, 5.5040693e+1, -2264325.5, -2421388.5, -1840.3223, -0.0033106594, 0.0013694383, -2264304.0, 136297.25 
9.9575907e+2, 6.5032434e+1, -2175849.8, -2337517.3, -8522.595, -0.02028415, 0.0026256468, -2175401.8, 127280.5 
9.957428e+2, 7.502373e+1, -2094005.1, -2247698.8, -8958.273, 0.0020129462, 0.00022585028, -2093484.8, 111282.805 
9.9572635e+2, 8.5014665e+1, -2011684.0, -2165216.5, -9799.566, 0.008611706, -0.00029672388, -2011061.0, 95795.29 
9.9570954e+2, 9.500526e+1, -1918956.4, -2069975.9, -9932.532, -0.00031681906, -0.0011225617, -1918305.9, 90642.58 
9.9569243e+2, 1.0499547e+2, -1834264.5, -1987157.1, -12567.994, -0.003011242, 0.00006748161, -1833238.4, 77806.13 
9.956751e+2, 1.14985295e+2, -1746506.3, -1894294.4, -12715.651, 0.00047062477, 0.0012735486, -1745420.1, 67723.95 
9.956577e+2, 1.24974735e+2, -1662893.1, -1811750.9, -13889.966, 0.001515782, 0.0021800096, -1661608.1, 53639.566 
9.9564004e+2, 1.3496378e+2, -1572641.5, -1717605.6, -14067.483, 0.00016821579, 0.0008207327, -1571289.0, 46066.027 
9.956223e+2, 1.4495243e+2, -1488444.0, -1634923.5, -15186.701, -0.000441305, 0.0003499394, -1486886.0, 32580.215 
9.9560434e+2, 1.5494071e+2, -1399297.6, -1541251.3, -15244.806, -0.0002815897, -0.0012632849, -1397678.9, 23902.313 
9.9558634e+2, 1.649286e+2, -1315428.6, -1458387.0, -15761.716, -0.00012672174, -0.00036258216, -1313711.5, 9988.185 
9.9556834e+2, 1.7491616e+2, -1226169.3, -1364630.5, -15733.464, 0.00004892238, 0.00090465345, -1224404.0, 1417.64 
9.9555033e+2, 1.8490331e+2, -1142215.6, -1282276.9, -15623.343, 0.00023329262, 0.0020229812, -1140494.1, -12546.496 
9.9553233e+2, 1.9489007e+2, -1052171.9, -1188164.4, -15616.492, 0.0004450997, 0.0010097026, -1050401.6, -20324.143 
9.955144e+2, 2.048764e+2, -968272.56, -1105862.3, -15221.825, 0.0004569385, 0.00075551914, -966608.7, -34397.203 
9.954965e+2, 2.1486232e+2, -879034.5, -1012144.9, -15234.617, 0.0002410897, -0.00075755536, -877313.1, -42963.84 
9.9547875e+2, 2.248479e+2, -794814.8, -928691.5, -14297.232, -0.00032428053, -0.00031709415, -793305.0, -56814.355 
9.9546105e+2, 2.3483315e+2, -705325.0, -834692.0, -14093.006, -0.0012396919, -0.00012717753, -703807.56, -65172.29 
9.954436e+2, 2.4481794e+2, -621762.9, -753298.56, -12518.022, -0.000817387, 0.0009909472, -620582.2, -79797.945 
9.954264e+2, 2.5480232e+2, -531542.9, -658804.8, -12449.975, 0.0009651543, 0.0010612394, -530336.3, -87399.07 
9.954093e+2, 2.647863e+2, -447335.3, -576058.4, -10595.768, 0.00112091, 0.001064966, -446468.97, -101374.75 
9.953925e+2, 2.7476993e+2, -357868.63, -481784.4, -10320.262, -0.0004779236, -0.0012494478, -357015.0, -109760.3 
9.95376e+2, 2.847531e+2, -274671.8, -400934.1, -7934.8394, -0.0008500945, -0.00061450485, -274175.1, -124755.59 
9.953597e+2, 2.947359e+2, -184450.03, -306211.4, -7670.6055, 0.00012058415, 0.00067612645, -183968.7, -132380.53 
9.9534386e+2, 3.0472165e+2, -101392.8, -173959.3, -4908.9023, 0.00025871652, 0.0017155281, -101062.23, -101062.23 
9.953284e+2, 3.1471044e+2, -109592.12, -177366.03, -4739.9663, -0.0004616632, 0.0005907758, -109262.22, -109262.22 
9.953132e+2, 3.2470408e+2, -49887.777, -41051.043, -1954.5625, -0.0010447209, 0.0003306475, -40638.027, -40638.027 
1.00582e+3, 3.5071138e+1, -2446501.8, -2605002.8, -8294.018, -0.017042942, 0.0029387178, -2446069.0, 150234.06 
1.0058039e+3, 4.5063347e+1, -2335576.0, -2507059.0, 444.74472, 0.025216343, -0.007901078, -2335575.0, 162804.31 
1.0057881e+3, 5.505551e+1, -2263832.0, -2422413.5, -360.5322, -0.0011954397, 0.0016225816, -2263831.3, 136624.92 
1.00577176e+3, 6.5047187e+1, -2185164.5, -2342627.8, -6815.5376, -0.00913738, 0.004834088, -2184870.3, 117667.54 
1.00575484e+3, 7.5038415e+1, -2088906.6, -2245738.0, -6879.7134, 0.0010040536, 0.00007903806, -2088605.4, 116018.27 
1.0057377e+3, 8.502929e+1, -2002886.3, -2161460.0, -7785.545, 0.004193073, -0.0010553144, -2002505.0, 104208.07 
1.00572035e+3, 9.5019853e+1, -1917093.1, -2069623.3, -8094.5728, 0.00030083148, -0.00075136876, -1916664.9, 92140.73 
1.0057027e+3, 1.0501001e+2, -1834340.9, -1987542.0, -10771.034, -0.0009731762, 0.00059850566, -1833587.3, 77314.695 
1.0056847e+3, 1.1499981e+2, -1743812.0, -1893330.3, -10905.287, 0.0003700631, 0.0010665819, -1743020.8, 69981.21 
1.0056666e+3, 1.24989204e+2, -1659681.0, -1810511.9, -11995.815, 0.0007046321, 0.0017263013, -1658732.9, 56373.055 
1.00564845e+3, 1.3497822e+2, -1571167.8, -1717209.1, -12064.954, 0.00006126611, 0.00055742485, -1570177.8, 47035.785 
1.00563005e+3, 1.4496686e+2, -1487693.1, -1634636.6, -13161.371, -0.0002015636, 0.0004203282, -1486523.6, 32801.29 
1.0056116e+3, 1.5495512e+2, -1398564.3, -1540995.8, -13171.108, -0.000069792426, -0.0006843822, -1397356.5, 24083.352 
1.005593e+3, 1.6494301e+2, -1314641.4, -1458181.8, -13689.635, 0.000011918881, 0.000015774676, -1313347.4, 10211.1455 
1.0055744e+3, 1.7493054e+2, -1225160.9, -1364297.8, -13824.918, 0.00007253324, 0.00035372764, -1223800.5, 1880.3026 
1.0055558e+3, 1.8491767e+2, -1141528.0, -1281833.4, -13778.202, 0.00016292537, 0.001314535, -1140187.8, -12380.869 
1.0055372e+3, 1.9490443e+2, -1052732.0, -1188342.0, -13731.403, 0.00030914939, 0.0009352773, -1051355.5, -21418.885 
1.00551866e+3, 2.0489077e+2, -969265.1, -1105988.4, -13238.087, 0.00043062217, 0.0010442298, -967995.1, -35924.754 
1.0055002e+3, 2.1487676e+2, -880015.6, -1012249.4, -13002.29, 0.0004951157, -0.00036229254, -878749.3, -44541.387 
1.0054818e+3, 2.2486234e+2, -795959.06, -929217.56, -12074.828, 0.000001407476, -0.00002678446, -794873.8, -58524.688 
1.0054635e+3, 2.3484758e+2, -706396.9, -835195.0, -12256.995, -0.0010848872, -0.0001577299, -705240.8, -66747.07 
1.0054455e+3, 2.4483241e+2, -622874.3, -753265.0, -10716.677, -0.00089151424, 0.00089794624, -621999.4, -81356.95 
1.0054277e+3, 2.5481686e+2, -533602.06, -659242.6, -10368.76, 0.0006291112, 0.0011618823, -532752.06, -89957.15 
1.00541e+3, 2.6480088e+2, -450039.78, -576893.06, -8557.193, 0.0009004158, 0.0014345025, -449465.13, -104513.7 
1.0053926e+3, 2.7478454e+2, -360686.78, -482681.53, -8455.693, -0.00020468401, -0.0005071671, -360103.5, -112992.03 
1.00537546e+3, 2.847678e+2, -277348.66, -401421.4, -5902.962, -0.0006222608, -0.0004306787, -277068.44, -127792.664 
1.0053587e+3, 2.9475063e+2, -187168.6, -306713.72, -5496.0156, -0.00031612752, -0.00069842464, -186916.44, -135472.56 
1.0053422e+3, 3.0473644e+2, -104662.23, -174986.84, -2731.7834, -0.00027178656, 0.0010833421, -104556.266, -104556.266 
1.0053261e+3, 3.147253e+2, -113731.78, -178824.55, -2331.048, -0.00038941114, 0.003216265, -113648.414, -113648.414 
1.00531034e+3, 3.2471895e+2, -54150.14, -41767.605, 99.89629, -0.00078071095, -0.00076602265, -41766.8, -41766.8 
1.0158346e+3, 3.5086837e+1, -2445482.0, -2604998.0, 7045.9136, 0.04713186, 0.006791536, -2445171.3, 150977.83 
1.0158179e+3, 4.5078903e+1, -2339292.0, -2511210.5, -6090.868, -0.06836256, -0.0052714897, -2339076.5, 159150.23 
1.01580136e+3, 5.507082e+1, -2265045.0, -2425257.8, -6731.3804, 0.0055190274, -0.00010464646, -2264762.8, 135543.39 
1.01578444e+3, 6.5062386e+1, -2184239.5, -2342217.0, -6966.1436, 0.027082313, 0.0022723563, -2183933.0, 118455.83 
1.0157669e+3, 7.5053626e+1, -2088988.5, -2245813.5, -7069.9053, -0.001987782, 0.00007791201, -2088670.4, 115804.164 
1.0157492e+3, 8.504448e+1, -2003729.1, -2162707.8, -10659.26, -0.010356969, 0.00053115864, -2003017.6, 103546.555 
1.0157312e+3, 9.5034975e+1, -1917529.5, -2070666.6, -10949.497, 0.001383494, 0.0014673393, -1916750.5, 91906.84 
1.0157129e+3, 1.0502507e+2, -1834369.6, -1987874.9, -12439.9795, 0.0047939806, 0.0016798705, -1833368.0, 77386.32 
1.01569444e+3, 1.1501481e+2, -1744026.5, -1893754.3, -12577.943, 0.000016134636, -0.00064955925, -1742977.1, 69877.77 
1.0156758e+3, 1.2500417e+2, -1659888.0, -1810805.5, -14188.142, -0.0015734516, -0.0007373216, -1658565.8, 56393.473 
1.0156569e+3, 1.3499318e+2, -1571323.4, -1717486.1, -14262.29, 0.000016463893, -0.0006802306, -1569944.6, 47122.258 
1.015638e+3, 1.4498183e+2, -1487706.6, -1634687.5, -15225.916, 0.00068370096, 0.00089251547, -1486145.9, 33032.363 
1.0156188e+3, 1.5497011e+2, -1398572.3, -1541050.0, -15245.305, 0.00042353108, 0.0019455495, -1396959.3, 24333.893 
1.0155997e+3, 1.6495796e+2, -1314921.0, -1458733.3, -15676.696, 0.0002526868, 0.0019876997, -1313231.9, 10180.1 
1.01558045e+3, 1.7494541e+2, -1225487.1, -1364873.4, -15798.531, 0.00022741975, -0.0011540025, -1223719.0, 1815.9543 
1.0155613e+3, 1.8493254e+2, -1141503.0, -1281697.8, -15932.558, -0.000008720927, -0.0012549883, -1139715.1, -12053.943 
1.0155421e+3, 1.9491933e+2, -1052677.4, -1188191.3, -15896.286, -0.00043648953, -0.00022884797, -1050837.6, -21046.877 
1.01552285e+3, 2.0490572e+2, -968840.9, -1105069.8, -15307.341, -0.0003908135, 0.0012245091, -967142.06, -35218.063 
1.0155038e+3, 2.1489178e+2, -879591.9, -1011346.1, -15095.526, 0.00014896384, 0.0011168269, -877884.5, -43823.7 
1.01548485e+3, 2.2487737e+2, -796319.9, -929908.75, -14111.727, 0.0006289148, 0.001470494, -794845.44, -58643.55 
1.015466e+3, 2.3486255e+2, -706787.94, -835921.6, -14269.777, 0.0009761235, -0.0000068503773, -705229.9, -66882.72 
1.0154473e+3, 2.4484739e+2, -622342.7, -752029.9, -12821.562, 0.00040048597, 0.0001137447, -621087.2, -80591.46 
1.0154288e+3, 2.548319e+2, -533066.75, -657992.44, -12501.462, -0.0011412245, -0.00012867668, -531828.0, -89180.56 
1.0154106e+3, 2.6481602e+2, -449958.56, -576615.75, -10712.694, -0.0012082304, 0.001194941, -449058.88, -104255.625 
1.01539254e+3, 2.747997e+2, -360577.7, -482424.84, -10607.246, 0.0002960501, 0.0019601933, -359661.16, -112698.29 
1.0153749e+3, 2.8478298e+2, -276786.6, -400151.1, -7859.0635, 0.0004497738, 0.0017737745, -276287.94, -127161.25 
1.0153575e+3, 2.947659e+2, -186667.0, -305469.47, -7460.2295, -0.0009436212, -0.0019770316, -186200.36, -134906.16 
1.01534046e+3, 3.047518e+2, -104225.01, -173850.64, -4978.2026, -0.0011403762, -0.00062212703, -103870.87, -103870.87 
1.0153237e+3, 3.1474078e+2, -113254.58, -177676.48, -4578.703, 0.00015643101, 0.0043599363, -112930.77, -112930.77 
1.0153073e+3, 3.2473448e+2, -54271.676, -41919.22, -2061.96, -0.00011723482, -0.00057551835, -41584.113, -41584.113 
1.0258491e+3, 3.5102883e+1, -2425186.3, -2596926.5, 7247.176, 0.02669584, 0.0023552566, -2424880.8, 171110.98 
1.0258323e+3, 4.5094976e+1, -2359601.0, -2521159.5, -5062.529, -0.038471382, 0.0012372568, -2359442.5, 138626.77 
1.0258148e+3, 5.508682e+1, -2257768.5, -2421780.0, -4525.677, 0.0033772762, -0.00027685397, -2257643.8, 142505.5 
1.0257971e+3, 6.507832e+1, -2170026.3, -2336064.0, -4478.146, 0.015730882, -0.000045450568, -2169905.8, 132326.92 
1.0257792e+3, 7.506951e+1, -2086874.0, -2245600.5, -5024.9897, -0.0010438439, 0.00006850324, -2086715.0, 117603.89 
1.02576084e+3, 8.506031e+1, -2004968.9, -2163789.0, -8754.524, -0.005895409, 0.0012925637, -2004487.8, 101921.26 
1.0257422e+3, 9.505075e+1, -1914012.9, -2069432.8, -8866.574, 0.000891646, 0.0015029496, -1913508.8, 94994.03 
1.0257233e+3, 1.050408e+2, -1829774.4, -1986047.6, -10264.619, 0.0028584993, 0.0014740308, -1829103.0, 81497.19 
1.0257042e+3, 1.150305e+2, -1741994.8, -1893184.6, -10479.165, 0.000025074563, -0.0006241797, -1741271.9, 71429.29 
1.0256849e+3, 1.2501983e+2, -1658805.4, -1810524.0, -12209.516, -0.00085734564, -0.0004895052, -1657829.1, 56976.637 
1.0256654e+3, 1.3500883e+2, -1569932.3, -1717034.1, -12298.058, 0.00018870295, -0.00021425493, -1568911.1, 48002.477 
1.0256459e+3, 1.4499743e+2, -1486216.4, -1634168.4, -13240.254, 0.0005805515, 0.0011842424, -1485040.8, 33984.43 
1.0256261e+3, 1.5498568e+2, -1397194.3, -1540569.9, -13366.912, 0.00032342158, 0.0016666916, -1395958.6, 25181.693 
1.0256063e+3, 1.6497354e+2, -1313894.8, -1458145.9, -13771.204, 0.00020161539, 0.001791253, -1312591.9, 10667.455 
1.0255866e+3, 1.7496102e+2, -1225482.1, -1364805.1, -13619.005, 0.00025926981, -0.00058136194, -1224163.4, 1218.7744 
1.0255667e+3, 1.8494813e+2, -1141929.8, -1281918.3, -13633.409, 0.000021134583, -0.00066216866, -1140614.4, -13105.94 
1.0255469e+3, 1.949349e+2, -1052819.9, -1188265.4, -13683.313, -0.00049524376, -0.00035545367, -1051451.4, -21813.29 
1.0255271e+3, 2.049213e+2, -968919.5, -1105031.6, -13302.646, -0.00049516384, 0.00087671966, -967631.56, -35860.258 
1.02550745e+3, 2.1490735e+2, -880008.8, -1011468.25, -13461.041, 0.00005000256, 0.0010284444, -878644.6, -44736.605 
1.0254878e+3, 2.2489297e+2, -796989.4, -929796.94, -12382.758, 0.000515409, 0.0016508375, -795844.7, -59795.805 
1.0254684e+3, 2.348782e+2, -708143.6, -836144.7, -11964.739, 0.00081777776, 0.00046729518, -707034.8, -68841.09 
1.0254491e+3, 2.4486306e+2, -624404.06, -752747.0, -10491.289, 0.00035137174, 0.0004561703, -623552.06, -83210.05 
1.02543e+3, 2.5484762e+2, -535686.3, -658984.5, -10584.901, -0.00094082195, -0.00034205307, -534784.2, -92290.72 
1.0254111e+3, 2.6483175e+2, -452335.94, -577185.9, -8730.673, -0.0010295637, 0.00078800344, -451728.34, -107079.39 
1.0253925e+3, 2.7481553e+2, -362270.47, -482650.0, -8394.203, 0.00018138546, 0.0017461427, -361687.97, -114879.875 
1.02537416e+3, 2.8479886e+2, -279084.8, -400614.56, -5821.7334, 0.00033542688, 0.0020980511, -278806.56, -129835.234 
1.0253562e+3, 2.9478183e+2, -190989.89, -306914.0, -5663.2983, -0.00078169326, -0.0007587844, -190713.88, -139575.64 
1.0253385e+3, 3.047678e+2, -108749.3, -174953.58, -3100.4648, -0.0009312263, -0.00016087746, -108604.414, -108604.414 
1.0253212e+3, 3.1475684e+2, -116620.55, -178202.06, -2604.154, 0.00022700321, 0.0022803398, -116510.625, -116510.625 
1.0253042e+3, 3.2475057e+2, -57599.383, -43821.043, -128.8583, -0.0002457655, 0.00027836228, -43819.84, -43819.84 
1.0358637e+3, 3.511925e+1, -2428172.5, -2600828.0, -8049.7446, -0.052822314, -0.007962864, -2427798.0, 168033.44 
1.0358468e+3, 4.5111495e+1, -2356916.8, -2518289.8, -3700.8618, 0.07954172, 0.01055232, -2356831.8, 141075.64 
1.0358285e+3, 5.510339e+1, -2256929.5, -2419760.8, -3339.5806, -0.0057759644, 0.00067635556, -2256861.0, 143125.78 
1.03581004e+3, 6.5094864e+1, -2171570.0, -2338318.5, -8033.255, -0.030490186, -0.002142329, -2171183.8, 130886.67 
1.0357916e+3, 7.508594e+1, -2087680.6, -2247462.8, -8514.669, 0.0029724266, 0.000059907063, -2087228.3, 116929.66 
1.0357727e+3, 8.5076666e+1, -2004817.0, -2163955.5, -10277.041, 0.012584523, 0.0014334952, -2004156.0, 102092.71 
1.0357533e+3, 9.506707e+1, -1914170.4, -2069742.1, -10405.673, -0.0009033797, -0.000098721524, -1913477.5, 94865.38 
1.03573374e+3, 1.0505709e+2, -1830213.3, -1986854.9, -12634.0, -0.0049070166, 0.0003242288, -1829200.9, 81239.805 
1.0357141e+3, 1.15046754e+2, -1742341.4, -1893950.3, -12842.282, 0.0003073583, 0.00074876344, -1741261.3, 71280.65 
1.0356942e+3, 1.2503606e+2, -1658923.1, -1810846.0, -14303.328, 0.0020972262, 0.0018537609, -1657588.3, 57058.48 
1.0356741e+3, 1.3502502e+2, -1570055.6, -1717362.9, -14393.703, 0.00048716416, 0.0015751002, -1568662.4, 48092.59 
1.0356538e+3, 1.450136e+2, -1486462.5, -1634680.1, -15304.985, -0.0003241378, 0.0013375985, -1484898.6, 33968.313 
1.0356335e+3, 1.5500179e+2, -1397483.1, -1541103.3, -15425.956, -0.00027915268, -0.00089736015, -1395844.9, 25137.723 
1.03561305e+3, 1.6498965e+2, -1313646.6, -1457571.4, -16011.675, -0.00011735727, -0.00008663048, -1311886.9, 11214.698 
1.0355926e+3, 1.749772e+2, -1225194.5, -1364224.0, -15886.78, 0.00015678692, 0.0016858034, -1223402.1, 1821.3573 
1.03557214e+3, 1.8496434e+2, -1142017.0, -1282110.0, -15731.463, 0.00016977168, 0.0024792578, -1140272.3, -12922.616 
1.03555165e+3, 1.9495107e+2, -1052936.0, -1188480.9, -15774.671, -0.000035324836, 0.00036207988, -1051124.4, -21644.756 
1.03553124e+3, 2.0493743e+2, -969257.75, -1105646.6, -15437.815, -0.000053126543, 0.00011559063, -967532.2, -35918.89 
1.035511e+3, 2.1492343e+2, -880363.06, -1012105.06, -15585.703, 0.000111635716, -0.00033215393, -878544.3, -44793.85 
1.0354907e+3, 2.2490908e+2, -796281.06, -928201.56, -14554.639, -0.00026822492, 0.00076791615, -794694.4, -58803.41 
1.03547074e+3, 2.3489444e+2, -707420.0, -834535.2, -14169.308, -0.0012364448, 0.0012220227, -705859.75, -67825.22 
1.0354507e+3, 2.4487936e+2, -624606.5, -753123.44, -12766.224, -0.0008503115, 0.0017511215, -623350.6, -83168.305 
1.035431e+3, 2.548639e+2, -535859.7, -659387.94, -12848.567, 0.00089451176, 0.0003496937, -534537.44, -92203.31 
1.0354115e+3, 2.6484802e+2, -451805.1, -576016.7, -10670.14, 0.0010135852, 0.00021795968, -450895.16, -106405.72 
1.03539236e+3, 2.7483186e+2, -361800.2, -481514.88, -10345.097, -0.0005422084, -0.0007938068, -360912.78, -114264.875 
1.0353733e+3, 2.8481525e+2, -279022.13, -400291.9, -8292.69, -0.0008481783, 0.0008187241, -278457.66, -129647.15 
1.0353546e+3, 2.947983e+2, -190874.11, -306582.1, -8139.179, 0.000020065227, 0.0026217916, -190304.38, -139327.58 
1.0353363e+3, 3.0478433e+2, -108032.65, -173429.63, -5026.604, 0.00015284134, 0.0021395194, -107648.55, -107648.55 
1.03531845e+3, 3.147734e+2, -115943.24, -176686.0, -4528.7515, -0.00015780341, -0.002704252, -115607.45, -115607.45 
1.03530094e+3, 3.2476723e+2, -58081.25, -44589.285, -2105.2273, -0.0011415834, 0.0017159582, -44268.42, -44268.42 
1.04587905e+3, 3.5136744e+1, -2433370.3, -2602996.3, -4847.439, -0.033118073, -0.0053160535, -2433231.8, 162428.23 
1.04586095e+3, 4.5128867e+1, -2335485.3, -2509398.0, 363.44196, 0.051592212, 0.0069253845, -2335484.5, 162252.66 
1.0458423e+3, 5.5120647e+1, -2255390.8, -2420693.8, -1011.29047, -0.0036534274, 0.0006617357, -2255384.5, 144433.25 
1.0458234e+3, 6.5112036e+1, -2175007.5, -2340374.0, -6501.497, -0.019778024, -0.00085339905, -2174752.3, 127149.76 
1.0458041e+3, 7.5103074e+1, -2083150.5, -2245637.0, -6427.9985, 0.0020046486, 0.0005359581, -2082896.5, 121093.44 
1.0457846e+3, 8.509375e+1, -1998416.3, -2161402.3, -7923.234, 0.008420748, 0.0014047617, -1998032.0, 108049.38 
1.0457645e+3, 9.508409e+1, -1911586.0, -2069066.5, -8250.407, -0.0004079505, -0.00032511025, -1911155.0, 97021.07 
1.0457444e+3, 1.0507406e+2, -1828940.4, -1986622.0, -10606.522, -0.0031007489, 0.000254012, -1828230.1, 82044.08 
1.045724e+3, 1.150637e+2, -1740136.8, -1893251.8, -10724.933, 0.00024140593, 0.0011175458, -1739389.3, 72986.64 
1.0457035e+3, 1.2505297e+2, -1656386.8, -1809882.5, -12098.48, 0.001408985, 0.0021354228, -1655439.0, 59042.063 
1.0456827e+3, 1.350419e+2, -1568002.5, -1716619.5, -12211.276, 0.0003700614, 0.0013357054, -1567005.8, 49583.715 
1.0456619e+3, 1.4503044e+2, -1484973.1, -1634039.3, -13090.142, -0.00018205232, 0.0009797317, -1483832.3, 34869.43 
1.04564086e+3, 1.5501863e+2, -1396877.0, -1540910.0, -13062.194, -0.00016713861, -0.0010156338, -1395702.0, 25115.53 
1.04561985e+3, 1.6500649e+2, -1313294.8, -1457561.8, -13720.75, -0.000117148855, -0.0000957498, -1312001.4, 10935.212 
1.04559876e+3, 1.7499402e+2, -1224464.1, -1364013.0, -13938.794, -0.000043219312, 0.0016893371, -1223085.5, 1973.2208 
1.0455776e+3, 1.8498115e+2, -1141212.8, -1281543.3, -13849.193, 0.0001547981, 0.002613539, -1139859.1, -12674.279 
1.0455565e+3, 1.949679e+2, -1052808.1, -1188255.1, -13715.443, 0.0005067608, 0.00073387276, -1051433.3, -22118.55 
1.0455355e+3, 2.0495427e+2, -969789.25, -1105775.8, -13166.649, 0.00037860314, 0.0004359565, -968526.1, -37077.91 
1.0455145e+3, 2.1494028e+2, -881545.2, -1012536.6, -12958.99, -0.0002770179, -0.000349159, -880275.44, -46690.137 
1.0454936e+3, 2.2492597e+2, -797733.8, -928609.4, -11983.939, -0.0007130454, 0.0005079295, -796645.56, -60919.902 
1.0454729e+3, 2.3491135e+2, -709047.3, -835016.06, -12149.765, -0.00091450836, 0.0008409107, -707886.2, -70017.234 
1.04545236e+3, 2.448963e+2, -626005.5, -753407.0, -10786.263, -0.0004003931, 0.0015773366, -625098.75, -85082.32 
1.045432e+3, 2.5488085e+2, -536763.56, -659397.8, -10450.781, 0.00079396344, 0.00070480764, -535879.4, -93711.54 
1.0454119e+3, 2.64865e+2, -453378.7, -576257.5, -8238.048, 0.00077225233, 0.0005513387, -452828.88, -108506.11 
1.0453919e+3, 2.748489e+2, -365548.8, -482783.38, -8143.316, -0.00052208296, -0.0010507244, -364985.88, -118505.05 
1.0453724e+3, 2.8483236e+2, -282927.78, -401518.88, -6064.301, -0.0007190675, 0.00041907202, -282618.47, -133975.58 
1.04535304e+3, 2.9481545e+2, -193111.42, -307010.13, -5649.19, 0.0000858296, 0.0025619376, -192831.92, -142023.39 
1.0453341e+3, 3.0480155e+2, -110336.56, -173883.9, -2490.7505, 0.000005152077, 0.0021844413, -110239.086, -110239.086 
1.0453156e+3, 3.147907e+2, -120018.26, -177973.89, -2355.094, -0.00063632184, -0.0027774873, -119922.71, -119922.71 
1.0452974e+3, 3.2478464e+2, -63003.61, -45456.715, 491.5044, -0.0006120018, 0.002010894, -45442.957, -45442.957 
1.0558948e+3, 3.5155118e+1, -2431269.3, -2599051.5, 1008.60724, 0.054307833, 0.0063209846, -2431263.3, 164216.78 
1.05587475e+3, 4.514693e+1, -2338934.8, -2515100.0, -4139.684, -0.081269205, -0.005862733, -2338837.5, 158722.61 
1.0558562e+3, 5.5138475e+1, -2257765.8, -2425728.3, -5256.167, 0.007157833, -0.0000082800525, -2257601.5, 142041.53 
1.0558369e+3, 6.512975e+1, -2174319.0, -2339700.5, -7732.169, 0.03192255, 0.0029063108, -2173958.3, 127770.25 
1.0558166e+3, 7.512079e+1, -2082954.9, -2245204.5, -7722.7637, -0.0028936707, 0.0013498629, -2082588.1, 121228.29 
1.0557964e+3, 8.511143e+1, -1999123.6, -2162639.5, -10518.454, -0.0124099925, 0.0012565751, -1998449.8, 107458.39 
1.0557759e+3, 9.51017e+1, -1912117.8, -2070200.1, -10821.087, 0.0018410877, 0.00049429876, -1911380.5, 96622.96 
1.0557551e+3, 1.05091624e+2, -1829037.8, -1986994.3, -12693.118, 0.0057920287, 0.001008373, -1828024.3, 82077.945 
1.055734e+3, 1.1508121e+2, -1740303.1, -1893649.0, -12810.774, -0.0001485837, 0.00072530424, -1739240.3, 72963.984 
1.0557128e+3, 1.2507045e+2, -1656616.9, -1810331.3, -14303.728, -0.002079569, 0.000856876, -1655297.1, 59012.582 
1.0556914e+3, 1.3505934e+2, -1568233.5, -1717081.1, -14422.407, -0.00009236581, -0.0004572536, -1566848.9, 49569.664 
1.0556699e+3, 1.4504789e+2, -1484920.3, -1633953.3, -15396.035, 0.00072867173, 0.00025720685, -1483346.4, 35184.47 
1.0556483e+3, 1.550361e+2, -1396800.8, -1540810.1, -15382.621, 0.00046179318, 0.0008136048, -1395175.9, 25470.365 
1.0556266e+3, 1.6502392e+2, -1313693.9, -1458395.5, -15858.425, 0.00009026574, 0.0013726448, -1311976.3, 10789.335 
1.0556049e+3, 1.7501137e+2, -1224896.4, -1364879.1, -16056.564, -0.0003622731, -0.00011311879, -1223078.3, 1810.3817 
1.0555831e+3, 1.8499848e+2, -1141002.3, -1281043.5, -16081.392, -0.000036517868, 0.00037042255, -1139179.4, -12164.436 
1.0555614e+3, 1.949853e+2, -1052621.5, -1187772.4, -15968.128, 0.0010686388, 0.00086992036, -1050760.5, -21616.313 
1.0555397e+3, 2.0497173e+2, -969452.5, -1104957.6, -15480.744, 0.0007508635, 0.0016659348, -967706.4, -36429.227 
1.05551794e+3, 2.1495779e+2, -881160.75, -1011696.44, -15286.6875, -0.0010827779, 0.0007470032, -879394.5, -45980.77 
1.0554965e+3, 2.2494349e+2, -798031.0, -929199.75, -14220.092, -0.00091644767, 0.000772657, -796507.1, -60953.082 
1.0554751e+3, 2.3492879e+2, -709370.3, -835648.75, -14377.266, 0.0013422642, -0.0004801886, -707754.06, -70056.15 
1.0554539e+3, 2.4491376e+2, -625467.56, -752143.4, -12888.355, 0.00135205, 0.00018983558, -624169.56, -84324.34 
1.05543286e+3, 2.5489843e+2, -536242.8, -658157.3, -12569.543, -0.001005704, 0.00077857915, -534960.4, -92964.79 
1.05541214e+3, 2.6488265e+2, -453334.28, -576023.2, -10756.552, -0.0014532376, 0.0016603599, -452398.38, -108248.5 
1.0553915e+3, 2.7486658e+2, -365443.03, -482546.22, -10664.324, 0.00009640265, 0.0006429396, -364479.78, -118172.05 
1.0553713e+3, 2.8485006e+2, -282278.4, -400123.4, -8095.9194, 0.00047139, 0.00074847916, -281724.8, -133255.42 
1.05535135e+3, 2.948332e+2, -192514.0, -305624.78, -7686.4087, -0.00056815514, -0.0005356392, -191994.06, -141359.72 
1.05533175e+3, 3.048194e+2, -110334.375, -173759.89, -4874.861, -0.0012778211, 0.00025001477, -109961.88, -109961.88 
1.0553126e+3, 3.1480864e+2, -120034.125, -177895.02, -4733.9365, -0.0012275744, 0.0014674626, -119649.375, -119649.375 
1.0552937e+3, 3.2480264e+2, -61065.805, -41251.46, -1781.1652, 0.0010964866, 0.0012053498, -41092.62, -41092.62 
1.06591e+3, 3.517378e+1, -2421780.3, -2596695.3, 2921.7473, 0.038191594, 0.0069957254, -2421731.5, 173565.72 
1.06588975e+3, 4.5165482e+1, -2343159.0, -2517178.8, -4313.5977, -0.057386544, -0.00641513, -2343052.3, 154326.17 
1.0658704e+3, 5.515703e+1, -2251349.8, -2422727.0, -3385.0176, 0.0050152456, 0.00036479172, -2251282.8, 148178.4 
1.0658502e+3, 6.514825e+1, -2166098.8, -2336500.8, -4798.9307, 0.02291215, 0.0032465914, -2165963.8, 135583.45 
1.0658295e+3, 7.51392e+1, -2080232.9, -2244722.8, -5440.6685, -0.0016481773, 0.0007593961, -2080053.1, 123582.78 
1.0658086e+3, 8.5129786e+1, -1997951.8, -2162504.8, -8553.35, -0.008575267, 0.00073542685, -1997508.3, 108219.96 
1.0657874e+3, 9.512002e+1, -1909132.4, -2069180.1, -8644.056, 0.0011774249, 0.0009997077, -1908666.9, 99157.11 
1.06576584e+3, 1.051099e+2, -1825626.8, -1985587.9, -10391.932, 0.0040474073, 0.0015030102, -1824954.4, 84968.62 
1.06574416e+3, 1.1509946e+2, -1738010.6, -1892801.4, -10520.358, 0.00018444294, 0.00024997353, -1737298.9, 74726.555 
1.06572226e+3, 1.2508866e+2, -1655059.9, -1809879.8, -12011.031, -0.0012256736, 0.0003348148, -1654133.6, 59997.586 
1.0657002e+3, 1.3507754e+2, -1567034.4, -1716797.9, -12134.831, -0.00019472509, -0.00016008908, -1566057.5, 50182.836 
1.065678e+3, 1.4506605e+2, -1483705.4, -1633494.8, -13190.799, 0.00040164602, 0.00093465496, -1482552.6, 35800.12 
1.0656558e+3, 1.5505426e+2, -1395413.6, -1540288.5, -13324.389, 0.00057532825, 0.0014918417, -1394198.4, 26270.014 
1.0656333e+3, 1.6504207e+2, -1312494.3, -1457774.4, -13648.709, 0.00035297056, 0.0016980375, -1311223.1, 11364.738 
1.06561095e+3, 1.750295e+2, -1224487.8, -1364637.0, -13479.607, -0.00020841409, -0.0005181367, -1223203.0, 1507.9489 
1.0655885e+3, 1.8501662e+2, -1141259.4, -1281167.4, -13529.893, -0.00016189918, -0.00012372395, -1139962.9, -13125.677 
1.0655662e+3, 1.9500344e+2, -1053502.1, -1188186.3, -13643.418, 0.00046842507, 0.00091276027, -1052134.0, -23167.49 
1.0655437e+3, 2.0498987e+2, -970120.2, -1104976.6, -13230.467, 0.0003772094, 0.0019024222, -968834.44, -37735.094 
1.0655215e+3, 2.1497597e+2, -881256.7, -1011426.25, -13224.693, -0.0004980662, 0.00088863034, -879926.7, -46691.05 
1.06549926e+3, 2.2496167e+2, -798351.44, -929231.06, -12197.229, -0.00028946495, 0.0010563, -797224.44, -61848.68 
1.0654772e+3, 2.34947e+2, -710500.0, -836077.56, -12005.49, 0.0010447279, 0.00014633764, -709362.56, -71843.016 
1.0654553e+3, 2.44932e+2, -627301.1, -752513.3, -10391.7, 0.0008385365, 0.0006374944, -626444.56, -86778.016 
1.0654337e+3, 2.549167e+2, -539227.56, -659060.75, -10339.689, -0.0010187009, 0.00054096704, -538341.94, -96525.44 
1.06541224e+3, 2.64901e+2, -456306.9, -577022.1, -8634.426, -0.0013786153, 0.0015334155, -455692.44, -111722.08 
1.065391e+3, 2.7488494e+2, -367135.63, -482927.5, -8390.399, -0.00014262632, 0.0014514403, -366530.78, -120403.04 
1.06537014e+3, 2.848685e+2, -283894.16, -400205.7, -5760.647, 0.00034020303, 0.0015552503, -283609.56, -135320.66 
1.0653495e+3, 2.9485172e+2, -195691.06, -306470.03, -5578.028, -0.00018577493, -0.0007135707, -195410.9, -144957.58 
1.06532924e+3, 3.048379e+2, -114502.805, -175113.47, -2882.9001, -0.001016183, 0.00011417971, -114365.984, -114365.984 
1.06530935e+3, 3.148272e+2, -124324.38, -179335.47, -2449.9648, -0.0017343039, 0.0025169577, -124215.484, -124215.484 
1.0652899e+3, 3.2482132e+2, -64917.246, -41819.723, 167.53897, 0.0010221764, 0.0009998699, -41818.504, -41818.504 
1.0759248e+3, 3.519273e+1, -2425516.5, -2603749.8, -2282.1787, -0.048383612, 0.00010454499, -2425487.3, 169624.1 
1.07590586e+3, 4.5184466e+1, -2341192.3, -2513535.3, -5423.7305, 0.07609287, 0.0018178172, -2341021.8, 156170.58 
1.07588455e+3, 5.517618e+1, -2249790.5, -2419279.0, -4693.2427, -0.007139938, 0.0014288309, -2249660.5, 149613.06 
1.0758634e+3, 6.516741e+1, -2167378.5, -2338897.0, -7645.8677, -0.029761944, 0.0011229713, -2167038.3, 134321.25 
1.0758424e+3, 7.51582e+1, -2081277.0, -2246960.8, -8209.199, 0.004289646, -0.0008400375, -2080871.3, 122578.445 
1.0758209e+3, 8.5148704e+1, -1997952.0, -2162713.0, -10573.318, 0.013140561, -0.000043922722, -1997276.3, 108266.516 
1.07579894e+3, 9.513893e+1, -1909242.8, -2069443.3, -10681.902, -0.0017885487, 0.0012720383, -1908533.6, 99104.95 
1.07577674e+3, 1.051288e+2, -1825850.8, -1986051.1, -12766.341, -0.005605289, 0.0018044106, -1824839.9, 84898.09 
1.0757544e+3, 1.1511831e+2, -1738195.5, -1893253.6, -12903.783, 0.001067669, -0.00027941086, -1737129.0, 74711.66 
1.0757318e+3, 1.251075e+2, -1655240.5, -1810332.8, -14303.025, 0.0028408372, 0.00041617808, -1653932.5, 60014.24 
1.0757091e+3, 1.3509634e+2, -1567209.5, -1717276.8, -14426.673, -0.00007314273, 0.0017559873, -1565835.3, 50220.805 
1.07568614e+3, 1.4508484e+2, -1483916.4, -1633994.1, -15431.231, -0.00090869144, 0.0026940557, -1482346.1, 35822.676 
1.0756632e+3, 1.5507299e+2, -1395668.5, -1540802.1, -15560.473, 0.00024178559, 0.0012728531, -1394018.9, 26266.068 
1.0756402e+3, 1.6506079e+2, -1312205.3, -1457141.3, -15972.055, 0.0006061198, 0.0011601053, -1310466.0, 11938.359 
1.0756171e+3, 1.7504828e+2, -1224206.9, -1364022.9, -15829.13, 0.00027908638, 0.00022437095, -1222437.1, 2089.7678 
1.075594e+3, 1.8503542e+2, -1141490.1, -1281598.1, -15953.97, -0.00028780723, 0.0008003578, -1139696.4, -13043.31 
1.0755708e+3, 1.9502218e+2, -1053677.5, -1188592.8, -16056.439, -0.0011210269, 0.00088841765, -1051793.0, -23010.246 
1.07554786e+3, 2.0500861e+2, -970080.4, -1104894.4, -15361.844, -0.00064081, 0.0013560673, -968352.1, -37436.34 
1.0755249e+3, 2.149947e+2, -881307.5, -1011417.44, -15363.961, 0.0011714853, 0.00026792957, -879517.9, -46465.855 
1.07550204e+3, 2.2498044e+2, -798073.1, -928456.3, -14626.606, 0.0009393648, 0.0013859516, -796452.44, -61260.652 
1.07547924e+3, 2.3496585e+2, -710155.06, -835283.5, -14446.128, -0.001430971, 0.002402085, -708508.9, -71174.08 
1.0754568e+3, 2.4495088e+2, -627226.25, -752312.3, -12798.49, -0.0015971968, 0.0026108685, -625930.2, -86448.64 
1.07543446e+3, 2.5493556e+2, -539128.3, -658877.44, -12749.803, 0.00045063626, 0.000025982983, -537785.9, -96154.32 
1.07541226e+3, 2.6491988e+2, -455918.84, -576148.6, -10791.317, 0.00057377445, 0.00035901, -454957.94, -111172.81 
1.07539035e+3, 2.749039e+2, -366789.8, -482086.0, -10549.985, -0.0011943692, 0.0014903452, -365832.4, -119890.56 
1.07536875e+3, 2.8488752e+2, -283746.56, -399693.38, -8185.219, -0.0009850083, 0.0027738544, -283171.56, -135069.19 
1.0753475e+3, 2.948708e+2, -195531.81, -305969.38, -8008.8594, 0.0010444539, 0.0016234542, -194954.03, -144687.66 
1.07532665e+3, 3.0485705e+2, -113903.0, -173805.31, -5286.102, 0.00052828935, 0.0014894479, -113440.1, -113440.1 
1.075306e+3, 3.148464e+2, -123721.9, -178029.5, -4854.7676, -0.0022013632, 0.00068459613, -123291.33, -123291.33 
1.07528575e+3, 3.2484055e+2, -65352.195, -42580.063, -2041.7771, -0.0007650967, 0.0013261033, -42398.44, -42398.44 
1.0859408e+3, 3.521278e+1, -2419657.5, -2601668.5, -112.27156, -0.035992414, -0.0031930448, -2419657.5, 175257.45 
1.0859208e+3, 4.5204514e+1, -2334623.0, -2511325.5, -668.2651, 0.058740914, 0.005896154, -2334620.5, 162375.56 
1.085899e+3, 5.519608e+1, -2247267.5, -2419089.0, -1930.0322, -0.0050150664, 0.001116117, -2247245.8, 151832.66 
1.08587734e+3, 6.5187234e+1, -2165423.8, -2338419.5, -5972.449, -0.022767361, -0.00030603996, -2165218.0, 135947.3 
1.08585544e+3, 7.5178003e+1, -2077263.4, -2245490.5, -5877.109, 0.0028969878, -0.00029240263, -2077058.3, 126197.41 
1.0858332e+3, 8.516846e+1, -1993702.0, -2161082.3, -7833.4814, 0.00993454, 0.0008600989, -1993336.1, 112013.07 
1.0858105e+3, 9.515863e+1, -1906469.0, -2068553.9, -8102.0684, -0.0010161896, 0.0010327651, -1906065.0, 101380.56 
1.0857877e+3, 1.0514844e+2, -1823719.3, -1985482.6, -10365.271, -0.0040192255, 0.0014593039, -1823057.8, 86487.625 
1.0857646e+3, 1.1513793e+2, -1735930.9, -1892601.6, -10588.465, 0.0006111903, 0.00029249187, -1735218.5, 76429.93 
1.08574145e+3, 1.2512706e+2, -1652847.6, -1809394.0, -11963.31, 0.0019885343, 0.0010684896, -1651938.6, 61816.215 
1.08571805e+3, 1.3511589e+2, -1565033.9, -1716442.4, -12029.247, 0.00016219365, 0.0016315657, -1564084.1, 51780.32 
1.0856944e+3, 1.4510435e+2, -1482192.5, -1633313.3, -12988.481, -0.0005495781, 0.002078128, -1481084.3, 36893.223 
1.08567074e+3, 1.5509248e+2, -1394769.9, -1540541.8, -13012.875, -0.0001542879, 0.0004874383, -1393617.4, 26476.484 
1.085647e+3, 1.6508028e+2, -1311789.0, -1456931.8, -13525.25, 0.00021771342, 0.0008891948, -1310539.4, 11674.015 
1.0856233e+3, 1.7506778e+2, -1224148.8, -1363990.3, -13677.463, 0.0005895613, 0.0011221223, -1222823.6, 1512.2356 
1.0855995e+3, 1.8505491e+2, -1141156.8, -1281351.5, -13741.211, 0.00017537284, 0.0017071232, -1139822.6, -13360.601 
1.0855757e+3, 1.9504167e+2, -1052670.0, -1187997.6, -13602.282, -0.0010282093, 0.00068913325, -1051316.3, -22724.627 
1.0855519e+3, 2.050281e+2, -969693.4, -1104648.9, -12905.638, -0.00076988165, 0.00086360826, -968470.3, -37745.664 
1.0855283e+3, 2.150142e+2, -882913.5, -1012116.5, -12883.695, 0.0009721837, 0.00024730718, -881641.3, -48780.496 
1.08550474e+3, 2.2499996e+2, -800078.4, -928981.1, -12067.853, 0.00072317873, 0.0014049737, -798958.3, -63957.977 
1.08548135e+3, 2.3498541e+2, -711456.7, -835443.2, -11984.602, -0.0016415999, 0.0020582613, -710308.9, -73165.85 
1.0854581e+3, 2.4497049e+2, -628292.0, -752568.25, -10431.082, -0.0015778342, 0.0024006148, -627422.56, -88133.14 
1.0854351e+3, 2.549552e+2, -540265.1, -659142.9, -10317.946, 0.00094492483, 0.00046200273, -539376.25, -97937.06 
1.0854122e+3, 2.6493958e+2, -457526.5, -576306.2, -8287.677, 0.0010094077, 0.00067943864, -456951.03, -113358.65 
1.0853896e+3, 2.7492362e+2, -369821.38, -482911.3, -8074.0684, -0.0013886323, 0.0009295185, -369247.8, -123499.21 
1.0853674e+3, 2.8490728e+2, -287424.63, -400872.3, -5701.119, -0.0013111824, 0.0021648845, -287138.84, -139230.17 
1.08534545e+3, 2.948906e+2, -198958.23, -306996.03, -5429.452, 0.0011126848, 0.0018205045, -198686.06, -148613.97 
1.08532384e+3, 3.0487695e+2, -116957.07, -174405.89, -2733.9983, 0.0007015942, 0.0018484097, -116827.25, -116827.25 
1.08530246e+3, 3.1486636e+2, -126838.055, -178646.22, -2418.2, -0.002262676, 0.0004902714, -126725.43, -126725.43 
1.0852816e+3, 3.2486057e+2, -69559.62, -44406.28, 554.60986, -0.0005853028, 0.0013251244, -44394.06, -44394.06 
1.09595776e+3, 3.523369e+1, -2418642.3, -2598177.5, -3735.9014, 0.041986622, -0.00392553, -2418564.5, 176145.33 
1.0959348e+3, 4.5225394e+1, -2336664.8, -2516020.8, -3233.4, -0.06487972, 0.007030532, -2336606.5, 160184.88 
1.0959137e+3, 5.521661e+1, -2249485.5, -2423710.0, -4318.9297, 0.007850178, -0.0001667338, -2249378.5, 149498.97 
1.0958916e+3, 6.5207624e+1, -2165149.3, -2337919.3, -8121.613, 0.026326759, -0.0011728968, -2164768.3, 136197.05 
1.09586865e+3, 7.519845e+1, -2077001.6, -2245011.8, -8079.494, -0.0040847445, 0.0018018946, -2076614.0, 126441.29 
1.09584555e+3, 8.5188895e+1, -1994126.9, -2162015.0, -10303.707, -0.011278269, 0.0029652526, -1993496.9, 111652.1 
1.0958224e+3, 9.517897e+1, -1906899.6, -2069484.6, -10563.767, 0.0025546902, 0.00041874393, -1906216.1, 101030.055 
1.0957988e+3, 1.0516872e+2, -1824080.9, -1986288.6, -12693.521, 0.005747919, 0.0006679118, -1823093.5, 86253.11 
1.095775e+3, 1.1515817e+2, -1736288.0, -1893411.5, -12905.857, -0.0009208173, 0.0016916554, -1735235.0, 76215.02 
1.0957511e+3, 1.2514727e+2, -1652979.4, -1809647.9, -14281.048, -0.0025800082, 0.0021419928, -1651688.3, 61868.637 
1.0957269e+3, 1.3513605e+2, -1565207.5, -1716725.8, -14355.133, 0.00046082182, -0.000039374507, -1563859.5, 51807.316 
1.0957027e+3, 1.451245e+2, -1482285.0, -1633386.8, -15433.395, 0.0010382037, -0.00032257155, -1480724.8, 37055.285 
1.09567836e+3, 1.5511262e+2, -1394815.4, -1540624.9, -15465.434, -0.00064030493, -0.0007025144, -1393193.0, 26703.326 
1.0956538e+3, 1.6510043e+2, -1312036.8, -1457491.3, -15934.705, -0.0007095335, 0.00085437566, -1310311.6, 11704.4 
1.0956294e+3, 1.7508788e+2, -1224392.3, -1364551.1, -16079.155, 0.0007080389, 0.0021508152, -1222571.3, 1567.5396 
1.095605e+3, 1.8507501e+2, -1140916.5, -1280801.8, -15935.345, 0.0010468343, 0.0026124194, -1139124.1, -12859.13 
1.09558046e+3, 1.9506182e+2, -1052506.8, -1187506.0, -15817.911, 0.00035412764, 0.0003715628, -1050678.1, -22283.727 
1.095556e+3, 2.0504826e+2, -969726.06, -1104543.0, -15571.739, -0.00024872215, 0.0004501957, -967950.8, -37423.68 
1.0955316e+3, 2.1503438e+2, -882831.56, -1011974.5, -15553.351, -0.00081721577, 0.000730862, -880984.8, -48321.664 
1.0955073e+3, 2.2502016e+2, -799863.3, -928561.1, -14299.432, -0.0007281377, 0.0011720619, -798293.7, -63491.11 
1.0954833e+3, 2.350056e+2, -711302.25, -835067.94, -14221.277, -0.000008230668, -0.0004388246, -709689.2, -72744.02 
1.0954594e+3, 2.449907e+2, -628165.4, -752109.6, -12836.057, 0.00040857794, 0.00039720067, -626850.0, -87758.805 
1.0954357e+3, 2.5497547e+2, -540120.75, -658723.9, -12727.013, 0.00053521857, 0.0017132442, -538770.44, -97529.99 
1.0954121e+3, 2.649599e+2, -457229.63, -575574.7, -10811.461, 0.000108126565, 0.002259723, -456250.03, -112856.87 
1.0953888e+3, 2.7494398e+2, -369482.44, -482180.38, -10608.228, -0.0008817288, -0.00017303083, -368492.56, -122943.46 
1.0953659e+3, 2.849277e+2, -287017.75, -399967.06, -8050.7656, -0.0008460656, -0.000040694722, -286446.8, -138738.1 
1.0953432e+3, 2.949111e+2, -198563.97, -306112.2, -7777.497, 0.00007161205, 0.00013060537, -198004.44, -148132.95 
1.09532095e+3, 3.048975e+2, -116573.21, -173512.16, -5136.587, -0.00040792642, 0.0012968428, -116113.54, -116113.54 
1.095299e+3, 3.14887e+2, -126463.82, -177765.63, -4828.3374, -0.0019974797, 0.0017101731, -126013.35, -126013.35 
1.0952774e+3, 3.2488126e+2, -69120.766, -43361.297, -1990.9222, 0.0012205676, 0.0010254947, -43208.33, -43208.33 
1.1059737e+3, 3.52552e+1, -2417483.0, -2597758.0, -904.0625, 0.032981113, 0.00013779955, -2417478.5, 177020.8 
1.1059505e+3, 4.5246768e+1, -2329144.8, -2513176.3, -2537.7046, -0.05216634, 0.0021941888, -2329109.8, 167472.03 
1.10592835e+3, 5.5237955e+1, -2244391.0, -2422168.5, -2205.9517, 0.0062712394, 0.00025914333, -2244363.5, 154304.61 
1.10590555e+3, 6.5228915e+1, -2161275.5, -2336647.5, -5042.128, 0.021495594, 0.00074959075, -2161130.5, 139626.2 
1.1058819e+3, 7.5219655e+1, -2073442.4, -2243911.8, -5549.7217, -0.0031415473, 0.0017947578, -2073262.0, 129585.555 
1.10585816e+3, 8.521004e+1, -1990842.3, -2160952.5, -8235.469, -0.009080632, 0.0023155294, -1990444.5, 114497.29 
1.10583425e+3, 9.5200074e+1, -1903971.9, -2068577.9, -8411.446, 0.0020855458, 0.00033459833, -1903543.1, 103496.336 
1.10581e+3, 1.05189785e+2, -1821325.1, -1985188.6, -10273.841, 0.004639035, 0.0007767021, -1820683.5, 88456.766 
1.1057855e+3, 1.15179196e+2, -1733784.8, -1892459.1, -10325.829, -0.00094156404, 0.0016321143, -1733115.6, 78128.42 
1.10576086e+3, 1.2516828e+2, -1651027.5, -1808927.8, -11747.4795, -0.0021905452, 0.0020479255, -1650158.3, 63192.797 
1.105736e+3, 1.3515703e+2, -1564288.3, -1716489.3, -11843.757, 0.0006749055, 0.000021520309, -1563372.1, 52089.11 
1.1057111e+3, 1.4514546e+2, -1481529.9, -1633091.8, -12830.632, 0.0012758177, 0.00008607026, -1480451.4, 37123.26 
1.1056859e+3, 1.5513358e+2, -1393552.6, -1540098.0, -12892.791, -0.00020646393, 0.00017195124, -1392427.0, 27263.963 
1.1056608e+3, 1.6512135e+2, -1310665.4, -1457001.6, -13374.214, -0.00059066026, 0.0013453345, -1309453.1, 12357.673 
1.1056356e+3, 1.7510879e+2, -1223280.9, -1364175.6, -13364.956, 0.00002616793, 0.001468785, -1222024.4, 1909.569 
1.10561036e+3, 1.8509592e+2, -1140584.3, -1280560.3, -13235.985, 0.00048729766, 0.0018206812, -1139343.8, -13283.581 
1.1055852e+3, 1.9508274e+2, -1053851.4, -1188052.9, -13300.961, 0.00078963285, 0.00051416206, -1052545.8, -24356.365 
1.1055601e+3, 2.050692e+2, -971057.8, -1104960.3, -13080.574, 0.00032401798, 0.0010461038, -969791.94, -39469.934 
1.1055349e+3, 2.1505533e+2, -882668.9, -1011647.7, -12993.436, -0.00097116665, 0.0013033192, -881372.94, -48915.105 
1.10551e+3, 2.2504112e+2, -799684.94, -928259.25, -11746.975, -0.00090032245, 0.0015270634, -798620.5, -64023.43 
1.10548526e+3, 2.350266e+2, -712726.25, -835506.2, -11709.666, 0.00055633957, -0.00047949827, -711619.5, -74879.96 
1.1054606e+3, 2.4501172e+2, -630366.7, -752695.75, -10300.423, 0.00081924757, 0.00016968593, -629505.44, -90620.15 
1.10543616e+3, 2.5499654e+2, -542662.25, -659460.06, -10109.307, -0.00014001373, 0.0014880867, -541793.7, -100759.625 
1.1054119e+3, 2.64981e+2, -459846.72, -576412.0, -8220.285, -0.00048955245, 0.00230617, -459269.88, -116083.47 
1.10538796e+3, 2.749651e+2, -371810.84, -482864.66, -8120.705, -0.00024447884, 0.00043848474, -371220.16, -125878.22 
1.1053643e+3, 2.849489e+2, -289216.56, -400129.56, -5519.0376, -0.00020422605, 0.00038242637, -288942.63, -141441.64 
1.1053408e+3, 2.9493234e+2, -201409.81, -306613.4, -5141.882, -0.00047461214, -0.00037032965, -201159.11, -151496.03 
1.10531785e+3, 3.0491883e+2, -120152.42, -174644.72, -2496.3474, -0.00090643694, 0.0010137068, -120038.305, -120038.305 
1.1052952e+3, 3.149084e+2, -130379.14, -179062.0, -2291.4585, -0.0013184139, 0.0027991738, -130271.52, -130271.52 
1.10527284e+3, 3.2490268e+2, -73033.98, -44358.51, 375.87625, 0.0010548468, 0.00033647547, -44353.586, -44353.586 
1.11598924e+3, 3.5277215e+1, -2418165.5, -2599691.3, 597.2804, -0.033621952, 0.007233062, -2418163.5, 176120.08 
1.11596726e+3, 4.5268592e+1, -2329196.8, -2512224.0, -5532.5986, 0.053547643, -0.006598342, -2329029.5, 167338.38 
1.1159433e+3, 5.5259967e+1, -2243799.3, -2420865.8, -5241.1177, -0.0061574182, 0.0019072008, -2243644.3, 154808.17 
1.1159193e+3, 6.525092e+1, -2161954.8, -2338402.0, -7334.862, -0.02137545, 0.004594711, -2161650.3, 138890.77 
1.1158955e+3, 7.524149e+1, -2074334.9, -2245730.8, -7803.413, 0.0036891855, 0.00026879407, -2073980.4, 128653.234 
1.1158711e+3, 8.5231775e+1, -1991209.0, -2161586.0, -10719.8, 0.00976985, -0.00028360455, -1990537.3, 114191.53 
1.1158462e+3, 9.5221794e+1, -1904250.6, -2069164.9, -10894.916, -0.0014994375, 0.00064183935, -1903533.9, 103292.62 
1.11582115e+3, 1.052115e+2, -1821354.8, -1985325.6, -12624.983, -0.0044326726, 0.0015417009, -1820388.4, 88539.16 
1.11579604e+3, 1.1520088e+2, -1733876.1, -1892630.1, -12699.975, 0.00019100746, 0.0004977064, -1732866.6, 78165.016 
1.11577064e+3, 1.2518993e+2, -1651221.8, -1809279.0, -14335.371, 0.0018305955, 0.0011095958, -1649932.0, 63206.727 
1.1157451e+3, 1.3517869e+2, -1564378.5, -1716826.8, -14437.616, 0.00075276865, 0.0014121822, -1563023.3, 52225.797 
1.1157194e+3, 1.4516711e+2, -1481570.9, -1633277.1, -15132.394, 0.00045573266, 0.0026530412, -1480076.1, 37286.29 
1.1156936e+3, 1.5515521e+2, -1393694.4, -1540327.9, -15205.813, 0.00088245096, 0.0026436658, -1392134.1, 27344.889 
1.11566775e+3, 1.6514297e+2, -1310716.1, -1457001.0, -15857.724, 0.00026055146, 0.002253158, -1309016.8, 12582.273 
1.11564174e+3, 1.7513038e+2, -1223312.9, -1364170.6, -15847.527, -0.0013335133, -0.0005447305, -1221552.0, 2170.4119 
1.1156158e+3, 1.851175e+2, -1140700.4, -1280789.8, -15887.38, -0.0012430104, -0.000273186, -1138921.1, -13072.472 
1.11558996e+3, 1.9510432e+2, -1053906.1, -1188272.5, -15949.4, 0.0004110279, 0.0010486419, -1052038.8, -24060.924 
1.1155641e+3, 2.0509079e+2, -970837.06, -1104544.0, -15325.586, 0.0008818627, 0.0024636188, -969102.9, -38992.527 
1.1155383e+3, 2.1507695e+2, -882520.25, -1011281.6, -15251.687, 0.00015023877, 0.0019532684, -880738.3, -48492.33 
1.1155127e+3, 2.2506277e+2, -799655.6, -928064.2, -14397.197, -0.00010626451, 0.0023908457, -798061.2, -63676.203 
1.1154871e+3, 2.3504826e+2, -712649.56, -835305.3, -14363.797, 0.00017244078, 0.0015244893, -710989.94, -74462.72 
1.11546166e+3, 2.4503341e+2, -630002.0, -751924.4, -12795.905, -0.0001311911, 0.0014143465, -628673.5, -90000.82 
1.11543655e+3, 2.5501826e+2, -542294.2, -658696.7, -12612.731, -0.0010872534, 0.0000010222811, -540943.25, -100122.016 
1.1154116e+3, 2.6500276e+2, -459704.0, -576057.9, -10667.899, -0.0008994905, 0.0010738663, -458734.0, -115760.84 
1.11538686e+3, 2.7498695e+2, -371684.66, -482527.34, -10560.02, 0.00044000146, 0.002532925, -370687.56, -125559.375 
1.1153624e+3, 2.8497076e+2, -288594.8, -398802.25, -8040.0386, 0.0005328685, 0.0030820235, -288011.34, -140724.77 
1.11533836e+3, 2.9495433e+2, -200807.17, -305290.06, -7679.7983, -0.00066251354, 0.00014338302, -200245.69, -150797.75 
1.11531466e+3, 3.0494082e+2, -119937.96, -174104.52, -5000.3457, -0.0009544054, 0.0009276807, -119480.23, -119480.23 
1.1152913e+3, 3.1493044e+2, -130159.336, -178540.84, -4786.93, -0.00031056968, 0.0037208544, -129690.266, -129690.266 
1.1152682e+3, 3.249248e+2, -72527.984, -43248.543, -2186.2417, -0.0010619194, -0.00070187944, -43086.2, -43086.2 
1.12600595e+3, 3.5300186e+1, -2407311.3, -2597054.0, 2493.4102, -0.026740443, 0.0053277994, -2407278.5, 186779.86 
1.1259829e+3, 4.5291466e+1, -2331015.8, -2513528.0, -1809.8776, 0.045936015, -0.0046490193, -2330997.8, 165146.06 
1.1259583e+3, 5.528278e+1, -2239477.3, -2419271.5, -2344.1392, -0.0055361683, 0.0019230965, -2239446.8, 158782.28 
1.12593375e+3, 6.527367e+1, -2156205.5, -2336203.0, -5215.6934, -0.018509708, 0.0038627663, -2156054.5, 144263.69 
1.1259091e+3, 7.5264174e+1, -2071180.0, -2244816.5, -5295.3193, 0.0035347429, -0.00010846285, -2071018.6, 131392.6 
1.1258839e+3, 8.525442e+1, -1988830.3, -2160861.0, -7754.0586, 0.008751562, -0.0001847662, -1988481.4, 116025.45 
1.1258583e+3, 9.52444e+1, -1901255.0, -2068147.4, -7928.0396, -0.0017085365, 0.0013460831, -1900879.3, 105725.78 
1.12583265e+3, 1.0523406e+2, -1818545.1, -1984367.1, -9846.086, -0.004077882, 0.00210695, -1817962.5, 90743.93 
1.1258068e+3, 1.15223385e+2, -1732048.1, -1892142.6, -10090.478, 0.0010071099, 0.00021745768, -1731414.6, 79396.37 
1.1257805e+3, 1.2521242e+2, -1649356.9, -1808633.6, -11729.624, 0.0022708694, 0.0006250575, -1648497.8, 64420.805 
1.1257543e+3, 1.3520114e+2, -1561682.6, -1715771.5, -11845.381, -0.000047944275, 0.0013704977, -1560777.4, 54251.633 
1.1257278e+3, 1.4518952e+2, -1479241.4, -1632431.5, -12667.66, -0.00048811658, 0.0026445445, -1478200.9, 38941.836 
1.1257013e+3, 1.5517761e+2, -1392962.4, -1540248.8, -12796.86, 0.0008215464, 0.0022633346, -1391858.8, 27400.871 
1.1256747e+3, 1.6516536e+2, -1310545.3, -1456786.8, -13369.521, 0.000707471, 0.0020063492, -1309333.0, 12046.655 
1.12564795e+3, 1.751528e+2, -1223222.9, -1363999.8, -13310.698, -0.0007190482, -0.00015051104, -1221975.5, 1527.4352 
1.12562135e+3, 1.851399e+2, -1140400.8, -1280590.5, -13329.243, -0.0009168172, 0.0003182014, -1139144.8, -13515.586 
1.12559475e+3, 1.9512671e+2, -1053005.8, -1187773.5, -13273.814, 0.000010658694, 0.0014033298, -1051710.9, -23952.492 
1.12556815e+3, 2.0511319e+2, -970414.06, -1104242.6, -12585.564, 0.00042071435, 0.002350601, -969240.75, -39349.91 
1.1255416e+3, 2.1509935e+2, -883748.1, -1011761.8, -12644.494, 0.00029459878, 0.0011708428, -882511.1, -50484.656 
1.1255151e+3, 2.2508518e+2, -801312.6, -928611.06, -11900.064, 0.00017651434, 0.0018473022, -800209.75, -66044.414 
1.1254889e+3, 2.350707e+2, -713754.1, -835573.3, -11820.4, 0.00006651495, 0.0020789788, -712617.75, -76310.47 
1.1254628e+3, 2.450559e+2, -630952.0, -751988.94, -10274.492, -0.00030815898, 0.0022335856, -630086.0, -91633.56 
1.1254369e+3, 2.5504076e+2, -543683.0, -658953.3, -10221.22, -0.0009915814, 0.00028845822, -542783.7, -102183.01 
1.1254112e+3, 2.650253e+2, -461432.66, -576233.5, -8204.805, -0.00069314195, 0.00096930814, -460849.22, -118096.98 
1.12538576e+3, 2.750095e+2, -373987.0, -482999.84, -7893.3184, 0.0006035782, 0.0022167838, -373418.44, -128511.695 
1.1253606e+3, 2.849934e+2, -291625.78, -399780.6, -5533.911, 0.0004400882, 0.0031500836, -291343.34, -144278.7 
1.12533584e+3, 2.9497698e+2, -204439.83, -306562.88, -5553.5815, -0.0011814027, 0.0011822995, -204138.7, -154913.14 
1.12531126e+3, 3.049636e+2, -123426.586, -174780.44, -2757.6108, -0.00089828944, 0.0012942357, -123278.93, -123278.93 
1.1252873e+3, 3.1495327e+2, -133457.84, -179135.95, -2214.766, 0.0011733355, 0.0017746568, -133350.7, -133350.7 
1.1252634e+3, 3.2494769e+2, -75934.71, -44615.344, 317.72116, -0.0018228065, 0.00027520297, -44612.12, -44612.12 
1.1360234e+3, 3.5323918e+1, -2410407.0, -2601239.3, -5910.2886, 0.027263004, -0.002449557, -2410224.3, 183601.58 
1.1359978e+3, 4.5315173e+1, -2330907.5, -2515083.5, -3170.7412, -0.04002662, 0.0046504186, -2330853.0, 165058.61 
1.1359736e+3, 5.530624e+1, -2240504.8, -2421239.3, -3702.3386, 0.004657907, 0.0007436759, -2240429.0, 157570.05 
1.1359486e+3, 6.529704e+1, -2156632.3, -2336596.0, -8173.073, 0.01590108, -0.000021333259, -2156262.0, 143827.31 
1.13592274e+3, 7.528757e+1, -2071213.8, -2245020.3, -8258.476, -0.0018389804, 0.00036163462, -2070822.3, 131359.75 
1.13589674e+3, 8.5277796e+1, -1988955.9, -2161383.0, -10106.072, -0.0063698036, 0.0018405663, -1988365.6, 115912.17 
1.1358706e+3, 9.5267725e+1, -1901528.8, -2068760.6, -10292.344, 0.0005647185, 0.0023281276, -1900897.8, 105478.766 
1.13584414e+3, 1.0525732e+2, -1818992.9, -1985272.3, -12487.725, 0.0030205362, 0.0025417013, -1818060.4, 90418.13 
1.1358174e+3, 1.1524659e+2, -1732442.8, -1893011.6, -12713.555, 0.0015052324, 0.00056454254, -1731442.4, 79141.234 
1.1357905e+3, 1.2523557e+2, -1649550.0, -1809058.3, -14063.804, 0.000010048238, 0.00048673488, -1648319.5, 64372.07 
1.13576345e+3, 1.3522425e+2, -1561951.4, -1716278.6, -14190.3545, -0.0015432873, 0.0002783684, -1560657.4, 54145.06 
1.1357363e+3, 1.452126e+2, -1479555.1, -1632944.5, -15371.507, -0.0015594494, 0.0007077943, -1478029.9, 38886.71 
1.135709e+3, 1.5520063e+2, -1393171.3, -1540699.5, -15482.704, -0.00015996561, -0.0002907444, -1391564.0, 27469.928 
1.13568164e+3, 1.6518839e+2, -1310381.4, -1456532.0, -15813.764, 0.0007981793, 0.00091171684, -1308689.9, 12463.979 
1.1356543e+3, 1.7517588e+2, -1223104.3, -1363781.4, -15777.859, 0.0013928916, 0.0021475705, -1221356.4, 1920.244 
1.1356268e+3, 1.85163e+2, -1140315.4, -1280365.1, -15797.458, 0.0009590555, 0.0030180146, -1138555.5, -13152.819 
1.1355995e+3, 1.9514981e+2, -1052913.8, -1187574.8, -15758.074, -0.0004827014, 0.0016065984, -1051094.3, -23562.291 
1.1355721e+3, 2.0513627e+2, -970504.44, -1104412.0, -15267.446, -0.00091291213, 0.0010220251, -968785.75, -39121.19 
1.1355448e+3, 2.1512242e+2, -883815.8, -1011924.06, -15318.941, -0.00040495428, -0.0007702105, -882009.5, -50209.117 
1.1355177e+3, 2.2510827e+2, -801125.4, -928221.9, -14376.959, -0.000022164859, 0.00016601363, -799519.4, -65580.25 
1.1354906e+3, 2.3509383e+2, -713574.1, -835206.06, -14300.986, 0.00013624737, 0.0014515262, -711915.3, -75834.59 
1.1354637e+3, 2.4507904e+2, -630866.4, -751749.8, -12859.334, 0.00009434965, 0.0027306248, -629513.56, -91287.914 
1.1354371e+3, 2.5506392e+2, -543600.3, -658730.7, -12808.546, -0.00008916262, 0.0020906015, -542192.56, -101818.99 
1.1354107e+3, 2.6504853e+2, -460906.97, -575058.6, -10783.553, -0.000036323883, 0.0018215348, -459897.22, -117372.516 
1.1353845e+3, 2.7503282e+2, -373465.53, -481836.7, -10490.164, 0.00026798455, -0.00019582799, -372459.44, -127780.73 
1.13535866e+3, 2.8501672e+2, -291708.44, -399925.53, -8214.199, -0.00043976356, 0.0009592305, -291088.5, -144252.25 
1.135333e+3, 2.9500034e+2, -204502.27, -306701.97, -8219.799, -0.0020731469, 0.0026769706, -203845.38, -154848.45 
1.13530785e+3, 3.0498698e+2, -122509.055, -172889.64, -5182.77, -0.00082107075, 0.00202925, -121981.42, -121981.42 
1.1352831e+3, 3.1497672e+2, -132582.83, -177268.55, -4661.4634, 0.00305129, -0.002752584, -132101.73, -132101.73 
1.1352585e+3, 3.249713e+2, -76203.73, -45058.785, -2101.2778, -0.0015474071, 0.003119235, -44917.656, -44917.656 
1.14604026e+3, 3.5348365e+1, -2411909.8, -2601588.3, -2336.014, 0.025069585, -0.0032049357, -2411881.0, 181705.14 
1.146014e+3, 4.5339635e+1, -2316839.3, -2509099.3, -1271.269, -0.038383033, 0.007846782, -2316830.8, 178840.92 
1.145989e+3, 5.533057e+1, -2237175.5, -2420622.8, -1544.7467, 0.0051272716, 0.0002673022, -2237162.5, 160598.0 
1.14596315e+3, 6.532128e+1, -2156212.8, -2336926.8, -5270.3755, 0.015972218, -0.0011206561, -2156059.3, 143792.34 
1.14593655e+3, 7.531178e+1, -2067214.4, -2243606.0, -5584.2266, -0.0023919987, 0.0013419348, -2067037.8, 134906.88 
1.1459098e+3, 8.5301965e+1, -1984156.1, -2159498.5, -7776.3257, -0.006811148, 0.002863087, -1983811.9, 120229.06 
1.1458829e+3, 9.529183e+1, -1898535.4, -2067733.0, -7975.312, 0.0010652287, 0.0015860421, -1898160.4, 107979.93 
1.1458557e+3, 1.0528139e+2, -1816633.5, -1984383.0, -10030.794, 0.0033860782, 0.00168534, -1816035.8, 92206.81 
1.1458282e+3, 1.1527064e+2, -1729834.4, -1892014.4, -10071.097, 0.00067343266, 0.0011494971, -1729211.4, 81136.56 
1.1458005e+3, 1.252596e+2, -1647425.8, -1808292.3, -11276.31, -0.00059704686, 0.0015274392, -1646639.1, 65817.04 
1.1457727e+3, 1.3524824e+2, -1561129.0, -1716123.3, -11374.31, -0.0005998493, 0.0007913547, -1560298.8, 54268.68 
1.14574485e+3, 1.4523657e+2, -1478676.1, -1632487.3, -12463.666, -0.00053697056, 0.0008268264, -1477672.6, 39009.004 
1.1457168e+3, 1.552246e+2, -1391439.0, -1539834.9, -12358.234, -0.0003746384, -0.0003465363, -1390416.9, 28382.066 
1.1456886e+3, 1.6521235e+2, -1308878.9, -1455997.4, -12716.995, 0.00020112623, 0.00081100175, -1307787.6, 13131.453 
1.1456605e+3, 1.7519979e+2, -1222528.4, -1363681.6, -12890.342, 0.0011514842, 0.0021131842, -1221360.9, 1681.1915 
1.14563234e+3, 1.8518694e+2, -1140269.5, -1280317.8, -12970.988, 0.00095788966, 0.0029010714, -1139078.4, -13910.057 
1.1456041e+3, 1.9517374e+2, -1053306.6, -1187724.1, -13028.967, -0.00037337633, 0.0012544468, -1052055.4, -24757.762 
1.145576e+3, 2.051602e+2, -970908.8, -1104383.1, -12601.901, -0.0007079057, 0.0009362915, -969729.44, -40299.344 
1.1455481e+3, 2.1514638e+2, -884085.25, -1011814.6, -12466.227, -0.000118544005, -0.00011087684, -882879.94, -51314.27 
1.1455201e+3, 2.2513223e+2, -801590.2, -928179.0, -11359.894, 0.000071761075, 0.00061981205, -800578.9, -66874.61 
1.14549235e+3, 2.351178e+2, -714674.94, -835438.06, -11312.808, -0.00018317284, 0.00083133637, -713624.3, -77778.58 
1.1454647e+3, 2.4510303e+2, -632462.7, -752232.7, -9945.26, -0.00012290345, 0.0019374733, -631642.5, -93652.05 
1.14543736e+3, 2.5508797e+2, -545635.0, -659405.06, -9860.789, 0.00029139972, 0.0020176445, -544786.6, -104648.516 
1.1454102e+3, 2.6507258e+2, -463249.9, -575763.0, -7961.3555, 0.00032062668, 0.0019340897, -462689.34, -120400.36 
1.1453832e+3, 2.750569e+2, -376179.3, -482724.2, -7987.9897, -0.000045148154, -0.0004760033, -375583.75, -131141.06 
1.1453566e+3, 2.8504086e+2, -294162.56, -400383.44, -5596.2324, -0.0007433962, 0.00064219895, -293868.56, -147268.78 
1.1453302e+3, 2.9502454e+2, -206525.11, -306943.2, -5112.235, -0.0016619127, 0.00272122, -206265.52, -157505.72 
1.1453042e+3, 3.0501124e+2, -125327.5, -173747.52, -2201.2104, -0.00018138638, 0.0020758917, -125227.63, -125227.63 
1.14527866e+3, 3.15001e+2, -137075.6, -178936.39, -2308.1296, 0.0033095537, -0.0030028569, -136948.72, -136948.72 
1.1452534e+3, 3.2499567e+2, -81005.984, -45690.117, 716.89966, -0.0020596473, 0.0036866239, -45675.57, -45675.57 
1.15605675e+3, 3.537341e+1, -2409361.8, -2597115.5, 2565.8606, -0.013508847, 0.00057325355, -2409326.8, 184014.08 
1.1560315e+3, 4.5364732e+1, -2318642.5, -2510747.3, -5620.516, 0.021333031, 0.0069252485, -2318478.3, 176947.58 
1.1560045e+3, 5.535561e+1, -2237524.8, -2421452.3, -5783.79, -0.0016033592, 0.00031103415, -2237343.0, 160172.27 
1.15597755e+3, 6.534626e+1, -2156276.8, -2337849.8, -7205.154, -0.0077667222, -0.00024838504, -2155991.5, 143615.45 
1.1559506e+3, 7.533668e+1, -2067801.1, -2244762.8, -7528.546, 0.00058940065, 0.0026648866, -2067481.4, 134219.25 
1.1559232e+3, 8.532679e+1, -1984673.3, -2160305.5, -10549.766, 0.0029972477, 0.0031610597, -1984041.8, 119755.85 
1.1558954e+3, 9.531659e+1, -1898897.0, -2068465.4, -10744.441, 0.00014073976, -0.00038342256, -1898218.9, 107678.77 
1.1558673e+3, 1.0530611e+2, -1816660.0, -1984502.0, -12536.398, -0.0011428514, -0.000061413295, -1815728.9, 92271.39 
1.1558391e+3, 1.1529539e+2, -1729859.4, -1892153.8, -12598.655, -0.0011150932, 0.0019264147, -1728887.1, 81218.2 
1.15581065e+3, 1.2528433e+2, -1647572.5, -1808652.8, -13942.981, -0.000028047938, 0.0034435303, -1646374.5, 65839.27 
1.1557821e+3, 1.3527295e+2, -1561249.6, -1716462.9, -14044.171, 0.002095268, 0.0025075178, -1559989.1, 54336.066 
1.1557534e+3, 1.4526129e+2, -1478463.1, -1632086.4, -14939.465, 0.0019977044, 0.0025166979, -1477023.8, 39415.715 
1.1557246e+3, 1.5524936e+2, -1391302.1, -1539503.8, -14867.362, -0.00007737698, 0.0015150467, -1389825.4, 28731.107 
1.1556957e+3, 1.6523707e+2, -1309240.0, -1456711.8, -15466.123, -0.0009989338, 0.0014801524, -1307635.4, 13041.466 
1.1556668e+3, 1.7522445e+2, -1222813.3, -1364357.3, -15617.738, -0.0009596851, 0.00024956017, -1221110.5, 1689.9835 
1.1556378e+3, 1.8521155e+2, -1140310.0, -1280508.0, -15545.418, -0.00054367457, 0.00058906135, -1138607.0, -13679.995 
1.1556089e+3, 1.9519834e+2, -1053380.9, -1187918.0, -15600.143, 0.00017606144, 0.0004812673, -1051595.8, -24539.379 
1.15558006e+3, 2.0518486e+2, -970641.75, -1103805.1, -15223.417, 0.0006794008, 0.0018680941, -968923.56, -39735.016 
1.1555513e+3, 2.1517108e+2, -883809.56, -1011244.6, -15103.705, 0.0008989856, 0.0026664392, -882043.94, -50720.4 
1.1555226e+3, 2.2515696e+2, -801489.2, -927935.75, -14012.368, 0.00032636238, 0.0028202676, -799955.0, -66493.055 
1.155494e+3, 2.3514251e+2, -714581.7, -835213.3, -13967.813, -0.0008733828, 0.00020175867, -712985.5, -77382.0 
1.1554657e+3, 2.4512777e+2, -632316.9, -751856.9, -12648.401, -0.0008996967, 0.00006475484, -630993.25, -93245.13 
1.1554375e+3, 2.551127e+2, -545468.2, -659050.8, -12566.845, 0.00016818095, 0.00037476755, -544094.4, -104198.875 
1.15540944e+3, 2.6509735e+2, -463297.66, -575860.56, -10639.441, 0.00035369128, 0.001469123, -462300.84, -120254.625 
1.1553817e+3, 2.7508166e+2, -376229.75, -482826.5, -10658.978, -0.00038818194, 0.0011109331, -375174.38, -130974.54 
1.1553544e+3, 2.850657e+2, -293313.44, -398548.06, -8141.521, -0.00061669596, 0.0019581162, -292687.28, -146330.95 
1.15532726e+3, 2.9504946e+2, -205686.64, -305128.84, -7680.275, -0.00017000959, 0.0014736314, -205096.97, -156581.64 
1.1553005e+3, 3.0503622e+2, -125628.06, -174326.0, -5095.195, 0.0008724306, 0.0015254497, -125100.67, -125100.67 
1.15527414e+3, 3.1502602e+2, -137357.08, -179513.31, -5180.1333, 0.0020561384, 0.0005353981, -136729.88, -136729.88 
1.15524806e+3, 3.2502076e+2, -78856.445, -41218.004, -1823.6322, -0.0033793198, 0.0022170797, -41129.855, -41129.855 
1.166074e+3, 3.5399455e+1, -2397114.5, -2592266.5, 4363.079, -0.016948778, 0.0025810841, -2397017.0, 196068.61 
1.1660478e+3, 4.5390633e+1, -2325810.5, -2514693.8, -2596.6907, 0.027601117, 0.001524987, -2325774.8, 169397.2 
1.1660201e+3, 5.538153e+1, -2232156.5, -2419365.5, -2722.4316, -0.002550889, 0.0015219923, -2232117.0, 165144.25 
1.1659925e+3, 6.5372145e+1, -2147917.0, -2334243.0, -4568.691, -0.010290254, 0.0022636203, -2147805.0, 151548.11 
1.16596475e+3, 7.5362486e+1, -2064671.0, -2243722.0, -4701.4614, 0.0012805929, 0.0018713598, -2064547.6, 136900.2 
1.1659365e+3, 8.535254e+1, -1983419.5, -2160124.8, -7438.8765, 0.004448096, 0.001866041, -1983106.9, 120438.4 
1.1659078e+3, 9.534231e+1, -1896593.3, -2067780.0, -7606.8623, 0.000064890766, 0.00027759207, -1896256.0, 109389.59 
1.165879e+3, 1.053318e+2, -1813877.1, -1983489.8, -9385.859, -0.00159224, 0.00085088523, -1813359.4, 94389.14 
1.1658501e+3, 1.1532103e+2, -1727330.9, -1891243.0, -9590.175, -0.0008543529, 0.0016661473, -1726771.8, 83082.38 
1.16582096e+3, 1.2530993e+2, -1645222.4, -1807767.5, -11115.418, 0.00021900136, 0.0026172302, -1644465.9, 67496.98 
1.1657915e+3, 1.3529854e+2, -1559074.5, -1715657.0, -11223.926, 0.0016375614, 0.0016635497, -1558274.1, 55800.48 
1.16576195e+3, 1.4528684e+2, -1476882.3, -1631540.9, -12204.023, 0.0015573178, 0.002253633, -1475925.1, 40263.945 
1.16573244e+3, 1.5527488e+2, -1390753.8, -1539454.3, -12423.787, 0.00013440882, 0.0023276682, -1389723.0, 28583.262 
1.1657028e+3, 1.6526261e+2, -1308771.0, -1456491.3, -13005.167, -0.00062074227, 0.0023274447, -1307634.8, 12791.956 
1.16567306e+3, 1.7524996e+2, -1221811.6, -1363867.4, -12881.454, -0.0008598807, 0.00021326981, -1220653.0, 1897.4445 
1.1656433e+3, 1.8523706e+2, -1139441.3, -1279974.1, -12672.431, -0.0004910561, 0.00036559193, -1138307.6, -13630.642 
1.1656137e+3, 1.9522388e+2, -1053363.6, -1187799.1, -12609.793, 0.00041458357, 0.0007489039, -1052191.1, -25384.865 
1.16558395e+3, 2.0521039e+2, -971105.94, -1103952.9, -12230.5625, 0.00073992286, 0.002115154, -969989.4, -41050.938 
1.16555445e+3, 2.1519661e+2, -884420.5, -1011453.4, -12340.326, 0.00046544388, 0.002447168, -883232.8, -52159.383 
1.165525e+3, 2.2518249e+2, -802301.75, -928084.25, -11400.066, 0.000059119433, 0.002695665, -801276.9, -68065.16 
1.1654956e+3, 2.3516807e+2, -715838.8, -835574.6, -11348.001, -0.00038168338, 0.000679622, -714772.8, -79419.74 
1.1654665e+3, 2.4515334e+2, -633600.94, -752063.3, -9964.765, -0.00049950695, 0.00056090596, -632768.56, -95271.14 
1.1654375e+3, 2.551383e+2, -546616.7, -659196.8, -9818.672, -0.00032068815, 0.0003194214, -545766.75, -106122.17 
1.1654088e+3, 2.6512298e+2, -464750.53, -576218.1, -7825.1514, -0.00014742825, 0.0015320546, -464203.88, -122408.914 
1.16538025e+3, 2.7510732e+2, -378399.84, -483484.0, -7596.181, -0.000083588835, 0.001966163, -377853.6, -133905.38 
1.165352e+3, 2.850914e+2, -296044.84, -399288.4, -5099.357, -0.00011104505, 0.0023898378, -295793.56, -149689.2 
1.1653242e+3, 2.9507524e+2, -209150.02, -306226.56, -5174.1484, -0.000026956714, 0.0003446351, -208875.02, -160611.95 
1.16529666e+3, 3.0506203e+2, -129280.11, -175539.53, -2735.5476, 0.00040859787, 0.0013101987, -129118.91, -129118.91 
1.1652694e+3, 3.1505188e+2, -140623.66, -180548.6, -2241.4248, 0.0007645382, 0.003744762, -140498.2, -140498.2 
1.1652426e+3, 3.2504666e+2, -82245.87, -41837.477, 708.42957, -0.0022430702, 0.0010672597, -41825.063, -41825.063 
1.17609195e+3, 3.542629e+1, -2400441.0, -2597192.5, -5899.299, 0.0014141536, 0.003239046, -2400264.3, 192558.31 
1.1760637e+3, 4.541721e+1, -2324696.0, -2514650.5, -3347.7673, -0.0028200925, -0.006661364, -2324637.0, 170274.4 
1.17603615e+3, 5.5408174e+1, -2232520.3, -2419945.0, -3564.7373, 0.0006383809, 0.0035478382, -2232452.5, 164547.63 
1.1760078e+3, 6.539877e+1, -2148588.0, -2334920.5, -7949.9966, 0.0014240431, 0.0058495984, -2148249.5, 150842.84 
1.17597885e+3, 7.538903e+1, -2064836.3, -2244133.5, -8072.9126, 0.00023213497, -0.00040051108, -2064473.5, 136714.16 
1.1759498e+3, 8.5379046e+1, -1983512.9, -2160641.8, -9954.803, 0.000046436908, -0.0004887673, -1982955.1, 120330.375 
1.17592044e+3, 9.536882e+1, -1896788.4, -2068341.9, -10125.734, 0.00056194817, 0.0028253882, -1896192.8, 109193.0 
1.1758909e+3, 1.0535827e+2, -1814200.8, -1984224.8, -11983.444, 0.000798797, 0.0036581412, -1813360.3, 94128.84 
1.17586106e+3, 1.15347415e+2, -1727722.6, -1892024.3, -12191.487, 0.0008307215, 0.0006418814, -1726822.9, 82772.68 
1.1758312e+3, 1.2533626e+2, -1645490.5, -1808234.8, -13823.436, 0.00015087584, -0.00018974642, -1644324.8, 67380.086 
1.1758009e+3, 1.3532484e+2, -1559288.0, -1716115.0, -13926.731, -0.0012178743, -0.0010406915, -1558060.9, 55755.984 
1.1757706e+3, 1.4531311e+2, -1477282.8, -1632414.0, -14920.91, -0.0011169434, 0.00056713, -1475860.6, 40071.03 
1.1757402e+3, 1.5530112e+2, -1391103.6, -1540272.8, -15124.611, 0.00025153736, 0.002353026, -1389585.6, 28463.748 
1.1757098e+3, 1.652888e+2, -1308528.6, -1456035.9, -15521.66, 0.0008953684, 0.0033263417, -1306913.1, 13256.793 
1.1756794e+3, 1.7527622e+2, -1221618.6, -1363452.8, -15422.064, 0.0009119897, 0.001600485, -1219961.0, 2332.219 
1.17564894e+3, 1.8526334e+2, -1139324.6, -1279729.3, -15459.721, 0.00071546686, 0.0017793189, -1137642.5, -13222.986 
1.1756184e+3, 1.9525015e+2, -1053210.0, -1187552.5, -15410.514, 0.0003349991, 0.0018423494, -1051465.0, -24916.363 
1.175588e+3, 2.0523664e+2, -971252.7, -1104305.0, -14887.663, -0.0003007634, 0.0018134903, -969607.2, -40926.24 
1.1755576e+3, 2.1522282e+2, -884572.06, -1011817.2, -14988.057, -0.0011857068, -0.00021287799, -882830.44, -52014.01 
1.17552735e+3, 2.2520873e+2, -802169.9, -927826.75, -14131.152, -0.00067908777, 0.00070410233, -800600.3, -67645.625 
1.1754972e+3, 2.3519436e+2, -715710.44, -835326.7, -14083.515, 0.0010337807, 0.00211261, -714074.6, -78979.04 
1.1754673e+3, 2.4517965e+2, -633319.5, -751473.2, -12612.01, 0.0008076989, 0.0030534193, -631988.25, -94748.71 
1.1754375e+3, 2.5516468e+2, -546349.6, -658628.06, -12479.326, -0.001204039, 0.0016219257, -544979.3, -105592.91 
1.175408e+3, 2.6514935e+2, -464369.94, -575344.9, -10682.913, -0.0011769902, 0.0020620087, -463350.94, -121814.56 
1.1753786e+3, 2.751338e+2, -377974.63, -482624.53, -10460.045, 0.00074609113, 0.0021910071, -376939.38, -133250.33 
1.1753497e+3, 2.8511786e+2, -296163.7, -399566.13, -7844.391, 0.0006453845, 0.0020917042, -295571.97, -149726.92 
1.17532104e+3, 2.9510164e+2, -209292.39, -306525.03, -7913.552, -0.0011679766, -0.0006593068, -208652.53, -160648.48 
1.1752927e+3, 3.050885e+2, -128442.18, -173806.52, -5502.5796, -0.0014772259, 0.0014223959, -127784.27, -127784.27 
1.17526464e+3, 3.1507853e+2, -139770.75, -178835.58, -5016.2813, -0.00059802574, 0.0067296564, -139136.89, -139136.89 
1.1752371e+3, 3.2507327e+2, -83016.02, -43463.574, -2152.2195, 0.0009342424, 0.00010798849, -43346.81, -43346.81 
1.1861096e+3, 3.545404e+1, -2401683.3, -2600035.5, -2353.0034, 0.009280888, 0.003928728, -2401655.5, 190895.14 
1.1860806e+3, 4.5444846e+1, -2308980.8, -2507421.3, -411.76987, -0.013371849, -0.0053661414, -2308979.8, 185660.88 
1.1860521e+3, 5.5435735e+1, -2229581.8, -2419090.8, -745.8021, 0.0016183604, 0.00261978, -2229578.8, 167151.13 
1.186023e+3, 6.542627e+1, -2149310.5, -2335875.3, -5002.661, 0.0055596423, 0.0047022966, -2149176.3, 149646.38 
1.18599325e+3, 7.541649e+1, -2061327.4, -2243011.0, -5303.879, -0.00005918546, 0.000029861327, -2061172.6, 139745.97 
1.1859634e+3, 8.540646e+1, -1978541.8, -2158587.5, -7250.527, -0.0015909033, 0.0001390281, -1978250.3, 124766.69 
1.1859332e+3, 9.539618e+1, -1892953.1, -2066855.1, -7407.862, 0.0002635422, 0.002499902, -1892638.1, 112479.54 
1.1859028e+3, 1.0538559e+2, -1811499.0, -1983333.3, -9293.951, 0.0011611065, 0.0032905117, -1810997.8, 96223.664 
1.1858723e+3, 1.15374684e+2, -1726122.1, -1891631.5, -9449.197, 0.0012502942, 0.0009353309, -1725584.4, 83743.875 
1.1858414e+3, 1.2536351e+2, -1644006.4, -1807558.3, -10888.282, 0.0004451921, 0.0005069613, -1643284.6, 68153.05 
1.1858106e+3, 1.3535208e+2, -1557583.8, -1715335.0, -10852.434, -0.0012521629, -0.00006870569, -1556840.6, 56709.156 
1.1857794e+3, 1.4534034e+2, -1475624.0, -1631884.0, -11727.83, -0.0011840174, 0.0009338979, -1474748.6, 40916.234 
1.1857482e+3, 1.5532829e+2, -1389415.0, -1539706.3, -11735.226, 0.00044398714, 0.0013361782, -1388504.3, 29278.719 
1.18571706e+3, 1.6531599e+2, -1307223.1, -1455335.9, -12115.49, 0.0010653514, 0.0022941148, -1306238.6, 13665.002 
1.1856857e+3, 1.7530338e+2, -1221465.5, -1363303.9, -12192.59, 0.00082497805, 0.0017940855, -1220425.1, 1601.825 
1.1856544e+3, 1.8529052e+2, -1139566.9, -1279864.9, -12389.584, 0.0005737333, 0.002242692, -1138481.1, -14327.895 
1.1856232e+3, 1.9527732e+2, -1053016.9, -1187506.9, -12505.974, 0.00026828708, 0.001733947, -1051863.9, -25581.475 
1.1855919e+3, 2.0526381e+2, -970986.9, -1104020.3, -11921.397, -0.00022200237, 0.001573083, -969927.0, -41512.234 
1.1855608e+3, 2.1525e+2, -884733.9, -1011740.7, -11805.307, -0.00084838993, -0.00022700097, -883645.94, -53095.72 
1.1855297e+3, 2.252359e+2, -802713.9, -927859.6, -10930.313, -0.00044980654, 0.00062737765, -801766.4, -69078.01 
1.18549876e+3, 2.3522152e+2, -716661.1, -835563.9, -10888.754, 0.0007918129, 0.0017587394, -715672.25, -80843.1 
1.185468e+3, 2.4520686e+2, -634857.25, -751991.0, -9460.119, 0.00065948896, 0.0027819911, -634098.1, -97125.17 
1.1854375e+3, 2.551919e+2, -548743.2, -659510.7, -9476.872, -0.0007268039, 0.0017510738, -547938.25, -108818.62 
1.1854071e+3, 2.6517662e+2, -466592.03, -575823.8, -7773.082, -0.00086200034, 0.0020039163, -466041.66, -124772.4 
1.18537694e+3, 2.7516106e+2, -379578.38, -482808.56, -7623.375, 0.0002081371, 0.0014453232, -379018.44, -135596.95 
1.18534714e+3, 2.851452e+2, -298156.28, -400198.03, -5004.158, 0.00019444885, 0.001583601, -297911.47, -152334.31 
1.1853178e+3, 2.9512903e+2, -212335.03, -307635.78, -4759.2383, -0.0007107243, -0.00006387004, -212097.95, -164362.13 
1.1852886e+3, 3.0511594e+2, -131429.3, -174354.58, -2181.8635, -0.0012053936, 0.0017604631, -131318.67, -131318.67 
1.18525974e+3, 3.15106e+2, -142442.89, -179241.97, -1992.3274, -0.0015328476, 0.0054678363, -142335.33, -142335.33 
1.18523136e+3, 3.2510078e+2, -87229.73, -45774.652, 610.22516, 0.0020385818, -0.000081264676, -45765.67, -45765.67 
1.1961273e+3, 3.5482532e+1, -2401942.3, -2600937.3, 1022.86426, 0.010024928, 0.004773681, -2401937.0, 190334.42 
1.1960979e+3, 4.5473334e+1, -2310506.3, -2508990.3, -4789.4697, -0.011608117, 0.0022418867, -2310390.8, 183970.97 
1.1960682e+3, 5.546404e+1, -2230012.0, -2420028.5, -5023.4917, 0.00096724805, -0.00033726575, -2229879.3, 166573.33 
1.19603805e+3, 6.545449e+1, -2149497.8, -2336844.3, -7183.124, 0.004384177, 0.000427705, -2149222.8, 149323.39 
1.19600765e+3, 7.544469e+1, -2061861.8, -2244130.8, -7492.727, 0.0001749898, 0.0023679037, -2061554.3, 139087.98 
1.195977e+3, 8.543461e+1, -1978923.3, -2159204.5, -10022.178, -0.0013624611, 0.0028161067, -1978367.8, 124373.21 
1.19594604e+3, 9.5424247e+1, -1893318.6, -2067458.6, -10191.867, -0.0006869031, 0.00013582132, -1892724.1, 112118.43 
1.1959149e+3, 1.0541362e+2, -1811806.5, -1983913.6, -12135.75, 0.000029186673, 0.00072533335, -1810955.0, 95991.734 
1.19588345e+3, 1.1540272e+2, -1726322.6, -1892143.0, -12278.125, 0.0007366619, 0.0022037628, -1725418.4, 83635.25 
1.1958518e+3, 1.2539154e+2, -1643869.0, -1807410.9, -13500.2, 0.000957207, 0.0037552258, -1642762.0, 68400.99 
1.19582005e+3, 1.3538013e+2, -1557508.4, -1715222.9, -13497.368, 0.00073174806, 0.0036095479, -1556361.6, 56913.43 
1.1957882e+3, 1.4536837e+2, -1475687.9, -1632008.6, -14461.522, 0.0006149943, 0.0028199288, -1474361.3, 41029.008 
1.1957562e+3, 1.5535627e+2, -1389487.9, -1539836.9, -14471.472, 0.0006091331, -0.00045594512, -1388107.6, 29401.041 
1.1957241e+3, 1.6534396e+2, -1307406.8, -1455656.3, -14968.176, 0.00014067674, -0.0002372762, -1305910.5, 13718.985 
1.19569205e+3, 1.7533135e+2, -1221578.8, -1363616.9, -15047.182, -0.00071446446, 0.0010786345, -1220002.1, 1750.685 
1.1956599e+3, 1.8531846e+2, -1139707.3, -1280266.1, -15057.677, -0.00064577494, 0.001966225, -1138112.4, -14232.923 
1.1956278e+3, 1.9530523e+2, -1053190.4, -1187885.6, -15166.88, 0.00017200006, 0.00068051973, -1051503.6, -25494.67 
1.19559586e+3, 2.0529173e+2, -970763.8, -1103515.6, -14664.535, 0.00072209415, 0.0014134814, -969163.2, -41021.945 
1.1955638e+3, 2.1527797e+2, -884544.5, -1011266.2, -14564.45, 0.0010270444, 0.0019106938, -882892.1, -52616.074 
1.195532e+3, 2.2526388e+2, -802638.6, -927682.9, -13789.176, 0.00048335164, 0.0021035783, -801136.06, -68722.03 
1.1955003e+3, 2.352495e+2, -716540.2, -835379.2, -13744.256, -0.0008751751, -0.00007431574, -714971.3, -80416.336 
1.1954686e+3, 2.4523483e+2, -634854.7, -752002.75, -12322.325, -0.00073403446, 0.00022165687, -633572.56, -96873.76 
1.19543724e+3, 2.5521988e+2, -548728.7, -659534.94, -12334.7, 0.0008546356, 0.00092516677, -547372.25, -108526.87 
1.1954061e+3, 2.652046e+2, -466311.13, -575208.6, -10439.812, 0.00052265206, 0.0014957915, -465319.3, -124324.56 
1.19537525e+3, 2.7518913e+2, -379325.47, -482237.34, -10311.605, -0.0015697908, -0.000109348344, -378302.44, -135155.69 
1.1953446e+3, 2.851733e+2, -297732.63, -399256.72, -8021.9805, -0.0013684332, 0.000930885, -297102.66, -151800.88 
1.1953143e+3, 2.951572e+2, -211884.61, -306682.03, -7774.6255, 0.0010930783, 0.001972066, -211251.22, -163791.66 
1.1952843e+3, 3.0514416e+2, -131135.17, -173767.36, -4872.2236, 0.0009074352, 0.0022932026, -130585.43, -130585.43 
1.1952548e+3, 3.1513423e+2, -142176.45, -178685.28, -4690.6465, -0.00212102, 0.00035264116, -141583.44, -141583.44 
1.1952255e+3, 3.251291e+2, -86879.55, -45080.32, -2740.3467, 0.0011176054, 0.0006742495, -44901.43, -44901.43 
1.2061453e+3, 3.5511875e+1, -2391523.3, -2595829.0, 3431.709, 0.0007167944, 0.000553647, -2391465.8, 200518.19 
1.20611526e+3, 4.5502734e+1, -2314396.0, -2511755.0, -1949.8569, 0.0018935871, 0.0077023613, -2314376.8, 179696.78 
1.2060845e+3, 5.549331e+1, -2225263.3, -2418627.5, -2291.4167, -0.00043119479, -0.00012046949, -2225236.0, 170929.72 
1.2060536e+3, 6.5483683e+1, -2142449.8, -2333828.3, -4238.8145, -0.00056055136, -0.00088284817, -2142355.8, 155904.28 
1.20602235e+3, 7.5473845e+1, -2058212.9, -2242824.8, -4360.6055, 0.00076028914, 0.0026336561, -2058109.9, 142246.63 
1.2059908e+3, 8.546372e+1, -1976843.3, -2158661.3, -6862.0454, 0.0007410889, 0.003494083, -1976584.6, 125871.14 
1.2059591e+3, 9.545331e+1, -1891274.9, -2066938.5, -7064.7285, -0.000437466, 0.0002467836, -1890991.1, 113566.625 
1.205927e+3, 1.0544264e+2, -1809400.8, -1982920.4, -8924.768, -0.0004869069, 0.00049460254, -1808943.0, 97719.38 
1.2058948e+3, 1.1543172e+2, -1723433.5, -1890922.3, -8959.641, 0.00037236643, 0.0018850415, -1722955.6, 85813.78 
1.2058623e+3, 1.2542051e+2, -1641370.0, -1806603.9, -10262.335, 0.0008124518, 0.003433175, -1640735.0, 70144.14 
1.2058297e+3, 1.3540904e+2, -1555880.8, -1714822.3, -10565.115, 0.00090330356, 0.00335098, -1555181.5, 57810.08 
1.205797e+3, 1.4539728e+2, -1474369.8, -1631250.5, -11638.656, 0.00075630884, 0.002915781, -1473511.0, 41595.957 
1.2057643e+3, 1.553852e+2, -1388656.0, -1539321.6, -11564.173, 0.0004031571, 0.00024058855, -1387773.5, 29451.703 
1.2057313e+3, 1.6537285e+2, -1306716.3, -1455545.9, -11993.358, -0.000010105, 0.00039602688, -1305756.0, 13590.233 
1.2056984e+3, 1.7536023e+2, -1220402.5, -1363251.9, -12067.018, -0.0004789158, 0.0010890622, -1219390.4, 2079.5515 
1.20566554e+3, 1.853473e+2, -1138588.5, -1279680.4, -11976.362, -0.00042611963, 0.0017822341, -1137579.1, -13982.557 
1.20563254e+3, 1.9533409e+2, -1052807.6, -1187670.9, -11920.447, 0.000018254927, 0.00066527707, -1051762.1, -26035.986 
1.20559976e+3, 2.0532058e+2, -971080.44, -1103509.0, -11504.56, 0.00053400715, 0.0015291546, -970088.44, -42230.082 
1.20556705e+3, 2.1530683e+2, -885654.5, -1011659.8, -11552.148, 0.0011263759, 0.0021472583, -884604.1, -54611.03 
1.20553434e+3, 2.2529277e+2, -803770.56, -927991.5, -10704.881, 0.0006406723, 0.002422055, -802854.8, -70723.9 
1.2055017e+3, 2.3527841e+2, -717149.56, -835419.3, -10630.477, -0.00083450816, 0.0002906859, -716201.6, -81929.93 
1.2054694e+3, 2.4526376e+2, -635295.56, -751904.1, -9229.778, -0.00086443697, 0.00037673968, -634569.56, -98154.17 
1.2054371e+3, 2.552488e+2, -549473.2, -659577.6, -9055.213, 0.0005288436, 0.0006911117, -548733.44, -110171.72 
1.20540515e+3, 2.6523358e+2, -467866.94, -575781.56, -7095.007, 0.00046876128, 0.0012648504, -467402.47, -126691.51 
1.2053734e+3, 2.752181e+2, -382100.2, -483355.7, -7126.912, -0.0009854505, -0.000026277681, -381601.0, -138738.23 
1.2053419e+3, 2.852023e+2, -300530.47, -399843.72, -5006.3145, -0.0008442419, 0.0012290609, -300278.75, -155261.31 
1.2053108e+3, 2.9518628e+2, -214289.03, -307109.25, -4753.3755, 0.0009358298, 0.0025171328, -214046.25, -166871.73 
1.20528005e+3, 3.0517328e+2, -134230.48, -174906.86, -1781.2794, 0.0005752179, 0.0017724393, -134152.63, -134152.63 
1.2052495e+3, 3.1516334e+2, -146361.45, -180343.44, -1697.0056, -0.002222916, -0.0026402192, -146276.92, -146276.92 
1.2052193e+3, 3.2515836e+2, -90175.38, -44579.64, 243.3859, 0.0012507121, 0.0020366975, -44578.34, -44578.34 
1.2161635e+3, 3.5541925e+1, -2391935.8, -2594712.0, -3695.1545, -0.014800017, -0.0067856563, -2391868.5, 199820.83 
1.2161324e+3, 4.553289e+1, -2314343.8, -2512875.3, -3884.6016, 0.021934291, 0.011768091, -2314267.8, 179510.27 
1.216101e+3, 5.552335e+1, -2225945.5, -2419960.8, -4236.4805, -0.0024810352, 0.0022191915, -2225853.0, 170018.48 
1.2160691e+3, 6.5513647e+1, -2142851.8, -2334309.5, -7347.1523, -0.0081267245, -0.00017481687, -2142570.3, 155396.27 
1.2160371e+3, 7.550378e+1, -2058406.0, -2243211.3, -7473.8696, 0.0015707737, 0.0014578867, -2058104.1, 141959.03 
1.2160048e+3, 8.549361e+1, -1977126.9, -2159361.3, -9665.46, 0.0040554795, 0.0028151944, -1976615.6, 125547.12 
1.21597216e+3, 9.548318e+1, -1891575.5, -2067622.9, -9861.067, 0.0005526802, 0.0021222031, -1891024.9, 113240.234 
1.2159392e+3, 1.05472475e+2, -1809431.8, -1983063.0, -11645.611, -0.0006340741, 0.0019171574, -1808654.1, 97715.83 
1.21590614e+3, 1.1546152e+2, -1723501.5, -1891113.6, -11703.533, 0.000059769132, 0.00041672957, -1722688.3, 85789.04 
1.2158729e+3, 1.2545025e+2, -1641961.0, -1807821.0, -13121.321, 0.0001087145, 0.00056156324, -1640929.4, 69658.25 
1.21583946e+3, 1.3543871e+2, -1556443.8, -1715966.9, -13393.934, -0.0003052052, 0.00024839808, -1555327.0, 57373.906 
1.2158059e+3, 1.4542693e+2, -1474246.5, -1631025.3, -14430.745, -0.00034370858, 0.001737767, -1472929.3, 41887.145 
1.2157722e+3, 1.5541491e+2, -1388504.9, -1539120.4, -14383.461, -0.00012441384, 0.0028306677, -1387143.6, 29790.582 
1.2157385e+3, 1.6540256e+2, -1306855.4, -1455846.4, -14684.671, 0.0003665537, 0.0034247367, -1305421.9, 13633.356 
1.2157048e+3, 1.7538989e+2, -1220579.1, -1363569.0, -14762.165, 0.0010830697, 0.0016449956, -1219071.0, 2108.2446 
1.21567115e+3, 1.8537696e+2, -1138498.8, -1279461.1, -14823.569, 0.00083246396, 0.0016950001, -1136956.8, -13650.788 
1.2156373e+3, 1.9536376e+2, -1052715.3, -1187450.4, -14776.353, -0.00025178478, 0.0014991479, -1051113.8, -25678.445 
1.21560365e+3, 2.0535026e+2, -971132.4, -1103649.8, -14463.101, -0.000581358, 0.0018812622, -969572.2, -42004.645 
1.21557005e+3, 2.1533649e+2, -885649.56, -1011759.0, -14499.246, -0.00026758085, 0.0008511845, -884004.0, -54301.414 
1.2155365e+3, 2.2532244e+2, -803578.06, -927657.75, -13382.61, 0.000112420275, 0.0018387288, -802151.06, -70310.8 
1.21550314e+3, 2.3530813e+2, -717031.7, -835131.9, -13327.882, 0.00058884994, 0.0025084778, -715546.3, -81565.664 
1.21547e+3, 2.4529348e+2, -635005.06, -751243.8, -12171.918, -0.0000050923304, 0.0028112535, -633744.2, -97620.25 
1.2154369e+3, 2.552786e+2, -549168.25, -658945.1, -12008.641, -0.0015136547, 0.0009820121, -547869.94, -109599.94 
1.21540405e+3, 2.6526338e+2, -467908.53, -575877.0, -10098.812, -0.0008718305, 0.0013164278, -466972.06, -126552.984 
1.2153715e+3, 2.752479e+2, -382104.06, -483428.06, -10122.3125, 0.0016143154, 0.001495564, -381102.75, -138531.9 
1.2153392e+3, 2.8523216e+2, -300049.38, -398865.03, -7909.2773, 0.0013993607, 0.0023994322, -299420.3, -154695.1 
1.2153071e+3, 2.9521614e+2, -213825.06, -306171.44, -7670.533, -0.0010630853, 0.0017424973, -213192.27, -166310.47 
1.2152755e+3, 3.052032e+2, -134124.98, -174710.42, -4767.7207, -0.002000681, 0.00033760248, -133572.42, -133572.42 
1.2152442e+3, 3.1519324e+2, -146219.42, -180058.72, -4678.4063, -0.0019178833, -0.003706766, -145584.53, -145584.53 
1.21521324e+3, 3.251885e+2, -87997.89, -40105.617, -2959.199, 0.0021125448, 0.0038939882, -39923.465, -39923.465 
1.22618176e+3, 3.557305e+1, -2391639.0, -2594975.0, -10.186493, -0.0042808107, -0.0022804693, -2391639.0, 199745.4 
1.2261498e+3, 4.556388e+1, -2304376.5, -2508378.0, -1122.8779, 0.00522444, 0.005814359, -2304370.5, 189103.73 
1.2261175e+3, 5.5554354e+1, -2222066.0, -2418589.0, -1233.1123, 0.00068432436, 0.0024977608, -2222058.3, 173509.39 
1.226085e+3, 6.554462e+1, -2140986.3, -2333925.8, -4216.1763, -0.00084903534, 0.0015094305, -2140894.3, 156768.73 
1.226052e+3, 7.553466e+1, -2055104.3, -2242070.0, -4492.046, 0.00017346088, 0.0006184348, -2054996.4, 144764.06 
1.2260188e+3, 8.552446e+1, -1973382.0, -2157869.5, -6713.162, 0.000893204, 0.0015923207, -1973138.0, 128722.516 
1.2259852e+3, 9.5513994e+1, -1888405.4, -2066421.8, -6826.662, 0.001139218, 0.002297518, -1888144.0, 115819.05 
1.22595154e+3, 1.0550326e+2, -1806787.4, -1982077.8, -8542.963, 0.0006769259, 0.0024647505, -1806372.0, 99696.25 
1.22591764e+3, 1.15492254e+2, -1721333.4, -1890352.8, -8754.641, -0.00032839857, 0.0005479343, -1720881.1, 87294.88 
1.2258835e+3, 1.2548098e+2, -1640026.8, -1806926.3, -10102.093, -0.0004940648, 0.00045064942, -1639417.5, 70869.14 
1.22584924e+3, 1.354694e+2, -1554791.4, -1715227.0, -9952.899, 0.00003261305, -0.00000053459473, -1554176.4, 58223.67 
1.2258148e+3, 1.454576e+2, -1472750.1, -1630559.8, -10833.971, 0.00012605378, 0.0014368477, -1472009.9, 42505.813 
1.2257804e+3, 1.5544556e+2, -1386876.5, -1538555.8, -11040.841, -0.0001704591, 0.0025958826, -1386077.0, 30556.781 
1.2257458e+3, 1.6543318e+2, -1305571.8, -1455259.5, -11447.73, 0.00014894323, 0.003308714, -1304701.3, 14053.709 
1.2257113e+3, 1.7542052e+2, -1220308.3, -1363453.5, -11442.596, 0.0009922065, 0.0016484986, -1219399.4, 1479.7852 
1.22567676e+3, 1.8540758e+2, -1138570.9, -1279299.8, -11482.303, 0.0009042268, 0.0018628375, -1137640.1, -14634.256 
1.2256421e+3, 1.953944e+2, -1052877.5, -1187345.8, -11461.956, 0.000026908672, 0.0018717003, -1051907.5, -26772.424 
1.22560754e+3, 2.053809e+2, -971103.3, -1103608.0, -11117.935, -0.00041495182, 0.0020495383, -970176.94, -42909.67 
1.2255731e+3, 2.1536712e+2, -885018.8, -1011428.6, -11104.075, -0.00045875536, 0.00052003923, -884050.9, -54648.473 
1.2255387e+3, 2.2535308e+2, -803523.2, -927481.7, -10055.604, -0.00012856543, 0.001524363, -802712.75, -71172.664 
1.2255045e+3, 2.3533876e+2, -718595.7, -835753.9, -10088.809, 0.000574481, 0.0026461168, -717733.25, -84052.91 
1.22547045e+3, 2.4532416e+2, -637027.3, -751838.7, -8985.811, 0.00029494628, 0.0031137334, -636328.25, -100504.83 
1.22543655e+3, 2.5530928e+2, -550980.6, -659412.1, -8913.071, -0.0008868584, 0.0011528679, -550252.9, -112283.61 
1.22540295e+3, 2.652941e+2, -469542.0, -576212.0, -6959.867, -0.0005223807, 0.0014529289, -469089.8, -128971.805 
1.2253695e+3, 2.7527866e+2, -383697.25, -483752.25, -6697.275, 0.0012110603, 0.0017294242, -383250.97, -140981.53 
1.2253363e+3, 2.852629e+2, -301981.72, -399489.78, -4484.2046, 0.0009894242, 0.0023405915, -301775.9, -157352.39 
1.2253035e+3, 2.9524696e+2, -216433.1, -307084.97, -4502.307, -0.000851119, 0.0010524385, -216210.03, -169630.11 
1.22527085e+3, 3.0523404e+2, -137220.16, -175481.06, -1635.7448, -0.001249449, 0.0004845014, -137150.34, -137150.34 
1.22523874e+3, 3.1522417e+2, -150156.53, -181216.6, -1215.6206, -0.0006748, -0.0013667633, -150109.03, -150109.03 
1.2252069e+3, 3.2521945e+2, -91462.74, -40736.48, -88.817696, 0.00064747897, 0.002755007, -40736.324, -40736.324 
1.2362003e+3, 3.5605037e+1, -2391863.5, -2595714.5, 1054.9475, 0.021073218, 0.009295904, -2391858.0, 199212.95 
1.23616725e+3, 4.5595577e+1, -2305353.0, -2509050.0, -4733.8594, -0.03535171, -0.0063921264, -2305243.3, 187920.33 
1.2361344e+3, 5.558615e+1, -2222295.0, -2418852.8, -4793.862, 0.0074110655, 0.0014881329, -2222178.3, 173077.8 
1.23610094e+3, 6.557639e+1, -2141284.8, -2334849.0, -6899.808, 0.015836831, 0.0038385335, -2141039.0, 156312.47 
1.23606704e+3, 7.556634e+1, -2055594.5, -2243067.5, -7178.634, -0.0028223156, 0.000041565803, -2055320.0, 144130.03 
1.23603284e+3, 8.555608e+1, -1973661.5, -2158313.0, -9631.459, -0.0066096745, 0.00005528975, -1973160.5, 128390.15 
1.2359986e+3, 9.5545596e+1, -1888613.5, -2066848.1, -9748.698, 0.0014146152, 0.0013067761, -1888081.9, 115571.49 
1.235964e+3, 1.0553483e+2, -1807171.5, -1982830.8, -11352.122, 0.0029122557, 0.0024279547, -1806440.9, 99317.96 
1.2359292e+3, 1.15523785e+2, -1721743.0, -1891082.5, -11561.374, -0.0008197157, 0.0018161372, -1720957.4, 86909.78 
1.2358942e+3, 1.2551251e+2, -1639790.0, -1806393.3, -12998.979, -0.0010550191, 0.0023324697, -1638781.9, 71195.78 
1.2358591e+3, 1.3550098e+2, -1554530.3, -1714724.3, -12883.707, 0.0014480113, 0.0018395373, -1553500.6, 58589.96 
1.23582385e+3, 1.4548914e+2, -1473175.6, -1631433.9, -13624.71, 0.001678633, 0.0017761864, -1472011.3, 42195.332 
1.23578854e+3, 1.55477e+2, -1387313.1, -1539422.4, -13822.889, 0.000052487274, 0.00028047233, -1386067.3, 30258.295 
1.23575315e+3, 1.6546461e+2, -1305614.9, -1455262.0, -14386.717, -0.0005901574, 0.000895863, -1304244.3, 14202.671 
1.2357177e+3, 1.7545196e+2, -1220292.4, -1363450.0, -14384.08, -0.00038802112, 0.001261926, -1218861.5, 1709.5433 
1.2356822e+3, 1.8543904e+2, -1138486.3, -1279169.5, -14338.729, 0.000028276061, 0.0022398434, -1137039.8, -14342.13 
1.2356468e+3, 1.9542585e+2, -1052810.3, -1187231.0, -14334.42, 0.00069550966, 0.0019060868, -1051298.6, -26471.893 
1.23561144e+3, 2.0541237e+2, -971097.8, -1103534.8, -13907.084, 0.0007269865, 0.0021128613, -969653.2, -42694.313 
1.2355762e+3, 2.153986e+2, -885052.44, -1011400.2, -13907.691, 0.00024717703, 0.000985864, -883539.6, -54445.72 
1.235541e+3, 2.2538453e+2, -803581.25, -927599.6, -13178.452, -0.0002053872, 0.0014488166, -802196.4, -70964.664 
1.2355059e+3, 2.353702e+2, -718587.1, -835820.9, -13197.625, -0.0006859916, 0.0010885826, -717119.8, -83747.66 
1.2354709e+3, 2.453556e+2, -636843.6, -751549.0, -11845.973, 0.00009442894, 0.0016725351, -635633.0, -100117.836 
1.2354363e+3, 2.5534075e+2, -550811.44, -659111.1, -11782.414, 0.0019538025, 0.0012536412, -549544.44, -111883.76 
1.2354017e+3, 2.6532564e+2, -469023.7, -575160.56, -9942.039, 0.0011838743, 0.0016983164, -468100.4, -128291.484 
1.2353674e+3, 2.7531025e+2, -383218.5, -482755.38, -9697.991, -0.0018700889, 0.0008998316, -382282.44, -140322.7 
1.2353334e+3, 2.8529456e+2, -302025.1, -399575.9, -7575.5854, -0.0017704987, 0.0012571985, -301440.3, -157326.73 
1.2352997e+3, 2.952786e+2, -216429.08, -307137.78, -7591.7817, 0.0012769154, 0.0004561297, -215798.08, -169528.05 
1.23526625e+3, 3.0526572e+2, -136454.77, -173932.97, -4832.446, 0.0023872328, 0.0021254746, -135841.7, -135841.7 
1.2352332e+3, 3.1525603e+2, -149427.8, -179746.13, -4418.5835, 0.0013654564, 0.0041516544, -148796.97, -148796.97 
1.2352003e+3, 3.252512e+2, -92205.83, -42329.207, -2937.0938, -0.0031615454, -0.0012948669, -42156.844, -42156.844 
1.2462189e+3, 3.5637966e+1, -2382137.5, -2593060.8, 2970.563, 0.0053702416, 0.008363299, -2382095.5, 208652.53 
1.24618515e+3, 4.56284e+1, -2306693.3, -2510015.3, -1205.9716, -0.009239068, -0.007792134, -2306686.0, 186155.77 
1.24615125e+3, 5.5618936e+1, -2218138.3, -2417207.3, -1427.706, 0.0027292003, 0.0009894565, -2218128.0, 176806.55 
1.2461168e+3, 6.5609145e+1, -2135933.3, -2332662.5, -3856.145, 0.005156307, 0.0039822366, -2135857.8, 161172.7 
1.2460822e+3, 7.559905e+1, -2052371.8, -2241919.8, -3995.7505, -0.0005745566, 0.00073789165, -2052287.5, 146841.92 
1.2460471e+3, 8.558875e+1, -1971077.8, -2157394.0, -6234.829, -0.0019329874, 0.0005430569, -1970869.4, 130361.07 
1.24601185e+3, 9.557822e+1, -1885646.6, -2065737.4, -6392.6523, 0.0003089769, 0.0009860554, -1885420.0, 117913.664 
1.2459765e+3, 1.0556741e+2, -1804478.9, -1981775.8, -8011.1123, 0.0008999244, 0.0019709265, -1804117.6, 101321.914 
1.2459408e+3, 1.15556344e+2, -1719891.5, -1890425.6, -8075.234, 0.000113417576, 0.0017423165, -1719510.0, 88038.0 
1.24590494e+3, 1.2554504e+2, -1638105.3, -1805798.8, -9539.247, 0.00014912689, 0.002498122, -1637564.4, 72094.44 
1.245869e+3, 1.355335e+2, -1552599.9, -1713956.1, -9776.07, 0.00077753735, 0.002163358, -1552009.8, 59762.305 
1.2458329e+3, 1.4552164e+2, -1471495.1, -1630667.4, -10525.819, 0.0007475728, 0.0020966292, -1470802.0, 43086.1 
1.24579675e+3, 1.5550949e+2, -1386401.1, -1539018.8, -10445.014, 0.00018472815, 0.00045165385, -1385689.6, 30317.676 
1.2457605e+3, 1.6549708e+2, -1304763.9, -1454796.0, -10882.051, -0.00012159917, 0.000896395, -1303978.8, 14150.058 
1.2457241e+3, 1.7548442e+2, -1219202.8, -1362861.3, -10864.062, -0.00015258093, 0.0011204365, -1218385.8, 1867.0311 
1.2456879e+3, 1.8547149e+2, -1137689.6, -1278926.8, -10895.445, -0.000013862695, 0.001969322, -1136854.0, -14474.548 
1.2456516e+3, 1.954583e+2, -1052487.3, -1187190.1, -11045.097, 0.00033091748, 0.0015027002, -1051587.6, -27078.77 
1.2456153e+3, 2.0544481e+2, -971223.5, -1103384.4, -10615.569, 0.0004673228, 0.0020828624, -970376.25, -43735.215 
1.2455792e+3, 2.1543106e+2, -886024.06, -1011672.9, -10541.268, 0.00043882255, 0.001695156, -885145.9, -56370.016 
1.2455432e+3, 2.25417e+2, -804499.25, -927792.8, -9757.555, 0.00009857767, 0.0019223628, -803731.8, -72818.29 
1.2455072e+3, 2.3540267e+2, -718732.6, -835652.94, -9614.971, -0.000547523, 0.000523385, -717947.2, -84893.336 
1.24547146e+3, 2.4538809e+2, -637165.25, -751555.94, -8192.824, 0.00005680037, 0.001051441, -636581.44, -101384.64 
1.2454358e+3, 2.5537327e+2, -551976.06, -659536.3, -8212.753, 0.0017587115, 0.0014673508, -551352.56, -114010.35 
1.2454004e+3, 2.6535815e+2, -470775.72, -575533.0, -6599.7056, 0.0011265564, 0.0020728218, -470361.6, -130871.31 
1.2453652e+3, 2.753428e+2, -385675.13, -483472.94, -6583.363, -0.0015493488, 0.0008476229, -385233.94, -143593.17 
1.24533035e+3, 2.853271e+2, -304630.75, -400268.25, -4333.94, -0.0015944606, 0.0010252296, -304434.75, -160640.5 
1.2452956e+3, 2.953112e+2, -218690.38, -307684.34, -4034.2986, 0.00086932996, 0.00027172233, -218507.86, -172557.52 
1.2452615e+3, 3.052984e+2, -138768.84, -174534.39, -1580.9261, 0.0022671798, 0.002373733, -138699.11, -138699.11 
1.2452274e+3, 3.1528875e+2, -152273.92, -180601.36, -1598.925, 0.0022525352, 0.0052468246, -152183.95, -152183.95 
1.2451937e+3, 3.2528394e+2, -95446.94, -43125.297, 638.51056, -0.0034557513, -0.0017157085, -43117.504, -43117.504 
1.2562375e+3, 3.5671672e+1, -2384914.8, -2596461.0, -4891.1377, -0.03370564, -0.00011935775, -2384801.5, 205616.08 
1.2562035e+3, 4.566212e+1, -2306143.3, -2510343.3, -3210.7366, 0.05740995, -0.0022024412, -2306092.8, 186418.56 
1.256168e+3, 5.5652547e+1, -2218580.5, -2417914.5, -3506.8193, -0.009839143, 0.0007931005, -2218518.8, 176086.45 
1.2561329e+3, 6.564271e+1, -2136481.3, -2333284.0, -7112.81, -0.023137387, 0.0027469436, -2136224.5, 160477.13 
1.2560974e+3, 7.563261e+1, -2052614.1, -2242428.0, -7239.015, 0.0052907565, 0.002287374, -2052338.4, 146462.23 
1.2560615e+3, 8.562226e+1, -1971308.5, -2157972.5, -9049.513, 0.010680403, 0.0023813387, -1970870.8, 130031.2 
1.2560254e+3, 9.561168e+1, -1885958.4, -2066340.9, -9227.701, -0.0018997767, 0.0011386158, -1885487.6, 117518.14 
1.2559891e+3, 1.0560085e+2, -1804603.9, -1982019.8, -11066.131, -0.0040293937, 0.0012753522, -1803916.3, 101195.65 
1.2559526e+3, 1.1558976e+2, -1719961.1, -1890673.1, -11127.575, 0.0020166435, 0.0007418039, -1719238.9, 87981.75 
1.2559158e+3, 1.255784e+2, -1638574.4, -1806752.8, -12365.271, 0.002470112, 0.0014702615, -1637670.1, 71661.734 
1.255879e+3, 1.3556679e+2, -1553061.0, -1714866.0, -12589.951, -0.0014722707, 0.0014181318, -1552087.3, 59358.37 
1.2558419e+3, 1.4555493e+2, -1471373.9, -1630395.9, -13468.061, -0.002006872, 0.0024406712, -1470241.4, 43320.535 
1.2558049e+3, 1.5554282e+2, -1386260.4, -1538770.1, -13414.498, 0.00020030583, 0.0025050149, -1385089.4, 30591.176 
1.2557678e+3, 1.6553043e+2, -1304763.6, -1454756.4, -13759.771, 0.0011945263, 0.00273517, -1303511.8, 14290.268 
1.2557307e+3, 1.7551777e+2, -1219226.8, -1362878.9, -13764.781, 0.001258335, 0.0011824184, -1217919.6, 2006.5132 
1.2556934e+3, 1.855048e+2, -1137985.3, -1279505.5, -13885.741, 0.00049195637, 0.0012409273, -1136635.6, -14582.494 
1.2556563e+3, 1.9549157e+2, -1052722.6, -1187714.8, -14022.584, -0.0008956638, 0.0008018225, -1051281.4, -27098.502 
1.2556192e+3, 2.0547807e+2, -971039.56, -1103034.9, -13603.023, -0.00090818264, 0.0020312166, -969652.3, -43337.26 
1.2555823e+3, 2.1546435e+2, -885834.3, -1011316.56, -13539.312, 0.00014730488, 0.0026352175, -884390.06, -55940.543 
1.2555453e+3, 2.2545034e+2, -804227.0, -927241.06, -12664.154, 0.00063451444, 0.0028797165, -802936.8, -72349.91 
1.2555085e+3, 2.3543604e+2, -718501.25, -835144.1, -12543.609, 0.0007005208, 0.0007999833, -717167.56, -84440.63 
1.2554719e+3, 2.4542147e+2, -637199.75, -751625.5, -11298.772, 0.00008192357, 0.0011523215, -636094.75, -101224.99 
1.2554353e+3, 2.5540662e+2, -552002.2, -659598.0, -11321.728, -0.0011101811, 0.0018168815, -550823.75, -113808.555 
1.255399e+3, 2.653915e+2, -470693.84, -575442.1, -9766.286, -0.00046983815, 0.0025953993, -469791.06, -130627.81 
1.255363e+3, 2.7537617e+2, -385562.9, -483338.16, -9748.876, 0.0017134657, 0.0014935741, -384600.34, -143286.67 
1.2553272e+3, 2.8536057e+2, -304024.9, -399064.3, -7322.117, 0.0010377462, 0.0015962744, -303464.1, -159997.39 
1.2552917e+3, 2.953447e+2, -218144.05, -306550.44, -7048.2993, -0.0019157382, 0.0004931356, -217585.64, -171963.63 
1.2552565e+3, 3.0533192e+2, -138849.13, -174709.72, -4928.412, -0.0012884233, 0.0013702082, -138184.13, -138184.13 
1.2552217e+3, 3.1532222e+2, -152286.6, -180684.56, -4928.71, 0.0020834452, 0.0022743433, -151455.5, -151455.5 
1.255187e+3, 3.253176e+2, -93833.12, -39878.01, -2357.5962, -0.00063717883, 0.0014587591, -39775.19, -39775.19 
1.2662569e+3, 3.5706428e+1, -2384496.3, -2597270.5, -918.9968, -0.012514394, -0.003381705, -2384492.3, 205584.86 
1.2662213e+3, 4.5696908e+1, -2294956.8, -2505438.3, -159.88245, 0.025835814, 0.0045668534, -2294956.8, 197213.8 
1.2661853e+3, 5.5687207e+1, -2214935.8, -2416836.5, -499.68103, -0.005120871, 0.0006659506, -2214934.5, 179330.95 
1.2661491e+3, 6.567729e+1, -2135035.8, -2332996.8, -3736.5127, -0.010822962, 0.00054726726, -2134965.3, 161397.33 
1.2661126e+3, 7.5667167e+1, -2049298.6, -2241180.3, -3921.2822, 0.0033856696, 0.0017858142, -2049218.5, 149243.42 
1.266076e+3, 8.565679e+1, -1967755.1, -2156582.3, -5787.904, 0.0058404533, 0.0025475847, -1967577.9, 132985.81 
1.266039e+3, 9.5646155e+1, -1883475.0, -2065460.9, -5959.5923, -0.0011969323, 0.0012045656, -1883280.0, 119387.82 
1.2660018e+3, 1.0563529e+2, -1802276.9, -1981092.0, -7808.6724, -0.0023226975, 0.0014201298, -1801936.5, 102837.79 
1.2659642e+3, 1.1562418e+2, -1717320.5, -1889563.5, -7912.1206, 0.0012783683, 0.0010787817, -1716957.8, 89925.42 
1.2659267e+3, 1.2561281e+2, -1636180.4, -1805760.0, -8955.241, 0.0014655781, 0.0016811553, -1635708.8, 73285.92 
1.265889e+3, 1.3560116e+2, -1551418.0, -1714218.6, -8914.652, -0.0010410344, 0.0013547109, -1550931.3, 60177.49 
1.2658511e+3, 1.4558929e+2, -1470023.5, -1629836.6, -9794.515, -0.0012986306, 0.0022762034, -1469425.5, 43799.652 
1.2658133e+3, 1.5557717e+2, -1384942.0, -1538209.6, -9927.305, 0.0002824652, 0.002296223, -1384301.6, 31042.39 
1.2657753e+3, 1.6556476e+2, -1303775.4, -1454357.6, -10374.267, 0.00093158474, 0.0027508843, -1303064.0, 14401.614 
1.2657371e+3, 1.7555209e+2, -1218841.0, -1362733.6, -10459.009, 0.0008781564, 0.0016510015, -1218084.8, 1505.1096 
1.2656993e+3, 1.8553913e+2, -1137635.5, -1279110.6, -10411.922, 0.00029840416, 0.0017375639, -1136873.4, -15156.566 
1.2656611e+3, 1.955259e+2, -1052243.3, -1187249.0, -10230.582, -0.00067686336, 0.001004699, -1051472.4, -27625.898 
1.2656231e+3, 2.055124e+2, -970674.3, -1102864.8, -9828.076, -0.0007370896, 0.0019151141, -969947.6, -43969.035 
1.2655853e+3, 2.1549867e+2, -885710.9, -1011235.1, -9918.7295, -0.00006892035, 0.0021593224, -884931.94, -56818.715 
1.2655474e+3, 2.2548467e+2, -804549.0, -927251.56, -9173.9795, 0.0004574663, 0.002682754, -803866.9, -73616.38 
1.2655097e+3, 2.3547038e+2, -719596.0, -835550.0, -9235.338, 0.00093222817, 0.0014098602, -718865.06, -86474.6 
1.2654722e+3, 2.4545583e+2, -638544.2, -751966.8, -8007.3105, 0.0002597184, 0.0017351157, -637981.7, -103448.52 
1.2654348e+3, 2.5544098e+2, -553245.9, -659909.1, -7848.758, -0.0014204731, 0.0017002726, -552671.44, -115993.0 
1.2653975e+3, 2.654259e+2, -471903.5, -575823.2, -6222.039, -0.00066632294, 0.0023899407, -471532.28, -132705.95 
1.2653607e+3, 2.7541056e+2, -386664.22, -483671.78, -6158.7017, 0.0021927804, 0.001749086, -386274.78, -145298.14 
1.2653239e+3, 2.85395e+2, -305571.16, -399320.38, -3863.2764, 0.0015498033, 0.0021554604, -305412.22, -162282.86 
1.2652875e+3, 2.953792e+2, -221117.56, -307454.16, -3830.9883, -0.0020464791, 0.0011828301, -220947.89, -175663.66 
1.2652515e+3, 3.0536643e+2, -142229.89, -175907.7, -1712.4194, -0.0017320617, 0.0013973444, -142143.05, -142143.05 
1.2652157e+3, 3.1535676e+2, -155139.53, -181610.89, -1381.2758, 0.0019171549, 0.0009874577, -155067.64, -155067.64 
1.2651801e+3, 3.253522e+2, -96490.29, -40183.367, 941.9299, 0.0001296438, 0.002775441, -40167.613, -40167.613 
1.2762764e+3, 3.5742027e+1, -2384177.8, -2596246.3, 674.3723, 0.041956097, -0.0033161838, -2384175.5, 205552.78 
1.276239e+3, 4.5732564e+1, -2296601.0, -2506973.5, -4286.256, -0.06674166, 0.012062387, -2296513.8, 195307.47 
1.2762028e+3, 5.5722713e+1, -2215448.0, -2417704.8, -4543.2295, 0.011201297, 0.00058025564, -2215346.0, 178571.63 
1.2761658e+3, 6.5712714e+1, -2135035.5, -2333567.5, -6421.7686, 0.026936153, -0.002204418, -2134828.0, 161187.66 
1.2761281e+3, 7.5702554e+1, -2049584.8, -2241900.0, -6635.6704, -0.003937927, -0.000025838617, -2049356.0, 148759.08 
1.2760904e+3, 8.569214e+1, -1968123.8, -2157220.0, -8863.027, -0.010394035, 0.0016528644, -1967709.3, 132507.92 
1.2760526e+3, 9.568148e+1, -1883805.9, -2066086.4, -9027.813, 0.0015442392, 0.001253521, -1883359.8, 118961.914 
1.2760146e+3, 1.05670586e+2, -1802531.5, -1981511.0, -10714.845, 0.0037655246, 0.0021700396, -1801892.4, 102536.12 
1.275976e+3, 1.1565945e+2, -1717551.9, -1889962.1, -10832.036, -0.001408214, 0.0023415848, -1716874.0, 89663.62 
1.2759376e+3, 1.2564807e+2, -1636165.6, -1805614.1, -11952.71, -0.0018780333, 0.00278706, -1635326.6, 73322.45 
1.2758991e+3, 1.3563643e+2, -1551383.6, -1714132.0, -11941.534, 0.0013019489, 0.00181045, -1550512.1, 60251.05 
1.2758604e+3, 1.4562453e+2, -1470318.5, -1630385.1, -12761.468, 0.0018228013, 0.0017726062, -1469307.5, 43572.29 
1.2758215e+3, 1.5561235e+2, -1385228.5, -1538733.9, -12890.699, 0.00030399722, 0.0004630511, -1384153.5, 30845.648 
1.2757826e+3, 1.6559993e+2, -1303954.3, -1454680.1, -13381.666, -0.0005635029, 0.0014841541, -1302775.5, 14345.466 
1.2757437e+3, 1.7558725e+2, -1218962.1, -1362996.1, -13462.347, -0.0009034723, 0.0024701015, -1217714.8, 1530.521 
1.2757048e+3, 1.8557431e+2, -1137259.5, -1278380.5, -13335.419, -0.00047877486, 0.0032031238, -1136010.4, -14638.462 
1.2756659e+3, 1.9556113e+2, -1051928.4, -1186607.5, -13195.897, 0.00062455534, 0.0019554875, -1050647.6, -27146.412 
1.275627e+3, 2.0554763e+2, -970881.75, -1103250.4, -12913.583, 0.0005909988, 0.0017912312, -969633.7, -44000.383 
1.2755883e+3, 2.1553387e+2, -885887.75, -1011588.3, -13001.893, -0.00029702214, 0.00058910495, -884556.94, -56788.684 
1.2755495e+3, 2.2551984e+2, -804659.9, -927443.3, -12273.747, -0.00034937332, 0.0016267707, -803444.94, -73539.24 
1.275511e+3, 2.3550557e+2, -719681.9, -835696.6, -12333.187, 0.00026770888, 0.0023428865, -718385.25, -86339.63 
1.2754725e+3, 2.4549103e+2, -638180.7, -751297.6, -11068.38, 0.00053366774, 0.0027455117, -637107.8, -102919.67 
1.2754342e+3, 2.5547624e+2, -552923.8, -659266.56, -10923.087, 0.0003792597, 0.0011976348, -551813.44, -115480.305 
1.275396e+3, 2.6546118e+2, -471755.0, -575568.1, -9364.828, 0.00020570199, 0.0015979065, -470916.97, -132436.23 
1.2753583e+3, 2.7544585e+2, -386510.8, -483427.47, -9315.245, 0.0001523557, 0.0017446821, -385623.6, -144992.78 
1.2753206e+3, 2.854303e+2, -305447.06, -399104.25, -7224.8413, 0.00018423771, 0.0027671468, -304893.0, -162109.66 
1.2752834e+3, 2.9541448e+2, -220965.44, -307213.44, -7189.7817, 0.00013699959, 0.0023364616, -220370.19, -175432.14 
1.2752463e+3, 3.054018e+2, -141646.75, -174747.84, -4902.7383, 0.0004911967, 0.0024228941, -140935.84, -140935.84 
1.2752096e+3, 3.1539223e+2, -154582.22, -180515.95, -4583.719, 0.0016655268, 0.0012451978, -153795.89, -153795.89 
1.2751731e+3, 3.2538763e+2, -96782.79, -40885.434, -2253.2554, -0.0012209993, 0.002275435, -40794.75, -40794.75 
1.2862955e+3, 3.5778812e+1, -2374644.8, -2591289.3, 2983.1287, 0.02064353, 0.00043785735, -2374603.8, 214764.1 
1.2862575e+3, 4.5769206e+1, -2300026.5, -2509732.8, -319.23334, -0.036486965, 0.0056187483, -2300026.0, 191436.06 
1.2862203e+3, 5.575932e+1, -2211310.8, -2416819.0, -832.39, 0.007572933, 0.0012523605, -2211307.5, 182251.4 
1.2861823e+3, 6.5749276e+1, -2128802.0, -2330876.3, -3065.5945, 0.01604623, 0.00029791033, -2128755.5, 166901.83 
1.2861438e+3, 7.5739044e+1, -2045992.0, -2240516.8, -3247.0247, -0.003140221, 0.00037922876, -2045937.8, 151819.78 
1.286105e+3, 8.5728586e+1, -1965568.0, -2156184.0, -5333.7236, -0.0067453347, 0.0015541415, -1965418.9, 134441.16 
1.2860663e+3, 9.57179e+1, -1881249.1, -2065024.4, -5407.672, 0.0016422693, 0.0018504804, -1881090.1, 120874.65 
1.2860273e+3, 1.05706975e+2, -1800197.1, -1980624.9, -6949.2974, 0.0029456478, 0.002519642, -1799929.9, 104141.95 
1.2859881e+3, 1.15695804e+2, -1715593.3, -1889219.6, -7070.6304, -0.00124742, 0.0018078028, -1715305.8, 90875.57 
1.2859486e+3, 1.256844e+2, -1634360.1, -1804915.5, -8305.327, -0.0016126779, 0.0022284277, -1633956.6, 74336.54 
1.2859091e+3, 1.3567275e+2, -1549689.3, -1713443.0, -8466.737, 0.001039721, 0.0018218606, -1549252.6, 61154.684 
1.2858695e+3, 1.4566082e+2, -1468748.4, -1629651.6, -9234.5625, 0.0015547004, 0.0019196499, -1468220.1, 44304.01 
1.2858298e+3, 1.5564863e+2, -1384004.1, -1538151.4, -9186.362, 0.0004074371, 0.00046206807, -1383458.6, 31184.982 
1.28579e+3, 1.6563618e+2, -1302884.1, -1454185.9, -9526.396, -0.0004374087, 0.0012875724, -1302286.6, 14478.836 
1.2857503e+3, 1.756235e+2, -1217861.1, -1362503.8, -9516.049, -0.0009768012, 0.0020219812, -1217237.8, 1652.1549 
1.2857105e+3, 1.8561056e+2, -1136566.3, -1278067.3, -9541.729, -0.0005701913, 0.002909112, -1135925.6, -14908.959 
1.2856707e+3, 1.9559737e+2, -1051975.3, -1186624.3, -9746.772, 0.000645259, 0.0021368414, -1051273.4, -28127.443 
1.2856309e+3, 2.0558387e+2, -971134.2, -1103271.6, -9499.466, 0.000670985, 0.0020188224, -970454.75, -45176.625 
1.2855911e+3, 2.155701e+2, -886148.25, -1011591.1, -9392.8545, -0.00018318092, 0.0005777116, -885448.9, -58035.773 
1.2855516e+3, 2.2555609e+2, -804853.0, -927390.25, -8511.513, -0.0002576317, 0.0014370339, -804264.56, -74714.09 
1.2855121e+3, 2.3554182e+2, -719832.0, -835633.06, -8399.335, 0.0002776825, 0.0020301414, -719225.94, -87535.59 
1.2854728e+3, 2.4552728e+2, -638730.1, -751361.1, -7204.9683, 0.00058147585, 0.0025315173, -638271.06, -104438.336 
1.2854336e+3, 2.555125e+2, -554176.94, -659685.25, -7277.0137, 0.000627622, 0.0012144726, -553677.44, -117699.805 
1.2853946e+3, 2.6549748e+2, -473336.03, -575958.25, -5746.7393, 0.00024667665, 0.0015989139, -473015.22, -134890.14 
1.2853558e+3, 2.7548218e+2, -388294.97, -483903.84, -5632.2007, -0.00040518932, 0.0015597033, -387964.3, -147689.42 
1.2853174e+3, 2.854666e+2, -307438.3, -399853.06, -3690.839, -0.00011557979, 0.0025762885, -307291.13, -164863.86 
1.2852791e+3, 2.9545087e+2, -223038.72, -308004.06, -3639.4805, 0.00070693746, 0.0023060867, -222883.11, -178301.27 
1.2852411e+3, 3.0543816e+2, -143681.38, -175166.14, -1305.0967, 0.0009091647, 0.0026701384, -143627.36, -143627.36 
1.2852035e+3, 3.1542864e+2, -156828.02, -181046.42, -1232.6653, 0.0013786454, 0.0018771167, -156765.44, -156765.44 
1.285166e+3, 3.254241e+2, -99828.13, -42192.926, 1089.2513, -0.0011935291, 0.0019424928, -42172.344, -42172.344 
1.2963146e+3, 3.581652e+1, -2375783.5, -2590744.5, -5220.4243, -0.0422255, 0.0059674205, -2375657.0, 213341.4 
1.2962769e+3, 4.5806667e+1, -2299760.8, -2511028.3, -2481.0967, 0.067174844, -0.009147581, -2299731.5, 191363.27 
1.2962377e+3, 5.5796814e+1, -2212420.3, -2418617.3, -2973.6948, -0.009562324, 0.0025165812, -2212377.3, 180814.14 
1.2961987e+3, 6.5786725e+1, -2129624.5, -2331735.3, -6497.802, -0.025359673, 0.006136571, -2129415.8, 165874.56 
1.2961595e+3, 7.577642e+1, -2046413.1, -2241166.5, -6653.4404, 0.0032396473, 0.002201103, -2046186.0, 151205.3 
1.29612e+3, 8.576592e+1, -1965665.3, -2156444.8, -8402.773, 0.009643153, 0.00200507, -1965295.9, 134198.38 
1.2960802e+3, 9.5755225e+1, -1881346.1, -2065293.6, -8495.881, -0.00024056861, 0.0028360258, -1880954.6, 120644.42 
1.2960401e+3, 1.05744265e+2, -1800416.0, -1981095.3, -9988.322, -0.0025004852, 0.0026242868, -1799865.5, 103840.89 
1.296e+3, 1.1573304e+2, -1715833.6, -1889720.6, -10113.234, 0.00086543354, 0.000060380182, -1715247.5, 90568.92 
1.2959597e+3, 1.2572159e+2, -1634718.0, -1805545.1, -11326.345, 0.0010376783, 0.00057335454, -1633970.3, 73958.3 
1.2959193e+3, 1.3570991e+2, -1550009.6, -1714042.8, -11479.673, -0.001166332, 0.0015562482, -1549210.1, 60832.984 
1.2958787e+3, 1.45698e+2, -1468717.1, -1629489.9, -12260.803, -0.0011897795, 0.0025686335, -1467787.5, 44372.4 
1.2958382e+3, 1.5568583e+2, -1383941.8, -1537984.0, -12242.334, 0.0005159447, 0.0018495122, -1382974.9, 31304.271 
1.2957977e+3, 1.6567339e+2, -1302887.3, -1454152.9, -12546.885, 0.00083506654, 0.0019311162, -1301853.5, 14547.494 
1.2957568e+3, 1.7566067e+2, -1217908.9, -1362512.6, -12553.596, 0.0001779142, 0.0006586674, -1216827.1, 1698.4332 
1.2957162e+3, 1.8564771e+2, -1136940.6, -1278824.3, -12677.366, -0.00022465538, 0.0013407427, -1135816.8, -15164.075 
1.2956755e+3, 1.9563447e+2, -1052279.8, -1187305.0, -12862.357, -0.00038050112, 0.0017747123, -1051065.4, -28283.094 
1.2956348e+3, 2.05621e+2, -970909.44, -1102827.4, -12533.394, -0.00024986514, 0.0025827491, -969729.2, -44814.77 
1.2955943e+3, 2.1560726e+2, -885935.0, -1011174.25, -12451.16, 0.000115239345, 0.0018564553, -884709.1, -57660.086 
1.2955537e+3, 2.2559327e+2, -804624.8, -926938.75, -11612.09, 0.00047700884, 0.001967932, -803532.2, -74345.94 
1.2955134e+3, 2.3557901e+2, -719626.8, -835211.9, -11527.067, 0.00076460873, 0.0007218996, -718488.5, -87162.55 
1.295473e+3, 2.4556449e+2, -638856.56, -751590.9, -10468.01, 0.00033928663, 0.0013837494, -637892.75, -104424.49 
1.295433e+3, 2.555497e+2, -554249.6, -659872.9, -10534.865, -0.00051992683, 0.0017405271, -553209.1, -117595.99 
1.2953931e+3, 2.6553467e+2, -473036.88, -575411.6, -8931.045, -0.00047926675, 0.0023192244, -472263.6, -134503.11 
1.2953533e+3, 2.755194e+2, -388018.3, -483390.6, -8838.256, 0.00030176534, 0.0012493766, -387206.16, -147296.11 
1.2953138e+3, 2.8550386e+2, -307303.6, -399592.78, -7085.181, 0.00043237963, 0.0017185407, -306762.8, -164700.6 
1.2952746e+3, 2.9548812e+2, -222884.39, -307738.47, -7025.924, -0.00030994273, 0.0012365334, -222306.58, -178089.92 
1.2952358e+3, 3.0547547e+2, -143498.98, -174888.69, -4546.339, -0.00036300172, 0.0022725018, -142853.78, -142853.78 
1.2951972e+3, 3.1546596e+2, -156662.95, -180776.36, -4495.9263, 0.0010686107, 0.0029389139, -155851.97, -155851.97 
1.2951589e+3, 3.2546142e+2, -99383.086, -41274.734, -2346.9583, -0.0000972211, 0.0016811327, -41180.098, -41180.098 
1.3063343e+3, 3.5855073e+1, -2377367.8, -2593633.3, 10.835001, -0.020296894, 0.005389423, -2377367.8, 211252.8 
1.3062954e+3, 4.5845184e+1, -2286280.8, -2504163.8, -824.24207, 0.038062707, -0.0064989817, -2286277.5, 204439.83 
1.3062553e+3, 5.583532e+1, -2209037.0, -2416910.8, -503.4862, -0.0065247193, 0.0025814956, -2209035.8, 183778.34 
1.3062155e+3, 6.582521e+1, -2129535.3, -2331936.0, -2916.1138, -0.015218797, 0.005598652, -2129493.3, 165419.84 
1.3061753e+3, 7.581488e+1, -2043933.0, -2240184.3, -3018.224, 0.0027127797, 0.0024487008, -2043886.6, 153127.89 
1.3061349e+3, 8.5804343e+1, -1962348.1, -2155175.3, -4884.4375, 0.0064691426, 0.0021663127, -1962224.5, 136893.25 
1.3060941e+3, 9.5793605e+1, -1878342.0, -2064123.1, -5084.1826, -0.0005387186, 0.002347805, -1878203.0, 123019.94 
1.3060533e+3, 1.0578261e+2, -1797677.9, -1979900.1, -6537.9644, -0.0018575421, 0.0024849123, -1797443.6, 105886.95 
1.3060121e+3, 1.15771376e+2, -1713543.4, -1888730.9, -6589.162, 0.0011545533, 0.0009911748, -1713295.9, 92144.79 
1.305971e+3, 1.2575991e+2, -1632762.6, -1804651.5, -7629.1353, 0.001211107, 0.0014116886, -1632424.6, 75128.36 
1.3059296e+3, 1.3574821e+2, -1548500.4, -1713324.9, -7574.771, -0.000980917, 0.0014330625, -1548153.0, 61514.77 
1.3058881e+3, 1.4573626e+2, -1467437.6, -1629048.1, -8302.1455, -0.0011558011, 0.0023633277, -1467012.3, 44772.508 
1.3058467e+3, 1.557241e+2, -1382704.0, -1537508.5, -8459.357, 0.000303617, 0.0023003153, -1382243.1, 31661.088 
1.305805e+3, 1.6571164e+2, -1301792.1, -1453595.9, -8864.875, 0.0006794632, 0.0024359177, -1301276.3, 14749.918 
1.3057634e+3, 1.756989e+2, -1217255.9, -1362170.3, -8902.957, 0.00036034963, 0.00075598154, -1216711.0, 1439.8441 
1.3057218e+3, 1.8568595e+2, -1136476.9, -1278566.1, -8885.385, -0.000035484834, 0.0011082741, -1135923.4, -15645.448 
1.3056803e+3, 1.956727e+2, -1051753.6, -1187018.3, -8779.361, -0.00044942988, 0.0012834282, -1051186.1, -28778.426 
1.3056387e+3, 2.0565923e+2, -970481.2, -1102480.1, -8373.538, -0.00031172778, 0.002211855, -969952.1, -45412.32 
1.3055971e+3, 2.1564549e+2, -885828.4, -1010988.0, -8422.426, 0.00023975689, 0.0018847152, -885264.2, -58589.797 
1.3055559e+3, 2.256315e+2, -804952.75, -927075.3, -7780.9224, 0.00047704775, 0.0021695113, -804459.0, -75647.49 
1.3055146e+3, 2.3561724e+2, -720410.8, -835542.06, -7903.6187, 0.00039523456, 0.0009556715, -719870.75, -88919.516 
1.3054733e+3, 2.4560273e+2, -639659.7, -751759.2, -6859.606, 0.0001247502, 0.0015091944, -639241.5, -106147.93 
1.3054323e+3, 2.5558797e+2, -554950.7, -659960.94, -6709.2466, -0.00015712525, 0.0017084765, -554523.75, -119285.414 
1.3053915e+3, 2.6557294e+2, -474031.25, -575671.8, -5093.6177, -0.00021233477, 0.0022727733, -473776.63, -136391.13 
1.3053508e+3, 2.7555767e+2, -389669.16, -483954.16, -5124.6797, -0.000056135443, 0.0012230199, -389391.4, -149856.48 
1.3053104e+3, 2.855422e+2, -308953.34, -400030.72, -3419.1711, 0.00022342644, 0.0018604005, -308825.16, -167138.27 
1.3052702e+3, 2.9552642e+2, -224146.67, -307995.53, -3291.0696, 0.00024528062, 0.001701227, -224017.7, -180176.66 
1.3052304e+3, 3.055138e+2, -145621.97, -175943.33, -977.23486, -0.00021583996, 0.0021820404, -145590.52, -145590.52 
1.3051908e+3, 3.1550425e+2, -160090.25, -182363.58, -1118.3722, -0.000019455443, 0.0014982458, -160034.23, -160034.23 
1.3051514e+3, 3.2549983e+2, -102498.07, -40623.11, 1326.2117, 0.00061096513, 0.0025658924, -40594.7, -40594.7 
1.3163544e+3, 3.5894352e+1, -2378542.0, -2596815.0, 4509.262, 0.047038063, 0.0016890411, -2378449.0, 209786.77 
1.3163136e+3, 4.5884565e+1, -2287606.8, -2503653.5, -5494.4277, -0.071344584, 0.0067865937, -2287467.0, 202864.52 
1.3162735e+3, 5.587465e+1, -2208466.3, -2415462.0, -5104.411, 0.009892526, 0.0017958683, -2208340.5, 184088.13 
1.3162325e+3, 6.586454e+1, -2129156.3, -2332028.3, -5616.5225, 0.026498502, 0.0011061463, -2129000.8, 165526.98 
1.3161911e+3, 7.585422e+1, -2044066.6, -2240566.0, -5773.7847, -0.00265762, 0.0017430511, -2043897.1, 152731.72 
1.3161497e+3, 8.584365e+1, -1962891.6, -2155997.5, -8009.673, -0.009227359, 0.0021653967, -1962560.0, 136172.45 
1.3161081e+3, 9.583285e+1, -1878806.1, -2064897.0, -8205.803, 0.00029555912, 0.00090464525, -1878445.0, 122393.35 
1.3160662e+3, 1.0582185e+2, -1797857.4, -1980116.9, -9638.6875, 0.0027294462, 0.0022434357, -1797349.1, 105597.125 
1.3160244e+3, 1.15810625e+2, -1713692.1, -1888918.4, -9701.327, 0.00007356466, 0.0037826416, -1713156.6, 91899.46 
1.3159822e+3, 1.2579916e+2, -1632724.8, -1804477.8, -10745.803, -0.00035377068, 0.0039855284, -1632055.0, 75113.46 
1.3159399e+3, 1.3578744e+2, -1548409.5, -1713190.5, -10722.123, 0.0008711683, 0.0014324092, -1547714.8, 61568.477 
1.3158974e+3, 1.4577548e+2, -1467742.6, -1629607.1, -11354.021, 0.00076900865, 0.0016036793, -1466950.0, 44450.445 
1.3158551e+3, 1.5576325e+2, -1383015.9, -1538066.1, -11510.765, -0.0002381773, 0.0021116661, -1382166.0, 31354.293 
1.3158126e+3, 1.6575079e+2, -1301887.8, -1453754.6, -11978.662, -0.0005765723, 0.0029003813, -1300948.8, 14693.7 
1.31577e+3, 1.7573808e+2, -1217300.3, -1362261.6, -12031.608, -0.00026083217, 0.0019947821, -1216308.4, 1458.6593 
1.3157275e+3, 1.8572511e+2, -1136259.8, -1278145.9, -11992.453, -0.000051170293, 0.0019282808, -1135253.3, -15359.113 
1.315685e+3, 1.9571188e+2, -1051562.6, -1186635.9, -11913.228, 0.00016095488, 0.000731039, -1050520.0, -28496.277 
1.3156426e+3, 2.0569842e+2, -970551.94, -1102643.0, -11539.513, 0.00024057599, 0.0011794468, -969551.44, -45395.645 
1.3156003e+3, 2.1568467e+2, -885896.4, -1011155.44, -11593.774, 0.00015882548, 0.0009903293, -884832.3, -58541.887 
1.3155578e+3, 2.2567067e+2, -805133.75, -927477.0, -11008.083, -0.00018232585, 0.0021944942, -804151.2, -75723.49 
1.3155156e+3, 2.3565638e+2, -720563.44, -835897.2, -11123.663, -0.0007651889, 0.002534032, -719500.4, -88932.78 
1.3154735e+3, 2.4564187e+2, -639316.44, -751128.56, -10067.651, -0.000107300744, 0.0027363051, -638417.2, -105707.35 
1.3154314e+3, 2.5562713e+2, -554609.9, -659369.75, -9951.239, 0.0014175738, 0.0012221265, -553673.0, -118818.7 
1.3153897e+3, 2.6561213e+2, -474010.06, -575657.7, -8457.634, 0.0007455864, 0.0016445065, -473311.16, -136309.84 
1.3153481e+3, 2.755969e+2, -389628.9, -483899.03, -8480.934, -0.0014492227, 0.0015118399, -388872.0, -149721.36 
1.3153067e+3, 2.855814e+2, -308651.25, -399510.38, -6692.827, -0.000676794, 0.002945348, -308160.9, -166858.56 
1.3152657e+3, 2.9556572e+2, -223884.72, -307537.6, -6585.8423, 0.002112337, 0.0035815139, -223369.39, -179913.34 
1.3152249e+3, 3.0555305e+2, -145800.22, -176389.02, -4594.0786, 0.0010724645, 0.0023495883, -145125.14, -145125.14 
1.3151844e+3, 3.1554344e+2, -160130.4, -182543.13, -4711.813, -0.0018965614, -0.002384112, -159180.14, -159180.14 
1.315144e+3, 3.255393e+2, -100311.74, -36166.254, -2304.4001, 0.0007500818, 0.0047349622, -36083.58, -36083.58 
1.3263744e+3, 3.5935012e+1, -2365572.5, -2591454.0, 5485.5986, 0.02649538, 0.00011473724, -2365439.3, 222397.86 
1.3263327e+3, 4.5925212e+1, -2296051.5, -2508330.5, 31.791595, -0.04333302, 0.010330029, -2296051.5, 193881.89 
1.3262914e+3, 5.59152e+1, -2204077.3, -2413955.5, -520.9739, 0.006793269, 0.0012776214, -2204075.8, 187955.42 
1.3262495e+3, 6.5905035e+1, -2121642.0, -2328688.8, -2187.422, 0.017094642, -0.00029654687, -2121618.8, 172512.13 
1.3262072e+3, 7.5894684e+1, -2040515.3, -2239155.0, -2398.9343, -0.0019598098, 0.0018157598, -2040486.3, 155746.02 
1.3261648e+3, 8.5884094e+1, -1960932.5, -2155221.8, -4290.753, -0.006111348, 0.0027119634, -1960837.8, 137498.38 
1.3261221e+3, 9.587326e+1, -1876879.8, -2064108.1, -4322.0024, 0.0006202977, 0.0012309258, -1876780.0, 123662.31 
1.3260795e+3, 1.0586223e+2, -1795974.9, -1979204.4, -5674.3916, 0.0021099914, 0.0020684327, -1795799.3, 106751.086 
1.3260365e+3, 1.15851e+2, -1711988.5, -1888113.1, -5719.619, -0.00024675968, 0.0028981008, -1711803.0, 92857.5 
1.3259934e+3, 1.2583952e+2, -1631011.4, -1803865.5, -6778.634, -0.00048328057, 0.0033861937, -1630746.0, 76027.04 
1.3259502e+3, 1.3582778e+2, -1546416.5, -1712397.4, -6983.983, 0.0009287306, 0.0019040146, -1546123.1, 62764.918 
1.325907e+3, 1.4581579e+2, -1465863.8, -1628677.0, -7625.0063, 0.0008563527, 0.0019676033, -1465507.5, 45497.945 
1.3258636e+3, 1.5580356e+2, -1381789.3, -1537464.3, -7553.8115, -0.00025831652, 0.0014520255, -1381423.5, 31701.848 
1.3258202e+3, 1.6579108e+2, -1300980.6, -1453354.5, -7876.4824, -0.0005426677, 0.0022062727, -1300574.6, 14673.05 
1.3257767e+3, 1.7577834e+2, -1216376.0, -1361842.0, -7932.5283, -0.00011220281, 0.0020486668, -1215944.8, 1427.5781 
1.3257332e+3, 1.8576539e+2, -1135457.9, -1277697.5, -8003.8096, -0.000008516649, 0.0023941079, -1135008.9, -15509.43 
1.3256899e+3, 1.9575216e+2, -1051070.0, -1186359.4, -8104.408, -0.000032991626, 0.0013980158, -1050586.3, -28957.168 
1.3256465e+3, 2.0573866e+2, -970352.8, -1102524.1, -7785.3457, 0.00004034612, 0.0016020637, -969895.8, -46134.61 
1.3256031e+3, 2.1572492e+2, -885985.2, -1011153.06, -7792.049, 0.00015218837, 0.0008573202, -885502.0, -59606.04 
1.3255598e+3, 2.2571093e+2, -805315.9, -927256.2, -7054.904, -0.000023992598, 0.0018579408, -804909.06, -76875.9 
1.3255167e+3, 2.3569667e+2, -720939.3, -835794.2, -6853.436, -0.00042664216, 0.002205331, -720531.8, -90358.94 
1.3254736e+3, 2.4568217e+2, -639927.8, -751374.8, -5767.9014, 0.000010921299, 0.0025847615, -639630.06, -107315.06 
1.3254307e+3, 2.5566742e+2, -555278.56, -659606.8, -5922.067, 0.000933523, 0.0014188441, -554943.44, -120483.984 
1.3253881e+3, 2.6565245e+2, -474854.06, -575884.44, -4640.132, 0.0003974512, 0.0018980541, -474641.38, -138034.95 
1.3253455e+3, 2.756372e+2, -390908.44, -484311.66, -4564.023, -0.0010927004, 0.0016656652, -390685.94, -151930.28 
1.3253032e+3, 2.8562173e+2, -310240.9, -399844.38, -2636.774, -0.00016712691, 0.0025093989, -310163.38, -169256.22 
1.3252611e+3, 2.9560608e+2, -225932.05, -308114.94, -2546.1672, 0.0023864643, 0.0021602598, -225853.23, -182792.61 
1.3252194e+3, 3.0559343e+2, -148005.27, -177148.38, -554.4636, 0.00066777074, 0.0020686036, -147994.72, -147994.72 
1.3251777e+3, 3.1558388e+2, -161940.48, -183073.55, -324.0209, -0.0032141113, 0.000080045924, -161935.52, -161935.52 
1.3251364e+3, 3.255797e+2, -102609.43, -36629.12, 902.9723, 0.001797087, 0.0033985637, -36616.766, -36616.766 
1.3363943e+3, 3.5976723e+1, -2367727.8, -2591185.5, -8133.152, -0.040637888, -0.00039314906, -2367432.0, 219996.34 
1.3363522e+3, 4.5966855e+1, -2294911.3, -2509464.8, -1283.0652, 0.06459263, 0.008070433, -2294903.5, 194621.64 
1.3363093e+3, 5.5956715e+1, -2205545.5, -2416118.5, -1958.6394, -0.00938026, 0.0010017463, -2205527.3, 186097.14 
1.3362664e+3, 6.5946466e+1, -2122940.3, -2329862.3, -6022.7764, -0.02364026, 0.00027095998, -2122765.0, 170959.88 
1.3362233e+3, 7.593607e+1, -2040980.9, -2239887.0, -6167.6865, 0.0029233738, 0.0023885192, -2040789.9, 155036.97 
1.3361801e+3, 8.5925454e+1, -1960901.4, -2155213.0, -7398.1924, 0.008792171, 0.0036480753, -1960620.1, 137310.7 
1.3361365e+3, 9.591462e+1, -1876934.4, -2064164.3, -7442.5854, 0.0004073158, 0.0027392453, -1876639.0, 123397.92 
1.3360927e+3, 1.0590357e+2, -1796051.1, -1979383.4, -8836.786, -0.0019461018, 0.0019415325, -1795626.3, 106518.99 
1.3360487e+3, 1.1589229e+2, -1712054.5, -1888333.6, -8901.656, -0.00007700053, -0.00045733358, -1711606.1, 92649.59 
1.3360047e+3, 1.2588078e+2, -1631411.4, -1804618.1, -9820.973, 0.00028408866, 0.0006859657, -1630856.3, 75512.3 
1.3359606e+3, 1.3586904e+2, -1546861.3, -1713151.3, -10029.07, -0.000362818, 0.0027509823, -1546258.6, 62225.188 
1.3359164e+3, 1.4585704e+2, -1465814.1, -1628420.6, -10818.425, -0.00042068728, 0.0031539663, -1465097.5, 45503.69 
1.3358721e+3, 1.5584481e+2, -1381676.5, -1537214.8, -10772.488, 0.000041856823, 0.00048146548, -1380933.9, 31787.281 
1.3358277e+3, 1.6583233e+2, -1301054.4, -1453513.3, -11001.185, 0.0003633044, 0.0007167172, -1300264.6, 14578.814 
1.3357835e+3, 1.7581958e+2, -1216477.8, -1362016.0, -11069.834, 0.00055194786, 0.0012820552, -1215640.5, 1327.7189 
1.335739e+3, 1.8580662e+2, -1135657.4, -1278074.0, -11191.127, 0.000016414935, 0.002678973, -1134783.3, -15687.851 
1.3356946e+3, 1.9579336e+2, -1051237.9, -1186692.9, -11291.253, -0.00091728807, 0.0030450458, -1050303.1, -29077.979 
1.3356504e+3, 2.0577988e+2, -970331.6, -1102522.8, -10988.129, -0.00081149425, 0.003188871, -969424.5, -46067.06 
1.3356061e+3, 2.1576612e+2, -885935.0, -1011095.8, -11009.855, 0.00011328088, 0.0013618568, -884973.94, -59481.63 
1.3355619e+3, 2.2575213e+2, -804878.06, -926427.44, -10324.13, 0.0007115538, 0.0012654399, -804007.4, -76378.1 
1.3355178e+3, 2.3573792e+2, -720524.94, -835025.7, -10154.263, 0.0010525954, 0.0003696169, -719631.44, -89862.89 
1.3354738e+3, 2.4572344e+2, -640129.4, -751779.44, -9034.911, 0.00030117025, 0.0013983606, -639403.0, -107492.484 
1.33543e+3, 2.5570866e+2, -555466.8, -659993.44, -9182.5625, -0.0014229846, 0.002253, -554666.25, -120611.164 
1.3353863e+3, 2.656937e+2, -474658.8, -575507.7, -8114.528, -0.0011515141, 0.0029434685, -474010.1, -137808.06 
1.3353428e+3, 2.7567846e+2, -390666.9, -483905.84, -8039.1836, 0.00077554147, 0.001746407, -389978.8, -151627.73 
1.3352996e+3, 2.8566304e+2, -309950.1, -399287.97, -6034.5435, 0.0015179687, 0.00076780695, -309544.3, -169041.88 
1.3352564e+3, 2.9564738e+2, -225648.89, -307539.03, -5964.3267, 0.0010374577, -0.0021978298, -225216.77, -182560.92 
1.3352136e+3, 3.0563483e+2, -147474.17, -176150.6, -4077.6587, -0.0013864916, 0.0015307178, -146905.61, -146905.61 
1.335171e+3, 3.1562543e+2, -161499.06, -182276.02, -3864.0566, -0.0040417174, 0.008591856, -160803.7, -160803.7 
1.3351288e+3, 3.2562104e+2, -103883.26, -39435.023, -3155.7698, 0.0034274845, -0.0015456715, -39280.867, -39280.867 
1.3464144e+3, 3.6019334e+1, -2373368.0, -2593629.0, -1516.8425, -0.026237728, 0.0007365423, -2373357.8, 213653.11 
1.3463715e+3, 4.6009418e+1, -2275796.5, -2500266.0, 227.2772, 0.044809606, 0.0031229605, -2275796.3, 213311.67 
1.3463275e+3, 5.599931e+1, -2203868.3, -2415645.5, 332.12463, -0.006409822, 0.0017187995, -2203867.5, 187339.39 
1.3462836e+3, 6.5989035e+1, -2125612.3, -2331384.8, -2107.0354, -0.016397284, 0.0020875556, -2125590.8, 167716.97 
1.3462396e+3, 7.597859e+1, -2038668.5, -2238923.0, -2180.7546, 0.00211084, 0.0021376126, -2038644.8, 156765.3 
1.3461953e+3, 8.596796e+1, -1956870.9, -2153213.8, -3651.6465, 0.0063242195, 0.0028293738, -1956803.0, 140711.23 
1.3461506e+3, 9.595713e+1, -1873930.4, -2062677.4, -3652.987, 0.00041805935, 0.002411677, -1873859.6, 125760.7 
1.346106e+3, 1.0594606e+2, -1793674.0, -1978548.6, -4950.349, -0.0012775044, 0.0020687536, -1793541.5, 108187.305 
1.3460612e+3, 1.1593474e+2, -1709531.4, -1887396.9, -5160.978, 0.000026881058, 0.000095481024, -1709381.8, 94458.02 
1.3460161e+3, 1.2592322e+2, -1629298.4, -1803528.5, -6000.993, 0.00026663585, 0.00087981456, -1629091.9, 76860.88 
1.3459711e+3, 1.3591143e+2, -1545849.0, -1712601.5, -5909.3936, -0.00020776542, 0.0021203193, -1545639.9, 62428.285 
1.345926e+3, 1.4589944e+2, -1464915.4, -1628046.9, -6559.2285, -0.00032157646, 0.0026579848, -1464652.0, 45533.68 
1.3458808e+3, 1.5588719e+2, -1380260.8, -1536543.5, -6684.568, -0.000026946107, 0.00072938186, -1379975.4, 32330.396 
1.3458355e+3, 1.6587469e+2, -1299708.8, -1452841.3, -6994.7026, 0.0002294655, 0.0011302197, -1299389.9, 15038.206 
1.3457902e+3, 1.7586195e+2, -1215673.3, -1361619.0, -7013.3613, 0.00045391903, 0.0015092912, -1215337.0, 1216.0258 
1.3457447e+3, 1.8584897e+2, -1135087.5, -1277700.1, -7004.4805, 0.0001469488, 0.0023152102, -1134744.3, -16064.02 
1.3456994e+3, 1.9583572e+2, -1050764.9, -1186388.9, -6934.3276, -0.00046792376, 0.0018206211, -1050411.3, -29601.096 
1.3456543e+3, 2.0582221e+2, -970042.5, -1102289.9, -6567.9224, -0.00046114696, 0.0022881469, -969717.1, -46774.734 
1.345609e+3, 2.1580847e+2, -885867.56, -1010965.2, -6569.1646, 0.000021458432, 0.0016544351, -885523.5, -60446.406 
1.345564e+3, 2.257945e+2, -804964.75, -926501.7, -6098.6377, 0.00044811875, 0.0018814412, -804659.5, -77445.36 
1.3455188e+3, 2.3578027e+2, -720602.4, -835045.56, -6343.3433, 0.0007995857, 0.0007021546, -720251.9, -90898.336 
1.3454738e+3, 2.4576578e+2, -640438.3, -751630.9, -5273.032, 0.00021885298, 0.0013329388, -640188.8, -108693.34 
1.3454293e+3, 2.5575104e+2, -556603.8, -660225.06, -5078.5317, -0.001063853, 0.0016651059, -556355.5, -122715.555 
1.3453846e+3, 2.6573607e+2, -475852.78, -575769.44, -3883.722, -0.0006605559, 0.002351714, -475702.03, -139915.39 
1.34534e+3, 2.757209e+2, -391363.2, -483919.34, -3819.9724, 0.0011057256, 0.0016051799, -391205.78, -153270.34 
1.3452958e+3, 2.8570545e+2, -311068.8, -399652.25, -2018.2737, 0.0013707068, 0.0009875889, -311022.88, -170936.19 
1.3452516e+3, 2.9568982e+2, -227553.16, -308251.7, -2157.614, 0.00018261264, -0.0016987831, -227495.52, -185255.52 
1.3452078e+3, 3.056773e+2, -149229.31, -176228.03, -350.23627, -0.0014954347, 0.001543904, -149224.77, -149224.77 
1.3451645e+3, 3.1566793e+2, -163062.9, -182340.4, -216.50699, -0.0024246012, 0.007680676, -163060.47, -163060.47 
1.345121e+3, 3.2566357e+2, -105473.84, -40512.555, 652.96234, 0.0029597355, -0.0023167739, -40505.992, -40505.992 
1.356435e+3, 3.6062717e+1, -2371379.8, -2591433.0, 8148.0103, 0.030095046, 0.0026109866, -2371078.5, 215507.13 
1.3563906e+3, 4.6052778e+1, -2278935.5, -2501279.8, -5824.95, -0.050540905, -0.003143987, -2278783.0, 209900.0 
1.3563459e+3, 5.604279e+1, -2203352.8, -2414793.5, -5394.9424, 0.009041835, 0.003083158, -2203215.3, 187565.66 
1.356301e+3, 6.603254e+1, -2124687.3, -2331086.5, -4444.935, 0.019559287, 0.004658098, -2124591.8, 168289.67 
1.3562559e+3, 7.602204e+1, -2038843.5, -2239172.5, -4633.8203, -0.0027028364, 0.0013689616, -2038736.4, 156247.77 
1.3562106e+3, 8.60114e+1, -1957242.6, -2153359.5, -7029.445, -0.0070649963, 0.0009351689, -1956991.0, 140097.55 
1.3561651e+3, 9.600057e+1, -1874090.1, -2062800.1, -7057.8647, 0.0006427751, 0.0009177295, -1873826.5, 125368.07 
1.3561194e+3, 1.05989486e+2, -1794155.3, -1979375.5, -8086.4287, 0.002376917, 0.0024236734, -1793802.9, 107500.375 
1.3560736e+3, 1.15978144e+2, -1710016.5, -1888106.1, -8289.584, -0.000022450457, 0.0033061372, -1709631.5, 93782.93 
1.3560276e+3, 1.259666e+2, -1629188.1, -1803160.4, -9311.744, -0.00030688953, 0.003045242, -1628691.1, 76836.41 
1.3559815e+3, 1.3595481e+2, -1545640.6, -1712261.4, -9230.41, 0.00089938927, 0.00045824077, -1545130.9, 62512.1 
1.3559355e+3, 1.459428e+2, -1465106.6, -1628477.9, -9623.018, 0.00065768807, 0.0010334117, -1464541.8, 45218.844 
1.3558893e+3, 1.5593056e+2, -1380515.0, -1536984.1, -9774.356, -0.00043193944, 0.0019084071, -1379906.9, 31973.918 
1.3558431e+3, 1.6591807e+2, -1299804.3, -1452890.3, -10246.435, -0.0007242169, 0.002974693, -1299121.5, 14881.681 
1.3557969e+3, 1.759053e+2, -1215718.3, -1361633.6, -10272.484, -0.000297639, 0.0024854061, -1214998.6, 1129.5244 
1.3557506e+3, 1.8589231e+2, -1134940.3, -1277405.9, -10227.303, 0.00027277519, 0.0014756552, -1134209.8, -15954.232 
1.3557044e+3, 1.9587906e+2, -1050607.8, -1186098.4, -10184.117, 0.0009348346, -0.0015668595, -1049846.5, -29461.13 
1.3556582e+3, 2.0586559e+2, -970008.4, -1102214.1, -9865.64, 0.00073862396, -0.0004370391, -969276.25, -46758.766 
1.355612e+3, 2.1585187e+2, -885841.3, -1010946.3, -9875.268, -0.00018294959, 0.0018855719, -885066.56, -60414.668 
1.355566e+3, 2.2583786e+2, -805360.9, -927361.75, -9383.377, -0.00069851207, 0.0035488876, -804643.4, -77854.23 
1.3555199e+3, 2.3582357e+2, -720917.25, -835750.94, -9626.942, -0.0009826523, 0.002876767, -720115.8, -91186.71 
1.355474e+3, 2.458091e+2, -639965.94, -750710.5, -8720.994, -0.00020857077, 0.0022525692, -639283.4, -108212.35 
1.3554282e+3, 2.5579438e+2, -556136.56, -659327.3, -8545.889, 0.0015361757, -0.00009337436, -555433.6, -122218.51 
1.3553827e+3, 2.6577944e+2, -475653.53, -575408.0, -7252.804, 0.0014283963, 0.0004458573, -475128.97, -139767.55 
1.3553372e+3, 2.7576432e+2, -391177.13, -483617.6, -7208.212, -0.0000394749, 0.0013267476, -390618.44, -153108.56 
1.355292e+3, 2.857489e+2, -311151.22, -399951.47, -5660.315, -0.0004509055, 0.0030288848, -310791.84, -171130.94 
1.3552469e+3, 2.9573327e+2, -227603.45, -308452.5, -5772.3354, -0.0003436057, 0.0032357944, -227193.4, -185379.22 
1.3552022e+3, 3.0572075e+2, -148768.22, -175378.4, -3812.2568, 0.00007029575, 0.001992369, -148232.84, -148232.84 
1.3551576e+3, 3.1571132e+2, -162591.42, -181471.16, -3695.989, 0.0014730612, -0.0019988792, -161893.66, -161893.66 
1.3551131e+3, 3.257072e+2, -104522.43, -38706.83, -3163.3801, 0.00011446615, 0.0011755107, -38555.133, -38555.133 
1.3664554e+3, 3.6107528e+1, -2355638.0, -2584869.3, 7350.0728, 0.020438978, 0.0028311817, -2355402.8, 230743.77 
1.3664098e+3, 4.609753e+1, -2295344.0, -2509593.5, 29.943642, -0.037683297, -0.0024222715, -2295344.0, 192900.22 
1.3663642e+3, 5.608748e+1, -2197178.3, -2412194.3, -235.83183, 0.0070852423, 0.0019059603, -2197177.8, 193165.0 
1.3663185e+3, 6.60772e+1, -2113980.8, -2325896.8, -1015.7486, 0.015239113, 0.003430938, -2113975.8, 178467.83 
1.3662723e+3, 7.60667e+1, -2036037.1, -2237842.5, -1119.2435, -0.0021846786, 0.0011331366, -2036030.9, 158515.6 
1.366226e+3, 8.6056024e+1, -1956957.8, -2153655.3, -3040.1729, -0.0056648003, 0.0009856285, -1956910.9, 139740.34 
1.3661794e+3, 9.604514e+1, -1872384.1, -2062324.6, -3330.9392, 0.00050051085, 0.00087839516, -1872325.8, 126432.05 
1.3661328e+3, 1.0603404e+2, -1792066.1, -1978151.8, -4329.5674, 0.001989553, 0.0021846748, -1791965.5, 108901.1 
1.366086e+3, 1.16022706e+2, -1708773.6, -1887345.1, -4172.971, 0.0001977864, 0.0029211987, -1708676.3, 94301.5 
1.3660392e+3, 1.2601115e+2, -1627875.9, -1802534.4, -5060.8525, -0.00013204908, 0.0028887643, -1627729.3, 77361.586 
1.3659921e+3, 1.3599935e+2, -1543351.3, -1711192.4, -5199.0176, 0.0006348243, 0.0005979275, -1543190.3, 64016.1 
1.365945e+3, 1.4598735e+2, -1463129.0, -1627522.0, -5614.181, 0.00050728524, 0.00118417, -1462937.4, 46386.758 
1.365898e+3, 1.5597509e+2, -1379652.9, -1536572.6, -5619.364, -0.00018703981, 0.0020505823, -1379451.9, 31992.533 
1.3658509e+3, 1.6596258e+2, -1299223.3, -1452568.1, -5985.8057, -0.0004355133, 0.0027817392, -1298990.0, 14576.96 
1.3658036e+3, 1.7594981e+2, -1214997.8, -1361225.4, -5992.1, -0.00016045486, 0.0016438231, -1214752.6, 939.396 
1.3657564e+3, 1.8593681e+2, -1134226.0, -1277016.9, -5976.82, 0.0002744299, 0.0012698951, -1133976.3, -16156.825 
1.3657092e+3, 1.9592357e+2, -1049966.3, -1185740.6, -6069.9927, 0.00080216845, -0.00024595237, -1049695.4, -29746.178 
1.365662e+3, 2.0591009e+2, -969469.75, -1101873.6, -5874.437, 0.00056903384, 0.0006742947, -969209.6, -47128.234 
1.365615e+3, 2.1589635e+2, -885494.94, -1010681.75, -5895.5923, -0.00029172454, 0.001621601, -885217.94, -61001.934 
1.3655679e+3, 2.2588234e+2, -805197.2, -927160.25, -5164.5835, -0.0005598314, 0.002783676, -804978.9, -78625.555 
1.365521e+3, 2.3586805e+2, -721002.6, -835685.1, -5013.945, -0.000509844, 0.0022935115, -720783.8, -92290.6 
1.3654742e+3, 2.4585357e+2, -640298.8, -750768.06, -4306.4097, 0.00014090477, 0.0021105881, -640131.2, -109496.08 
1.3654274e+3, 2.5583887e+2, -556660.8, -659484.7, -4506.767, 0.0014635931, 0.00036951608, -556463.7, -123684.55 
1.3653807e+3, 2.6582393e+2, -476368.34, -575648.1, -3325.074, 0.0013224357, 0.0007362226, -476257.1, -141331.63 
1.3653344e+3, 2.7580878e+2, -392003.38, -483882.53, -3449.009, 0.00007113104, 0.0008543004, -391874.1, -154800.1 
1.365288e+3, 2.857934e+2, -312014.7, -399946.72, -2041.2118, -0.0005179317, 0.0029870435, -311967.34, -172742.5 
1.365242e+3, 2.957778e+2, -228836.98, -308630.9, -1790.1525, -0.0006917727, 0.004507097, -228796.84, -187419.17 
1.3651963e+3, 3.0576527e+2, -150948.38, -176254.97, 178.12872, 0.0006574374, 0.0017620904, -150947.11, -150947.11 
1.3651508e+3, 3.1575587e+2, -165877.11, -182779.97, -51.687798, 0.0035917573, -0.0058376463, -165876.95, -165876.95 
1.3651052e+3, 3.2575184e+2, -105482.836, -37569.32, 595.89703, -0.0019312861, 0.003889853, -37564.094, -37564.094 
1.3764761e+3, 3.6153424e+1, -2359847.0, -2588116.3, -12191.86, -0.023104493, 0.0023669144, -2359197.8, 226498.89 
1.3764292e+3, 4.6143365e+1, -2292284.5, -2509152.8, 345.8744, 0.036279038, 0.0023763613, -2292283.8, 195511.34 
1.3763829e+3, 5.6133145e+1, -2198589.8, -2413721.8, -413.19183, -0.006255346, -0.00081517966, -2198589.0, 191306.33 
1.3763359e+3, 6.612281e+1, -2115639.3, -2326858.3, -5663.0513, -0.01330562, 0.000002964814, -2115487.5, 176509.08 
1.3762887e+3, 7.6112336e+1, -2036265.1, -2238179.3, -5606.385, 0.0019089984, 0.0012846373, -2036109.6, 157989.67 
1.3762414e+3, 8.6101615e+1, -1957242.3, -2154618.0, -6003.6704, 0.0048093507, 0.0022859038, -1957059.8, 139144.52 
1.3761939e+3, 9.609066e+1, -1872889.3, -2063236.4, -6287.761, -0.00005999211, 0.0017827355, -1872681.9, 125629.88 
1.3761464e+3, 1.0607954e+2, -1791833.3, -1977504.0, -7616.2305, -0.0010450805, 0.0015615626, -1791521.3, 108899.336 
1.3760985e+3, 1.1606823e+2, -1708487.5, -1886764.9, -7494.301, 0.00055899477, 0.00013531055, -1708173.0, 94358.5 
1.3760507e+3, 1.2605669e+2, -1628144.1, -1803081.3, -8114.091, 0.0004592151, 0.0012320003, -1627768.5, 76876.1 
1.3760027e+3, 1.3604489e+2, -1543703.5, -1711696.6, -8286.48, -0.00066510256, 0.00203438, -1543295.8, 63464.44 
1.3759547e+3, 1.4603287e+2, -1463187.6, -1627471.5, -8958.62, -0.00048380782, 0.0025757279, -1462700.6, 46177.54 
1.3759066e+3, 1.5602058e+2, -1379611.1, -1536461.8, -8963.924, 0.000459906, 0.0014217154, -1379100.6, 31897.877 
1.3758585e+3, 1.6600807e+2, -1299198.4, -1452593.5, -9192.573, 0.0006687545, 0.0011319906, -1298649.5, 14471.588 
1.3758104e+3, 1.759953e+2, -1214978.6, -1361259.0, -9215.047, 0.00054487603, -0.00047670907, -1214400.4, 845.87964 
1.3757622e+3, 1.8598232e+2, -1134348.6, -1277329.8, -9205.072, 0.0000963627, 0.0016509561, -1133758.5, -16384.957 
1.3757141e+3, 1.9596909e+2, -1050092.9, -1186043.0, -9301.695, -0.00059377484, 0.004730458, -1049459.4, -29956.215 
1.375666e+3, 2.0595558e+2, -969485.2, -1101951.1, -9190.47, -0.0007402053, 0.0047400543, -968850.6, -47215.113 
1.375618e+3, 2.159418e+2, -885443.06, -1010675.06, -9223.02, -0.00038798508, 0.00095043896, -884767.44, -60996.895 
1.37557e+3, 2.259278e+2, -804802.06, -926370.6, -8507.485, 0.00051522354, 0.00012568131, -804209.6, -78301.86 
1.375522e+3, 2.3591357e+2, -720676.2, -835019.3, -8396.734, 0.0016801727, -0.00047176876, -720062.9, -92015.734 
1.3754742e+3, 2.458991e+2, -640555.7, -751449.06, -7848.6045, 0.0010252849, 0.0012069637, -640002.94, -109813.96 
1.3754264e+3, 2.5588438e+2, -556841.9, -660085.6, -8028.0547, -0.0010298844, 0.0027684872, -556221.3, -123888.2 
1.375379e+3, 2.658694e+2, -476427.22, -575924.3, -6705.77, -0.0007831508, 0.0029411507, -475977.28, -141497.47 
1.3753316e+3, 2.7585423e+2, -392047.78, -484046.47, -6854.813, 0.0012570228, 0.00027409295, -391539.84, -154911.03 
1.3752843e+3, 2.8583887e+2, -311426.0, -398833.2, -5763.0815, 0.0009171125, 0.0011630752, -311047.66, -172268.3 
1.3752371e+3, 2.9582334e+2, -228262.48, -307622.0, -5525.849, -0.0010587083, 0.0025555054, -227879.56, -186948.13 
1.3751903e+3, 3.058108e+2, -151129.55, -176812.8, -3591.1792, 0.00018285002, 0.0010637625, -150636.86, -150636.86 
1.3751437e+3, 3.1580138e+2, -165971.23, -183146.61, -3755.7944, 0.0039923163, -0.004210019, -165185.86, -165185.86 
1.3750973e+3, 3.2579744e+2, -104347.98, -35375.707, -2280.6274, -0.003457297, 0.0059717908, -35300.38, -35300.38 
1.3864966e+3, 3.6200348e+1, -2368132.3, -2594090.3, -4028.2002, -0.017374622, 0.001215113, -2368060.5, 217176.27 
1.386449e+3, 4.6190217e+1, -2265906.3, -2496500.3, 2238.2249, 0.031608384, 0.0017681025, -2265884.8, 221451.39 
1.3864014e+3, 5.6179976e+1, -2199469.3, -2414542.0, 1958.0885, -0.006203796, -0.00021855484, -2199451.5, 189984.94 
1.3863535e+3, 6.616962e+1, -2121813.0, -2330003.0, -1645.9143, -0.0121604, 0.00036468168, -2121800.0, 169737.84 
1.3863052e+3, 7.61591e+1, -2033412.5, -2236884.3, -1680.8036, 0.0018357671, 0.00069182843, -2033398.6, 160242.3 
1.386257e+3, 8.6148375e+1, -1952181.5, -2151928.5, -2173.6375, 0.0045494656, 0.0015777602, -1952157.9, 143588.16 
1.3862085e+3, 9.6137434e+1, -1870421.9, -2061805.4, -1969.1487, 0.000019563211, 0.001425454, -1870401.6, 127451.68 
1.38616e+3, 1.06126316e+2, -1790113.5, -1976820.5, -3115.7612, -0.0010383956, 0.0013303523, -1790061.5, 109900.76 
1.3861111e+3, 1.16114974e+2, -1706083.8, -1885730.4, -3348.8242, 0.00022983494, -0.000135518, -1706021.4, 96052.02 
1.3860622e+3, 1.2610342e+2, -1626215.8, -1802164.3, -4015.6736, 0.00024815282, 0.0009917277, -1626124.1, 78062.58 
1.3860135e+3, 1.3609162e+2, -1543035.5, -1711374.9, -4029.4475, -0.0004771936, 0.0019627924, -1542939.0, 63363.367 
1.3859643e+3, 1.4607957e+2, -1462578.0, -1627075.1, -4582.301, -0.0003145925, 0.002391148, -1462450.5, 45969.875 
1.3859153e+3, 1.560673e+2, -1378310.0, -1535724.9, -4611.684, 0.00042710695, 0.00089842116, -1378175.0, 32365.734 
1.3858663e+3, 1.6605477e+2, -1297775.0, -1451865.3, -4820.3286, 0.00059385673, 0.0010161119, -1297624.4, 15039.025 
1.3858171e+3, 1.7604199e+2, -1213779.8, -1360626.0, -4845.091, 0.00045408224, 0.00029480897, -1213620.0, 1168.5319 
1.385768e+3, 1.86029e+2, -1133502.1, -1276833.3, -4769.115, 0.0000558347, 0.001971131, -1133343.6, -16427.639 
1.385719e+3, 1.9601576e+2, -1049636.5, -1185753.4, -4737.0894, -0.00052332826, 0.003735644, -1049471.9, -30426.117 
1.3856699e+3, 2.0600225e+2, -969236.56, -1101819.4, -4575.64, -0.00052037876, 0.0036708615, -969078.8, -47900.617 
1.3856208e+3, 2.1598844e+2, -885224.44, -1010522.0, -4607.0327, -0.00003971089, 0.0006545445, -885055.25, -61741.953 
1.385572e+3, 2.2597446e+2, -804692.3, -926128.75, -4093.6775, 0.000592956, 0.00033077516, -804554.44, -79103.97 
1.3855231e+3, 2.3596023e+2, -720913.44, -834962.1, -4243.847, 0.0012957121, -0.000052174844, -720755.75, -93165.97 
1.3854742e+3, 2.4594575e+2, -640603.94, -751460.44, -3647.5256, 0.0007101587, 0.0013792375, -640484.06, -110752.336 
1.3854255e+3, 2.5593102e+2, -555984.7, -659637.25, -3615.6445, -0.0010079319, 0.0025379837, -555858.7, -123982.64 
1.3853769e+3, 2.6591608e+2, -476169.4, -575599.2, -2313.1257, -0.0007098657, 0.0028952337, -476115.63, -142092.86 
1.3853286e+3, 2.7590087e+2, -393675.8, -484606.7, -2254.5823, 0.0012433951, 0.00076303567, -393619.94, -157448.28 
1.3852803e+3, 2.858855e+2, -312942.3, -399373.06, -1230.1285, 0.0009590773, 0.0008601923, -312924.8, -174602.56 
1.3852322e+3, 2.9586998e+2, -228204.52, -307438.2, -1507.4701, -0.00074413774, 0.000581372, -228175.84, -187701.42 
1.3851844e+3, 3.0585745e+2, -151287.77, -177015.05, -97.607864, 0.00031843252, 0.0013726852, -151287.39, -151287.39 
1.3851367e+3, 3.1584805e+2, -167407.81, -183856.34, -60.68556, 0.0033563313, 0.0010774877, -167407.58, -167407.58 
1.3850892e+3, 3.2584408e+2, -107042.04, -35315.9, 1939.747, -0.0035184834, 0.003365158, -35263.477, -35263.477 
1.3965173e+3, 3.6248136e+1, -2367276.8, -2594394.5, 9446.942, 0.012385036, -0.00043700016, -2366884.5, 217883.83 
1.3964692e+3, 4.6237937e+1, -2270066.5, -2498669.3, -5340.4683, -0.018922511, -0.0016348601, -2269941.8, 216926.6 
1.39642e+3, 5.6227756e+1, -2199140.5, -2414396.0, -4898.9707, 0.0023554491, 0.0024201209, -2199029.0, 189939.06 
1.396371e+3, 6.6217375e+1, -2120788.8, -2329798.0, -3554.59, 0.0063325455, 0.002958223, -2120728.3, 170341.52 
1.396322e+3, 7.620681e+1, -2033723.1, -2237205.8, -3809.822, -0.0011071268, -0.00036010012, -2033651.8, 159521.61 
1.3962726e+3, 8.6196107e+1, -1952269.9, -2151243.3, -5839.581, -0.0023563267, -0.0003220032, -1952098.6, 143179.64 
1.3962232e+3, 9.618523e+1, -1870211.8, -2061140.9, -5644.8433, 0.00050894823, 0.0002842778, -1870045.0, 127339.805 
1.3961734e+3, 1.0617411e+2, -1790600.5, -1977740.1, -6285.515, 0.0008097707, 0.0014289406, -1790389.6, 109104.28 
1.3961238e+3, 1.16162725e+2, -1706611.4, -1886584.3, -6528.665, -0.0006420366, 0.0013131815, -1706374.9, 95230.55 
1.396074e+3, 1.2615114e+2, -1626277.0, -1802103.0, -7403.58, -0.00051518, 0.0016841254, -1625965.9, 77753.13 
1.3960241e+3, 1.3613933e+2, -1542959.6, -1711240.8, -7407.087, 0.0006680885, 0.0008233973, -1542634.3, 63200.62 
1.3959742e+3, 1.4612728e+2, -1462561.9, -1627139.6, -7720.856, 0.00055418094, 0.0011655175, -1462200.5, 45752.266 
1.3959241e+3, 1.5611501e+2, -1378352.6, -1535833.4, -7780.056, -0.00016297719, 0.0005096984, -1377969.1, 32103.936 
1.395874e+3, 1.661025e+2, -1297838.3, -1451931.0, -8070.717, -0.00038468256, 0.0020510524, -1297416.8, 14778.959 
1.395824e+3, 1.7608973e+2, -1213799.9, -1360665.5, -8117.9844, -0.00029174238, 0.003186136, -1213352.5, 968.2703 
1.3957739e+3, 1.8607672e+2, -1133412.4, -1276683.1, -8105.1606, 0.000055401288, 0.002191408, -1132955.4, -16507.023 
1.3957238e+3, 1.9606343e+2, -1049541.5, -1185611.4, -8086.0254, 0.0005638424, -0.0018128534, -1049062.6, -30484.098 
1.3956739e+3, 2.060499e+2, -969249.9, -1101871.6, -7915.18, 0.00076227286, -0.0012381737, -968779.1, -48068.242 
1.3956238e+3, 2.1603619e+2, -885221.06, -1010620.4, -7957.4375, 0.00057037186, 0.0007825338, -884718.1, -61872.45 
1.3955739e+3, 2.2602218e+2, -804796.5, -926509.06, -7540.711, -0.0002165933, 0.002900299, -804331.1, -79348.3 
1.395524e+3, 2.3600793e+2, -720986.94, -835255.94, -7677.8022, -0.0012867711, 0.0029930787, -720473.4, -93351.01 
1.3954742e+3, 2.4599344e+2, -640442.1, -751203.0, -6939.886, -0.0006272921, 0.0024631692, -640009.0, -110744.51 
1.3954248e+3, 2.559787e+2, -555864.94, -659384.56, -6964.303, 0.0010865267, 0.00009835538, -555398.56, -123989.57 
1.3953751e+3, 2.6596373e+2, -475912.1, -575161.44, -6220.812, 0.0010946823, 0.0010054752, -475523.7, -141968.3 
1.3953255e+3, 2.759486e+2, -393402.28, -484225.2, -6121.4263, 0.000064921485, 0.0022728469, -392991.56, -157287.9 
1.3952763e+3, 2.8593323e+2, -313260.0, -400180.8, -4561.9063, -0.0002860381, 0.0019533802, -313021.22, -175166.7 
1.3952273e+3, 2.959176e+2, -228528.64, -308175.72, -4895.793, 0.00006347384, -0.001380977, -228228.83, -188221.23 
1.3951783e+3, 3.0590513e+2, -151208.48, -176992.97, -4206.55, 0.000868754, 0.0027819842, -150539.58, -150539.58 
1.3951296e+3, 3.158958e+2, -167204.45, -183670.83, -4133.481, 0.0017010028, 0.01011111, -166225.1, -166225.1 
1.395081e+3, 3.258917e+2, -106326.8, -34151.902, -1626.8484, -0.0023281085, -0.0041907327, -34115.25, -34115.25 
1.4065383e+3, 3.6297044e+1, -2351377.5, -2586119.3, 8436.487, 0.012802495, -0.00045231354, -2351074.8, 233214.45 
1.4064889e+3, 4.6286923e+1, -2288922.0, -2507096.8, -767.51184, -0.02158774, 0.000615343, -2288919.3, 197469.05 
1.4064388e+3, 5.627676e+1, -2192327.3, -2410500.3, -231.35474, 0.0036691725, 0.0014447541, -2192327.0, 196160.92 
1.4063887e+3, 6.626639e+1, -2110048.5, -2324685.5, 454.22766, 0.008269029, 0.0017621701, -2110047.5, 180542.0 
1.4063387e+3, 7.6255804e+1, -2032099.6, -2236517.8, 268.59314, -0.0013564976, -0.00002822113, -2032099.3, 160594.0 
1.4062883e+3, 8.6245084e+1, -1952761.9, -2151476.3, -1623.0944, -0.0032467318, 0.00026957924, -1952748.6, 142049.58 
1.4062378e+3, 9.62342e+1, -1868473.6, -2060263.9, -1815.2173, 0.000113897804, 0.00038808864, -1868456.4, 128448.57 
1.4061871e+3, 1.0622306e+2, -1788631.9, -1976751.8, -2430.184, 0.00079394813, 0.0015033116, -1788600.5, 110413.625 
1.4061365e+3, 1.1621167e+2, -1705634.4, -1886051.0, -2391.6895, -0.00042744342, 0.0015609997, -1705602.8, 95523.09 
1.4060856e+3, 1.2620008e+2, -1625069.1, -1801322.4, -3040.1047, -0.00032677295, 0.001702566, -1625016.6, 78222.68 
1.4060348e+3, 1.3618827e+2, -1540975.0, -1710081.3, -3002.2432, 0.0007047052, 0.00053543755, -1540921.6, 64433.484 
1.4059839e+3, 1.4617623e+2, -1460809.9, -1626244.3, -3277.9966, 0.00047254594, 0.0011207847, -1460745.0, 46728.1 
1.4059329e+3, 1.5616395e+2, -1377323.0, -1535280.6, -3332.2441, -0.00033537956, 0.00090425106, -1377252.8, 32340.693 
1.4058818e+3, 1.6615143e+2, -1297128.9, -1451553.0, -3549.6057, -0.00049054093, 0.002103202, -1297047.4, 14668.848 
1.4058308e+3, 1.7613865e+2, -1213079.4, -1360284.9, -3588.5708, -0.00026086046, 0.0024769548, -1212992.0, 849.44653 
1.4057797e+3, 1.8612562e+2, -1132706.1, -1276308.5, -3664.8264, 0.00008663692, 0.0017407855, -1132612.6, -16643.61 
1.4057288e+3, 1.9611233e+2, -1048932.6, -1185230.0, -3699.2183, 0.0005790757, -0.0014267347, -1048832.3, -30733.08 
1.4056778e+3, 2.0609881e+2, -968605.8, -1101471.5, -3462.4685, 0.00076324993, -0.000618496, -968515.7, -48284.016 
1.4056268e+3, 2.1608506e+2, -884422.06, -1010156.56, -3472.0938, 0.0004858258, 0.00127524, -884326.25, -61959.773 
1.4055759e+3, 2.2607106e+2, -804173.1, -926239.4, -3098.268, -0.0002010686, 0.0030349442, -804094.56, -79590.75 
1.4055252e+3, 2.3605679e+2, -720538.94, -835041.94, -3128.0952, -0.0010989431, 0.0026870884, -720453.56, -93809.98 
1.4054744e+3, 2.460423e+2, -640533.56, -751034.3, -2350.4827, -0.0004886244, 0.002114851, -640483.56, -111697.875 
1.4054237e+3, 2.5602755e+2, -557009.7, -659758.44, -2444.5266, 0.0012343525, -0.00011815603, -556951.56, -126021.414 
1.4053732e+3, 2.660126e+2, -476562.16, -575448.44, -2033.8994, 0.0011213416, 0.0009379935, -476520.34, -143443.69 
1.4053227e+3, 2.7599746e+2, -392230.16, -483645.13, -2196.742, -0.0002885769, 0.0025033806, -392177.38, -156952.39 
1.4052723e+3, 2.8598204e+2, -312784.34, -399849.16, -559.0352, -0.00050499465, 0.002477948, -312780.75, -175404.83 
1.4052223e+3, 2.9596642e+2, -230617.58, -309076.78, -506.96085, 0.0004992453, -0.0006543555, -230614.3, -191085.27 
1.4051722e+3, 3.0595395e+2, -153103.63, -177803.11, 180.48221, 0.0007366326, 0.0029687358, -153102.31, -153102.31 
1.4051224e+3, 3.1594458e+2, -166891.67, -183430.3, 199.62599, -0.00013084305, 0.009357698, -166889.27, -166889.27 
1.4050728e+3, 3.259405e+2, -107463.055, -34874.695, 1978.8494, -0.000050636812, -0.0035741262, -34820.79, -34820.79 
1.4165597e+3, 3.6346877e+1, -2353057.8, -2584602.5, -10246.992, -0.0017684363, 0.0006535608, -2352605.3, 231195.6 
1.4165083e+3, 4.6336922e+1, -2285401.8, -2504576.3, -492.35022, 0.0018464145, 0.0059499163, -2285400.8, 200497.69 
1.4164579e+3, 5.6326747e+1, -2192537.8, -2409759.0, -761.7901, 0.00025868692, -0.0016582878, -2192535.0, 195463.02 
1.416407e+3, 6.631639e+1, -2111448.0, -2325572.8, -4217.2773, 0.00032427136, -0.0015207636, -2111365.0, 178734.55 
1.4163554e+3, 7.630584e+1, -2032387.6, -2236920.3, -4175.705, 0.00007554419, 0.0012118804, -2032302.4, 159900.48 
1.416304e+3, 8.629509e+1, -1952987.0, -2152220.5, -4611.454, -0.00054218847, 0.002406854, -1952880.3, 141427.97 
1.4162524e+3, 9.6284133e+1, -1868888.5, -2061028.5, -4850.6333, -0.0009349576, 0.0012613863, -1868766.1, 127649.58 
1.416201e+3, 1.0627298e+2, -1788613.3, -1976515.1, -5784.978, -0.00045567928, 0.0015578151, -1788435.4, 110089.64 
1.4161491e+3, 1.162616e+2, -1705489.3, -1885719.5, -5737.8994, 0.00045676698, 0.0010421139, -1705306.8, 95329.695 
1.4160974e+3, 1.2625004e+2, -1625024.4, -1801084.0, -6156.9463, 0.0004081475, 0.0013368272, -1624809.4, 77940.47 
1.4160456e+3, 1.3623825e+2, -1540998.3, -1709945.0, -6174.7036, -0.00012632263, 0.0008700402, -1540772.9, 64092.434 
1.4159937e+3, 1.4622621e+2, -1460921.0, -1626359.5, -6614.255, -0.00032150795, 0.0019070144, -1460657.0, 46326.285 
1.4159417e+3, 1.5621392e+2, -1377344.9, -1535330.9, -6677.043, -0.0002740296, 0.0018068337, -1377063.1, 32040.564 
1.4158897e+3, 1.6620138e+2, -1297136.0, -1451643.6, -6789.9966, -0.00007580515, 0.0014248418, -1296838.3, 14388.353 
1.4158377e+3, 1.7618859e+2, -1213101.1, -1360394.0, -6845.997, 0.00021139288, -0.0008252767, -1212783.6, 568.44916 
1.4157857e+3, 1.8617557e+2, -1132741.9, -1276478.5, -7001.052, 0.000053700907, 0.000920906, -1132401.6, -16922.104 
1.4157337e+3, 1.9616233e+2, -1048905.8, -1185362.8, -7044.316, -0.00031401168, 0.0035254632, -1048543.06, -30933.654 
1.4156817e+3, 2.061488e+2, -968511.94, -1101437.5, -6737.932, -0.00031936364, 0.004225341, -968171.3, -48429.39 
1.4156298e+3, 2.1613501e+2, -884376.4, -1010151.94, -6775.7275, -0.00022722283, 0.0020089152, -884012.44, -62135.344 
1.415578e+3, 2.2612098e+2, -804162.8, -926252.0, -6589.089, 0.0003845139, 0.0012460944, -803808.25, -79793.63 
1.4155261e+3, 2.3610671e+2, -720488.56, -835019.5, -6624.441, 0.0012227881, -0.00030876187, -720106.7, -93952.18 
1.4154744e+3, 2.4609222e+2, -640457.6, -751069.06, -5932.696, 0.0007512888, 0.00069156196, -640140.3, -111843.77 
1.4154227e+3, 2.560775e+2, -556959.1, -659822.4, -6015.617, -0.00040848274, 0.0016184334, -556608.5, -126167.73 
1.4153711e+3, 2.660625e+2, -476800.22, -576102.4, -5458.2104, -0.00049272313, 0.0024751385, -476501.13, -143913.56 
1.4153197e+3, 2.760473e+2, -392427.06, -484167.9, -5662.468, 0.000025476433, 0.0016627841, -392078.88, -157342.3 
1.4152685e+3, 2.8603193e+2, -312413.1, -399193.8, -4566.996, 0.0001080698, 0.0026123223, -312173.4, -175286.06 
1.4152172e+3, 2.960164e+2, -230247.72, -308466.28, -4474.357, 0.000417085, 0.002678099, -229992.61, -190952.9 
1.4151661e+3, 3.0600384e+2, -153040.39, -177866.34, -3374.6323, -0.00015287171, 0.0019831401, -152589.84, -152589.84 
1.4151153e+3, 3.1599438e+2, -166871.45, -183598.67, -3445.2625, -0.00216342, -0.0007707498, -166189.64, -166189.64 
1.4150646e+3, 3.259904e+2, -108185.65, -36664.74, -2606.8447, 0.0030731827, 0.0058019897, -36569.848, -36569.848 
1.4265807e+3, 3.6398396e+1, -2358942.8, -2587746.8, -2580.6106, -0.0055686804, 0.0023680704, -2358913.8, 224382.17 
1.4265284e+3, 4.6388286e+1, -2266145.0, -2496596.3, 4220.336, 0.010819362, 0.0017927802, -2266067.8, 219327.11 
1.4264767e+3, 5.637801e+1, -2193626.8, -2411672.8, 2839.1702, -0.0019352747, -0.00047902737, -2193590.0, 193905.72 
1.4264247e+3, 6.636763e+1, -2115171.3, -2326868.0, -477.28143, -0.003313434, 0.0004909207, -2115170.3, 174427.23 
1.4263722e+3, 7.6357085e+1, -2029611.6, -2235151.8, -175.8155, 0.0004572825, 0.0013242307, -2029611.5, 162089.27 
1.4263198e+3, 8.634633e+1, -1949259.3, -2150516.8, -319.8091, 0.0007441448, 0.0020951766, -1949258.8, 144547.42 
1.4262672e+3, 9.633536e+1, -1867128.8, -2060193.9, -366.1951, -0.0006011046, 0.001402957, -1867128.0, 128785.67 
1.4262146e+3, 1.063242e+2, -1787030.6, -1975319.0, -1122.0227, -0.00050349976, 0.001619391, -1787023.9, 110999.055 
1.426162e+3, 1.16312854e+2, -1703506.9, -1884366.5, -1034.2245, 0.00042476584, 0.0008846289, -1703500.9, 96633.336 
1.4261091e+3, 1.2630127e+2, -1623516.9, -1800479.5, -1473.5676, 0.0002755157, 0.0013918937, -1623504.6, 78743.05 
1.4260563e+3, 1.3628948e+2, -1540189.5, -1709631.4, -1663.6112, -0.00038220527, 0.0011546473, -1540173.1, 64190.18 
1.4260034e+3, 1.4627744e+2, -1460148.6, -1625975.8, -2110.5935, -0.00036052914, 0.0020716435, -1460121.8, 46359.645 
1.4259505e+3, 1.5626512e+2, -1376173.8, -1534749.4, -2164.516, -0.0000034357897, 0.001820898, -1376144.3, 32457.754 
1.4258976e+3, 1.6625258e+2, -1296005.8, -1450901.0, -2201.5964, 0.00024166172, 0.0015410365, -1295974.5, 14750.333 
1.4258446e+3, 1.7623977e+2, -1212272.4, -1359823.0, -2173.4336, 0.00048392545, -0.00052329723, -1212240.4, 610.0015 
1.4257917e+3, 1.8622676e+2, -1131952.6, -1276130.4, -2239.8992, 0.00018867517, 0.0011199396, -1131917.8, -16939.865 
1.4257386e+3, 1.9621348e+2, -1047750.5, -1184828.6, -2277.096, -0.00043122162, 0.0035379208, -1047712.7, -30604.719 
1.4256857e+3, 2.0619997e+2, -967609.94, -1100912.5, -2051.393, -0.00045906738, 0.003949859, -967578.4, -48337.797 
1.425633e+3, 2.1618615e+2, -884354.75, -1010032.5, -2072.4666, -0.0001415392, 0.0012799579, -884320.56, -62944.773 
1.4255801e+3, 2.2617212e+2, -804204.1, -926296.2, -1861.5161, 0.0004966394, 0.00071485376, -804175.75, -80662.34 
1.4255272e+3, 2.3615783e+2, -719959.44, -834785.25, -1944.5764, 0.001215731, -0.00017172075, -719926.56, -94273.13 
1.4254744e+3, 2.4614333e+2, -639730.3, -750701.94, -1422.1377, 0.00067245605, 0.001163912, -639712.1, -111916.55 
1.4254218e+3, 2.561286e+2, -556192.0, -659433.06, -1524.5565, -0.00062160735, 0.002221575, -556169.5, -126229.61 
1.4253692e+3, 2.661136e+2, -476488.0, -575845.1, -749.24225, -0.0006306924, 0.0026090129, -476482.34, -144395.55 
1.4253168e+3, 2.760984e+2, -393006.97, -484354.56, -666.5762, 0.00017016492, 0.00090303854, -393002.1, -158766.13 
1.4252645e+3, 2.86083e+2, -312930.13, -399436.94, 13.103665, 0.00023009541, 0.002101264, -312930.13, -176543.33 
1.4252122e+3, 2.9606745e+2, -229983.92, -308325.28, -246.62697, 0.00037495952, 0.0032366184, -229983.16, -191443.95 
1.42516e+3, 3.060549e+2, -152972.19, -177706.64, 934.1159, -0.00031507525, 0.0016044395, -152936.95, -152936.95 
1.4251082e+3, 3.1604543e+2, -167704.47, -183868.94, 838.12885, -0.002356964, -0.0032959364, -167661.13, -167661.13 
1.4250565e+3, 3.260415e+2, -109016.45, -36664.938, 1536.2955, 0.0034295593, 0.0072027342, -36632.332, -36632.332 
1.4366016e+3, 3.6451125e+1, -2358869.0, -2588227.0, 4368.2983, -0.0041448274, 0.0038012743, -2358786.0, 223993.16 
1.4365491e+3, 4.6440724e+1, -2270211.0, -2501883.5, -2187.6013, 0.010573069, -0.0072773537, -2270190.5, 214690.56 
1.4364956e+3, 5.6430304e+1, -2195302.3, -2415118.0, -2698.4243, -0.0033635297, 0.0033173491, -2195269.3, 191714.0 
1.4364424e+3, 6.6419864e+1, -2114330.0, -2325824.3, -3012.8936, -0.004503348, 0.0055212392, -2114287.3, 174798.45 
1.4363891e+3, 7.640932e+1, -2029435.8, -2234508.5, -2953.7974, 0.00010521705, 0.00069815194, -2029393.1, 161795.67 
1.4363357e+3, 8.639858e+1, -1949598.9, -2150648.0, -3887.9482, 0.0011012641, 0.00033420086, -1949523.6, 143770.44 
1.4362821e+3, 9.638762e+1, -1867229.8, -2060189.4, -3885.767, 0.0005046054, 0.001145016, -1867151.5, 128249.984 
1.4362285e+3, 1.063765e+2, -1786913.9, -1974975.1, -4381.3057, 0.0000693473, 0.001742653, -1786811.9, 110698.72 
1.4361748e+3, 1.16365165e+2, -1703469.4, -1884168.6, -4360.4287, -0.00029033786, 0.0009743339, -1703364.3, 96257.32 
1.436121e+3, 1.2635359e+2, -1623894.4, -1801054.1, -4838.648, -0.0004538456, 0.0017433041, -1623762.4, 77972.69 
1.4360671e+3, 1.3634174e+2, -1540453.4, -1710113.4, -5008.5938, -0.00035075255, 0.001426622, -1540305.6, 63545.484 
1.4360133e+3, 1.4632969e+2, -1460209.4, -1626021.1, -5304.6353, -0.0000109901885, 0.0018468436, -1460039.8, 45929.61 
1.4359593e+3, 1.5631737e+2, -1376198.8, -1534749.1, -5376.395, 0.00035237975, 0.0012409599, -1376016.6, 32073.375 
1.4359055e+3, 1.6630484e+2, -1295857.6, -1450722.1, -5499.4355, 0.00044085333, 0.0022787398, -1295662.6, 14550.148 
1.4358516e+3, 1.7629206e+2, -1212118.8, -1359642.9, -5491.017, 0.0005081451, 0.0023941384, -1211914.6, 423.22723 
1.4357977e+3, 1.8627903e+2, -1132009.4, -1276294.8, -5471.94, 0.00036468555, 0.0019956722, -1131802.3, -17336.5 
1.4357437e+3, 1.962657e+2, -1047805.8, -1184965.0, -5537.933, -0.00006799681, -0.00023523257, -1047582.56, -30986.309 
1.4356898e+3, 2.0625217e+2, -967584.9, -1100921.8, -5557.1035, 0.000023034478, -0.00019257356, -967353.6, -48624.703 
1.4356358e+3, 2.1623838e+2, -884258.3, -1010027.7, -5577.122, 0.00049027393, -0.0005169289, -884011.5, -63147.477 
1.435582e+3, 2.2622435e+2, -804210.5, -926482.44, -5196.909, 0.00013918703, 0.0012525866, -803990.06, -80988.52 
1.4355282e+3, 2.3621006e+2, -719993.44, -835014.94, -5307.8457, -0.0007949413, 0.0025449672, -719749.0, -94607.516 
1.4354746e+3, 2.4619554e+2, -639773.4, -750877.94, -4994.6646, -0.00054497685, 0.0032177235, -639549.3, -112265.41 
1.435421e+3, 2.561808e+2, -556205.5, -659527.56, -5102.614, 0.0003147374, 0.0018719948, -555954.06, -126525.516 
1.4353673e+3, 2.661658e+2, -476185.53, -575308.8, -4421.9766, 0.00036855455, 0.0015903872, -475988.66, -144413.3 
1.4353138e+3, 2.761506e+2, -392770.1, -483952.94, -4359.484, 0.00004480023, 0.00028357052, -392562.16, -158838.0 
1.4352603e+3, 2.861352e+2, -313290.13, -400330.53, -3819.7297, -0.00014074285, 0.0010714121, -313122.8, -177247.58 
1.435207e+3, 2.9611957e+2, -230266.81, -309086.2, -4055.9226, 0.00021833522, 0.0013232857, -230058.64, -192030.28 
1.435154e+3, 3.06107e+2, -152800.23, -177549.97, -2894.7056, 0.000058939873, 0.0020262895, -152466.19, -152466.19 
1.4351009e+3, 3.1609762e+2, -167443.22, -183535.13, -3039.3906, -0.00088866445, 0.0016603112, -166888.3, -166888.3 
1.435048e+3, 3.260937e+2, -107666.56, -34135.59, -2945.5122, 0.00067347963, 0.00027665962, -34017.785, -34017.785 
1.4466229e+3, 3.6504498e+1, -2350473.0, -2586127.3, 6082.7896, 0.0034569087, 0.0028574697, -2350316.0, 231940.02 
1.4465693e+3, 4.649416e+1, -2276213.5, -2502938.3, -440.46646, -0.0014311604, -0.0042389804, -2276212.8, 208144.72 
1.4465147e+3, 5.6483865e+1, -2190482.0, -2411288.5, 1246.8638, -0.0011059777, 0.0036056146, -2190475.0, 195983.39 
1.4464603e+3, 6.6473436e+1, -2109176.3, -2323667.3, 1888.7443, 0.00009846416, 0.0050003673, -2109159.5, 179401.05 
1.446406e+3, 7.646285e+1, -2028151.3, -2234130.0, 1405.7954, 0.0000031244278, 0.0006352638, -2028141.6, 162522.58 
1.4463516e+3, 8.645211e+1, -1948810.5, -2149778.8, 386.56052, -0.00015334587, 0.0005032607, -1948809.8, 143959.77 
1.446297e+3, 9.644118e+1, -1865637.6, -2058994.5, 535.855, 0.00018482436, 0.0013905504, -1865636.1, 129240.58 
1.4462423e+3, 1.0643004e+2, -1785531.1, -1974471.8, 47.64476, 0.00010358453, 0.002019616, -1785531.1, 111454.625 
1.4461876e+3, 1.1641869e+2, -1702435.6, -1883764.8, -195.37007, -0.00035440506, 0.0012948074, -1702435.4, 96661.625 
1.4461328e+3, 1.264071e+2, -1622637.4, -1800254.3, -549.73303, -0.00037220842, 0.0020735527, -1622635.8, 78574.85 
1.446078e+3, 1.3639526e+2, -1539009.5, -1709193.5, -433.6704, 0.00003939645, 0.0016781118, -1539008.5, 64318.184 
1.4460231e+3, 1.4638321e+2, -1458762.0, -1625134.5, -470.20306, 0.00021697585, 0.001848542, -1458760.6, 46684.188 
1.4459683e+3, 1.563709e+2, -1374925.5, -1533966.3, -457.94873, 0.00030937724, 0.0009761547, -1374924.1, 32641.281 
1.4459135e+3, 1.6635837e+2, -1294802.4, -1450275.8, -663.4824, 0.00025533178, 0.0021757337, -1294799.6, 14888.625 
1.4458585e+3, 1.7634559e+2, -1210984.8, -1359139.9, -808.622, 0.00018730074, 0.0027291551, -1210980.4, 833.2099 
1.4458036e+3, 1.8633252e+2, -1131112.0, -1275720.0, -737.3349, 0.00027191755, 0.0022451938, -1131108.3, -17166.87 
1.4457488e+3, 1.963192e+2, -1047419.94, -1184633.6, -694.3877, 0.00029137227, -0.00045303098, -1047416.44, -31344.37 
1.4456938e+3, 2.0630565e+2, -967177.94, -1100836.9, -779.5838, 0.0003750223, -0.000095010386, -967173.44, -48968.56 
1.445639e+3, 2.1629184e+2, -883152.5, -1009547.2, -903.6261, 0.00047714543, 0.00047221396, -883146.06, -62805.945 
1.4455841e+3, 2.262778e+2, -802932.94, -925756.9, -474.1685, 0.000013086107, 0.0020588986, -802931.1, -80453.38 
1.4455295e+3, 2.362635e+2, -719185.06, -834527.94, -485.37305, -0.0008297359, 0.002482547, -719183.06, -94565.17 
1.4454748e+3, 2.4624896e+2, -639442.7, -750766.0, -279.85965, -0.0005550603, 0.0027245302, -639442.0, -112681.56 
1.4454201e+3, 2.5623417e+2, -556235.5, -659590.3, -347.59576, 0.0003718386, 0.0012530612, -556234.4, -127329.055 
1.4453654e+3, 2.6621917e+2, -476239.75, -575307.8, 162.62265, 0.00045095067, 0.0013287081, -476239.47, -145187.28 
1.4453109e+3, 2.76204e+2, -392677.78, -483892.0, -64.73428, 0.00008860792, 0.00067647017, -392677.72, -159476.69 
1.4452565e+3, 2.8618857e+2, -312976.8, -400080.28, 518.5102, -0.00015213907, 0.001103761, -312973.72, -177621.48 
1.4452021e+3, 2.9617292e+2, -229775.78, -308800.44, 723.4315, 0.00010074079, 0.00034919003, -229769.16, -192263.66 
1.4451478e+3, 3.0616036e+2, -153254.9, -177894.2, 1698.6423, 0.00028640288, 0.0017201044, -153138.36, -153138.36 
1.4450938e+3, 3.1615093e+2, -169248.06, -184389.2, 1364.8038, 0.00014915089, 0.0031747369, -169126.03, -169126.03 
1.4450397e+3, 3.26147e+2, -107116.18, -32826.15, 984.9619, -0.0005696614, -0.0017858762, -32813.09, -32813.09 
1.4566445e+3, 3.655855e+1, -2352936.5, -2588962.3, -1570.3843, 0.012866213, 0.0011627966, -2352926.3, 228800.34 
1.4565891e+3, 4.654848e+1, -2273308.8, -2497242.0, -2730.4385, -0.020053651, 0.0055700713, -2273275.5, 210549.73 
1.456534e+3, 5.653845e+1, -2188661.3, -2406819.5, -1641.602, 0.0032808566, 0.0017730315, -2188649.0, 197274.55 
1.4564787e+3, 6.6528076e+1, -2110415.5, -2325510.3, -2025.6135, 0.0076657566, 0.0013416982, -2110396.5, 177628.56 
1.4564231e+3, 7.651743e+1, -2028930.4, -2235494.5, -2326.549, -0.0001267563, 0.0010486237, -2028904.1, 161225.25 
1.4563674e+3, 8.650668e+1, -1948597.0, -2149190.3, -2874.725, -0.002389808, 0.0019215485, -1948555.9, 143678.88 
1.456312e+3, 9.6495783e+1, -1865563.5, -2058633.1, -2807.7021, -0.0010547733, 0.0019026729, -1865522.6, 128818.875 
1.4562562e+3, 1.0648464e+2, -1786068.0, -1975315.9, -3294.103, -0.0002949323, 0.0024040965, -1786010.6, 110440.14 
1.4562005e+3, 1.1647323e+2, -1702816.9, -1884424.8, -3493.4211, -0.00009114526, 0.0018490861, -1702749.6, 95812.95 
1.4561446e+3, 1.2646164e+2, -1622370.6, -1799634.4, -3762.2185, 0.00018100752, 0.002437736, -1622290.8, 78385.36 
1.4560889e+3, 1.3644984e+2, -1538730.3, -1708588.5, -3683.6343, 0.00053438486, 0.0019461352, -1538650.4, 64141.395 
1.4560331e+3, 1.4643782e+2, -1458651.8, -1624896.8, -3718.299, 0.00024149055, 0.0020601917, -1458568.6, 46340.977 
1.4559773e+3, 1.5642552e+2, -1374881.5, -1533836.5, -3743.4312, -0.000121087556, 0.00092038274, -1374793.4, 32236.773 
1.4559214e+3, 1.6641296e+2, -1295088.8, -1450809.4, -3967.4897, -0.00033791413, 0.0014707297, -1294987.8, 14165.39 
1.4558655e+3, 1.7640013e+2, -1211168.5, -1359542.8, -4117.6987, -0.00049557426, 0.0012045499, -1211054.3, 224.5893 
1.4558096e+3, 1.863871e+2, -1130893.4, -1275480.0, -4083.1802, -0.000069311514, 0.0021153737, -1130778.1, -17371.537 
1.4557537e+3, 1.963738e+2, -1047240.25, -1184505.6, -4063.85, 0.0005588961, 0.0020500675, -1047120.0, -31583.115 
1.4556979e+3, 2.0636025e+2, -967329.0, -1101337.9, -4088.1958, 0.0005206901, 0.003234597, -967204.4, -49534.574 
1.4556421e+3, 2.163464e+2, -883263.4, -1009958.0, -4217.672, -0.00013753009, 0.0036147041, -883123.1, -63317.66 
1.4555863e+3, 2.2633234e+2, -802804.06, -925572.2, -3914.248, -0.0000074573436, 0.0030727086, -802679.4, -80736.05 
1.4555305e+3, 2.36318e+2, -719097.9, -834380.44, -3974.5667, 0.0006297064, 0.00014640139, -718961.0, -94877.375 
1.4554748e+3, 2.4630347e+2, -639458.1, -750944.44, -3958.0925, 0.00031637633, 0.00017541107, -639317.8, -113091.58 
1.455419e+3, 2.562887e+2, -556233.4, -659794.94, -4019.3296, -0.0004396037, 0.00046119143, -556077.6, -127706.56 
1.4553633e+3, 2.6627368e+2, -476467.0, -575970.06, -3475.1914, -0.00036428033, 0.0017946546, -476345.78, -145827.56 
1.4553079e+3, 2.762584e+2, -392841.44, -484386.7, -3717.728, 0.00019993325, 0.0020496782, -392690.7, -160023.2 
1.4552525e+3, 2.8624302e+2, -312514.03, -399248.63, -3259.0447, 0.00006894081, 0.0021508406, -312391.75, -177573.19 
1.455197e+3, 2.9622743e+2, -229398.28, -308136.1, -3105.0552, -0.00014595948, 0.00029414767, -229276.02, -192304.66 
1.4551418e+3, 3.0621484e+2, -153523.23, -178647.19, -2546.1626, 0.000254936, 0.0007769161, -153267.8, -153267.8 
1.4550865e+3, 3.1620535e+2, -169441.53, -185022.03, -2752.698, 0.0007252356, 0.0014651467, -168969.5, -168969.5 
1.4550313e+3, 3.2620147e+2, -106913.79, -32691.717, -2517.5273, -0.00043491804, 0.0013462426, -32606.422, -32606.422 
1.4666659e+3, 3.6614484e+1, -2351122.3, -2587383.8, 2987.9604, 0.0053922012, 0.00094401976, -2351084.5, 230093.95 
1.4666094e+3, 4.660444e+1, -2269925.8, -2496152.5, 3687.2837, -0.008633415, 0.009752561, -2269865.5, 213411.34 
1.466553e+3, 5.659428e+1, -2188426.8, -2407110.5, 2461.3396, 0.0016312873, 0.00071692927, -2188399.0, 196977.25 
1.4664967e+3, 6.658391e+1, -2109639.0, -2324521.0, 1577.5106, 0.0040441807, 0.00020456947, -2109627.5, 177850.45 
1.4664401e+3, 7.6573324e+1, -2026766.8, -2233951.5, 2050.0325, 0.0002338858, 0.0026023567, -2026746.5, 162835.16 
1.4663835e+3, 8.6562586e+1, -1946673.6, -2148352.8, 1735.1376, -0.0011441663, 0.0034023821, -1946658.6, 145028.28 
1.4663267e+3, 9.655165e+1, -1864297.5, -2058008.9, 1518.8435, -0.00064554607, 0.0018413945, -1864285.6, 129508.484 
1.4662701e+3, 1.0654049e+2, -1784717.1, -1974287.0, 1302.5485, -0.0001149169, 0.0020463585, -1784708.1, 111195.21 
1.4662133e+3, 1.1652911e+2, -1701298.0, -1883339.1, 1494.7849, 0.0002269432, 0.0017047825, -1701285.8, 96729.266 
1.4661565e+3, 1.2651753e+2, -1620934.9, -1798759.0, 1335.0359, 0.00030274087, 0.0022188516, -1620924.9, 79203.625 
1.4660999e+3, 1.3650572e+2, -1537351.6, -1707758.5, 1193.5973, 0.0003025777, 0.0018031417, -1537343.3, 64900.773 
1.466043e+3, 1.464937e+2, -1457679.3, -1624460.5, 957.8763, 0.00006485007, 0.0022798465, -1457673.8, 46688.234 
1.4659862e+3, 1.5648139e+2, -1374340.6, -1533590.4, 790.9637, -0.00005653506, 0.001504211, -1374336.8, 32145.918 
1.4659293e+3, 1.6646883e+2, -1294441.1, -1450326.6, 784.9087, -0.00007538024, 0.0017093722, -1294437.1, 14168.537 
1.4658725e+3, 1.7645599e+2, -1210182.1, -1358941.1, 883.15607, -0.00009233197, 0.0007634925, -1210176.9, 554.555 
1.4658156e+3, 1.8644294e+2, -1129783.9, -1274987.4, 864.46277, 0.00010646923, 0.0018694884, -1129778.8, -16919.422 
1.4657588e+3, 1.9642964e+2, -1045908.5, -1183872.4, 716.7376, 0.00041898302, 0.0025121062, -1045904.8, -30915.06 
1.465702e+3, 2.0641606e+2, -965992.2, -1100663.5, 791.2361, 0.00029086604, 0.003404654, -965987.5, -48864.72 
1.4656451e+3, 2.164022e+2, -882153.1, -1009388.4, 853.0119, -0.00032151848, 0.0029708159, -882147.44, -62888.785 
1.4655884e+3, 2.2638811e+2, -802341.56, -925404.06, 980.6126, -0.0000031452942, 0.002508632, -802333.75, -80937.07 
1.4655316e+3, 2.3637378e+2, -719382.44, -834563.6, 798.6772, 0.000858966, 0.00012130333, -719376.9, -95839.75 
1.465475e+3, 2.4635921e+2, -639168.4, -750798.7, 886.5211, 0.00056289556, 0.00038070633, -639161.3, -113481.484 
1.4654182e+3, 2.563444e+2, -554627.94, -659030.4, 832.22284, -0.0002746236, 0.00079374964, -554621.3, -126796.47 
1.4653616e+3, 2.6632938e+2, -474900.9, -575279.9, 1319.8049, -0.00037798475, 0.0019233337, -474883.56, -144911.38 
1.465305e+3, 2.763141e+2, -392147.34, -484123.9, 1349.3286, -0.000059596958, 0.001756792, -392127.56, -160005.86 
1.4652485e+3, 2.862987e+2, -312359.5, -399232.16, 1558.5442, 0.00009008314, 0.0020973836, -312331.53, -178058.6 
1.465192e+3, 2.9628307e+2, -229629.95, -308325.4, 1246.8302, 0.000409492, 0.00089405134, -229610.2, -193184.34 
1.4651355e+3, 3.0627048e+2, -153230.81, -178669.36, 1547.5645, 0.00016881843, 0.0008509155, -153137.02, -153137.02 
1.4650792e+3, 3.1626096e+2, -167909.16, -184452.14, 1565.3726, -0.0005612548, 0.00024190788, -167762.34, -167762.34 
1.465023e+3, 3.2625708e+2, -107111.56, -32769.81, 1817.3479, 0.00027787144, 0.0030768877, -32725.408, -32725.408 
1.4766872e+3, 3.6671758e+1, -2351036.5, -2584528.3, -1865.1161, -0.009459905, 0.0014812653, -2351021.8, 229595.45 
1.4766298e+3, 4.666162e+1, -2272201.3, -2500976.3, -223.81999, 0.017904185, 0.0108098565, -2272201.0, 210515.38 
1.4765722e+3, 5.665113e+1, -2190479.3, -2410929.5, -1076.999, -0.0037148134, 0.00019018484, -2190474.0, 194345.22 
1.4765146e+3, 6.6640735e+1, -2109049.0, -2322789.5, -1684.0942, -0.005852998, 0.0006054882, -2109035.8, 177885.4 
1.4764571e+3, 7.6630294e+1, -2026366.0, -2232635.0, -1379.4995, 0.0008763034, 0.004762423, -2026356.8, 162666.64 
1.4763996e+3, 8.661955e+1, -1947281.0, -2149170.8, -1778.4552, 0.0020372104, 0.0048566703, -1947265.4, 143863.27 
1.4763418e+3, 9.660855e+1, -1864642.9, -2058568.3, -1920.8439, 0.00061662827, 0.0014491782, -1864623.9, 128612.586 
1.4762841e+3, 1.06597416e+2, -1784332.1, -1973442.0, -1966.1263, 0.00026585007, 0.0013147371, -1784311.8, 111033.836 
1.4762263e+3, 1.1658609e+2, -1701021.6, -1882651.9, -1844.5234, 0.0004952665, 0.0011598119, -1701002.9, 96453.58 
1.4761686e+3, 1.2657453e+2, -1621219.5, -1799197.0, -1978.7946, 0.00009326515, 0.0016548053, -1621197.5, 78372.32 
1.4761108e+3, 1.365627e+2, -1537643.1, -1708237.9, -2134.067, -0.00060647796, 0.0014587205, -1537616.4, 64069.348 
1.476053e+3, 1.4655064e+2, -1457928.4, -1624942.8, -2412.8796, -0.000360074, 0.0026013753, -1457893.5, 45910.418 
1.4759952e+3, 1.5653831e+2, -1374397.1, -1533855.8, -2538.615, 0.00032838172, 0.0025657723, -1374356.8, 31568.049 
1.4759374e+3, 1.6652577e+2, -1294086.4, -1449780.9, -2381.9497, 0.00071977184, 0.0026384294, -1294050.0, 13997.727 
1.4758795e+3, 1.7651296e+2, -1209945.4, -1358537.6, -2328.7063, 0.00095959526, 0.0011060828, -1209908.9, 264.37234 
1.4758217e+3, 1.864999e+2, -1130031.4, -1275550.1, -2432.9963, 0.00055332016, 0.0015256573, -1129990.8, -17689.51 
1.4757639e+3, 1.9648655e+2, -1046087.06, -1184268.0, -2587.8267, -0.00011333999, 0.0013866641, -1046038.6, -31606.547 
1.4757062e+3, 2.0647295e+2, -965842.5, -1100412.6, -2555.4397, -0.00031561984, 0.0011524106, -965794.0, -49228.742 
1.4756483e+3, 2.164591e+2, -882039.2, -1009251.0, -2554.4753, -0.0002630929, -0.0006035776, -881987.94, -63286.91 
1.4755906e+3, 2.26445e+2, -802476.9, -925883.75, -2676.8975, -0.000050395603, 0.00075491116, -802418.8, -81579.766 
1.4755327e+3, 2.3643067e+2, -719409.7, -834940.75, -2813.3772, -0.000016555525, 0.0020084276, -719341.25, -96361.67 
1.4754751e+3, 2.4641609e+2, -639101.8, -750895.0, -2427.6167, 0.00021972113, 0.0028903338, -639049.1, -113926.69 
1.4754173e+3, 2.5640127e+2, -554618.6, -659108.7, -2570.483, 0.00061754213, 0.0021124824, -554555.44, -127287.79 
1.4753598e+3, 2.6638624e+2, -474748.88, -575031.0, -2567.301, 0.00015728701, 0.0017680372, -474683.22, -145268.17 
1.475302e+3, 2.7637097e+2, -392033.1, -484016.0, -2538.0703, -0.00076804945, 0.0000024852086, -391963.13, -160398.6 
1.4752445e+3, 2.863555e+2, -312808.13, -400340.16, -2358.454, -0.00014504566, 0.0011562131, -312744.63, -179028.48 
1.475187e+3, 2.9633984e+2, -229979.84, -309245.56, -2648.5383, 0.0016081148, 0.002246713, -229891.44, -194021.83 
1.4751294e+3, 3.0632722e+2, -153119.0, -178641.64, -2367.664, -0.000112967355, 0.0019796262, -152901.22, -152901.22 
1.475072e+3, 3.1631765e+2, -167839.27, -184481.17, -2410.6716, -0.0038079952, -0.0005674817, -167497.11, -167497.11 
1.4750147e+3, 3.263138e+2, -107192.98, -33241.938, -2663.449, 0.0015884019, 0.0034331407, -33146.133, -33146.133 
1.4867087e+3, 3.6729908e+1, -2350412.8, -2582550.0, 2149.5608, -0.009638729, 0.0006259467, -2350393.0, 229654.3 
1.4866503e+3, 4.6719822e+1, -2268337.3, -2498907.0, 2316.3467, 0.01711956, 0.008138175, -2268314.0, 213832.02 
1.4865914e+3, 5.670936e+1, -2188440.8, -2409888.3, 3132.769, -0.0028867752, 0.0011940151, -2188396.3, 195852.25 
1.4865328e+3, 6.669895e+1, -2107951.5, -2322174.0, 3205.7441, -0.004917278, 0.0013492048, -2107903.5, 178447.08 
1.4864743e+3, 7.6688486e+1, -2025558.1, -2232073.5, 2864.5232, 0.0010703962, 0.0032346323, -2025518.4, 162934.7 
1.4864156e+3, 8.667776e+1, -1946041.4, -2148206.0, 2548.9, 0.0020865458, 0.0035218415, -1946009.3, 144549.02 
1.4863569e+3, 9.666679e+1, -1862944.0, -2057416.1, 2773.5923, 0.0008008244, 0.0016003492, -1862904.5, 129761.26 
1.4862981e+3, 1.06655665e+2, -1782914.3, -1972607.5, 2715.3838, 0.00031903383, 0.0019419927, -1782875.4, 111899.375 
1.4862393e+3, 1.1664434e+2, -1700137.4, -1882084.4, 2548.5505, 0.0002464477, 0.0017863099, -1700101.8, 96784.016 
1.4861806e+3, 1.2663276e+2, -1620622.5, -1798795.3, 2506.382, 0.000034510653, 0.002080141, -1620587.3, 78411.81 
1.4861219e+3, 1.3662094e+2, -1537079.5, -1707836.0, 2492.799, -0.00009642465, 0.0014632398, -1537043.1, 64071.87 
1.486063e+3, 1.4660887e+2, -1456853.3, -1624139.9, 2518.0063, 0.00015162861, 0.002338731, -1456815.4, 46417.844 
1.4860041e+3, 1.5659656e+2, -1372602.3, -1532705.8, 2635.736, 0.00050110254, 0.0022206325, -1372558.9, 32795.16 
1.4859454e+3, 1.66584e+2, -1292439.9, -1448980.1, 2712.2842, 0.0006880273, 0.0026048094, -1292392.9, 15084.129 
1.4858866e+3, 1.7657118e+2, -1208799.4, -1357946.6, 2509.129, 0.0008374444, 0.0016623182, -1208757.1, 845.40546 
1.4858279e+3, 1.8655811e+2, -1129270.0, -1275151.1, 2415.0173, 0.00042073042, 0.0019254198, -1129230.0, -17499.316 
1.485769e+3, 1.9654474e+2, -1045608.56, -1183989.9, 2466.006, -0.0002568956, 0.0012554624, -1045564.6, -31702.889 
1.4857103e+3, 2.0653114e+2, -965383.75, -1100071.3, 2519.9915, -0.0001869878, 0.0011186515, -965336.6, -49341.703 
1.4856516e+3, 2.1651728e+2, -881549.56, -1008948.8, 2405.741, 0.00036373443, -0.0003191737, -881504.1, -63373.36 
1.4855927e+3, 2.2650318e+2, -801283.0, -925517.56, 2248.6064, 0.0003211006, 0.0011354944, -801242.3, -80973.24 
1.4855339e+3, 2.364888e+2, -716852.06, -833898.6, 2160.022, -0.00031482722, 0.0025141235, -716812.25, -94402.336 
1.4854752e+3, 2.4647419e+2, -637246.06, -750130.06, 2432.891, -0.00007812203, 0.003226671, -637193.6, -112640.59 
1.4854166e+3, 2.5645936e+2, -554784.6, -659307.7, 2254.353, 0.0007000975, 0.002035544, -554736.0, -128037.48 
1.4853579e+3, 2.6644427e+2, -475084.7, -575269.56, 2042.1387, 0.0003343464, 0.0016654779, -475043.1, -146196.92 
1.4852992e+3, 2.7642903e+2, -391468.16, -483832.25, 1874.2292, -0.00066816463, 0.00011234313, -391430.16, -160434.28 
1.4852405e+3, 2.8641352e+2, -311690.94, -399851.3, 2170.5366, -0.00020796635, 0.001216539, -311637.53, -178489.86 
1.4851819e+3, 2.9639784e+2, -228653.11, -308709.22, 2343.688, 0.0013487049, 0.0021934642, -228584.56, -193283.17 
1.4851233e+3, 3.0638516e+2, -152267.02, -178529.22, 2476.8433, 0.000016929906, 0.0023706988, -152035.45, -152035.45 
1.4850648e+3, 3.1637558e+2, -167615.44, -184478.23, 2133.9094, -0.0029605757, 0.00031024133, -167349.6, -167349.6 
1.4850064e+3, 3.2637167e+2, -107160.164, -32389.621, 1699.5574, 0.0009389666, 0.0014902396, -32351.01, -32351.01 
1.4967301e+3, 3.6788863e+1, -2349764.0, -2580175.8, 2130.612, -0.003466612, -0.0012717807, -2349744.5, 229724.97 
1.4966707e+3, 4.6778914e+1, -2268686.3, -2497205.5, -1824.1918, 0.001160747, 0.003697273, -2268671.8, 212895.13 
1.4966108e+3, 5.6768686e+1, -2187721.8, -2408064.8, -1001.1484, 0.0014987323, 0.0031024422, -2187717.3, 195950.0 
1.496551e+3, 6.6758275e+1, -2108431.8, -2323288.8, -293.97736, 0.0018392422, 0.0022228898, -2108431.5, 177337.72 
1.4964913e+3, 7.6747686e+1, -2026099.9, -2232961.8, -560.97424, 0.0007578438, -0.0003531151, -2026098.4, 161774.52 
1.4964317e+3, 8.6736983e+1, -1945853.6, -2147373.5, -755.5775, 0.00022778411, 0.0007231668, -1945850.8, 144127.0 
1.4963718e+3, 9.6726114e+1, -1862863.4, -2056865.9, -609.7392, 0.00026211183, 0.0021658817, -1862861.5, 129222.89 
1.496312e+3, 1.0671499e+2, -1783360.0, -1973171.4, -737.6004, 0.000036004527, 0.0034048927, -1783357.1, 110836.164 
1.4962523e+3, 1.1670364e+2, -1700413.5, -1882468.6, -865.02435, -0.0004573341, 0.0031485711, -1700409.5, 95895.16 
1.4961925e+3, 1.2669206e+2, -1620503.8, -1798618.1, -750.86365, 0.000027925931, 0.0032079117, -1620500.6, 77917.39 
1.4961328e+3, 1.3668023e+2, -1536903.4, -1707559.0, -766.2109, 0.0012138524, 0.001728488, -1536900.0, 63633.906 
1.496073e+3, 1.466682e+2, -1456596.9, -1623574.5, -625.70795, 0.0011371063, 0.001706694, -1456594.5, 46057.293 
1.4960133e+3, 1.5665591e+2, -1372502.4, -1532372.9, -574.0183, 0.00040747144, 0.00095240044, -1372500.4, 32271.938 
1.4959535e+3, 1.6664335e+2, -1292807.6, -1449674.6, -636.7068, -0.000024337409, 0.001980186, -1292805.0, 14090.294 
1.4958937e+3, 1.7663051e+2, -1209037.4, -1358443.4, -826.3198, -0.00022031304, 0.00241821, -1209032.9, -11.620449 
1.495834e+3, 1.8661743e+2, -1129109.3, -1274905.6, -940.1385, -0.00018438871, 0.0029065176, -1129103.1, -17953.69 
1.4957742e+3, 1.9660407e+2, -1045414.8, -1183783.6, -892.1923, -0.0001706173, 0.0019023378, -1045409.06, -32128.775 
1.4957145e+3, 2.0659049e+2, -965392.7, -1100282.9, -822.13104, 0.00041803627, 0.0028321892, -965387.7, -49974.176 
1.4956547e+3, 2.1657662e+2, -881567.75, -1009176.5, -948.82166, 0.001327028, 0.002963713, -881560.7, -64011.34 
1.495595e+3, 2.2656247e+2, -801397.8, -925849.0, -1027.2722, 0.00091720204, 0.0031772594, -801389.4, -81701.39 
1.4955352e+3, 2.3654805e+2, -717027.06, -834266.2, -1206.6595, -0.00029315797, 0.0018665644, -717014.6, -95185.35 
1.4954755e+3, 2.4653342e+2, -637359.9, -750439.56, -1429.2617, -0.0004444037, 0.0017801513, -637341.8, -113369.12 
1.4954157e+3, 2.5651854e+2, -554848.0, -659642.5, -1575.5529, -0.0000033651356, 0.0007913642, -554824.3, -128705.85 
1.495356e+3, 2.6650345e+2, -475266.06, -575893.44, -1588.7584, 0.00010788064, 0.0016677694, -475241.0, -146974.63 
1.4952962e+3, 2.7648813e+2, -391567.5, -484274.66, -1793.7112, 0.000045498142, 0.0019802323, -391532.8, -161116.44 
1.4952366e+3, 2.8647265e+2, -311302.47, -399204.4, -1665.5677, -0.00023541569, 0.0021782143, -311270.94, -178702.77 
1.4951769e+3, 2.9645696e+2, -228407.03, -308329.4, -1515.9462, -0.00038094318, 0.0007473676, -228378.3, -193656.6 
1.4951172e+3, 3.0644432e+2, -152699.63, -179560.61, -1658.3708, 0.0004920646, 0.002122908, -152597.63, -152597.63 
1.4950578e+3, 3.1643468e+2, -167809.64, -184998.84, -2045.6891, 0.0017364875, 0.0030894994, -167569.53, -167569.53 
1.4949979e+3, 3.264308e+2, -105918.664, -29979.78, -2994.108, -0.0019982506, -0.0029004482, -29861.912, -29861.912 
1.5067518e+3, 3.6849368e+1, -2346320.5, -2579195.8, 4628.5415, 0.0033110606, 0.0014394661, -2346228.8, 232647.75 
1.5066908e+3, 4.683935e+1, -2273096.5, -2498576.3, 3326.9343, -0.009794738, -0.0011162828, -2273047.3, 207927.17 
1.5066302e+3, 5.6829214e+1, -2185500.0, -2406385.0, 3385.067, 0.004262132, 0.002712501, -2185448.3, 197625.77 
1.5065694e+3, 6.681884e+1, -2105272.0, -2321560.5, 3497.8408, 0.005705206, 0.003059724, -2105215.5, 179960.13 
1.5065084e+3, 7.680825e+1, -2024613.9, -2231982.5, 3723.448, -0.00045008704, 0.00014134553, -2024547.0, 162732.34 
1.5064476e+3, 8.679756e+1, -1945059.3, -2146677.8, 3889.3171, -0.0012955051, 0.00097483187, -1944984.3, 144399.9 
1.5063868e+3, 9.678671e+1, -1862417.5, -2056289.4, 3827.7048, 0.00072276534, 0.0022352773, -1862341.9, 129148.62 
1.506326e+3, 1.067756e+2, -1782731.4, -1972511.3, 3906.117, 0.00076108676, 0.0029216453, -1782651.0, 110948.445 
1.5062653e+3, 1.1676425e+2, -1699178.0, -1881535.6, 4050.4878, -0.00035322795, 0.00214235, -1699088.1, 96622.57 
1.5062045e+3, 1.2675269e+2, -1619054.1, -1797508.5, 4342.928, 0.000099870704, 0.0026392257, -1618948.5, 78875.4 
1.5061438e+3, 1.3674088e+2, -1535394.5, -1706465.5, 4338.6504, 0.0015251241, 0.0018984753, -1535284.6, 64655.063 
1.506083e+3, 1.4672884e+2, -1455576.5, -1623006.1, 4370.5215, 0.0011299424, 0.002041456, -1455462.5, 46595.09 
1.5060224e+3, 1.5671654e+2, -1372209.0, -1532111.5, 4195.5767, -0.000060904415, 0.0012424291, -1372099.0, 32079.086 
1.5059616e+3, 1.6670398e+2, -1292462.3, -1449380.0, 4275.738, -0.00029745008, 0.0020315903, -1292345.9, 13955.32 
1.5059009e+3, 1.7669113e+2, -1208199.6, -1357933.3, 4343.872, -0.00000047014265, 0.0021302998, -1208073.6, 353.50113 
1.5058403e+3, 1.8667804e+2, -1127762.3, -1274203.8, 4272.6543, 0.00029315669, 0.0026658701, -1127637.8, -17082.346 
1.5057795e+3, 1.9666469e+2, -1043498.56, -1182776.1, 4195.4873, 0.0004514291, 0.0019476361, -1043372.25, -30685.928 
1.5057187e+3, 2.0665106e+2, -963640.25, -1099652.9, 4108.8716, 0.000564861, 0.002898334, -963516.2, -48696.426 
1.505658e+3, 2.1663716e+2, -880106.06, -1008625.56, 3944.413, 0.00058684766, 0.0029371444, -879985.1, -63029.12 
1.5055972e+3, 2.26623e+2, -800409.94, -925275.06, 3971.6914, 0.00035333913, 0.0029068307, -800283.75, -81188.99 
1.5055366e+3, 2.3660856e+2, -717008.8, -834216.7, 3947.2605, 0.00007600347, 0.0012652572, -716876.0, -95639.84 
1.5054758e+3, 2.4659392e+2, -636833.5, -750359.75, 3673.7788, -0.00022150902, 0.0013691456, -636714.75, -113334.9 
1.505415e+3, 2.56579e+2, -552758.44, -658823.56, 3554.5327, -0.0005332788, 0.0008281821, -552639.5, -127113.61 
1.5053542e+3, 2.6656386e+2, -472949.97, -575069.94, 3598.6755, 0.00011322026, 0.0020089399, -472823.3, -145149.2 
1.5052934e+3, 2.7654856e+2, -389675.75, -483639.63, 3473.4197, 0.0012542558, 0.0025505812, -389547.53, -159723.0 
1.5052328e+3, 2.8653303e+2, -310023.0, -398806.84, 3166.383, -0.000131259, 0.0024241111, -309910.22, -177933.53 
1.505172e+3, 2.965173e+2, -227901.03, -308248.22, 2845.7112, -0.0026250158, 0.00028564213, -227800.38, -193669.77 
1.5051112e+3, 3.065046e+2, -152542.56, -179418.44, 2655.138, 0.00029859296, 0.0018263721, -152282.77, -152282.77 
1.5050505e+3, 3.16495e+2, -167944.23, -185038.36, 2830.1265, 0.005864916, 0.0036732375, -167487.86, -167487.86 
1.5049896e+3, 3.2649106e+2, -102391.32, -28588.64, 1238.295, -0.0042839455, -0.002017361, -28567.87, -28567.87 
1.5167733e+3, 3.6911035e+1, -2348601.0, -2581412.3, -4340.1997, 0.009613574, 0.006236403, -2348520.0, 229752.03 
1.5167108e+3, 4.690086e+1, -2272076.3, -2498250.3, 1137.9857, -0.018124515, -0.006012548, -2272070.5, 208301.28 
1.5166496e+3, 5.6890744e+1, -2186112.8, -2406612.5, 862.29626, 0.0059484006, 0.001164397, -2186109.3, 196361.56 
1.5165876e+3, 6.6880435e+1, -2105745.0, -2321117.5, -452.45456, 0.0076357145, 0.0040278197, -2105744.3, 178827.84 
1.5165256e+3, 7.6869917e+1, -2024651.3, -2231488.8, -151.17023, -0.0022550917, 0.0029779507, -2024651.1, 162023.89 
1.5164638e+3, 8.685923e+1, -1945291.5, -2146810.3, 466.16757, -0.0026510966, 0.0029491445, -1945290.5, 143489.34 
1.5164019e+3, 9.6848345e+1, -1862530.3, -2056263.6, 423.49167, 0.0016365735, 0.0019725508, -1862529.4, 128357.11 
1.5163401e+3, 1.0683726e+2, -1782549.6, -1971938.9, 650.99585, 0.001924007, 0.0013266982, -1782547.4, 110447.67 
1.5162784e+3, 1.16825946e+2, -1699055.1, -1881073.9, 758.0459, 0.00016371992, -0.00024244883, -1699052.0, 96054.02 
1.5162165e+3, 1.2681441e+2, -1619074.8, -1797380.5, 1049.9725, 0.00016879519, 0.0010906629, -1619068.5, 78150.39 
1.5161549e+3, 1.3680264e+2, -1535471.8, -1706432.5, 1016.2221, 0.0010027367, 0.0021034258, -1535465.6, 63868.67 
1.5160932e+3, 1.4679061e+2, -1455856.1, -1623548.9, 1000.18396, 0.00036253646, 0.0031090735, -1455850.3, 45602.184 
1.5160313e+3, 1.5677828e+2, -1372268.3, -1532406.9, 872.8719, -0.00081484887, 0.0026223916, -1372263.5, 31309.672 
1.5159698e+3, 1.6676572e+2, -1292220.0, -1448905.1, 1093.7487, -0.00033921155, 0.0025842907, -1292212.4, 13483.897 
1.5159081e+3, 1.7675287e+2, -1208042.9, -1357602.4, 1129.3789, 0.0010274042, 0.0011278781, -1208034.4, -212.28008 
1.5158464e+3, 1.8673977e+2, -1127919.3, -1274496.5, 1076.329, 0.0014725596, 0.0015906903, -1127911.4, -17961.018 
1.5157847e+3, 1.9672641e+2, -1043655.7, -1183128.0, 957.25415, 0.0013727366, 0.0015524625, -1043649.1, -31567.693 
1.515723e+3, 2.0671275e+2, -963921.5, -1100221.4, 689.15375, 0.00024846738, 0.0017237528, -963918.0, -49702.766 
1.5156613e+3, 2.166988e+2, -880241.3, -1008992.2, 527.6831, -0.0015935852, 0.00038635125, -880239.1, -63887.145 
1.5155996e+3, 2.2668464e+2, -800185.56, -924956.1, 451.7524, -0.0011674416, 0.00087483256, -800183.94, -81693.24 
1.5155378e+3, 2.3667024e+2, -716780.4, -833956.06, 412.69138, 0.0006262366, 0.00072002393, -716778.94, -96147.14 
1.5154761e+3, 2.4665558e+2, -636877.9, -750700.0, 225.96889, 0.0003570749, 0.0018451675, -636877.44, -114101.99 
1.5154143e+3, 2.5664064e+2, -552833.56, -659172.44, 44.52373, -0.0010617815, 0.0019966136, -552833.5, -127911.82 
1.5153526e+3, 2.6662552e+2, -473004.78, -575334.8, -173.96576, 0.00020120542, 0.0026330168, -473004.47, -145934.25 
1.5152907e+3, 2.766101e+2, -389820.8, -484102.72, -344.69427, 0.002802293, 0.001917966, -389819.53, -160598.56 
1.5152289e+3, 2.865945e+2, -310556.03, -400089.38, -887.06494, -0.000015451487, 0.002021008, -310547.22, -179173.42 
1.515167e+3, 2.9657874e+2, -228272.22, -309187.75, -1236.7401, -0.0054512136, 0.00085387245, -228253.31, -194724.75 
1.5151052e+3, 3.0656603e+2, -152041.27, -178523.61, -1551.5303, -0.000611384, 0.0014799293, -151950.67, -151950.67 
1.5150435e+3, 3.1655645e+2, -167809.94, -184838.2, -1173.8977, 0.009293192, 0.0018019414, -167729.39, -167729.39 
1.5149814e+3, 3.2655245e+2, -104090.0, -32191.518, -1825.1915, -0.0059196274, 0.004394349, -32145.213, -32145.213 
1.5267947e+3, 3.6973917e+1, -2349005.0, -2582545.8, 1010.31586, 0.003702811, 0.0067419284, -2349000.8, 228655.05 
1.5267314e+3, 4.696368e+1, -2264302.5, -2494499.8, 4942.335, -0.005805628, -0.0076804855, -2264196.5, 215559.53 
1.5266687e+3, 5.695356e+1, -2186917.3, -2406926.0, 4696.2373, 0.0022157992, 0.0018878938, -2186817.3, 195038.08 
1.5266058e+3, 6.694328e+1, -2107373.0, -2320993.5, 3801.5833, 0.0028856795, 0.0045445124, -2107305.3, 176650.72 
1.5265428e+3, 7.693282e+1, -2024010.0, -2230352.8, 4179.2954, -0.0006732741, 0.0020982912, -2023925.4, 162133.17 
1.5264799e+3, 8.692216e+1, -1944262.8, -2145947.5, 4978.9707, -0.00055551453, 0.0019583195, -1944140.0, 144023.08 
1.526417e+3, 9.69113e+1, -1861640.5, -2055422.8, 5083.085, 0.0013602944, 0.0015147368, -1861507.3, 128762.266 
1.5263541e+3, 1.0690024e+2, -1781728.5, -1971097.1, 5468.3286, 0.0013680606, 0.0015738022, -1781570.6, 110807.18 
1.5262914e+3, 1.16888955e+2, -1698446.6, -1880367.8, 5506.1875, 0.00038724448, 0.0006102418, -1698280.1, 96208.305 
1.5262286e+3, 1.2687744e+2, -1618761.8, -1796912.9, 5844.245, 0.000173023, 0.0014478106, -1618570.3, 78031.055 
1.5261659e+3, 1.3686566e+2, -1535197.0, -1705961.9, 5819.353, 0.00028965945, 0.0016735101, -1534998.9, 63717.785 
1.5261032e+3, 1.4685364e+2, -1455040.1, -1622821.9, 6081.669, 0.00016434479, 0.0025939166, -1454819.9, 46014.67 
1.5260406e+3, 1.5684132e+2, -1370548.0, -1531242.8, 6201.917, 0.00003994714, 0.0023643316, -1370309.0, 32646.293 
1.5259778e+3, 1.6682877e+2, -1290500.0, -1447964.8, 6361.7817, 0.00032049417, 0.0025287447, -1290243.4, 14835.013 
1.5259153e+3, 1.7681591e+2, -1206854.0, -1356844.1, 6255.8633, 0.00092627725, 0.0011125209, -1206593.5, 610.6569 
1.5258527e+3, 1.868028e+2, -1127002.1, -1274078.1, 6247.7065, 0.0009846761, 0.0015958362, -1126737.3, -17404.611 
1.5257901e+3, 1.9678941e+2, -1042850.94, -1182733.9, 6143.9224, 0.00083412015, 0.0015882723, -1042581.6, -31117.74 
1.5257274e+3, 2.0677575e+2, -962890.5, -1099671.0, 5945.9717, 0.00012748051, 0.0017923882, -962632.5, -49034.688 
1.5256645e+3, 2.167618e+2, -878966.6, -1008346.5, 6015.8667, -0.001064459, 0.0005956234, -878687.5, -62952.832 
1.5256019e+3, 2.267476e+2, -798617.5, -924463.56, 5792.7627, -0.0006118947, 0.0012155849, -798351.44, -80477.82 
1.5255392e+3, 2.3673317e+2, -714532.94, -833141.8, 5435.714, 0.00081860716, 0.0010794573, -714284.4, -94269.234 
1.5254764e+3, 2.4671848e+2, -634945.06, -750026.4, 5055.4795, 0.00040747994, 0.0020719713, -634723.44, -112564.26 
1.5254137e+3, 2.567035e+2, -551639.4, -658828.44, 4827.6416, -0.0010453564, 0.0020865775, -551422.4, -127116.52 
1.525351e+3, 2.6668832e+2, -471918.84, -574976.8, 4494.01, -0.00018086808, 0.0024469034, -471723.25, -145268.56 
1.5252881e+3, 2.766729e+2, -388702.7, -483738.03, 4352.7866, 0.0019436814, 0.0013341691, -388503.75, -159897.98 
1.5252252e+3, 2.8665724e+2, -309051.6, -399844.34, 3897.8213, 0.00005536157, 0.0021413905, -308884.56, -178125.6 
1.5251622e+3, 2.966414e+2, -225960.48, -308585.25, 3805.123, -0.0039163684, 0.0022247918, -225785.61, -192871.44 
1.5250993e+3, 3.0662867e+2, -149593.02, -178093.25, 2741.7483, -0.00045860332, 0.0021433097, -149331.66, -149331.66 
1.5250362e+3, 3.1661898e+2, -165419.72, -184309.66, 2242.2195, 0.0071139177, 0.0009580263, -165157.22, -165157.22 
1.5249732e+3, 3.2661498e+2, -103771.52, -31718.512, 2996.5286, -0.004946187, 0.006245404, -31594.107, -31594.107 
1.536816e+3, 3.70378e+1, -2349534.0, -2582620.8, 1961.7428, -0.0069618346, 0.0052246703, -2349517.5, 227512.22 
1.5367523e+3, 4.702756e+1, -2265784.0, -2495535.8, -66.813484, 0.015901113, -0.007304185, -2265784.0, 213346.05 
1.536688e+3, 5.701744e+1, -2187374.8, -2407228.8, 203.76349, -0.0047137197, 0.0037875094, -2187374.8, 193854.67 
1.5366238e+3, 6.700718e+1, -2107036.5, -2320002.8, 652.733, -0.0053988183, 0.0047505703, -2107034.5, 176295.22 
1.5365599e+3, 7.6996756e+1, -2023857.0, -2229543.3, 903.89557, 0.002748673, -0.0008544261, -2023853.0, 161578.89 
1.536496e+3, 8.6986154e+1, -1944357.9, -2145649.5, 1515.6995, 0.003304376, -0.0006208852, -1944346.5, 143189.4 
1.536432e+3, 9.6975344e+1, -1861639.5, -2055105.8, 1642.5109, 0.00020389899, 0.001033608, -1861625.5, 128016.3 
1.5363681e+3, 1.0696433e+2, -1781788.6, -1970865.0, 2169.2844, -0.00032036097, 0.0030165035, -1781763.8, 109986.06 
1.5363045e+3, 1.1695308e+2, -1698485.9, -1880133.3, 2185.0735, 0.0003261498, 0.0034660378, -1698459.5, 95400.5 
1.5362406e+3, 1.2694156e+2, -1618805.4, -1796838.5, 2578.828, 0.000027157334, 0.0029749533, -1618768.0, 77204.88 
1.536177e+3, 1.3692978e+2, -1535094.0, -1705736.3, 2575.8967, -0.0006536577, 0.000839033, -1535055.1, 63033.258 
1.5361133e+3, 1.4691778e+2, -1454813.6, -1622254.4, 2989.5325, 0.00028729014, 0.0011204104, -1454760.4, 45445.68 
1.5360497e+3, 1.569055e+2, -1370483.4, -1530898.3, 3031.4905, 0.0019304741, 0.0011144149, -1370426.1, 31900.209 
1.535986e+3, 1.6689296e+2, -1290752.9, -1448344.0, 3003.2058, 0.0013843444, 0.0021647608, -1290695.6, 13753.644 
1.5359224e+3, 1.7688009e+2, -1206953.4, -1357104.9, 2937.0205, -0.00008796709, 0.0018866782, -1206896.0, -320.7646 
1.535859e+3, 1.8686698e+2, -1127077.0, -1274294.0, 3013.8083, -0.000765021, 0.002494651, -1127015.4, -18311.564 
1.5357953e+3, 1.9685356e+2, -1042882.2, -1182833.5, 2890.5098, -0.0008723628, 0.0020350835, -1042822.5, -31987.236 
1.5357317e+3, 2.0683992e+2, -962724.8, -1099325.0, 2586.071, 0.00008375836, 0.0028950819, -962675.9, -49706.848 
1.535668e+3, 2.1682599e+2, -878842.4, -1008232.9, 2634.1362, 0.0014739011, 0.0029525019, -878788.75, -63683.246 
1.5356043e+3, 2.2681177e+2, -799062.8, -925539.2, 2418.58, 0.0014454741, 0.003432273, -799016.56, -81771.66 
1.5355407e+3, 2.3679724e+2, -714946.06, -834113.1, 2022.2972, 0.00057089014, 0.0022044168, -714911.75, -95524.484 
1.5354769e+3, 2.4678247e+2, -635119.75, -750597.44, 1415.1638, -0.000044387427, 0.0020896406, -635102.4, -113570.43 
1.5354131e+3, 2.5676745e+2, -551749.3, -659276.7, 1178.8875, -0.0006940952, 0.0012081807, -551736.4, -128057.3 
1.5353492e+3, 2.6675227e+2, -471905.44, -575209.2, 764.0689, -0.0011520047, 0.0015453503, -471899.8, -146071.61 
1.5352854e+3, 2.7673683e+2, -388683.44, -483952.75, 595.10315, -0.0012456368, 0.0008095339, -388679.72, -160700.25 
1.5352215e+3, 2.8672117e+2, -308995.66, -399947.56, 59.508907, 0.00004123883, 0.0027154526, -308995.63, -178862.9 
1.5351574e+3, 2.9670534e+2, -226174.67, -309191.2, -88.846886, 0.0016109457, 0.004180356, -226174.56, -193886.64 
1.5350933e+3, 3.0669242e+2, -150993.33, -181124.44, -1475.6261, 0.00045199093, 0.0036154743, -150921.23, -150921.23 
1.5350291e+3, 3.1668252e+2, -166348.95, -186292.97, -1964.0269, -0.00082976115, 0.0011341076, -166157.38, -166157.38 
1.5349652e+3, 3.2667857e+2, -101883.516, -27819.977, -1077.3666, -0.0011806769, 0.0031793853, -27804.309, -27804.309 
1.5468377e+3, 3.7102675e+1, -2347514.8, -2582289.5, 5307.7754, -0.0025714112, 0.0026996115, -2347394.8, 228999.23 
1.5467727e+3, 4.7092593e+1, -2268097.0, -2494406.8, 2852.7542, 0.010584661, -0.0035677068, -2268061.0, 210431.67 
1.5467072e+3, 5.708261e+1, -2186064.0, -2404706.3, 4224.816, -0.0032798753, 0.002946884, -2185982.5, 194608.14 
1.546642e+3, 6.7072415e+1, -2106136.8, -2319192.0, 5415.32, -0.0035100942, 0.003413494, -2105999.3, 176691.31 
1.546577e+3, 7.706203e+1, -2023906.5, -2229039.3, 5411.374, 0.0022535508, -0.0004794017, -2023763.8, 161028.52 
1.546512e+3, 8.705147e+1, -1944218.1, -2144755.8, 6110.8525, 0.0023960052, 0.00003866489, -1944032.0, 142863.77 
1.546447e+3, 9.704071e+1, -1861102.3, -2054080.1, 6390.3916, -0.00028447583, 0.0012784061, -1860890.9, 128110.375 
1.5463822e+3, 1.0702972e+2, -1781419.4, -1970159.0, 7085.304, -0.00033895488, 0.002849456, -1781153.8, 109955.1 
1.5463173e+3, 1.170185e+2, -1698270.3, -1879466.9, 7197.934, 0.00080267154, 0.0028639685, -1697984.8, 95234.11 
1.5462527e+3, 1.2700702e+2, -1618180.1, -1796071.8, 7864.6787, 0.00045678296, 0.0025744084, -1617833.1, 77498.35 
1.546188e+3, 1.3699526e+2, -1533896.6, -1704704.4, 7955.2935, -0.00039744301, 0.00097279117, -1533526.9, 63919.754 
1.5461235e+3, 1.4698327e+2, -1454127.1, -1621704.0, 8262.46, 0.0002977422, 0.0013712104, -1453720.8, 45843.49 
1.5460588e+3, 1.56971e+2, -1370508.5, -1530663.4, 8102.1626, 0.0016548976, 0.0011553761, -1370099.6, 31584.932 
1.5459943e+3, 1.6695844e+2, -1290275.0, -1447913.6, 8213.603, 0.0011372133, 0.0020683587, -1289848.1, 13959.389 
1.5459298e+3, 1.7694558e+2, -1205279.5, -1356103.5, 8264.502, -0.00022079595, 0.0019057622, -1204828.0, 1105.5208 
1.5458651e+3, 1.8693246e+2, -1125418.6, -1273429.1, 8301.822, -0.0007222759, 0.0025614344, -1124954.5, -16892.387 
1.5458007e+3, 1.9691904e+2, -1041744.6, -1182176.9, 8266.545, -0.0006767555, 0.0020327743, -1041259.7, -31065.965 
1.545736e+3, 2.0690536e+2, -961309.4, -1098821.8, 7880.7007, 0.00031872632, 0.002753992, -960859.2, -48531.52 
1.5456715e+3, 2.1689141e+2, -876690.7, -1007375.56, 7637.809, 0.0018457412, 0.0026041765, -876245.8, -61781.26 
1.5456069e+3, 2.2687714e+2, -797096.25, -924862.1, 7379.2646, 0.001303518, 0.003303016, -796671.44, -80067.234 
1.5455422e+3, 2.3686258e+2, -713553.56, -833655.4, 7285.1426, -0.00043524467, 0.0024664258, -713113.25, -94366.27 
1.5454774e+3, 2.4684778e+2, -633451.1, -749970.1, 6806.779, -0.0002852378, 0.0022498379, -633054.9, -112162.89 
1.5454125e+3, 2.5683272e+2, -549483.3, -658420.5, 6670.9985, 0.00071662746, 0.0010740291, -549076.3, -126036.84 
1.5453477e+3, 2.6681748e+2, -469721.94, -574729.8, 5986.8086, -0.00065516634, 0.0016663185, -469381.72, -144192.64 
1.5452829e+3, 2.7680197e+2, -386462.7, -483358.38, 5563.2173, -0.002964845, 0.0014538387, -386144.34, -158803.36 
1.545218e+3, 2.867863e+2, -306593.53, -398889.03, 4845.993, -0.00039723914, 0.002883215, -306339.78, -176845.14 
1.5451528e+3, 2.9677042e+2, -223927.33, -308384.0, 4673.231, 0.00396124, 0.0033440043, -223669.53, -192019.36 
1.5450877e+3, 3.067574e+2, -148756.2, -181469.9, 3409.6428, 0.00011163922, 0.0032833181, -148404.61, -148404.61 
1.5450223e+3, 3.1674737e+2, -162800.67, -185568.64, 3271.4377, -0.005877395, 0.0020995035, -162339.94, -162339.94 
1.5449572e+3, 3.2674342e+2, -100663.89, -26017.412, 2741.106, 0.0023097466, 0.0022511398, -25916.89, -25916.89 
1.5568593e+3, 3.7168458e+1, -2348494.5, -2583050.3, 798.70074, 0.007077957, 0.00020227992, -2348491.8, 227257.6 
1.5567929e+3, 4.715862e+1, -2266668.0, -2490501.0, -376.28705, -0.008585666, 0.0020019985, -2266667.3, 211178.5 
1.5567264e+3, 5.7148844e+1, -2184755.8, -2401489.5, 698.8005, 0.0026894594, 0.00061570626, -2184753.5, 195188.13 
1.5566602e+3, 6.7138743e+1, -2106549.3, -2319511.0, 1928.5985, 0.0034753764, 0.0013611552, -2106531.8, 175508.73 
1.5565939e+3, 7.7128386e+1, -2024167.8, -2229080.8, 1992.1411, -0.0006591158, 0.0018292475, -2024148.4, 159993.69 
1.5565279e+3, 8.711788e+1, -1944032.5, -2143811.8, 2862.8499, -0.0012590556, 0.0025726445, -1943991.5, 142253.48 
1.556462e+3, 9.710718e+1, -1860973.3, -2053267.8, 3082.6565, -0.00048033198, 0.001971168, -1860923.8, 127426.09 
1.5563962e+3, 1.07096225e+2, -1781431.6, -1969734.3, 3746.3293, 0.00050367747, 0.0017424579, -1781357.1, 109100.06 
1.5563305e+3, 1.17085025e+2, -1698113.4, -1878938.6, 3877.4578, 0.0014989455, 0.00023649426, -1698030.3, 94536.734 
1.5562648e+3, 1.2707359e+2, -1618013.1, -1795524.6, 4732.591, 0.0012009009, 0.0011658424, -1617887.0, 76791.97 
1.556199e+3, 1.3706191e+2, -1533819.1, -1704351.8, 4738.2803, 0.0005152481, 0.0018149811, -1533687.5, 63106.066 
1.5561335e+3, 1.4704989e+2, -1454423.0, -1622143.6, 4914.7095, 0.00006421969, 0.0027731233, -1454279.1, 44632.1 
1.556068e+3, 1.570376e+2, -1370621.5, -1530900.5, 4832.109, -0.00017684243, 0.002082097, -1370475.9, 30555.887 
1.5560025e+3, 1.6702504e+2, -1290209.5, -1447703.3, 5209.8213, -0.000041343726, 0.0022287958, -1290037.4, 13117.475 
1.5559371e+3, 1.7701219e+2, -1205286.4, -1355948.4, 5168.583, 0.0001905232, 0.0014745916, -1205109.4, 171.40974 
1.5558715e+3, 1.8699908e+2, -1125499.6, -1273459.9, 4894.0884, 0.000548133, 0.0020988951, -1125337.9, -17928.678 
1.5558061e+3, 1.9698566e+2, -1041756.3, -1182291.8, 4918.7354, 0.000832537, 0.0017488298, -1041584.3, -32043.535 
1.5557405e+3, 2.0697194e+2, -961721.5, -1099725.8, 4710.705, 0.00067890977, 0.0017854082, -961560.9, -49885.67 
1.555675e+3, 2.169579e+2, -877041.75, -1008119.56, 4424.464, 0.00037938863, 0.00030612136, -876892.6, -63079.777 
1.5556094e+3, 2.2694361e+2, -797067.56, -924825.56, 3867.2502, -0.00070503546, 0.0013925659, -796950.6, -80997.93 
1.5555437e+3, 2.3692907e+2, -713441.3, -833568.5, 3782.378, -0.0021505821, 0.0020360644, -713322.4, -95227.055 
1.555478e+3, 2.4691428e+2, -633395.94, -750101.9, 3326.5732, -0.0004392124, 0.0025656137, -633301.2, -113060.945 
1.5554123e+3, 2.568992e+2, -549525.1, -658766.6, 3133.9883, 0.0028833905, 0.0015817643, -549435.3, -127047.375 
1.5553463e+3, 2.6688388e+2, -470279.63, -576136.2, 2228.501, 0.0009808759, 0.002650898, -470232.72, -145694.52 
1.5552804e+3, 2.7686828e+2, -386899.75, -484502.13, 1809.8055, -0.0034850035, 0.0030269008, -386866.2, -160175.19 
1.5552144e+3, 2.8685254e+2, -306629.06, -399168.28, 1013.34424, -0.0013615019, 0.0024752552, -306617.97, -177772.67 
1.5551484e+3, 2.968366e+2, -224060.14, -308801.1, 856.0767, 0.0031686884, -0.00024023603, -224051.48, -193050.13 
1.5550819e+3, 3.0682355e+2, -149184.28, -182472.05, -521.36786, -0.0014668758, 0.0012006053, -149176.13, -149176.13 
1.5550154e+3, 3.168135e+2, -163274.72, -186557.27, -967.7904, -0.008181783, 0.0035875505, -163234.55, -163234.55 
1.554949e+3, 3.2680947e+2, -101377.41, -27361.318, -3000.1323, 0.0051754066, 0.0031423431, -27239.912, -27239.912 
1.5668808e+3, 3.7236014e+1, -2346745.0, -2581464.3, 3930.553, 0.0061295573, -0.00049320265, -2346679.3, 228408.11 
1.566813e+3, 4.7226265e+1, -2268285.5, -2490850.0, 5632.122, -0.007358209, 0.006871153, -2268143.0, 209039.83 
1.5667456e+3, 5.7216436e+1, -2185155.8, -2401159.8, 5333.431, 0.0023723813, -0.0005732258, -2185024.0, 194255.05 
1.5666783e+3, 6.7206377e+1, -2106466.8, -2318567.0, 6332.688, 0.003063122, 0.0000378168, -2106277.8, 175099.83 
1.5666111e+3, 7.7196103e+1, -2024167.4, -2228198.5, 6790.774, -0.00070753944, 0.00291706, -2023941.5, 159536.83 
1.5665439e+3, 8.718565e+1, -1944264.5, -2143120.5, 7910.685, -0.00095202285, 0.0034437482, -1943950.3, 141630.5 
1.5664771e+3, 9.7174996e+1, -1861561.4, -2052762.1, 8099.776, 0.00026567662, 0.0015467937, -1861218.9, 126466.45 
1.5664102e+3, 1.0716408e+2, -1781773.8, -1969497.0, 8901.145, 0.00071364315, 0.0013514037, -1781352.6, 108439.61 
1.5663435e+3, 1.171529e+2, -1697669.9, -1878260.3, 8982.25, 0.00075616635, 0.0005678873, -1697224.3, 94677.55 
1.5662767e+3, 1.2714149e+2, -1617531.6, -1794935.3, 9839.997, 0.0007559745, 0.0016007953, -1616987.5, 77026.12 
1.5662102e+3, 1.371298e+2, -1533464.1, -1703742.1, 9712.046, 0.0007773208, 0.0019501292, -1532911.9, 63216.277 
1.5661436e+3, 1.4711782e+2, -1453441.1, -1621275.9, 10077.863, 0.00023675516, 0.002717697, -1452838.1, 45407.418 
1.5660772e+3, 1.5710554e+2, -1368963.1, -1529667.3, 10324.756, -0.00039810373, 0.0019261766, -1368302.6, 32063.41 
1.5660107e+3, 1.67093e+2, -1289029.0, -1447007.1, 10805.52, -0.00023083207, 0.0022419032, -1288293.4, 14195.559 
1.5659444e+3, 1.7708012e+2, -1204787.3, -1355561.4, 10644.537, 0.00040079307, 0.0017567731, -1204039.4, 575.5302 
1.565878e+3, 1.87067e+2, -1124434.4, -1272936.1, 10270.7, 0.0008014228, 0.0022501312, -1123727.4, -16983.762 
1.5658113e+3, 1.9705355e+2, -1039449.3, -1181186.9, 10236.18, 0.000932381, 0.00161336, -1038713.9, -29838.488 
1.565745e+3, 2.070398e+2, -959667.5, -1098844.4, 10096.13, 0.00048650723, 0.0018394853, -958938.94, -47928.938 
1.5656784e+3, 2.1702576e+2, -875834.25, -1007591.25, 10070.157, -0.0002451379, 0.0006829607, -875069.0, -61921.17 
1.565612e+3, 2.2701146e+2, -795580.56, -924261.0, 9450.485, -0.0007183281, 0.0014440867, -794890.2, -79602.234 
1.5655454e+3, 2.3699687e+2, -711219.8, -832701.8, 9233.727, -0.0010351975, 0.0016620371, -710522.0, -93091.086 
1.5654786e+3, 2.4698202e+2, -631096.7, -749451.4, 8508.662, -0.0000735707, 0.002542503, -630488.1, -110911.81 
1.5654118e+3, 2.5696692e+2, -547236.75, -658084.3, 8065.7837, 0.0016816972, 0.0020612336, -546652.9, -124928.44 
1.565345e+3, 2.6695153e+2, -467736.2, -575244.25, 7218.1035, 0.00071414583, 0.0028346237, -467253.75, -143378.5 
1.565278e+3, 2.7693588e+2, -384070.94, -483468.97, 7205.9106, -0.0016940414, 0.002644737, -383551.28, -157522.75 
1.5652108e+3, 2.8692007e+2, -304323.22, -398651.97, 6189.8926, -0.00072265527, 0.0019379936, -303918.75, -175735.34 
1.5651436e+3, 2.969041e+2, -222380.67, -308459.13, 5820.7725, 0.0010598357, -0.000746953, -221988.84, -191648.7 
1.5650763e+3, 3.06891e+2, -147156.27, -181306.45, 4693.78, -0.002307238, 0.0014875638, -146522.88, -146522.88 
1.5650089e+3, 3.1688094e+2, -160960.6, -185588.34, 4578.342, -0.0053592175, 0.004829322, -160137.02, -160137.02 
1.5649411e+3, 3.268768e+2, -96097.03, -26548.658, 1262.779, 0.0045854524, 0.0013332105, -26525.736, -26525.736 
1.5769023e+3, 3.7304854e+1, -2347550.0, -2579900.0, -3446.8843, 0.0010695104, -0.00028835013, -2347499.0, 226913.77 
1.5768333e+3, 4.7295123e+1, -2268794.8, -2492604.3, 2382.3484, 0.0035629445, 0.011092546, -2268769.5, 207738.67 
1.5767647e+3, 5.7285124e+1, -2186209.0, -2402501.8, 2072.381, -0.0015976995, -0.0010734339, -2186189.3, 192416.89 
1.5766965e+3, 6.7275095e+1, -2106343.0, -2317382.8, 2891.61, -0.001289087, -0.0007005911, -2106303.5, 174400.83 
1.5766281e+3, 7.726494e+1, -2023883.0, -2227028.5, 3330.2505, 0.0007743614, 0.0032924034, -2023828.5, 158975.42 
1.57656e+3, 8.725455e+1, -1944209.6, -2142463.5, 4521.949, 0.0014057568, 0.003354138, -1944106.5, 140799.13 
1.5764919e+3, 9.724393e+1, -1861382.6, -2052138.5, 4710.1826, 0.001394463, 0.00056902564, -1861266.4, 125743.29 
1.5764242e+3, 1.07233055e+2, -1781802.6, -1969323.0, 5770.468, 0.0004347014, 0.0014996858, -1781625.1, 107491.11 
1.5763564e+3, 1.1722191e+2, -1697716.9, -1878131.0, 5840.51, -0.0010023053, 0.0026850807, -1697528.0, 93697.45 
1.5762888e+3, 1.272105e+2, -1617748.8, -1794993.0, 6714.0474, -0.00051829754, 0.0031351668, -1617494.9, 75842.55 
1.5762213e+3, 1.3719879e+2, -1533566.6, -1703618.3, 6599.508, 0.0005820116, 0.0016834997, -1533310.9, 62141.2 
1.5761538e+3, 1.4718686e+2, -1453185.4, -1620386.1, 6984.4873, 0.0006316635, 0.0018195519, -1452894.1, 44674.934 
1.5760864e+3, 1.5717463e+2, -1368683.0, -1528967.5, 7147.5923, 0.00039573427, 0.0011421107, -1368365.0, 31323.844 
1.5760191e+3, 1.671621e+2, -1289250.5, -1447386.4, 7530.3335, 0.0001795234, 0.0022860067, -1288892.8, 12918.91 
1.5759517e+3, 1.7714924e+2, -1204970.8, -1355889.1, 7417.313, 0.00034873773, 0.0026242367, -1204607.1, -669.3445 
1.5758844e+3, 1.8713608e+2, -1124657.9, -1273348.0, 7203.122, 0.00023602585, 0.0029614635, -1124309.6, -18243.02 
1.575817e+3, 1.971226e+2, -1039651.9, -1181500.6, 7114.486, -0.00017047975, 0.001723783, -1039295.94, -31097.17 
1.5757497e+3, 2.0710887e+2, -959638.5, -1098737.9, 6664.589, -0.00023179976, 0.0027755962, -959319.9, -48986.547 
1.5756822e+3, 2.1709482e+2, -875747.3, -1007512.8, 6662.544, -0.00024385603, 0.0031625717, -875411.3, -62940.348 
1.5756147e+3, 2.270805e+2, -795816.94, -924849.0, 6099.1763, 0.00081000896, 0.0030789005, -795529.3, -80917.89 
1.575547e+3, 2.3706584e+2, -711471.75, -833396.25, 5867.986, 0.002224166, 0.0014351453, -711190.0, -94435.07 
1.5754794e+3, 2.4705094e+2, -631568.75, -750616.9, 5007.4614, 0.00054328516, 0.002287913, -631358.5, -112457.445 
1.5754116e+3, 2.5703573e+2, -547565.3, -658940.8, 4556.8853, -0.0025706019, 0.002391159, -547379.1, -126329.17 
1.5753438e+3, 2.6702031e+2, -467456.2, -574962.1, 3567.5537, -0.0012916749, 0.0021793237, -467337.94, -144136.95 
1.5752758e+3, 2.770047e+2, -383925.72, -483479.38, 3489.301, 0.002073879, 0.0004128016, -383803.56, -158449.33 
1.5752076e+3, 2.8698882e+2, -304867.94, -400097.2, 2164.6287, 0.001196518, 0.0012452278, -304818.75, -177309.11 
1.5751392e+3, 2.9697278e+2, -222727.34, -309401.94, 1851.2308, -0.0025379795, 0.0014584367, -222687.83, -193020.7 
1.5750708e+3, 3.069597e+2, -146587.83, -180263.64, 897.33185, -0.0025162974, 0.0037026966, -146563.94, -146563.94 
1.5750024e+3, 3.169497e+2, -160877.97, -185449.78, 707.3307, 0.0023446928, 0.0054630865, -160857.63, -160857.63 
1.5749334e+3, 3.2694533e+2, -98056.76, -30491.668, -3002.742, -0.000112919806, -0.003219124, -30358.482, -30358.482 
1.5869236e+3, 3.7374905e+1, -2349873.0, -2578540.8, 1984.528, -0.0015442992, -0.001182768, -2349855.8, 223870.42 
1.5868536e+3, 4.7365233e+1, -2266202.5, -2491626.5, 6044.144, 0.006680379, 0.010551118, -2266040.5, 209780.53 
1.5867838e+3, 5.735521e+1, -2187593.5, -2403226.8, 6271.5854, -0.0018392734, 0.00039845143, -2187411.3, 190508.02 
1.5867144e+3, 6.7345214e+1, -2107751.0, -2316949.3, 7820.7466, -0.0019222095, 0.000025133824, -2107459.0, 172558.11 
1.586645e+3, 7.7335113e+1, -2024564.4, -2226316.3, 8198.103, 0.0009541098, 0.0021047022, -2024231.8, 157884.38 
1.586576e+3, 8.732477e+1, -1944608.8, -2142313.3, 9389.191, 0.0014837949, 0.0027585328, -1944163.9, 140053.66 
1.5865068e+3, 9.731418e+1, -1861171.3, -2051485.8, 9481.498, 0.00094021333, 0.0015415618, -1860700.0, 125621.24 
1.5864381e+3, 1.0730334e+2, -1781322.8, -1968252.8, 10849.58, 0.00031170333, 0.0022080936, -1780695.1, 107732.35 
1.5863694e+3, 1.1729224e+2, -1697354.9, -1877118.5, 11138.789, -0.00046727163, 0.0023657782, -1696667.3, 93868.945 
1.5863007e+3, 1.2728088e+2, -1617625.8, -1794359.1, 12262.113, -0.00022708681, 0.0026983544, -1616779.0, 75868.66 
1.5862325e+3, 1.3726921e+2, -1533672.0, -1703110.6, 12388.519, 0.0003786377, 0.0015683649, -1532771.0, 61990.992 
1.586164e+3, 1.4725727e+2, -1453085.6, -1620332.6, 12779.111, 0.00046223338, 0.0018772377, -1452114.8, 44764.176 
1.5860957e+3, 1.5724503e+2, -1367750.5, -1528385.8, 12490.68, 0.0004801907, 0.0014412815, -1366785.0, 32213.94 
1.5860273e+3, 1.6723248e+2, -1287759.8, -1446483.1, 12729.522, 0.00031427122, 0.0023067272, -1286745.4, 14376.458 
1.585959e+3, 1.772196e+2, -1203159.5, -1354858.1, 12825.788, 0.00031370536, 0.0019640385, -1202082.8, 1165.2941 
1.5858908e+3, 1.8720645e+2, -1123069.0, -1272589.3, 12801.719, 0.00010203354, 0.0024817195, -1121980.9, -16603.814 
1.5858226e+3, 1.9719297e+2, -1038432.8, -1180895.6, 12776.032, -0.00027732473, 0.0018499265, -1037296.1, -29786.848 
1.5857542e+3, 2.071792e+2, -958075.94, -1098204.0, 12084.098, -0.00017869176, 0.0028525514, -957041.5, -47397.414 
1.5856858e+3, 2.1716511e+2, -873418.06, -1006579.2, 11897.913, 0.000057983572, 0.0030571723, -872363.4, -60581.285 
1.5856174e+3, 2.2715074e+2, -793098.5, -923956.75, 11280.703, 0.0009829774, 0.0030250554, -792133.2, -78210.266 
1.5855488e+3, 2.3713607e+2, -708467.94, -832271.1, 11022.349, 0.0021390521, 0.0013449155, -707494.25, -91427.41 
1.5854803e+3, 2.471211e+2, -629041.8, -749768.4, 10115.645, 0.00051789655, 0.002077957, -628200.1, -109986.67 
1.5854114e+3, 2.5710586e+2, -545625.1, -658346.94, 9955.283, -0.0024783667, 0.002138497, -544752.7, -124389.805 
1.5853426e+3, 2.6709038e+2, -465297.34, -574170.9, 8814.0, -0.0011636259, 0.0020559726, -464588.4, -142074.13 
1.5852736e+3, 2.770747e+2, -381242.63, -482539.03, 8329.851, 0.002278212, 0.0004939271, -380562.22, -155894.25 
1.5852043e+3, 2.870588e+2, -301579.25, -399210.0, 6758.3486, 0.0009917365, 0.0020536326, -301113.63, -174289.67 
1.5851349e+3, 2.9704267e+2, -218468.98, -307924.66, 6579.204, -0.0033652748, 0.0031200282, -217987.69, -189005.58 
1.5850654e+3, 3.0702952e+2, -143172.55, -179073.8, 4948.44, -0.0017759742, 0.0030535986, -142502.97, -142502.97 
1.5849958e+3, 3.170194e+2, -158978.77, -184773.14, 3947.057, 0.005685877, 0.0012551706, -158388.31, -158388.31 
1.5849257e+3, 3.270151e+2, -93413.54, -28325.271, 1399.4264, -0.0029240302, -0.00096439105, -28295.197, -28295.197 
1.5969448e+3, 3.7445942e+1, -2348708.0, -2574662.5, 2419.4255, -0.0034559346, -0.0030057342, -2348682.3, 224347.9 
1.5968738e+3, 4.743637e+1, -2267710.8, -2492496.5, 1311.947, 0.005247081, 0.008125411, -2267703.3, 207420.67 
1.5968029e+3, 5.7426393e+1, -2187828.8, -2403201.8, 1976.1764, -0.00018472149, 0.002904851, -2187810.8, 189410.97 
1.5967321e+3, 6.741644e+1, -2107429.5, -2315956.5, 4562.355, -0.00073339406, 0.0014016952, -2107329.8, 171989.34 
1.5966618e+3, 7.740638e+1, -2024444.8, -2225575.8, 4893.7275, 0.00023784093, 0.00010964012, -2024325.8, 157091.9 
1.5965918e+3, 8.739608e+1, -1944971.0, -2142380.5, 6174.8994, 0.00015379718, 0.002042335, -1944778.1, 138740.56 
1.5965217e+3, 9.738554e+1, -1861314.8, -2051256.0, 6303.5737, -0.0005924334, 0.003679635, -1861105.8, 124516.266 
1.596452e+3, 1.0737476e+2, -1781062.1, -1967157.9, 7738.6187, 0.00018710816, 0.003241862, -1780740.9, 106986.74 
1.5963823e+3, 1.17363706e+2, -1697050.0, -1876037.8, 7934.888, 0.0013630965, 0.0006573409, -1696698.9, 93136.92 
1.5963128e+3, 1.2735242e+2, -1617350.9, -1793578.0, 8991.053, 0.0008845317, 0.0012122198, -1616893.4, 75053.234 
1.5962434e+3, 1.3734081e+2, -1533380.4, -1702604.9, 9135.597, 0.000011763967, 0.001634629, -1532888.6, 61171.594 
1.5961741e+3, 1.4732885e+2, -1453617.8, -1621325.8, 9821.463, -0.0002184173, 0.002600629, -1453044.6, 43132.805 
1.5961048e+3, 1.5731657e+2, -1368192.9, -1529150.0, 9528.024, -0.000025850437, 0.00250772, -1367630.8, 30667.188 
1.5960357e+3, 1.67304e+2, -1287762.0, -1446196.0, 9576.27, 0.00020359871, 0.002386525, -1287185.3, 13235.728 
1.5959665e+3, 1.7729113e+2, -1203117.9, -1354597.9, 9655.045, 0.00017696814, 0.00032496938, -1202505.0, 42.183502 
1.5958974e+3, 1.8727799e+2, -1123154.8, -1272679.5, 9597.863, 0.00019317547, 0.0012672056, -1122541.3, -17865.197 
1.5958281e+3, 1.9726449e+2, -1038518.1, -1181086.8, 9571.738, 0.000272737, 0.0020638362, -1037878.4, -31070.215 
1.595759e+3, 2.0725068e+2, -958496.06, -1099089.4, 8834.708, 0.00038532377, 0.0023901393, -957943.06, -48999.613 
1.5956895e+3, 2.1723653e+2, -873757.5, -1007363.2, 8686.773, 0.00042129922, 0.0010964811, -873195.06, -62112.89 
1.5956202e+3, 2.2722211e+2, -793364.8, -924558.94, 8025.27, -0.00011785068, 0.0017301384, -792875.7, -79652.3 
1.5955508e+3, 2.372074e+2, -708648.7, -832712.44, 7685.3877, -0.0007908178, 0.0013349245, -708174.44, -92806.734 
1.595481e+3, 2.4719241e+2, -629001.25, -749932.1, 6432.7383, -0.000012258572, 0.0018729817, -628660.06, -111145.58 
1.5954114e+3, 2.5717714e+2, -545597.0, -658647.75, 6331.1626, 0.0012100807, 0.0013802861, -545243.56, -125579.45 
1.5953414e+3, 2.6716164e+2, -465670.7, -575353.44, 5306.6655, 0.00054328376, 0.0023884405, -465414.53, -143598.52 
1.5952715e+3, 2.771459e+2, -381612.97, -483631.1, 4791.2256, -0.00086335454, 0.0025106212, -381388.44, -157417.98 
1.5952012e+3, 2.871299e+2, -301764.2, -399894.66, 3013.179, -0.0011351468, 0.003940218, -301671.75, -175544.67 
1.5951307e+3, 2.9711372e+2, -218853.73, -308980.28, 2743.065, -0.0017951486, 0.0039680977, -218770.33, -190484.5 
1.5950602e+3, 3.071004e+2, -144324.27, -181655.61, 715.9349, -0.0004653099, -0.00057316496, -144310.55, -144310.55 
1.5949894e+3, 3.1709006e+2, -159565.88, -186079.27, 10.7452, 0.004556508, -0.007881027, -159565.88, -159565.88 
1.5949182e+3, 3.2708603e+2, -91735.93, -24709.117, -1676.9133, -0.0040436783, 0.007892479, -24667.19, -24667.19 
1.606966e+3, 3.751809e+1, -2348824.3, -2573132.3, 5538.4956, 0.00037489308, -0.00044385562, -2348687.5, 223635.4 
1.6068938e+3, 4.7508636e+1, -2272637.0, -2492932.3, 4686.9365, -0.0016747449, 0.006407455, -2272537.3, 201878.33 
1.6068217e+3, 5.749883e+1, -2188286.0, -2401628.8, 6083.981, 0.001806584, 0.0022489608, -2188112.8, 188399.08 
1.6067502e+3, 6.7488974e+1, -2107547.8, -2315206.3, 9062.675, 0.0018418771, 0.0017624836, -2107153.0, 171455.4 
1.6066787e+3, 7.747898e+1, -2025354.6, -2225091.0, 9406.698, -0.00015200418, 0.0016368778, -2024912.6, 155793.61 
1.6066076e+3, 8.746875e+1, -1946018.6, -2141904.3, 11167.091, -0.00055894646, 0.0028414275, -1945384.1, 137422.44 
1.6065367e+3, 9.745825e+1, -1862332.9, -2050709.4, 11665.247, -0.0004457478, 0.002985298, -1861613.3, 123296.14 
1.6064659e+3, 1.0744752e+2, -1782151.1, -1967150.4, 13184.025, 0.00047241745, 0.002827757, -1781216.3, 105798.33 
1.6063952e+3, 1.1743651e+2, -1697905.5, -1875922.8, 13165.568, 0.0015112857, 0.0012224334, -1696937.1, 92185.3 
1.6063248e+3, 1.2742524e+2, -1617340.8, -1793312.5, 14133.516, 0.0008633249, 0.0017242056, -1616212.9, 75020.09 
1.6062546e+3, 1.3741364e+2, -1532025.8, -1701522.5, 14032.237, -0.00015749696, 0.0017751635, -1530871.9, 62474.664 
1.6061844e+3, 1.474017e+2, -1452232.5, -1620095.8, 15088.987, -0.0002021963, 0.002585812, -1450887.0, 44576.496 
1.6061142e+3, 1.5738943e+2, -1367475.3, -1528266.5, 15340.15, 0.00018809775, 0.0023040322, -1366024.9, 31558.951 
1.606044e+3, 1.6737688e+2, -1286999.0, -1445863.1, 15457.548, 0.0003304846, 0.002493606, -1285509.0, 14197.858 
1.605974e+3, 1.7736398e+2, -1201724.1, -1353891.4, 15355.449, 0.00019791485, 0.0010559304, -1200190.0, 1643.126 
1.605904e+3, 1.8735081e+2, -1121313.5, -1271947.6, 15155.336, 0.00019674508, 0.0016821943, -1119803.9, -15841.563 
1.6058338e+3, 1.973373e+2, -1036268.5, -1180110.3, 15040.879, 0.00031269793, 0.0018512616, -1034712.56, -28617.777 
1.6057637e+3, 2.0732346e+2, -956025.6, -1098110.4, 14347.8545, 0.0005375763, 0.0020360695, -954591.25, -46360.844 
1.6056934e+3, 2.1730927e+2, -871061.8, -1006289.94, 14377.825, 0.00063435436, 0.0008150565, -869550.0, -59180.55 
1.605623e+3, 2.272948e+2, -791087.56, -923892.44, 13588.39, -0.00012369658, 0.0017914148, -789711.5, -77200.33 
1.6055527e+3, 2.3728003e+2, -706860.0, -832234.06, 13172.39, -0.001160598, 0.0017786358, -705491.0, -90835.05 
1.6054823e+3, 2.47265e+2, -626195.25, -749003.7, 11648.791, -0.00005326935, 0.002267743, -625100.1, -108296.81 
1.6054113e+3, 2.5724965e+2, -541223.06, -656996.94, 11258.047, 0.0019531191, 0.0016774561, -540138.5, -121185.07 
1.6053404e+3, 2.672341e+2, -461846.63, -574244.8, 9980.414, 0.0007898336, 0.0025539377, -460967.28, -139861.22 
1.6052695e+3, 2.7721825e+2, -378771.03, -482893.75, 9520.545, -0.001735565, 0.0024675454, -377907.7, -154646.34 
1.6051982e+3, 2.872022e+2, -298572.6, -398589.94, 7776.0435, -0.0012499745, 0.0036752673, -297971.66, -172553.17 
1.6051267e+3, 2.97186e+2, -215215.97, -307745.63, 7464.3467, -0.00032494258, 0.0034129703, -214617.69, -187040.02 
1.605055e+3, 3.071725e+2, -140639.11, -181486.95, 5177.303, 0.00007027725, -0.000053439107, -139993.13, -139993.13 
1.6049832e+3, 3.1716207e+2, -154846.95, -184892.72, 4767.447, 0.0029621576, -0.0056147864, -154108.63, -154108.63 
1.604911e+3, 3.2715803e+2, -88054.27, -22005.68, 2347.1794, -0.0036043923, 0.007960583, -21922.371, -21922.371 
1.616987e+3, 3.75912e+1, -2349156.3, -2572046.0, 574.7216, 0.0058280947, 0.0042900853, -2349154.8, 222451.95 
1.6169135e+3, 4.7581872e+1, -2271561.5, -2489757.0, 1904.6809, -0.011359408, 0.0051348954, -2271545.0, 202153.05 
1.6168405e+3, 5.757229e+1, -2187416.5, -2398918.3, 2987.4688, 0.0037849075, 0.000092812574, -2187374.3, 188417.61 
1.616768e+3, 6.7562574e+1, -2107701.3, -2314615.0, 5590.864, 0.0048765065, 0.0018322971, -2107550.3, 170336.83 
1.6166954e+3, 7.755268e+1, -2025318.6, -2224253.0, 5979.303, -0.0005565428, 0.005069169, -2025139.0, 154845.0 
1.6166233e+3, 8.754253e+1, -1945591.0, -2140361.3, 7982.2173, -0.001056327, 0.0043809577, -1945264.5, 136819.06 
1.6165514e+3, 9.7532105e+1, -1861844.5, -2049447.4, 8418.175, 0.00054071296, 0.00075066136, -1861467.5, 122718.125 
1.6164796e+3, 1.0752143e+2, -1782271.5, -1967163.1, 10046.418, 0.0008411211, 0.0017189061, -1781727.3, 104563.03 
1.6164081e+3, 1.1751046e+2, -1697969.9, -1875932.6, 10112.666, 0.00046771517, 0.0031760568, -1697397.0, 91000.76 
1.6163369e+3, 1.2749916e+2, -1617628.6, -1793710.9, 11325.006, 0.000057160116, 0.0034639006, -1616903.3, 73605.24 
1.6162656e+3, 1.3748753e+2, -1532105.8, -1701458.9, 11167.925, -0.00022144619, 0.001963806, -1531372.4, 61250.0 
1.6161944e+3, 1.4747567e+2, -1451726.5, -1618722.3, 12022.954, 0.00019856117, 0.0021741153, -1450865.4, 43873.266 
1.6161235e+3, 1.5746349e+2, -1367088.0, -1527323.9, 12206.011, 0.00071675587, 0.0013882437, -1366163.5, 30694.506 
1.6160525e+3, 1.6745095e+2, -1287393.4, -1446479.8, 12397.837, 0.00047753382, 0.002757837, -1286433.0, 12547.97 
1.6159815e+3, 1.7743804e+2, -1202025.0, -1354432.0, 12309.422, 0.00017074251, 0.0035142794, -1201037.3, 70.23958 
1.6159105e+3, 1.8742482e+2, -1121664.4, -1272550.0, 12038.998, -0.0000015417372, 0.0033238654, -1120709.9, -17472.799 
1.6158395e+3, 1.9741124e+2, -1036540.3, -1180591.6, 11929.158, -0.00021106536, 0.0013927137, -1035559.1, -30189.002 
1.6157684e+3, 2.0739737e+2, -956142.4, -1098289.9, 11153.149, 0.00025346677, 0.0018590754, -955272.6, -47766.67 
1.6156974e+3, 2.1738318e+2, -871190.25, -1006626.6, 11143.331, 0.0006678409, 0.0018479823, -870279.5, -60634.527 
1.615626e+3, 2.2736868e+2, -791454.5, -924807.94, 10131.373, 0.00070131617, 0.002973401, -790689.2, -78902.01 
1.6155548e+3, 2.3735383e+2, -707200.8, -833156.1, 9808.202, 0.00042901243, 0.0027392944, -706441.6, -92508.95 
1.6154833e+3, 2.4733873e+2, -626654.8, -750194.06, 8410.533, 0.00014834278, 0.003242657, -626084.8, -110004.06 
1.6154116e+3, 2.5732332e+2, -541647.4, -658089.2, 7920.4194, 0.000007559917, 0.0027348944, -541111.1, -122879.39 
1.6153397e+3, 2.6730764e+2, -462227.53, -575375.0, 6194.8345, -0.00031264577, 0.0023892468, -461889.38, -141504.11 
1.6152675e+3, 2.7729172e+2, -379016.03, -483780.47, 5825.788, -0.00063896045, 0.00042000934, -378693.1, -156151.63 
1.6151953e+3, 2.8727564e+2, -298568.53, -398928.44, 4219.7197, 0.00030372193, 0.0012962568, -298391.44, -173692.38 
1.6151229e+3, 2.9725933e+2, -215444.11, -308484.63, 3803.7349, 0.0007775616, 0.0014472206, -215288.86, -188430.28 
1.61505e+3, 3.0724585e+2, -141496.27, -183489.78, 1182.2444, -0.0003172537, 0.0043654833, -141463.02, -141463.02 
1.6149771e+3, 3.1723535e+2, -155756.52, -186883.52, 862.75867, 0.00074011175, 0.0073589063, -155732.61, -155732.61 
1.6149037e+3, 3.2723093e+2, -89113.86, -24199.363, -1708.359, -0.0020433434, -0.0014860583, -24154.436, -24154.436 
1.6270079e+3, 3.7665927e+1, -2350975.0, -2572628.3, 4239.522, 0.0019847737, 0.0044373404, -2350894.0, 219980.36 
1.6269332e+3, 4.7656628e+1, -2273819.8, -2489676.5, 7722.082, -0.005060171, 0.0027443012, -2273543.8, 199421.53 
1.6268593e+3, 5.7647157e+1, -2189744.0, -2398833.5, 7978.566, 0.0020690972, 0.0014594821, -2189440.0, 185618.16 
1.6267855e+3, 6.7637527e+1, -2109969.3, -2314695.5, 10228.185, 0.0029728683, 0.002721675, -2109459.5, 167692.97 
1.6267121e+3, 7.7627695e+1, -2027367.0, -2224144.5, 10841.424, -0.00010259845, 0.0038356145, -2026771.5, 152477.48 
1.6266389e+3, 8.7617606e+1, -1947080.5, -2140216.0, 13132.898, -0.0003865885, 0.0033035846, -1946191.6, 135156.16 
1.626566e+3, 9.7607255e+1, -1862558.5, -2048854.1, 13339.14, 0.00088035053, 0.0008391507, -1861608.3, 121840.9 
1.6264933e+3, 1.07596636e+2, -1782483.1, -1966574.1, 15164.156, 0.0008607345, 0.0018860254, -1781242.4, 104310.836 
1.6264209e+3, 1.1758571e+2, -1697700.4, -1875027.5, 15507.369, 0.00017711899, 0.002919562, -1696354.4, 91305.93 
1.6263488e+3, 1.2757446e+2, -1617688.6, -1793108.9, 17181.168, 0.000017824947, 0.0032815663, -1616021.8, 73748.91 
1.6262767e+3, 1.3756286e+2, -1532458.1, -1700992.4, 17287.463, 0.000008020763, 0.0020085801, -1530703.1, 61181.13 
1.6262047e+3, 1.47551e+2, -1451757.9, -1618634.9, 17857.264, 0.00029250863, 0.002210051, -1449868.5, 44131.992 
1.6261329e+3, 1.575388e+2, -1366397.8, -1526800.3, 17549.006, 0.00065774657, 0.0013342785, -1364500.1, 31619.756 
1.6260609e+3, 1.6752626e+2, -1286018.9, -1445832.4, 17830.414, 0.00038028334, 0.0024564473, -1284053.8, 14189.216 
1.6259891e+3, 1.7751332e+2, -1200052.5, -1353478.0, 17902.945, 0.00019940185, 0.0031436612, -1197991.1, 2378.5264 
1.6259173e+3, 1.8750007e+2, -1119661.8, -1271744.1, 17631.254, 0.00031623032, 0.0033021488, -1117644.5, -15145.063 
1.6258453e+3, 1.9748646e+2, -1034492.8, -1179779.3, 17617.78, 0.00023710354, 0.0017587551, -1032387.0, -27754.129 
1.6257735e+3, 2.0747256e+2, -953804.9, -1097646.5, 16703.652, 0.00019609036, 0.002159893, -951890.6, -45121.48 
1.6257015e+3, 2.1745831e+2, -868311.25, -1005654.9, 16409.64, 0.000091765316, 0.001915307, -866377.9, -57469.09 
1.6256292e+3, 2.2744375e+2, -788219.3, -923481.75, 15197.825, 0.00062621245, 0.0027679952, -786532.75, -75481.26 
1.625557e+3, 2.3742886e+2, -703711.06, -831770.6, 15075.203, 0.0011146449, 0.0024372297, -701960.3, -88762.93 
1.6254845e+3, 2.4741368e+2, -623496.75, -749342.4, 13796.769, 0.00029685211, 0.0030333197, -622001.94, -106655.78 
1.6254118e+3, 2.573982e+2, -538659.7, -657318.2, 13276.275, -0.00084261404, 0.002613313, -537192.44, -119694.586 
1.625339e+3, 2.6738247e+2, -458714.13, -574299.8, 11244.583, -0.0005205298, 0.0027277626, -457630.38, -137978.31 
1.625266e+3, 2.7736646e+2, -374768.44, -482364.94, 10942.268, 0.00043390685, 0.0012765055, -373666.9, -151858.03 
1.6251926e+3, 2.8735027e+2, -294392.72, -397743.1, 9054.99, 0.0006870652, 0.001262676, -293605.38, -169637.95 
1.6251191e+3, 2.973339e+2, -211355.72, -307283.94, 8113.437, -0.00008935586, 0.0000995607, -210674.34, -184546.39 
1.6250452e+3, 3.0732036e+2, -136901.72, -181966.95, 5339.455, -0.00067567016, 0.0049743466, -136277.72, -136277.72 
1.624971e+3, 3.173098e+2, -150758.33, -185396.22, 5482.9653, 0.0012924669, 0.011058022, -149911.13, -149911.13 
1.6248967e+3, 3.2730517e+2, -83581.68, -23038.328, 2803.7803, -0.0014368924, -0.0032307769, -22908.762, -22908.762 
1.6370285e+3, 3.7741843e+1, -2352317.0, -2572918.3, -1592.2455, -0.004943373, 0.002495978, -2352305.5, 217824.72 
1.636953e+3, 4.7732547e+1, -2273718.8, -2489598.8, 4470.4434, 0.0081106555, -0.0000044505096, -2273626.3, 198594.97 
1.6368778e+3, 5.772315e+1, -2190276.5, -2398732.5, 4662.4087, -0.001801467, 0.004609188, -2190172.3, 184141.22 
1.6368032e+3, 6.771358e+1, -2110035.5, -2313609.3, 6734.5747, -0.0014884132, 0.004039087, -2109813.0, 166594.13 
1.6367285e+3, 7.7703786e+1, -2027029.9, -2222973.8, 7470.127, 0.00063078274, 0.00013875344, -2026745.5, 151757.7 
1.6366544e+3, 8.769378e+1, -1947106.0, -2139795.3, 10165.55, 0.00067997904, 0.0009513289, -1946571.3, 134030.02 
1.6365807e+3, 9.768351e+1, -1862517.5, -2048285.3, 10366.756, 0.00065647706, 0.002324844, -1861940.8, 120761.11 
1.636507e+3, 1.0767295e+2, -1782292.1, -1965605.0, 12197.759, 0.00060123915, 0.002796821, -1781484.0, 103321.33 
1.6364339e+3, 1.1766208e+2, -1697357.5, -1873951.8, 12470.215, 0.00022457812, 0.0013837592, -1696481.3, 90430.68 
1.6363606e+3, 1.276509e+2, -1617366.9, -1792184.1, 14189.443, 0.00028012643, 0.0020665163, -1616222.6, 72798.695 
1.6362877e+3, 1.3763939e+2, -1532275.3, -1700520.9, 14258.42, 0.00026329703, 0.002091901, -1531075.5, 60058.715 
1.6362149e+3, 1.4762752e+2, -1452354.5, -1619651.5, 14887.757, -0.000004341825, 0.0026097472, -1451039.9, 42210.7 
1.6361421e+3, 1.5761524e+2, -1366696.3, -1527427.0, 14663.182, 0.000008844519, 0.0019173014, -1365369.5, 30001.316 
1.6360693e+3, 1.6760267e+2, -1285991.1, -1445721.0, 14985.577, 0.000062003994, 0.0018327662, -1284597.4, 12896.606 
1.6359967e+3, 1.7758976e+2, -1200082.1, -1353442.3, 14982.605, 0.00013531311, 0.0007893417, -1198632.1, 988.66583 
1.635924e+3, 1.8757649e+2, -1119860.0, -1272081.1, 14516.816, 0.0008193897, 0.0021481165, -1118488.0, -16737.41 
1.6358513e+3, 1.9756289e+2, -1034711.2, -1180285.3, 14535.909, 0.0012422352, 0.002785807, -1033273.94, -29389.95 
1.6357784e+3, 2.075489e+2, -954388.9, -1098939.4, 13653.753, 0.00022463062, 0.0028780974, -953110.5, -47089.516 
1.6357054e+3, 2.1753454e+2, -868819.75, -1006707.8, 13327.478, -0.0011579237, 0.0012875276, -867543.44, -59381.766 
1.6356325e+3, 2.2751994e+2, -788321.1, -923838.7, 11857.48, -0.00036937505, 0.001478831, -787291.44, -76986.68 
1.6355592e+3, 2.3750502e+2, -703778.25, -832227.1, 11760.485, 0.0009453677, 0.001031334, -702710.4, -90259.42 
1.6354859e+3, 2.474898e+2, -623832.75, -750366.4, 10468.652, 0.00038009393, 0.0018348973, -622972.5, -108372.24 
1.6354124e+3, 2.5747424e+2, -539009.75, -658309.8, 9933.086, -0.00091519725, 0.0015306345, -538188.4, -121435.664 
1.6353385e+3, 2.6745847e+2, -458969.16, -575151.4, 7659.578, -0.00015917333, 0.0035080237, -458466.38, -139558.94 
1.6352645e+3, 2.7744243e+2, -375132.78, -483505.25, 7389.0615, 0.0013871739, 0.004675591, -374631.28, -153566.58 
1.6351901e+3, 2.8742608e+2, -295233.34, -399885.56, 5477.98, -0.00010185477, 0.0031582573, -294947.38, -171722.77 
1.6351156e+3, 2.974095e+2, -212010.03, -308955.84, 4523.5693, -0.0032710952, -0.001178452, -211799.4, -186412.5 
1.6350406e+3, 3.0739588e+2, -136931.73, -182294.5, 1503.8317, -0.0013416468, 0.0015119314, -136881.94, -136881.94 
1.6349654e+3, 3.1738526e+2, -151163.64, -186460.58, 1749.8955, 0.0044978936, 0.005903899, -151077.1, -151077.1 
1.6348898e+3, 3.2738063e+2, -84513.414, -25168.807, -937.4644, -0.0026199082, 0.0025584633, -25154.002, -25154.002 
1.6470489e+3, 3.7818828e+1, -2355564.5, -2572727.3, 3098.6768, -0.0034381007, 0.0022787666, -2355520.3, 213855.47 
1.6469724e+3, 4.7809651e+1, -2274107.8, -2488703.0, 7757.5435, 0.0076106247, 0.00038273344, -2273827.5, 197638.08 
1.6468962e+3, 5.780033e+1, -2194104.3, -2399356.5, 8476.249, -0.0020355065, 0.0034046255, -2193754.8, 179802.25 
1.6468203e+3, 6.779087e+1, -2113254.8, -2313648.3, 11433.153, -0.0012877167, 0.0034283213, -2112604.5, 163045.17 
1.6467449e+3, 7.778121e+1, -2028525.4, -2222192.0, 12300.82, 0.0010434596, 0.00079131935, -2027747.3, 149997.16 
1.64667e+3, 8.7771297e+1, -1948661.3, -2139633.3, 15265.061, 0.0007449696, 0.001688895, -1947448.9, 132392.78 
1.6465952e+3, 9.776108e+1, -1864361.5, -2048144.1, 15677.156, 0.00022997728, 0.002692164, -1863033.8, 118907.875 
1.6465208e+3, 1.0775059e+2, -1783936.3, -1965621.8, 17710.154, 0.00044002404, 0.0029571753, -1782226.0, 101818.55 
1.6464466e+3, 1.1773976e+2, -1698323.9, -1873571.5, 17856.055, 0.00045502945, 0.00142266, -1696523.0, 89627.62 
1.6463725e+3, 1.2772863e+2, -1617725.8, -1791893.0, 19475.01, 0.0004080961, 0.0019984783, -1615574.6, 72685.1 
1.6462988e+3, 1.3771713e+2, -1531988.0, -1699875.9, 19374.143, 0.00034705317, 0.002001069, -1529781.3, 60591.125 
1.646225e+3, 1.4770526e+2, -1451408.6, -1619037.8, 20388.193, 0.0000629883, 0.0026491159, -1448964.5, 43524.184 
1.6461514e+3, 1.5769301e+2, -1365070.0, -1526394.9, 20569.426, 0.00003410856, 0.002271366, -1362488.6, 32120.166 
1.646078e+3, 1.6768044e+2, -1284416.9, -1444966.3, 20926.613, 0.000122668, 0.0022618712, -1281734.1, 14997.876 
1.6460045e+3, 1.7766748e+2, -1198448.5, -1352693.9, 20801.568, 0.00009092808, 0.001049574, -1195692.5, 3166.4814 
1.6459309e+3, 1.876542e+2, -1117755.5, -1271398.0, 20179.662, 0.00062563346, 0.0019215496, -1115149.3, -14160.02 
1.6458572e+3, 1.9764052e+2, -1031775.4, -1179200.9, 20119.059, 0.0010723919, 0.0021450766, -1029079.06, -25955.9 
1.6457836e+3, 2.0762649e+2, -951536.5, -1097771.5, 19305.205, 0.00042841706, 0.0027540973, -949030.8, -43770.316 
1.6457097e+3, 2.176121e+2, -866381.94, -1005837.25, 19288.295, -0.0005857594, 0.001963192, -863763.3, -56361.766 
1.6456358e+3, 2.2759743e+2, -785325.8, -923200.3, 17582.24, -0.00026814273, 0.0019420933, -783119.0, -73573.59 
1.6455616e+3, 2.3758242e+2, -699529.44, -830917.25, 17058.48, 0.0004698895, 0.0010240444, -697350.8, -85658.266 
1.6454874e+3, 2.475671e+2, -619593.4, -748843.56, 15440.821, 0.00007901102, 0.0018722027, -617774.4, -103931.81 
1.6454129e+3, 2.575515e+2, -535415.8, -657110.75, 14940.813, -0.00082285196, 0.0016208913, -533608.3, -117612.68 
1.6453381e+3, 2.6753563e+2, -454907.47, -573935.9, 12498.375, -0.000068897825, 0.0033369279, -453609.25, -135458.1 
1.6452631e+3, 2.775195e+2, -370000.44, -481805.94, 12003.067, 0.0013379996, 0.0044075917, -368726.34, -148417.03 
1.6451877e+3, 2.875031e+2, -290436.25, -398607.6, 9978.822, -0.000054210916, 0.003979205, -289523.4, -167053.33 
1.6451122e+3, 2.9748642e+2, -207857.78, -307992.8, 9283.377, -0.0029092699, 0.0008850175, -207004.4, -182371.05 
1.6450362e+3, 3.0747262e+2, -132131.6, -181068.38, 5778.2563, -0.0014930512, 0.0010202351, -131458.58, -131458.58 
1.6449599e+3, 3.1746185e+2, -145100.95, -184627.55, 5339.3486, 0.0032938668, 0.001723455, -144392.39, -144392.39 
1.6448833e+3, 3.274572e+2, -79180.414, -23549.441, 2464.1538, -0.0013899511, 0.005303842, -23440.506, -23440.506 
1.6570693e+3, 3.7896755e+1, -2355035.3, -2569746.3, 2674.4202, 0.0007636379, 0.0030672646, -2355002.0, 213610.03 
1.6569918e+3, 4.788776e+1, -2274724.8, -2487618.0, 3451.0151, 0.00015362975, 0.0026006806, -2274668.8, 196031.44 
1.6569145e+3, 5.787851e+1, -2193494.0, -2397577.8, 4613.14, -0.00053404743, 0.00019278498, -2193389.8, 179401.23 
1.6568376e+3, 6.786921e+1, -2112571.5, -2311734.3, 8557.906, 0.001081955, 0.0020007354, -2112204.3, 162677.67 
1.6567612e+3, 7.7859735e+1, -2028137.6, -2220548.0, 9257.472, 0.001127366, 0.0037890691, -2027693.3, 149281.69 
1.6566853e+3, 8.784992e+1, -1948479.4, -2138475.8, 12133.318, 0.00019435404, 0.0040961686, -1947707.6, 131363.38 
1.6566096e+3, 9.7839785e+1, -1863967.1, -2047050.9, 12585.655, -0.0004902055, 0.0024704468, -1863106.0, 118064.39 
1.6565344e+3, 1.0782935e+2, -1783887.1, -1965146.4, 14886.7295, 0.00015549311, 0.0027601623, -1782672.6, 100600.07 
1.6564593e+3, 1.1781857e+2, -1698270.5, -1873157.6, 15037.073, 0.0005920063, 0.0024362868, -1696987.0, 88391.35 
1.6563845e+3, 1.2780745e+2, -1617912.4, -1791972.1, 16696.227, 0.00026084896, 0.0026784386, -1616325.3, 71162.02 
1.6563098e+3, 1.3779594e+2, -1531877.8, -1699570.4, 16637.8, 0.0002172279, 0.0018014935, -1530242.9, 59357.01 
1.6562352e+3, 1.4778413e+2, -1451120.9, -1618251.5, 17681.219, 0.00027520023, 0.00246069, -1449270.8, 42444.92 
1.6561608e+3, 1.5777194e+2, -1364896.1, -1525897.8, 17754.91, 0.00027197076, 0.0024519926, -1362961.5, 30873.8 
1.6560864e+3, 1.6775937e+2, -1284750.9, -1445421.9, 18023.045, 0.0002393159, 0.0034363884, -1282754.0, 13204.383 
1.6560121e+3, 1.7774639e+2, -1198749.8, -1353187.6, 17916.55, -0.00015188595, 0.0031653175, -1196698.4, 1387.1996 
1.6559377e+3, 1.8773304e+2, -1118179.9, -1272263.0, 17290.299, -0.00026082303, 0.002379545, -1116263.5, -16047.078 
1.6558632e+3, 1.9771929e+2, -1032055.6, -1179838.1, 17202.117, -0.00015793841, 0.00027362906, -1030079.75, -27728.514 
1.6557887e+3, 2.0770526e+2, -951494.94, -1097768.4, 16119.173, 0.00063194346, 0.0019799916, -949739.7, -45251.094 
1.655714e+3, 2.1769089e+2, -866482.5, -1006270.56, 16152.59, 0.0011998323, 0.0036173044, -864640.3, -58010.81 
1.6556393e+3, 2.2767612e+2, -786193.0, -925217.5, 14538.024, 0.00053016806, 0.0038733257, -784689.0, -75914.67 
1.6555643e+3, 2.3766094e+2, -700294.56, -832667.3, 13961.478, -0.00038926527, 0.0022273618, -698838.06, -87915.14 
1.6554892e+3, 2.4764556e+2, -619920.44, -749711.44, 11950.031, -0.0006214654, 0.0029194206, -618829.4, -105755.58 
1.6554135e+3, 2.5762987e+2, -535759.25, -658092.8, 11539.441, -0.00072152965, 0.0026079896, -534680.25, -119452.734 
1.655338e+3, 2.676139e+2, -455472.56, -575495.2, 9227.693, -0.00036089902, 0.0022093025, -454767.25, -137383.05 
1.655262e+3, 2.7759764e+2, -370493.25, -483210.13, 8660.607, 0.000274108, 0.0006873229, -369831.72, -150288.05 
1.6551855e+3, 2.8758115e+2, -290728.97, -399572.2, 6210.219, 0.0006965114, 0.0038111676, -290375.78, -168670.83 
1.6551091e+3, 2.9756448e+2, -208420.34, -309549.78, 5640.9873, 0.00054829376, 0.006319656, -208106.66, -184238.16 
1.6550319e+3, 3.075505e+2, -133318.13, -183962.67, 2306.1096, -0.0014861614, 0.0031286345, -133213.33, -133213.33 
1.6549546e+3, 3.1753942e+2, -145984.63, -186813.28, 1743.8561, -0.002481005, -0.0028071515, -145910.28, -145910.28 
1.6548769e+3, 3.2753474e+2, -79474.37, -24348.07, -1667.345, 0.0017702491, 0.005499803, -24297.688, -24297.688 
1.6670895e+3, 3.79759e+1, -2359186.3, -2571108.3, 6260.6523, 0.002567463, 0.003576282, -2359001.5, 208835.02 
1.667011e+3, 4.7967044e+1, -2280773.0, -2487765.5, 7751.929, -0.0035082686, 0.00028238614, -2280483.0, 189440.16 
1.6669324e+3, 5.7958066e+1, -2195435.0, -2396120.3, 9356.757, 0.0008179253, 0.002280019, -2194999.8, 177011.55 
1.6668546e+3, 6.7948884e+1, -2114997.5, -2311784.0, 13444.139, 0.0024178687, 0.0031290387, -2114083.3, 160017.88 
1.6667773e+3, 7.793947e+1, -2031592.9, -2220945.3, 13970.853, 0.0007179548, 0.0026548675, -2030567.6, 145625.83 
1.6667004e+3, 8.792976e+1, -1951347.1, -2138507.8, 17150.443, -0.00023602428, 0.0030192647, -1949788.5, 128500.09 
1.666624e+3, 9.791973e+1, -1865620.3, -2046458.4, 17642.572, -0.00033115924, 0.002109676, -1863915.1, 116471.77 
1.6665477e+3, 1.07909374e+2, -1785142.8, -1965033.1, 20195.637, 0.0003309615, 0.0027024928, -1782903.4, 99585.12 
1.6664718e+3, 1.1789864e+2, -1699189.4, -1872751.5, 20469.432, 0.00079466804, 0.0026964587, -1696807.9, 87785.63 
1.6663963e+3, 1.2788758e+2, -1618293.8, -1791498.8, 22491.623, 0.00033532418, 0.0029207543, -1615420.8, 71281.22 
1.6663209e+3, 1.3787611e+2, -1531604.0, -1698803.5, 22663.63, 0.000020639118, 0.0018787105, -1528586.4, 60227.87 
1.6662453e+3, 1.4786431e+2, -1450851.8, -1618021.0, 23560.037, 0.00029033882, 0.0023921125, -1447594.8, 43335.188 
1.6661702e+3, 1.578521e+2, -1364230.6, -1525425.3, 23292.773, 0.00047513374, 0.0022111426, -1360932.4, 32117.342 
1.666095e+3, 1.6783951e+2, -1283529.1, -1444930.3, 23519.803, 0.0004121011, 0.0030056825, -1280171.6, 15001.409 
1.6660199e+3, 1.7782651e+2, -1197009.5, -1352391.4, 23511.3, 0.00013969734, 0.002657984, -1193529.8, 3770.683 
1.6659448e+3, 1.8781313e+2, -1115983.9, -1271428.1, 23010.994, -0.00010928768, 0.0026572924, -1112649.0, -13217.467 
1.6658694e+3, 1.9779934e+2, -1029317.8, -1178744.3, 22991.197, -0.00023944756, 0.0015141837, -1025860.3, -24293.664 
1.6657941e+3, 2.0778525e+2, -948204.5, -1096845.5, 21498.457, 0.0005069982, 0.0023110374, -945157.56, -41452.77 
1.6657186e+3, 2.1777079e+2, -862205.4, -1004806.75, 21142.375, 0.0012016243, 0.0027212247, -859136.75, -53290.207 
1.665643e+3, 2.2775593e+2, -782095.4, -923738.8, 19650.627, 0.0006098009, 0.0036018582, -779419.7, -71427.664 
1.665567e+3, 2.3774073e+2, -696823.6, -831514.9, 19489.248, -0.000339119, 0.0028628544, -694060.3, -83919.12 
1.665491e+3, 2.4772523e+2, -616082.0, -748671.4, 17229.047, -0.00050430855, 0.0035280832, -613879.8, -101586.85 
1.6654146e+3, 2.5770944e+2, -530968.1, -656597.3, 16647.89, -0.00045715366, 0.00312673, -528799.44, -114351.83 
1.6653378e+3, 2.6769337e+2, -450547.28, -573970.7, 14295.226, -0.00059477345, 0.0024980071, -448913.2, -132307.94 
1.665261e+3, 2.77677e+2, -365649.1, -481661.38, 13688.757, -0.0006057123, 0.00053476484, -364055.78, -145290.11 
1.6651836e+3, 2.8766045e+2, -285387.8, -397659.03, 10788.92, 0.0006284324, 0.003640466, -284360.44, -163432.6 
1.665106e+3, 2.976437e+2, -202673.34, -307786.34, 10173.487, 0.0019856128, 0.0064744917, -201697.75, -178605.56 
1.6650279e+3, 3.0762956e+2, -128001.19, -183173.11, 6992.5894, -0.00095191173, 0.003870189, -127128.734, -127128.734 
1.6649495e+3, 3.1761834e+2, -140537.56, -185378.11, 6438.7236, -0.004004929, -0.0016441916, -139631.33, -139631.33 
1.6648707e+3, 3.2761356e+2, -73823.21, -21173.877, 2741.9324, 0.0023557008, 0.004753899, -21031.465, -21031.465 
1.6771095e+3, 3.805607e+1, -2360164.3, -2571379.0, 1001.3562, 0.003074167, 0.0037400064, -2360159.5, 206891.2 
1.6770297e+3, 4.8047352e+1, -2279478.8, -2484009.0, 5024.3325, -0.0057023615, -0.0039783176, -2279355.3, 189780.86 
1.6769503e+3, 5.803873e+1, -2194755.8, -2393289.3, 6246.434, 0.0018799994, 0.006995891, -2194559.3, 176661.36 
1.6768716e+3, 6.8029654e+1, -2115307.5, -2311238.8, 10085.04, 0.0030568705, 0.0055891136, -2114789.8, 158519.8 
1.6767932e+3, 7.8020257e+1, -2031438.4, -2219956.5, 10784.405, -0.00019439551, -0.0005459865, -2030823.4, 144578.36 
1.6767155e+3, 8.801065e+1, -1950953.6, -2137168.3, 14459.488, -0.000813439, 0.00020426017, -1949837.6, 127658.266 
1.6766381e+3, 9.800075e+1, -1865165.4, -2045154.4, 14900.63, 0.00021910886, 0.0017908424, -1863940.1, 115652.766 
1.6765611e+3, 1.0799049e+2, -1784999.6, -1964196.4, 17456.045, 0.00067949586, 0.002813622, -1783315.0, 98378.49 
1.6764843e+3, 1.17979825e+2, -1698816.4, -1871708.6, 17769.045, 0.0007988112, 0.0025144701, -1697009.1, 86788.88 
1.6764079e+3, 1.2796885e+2, -1617960.8, -1790471.5, 19882.836, 0.00034859718, 0.0029386792, -1615698.8, 70206.81 
1.6763318e+3, 1.3795745e+2, -1531455.5, -1698239.1, 19952.314, -0.00037774348, 0.002161267, -1529101.9, 58915.32 
1.6762556e+3, 1.4794563e+2, -1451308.0, -1618794.9, 20874.994, 0.00001931603, 0.0024832315, -1448745.5, 41387.543 
1.6761796e+3, 1.5793337e+2, -1364442.6, -1525898.4, 20654.582, 0.00038118567, 0.0018029319, -1361842.3, 30411.014 
1.6761036e+3, 1.6792077e+2, -1283571.9, -1445085.8, 20816.232, 0.00046109932, 0.0015445799, -1280932.3, 13444.586 
1.6760278e+3, 1.7790774e+2, -1196959.0, -1352497.1, 20819.998, 0.00064106245, 0.0002921255, -1194220.3, 2284.2112 
1.6759518e+3, 1.8789436e+2, -1116089.5, -1271743.9, 20273.795, 0.0005045977, 0.0027871476, -1113492.3, -14856.72 
1.6758758e+3, 1.9788058e+2, -1029592.9, -1179400.6, 20201.686, 0.00019547247, 0.005047315, -1026916.5, -26145.924 
1.6757995e+3, 2.0786637e+2, -949082.3, -1098769.3, 18596.373, -0.00003158026, 0.0035003156, -946806.56, -43896.684 
1.6757232e+3, 2.1785173e+2, -862820.44, -1006204.3, 18226.957, -0.00039953316, -0.000174806, -860539.75, -55486.426 
1.6756466e+3, 2.2783685e+2, -782037.7, -923780.3, 16480.1, -0.00007964248, 0.0015456689, -780146.8, -72947.72 
1.67557e+3, 2.3782164e+2, -696936.7, -832001.75, 16324.812, 0.00030035697, 0.0029535384, -694991.56, -85643.44 
1.675493e+3, 2.4780607e+2, -616776.44, -750433.4, 13963.17, 0.00017854202, 0.003789799, -615333.25, -103832.47 
1.6754156e+3, 2.5779015e+2, -531572.6, -658195.25, 13430.411, -0.00025354145, 0.0033056813, -530163.75, -116507.03 
1.675338e+3, 2.67774e+2, -451012.13, -575242.06, 10980.197, -0.0009059617, 0.004079254, -450049.1, -134233.86 
1.67526e+3, 2.7775753e+2, -366141.88, -483010.66, 10347.931, -0.0013959428, 0.0036158706, -365232.72, -147256.3 
1.6751818e+3, 2.8774086e+2, -285880.9, -399056.72, 7184.669, -0.00038825025, 0.003247667, -285426.66, -165286.73 
1.6751032e+3, 2.9772395e+2, -203228.8, -309350.53, 6670.1577, 0.0010716495, 0.0011156251, -202811.19, -180505.42 
1.675024e+3, 3.077097e+2, -128810.445, -185321.3, 3442.1025, -0.000054525215, 0.0034217949, -128601.555, -128601.555 
1.6749448e+3, 3.1769842e+2, -140925.23, -186689.0, 2696.793, -0.0012358499, 0.0062205233, -140766.86, -140766.86 
1.6748647e+3, 3.2769355e+2, -72894.75, -19756.836, -1580.5588, -0.001119746, 0.0015523576, -19709.865, -19709.865 
1.6871291e+3, 3.813761e+1, -2363436.5, -2569974.0, 4067.9966, 0.0015537762, 0.00432995, -2363356.5, 202895.25 
1.6870482e+3, 4.8129055e+1, -2284368.5, -2484977.8, 10105.39, -0.0010386436, -0.0026216633, -2283860.8, 184474.8 
1.6869679e+3, 5.8120507e+1, -2200598.0, -2394431.0, 10554.756, 0.00027023267, 0.004489903, -2200025.0, 170394.36 
1.6868883e+3, 6.811159e+1, -2120181.0, -2311688.5, 14687.09, 0.0013758859, 0.004465323, -2119061.0, 153445.61 
1.6868089e+3, 7.810236e+1, -2034797.5, -2219763.8, 15833.117, -0.00014996994, 0.0010579624, -2033452.0, 141145.16 
1.6867304e+3, 8.809288e+1, -1953906.6, -2137349.5, 19925.104, -0.00034314435, 0.0015406287, -1951767.4, 124922.67 
1.6866522e+3, 9.808306e+1, -1867745.8, -2045022.8, 20339.234, 0.0008851185, 0.001993442, -1865442.1, 113344.17 
1.6865745e+3, 1.0807288e+2, -1786826.4, -1964086.1, 23095.588, 0.00086809666, 0.002526769, -1783866.6, 97019.47 
1.6864969e+3, 1.18062295e+2, -1699835.3, -1871243.0, 23458.162, 0.00025196752, 0.0019013097, -1696682.9, 86306.98 
1.6864197e+3, 1.2805134e+2, -1618929.6, -1790704.3, 25433.342, 0.00009486691, 0.0027321898, -1615243.0, 69854.125 
1.6863427e+3, 1.3803996e+2, -1531851.3, -1698053.0, 25204.875, -0.00007234197, 0.0025875133, -1528113.0, 59095.57 
1.6862658e+3, 1.4802817e+2, -1450770.1, -1618117.1, 26447.467, 0.00030805977, 0.0028013235, -1446689.9, 42634.348 
1.686189e+3, 1.5801592e+2, -1363011.8, -1524846.3, 26593.123, 0.0005840497, 0.0018634946, -1358753.9, 32690.342 
1.6861123e+3, 1.6800329e+2, -1281635.8, -1444294.3, 26728.746, 0.00038167628, 0.0019904622, -1277356.1, 16211.805 
1.6860357e+3, 1.7799023e+2, -1194215.6, -1351269.6, 26605.121, 0.00028533133, 0.0013062486, -1189831.1, 5864.8994 
1.6859588e+3, 1.879768e+2, -1113272.3, -1270874.3, 25853.816, 0.0006842818, 0.0028487514, -1109139.5, -11311.915 
1.685882e+3, 1.9796295e+2, -1026721.56, -1178453.9, 25640.918, 0.00096324994, 0.003934376, -1022505.7, -22542.402 
1.685805e+3, 2.0794868e+2, -945919.5, -1097838.5, 24193.45, 0.00007742824, 0.0032752194, -942159.7, -40056.51 
1.6857278e+3, 2.17934e+2, -859258.06, -1005083.56, 24150.299, -0.0010612131, 0.00069009897, -855362.56, -51115.367 
1.6856506e+3, 2.2791903e+2, -777955.44, -922519.25, 21929.223, -0.0003291095, 0.0020212135, -774702.2, -68308.32 
1.685573e+3, 2.3790371e+2, -692235.94, -830517.44, 21313.023, 0.0007961616, 0.0028248623, -689025.56, -80481.69 
1.6854951e+3, 2.4788804e+2, -611546.6, -748776.9, 18832.168, 0.0003211062, 0.0033319702, -609009.2, -98311.73 
1.6854168e+3, 2.5787202e+2, -525712.8, -656221.75, 18352.756, -0.00067181786, 0.002723515, -523181.06, -110326.57 
1.6853383e+3, 2.6785573e+2, -445852.2, -573556.94, 15569.6455, -0.00074889534, 0.003953059, -443981.38, -128967.45 
1.6852595e+3, 2.778392e+2, -362097.97, -481882.47, 14882.116, -0.00051547855, 0.0039695934, -360276.72, -143100.69 
1.6851804e+3, 2.8782243e+2, -280857.3, -397719.78, 11608.304, -0.00060846703, 0.0028381087, -279715.4, -160374.77 
1.6851006e+3, 2.9780537e+2, -196468.73, -306992.34, 10930.728, -0.00041578413, -0.00038862944, -195398.06, -173890.36 
1.6850205e+3, 3.0779105e+2, -122705.445, -183114.28, 7592.5933, 0.00023638534, 0.003051967, -121765.77, -121765.77 
1.68494e+3, 3.177797e+2, -135934.66, -185152.25, 7165.86, 0.0012803698, 0.007957054, -134912.56, -134912.56 
1.684859e+3, 3.277747e+2, -65614.78, -17809.73, 1629.1226, -0.0024785972, 0.00017668554, -17754.277, -17754.277 
1.6971485e+3, 3.8220245e+1, -2362287.3, -2564986.8, -823.2224, -0.00036002186, 0.0053474265, -2362284.0, 203158.02 
1.6970667e+3, 4.821188e+1, -2284445.0, -2484738.5, 6728.6587, 0.0061644157, 0.0016696791, -2284219.3, 183304.72 
1.6969852e+3, 5.820327e+1, -2200555.3, -2393478.8, 7373.4917, -0.0029370517, -0.0013567529, -2200273.8, 169334.36 
1.6969046e+3, 6.819455e+1, -2119362.5, -2309126.0, 11853.244, -0.0015175919, 0.0018445733, -2118625.0, 153068.75 
1.6968246e+3, 7.818558e+1, -2033894.9, -2217407.8, 12939.576, 0.00034203666, 0.005250978, -2032987.0, 140794.61 
1.6967452e+3, 8.8176227e+1, -1953618.0, -2136113.0, 17215.807, 0.0005642587, 0.00505334, -1952008.1, 123865.24 
1.6966663e+3, 9.816647e+1, -1867363.8, -2043745.0, 17667.588, 0.0013401224, 0.002503428, -1865611.5, 112357.36 
1.6965877e+3, 1.0815638e+2, -1786585.8, -1962933.0, 20557.324, 0.0007407085, 0.0021225375, -1784221.0, 95846.734 
1.6965093e+3, 1.18145876e+2, -1699674.6, -1870522.4, 20869.096, -0.00083200826, 0.0010492018, -1697162.4, 85008.35 
1.6964313e+3, 1.2813494e+2, -1619276.8, -1791267.8, 22944.963, -0.000464302, 0.0024502764, -1616268.4, 68009.58 
1.6963537e+3, 1.3812354e+2, -1531756.4, -1697927.5, 22814.219, 0.00045923135, 0.0030441508, -1528681.1, 57708.523 
1.696276e+3, 1.4811179e+2, -1450299.9, -1617142.0, 24111.219, 0.00068691414, 0.0030894948, -1446885.4, 41619.395 
1.6961986e+3, 1.580996e+2, -1362743.3, -1524306.5, 24175.41, 0.0006696303, 0.002059192, -1359203.3, 31420.85 
1.6961211e+3, 1.6808698e+2, -1281984.5, -1445030.3, 24218.254, 0.00001907099, 0.0036479956, -1278463.3, 14284.704 
1.6960438e+3, 1.7807388e+2, -1194545.9, -1352012.4, 24042.574, -0.0008796593, 0.0045803557, -1190956.8, 3919.447 
1.6959661e+3, 1.8806036e+2, -1113773.3, -1271994.8, 23125.365, 0.00031822838, 0.0027889425, -1110462.5, -13453.801 
1.6958885e+3, 1.9804639e+2, -1026963.0, -1179215.8, 22948.158, 0.0017985705, -0.0006080379, -1023579.4, -24433.77 
1.6958109e+3, 2.0803212e+2, -945888.94, -1098101.0, 21411.754, 0.0005801989, 0.0019708597, -942934.3, -41648.773 
1.6957328e+3, 2.1801744e+2, -859517.8, -1005901.8, 21326.117, -0.0013457809, 0.004384865, -856474.2, -53044.773 
1.6956547e+3, 2.2800235e+2, -778851.0, -924680.56, 18905.258, -0.0005351663, 0.004491277, -776440.0, -70862.695 
1.6955762e+3, 2.3798686e+2, -692960.25, -832346.4, 18340.156, 0.001104677, 0.0024920912, -690587.44, -82858.414 
1.6954975e+3, 2.4797109e+2, -611986.44, -749998.3, 15780.581, -0.000011603611, 0.0022330848, -610205.06, -100321.36 
1.6954185e+3, 2.5795496e+2, -526283.2, -657636.56, 15178.25, -0.0018580093, 0.0014155413, -524552.06, -112510.48 
1.695339e+3, 2.6793855e+2, -446489.3, -575133.56, 11933.083, -0.00035929377, 0.002276352, -445391.78, -131189.61 
1.695259e+3, 2.7792192e+2, -362680.13, -483476.72, 11447.895, 0.0018162652, 0.0018814686, -361604.78, -145239.31 
1.6951789e+3, 2.87905e+2, -281540.78, -399558.56, 8452.152, -0.00015361159, 0.0026538232, -280938.53, -162407.36 
1.6950983e+3, 2.9788786e+2, -196924.11, -308389.0, 7616.2944, -0.0027838014, 0.002110856, -196406.1, -175706.83 
1.6950172e+3, 3.0787346e+2, -122571.03, -183401.78, 3683.0217, -0.00044721263, 0.0024861556, -122348.85, -122348.85 
1.6949357e+3, 3.17862e+2, -136415.2, -186737.16, 3422.3938, 0.003293842, 0.0025441507, -136183.52, -136183.52 
1.6948535e+3, 3.2785678e+2, -67959.375, -23487.19, -1658.2708, -0.0021888714, 0.002201184, -23425.441, -23425.441 
1.7071676e+3, 3.830395e+1, -2370803.8, -2569064.8, 4132.363, -0.00075893645, 0.002347895, -2370717.5, 193904.02 
1.7070848e+3, 4.8295796e+1, -2288520.0, -2484319.0, 10320.736, 0.0059038727, 0.0058692736, -2287977.5, 178724.06 
1.7070024e+3, 5.828736e+1, -2205680.8, -2393688.3, 11863.577, -0.002322779, -0.000039606944, -2204935.0, 163849.16 
1.7069209e+3, 6.827878e+1, -2124292.3, -2309779.0, 17109.107, -0.0006098465, 0.0012862032, -2122727.3, 148140.95 
1.70684e+3, 7.8269935e+1, -2037707.6, -2217448.3, 17904.451, 0.0010733759, 0.0034626252, -2035941.5, 137013.36 
1.7067598e+3, 8.826071e+1, -1957048.1, -2136392.0, 22284.469, 0.0004307802, 0.0040772934, -1954320.6, 120724.75 
1.7066799e+3, 9.825108e+1, -1870372.4, -2043775.4, 22817.432, 0.00027827392, 0.0027484212, -1867420.1, 109719.59 
1.7066006e+3, 1.08241074e+2, -1789173.8, -1963311.5, 25918.285, 0.00032702603, 0.0027483045, -1785398.0, 93839.78 
1.7065217e+3, 1.1823063e+2, -1701312.6, -1870283.9, 26160.705, -0.00026851386, 0.0018354903, -1697355.0, 83985.01 
1.706443e+3, 1.2821975e+2, -1619752.3, -1790590.3, 28705.309, 0.000019976076, 0.0027020774, -1615058.0, 68388.67 
1.7063645e+3, 1.3820842e+2, -1531167.5, -1696879.5, 29016.67, 0.000622079, 0.0027013496, -1526233.5, 59324.33 
1.7062862e+3, 1.4819667e+2, -1449652.1, -1616852.6, 30069.867, 0.0005635399, 0.0029395053, -1444408.6, 43264.22 
1.7062081e+3, 1.5818447e+2, -1361883.9, -1523829.0, 29697.438, 0.00039377605, 0.002225465, -1356609.8, 33182.758 
1.7061299e+3, 1.6817181e+2, -1280785.1, -1444627.4, 29722.89, 0.0001476389, 0.003409828, -1275559.8, 16356.796 
1.7060518e+3, 1.7815867e+2, -1192692.1, -1351242.9, 29623.746, -0.00033913995, 0.0038726786, -1187338.0, 6707.2495 
1.7059734e+3, 1.8814512e+2, -1110905.1, -1271005.3, 28769.871, 0.00011609712, 0.0028365063, -1105892.1, -9714.04 
1.7058952e+3, 1.9813108e+2, -1022863.25, -1177633.1, 28672.113, 0.00084902404, 0.0002770355, -1017722.4, -19406.8 
1.7058167e+3, 2.0811674e+2, -941561.5, -1096679.5, 26709.219, 0.00045376783, 0.002489423, -937091.3, -36635.098 
1.7057379e+3, 2.1810198e+2, -854994.7, -1004380.25, 26289.217, -0.00024603473, 0.004307514, -850503.3, -47902.29 
1.7056589e+3, 2.2808677e+2, -774035.56, -923279.56, 23940.658, -0.000075658725, 0.00412023, -770289.25, -65539.41 
1.7055796e+3, 2.380712e+2, -687720.06, -830666.1, 23660.428, 0.0004157651, 0.0021353778, -683905.56, -77003.01 
1.7055e+3, 2.4805531e+2, -607068.0, -748551.3, 20845.592, -0.00044999775, 0.0023646115, -604060.56, -95002.35 
1.70542e+3, 2.580391e+2, -521799.56, -656434.44, 20089.797, -0.0016179659, 0.0018262388, -518865.75, -107648.55 
1.7053397e+3, 2.680226e+2, -440419.4, -573176.1, 16638.082, -0.0002217996, 0.0021684149, -438365.94, -124987.05 
1.705259e+3, 2.780058e+2, -354580.78, -480590.22, 16115.256, 0.0017921922, 0.0012862562, -352552.47, -137009.06 
1.7051777e+3, 2.8798878e+2, -274786.88, -397398.4, 12932.557, 0.000020535741, 0.0028428524, -273437.63, -155727.42 
1.7050962e+3, 2.9797152e+2, -192387.1, -307302.8, 12029.191, -0.0025520385, 0.0033575555, -191141.39, -171261.98 
1.7050141e+3, 3.0795696e+2, -117194.84, -182091.06, 7306.071, -0.000923288, 0.0022182637, -116382.484, -116382.484 
1.7049316e+3, 3.1794536e+2, -129045.95, -184427.86, 6374.208, 0.0025724552, 0.00039845123, -128321.78, -128321.78 
1.7048484e+3, 3.2794008e+2, -60492.793, -20987.285, 2685.0845, -0.0011576689, 0.0040333257, -20805.623, -20805.623 
1.7171864e+3, 3.8388607e+1, -2372811.0, -2571424.0, 2889.3704, -0.0015373948, -0.002092989, -2372769.0, 191022.9 
1.7171027e+3, 4.8380697e+1, -2287761.5, -2480795.3, 6657.5415, 0.0019835222, 0.010222951, -2287532.3, 178337.33 
1.7170192e+3, 5.8372533e+1, -2204446.3, -2390481.0, 8302.979, -0.000019147354, 0.0046789567, -2204076.5, 163873.03 
1.7169368e+3, 6.836407e+1, -2124066.8, -2308336.8, 14422.231, 0.0017696313, 0.001650782, -2122944.8, 147087.56 
1.7168552e+3, 7.8355306e+1, -2037547.9, -2215981.3, 15188.597, 0.0016426647, -0.001225648, -2036264.3, 135854.03 
1.7167741e+3, 8.8346213e+1, -1956810.4, -2134964.0, 19662.559, -0.0003696372, 0.0009761637, -1954666.1, 119541.23 
1.7166936e+3, 9.833674e+1, -1869913.0, -2042442.0, 20262.578, -0.0018017429, 0.0029597087, -1867565.3, 108734.96 
1.7166135e+3, 1.0832682e+2, -1789070.3, -1962627.5, 23660.537, -0.00038339102, 0.0040311404, -1785902.5, 92495.04 
1.7165339e+3, 1.1831644e+2, -1700872.6, -1869088.3, 23970.373, 0.0010266096, 0.0034865001, -1697523.6, 82975.555 
1.7164546e+3, 1.2830567e+2, -1619139.3, -1788972.4, 26545.135, 0.0008503049, 0.0031547882, -1615087.0, 67517.766 
1.7163755e+3, 1.3829443e+2, -1530897.4, -1696044.9, 26749.37, 0.00037823987, 0.001891885, -1526672.8, 58042.094 
1.7162965e+3, 1.4828266e+2, -1450225.3, -1617943.3, 27705.959, 0.000077311466, 0.0026372205, -1445766.9, 41063.195 
1.7162177e+3, 1.582704e+2, -1362074.8, -1524480.5, 27394.701, -0.000272605, 0.0023786551, -1357578.4, 31371.988 
1.7161387e+3, 1.682577e+2, -1280794.4, -1444855.9, 27429.27, 0.00040437933, 0.0018571152, -1276330.0, 14744.749 
1.7160599e+3, 1.7824453e+2, -1192640.5, -1351462.0, 27344.73, 0.0010948778, 0.00041755463, -1188064.3, 5139.588 
1.7159809e+3, 1.8823098e+2, -1111044.3, -1271572.4, 26423.729, -0.0002698494, 0.002999755, -1106806.6, -11469.861 
1.715902e+3, 1.9821694e+2, -1023242.5, -1178591.3, 26212.855, -0.0018240626, 0.0051148375, -1018938.7, -21464.479 
1.7158227e+3, 2.0820245e+2, -942346.0, -1098566.1, 23965.104, -0.00038404655, 0.004371374, -938752.25, -39136.03 
1.7157431e+3, 2.1818751e+2, -855483.2, -1005730.56, 23573.49, 0.0016808033, 0.0013625372, -851871.4, -50108.684 
1.7156634e+3, 2.2817226e+2, -774259.56, -924069.2, 21077.354, 0.000670991, 0.0015380718, -771350.6, -67438.5 
1.7155832e+3, 2.3815663e+2, -688093.6, -831806.7, 20733.582, -0.0012277319, 0.001665305, -685162.2, -79096.9 
1.7155027e+3, 2.4814063e+2, -607800.8, -750362.75, 17614.848, -0.0010829746, 0.003509107, -605656.6, -97434.67 
1.715422e+3, 2.581243e+2, -522494.28, -658195.25, 16978.486, -0.00036447094, 0.0038261097, -520402.22, -110020.13 
1.7153408e+3, 2.6810765e+2, -441000.66, -574779.44, 13590.081, -0.00042520088, 0.0035474955, -439634.06, -127089.016 
1.7152591e+3, 2.7809075e+2, -355263.75, -482340.8, 12877.258, -0.00051084993, 0.0019714236, -353971.97, -139261.19 
1.7151769e+3, 2.880736e+2, -275449.53, -399073.8, 9112.402, -0.00030457554, 0.0032543638, -274781.47, -157902.61 
1.7150943e+3, 2.9805622e+2, -193196.0, -309440.5, 8373.384, -0.00018632213, 0.0033431354, -192595.94, -173546.56 
1.7150111e+3, 3.0804148e+2, -118526.36, -185573.16, 3900.8079, -0.0014349165, 0.0026097635, -118300.17, -118300.17 
1.7149276e+3, 3.1802964e+2, -129557.56, -186320.34, 2973.6318, -0.0012722358, 0.0024878636, -129402.2, -129402.2 
1.7148435e+3, 3.2802436e+2, -58794.24, -18415.951, -806.3371, -0.00014308187, 0.004716563, -18399.855, -18399.855 
1.7272048e+3, 3.847434e+1, -2378246.5, -2568721.0, 5926.907, 0.0015954274, 0.0012088649, -2378062.3, 184889.66 
1.72712e+3, 4.8466614e+1, -2297099.3, -2483080.0, 11042.868, -0.0016054264, 0.004049983, -2296445.8, 168581.69 
1.7270358e+3, 5.845871e+1, -2210613.5, -2390981.3, 12242.942, 0.0012420698, 0.004607083, -2209786.3, 157318.8 
1.7269526e+3, 6.8450457e+1, -2129804.0, -2309055.8, 18799.602, 0.0022708422, 0.0031892038, -2127853.8, 141332.25 
1.7268701e+3, 7.844186e+1, -2043570.5, -2216734.3, 19875.045, 0.00029860783, 0.0006716643, -2041318.6, 129951.516 
1.7267883e+3, 8.8432914e+1, -1961723.3, -2135538.5, 24917.787, -0.0005888769, 0.0017450696, -1958221.6, 115136.04 
1.7267072e+3, 9.842357e+1, -1873085.9, -2042143.6, 25638.105, -0.00041555805, 0.0023627272, -1869283.4, 106165.98 
1.7266263e+3, 1.0841376e+2, -1791331.6, -1962516.9, 29389.625, 0.0002646112, 0.0034406178, -1786426.5, 91118.95 
1.726546e+3, 1.1840348e+2, -1702431.4, -1868700.6, 29856.813, 0.0006520229, 0.003434411, -1697232.6, 82413.57 
1.7264661e+3, 1.2839276e+2, -1620580.5, -1789173.9, 32184.54, 0.00047379633, 0.003249245, -1614645.4, 67105.79 
1.7263864e+3, 1.3838154e+2, -1531799.0, -1695914.5, 31986.984, 0.00019695755, 0.0019434458, -1525785.0, 58076.12 
1.7263067e+3, 1.4836982e+2, -1449904.8, -1617482.6, 33230.82, 0.00023678824, 0.00279344, -1443555.6, 42420.473 
1.7262271e+3, 1.5835755e+2, -1360047.4, -1523162.9, 33259.215, 0.00011695636, 0.0027191448, -1353526.5, 34569.85 
1.7261477e+3, 1.6834484e+2, -1278015.6, -1443725.6, 33261.582, 0.00055353343, 0.0023246729, -1271588.6, 18632.324 
1.7260683e+3, 1.7833161e+2, -1189342.6, -1350082.0, 33112.85, 0.001087465, 0.0009287804, -1182788.5, 9561.954 
1.7259887e+3, 1.88318e+2, -1107763.1, -1270605.1, 31954.88, -0.000048740152, 0.0032280264, -1101717.0, -7233.0034 
1.7259088e+3, 1.983039e+2, -1019802.75, -1177506.1, 31580.434, -0.0013597058, 0.0049553225, -1013713.8, -17091.578 
1.7258288e+3, 2.0828933e+2, -938327.5, -1097326.3, 29367.957, -0.0005227857, 0.003984587, -933076.5, -34311.484 
1.7257486e+3, 2.1827428e+2, -850697.56, -1004156.0, 29215.42, 0.0009975702, 0.0010332708, -845323.75, -44411.406 
1.7256682e+3, 2.2825892e+2, -769129.2, -922709.6, 26293.924, 0.00050709577, 0.0019259657, -764752.2, -61689.414 
1.7255871e+3, 2.3824318e+2, -682423.94, -830108.7, 25497.229, -0.0007757684, 0.0025913103, -678145.8, -72928.68 
1.7255059e+3, 2.4822707e+2, -601285.94, -748202.0, 22150.87, -0.00076886924, 0.0038067605, -598018.9, -90643.914 
1.7254241e+3, 2.582106e+2, -515472.5, -655886.56, 21648.893, -0.00020558217, 0.003489141, -512210.47, -102674.21 
1.725342e+3, 2.6819384e+2, -434976.88, -573180.1, 18044.262, -0.00047280145, 0.0036030796, -432659.78, -120959.336 
1.7252594e+3, 2.781768e+2, -350398.1, -481206.0, 17113.758, -0.0009031476, 0.0026079372, -348196.16, -134328.63 
1.7251763e+3, 2.8815955e+2, -268943.88, -396928.1, 13160.418, -0.00037666515, 0.0032972554, -267604.63, -151567.83 
1.7250927e+3, 2.9814202e+2, -184707.03, -306632.66, 12461.929, 0.0003978305, 0.0027704404, -183446.34, -165237.81 
1.7250085e+3, 3.081271e+2, -111146.07, -183864.52, 8113.352, -0.0013610981, 0.0028202739, -110251.84, -110251.84 
1.724924e+3, 3.1811512e+2, -123459.97, -184653.95, 7527.4746, -0.00201386, 0.0032779877, -122547.62, -122547.62 
1.7248389e+3, 3.2810974e+2, -52635.426, -15572.281, 2900.7544, 0.000649518, 0.0035258979, -15346.627, -15346.627 
1.737223e+3, 3.8561028e+1, -2374187.3, -2558417.0, 1401.4181, 0.005367898, 0.0071765594, -2374176.5, 187925.64 
1.7371371e+3, 4.8553482e+1, -2296780.3, -2481228.0, 8372.5205, -0.005100895, -0.006627438, -2296401.0, 167775.22 
1.737052e+3, 5.854582e+1, -2210152.8, -2388782.5, 9517.683, 0.0017449025, 0.0024433334, -2209647.0, 156604.3 
1.736968e+3, 6.8537813e+1, -2129096.3, -2306516.0, 16127.734, 0.0015617302, 0.00554605, -2127642.0, 140687.77 
1.7368847e+3, 7.852944e+1, -2042492.9, -2214019.8, 17316.559, -0.0020938641, 0.0058472976, -2040762.1, 129649.78 
1.7368023e+3, 8.852065e+1, -1960953.4, -2133350.0, 22847.037, -0.00053014583, 0.0043997522, -1957976.9, 114521.0 
1.7367205e+3, 9.851143e+1, -1872331.1, -2040015.4, 23509.188, 0.0025379201, 0.0013072233, -1869097.5, 105490.75 
1.736639e+3, 1.08501755e+2, -1790880.9, -1961043.6, 27273.406, 0.0013708075, 0.0018613173, -1786616.4, 90066.65 
1.7365581e+3, 1.1849159e+2, -1702142.9, -1867726.1, 27720.271, -0.00084801484, 0.002422803, -1697625.5, 81157.195 
1.7364775e+3, 1.284809e+2, -1620891.0, -1789616.3, 30131.252, -0.00071791036, 0.0032051988, -1615671.5, 65215.98 
1.7363971e+3, 1.3846967e+2, -1531633.0, -1695743.8, 30059.148, -0.00012033857, 0.0024382349, -1526300.5, 56697.04 
1.7363168e+3, 1.4845797e+2, -1449498.1, -1616642.1, 31423.59, 0.00058765797, 0.0030105626, -1443785.6, 41326.57 
1.736237e+3, 1.5844578e+2, -1359863.6, -1522718.4, 31347.441, 0.0008210572, 0.0029927606, -1354038.0, 33193.777 
1.7361568e+3, 1.6843304e+2, -1278353.4, -1444385.5, 31096.014, 0.00038488518, 0.0041073407, -1272720.5, 16635.863 
1.7360766e+3, 1.784198e+2, -1189620.9, -1350855.9, 30932.16, -0.00004626312, 0.004063303, -1183890.4, 7595.8174 
1.7359963e+3, 1.8840607e+2, -1108266.5, -1271898.5, 29602.186, 0.00045513964, 0.003355573, -1103076.0, -9455.1455 
1.7359158e+3, 1.9839184e+2, -1020051.6, -1178398.3, 29233.818, 0.0010720432, 0.001178669, -1014826.94, -19066.645 
1.7358352e+3, 2.0837723e+2, -938438.5, -1097970.5, 26841.713, -0.00033770315, 0.0019454871, -934043.4, -36140.008 
1.7357542e+3, 2.1836218e+2, -851107.3, -1005424.44, 26645.475, -0.0018766769, 0.0025938728, -846636.06, -46585.125 
1.7356728e+3, 2.2834668e+2, -770180.6, -925235.5, 23544.564, -0.00053418346, 0.0046486543, -766684.3, -64481.53 
1.7355911e+3, 2.3833075e+2, -683273.2, -832207.56, 22752.012, 0.0012418259, 0.0048084157, -679875.0, -75516.05 
1.735509e+3, 2.4831451e+2, -601706.7, -749443.4, 19145.986, 0.0002356518, 0.0034406013, -599265.75, -92747.76 
1.7354265e+3, 2.5829795e+2, -516062.38, -657427.25, 18552.475, -0.0012084211, 0.0010390787, -513668.13, -104987.7 
1.7353435e+3, 2.6828107e+2, -435957.3, -575491.4, 14624.317, -0.0005877603, 0.0025350421, -434441.06, -123595.14 
1.7352599e+3, 2.7826387e+2, -351177.13, -483212.72, 13806.603, 0.00035693467, 0.00341486, -349748.84, -136734.45 
1.7351758e+3, 2.8824645e+2, -269367.16, -398359.56, 9950.148, -0.00025884053, 0.0033589164, -268604.16, -153419.25 
1.7350914e+3, 2.9822883e+2, -185220.52, -308283.94, 9080.259, -0.0009955633, 0.0019243341, -184554.14, -167196.36 
1.7350063e+3, 3.0821377e+2, -111738.2, -185724.72, 4230.2935, -0.0009304305, 0.00287474, -111497.12, -111497.12 
1.7349206e+3, 3.1820163e+2, -124063.15, -186674.5, 3705.6255, 0.00040347668, 0.0026175787, -123844.6, -123844.6 
1.7348345e+3, 3.2819608e+2, -53404.02, -18165.094, -680.2731, -0.00001841677, 0.0016101195, -18151.967, -18151.967 
1.7472404e+3, 3.864882e+1, -2385100.8, -2562853.3, 4724.3735, 0.0023950369, 0.0042921687, -2384975.3, 176266.64 
1.7471537e+3, 4.8641574e+1, -2305543.8, -2482362.8, 12716.948, -0.0020363766, 0.00012663774, -2304633.8, 158679.03 
1.747068e+3, 5.863411e+1, -2218489.8, -2389778.3, 14237.129, 0.0011356923, 0.0019823813, -2217314.3, 148071.77 
1.7469831e+3, 6.86263e+1, -2136125.8, -2307586.0, 21331.383, 0.0014503256, 0.0038883784, -2133511.8, 133950.7 
1.7468992e+3, 7.8618133e+1, -2047642.9, -2214238.0, 22568.334, -0.00082332786, 0.004703303, -2044639.8, 124902.945 
1.746816e+3, 8.860951e+1, -1965635.0, -2134057.8, 28291.898, -0.00013193538, 0.004439982, -1961009.5, 110617.625 
1.7467335e+3, 9.8600423e+1, -1876398.0, -2040298.3, 28751.94, 0.0016408339, 0.0025340312, -1871500.5, 102215.65 
1.7466517e+3, 1.08590856e+2, -1794238.6, -1961427.3, 32537.283, 0.00082840223, 0.0024253551, -1788129.6, 87680.21 
1.7465699e+3, 1.1858078e+2, -1704450.0, -1867570.1, 32957.645, -0.00071657065, 0.0019959994, -1698042.8, 79865.87 
1.7464888e+3, 1.2857015e+2, -1621838.4, -1789233.4, 35811.723, -0.00016161359, 0.003183464, -1614498.8, 65513.93 
1.7464079e+3, 1.3855898e+2, -1530937.1, -1694573.6, 36072.61, 0.00066610833, 0.0030542244, -1523338.0, 58784.152 
1.7463271e+3, 1.4854732e+2, -1448649.1, -1615986.4, 37266.33, 0.0008090597, 0.0032114226, -1440725.0, 43511.535 
1.7462465e+3, 1.5853511e+2, -1359053.5, -1522073.0, 36926.887, 0.0005024457, 0.002708602, -1351078.9, 35277.324 
1.7461659e+3, 1.6852237e+2, -1276703.1, -1443767.6, 36615.527, 0.000015092478, 0.0039059492, -1269030.5, 19450.607 
1.7460851e+3, 1.785091e+2, -1186638.5, -1349614.6, 36482.074, -0.00024603808, 0.0038775709, -1178844.8, 11766.505 
1.7460042e+3, 1.884953e+2, -1104479.8, -1270612.0, 35094.113, 0.00054101634, 0.003242197, -1097370.6, -4624.196 
1.7459232e+3, 1.98481e+2, -1015274.25, -1176647.4, 34808.582, 0.0014275413, 0.0013407817, -1008086.1, -13199.468 
1.7458418e+3, 2.0846628e+2, -933286.9, -1096477.8, 31998.252, -0.000081958344, 0.0022772152, -927237.0, -30206.254 
1.74576e+3, 2.1845111e+2, -845358.3, -1003521.75, 31472.863, -0.0018505399, 0.0029950615, -839325.6, -40146.277 
1.745678e+3, 2.2843552e+2, -763854.0, -922986.3, 28480.951, -0.0005841028, 0.0044348296, -758910.1, -57577.9 
1.7455956e+3, 2.3841947e+2, -676774.25, -830009.5, 28105.557, 0.0013141804, 0.003952189, -671781.94, -68292.52 
1.7455126e+3, 2.484031e+2, -595454.75, -747890.4, 24050.178, 0.0002042096, 0.002862933, -591750.3, -86100.46 
1.7454292e+3, 2.5838637e+2, -509672.22, -655673.2, 23045.752, -0.001404977, 0.0010841922, -506120.9, -98307.13 
1.7453451e+3, 2.6836935e+2, -428521.53, -573158.2, 18966.346, -0.0005090873, 0.0025282016, -426075.8, -116095.18 
1.7452608e+3, 2.7835202e+2, -342675.25, -480321.53, 18299.512, 0.00077130034, 0.0031496054, -340283.94, -128133.51 
1.7451757e+3, 2.8833446e+2, -261960.69, -395988.66, 14135.485, -0.00017446083, 0.0027713159, -260486.1, -146163.8 
1.7450903e+3, 2.9831672e+2, -179523.25, -306845.7, 13048.38, -0.0012933619, 0.00093526597, -178199.77, -161703.22 
1.7450042e+3, 3.083015e+2, -104964.86, -183947.75, 7954.602, -0.00053382624, 0.0024673992, -104171.695, -104171.695 
1.7449176e+3, 3.1828922e+2, -115447.79, -184058.61, 7268.643, 0.0015238962, 0.0029768941, -114686.2, -114686.2 
1.7448305e+3, 3.282835e+2, -45513.27, -15946.792, 2761.2983, -0.00039518025, 0.000073729745, -15691.117, -15691.117 
1.7572574e+3, 3.8737568e+1, -2387223.0, -2565608.0, 799.0291, -0.0030599185, -0.0008421271, -2387219.5, 173152.81 
1.7571701e+3, 4.8730698e+1, -2303731.3, -2478007.3, 10106.827, 0.0035546415, 0.014309771, -2303147.0, 159292.64 
1.7570835e+3, 5.872339e+1, -2217040.8, -2385898.8, 11549.971, -0.00046190675, 0.0021897403, -2216254.5, 148256.63 
1.7569979e+3, 6.87158e+1, -2135380.0, -2304909.3, 19042.176, 0.0011770568, 0.00026267767, -2133267.5, 133318.17 
1.7569134e+3, 7.8707814e+1, -2046929.8, -2211869.3, 20260.111, 0.0019289447, 0.00049551134, -2044477.6, 124186.086 
1.7568296e+3, 8.8699365e+1, -1965449.0, -2132819.8, 26246.68, 0.00019846275, 0.0032980626, -1961429.6, 109316.984 
1.7567465e+3, 9.869042e+1, -1876065.0, -2038942.9, 26780.395, -0.00156417, 0.0049463143, -1871774.8, 101059.484 
1.7566639e+3, 1.0868095e+2, -1793980.3, -1960328.0, 30728.045, -0.0007349928, 0.0041681333, -1788485.6, 86441.41 
1.7565818e+3, 1.1867095e+2, -1703863.6, -1866163.0, 31260.355, 0.00022727437, 0.0018872037, -1698050.9, 78974.266 
1.7565002e+3, 1.2866043e+2, -1621331.5, -1787846.3, 34265.03, 0.0012067584, 0.0030897725, -1614556.3, 64571.867 
1.7564188e+3, 1.3864937e+2, -1530645.9, -1693659.0, 34415.37, 0.0018638663, 0.0036364316, -1523677.9, 57558.6 
1.7563374e+3, 1.486377e+2, -1448943.0, -1616466.0, 35381.08, 0.0008423427, 0.0034563832, -1441777.0, 41573.895 
1.7562562e+3, 1.5862545e+2, -1359033.6, -1522344.6, 35157.58, -0.0006103168, 0.0021431888, -1351786.5, 33684.367 
1.756175e+3, 1.6861269e+2, -1276705.1, -1444129.4, 34871.39, -0.00064770755, 0.002387628, -1269732.5, 17863.518 
1.7560938e+3, 1.7859937e+2, -1186673.4, -1349996.3, 34664.13, -0.00013169045, 0.0014425525, -1179620.6, 10105.832 
1.7560121e+3, 1.8858555e+2, -1104736.4, -1271448.0, 33019.953, 0.000072382885, 0.003058779, -1098434.5, -6572.5264 
1.7559305e+3, 1.9857122e+2, -1015649.5, -1177804.6, 32670.223, 0.000077764074, 0.004386542, -1009314.7, -15312.209 
1.7558485e+3, 2.0855637e+2, -934168.1, -1098677.9, 29623.012, 0.00009815229, 0.004382233, -928996.56, -32848.617 
1.7557661e+3, 2.1854103e+2, -845924.2, -1005055.8, 29119.031, 0.00019562367, 0.00261064, -840763.2, -42464.934 
1.7556834e+3, 2.2852534e+2, -763910.44, -923427.4, 25806.93, -0.00007827372, 0.001967179, -759839.25, -59387.42 
1.7556001e+3, 2.3850927e+2, -677192.94, -831218.6, 25333.332, -0.00032747726, 0.000503543, -673133.25, -70523.72 
1.7555164e+3, 2.4849275e+2, -596762.06, -750857.1, 20964.605, -0.00074132823, 0.0021929238, -593960.75, -89189.445 
1.7554322e+3, 2.5847584e+2, -510720.03, -658206.4, 20051.371, -0.0010670986, 0.003441481, -508042.56, -101105.56 
1.7553473e+3, 2.6845866e+2, -429083.44, -574646.6, 15845.156, -0.0003996655, 0.0035378924, -427378.6, -118273.305 
1.755262e+3, 2.784412e+2, -343349.7, -482102.44, 15028.38, 0.00030889016, 0.0018491341, -341740.63, -130464.19 
1.755176e+3, 2.884235e+2, -262854.03, -398229.53, 10384.249, -0.0003081673, 0.0015490985, -262062.11, -148612.34 
1.7550896e+3, 2.984056e+2, -180408.9, -309161.0, 9428.508, -0.0008824233, 0.000086781896, -179722.13, -164096.53 
1.7550024e+3, 3.0839023e+2, -105710.41, -186200.1, 4595.9653, -0.00048237055, 0.002175659, -105448.83, -105448.83 
1.754915e+3, 3.1837776e+2, -116034.625, -186151.38, 3689.1282, 0.00073565985, 0.004562672, -115841.055, -115841.055 
1.7548266e+3, 3.2837182e+2, -46090.88, -18215.89, -1279.3088, -0.0008638578, -0.0011650359, -18157.3, -18157.3 
1.767274e+3, 3.882727e+1, -2397740.3, -2567168.5, 4220.4688, -0.0026802162, 0.0032866178, -2397635.3, 161858.0 
1.767186e+3, 4.8820576e+1, -2313033.3, -2479427.0, 13925.647, 0.0059477976, 0.006755388, -2311875.8, 149683.0 
1.7670985e+3, 5.881364e+1, -2226268.0, -2387257.3, 15325.21, -0.0017404148, 0.003921711, -2224822.3, 138804.6 
1.7670123e+3, 6.880627e+1, -2143763.5, -2306549.0, 23410.652, -0.00023156735, 0.0024696805, -2140463.8, 125235.23 
1.7669271e+3, 7.8798485e+1, -2053929.4, -2212762.8, 24596.896, 0.0016144476, 0.0011936196, -2050207.5, 117567.68 
1.7668428e+3, 8.8790214e+1, -1971473.9, -2133620.8, 31045.605, 0.00057748833, 0.0030771517, -1965733.0, 104123.234 
1.7667592e+3, 9.878143e+1, -1880907.4, -2039197.8, 31955.486, -0.0007598356, 0.004146763, -1874699.8, 97242.58 
1.7666762e+3, 1.0877211e+2, -1797542.8, -1960504.6, 36329.613, -0.00020096052, 0.004045998, -1789810.5, 84223.14 
1.7665935e+3, 1.1876223e+2, -1705773.4, -1865563.9, 36961.61, 0.00034870236, 0.0026706217, -1697637.9, 78492.59 
1.7665114e+3, 1.287518e+2, -1622722.0, -1787716.5, 39884.47, 0.00095747923, 0.0032463768, -1613586.5, 64646.22 
1.7664295e+3, 1.3874078e+2, -1531557.0, -1693214.4, 39840.164, 0.0014368049, 0.0030000256, -1522271.8, 58068.906 
1.7663477e+3, 1.4872916e+2, -1448345.4, -1615800.9, 40929.32, 0.00068173965, 0.003316166, -1438876.9, 43577.68 
1.7662661e+3, 1.5871693e+2, -1356432.6, -1520778.4, 40914.668, -0.00040363503, 0.0025895596, -1346810.1, 37764.28 
1.7661843e+3, 1.6870414e+2, -1273756.3, -1442880.0, 40476.098, -0.000119286786, 0.0027591982, -1264568.3, 22131.49 
1.7661026e+3, 1.7869078e+2, -1183337.9, -1348483.4, 40237.33, 0.0005528621, 0.0018387097, -1174055.9, 14774.823 
1.7660204e+3, 1.8867691e+2, -1100648.3, -1270019.6, 38484.48, 0.00010824872, 0.003133049, -1092314.0, -1347.291 
1.7659381e+3, 1.9866249e+2, -1010530.25, -1175845.4, 38095.19, -0.00049151864, 0.0041587357, -1002174.0, -9066.038 
1.7658554e+3, 2.0864756e+2, -928404.56, -1096714.1, 35037.89, -0.000045200522, 0.004376819, -921401.9, -26147.664 
1.7657724e+3, 2.1863213e+2, -839712.75, -1003017.9, 34831.887, 0.00084976776, 0.0027839113, -832593.7, -35188.164 
1.765689e+3, 2.286163e+2, -757692.5, -921990.9, 30791.045, 0.00028023127, 0.0020697978, -752111.56, -52551.066 
1.7656049e+3, 2.3860005e+2, -670473.2, -829327.75, 29621.531, -0.00059678685, 0.0007618083, -665129.44, -63409.71 
1.7655204e+3, 2.4858342e+2, -589008.56, -748168.2, 25276.332, -0.00070909696, 0.0024242497, -585090.8, -81208.11 
1.7654353e+3, 2.585664e+2, -502252.34, -655372.8, 24881.531, -0.00060961343, 0.0034281034, -498310.66, -92261.03 
1.7653497e+3, 2.6854908e+2, -421071.22, -572292.6, 20318.225, -0.000093539944, 0.0032058337, -418388.84, -110169.41 
1.7652634e+3, 2.7853143e+2, -336176.22, -480149.84, 19152.951, 0.0004203143, 0.0014467706, -333671.84, -123279.68 
1.7651765e+3, 2.885136e+2, -255187.5, -395913.03, 14219.77, -0.0004002379, 0.0017428463, -253765.02, -141198.1 
1.7650892e+3, 2.984955e+2, -172069.52, -306644.4, 13411.559, -0.0010579686, 0.0010088611, -170745.95, -156001.77 
1.765001e+3, 3.0848e+2, -98096.65, -184143.27, 8631.497, -0.00016760545, 0.0018009143, -97239.35, -97239.35 
1.7649125e+3, 3.1846735e+2, -109128.55, -184158.9, 7470.7544, 0.001433448, 0.0025204637, -108391.914, -108391.914 
1.764823e+3, 3.284613e+2, -38689.484, -15613.188, 2638.4404, -0.0012315577, 0.00048468486, -15315.365, -15315.365 
1.7772903e+3, 3.891782e+1, -2394978.5, -2559906.8, 2316.7078, -0.00025441183, 0.008881752, -2394946.0, 163659.69 
1.7772013e+3, 4.8911256e+1, -2312121.3, -2476102.3, 11248.113, 0.006330359, -0.009545335, -2311353.3, 149316.89 
1.7771132e+3, 5.890476e+1, -2225009.0, -2383806.3, 12855.957, -0.00290987, 0.0063009355, -2223975.0, 138758.77 
1.7770264e+3, 6.889765e+1, -2142971.0, -2303890.3, 21603.191, -0.0022871387, 0.0072794873, -2140121.5, 124682.0 
1.7769407e+3, 7.8890055e+1, -2052966.0, -2209865.5, 22756.219, -0.0002923315, 0.004262017, -2049732.3, 117145.67 
1.7768559e+3, 8.8881975e+1, -1970476.9, -2130768.8, 29375.49, 0.00096271955, 0.0032630528, -1965263.0, 103693.96 
1.7767717e+3, 9.8873377e+1, -1879819.3, -2036509.0, 30348.559, 0.0017872796, 0.001529319, -1874146.5, 96894.74 
1.7766881e+3, 1.08864225e+2, -1796954.4, -1958753.9, 34947.246, 0.0010893531, 0.0029081043, -1789728.8, 83402.14 
1.7766051e+3, 1.1885449e+2, -1705244.5, -1864107.0, 35537.598, -0.000042715343, 0.0038422772, -1697657.1, 77569.2 
1.7765224e+3, 1.2884411e+2, -1622689.6, -1787301.3, 38365.496, -0.00021966921, 0.0034574685, -1614187.1, 63140.86 
1.7764401e+3, 1.3883314e+2, -1531315.1, -1692574.3, 38461.22, -0.00030476556, 0.0017615431, -1522611.8, 56823.965 
1.776358e+3, 1.4882156e+2, -1448124.9, -1615234.9, 39643.797, 0.00018443895, 0.0030583877, -1439197.1, 42351.9 
1.776276e+3, 1.588094e+2, -1356324.6, -1520464.4, 39516.047, 0.0005158104, 0.0035367159, -1347306.8, 36361.566 
1.7761937e+3, 1.687966e+2, -1274055.8, -1443538.5, 38739.16, 0.0010371584, 0.004316712, -1265620.9, 20172.85 
1.7761113e+3, 1.7878321e+2, -1183386.5, -1348942.4, 38562.56, 0.0014812783, 0.004233859, -1174844.9, 13080.136 
1.7760289e+3, 1.8876925e+2, -1100936.0, -1270907.9, 36678.16, 0.00039675922, 0.0033434392, -1093359.0, -3297.3813 
1.7759459e+3, 1.9875474e+2, -1010773.75, -1176597.4, 36234.406, -0.00071404525, 0.0014544093, -1003201.9, -10998.075 
1.7758627e+3, 2.0873977e+2, -928637.56, -1097411.4, 32739.879, -0.0006250962, 0.002755521, -922509.0, -28158.56 
1.775779e+3, 2.1872431e+2, -840287.6, -1004561.75, 32486.025, 0.00024032581, 0.0033554619, -834096.7, -37594.477 
1.7756946e+3, 2.287083e+2, -759250.06, -925554.44, 28176.596, 0.00041556454, 0.004199605, -754605.9, -55946.836 
1.7756101e+3, 2.3869182e+2, -671487.6, -831812.7, 27088.982, 0.00015934953, 0.003989294, -667034.25, -66213.77 
1.7755248e+3, 2.4867508e+2, -589122.25, -748763.44, 22507.193, 0.000024779622, 0.0033711807, -586009.75, -83025.195 
1.7754388e+3, 2.5865796e+2, -502741.88, -656705.8, 21972.123, -0.00026978712, 0.0013022502, -499667.63, -94515.42 
1.7753524e+3, 2.6864046e+2, -422269.25, -575130.25, 16925.703, 0.0002323, 0.0017914844, -420417.56, -113093.98 
1.7752652e+3, 2.786227e+2, -337196.8, -482677.16, 15787.53, 0.0009637963, 0.0021020414, -335503.25, -126005.164 
1.7751774e+3, 2.886047e+2, -255870.4, -397747.47, 10658.382, -0.0005742197, 0.0035968076, -255074.17, -143399.95 
1.7750889e+3, 2.985865e+2, -172815.2, -308705.28, 9838.507, -0.0020635242, 0.0037909192, -172106.58, -158253.83 
1.775e+3, 3.0857074e+2, -99092.15, -186798.97, 4964.545, 0.00018396287, 0.001505239, -98812.03, -98812.03 
1.7749104e+3, 3.1855786e+2, -109653.58, -185938.64, 3651.4631, 0.0035148964, -0.0019843108, -109479.195, -109479.195 
1.77482e+3, 3.285519e+2, -38058.926, -15325.51, -1198.8787, -0.0021238734, 0.0056911665, -15262.46, -15262.46 
1.7873059e+3, 3.900918e+1, -2408125.0, -2562173.3, 5380.2866, 0.0015541853, 0.004173127, -2407937.3, 149773.1 
1.787216e+3, 4.9003047e+1, -2325227.3, -2479206.8, 14848.327, 0.0014987095, -0.0023141801, -2323808.5, 135961.97 
1.7871274e+3, 5.899675e+1, -2235666.8, -2385633.5, 16612.342, -0.0008487008, 0.004631146, -2233848.8, 127983.586 
1.7870401e+3, 6.8989897e+1, -2152338.3, -2305654.0, 26015.383, -0.00019656922, 0.005321141, -2148044.0, 115855.36 
1.7869538e+3, 7.898255e+1, -2061058.3, -2210866.3, 27386.848, 0.00009594424, 0.004071664, -2056208.5, 109762.81 
1.7868684e+3, 8.89747e+1, -1976952.5, -2131534.3, 34351.043, 0.0006535829, 0.0035702793, -1969662.9, 98385.47 
1.786784e+3, 9.89663e+1, -1884557.6, -2036506.0, 35288.383, 0.0011613979, 0.0020256168, -1876762.3, 93368.375 
1.7866999e+3, 1.089573e+2, -1800844.1, -1959123.3, 40035.047, 0.00082401116, 0.003055514, -1791294.0, 80924.875 
1.7866166e+3, 1.18947685e+2, -1708065.5, -1863861.8, 40588.01, 0.00025070494, 0.0036246078, -1698125.6, 76187.4 
1.7865336e+3, 1.2893742e+2, -1624253.1, -1786914.9, 43605.023, 0.00035585594, 0.003562639, -1613301.3, 63112.363 
1.7864509e+3, 1.3892652e+2, -1531275.6, -1691410.1, 43973.4, 0.00029421403, 0.0023549558, -1519995.0, 58525.465 
1.7863683e+3, 1.4891501e+2, -1447602.0, -1614344.4, 45176.234, 0.00018419507, 0.003208401, -1436148.9, 44484.402 
1.7862858e+3, 1.5890287e+2, -1355293.9, -1519279.6, 45038.65, 0.00014541346, 0.0032153602, -1343738.3, 39013.99 
1.7862031e+3, 1.6889007e+2, -1271552.6, -1442160.6, 44290.434, 0.0008115642, 0.0040280144, -1260740.0, 24137.596 
1.7861204e+3, 1.7887667e+2, -1178900.0, -1346702.5, 44258.01, 0.0014197814, 0.004220882, -1167942.5, 19066.535 
1.7860372e+3, 1.8886268e+2, -1096140.8, -1269168.3, 42120.23, 0.00040910643, 0.003617931, -1086432.1, 2713.9648 
1.785954e+3, 1.988481e+2, -1005931.9, -1174812.6, 41708.965, -0.0004361132, 0.0016593717, -996192.56, -4903.621 
1.78587e+3, 2.0883304e+2, -922832.4, -1095688.0, 37795.94, -0.0004645675, 0.0025246616, -914929.4, -21492.838 
1.7857857e+3, 2.1881744e+2, -832868.9, -1001846.7, 37205.914, -0.00014249516, 0.0030863532, -825039.56, -29450.162 
1.7857009e+3, 2.2880132e+2, -751085.1, -922524.06, 33106.08, 0.00033670536, 0.0043720743, -744914.25, -47167.008 
1.7856155e+3, 2.3878475e+2, -662909.2, -828706.0, 32766.586, 0.00064767245, 0.0044927564, -656668.44, -56758.605 
1.7855294e+3, 2.4876785e+2, -581073.25, -746427.1, 27492.473, 0.0002578765, 0.003534698, -576622.06, -74546.66 
1.7854427e+3, 2.587506e+2, -495260.6, -654555.7, 26318.299, -0.0003886025, 0.0011782007, -491024.97, -86780.305 
1.7853554e+3, 2.6873294e+2, -414347.13, -572730.8, 21070.59, 0.000034058216, 0.0019805357, -411591.9, -105174.414 
1.7852673e+3, 2.7871495e+2, -328570.78, -479965.13, 20261.74, 0.0009039298, 0.0027913942, -325905.97, -117312.484 
1.7851785e+3, 2.8869683e+2, -246814.19, -394806.28, 14929.815, -0.00030198263, 0.0037608366, -245323.05, -134551.86 
1.7850891e+3, 2.9867846e+2, -163848.47, -305996.78, 13992.447, -0.0016647249, 0.0032265969, -162484.2, -149532.88 
1.784999e+3, 3.0866253e+2, -91053.22, -184691.97, 8959.37, 0.00014864697, 0.00207469, -90203.695, -90203.695 
1.7849085e+3, 3.1864953e+2, -102657.88, -184118.08, 7786.3076, 0.0034394728, -0.00010051729, -101920.31, -101920.31 
1.7848171e+3, 3.286434e+2, -29939.354, -12298.171, 2306.7522, -0.0021658335, 0.0053834836, -12001.528, -12001.528 
1.797321e+3, 3.9101318e+1, -2406855.8, -2557655.0, 2278.3013, 0.0016937044, -0.002117764, -2406821.5, 149986.02 
1.7972304e+3, 4.9095726e+1, -2323799.8, -2475271.0, 12853.512, -0.0053644762, 0.014066871, -2322716.8, 136145.53 
1.7971413e+3, 5.908952e+1, -2234062.0, -2381603.5, 14673.834, 0.0022224751, 0.0009664518, -2232616.8, 128306.33 
1.7970534e+3, 6.908294e+1, -2150962.3, -2302052.5, 24471.576, 0.0031713266, 0.00039626347, -2147097.5, 115889.984 
1.7969665e+3, 7.907589e+1, -2059663.5, -2207328.8, 25893.639, 0.0011987604, 0.002195661, -2055254.6, 109802.01 
1.7968808e+3, 8.9068294e+1, -1976087.0, -2128861.5, 33137.676, -0.00016005796, 0.0038140907, -1969208.9, 97922.22 
1.7967959e+3, 9.9060106e+1, -1883814.5, -2034144.4, 34056.105, -0.0012500936, 0.004001609, -1876459.3, 92752.07 
1.7967117e+3, 1.09051235e+2, -1800539.5, -1957630.4, 38910.8, -0.0003926436, 0.0037843366, -1791429.8, 79868.56 
1.796628e+3, 1.19041726e+2, -1707522.3, -1862158.4, 39545.6, 0.0007429629, 0.002640431, -1697996.0, 75395.47 
1.7965445e+3, 1.290316e+2, -1623799.8, -1785392.8, 42558.125, 0.0016873849, 0.0037469626, -1613276.6, 62214.06 
1.7964615e+3, 1.3902083e+2, -1530734.0, -1690035.4, 42914.44, 0.0019727794, 0.0038794281, -1519908.8, 57687.508 
1.7963785e+3, 1.4900936e+2, -1447396.0, -1613901.0, 43953.35, 0.00034395847, 0.0034862307, -1436505.6, 43202.926 
1.7962956e+3, 1.5899724e+2, -1354885.8, -1518626.3, 43928.06, -0.0011402913, 0.0023073587, -1343845.3, 37982.12 
1.7962126e+3, 1.689845e+2, -1271444.5, -1441997.0, 43117.47, -0.00044465903, 0.0027674236, -1261163.8, 22788.59 
1.7961295e+3, 1.7897108e+2, -1178950.6, -1346819.4, 42930.098, 0.00040588444, 0.0026527895, -1168609.0, 17474.7 
1.796046e+3, 1.8895708e+2, -1096463.6, -1270038.0, 40252.164, 0.00008587624, 0.0040218276, -1087583.4, 637.5813 
1.795962e+3, 1.9894245e+2, -1006209.3, -1175925.8, 39970.285, -0.00001316772, 0.0041393815, -997267.0, -6902.7036 
1.7958777e+3, 2.0892726e+2, -923691.4, -1097846.5, 35964.59, -0.000041082276, 0.0034364392, -916556.6, -24043.387 
1.7957929e+3, 2.189115e+2, -833326.44, -1003053.3, 35277.26, -0.00040932262, 0.0019931705, -826286.2, -31618.527 
1.7957073e+3, 2.2889537e+2, -750980.8, -922545.44, 30612.854, 0.00014016782, 0.0029092235, -745682.1, -48856.406 
1.7956212e+3, 2.3887876e+2, -663395.2, -829958.7, 30168.041, 0.000793061, 0.0029240684, -658099.5, -59111.023 
1.7955343e+3, 2.4886167e+2, -582700.1, -750047.8, 24406.832, 0.000012563833, 0.0032670232, -579213.1, -78057.21 
1.7954467e+3, 2.5884417e+2, -496394.03, -657273.94, 23335.803, -0.00086900237, 0.002946974, -493077.53, -89750.09 
1.7953587e+3, 2.688264e+2, -414930.78, -574228.25, 17864.143, -0.00075633294, 0.0036984684, -412952.03, -107450.46 
1.7952697e+3, 2.7880833e+2, -329252.16, -481719.13, 17023.38, -0.00014591527, 0.0034867574, -327374.56, -119695.83 
1.79518e+3, 2.8879002e+2, -247709.22, -397010.94, 11352.438, 0.00013952292, 0.0024093778, -246850.95, -136992.84 
1.7950895e+3, 2.9877144e+2, -164763.7, -308344.66, 10304.906, -0.000023763381, 0.000056685407, -164027.88, -151987.86 
1.7949985e+3, 3.0875543e+2, -91798.2, -186709.45, 4917.635, -0.00047971628, 0.0041520223, -91544.086, -91544.086 
1.7949069e+3, 3.187423e+2, -103603.836, -186635.88, 3877.1814, 0.0007283254, 0.007749086, -103423.18, -103423.18 
1.7948146e+3, 3.287358e+2, -31163.0, -15668.734, -1266.5931, -0.0014614607, -0.0008001932, -15565.879, -15565.879 
1.8073352e+3, 3.9194205e+1, -2422445.8, -2560274.3, 4261.791, 0.0016887103, 0.00008559953, -2422314.0, 133583.14 
1.8072441e+3, 4.9188942e+1, -2337847.3, -2478563.8, 15988.532, -0.0051611075, 0.012689416, -2336053.5, 121895.2 
1.8071544e+3, 5.918306e+1, -2245701.3, -2383504.3, 17872.05, 0.002772422, 0.00063418056, -2243421.0, 116585.35 
1.8070662e+3, 6.9176793e+1, -2160994.0, -2303549.0, 28197.64, 0.0029633627, 0.0008299345, -2155619.0, 106448.734 
1.806979e+3, 7.917004e+1, -2068224.3, -2208392.5, 29769.309, 0.00028002332, 0.0031421178, -2062163.9, 101970.07 
1.8068928e+3, 8.916266e+1, -1983941.8, -2130425.5, 37253.715, -0.00036593332, 0.004187058, -1975011.8, 91194.516 
1.8068077e+3, 9.915466e+1, -1890310.9, -2034732.9, 38187.395, -0.0005812304, 0.0037216349, -1880835.3, 87449.516 
1.806723e+3, 1.09146e+2, -1805452.1, -1957687.0, 43585.113, 0.00013995596, 0.003376464, -1793856.8, 76512.836 
1.806639e+3, 1.1913668e+2, -1710936.1, -1861506.4, 44589.98, 0.0009730626, 0.002357859, -1698722.0, 73738.875 
1.8065554e+3, 1.291267e+2, -1625865.9, -1784930.8, 47799.62, 0.001396306, 0.0035779097, -1612607.0, 61951.64 
1.8064721e+3, 1.3911605e+2, -1531221.5, -1688780.0, 48220.227, 0.0013928474, 0.0038796694, -1517635.4, 59027.832 
1.8063888e+3, 1.4910465e+2, -1446557.4, -1612548.3, 49287.12, 0.00037555478, 0.0035640565, -1433025.9, 45748.76 
1.8063056e+3, 1.590926e+2, -1352464.5, -1516477.4, 49422.31, -0.0005691497, 0.002579378, -1338723.3, 42169.46 
1.8062223e+3, 1.690799e+2, -1268712.8, -1440394.4, 48535.42, -0.00021667597, 0.0028792815, -1255941.5, 27075.928 
1.8061388e+3, 1.790665e+2, -1175826.6, -1344978.0, 48405.777, 0.00018952088, 0.0022938908, -1162954.0, 22194.668 
1.8060549e+3, 1.8905248e+2, -1091507.4, -1267778.1, 45571.336, 0.00013098856, 0.003818798, -1080422.9, 6863.284 
1.8059705e+3, 1.990378e+2, -998808.1, -1172454.5, 45370.273, 0.00027660455, 0.00462098, -987668.44, 1761.3898 
1.8058856e+3, 2.0902254e+2, -916300.8, -1094998.5, 41402.254, 0.00019171604, 0.004050474, -907174.5, -15595.05 
1.8058002e+3, 2.1900669e+2, -826272.2, -1000386.1, 41077.53, -0.0001053141, 0.002390824, -817067.6, -23332.84 
1.805714e+3, 2.2899044e+2, -743595.8, -920212.3, 35504.42, 0.00013431904, 0.0027354453, -736725.75, -40831.727 
1.8056273e+3, 2.3897369e+2, -655389.6, -827267.5, 34437.84, 0.0005665688, 0.0023913973, -648746.4, -50688.3 
1.8055397e+3, 2.4895649e+2, -573790.25, -747213.4, 28674.625, 0.000064197375, 0.0031321803, -569172.06, -68945.21 
1.8054514e+3, 2.5893885e+2, -486401.6, -653674.1, 28185.023, -0.00042696806, 0.003512045, -481780.2, -79380.445 
1.8053623e+3, 2.6892093e+2, -405163.97, -570827.6, 22398.81, -0.00043249642, 0.0039585647, -402188.94, -97613.74 
1.8052724e+3, 2.789027e+2, -320311.44, -478776.78, 21480.813, -0.00025503105, 0.003014381, -317451.22, -110697.47 
1.8051818e+3, 2.8888425e+2, -239673.78, -394707.38, 15536.674, 0.00014542048, 0.0023171694, -238132.11, -129197.484 
1.8050905e+3, 2.9886553e+2, -157266.17, -306337.7, 14586.613, 0.000302664, 0.0006861808, -155852.28, -144734.2 
1.8049984e+3, 3.0884933e+2, -83047.164, -183921.9, 9024.445, -0.0007894905, 0.003959608, -82246.18, -82246.18 
1.8049057e+3, 3.1883606e+2, -93683.14, -183618.33, 7906.4077, 0.00014594456, 0.0068355864, -92993.36, -92993.36 
1.8048123e+3, 3.2882938e+2, -24063.65, -14019.261, 2917.403, -0.0005390172, -0.00083109346, -13233.385, -13233.385 
1.8173489e+3, 3.928773e+1, -2419427.8, -2553243.3, 2229.9414, 0.0015439667, 0.0036164701, -2419390.5, 135590.08 
1.8172573e+3, 4.9282742e+1, -2336040.8, -2473961.3, 14705.61, -0.002094054, 0.004177222, -2334490.3, 122539.32 
1.8171673e+3, 5.9277284e+1, -2243903.0, -2378804.8, 16595.396, 0.0018035448, 0.00160544, -2241891.5, 117191.53 
1.8170784e+3, 6.927137e+1, -2159458.3, -2299366.3, 27133.443, 0.0008464607, 0.0034136304, -2154380.5, 106760.47 
1.816991e+3, 7.9264915e+1, -2066791.3, -2204673.8, 28652.414, -0.0016421671, 0.005257651, -2061074.3, 102130.0 
1.8169047e+3, 8.925773e+1, -1983057.9, -2127892.5, 36401.098, -0.0003089283, 0.0044735507, -1974424.0, 90850.67 
1.8168192e+3, 9.924992e+1, -1889044.6, -2031621.8, 37461.81, 0.001313439, 0.0022244328, -1879800.9, 87550.32 
1.8167342e+3, 1.092415e+2, -1804083.3, -1954284.1, 42943.645, 0.0012383682, 0.0024647675, -1792672.3, 76761.34 
1.81665e+3, 1.1923244e+2, -1709737.3, -1858638.1, 43921.92, 0.0008147835, 0.0024087413, -1697747.0, 73775.46 
1.8165661e+3, 1.2922262e+2, -1625313.5, -1783244.8, 47086.16, 0.00007661595, 0.0031393752, -1612340.6, 61278.063 
1.8164827e+3, 1.3921207e+2, -1530580.4, -1687053.5, 47534.7, -0.0006398318, 0.0030221755, -1517271.8, 58450.254 
1.8163991e+3, 1.4920083e+2, -1446250.9, -1611381.8, 48414.945, 0.0002340284, 0.0036769854, -1433103.0, 44729.336 
1.8163157e+3, 1.5918885e+2, -1352147.5, -1515537.1, 48525.133, 0.0009685055, 0.0036308325, -1338822.8, 41126.797 
1.816232e+3, 1.6917618e+2, -1268584.3, -1440143.9, 47336.7, 0.0008005028, 0.0038755678, -1256389.9, 25683.896 
1.8161482e+3, 1.791628e+2, -1175463.8, -1344615.6, 47378.344, 0.00036033313, 0.0027702064, -1163097.4, 21107.479 
1.8160638e+3, 1.8914877e+2, -1091585.5, -1268113.3, 44394.563, 0.00034774301, 0.0032095131, -1081049.8, 5292.7334 
1.8159792e+3, 1.9913408e+2, -998823.6, -1172577.3, 43999.465, 0.00046622107, 0.0034311616, -988317.0, 169.38942 
1.8158938e+3, 2.0911881e+2, -916410.75, -1095432.3, 39372.277, 0.00035263252, 0.0041778567, -908134.25, -17498.256 
1.8158078e+3, 2.1910293e+2, -826740.5, -1001684.0, 39110.406, 0.00040879985, 0.0039229398, -818395.1, -25603.512 
1.8157211e+3, 2.290865e+2, -744964.56, -923351.7, 33153.56, -0.000007983959, 0.0036315152, -739002.2, -44049.62 
1.8156335e+3, 2.3906955e+2, -656196.2, -829298.9, 32162.756, -0.00020155995, 0.0024532399, -650413.44, -53294.71 
1.8155453e+3, 2.4905224e+2, -574079.0, -748143.3, 25933.809, 0.0001365218, 0.0030170039, -570297.25, -71008.93 
1.8154562e+3, 2.590345e+2, -486881.06, -654933.2, 25310.2, 0.0004566635, 0.0031547903, -483151.88, -81689.92 
1.8153661e+3, 2.6901647e+2, -406002.16, -572841.0, 18931.271, 0.0006174902, 0.0031365205, -403880.97, -100242.31 
1.8152755e+3, 2.7899814e+2, -321059.8, -480749.44, 18014.07, 0.00050089834, 0.0018141626, -319052.94, -113234.305 
1.8151839e+3, 2.8897956e+2, -240473.08, -396853.88, 11775.539, -0.0002532171, 0.0037575045, -239591.34, -131590.58 
1.8150915e+3, 2.989607e+2, -158091.52, -308452.2, 11008.036, -0.0010873576, 0.0047995616, -157289.88, -147104.38 
1.8149985e+3, 3.0894428e+2, -83862.18, -186085.66, 5377.214, -0.0010783933, 0.0014455615, -83580.1, -83580.1 
1.814905e+3, 3.1893077e+2, -94473.15, -185815.0, 3892.0225, 0.001679214, -0.0019729284, -94307.61, -94307.61 
1.8148103e+3, 3.289241e+2, -24567.97, -15600.943, -1575.7357, -0.00012901984, 0.0060020476, -15332.106, -15332.106 
1.8273617e+3, 3.9381847e+1, -2436624.0, -2558146.5, 4297.837, -0.0010379977, 0.004247387, -2436472.3, 117586.01 
1.82727e+3, 4.9377197e+1, -2350931.5, -2476835.3, 17184.957, 0.0017615311, 0.00084018416, -2348628.0, 107475.7 
1.8271793e+3, 5.9372187e+1, -2257869.3, -2381453.8, 19432.006, 0.0000032975133, 0.0037165456, -2254886.0, 103267.02 
1.8270904e+3, 6.936657e+1, -2171822.8, -2302310.3, 30348.615, 0.00005877584, 0.003923646, -2165109.5, 95098.44 
1.8270026e+3, 7.936036e+1, -2076769.1, -2206113.5, 31803.775, -0.00044057635, 0.0033098888, -2069372.1, 92896.63 
1.8269159e+3, 8.9353484e+1, -1991070.0, -2128446.8, 40125.676, 0.00045165748, 0.003483995, -1980208.6, 84127.59 
1.8268302e+3, 9.9345964e+1, -1895398.1, -2031703.3, 41680.07, 0.0013872618, 0.0027773234, -1883663.3, 82746.66 
1.8267451e+3, 1.0933776e+2, -1809366.4, -1954717.5, 47180.246, 0.0010530645, 0.0031769895, -1795395.0, 73095.31 
1.8266608e+3, 1.1932888e+2, -1713514.9, -1858136.9, 47991.707, 0.00044490048, 0.003048079, -1699038.3, 71538.99 
1.8265767e+3, 1.2931925e+2, -1627949.9, -1782388.1, 51440.5, 0.000020685176, 0.003092177, -1612384.8, 60287.027 
1.826493e+3, 1.3930887e+2, -1532046.6, -1685622.3, 52230.582, -0.00027531115, 0.0023730414, -1515966.8, 58806.605 
1.8264093e+3, 1.4929777e+2, -1446730.5, -1610039.9, 53336.688, 0.00056976714, 0.0033799082, -1430854.3, 46027.88 
1.8263257e+3, 1.5928595e+2, -1351219.1, -1513476.4, 53749.27, 0.0010338572, 0.0036919944, -1335029.5, 43968.594 
1.8262418e+3, 1.6927336e+2, -1265528.3, -1437760.4, 52724.047, 0.000681018, 0.0040312163, -1250670.0, 30451.4 
1.8261577e+3, 1.7926005e+2, -1170180.6, -1341206.3, 52979.734, 0.00047716993, 0.0031763613, -1155098.8, 28153.26 
1.8260731e+3, 1.8924603e+2, -1086451.3, -1265460.6, 49828.543, 0.00048393256, 0.003138976, -1073515.9, 11873.44 
1.825988e+3, 1.9923134e+2, -993615.25, -1169821.0, 49603.773, 0.00037342426, 0.0027928916, -980611.0, 6922.3096 
1.8259022e+3, 2.0921604e+2, -909564.4, -1092315.1, 44455.605, 0.0003467584, 0.003568858, -899324.0, -9640.903 
1.8258157e+3, 2.1920012e+2, -817928.7, -997698.7, 44175.03, 0.00083562353, 0.0036293487, -807660.06, -15820.926 
1.8257284e+3, 2.2918361e+2, -735506.0, -919709.9, 38306.297, 0.00035322463, 0.0035720093, -727857.56, -33856.63 
1.8256402e+3, 2.3916654e+2, -646120.06, -825213.7, 37955.883, -0.00013586461, 0.0025013785, -638408.0, -42239.855 
1.8255512e+3, 2.4914914e+2, -564706.2, -744634.6, 31134.016, 0.00035959927, 0.0029964778, -559471.2, -61132.41 
1.8254614e+3, 2.5913128e+2, -478232.9, -651783.56, 30326.943, 0.0006607918, 0.002901999, -473086.1, -72572.54 
1.8253706e+3, 2.6911312e+2, -397037.3, -569818.4, 23592.674, 0.00035211496, 0.0025947292, -393873.75, -91182.16 
1.825279e+3, 2.7909464e+2, -311488.56, -477283.7, 22750.275, 0.00016021532, 0.0012680041, -308423.47, -103550.555 
1.8251865e+3, 2.8907594e+2, -230646.94, -393338.2, 16327.11, -0.000047118592, 0.0037358184, -229024.58, -121968.32 
1.825093e+3, 2.9905695e+2, -148561.84, -305205.8, 15879.762, -0.00063776434, 0.0052740574, -146968.25, -137726.0 
1.824999e+3, 3.0904034e+2, -75530.83, -183683.47, 10051.0205, -0.0011080315, 0.0013002486, -74604.68, -74604.68 
1.8249042e+3, 3.1902668e+2, -87097.54, -183623.1, 8330.713, 0.001681492, -0.003021034, -86383.83, -86383.83 
1.8248086e+3, 3.290199e+2, -15831.659, -12116.034, 2510.4011, -0.00060562795, 0.007547209, -10850.774, -10850.774 
1.837374e+3, 3.947646e+1, -2435749.3, -2554786.3, 2919.4648, -0.0041112616, 0.0041669565, -2435677.8, 117453.3 
1.8372819e+3, 4.9472183e+1, -2348468.0, -2470810.5, 16050.406, 0.0055164434, -0.0005511614, -2346397.5, 108775.54 
1.837191e+3, 5.946763e+1, -2255585.3, -2376166.0, 18386.07, -0.0024036427, 0.006164573, -2252844.0, 104373.45 
1.8371017e+3, 6.9462293e+1, -2170497.8, -2298594.0, 29811.24, -0.00045679923, 0.0034501723, -2163899.8, 95370.16 
1.8370138e+3, 7.9456335e+1, -2075153.0, -2201783.0, 31326.643, 0.0018330145, -0.00068842276, -2067827.0, 93501.14 
1.836927e+3, 8.944983e+1, -1989225.4, -2123719.5, 39713.79, 0.0013232455, 0.0017076235, -1978374.0, 85017.97 
1.8368411e+3, 9.9442667e+1, -1893957.6, -2027965.1, 41213.78, 0.0003524925, 0.004025319, -1882297.1, 83165.12 
1.8367559e+3, 1.0943467e+2, -1808736.9, -1952607.4, 46816.58, 0.00007079194, 0.0044694226, -1794844.0, 72696.65 
1.8366712e+3, 1.1942595e+2, -1712420.5, -1855358.4, 47726.348, -0.00010528716, 0.0038556973, -1697949.9, 71676.164 
1.8365872e+3, 1.2941654e+2, -1626684.0, -1779214.0, 51113.582, 0.00066415675, 0.0032881505, -1611139.8, 60578.605 
1.8365033e+3, 1.3940638e+2, -1530828.6, -1682658.6, 51877.41, 0.0012180984, 0.0019666296, -1514796.0, 59021.652 
1.8364196e+3, 1.4939548e+2, -1445751.1, -1607692.8, 52833.992, 0.0008081925, 0.0029544528, -1430038.4, 45886.266 
1.8363357e+3, 1.5938382e+2, -1350101.4, -1511240.3, 53360.37, -0.0000390467, 0.0032589461, -1334033.5, 44005.426 
1.8362518e+3, 1.6937135e+2, -1264930.9, -1436359.9, 52126.41, -0.00023049726, 0.0038647843, -1250325.3, 29835.818 
1.8361674e+3, 1.7935814e+2, -1169720.0, -1340013.4, 52225.188, 0.00022748814, 0.0036239577, -1154979.6, 27310.92 
1.8360825e+3, 1.8934418e+2, -1086346.9, -1265172.0, 48538.094, 0.00031053624, 0.0034224708, -1074021.8, 10405.54 
1.8359971e+3, 1.993295e+2, -993392.1, -1169637.3, 48506.59, -0.000120712044, 0.002562676, -980924.06, 5647.1133 
1.8359108e+3, 2.0931418e+2, -909810.2, -1093051.9, 42994.38, -0.000011662317, 0.0025880819, -900223.8, -11502.518 
1.835824e+3, 2.1929821e+2, -817944.06, -997950.94, 42638.84, 0.0008697304, 0.0019933016, -808354.9, -17477.025 
1.835736e+3, 2.2928171e+2, -735462.56, -919834.94, 36051.953, 0.0010270566, 0.0027757725, -728663.7, -35624.086 
1.8356474e+3, 2.3926464e+2, -646334.8, -825958.6, 35550.82, 0.0005799003, 0.0027647885, -639554.56, -44347.64 
1.8355577e+3, 2.4924712e+2, -565553.6, -746590.2, 28047.287, 0.00054022233, 0.0032716778, -561307.94, -63929.336 
1.8354669e+3, 2.5922912e+2, -478884.8, -653514.3, 27351.76, 0.0001386705, 0.0028214112, -474701.0, -75146.24 
1.8353753e+3, 2.6921085e+2, -397671.5, -571513.9, 20253.867, -0.0011394484, 0.0024277687, -395342.97, -93608.96 
1.8352827e+3, 2.7919224e+2, -312022.28, -478755.16, 19382.959, -0.001571172, 0.0012683554, -309798.66, -105882.125 
1.8351892e+3, 2.891734e+2, -231169.81, -394668.56, 12478.079, 0.0003797016, 0.0023648315, -230222.98, -124122.0 
1.8350948e+3, 2.991543e+2, -149189.03, -306927.25, 12105.673, 0.0014505323, 0.00276807, -148265.39, -139977.27 
1.8349999e+3, 3.091376e+2, -76571.91, -186204.05, 6101.4995, -0.0010233137, 0.003942268, -76233.375, -76233.375 
1.8349041e+3, 3.1912377e+2, -87884.805, -185577.72, 4349.02, -0.00008526786, 0.0034413962, -87691.58, -87691.58 
1.8348072e+3, 3.2911682e+2, -15983.879, -13052.257, -1679.9473, -0.0019360068, 0.00357242, -12288.533, -12288.533 
1.8473853e+3, 3.9571398e+1, -2454518.0, -2558190.8, 4019.995, -0.0015829467, 0.005238501, -2454362.5, 97838.16 
1.847293e+3, 4.956752e+1, -2365319.3, -2474873.8, 17480.924, 0.0033147633, -0.0027330674, -2362597.8, 91640.98 
1.8472017e+3, 5.956337e+1, -2269593.3, -2378583.0, 19639.895, -0.0014420735, 0.0054168147, -2266162.3, 90117.09 
1.8471125e+3, 6.9558424e+1, -2183059.8, -2300598.3, 31768.479, 0.00017218333, 0.0042376453, -2175022.8, 83304.96 
1.8470244e+3, 7.955284e+1, -2086422.4, -2203388.3, 33703.746, 0.0012664053, 0.0011825723, -2077405.8, 82976.75 
1.8469375e+3, 8.954662e+1, -1999056.5, -2125338.0, 42176.16, 0.0006312973, 0.0023565737, -1986265.8, 76177.57 
1.8468514e+3, 9.953974e+1, -1902020.0, -2028482.9, 43557.52, -0.000019441432, 0.0033468422, -1888469.4, 76041.47 
1.8467662e+3, 1.09532036e+2, -1815076.0, -1952260.4, 49884.633, 0.00017705148, 0.0034824607, -1798854.5, 67731.86 
1.8466817e+3, 1.19523615e+2, -1717147.6, -1854300.4, 51465.082, 0.00041845228, 0.0029045036, -1699983.9, 68685.06 
1.8465973e+3, 1.2951447e+2, -1630256.3, -1777989.1, 55070.746, 0.0009414373, 0.0032879198, -1611986.8, 58771.813 
1.8465136e+3, 1.3950458e+2, -1533079.4, -1680877.4, 56104.766, 0.0012615265, 0.0029441211, -1514194.8, 58660.684 
1.8464296e+3, 1.4949387e+2, -1446284.1, -1605763.0, 57315.17, 0.0003925427, 0.0033335497, -1427822.6, 47137.785 
1.8463457e+3, 1.5948237e+2, -1348790.5, -1508180.1, 58062.55, -0.00060933444, 0.0029471968, -1329882.4, 47190.613 
1.8462616e+3, 1.694701e+2, -1262922.3, -1433289.5, 57052.63, 0.000089111105, 0.0033522053, -1245581.5, 33611.844 
1.8461771e+3, 1.7945707e+2, -1166719.6, -1336449.1, 57555.61, 0.0010852863, 0.0032716237, -1149043.4, 32277.836 
1.846092e+3, 1.8944322e+2, -1081328.0, -1261428.0, 53997.426, 0.0004424564, 0.0034974013, -1066379.4, 17077.367 
1.8460064e+3, 1.9942865e+2, -986083.06, -1164960.4, 54396.484, -0.00040196063, 0.0030375714, -970840.06, 14759.54 
1.8459198e+3, 2.0941335e+2, -901879.0, -1089185.0, 48732.043, 0.000082176346, 0.002943479, -889958.8, -2209.2932 
1.8458325e+3, 2.1939735e+2, -809123.5, -993546.0, 48585.223, 0.0012569334, 0.0020616467, -797106.94, -7200.7256 
1.8457441e+3, 2.2938082e+2, -726364.25, -915720.25, 41267.438, 0.0011951289, 0.0029073646, -717761.44, -25693.18 
1.8456548e+3, 2.393637e+2, -636788.2, -821610.4, 40615.383, 0.0004985408, 0.0031536324, -628256.6, -34020.594 
1.8455644e+3, 2.493461e+2, -555211.8, -742410.44, 32728.828, 0.00044031825, 0.003190622, -549654.6, -53246.117 
1.8454728e+3, 2.5932804e+2, -467981.6, -648927.0, 32379.467, 0.00035776102, 0.0021864737, -462361.94, -63776.266 
1.8453802e+3, 2.6930964e+2, -387792.22, -567766.75, 24947.635, -0.0008166857, 0.0026967663, -384398.06, -83632.21 
1.845287e+3, 2.792909e+2, -303156.6, -475285.75, 24345.72, -0.0012862855, 0.0027024397, -299779.4, -96830.1 
1.8451923e+3, 2.89272e+2, -221873.89, -390973.8, 17323.688, 0.00046167965, 0.0022986014, -220117.39, -114982.625 
1.8450971e+3, 2.9925278e+2, -139185.4, -303147.38, 16974.313, 0.0012630003, 0.001157238, -137446.56, -130123.62 
1.845001e+3, 3.0923596e+2, -67793.45, -183564.81, 10597.456, -0.0012530434, 0.0043936893, -66831.375, -66831.375 
1.8449041e+3, 3.1922197e+2, -79782.65, -182868.8, 9009.277, -0.00015983981, 0.005633517, -79001.195, -79001.195 
1.8448062e+3, 3.2921487e+2, -7355.9604, -9578.43, 2495.5127, -0.0021766473, 0.0010122132, -5735.451, -5735.451 
1.857396e+3, 3.9666617e+1, -2450780.0, -2549343.0, 3577.762, 0.0018865991, 0.005853812, -2450650.5, 100617.03 
1.8573035e+3, 4.9663147e+1, -2363540.8, -2469932.5, 17165.857, -0.0014563535, -0.0052117235, -2360839.8, 92461.664 
1.8572123e+3, 5.965937e+1, -2267201.8, -2372878.3, 19406.656, 0.00063261145, 0.002996535, -2263750.5, 91587.97 
1.8571226e+3, 6.9654894e+1, -2180606.3, -2294739.8, 31657.111, 0.00092867477, 0.005354291, -2172413.8, 84968.7 
1.8570346e+3, 7.964974e+1, -2084338.0, -2198414.0, 33575.16, -0.0006958518, 0.0054340935, -2075189.8, 84243.17 
1.8569477e+3, 8.96438e+1, -1997621.1, -2121581.5, 42219.277, -0.00081917294, 0.00392009, -1984607.9, 76883.19 
1.8568616e+3, 9.963716e+1, -1900106.3, -2023917.9, 43699.96, -0.0003450366, 0.0016843767, -1886236.0, 77320.18 
1.8567763e+3, 1.0962984e+2, -1812811.5, -1946800.0, 50029.89, 0.00058736023, 0.0014100957, -1796192.3, 69435.64 
1.8566918e+3, 1.196218e+2, -1715220.5, -1849551.6, 51462.797, 0.0012184831, 0.0010796253, -1697771.5, 69935.24 
1.8566073e+3, 1.2961298e+2, -1628591.8, -1774093.1, 54937.76, 0.0006608153, 0.0032676277, -1610178.8, 59614.523 
1.8565236e+3, 1.3960338e+2, -1531367.9, -1677191.8, 56061.695, -0.00010676312, 0.004728773, -1512306.6, 59580.6 
1.8564396e+3, 1.4959289e+2, -1444963.4, -1602677.5, 57232.207, -0.0007184339, 0.004170749, -1426383.5, 47606.52 
1.8563557e+3, 1.5958162e+2, -1347299.1, -1504813.9, 57983.977, -0.0008068508, 0.0025878362, -1328256.4, 47844.09 
1.8562715e+3, 1.6956958e+2, -1261530.3, -1430063.8, 56646.617, 0.001171682, 0.0024944607, -1244260.3, 33958.207 
1.8561868e+3, 1.7955676e+2, -1165288.6, -1333345.0, 57209.42, 0.0023509006, 0.0021818508, -1147662.3, 32681.852 
1.8561018e+3, 1.8954313e+2, -1080340.5, -1259297.6, 53338.395, 0.00068165164, 0.0034342292, -1065649.0, 16828.732 
1.8560158e+3, 1.9952871e+2, -985251.8, -1163257.8, 53693.902, -0.0006182973, 0.0040228907, -970309.8, 14309.305 
1.8559289e+3, 2.0951347e+2, -901731.3, -1088801.6, 47356.62, 0.00037989038, 0.004113361, -890426.2, -3657.8472 
1.8558413e+3, 2.194975e+2, -808910.6, -993274.06, 47195.28, 0.0015938986, 0.003172749, -797531.44, -8606.597 
1.8557525e+3, 2.2948092e+2, -726679.9, -916634.7, 39144.53, 0.0007706127, 0.0037481356, -718929.5, -27842.309 
1.8556625e+3, 2.3946376e+2, -636880.1, -822089.3, 38546.617, -0.0004850862, 0.003680115, -629177.94, -35922.37 
1.8555714e+3, 2.4944611e+2, -555406.44, -743101.4, 29867.098, -0.00016006856, 0.002864392, -550768.4, -55339.895 
1.8554792e+3, 2.5942796e+2, -468109.66, -649561.7, 29400.225, 0.00091946876, 0.0012642737, -463464.9, -65858.71 
1.8553858e+3, 2.6940954e+2, -388189.28, -568966.0, 21210.852, 0.0008490421, 0.0035951312, -385733.94, -85947.04 
1.8552913e+3, 2.7939075e+2, -303339.7, -476109.3, 20842.959, 0.0004150879, 0.005435861, -300860.75, -98889.734 
1.8551959e+3, 2.8937173e+2, -222139.47, -392116.06, 13793.452, -0.00009463279, 0.0034482596, -221027.4, -116870.13 
1.8550996e+3, 2.993524e+2, -139632.78, -304523.4, 13316.136, -0.0013377576, 0.00015260791, -138564.33, -132217.81 
1.8550025e+3, 3.093354e+2, -68735.125, -185927.84, 6336.642, -0.0022313118, 0.0023909376, -68393.5, -68393.5 
1.8549046e+3, 3.1932133e+2, -80606.68, -184776.34, 4951.9976, 0.0007520967, 0.0035508133, -80371.8, -80371.8 
1.8548055e+3, 3.2931405e+2, -8333.376, -11837.819, -1684.2496, -0.0014085927, 0.000940085, -7655.17, -7655.17 
1.8674059e+3, 3.9761922e+1, -2471720.5, -2555739.0, 3085.2163, 0.0013526295, 0.0031293854, -2471607.5, 78726.07 
1.8673131e+3, 4.9759007e+1, -2381165.0, -2472985.3, 17754.424, -0.0012648675, 0.00012071347, -2377851.5, 74510.54 
1.8672219e+3, 5.975567e+1, -2282411.0, -2375376.3, 20382.13, -0.00007262958, 0.0030199895, -2278138.5, 76256.164 
1.8671325e+3, 6.975155e+1, -2194206.8, -2297692.3, 32492.656, 0.0010437764, 0.0039609945, -2184850.5, 71584.71 
1.8670441e+3, 7.9746735e+1, -2095978.3, -2200062.0, 34253.773, -0.00023916236, 0.0037193163, -2085717.0, 72765.336 
1.8669572e+3, 8.974118e+1, -2007488.5, -2122142.0, 43470.61, -0.0004911398, 0.0033519003, -1992870.5, 67666.23 
1.8668713e+3, 9.973493e+1, -1908700.4, -2023977.1, 45447.31, 0.00015935158, 0.0023805841, -1892938.3, 69659.73 
1.866786e+3, 1.0972796e+2, -1820591.6, -1946712.5, 51851.734, 0.00057829666, 0.002374377, -1802011.3, 62655.13 
1.8667014e+3, 1.1972026e+2, -1722247.5, -1849165.9, 53349.656, 0.0005633972, 0.0020859085, -1702801.6, 63940.176 
1.8666172e+3, 1.2971175e+2, -1633667.9, -1772854.5, 57277.523, 0.00037438658, 0.0033826025, -1613128.3, 55696.863 
1.8665333e+3, 1.3970248e+2, -1534203.4, -1674617.4, 58831.85, 0.00017186324, 0.0040372936, -1512812.4, 58103.69 
1.8664494e+3, 1.4969236e+2, -1446855.1, -1599415.6, 60696.805, -0.0002296349, 0.0034723836, -1425653.3, 47362.047 
1.8663657e+3, 1.5968144e+2, -1348470.4, -1501411.3, 62241.08, -0.00025048052, 0.0022005232, -1326342.3, 48779.953 
1.8662813e+3, 1.696697e+2, -1261289.9, -1426694.9, 61243.64, 0.0009871958, 0.0027042683, -1241082.3, 36154.87 
1.8661968e+3, 1.7965718e+2, -1162931.4, -1328950.5, 62255.023, 0.0015472356, 0.0028817197, -1142180.3, 37179.805 
1.8661115e+3, 1.8964377e+2, -1076165.4, -1254726.9, 58561.008, 0.000624685, 0.0036841175, -1058673.3, 22818.096 
1.8660253e+3, 1.9962956e+2, -979148.7, -1157661.1, 59350.434, 0.00031224918, 0.0036750517, -961217.5, 22413.219 
1.8659383e+3, 2.096145e+2, -894238.44, -1083320.0, 53178.81, 0.00088835455, 0.003588382, -880308.25, 5469.941 
1.8658505e+3, 2.1959868e+2, -799747.06, -987147.3, 53691.125, 0.0012134903, 0.0028618257, -785454.4, 2478.926 
1.8657611e+3, 2.2958218e+2, -716770.6, -911546.4, 45333.555, 0.00040303395, 0.0036362738, -706736.3, -16641.2 
1.8656707e+3, 2.39565e+2, -625994.0, -816431.7, 45232.953, -0.0000793752, 0.003733411, -615796.3, -23532.926 
1.8655789e+3, 2.4954733e+2, -544760.06, -738155.06, 35965.953, 0.00022647766, 0.0034527374, -538288.0, -43851.52 
1.8654858e+3, 2.5952917e+2, -457597.63, -644412.2, 35642.73, 0.0010664123, 0.0024272571, -451028.28, -54413.76 
1.8653914e+3, 2.695107e+2, -377830.63, -564157.2, 27101.777, 0.0011331602, 0.00375535, -373968.63, -75172.945 
1.8652962e+3, 2.794918e+2, -292732.5, -471154.16, 27074.766, 0.0007131239, 0.004481656, -288714.5, -87734.06 
1.8651997e+3, 2.8947276e+2, -213029.38, -388437.72, 19754.357, 0.000036609104, 0.0035688276, -210832.19, -107664.81 
1.8651025e+3, 2.9945335e+2, -131589.33, -301169.28, 19229.781, -0.0014633926, 0.0014440145, -129436.086, -124078.625 
1.8650043e+3, 3.0943626e+2, -59908.51, -182752.95, 12140.845, -0.0022408394, 0.0025168017, -58720.113, -58720.113 
1.8649052e+3, 3.19422e+2, -70166.62, -181128.73, 11267.558, 0.0014383255, 0.0031168207, -69034.02, -69034.02 
1.8648054e+3, 3.294146e+2, 3040.2244, -7872.675, 3863.9978, -0.0006738787, 0.0031690602, 4269.829, 4269.829 
1.8774149e+3, 3.985728e+1, -2470362.8, -2552137.0, 2748.008, -0.000129456, 0.00057985, -2470270.5, 79128.36 
1.8773222e+3, 4.9854973e+1, -2377658.5, -2464970.0, 18365.332, 0.00056843465, 0.008513611, -2373952.8, 77468.95 
1.8772312e+3, 5.98521e+1, -2279971.3, -2369143.8, 20687.088, -0.0020023568, 0.0037412075, -2275406.0, 78043.91 
1.8771414e+3, 6.98483e+1, -2192713.8, -2293428.3, 32812.64, 0.0008539575, 0.0013407602, -2182966.8, 72520.22 
1.8770535e+3, 7.9843795e+1, -2093798.1, -2194832.5, 34739.78, 0.0010854836, -0.0008282297, -2083006.0, 74525.09 
1.8769664e+3, 8.98387e+1, -2004818.8, -2115736.8, 43894.91, 0.00044895333, 0.0016417787, -1989549.6, 70031.414 
1.8768807e+3, 9.983292e+1, -1906421.1, -2018459.0, 45726.715, 0.00083617395, 0.003918555, -1890127.9, 71509.82 
1.8767954e+3, 1.0982632e+2, -1818505.4, -1941729.4, 52050.793, 0.0000036603421, 0.004611437, -1799461.8, 64240.605 
1.8767108e+3, 1.1981898e+2, -1719839.8, -1843947.8, 53741.613, -0.0011696221, 0.0043534553, -1699803.3, 65971.13 
1.8766268e+3, 1.2981084e+2, -1631204.3, -1767269.0, 57834.313, 0.000050710474, 0.0033350002, -1609943.8, 57910.418 
1.876543e+3, 1.3980193e+2, -1531574.0, -1668541.8, 59245.37, 0.0014953074, 0.0017069979, -1509503.8, 60437.617 
1.8764591e+3, 1.4979228e+2, -1443890.5, -1592684.0, 60809.348, 0.0012061213, 0.0018329549, -1422200.5, 49835.402 
1.8763752e+3, 1.5978184e+2, -1345793.0, -1495558.3, 62353.617, 0.00016286592, 0.0020075312, -1323231.4, 50906.832 
1.876291e+3, 1.697705e+2, -1259145.1, -1421985.5, 61331.402, -0.0004022271, 0.0039242813, -1238630.1, 37619.41 
1.8762065e+3, 1.7975828e+2, -1160798.9, -1324345.3, 62474.688, -0.000723531, 0.0048278933, -1139664.6, 38704.492 
1.8761212e+3, 1.8974517e+2, -1074411.4, -1250678.8, 58397.02, 0.0001627517, 0.004104964, -1056820.1, 23677.477 
1.8760353e+3, 1.9973123e+2, -977176.4, -1153414.9, 59169.18, 0.0016021171, 0.0024126556, -959154.25, 23480.02 
1.875948e+3, 2.0971644e+2, -892634.7, -1079830.1, 52302.363, 0.0013296847, 0.0020908685, -879012.7, 5766.428 
1.8758598e+3, 2.1970087e+2, -798256.7, -984138.44, 52740.316, 0.00035145215, 0.0017805892, -784335.3, 2596.5125 
1.8757701e+3, 2.2968449e+2, -716163.25, -910405.6, 43300.098, 0.000029215595, 0.0029558733, -706948.06, -17855.777 
1.875679e+3, 2.3966739e+2, -625358.9, -815480.8, 43215.406, 0.00084432773, 0.0034694108, -615996.9, -24737.006 
1.8755867e+3, 2.4964976e+2, -544645.5, -738158.6, 32967.29, 0.0010098804, 0.0049459655, -539183.3, -45750.69 
1.8754928e+3, 2.5963163e+2, -457270.16, -644096.1, 32635.676, 0.00026713105, 0.0054390877, -451733.3, -56122.754 
1.8753976e+3, 2.696131e+2, -377748.13, -564368.25, 23499.258, -0.00037432663, 0.0033058785, -374834.6, -77042.59 
1.8753013e+3, 2.7959418e+2, -292766.4, -471678.47, 23475.809, -0.00051313057, 0.00029537463, -289737.3, -89759.98 
1.875204e+3, 2.8957504e+2, -213597.2, -390010.97, 15810.318, 0.0005205071, 0.002951015, -212191.48, -110026.62 
1.8751056e+3, 2.9955557e+2, -131795.69, -301901.0, 15502.513, 0.00015969427, 0.0049710106, -130394.414, -126038.77 
1.8750064e+3, 3.0953842e+2, -60285.773, -183928.16, 8334.558, -0.0014914226, 0.0049896943, -59726.484, -59726.484 
1.8749064e+3, 3.1952405e+2, -71103.2, -183522.8, 7821.7695, 0.0016302407, 0.0041564964, -70561.59, -70561.59 
1.8748054e+3, 3.2951644e+2, 2183.038, -10445.221, -391.05096, -0.001671176, 0.0048153223, 2195.1357, 2195.1357 
1.8874231e+3, 3.9952746e+1, -2489103.5, -2556082.8, 2311.0854, 0.0014458046, 0.00023233921, -2489023.8, 59439.566 
1.8873304e+3, 4.9950877e+1, -2395601.0, -2469807.3, 17760.682, -0.0008899839, 0.011035886, -2391569.3, 58912.586 
1.8872394e+3, 5.994832e+1, -2296567.3, -2372832.5, 19454.617, -0.00049831875, 0.00087945425, -2291891.3, 60615.637 
1.88715e+3, 6.994497e+1, -2206744.3, -2295564.8, 32043.508, 0.0017351813, 0.00055437605, -2196390.8, 58148.813 
1.887062e+3, 7.9940915e+1, -2105975.0, -2196423.3, 34340.395, 0.00004485901, 0.001180218, -2094414.6, 62164.62 
1.8869752e+3, 8.9936185e+1, -2016070.3, -2117128.0, 43237.305, -0.0005073242, 0.002845113, -2000096.3, 58529.434 
1.8868893e+3, 9.993079e+1, -1916830.1, -2019144.4, 44981.094, 0.0008451559, 0.00395578, -1899867.1, 60811.457 
1.8868043e+3, 1.0992461e+2, -1826844.6, -1940813.5, 51965.348, 0.00042864084, 0.0038759082, -1806708.3, 56030.992 
1.8867199e+3, 1.19917706e+2, -1726627.8, -1842189.9, 54264.094, -0.00063298293, 0.003159751, -1705141.9, 59664.875 
1.8866359e+3, 1.2991005e+2, -1637761.6, -1764929.3, 58986.75, 0.00015586309, 0.0028457947, -1614614.0, 52267.92 
1.8865523e+3, 1.3990164e+2, -1538249.3, -1666504.6, 61043.12, 0.0013048407, 0.002076898, -1513840.9, 55123.297 
1.8864685e+3, 1.4989245e+2, -1448758.5, -1589861.9, 62860.637, 0.0011700991, 0.0026164618, -1424816.8, 46237.53 
1.8863848e+3, 1.5988247e+2, -1348315.6, -1491347.6, 64662.004, 0.000288669, 0.0030935558, -1323417.3, 49734.664 
1.8863006e+3, 1.6987161e+2, -1259702.3, -1416454.3, 64498.59, -0.00015465198, 0.0040222635, -1236575.3, 38683.305 
1.8862163e+3, 1.798599e+2, -1159954.9, -1318270.8, 66780.13, -0.00009318961, 0.0038870065, -1135548.5, 41824.777 
1.886131e+3, 1.8984726e+2, -1072639.0, -1244550.4, 63526.08, 0.00046022204, 0.0033717444, -1051711.9, 27785.324 
1.886045e+3, 1.9983375e+2, -973745.94, -1146585.4, 65340.582, 0.0010403916, 0.0024071163, -951824.75, 29804.727 
1.8859577e+3, 2.0981936e+2, -887512.44, -1073301.6, 58835.344, 0.0010121957, 0.0028312306, -870447.94, 13322.519 
1.8858694e+3, 2.1980412e+2, -790703.6, -976667.8, 60136.203, 0.0011073173, 0.0030306785, -772951.7, 12968.212 
1.8857794e+3, 2.2978799e+2, -706288.5, -903109.2, 50663.35, 0.00065358175, 0.0032004798, -694012.94, -5934.964 
1.885688e+3, 2.3977107e+2, -612911.7, -807232.9, 51209.754, 0.00083769223, 0.0026205927, -600242.3, -9998.513 
1.8855949e+3, 2.4975353e+2, -533042.7, -731793.44, 40135.47, 0.0007908733, 0.0040185223, -525243.8, -32828.184 
1.8855001e+3, 2.5973544e+2, -446854.1, -638176.9, 40064.586, 0.000072108436, 0.00501987, -438803.03, -44209.992 
1.885404e+3, 2.6971698e+2, -368716.0, -559445.1, 30660.818, -0.0002625409, 0.0037848633, -363908.28, -67134.266 
1.8853068e+3, 2.796981e+2, -284419.06, -466855.38, 31355.807, -0.000025181855, 0.001437885, -279180.28, -80221.234 
1.8852085e+3, 2.896789e+2, -204285.17, -386652.97, 24101.295, 0.0008908964, 0.0035534396, -201153.77, -100006.72 
1.8851092e+3, 2.996593e+2, -118929.07, -297354.03, 23492.398, 0.0007062311, 0.005127179, -115887.77, -112548.44 
1.885009e+3, 3.0964187e+2, -47720.684, -180581.72, 14043.342, -0.0017816707, 0.0045726, -46252.535, -46252.535 
1.884908e+3, 3.196272e+2, -59959.477, -180524.36, 12564.484, -0.0005105837, 0.003052528, -58664.008, -58664.008 
1.8848062e+3, 3.296193e+2, 16920.047, -7597.439, 4180.4565, -0.0014599574, 0.0032618034, 17613.254, 17613.254 
1.8974306e+3, 4.004811e+1, -2486700.8, -2548678.5, 2600.5393, 0.0025896546, 0.0002053847, -2486591.8, 60937.086 
1.897338e+3, 5.00466e+1, -2394240.8, -2466006.0, 18121.38, -0.0035012495, 0.010962999, -2389924.8, 59619.086 
1.8972471e+3, 6.0044307e+1, -2294291.5, -2367423.0, 20302.127, 0.0022280042, -0.0034434292, -2289033.5, 62532.54 
1.897158e+3, 7.0041466e+1, -2203776.3, -2288600.0, 32903.418, 0.0027203448, 0.0005502209, -2192509.3, 61084.605 
1.8970701e+3, 8.0037934e+1, -2103624.5, -2190723.8, 35003.117, -0.0022817582, 0.005881817, -2091301.1, 64327.42 
1.8969834e+3, 9.003355e+1, -2013964.6, -2112002.3, 43701.574, -0.00243331, 0.005133887, -1997312.5, 60359.055 
1.8968977e+3, 1.0002849e+2, -1914090.0, -2013051.6, 45669.203, 0.00041420662, 0.0030360005, -1896235.6, 63485.477 
1.8968129e+3, 1.100228e+2, -1823462.6, -1933054.5, 52712.86, 0.0012219312, 0.0014770281, -1802224.1, 59552.75 
1.8967286e+3, 1.2001644e+2, -1723413.9, -1834643.6, 54772.777, 0.0007864617, -0.000020723757, -1700970.6, 62868.574 
1.8966447e+3, 1.3000935e+2, -1634070.5, -1756600.5, 59275.01, 0.000098806355, 0.0020805984, -1610089.1, 55819.44 
1.8965611e+3, 1.4000155e+2, -1534790.4, -1659059.1, 61418.35, -0.00033511006, 0.0039801192, -1509558.3, 58426.875 
1.8964776e+3, 1.4999285e+2, -1445480.4, -1582708.9, 63497.35, -0.00011934222, 0.0046845297, -1420607.5, 49462.855 
1.896394e+3, 1.599834e+2, -1344703.3, -1483404.8, 65380.98, 0.000101428326, 0.0043561626, -1318742.9, 53420.203 
1.8963102e+3, 1.6997313e+2, -1255459.1, -1407095.9, 65006.254, 0.0011952894, 0.002870788, -1231406.4, 42857.348 
1.8962258e+3, 1.7996205e+2, -1155851.1, -1309336.6, 67213.805, 0.0021400808, 0.0009433033, -1130578.5, 45793.773 
1.8961407e+3, 1.8995003e+2, -1068789.5, -1236085.0, 63703.664, 0.0009079785, 0.0020370346, -1047293.94, 31196.098 
1.8960547e+3, 1.9993713e+2, -969977.4, -1138571.0, 65535.273, -0.00074652006, 0.0034302655, -947499.5, 33116.883 
1.8959676e+3, 2.0992327e+2, -884325.5, -1066708.6, 58518.58, 0.000099964534, 0.005204459, -867164.25, 15588.153 
1.8958792e+3, 2.1990846e+2, -787556.7, -970246.4, 59955.797, 0.002052267, 0.005796602, -769637.75, 15259.637 
1.8957889e+3, 2.298927e+2, -704082.4, -898508.94, 49507.35, 0.0013250317, 0.004108515, -692202.1, -5150.2104 
1.8956973e+3, 2.3987605e+2, -610897.1, -803274.8, 49705.324, 0.00008552868, 0.001466303, -598813.56, -9598.613 
1.8956034e+3, 2.4985868e+2, -532116.06, -730493.44, 36795.887, -0.00027493885, 0.0013477411, -525510.9, -34125.625 
1.8955079e+3, 2.5984064e+2, -445846.75, -636743.8, 36696.543, -0.00016695792, 0.001684366, -439035.53, -45473.58 
1.8954107e+3, 2.698223e+2, -367973.47, -558229.8, 26714.445, 0.000987861, 0.004991574, -364293.6, -68551.836 
1.8953124e+3, 2.7980354e+2, -283290.44, -464752.47, 27906.086, 0.0015170851, 0.0070895473, -279095.88, -81170.47 
1.8952134e+3, 2.8978434e+2, -205221.67, -388964.63, 21259.195, 0.00056882954, 0.004786899, -202794.03, -102680.26 
1.8951134e+3, 2.9976445e+2, -120938.16, -302072.1, 20650.148, -0.00042956378, 0.0016133467, -118613.766, -116305.266 
1.8950123e+3, 3.097466e+2, -51180.72, -188172.83, 9920.388, -0.0039338814, 0.001147683, -50466.055, -50466.055 
1.8949099e+3, 3.197314e+2, -62282.094, -185549.88, 8808.033, -0.0053774887, -0.00030417502, -61655.902, -61655.902 
1.8948075e+3, 3.297231e+2, 12954.915, -16384.875, 2667.7783, -0.0004498401, 0.001996755, 13195.515, 13195.515 
1.9074368e+3, 4.0142766e+1, -2507265.3, -2552583.0, 1360.9324, -0.00088793575, 0.00037216605, -2507224.5, 39376.742 
1.9073449e+3, 5.014175e+1, -2410778.8, -2468917.0, 14849.212, 0.00090242876, 0.008656053, -2407205.8, 41405.418 
1.9072542e+3, 6.013997e+1, -2309215.0, -2370034.8, 17822.938, -0.000127322, -0.0013561094, -2304376.8, 46251.758 
1.9071653e+3, 7.013752e+1, -2217635.3, -2291213.8, 29967.709, 0.0020230422, 0.0016431381, -2206974.5, 45678.242 
1.9070776e+3, 8.013437e+1, -2116547.3, -2192512.3, 31679.121, -0.0011471282, 0.0055401586, -2105070.3, 49613.22 
1.9069912e+3, 9.013044e+1, -2025094.1, -2112098.5, 40778.16, -0.0018342246, 0.004069113, -2008970.0, 47752.07 
1.9069055e+3, 1.0012587e+2, -1924426.9, -2012926.4, 43308.51, 0.00068670756, 0.0015976083, -1906760.1, 52006.723 
1.9068208e+3, 1.1012068e+2, -1833660.6, -1932462.0, 50439.773, 0.0010669865, 0.0013816501, -1812459.6, 48358.023 
1.9067366e+3, 1.2011485e+2, -1733887.3, -1834117.0, 52580.984, 0.00022458141, 0.0013339214, -1711364.3, 51510.57 
1.906653e+3, 1.3010831e+2, -1642541.4, -1754351.5, 57406.16, -0.00018254992, 0.002976939, -1618316.4, 46622.53 
1.9065697e+3, 1.4010109e+2, -1541593.4, -1655682.1, 59845.29, -0.00017661796, 0.004261078, -1515960.5, 51049.086 
1.9064863e+3, 1.5009305e+2, -1451449.0, -1577685.4, 63051.293, 0.000009838508, 0.0042520533, -1425351.9, 43736.477 
1.906403e+3, 1.6008429e+2, -1350751.6, -1478659.5, 66123.05, 0.00006334091, 0.0032902423, -1322714.5, 48459.81 
1.9063193e+3, 1.7007472e+2, -1260703.6, -1401436.4, 66407.38, 0.0010106422, 0.0023463976, -1234315.8, 38952.188 
1.906235e+3, 1.800644e+2, -1159967.1, -1302935.3, 69298.58, 0.001833632, 0.0013671111, -1131890.9, 43478.39 
1.9061501e+3, 1.9005315e+2, -1070752.3, -1227951.4, 66973.77, 0.0007428835, 0.0024523954, -1046088.2, 31391.293 
1.9060643e+3, 2.0004104e+2, -970333.0, -1129960.1, 70396.555, -0.00051660824, 0.0034144325, -943723.44, 35874.625 
1.9059771e+3, 2.100279e+2, -881981.2, -1057112.4, 64848.66, 0.0004948887, 0.0042854846, -860583.1, 21143.764 
1.9058888e+3, 2.2001386e+2, -782437.6, -959256.3, 68118.516, 0.002544032, 0.0041562254, -759238.94, 24625.688 
1.9057986e+3, 2.2999877e+2, -698230.94, -888570.25, 58957.84, 0.0014895606, 0.0037116266, -681448.44, 4564.0693 
1.9057065e+3, 2.3998272e+2, -602811.44, -792991.06, 61301.797, -0.00031440714, 0.0029831738, -584764.25, 3405.3037 
1.9056123e+3, 2.4996571e+2, -520332.9, -721870.7, 48288.13, -0.00013336072, 0.002508104, -509360.53, -19024.148 
1.905516e+3, 2.5994787e+2, -429987.2, -626468.6, 48558.25, 0.00089868956, 0.0018169947, -418641.7, -26130.67 
1.9054179e+3, 2.6992962e+2, -359035.1, -553367.75, 36609.0, 0.0011528332, 0.004205956, -352367.34, -57677.305 
1.905318e+3, 2.799109e+2, -282297.25, -462819.63, 38087.492, 0.0012194379, 0.0056010773, -274590.4, -77716.84 
1.9052185e+3, 2.8989178e+2, -197942.84, -384115.84, 35264.504, 0.00083631, 0.0040070713, -191486.98, -92426.125 
1.9051182e+3, 2.9987198e+2, -100199.19, -293165.6, 36140.492, -0.0006769515, 0.0019644545, -93652.57, -92397.5 
1.9050165e+3, 3.098531e+2, -30350.049, -195367.98, 19909.29, -0.0017643088, 0.0030962182, -27981.99, -27981.99 
1.9049133e+3, 3.198365e+2, -32380.932, -183540.17, 10651.957, 0.0010967251, 0.00341155, -31633.996, -31633.996 
1.904809e+3, 3.2982782e+2, 21722.697, -9591.801, 696.3229, -0.0012117535, 0.0046135373, 21738.174, 21738.174 
1.9174425e+3, 4.0236866e+1, -2503966.0, -2544800.3, 6084.0264, -0.004632646, 0.00017459758, -2503079.0, 42600.113 
1.917351e+3, 5.023637e+1, -2408288.8, -2461618.5, 16099.925, 0.0072132125, 0.0054385145, -2403805.3, 43878.63 
1.9172606e+3, 6.0235184e+1, -2306386.8, -2363862.8, 19079.295, -0.00457623, 0.0033569525, -2300629.8, 49065.69 
1.9171719e+3, 7.0233065e+1, -2215447.0, -2286290.5, 30974.22, 0.0006438309, 0.003139837, -2203814.5, 47901.906 
1.9170848e+3, 8.023023e+1, -2113869.0, -2186441.5, 32738.771, 0.001359406, 0.0027605898, -2101282.8, 52461.363 
1.9169985e+3, 9.022683e+1, -2021476.5, -2103861.3, 41561.26, -0.00032390613, 0.0014056663, -2004152.6, 51624.715 
1.916913e+3, 1.0022283e+2, -1921374.0, -2005715.5, 43894.59, 0.0008874972, -0.00008686709, -1902675.1, 55141.37 
1.9168283e+3, 1.10218175e+2, -1830283.8, -1924835.5, 50881.234, 0.000023343824, 0.0025225014, -1808105.3, 51756.906 
1.9167444e+3, 1.2021291e+2, -1730291.1, -1826395.5, 53232.53, -0.0017828307, 0.0048802732, -1706630.5, 55283.28 
1.9166608e+3, 1.3020694e+2, -1638385.5, -1745248.3, 58331.62, -0.00068491447, 0.0043289647, -1612712.5, 51259.793 
1.9165778e+3, 1.4020035e+2, -1537036.6, -1645600.0, 60644.816, 0.0009642766, 0.002939201, -1509928.5, 56108.387 
1.9164947e+3, 1.5019311e+2, -1445736.4, -1565120.8, 63678.527, 0.00078549463, 0.0019310187, -1418146.8, 49961.074 
1.9164115e+3, 1.601852e+2, -1345578.9, -1467257.9, 66674.15, -0.00007841151, 0.0009999343, -1316158.3, 54026.992 
1.9163279e+3, 1.7017645e+2, -1255314.9, -1389684.0, 67074.91, -0.0003076443, 0.0026590119, -1227563.6, 44707.406 
1.916244e+3, 1.8016697e+2, -1154309.1, -1290616.1, 70064.66, -0.00036252418, 0.0040321257, -1124718.4, 49645.66 
1.9161592e+3, 1.9015667e+2, -1064017.3, -1213490.0, 67674.1, 0.000046552228, 0.00395767, -1037930.5, 38534.53 
1.9160737e+3, 2.0014556e+2, -963809.0, -1116002.4, 71187.92, 0.0005907195, 0.0028376696, -935701.9, 42872.07 
1.9159868e+3, 2.1013336e+2, -875172.94, -1042521.9, 65374.86, 0.0014734477, 0.001355444, -852662.25, 28031.053 
1.9158986e+3, 2.2012031e+2, -775483.8, -944762.3, 68323.39, 0.0024236138, 0.00010532982, -751348.56, 31472.668 
1.9158082e+3, 2.301062e+2, -691706.44, -875436.6, 58253.91, 0.00072812056, 0.0033327057, -674793.25, 10166.298 
1.9157161e+3, 2.400911e+2, -596860.2, -781196.7, 60946.594, -0.00097006396, 0.0066166427, -578531.94, 8575.777 
1.9156216e+3, 2.5007465e+2, -517308.72, -716059.8, 46413.34, 0.0007358429, 0.006459158, -507004.28, -17735.428 
1.9155246e+3, 2.6005718e+2, -427489.88, -621740.6, 45509.758, 0.0025410228, 0.004771069, -417356.3, -25916.295 
1.915425e+3, 2.7003893e+2, -359317.06, -554693.7, 30235.658, 0.00009510179, 0.001766947, -354744.9, -61126.277 
1.9153239e+3, 2.800201e+2, -281825.56, -462754.5, 33267.082, -0.0005809068, -0.0020502429, -275902.7, -80099.195 
1.9152237e+3, 2.9000118e+2, -195344.63, -379455.47, 36069.527, 0.0015675166, 0.0016756357, -188530.38, -90541.64 
1.9151238e+3, 2.999817e+2, -99454.57, -292737.28, 36510.555, -0.00086917274, 0.0062548085, -92787.78, -92608.055 
1.9150218e+3, 3.099615e+2, -48569.574, -233447.66, 17574.324, 0.0039306595, 0.011308286, -46913.805, -46913.805 
1.9149181e+3, 3.1994236e+2, -46120.535, -211623.38, 6392.4336, 0.018039312, 0.014462325, -45874.0, -45874.0 
1.914811e+3, 3.2993335e+2, 28204.629, 3816.0457, -14397.02, -0.004657916, 0.0068220645, 34877.633, 34877.633 
1.9274475e+3, 4.0330684e+1, -2520395.5, -2547619.0, 2103.5183, -0.0014417187, 0.0028326118, -2520234.0, 24525.742 
1.9273564e+3, 5.033044e+1, -2426400.5, -2467809.0, 13462.114, 0.003379671, 0.0028757353, -2422408.5, 24353.346 
1.9272664e+3, 6.032957e+1, -2319409.3, -2366710.3, 14860.586, -0.00300843, 0.0036034095, -2315128.0, 33642.56 
1.9271782e+3, 7.0327836e+1, -2227003.0, -2287483.8, 25833.541, 0.0015057131, 0.0028326488, -2217471.0, 33316.617 
1.927091e+3, 8.032542e+1, -2125867.8, -2187892.8, 27737.607, 0.0005088026, 0.0016668855, -2115273.3, 37538.0 
1.927005e+3, 9.032247e+1, -2033440.5, -2104605.5, 36064.11, -0.0012447446, 0.002559561, -2018360.1, 36479.94 
1.9269198e+3, 1.0031898e+2, -1933656.6, -2006323.9, 38166.953, 0.0005755991, 0.0033827615, -1917294.5, 39579.78 
1.9268353e+3, 1.10314876e+2, -1840833.8, -1923464.6, 45559.723, 0.00039071785, 0.004405905, -1820645.9, 38268.668 
1.9267516e+3, 1.20310195e+2, -1740009.5, -1824584.6, 48272.363, -0.0010770361, 0.004821023, -1718121.9, 42838.6 
1.9266683e+3, 1.3030487e+2, -1647772.9, -1742000.4, 53917.086, -0.00032122462, 0.0034410518, -1623285.3, 39727.355 
1.9265853e+3, 1.4029899e+2, -1547156.0, -1642795.0, 56551.914, 0.0011540058, 0.0016347759, -1520915.9, 44154.277 
1.9265024e+3, 1.5029253e+2, -1455032.4, -1560567.6, 59626.586, 0.0007548643, 0.0016312803, -1428177.4, 38956.08 
1.9264194e+3, 1.6028547e+2, -1354647.3, -1462201.3, 62771.05, -0.00018607726, 0.0019269135, -1325767.3, 43435.367 
1.926336e+3, 1.7027771e+2, -1263000.5, -1381882.0, 64432.027, -0.0002966803, 0.004108878, -1234778.9, 36499.938 
1.9262524e+3, 1.8026927e+2, -1162171.3, -1282900.9, 68843.836, -0.00014915061, 0.005593058, -1130975.3, 42386.227 
1.9261679e+3, 1.9026007e+2, -1070914.3, -1203506.9, 67783.83, 0.00079928193, 0.0048032957, -1042395.75, 33055.887 
1.9260825e+3, 2.0025015e+2, -970855.2, -1105875.1, 72792.78, 0.0017956308, 0.0032188196, -939085.8, 38463.043 
1.9259958e+3, 2.1023928e+2, -881261.56, -1029897.7, 69136.6, 0.001389812, 0.0019692502, -854075.7, 25579.691 
1.9259077e+3, 2.202276e+2, -781498.7, -932384.9, 74672.82, 0.0007849404, 0.0012062266, -750792.44, 30977.43 
1.9258174e+3, 2.3021488e+2, -694167.9, -860158.94, 67373.9, 0.0005162576, 0.003434917, -670263.94, 13630.697 
1.9257253e+3, 2.4020119e+2, -596137.1, -764461.7, 74379.75, 0.00065839, 0.005261982, -567980.06, 18048.78 
1.9256306e+3, 2.5018615e+2, -515431.3, -699021.94, 64287.69, 0.0007225629, 0.005209162, -495158.4, -6982.193 
1.9255333e+3, 2.6017004e+2, -423115.13, -604698.94, 69708.734, 0.0011112879, 0.0045735734, -399441.0, -9106.916 
1.9254325e+3, 2.701527e+2, -353109.56, -544639.4, 56858.52, 0.0007710744, 0.0030022392, -337502.1, -44998.03 
1.9253297e+3, 2.8013423e+2, -276727.3, -460294.1, 65213.684, 0.0009720002, 0.0012556325, -255918.45, -61233.32 
1.9252305e+3, 2.901133e+2, -181729.89, -411781.56, 66433.86, 0.0016989936, 0.0030814821, -163923.5, -67033.53 
1.9251329e+3, 3.0009052e+2, -17654.324, -279657.1, 37829.324, -0.0010170758, 0.0035721953, -12301.683, -12301.683 
1.9250296e+3, 3.1006953e+2, 27100.574, -191693.83, 2933.7788, -0.011518116, 0.0031686905, 27139.906, 27139.906 
1.924922e+3, 3.2005066e+2, -54682.31, -214207.69, 14212.326, -0.01548493, 0.0014944476, -53426.008, -53426.008 
1.9248122e+3, 3.3004183e+2, 14513.626, 1921.5383, -3060.4368, 0.0013128801, -0.0015513756, 15218.043, 15218.043 
1.9374518e+3, 4.0423948e+1, -2518875.0, -2541849.8, -346.9177, 0.003497312, 0.006543771, -2518869.8, 24975.967 
1.937361e+3, 5.042384e+1, -2425541.0, -2466100.5, 15565.298, -0.0047725807, 0.00094662723, -2420256.3, 25590.416 
1.937272e+3, 6.042313e+1, -2318348.0, -2363291.8, 16842.545, 0.0008583476, 0.002006534, -2312737.0, 35116.723 
1.9371839e+3, 7.042179e+1, -2224425.8, -2281230.8, 26522.525, 0.0031055573, 0.0019393727, -2213967.5, 35899.18 
1.937097e+3, 8.041981e+1, -2123357.3, -2182204.0, 28347.309, -0.0020413108, 0.0014415144, -2111923.5, 39962.598 
1.9370112e+3, 9.0417314e+1, -2030630.3, -2098248.0, 36478.88, -0.0033107419, 0.005347397, -2014702.4, 39208.31 
1.9369261e+3, 1.0041431e+2, -1930433.8, -1999124.6, 38855.418, -0.000049468847, 0.008748335, -1912920.3, 43019.848 
1.9368419e+3, 1.1041076e+2, -1836684.3, -1914031.5, 46340.594, 0.0013788514, 0.0059754066, -1814999.9, 42975.016 
1.9367583e+3, 1.204067e+2, -1736040.0, -1815349.1, 48950.17, 0.0009134225, 0.0020961126, -1712697.8, 47316.926 
1.9366752e+3, 1.304021e+2, -1642631.3, -1730724.1, 54524.266, 0.00028786945, 0.00081551494, -1616585.0, 45474.71 
1.9365925e+3, 1.40397e+2, -1542264.8, -1632347.3, 57086.08, 0.00039711798, 0.000099905454, -1514590.6, 49519.113 
1.9365096e+3, 1.5039134e+2, -1449353.6, -1548363.9, 60282.94, -0.000009442123, 0.0021280134, -1420853.8, 45311.52 
1.9364269e+3, 1.6038516e+2, -1348379.9, -1448601.4, 63468.246, -0.000522264, 0.004001046, -1317624.6, 50601.086 
1.9363438e+3, 1.703785e+2, -1254773.5, -1363951.1, 65062.676, 0.00028517612, 0.005254913, -1224432.4, 45858.53 
1.9362603e+3, 1.8037131e+2, -1154312.1, -1265601.4, 69407.04, 0.0011525238, 0.0057079643, -1120998.0, 51363.504 
1.936176e+3, 1.903634e+2, -1061603.6, -1183340.1, 68272.99, 0.0020323705, 0.004932971, -1031005.2, 43433.758 
1.9360909e+3, 2.0035489e+2, -961140.7, -1085142.3, 73326.06, 0.0024412018, 0.003996359, -927116.44, 49405.977 
1.9360043e+3, 2.1034564e+2, -869135.7, -1004412.1, 69558.86, 0.000121389654, 0.0047423234, -839751.44, 38861.59 
1.9359162e+3, 2.2033572e+2, -769706.9, -907712.06, 75145.27, -0.0019518473, 0.004956428, -736689.0, 44021.305 
1.9358262e+3, 2.3032479e+2, -680125.44, -831013.44, 67686.28, 0.00084413815, 0.002614252, -654212.5, 28604.959 
1.9357343e+3, 2.4031307e+2, -581599.94, -734529.94, 74629.195, 0.0031704989, 0.00012510925, -551217.3, 33714.97 
1.9356392e+3, 2.5030023e+2, -499311.25, -665442.4, 63086.492, -0.00085699634, 0.00083938235, -478070.56, 8987.516 
1.9355415e+3, 2.6028642e+2, -408480.4, -573779.1, 68271.33, -0.002651257, 0.0019756313, -383929.53, 5263.9976 
1.93544e+3, 2.702708e+2, -343892.7, -526124.25, 52039.555, 0.0027202438, 0.007599622, -330078.97, -38732.133 
1.9353358e+3, 2.8025326e+2, -277066.25, -461517.13, 62209.93, 0.0037203846, 0.014337825, -258045.97, -64527.363 
1.9352384e+3, 2.902283e+2, -254254.77, -528672.75, 86073.01, -0.006198778, 0.011090584, -229491.94, -133728.83 
1.9351453e+3, 3.0019867e+2, -89698.695, -368183.72, 53692.313, -0.019122949, 0.0012025229, -79705.34, -79705.34 
1.9350404e+3, 3.1017768e+2, 48663.45, -144285.6, -20629.775, 0.028040946, 0.011571027, 50844.496, 50844.496 
1.934926e+3, 3.201617e+2, -26015.227, -177694.42, -6418.6436, -0.013026493, -0.0028645645, -25744.092, -25744.092 
1.9348128e+3, 3.301536e+2, 18421.994, 2583.5706, -12539.204, 0.0022615395, 0.010673596, 25333.344, 25333.344 
1.9474553e+3, 4.0515578e+1, -2533140.5, -2542952.8, -1979.1206, -0.0000181653, 0.0032563834, -2532756.5, 10191.283 
1.9473656e+3, 5.0515956e+1, -2434102.5, -2466078.8, 8711.024, -0.0011149123, 0.0024998535, -2431883.5, 13060.497 
1.9472767e+3, 6.051563e+1, -2330410.0, -2365600.5, 10719.489, 0.0001202778, 0.003258129, -2327402.0, 19545.268 
1.9471893e+3, 7.0514625e+1, -2236040.8, -2283331.5, 19144.277, 0.003082568, 0.0033151382, -2229262.3, 19694.729 
1.9471025e+3, 8.0512995e+1, -2134298.5, -2183583.5, 20331.904, -0.0017930107, 0.0025152294, -2126993.5, 23979.42 
1.9470167e+3, 9.051089e+1, -2041116.3, -2098342.8, 28142.688, -0.0026922964, 0.0023649968, -2029595.6, 23397.887 
1.946932e+3, 1.0050834e+2, -1941235.5, -1999156.8, 30643.906, 0.00141069, 0.0021001839, -1928032.5, 26986.1 
1.9468477e+3, 1.1050537e+2, -1847598.6, -1912660.5, 37898.066, 0.0015896026, 0.00051676395, -1830184.4, 26863.307 
1.9467644e+3, 1.2050194e+2, -1748020.5, -1814714.6, 40347.99, -0.0004892408, -0.0009891432, -1729022.6, 30058.494 
1.9466816e+3, 1.3049807e+2, -1652799.8, -1727805.6, 45775.703, -0.0014896633, 0.0023480977, -1631126.0, 29993.285 
1.946599e+3, 1.4049375e+2, -1551874.3, -1629061.4, 47861.035, -0.0009660206, 0.0054330016, -1528984.9, 34176.766 
1.9465163e+3, 1.504889e+2, -1458492.6, -1542726.3, 51311.53, 0.00007799951, 0.0052129626, -1434226.5, 30982.734 
1.9464338e+3, 1.6048363e+2, -1358971.9, -1443236.6, 54854.387, 0.000796073, 0.003938976, -1331936.8, 35323.992 
1.9463506e+3, 1.7047805e+2, -1265953.3, -1355810.3, 56564.203, 0.0013445648, 0.0012947799, -1238645.5, 30669.96 
1.9462673e+3, 1.8047206e+2, -1167614.4, -1258122.3, 61361.19, 0.0013517856, -0.0009478817, -1136624.5, 34749.523 
1.9461831e+3, 1.9046564e+2, -1073880.8, -1171737.6, 61405.777, -0.0002543625, 0.00042894797, -1044293.8, 29143.271 
1.9460982e+3, 2.0045874e+2, -974649.25, -1073971.4, 67876.64, -0.0010641322, 0.0021404142, -940206.44, 35298.133 
1.9460118e+3, 2.1045133e+2, -881816.0, -988244.3, 65387.49, 0.0025630116, 0.0040812725, -850725.5, 26851.75 
1.945924e+3, 2.2044346e+2, -784846.4, -892266.6, 72929.43, 0.003970017, 0.0052455175, -747983.44, 31671.154 
1.9458337e+3, 2.3043491e+2, -694765.56, -808443.7, 68601.56, -0.005646898, 0.0055157375, -662515.56, 19222.62 
1.9457416e+3, 2.4042587e+2, -601876.0, -714283.1, 79328.625, -0.00826381, 0.0039984807, -560858.9, 22967.86 
1.9456464e+3, 2.5041616e+2, -523175.06, -635893.2, 72981.64, 0.020990215, -0.0021824369, -487324.25, -1402.3445 
1.9455479e+3, 2.604061e+2, -441428.38, -545427.2, 89722.47, 0.023954721, -0.002042353, -389726.0, -1705.3608 
1.9454443e+3, 2.703954e+2, -371793.9, -475939.28, 91539.63, -0.06361529, 0.01790484, -318552.47, -28426.951 
1.9453387e+3, 2.803832e+2, -333353.84, -410888.2, 107908.805, 0.04160787, 0.00010526011, -257459.75, -65214.65 
1.9574581e+3, 4.0606052e+1, -2529784.8, -2535539.8, 9069.073, -0.0037863874, -0.002019768, -2523147.8, 18913.344 
1.9573694e+3, 5.060698e+1, -2433036.3, -2460326.8, 10204.132, 0.0060786186, 0.0058160014, -2429642.8, 14409.135 
1.9572811e+3, 6.0607076e+1, -2327743.5, -2360597.5, 12306.454, -0.0030344848, 0.00543873, -2323645.0, 22405.943 
1.9571939e+3, 7.060635e+1, -2234035.3, -2279095.0, 20156.832, 0.0025826574, 0.0053411354, -2226334.5, 21723.61 
1.9571075e+3, 8.0605024e+1, -2132311.0, -2178633.8, 21289.06, -0.0003271487, 0.0038885777, -2124013.5, 26057.645 
1.9570218e+3, 9.060329e+1, -2038268.4, -2091616.3, 28638.361, -0.0012880997, -0.002928478, -2025806.0, 26282.102 
1.9569372e+3, 1.0060115e+2, -1938340.5, -1992476.5, 31175.268, 0.0034016683, -0.00937036, -1924122.0, 29987.074 
1.9568533e+3, 1.1059875e+2, -1843660.0, -1904144.1, 38226.54, 0.0010115394, -0.00728669, -1825159.4, 30973.197 
1.9567698e+3, 1.2059596e+2, -1744185.8, -1806632.4, 40890.145, -0.004010948, -0.003125616, -1723961.0, 34198.79 
1.9566873e+3, 1.3059278e+2, -1648129.4, -1717621.4, 46520.684, -0.004684043, 0.0069089434, -1624811.1, 35380.008 
1.956605e+3, 1.4058922e+2, -1547156.5, -1618455.4, 48323.27, -0.0030357402, 0.014729634, -1522755.8, 39470.223 
1.9565225e+3, 1.505852e+2, -1451902.1, -1528269.6, 51490.805, 0.00028718734, 0.0100235, -1425982.0, 38283.234 
1.9564399e+3, 1.605809e+2, -1352289.0, -1428844.6, 54966.65, 0.0028107422, 0.0034195203, -1323585.3, 42722.15 
1.9563569e+3, 1.7057642e+2, -1257177.9, -1337287.0, 56526.688, 0.0025430531, -0.0043912246, -1227953.0, 40398.46 
1.9562736e+3, 1.8057169e+2, -1158251.1, -1238461.9, 61574.04, 0.0008593672, -0.010301339, -1124873.1, 45524.625 
1.9561894e+3, 1.9056688e+2, -1061462.0, -1145712.1, 61522.348, -0.0047293566, -0.005684476, -1029024.9, 43419.996 
1.9561046e+3, 2.005618e+2, -962277.94, -1047946.6, 67895.99, -0.006962719, -0.0006549709, -924833.7, 49660.74 
1.9560184e+3, 2.1055646e+2, -866057.2, -955317.5, 64919.96, 0.007745175, 0.0021095586, -831906.3, 44640.766 
1.9559306e+3, 2.2055088e+2, -768330.75, -857829.1, 72435.13, 0.014766207, 0.005417344, -727936.9, 50664.82 
1.9558401e+3, 2.3054525e+2, -672185.6, -761156.1, 67150.98, -0.017836459, 0.013470834, -636121.56, 44535.098 
1.9557476e+3, 2.4053952e+2, -579509.44, -667164.5, 76873.22, -0.028373918, 0.015094925, -534847.75, 47865.277 
1.955652e+3, 2.5053382e+2, -487151.47, -562135.1, 67974.43, 0.061538387, -0.0045968294, -447014.94, 37753.805 
1.9555525e+3, 2.6052895e+2, -400487.1, -462785.88, 86520.07, 0.067422315, -0.005719049, -339679.94, 47136.47 
1.9554459e+3, 2.705263e+2, -303175.56, -334249.4, 81861.88, -0.18847345, 0.032283984, -235389.23, 53453.367 
1.9553378e+3, 2.805239e+2, -239176.38, -215850.69, 40492.063, 0.090977475, -0.022414317, -185375.33, 5490.7344 
1.9674608e+3, 4.06959e+1, -2537652.0, -2538257.0, -379.5192, -0.0009297622, 0.0026728224, -2537469.3, 3711.3684 
1.9673727e+3, 5.069692e+1, -2445571.0, -2464547.3, 6342.9834, 0.0038052748, 0.0033641418, -2443646.0, -475.49554 
1.9672853e+3, 6.0697234e+1, -2332362.0, -2359861.5, 5839.7603, -0.0050094747, 0.0013956989, -2331173.3, 13994.167 
1.9671986e+3, 7.0696855e+1, -2239916.8, -2278003.5, 11915.095, 0.0036338076, 0.0009817719, -2236496.3, 10674.842 
1.9671121e+3, 8.069589e+1, -2141019.3, -2179930.3, 13041.32, 0.00084317906, 0.0010922097, -2137052.8, 12127.831 
1.9670266e+3, 9.0694535e+1, -2047448.5, -2093363.1, 19045.361, -0.0043026144, 0.00595012, -2040576.9, 10617.003 
1.966942e+3, 1.00692764e+2, -1947915.8, -1994582.5, 20431.664, -0.0014631122, 0.009736105, -1940234.6, 12976.64 
1.9668582e+3, 1.1069063e+2, -1851897.6, -1904604.8, 26079.553, 0.0017370507, 0.009251601, -1841174.9, 14057.282 
1.9667752e+3, 1.2068816e+2, -1751761.8, -1805925.0, 27477.297, 0.0015592668, 0.0074212467, -1740263.4, 16992.979 
1.9666928e+3, 1.3068539e+2, -1655883.1, -1714196.4, 32483.24, 0.00085154333, 0.0022632268, -1641390.4, 17893.14 
1.9666106e+3, 1.4068238e+2, -1556819.6, -1615618.5, 33701.855, 0.0012631224, -0.0020157888, -1541496.1, 19816.723 
1.966528e+3, 1.506793e+2, -1460765.3, -1521864.6, 36427.5, 0.00024354567, -0.00052500615, -1443772.9, 19570.182 
1.9664454e+3, 1.6067609e+2, -1362908.3, -1423817.9, 39513.54, -0.00075239287, 0.0019632345, -1343475.0, 21899.623 
1.9663624e+3, 1.706728e+2, -1267481.4, -1328998.8, 40564.91, 0.0004906887, 0.0068871262, -1247332.3, 20074.604 
1.966279e+3, 1.8066941e+2, -1170799.4, -1231081.1, 45400.28, 0.0015611633, 0.01034004, -1146445.8, 22994.39 
1.9661951e+3, 1.90666e+2, -1074432.0, -1134121.8, 44592.258, -0.000021380367, 0.008258003, -1050618.9, 20854.732 
1.9661102e+3, 2.0066254e+2, -978237.2, -1036863.25, 50419.098, -0.00049239193, 0.0053740595, -949229.25, 24278.258 
1.9660237e+3, 2.1065913e+2, -881768.44, -938276.4, 46998.13, 0.0058246786, 0.0017033519, -855185.25, 20355.545 
1.9659358e+3, 2.206558e+2, -787191.8, -841104.5, 54326.773, 0.007469619, -0.0004459638, -753501.3, 24072.205 
1.9658451e+3, 2.306529e+2, -692417.9, -737620.5, 46993.258, -0.012538549, 0.003933618, -662873.4, 16728.572 
1.9657521e+3, 2.4065022e+2, -605321.4, -644767.4, 55408.465, -0.016539467, 0.0044938405, -566230.3, 15397.751 
1.9656555e+3, 2.5064832e+2, -504097.0, -525028.4, 41222.836, 0.04456795, -0.00658345, -472032.1, 11614.53 
1.9655547e+3, 2.6064762e+2, -419890.44, -428122.7, 49768.36, 0.04114647, -0.0036828092, -374068.28, 11585.318 
1.965447e+3, 2.706494e+2, -323937.8, -288610.47, 19134.027, -0.12840529, 0.01752936, -280233.47, 7402.1924 
1.9653365e+3, 2.8065276e+2, -180564.84, -132743.45, -45285.25, 0.0631934, -0.008589603, -105444.04, 84158.67 
1.977463e+3, 4.0784922e+1, -2540534.5, -2540295.3, -7932.76, 0.0014469547, 0.011117325, -2532481.3, 7826.935 
1.9773756e+3, 5.0785834e+1, -2443679.5, -2463196.5, 10806.18, -0.0011774314, -0.00064364605, -2438877.8, 3421.5325 
1.9772892e+3, 6.0786223e+1, -2331944.3, -2357280.5, 8108.642, -0.0059948936, -0.0033089255, -2329571.3, 14724.033 
1.9772026e+3, 7.0786166e+1, -2236871.5, -2272577.3, 11502.058, 0.004958016, -0.003976383, -2233487.3, 12808.744 
1.9771165e+3, 8.0785525e+1, -2137771.0, -2176230.3, 12432.121, 0.00136487, -0.002565854, -2134102.3, 14199.88 
1.977031e+3, 9.0784454e+1, -2046599.9, -2091707.4, 18461.371, -0.008911772, 0.019643204, -2040007.5, 10305.146 
1.9769464e+3, 1.00782946e+2, -1949009.3, -1994191.3, 20595.482, -0.00851127, 0.039355513, -1941030.3, 11297.186 
1.9768628e+3, 1.10780895e+2, -1852759.8, -1902896.9, 26815.178, 0.0031827607, 0.033536494, -1841120.3, 13227.341 
1.9767801e+3, 1.2077852e+2, -1751667.4, -1802324.5, 28650.477, 0.010720218, 0.019949926, -1738754.8, 17615.92 
1.9766977e+3, 1.3077602e+2, -1651981.0, -1705301.4, 33406.92, 0.00990758, -0.010219927, -1635900.3, 22495.133 
1.9766156e+3, 1.4077343e+2, -1551427.9, -1605690.5, 34459.07, 0.008173192, -0.034251403, -1534701.0, 25719.516 
1.9765331e+3, 1.5077129e+2, -1453746.9, -1507635.5, 36781.99, -0.00031927638, -0.021615544, -1435096.1, 27345.506 
1.9764504e+3, 1.6076916e+2, -1357199.5, -1410963.9, 39630.03, -0.00786716, -0.0033663292, -1336194.5, 28267.963 
1.9763672e+3, 1.7076716e+2, -1260423.0, -1311946.6, 40592.773, -0.0041853576, 0.022934014, -1238107.4, 28374.873 
1.976284e+3, 1.8076514e+2, -1164385.4, -1214715.3, 45851.35, 0.0016461154, 0.042597525, -1137247.1, 31254.818 
1.9761999e+3, 1.9076297e+2, -1064180.9, -1111494.9, 45132.785, 0.008879554, 0.028865092, -1036880.9, 33642.313 
1.9761148e+3, 2.0076099e+2, -966204.56, -1011848.7, 51230.074, 0.011968545, 0.01207238, -932943.06, 39599.53 
1.9760281e+3, 2.107595e+2, -865251.5, -904788.4, 47267.836, -0.0026082562, -0.0026783976, -833784.8, 40772.344 
1.9759397e+3, 2.2075836e+2, -769699.75, -806083.5, 54231.234, -0.012570632, -0.016436942, -730690.44, 45877.844 
1.9758488e+3, 2.30758e+2, -671261.44, -695322.8, 44904.293, 0.0050510615, -0.023192681, -636804.2, 41767.695 
1.9757551e+3, 2.4075826e+2, -582576.94, -599090.94, 53666.344, 0.015043336, -0.024378221, -536536.1, 44033.195 
1.9756569e+3, 2.5075984e+2, -481824.13, -478944.94, 37691.64, -0.018541036, -0.009267159, -442665.4, 39888.543 
1.9755548e+3, 2.607621e+2, -402635.4, -391294.53, 41792.547, -0.03020465, -0.0016099493, -354789.5, 29742.283 
1.9754478e+3, 2.7076504e+2, -318435.4, -278664.16, 13112.667, 0.08466991, -0.02076357, -274730.03, 11772.436 
1.975336e+3, 2.8076977e+2, -200705.98, -175324.31, 25616.91, -0.015469994, 0.016669676, -159426.98, 29028.992 
1.9874649e+3, 4.0873063e+1, -2545937.0, -2540781.5, 2168.7375, -0.0023034548, -0.006471178, -2539990.5, -546.20526 
1.9873787e+3, 5.0874203e+1, -2441006.5, -2462357.0, 7762.7305, 0.00019316077, 0.0037020624, -2438482.5, 2950.7207 
1.9872929e+3, 6.087466e+1, -2340221.5, -2363488.8, 4602.5713, 0.0042117247, 0.01430666, -2339344.3, 4084.4648 
1.9872068e+3, 7.0874375e+1, -2239989.3, -2277280.8, 5098.8657, 0.004547558, 0.017011276, -2239304.8, 6126.8003 
1.987121e+3, 8.0873483e+1, -2133712.0, -2174475.3, 1501.7657, -0.0063140197, 0.010665013, -2133656.8, 13783.562 
1.9870354e+3, 9.0872e+1, -2047772.3, -2090205.3, 5524.311, 0.0042713615, -0.024496341, -2047064.9, 2389.802 
1.9869506e+3, 1.0087026e+2, -1956405.6, -1994109.6, 8912.314, 0.017792951, -0.052962556, -1954405.1, -2933.373 
1.9868669e+3, 1.10868864e+2, -1861562.0, -1901008.5, 16795.627, -0.0020459313, -0.04299259, -1855379.8, -1894.2983 
1.9867839e+3, 1.2086735e+2, -1762829.3, -1803637.9, 20757.531, -0.02230707, -0.023384282, -1754126.6, 1373.5488 
1.9867021e+3, 1.3086596e+2, -1655992.1, -1702629.8, 25125.629, -0.017627688, 0.021835325, -1645031.6, 12482.141 
1.9866204e+3, 1.4086442e+2, -1550821.5, -1601354.9, 23135.172, -0.0079360055, 0.05620836, -1541829.8, 17699.357 
1.9865379e+3, 1.5086246e+2, -1456227.1, -1502275.8, 22101.764, 0.0028411814, 0.03796228, -1447335.9, 14212.483 
1.986455e+3, 1.6086057e+2, -1364513.9, -1405279.3, 22940.47, 0.009799618, 0.0115638925, -1354209.1, 9357.562 
1.9863714e+3, 1.7085908e+2, -1271950.4, -1302317.9, 23928.045, 0.0052923514, -0.027192397, -1258795.1, 6786.097 
1.9862875e+3, 1.8085802e+2, -1182143.4, -1207412.3, 31614.664, -0.00007710441, -0.05436284, -1160732.0, 6859.6094 
1.9862033e+3, 1.9085795e+2, -1075666.1, -1095665.0, 33471.55, -0.006207898, -0.03340997, -1050732.3, 18860.135 
1.9861184e+3, 2.0085831e+2, -975335.6, -995982.2, 40913.496, -0.009476917, -0.009272595, -943463.1, 28125.814 
1.9860317e+3, 2.1085924e+2, -870292.2, -882530.5, 36411.184, -0.0030291406, 0.013781084, -839489.56, 34090.28 
1.9859433e+3, 2.2086065e+2, -774858.0, -784915.7, 42584.695, 0.004666012, 0.03120467, -737006.25, 38559.84 
1.9858518e+3, 2.3086253e+2, -674753.3, -671387.06, 29351.578, 0.020172393, 0.027374629, -643670.4, 33877.152 
1.9857575e+3, 2.4086516e+2, -584906.6, -574501.25, 34513.824, 0.022609731, 0.026054133, -544800.2, 34721.617 
1.985658e+3, 2.5086886e+2, -489167.3, -462108.03, 10769.571, -0.03732461, 0.044052847, -458345.06, 23140.328 
1.985555e+3, 2.608728e+2, -400352.94, -370612.1, 8515.666, -0.056255918, 0.031296164, -368346.4, 15100.313 
1.9854489e+3, 2.7087608e+2, -269168.16, -254669.14, -16630.777, 0.13894583, -0.05589814, -243776.48, 41638.313 
1.9853365e+3, 2.8088075e+2, -187388.47, -188343.52, 5526.166, -0.08935525, -0.01245499, -182319.23, 5049.6724 
1.9974667e+3, 4.0960214e+1, -2543095.5, -2535650.8, 2356.3882, 0.0030867148, 0.004734645, -2534967.5, 3622.6748 
1.9973819e+3, 5.096139e+1, -2435972.5, -2460350.0, -12221.62, -0.0051043695, 0.006991744, -2430900.5, 9678.231 
1.9972962e+3, 6.096164e+1, -2334512.3, -2361556.8, -9129.182, -0.003938435, -0.0026095668, -2331719.3, 10857.159 
1.997211e+3, 7.0961183e+1, -2248682.3, -2283374.0, 6304.522, 0.009190663, -0.0065892427, -2247572.0, -2991.2078 
1.9971256e+3, 8.0960244e+1, -2149888.3, -2182670.5, 11140.401, 0.00043185972, -0.0027167893, -2146460.8, 129.09283 
1.9970395e+3, 9.0959406e+1, -2052861.8, -2091506.1, 11254.799, -0.0116605805, 0.020703431, -2049822.9, -1224.7767 
1.9969541e+3, 1.0095804e+2, -1951710.9, -1990929.9, 10012.962, -0.003589865, 0.022355009, -1949302.5, 1309.0781 
1.9968708e+3, 1.10956706e+2, -1850351.6, -1892919.5, 876.2658, 0.007599534, 0.021509288, -1850333.5, 2291.0088 
1.996788e+3, 1.2095521e+2, -1750784.8, -1795806.6, -7698.694, 0.003095487, 0.0151378885, -1749504.8, 5134.5093 
1.9967067e+3, 1.3095336e+2, -1655566.9, -1699204.9, -2209.0854, 0.0026842828, -0.014452151, -1655455.4, 1202.0032 
1.9966255e+3, 1.4095181e+2, -1560032.6, -1602313.0, -2571.7925, 0.0035248357, -0.014301226, -1559876.8, -1204.2708 
1.9965424e+3, 1.509506e+2, -1459689.1, -1497369.1, 6303.4385, -0.0020857735, -0.009243892, -1458662.5, 2021.9114 
1.9964589e+3, 1.6094965e+2, -1361590.0, -1395739.3, 14247.623, -0.00071324606, -0.0073364973, -1356426.5, 6267.334 
1.9963747e+3, 1.7094994e+2, -1257634.9, -1281275.8, 5560.8374, -0.0015297862, 0.025117336, -1256392.1, 8298.809 
1.9962902e+3, 1.8095042e+2, -1163888.9, -1183471.1, 5067.334, -0.0019709107, 0.019637404, -1162655.3, 4030.8213 
1.9962065e+3, 1.909518e+2, -1063653.3, -1068126.9, -4399.099, 0.011500883, 0.011329227, -1060955.0, 7717.7114 
1.9961216e+3, 2.0095395e+2, -974127.94, -975065.2, -6116.8765, 0.005869854, 0.012680466, -968461.75, 2189.8318 
1.9960345e+3, 2.1095657e+2, -872231.0, -858606.1, -8799.333, -0.014776781, -0.0061707646, -854290.4, 18335.615 
1.9959459e+3, 2.2096011e+2, -780766.8, -765703.4, 328.6101, -0.0058555906, -0.003219236, -765696.2, 8895.054 
1.995854e+3, 2.3096405e+2, -670888.3, -647495.56, -7124.068, 0.023426905, -0.004741486, -645496.75, 31055.936 
1.9957589e+3, 2.4096867e+2, -573943.6, -548328.7, 5753.598, 0.015188861, -0.010616746, -547095.7, 31411.727 
1.9956584e+3, 2.509737e+2, -481392.22, -448178.9, -3053.951, -0.04571779, -0.003437792, -447900.4, 32557.797 
1.9955552e+3, 2.609791e+2, -385650.88, -349671.47, 12462.22, -0.03910683, 0.018806014, -345776.56, 36628.83 
1.995451e+3, 2.7098334e+2, -271505.97, -257955.89, 6821.528, 0.1461826, -0.017532699, -255116.64, 29247.043 
1.9953386e+3, 2.8098762e+2, -202638.66, -197363.39, -11841.127, -0.080289274, 0.050778016, -187869.69, -1547.2439 
