coord_x,coord_y,stress_xx,stress_yy,tau_xy,velocity_x,velocity_y,stress_1,eps,damage
5.0027674e+0, 3.503103e+1, -2538267.8, -2603473.5, -184.07426, -0.00016415157, 0.004330013, -2538267.3, 58428.785 
5.0027865e+0, 4.5027316e+1, -2446071.5, -2518024.3, 26.239624, 0.00029779391, -0.00585637, -2446071.5, 52660.855 
5.002787e+0, 5.5023354e+1, -2348119.8, -2420344.8, -9.408282, -0.00001630162, 0.00028953998, -2348119.8, 52651.34 
5.0027907e+0, 6.501865e+1, -2259640.3, -2341894.0, -43.761726, -0.000104025996, 0.0016891848, -2259640.3, 43177.07 
5.002797e+0, 7.501322e+1, -2161633.0, -2244072.3, -88.311226, 0.00003847492, -0.0035078824, -2161633.0, 43237.52 
5.0028044e+0, 8.5007155e+1, -2073128.3, -2165717.0, -76.1783, 0.000024557334, -0.0027512747, -2073128.1, 33801.69 
5.002812e+0, 9.5000476e+1, -1974941.5, -2067771.4, -44.320732, -0.00014409522, 0.0019321862, -1974941.5, 34053.938 
5.00282e+0, 1.0499307e+2, -1886363.4, -1989312.3, -54.063946, -0.000036834408, 0.002687181, -1886363.4, 24704.613 
5.0028276e+0, 1.1498493e+2, -1788310.0, -1891419.1, -60.785095, 0.0003476474, -0.0024045787, -1788310.0, 24837.633 
5.002828e+0, 1.2497617e+2, -1699763.4, -1812792.3, -85.42494, 0.00020167716, -0.002844913, -1699763.3, 15470.171 
5.0028217e+0, 1.3496678e+2, -1601797.5, -1714922.9, -100.030365, -0.0004820713, -0.00058751967, -1601797.4, 15528.111 
5.002829e+0, 1.4495671e+2, -1513017.3, -1636079.1, -183.90796, -0.00036641606, 0.0009018167, -1513017.0, 6407.1943 
5.00285e+0, 1.5494597e+2, -1414677.0, -1537996.6, -431.5187, 0.00056251447, -0.00045088644, -1414675.5, 6853.914 
5.0028545e+0, 1.6493452e+2, -1326868.1, -1461075.3, -355.7441, 0.0005360145, -0.00021041378, -1326867.1, -3225.3457 
5.0028396e+0, 1.7492232e+2, -1229005.4, -1363204.8, 179.26013, -0.0004694962, -0.00046230105, -1229005.1, -3243.8062 
5.002841e+0, 1.8490954e+2, -1139486.8, -1282719.4, 254.06783, -0.0005804933, -0.00007127812, -1139486.4, -11599.674 
5.0028574e+0, 1.9489612e+2, -1041229.44, -1184676.3, -249.83795, 0.00023112592, -0.00096403225, -1041229.0, -11211.087 
5.002865e+0, 2.04882e+2, -953320.0, -1107798.3, -379.54575, 0.0004572292, -0.00074233016, -953319.06, -21162.65 
5.002864e+0, 2.1486713e+2, -855278.3, -1009856.4, -68.60043, 0.000072144874, -0.0014147563, -855278.3, -20976.236 
5.0028646e+0, 2.2485161e+2, -766481.1, -931040.25, 105.36447, -0.0001623652, -0.0002651559, -766481.06, -30026.896 
5.002868e+0, 2.3483543e+2, -668294.2, -832918.0, 117.6902, -0.00023682836, 0.00050393003, -668294.06, -29681.414 
5.002874e+0, 2.448186e+2, -579266.44, -753687.0, -91.02102, -0.00008977279, 0.00029660505, -579266.44, -38488.703 
5.0028837e+0, 2.548011e+2, -480963.88, -655399.44, -545.0612, 0.00029587376, -0.0029750303, -480962.2, -38012.97 
5.0028884e+0, 2.6478288e+2, -393468.94, -579476.9, -504.25928, 0.00028503154, -0.002371347, -393467.56, -48339.656 
5.0028896e+0, 2.7476388e+2, -295127.3, -481098.53, 74.24665, -0.00015464377, 0.00022209772, -295127.28, -47813.504 
5.002896e+0, 2.8474426e+2, -206118.94, -402101.6, 247.19424, -0.00030376588, 0.0016429393, -206118.63, -56612.336 
5.00291e+0, 2.9472393e+2, -107471.26, -303516.56, -78.99412, -0.00013425881, -0.0007535217, -107471.23, -55765.965 
5.0029147e+0, 3.0470634e+2, -20402.656, -176018.95, -239.6597, 0.00014738741, -0.0007941128, -20402.287, -20402.287 
5.00291e+0, 3.1469145e+2, -20513.627, -175774.1, -62.53604, 0.0005533837, -0.0003209806, -20513.602, -20513.602 
5.002937e+0, 3.2468113e+2, 44882.363, -42260.805, 303.4834, -0.0004692045, 0.00084478804, 44883.418, 44883.418 
1.5008302e+1, 3.5030892e+1, -2537053.3, -2601048.3, 8.015075, -0.0005054434, -0.0018923436, -2537053.3, 59643.918 
1.500836e+1, 4.5027378e+1, -2446134.8, -2518164.8, 52.02185, 0.00089593284, -0.00037408553, -2446134.8, 52597.055 
1.5008362e+1, 5.5023336e+1, -2348187.5, -2420478.8, 16.850824, -0.000048811184, -0.0009332483, -2348187.5, 52583.91 
1.5008372e+1, 6.501862e+1, -2259735.0, -2342060.3, -6.7427087, -0.0003108494, 0.0001386988, -2259735.0, 43082.656 
1.500839e+1, 7.501324e+1, -2161729.8, -2244234.3, -51.024952, 0.00011461011, 0.00095357455, -2161729.5, 43140.688 
1.5008412e+1, 8.5007167e+1, -2073077.9, -2165582.5, -2.654156, 0.00007382353, 0.0008281535, -2073077.9, 33851.914 
1.5008438e+1, 9.500041e+1, -1974890.0, -2067636.0, 29.535147, -0.00043328656, -0.0022163729, -1974890.0, 34106.008 
1.500846e+1, 1.0499299e+2, -1886389.3, -1989325.8, -26.492853, -0.00011170113, -0.001842417, -1886389.3, 24679.342 
1.5008482e+1, 1.1498494e+2, -1788332.5, -1891436.1, -32.553078, 0.0010431266, 0.000054927714, -1788332.5, 24815.102 
1.5008485e+1, 1.2497619e+2, -1699811.1, -1812829.9, -85.93352, 0.00060385506, 0.0012399317, -1699811.0, 15422.289 
1.5008464e+1, 1.3496676e+2, -1601843.8, -1714961.3, -100.188644, -0.0014468966, -0.0002590031, -1601843.6, 15482.052 
1.5008485e+1, 1.4495665e+2, -1513506.5, -1637020.8, -91.34156, -0.0010990117, -0.00036735786, -1513506.5, 5918.423 
1.5008551e+1, 1.5494584e+2, -1415169.1, -1538941.0, -337.555, 0.0016875538, -0.0011179276, -1415168.1, 6362.5967 
1.5008563e+1, 1.6493441e+2, -1325879.1, -1458992.9, -389.49158, 0.0016073005, -0.00060586544, -1325878.0, -2235.3 
1.500852e+1, 1.7492236e+2, -1228007.0, -1361106.1, 144.04984, -0.0014079858, -0.0009183974, -1228006.9, -2246.1138 
1.5008521e+1, 1.8490958e+2, -1140447.9, -1284619.8, 318.4732, -0.0017440704, -0.00014476232, -1140447.1, -12561.067 
1.5008573e+1, 1.9489606e+2, -1042205.06, -1186611.6, -183.23466, 0.0006923963, -0.00018131675, -1042204.8, -12186.194 
1.5008596e+1, 2.0488189e+2, -952768.3, -1106606.1, -362.0288, 0.0013710544, 0.00039834264, -952767.44, -20610.123 
1.5008591e+1, 2.1486713e+2, -854717.9, -1008621.9, -51.724533, 0.00021465357, -0.00042168406, -854717.9, -20415.67 
1.5008594e+1, 2.2485164e+2, -766460.94, -930964.0, 136.1608, -0.00048641523, -0.00034859192, -766460.8, -30006.908 
1.5008605e+1, 2.3483545e+2, -668291.8, -832849.3, 149.2294, -0.0007114531, -0.0016250059, -668291.7, -29679.125 
1.5008622e+1, 2.4481855e+2, -580125.06, -755393.4, -51.354492, -0.00026799945, -0.0006545165, -580125.06, -39346.97 
1.500865e+1, 2.5480098e+2, -481841.34, -657130.0, -503.7127, 0.00088657445, 0.0007295683, -481839.9, -38889.504 
1.5008666e+1, 2.6478276e+2, -392449.88, -577295.56, -464.66147, 0.00085749984, 0.0012056115, -392448.72, -47319.684 
1.5008669e+1, 2.7476388e+2, -294076.28, -478829.2, 112.95502, -0.00046339273, -0.0015182886, -294076.22, -46762.434 
1.500869e+1, 2.8474426e+2, -206720.14, -403244.34, 333.38446, -0.00091070734, -0.0017128852, -206719.58, -57213.563 
1.500873e+1, 2.947239e+2, -108113.15, -304747.3, 9.265463, -0.00040119927, -0.0016213007, -108113.15, -56407.49 
1.5008745e+1, 3.047063e+2, -20090.332, -175378.14, -299.71906, 0.0004440783, 0.00007122767, -20089.754, -20089.754 
1.5008731e+1, 3.1469145e+2, -20159.979, -175094.05, -127.212265, 0.0016696606, 0.0014824509, -20159.875, -20159.875 
1.5008812e+1, 3.246811e+2, 44602.715, -42955.26, 948.3068, -0.0014116126, -0.0029085556, 44612.984, 44612.984 
2.501383e+1, 3.5030818e+1, -2536892.5, -2600479.0, 103.6723, -0.0006480075, -0.0023166884, -2536892.3, 59805.582 
2.501391e+1, 4.5027336e+1, -2446673.5, -2518476.3, -213.55005, 0.00095404906, 0.000075436124, -2446673.0, 52059.152 
2.5013933e+1, 5.5023295e+1, -2348296.3, -2420551.3, -175.89293, 0.000031218355, -0.0010391274, -2348295.8, 52475.88 
2.501396e+1, 6.501857e+1, -2259639.3, -2342023.5, -165.66026, -0.00028221068, -0.0000071017544, -2259639.0, 43179.152 
2.5013986e+1, 7.5013196e+1, -2161596.5, -2244199.3, -130.57146, 0.000022635746, 0.0012647646, -2161596.3, 43274.348 
2.5014025e+1, 8.500712e+1, -2072962.4, -2165576.5, -56.301666, 0.00008900965, 0.0010008956, -2072962.4, 33967.87 
2.501407e+1, 9.5000356e+1, -1974800.3, -2067654.6, -111.28604, -0.00009421874, -0.0027835998, -1974800.1, 34196.4 
2.5014102e+1, 1.0499294e+2, -1886392.6, -1989282.5, -258.6865, 0.000039336974, -0.0023222358, -1886392.0, 24677.143 
2.5014114e+1, 1.149849e+2, -1788639.3, -1891526.9, -202.73402, 0.0004926792, 0.0004749599, -1788638.9, 24509.148 
2.501413e+1, 1.2497615e+2, -1699962.3, -1813033.8, -130.6301, 0.00024132396, 0.001763075, -1699962.1, 15271.59 
2.5014147e+1, 1.349667e+2, -1601215.1, -1714770.4, -177.9809, -0.0007200813, -0.00044088834, -1601214.9, 16111.374 
2.5014174e+1, 1.4495659e+2, -1512987.0, -1636785.0, -93.87222, -0.0004925159, -0.0007335332, -1512987.0, 6438.4707 
2.5014213e+1, 1.5494579e+2, -1415772.1, -1539269.0, 153.794, 0.000945309, -0.0011473274, -1415771.9, 5759.447 
2.5014228e+1, 1.6493435e+2, -1326497.1, -1459262.3, -0.24930927, 0.0008688799, -0.00046239857, -1326497.1, -2853.8557 
2.5014222e+1, 1.7492232e+2, -1227626.9, -1360886.0, -477.03024, -0.0007581088, -0.00077782373, -1227625.1, -1863.9957 
2.501424e+1, 1.8490955e+2, -1139917.4, -1284528.9, -449.17307, -0.0009373159, -0.00014536829, -1139916.0, -12029.47 
2.5014278e+1, 1.9489601e+2, -1042248.94, -1186798.6, -0.04648024, 0.00038413494, -0.00046745667, -1042248.94, -12229.792 
2.5014302e+1, 2.0488185e+2, -953018.44, -1106719.4, 54.654385, 0.00077174057, 0.00021264948, -953018.44, -20860.56 
2.501431e+1, 2.1486709e+2, -854829.75, -1008716.0, -230.27722, 0.0001846818, -0.00010431702, -854829.44, -20526.787 
2.501433e+1, 2.248516e+2, -766476.0, -930961.4, -326.6629, -0.000209069, -0.000089244226, -766475.4, -30021.035 
2.5014353e+1, 2.348354e+2, -668130.5, -832789.9, -313.10626, -0.00040249873, -0.0020349745, -668129.9, -29516.867 
2.501438e+1, 2.4481851e+2, -580008.8, -755472.7, -128.1422, -0.00016973537, -0.0010067663, -580008.7, -39230.15 
2.501441e+1, 2.5480095e+2, -481799.78, -657268.4, 263.39792, 0.00051883154, 0.0012139054, -481799.4, -38848.523 
2.5014436e+1, 2.6478273e+2, -392424.97, -577239.5, 212.31488, 0.0005201016, 0.0018408307, -392424.75, -47295.24 
2.501445e+1, 2.7476385e+2, -294031.1, -478805.5, -335.55127, -0.00022987137, -0.0014895634, -294030.47, -46716.215 
2.501449e+1, 2.8474423e+2, -206806.38, -403377.56, -379.6011, -0.0005021678, -0.0020933775, -206805.64, -57299.09 
2.5014547e+1, 2.9472384e+2, -108317.03, -304913.88, -99.835464, -0.00024963397, -0.0022086964, -108316.984, -56610.71 
2.5014573e+1, 3.0470625e+2, -20010.305, -175430.95, -329.59894, 0.00022404727, 0.000041991287, -20009.605, -20009.605 
2.501456e+1, 3.146914e+2, -19338.643, -174856.02, -569.0805, 0.000957931, 0.002846143, -19336.56, -19336.56 
2.5014696e+1, 3.24681e+2, 44192.42, -43639.77, 576.1088, -0.0007095119, -0.003754358, 44196.2, 44196.2 
3.5019356e+1, 3.5030815e+1, -2537426.5, -2601503.5, -10.368901, -0.000616255, 0.0030268843, -2537426.5, 59271.645 
3.5019433e+1, 4.50272e+1, -2446609.8, -2518303.3, -71.21814, 0.00045937157, -0.004536968, -2446609.8, 52123.66 
3.5019502e+1, 5.5023223e+1, -2348232.5, -2420383.8, -33.827736, 0.00020409415, -0.000046986697, -2348232.5, 52539.984 
3.501955e+1, 6.501851e+1, -2259561.5, -2341895.0, -122.230774, -0.000035062574, 0.0012371029, -2259561.3, 43257.332 
3.5019588e+1, 7.50131e+1, -2161529.5, -2244059.3, -86.974106, -0.00024439007, -0.0025550597, -2161529.5, 43342.15 
3.5019642e+1, 8.5007024e+1, -2073077.4, -2165782.5, 8.534076, 0.00005639564, -0.002224514, -2073077.4, 33853.785 
3.5019714e+1, 9.50003e+1, -1974914.5, -2067864.1, -45.5476, 0.00086055393, 0.00021839024, -1974914.5, 34082.535 
3.501974e+1, 1.04992904e+2, -1886303.0, -1989050.9, -306.14038, 0.000405084, 0.001220906, -1886302.1, 24767.475 
3.501972e+1, 1.14984825e+2, -1788541.6, -1891299.3, -250.01227, -0.0013105976, -0.0011312494, -1788541.0, 24607.744 
3.5019764e+1, 1.2497606e+2, -1700065.4, -1813206.0, 70.491264, -0.00089202606, -0.001264553, -1700065.3, 15169.282 
3.5019872e+1, 1.3496663e+2, -1601325.3, -1714944.0, 24.53785, 0.0016763512, -0.0011280442, -1601325.3, 16001.816 
3.5019892e+1, 1.4495654e+2, -1512531.5, -1635816.3, -291.76852, 0.0014343043, -0.00020268852, -1512530.9, 6895.0293 
3.5019833e+1, 1.549458e+2, -1415319.4, -1538285.3, -46.05109, -0.001666464, -0.0005372336, -1415319.4, 6211.6943 
3.501985e+1, 1.6493435e+2, -1327401.5, -1461086.5, 218.34956, -0.0016813846, 0.00021583658, -1327401.1, -3757.9028 
3.5019955e+1, 1.749222e+2, -1228538.1, -1362732.6, -253.86485, 0.0014635831, -0.000038593098, -1228537.6, -2775.095 
3.5019997e+1, 1.8490939e+2, -1139130.1, -1282769.5, -527.14374, 0.0018222618, -0.00007426194, -1139128.3, -11240.291 
3.5019973e+1, 1.9489597e+2, -1041441.0, -1185015.0, -81.96755, -0.00069889607, -0.0018184822, -1041440.94, -11421.473 
3.5019982e+1, 2.0488183e+2, -953553.0, -1107780.0, 95.80232, -0.0013437596, -0.001300896, -953552.94, -21394.992 
3.5020024e+1, 2.1486701e+2, -855399.3, -1009785.2, -186.54045, -0.000025397634, -0.00045915422, -855399.06, -21095.69 
3.5020065e+1, 2.2485149e+2, -766464.8, -930922.94, -254.45953, 0.00065939984, 0.00049907016, -766464.4, -30008.988 
3.502011e+1, 2.348353e+2, -668135.9, -832713.1, -239.96143, 0.000671281, -0.00073365937, -668135.56, -29521.553 
3.5020143e+1, 2.4481845e+2, -579304.7, -753964.94, -110.37663, 0.00019459699, -0.00077049294, -579304.6, -38525.51 
3.502016e+1, 2.5480095e+2, -481097.78, -655719.8, 279.22177, -0.00081756874, -0.0015106531, -481097.34, -38146.723 
3.5020196e+1, 2.6478273e+2, -393398.97, -579296.5, 246.0584, -0.00073735503, -0.00046164315, -393398.63, -48269.27 
3.502024e+1, 2.7476373e+2, -295060.22, -480914.1, -298.74698, 0.00052963063, 0.00030335685, -295059.75, -47744.516 
3.5020298e+1, 2.8474408e+2, -206304.66, -402397.63, -316.5612, 0.00090602774, 0.0004794888, -206304.14, -56796.266 
3.5020363e+1, 2.9472375e+2, -107779.46, -303854.94, -37.53101, 0.0002972598, -0.0025049115, -107779.45, -56072.355 
3.5020402e+1, 3.0470616e+2, -20422.742, -176245.47, -216.59492, -0.00053498824, -0.00086996163, -20422.441, -20422.441 
3.5020402e+1, 3.1469128e+2, -19802.2, -175695.33, -453.7678, -0.0016030474, 0.0038330199, -19800.877, -19800.877 
3.5020593e+1, 3.246808e+2, 43884.215, -44188.887, 529.2281, 0.0015945486, -0.001683821, 43887.395, 43887.395 
4.5024902e+1, 3.5030764e+1, -2537272.8, -2602048.0, -67.17107, -0.000014069617, 0.0039781085, -2537272.8, 59425.75 
4.5024967e+1, 4.5027104e+1, -2446148.8, -2518056.0, 46.502293, -0.00020049096, -0.0058101425, -2446148.8, 52585.535 
4.5025063e+1, 5.502314e+1, -2348277.0, -2420403.5, 18.291454, 0.000036765246, 0.0001128531, -2348277.0, 52496.285 
4.5025143e+1, 6.5018433e+1, -2259675.5, -2341980.5, -117.11322, 0.0001616548, 0.0016721736, -2259675.5, 43143.906 
4.502521e+1, 7.5013006e+1, -2161137.0, -2243904.0, -180.30771, 0.00019505208, -0.0029702128, -2161136.5, 43735.91 
4.5025268e+1, 8.5006934e+1, -2072814.0, -2165619.0, -220.14394, 0.0002275281, -0.0025462639, -2072813.5, 34118.5 
4.5025322e+1, 9.500023e+1, -1975531.8, -2068113.9, -139.53049, 0.00024964273, 0.0009345977, -1975531.5, 33466.254 
4.502536e+1, 1.0499282e+2, -1886709.8, -1989348.8, -234.26958, -0.000057577727, 0.0018938765, -1886709.1, 24361.184 
4.5025387e+1, 1.1498472e+2, -1787478.3, -1890891.4, -357.61188, -0.00069108396, -0.0015763622, -1787477.1, 25672.64 
4.502544e+1, 1.2497596e+2, -1699210.1, -1812721.5, -265.83524, -0.00025634942, -0.0019082853, -1699209.5, 16026.1 
4.5025522e+1, 1.3496654e+2, -1602534.9, -1715479.6, -178.53026, 0.0012609478, -0.0010423044, -1602534.6, 14793.358 
4.5025548e+1, 1.4495645e+2, -1513660.8, -1636323.8, -495.1827, 0.0008691003, 0.00016797811, -1513658.8, 5767.967 
4.5025522e+1, 1.5494573e+2, -1414183.4, -1537675.0, -709.4878, -0.0014697431, -0.00033282858, -1414179.3, 7352.58 
4.502555e+1, 1.6493426e+2, -1326176.8, -1460663.3, -382.60175, -0.0012991331, 0.00021387532, -1326175.6, -2531.5234 
4.5025647e+1, 1.749221e+2, -1229127.6, -1363203.0, -40.640877, 0.001443037, -0.00028521096, -1229127.6, -3364.0764 
4.5025688e+1, 1.8490928e+2, -1139954.3, -1282993.1, -230.48473, 0.0016638566, -0.0001809779, -1139953.9, -12064.88 
4.5025676e+1, 1.948959e+2, -1041428.25, -1184818.3, -541.63367, -0.00071435445, -0.0013851884, -1041426.2, -11405.876 
4.5025694e+1, 2.0488174e+2, -953253.6, -1107744.8, -477.80063, -0.0012621862, -0.000984412, -953252.2, -21093.385 
4.5025754e+1, 2.1486689e+2, -854951.6, -1009699.8, -272.16373, 0.00009974404, -0.0009418342, -854951.1, -20646.748 
4.5025802e+1, 2.2485138e+2, -766254.44, -930816.56, -187.99132, 0.0006985923, 0.00012762565, -766254.2, -29797.771 
4.502584e+1, 2.3483521e+2, -668639.6, -832971.06, -207.43634, 0.00048753776, -0.000025201301, -668639.4, -30024.451 
4.5025882e+1, 2.4481836e+2, -579828.7, -754021.3, -305.20828, 0.00009807073, -0.00018735164, -579828.2, -39048.215 
4.502593e+1, 2.5480086e+2, -481061.38, -655532.4, -575.2582, -0.00048946147, -0.0023419384, -481059.47, -38108.004 
4.5025977e+1, 2.6478264e+2, -393267.7, -579351.94, -520.59644, -0.00049305044, -0.0014671778, -393266.22, -48136.016 
4.502603e+1, 2.7476367e+2, -294838.28, -480953.63, -83.26649, 0.00013059376, 0.00047444392, -294838.25, -47522.12 
4.5026097e+1, 2.84744e+2, -206076.48, -402211.25, 144.40567, 0.0006697695, 0.0011244343, -206076.38, -56567.625 
4.5026177e+1, 2.9472366e+2, -107888.92, -303847.88, -85.60549, 0.0011032216, -0.002155122, -107888.88, -56180.94 
4.5026234e+1, 3.0470607e+2, -20622.668, -176637.14, -229.62355, -0.00028812932, -0.0010691864, -20622.33, -20622.33 
4.5026264e+1, 3.1469116e+2, -19399.41, -175770.86, -200.04245, -0.0037092902, 0.0028306586, -19399.154, -19399.154 
4.5026463e+1, 3.246807e+2, 43476.9, -44171.04, 491.72217, 0.0030684483, -0.00097383553, 43479.656, 43479.656 
5.503048e+1, 3.5030675e+1, -2537534.0, -2602608.0, -95.216576, 0.0011357501, 0.0005772168, -2537533.8, 59165.535 
5.503052e+1, 4.5027047e+1, -2446184.3, -2518160.8, 53.956, -0.0010153322, -0.0037221713, -2446184.3, 52550.746 
5.5030614e+1, 5.502305e+1, -2348316.0, -2420503.3, 26.967924, -0.0004859604, -0.0005467837, -2348316.0, 52458.207 
5.503073e+1, 6.501833e+1, -2259796.8, -2342223.5, 54.037735, 0.00028554266, 0.0013105276, -2259796.8, 43023.58 
5.5030847e+1, 7.501292e+1, -2161262.8, -2244146.5, -8.601088, 0.0013176461, -0.0000134354095, -2161262.8, 43610.652 
5.50309e+1, 8.5006845e+1, -2072656.8, -2165311.8, -378.38452, 0.000578654, 0.0000081161215, -2072655.1, 34277.72 
5.503089e+1, 9.5000124e+1, -1975362.8, -2067811.0, -298.05743, -0.0019310111, -0.0006139659, -1975361.8, 33636.996 
5.503096e+1, 1.049927e+2, -1886954.8, -1989820.1, 91.83103, -0.0013570661, -0.00027351428, -1886954.6, 24116.83 
5.503112e+1, 1.14984594e+2, -1787731.1, -1891368.9, -29.644768, 0.0023047228, -0.0008717858, -1787731.1, 25419.777 
5.503117e+1, 1.2497584e+2, -1699036.8, -1812404.1, -595.1631, 0.0021124894, -0.00018761898, -1699033.6, 16203.181 
5.50311e+1, 1.3496643e+2, -1602360.0, -1715146.6, -508.95648, -0.0019649223, -0.00018965288, -1602357.8, 14971.204 
5.503113e+1, 1.4495634e+2, -1514057.4, -1637153.1, -111.656815, -0.0021904884, 0.0003779371, -1514057.3, 5370.6436 
5.5031276e+1, 1.5494554e+2, -1414596.0, -1538507.6, -321.7247, 0.0014908884, -0.00052983296, -1414595.3, 6938.5015 
5.5031323e+1, 1.649341e+2, -1325528.1, -1459368.1, -624.81714, 0.001972015, -0.00045945816, -1325525.3, -1879.3434 
5.5031306e+1, 1.74922e+2, -1228471.9, -1361888.0, -287.7905, -0.0008199586, -0.00150737, -1228471.3, -2706.8384 
5.503132e+1, 1.8490921e+2, -1140513.5, -1284183.4, -99.47473, -0.0013991982, -0.00046079262, -1140513.5, -12623.759 
5.5031383e+1, 1.9489576e+2, -1041998.56, -1186029.9, -405.5655, 0.00031169748, 0.0008144039, -1041997.4, -11975.757 
5.503144e+1, 2.0488161e+2, -952880.9, -1106973.3, -397.4313, 0.0009764012, 0.0011470264, -952879.9, -20719.586 
5.503151e+1, 2.1486677e+2, -854580.7, -1008898.25, -192.6948, 0.0005446069, -0.0015535725, -854580.44, -20274.883 
5.503154e+1, 2.2485127e+2, -766279.8, -930892.2, -302.02924, -0.00009986384, -0.001197107, -766279.25, -29821.809 
5.503154e+1, 2.3483512e+2, -668668.4, -833052.4, -323.49802, -0.00096766185, 0.00009226339, -668667.75, -30051.875 
5.503159e+1, 2.4481824e+2, -580334.0, -755042.94, -153.26256, -0.0004765749, 0.0007378251, -580333.8, -39552.65 
5.5031705e+1, 2.5480068e+2, -481579.16, -656573.06, -416.54742, 0.0014626182, -0.0013010683, -481578.16, -38624.758 
5.503178e+1, 2.6478243e+2, -392484.97, -577706.56, -460.30212, 0.0012032338, -0.0011929879, -392483.8, -47351.8 
5.503182e+1, 2.7476358e+2, -294035.97, -479242.13, -27.042305, -0.0014376034, -0.00096422335, -294035.97, -46719.05 
5.503189e+1, 2.8474396e+2, -206502.64, -403013.44, 115.03625, -0.0012190602, -0.00014596056, -206502.56, -56993.367 
5.5031985e+1, 2.9472357e+2, -108355.35, -304699.97, -115.73265, 0.00214, -0.0011800878, -108355.28, -56646.484 
5.503208e+1, 3.0470592e+2, -20568.926, -176527.28, 43.14241, 0.00093312236, -0.0005770887, -20568.914, -20568.914 
5.503215e+1, 3.14691e+2, -19337.326, -175630.33, 83.25297, -0.0053583714, -0.00022316081, -19337.283, -19337.283 
5.5032307e+1, 3.2468063e+2, 44045.227, -43003.277, -348.8693, 0.0036958493, -0.0016474122, 44046.625, 44046.625 
6.5036017e+1, 3.5030544e+1, -2538005.8, -2602652.3, -264.11942, 0.0013733042, -0.0005944565, -2538004.8, 58695.89 
6.5036094e+1, 4.5026946e+1, -2445673.8, -2518015.3, -190.03873, -0.0014667549, -0.0019356196, -2445673.3, 53062.566 
6.503621e+1, 5.502292e+1, -2347674.8, -2420293.8, -268.17862, -0.00006422116, -0.00079019443, -2347674.0, 53101.527 
6.503632e+1, 6.501819e+1, -2259517.3, -2342087.0, -199.57123, 0.0005886591, 0.00066963333, -2259516.8, 43305.055 
6.503644e+1, 7.50128e+1, -2162118.3, -2244569.3, -130.1773, 0.0005145366, 0.00055162073, -2162118.0, 42756.523 
6.503651e+1, 8.5006714e+1, -2073165.1, -2165613.0, -464.94156, 0.000017406213, 0.000588583, -2073162.8, 33771.367 
6.5036535e+1, 9.4999975e+1, -1973949.1, -2067156.9, -579.3523, -0.0009099066, -0.0012146428, -1973945.5, 35054.664 
6.503662e+1, 1.0499255e+2, -1885830.9, -1989253.4, -262.03937, -0.00044953087, -0.0009828305, -1885830.3, 25242.662 
6.5036756e+1, 1.1498446e+2, -1789243.0, -1892096.0, -123.32033, 0.0014071456, -0.00061923196, -1789242.9, 23909.354 
6.5036803e+1, 1.2497571e+2, -1700442.8, -1813060.8, -577.34406, 0.0010837873, 0.00036750792, -1700439.8, 14798.335 
6.5036774e+1, 1.349663e+2, -1600829.5, -1714382.8, -656.50903, -0.0014452598, 0.00000040222673, -1600825.8, 16504.545 
6.503682e+1, 1.4495619e+2, -1512486.8, -1636539.0, -193.83974, -0.0013309801, 0.0002231352, -1512486.4, 6942.98 
6.503696e+1, 1.5494537e+2, -1415723.1, -1539209.4, -81.142136, 0.0014664379, -0.0010080662, -1415723.0, 5812.262 
6.503702e+1, 1.6493395e+2, -1326872.9, -1459709.8, -508.50873, 0.0015596044, -0.0007800996, -1326870.9, -3223.5156 
6.503699e+1, 1.7492187e+2, -1227963.0, -1361347.9, -665.8161, -0.0011164799, -0.0011773678, -1227959.8, -2194.079 
6.503702e+1, 1.8490909e+2, -1139717.8, -1284047.4, -454.11057, -0.001418959, -0.00014770718, -1139716.3, -11825.388 
6.50371e+1, 1.9489558e+2, -1041772.2, -1186178.1, -343.2957, 0.0007323272, 0.00042063222, -1041771.4, -11748.165 
6.5037173e+1, 2.0488144e+2, -952993.0, -1106840.6, -338.577, 0.0012800293, 0.000803672, -952992.25, -20830.38 
6.5037215e+1, 2.1486664e+2, -855474.2, -1009141.9, -406.59497, 0.00014704542, -0.0010568838, -855473.06, -21166.174 
6.5037256e+1, 2.2485115e+2, -766943.0, -931224.8, -528.3236, -0.0004877289, -0.0007954767, -766941.3, -30482.604 
6.5037286e+1, 2.3483497e+2, -667768.8, -832613.8, -514.7635, -0.0005999443, -0.00058308564, -667767.2, -29149.984 
6.503735e+1, 2.448181e+2, -579346.4, -754789.75, -234.446, -0.000023097171, 0.0001963043, -579346.06, -38563.453 
6.5037453e+1, 2.5480053e+2, -481970.63, -656967.75, -83.971535, 0.0012922903, -0.0004196897, -481970.56, -39015.707 
6.5037537e+1, 2.6478228e+2, -393147.97, -577783.0, -120.6354, 0.0009374943, -0.00021068097, -393147.9, -48014.465 
6.503761e+1, 2.7476346e+2, -294452.06, -479174.9, -349.65817, -0.0012315717, -0.0013126342, -294451.4, -47133.242 
6.503769e+1, 2.8474385e+2, -206822.14, -403231.56, -418.02634, -0.0010130941, -0.00087730295, -206821.25, -57310.89 
6.5037787e+1, 2.9472348e+2, -108240.94, -304719.28, -235.55411, 0.0018239721, -0.0012540969, -108240.66, -56530.695 
6.503791e+1, 3.047058e+2, -20351.4, -176134.33, 361.58896, 0.0008477105, -0.0003836596, -20350.563, -20350.563 
6.503805e+1, 3.1469092e+2, -19706.664, -175530.11, 508.04202, -0.0043704603, -0.00023977485, -19705.008, -19705.008 
6.5038127e+1, 3.2468054e+2, 43856.2, -42980.934, -1016.301, 0.0030767953, -0.0025607299, 43868.09, 43868.09 
7.504153e+1, 3.5030383e+1, -2537577.8, -2601777.3, 264.0958, 0.0006686323, 0.00043785322, -2537576.5, 59125.676 
7.5041693e+1, 4.502681e+1, -2445822.5, -2518300.0, -148.91978, -0.0015710652, -0.00047121363, -2445822.0, 52915.184 
7.504183e+1, 5.5022746e+1, -2347821.8, -2420580.5, -225.44681, 0.0012606636, -0.00062741817, -2347821.0, 52956.0 
7.504193e+1, 6.501801e+1, -2259389.8, -2341805.5, -318.82687, 0.0010394716, -0.00025080572, -2259388.5, 43434.906 
7.5041986e+1, 7.501262e+1, -2161980.3, -2244292.0, -249.21349, -0.002202456, -0.0012408361, -2161979.5, 42896.78 
7.50421e+1, 8.5006547e+1, -2073378.8, -2166067.3, -127.29424, -0.0014611878, -0.00078343187, -2073378.6, 33557.22 
7.504227e+1, 9.4999796e+1, -1974170.3, -2067618.4, -240.45609, 0.0032465754, -0.0008753152, -1974169.6, 34832.375 
7.5042343e+1, 1.04992375e+2, -1885583.6, -1988709.8, -612.28, 0.0026212342, -0.00024942332, -1885580.0, 25494.68 
7.504231e+1, 1.149843e+2, -1788980.5, -1891550.1, -474.42175, -0.0033454583, -0.0008124231, -1788978.3, 24175.475 
7.5042367e+1, 1.24975555e+2, -1700584.6, -1813369.1, -157.28796, -0.0033180113, -0.00022742571, -1700584.4, 14655.135 
7.5042534e+1, 1.3496612e+2, -1600985.1, -1714697.0, -233.91121, 0.0027526985, -0.00046127502, -1600984.6, 16347.336 
7.5042605e+1, 1.4495602e+2, -1512287.8, -1636114.4, -499.56296, 0.0033788835, -0.00029087652, -1512285.8, 7145.1973 
7.504258e+1, 1.5494524e+2, -1415516.5, -1538775.4, -389.78214, -0.0015216355, -0.001764308, -1415515.3, 6021.3604 
7.504262e+1, 1.649338e+2, -1327150.5, -1460312.4, -285.6569, -0.0025103807, -0.00075129414, -1327149.9, -3501.1653 
7.50427e+1, 1.749217e+2, -1228249.8, -1361956.4, -438.5083, 0.00051289104, 0.00068403076, -1228248.3, -2481.0698 
7.504278e+1, 1.8490893e+2, -1139504.6, -1283646.1, -463.84393, 0.0015506902, 0.0007527548, -1139503.1, -11610.47 
7.5042826e+1, 1.948954e+2, -1041554.94, -1185769.6, -354.3888, 0.0005367693, -0.0025303552, -1041554.06, -11529.071 
7.504286e+1, 2.0488127e+2, -953129.6, -1107087.6, -461.70493, -0.00034535828, -0.0019784218, -953128.25, -20964.664 
7.504288e+1, 2.1486649e+2, -855614.06, -1009387.75, -530.1012, -0.0010883742, 0.0005334269, -855612.25, -21303.84 
7.504295e+1, 2.24851e+2, -766933.8, -931154.8, -242.88786, -0.0004857063, 0.0013100449, -766933.5, -30473.275 
7.504308e+1, 2.3483479e+2, -667755.0, -832555.56, -222.8355, 0.0015432328, -0.002041111, -667754.75, -29135.723 
7.504316e+1, 2.4481793e+2, -579121.0, -754197.25, -423.23233, 0.0014268316, -0.001792109, -579119.94, -38335.7 
7.5043166e+1, 2.548004e+2, -481715.88, -656381.0, -281.2867, -0.0009929453, 0.00030519615, -481715.4, -38759.535 
7.5043243e+1, 2.647822e+2, -393591.7, -578597.7, -6.7621036, -0.001296964, 0.0014712274, -393591.7, -48457.24 
7.504338e+1, 2.747633e+2, -294912.47, -480019.06, -227.31462, 0.0007034906, -0.0005870414, -294912.2, -47592.316 
7.5043494e+1, 2.8474367e+2, -206508.52, -402534.16, -333.22012, 0.001236556, -0.0010780297, -206507.95, -56995.715 
7.5043577e+1, 2.9472333e+2, -107915.82, -303978.03, -152.64433, 0.0001409773, -0.0023516167, -107915.7, -56204.29 
7.504373e+1, 3.047057e+2, -20083.162, -175602.7, 481.4952, -0.000562635, -0.00047481005, -20081.67, -20081.67 
7.504395e+1, 3.146909e+2, -19445.51, -175000.95, 629.64124, -0.0007926181, 0.0028101157, -19442.96, -19442.96 
7.504393e+1, 3.2468048e+2, 43395.27, -43933.5, -1526.583, 0.0011828688, -0.0037106841, 43421.95, 43421.95 
8.504707e+1, 3.5030198e+1, -2536875.3, -2601371.8, 318.47537, -0.00003706133, 0.0015064151, -2536873.8, 59830.36 
8.5047287e+1, 4.5026606e+1, -2446289.5, -2518449.8, -395.6716, -0.0005581457, -0.0017207988, -2446287.5, 52451.84 
8.5047424e+1, 5.5022573e+1, -2348364.0, -2420771.3, -272.44785, 0.000999754, -0.000095167365, -2348363.0, 52415.734 
8.5047525e+1, 6.501784e+1, -2259432.3, -2341808.3, -329.19806, 0.0006141111, 0.00044420754, -2259430.8, 43394.332 
8.50476e+1, 7.5012434e+1, -2160834.5, -2243706.3, -393.05917, -0.0017055904, -0.0019698422, -2160832.8, 44045.418 
8.504773e+1, 8.500636e+1, -2072685.5, -2165735.0, -194.17021, -0.0010108998, -0.0015446094, -2072685.1, 34252.504 
8.504791e+1, 9.499962e+1, -1975542.8, -2068288.0, -92.38215, 0.002684621, -0.00027390497, -1975542.6, 33461.113 
8.504799e+1, 1.049922e+2, -1886668.4, -1989239.0, -578.0932, 0.0020504612, 0.0005704554, -1886665.1, 24411.217 
8.504796e+1, 1.1498413e+2, -1787504.9, -1890825.4, -705.98865, -0.0029200108, -0.00092139794, -1787500.0, 25655.5 
8.5048026e+1, 1.24975376e+2, -1699131.9, -1812747.4, -357.2491, -0.0027511711, -0.0007405801, -1699130.8, 16110.546 
8.504821e+1, 1.3496594e+2, -1602083.3, -1715303.3, -324.31522, 0.0025953213, -0.0008438968, -1602082.4, 15251.433 
8.504829e+1, 1.4495584e+2, -1513516.6, -1636573.8, -731.63904, 0.002970121, -0.00029126852, -1513512.3, 5920.548 
8.504826e+1, 1.5494508e+2, -1414705.9, -1538251.0, -744.4502, -0.0016980682, -0.0011285628, -1414701.4, 6836.8237 
8.5048294e+1, 1.6493362e+2, -1326170.1, -1460121.4, -525.8057, -0.0023964376, -0.00021895055, -1326168.1, -2517.663 
8.504841e+1, 1.7492151e+2, -1228472.8, -1362351.4, -554.9365, 0.0009662391, 0.00035515754, -1228470.4, -2701.1843 
8.5048485e+1, 1.849087e+2, -1139991.1, -1283586.6, -608.40686, 0.0017861276, 0.00031410603, -1139988.5, -12093.833 
8.504853e+1, 1.9489524e+2, -1041978.1, -1185675.8, -534.3272, -0.000023028486, -0.0023010385, -1041976.1, -11949.423 
8.504857e+1, 2.0488109e+2, -953244.6, -1107327.9, -628.5847, -0.0008132429, -0.0016897643, -953242.06, -21076.834 
8.50486e+1, 2.148663e+2, -854606.56, -1009103.2, -686.4189, -0.0005334722, 0.0002512181, -854603.56, -20293.262 
8.504868e+1, 2.248508e+2, -766169.44, -930766.44, -381.87515, 0.00014139694, 0.0010571106, -766168.56, -29706.412 
8.504881e+1, 2.348346e+2, -668912.44, -833094.1, -375.09314, 0.001230905, -0.0016332199, -668911.6, -30290.709 
8.5048896e+1, 2.4481775e+2, -580333.06, -754607.1, -673.06384, 0.00083543477, -0.0014484187, -580330.44, -39544.42 
8.5048914e+1, 2.5480026e+2, -481311.47, -655970.4, -674.969, -0.0011434429, -0.0001860234, -481308.84, -38351.316 
8.5049003e+1, 2.64782e+2, -392898.4, -578525.9, -313.0682, -0.0009837415, 0.0009905772, -392897.88, -47761.77 
8.504916e+1, 2.7476308e+2, -294829.63, -480255.94, -247.36122, 0.001499373, -0.000140035, -294829.3, -47507.64 
8.504928e+1, 2.8474346e+2, -206594.98, -402386.84, -301.7092, 0.0014045761, -0.00045702074, -206594.53, -57080.484 
8.5049355e+1, 2.9472315e+2, -108276.055, -303954.7, -339.19824, -0.0015462559, -0.0023819783, -108275.47, -56562.4 
8.504953e+1, 3.047056e+2, -20870.867, -175581.2, 154.30945, -0.00094145845, -0.00063271547, -20870.713, -20870.713 
8.50498e+1, 3.146908e+2, -21009.92, -175340.66, 292.61615, 0.003680757, 0.0031451543, -21009.365, -21009.365 
8.5049766e+1, 3.246804e+2, 44663.19, -43362.703, -1223.9441, -0.001584552, -0.0035044746, 44680.207, 44680.207 
9.5052636e+1, 3.5029984e+1, -2537199.5, -2602009.0, 273.20172, -0.00079520827, 0.0026126145, -2537198.3, 59507.87 
9.5052874e+1, 4.502634e+1, -2446056.3, -2517932.8, -373.9495, 0.0015356184, -0.00560621, -2446054.3, 52687.492 
9.505298e+1, 5.502238e+1, -2348128.0, -2420256.3, -250.286, -0.0008507049, 0.00080344314, -2348127.0, 52653.527 
9.505312e+1, 6.5017676e+1, -2259550.0, -2342059.3, -143.52191, -0.0007003191, 0.002732508, -2259549.8, 43277.07 
9.5053285e+1, 7.5012237e+1, -2160959.0, -2243958.0, -206.8824, 0.0019411548, -0.001658756, -2160958.5, 43921.58 
9.50534e+1, 8.5006166e+1, -2072501.3, -2165337.3, -386.48672, 0.0013245732, -0.0017051351, -2072499.6, 34439.934 
9.505346e+1, 9.4999456e+1, -1975348.4, -2067889.0, -285.23505, -0.0025327674, 0.000586495, -1975347.5, 33657.85 
9.505356e+1, 1.0499204e+2, -1886927.1, -1989725.0, -271.98828, -0.0021144052, 0.0014785861, -1886926.4, 24151.605 
9.50537e+1, 1.14983924e+2, -1787770.6, -1891318.8, -397.67313, 0.0025825328, -0.0009462757, -1787769.1, 25388.465 
9.505379e+1, 1.24975145e+2, -1699101.6, -1812611.6, -587.421, 0.0026791887, -0.0011725995, -1699098.5, 16145.003 
9.505381e+1, 1.3496573e+2, -1602038.3, -1715169.0, -555.38416, -0.0018549177, -0.0011513074, -1602035.5, 15300.386 
9.505387e+1, 1.4495562e+2, -1513543.4, -1636613.5, -518.2638, -0.0024756794, 0.00021432337, -1513541.3, 5893.555 
9.5053977e+1, 1.5494488e+2, -1414736.5, -1538297.4, -529.13635, 0.00087478256, 0.0008768181, -1414734.3, 6805.8994 
9.5054054e+1, 1.6493343e+2, -1326241.4, -1460232.3, -606.5371, 0.0018022496, 0.00080991554, -1326238.6, -2586.126 
9.50541e+1, 1.7492124e+2, -1228533.8, -1362468.1, -635.9411, 0.0002556362, -0.0021235587, -1228530.6, -2758.9915 
9.5054144e+1, 1.8490846e+2, -1139849.5, -1283300.5, -604.3176, -0.00067509455, -0.0014397705, -1139847.0, -11949.971 
9.505421e+1, 1.9489506e+2, -1041841.06, -1185380.6, -530.58466, -0.0009639863, 0.0010501912, -1041839.06, -11810.72 
9.505428e+1, 2.0488094e+2, -953361.2, -1107535.5, -466.71878, -0.00016597814, 0.0016142782, -953359.8, -21192.914 
9.5054376e+1, 2.1486606e+2, -854732.44, -1009314.6, -521.108, 0.0017705791, -0.001872165, -854730.6, -20418.08 
9.505444e+1, 2.2485055e+2, -766181.3, -930759.7, -583.2207, 0.0013664198, -0.0015139572, -766179.25, -29714.656 
9.5054483e+1, 2.348344e+2, -668923.3, -833073.75, -580.9894, -0.0015174497, 0.0006038657, -668921.25, -30298.371 
9.5054567e+1, 2.4481755e+2, -580328.1, -754591.44, -452.64664, -0.0017691827, 0.0011832981, -580326.94, -39538.96 
9.5054686e+1, 2.5480002e+2, -481310.78, -655956.1, -447.2235, 0.00078365894, -0.0018736817, -481309.66, -38349.816 
9.505481e+1, 2.647818e+2, -392815.38, -578276.4, -345.11896, 0.0018029105, -0.0016121669, -392814.75, -47676.336 
9.5054924e+1, 2.747629e+2, -294738.16, -480009.28, -284.1126, 0.0011616668, 0.000030740077, -294737.72, -47414.152 
9.505503e+1, 2.8474328e+2, -206671.69, -402482.03, -294.1426, -0.00049064733, 0.0009679026, -206671.25, -57155.465 
9.5055115e+1, 2.9472297e+2, -108340.016, -304065.75, -330.79456, -0.0032693169, -0.0013756147, -108339.45, -56624.52 
9.50553e+1, 3.0470538e+2, -20630.178, -175083.64, 75.868126, -0.00034430894, -0.0008678184, -20630.14, -20630.14 
9.5055604e+1, 3.1469062e+2, -20761.588, -174831.3, 211.21779, 0.009019692, 0.0007496635, -20761.299, -20761.299 
9.5055634e+1, 3.246803e+2, 45091.605, -42444.07, 125.45835, -0.005257241, -0.0019586764, 45091.785, 45091.785 
1.05058216e+2, 3.5029766e+1, -2536912.5, -2602061.0, 77.408646, -0.0012856171, 0.0018240298, -2536912.3, 59796.0 
1.0505844e+2, 4.5026135e+1, -2446159.0, -2517919.8, -159.56204, 0.0024083105, -0.0048679435, -2446158.8, 52585.12 
1.05058566e+2, 5.5022174e+1, -2347529.8, -2419883.0, -224.89494, -0.0011894648, 0.00017583166, -2347529.3, 53253.56 
1.0505872e+2, 6.501746e+1, -2259258.0, -2342030.0, -247.07956, -0.0011244258, 0.0021516392, -2259257.3, 43571.563 
1.0505892e+2, 7.5012034e+1, -2161634.3, -2244411.8, -275.4041, 0.0025467144, -0.0007979824, -2161633.3, 43248.77 
1.0505904e+2, 8.500595e+1, -2072837.9, -2165440.5, -588.4046, 0.001766779, -0.00085195247, -2072834.1, 34107.563 
1.0505908e+2, 9.4999236e+1, -1974251.0, -2067308.6, -657.2082, -0.0034440598, -0.000017025646, -1974246.4, 34761.09 
1.050592e+2, 1.04991816e+2, -1886001.3, -1989378.9, -527.49243, -0.0028170047, 0.00062673073, -1885998.6, 25081.613 
1.05059385e+2, 1.1498369e+2, -1788491.1, -1891761.3, -454.33884, 0.0036553121, -0.0008406054, -1788489.1, 24670.605 
1.0505948e+2, 1.2497492e+2, -1699851.0, -1812984.3, -707.0705, 0.003628932, -0.00065800385, -1699846.5, 15399.219 
1.05059475e+2, 1.349655e+2, -1601353.3, -1714840.0, -723.00183, -0.0029458257, -0.0007788045, -1601348.8, 15989.435 
1.05059534e+2, 1.449554e+2, -1512811.0, -1636369.4, -626.6995, -0.003568616, 0.00024017633, -1512807.9, 6629.272 
1.05059676e+2, 1.5494463e+2, -1415158.8, -1538617.4, -689.90607, 0.0018525742, 0.0003470781, -1415154.9, 6387.6865 
1.0505976e+2, 1.6493317e+2, -1326685.8, -1460291.3, -757.58, 0.0029039201, 0.0002952418, -1326681.4, -3026.5479 
1.05059795e+2, 1.7492104e+2, -1228345.0, -1362173.9, -591.4642, -0.0005186806, -0.0020434118, -1228342.4, -2568.5486 
1.0505984e+2, 1.8490826e+2, -1139607.1, -1283399.9, -607.0194, -0.0016405275, -0.0011381027, -1139604.5, -11705.405 
1.05059914e+2, 1.9489482e+2, -1041650.4, -1185519.1, -817.69745, -0.00037477195, 0.0011905358, -1041645.75, -11615.056 
1.05059996e+2, 2.0488068e+2, -953349.06, -1107421.4, -728.9884, 0.0006402526, 0.0016149526, -953345.6, -21176.328 
1.0506011e+2, 2.1486583e+2, -855359.1, -1009521.6, -603.3506, 0.001396719, -0.0019833017, -855356.8, -21041.893 
1.05060175e+2, 2.2485033e+2, -766660.44, -930925.75, -700.3385, 0.00075064105, -0.0015737726, -766657.44, -30190.633 
1.05060205e+2, 2.3483418e+2, -668270.8, -832718.56, -677.4559, -0.0013862209, 0.000764607, -668268.06, -29642.986 
1.05060294e+2, 2.4481732e+2, -579688.8, -754432.06, -429.56445, -0.0013635703, 0.0013665546, -579687.75, -38897.52 
1.0506045e+2, 2.5479975e+2, -481491.38, -656216.06, -565.56537, 0.00097094115, -0.0018759931, -481489.56, -38527.258 
1.0506058e+2, 2.6478153e+2, -393236.03, -578186.9, -688.8469, 0.0017182118, -0.0017230104, -393233.47, -48092.59 
1.0506067e+2, 2.7476266e+2, -295384.6, -480009.22, -569.94073, 0.000747177, -0.00011248514, -295382.84, -48057.05 
1.05060786e+2, 2.8474307e+2, -207193.72, -402901.38, -366.00208, -0.0007816912, 0.000994989, -207193.03, -57675.082 
1.0506091e+2, 2.947227e+2, -107783.69, -303962.63, -467.72202, -0.0029398003, -0.00095839554, -107782.58, -56065.34 
1.0506109e+2, 3.0470514e+2, -19939.86, -174733.97, -599.2489, 0.00006400534, -0.0005068133, -19937.541, -19937.541 
1.0506132e+2, 3.1469038e+2, -21322.64, -175055.48, -728.2826, 0.008901529, 0.0005412481, -21319.191, -21319.191 
1.0506151e+2, 3.246801e+2, 44360.605, -42457.086, 603.4726, -0.0056201196, -0.00050323305, 44364.8, 44364.8 
1.150638e+2, 3.5029542e+1, -2536838.8, -2601917.5, -455.4734, -0.0015489609, -0.0007974834, -2536835.5, 59874.91 
1.1506399e+2, 4.502598e+1, -2446274.5, -2518147.5, 44.4655, 0.0020825418, 0.00035226575, -2446274.5, 52470.855 
1.1506418e+2, 5.5021936e+1, -2347654.0, -2420111.3, -20.810925, -0.00007825637, -0.0019615754, -2347654.0, 53130.996 
1.1506435e+2, 6.5017205e+1, -2259302.5, -2342145.3, -311.6531, -0.00070472946, -0.0012445864, -2259301.3, 43530.16 
1.1506451e+2, 7.501181e+1, -2161680.8, -2244516.8, -338.18036, 0.00016271918, 0.0005961142, -2161679.3, 43204.94 
1.1506465e+2, 8.500571e+1, -2072958.1, -2165722.5, -414.31067, 0.00033719753, 0.0009913814, -2072956.3, 33987.73 
1.1506479e+2, 9.499895e+1, -1974382.5, -2067588.3, -482.09363, -0.00016913502, -0.0020480808, -1974380.0, 34630.3 
1.15064904e+2, 1.04991525e+2, -1885876.1, -1989095.6, -640.46735, -0.00015225212, -0.0019485018, -1885872.1, 25210.898 
1.1506501e+2, 1.14983454e+2, -1788361.3, -1891476.4, -567.30615, 0.0003817297, -0.0006074475, -1788358.1, 24804.115 
1.15065105e+2, 1.2497469e+2, -1699894.5, -1813039.4, -569.7002, 0.00017761043, 0.0007847319, -1699891.6, 15356.355 
1.1506518e+2, 1.3496526e+2, -1601401.8, -1714896.5, -584.21277, -0.0007730031, 0.00025417257, -1601398.8, 15941.679 
1.1506526e+2, 1.4495514e+2, -1512925.5, -1636635.6, -708.38586, -0.0004197184, -0.0002060201, -1512921.4, 6518.245 
1.1506534e+2, 1.5494432e+2, -1415266.6, -1538886.4, -770.72253, 0.0012577345, -0.002656564, -1415261.9, 6283.701 
1.15065426e+2, 1.6493289e+2, -1326402.9, -1459617.9, -669.3632, 0.0009559564, -0.0017280383, -1326399.5, -2741.9111 
1.15065485e+2, 1.7492084e+2, -1228051.0, -1361509.5, -505.00363, -0.0013679217, 0.00053791114, -1228049.0, -2273.3352 
1.1506555e+2, 1.8490805e+2, -1140011.1, -1284201.5, -619.27673, -0.0011545642, 0.0011753687, -1140008.5, -12107.38 
1.1506564e+2, 1.9489452e+2, -1042052.5, -1186336.3, -826.798, 0.0016868209, -0.0018105236, -1042047.8, -12014.099 
1.1506571e+2, 2.0488036e+2, -953119.75, -1106963.4, -730.9745, 0.0015815002, -0.0016149415, -953116.25, -20943.84 
1.1506578e+2, 2.1486558e+2, -855125.0, -1009048.9, -606.4538, -0.0016052311, -0.0001312328, -855122.6, -20805.395 
1.15065865e+2, 2.2485012e+2, -766602.1, -930841.7, -620.401, -0.001681007, 0.0008177876, -766599.75, -30130.838 
1.1506597e+2, 2.3483393e+2, -668224.0, -832628.56, -596.67346, 0.0015332025, -0.001108888, -668221.8, -29594.34 
1.1506608e+2, 2.4481705e+2, -579917.25, -755004.44, -417.2781, 0.001975393, -0.0008502542, -579916.25, -39123.445 
1.15066186e+2, 2.547995e+2, -481742.75, -656785.5, -551.05, -0.0005653469, -0.00023432352, -481741.0, -38776.07 
1.1506629e+2, 2.6478127e+2, -393000.72, -577752.56, -780.3335, -0.001199263, 0.00059810356, -392997.44, -47853.95 
1.1506639e+2, 2.7476242e+2, -295125.22, -479550.44, -666.34973, 0.00024220743, -0.00056383736, -295122.8, -47794.508 
1.15066536e+2, 2.847428e+2, -207353.7, -403282.63, -84.09975, 0.00047971282, -0.0003460107, -207353.67, -57833.168 
1.1506676e+2, 2.9472244e+2, -107964.31, -304374.84, -174.36041, -0.00063436944, -0.001113652, -107964.16, -56244.195 
1.1506691e+2, 3.0470487e+2, -20189.639, -175177.02, -981.7559, 0.0002524077, 0.00043956493, -20183.422, -20183.422 
1.15066975e+2, 3.1469005e+2, -21536.594, -175508.25, -1131.1318, 0.0034400527, 0.0025066782, -21528.285, -21528.285 
1.15067385e+2, 3.2467976e+2, 44281.26, -42648.84, 2125.8384, -0.0027939319, 0.00086345087, 44333.215, 44333.215 
1.2506941e+2, 3.5029343e+1, -2536990.0, -2602102.8, -623.5175, -0.00051459036, -0.00039327188, -2536984.0, 59728.465 
1.2506954e+2, 4.5025757e+1, -2445477.5, -2518019.0, 10.087644, 0.00010040501, -0.00013538553, -2445477.5, 53270.066 
1.250698e+2, 5.502169e+1, -2347699.8, -2420409.0, -115.67772, 0.0008539503, -0.0016696283, -2347699.5, 53087.844 
1.2506999e+2, 6.5016955e+1, -2259246.5, -2342061.5, -464.26373, 0.00037669062, -0.0009782903, -2259243.8, 43590.055 
1.2507012e+2, 7.501155e+1, -2160951.3, -2244116.8, -408.96924, -0.0013524396, 0.000049566377, -2160949.3, 43937.6 
1.2507029e+2, 8.5005456e+1, -2072466.4, -2165613.0, -386.58887, -0.00087408617, 0.00046036902, -2072464.8, 34481.703 
1.2507047e+2, 9.499868e+1, -1974770.4, -2067919.9, -410.39224, 0.0018059864, -0.0017392931, -1974768.5, 34244.336 
1.2507059e+2, 1.0499126e+2, -1886220.3, -1989235.8, -679.52124, 0.0015047909, -0.0014728333, -1886215.8, 24869.926 
1.2507065e+2, 1.14983186e+2, -1787984.8, -1891257.4, -719.19214, -0.0017817107, -0.00063961156, -1787979.6, 25185.111 
1.2507075e+2, 1.2497443e+2, -1699484.5, -1812856.3, -685.2124, -0.0018840613, 0.0004882851, -1699480.4, 15770.281 
1.2507088e+2, 1.34965e+2, -1601562.3, -1715008.4, -677.1612, 0.0012197327, -0.00006309837, -1601558.1, 15784.909 
1.2507097e+2, 1.4495486e+2, -1513098.9, -1636643.6, -784.6917, 0.0017749547, -0.00036972898, -1513093.9, 6348.383 
1.2507102e+2, 1.5494408e+2, -1414929.3, -1538624.5, -684.8294, -0.00025891632, -0.0024865167, -1414925.5, 6622.6445 
1.250711e+2, 1.6493264e+2, -1326183.9, -1459683.0, -687.44104, -0.0010137091, -0.0013945488, -1326180.4, -2520.166 
1.2507118e+2, 1.7492056e+2, -1228328.9, -1361841.1, -972.4341, -0.00045044752, 0.00085973274, -1228321.9, -2543.402 
1.2507127e+2, 1.8490776e+2, -1140181.4, -1284155.3, -1054.2888, 0.00032509805, 0.0011892531, -1140173.6, -12269.8125 
1.2507135e+2, 1.9489424e+2, -1041871.5, -1186114.1, -761.0342, 0.0013208345, -0.0024095192, -1041867.5, -11831.093 
1.2507142e+2, 2.048801e+2, -952956.4, -1106893.6, -597.14954, 0.00070107053, -0.0020426256, -952954.06, -20779.02 
1.2507148e+2, 2.1486533e+2, -855197.8, -1009079.75, -720.2796, -0.0016117278, 0.00043153652, -855194.44, -20874.625 
1.2507159e+2, 2.2484984e+2, -766778.94, -930981.6, -778.71625, -0.0013424188, 0.0013470618, -766775.25, -30303.738 
1.250717e+2, 2.3483364e+2, -668268.5, -832723.7, -850.30255, 0.0016537883, -0.0016831291, -668264.06, -29633.824 
1.2507182e+2, 2.4481677e+2, -580006.9, -754821.7, -676.5497, 0.0019980555, -0.0015065908, -580004.25, -39208.65 
1.2507193e+2, 2.5479925e+2, -482274.9, -656867.0, -418.3562, -0.000506754, 0.000119160024, -482273.88, -39306.457 
1.2507203e+2, 2.6478103e+2, -393376.13, -578170.7, -495.1389, -0.0013900837, 0.0012619633, -393374.8, -48228.824 
1.2507214e+2, 2.7476215e+2, -294030.22, -479269.03, -800.0822, -0.00051070715, -0.00034408004, -294026.78, -46695.684 
1.2507232e+2, 2.847425e+2, -206305.23, -402724.47, -416.2359, 0.00051957864, -0.00066648086, -206304.36, -56780.918 
1.2507257e+2, 2.9472214e+2, -109009.98, -304817.84, -292.84955, 0.0016951539, -0.0020794917, -109009.54, -57286.613 
1.2507269e+2, 3.0470452e+2, -21279.363, -176297.28, -1084.15, 0.00032869808, 0.00035941915, -21271.781, -21271.781 
1.2507269e+2, 3.1468973e+2, -19677.85, -175229.83, -1387.8794, -0.0038147357, 0.0050206613, -19665.467, -19665.467 
1.2507325e+2, 3.2467932e+2, 43286.887, -43519.125, 2017.8412, 0.0021755775, -0.00040523589, 43333.766, 43333.766 
1.3507502e+2, 3.5029167e+1, -2537221.3, -2602533.0, -398.56006, 0.0017597488, 0.0029597525, -2537218.8, 59495.395 
1.3507514e+2, 4.502546e+1, -2445702.8, -2518480.3, -6.9653416, -0.0035035007, -0.0061410796, -2445702.8, 53047.83 
1.3507542e+2, 5.502145e+1, -2347926.5, -2420875.0, -129.40208, 0.0015818252, 0.0009913414, -2347926.3, 52863.65 
1.3507564e+2, 6.501671e+1, -2259138.3, -2341839.0, -356.72983, 0.0020683247, 0.0028591403, -2259136.5, 43699.65 
1.3507578e+2, 7.501127e+1, -2160842.0, -2243901.0, -302.4994, -0.0020404356, -0.0023865176, -2160841.0, 44048.64 
1.3507594e+2, 8.500517e+1, -2072510.5, -2165716.5, -442.721, -0.0018986816, -0.0023844582, -2072508.4, 34440.902 
1.3507612e+2, 9.4998443e+1, -1974814.5, -2068020.8, -465.25568, 0.0024883186, 0.0008490759, -1974812.3, 34203.043 
1.3507625e+2, 1.0499101e+2, -1886284.9, -1989411.6, -606.8387, 0.0021649087, 0.0019708332, -1886281.4, 24806.693 
1.3507631e+2, 1.14982896e+2, -1788055.3, -1891427.5, -645.3402, -0.0028857514, -0.0009337062, -1788051.1, 25116.436 
1.3507642e+2, 1.24974124e+2, -1699461.9, -1812847.9, -697.14886, -0.0026164402, -0.0015024312, -1699457.6, 15796.0205 
1.3507658e+2, 1.3496469e+2, -1601547.4, -1714993.1, -688.53796, 0.0030203273, -0.0016979642, -1601543.3, 15802.8125 
1.3507667e+2, 1.449546e+2, -1512891.6, -1636283.4, -733.77185, 0.0030245997, -0.00026361446, -1512887.3, 6557.638 
1.3507669e+2, 1.5494385e+2, -1414732.4, -1538250.4, -634.7542, -0.0026953856, 0.0007688279, -1414729.1, 6821.1216 
1.3507676e+2, 1.6493239e+2, -1326716.3, -1460792.4, -732.8458, -0.0030229033, 0.0012335033, -1326712.3, -3049.6577 
1.3507691e+2, 1.749202e+2, -1228881.8, -1362940.0, -1012.39087, 0.002171515, -0.0010183634, -1228874.1, -3092.1096 
1.35077e+2, 1.8490739e+2, -1139632.6, -1283038.6, -972.1731, 0.002756927, -0.0010339364, -1139626.1, -11718.606 
1.3507704e+2, 1.9489399e+2, -1041312.8, -1184984.5, -682.0122, -0.0014231158, -0.0006741379, -1041309.56, -11270.685 
1.350771e+2, 2.0487987e+2, -953188.3, -1107364.3, -661.0465, -0.001968919, 0.0002556528, -953185.44, -21008.21 
1.3507721e+2, 2.1486503e+2, -855433.7, -1009566.4, -783.3939, 0.0012860766, -0.00026242906, -855429.7, -21107.086 
1.3507731e+2, 2.2484952e+2, -766919.8, -931270.1, -667.7363, 0.001674938, 0.000065055196, -766917.1, -30442.475 
1.3507742e+2, 2.3483333e+2, -668422.9, -833002.9, -734.55914, -0.00096535735, -0.000998734, -668419.6, -29786.232 
1.3507754e+2, 2.4481648e+2, -579530.6, -753863.94, -785.44556, -0.0012191829, -0.0006464814, -579527.06, -38728.598 
1.3507766e+2, 2.54799e+2, -481794.6, -655866.1, -535.0748, 0.0010807007, -0.000784901, -481792.94, -38823.17 
1.3507777e+2, 2.6478076e+2, -393908.8, -579299.4, -218.83116, 0.0010469343, 0.00030807944, -393908.56, -48760.2 
1.3507794e+2, 2.747618e+2, -294598.4, -480446.13, -509.4061, -0.0015219452, 0.0005227493, -294597.0, -47262.906 
1.3507813e+2, 2.8474215e+2, -206103.73, -402336.94, -652.3806, -0.000642889, 0.0000042682227, -206101.56, -56574.813 
1.3507834e+2, 2.9472184e+2, -108788.7, -304369.3, -543.91266, 0.0040162364, -0.0038337046, -108787.19, -57061.05 
1.3507845e+2, 3.047042e+2, -21766.197, -177300.95, -729.86676, 0.0002678261, -0.0007240206, -21762.771, -21762.771 
1.3507845e+2, 3.1468934e+2, -20196.758, -176258.34, -1011.3611, -0.01283411, 0.0080592455, -20190.205, -20190.205 
1.350791e+2, 3.246788e+2, 42868.56, -44295.695, 1124.0546, 0.009173867, -0.0042311843, 42883.055, 42883.055 
1.450806e+2, 3.5028905e+1, -2537675.8, -2602813.3, -140.38885, 0.0030162518, 0.002867572, -2537675.3, 59041.42 
1.4508078e+2, 4.5025188e+1, -2444691.0, -2518067.0, -337.18826, -0.0046588737, -0.0060964315, -2444689.5, 54063.777 
1.4508104e+2, 5.502117e+1, -2347364.8, -2420697.3, -296.65866, 0.0006314106, 0.0012281027, -2347363.5, 53428.98 
1.4508127e+2, 6.5016425e+1, -2258956.3, -2341869.8, -393.70248, 0.0019766975, 0.0031299083, -2258954.3, 43884.72 
1.4508143e+2, 7.501096e+1, -2161008.8, -2244094.3, -517.8256, -0.000625943, -0.0022413842, -2161005.5, 43886.89 
1.4508161e+2, 8.5004866e+1, -2072569.5, -2165680.3, -772.2093, -0.0010227627, -0.0023171525, -2072563.0, 34389.22 
1.4508177e+2, 9.499815e+1, -1974531.4, -2067808.0, -702.92065, 0.0007820622, 0.00088837266, -1974526.0, 34492.113 
1.450819e+2, 1.0499072e+2, -1885981.3, -1989305.1, -711.74023, 0.0007379401, 0.0020018558, -1885976.4, 25114.633 
1.4508201e+2, 1.1498259e+2, -1787812.8, -1891377.5, -722.28406, -0.0011599674, -0.0008852093, -1787807.8, 25362.82 
1.4508212e+2, 1.2497381e+2, -1699330.9, -1812780.8, -874.0007, -0.0008808853, -0.0014293378, -1699324.1, 15932.449 
1.4508225e+2, 1.3496439e+2, -1601605.0, -1715040.5, -892.2002, 0.0015931542, -0.0015908866, -1601597.9, 15751.128 
1.4508234e+2, 1.4495428e+2, -1513045.4, -1636385.5, -961.5893, 0.0012942574, -0.000096542, -1513037.9, 6410.086 
1.450824e+2, 1.5494354e+2, -1414721.0, -1538317.5, -1104.2817, -0.0018233262, 0.0010225853, -1414711.1, 6842.193 
1.4508249e+2, 1.6493207e+2, -1326512.4, -1460577.4, -1123.6378, -0.0016174528, 0.0011879145, -1326503.0, -2837.2656 
1.450826e+2, 1.7491987e+2, -1228616.0, -1362711.0, -782.0273, 0.0019925314, -0.0017562737, -1228611.5, -2826.3086 
1.4508267e+2, 1.849071e+2, -1139640.5, -1283095.5, -660.92535, 0.0019828258, -0.0014375441, -1139637.4, -11726.882 
1.4508273e+2, 1.9489367e+2, -1041701.56, -1185224.5, -989.1817, -0.0017758083, 0.00031664065, -1041694.75, -11652.899 
1.4508283e+2, 2.0487957e+2, -953457.25, -1107513.4, -1189.4297, -0.0018596698, 0.0011149893, -953448.06, -21267.785 
1.4508294e+2, 2.1486472e+2, -855115.06, -1009427.75, -1087.9246, 0.0019040238, -0.0011303801, -855107.4, -20781.574 
1.4508304e+2, 2.248492e+2, -766639.2, -931020.1, -771.4443, 0.0021026, -0.0008778312, -766635.56, -30157.732 
1.4508313e+2, 2.3483302e+2, -669029.2, -833188.7, -623.1171, -0.0014740227, -0.00026546614, -669026.8, -30390.486 
1.4508323e+2, 2.4481618e+2, -580119.44, -754230.1, -776.40155, -0.0017838484, 0.00025357844, -580116.0, -39314.605 
1.4508337e+2, 2.5479868e+2, -481196.1, -655660.9, -1068.1152, 0.001399901, -0.0013410257, -481189.56, -38216.67 
1.4508353e+2, 2.6478046e+2, -393359.06, -578880.5, -676.2951, 0.0014362859, -0.0006018103, -393356.6, -48205.16 
1.450837e+2, 2.7476153e+2, -295723.8, -480857.0, -261.9216, -0.0019475304, 0.0004599035, -295723.44, -48386.492 
1.4508387e+2, 2.8474188e+2, -207472.66, -402964.97, -234.75468, -0.0008770293, 0.0003829773, -207472.38, -57942.918 
1.4508411e+2, 2.9472154e+2, -108548.625, -304252.2, -333.02164, 0.005084755, -0.0034643023, -108548.06, -56819.26 
1.4508426e+2, 3.0470392e+2, -20770.95, -177076.52, -23.08744, 0.0005094993, -0.0013256833, -20770.945, -20770.945 
1.4508434e+2, 3.1468898e+2, -18924.293, -175918.83, 62.343582, -0.015809039, 0.005412984, -18924.268, -18924.268 
1.4508486e+2, 3.246785e+2, 40970.203, -45065.105, 329.4413, 0.011198065, -0.004628952, 40971.465, 40971.465 
1.5508616e+2, 3.502855e+1, -2537545.3, -2602610.0, 964.1492, 0.0032474375, -0.00056290015, -2537531.0, 59189.367 
1.5508649e+2, 4.502494e+1, -2444604.0, -2517902.5, -473.95227, -0.0034398038, -0.00019721434, -2444601.0, 54154.727 
1.5508668e+2, 5.5020857e+1, -2347277.5, -2420522.0, -430.6319, -0.0019676087, -0.0008835842, -2347275.0, 53520.56 
1.550869e+2, 6.5016085e+1, -2259208.0, -2342332.8, -374.61075, 0.00012986151, -0.000055594523, -2259206.3, 43636.17 
1.5508713e+2, 7.501066e+1, -2161252.8, -2244562.0, -495.9137, 0.0028115083, 0.00040133143, -2161249.8, 43645.86 
1.5508729e+2, 8.5004556e+1, -2072444.6, -2165403.8, -734.7371, 0.0016738715, 0.0005680292, -2072438.9, 34516.53 
1.5508738e+2, 9.4997805e+1, -1974410.3, -2067530.6, -666.758, -0.0032626833, -0.0015535762, -1974405.5, 34616.03 
1.5508755e+2, 1.0499037e+2, -1885991.8, -1989372.3, -659.5318, -0.0027248713, -0.0012770233, -1885987.6, 25106.773 
1.5508775e+2, 1.1498228e+2, -1787834.8, -1891437.4, -668.61224, 0.0032928782, -0.0005080766, -1787830.5, 25343.205 
1.5508786e+2, 1.24973506e+2, -1699363.1, -1812872.0, -938.1051, 0.0032259878, 0.0006402465, -1699355.4, 15904.274 
1.5508787e+2, 1.3496406e+2, -1601640.9, -1715117.0, -955.8519, -0.002975986, 0.0001964462, -1601632.8, 15719.393 
1.5508796e+2, 1.4495394e+2, -1513302.1, -1636958.6, -873.07825, -0.0033382494, 0.000125421, -1513295.9, 6155.514 
1.5508816e+2, 1.5494311e+2, -1414999.9, -1538883.3, -1011.4414, 0.0022311353, -0.0016373238, -1414991.6, 6565.788 
1.5508825e+2, 1.6493167e+2, -1325865.6, -1459273.0, -1151.2046, 0.0030784179, -0.0014515369, -1325855.8, -2186.2126 
1.5508828e+2, 1.7491962e+2, -1227973.0, -1361376.8, -815.77856, -0.0009117132, -0.001393899, -1227968.0, -2180.26 
1.5508834e+2, 1.8490683e+2, -1140252.6, -1284353.9, -682.88416, -0.001915956, -0.000082761326, -1140249.5, -12336.389 
1.5508844e+2, 1.9489333e+2, -1042332.0, -1186499.8, -1004.56024, 0.00017044104, 0.0005823923, -1042325.0, -12279.6455 
1.5508854e+2, 2.0487916e+2, -953282.56, -1107142.3, -1095.8845, 0.0009301715, 0.00057834474, -953274.75, -21090.535 
1.5508863e+2, 2.1486433e+2, -854950.06, -1009022.56, -993.92145, 0.00030056742, -0.0021694622, -854943.6, -20614.152 
1.5508875e+2, 2.2484887e+2, -766384.94, -930456.6, -887.3471, 0.0000028215486, -0.0014918584, -766380.2, -29899.006 
1.5508884e+2, 2.3483273e+2, -668757.44, -832629.75, -744.4285, 0.0000491835, 0.000515588, -668754.06, -30114.953 
1.5508896e+2, 2.4481589e+2, -580658.06, -755317.56, -587.152, 0.00020535922, 0.0011921059, -580656.06, -39851.73 
1.5508913e+2, 2.547983e+2, -481757.8, -656782.3, -867.21484, 0.000474357, -0.0015625079, -481753.5, -38776.79 
1.5508927e+2, 2.647801e+2, -392641.56, -577349.9, -818.46564, -0.0001756297, -0.0014716109, -392637.94, -47482.72 
1.5508942e+2, 2.7476126e+2, -294981.94, -479249.8, -418.01294, -0.0018235887, -0.0005070703, -294981.0, -47641.367 
1.5508962e+2, 2.8474167e+2, -207598.77, -403276.3, -85.84171, -0.00022818797, 0.00047260683, -207598.73, -58067.164 
1.5508986e+2, 2.947213e+2, -108722.89, -304598.8, -172.79587, 0.0049204906, -0.0010408735, -108722.734, -56991.805 
1.5509011e+2, 3.0470368e+2, -20655.545, -176763.03, 410.91547, 0.0010250803, -0.0014577932, -20654.465, -20654.465 
1.5509032e+2, 3.1468868e+2, -18821.127, -175583.67, 509.66525, -0.012938407, -0.0027507187, -18819.47, -18819.47 
1.5509047e+2, 3.2467833e+2, 41551.24, -43855.184, -2509.8862, 0.008387359, -0.001731137, 41624.934, 41624.934 
1.6509175e+2, 3.5028163e+1, -2536004.3, -2601825.0, 723.868, 0.00031575543, -0.0004971465, -2535996.3, 60727.68 
1.6509217e+2, 4.5024586e+1, -2445872.5, -2518241.5, -918.8637, 0.00021553955, 0.0014335908, -2445860.8, 52898.215 
1.6509233e+2, 5.5020505e+1, -2347556.3, -2420368.3, -787.6645, -0.0014273821, -0.0014177479, -2347547.8, 53251.313 
1.6509253e+2, 6.5015745e+1, -2259005.3, -2342226.3, -505.9051, -0.0007572564, -0.0010782256, -2259002.0, 43843.637 
1.650928e+2, 7.501033e+1, -2160825.0, -2244328.5, -371.86783, 0.0021726359, 0.0005606007, -2160823.5, 44075.4 
1.6509296e+2, 8.500423e+1, -2072064.5, -2165325.3, -619.62537, 0.0015365541, 0.0010195056, -2072060.4, 34898.184 
1.6509308e+2, 9.499746e+1, -1974185.9, -2067538.8, -754.2051, -0.0026475645, -0.0016946414, -1974179.8, 34845.1 
1.6509323e+2, 1.0499002e+2, -1885953.9, -1989291.4, -829.1796, -0.0022121493, -0.0016674459, -1885947.3, 25150.541 
1.6509344e+2, 1.14981934e+2, -1788112.4, -1891526.6, -795.37103, 0.0028492939, -0.0008089907, -1788106.3, 25070.86 
1.6509354e+2, 1.2497316e+2, -1699476.8, -1812961.1, -1014.68665, 0.0026535161, 0.000560997, -1699467.6, 15795.376 
1.6509359e+2, 1.3496372e+2, -1600982.0, -1714837.8, -1028.717, -0.0028486014, 0.00047040265, -1600972.6, 16382.84 
1.6509368e+2, 1.4495358e+2, -1512712.8, -1636625.6, -878.6718, -0.002881011, 0.0002100256, -1512706.5, 6748.325 
1.6509384e+2, 1.5494277e+2, -1415398.6, -1539060.9, -722.2396, 0.002647141, -0.0022963558, -1415394.4, 6166.4727 
1.6509393e+2, 1.6493133e+2, -1326460.9, -1459589.0, -942.4326, 0.0030351242, -0.0018488425, -1326454.1, -2781.1997 
1.6509396e+2, 1.7491926e+2, -1227862.4, -1361345.3, -1291.3953, -0.0018452622, -0.00049932156, -1227849.9, -2058.809 
1.6509403e+2, 1.8490648e+2, -1139870.8, -1284169.5, -1301.0355, -0.0024433979, 0.0006033004, -1139859.0, -11942.568 
1.6509417e+2, 1.9489297e+2, -1042163.7, -1186432.6, -983.834, 0.0013906347, -0.0004896565, -1042157.0, -12108.095 
1.6509426e+2, 2.0487879e+2, -953393.8, -1107142.6, -739.9441, 0.0019843024, -0.00047702668, -953390.25, -21202.523 
1.6509435e+2, 2.14864e+2, -855369.56, -1009210.94, -813.24506, -0.0008088461, -0.0013457591, -855365.25, -21032.467 
1.6509444e+2, 2.2484852e+2, -766671.75, -930608.5, -1007.8646, -0.0012514485, -0.00046643292, -766665.56, -30181.102 
1.6509454e+2, 2.3483238e+2, -668344.3, -832431.8, -1156.0056, 0.00078307086, -0.000043110518, -668336.1, -29693.576 
1.6509467e+2, 2.4481554e+2, -580371.94, -755116.56, -787.9495, 0.0012194093, 0.00045111575, -580368.4, -39560.62 
1.6509484e+2, 2.5479797e+2, -482706.34, -657163.0, -438.9929, -0.00006215874, -0.0009743265, -482705.22, -39725.297 
1.6509499e+2, 2.6477975e+2, -393637.56, -577730.25, -431.9311, -0.00069985184, -0.0008060691, -393636.56, -48478.227 
1.6509515e+2, 2.7476093e+2, -294737.16, -479046.13, -755.8904, -0.0006338441, -0.0011312468, -294734.06, -47391.285 
1.6509534e+2, 2.8474137e+2, -207163.97, -402788.75, -630.3786, 0.00026153485, -0.00015883408, -207161.94, -57627.383 
1.6509557e+2, 2.9472107e+2, -109264.73, -304610.94, -393.47455, 0.0020493735, -0.00026570554, -109263.94, -57530.36 
1.6509585e+2, 3.0470344e+2, -22071.234, -176626.64, 744.48956, 0.0006068632, -0.0010798194, -22067.648, -22067.648 
1.6509624e+2, 3.1468853e+2, -21766.96, -176155.81, 1229.7471, -0.004392282, -0.00480085, -21757.166, -21757.166 
1.6509613e+2, 3.2467824e+2, 43745.258, -42348.395, -3131.973, 0.0024140496, -0.0016190477, 43859.043, 43859.043 
1.7509735e+2, 3.502776e+1, -2536064.8, -2601919.5, 63.168907, -0.005709863, 0.0029410734, -2536064.8, 60663.26 
1.7509781e+2, 4.5024136e+1, -2445609.3, -2517706.3, -787.8009, 0.0062044105, -0.0010650334, -2445600.8, 53162.8 
1.7509799e+2, 5.5020124e+1, -2347283.3, -2419832.0, -658.23804, 0.002113746, -0.00043244765, -2347277.3, 53525.516 
1.750982e+2, 6.5015405e+1, -2258738.5, -2341687.3, -423.3017, -0.00074004964, -0.000013453644, -2258736.5, 44112.61 
1.7509842e+2, 7.500999e+1, -2160571.3, -2243798.5, -292.27786, -0.002415539, -0.001680794, -2160570.3, 44331.87 
1.7509861e+2, 8.500389e+1, -2072329.5, -2165857.3, -627.8485, -0.0013532679, -0.0008797917, -2072325.3, 34636.563 
1.7509882e+2, 9.4997126e+1, -1974447.9, -2068058.3, -758.8957, 0.0024406305, 0.0003761558, -1974441.8, 34586.414 
1.7509896e+2, 1.0498968e+2, -1885862.6, -1989192.8, -858.8285, 0.0021220108, 0.0007192618, -1885855.5, 25245.71 
1.7509905e+2, 1.1498156e+2, -1788040.1, -1891415.0, -826.0241, -0.002330028, -0.0017666258, -1788033.5, 25147.15 
1.7509918e+2, 1.2497278e+2, -1699509.1, -1813028.3, -881.1458, -0.0024517558, -0.0015972303, -1699502.3, 15764.454 
1.7509934e+2, 1.3496335e+2, -1601026.1, -1714901.3, -893.18274, 0.0017938507, -0.0007199273, -1601019.1, 16340.082 
1.7509945e+2, 1.4495325e+2, -1512426.5, -1636029.0, -1051.5668, 0.0024759015, 0.00015993934, -1512417.6, 7040.582 
1.7509949e+2, 1.5494247e+2, -1415107.9, -1538446.4, -899.3117, -0.0004601232, -0.0010286432, -1415101.3, 6462.3975 
1.7509957e+2, 1.6493101e+2, -1327120.1, -1460921.1, -794.29846, -0.0015999153, -0.00008944742, -1327115.4, -3439.4114 
1.7509969e+2, 1.7491888e+2, -1228539.5, -1362697.4, -1133.918, -0.0008918775, 0.00090139924, -1228529.9, -2734.7456 
1.7509979e+2, 1.8490607e+2, -1139300.3, -1282960.8, -1370.3048, 0.00026811476, 0.00063934526, -1139287.3, -11366.594 
1.7509986e+2, 1.9489262e+2, -1041586.5, -1185183.4, -1061.003, 0.0018893922, -0.0028577268, -1041578.6, -11526.194 
1.7509994e+2, 2.0487848e+2, -953526.06, -1107425.0, -741.864, 0.0013500956, -0.002034971, -953522.5, -21331.66 
1.7510003e+2, 2.1486369e+2, -855534.2, -1009494.0, -811.53204, -0.001458629, 0.0012692779, -855529.9, -21194.125 
1.7510015e+2, 2.248482e+2, -766952.2, -931189.8, -944.24316, -0.001709459, 0.0021345324, -766946.75, -30459.043 
1.7510027e+2, 2.3483197e+2, -668629.56, -833011.4, -1088.3446, 0.00074160454, -0.0018943085, -668622.3, -29975.69 
1.7510039e+2, 2.4481514e+2, -579751.94, -753814.0, -908.277, 0.0012809553, -0.0019105009, -579747.25, -38935.598 
1.751005e+2, 2.547977e+2, -482077.97, -655813.8, -568.7287, -0.00023958224, 0.00039319988, -482076.1, -39093.55 
1.7510068e+2, 2.647795e+2, -394207.84, -578928.25, -277.25217, -0.00018954555, 0.0013405367, -394207.44, -49046.617 
1.7510091e+2, 2.7476054e+2, -295350.3, -480291.75, -587.324, 0.0015685759, -0.0014264567, -295348.44, -48002.113 
1.7510109e+2, 2.8474095e+2, -206744.67, -401938.78, -720.9927, 0.00058030203, -0.0014870013, -206742.02, -57203.637 
1.7510122e+2, 2.9472074e+2, -108815.95, -303695.5, -494.56155, -0.0034533325, -0.0010728928, -108814.695, -57077.98 
1.7510155e+2, 3.047032e+2, -21237.17, -174821.94, 774.1407, -0.00073768204, -0.00020999632, -21233.268, -21233.268 
1.7510208e+2, 3.1468847e+2, -20942.254, -174342.52, 1260.6399, 0.009600832, -0.0009528364, -20931.895, -20931.895 
1.7510182e+2, 3.2467818e+2, 43720.8, -42410.0, -2645.4973, -0.006645192, -0.00416876, 43801.98, 43801.98 
1.8510303e+2, 3.5027426e+1, -2535734.8, -2602073.5, -4.6848664, -0.0061758333, 0.0023902103, -2535734.8, 60996.57 
1.851034e+2, 4.5023778e+1, -2445655.3, -2517760.5, 113.90465, 0.006890161, -0.0030092709, -2445655.0, 53111.91 
1.8510365e+2, 5.5019784e+1, -2346338.5, -2419415.8, -53.174034, 0.0021817982, 0.0000016321754, -2346338.5, 54467.664 
1.8510386e+2, 6.501506e+1, -2257951.3, -2341408.8, -462.22415, -0.0010126171, 0.0010214406, -2257948.5, 44903.82 
1.8510409e+2, 7.5009626e+1, -2160965.8, -2244114.3, -669.9538, -0.002750811, -0.0018043164, -2160960.3, 43945.336 
1.851043e+2, 8.5003525e+1, -2072754.4, -2166034.5, -837.5086, -0.0014133884, -0.0013409496, -2072746.9, 34218.55 
1.8510452e+2, 9.499676e+1, -1973876.4, -2067771.6, -695.24896, 0.002998472, 0.00039849716, -1973871.3, 35160.516 
1.8510465e+2, 1.0498931e+2, -1885145.9, -1988945.8, -943.4757, 0.0025004044, 0.0010844734, -1885137.3, 25967.428 
1.8510474e+2, 1.1498119e+2, -1787747.8, -1891393.8, -1062.0471, -0.0029299767, -0.0011997527, -1787736.9, 25447.434 
1.8510486e+2, 1.249724e+2, -1699547.1, -1812946.6, -994.8192, -0.0029420077, -0.0013665486, -1699538.4, 15731.994 
1.8510506e+2, 1.3496296e+2, -1601571.1, -1715075.6, -920.1606, 0.0025131982, -0.0013702196, -1601563.8, 15799.167 
1.8510516e+2, 1.4495286e+2, -1512756.5, -1636284.3, -1297.6348, 0.0030307309, -0.0002947718, -1512742.9, 6719.0083 
1.8510517e+2, 1.5494211e+2, -1414235.3, -1538122.4, -1513.874, -0.0014654673, -0.00019012451, -1414216.8, 7350.637 
1.8510525e+2, 1.6493063e+2, -1326252.6, -1460518.0, -1278.6969, -0.002371135, 0.00067230215, -1326240.5, -2560.7075 
1.851054e+2, 1.7491847e+2, -1229076.8, -1362968.6, -942.07587, 0.00040545716, 0.00018016381, -1229070.1, -3271.1855 
1.851055e+2, 1.8490566e+2, -1140078.6, -1283349.4, -1052.634, 0.0014112536, -0.00007482755, -1140070.9, -12146.458 
1.8510556e+2, 1.9489223e+2, -1041363.0, -1185102.4, -1366.2667, 0.0005814015, -0.002022542, -1041350.0, -11293.822 
1.8510564e+2, 2.0487809e+2, -953065.75, -1107125.4, -1404.2606, -0.00006936252, -0.0010937381, -953053.0, -20858.414 
1.8510573e+2, 2.1486332e+2, -855652.1, -1009513.06, -1289.3058, -0.0005419699, 0.0008055134, -855641.3, -21301.742 
1.8510583e+2, 2.2484781e+2, -767399.06, -931419.0, -1039.4364, -0.00037662126, 0.0013876053, -767392.44, -30900.957 
1.8510598e+2, 2.3483159e+2, -668989.06, -833212.9, -901.80835, 0.00045625816, -0.0017409916, -668984.1, -30333.748 
1.851061e+2, 2.4481475e+2, -579885.1, -753795.7, -1030.3818, 0.00041782134, -0.0015863334, -579879.0, -39063.7 
1.851062e+2, 2.547973e+2, -481832.16, -655661.8, -1322.8885, -0.00056099397, 0.00010643107, -481822.1, -38835.85 
1.8510637e+2, 2.6477915e+2, -394211.5, -578747.1, -892.1721, 0.00011489781, 0.0011829829, -394207.2, -49042.793 
1.8510662e+2, 2.7476022e+2, -296210.63, -480548.34, -491.0142, 0.002588014, -0.0006493112, -296209.3, -48859.59 
1.851068e+2, 2.8474063e+2, -207615.72, -402290.1, -468.18137, 0.0006613948, -0.0009760835, -207614.6, -58072.875 
1.8510692e+2, 2.947204e+2, -108673.14, -303544.94, -668.9568, -0.006132028, -0.0021584227, -108670.84, -56930.676 
1.8510725e+2, 3.047029e+2, -21299.01, -174099.77, -144.5223, -0.0009929418, -0.0001992782, -21298.873, -21298.873 
1.8510777e+2, 3.1468827e+2, -23582.234, -174825.06, -66.09187, 0.017580723, 0.0031794447, -23582.205, -23582.205 
1.851076e+2, 3.2467797e+2, 45169.047, -41796.465, -1734.7783, -0.01203624, -0.004737623, 45203.637, 45203.637 
1.9510879e+2, 3.5027176e+1, -2536093.0, -2602821.3, -1219.7255, -0.0013143366, -0.0019816316, -2536070.8, 60662.8 
1.9510897e+2, 4.5023507e+1, -2445930.5, -2518383.0, 487.27573, 0.0024773264, -0.0044075153, -2445927.3, 52842.44 
1.9510931e+2, 5.501949e+1, -2346649.3, -2420050.0, 320.82504, -0.001106007, -0.000095049, -2346647.8, 54161.2 
1.9510958e+2, 6.5014726e+1, -2258364.0, -2342205.3, -688.454, -0.0015806182, 0.0020273908, -2258358.5, 44497.24 
1.9510977e+2, 7.5009245e+1, -2161358.0, -2244891.0, -892.05774, 0.0009789632, 0.00010025025, -2161348.5, 43560.984 
1.9510996e+2, 8.500312e+1, -2072459.3, -2165478.5, -586.8547, 0.0012318689, -0.00042451307, -2072455.6, 34513.816 
1.951102e+2, 9.4996375e+1, -1973622.6, -2067220.3, -447.88925, -0.00081125257, -0.0015513998, -1973620.5, 35415.01 
1.9511037e+2, 1.0498893e+2, -1885377.8, -1989440.0, -1087.3345, -0.0009379661, -0.0004987694, -1885366.4, 25742.068 
1.9511047e+2, 1.1498081e+2, -1787969.4, -1891864.8, -1202.189, 0.0008535158, 0.00082892156, -1787955.5, 25232.553 
1.9511057e+2, 1.2497202e+2, -1699390.5, -1812672.9, -991.37274, 0.0009853081, 0.0011571748, -1699381.9, 15892.322 
1.9511071e+2, 1.3496259e+2, -1601425.0, -1714801.6, -919.3077, -0.0005511587, -0.0015030712, -1601417.6, 15949.085 
1.9511083e+2, 1.4495245e+2, -1513166.0, -1637131.4, -1160.5702, -0.0010418122, -0.0011400973, -1513155.1, 6310.7754 
1.9511093e+2, 1.5494165e+2, -1414652.5, -1538980.5, -1369.3264, -0.00046788686, 0.00023072647, -1414637.4, 6934.4897 
1.95111e+2, 1.649302e+2, -1325640.4, -1459229.1, -1481.3132, 0.0005472725, 0.00047170275, -1325624.0, -1939.8043 
1.9511108e+2, 1.7491809e+2, -1228436.9, -1361661.0, -1154.9712, 0.0020180289, -0.0025818096, -1228426.8, -2624.0771 
1.9511116e+2, 1.8490529e+2, -1140643.8, -1284549.6, -877.9735, 0.0010378357, -0.0015123518, -1140638.4, -12710.296 
1.9511124e+2, 1.9489183e+2, -1041967.7, -1186324.6, -1179.7863, -0.0024826222, 0.0018838806, -1041958.06, -11897.914 
1.9511135e+2, 2.0487767e+2, -952877.5, -1106715.6, -1547.5345, -0.002262838, 0.002242456, -952861.94, -20663.1 
1.9511144e+2, 2.1486284e+2, -855451.1, -1009061.2, -1439.5807, 0.0018633098, -0.0026171792, -855437.6, -21093.484 
1.9511154e+2, 2.2484736e+2, -767135.6, -930904.9, -957.4792, 0.0026577571, -0.0025806413, -767130.06, -30634.246 
1.9511166e+2, 2.3483126e+2, -668771.5, -832669.56, -817.9747, -0.00008130094, 0.000332955, -668767.44, -30113.66 
1.9511178e+2, 2.4481441e+2, -580421.3, -754903.9, -1063.4945, -0.0013429215, 0.0013151292, -580414.8, -39595.99 
1.9511189e+2, 2.5479683e+2, -482407.5, -656758.56, -1351.2765, -0.0010383988, -0.0017708156, -482397.03, -39406.05 
1.9511205e+2, 2.6477864e+2, -393489.84, -577281.56, -949.8923, 0.0002006538, -0.0011884586, -393484.94, -48315.844 
1.9511227e+2, 2.747599e+2, -295465.84, -479028.5, -558.4307, 0.002458624, 0.0011585372, -295464.13, -48111.18 
1.9511247e+2, 2.8474036e+2, -207945.56, -402987.84, -315.0168, 0.0004995716, 0.001301604, -207945.06, -58400.46 
1.9511265e+2, 2.9472e+2, -109022.6, -304306.44, -504.9349, -0.0061259964, -0.0035087175, -109021.3, -57277.375 
1.9511291e+2, 3.0470252e+2, -21203.717, -173840.53, -762.9715, -0.0002296499, -0.0010101375, -21199.904, -21199.904 
1.951133e+2, 3.1468797e+2, -23455.213, -174519.9, -713.3107, 0.019769847, 0.007578954, -23451.846, -23451.846 
1.9511348e+2, 3.2467765e+2, 45032.94, -41974.195, 1981.0798, -0.013957993, -0.0034203883, 45078.027, 45078.027 
2.051145e+2, 3.5026896e+1, -2536933.3, -2603192.5, -1637.1981, 0.0028693895, -0.0018474308, -2536892.8, 59843.563 
2.0511459e+2, 4.5023212e+1, -2443560.5, -2517676.3, 154.86658, -0.003129296, -0.003895424, -2443560.3, 55212.29 
2.0511499e+2, 5.501914e+1, -2347119.8, -2420739.0, -13.779048, -0.0018775439, -0.00035925314, -2347119.8, 53692.688 
2.0511529e+2, 6.501435e+1, -2258876.3, -2342611.8, -802.7346, -0.000036599216, 0.001621901, -2258868.5, 43990.805 
2.051155e+2, 7.5008863e+1, -2159604.3, -2244198.5, -705.9902, 0.002333294, 0.00017446735, -2159598.5, 45314.777 
2.0511569e+2, 8.500273e+1, -2070858.8, -2164776.0, -584.1899, 0.0015410924, -0.00026857175, -2070855.1, 36118.094 
2.0511587e+2, 9.499597e+1, -1974598.1, -2067790.4, -782.6342, -0.0024057196, -0.0017156237, -1974591.6, 34447.9 
2.0511606e+2, 1.0498852e+2, -1886574.6, -1989888.1, -1234.0859, -0.0021759418, -0.00080731686, -1886559.9, 24552.584 
2.0511621e+2, 1.14980415e+2, -1787220.3, -1891391.3, -1049.2656, 0.002238543, 0.00055718765, -1787209.6, 25982.27 
2.0511632e+2, 1.2497163e+2, -1698265.5, -1812364.9, -1043.5575, 0.0024575961, 0.0011355887, -1698256.0, 17022.068 
2.0511639e+2, 1.3496216e+2, -1601010.0, -1714849.4, -1277.2223, -0.0015551179, -0.0010665483, -1600995.8, 16375.082 
2.051165e+2, 1.4495203e+2, -1513204.9, -1636973.6, -1276.2449, -0.0022720275, -0.00085316785, -1513191.6, 6278.4194 
2.0511664e+2, 1.5494122e+2, -1415470.4, -1539185.6, -944.7664, 0.0003650816, -0.00024722822, -1415463.1, 6112.7515 
2.0511673e+2, 1.6492978e+2, -1326283.1, -1459660.6, -1182.8892, 0.0015482816, -0.000043307195, -1326272.6, -2584.4856 
2.0511678e+2, 1.7491767e+2, -1227525.9, -1361342.4, -1589.2766, 0.0012413231, -0.0023800994, -1227507.0, -1700.2412 
2.0511685e+2, 1.8490487e+2, -1139648.5, -1283951.5, -1398.5938, 0.000114635906, -0.0012411586, -1139634.9, -11702.7705 
2.0511694e+2, 1.9489142e+2, -1042733.4, -1186585.1, -1019.4085, -0.0018619864, 0.0015558891, -1042726.2, -12661.996 
2.0511703e+2, 2.0487726e+2, -953953.2, -1107393.3, -1087.2972, -0.0014090615, 0.0018176143, -953945.5, -21742.627 
2.0511712e+2, 2.148624e+2, -854991.56, -1009024.0, -1286.8572, 0.0015790885, -0.0026145978, -854980.8, -20632.521 
2.0511724e+2, 2.2484694e+2, -766351.5, -930367.4, -1165.9536, 0.0020334704, -0.002353486, -766343.2, -29843.303 
2.0511734e+2, 2.3483084e+2, -669119.7, -832752.2, -1202.8503, -0.00020631244, 0.0005791862, -669110.9, -30453.11 
2.0511746e+2, 2.44814e+2, -581184.5, -755305.8, -1148.5796, -0.0011341112, 0.0014591556, -581176.94, -40354.13 
2.0511758e+2, 2.5479645e+2, -482376.38, -656821.25, -915.49646, -0.0006693371, -0.0018747667, -482371.56, -39376.55 
2.0511773e+2, 2.6477823e+2, -393250.84, -577231.5, -805.7956, 0.00019681174, -0.0013730141, -393247.3, -48074.12 
2.0511793e+2, 2.7475947e+2, -295571.75, -479145.16, -1235.0422, 0.00149788, 0.0010759939, -295563.44, -48206.31 
2.0511813e+2, 2.8473994e+2, -208197.88, -403073.6, -974.25525, 0.00026443438, 0.0014829766, -208193.02, -58644.227 
2.0511837e+2, 2.9471958e+2, -109313.266, -304410.84, -773.62067, -0.0037750106, -0.0028857877, -109310.2, -57562.16 
2.051186e+2, 3.0470207e+2, -21094.871, -174560.34, -1662.2246, -0.000107833184, -0.00066439086, -21076.87, -21076.87 
2.0511879e+2, 3.1468743e+2, -21544.213, -174398.67, -2255.294, 0.0122682825, 0.00684932, -21510.943, -21510.943 
2.0511934e+2, 3.2467708e+2, 42868.62, -43123.89, 2757.2422, -0.008633808, -0.000601311, 42956.938, 42956.938 
2.1512018e+2, 3.5026595e+1, -2536586.3, -2602475.8, -297.16522, 0.0063615898, 0.0025925979, -2536585.0, 60154.41 
2.151203e+2, 4.5022887e+1, -2443864.8, -2518312.0, -206.76671, -0.0098900385, -0.0015754018, -2443864.0, 54911.67 
2.1512069e+2, 5.5018747e+1, -2347414.5, -2421370.0, -369.44342, -0.00026495746, -0.0007912048, -2347412.8, 53403.547 
2.15121e+2, 6.501394e+1, -2258694.5, -2342207.8, -444.87103, 0.003504393, -0.000140538, -2258692.3, 44171.195 
2.1512125e+2, 7.5008476e+1, -2159446.8, -2243807.3, -349.50745, 0.0014039841, -0.001504695, -2159445.5, 45471.52 
2.1512145e+2, 8.5002345e+1, -2071256.1, -2165555.5, -1004.247, -0.00039979946, -0.00084772625, -2071245.4, 35731.64 
2.1512155e+2, 9.499555e+1, -1974961.1, -2068555.6, -1198.287, -0.0018996166, -0.00017883521, -1974945.9, 34097.81 
2.151217e+2, 1.049881e+2, -1886212.3, -1989156.4, -875.47266, -0.0013287222, 0.000101781974, -1886204.8, 24911.85 
2.1512195e+2, 1.14980005e+2, -1786895.5, -1890666.6, -695.4456, 0.0013184819, -0.0019133459, -1786890.9, 26305.086 
2.1512209e+2, 1.249712e+2, -1698731.9, -1813293.4, -1227.8673, 0.0015652358, -0.0013208251, -1698718.8, 16563.445 
2.1512213e+2, 1.3496171e+2, -1601472.0, -1715767.1, -1455.2303, -0.00060659106, -0.000086404754, -1601453.5, 15921.687 
2.1512221e+2, 1.449516e+2, -1512586.9, -1635689.6, -1335.1674, -0.0007979397, 0.00051523064, -1512572.5, 6901.8955 
2.1512231e+2, 1.5494086e+2, -1414839.0, -1537893.6, -1012.77795, 0.0010269732, -0.0015895575, -1414830.6, 6748.9033 
2.151224e+2, 1.649294e+2, -1327042.9, -1461217.5, -996.99274, 0.0006991958, -0.000859234, -1327035.4, -3343.579 
2.1512249e+2, 1.7491722e+2, -1228314.8, -1362927.0, -1390.2396, -0.0018313752, 0.0006482458, -1228300.4, -2489.2195 
2.1512258e+2, 1.8490443e+2, -1138967.0, -1282522.4, -1666.0786, -0.0013472025, 0.00066020293, -1138947.8, -11011.034 
2.1512264e+2, 1.9489099e+2, -1042021.06, -1185111.8, -1301.1128, 0.002260216, -0.002820759, -1042009.2, -11940.961 
2.1512273e+2, 2.0487686e+2, -954322.4, -1108120.4, -857.6192, 0.0023387766, -0.0022030966, -954317.56, -22110.883 
2.1512282e+2, 2.1486205e+2, -855410.0, -1009772.0, -1044.466, -0.0012873192, 0.00065564597, -855402.94, -21050.973 
2.1512291e+2, 2.2484654e+2, -766451.44, -930543.9, -1380.4938, -0.002104674, 0.001880069, -766439.8, -29935.97 
2.15123e+2, 2.3483036e+2, -669227.3, -832881.44, -1423.4956, 0.000044412365, -0.00092086993, -669214.9, -30552.59 
2.1512313e+2, 2.4481355e+2, -580759.25, -754406.7, -989.698, 0.0009415537, -0.0010363427, -580753.6, -39926.44 
2.151233e+2, 2.547961e+2, -481957.13, -655904.7, -754.3815, 0.00049068884, -0.00028327262, -481953.84, -38955.453 
2.1512344e+2, 2.6477787e+2, -394032.7, -578850.1, -954.926, 0.00008286603, 0.00053009903, -394027.78, -48850.992 
2.1512356e+2, 2.7475893e+2, -296357.6, -480819.72, -1380.9584, -0.00027637908, -0.00080897176, -296347.25, -48985.04 
2.1512379e+2, 2.8473938e+2, -207855.22, -402374.44, -817.4128, -0.000056363468, -0.00033603283, -207851.78, -58297.574 
2.1512412e+2, 2.9471913e+2, -108951.02, -303667.0, -614.17957, 0.0007876427, -0.0003801347, -108949.086, -57196.566 
2.151243e+2, 3.0470157e+2, -22109.207, -176651.05, -1811.6191, -0.0006222318, 0.00078637636, -22087.973, -22087.973 
2.1512428e+2, 3.1468672e+2, -22556.133, -176553.75, -2405.3174, -0.004497636, 0.0012052263, -22518.574, -22518.574 
2.151252e+2, 3.246764e+2, 42821.07, -43114.938, 3550.4763, 0.003561359, 0.0036545338, 42967.51, 42967.51 
2.251258e+2, 3.5026187e+1, -2536497.8, -2602477.3, 569.7777, 0.00497679, 0.00328438, -2536493.0, 60250.56 
2.251261e+2, 4.5022485e+1, -2443442.0, -2518196.0, -996.31494, -0.008448519, -0.00014366493, -2443428.5, 55351.105 
2.2512642e+2, 5.5018324e+1, -2346250.0, -2420877.0, -899.1918, 0.0009311556, -0.0007271017, -2346239.3, 54581.27 
2.2512671e+2, 6.501351e+1, -2257962.3, -2341726.8, -534.9274, 0.0036281373, -0.0005562816, -2257959.0, 44908.715 
2.2512698e+2, 7.5008065e+1, -2160614.0, -2244249.5, -546.07623, -0.00036268926, -0.0014992101, -2160610.5, 44310.438 
2.2512716e+2, 8.500194e+1, -2072222.6, -2166128.0, -1278.4084, -0.0015314174, -0.0005359587, -2072205.3, 34775.78 
2.251273e+2, 9.4995135e+1, -1973318.8, -2067855.1, -1161.1262, 0.00012269699, 0.00032378102, -1973304.5, 35743.176 
2.2512744e+2, 1.0498767e+2, -1884457.5, -1988455.5, -788.25684, 0.0005107571, 0.00037106822, -1884451.5, 26669.367 
2.2512765e+2, 1.1497955e+2, -1787493.1, -1891119.9, -1058.4735, -0.00037007214, -0.0023063524, -1787482.4, 25717.969 
2.2512779e+2, 1.2497076e+2, -1699791.0, -1813617.8, -1617.6792, -0.000379786, -0.0017405462, -1699768.0, 15518.559 
2.2512785e+2, 1.3496129e+2, -1601497.4, -1715597.8, -1265.1765, 0.00048703564, 0.00011183579, -1601483.4, 15895.9375 
2.2512794e+2, 1.4495116e+2, -1512133.9, -1635717.6, -1194.7732, 0.00076882227, 0.00080221216, -1512122.4, 7356.146 
2.2512802e+2, 1.5494041e+2, -1413898.5, -1537675.3, -1667.2325, 0.00046325877, -0.0017542762, -1413876.0, 7707.9453 
2.2512811e+2, 1.6492894e+2, -1326424.3, -1460773.5, -1653.9315, -0.00032073777, -0.0009824008, -1326403.9, -2707.5708 
2.2512819e+2, 1.7491679e+2, -1229356.9, -1363297.3, -1171.9631, -0.0015915976, 0.0010763885, -1229346.6, -3531.1309 
2.2512826e+2, 1.84904e+2, -1140093.5, -1283182.9, -1388.7068, -0.00077547017, 0.0010520392, -1140080.0, -12139.054 
2.2512832e+2, 1.9489053e+2, -1041216.6, -1184846.1, -1831.2823, 0.002199967, -0.0030705791, -1041193.3, -11120.6 
2.251284e+2, 2.0487642e+2, -953215.2, -1107421.3, -1534.7617, 0.002034071, -0.0024662826, -953199.94, -20988.828 
2.2512852e+2, 2.1486162e+2, -856047.94, -1009937.1, -1233.8782, -0.0014263297, 0.0010329185, -856038.06, -21681.893 
2.251286e+2, 2.2484611e+2, -767572.3, -931180.25, -1375.2301, -0.002120771, 0.0022346175, -767560.75, -31052.725 
2.2512868e+2, 2.3482993e+2, -669068.7, -832940.44, -1412.2356, 0.00009613061, -0.001294356, -669056.5, -30389.826 
2.251288e+2, 2.448131e+2, -580264.2, -754086.44, -1061.8225, 0.0011155899, -0.0014509296, -580257.7, -39426.133 
2.2512898e+2, 2.5479564e+2, -482350.88, -655996.44, -1218.226, 0.0008458708, -0.000005103343, -482342.34, -39339.715 
2.2512911e+2, 2.6477742e+2, -394492.47, -579196.3, -1319.5635, -0.00015334277, 0.00085711933, -394483.06, -49302.06 
2.2512923e+2, 2.7475852e+2, -295794.84, -480670.66, -985.6848, -0.0019487472, -0.0011371975, -295789.6, -48422.996 
2.2512947e+2, 2.8473893e+2, -207391.86, -402297.16, -246.55553, -0.00033918922, -0.0006688537, -207391.55, -57832.887 
2.2512984e+2, 2.9471865e+2, -109840.94, -304195.66, -501.8828, 0.005018505, -0.0000032258904, -109839.64, -58082.63 
2.2513e+2, 3.0470106e+2, -22595.932, -177708.63, -1399.4207, 0.00017438273, 0.00077874516, -22583.307, -22583.307 
2.2512996e+2, 3.146861e+2, -19731.463, -176051.55, -1466.6904, -0.01604951, -0.00042115047, -19717.703, -19717.703 
2.2513089e+2, 3.2467577e+2, 39875.258, -43995.086, 3080.3398, 0.010702744, 0.0029229142, 39988.24, 39988.24 
2.3513141e+2, 3.502568e+1, -2536815.8, -2603180.0, 1919.6301, -0.001092576, 0.0004095039, -2536760.3, 59988.207 
2.3513201e+2, 4.5022002e+1, -2443291.8, -2517814.5, -1157.4269, 0.0007963807, 0.000459008, -2443273.8, 55510.8 
2.351322e+2, 5.501787e+1, -2346065.5, -2420481.5, -1055.707, 0.0017074939, -0.00019501433, -2346050.5, 54774.453 
2.3513241e+2, 6.501307e+1, -2257982.0, -2341742.8, -660.9611, 0.00047413187, 0.00030896813, -2257976.8, 44895.113 
2.3513265e+2, 7.500763e+1, -2160634.8, -2244269.5, -673.2786, -0.0029412801, 0.0001046012, -2160629.3, 44295.914 
2.3513287e+2, 8.500151e+1, -2071996.5, -2165667.3, -1021.8946, -0.0019100388, 0.0006200205, -2071985.3, 34999.914 
2.351331e+2, 9.499472e+1, -1973097.1, -2067398.8, -906.4289, 0.0035633575, -0.00016075022, -1973088.4, 35963.344 
2.3513326e+2, 1.0498724e+2, -1884979.6, -1989521.1, -1041.0525, 0.0032755581, 0.000029643339, -1884969.3, 26155.822 
2.3513335e+2, 1.1497907e+2, -1788025.1, -1892174.0, -1304.8776, -0.0028031012, -0.00072299433, -1788008.8, 25196.357 
2.3513345e+2, 1.2497029e+2, -1699125.6, -1812248.1, -1530.2974, -0.003348863, -0.00022361946, -1699104.9, 16186.298 
2.3513357e+2, 1.3496089e+2, -1600827.6, -1714214.0, -1186.5911, 0.0017017586, -0.00043432476, -1600815.1, 16568.068 
2.3513368e+2, 1.4495076e+2, -1513027.6, -1637555.3, -1131.71, 0.0024120354, 0.000058868518, -1513017.4, 6465.221 
2.3513375e+2, 1.5493988e+2, -1414818.8, -1539534.4, -1591.3452, -0.0012840943, -0.00080142193, -1414798.4, 6790.7183 
2.3513383e+2, 1.6492842e+2, -1325549.3, -1458923.1, -1883.3375, -0.001522917, -0.00044483165, -1325522.6, -1821.0857 
2.351339e+2, 1.7491637e+2, -1228441.8, -1361415.3, -1415.6012, 0.0017887059, -0.00097248855, -1228426.8, -2607.094 
2.3513396e+2, 1.8490358e+2, -1140889.5, -1284868.5, -1173.1968, 0.0017183969, 0.0000048112706, -1140880.0, -12935.04 
2.35134e+2, 1.9489007e+2, -1042057.1, -1186568.3, -1599.933, -0.0018615527, 0.0006024064, -1042039.44, -11961.949 
2.351341e+2, 2.048759e+2, -952685.44, -1106323.3, -1737.8606, -0.0021458515, 0.00084275025, -952665.75, -20449.633 
2.351342e+2, 2.1486112e+2, -855497.56, -1008792.56, -1449.5691, 0.0010136825, -0.0013435512, -855483.9, -21122.955 
2.3513427e+2, 2.2484566e+2, -767618.7, -931296.6, -1278.0824, 0.0017608748, -0.001104218, -767608.7, -31096.223 
2.3513435e+2, 2.348295e+2, -669135.44, -833065.5, -1308.3391, -0.00005567774, -0.0005942168, -669125.0, -30454.197 
2.3513448e+2, 2.4481267e+2, -580564.3, -754720.25, -1121.6741, -0.0005352796, 0.00011210692, -580557.1, -39721.203 
2.3513465e+2, 2.5479513e+2, -482669.25, -656636.5, -1276.4209, 0.00041765298, -0.00097279024, -482659.88, -39652.242 
2.351348e+2, 2.6477695e+2, -393909.38, -577907.1, -1201.8367, -0.0005291954, -0.00030914135, -393901.53, -48715.727 
2.3513491e+2, 2.7475813e+2, -295200.78, -479321.75, -870.7558, -0.003543309, 0.000015564801, -295196.7, -47826.41 
2.3513517e+2, 2.8473857e+2, -207870.97, -403272.72, -432.47937, -0.0006014307, 0.0004101628, -207870.02, -58307.813 
2.3513551e+2, 2.947182e+2, -110333.484, -305241.94, -686.27954, 0.0089056, -0.0016448739, -110331.07, -58569.555 
2.3513573e+2, 3.0470055e+2, -22686.863, -177898.52, -704.5437, 0.0021938137, -0.0006090824, -22683.666, -22683.666 
2.351358e+2, 3.146856e+2, -19823.063, -176234.56, -738.51263, -0.022656515, 0.0017869081, -19819.576, -19819.576 
2.3513643e+2, 3.2467526e+2, 40489.938, -42720.223, -649.39417, 0.013010901, -0.0025511684, 40495.004, 40495.004 
2.4513711e+2, 3.5025164e+1, -2534098.5, -2602283.0, 1228.674, -0.0055739097, -0.0010483603, -2534076.3, 62677.016 
2.4513777e+2, 4.5021516e+1, -2445723.3, -2518394.8, -1001.2737, 0.007414348, 0.00073381525, -2445709.5, 53079.703 
2.4513794e+2, 5.5017436e+1, -2345954.0, -2419818.0, -701.2463, 0.0010768074, -0.00007139829, -2345947.3, 54881.94 
2.4513814e+2, 6.501265e+1, -2257263.0, -2341642.0, -614.20605, -0.0020629703, 0.00035493355, -2257258.5, 45617.477 
2.4513836e+2, 7.500719e+1, -2160140.0, -2244277.0, -769.78296, -0.002066216, 0.00013756032, -2160133.0, 44796.59 
2.4513862e+2, 8.5001063e+1, -2071589.4, -2165375.8, -907.1015, -0.0004936814, 0.00041934432, -2071580.5, 35409.105 
2.4513887e+2, 9.4994277e+1, -1973035.4, -2067289.0, -967.179, 0.002652472, -0.0008163268, -1973025.4, 36030.695 
2.45139e+2, 1.04986794e+2, -1885116.3, -1989676.9, -1395.2185, 0.0021603387, -0.00029315127, -1885097.6, 26031.781 
2.4513906e+2, 1.1497863e+2, -1788003.5, -1892247.5, -1193.1522, -0.0019861967, 0.00007288448, -1787989.9, 25219.598 
2.4513917e+2, 1.2496984e+2, -1698767.0, -1812132.1, -1159.5314, -0.002317147, 0.00050053454, -1698755.1, 16540.498 
2.4513932e+2, 1.3496041e+2, -1599959.5, -1713861.3, -1535.7747, 0.0012083652, -0.0009801004, -1599938.8, 17448.99 
2.4513942e+2, 1.4495029e+2, -1512584.3, -1637335.1, -1666.4155, 0.0016299862, -0.00056192576, -1512562.0, 6925.2134 
2.4513946e+2, 1.5493943e+2, -1415800.0, -1540018.5, -1218.1774, -0.0010972233, -0.00028395766, -1415788.1, 5805.5845 
2.4513952e+2, 1.6492796e+2, -1326359.0, -1459289.4, -1373.4854, -0.0010974595, 0.00005548263, -1326344.8, -2638.7656 
2.4513958e+2, 1.749159e+2, -1227460.6, -1360906.8, -1815.2014, 0.00170255, -0.0016729145, -1227436.0, -1611.7225 
2.4513964e+2, 1.849031e+2, -1139841.6, -1284389.6, -1627.8757, 0.0014934085, -0.00065982156, -1139823.4, -11873.766 
2.451397e+2, 1.948896e+2, -1042647.44, -1186882.4, -1235.6165, -0.0018410733, 0.0012545378, -1042636.9, -12554.884 
2.4513978e+2, 2.0487544e+2, -953677.8, -1106788.6, -1338.7625, -0.0020433867, 0.0015185478, -953666.1, -21445.463 
2.4513987e+2, 2.1486066e+2, -855646.6, -1008859.25, -1620.4568, 0.0010324342, -0.0019897446, -855629.5, -21263.943 
2.4513994e+2, 2.2484519e+2, -767313.06, -931029.5, -1479.8757, 0.0017228359, -0.001880246, -767299.7, -30782.613 
2.4514003e+2, 2.3482905e+2, -668880.7, -832828.1, -1380.4917, -0.00012075254, -0.00024603185, -668869.06, -30193.838 
2.4514015e+2, 2.448122e+2, -580710.8, -754789.0, -1222.4608, -0.0006442814, 0.00065163, -580702.25, -39861.984 
2.4514027e+2, 2.547947e+2, -483456.2, -657023.56, -1073.8025, 0.00024288287, -0.0012318376, -483449.53, -40437.445 
2.4514043e+2, 2.6477653e+2, -394716.44, -578111.7, -776.88513, -0.00045369752, -0.00072987255, -394713.16, -49522.95 
2.4514061e+2, 2.747577e+2, -295560.53, -479339.8, -976.9739, -0.0028722223, 0.000124891, -295555.34, -48180.918 
2.4514085e+2, 2.8473812e+2, -207993.11, -403189.6, -872.10754, -0.0005367553, 0.00042004115, -207989.2, -58422.984 
2.4514115e+2, 2.9471782e+2, -110349.8, -305095.84, -527.20953, 0.007036019, -0.002432809, -110348.375, -58582.9 
2.451414e+2, 3.0470017e+2, -23214.55, -177683.22, 600.35583, 0.0018821236, -0.0012265199, -23212.217, -23212.217 
2.4514164e+2, 3.146853e+2, -21928.938, -176695.89, 939.8875, -0.01748975, 0.0024347547, -21923.23, -21923.23 
2.4514194e+2, 3.2467493e+2, 41423.23, -42144.06, -2207.9612, 0.009810845, -0.0054941345, 41481.527, 41481.527 
2.5514296e+2, 3.5024646e+1, -2534355.3, -2602793.0, -1096.3281, -0.008581031, -0.0011528298, -2534337.8, 62420.76 
2.5514343e+2, 4.5021018e+1, -2445111.8, -2517194.0, -489.69003, 0.011531516, 0.0006683327, -2445108.5, 53685.62 
2.5514367e+2, 5.501702e+1, -2345373.3, -2418632.0, -202.63939, -0.0009159361, -0.00034216844, -2345372.8, 55460.53 
2.551439e+2, 6.5012246e+1, -2257560.5, -2342242.5, -804.5901, -0.0040432103, -0.00038112135, -2257552.8, 45327.223 
2.5514415e+2, 7.5006735e+1, -2160412.3, -2244865.5, -955.7074, 0.0020605717, -0.0013248429, -2160401.5, 44532.508 
2.551444e+2, 8.500058e+1, -2071669.0, -2165617.0, -739.69476, 0.0026019937, -0.0010706445, -2071663.1, 35331.15 
2.551446e+2, 9.499379e+1, -1973159.4, -2067540.3, -799.1532, -0.0024090945, -0.001635667, -1973152.5, 35908.28 
2.5514475e+2, 1.0498633e+2, -1884741.5, -1988909.1, -1605.4723, -0.0026514588, -0.00060145376, -1884716.8, 26417.2 
2.5514483e+2, 1.14978224e+2, -1787597.0, -1891448.8, -1408.1177, 0.0018916263, 0.00012090491, -1787577.9, 25635.459 
2.5514492e+2, 1.24969415e+2, -1699457.4, -1813599.9, -949.50146, 0.0024787118, 0.00047237464, -1699449.5, 15850.315 
2.5514507e+2, 1.349599e+2, -1600699.9, -1715350.6, -1316.0221, -0.00091861637, -0.0015237278, -1600684.8, 16708.283 
2.5514516e+2, 1.4494976e+2, -1511766.5, -1635619.6, -1965.0048, -0.0014621295, -0.0010642934, -1511735.4, 7756.9585 
2.5514516e+2, 1.5493903e+2, -1414932.1, -1538276.3, -1529.3177, 0.0009004204, -0.00017859665, -1414913.1, 6684.449 
2.5514522e+2, 1.6492757e+2, -1327160.8, -1460980.3, -1156.802, 0.0008494749, 0.0005218377, -1327150.8, -3440.8384 
2.5514528e+2, 1.7491537e+2, -1228298.9, -1362641.0, -1585.0011, -0.0016795448, -0.0010980977, -1228280.1, -2450.9053 
2.5514534e+2, 1.8490258e+2, -1139120.9, -1282934.9, -1822.4545, -0.0013222746, -0.0009639921, -1139097.8, -11143.011 
2.5514543e+2, 1.9488916e+2, -1041907.44, -1185380.9, -1442.146, 0.002023789, -0.0009571259, -1041892.94, -11806.677 
2.551455e+2, 2.0487502e+2, -954172.8, -1107857.9, -1345.1979, 0.0021013136, -0.0003007065, -954161.06, -21936.297 
2.551455e+2, 2.1486019e+2, -856159.8, -1009953.3, -1617.152, -0.0012581439, -0.0009989897, -856142.8, -21772.662 
2.5514558e+2, 2.248447e+2, -767139.9, -930689.8, -1386.8608, -0.0020495555, -0.00023166135, -767128.1, -30606.209 
2.5514573e+2, 2.3482856e+2, -668732.3, -832461.94, -1288.3345, -0.00012259702, -0.00023311732, -668722.2, -30042.232 
2.5514582e+2, 2.4481177e+2, -580446.3, -754230.44, -1451.2042, 0.0006918612, 0.00022355198, -580434.2, -39589.516 
2.5514588e+2, 2.5479427e+2, -483169.13, -656434.8, -1310.2379, 0.00029015308, -0.0008202559, -483159.22, -40143.22 
2.5514606e+2, 2.6477608e+2, -395069.34, -578871.7, -561.44604, 0.000029774154, -0.0004420125, -395067.63, -49873.453 
2.551463e+2, 2.7475724e+2, -295970.53, -480136.72, -744.17487, -0.000069674075, -0.00075243664, -295967.53, -48588.46 
2.5514653e+2, 2.8473768e+2, -207411.1, -401902.47, -1018.5527, -0.00017955544, -0.0005823194, -207405.75, -57835.043 
2.551467e+2, 2.9471743e+2, -109711.14, -303748.38, -690.4061, -0.00030850113, -0.0024135257, -109708.69, -57939.754 
2.5514704e+2, 3.0469993e+2, -22631.541, -176451.77, 886.6293, -0.00066103996, -0.001122643, -22626.432, -22626.432 
2.5514755e+2, 3.1468508e+2, -21402.688, -175491.64, 1245.0897, -0.0012031981, 0.0015735764, -21392.627, -21392.627 
2.5514743e+2, 3.246748e+2, 40980.074, -43067.598, -3794.6138, 0.0013578989, -0.0060230778, 41151.047, 41151.047 
2.6514882e+2, 3.5024306e+1, -2534711.3, -2602640.5, -1307.0116, -0.005295124, -0.00046035287, -2534686.0, 62075.74 
2.651491e+2, 4.5020637e+1, -2443552.0, -2516951.0, 756.8444, 0.007138102, -0.0017602103, -2443544.3, 55253.504 
2.651494e+2, 5.501661e+1, -2345593.8, -2419270.5, 112.90549, -0.001485523, -0.00060294836, -2345593.8, 55243.594 
2.651497e+2, 6.501182e+1, -2257537.0, -2342297.8, -1054.1896, -0.0028455749, 0.00013962621, -2257524.0, 45360.215 
2.6514995e+2, 7.50063e+1, -2158727.5, -2244113.3, -960.1222, 0.0029891308, -0.0013944039, -2158716.5, 46221.65 
2.6515016e+2, 8.500013e+1, -2070466.6, -2165181.8, -816.891, 0.0027855076, -0.0011924339, -2070459.6, 36539.105 
2.6515034e+2, 9.4993323e+1, -1974377.5, -2068304.0, -884.3286, -0.0034541544, -0.0012721485, -1974369.1, 34696.24 
2.651505e+2, 1.0498586e+2, -1885641.9, -1989228.5, -1543.2046, -0.0034323335, -0.00036895272, -1885618.9, 25519.621 
2.651506e+2, 1.1497776e+2, -1785793.4, -1890450.1, -1667.1553, 0.0028773986, -0.0003898423, -1785766.9, 27451.08 
2.651507e+2, 1.2496894e+2, -1697960.8, -1813106.3, -1412.613, 0.0034528892, -0.00006412923, -1697943.4, 17360.988 
2.651508e+2, 1.3495941e+2, -1602089.3, -1716275.0, -1219.3505, -0.0017621595, -0.0013714491, -1602076.3, 15321.583 
2.6515085e+2, 1.4494929e+2, -1513004.8, -1635967.8, -1712.6725, -0.0024595123, -0.00077218236, -1512980.9, 6516.1816 
2.651509e+2, 1.5493855e+2, -1413553.9, -1537349.3, -1974.188, 0.0014456382, -0.0002998595, -1413522.4, 8079.7725 
2.6515093e+2, 1.649271e+2, -1325870.4, -1460650.6, -1741.39, 0.0016695274, 0.00042149264, -1325848.0, -2133.4592 
2.65151e+2, 1.7491488e+2, -1229142.6, -1363348.3, -1530.2346, -0.00188332, -0.0007324013, -1229125.3, -3291.121 
2.6515102e+2, 1.8490209e+2, -1140159.1, -1283126.8, -1718.8251, -0.0018554736, -0.0007666614, -1140138.4, -12178.806 
2.6515108e+2, 1.9488867e+2, -1041854.94, -1185062.6, -1907.0286, 0.0018831358, -0.0015816499, -1041829.56, -11738.541 
2.6515114e+2, 2.0487456e+2, -953772.75, -1107720.8, -1797.6284, 0.0022057192, -0.0007498344, -953751.75, -21522.383 
2.6515114e+2, 2.1485972e+2, -855678.1, -1009798.9, -1590.9916, -0.0010582964, -0.00022925233, -855661.7, -21286.967 
2.6515123e+2, 2.2484423e+2, -767201.8, -930679.9, -1295.6733, -0.0019105983, 0.00056583085, -767191.56, -30665.06 
2.6515138e+2, 2.348281e+2, -670157.8, -833139.3, -1355.0476, -0.00020961979, -0.0006685987, -670146.56, -31461.95 
2.6515147e+2, 2.448113e+2, -581550.1, -754587.56, -1545.5546, 0.00044343894, -0.0004092141, -581536.3, -40687.06 
2.6515153e+2, 2.5479385e+2, -482169.2, -655792.56, -1591.3593, -0.000043792697, -0.00054665824, -482154.6, -39134.215 
2.6515168e+2, 2.6477566e+2, -394156.44, -578342.44, -866.30817, 0.00027013491, -0.00008599243, -394152.38, -48953.92 
2.6515195e+2, 2.7475682e+2, -297456.3, -480753.84, -603.6978, 0.001456013, -0.0012096154, -297454.34, -50071.01 
2.6515213e+2, 2.8473723e+2, -209225.69, -402535.25, -718.764, -0.000037559217, -0.0010092679, -209223.02, -59648.195 
2.6515228e+2, 2.9471707e+2, -109788.484, -303543.16, -893.6077, -0.004494631, -0.0018820736, -109784.36, -58011.62 
2.6515266e+2, 3.046996e+2, -22856.08, -175379.61, 261.39703, -0.0012733963, -0.0008672876, -22855.633, -22855.633 
2.6515323e+2, 3.1468487e+2, -25089.613, -176075.88, 779.141, 0.010618076, 0.0001628367, -25085.592, -25085.592 
2.6515302e+2, 3.2467458e+2, 43198.88, -42102.945, -3013.3289, -0.0061335526, -0.0045863716, 43305.19, 43305.19 
2.751547e+2, 3.502413e+1, -2534105.3, -2601327.0, -1906.6058, 0.0039032898, 0.0009704311, -2534051.3, 62712.176 
2.7515468e+2, 4.5020363e+1, -2444709.5, -2519436.0, 774.7792, -0.005295679, -0.0064010373, -2444701.5, 54098.992 
2.751552e+2, 5.501621e+1, -2346780.8, -2421771.8, 146.18024, -0.0007375165, -0.00085155905, -2346780.5, 54060.684 
2.7515554e+2, 6.501137e+1, -2257356.3, -2341919.0, -808.4851, 0.0013229498, 0.0018481783, -2257348.5, 45540.047 
2.7515578e+2, 7.5005865e+1, -2158565.5, -2243751.0, -717.00073, 0.0008851699, -0.00015149165, -2158559.5, 46382.99 
2.7515593e+2, 8.4999704e+1, -2070595.4, -2165457.3, -1282.7214, 0.00019989102, -0.000027935655, -2070578.0, 36424.95 
2.7515605e+2, 9.499288e+1, -1974461.0, -2068553.1, -1348.6234, -0.0007362755, 0.00020365015, -1974441.8, 34628.023 
2.751562e+2, 1.04985386e+2, -1885846.3, -1989701.9, -1050.6708, -0.000431258, 0.00037256847, -1885835.6, 25307.594 
2.7515644e+2, 1.1497723e+2, -1786065.9, -1890944.1, -1171.7772, 0.001120564, -0.0014289692, -1786052.8, 27170.293 
2.7515653e+2, 1.24968424e+2, -1697627.9, -1812381.9, -1945.0156, 0.00079835963, -0.0010810109, -1697594.9, 17714.564 
2.751565e+2, 1.3495895e+2, -1601704.5, -1715515.3, -1758.1365, -0.0014116574, -0.0005634166, -1601677.3, 15724.915 
2.7515653e+2, 1.4494883e+2, -1513463.1, -1636970.3, -1342.7394, -0.0014921414, 0.0002701624, -1513448.5, 6052.991 
2.7515665e+2, 1.5493801e+2, -1414065.6, -1538375.8, -1595.6901, 0.0005970857, -0.0006337169, -1414045.3, 7562.2075 
2.751567e+2, 1.6492654e+2, -1325502.4, -1459870.6, -2060.8196, 0.0014040844, -0.00021477311, -1325470.8, -1750.9651 
2.751567e+2, 1.749144e+2, -1228747.1, -1362534.9, -1856.3966, 0.0008949713, -0.0005673732, -1228721.4, -2882.4753 
2.751567e+2, 1.849016e+2, -1140478.9, -1283848.5, -1643.815, -0.00024845582, -0.00009792313, -1140460.0, -12495.757 
2.7515674e+2, 1.9488816e+2, -1042208.4, -1185791.1, -1825.4901, -0.0020536443, -0.0007114085, -1042185.1, -12089.026 
2.751568e+2, 2.0487402e+2, -953395.6, -1106956.3, -1773.4486, -0.0015146562, 0.00009014746, -953375.1, -21140.646 
2.751569e+2, 2.1485925e+2, -855316.7, -1009004.06, -1571.426, 0.0014695748, 0.0003282531, -855300.6, -20921.28 
2.7515692e+2, 2.2484379e+2, -767328.44, -930904.25, -1566.0938, 0.0018963921, 0.000556751, -767313.44, -30782.502 
2.7515694e+2, 2.3482762e+2, -670270.7, -833359.06, -1627.1759, -0.00039629228, -0.0015299605, -670254.5, -31565.186 
2.7515703e+2, 2.448108e+2, -581601.94, -754763.9, -1240.5905, -0.0013135544, -0.0012365076, -581593.06, -40738.96 
2.7515718e+2, 2.5479335e+2, -482270.4, -655977.94, -1274.1437, -0.00075442565, -0.00040118152, -482261.06, -39235.832 
2.7515736e+2, 2.6477522e+2, -393730.2, -577411.7, -1250.5005, 0.0002578574, 0.00033229144, -393721.66, -48518.68 
2.751575e+2, 2.747564e+2, -296974.3, -479784.84, -1008.2541, 0.0017621735, -0.0012685155, -296968.75, -49581.504 
2.751577e+2, 2.8473687e+2, -209503.31, -403135.06, -448.0294, -0.000112806745, -0.0008910628, -209502.28, -59923.68 
2.751579e+2, 2.9471666e+2, -110108.62, -304204.16, -598.264, -0.0057273577, -0.0008674424, -110106.77, -58329.89 
2.7515823e+2, 3.0469918e+2, -22007.563, -173557.06, -329.58795, -0.000094000505, -0.00046469623, -22006.846, -22006.846 
2.7515873e+2, 3.1468457e+2, -24170.773, -174170.92, 146.7008, 0.018201206, -0.0017412944, -24170.629, -24170.629 
2.7515867e+2, 3.2467446e+2, 43466.65, -41494.88, 7.9353113, -0.012780814, -0.0012951223, 43466.65, 43466.65 
2.851605e+2, 3.5023814e+1, -2536204.0, -2602845.3, -1474.4227, 0.0074718567, 0.00081787596, -2536171.5, 60595.09 
2.851605e+2, 4.502002e+1, -2440803.3, -2518123.3, -482.33804, -0.010885105, -0.0040877257, -2440800.3, 58003.504 
2.8516102e+2, 5.5015785e+1, -2345135.0, -2421564.0, -292.90253, 0.0004842301, -0.00081105187, -2345133.8, 55711.426 
2.8516138e+2, 6.501091e+1, -2257138.0, -2341829.8, -618.4465, 0.003827237, 0.00119133, -2257133.5, 45759.64 
2.8516158e+2, 7.5005424e+1, -2159806.5, -2244364.8, -714.4575, -0.0008160933, 0.000058365436, -2159800.5, 45146.445 
2.8516173e+2, 8.499925e+1, -2071136.6, -2165817.3, -1457.8898, -0.0016837589, 0.00038844038, -2071114.3, 35893.152 
2.8516185e+2, 9.4992423e+1, -1972042.1, -2067469.1, -1458.3442, 0.0012157311, 0.00017117147, -1972019.9, 37054.453 
2.85162e+2, 1.0498492e+2, -1883899.0, -1988954.6, -1016.9177, 0.0015104435, 0.00022154734, -1883889.1, 27258.691 
2.8516218e+2, 1.1497674e+2, -1787815.8, -1892031.9, -1045.3911, -0.00080776575, -0.0013655501, -1787805.3, 25422.676 
2.8516227e+2, 1.24967925e+2, -1699260.8, -1812946.4, -1949.3676, -0.0012244437, -0.00079164637, -1699227.4, 16086.947 
2.8516224e+2, 1.3495848e+2, -1599911.6, -1714415.3, -1980.9156, 0.00027980618, -0.000037412065, -1599877.4, 17529.385 
2.851623e+2, 1.4494835e+2, -1511741.6, -1636503.4, -1474.1923, 0.00047486406, 0.0005199253, -1511724.1, 7782.0547 
2.851624e+2, 1.549375e+2, -1415117.0, -1539294.4, -1482.0927, -0.00065595476, -0.0011797734, -1415099.3, 6513.262 
2.8516242e+2, 1.6492602e+2, -1326620.1, -1460027.4, -1984.9807, -0.00029456895, -0.0007602156, -1326590.6, -2865.6177 
2.8516242e+2, 1.7491393e+2, -1228055.5, -1361837.9, -1938.5283, 0.0016039907, -0.0002916957, -1228027.4, -2183.8574 
2.8516242e+2, 1.8490112e+2, -1139753.6, -1283790.8, -1679.7787, 0.0009416957, 0.00047497932, -1139734.0, -11765.106 
2.8516242e+2, 1.9488765e+2, -1042324.1, -1186165.0, -1710.0531, -0.0023840084, -0.000384008, -1042303.8, -12202.729 
2.8516245e+2, 2.0487352e+2, -953845.4, -1106997.5, -1717.307, -0.0022546866, 0.000023681092, -953826.1, -21586.605 
2.8516254e+2, 2.1485876e+2, -856205.0, -1009275.1, -1788.5812, 0.0014868655, -0.00029809374, -856184.06, -21799.822 
2.8516257e+2, 2.248433e+2, -767760.0, -931086.75, -1863.6393, 0.0022109754, 0.00010248934, -767738.75, -31203.018 
2.8516257e+2, 2.3482715e+2, -669101.3, -832768.2, -1775.283, -0.00027546912, -0.0010287429, -669082.06, -30388.094 
2.8516266e+2, 2.4481033e+2, -580886.75, -754452.5, -1254.3057, -0.0013449343, -0.000677794, -580877.7, -40018.96 
2.851628e+2, 2.5479287e+2, -484087.03, -656885.3, -1228.9502, -0.0008916566, -0.00075444253, -484078.28, -41048.29 
2.8516293e+2, 2.647747e+2, -395558.44, -578071.7, -1380.7888, 0.0001212909, -0.000057689267, -395548.0, -50340.316 
2.8516307e+2, 2.7475595e+2, -296376.0, -479275.16, -1481.1338, 0.0017403394, -0.00073727436, -296364.0, -48972.316 
2.8516328e+2, 2.8473645e+2, -208612.56, -402584.6, -809.9396, 0.00018217466, -0.00019171278, -208609.17, -59026.305 
2.851635e+2, 2.947162e+2, -111045.805, -304536.1, -590.16187, -0.0048832474, -0.0008376772, -111044.0, -59262.85 
2.851638e+2, 3.0469877e+2, -23176.309, -174297.63, -1025.3342, -0.00015796516, -0.0005531372, -23169.352, -23169.352 
2.8516415e+2, 3.1468415e+2, -23556.998, -174112.0, -1599.6422, 0.01558811, -0.0013141772, -23540.004, -23540.004 
2.8516436e+2, 3.2467404e+2, 42497.55, -41830.15, 310.03998, -0.011141705, 0.00063828344, 42498.69, 42498.69 
2.951662e+2, 3.502336e+1, -2537385.3, -2605369.5, 1673.7023, 0.005727676, -0.0008406905, -2537344.0, 59427.152 
2.9516658e+2, 4.5019612e+1, -2440489.3, -2517414.0, -1037.5614, -0.010048615, 0.004753919, -2440475.3, 58332.78 
2.9516694e+2, 5.501535e+1, -2344780.0, -2420827.5, -845.1984, 0.0021321361, -0.0004971657, -2344770.5, 56079.063 
2.9516718e+2, 6.501045e+1, -2257329.5, -2342174.5, -754.237, 0.00474644, -0.001690443, -2257322.8, 45574.867 
2.9516733e+2, 7.500496e+1, -2159987.8, -2244705.5, -848.28033, -0.0021551321, -0.0007062362, -2159979.3, 44972.273 
2.9516754e+2, 8.499878e+1, -2071136.4, -2165801.0, -1154.7386, -0.0029220309, 0.00010170004, -2071122.4, 35889.613 
2.9516774e+2, 9.4991934e+1, -1972073.4, -2067461.5, -1155.1713, 0.0024260476, -0.0012822831, -1972059.4, 37019.55 
2.9516783e+2, 1.04984425e+2, -1883962.3, -1989082.0, -1491.0515, 0.0024401322, -0.0007682352, -1883941.1, 27211.459 
2.9516786e+2, 1.1497627e+2, -1787857.0, -1892132.0, -1518.6514, -0.0029086857, -0.00027114872, -1787834.9, 25397.646 
2.9516795e+2, 1.2496746e+2, -1699294.1, -1813057.3, -1597.6411, -0.002673608, 0.0007203574, -1699271.8, 16047.1875 
2.9516807e+2, 1.34958e+2, -1599983.8, -1714526.0, -1628.3838, 0.0032142724, 0.00022013155, -1599960.6, 17451.05 
2.9516813e+2, 1.4494784e+2, -1511771.0, -1636564.3, -1823.9794, 0.0033696608, 0.00002418429, -1511744.4, 7766.76 
2.9516807e+2, 1.5493698e+2, -1415148.5, -1539329.1, -1832.0352, -0.0023072474, -0.0019270546, -1415121.5, 6496.0107 
2.9516807e+2, 1.6492552e+2, -1326519.5, -1459841.5, -1848.3577, -0.003353783, -0.0012227918, -1326493.9, -2763.9668 
2.9516813e+2, 1.7491344e+2, -1227978.5, -1361640.3, -1802.2506, 0.00035702487, 0.00008572889, -1227954.3, -2105.9727 
2.9516813e+2, 1.8490066e+2, -1139812.0, -1283930.4, -1824.2983, 0.0017238713, 0.0009551796, -1139788.9, -11815.332 
2.9516813e+2, 1.9488715e+2, -1042388.5, -1186297.6, -1853.1973, 0.0006523455, -0.0005676511, -1042364.6, -12258.724 
2.9516813e+2, 2.04873e+2, -953977.2, -1107273.1, -1814.2413, -0.0002124333, -0.0008966094, -953955.7, -21711.174 
2.9516813e+2, 2.1485822e+2, -856335.8, -1009546.0, -1883.752, -0.0008655563, -0.0020339333, -856312.6, -21923.096 
2.951682e+2, 2.2484276e+2, -767613.75, -930727.7, -1716.3951, -0.00076975266, -0.0007695203, -767595.7, -31054.754 
2.9516825e+2, 2.3482665e+2, -668969.06, -832416.94, -1626.7589, 0.00011629754, 0.00074920565, -668952.9, -30254.21 
2.951683e+2, 2.4480987e+2, -580883.6, -754375.9, -1593.8871, 0.00022353997, 0.0011817407, -580869.0, -40005.703 
2.9516837e+2, 2.5479236e+2, -484056.28, -656790.56, -1576.1897, -0.0005076732, -0.0015817679, -484041.9, -41007.18 
2.9516846e+2, 2.6477423e+2, -395710.06, -578431.2, -1156.3746, -0.00015106847, -0.0012094461, -395702.75, -50490.2 
2.9516867e+2, 2.7475545e+2, -296573.0, -479649.75, -1241.4119, 0.0013936856, 0.00034966142, -296564.6, -49168.008 
2.9516885e+2, 2.8473595e+2, -208244.95, -401849.94, -984.0051, 0.000812825, 0.0010556369, -208239.95, -58652.32 
2.9516906e+2, 2.9471576e+2, -110655.625, -303757.56, -779.1328, -0.0021159037, -0.0017352926, -110652.484, -58866.934 
2.951693e+2, 3.0469826e+2, -24193.541, -176354.08, -1179.8085, -0.0014164579, -0.0010983592, -24184.395, -24184.395 
2.951695e+2, 3.1468353e+2, -24591.084, -176227.89, -1740.5696, 0.0033852211, 0.0012937317, -24571.107, -24571.107 
2.951701e+2, 3.2467335e+2, 42351.273, -41954.65, 1917.8912, -0.0017761185, 0.0012629685, 42394.883, 42394.883 
3.0517197e+2, 3.5022807e+1, -2533899.3, -2603699.5, 1747.2384, 0.00060357165, -0.0010765548, -2533855.5, 62921.098 
3.0517256e+2, 4.5019096e+1, -2443590.0, -2518293.5, -1451.4617, -0.0025359236, 0.0061070323, -2443561.8, 55251.184 
3.051728e+2, 5.501487e+1, -2345143.8, -2420370.5, -1232.4587, 0.001697605, -0.00031688577, -2345123.8, 55730.65 
3.0517298e+2, 6.5009993e+1, -2256566.5, -2341987.8, -977.1301, 0.0020360292, -0.0020619612, -2256555.3, 46346.84 
3.0517316e+2, 7.500449e+1, -2158718.3, -2244270.0, -1005.8757, -0.0014938099, -0.0010119791, -2158706.5, 46249.63 
3.0517337e+2, 8.49983e+1, -2070350.9, -2165453.8, -1142.8292, -0.0016255439, -0.000085340966, -2070337.1, 36679.54 
3.0517358e+2, 9.499146e+1, -1972921.0, -2067912.4, -1172.0361, 0.0016265857, -0.0012927931, -1972906.5, 36177.176 
3.0517367e+2, 1.04983956e+2, -1884645.9, -1989348.9, -1784.4902, 0.0015135874, -0.00069558097, -1884615.4, 26541.85 
3.0517364e+2, 1.14975795e+2, -1786632.0, -1891494.6, -1734.5333, -0.0019865378, -0.00021265478, -1786603.3, 26633.93 
3.051737e+2, 1.2496697e+2, -1698102.1, -1812706.0, -1464.5508, -0.0017746345, 0.0005220318, -1698083.4, 17240.314 
3.0517384e+2, 1.3495749e+2, -1600396.9, -1714971.0, -1591.3004, 0.0021963678, -0.0004681326, -1600374.8, 17041.86 
3.051739e+2, 1.4494732e+2, -1512291.6, -1636581.9, -2122.88, 0.0023768328, -0.00030552194, -1512255.4, 7260.839 
3.0517378e+2, 1.549365e+2, -1414746.0, -1538929.4, -1978.6334, -0.0012967392, -0.0010433652, -1414714.5, 6907.7607 
3.0517375e+2, 1.6492504e+2, -1326227.4, -1459934.9, -1744.6141, -0.0023267658, -0.00040489473, -1326204.6, -2469.9658 
3.051738e+2, 1.7491291e+2, -1228221.8, -1362015.1, -1947.4548, -0.0006399809, -0.00047532353, -1228193.4, -2340.0808 
3.051738e+2, 1.8490013e+2, -1139969.3, -1283773.5, -2178.234, 0.0006891236, 0.00009894644, -1139936.4, -11957.622 
3.0517378e+2, 1.9488665e+2, -1042324.8, -1186042.6, -2013.3533, 0.0016405813, -0.00059581664, -1042296.6, -12185.901 
3.0517375e+2, 2.0487252e+2, -953887.2, -1107338.5, -1796.1615, 0.0008700753, -0.0005039862, -953866.2, -21616.871 
3.0517375e+2, 2.1485771e+2, -855993.5, -1009484.25, -1812.2262, -0.0017121681, -0.001639919, -855972.1, -21577.719 
3.0517378e+2, 2.2484225e+2, -767620.8, -930709.75, -1650.1188, -0.0018721712, -0.0006145553, -767604.1, -31058.291 
3.0517384e+2, 2.3482616e+2, -670279.0, -833001.94, -1702.1945, 0.0005363079, 0.00040103914, -670261.2, -31557.572 
3.0517393e+2, 2.4480937e+2, -581849.44, -754724.3, -1770.9069, 0.0010968865, 0.0008956762, -581831.25, -40963.145 
3.0517393e+2, 2.5479192e+2, -483054.53, -656194.75, -1701.8885, -0.0003308233, -0.0011814415, -483037.8, -39998.426 
3.0517405e+2, 2.6477376e+2, -394775.6, -578076.8, -1143.2823, -0.0006717074, -0.0007615124, -394768.47, -49551.29 
3.0517423e+2, 2.7475494e+2, -297495.6, -480214.44, -1128.6587, 0.00016816267, 0.0001421524, -297488.63, -50087.21 
3.051744e+2, 2.8473547e+2, -209559.2, -402354.16, -1011.27625, 0.0007484626, 0.0006678428, -209553.9, -59961.426 
3.0517465e+2, 2.947153e+2, -111057.46, -303820.4, -1119.3254, 0.001051805, -0.001780035, -111050.96, -59260.71 
3.0517483e+2, 3.0469778e+2, -23753.918, -176929.25, -1249.1641, -0.00074170047, -0.00059763266, -23743.73, -23743.73 
3.0517498e+2, 3.14683e+2, -22232.494, -175846.86, -1256.4883, -0.004868641, 0.0025741383, -22222.219, -22222.219 
3.051757e+2, 3.2467273e+2, 39273.9, -42882.832, 2281.405, 0.0032757695, 0.00027545184, 39337.2, 39337.2 
3.1517783e+2, 3.5022154e+1, -2532815.8, -2601468.0, 578.0111, -0.0077254153, 0.000034261186, -2532810.8, 63972.047 
3.1517848e+2, 4.5018482e+1, -2443187.0, -2517439.3, -1277.3397, 0.011198844, 0.00045181034, -2443165.0, 55653.89 
3.1517863e+2, 5.501438e+1, -2344712.8, -2419510.8, -1065.45, -0.0007089887, -0.00025794355, -2344697.5, 56161.527 
3.1517878e+2, 6.5009546e+1, -2256610.5, -2342083.8, -975.63513, -0.004088001, -0.00008218732, -2256599.5, 46307.08 
3.1517905e+2, 7.5004005e+1, -2158771.8, -2244368.3, -1004.29224, 0.0010157581, -0.0008929792, -2158760.0, 46200.703 
3.1517923e+2, 8.499781e+1, -2070398.5, -2165568.8, -1261.1353, 0.0020251097, -0.0001805667, -2070381.8, 36639.668 
3.1517935e+2, 9.4990975e+1, -1972981.6, -2068017.4, -1288.9493, -0.0010709949, 0.000039706785, -1972964.1, 36124.3 
3.1517944e+2, 1.0498347e+2, -1884534.6, -1989155.9, -1764.9136, -0.0011658751, 0.00036995538, -1884504.9, 26657.162 
3.151795e+2, 1.1497531e+2, -1786518.4, -1891283.3, -1718.1284, 0.0017486365, -0.0011236308, -1786490.3, 26751.68 
3.1517953e+2, 1.2496647e+2, -1698328.3, -1813207.9, -1532.8684, 0.0013043003, -0.001276895, -1698307.8, 17020.86 
3.151796e+2, 1.3495696e+2, -1600661.0, -1715473.9, -1654.4243, -0.0025268765, -0.0020436672, -1600637.3, 16784.678 
3.151796e+2, 1.4494681e+2, -1512024.6, -1636032.8, -2237.2898, -0.0022611076, -0.00048258223, -1511984.3, 7536.9824 
3.1517956e+2, 1.5493605e+2, -1414461.6, -1538342.4, -2099.1646, 0.0021842937, 0.0013634779, -1414426.0, 7200.674 
3.1517953e+2, 1.6492458e+2, -1326590.4, -1460723.0, -1752.299, 0.0025033, 0.0016071487, -1326567.5, -2828.3372 
3.151795e+2, 1.7491236e+2, -1228629.6, -1362815.4, -1946.189, -0.001417063, -0.0019150589, -1228601.4, -2742.6504 
3.151795e+2, 1.8489957e+2, -1139680.3, -1283151.1, -2260.4238, -0.0020589193, -0.00200527, -1139644.6, -11660.417 
3.1517947e+2, 1.9488615e+2, -1042016.06, -1185399.4, -2102.1902, 0.00069917034, -0.00047983805, -1041985.25, -11869.607 
3.1517944e+2, 2.0487206e+2, -953915.56, -1107395.5, -1830.1688, 0.001037276, 0.0011172355, -953893.75, -21639.848 
3.151794e+2, 2.1485725e+2, -856029.94, -1009558.9, -1843.5767, -0.0011661099, 0.00074641936, -856007.8, -21608.861 
3.151794e+2, 2.2484179e+2, -767733.3, -930913.3, -1836.6106, -0.0012336001, 0.00050059124, -767712.6, -31162.059 
3.1517944e+2, 2.3482564e+2, -670372.56, -833206.4, -1889.2258, 0.0009603156, -0.0019360486, -670350.6, -31641.844 
3.1517947e+2, 2.4480884e+2, -581729.8, -754438.6, -1608.3815, 0.0012990339, -0.0013919079, -581714.9, -40841.566 
3.1517953e+2, 2.5479144e+2, -482952.84, -655916.0, -1534.7249, -0.00036278917, 0.00036200322, -482939.22, -39895.24 
3.1517962e+2, 2.6477328e+2, -394792.66, -578060.9, -1389.5071, -0.0014486093, 0.0011767988, -394782.13, -49560.465 
3.151797e+2, 2.747545e+2, -297486.88, -480196.4, -1382.446, -0.0018957403, -0.0012771697, -297476.4, -50070.266 
3.151799e+2, 2.8473496e+2, -209769.02, -402750.44, -965.2265, 0.000021045193, -0.0012491996, -209764.19, -60166.785 
3.1518018e+2, 2.9471478e+2, -111281.17, -304235.3, -1061.022, 0.004565106, -0.001025442, -111275.336, -59480.1 
3.1518042e+2, 3.0469728e+2, -23802.06, -176953.92, -879.62305, 0.0017128265, 0.0008795102, -23797.008, -23797.008 
3.151806e+2, 3.1468242e+2, -22288.127, -175892.58, -869.2904, -0.009443929, 0.0025889527, -22283.209, -22283.209 
3.1518114e+2, 3.2467222e+2, 39966.613, -41467.64, -102.62413, 0.004269488, -0.002195976, 39966.742, 39966.742 
3.2518378e+2, 3.5021713e+1, -2531611.5, -2600659.8, 279.49265, -0.008774287, -0.00015887068, -2531610.3, 65176.934 
3.251843e+2, 4.5018023e+1, -2443983.8, -2517911.0, -61.679943, 0.013124037, -0.0020162044, -2443983.8, 54839.72 
3.2518446e+2, 5.501393e+1, -2344140.3, -2419310.8, -316.79138, -0.0013933188, -0.00041108901, -2344139.0, 56724.48 
3.2518467e+2, 6.50091e+1, -2255630.3, -2341738.3, -882.7894, -0.005111061, 0.000693639, -2255621.3, 47289.688 
3.2518494e+2, 7.5003546e+1, -2158258.5, -2244262.5, -942.61237, 0.0019126076, -0.000564571, -2158248.0, 46717.18 
3.2518512e+2, 8.4997344e+1, -2070152.3, -2165449.5, -1270.4507, 0.0029660116, -0.000103905244, -2070135.3, 36890.75 
3.2518518e+2, 9.499051e+1, -1972866.8, -2067979.4, -1263.3667, -0.0019580033, 0.00005883292, -1972850.0, 36243.1 
3.2518524e+2, 1.04982994e+2, -1884304.9, -1989201.5, -1588.6932, -0.0020772654, 0.0003849643, -1884280.9, 26885.816 
3.2518533e+2, 1.1497481e+2, -1785699.9, -1891047.5, -1755.635, 0.00262513, -0.0010541965, -1785670.6, 27576.188 
3.2518536e+2, 1.24965966e+2, -1697744.9, -1812834.4, -1882.1915, 0.0022993928, -0.0010961965, -1697714.1, 17619.34 
3.2518533e+2, 1.3495645e+2, -1601395.6, -1715766.9, -1729.6342, -0.0031090323, -0.0016976318, -1601369.5, 16057.228 
3.251853e+2, 1.449463e+2, -1512686.1, -1636460.1, -1984.6212, -0.0031430912, -0.00041737186, -1512654.4, 6871.7866 
3.2518533e+2, 1.5493554e+2, -1413422.0, -1537943.8, -2190.9507, 0.0023039926, 0.00069627695, -1413383.5, 8248.238 
3.251853e+2, 1.6492406e+2, -1325405.9, -1460118.5, -2151.6526, 0.0030682995, 0.0010473034, -1325371.5, -1627.2814 
3.251852e+2, 1.7491187e+2, -1229021.3, -1362997.3, -1950.2794, -0.000980355, -0.0015067821, -1228992.9, -3129.1382 
3.2518515e+2, 1.8489906e+2, -1140542.5, -1283608.8, -1995.8038, -0.0021304332, -0.0013950332, -1140514.6, -12525.457 
3.2518512e+2, 1.9488566e+2, -1042126.7, -1185480.4, -2175.6846, -0.00026807562, -0.00045982233, -1042093.7, -11973.0 
3.251851e+2, 2.0487154e+2, -953775.94, -1107205.9, -2135.3826, 0.0004434718, 0.0009060033, -953746.25, -21487.332 
3.2518506e+2, 2.1485674e+2, -856369.3, -1009598.6, -2047.7461, -0.000057204816, 0.00068532414, -856341.94, -21938.078 
3.2518503e+2, 2.2484128e+2, -768011.7, -931049.1, -1929.4651, -0.00018211736, 0.00055546575, -767988.8, -31433.404 
3.2518503e+2, 2.3482513e+2, -669864.3, -832962.2, -1888.4132, 0.00008839458, -0.0018084708, -669842.44, -31128.846 
3.2518506e+2, 2.4480835e+2, -581447.9, -754350.7, -1568.2172, 0.00016452973, -0.0013262318, -581433.7, -40555.52 
3.2518512e+2, 2.5479093e+2, -484093.22, -656464.3, -1636.9414, 0.00003248996, 0.00022326024, -484077.66, -41028.797 
3.2518518e+2, 2.647728e+2, -395959.78, -578524.6, -1594.5631, -0.00058186904, 0.001087708, -395945.88, -50719.383 
3.2518527e+2, 2.74754e+2, -297390.38, -480027.88, -1528.8289, -0.0017243657, -0.0010376057, -297377.6, -49966.742 
3.2518542e+2, 2.8473446e+2, -209370.63, -402620.1, -946.2675, -0.00052664214, -0.0009656914, -209365.98, -59763.91 
3.251857e+2, 2.947143e+2, -111411.64, -304380.5, -881.6123, 0.0032873566, -0.0010099583, -111407.62, -59607.62 
3.2518595e+2, 3.0469677e+2, -24645.51, -176911.92, -305.31787, 0.0015552934, 0.0007600632, -24644.896, -24644.896 
3.2518622e+2, 3.14682e+2, -24685.535, -176583.42, 4.7250986, -0.0064123743, 0.0024939554, -24685.535, -24685.535 
3.2518652e+2, 3.246718e+2, 40434.938, -41034.496, -830.78625, 0.0027206168, -0.0030331286, 40443.406, 40443.406 
3.3518985e+2, 3.5021457e+1, -2532354.5, -2602114.5, -2203.9277, -0.0030695652, -0.0015634266, -2532285.0, 64504.75 
3.3518997e+2, 4.5017704e+1, -2444367.0, -2518855.3, 448.79065, 0.004040392, -0.0015063814, -2444364.3, 54462.293 
3.3519036e+2, 5.501354e+1, -2344609.8, -2420290.5, 195.45486, -0.00049883075, -0.00076167635, -2344609.3, 56257.953 
3.3519065e+2, 6.5008664e+1, -2255762.8, -2341975.5, -1007.9564, -0.0014063744, 0.0003507317, -2255751.0, 47164.152 
3.3519083e+2, 7.5003105e+1, -2158389.5, -2244486.8, -1065.044, 0.0012909097, -0.000043620792, -2158376.3, 46593.215 
3.3519095e+2, 8.4996897e+1, -2070123.8, -2165419.8, -1427.3483, 0.001367731, 0.0001293693, -2070102.4, 36928.074 
3.35191e+2, 9.4990045e+1, -1972825.4, -2067932.5, -1423.408, -0.0011807145, -0.0011457863, -1972804.1, 36293.43 
3.3519107e+2, 1.0498251e+2, -1884598.6, -1989843.5, -1419.7301, -0.0013634028, -0.00057820586, -1884579.4, 26591.959 
3.351912e+2, 1.1497431e+2, -1786039.0, -1891702.1, -1578.9315, 0.000829578, -0.00007722991, -1786015.5, 27236.316 
3.351912e+2, 1.2496547e+2, -1697465.9, -1812254.1, -2289.958, 0.0013395153, 0.00092635816, -1697420.1, 17918.219 
3.351911e+2, 1.34956e+2, -1601066.9, -1715148.4, -2146.6301, 0.00014655532, 0.0004369851, -1601026.5, 16404.605 
3.3519107e+2, 1.4494583e+2, -1513048.4, -1637234.8, -1663.2734, -0.0005435893, -0.00012770604, -1513026.1, 6504.7124 
3.351911e+2, 1.5493497e+2, -1413853.8, -1538759.5, -1858.5612, -0.00071668206, -0.0028305487, -1413826.1, 7811.177 
3.3519104e+2, 1.6492349e+2, -1325083.5, -1459364.9, -2559.8623, -0.00035467243, -0.0019040204, -1325034.8, -1285.001 
3.3519092e+2, 1.7491141e+2, -1228644.4, -1362198.8, -2369.978, 0.0005665956, 0.00062055036, -1228602.4, -2734.1316 
3.3519083e+2, 1.8489861e+2, -1140857.8, -1284272.6, -1891.3518, 0.00027498303, 0.0017416134, -1140832.9, -12839.259 
3.3519077e+2, 1.9488512e+2, -1042476.75, -1186179.3, -2059.6084, -0.001275846, -0.0005310124, -1042447.25, -12321.417 
3.3519074e+2, 2.0487098e+2, -953644.06, -1106872.1, -2281.2568, -0.0008779034, -0.0010083949, -953610.1, -21345.781 
3.351907e+2, 2.1485622e+2, -856215.75, -1009250.8, -2200.1511, 0.0015592295, -0.0016509214, -856184.1, -21775.059 
3.3519065e+2, 2.2484078e+2, -767945.06, -930876.6, -1913.9584, 0.0012392738, -0.00037637984, -767922.6, -31362.23 
3.3519062e+2, 2.3482467e+2, -669805.2, -832801.9, -1870.7372, -0.0020110146, 0.00061374216, -669783.7, -31065.559 
3.3519062e+2, 2.448079e+2, -581608.25, -754621.9, -1760.3694, -0.0022309648, 0.0009290493, -581590.3, -40707.61 
3.3519065e+2, 2.547904e+2, -484223.3, -656757.06, -1829.2566, 0.0008134848, -0.0014825941, -484203.9, -41149.914 
3.3519074e+2, 2.6477227e+2, -395846.25, -578273.06, -1513.4207, 0.0017873042, -0.00088680675, -395833.72, -50602.055 
3.3519083e+2, 2.747535e+2, -297277.75, -479779.53, -1442.9508, 0.0005061766, 0.0007418426, -297266.34, -49850.836 
3.3519095e+2, 2.8473404e+2, -209265.31, -402455.53, -1029.3844, -0.00091998937, 0.0013646262, -209259.83, -59653.32 
3.3519113e+2, 2.947138e+2, -111317.84, -304205.4, -968.0724, -0.0024797635, -0.0016810514, -111312.99, -59508.434 
3.351914e+2, 3.0469635e+2, -24141.713, -175797.6, -350.23532, -0.0010704809, -0.0008369201, -24140.904, -24140.904 
3.3519182e+2, 3.1468168e+2, -24184.244, -175452.4, -40.287655, 0.0036507642, 0.0023004594, -24184.234, -24184.234 
3.3519194e+2, 3.246715e+2, 40026.664, -41871.047, -1141.1868, -0.0012663925, -0.0024030742, 40042.566, 40042.566 
3.4519583e+2, 3.5021174e+1, -2534673.8, -2603931.3, -2346.1357, 0.0022699924, -0.0015797596, -2534594.5, 62198.0 
3.4519583e+2, 4.5017368e+1, -2439149.0, -2516987.0, 246.9156, -0.0039903563, -0.0009040454, -2439148.3, 59681.594 
3.4519628e+2, 5.501313e+1, -2343659.3, -2420515.8, 30.73048, 0.00044357934, -0.00084137276, -2343659.3, 57211.957 
3.451966e+2, 6.5008223e+1, -2256286.5, -2342237.5, -1108.1002, 0.0018085899, 0.0000015680571, -2256272.3, 46647.137 
3.4519672e+2, 7.500267e+1, -2158488.8, -2244554.8, -1059.7593, 0.000098997734, -0.00025674532, -2158475.8, 46498.08 
3.4519684e+2, 8.4996444e+1, -2069714.5, -2165479.0, -1420.6963, -0.0004308398, -0.0000157614, -2069693.5, 37341.38 
3.451969e+2, 9.498957e+1, -1971455.0, -2067532.1, -1602.2754, 0.00021614449, -0.0012923699, -1971428.3, 37673.938 
3.4519696e+2, 1.0498203e+2, -1883591.0, -1989270.4, -1596.3196, 0.00011211397, -0.0006664641, -1883566.9, 27609.168 
3.4519702e+2, 1.14973836e+2, -1787096.5, -1892149.3, -1406.3861, -0.00074824505, -0.000042258598, -1787077.6, 26178.752 
3.45197e+2, 1.24965e+2, -1698314.5, -1812805.0, -2057.646, -0.00022078816, 0.0009860856, -1698277.5, 17065.568 
3.451969e+2, 1.3495551e+2, -1599090.6, -1714329.9, -2308.4841, 0.0017061009, 0.00040967067, -1599044.4, 18391.586 
3.4519687e+2, 1.4494534e+2, -1511241.3, -1636383.5, -1941.6359, 0.0011920189, -0.000048141734, -1511211.1, 8324.56 
3.4519684e+2, 1.5493448e+2, -1415481.1, -1539559.6, -1762.2714, -0.0018037863, -0.0024387601, -1415456.1, 6186.0107 
3.4519675e+2, 1.64923e+2, -1326964.1, -1460242.5, -2335.079, -0.0018875255, -0.0015808666, -1326923.3, -3168.6794 
3.4519663e+2, 1.749109e+2, -1227661.8, -1361678.8, -2487.7957, 0.0010302098, 0.00048057025, -1227615.6, -1742.496 
3.4519655e+2, 1.8489812e+2, -1139315.9, -1283568.3, -2119.717, 0.001323163, 0.0014676228, -1139284.8, -11286.255 
3.4519646e+2, 1.9488463e+2, -1042638.0, -1186305.9, -1975.1179, -0.0011082074, -0.0005933458, -1042610.9, -12480.178 
3.4519637e+2, 2.0487048e+2, -954367.44, -1107253.0, -2075.4292, -0.0012281183, -0.0010093449, -954339.3, -22070.068 
3.4519628e+2, 2.1485572e+2, -856347.0, -1009324.3, -2173.1853, 0.001075629, -0.0017552574, -856316.2, -21902.164 
3.4519622e+2, 2.2484028e+2, -767973.75, -930836.2, -1984.4845, 0.0010451158, -0.00043611272, -767949.56, -31384.31 
3.451962e+2, 2.348242e+2, -670410.1, -833027.4, -1979.5883, -0.0014679512, 0.00076624093, -670386.06, -31663.105 
3.4519616e+2, 2.448074e+2, -582160.7, -754791.7, -1832.9956, -0.0017822307, 0.0011040111, -582141.2, -41253.758 
3.451962e+2, 2.5478992e+2, -484006.34, -656560.4, -1722.5026, 0.00027656413, -0.0014999707, -483989.16, -40930.465 
3.4519622e+2, 2.647718e+2, -395611.28, -578139.7, -1299.1107, 0.0013001005, -0.0010504638, -395602.03, -50365.73 
3.4519634e+2, 2.7475306e+2, -297812.3, -480011.5, -1343.5725, 0.0011882621, 0.0004942072, -297802.4, -50382.254 
3.451965e+2, 2.8473356e+2, -210114.17, -402705.1, -1054.4832, -0.00049712317, 0.0012644345, -210108.39, -60497.313 
3.4519663e+2, 2.9471338e+2, -112097.055, -304399.53, -1014.2075, -0.003888835, -0.0013753633, -112091.71, -60282.74 
3.4519687e+2, 3.0469593e+2, -25032.7, -175756.36, -612.6862, -0.0015761891, -0.0009417972, -25030.209, -25030.209 
3.4519723e+2, 3.1468126e+2, -26058.992, -175866.84, -536.93146, 0.00711255, 0.0008729935, -26057.068, -26057.068 
3.4519738e+2, 3.2467115e+2, 41137.84, -41849.082, -665.5087, -0.0032922088, -0.0010922663, 41143.176, 41143.176 
3.5520175e+2, 3.5020873e+1, -2534863.8, -2604355.8, 197.26909, 0.0072411946, -0.00031234403, -2534863.0, 61932.367 
3.552019e+2, 4.5017016e+1, -2439603.0, -2517850.5, -356.08328, -0.011056422, -0.00022658239, -2439601.5, 59231.875 
3.552023e+2, 5.501272e+1, -2344077.5, -2421355.3, -561.07227, 0.0014101858, -0.00067532907, -2344073.5, 56801.87 
3.5520253e+2, 6.500778e+1, -2256189.3, -2342024.0, -1120.9823, 0.004545576, -0.00035780657, -2256174.5, 46749.145 
3.5520262e+2, 7.5002235e+1, -2158391.3, -2244334.0, -1077.1097, -0.001637152, -0.0011535011, -2158377.8, 46600.215 
3.552027e+2, 8.4996e+1, -2070059.9, -2166165.8, -1329.694, -0.002431165, -0.00051396375, -2070041.5, 36997.77 
3.5520285e+2, 9.498909e+1, -1971827.3, -2068225.8, -1504.1959, 0.002164833, -0.00045849747, -1971803.8, 37303.16 
3.5520288e+2, 1.0498155e+2, -1883236.1, -1988522.1, -1960.8058, 0.0022739172, 0.000057428937, -1883199.6, 27981.162 
3.552028e+2, 1.14973396e+2, -1786711.5, -1891378.1, -1780.8704, -0.0021354044, -0.0008816481, -1786681.3, 26579.451 
3.5520276e+2, 1.24964535e+2, -1698767.5, -1813752.9, -1742.1827, -0.0023550056, -0.00077307184, -1698741.1, 16606.434 
3.552028e+2, 1.3495499e+2, -1599596.5, -1715301.9, -1981.0181, 0.0016755668, -0.0016196481, -1599562.6, 17878.54 
3.552027e+2, 1.4494482e+2, -1510942.8, -1635712.4, -2498.6738, 0.002111219, -0.00016551517, -1510892.8, 8648.0 
3.5520253e+2, 1.5493405e+2, -1415115.6, -1538857.4, -2331.1042, -0.0011169926, 0.0015835289, -1415071.8, 6574.597 
3.5520244e+2, 1.6492257e+2, -1327214.1, -1460801.0, -2012.5463, -0.0016890834, 0.0017782538, -1327183.9, -3424.9753 
3.5520238e+2, 1.7491038e+2, -1227966.9, -1362272.8, -2153.4968, 0.0004759545, -0.0017582078, -1227932.4, -2054.091 
3.5520226e+2, 1.8489759e+2, -1139096.5, -1283041.9, -2446.2207, 0.0010996348, -0.00196456, -1139055.0, -11051.243 
3.552021e+2, 1.9488415e+2, -1042389.0, -1185756.5, -2312.2148, 0.0001249672, -0.0006476991, -1042351.7, -12216.405 
3.55202e+2, 2.0487005e+2, -954535.8, -1107609.4, -2078.669, -0.0006992761, 0.00076063146, -954507.56, -22233.986 
3.5520187e+2, 2.1485524e+2, -856521.6, -1009697.1, -2167.651, -0.0013675718, 0.00020652328, -856490.94, -22072.363 
3.552018e+2, 2.2483978e+2, -767985.0, -930819.4, -2110.1746, -0.0006646709, 0.00031147856, -767957.7, -31387.613 
3.5520178e+2, 2.3482367e+2, -670414.75, -833012.06, -2106.8943, 0.001497954, -0.0011828322, -670387.44, -31659.465 
3.5520175e+2, 2.448069e+2, -581962.75, -754380.5, -1828.7229, 0.001282147, -0.00064540573, -581943.4, -41051.027 
3.5520172e+2, 2.547895e+2, -483800.88, -656155.94, -1718.8838, -0.0014959729, 0.000046441088, -483783.72, -40720.773 
3.5520175e+2, 2.6477137e+2, -395727.78, -578330.0, -1417.0211, -0.0018588706, 0.0004672488, -395716.8, -50476.3 
3.5520184e+2, 2.7475256e+2, -297926.97, -480222.38, -1459.4811, 0.00041605672, -0.0016326414, -297915.28, -50490.48 
3.5520193e+2, 2.847331e+2, -210071.44, -402598.6, -1118.7566, 0.00066632, -0.0010874167, -210064.94, -60449.152 
3.5520208e+2, 2.9471293e+2, -112033.76, -304295.75, -1075.9832, -0.0012876028, -0.00016566795, -112027.734, -60214.473 
3.5520226e+2, 3.046955e+2, -24929.91, -175499.4, -907.49567, -0.00014492181, 0.00033236842, -24924.441, -24924.441 
3.5520253e+2, 3.146808e+2, -25921.334, -175601.4, -844.27496, 0.004440371, -0.0017121092, -25916.572, -25916.572 
3.552029e+2, 3.246707e+2, 40858.703, -42274.09, 1270.1959, -0.0035415904, 0.00085956976, 40878.105, 40878.105 
3.652077e+2, 3.5020447e+1, -2532599.5, -2602977.5, 752.69775, 0.0054400954, -0.0005223808, -2532591.3, 64208.266 
3.65208e+2, 4.5016629e+1, -2441245.8, -2518641.0, -1057.1107, -0.008079645, 0.0020627142, -2441231.3, 57605.92 
3.6520827e+2, 5.501231e+1, -2343894.3, -2421250.3, -856.1698, 0.0010146652, -0.0006291728, -2343884.8, 56994.69 
3.6520848e+2, 6.5007365e+1, -2255137.0, -2341734.0, -973.5552, 0.003340772, -0.0010527408, -2255126.0, 47801.93 
3.6520857e+2, 7.50018e+1, -2157168.5, -2243952.5, -1160.014, -0.0011070854, -0.0010810851, -2157153.0, 47829.395 
3.6520866e+2, 8.499555e+1, -2069243.3, -2165783.3, -1447.9513, -0.001727935, -0.00008658014, -2069221.5, 37822.066 
3.6520875e+2, 9.498865e+1, -1972237.5, -2068443.1, -1300.368, 0.001486226, -0.0000900188, -1972219.9, 36891.383 
3.6520875e+2, 1.04981095e+2, -1883538.6, -1988804.8, -1895.3063, 0.0016913337, 0.00016445715, -1883504.5, 27680.746 
3.6520866e+2, 1.1497292e+2, -1785365.8, -1890870.1, -2178.6604, -0.0011403523, -0.0012457059, -1785320.8, 27944.559 
3.652086e+2, 1.2496406e+2, -1697676.0, -1813218.3, -1995.1469, -0.0015507722, -0.0011649907, -1697641.6, 17710.611 
3.652086e+2, 1.3495451e+2, -1600886.9, -1715930.8, -1768.6614, 0.00049168005, -0.0015759949, -1600859.6, 16586.164 
3.652085e+2, 1.4494434e+2, -1512079.6, -1636299.6, -2410.7058, 0.0009972627, -0.000060923914, -1512032.9, 7512.5674 
3.6520827e+2, 1.5493356e+2, -1413460.3, -1538086.8, -2599.6106, -0.000058636895, 0.0013530676, -1413406.1, 8245.045 
3.6520812e+2, 1.6492207e+2, -1325438.9, -1459998.6, -2175.3342, -0.00044892594, 0.0015207782, -1325403.8, -1640.1276 
3.6520806e+2, 1.7490989e+2, -1228776.4, -1362715.3, -2074.9563, -0.00015444396, -0.0017232103, -1228744.3, -2861.1826 
3.6520794e+2, 1.848971e+2, -1140511.9, -1283685.8, -2503.15, 0.00014246519, -0.0017994663, -1140468.1, -12459.588 
3.6520776e+2, 1.9488367e+2, -1042542.7, -1185783.1, -2605.8325, 0.00044385326, -0.0005227104, -1042495.25, -12355.232 
3.652076e+2, 2.0486957e+2, -954171.4, -1107401.8, -2264.0913, -0.00006225566, 0.00086585863, -954137.94, -21859.61 
3.652075e+2, 2.1485476e+2, -856428.1, -1009610.2, -2150.1416, -0.0014140678, 0.00032014164, -856397.94, -21974.68 
3.652074e+2, 2.2483931e+2, -768057.56, -930820.3, -2087.7747, -0.00096092635, 0.00031262566, -768030.8, -31456.078 
3.6520734e+2, 2.348232e+2, -670549.3, -833037.8, -2073.4346, 0.0014114026, -0.001424965, -670522.9, -31790.215 
3.6520728e+2, 2.4480642e+2, -582278.75, -754479.94, -1776.7161, 0.001442864, -0.00087972224, -582260.44, -41363.484 
3.6520725e+2, 2.5478902e+2, -484418.6, -656405.6, -1851.2126, -0.0010456714, 0.00008885095, -484398.66, -41331.15 
3.6520725e+2, 2.647709e+2, -396396.25, -578505.6, -1624.4473, -0.0017928088, 0.0006003782, -396381.75, -51136.797 
3.6520728e+2, 2.7475214e+2, -298521.63, -480341.38, -1481.8389, -0.00064027164, -0.0016150946, -298509.56, -51080.406 
3.652074e+2, 2.8473264e+2, -210534.23, -402729.38, -977.3191, 0.00036347503, -0.0011720769, -210529.27, -60909.234 
3.6520755e+2, 2.9471248e+2, -112292.65, -304309.1, -938.73096, 0.0012450584, -0.00034129978, -112288.06, -60470.62 
3.652077e+2, 3.0469507e+2, -24780.975, -175868.47, -1049.5204, 0.00065247325, 0.00019644706, -24773.686, -24773.686 
3.6520785e+2, 3.1468037e+2, -24474.621, -175347.25, -1403.8225, -0.0016427316, -0.001660424, -24461.56, -24461.56 
3.6520836e+2, 3.2467026e+2, 37728.297, -42920.535, 1170.21, -0.000113132264, 0.0010267397, 37745.273, 37745.273 
3.7521362e+2, 3.5019913e+1, -2532037.0, -2601869.8, 910.4763, -0.0026539336, -0.0020873537, -2532025.3, 64779.723 
3.7521413e+2, 4.501621e+1, -2440887.3, -2517878.0, -1170.4031, 0.004145498, 0.005846957, -2440869.5, 57971.797 
3.7521422e+2, 5.501191e+1, -2343496.5, -2420462.0, -973.95807, -0.00066163746, -0.00069159025, -2343484.3, 57399.125 
3.752144e+2, 6.500695e+1, -2255484.0, -2342439.5, -943.5522, -0.0015243996, -0.002053377, -2255473.8, 47458.066 
3.7521458e+2, 7.500136e+1, -2157542.8, -2244666.8, -1124.1731, 0.0014918635, -0.00011725468, -2157528.3, 47458.543 
3.7521464e+2, 8.4995115e+1, -2068966.9, -2165201.5, -1671.8564, 0.0014500914, 0.0011920918, -2068937.9, 38110.074 
3.7521464e+2, 9.4988227e+1, -1971948.8, -2067846.9, -1530.3425, -0.0016390734, -0.00014961581, -1971924.4, 37190.98 
3.752146e+2, 1.0498066e+2, -1884058.4, -1989885.5, -1837.1351, -0.0014466869, -0.000296302, -1884026.5, 27162.97 
3.7521458e+2, 1.1497242e+2, -1785902.3, -1891953.6, -2110.4038, 0.0020367508, -0.0011731684, -1785860.3, 27410.07 
3.752145e+2, 1.2496355e+2, -1697248.4, -1812331.5, -2286.588, 0.0019398495, -0.00029640706, -1697203.0, 18154.23 
3.7521437e+2, 1.3495407e+2, -1600445.5, -1715027.3, -2070.4236, -0.0017727495, 0.0003752327, -1600408.1, 17041.902 
3.7521422e+2, 1.4494391e+2, -1512413.9, -1637020.9, -2252.2207, -0.002002976, 0.00024614847, -1512373.1, 7176.5796 
3.752141e+2, 1.5493304e+2, -1413827.3, -1538823.6, -2431.432, 0.0013250407, -0.0027948741, -1413780.0, 7876.267 
3.7521395e+2, 1.6492154e+2, -1325283.8, -1459647.4, -2509.5056, 0.0017310665, -0.0020711666, -1325236.9, -1467.9568 
3.7521374e+2, 1.7490944e+2, -1228595.9, -1362349.5, -2416.206, -0.0008669991, 0.00040859907, -1228552.3, -2664.6772 
3.7521356e+2, 1.8489665e+2, -1140687.6, -1284059.9, -2508.3262, -0.0015038112, 0.0016841765, -1140643.8, -12630.893 
3.752134e+2, 1.9488317e+2, -1042720.94, -1186164.5, -2603.0928, -0.000099347046, -0.0002358299, -1042673.7, -12528.717 
3.7521327e+2, 2.0486905e+2, -953973.2, -1106974.1, -2322.5405, 0.0006552122, -0.0005649072, -953937.94, -21654.602 
3.7521315e+2, 2.1485429e+2, -856241.4, -1009192.25, -2213.2283, 0.00073219225, -0.0012695222, -856209.4, -21781.31 
3.7521303e+2, 2.2483885e+2, -768054.56, -930754.8, -2233.459, 0.000026578802, -0.0003730821, -768023.94, -31444.703 
3.7521285e+2, 2.3482276e+2, -670520.8, -832976.2, -2220.004, -0.0015117282, -0.00009291148, -670490.5, -31753.566 
3.7521276e+2, 2.4480599e+2, -582442.0, -754761.4, -1851.0286, -0.0010949684, 0.0002851604, -582422.1, -41520.84 
3.7521276e+2, 2.5478852e+2, -484598.63, -656701.94, -1918.4209, 0.0014334506, -0.0012554371, -484577.25, -41504.93 
3.7521273e+2, 2.6477045e+2, -396159.53, -578000.4, -1712.2104, 0.0012218353, -0.0005460552, -396143.4, -50893.715 
3.7521273e+2, 2.7475172e+2, -298266.56, -479809.9, -1574.1239, -0.0019805992, 0.00038131254, -298252.9, -50819.703 
3.752128e+2, 2.8473228e+2, -210501.53, -402611.3, -987.6405, -0.0013116422, 0.00083536695, -210496.45, -60872.594 
3.7521303e+2, 2.947121e+2, -112291.78, -304218.47, -942.7836, 0.0036837817, -0.001788379, -112287.16, -60465.64 
3.7521315e+2, 3.0469462e+2, -25471.154, -177226.58, -992.24835, 0.00083654054, -0.0012330695, -25464.668, -25464.668 
3.7521324e+2, 3.1467983e+2, -25146.44, -176743.56, -1326.2402, -0.010896212, 0.00083541323, -25134.838, -25134.838 
3.7521368e+2, 3.2466975e+2, 38880.363, -40508.293, -188.97112, 0.0066490583, -0.00047165525, 38880.813, 38880.813 
3.852197e+2, 3.5019496e+1, -2530332.3, -2601182.8, 709.8119, -0.0051183016, -0.0021767102, -2530325.3, 66483.77 
3.8522014e+2, 4.5015782e+1, -2441964.5, -2518260.0, -724.83795, 0.0073523447, 0.0041353763, -2441957.5, 56887.887 
3.852203e+2, 5.501151e+1, -2342535.5, -2419846.3, -817.2978, -0.00063029974, -0.0004601239, -2342526.8, 58360.434 
3.852204e+2, 6.5006554e+1, -2254300.8, -2342029.8, -1098.7183, -0.002547506, -0.0012309348, -2254287.0, 48648.73 
3.8522056e+2, 7.500095e+1, -2157549.5, -2244842.0, -1038.7305, 0.0015245707, -0.000052969022, -2157537.0, 47453.742 
3.8522062e+2, 8.499469e+1, -2069084.8, -2165246.3, -1596.1648, 0.0018085501, 0.00088729063, -2069058.3, 37993.844 
3.8522056e+2, 9.49878e+1, -1971267.8, -2067507.9, -1742.4164, -0.0016859968, -0.00043951775, -1971236.3, 37883.33 
3.852205e+2, 1.0498022e+2, -1883382.5, -1989736.0, -1891.603, -0.0015965158, -0.00030680193, -1883348.9, 27844.902 
3.8522047e+2, 1.1497197e+2, -1785822.5, -1892094.4, -1759.7556, 0.0020902546, -0.00063757243, -1785793.4, 27481.275 
3.8522038e+2, 1.24963105e+2, -1697035.9, -1812219.1, -2133.7373, 0.0021016914, 0.00023624873, -1696996.3, 18365.322 
3.8522014e+2, 1.3495362e+2, -1599589.1, -1714613.4, -2346.86, -0.0016146832, 0.00036123858, -1599541.3, 17913.22 
3.8522e+2, 1.4494343e+2, -1511885.1, -1636795.1, -2375.4045, -0.0019232495, 0.0000509289, -1511839.9, 7714.331 
3.8521987e+2, 1.5493256e+2, -1414456.0, -1539189.3, -2248.235, 0.001247488, -0.0028022155, -1414415.5, 7245.398 
3.852197e+2, 1.6492106e+2, -1326006.1, -1459999.6, -2477.6648, 0.0016122406, -0.0019890617, -1325960.4, -2186.8574 
3.8521945e+2, 1.7490897e+2, -1228430.1, -1362246.1, -2559.3862, -0.000908478, 0.00047681906, -1228381.1, -2489.071 
3.8521925e+2, 1.8489619e+2, -1140079.1, -1283762.1, -2439.836, -0.0014642663, 0.0016769659, -1140037.6, -12020.224 
3.8521907e+2, 1.9488269e+2, -1042136.75, -1185865.6, -2353.3257, 0.00002720865, -0.00037926933, -1042098.2, -11948.643 
3.852189e+2, 2.0486857e+2, -953867.5, -1106893.8, -2275.2844, 0.00077296153, -0.0007333509, -953833.7, -21545.748 
3.852187e+2, 2.1485382e+2, -857189.8, -1009603.9, -2362.3018, 0.0007431991, -0.0013407137, -857153.2, -22720.596 
3.8521856e+2, 2.2483839e+2, -769037.56, -931157.9, -2287.4685, 0.00001566567, -0.0003167242, -769005.25, -32421.54 
3.8521838e+2, 2.3482232e+2, -670553.44, -832899.06, -2262.2322, -0.0014591148, 0.00011684505, -670521.94, -31780.582 
3.852183e+2, 2.4480554e+2, -582248.9, -754548.9, -1932.5614, -0.0010661122, 0.00046543864, -582227.2, -41321.582 
3.8521823e+2, 2.547881e+2, -485112.03, -656827.2, -1774.2448, 0.0013548259, -0.0012821414, -485093.72, -42017.15 
3.852182e+2, 2.6477003e+2, -396796.94, -578226.94, -1394.4087, 0.0012252342, -0.000616763, -396786.22, -51532.39 
3.8521817e+2, 2.7475128e+2, -298272.28, -479735.53, -1474.7263, -0.0016977292, 0.0004414229, -298260.28, -50822.992 
3.8521823e+2, 2.8473184e+2, -210647.33, -402407.13, -1117.3601, -0.0010538514, 0.00073748716, -210640.83, -61013.0 
3.8521838e+2, 2.947117e+2, -113649.99, -304614.25, -966.5597, 0.003588894, -0.002359377, -113645.1, -61819.816 
3.8521853e+2, 3.0469424e+2, -26931.693, -177865.0, -214.81528, 0.00060114154, -0.0013590382, -26931.387, -26931.387 
3.8521865e+2, 3.1467947e+2, -25167.227, -176686.39, 162.91156, -0.011041103, 0.0022080163, -25167.05, -25167.05 
3.8521898e+2, 3.2466936e+2, 38664.313, -40512.824, -804.3131, 0.0070824, -0.0028424757, 38672.48, 38672.48 
3.9522585e+2, 3.5019192e+1, -2531055.3, -2602604.8, -1228.8384, -0.0024433623, -0.00092573976, -2531034.0, 65777.81 
3.9522603e+2, 4.5015335e+1, -2442049.8, -2518580.3, -305.05786, 0.0022575248, -0.0026220188, -2442048.5, 56801.336 
3.9522636e+2, 5.501111e+1, -2342707.8, -2420206.3, -400.03238, 0.00093493547, 0.00003824162, -2342705.8, 58185.504 
3.952265e+2, 6.500617e+1, -2254197.3, -2341809.0, -1376.6055, -0.00007244737, 0.0012587156, -2254175.8, 48763.855 
3.9522654e+2, 7.500055e+1, -2157422.8, -2244602.5, -1317.6477, -0.00081576395, -0.000814743, -2157402.8, 47591.832 
3.9522654e+2, 8.499427e+1, -2069332.6, -2165808.3, -1615.3157, -0.00044275707, -0.000871116, -2069305.6, 37750.594 
3.9522654e+2, 9.4987357e+1, -1971527.5, -2068066.3, -1758.7395, 0.0010635161, -0.00094190356, -1971495.5, 37628.35 
3.9522648e+2, 1.0497979e+2, -1883117.0, -1989209.9, -1985.0052, 0.0009693833, 0.00009673291, -1883079.9, 28118.184 
3.9522636e+2, 1.1497158e+2, -1785570.0, -1891564.8, -1857.0135, -0.0007372979, 0.0003184266, -1785537.5, 27740.998 
3.952262e+2, 1.24962695e+2, -1697434.0, -1813041.4, -2267.6262, -0.000815642, 0.00046097426, -1697389.5, 17976.063 
3.95226e+2, 1.3495314e+2, -1599994.5, -1715421.9, -2473.9082, 0.00074920396, -0.0014612783, -1599941.5, 17517.744 
3.9522582e+2, 1.4494297e+2, -1511639.9, -1636305.3, -2512.6145, 0.00097004004, -0.00060678466, -1511589.3, 7969.7646 
3.952256e+2, 1.5493216e+2, -1414215.8, -1538685.3, -2390.5774, -0.00018534718, 0.0009925849, -1414169.9, 7495.0337 
3.952254e+2, 1.6492067e+2, -1326163.4, -1460307.3, -2583.7842, -0.00063410285, 0.001465842, -1326113.6, -2336.1929 
3.9522517e+2, 1.7490849e+2, -1228587.0, -1362564.0, -2661.7397, -0.00034892184, -0.0013485695, -1228534.1, -2637.4216 
3.9522496e+2, 1.848957e+2, -1139945.3, -1283432.9, -2444.7676, 0.00010850066, -0.0015309189, -1139903.6, -11881.348 
3.9522475e+2, 1.9488226e+2, -1042014.3, -1185550.4, -2360.1882, 0.00074875663, -0.0009192761, -1041975.56, -11821.6875 
3.952245e+2, 2.0486815e+2, -954056.25, -1107227.1, -2609.7456, 0.00032168598, 0.00025879286, -954011.75, -21719.684 
3.9522424e+2, 2.1485338e+2, -857327.75, -1009940.75, -2696.3503, -0.001219329, -0.000017830704, -857280.1, -22843.203 
3.9522406e+2, 2.2483793e+2, -768980.06, -931049.6, -2180.7876, -0.0009314578, 0.00042173135, -768950.7, -32362.47 
3.9522398e+2, 2.3482186e+2, -670521.5, -832818.9, -2148.9424, 0.0012991423, -0.00070270355, -670493.06, -31747.156 
3.9522386e+2, 2.448051e+2, -581996.1, -753967.7, -2183.9438, 0.0012987553, -0.0002526556, -581968.4, -41058.43 
3.9522368e+2, 2.547877e+2, -484818.53, -656234.9, -2038.0109, -0.0010920712, -0.00010258862, -484794.28, -41714.023 
3.952236e+2, 2.6476964e+2, -396957.72, -578551.9, -1333.7755, -0.0015661472, 0.00030282576, -396947.94, -51690.477 
3.9522365e+2, 2.747509e+2, -298475.0, -480098.97, -1399.3436, 0.00005111735, -0.0012755654, -298464.22, -51022.832 
3.9522368e+2, 2.8473145e+2, -210427.44, -401921.2, -1436.2782, 0.0009609049, -0.0012908729, -210416.66, -60784.758 
3.952237e+2, 2.9471132e+2, -113384.89, -304081.53, -1299.6412, 0.0011300136, -0.0021320898, -113376.03, -61547.242 
3.9522386e+2, 3.0469394e+2, -26287.725, -176532.78, 190.85524, -0.00005971629, -0.00029390721, -26287.482, -26287.482 
3.9522418e+2, 3.146793e+2, -24602.076, -175367.42, 595.92285, -0.0028471134, 0.0025299483, -24599.72, -24599.72 
3.9522415e+2, 3.246691e+2, 37725.277, -42453.71, -2733.925, 0.0016500758, -0.0060137548, 37818.39, 37818.39 
4.0523198e+2, 3.5018897e+1, -2532205.8, -2603248.8, -1010.36804, 0.0008804314, -0.00021559132, -2532191.5, 64623.383 
4.0523213e+2, 4.5015007e+1, -2437926.5, -2517059.8, -53.085567, -0.0021033103, -0.002647178, -2437926.5, 60926.523 
4.0523243e+2, 5.5010736e+1, -2342323.5, -2420537.8, -303.41464, 0.0010359631, -0.00023177841, -2342322.3, 58572.508 
4.0523255e+2, 6.5005773e+1, -2254713.3, -2341961.5, -1408.2915, 0.0014064579, 0.000994418, -2254690.5, 48252.777 
4.0523255e+2, 7.500016e+1, -2156780.8, -2244192.5, -1406.9845, -0.0010353018, -0.0008253656, -2156758.3, 48240.285 
4.0523252e+2, 8.499388e+1, -2068478.1, -2165648.0, -1615.9716, -0.0009570251, -0.0007933015, -2068451.4, 38608.676 
4.0523252e+2, 9.4986945e+1, -1970927.1, -2068047.5, -1659.221, 0.0016616555, -0.0009407649, -1970898.8, 38229.164 
4.052324e+2, 1.0497937e+2, -1882640.6, -1988846.1, -2022.8695, 0.0014879121, -0.00004796197, -1882602.0, 28600.113 
4.0523225e+2, 1.1497117e+2, -1785550.0, -1891429.9, -2072.0212, -0.0014970223, -0.000032275948, -1785509.4, 27773.125 
4.0523204e+2, 1.2496228e+2, -1697661.8, -1813335.4, -2358.6929, -0.0015050862, 0.00012233671, -1697613.6, 17756.059 
4.0523186e+2, 1.3495271e+2, -1599833.5, -1715541.9, -2294.9197, 0.0014931592, -0.0015820256, -1599788.0, 17675.473 
4.0523165e+2, 1.4494252e+2, -1511189.3, -1636086.5, -2380.1223, 0.0017153295, -0.0005268589, -1511143.9, 8419.389 
4.0523142e+2, 1.5493174e+2, -1413803.4, -1538483.5, -2497.1108, -0.00090358243, 0.0012714557, -1413753.4, 7915.732 
4.0523115e+2, 1.6492024e+2, -1325806.3, -1460153.6, -2705.2136, -0.0013278368, 0.0016780675, -1325751.8, -1970.096 
4.0523088e+2, 1.7490806e+2, -1228268.1, -1362438.0, -2643.259, 0.0005108297, -0.0014832439, -1228216.1, -2315.029 
4.052306e+2, 1.8489525e+2, -1140093.5, -1283511.6, -2457.1187, 0.0009918024, -0.0017411378, -1140051.4, -12024.8955 
4.0523037e+2, 1.9488183e+2, -1043148.9, -1186086.4, -2522.0208, 0.00006936816, -0.0009219689, -1043104.4, -12946.264 
4.0523013e+2, 2.0486772e+2, -954846.3, -1107548.9, -2717.6833, -0.00054738263, 0.00039972024, -954797.94, -22501.625 
4.0522984e+2, 2.1485294e+2, -856419.3, -1009438.25, -2612.098, -0.0008375755, 0.00019941042, -856374.75, -21933.602 
4.0522963e+2, 2.2483751e+2, -768072.94, -930577.44, -2047.5703, -0.00023649982, 0.0005071685, -768047.1, -31454.742 
4.0522945e+2, 2.3482142e+2, -671426.1, -833214.2, -2046.4324, 0.0013158077, -0.00097105716, -671400.25, -32650.203 
4.052293e+2, 2.4480468e+2, -583210.7, -754505.9, -2169.5496, 0.0009897207, -0.0005284084, -583183.2, -42269.145 
4.052291e+2, 2.547873e+2, -484820.63, -656155.5, -2277.503, -0.0013512403, -0.00001663208, -484790.38, -41706.074 
4.05229e+2, 2.6476926e+2, -396931.47, -578343.8, -1610.6368, -0.0013706201, 0.00044505924, -396917.2, -51655.813 
4.0522903e+2, 2.747505e+2, -299931.28, -480598.25, -1392.1661, 0.001138977, -0.0014024907, -299920.56, -52475.4 
4.0522903e+2, 2.8473106e+2, -211850.13, -402556.1, -1333.3911, 0.0010454409, -0.0012039731, -211840.8, -62205.277 
4.05229e+2, 2.94711e+2, -113007.08, -303846.2, -1410.1056, -0.00188679, -0.0012951974, -112996.66, -61164.375 
4.0522915e+2, 3.0469364e+2, -26103.447, -175366.97, -20.826998, -0.00036522088, -0.00021250709, -26103.443, -26103.443 
4.0522954e+2, 3.1467906e+2, -28111.088, -175951.6, 404.90433, 0.0061074416, 0.00015978768, -28109.979, -28109.979 
4.052294e+2, 3.2466894e+2, 38602.207, -42496.44, -2378.2852, -0.004287995, -0.004221589, 38671.895, 38671.895 
4.152381e+2, 3.5018617e+1, -2531642.3, -2602157.8, 929.5201, 0.0047657723, -0.000010974816, -2531630.0, 65187.72 
4.1523835e+2, 4.5014787e+1, -2438466.5, -2518084.0, -631.16205, -0.0058087907, 0.0034857409, -2438461.5, 60393.66 
4.152385e+2, 5.501038e+1, -2342804.0, -2421526.3, -862.3673, -0.00021855223, -0.00119897, -2342794.5, 58103.76 
4.152386e+2, 6.5005374e+1, -2254688.8, -2341932.3, -1374.3723, 0.0019524131, -0.0017858385, -2254667.0, 48280.33 
4.152386e+2, 7.4999785e+1, -2156763.0, -2244161.0, -1377.8412, 0.00066358695, -0.00015248638, -2156741.3, 48260.906 
4.1523856e+2, 8.499352e+1, -2068551.0, -2165792.5, -1700.2664, 0.00009960952, 0.000961227, -2068521.3, 38542.285 
4.152385e+2, 9.498656e+1, -1971020.4, -2068197.8, -1741.5342, 0.00027360683, -0.00048155893, -1970989.1, 38142.633 
4.1523835e+2, 1.0497896e+2, -1882743.9, -1989011.1, -2232.407, 0.00011430462, -0.0006928798, -1882697.0, 28509.148 
4.1523817e+2, 1.14970736e+2, -1785633.0, -1891578.9, -2282.9463, -0.00038203475, -0.0015794638, -1785583.9, 27702.945 
4.1523793e+2, 1.2496185e+2, -1697518.8, -1813055.8, -2390.1294, -0.0001772041, -0.0007311332, -1697469.3, 17904.473 
4.1523772e+2, 1.3495234e+2, -1599718.1, -1715259.9, -2328.3948, 0.00073949335, -0.00014879531, -1599671.3, 17795.965 
4.152375e+2, 1.4494212e+2, -1511436.9, -1636523.3, -2531.876, 0.00048166193, 0.00022694346, -1511385.6, 8181.4844 
4.152372e+2, 1.5493126e+2, -1414056.4, -1538927.1, -2643.9607, -0.0009840669, -0.0016630451, -1414000.5, 7673.122 
4.1523692e+2, 1.6491976e+2, -1325721.8, -1459912.1, -2815.5332, -0.0006172033, -0.0010734285, -1325662.6, -1876.454 
4.152366e+2, 1.7490765e+2, -1228171.8, -1362189.5, -2756.6514, 0.0016305444, -0.00007328493, -1228115.1, -2210.045 
4.152363e+2, 1.8489484e+2, -1140223.3, -1283764.4, -2716.274, 0.0012341377, 0.00078907766, -1140171.9, -12141.467 
4.1523597e+2, 1.948814e+2, -1043271.0, -1186345.0, -2778.2834, -0.0019077134, -0.00043614433, -1043217.06, -13054.69 
4.152357e+2, 2.0486727e+2, -954655.5, -1107119.3, -2607.7517, -0.0018183795, -0.00023688351, -954610.94, -22310.299 
4.1523546e+2, 2.1485254e+2, -856242.2, -1009023.94, -2502.5876, 0.0016726556, -0.00059077353, -856201.25, -21756.08 
4.152352e+2, 2.2483711e+2, -768114.4, -930592.44, -2410.5757, 0.0019442687, -0.000003621946, -768078.6, -31482.412 
4.1523492e+2, 2.3482104e+2, -671439.7, -833229.0, -2415.4392, -0.0011934002, -0.0007330172, -671403.6, -32649.797 
4.152347e+2, 2.448043e+2, -583418.9, -754884.75, -2110.1687, -0.0017800896, -0.0003970892, -583392.94, -42474.945 
4.152346e+2, 2.5478688e+2, -485050.84, -656560.3, -2203.139, 0.00037316128, -0.00093123736, -485022.56, -41933.96 
4.1523448e+2, 2.6476884e+2, -396593.88, -577587.25, -1914.5862, 0.0015296149, -0.000121254794, -396573.63, -51308.094 
4.152344e+2, 2.7475014e+2, -299551.47, -479817.72, -1712.366, 0.0016008324, -0.000076118595, -299535.2, -52086.58 
4.1523433e+2, 2.8473073e+2, -212004.95, -402830.75, -1202.8757, -0.00065273914, 0.0008207673, -211997.36, -62358.625 
4.1523433e+2, 2.9471064e+2, -113201.305, -304164.72, -1260.3418, -0.005441287, 0.00010562905, -113192.984, -61357.22 
4.1523448e+2, 3.046933e+2, -25465.791, -173974.64, -554.5308, -0.0003752232, -0.0010270637, -25463.72, -25463.72 
4.152348e+2, 3.1467876e+2, -27429.244, -174509.36, -166.87666, 0.015722072, -0.004673809, -27429.055, -27429.055 
4.1523468e+2, 3.2466885e+2, 38859.582, -41888.78, -364.54126, -0.010733522, 0.0021077543, 38861.227, 38861.227 
4.2524427e+2, 3.5018262e+1, -2528819.0, -2601150.3, 691.2073, 0.0016576154, -0.0013826336, -2528812.3, 68008.78 
4.2524454e+2, 4.5014462e+1, -2440470.5, -2518730.8, -1305.0729, -0.0010703108, 0.0054568346, -2440448.8, 58409.582 
4.252446e+2, 5.501006e+1, -2342370.0, -2420975.3, -865.22363, -0.0005488504, -0.0012608019, -2342360.3, 58541.047 
4.2524466e+2, 6.500505e+1, -2253531.8, -2341676.3, -912.6906, 0.00022269449, -0.0025498036, -2253522.3, 49428.316 
4.2524466e+2, 7.499945e+1, -2155779.3, -2243997.0, -1117.2206, 0.0012023826, -0.00028837434, -2155765.0, 49240.31 
4.252446e+2, 8.4993154e+1, -2067857.1, -2165480.0, -1701.1406, 0.00092232885, 0.0011788642, -2067827.5, 39239.594 
4.2524448e+2, 9.4986206e+1, -1971101.0, -2068255.9, -1682.9283, -0.0006035082, -0.00019110634, -1971071.9, 38063.383 
4.252443e+2, 1.0497859e+2, -1882854.5, -1989296.9, -2059.8257, -0.0007234344, -0.00045402063, -1882814.6, 28395.096 
4.2524412e+2, 1.1497035e+2, -1784766.0, -1891390.5, -2171.915, 0.0005671992, -0.0015127154, -1784721.9, 28568.74 
4.2524385e+2, 1.2496146e+2, -1696408.0, -1812522.8, -2432.906, 0.0008070387, -0.0006735564, -1696357.0, 19020.686 
4.252436e+2, 1.3495193e+2, -1599384.1, -1715115.5, -2503.0554, -0.00002235375, 0.00006879782, -1599330.0, 18141.03 
4.252433e+2, 1.4494173e+2, -1511575.6, -1636611.0, -2700.1025, -0.00039663704, 0.0003155518, -1511517.4, 8053.682 
4.25243e+2, 1.5493086e+2, -1414353.6, -1539095.8, -2598.221, -0.0003116726, -0.002000423, -1414299.5, 7377.954 
4.2524263e+2, 1.6491938e+2, -1325988.8, -1460111.0, -2633.4912, 0.00013409906, -0.001436065, -1325937.0, -2146.8352 
4.2524233e+2, 1.7490724e+2, -1228128.9, -1362220.9, -2727.1418, 0.00094196206, -0.000049300987, -1228073.5, -2164.4583 
4.2524198e+2, 1.8489446e+2, -1139840.3, -1283524.4, -2846.5237, 0.00051430403, 0.0010386072, -1139783.9, -11749.481 
4.2524162e+2, 1.9488098e+2, -1042648.9, -1185987.4, -2759.857, -0.0011972783, -0.00012820233, -1042595.75, -12429.438 
4.2524126e+2, 2.0486689e+2, -954483.75, -1107055.6, -2437.0476, -0.0009789799, -0.00019342857, -954444.9, -22140.273 
4.2524102e+2, 2.1485212e+2, -857206.94, -1009490.3, -2548.614, 0.0012745813, -0.0011515613, -857164.3, -22715.145 
4.2524076e+2, 2.2483672e+2, -769067.9, -930967.1, -2713.8271, 0.0013423878, -0.00047502865, -769022.4, -32422.193 
4.2524043e+2, 2.3482065e+2, -671292.9, -833074.7, -2672.4722, -0.00090236973, -0.00036684156, -671248.75, -32491.094 
4.2524016e+2, 2.448039e+2, -583145.44, -754673.44, -2077.4475, -0.0013559072, 0.00012791484, -583120.3, -42198.54 
4.2523998e+2, 2.547865e+2, -485732.1, -656801.7, -1925.9751, 0.00012281486, -0.0009916881, -485710.4, -42618.08 
4.2523983e+2, 2.6476842e+2, -397355.75, -577899.8, -1807.2842, 0.0011719629, -0.0003680255, -397337.66, -52068.44 
4.252397e+2, 2.747498e+2, -299499.3, -479709.8, -1946.8634, 0.0017505938, -0.0000617018, -299478.28, -52026.05 
4.2523962e+2, 2.8473037e+2, -211972.67, -402632.66, -1301.7478, -0.00023665598, 0.0010562144, -211963.78, -62321.55 
4.2523962e+2, 2.947103e+2, -114253.195, -304501.47, -1099.9987, -0.005025526, 0.0005188532, -114246.836, -62407.742 
4.2523968e+2, 3.0469295e+2, -27052.52, -174903.38, -1103.5995, -0.00057566445, -0.0004925083, -27044.283, -27044.283 
4.252399e+2, 3.146784e+2, -28535.686, -175204.1, -1541.9949, 0.01421934, -0.0040896884, -28519.477, -28519.477 
4.2523998e+2, 3.2466856e+2, 38568.277, -41021.68, 475.43784, -0.009926852, 0.003638383, 38571.117, 38571.117 
4.3525046e+2, 3.5017836e+1, -2529750.8, -2603057.0, -714.15015, -0.00783653, -0.0041679214, -2529743.8, 67081.375 
4.3525076e+2, 4.5014042e+1, -2439621.5, -2517015.5, -1195.5986, 0.011321884, 0.0036463537, -2439603.0, 59259.45 
4.3525073e+2, 5.500978e+1, -2341496.8, -2419239.8, -784.71045, -0.00005788629, -0.0005013092, -2341488.8, 59415.355 
4.3525073e+2, 6.500481e+1, -2253895.3, -2342444.0, -940.8919, -0.0035915955, -0.0014784572, -2253885.3, 49067.6 
4.3525076e+2, 7.499913e+1, -2156188.5, -2244780.8, -1137.971, 0.00066806714, -0.0011561497, -2156173.8, 48834.695 
4.3525067e+2, 8.499282e+1, -2067836.5, -2165389.0, -1986.7153, 0.0015167239, -0.0000017113747, -2067796.0, 39274.38 
4.3525046e+2, 9.498588e+1, -1971029.0, -2068149.1, -1971.7499, -0.0010376313, -0.00005405818, -1970989.0, 38149.395 
4.3525025e+2, 1.0497827e+2, -1883036.4, -1989687.3, -2018.2471, -0.0010970474, 0.00059168745, -1882998.1, 28214.814 
4.352501e+2, 1.1497e+2, -1784990.6, -1891805.0, -2125.9385, 0.0013498053, 0.000018339138, -1784948.3, 28345.682 
4.352498e+2, 1.24961086e+2, -1696574.5, -1812778.5, -2662.3638, 0.0014563495, 0.00021152219, -1696513.5, 18867.91 
4.3524945e+2, 1.3495152e+2, -1599533.4, -1715357.4, -2729.7139, -0.00081014395, -0.0008210026, -1599469.1, 18005.996 
4.3524912e+2, 1.4494133e+2, -1511389.3, -1636190.9, -2886.272, -0.000966899, -0.00020170251, -1511322.5, 8252.396 
4.3524876e+2, 1.5493052e+2, -1414158.4, -1538663.8, -2791.2783, 0.0010273644, 0.000023244207, -1414095.9, 7585.0664 
4.352484e+2, 1.6491902e+2, -1326166.9, -1460470.0, -2666.6519, 0.00090461003, 0.00037516278, -1326113.9, -2320.2927 
4.3524805e+2, 1.7490685e+2, -1228339.8, -1362601.5, -2751.874, -0.0014041731, -0.0012857134, -1228283.4, -2370.4023 
4.3524766e+2, 1.8489404e+2, -1139712.5, -1283208.3, -3037.5728, -0.001094018, -0.0007863303, -1139648.3, -11609.776 
4.3524727e+2, 1.9488062e+2, -1042491.6, -1185656.3, -2957.4612, 0.0019422352, 0.000015140729, -1042430.56, -12260.641 
4.3524688e+2, 2.0486651e+2, -954700.7, -1107482.1, -2621.805, 0.0017641158, 0.000468045, -954655.75, -22347.57 
4.3524656e+2, 2.1485172e+2, -857427.0, -1009944.8, -2726.1936, -0.0017840514, -0.0015035649, -857378.3, -22925.174 
4.3524623e+2, 2.248363e+2, -769004.25, -930797.4, -2782.6372, -0.00180959, -0.00090574124, -768956.4, -32352.117 
4.352459e+2, 2.3482025e+2, -671224.44, -832898.75, -2740.3728, 0.0019111616, 0.000116480864, -671178.0, -32416.453 
4.3524563e+2, 2.4480355e+2, -582891.75, -754139.3, -2254.3062, 0.0019565525, 0.0010114211, -582862.1, -41936.746 
4.352454e+2, 2.5478616e+2, -485476.2, -656259.6, -2110.799, -0.0019435226, -0.00027328695, -485450.13, -42354.54 
4.352452e+2, 2.647681e+2, -397617.47, -578445.2, -1907.8761, -0.0021775893, -0.00032382554, -397597.3, -52324.836 
4.3524507e+2, 2.747494e+2, -299783.63, -480280.88, -2036.9984, 0.0015889634, -0.0012438514, -299760.63, -52304.65 
4.3524498e+2, 2.8473002e+2, -211687.67, -401968.28, -1437.239, 0.002083274, -0.00033471876, -211676.83, -62030.836 
4.3524492e+2, 2.9470995e+2, -113939.05, -303814.75, -1244.4657, -0.0010210355, 0.000038598184, -113930.89, -62088.594 
4.3524486e+2, 3.0469263e+2, -27848.652, -176561.64, -1514.5718, -0.0009777889, 0.001275934, -27833.229, -27833.229 
4.3524486e+2, 3.14678e+2, -29300.828, -176916.83, -1945.6023, 0.0025573531, 0.0014239264, -29275.19, -29275.19 
4.3524534e+2, 3.2466805e+2, 39381.188, -39134.813, 2424.044, -0.002583444, 0.0007697007, 39455.957, 39455.957 
4.4525674e+2, 3.501767e+1, -2529076.8, -2602583.8, -720.64606, -0.0066526574, -0.004037613, -2529069.5, 67757.14 
4.4525686e+2, 4.5013827e+1, -2439312.5, -2517420.5, 524.2002, 0.009230149, 0.0010046713, -2439308.8, 59555.62 
4.4525692e+2, 5.500955e+1, -2339996.3, -2419059.3, -231.97096, 0.00043794097, -0.00044440114, -2339995.5, 60910.965 
4.4525692e+2, 6.5004545e+1, -2252406.3, -2341894.0, -1334.3512, -0.002694311, -0.00051997474, -2252386.3, 50569.137 
4.4525686e+2, 7.499885e+1, -2156405.0, -2245068.0, -1272.1467, -0.00020201044, -0.0010813612, -2156386.8, 48624.563 
4.4525674e+2, 8.4992516e+1, -2068030.0, -2165613.5, -1851.1477, 0.00063132256, -0.0003398563, -2067994.9, 39078.484 
4.4525653e+2, 9.498556e+1, -1969549.1, -2067537.3, -1958.954, -0.0001893945, -0.0003345715, -1969510.0, 39631.52 
4.452563e+2, 1.0497794e+2, -1881535.9, -1989075.8, -2138.7813, -0.00012866862, 0.0003950292, -1881493.4, 29722.797 
4.4525605e+2, 1.1496966e+2, -1785186.3, -1892013.0, -2124.2278, 0.0008192565, -0.00006932728, -1785144.0, 28153.25 
4.452557e+2, 1.2496075e+2, -1697191.0, -1813088.3, -2487.4282, 0.0006015837, 0.00018634644, -1697137.6, 18247.084 
4.4525534e+2, 1.3495119e+2, -1599430.5, -1715330.8, -2437.6099, -0.0008102791, -0.0008079452, -1599379.3, 18099.115 
4.4525495e+2, 1.4494097e+2, -1510851.1, -1636118.9, -2686.3594, -0.0005505678, -0.00015055216, -1510793.5, 8784.81 
4.4525456e+2, 1.5493014e+2, -1413223.5, -1538396.8, -2901.5337, 0.0014082512, 0.00009905782, -1413156.4, 8528.169 
4.4525415e+2, 1.6491866e+2, -1325469.5, -1459996.6, -2874.631, 0.0010386951, 0.00047974585, -1325408.0, -1610.8557 
4.4525373e+2, 1.7490648e+2, -1228898.4, -1362758.0, -2706.7517, -0.0017369033, -0.001140924, -1228843.6, -2927.2139 
4.452533e+2, 1.8489368e+2, -1140618.5, -1283721.4, -2834.48, -0.0014071242, -0.0008277934, -1140562.4, -12520.501 
4.4525293e+2, 1.9488025e+2, -1042495.56, -1185722.1, -2968.7249, 0.0021522567, -0.00044925994, -1042434.06, -12260.54 
4.452525e+2, 2.0486616e+2, -954335.56, -1107217.0, -2786.869, 0.0020603405, 0.0002122161, -954284.8, -21973.084 
4.4525206e+2, 2.1485136e+2, -857496.4, -1009882.75, -2632.5977, -0.0018603613, -0.0008896534, -857450.9, -22994.354 
4.452517e+2, 2.2483595e+2, -769299.56, -930871.8, -2413.9856, -0.0020717261, -0.00024470303, -769263.5, -32655.9 
4.452514e+2, 2.348199e+2, -671562.75, -832973.6, -2411.104, 0.0016569875, -0.000048895985, -671526.75, -32761.857 
4.4525108e+2, 2.4480319e+2, -583271.4, -754305.06, -2172.041, 0.00208315, 0.0006353412, -583243.8, -42315.15 
4.4525075e+2, 2.5478584e+2, -485871.22, -656425.5, -2288.3416, -0.001031533, -0.0001787122, -485840.53, -42741.688 
4.452505e+2, 2.647678e+2, -398092.38, -578566.3, -2012.5507, -0.0019372837, 0.00006464563, -398069.9, -52794.223 
4.4525033e+2, 2.7474907e+2, -300447.63, -480518.97, -1829.6582, -0.00043568664, -0.0007615251, -300429.03, -52969.934 
4.452502e+2, 2.847297e+2, -212387.77, -402323.22, -1215.4313, 0.0011211701, -0.00027875282, -212380.0, -62730.88 
4.4525018e+2, 2.9470962e+2, -114462.664, -304058.0, -1357.5701, 0.0027672981, -0.0009116851, -114452.945, -62607.42 
4.4525012e+2, 3.046923e+2, -27532.504, -176909.25, -1555.2262, 0.00045731876, 0.0010745808, -27516.314, -27516.314 
4.4524997e+2, 3.1467766e+2, -26725.365, -176170.88, -1489.7223, -0.0063544014, 0.0039495854, -26710.518, -26710.518 
4.4525048e+2, 3.2466763e+2, 35370.563, -41136.4, 2364.3975, 0.0026490802, -0.0005375367, 35443.563, 35443.563 
4.552632e+2, 3.5017732e+1, -2528162.5, -2600552.3, -2454.139, 0.00416053, -0.001268523, -2528079.3, 68746.836 
4.5526284e+2, 4.5013797e+1, -2440611.8, -2520301.3, 878.9569, -0.0060007633, -0.0023723494, -2440602.0, 58262.82 
4.5526317e+2, 5.500934e+1, -2341451.3, -2422016.0, 148.21677, 0.0009069211, -0.0010189664, -2341451.0, 59457.523 
4.5526323e+2, 6.5004265e+1, -2252313.5, -2341661.0, -1798.701, 0.002437455, 0.00034125117, -2252277.3, 50680.934 
4.5526296e+2, 7.499858e+1, -2156241.3, -2244795.8, -1739.0956, -0.0013914647, -0.00015072028, -2156207.0, 48806.85 
4.5526278e+2, 8.499224e+1, -2068186.1, -2165995.0, -1697.3572, -0.0016094025, 0.0000858618, -2068156.6, 38919.375 
4.5526263e+2, 9.498525e+1, -1969762.8, -2067953.3, -1802.9589, 0.0017903263, -0.0009907505, -1969729.6, 39414.867 
4.5526236e+2, 1.0497762e+2, -1881531.0, -1989011.6, -2536.3218, 0.0020280995, -0.00091736205, -1881471.3, 29748.098 
4.5526198e+2, 1.1496934e+2, -1785136.4, -1891924.9, -2522.7249, -0.00091661245, -0.001624084, -1785076.8, 28223.652 
4.552616e+2, 1.24960445e+2, -1697069.1, -1812856.1, -2539.683, -0.0016397043, -0.00066114555, -1697013.5, 18374.191 
4.5526123e+2, 1.349509e+2, -1599337.6, -1715101.0, -2492.8037, -0.000114928334, 0.000022058066, -1599283.9, 18197.164 
4.5526084e+2, 1.4494069e+2, -1511275.1, -1636946.8, -2776.2634, 0.0007423563, 0.00041378386, -1511213.9, 8367.383 
4.552604e+2, 1.5492977e+2, -1413667.4, -1539231.8, -2978.17, 0.0009028157, -0.0015903065, -1413596.8, 8091.391 
4.5525995e+2, 1.6491827e+2, -1325184.8, -1459367.5, -3226.326, 0.000575343, -0.00095892674, -1325107.1, -1306.2393 
4.5525944e+2, 1.7490618e+2, -1228579.1, -1362096.0, -3071.5776, -0.00025743307, 0.00025192913, -1228508.5, -2589.0847 
4.5525897e+2, 1.8489338e+2, -1140846.4, -1284233.5, -2799.1802, -0.0005593031, 0.00074462657, -1140791.8, -12746.934 
4.5525855e+2, 1.9487989e+2, -1042765.7, -1186269.1, -2919.8606, -0.00030907537, -0.0014639449, -1042706.3, -12529.26 
4.552581e+2, 2.0486578e+2, -954091.94, -1106650.6, -3073.4783, 0.000120952966, -0.0008729485, -954030.0, -21714.74 
4.5525762e+2, 2.1485108e+2, -857218.4, -1009293.1, -2929.8823, 0.0007523501, 0.00059879816, -857161.94, -22702.473 
4.552572e+2, 2.2483568e+2, -769296.1, -930845.25, -2505.4373, 0.00027112113, 0.0014099925, -769257.3, -32647.016 
4.5525682e+2, 2.348196e+2, -671565.4, -832977.6, -2499.235, -0.0013964678, -0.00080223527, -671526.7, -32758.904 
4.5525646e+2, 2.4480289e+2, -583520.44, -754766.8, -2355.7354, -0.00069742586, -0.00087815325, -583488.06, -42556.305 
4.552562e+2, 2.5478548e+2, -486120.66, -656900.56, -2464.9932, 0.0025613925, -0.0006527267, -486085.1, -42982.93 
4.552559e+2, 2.6476747e+2, -397784.03, -577923.56, -2155.6873, 0.0015350333, 0.00076500914, -397758.25, -52479.383 
4.552556e+2, 2.747488e+2, -300117.47, -479850.2, -1980.2173, -0.0041704294, 0.0012322386, -300095.66, -52633.977 
4.5525542e+2, 2.8472942e+2, -212712.52, -402906.56, -1306.5223, -0.0028363138, 0.0010906052, -212703.55, -63051.86 
4.5525545e+2, 2.9470932e+2, -114818.61, -304702.6, -1436.5403, 0.00632414, -0.0022896444, -114807.74, -62958.96 
4.5525536e+2, 3.046919e+2, -27481.18, -176730.95, -1357.3771, 0.0035259284, -0.0009113148, -27468.836, -27468.836 
4.5525518e+2, 3.146773e+2, -26648.059, -175980.4, -1277.824, -0.012797967, 0.0037643816, -26637.125, -26637.125 
4.5525554e+2, 3.2466725e+2, 34446.324, -43067.84, -111.71584, 0.0059158728, -0.00041864254, 34446.484, 34446.484 
4.6526948e+2, 3.5017645e+1, -2530548.8, -2601868.3, -1745.8896, 0.010250818, -0.0005559236, -2530506.0, 66321.016 
4.6526918e+2, 4.5013678e+1, -2434449.3, -2518106.8, -532.8843, -0.014577463, -0.0006077164, -2434446.0, 64419.984 
4.6526945e+2, 5.500914e+1, -2341247.5, -2422747.5, -374.939, 0.0006709491, -0.0007177542, -2341245.8, 59664.707 
4.6526945e+2, 6.5004015e+1, -2253244.5, -2342098.8, -1605.291, 0.0052888356, 0.00008463607, -2253215.5, 49745.152 
4.6526915e+2, 7.4998343e+1, -2154534.8, -2243947.8, -1662.3013, -0.00068795384, -0.00005600825, -2154503.8, 50512.48 
4.652689e+2, 8.499199e+1, -2066441.6, -2165382.8, -1708.7947, -0.0020501332, 0.0002669926, -2066412.1, 40666.324 
4.652687e+2, 9.498498e+1, -1970268.9, -2068427.8, -1774.1053, 0.0012086309, -0.0009902109, -1970236.8, 38910.402 
4.652684e+2, 1.0497733e+2, -1882211.3, -1989322.9, -2526.6326, 0.0016121074, -0.0008638794, -1882151.6, 29070.46 
4.65268e+2, 1.1496906e+2, -1784234.4, -1891462.3, -2543.2605, -0.00085015234, -0.0012747275, -1784174.1, 29129.086 
4.6526754e+2, 1.24960154e+2, -1695844.9, -1812422.3, -2647.7576, -0.0012270315, -0.00045929433, -1695784.9, 19605.688 
4.6526715e+2, 1.3495061e+2, -1598885.0, -1715048.3, -2797.9192, 0.00050053844, -0.00038119894, -1598817.6, 18666.416 
4.652667e+2, 1.4494039e+2, -1511316.3, -1636858.4, -2954.3884, 0.0008490852, -0.0000031015097, -1511246.9, 8337.456 
4.652662e+2, 1.5492949e+2, -1414229.0, -1539403.4, -2693.181, -0.00022568366, -0.0014093608, -1414171.1, 7519.988 
4.652657e+2, 1.6491798e+2, -1325617.3, -1459759.5, -2949.052, -0.00018741653, -0.00068614865, -1325552.5, -1748.6061 
4.6526515e+2, 1.7490585e+2, -1227741.5, -1361894.1, -3233.9177, 0.0009929722, 0.000096338976, -1227663.6, -1740.9895 
4.6526465e+2, 1.8489307e+2, -1139903.9, -1283628.0, -3000.184, 0.00059906906, 0.0005686651, -1139841.3, -11793.245 
4.6526417e+2, 1.9487958e+2, -1043346.4, -1186396.3, -2788.443, -0.0014387573, -0.0012380074, -1043292.06, -13111.994 
4.6526366e+2, 2.048655e+2, -955043.06, -1107075.1, -2898.9834, -0.001132016, -0.0006545935, -954987.8, -22669.623 
4.652632e+2, 2.1485078e+2, -857260.7, -1009268.56, -3012.8965, 0.0016502434, 0.00038354035, -857201.0, -22738.635 
4.6526268e+2, 2.2483538e+2, -769158.7, -930811.8, -2719.4312, 0.001498263, 0.0010176923, -769112.94, -32499.74 
4.6526226e+2, 2.3481931e+2, -671948.6, -833186.75, -2741.2117, -0.0017729754, -0.0011060182, -671902.06, -33131.316 
4.6526188e+2, 2.4480258e+2, -584022.75, -754828.25, -2476.623, -0.0016314578, -0.0010407639, -583986.9, -43052.223 
4.6526155e+2, 2.547852e+2, -486592.1, -656942.06, -2253.9297, 0.0021925496, -0.00060603785, -486562.28, -43457.41 
4.652612e+2, 2.647672e+2, -398178.22, -578083.25, -1847.8451, 0.0017922724, 0.0007101127, -398159.25, -52877.773 
4.6526086e+2, 2.7474853e+2, -300183.5, -479835.75, -1992.5173, -0.0032309417, 0.00072901696, -300161.4, -52697.07 
4.6526068e+2, 2.8472915e+2, -212923.39, -402921.7, -1424.7861, -0.0023900496, 0.0008041991, -212912.7, -63258.457 
4.6526062e+2, 2.947091e+2, -116065.375, -305150.7, -1165.5487, 0.0049764, -0.0016115018, -116058.195, -64207.07 
4.6526054e+2, 3.046917e+2, -29048.87, -177106.83, -399.68286, 0.0024818617, -0.0008053015, -29047.791, -29047.791 
4.6526045e+2, 3.1467712e+2, -28118.904, -176307.66, -178.62276, -0.011163324, 0.0015855196, -28118.69, -28118.69 
4.6526054e+2, 3.2466707e+2, 35032.863, -43072.074, -595.6938, 0.0058760806, -0.00089013495, 35037.406, 35037.406 
4.7527564e+2, 3.5017425e+1, -2531522.3, -2604015.3, 2800.6692, 0.012038987, -0.0016793341, -2531414.0, 65415.21 
4.7527573e+2, 4.501348e+1, -2434326.3, -2517564.5, -1718.3846, -0.01717315, 0.005798089, -2434291.0, 64577.125 
4.7527573e+2, 5.500893e+1, -2340970.8, -2422130.3, -1549.203, -0.00022238263, 0.00037936965, -2340941.3, 59971.31 
4.752756e+2, 6.50038e+1, -2253313.0, -2342284.5, -1380.4175, 0.006053547, -0.0011728738, -2253291.5, 49671.207 
4.752754e+2, 7.4998116e+1, -2154646.5, -2244152.8, -1437.8103, 0.0017035623, -0.00070761715, -2154623.5, 50395.023 
4.7527513e+2, 8.4991753e+1, -2066569.0, -2165630.5, -2140.1233, -0.0008811752, 0.00023106966, -2066522.8, 40558.074 
4.7527477e+2, 9.4984734e+1, -1970362.5, -2068664.9, -2201.5625, -0.0017035541, -0.00039842766, -1970313.3, 38836.383 
4.752744e+2, 1.04977086e+2, -1882213.6, -1989354.5, -2504.9758, -0.0011402078, 0.00042343154, -1882155.1, 29069.428 
4.7527403e+2, 1.1496883e+2, -1784258.6, -1891501.9, -2521.8406, 0.00082157203, 0.0007885808, -1784199.4, 29106.137 
4.7527355e+2, 1.2495988e+2, -1696145.1, -1812991.9, -2891.5007, 0.001547618, 0.00068610883, -1696073.6, 19319.553 
4.7527307e+2, 1.3495027e+2, -1599181.3, -1715612.4, -3035.8677, 0.0010229038, -0.0018948858, -1599102.1, 18385.285 
4.7527257e+2, 1.4494006e+2, -1510828.5, -1635839.4, -3170.9866, -0.00012985215, -0.0013035195, -1510748.1, 8839.321 
4.7527197e+2, 1.5492927e+2, -1413738.8, -1538371.1, -2923.935, -0.0019364017, 0.00045373582, -1413670.1, 8023.057 
4.7527146e+2, 1.6491775e+2, -1326143.4, -1460859.9, -2988.3616, -0.0012387168, 0.0011286635, -1326077.1, -2271.172 
4.752709e+2, 1.7490554e+2, -1228306.3, -1363002.5, -3253.3162, 0.0020208568, -0.001459796, -1228227.6, -2301.8398 
4.7527036e+2, 1.8489271e+2, -1139532.6, -1282866.8, -3341.8564, 0.0020171222, -0.0011839776, -1139454.9, -11403.447 
4.7526973e+2, 1.9487934e+2, -1042948.25, -1185612.6, -3145.1685, -0.0013838274, 0.00010912956, -1042878.94, -12696.34 
4.752692e+2, 2.0486525e+2, -955255.1, -1107483.6, -2959.635, -0.0017781472, 0.000742119, -955197.6, -22877.063 
4.7526872e+2, 2.1485049e+2, -857485.94, -1009701.06, -3063.2336, 0.000987165, -0.0013685143, -857424.3, -22959.004 
4.752682e+2, 2.2483505e+2, -769237.5, -930916.44, -2926.3408, 0.0016996341, -0.0012194782, -769184.5, -32568.143 
4.752677e+2, 2.34819e+2, -672026.2, -833290.75, -2946.7588, 0.0002480725, -0.0010033239, -671972.4, -33198.598 
4.7526723e+2, 2.4480231e+2, -583644.56, -753993.2, -2644.1238, -0.0009126316, 0.00002010345, -583603.5, -42666.207 
4.752668e+2, 2.54785e+2, -486199.7, -656097.6, -2429.826, -0.0017665995, -0.00008903123, -486164.97, -43057.96 
4.752665e+2, 2.6476696e+2, -398484.4, -578651.1, -1909.6099, -0.00087857, -0.000025165977, -398464.16, -53180.56 
4.7526622e+2, 2.7474827e+2, -300506.72, -480457.1, -2040.688, 0.0019117768, -0.0020246226, -300483.56, -53016.51 
4.7526592e+2, 2.8472888e+2, -212563.42, -402018.53, -1758.4703, 0.002017505, -0.0009708818, -212547.1, -62890.285 
4.7526568e+2, 2.9470894e+2, -115639.83, -304219.16, -1516.5497, -0.0008346606, 0.000921921, -115627.63, -63774.984 
4.752656e+2, 3.0469158e+2, -28709.105, -176367.5, -205.68013, -0.002308609, 0.0011907244, -28708.82, -28708.82 
4.7526568e+2, 3.14677e+2, -27849.17, -175624.03, 34.980576, -0.0022722175, -0.0024056628, -27849.16, -27849.16 
4.7526553e+2, 3.2466707e+2, 35517.355, -42015.25, -1777.8754, 0.0027932706, -0.0019291791, 35558.1, 35558.1 
4.852819e+2, 3.5017118e+1, -2526523.3, -2601815.0, 3009.5566, 0.0034706728, -0.00091685064, -2526403.3, 70429.234 
4.852823e+2, 4.50132e+1, -2438936.5, -2518867.8, -2335.4478, -0.0043277373, 0.0066044317, -2438868.5, 60002.367 
4.85282e+2, 5.500872e+1, -2340322.0, -2420862.5, -1865.6, -0.00039026985, -0.00012714323, -2340278.8, 60635.72 
4.8528177e+2, 6.500362e+1, -2251618.5, -2341683.3, -1120.6003, 0.0015593708, -0.001931424, -2251604.5, 51359.96 
4.8528162e+2, 7.4997926e+1, -2154565.5, -2244333.5, -1223.0316, 0.0015568834, -0.0006592914, -2154549.0, 50471.43 
4.8528132e+2, 8.499156e+1, -2066628.5, -2165632.0, -2179.3967, 0.0005405325, 0.00057251944, -2066580.5, 40502.184 
4.8528087e+2, 9.4984543e+1, -1969399.3, -2068159.6, -2121.221, -0.0015042374, -0.00028263844, -1969353.8, 39797.773 
4.8528045e+2, 1.04976885e+2, -1881221.1, -1989037.8, -2204.8633, -0.0013991602, 0.00030937104, -1881176.1, 30050.47 
4.8528004e+2, 1.14968605e+2, -1784035.6, -1891557.6, -2307.0227, 0.0008799166, 0.00044956827, -1783986.1, 29321.582 
4.8527953e+2, 1.2495965e+2, -1696144.9, -1813085.8, -2742.8174, 0.0015591154, 0.00055320974, -1696080.6, 19314.844 
4.85279e+2, 1.3495003e+2, -1598945.6, -1715597.3, -2675.5923, 0.0006083633, -0.0013919022, -1598884.3, 18605.385 
4.852784e+2, 1.4493982e+2, -1510442.8, -1635753.3, -2968.8655, -0.00030582314, -0.00081173854, -1510372.4, 9217.347 
4.852778e+2, 1.5492901e+2, -1413288.8, -1538268.9, -3266.0957, -0.0011892694, 0.0002897693, -1413203.4, 8492.289 
4.8527724e+2, 1.649175e+2, -1325833.3, -1460569.4, -3203.4365, -0.0007381261, 0.0008180903, -1325757.1, -1948.6565 
4.8527664e+2, 1.7490529e+2, -1228559.5, -1363007.0, -2865.3672, 0.0010723888, -0.0013949007, -1228498.5, -2570.268 
4.8527604e+2, 1.8489249e+2, -1139992.3, -1283155.1, -3033.5122, 0.0012250678, -0.0009835408, -1139928.0, -11874.288 
4.8527536e+2, 1.9487908e+2, -1042904.56, -1185660.6, -3278.255, -0.00035459065, 0.00019778435, -1042829.3, -12644.356 
4.8527476e+2, 2.04865e+2, -955029.06, -1107379.4, -3031.4172, -0.00075148593, 0.00065131637, -954968.75, -22645.727 
4.852742e+2, 2.1485022e+2, -857597.25, -1009754.25, -2923.127, 0.00009242992, -0.0017100787, -857541.1, -23073.355 
4.8527366e+2, 2.2483483e+2, -769506.3, -930928.44, -2749.1316, 0.00064240256, -0.0013268185, -769459.5, -32840.727 
4.8527312e+2, 2.3481879e+2, -672449.3, -833377.8, -2638.4163, 0.00089893484, -0.00034922056, -672406.06, -33630.098 
4.8527262e+2, 2.4480209e+2, -584174.1, -754163.3, -2367.2188, 0.000018797095, 0.0006373972, -584141.2, -43201.74 
4.8527214e+2, 2.5478476e+2, -486652.16, -656239.9, -2515.3586, -0.0020900553, -0.00038424763, -486614.84, -43505.742 
4.8527172e+2, 2.6476675e+2, -399082.4, -578770.94, -1964.0223, -0.0013992753, -0.000591311, -399060.94, -53775.313 
4.8527145e+2, 2.747481e+2, -301661.3, -480826.6, -1698.6096, 0.0023479902, -0.0021482653, -301645.22, -54176.33 
4.8527113e+2, 2.8472874e+2, -213496.3, -402318.88, -1438.5323, 0.002131886, -0.00079626375, -213485.33, -63826.89 
4.852708e+2, 2.9470876e+2, -115538.14, -304022.72, -1535.4143, -0.0024612013, 0.0012333702, -115525.63, -63671.523 
4.8527065e+2, 3.0469146e+2, -29131.836, -175953.45, -362.45407, -0.0023118022, 0.0009186454, -29130.941, -29130.941 
4.8527074e+2, 3.146769e+2, -31120.508, -176547.89, -91.53701, 0.0031444926, -0.004075717, -31120.45, -31120.45 
4.8527053e+2, 3.2466707e+2, 35708.754, -41413.246, -1536.2738, -0.0010749608, -0.0007097194, 35739.344, 35739.344 
4.9528825e+2, 3.5016727e+1, -2525852.0, -2600456.3, 811.3797, -0.014416468, 0.0015454117, -2525843.3, 70993.0 
4.952888e+2, 4.5012856e+1, -2438095.8, -2517044.8, -2087.8396, 0.02231004, 0.0024028888, -2438040.5, 60833.605 
4.952883e+2, 5.5008525e+1, -2339414.0, -2419005.0, -1646.0375, 0.00006556509, -0.0020700728, -2339380.0, 61536.55 
4.9528798e+2, 6.5003484e+1, -2251762.0, -2342058.0, -1318.2239, -0.007671321, -0.002243478, -2251742.8, 51223.145 
4.9528784e+2, 7.499777e+1, -2154751.8, -2244729.3, -1417.0356, -0.00087785424, 0.00002210275, -2154729.5, 50292.33 
4.9528754e+2, 8.49914e+1, -2066519.3, -2165398.3, -2339.9797, 0.0021724552, 0.0012545021, -2066463.9, 40620.33 
4.9528706e+2, 9.498439e+1, -1969259.0, -2067911.0, -2286.5303, 0.0014557462, -0.0005912423, -1969206.0, 39946.98 
4.9528655e+2, 1.0497672e+2, -1881383.0, -1989414.9, -2393.73, 0.00055739545, -0.0010572772, -1881330.0, 29898.121 
4.9528608e+2, 1.149684e+2, -1784220.9, -1891945.1, -2492.143, -0.0005248832, -0.0020458642, -1784163.3, 29146.441 
4.952855e+2, 1.24959454e+2, -1696027.9, -1812811.0, -2932.9983, -0.000932545, -0.00072506326, -1695954.3, 19443.045 
4.9528491e+2, 1.349499e+2, -1598830.0, -1715312.4, -2866.9521, -0.0006651831, 0.0009199516, -1598759.4, 18731.61 
4.952843e+2, 1.4493965e+2, -1511008.9, -1636896.9, -3174.9568, 0.0002235302, 0.0012913268, -1510928.9, 8662.628 
4.9528366e+2, 1.5492873e+2, -1413857.3, -1539401.8, -3457.7615, 0.0017359547, -0.0016954939, -1413762.1, 7936.413 
4.95283e+2, 1.6491722e+2, -1325197.0, -1459292.0, -3373.9026, 0.00113137, -0.0013987854, -1325112.1, -1300.8359 
4.9528235e+2, 1.7490512e+2, -1227960.1, -1361705.9, -3052.8997, -0.0016617267, 0.000121203884, -1227890.5, -1960.7365 
4.9528167e+2, 1.8489233e+2, -1140464.5, -1284101.1, -3264.9353, -0.0015664365, 0.00096636853, -1140390.3, -12335.246 
4.95281e+2, 1.9487885e+2, -1043355.2, -1186609.8, -3495.1133, 0.0015307594, -0.0008426466, -1043269.94, -13082.646 
4.9528033e+2, 2.0486473e+2, -954851.1, -1106970.0, -3163.101, 0.0017608429, -0.0007707877, -954785.4, -22459.818 
4.9527973e+2, 2.1485002e+2, -857453.44, -1009352.06, -3058.2793, -0.0010261955, -0.0007831583, -857391.9, -22922.035 
4.952791e+2, 2.2483464e+2, -769350.9, -930505.7, -3003.9695, -0.0015611412, 0.00048383558, -769294.9, -32674.426 
4.952785e+2, 2.3481864e+2, -672257.06, -832948.1, -2897.7039, 0.0002989221, 0.000798716, -672204.9, -33427.457 
4.9527794e+2, 2.4480194e+2, -584444.0, -754747.5, -2523.579, 0.0011237933, 0.00085485174, -584406.56, -43465.598 
4.9527743e+2, 2.5478458e+2, -486947.2, -656844.8, -2661.8203, 0.0008391008, -0.0014069683, -486905.5, -43794.305 
4.95277e+2, 2.6476657e+2, -398651.2, -577835.06, -2157.0725, -0.0000098827, -0.00100343, -398625.22, -53337.668 
4.9527657e+2, 2.7474797e+2, -301220.56, -479865.4, -1901.0624, -0.001469873, 0.00009401854, -301200.34, -53730.465 
4.9527624e+2, 2.8472865e+2, -213719.03, -402704.84, -1519.469, -0.0016308184, 0.0011353359, -213706.81, -64047.57 
4.9527597e+2, 2.947086e+2, -115780.06, -304452.38, -1604.9271, -0.00035257323, -0.00044707418, -115766.414, -63910.887 
4.9527577e+2, 3.0469134e+2, -28738.992, -175131.14, -885.0698, 0.0019596526, -0.0013934905, -28733.643, -28733.643 
4.952757e+2, 3.1467688e+2, -30665.1, -175671.23, -639.97845, 0.0053934427, -0.0036628204, -30662.275, -30662.275 
4.9527553e+2, 3.2466707e+2, 35767.117, -41153.98, 13.848729, -0.005696436, 0.0025861268, 35767.12, 35767.12 
5.0529486e+2, 3.501666e+1, -2523977.5, -2599678.8, 15.201724, -0.015567087, -0.0005786054, -2523977.5, 72859.164 
5.0529504e+2, 4.5012775e+1, -2438999.3, -2517658.5, 132.8742, 0.024143457, 0.00051957334, -2438999.0, 59875.707 
5.052946e+2, 5.500845e+1, -2338061.8, -2418525.5, -396.03397, 0.00021006499, -0.0017506871, -2338059.8, 62857.363 
5.052943e+2, 6.50034e+1, -2250073.5, -2341380.3, -1442.4902, -0.008255566, -0.0014216382, -2250050.5, 52916.02 
5.052941e+2, 7.4997663e+1, -2154618.3, -2244806.5, -1463.2402, -0.0012211979, -0.00034038455, -2154594.5, 50428.38 
5.052937e+2, 8.499128e+1, -2066632.8, -2165576.0, -2056.989, 0.0021438287, 0.0006346056, -2066590.0, 40495.516 
5.0529325e+2, 9.498427e+1, -1968405.9, -2067613.0, -2193.0427, 0.0018083685, -0.0005341358, -1968357.5, 40796.75 
5.052927e+2, 1.0497659e+2, -1880417.3, -1989101.3, -2606.0815, 0.00085336046, -0.00082777534, -1880354.8, 30874.709 
5.052921e+2, 1.1496825e+2, -1783937.9, -1891957.0, -2627.4216, -0.00071895367, -0.0021530685, -1783874.0, 29437.193 
5.052915e+2, 1.249593e+2, -1695892.4, -1812666.3, -2973.505, -0.0012440989, -0.00093078153, -1695816.8, 19582.18 
5.0529087e+2, 1.3494974e+2, -1598639.1, -1715147.6, -2988.1624, -0.00071868015, 0.00087171665, -1598562.5, 18930.008 
5.052902e+2, 1.449395e+2, -1510769.3, -1636925.9, -3089.092, 0.00029881034, 0.0013053565, -1510693.6, 8899.355 
5.052895e+2, 1.5492857e+2, -1413219.8, -1539271.9, -2924.792, 0.0018072412, -0.0017259748, -1413151.9, 8548.252 
5.052888e+2, 1.6491704e+2, -1324819.3, -1459146.3, -3096.1367, 0.0011859486, -0.0014041833, -1324747.9, -934.8879 
5.0528806e+2, 1.7490496e+2, -1228576.5, -1362067.1, -3426.4573, -0.0016396713, 0.00022402743, -1228488.6, -2557.076 
5.0528735e+2, 1.8489216e+2, -1140959.1, -1284266.4, -3464.9072, -0.0016079965, 0.0010015096, -1140875.4, -12818.53 
5.0528663e+2, 1.9487868e+2, -1042674.44, -1186206.0, -3200.013, 0.0013884414, -0.0010580984, -1042603.1, -12414.116 
5.052859e+2, 2.0486456e+2, -954327.2, -1106698.0, -2991.4636, 0.0016980246, -0.0007921698, -954268.44, -21941.234 
5.052852e+2, 2.1484986e+2, -858413.7, -1009800.5, -3076.8184, -0.00081556966, -0.0001532004, -858351.2, -23879.74 
5.052845e+2, 2.2483449e+2, -770469.44, -930870.56, -2932.5845, -0.0013994953, 0.0008880581, -770415.9, -33793.883 
5.052839e+2, 2.3481849e+2, -672347.25, -832814.4, -2917.561, 0.000058591937, 0.000049682698, -672294.25, -33515.387 
5.052833e+2, 2.4480179e+2, -584361.6, -754727.8, -2567.3848, 0.0009402166, 0.0000961529, -584322.94, -43380.563 
5.0528276e+2, 2.5478444e+2, -487303.16, -657039.8, -2453.888, 0.0012104912, -0.0009380929, -487267.7, -44155.152 
5.052822e+2, 2.6476645e+2, -399147.75, -577802.25, -1979.4281, 0.00029484302, -0.00028673947, -399125.8, -53837.043 
5.0528175e+2, 2.7474788e+2, -301948.6, -479967.06, -2022.5813, -0.0019176208, -0.000010245319, -301925.6, -54454.688 
5.052813e+2, 2.8472856e+2, -214734.05, -403039.34, -1521.1769, -0.0017882802, 0.00074208144, -214721.77, -65061.65 
5.052811e+2, 2.9470852e+2, -116896.79, -304874.6, -1319.537, 0.0009379268, -0.0005399742, -116887.53, -65031.285 
5.052808e+2, 3.0469128e+2, -29370.098, -175465.53, -892.7262, 0.0024596653, -0.0013913643, -29364.643, -29364.643 
5.0528055e+2, 3.146768e+2, -29778.53, -175294.2, -1119.6382, 0.0025916838, -0.0037952042, -29769.916, -29769.916 
5.052805e+2, 3.24667e+2, 33766.03, -42044.953, 42.40191, -0.004486102, 0.003091004, 33766.055, 33766.055 
5.1530164e+2, 3.501688e+1, -2524904.3, -2601297.5, -4295.5195, -0.0018310916, -0.00680297, -2524663.5, 72170.99 
5.15301e+2, 4.501294e+1, -2439753.8, -2519587.8, 927.5237, 0.0038196698, 0.0007224619, -2439743.0, 59130.164 
5.1530105e+2, 5.500849e+1, -2339079.3, -2420574.5, 402.63815, 0.000050560586, 0.0005902453, -2339077.3, 61839.58 
5.1530087e+2, 6.500337e+1, -2250161.3, -2341481.5, -2042.5807, -0.0011542151, 0.0004145641, -2250115.5, 52851.535 
5.1530033e+2, 7.49976e+1, -2154597.5, -2244851.0, -2063.4226, 0.0002883279, -0.0016325577, -2154550.5, 50473.168 
5.1529986e+2, 8.4991187e+1, -2066823.4, -2166056.0, -1960.4133, 0.0006206182, -0.001142155, -2066784.6, 40301.766 
5.1529944e+2, 9.4984156e+1, -1968670.4, -2068132.3, -2093.1143, -0.00019400204, -0.00014893973, -1968626.4, 40528.914 
5.152989e+2, 1.0497647e+2, -1880485.6, -1989183.5, -2958.0781, -0.0003526032, 0.0008326849, -1880405.3, 30825.393 
5.1529825e+2, 1.1496813e+2, -1783965.3, -1892018.4, -2977.4236, 0.00014784849, -0.0001280341, -1783883.3, 29429.082 
5.1529753e+2, 1.2495917e+2, -1695901.4, -1812699.3, -3140.624, 0.00036476066, -0.00017806698, -1695817.0, 19583.209 
5.152968e+2, 1.3494958e+2, -1598663.3, -1715180.4, -3158.3777, 0.00029821758, -0.0012828895, -1598577.6, 18916.453 
5.152961e+2, 1.4493936e+2, -1510471.5, -1636284.6, -3199.6663, -0.000048410326, -0.0005463346, -1510390.3, 9204.081 
5.152953e+2, 1.5492849e+2, -1412961.6, -1538634.1, -3040.0156, -0.0006942495, -0.000012214475, -1412888.1, 8812.65 
5.1529455e+2, 1.6491696e+2, -1325458.9, -1460438.4, -3545.099, -0.0004080487, 0.0005674155, -1325365.9, -1552.0381 
5.152938e+2, 1.7490475e+2, -1229171.8, -1363331.3, -3860.2678, 0.0008315329, -0.0009372101, -1229060.8, -3127.3137 
5.1529294e+2, 1.8489195e+2, -1140443.3, -1283263.0, -3367.444, 0.00079049193, -0.0006746931, -1140363.9, -12304.972 
5.152922e+2, 1.9487855e+2, -1042236.56, -1185225.1, -3110.6248, -0.00058766984, -0.0005332651, -1042168.94, -11978.733 
5.152915e+2, 2.0486447e+2, -954546.4, -1107052.8, -3519.108, -0.0006851886, 0.0004405447, -954465.25, -22137.14 
5.152907e+2, 2.1484973e+2, -858551.2, -1010130.2, -3604.6597, 0.0005672649, 0.00020978907, -858465.5, -23992.9 
5.152899e+2, 2.2483435e+2, -770402.56, -930811.2, -2920.3447, 0.0008590053, 0.000035951936, -770349.44, -33726.047 
5.1528925e+2, 2.3481832e+2, -672347.56, -832782.1, -2899.529, 0.000120662764, -0.0023944045, -672295.2, -33514.832 
5.1528865e+2, 2.4480167e+2, -584191.56, -754366.3, -2829.5728, -0.00041450333, -0.0015333698, -584144.5, -43200.867 
5.1528794e+2, 2.5478438e+2, -487107.97, -656666.7, -2719.1372, -0.00072338706, 0.0008658338, -487064.38, -43951.195 
5.152874e+2, 2.647664e+2, -399265.56, -577999.75, -2241.3745, -0.00039460516, 0.0014409135, -399237.47, -53948.11 
5.1528686e+2, 2.7474773e+2, -302067.9, -480169.66, -2282.7139, 0.00063181075, -0.002218276, -302038.66, -54566.65 
5.1528645e+2, 2.8472847e+2, -214420.23, -402341.9, -1626.6552, 0.0012667981, -0.0017319842, -214406.16, -64745.098 
5.152861e+2, 2.9470852e+2, -116596.76, -304168.6, -1425.3927, 0.0014643946, 0.0007885163, -116585.93, -64729.58 
5.152858e+2, 3.0469126e+2, -29836.625, -176402.13, -1022.4078, -0.00044878817, 0.0006831315, -29829.492, -29829.492 
5.1528543e+2, 3.146767e+2, -30247.957, -176279.08, -1236.1874, -0.004773268, -0.0044357246, -30237.494, -30237.494 
5.152854e+2, 3.2466683e+2, 33681.707, -42119.453, -452.93185, 0.0018906181, 0.001066663, 33684.414, 33684.414 
5.2530825e+2, 3.5017154e+1, -2528779.3, -2603252.0, -3729.833, 0.008155603, -0.0068931757, -2528593.0, 68238.805 
5.2530736e+2, 4.501315e+1, -2431142.8, -2516801.8, 906.1609, -0.011382353, 0.00097362284, -2431133.0, 67737.96 
5.253075e+2, 5.500857e+1, -2338830.0, -2421900.5, 464.48157, 0.00024107663, 0.0005197769, -2338827.5, 62088.574 
5.2530724e+2, 6.500338e+1, -2251555.5, -2342271.5, -1716.8534, 0.0042574205, 0.00031189807, -2251523.0, 51443.87 
5.253067e+2, 7.49976e+1, -2152561.3, -2243970.3, -1786.3286, 0.0007805861, -0.0014715708, -2152526.3, 52497.26 
5.2530617e+2, 8.4991175e+1, -2064425.3, -2165171.0, -1805.9099, -0.0009168854, -0.0010137883, -2064392.9, 42693.582 
5.253056e+2, 9.4984114e+1, -1968751.8, -2068459.1, -1883.2415, -0.00087141065, -0.0003481406, -1968716.3, 40439.527 
5.25305e+2, 1.0497641e+2, -1880982.0, -1989426.3, -2636.3577, -0.00042704013, 0.00082128745, -1880918.0, 30313.201 
5.253043e+2, 1.1496808e+2, -1783214.1, -1891650.4, -2621.0244, 0.00042645982, 0.00056722027, -1783150.9, 30162.0 
5.253036e+2, 1.24959104e+2, -1694901.0, -1812510.4, -2884.6965, 0.00075164577, 0.00035211758, -1694830.4, 20570.482 
5.2530277e+2, 1.3494948e+2, -1598036.1, -1715177.9, -3062.0605, 0.0005359022, -0.001790647, -1597956.1, 19538.994 
5.25302e+2, 1.4493926e+2, -1510259.9, -1636057.8, -3315.966, -0.000096665884, -0.0011036639, -1510172.5, 9422.829 
5.253012e+2, 1.549284e+2, -1413766.6, -1538899.6, -3376.154, -0.0011644154, 0.00038057638, -1413675.6, 8025.9546 
5.253004e+2, 1.6491687e+2, -1325939.8, -1460767.6, -3636.8916, -0.00072036573, 0.0010698851, -1325841.6, -2027.0609 
5.252995e+2, 1.7490464e+2, -1227631.0, -1362683.1, -3405.6826, 0.0012689467, -0.0011763446, -1227545.3, -1610.7897 
5.2529866e+2, 1.8489185e+2, -1139250.1, -1282627.0, -3016.714, 0.0012426571, -0.0010253527, -1139186.6, -11126.745 
5.252979e+2, 1.9487846e+2, -1043976.06, -1186026.0, -3225.2598, -0.00089390815, -0.00034005527, -1043902.9, -13711.775 
5.25297e+2, 2.048644e+2, -956325.06, -1107756.5, -3556.9648, -0.0010950523, 0.00058636797, -956241.56, -23912.621 
5.2529615e+2, 2.1484965e+2, -857450.6, -1009442.8, -3393.2478, 0.0007429863, -0.00030600067, -857374.9, -22901.52 
5.252954e+2, 2.2483428e+2, -769113.8, -930335.9, -2814.4507, 0.0012263088, -0.00045038614, -769064.7, -32440.566 
5.252946e+2, 2.3481824e+2, -673306.25, -833413.06, -2932.4622, 0.0002669087, -0.002121726, -673252.56, -34471.34 
5.252939e+2, 2.448016e+2, -585631.2, -754641.3, -2780.4607, -0.0005245066, -0.0011602733, -585585.44, -44641.055 
5.2529323e+2, 2.5478432e+2, -487920.03, -656597.4, -2603.7493, -0.0011329058, 0.0006410582, -487879.84, -44766.242 
5.252926e+2, 2.6476637e+2, -399847.44, -578332.9, -2101.411, -0.00063748605, 0.0010926888, -399822.72, -54533.113 
5.25292e+2, 2.747477e+2, -302279.78, -480329.8, -2090.2903, 0.0010616188, -0.0021805998, -302255.25, -54782.95 
5.252915e+2, 2.8472847e+2, -214556.17, -402117.38, -1483.1584, 0.0018064629, -0.0015925653, -214544.44, -64883.203 
5.252911e+2, 2.9470852e+2, -117586.61, -304313.1, -1423.7657, 0.0014867085, 0.0007214392, -117575.76, -65719.5 
5.252907e+2, 3.046913e+2, -31191.809, -177039.2, -713.8809, -0.00083746115, 0.001143933, -31188.314, -31188.314 
5.252904e+2, 3.1467673e+2, -31041.729, -176615.25, -475.564, -0.0054463097, -0.002629125, -31040.174, -31040.174 
5.252903e+2, 3.246669e+2, 32621.813, -41761.01, -9.360253, 0.0026676205, -0.00044363303, 32621.813, 32621.813 
5.353146e+2, 3.501748e+1, -2528091.8, -2601965.3, 1159.3013, 0.014753363, -0.00151179, -2528073.5, 68755.18 
5.3531414e+2, 4.501341e+1, -2432141.8, -2518592.0, -551.8347, -0.02205258, 0.0012587784, -2432138.3, 66730.305 
5.3531396e+2, 5.500869e+1, -2339657.3, -2423595.0, -957.4149, 0.00071592635, -0.001691486, -2339646.3, 61268.496 
5.353136e+2, 6.500343e+1, -2251610.3, -2342498.5, -1422.4546, 0.008132579, -0.001507623, -2251588.0, 51378.242 
5.3531307e+2, 7.4997663e+1, -2152706.5, -2244236.0, -1491.2869, 0.000354237, -0.000016870392, -2152682.0, 52340.766 
5.353125e+2, 8.499123e+1, -2064598.6, -2165478.8, -2367.5342, -0.0024800482, 0.00080903573, -2064543.1, 42542.875 
5.353118e+2, 9.4984126e+1, -1968869.0, -2068734.1, -2441.624, -0.00039897521, -0.0010653558, -1968809.4, 40346.266 
5.3531116e+2, 1.0497641e+2, -1880903.0, -1989344.9, -2670.0264, 0.00048496298, -0.0006707241, -1880837.3, 30393.95 
5.3531045e+2, 1.1496809e+2, -1783168.8, -1891586.9, -2656.275, 0.00016413398, 0.000081649625, -1783103.6, 30209.045 
5.353096e+2, 1.249591e+2, -1695264.0, -1813199.0, -3157.2058, 0.000022669317, 0.0006862407, -1695179.5, 20221.328 
5.353088e+2, 1.3494943e+2, -1598395.8, -1715864.8, -3323.8723, 0.00006055181, -0.00083026924, -1598301.8, 19193.705 
5.3530794e+2, 1.4493918e+2, -1510374.4, -1636295.0, -3676.2554, 0.0001025485, -0.0005084094, -1510267.1, 9328.962 
5.35307e+2, 1.549283e+2, -1413858.0, -1539115.9, -3736.4158, 0.00015017165, -0.00040303738, -1413746.8, 7955.9565 
5.3530616e+2, 1.649168e+2, -1325491.0, -1459872.9, -3544.0535, 0.000083679515, 0.00027078495, -1325397.5, -1582.1224 
5.353053e+2, 1.7490464e+2, -1227261.5, -1361803.6, -3318.514, -0.00011718014, -0.0005984575, -1227179.8, -1245.2579 
5.353043e+2, 1.8489185e+2, -1139679.9, -1283487.8, -3701.846, -0.00005844982, -0.00019859664, -1139584.6, -11524.712 
5.353034e+2, 1.9487838e+2, -1044319.8, -1186858.1, -3907.4116, 0.000265166, -0.00043927628, -1044212.75, -14020.973 
5.353025e+2, 2.0486431e+2, -955972.44, -1107103.8, -3330.1482, 0.00023655499, -0.00023025397, -955899.1, -23569.352 
5.353016e+2, 2.148496e+2, -857194.2, -1008819.3, -3163.9937, -0.00017482284, -0.0016033176, -857128.2, -22654.436 
5.3530085e+2, 2.2483425e+2, -769407.9, -930851.1, -3382.9985, -0.00011250194, -0.00060800364, -769337.0, -32712.63 
5.352999e+2, 2.348182e+2, -673541.8, -833902.0, -3500.3525, 0.00047206975, 0.0005703906, -673465.44, -34683.906 
5.352991e+2, 2.4480157e+2, -585281.4, -753988.4, -2873.5183, 0.0004599764, 0.0009966453, -585232.44, -44287.723 
5.352984e+2, 2.5478432e+2, -487597.5, -655941.94, -2699.8884, -0.00020118503, -0.0013894844, -487554.22, -44440.4 
5.3529775e+2, 2.6476637e+2, -399880.66, -578322.3, -2267.8352, -0.0005041082, -0.0011001184, -399851.84, -54562.27 
5.352971e+2, 2.7474776e+2, -302319.8, -480352.25, -2251.7173, -0.00041810152, -0.00013429829, -302291.34, -54819.473 
5.3529656e+2, 2.847285e+2, -214548.81, -401952.6, -1801.6711, 0.000082293445, 0.00088137976, -214531.5, -64870.75 
5.35296e+2, 2.9470855e+2, -117539.58, -304144.78, -1749.276, 0.0010297161, -0.000595204, -117523.18, -65667.17 
5.3529567e+2, 3.0469137e+2, -30828.205, -176231.1, -696.8648, 0.0009927338, 0.0001547038, -30824.865, -30824.865 
5.352954e+2, 3.146769e+2, -30721.896, -175836.06, -444.78378, -0.00017831115, 0.0013681204, -30720.533, -30720.533 
5.35295e+2, 3.2466713e+2, 33636.793, -39640.793, -1175.3489, -0.0015965976, -0.0014630794, 33655.637, 33655.637 
5.453211e+2, 3.501757e+1, -2524448.0, -2600394.0, 1843.4458, 0.009520345, 0.00091187865, -2524403.3, 72424.71 
5.453209e+2, 4.5013493e+1, -2435659.3, -2519963.8, -2494.74, -0.01398252, 0.0024839467, -2435585.5, 63282.27 
5.453205e+2, 5.5008787e+1, -2337920.0, -2422400.0, -1889.878, 0.0004824698, -0.0020512412, -2337877.8, 63036.125 
5.4532003e+2, 6.500353e+1, -2249019.0, -2341448.0, -1278.8203, 0.0050651683, -0.0021784937, -2249001.3, 53964.047 
5.4531944e+2, 7.499776e+1, -2152856.8, -2244534.5, -1374.4808, -0.00008465464, 0.00026389514, -2152836.0, 52185.91 
5.4531884e+2, 8.49913e+1, -2065157.4, -2165854.5, -2456.276, -0.0017230865, 0.0013795422, -2065097.4, 41987.83 
5.453181e+2, 9.4984186e+1, -1967644.3, -2068246.8, -2468.1565, 0.000110898916, -0.00086030684, -1967583.8, 41571.207 
5.453173e+2, 1.0497645e+2, -1879423.6, -1988766.5, -2619.8457, 0.0006972485, -0.0009410268, -1879360.9, 31869.89 
5.453165e+2, 1.1496811e+2, -1782875.9, -1891585.5, -2744.0413, 0.000032176482, -0.0007661629, -1782806.6, 30505.77 
5.4531574e+2, 1.2495912e+2, -1695363.4, -1813236.8, -3205.4492, -0.000270483, 0.0002561691, -1695276.3, 20124.363 
5.4531485e+2, 1.3494948e+2, -1598341.5, -1715832.0, -3043.5764, -0.00022040856, 0.00015543067, -1598262.8, 19232.389 
5.4531384e+2, 1.449392e+2, -1509987.0, -1636300.4, -3246.4236, 0.000069765345, 0.00043605705, -1509903.6, 9692.274 
5.453129e+2, 1.549283e+2, -1412665.4, -1538728.1, -3321.244, 0.0006076752, -0.000966829, -1412578.0, 9124.717 
5.453119e+2, 1.6491678e+2, -1324784.4, -1459403.6, -3272.4092, 0.00044895575, -0.00046302757, -1324704.9, -889.31494 
5.45311e+2, 1.7490466e+2, -1228768.9, -1362420.6, -3402.2192, -0.0004414386, -0.00013013023, -1228682.4, -2747.9697 
5.4531e+2, 1.8489186e+2, -1141019.8, -1284196.9, -3850.863, -0.00045295464, 0.0005034208, -1140916.3, -12856.444 
5.4530895e+2, 1.9487838e+2, -1042719.4, -1186147.4, -3718.503, 0.00044103115, -0.00050541776, -1042623.06, -12431.277 
5.45308e+2, 2.0486431e+2, -954391.6, -1106354.5, -3073.1152, 0.0005698792, -0.0005079292, -954329.5, -21999.697 
5.453071e+2, 2.148496e+2, -858848.06, -1009652.1, -3227.5623, -0.00011566382, -0.0015003665, -858779.0, -24305.2 
5.453062e+2, 2.2483426e+2, -771407.94, -931505.2, -3431.0076, -0.00030481486, -0.00025226315, -771334.44, -34710.176 
5.4530525e+2, 2.3481825e+2, -673195.56, -833420.0, -3128.929, 0.000048070662, 0.0010529523, -673134.5, -34353.38 
5.4530436e+2, 2.4480161e+2, -584594.4, -753769.6, -2492.528, 0.0003104367, 0.0012442206, -584557.7, -43613.438 
5.453036e+2, 2.5478435e+2, -488054.0, -656292.44, -2743.761, 0.00046823427, -0.0017772655, -488009.28, -44895.723 
5.4530287e+2, 2.647664e+2, -400746.84, -578441.25, -2394.739, 0.00018051031, -0.0014444938, -400714.6, -55425.348 
5.453022e+2, 2.7474782e+2, -303562.94, -480606.7, -2173.578, -0.0005931771, 0.0003117033, -303536.25, -56065.074 
5.453015e+2, 2.847286e+2, -215709.34, -402518.8, -1630.7091, -0.00083588733, 0.0014746484, -215695.11, -66035.25 
5.4530096e+2, 2.9470864e+2, -117830.24, -304267.2, -1637.9799, -0.0005029042, -0.0005663637, -117815.86, -65960.7 
5.4530054e+2, 3.046915e+2, -31228.031, -175662.94, -656.7789, 0.0012952654, -0.00019963057, -31225.045, -31225.045 
5.4530025e+2, 3.146771e+2, -33251.36, -176271.27, -341.45917, 0.004734689, 0.00085339026, -33250.543, -33250.543 
5.4529977e+2, 3.2466733e+2, 33754.22, -40177.207, -1242.9191, -0.004579464, -0.00038977215, 33775.11, 33775.11 
5.5532765e+2, 3.5017452e+1, -2525165.0, -2601955.8, 1499.7053, -0.0061962926, 0.0007238303, -2525135.8, 71693.47 
5.553278e+2, 4.501342e+1, -2434568.3, -2517610.3, -2473.125, 0.010580732, 0.0045572286, -2434494.8, 64373.9 
5.55327e+2, 5.500887e+1, -2336792.0, -2420028.8, -1896.8738, -0.0004033669, -0.00077601266, -2336748.8, 64164.41 
5.553264e+2, 6.5003675e+1, -2249186.0, -2341816.3, -1703.7122, -0.004156992, -0.0018346804, -2249154.8, 53809.195 
5.5532587e+2, 7.4997866e+1, -2153011.5, -2244893.5, -1795.5388, -0.0005493455, -0.00049188145, -2152976.5, 52044.566 
5.553252e+2, 8.4991395e+1, -2065152.5, -2165889.0, -2542.216, 0.0010628422, 0.00084455084, -2065088.4, 41995.977 
5.553244e+2, 9.4984293e+1, -1967659.4, -2068281.5, -2552.927, 0.0006260975, 0.00015939827, -1967594.6, 41559.348 
5.5532354e+2, 1.0497654e+2, -1879661.0, -1989251.4, -2957.1794, 0.00026973008, -0.0001287704, -1879581.3, 31648.607 
5.553227e+2, 1.1496816e+2, -1783106.1, -1892071.5, -3076.4895, -0.0000046257333, -0.0019326826, -1783019.4, 30292.764 
5.5532175e+2, 1.2495917e+2, -1695048.5, -1812605.4, -3430.7158, -0.00020480978, -0.00084616966, -1694948.5, 20451.707 
5.553208e+2, 1.3494958e+2, -1598027.0, -1715194.0, -3277.746, -0.00034582938, 0.0011658432, -1597935.4, 19558.783 
5.5531985e+2, 1.4493932e+2, -1510134.1, -1636591.6, -3414.1453, -0.00018339473, 0.001693159, -1510042.0, 9552.675 
5.553188e+2, 1.5492839e+2, -1412839.3, -1539032.0, -3483.4111, 0.00028337075, -0.0013366174, -1412743.3, 8958.63 
5.5531776e+2, 1.6491684e+2, -1325057.1, -1459936.1, -3765.8757, 0.0004001949, -0.0011363769, -1324952.1, -1137.1097 
5.553167e+2, 1.7490469e+2, -1229004.9, -1362922.3, -3891.394, 0.00016277774, 0.00023771798, -1228892.0, -2957.8665 
5.553156e+2, 1.848919e+2, -1140746.1, -1283682.3, -3757.2927, -0.00006237828, 0.0010927736, -1140647.5, -12588.005 
5.553146e+2, 1.9487844e+2, -1042505.3, -1185658.3, -3624.2698, -0.00027459464, -0.0005394373, -1042413.6, -12222.452 
5.553135e+2, 2.0486437e+2, -954734.4, -1106995.9, -3688.0598, 0.0000047098442, -0.000302915, -954645.06, -22315.887 
5.553125e+2, 2.1484964e+2, -859134.94, -1010274.44, -3841.533, 0.0007892702, -0.00015692062, -859037.4, -24563.818 
5.553115e+2, 2.2483431e+2, -770823.9, -930326.7, -3388.0955, 0.0004950659, 0.0005615481, -770751.94, -34128.133 
5.5531055e+2, 2.3481835e+2, -672669.9, -832234.75, -3092.594, -0.0009500246, -0.0004296654, -672609.94, -33829.883 
5.5530965e+2, 2.4480173e+2, -585097.75, -754796.5, -2890.802, -0.0008603686, -0.00020532175, -585048.5, -44105.41 
5.5530876e+2, 2.547844e+2, -488538.53, -657342.9, -3131.2256, 0.00088322075, -0.0007019319, -488480.47, -45367.56 
5.553079e+2, 2.6476645e+2, -400390.5, -577641.25, -2640.49, 0.0013330658, -0.00014465446, -400351.2, -55062.523 
5.553072e+2, 2.7474794e+2, -303189.03, -479783.7, -2427.591, 0.00037162102, -0.0006656927, -303155.7, -55685.457 
5.553065e+2, 2.847287e+2, -215792.17, -402555.5, -1722.5605, -0.0010562573, 0.0003947574, -215776.3, -66117.664 
5.553059e+2, 2.947088e+2, -117935.21, -304344.84, -1722.0199, -0.0030210037, 0.00065994525, -117919.305, -66065.54 
5.5530536e+2, 3.0469164e+2, -30735.934, -174609.63, -1191.0231, 0.00021099269, 0.000018194043, -30726.074, -30726.074 
5.55305e+2, 3.146773e+2, -32703.875, -175168.47, -906.15936, 0.009279926, -0.0036948451, -32698.111, -32698.111 
5.553045e+2, 3.2466754e+2, 32069.297, -43550.105, 128.70473, -0.006494859, 0.0025073304, 32069.516, 32069.516 
5.653344e+2, 3.5017598e+1, -2521933.3, -2600951.5, 1510.271, -0.009727223, -0.000715709, -2521904.5, 74923.21 
5.653344e+2, 4.5013565e+1, -2435484.3, -2517696.5, -681.86127, 0.01589961, 0.0039267535, -2435478.5, 63388.582 
5.653336e+2, 5.5009055e+1, -2336546.5, -2419557.0, -994.72253, -0.00042220004, -0.00012910418, -2336534.5, 64376.676 
5.6533295e+2, 6.500388e+1, -2248556.0, -2341647.8, -1729.1879, -0.005838567, -0.0010871722, -2248523.8, 54438.28 
5.653323e+2, 7.4998033e+1, -2152055.3, -2244569.3, -1755.7902, -0.00022776476, -0.0008181853, -2152022.0, 52997.355 
5.653315e+2, 8.4991556e+1, -2064193.8, -2165471.5, -2255.8687, 0.0018552855, 0.00019667968, -2064143.6, 42939.207 
5.6533074e+2, 9.4984454e+1, -1967142.6, -2068084.1, -2293.9595, 0.0003468906, -0.00004671979, -1967090.5, 42061.938 
5.6532985e+2, 1.0497669e+2, -1879364.5, -1989280.5, -2826.327, -0.0002469952, 0.00017720937, -1879291.9, 31936.58 
5.6532884e+2, 1.1496829e+2, -1782681.3, -1892033.0, -2830.874, 0.00008660459, -0.0010410835, -1782608.0, 30702.732 
5.653279e+2, 1.249593e+2, -1694471.8, -1812334.5, -3191.2466, 0.00008762546, -0.0004188985, -1694385.4, 21013.502 
5.6532687e+2, 1.349497e+2, -1597446.1, -1714928.1, -3354.4663, -0.00026407823, 0.000060050595, -1597350.4, 20142.594 
5.6532574e+2, 1.4493944e+2, -1509895.8, -1636486.1, -3617.7148, -0.0002198699, 0.0007275315, -1509792.5, 9801.109 
5.653247e+2, 1.549285e+2, -1413325.3, -1539272.4, -3559.738, 0.00022317546, -0.00045210053, -1413224.8, 8475.843 
5.6532353e+2, 1.6491696e+2, -1325324.1, -1460167.3, -3741.295, 0.00032260138, -0.00010193516, -1325220.4, -1406.5873 
5.653224e+2, 1.7490478e+2, -1227953.6, -1362520.4, -3692.8276, 0.000070207534, -0.00031909242, -1227852.4, -1919.2576 
5.6532127e+2, 1.8489198e+2, -1139865.1, -1283114.3, -3431.0344, -0.000011903252, 0.00019315696, -1139783.0, -11724.509 
5.653202e+2, 1.9487856e+2, -1043641.0, -1186071.3, -3462.7634, 0.00007564548, -0.00048457267, -1043556.9, -13366.863 
5.653191e+2, 2.048645e+2, -956010.3, -1107597.3, -3616.076, 0.0001751681, 0.00018096349, -955924.1, -23596.186 
5.653179e+2, 2.1484976e+2, -858399.3, -1009904.7, -3476.6604, 0.00028576862, 0.00020202741, -858319.56, -23847.299 
5.653169e+2, 2.2483443e+2, -769973.4, -929915.06, -3028.285, 0.00014328261, 0.0004065201, -769916.06, -33293.402 
5.6531584e+2, 2.3481847e+2, -673762.94, -832750.4, -3290.6257, -0.000281442, -0.0015020331, -673694.8, -34915.918 
5.653149e+2, 2.4480185e+2, -586561.56, -755308.4, -3104.46, -0.00032337222, -0.0009026878, -586504.44, -45562.6 
5.653139e+2, 2.5478455e+2, -488829.06, -657296.75, -2770.1372, 0.00004706912, 0.00037312155, -488783.5, -45672.156 
5.6531304e+2, 2.6476663e+2, -400311.47, -577541.75, -2227.7014, 0.00045540454, 0.00089052296, -400283.47, -54996.44 
5.653122e+2, 2.747481e+2, -303513.3, -479881.47, -2374.5835, 0.0009070189, -0.001642298, -303481.38, -56012.645 
5.653115e+2, 2.8472888e+2, -216545.33, -402792.78, -1659.7445, -0.000034736535, -0.0005884129, -216530.55, -66873.5 
5.653108e+2, 2.94709e+2, -119252.49, -304858.0, -1543.8591, -0.0025365953, 0.0019049786, -119239.66, -67387.8 
5.653102e+2, 3.0469185e+2, -31888.563, -175140.16, -1405.805, -0.0006223506, 0.00093866646, -31874.768, -31874.768 
5.6530964e+2, 3.1467745e+2, -32699.658, -175145.56, -1652.9142, 0.006242607, -0.00599315, -32680.48, -32680.48 
5.653093e+2, 3.2466775e+2, 30799.6, -44138.605, 1086.0425, -0.0039815856, 0.0044621993, 30815.336, 30815.336 
5.753413e+2, 3.5017976e+1, -2522072.8, -2601040.0, -1697.9429, -0.0026084846, -0.003239037, -2522036.3, 74787.586 
5.753407e+2, 4.5013896e+1, -2435909.0, -2518823.3, -399.01443, 0.0042768675, 0.00092519994, -2435907.3, 62956.652 
5.753402e+2, 5.500934e+1, -2337116.3, -2420745.3, -705.4998, 0.00029767898, -0.00004168696, -2337110.3, 63798.32 
5.7533956e+2, 6.500412e+1, -2248620.8, -2341755.0, -2059.5784, -0.0009213204, 0.000012405174, -2248575.3, 54384.3 
5.753388e+2, 7.499826e+1, -2152083.3, -2244662.3, -2086.2844, 0.00076657295, -0.00076960935, -2152036.3, 52980.805 
5.7533795e+2, 8.4991765e+1, -2064240.9, -2165611.5, -2456.064, 0.00087383017, -0.00054734625, -2064181.4, 42899.242 
5.7533705e+2, 9.498465e+1, -1967212.4, -2068227.6, -2493.8135, -0.0006612485, -0.0013287409, -1967150.9, 41999.62 
5.7533604e+2, 1.049769e+2, -1879375.5, -1989300.0, -3128.0747, -0.0008622529, 0.000037284368, -1879286.5, 31939.908 
5.753351e+2, 1.1496853e+2, -1782680.4, -1892045.6, -3131.4973, 0.00027196365, 0.0016569152, -1782590.8, 30717.71 
5.75334e+2, 1.249595e+2, -1694772.9, -1812971.1, -3414.8523, 0.0005545626, 0.0013532244, -1694674.4, 20722.625 
5.753329e+2, 1.3494982e+2, -1597762.9, -1715569.4, -3571.5356, -0.000020261858, -0.0029019373, -1597654.8, 19837.158 
5.7533175e+2, 1.4493953e+2, -1509801.0, -1636266.6, -3952.851, -0.00008253272, -0.002192743, -1509677.6, 9915.009 
5.7533056e+2, 1.5492868e+2, -1413216.8, -1539045.1, -3897.8386, 0.00037167946, 0.0015356655, -1413096.1, 8602.85 
5.7532936e+2, 1.6491714e+2, -1325229.1, -1459988.9, -3885.142, 0.0001932681, 0.0024401527, -1325117.1, -1305.1428 
5.753282e+2, 1.7490494e+2, -1227885.8, -1362350.9, -3837.9255, -0.0006459844, -0.0016907305, -1227776.3, -1844.7156 
5.75327e+2, 1.8489213e+2, -1139954.3, -1283264.4, -3869.8774, -0.00028079894, -0.0020192722, -1139849.9, -11792.805 
5.753257e+2, 1.9487874e+2, -1043706.7, -1186216.1, -3903.5688, 0.001344418, -0.0003489762, -1043599.9, -13411.454 
5.753246e+2, 2.0486468e+2, -955740.56, -1107061.4, -3713.2632, 0.000979962, 0.00091649283, -955649.5, -23323.375 
5.7532334e+2, 2.1484998e+2, -858162.8, -1009372.94, -3574.1033, -0.0014784687, -0.00030956668, -858078.4, -23608.195 
5.753223e+2, 2.248346e+2, -770502.3, -930947.44, -3493.2036, -0.0012473421, -0.00060162094, -770426.3, -33805.57 
5.753211e+2, 2.3481861e+2, -674261.6, -833785.56, -3745.736, 0.0018444776, -0.0022150788, -674173.75, -35396.008 
5.7532007e+2, 2.4480198e+2, -585945.94, -754077.2, -3184.6533, 0.0017054236, -0.0009348638, -585885.6, -44945.117 
5.7531905e+2, 2.547848e+2, -488255.56, -656043.75, -2856.6594, -0.0019147953, 0.0014449465, -488206.94, -45097.9 
5.7531804e+2, 2.6476687e+2, -400651.1, -578117.3, -2588.2727, -0.0022361798, 0.0016933987, -400613.34, -55328.87 
5.753172e+2, 2.747483e+2, -303828.63, -480477.53, -2732.6216, 0.0010413094, -0.0026185163, -303786.38, -56319.62 
5.7531637e+2, 2.8472906e+2, -216406.34, -402414.66, -1891.1759, 0.0020664567, -0.0014828811, -216387.13, -66731.97 
5.753156e+2, 2.9470924e+2, -119128.59, -304469.84, -1773.2404, 0.00058169436, 0.003156771, -119111.63, -67262.13 
5.7531494e+2, 3.046921e+2, -32376.271, -176065.19, -1629.6047, -0.0012658448, 0.002471462, -32357.791, -32357.791 
5.753143e+2, 3.1467763e+2, -33164.56, -176100.53, -1871.0709, -0.003551093, -0.006302819, -33140.07, -33140.07 
5.7531404e+2, 3.2466796e+2, 32145.633, -41111.254, 1408.8126, 0.0024129923, 0.0055860775, 32172.715, 32172.715 
5.853481e+2, 3.501839e+1, -2524169.0, -2601599.8, -1938.7563, 0.0010943711, -0.0045367875, -2524120.5, 72699.11 
5.8534735e+2, 4.5014322e+1, -2430846.5, -2517015.5, -287.50195, -0.0017271325, 0.0016063803, -2430845.5, 68014.055 
5.853469e+2, 5.5009687e+1, -2335978.5, -2420876.3, -463.6185, 0.0005582353, -0.0005947707, -2335976.0, 64929.14 
5.853461e+2, 6.500443e+1, -2248616.5, -2341866.8, -1704.898, 0.001297598, -0.0006986719, -2248585.5, 54371.113 
5.8534527e+2, 7.4998575e+1, -2151193.3, -2244321.0, -1761.0911, 0.00064204074, -0.0005562356, -2151160.0, 53854.008 
5.853444e+2, 8.4992075e+1, -2063228.4, -2165257.3, -2240.6526, 0.00006227634, 0.000013956542, -2063179.3, 43898.5 
5.853434e+2, 9.4984937e+1, -1966771.3, -2068165.0, -2317.2742, -0.00050419226, -0.0009875727, -1966718.3, 42429.355 
5.8534235e+2, 1.04977176e+2, -1878967.5, -1989112.8, -2947.2852, -0.00048826472, 0.000019414632, -1878888.8, 32334.99 
5.853413e+2, 1.149688e+2, -1781924.6, -1891707.0, -2962.2207, 0.00011354944, 0.0011402289, -1781844.8, 31461.092 
5.8534014e+2, 1.2495975e+2, -1694192.4, -1812900.1, -3201.7678, 0.0003794847, 0.0011912968, -1694106.1, 21288.307 
5.8533895e+2, 1.3495006e+2, -1597615.5, -1715709.4, -3197.555, 0.0003036645, -0.0018237594, -1597529.0, 19960.4 
5.853377e+2, 1.4493978e+2, -1509548.6, -1636119.5, -3554.9373, 0.00016856409, -0.0013671132, -1509448.9, 10141.386 
5.8533645e+2, 1.549289e+2, -1412601.8, -1538737.1, -3596.5942, -0.000027179616, 0.0005649922, -1412499.3, 9197.522 
5.8533514e+2, 1.6491738e+2, -1324846.9, -1459833.9, -3639.6729, -0.000061549246, 0.0013993735, -1324748.8, -938.98444 
5.8533394e+2, 1.7490518e+2, -1228239.0, -1362558.1, -3705.9626, 0.00005608452, -0.0010137407, -1228136.9, -2207.579 
5.8533263e+2, 1.8489239e+2, -1140376.9, -1283502.4, -3876.3994, 0.0001993131, -0.001023058, -1140271.9, -12217.176 
5.853313e+2, 1.9487895e+2, -1043483.06, -1186130.6, -3878.7249, 0.00036950753, -0.000484624, -1043377.7, -13191.436 
5.8533007e+2, 2.048649e+2, -955537.75, -1106777.9, -3636.221, 0.00012070147, 0.00030985955, -955450.4, -23126.43 
5.853288e+2, 2.1485022e+2, -858971.0, -1009577.5, -3657.8835, -0.0005691328, -0.0006891106, -858882.2, -24414.33 
5.8532757e+2, 2.2483487e+2, -771358.94, -931435.9, -3501.6272, -0.00025348406, -0.00043434353, -771282.4, -34664.043 
5.8532643e+2, 2.3481885e+2, -673834.94, -833663.9, -3321.8943, 0.0011347628, -0.0011572528, -673765.94, -34990.61 
5.8532524e+2, 2.4480224e+2, -585475.4, -753568.75, -2788.922, 0.0008773329, -0.00029503324, -585429.1, -44491.055 
5.8532417e+2, 2.5478506e+2, -489507.16, -656361.5, -2904.0542, -0.0011541714, 0.00026654784, -489456.63, -46350.098 
5.853231e+2, 2.6476714e+2, -402328.63, -578975.5, -2588.689, -0.0015761624, 0.0005575171, -402290.7, -57008.855 
5.8532214e+2, 2.7474856e+2, -304167.63, -480668.94, -2478.469, -0.00024657702, -0.0016849483, -304132.8, -56668.863 
5.8532125e+2, 2.8472936e+2, -216211.56, -402096.88, -1697.1183, 0.0012038634, -0.0005619115, -216196.06, -66543.79 
5.853204e+2, 2.9470953e+2, -119801.195, -304546.7, -1603.9498, 0.0027771534, 0.0017594721, -119787.27, -67940.68 
5.853197e+2, 3.046924e+2, -33503.434, -177053.73, -1131.93, -0.00022500972, 0.00152126, -33494.508, -33494.508 
5.853189e+2, 3.146779e+2, -33252.02, -176615.61, -1222.3413, -0.008399532, -0.0036951848, -33241.598, -33241.598 
5.853187e+2, 3.2466823e+2, 29637.031, -40878.387, 1018.6483, 0.0051237233, 0.0035030644, 29651.742, 29651.742 
5.9535486e+2, 3.501884e+1, -2523495.5, -2600382.0, 102.08069, 0.0017447418, -0.00474235, -2523495.3, 73319.99 
5.9535426e+2, 4.501483e+1, -2431280.8, -2517736.8, -1039.5645, -0.0028535947, 0.0055185417, -2431268.3, 67586.305 
5.9535354e+2, 5.5010104e+1, -2336284.8, -2421531.0, -1207.8602, 0.00039098025, -0.0017079965, -2336267.5, 64633.45 
5.953527e+2, 6.500481e+1, -2248661.3, -2342048.8, -1794.6731, 0.0011259856, -0.0029899036, -2248626.8, 54326.25 
5.953518e+2, 7.499896e+1, -2151279.0, -2244525.5, -1851.482, -0.0004767427, -0.00020638727, -2151242.3, 53768.07 
5.953508e+2, 8.4992456e+1, -2063370.6, -2165556.0, -2591.1997, -0.0006190985, 0.0017131491, -2063305.0, 43769.0 
5.953498e+2, 9.49853e+1, -1966908.6, -2068450.6, -2667.6423, 0.0006451004, 0.00076969113, -1966838.6, 42305.516 
5.953487e+2, 1.0497751e+2, -1878988.8, -1989162.1, -3158.7747, 0.00073138514, 0.00010932623, -1878898.3, 32322.266 
5.9534746e+2, 1.1496909e+2, -1781955.9, -1891758.3, -3174.5105, -0.00036761002, -0.0021894043, -1781864.1, 31438.793 
5.953463e+2, 1.24960065e+2, -1694195.1, -1812886.3, -3543.081, -0.00038379602, -0.0006621505, -1694089.4, 21301.947 
5.95345e+2, 1.3495044e+2, -1597617.3, -1715696.4, -3538.04, 0.00068075367, 0.0027924427, -1597511.4, 19974.467 
5.953437e+2, 1.4494014e+2, -1509641.9, -1636280.1, -3808.8706, 0.00050612516, 0.002741617, -1509527.5, 10059.287 
5.9534234e+2, 1.5492918e+2, -1412696.9, -1538895.8, -3850.7908, -0.000926827, -0.0029971646, -1412579.5, 9114.549 
5.95341e+2, 1.6491762e+2, -1324989.5, -1460105.3, -3980.244, -0.00045092852, -0.0027789476, -1324872.3, -1065.02 
5.9533966e+2, 1.749055e+2, -1228393.0, -1362829.6, -4038.718, 0.0019878887, 0.0014651765, -1228271.9, -2345.5234 
5.953383e+2, 1.8489268e+2, -1140393.4, -1283526.6, -4134.0156, 0.0013159242, 0.002793086, -1140274.0, -12222.292 
5.9533685e+2, 1.9487923e+2, -1043486.44, -1186160.8, -4136.1104, -0.0025940486, -0.0008552012, -1043366.6, -13182.991 
5.953355e+2, 2.0486514e+2, -955568.6, -1106890.5, -3986.0745, -0.0022168802, -0.0014711893, -955463.75, -23142.191 
5.9533423e+2, 2.1485049e+2, -859000.0, -1009686.8, -4008.5464, 0.0026698394, -0.0009528751, -858893.44, -24428.072 
5.953329e+2, 2.2483516e+2, -771055.1, -930756.44, -3623.212, 0.0028084551, 0.0007711401, -770972.94, -34357.47 
5.9533167e+2, 2.348192e+2, -673572.4, -832987.4, -3442.5, -0.002089468, 0.0014536377, -673498.1, -34726.242 
5.9533036e+2, 2.4480258e+2, -585738.6, -754063.4, -3321.8215, -0.0024804943, 0.00093146745, -585673.1, -44738.45 
5.953292e+2, 2.5478533e+2, -489717.9, -656841.06, -3440.9734, 0.001982308, -0.0028944279, -489647.1, -46543.29 
5.9532815e+2, 2.6476744e+2, -402129.2, -578578.4, -2589.7905, 0.00201235, -0.0022857026, -402091.2, -56812.08 
5.953271e+2, 2.7474892e+2, -304035.2, -480289.63, -2465.0806, -0.00280801, 0.0009294912, -304000.72, -56540.26 
5.953261e+2, 2.8472975e+2, -216156.48, -401807.44, -2140.992, -0.0022928084, 0.0019554594, -216131.8, -66483.26 
5.9532523e+2, 2.9470986e+2, -119688.02, -304245.9, -2065.9797, 0.0041211476, -0.0019722916, -119664.9, -67821.69 
5.953244e+2, 3.0469272e+2, -33684.586, -177424.67, -1087.7291, 0.0022669665, -0.0016187278, -33676.355, -33676.355 
5.953236e+2, 3.1467828e+2, -33485.668, -177036.75, -1141.2483, -0.008917993, 0.0014815461, -33476.598, -33476.598 
5.9532315e+2, 3.2466856e+2, 29996.973, -40078.355, -958.59863, 0.0045091463, -0.0014222239, 30010.084, 30010.084 
6.0536176e+2, 3.5019433e+1, -2519802.3, -2599234.0, 628.98303, -0.0000634792, -0.0026974552, -2519797.3, 77012.375 
6.053611e+2, 4.5015335e+1, -2433651.3, -2519134.8, -907.75415, 0.000047264988, 0.003228112, -2433641.8, 65208.02 
6.053602e+2, 5.501061e+1, -2335208.8, -2421229.0, -917.74817, 0.000008314658, -0.0014799752, -2335199.0, 65697.01 
6.053594e+2, 6.50053e+1, -2246461.8, -2341177.8, -1448.3477, -0.00023546009, -0.002014433, -2246439.8, 56508.355 
6.053584e+2, 7.499943e+1, -2150272.0, -2244254.0, -1548.05, -0.00053972733, -0.00024160498, -2150246.5, 54759.25 
6.0535735e+2, 8.499289e+1, -2062857.8, -2165571.3, -2373.2314, -0.00018602695, 0.0012898062, -2062802.9, 44266.746 
6.053562e+2, 9.498572e+1, -1966123.8, -2068336.0, -2479.318, 0.00077141065, 0.0005889585, -1966063.6, 43076.395 
6.05355e+2, 1.04977906e+2, -1878156.8, -1988917.9, -2964.4128, 0.00070950727, 0.00007943954, -1878077.5, 33139.023 
6.053538e+2, 1.1496948e+2, -1781434.1, -1891674.3, -3055.8787, -0.00037320625, -0.0021612423, -1781349.5, 31949.592 
6.053524e+2, 1.24960445e+2, -1693735.5, -1812598.1, -3537.6274, -0.00041150287, -0.00082030275, -1693630.4, 21757.346 
6.053511e+2, 1.349508e+2, -1597202.4, -1715428.0, -3510.2432, 0.0005809906, 0.0022043646, -1597098.3, 20383.879 
6.0534966e+2, 1.4494051e+2, -1509425.5, -1636381.8, -3710.203, 0.0005249545, 0.002502888, -1509317.3, 10265.854 
6.053483e+2, 1.5492955e+2, -1412556.6, -1539019.0, -3799.9575, -0.00059357233, -0.002088468, -1412442.6, 9247.906 
6.053468e+2, 1.6491799e+2, -1324764.3, -1459883.5, -3962.4873, -0.00037103897, -0.0019280728, -1324648.1, -844.38245 
6.0534537e+2, 1.7490584e+2, -1228330.6, -1362699.9, -3830.8035, 0.0012354992, 0.0010128075, -1228221.5, -2298.7007 
6.0534394e+2, 1.8489306e+2, -1140493.0, -1283585.5, -3727.0105, 0.000907391, 0.0021561382, -1140396.0, -12347.756 
6.0534245e+2, 1.9487959e+2, -1043542.1, -1186188.5, -3739.1636, -0.0014443849, -0.0005146248, -1043444.2, -13264.166 
6.05341e+2, 2.0486553e+2, -955581.44, -1106949.9, -3680.3994, -0.0012109984, -0.00088872423, -955492.0, -23174.064 
6.053396e+2, 2.1485083e+2, -858894.4, -1009684.4, -3714.6138, 0.0017442601, -0.0008927916, -858802.94, -24341.07 
6.053383e+2, 2.2483553e+2, -771178.0, -930464.4, -3345.4185, 0.0016141927, 0.00047614274, -771107.75, -34495.86 
6.0533684e+2, 2.3481959e+2, -674942.5, -833288.56, -3264.8733, -0.0017913276, 0.0009896337, -674875.2, -36107.266 
6.053356e+2, 2.44803e+2, -587185.06, -754964.94, -3113.941, -0.0017439475, 0.0007439474, -587127.25, -46196.637 
6.053343e+2, 2.5478572e+2, -489192.78, -656791.44, -3146.9097, 0.0020268003, -0.0023223858, -489133.72, -46033.79 
6.053331e+2, 2.6476783e+2, -401292.5, -577786.25, -2292.225, 0.0019664303, -0.0018277769, -401262.72, -55987.523 
6.0533196e+2, 2.7474937e+2, -305490.94, -480596.6, -2129.6174, -0.0022879366, 0.00032139072, -305465.03, -58008.754 
6.0533094e+2, 2.847302e+2, -218331.48, -402860.66, -1783.4219, -0.002265992, 0.0012523112, -218314.25, -68670.05 
6.0532993e+2, 2.9471034e+2, -120345.73, -304597.8, -1859.2021, 0.002484862, -0.0016929359, -120326.97, -68488.18 
6.053291e+2, 3.046932e+2, -33791.438, -176755.25, -572.72375, 0.001711918, -0.0014617688, -33789.14, -33789.14 
6.053283e+2, 3.1467885e+2, -35032.008, -177017.47, -3.9580133, -0.0053029642, 0.00027758788, -35032.008, -35032.008 
6.0532755e+2, 3.246691e+2, 29415.08, -41270.51, -1010.76044, 0.0028887833, -0.001937495, 29429.531, 29429.531 
6.153687e+2, 3.5020143e+1, -2521159.0, -2601897.3, -1604.2842, -0.004060169, 0.0013218112, -2521127.0, 75675.59 
6.153678e+2, 4.501584e+1, -2433503.0, -2519085.3, -734.5053, 0.0063926456, -0.0044236076, -2433496.8, 65348.11 
6.15367e+2, 5.50112e+1, -2335171.8, -2421228.0, -754.2554, -0.0005890371, -0.00009134751, -2335165.3, 65725.055 
6.153661e+2, 6.5005904e+1, -2246661.3, -2341561.8, -1867.3419, -0.0026582521, 0.0017995278, -2246624.5, 56317.598 
6.15365e+2, 7.4999964e+1, -2150456.5, -2244629.3, -1966.8713, 0.0002964841, -0.0006156172, -2150415.3, 54585.047 
6.153639e+2, 8.4993386e+1, -2063045.4, -2165983.8, -2659.1252, 0.0011894433, -0.0009809139, -2062976.6, 44088.164 
6.1536264e+2, 9.498618e+1, -1966311.6, -2068746.3, -2757.079, -0.000020603216, -0.0012790499, -1966237.5, 42897.895 
6.153614e+2, 1.0497836e+2, -1878328.0, -1989276.3, -3252.0576, -0.0004130884, -0.00005282601, -1878232.8, 32979.33 
6.1536e+2, 1.1496994e+2, -1781621.4, -1892038.3, -3339.1714, 0.000017677563, 0.00079207827, -1781520.4, 31774.174 
6.1535865e+2, 1.24960884e+2, -1693688.4, -1812506.8, -3878.5452, 0.0001767356, 0.0005027207, -1693561.9, 21821.482 
6.1535716e+2, 1.349512e+2, -1597136.4, -1715329.5, -3856.267, 0.000041951072, -0.0029154539, -1597010.8, 20467.598 
6.1535573e+2, 1.449409e+2, -1509594.6, -1636739.3, -3974.5332, 0.00024695141, -0.0015243309, -1509470.6, 10108.658 
6.153542e+2, 1.5493e+2, -1412749.8, -1539393.5, -4054.1143, 0.0007924865, 0.00272394, -1412620.1, 9065.987 
6.153527e+2, 1.6491844e+2, -1324551.9, -1459395.0, -4334.4966, 0.0000933279, 0.0033199093, -1324412.6, -613.3625 
6.153511e+2, 1.7490625e+2, -1228086.4, -1362195.8, -4216.223, -0.0018764982, -0.001996611, -1227954.0, -2035.2892 
6.1534953e+2, 1.8489346e+2, -1140517.4, -1283628.9, -3985.4805, -0.00085749535, -0.002372815, -1140406.5, -12362.352 
6.153481e+2, 1.9488005e+2, -1043587.0, -1186263.5, -3993.2725, 0.0032792105, 0.0004510706, -1043475.3, -13299.859 
6.1534655e+2, 2.0486599e+2, -955670.75, -1107109.4, -4004.2148, 0.0026980052, 0.0017674556, -955565.0, -23251.693 
6.1534494e+2, 2.1485128e+2, -858973.75, -1009849.3, -4033.8208, -0.0028453579, -0.0005473643, -858866.0, -24408.482 
6.153435e+2, 2.2483595e+2, -771062.56, -930178.9, -3796.0217, -0.0033292093, -0.0011282213, -770972.06, -34364.406 
6.15342e+2, 2.3482004e+2, -674802.6, -832975.2, -3725.772, 0.0015740647, -0.0021775456, -674714.9, -35951.24 
6.153407e+2, 2.4480346e+2, -587257.8, -755095.06, -3139.0166, 0.002561772, -0.0006890919, -587199.1, -46273.016 
6.1533934e+2, 2.5478622e+2, -489344.38, -656957.3, -3150.0515, -0.00066888996, 0.00151894, -489285.2, -46190.145 
6.153381e+2, 2.6476833e+2, -401093.84, -577280.56, -2880.1157, -0.0012935081, 0.0015230494, -401046.78, -55776.54 
6.1533684e+2, 2.7474985e+2, -305223.94, -480028.1, -2740.5154, 0.0009173963, -0.003116722, -305180.97, -57729.434 
6.153357e+2, 2.8473067e+2, -218475.84, -403113.03, -1857.6263, 0.0008326762, -0.0022785994, -218457.16, -68817.83 
6.1533463e+2, 2.9471087e+2, -120560.2, -304897.1, -1907.2178, -0.0018015504, 0.0021162804, -120540.47, -68707.016 
6.1533374e+2, 3.046938e+2, -32891.684, -174747.28, -891.83856, -0.0015512728, 0.0015882261, -32886.074, -32886.074 
6.1533296e+2, 3.1467947e+2, -34098.094, -174948.5, -357.49503, 0.0019053137, -0.0065675383, -34097.188, -34097.188 
6.1533195e+2, 3.2466984e+2, 27975.127, -44214.133, -1516.1178, 0.0003271042, 0.0014378262, 28006.953, 28006.953 
6.2537575e+2, 3.5020858e+1, -2522082.3, -2602682.8, -1585.2568, -0.00016651931, 0.0005390107, -2522051.0, 74744.62 
6.253747e+2, 4.5016548e+1, -2429322.5, -2517500.3, -251.35393, 0.00088827533, -0.0023661652, -2429322.0, 69515.97 
6.2537384e+2, 5.501185e+1, -2333799.5, -2421029.3, -564.6576, -0.00024475338, -0.0000030876188, -2333795.8, 67088.11 
6.253729e+2, 6.5006506e+1, -2246394.5, -2341743.0, -1955.7151, -0.00044912696, 0.0012215957, -2246354.3, 56581.883 
6.253717e+2, 7.500054e+1, -2149804.8, -2244626.5, -2077.4868, 0.00036649848, -0.0005814537, -2149759.3, 55235.336 
6.2537044e+2, 8.499395e+1, -2062011.0, -2165495.5, -2615.442, 0.0004524845, -0.00076134223, -2061944.9, 45114.38 
6.2536913e+2, 9.498675e+1, -1965269.9, -2068260.9, -2539.5244, -0.00023249244, -0.0012943797, -1965207.4, 43922.574 
6.2536776e+2, 1.0497892e+2, -1877595.8, -1989037.1, -2984.5134, -0.0002856211, 0.000036279624, -1877515.9, 33690.76 
6.2536633e+2, 1.1497049e+2, -1781372.6, -1892034.8, -2982.4368, 0.00029739348, 0.0013396124, -1781292.4, 31996.877 
6.2536484e+2, 1.2496142e+2, -1693504.5, -1812613.6, -3486.9087, 0.00031921294, 0.0010530797, -1693402.5, 21975.568 
6.253633e+2, 1.3495171e+2, -1596528.5, -1715220.4, -3633.1365, -0.00024018726, -0.0028486587, -1596417.4, 21055.842 
6.253617e+2, 1.449414e+2, -1508911.3, -1636275.3, -3796.8357, -0.000036869475, -0.001784192, -1508798.1, 10776.135 
6.2536013e+2, 1.5493052e+2, -1412792.5, -1539268.1, -3632.4358, 0.000937573, 0.0023252163, -1412688.3, 8992.79 
6.253585e+2, 1.6491896e+2, -1324841.5, -1459722.9, -3884.8655, 0.00042551832, 0.0030579558, -1324729.8, -935.4982 
6.253568e+2, 1.7490676e+2, -1227719.9, -1362205.5, -4121.6587, -0.0016104901, -0.0018491229, -1227593.6, -1679.8629 
6.2535524e+2, 1.8489395e+2, -1140020.1, -1283283.9, -4104.3936, -0.0009264984, -0.0022631562, -1139902.6, -11863.448 
6.2535363e+2, 1.9488056e+2, -1043903.4, -1186300.5, -4028.6963, 0.0025968412, 0.000060197013, -1043789.5, -13618.942 
6.2535197e+2, 2.048665e+2, -956331.75, -1107292.8, -3874.8665, 0.0022083067, 0.001462828, -956232.4, -23924.104 
6.2535036e+2, 2.1485181e+2, -859545.5, -1009980.7, -3765.8489, -0.0022988587, -0.00014660369, -859451.3, -24998.988 
6.2534875e+2, 2.2483647e+2, -771394.3, -930554.8, -3618.4094, -0.002552942, -0.0007317973, -771312.1, -34709.637 
6.2534726e+2, 2.3482053e+2, -674354.94, -832977.6, -3813.154, 0.0017226613, -0.0025294756, -674263.3, -35504.61 
6.2534577e+2, 2.4480397e+2, -586977.7, -754456.25, -3144.9675, 0.002227382, -0.0011116705, -586918.7, -45997.56 
6.2534434e+2, 2.547868e+2, -491036.6, -657295.8, -2801.991, -0.0013324723, 0.0017634667, -490989.38, -47899.84 
6.2534297e+2, 2.6476893e+2, -403205.9, -578272.56, -2504.084, -0.0016217121, 0.0018409423, -403170.1, -57905.598 
6.2534165e+2, 2.7475044e+2, -305270.5, -480061.13, -2659.414, 0.0016549018, -0.0033684538, -305230.06, -57784.156 
6.2534046e+2, 2.8473127e+2, -217998.7, -402521.88, -1746.3196, 0.0014543417, -0.002322304, -217982.17, -68348.625 
6.2533927e+2, 2.9471153e+2, -121760.164, -305103.56, -1447.4431, -0.0026010578, 0.003156064, -121748.734, -69921.484 
6.253383e+2, 3.0469444e+2, -35028.656, -175380.66, -661.37036, -0.0018459045, 0.0018733619, -35025.54, -35025.54 
6.253375e+2, 3.1468016e+2, -36378.105, -175639.92, -898.5667, 0.004286197, -0.00912923, -36372.305, -36372.305 
6.253364e+2, 3.2467058e+2, 28285.549, -43435.816, -1021.11224, -0.0015128092, 0.003801266, 28300.084, 28300.084 
6.3538283e+2, 3.5021582e+1, -2521378.3, -2601257.5, -336.76636, 0.010465818, -0.0043912823, -2521376.8, 75411.71 
6.353816e+2, 4.5017433e+1, -2429873.3, -2518681.0, -861.78296, -0.014887247, 0.008072596, -2429864.8, 68964.47 
6.3538074e+2, 5.501254e+1, -2334397.3, -2422223.5, -1152.3154, 0.0008837439, -0.0010418207, -2334382.3, 66494.914 
6.353796e+2, 6.500711e+1, -2246644.3, -2342215.0, -2258.656, 0.0057281735, -0.0031551968, -2246590.8, 56339.54 
6.3537836e+2, 7.500116e+1, -2150024.0, -2245077.0, -2368.748, -0.00024368204, -0.00019942348, -2149965.0, 55023.61 
6.35377e+2, 8.4994584e+1, -2061850.8, -2165199.0, -2877.7383, -0.002137265, 0.0016107053, -2061770.8, 45282.414 
6.353757e+2, 9.4987386e+1, -1965139.8, -2067979.6, -2813.2234, 0.00002938356, 0.00029734275, -1965062.8, 44060.82 
6.353742e+2, 1.0497956e+2, -1877615.5, -1989037.1, -3407.2742, 0.0009027389, 0.00031985893, -1877511.4, 33688.926 
6.3537264e+2, 1.14971116e+2, -1781358.0, -1892023.8, -3405.42, 0.00046076442, -0.0002003494, -1781253.4, 32029.75 
6.35371e+2, 1.2496204e+2, -1693767.1, -1813190.0, -3720.1807, 0.00005318397, 0.0009358417, -1693651.4, 21720.73 
6.353694e+2, 1.3495234e+2, -1596825.8, -1715817.9, -3856.1455, -0.00031665308, 0.0017252768, -1596700.9, 20766.31 
6.3536775e+2, 1.4494202e+2, -1508636.0, -1635658.3, -4245.9604, -0.00033900753, 0.0012315405, -1508494.3, 11074.035 
6.35366e+2, 1.549311e+2, -1412471.0, -1538640.0, -4097.3726, -0.000023125458, -0.0025984768, -1412338.0, 9337.306 
6.353643e+2, 1.6491953e+2, -1325277.8, -1460637.1, -4102.5513, 0.0006143401, -0.001989851, -1325153.5, -1364.8988 
6.353626e+2, 1.7490733e+2, -1228194.5, -1363163.4, -4318.819, 0.0015787372, 0.0010477979, -1228056.5, -2148.3745 
6.353609e+2, 1.8489453e+2, -1139937.5, -1283022.6, -4548.11, 0.0004559542, 0.0018906514, -1139793.1, -11759.397 
6.353591e+2, 1.9488108e+2, -1043773.0, -1186018.9, -4481.503, -0.0028141018, -0.0015099109, -1043631.94, -13466.603 
6.3535744e+2, 2.0486705e+2, -956129.5, -1106866.6, -4170.126, -0.0021334998, -0.0014180265, -956014.25, -23711.332 
6.353558e+2, 2.1485242e+2, -859359.75, -1009563.9, -4064.4646, 0.0027064448, 0.00030119988, -859249.8, -24803.473 
6.353541e+2, 2.248371e+2, -771804.5, -931306.25, -3860.0996, 0.0031869186, 0.0014124649, -771711.1, -35114.66 
6.3535243e+2, 2.348211e+2, -674795.75, -833747.3, -4033.764, -0.00096074265, -0.00042989067, -674693.44, -35940.184 
6.353508e+2, 2.4480452e+2, -586415.75, -753229.8, -3664.1147, -0.0021745276, -0.00065315666, -586335.3, -45419.7 
6.3534933e+2, 2.547874e+2, -490435.88, -655997.5, -3348.9268, -0.00024009869, -0.0011394673, -490368.2, -47284.72 
6.3534784e+2, 2.6476955e+2, -403478.16, -578844.75, -2582.2585, 0.0005879413, -0.00049284386, -403440.13, -58182.03 
6.353465e+2, 2.7475107e+2, -305626.56, -480690.4, -2709.0876, 0.00020692425, -0.0008341573, -305584.66, -58145.15 
6.353452e+2, 2.8473192e+2, -217574.56, -401486.28, -2231.0186, -0.0001178352, 0.0006832471, -217547.5, -67920.53 
6.353439e+2, 2.9471222e+2, -121279.836, -303994.9, -1957.683, -0.0003764556, 0.0017602142, -121258.86, -69438.56 
6.3534284e+2, 3.0469516e+2, -35460.906, -176266.98, -1037.1414, 0.0004241258, -0.00026696478, -35453.27, -35453.27 
6.353418e+2, 3.146808e+2, -36833.688, -176594.61, -1254.5205, 0.002385664, -0.007915999, -36822.43, -36822.43 
6.3534087e+2, 3.2467136e+2, 30109.092, -39424.344, -148.50343, -0.0027762852, 0.0052694925, 30109.41, 30109.41 
6.453898e+2, 3.5022318e+1, -2519992.0, -2600612.8, 912.1979, 0.008590556, -0.0046976027, -2519981.8, 76799.62 
6.453887e+2, 4.5018187e+1, -2428356.3, -2517932.3, -1886.4396, -0.012463557, 0.009764153, -2428316.8, 70505.195 
6.4538765e+2, 5.501328e+1, -2333930.3, -2422008.5, -1652.6338, 0.0008807133, -0.0010601655, -2333899.3, 66970.66 
6.453864e+2, 6.500784e+1, -2246224.3, -2341918.3, -1827.006, 0.0049623745, -0.003682127, -2246189.3, 56733.797 
6.453851e+2, 7.5001913e+1, -2148801.3, -2244397.8, -1672.9535, -0.00015555504, -0.000030679505, -2148772.0, 56209.418 
6.4538366e+2, 8.499533e+1, -2060877.0, -2164984.3, -2396.6648, -0.0017764979, 0.002021884, -2060821.9, 46223.938 
6.453822e+2, 9.498811e+1, -1964970.6, -2068167.5, -2630.7966, 0.00008331106, 0.00049825903, -1964903.6, 44212.98 
6.453806e+2, 1.0498026e+2, -1877320.4, -1988945.9, -3305.6394, 0.0008015202, 0.00013371544, -1877222.6, 33970.84 
6.4537895e+2, 1.1497181e+2, -1780269.6, -1891550.9, -3338.7642, 0.00036627665, -0.0009559138, -1780169.5, 33106.8 
6.4537734e+2, 1.24962725e+2, -1692797.6, -1812740.3, -3619.6772, 0.00007563089, 0.00034525542, -1692688.5, 22676.82 
6.4537555e+2, 1.3495304e+2, -1596862.0, -1715872.1, -3517.224, -0.000074775286, 0.002064515, -1596758.1, 20702.252 
6.4537376e+2, 1.449427e+2, -1508809.4, -1635930.9, -3933.5798, -0.00018324915, 0.0017548027, -1508687.8, 10873.79 
6.4537203e+2, 1.5493175e+2, -1411709.9, -1538456.0, -4191.2813, -0.00025508882, -0.0026775452, -1411571.4, 10097.45 
6.453702e+2, 1.6492018e+2, -1324454.4, -1460154.8, -4222.601, 0.00034429805, -0.0022480763, -1324323.1, -540.90356 
6.453684e+2, 1.7490801e+2, -1228612.8, -1363255.3, -3954.696, 0.0016315936, 0.0010662993, -1228496.6, -2595.0554 
6.453665e+2, 1.848952e+2, -1140645.1, -1283420.1, -3978.652, 0.00066350575, 0.0021532492, -1140534.3, -12507.157 
6.453647e+2, 1.9488177e+2, -1043635.5, -1185988.9, -4079.0144, -0.0026434779, -0.0010425719, -1043518.7, -13359.8955 
6.4536285e+2, 2.0486772e+2, -955726.3, -1106639.5, -3968.42, -0.002083705, -0.0012645982, -955622.06, -23325.662 
6.4536107e+2, 2.1485308e+2, -859506.75, -1009584.6, -4031.2705, 0.0025542665, -0.0004004687, -859398.5, -24958.625 
6.453594e+2, 2.2483777e+2, -772322.6, -931298.3, -3602.8774, 0.0029189365, 0.0009661191, -772241.06, -35651.18 
6.453576e+2, 2.3482181e+2, -675746.9, -833976.3, -3266.1536, -0.0012612104, 0.00056815654, -675679.5, -36933.227 
6.453559e+2, 2.4480525e+2, -587377.06, -753730.3, -3033.8037, -0.0021821936, 0.00030346622, -587321.8, -46413.203 
6.453543e+2, 2.547881e+2, -490367.72, -656048.06, -3375.2256, 0.00040674614, -0.001818184, -490299.0, -47222.367 
6.453527e+2, 2.647703e+2, -403415.75, -578470.8, -2606.9583, 0.0010895157, -0.0012616194, -403376.94, -58125.754 
6.4535123e+2, 2.7475184e+2, -307116.66, -481061.25, -2266.051, -0.00031370533, 0.0000027212504, -307087.16, -59654.99 
6.4534986e+2, 2.8473273e+2, -219323.88, -402102.1, -1771.0443, -0.00064481713, 0.0012866793, -219306.72, -69687.3 
6.4534855e+2, 2.94713e+2, -121813.16, -304024.06, -1876.0426, 0.00021549186, 0.00008930068, -121793.84, -69981.086 
6.453473e+2, 3.0469596e+2, -35584.293, -176364.17, -1009.887, 0.00076826394, -0.00079251785, -35577.05, -35577.05 
6.4534616e+2, 3.1468165e+2, -37062.395, -176739.8, -830.1088, 0.0009579918, -0.0034484474, -37057.46, -37057.46 
6.453452e+2, 3.246722e+2, 27359.83, -39726.117, 173.25766, -0.0018632612, 0.002572384, 27360.277, 27360.277 
6.553967e+2, 3.5023075e+1, -2520492.0, -2601845.8, 2579.527, -0.004089103, -0.001037903, -2520410.3, 76363.77 
6.5539604e+2, 4.5018837e+1, -2428114.3, -2517091.8, -2705.7634, 0.0055627194, 0.003941944, -2428032.0, 70783.555 
6.553946e+2, 5.5014056e+1, -2333440.3, -2421041.3, -2477.143, -0.000137525, -0.00020212201, -2333370.3, 67492.02 
6.553931e+2, 6.50087e+1, -2245836.3, -2341258.0, -1907.602, -0.0018181184, -0.0008948305, -2245798.0, 57116.777 
6.553919e+2, 7.500278e+1, -2148512.3, -2243785.0, -1773.8921, 0.0005198661, -0.000052989606, -2148479.3, 56493.664 
6.553904e+2, 8.499617e+1, -2061356.5, -2165915.8, -2896.8875, 0.0011015278, 0.0007388157, -2061276.4, 45761.195 
6.553887e+2, 9.4988894e+1, -1965399.6, -2069065.0, -3113.2136, -0.00007186976, -0.00049676595, -1965306.3, 43802.637 
6.5538704e+2, 1.0498102e+2, -1877357.8, -1989074.5, -3501.0107, -0.00042977592, -0.0004546122, -1877248.1, 33937.945 
6.553854e+2, 1.1497255e+2, -1780363.3, -1891703.4, -3535.526, 0.0000285996, -0.001035047, -1780251.1, 33017.926 
6.553835e+2, 1.2496347e+2, -1692633.0, -1812368.1, -4114.777, 0.00032043672, -0.00064778497, -1692491.8, 22866.229 
6.5538174e+2, 1.3495378e+2, -1596645.5, -1715473.6, -4020.4568, 0.00041801058, -0.0012547312, -1596509.6, 20943.37 
6.5537983e+2, 1.4494345e+2, -1509281.5, -1636934.6, -4139.2847, 0.00035056766, 0.00012282906, -1509147.4, 10406.844 
6.55378e+2, 1.5493248e+2, -1412247.9, -1539498.4, -4377.145, 0.00011649628, 0.0014402956, -1412097.5, 9564.213 
6.55376e+2, 1.6492091e+2, -1324012.8, -1459163.0, -4733.751, -0.0003495538, 0.0016462182, -1323847.3, -72.09548 
6.553741e+2, 1.7490874e+2, -1228090.0, -1362238.3, -4486.674, -0.0010518212, -0.0014051284, -1227940.1, -2045.7294 
6.5537214e+2, 1.8489595e+2, -1140822.8, -1283780.5, -4220.511, -0.00017382571, -0.0009509985, -1140698.3, -12678.526 
6.5537024e+2, 1.9488254e+2, -1043861.3, -1186396.0, -4310.715, 0.0023489827, 0.0011910263, -1043731.06, -13579.918 
6.553683e+2, 2.0486848e+2, -955914.94, -1106901.8, -4396.956, 0.0017533095, 0.0015239267, -955787.0, -23498.092 
6.553664e+2, 2.1485378e+2, -859666.56, -1009826.75, -4457.0586, -0.0020958874, -0.0021032728, -859534.4, -25101.367 
6.553645e+2, 2.248385e+2, -771733.4, -930029.2, -3964.6785, -0.0025874055, -0.001727368, -771634.1, -35051.414 
6.553627e+2, 2.3482265e+2, -675182.8, -832674.3, -3645.802, 0.0004907655, 0.00060252706, -675098.44, -36360.465 
6.5536094e+2, 2.4480611e+2, -588036.44, -755034.9, -3326.0898, 0.0016138837, 0.0016866964, -587970.2, -47070.066 
6.5535927e+2, 2.5478888e+2, -491062.78, -657386.8, -3638.8184, 0.0006359847, -0.00057022664, -490983.22, -47914.066 
6.5535754e+2, 2.64771e+2, -402856.0, -577282.3, -3063.66, 0.000071288974, -0.00067326776, -402802.22, -57558.375 
6.55356e+2, 2.7475265e+2, -306528.94, -479807.94, -2744.0532, -0.000050237828, -0.00064396864, -306485.5, -59061.49 
6.553545e+2, 2.8473356e+2, -219541.98, -402474.0, -1967.1908, -0.00028654753, -0.00020755366, -219520.83, -69909.81 
6.5535307e+2, 2.947138e+2, -122086.07, -304446.47, -2053.4368, -0.00065927446, -0.0018204277, -122062.95, -70258.25 
6.553518e+2, 3.046968e+2, -35366.125, -175745.05, -1386.0837, -0.00061937736, 0.00009201209, -35352.438, -35352.438 
6.5535057e+2, 3.146826e+2, -36795.58, -176081.84, -1210.7618, -0.00010130991, 0.0038375831, -36785.055, -36785.055 
6.5534943e+2, 3.24673e+2, 26852.05, -40771.113, -704.4497, 0.0008940818, -0.0037808488, 26859.389, 26859.389 
6.6540384e+2, 3.5023987e+1, -2515638.5, -2599570.3, 1846.4073, -0.010645223, -0.00032033195, -2515597.8, 81167.21 
6.654031e+2, 4.5019725e+1, -2432587.3, -2518870.8, -1281.2228, 0.014931292, 0.0010714668, -2432568.3, 66238.58 
6.654016e+2, 5.5015016e+1, -2331932.0, -2419880.0, -1248.604, -0.0004541211, -0.000056669152, -2331914.3, 68938.67 
6.654e+2, 6.500966e+1, -2243051.3, -2340300.3, -1474.2416, -0.0051847547, 0.000095560004, -2243028.8, 59876.516 
6.653986e+2, 7.5003695e+1, -2148118.8, -2244000.8, -1864.0541, 0.0006697013, -0.0003859683, -2148082.5, 56881.316 
6.6539705e+2, 8.4997064e+1, -2061260.0, -2165886.3, -2910.7798, 0.0023756581, 0.000025570916, -2061179.1, 45849.67 
6.653953e+2, 9.498978e+1, -1963981.4, -2068404.4, -2722.2332, -0.000064980435, -0.0006440424, -1963910.5, 45189.676 
6.6539353e+2, 1.0498191e+2, -1876098.3, -1988698.3, -3045.9368, -0.0008471694, -0.00015950753, -1876016.0, 35161.42 
6.6539174e+2, 1.14973426e+2, -1780462.0, -1891986.5, -3158.5671, 0.00004146692, -0.0004316391, -1780372.6, 32887.87 
6.6538984e+2, 1.2496433e+2, -1692690.0, -1812453.3, -3803.4673, 0.00043618522, -0.00030863992, -1692569.4, 22780.271 
6.6538787e+2, 1.3495462e+2, -1595463.6, -1714950.9, -3925.362, 0.0003048211, -0.0017417944, -1595334.9, 22109.924 
6.653859e+2, 1.449443e+2, -1508265.3, -1636477.8, -4051.271, 0.00025364308, -0.00038355435, -1508137.4, 11408.639 
6.6538393e+2, 1.5493332e+2, -1412883.6, -1539828.4, -3845.9033, 0.00028540287, 0.0017312438, -1412767.3, 8886.284 
6.653819e+2, 1.6492175e+2, -1324716.0, -1459490.5, -4089.2397, -0.00023331097, 0.002110746, -1324592.0, -825.1556 
6.653798e+2, 1.7490958e+2, -1227321.6, -1361830.5, -4312.458, -0.0013148836, -0.0014164555, -1227183.5, -1297.3835 
6.653778e+2, 1.848968e+2, -1139948.4, -1283361.3, -4307.7627, -0.00040274192, -0.0012911735, -1139819.0, -11807.5625 
6.6537577e+2, 1.9488338e+2, -1044388.0, -1186644.0, -4212.581, 0.0025819067, 0.00069431827, -1044263.4, -14120.432 
6.653738e+2, 2.0486933e+2, -956794.9, -1107336.0, -4045.233, 0.001991187, 0.0013849251, -956686.25, -24405.586 
6.653717e+2, 2.1485463e+2, -859764.5, -1009894.7, -3993.01, -0.0023431024, -0.0013456972, -859658.4, -25233.717 
6.6536975e+2, 2.2483934e+2, -771645.2, -929897.06, -3816.4487, -0.002814298, -0.0012681229, -771553.2, -34978.785 
6.6536784e+2, 2.3482348e+2, -675590.44, -832807.56, -4050.4954, 0.0008262675, -0.00049540703, -675486.1, -36756.406 
6.65366e+2, 2.4480696e+2, -588725.44, -755264.7, -3532.3306, 0.001881544, 0.0006405627, -588650.56, -47758.75 
6.6536415e+2, 2.5478974e+2, -491786.1, -657646.44, -3162.0068, 0.00016198936, 0.00017370784, -491725.84, -48665.26 
6.6536236e+2, 2.6477194e+2, -403496.2, -577361.5, -2622.8374, -0.00035605818, 0.0003422289, -403456.63, -58221.535 
6.653607e+2, 2.7475354e+2, -307006.56, -479822.8, -2777.5156, 0.00043341125, -0.0010152754, -306961.94, -59546.723 
6.653591e+2, 2.8473446e+2, -220357.19, -402684.34, -1959.5281, 0.00009841706, -0.0006245023, -220336.14, -70734.07 
6.653576e+2, 2.9471475e+2, -123729.01, -305064.94, -1753.3784, -0.0014913109, -0.0007885259, -123712.055, -71916.586 
6.653562e+2, 3.0469778e+2, -36878.117, -175916.19, -908.7802, -0.0010850666, 0.0008569651, -36872.176, -36872.176 
6.653549e+2, 3.1468362e+2, -37611.777, -175892.7, -703.583, 0.0015957068, 0.0023989603, -37608.2, -37608.2 
6.6535366e+2, 3.24674e+2, 26741.463, -41911.336, -458.5464, 0.00041857138, -0.0026783135, 26744.525, 26744.525 
6.754113e+2, 3.5025033e+1, -2515342.8, -2598768.8, -3173.6306, -0.01201456, -0.0021128443, -2515222.0, 81532.53 
6.7541e+2, 4.5020825e+1, -2432228.5, -2518573.0, -519.70984, 0.016823402, 0.0007251632, -2432225.5, 66570.445 
6.754085e+2, 5.5016124e+1, -2331814.8, -2419690.5, -514.0826, -0.00020434556, -0.0005268334, -2331811.8, 69030.13 
6.7540705e+2, 6.5010726e+1, -2243838.8, -2341832.8, -2204.1978, -0.005656011, -0.00045250924, -2243789.3, 59105.703 
6.754054e+2, 7.5004655e+1, -2148831.8, -2245494.5, -2568.8855, 0.00034848563, -0.0009887845, -2148763.5, 56190.96 
6.754038e+2, 8.4998e+1, -2060862.0, -2165136.5, -3027.6821, 0.0022465754, -0.0002016184, -2060774.3, 46245.402 
6.754019e+2, 9.4990784e+1, -1963642.1, -2067676.4, -2859.603, 0.000055002693, -0.00006047986, -1963563.6, 45526.773 
6.754001e+2, 1.0498291e+2, -1876336.0, -1989157.8, -3618.3123, -0.000582308, 0.00089797843, -1876220.1, 34947.36 
6.753981e+2, 1.149744e+2, -1780657.6, -1892416.5, -3722.6206, 0.0003315443, 0.0007551702, -1780533.9, 32717.076 
6.7539614e+2, 1.2496528e+2, -1692906.9, -1812933.9, -3965.2102, 0.00041434405, 0.0011744306, -1692776.0, 22564.309 
6.753941e+2, 1.3495554e+2, -1595752.3, -1715470.1, -4078.939, -0.00034902795, 0.00021202069, -1595613.4, 21822.342 
6.7539203e+2, 1.449452e+2, -1507939.6, -1635720.9, -4679.818, -0.00040405637, 0.000086182954, -1507768.5, 11768.537 
6.753899e+2, 1.5493427e+2, -1412467.4, -1539031.4, -4490.6084, 0.00025147723, -0.0012725919, -1412308.3, 9336.023 
6.7538774e+2, 1.649227e+2, -1325112.8, -1460330.6, -4232.788, 0.0005527074, -0.0003763485, -1324980.4, -1222.8406 
6.753856e+2, 1.749105e+2, -1227806.8, -1362737.0, -4439.6445, 0.00048824106, 0.00069852016, -1227660.9, -1783.7947 
6.753835e+2, 1.8489769e+2, -1139860.1, -1283029.8, -4895.248, -0.00013305296, 0.0007622277, -1139693.0, -11690.334 
6.753813e+2, 1.9488426e+2, -1044212.25, -1186270.6, -4809.7256, -0.0013195124, -0.0021611652, -1044049.6, -13915.34 
6.7537916e+2, 2.0487022e+2, -956696.4, -1107118.4, -4278.4365, -0.00090518064, -0.0012797822, -956574.75, -24302.996 
6.753771e+2, 2.148556e+2, -859734.94, -1009700.9, -4221.5215, 0.0011998666, 0.0015364145, -859616.2, -25201.068 
6.75375e+2, 2.248403e+2, -772147.0, -930826.6, -4305.16, 0.0015070416, 0.0019190789, -772030.25, -35465.2 
6.753729e+2, 2.3482433e+2, -676071.0, -833712.4, -4526.2285, -0.00008935039, -0.0025791936, -675941.1, -37219.61 
6.7537093e+2, 2.448078e+2, -588085.5, -753894.7, -3798.9426, -0.0009265333, -0.002509655, -587998.5, -47114.96 
6.75369e+2, 2.5479072e+2, -491183.25, -656247.2, -3441.7637, -0.0009476536, 0.00047675255, -491111.53, -48060.49 
6.753672e+2, 2.6477295e+2, -403824.94, -577971.6, -3055.206, -0.00029925889, 0.0017242882, -403771.34, -58546.164 
6.753653e+2, 2.7475452e+2, -307344.78, -480445.78, -3201.9875, 0.0010733053, -0.0011584023, -307285.56, -59879.695 
6.7536366e+2, 2.8473544e+2, -220036.94, -401964.8, -2353.7024, 0.00047185313, -0.00011574081, -220006.48, -70413.85 
6.7536205e+2, 2.947158e+2, -123404.23, -304294.53, -2154.685, -0.0023208666, 0.0028028106, -123378.57, -71593.36 
6.753606e+2, 3.0469885e+2, -36536.69, -175139.47, -1126.6704, -0.00078531663, 0.0015035769, -36527.535, -36527.535 
6.7535925e+2, 3.1468466e+2, -37328.84, -175137.34, -923.08734, 0.005640784, -0.006673717, -37322.656, -37322.656 
6.753579e+2, 3.2467517e+2, 25801.523, -43699.023, -579.3058, -0.0029494877, 0.0049307137, 25806.352, 25806.352 
6.854187e+2, 3.5026398e+1, -2517445.0, -2600728.8, -2956.6667, -0.004394412, -0.0027003344, -2517340.0, 79401.17 
6.8541694e+2, 4.5022097e+1, -2425693.8, -2516302.0, 647.7211, 0.006464833, -0.00029615662, -2425689.3, 73094.19 
6.8541557e+2, 5.5017316e+1, -2330702.8, -2420107.5, -4.6385326, 0.000025059959, -0.0010542141, -2330702.8, 70127.55 
6.854141e+2, 6.501187e+1, -2244121.0, -2342165.8, -2179.0046, -0.002067633, -0.0005499698, -2244072.8, 58811.04 
6.854123e+2, 7.500578e+1, -2147426.8, -2245009.8, -1986.3257, 0.00006694944, -0.00071448914, -2147386.3, 57557.13 
6.8541044e+2, 8.499911e+1, -2059281.3, -2164647.5, -2251.218, 0.00081325346, 0.0001285754, -2059233.1, 47775.613 
6.854086e+2, 9.499187e+1, -1963294.1, -2067800.4, -2590.1372, 0.00018257735, 0.0000090969825, -1963230.0, 45849.758 
6.854066e+2, 1.0498398e+2, -1875944.4, -1989022.6, -3615.0632, -0.00003188492, 0.00073541753, -1875828.9, 35328.2 
6.8540454e+2, 1.1497546e+2, -1779210.4, -1891774.0, -3550.1184, 0.00016596951, 0.00040396216, -1779098.5, 34142.05 
6.8540245e+2, 1.2496632e+2, -1691860.6, -1812572.1, -3645.9001, 0.00014018932, 0.001038842, -1691750.6, 23579.379 
6.854003e+2, 1.3495658e+2, -1596448.4, -1715963.0, -3631.8516, -0.00011294095, 0.00068220834, -1596338.1, 21087.377 
6.8539816e+2, 1.4494623e+2, -1508399.5, -1635961.0, -4277.452, -0.00017374508, 0.00044507402, -1508256.3, 11270.722 
6.853959e+2, 1.5493529e+2, -1410918.1, -1538277.8, -4444.5596, -0.000053161493, -0.0017395644, -1410763.3, 10870.951 
6.8539363e+2, 1.6492371e+2, -1323788.3, -1459829.5, -4330.228, 0.0003242617, -0.0009895118, -1323650.5, 97.10414 
6.853914e+2, 1.7491151e+2, -1228836.1, -1363377.6, -4220.026, 0.00096457126, 0.0006400855, -1228703.9, -2836.7124 
6.853891e+2, 1.848987e+2, -1141043.8, -1283565.1, -4442.25, 0.000262114, 0.0009758318, -1140905.4, -12912.669 
6.8538684e+2, 1.9488527e+2, -1043521.6, -1185878.8, -4495.3027, -0.0018226155, -0.0019761247, -1043379.8, -13255.466 
6.853846e+2, 2.0487125e+2, -955797.3, -1106586.8, -4181.121, -0.0014300088, -0.0013085401, -955681.44, -23419.652 
6.8538237e+2, 2.1485661e+2, -860463.94, -1009971.2, -4156.969, 0.0015730046, 0.001120372, -860348.44, -25943.3 
6.8538016e+2, 2.2484133e+2, -773268.7, -931420.06, -3934.2615, 0.001978495, 0.0017557801, -773170.9, -36615.863 
6.85378e+2, 2.3482536e+2, -676016.3, -833759.9, -3762.503, -0.00037396047, -0.0018173525, -675926.6, -37215.207 
6.853759e+2, 2.4480884e+2, -587827.5, -753461.75, -3186.3206, -0.0013632779, -0.0017589697, -587766.25, -46892.88 
6.853739e+2, 2.5479177e+2, -492153.53, -656427.5, -3303.2322, -0.000884991, 0.00021881293, -492087.13, -49046.47 
6.8537194e+2, 2.6477402e+2, -405334.0, -578719.56, -2907.566, -0.000106725754, 0.0012103401, -405285.28, -60070.58 
6.8536997e+2, 2.747556e+2, -308177.75, -480896.2, -2783.4531, 0.0009994861, -0.0011045279, -308132.9, -60737.527 
6.8536824e+2, 2.8473654e+2, -220353.4, -401920.22, -1954.6843, 0.00031533238, 0.00028109842, -220332.36, -70750.36 
6.8536645e+2, 2.9471692e+2, -123706.16, -304233.47, -1970.9276, -0.002359303, 0.0033035784, -123684.64, -71910.29 
6.8536484e+2, 3.047e+2, -37575.21, -175472.13, -1194.7682, -0.0006992801, 0.001333213, -37564.86, -37564.86 
6.853635e+2, 3.146858e+2, -39785.133, -176156.64, -1272.8898, 0.005891064, -0.008393279, -39773.254, -39773.254 
6.85362e+2, 3.246764e+2, 24777.434, -43116.477, 382.21384, -0.0034284436, 0.0067184656, 24779.586, 24779.586 
6.954261e+2, 3.5028026e+1, -2518967.3, -2603744.0, -2029.2505, 0.0107666915, -0.0022825073, -2518918.8, 77806.62 
6.954241e+2, 4.5023522e+1, -2426818.3, -2518752.8, -90.58658, -0.014349324, -0.0018712536, -2426818.3, 71951.31 
6.954227e+2, 5.501858e+1, -2331896.5, -2422579.5, -708.286, 0.0002002693, -0.0016290148, -2331891.0, 68926.94 
6.954211e+2, 6.501309e+1, -2243735.5, -2341401.3, -2447.6558, 0.0049293647, -0.00026348606, -2243674.3, 59197.605 
6.954192e+2, 7.5007063e+1, -2147024.5, -2244232.5, -2274.63, -0.0002006892, 0.00030525023, -2146971.3, 57959.543 
6.954172e+2, 8.5000366e+1, -2059895.3, -2165972.8, -2730.8853, -0.0017553396, 0.0009320447, -2059825.0, 47171.46 
6.9541526e+2, 9.499302e+1, -1963931.6, -2069127.9, -3047.4856, 0.00028748316, -0.0003620999, -1963843.4, 45225.066 
6.9541323e+2, 1.0498509e+2, -1875836.3, -1988791.8, -3885.094, 0.00073944597, -0.0004709258, -1875702.9, 35443.375 
6.95411e+2, 1.1497658e+2, -1779126.5, -1891548.0, -3827.2234, -0.0004133893, -0.0012599243, -1778996.4, 34233.164 
6.954088e+2, 1.2496746e+2, -1691843.9, -1812558.0, -4274.528, -0.000376286, -0.0004735821, -1691692.6, 23626.236 
6.954065e+2, 1.3495772e+2, -1596385.8, -1715920.0, -4262.138, 0.0008601075, -0.000118160555, -1596234.0, 21180.338 
6.9540423e+2, 1.4494735e+2, -1508697.9, -1636619.1, -4377.8823, 0.0007955986, 0.000707099, -1508548.3, 10967.661 
6.954019e+2, 1.5493639e+2, -1411313.0, -1538981.9, -4530.889, -0.00061849924, -0.000030204526, -1411152.5, 10470.989 
6.953995e+2, 1.6492479e+2, -1323659.4, -1459456.9, -5070.9956, -0.0008036251, 0.0000124774515, -1323470.3, 266.78043 
6.953971e+2, 1.749126e+2, -1228592.3, -1362954.4, -4971.529, 0.00027722947, -0.0012841801, -1228408.6, -2552.0598 
6.953947e+2, 1.8489979e+2, -1141117.9, -1283730.4, -4537.892, 0.00073878927, -0.00038787152, -1140973.6, -12991.609 
6.953924e+2, 1.948864e+2, -1043694.8, -1186101.5, -4581.798, 0.0005737609, 0.00082293525, -1043547.56, -13434.23 
6.9539e+2, 2.0487235e+2, -955849.56, -1106544.6, -4828.823, 0.00006205636, 0.0009343221, -955695.0, -23444.107 
6.9538766e+2, 2.1485768e+2, -860445.8, -1009877.25, -4811.9126, -0.00080285553, -0.0021383422, -860291.0, -25896.352 
6.9538534e+2, 2.2484243e+2, -772951.9, -930773.1, -4122.8213, -0.0008864903, -0.0012921729, -772844.25, -36299.945 
6.9538313e+2, 2.3482656e+2, -675794.06, -833115.7, -3947.909, -0.00013757125, 0.0013981647, -675695.06, -36995.344 
6.953809e+2, 2.4481006e+2, -588133.56, -753952.0, -3797.4805, 0.0002288117, 0.0023571546, -588046.6, -47185.12 
6.953787e+2, 2.547929e+2, -492410.13, -656893.25, -3914.584, 0.0001657525, -0.00053245266, -492317.03, -49287.473 
6.953766e+2, 2.6477513e+2, -405108.8, -578264.2, -3162.7507, 0.00017337948, -0.00094300555, -405051.06, -59847.355 
6.953746e+2, 2.7475673e+2, -308013.47, -480420.8, -3032.4995, 0.00027726984, -0.0008810324, -307960.16, -60576.31 
6.9537276e+2, 2.8473774e+2, -220455.75, -402030.2, -2345.3594, -0.00032534875, 0.0005729357, -220425.47, -70855.14 
6.9537085e+2, 2.947181e+2, -123821.234, -304342.53, -2361.3594, -0.0017419091, 0.0011127869, -123790.35, -72027.39 
6.953691e+2, 3.0470115e+2, -37773.992, -175784.67, -1763.0428, -0.0008381257, 0.00044837335, -37751.477, -37751.477 
6.953676e+2, 3.1468698e+2, -39945.777, -176455.92, -1839.4406, 0.0027934092, -0.0037144055, -39920.996, -39920.996 
6.9536614e+2, 3.2467762e+2, 26638.086, -39024.61, 1111.1351, -0.0014578804, 0.0033846926, 26656.883, 26656.883 
7.054335e+2, 3.5029507e+1, -2518421.8, -2603630.3, -1049.8776, 0.013788536, -0.0021102242, -2518409.0, 78301.9 
7.0543146e+2, 4.5024997e+1, -2424087.0, -2518108.0, -1041.2174, -0.018807946, 0.001667863, -2424075.5, 74679.516 
7.054299e+2, 5.501997e+1, -2330748.5, -2422731.0, -959.3869, 0.00032076077, -0.00086693885, -2330738.5, 70065.94 
7.054282e+2, 6.501442e+1, -2242828.0, -2341165.3, -1861.1163, 0.006560549, -0.0006584175, -2242792.8, 60065.97 
7.0542616e+2, 7.5008374e+1, -2145661.5, -2243779.5, -2163.115, -0.0001310839, 0.0003732615, -2145613.8, 59304.055 
7.054241e+2, 8.500167e+1, -2058528.5, -2165489.5, -2933.392, -0.0022672578, 0.0011059381, -2058448.0, 48535.64 
7.05422e+2, 9.49943e+1, -1963012.1, -2068868.5, -2766.2192, 0.00017398637, -0.00043751774, -1962939.9, 46115.984 
7.054198e+2, 1.04986355e+2, -1875349.0, -1988730.5, -3286.3408, 0.0008534007, -0.0005719714, -1875253.8, 35880.0 
7.0541745e+2, 1.1497783e+2, -1779093.4, -1891717.1, -3442.192, -0.00023947738, -0.0011547029, -1778988.4, 34228.938 
7.054152e+2, 1.249687e+2, -1691414.3, -1812391.0, -4132.049, -0.00030381075, -0.00051657186, -1691273.4, 24033.457 
7.0541275e+2, 1.3495895e+2, -1594789.4, -1715182.5, -4171.747, 0.00065965997, -0.00066993496, -1594645.0, 22757.271 
7.0541036e+2, 1.4494859e+2, -1507652.0, -1636217.0, -4158.4614, 0.0006736293, 0.00029311908, -1507517.6, 11986.238 
7.054079e+2, 1.5493761e+2, -1412496.8, -1539662.9, -4082.259, -0.0002941369, 0.00036322698, -1412365.9, 9245.666 
7.054054e+2, 1.64926e+2, -1324630.1, -1459879.8, -4569.3857, -0.0005875497, 0.0005167975, -1324475.9, -750.8252 
7.054029e+2, 1.7491382e+2, -1227153.3, -1362173.0, -4621.9575, -0.00018309633, -0.0013874616, -1226995.1, -1150.5952 
7.054004e+2, 1.8490101e+2, -1139704.9, -1283064.1, -4271.554, 0.0003330775, -0.00056442426, -1139577.8, -11607.711 
7.053979e+2, 1.9488762e+2, -1044776.75, -1186660.4, -4231.641, 0.00097553973, 0.0011337701, -1044650.7, -14549.331 
7.0539546e+2, 2.0487358e+2, -957301.56, -1107274.9, -4390.494, 0.00049997156, 0.0012682361, -957173.1, -24934.207 
7.0539296e+2, 2.148589e+2, -859982.7, -1009695.0, -4421.7646, -0.0011425023, -0.0022701242, -859852.2, -25469.445 
7.053905e+2, 2.2484364e+2, -772299.7, -930197.9, -3901.1208, -0.0013766701, -0.0015194883, -772203.4, -35671.098 
7.053881e+2, 2.348278e+2, -677025.56, -833487.9, -3886.5066, -0.00011358799, 0.0014837241, -676929.06, -38241.58 
7.053858e+2, 2.4481131e+2, -589753.0, -754855.8, -3653.5156, 0.00050256704, 0.0024673264, -589672.2, -48823.016 
7.0538354e+2, 2.5479415e+2, -492321.0, -656993.7, -3614.6892, 0.00040950414, -0.0007107055, -492241.7, -49224.332 
7.053813e+2, 2.6477638e+2, -404572.97, -577740.75, -2879.4255, 0.00013939982, -0.0010014827, -404525.1, -59333.63 
7.053792e+2, 2.7475804e+2, -308752.5, -480544.3, -2822.356, -0.00030270708, -0.00035400828, -308706.13, -61334.824 
7.053772e+2, 2.8473902e+2, -221978.52, -402600.6, -2064.2253, -0.000469405, 0.00061051187, -221954.94, -72397.25 
7.0537525e+2, 2.9471937e+2, -125172.85, -304913.4, -1984.0148, -0.00037937795, -0.0005299629, -125150.96, -73400.555 
7.053734e+2, 3.0470243e+2, -38690.668, -176355.1, -1352.7455, -0.00060514826, 0.00019555078, -38677.375, -38677.375 
7.053716e+2, 3.146883e+2, -39827.29, -176529.5, -1359.9188, -0.0010171678, 0.0008730324, -39813.76, -39813.76 
7.0537025e+2, 3.246789e+2, 24222.393, -39784.74, 970.8055, 0.0011225216, 0.00033614997, 24237.113, 24237.113 
7.154407e+2, 3.5030866e+1, -2517282.3, -2601412.0, 1738.7644, 0.0064831474, -0.0021252588, -2517246.3, 79451.414 
7.154391e+2, 4.502652e+1, -2424094.3, -2517816.0, -2192.0073, -0.009479668, 0.009543505, -2424043.0, 74697.41 
7.154371e+2, 5.502145e+1, -2330563.0, -2422341.8, -2098.569, 0.00035497418, 0.001022773, -2330515.3, 70274.72 
7.154352e+2, 6.501585e+1, -2243325.8, -2342304.5, -2017.3835, 0.0036052885, -0.00162563, -2243284.8, 59560.03 
7.154332e+2, 7.5009733e+1, -2146245.8, -2244956.5, -2301.343, 0.00020618051, -0.0003702833, -2146192.3, 58712.492 
7.15431e+2, 8.5003006e+1, -2058249.0, -2164859.5, -3502.0947, -0.0010591611, 0.00074040284, -2058134.1, 48836.492 
7.154287e+2, 9.499569e+1, -1962692.0, -2068206.5, -3349.373, -0.0001533259, -0.0002589197, -1962585.8, 46456.547 
7.154264e+2, 1.0498775e+2, -1875628.4, -1989344.4, -3694.6743, 0.00038771817, 0.00027219512, -1875508.5, 35611.65 
7.15424e+2, 1.1497919e+2, -1779395.8, -1892335.9, -3839.0776, 0.00055382994, 0.000448974, -1779265.4, 33938.555 
7.1542156e+2, 1.24970034e+2, -1691514.4, -1812587.0, -4438.1055, 0.00024375747, 0.00068857026, -1691351.9, 23941.822 
7.15419e+2, 1.3496025e+2, -1594927.4, -1715383.1, -4475.0664, -0.0005657569, -0.0010103101, -1594761.4, 22628.188 
7.1541643e+2, 1.4494988e+2, -1507563.0, -1635962.0, -4838.9097, -0.0003986375, -0.00069000106, -1507380.9, 12110.195 
7.1541387e+2, 1.5493892e+2, -1412336.5, -1539369.6, -4768.326, 0.000763957, -0.00036724342, -1412157.8, 9440.817 
7.1541125e+2, 1.6492735e+2, -1324713.1, -1460054.9, -4677.2607, 0.0007491146, 0.00059462164, -1324551.8, -839.684 
7.154087e+2, 1.7491515e+2, -1227339.8, -1362400.8, -4724.558, -0.0004708858, 0.00006691517, -1227174.8, -1343.1857 
7.1540606e+2, 1.8490234e+2, -1139725.5, -1282955.8, -5025.5024, -0.00084757694, 0.00028306377, -1139549.4, -11592.339 
7.154034e+2, 1.9488893e+2, -1044706.94, -1186490.8, -4992.926, -0.00035549747, -0.0006875455, -1044531.3, -14442.791 
7.1540076e+2, 2.0487489e+2, -957344.5, -1107372.3, -4547.774, 0.000010407181, -0.000031787215, -957206.8, -24980.76 
7.1539825e+2, 2.1486025e+2, -860127.9, -1009827.3, -4566.1226, 0.00024768244, 0.00027828902, -859988.7, -25619.11 
7.153957e+2, 2.2484499e+2, -772364.5, -930216.0, -4580.2954, 0.00015146124, 0.00067618495, -772231.7, -35712.5 
7.153931e+2, 2.348291e+2, -677014.8, -833454.2, -4573.1265, -0.0002953852, -0.0011237127, -676881.25, -38206.445 
7.153907e+2, 2.4481261e+2, -589676.5, -754705.5, -3813.4368, -0.00037729694, -0.00086628756, -589588.44, -48751.918 
7.1538836e+2, 2.547955e+2, -492336.1, -656875.5, -3760.5095, -0.00006837127, -0.0004015992, -492250.2, -49245.938 
7.1538603e+2, 2.6477775e+2, -404574.47, -577587.9, -3458.4492, -0.00019759728, 0.0007451407, -404505.38, -59327.25 
7.153837e+2, 2.747594e+2, -308717.75, -480338.22, -3410.5918, -0.0007874208, 0.00042503545, -308650.0, -61292.07 
7.1538156e+2, 2.847404e+2, -221847.4, -402322.06, -2423.6394, -0.00021612564, 0.00042320022, -221814.88, -72270.664 
7.153796e+2, 2.9472074e+2, -125093.95, -304622.66, -2337.2903, 0.001586022, -0.0017008323, -125063.53, -73326.71 
7.153776e+2, 3.0470386e+2, -38753.668, -176389.8, -1643.0255, -0.00009021248, 0.00048549136, -38734.055, -38734.055 
7.1537566e+2, 3.1468976e+2, -39880.957, -176562.92, -1637.1517, -0.0054838816, 0.005350602, -39861.35, -39861.35 
7.153742e+2, 3.2468018e+2, 22914.479, -42387.45, -131.68513, 0.0041706217, -0.0024860837, 22914.744, 22914.744 
7.254481e+2, 3.503231e+1, -2513754.0, -2599512.0, 2671.9216, -0.00067246077, -0.0017896574, -2513671.0, 83012.62 
7.254466e+2, 4.5027995e+1, -2426671.3, -2518570.0, -2494.6453, 0.000027110127, 0.009743432, -2426603.8, 72122.18 
7.254444e+2, 5.502298e+1, -2328951.0, -2421042.0, -2269.0425, 0.0006326954, 0.00096763246, -2328895.0, 71879.914 
7.254423e+2, 6.501738e+1, -2241084.5, -2341451.0, -1842.3184, 0.0006588427, -0.0018148448, -2241050.5, 61779.11 
7.254402e+2, 7.501125e+1, -2145904.0, -2245034.3, -1757.2113, -0.000023663399, -0.0005646815, -2145872.8, 59017.086 
7.2543794e+2, 8.50045e+1, -2058222.0, -2164937.8, -2953.8264, -0.00018382828, 0.00067117036, -2058140.3, 48815.65 
7.254355e+2, 9.499718e+1, -1961619.1, -2067780.5, -3153.3708, 0.0002096704, -0.00006589291, -1961525.5, 47502.17 
7.2543305e+2, 1.0498923e+2, -1874252.1, -1988791.0, -3600.1387, 0.0003999704, 0.0004954922, -1874139.1, 36966.52 
7.2543055e+2, 1.1498066e+2, -1778439.4, -1891991.0, -3530.0676, 0.0003814621, 0.00044668504, -1778329.8, 34859.836 
7.25428e+2, 1.2497149e+2, -1691186.3, -1812553.0, -3987.0369, 0.00012097033, 0.0007062775, -1691055.4, 24224.047 
7.254253e+2, 1.349617e+2, -1595405.0, -1715756.8, -4022.4224, -0.00039981678, -0.0006845798, -1595270.8, 22104.63 
7.254226e+2, 1.4495133e+2, -1507576.4, -1635962.1, -4467.733, -0.0002675445, -0.00043897075, -1507421.0, 12055.932 
7.2541994e+2, 1.5494037e+2, -1410732.1, -1538589.9, -4518.22, 0.00054091227, -0.0005985955, -1410572.6, 11011.829 
7.254172e+2, 1.649288e+2, -1323558.9, -1459573.1, -4465.778, 0.0005580579, 0.0002936895, -1323412.4, 285.57858 
7.2541445e+2, 1.7491658e+2, -1228603.1, -1363115.5, -4474.934, -0.00024540964, 0.00013181916, -1228454.4, -2636.834 
7.2541165e+2, 1.8490376e+2, -1141052.0, -1283566.9, -4752.9937, -0.00061916525, 0.0002840478, -1140893.8, -12950.642 
7.2540885e+2, 1.9489035e+2, -1043736.75, -1185998.1, -4775.076, -0.0005497617, -0.0011983761, -1043576.6, -13502.059 
7.2540617e+2, 2.0487633e+2, -956249.4, -1106772.8, -4346.5103, -0.00019569341, -0.00039245875, -956124.0, -23911.959 
7.254035e+2, 2.1486169e+2, -861224.3, -1010304.7, -4270.648, 0.00046415848, 0.00076516444, -861102.06, -26746.602 
7.254008e+2, 2.2484642e+2, -773720.7, -930867.9, -4187.703, 0.00041437114, 0.0010849098, -773609.1, -37104.117 
7.253981e+2, 2.3483053e+2, -676440.94, -833196.7, -4193.1924, -0.0003972854, -0.001763286, -676328.9, -37668.145 
7.2539556e+2, 2.4481404e+2, -589018.5, -754154.06, -3453.292, -0.00054112205, -0.0015739945, -588946.3, -48123.977 
7.253931e+2, 2.5479695e+2, -493791.22, -657375.8, -3335.7566, 0.000044618257, -0.00011130427, -493723.22, -50733.406 
7.253907e+2, 2.6477924e+2, -406530.84, -578449.94, -2938.8657, -0.000075570526, 0.0011218956, -406480.63, -61317.094 
7.253882e+2, 2.747609e+2, -309263.47, -480541.47, -2909.7454, -0.0009578518, -0.000106619984, -309214.06, -61870.777 
7.2538596e+2, 2.8474188e+2, -222041.33, -402208.53, -2018.3235, -0.0003779218, 0.000063011335, -222018.72, -72489.3 
7.253839e+2, 2.9472226e+2, -126062.984, -304892.5, -1959.7148, 0.0017642865, -0.00069358235, -126041.51, -74319.78 
7.253818e+2, 3.0470538e+2, -39910.434, -176618.88, -966.5123, 0.0000017782653, 0.0006381801, -39903.6, -39903.6 
7.2537977e+2, 3.146913e+2, -40713.28, -176607.55, -757.8101, -0.005944569, 0.0021413565, -40709.055, -40709.055 
7.2537804e+2, 3.246818e+2, 21488.482, -43422.035, 307.85443, 0.0048455643, -0.001354331, 21489.943, 21489.943 
7.354556e+2, 3.503384e+1, -2514364.5, -2600842.8, 1018.7321, -0.0077631567, -0.0011564167, -2514352.5, 82316.02 
7.35454e+2, 4.502944e+1, -2426246.5, -2517648.5, -2458.3992, 0.009611366, 0.0034993524, -2426180.5, 72531.03 
7.354517e+2, 5.502453e+1, -2328528.3, -2420122.0, -2248.1555, 0.0010775119, -0.0007242427, -2328473.3, 72286.52 
7.3544943e+2, 6.5019006e+1, -2240918.0, -2341103.8, -2485.1946, -0.0023168183, -0.0013477596, -2240856.5, 61957.39 
7.354472e+2, 7.5012887e+1, -2145711.3, -2244674.3, -2408.7214, -0.0007453438, -0.00029865815, -2145652.8, 59221.137 
7.3544484e+2, 8.5006124e+1, -2058591.1, -2165707.8, -3252.0613, 0.00039162283, 0.00085085334, -2058492.5, 48447.547 
7.3544234e+2, 9.499875e+1, -1962022.0, -2068565.0, -3439.0525, 0.0011271467, 0.00013377138, -1961911.1, 47101.15 
7.354398e+2, 1.0499077e+2, -1874158.1, -1988550.8, -4097.0083, 0.00078850286, 0.0001889591, -1874011.6, 37078.797 
7.354371e+2, 1.1498222e+2, -1778333.1, -1891746.3, -4034.8364, -0.00063145306, -0.00091894163, -1778189.8, 34984.582 
7.3543435e+2, 1.24973044e+2, -1691264.6, -1812716.1, -4514.215, -0.0005949102, -0.0002800235, -1691097.1, 24167.016 
7.3543155e+2, 1.3496327e+2, -1595471.8, -1715899.5, -4545.4727, 0.00091685244, 0.00019750369, -1595300.5, 22059.48 
7.3542875e+2, 1.449529e+2, -1507681.5, -1636181.4, -4719.6396, 0.0008592158, 0.00085401227, -1507508.4, 11953.377 
7.3542595e+2, 1.549419e+2, -1410916.9, -1538828.1, -4768.484, -0.00079592696, -0.00041160997, -1410739.4, 10829.997 
7.354231e+2, 1.649303e+2, -1323629.8, -1459646.0, -5210.9746, -0.00095945067, -0.00032327315, -1323430.4, 252.70647 
7.3542017e+2, 1.7491809e+2, -1228588.3, -1363131.5, -5220.4604, 0.0003938482, -0.000987693, -1228386.0, -2583.2847 
7.354173e+2, 1.8490529e+2, -1141053.3, -1283624.3, -4896.7046, 0.000790155, -0.00043851108, -1140885.3, -12957.07 
7.3541445e+2, 1.9489187e+2, -1043855.6, -1186093.5, -4912.444, 0.00019835442, -0.00059056404, -1043686.2, -13626.49 
7.3541164e+2, 2.0487785e+2, -956208.7, -1106550.0, -5069.512, -0.00018484218, 0.0000564544, -956037.94, -23840.87 
7.3540866e+2, 2.1486323e+2, -861107.2, -1010025.2, -5000.899, -0.00033927016, -0.00051172666, -860939.44, -26598.953 
7.3540586e+2, 2.2484796e+2, -773723.06, -930894.4, -4368.047, -0.00042705826, -0.000029514158, -773601.75, -37111.81 
7.354032e+2, 2.348321e+2, -676546.06, -833258.44, -4361.144, -0.0004569102, -0.0007171941, -676424.75, -37779.285 
7.354005e+2, 2.4481562e+2, -588915.1, -753781.7, -4162.4424, -0.00011268509, -0.000026219728, -588810.1, -48003.188 
7.353978e+2, 2.5479856e+2, -493607.6, -656947.5, -4056.6755, 0.0006352323, 0.0001551079, -493506.9, -50532.688 
7.3539525e+2, 2.6478082e+2, -406480.56, -578310.56, -3165.0083, 0.00040297973, 0.00031899128, -406422.28, -61274.465 
7.3539275e+2, 2.7476248e+2, -309298.88, -480421.88, -3121.6733, -0.0008899809, -0.0017738779, -309241.97, -61914.355 
7.3539037e+2, 2.8474352e+2, -222022.4, -402056.25, -2569.5425, -0.0009296019, -0.00044619848, -221985.73, -72472.23 
7.3538804e+2, 2.9472393e+2, -126017.88, -304706.7, -2515.958, 0.00036593433, 0.0021923943, -125982.47, -74277.125 
7.3538584e+2, 3.0470705e+2, -39606.38, -175869.7, -1171.2826, -0.00030871393, 0.0006567392, -39596.31, -39596.31 
7.3538387e+2, 3.1469294e+2, -40459.047, -175875.77, -954.0114, -0.0030012003, -0.0077088573, -40452.33, -40452.33 
7.353819e+2, 3.2468364e+2, 22060.172, -42082.184, -1042.4396, 0.003388064, 0.003222114, 22077.11, 22077.11 
7.4546325e+2, 3.503564e+1, -2511718.0, -2600326.5, 342.5856, -0.009287863, 0.0002580197, -2511716.5, 84934.164 
7.454614e+2, 4.503115e+1, -2425575.8, -2517223.5, -814.37756, 0.013248034, -0.001242989, -2425568.8, 73126.14 
7.454591e+2, 5.502629e+1, -2327853.3, -2419708.8, -978.2498, 0.00025616435, -0.0011386157, -2327842.8, 72899.57 
7.4545676e+2, 6.5020776e+1, -2240090.5, -2340793.5, -2076.5718, -0.004073691, -0.000102279504, -2240047.5, 62748.793 
7.454543e+2, 7.501464e+1, -2144354.8, -2244095.8, -2219.5747, 0.000036906742, -0.000009110934, -2144305.5, 60551.04 
7.454518e+2, 8.5007864e+1, -2057366.4, -2165290.5, -2877.9019, 0.0015604462, 0.0006736154, -2057289.6, 49633.25 
7.454492e+2, 9.5000476e+1, -1961501.6, -2068488.6, -2824.8174, 0.00053201936, -0.000026700094, -1961427.1, 47568.234 
7.4544644e+2, 1.0499249e+2, -1873865.3, -1988554.0, -3545.2607, -0.000048024798, -0.0000129434775, -1873755.8, 37317.902 
7.4544364e+2, 1.1498392e+2, -1777868.4, -1891662.8, -3682.585, -0.00018478738, -0.0012051028, -1777749.4, 35408.332 
7.454408e+2, 1.2497474e+2, -1690410.9, -1812351.3, -4211.547, 0.000011022669, -0.00049737573, -1690265.6, 24982.018 
7.4543786e+2, 1.3496497e+2, -1594132.5, -1715304.4, -4198.3213, 0.0005623864, 0.00019875467, -1593987.1, 23356.246 
7.4543494e+2, 1.4495456e+2, -1507002.0, -1636031.5, -4385.881, 0.0004521425, 0.0008605073, -1506853.1, 12592.151 
7.45432e+2, 1.5494356e+2, -1411825.3, -1539477.9, -4451.308, -0.00034608078, -0.00061003445, -1411670.3, 9882.976 
7.4542904e+2, 1.6493195e+2, -1324198.1, -1459872.6, -4841.0923, -0.0004729813, -0.0004925908, -1324025.6, -358.72122 
7.4542594e+2, 1.7491975e+2, -1227106.8, -1362362.1, -4805.433, 0.00008277898, -0.0008849697, -1226936.3, -1149.7373 
7.454229e+2, 1.8490693e+2, -1139787.4, -1283047.5, -4495.9243, 0.00035985472, -0.00019653217, -1139646.4, -11734.391 
7.4542e+2, 1.9489352e+2, -1044983.4, -1186724.1, -4511.2563, 0.00035233484, -0.00034039555, -1044839.94, -14796.518 
7.4541694e+2, 2.048795e+2, -957539.5, -1107070.6, -4646.614, 0.00007068021, 0.00012370142, -957395.25, -25214.363 
7.4541396e+2, 2.1486488e+2, -860526.3, -1009617.94, -4619.5093, -0.0004903652, -0.00082542555, -860383.3, -26059.166 
7.4541104e+2, 2.2484964e+2, -773244.94, -930559.56, -4000.6602, -0.00059444713, -0.00013570955, -773143.3, -36669.766 
7.454081e+2, 2.3483379e+2, -678185.3, -833955.5, -3935.5205, -0.00022686685, 0.000002424764, -678085.94, -39457.04 
7.454053e+2, 2.4481732e+2, -590625.1, -754397.9, -3702.1968, 0.00008113649, 0.0007166059, -590541.5, -49751.246 
7.454025e+2, 2.5480026e+2, -493418.8, -656647.44, -3652.811, 0.00032058396, 0.00007026675, -493337.13, -50379.742 
7.4539983e+2, 2.6478255e+2, -406145.22, -577982.94, -2772.8237, 0.00019974126, 0.000015967262, -406100.5, -60969.684 
7.453972e+2, 2.7476424e+2, -310594.16, -480900.9, -2686.9453, -0.00029974853, -0.0016291884, -310551.78, -63241.38 
7.453947e+2, 2.847453e+2, -223699.92, -402589.9, -2059.749, -0.0005080699, -0.00028898023, -223676.2, -74180.1 
7.453922e+2, 2.9472575e+2, -126843.41, -304839.03, -1921.3644, -0.0004445507, 0.0018783575, -126822.67, -75134.97 
7.4538994e+2, 3.047089e+2, -40722.945, -176080.13, -593.79614, -0.00054087694, 0.00021123167, -40720.34, -40720.34 
7.453878e+2, 3.146948e+2, -43097.027, -176831.61, -549.01215, -0.00060634664, -0.007895934, -43094.773, -43094.773 
7.453857e+2, 3.2468554e+2, 21493.855, -41221.977, -939.59644, 0.0014936969, 0.0032439616, 21507.93, 21507.93 
7.5547105e+2, 3.5037678e+1, -2512157.3, -2601092.8, -2649.9248, -0.006234557, 0.0023360364, -2512078.5, 84552.33 
7.554687e+2, 4.5033088e+1, -2425665.0, -2517723.8, -785.5588, 0.011829785, -0.0047007147, -2425658.3, 73017.5 
7.554664e+2, 5.502823e+1, -2328089.3, -2420269.0, -959.47076, -0.0016488865, -0.0004856399, -2328079.3, 72644.21 
7.55464e+2, 6.502269e+1, -2240360.3, -2341341.3, -2568.1672, -0.004834401, 0.0017894828, -2240295.0, 62482.6 
7.554615e+2, 7.5016505e+1, -2144601.5, -2244639.8, -2711.2454, 0.0020559237, 0.00029510751, -2144528.0, 60310.332 
7.554588e+2, 8.500971e+1, -2057251.1, -2165071.5, -3352.035, 0.0031943978, 0.00019716097, -2057147.0, 49757.906 
7.55456e+2, 9.500233e+1, -1961382.6, -2068276.8, -3307.0686, -0.0013555933, -0.0004974707, -1961280.4, 47696.793 
7.5545317e+2, 1.04994334e+2, -1874127.4, -1989102.0, -4007.5283, -0.0019316347, -0.00012847631, -1873987.9, 37067.74 
7.5545025e+2, 1.14985734e+2, -1778143.0, -1892212.9, -4137.6416, 0.0014666442, -0.000586595, -1777993.1, 35146.73 
7.5544727e+2, 1.2497653e+2, -1690421.9, -1812339.1, -4601.249, 0.001702551, -0.000067550165, -1690248.5, 24981.533 
7.554442e+2, 1.3496675e+2, -1594184.9, -1715290.1, -4591.819, -0.0012288685, -0.0005478597, -1594011.0, 23314.846 
7.554412e+2, 1.4495635e+2, -1507172.5, -1636314.8, -5065.9585, -0.001270493, -0.0002145836, -1506974.1, 12453.776 
7.55438e+2, 1.5494531e+2, -1411947.6, -1539719.5, -5122.213, 0.0015914062, -0.0011414448, -1411742.6, 9793.302 
7.554349e+2, 1.6493371e+2, -1324108.3, -1459721.4, -5034.1357, 0.0016790146, -0.0002897952, -1323921.8, -272.0638 
7.554318e+2, 1.7492154e+2, -1227121.3, -1362237.5, -5001.447, -0.0010539881, 0.0002541457, -1226936.4, -1167.3285 
7.554286e+2, 1.8490872e+2, -1139889.8, -1283147.0, -5280.2817, -0.001642757, 0.0008731824, -1139695.4, -11800.912 
7.554254e+2, 1.948953e+2, -1045015.6, -1186766.0, -5295.2153, -0.000023151382, -0.00039397483, -1044818.06, -14791.971 
7.554223e+2, 2.0488127e+2, -957482.4, -1106962.8, -4866.161, 0.0005090835, -0.00013288819, -957324.1, -25160.605 
7.554192e+2, 2.1486667e+2, -860562.44, -1009533.94, -4835.039, -0.00010363032, -0.00031964478, -860405.7, -26099.012 
7.5541615e+2, 2.2485144e+2, -773212.56, -930385.75, -4733.2114, -0.00020913132, 0.00062148133, -773070.2, -36614.25 
7.554131e+2, 2.348356e+2, -678080.56, -833740.0, -4673.2275, 0.00022212809, 0.00044239443, -677940.4, -39329.184 
7.554101e+2, 2.4481915e+2, -590544.06, -754183.7, -3923.5564, 0.000052704592, 0.0007763914, -590450.06, -49677.637 
7.554072e+2, 2.548021e+2, -493426.72, -656462.5, -3865.8303, -0.0007953297, -0.00031564364, -493335.1, -50395.66 
7.5540435e+2, 2.6478443e+2, -406109.34, -577721.25, -3420.8484, -0.0006184358, 0.00014510317, -406041.2, -60928.508 
7.554016e+2, 2.7476615e+2, -310516.03, -480594.94, -3341.426, 0.0007087604, 0.00006886329, -310450.4, -63158.504 
7.55399e+2, 2.8474718e+2, -223495.4, -402035.88, -2404.071, 0.0007155978, 0.00042810722, -223463.05, -73985.64 
7.5539637e+2, 2.9472765e+2, -126679.48, -304286.16, -2261.1255, -0.0007896131, -0.0011933519, -126650.695, -74981.72 
7.55394e+2, 3.0471084e+2, -40731.4, -175998.44, -1198.8374, -0.0007369399, -0.00063224713, -40720.773, -40720.773 
7.5539166e+2, 3.1469685e+2, -43084.48, -176747.03, -1149.423, 0.001269202, 0.00021323646, -43074.598, -43074.598 
7.5538933e+2, 3.2468754e+2, 22178.943, -39679.91, -995.6676, -0.00085201976, -0.0007227404, 22194.967, 22194.967 
7.654789e+2, 3.5039932e+1, -2512644.0, -2602502.0, -2070.5435, 0.00002859599, -0.00060713425, -2512596.3, 84012.32 
7.654763e+2, 4.5035312e+1, -2421116.0, -2516312.0, 255.81575, 0.0030706613, -0.0016025585, -2421115.3, 77538.61 
7.654739e+2, 5.503035e+1, -2326457.8, -2420301.0, -158.03688, -0.0012194494, -0.00006272486, -2326457.5, 74245.09 
7.6547134e+2, 6.502474e+1, -2239745.8, -2341466.0, -1921.5938, -0.0016726947, 0.0010278074, -2239709.5, 63048.133 
7.6546866e+2, 7.501852e+1, -2143635.0, -2244589.8, -2088.4353, 0.001569362, -0.00019366328, -2143591.8, 61226.777 
7.654658e+2, 8.50117e+1, -2055909.6, -2164582.3, -2866.6277, 0.0018216231, -0.000072134884, -2055834.0, 51051.3 
7.6546293e+2, 9.500431e+1, -1960079.4, -2067790.5, -3006.9878, -0.0008794673, -0.00058903475, -1959995.5, 48962.254 
7.6545995e+2, 1.049963e+2, -1873016.9, -1988738.8, -3747.192, -0.0011160524, -0.000004401195, -1872895.6, 38140.59 
7.654569e+2, 1.1498768e+2, -1777297.4, -1891993.0, -3750.0837, 0.0011130808, -0.00018937665, -1777174.9, 35945.867 
7.654538e+2, 1.2497846e+2, -1689995.4, -1812304.3, -4192.318, 0.0012258947, 0.00017474545, -1689851.9, 25359.217 
7.6545054e+2, 1.3496865e+2, -1594378.9, -1715567.6, -4294.074, -0.00078562077, -0.0009155698, -1594226.9, 23080.297 
7.654474e+2, 1.4495826e+2, -1506948.5, -1636109.9, -4756.7734, -0.0008903076, -0.0005325543, -1506773.6, 12635.617 
7.654441e+2, 1.5494724e+2, -1410524.9, -1538958.4, -4642.3364, 0.00094196835, -0.00070208404, -1410357.3, 11159.817 
7.654408e+2, 1.6493563e+2, -1323266.9, -1459398.3, -4519.776, 0.0010613475, 0.00022133104, -1323117.0, 513.7676 
7.6543754e+2, 1.7492343e+2, -1228276.9, -1362939.1, -4637.976, -0.0005664703, 0.00012648515, -1228117.4, -2367.0105 
7.6543427e+2, 1.8491063e+2, -1140981.5, -1283526.9, -4953.855, -0.0010148179, 0.0006156426, -1140809.5, -12933.675 
7.654309e+2, 1.9489722e+2, -1044179.4, -1186232.6, -4862.4204, -0.00024794706, -0.0002605647, -1044013.1, -14005.834 
7.654276e+2, 2.0488319e+2, -956726.3, -1106642.1, -4396.319, 0.00012564326, 0.00013454535, -956597.5, -24452.826 
7.6542443e+2, 2.1486859e+2, -861697.1, -1010140.75, -4444.124, 0.000066234825, -0.00017789482, -861564.2, -27276.287 
7.654212e+2, 2.2485337e+2, -774351.7, -930714.94, -4371.733, 0.000065762484, 0.00052603363, -774229.56, -37792.508 
7.65418e+2, 2.3483755e+2, -677571.56, -833279.25, -4277.553, 0.00012498282, -0.000006825272, -677454.1, -38861.957 
7.6541483e+2, 2.4482109e+2, -590220.56, -753979.3, -3526.0977, -0.00007627187, 0.00029620287, -590144.6, -49391.395 
7.6541185e+2, 2.5480407e+2, -495009.75, -657184.2, -3530.9102, -0.00057691947, -0.00048108734, -494932.9, -52012.668 
7.654089e+2, 2.6478642e+2, -407940.2, -578318.8, -3085.0535, -0.00033912904, 0.00023783492, -407884.34, -62791.066 
7.65406e+2, 2.7476814e+2, -311121.28, -480621.84, -2960.0369, 0.00073124294, 0.0003718958, -311069.6, -63797.395 
7.654032e+2, 2.8474924e+2, -223900.64, -401967.78, -2014.6595, 0.00059632247, 0.00041685434, -223877.84, -74420.37 
7.654005e+2, 2.947297e+2, -127911.59, -304645.34, -1951.2813, -0.00092818233, -0.0021025604, -127890.055, -76241.164 
7.6539797e+2, 3.0471295e+2, -42050.746, -176158.42, -878.07275, -0.00056791236, -0.0006339744, -42044.996, -42044.996 
7.653955e+2, 3.14699e+2, -43721.973, -176594.84, -609.3908, 0.0021235032, 0.0031285963, -43719.176, -43719.176 
7.653931e+2, 3.2468966e+2, 20734.764, -40949.105, -553.9708, -0.0015185431, -0.0024948092, 20739.738, 20739.738 
7.7548677e+2, 3.5042372e+1, -2513874.8, -2604769.5, -1791.5352, 0.008857491, -0.0076888106, -2513839.5, 82745.24 
7.7548385e+2, 4.5037785e+1, -2421767.3, -2517838.0, -557.344, -0.011833759, 0.0069491593, -2421764.0, 76865.85 
7.754814e+2, 5.5032635e+1, -2327158.5, -2421839.5, -957.8985, 0.0011316779, 0.00016667195, -2327148.8, 73531.445 
7.754788e+2, 6.5026927e+1, -2240020.8, -2342084.0, -2340.3516, 0.00471698, -0.0019441283, -2239967.3, 62768.953 
7.7547586e+2, 7.5020677e+1, -2143913.8, -2245219.0, -2495.8057, -0.001024931, -0.0013457113, -2143852.5, 60945.04 
7.754729e+2, 8.5013825e+1, -2056177.8, -2165123.8, -3347.1753, -0.00207634, -0.0001664754, -2056075.0, 50789.55 
7.754699e+2, 9.50064e+1, -1960358.3, -2068346.0, -3484.241, 0.0015482376, -0.00037257795, -1960245.9, 48691.36 
7.754668e+2, 1.0499837e+2, -1873050.9, -1988772.9, -4268.5635, 0.0019242219, 0.00031692142, -1872893.6, 38122.38 
7.754636e+2, 1.1498974e+2, -1777326.3, -1892028.3, -4272.2324, -0.0009415641, 0.000013956948, -1777167.4, 35933.14 
7.7546024e+2, 1.2498052e+2, -1690212.8, -1812728.9, -4743.095, -0.0010857048, 0.00025730516, -1690029.4, 25161.58 
7.7545696e+2, 1.3497068e+2, -1594593.3, -1715978.1, -4836.614, 0.0014990426, -0.0009734854, -1594400.9, 22886.563 
7.754536e+2, 1.4496027e+2, -1506743.0, -1635690.8, -5107.325, 0.0012253544, -0.00021576093, -1506541.0, 12848.403 
7.7545017e+2, 1.5494929e+2, -1410381.1, -1538537.3, -5006.2383, -0.0019068195, 0.00054550654, -1410185.9, 11311.002 
7.754467e+2, 1.649377e+2, -1323517.4, -1459873.9, -5263.6953, -0.0019140955, 0.0009910376, -1323314.4, 296.201 
7.754433e+2, 1.7492545e+2, -1228486.8, -1363370.8, -5371.255, 0.0012688746, -0.0010710644, -1228273.1, -2542.512 
7.7543986e+2, 1.8491262e+2, -1140778.9, -1283152.3, -5226.034, 0.0018138147, -0.0007656549, -1140587.4, -12731.126 
7.754364e+2, 1.9489926e+2, -1044063.44, -1185862.8, -5140.059, -0.00037725936, 0.000028847322, -1043877.4, -13890.127 
7.75433e+2, 2.0488526e+2, -956884.9, -1106883.1, -5123.0107, -0.0009804799, 0.00085227337, -956710.1, -24585.629 
7.7542955e+2, 2.1487062e+2, -861815.3, -1010350.0, -5165.3438, 0.000033486016, -0.0003463582, -861635.94, -27367.95 
7.754262e+2, 2.248554e+2, -774191.7, -930370.8, -4672.424, 0.00021955259, -0.00028996266, -774052.0, -37634.844 
7.7542293e+2, 2.3483959e+2, -677478.4, -832949.56, -4578.4917, -0.00046940654, -0.0012065613, -677343.7, -38771.66 
7.7541965e+2, 2.4482317e+2, -590330.4, -754046.9, -4246.326, -0.00031281248, -0.0006327215, -590220.3, -49487.332 
7.7541643e+2, 2.5480613e+2, -495065.72, -657221.2, -4250.658, 0.00074470934, -0.00046066588, -494954.38, -52054.46 
7.7541333e+2, 2.6478848e+2, -407733.88, -577824.9, -3418.4597, 0.00083233125, 0.00030142843, -407665.2, -62592.38 
7.7541035e+2, 2.7477026e+2, -310978.2, -480125.44, -3287.862, -0.00011365912, -0.000506513, -310914.3, -63662.82 
7.7540743e+2, 2.847514e+2, -223892.03, -401746.56, -2572.823, -0.0006969276, -0.0002022702, -223854.83, -74418.33 
7.754045e+2, 2.947319e+2, -127915.26, -304402.4, -2512.3193, -0.0009382241, -0.0011464139, -127879.51, -76251.89 
7.7540183e+2, 3.0471516e+2, -41639.688, -175201.14, -1314.3073, -0.00012567708, 0.000083496656, -41626.758, -41626.758 
7.7539927e+2, 3.1470126e+2, -43288.242, -175613.7, -1049.2289, 0.0020619472, 0.0015531939, -43279.92, -43279.92 
7.753967e+2, 3.2469186e+2, 19352.86, -43688.32, -875.21155, -0.0008101238, -0.0023818228, 19365.008, 19365.008 
7.8549457e+2, 3.5044804e+1, -2514148.5, -2603801.8, -699.14044, 0.010315954, -0.0063901274, -2514143.0, 82417.99 
7.8549165e+2, 4.5040223e+1, -2419125.5, -2517392.3, -1219.6089, -0.015007453, 0.008368224, -2419110.5, 79495.49 
7.85489e+2, 5.503498e+1, -2325426.8, -2421853.3, -1447.5948, 0.0015837613, -0.00032086053, -2325405.0, 75252.21 
7.8548616e+2, 6.5029216e+1, -2238370.3, -2341377.5, -2167.555, 0.006222004, -0.0027269311, -2238324.8, 64389.047 
7.854832e+2, 7.502297e+1, -2142495.8, -2244619.3, -2119.8247, -0.0010153253, -0.0008343916, -2142451.8, 62323.188 
7.8548e+2, 8.501611e+1, -2055180.5, -2164964.5, -2947.5212, -0.0026287686, 0.00066502724, -2055101.4, 51740.82 
7.8547686e+2, 9.500864e+1, -1959754.4, -2068369.0, -3035.9458, 0.0013545739, -0.0001800126, -1959669.6, 49245.69 
7.8547364e+2, 1.0500059e+2, -1872410.3, -1988528.8, -3782.1118, 0.0019831904, 0.00012351501, -1872287.1, 38707.047 
7.854702e+2, 1.1499196e+2, -1776584.3, -1891733.1, -3814.035, -0.0007413926, -0.0003317601, -1776458.1, 36620.715 
7.854668e+2, 1.2498273e+2, -1689355.8, -1812365.3, -4247.412, -0.0010199085, 0.00013982323, -1689209.4, 25959.986 
7.8546333e+2, 1.3497289e+2, -1593601.0, -1715561.6, -4188.8057, 0.0011716614, -0.00044939134, -1593457.4, 23808.371 
7.854598e+2, 1.4496246e+2, -1506265.9, -1635659.9, -4499.547, 0.0010471662, 0.0002132031, -1506109.6, 13258.253 
7.854563e+2, 1.5495147e+2, -1410831.3, -1539009.5, -4724.0923, -0.0013862972, 0.00013027508, -1410657.4, 10818.197 
7.854527e+2, 1.6493985e+2, -1323693.6, -1459859.6, -5075.7446, -0.0014647484, 0.00045216698, -1323504.8, 84.71933 
7.854491e+2, 1.749276e+2, -1227439.1, -1362782.4, -4928.164, 0.0008540748, -0.0009914433, -1227259.9, -1550.5437 
7.854455e+2, 1.8491481e+2, -1139995.9, -1282876.1, -4698.671, 0.00134318, -0.0005747269, -1139841.5, -12006.614 
7.854419e+2, 1.9490142e+2, -1044778.06, -1186334.9, -4852.291, -0.00006648081, -0.000191804, -1044611.94, -14645.883 
7.8543836e+2, 2.0488742e+2, -957652.3, -1107077.8, -4921.5806, -0.00056340784, 0.00055691134, -957490.4, -25387.084 
7.854348e+2, 2.148728e+2, -861428.5, -1009995.75, -4770.787, -0.00013866821, -0.00036710233, -861275.5, -27028.883 
7.8543127e+2, 2.2485758e+2, -774070.0, -930250.44, -4209.7017, -0.00001420735, -0.00008732018, -773956.6, -37560.96 
7.854278e+2, 2.3484178e+2, -678861.94, -833577.2, -4271.147, -0.0002211049, -0.0008167961, -678744.1, -40193.62 
7.8542435e+2, 2.4482536e+2, -591697.2, -754493.7, -3950.4778, -0.000050981256, -0.00024237277, -591601.4, -50890.027 
7.85421e+2, 2.5480834e+2, -495038.22, -657010.7, -3807.2622, 0.00053243036, -0.00027226558, -494948.78, -52070.64 
7.854178e+2, 2.6479074e+2, -407626.9, -577525.06, -2931.9265, 0.0006105402, 0.00028621726, -407576.3, -62525.465 
7.8541464e+2, 2.7477252e+2, -312142.34, -480465.34, -2891.3662, 0.00014789002, -0.00072295364, -312092.7, -64863.355 
7.854115e+2, 2.8475365e+2, -225638.03, -402312.47, -2214.95, -0.00043795907, -0.00007129185, -225610.28, -76196.18 
7.854085e+2, 2.9473418e+2, -129382.11, -304877.5, -2120.5454, -0.0011994358, -0.00007021925, -129356.49, -77751.586 
7.854057e+2, 3.047175e+2, -42847.58, -175384.92, -899.2211, -0.00026135636, 0.00027948918, -42841.48, -42841.48 
7.85403e+2, 3.147036e+2, -44371.742, -175713.77, -866.8709, 0.0027671694, -0.0011574633, -44366.02, -44366.02 
7.8540033e+2, 3.246943e+2, 18126.82, -43940.016, -102.19385, -0.0012022287, -0.00050332805, 18126.988, 18126.988 
7.955022e+2, 3.5047227e+1, -2511746.8, -2599213.8, 2184.2568, 0.00565037, 0.001807679, -2511692.3, 84845.086 
7.954996e+2, 4.504264e+1, -2419782.8, -2518356.0, -2276.6602, -0.008527262, 0.003869698, -2419730.3, 78851.914 
7.9549664e+2, 5.503737e+1, -2325889.8, -2422707.3, -2458.009, 0.00043341157, -0.0013998228, -2325827.5, 74806.42 
7.954936e+2, 6.5031606e+1, -2238229.0, -2341150.3, -2611.647, 0.0036477277, -0.0016937079, -2238162.8, 64527.402 
7.954905e+2, 7.502539e+1, -2142371.3, -2244417.8, -2578.2449, 0.0011358965, 0.0010481529, -2142306.3, 62445.137 
7.954872e+2, 8.5018516e+1, -2055365.4, -2165296.8, -3532.0085, -0.0004252597, 0.0022607034, -2055252.0, 51566.574 
7.954839e+2, 9.501102e+1, -1959924.4, -2068711.5, -3615.026, -0.0010390196, -0.000017103766, -1959804.4, 49087.695 
7.954805e+2, 1.0500295e+2, -1872487.8, -1988668.4, -4272.7837, -0.00045933097, -0.0005001052, -1872330.9, 38640.35 
7.95477e+2, 1.149943e+2, -1776669.5, -1891876.6, -4307.6147, 0.0013165153, -0.0011400167, -1776508.6, 36547.258 
7.954734e+2, 1.2498507e+2, -1689278.6, -1812170.4, -4772.541, 0.0010050135, -0.00014644791, -1689093.6, 26052.732 
7.954697e+2, 1.3497525e+2, -1593537.9, -1715359.5, -4722.5024, -0.0013726181, 0.00055362715, -1593355.1, 23887.361 
7.9546607e+2, 1.4496481e+2, -1506704.5, -1636547.6, -5121.9697, -0.0010723864, 0.00073722354, -1506502.8, 12842.078 
7.954624e+2, 1.5495373e+2, -1411282.3, -1539868.0, -5324.7246, 0.0019362754, -0.0016856996, -1411062.1, 10391.281 
7.954587e+2, 1.6494212e+2, -1323410.5, -1459286.8, -5476.242, 0.0018223156, -0.0011877485, -1323190.1, 377.27084 
7.954549e+2, 1.7492993e+2, -1227193.1, -1362203.3, -5343.125, -0.0014756237, 0.00016256113, -1226982.0, -1295.413 
7.954511e+2, 1.8491712e+2, -1140321.4, -1283476.3, -5376.4316, -0.0019133532, 0.0009453466, -1140119.8, -12307.669 
7.954474e+2, 1.9490369e+2, -1045104.3, -1186908.4, -5513.8765, 0.00058585627, -0.0008411731, -1044890.25, -14946.362 
7.9544365e+2, 2.0488968e+2, -957409.1, -1106513.5, -5322.5566, 0.001104932, -0.00059004826, -957219.4, -25138.176 
7.9543996e+2, 2.148751e+2, -861222.44, -1009425.06, -5181.1357, -0.0004490081, -0.00026777954, -861041.5, -26817.537 
7.9543626e+2, 2.2485991e+2, -774227.7, -930534.7, -4909.938, -0.00059981365, 0.0009803895, -774073.56, -37700.72 
7.954326e+2, 2.348441e+2, -678991.06, -833840.94, -4965.0996, 0.0007049797, 0.0009202867, -678832.06, -40304.215 
7.9542905e+2, 2.448277e+2, -591453.94, -753947.94, -4297.6724, 0.0006054862, 0.0012739693, -591340.4, -50651.75 
7.954256e+2, 2.5481072e+2, -494869.22, -656452.8, -4154.9136, -0.0010157806, 0.0000633824, -494762.44, -51907.348 
7.954222e+2, 2.647931e+2, -407631.7, -577428.25, -3604.1238, -0.00083499454, 0.00021780693, -407555.22, -62527.63 
7.9541886e+2, 2.747749e+2, -312131.8, -480341.2, -3567.2078, 0.001317807, -0.00037308782, -312056.22, -64850.26 
7.954156e+2, 2.8475606e+2, -225493.81, -401941.6, -2715.2512, 0.0011089072, 0.0007064403, -225452.05, -76061.555 
7.954124e+2, 2.9473662e+2, -129238.23, -304480.28, -2617.7163, -0.0017157143, 0.0011188776, -129199.13, -77618.15 
7.954095e+2, 3.0471995e+2, -42839.906, -175329.98, -1298.7501, -0.0009303193, 0.000039346625, -42827.176, -42827.176 
7.9540676e+2, 3.1470603e+2, -44434.848, -175704.77, -1254.6636, 0.0040632933, -0.0048360787, -44422.855, -44422.855 
7.954039e+2, 3.246969e+2, 19505.957, -40872.96, -562.50824, -0.002634808, 0.0029309874, 19511.197, 19511.197 
8.0551004e+2, 3.5049766e+1, -2506571.0, -2597705.0, 2899.975, -0.00064978475, 0.0042127953, -2506479.0, 90033.6 
8.0550754e+2, 4.5045105e+1, -2422742.5, -2519099.8, -2506.5938, 0.0015211734, 0.0001221709, -2422677.3, 75880.875 
8.055043e+2, 5.503994e+1, -2325101.3, -2421622.8, -1918.4172, 0.000051478553, -0.0005797469, -2325063.3, 75545.484 
8.055011e+2, 6.503421e+1, -2236518.0, -2340617.5, -1902.595, -0.00010068813, 0.00023303517, -2236483.3, 66181.67 
8.054979e+2, 7.5027937e+1, -2141233.3, -2244150.0, -2149.8103, 0.00095788896, 0.00069391343, -2141188.5, 63537.855 
8.054944e+2, 8.502104e+1, -2054322.0, -2164869.3, -3226.2017, 0.00082328636, 0.0012563386, -2054227.9, 52565.945 
8.05491e+2, 9.501354e+1, -1958847.8, -2068255.5, -3208.7283, -0.0004937757, -0.000060379367, -1958753.6, 50113.64 
8.054874e+2, 1.0500546e+2, -1871561.9, -1988425.3, -3797.234, -0.00050529715, -0.00013009473, -1871438.6, 39507.938 
8.054837e+2, 1.149968e+2, -1775980.5, -1891752.9, -3887.3445, 0.00079410593, -0.00089908985, -1775850.1, 37181.293 
8.0548e+2, 1.2498755e+2, -1688757.3, -1812067.9, -4475.685, 0.00067633303, -0.00018989822, -1688595.0, 26527.03 
8.054762e+2, 1.3497773e+2, -1593125.5, -1715335.9, -4609.9893, -0.0008255037, 0.000093194714, -1592951.9, 24266.496 
8.054724e+2, 1.4496727e+2, -1506171.6, -1636219.3, -4935.0176, -0.0005780183, 0.00042860775, -1505984.6, 13336.242 
8.054685e+2, 1.5495619e+2, -1410529.5, -1539457.9, -4721.5522, 0.0014473294, -0.0012924351, -1410356.8, 11072.49 
8.054646e+2, 1.6494456e+2, -1323041.3, -1459221.8, -4765.4365, 0.0013006466, -0.0006974523, -1322874.6, 668.599 
8.054607e+2, 1.7493239e+2, -1227556.0, -1362508.0, -4983.9863, -0.0010703626, 0.00016596235, -1227372.3, -1709.5552 
8.0545676e+2, 1.8491957e+2, -1140640.1, -1283449.4, -5101.322, -0.0014416011, 0.0008651903, -1140458.1, -12670.0205 
8.054529e+2, 1.9490615e+2, -1044879.7, -1186670.0, -4887.983, 0.00025078416, -0.0005870277, -1044711.4, -14791.588 
8.0544895e+2, 2.0489214e+2, -957430.5, -1106552.6, -4576.051, 0.0006918162, -0.00024897067, -957290.2, -25233.197 
8.0544513e+2, 2.1487758e+2, -862031.25, -1009865.5, -4713.3564, -0.00018905698, -0.00008761379, -861881.1, -27681.318 
8.0544126e+2, 2.2486238e+2, -774900.2, -930705.6, -4515.8833, -0.00026000346, 0.000977332, -774769.4, -38420.695 
8.054375e+2, 2.3484659e+2, -678708.0, -833557.1, -4366.5195, 0.0004886321, 0.00069179496, -678584.94, -40081.434 
8.0543375e+2, 2.4483019e+2, -591385.3, -753767.44, -3664.8457, 0.00030457083, 0.0010959113, -591302.6, -50638.426 
8.054301e+2, 2.5481322e+2, -496163.3, -656950.3, -3706.1567, -0.0008891695, 0.00024862477, -496077.94, -53247.41 
8.054266e+2, 2.6479563e+2, -409290.1, -578091.75, -3259.2275, -0.0006023757, 0.00054730446, -409227.2, -64224.273 
8.05423e+2, 2.7477744e+2, -313034.47, -480654.53, -3214.665, 0.0013063147, -0.00014024958, -312972.8, -65791.67 
8.054197e+2, 2.847586e+2, -225900.2, -401925.47, -2292.2104, 0.0009922155, 0.0007260039, -225870.36, -76504.8 
8.054164e+2, 2.947392e+2, -129534.555, -304416.97, -2237.3728, -0.0017886276, 0.0007931964, -129505.94, -77950.05 
8.054132e+2, 3.0472255e+2, -43903.42, -175604.03, -1052.9569, -0.00075082446, 0.00036124137, -43895.004, -43895.004 
8.0541027e+2, 3.1470865e+2, -47130.56, -176778.05, -934.2012, 0.004736912, -0.002728927, -47123.83, -47123.83 
8.0540735e+2, 3.2469955e+2, 17925.816, -40651.16, -0.025087, -0.0033114185, 0.002043236, 17925.816, 17925.816 
8.1551814e+2, 3.5052404e+1, -2509602.0, -2603805.8, -147.57582, -0.008308893, 0.0018489545, -2509601.8, 86884.69 
8.155154e+2, 4.504761e+1, -2421463.0, -2516681.5, -2441.396, 0.014403047, -0.0029787351, -2421400.3, 77133.2 
8.15512e+2, 5.5042666e+1, -2323930.8, -2419256.3, -1914.388, 0.00028026995, 0.0017916806, -2323892.3, 76689.67 
8.1550866e+2, 6.503698e+1, -2236997.3, -2341564.8, -2519.716, -0.0048302654, 0.0028795074, -2236936.5, 65701.125 
8.1550527e+2, 7.5030595e+1, -2141714.5, -2245101.8, -2750.152, -0.0011568688, -0.0015114081, -2141641.5, 63058.695 
8.155017e+2, 8.502366e+1, -2054309.1, -2164807.3, -3782.053, 0.0012664932, -0.0018871794, -2054179.8, 52588.37 
8.1549805e+2, 9.50162e+1, -1958820.5, -2068192.4, -3769.712, 0.0024565507, -0.00027865867, -1958690.8, 50150.516 
8.154943e+2, 1.0500812e+2, -1871754.4, -1988771.0, -4347.8345, 0.001399727, 0.0010610339, -1871593.0, 39327.496 
8.154905e+2, 1.1499943e+2, -1776167.0, -1892097.8, -4435.054, -0.0018900011, 0.00020810663, -1775997.6, 37008.004 
8.1548655e+2, 1.2499014e+2, -1689037.5, -1812607.4, -5010.816, -0.0016182794, -0.000030071971, -1688834.6, 26262.045 
8.154827e+2, 1.3498026e+2, -1593438.1, -1715873.1, -5136.044, 0.002254603, -0.0015904767, -1593223.1, 23970.469 
8.154787e+2, 1.4496982e+2, -1505791.6, -1635432.3, -5475.8164, 0.0020540436, -0.0005724115, -1505560.8, 13735.022 
8.154746e+2, 1.5495883e+2, -1410147.4, -1538637.4, -5282.343, -0.00224199, 0.00094342756, -1409930.5, 11472.868 
8.154705e+2, 1.6494721e+2, -1323446.3, -1460060.5, -5378.4873, -0.0024282457, 0.0015726537, -1323234.9, 282.511 
8.1546646e+2, 1.7493494e+2, -1227984.1, -1363354.9, -5576.208, 0.0015926679, -0.00079836673, -1227754.8, -2117.1296 
8.1546247e+2, 1.8492211e+2, -1140244.9, -1282635.3, -5626.035, 0.0021249102, -0.0005557008, -1140022.9, -12259.664 
8.154583e+2, 1.9490878e+2, -1044496.06, -1185820.9, -5432.685, -0.0009520128, 0.00041677963, -1044287.5, -14393.498 
8.154543e+2, 2.048948e+2, -957702.0, -1107095.9, -5212.5527, -0.0015051434, 0.0013419685, -957520.4, -25489.287 
8.1545025e+2, 2.1488017e+2, -862311.44, -1010410.3, -5335.2813, 0.0005324894, 0.00015847989, -862119.5, -27945.13 
8.154463e+2, 2.2486497e+2, -774649.75, -930169.75, -4959.903, 0.0008275407, 0.000072493756, -774491.75, -38168.42 
8.154423e+2, 2.348492e+2, -678498.56, -833010.0, -4819.1753, -0.0007372098, -0.001191726, -678348.4, -39870.527 
8.154384e+2, 2.4483283e+2, -591521.56, -753967.5, -4391.227, -0.0008286573, -0.00050170504, -591402.94, -50764.59 
8.1543463e+2, 2.5481585e+2, -496267.9, -657130.56, -4427.655, 0.00062202517, 0.00030015124, -496146.13, -53341.48 
8.154309e+2, 2.6479828e+2, -409216.2, -577926.56, -3735.2278, 0.001001518, 0.001213867, -409133.53, -64156.543 
8.1542724e+2, 2.747801e+2, -312988.0, -480484.66, -3684.788, 0.00026198177, 0.000012631532, -312906.97, -65751.81 
8.154237e+2, 2.8476128e+2, -225871.11, -401733.97, -2755.687, -0.00056637794, 0.000118189644, -225827.94, -76488.43 
8.154202e+2, 2.9474184e+2, -129537.41, -304235.4, -2700.0022, -0.0015292764, -0.0008313977, -129495.69, -77965.89 
8.1541693e+2, 3.0472526e+2, -43776.87, -175223.36, -1876.674, 0.000101964, 0.0011781342, -43750.082, -43750.082 
8.154138e+2, 3.1471145e+2, -46917.12, -176369.33, -1768.2189, 0.0048236283, 0.0043368237, -46892.973, -46892.973 
8.154108e+2, 3.2470223e+2, 17753.688, -40921.266, 337.41483, -0.0034277376, -0.0025936037, 17755.629, 17755.629 
8.255263e+2, 3.5055336e+1, -2509034.8, -2604547.5, -300.99255, -0.0067755845, -0.00040275458, -2509033.8, 87423.984 
8.2552326e+2, 4.5050535e+1, -2417782.8, -2515015.5, -367.95154, 0.012918238, -0.000929947, -2417781.3, 80723.55 
8.255198e+2, 5.5045545e+1, -2322128.3, -2418520.8, -980.06866, 0.000121050936, 0.0011268983, -2322118.3, 78435.38 
8.255163e+2, 6.5039843e+1, -2236229.8, -2341381.5, -2346.4944, -0.004321341, 0.0016706405, -2236177.3, 66432.305 
8.255127e+2, 7.503345e+1, -2141088.3, -2244990.0, -2292.6748, -0.0006437101, -0.0011593376, -2141037.8, 63634.51 
8.25509e+2, 8.50265e+1, -2053582.3, -2164561.8, -3142.134, 0.0013751211, -0.0011379949, -2053493.4, 53246.95 
8.255052e+2, 9.501902e+1, -1957874.6, -2067845.1, -3238.4888, 0.0017613255, -0.0002683363, -1957779.4, 51034.313 
8.2550126e+2, 1.0501093e+2, -1870707.1, -1988403.8, -3851.586, 0.0009496487, 0.0007693487, -1870581.3, 40311.715 
8.2549727e+2, 1.1500223e+2, -1775119.4, -1891735.1, -3863.9307, -0.0010620718, 0.00007651358, -1774991.5, 37986.723 
8.254932e+2, 1.2499293e+2, -1688210.0, -1812284.3, -4371.7563, -0.0009069337, 0.00015180794, -1688056.1, 27013.162 
8.2548916e+2, 1.3498305e+2, -1593123.5, -1715809.1, -4300.4546, 0.0014626881, -0.0009711669, -1592972.9, 24193.328 
8.25485e+2, 1.449726e+2, -1505676.3, -1635477.1, -4650.8, 0.0012082946, -0.00015723106, -1505509.9, 13758.779 
8.254807e+2, 1.549616e+2, -1409799.6, -1538599.1, -4899.1284, -0.0016721392, 0.0005544983, -1409613.5, 11762.895 
8.254765e+2, 1.6494997e+2, -1323026.6, -1459766.6, -5128.2324, -0.0016791368, 0.0011336894, -1322834.5, 655.86896 
8.254723e+2, 1.749377e+2, -1227799.9, -1363197.4, -4915.8394, 0.0012686207, -0.00055086386, -1227621.6, -2011.0841 
8.2546806e+2, 1.849249e+2, -1140315.1, -1282786.4, -4877.6704, 0.0016389423, -0.00019091848, -1140148.3, -12412.159 
8.2546383e+2, 1.9491152e+2, -1044583.8, -1185995.3, -5142.15, -0.00067053654, 0.0003392625, -1044397.1, -14530.037 
8.254596e+2, 2.0489754e+2, -957629.6, -1106900.5, -5065.847, -0.0011194382, 0.0010976798, -957457.94, -25453.785 
8.2545537e+2, 2.1488294e+2, -862161.06, -1010191.4, -4863.542, 0.00032333075, 0.000035462304, -862001.44, -27854.158 
8.2545125e+2, 2.2486773e+2, -774995.3, -930276.06, -4398.401, 0.000539471, 0.000107677246, -774870.8, -38574.637 
8.2544714e+2, 2.3485197e+2, -679683.2, -833556.7, -4517.5503, -0.0005603993, -0.00094703113, -679550.7, -41099.98 
8.25443e+2, 2.448356e+2, -592604.75, -754345.44, -4152.63, -0.00056610303, -0.00036272674, -592498.2, -51887.074 
8.254391e+2, 2.5481865e+2, -496390.16, -657057.56, -4030.714, 0.0005887474, -0.0000111640375, -496289.1, -53511.746 
8.2543516e+2, 2.6480106e+2, -409182.1, -577761.9, -3241.884, 0.00076010404, 0.00093191327, -409119.75, -64170.207 
8.2543135e+2, 2.747829e+2, -313608.88, -480637.8, -3195.6677, -0.00010878321, 0.00028525037, -313547.78, -66420.23 
8.2542765e+2, 2.847641e+2, -227152.0, -402220.5, -2273.9375, -0.00057255896, 0.00033893855, -227122.47, -77810.69 
8.254241e+2, 2.947447e+2, -131545.66, -305019.53, -2229.8467, -0.000614685, -0.0013327318, -131517.0, -80015.0 
8.254206e+2, 3.047281e+2, -45322.406, -175754.8, -1476.5398, 0.00017902491, 0.0007658597, -45305.695, -45305.695 
8.254172e+2, 3.1471434e+2, -46866.348, -176103.9, -1437.0336, 0.0021033385, 0.004888395, -46850.37, -46850.37 
8.254141e+2, 3.2470506e+2, 16277.275, -42488.26, 873.1782, -0.0016114445, -0.0018328518, 16290.246, 16290.246 
8.3553463e+2, 3.5058516e+1, -2507901.0, -2602095.3, -1493.2662, 0.0021557363, -0.0025464345, -2507877.3, 88549.195 
8.3553106e+2, 4.5053804e+1, -2418838.5, -2517317.0, -888.86566, -0.00035885084, 0.0053159273, -2418830.5, 79642.305 
8.355276e+2, 5.504856e+1, -2323257.5, -2420840.0, -1469.5945, -0.00036498645, -0.0020272618, -2323235.3, 77288.9 
8.3552396e+2, 6.504277e+1, -2236123.0, -2341143.3, -2960.0037, 0.0004501731, -0.0026809291, -2236039.8, 66541.125 
8.355202e+2, 7.5036466e+1, -2140943.3, -2244730.0, -2915.863, 0.0019943952, 0.001284382, -2140861.5, 63781.254 
8.355163e+2, 8.502953e+1, -2053727.8, -2164907.3, -3637.6519, 0.0011848134, 0.0027971973, -2053608.9, 53101.79 
8.3551234e+2, 9.5021987e+1, -1958045.5, -2068208.6, -3735.4692, -0.0019496368, -0.0000805817, -1957919.0, 50865.613 
8.355082e+2, 1.0501386e+2, -1870762.5, -1988456.9, -4398.709, -0.0014537207, -0.0007422255, -1870598.4, 40265.81 
8.355042e+2, 1.15005165e+2, -1775197.8, -1891805.4, -4415.2173, 0.0026356438, -0.0010781235, -1775030.8, 37918.637 
8.3549994e+2, 1.2499589e+2, -1688116.1, -1812031.4, -5062.5522, 0.0022541024, 0.00035247413, -1687909.6, 27130.715 
8.3549553e+2, 1.3498604e+2, -1592970.9, -1715526.9, -5001.68, -0.002565908, 0.0015513143, -1592767.1, 24369.79 
8.3549124e+2, 1.4497556e+2, -1506115.3, -1636442.0, -5157.022, -0.0025414529, 0.0014315055, -1505911.5, 13328.02 
8.3548695e+2, 1.5496445e+2, -1410315.5, -1539586.3, -5385.0615, 0.0024127914, -0.0020213046, -1410091.6, 11256.802 
8.3548254e+2, 1.6495281e+2, -1322663.9, -1458968.6, -5789.1333, 0.002753496, -0.0015583728, -1322418.4, 1044.05 
8.3547807e+2, 1.7494065e+2, -1227395.1, -1362358.5, -5596.93, -0.0015733079, 0.000708009, -1227163.4, -1581.741 
8.3547366e+2, 1.8492784e+2, -1140793.9, -1283783.6, -5429.9683, -0.0022414082, 0.0016704901, -1140588.0, -12880.803 
8.354693e+2, 1.9491439e+2, -1045126.94, -1187006.1, -5666.2256, 0.0008198675, -0.00064135814, -1044901.0, -15061.878 
8.354649e+2, 2.0490037e+2, -957313.75, -1106146.1, -5651.316, 0.001383491, -0.0006759693, -957099.44, -25123.088 
8.354605e+2, 2.1488583e+2, -861829.3, -1009405.7, -5467.1484, -0.0006911488, -0.00040639093, -861627.06, -27508.186 
8.354562e+2, 2.2487067e+2, -775225.44, -930754.94, -5075.6035, -0.000925298, 0.0009284994, -775060.0, -38792.508 
8.354519e+2, 2.3485488e+2, -679923.75, -834023.5, -5180.3184, 0.0007561622, 0.0010880919, -679749.8, -41327.56 
8.3544767e+2, 2.448385e+2, -592407.3, -753894.75, -4602.0273, 0.00084080966, 0.00124482, -592276.25, -51693.566 
8.3544356e+2, 2.5482154e+2, -496242.2, -656591.7, -4483.5728, -0.00078725716, -0.000620709, -496116.9, -53368.13 
8.3543944e+2, 2.64804e+2, -409171.7, -577625.1, -3883.4775, -0.0010834484, -0.00013638973, -409082.22, -64161.41 
8.354355e+2, 2.7478585e+2, -313577.5, -480497.28, -3838.1567, 0.00006989739, 0.000675042, -313489.28, -66390.74 
8.354316e+2, 2.847671e+2, -227119.66, -402060.63, -2918.9421, 0.000705175, 0.0012741322, -227070.95, -77788.35 
8.354279e+2, 2.9474768e+2, -131489.47, -304860.97, -2872.7617, 0.00079228845, -0.0008560014, -131441.89, -79969.14 
8.354242e+2, 3.0473107e+2, -45261.527, -175620.25, -1873.9243, -0.00045633918, -0.0006834195, -45234.594, -45234.594 
8.3542067e+2, 3.147173e+2, -46820.27, -175985.53, -1825.8065, -0.003054753, -0.00012887378, -46794.465, -46794.465 
8.354175e+2, 3.247081e+2, 15228.825, -44405.61, 316.0428, 0.0017797762, 0.0036131202, 15230.5, 15230.5 
8.4554285e+2, 3.5061866e+1, -2507063.5, -2601060.5, -742.2326, 0.004574202, -0.0031480407, -2507057.5, 89336.09 
8.4553915e+2, 4.5057145e+1, -2416521.8, -2517063.8, -722.3007, -0.004325763, 0.0054041813, -2416516.5, 81923.586 
8.455355e+2, 5.505182e+1, -2322279.0, -2421261.5, -812.0145, -0.00031779593, -0.0017575772, -2322272.5, 78219.78 
8.455317e+2, 6.504599e+1, -2234973.8, -2340737.8, -1988.5446, 0.0018044192, -0.0025693453, -2234936.3, 67613.07 
8.4552777e+2, 7.5039667e+1, -2139090.8, -2243989.3, -2148.975, 0.0019610499, 0.0009127829, -2139046.8, 65564.65 
8.4552366e+2, 8.503271e+1, -2051961.8, -2164343.0, -3044.9263, 0.0007806309, 0.0023781147, -2051879.4, 54800.188 
8.4551954e+2, 9.502514e+1, -1956902.3, -2067964.1, -3170.872, -0.0017219378, -0.00012104347, -1956811.9, 51941.867 
8.455153e+2, 1.0501699e+2, -1870096.1, -1988266.6, -3913.2449, -0.0012678917, -0.00056079717, -1869966.6, 40866.887 
8.4551096e+2, 1.1500828e+2, -1775127.3, -1891888.9, -3984.334, 0.0021255536, -0.0008268369, -1774991.5, 37927.402 
8.455066e+2, 1.24998994e+2, -1687794.5, -1811978.1, -4641.2344, 0.0018985061, 0.00031981638, -1687621.3, 27388.686 
8.455021e+2, 1.3498913e+2, -1591617.8, -1714971.3, -4760.091, -0.0019246456, 0.00087955256, -1591434.3, 25672.293 
8.4549755e+2, 1.4497864e+2, -1504904.3, -1635926.0, -4966.5625, -0.0019401141, 0.00093801663, -1504716.3, 14493.108 
8.454931e+2, 1.5496753e+2, -1410421.6, -1539721.1, -4814.763, 0.0019380477, -0.001506943, -1410242.6, 11075.62 
8.4548855e+2, 1.6495588e+2, -1323028.1, -1459184.6, -5089.507, 0.0021645855, -0.000961947, -1322838.1, 594.1317 
8.454839e+2, 1.7494372e+2, -1226948.5, -1362186.1, -5307.8115, -0.0013275022, 0.00046783083, -1226740.5, -1188.831 
8.454793e+2, 1.849309e+2, -1140260.0, -1283432.1, -5214.0947, -0.0018512747, 0.0012340595, -1140070.4, -12393.156 
8.454747e+2, 1.9491746e+2, -1045410.8, -1187067.4, -4953.7207, 0.0006757842, -0.0006271463, -1045237.75, -15428.772 
8.4547013e+2, 2.0490345e+2, -957983.9, -1106515.5, -4781.7827, 0.0011534827, -0.00046235573, -957830.06, -25883.871 
8.4546566e+2, 2.1488892e+2, -862303.6, -1009684.8, -4975.344, -0.00053970295, -0.000233241, -862135.8, -28047.1 
8.4546113e+2, 2.2487375e+2, -775375.75, -930620.25, -4681.1357, -0.0007824286, 0.0009957717, -775234.7, -38997.39 
8.4545666e+2, 2.3485798e+2, -679832.94, -833785.9, -4466.6484, 0.00046883285, 0.0009924038, -679703.44, -41311.57 
8.4545225e+2, 2.4484162e+2, -592727.44, -753949.94, -3757.6104, 0.0006155428, 0.0012289486, -592639.9, -52087.65 
8.4544796e+2, 2.5482467e+2, -497411.75, -657090.3, -3822.4302, -0.00041515366, -0.00030935943, -497320.3, -54602.06 
8.454437e+2, 2.6480713e+2, -410547.22, -578102.25, -3305.1714, -0.0008044117, 0.0000124124845, -410482.06, -65591.88 
8.4543955e+2, 2.74789e+2, -314620.2, -480772.22, -3228.5015, -0.00050290214, 0.00014291893, -314557.47, -67489.67 
8.454355e+2, 2.8477022e+2, -227862.52, -402246.13, -2304.9521, 0.00034552548, 0.0009807212, -227832.06, -78580.37 
8.4543157e+2, 2.9475087e+2, -131977.17, -304912.97, -2248.6394, 0.0018384389, 0.000082159015, -131947.94, -80506.36 
8.4542775e+2, 3.0473426e+2, -45952.93, -175912.98, -1144.2397, -0.000057320474, -0.00020045391, -45942.855, -45942.855 
8.4542406e+2, 3.1472045e+2, -48099.25, -176552.27, -1151.8429, -0.005622122, -0.0019658026, -48088.92, -48088.92 
8.454207e+2, 3.2471132e+2, 12416.09, -44662.383, 989.37994, 0.003270396, 0.0031324641, 12433.234, 12433.234 
8.5555106e+2, 3.5065362e+1, -2507302.0, -2601568.0, -211.34406, 0.0016709679, -0.0025152422, -2507301.5, 89057.98 
8.555473e+2, 4.5060557e+1, -2416714.0, -2517380.3, -1598.8912, -0.0008060826, 0.00052370614, -2416688.5, 81718.03 
8.5554343e+2, 5.5055296e+1, -2322375.8, -2421529.5, -1681.6857, 0.00012619658, 0.0012983792, -2322347.3, 78111.0 
8.5553944e+2, 6.504944e+1, -2235206.8, -2341308.0, -2443.0972, 0.00034379878, 0.0011681771, -2235150.5, 67365.01 
8.555353e+2, 7.5043005e+1, -2139395.5, -2244597.3, -2601.4597, -0.0002698199, -0.0017641712, -2139331.3, 65247.375 
8.5553116e+2, 8.5036004e+1, -2052228.9, -2164842.0, -3716.4116, 0.00018598896, -0.001590946, -2052106.3, 54540.918 
8.555268e+2, 9.5028436e+1, -1957158.4, -2068442.1, -3835.39, 0.0016979896, -0.00034420541, -1957026.4, 51695.0 
8.555224e+2, 1.0502028e+2, -1870220.5, -1988536.1, -4610.089, 0.0010051144, 0.0010083292, -1870041.3, 40760.082 
8.555178e+2, 1.1501155e+2, -1775214.5, -1892136.5, -4682.2593, -0.0018607706, 0.0005787508, -1775027.4, 37859.492 
8.555132e+2, 1.2500222e+2, -1687995.5, -1812438.4, -5035.4424, -0.0013577649, 0.00009777584, -1687792.0, 27186.223 
8.5550874e+2, 1.349923e+2, -1591917.9, -1715478.1, -5147.7773, 0.0025303438, -0.0024234198, -1591703.8, 25371.783 
8.5550404e+2, 1.4498183e+2, -1504684.5, -1635383.8, -5799.0903, 0.0022037574, -0.0012664279, -1504427.6, 14750.491 
8.554992e+2, 1.5497081e+2, -1410108.3, -1539133.0, -5662.4307, -0.0023305234, 0.0015668562, -1409860.3, 11425.908 
8.5549444e+2, 1.6495916e+2, -1323394.9, -1460014.0, -5542.376, -0.0026031074, 0.0023618604, -1323170.5, 229.81773 
8.5548973e+2, 1.7494689e+2, -1227399.3, -1363054.8, -5739.832, 0.0014516033, -0.0010194044, -1227156.9, -1636.1979 
8.5548496e+2, 1.8493406e+2, -1139827.8, -1282457.0, -5957.4917, 0.0020526918, -0.0011064089, -1139579.4, -11933.136 
8.5548013e+2, 1.9492072e+2, -1044922.06, -1186047.0, -5720.9043, -0.00087082916, 0.0002090585, -1044690.5, -14913.492 
8.554754e+2, 2.0490673e+2, -958336.3, -1107237.9, -5340.969, -0.0013920655, 0.0014086063, -958145.0, -26230.957 
8.554707e+2, 2.1489213e+2, -862709.4, -1010438.2, -5513.2495, 0.00056368974, 0.00044918098, -862503.94, -28446.732 
8.5546607e+2, 2.2487696e+2, -775016.06, -929845.3, -5281.084, 0.0006695246, 0.0004311245, -774836.1, -38630.28 
8.5546136e+2, 2.3486124e+2, -679475.94, -832974.56, -5084.719, -0.0012115848, -0.0008885237, -679307.7, -40947.734 
8.554568e+2, 2.448449e+2, -592879.94, -754225.8, -4462.8184, -0.0010026663, -0.00013762544, -592756.6, -52236.563 
8.5545236e+2, 2.5482795e+2, -497562.03, -657362.94, -4514.752, 0.0013911384, 0.0007743588, -497434.56, -54748.574 
8.5544795e+2, 2.648104e+2, -410442.6, -577828.6, -3850.8691, 0.0012025523, 0.0011807065, -410354.06, -65496.133 
8.5544354e+2, 2.7479228e+2, -314518.5, -480506.47, -3771.8792, -0.001740059, -0.001150318, -314432.84, -67397.28 
8.554393e+2, 2.8477356e+2, -227819.16, -402063.9, -2875.9463, -0.001420423, -0.00032351146, -227771.7, -78552.43 
8.554353e+2, 2.947542e+2, -131933.0, -304743.44, -2814.1448, 0.0025290034, 0.001429939, -131887.19, -80478.41 
8.554313e+2, 3.047376e+2, -46064.773, -176004.13, -1677.5476, 0.001161718, 0.0019385382, -46043.117, -46043.117 
8.5542744e+2, 3.1472382e+2, -48225.254, -176660.03, -1667.7369, -0.006055651, -0.001075617, -48203.6, -48203.6 
8.5542375e+2, 3.2471475e+2, 14387.585, -40475.574, -675.17584, 0.0030303001, -0.0023953638, 14395.894, 14395.894 
8.655594e+2, 3.506904e+1, -2505205.0, -2601278.8, 571.7984, 0.0006287294, -0.00020164732, -2505201.5, 91121.945 
8.655555e+2, 4.5064145e+1, -2416147.5, -2517313.8, -1258.9923, 0.00021217433, -0.0019511783, -2416132.0, 82239.52 
8.655515e+2, 5.505889e+1, -2320154.0, -2420644.8, -1343.0212, 0.00052971044, 0.0013591617, -2320136.0, 80286.95 
8.6554724e+2, 6.505301e+1, -2232956.8, -2340589.8, -2114.6526, 0.0002594515, 0.0020998218, -2232915.3, 69565.4 
8.6554295e+2, 7.504654e+1, -2138480.0, -2244544.3, -2242.246, -0.0007568034, -0.0015663649, -2138432.8, 66111.234 
8.655386e+2, 8.50395e+1, -2051708.1, -2164745.8, -3269.8445, -0.00021007644, -0.0016714382, -2051613.6, 54999.28 
8.655341e+2, 9.5031923e+1, -1956372.9, -2068233.6, -3281.1453, 0.0018937927, -0.00023260529, -1956276.8, 52410.46 
8.655295e+2, 1.0502376e+2, -1869012.4, -1988135.3, -3972.0112, 0.001375389, 0.0010996037, -1868880.0, 41887.207 
8.655247e+2, 1.1501501e+2, -1773334.0, -1891429.1, -4046.3057, -0.0017384168, 0.00041707556, -1773195.5, 39657.473 
8.6552e+2, 1.2500566e+2, -1686675.5, -1811889.4, -4399.8027, -0.0014780952, 0.000060083174, -1686521.0, 28423.523 
8.6551523e+2, 1.3499573e+2, -1592498.3, -1715856.4, -4366.994, 0.0021936921, -0.0019433097, -1592343.9, 24698.045 
8.655104e+2, 1.4498524e+2, -1505307.4, -1635718.5, -4987.793, 0.00202168, -0.0008117574, -1505116.9, 14027.668 
8.655054e+2, 1.5497422e+2, -1408981.3, -1538621.3, -5137.351, -0.0020070358, 0.001432186, -1408778.0, 12474.635 
8.655005e+2, 1.6496257e+2, -1322207.6, -1459478.9, -5091.648, -0.0022833715, 0.002061917, -1322019.1, 1347.7745 
8.6549556e+2, 1.7495029e+2, -1227823.3, -1363305.4, -4953.8076, 0.0012651228, -0.0010359448, -1227642.4, -2155.1184 
8.654906e+2, 1.8493746e+2, -1140479.9, -1282759.6, -5143.1465, 0.0017670378, -0.0009214878, -1140294.1, -12681.345 
8.6548567e+2, 1.9492413e+2, -1044543.56, -1185857.5, -5349.497, -0.0008520717, 0.00053470954, -1044341.3, -14597.722 
8.654807e+2, 2.0491016e+2, -957864.75, -1106886.4, -5070.1484, -0.0012747472, 0.0016204026, -957692.44, -25811.898 
8.6547583e+2, 2.1489555e+2, -863155.25, -1010544.56, -4847.665, 0.0005751522, 0.00028875357, -862996.0, -28972.352 
8.6547095e+2, 2.2488038e+2, -775980.6, -930266.8, -4507.98, 0.0007122677, 0.00019546605, -775849.06, -39676.777 
8.654661e+2, 2.3486467e+2, -680339.9, -833388.56, -4685.144, -0.0010021302, -0.00089994946, -680196.56, -41870.234 
8.6546135e+2, 2.4484834e+2, -593452.1, -754252.1, -4181.6133, -0.0009294623, -0.00018104994, -593343.44, -52857.15 
8.6545664e+2, 2.5483143e+2, -497894.3, -657264.3, -3971.2148, 0.0010300191, 0.0004516118, -497795.4, -55143.34 
8.654521e+2, 2.648139e+2, -410955.6, -577868.8, -3146.624, 0.000978421, 0.0009740614, -410896.3, -66072.516 
8.654476e+2, 2.7479577e+2, -315482.06, -480775.56, -3111.09, -0.0012326178, -0.00082333875, -315423.5, -68422.266 
8.6544317e+2, 2.8477708e+2, -229012.6, -402290.16, -2186.5032, -0.0010774652, -0.00034288998, -228985.02, -79800.24 
8.654389e+2, 2.9475775e+2, -133387.31, -305080.6, -2015.497, 0.0017552736, 0.000110737914, -133363.66, -81989.586 
8.6543477e+2, 3.0474117e+2, -47851.625, -176524.45, -712.5462, 0.00075912126, 0.0012759885, -47847.68, -47847.68 
8.654307e+2, 3.1472746e+2, -50387.28, -177375.83, -484.4225, -0.0045014042, 0.0010918195, -50385.434, -50385.434 
8.6542684e+2, 3.247184e+2, 13826.368, -40257.637, -734.7156, 0.0025317518, -0.0036185521, 13836.348, 13836.348 
8.755678e+2, 3.507287e+1, -2505868.0, -2602558.8, -346.5033, 0.0009971753, 0.0035069983, -2505866.8, 90419.21 
8.7556374e+2, 4.506788e+1, -2416234.3, -2517578.5, -1673.9106, -0.0008652847, -0.0024437262, -2416206.5, 82128.24 
8.7555957e+2, 5.5062586e+1, -2320320.8, -2420940.0, -1754.2786, 0.00087178027, -0.0010168268, -2320290.3, 80096.51 
8.7555516e+2, 6.5056694e+1, -2233227.0, -2341076.8, -2911.7183, 0.00125434, 0.0007580866, -2233148.5, 69295.97 
8.7555075e+2, 7.505022e+1, -2138711.3, -2245000.8, -3030.9465, 0.00014009226, 0.0009637035, -2138625.0, 65882.875 
8.755461e+2, 8.504318e+1, -2051694.0, -2164761.0, -3855.7825, -0.00047126104, 0.0014044469, -2051562.6, 55014.242 
8.755414e+2, 9.5035577e+1, -1956369.1, -2068245.1, -3873.5603, -0.000561131, 0.00014434863, -1956235.1, 52416.234 
8.755366e+2, 1.05027385e+2, -1869159.0, -1988409.8, -4492.51, 0.00017650767, -0.00001031952, -1868989.9, 41741.793 
8.755318e+2, 1.15018606e+2, -1773561.1, -1891723.8, -4564.0547, 0.0017104625, -0.0010244508, -1773385.0, 39432.625 
8.755268e+2, 1.2500928e+2, -1686666.6, -1811786.0, -5308.748, 0.00093054504, 0.00017453048, -1686441.8, 28467.371 
8.755217e+2, 1.349994e+2, -1592371.3, -1715700.1, -5285.937, -0.0020980889, 0.001639776, -1592145.1, 24860.98 
8.7551665e+2, 1.449889e+2, -1505533.4, -1636281.1, -5365.74, -0.0017277406, 0.0018259191, -1505313.6, 13795.42 
8.7551165e+2, 1.5497777e+2, -1409326.3, -1539245.8, -5502.0376, 0.0020758454, -0.0013496456, -1409093.8, 12124.2295 
8.755065e+2, 1.649661e+2, -1322020.3, -1458996.6, -5964.861, 0.0021852362, -0.0012224669, -1321761.0, 1571.2488 
8.7550133e+2, 1.7495391e+2, -1227550.3, -1362784.1, -5838.8887, -0.0014013934, 0.00016894356, -1227298.6, -1846.7385 
8.754962e+2, 1.8494108e+2, -1140848.1, -1283521.4, -5629.8228, -0.0019983118, 0.0013631649, -1140626.3, -13048.867 
8.754911e+2, 1.9492766e+2, -1044987.8, -1186663.0, -5815.9717, 0.00043315158, 0.0004333082, -1044749.5, -15040.535 
8.75486e+2, 2.0491368e+2, -957511.4, -1106056.1, -5849.25, 0.0010090529, 0.00045855416, -957281.4, -25435.441 
8.7548083e+2, 2.1489914e+2, -862738.44, -1009673.4, -5648.575, -0.00034726353, -0.0005798922, -862521.6, -28533.21 
8.754758e+2, 2.24884e+2, -776277.4, -930942.7, -5105.6597, -0.00044544582, 0.00023444643, -776109.06, -39972.184 
8.754708e+2, 2.3486824e+2, -680693.75, -834079.94, -5259.513, 0.0007429241, 0.0006535467, -680513.6, -42222.35 
8.7546587e+2, 2.4485192e+2, -593113.4, -753496.6, -4792.9106, 0.00052370736, 0.00088680076, -592970.3, -52519.03 
8.75461e+2, 2.5483504e+2, -497565.2, -656481.0, -4597.1714, -0.0011856221, -0.0010518463, -497432.3, -54815.62 
8.754562e+2, 2.6481754e+2, -410946.56, -577776.9, -3822.4639, -0.0011609363, -0.0003690324, -410859.03, -66070.96 
8.7545156e+2, 2.7479947e+2, -315471.9, -480687.47, -3779.7188, 0.00071564986, 0.000885164, -315385.47, -68420.34 
8.75447e+2, 2.8478077e+2, -228755.77, -401676.9, -2834.317, 0.00099844, 0.0007283872, -228709.33, -79560.87 
8.754425e+2, 2.9476145e+2, -133120.06, -304467.44, -2668.0762, -0.00031985057, -0.0034560396, -133078.53, -81740.79 
8.7543815e+2, 3.0474496e+2, -47522.09, -175725.0, -1374.7981, -0.0010625808, -0.0017195801, -47507.348, -47507.348 
8.75434e+2, 3.1473133e+2, -50045.242, -176575.25, -1138.3354, -0.0013167983, 0.0043433374, -50035.004, -50035.004 
8.754298e+2, 3.247222e+2, 12656.519, -42624.043, -1456.3768, 0.001708302, -0.0012031709, 12694.86, 12694.86 
8.855763e+2, 3.50768e+1, -2504228.5, -2602011.8, 127.791115, 0.0011473148, 0.0025591752, -2504228.3, 92019.055 
8.85572e+2, 4.5071828e+1, -2413854.0, -2516558.0, -1113.7473, -0.00025672576, -0.00019462386, -2413842.0, 84454.2 
8.8556767e+2, 5.5066496e+1, -2319305.5, -2420594.8, -1165.8949, 0.0004905275, -0.0013370665, -2319292.0, 81056.36 
8.8556314e+2, 6.506058e+1, -2232553.5, -2340902.5, -2341.8125, 0.00078595144, -0.00027148888, -2232503.0, 69903.36 
8.855584e+2, 7.505411e+1, -2137336.3, -2244496.0, -2364.2148, 0.000446347, 0.0010228883, -2137284.0, 67185.79 
8.8555366e+2, 8.504704e+1, -2050074.0, -2164174.5, -3114.6619, -0.00009224164, 0.0017878423, -2049989.0, 56550.035 
8.855488e+2, 9.5039415e+1, -1954863.5, -2067739.4, -3255.4812, -0.0008025998, 0.00010638912, -1954769.8, 53844.094 
8.855438e+2, 1.0503121e+2, -1868301.0, -1988066.3, -3999.6753, -0.0001712277, -0.00018317936, -1868167.6, 42526.68 
8.8553876e+2, 1.1502242e+2, -1773980.4, -1892032.1, -4012.4841, 0.0017703975, -0.0010513045, -1773844.3, 38936.074 
8.8553363e+2, 1.2501308e+2, -1686771.5, -1811993.0, -4692.8867, 0.0011260267, 0.00027828157, -1686595.9, 28276.002 
8.855283e+2, 1.3500318e+2, -1590463.4, -1714922.4, -4823.7734, -0.0020546366, 0.0018709435, -1590276.8, 26692.168 
8.8552314e+2, 1.4499266e+2, -1503704.6, -1635471.6, -4971.994, -0.001799332, 0.00192512, -1503517.4, 15554.609 
8.855179e+2, 1.5498154e+2, -1409792.0, -1539540.6, -4899.5835, 0.0019510852, -0.0016591833, -1409607.3, 11573.796 
8.855126e+2, 1.6496986e+2, -1322773.8, -1459355.3, -5312.9795, 0.0021377532, -0.0013896956, -1322567.4, 727.9309 
8.855072e+2, 1.7495768e+2, -1226774.3, -1362381.6, -5410.8584, -0.0012640099, 0.0007046108, -1226558.8, -1143.8373 
8.855018e+2, 1.8494485e+2, -1140060.3, -1283186.9, -5206.991, -0.0018274195, 0.0017950353, -1139871.0, -12330.599 
8.854965e+2, 1.9493143e+2, -1045728.7, -1187031.8, -5065.995, 0.0004980045, -0.00005108622, -1045547.25, -15875.182 
8.8549125e+2, 2.0491743e+2, -958432.4, -1106444.4, -5051.5093, 0.0009774751, -0.00015785987, -958260.2, -26451.064 
8.854859e+2, 2.1490291e+2, -862612.94, -1009558.5, -5215.415, -0.0004821983, -0.00050904666, -862428.06, -28476.625 
8.8548064e+2, 2.2488777e+2, -775951.7, -930533.94, -4713.332, -0.00053829286, 0.0004930398, -775808.1, -39708.316 
8.854755e+2, 2.3487204e+2, -681132.94, -834057.75, -4456.3994, 0.0008569974, 0.0005936725, -681003.2, -42749.15 
8.854704e+2, 2.4485573e+2, -594130.5, -753860.3, -3889.9421, 0.0007026578, 0.00077892334, -594035.8, -53621.887 
8.8546526e+2, 2.5483885e+2, -498767.66, -656972.5, -4023.4163, -0.001085445, -0.00091365684, -498665.38, -56086.1 
8.854603e+2, 2.6482138e+2, -412057.75, -577972.8, -3349.99, -0.0010975088, -0.00033149644, -411990.13, -67239.64 
8.854554e+2, 2.7480334e+2, -316506.66, -480817.1, -3169.2295, 0.0007777844, 0.00044800877, -316445.53, -69518.21 
8.8545066e+2, 2.8478464e+2, -229897.42, -401964.22, -2247.5564, 0.000863586, 0.00052195357, -229868.08, -80757.69 
8.85446e+2, 2.9476535e+2, -134424.92, -304830.66, -2252.9358, -0.0008353471, -0.0026659498, -134395.14, -83095.75 
8.8544154e+2, 3.047489e+2, -48544.68, -175454.45, -998.8357, -0.0009786307, -0.0016945999, -48536.816, -48536.816 
8.8543713e+2, 3.1473532e+2, -51068.418, -176274.31, -684.41394, 0.00040306125, 0.0016729735, -51064.68, -51064.68 
8.854328e+2, 3.2472622e+2, 11217.188, -44187.293, -605.7347, 0.00048561426, 0.0000725455, 11223.81, 11223.81 
8.9558476e+2, 3.508083e+1, -2503979.3, -2601512.0, 13.228052, 0.0010672455, -0.002075254, -2503979.3, 92228.62 
8.955805e+2, 4.5075953e+1, -2413999.8, -2516750.8, -1881.7433, 0.0016275382, 0.0042335684, -2413965.5, 84290.375 
8.955758e+2, 5.507058e+1, -2319399.0, -2420758.8, -1930.4082, -0.0005096962, 0.000001961127, -2319362.3, 80946.055 
8.955711e+2, 6.506464e+1, -2232558.3, -2340970.8, -2949.8901, -0.0008911947, -0.0010332541, -2232478.0, 69888.55 
8.955662e+2, 7.505815e+1, -2137343.3, -2244559.0, -2977.7637, 0.00024930268, -0.0009155838, -2137260.5, 67169.62 
8.955613e+2, 8.505107e+1, -2050334.1, -2164701.5, -3743.3975, 0.00077345996, -0.0000036645104, -2050211.8, 56287.805 
8.955562e+2, 9.504342e+1, -1955183.4, -2068282.5, -3877.2441, 0.0007111985, -0.00026869835, -1955050.6, 53523.938 
8.95551e+2, 1.0503519e+2, -1868325.4, -1988109.8, -4862.3203, 0.00013983158, 0.00040608327, -1868128.3, 42526.84 
8.955457e+2, 1.1502642e+2, -1773913.8, -1892005.4, -4881.714, -0.00094841514, 0.000071533694, -1773712.3, 39028.883 
8.9554036e+2, 1.2501705e+2, -1686949.1, -1812468.9, -5058.1396, -0.00049863337, 0.00037205996, -1686745.6, 28087.287 
8.9553505e+2, 1.350071e+2, -1590792.8, -1715468.9, -5178.5444, 0.001496671, -0.00063310115, -1590578.0, 26352.576 
8.955296e+2, 1.4499657e+2, -1503674.8, -1635270.1, -5944.4707, 0.0010937364, -0.000045122415, -1503406.8, 15626.856 
8.95524e+2, 1.5498549e+2, -1409627.6, -1539285.5, -5880.7856, -0.0016461428, 0.000067107, -1409361.5, 11780.733 
8.9551854e+2, 1.6497383e+2, -1322927.8, -1459734.8, -5772.1343, -0.0016359241, 0.0010115984, -1322684.8, 571.7891 
8.9551306e+2, 1.7496158e+2, -1227020.5, -1362817.0, -5858.7485, 0.0011561657, 0.000686593, -1226768.3, -1391.7101 
8.955076e+2, 1.8494876e+2, -1139880.8, -1282662.6, -6078.8467, 0.0015522991, 0.00070343417, -1139622.4, -12120.196 
8.95502e+2, 1.9493537e+2, -1045460.2, -1186480.9, -5950.6475, -0.0004840017, -0.00085139566, -1045209.5, -15576.125 
8.954965e+2, 2.0492138e+2, -958708.7, -1107040.1, -5566.4624, -0.0010001975, -0.00031078607, -958500.1, -26729.734 
8.9549094e+2, 2.1490683e+2, -862956.7, -1010210.25, -5711.324, 0.000016468593, 0.0003415434, -862735.5, -28822.459 
8.954855e+2, 2.248917e+2, -775529.1, -929607.2, -5493.69, 0.00021772026, 0.0009308996, -775333.5, -39272.19 
8.9548016e+2, 2.3487602e+2, -680670.5, -833083.8, -5260.892, -0.00042718422, -0.00081334397, -680489.1, -42274.086 
8.954748e+2, 2.4485973e+2, -594375.25, -754375.2, -4583.7656, -0.0002056166, -0.00029465507, -594244.0, -53869.324 
8.9546955e+2, 2.5484285e+2, -499039.66, -657510.5, -4697.0864, 0.0009068473, 0.00059675367, -498900.56, -56360.4 
8.954644e+2, 2.6482537e+2, -411772.25, -577353.75, -3986.0557, 0.00074472703, 0.000854813, -411676.34, -66964.98 
8.954593e+2, 2.7480733e+2, -316209.03, -480184.94, -3813.9194, -0.0007736934, -0.0017857531, -316120.38, -69232.33 
8.9545435e+2, 2.847887e+2, -229960.8, -402027.6, -2936.3894, -0.0011516501, -0.0007281835, -229910.7, -80839.92 
8.954495e+2, 2.9476947e+2, -134505.69, -304913.7, -2929.2617, -0.00009561561, 0.0018148441, -134455.34, -83196.055 
8.954448e+2, 3.0475304e+2, -48084.93, -174371.6, -1643.0934, 0.00064270716, 0.00086953177, -48063.555, -48063.555 
8.954402e+2, 3.1473938e+2, -50582.71, -175166.27, -1341.195, 0.0008080637, -0.0060167466, -50568.277, -50568.277 
8.9543575e+2, 3.2473043e+2, 11089.56, -44296.348, -1022.2153, -0.0011553143, 0.00047959905, 11108.42, 11108.42 
9.0559345e+2, 3.5085157e+1, -2501273.8, -2600343.3, 684.16205, 0.0002382624, -0.0014864571, -2501269.0, 94896.55 
9.0558887e+2, 4.5080236e+1, -2413535.5, -2516712.8, -1116.8984, 0.0028480631, 0.0020501653, -2413523.5, 84690.234 
9.0558404e+2, 5.507487e+1, -2318116.8, -2420341.8, -1224.6185, -0.0005618041, 0.0007031191, -2318102.0, 82164.3 
9.055791e+2, 6.506892e+1, -2230916.0, -2340363.0, -2283.942, -0.0013365946, 0.00031123555, -2230868.5, 71456.23 
9.055741e+2, 7.5062394e+1, -2135747.5, -2243979.0, -2412.5276, 0.00021961407, -0.0011039795, -2135693.8, 68694.875 
9.055689e+2, 8.505529e+1, -2049186.0, -2164294.5, -3306.4854, 0.0009592334, -0.0006284124, -2049091.1, 57367.08 
9.0556365e+2, 9.504763e+1, -1954966.8, -2068338.5, -3307.302, 0.0009332359, -0.00027405363, -1954870.3, 53662.953 
9.055582e+2, 1.05039395e+2, -1867765.3, -1988059.4, -4130.931, 0.00018381482, 0.00069133146, -1867623.6, 42990.367 
9.0555274e+2, 1.150306e+2, -1771622.4, -1891124.9, -4287.046, -0.0012903649, 0.00036119178, -1771468.8, 41231.37 
9.0554726e+2, 1.250212e+2, -1685035.4, -1811561.4, -4585.615, -0.00075753446, 0.00034045553, -1684869.4, 29922.813 
9.0554166e+2, 1.3501124e+2, -1591544.1, -1715873.5, -4522.1455, 0.0017938946, -0.0013468092, -1591379.9, 25510.053 
9.0553606e+2, 1.4500071e+2, -1504678.4, -1635809.9, -5163.607, 0.0014441803, -0.0005581189, -1504475.4, 14517.651 
9.055303e+2, 1.5498966e+2, -1408456.1, -1538764.4, -5251.8643, -0.0017774868, 0.0006706163, -1408244.9, 12856.687 
9.055246e+2, 1.6497798e+2, -1321568.6, -1459114.9, -5220.991, -0.0019083914, 0.0016138139, -1321370.8, 1845.0613 
9.0551895e+2, 1.7496571e+2, -1227526.6, -1363095.0, -5155.2563, 0.0010916273, 0.00014552649, -1227330.9, -1994.865 
9.0551317e+2, 1.849529e+2, -1140569.5, -1282984.5, -5355.9893, 0.0016151408, 0.00005990802, -1140368.3, -12906.615 
9.055074e+2, 1.9493951e+2, -1044780.06, -1186135.3, -5450.971, -0.0003686288, -0.00054086326, -1044570.2, -14977.365 
9.055017e+2, 2.0492554e+2, -958077.25, -1106664.1, -5081.01, -0.0008579253, 0.0002373914, -957903.7, -26173.996 
9.0549606e+2, 2.1491098e+2, -863888.4, -1010558.4, -4912.202, 0.00017665436, 0.0004035901, -863724.0, -29851.65 
9.0549034e+2, 2.2489586e+2, -776850.0, -930145.1, -4672.883, 0.00030213868, 0.0007925271, -776707.7, -40687.094 
9.0548474e+2, 2.348802e+2, -681193.3, -833251.44, -4847.032, -0.0005336029, -0.00083983946, -681038.94, -42864.746 
9.0547925e+2, 2.4486391e+2, -594551.5, -754218.06, -4244.282, -0.00035925058, -0.00027387633, -594438.75, -54105.004 
9.054738e+2, 2.5484705e+2, -499525.53, -657471.1, -3991.151, 0.00086309033, 0.00057608733, -499424.75, -56925.727 
9.0546846e+2, 2.6482958e+2, -412562.8, -577516.1, -3143.2395, 0.000826693, 0.0008444166, -412502.94, -67832.89 
9.0546316e+2, 2.748116e+2, -317199.66, -480473.5, -3184.2363, -0.0005684088, -0.0016961854, -317137.6, -70291.0 
9.0545803e+2, 2.8479293e+2, -231059.98, -402196.72, -2358.5696, -0.00094683154, -0.00051878823, -231027.5, -81998.41 
9.0545297e+2, 2.9477376e+2, -135886.6, -305200.38, -2117.5864, -0.0000012610836, 0.002144367, -135860.13, -84642.85 
9.054481e+2, 3.0475733e+2, -49753.64, -175053.81, -852.7796, 0.0006954102, 0.0011314242, -49747.836, -49747.836 
9.054433e+2, 3.1474373e+2, -52306.098, -175853.77, -1001.97546, 0.0008945589, -0.0059744325, -52297.973, -52297.973 
9.054386e+2, 3.247348e+2, 9878.534, -43799.613, -379.59555, -0.0015433334, 0.00053529895, 9881.219, 9881.219 
9.156021e+2, 3.5089734e+1, -2501697.0, -2601111.3, -839.6355, -0.0012511623, 0.0032326602, -2501689.8, 94430.81 
9.155973e+2, 4.5084655e+1, -2413632.8, -2517059.5, -1660.3439, 0.0034668166, -0.005362081, -2413606.0, 84564.375 
9.155924e+2, 5.507934e+1, -2318271.3, -2420709.8, -1762.6675, 0.00010243563, 0.00089160685, -2318241.0, 81981.54 
9.1558725e+2, 6.5073377e+1, -2231144.5, -2340842.0, -2888.0876, -0.00083581486, 0.003326418, -2231068.5, 71212.32 
9.1558194e+2, 7.506681e+1, -2136021.0, -2244472.0, -3015.8423, 0.00029406222, 0.000109840534, -2135937.3, 68408.12 
9.155766e+2, 8.5059685e+1, -2049188.8, -2164273.0, -4168.3525, 0.0005732642, -0.00030506673, -2049038.0, 57377.184 
9.1557103e+2, 9.505203e+1, -1954896.6, -2068263.8, -4175.8613, 0.00007775645, 0.000019166575, -1954743.0, 53747.195 
9.155655e+2, 1.0504377e+2, -1868004.3, -1988608.5, -4526.1577, -0.00001784532, 0.00073401764, -1867834.6, 42736.46 
9.155599e+2, 1.1503493e+2, -1772016.3, -1891730.4, -4673.59, 0.0002612646, -0.00003112578, -1771834.0, 40823.7 
9.1555417e+2, 1.2502554e+2, -1684994.3, -1811346.6, -5654.831, 0.000056619556, 0.00020763453, -1684741.6, 30008.13 
9.1554826e+2, 1.3501559e+2, -1591345.0, -1715581.0, -5602.9897, -0.00058098685, -0.0005984069, -1591092.9, 25754.367 
9.155424e+2, 1.4500506e+2, -1504784.3, -1636136.0, -5557.166, -0.00029356134, 0.000118263364, -1504549.6, 14400.771 
9.1553664e+2, 1.5499395e+2, -1408703.0, -1539171.4, -5635.941, 0.00089687266, 0.00035175713, -1408460.0, 12599.222 
9.155307e+2, 1.6498229e+2, -1321567.6, -1458933.0, -6170.2505, 0.00064116373, 0.00074375956, -1321291.0, 1882.6753 
9.155247e+2, 1.7497003e+2, -1227413.1, -1362867.1, -6110.6943, -0.0010352577, -0.00082102156, -1227138.0, -1844.3179 
9.1551876e+2, 1.8495722e+2, -1140742.5, -1283331.0, -5863.2754, -0.001056825, -0.00020136121, -1140501.9, -13082.499 
9.1551286e+2, 1.9494382e+2, -1045037.94, -1186539.4, -5945.329, 0.0006184564, 0.00068337756, -1044788.6, -15238.001 
9.1550696e+2, 2.0492986e+2, -957844.1, -1106032.3, -5988.8813, 0.000989436, 0.0013600098, -957602.44, -25915.031 
9.1550106e+2, 2.1491534e+2, -863555.75, -1009897.7, -5837.7026, 0.000035018315, -0.00018465787, -863323.25, -29493.47 
9.1549516e+2, 2.249002e+2, -777143.5, -930768.7, -5257.0244, -0.0002009659, 0.00019394694, -776963.9, -40985.895 
9.154894e+2, 2.348845e+2, -681552.94, -833923.9, -5411.354, 0.00029545842, 0.0002867149, -681361.0, -43229.133 
9.1548365e+2, 2.4486823e+2, -594157.5, -753302.9, -4985.886, 0.00007851333, 0.0006590982, -594001.44, -53710.117 
9.15478e+2, 2.548514e+2, -499092.2, -656529.7, -4751.698, -0.0009082583, -0.00071947725, -498948.9, -56492.78 
9.154724e+2, 2.64834e+2, -412691.13, -577700.7, -3854.603, -0.00060447375, -0.00014099776, -412601.13, -67974.28 
9.1546696e+2, 2.74816e+2, -317355.75, -480698.72, -3885.2766, 0.0010724945, 0.00035047333, -317263.4, -70460.14 
9.154616e+2, 2.847974e+2, -230699.66, -401353.1, -3122.496, 0.0010773465, 0.0009067484, -230642.55, -81656.96 
9.154563e+2, 2.947782e+2, -135474.63, -304318.4, -2893.2153, -0.00051149, -0.0010020204, -135425.06, -84251.5 
9.1545117e+2, 3.047618e+2, -50086.27, -175694.02, -1524.2601, -0.00062806223, -0.0004938083, -50067.773, -50067.773 
9.154463e+2, 3.1474823e+2, -52705.48, -176559.73, -1643.5298, 0.0006455977, 0.00064149546, -52683.676, -52683.676 
9.154414e+2, 3.247393e+2, 11054.55, -41196.21, -838.0973, -0.0009803611, 0.00021325213, 11067.989, 11067.989 
9.256109e+2, 3.5094506e+1, -2500622.3, -2601573.5, -183.74568, -0.0016295185, 0.002074937, -2500622.0, 95452.0 
9.2560583e+2, 4.50894e+1, -2410591.3, -2515791.3, -852.9439, 0.0033504171, -0.0033164527, -2410584.3, 87539.68 
9.2560065e+2, 5.508404e+1, -2316100.3, -2419893.5, -931.8201, 0.00034116433, 0.00020647184, -2316092.0, 84084.53 
9.2559534e+2, 6.507805e+1, -2229842.5, -2340495.8, -2076.7087, -0.00057696085, 0.0020425282, -2229803.5, 72431.62 
9.255899e+2, 7.5071466e+1, -2135452.8, -2244490.3, -2186.9275, 0.00022801853, 0.00030087883, -2135409.0, 68890.73 
9.255844e+2, 8.5064316e+1, -2048263.9, -2164017.8, -3349.071, 0.00032150064, 0.00033004256, -2048167.0, 58202.742 
9.255786e+2, 9.5056635e+1, -1952630.4, -2067393.4, -3507.8555, -0.00021498022, 0.00009674904, -1952523.3, 55921.844 
9.255728e+2, 1.0504836e+2, -1866277.9, -1987887.3, -3931.8694, -0.00004072501, 0.00053324574, -1866150.9, 44375.29 
9.2556703e+2, 1.15039505e+2, -1772729.8, -1892234.6, -3914.5525, 0.0008193857, -0.00023249928, -1772601.6, 40011.277 
9.25561e+2, 1.250301e+2, -1685636.0, -1811797.6, -4829.1523, 0.00040862095, 0.00036023656, -1685451.5, 29253.607 
9.25555e+2, 1.3502014e+2, -1589341.1, -1714746.0, -4986.9326, -0.0012263044, 0.00024809447, -1589143.1, 27659.525 
9.25549e+2, 1.450096e+2, -1502681.5, -1635127.6, -5067.854, -0.00087524904, 0.00078071177, -1502487.9, 16417.945 
9.255429e+2, 1.549985e+2, -1409223.8, -1539436.6, -5001.3574, 0.0014476952, -0.000043890195, -1409032.0, 11982.822 
9.2553675e+2, 1.6498682e+2, -1322495.3, -1459453.9, -5434.2744, 0.0013372313, 0.00017409112, -1322279.9, 849.38556 
9.2553055e+2, 1.7497456e+2, -1226537.0, -1362499.1, -5505.988, -0.0011942983, -0.0006703616, -1226314.4, -1065.0576 
9.255244e+2, 1.8496175e+2, -1139789.9, -1282786.4, -5315.749, -0.001445098, 0.00013898377, -1139592.5, -12217.618 
9.2551833e+2, 1.9494835e+2, -1045925.94, -1186863.0, -5192.7593, 0.0006348738, 0.0006853779, -1045734.9, -16228.695 
9.2551214e+2, 2.049344e+2, -958938.44, -1106478.3, -5188.701, 0.0011245869, 0.0012062229, -958756.2, -27113.213 
9.2550606e+2, 2.1491988e+2, -863201.06, -1009635.1, -5303.4634, -0.00000027742573, -0.0003121011, -863009.25, -29223.988 
9.254999e+2, 2.2490478e+2, -776627.3, -930420.94, -4748.0337, -0.00023956115, 0.00013557865, -776480.9, -40547.535 
9.2549396e+2, 2.3488908e+2, -682272.25, -834153.3, -4566.43, 0.00041546652, 0.0003229262, -682135.1, -44047.887 
9.2548805e+2, 2.4487281e+2, -595262.8, -753649.06, -4079.5764, 0.00024570117, 0.00071529485, -595157.75, -54911.207 
9.254821e+2, 2.54856e+2, -499837.06, -656705.1, -4190.9443, -0.0007979097, -0.00069011847, -499725.2, -57313.957 
9.254764e+2, 2.648386e+2, -413485.25, -577888.7, -3452.5803, -0.00063088094, -0.000059904247, -413412.78, -68831.0 
9.254707e+2, 2.7482063e+2, -318717.0, -481119.75, -3288.4111, 0.0008196751, 0.0005565697, -318650.44, -71892.42 
9.254651e+2, 2.8480202e+2, -231966.97, -401710.13, -2434.6228, 0.0008515912, 0.0008266004, -231932.05, -82991.84 
9.254597e+2, 2.9478285e+2, -136041.66, -304323.22, -2474.798, -0.0004627646, -0.0017957432, -136005.28, -84877.21 
9.254543e+2, 3.0476648e+2, -50771.17, -175781.45, -1201.039, -0.0004430627, -0.00039349994, -50759.637, -50759.637 
9.2544913e+2, 3.1475297e+2, -54515.258, -177188.63, -873.9026, 0.00084605487, 0.0034174179, -54509.03, -54509.03 
9.254441e+2, 3.2474405e+2, 9026.528, -41814.734, 111.82378, -0.001152444, -0.00041659633, 9026.774, 9026.774 
9.356198e+2, 3.5099438e+1, -2501490.5, -2603287.5, -658.0919, -0.0011927959, -0.003671914, -2501486.3, 94539.19 
9.356145e+2, 4.5094422e+1, -2410818.0, -2516105.5, -1616.4558, 0.002580283, 0.0062099174, -2410793.0, 87281.67 
9.3560904e+2, 5.5088925e+1, -2316264.0, -2420165.8, -1713.5817, 0.00020592383, -0.0011758914, -2316235.8, 83892.78 
9.3560356e+2, 6.5082884e+1, -2229992.0, -2340882.5, -2896.353, -0.00054145587, -0.0026446627, -2229916.3, 72271.484 
9.355979e+2, 7.507631e+1, -2135586.5, -2244866.5, -2997.9724, 0.000009210801, -0.00031804622, -2135504.3, 68748.0 
9.355921e+2, 8.5069144e+1, -2048530.6, -2164590.5, -3859.2817, 0.00013719176, 0.0012187107, -2048402.5, 57919.94 
9.355862e+2, 9.5061415e+1, -1952998.0, -2067989.5, -4015.2026, -0.00009732475, -0.000003919952, -1952858.0, 55540.234 
9.355802e+2, 1.0505313e+2, -1866263.9, -1987787.1, -4983.006, 0.000045146924, 0.00014085585, -1866059.9, 44419.633 
9.355741e+2, 1.1504428e+2, -1772595.6, -1892059.8, -4971.454, 0.00054482673, -0.0002791117, -1772389.1, 40177.016 
9.355679e+2, 1.2503487e+2, -1685862.0, -1812360.8, -5190.3975, 0.0003581253, 0.0007461013, -1685649.5, 29008.934 
9.355618e+2, 1.3502489e+2, -1589737.9, -1715388.8, -5336.33, -0.00050340156, 0.0011681671, -1589511.8, 27244.549 
9.3555546e+2, 1.4501433e+2, -1502679.6, -1634960.4, -6148.8394, -0.00055214675, 0.001426934, -1502394.4, 16465.225 
9.3554914e+2, 1.5500322e+2, -1409060.8, -1539204.6, -6092.618, 0.00024014332, -0.00049239246, -1408776.1, 12192.423 
9.3554276e+2, 1.6499153e+2, -1322608.4, -1459744.3, -5894.046, 0.0004925426, -0.00013485333, -1322355.5, 727.52484 
9.3553644e+2, 1.7497928e+2, -1226775.9, -1362863.9, -5954.111, 0.00022577909, 0.00038991, -1226515.9, -1312.6902 
9.3553007e+2, 1.8496646e+2, -1139675.5, -1282357.4, -6299.8066, 0.0000011356349, 0.00096655963, -1139397.9, -12069.137 
9.355237e+2, 1.9495308e+2, -1045700.6, -1186388.3, -6189.584, -0.00017844547, -0.000317221, -1045428.9, -15969.03 
9.355173e+2, 2.0493913e+2, -959124.25, -1106878.1, -5717.409, -0.00017525713, 0.000018893896, -958903.4, -27306.773 
9.3551105e+2, 2.1492459e+2, -863468.0, -1010094.44, -5817.7603, 0.000027314685, -0.00005291849, -863237.56, -29498.488 
9.3550473e+2, 2.2490948e+2, -776381.25, -929751.7, -5639.0786, 0.00006887766, 0.00052204716, -776174.2, -40287.13 
9.3549854e+2, 2.3489383e+2, -681952.44, -833458.5, -5472.228, -0.00008222601, -0.0005405441, -681755.0, -43714.484 
9.354924e+2, 2.4487758e+2, -595478.06, -754077.8, -4740.179, 0.00015443552, 0.00006537548, -595336.5, -55136.72 
9.354863e+2, 2.5486076e+2, -500089.34, -657177.7, -4839.1143, 0.00083366997, 0.00044387352, -499940.4, -57575.84 
9.354803e+2, 2.6484334e+2, -413267.56, -577326.6, -4284.3354, 0.00045698415, 0.00090862607, -413155.75, -68620.64 
9.3547434e+2, 2.748254e+2, -318442.88, -480538.8, -4130.342, -0.0010471519, -0.0007643793, -318337.7, -71626.555 
9.3546855e+2, 2.8480682e+2, -232101.61, -401907.25, -3008.0476, -0.0012851856, -0.0004778727, -232048.34, -83155.164 
9.3546295e+2, 2.9478765e+2, -136238.34, -304572.63, -3030.457, -0.00000058279574, -0.00060181523, -136183.8, -85102.83 
9.3545747e+2, 3.0477133e+2, -50338.48, -174688.1, -2144.472, 0.0009552204, 0.0011478991, -50301.508, -50301.508 
9.3545204e+2, 3.1475788e+2, -54005.668, -176058.11, -1836.9622, 0.0013663275, 0.0029136615, -53978.027, -53978.027 
9.354468e+2, 3.2474893e+2, 8323.802, -43174.91, -204.21486, -0.002012476, -0.0012707398, 8324.611, 8324.611 
9.4562864e+2, 3.510463e+1, -2498618.8, -2600775.8, -470.22845, -0.00055201084, -0.0033377511, -2498616.5, 97358.21 
9.4562316e+2, 4.509961e+1, -2410739.8, -2516896.8, -506.32278, 0.0012160721, 0.0053670374, -2410737.3, 87286.586 
9.4561756e+2, 5.509406e+1, -2315232.5, -2420496.5, -962.7888, 0.00013211842, -0.0008456905, -2315223.8, 84854.65 
9.4561183e+2, 6.508797e+1, -2227953.0, -2340019.3, -2413.1729, -0.00014399135, -0.0020923922, -2227901.0, 74236.94 
9.456059e+2, 7.508137e+1, -2133333.8, -2243904.3, -2434.438, 0.00006668972, -0.00040395375, -2133280.0, 70922.43 
9.455999e+2, 8.50742e+1, -2047034.1, -2164144.8, -3177.4243, 0.00011595805, 0.0009452064, -2046948.0, 59324.926 
9.4559383e+2, 9.5066434e+1, -1953047.0, -2068304.1, -3248.479, 0.000060823444, -0.000046594345, -1952955.5, 55393.5 
9.455876e+2, 1.05058126e+2, -1865937.0, -1987769.1, -4236.543, 0.000027827224, 0.0002742908, -1865789.9, 44640.54 
9.455813e+2, 1.1504927e+2, -1770144.6, -1891013.3, -4375.763, 0.000000060818806, -0.000054010216, -1769986.5, 42530.74 
9.455749e+2, 1.2503985e+2, -1683802.6, -1811410.6, -4619.491, 0.00010430021, 0.0006896662, -1683635.6, 30973.99 
9.455685e+2, 1.3502985e+2, -1590608.0, -1715882.4, -4554.684, 0.00033534324, 0.00051878917, -1590442.6, 26265.008 
9.45562e+2, 1.450193e+2, -1503755.0, -1635644.5, -5258.466, 0.000099380144, 0.0009087258, -1503545.6, 15265.422 
9.4555545e+2, 1.5500817e+2, -1407546.6, -1538621.1, -5397.765, -0.0005589422, -0.00020420707, -1407324.8, 13595.315 
9.4554883e+2, 1.6499647e+2, -1320854.4, -1458814.4, -5323.7, -0.00028746235, 0.00034260252, -1320649.3, 2385.379 
9.455423e+2, 1.7498422e+2, -1227455.0, -1363107.5, -5197.4067, 0.00092523574, 0.00045645822, -1227256.1, -2101.429 
9.455357e+2, 1.849714e+2, -1140753.6, -1282944.9, -5476.733, 0.0008687378, 0.0008398723, -1140543.0, -13262.7295 
9.455291e+2, 1.9495802e+2, -1045045.0, -1186130.9, -5594.4995, -0.0004647077, -0.00041468552, -1044823.5, -15412.161 
9.4552255e+2, 2.0494407e+2, -958378.4, -1106457.1, -5162.5146, -0.00070261897, -0.00006262497, -958198.6, -26650.48 
9.4551605e+2, 2.1492954e+2, -864404.6, -1010460.0, -5043.925, 0.00018856382, -0.00014028884, -864230.6, -30540.12 
9.455095e+2, 2.2491445e+2, -777541.44, -930128.1, -4835.6406, 0.00037933534, 0.00051909115, -777388.4, -41549.94 
9.4550306e+2, 2.348988e+2, -682137.94, -833332.8, -4865.4204, -0.00017897766, -0.00036380076, -681981.5, -43989.8 
9.454967e+2, 2.4488257e+2, -595639.06, -754112.0, -4141.4165, -0.000043134307, 0.00022378913, -595530.94, -55380.08 
9.454904e+2, 2.5486577e+2, -501063.9, -657589.0, -4021.598, 0.0008514393, 0.00039415443, -500960.66, -58645.016 
9.454842e+2, 2.6484835e+2, -414225.7, -577543.8, -3390.4778, 0.00051548256, 0.0008855182, -414155.34, -69669.27 
9.45478e+2, 2.748304e+2, -318713.22, -480448.22, -3378.1887, -0.0011422599, -0.0005204376, -318642.7, -71980.81 
9.4547206e+2, 2.8481185e+2, -232675.36, -402046.4, -2254.0818, -0.001282831, 0.00006421196, -232645.38, -83801.625 
9.4546616e+2, 2.947927e+2, -138075.52, -305316.56, -2098.4443, 0.00038793962, 0.00026820085, -138049.19, -87017.8 
9.4546044e+2, 3.047764e+2, -52289.523, -175335.4, -1359.4008, 0.00077060953, 0.0012526873, -52274.508, -52274.508 
9.454548e+2, 3.1476295e+2, -55046.438, -176243.78, -1402.3164, -0.00039301705, 0.0010817356, -55030.215, -55030.215 
9.454494e+2, 3.2475406e+2, 6874.6597, -43766.08, 631.2693, -0.0006363773, 0.00024372655, 6882.5273, 6882.5273 
9.5563763e+2, 3.5110036e+1, -2496808.0, -2596881.3, -1996.711, 0.00017155879, 0.0017287303, -2496768.3, 99153.555 
9.5563185e+2, 4.510495e+1, -2411439.5, -2518583.5, -1077.9779, -0.00068958144, -0.0036007073, -2411428.8, 86542.77 
9.556261e+2, 5.5099386e+1, -2316043.0, -2422203.0, -1481.1221, 0.00006317344, 0.0008514664, -2316022.5, 84003.69 
9.5562017e+2, 6.5093267e+1, -2227997.8, -2340091.8, -3142.1794, 0.00049570145, 0.0026052261, -2227909.8, 74176.41 
9.556141e+2, 7.5086623e+1, -2133398.3, -2243991.5, -3177.686, 0.00030557596, -0.00007590691, -2133307.0, 70844.15 
9.556078e+2, 8.507942e+1, -2047148.6, -2164377.8, -4105.0225, 0.0001926339, -0.00024344522, -2047005.0, 59216.754 
9.5560145e+2, 9.5071656e+1, -1953091.0, -2068495.1, -4174.4053, 0.00020821152, -0.000032542026, -1952940.3, 55357.613 
9.55595e+2, 1.05063334e+2, -1866139.4, -1988235.8, -4713.7314, -0.00011356921, 0.00083917094, -1865957.6, 44421.816 
9.555885e+2, 1.1505444e+2, -1770501.8, -1891535.5, -4847.7075, -0.0007950911, 0.00037915737, -1770308.0, 42158.56 
9.555819e+2, 1.25045e+2, -1683752.1, -1811181.9, -5768.0835, -0.0003446737, 0.00027678558, -1683491.5, 31067.543 
9.5557517e+2, 1.3503501e+2, -1590383.8, -1715568.5, -5714.3115, 0.0012262092, -0.0013827574, -1590123.4, 26533.584 
9.555685e+2, 1.4502445e+2, -1503968.4, -1636180.5, -5650.029, 0.0009780413, -0.00053717906, -1503727.4, 15033.139 
9.5556176e+2, 1.5501331e+2, -1407938.8, -1539255.3, -5772.143, -0.001052164, 0.0006785274, -1407685.5, 13184.21 
9.55555e+2, 1.6500162e+2, -1320785.0, -1458433.9, -6423.217, -0.0010406058, 0.001454254, -1320485.9, 2498.3308 
9.5554817e+2, 1.7498936e+2, -1227228.3, -1362662.9, -6309.921, 0.0010075371, -0.00028328373, -1226935.0, -1830.7397 
9.555413e+2, 1.8497655e+2, -1140962.4, -1283371.9, -5998.757, 0.0012325671, -0.00004538546, -1140710.1, -13480.25 
9.555345e+2, 1.9496316e+2, -1045356.25, -1186614.5, -6100.831, -0.00035169427, 0.00022472844, -1045093.25, -15732.13 
9.555278e+2, 2.049492e+2, -958238.3, -1106034.4, -6116.1123, -0.0006278817, 0.0007531941, -957985.6, -26487.777 
9.55521e+2, 2.1493469e+2, -864184.2, -1010004.3, -6008.038, 0.00043095436, -0.00050693733, -863937.06, -30297.004 
9.555143e+2, 2.2491962e+2, -777608.5, -930203.4, -5465.896, 0.0006519839, 0.00021394376, -777413.0, -41625.168 
9.5550764e+2, 2.3490398e+2, -682247.4, -833460.25, -5491.877, 0.000017609853, 0.0006803435, -682048.1, -44107.117 
9.5550096e+2, 2.4488775e+2, -595499.0, -753683.25, -5002.494, -0.00036803604, 0.0010550782, -595340.94, -55240.918 
9.5549446e+2, 2.5487095e+2, -500878.3, -657155.7, -4889.23, -0.0005048862, -0.00062925, -500725.5, -58460.785 
9.55488e+2, 2.6485357e+2, -414256.94, -577536.06, -4052.3213, -0.00032600906, 0.00006780999, -414156.44, -69721.47 
9.554817e+2, 2.7483568e+2, -318788.47, -480469.53, -4033.7192, 0.00019274223, 0.001026647, -318687.9, -72077.35 
9.554755e+2, 2.8481713e+2, -232507.97, -401624.4, -3151.764, 0.00046606702, 0.0021392386, -232449.25, -83657.04 
9.554694e+2, 2.9479802e+2, -137867.98, -304868.47, -2998.3728, 0.00065916806, 0.0008704098, -137814.17, -86834.516 
9.5546335e+2, 3.0478168e+2, -52412.285, -175608.97, -2065.68, -0.0007980877, 0.00016723506, -52377.66, -52377.66 
9.554575e+2, 3.147682e+2, -55186.05, -176535.95, -2086.1936, -0.0041486686, -0.0018449225, -55150.2, -55150.2 
9.5545197e+2, 3.247594e+2, 7409.1665, -42457.48, -111.930275, 0.0025400205, 0.003765014, 7409.418, 7409.418 
9.656467e+2, 3.5115677e+1, -2496735.0, -2598291.5, -606.15063, 0.0019912675, 0.0037120753, -2496731.3, 99135.19 
9.656406e+2, 4.5110473e+1, -2407377.8, -2516647.0, -1051.8776, -0.0028374675, -0.0065483158, -2407367.5, 90549.77 
9.656347e+2, 5.510493e+1, -2313733.3, -2421143.5, -753.93097, 0.000028597173, 0.0010164942, -2313728.0, 86243.83 
9.6562856e+2, 6.50988e+1, -2226989.8, -2339971.0, -2198.5876, 0.0012059351, 0.003704803, -2226947.0, 75084.88 
9.656222e+2, 7.509212e+1, -2132831.5, -2244093.3, -2435.3499, 0.0004034636, -0.00012273926, -2132778.3, 71319.14 
9.6561575e+2, 8.508488e+1, -2046066.9, -2164032.8, -3400.467, -0.000039683375, -0.0006064337, -2045968.9, 60199.297 
9.6560913e+2, 9.507711e+1, -1950807.9, -2067578.0, -3493.18, -0.000077652, 0.000073263436, -1950703.4, 57540.984 
9.6560246e+2, 1.05068766e+2, -1864473.3, -1987572.8, -4077.5134, -0.0001360023, 0.0009755375, -1864338.4, 45987.855 
9.655958e+2, 1.1505986e+2, -1771229.6, -1892074.5, -4100.3696, -0.00024275944, 0.00014366466, -1771090.6, 41322.844 
9.655889e+2, 1.250504e+2, -1684284.5, -1811644.0, -4965.602, -0.000015687789, 0.00014380812, -1684091.1, 30415.006 
9.65582e+2, 1.3504039e+2, -1588081.4, -1714661.4, -5161.4473, 0.0005638439, -0.0009581269, -1587871.3, 28732.957 
9.655751e+2, 1.4502981e+2, -1501694.4, -1634941.8, -5203.8096, 0.0005012691, -0.00019427045, -1501491.5, 17216.352 
9.655681e+2, 1.5501869e+2, -1408891.3, -1539581.1, -5008.796, -0.00020633153, 0.00031905167, -1408699.6, 12117.338 
9.655611e+2, 1.65007e+2, -1322228.3, -1459219.4, -5495.603, -0.00032021006, 0.001041613, -1322008.1, 923.3209 
9.65554e+2, 1.7499475e+2, -1226223.0, -1362250.5, -5624.271, 0.0001727118, -0.00011436658, -1225990.9, -939.36316 
9.6554697e+2, 1.8498193e+2, -1139585.3, -1282657.8, -5379.839, 0.0003689948, 0.0002352478, -1139383.3, -12206.081 
9.6554e+2, 1.9496854e+2, -1045882.4, -1186817.3, -5247.5293, 0.0002860275, 0.00013890912, -1045687.3, -16378.915 
9.6553296e+2, 2.049546e+2, -959159.06, -1106383.8, -5216.7114, 0.00025317702, 0.00070473645, -958974.44, -27529.371 
9.655259e+2, 2.149401e+2, -863992.0, -1009812.4, -5274.0156, 0.00028214356, -0.000077814875, -863801.5, -30214.354 
9.65519e+2, 2.2492501e+2, -777418.7, -930082.56, -4779.4937, 0.00018710723, 0.00053565454, -777269.2, -41534.332 
9.655121e+2, 2.3490939e+2, -683171.75, -833870.8, -4751.8945, -0.000029030924, 0.00029201532, -683022.06, -45133.918 
9.6550524e+2, 2.4489316e+2, -596504.75, -753903.75, -4236.7583, -0.00022416475, 0.0006459674, -596390.8, -56343.746 
9.654985e+2, 2.5487638e+2, -501279.75, -657073.7, -4162.7256, -0.0004261369, -0.0003661563, -501168.6, -58957.21 
9.654919e+2, 2.6485905e+2, -414855.28, -577717.44, -3323.6746, -0.00038666677, 0.00036244054, -414787.47, -70406.016 
9.654853e+2, 2.7484113e+2, -320310.47, -481088.44, -3229.4897, -0.000082902756, 0.0007047072, -320245.63, -73688.61 
9.654789e+2, 2.848226e+2, -234040.6, -401978.7, -2312.877, 0.00038210972, 0.0015389066, -234008.75, -85270.29 
9.654725e+2, 2.9480353e+2, -138704.67, -304931.72, -2153.6077, 0.0011665324, 0.00036656184, -138676.77, -87751.2 
9.654663e+2, 3.047872e+2, -53237.625, -175932.36, -1081.3248, -0.0007541417, 0.0003801989, -53228.094, -53228.094 
9.654602e+2, 3.1477374e+2, -56192.26, -176953.97, -957.4385, -0.0056428756, -0.00019558337, -56184.67, -56184.67 
9.654544e+2, 3.2476497e+2, 5177.2554, -43069.684, 449.27634, 0.003820457, 0.0018212923, 5181.439, 5181.439 
9.7565573e+2, 3.5121518e+1, -2499743.0, -2604613.0, 40.58913, 0.0045612585, 0.0033220192, -2499743.0, 96066.23 
9.756496e+2, 4.5116162e+1, -2406874.3, -2515500.8, -2019.3624, -0.005230668, -0.0047247275, -2406836.5, 91025.1 
9.756434e+2, 5.511067e+1, -2313242.5, -2420010.5, -1753.3837, -0.000022059434, -0.00003065803, -2313213.5, 86701.87 
9.7563696e+2, 6.5104544e+1, -2227447.8, -2340873.5, -3080.523, 0.0019242952, 0.0019775692, -2227364.0, 74611.414 
9.7563034e+2, 7.509782e+1, -2133211.0, -2244951.0, -3295.3691, 0.00034861342, -0.0004542119, -2133113.8, 70927.64 
9.7562367e+2, 8.509055e+1, -2046184.0, -2164321.8, -3988.6948, -0.00055836776, -0.00030828812, -2046049.5, 60063.3 
9.7561693e+2, 9.508275e+1, -1951046.8, -2067916.9, -4082.6377, -0.0007534294, 0.00024995656, -1950904.3, 57284.83 
9.7561e+2, 1.0507438e+2, -1864542.1, -1987613.0, -5195.3022, -0.00010061984, 0.0007754436, -1864323.3, 45947.8 
9.75603e+2, 1.1506548e+2, -1771146.9, -1892033.9, -5221.6123, 0.0013396777, -0.0006197501, -1770921.8, 41436.633 
9.7559595e+2, 1.25056e+2, -1684570.5, -1812346.5, -5335.9326, 0.00088651135, 0.00024970775, -1684348.1, 30103.145 
9.7558886e+2, 1.3504596e+2, -1588589.9, -1715459.9, -5513.132, -0.0013750524, 0.0013258309, -1588350.8, 28198.814 
9.7558165e+2, 1.4503539e+2, -1501487.9, -1634292.5, -6433.3916, -0.001089999, 0.001578383, -1501177.0, 17476.307 
9.755744e+2, 1.5502428e+2, -1408464.9, -1538840.4, -6264.412, 0.0016728551, -0.0010313846, -1408164.5, 12597.625 
9.7556716e+2, 1.6501258e+2, -1322426.3, -1459729.5, -5945.7515, 0.0015393359, -0.00058042613, -1322169.3, 707.39026 
9.755599e+2, 1.7500034e+2, -1226573.9, -1362856.3, -6059.7813, -0.0014327442, 0.00079013506, -1226305.0, -1308.1356 
9.755526e+2, 1.8498752e+2, -1139485.8, -1282218.9, -6399.264, -0.0015144944, 0.0014581771, -1139199.4, -12076.974 
9.7554535e+2, 1.9497414e+2, -1045674.56, -1186325.8, -6277.1914, 0.0013120004, -0.0005425315, -1045394.94, -16141.431 
9.755381e+2, 2.049602e+2, -959254.3, -1106584.3, -5882.745, 0.0017456771, -0.00003587357, -959019.8, -27629.684 
9.7553086e+2, 2.1494569e+2, -864154.0, -1010060.06, -5930.7373, -0.00022404031, 0.0010064447, -863913.3, -30381.133 
9.755237e+2, 2.2493061e+2, -777450.2, -929990.06, -5691.943, -0.0009151369, 0.0013689547, -777238.1, -41558.145 
9.7551656e+2, 2.3491496e+2, -683134.94, -833764.75, -5667.8066, -0.0003053832, -0.0012650716, -682921.94, -45088.582 
9.755095e+2, 2.4489877e+2, -596391.56, -753619.9, -4929.3345, 0.00026623305, -0.0007602361, -596237.2, -56245.06 
9.7550255e+2, 2.5488204e+2, -501204.6, -656833.1, -4857.621, 0.0007983874, 0.00096169073, -501053.13, -58897.098 
9.754957e+2, 2.648647e+2, -414791.56, -577430.7, -4221.4766, 0.00015121922, 0.0015735318, -414682.06, -70356.18 
9.7548884e+2, 2.748468e+2, -320199.13, -480791.94, -4130.227, -0.001735367, -0.0011674426, -320093.0, -73591.49 
9.7548217e+2, 2.8482828e+2, -233819.33, -401497.6, -3040.145, -0.0012632821, -0.0012555307, -233764.22, -85081.47 
9.7547567e+2, 2.9480922e+2, -138537.9, -304470.2, -2881.8481, 0.0018211385, -0.0010532599, -138487.88, -87618.46 
9.7546923e+2, 3.04793e+2, -53174.656, -175648.94, -1839.9042, 0.0005897929, 0.001683017, -53147.023, -53147.023 
9.754629e+2, 3.1477958e+2, -56111.727, -176681.66, -1694.4633, -0.0053016003, 0.005289387, -56087.918, -56087.918 
9.754568e+2, 3.247707e+2, 5139.879, -43096.71, -1099.669, 0.0034199583, -0.0047806473, 5164.9355, 5164.9355 
9.856649e+2, 3.5127515e+1, -2495595.0, -2603356.5, 726.9944, 0.002476024, 0.00071200903, -2495590.3, 100160.29 
9.8565865e+2, 4.51222e+1, -2406092.3, -2515210.3, -1027.9976, -0.0019912103, 0.0007495889, -2406082.5, 91720.1 
9.856521e+2, 5.511664e+1, -2312541.0, -2419778.0, -1331.2969, -0.00006702299, -0.00036666222, -2312524.5, 87332.586 
9.856455e+2, 6.511048e+1, -2226327.3, -2340511.5, -2508.2695, 0.0007251012, -0.000013190871, -2226272.3, 75645.055 
9.856386e+2, 7.510376e+1, -2131056.3, -2244094.0, -2471.6865, 0.000038492963, -0.00009735725, -2131002.3, 72981.11 
9.856317e+2, 8.509647e+1, -2044403.0, -2163604.3, -3187.0596, -0.00027322536, 0.0006663842, -2044317.9, 61736.758 
9.856247e+2, 9.508866e+1, -1951089.9, -2068100.0, -3241.3672, -0.00016081889, 0.00018672251, -1951000.1, 57131.055 
9.856176e+2, 1.0508028e+2, -1864317.4, -1987758.3, -4282.2397, 0.000199662, 0.00049619045, -1864169.0, 46044.355 
9.856103e+2, 1.1507135e+2, -1768501.4, -1891000.1, -4448.1587, 0.0007904682, -0.00029754863, -1768340.1, 43960.7 
9.8560303e+2, 1.2506187e+2, -1682321.9, -1811190.4, -4598.197, 0.00044601614, 0.0006620224, -1682158.0, 32235.727 
9.855957e+2, 1.3505183e+2, -1589807.1, -1716004.9, -4431.1733, -0.0008077306, 0.0012900326, -1589651.8, 26840.406 
9.8558825e+2, 1.4504124e+2, -1502933.1, -1635246.5, -5257.1616, -0.0005851905, 0.0015455618, -1502724.5, 15871.329 
9.8558074e+2, 1.5503012e+2, -1406628.9, -1538168.6, -5545.4863, 0.0010827705, -0.00058844016, -1406395.5, 14309.395 
9.8557323e+2, 1.6501842e+2, -1320188.5, -1458625.1, -5442.5796, 0.0010970186, -0.0002978712, -1319974.9, 2844.7363 
9.855658e+2, 1.7500615e+2, -1227221.6, -1363119.5, -5295.2734, -0.00050540856, 0.00027201755, -1227015.6, -2075.9167 
9.855583e+2, 1.8499333e+2, -1140726.8, -1282753.6, -5504.28, -0.0007019863, 0.00093476695, -1140513.8, -13448.392 
9.8555076e+2, 1.9497998e+2, -1045316.1, -1186081.3, -5557.7847, 0.00053187803, -0.00024287055, -1045097.06, -15900.744 
9.8554325e+2, 2.0496605e+2, -958741.8, -1106236.4, -5245.755, 0.0007596678, 0.00027987835, -958555.5, -27222.68 
9.855358e+2, 2.1495155e+2, -864892.2, -1010340.1, -5165.9175, -0.0000174261, 0.0005075675, -864708.94, -31234.021 
9.855284e+2, 2.2493647e+2, -778331.94, -930307.06, -4789.8833, -0.00029879142, 0.00094284484, -778181.1, -42558.547 
9.85521e+2, 2.3492084e+2, -683137.2, -833640.0, -4745.945, -0.00009080992, -0.00070529425, -682987.7, -45211.87 
9.8551375e+2, 2.4490465e+2, -596468.75, -753558.6, -4094.528, 0.00018764645, -0.00015826225, -596362.1, -56427.66 
9.8550653e+2, 2.5488794e+2, -502439.1, -657284.44, -4079.2466, 0.0005432943, 0.00063186476, -502331.72, -60233.37 
9.854994e+2, 2.648706e+2, -416108.28, -577808.06, -3384.0103, 0.000063511834, 0.0011510769, -416037.5, -71769.445 
9.8549235e+2, 2.7485272e+2, -320758.34, -480800.94, -3271.8513, -0.0012988031, -0.0007961116, -320691.47, -74248.14 
9.8548543e+2, 2.8483427e+2, -234521.19, -401614.4, -2300.916, -0.0010263651, -0.0008043997, -234489.5, -85865.11 
9.854787e+2, 2.948152e+2, -140225.67, -305083.16, -2251.4004, 0.0010499485, -0.0012752138, -140194.94, -89383.99 
9.85472e+2, 3.04799e+2, -54958.625, -175855.89, -1002.1679, 0.00026009788, 0.00092742033, -54950.32, -54950.32 
9.854655e+2, 3.1478566e+2, -57663.65, -176749.55, -599.2026, -0.0035718414, 0.0041779475, -57660.637, -57660.637 
9.854591e+2, 3.2477677e+2, 4242.1978, -43966.67, -509.4825, 0.0026023882, -0.0039002157, 4247.5815, 4247.5815 
9.9567425e+2, 3.5133657e+1, -2494245.3, -2600288.0, -616.1555, -0.00327536, -0.0035156072, -2494241.8, 101448.555 
9.956677e+2, 4.5128527e+1, -2406776.8, -2516461.8, -2030.1353, 0.005515237, 0.009054207, -2406739.0, 91001.47 
9.9566084e+2, 5.512281e+1, -2313055.3, -2420929.0, -2307.4832, -0.00016427026, -0.00014871961, -2313006.0, 86790.586 
9.956539e+2, 6.511659e+1, -2226166.8, -2340287.5, -3060.8809, -0.0020165744, -0.002188142, -2226084.5, 75772.85 
9.9564695e+2, 7.510991e+1, -2131024.3, -2243929.0, -3041.264, -0.00050329824, 0.0007952413, -2130942.5, 72980.57 
9.9563986e+2, 8.5102636e+1, -2044524.6, -2163749.5, -4274.853, 0.0006077638, 0.002169928, -2044371.5, 61622.71 
9.956325e+2, 9.5094794e+1, -1951100.4, -2068181.8, -4330.7246, 0.0013758695, -0.0000453855, -1950940.4, 57130.74 
9.9562514e+2, 1.05086386e+2, -1864571.8, -1988310.0, -4749.6836, 0.00066250726, 0.00017957509, -1864389.6, 45763.8 
9.956177e+2, 1.15077436e+2, -1768930.0, -1891625.0, -4905.006, -0.0014882658, 0.0008809994, -1768734.3, 43506.984 
9.956102e+2, 1.2506795e+2, -1682104.8, -1810564.1, -5907.655, -0.0010946657, 0.0013194648, -1681833.8, 32500.445 
9.956025e+2, 1.3505794e+2, -1589372.1, -1715284.0, -5764.696, 0.0017151621, -0.00058538956, -1589108.8, 27323.512 
9.9559486e+2, 1.4504734e+2, -1503407.3, -1636345.8, -5628.6084, 0.0015419157, 0.000089430345, -1503169.4, 15366.774 
9.9558717e+2, 1.5503617e+2, -1407312.8, -1539382.8, -5886.4077, -0.0015165167, 0.0012988966, -1407050.9, 13594.821 
9.955794e+2, 1.6502444e+2, -1320096.3, -1458179.0, -6632.9556, -0.0012093363, 0.0015171358, -1319778.4, 2982.1033 
9.955717e+2, 1.7501217e+2, -1226950.1, -1362604.4, -6501.9526, 0.0024214245, -0.0013839796, -1226639.1, -1758.5095 
9.955639e+2, 1.8499938e+2, -1140816.8, -1282941.3, -6091.038, 0.0022252037, -0.0009713994, -1140556.1, -13549.994 
9.955562e+2, 1.9498602e+2, -1045512.75, -1186338.8, -6140.0083, -0.0017392864, 0.0008475069, -1045245.5, -16108.524 
9.955484e+2, 2.0497209e+2, -958685.56, -1105968.1, -6235.7075, -0.0022465116, 0.0014465465, -958422.0, -27148.492 
9.9554074e+2, 2.149576e+2, -864754.25, -1010029.4, -6161.3604, 0.0007368503, -0.0012804796, -864493.44, -31077.777 
9.955331e+2, 2.2494254e+2, -778255.56, -930101.0, -5468.6646, 0.0016744285, -0.0004956149, -778058.9, -42495.758 
9.9552554e+2, 2.3492695e+2, -683117.56, -833486.9, -5423.799, 0.00048493734, 0.0015927523, -682922.2, -45206.332 
9.9551797e+2, 2.4491078e+2, -596540.0, -753537.25, -5085.748, -0.0004065476, 0.002085292, -596375.44, -56500.992 
9.9551046e+2, 2.5489402e+2, -502431.6, -657265.9, -5074.2593, -0.0009705187, -0.0010578877, -502265.47, -60226.813 
9.955031e+2, 2.6487672e+2, -415956.44, -577419.1, -4074.7869, -0.0005778547, -0.000591795, -415853.66, -71645.45 
9.9549586e+2, 2.748589e+2, -320637.72, -480456.34, -3962.8477, 0.00082425924, 0.0014248241, -320539.5, -74156.61 
9.954887e+2, 2.8484046e+2, -234566.5, -401579.38, -3280.7678, 0.00071586645, 0.002326732, -234502.08, -85938.37 
9.954816e+2, 2.9482138e+2, -140244.61, -305043.06, -3226.3213, -0.00095409947, -0.00050666195, -140181.47, -89431.05 
9.9547476e+2, 3.048052e+2, -54382.008, -174571.45, -1689.1498, -0.0014961472, -0.0015624012, -54358.27, -54358.27 
9.954681e+2, 3.1479186e+2, -57121.83, -175482.75, -1295.7612, -0.0007478177, -0.0025267492, -57107.645, -57107.645 
9.954614e+2, 3.2478318e+2, 3622.4985, -45075.957, -1411.6755, 0.0013539152, 0.0033297073, 3663.386, 3663.386 
1.0056836e+3, 3.5140148e+1, -2493006.0, -2598216.8, -221.1947, -0.0040863454, -0.0033520078, -2493005.5, 102621.12 
1.00567676e+3, 4.5135045e+1, -2406496.5, -2516902.0, -895.17584, 0.005355049, 0.0076022465, -2406489.3, 91187.445 
1.0056697e+3, 5.512929e+1, -2310670.5, -2420323.8, -989.60315, 0.00022674921, 0.00024569634, -2310661.5, 89071.484 
1.0056625e+3, 6.5123045e+1, -2223492.0, -2339190.3, -1942.3932, -0.0014843707, -0.0014928414, -2223459.3, 78334.91 
1.0056553e+3, 7.511633e+1, -2130278.0, -2243787.3, -2121.1912, -0.00015514469, 0.00038792382, -2130238.5, 73621.63 
1.0056479e+3, 8.510903e+1, -2043977.5, -2163795.3, -3481.4873, 0.000598841, 0.0016213382, -2043876.5, 62055.055 
1.0056404e+3, 9.510117e+1, -1948940.3, -2067444.1, -3659.9917, 0.00081399863, 0.00016650706, -1948827.3, 59181.313 
1.0056327e+3, 1.0509276e+2, -1862795.8, -1987439.1, -4041.6067, 0.00028044256, 0.0005156626, -1862664.9, 47426.22 
1.00562505e+3, 1.150838e+2, -1769790.1, -1892058.5, -3961.3816, -0.000986102, 0.0006947233, -1769661.9, 42516.965 
1.0056172e+3, 1.250743e+2, -1682802.1, -1811181.0, -5029.7817, -0.0005672581, 0.0009239509, -1682605.4, 31666.592 
1.0056094e+3, 1.3506426e+2, -1586838.8, -1714313.0, -5348.1113, 0.0014418638, -0.0008454097, -1586614.9, 29755.494 
1.0056014e+3, 1.4505365e+2, -1500816.5, -1635023.3, -5229.9263, 0.0012945494, -0.0001401951, -1500613.0, 17861.264 
1.00559354e+3, 1.5504248e+2, -1408244.4, -1539763.8, -4952.1255, -0.0009417714, 0.0009797672, -1408058.3, 12525.596 
1.0055856e+3, 1.6503076e+2, -1321542.9, -1458895.9, -5489.7095, -0.00085744495, 0.0014965071, -1321323.9, 1374.7526 
1.0055775e+3, 1.750185e+2, -1225838.4, -1362067.9, -5599.9116, 0.0015267372, -0.0007053421, -1225608.6, -789.88275 
1.00556955e+3, 1.850057e+2, -1139399.5, -1282305.6, -5334.6216, 0.0015525194, -0.00040568682, -1139200.6, -12256.429 
1.0055615e+3, 1.9499233e+2, -1046130.06, -1186681.1, -5296.246, -0.00074677943, 0.0004997649, -1045930.75, -16855.568 
1.0055536e+3, 2.049784e+2, -959643.4, -1106335.0, -5302.057, -0.0011728418, 0.0010242678, -959452.0, -28240.346 
1.00554556e+3, 2.1496391e+2, -864465.5, -1009781.0, -5318.484, 0.00030875643, -0.0009200219, -864271.06, -30917.432 
1.0055377e+3, 2.2494888e+2, -777918.1, -929788.0, -4732.6616, 0.000853457, -0.00016393795, -777770.75, -42269.746 
1.0055299e+3, 2.349333e+2, -684147.0, -833817.25, -4676.214, 0.00039783734, 0.0010693761, -684001.0, -46347.313 
1.0055221e+3, 2.4491712e+2, -597816.5, -754041.44, -4281.831, -0.00016329293, 0.0015989635, -597699.25, -57887.113 
1.00551434e+3, 2.549004e+2, -502814.2, -657331.2, -4214.317, -0.0008232685, -0.00057600305, -502699.34, -60723.176 
1.00550674e+3, 2.6488313e+2, -416265.3, -577400.0, -3176.4749, -0.0005101663, -0.00013989546, -416202.72, -72057.14 
1.0054994e+3, 2.748653e+2, -321939.53, -480863.88, -3109.3887, 0.00083976734, 0.00079757685, -321878.72, -75558.53 
1.0054919e+3, 2.8484687e+2, -235955.17, -401965.06, -2433.2017, 0.00068691274, 0.0020903011, -235919.52, -87418.78 
1.0054845e+3, 2.9482785e+2, -141074.19, -305138.53, -2207.7534, -0.0010584346, 0.0011847984, -141044.48, -90357.516 
1.0054774e+3, 3.048117e+2, -55571.008, -174977.05, -779.02936, -0.0011796472, -0.00069302367, -55565.926, -55565.926 
1.0054705e+3, 3.1479833e+2, -59471.86, -176435.66, -887.9569, 0.0005834669, -0.005408123, -59465.117, -59465.117 
1.0054636e+3, 3.2478973e+2, 2188.6448, -44492.707, -489.36676, -0.00026231157, 0.004684971, 2193.7744, 2193.7744 
1.015693e+3, 3.5146934e+1, -2492540.3, -2597151.3, -1914.0514, -0.0012323754, 0.00018862456, -2492505.3, 103054.82 
1.0156858e+3, 4.5141727e+1, -2406563.8, -2517269.5, -1346.559, -0.0007862254, -0.0013262543, -2406547.3, 91063.82 
1.01567864e+3, 5.5136037e+1, -2310892.3, -2420745.3, -1437.5569, 0.00095407054, 0.0007941135, -2310873.5, 88793.43 
1.0156713e+3, 6.512978e+1, -2223865.0, -2339843.0, -3052.9124, 0.0015260227, 0.0014354709, -2223784.8, 77943.44 
1.0156637e+3, 7.512299e+1, -2130579.3, -2244407.5, -3219.1477, 0.00083778147, -0.0010192251, -2130488.3, 73306.49 
1.0156561e+3, 8.511564e+1, -2044284.3, -2164407.8, -4122.785, -0.0001524263, -0.0005127571, -2044142.9, 61723.906 
1.0156483e+3, 9.510776e+1, -1949319.1, -2068083.5, -4292.0825, -0.0014368102, 0.0007271728, -1949164.3, 58779.848 
1.01564035e+3, 1.05099335e+2, -1862639.5, -1987031.3, -5207.293, -0.00079088076, 0.0013653935, -1862422.0, 47604.645 
1.01563245e+3, 1.15090385e+2, -1769514.5, -1891608.0, -5143.216, 0.0016588261, -0.00055762834, -1769298.3, 42816.008 
1.0156244e+3, 1.2508085e+2, -1683345.0, -1812362.1, -5462.9536, 0.0015282914, -0.0002806201, -1683114.1, 31093.568 
1.01561636e+3, 1.3507076e+2, -1587559.8, -1715584.9, -5751.7627, -0.0010797791, 0.00018370948, -1587301.9, 29004.803 
1.01560816e+3, 1.4506015e+2, -1500457.9, -1634029.1, -6498.629, -0.00086271716, 0.0006124387, -1500142.4, 18268.277 
1.0155999e+3, 1.5504901e+2, -1407696.3, -1538707.3, -6253.743, 0.0021150163, -0.0010911095, -1407398.5, 13121.25 
1.0155917e+3, 1.6503732e+2, -1321739.1, -1459332.0, -6013.636, 0.0015572769, 0.000032105647, -1321476.9, 1157.4115 
1.0155834e+3, 1.7502508e+2, -1226159.0, -1362600.3, -6114.448, -0.002462159, 0.0018523302, -1225885.5, -1131.1871 
1.0155752e+3, 1.8501225e+2, -1139459.5, -1282226.4, -6462.452, -0.0020268604, 0.0021476538, -1139167.5, -12287.561 
1.01556696e+3, 1.9499886e+2, -1046065.2, -1186554.3, -6426.5938, 0.0028376554, -0.0010135479, -1045771.8, -16760.617 
1.0155587e+3, 2.0498493e+2, -959653.25, -1106383.4, -5949.8926, 0.0031365904, -0.00066308596, -959412.4, -28264.723 
1.0155506e+3, 2.1497047e+2, -864559.5, -1009878.4, -5964.8584, -0.001128053, 0.0011854208, -864315.06, -31025.715 
1.0155424e+3, 2.2495544e+2, -777906.4, -929584.0, -5762.3774, -0.002272168, 0.0016040881, -777687.8, -42251.105 
1.01553425e+3, 2.3493983e+2, -684068.7, -833605.06, -5712.61, -0.00025593283, -0.0017464928, -683850.75, -46261.13 
1.0155263e+3, 2.449237e+2, -597725.8, -753747.2, -5027.7007, 0.0007306303, -0.0010983835, -597563.94, -57816.086 
1.0155183e+3, 2.54907e+2, -502736.1, -657066.3, -4960.547, 0.00063377456, 0.0016843856, -502576.8, -60665.57 
1.0155104e+3, 2.6488975e+2, -416238.53, -577228.75, -4116.738, 0.000083431616, 0.0020981673, -416133.34, -72052.805 
1.01550266e+3, 2.748719e+2, -321901.88, -480728.8, -4051.1892, -0.0009234288, -0.0021829077, -321798.63, -75543.12 
1.015495e+3, 2.8485352e+2, -235668.98, -401246.03, -3259.129, -0.00084348716, -0.00090554985, -235604.86, -87169.125 
1.01548746e+3, 2.9483458e+2, -140747.58, -304428.47, -3040.2576, 0.00037381105, 0.0036361134, -140691.13, -90070.16 
1.0154801e+3, 3.0481842e+2, -55945.457, -175668.81, -1766.6771, 0.00079630106, 0.0029480357, -55919.395, -55919.395 
1.0154729e+3, 3.1480503e+2, -59878.0, -177180.89, -1850.431, 0.0005624178, -0.005075126, -59848.816, -59848.816 
1.0154658e+3, 3.2479647e+2, 3938.2317, -40627.453, -954.8648, -0.0022421693, 0.001045, 3958.6812, 3958.6812 
1.0257025e+3, 3.5154057e+1, -2491243.8, -2598163.8, -645.8303, 0.0010216788, 0.0027098004, -2491239.8, 104250.586 
1.025695e+3, 4.514869e+1, -2402964.5, -2515768.3, -577.3505, -0.0031139604, -0.0059689404, -2402961.5, 94581.3 
1.0256876e+3, 5.514302e+1, -2309386.5, -2420288.0, -670.9575, 0.0009382426, 0.0005327434, -2309382.3, 90216.125 
1.0256801e+3, 6.513675e+1, -2222994.3, -2339753.5, -2463.8586, 0.002087551, 0.0028330851, -2222942.3, 78717.71 
1.0256721e+3, 7.5129914e+1, -2128927.5, -2243922.0, -2548.006, 0.00035565565, -0.0005450388, -2128871.0, 74855.83 
1.0256642e+3, 8.512254e+1, -2042712.1, -2163800.0, -3170.4229, -0.0005324857, -0.0005791455, -2042629.1, 63170.043 
1.02565624e+3, 9.5114636e+1, -1948904.0, -2068042.5, -3166.4883, -0.00065239886, 0.00047428798, -1948820.0, 59056.65 
1.02564804e+3, 1.05106205e+2, -1861957.1, -1986994.3, -4247.184, -0.000032627944, 0.0011778747, -1861813.0, 48146.31 
1.0256399e+3, 1.1509723e+2, -1767041.5, -1890703.4, -4524.3496, 0.00126293, -0.00044769666, -1766876.1, 45171.063 
1.0256316e+3, 1.250877e+2, -1681306.1, -1811373.5, -4713.674, 0.0009887902, -0.0000082192555, -1681135.5, 33005.156 
1.0256233e+3, 1.350776e+2, -1588511.5, -1716023.1, -4476.2354, -0.00078969606, 0.0005418632, -1588354.5, 27885.158 
1.0256149e+3, 1.4506698e+2, -1501582.4, -1634697.0, -5238.638, -0.0005700205, 0.0009358597, -1501376.5, 16967.19 
1.0256063e+3, 1.5505584e+2, -1406175.8, -1538047.1, -5512.3105, 0.0016060049, -0.00094953383, -1405945.8, 14507.144 
1.02559775e+3, 1.6504413e+2, -1320021.4, -1458507.6, -5406.9717, 0.001240438, -0.00011610019, -1319810.6, 2756.8926 
1.0255893e+3, 1.7503187e+2, -1226909.3, -1362911.5, -5301.525, -0.001609006, 0.0013299824, -1226702.9, -2015.3068 
1.02558084e+3, 1.8501906e+2, -1140434.4, -1282598.4, -5531.998, -0.0013761711, 0.0017776771, -1140219.4, -13406.201 
1.0255724e+3, 1.9500569e+2, -1045236.0, -1186041.8, -5504.099, 0.0019223369, -0.0007195078, -1045021.2, -16076.843 
1.02556385e+3, 2.0499176e+2, -958775.56, -1105936.4, -5050.5234, 0.0021856504, -0.00030564747, -958602.44, -27521.654 
1.0255554e+3, 2.1497731e+2, -865311.7, -1010252.56, -5042.0444, -0.00060452387, 0.001050033, -865136.5, -31914.037 
1.025547e+3, 2.2496228e+2, -779027.3, -930058.56, -4869.173, -0.0014743158, 0.0014846886, -778870.5, -43500.746 
1.0255386e+3, 2.3494667e+2, -684443.56, -833683.94, -4868.9263, -0.00037947716, -0.0013347759, -684284.9, -46762.305 
1.0255304e+3, 2.4493054e+2, -597837.4, -753649.4, -4103.6914, 0.00036692288, -0.0008161504, -597729.4, -58048.64 
1.0255222e+3, 2.5491387e+2, -503325.44, -657181.4, -4043.9087, 0.00071756594, 0.0011538496, -503219.22, -61375.21 
1.025514e+3, 2.6489663e+2, -417224.78, -577490.0, -3352.3618, 0.0002082507, 0.001755525, -417154.7, -73141.6 
1.02550596e+3, 2.748788e+2, -323248.0, -481144.53, -3243.1086, -0.0011760961, -0.0013097794, -323181.44, -76993.68 
1.02549806e+3, 2.8486043e+2, -236923.6, -401575.16, -2279.284, -0.0010343982, -0.0005734264, -236892.05, -88524.25 
1.0254904e+3, 2.9484153e+2, -141694.33, -304584.7, -2202.7246, 0.00065660407, 0.0016007813, -141664.55, -91111.56 
1.02548264e+3, 3.048254e+2, -57034.4, -176033.75, -1085.83, 0.0011054775, 0.0024484068, -57024.492, -57024.492 
1.0254752e+3, 3.1481206e+2, -61483.168, -177767.52, -760.8837, 0.0004592084, 0.00011745887, -61478.188, -61478.188 
1.02546774e+3, 3.248035e+2, 1952.0924, -40785.313, 121.73337, -0.0023664373, -0.0009877811, 1952.4391, 1952.4391 
1.0357121e+3, 3.5161453e+1, -2493461.5, -2602725.0, -996.93463, 0.0027228266, 0.0044540865, -2493452.5, 101965.31 
1.03570424e+3, 4.5155892e+1, -2403116.8, -2516168.0, -1576.6908, -0.002598798, -0.007284643, -2403095.0, 94377.42 
1.03569664e+3, 5.51502e+1, -2309618.8, -2420716.0, -1659.751, 0.0002742202, -0.00033723295, -2309594.0, 89934.055 
1.03568874e+3, 6.5143913e+1, -2223200.8, -2340057.5, -3331.9556, 0.00068909995, 0.0030583544, -2223105.8, 78483.86 
1.0356807e+3, 7.5137067e+1, -2129066.8, -2244196.5, -3416.5554, -0.0012914907, 0.0013829174, -2128965.5, 74691.34 
1.0356725e+3, 8.512969e+1, -2042628.0, -2163671.0, -4125.269, -0.0006546305, 0.0009554959, -2042487.6, 63241.574 
1.0356643e+3, 9.5121783e+1, -1948829.1, -2067935.3, -4129.8145, 0.0024284099, -0.00039044427, -1948686.1, 59120.504 
1.0356559e+3, 1.05113305e+2, -1862473.1, -1987981.8, -4935.4, 0.0020925375, 0.00021535253, -1862279.4, 47610.34 
1.0356473e+3, 1.1510429e+2, -1767636.3, -1891705.6, -5189.8022, -0.0015542665, 0.0007345271, -1767419.6, 44558.48 
1.0356388e+3, 1.2509476e+2, -1680930.1, -1810437.4, -5924.694, -0.0016533282, 0.0014308648, -1680659.6, 33411.875 
1.0356301e+3, 1.350847e+2, -1587986.4, -1715054.0, -5718.482, 0.0016745931, 0.00037848725, -1587729.6, 28440.371 
1.0356215e+3, 1.4507408e+2, -1502083.5, -1635752.0, -5823.5635, 0.0015993312, 0.0009438463, -1501830.3, 16443.86 
1.0356128e+3, 1.5506288e+2, -1406790.5, -1539165.3, -6073.404, -0.0017675098, 0.00095758156, -1406512.4, 13871.37 
1.035604e+3, 1.6505115e+2, -1319937.6, -1458184.1, -6553.552, -0.0012600911, 0.0007890994, -1319627.6, 2871.073 
1.03559524e+3, 1.7503889e+2, -1226706.1, -1362558.4, -6463.519, 0.0030724017, -0.0016435311, -1226399.3, -1780.3325 
1.0355865e+3, 1.850261e+2, -1140404.6, -1282485.6, -6171.301, 0.0025856763, -0.0008959149, -1140137.1, -13392.7295 
1.0355777e+3, 1.9501276e+2, -1045300.4, -1185995.1, -6145.8047, -0.0026435754, 0.0010368091, -1045032.44, -16157.418 
1.03556894e+3, 2.0499884e+2, -958877.25, -1105917.9, -6144.9214, -0.0030019914, 0.0016997769, -958620.9, -27609.535 
1.0355603e+3, 2.1498434e+2, -865328.25, -1010212.9, -6132.4985, 0.0014732832, -0.0009037279, -865069.1, -31915.703 
1.03555165e+3, 2.2496933e+2, -779024.6, -930012.25, -5684.944, 0.002447287, -0.00014882883, -778810.9, -43510.21 
1.0355429e+3, 2.3495378e+2, -684442.8, -833663.3, -5686.621, -0.00012090593, 0.001702112, -684226.44, -46773.39 
1.03553444e+3, 2.4493766e+2, -597784.4, -753409.25, -4962.415, -0.0010668626, 0.0018837308, -597626.3, -58015.227 
1.035526e+3, 2.5492093e+2, -503286.66, -656977.6, -4907.1255, -0.00037159942, -0.0016565515, -503130.13, -61355.418 
1.0355176e+3, 2.6490372e+2, -417098.47, -577155.56, -4381.372, -0.00009291913, -0.00068263675, -416978.63, -73035.09 
1.03550926e+3, 2.7488598e+2, -323065.6, -480799.44, -4276.667, -0.00023297686, 0.002722046, -322949.72, -76832.375 
1.0355011e+3, 2.848676e+2, -236873.48, -401417.16, -3015.6042, -0.00019135536, 0.0024714419, -236818.23, -88520.914 
1.0354932e+3, 2.9484865e+2, -141704.94, -304478.84, -2933.0854, -0.0000605689, -0.0041586407, -141652.1, -91168.86 
1.0354852e+3, 3.0483258e+2, -56649.25, -175094.11, -2195.14, -0.0000057163916, -0.0014744357, -56608.582, -56608.582 
1.03547744e+3, 3.1481943e+2, -61029.785, -176801.13, -1879.1293, 0.00020221857, 0.009296732, -60999.293, -60999.293 
1.0354697e+3, 3.2481077e+2, 1262.4318, -42158.76, -659.2185, -0.0010117852, -0.001733365, 1272.4376, 1272.4376 
1.0457217e+3, 3.5168993e+1, -2490831.8, -2602563.8, -88.63175, 0.003754152, 0.00143895, -2490831.8, 104512.13 
1.0457137e+3, 4.5163465e+1, -2400669.8, -2515171.0, -859.45605, -0.0035032826, -0.0011511182, -2400663.3, 96734.98 
1.0457057e+3, 5.5157685e+1, -2308364.8, -2420321.8, -898.7349, -0.000056306366, -0.00022103408, -2308357.5, 91097.27 
1.0456976e+3, 6.515136e+1, -2222238.3, -2339883.3, -2171.2969, 0.00088326907, 0.0010714717, -2222198.0, 79318.63 
1.0456892e+3, 7.5144506e+1, -2127517.8, -2243704.8, -2296.7498, -0.00050249137, 0.00096618704, -2127472.5, 76111.45 
1.0456808e+3, 8.5137117e+1, -2040793.3, -2162968.0, -3296.6465, -0.0002600856, 0.0012901885, -2040704.4, 64951.996 
1.0456722e+3, 9.512918e+1, -1947130.0, -2067282.9, -3461.936, 0.001449238, -0.00007990535, -1947030.3, 60703.81 
1.0456636e+3, 1.05120696e+2, -1861469.4, -1987589.4, -4083.8657, 0.0012439253, 0.00038786288, -1861337.3, 48479.938 
1.04565494e+3, 1.1511167e+2, -1768027.1, -1891966.0, -3979.3625, -0.0008157072, 0.0007175995, -1767899.5, 44006.234 
1.045646e+3, 1.2510212e+2, -1681026.3, -1810620.3, -4820.781, -0.000788959, 0.0013562216, -1680847.1, 33152.117 
1.04563706e+3, 1.3509205e+2, -1586094.1, -1714262.6, -5116.808, 0.0012377377, 0.0003104522, -1585890.3, 30207.65 
1.0456282e+3, 1.4508142e+2, -1500227.3, -1634896.5, -5204.1035, 0.001092205, 0.00086826243, -1500026.4, 18175.639 
1.04561925e+3, 1.5507022e+2, -1407046.1, -1539319.6, -5018.4736, -0.0011686326, 0.0009291095, -1406856.0, 13455.878 
1.0456102e+3, 1.650585e+2, -1320447.1, -1458518.0, -5424.365, -0.00069627934, 0.00085773703, -1320234.4, 2192.5293 
1.0456012e+3, 1.7504622e+2, -1225693.9, -1362132.5, -5542.494, 0.0025057062, -0.0014527278, -1225469.1, -921.9527 
1.0455921e+3, 1.8503341e+2, -1139441.6, -1281995.9, -5341.256, 0.00199421, -0.0007937675, -1139241.9, -12569.266 
1.0455831e+3, 1.9502008e+2, -1046213.4, -1186391.5, -5325.5835, -0.002185741, 0.00087185693, -1046011.4, -17208.18 
1.0455741e+3, 2.0500618e+2, -959979.6, -1106317.3, -5277.786, -0.002470993, 0.0015248897, -959789.56, -28850.102 
1.04556516e+3, 2.149917e+2, -865203.7, -1009994.3, -5184.477, 0.001123302, -0.00087021786, -865018.3, -31936.977 
1.04555614e+3, 2.2497669e+2, -778596.44, -929784.0, -4672.226, 0.0020076272, -0.00013999917, -778452.2, -43223.73 
1.04554735e+3, 2.3496115e+2, -684511.3, -833654.5, -4664.3027, 0.000111326895, 0.0015165185, -684365.56, -46984.746 
1.0455385e+3, 2.4494502e+2, -598385.4, -753590.9, -4025.6255, -0.0008041793, 0.0018582027, -598281.0, -58742.203 
1.0455298e+3, 2.5492835e+2, -504608.38, -657493.3, -4010.4514, -0.00071599515, -0.0011914285, -504503.25, -62800.945 
1.0455211e+3, 2.6491114e+2, -418294.2, -577562.5, -3459.4995, -0.00035031373, -0.000284726, -418219.06, -74348.08 
1.04551256e+3, 2.748934e+2, -323414.5, -480794.94, -3411.25, 0.00031970508, 0.0025108906, -323340.6, -77295.88 
1.04550414e+3, 2.8487507e+2, -237438.9, -401521.03, -2182.0334, 0.0002658063, 0.0022461927, -237409.89, -89185.38 
1.0454959e+3, 2.948561e+2, -143582.36, -305207.16, -2072.8672, -0.00066684966, -0.0038023216, -143555.78, -93145.53 
1.0454877e+3, 3.0484006e+2, -58311.2, -175273.83, -1376.937, -0.00079918787, -0.0010762825, -58294.99, -58294.99 
1.0454796e+3, 3.1482697e+2, -61472.008, -176384.88, -1146.0677, 0.00012208181, 0.009172885, -61460.58, -61460.58 
1.04547165e+3, 3.2481825e+2, -36.991333, -44190.97, 4.9964795, 0.00024346613, -0.0019201065, -36.99077, -36.99077 
1.0557315e+3, 3.517667e+1, -2490573.5, -2601723.0, -461.9642, 0.004147417, -0.005105458, -2490571.5, 104697.164 
1.0557231e+3, 4.5171344e+1, -2400911.8, -2515482.3, -2186.4617, -0.005540092, 0.010633759, -2400870.0, 96450.984 
1.05571486e+3, 5.5165446e+1, -2308421.0, -2420527.3, -2219.311, -0.00018663082, 0.0006451316, -2308377.0, 91001.766 
1.05570644e+3, 6.515905e+1, -2222374.5, -2340291.3, -2890.6943, 0.0022286954, -0.0025811857, -2222303.8, 79137.64 
1.0556979e+3, 7.515218e+1, -2127763.5, -2244173.8, -3010.237, 0.0021145693, -0.0012271015, -2127685.8, 75823.02 
1.0556892e+3, 8.514477e+1, -2041152.1, -2163554.5, -4276.8896, 0.0004741737, 0.00072392385, -2041002.9, 64578.516 
1.0556803e+3, 9.5136815e+1, -1947430.9, -2067850.6, -4432.7656, -0.002715142, 0.0011469029, -1947267.9, 60391.39 
1.0556714e+3, 1.0512833e+2, -1861239.5, -1987064.4, -5136.287, -0.0019264101, 0.0014476175, -1861030.1, 48712.3 
1.0556623e+3, 1.15119316e+2, -1767747.0, -1891444.1, -5049.7383, 0.0026490954, -0.00022971169, -1767541.3, 44289.527 
1.0556533e+3, 1.2510975e+2, -1681557.9, -1811716.1, -5515.7495, 0.0027370923, 0.00012675852, -1681324.6, 32599.945 
1.05564415e+3, 1.3509962e+2, -1586709.5, -1715392.8, -5785.797, -0.0015061533, 0.0003279272, -1586450.0, 29573.816 
1.0556349e+3, 1.4508897e+2, -1499971.8, -1634219.5, -6320.9507, -0.0015286069, 0.0007325286, -1499674.8, 18453.32 
1.05562575e+3, 1.550778e+2, -1406706.1, -1538626.4, -6159.029, 0.0025104492, -0.00062329194, -1406419.1, 13818.329 
1.05561644e+3, 1.650661e+2, -1320712.0, -1458993.9, -6171.1426, 0.0022141796, 0.0002941917, -1320437.1, 1915.2479 
1.05560705e+3, 1.7505382e+2, -1226005.6, -1362667.6, -6279.2354, -0.0022645697, 0.0012661126, -1225717.8, -1245.0778 
1.0555978e+3, 1.85041e+2, -1139510.0, -1281970.8, -6462.2993, -0.0022333127, 0.0015185771, -1139217.5, -12619.194 
1.0555885e+3, 1.9502763e+2, -1046179.3, -1186352.0, -6453.789, 0.002250674, -0.0008288031, -1045882.8, -17153.56 
1.05557926e+3, 2.0501375e+2, -959808.0, -1105911.4, -6022.481, 0.0025741037, -0.00036649086, -959560.1, -28694.77 
1.05556995e+3, 2.1499933e+2, -865090.9, -1009635.9, -5939.695, -0.0012395664, 0.0007717855, -864847.2, -31840.525 
1.0555608e+3, 2.2498433e+2, -778660.1, -929732.7, -5626.5894, -0.0019889113, 0.0012017608, -778450.9, -43297.164 
1.0555516e+3, 2.3496874e+2, -684546.0, -833629.44, -5615.533, 0.00029561343, -0.0012767855, -684334.75, -47028.395 
1.0555426e+3, 2.4495263e+2, -598406.75, -753524.6, -5073.9497, 0.0007978788, -0.0003650985, -598240.94, -58776.695 
1.0555336e+3, 2.54936e+2, -504584.34, -657415.06, -5057.659, -0.0005152647, 0.0019304696, -504417.16, -62789.934 
1.05552465e+3, 2.649188e+2, -418227.78, -577419.25, -4245.4785, -0.000624647, 0.0024012125, -418114.63, -74318.766 
1.05551586e+3, 2.7490103e+2, -323373.1, -480679.1, -4194.0938, 0.0005109267, -0.0012004268, -323261.34, -77291.3 
1.0555071e+3, 2.848827e+2, -237364.97, -401282.72, -3245.1494, 0.00034981823, -0.00065145886, -237300.75, -89151.086 
1.0554986e+3, 2.9486382e+2, -143509.19, -304983.16, -3138.3582, -0.0012331557, 0.0015918488, -143448.22, -93113.766 
1.0554901e+3, 3.048478e+2, -58065.383, -174639.69, -2153.4702, -0.0013870938, 0.0028236357, -58025.617, -58025.617 
1.0554818e+3, 3.1483465e+2, -61214.41, -175755.77, -1931.0387, 0.00009186959, 0.0012055673, -61181.863, -61181.863 
1.0554736e+3, 3.2482597e+2, -1238.6256, -46492.19, -866.5142, 0.0013440175, -0.0015319863, -1222.0398, -1222.0398 
1.0657412e+3, 3.5184696e+1, -2489026.5, -2599434.5, 500.04074, 0.0019574736, -0.0038730716, -2489024.3, 106165.91 
1.0657327e+3, 4.5179394e+1, -2400897.0, -2515863.3, -1224.3961, -0.0030029565, 0.009234704, -2400884.0, 96358.16 
1.0657241e+3, 5.517347e+1, -2306102.3, -2419758.0, -1401.2693, 0.00032731122, 0.0006494427, -2306085.0, 93215.14 
1.0657153e+3, 6.516705e+1, -2219653.0, -2339094.3, -2099.1992, 0.0016278524, -0.0020148589, -2219616.0, 81746.91 
1.0657065e+3, 7.516017e+1, -2126708.3, -2243793.8, -2134.198, 0.0013222948, -0.00082911435, -2126669.3, 76761.05 
1.0656976e+3, 8.5152733e+1, -2040758.3, -2163597.3, -3278.413, 0.0003040311, 0.0008668744, -2040670.9, 64832.41 
1.0656885e+3, 9.5144767e+1, -1946750.4, -2067718.3, -3328.4863, -0.001556411, 0.0009467635, -1946658.9, 60922.5 
1.0656792e+3, 1.0513626e+2, -1860019.8, -1986636.6, -4159.7095, -0.0010436611, 0.0012186798, -1859883.3, 49781.555 
1.06566995e+3, 1.15127236e+2, -1765870.0, -1890694.1, -4386.0117, 0.0017654836, -0.00019459175, -1765716.1, 46037.074 
1.06566064e+3, 1.2511766e+2, -1680060.4, -1811071.3, -4745.56, 0.0018312819, 0.00013407075, -1679888.8, 33958.32 
1.0656511e+3, 1.3510752e+2, -1586768.3, -1715481.3, -4583.966, -0.0007957706, 0.000048532114, -1586605.1, 29341.195 
1.0656417e+3, 1.4509687e+2, -1500217.0, -1634450.3, -5134.656, -0.0007513095, 0.00046584578, -1500020.9, 18029.908 
1.0656322e+3, 1.550857e+2, -1405866.8, -1538301.9, -5338.984, 0.0019070304, -0.00058122113, -1405651.9, 14508.371 
1.0656226e+3, 1.6507398e+2, -1319816.3, -1458470.6, -5352.852, 0.0014805122, 0.0005013726, -1319610.0, 2665.1853 
1.065613e+3, 1.750617e+2, -1226357.8, -1362702.8, -5195.4824, -0.0019609465, 0.001506463, -1226160.0, -1764.6974 
1.0656034e+3, 1.850489e+2, -1139899.6, -1282251.9, -5297.3936, -0.0017127879, 0.0017029658, -1139702.8, -13181.835 
1.0655939e+3, 1.950355e+2, -1045357.0, -1186003.1, -5350.908, 0.002194167, -0.0007922467, -1045153.7, -16501.68 
1.06558435e+3, 2.0502162e+2, -958933.8, -1105466.8, -5022.086, 0.0023941314, -0.00040162253, -958761.9, -27973.72 
1.0655748e+3, 2.150072e+2, -865558.4, -1009844.1, -5084.062, -0.0011189164, 0.00078823447, -865379.44, -32449.994 
1.0655653e+3, 2.2499222e+2, -779701.7, -930056.2, -4792.51, -0.0019539897, 0.0012412101, -779549.06, -44472.734 
1.0655559e+3, 2.3497665e+2, -685588.1, -833931.6, -4710.257, -0.00011356497, -0.001276025, -685438.7, -48209.83 
1.06554665e+3, 2.4496056e+2, -599125.56, -753753.75, -4122.487, 0.00053525885, -0.00043904613, -599015.7, -59629.117 
1.06553726e+3, 2.5494394e+2, -504731.16, -657360.5, -4049.914, -0.00005947386, 0.001785752, -504623.75, -63074.348 
1.0655281e+3, 2.6492676e+2, -418438.03, -577392.94, -3122.331, -0.00022683425, 0.0021450918, -418376.72, -74658.78 
1.0655191e+3, 2.7490896e+2, -324243.47, -480984.3, -3058.899, 0.000056655732, -0.0016178765, -324183.78, -78291.74 
1.06551e+3, 2.8489068e+2, -238568.19, -401632.78, -2290.1436, -0.00006665491, -0.0004914518, -238536.03, -90464.59 
1.0655012e+3, 2.9487187e+2, -144880.28, -305381.22, -2163.0173, -0.0006796461, 0.003105029, -144851.14, -94595.27 
1.0654924e+3, 3.0485582e+2, -59625.254, -175377.2, -992.98486, -0.0009845013, 0.0027115128, -59616.74, -59616.74 
1.0654839e+3, 3.148426e+2, -62786.984, -176492.2, -1056.9917, -0.0008628173, -0.0036818492, -62777.16, -62777.16 
1.0654756e+3, 3.2483408e+2, -2596.8572, -46122.715, 400.2378, 0.0017601828, 0.0013261852, -2593.1772, -2593.1772 
1.07575096e+3, 3.5193023e+1, -2487601.0, -2596599.0, -594.0797, -0.0022407877, 0.0031212606, -2487597.8, 107510.68 
1.0757423e+3, 4.5187598e+1, -2401294.8, -2516678.3, -1924.9789, 0.0028813474, -0.002082474, -2401262.5, 95899.03 
1.0757334e+3, 5.518173e+1, -2306539.5, -2420578.5, -2079.9456, 0.001243918, 0.000041623098, -2306501.5, 92717.61 
1.0757244e+3, 6.517533e+1, -2219754.3, -2339197.3, -3241.2483, -0.0005250296, 0.0017818043, -2219666.5, 81615.445 
1.0757152e+3, 7.5168425e+1, -2126732.8, -2243864.3, -3282.7493, -0.0020895775, 0.0015390054, -2126640.8, 76708.74 
1.075706e+3, 8.5160965e+1, -2040795.4, -2163673.5, -4177.6733, -0.0005788597, 0.0015453062, -2040653.5, 64769.125 
1.07569665e+3, 9.515297e+1, -1946801.1, -2067824.1, -4228.2065, 0.0036274986, -0.0003371147, -1946653.6, 60847.414 
1.0756871e+3, 1.0514443e+2, -1860428.9, -1987420.0, -5027.5522, 0.0028958968, 0.00003378322, -1860230.1, 49354.484 
1.07567765e+3, 1.1513538e+2, -1766305.3, -1891495.8, -5236.5073, -0.0025218397, 0.00060322136, -1766086.6, 45586.832 
1.07566796e+3, 1.251258e+2, -1679792.3, -1810401.6, -5827.365, -0.0025440226, 0.0011032943, -1679532.8, 34234.582 
1.0756582e+3, 1.351157e+2, -1586448.4, -1714815.4, -5692.09, 0.0025676182, -0.00045059153, -1586196.5, 29669.771 
1.07564844e+3, 1.4510503e+2, -1500627.8, -1635220.8, -5973.4043, 0.0026205548, 0.00013346973, -1500363.1, 17607.543 
1.0756387e+3, 1.5509382e+2, -1406309.3, -1539103.6, -6157.9556, -0.0021025825, 0.0007233545, -1406024.4, 14056.26 
1.0756288e+3, 1.650821e+2, -1319586.4, -1457883.3, -6410.0156, -0.0021316595, 0.0013164826, -1319289.9, 2905.6304 
1.0756189e+3, 1.7506984e+2, -1226060.9, -1362137.4, -6275.082, 0.0023195485, -0.00020653916, -1225772.1, -1456.5554 
1.0756091e+3, 1.8505704e+2, -1140049.4, -1282460.5, -6104.773, 0.0024878597, 0.00023629921, -1139788.3, -13347.138 
1.0755993e+3, 1.9504368e+2, -1045545.4, -1186273.5, -6154.0127, -0.0014977755, 0.00065202714, -1045276.8, -16704.795 
1.07558936e+3, 2.0502977e+2, -959146.06, -1105695.5, -6128.5503, -0.001973475, 0.0010592436, -958890.25, -28181.945 
1.0755796e+3, 2.1501532e+2, -865702.3, -1010065.6, -6184.5146, 0.0009638787, -0.00050742645, -865437.9, -32587.92 
1.07556984e+3, 2.2500034e+2, -779555.8, -929660.3, -5714.565, 0.0012538907, 0.00025404233, -779338.6, -44341.816 
1.07556015e+3, 2.3498483e+2, -685422.4, -833558.9, -5642.226, -0.001053443, 0.0009817231, -685207.75, -48059.016 
1.07555054e+3, 2.4496876e+2, -599014.3, -753419.3, -5011.6274, -0.0012733969, 0.0012231178, -598851.8, -59545.54 
1.075541e+3, 2.5495213e+2, -504647.75, -657052.75, -4942.0127, 0.00054877624, -0.001024093, -504487.66, -63018.383 
1.0755315e+3, 2.6493493e+2, -418411.28, -577224.56, -4091.5508, 0.00065798074, -0.0005006877, -418305.94, -74668.31 
1.0755222e+3, 2.7491724e+2, -324220.97, -480825.34, -4025.8147, -0.00097486866, 0.00064423657, -324117.53, -78306.38 
1.0755129e+3, 2.8489897e+2, -238420.9, -401305.25, -3392.634, -0.0009409866, 0.0021308323, -238350.27, -90359.97 
1.07550375e+3, 2.9488012e+2, -144654.9, -305037.47, -3267.847, 0.0007436217, 0.0013841433, -144588.36, -94413.49 
1.0754947e+3, 3.0486408e+2, -59840.508, -175841.19, -1761.9985, 0.00016098973, -0.0007100039, -59813.75, -59813.75 
1.07548594e+3, 3.1485084e+2, -63107.55, -177019.16, -1805.7394, -0.0026841688, -0.005995694, -63078.934, -63078.934 
1.0754773e+3, 3.248425e+2, -709.0183, -41854.043, -733.7434, 0.0014882077, 0.006102531, -695.93756, -695.93756 
1.0857609e+3, 3.5201705e+1, -2485127.8, -2596944.5, 563.47736, -0.0017200977, 0.003959383, -2485125.0, 109898.47 
1.0857518e+3, 4.5196176e+1, -2399411.3, -2515780.5, -885.30206, 0.0026075135, -0.004940902, -2399404.5, 97673.055 
1.0857428e+3, 5.5190325e+1, -2305413.5, -2420070.0, -756.37787, 0.0010995556, 0.000052204672, -2305408.5, 93726.3 
1.08573355e+3, 6.518392e+1, -2218813.3, -2339102.8, -2095.012, -0.0003984298, 0.0026041174, -2218776.8, 82420.984 
1.085724e+3, 7.517697e+1, -2125086.8, -2243392.8, -2300.0742, -0.0015442478, 0.0012659216, -2125042.0, 78223.67 
1.0857145e+3, 8.516949e+1, -2038872.6, -2162883.0, -3212.3467, -0.00031757134, 0.0010662023, -2038789.5, 66549.586 
1.0857049e+3, 9.5161486e+1, -1945271.9, -2067206.5, -3310.3792, 0.0029378964, -0.00017959034, -1945182.0, 62235.52 
1.0856951e+3, 1.0515294e+2, -1859398.8, -1987046.6, -4020.9397, 0.0024050903, 0.0002598128, -1859272.1, 50229.152 
1.0856852e+3, 1.1514386e+2, -1765936.6, -1891425.0, -3979.2354, -0.0017570301, 0.00034616282, -1765810.5, 45779.72 
1.0856753e+3, 1.2513426e+2, -1679437.8, -1810383.5, -4671.8, -0.0018927939, 0.00097185676, -1679271.3, 34412.99 
1.0856653e+3, 1.3512416e+2, -1585464.1, -1714481.4, -4928.828, 0.001834203, 0.00019582469, -1585276.1, 30507.201 
1.08565524e+3, 1.451135e+2, -1499564.8, -1634684.8, -5159.384, 0.0018991788, 0.0008095908, -1499368.0, 18519.797 
1.0856451e+3, 1.5510228e+2, -1405967.9, -1538917.1, -4986.471, -0.0015179219, 0.00066628534, -1405781.1, 14216.61 
1.085635e+3, 1.6509055e+2, -1319441.4, -1457941.3, -5273.109, -0.0014392233, 0.0008966952, -1319240.9, 2871.9373 
1.08562484e+3, 1.7507827e+2, -1225484.5, -1361917.3, -5460.99, 0.0020289617, -0.0005996098, -1225266.3, -1033.3507 
1.0856147e+3, 1.8506548e+2, -1139588.3, -1282144.0, -5332.036, 0.0019633016, 0.000052435782, -1139389.1, -13030.733 
1.0856046e+3, 1.9505212e+2, -1046180.0, -1186458.0, -5219.6943, -0.0015852996, 0.0008577485, -1045986.0, -17496.814 
1.08559445e+3, 2.0503822e+2, -959931.44, -1106032.4, -5082.0503, -0.0018952189, 0.0013507773, -959754.9, -29129.475 
1.08558446e+3, 2.1502377e+2, -865752.25, -1010017.7, -5008.8687, 0.0009669205, -0.0004201056, -865578.56, -32811.5 
1.0855745e+3, 2.250088e+2, -779259.5, -929492.06, -4494.628, 0.0013499302, 0.0003021893, -779125.1, -44211.33 
1.0855644e+3, 2.3499331e+2, -685289.56, -833421.0, -4544.87, -0.0007413326, 0.0011606393, -685150.25, -48084.53 
1.0855546e+3, 2.4497724e+2, -599274.44, -753412.5, -4047.5151, -0.0010274468, 0.001353435, -599168.2, -59945.043 
1.0855447e+3, 2.549606e+2, -505637.72, -657388.3, -4049.4717, 0.00046529158, -0.0011154276, -505529.75, -64143.676 
1.0855349e+3, 2.6494345e+2, -419843.75, -577653.44, -3218.2402, 0.00037370238, -0.0005969943, -419778.16, -76223.91 
1.0855253e+3, 2.7492574e+2, -325893.6, -481399.5, -3118.7417, -0.0013329792, 0.0008039532, -325831.06, -80103.51 
1.0855158e+3, 2.849075e+2, -239558.42, -401535.44, -2377.0369, -0.00092027406, 0.0019508898, -239523.55, -91617.05 
1.0855064e+3, 2.948887e+2, -144564.4, -304662.8, -2242.1587, 0.0015742551, 0.00021966857, -144533.02, -94442.15 
1.0854971e+3, 3.0487266e+2, -60147.82, -175966.23, -741.6058, 0.00085862033, -0.0009629388, -60143.074, -60143.074 
1.0854879e+3, 3.1485948e+2, -65237.203, -178001.14, -569.037, -0.0030960564, -0.003342365, -65234.332, -65234.332 
1.0854789e+3, 3.2485113e+2, -3528.4395, -41764.297, -263.42047, 0.00069227355, 0.003970316, -3526.6248, -3526.6248 
1.0957709e+3, 3.521069e+1, -2487983.8, -2602587.3, -1242.4589, 0.002137117, 0.00027719935, -2487970.3, 106965.07 
1.0957615e+3, 4.5205063e+1, -2399030.8, -2515271.8, -1751.4795, -0.002349535, -0.0014069675, -2399004.3, 97986.18 
1.0957522e+3, 5.519922e+1, -2305153.0, -2419629.0, -1661.8733, 0.00010599805, 0.0005216352, -2305129.0, 93918.77 
1.09574266e+3, 6.519277e+1, -2219222.0, -2339879.3, -3073.5762, 0.0013788373, 0.0011884085, -2219143.8, 81967.234 
1.0957329e+3, 7.518577e+1, -2125475.0, -2244168.8, -3256.7712, 0.001964817, -0.000992802, -2125385.8, 77793.79 
1.095723e+3, 8.517826e+1, -2039056.4, -2163197.0, -4200.69, 0.0007636938, -0.00026955607, -2038914.4, 66338.8 
1.09571315e+3, 9.517026e+1, -1945457.0, -2067524.5, -4296.879, -0.0022831697, 0.0010821392, -1945305.9, 62025.68 
1.095703e+3, 1.0516171e+2, -1859321.6, -1986778.3, -5061.199, -0.0014882126, 0.0015708162, -1859120.9, 50294.39 
1.0956929e+3, 1.15152635e+2, -1765821.9, -1891158.0, -5030.3057, 0.002864333, -0.00071536534, -1765620.3, 45884.02 
1.09568276e+3, 1.25143e+2, -1679923.3, -1811314.4, -5596.235, 0.0025587087, 0.000019938954, -1679685.4, 33913.234 
1.0956724e+3, 1.3513286e+2, -1585948.3, -1715395.9, -5827.861, -0.002115016, 0.0017281944, -1585686.4, 30011.658 
1.095662e+3, 1.4512219e+2, -1499287.3, -1634005.5, -6157.657, -0.0020056397, 0.002266223, -1499006.4, 18796.215 
1.09565176e+3, 1.5511101e+2, -1405676.0, -1538254.8, -6013.156, 0.0025950961, -0.00045253782, -1405403.9, 14508.393 
1.09564126e+3, 1.6509926e+2, -1319856.8, -1458690.6, -6213.2607, 0.0025294463, -0.00046228353, -1319579.3, 2448.0298 
1.0956308e+3, 1.7508696e+2, -1225870.3, -1362699.5, -6386.358, -0.0019037368, 0.000061526, -1225572.8, -1424.9539 
1.0956204e+3, 1.8507415e+2, -1139435.4, -1281704.0, -6397.86, -0.0023092092, 0.00088497036, -1139148.3, -12874.848 
1.09561e+3, 1.9506082e+2, -1045979.7, -1186043.5, -6298.519, 0.0011387818, 0.0000886259, -1045697.0, -17292.998 
1.0955996e+3, 2.0504695e+2, -959822.44, -1105677.8, -5983.3096, 0.0016446507, 0.0007479285, -959577.4, -29037.43 
1.09558925e+3, 2.1503253e+2, -865642.4, -1009713.56, -5920.915, -0.0007529395, 0.00078258524, -865399.44, -32718.268 
1.095579e+3, 2.2501756e+2, -779408.7, -929638.2, -5472.0063, -0.0010977284, 0.0011914859, -779209.6, -44381.676 
1.09556876e+3, 2.3500203e+2, -685432.7, -833595.0, -5514.4663, 0.00054441247, -0.00033925546, -685227.75, -48247.56 
1.0955585e+3, 2.4498597e+2, -599345.75, -753393.56, -5118.78, 0.0008229267, 0.00025870238, -599175.9, -60038.266 
1.09554835e+3, 2.549694e+2, -505659.94, -657350.94, -5114.2344, -0.00024667854, 0.0009791998, -505487.72, -64187.52 
1.0955384e+3, 2.6495224e+2, -419674.22, -577283.3, -4231.2197, -0.0009112565, 0.0013554085, -419560.72, -76092.47 
1.0955283e+3, 2.7493453e+2, -325726.56, -481036.53, -4131.983, -0.0011714959, -0.00077576045, -325616.7, -79975.08 
1.09551854e+3, 2.8491628e+2, -239397.6, -401101.13, -3129.8928, -0.0002290302, -0.0005301487, -239337.05, -91516.67 
1.0955089e+3, 2.9489753e+2, -144486.33, -304269.06, -2995.1409, 0.0018421119, -0.00048597055, -144430.2, -94425.9 
1.09549925e+3, 3.0488157e+2, -60057.605, -175584.66, -1976.086, 0.0011375294, 0.001362267, -60023.816, -60023.816 
1.09548986e+3, 3.1486845e+2, -65074.023, -177601.92, -1799.8596, -0.0023954406, 0.0033230653, -65045.242, -65045.242 
1.0954805e+3, 3.2485995e+2, -3606.5742, -41938.934, -1769.3173, -0.0006785554, -0.003909581, -3525.0806, -3525.0806 
1.105781e+3, 3.5219944e+1, -2486782.5, -2602336.0, -373.2441, 0.0036192455, -0.0010148986, -2486781.3, 108063.41 
1.1057712e+3, 4.5214316e+1, -2395597.3, -2514101.3, -484.06854, -0.0040613576, 0.0012886445, -2395595.3, 101304.52 
1.1057616e+3, 5.520839e+1, -2303206.8, -2419166.3, -888.0785, 0.00029736533, 0.0005314584, -2303200.0, 95757.78 
1.10575184e+3, 6.5201914e+1, -2217765.0, -2339327.5, -2273.0972, 0.002006738, 0.00039862547, -2217722.5, 83298.87 
1.10574186e+3, 7.51949e+1, -2124176.8, -2243645.8, -2228.0923, 0.0016746831, -0.000820419, -2124135.3, 78954.875 
1.1057317e+3, 8.5187376e+1, -2037955.6, -2162833.0, -3108.9746, 0.00040094313, 0.00003190748, -2037878.3, 67285.48 
1.1057213e+3, 9.517935e+1, -1944622.9, -2067253.0, -3181.9646, -0.0019657814, 0.0007479673, -1944540.4, 62701.99 
1.1057111e+3, 1.05170794e+2, -1858423.0, -1986514.0, -4014.6665, -0.0012191238, 0.0013532529, -1858297.4, 51028.96 
1.1057006e+3, 1.151617e+2, -1764677.0, -1890748.8, -4192.7617, 0.002464915, -0.000083217274, -1764537.8, 46877.645 
1.1056901e+3, 1.2515208e+2, -1678733.1, -1810766.9, -4630.39, 0.002302583, 0.00043556612, -1678570.9, 34938.797 
1.1056794e+3, 1.3514192e+2, -1585122.1, -1714992.3, -4472.2715, -0.0015312154, 0.0008957762, -1584968.4, 30640.936 
1.10566884e+3, 1.4513125e+2, -1498757.6, -1633920.1, -4866.609, -0.0015743078, 0.0013868556, -1498582.6, 19131.328 
1.1056582e+3, 1.5512004e+2, -1405276.6, -1538196.1, -5101.485, 0.0019723624, -0.00019344309, -1405081.0, 14742.592 
1.10564746e+3, 1.651083e+2, -1319517.5, -1458591.1, -5255.435, 0.0019123231, 0.00018885048, -1319319.1, 2619.6033 
1.1056367e+3, 1.7509599e+2, -1225760.1, -1362675.5, -5132.93, -0.0015365463, 0.00041136277, -1225568.0, -1508.6233 
1.1056261e+3, 1.8508318e+2, -1139215.8, -1281579.1, -5162.416, -0.0017609446, 0.0009659037, -1139028.9, -12843.91 
1.10561535e+3, 1.9506985e+2, -1045615.56, -1185787.1, -5215.7803, 0.0011130811, -0.00006709014, -1045421.75, -17106.19 
1.1056048e+3, 2.0505598e+2, -959561.75, -1105585.8, -4954.918, 0.0014091935, 0.0005479207, -959393.8, -28942.371 
1.105594e+3, 2.1504156e+2, -865857.4, -1009768.9, -5018.5405, -0.00086176756, 0.0006870277, -865682.56, -33089.926 
1.1055834e+3, 2.2502661e+2, -779989.4, -929776.56, -4635.3804, -0.0011078886, 0.0011145023, -779846.06, -45106.727 
1.1055729e+3, 2.3501109e+2, -686571.5, -833979.4, -4524.583, 0.0005835671, -0.00041900598, -686432.75, -49541.39 
1.1055624e+3, 2.4499504e+2, -600371.9, -753756.25, -3932.6506, 0.0007763387, 0.00024252897, -600271.1, -61222.434 
1.105552e+3, 2.5497848e+2, -506006.3, -657399.75, -3841.7761, -0.0005036418, 0.0011224333, -505908.88, -64697.793 
1.10554166e+3, 2.6496133e+2, -419753.75, -577119.6, -3001.0383, -0.0008192846, 0.0016480202, -419696.53, -76317.59 
1.1055314e+3, 2.7494365e+2, -325947.1, -480925.78, -2943.149, -0.00016958715, -0.0003590213, -325891.22, -80339.11 
1.10552125e+3, 2.8492543e+2, -240438.9, -401327.66, -1930.4839, 0.0002953658, -0.0004680973, -240415.75, -92685.06 
1.10551134e+3, 2.9490668e+2, -147011.08, -305229.28, -1865.6134, 0.00049429754, -0.0012358888, -146989.08, -97074.58 
1.1055014e+3, 3.0489078e+2, -62427.45, -176072.6, -867.4088, 0.00021934444, 0.0013345755, -62420.83, -62420.83 
1.1054917e+3, 3.1487772e+2, -66141.766, -177468.5, -515.43634, -0.00055872323, 0.0055962685, -66139.375, -66139.375 
1.1054819e+3, 3.2486922e+2, -3613.0457, -42771.363, -686.4699, -0.00087607506, -0.004916494, -3601.015, -3601.015 
1.1157911e+3, 3.5229436e+1, -2485168.8, -2599005.5, -350.84787, 0.0032156117, -0.0005105068, -2485167.8, 109583.85 
1.1157812e+3, 4.5223877e+1, -2396502.3, -2515789.3, -1817.8099, -0.003445517, 0.0034008191, -2396474.5, 100331.555 
1.1157712e+3, 5.521782e+1, -2304000.0, -2420760.8, -2160.1606, 0.001311288, 0.00019731166, -2303960.0, 94905.54 
1.11576095e+3, 6.5211296e+1, -2217679.5, -2339115.5, -3231.79, 0.0017070892, 0.00008788722, -2217593.5, 83335.86 
1.11575074e+3, 7.5204325e+1, -2124080.8, -2243457.8, -3205.3342, -0.0015016984, 0.0011819903, -2123994.8, 79002.91 
1.11574024e+3, 8.5196793e+1, -2038072.5, -2163039.0, -4169.7197, -0.0010657999, 0.0015680287, -2037933.5, 67138.016 
1.1157297e+3, 9.518873e+1, -1944722.4, -2067468.4, -4238.784, 0.0024966167, -0.000797211, -1944576.1, 62574.42 
1.1157191e+3, 1.0518014e+2, -1858733.5, -1987116.0, -4981.0776, 0.0021467647, -0.000007060211, -1858540.5, 50694.203 
1.11570835e+3, 1.15171045e+2, -1764983.0, -1891351.9, -5145.6763, -0.0018154182, 0.0018406314, -1764773.8, 46550.055 
1.1156975e+3, 1.2516142e+2, -1678470.9, -1810086.5, -5629.438, -0.0015928339, 0.0018999553, -1678230.5, 35187.62 
1.1156867e+3, 1.3515127e+2, -1584860.3, -1714360.8, -5503.982, 0.0025004274, -0.0017365811, -1584626.8, 30890.916 
1.1156758e+3, 1.4514057e+2, -1499241.6, -1634800.3, -5935.2925, 0.002135379, -0.0012511145, -1498982.3, 18640.225 
1.1156647e+3, 1.5512936e+2, -1405705.6, -1539072.4, -6145.0527, -0.0023891674, 0.0011413558, -1405423.0, 14309.356 
1.1156537e+3, 1.651176e+2, -1319314.5, -1458099.3, -6224.2827, -0.0023055337, 0.0024037298, -1319035.9, 2811.7139 
1.1156428e+3, 1.7510532e+2, -1225570.3, -1362238.0, -6115.3423, 0.0021578958, 0.00052102114, -1225297.1, -1329.1938 
1.1156318e+3, 1.850925e+2, -1139390.9, -1281784.9, -6191.8257, 0.0024914946, 0.000483361, -1139122.1, -13028.565 
1.1156207e+3, 1.9507916e+2, -1045735.6, -1186021.4, -6250.582, -0.0011559206, 0.00027919168, -1045457.7, -17233.477 
1.1156097e+3, 2.0506528e+2, -959711.1, -1105799.9, -5966.024, -0.0018522592, 0.00068167935, -959467.9, -29107.572 
1.1155989e+3, 2.1505085e+2, -865992.4, -1010011.94, -6021.556, 0.00026905333, -0.00044114856, -865741.06, -33239.32 
1.1155879e+3, 2.250359e+2, -779807.25, -929264.8, -5736.829, 0.0007458186, 0.0002941811, -779587.4, -44939.09 
1.115577e+3, 2.3502043e+2, -686342.4, -833468.0, -5633.8335, -0.0004306337, 0.000640278, -686127.0, -49327.16 
1.1155663e+3, 2.4500442e+2, -600189.2, -753353.75, -4827.291, -0.00083118567, 0.0010941825, -600037.2, -61080.367 
1.11555554e+3, 2.5498784e+2, -505886.28, -657024.7, -4739.3037, -0.00043487785, -0.0003252253, -505737.84, -64618.656 
1.1155449e+3, 2.6497072e+2, -419740.56, -576949.8, -4065.6628, 0.000324657, 0.0005923182, -419635.47, -76348.68 
1.11553445e+3, 2.7495313e+2, -325918.16, -480740.97, -4005.3381, 0.0014636006, 0.0016677849, -325814.6, -80355.06 
1.115524e+3, 2.849349e+2, -240376.98, -401184.16, -3092.8638, 0.0006346969, 0.0016577899, -240317.53, -92679.54 
1.1155137e+3, 2.9491612e+2, -146926.55, -305069.03, -3022.3289, -0.0022390373, -0.002060381, -146868.8, -97046.84 
1.1155035e+3, 3.0490023e+2, -61865.51, -174882.9, -1764.0815, -0.0017531245, -0.0006634414, -61837.98, -61837.98 
1.11549355e+3, 3.148873e+2, -65617.43, -176302.3, -1420.8561, 0.0021193244, 0.0042311233, -65599.195, -65599.195 
1.1154835e+3, 3.248788e+2, -4576.0386, -44631.25, -1485.7854, -0.00027433076, -0.00024188252, -4521.0015, -4521.0015 
1.1258013e+3, 3.5239258e+1, -2482744.0, -2597877.5, 995.8942, 0.0028503148, 0.00069466763, -2482735.3, 111920.03 
1.12579115e+3, 4.523367e+1, -2395978.5, -2515619.0, -1264.8341, -0.0023360597, 0.002064848, -2395965.0, 100745.13 
1.1257808e+3, 5.5227613e+1, -2302541.8, -2420142.8, -1016.9046, 0.0006825875, 0.00029517573, -2302532.8, 96236.64 
1.1257703e+3, 6.522108e+1, -2215986.0, -2338553.8, -1804.5142, 0.0009961912, 0.0005336767, -2215959.3, 84874.24 
1.1257596e+3, 7.5214076e+1, -2122609.5, -2242987.5, -2016.4962, -0.0008130109, 0.0010109093, -2122575.8, 80326.49 
1.1257489e+3, 8.520652e+1, -2036668.6, -2162539.3, -3150.6492, -0.0002776773, 0.001452293, -2036589.9, 68386.36 
1.1257382e+3, 9.519844e+1, -1943299.5, -2066953.8, -3255.3967, 0.0022042396, -0.0002494921, -1943213.9, 63841.504 
1.12572715e+3, 1.0518984e+2, -1857439.9, -1986590.5, -3891.8757, 0.0017228707, 0.00024163115, -1857322.6, 51817.02 
1.12571605e+3, 1.15180716e+2, -1764104.6, -1890990.0, -3868.3086, -0.0015256657, 0.0009411505, -1763986.8, 47242.227 
1.12570494e+3, 1.2517108e+2, -1677854.4, -1810002.1, -4475.0337, -0.0013750878, 0.0012221447, -1677703.0, 35620.426 
1.12569384e+3, 1.3516092e+2, -1584452.1, -1714345.1, -4736.909, 0.0019540153, -0.000947047, -1584279.6, 31143.434 
1.1256826e+3, 1.4515023e+2, -1498682.1, -1634566.9, -5134.1777, 0.0017485581, -0.00039731566, -1498488.4, 19039.412 
1.1256713e+3, 1.55139e+2, -1404897.1, -1538695.0, -4987.2217, -0.0017440147, 0.0008068692, -1404711.5, 14926.469 
1.12566e+3, 1.6512725e+2, -1318566.6, -1457629.8, -5028.0957, -0.0017417133, 0.0018121185, -1318385.1, 3367.9937 
1.1256487e+3, 1.7511497e+2, -1225483.6, -1362027.3, -5045.284, 0.0015588904, 0.00054332934, -1225297.4, -1424.0641 
1.12563744e+3, 1.8510216e+2, -1139645.1, -1282098.4, -5099.9424, 0.0018092629, 0.0007365936, -1139462.8, -13463.839 
1.1256261e+3, 1.950888e+2, -1045747.4, -1186158.1, -5172.5073, -0.0009223774, 0.0003810136, -1045557.06, -17427.295 
1.1256149e+3, 2.0507492e+2, -959609.3, -1105617.9, -4907.746, -0.0013833679, 0.0007376086, -959444.56, -29178.658 
1.1256036e+3, 2.150605e+2, -866417.44, -1010059.06, -4800.5913, 0.00033679107, -0.00025287987, -866257.1, -33849.93 
1.12559244e+3, 2.2504555e+2, -780171.56, -929381.94, -4454.31, 0.0006403598, 0.00047990176, -780038.75, -45485.086 
1.1255812e+3, 2.3503008e+2, -686175.94, -833286.44, -4514.5693, -0.00046676537, 0.00069301453, -686037.56, -49332.426 
1.1255701e+3, 2.4501409e+2, -600253.7, -753142.8, -3846.2148, -0.00077582157, 0.0010933685, -600157.0, -61295.04 
1.12555906e+3, 2.5499755e+2, -507041.28, -657331.25, -3821.2898, -0.0003002875, -0.00031906445, -506944.2, -65920.04 
1.1255482e+3, 2.6498044e+2, -421365.34, -577531.44, -3152.4353, 0.0003766364, 0.00041902982, -421301.72, -78110.12 
1.1255374e+3, 2.7496284e+2, -327356.1, -481264.47, -3091.4976, 0.0012522633, 0.001178074, -327294.0, -81929.77 
1.1255266e+3, 2.8494468e+2, -241357.22, -401317.16, -2171.641, 0.00040389222, 0.0016883159, -241327.73, -93785.34 
1.125516e+3, 2.9492593e+2, -147371.42, -304984.34, -1981.451, -0.002214361, -0.00064024795, -147346.52, -97620.59 
1.1255055e+3, 3.0491006e+2, -62470.965, -174765.8, -750.1885, -0.0012977661, -0.00020706811, -62465.953, -62465.953 
1.1254952e+3, 3.1489712e+2, -67069.53, -176592.5, -730.028, 0.003147024, 0.0012470301, -67064.67, -67064.67 
1.125485e+3, 3.248887e+2, -6449.3276, -45578.49, -269.464, -0.0009178209, 0.0013399349, -6447.472, -6447.472 
1.1358115e+3, 3.5249364e+1, -2483993.5, -2600403.5, -241.57281, 0.0024036937, 0.002467553, -2483993.0, 110563.43 
1.13580115e+3, 4.5243663e+1, -2395502.5, -2514721.3, -2269.8218, -0.0009466531, -0.001815831, -2395459.3, 101152.86 
1.1357904e+3, 5.523771e+1, -2302090.5, -2419264.8, -2061.2336, -0.0012115387, 0.0007231221, -2302054.3, 96616.33 
1.1357797e+3, 6.5231186e+1, -2216386.0, -2339358.3, -2869.6934, -0.00006899204, 0.0015513075, -2216319.3, 84415.32 
1.1357688e+3, 7.5224096e+1, -2123026.5, -2243808.5, -3060.483, 0.0027304704, -0.0007940557, -2122949.0, 79854.88 
1.1357577e+3, 8.5216516e+1, -2036897.0, -2162917.0, -4192.318, 0.0021514404, 0.00009669659, -2036757.6, 68120.62 
1.1357465e+3, 9.520844e+1, -1943484.4, -2067315.8, -4291.3594, -0.0017225803, 0.0018765009, -1943335.9, 63621.496 
1.1357352e+3, 1.0519983e+2, -1857376.0, -1986421.9, -4955.6743, -0.0015863507, 0.0017060733, -1857186.0, 51855.773 
1.135724e+3, 1.15190685e+2, -1764036.3, -1890865.6, -4944.5786, 0.002205874, -0.002098455, -1763843.8, 47287.67 
1.1357125e+3, 1.2518102e+2, -1678360.9, -1810933.6, -5530.087, 0.0018989934, -0.001054966, -1678130.5, 35095.504 
1.135701e+3, 1.3517085e+2, -1584904.9, -1715259.3, -5761.265, -0.0021630672, 0.0024605386, -1584650.8, 30675.006 
1.1356895e+3, 1.4516015e+2, -1498434.9, -1633961.1, -6070.8857, -0.0018082933, 0.0031276331, -1498163.5, 19267.14 
1.135678e+3, 1.5514891e+2, -1404680.5, -1538149.1, -5951.0254, 0.0027197, -0.00082163635, -1404415.6, 15125.145 
1.1356664e+3, 1.6513716e+2, -1318683.4, -1457689.6, -6180.8823, 0.0024326264, -0.0009231666, -1318409.1, 3246.8196 
1.1356547e+3, 1.7512491e+2, -1225500.5, -1362099.1, -6201.956, -0.002448196, 0.000499096, -1225219.5, -1443.5717 
1.13564305e+3, 1.8511209e+2, -1139766.9, -1282373.9, -6055.6777, -0.0027600864, 0.0015542307, -1139510.1, -13608.666 
1.1356315e+3, 1.9509871e+2, -1045901.75, -1186479.9, -6113.789, 0.0012294241, 0.00029135088, -1045636.4, -17603.688 
1.1356199e+3, 2.0508485e+2, -959463.6, -1105140.0, -6041.316, 0.0019536538, 0.000761021, -959213.5, -29044.787 
1.13560826e+3, 2.1507046e+2, -866210.8, -1009595.8, -5949.741, -0.0005066561, 0.00097627233, -865964.4, -33654.75 
1.1355968e+3, 2.2505553e+2, -780272.94, -929560.44, -5413.9644, -0.0010825949, 0.001463881, -780076.9, -45620.945 
1.1355853e+3, 2.3504004e+2, -686296.25, -833504.8, -5468.8813, 0.00024282839, -0.000071331684, -686093.4, -49485.656 
1.135574e+3, 2.4502403e+2, -600243.8, -753014.9, -5023.638, 0.0005553412, 0.00041724238, -600078.75, -61314.23 
1.13556266e+3, 2.550075e+2, -506978.25, -657192.9, -4996.768, -0.00017488765, 0.00085455045, -506812.22, -65885.805 
1.1355514e+3, 2.6499042e+2, -421238.06, -577311.7, -4151.8105, -0.00051666965, 0.00095746014, -421127.7, -78033.875 
1.1355403e+3, 2.749728e+2, -327267.56, -481042.16, -4082.8997, -0.000492077, -0.0013734684, -327159.25, -81892.664 
1.1355293e+3, 2.8495464e+2, -241057.77, -400641.44, -3180.69, -0.0003342656, 0.000013837712, -240994.39, -93550.055 
1.1355183e+3, 2.9493603e+2, -147097.89, -304302.44, -2999.756, -0.000004673429, 0.0026163668, -147040.67, -97413.73 
1.1355076e+3, 3.049202e+2, -62538.977, -174843.88, -1870.2094, 0.0010801933, 0.0022446455, -62507.84, -62507.84 
1.13549694e+3, 3.1490716e+2, -67135.26, -176674.3, -1849.7216, 0.002720926, -0.00313976, -67104.03, -67104.03 
1.13548644e+3, 3.2489884e+2, -5838.1177, -44168.563, -912.1512, -0.002711863, 0.00031986603, -5816.4233, -5816.4233 
1.1458219e+3, 3.525982e+1, -2482049.5, -2600115.5, 912.02594, 0.0007002222, 0.0013273807, -2482042.3, 112411.55 
1.14581116e+3, 4.5254105e+1, -2393410.3, -2513877.0, -817.41473, 0.00096813735, -0.00046961213, -2393404.5, 103105.28 
1.1458002e+3, 5.524812e+1, -2300126.0, -2418478.5, -1107.8928, -0.00049112993, 0.00057488197, -2300115.8, 98452.766 
1.145789e+3, 6.524157e+1, -2214707.5, -2338700.3, -2106.6716, -0.00019308362, 0.0010927065, -2214671.8, 85960.87 
1.14577785e+3, 7.523447e+1, -2121877.0, -2243384.8, -2070.695, 0.0020834086, -0.00055825664, -2121841.8, 80860.6 
1.14576645e+3, 8.5226876e+1, -2035901.5, -2162602.8, -2976.44, 0.0016860964, 0.00022704266, -2035831.6, 68945.11 
1.145755e+3, 9.521878e+1, -1942372.3, -2066893.4, -3029.7485, -0.0013773094, 0.0012373768, -1942298.5, 64557.51 
1.1457434e+3, 1.05210155e+2, -1856252.0, -1986057.5, -3834.1409, -0.0011844801, 0.0013596263, -1856138.8, 52801.816 
1.1457318e+3, 1.15201e+2, -1763090.1, -1890534.6, -4001.9968, 0.0020041254, -0.0012075203, -1762964.5, 48065.734 
1.1457201e+3, 1.2519133e+2, -1677305.9, -1810442.6, -4426.189, 0.0017493638, -0.00025863393, -1677158.9, 35966.14 
1.1457083e+3, 1.3518116e+2, -1583851.1, -1714720.9, -4257.7407, -0.0017127829, 0.0020131175, -1583712.8, 31512.111 
1.1456964e+3, 1.4517044e+2, -1497743.4, -1633746.8, -4562.125, -0.0015639404, 0.002562574, -1497590.5, 19739.326 
1.1456846e+3, 1.5515919e+2, -1404748.9, -1538254.6, -4733.2944, 0.0020189374, -0.00050066476, -1404581.3, 14858.708 
1.1456726e+3, 1.6514744e+2, -1318747.5, -1457969.3, -5093.452, 0.0018924623, -0.0005185907, -1318561.5, 2993.685 
1.14566065e+3, 1.7513517e+2, -1224788.3, -1361961.1, -5209.636, -0.0017962545, 0.00026775972, -1224590.8, -915.2911 
1.1456488e+3, 1.8512234e+2, -1138885.0, -1281710.9, -5056.9014, -0.0020548294, 0.0012134715, -1138706.1, -12905.108 
1.1456368e+3, 1.95109e+2, -1046079.75, -1186296.9, -4859.034, 0.00092928245, 0.00039383754, -1045911.56, -17979.611 
1.145625e+3, 2.0509513e+2, -959961.3, -1105478.8, -4721.2866, 0.0014381218, 0.0009406728, -959808.3, -29740.414 
1.14561304e+3, 2.1508074e+2, -866148.9, -1009587.6, -4849.8325, -0.00048534444, 0.0008751199, -865985.06, -33776.246 
1.1456012e+3, 2.2506581e+2, -780294.6, -929456.56, -4384.2046, -0.0008729593, 0.0013729435, -780165.9, -45810.707 
1.1455895e+3, 2.3505034e+2, -687148.5, -833783.75, -4329.6367, 0.0002693523, 0.00013938885, -687020.8, -50513.977 
1.1455777e+3, 2.4503434e+2, -601157.94, -753343.4, -3851.6765, 0.0005546221, 0.00058982876, -601060.5, -62396.926 
1.1455662e+3, 2.5501782e+2, -507333.13, -657227.4, -3834.5044, -0.00005218772, 0.0006884328, -507235.1, -66409.68 
1.14555456e+3, 2.6500076e+2, -421381.7, -577073.9, -2944.973, -0.0004032719, 0.0008362198, -421326.0, -78333.4 
1.1455432e+3, 2.7498317e+2, -327918.94, -481028.94, -2804.7837, -0.00053179375, -0.0010624471, -327867.56, -82702.52 
1.1455318e+3, 2.8496507e+2, -242232.45, -400969.56, -1958.2714, -0.00032925577, 0.00031569882, -242208.3, -94865.71 
1.14552066e+3, 2.9494643e+2, -148573.58, -304821.28, -1989.2633, 0.00031029002, 0.0025074736, -148548.27, -99023.21 
1.14550956e+3, 3.049306e+2, -64239.684, -175614.52, -983.02234, 0.0010849356, 0.0018809908, -64231.008, -64231.008 
1.1454985e+3, 3.1491756e+2, -68706.445, -177385.45, -938.36816, 0.0016367495, -0.0036144594, -68698.34, -68698.34 
1.1454878e+3, 3.249093e+2, -7143.5215, -43454.582, 315.63538, -0.002141871, 0.0014508526, -7140.778, -7140.778 
1.1558324e+3, 3.5270572e+1, -2481945.8, -2599796.5, -359.57288, -0.0019924694, -0.00193739, -2481944.5, 112403.93 
1.1558213e+3, 4.5264915e+1, -2394039.8, -2515100.8, -1864.8097, 0.003169033, 0.0047130496, -2394011.0, 102392.97 
1.1558099e+3, 5.525879e+1, -2300721.3, -2419648.3, -2132.1382, 0.002101589, -0.000014781506, -2300683.0, 97780.83 
1.1557984e+3, 6.52522e+1, -2214650.8, -2338542.0, -3250.7588, 0.00030966575, -0.00047291545, -2214565.5, 85963.086 
1.1557869e+3, 7.524515e+1, -2121772.0, -2243213.0, -3230.4778, -0.0017153907, 0.0011998839, -2121686.3, 80911.45 
1.1557753e+3, 8.523754e+1, -2035966.8, -2162756.5, -3980.9192, -0.00095254276, 0.0014668179, -2035841.9, 68830.29 
1.1557636e+3, 9.52294e+1, -1942483.9, -2067110.9, -4033.958, 0.0021171835, -0.0014760983, -1942353.4, 64398.555 
1.1557516e+3, 1.0522076e+2, -1856602.9, -1986673.1, -4931.4683, 0.0019218897, -0.00031553808, -1856416.3, 52420.457 
1.15573965e+3, 1.1521161e+2, -1763369.4, -1891120.1, -5081.919, -0.0012196144, 0.0026596736, -1763167.5, 47758.797 
1.1557275e+3, 1.2520196e+2, -1676996.3, -1809738.1, -5455.739, -0.0010281571, 0.002856787, -1676772.5, 36248.566 
1.1557156e+3, 1.3519175e+2, -1583558.6, -1714075.1, -5325.7236, 0.0021559924, -0.0013636438, -1583341.6, 31779.22 
1.1557034e+3, 1.4518104e+2, -1498095.5, -1634371.1, -5752.1997, 0.0014997944, -0.001077489, -1497853.1, 19372.697 
1.15569115e+3, 1.5516981e+2, -1405016.4, -1538883.1, -5898.9336, -0.0027262561, 0.0013196642, -1404756.9, 14579.042 
1.1556789e+3, 1.6515802e+2, -1318977.0, -1458427.6, -6008.0317, -0.0023267984, 0.0022921616, -1318718.6, 2732.783 
1.1556668e+3, 1.7514569e+2, -1225072.4, -1362463.3, -6109.5005, 0.0024394994, -0.0001251882, -1224801.3, -1228.9055 
1.1556546e+3, 1.8513288e+2, -1138591.6, -1280946.6, -6264.02, 0.0026761831, -0.000015095207, -1138316.5, -12618.598 
1.1556422e+3, 1.9511959e+2, -1045697.7, -1185534.6, -6093.238, -0.001377153, 0.0006649728, -1045432.7, -17604.586 
1.15563e+3, 2.0510572e+2, -960174.8, -1105904.4, -5712.349, -0.0021480238, 0.0012559672, -959951.25, -29987.332 
1.1556178e+3, 2.150913e+2, -866400.4, -1010055.5, -5825.767, 0.00017013756, -0.00029034566, -866164.5, -34059.203 
1.1556057e+3, 2.2507638e+2, -780210.56, -929194.6, -5551.065, 0.0007904307, 0.0004444499, -780004.0, -45752.35 
1.1555936e+3, 2.3506093e+2, -687013.7, -833520.9, -5498.9414, -0.00029587015, 0.0011219668, -686807.6, -50404.65 
1.15558155e+3, 2.4504493e+2, -601117.5, -753241.06, -4871.4126, -0.00055414124, 0.0014360669, -600961.7, -62402.055 
1.15556955e+3, 2.5502843e+2, -507318.44, -657144.8, -4848.057, 0.000033709428, -0.0005584713, -507161.75, -66440.164 
1.1555577e+3, 2.6501137e+2, -421196.5, -576524.94, -4077.536, 0.00047309606, 0.00019971472, -421089.53, -78201.055 
1.155546e+3, 2.7499387e+2, -327705.3, -480487.1, -3947.0984, 0.00075807096, 0.0015677875, -327603.4, -82543.17 
1.1555343e+3, 2.8497574e+2, -242323.23, -401104.53, -3070.7432, 0.00021648296, 0.002227295, -242263.88, -95026.18 
1.15552284e+3, 2.9495707e+2, -148660.3, -304950.25, -3086.1624, -0.0009881922, -0.00036856296, -148599.38, -99178.68 
1.1555114e+3, 3.0494127e+2, -64206.527, -175507.75, -2047.4161, -0.0009128457, -0.0007966801, -64168.88, -64168.88 
1.1555001e+3, 3.149283e+2, -68683.49, -177297.48, -1999.9413, -0.000059370417, -0.0009038662, -68646.68, -68646.68 
1.155489e+3, 3.2492012e+2, -6276.485, -41549.785, -694.6108, 0.00021852653, 0.0043842816, -6262.8115, -6262.8115 
1.16584286e+3, 3.5281712e+1, -2479625.3, -2598099.8, 389.09445, -0.0011857538, -0.0016071189, -2479624.0, 114615.266 
1.1658314e+3, 4.5276046e+1, -2392973.5, -2514998.3, -494.60843, 0.0015894551, 0.0040805773, -2392971.5, 103323.34 
1.16581984e+3, 5.526989e+1, -2299480.0, -2419492.5, -546.58887, 0.002205638, -0.00005970406, -2299477.5, 98877.57 
1.165808e+3, 6.526326e+1, -2213050.3, -2338115.8, -1770.8076, 0.0009858626, -0.000395095, -2213025.3, 87394.86 
1.16579615e+3, 7.5256175e+1, -2119793.0, -2242578.3, -2008.9231, -0.0014828433, 0.00102168, -2119760.0, 82729.516 
1.16578415e+3, 8.524855e+1, -2034131.9, -2161953.0, -2907.2332, -0.0009926679, 0.0014509889, -2034065.8, 70498.555 
1.1657721e+3, 9.52404e+1, -1941515.5, -2066728.3, -2957.3235, 0.0019829671, -0.0009552577, -1941445.6, 65198.492 
1.16575986e+3, 1.0523174e+2, -1855866.1, -1986416.1, -3677.5327, 0.0018326985, -0.000007961449, -1855762.6, 52966.348 
1.1657476e+3, 1.1522259e+2, -1762368.5, -1890720.3, -3636.354, -0.0011723168, 0.0021049045, -1762265.6, 48553.13 
1.1657352e+3, 1.2521291e+2, -1676148.8, -1809598.6, -4179.176, -0.0010613026, 0.0022918226, -1676018.0, 36895.625 
1.16572276e+3, 1.3520269e+2, -1583114.0, -1714089.6, -4480.586, 0.0018689202, -0.0011536736, -1582960.9, 32052.756 
1.1657103e+3, 1.4519197e+2, -1497401.1, -1634065.3, -4959.7896, 0.0014662221, -0.0007893108, -1497221.4, 19897.39 
1.1656977e+3, 1.5518074e+2, -1403835.9, -1538295.6, -4847.9946, -0.0020702877, 0.0010699148, -1403661.3, 15567.585 
1.1656852e+3, 1.6516896e+2, -1318109.4, -1457925.9, -4745.277, -0.001870036, 0.002105593, -1317948.5, 3395.8762 
1.1656728e+3, 1.7515664e+2, -1225510.9, -1362560.1, -4599.474, 0.0018868386, 0.0003451765, -1225356.8, -1891.6123 
1.1656602e+3, 1.8514381e+2, -1139236.0, -1281391.5, -4785.603, 0.0020446302, 0.0004406012, -1139075.0, -13484.33 
1.1656476e+3, 1.9513051e+2, -1045299.7, -1185446.0, -5030.3325, -0.0012474948, 0.00049822085, -1045119.4, -17398.266 
1.165635e+3, 2.0511666e+2, -959595.0, -1105520.9, -4784.77, -0.0017722754, 0.0009786503, -959438.25, -29581.332 
1.16562255e+3, 2.1510224e+2, -866770.0, -1010130.94, -4658.6685, 0.00032975784, -0.00020093337, -866618.75, -34620.53 
1.1656101e+3, 2.2508731e+2, -780807.75, -929371.8, -4276.292, 0.0007923714, 0.00050480606, -780684.75, -46540.27 
1.16559766e+3, 2.3507187e+2, -687159.0, -833453.2, -4288.2676, -0.00040722336, 0.0007971871, -687033.4, -50737.664 
1.1655853e+3, 2.450559e+2, -601298.75, -753143.06, -3685.381, -0.0006392985, 0.0012614127, -601209.4, -62757.11 
1.16557315e+3, 2.550394e+2, -508166.97, -657348.7, -3622.3513, 0.00012979249, -0.000012825478, -508079.06, -67465.07 
1.1655609e+3, 2.6502237e+2, -422325.97, -576986.56, -2926.212, 0.0004968115, 0.0007730535, -422270.63, -79489.81 
1.16554886e+3, 2.7500486e+2, -328646.2, -480847.38, -3008.079, 0.00043444405, 0.0014733857, -328586.78, -83634.2 
1.1655369e+3, 2.8498676e+2, -242956.6, -401111.06, -2115.9648, 0.000058973423, 0.0017264661, -242928.28, -95798.38 
1.165525e+3, 2.949681e+2, -149313.38, -304877.97, -1895.693, -0.00042423455, -0.0010283928, -149290.28, -99977.64 
1.1655132e+3, 3.049523e+2, -65134.996, -175814.47, -773.8876, -0.0005081864, -0.00027925844, -65129.586, -65129.586 
1.16550155e+3, 3.1493935e+2, -70006.016, -177808.03, -703.1562, -0.00077280425, 0.0022561622, -70001.43, -70001.43 
1.1654902e+3, 3.2493114e+2, -8211.862, -42317.996, 208.63535, 0.0004141954, 0.0021963797, -8210.586, -8210.586 
1.1758535e+3, 3.5293174e+1, -2479243.0, -2597137.3, -1196.3778, 0.0020107878, 0.0012808504, -2479231.0, 114896.125 
1.17584154e+3, 4.5287457e+1, -2392947.5, -2515181.5, -1544.0792, -0.0027996122, -0.0007989895, -2392928.0, 103254.91 
1.1758297e+3, 5.5281335e+1, -2299554.5, -2419723.3, -1598.1669, 0.00045323887, 0.000305772, -2299533.3, 98709.63 
1.1758176e+3, 6.5274674e+1, -2213547.0, -2339058.3, -2858.6333, 0.0017401972, 0.0008904041, -2213482.0, 86826.28 
1.1758054e+3, 7.5267494e+1, -2120326.0, -2243533.0, -3066.3518, 0.0016801455, -0.0005978722, -2120249.8, 82128.836 
1.1757931e+3, 8.525984e+1, -2034287.8, -2162147.0, -4123.859, 0.00083380047, 0.0005154499, -2034154.9, 70298.71 
1.1757807e+3, 9.525173e+1, -1941571.6, -2066884.6, -4176.7627, -0.00091445824, 0.001966731, -1941432.6, 65100.64 
1.1757681e+3, 1.0524306e+2, -1855749.8, -1986175.5, -4706.0503, -0.00069326645, 0.0017683252, -1855580.3, 53037.895 
1.1757555e+3, 1.1523386e+2, -1762309.3, -1890547.4, -4682.9053, 0.0012949575, -0.001782768, -1762138.4, 48569.805 
1.1757428e+3, 1.2522416e+2, -1676753.5, -1810720.8, -5327.4, 0.0009010255, -0.00101294, -1676542.0, 36261.41 
1.1757301e+3, 1.3521393e+2, -1583651.1, -1715188.5, -5587.83, -0.0016354499, 0.0017810081, -1583414.3, 31489.379 
1.1757173e+3, 1.4520319e+2, -1497230.3, -1633640.3, -5936.3276, -0.0009472537, 0.0024682297, -1496972.4, 20036.525 
1.17570445e+3, 1.5519193e+2, -1403692.3, -1537907.0, -5848.718, 0.0026787627, -0.0007741333, -1403437.9, 15681.322 
1.1756916e+3, 1.6518018e+2, -1317917.8, -1457366.6, -6014.1377, 0.0020829635, -0.00034820763, -1317658.9, 3575.4927 
1.17567874e+3, 1.7516792e+2, -1225222.4, -1362007.1, -5880.624, -0.0024382377, 0.0014767895, -1224970.0, -1615.5789 
1.1756658e+3, 1.8515511e+2, -1139660.5, -1282317.0, -5733.5806, -0.0027754896, 0.0021835968, -1139430.4, -13950.313 
1.175653e+3, 1.951417e+2, -1045785.25, -1186406.1, -5950.9033, 0.00074678916, -0.000040387586, -1045533.9, -17922.56 
1.17564015e+3, 2.0512784e+2, -959413.56, -1105002.1, -5994.9463, 0.001644373, 0.00024262088, -959167.1, -29419.783 
1.1756273e+3, 2.1511348e+2, -866520.9, -1009595.06, -5882.1953, 0.000024195253, 0.00088010734, -866279.44, -34391.36 
1.1756145e+3, 2.2509855e+2, -780813.6, -929346.9, -5320.036, -0.00058559194, 0.0013433313, -780623.3, -46589.152 
1.1756018e+3, 2.3508312e+2, -687198.75, -833456.4, -5325.1997, -0.00020017795, -0.00057333463, -687005.1, -50819.56 
1.1755891e+3, 2.4506715e+2, -601220.2, -752855.94, -4873.801, 0.000029222472, 0.00029346597, -601063.7, -62721.754 
1.1755765e+3, 2.5505072e+2, -508048.03, -657078.4, -4817.001, 0.0001669446, 0.0019718092, -507892.5, -67389.25 
1.1755639e+3, 2.6503366e+2, -422501.75, -577285.0, -4002.707, -0.00022924038, 0.0023233264, -422398.3, -79728.21 
1.17555164e+3, 2.7501607e+2, -328838.53, -481153.03, -4066.4592, -0.0012253402, -0.00082208606, -328730.03, -83887.61 
1.1755393e+3, 2.8499803e+2, -242608.8, -400279.88, -3187.4585, -0.00069532276, -0.00072202896, -242544.39, -95524.79 
1.1755271e+3, 2.9497945e+2, -148955.73, -304060.88, -2983.231, 0.0015703969, 0.000110417765, -148898.38, -99696.94 
1.175515e+3, 3.049637e+2, -65043.492, -175595.69, -1966.6398, 0.0017605968, 0.002859039, -65008.516, -65008.516 
1.17550306e+3, 3.149508e+2, -69870.21, -177589.66, -1875.9569, -0.0007511788, 0.0057932865, -69837.55, -69837.55 
1.1754914e+3, 3.2494244e+2, -8784.109, -43507.703, -1023.2439, -0.0013867727, -0.0043207146, -8753.981, -8753.981 
1.1858641e+3, 3.5305e+1, -2478490.5, -2597782.0, 435.07172, 0.0031704372, 0.0032355057, -2478488.8, 115522.234 
1.1858519e+3, 4.5299172e+1, -2389747.3, -2513833.5, -808.0766, -0.0030376317, -0.0043533035, -2389742.0, 106326.21 
1.1858396e+3, 5.5293065e+1, -2297368.8, -2418844.5, -924.5279, 0.000031592263, 0.00060971605, -2297361.5, 100766.4 
1.18582726e+3, 6.528641e+1, -2212015.5, -2338321.3, -2017.0841, 0.0013516309, 0.0023325821, -2211983.5, 88209.9 
1.1858147e+3, 7.527921e+1, -2119533.0, -2243127.0, -1851.5442, 0.0015417141, -0.00048160445, -2119505.3, 82758.51 
1.185802e+3, 8.5271543e+1, -2033556.0, -2162118.8, -2714.0308, 0.00093757047, 0.00007892862, -2033498.8, 70840.24 
1.1857893e+3, 9.526339e+1, -1939933.0, -2066374.5, -2893.5037, -0.0006036797, 0.0017071599, -1939866.8, 66552.13 
1.1857764e+3, 1.0525471e+2, -1854002.5, -1985507.8, -3648.7168, -0.0004950678, 0.00175472, -1853901.4, 54602.67 
1.1857634e+3, 1.1524549e+2, -1761467.6, -1890283.9, -3809.8047, 0.0011183611, -0.0014391805, -1761355.1, 49239.14 
1.1857505e+3, 1.2523578e+2, -1676031.1, -1810306.0, -4225.3354, 0.00078709907, -0.00072053744, -1675898.3, 36791.19 
1.1857374e+3, 1.3522555e+2, -1582722.9, -1714653.5, -3983.1494, -0.0013310591, 0.0016506889, -1582602.8, 32186.857 
1.1857242e+3, 1.4521481e+2, -1496690.1, -1633528.1, -4249.4155, -0.0008048455, 0.0024092994, -1496558.3, 20336.705 
1.1857112e+3, 1.5520354e+2, -1403855.3, -1538121.0, -4432.803, 0.0021796045, -0.00029224704, -1403709.0, 15296.3125 
1.185698e+3, 1.6519178e+2, -1317794.5, -1457362.9, -4848.172, 0.001689434, -0.000040187242, -1317626.4, 3494.2883 
1.1856847e+3, 1.7517953e+2, -1224139.9, -1361505.3, -4963.4917, -0.0021059052, 0.0009763097, -1223960.9, -720.02783 
1.18567154e+3, 1.851667e+2, -1138745.8, -1281819.9, -4738.2866, -0.002250336, 0.0016836675, -1138589.0, -13222.531 
1.18565835e+3, 1.9515333e+2, -1046184.75, -1186527.4, -4535.3647, 0.0009917243, 0.000189998, -1046038.3, -18540.723 
1.1856452e+3, 2.0513944e+2, -960036.6, -1105305.1, -4467.241, 0.0016001196, 0.00062924135, -959899.4, -30265.854 
1.185632e+3, 2.1512507e+2, -866417.8, -1009497.56, -4578.2197, -0.00031054296, 0.00094054145, -866271.5, -34497.195 
1.18561886e+3, 2.2511019e+2, -780634.4, -929136.4, -4131.0635, -0.0008277436, 0.0014207122, -780519.56, -46599.227 
1.1856058e+3, 2.3509474e+2, -687735.7, -833593.5, -4090.0486, 0.00005998271, -0.000112296235, -687621.06, -51549.426 
1.18559286e+3, 2.4507879e+2, -601941.94, -753124.9, -3648.161, 0.00030331055, 0.00044002128, -601853.94, -63625.953 
1.18558e+3, 2.550623e+2, -508364.28, -657148.2, -3686.466, -0.00006940855, 0.0010952965, -508273.0, -67883.68 
1.185567e+3, 2.6504532e+2, -422747.6, -577178.6, -2812.805, -0.00034545243, 0.0015854826, -422696.38, -80140.32 
1.18555434e+3, 2.7502778e+2, -329614.28, -481272.9, -2618.0242, -0.00060300226, -0.00028094708, -329569.1, -84841.05 
1.18554175e+3, 2.850097e+2, -243830.52, -400691.7, -1728.7601, -0.0003051471, -0.000041209663, -243811.47, -96906.43 
1.18552916e+3, 2.9499114e+2, -150447.61, -304599.53, -1818.114, 0.0007432981, -0.00012062526, -150426.17, -101339.32 
1.1855169e+3, 3.0497542e+2, -66202.02, -175649.27, -853.24695, 0.00090977206, 0.0020651221, -66195.37, -66195.37 
1.1855045e+3, 3.1496257e+2, -70553.36, -177399.47, -595.90405, -0.00029545504, 0.004810914, -70550.03, -70550.03 
1.1854924e+3, 3.2495418e+2, -9914.159, -44780.18, 249.85435, -0.00048456658, -0.003907405, -9912.369, -9912.369 
1.1958747e+3, 3.5317138e+1, -2479747.5, -2600669.0, 276.62286, 0.0028023163, 0.0044540875, -2479747.0, 114145.125 
1.1958623e+3, 4.5311162e+1, -2390025.3, -2514328.5, -2066.6736, -0.00035213694, -0.0068911966, -2389990.8, 105959.91 
1.1958497e+3, 5.530505e+1, -2297668.3, -2419326.0, -2156.9878, 0.00050746714, 0.0008584188, -2297630.0, 100380.54 
1.1958369e+3, 6.5298414e+1, -2211784.0, -2337705.8, -3230.9014, 0.00005056867, 0.0038778856, -2211701.3, 88374.45 
1.195824e+3, 7.529127e+1, -2119184.8, -2242506.3, -3103.2573, -0.0010576624, 0.00089153415, -2119106.5, 83039.1 
1.195811e+3, 8.528357e+1, -2033855.3, -2162796.8, -3707.6963, -0.00025343086, 0.000008318524, -2033748.8, 70472.35 
1.195798e+3, 9.527534e+1, -1940363.4, -2067117.9, -3868.1802, 0.0020143334, -0.00089468085, -1940245.5, 66056.234 
1.1957848e+3, 1.0526663e+2, -1854397.5, -1986142.1, -4885.4907, 0.0016328837, 0.0004614046, -1854216.6, 54170.45 
1.1957715e+3, 1.15257435e+2, -1761714.1, -1890843.1, -5025.1396, -0.0010790116, 0.0020635459, -1761518.9, 48958.46 
1.1957582e+3, 1.2524773e+2, -1675554.6, -1809296.0, -5274.2085, -0.000918519, 0.0022508285, -1675347.0, 37225.41 
1.1957447e+3, 1.3523751e+2, -1582312.4, -1713734.4, -5078.6577, 0.0017821798, -0.000805257, -1582116.4, 32555.984 
1.1957313e+3, 1.4522678e+2, -1497076.9, -1634268.6, -5481.06, 0.0011880125, -0.00013158037, -1496858.3, 19919.35 
1.19571775e+3, 1.5521552e+2, -1404173.3, -1538842.6, -5634.3174, -0.0023882578, 0.0019586976, -1403937.9, 14950.161 
1.1957042e+3, 1.652037e+2, -1318046.3, -1457832.8, -5826.5034, -0.0020590224, 0.0023609188, -1317803.8, 3199.9634 
1.1956908e+3, 1.7519137e+2, -1224427.3, -1362017.0, -5935.2153, 0.0017839853, -0.0008070029, -1224171.8, -1047.1285 
1.1956772e+3, 1.8517856e+2, -1138418.6, -1281058.3, -6006.7227, 0.0023222617, -0.00053176394, -1138166.1, -12915.943 
1.19566366e+3, 1.9516526e+2, -1045778.2, -1185750.9, -5820.7813, -0.00020086729, 0.0010372401, -1045536.56, -18156.078 
1.1956502e+3, 2.0515141e+2, -960221.8, -1105663.5, -5497.546, -0.0011881607, 0.001894016, -960014.3, -30498.037 
1.1956367e+3, 2.15137e+2, -866656.25, -1009897.9, -5594.7583, -0.0007320051, 0.00017852729, -866438.06, -34780.594 
1.1956233e+3, 2.251221e+2, -780593.2, -928956.7, -5350.587, -0.00024611634, 0.0009023704, -780400.44, -46596.92 
1.1956099e+3, 2.3510669e+2, -687654.8, -833400.94, -5313.71, 0.00031576696, 0.0017867028, -687461.3, -51506.836 
1.1955965e+3, 2.4509072e+2, -602035.44, -753222.8, -4723.015, 0.00020735088, 0.001465769, -601888.0, -63777.15 
1.1955833e+3, 2.5507423e+2, -508470.5, -657272.4, -4751.465, -0.0005751017, -0.0020680167, -508318.94, -68046.28 
1.19557016e+3, 2.6505727e+2, -422441.6, -576427.56, -4020.5112, -0.00001952754, -0.0009601174, -422336.7, -79897.586 
1.1955571e+3, 2.750398e+2, -329275.63, -480513.34, -3837.302, 0.0017989937, 0.0025603026, -329178.3, -84568.24 
1.1955441e+3, 2.8502175e+2, -244000.67, -401008.9, -2900.862, 0.00092886586, 0.0031979515, -243947.1, -97160.21 
1.1955313e+3, 2.9500315e+2, -150615.66, -304950.03, -2970.4526, -0.0024604276, -0.0014304564, -150558.5, -101589.17 
1.1955185e+3, 3.049874e+2, -65774.1, -174731.16, -1895.7589, -0.002545204, -0.0019201208, -65741.13, -65741.13 
1.195506e+3, 3.149746e+2, -70121.63, -176485.08, -1654.5132, 0.00044413042, 0.00006735595, -70095.91, -70095.91 
1.1954936e+3, 3.2496637e+2, -10310.329, -45549.254, -966.4853, 0.002456556, 0.0022860214, -10283.842, -10283.842 
1.2058855e+3, 3.5329598e+1, -2476072.8, -2600212.5, 1401.664, 0.0015991428, 0.0017931041, -2476057.0, 117713.06 
1.2058728e+3, 4.532365e+1, -2388676.8, -2513463.0, -781.76105, 0.0014458826, -0.0011174504, -2388671.8, 107156.55 
1.2058597e+3, 5.5317503e+1, -2296819.8, -2418744.8, -616.2567, 0.00021292627, 0.0007025878, -2296816.5, 101072.016 
1.2058467e+3, 6.531083e+1, -2210874.8, -2337694.8, -1529.2723, -0.00054306816, 0.0019809182, -2210856.3, 89097.74 
1.2058335e+3, 7.5303656e+1, -2117006.3, -2241850.0, -1918.5752, -0.00038676793, 0.0009265328, -2116976.8, 85047.43 
1.2058201e+3, 8.529595e+1, -2031677.8, -2161720.0, -2807.3274, 0.00030978388, 0.00067277474, -2031617.1, 72482.62 
1.20580666e+3, 9.528772e+1, -1939901.6, -2066880.4, -2679.2004, 0.0012971853, -0.00069866556, -1939845.1, 66335.36 
1.20579325e+3, 1.05279e+2, -1854197.9, -1986133.5, -3290.3772, 0.00092643814, 0.00042832273, -1854115.9, 54149.992 
1.20577954e+3, 1.1526979e+2, -1760315.3, -1890251.0, -3255.8904, -0.0006532102, 0.0020449366, -1760233.8, 50122.477 
1.2057659e+3, 1.2526007e+2, -1674153.6, -1808890.1, -3853.2551, -0.00036226204, 0.0023223802, -1674043.5, 38407.996 
1.20575204e+3, 1.3524984e+2, -1581866.1, -1713771.8, -4199.334, 0.0015538054, -0.00058077986, -1581732.6, 32819.05 
1.2057384e+3, 1.4523908e+2, -1496595.1, -1633972.5, -4577.4424, 0.0009273259, -0.00011202001, -1496442.8, 20214.229 
1.2057245e+3, 1.5522783e+2, -1403140.0, -1538246.9, -4402.5576, -0.0020433476, 0.0014884147, -1402996.6, 15770.823 
1.2057107e+3, 1.6521601e+2, -1317376.0, -1457600.1, -4412.253, -0.0016942183, 0.0020656215, -1317237.4, 3645.8047 
1.2056969e+3, 1.7520368e+2, -1224826.0, -1362288.9, -4382.3115, 0.0017041797, -0.00034723053, -1224686.5, -1682.4229 
1.205683e+3, 1.8519086e+2, -1138736.8, -1281150.0, -4532.699, 0.0020457264, -0.000008333205, -1138592.6, -13462.972 
1.20566905e+3, 1.9517757e+2, -1045190.1, -1185393.0, -4666.2266, -0.00046364256, 0.0010485027, -1045035.0, -17775.031 
1.20565526e+3, 2.0516372e+2, -959660.3, -1105307.8, -4417.417, -0.001274266, 0.0017244022, -959526.44, -30130.77 
1.2056415e+3, 2.1514933e+2, -867063.8, -1010021.8, -4305.214, -0.00044768438, 0.000115919574, -866934.25, -35397.47 
1.2056277e+3, 2.2513442e+2, -781250.8, -929256.44, -3969.4465, 0.00009258303, 0.00073415606, -781144.4, -47461.555 
1.2056139e+3, 2.35119e+2, -687762.44, -833413.6, -4012.616, 0.00035389367, 0.0012984265, -687652.0, -51818.164 
1.2056002e+3, 2.4510306e+2, -602099.0, -753184.94, -3443.3396, 0.00013551077, 0.0014145693, -602020.56, -64030.465 
1.20558664e+3, 2.5508657e+2, -509238.16, -657525.0, -3359.2415, -0.00053720246, -0.0009385491, -509162.1, -69010.4 
1.20557316e+3, 2.6506957e+2, -423348.0, -576665.6, -2675.6262, -0.00007878569, -0.000276124, -423301.3, -80983.26 
1.2055598e+3, 2.7505213e+2, -329809.44, -480582.56, -2749.284, 0.0014509279, 0.0012859602, -329759.34, -85270.23 
1.2055464e+3, 2.8503412e+2, -244543.75, -401007.0, -1879.1289, 0.0007929521, 0.002352879, -244521.19, -97855.48 
1.2055332e+3, 2.9501554e+2, -151610.2, -305160.22, -1685.4094, -0.0019064063, 0.0004899343, -151591.7, -102744.0 
1.2055201e+3, 3.0499983e+2, -67208.25, -175242.89, -525.2099, -0.0019583695, -0.0009972622, -67205.695, -67205.695 
1.2055073e+3, 3.1498697e+2, -71913.65, -177166.2, -632.48975, 0.00045266582, -0.0037498213, -71909.85, -71909.85 
1.2054945e+3, 3.2497886e+2, -11547.525, -45133.043, 258.62598, 0.0016271868, 0.0044356748, -11545.534, -11545.534 
1.21589646e+3, 3.534234e+1, -2476836.3, -2601251.5, -458.92624, -0.0003000686, -0.0035439644, -2476834.5, 116810.72 
1.2158833e+3, 4.5336556e+1, -2388443.5, -2512863.5, -2155.9502, 0.0025008956, 0.010584844, -2388406.3, 107295.72 
1.21586986e+3, 5.5330324e+1, -2296442.8, -2418143.0, -2039.722, -0.0006823323, 0.00021464199, -2296408.5, 101354.41 
1.21585645e+3, 6.532358e+1, -2211548.3, -2339174.5, -2452.1006, -0.0006671366, -0.0024000464, -2211501.3, 88327.805 
1.215843e+3, 7.531634e+1, -2117834.0, -2243371.0, -2800.4302, 0.0026015306, -0.000007667069, -2117771.5, 84128.46 
1.2158293e+3, 8.5308623e+1, -2031562.4, -2161270.0, -4213.813, 0.002091317, 0.0018903065, -2031425.6, 72549.93 
1.2158154e+3, 9.5300436e+1, -1939609.3, -2066356.3, -4099.6714, -0.001924136, 0.0015297686, -1939476.8, 66579.08 
1.2158015e+3, 1.05291724e+2, -1854079.0, -1985934.0, -4230.9834, -0.0019122532, 0.0013113321, -1853943.4, 54197.816 
1.21578775e+3, 1.1528249e+2, -1760382.0, -1890179.5, -4221.0903, 0.0016836993, -0.00060257193, -1760244.9, 49986.844 
1.2157737e+3, 1.2527274e+2, -1674947.0, -1810242.3, -5192.4365, 0.0018084531, 0.00025841562, -1674748.0, 37579.33 
1.2157595e+3, 1.3526246e+2, -1582485.3, -1715027.3, -5484.059, -0.0012488101, 0.0016606878, -1582258.8, 32169.268 
1.21574536e+3, 1.4525169e+2, -1496261.3, -1633282.9, -5572.0117, -0.0010542538, 0.0018199137, -1496035.1, 20498.504 
1.21573135e+3, 1.5524042e+2, -1402888.0, -1537628.3, -5429.196, 0.001995534, -0.0010576759, -1402669.6, 15974.373 
1.21571705e+3, 1.6522865e+2, -1317414.3, -1457531.8, -5695.0366, 0.001725734, -0.00024290431, -1317183.1, 3576.2239 
1.2157029e+3, 1.7521635e+2, -1224788.3, -1362214.6, -5658.6655, -0.0014888698, 0.001836621, -1224555.6, -1675.872 
1.2156886e+3, 1.8520354e+2, -1138990.5, -1281674.8, -5557.735, -0.0019985824, 0.0026035362, -1138774.4, -13768.875 
1.2156744e+3, 1.9519018e+2, -1045493.25, -1185938.1, -5681.2427, -0.000042305393, 0.00037609864, -1045263.8, -18127.367 
1.2156603e+3, 2.0517631e+2, -959495.25, -1104861.4, -5682.004, 0.00068335095, 0.0004407075, -959273.5, -30001.252 
1.2156461e+3, 2.1516195e+2, -866840.8, -1009549.75, -5580.6216, 0.00032106173, 0.00060952565, -866622.9, -35210.016 
1.21563196e+3, 2.2514707e+2, -781322.5, -929370.6, -5046.991, 0.00017806987, 0.00085173943, -781150.7, -47591.832 
1.21561795e+3, 2.3513162e+2, -687877.44, -833572.94, -5079.069, 0.00014750798, -0.0010655099, -687700.56, -51990.44 
1.215604e+3, 2.451157e+2, -602017.8, -752868.06, -4692.736, 0.000007607715, 0.0005435941, -601871.94, -64005.73 
1.21558994e+3, 2.550993e+2, -509099.03, -657196.06, -4607.9766, -0.00012968695, 0.0036148892, -508955.78, -68928.71 
1.21557616e+3, 2.650823e+2, -423490.4, -576936.4, -3779.0144, -0.00051816955, 0.0029916987, -423397.4, -81203.84 
1.2155624e+3, 2.7506477e+2, -329988.03, -480886.88, -3846.066, -0.0011781609, -0.0032995704, -329890.06, -85524.555 
1.21554874e+3, 2.8504676e+2, -244217.23, -400277.03, -3148.7544, -0.00048882375, -0.0017541177, -244153.73, -97611.836 
1.2155352e+3, 2.9502833e+2, -151210.55, -304398.25, -2962.3455, 0.0016489265, 0.005030038, -151153.28, -102430.71 
1.21552184e+3, 3.050126e+2, -67374.22, -175659.92, -1672.1521, 0.0018189478, 0.003923392, -67348.4, -67348.4 
1.2155086e+3, 3.1499967e+2, -72143.71, -177625.47, -1762.3157, -0.0002724101, -0.0067627826, -72114.28, -72114.28 
1.2154954e+3, 3.2499164e+2, -10166.623, -42128.273, -879.6719, -0.0024923435, 0.0032964675, -10142.431, -10142.431 
1.2259075e+3, 3.5355508e+1, -2475948.3, -2598525.5, 423.46497, -0.0018709218, -0.0042938376, -2475946.8, 117569.47 
1.22589394e+3, 4.5349798e+1, -2387757.0, -2513338.0, -443.4978, 0.0026593024, 0.011094453, -2387755.5, 107816.72 
1.22588016e+3, 5.5343485e+1, -2293912.8, -2417698.8, -1046.634, 0.0004856273, 0.00008118646, -2293904.0, 103730.06 
1.2258663e+3, 6.53367e+1, -2208834.5, -2337848.3, -1591.5765, 0.00006102805, -0.002664482, -2208815.0, 90885.445 
1.22585244e+3, 7.532947e+1, -2117354.8, -2243119.5, -1335.6957, 0.0015547742, 0.0001586099, -2117340.5, 84430.88 
1.2258384e+3, 8.5321736e+1, -2031229.5, -2161348.8, -2534.5823, 0.0011917431, 0.0020950264, -2031180.1, 72666.97 
1.2258242e+3, 9.531353e+1, -1937373.1, -2065486.9, -2761.1, -0.0009867114, 0.0014138258, -1937313.6, 68613.95 
1.22581005e+3, 1.0530479e+2, -1852004.4, -1985059.9, -3246.7944, -0.0008741509, 0.0011249303, -1851925.1, 56087.957 
1.22579575e+3, 1.15295544e+2, -1760402.5, -1890321.6, -3388.155, 0.0013103404, -0.0006344262, -1760314.3, 49789.47 
1.2257814e+3, 1.2528577e+2, -1675028.6, -1810268.3, -3979.6992, 0.0011497983, 0.00020404876, -1674911.6, 37287.824 
1.225767e+3, 1.3527551e+2, -1581138.5, -1714318.1, -3715.4355, -0.001187186, 0.0015029478, -1581034.9, 33265.203 
1.22575246e+3, 1.4526474e+2, -1494955.8, -1632795.9, -3851.6262, -0.00081994367, 0.001827969, -1494848.3, 21557.475 
1.225738e+3, 1.5525346e+2, -1402740.6, -1537713.5, -4079.443, 0.0019360811, -0.00067125703, -1402617.4, 15898.856 
1.2257235e+3, 1.6524167e+2, -1317314.8, -1457399.1, -4466.5728, 0.0016406946, 0.00008782794, -1317172.5, 3459.161 
1.2257089e+3, 1.7522939e+2, -1223986.0, -1361726.1, -4427.698, -0.0014026287, 0.0017630969, -1223843.8, -1091.7065 
1.22569434e+3, 1.8521656e+2, -1138440.3, -1281383.9, -4226.617, -0.0018566527, 0.0023433196, -1138315.4, -13437.581 
1.2256798e+3, 1.952032e+2, -1045928.5, -1186124.6, -4145.075, 0.0000817857, 0.00010366504, -1045806.06, -18797.252 
1.2256653e+3, 2.0518933e+2, -959955.75, -1105106.3, -4131.3335, 0.000799548, 0.00032877494, -959838.25, -30693.674 
1.2256509e+3, 2.1517499e+2, -866480.2, -1009369.7, -4249.9624, 0.0004231519, 0.0008110903, -866353.94, -35068.703 
1.2256364e+3, 2.2516009e+2, -780949.9, -929079.1, -3831.5938, 0.00013190816, 0.0012202087, -780850.8, -47419.715 
1.2256219e+3, 2.3514467e+2, -688472.25, -833722.2, -3746.4507, -0.00013760442, -0.00069940876, -688375.7, -52793.363 
1.2256077e+3, 2.4512875e+2, -602721.7, -752991.8, -3267.7683, -0.0001263189, 0.00042723195, -602650.6, -64912.31 
1.22559324e+3, 2.5511235e+2, -509255.38, -657055.75, -3227.6887, 0.00025539804, 0.0026855587, -509184.94, -69285.81 
1.2255791e+3, 2.6509535e+2, -423922.97, -577114.94, -2429.9724, -0.00017673481, 0.0025680452, -423884.44, -81818.97 
1.2255651e+3, 2.7507785e+2, -331304.94, -481484.22, -2373.2712, -0.0014363835, -0.002013046, -331267.44, -87030.195 
1.225551e+3, 2.8505984e+2, -245327.28, -400460.66, -1588.9001, -0.0007938006, -0.0010002155, -245311.02, -98897.445 
1.2255371e+3, 2.950414e+2, -151359.33, -304159.38, -1572.9545, 0.001841291, 0.0031578813, -151343.14, -102748.92 
1.2255234e+3, 3.0502573e+2, -67938.68, -175896.72, -489.7931, 0.0020684204, 0.003245112, -67936.46, -67936.46 
1.2255098e+3, 3.150128e+2, -74000.836, -178495.88, -394.95038, -0.0003939421, -0.0025596765, -73999.34, -73999.34 
1.2254962e+3, 3.250048e+2, -11969.048, -41849.598, 399.2486, -0.0028922025, 0.0014418912, -11963.715, -11963.715 
1.2359183e+3, 3.5369042e+1, -2473187.5, -2592789.3, -874.8204, -0.0033183997, -0.0018241106, -2473181.3, 120202.4 
1.2359044e+3, 4.536333e+1, -2388938.8, -2515731.5, -1402.105, 0.0020936127, 0.0036185426, -2388923.3, 106516.15 
1.23589054e+3, 5.535694e+1, -2295077.8, -2419979.3, -1937.5504, 0.0030683032, 0.00021172101, -2295047.8, 102454.39 
1.2358762e+3, 6.5350145e+1, -2208392.5, -2336839.0, -3049.418, 0.0013174315, 0.000033707915, -2208320.3, 91248.58 
1.2358619e+3, 7.534296e+1, -2116848.5, -2242155.8, -2825.7937, -0.0024585547, 0.0010862178, -2116784.8, 84854.35 
1.23584755e+3, 8.533521e+1, -2031681.1, -2162297.0, -3462.1511, -0.0016653321, 0.0015510261, -2031589.5, 72125.51 
1.2358331e+3, 9.5326924e+1, -1937952.9, -2066498.8, -3680.6614, 0.0029168979, -0.00040625743, -1937847.5, 67948.65 
1.23581864e+3, 1.0531816e+2, -1852356.4, -1985621.9, -4717.378, 0.0029047874, 0.00020147425, -1852189.6, 55692.555 
1.2358038e+3, 1.153089e+2, -1760559.0, -1890747.4, -4822.978, -0.0011175447, 0.0012672058, -1760380.6, 49592.293 
1.2357892e+3, 1.2529916e+2, -1674498.3, -1809203.0, -4873.318, -0.0016266344, 0.0016202395, -1674322.1, 37746.207 
1.2357744e+3, 1.3528892e+2, -1580787.8, -1713398.9, -4664.497, 0.0009680497, -0.00047201637, -1580623.9, 33544.773 
1.2357596e+3, 1.4527816e+2, -1495540.4, -1633743.6, -5226.6836, 0.0009941661, 0.0004209169, -1495343.0, 20931.19 
1.2357447e+3, 1.5526685e+2, -1403197.0, -1538596.9, -5412.9854, -0.001291362, 0.0019338198, -1402980.9, 15404.1045 
1.2357298e+3, 1.6525504e+2, -1317279.0, -1457298.4, -5523.4316, -0.0011357659, 0.0023951451, -1317061.4, 3439.311 
1.235715e+3, 1.7524272e+2, -1223996.3, -1361645.9, -5496.143, 0.0011457623, -0.00006436513, -1223777.1, -1155.6965 
1.2357001e+3, 1.852299e+2, -1138313.1, -1281094.4, -5518.345, 0.0014268263, -0.000082613864, -1138100.1, -13353.165 
1.2356852e+3, 1.9521658e+2, -1045752.94, -1185815.4, -5440.157, -0.00008113059, 0.0001696336, -1045542.0, -18664.447 
1.23567045e+3, 2.0520273e+2, -960171.6, -1105556.8, -5188.0054, -0.00056332594, 0.0011325784, -959986.7, -30973.402 
1.23565555e+3, 2.1518834e+2, -866762.3, -1009849.3, -5289.0454, -0.00006628946, 0.0007808399, -866567.06, -35412.73 
1.2356407e+3, 2.2517346e+2, -780884.25, -928782.2, -5142.334, -0.000084592466, 0.0017918379, -780705.7, -47405.457 
1.235626e+3, 2.3515807e+2, -688328.9, -833402.3, -5057.4976, -0.00054381567, 0.0018030072, -688152.75, -52701.77 
1.2356112e+3, 2.4514215e+2, -602655.1, -752802.4, -4364.0747, -0.00032864488, 0.0009071336, -602528.44, -64921.395 
1.2355967e+3, 2.551257e+2, -509221.28, -656921.7, -4333.598, 0.0005520721, -0.0026043116, -509094.25, -69326.03 
1.235582e+3, 2.6510876e+2, -423859.84, -576898.56, -3782.708, 0.0007185828, -0.0007520779, -423766.4, -81832.16 
1.2355676e+3, 2.7509135e+2, -331179.78, -481245.75, -3719.1516, 0.00016217899, 0.004023584, -331087.66, -86982.62 
1.23555325e+3, 2.8507334e+2, -245264.14, -400394.2, -2615.2468, -0.00038174458, 0.003686827, -245220.06, -98938.695 
1.2355391e+3, 2.9505482e+2, -151367.77, -304135.6, -2601.815, -0.00080207, -0.003912626, -151323.45, -102860.42 
1.23552494e+3, 3.0503917e+2, -67821.18, -175604.22, -1997.2242, -0.0006513906, -0.0019107885, -67784.19, -67784.19 
1.23551086e+3, 3.1502643e+2, -73774.94, -178143.38, -1882.9316, -0.00009625253, 0.007571135, -73740.98, -73740.98 
1.2354969e+3, 3.250183e+2, -11795.439, -41599.9, -784.84863, -0.0004123019, -0.0010784182, -11774.786, -11774.786 
1.2459293e+3, 3.5383043e+1, -2471334.5, -2592946.0, 365.6612, -0.0015203105, 0.0032858162, -2471333.5, 121912.83 
1.2459151e+3, 4.537714e+1, -2387264.8, -2514937.0, -493.45444, 0.00088415877, -0.0057515954, -2387262.8, 108041.164 
1.2459008e+3, 5.537084e+1, -2293907.0, -2419423.5, -140.12593, 0.0022223513, 0.00060079177, -2293906.8, 103459.1 
1.2458862e+3, 6.5364057e+1, -2207127.0, -2336450.8, -1499.2045, 0.0012406162, 0.003166313, -2207109.8, 92322.63 
1.24587156e+3, 7.535682e+1, -2114792.8, -2241396.3, -1817.1659, -0.0015287015, 0.0008593859, -2114766.8, 86736.625 
1.2458568e+3, 8.534905e+1, -2030098.4, -2161649.0, -2350.5037, -0.0010446092, 0.00044830752, -2030056.4, 73523.04 
1.24584205e+3, 9.534076e+1, -1937962.4, -2066626.4, -2288.0105, 0.0021534627, -0.00019709914, -1937921.8, 67738.95 
1.24582715e+3, 1.0533198e+2, -1852005.1, -1985476.5, -3116.447, 0.002089329, 0.00074136973, -1851932.4, 55814.273 
1.245812e+3, 1.1532272e+2, -1758349.8, -1889690.9, -3033.0588, -0.0008534619, 0.001327324, -1758279.8, 51557.715 
1.245797e+3, 1.2531295e+2, -1672599.6, -1808434.9, -3309.0386, -0.0011187159, 0.0015314637, -1672519.1, 39414.023 
1.24578185e+3, 1.3530271e+2, -1580904.9, -1713632.6, -3614.607, 0.0010044834, -0.00040751064, -1580806.5, 33227.09 
1.2457667e+3, 1.4529192e+2, -1495854.6, -1633860.8, -4143.178, 0.0008851383, 0.00052334036, -1495730.4, 20408.81 
1.24575146e+3, 1.5528063e+2, -1402376.8, -1538137.3, -3938.3882, -0.0012510158, 0.001963588, -1402262.5, 15987.368 
1.2457363e+3, 1.6526882e+2, -1316407.6, -1456978.8, -3938.862, -0.0011071567, 0.0022760108, -1316297.4, 4068.3447 
1.24572106e+3, 1.752565e+2, -1223927.1, -1361712.8, -4005.628, 0.0010463207, -0.0003843007, -1223810.8, -1324.3499 
1.2457058e+3, 1.8524367e+2, -1138297.6, -1281061.4, -4132.238, 0.0013935292, -0.0001730265, -1138178.1, -13566.037 
1.2456906e+3, 1.9523036e+2, -1045029.7, -1185453.9, -4215.2813, 0.00010453217, 0.0006852349, -1044903.3, -18160.715 
1.2456754e+3, 2.0521651e+2, -959623.56, -1105150.3, -3946.3865, -0.00043594057, 0.0015771041, -959516.6, -30638.295 
1.2456602e+3, 2.1520212e+2, -867388.0, -1009991.3, -3794.0046, -0.00022779031, 0.00054030534, -867287.2, -36267.85 
1.245645e+3, 2.2518724e+2, -781630.56, -929075.2, -3541.955, -0.00020354339, 0.0013762902, -781545.5, -48380.387 
1.24562986e+3, 2.3517185e+2, -688244.0, -833284.44, -3562.063, -0.0002585166, 0.0017411277, -688156.56, -52840.734 
1.2456149e+3, 2.4515595e+2, -602639.2, -752831.56, -2991.113, -0.00011219266, 0.0011638773, -602579.6, -65107.82 
1.2456e+3, 2.551395e+2, -509938.4, -657292.25, -3063.5784, 0.00020852672, -0.0021332346, -509874.75, -70241.67 
1.2455849e+3, 2.6512256e+2, -424407.88, -576886.5, -2576.1045, 0.00048866525, -0.00048746786, -424364.34, -82565.32 
1.2455702e+3, 2.7510518e+2, -331176.38, -480943.2, -2466.3596, 0.0006850082, 0.0037857785, -331135.78, -87166.164 
1.2455554e+3, 2.8508717e+2, -245872.14, -400657.1, -1335.241, -0.0000210787, 0.00325076, -245860.63, -99714.78 
1.2455409e+3, 2.9506862e+2, -153436.53, -305071.75, -1356.9998, -0.0015397824, -0.004283268, -153424.38, -105096.86 
1.2455264e+3, 3.05053e+2, -69416.445, -175806.88, -703.093, -0.0014539759, -0.0014585726, -69411.8, -69411.8 
1.2455121e+3, 3.1504035e+2, -73802.59, -177579.42, -420.34146, 0.00018566287, 0.009613591, -73800.89, -73800.89 
1.24549784e+3, 3.2503214e+2, -12321.875, -43291.684, 332.74377, 0.0007686713, -0.0028325412, -12318.3, -12318.3 
1.2559405e+3, 3.5397422e+1, -2474315.5, -2599206.3, -1251.1837, 0.0024366667, 0.010165795, -2474303.0, 118802.42 
1.2559257e+3, 4.5391196e+1, -2386300.3, -2513281.5, -1491.6642, -0.0008565308, -0.016313218, -2386282.8, 108883.44 
1.2559111e+3, 5.538511e+1, -2293287.0, -2418015.3, -1197.8173, -0.0011252286, 0.0011701935, -2293275.5, 103950.555 
1.2558962e+3, 6.537836e+1, -2207938.8, -2337836.3, -2798.5042, 0.00015481943, 0.0065765716, -2207878.5, 91413.75 
1.2558812e+3, 7.5370985e+1, -2115485.3, -2242681.3, -3078.3892, 0.0028981455, -0.00020804389, -2115410.8, 85953.66 
1.2558661e+3, 8.536318e+1, -2029962.0, -2161400.5, -3668.5044, 0.002029104, -0.0010425351, -2029859.6, 73581.26 
1.2558508e+3, 9.5354944e+1, -1937788.1, -2066356.3, -3606.5771, -0.0020387527, 0.0014820877, -1937687.0, 67834.73 
1.2558356e+3, 1.0534618e+2, -1851894.3, -1985194.6, -4095.496, -0.0020884105, 0.0023365105, -1851768.5, 55839.0 
1.2558202e+3, 1.1533692e+2, -1758399.3, -1889515.4, -4047.028, 0.0013562376, 0.00001473829, -1758274.5, 51423.887 
1.2558049e+3, 1.2532713e+2, -1673317.0, -1809655.0, -4797.37, 0.0017428673, 0.00036140624, -1673148.4, 38645.887 
1.2557893e+3, 1.3531682e+2, -1581440.1, -1714732.4, -5043.197, -0.0006185417, 0.0011868882, -1581249.5, 32645.775 
1.2557738e+3, 1.4530604e+2, -1495462.3, -1633089.1, -5139.0327, -0.00069845293, 0.0017474089, -1495270.6, 20730.357 
1.2557583e+3, 1.5529476e+2, -1402113.6, -1537441.3, -4971.556, 0.0012148722, 0.000047315367, -1401931.3, 16180.235 
1.2557428e+3, 1.6528296e+2, -1316658.4, -1457306.5, -5241.9307, 0.00097597716, 0.00037619157, -1316463.3, 3763.8462 
1.2557271e+3, 1.7527063e+2, -1224115.0, -1362021.6, -5295.2188, -0.0011408182, 0.00046468354, -1223912.0, -1564.0631 
1.2557116e+3, 1.8525779e+2, -1138483.1, -1281408.4, -5223.864, -0.001220787, 0.0015156147, -1138292.4, -13818.775 
1.2556961e+3, 1.9524446e+2, -1045272.56, -1185798.0, -5295.114, 0.00051793817, 0.0015245237, -1045073.3, -18468.861 
1.2556805e+3, 2.0523061e+2, -959423.06, -1104596.0, -5289.7305, 0.0007825112, 0.0017526723, -959230.56, -30490.42 
1.255665e+3, 2.1521626e+2, -867111.5, -1009413.7, -5151.223, -0.00020798336, 0.00015385161, -866925.3, -36044.56 
1.2556495e+3, 2.2520138e+2, -781677.9, -929174.44, -4643.2383, -0.00029762363, 0.00021231303, -781531.9, -48505.363 
1.255634e+3, 2.35186e+2, -688331.6, -833429.4, -4663.4155, 0.0004885767, -0.0003114926, -688181.9, -53004.523 
1.2556185e+3, 2.4517009e+2, -602845.56, -753120.56, -4286.376, 0.00034668995, 0.0013013446, -602723.44, -65390.133 
1.2556031e+3, 2.5515366e+2, -510115.3, -657577.3, -4337.2026, -0.0007018824, 0.002902603, -509987.84, -70493.58 
1.255588e+3, 2.6513672e+2, -424218.38, -576476.8, -3745.6287, -0.00071429095, 0.0026011532, -424126.28, -82465.93 
1.2555727e+3, 2.7511927e+2, -330961.22, -480554.03, -3649.8135, 0.00027615437, -0.0014920551, -330872.22, -87040.84 
1.2555577e+3, 2.851013e+2, -245891.55, -400705.22, -2749.691, 0.00023003136, -0.0012437756, -245842.73, -99835.33 
1.2555428e+3, 2.9508287e+2, -153422.11, -305124.47, -2763.0078, -0.0008136359, 0.0008316404, -153371.81, -105183.555 
1.2555279e+3, 3.0506727e+2, -68898.4, -174745.06, -1769.8477, -0.0007881726, 0.003548009, -68868.81, -68868.81 
1.2555131e+3, 3.1505457e+2, -73296.21, -176554.11, -1505.8817, 0.00037696122, 0.00499903, -73274.26, -73274.26 
1.2554985e+3, 3.2504633e+2, -14099.319, -46902.64, -851.28546, 0.0006371235, -0.0038516012, -14077.243, -14077.243 
1.2659517e+3, 3.5412124e+1, -2472318.3, -2601048.5, 448.77805, 0.0038358523, 0.0063521327, -2472316.8, 120644.5 
1.2659366e+3, 4.5405895e+1, -2382034.8, -2511008.5, -130.69153, -0.00073740614, -0.009037789, -2382034.8, 112987.664 
1.2659214e+3, 5.539975e+1, -2291989.5, -2417230.8, -365.6409, -0.001642483, 0.0011858835, -2291988.5, 105094.13 
1.2659064e+3, 6.5392977e+1, -2207762.5, -2337923.3, -1630.8749, -0.00045607256, 0.0044770995, -2207742.0, 91406.945 
1.265891e+3, 7.5385606e+1, -2114459.5, -2242353.8, -1498.7797, 0.0025192085, -0.00007336033, -2114442.0, 86779.18 
1.2658755e+3, 8.5377795e+1, -2028289.6, -2160593.8, -2107.9504, 0.0020068018, -0.00038079318, -2028256.0, 75041.75 
1.2658599e+3, 9.5369536e+1, -1935773.5, -2065414.1, -2179.7517, -0.0015505255, 0.0012490235, -1935736.9, 69641.73 
1.2658443e+3, 1.0536077e+2, -1850701.8, -1984784.6, -2794.38, -0.0016927386, 0.0019957712, -1850643.5, 56821.098 
1.2658285e+3, 1.1535148e+2, -1758807.6, -1889893.6, -2976.9785, 0.0011721819, 0.00026446034, -1758740.0, 50815.54 
1.2658128e+3, 1.2534168e+2, -1673375.6, -1809688.0, -3540.7139, 0.0014491159, 0.00072114635, -1673283.8, 38367.883 
1.2657969e+3, 1.3533138e+2, -1579755.8, -1713897.1, -3303.5369, -0.00063864124, 0.0012057031, -1579674.5, 34078.145 
1.2657811e+3, 1.453206e+2, -1493807.8, -1632344.9, -3413.0298, -0.0006145982, 0.001510189, -1493723.8, 22134.635 
1.2657651e+3, 1.5530929e+2, -1401907.0, -1537414.6, -3597.6511, 0.0012702004, -0.00027284582, -1401811.5, 16157.438 
1.2657493e+3, 1.652975e+2, -1316744.5, -1457362.0, -3907.4783, 0.0010351149, 0.0003465579, -1316636.0, 3448.6074 
1.2657332e+3, 1.7528519e+2, -1223474.9, -1361717.0, -3868.9421, -0.0010473023, 0.0010031159, -1223366.6, -1161.306 
1.2657173e+3, 1.8527235e+2, -1137923.0, -1281022.1, -3710.1372, -0.0012091828, 0.0018528479, -1137826.8, -13495.69 
1.2657014e+3, 1.95259e+2, -1045692.56, -1185908.6, -3592.8647, 0.0004166538, 0.0010261227, -1045600.56, -19138.686 
1.2656854e+3, 2.0524517e+2, -959925.4, -1104879.4, -3601.2546, 0.00069679297, 0.0012409312, -959835.94, -31238.385 
1.2656696e+3, 2.1523081e+2, -866641.25, -1009232.6, -3747.8499, -0.00020879538, 0.00036950517, -866542.8, -35804.66 
1.2656537e+3, 2.2521593e+2, -781117.8, -928880.44, -3347.2417, -0.00018378753, 0.00051540334, -781042.0, -48158.08 
1.2656379e+3, 2.3520052e+2, -688527.7, -833502.0, -3326.29, 0.00073946186, -0.00050414354, -688451.44, -53416.586 
1.2656221e+3, 2.4518463e+2, -603320.6, -753169.1, -2906.6863, 0.0004882392, 0.0010603495, -603264.25, -66073.53 
1.2656064e+3, 2.5516823e+2, -510748.13, -657666.94, -2729.9128, -0.0008628605, 0.0030410646, -510697.4, -71345.91 
1.2655908e+3, 2.6515126e+2, -424945.16, -576779.56, -1964.6637, -0.00095509394, 0.0026013835, -424919.75, -83402.26 
1.2655753e+3, 2.7513382e+2, -331579.44, -480768.56, -2046.6366, 0.00013238686, -0.0021255112, -331551.38, -87862.82 
1.2655598e+3, 2.8511587e+2, -246384.0, -400808.56, -1433.7019, 0.00032727473, -0.0010998638, -246370.69, -100506.234 
1.2655444e+3, 2.9509747e+2, -153985.78, -305195.78, -1368.7267, -0.0003494045, 0.0031656858, -153973.39, -105928.39 
1.2655292e+3, 3.0508184e+2, -69607.5, -174995.23, -254.56941, -0.0005756984, 0.0033934766, -69606.89, -69606.89 
1.2655142e+3, 3.150691e+2, -74343.29, -176928.44, -417.36545, -0.00023763262, -0.0021931732, -74341.586, -74341.586 
1.2654993e+3, 3.25061e+2, -15534.41, -46959.543, 733.6884, 0.00069206196, 0.0007639574, -15517.29, -15517.29 
1.275963e+3, 3.5427108e+1, -2473451.3, -2603009.5, -109.90169, 0.003363707, -0.004632027, -2473451.3, 119363.19 
1.2759477e+3, 4.54211e+1, -2382657.0, -2511925.5, -1932.536, 0.00061135285, 0.010627851, -2382628.3, 112245.305 
1.275932e+3, 5.54147e+1, -2292377.5, -2418000.0, -2130.2993, -0.00021217487, 0.0007358593, -2292341.3, 104594.83 
1.2759164e+3, 6.540786e+1, -2207491.8, -2337427.0, -2629.3435, -0.00079988263, -0.0015104718, -2207438.8, 91564.39 
1.2759006e+3, 7.5400597e+1, -2114258.3, -2241910.3, -2534.4631, -0.0013382632, 0.0009241649, -2114207.8, 86866.46 
1.275885e+3, 8.5392797e+1, -2028501.9, -2160959.5, -3365.9248, -0.00024602818, 0.0018156588, -2028416.5, 74734.26 
1.2758689e+3, 9.5384485e+1, -1936060.3, -2065811.8, -3439.5454, 0.0022498392, -0.00037878158, -1935969.1, 69263.03 
1.2758529e+3, 1.0537568e+2, -1851109.1, -1985536.8, -4201.0205, 0.0019194422, 0.00028314212, -1850977.9, 56340.56 
1.2758368e+3, 1.1536638e+2, -1759061.5, -1890532.6, -4342.048, -0.000818425, 0.0016799119, -1758918.3, 50491.41 
1.2758207e+3, 1.2535658e+2, -1672960.1, -1808778.3, -4495.9087, -0.0011720976, 0.0021970929, -1672811.5, 38694.08 
1.2758045e+3, 1.3534631e+2, -1579535.3, -1713128.1, -4314.775, 0.0004739254, 0.000043456013, -1579396.1, 34210.12 
1.2757882e+3, 1.4533553e+2, -1494343.9, -1633153.0, -4858.0264, 0.0006199809, 0.00022352244, -1494174.1, 21537.893 
1.275772e+3, 1.553242e+2, -1402290.5, -1538136.1, -5002.5464, -0.0005549416, 0.00060189504, -1402106.6, 15716.308 
1.2757556e+3, 1.653124e+2, -1316701.6, -1457259.8, -4983.066, -0.00047276108, 0.0017174596, -1316525.1, 3413.5154 
1.2757394e+3, 1.7530006e+2, -1223525.3, -1361639.3, -4954.017, 0.00071878155, 0.0013023047, -1223347.9, -1288.407 
1.2757231e+3, 1.8528725e+2, -1137779.9, -1280611.5, -5076.276, 0.0007424873, 0.0012083517, -1137599.6, -13414.603 
1.2757067e+3, 1.9527392e+2, -1045485.5, -1185485.8, -4972.754, -0.0001418791, -0.00046487892, -1045309.06, -18993.498 
1.2756905e+3, 2.0526008e+2, -960224.75, -1105473.1, -4709.56, -0.00046377192, 0.00022778401, -960072.25, -31620.95 
1.2756743e+3, 2.1524571e+2, -866994.06, -1009832.56, -4836.402, -0.00028928576, 0.001062677, -866830.5, -36238.344 
1.275658e+3, 2.2523083e+2, -781165.3, -928856.7, -4629.078, 0.00004030663, 0.001975698, -781020.4, -48282.36 
1.2756419e+3, 2.3521543e+2, -688554.6, -833465.44, -4607.724, 0.00051062275, 0.00076764345, -688408.25, -53519.375 
1.2756257e+3, 2.4519955e+2, -603051.8, -752526.5, -4223.4253, 0.00029095428, 0.0005422211, -602932.6, -65887.945 
1.2756096e+3, 2.5518313e+2, -510416.34, -657013.2, -4063.8228, -0.0004888671, -0.0006825331, -510303.78, -71098.516 
1.2755936e+3, 2.6516622e+2, -425071.13, -577042.3, -3127.2275, -0.0005241369, 0.00021261678, -425006.8, -83635.78 
1.2755777e+3, 2.751488e+2, -331771.0, -481077.78, -3203.9211, 0.0001403543, 0.0010053181, -331702.28, -88160.46 
1.275562e+3, 2.8513086e+2, -246302.9, -400539.3, -2854.3994, 0.0002519331, 0.0027805914, -246250.1, -100532.48 
1.2755463e+3, 2.9511243e+2, -153817.3, -304904.94, -2783.246, -0.00018898652, 0.0032499337, -153766.05, -105867.79 
1.2755306e+3, 3.0509678e+2, -69899.516, -175609.23, -1408.4475, -0.0008566242, -0.0009302383, -69880.75, -69880.75 
1.2755153e+3, 3.1508395e+2, -74690.05, -177560.05, -1560.4352, -0.0016384264, -0.011460583, -74666.38, -74666.38 
1.2754999e+3, 3.2507613e+2, -13521.906, -42591.16, -808.3975, 0.00075321086, 0.010150719, -13499.442, -13499.442 
1.2859744e+3, 3.544252e+1, -2470964.5, -2599363.8, 786.28394, 0.0015415227, -0.006807451, -2470959.8, 121703.695 
1.2859586e+3, 4.5436656e+1, -2383239.3, -2512748.3, -352.983, 0.0005652395, 0.015806386, -2383238.5, 111482.64 
1.2859426e+3, 5.543015e+1, -2290938.8, -2417828.0, -533.7485, 0.0005573004, 0.00012806639, -2290936.5, 105848.125 
1.2859266e+3, 6.542326e+1, -2205240.8, -2336489.0, -824.69025, 0.000075382035, -0.003503831, -2205235.5, 93616.58 
1.2859105e+3, 7.5416e+1, -2112666.3, -2241335.8, -1032.4309, -0.0010199384, 0.0013792433, -2112658.0, 88265.31 
1.2858942e+3, 8.540819e+1, -2027610.8, -2160654.3, -2181.0242, -0.00039505612, 0.002967103, -2027575.0, 75424.81 
1.285878e+3, 9.5399857e+1, -1935811.0, -2065823.9, -2217.082, 0.0017458337, -0.000051946405, -1935773.1, 69308.375 
1.2858616e+3, 1.0539104e+2, -1850290.4, -1985079.0, -2638.319, 0.0015894496, 0.00007569007, -1850238.8, 56929.176 
1.285845e+3, 1.1538174e+2, -1756891.1, -1889403.0, -2481.8591, -0.00055720937, 0.0012017452, -1756844.6, 52414.44 
1.2858286e+3, 1.2537195e+2, -1671343.3, -1808173.1, -2846.382, -0.00083995215, 0.0018536351, -1671284.0, 40071.027 
1.285812e+3, 1.3536166e+2, -1579977.8, -1713511.8, -3108.466, 0.00050725276, 0.00023847239, -1579905.4, 33550.465 
1.2857954e+3, 1.4535086e+2, -1494791.4, -1633392.6, -3559.793, 0.0005165429, 0.0006275592, -1494700.0, 20861.738 
1.2857789e+3, 1.5533954e+2, -1401140.8, -1537612.5, -3411.7097, -0.0006396733, 0.0009233289, -1401055.5, 16617.086 
1.285762e+3, 1.6532773e+2, -1315497.3, -1456600.9, -3369.7625, -0.00049991376, 0.0017366599, -1315416.8, 4371.6094 
1.2857455e+3, 1.753154e+2, -1223609.8, -1361630.9, -3352.1682, 0.00078599644, 0.00089541613, -1223528.4, -1619.272 
1.2857288e+3, 1.8530259e+2, -1138084.4, -1280838.3, -3529.5078, 0.00082487555, 0.0008928933, -1137997.3, -13962.432 
1.2857121e+3, 1.9528925e+2, -1044753.5, -1185216.5, -3696.7085, -0.0001245417, -0.00026269344, -1044656.3, -18490.922 
1.2856956e+3, 2.052754e+2, -959359.0, -1104983.4, -3434.2573, -0.00035755805, 0.00045876842, -959278.06, -30976.99 
1.2856789e+3, 2.1526103e+2, -867119.3, -1009819.4, -3269.5657, 0.00007836238, 0.0009398456, -867044.44, -36602.504 
1.2856624e+3, 2.2524618e+2, -781794.8, -929026.1, -2957.7969, 0.0001181939, 0.0019203216, -781735.44, -49147.715 
1.2856458e+3, 2.3523077e+2, -689151.6, -833617.3, -2924.2063, -0.00020544323, 0.001102269, -689092.44, -54353.92 
1.2856293e+3, 2.4521488e+2, -603244.1, -752632.5, -2595.9543, -0.00014547854, 0.0007491274, -603199.06, -66304.77 
1.2856127e+3, 2.5519848e+2, -509890.25, -656759.6, -2725.074, 0.00030887278, -0.0009513209, -509839.7, -70784.78 
1.2855965e+3, 2.6518157e+2, -424949.7, -576939.25, -1995.9652, 0.00017807957, 0.00005175402, -424923.5, -83702.836 
1.2855802e+3, 2.7516416e+2, -333083.13, -481659.2, -1939.7217, -0.00047211524, 0.0014675983, -333057.8, -89666.44 
1.2855642e+3, 2.8514624e+2, -247423.98, -400822.34, -1353.2737, -0.00033427952, 0.0029477105, -247412.05, -101844.98 
1.2855479e+3, 2.951278e+2, -153623.97, -304543.44, -1249.6014, 0.00043760074, 0.0022346633, -153613.61, -105866.055 
1.285532e+3, 3.0511215e+2, -70412.15, -176243.6, -39.309116, -0.00016888045, -0.0008136705, -70412.13, -70412.13 
1.2855162e+3, 3.1509933e+2, -76961.28, -179022.33, -160.02132, -0.0017152028, -0.007887511, -76961.03, -76961.03 
1.2855005e+3, 3.2509154e+2, -14854.204, -40969.473, 164.33183, -0.00039694196, 0.007978622, -14853.17, -14853.17 
1.2959859e+3, 3.5458282e+1, -2468111.5, -2592914.8, -910.9809, -0.0012892896, -0.0030025004, -2468104.8, 124404.195 
1.2959696e+3, 4.5452517e+1, -2383724.0, -2513582.8, -1689.0337, -0.0005034478, 0.010882587, -2383702.0, 110863.42 
1.2959531e+3, 5.5446005e+1, -2291213.8, -2418544.3, -1848.2418, 0.00079416553, -0.0005467136, -2291187.0, 105442.4 
1.2959367e+3, 6.543908e+1, -2205555.3, -2337250.3, -2069.2605, 0.001726954, -0.0026548663, -2205522.8, 93174.41 
1.2959203e+3, 7.543175e+1, -2113196.3, -2242171.8, -2255.3594, 0.002189866, 0.0014299607, -2113157.0, 87612.0 
1.2959036e+3, 8.542393e+1, -2027830.1, -2160913.5, -3580.9524, 0.0008954768, 0.003374434, -2027733.9, 75111.805 
1.295887e+3, 9.5415586e+1, -1935852.0, -2065956.0, -3600.2356, -0.001879679, 0.0016807741, -1935752.4, 69174.98 
1.2958702e+3, 1.05406776e+2, -1850003.8, -1984502.4, -3660.6707, -0.0015903616, 0.0009579501, -1849904.1, 57109.566 
1.2958536e+3, 1.1539749e+2, -1756827.6, -1888982.3, -3556.0188, 0.0012963562, -0.0006571794, -1756732.0, 52372.688 
1.2958366e+3, 1.2538768e+2, -1672016.8, -1809275.3, -4415.728, 0.0015776667, 0.0002143491, -1671874.9, 39325.953 
1.2958196e+3, 1.3537735e+2, -1580411.9, -1714453.4, -4611.262, -0.00035236863, 0.0014384614, -1580253.4, 33048.66 
1.2958026e+3, 1.4536655e+2, -1494523.8, -1632843.0, -4509.127, -0.0006296158, 0.0022910961, -1494377.0, 21031.047 
1.2957856e+3, 1.5535524e+2, -1401082.4, -1537161.8, -4403.236, 0.0005439606, 0.0008397645, -1400940.0, 16578.674 
1.2957686e+3, 1.6534345e+2, -1315621.8, -1456646.9, -4826.0283, 0.000518554, 0.0007847305, -1315456.8, 4177.624 
1.2957516e+3, 1.7533112e+2, -1223611.6, -1361627.4, -4801.9907, -0.0005111141, -0.000028212577, -1223444.8, -1689.7068 
1.2957346e+3, 1.8531828e+2, -1138410.3, -1281484.8, -4612.8477, -0.0005636861, 0.0008535843, -1138261.8, -14380.8 
1.2957175e+3, 1.9530493e+2, -1045173.1, -1185858.6, -4761.2124, 0.0002842805, 0.0012378809, -1045012.2, -19000.387 
1.2957005e+3, 2.0529108e+2, -959177.44, -1104403.5, -4772.408, 0.0006615625, 0.0016617138, -959020.75, -30873.248 
1.2956835e+3, 2.1527673e+2, -866884.75, -1009245.25, -4626.157, 0.0007132381, 0.00020112454, -866734.56, -36446.477 
1.2956667e+3, 2.2526187e+2, -781747.44, -928948.8, -4254.266, 0.00001763421, 0.00072380167, -781624.56, -49190.88 
1.2956497e+3, 2.3524651e+2, -689105.6, -833547.7, -4217.531, -0.0013792329, 0.0007535708, -688982.56, -54398.24 
1.2956329e+3, 2.452306e+2, -603524.8, -753128.1, -3725.1162, -0.0008372154, 0.0015931182, -603432.1, -66691.99 
1.295616e+3, 2.552142e+2, -510212.7, -657280.6, -3848.3147, 0.0013792788, 0.0015035173, -510112.06, -71211.086 
1.2955993e+3, 2.6519728e+2, -424892.56, -576702.1, -3515.506, 0.0009775478, 0.0016489105, -424811.22, -83744.336 
1.2955827e+3, 2.7517983e+2, -332928.88, -481380.3, -3454.9153, -0.0016616661, -0.0001899549, -332848.5, -89610.82 
1.2955661e+3, 2.851619e+2, -247161.97, -400385.2, -2399.0662, -0.0013821775, 0.00017917118, -247124.4, -101711.164 
1.2955497e+3, 2.9514354e+2, -153445.42, -304158.38, -2316.6445, 0.0013428725, 0.00036315934, -153409.83, -105816.445 
1.2955333e+3, 3.0512795e+2, -70684.48, -176732.97, -1668.3558, 0.0011929675, 0.002998637, -70658.234, -70658.234 
1.2955171e+3, 3.1511518e+2, -77153.25, -179449.31, -1752.0173, -0.0008353172, 0.006178768, -77123.25, -77123.25 
1.2955008e+3, 3.2510722e+2, -13980.088, -39240.47, -1289.0732, -0.0028162643, -0.004130197, -13914.476, -13914.476 
1.305997e+3, 3.547456e+1, -2468316.3, -2592145.8, 771.7215, -0.0028036246, 0.0012723826, -2468311.3, 124038.17 
1.3059805e+3, 4.5468676e+1, -2382966.8, -2513568.3, -500.4522, 0.0007771537, 0.0016623756, -2382964.8, 111442.305 
1.3059638e+3, 5.5462223e+1, -2288604.8, -2417620.5, -606.2565, 0.0013594046, 0.00029744662, -2288602.0, 107868.4 
1.305947e+3, 6.545532e+1, -2202997.3, -2335928.3, -1188.9728, 0.0016024875, 0.00065376464, -2202986.5, 95551.484 
1.3059302e+3, 7.544795e+1, -2112773.0, -2241912.5, -1033.4672, 0.0013864903, 0.0007821168, -2112764.8, 87845.48 
1.3059132e+3, 8.54401e+1, -2027555.5, -2160845.5, -1782.9315, 0.00044576832, 0.0017177822, -2027531.6, 75155.484 
1.305896e+3, 9.543178e+1, -1933901.5, -2065087.6, -1792.8524, -0.001083312, 0.001574635, -1933877.0, 70891.734 
1.3058789e+3, 1.0542296e+2, -1848516.6, -1983946.9, -2238.1724, -0.00088162743, 0.0015449144, -1848479.8, 58375.47 
1.3058618e+3, 1.1541365e+2, -1757440.6, -1889444.8, -2469.836, 0.0008261263, -0.000121518075, -1757394.4, 51551.992 
1.3058446e+3, 1.2540384e+2, -1672131.6, -1809203.8, -3033.0413, 0.0009798128, 0.00046315297, -1672064.5, 38978.03 
1.3058272e+3, 1.3539352e+2, -1578232.1, -1713265.9, -2744.936, -0.00019080444, 0.0012408835, -1578176.4, 34967.31 
1.3058098e+3, 1.453827e+2, -1492683.9, -1632062.9, -2721.903, -0.00027788887, 0.001983711, -1492630.8, 22618.877 
1.3057925e+3, 1.553714e+2, -1401526.5, -1537483.9, -2892.7188, 0.0006300946, 0.00068290014, -1401465.0, 15895.459 
1.3057752e+3, 1.6535957e+2, -1316241.3, -1456975.1, -3308.0923, 0.000506283, 0.0007456747, -1316163.5, 3312.7593 
1.3057578e+3, 1.7534725e+2, -1222581.6, -1361152.4, -3351.5186, -0.00046628926, 0.000077897676, -1222500.6, -903.6084 
1.3057403e+3, 1.8533443e+2, -1137245.3, -1280818.1, -3117.759, -0.00052315724, 0.0009677198, -1137177.5, -13454.78 
1.305723e+3, 1.9532107e+2, -1045391.75, -1185898.0, -2941.0708, 0.00027167168, 0.0013002622, -1045330.25, -19476.615 
1.3057056e+3, 2.0530722e+2, -959805.06, -1104721.9, -2894.6255, 0.0005554897, 0.0016721131, -959747.25, -31757.947 
1.3056882e+3, 2.1529287e+2, -866814.3, -1009218.9, -3034.8188, 0.0004608219, 0.00013111925, -866749.7, -36619.766 
1.3056709e+3, 2.2527802e+2, -781287.94, -928736.94, -2846.1387, -0.0000032151288, 0.0005829512, -781233.0, -48957.477 
1.3056536e+3, 2.3526265e+2, -688697.56, -833340.1, -2845.365, -0.00080965983, 0.0006052647, -688641.6, -54215.47 
1.3056365e+3, 2.4524675e+2, -603643.5, -753193.2, -2223.7532, -0.0004886655, 0.0015067064, -603610.44, -67028.5 
1.3056193e+3, 2.5523034e+2, -511280.13, -657780.06, -2131.377, 0.00078110676, 0.0015314054, -511249.13, -72506.336 
1.3056022e+3, 2.652134e+2, -425691.53, -576921.75, -1779.1603, 0.0004989914, 0.0019219011, -425670.6, -84762.03 
1.305585e+3, 2.7519602e+2, -332614.38, -481055.75, -1725.2546, -0.0010714716, 0.0005188749, -332594.3, -89515.15 
1.305568e+3, 2.851781e+2, -247280.19, -400459.56, -697.4333, -0.00093151873, 0.00012123826, -247277.0, -102022.24 
1.3055514e+3, 2.951597e+2, -154889.1, -304910.03, -883.16144, 0.00046139146, -0.0015828144, -154883.9, -107448.72 
1.3055347e+3, 3.0514413e+2, -71743.3, -176545.25, -263.03687, 0.0006088487, 0.0028383778, -71742.63, -71742.63 
1.305518e+3, 3.151315e+2, -77281.84, -178811.52, 251.16573, 0.00063197396, 0.011213693, -77281.23, -77281.23 
1.3055013e+3, 3.2512337e+2, -14465.994, -41035.348, 315.25092, -0.0026284994, -0.007024718, -14462.255, -14462.255 
1.3160084e+3, 3.549125e+1, -2469241.5, -2594573.0, -449.71896, -0.0034471664, 0.005707705, -2469239.8, 122946.055 
1.3159916e+3, 4.54851e+1, -2383115.3, -2513950.5, -1262.4963, 0.0035944453, -0.010399461, -2383103.3, 111142.836 
1.3159746e+3, 5.547876e+1, -2289078.5, -2418118.3, -1360.7402, 0.0020737206, 0.002215941, -2289064.3, 107244.13 
1.3159575e+3, 6.5471894e+1, -2202983.0, -2335460.5, -2951.3281, 0.00015697343, 0.005648526, -2202917.3, 95458.375 
1.31594e+3, 7.5464517e+1, -2112458.3, -2241307.5, -2801.0088, -0.0022836681, -0.00036737684, -2112397.3, 88050.54 
1.3159226e+3, 8.545666e+1, -2027528.4, -2160909.5, -2748.5225, -0.0012436974, -0.0013647868, -2027471.8, 75053.06 
1.3159053e+3, 9.544834e+1, -1934123.0, -2065289.1, -2786.8894, 0.0027821455, 0.00015472126, -1934063.9, 70542.49 
1.3158879e+3, 1.0543951e+2, -1849089.5, -1984919.1, -3845.0156, 0.0024987832, 0.0019411177, -1848980.8, 57712.28 
1.3158701e+3, 1.1543016e+2, -1757774.5, -1890233.8, -4008.105, -0.0013833527, 0.002157714, -1757653.4, 51131.285 
1.3158526e+3, 1.2542035e+2, -1671616.8, -1808148.1, -3904.2131, -0.0018159648, 0.0020828412, -1671505.3, 39375.527 
1.3158348e+3, 1.3541007e+2, -1577986.0, -1712402.8, -3701.3464, 0.00064238644, 0.000026024993, -1577884.1, 35097.277 
1.3158171e+3, 1.4539926e+2, -1493214.5, -1632831.9, -4365.0776, 0.001078788, 0.00026687342, -1493078.1, 22009.203 
1.3157995e+3, 1.5538792e+2, -1401826.3, -1538106.9, -4481.612, -0.00017409225, 0.00046431072, -1401679.0, 15519.42 
1.3157816e+3, 1.6537608e+2, -1316310.3, -1457176.3, -4283.249, -0.00033762227, 0.0014035113, -1316180.1, 3134.373 
1.3157639e+3, 1.7536375e+2, -1222807.8, -1361379.6, -4342.0767, 0.0005245722, 0.000980716, -1222671.9, -1236.49 
1.3157462e+3, 1.8535094e+2, -1137037.5, -1280204.6, -4577.068, 0.00053820095, 0.0012458613, -1136891.4, -13330.35 
1.3157284e+3, 1.9533762e+2, -1045112.2, -1185264.4, -4416.174, -0.00014857964, 0.00029533892, -1044973.2, -19281.732 
1.3157105e+3, 2.0532377e+2, -960086.6, -1105294.5, -4080.539, -0.0004925519, 0.0008164755, -959972.06, -32144.959 
1.3156928e+3, 2.153094e+2, -867141.4, -1009804.4, -4204.9053, -0.0005251682, 0.0006116206, -867017.56, -37049.58 
1.3156752e+3, 2.2529453e+2, -781381.4, -928808.9, -4132.9917, -0.000013130169, 0.0012898708, -781265.6, -49151.82 
1.3156576e+3, 2.3527914e+2, -688757.8, -833387.8, -4134.8105, 0.0010172373, 0.00062846625, -688639.7, -54375.188 
1.31564e+3, 2.4526326e+2, -603486.5, -752780.2, -3603.0115, 0.0005699683, 0.00074006704, -603399.6, -66979.41 
1.3156225e+3, 2.5524685e+2, -511119.9, -657379.7, -3512.292, -0.0012100516, -0.00031075813, -511035.6, -72454.734 
1.315605e+3, 2.6522997e+2, -425593.84, -576689.75, -3018.754, -0.001076505, 0.0012135623, -425533.56, -84787.22 
1.3155875e+3, 2.7521262e+2, -332518.97, -480838.34, -2977.417, 0.0008766289, 0.003144639, -332459.22, -89542.78 
1.3155702e+3, 2.8519467e+2, -247586.06, -401103.94, -2137.052, 0.00063521735, 0.0022513003, -247556.33, -102464.086 
1.315553e+3, 2.9517618e+2, -155210.72, -305490.56, -2297.3508, -0.0019960408, -0.0035682365, -155175.6, -107902.13 
1.3155359e+3, 3.0516067e+2, -70804.3, -174483.7, -1622.155, -0.0016486502, -0.0005411713, -70778.93, -70778.93 
1.3155188e+3, 3.151482e+2, -76328.98, -176845.64, -1152.9625, 0.0024972912, 0.008820273, -76315.76, -76315.76 
1.3155018e+3, 3.2514006e+2, -16919.32, -46158.074, -851.4304, -0.00052701484, -0.0020769136, -16894.547, -16894.547 
1.32602e+3, 3.5508355e+1, -2465299.0, -2595805.0, 549.55615, -0.0011543881, 0.0068823765, -2465296.8, 126721.57 
1.3260026e+3, 4.5502073e+1, -2380257.8, -2511962.3, 205.43987, 0.0036731455, -0.012142246, -2380257.5, 113822.31 
1.3259853e+3, 5.54958e+1, -2289530.0, -2417804.0, 534.1954, 0.0005205706, 0.0019517087, -2289527.8, 106613.48 
1.3259678e+3, 6.5488935e+1, -2203839.0, -2336115.3, -1080.4507, -0.00095007615, 0.0060799383, -2203830.3, 94378.32 
1.3259499e+3, 7.5481534e+1, -2110371.0, -2240536.3, -1306.2484, -0.001267842, 0.00010827205, -2110357.8, 89923.24 
1.3259323e+3, 8.547367e+1, -2025215.1, -2159828.3, -1413.7771, -0.0002771354, -0.0010467356, -2025200.3, 77157.914 
1.3259144e+3, 9.546534e+1, -1934016.4, -2065292.0, -1455.3362, 0.0019445559, 0.00015909356, -1934000.3, 70439.48 
1.3258967e+3, 1.054565e+2, -1848815.6, -1984663.6, -2252.5085, 0.001662705, 0.001727871, -1848778.3, 57748.066 
1.3258785e+3, 1.1544716e+2, -1755523.8, -1889044.4, -2005.5253, -0.00074770895, 0.0018447024, -1755493.6, 53124.336 
1.3258605e+3, 1.2543735e+2, -1670121.6, -1807701.4, -2044.9752, -0.0010679708, 0.0019197365, -1670091.3, 40622.9 
1.3258426e+3, 1.3542704e+2, -1579004.5, -1713169.6, -2426.4924, 0.00042712022, 0.00020710159, -1578960.6, 33854.426 
1.3258244e+3, 1.4541623e+2, -1493838.4, -1632977.4, -3072.9883, 0.0006552756, 0.0004361439, -1493770.5, 21150.6 
1.3258062e+3, 1.554049e+2, -1400047.5, -1537099.1, -2846.531, -0.00016060667, 0.00040373704, -1399988.4, 17043.727 
1.3257882e+3, 1.6539307e+2, -1314618.1, -1456353.0, -2520.504, -0.00017949718, 0.0013422079, -1314573.4, 4574.687 
1.3257702e+3, 1.7538074e+2, -1223137.5, -1361534.9, -2502.4514, 0.0005907966, 0.0010659898, -1223092.4, -1823.3779 
1.325752e+3, 1.8536791e+2, -1137676.3, -1280536.3, -2818.3643, 0.0005618397, 0.0012879976, -1137620.6, -14226.011 
1.3257338e+3, 1.9535458e+2, -1044441.5, -1184982.1, -2995.691, -0.00008663427, 0.00018410159, -1044377.6, -18852.46 
1.3257156e+3, 2.0534074e+2, -959242.8, -1104817.6, -2710.3782, -0.0004499263, 0.0007346865, -959192.4, -31531.518 
1.3256976e+3, 2.1532637e+2, -867166.2, -1009750.06, -2587.0908, -0.0005801387, 0.00076411956, -867119.25, -37317.54 
1.3256796e+3, 2.2531149e+2, -781695.75, -928959.3, -2342.5688, -0.000024385325, 0.001400211, -781658.5, -49710.953 
1.3256615e+3, 2.3529612e+2, -688849.9, -833441.4, -2344.0151, 0.0011501514, 0.0005312657, -688811.9, -54713.62 
1.3256435e+3, 2.452802e+2, -603451.94, -752689.25, -2001.2697, 0.00060334284, 0.00078934507, -603425.1, -67171.164 
1.3256256e+3, 2.5526384e+2, -511164.38, -657324.75, -2047.389, -0.0014415224, 0.00011837499, -511135.72, -72721.2 
1.3256076e+3, 2.6524696e+2, -425816.78, -576857.94, -1534.539, -0.0011840872, 0.0011550384, -425801.2, -85221.18 
1.32559e+3, 2.7522957e+2, -332873.84, -481058.34, -1631.2844, 0.0012187329, 0.0018986549, -332855.88, -90105.63 
1.3255723e+3, 2.8521165e+2, -248187.8, -401198.06, -910.20215, 0.0008877861, 0.0021371995, -248182.38, -103256.48 
1.3255545e+3, 2.951932e+2, -156267.64, -305842.78, -723.30554, -0.0023109538, -0.00041051168, -156264.14, -109157.46 
1.3255371e+3, 3.0517772e+2, -71740.8, -174712.47, -51.167973, -0.0020120835, 0.00016427592, -71740.77, -71740.77 
1.3255197e+3, 3.1516513e+2, -76477.51, -176715.94, -389.42487, 0.0024821325, 0.001641124, -76476.0, -76476.0 
1.3255022e+3, 3.251571e+2, -17188.91, -46656.203, 599.4324, 0.00031210989, 0.0022772888, -17176.72, -17176.72 
1.3360317e+3, 3.5525817e+1, -2468146.0, -2601108.3, -1663.7891, 0.0029657667, 0.005928252, -2468125.3, 123721.8 
1.336014e+3, 4.5519483e+1, -2379475.5, -2510468.0, -1400.2693, 0.0017868405, -0.0066988887, -2379460.5, 114448.67 
1.335996e+3, 5.551323e+1, -2288800.8, -2416445.8, -1120.0852, -0.0026499454, 0.00013578146, -2288790.8, 107179.555 
1.335978e+3, 6.550638e+1, -2204312.3, -2337127.3, -2086.1882, -0.0018747043, 0.0033470066, -2204279.5, 93758.055 
1.33596e+3, 7.5498956e+1, -2110976.5, -2241566.0, -2301.9338, 0.002946469, 0.0017275128, -2110936.0, 89174.41 
1.3359419e+3, 8.549106e+1, -2025409.3, -2159993.0, -2948.5874, 0.0024647084, 0.0016654719, -2025344.6, 76843.12 
1.3359235e+3, 9.5482713e+1, -1934071.4, -2065356.6, -2969.4685, -0.00228905, 0.0011585774, -1934004.3, 70265.33 
1.3359053e+3, 1.0547388e+2, -1848425.6, -1983829.4, -3301.7402, -0.0021924188, 0.001080882, -1848345.3, 58010.84 
1.335887e+3, 1.1546459e+2, -1755331.6, -1888362.5, -3128.511, 0.0018716718, -0.00033620172, -1755258.1, 53189.066 
1.3358687e+3, 1.2545475e+2, -1670958.3, -1809221.0, -3679.76, 0.0021618868, 0.00050347956, -1670860.5, 39683.117 
1.33585e+3, 1.3544439e+2, -1579601.6, -1714486.5, -3967.23, -0.00064887403, 0.0014039371, -1579485.1, 33160.164 
1.3358317e+3, 1.4543355e+2, -1493423.8, -1632169.5, -3968.7512, -0.0011285882, 0.001982961, -1493310.3, 21441.086 
1.3358133e+3, 1.5542226e+2, -1399863.8, -1536416.1, -3811.1946, 0.0004138856, 0.00046762847, -1399757.5, 17104.484 
1.3357948e+3, 1.6541044e+2, -1314748.0, -1456335.9, -4083.5076, 0.0006479067, 0.0007859392, -1314630.4, 4347.3257 
1.3357763e+3, 1.7539811e+2, -1223135.0, -1361454.9, -4052.4993, -0.00012792378, 0.0005407646, -1223016.4, -1917.8469 
1.3357577e+3, 1.8538529e+2, -1138020.9, -1281248.4, -3934.6135, -0.00025962078, 0.001181684, -1137912.9, -14688.517 
1.3357392e+3, 1.9537191e+2, -1044852.1, -1185671.9, -4100.385, 0.0002796244, 0.00077175227, -1044732.8, -19377.469 
1.3357207e+3, 2.0535806e+2, -959092.44, -1104408.6, -4099.956, 0.0003535993, 0.0012739977, -958976.9, -31485.783 
1.3357022e+3, 2.1534371e+2, -866978.06, -1009330.06, -3986.0037, -0.000009842934, 0.00069236284, -866866.56, -37234.9 
1.3356839e+3, 2.2532886e+2, -781701.8, -928989.3, -3585.669, -0.00012580007, 0.0011128786, -781614.56, -49837.21 
1.3356654e+3, 2.3531348e+2, -688912.94, -833486.3, -3592.2063, -0.000120838566, 0.00039633483, -688823.7, -54895.637 
1.3356471e+3, 2.452976e+2, -603582.2, -752874.7, -3405.3936, -0.00022330321, 0.0015420658, -603504.56, -67420.81 
1.3356288e+3, 2.552812e+2, -511235.1, -657474.1, -3447.1243, -0.00037365058, 0.0023420148, -511153.9, -72909.66 
1.3356104e+3, 2.6526427e+2, -425956.97, -577140.75, -2794.3528, -0.00026620002, 0.0016207767, -425905.34, -85495.3 
1.3355924e+3, 2.7524686e+2, -333038.28, -481338.22, -2887.1316, 0.00019732522, -0.0023961891, -332982.1, -90401.15 
1.3355742e+3, 2.8522897e+2, -247799.3, -400396.06, -2458.3093, 0.000037792124, 0.00031815778, -247759.7, -103003.555 
1.3355562e+3, 2.952107e+2, -155835.98, -305037.28, -2282.1074, -0.0009976232, 0.0069428827, -155801.08, -108865.59 
1.3355382e+3, 3.051951e+2, -72269.234, -175872.38, -1221.6101, -0.0009815487, 0.0041929972, -72254.83, -72254.83 
1.3355204e+3, 3.151823e+2, -77046.24, -177833.63, -1531.4984, 0.0007811824, -0.0094647575, -77022.98, -77022.98 
1.3355029e+3, 3.251745e+2, -15729.296, -43403.293, -664.09454, -0.00008587606, 0.0060947463, -15713.369, -15713.369 
1.3460436e+3, 3.5543704e+1, -2468167.5, -2601264.8, -22.726374, 0.003554964, 0.0005275372, -2468167.5, 123504.24 
1.3460252e+3, 4.5537502e+1, -2376998.5, -2509522.5, 408.45483, 0.0003051797, 0.0030972417, -2376997.0, 116735.586 
1.3460068e+3, 5.5531126e+1, -2286273.8, -2415480.0, -20.632372, -0.001943158, -0.00011252241, -2286273.8, 109521.25 
1.3459885e+3, 6.552422e+1, -2202400.3, -2336217.0, -677.7902, -0.0009817663, 0.00018363875, -2202396.8, 95465.836 
1.34597e+3, 7.551682e+1, -2110515.3, -2241364.8, -541.64484, 0.0024267952, 0.0015087577, -2110513.0, 89422.375 
1.3459516e+3, 8.5508937e+1, -2025053.8, -2159847.5, -1181.2123, 0.0018873606, 0.002390472, -2025043.4, 76969.18 
1.345933e+3, 9.550057e+1, -1932675.5, -2064715.3, -1196.9392, -0.0018274658, 0.0012007238, -1932664.6, 71429.92 
1.3459142e+3, 1.05491735e+2, -1847451.8, -1983520.0, -1663.6162, -0.0017675647, 0.0009273682, -1847431.4, 58749.76 
1.3458955e+3, 1.1548241e+2, -1755733.3, -1888728.9, -1956.5675, 0.0014384276, -0.00023197093, -1755704.5, 52567.96 
1.3458768e+3, 1.2547258e+2, -1670630.1, -1808748.6, -2316.351, 0.0017495676, 0.0006341751, -1670591.3, 39777.543 
1.3458578e+3, 1.3546224e+2, -1577259.9, -1713083.5, -1890.3344, -0.00030792181, 0.0013414534, -1577233.6, 35236.688 
1.345839e+3, 1.454514e+2, -1491765.9, -1631573.0, -1832.5858, -0.0006868544, 0.0019329534, -1491741.9, 22834.545 
1.3458201e+3, 1.5544009e+2, -1400558.9, -1536947.3, -2129.5923, 0.00044830717, 0.0006003183, -1400525.6, 16161.59 
1.3458012e+3, 1.6542827e+2, -1315471.3, -1456637.6, -2570.1292, 0.0005225092, 0.0008835783, -1315424.5, 3378.5825 
1.3457823e+3, 1.7541593e+2, -1222180.6, -1360961.0, -2572.3901, -0.00020356705, 0.00050921587, -1222133.0, -1209.1201 
1.3457635e+3, 1.854031e+2, -1136898.4, -1280683.8, -2296.9404, -0.00029161794, 0.0011014268, -1136861.8, -13811.984 
1.3457446e+3, 1.9538973e+2, -1044781.06, -1185644.6, -2168.6633, 0.0002925911, 0.00068633334, -1044747.7, -19566.97 
1.3457258e+3, 2.0537588e+2, -959234.8, -1104463.8, -2172.1404, 0.00046695003, 0.0012002365, -959202.4, -31885.873 
1.3457069e+3, 2.1536152e+2, -866569.56, -1009138.6, -2260.8848, 0.0002690032, 0.0006694185, -866533.7, -37076.625 
1.3456881e+3, 2.2534667e+2, -781421.0, -928823.6, -1965.0211, -0.00008519429, 0.0012188259, -781394.8, -49792.055 
1.3456693e+3, 2.3533128e+2, -689231.6, -833613.44, -1988.2936, -0.00068277295, 0.0006841707, -689204.25, -55450.72 
1.3456507e+3, 2.453154e+2, -603863.7, -753042.56, -1748.3422, -0.00050610804, 0.0015479837, -603843.2, -67933.98 
1.345632e+3, 2.55299e+2, -510947.63, -657349.0, -1727.7762, 0.00035951711, 0.0017657327, -510927.22, -72857.48 
1.3456133e+3, 2.652821e+2, -425881.88, -577051.6, -1045.4762, 0.00022971779, 0.0013933693, -425874.66, -85639.12 
1.3455947e+3, 2.7526468e+2, -333745.53, -481621.56, -1020.61755, -0.0006655328, -0.001513357, -333738.5, -91332.16 
1.3455762e+3, 2.852468e+2, -248216.77, -400531.84, -714.65967, -0.0005372526, 0.00083445176, -248213.42, -103631.88 
1.3455577e+3, 2.9522848e+2, -155269.9, -304632.13, -868.6889, 0.0002730537, 0.0057976367, -155264.84, -108503.92 
1.3455394e+3, 3.052129e+2, -72490.89, -176619.66, 98.69009, -0.00010578167, 0.0032853251, -72490.8, -72490.8 
1.3455212e+3, 3.1520006e+2, -78898.49, -179269.53, -70.899864, -0.0008522778, -0.008465196, -78898.445, -78898.445 
1.3455032e+3, 3.2519236e+2, -17110.592, -41517.64, 752.75415, -0.00045176724, 0.006374021, -17087.398, -17087.398 
1.3560553e+3, 3.5561958e+1, -2466856.3, -2598197.0, -712.96814, 0.001662408, -0.007525905, -2466852.5, 124640.48 
1.3560365e+3, 4.5556003e+1, -2378099.3, -2511338.0, -1249.1982, -0.0009664305, 0.01572551, -2378087.5, 115463.92 
1.3560179e+3, 5.55494e+1, -2287173.5, -2417106.3, -1630.8676, 0.0013788656, 0.00071046274, -2287153.0, 108463.055 
1.355999e+3, 6.554243e+1, -2202183.5, -2335670.0, -2027.2828, 0.0010629877, -0.0032136852, -2202152.8, 95531.625 
1.35598e+3, 7.553508e+1, -2110282.3, -2240836.8, -1923.5747, -0.0014586679, 0.00001812645, -2110253.8, 89502.516 
1.3559611e+3, 8.5527223e+1, -2025125.5, -2159956.8, -2469.066, -0.0010096452, 0.00174341, -2025080.3, 76753.1 
1.3559422e+3, 9.551885e+1, -1932860.9, -2064899.6, -2496.6865, 0.0018642246, 0.0005633704, -1932813.6, 71101.74 
1.3559231e+3, 1.05509974e+2, -1848076.4, -1984702.5, -3099.8848, 0.001568894, 0.001153756, -1848006.1, 57996.273 
1.3559039e+3, 1.1550059e+2, -1756177.5, -1889714.8, -3323.2952, -0.0012545737, 0.0014996423, -1756094.8, 51999.49 
1.3558848e+3, 1.2549078e+2, -1669886.0, -1807157.1, -3321.753, -0.0013023103, 0.0018642022, -1669805.6, 40384.824 
1.3558656e+3, 1.3548051e+2, -1576786.9, -1711693.9, -3002.0186, 0.0009718481, 0.00038094862, -1576720.1, 35570.996 
1.3558464e+3, 1.454697e+2, -1492513.8, -1632793.1, -3473.1536, 0.00127232, 0.0007625919, -1492427.9, 21969.313 
1.3558272e+3, 1.5545832e+2, -1401069.1, -1538006.0, -3703.3206, -0.000012274077, 0.00078342087, -1400969.0, 15539.588 
1.355808e+3, 1.6544648e+2, -1315442.9, -1456658.1, -3631.8738, -0.0003872716, 0.0014834004, -1315349.5, 3275.1907 
1.3557886e+3, 1.7543414e+2, -1222280.8, -1361006.3, -3653.7598, 0.00012058273, 0.00085803214, -1222184.5, -1438.9426 
1.3557693e+3, 1.8542132e+2, -1136754.5, -1280230.6, -3692.6392, 0.00018358794, 0.0010850196, -1136659.5, -13788.212 
1.3557501e+3, 1.9540797e+2, -1044620.75, -1185183.4, -3576.1758, -0.000073241325, 0.00013429394, -1044529.8, -19527.836 
1.3557309e+3, 2.0539412e+2, -959464.6, -1104863.1, -3443.5398, -0.000034673958, 0.00071582414, -959383.1, -32245.402 
1.3557117e+3, 2.1537976e+2, -866819.4, -1009532.2, -3529.113, 0.00026231984, 0.0007074868, -866732.2, -37453.668 
1.3556924e+3, 2.2536488e+2, -781492.56, -928916.75, -3371.1113, -0.0000139525255, 0.001671218, -781415.5, -49991.188 
1.3556732e+3, 2.353495e+2, -689272.9, -833674.3, -3387.8838, -0.0008054548, 0.0013326202, -689193.44, -55618.38 
1.3556542e+3, 2.453336e+2, -603813.0, -752924.06, -2998.525, -0.00044761956, 0.0010245205, -603752.75, -68021.9 
1.3556351e+3, 2.553172e+2, -510921.75, -657232.6, -2991.9744, 0.0007233487, -0.00095929496, -510860.6, -72969.09 
1.3556162e+3, 2.6530033e+2, -425819.75, -576890.44, -2531.8293, 0.00026325203, 0.0007023651, -425777.3, -85720.35 
1.3555971e+3, 2.7528295e+2, -333663.9, -481454.88, -2503.934, -0.0014832867, 0.003543244, -333621.5, -91394.4 
1.3555782e+3, 2.8526506e+2, -248463.5, -400988.22, -1990.4226, -0.000972103, 0.0032169584, -248437.53, -104034.88 
1.3555594e+3, 2.952466e+2, -155503.44, -305122.78, -2142.821, 0.0013955367, -0.0021753625, -155472.75, -108889.445 
1.3555406e+3, 3.05231e+2, -72783.266, -177200.84, -1482.421, 0.0005373639, -0.0014858003, -72762.23, -72762.23 
1.355522e+3, 3.152183e+2, -79109.9, -179739.55, -1614.0255, -0.0025293147, 0.0025107535, -79084.016, -79084.016 
1.3555034e+3, 3.2521054e+2, -15545.96, -38257.418, -855.7167, -0.0009776896, 0.0036250928, -15513.764, -15513.764 
1.3660671e+3, 3.5580733e+1, -2464635.8, -2594421.3, 842.13025, 0.0012839953, -0.005966804, -2464630.3, 126678.67 
1.3660479e+3, 4.557482e+1, -2378881.8, -2512356.5, 207.81075, -0.0023861814, 0.013122429, -2378881.3, 114485.67 
1.3660286e+3, 5.556818e+1, -2286875.5, -2417575.8, 112.69877, 0.0017769338, 0.0009209846, -2286875.3, 108556.68 
1.3660094e+3, 6.556119e+1, -2200885.5, -2335120.0, -163.37329, 0.0018610653, -0.0021582576, -2200885.3, 96615.266 
1.36599e+3, 7.555382e+1, -2108643.5, -2240151.8, -354.65103, -0.0014761208, 0.0003673449, -2108642.5, 90930.26 
1.3659708e+3, 8.5545945e+1, -2023810.8, -2159418.5, -1109.192, -0.0012082623, 0.0018109317, -2023801.6, 77848.195 
1.3659514e+3, 9.553757e+1, -1932403.3, -2064782.5, -1150.8578, 0.0020653165, 0.00075836485, -1932393.3, 71338.77 
1.3659321e+3, 1.055287e+2, -1847272.3, -1984128.0, -1320.4078, 0.0018338229, 0.0013253434, -1847259.5, 58559.453 
1.3659124e+3, 1.1551932e+2, -1754221.6, -1888623.3, -1043.0703, -0.0012394022, 0.0014690609, -1754213.6, 53697.16 
1.3658929e+3, 1.255095e+2, -1668832.6, -1806940.9, -1369.8596, -0.0013597871, 0.0017813388, -1668819.0, 41188.047 
1.3658732e+3, 1.3549921e+2, -1577888.0, -1712495.5, -1834.5955, 0.0010318258, 0.00042026577, -1577863.0, 34244.86 
1.3658537e+3, 1.4548838e+2, -1493105.9, -1632916.3, -2192.069, 0.0012945242, 0.00081653433, -1493071.5, 21142.432 
1.3658342e+3, 1.5547702e+2, -1399386.0, -1537040.9, -1883.4521, -0.00012424478, 0.00075573294, -1399360.3, 16965.137 
1.3658145e+3, 1.6546518e+2, -1313768.5, -1455873.8, -1646.1959, -0.00037724306, 0.0014018033, -1313749.4, 4692.0093 
1.3657948e+3, 1.7545283e+2, -1222112.0, -1360981.3, -1699.1912, 0.00048021378, 0.00077363173, -1222091.3, -1528.8553 
1.3657752e+3, 1.8544e+2, -1136966.4, -1280303.8, -1842.004, 0.0004391418, 0.0011887512, -1136942.6, -14254.548 
1.3657555e+3, 1.9542667e+2, -1044278.6, -1185025.1, -1942.1187, -0.00031009805, 0.00061516237, -1044251.8, -19433.049 
1.365736e+3, 2.054128e+2, -959119.8, -1104760.8, -1828.4906, -0.0003639199, 0.0010885444, -959096.9, -32142.31 
1.3657163e+3, 2.1539843e+2, -866791.75, -1009610.1, -1796.4279, 0.00013660618, 0.0005658428, -866769.2, -37673.664 
1.3656968e+3, 2.2538356e+2, -781391.75, -928740.94, -1585.1687, 0.000111240326, 0.001359166, -781374.7, -50133.39 
1.3656771e+3, 2.3536818e+2, -688826.3, -833380.25, -1538.0088, -0.0003487693, 0.0011066318, -688809.94, -55417.97 
1.3656577e+3, 2.4535228e+2, -603614.44, -752893.25, -1143.3616, -0.00016080965, 0.0010701614, -603605.7, -68057.9 
1.3656382e+3, 2.5533587e+2, -511247.4, -657443.0, -1261.7725, 0.00042863694, -0.0004064301, -511236.53, -73528.04 
1.3656187e+3, 2.65319e+2, -426164.03, -576965.8, -988.87885, -0.000083282255, 0.0011558209, -426157.53, -86283.555 
1.3655993e+3, 2.7530164e+2, -333716.9, -481355.75, -1028.8938, -0.0014325043, 0.0033948359, -333709.75, -91665.63 
1.3655801e+3, 2.852837e+2, -248589.66, -401128.3, -350.485, -0.0008132399, 0.0025371895, -248588.84, -104369.13 
1.3655609e+3, 2.9526526e+2, -155927.89, -305359.78, -366.04285, 0.0014327363, -0.0033904135, -155927.0, -109526.484 
1.3655418e+3, 3.052497e+2, -72951.7, -176952.89, 341.9969, 0.00055414444, -0.0006361577, -72950.58, -72950.58 
1.3655227e+3, 3.1523708e+2, -79067.84, -179400.1, 597.4864, -0.0025733584, 0.00796257, -79064.29, -79064.29 
1.3655038e+3, 3.2522917e+2, -16440.996, -39561.363, 337.70645, -0.0005864588, -0.00076164916, -16436.064, -16436.064 
1.3760787e+3, 3.559994e+1, -2463063.3, -2590809.3, -595.36176, 0.0018002649, 0.0017325574, -2463060.5, 128060.336 
1.3760592e+3, 4.5593926e+1, -2379102.5, -2512794.3, -1222.9734, -0.003960986, 0.00039456348, -2379091.5, 114088.24 
1.3760395e+3, 5.558739e+1, -2287023.5, -2417971.0, -1291.6555, 0.00011917221, 0.00077613647, -2287010.8, 108233.02 
1.37602e+3, 6.558039e+1, -2201240.8, -2335777.8, -1479.315, 0.0017396145, 0.0019261079, -2201224.5, 96087.875 
1.3760003e+3, 7.557296e+1, -2109163.3, -2240864.0, -1655.4232, 0.0011003956, 0.0019642801, -2109142.5, 90242.68 
1.3759805e+3, 8.556505e+1, -2024067.6, -2159683.8, -2596.7932, 0.000377153, 0.002377976, -2024017.9, 77444.74 
1.3759607e+3, 9.5556664e+1, -1932452.3, -2064893.0, -2609.813, -0.0002661024, 0.0015030953, -1932400.9, 71144.0 
1.3759409e+3, 1.0554782e+2, -1846772.5, -1983075.0, -2430.504, -0.00010533361, 0.001447805, -1846729.1, 58902.41 
1.375921e+3, 1.15538515e+2, -1754012.8, -1887809.1, -2240.6292, 0.000628534, 0.00020147461, -1753975.3, 53747.51 
1.3759011e+3, 1.2552866e+2, -1669878.9, -1808785.6, -3047.1519, 0.00063072465, 0.0007996716, -1669812.0, 40007.305 
1.375881e+3, 1.3551827e+2, -1578610.0, -1714051.8, -3400.7234, 0.000109757195, 0.0011769863, -1578524.8, 33396.504 
1.375861e+3, 1.4550743e+2, -1492450.4, -1631696.9, -3099.5642, -0.00015001146, 0.001760078, -1492381.4, 21645.979 
1.375841e+3, 1.5549612e+2, -1398997.4, -1535956.9, -2874.894, -0.000061200146, 0.00054938975, -1398937.0, 17200.986 
1.3758211e+3, 1.6548431e+2, -1314024.8, -1456136.3, -3170.0364, 0.00022788535, 0.0008431226, -1313954.0, 4299.83 
1.375801e+3, 1.7547198e+2, -1222253.9, -1361172.3, -3209.8809, 0.0007691219, 0.00038071172, -1222179.8, -1804.8761 
1.375781e+3, 1.8545912e+2, -1137161.9, -1280729.5, -3099.3203, 0.0004379678, 0.0013993824, -1137095.0, -14594.177 
1.375761e+3, 1.9544578e+2, -1044526.0, -1185428.6, -3195.198, -0.00053245603, 0.0018795492, -1044453.56, -19821.941 
1.3757409e+3, 2.054319e+2, -959117.8, -1104672.3, -3168.3352, -0.00064375886, 0.002141445, -959048.9, -32281.344 
1.375721e+3, 2.154175e+2, -866779.44, -1009492.8, -3130.772, -0.00019955482, 0.00032212428, -866710.8, -37802.305 
1.375701e+3, 2.2540264e+2, -781314.94, -928557.5, -2908.1606, 0.00016358781, 0.0005370785, -781257.5, -50203.285 
1.3756812e+3, 2.3538728e+2, -688777.1, -833197.9, -2873.567, 0.00045553184, 0.00025094397, -688720.0, -55515.188 
1.3756612e+3, 2.4537139e+2, -603799.3, -753261.8, -2557.3066, 0.00021334625, 0.001627081, -603755.6, -68395.1 
1.3756414e+3, 2.55355e+2, -511435.2, -657805.56, -2654.1553, -0.00049182976, 0.002761161, -511387.06, -73865.87 
1.3756216e+3, 2.6533806e+2, -426215.22, -577060.5, -2380.6653, -0.0008255485, 0.0025362328, -426177.66, -86490.664 
1.3756017e+3, 2.7532065e+2, -333723.28, -481436.3, -2412.6897, -0.0007565646, -0.0008343764, -333683.88, -91826.195 
1.3755822e+3, 2.8530276e+2, -248534.45, -400984.6, -1695.487, -0.00029416365, -0.00047189413, -248515.6, -104482.445 
1.3755625e+3, 2.952844e+2, -155901.63, -305218.84, -1711.8429, 0.000440296, 0.0009111614, -155882.0, -109668.79 
1.375543e+3, 3.0526888e+2, -72429.44, -175837.39, -1187.3129, -0.000009130542, 0.0047820024, -72415.805, -72415.805 
1.3755235e+3, 3.152563e+2, -78535.95, -178416.83, -966.4698, -0.0013159034, 0.008932416, -78526.6, -78526.6 
1.375504e+3, 3.2524818e+2, -18682.39, -44363.03, -1396.3201, 0.00018697945, -0.0064568594, -18606.691, -18606.691 
1.3860905e+3, 3.5619605e+1, -2463256.3, -2592102.8, 1370.3334, -0.000055716944, 0.005279162, -2463241.8, 127686.42 
1.3860705e+3, 4.5613453e+1, -2377333.0, -2511776.3, -163.57445, -0.0019679177, -0.005159337, -2377332.8, 115655.56 
1.3860507e+3, 5.5606985e+1, -2284613.8, -2416640.5, -63.051353, 0.00082372566, 0.0012291042, -2284613.8, 110437.98 
1.3860306e+3, 6.5600014e+1, -2199507.3, -2334852.8, -319.87448, 0.0017522809, 0.0037725307, -2199506.5, 97613.625 
1.3860105e+3, 7.559256e+1, -2109136.8, -2240776.0, -202.32416, 0.0007994853, 0.0015515513, -2109136.5, 90056.516 
1.3859904e+3, 8.5584646e+1, -2023959.3, -2159501.8, -647.9568, 0.000046450907, 0.0013958978, -2023956.1, 77314.49 
1.3859701e+3, 9.557627e+1, -1930742.3, -2063958.6, -594.64716, -0.00038270478, 0.001252966, -1930739.6, 72613.055 
1.3859499e+3, 1.0556742e+2, -1845628.3, -1982687.8, -867.97144, 0.000014850053, 0.0015400433, -1845622.8, 59816.652 
1.3859296e+3, 1.15558095e+2, -1754943.1, -1888407.3, -1194.5151, 0.0010322481, 0.00036121352, -1754932.5, 52598.332 
1.3859092e+3, 1.2554824e+2, -1670055.6, -1808595.6, -1527.1364, 0.00092633313, 0.00086989143, -1670038.8, 39588.6 
1.3858888e+3, 1.3553786e+2, -1576146.3, -1712633.9, -1065.296, -0.0000021925384, 0.001113133, -1576138.0, 35591.113 
1.3858683e+3, 1.4552702e+2, -1490461.1, -1630840.9, -833.9249, -0.00026771304, 0.0017538674, -1490456.1, 23379.143 
1.3858481e+3, 1.5551573e+2, -1399550.8, -1536350.9, -1168.4174, 0.00015699971, 0.0007334503, -1399540.8, 16405.229 
1.3858277e+3, 1.655039e+2, -1314856.8, -1456549.0, -1569.3789, 0.00030681066, 0.0011120803, -1314839.4, 3222.5476 
1.3858072e+3, 1.7549154e+2, -1221666.9, -1360880.4, -1537.7498, 0.00033162662, 0.00059642387, -1221649.9, -1466.913 
1.3857868e+3, 1.854787e+2, -1136277.8, -1280279.8, -1346.762, 0.00016548799, 0.0013174174, -1136265.1, -13956.234 
1.3857664e+3, 1.9546533e+2, -1044157.7, -1185251.0, -1284.0662, -0.00006098487, 0.0013584704, -1044146.0, -19706.17 
1.3857462e+3, 2.0545147e+2, -958889.25, -1104460.4, -1163.5033, -0.00012572994, 0.0018175114, -958879.94, -32304.25 
1.3857257e+3, 2.154371e+2, -866359.94, -1009187.2, -1152.7698, -0.00019449153, 0.00072751974, -866350.7, -37634.074 
1.3857053e+3, 2.254222e+2, -781067.7, -928615.0, -1064.3179, -0.000016252909, 0.0010241132, -781060.06, -50197.633 
1.385685e+3, 2.3540683e+2, -688766.2, -833329.6, -1219.9591, 0.000305351, 0.00035139846, -688755.9, -55742.74 
1.3856648e+3, 2.4539095e+2, -603802.44, -753040.3, -914.5808, 0.00003324739, 0.0014800424, -603796.9, -68627.98 
1.3856445e+3, 2.5537455e+2, -511414.34, -657613.6, -809.24066, -0.0006703068, 0.0024010586, -511409.88, -74080.36 
1.3856243e+3, 2.6535764e+2, -426168.88, -577090.56, -411.10986, -0.0006250865, 0.0021924407, -426167.75, -86672.445 
1.3856041e+3, 2.753402e+2, -333472.03, -481348.25, -463.8565, 0.00009741682, -0.00095904025, -333470.56, -91804.56 
1.385584e+3, 2.8532234e+2, -248691.08, -400922.5, 104.155136, 0.000040832787, -0.00006682325, -248691.0, -104849.57 
1.3855639e+3, 2.9530394e+2, -157048.66, -305599.8, 47.862103, -0.00064162357, 0.0022125242, -157048.64, -111027.305 
1.3855441e+3, 3.0528846e+2, -73321.85, -175933.75, 486.2078, -0.0007678439, 0.0042126593, -73319.55, -73319.55 
1.3855241e+3, 3.1527585e+2, -78444.19, -178078.28, 341.9939, -0.0005555021, 0.003947723, -78443.016, -78443.016 
1.3855043e+3, 3.252678e+2, -18072.56, -44739.07, 415.3047, 0.0010137947, -0.0032607822, -18066.094, -18066.094 
1.3961022e+3, 3.5639656e+1, -2465516.5, -2597004.8, 358.8138, -0.0034889835, 0.0062404973, -2465515.5, 125216.016 
1.396082e+3, 4.5633346e+1, -2377216.3, -2511359.5, -1294.3329, 0.0023354085, -0.005886559, -2377203.8, 115589.59 
1.3960618e+3, 5.562693e+1, -2284682.0, -2416319.0, -1225.5867, 0.0030374327, 0.00205749, -2284670.8, 110185.65 
1.3960412e+3, 6.561999e+1, -2199510.8, -2334399.5, -2053.9695, 0.0017518604, 0.004099716, -2199479.5, 97444.8 
1.3960207e+3, 7.561255e+1, -2108897.0, -2240236.8, -1927.5198, -0.0015465786, -0.0002483554, -2108868.8, 90128.34 
1.396e+3, 8.560466e+1, -2023883.4, -2159306.8, -1720.541, -0.0016268269, -0.00062725437, -2023861.5, 77212.95 
1.3959795e+3, 9.559631e+1, -1930941.9, -2063966.0, -1716.6514, 0.0009494296, 0.00034213788, -1930919.8, 72236.6 
1.3959588e+3, 1.0558742e+2, -1846388.5, -1983979.3, -2562.4255, 0.0014483504, 0.0016498528, -1846340.9, 58902.523 
1.395938e+3, 1.1557803e+2, -1755341.6, -1889362.1, -2785.0117, 0.00031068356, 0.0015123361, -1755283.8, 52051.723 
1.3959174e+3, 1.2556821e+2, -1669158.9, -1806803.8, -2387.2083, -0.000039750958, 0.001695556, -1669117.5, 40314.21 
1.3958967e+3, 1.3555793e+2, -1575626.1, -1711130.4, -2053.07, 0.0003625871, 0.00045637498, -1575595.1, 35937.305 
1.3958758e+3, 1.455471e+2, -1491245.9, -1632158.1, -2552.237, 0.0004767436, 0.0010880248, -1491199.8, 22438.762 
1.3958551e+3, 1.5553574e+2, -1400073.1, -1537484.4, -2815.6675, 0.00037927393, 0.0012230484, -1400015.5, 15734.456 
1.3958342e+3, 1.6552389e+2, -1314734.4, -1456366.4, -2651.6, -0.00009927955, 0.0020004476, -1314684.8, 3181.3684 
1.3958135e+3, 1.7551154e+2, -1221670.0, -1360733.1, -2642.1357, -0.00077027694, 0.0012428575, -1221619.9, -1632.7621 
1.3957927e+3, 1.8549868e+2, -1136236.4, -1280104.5, -2739.6145, -0.00041308164, 0.0010488231, -1136184.3, -14071.299 
1.395772e+3, 1.9548534e+2, -1044064.06, -1185019.6, -2684.4175, 0.0008107685, -0.00045564305, -1044012.94, -19769.102 
1.3957511e+3, 2.0547149e+2, -958893.44, -1104494.4, -2476.0063, 0.0008707896, 0.00050752884, -958851.4, -32471.715 
1.3957304e+3, 2.1545713e+2, -866411.4, -1009250.3, -2476.503, -0.000029970239, 0.0016352287, -866368.44, -37848.113 
1.3957097e+3, 2.2544223e+2, -781418.06, -929187.8, -2456.0686, -0.0004781243, 0.0025360985, -781377.25, -50710.97 
1.395689e+3, 2.354268e+2, -689065.9, -833838.6, -2590.1006, -0.0006896351, 0.0012061378, -689019.56, -56202.098 
1.3956682e+3, 2.4541089e+2, -603553.8, -752573.75, -2304.8157, -0.000639403, 0.00082684413, -603518.2, -68544.836 
1.3956475e+3, 2.5539452e+2, -511171.66, -657149.4, -2218.698, -0.00039437792, -0.0006808574, -511137.94, -74004.1 
1.3956271e+3, 2.653776e+2, -426262.38, -577201.75, -1776.3628, 0.00016171258, 0.0005716916, -426241.47, -86942.11 
1.3956064e+3, 2.7536026e+2, -333580.0, -481469.03, -1825.4559, 0.0010035164, 0.0022512274, -333557.47, -92087.75 
1.395586e+3, 2.8534234e+2, -248710.56, -400916.3, -1531.8862, 0.0001525447, 0.0031073093, -248695.14, -105049.984 
1.3955654e+3, 2.9532394e+2, -156999.42, -305590.75, -1568.2566, -0.0019016915, 0.0011502714, -156982.88, -111157.484 
1.3955452e+3, 3.0530837e+2, -73395.19, -176168.08, -769.9708, -0.0018107957, -0.0011275697, -73389.42, -73389.42 
1.3955249e+3, 3.1529573e+2, -78565.99, -178303.33, -912.29834, -0.00034292403, -0.0058878674, -78557.65, -78557.65 
1.3955046e+3, 3.2528797e+2, -16969.959, -42392.004, -1060.5673, 0.0017759812, 0.0075425343, -16925.791, -16925.791 
1.4061141e+3, 3.5660088e+1, -2462254.8, -2596524.5, 1211.3937, -0.0017883802, 0.0045923507, -2462243.8, 128287.44 
1.4060935e+3, 4.565379e+1, -2375986.8, -2510126.3, 550.3303, 0.0035300225, -0.004070489, -2375984.5, 116608.4 
1.4060728e+3, 5.56474e+1, -2285095.0, -2415939.5, 692.2354, 0.0010686021, 0.0015989433, -2285091.3, 109564.33 
1.4060518e+3, 6.564047e+1, -2199774.3, -2334609.0, -202.49825, 0.000052035026, 0.003258129, -2199774.0, 96949.55 
1.4060308e+3, 7.5633043e+1, -2107129.8, -2239417.8, -328.11508, -0.00040415415, -0.00006943603, -2107129.0, 91667.375 
1.4060098e+3, 8.562515e+1, -2022369.5, -2158533.8, -265.7945, -0.00018364761, -0.00011173053, -2022368.9, 78504.766 
1.405989e+3, 9.5616794e+1, -1931582.8, -2064233.8, -327.6044, 0.00075097056, 0.00070027064, -1931581.9, 71373.68 
1.4059678e+3, 1.0560793e+2, -1846438.0, -1983707.4, -724.3718, 0.0008349818, 0.0017436914, -1846434.3, 58608.29 
1.4059466e+3, 1.1559855e+2, -1752873.1, -1887904.0, -362.96616, 0.00025107354, 0.0013701255, -1752872.1, 54262.273 
1.4059256e+3, 1.2558872e+2, -1667477.5, -1806209.5, -267.28543, 0.000081208724, 0.0016774564, -1667477.0, 41753.656 
1.4059044e+3, 1.3557842e+2, -1576912.6, -1711972.5, -742.80383, 0.0003914391, 0.000696792, -1576908.5, 34423.004 
1.4058833e+3, 1.455676e+2, -1492356.5, -1632545.0, -1159.3002, 0.00046687137, 0.0012506219, -1492346.9, 21090.791 
1.4058621e+3, 1.5555623e+2, -1398624.8, -1536652.4, -905.2596, 0.00037174474, 0.0011141198, -1398618.9, 16930.252 
1.405841e+3, 1.6554438e+2, -1313008.1, -1455500.6, -592.70245, 0.000043701013, 0.0018284424, -1313005.6, 4659.58 
1.4058197e+3, 1.7553203e+2, -1221439.3, -1360634.3, -639.2904, -0.00028872976, 0.0012894043, -1221436.4, -1650.1271 
1.4057986e+3, 1.8551917e+2, -1136389.6, -1280209.6, -751.9906, -0.00013369041, 0.0013340362, -1136385.6, -14473.532 
1.4057775e+3, 1.9550583e+2, -1043490.5, -1184800.1, -815.3203, 0.0003827801, 0.000008779996, -1043485.8, -19442.768 
1.4057562e+3, 2.0549196e+2, -958324.06, -1104242.3, -772.5059, 0.0004280398, 0.0007087249, -958319.94, -32141.05 
1.4057352e+3, 2.154776e+2, -866409.25, -1009272.9, -795.2483, 0.00011455489, 0.0012264104, -866404.8, -38085.1 
1.405714e+3, 2.2546269e+2, -781422.56, -929086.9, -574.47455, -0.00019229722, 0.0021576388, -781420.3, -50954.625 
1.4056928e+3, 2.3544729e+2, -688749.6, -833600.3, -438.33975, -0.0006114506, 0.0014295101, -688748.3, -56131.527 
1.4056718e+3, 2.4543136e+2, -603279.75, -752555.6, -253.96843, -0.000530141, 0.0012078035, -603279.4, -68506.66 
1.4056508e+3, 2.55415e+2, -510873.84, -657113.56, -481.86996, -0.00010833648, -0.0005231354, -510872.28, -73938.93 
1.4056298e+3, 2.653981e+2, -426102.56, -577044.06, -170.33052, 0.00017578891, 0.0005683229, -426102.38, -87003.414 
1.405609e+3, 2.753807e+2, -333886.25, -481488.6, -168.88896, 0.0004122193, 0.0021827556, -333886.06, -92616.76 
1.405588e+3, 2.8536278e+2, -248812.56, -400932.38, 44.56254, -0.00017927916, 0.0030746444, -248812.56, -105367.85 
1.4055671e+3, 2.953444e+2, -156330.22, -305249.03, -1.0681959, -0.0011700309, 0.0012168147, -156330.22, -110705.31 
1.4055462e+3, 3.0532882e+2, -73390.7, -176473.34, 754.6222, -0.0009659023, -0.0011090441, -73385.18, -73385.18 
1.4055255e+3, 3.153161e+2, -79946.83, -179204.97, 474.74786, -0.00026687386, -0.00601828, -79944.56, -79944.56 
1.405505e+3, 3.2530844e+2, -17458.48, -40743.15, 282.2961, 0.0005683157, 0.008081263, -17455.059, -17455.059 
1.4161262e+3, 3.5680854e+1, -2462106.0, -2595842.3, -962.6601, 0.003048524, 0.0011545154, -2462099.0, 128228.74 
1.416105e+3, 4.5674688e+1, -2375636.5, -2509330.5, -1023.5518, 0.0025838225, -0.000544939, -2375628.8, 116759.445 
1.4160837e+3, 5.56683e+1, -2284778.0, -2415229.3, -894.4712, -0.0037534696, 0.00029088254, -2284772.0, 109678.89 
1.4160624e+3, 6.5661377e+1, -2200162.0, -2335179.0, -1378.7253, -0.0028394286, 0.0016603103, -2200148.0, 96370.66 
1.4160411e+3, 7.5653946e+1, -2107597.0, -2240026.8, -1509.2817, 0.0030146306, 0.0014631907, -2107579.8, 91011.76 
1.4160196e+3, 8.564604e+1, -2022577.6, -2158712.5, -1879.9033, 0.0032757372, 0.002143965, -2022551.8, 78117.3 
1.4159982e+3, 9.5637673e+1, -1931543.9, -2064224.4, -1891.0844, -0.00058302615, 0.0019099503, -1931516.9, 71234.14 
1.4159767e+3, 1.0562884e+2, -1845803.1, -1982347.6, -1687.6879, -0.0012578183, 0.0018321808, -1845782.3, 59055.34 
1.4159553e+3, 1.1561955e+2, -1752597.4, -1886881.5, -1445.3458, 0.00056064205, 0.00032720936, -1752581.9, 54346.785 
1.4159338e+3, 1.256097e+2, -1668523.4, -1808022.8, -2043.5308, 0.00086391927, 0.001108878, -1668493.4, 40531.71 
1.4159122e+3, 1.355993e+2, -1577574.3, -1713462.5, -2402.4714, 0.00007065561, 0.0015818977, -1577531.9, 33595.164 
1.4158906e+3, 1.4558846e+2, -1491732.1, -1631462.4, -2064.2751, -0.00017737629, 0.0020103287, -1491701.6, 21531.64 
1.4158691e+3, 1.5557715e+2, -1398270.5, -1535701.6, -1889.4114, 0.00007860099, 0.0005394969, -1398244.6, 17099.53 
1.4158477e+3, 1.6556533e+2, -1313202.6, -1455691.5, -2132.7937, 0.00052685884, 0.00092310284, -1313170.6, 4289.309 
1.4158261e+3, 1.7555298e+2, -1221505.3, -1360764.4, -2167.952, 0.0012621327, 0.00091489987, -1221471.5, -1890.5072 
1.4158045e+3, 1.8554011e+2, -1136505.6, -1280493.9, -1955.7899, 0.0006435428, 0.0020235702, -1136479.1, -14772.133 
1.415783e+3, 1.9552675e+2, -1043708.9, -1185100.4, -2014.8378, -0.0011396848, 0.0021639834, -1043680.2, -19842.223 
1.4157614e+3, 2.0551287e+2, -958445.56, -1104405.0, -2217.289, -0.0011753538, 0.0020627256, -958411.9, -32437.838 
1.4157398e+3, 2.1549848e+2, -866436.75, -1009363.9, -2229.094, 0.000115953946, -0.00015418205, -866402.0, -38286.832 
1.4157183e+3, 2.2548358e+2, -781100.7, -928517.0, -1875.6298, 0.00052397914, 0.00040529852, -781076.8, -50815.836 
1.4156969e+3, 2.3546824e+2, -688511.44, -833101.2, -1769.5684, 0.00017645682, 0.0011883724, -688489.8, -56078.246 
1.4156754e+3, 2.4545231e+2, -603706.56, -753370.56, -1677.5063, 0.000085073916, 0.00243469, -603687.75, -69120.305 
1.415654e+3, 2.5543588e+2, -511293.53, -657867.1, -1879.3706, 0.00006370397, 0.002207066, -511269.44, -74540.93 
1.4156325e+3, 2.6541895e+2, -426071.47, -576947.4, -1631.6014, -0.0005120599, 0.0018643982, -426053.8, -87159.36 
1.4156112e+3, 2.7540156e+2, -333849.7, -481419.5, -1631.9268, -0.0014454309, -0.00042749263, -333831.63, -92766.555 
1.4155899e+3, 2.8538364e+2, -248875.7, -400923.22, -1382.1857, -0.00097314286, 0.0005943648, -248863.14, -105622.695 
1.4155684e+3, 2.953653e+2, -156380.69, -305263.72, -1432.4814, 0.0010433688, 0.002269948, -156366.9, -110946.555 
1.4155474e+3, 3.053497e+2, -73688.5, -177208.86, -870.7494, 0.0013149037, 0.0033647, -73681.18, -73681.18 
1.4155261e+3, 3.1533697e+2, -80186.67, -179822.75, -1123.4663, -0.00046839967, 0.001833732, -80174.01, -80174.01 
1.415505e+3, 3.2532918e+2, -16285.6875, -38357.785, -1091.121, -0.00248507, -0.000111017034, -16231.88, -16231.88 
1.4261381e+3, 3.5702252e+1, -2461867.8, -2595774.5, 957.2224, 0.00252999, -0.00023172825, -2461860.8, 128257.23 
1.4261165e+3, 4.569612e+1, -2374255.8, -2508658.5, 738.56146, 0.0025879755, 0.0022231734, -2374251.8, 117926.48 
1.4260948e+3, 5.5689704e+1, -2283514.5, -2414577.3, 548.9019, -0.0030174833, 0.00036767125, -2283512.3, 110728.75 
1.426073e+3, 6.5682775e+1, -2199317.8, -2334602.8, 351.69733, -0.0023507099, 0.0010116742, -2199316.8, 96992.12 
1.4260514e+3, 7.567537e+1, -2107641.3, -2239868.5, 466.10007, 0.0025076019, 0.001634546, -2107639.5, 90742.0 
1.4260295e+3, 8.566747e+1, -2022150.1, -2158392.3, 202.10933, 0.0027526503, 0.0023667114, -2022149.9, 78309.16 
1.4260076e+3, 9.5659095e+1, -1929592.0, -2063161.6, 266.59653, -0.00036715547, 0.001615396, -1929591.4, 72949.59 
1.4259857e+3, 1.0565026e+2, -1844737.1, -1982001.6, 160.61609, -0.00085179385, 0.0015356626, -1844737.0, 59890.65 
1.425964e+3, 1.1564095e+2, -1753980.3, -1887709.6, -227.27498, 0.000702445, 0.00039529387, -1753979.9, 52739.01 
1.425942e+3, 1.2563111e+2, -1669083.1, -1808047.9, -510.45078, 0.0008703119, 0.001197395, -1669081.3, 39734.016 
1.42592e+3, 1.3562073e+2, -1575199.5, -1712100.4, -82.61963, 0.0000112973385, 0.0015305288, -1575199.4, 35717.586 
1.4258981e+3, 1.456099e+2, -1489657.0, -1630541.4, 253.24191, -0.00017334477, 0.001987851, -1489656.5, 23366.73 
1.4258762e+3, 1.5559857e+2, -1398698.8, -1536032.3, -39.629124, 0.00036995832, 0.0007312261, -1398698.8, 16435.451 
1.4258543e+3, 1.6558674e+2, -1313926.0, -1456042.0, -371.7597, 0.0006573752, 0.0011015523, -1313925.1, 3325.0017 
1.4258322e+3, 1.7557439e+2, -1220723.8, -1360387.9, -371.0882, 0.000818202, 0.0007879783, -1220722.8, -1351.5792 
1.4258103e+3, 1.8556154e+2, -1135565.1, -1279972.0, -122.167206, 0.00035461906, 0.0017730925, -1135565.0, -14067.858 
1.4257884e+3, 1.9554818e+2, -1043794.75, -1185111.9, -34.873463, -0.0005946081, 0.002024302, -1043794.75, -20166.625 
1.4257665e+3, 2.0553428e+2, -958597.75, -1104535.4, -89.29852, -0.00061540445, 0.0021825207, -958597.75, -32833.53 
1.4257444e+3, 2.1551988e+2, -865667.0, -1009044.7, -79.13421, -0.0001082244, 0.00037917634, -865666.94, -37761.613 
1.4257227e+3, 2.25505e+2, -780263.25, -928127.4, 58.063538, 0.00018723587, 0.0007535556, -780263.25, -50211.938 
1.4257008e+3, 2.354896e+2, -688191.25, -832977.8, -133.61359, 0.0003150242, 0.00085664244, -688191.1, -55989.164 
1.425679e+3, 2.454737e+2, -603544.7, -753241.1, -4.143921, 0.00023736448, 0.0019901788, -603544.7, -69186.75 
1.4256571e+3, 2.5545725e+2, -511147.9, -657723.5, 130.74637, -0.000052497224, 0.0022078662, -511147.78, -74628.805 
1.4256352e+3, 2.6544034e+2, -426057.34, -576979.0, 409.29065, -0.00053772185, 0.0021575147, -426056.25, -87371.29 
1.4256135e+3, 2.754229e+2, -333835.66, -481429.06, 289.12726, -0.0011145782, -0.000024021956, -333835.1, -92979.42 
1.4255919e+3, 2.85405e+2, -248685.7, -400891.75, 542.5001, -0.00074824266, 0.00042315625, -248683.78, -105652.586 
1.4255701e+3, 2.953866e+2, -155935.67, -305098.72, 442.4759, 0.0008701054, 0.0010109828, -155934.36, -110723.05 
1.4255485e+3, 3.0537108e+2, -73198.02, -176898.39, 867.1689, 0.0011691693, 0.0033850388, -73190.77, -73190.77 
1.4255269e+3, 3.1535837e+2, -79778.74, -179582.78, 929.51984, -0.00028627238, 0.0051833424, -79770.086, -79770.086 
1.4255053e+3, 3.253505e+2, -16876.129, -39361.832, 510.8226, -0.002359858, -0.0028880218, -16864.531, -16864.531 
1.4361502e+3, 3.5724154e+1, -2462439.3, -2596577.3, -562.987, -0.0014857418, -0.00022459005, -2462436.8, 127466.63 
1.4361282e+3, 4.5718002e+1, -2374745.3, -2509388.3, -856.82416, 0.0031006425, 0.0045066173, -2374739.8, 117224.14 
1.436106e+3, 5.571153e+1, -2283904.0, -2415198.3, -1014.00397, 0.0013121075, 0.0013237287, -2283896.3, 110130.95 
1.4360838e+3, 6.5704596e+1, -2199093.5, -2334052.8, -1027.3622, 0.00029576878, 0.0009803807, -2199085.8, 97009.39 
1.4360616e+3, 7.569722e+1, -2107380.8, -2239324.5, -938.5768, -0.0007548093, 0.00088213687, -2107374.3, 90793.24 
1.4360394e+3, 8.568935e+1, -2022139.5, -2158197.3, -1036.2582, -0.0005346607, 0.0012412828, -2022131.5, 78113.03 
1.4360172e+3, 9.5680994e+1, -1929775.3, -2063148.8, -1020.19336, 0.0007936048, 0.0002984026, -1929767.4, 72559.055 
1.4359948e+3, 1.0567211e+2, -1845556.1, -1983441.9, -1511.5674, 0.0011200137, 0.0010376867, -1845539.6, 58873.84 
1.4359725e+3, 1.15662724e+2, -1754437.8, -1888838.6, -1789.0741, 0.00061780226, 0.0012816379, -1754413.9, 52091.598 
1.4359502e+3, 1.256529e+2, -1668206.1, -1806316.0, -1375.4381, 0.00025902287, 0.0017796672, -1668192.4, 40409.336 
1.435928e+3, 1.3564262e+2, -1574704.1, -1710662.5, -1074.7527, 0.00003401898, 0.00081855786, -1574695.6, 36006.797 
1.4359057e+3, 1.456318e+2, -1490323.5, -1631630.3, -1451.731, 0.00019977294, 0.0014566489, -1490308.6, 22499.902 
1.4358832e+3, 1.5562044e+2, -1399110.6, -1536930.1, -1671.7106, 0.00093258696, 0.0014851158, -1399090.4, 15829.62 
1.4358608e+3, 1.6560858e+2, -1313827.9, -1455945.3, -1449.9958, 0.00039454122, 0.0020672819, -1313813.0, 3223.1108 
1.4358386e+3, 1.7559622e+2, -1220757.9, -1360323.1, -1471.7983, -0.0012422014, 0.00082255405, -1220742.3, -1585.0962 
1.4358163e+3, 1.8558337e+2, -1135478.5, -1279727.3, -1599.28, -0.00081832986, 0.0008617032, -1135460.8, -14177.587 
1.435794e+3, 1.9557e+2, -1043627.7, -1184831.5, -1519.3859, 0.0013869345, 0.00020861696, -1043611.3, -20197.287 
1.4357716e+3, 2.0555614e+2, -958573.2, -1104555.4, -1295.3075, 0.0014145186, 0.0013986991, -958561.7, -33011.734 
1.4357492e+3, 2.1554177e+2, -865746.06, -1009133.8, -1295.1906, -0.000632965, 0.0023374395, -865734.4, -38043.492 
1.435727e+3, 2.2552684e+2, -780652.4, -928862.5, -1389.1757, -0.001040687, 0.002700577, -780639.4, -50802.266 
1.4357047e+3, 2.3551139e+2, -688512.2, -833609.75, -1555.4512, -0.00014738733, 0.0004719434, -688495.5, -56507.03 
1.4356825e+3, 2.4549547e+2, -603236.4, -752651.25, -1404.6373, -0.00004571675, 0.00029401842, -603223.1, -69078.61 
1.4356603e+3, 2.5547907e+2, -510881.9, -657165.75, -1293.9136, -0.0005247637, 0.000094196075, -510870.47, -74565.31 
1.435638e+3, 2.6546216e+2, -426254.44, -577375.44, -1091.056, -0.00016845316, 0.0017290746, -426246.56, -87775.625 
1.4356159e+3, 2.7544478e+2, -333991.6, -481789.0, -1188.266, 0.00085340376, 0.0028458617, -333982.06, -93340.45 
1.4355938e+3, 2.8542683e+2, -248794.48, -401132.56, -827.40344, 0.00018625011, 0.0021464927, -248790.0, -105972.55 
1.4355716e+3, 2.9540837e+2, -156117.13, -305341.25, -920.9459, -0.0013709889, -0.0020857123, -156111.44, -111113.29 
1.4355496e+3, 3.0539283e+2, -72941.19, -176303.44, -838.50494, -0.0010394095, -0.0001359796, -72934.38, -72934.38 
1.4355275e+3, 3.153802e+2, -79495.73, -179136.97, -781.97906, 0.00016685567, 0.004950188, -79489.59, -79489.59 
1.4355053e+3, 3.2537222e+2, -18509.07, -42927.33, -1036.1073, 0.000082097846, -0.0010151725, -18465.186, -18465.186 
1.4461622e+3, 3.574654e+1, -2461389.3, -2595090.5, 908.9421, -0.0009745106, -0.00068275695, -2461383.0, 128301.09 
1.4461397e+3, 4.574043e+1, -2374504.0, -2509562.0, 1022.3614, 0.0011455712, 0.006086702, -2374496.3, 117247.83 
1.446117e+3, 5.5733913e+1, -2283284.5, -2415189.0, 946.944, 0.0018892371, 0.0013752514, -2283277.8, 110530.23 
1.4460945e+3, 6.572696e+1, -2198077.0, -2333569.3, 994.3674, 0.001391494, 0.0005479329, -2198069.5, 97806.4 
1.4460717e+3, 7.571957e+1, -2106117.8, -2238733.3, 801.09686, -0.0007504505, 0.00073165033, -2106113.0, 91835.36 
1.4460492e+3, 8.5711694e+1, -2021416.1, -2157866.5, 477.01044, -0.0008394611, 0.001294591, -2021414.5, 78611.03 
1.4460266e+3, 9.570334e+1, -1930351.9, -2063431.1, 395.10965, 0.00083073264, 0.00048346646, -1930350.6, 71756.79 
1.4460039e+3, 1.05694465e+2, -1845296.3, -1983152.4, 344.51373, 0.0012207046, 0.0013275276, -1845295.4, 58899.04 
1.4459811e+3, 1.1568509e+2, -1751978.9, -1887463.3, 663.12225, 0.0005675295, 0.0016103901, -1751975.6, 54310.684 
1.4459583e+3, 1.2567526e+2, -1666597.9, -1805662.4, 851.4794, 0.00029417741, 0.00190295, -1666592.6, 41789.94 
1.4459358e+3, 1.3566498e+2, -1575985.3, -1711422.6, 415.6646, 0.0003871782, 0.0006855211, -1575984.0, 34499.45 
1.445913e+3, 1.4565414e+2, -1491414.0, -1631967.9, 109.01986, 0.00037297996, 0.0012769813, -1491413.9, 21175.559 
1.4458902e+3, 1.556428e+2, -1397781.5, -1536142.9, 342.2299, 0.00046823005, 0.0013631117, -1397780.6, 16920.158 
1.4458676e+3, 1.6563094e+2, -1312380.4, -1455267.3, 685.84393, 0.00010335552, 0.0020822014, -1312377.1, 4439.911 
1.4458449e+3, 1.7561857e+2, -1220801.3, -1360405.8, 618.77246, -0.00065741205, 0.0011753856, -1220798.5, -1860.4053 
1.4458221e+3, 1.8560573e+2, -1135580.0, -1279834.6, 444.98074, -0.0003185074, 0.0012173273, -1135578.6, -14514.601 
1.4457995e+3, 1.9559236e+2, -1042602.8, -1184379.9, 379.8345, 0.0009893691, 0.0002643239, -1042601.8, -19406.783 
1.4457767e+3, 2.0557849e+2, -957561.94, -1104063.9, 512.99506, 0.0009727124, 0.0011925183, -957560.1, -32229.129 
1.4457542e+3, 2.155641e+2, -865724.4, -1009150.44, 519.1399, -0.00031903086, 0.0019461656, -865722.5, -38250.47 
1.4457314e+3, 2.2554918e+2, -780872.9, -929036.9, 564.28546, -0.0006601559, 0.0025775023, -780870.75, -51252.5 
1.4457087e+3, 2.3553373e+2, -688230.9, -833532.94, 645.60706, -0.0003028453, 0.0009938265, -688228.0, -56458.355 
1.445686e+3, 2.4551779e+2, -602837.44, -752475.4, 694.4225, -0.00025030793, 0.00081269676, -602834.2, -68908.41 
1.4456634e+3, 2.555014e+2, -510463.53, -657048.0, 479.8986, -0.0003609216, 0.00014693015, -510461.97, -74375.37 
1.4456409e+3, 2.6548445e+2, -425523.1, -577105.9, 606.8036, 0.00008757517, 0.0014342454, -425520.7, -87268.17 
1.4456183e+3, 2.7546704e+2, -332811.9, -481276.78, 627.20764, 0.0009779375, 0.002300591, -332809.25, -92386.0 
1.4455958e+3, 2.8544906e+2, -248312.98, -401028.13, 869.07916, 0.00018970956, 0.0023044036, -248308.05, -105708.88 
1.4455731e+3, 2.9543063e+2, -157214.02, -305967.88, 794.2957, -0.0014578932, -0.000500358, -157209.77, -112429.9 
1.4455506e+3, 3.0541506e+2, -73883.02, -176672.14, 860.94867, -0.0011556273, 0.00007579513, -73875.81, -73875.81 
1.4455283e+3, 3.1540242e+2, -78892.086, -178741.23, 635.75214, 0.0001226638, 0.0016985846, -78888.04, -78888.04 
1.4455058e+3, 3.253945e+2, -17187.06, -42548.004, 903.1964, 0.00073230086, 0.0013239384, -17154.936, -17154.936 
1.4561743e+3, 3.5769328e+1, -2460496.5, -2592690.5, -702.9086, 0.0022277285, -0.0014329648, -2460492.8, 128968.06 
1.4561513e+3, 4.576331e+1, -2374819.5, -2509978.8, -548.32544, -0.0024782263, 0.0071317423, -2374817.3, 116702.46 
1.4561282e+3, 5.5756754e+1, -2283496.0, -2415560.8, -602.7292, -0.00008921733, 0.0008221069, -2283493.3, 110090.65 
1.4561051e+3, 6.5749764e+1, -2198420.0, -2334216.0, -376.10706, 0.0013690527, -0.00011798463, -2198419.0, 97233.46 
1.4560822e+3, 7.5742346e+1, -2106587.3, -2239438.3, -556.23376, 0.0013119282, 0.000981674, -2106585.0, 91140.16 
1.456059e+3, 8.573445e+1, -2021677.6, -2158149.5, -1071.6222, 0.00076652574, 0.0021563985, -2021669.3, 78133.37 
1.456036e+3, 9.5726085e+1, -1930385.6, -2063576.0, -1105.4357, 0.000002314826, 0.0016952885, -1930376.4, 71508.164 
1.4560129e+3, 1.0571725e+2, -1844742.0, -1981906.6, -678.05206, -0.000066646324, 0.0021717953, -1844738.6, 59232.527 
1.45599e+3, 1.1570795e+2, -1751717.1, -1886504.5, -469.59088, 0.00043185797, 0.0015326722, -1751715.4, 54346.84 
1.4559668e+3, 1.256981e+2, -1667534.3, -1807250.8, -909.68463, 0.0006629319, 0.0017266612, -1667528.4, 40630.465 
1.4559436e+3, 1.3568771e+2, -1576553.0, -1712706.1, -1234.4681, 0.0008020725, 0.0009892755, -1576541.8, 33718.797 
1.4559205e+3, 1.4567688e+2, -1490821.6, -1630916.3, -832.5061, 0.00027152293, 0.001406281, -1490816.6, 21550.08 
1.4558974e+3, 1.5566559e+2, -1397455.6, -1535264.6, -679.92053, -0.0008380028, 0.0006333733, -1397452.3, 17025.178 
1.4558743e+3, 1.6565377e+2, -1312569.3, -1455488.4, -853.11646, -0.0002549825, 0.0014800451, -1312564.1, 4029.173 
1.4558512e+3, 1.756414e+2, -1220856.5, -1360567.3, -886.61694, 0.0017349542, 0.0017798964, -1220850.9, -2136.4038 
1.4558281e+3, 1.8562853e+2, -1135703.0, -1280109.9, -716.78705, 0.0012406335, 0.0024948788, -1135699.4, -14858.884 
1.455805e+3, 1.9561514e+2, -1042796.9, -1184680.4, -788.04156, -0.0012941646, 0.0016780661, -1042792.5, -19820.813 
1.455782e+3, 2.0560126e+2, -957619.94, -1104122.5, -943.305, -0.0013784933, 0.0014253071, -957613.9, -32505.986 
1.455759e+3, 2.1558684e+2, -865704.25, -1009140.25, -935.50104, 0.00052402075, -0.00019900588, -865698.1, -38449.016 
1.4557359e+3, 2.2557193e+2, -780673.06, -928693.1, -741.8736, 0.00080538663, 0.000905655, -780669.3, -51274.133 
1.4557128e+3, 2.3555653e+2, -688115.4, -833243.94, -683.833, -0.00035491504, 0.0021770431, -688112.2, -56566.043 
1.4556897e+3, 2.4554059e+2, -603196.56, -753261.9, -731.1234, -0.00047892323, 0.0030603732, -603193.0, -69490.62 
1.4556666e+3, 2.5552413e+2, -510797.16, -657781.0, -924.19934, 0.00015831957, 0.0019216938, -510791.34, -74927.65 
1.4556436e+3, 2.6550716e+2, -425519.75, -577019.7, -740.6403, 0.00013880391, 0.001264, -425516.13, -87486.14 
1.4556207e+3, 2.7548972e+2, -332859.0, -481218.22, -752.41724, -0.0004400124, -0.00088945834, -332855.2, -92654.234 
1.4555977e+3, 2.8547177e+2, -248452.64, -401246.88, -927.46466, -0.00064734305, 0.0013495726, -248447.02, -106070.34 
1.4555746e+3, 2.954534e+2, -157186.28, -306099.63, -974.56476, 0.000012618914, 0.004973789, -157179.9, -112622.99 
1.4555517e+3, 3.0543777e+2, -73973.31, -177103.16, -427.281, 0.00027564855, 0.00336644, -73971.54, -73971.54 
1.4555287e+3, 3.15425e+2, -79037.36, -179090.22, -629.8469, -0.0004112898, -0.004038655, -79033.4, -79033.4 
1.455506e+3, 3.2541728e+2, -16173.755, -40325.133, -639.2681, -0.00027947171, 0.0041700555, -16156.846, -16156.846 
1.4661863e+3, 3.5792622e+1, -2460701.8, -2591882.3, 982.13947, 0.0016060318, -0.00030788122, -2460694.5, 128538.05 
1.4661628e+3, 4.578658e+1, -2374486.5, -2510000.8, 831.05524, -0.002756341, 0.0042633913, -2374481.5, 116810.15 
1.4661394e+3, 5.578003e+1, -2282242.5, -2415130.8, 759.27686, 0.0006925343, 0.00065345725, -2282238.0, 111117.86 
1.466116e+3, 6.577304e+1, -2197247.8, -2333481.5, 989.9303, 0.0019399389, 0.0005447322, -2197240.8, 98183.67 
1.4660925e+3, 7.5765634e+1, -2106593.5, -2239287.5, 1102.6271, 0.0007843911, 0.0010462244, -2106584.5, 90912.58 
1.4660689e+3, 8.575774e+1, -2021435.8, -2157932.3, 970.99603, 0.0004002131, 0.002011875, -2021428.9, 78145.5 
1.4660454e+3, 9.574937e+1, -1928822.0, -2062684.8, 1035.0511, 0.0006894223, 0.0016810723, -1928814.0, 72842.37 
1.466022e+3, 1.0574054e+2, -1843796.3, -1981449.1, 1203.5065, 0.00049307, 0.0019155202, -1843785.6, 59957.215 
1.4659986e+3, 1.1573123e+2, -1752949.9, -1887080.4, 943.8039, 0.000006182725, 0.00092114415, -1752943.3, 52890.766 
1.465975e+3, 1.257214e+2, -1668139.9, -1807398.0, 774.8486, 0.00010086661, 0.0014638727, -1668135.6, 39794.91 
1.4659514e+3, 1.3571103e+2, -1574519.4, -1711577.0, 1091.0825, 0.00077010726, 0.0014275969, -1574510.8, 35521.402 
1.465928e+3, 1.457002e+2, -1488988.0, -1630075.1, 1495.4955, 0.0006057121, 0.0018765447, -1488972.1, 23166.133 
1.4659046e+3, 1.5568888e+2, -1397831.3, -1535507.5, 1224.0381, -0.00023713641, 0.0007116498, -1397820.4, 16428.7 
1.465881e+3, 1.6567706e+2, -1313070.6, -1455644.6, 995.66583, 0.000019846526, 0.001287035, -1313063.6, 3301.3625 
1.4658575e+3, 1.7566471e+2, -1219918.9, -1360056.1, 1044.6222, 0.0012844652, 0.0015228968, -1219911.0, -1424.9862 
1.4658341e+3, 1.8565184e+2, -1134789.9, -1279709.5, 1277.5365, 0.0008993185, 0.0022939127, -1134778.6, -14166.389 
1.4658105e+3, 1.9563845e+2, -1042921.25, -1184830.6, 1309.2075, -0.0009842638, 0.0016895235, -1042909.2, -20165.818 
1.4657871e+3, 2.0562454e+2, -957720.75, -1104230.1, 1197.8114, -0.0010923037, 0.0016960733, -957710.94, -32831.324 
1.4657636e+3, 2.1561012e+2, -864815.2, -1008763.94, 1171.5194, 0.00031318574, 0.00029202277, -864805.6, -37784.73 
1.4657402e+3, 2.2559522e+2, -779580.56, -928190.0, 1212.1727, 0.0006831691, 0.0010634183, -779570.7, -50403.57 
1.4657168e+3, 2.355798e+2, -687498.0, -833024.4, 1110.4946, 0.000057323894, 0.0016767132, -687489.56, -56171.418 
1.4656934e+3, 2.4556385e+2, -602777.8, -753140.06, 1158.6154, -0.00013223643, 0.0025807896, -602768.94, -69294.46 
1.4656699e+3, 2.5554737e+2, -510130.53, -657536.2, 1213.7488, 0.00004143775, 0.0019213508, -510120.53, -74484.66 
1.4656465e+3, 2.655304e+2, -425286.25, -577013.56, 1328.9058, -0.00022345524, 0.0015717227, -425274.6, -87472.32 
1.4656231e+3, 2.7551293e+2, -333620.75, -481690.5, 1198.7448, -0.0008606583, -0.00032266878, -333611.03, -93637.66 
1.4655995e+3, 2.8549498e+2, -248354.52, -401195.28, 1041.0739, -0.00062380836, 0.00152285, -248347.42, -106198.19 
1.4655761e+3, 2.954766e+2, -154888.23, -305012.06, 1065.8068, 0.0009006732, 0.004262113, -154880.66, -110551.07 
1.4655529e+3, 3.0546096e+2, -72275.05, -176786.53, 1373.519, 0.0009162702, 0.0030096895, -72257.0, -72257.0 
1.4655295e+3, 3.1544816e+2, -79585.67, -179816.44, 1082.5557, -0.00086506584, -0.0030605027, -79573.984, -79573.984 
1.4655063e+3, 3.2544044e+2, -17185.78, -39440.01, 692.25555, -0.00092044286, 0.0043154694, -17164.268, -17164.268 
1.4761984e+3, 3.5816327e+1, -2460710.8, -2591758.0, -181.94144, -0.0015109332, 0.0018696006, -2460710.5, 128289.6 
1.4761744e+3, 4.5810205e+1, -2374869.3, -2510438.8, -479.26343, -0.00097190245, -0.0009693759, -2374867.8, 116192.414 
1.4761506e+3, 5.580368e+1, -2282645.0, -2415516.8, -528.0884, 0.0031227907, 0.00070873887, -2282642.8, 110481.27 
1.4761268e+3, 6.579673e+1, -2197151.0, -2332951.5, -663.8474, 0.0027789257, 0.0020236128, -2197147.8, 98044.555 
1.4761028e+3, 7.5789344e+1, -2106387.5, -2238750.5, -538.3195, -0.0015685842, 0.0009804791, -2106385.3, 90879.4 
1.476079e+3, 8.578146e+1, -2021435.6, -2157720.0, -233.51498, -0.0013510707, 0.0012168499, -2021435.3, 77906.55 
1.4760551e+3, 9.5773125e+1, -1928959.9, -2062631.4, -212.17569, 0.0022499484, 0.00083980925, -1928959.5, 72464.016 
1.4760311e+3, 1.0576426e+2, -1844378.8, -1982317.5, -447.22314, 0.0021357313, 0.0009612309, -1844377.4, 59133.047 
1.4760071e+3, 1.157549e+2, -1753246.5, -1887732.6, -619.77124, -0.00075586204, -0.0000014785992, -1753243.8, 52358.426 
1.4759833e+3, 1.2574509e+2, -1667491.0, -1806103.9, -179.94637, -0.0011854136, 0.0012279076, -1667490.8, 40207.48 
1.4759594e+3, 1.3573481e+2, -1574175.9, -1710549.0, 33.179058, 0.00031489797, 0.0020252015, -1574175.9, 35623.04 
1.4759356e+3, 1.45724e+2, -1489575.1, -1631007.9, -141.97264, 0.0011253814, 0.0026331407, -1489575.0, 22329.977 
1.4759116e+3, 1.5571263e+2, -1398173.5, -1536218.0, -341.17014, 0.0015168074, 0.0013388972, -1398172.8, 15843.707 
1.4758877e+3, 1.6570078e+2, -1312900.3, -1455399.0, -104.85343, 0.0005646589, 0.0014109438, -1312900.3, 3232.3071 
1.4758639e+3, 1.7568843e+2, -1219867.9, -1359855.6, -87.00663, -0.0013547017, 0.00063201366, -1219867.8, -1614.3038 
1.4758399e+3, 1.8567556e+2, -1134782.1, -1279652.4, -177.45532, -0.000894787, 0.0010424851, -1134782.0, -14402.408 
1.4758162e+3, 1.956622e+2, -1042880.56, -1184737.4, -129.26303, 0.0011457917, 0.0006837865, -1042880.5, -20369.807 
1.4757924e+3, 2.056483e+2, -957769.06, -1104400.6, 6.663632, 0.0010179036, 0.0020068404, -957769.06, -33122.195 
1.4757684e+3, 2.156339e+2, -864943.06, -1008976.75, -35.520977, -0.0008248724, 0.0027316133, -864943.06, -38155.01 
1.4757447e+3, 2.2561894e+2, -779790.7, -928552.25, -220.40074, -0.0007382209, 0.0025976365, -779790.4, -50855.855 
1.4757209e+3, 2.3560348e+2, -687673.1, -833324.06, -320.59784, 0.0007214332, -0.000083294464, -687672.44, -56586.39 
1.4756969e+3, 2.4558753e+2, -602658.1, -752870.1, -183.17604, 0.00056497223, 0.00005681816, -602657.9, -69415.42 
1.4756732e+3, 2.5557107e+2, -510087.22, -657316.5, -154.86157, -0.0007005825, 0.0005488602, -510087.03, -74683.44 
1.4756493e+3, 2.655541e+2, -425492.25, -577457.7, -323.98486, -0.001010897, 0.0023060439, -425491.56, -87921.67 
1.4756253e+3, 2.7553666e+2, -333743.34, -482108.56, -407.86932, -0.0005967538, 0.0032781872, -333742.22, -94001.18 
1.4756015e+3, 2.8551868e+2, -248286.31, -401128.22, -171.56987, -0.000007777476, 0.0026041006, -248286.13, -106368.89 
1.475578e+3, 2.9550022e+2, -154971.58, -305047.75, -183.12978, 0.0012076356, -0.0014278621, -154971.36, -110873.2 
1.4755541e+3, 3.0548456e+2, -72787.26, -177803.08, -550.55707, 0.00080743834, -0.00016801126, -72784.37, -72784.37 
1.4755301e+3, 3.1547177e+2, -79952.69, -180701.23, -753.65796, -0.0014484406, 0.0035927847, -79947.055, -79947.055 
1.4755063e+3, 3.2546398e+2, -16483.596, -38188.22, -1161.7982, -0.0013608452, 0.0021797272, -16421.584, -16421.584 
1.4862104e+3, 3.584044e+1, -2459782.8, -2591401.3, 1168.432, -0.00066807703, 0.0033048391, -2459772.5, 128991.4 
1.4861861e+3, 4.5834294e+1, -2374331.0, -2509666.0, 956.3181, -0.00054545834, -0.003834311, -2374324.3, 116499.63 
1.4861618e+3, 5.5827844e+1, -2282696.0, -2415047.3, 1281.638, 0.0022671346, 0.00092909933, -2282683.5, 110203.766 
1.4861375e+3, 6.582092e+1, -2197169.5, -2332774.5, 1062.5432, 0.002123533, 0.0029836975, -2197161.3, 97793.87 
1.486113e+3, 7.5813544e+1, -2105570.0, -2238137.3, 1031.6093, -0.00074475136, 0.0009928981, -2105562.0, 91465.484 
1.4860888e+3, 8.580567e+1, -2020850.0, -2157266.8, 1400.3755, -0.0007675633, 0.0009132301, -2020835.6, 78268.96 
1.4860645e+3, 9.579734e+1, -1929485.1, -2062715.1, 1392.9496, 0.0013436585, 0.00070539315, -1929470.6, 71715.6 
1.4860402e+3, 1.057885e+2, -1844352.6, -1982180.0, 1414.4033, 0.0014046355, 0.0011558345, -1844338.0, 58934.83 
1.4860158e+3, 1.15779154e+2, -1751503.6, -1886738.6, 1621.0763, -0.00008829657, 0.00065065996, -1751484.1, 53880.3 
1.4859916e+3, 1.2576935e+2, -1666281.6, -1805372.4, 1996.1959, -0.00032505795, 0.0015578024, -1666253.0, 41207.566 
1.4859673e+3, 1.3575909e+2, -1575136.6, -1710881.9, 1764.2339, 0.0004199652, 0.0015163401, -1575113.8, 34447.44 
1.485943e+3, 1.4574826e+2, -1490421.0, -1631380.9, 1656.6594, 0.0007416506, 0.002051826, -1490401.6, 21265.676 
1.4859188e+3, 1.557369e+2, -1397057.1, -1535661.3, 1783.1044, 0.0009552199, 0.0013322439, -1397034.1, 16744.47 
1.4858945e+3, 1.6572505e+2, -1311590.8, -1454796.4, 2088.6875, 0.0003869255, 0.0016818366, -1311560.4, 4334.379 
1.4858702e+3, 1.7571269e+2, -1219735.0, -1359820.9, 2007.038, -0.00083762995, 0.0008676414, -1219706.3, -1690.5634 
1.4858459e+3, 1.8569984e+2, -1134695.0, -1279598.4, 1846.892, -0.00049860735, 0.0012471547, -1134671.5, -14529.706 
1.4858218e+3, 1.9568644e+2, -1041850.0, -1184259.8, 1827.8773, 0.00093730376, 0.0009075705, -1041826.56, -19553.607 
1.4857975e+3, 2.0567255e+2, -956817.6, -1103961.4, 1975.3643, 0.0009010907, 0.0019117271, -956791.1, -32381.936 
1.4857733e+3, 2.1565813e+2, -864789.06, -1008941.5, 1982.3395, -0.0004363895, 0.0021689315, -864761.8, -38211.28 
1.485749e+3, 2.2564317e+2, -779756.5, -928655.2, 1846.5422, -0.0005629178, 0.0023234605, -779733.56, -51036.555 
1.4857249e+3, 2.356277e+2, -687073.2, -833127.4, 1810.8943, 0.00023834116, 0.0005054999, -687050.75, -56202.063 
1.4857006e+3, 2.4561173e+2, -601932.1, -752659.7, 1845.048, 0.00018296874, 0.0006505906, -601909.56, -68904.35 
1.4856763e+3, 2.5559527e+2, -509717.75, -657299.4, 1712.6195, -0.00035427947, 0.00048111627, -509697.88, -74531.34 
1.485652e+3, 2.6557827e+2, -424776.0, -577142.1, 1523.2504, -0.00041325638, 0.0020254478, -424760.78, -87427.84 
1.4856279e+3, 2.7556083e+2, -331878.66, -481265.88, 1574.327, -0.000068355126, 0.0030871497, -331862.06, -92357.87 
1.4856036e+3, 2.8554282e+2, -247150.38, -400840.63, 1727.8934, 0.0000022054382, 0.0022796676, -247130.95, -105450.36 
1.4855795e+3, 2.9552433e+2, -155907.42, -305738.22, 1527.9512, 0.0002142284, -0.0019900736, -155891.84, -112030.05 
1.4855552e+3, 3.0550867e+2, -73440.54, -177952.61, 1208.5585, -0.00000084003574, 0.00043301986, -73426.56, -73426.56 
1.4855309e+3, 3.1549594e+2, -78808.08, -180015.39, 1481.7075, -0.0009536105, 0.0064321174, -78786.39, -78786.39 
1.4855066e+3, 3.2548803e+2, -14538.124, -38248.844, 611.69556, -0.00038577223, -0.0003018176, -14522.354, -14522.354 
1.4962225e+3, 3.5864916e+1, -2459962.5, -2591815.5, -168.8371, 0.0024131862, 0.0044633336, -2459962.3, 128561.74 
1.4961977e+3, 4.585878e+1, -2373772.0, -2508383.3, -438.54645, -0.0010386441, -0.0052426467, -2373770.5, 116813.52 
1.496173e+3, 5.5852437e+1, -2282302.3, -2413969.3, -135.55547, -0.0007961739, 0.0012387326, -2282302.0, 110344.21 
1.4961483e+3, 6.584555e+1, -2197455.0, -2333015.0, -358.126, 0.00038520037, 0.0036290127, -2197454.0, 97259.8 
1.4961234e+3, 7.583816e+1, -2105822.3, -2238361.0, -369.22083, 0.0020217476, 0.001033642, -2105821.3, 90965.016 
1.4960986e+3, 8.583029e+1, -2020934.3, -2157224.0, -63.634747, 0.0012346888, 0.000953142, -2020934.1, 77929.12 
1.4960739e+3, 9.5821977e+1, -1929424.3, -2062570.0, -43.273834, -0.0013872435, 0.0010435572, -1929424.3, 71520.61 
1.4960492e+3, 1.0581317e+2, -1844026.8, -1981385.8, 290.07693, -0.0010495508, 0.0021546797, -1844026.1, 59004.92 
1.4960246e+3, 1.158039e+2, -1751370.0, -1886154.5, 417.72122, 0.0014424688, 0.0023653328, -1751368.6, 53753.355 
1.4959998e+3, 1.2579407e+2, -1666782.1, -1806095.1, 388.72064, 0.0018650049, 0.0022591439, -1666781.1, 40437.145 
1.4959751e+3, 1.3578373e+2, -1575374.0, -1711387.3, 224.93349, 0.0006863991, 0.00025882915, -1575373.6, 33945.87 
1.4959504e+3, 1.4577292e+2, -1490093.8, -1630799.9, 605.2631, -0.00042011935, 0.00062937377, -1490091.1, 21334.342 
1.495926e+3, 1.5576161e+2, -1396922.3, -1535240.4, 686.1018, -0.0013248322, 0.0009620763, -1396918.8, 16617.602 
1.4959012e+3, 1.6574977e+2, -1311807.5, -1455022.1, 636.038, -0.0003698573, 0.002169255, -1311804.6, 3847.7188 
1.4958766e+3, 1.7573743e+2, -1219862.5, -1359986.9, 587.60114, 0.0018203191, 0.001919852, -1219860.0, -2086.5515 
1.495852e+3, 1.8572454e+2, -1134751.1, -1279802.9, 655.11914, 0.0013409024, 0.0025179146, -1134748.3, -14848.58 
1.4958274e+3, 1.9571115e+2, -1041942.9, -1184428.3, 624.5722, -0.0010963144, 0.002030466, -1041940.1, -19909.219 
1.4958027e+3, 2.0569724e+2, -956839.7, -1103909.3, 575.1818, -0.00092817686, 0.0015301154, -956837.44, -32670.176 
1.4957783e+3, 2.1568279e+2, -864772.1, -1008877.4, 584.11273, 0.000984552, -0.0006440125, -864769.8, -38461.0 
1.4957535e+3, 2.2566785e+2, -779810.9, -928720.0, 566.00726, 0.00068503636, 0.00070228474, -779808.7, -51353.49 
1.495729e+3, 2.356524e+2, -687163.7, -833228.9, 514.9194, -0.0012359993, 0.0028430112, -687161.9, -56555.3 
1.4957042e+3, 2.4563642e+2, -602176.94, -753107.6, 383.08865, -0.0011070137, 0.0036217745, -602175.94, -69412.68 
1.4956796e+3, 2.556199e+2, -509941.28, -657686.4, 260.94922, 0.0006578003, 0.0014662747, -509940.84, -75015.76 
1.495655e+3, 2.6560292e+2, -424749.6, -577033.06, 201.94104, 0.0011263093, 0.0009959956, -424749.34, -87657.59 
1.4956304e+3, 2.755854e+2, -331925.06, -481212.63, 209.50305, 0.000564722, -0.000047812162, -331924.75, -92661.664 
1.4956057e+3, 2.855674e+2, -247530.67, -401554.97, -55.657883, -0.00060478813, 0.0009735036, -247530.66, -106091.08 
1.4955811e+3, 2.9554892e+2, -156165.45, -306327.2, -211.61543, -0.0019173331, 0.0016477361, -156165.16, -112544.33 
1.4955564e+3, 3.055333e+2, -72903.35, -176977.17, -231.80746, -0.0014410126, 0.0040293466, -72902.836, -72902.836 
1.4955318e+3, 3.1552055e+2, -78415.03, -179241.31, 23.355627, 0.00016111654, 0.0059501585, -78415.03, -78415.03 
1.4955069e+3, 3.2551253e+2, -16247.246, -41728.797, -869.136, 0.0016040691, -0.0027680844, -16217.636, -16217.636 
1.5062346e+3, 3.5890007e+1, -2459163.8, -2593098.0, 1825.2355, 0.0025091069, 0.0052641714, -2459138.8, 129139.36 
1.5062094e+3, 4.588382e+1, -2372739.5, -2507323.8, 1311.6063, 0.00096313556, -0.0050851046, -2372726.8, 117612.03 
1.5061842e+3, 5.587753e+1, -2282080.5, -2413300.5, 1395.619, -0.0011506332, 0.0016356156, -2282065.8, 110334.64 
1.506159e+3, 6.587067e+1, -2197687.8, -2332748.8, 1330.1384, -0.00062692096, 0.003839023, -2197674.8, 96792.83 
1.5061338e+3, 7.58633e+1, -2106084.8, -2238155.0, 1535.7911, 0.0017258961, 0.00086309016, -2106066.8, 90472.96 
1.5061085e+3, 8.5855466e+1, -2020789.6, -2156877.5, 2043.3202, 0.0014295812, 0.00090901204, -2020759.0, 77857.61 
1.5060833e+3, 9.584718e+1, -1928513.4, -2061837.8, 2141.6511, -0.00097118516, 0.001437356, -1928479.0, 72218.875 
1.5060583e+3, 1.0583838e+2, -1843641.9, -1981068.5, 2343.2698, -0.0008094136, 0.0024392076, -1843601.9, 59182.113 
1.5060332e+3, 1.158291e+2, -1752338.5, -1886482.4, 2193.1628, 0.0012861962, 0.0020936842, -1752302.8, 52572.293 
1.5060082e+3, 1.258193e+2, -1667203.5, -1806319.4, 2324.813, 0.001516865, 0.0019898883, -1667164.8, 39806.42 
1.505983e+3, 1.3580896e+2, -1573885.4, -1710639.4, 2421.36, 0.00035969765, 0.00051703077, -1573842.5, 35229.89 
1.505958e+3, 1.4579816e+2, -1488632.3, -1629907.8, 2798.727, -0.0003107315, 0.0010390073, -1488576.9, 22601.422 
1.505933e+3, 1.5578686e+2, -1396970.9, -1535106.1, 2724.6646, -0.00054804416, 0.0011817784, -1396917.1, 16371.986 
1.5059079e+3, 1.6577502e+2, -1312093.0, -1455146.5, 2666.1775, 0.000091764225, 0.002143217, -1312043.4, 3361.6938 
1.505883e+3, 1.7576265e+2, -1219237.3, -1359684.1, 2667.579, 0.0013115007, 0.0017567825, -1219186.6, -1660.3744 
1.505858e+3, 1.8574977e+2, -1134000.1, -1279378.8, 2805.9136, 0.0008714097, 0.0022777729, -1133946.0, -14293.606 
1.505833e+3, 1.9573638e+2, -1041595.25, -1184238.4, 2811.4028, -0.0008082342, 0.0016895748, -1041539.9, -19756.117 
1.505808e+3, 2.0572244e+2, -956408.7, -1103806.4, 2674.6514, -0.0006636506, 0.0015049219, -956360.2, -32439.984 
1.505783e+3, 2.1570799e+2, -863918.0, -1008552.2, 2609.3953, 0.00079113187, -0.00003217288, -863870.94, -37809.188 
1.505758e+3, 2.2569303e+2, -778841.4, -928371.56, 2590.3633, 0.0007010715, 0.0010974606, -778796.56, -50588.215 
1.505733e+3, 2.3567759e+2, -686388.25, -833013.1, 2528.0466, -0.00055248843, 0.002304822, -686344.7, -55984.785 
1.505708e+3, 2.4566157e+2, -601460.75, -752868.7, 2383.174, -0.00067341333, 0.0030203548, -601423.25, -68906.51 
1.5056829e+3, 2.5564504e+2, -509008.38, -657357.75, 2377.8835, 0.00010113967, 0.0016187988, -508970.25, -74291.65 
1.505658e+3, 2.65628e+2, -424050.8, -576942.2, 2308.33, 0.000514362, 0.0012665837, -424015.97, -87170.5 
1.505633e+3, 2.756105e+2, -331860.0, -481404.06, 2153.7354, 0.00063561974, -0.00021440398, -331828.97, -92811.92 
1.5056078e+3, 2.855925e+2, -247159.7, -401482.63, 1767.6858, -0.00018077943, 0.0011670208, -247139.45, -105945.8 
1.5055826e+3, 2.95574e+2, -154783.27, -305785.7, 1866.3423, -0.001350524, 0.0028003016, -154760.2, -111385.24 
1.5055574e+3, 3.0555835e+2, -71371.445, -176373.44, 1741.4896, -0.0011775617, 0.0033646524, -71342.57, -71342.57 
1.5055324e+3, 3.1554556e+2, -77322.06, -178865.5, 1431.1819, -0.0002736409, 0.0012619931, -77301.9, -77301.9 
1.5055074e+3, 3.255376e+2, -15795.66, -41752.504, 928.0228, 0.0017442602, 0.00016444518, -15762.523, -15762.523 
1.5162466e+3, 3.591558e+1, -2460880.5, -2596395.0, -94.91271, 0.00065837294, 0.0058066645, -2460880.3, 127147.13 
1.516221e+3, 4.590931e+1, -2372733.5, -2507074.0, -263.30283, 0.004424226, -0.0038042977, -2372733.0, 117355.93 
1.5161954e+3, 5.5903035e+1, -2282172.8, -2413064.8, -128.91133, 0.000043806995, 0.0020667596, -2282172.5, 109977.984 
1.5161696e+3, 6.589622e+1, -2197521.8, -2332073.5, -21.662203, -0.0013090108, 0.0037702038, -2197521.8, 96695.45 
1.516144e+3, 7.5888896e+1, -2105808.8, -2237472.5, 157.81958, -0.0006535285, 0.00057950796, -2105808.5, 90480.5 
1.5161183e+3, 8.5881096e+1, -2020677.5, -2156420.0, 784.1093, 0.00037146173, 0.0008478213, -2020673.0, 77692.44 
1.5160929e+3, 9.5872843e+1, -1928565.6, -2061564.0, 839.8596, 0.001389081, 0.0018378169, -1928560.3, 71886.04 
1.5160674e+3, 1.0586404e+2, -1844017.8, -1981511.4, 814.4184, 0.0010887863, 0.002264624, -1844012.9, 58519.63 
1.5160419e+3, 1.15854725e+2, -1752434.9, -1886756.8, 723.75867, -0.00014206435, 0.00052571984, -1752431.0, 52192.902 
1.5160164e+3, 1.2584493e+2, -1666975.1, -1805834.9, 1295.8096, -0.000639177, 0.0011305165, -1666963.0, 39756.824 
1.515991e+3, 1.3583465e+2, -1573877.9, -1710312.1, 1331.9379, -0.000494458, 0.0018806752, -1573864.9, 34955.7 
1.5159656e+3, 1.4582385e+2, -1488891.8, -1630075.0, 1310.3088, 0.00056973513, 0.0027785145, -1488879.6, 22046.824 
1.5159401e+3, 1.5581253e+2, -1397073.3, -1535186.8, 1262.1321, 0.0021978233, 0.001784352, -1397061.6, 15975.709 
1.5159148e+3, 1.6580069e+2, -1312082.8, -1455153.4, 1472.1704, 0.0012468379, 0.0017446465, -1312067.6, 3085.836 
1.5158895e+3, 1.7578831e+2, -1219271.1, -1359720.9, 1480.5465, -0.0015769949, 0.000734853, -1219255.5, -1980.8186 
1.515864e+3, 1.8577543e+2, -1134054.4, -1279389.0, 1492.7056, -0.0013249863, 0.0010360782, -1134039.0, -14638.203 
1.5158387e+3, 1.9576204e+2, -1041664.25, -1184247.0, 1501.8282, 0.0010674589, 0.0003175686, -1041648.44, -20116.26 
1.5158133e+3, 2.0574813e+2, -956581.75, -1104112.4, 1388.2825, 0.0010334003, 0.0018049566, -956568.7, -32900.12 
1.515788e+3, 2.1573369e+2, -864088.94, -1008857.8, 1327.5931, -0.00075665745, 0.0031400912, -864076.8, -38266.69 
1.5157625e+3, 2.257187e+2, -778946.6, -928533.5, 1267.624, -0.00033846864, 0.0030294931, -778935.94, -50978.99 
1.5157372e+3, 2.3570317e+2, -686486.56, -833168.1, 1188.8569, 0.0016149557, -0.0003568978, -686476.94, -56367.918 
1.5157118e+3, 2.4568716e+2, -601439.9, -752849.8, 985.2101, 0.00092751364, -0.00023039462, -601433.5, -69167.56 
1.5156862e+3, 2.5567067e+2, -509034.84, -657406.0, 958.293, -0.0017971514, 0.0011380613, -509028.66, -74601.08 
1.5156609e+3, 2.6565364e+2, -424329.2, -577493.94, 796.6246, -0.0018644838, 0.0025593797, -424325.03, -87730.55 
1.5156354e+3, 2.756361e+2, -332095.44, -481905.78, 650.1994, 0.00014428432, 0.0019706537, -332092.63, -93326.23 
1.5156099e+3, 2.8561807e+2, -247023.22, -401243.7, 255.6936, 0.0009696243, 0.0025399916, -247022.8, -106079.66 
1.5155843e+3, 2.9559955e+2, -154699.67, -305621.8, 355.25708, 0.0012656684, 0.0019295531, -154698.83, -111574.4 
1.5155588e+3, 3.0558383e+2, -71954.86, -177653.8, 172.75581, 0.00031074326, -0.00069704186, -71954.58, -71954.58 
1.5155333e+3, 3.1557092e+2, -77871.99, -180005.16, -124.68704, -0.002199143, -0.0067209555, -77871.84, -77871.84 
1.5155077e+3, 3.2556313e+2, -14912.176, -39785.83, -726.5301, 0.00019409435, 0.0075528626, -14890.974, -14890.974 
1.5262587e+3, 3.5941592e+1, -2460207.0, -2596161.0, 1151.5049, 0.001033616, 0.0015800962, -2460197.3, 127575.25 
1.5262327e+3, 4.5935455e+1, -2371963.8, -2506171.8, 1527.2678, 0.004168574, 0.0030715894, -2371946.5, 117886.484 
1.5262064e+3, 5.592915e+1, -2282425.8, -2412706.3, 1840.5725, -0.0007297555, 0.001868902, -2282399.8, 109494.92 
1.5261804e+3, 6.592233e+1, -2197909.5, -2332193.5, 2362.4585, -0.0015290648, 0.0021389301, -2197868.0, 96093.305 
1.5261543e+3, 7.5915045e+1, -2105256.8, -2237090.0, 2259.06, 0.00032692056, 0.0014502322, -2105218.0, 90814.84 
1.5261284e+3, 8.5907257e+1, -2020274.6, -2156057.0, 2549.0146, 0.0010496703, 0.0019068428, -2020226.8, 77882.31 
1.5261024e+3, 9.5899004e+1, -1929287.1, -2061755.1, 2518.5044, 0.0008445253, 0.0015732752, -1929239.3, 70950.734 
1.5260765e+3, 1.05890214e+2, -1844197.1, -1981348.0, 2837.8762, 0.00054894824, 0.0018051574, -1844138.4, 58137.684 
1.5260506e+3, 1.1588092e+2, -1750943.0, -1885756.3, 2995.24, 0.000179066, 0.0007419802, -1750876.4, 53490.758 
1.5260248e+3, 1.2587114e+2, -1665867.0, -1805180.3, 3496.5916, -0.00008623406, 0.0014831687, -1665779.4, 40683.746 
1.5259989e+3, 1.3586086e+2, -1574546.6, -1710548.4, 3389.2346, -0.00009659151, 0.0019337988, -1574462.3, 34101.52 
1.5259731e+3, 1.4585005e+2, -1489528.3, -1630447.5, 3429.5898, 0.0005247133, 0.002645818, -1489444.8, 21224.832 
1.5259475e+3, 1.5583873e+2, -1396276.8, -1534820.0, 3399.0972, 0.0015260564, 0.0015133228, -1396193.4, 16587.227 
1.5259217e+3, 1.6582689e+2, -1310912.4, -1454530.9, 3622.007, 0.0008906761, 0.0015749648, -1310821.1, 4075.5557 
1.5258959e+3, 1.7581452e+2, -1218608.1, -1359351.9, 3647.7212, -0.0009623763, 0.00088686147, -1218513.6, -1495.8121 
1.5258701e+3, 1.8580164e+2, -1133643.1, -1279278.4, 3615.2295, -0.00070640206, 0.0013357551, -1133553.4, -14409.314 
1.5258443e+3, 1.9578823e+2, -1041096.8, -1184072.3, 3563.9272, 0.0009924631, 0.0006614586, -1041008.06, -19732.553 
1.5258186e+3, 2.057743e+2, -955894.1, -1103842.1, 3482.2017, 0.0008786192, 0.001855254, -955812.2, -32400.205 
1.5257928e+3, 2.1575986e+2, -863312.2, -1008568.1, 3486.0154, -0.00054187165, 0.0026259443, -863228.56, -37674.918 
1.5257671e+3, 2.2574486e+2, -778164.25, -928287.4, 3415.605, -0.00040252975, 0.0027185807, -778086.6, -50386.016 
1.5257414e+3, 2.3572932e+2, -685716.06, -832937.9, 3327.765, 0.0008993313, 0.00008698261, -685640.9, -55788.117 
1.5257154e+3, 2.4571331e+2, -600685.75, -752678.06, 3032.2222, 0.00073113677, 0.00029304644, -600625.25, -68615.44 
1.5256897e+3, 2.5569677e+2, -508232.53, -657223.4, 2893.3452, -0.0005939121, 0.0011855653, -508176.38, -74004.6 
1.5256639e+3, 2.6567972e+2, -423361.38, -577140.6, 2740.4185, -0.001025739, 0.0023694728, -423312.56, -86973.664 
1.525638e+3, 2.7566218e+2, -330921.66, -481485.2, 2764.891, -0.0007020158, 0.0017817353, -330870.88, -92359.94 
1.525612e+3, 2.856441e+2, -245793.53, -400857.34, 2288.5571, 0.00024232386, 0.0023826256, -245759.75, -105071.86 
1.5255862e+3, 2.9562557e+2, -153344.1, -305191.03, 2120.2676, 0.002027174, 0.0018115904, -153314.5, -110445.07 
1.5255602e+3, 3.056098e+2, -71242.19, -177973.28, 1722.6532, 0.0009413114, -0.000123239, -71214.4, -71214.4 
1.5255342e+3, 3.1559685e+2, -77886.66, -180523.19, 1556.8564, -0.0030434371, -0.004868303, -77863.05, -77863.05 
1.525508e+3, 3.2558912e+2, -13683.513, -37645.21, 997.3876, -0.00001877799, 0.0066684466, -13642.069, -13642.069 
1.5362711e+3, 3.5968e+1, -2459980.8, -2594777.3, -499.20187, 0.0025352822, -0.0052389055, -2459978.8, 127535.09 
1.5362443e+3, 4.5962107e+1, -2371951.5, -2505551.5, -306.4573, 0.0014857041, 0.0134121375, -2371950.8, 117620.9 
1.5362175e+3, 5.595575e+1, -2282123.0, -2412058.3, -1.9851016, -0.0028073087, 0.0012286426, -2282123.0, 109510.88 
1.5361911e+3, 6.594892e+1, -2198148.3, -2332577.5, 1212.8375, -0.0015578067, -0.00045674, -2198137.3, 95563.48 
1.5361647e+3, 7.594165e+1, -2105634.3, -2237535.0, 1114.6552, 0.0032959534, 0.0030118346, -2105624.8, 90147.336 
1.5361384e+3, 8.593385e+1, -2020468.4, -2156116.5, 1011.9674, 0.002688829, 0.003683299, -2020460.9, 77387.62 
1.5361118e+3, 9.5925575e+1, -1929257.0, -2061672.3, 1019.52905, -0.0017932338, 0.00088823505, -1929249.1, 70680.51 
1.5360856e+3, 1.0591681e+2, -1843902.5, -1980611.4, 1816.3406, -0.0017105432, 0.0011831233, -1843878.4, 58137.055 
1.5360594e+3, 1.15907595e+2, -1750873.0, -1885216.6, 1892.8397, 0.0015430755, 0.0020956292, -1750846.4, 53259.46 
1.5360332e+3, 1.2589782e+2, -1666154.3, -1805458.1, 1924.4332, 0.002187868, 0.0026607541, -1666127.6, 40073.918 
1.5360068e+3, 1.3588752e+2, -1574620.6, -1710741.0, 1866.4033, 0.0009953156, 0.0011323713, -1574595.0, 33707.543 
1.5359806e+3, 1.4587669e+2, -1489556.3, -1630457.9, 2347.9465, -0.00030351596, 0.0012576273, -1489517.1, 20891.438 
1.5359545e+3, 1.5586537e+2, -1396419.1, -1534873.0, 2299.942, -0.001644142, 0.00070383295, -1396381.0, 16138.564 
1.5359284e+3, 1.6585355e+2, -1311041.5, -1454486.9, 2290.6025, -0.0005945987, 0.0017197425, -1311005.0, 3630.495 
1.5359023e+3, 1.758412e+2, -1218683.4, -1359323.1, 2317.9482, 0.0020566108, 0.0019196419, -1218645.1, -1888.742 
1.5358762e+3, 1.8582831e+2, -1133824.1, -1279582.3, 2336.0369, 0.0018268849, 0.002763986, -1133786.8, -14904.01 
1.53585e+3, 1.9581488e+2, -1041266.06, -1184328.0, 2310.2715, -0.00062070804, 0.0022533266, -1041228.75, -20214.469 
1.5358238e+3, 2.0580094e+2, -955941.44, -1103838.0, 2229.868, -0.00068951526, 0.0017863542, -955907.8, -32756.785 
1.5357979e+3, 2.1578646e+2, -863362.94, -1008590.7, 2221.2249, 0.00083915266, -0.0005835898, -863329.0, -38036.06 
1.5357716e+3, 2.2577146e+2, -778296.6, -928505.94, 2075.6719, 0.00009050312, 0.0007762295, -778267.94, -50828.11 
1.5357454e+3, 2.3575597e+2, -685861.06, -833150.44, 1981.6566, -0.0020980989, 0.0028504438, -685834.4, -56242.625 
1.5357192e+3, 2.457399e+2, -600927.9, -753175.3, 1647.3218, -0.00090762356, 0.0036754878, -600910.06, -69161.05 
1.5356931e+3, 2.5572333e+2, -508430.13, -657632.1, 1502.4027, 0.0028001524, 0.0016610489, -508415.0, -74503.46 
1.5356669e+3, 2.6570624e+2, -423266.63, -577046.25, 1296.0251, 0.0021367865, 0.001069235, -423255.7, -87176.78 
1.5356405e+3, 2.7568868e+2, -330896.0, -481465.13, 1307.6676, -0.0019240496, -0.00025930247, -330884.66, -92633.67 
1.5356143e+3, 2.8567064e+2, -246190.0, -401691.2, 797.2297, -0.0020622965, 0.0010472621, -246185.9, -105757.76 
1.5355879e+3, 2.9565203e+2, -153749.8, -306026.72, 634.748, 0.0011438068, 0.0022557636, -153747.16, -111137.02 
1.5355615e+3, 3.0563626e+2, -71572.33, -178667.11, -19.311422, 0.0007578705, 0.004140293, -71572.33, -71572.33 
1.535535e+3, 3.156233e+2, -78124.24, -181044.0, -143.95784, -0.0031069075, 0.0047768564, -78124.04, -78124.04 
1.5355085e+3, 3.2561544e+2, -12819.66, -35705.82, -615.81726, 0.0007520147, -0.0012370929, -12803.102, -12803.102 
1.546283e+3, 3.5995078e+1, -2460676.3, -2591897.8, 1378.8298, 0.00048518216, -0.004789415, -2460661.8, 126586.83 
1.5462558e+3, 4.5989296e+1, -2373968.3, -2507154.5, 1916.0208, 0.000117530246, 0.014902728, -2373940.8, 115364.445 
1.5462287e+3, 5.598286e+1, -2281747.5, -2412396.5, 1607.1587, -0.0003094939, 0.00081793906, -2281727.8, 109640.55 
1.5462019e+3, 6.5976024e+1, -2196979.0, -2331627.8, 2864.9553, 0.00043546373, -0.0013397824, -2196918.3, 96517.086 
1.5461749e+3, 7.596878e+1, -2106025.8, -2237334.5, 3127.2256, 0.0018836948, 0.002752933, -2105951.3, 89554.85 
1.5461482e+3, 8.596101e+1, -2020900.0, -2156293.8, 3243.7175, 0.0013640053, 0.003830363, -2020822.3, 76760.06 
1.5461214e+3, 9.5952725e+1, -1928296.3, -2061154.0, 3262.5222, -0.0006789066, 0.0011993083, -1928216.1, 71447.28 
1.5460946e+3, 1.0594398e+2, -1843318.0, -1980261.4, 3960.253, -0.00061317196, 0.0012880012, -1843203.5, 58545.723 
1.546068e+3, 1.1593475e+2, -1751927.6, -1885665.3, 3786.3608, 0.0009827974, 0.0018309855, -1751820.6, 52019.066 
1.5460414e+3, 1.2592499e+2, -1666772.5, -1805501.3, 3919.2183, 0.0014586486, 0.0024866906, -1666661.9, 39273.39 
1.5460147e+3, 1.359147e+2, -1573348.5, -1709843.0, 4022.4832, 0.0010719334, 0.0012576876, -1573230.1, 34805.977 
1.5459882e+3, 1.459039e+2, -1488251.9, -1629786.1, 4560.938, 0.00010835205, 0.0014095409, -1488105.0, 22036.977 
1.5459616e+3, 1.5589257e+2, -1396371.3, -1534792.6, 4530.0693, -0.0011362121, 0.00089811214, -1396223.1, 16029.851 
1.5459351e+3, 1.6588074e+2, -1311160.6, -1454571.1, 4542.385, -0.00044943494, 0.0019013286, -1311016.9, 3352.1167 
1.5459087e+3, 1.7586838e+2, -1218166.1, -1359028.4, 4490.2495, 0.0015687157, 0.0018780706, -1218023.1, -1533.0505 
1.5458822e+3, 1.8585548e+2, -1132912.1, -1279118.3, 4511.9927, 0.0014368317, 0.0025669714, -1132773.0, -14156.65 
1.5458557e+3, 1.9584206e+2, -1040242.25, -1183841.3, 4580.603, -0.00036558387, 0.0020252315, -1040096.3, -19348.291 
1.5458292e+3, 2.058281e+2, -955077.4, -1103555.1, 4466.473, -0.00035635036, 0.001848337, -954943.1, -32058.328 
1.5458028e+3, 2.1581359e+2, -862556.4, -1008350.6, 4353.7314, 0.0008471516, -0.000097734126, -862426.5, -37399.598 
1.5457763e+3, 2.2579859e+2, -777499.9, -928259.7, 4123.0986, 0.00016907458, 0.0010185725, -777387.2, -50213.22 
1.5457498e+3, 2.3578307e+2, -685100.5, -832951.06, 4050.2803, -0.001651944, 0.0025988976, -684989.6, -55663.53 
1.5457231e+3, 2.45767e+2, -599975.2, -752887.4, 3822.2747, -0.0007314817, 0.0033397456, -599879.75, -68396.195 
1.5456966e+3, 2.557504e+2, -506986.38, -657169.25, 3779.8918, 0.002235522, 0.001319794, -506891.28, -73245.04 
1.5456699e+3, 2.657333e+2, -422005.97, -576746.75, 3338.0742, 0.0017808203, 0.0012049752, -421933.97, -86120.13 
1.5456432e+3, 2.7571574e+2, -330038.47, -481330.3, 3119.7244, -0.0012829414, 0.00076422043, -329974.16, -91988.016 
1.5456164e+3, 2.856976e+2, -245284.02, -401509.7, 2719.7864, -0.001495858, 0.0012938838, -245236.69, -105073.03 
1.5455897e+3, 2.9567897e+2, -152731.33, -305758.63, 2795.349, 0.00057754084, 0.0004520351, -152680.28, -110334.28 
1.5455629e+3, 3.056632e+2, -70116.49, -178063.06, 2163.4146, 0.00016260866, 0.0036377546, -70073.15, -70073.15 
1.5455359e+3, 3.1565028e+2, -76017.08, -180218.34, 2252.0789, -0.002177828, 0.008399273, -75968.42, -75968.42 
1.545509e+3, 3.256423e+2, -11232.999, -36239.89, 841.79083, 0.0010890346, -0.003513913, -11204.694, -11204.694 
1.556295e+3, 3.6022687e+1, -2458397.5, -2586478.3, -471.80658, -0.0038380346, -0.000024625278, -2458395.8, 128582.23 
1.5562674e+3, 4.601691e+1, -2375146.3, -2509240.3, 572.7153, -0.00049653143, 0.010733878, -2375143.8, 113890.8 
1.5562399e+3, 5.601038e+1, -2282680.3, -2414126.0, 376.1781, 0.004894031, 0.00065028603, -2282679.0, 108419.42 
1.5562125e+3, 6.600354e+1, -2196555.5, -2330580.8, 1319.3353, 0.0035300578, -0.0010219279, -2196542.5, 96623.08 
1.5561852e+3, 7.5996363e+1, -2105627.5, -2236415.8, 1559.6915, -0.0024222014, 0.0013434443, -2105609.0, 89626.89 
1.5561579e+3, 8.598862e+1, -2021047.9, -2156273.8, 2021.1558, -0.0019228534, 0.0029774185, -2021017.6, 76294.02 
1.5561308e+3, 9.598037e+1, -1928505.6, -2061188.5, 2025.6655, 0.0027005973, 0.0021248716, -1928474.6, 70917.92 
1.5561038e+3, 1.059716e+2, -1843634.5, -1980687.3, 2453.5583, 0.002525048, 0.0018825332, -1843590.6, 57887.973 
1.5560767e+3, 1.15962334e+2, -1752075.0, -1885965.4, 2331.5757, -0.0009903144, 0.0005267208, -1752034.4, 51534.953 
1.5560497e+3, 1.2595259e+2, -1666564.4, -1804979.0, 2922.467, -0.0013567577, 0.0014401908, -1666502.6, 39162.2 
1.5560228e+3, 1.3594235e+2, -1573298.0, -1709435.4, 2963.9143, 0.0003235709, 0.002017167, -1573233.5, 34531.58 
1.5559958e+3, 1.4593157e+2, -1488473.3, -1629840.1, 3112.8352, 0.0012843797, 0.0026538384, -1488404.8, 21466.045 
1.5559688e+3, 1.5592024e+2, -1396457.5, -1534856.1, 3112.074, 0.001848318, 0.0017845379, -1396387.6, 15594.273 
1.555942e+3, 1.6590838e+2, -1311331.6, -1454817.6, 3388.7202, 0.00072835776, 0.0020739522, -1311251.8, 2846.2925 
1.5559152e+3, 1.7589602e+2, -1218369.4, -1359277.4, 3339.474, -0.001541074, 0.0010786109, -1218290.3, -2070.9333 
1.5558884e+3, 1.8588312e+2, -1133011.5, -1279056.6, 3256.2917, -0.0011349462, 0.0013484452, -1132939.0, -14593.284 
1.5558614e+3, 1.9586968e+2, -1040348.7, -1183811.9, 3318.584, 0.0011308375, 0.0005814458, -1040272.0, -19794.777 
1.5558347e+3, 2.0585573e+2, -955402.06, -1104052.4, 3164.92, 0.0012631338, 0.0021209978, -955334.75, -32720.715 
1.5558077e+3, 2.1584123e+2, -862811.8, -1008758.9, 3078.5986, -0.00029709074, 0.003168743, -862746.94, -37990.797 
1.5557809e+3, 2.2582619e+2, -777624.25, -928447.8, 2776.1611, -0.00015097638, 0.0029744366, -777573.2, -50669.684 
1.5557541e+3, 2.3581062e+2, -685155.25, -833089.44, 2705.4185, 0.0012768424, 0.000146784, -685105.8, -56049.695 
1.5557271e+3, 2.4579453e+2, -599977.0, -752966.2, 2558.1252, 0.00064271566, 0.0002349793, -599934.25, -68720.53 
1.5557e+3, 2.5577793e+2, -507094.13, -657309.94, 2477.3208, -0.0015612193, 0.0003454257, -507053.28, -73677.016 
1.555673e+3, 2.6576084e+2, -422401.63, -577645.4, 1772.923, -0.0013774028, 0.0024407275, -422381.38, -86837.35 
1.5556459e+3, 2.757432e+2, -330323.0, -482108.5, 1575.0635, 0.00067409413, 0.0041383365, -330306.66, -92589.9 
1.5556188e+3, 2.8572506e+2, -245125.61, -401315.44, 1291.9493, 0.0011541189, 0.0027502025, -245114.92, -105220.31 
1.5555915e+3, 2.9570642e+2, -152661.28, -305585.38, 1353.0325, 0.00023071865, -0.0031590604, -152649.31, -110572.016 
1.5555644e+3, 3.0569062e+2, -70043.83, -177882.94, 553.8398, -0.000790164, -0.0007771297, -70040.984, -70040.984 
1.555537e+3, 3.1567776e+2, -76148.19, -180402.58, 660.10406, -0.00095095305, 0.0068135625, -76144.016, -76144.016 
1.5555096e+3, 3.2566962e+2, -13678.614, -41167.99, -794.75885, 0.00065811974, -0.0009364514, -13655.656, -13655.656 
1.566307e+3, 3.6050692e+1, -2459780.8, -2586144.3, 824.5246, -0.0033728934, 0.0027466654, -2459775.5, 126928.086 
1.566279e+3, 4.6044862e+1, -2375660.3, -2509188.0, 1857.002, -0.0011291241, 0.0021410852, -2375634.5, 113125.98 
1.5662509e+3, 5.6038445e+1, -2282678.3, -2413831.8, 2451.5957, 0.004685003, 0.0012696065, -2282632.5, 108190.945 
1.5662232e+3, 6.603163e+1, -2196592.0, -2330608.8, 3095.2683, 0.0037645062, 0.0014546867, -2196520.5, 96369.81 
1.5661955e+3, 7.6024413e+1, -2105727.3, -2236382.5, 2945.1118, -0.0019546878, 0.0008105456, -2105661.0, 89299.92 
1.5661679e+3, 8.601669e+1, -2021081.5, -2155849.8, 3672.2346, -0.0017422503, 0.001714272, -2020981.5, 76055.07 
1.5661402e+3, 9.600849e+1, -1929005.9, -2060988.3, 3887.1296, 0.002407379, 0.0017112602, -1928891.5, 70225.5 
1.5661128e+3, 1.05999745e+2, -1843859.4, -1980633.6, 4494.8584, 0.0023998525, 0.0021004018, -1843711.9, 57490.855 
1.5660854e+3, 1.159905e+2, -1751160.8, -1885357.4, 4578.1787, -0.00053644954, 0.0011538176, -1751004.8, 52288.6 
1.566058e+3, 1.2598075e+2, -1665958.1, -1804644.5, 5240.3604, -0.0010565891, 0.001662025, -1665760.4, 39628.465 
1.5660307e+3, 1.359705e+2, -1574012.5, -1709709.5, 5082.5347, 0.000119378245, 0.0014639739, -1573822.4, 33666.797 
1.5660034e+3, 1.4595973e+2, -1488826.1, -1629887.8, 5248.499, 0.00096164766, 0.002238596, -1488631.0, 20963.754 
1.5659761e+3, 1.5594843e+2, -1395327.1, -1534139.1, 5297.5815, 0.0016425455, 0.0019467658, -1395125.3, 16580.48 
1.5659489e+3, 1.6593657e+2, -1310074.4, -1454250.6, 5593.866, 0.00089432945, 0.0022445302, -1309857.8, 3964.1082 
1.5659216e+3, 1.7592418e+2, -1217758.4, -1359009.8, 5597.129, -0.0008525283, 0.0010145855, -1217537.0, -1593.6963 
1.5658943e+3, 1.8591127e+2, -1132575.6, -1278980.9, 5487.5547, -0.0007967977, 0.0013789082, -1132370.3, -14300.517 
1.5658674e+3, 1.9589785e+2, -1039816.4, -1183667.3, 5437.5903, 0.00060925586, 0.00088690326, -1039611.1, -19409.729 
1.5658401e+3, 2.0588386e+2, -954647.5, -1103794.3, 5301.1167, 0.0007403211, 0.002199972, -954459.4, -32121.055 
1.5658128e+3, 2.1586935e+2, -861790.94, -1008332.2, 5335.678, -0.00014552042, 0.0028047387, -861596.94, -37116.39 
1.5657856e+3, 2.2585429e+2, -776410.1, -928108.56, 5011.848, 0.00024130552, 0.0027948155, -776244.75, -49616.668 
1.5657583e+3, 2.358387e+2, -683502.75, -832544.94, 4875.004, 0.0015204799, 0.00036101666, -683343.5, -54562.57 
1.565731e+3, 2.4582258e+2, -598697.25, -752613.94, 4536.862, 0.000637032, 0.00060088426, -598563.7, -67624.914 
1.5657036e+3, 2.55806e+2, -506781.63, -657396.94, 4354.018, -0.0019015062, 0.00091126765, -506655.88, -73554.31 
1.5656762e+3, 2.6578885e+2, -421680.78, -577442.6, 3851.3723, -0.0015341123, 0.0024324497, -421585.6, -86316.03 
1.5656486e+3, 2.7577117e+2, -328172.72, -481272.94, 3899.667, 0.001147264, 0.0029505978, -328073.47, -90630.86 
1.565621e+3, 2.85753e+2, -243176.52, -400825.38, 3273.3997, 0.0015551223, 0.0027193183, -243108.56, -103487.875 
1.5655935e+3, 2.9573435e+2, -151826.75, -305583.1, 2985.142, -0.00021626678, -0.000450964, -151768.83, -109965.234 
1.5655658e+3, 3.057185e+2, -69051.586, -177524.8, 1987.9674, -0.0012269334, -0.00036268044, -69015.164, -69015.164 
1.565538e+3, 3.1570557e+2, -74374.35, -179668.23, 1855.4941, 0.00006904856, 0.0015395264, -74341.664, -74341.664 
1.5655102e+3, 3.2569748e+2, -11243.305, -40447.324, 1253.2789, 0.0003692944, 0.0021007834, -11189.619, -11189.619 
1.5763187e+3, 3.6079055e+1, -2460462.0, -2587525.5, -277.0325, -0.00024655252, 0.0041436716, -2460461.3, 125964.08 
1.5762904e+3, 4.607312e+1, -2374936.5, -2507505.0, 735.64343, -0.0018240049, -0.008792196, -2374932.3, 113551.125 
1.5762621e+3, 5.606695e+1, -2282205.0, -2412455.8, 1247.8241, 0.00091487955, 0.0023888957, -2282193.0, 108351.0 
1.576234e+3, 6.606018e+1, -2197299.0, -2331512.3, 1460.3091, 0.0020100467, 0.005248383, -2197283.3, 95327.234 
1.5762056e+3, 7.605288e+1, -2106247.8, -2237083.0, 1424.7814, 0.0013635919, 0.0007873679, -2106232.3, 88449.69 
1.5761776e+3, 8.604516e+1, -2020775.1, -2154935.8, 2414.4395, 0.00049989036, 0.00021839555, -2020731.8, 76025.875 
1.5761496e+3, 9.6037024e+1, -1928656.8, -2060103.9, 2587.3792, -0.0004572701, 0.00048722688, -1928605.9, 70231.55 
1.5761219e+3, 1.0602834e+2, -1843769.3, -1980156.8, 3292.4988, 0.00006123051, 0.0021450343, -1843689.8, 57232.64 
1.5760942e+3, 1.16019145e+2, -1751163.6, -1884986.5, 3351.2388, 0.0014175406, 0.0029888004, -1751079.8, 51932.91 
1.5760663e+3, 1.2600939e+2, -1666286.8, -1805024.3, 3835.8696, 0.0012065406, 0.0026941076, -1666180.8, 38927.37 
1.5760386e+3, 1.3599911e+2, -1574174.1, -1709990.8, 3721.8718, 0.00016766686, 0.000082057566, -1574072.3, 33136.703 
1.576011e+3, 1.4598833e+2, -1488783.1, -1629654.4, 4245.9336, -0.00047735983, 0.0007546798, -1488655.3, 20659.256 
1.5759835e+3, 1.5597706e+2, -1395441.5, -1533991.6, 4247.662, -0.00093825656, 0.0016549706, -1395311.4, 16113.752 
1.5759557e+3, 1.6596521e+2, -1310357.5, -1454400.1, 4247.013, 0.00024802543, 0.0025266598, -1310232.4, 3308.7144 
1.5759282e+3, 1.7595282e+2, -1217925.4, -1359171.8, 4274.5986, 0.002417792, 0.0015501124, -1217796.1, -2133.564 
1.5759006e+3, 1.8593991e+2, -1132858.8, -1279408.6, 4257.9688, 0.0015178771, 0.0023589318, -1132735.1, -14945.969 
1.575873e+3, 1.9592646e+2, -1040053.06, -1184048.8, 4228.0576, -0.0014713273, 0.002469597, -1039929.0, -20007.986 
1.5758455e+3, 2.0591246e+2, -954706.4, -1103766.4, 4082.1458, -0.0013996296, 0.002207038, -954594.7, -32536.543 
1.5758179e+3, 2.1589792e+2, -861860.9, -1008327.5, 4110.886, 0.00081118854, -0.00018757988, -861745.56, -37544.94 
1.5757903e+3, 2.2588286e+2, -776726.6, -928633.8, 3760.618, 0.0009842132, 0.0011365814, -776633.6, -50285.426 
1.5757626e+3, 2.3586726e+2, -683810.44, -833064.1, 3622.2295, -0.00034971107, 0.0026206393, -683722.6, -55221.6 
1.5757349e+3, 2.4585113e+2, -598946.8, -753142.4, 3010.1787, -0.00048107802, 0.0036019364, -598888.06, -68228.96 
1.5757072e+3, 2.5583446e+2, -506877.75, -657816.9, 2861.915, 0.00027383715, 0.0026402948, -506823.5, -74001.09 
1.5756793e+3, 2.6581728e+2, -421467.38, -577178.7, 2691.0083, 0.00046722128, 0.0014409767, -421420.88, -86430.15 
1.5756515e+3, 2.7579963e+2, -328173.63, -481220.7, 2669.999, 0.000287185, -0.0018649087, -328127.06, -90963.12 
1.5756236e+3, 2.8578144e+2, -243820.03, -402197.78, 1521.1733, 0.00011358069, 0.0014925268, -243805.42, -104463.22 
1.5755954e+3, 2.9576275e+2, -152357.56, -306858.7, 1301.6487, -0.0007800873, 0.0071210987, -152346.6, -110821.375 
1.5755673e+3, 3.0574682e+2, -69288.94, -178097.23, 647.008, -0.0013866561, 0.0037988161, -69285.086, -69285.086 
1.5755391e+3, 3.157337e+2, -74630.24, -180072.19, 512.1847, 0.00048030508, -0.006507203, -74627.75, -74627.75 
1.5755108e+3, 3.257258e+2, -10101.219, -37743.926, -238.61075, 0.0003358823, 0.00497874, -10099.159, -10099.159 
1.5863305e+3, 3.6107907e+1, -2460431.5, -2589296.3, 1305.5177, 0.0009910283, 0.005712456, -2460418.3, 125724.41 
1.5863018e+3, 4.6101898e+1, -2374710.5, -2506443.3, 2229.6711, -0.00101974, -0.011996934, -2374672.8, 113528.55 
1.5862732e+3, 5.609584e+1, -2283092.0, -2411901.0, 2521.8826, 0.0002075542, 0.0020906504, -2283042.8, 107218.164 
1.5862446e+3, 6.608915e+1, -2198426.3, -2331331.3, 2841.9807, 0.0012335848, 0.005714587, -2198365.5, 93960.89 
1.586216e+3, 7.608191e+1, -2106967.8, -2236727.8, 3487.382, 0.0014700581, 0.00077970256, -2106874.3, 87523.32 
1.5861875e+3, 8.607423e+1, -2021412.3, -2155145.0, 4826.013, 0.0006944901, 0.00021181087, -2021238.4, 75234.46 
1.5861592e+3, 9.60661e+1, -1928866.0, -2060036.8, 4684.9854, -0.0006287124, 0.0008699137, -1928698.9, 69853.58 
1.5861309e+3, 1.0605744e+2, -1843918.0, -1979849.9, 5259.98, -0.00023270983, 0.0021532688, -1843714.8, 56922.49 
1.5861027e+3, 1.1604826e+2, -1751832.6, -1884917.9, 5324.045, 0.0012518355, 0.002099602, -1751620.0, 51107.19 
1.5860745e+3, 1.2603854e+2, -1666498.1, -1804983.6, 6047.6123, 0.0012674655, 0.0022544072, -1666234.5, 38588.02 
1.5860465e+3, 1.3602827e+2, -1572994.5, -1709269.3, 6098.6943, 0.00045120323, 0.0009567784, -1572722.1, 34200.977 
1.5860185e+3, 1.460175e+2, -1487895.4, -1629273.0, 6580.613, -0.00020332173, 0.001534057, -1487589.8, 21438.88 
1.5859906e+3, 1.5600622e+2, -1395862.5, -1534238.0, 6458.2397, -0.0007552846, 0.0014559635, -1395561.8, 15577.619 
1.5859626e+3, 1.6599438e+2, -1310593.4, -1454470.8, 6535.7974, -0.000015127235, 0.0022169885, -1310297.1, 2958.336 
1.5859348e+3, 1.7598198e+2, -1217006.4, -1358612.5, 6601.706, 0.0015933465, 0.0016873091, -1216699.3, -1322.5065 
1.5859067e+3, 1.8596905e+2, -1131553.6, -1278935.5, 6593.844, 0.0012862878, 0.0024482799, -1131259.3, -13755.759 
1.5858789e+3, 1.9595557e+2, -1038607.06, -1183460.6, 6609.7886, -0.00044732253, 0.0022963258, -1038306.06, -18670.506 
1.585851e+3, 2.0594156e+2, -953370.25, -1103339.3, 6349.7603, -0.0005994796, 0.0021393115, -953101.9, -31329.012 
1.585823e+3, 2.15927e+2, -860848.9, -1008072.4, 6250.4805, 0.00044514454, 0.00014460302, -860584.0, -36668.48 
1.585795e+3, 2.2591193e+2, -775948.25, -928470.3, 5872.6396, 0.0003225332, 0.0013912875, -775722.44, -49659.156 
1.585767e+3, 2.3589632e+2, -683304.9, -833008.94, 5820.5576, -0.00073239853, 0.0024631924, -683078.94, -54862.625 
1.585739e+3, 2.4588016e+2, -597760.2, -752868.6, 5263.3164, -0.00029667318, 0.00337196, -597581.8, -67207.125 
1.5857108e+3, 2.5586346e+2, -504182.13, -656842.75, 5143.748, 0.001299978, 0.0026228833, -504009.0, -71470.73 
1.5856826e+3, 2.6584625e+2, -419260.53, -576639.25, 4633.173, 0.0009132563, 0.0016801119, -419124.25, -84417.29 
1.5856543e+3, 2.758285e+2, -327901.38, -481577.22, 4267.611, -0.0008255485, -0.0014095702, -327782.97, -90902.38 
1.585626e+3, 2.858103e+2, -243042.53, -401843.9, 3324.6194, -0.000531193, 0.0014761741, -242972.97, -103913.86 
1.5855975e+3, 2.9579163e+2, -149522.33, -305606.28, 3593.28, 0.0002087185, 0.0063062888, -149439.66, -108197.37 
1.585569e+3, 3.0577564e+2, -66991.44, -177963.52, 2773.769, -0.00071251235, 0.0038638948, -66922.15, -66922.15 
1.5855403e+3, 3.1576246e+2, -73608.055, -180369.02, 2278.796, 0.0001686791, -0.004645128, -73559.44, -73559.44 
1.5855116e+3, 3.2575455e+2, -8434.381, -35663.465, 1115.1139, -0.00022261769, 0.0046208887, -8388.789, -8388.789 
1.5963425e+3, 3.6137173e+1, -2461984.5, -2592390.8, -361.1872, 0.000958961, 0.0076094787, -2461983.5, 123872.336 
1.5963133e+3, 4.6131104e+1, -2374363.0, -2505571.5, 901.0424, 0.0005773338, -0.010393427, -2374357.0, 113558.35 
1.5962842e+3, 5.612508e+1, -2282952.5, -2411054.0, 1220.3757, 0.0012457517, 0.0009824648, -2282940.8, 107033.555 
1.5962552e+3, 6.61185e+1, -2197775.3, -2329396.0, 1439.4824, 0.00092099526, 0.0042484105, -2197759.5, 94279.234 
1.5962261e+3, 7.611141e+1, -2106167.5, -2234929.5, 2026.5126, -0.00058274367, 0.0008347747, -2106135.8, 87972.6 
1.5961972e+3, 8.6103785e+1, -2021732.1, -2155547.0, 3593.8699, -0.00048994506, 0.0011751181, -2021635.8, 74547.41 
1.5961686e+3, 9.6095634e+1, -1929244.1, -2060403.8, 3488.629, 0.0007418414, 0.0022291003, -1929151.4, 69111.59 
1.5961398e+3, 1.0608698e+2, -1843910.3, -1979412.0, 3950.6855, 0.00059800496, 0.0021084936, -1843795.3, 56552.625 
1.5961114e+3, 1.1607781e+2, -1751651.6, -1884407.8, 4022.5154, -0.00047023923, -0.0005307275, -1751529.9, 50907.8 
1.5960829e+3, 1.2606813e+2, -1666379.4, -1804542.3, 5038.034, -0.00019916256, 0.0009608447, -1666195.9, 38336.637 
1.5960546e+3, 1.3605794e+2, -1573081.6, -1708994.9, 5026.7627, 0.0007281537, 0.0033303322, -1572896.0, 33736.43 
1.5960261e+3, 1.4604716e+2, -1488303.8, -1629679.0, 5165.869, 0.0010910665, 0.0038330427, -1488115.3, 20622.756 
1.5959978e+3, 1.5603583e+2, -1396055.1, -1534526.9, 5093.1426, 0.0012368067, 0.0013523059, -1395868.0, 14981.105 
1.5959695e+3, 1.6602397e+2, -1310587.3, -1454360.1, 5528.946, -0.00010234254, 0.001505128, -1310374.9, 2590.347 
1.5959413e+3, 1.760116e+2, -1217117.5, -1358583.0, 5558.6714, -0.0022521487, 0.0015482513, -1216899.5, -1812.9893 
1.595913e+3, 1.8599868e+2, -1131906.1, -1279262.3, 5368.994, -0.0008552609, 0.0020015282, -1131710.8, -14497.532 
1.5958847e+3, 1.9598517e+2, -1038930.1, -1183748.8, 5393.9346, 0.002680145, 0.00095630647, -1038729.5, -19383.98 
1.5958564e+3, 2.0597115e+2, -953772.06, -1103994.1, 5018.2407, 0.0022392378, 0.002173849, -953604.6, -32121.652 
1.5958281e+3, 2.1595657e+2, -861185.0, -1008690.06, 4952.6787, -0.0009951014, 0.0029868206, -861018.9, -37393.18 
1.5957998e+3, 2.2594146e+2, -776030.2, -928588.6, 4559.951, -0.0014557453, 0.0031005577, -775894.0, -50120.16 
1.5957713e+3, 2.3592581e+2, -683317.5, -833093.5, 4529.878, -0.00007720495, 0.0004914481, -683180.6, -55253.35 
1.595743e+3, 2.4590962e+2, -597921.3, -753230.0, 4146.5894, 0.0007398966, 0.00073156465, -597810.7, -67724.836 
1.5957145e+3, 2.558929e+2, -504472.25, -657315.0, 3983.0273, 0.0012505807, 0.0012587169, -504368.53, -72118.95 
1.595686e+3, 2.6587567e+2, -419884.2, -577899.25, 2944.5513, 0.000039021244, 0.0028508406, -419829.34, -85410.69 
1.5956572e+3, 2.758579e+2, -328273.3, -482542.03, 2652.9402, -0.0022018477, 0.003051956, -328227.7, -91634.87 
1.5956284e+3, 2.8583962e+2, -242524.69, -400994.88, 2188.9502, -0.0006869985, 0.0022787803, -242494.45, -103722.76 
1.5955997e+3, 2.9582092e+2, -149296.13, -305064.7, 2386.461, 0.0021622356, -0.0012627312, -149259.56, -108304.48 
1.5955707e+3, 3.0580494e+2, -67992.89, -180085.31, 984.1577, 0.00050173386, 0.0005655557, -67984.25, -67984.25 
1.5955415e+3, 3.1579173e+2, -74408.73, -182191.58, 614.9323, -0.00070272473, 0.0045650164, -74405.22, -74405.22 
1.5955123e+3, 3.2578367e+2, -8246.139, -34993.71, -381.865, -0.001675918, 0.0017508083, -8240.688, -8240.688 
1.6063544e+3, 3.6166936e+1, -2462084.8, -2593849.5, 1422.8955, 0.0024353168, 0.004877659, -2462069.3, 123494.9 
1.6063248e+3, 4.6160954e+1, -2373806.5, -2504040.5, 2805.8586, 0.0018989494, -0.0044254297, -2373746.0, 113876.77 
1.6062951e+3, 5.615498e+1, -2284559.0, -2410670.3, 3389.7026, -0.0006628283, 0.0014932187, -2284468.0, 105213.5 
1.6062656e+3, 6.6148436e+1, -2199708.5, -2330067.3, 3866.905, -0.00069678243, 0.0031727178, -2199594.0, 92151.47 
1.6062362e+3, 7.614139e+1, -2106544.8, -2234737.5, 3811.4844, 0.00029041703, 0.0008238455, -2106431.5, 87383.19 
1.6062069e+3, 8.6133796e+1, -2021929.8, -2155028.8, 5240.2954, 0.00053901126, 0.0013685077, -2021723.8, 74165.195 
1.6061778e+3, 9.6125704e+1, -1930407.3, -2060368.9, 5589.1196, 0.0005261059, 0.0020586394, -1930167.3, 67801.06 
1.6061488e+3, 1.0611707e+2, -1844828.9, -1979733.4, 6420.4663, 0.00021149145, 0.0022811065, -1844524.0, 55528.91 
1.60612e+3, 1.16107926e+2, -1751241.1, -1884005.3, 6356.123, -0.00037041403, 0.00042631364, -1750937.5, 51205.04 
1.6060911e+3, 1.2609826e+2, -1666146.1, -1804217.9, 7210.9536, -0.000104319544, 0.0014919206, -1665770.5, 38466.668 
1.6060624e+3, 1.3608807e+2, -1573990.8, -1709226.0, 7117.8047, 0.0004993882, 0.0026602522, -1573617.1, 32719.88 
1.6060337e+3, 1.4607732e+2, -1488583.6, -1629712.0, 7462.806, 0.0008128531, 0.003173154, -1488190.1, 20252.434 
1.606005e+3, 1.5606599e+2, -1394453.8, -1533609.9, 7531.664, 0.0011817655, 0.0015185509, -1394047.4, 16506.271 
1.6059764e+3, 1.6605413e+2, -1308988.4, -1453771.0, 7873.673, 0.00025815243, 0.0018074174, -1308561.5, 4108.326 
1.6059478e+3, 1.7604174e+2, -1216503.8, -1358491.6, 7739.2896, -0.0013368916, 0.0016568126, -1216083.1, -1291.8662 
1.6059192e+3, 1.860288e+2, -1131524.8, -1279125.0, 7543.985, -0.00061857986, 0.0020551702, -1131140.3, -14222.143 
1.6058907e+3, 1.9601527e+2, -1038371.25, -1183545.0, 7637.1387, 0.0015372358, 0.0010535702, -1037970.56, -18920.105 
1.6058621e+3, 2.0600124e+2, -952952.1, -1103845.8, 7269.799, 0.0014487791, 0.0022236793, -952602.7, -31414.59 
1.6058333e+3, 2.1598664e+2, -859716.8, -1008212.2, 7264.2964, -0.0003603354, 0.0028433537, -859362.3, -36031.16 
1.6058047e+3, 2.2597149e+2, -774112.44, -928016.1, 6808.0737, -0.0005971977, 0.0029029471, -773811.9, -48332.332 
1.605776e+3, 2.359558e+2, -681073.5, -832333.3, 6641.287, 0.00021765602, 0.0007086215, -680782.5, -53149.258 
1.605747e+3, 2.459396e+2, -596310.06, -752867.4, 6088.7383, 0.00047083577, 0.00094120135, -596073.6, -66281.5 
1.6057183e+3, 2.5592285e+2, -504205.47, -657581.1, 5888.344, 0.00038616022, 0.00090676756, -503979.75, -72023.5 
1.6056894e+3, 2.659056e+2, -418970.47, -577763.44, 5005.773, -0.00033087353, 0.0027549053, -418812.8, -84687.24 
1.6056602e+3, 2.758878e+2, -325245.7, -481398.8, 5059.5044, -0.0013105598, 0.0039243326, -325081.94, -88782.0 
1.605631e+3, 2.8586948e+2, -239798.92, -400383.0, 4229.302, 0.0000035133176, 0.0025331147, -239687.61, -101208.28 
1.6056018e+3, 2.9585066e+2, -148178.31, -305219.28, 3658.5125, 0.0016877688, -0.0028642332, -148093.13, -107429.6 
1.6055724e+3, 3.0583465e+2, -66609.61, -179517.27, 2258.3892, -0.000112666945, 0.00044326123, -66564.45, -66564.45 
1.6055429e+3, 3.1582147e+2, -71722.766, -181056.16, 2688.5618, -0.00066917326, 0.008347908, -71656.69, -71656.69 
1.6055132e+3, 3.258133e+2, -5204.1704, -34931.79, 1203.6019, -0.00089535234, -0.0006018471, -5155.519, -5155.519 
1.6163664e+3, 3.6197126e+1, -2463137.3, -2595172.8, -63.62457, 0.004558529, -0.0003470095, -2463137.0, 122131.26 
1.6163361e+3, 4.619132e+1, -2373340.5, -2502430.5, 891.9023, 0.002827365, 0.0042152153, -2373334.3, 113991.2 
1.6163059e+3, 5.618539e+1, -2284006.8, -2409235.3, 1499.8024, -0.004550509, 0.0029772855, -2283988.8, 105394.555 
1.616276e+3, 6.6178846e+1, -2200261.0, -2330817.3, 2856.7722, -0.003270787, 0.002380985, -2200198.5, 91249.05 
1.6162464e+3, 7.617176e+1, -2106993.3, -2235275.5, 2818.7288, 0.0027829937, 0.00075314444, -2106931.3, 86585.586 
1.6162167e+3, 8.6164224e+1, -2021378.8, -2153587.5, 3836.159, 0.0027819744, 0.0011377803, -2021267.5, 74323.34 
1.6161871e+3, 9.615622e+1, -1929757.8, -2059022.0, 4179.011, -0.00093389075, 0.0009924287, -1929622.8, 68046.53 
1.6161579e+3, 1.0614765e+2, -1844890.1, -1979715.8, 5463.7905, -0.0010689115, 0.002661243, -1844669.1, 55084.184 
1.6161285e+3, 1.1613853e+2, -1751444.3, -1884076.6, 5350.5425, 0.0007819535, 0.003654464, -1751228.8, 50613.906 
1.6160993e+3, 1.2612887e+2, -1666336.4, -1804203.1, 5872.581, 0.0008473936, 0.003168647, -1666086.8, 37850.7 
1.6160703e+3, 1.3611864e+2, -1573976.4, -1709085.6, 5832.92, -0.00021820159, -0.00000631729, -1573725.0, 32312.523 
1.6160412e+3, 1.461079e+2, -1488507.0, -1629389.1, 6596.232, -0.00061270455, 0.0005783884, -1488198.8, 19944.03 
1.6160123e+3, 1.5609662e+2, -1394571.9, -1533439.8, 6597.0073, -0.00041250914, 0.0018968327, -1394259.3, 15994.146 
1.6159834e+3, 1.6608477e+2, -1309608.4, -1454494.3, 6543.278, 0.0007929523, 0.0028901657, -1309313.5, 3056.0762 
1.6159545e+3, 1.7607231e+2, -1216967.1, -1359092.5, 6449.0933, 0.0027056665, 0.0019906622, -1216675.0, -2183.5254 
1.6159256e+3, 1.8605936e+2, -1131605.4, -1279175.9, 6400.89, 0.0011257844, 0.0025259398, -1131328.3, -14709.713 
1.6158965e+3, 1.9604585e+2, -1038486.0, -1183641.9, 6485.9937, -0.002810782, 0.0021650314, -1038196.8, -19445.957 
1.6158676e+3, 2.0603178e+2, -953209.6, -1104201.5, 6107.1646, -0.002042147, 0.002276161, -952963.0, -32074.328 
1.6158386e+3, 2.1601716e+2, -859951.56, -1008536.3, 6109.432, 0.0016489445, 0.00057217205, -859700.75, -36668.625 
1.6158095e+3, 2.2600198e+2, -774550.2, -928764.6, 5577.5605, 0.00205408, 0.00147365, -774348.75, -49167.96 
1.6157806e+3, 2.3598628e+2, -681490.8, -833104.7, 5414.0923, 0.00015046392, 0.0026221077, -681297.75, -53963.09 
1.6157514e+3, 2.4597003e+2, -596626.0, -753396.3, 4608.036, -0.0008600416, 0.0033109859, -596490.6, -66996.695 
1.615722e+3, 2.5595322e+2, -504332.28, -657948.44, 4462.1533, -0.0012238433, 0.001295962, -504202.78, -72544.18 
1.6156927e+3, 2.6593593e+2, -418759.63, -577468.44, 3900.3977, -0.000432513, 0.0016109592, -418663.8, -84835.695 
1.6156633e+3, 2.7591816e+2, -325221.94, -481350.1, 3908.5557, 0.0011974662, 0.0018812242, -325124.16, -89121.77 
1.6156338e+3, 2.8589976e+2, -240904.5, -402688.2, 2617.6072, 0.0012036016, 0.0022912866, -240862.16, -102679.66 
1.615604e+3, 2.9588082e+2, -149115.25, -307213.1, 2114.7842, -0.0009026979, 0.00013043573, -149086.97, -108718.97 
1.6155742e+3, 3.058648e+2, -65894.164, -178193.55, 955.66565, -0.0023010785, 0.0026791748, -65886.03, -65886.03 
1.6155443e+3, 3.158517e+2, -71265.53, -180176.44, 1378.1017, -0.00019787178, 0.007871647, -71248.1, -71248.1 
1.6155143e+3, 3.2584336e+2, -7536.5137, -39532.203, -116.17368, 0.0011257725, -0.002745491, -7536.092, -7536.092 
1.626378e+3, 3.6227906e+1, -2463931.0, -2593114.3, 1753.288, 0.0032794261, -0.0021883228, -2463907.3, 121059.5 
1.6263475e+3, 4.6222287e+1, -2375575.3, -2503475.3, 2913.7783, 0.0022467559, 0.010931015, -2375508.8, 111513.13 
1.6263166e+3, 5.621629e+1, -2285229.3, -2409696.0, 2998.545, -0.0027757792, 0.0017630188, -2285157.0, 103923.65 
1.6262864e+3, 6.6209775e+1, -2201202.5, -2330670.3, 5071.8145, -0.0018989415, 0.0002282368, -2201004.0, 90140.33 
1.6262563e+3, 7.6202774e+1, -2108523.8, -2235423.0, 5531.9536, 0.0019890098, 0.0021042475, -2108283.0, 84930.05 
1.6262263e+3, 8.619527e+1, -2022500.8, -2153828.8, 6409.3403, 0.001835758, 0.002929077, -2022188.6, 73097.93 
1.6261964e+3, 9.618728e+1, -1929590.0, -2058585.0, 6345.996, -0.00073270104, 0.001228662, -1929278.6, 68086.31 
1.6261667e+3, 1.0617873e+2, -1844915.1, -1979433.0, 7663.7383, -0.00057970226, 0.00221742, -1844479.9, 54968.79 
1.6261372e+3, 1.1616964e+2, -1752501.8, -1884303.6, 7664.954, 0.0010235646, 0.003214716, -1752057.4, 49480.332 
1.6261077e+3, 1.2616e+2, -1666839.8, -1804346.5, 8337.656, 0.00085421547, 0.0030536323, -1666336.0, 37296.39 
1.6260782e+3, 1.3614978e+2, -1572912.5, -1708423.1, 8296.431, -0.00023468782, 0.00042859802, -1572406.5, 33325.94 
1.6260488e+3, 1.4613904e+2, -1487695.1, -1629031.5, 9001.404, -0.00046006095, 0.001013699, -1487124.1, 20713.574 
1.6260195e+3, 1.5612775e+2, -1394949.1, -1533635.6, 8834.558, -0.00013945036, 0.0020469613, -1394388.6, 15559.615 
1.6259904e+3, 1.661159e+2, -1309701.0, -1454626.3, 8859.418, 0.00069304835, 0.0028629166, -1309161.4, 2903.1536 
1.625961e+3, 1.7610344e+2, -1215840.6, -1358604.1, 9003.957, 0.0019784842, 0.0017702489, -1215275.0, -1088.4518 
1.6259317e+3, 1.8609045e+2, -1130082.6, -1278739.9, 8933.775, 0.00091840257, 0.002363088, -1129547.6, -13233.884 
1.6259025e+3, 1.9607693e+2, -1036770.56, -1183123.9, 8837.54, -0.0017653038, 0.0022620833, -1036238.8, -17792.494 
1.6258731e+3, 2.0606284e+2, -951581.5, -1103643.5, 8343.9375, -0.0013284932, 0.0023047286, -951125.0, -30540.533 
1.625844e+3, 2.1604815e+2, -858541.56, -1008088.3, 8326.423, 0.0010938033, 0.00063197035, -858079.4, -35351.184 
1.6258146e+3, 2.2603297e+2, -773394.2, -928578.7, 7728.7383, 0.0013505138, 0.0016004961, -773010.25, -48133.117 
1.6257851e+3, 2.3601723e+2, -680553.25, -833007.8, 7610.793, 0.000060632912, 0.0026773636, -680174.25, -53142.85 
1.6257554e+3, 2.4600093e+2, -594967.7, -753066.25, 6781.409, -0.0005547169, 0.0034074166, -594677.3, -65486.28 
1.6257259e+3, 2.559841e+2, -501452.38, -656980.7, 6638.0303, -0.00070995395, 0.0015741781, -501169.6, -69813.55 
1.6256961e+3, 2.6596677e+2, -416269.5, -576766.7, 5807.9214, -0.0001873391, 0.0014389392, -416059.63, -82533.65 
1.6256665e+3, 2.759489e+2, -324048.06, -481289.78, 5417.5566, 0.0008633042, 0.00083955785, -323861.63, -88160.89 
1.6256365e+3, 2.859305e+2, -239688.75, -402508.03, 4237.368, 0.00081503997, 0.0025016074, -239578.55, -101697.42 
1.6256064e+3, 2.9591158e+2, -146760.36, -306467.06, 4426.376, -0.0008909002, 0.003034375, -146637.77, -106570.99 
1.6255762e+3, 3.0589548e+2, -63116.805, -177326.2, 3086.742, -0.0020454929, 0.0029650144, -63033.44, -63033.44 
1.6255459e+3, 3.1588224e+2, -68318.516, -179238.1, 2540.4927, -0.00053478405, 0.001996645, -68260.36, -68260.36 
1.6255154e+3, 3.2587394e+2, -4911.1616, -39105.84, 1240.9291, 0.0015819712, 0.001023674, -4866.1875, -4866.1875 
1.6363898e+3, 3.6259183e+1, -2462176.3, -2588025.0, -74.80437, -0.00015001495, -0.0020806864, -2462176.3, 122484.22 
1.6363585e+3, 4.625375e+1, -2376554.0, -2504633.0, 1181.3344, 0.0005474269, 0.016726322, -2376543.0, 110170.67 
1.6363274e+3, 5.624761e+1, -2285580.3, -2410345.5, 1386.1143, 0.0022759167, -0.0009767185, -2285564.8, 103208.914 
1.6362967e+3, 6.6241145e+1, -2200366.8, -2328980.0, 3904.7068, 0.0017265626, -0.0026083011, -2200248.3, 90588.75 
1.6362663e+3, 7.62343e+1, -2107945.8, -2234036.5, 4306.6523, -0.0010218552, 0.0043896586, -2107798.8, 85105.32 
1.6362359e+3, 8.6226845e+1, -2022865.8, -2154215.8, 5271.7646, -0.001185282, 0.005958152, -2022654.5, 72322.79 
1.6362058e+3, 9.621881e+1, -1929902.6, -2058848.5, 5219.541, 0.00037821083, 0.0022346242, -1929691.8, 67364.21 
1.6361757e+3, 1.0621026e+2, -1844857.3, -1978965.8, 6408.4863, 0.0008661693, 0.0012434494, -1844551.6, 54588.035 
1.6361457e+3, 1.16201185e+2, -1752299.9, -1883778.6, 6447.1035, 0.00045733183, 0.00042014994, -1751984.5, 49244.063 
1.6361159e+3, 1.2619157e+2, -1666843.5, -1804250.9, 7432.2236, 0.00013790664, 0.0018385446, -1666442.6, 36880.188 
1.6360863e+3, 1.3618141e+2, -1573061.4, -1708419.3, 7323.76, 0.00006456357, 0.0029170245, -1572666.3, 32756.201 
1.6360565e+3, 1.4617066e+2, -1488092.6, -1629454.6, 7766.519, 0.0005314436, 0.0035114728, -1487667.1, 19860.588 
1.6360268e+3, 1.5615933e+2, -1395203.9, -1533938.3, 7634.475, 0.0011675626, 0.0021034605, -1394785.0, 14853.803 
1.6359971e+3, 1.6614746e+2, -1309646.8, -1454280.6, 7884.705, -0.000005275516, 0.0021230476, -1309218.1, 2536.937 
1.6359676e+3, 1.7613503e+2, -1215871.0, -1358412.5, 7989.705, -0.00222887, 0.001164919, -1215424.5, -1547.7393 
1.6359381e+3, 1.8612204e+2, -1130647.3, -1279611.8, 7772.8843, -0.00075608294, 0.001789613, -1130242.8, -14238.579 
1.6359086e+3, 1.9610846e+2, -1037306.1, -1183907.3, 7698.0366, 0.0029556951, 0.0016981815, -1036903.0, -18765.717 
1.635879e+3, 2.0609432e+2, -951933.94, -1104166.4, 7117.614, 0.0022109638, 0.0024361536, -951601.9, -31326.107 
1.6358492e+3, 2.1607965e+2, -858842.06, -1008615.56, 7122.8345, -0.0015115958, 0.0023398232, -858504.06, -36084.43 
1.6358195e+3, 2.2606443e+2, -773660.4, -929057.06, 6443.0015, -0.0018996482, 0.002822045, -773393.7, -48824.785 
1.6357897e+3, 2.3604861e+2, -680769.8, -833492.0, 6355.5645, -0.00015747975, 0.0013128275, -680505.8, -53782.074 
1.6357599e+3, 2.4603228e+2, -595197.3, -753629.44, 5628.593, 0.0008561542, 0.0018004103, -594997.56, -66113.83 
1.63573e+3, 2.5601545e+2, -501744.25, -657596.9, 5469.604, 0.0012688522, 0.001744905, -501552.53, -70503.58 
1.6356999e+3, 2.65998e+2, -416885.56, -578102.4, 4357.1284, 0.00017684785, 0.0019856198, -416767.9, -83548.36 
1.6356696e+3, 2.7598011e+2, -324519.4, -482409.7, 4032.808, -0.001792421, 0.0004971611, -324416.47, -89021.17 
1.6356392e+3, 2.8596166e+2, -239246.8, -401761.44, 2977.691, -0.000956625, 0.002915169, -239192.25, -101616.55 
1.6356088e+3, 2.959428e+2, -146413.97, -305958.16, 3120.716, 0.001107583, 0.005577047, -146352.95, -106592.27 
1.6355783e+3, 3.0592656e+2, -64317.707, -179926.3, 1796.2681, -0.000025611751, 0.0015514077, -64289.805, -64289.805 
1.6355474e+3, 3.1591308e+2, -69595.36, -181702.92, 1352.8898, -0.0022061043, -0.008300227, -69579.04, -69579.04 
1.6355166e+3, 3.2590494e+2, -4091.3909, -37217.87, -270.9487, 0.000795706, 0.009375165, -4089.175, -4089.175 
1.6464013e+3, 3.6290967e+1, -2465501.0, -2586583.3, 1688.8073, -0.001473562, -0.0019989337, -2465477.5, 118871.52 
1.6463697e+3, 4.6285632e+1, -2379671.0, -2506108.3, 3201.5964, -0.00019623103, 0.014518025, -2379590.0, 106811.14 
1.6463381e+3, 5.6279534e+1, -2286173.8, -2410453.8, 3721.6548, 0.0030491597, 0.00039328495, -2286062.5, 102398.44 
1.646307e+3, 6.6273093e+1, -2200360.8, -2328516.8, 6026.732, 0.00261818, -0.0013075838, -2200077.8, 90446.18 
1.6462761e+3, 7.626627e+1, -2108952.0, -2234007.3, 6039.2734, -0.00089996465, 0.00355199, -2108661.0, 83929.78 
1.6462454e+3, 8.625885e+1, -2024429.5, -2154609.5, 7257.0356, -0.0012078024, 0.004997925, -2024026.1, 70637.39 
1.6462149e+3, 9.625086e+1, -1931571.6, -2059289.9, 7473.8706, 0.0007569799, 0.0023998148, -1931135.8, 65606.16 
1.6461845e+3, 1.06242344e+2, -1845822.8, -1979172.0, 8814.659, 0.0010487152, 0.0017578752, -1845242.6, 53582.69 
1.6461542e+3, 1.1623329e+2, -1751964.6, -1883298.0, 8763.372, 0.00017916749, 0.00075795443, -1751382.5, 49531.484 
1.646124e+3, 1.2622368e+2, -1666592.3, -1804011.8, 9758.091, 0.00012357705, 0.0019881225, -1665902.8, 37105.31 
1.6460942e+3, 1.3621353e+2, -1573435.1, -1708474.3, 9617.19, 0.0005970906, 0.0029547648, -1572753.6, 32354.006 
1.646064e+3, 1.4620277e+2, -1488071.3, -1629410.0, 10145.476, 0.00076101633, 0.0034455936, -1487346.8, 19866.31 
1.6460341e+3, 1.5619145e+2, -1394174.4, -1533387.5, 10135.428, 0.0006820991, 0.0018732667, -1393440.4, 15883.738 
1.6460043e+3, 1.6617957e+2, -1308426.5, -1453959.0, 10347.016, -0.00013524816, 0.002050934, -1307694.5, 3745.9988 
1.6459744e+3, 1.7616712e+2, -1214805.3, -1358111.3, 10147.023, -0.0013646013, 0.0015333461, -1214090.3, -527.8405 
1.6459444e+3, 1.861541e+2, -1129652.6, -1279296.5, 9850.054, -0.0002750172, 0.0019956308, -1129007.0, -13316.927 
1.6459146e+3, 1.9614048e+2, -1036314.75, -1183624.4, 9991.311, 0.0022194693, 0.0015454693, -1035640.2, -17816.71 
1.6458847e+3, 2.0612633e+2, -950688.6, -1103979.8, 9467.368, 0.0016540809, 0.0023733145, -950106.1, -30143.955 
1.6458546e+3, 2.1611162e+2, -857086.0, -1008171.5, 9413.002, -0.0009774092, 0.0025436357, -856501.8, -34395.41 
1.6458246e+3, 2.2609633e+2, -771530.7, -928468.06, 8576.266, -0.0013739916, 0.0028580576, -771063.44, -46807.3 
1.6457944e+3, 2.360805e+2, -678317.75, -832752.9, 8428.914, -0.0003725746, 0.0008866547, -677859.06, -51447.703 
1.6457643e+3, 2.4606411e+2, -593137.7, -753013.2, 7607.581, 0.00059409003, 0.001539485, -592776.5, -64204.69 
1.645734e+3, 2.5604725e+2, -500396.6, -657349.44, 7373.987, 0.0014707926, 0.0023398357, -500050.9, -69313.56 
1.6457035e+3, 2.6602978e+2, -415325.13, -577919.2, 6253.1147, 0.00025751398, 0.0026942268, -415085.0, -82176.66 
1.6456729e+3, 2.7601177e+2, -322250.84, -481810.9, 6170.29, -0.002207873, 0.00061980623, -322012.6, -86927.93 
1.6456422e+3, 2.8599334e+2, -236400.19, -400740.72, 4948.433, -0.0011315021, 0.002402657, -236251.33, -98985.85 
1.6456115e+3, 2.9597443e+2, -143368.2, -304847.0, 4509.4116, 0.0019118408, 0.004402148, -143242.38, -103791.6 
1.6455804e+3, 3.0595812e+2, -62120.566, -180056.98, 2941.6018, 0.0005453808, 0.0017613018, -62047.242, -62047.242 
1.6455492e+3, 3.1594455e+2, -68464.41, -182110.94, 2952.751, -0.0030859835, -0.0053605796, -68387.74, -68387.74 
1.645518e+3, 3.2593644e+2, -1317.7277, -33915.53, 1575.5923, 0.0004918201, 0.007850468, -1241.7496, -1241.7496 
1.6564126e+3, 3.6323196e+1, -2464311.0, -2583621.3, 286.76935, -0.0017708638, -0.0016663491, -2464310.3, 119722.75 
1.6563804e+3, 4.6317905e+1, -2379663.3, -2505559.5, 2114.026, -0.00050920044, 0.007296062, -2379627.8, 106457.07 
1.6563487e+3, 5.6311965e+1, -2286278.3, -2410048.3, 2589.9028, 0.001041948, 0.0044009406, -2286224.0, 101918.99 
1.6563173e+3, 6.6305536e+1, -2200779.3, -2328762.8, 4481.9165, 0.0017294075, 0.0026539352, -2200622.5, 89583.54 
1.656286e+3, 7.629864e+1, -2109120.0, -2234035.0, 4578.833, 0.0009925443, 0.0008038506, -2108952.3, 83321.26 
1.6562548e+3, 8.6291254e+1, -2024085.4, -2153742.8, 6107.418, 0.00045353264, 0.0016721461, -2023798.4, 70547.6 
1.656224e+3, 9.628336e+1, -1931149.5, -2058437.8, 6334.7515, 0.00044474629, 0.002108047, -1930835.0, 65588.37 
1.6561933e+3, 1.06274895e+2, -1845778.6, -1979007.0, 7901.6167, 0.00028195835, 0.0032422345, -1845311.6, 53194.684 
1.6561627e+3, 1.1626586e+2, -1752047.1, -1883199.3, 7822.484, -0.00012521476, 0.0030684297, -1751582.1, 49012.62 
1.6561323e+3, 1.2625626e+2, -1666786.1, -1804041.8, 8665.936, 0.0003547011, 0.0030258554, -1666241.1, 36447.79 
1.656102e+3, 1.3624609e+2, -1573511.3, -1708415.5, 8542.65, 0.0010151796, 0.0012948631, -1572972.5, 31816.193 
1.6560717e+3, 1.4623533e+2, -1488069.1, -1629282.8, 9207.674, 0.00027915539, 0.0015923538, -1487471.3, 19422.629 
1.6560414e+3, 1.5622403e+2, -1394229.0, -1533393.3, 9159.027, -0.0011606409, 0.0014074575, -1393628.9, 15375.839 
1.6560112e+3, 1.6621213e+2, -1309033.4, -1454924.8, 9309.896, -0.000015923988, 0.0024431052, -1308441.6, 2679.66 
1.6559811e+3, 1.7619963e+2, -1215337.8, -1358950.6, 9132.598, 0.002723503, 0.0025803777, -1214759.3, -1515.4476 
1.655951e+3, 1.8618658e+2, -1129752.8, -1279309.8, 8736.927, 0.0013750676, 0.0027788137, -1129244.0, -13872.327 
1.6559206e+3, 1.9617297e+2, -1036394.44, -1183671.5, 8873.697, -0.002587493, 0.0016214284, -1035861.7, -18356.605 
1.6558903e+3, 2.061588e+2, -951047.44, -1104646.4, 8379.212, -0.0018742204, 0.0021499253, -950591.7, -30947.643 
1.6558601e+3, 2.1614403e+2, -857523.2, -1008923.44, 8325.558, 0.0016485344, 0.0017248675, -857066.75, -35277.94 
1.6558298e+3, 2.261287e+2, -771974.1, -929245.5, 7374.9824, 0.0016756905, 0.0022065984, -771629.06, -47690.035 
1.6557993e+3, 2.361128e+2, -678704.2, -833458.6, 7240.05, -0.00074583275, 0.0011727028, -678366.2, -52271.508 
1.6557686e+3, 2.4609639e+2, -593478.5, -753784.6, 6270.065, -0.0009764639, 0.0022890589, -593233.6, -64978.09 
1.655738e+3, 2.5607947e+2, -500675.5, -658086.4, 6076.493, 0.0001694562, 0.0032576737, -500441.28, -70019.71 
1.6557072e+3, 2.66062e+2, -415375.94, -578166.9, 4992.9717, -0.000034367964, 0.0034453466, -415222.97, -82630.016 
1.6556762e+3, 2.7604395e+2, -322354.72, -482196.84, 4949.899, -0.0009833219, 0.00097239565, -322201.56, -87432.08 
1.6556452e+3, 2.8602543e+2, -237041.66, -402140.2, 3763.775, -0.00021166995, 0.0010943094, -236955.89, -100004.78 
1.6556141e+3, 2.9600638e+2, -144066.58, -306362.25, 3320.185, 0.0013216394, 0.00032705086, -143998.69, -104861.01 
1.6555825e+3, 3.0599004e+2, -62377.88, -180758.11, 1401.8395, -0.00043664253, 0.0031076262, -62361.28, -62361.28 
1.6555509e+3, 3.1597653e+2, -68446.75, -182363.31, 1514.493, -0.003454878, 0.007343027, -68426.62, -68426.62 
1.6555193e+3, 3.259683e+2, -279.26474, -31569.65, 233.0242, 0.00017710288, -0.001542222, -277.52948, -277.52948 
1.6664237e+3, 3.635592e+1, -2466173.8, -2584283.5, 1954.1279, -0.0012524248, 0.0030835706, -2466141.5, 117570.85 
1.6663913e+3, 4.6350545e+1, -2381738.3, -2505733.5, 3720.8489, -0.00055160624, -0.0012226994, -2381626.5, 104138.29 
1.6663593e+3, 5.6344754e+1, -2288987.3, -2410499.5, 4251.584, 0.0009877891, 0.004109797, -2288838.5, 98983.125 
1.6663274e+3, 6.633842e+1, -2203337.0, -2329295.3, 6236.798, 0.0016370781, 0.004485652, -2203029.0, 86854.74 
1.6662957e+3, 7.6331574e+1, -2110851.3, -2234173.5, 6708.2686, 0.0007766516, 0.0009894401, -2110487.3, 81463.484 
1.6662642e+3, 8.6324227e+1, -2025104.4, -2153881.5, 8561.453, 0.00046343944, 0.0013202638, -2024537.6, 69485.234 
1.6662331e+3, 9.631636e+1, -1931231.0, -2058059.0, 8592.981, 0.00092506723, 0.0019082212, -1930651.4, 65448.555 
1.6662021e+3, 1.06307924e+2, -1845999.1, -1978794.4, 10116.116, 0.0007488251, 0.0031288792, -1845232.9, 52949.66 
1.6661713e+3, 1.1629893e+2, -1753051.6, -1883353.8, 10098.731, 0.000032512264, 0.0030061891, -1752273.5, 47997.23 
1.6661406e+3, 1.2628934e+2, -1667577.6, -1804282.8, 11117.858, 0.00019012853, 0.0029966438, -1666679.3, 35685.426 
1.6661099e+3, 1.3627918e+2, -1573324.4, -1708178.6, 11017.919, 0.0006350423, 0.0012388555, -1572430.1, 32034.299 
1.6660792e+3, 1.4626843e+2, -1487595.1, -1629243.9, 11643.774, 0.00032499086, 0.0016146445, -1486644.4, 19925.303 
1.6660488e+3, 1.562571e+2, -1393565.6, -1533199.4, 11408.067, -0.000414888, 0.0016099579, -1392639.8, 16040.912 
1.6660184e+3, 1.6624519e+2, -1308150.0, -1454551.6, 11652.937, 0.0002969566, 0.0025173228, -1307228.3, 3569.086 
1.665988e+3, 1.7623268e+2, -1214356.4, -1358533.3, 11795.457, 0.0019954632, 0.0024147567, -1213397.8, -477.71005 
1.6659574e+3, 1.862196e+2, -1128481.4, -1279208.4, 11369.665, 0.000962234, 0.002758074, -1127628.5, -12580.383 
1.6659267e+3, 1.9620594e+2, -1034411.9, -1183180.4, 11216.583, -0.0018490748, 0.0018991932, -1033570.94, -16388.97 
1.6658962e+3, 2.0619172e+2, -948965.8, -1104049.5, 10515.562, -0.0012859458, 0.0022500036, -948256.06, -28934.63 
1.6658658e+3, 2.161769e+2, -855743.7, -1008494.1, 10484.551, 0.0012110072, 0.001389333, -855027.44, -33560.83 
1.665835e+3, 2.2616152e+2, -770316.9, -928872.3, 9518.513, 0.0012859132, 0.0021058898, -769747.5, -46130.27 
1.6658042e+3, 2.3614562e+2, -676972.6, -833079.6, 9420.822, -0.00021297233, 0.0020021053, -676406.1, -50632.89 
1.6657732e+3, 2.4612914e+2, -591392.25, -753322.25, 8353.343, -0.0006280904, 0.0026100574, -590962.44, -63027.832 
1.6657422e+3, 2.5611213e+2, -497794.56, -657264.7, 8100.55, -0.0003753938, 0.001929601, -497384.13, -67282.805 
1.6657111e+3, 2.660946e+2, -412546.56, -577299.6, 6722.393, -0.00027870882, 0.0026981106, -412272.72, -79999.55 
1.6656798e+3, 2.7607653e+2, -320001.66, -481542.7, 6436.347, -0.00016985601, 0.0023280347, -319745.63, -85295.59 
1.6656484e+3, 2.8605795e+2, -235157.27, -401876.7, 5284.6475, 0.0001643979, 0.0017889669, -234989.92, -98357.664 
1.6656168e+3, 2.960388e+2, -142518.33, -306210.2, 5010.7354, 0.00030347903, -0.0014750672, -142365.1, -103545.45 
1.6655849e+3, 3.060225e+2, -59681.832, -179427.14, 3195.3245, -0.0009963261, 0.00268088, -59596.625, -59596.625 
1.6655529e+3, 3.16009e+2, -64443.23, -180638.31, 3451.6917, -0.0023839548, 0.011020602, -64340.785, -64340.785 
1.6655208e+3, 3.2600054e+2, 2907.4014, -32474.758, 779.0979, 0.0010787832, -0.0044355397, 2924.5486, 2924.5486 
1.6764349e+3, 3.6389074e+1, -2467170.5, -2585757.0, 392.3631, -0.0006589949, 0.009928687, -2467169.3, 116218.16 
1.6764021e+3, 4.6383557e+1, -2381390.8, -2504620.3, 2462.9446, -0.00041804122, -0.009833123, -2381341.8, 104099.62 
1.6763696e+3, 5.637791e+1, -2288564.5, -2409312.0, 3001.9292, 0.0018621992, 0.0013177281, -2288489.8, 99006.83 
1.6763374e+3, 6.637171e+1, -2202806.3, -2327886.8, 4933.4116, 0.001780558, 0.005068453, -2202612.0, 86945.445 
1.6763054e+3, 7.636498e+1, -2110333.8, -2232904.8, 5411.967, -0.00083242514, 0.0030289306, -2110095.3, 81528.3 
1.6762736e+3, 8.635767e+1, -2025263.3, -2153841.0, 7598.453, -0.0005779802, 0.0027870466, -2024815.8, 68879.29 
1.6762422e+3, 9.6349806e+1, -1931434.8, -2057985.6, 7652.218, 0.0017172366, 0.0017358385, -1930973.8, 64798.438 
1.6762108e+3, 1.0634139e+2, -1846015.8, -1978368.6, 8987.34, 0.0017994873, 0.0020332655, -1845408.3, 52446.387 
1.6761796e+3, 1.1633242e+2, -1752897.6, -1882873.0, 8994.207, 0.00024342576, 0.001319663, -1752278.3, 47664.27 
1.6761486e+3, 1.2632287e+2, -1667527.3, -1804106.8, 10284.975, -0.00038264986, 0.002183085, -1666757.0, 35279.06 
1.6761178e+3, 1.3631272e+2, -1573332.4, -1708098.6, 10163.115, -0.00038123684, 0.0022310524, -1572570.3, 31565.17 
1.676087e+3, 1.4630197e+2, -1487996.0, -1629856.3, 10753.351, 0.00051873253, 0.0029420776, -1487185.5, 19055.348 
1.6760561e+3, 1.562906e+2, -1393874.9, -1533637.3, 10523.643, 0.0017749846, 0.002270406, -1393086.9, 15265.444 
1.6760254e+3, 1.6627869e+2, -1308062.1, -1454131.4, 10660.722, 0.0004949991, 0.0023654841, -1307288.1, 3180.8896 
1.6759947e+3, 1.7626621e+2, -1214303.5, -1358296.9, 10762.527, -0.0022602447, 0.0013632927, -1213503.5, -912.04083 
1.6759638e+3, 1.862531e+2, -1129125.9, -1280434.9, 10394.9795, -0.0009818036, 0.0021743434, -1128415.0, -13695.163 
1.6759332e+3, 1.9623937e+2, -1035056.94, -1184401.5, 10255.462, 0.0026272594, 0.0023672504, -1034356.0, -17501.572 
1.6759022e+3, 2.0622508e+2, -949351.25, -1104664.3, 9345.023, 0.0019227884, 0.0026770234, -948791.0, -29796.557 
1.6758712e+3, 2.1621022e+2, -856036.2, -1009031.4, 9338.519, -0.001740166, 0.0013059004, -855468.3, -34328.18 
1.6758403e+3, 2.2619481e+2, -770572.06, -929498.1, 8324.957, -0.0017105348, 0.0023058888, -770137.1, -46846.105 
1.6758092e+3, 2.3617886e+2, -677230.56, -833700.6, 8244.991, 0.0008797841, 0.0031161723, -676797.3, -51349.934 
1.6757779e+3, 2.4616233e+2, -591811.2, -754242.2, 7205.015, 0.0010209257, 0.0025559748, -591492.2, -63882.816 
1.6757466e+3, 2.5614524e+2, -498306.66, -658234.3, 6962.8574, -0.0005829113, -0.0011369567, -498004.1, -68227.09 
1.6757151e+3, 2.6612762e+2, -413119.8, -578597.7, 5350.4136, -0.00064807525, 0.0008030495, -412947.0, -80997.49 
1.6756834e+3, 2.7610952e+2, -320368.8, -482687.63, 5122.836, 0.0002814425, 0.0044639437, -320207.28, -86080.44 
1.6756515e+3, 2.8609088e+2, -235272.28, -402327.2, 4048.914, -0.000104279934, 0.0039347173, -235174.22, -98864.56 
1.6756195e+3, 2.9607168e+2, -142658.5, -306605.97, 3843.351, -0.0015442432, -0.0019298831, -142568.44, -104070.8 
1.6755874e+3, 3.0605534e+2, -59413.117, -179103.28, 2054.2432, -0.0013233458, 0.00068637845, -59377.87, -59377.87 
1.675555e+3, 3.1604186e+2, -64581.66, -181331.73, 2199.0488, 0.00036618687, 0.00815154, -64540.258, -64540.258 
1.6755223e+3, 3.2603312e+2, -706.86255, -40018.996, -201.5035, 0.0011650998, -0.0031709892, -705.8297, -705.8297 
1.6864459e+3, 3.6422524e+1, -2470232.5, -2587768.5, 1764.779, 0.00014287402, 0.007799421, -2470206.0, 112853.445 
1.6864127e+3, 4.6417102e+1, -2383409.8, -2503996.8, 4330.2134, 0.00023077037, -0.008419393, -2383254.5, 101858.16 
1.6863799e+3, 5.641159e+1, -2290591.8, -2408773.8, 5093.6406, 0.0015498131, 0.0016528479, -2290372.8, 96794.01 
1.6863474e+3, 6.640546e+1, -2205098.5, -2328458.8, 6960.4414, 0.0014782742, 0.004600939, -2204707.0, 84519.805 
1.686315e+3, 7.639878e+1, -2112168.0, -2233096.3, 7123.6987, -0.00027247495, 0.0020800175, -2111749.8, 79542.5 
1.6862829e+3, 8.639154e+1, -2027050.0, -2153809.0, 9597.612, -0.0002632868, 0.0021806424, -2026327.4, 67035.69 
1.6862512e+3, 9.6383756e+1, -1933623.6, -2058192.3, 9969.262, 0.0010005357, 0.001912733, -1932830.9, 62608.535 
1.6862196e+3, 1.0637539e+2, -1847793.1, -1979069.9, 11459.725, 0.0012173381, 0.0022460327, -1846800.3, 50721.19 
1.6861881e+3, 1.1636643e+2, -1753190.5, -1882803.5, 11346.855, 0.0004940287, 0.0012024908, -1752204.6, 47404.574 
1.6861567e+3, 1.263569e+2, -1667276.0, -1803876.8, 12653.398, 0.000099392215, 0.002009562, -1666113.8, 35588.92 
1.6861255e+3, 1.3634677e+2, -1573076.5, -1707821.8, 12479.333, 0.000040319635, 0.0022881979, -1571930.5, 31871.48 
1.6860946e+3, 1.4633602e+2, -1487627.4, -1629558.9, 13206.437, 0.0005592319, 0.0030607805, -1486409.0, 19498.309 
1.6860634e+3, 1.5632464e+2, -1393276.3, -1533309.3, 13208.514, 0.0012753791, 0.002403713, -1392041.4, 15977.378 
1.6860324e+3, 1.663127e+2, -1307342.4, -1454352.1, 13134.012, 0.000347295, 0.002496268, -1306178.3, 3957.5542 
1.6860014e+3, 1.7630015e+2, -1212938.8, -1358130.9, 12760.031, -0.001569698, 0.0014066292, -1211825.9, 432.7802 
1.6859704e+3, 1.86287e+2, -1127467.6, -1279814.5, 12393.349, -0.00052039756, 0.0020750137, -1126466.0, -12078.478 
1.6859393e+3, 1.9627325e+2, -1033524.7, -1183853.6, 12587.263, 0.0021981136, 0.0020516487, -1032478.06, -15955.697 
1.6859081e+3, 2.0625892e+2, -947635.7, -1104398.3, 11689.524, 0.0015118781, 0.0026081833, -946768.8, -28106.068 
1.685877e+3, 2.1624401e+2, -853803.44, -1008512.2, 11626.083, -0.0013417893, 0.0019132874, -852934.6, -32125.75 
1.6858457e+3, 2.2622855e+2, -768008.5, -928942.94, 10453.442, -0.0011983353, 0.002459951, -767332.3, -44371.9 
1.6858143e+3, 2.3621252e+2, -674239.56, -832933.94, 10193.278, 0.00093524205, 0.0021357979, -673587.5, -48469.984 
1.6857827e+3, 2.4619594e+2, -589335.44, -753547.7, 8874.575, 0.0007952938, 0.002254088, -588857.2, -61577.16 
1.685751e+3, 2.561788e+2, -496965.78, -658101.06, 8661.195, -0.0008277607, 0.00019374302, -496501.56, -67053.53 
1.685719e+3, 2.6616114e+2, -411091.88, -578044.7, 7313.0923, -0.0005924016, 0.0013524835, -410772.16, -79151.07 
1.685687e+3, 2.7614298e+2, -316496.06, -481253.03, 7167.767, 0.0007916847, 0.0029278027, -316184.8, -82385.7 
1.6856548e+3, 2.8612426e+2, -231595.44, -401421.9, 5534.6455, 0.000044458873, 0.0037337025, -231415.25, -95432.83 
1.6856225e+3, 2.9610503e+2, -140529.05, -306265.6, 5084.932, -0.0018249727, 0.0012987606, -140373.19, -102202.33 
1.6855898e+3, 3.060886e+2, -57359.21, -178666.48, 3183.2546, -0.0010276205, 0.000760443, -57275.74, -57275.74 
1.685557e+3, 3.1607503e+2, -61639.766, -180496.42, 2680.191, 0.00094986084, 0.0010101884, -61579.36, -61579.36 
1.6855241e+3, 3.2606632e+2, 3230.693, -38777.61, 1632.474, 0.00068694557, 0.0020092526, 3294.0366, 3294.0366 
1.6964568e+3, 3.6456323e+1, -2470602.0, -2588377.5, 164.50069, 0.00065065385, 0.0010162974, -2470601.8, 112126.375 
1.6964233e+3, 4.6451122e+1, -2382367.8, -2501564.3, 3095.7507, 0.0010018632, -0.001231008, -2382287.3, 102491.836 
1.69639e+3, 5.644573e+1, -2289974.0, -2406821.3, 3781.006, 0.00045517026, 0.0038911898, -2289852.0, 96980.195 
1.6963571e+3, 6.6439646e+1, -2205494.0, -2328508.0, 5765.331, 0.00083790836, 0.0036060328, -2205224.3, 83667.38 
1.6963245e+3, 7.6432955e+1, -2112213.5, -2232779.3, 6014.273, 0.0013965467, -0.0006622154, -2111914.3, 79043.055 
1.6962922e+3, 8.642581e+1, -2026400.3, -2152232.5, 8588.575, 0.0007109652, 0.00043039967, -2025816.8, 67210.54 
1.69626e+3, 9.641816e+1, -1932999.6, -2056785.3, 8934.162, -0.0007757915, 0.0024003468, -1932358.1, 62744.074 
1.6962281e+3, 1.0640984e+2, -1847899.6, -1979078.3, 10700.807, -0.0004794793, 0.0032860935, -1847032.5, 50151.33 
1.6961965e+3, 1.1640089e+2, -1753285.8, -1882772.5, 10628.141, 0.0005927125, 0.0020541882, -1752419.1, 46852.41 
1.6961649e+3, 1.2639135e+2, -1667405.8, -1803878.9, 11860.513, 0.0010676369, 0.0022818216, -1666382.6, 34982.383 
1.6961336e+3, 1.3638122e+2, -1573131.4, -1707725.8, 11683.646, 0.0010967694, 0.0015603494, -1572124.8, 31339.578 
1.6961022e+3, 1.463705e+2, -1487494.0, -1629164.9, 12387.71, 0.00023111117, 0.0021461248, -1486419.0, 19150.387 
1.6960709e+3, 1.5635917e+2, -1393220.3, -1533183.9, 12343.481, -0.0012514035, 0.0020138058, -1392140.0, 15540.4375 
1.6960397e+3, 1.6634716e+2, -1308154.6, -1455991.3, 12309.308, -0.00018851756, 0.0027549625, -1307136.8, 2661.3047 
1.6960084e+3, 1.7633452e+2, -1213616.4, -1359522.5, 11972.451, 0.0022723563, 0.0021450492, -1212640.5, -718.39984 
1.695977e+3, 1.8632133e+2, -1127366.0, -1279619.5, 11473.51, 0.0012154531, 0.0022685977, -1126506.3, -12454.98 
1.6959457e+3, 1.9630757e+2, -1033452.56, -1183741.6, 11627.0205, -0.001974059, 0.0011321807, -1032558.4, -16372.372 
1.6959143e+3, 2.0629323e+2, -948050.0, -1105298.6, 10633.154, -0.0014972194, 0.0021999748, -947334.25, -29007.66 
1.6958828e+3, 2.1627827e+2, -854237.8, -1009466.9, 10575.505, 0.0013021018, 0.0030249148, -853520.6, -33047.45 
1.6958512e+3, 2.2626272e+2, -768610.0, -930171.75, 9383.074, 0.0015406907, 0.0026822698, -768066.9, -45441.34 
1.6958195e+3, 2.3624659e+2, -674903.94, -834201.6, 9117.026, -0.000074144446, -0.00034190892, -674383.8, -49600.125 
1.6957875e+3, 2.4622995e+2, -589680.5, -754388.3, 7433.364, -0.00093051046, 0.0017932784, -589345.75, -62398.94 
1.6957554e+3, 2.562128e+2, -497135.5, -658827.4, 7320.651, -0.0012973318, 0.0048592594, -496804.75, -67689.87 
1.6957231e+3, 2.6619506e+2, -411200.97, -578480.2, 6463.949, -0.000433059, 0.003756921, -410951.56, -79663.03 
1.6956909e+3, 2.7617678e+2, -316921.34, -482004.47, 6234.776, 0.0011225715, -0.0015822185, -316686.22, -83218.664 
1.6956583e+3, 2.8615803e+2, -232453.34, -403118.0, 3845.127, 0.00030798104, 0.0017088007, -232366.75, -96715.28 
1.6956253e+3, 2.9613876e+2, -141070.22, -307885.38, 3581.8828, -0.0011693117, 0.007687796, -140993.34, -103153.04 
1.6955926e+3, 3.0612215e+2, -57934.88, -180315.0, 2336.2043, -0.00070051115, 0.002331803, -57890.3, -57890.3 
1.6955595e+3, 3.1610832e+2, -62093.465, -181414.48, 1868.956, -0.0011357251, -0.010979013, -62064.2, -62064.2 
1.6955261e+3, 3.2609996e+2, 5255.8794, -34676.563, 502.19696, -0.00019683866, 0.011724689, 5262.1943, 5262.1943 
1.7064677e+3, 3.6490676e+1, -2473182.3, -2589520.8, 2132.968, 0.0022794146, 0.0018258935, -2473143.0, 109248.45 
1.7064337e+3, 4.648555e+1, -2384995.3, -2501614.8, 4927.1714, 0.0019522327, -0.00029358096, -2384787.5, 99654.3 
1.7064e+3, 5.648024e+1, -2294160.5, -2407546.5, 5298.279, -0.00086861267, 0.0027692884, -2293913.3, 92580.47 
1.7063668e+3, 6.647428e+1, -2209310.3, -2329062.0, 8033.2236, -0.00065077085, 0.002925699, -2208773.8, 79778.516 
1.7063339e+3, 7.646772e+1, -2114623.0, -2232704.0, 8721.165, 0.0015958545, 0.0005668756, -2113982.3, 76634.28 
1.7063013e+3, 8.646064e+1, -2028342.8, -2152812.0, 11147.384, 0.001435721, 0.0013933076, -2027352.4, 65333.66 
1.7062688e+3, 9.6453005e+1, -1934200.0, -2056889.3, 11032.114, -0.00046741753, 0.0018837224, -1933215.9, 61544.977 
1.7062367e+3, 1.0644473e+2, -1848636.3, -1978760.8, 12955.077, -0.00046638513, 0.0027307717, -1847359.0, 49482.844 
1.7062049e+3, 1.1643583e+2, -1754047.4, -1882509.4, 13124.522, 0.0006484542, 0.0023729831, -1752720.3, 46208.8 
1.7061731e+3, 1.2642632e+2, -1668164.3, -1804163.5, 14436.284, 0.0010197752, 0.0027373012, -1666648.8, 34373.43 
1.7061415e+3, 1.364162e+2, -1573389.1, -1707789.9, 14250.539, 0.00073876325, 0.0016519495, -1571894.8, 31226.736 
1.7061098e+3, 1.4640546e+2, -1487374.3, -1629408.6, 14794.078, 0.000091682996, 0.002040453, -1485849.6, 19377.125 
1.7060784e+3, 1.563941e+2, -1392384.9, -1532966.0, 14391.731, -0.0009218894, 0.001785521, -1390926.8, 16411.422 
1.7060469e+3, 1.6638207e+2, -1306686.9, -1455316.4, 14604.793, 0.00009101843, 0.002590453, -1305265.4, 4190.4956 
1.7060153e+3, 1.7636941e+2, -1211885.5, -1358798.4, 14856.514, 0.0021953622, 0.0022832763, -1210398.3, 1181.7507 
1.7059837e+3, 1.8635619e+2, -1125671.1, -1279477.4, 14192.57, 0.0010682029, 0.002586561, -1124372.5, -10662.88 
1.7059521e+3, 1.9634238e+2, -1031468.1, -1183413.5, 13898.381, -0.00184637, 0.0016533255, -1030207.3, -14362.299 
1.7059205e+3, 2.0632794e+2, -945820.56, -1104847.5, 12667.967, -0.0011717046, 0.0022359975, -944817.8, -26831.475 
1.7058887e+3, 2.1631293e+2, -851768.4, -1008862.0, 12580.281, 0.0016917682, 0.002066989, -850767.3, -30633.738 
1.7058568e+3, 2.2629732e+2, -766269.44, -929569.06, 11336.534, 0.0013859111, 0.0023816095, -765486.2, -43199.7 
1.7058247e+3, 2.3628114e+2, -673024.4, -833863.5, 11226.506, -0.0010243366, 0.00083268306, -672244.56, -47799.5 
1.7057925e+3, 2.4626443e+2, -586833.06, -753754.0, 9532.671, -0.0009946203, 0.0024948013, -586290.44, -59681.617 
1.70576e+3, 2.562472e+2, -492296.28, -657163.1, 9260.61, 0.0005290148, 0.0043617818, -491777.72, -63000.043 
1.7057274e+3, 2.662294e+2, -407674.28, -577633.2, 7874.728, 0.00033531827, 0.0032898728, -407310.2, -76358.06 
1.7056948e+3, 2.7621105e+2, -316585.9, -482593.0, 7308.0127, -0.0009286008, -0.0015320042, -316264.8, -83132.93 
1.7056619e+3, 2.8619224e+2, -230672.73, -402323.28, 5264.064, -0.0009742415, 0.0016603734, -230511.45, -95195.22 
1.7056286e+3, 2.9617298e+2, -135731.98, -305675.44, 5500.57, 0.00068701326, 0.007449022, -135554.14, -98048.91 
1.7055954e+3, 3.0615625e+2, -54208.563, -180189.28, 3950.6672, 0.0009580979, 0.0029233221, -54084.793, -54084.793 
1.7055617e+3, 3.1614223e+2, -60852.793, -181870.67, 3199.5208, -0.001855065, -0.008989333, -60768.26, -60768.26 
1.705528e+3, 3.2613397e+2, 7046.8975, -31282.3, 1346.3778, -0.0017538372, 0.010617077, 7094.133, 7094.133 
1.7164785e+3, 3.6525536e+1, -2473308.0, -2588950.8, 692.4611, 0.0044532395, 0.0068261, -2473304.0, 108746.04 
1.7164439e+3, 4.6520394e+1, -2384925.8, -2500820.8, 3272.916, 0.0026857888, -0.0028606171, -2384833.3, 99267.1 
1.7164099e+3, 5.6515145e+1, -2293633.3, -2406279.0, 3777.7554, -0.002631724, -0.00032914866, -2293506.8, 92644.97 
1.7163764e+3, 6.650935e+1, -2208256.0, -2326729.5, 7277.206, -0.0027763532, 0.0024999299, -2207810.8, 80397.836 
1.7163432e+3, 7.6502997e+1, -2113863.3, -2230830.5, 7852.877, 0.00083986105, 0.004204679, -2113338.3, 76932.55 
1.7163102e+3, 8.649594e+1, -2028833.6, -2153376.3, 10234.613, 0.0019306298, 0.0039825146, -2027998.1, 64341.87 
1.7162776e+3, 9.6488243e+1, -1934490.9, -2057126.8, 10250.886, 0.00091318344, 0.0007376436, -1933639.9, 60775.594 
1.7162453e+3, 1.0648002e+2, -1848269.8, -1977641.1, 12250.176, 0.00040911481, 0.0012477844, -1847120.0, 49376.08 
1.7162131e+3, 1.1647122e+2, -1753708.8, -1881543.3, 12386.942, 0.00045949334, 0.0023078884, -1752519.5, 46062.793 
1.7161812e+3, 1.2646176e+2, -1668229.4, -1804149.3, 13737.387, 0.000154738, 0.003212875, -1666854.9, 33820.223 
1.7161493e+3, 1.3645163e+2, -1573421.4, -1707862.6, 13568.345, -0.0006727547, 0.0022088236, -1572065.6, 30708.607 
1.7161176e+3, 1.4644085e+2, -1487872.8, -1630441.5, 14207.282, -0.00007511451, 0.0024675096, -1486470.8, 18409.25 
1.7160858e+3, 1.564294e+2, -1392731.6, -1533675.5, 13824.511, 0.0010863495, 0.0015924737, -1391388.4, 15603.711 
1.7160541e+3, 1.664174e+2, -1306271.4, -1454403.3, 13902.837, 0.00063344056, 0.0020675666, -1304977.8, 4131.913 
1.7160223e+3, 1.764048e+2, -1211632.1, -1358253.1, 14058.492, -0.0008556356, 0.0019280583, -1210296.4, 936.7855 
1.7159906e+3, 1.8639155e+2, -1126542.5, -1281268.3, 13243.442, -0.00049270067, 0.002937601, -1125417.1, -12053.906 
1.7159587e+3, 1.963776e+2, -1032252.4, -1185101.8, 12991.217, 0.0010810697, 0.0031809108, -1031156.06, -15656.312 
1.7159268e+3, 2.0636308e+2, -946242.3, -1105778.8, 11713.149, 0.0011842187, 0.0026293192, -945386.94, -27744.922 
1.7158946e+3, 2.1634796e+2, -852170.1, -1009766.8, 11613.083, 0.00015747317, -0.00040346815, -851318.94, -31528.803 
1.7158625e+3, 2.2633234e+2, -766455.5, -930131.25, 10135.97, -0.0009896618, 0.0016689859, -765830.2, -43886.805 
1.7158301e+3, 2.3631616e+2, -673193.3, -834454.6, 10072.086, -0.001961599, 0.0045933425, -672566.7, -48464.76 
1.7157975e+3, 2.4629936e+2, -587419.25, -755018.56, 8623.368, 0.000056558474, 0.003982335, -586976.75, -60710.227 
1.7157649e+3, 2.5628197e+2, -493073.3, -658624.7, 8284.703, 0.00376403, -0.00010198698, -492659.75, -64222.93 
1.7157319e+3, 2.6626408e+2, -408645.03, -579546.1, 6122.8022, 0.0013176227, 0.0007024213, -408425.94, -77813.68 
1.7156985e+3, 2.7624565e+2, -317155.6, -484131.06, 5788.893, -0.0049978807, 0.0020766624, -316955.13, -84162.35 
1.7156655e+3, 2.862268e+2, -230095.36, -401485.63, 4622.729, -0.0035800186, 0.0031077815, -229970.77, -94993.25 
1.7156321e+3, 2.962075e+2, -135558.86, -305442.5, 4656.209, 0.0033491098, 0.0015401432, -135431.33, -98264.62 
1.7155983e+3, 3.0619073e+2, -55476.316, -183193.06, 2227.4734, 0.0033591809, 0.0027133722, -55437.48, -55437.48 
1.7155643e+3, 3.1617665e+2, -61674.91, -184192.3, 1736.8167, -0.002338042, 0.005096225, -61650.293, -61650.293 
1.71553e+3, 3.2616815e+2, 8634.127, -28565.217, -134.25917, -0.0041316655, -0.0011864825, 8634.611, 8634.611 
1.7264889e+3, 3.6560735e+1, -2477903.0, -2588793.8, 2358.2908, 0.0036102126, 0.0018812892, -2477852.8, 103852.2 
1.726454e+3, 4.655586e+1, -2389684.0, -2502244.5, 5493.8325, 0.0022253734, 0.0048735947, -2389416.5, 94336.445 
1.7264196e+3, 5.655063e+1, -2296554.5, -2406712.3, 6069.0615, -0.0016321699, 0.00066103187, -2296221.0, 89583.04 
1.7263858e+3, 6.654488e+1, -2210959.5, -2327275.0, 9681.436, -0.0017735593, 0.0012050417, -2210159.3, 77701.234 
1.7263523e+3, 7.6538587e+1, -2116890.0, -2231489.5, 9710.229, 0.0007531922, 0.003232807, -2116073.0, 73849.02 
1.726319e+3, 8.653164e+1, -2031367.8, -2153581.0, 12369.891, 0.0015137921, 0.0038442153, -2030128.4, 61861.88 
1.7262863e+3, 9.652404e+1, -1936400.3, -2057111.8, 12986.164, 0.0008337561, 0.0016413869, -1935019.0, 59045.734 
1.7262538e+3, 1.06515855e+2, -1850046.3, -1978315.0, 15026.446, 0.0004216847, 0.0018687621, -1848309.4, 47835.457 
1.7262214e+3, 1.1650707e+2, -1754796.1, -1881854.6, 14771.369, 0.00027790145, 0.0019258994, -1753101.5, 45129.53 
1.7261893e+3, 1.2649761e+2, -1668577.0, -1804153.6, 16083.382, 0.00014876599, 0.0027627002, -1666695.1, 33628.52 
1.7261572e+3, 1.364875e+2, -1572964.8, -1707467.8, 15920.619, -0.00028740434, 0.0023485334, -1571106.0, 31316.67 
1.7261252e+3, 1.4647673e+2, -1487019.3, -1630034.9, 16764.281, 0.000246968, 0.0028105744, -1485080.4, 19447.957 
1.7260933e+3, 1.5646529e+2, -1391717.5, -1533293.3, 16762.123, 0.0011813157, 0.0020129576, -1389760.0, 16880.512 
1.7260614e+3, 1.6645323e+2, -1305334.8, -1454622.9, 16474.537, 0.00055538403, 0.002306641, -1303538.3, 5220.2207 
1.7260294e+3, 1.7644057e+2, -1210329.3, -1358214.9, 15940.8545, -0.0009369517, 0.0017686934, -1208630.5, 2252.191 
1.7259975e+3, 1.8642725e+2, -1124714.6, -1280850.6, 15098.365, -0.00038851335, 0.0024914802, -1123268.0, -10254.699 
1.7259653e+3, 1.9641325e+2, -1029818.75, -1184402.1, 15285.861, 0.0013529296, 0.0025331252, -1028321.75, -13171.448 
1.7259331e+3, 2.0639868e+2, -943598.44, -1105163.8, 14085.96, 0.0011668083, 0.0026896296, -942379.56, -25086.486 
1.7259008e+3, 2.1638352e+2, -849309.4, -1009081.1, 13961.674, -0.00023293364, 0.00096663064, -848098.5, -28656.701 
1.7258683e+3, 2.263678e+2, -763246.44, -929444.7, 12133.355, -0.0007706892, 0.0022785214, -762365.3, -40769.453 
1.7258355e+3, 2.3635152e+2, -669533.94, -833480.5, 11777.866, -0.0006529587, 0.003374547, -668692.1, -44936.78 
1.7258027e+3, 2.4633464e+2, -584448.0, -754297.4, 10185.972, 0.00025698004, 0.0028686658, -583839.3, -57918.574 
1.7257698e+3, 2.563172e+2, -491515.78, -658583.9, 9813.566, 0.0018077185, -0.00010586605, -490941.3, -62849.598 
1.7257364e+3, 2.6629922e+2, -405815.66, -578749.7, 7692.4526, 0.00056916516, 0.0016664473, -405474.16, -75206.43 
1.7257027e+3, 2.7628076e+2, -311990.7, -482257.28, 7788.0938, -0.0026311406, 0.004109406, -311635.2, -79186.555 
1.7256692e+3, 2.862618e+2, -226151.86, -400594.28, 6343.9893, -0.0019403101, 0.003086104, -225921.45, -91287.09 
1.7256355e+3, 2.9624236e+2, -134436.47, -305746.13, 5328.243, 0.0017752972, -0.0024698225, -134270.9, -97446.016 
1.7256013e+3, 3.0622563e+2, -53465.965, -182004.02, 3010.2622, 0.001404184, 0.0023822056, -53395.504, -53395.504 
1.7255668e+3, 3.1621164e+2, -57626.875, -182426.17, 3737.8938, -0.0016389965, 0.013342136, -57515.02, -57515.02 
1.7255323e+3, 3.2620287e+2, 12584.082, -29375.494, 1003.00696, -0.0018920377, -0.0060119242, 12608.044, 12608.044 
1.736499e+3, 3.6596316e+1, -2476246.0, -2584678.0, 736.36725, 0.00054432073, -0.0082339, -2476241.0, 105115.31 
1.7364639e+3, 4.6591863e+1, -2389372.0, -2501158.3, 4255.8887, 0.0009925663, 0.018582199, -2389210.3, 94189.93 
1.7364292e+3, 5.6586605e+1, -2296227.3, -2405768.3, 4838.9873, 0.00093897415, 0.0038951468, -2296014.0, 89437.68 
1.736395e+3, 6.6580844e+1, -2211229.5, -2327373.5, 8781.107, 0.000874331, -0.0006952494, -2210569.3, 76938.78 
1.7363614e+3, 7.657454e+1, -2116921.8, -2231147.0, 8927.025, 0.00072723016, -0.0005047227, -2116228.3, 73341.46 
1.7363279e+3, 8.656771e+1, -2030421.0, -2151367.5, 11726.771, 0.00036777748, 0.0020957252, -2029294.5, 62342.22 
1.7362949e+3, 9.656031e+1, -1935641.3, -2055312.5, 12268.49, -0.00030375825, 0.0037810367, -1934396.4, 59312.813 
1.7362621e+3, 1.0655216e+2, -1850449.1, -1978877.4, 14415.302, -0.00024880955, 0.0037284961, -1848851.0, 46938.15 
1.7362297e+3, 1.16543315e+2, -1755020.3, -1882203.0, 14260.162, -0.00006837309, 0.0012422303, -1753441.0, 44434.805 
1.7361973e+3, 1.2653387e+2, -1668568.0, -1804024.9, 15673.983, 0.00054436736, 0.0016820574, -1666778.0, 33190.44 
1.736165e+3, 1.3652377e+2, -1572959.4, -1707282.8, 15515.543, 0.0010420379, 0.0020985184, -1571190.5, 30876.84 
1.736133e+3, 1.4651303e+2, -1486822.4, -1629474.3, 16207.579, 0.0006054042, 0.0029828632, -1485004.1, 19168.498 
1.7361008e+3, 1.5650164e+2, -1391598.0, -1533091.9, 16160.599, -0.00029585106, 0.0026965581, -1389775.6, 16508.645 
1.7360687e+3, 1.664895e+2, -1306322.9, -1456699.5, 15828.418, -0.000110952424, 0.0029355744, -1304674.9, 3728.1707 
1.7360367e+3, 1.764767e+2, -1211107.6, -1359943.6, 15348.846, 0.0007804285, 0.0016910068, -1209541.3, 987.3766 
1.7360044e+3, 1.864633e+2, -1124556.4, -1280722.3, 14434.759, 0.0005160656, 0.001475155, -1123233.4, -10573.51 
1.735972e+3, 1.9644932e+2, -1029735.2, -1184419.1, 14535.52, -0.00058206497, 0.00029266273, -1028381.2, -13584.315 
1.7359395e+3, 2.0643474e+2, -944019.25, -1106171.6, 13153.157, -0.0006305565, 0.002512066, -942959.25, -26019.406 
1.735907e+3, 2.1641952e+2, -849825.8, -1010230.5, 13038.167, 0.00001150564, 0.0050756936, -848772.94, -29684.045 
1.7358743e+3, 2.2640368e+2, -764103.44, -931176.44, 11062.785, 0.00095632364, 0.0038038932, -763374.06, -42129.926 
1.7358412e+3, 2.3638722e+2, -670314.4, -835212.2, 10717.139, 0.0020066842, -0.0015046349, -669620.75, -46215.33 
1.735808e+3, 2.4637027e+2, -584914.94, -755433.7, 8930.882, -0.00028915578, -0.00008940196, -584448.44, -58876.902 
1.7357747e+3, 2.563528e+2, -491962.75, -659681.94, 8607.797, -0.004389742, 0.0032356412, -491522.13, -63779.324 
1.7357409e+3, 2.663348e+2, -405758.97, -578787.94, 6629.706, -0.0017530603, 0.005332307, -405505.34, -75586.23 
1.7357072e+3, 2.7631631e+2, -312082.6, -482745.06, 6636.8477, 0.0046647107, 0.004767744, -311824.9, -79724.55 
1.7356731e+3, 2.862972e+2, -227638.78, -403802.8, 4862.5845, 0.0026766064, 0.0019079209, -227504.67, -93217.02 
1.735639e+3, 2.9627752e+2, -135582.86, -308290.72, 4011.2708, -0.004110145, -0.0045646294, -135489.75, -99009.26 
1.7356044e+3, 3.062608e+2, -51937.887, -179445.28, 1882.8236, -0.0042354604, 0.0020909954, -51910.09, -51910.09 
1.7355695e+3, 3.1624702e+2, -56500.96, -181106.83, 2447.4634, 0.0009962998, 0.016085587, -56452.906, -56452.906 
1.7355347e+3, 3.2623795e+2, 8838.809, -37717.73, 216.03902, 0.0017240485, -0.0040526176, 8839.811, 8839.811 
1.7465091e+3, 3.6632425e+1, -2481959.5, -2584852.3, 2262.7185, -0.0005096095, -0.0037431351, -2481909.8, 99092.836 
1.7464735e+3, 4.6628034e+1, -2394863.3, -2502755.8, 5890.721, 0.0010067935, 0.014254187, -2394542.5, 88503.164 
1.7464384e+3, 5.6622905e+1, -2300909.3, -2406893.5, 6484.851, 0.0018030778, 0.0028955122, -2300514.0, 84581.86 
1.746404e+3, 6.661726e+1, -2214888.8, -2327976.0, 11002.139, 0.0013625876, 0.000091843154, -2213828.5, 73322.73 
1.74637e+3, 7.661108e+1, -2119908.8, -2231439.3, 11655.883, 0.00036200826, 0.0012215995, -2118703.8, 70508.02 
1.7463365e+3, 8.660431e+1, -2033242.3, -2152180.0, 14387.359, 0.00014911819, 0.0029445768, -2031526.6, 59751.496 
1.7463033e+3, 9.659693e+1, -1937837.3, -2055713.3, 14308.683, -0.00008323752, 0.002914415, -1936125.1, 57225.184 
1.7462704e+3, 1.0658883e+2, -1851814.8, -1978881.3, 16671.0, 0.00009174349, 0.0030763377, -1849663.9, 45765.74 
1.7462377e+3, 1.16580054e+2, -1755462.1, -1881773.0, 16922.256, 0.00033213955, 0.001917436, -1753234.3, 44281.49 
1.7462054e+3, 1.2657063e+2, -1668898.5, -1804014.1, 18375.172, 0.0006546194, 0.0023398772, -1666444.1, 33163.977 
1.7461729e+3, 1.3656054e+2, -1573248.1, -1707305.4, 18196.434, 0.0007225079, 0.0020361212, -1570822.1, 30884.9 
1.7461406e+3, 1.4654978e+2, -1486743.6, -1629709.3, 18642.227, 0.00033349756, 0.0025803924, -1484352.8, 19459.73 
1.7461084e+3, 1.5653835e+2, -1390566.3, -1532839.5, 18175.51, -0.00023256929, 0.0022821804, -1388281.0, 17643.432 
1.7460762e+3, 1.665262e+2, -1304608.6, -1456067.5, 18043.053, 0.00010539164, 0.0028430133, -1302488.9, 5554.614 
1.7460439e+3, 1.7651337e+2, -1208959.8, -1359158.9, 18260.701, 0.0008873068, 0.0021669858, -1206771.5, 3397.8008 
1.7460114e+3, 1.8649992e+2, -1122183.8, -1280412.1, 17256.115, 0.0005708863, 0.002161173, -1120323.6, -8022.6006 
1.7459789e+3, 1.9648585e+2, -1026820.2, -1183832.1, 16852.715, -0.00028110115, 0.0009669915, -1025031.7, -10592.785 
1.7459461e+3, 2.0647117e+2, -940996.94, -1105480.4, 15062.27, -0.0005250538, 0.0023934941, -939629.0, -23046.236 
1.7459133e+3, 2.1645589e+2, -846971.8, -1009613.75, 14919.966, -0.00021104519, 0.0037769664, -845614.5, -26881.871 
1.7458802e+3, 2.2643995e+2, -761072.44, -930669.6, 13019.803, 0.0007966291, 0.003257135, -760078.7, -39190.082 
1.745847e+3, 2.3642343e+2, -666692.25, -834388.8, 12753.128, 0.001992965, -0.000088965855, -665727.94, -42677.3 
1.7458135e+3, 2.4640639e+2, -581098.94, -754320.6, 10671.407, -0.00012120699, 0.0012288544, -580444.0, -55226.402 
1.7457797e+3, 2.563888e+2, -488328.03, -658648.25, 10362.2705, -0.0039826976, 0.0032320623, -487699.9, -60310.156 
1.7457458e+3, 2.6637074e+2, -402147.47, -577895.1, 8252.738, -0.0015028628, 0.004118, -401760.78, -72193.83 
1.7457117e+3, 2.7635214e+2, -308419.44, -481769.78, 7607.2114, 0.004640009, 0.0027037144, -308086.25, -76337.1 
1.7456773e+3, 2.8633296e+2, -224608.39, -403158.53, 5566.088, 0.0024006688, 0.0023825257, -224435.05, -90497.97 
1.7456424e+3, 2.9631326e+2, -133491.1, -307987.28, 5602.8604, -0.0046209954, 0.0004707077, -133311.38, -97181.05 
1.7456076e+3, 3.0629644e+2, -49129.883, -178220.77, 3533.4612, -0.0042319773, 0.0022237012, -49033.24, -49033.24 
1.7455725e+3, 3.1628254e+2, -52667.26, -179645.6, 2678.9028, 0.0015817542, 0.00607045, -52610.77, -52610.77 
1.7455372e+3, 3.262735e+2, 12619.455, -37967.19, 1274.5149, 0.0019648105, 0.0021781712, 12651.545, 12651.545 
1.7565188e+3, 3.6668992e+1, -2480896.8, -2582098.8, 1087.9177, -0.0008534127, 0.00843037, -2480885.0, 99759.3 
1.756483e+3, 4.666447e+1, -2394433.5, -2501473.5, 4887.279, 0.0017587639, -0.0006965032, -2394210.8, 88477.664 
1.7564477e+3, 5.6659555e+1, -2300317.5, -2405392.0, 5563.274, 0.0012148815, -0.00042560173, -2300023.8, 84713.01 
1.7564131e+3, 6.6654116e+1, -2213952.5, -2325726.5, 10268.168, 0.00024998075, 0.002569982, -2213017.0, 73773.05 
1.7563789e+3, 7.664811e+1, -2119191.3, -2229626.0, 10874.178, -0.00024772162, 0.006160297, -2118130.8, 70718.09 
1.756345e+3, 8.664135e+1, -2033712.3, -2152738.5, 13816.978, 0.00041269857, 0.00532429, -2032129.4, 58785.68 
1.7563118e+3, 9.6633893e+1, -1938042.3, -2055877.3, 13858.435, 0.00072882936, 0.00023751702, -1936434.3, 56553.816 
1.7562787e+3, 1.0662587e+2, -1851340.0, -1977574.4, 16401.584, 0.0008341917, 0.000995248, -1849243.8, 45822.992 
1.756246e+3, 1.1661722e+2, -1755152.5, -1880687.1, 16602.43, 0.001021619, 0.0034524256, -1752993.9, 44157.69 
1.7562133e+3, 1.2660784e+2, -1669091.0, -1804118.4, 17893.822, 0.0004089363, 0.0040908894, -1666760.0, 32483.592 
1.7561808e+3, 1.3659774e+2, -1573316.4, -1707456.0, 17784.55, -0.0009371682, 0.0020571589, -1570998.5, 30344.016 
1.7561483e+3, 1.465869e+2, -1487278.9, -1630908.1, 18363.629, -0.00049760914, 0.0017979209, -1484968.3, 18480.39 
1.7561162e+3, 1.565754e+2, -1390951.0, -1533691.4, 17920.963, 0.000731216, 0.0011120692, -1388735.4, 16826.086 
1.7560837e+3, 1.6656326e+2, -1304151.0, -1455142.3, 17570.506, 0.00062772026, 0.0022710632, -1302133.4, 5546.9653 
1.7560512e+3, 1.765505e+2, -1208642.6, -1358653.1, 17705.354, -0.0004244188, 0.0029566619, -1206581.3, 3224.1924 
1.7560185e+3, 1.86537e+2, -1123087.4, -1282377.4, 16619.404, -0.00009005483, 0.003924155, -1121371.9, -9434.19 
1.7559858e+3, 1.965228e+2, -1027704.4, -1185685.0, 16220.176, 0.001253758, 0.0036223622, -1026056.2, -11979.383 
1.7559528e+3, 2.06508e+2, -941509.0, -1106628.6, 14125.653, 0.0005760239, 0.0022523762, -940309.3, -24087.457 
1.7559198e+3, 2.1649258e+2, -847414.94, -1010725.2, 13982.374, -0.0009774198, -0.0014761916, -846226.44, -27853.477 
1.7558865e+3, 2.2647661e+2, -761549.56, -931769.75, 12136.427, -0.0008651076, 0.0011707016, -760688.6, -40159.21 
1.7558528e+3, 2.3646009e+2, -667225.94, -835557.0, 11828.141, -0.00014713276, 0.0058289487, -666398.9, -43707.367 
1.755819e+3, 2.4644294e+2, -581664.6, -755558.25, 9324.462, 0.0004434776, 0.0056585753, -581166.06, -56306.66 
1.755785e+3, 2.5642523e+2, -488847.3, -659955.44, 9080.989, 0.0011899458, 0.00063273916, -488366.72, -61333.785 
1.7557508e+3, 2.6640698e+2, -403177.97, -580189.25, 7202.187, 0.0004625169, -0.00071716384, -402885.44, -73673.78 
1.7557162e+3, 2.7638826e+2, -309386.0, -483840.8, 6521.797, -0.0012582208, -0.0013154513, -309142.5, -77747.164 
1.7556813e+3, 2.863691e+2, -224421.56, -403000.2, 3795.4382, -0.0018626914, 0.0042771436, -224340.94, -90757.66 
1.7556462e+3, 2.9634947e+2, -133129.7, -308041.53, 3977.1033, -0.0010604179, 0.010851666, -133039.31, -97263.66 
1.755611e+3, 3.0633244e+2, -49999.188, -180728.64, 2749.6475, -0.000045778772, 0.0026575485, -49941.38, -49941.38 
1.7555755e+3, 3.1631815e+2, -53502.598, -181761.5, 1897.2106, -0.00014109384, -0.013516739, -53474.54, -53474.54 
1.75554e+3, 3.2630938e+2, 13847.394, -36136.09, 430.1132, -0.0006801069, 0.012146762, 13851.095, 13851.095 
1.7665282e+3, 3.6705756e+1, -2487902.5, -2583523.0, 2481.52, -0.0002855924, 0.007282001, -2487838.0, 92445.86 
1.7664921e+3, 4.6701393e+1, -2400750.8, -2502984.3, 6715.716, 0.0013306122, -0.0017608261, -2400311.5, 82015.13 
1.7664567e+3, 5.669664e+1, -2305212.0, -2406189.5, 7556.587, 0.0012309052, 0.0012601777, -2304649.8, 79723.47 
1.7664218e+3, 6.6691315e+1, -2218392.8, -2326768.3, 12227.056, 0.0005414004, 0.0035323424, -2217030.3, 69395.16 
1.7663875e+3, 7.668538e+1, -2123163.3, -2230371.8, 12521.452, 0.000017844026, 0.004673632, -2121720.3, 66763.26 
1.7663535e+3, 8.6678725e+1, -2036818.4, -2153314.8, 15992.531, 0.00067601516, 0.0042436547, -2034662.9, 55885.934 
1.76632e+3, 9.667138e+1, -1939959.0, -2055902.1, 16566.268, 0.0011936633, 0.001163778, -1937638.4, 54982.4 
1.766287e+3, 1.066634e+2, -1853026.0, -1978010.3, 19070.318, 0.00095408043, 0.0017825628, -1850180.9, 44518.055 
1.766254e+3, 1.1665477e+2, -1756790.6, -1881072.4, 18953.07, 0.0005780025, 0.0030505825, -1753964.6, 42818.977 
1.7662214e+3, 1.2664542e+2, -1669897.8, -1804310.4, 20242.59, 0.00021592822, 0.003616898, -1666915.4, 31959.934 
1.7661887e+3, 1.3663532e+2, -1572629.4, -1706905.4, 20189.771, -0.0004565793, 0.0021232576, -1569659.3, 31314.834 
1.7661561e+3, 1.466245e+2, -1486151.3, -1630400.5, 20963.992, 0.0000019377733, 0.0021844825, -1483166.3, 19913.838 
1.7661236e+3, 1.5661299e+2, -1389790.0, -1533228.8, 20950.033, 0.0008180311, 0.0017357102, -1386792.8, 18400.219 
1.7660911e+3, 1.6660081e+2, -1302626.6, -1455269.3, 20266.742, 0.00050877174, 0.0024597992, -1299981.5, 7330.8057 
1.7660585e+3, 1.7658797e+2, -1206238.5, -1358256.1, 19687.594, -0.0003537305, 0.0023878817, -1203730.3, 5708.003 
1.7660257e+3, 1.865744e+2, -1120378.3, -1281588.8, 18503.434, -0.00014461426, 0.0032721132, -1118281.6, -6710.6323 
1.765993e+3, 1.9656016e+2, -1025029.8, -1184943.6, 18592.266, 0.0008084943, 0.0032307697, -1022896.7, -9186.008 
1.7659599e+3, 2.0654528e+2, -938473.4, -1106272.3, 16461.332, 0.0005937797, 0.0025441246, -936873.75, -21017.252 
1.7659263e+3, 2.1652976e+2, -843222.06, -1009700.1, 16106.123, -0.00008322786, -0.00018710441, -841678.1, -23669.592 
1.7658928e+3, 2.265137e+2, -757183.44, -930449.0, 14022.5625, -0.0004549152, 0.0016185434, -756055.9, -35889.895 
1.765859e+3, 2.3649707e+2, -663505.7, -834561.9, 13658.197, -0.0008966462, 0.00450797, -662422.0, -40092.98 
1.765825e+3, 2.4647982e+2, -577719.3, -754905.94, 10819.029, 0.00011042412, 0.0046793297, -577061.1, -52563.223 
1.7657906e+3, 2.5646204e+2, -484105.94, -658896.44, 10331.7705, 0.0024279717, 0.0014851814, -483497.38, -56824.98 
1.7657559e+3, 2.664437e+2, -399353.7, -579214.6, 8438.837, 0.0009248624, 0.00040424042, -398958.6, -70106.56 
1.765721e+3, 2.7642483e+2, -307557.0, -483743.94, 8121.7393, -0.0031873246, -0.0009956367, -307183.4, -76146.66 
1.7656857e+3, 2.8640562e+2, -220905.16, -401779.56, 5328.6523, -0.0027610953, 0.0039376365, -220748.31, -87522.984 
1.7656502e+3, 2.963859e+2, -126801.875, -305641.38, 5057.848, 0.0015730266, 0.010235313, -126658.945, -91240.79 
1.7656144e+3, 3.0636877e+2, -46253.746, -181051.25, 3406.2764, 0.002090203, 0.0024691594, -46167.727, -46167.727 
1.7655787e+3, 3.1635427e+2, -53292.46, -182989.2, 2454.9578, -0.0019077248, -0.013686507, -53246.01, -53246.01 
1.7655428e+3, 3.2634565e+2, 14978.38, -32103.387, 1756.0721, -0.0020492675, 0.011804907, 15043.787, 15043.787 
1.7765373e+3, 3.6742792e+1, -2486775.3, -2581111.3, 1341.7208, -0.00015660589, -0.0013361837, -2486756.3, 93164.76 
1.7765011e+3, 4.673875e+1, -2399682.3, -2500682.3, 6076.892, 0.00049267104, 0.0052260086, -2399318.0, 82642.5 
1.7764655e+3, 5.673413e+1, -2304319.3, -2404104.8, 6892.3784, 0.0014403777, 0.0054741204, -2303845.5, 80160.33 
1.7764305e+3, 6.672886e+1, -2218235.0, -2325983.8, 11606.915, 0.0011916704, 0.003298963, -2216998.8, 69058.79 
1.7763959e+3, 7.672294e+1, -2122808.0, -2229296.8, 12012.827, 0.00029224067, -0.0008146601, -2121469.8, 66645.71 
1.7763618e+3, 8.671643e+1, -2036035.8, -2151363.5, 15800.744, 0.00065103173, 0.0010636083, -2033910.1, 56269.184 
1.7763282e+3, 9.670928e+1, -1939378.0, -2054299.5, 16316.278, 0.0012446529, 0.00411192, -1937106.4, 55142.97 
1.776295e+3, 1.06701344e+2, -1853343.4, -1978268.5, 18715.139, 0.00048745034, 0.0041258163, -1850599.9, 43727.25 
1.776262e+3, 1.1669267e+2, -1756931.4, -1881170.9, 18724.084, -0.0008717592, 0.001345968, -1754170.8, 42241.36 
1.7762293e+3, 1.2668332e+2, -1669916.4, -1804151.5, 20232.422, -0.00013616688, 0.0017684371, -1666933.3, 31570.578 
1.7761965e+3, 1.3667326e+2, -1572616.3, -1706639.3, 20153.453, 0.0012727937, 0.002212016, -1569651.3, 30950.97 
1.7761639e+3, 1.466625e+2, -1485940.3, -1629786.8, 20640.213, 0.0011013859, 0.0034367174, -1483037.3, 19670.527 
1.7761314e+3, 1.5665103e+2, -1389666.5, -1532984.5, 20632.635, -0.0000064319506, 0.0036239363, -1386755.4, 18064.836 
1.7760988e+3, 1.6663876e+2, -1303658.9, -1457458.9, 19975.852, -0.00018248873, 0.0031646276, -1301106.8, 5833.5903 
1.776066e+3, 1.7662574e+2, -1207055.8, -1360031.4, 19432.81, 0.00039740873, 0.00092258485, -1204625.8, 4442.0967 
1.776033e+3, 1.8661216e+2, -1120201.6, -1281377.3, 17961.736, -0.000040878323, 0.000924849, -1118224.1, -7022.936 
1.776e+3, 1.9659792e+2, -1024983.9, -1185047.5, 17987.664, -0.0012040667, 0.00055082917, -1022987.4, -9646.647 
1.7759667e+3, 2.0658298e+2, -939305.06, -1108148.4, 15818.933, -0.00033071818, 0.0030317057, -937835.75, -22348.725 
1.7759332e+3, 2.1656738e+2, -843976.1, -1011475.56, 15433.754, 0.0017497463, 0.005746975, -842565.94, -24926.035 
1.7758994e+3, 2.2655119e+2, -757754.75, -931709.25, 12979.969, 0.0011537091, 0.0038693254, -756791.56, -36992.957 
1.7758653e+3, 2.3653437e+2, -664202.7, -836008.75, 12615.423, -0.0009225341, -0.002215592, -663281.3, -41317.996 
1.7758308e+3, 2.4651705e+2, -578704.94, -757011.9, 9722.093, -0.000983077, -0.000280239, -578176.44, -54043.22 
1.7757961e+3, 2.5649917e+2, -484950.16, -660860.75, 9193.522, 0.00037775937, 0.0048648133, -484470.97, -58162.613 
1.775761e+3, 2.6648077e+2, -399582.38, -579878.06, 6857.614, -0.00015286634, 0.005989905, -399321.9, -70833.266 
1.7757258e+3, 2.7646184e+2, -307799.4, -484622.34, 6618.707, -0.0021532855, 0.002645267, -307552.0, -76878.0 
1.7756902e+3, 2.864425e+2, -221392.16, -403074.22, 4395.76, -0.0010396268, 0.0019958687, -221285.86, -88421.99 
1.7756543e+3, 2.9642263e+2, -127422.78, -307312.47, 3941.7935, 0.003253438, 0.0013441979, -127336.45, -92278.21 
1.7756182e+3, 3.064054e+2, -47612.676, -184441.78, 1503.2208, 0.0020788338, 0.0021506238, -47596.164, -47596.164 
1.7755818e+3, 3.1639084e+2, -53882.266, -184952.92, 872.02844, -0.0052008266, 0.0016785957, -53876.465, -53876.465 
1.7755455e+3, 3.2638216e+2, 18853.969, -24935.49, 197.13719, -0.0023412844, 0.0033597385, 18854.857, 18854.857 
1.7865461e+3, 3.6780208e+1, -2494321.8, -2583567.3, 2506.3674, -0.00020085195, 0.000040985804, -2494251.3, 85302.836 
1.7865098e+3, 4.6776283e+1, -2406443.5, -2502090.8, 7544.4097, 0.00088313955, 0.0028701897, -2405852.3, 75740.51 
1.7864738e+3, 5.6771857e+1, -2310751.3, -2405304.5, 8383.463, 0.0014329115, 0.0047041434, -2310013.8, 73622.45 
1.7864387e+3, 6.676674e+1, -2223846.8, -2327320.8, 13478.14, 0.00082204404, 0.0034337807, -2222120.0, 63566.395 
1.7864041e+3, 7.676095e+1, -2126969.5, -2229891.5, 14192.723, 0.00051332975, -0.00015488762, -2125048.3, 62694.758 
1.78637e+3, 8.6754537e+1, -2039541.5, -2152155.5, 18078.014, 0.00085818267, 0.0013826021, -2036710.6, 53095.254 
1.7863363e+3, 9.674746e+1, -1942353.9, -2054750.3, 18276.271, 0.0008370923, 0.003770426, -1939456.8, 52418.426 
1.7863029e+3, 1.067396e+2, -1855428.3, -1978486.1, 20840.402, 0.00035221098, 0.0038317996, -1851994.6, 41957.535 
1.7862698e+3, 1.16730995e+2, -1757531.1, -1880700.8, 21230.318, -0.0003024595, 0.001579778, -1753974.5, 42062.074 
1.786237e+3, 1.2672168e+2, -1670214.5, -1804054.3, 22911.084, 0.00026030157, 0.0020244678, -1666401.1, 31726.695 
1.7862044e+3, 1.3671164e+2, -1572861.9, -1706543.5, 22870.516, 0.0011258038, 0.002391192, -1569057.5, 31168.709 
1.7861718e+3, 1.4670089e+2, -1485575.5, -1629796.0, 23052.959, 0.0007576897, 0.0033033628, -1481980.3, 20351.416 
1.7861392e+3, 1.5668938e+2, -1388200.4, -1532392.1, 22719.19, -0.0002672827, 0.0029836458, -1384705.4, 19738.89 
1.7861064e+3, 1.666771e+2, -1301580.1, -1456699.3, 22317.117, -0.00011536247, 0.0030064029, -1298433.3, 8131.4297 
1.7860736e+3, 1.7666408e+2, -1204505.8, -1359127.1, 22426.074, 0.00072319765, 0.0016805088, -1201318.9, 7373.568 
1.7860407e+3, 1.8665041e+2, -1117350.0, -1280919.6, 20627.795, 0.00026975007, 0.0017637172, -1114788.6, -3962.3318 
1.7860073e+3, 1.9663607e+2, -1021248.8, -1184113.6, 20075.414, -0.0009067897, 0.0011316678, -1018810.75, -5843.9717 
1.7859739e+3, 2.0662107e+2, -935047.1, -1106871.6, 17864.73, -0.0002822446, 0.0027822868, -933209.4, -18095.5 
1.7859402e+3, 2.1660538e+2, -839422.9, -1010087.06, 17744.729, 0.0014794846, 0.00462171, -837597.44, -20329.834 
1.7859061e+3, 2.2658908e+2, -753411.3, -931021.5, 14803.687, 0.0008656178, 0.0037229857, -752185.9, -32758.586 
1.7858717e+3, 2.3657216e+2, -660131.25, -835358.6, 14220.027, -0.00082069763, -0.0005290509, -658984.8, -37391.723 
1.785837e+3, 2.465547e+2, -574360.4, -755789.94, 11501.988, -0.0008174354, 0.0004200827, -573634.1, -49870.016 
1.785802e+3, 2.5653672e+2, -480172.53, -659449.0, 11112.729, 0.00015598879, 0.0033864502, -479486.3, -53545.92 
1.7857665e+3, 2.665182e+2, -394644.53, -578587.7, 8118.8887, -0.000039150105, 0.005313851, -394286.88, -66165.234 
1.7857307e+3, 2.7649924e+2, -303106.1, -483384.9, 7594.634, -0.0011111707, 0.0043523707, -302786.72, -72478.97 
1.7856947e+3, 2.8647974e+2, -217834.78, -402283.84, 5612.3135, -0.0006226261, 0.0018316472, -217664.16, -85165.42 
1.7856586e+3, 2.9645976e+2, -125587.05, -307206.25, 5052.209, 0.0019626631, -0.0029477389, -125446.62, -90752.21 
1.7856221e+3, 3.064425e+2, -45119.797, -183501.5, 2874.7441, 0.001038481, 0.0028010753, -45060.105, -45060.105 
1.7855851e+3, 3.16428e+2, -50464.27, -183760.06, 3561.783, -0.004254615, 0.012397852, -50369.164, -50369.164 
1.7855483e+3, 3.2641906e+2, 21122.162, -25212.145, 1082.7032, -0.0006469706, -0.0032113565, 21147.447, 21147.447 
1.7965548e+3, 3.6817983e+1, -2493918.0, -2582559.0, 1450.7212, -0.0002922052, 0.0067142094, -2493894.3, 85289.89 
1.7965181e+3, 4.6814042e+1, -2405274.3, -2499481.0, 6988.9424, 0.0015867611, -0.0049734404, -2404758.8, 76463.94 
1.796482e+3, 5.6809837e+1, -2309590.8, -2402734.0, 7893.234, 0.00073716504, 0.0011441649, -2308926.8, 74337.195 
1.7964467e+3, 6.680492e+1, -2222894.5, -2325105.3, 13258.038, -0.00035935373, 0.0038664485, -2221202.8, 64109.26 
1.7964122e+3, 7.6799333e+1, -2126183.3, -2227957.3, 13962.901, 0.0006962515, 0.0039917016, -2124302.5, 63064.38 
1.7963779e+3, 8.6792994e+1, -2039536.9, -2151600.8, 17973.467, 0.0011568025, 0.0036170434, -2036724.8, 52704.203 
1.7963442e+3, 9.678592e+1, -1942231.8, -2053991.5, 18251.398, -0.00007966179, 0.0013167674, -1939326.6, 52171.676 
1.7963108e+3, 1.0677815e+2, -1855024.6, -1977189.5, 20954.77, 0.00012084442, 0.002058619, -1851530.3, 42044.094 
1.7962778e+3, 1.1676968e+2, -1757159.9, -1879506.4, 21305.2, 0.0014466168, 0.0030291164, -1753556.0, 42101.46 
1.796245e+3, 1.2676041e+2, -1670265.0, -1803879.0, 22837.174, 0.0010772054, 0.0036447004, -1666469.5, 31278.643 
1.7962123e+3, 1.367504e+2, -1572933.1, -1706483.5, 22857.322, -0.00068948796, 0.0027014506, -1569129.4, 30717.072 
1.7961796e+3, 1.4673959e+2, -1486080.0, -1630718.9, 23045.486, -0.00076609023, 0.0023167338, -1482497.0, 19455.375 
1.796147e+3, 1.5672803e+2, -1388433.1, -1532956.8, 22766.479, -0.00019587328, 0.0007528835, -1384931.6, 19134.008 
1.7961141e+3, 1.6671577e+2, -1301168.0, -1455831.0, 22167.512, 0.00020013966, 0.0023426174, -1298053.5, 8132.2085 
1.7960814e+3, 1.7670284e+2, -1204323.0, -1358755.9, 22205.77, 0.0004151504, 0.0038706597, -1201193.4, 7119.107 
1.7960483e+3, 1.866891e+2, -1118370.3, -1283203.1, 20233.373, 0.0004970451, 0.0047299312, -1115922.9, -5475.689 
1.7960149e+3, 1.966746e+2, -1022040.06, -1185983.0, 19730.479, 0.00065334083, 0.0039593047, -1019698.94, -7109.758 
1.7959812e+3, 2.0665948e+2, -935264.25, -1107404.4, 17370.336, 0.0001686567, 0.0019177509, -933528.94, -18791.643 
1.7959473e+3, 2.166437e+2, -839907.2, -1010991.1, 17147.26, -0.00044221932, -0.0017936609, -838205.5, -21313.643 
1.795913e+3, 2.2662733e+2, -754599.5, -933346.0, 13666.86, -0.00089225103, 0.0016506499, -753560.6, -34508.29 
1.7958783e+3, 2.3661037e+2, -660960.75, -837369.94, 13151.146, -0.00084588333, 0.00711533, -659985.7, -38766.953 
1.7958432e+3, 2.4659279e+2, -574716.1, -756725.6, 10558.894, 0.00009881859, 0.005295176, -574105.6, -50714.668 
1.795808e+3, 2.5657466e+2, -480811.44, -660724.0, 10058.774, 0.0011739541, -0.0016495353, -480250.8, -54681.992 
1.7957722e+3, 2.6655602e+2, -395687.4, -580800.0, 6432.039, 0.00087303395, 0.00007965441, -395464.16, -67712.92 
1.7957358e+3, 2.765369e+2, -303794.5, -485380.47, 5987.497, -0.0002793728, 0.004690077, -303597.28, -73658.984 
1.7956994e+3, 2.8651732e+2, -218329.72, -403618.9, 4195.164, -0.0016065686, 0.0031350772, -218234.8, -86104.44 
1.795663e+3, 2.9649726e+2, -125990.516, -308274.34, 3631.6667, -0.0021520844, -0.0035317293, -125918.195, -91591.016 
1.795626e+3, 3.0648005e+2, -43855.953, -181448.17, 1184.2157, -0.00072805263, 0.0045223436, -43845.76, -43845.76 
1.7955886e+3, 3.1646574e+2, -49576.684, -183094.25, 1808.9221, 0.0005985774, 0.019649716, -49552.184, -49552.184 
1.7955513e+3, 3.2645634e+2, 17219.465, -34336.574, -446.80728, 0.0005005215, -0.008644165, 17223.338, 17223.338 
1.806563e+3, 3.685588e+1, -2503170.5, -2584989.3, 2313.4814, -0.000045716504, 0.006670662, -2503105.3, 75707.43 
1.8065262e+3, 4.6852136e+1, -2412904.3, -2501082.3, 8380.793, 0.0019502159, -0.0043624756, -2412114.8, 68734.58 
1.80649e+3, 5.684812e+1, -2316145.5, -2403853.3, 9276.707, 0.0009880653, 0.0016878715, -2315175.0, 67713.69 
1.8064547e+3, 6.6843367e+1, -2228880.0, -2326539.0, 14792.739, -0.00039128895, 0.004046809, -2226688.5, 58246.805 
1.80642e+3, 7.68379e+1, -2131318.0, -2228907.0, 15386.649, 0.00075143494, 0.0034668075, -2128949.5, 58039.406 
1.8063858e+3, 8.683169e+1, -2043768.3, -2152252.0, 19777.139, 0.001372869, 0.0031767031, -2040275.3, 48774.57 
1.806352e+3, 9.682475e+1, -1945336.9, -2054150.8, 20433.002, 0.00023751166, 0.0015741127, -1941626.5, 49491.344 
1.8063188e+3, 1.0681707e+2, -1857474.9, -1977666.3, 23256.777, 0.00016285921, 0.002346558, -1853131.6, 40061.402 
1.8062857e+3, 1.1680865e+2, -1758971.5, -1879610.9, 23490.592, 0.0012226044, 0.0029488464, -1754558.8, 40716.676 
1.8062527e+3, 1.2679945e+2, -1671234.3, -1803727.6, 25000.154, 0.00096534117, 0.003492463, -1666673.9, 30691.8 
1.8062201e+3, 1.3678947e+2, -1572551.0, -1705689.8, 25191.771, -0.00048924534, 0.0025798555, -1567943.8, 31519.746 
1.8061875e+3, 1.4677869e+2, -1485179.0, -1630080.1, 25643.666, -0.0003840228, 0.0025294153, -1480774.6, 20794.535 
1.8061548e+3, 1.5676713e+2, -1386912.0, -1532055.1, 25739.209, 0.00025149732, 0.0015379452, -1382482.6, 21199.654 
1.806122e+3, 1.6675489e+2, -1299163.1, -1455136.8, 24798.053, 0.000238816, 0.0026497308, -1295315.4, 10487.118 
1.8060891e+3, 1.767419e+2, -1201620.0, -1357670.1, 24358.713, -0.00016128918, 0.003285102, -1197906.1, 10023.591 
1.8060559e+3, 1.867281e+2, -1114916.5, -1282172.5, 22456.535, 0.00016583664, 0.004007677, -1111953.9, -1889.0366 
1.8060225e+3, 1.9671357e+2, -1017641.2, -1184489.6, 22458.758, 0.0012371843, 0.003676651, -1014670.94, -2463.6338 
1.8059887e+3, 2.0669837e+2, -930978.9, -1106312.1, 19712.53, 0.00036391572, 0.0025003992, -928790.0, -14433.772 
1.8059546e+3, 2.1668251e+2, -835945.75, -1010007.1, 19134.605, -0.0013345559, -0.0005323423, -833867.06, -17355.457 
1.80592e+3, 2.2666603e+2, -749568.5, -931954.1, 15632.833, -0.0008255383, 0.0017502551, -748238.25, -29565.08 
1.8058851e+3, 2.3664893e+2, -654058.8, -835059.4, 15387.905, 0.0010948002, 0.0055101016, -652759.94, -31919.125 
1.8058497e+3, 2.4663123e+2, -568756.0, -755144.75, 12206.586, 0.0007316264, 0.004669227, -567960.0, -44945.895 
1.805814e+3, 2.56613e+2, -477299.53, -660221.7, 11391.732, -0.001081734, -0.0002014834, -476592.8, -51399.848 
1.805778e+3, 2.6659423e+2, -391565.94, -579874.7, 7824.4917, -0.0003495623, 0.00060205953, -391241.38, -63864.766 
1.8057413e+3, 2.7657503e+2, -297769.16, -483503.3, 7516.9067, 0.0018182091, 0.0032034458, -297465.44, -67900.55 
1.8057045e+3, 2.8655535e+2, -213757.72, -402543.75, 5244.6987, -0.00022364742, 0.003181217, -213612.13, -81854.25 
1.8056674e+3, 2.965352e+2, -124855.64, -308633.34, 4717.014, -0.0038073913, -0.00023676391, -124734.65, -90779.22 
1.8056299e+3, 3.0651796e+2, -41630.594, -179783.55, 2412.7024, -0.0019216327, 0.0037126758, -41588.473, -41588.473 
1.8055923e+3, 3.1650358e+2, -45675.188, -181152.27, 2251.4265, 0.0021851466, 0.011191412, -45637.78, -45637.78 
1.8055546e+3, 3.264941e+2, 19957.434, -36369.664, 893.72565, 0.0012706177, -0.003479385, 19971.61, 19971.61 
1.8165708e+3, 3.6893958e+1, -2501328.3, -2581158.3, 1933.8678, -0.000032973952, 0.0024739746, -2501281.5, 77157.95 
1.816534e+3, 4.6890518e+1, -2411730.3, -2498435.8, 8124.994, 0.0018443188, 0.0006997469, -2410975.5, 69497.76 
1.8164977e+3, 5.6886667e+1, -2315011.5, -2401308.5, 9077.176, 0.0015721144, 0.004149095, -2314067.0, 68444.01 
1.8164623e+3, 6.6882026e+1, -2228295.0, -2324906.5, 14821.429, -0.00013221463, 0.0037327176, -2226072.3, 58484.098 
1.8164276e+3, 7.6876646e+1, -2130597.8, -2227096.0, 15486.291, 0.00018556573, -0.00010481646, -2128173.3, 58435.81 
1.8163934e+3, 8.6870605e+1, -2042849.1, -2149989.3, 20036.818, 0.0011829546, 0.0010334488, -2039224.6, 49443.77 
1.8163598e+3, 9.686386e+1, -1944597.3, -2052198.4, 20653.322, 0.0009765282, 0.0032959292, -1940769.3, 49965.207 
1.8163264e+3, 1.0685628e+2, -1857438.3, -1977058.4, 23489.117, 0.00009692145, 0.0036402321, -1852991.1, 39817.64 
1.8162934e+3, 1.16847895e+2, -1758852.6, -1878906.5, 23785.992, -0.0006436746, 0.0017829153, -1754311.8, 40579.2 
1.8162607e+3, 1.2683876e+2, -1671098.8, -1802978.1, 25305.275, -0.000045576344, 0.002238515, -1666409.9, 30570.688 
1.816228e+3, 1.3682884e+2, -1572329.1, -1704848.4, 25472.768, 0.0007361745, 0.0023159536, -1567601.4, 31476.223 
1.8161954e+3, 1.4681815e+2, -1484975.8, -1629386.6, 25727.55, 0.000806687, 0.003804986, -1480529.1, 20653.305 
1.8161628e+3, 1.5680666e+2, -1386785.9, -1531652.9, 25832.947, 0.00063628826, 0.004394715, -1382317.1, 20977.887 
1.81613e+3, 1.6679434e+2, -1299830.1, -1456445.0, 24769.813, 0.000084689615, 0.0036281096, -1296005.9, 9409.819 
1.816097e+3, 1.7678124e+2, -1202074.8, -1358584.5, 24403.652, -0.0010784412, 0.00092297746, -1198357.9, 9186.21 
1.8160638e+3, 1.8676744e+2, -1114938.0, -1282059.0, 22352.959, -0.00066226104, 0.0007157293, -1111999.9, -2320.45 
1.8160303e+3, 1.967529e+2, -1017839.56, -1184751.8, 22290.232, 0.0010588812, 0.00076746196, -1014914.1, -3092.3225 
1.8159963e+3, 2.0673767e+2, -932027.25, -1108360.4, 19064.09, 0.00015120256, 0.0037773317, -929989.7, -16018.586 
1.815962e+3, 2.1672173e+2, -836745.3, -1011760.0, 18561.207, -0.0019191079, 0.006256537, -834798.5, -18671.041 
1.8159273e+3, 2.267051e+2, -749949.0, -932832.2, 15075.613, 0.00029280846, 0.003515346, -748714.56, -30424.348 
1.8158922e+3, 2.3668784e+2, -654685.2, -836342.7, 14647.527, 0.004396721, -0.0028569147, -653511.7, -33052.367 
1.8158565e+3, 2.4667005e+2, -570019.2, -757623.8, 10533.889, 0.0010244658, -0.000022903516, -569429.56, -46795.973 
1.8158203e+3, 2.5665173e+2, -478247.4, -662437.2, 9871.979, -0.0060342443, 0.006042345, -477719.8, -52906.613 
1.8157838e+3, 2.6663288e+2, -391994.63, -580936.6, 6706.689, -0.0033261282, 0.005515231, -391756.84, -64758.824 
1.815747e+3, 2.7661353e+2, -298388.22, -484853.75, 6175.0996, 0.004737173, 0.00040117896, -298183.97, -68996.21 
1.8157096e+3, 2.8659374e+2, -214472.06, -404129.72, 2822.139, 0.0029110909, 0.002475936, -214430.08, -83048.5 
1.8156718e+3, 2.9657355e+2, -125217.72, -310000.6, 2559.7727, -0.0038456905, 0.006360567, -125182.266, -91602.7 
1.815634e+3, 3.0655614e+2, -41565.164, -180220.81, 1316.7275, -0.0030789296, 0.0010774003, -41552.66, -41552.66 
1.815596e+3, 3.1654155e+2, -45793.668, -181818.23, 926.37463, 0.0011749299, -0.009467378, -45787.36, -45787.36 
1.815558e+3, 3.2653242e+2, 20354.38, -36238.44, -511.08524, 0.0016773174, 0.01133054, 20358.996, 20358.996 
1.8265782e+3, 3.6932206e+1, -2511218.3, -2583772.3, 2335.351, 0.0012139064, 0.0009924967, -2511143.3, 66921.45 
1.8265413e+3, 4.6929017e+1, -2420878.3, -2500574.5, 8872.16, 0.0016225874, 0.0032603166, -2419902.5, 60193.418 
1.826505e+3, 5.692533e+1, -2323187.8, -2402979.3, 9938.069, 0.0008338122, 0.0028275903, -2321968.5, 60163.51 
1.8264696e+3, 6.692089e+1, -2235288.5, -2326396.3, 16202.349, -0.0004251737, 0.0026601728, -2232492.8, 51682.668 
1.8264349e+3, 7.691571e+1, -2135993.5, -2227848.3, 17135.05, 0.00060988293, 0.0009497312, -2132901.0, 53325.31 
1.8264008e+3, 8.6909795e+1, -2047519.9, -2151007.8, 21695.73, 0.0013768674, 0.0018808331, -2043155.5, 45128.76 
1.8263672e+3, 9.690315e+1, -1948468.5, -2052728.9, 22106.514, 0.00066073803, 0.002837825, -1943975.0, 46374.434 
1.826334e+3, 1.06895685e+2, -1860282.9, -1977113.6, 25227.947, 0.0000651551, 0.0031998735, -1855068.0, 37354.57 
1.826301e+3, 1.1688742e+2, -1760411.3, -1878354.4, 25865.85, -0.00018305324, 0.0022038675, -1754988.0, 39515.547 
1.8262683e+3, 1.2687837e+2, -1672185.0, -1802789.8, 27540.84, 0.00009326407, 0.0026736187, -1666615.0, 29977.338 
1.8262358e+3, 1.3686852e+2, -1573029.1, -1704452.8, 27853.055, 0.00038358962, 0.0024153343, -1567369.9, 31318.977 
1.8262033e+3, 1.4685786e+2, -1484734.4, -1628822.1, 28088.482, 0.00043049362, 0.0035672782, -1479452.4, 21340.828 
1.8261707e+3, 1.5684642e+2, -1385162.0, -1530328.3, 28130.756, 0.00064816704, 0.0038505176, -1379901.4, 23003.977 
1.8261379e+3, 1.6683413e+2, -1297586.1, -1455420.8, 27197.62, 0.00037618383, 0.0035173262, -1293031.0, 11994.86 
1.826105e+3, 1.7682102e+2, -1199031.6, -1357153.3, 27255.42, -0.00052211026, 0.0016743202, -1194465.5, 12688.647 
1.8260717e+3, 1.8680722e+2, -1111365.0, -1280629.5, 25023.354, -0.0004303329, 0.0016072176, -1107743.1, 1546.4346 
1.8260382e+3, 1.9679265e+2, -1013672.25, -1183045.3, 24685.404, 0.00054449274, 0.00106662, -1010147.8, 1284.4707 
1.8260042e+3, 2.0677735e+2, -927071.7, -1106868.5, 21287.809, 0.00026471636, 0.0033755412, -924585.6, -11003.34 
1.8259697e+3, 2.1676132e+2, -830552.1, -1009605.8, 21153.168, -0.00049743167, 0.0055081896, -828087.06, -12347.673 
1.825935e+3, 2.267446e+2, -744088.7, -931204.1, 17361.979, 0.00040760532, 0.0036623632, -742491.4, -24588.28 
1.8258995e+3, 2.3672725e+2, -649593.6, -835024.44, 16586.662, 0.0020758177, -0.0013240636, -648121.6, -28048.416 
1.8258636e+3, 2.4670933e+2, -564131.94, -756034.8, 12016.207, 0.00030318124, 0.0008484517, -563382.5, -41133.758 
1.8258269e+3, 2.566909e+2, -471046.5, -660212.6, 11720.412, -0.0029093507, 0.005473181, -470323.1, -45893.492 
1.8257901e+3, 2.666719e+2, -385942.84, -579257.25, 8403.147, -0.0016914541, 0.0046950034, -385578.25, -58962.598 
1.8257529e+3, 2.766524e+2, -294856.9, -484301.34, 7513.805, 0.0020253486, -0.00018695019, -294559.38, -65752.836 
1.8257149e+3, 2.8663257e+2, -210169.7, -402658.2, 3792.4092, 0.0013513669, 0.0029256227, -210095.02, -79093.9 
1.8256766e+3, 2.9661232e+2, -119383.22, -307937.34, 3889.01, -0.0013449737, 0.008401849, -119303.04, -86103.49 
1.8256381e+3, 3.0659473e+2, -38784.438, -180823.17, 2465.9414, -0.0012912715, 0.00078989466, -38741.64, -38741.64 
1.8255998e+3, 3.1657997e+2, -46851.355, -183480.44, 1179.2235, 0.00011771801, -0.014198201, -46841.18, -46841.18 
1.8255612e+3, 3.2657105e+2, 20886.93, -31914.156, 891.12933, 0.00015219198, 0.013809122, 20901.965, 20901.965 
1.8365853e+3, 3.69706e+1, -2510189.3, -2581537.0, 1922.4366, 0.0026364406, 0.001501056, -2510137.5, 67550.78 
1.8365483e+3, 4.696762e+1, -2419297.3, -2497255.5, 8960.227, 0.0011849299, 0.0046063866, -2418280.5, 61437.016 
1.8365121e+3, 5.696412e+1, -2321661.0, -2399764.3, 10022.808, -0.001004678, -0.0006990228, -2320395.3, 61356.598 
1.8364766e+3, 6.69599e+1, -2233975.8, -2323429.5, 16660.006, -0.0011628522, 0.0011055295, -2230973.8, 52819.58 
1.836442e+3, 7.695498e+1, -2134896.3, -2225208.3, 17556.855, 0.0014988784, 0.004626487, -2131603.3, 54238.35 
1.836408e+3, 8.694919e+1, -2047197.1, -2149828.3, 22119.098, 0.0016589366, 0.0043486874, -2042633.0, 45265.258 
1.8363746e+3, 9.69426e+1, -1947973.1, -2051299.8, 22618.787, -0.0005116328, 0.0008781797, -1943238.8, 46724.16 
1.8363413e+3, 1.0693526e+2, -1859495.8, -1975034.3, 25865.744, -0.00025402708, 0.0017940103, -1853969.5, 38065.14 
1.8363085e+3, 1.16927184e+2, -1759718.3, -1876442.1, 26428.143, 0.0014459338, 0.0038151902, -1754013.3, 40100.574 
1.836276e+3, 1.2691824e+2, -1671826.5, -1801710.5, 27887.553, 0.0007440051, 0.004371601, -1666091.9, 30109.68 
1.8362436e+3, 1.3690846e+2, -1572589.8, -1703405.9, 28276.275, -0.0012170074, 0.0026763226, -1566739.4, 31557.97 
1.8362111e+3, 1.4689785e+2, -1484639.9, -1628322.1, 28567.63, -0.00094293605, 0.002142329, -1479168.4, 21232.99 
1.8361787e+3, 1.5688644e+2, -1385049.6, -1529706.8, 28588.553, 0.00003904453, 0.0010974344, -1379604.6, 22908.572 
1.836146e+3, 1.6687422e+2, -1297470.5, -1454852.3, 27387.977, 0.00049729523, 0.0027210114, -1292840.6, 11792.294 
1.8361132e+3, 1.7686121e+2, -1198934.5, -1356779.9, 27487.68, 0.0006088197, 0.0042330134, -1194284.6, 12475.812 
1.8360798e+3, 1.8684739e+2, -1111857.9, -1281541.9, 25077.895, 0.00017805719, 0.005304179, -1108229.3, 666.7798 
1.8360464e+3, 1.9683276e+2, -1014061.4, -1183814.4, 24747.543, -0.00056991994, 0.0038990793, -1010527.1, 512.1953 
1.8360122e+3, 2.0681739e+2, -927298.0, -1107365.6, 21017.62, 0.00035036527, 0.0019620862, -924877.4, -11687.369 
1.8359777e+3, 2.1680127e+2, -830818.8, -1010289.1, 20808.363, 0.002165683, -0.00095169555, -828437.8, -13089.946 
1.8359426e+3, 2.267845e+2, -745175.06, -933443.4, 16536.191, -0.0004180619, 0.0023181376, -743733.6, -26221.53 
1.835907e+3, 2.3676708e+2, -650604.94, -837073.9, 15811.454, -0.0047738557, 0.00722719, -649273.75, -29590.863 
1.8358707e+3, 2.4674906e+2, -564700.44, -757200.2, 10766.71, -0.0014016416, 0.005794304, -564100.1, -42240.465 
1.8358338e+3, 2.567304e+2, -471568.0, -661588.5, 10398.177, 0.005929394, 0.000024354724, -471000.7, -46958.508 
1.8357965e+3, 2.667113e+2, -386940.53, -581433.2, 6548.2393, 0.0029740105, -0.00023826148, -386720.3, -60490.88 
1.8357587e+3, 2.7669173e+2, -295811.06, -486312.75, 5690.1357, -0.0052829096, 0.0010219503, -295641.25, -67219.98 
1.8357204e+3, 2.8667182e+2, -210247.17, -402977.3, 1868.3566, -0.0037465778, 0.004480437, -210229.06, -79612.516 
1.8356815e+3, 2.966515e+2, -119639.26, -308969.72, 1872.3448, 0.0032476543, 0.0071141315, -119620.74, -86805.26 
1.8356426e+3, 3.0663377e+2, -40530.605, -184995.22, 183.91086, 0.0023951435, 0.0027819867, -40530.37, -40530.37 
1.8356036e+3, 3.1661874e+2, -47680.266, -185547.84, -929.88336, -0.0024677184, -0.0062012523, -47673.996, -47673.996 
1.8355644e+3, 3.2660997e+2, 25269.8, -23061.887, -860.844, -0.0027937563, 0.005653527, 25285.129, 25285.129 
1.846592e+3, 3.7009084e+1, -2521241.3, -2583957.8, 2250.6104, 0.002022443, 0.0017445313, -2521160.8, 56150.574 
1.8465549e+3, 4.7006336e+1, -2428975.5, -2499825.3, 9583.573, 0.0014334453, 0.00473884, -2427702.3, 51636.023 
1.8465187e+3, 5.700304e+1, -2330230.5, -2401758.3, 10477.483, -0.00008039704, 0.00037375066, -2328727.3, 52643.117 
1.8464833e+3, 6.6999006e+1, -2241592.0, -2325187.8, 17335.625, -0.00022050859, 0.0015466254, -2238139.8, 45270.305 
1.8464488e+3, 7.699425e+1, -2141511.5, -2226397.8, 18105.117, 0.0011307765, 0.0039894367, -2137811.0, 47645.52 
1.8464151e+3, 8.6988646e+1, -2052484.8, -2150449.5, 22994.414, 0.0011355256, 0.004123011, -2047356.0, 40155.56 
1.8463816e+3, 9.698224e+1, -1951848.9, -2051284.5, 23971.736, -0.00013395936, 0.0018420493, -1946371.5, 43202.8 
1.8463486e+3, 1.0697505e+2, -1862984.0, -1975319.1, 27340.94, 0.00002066325, 0.002435485, -1856683.0, 34961.85 
1.846316e+3, 1.1696709e+2, -1762849.4, -1876532.3, 27911.611, 0.0010779161, 0.0034968178, -1756366.1, 37356.742 
1.8462835e+3, 1.2695827e+2, -1673696.6, -1801211.4, 29595.244, 0.00069770793, 0.0040461407, -1667162.6, 28646.797 
1.8462512e+3, 1.3694862e+2, -1572644.8, -1701929.8, 30227.836, -0.000315725, 0.0028220876, -1565926.4, 31977.637 
1.846219e+3, 1.4693812e+2, -1484359.6, -1627209.3, 30743.23, -0.00025997046, 0.002501861, -1478024.3, 21982.67 
1.8461867e+3, 1.5692677e+2, -1384555.4, -1528439.5, 31067.24, -0.00039054878, 0.0016301674, -1378134.0, 23983.902 
1.846154e+3, 1.6691464e+2, -1295964.0, -1453272.4, 29903.486, 0.00001767397, 0.0029797256, -1290471.3, 13765.634 
1.8461214e+3, 1.7690167e+2, -1195741.9, -1354369.3, 30026.525, 0.0009056531, 0.0036965474, -1190248.4, 16115.477 
1.8460882e+3, 1.8688788e+2, -1108085.3, -1279547.0, 27574.52, 0.00049454585, 0.004707469, -1103759.9, 4739.2754 
1.8460545e+3, 1.9687325e+2, -1009523.8, -1181441.0, 27595.303, -0.0007907028, 0.004055823, -1005202.94, 5439.492 
1.8460205e+3, 2.0685785e+2, -922008.9, -1105262.6, 23673.932, 0.00003993231, 0.0024360681, -918999.94, -6206.529 
1.845986e+3, 2.1684167e+2, -824411.94, -1007689.7, 23353.65, 0.0022622338, -0.0003960626, -821483.0, -6531.1475 
1.8459506e+3, 2.2682485e+2, -738479.06, -930966.2, 18694.898, -0.00006268569, 0.0023148847, -736680.1, -19563.408 
1.8459147e+3, 2.3680736e+2, -644337.0, -834773.2, 18529.117, -0.0041266815, 0.0062245214, -642550.9, -23262.6 
1.8458782e+3, 2.467892e+2, -558160.75, -755446.94, 13307.834, -0.0010423745, 0.00498353, -557267.1, -35801.008 
1.8458411e+3, 2.5677043e+2, -463793.6, -659081.9, 12512.613, 0.0054871924, 0.00013551836, -462995.16, -39345.25 
1.8458033e+3, 2.6675123e+2, -380003.88, -579245.3, 7822.707, 0.0024102726, 0.00059694645, -379697.2, -53858.93 
1.8457648e+3, 2.7673155e+2, -291149.97, -485226.56, 7365.841, -0.0054310337, 0.0024934243, -290870.8, -62839.668 
1.8457259e+3, 2.8671148e+2, -205810.89, -401767.63, 3719.7, -0.0031825807, 0.0035284855, -205740.3, -75512.73 
1.8456866e+3, 2.9669106e+2, -114967.555, -307654.2, 3234.7095, 0.0041844114, 0.0023120348, -114913.266, -82485.6 
1.8456471e+3, 3.0667332e+2, -37452.176, -184089.9, 1613.3563, 0.0022698427, 0.0035190976, -37434.43, -37434.43 
1.8456073e+3, 3.1665832e+2, -47451.55, -185918.73, 1924.1951, -0.003043343, 0.0047371304, -47424.816, -47424.816 
1.8455675e+3, 3.266494e+2, 24439.695, -22863.922, 949.01575, -0.0022829145, -0.00040225618, 24458.727, 24458.727 
1.8565981e+3, 3.7047607e+1, -2519144.3, -2579124.8, 2536.7961, -0.0007066775, 0.0013513492, -2519037.3, 57896.563 
1.8565613e+3, 4.70451e+1, -2427867.5, -2497269.3, 9899.717, 0.002111424, 0.0040171403, -2426483.0, 52475.34 
1.8565251e+3, 5.7042027e+1, -2328906.0, -2399121.3, 10873.384, 0.002221131, 0.003878507, -2327260.8, 53727.824 
1.85649e+3, 6.703815e+1, -2240512.8, -2322809.5, 18081.52, 0.0010951885, 0.0029156378, -2236715.3, 46311.313 
1.8564555e+3, 7.703351e+1, -2140444.3, -2223914.3, 18907.17, -0.00043106495, 0.00039968165, -2136361.3, 48710.758 
1.8564217e+3, 8.702813e+1, -2051097.6, -2147165.5, 23843.05, -0.00008276249, 0.0020599929, -2045505.5, 41619.137 
1.8563886e+3, 9.7021997e+1, -1950643.8, -2048337.0, 24726.826, 0.0007552506, 0.0043703807, -1944741.8, 44443.035 
1.8563557e+3, 1.0701496e+2, -1862423.0, -1973654.6, 27975.273, 0.00013887163, 0.0041212398, -1855783.4, 35470.297 
1.8563232e+3, 1.17007084e+2, -1762110.4, -1874680.8, 28611.926, -0.0010182539, 0.001658532, -1755255.6, 38075.31 
1.856291e+3, 1.2699841e+2, -1672880.4, -1799041.3, 30451.598, -0.000121115074, 0.0021929662, -1665914.9, 29501.033 
1.856259e+3, 1.3698894e+2, -1571910.6, -1699788.5, 30987.648, 0.0014613614, 0.0031502172, -1564797.4, 32711.39 
1.8562268e+3, 1.469786e+2, -1483768.3, -1625515.3, 31177.979, 0.0010731858, 0.004427152, -1477213.5, 22396.512 
1.8561946e+3, 1.569674e+2, -1383855.9, -1526858.4, 31606.84, -0.00075857167, 0.004219238, -1377181.6, 24538.207 
1.8561623e+3, 1.6695534e+2, -1295634.1, -1452326.6, 30518.553, -0.000643386, 0.0037773391, -1289900.0, 13938.081 
1.8561295e+3, 1.7694241e+2, -1195514.3, -1353492.9, 30611.06, 0.00033687922, 0.001154037, -1189790.1, 16174.5 
1.8560964e+3, 1.8692864e+2, -1108104.9, -1279139.9, 27770.611, 0.0003298353, 0.0011926615, -1103708.8, 4390.7085 
1.856063e+3, 1.9691409e+2, -1009459.75, -1181036.4, 27853.684, -0.00044703533, 0.001801404, -1005051.25, 5190.9663 
1.8560289e+3, 2.0689872e+2, -922679.6, -1106318.3, 23655.385, -0.00074382697, 0.0039526843, -919681.44, -7288.4277 
1.8559943e+3, 2.1688253e+2, -825024.8, -1008606.9, 23342.576, -0.0000613233, 0.00541877, -822103.3, -7551.62 
1.8559588e+3, 2.2686562e+2, -738578.56, -931129.1, 17769.139, 0.00084382476, 0.0035655077, -736952.5, -20235.309 
1.8559228e+3, 2.3684803e+2, -644324.06, -835202.44, 17634.705, 0.0018741747, -0.0014533483, -642708.5, -23818.916 
1.855886e+3, 2.468298e+2, -559303.75, -757887.7, 12352.014, 0.00059932406, 0.00015893635, -558538.44, -37470.16 
1.8558486e+3, 2.5681096e+2, -465030.38, -661399.7, 11411.244, -0.0019421113, 0.0042623575, -464369.5, -41116.6 
1.8558101e+3, 2.6679164e+2, -380511.3, -580320.8, 5354.319, -0.0019105958, 0.0057841265, -380367.94, -54925.746 
1.8557711e+3, 2.7677184e+2, -291388.7, -486386.53, 5055.8706, -0.00034554474, 0.0044563413, -291257.7, -63621.64 
1.8557318e+3, 2.8675166e+2, -206415.95, -403399.53, 1896.8784, 0.0011389186, 0.0008628559, -206397.69, -76563.695 
1.855692e+3, 2.9673108e+2, -115663.984, -308991.16, 1195.3684, 0.0019749058, -0.0051751193, -115656.59, -83620.88 
1.8556517e+3, 3.0671337e+2, -36586.72, -182361.23, -1515.63, -0.00050462293, 0.0035410011, -36570.96, -36570.96 
1.8556112e+3, 3.1669867e+2, -46890.688, -185338.92, -1046.3542, -0.002006262, 0.0186075, -46882.78, -46882.78 
1.8555707e+3, 3.2668933e+2, 22192.97, -28248.475, -1058.6471, -0.00037465294, -0.0049588378, 22215.178, 22215.178 
1.8666038e+3, 3.7086025e+1, -2531644.0, -2581669.8, 2007.4572, -0.0002558879, 0.0022796956, -2531563.5, 44993.715 
1.866567e+3, 4.708377e+1, -2438998.5, -2500241.8, 9617.268, 0.0018932899, 0.003283538, -2437523.8, 41055.645 
1.866531e+3, 5.708093e+1, -2337487.0, -2400798.0, 10679.598, 0.0016173734, 0.004132874, -2335734.3, 44873.035 
1.8664959e+3, 6.7077273e+1, -2247917.0, -2324238.0, 18111.857, 0.0012844346, 0.003311124, -2243837.0, 38806.15 
1.8664618e+3, 7.707283e+1, -2147303.8, -2225101.3, 19162.309, -0.00010707761, 0.00095543347, -2142840.0, 41846.65 
1.8664283e+3, 8.7067634e+1, -2057367.8, -2148240.3, 24205.678, -0.00008517067, 0.0022778644, -2051322.4, 35415.17 
1.8663953e+3, 9.706168e+1, -1956148.8, -2048977.1, 24887.15, 0.00080816995, 0.004045885, -1949897.5, 38898.395 
1.8663627e+3, 1.0705483e+2, -1866518.1, -1973532.1, 28461.29, 0.00044353274, 0.0039598495, -1859419.5, 31443.508 
1.8663304e+3, 1.1704716e+2, -1764745.8, -1873836.6, 29551.373, -0.00056578626, 0.0019480507, -1757255.0, 35683.234 
1.8662983e+3, 1.2703866e+2, -1675385.6, -1798415.0, 31661.998, -0.0000818046, 0.0023946178, -1667715.5, 27306.012 
1.8662664e+3, 1.3702936e+2, -1574472.1, -1699116.1, 32391.506, 0.00101296, 0.0032573114, -1566557.1, 30555.521 
1.8662345e+3, 1.4701918e+2, -1484903.9, -1624143.1, 32837.77, 0.0006845485, 0.004431467, -1477548.1, 21664.217 
1.8662025e+3, 1.5700814e+2, -1382820.4, -1524380.9, 33515.27, -0.00036155686, 0.0039345208, -1375286.4, 26033.988 
1.8661703e+3, 1.6699623e+2, -1294041.3, -1450181.6, 32614.494, -0.00010936189, 0.0036775132, -1287502.6, 15934.7295 
1.8661378e+3, 1.7698343e+2, -1193448.4, -1351039.5, 33030.492, 0.00038469685, 0.0019370872, -1186805.4, 18757.291 
1.8661049e+3, 1.8696979e+2, -1105008.3, -1276603.4, 30330.436, 0.00032687117, 0.0016844582, -1099805.0, 7891.382 
1.8660715e+3, 1.969553e+2, -1004889.4, -1177834.6, 30784.248, 0.0001227881, 0.0015011751, -999573.2, 10265.227 
1.8660375e+3, 2.0693997e+2, -917452.75, -1103211.1, 26632.854, -0.00047480583, 0.003595789, -913709.7, -1721.1644 
1.8660028e+3, 2.1692383e+2, -819314.8, -1005311.06, 26940.346, -0.00054590765, 0.0050865803, -815491.25, -1344.4578 
1.8659674e+3, 2.2690691e+2, -731850.4, -928578.8, 20899.123, 0.00080334564, 0.0034251034, -729654.75, -13342.061 
1.865931e+3, 2.3688924e+2, -635217.6, -831366.0, 20417.871, 0.0026708583, -0.0009063521, -633114.8, -14629.023 
1.865894e+3, 2.4687093e+2, -550911.9, -754392.06, 14774.588, 0.0007804901, 0.00058432017, -549844.7, -29179.684 
1.865856e+3, 2.5685206e+2, -459525.16, -659388.4, 14585.152, -0.0029673185, 0.003980942, -458466.4, -35616.188 
1.8658173e+3, 2.6683265e+2, -374100.3, -578493.0, 8129.3926, -0.001961238, 0.0052639553, -373777.47, -48737.023 
1.8657778e+3, 2.7681273e+2, -282251.75, -483193.4, 7596.981, 0.0018513995, 0.004005311, -281964.94, -54729.547 
1.8657377e+3, 2.8679243e+2, -200106.36, -401649.34, 3734.0583, 0.0019962303, 0.0012344812, -200037.2, -70602.69 
1.8656972e+3, 2.9677173e+2, -114746.95, -309479.0, 2991.25, -0.0005197918, -0.0035882494, -114701.016, -83063.7 
1.8656564e+3, 3.0675402e+2, -35162.406, -180514.3, 174.08937, -0.0022432043, 0.003375444, -35162.2, -35162.2 
1.8656151e+3, 3.1673938e+2, -43985.4, -183553.23, 534.91785, -0.00058219786, 0.015115239, -43983.348, -43983.348 
1.865574e+3, 3.2672992e+2, 22388.016, -31252.723, 947.52014, 0.0009609892, -0.0031142116, 22404.746, 22404.746 
1.8766089e+3, 3.712431e+1, -2529367.5, -2577208.8, 2716.38, 0.0023734763, 0.0035116689, -2529213.8, 46968.414 
1.8765724e+3, 4.71223e+1, -2437276.0, -2496585.5, 10596.575, 0.0008029813, 0.0026529878, -2435439.8, 42762.094 
1.8765366e+3, 5.7119703e+1, -2335913.0, -2397253.0, 11648.727, -0.0011175772, 0.0023246114, -2333775.5, 46451.85 
1.8765019e+3, 6.7116284e+1, -2246526.8, -2321057.8, 18945.096, 0.00065615115, 0.0031015116, -2241987.5, 40273.25 
1.8764678e+3, 7.711211e+1, -2145889.3, -2222067.0, 20038.844, 0.0011463113, 0.0038705445, -2140939.5, 43362.14 
1.8764344e+3, 8.710708e+1, -2056329.4, -2145868.0, 25255.723, 0.00034848566, 0.0037273737, -2049696.9, 36654.05 
1.8764018e+3, 9.710126e+1, -1955041.5, -2046399.4, 25968.453, -0.00014760728, 0.0018355871, -1948175.9, 40232.137 
1.8763694e+3, 1.0709465e+2, -1864962.1, -1969881.6, 29554.906, 0.00038572113, 0.0027098774, -1857209.6, 33263.21 
1.8763374e+3, 1.1708726e+2, -1763263.6, -1870345.4, 30502.586, 0.0011445484, 0.0038499706, -1755184.5, 37360.76 
1.8763055e+3, 1.2707898e+2, -1674145.3, -1795618.5, 32423.13, 0.00034676222, 0.0041169934, -1666032.8, 28593.56 
1.8762738e+3, 1.3706985e+2, -1573179.9, -1696354.4, 33230.184, -0.0012010254, 0.0028456382, -1564786.9, 31928.928 
1.8762422e+3, 1.4705987e+2, -1483684.0, -1621238.9, 33925.02, -0.000897443, 0.0026013297, -1475772.1, 23041.44 
1.8762104e+3, 1.5704904e+2, -1381802.0, -1521559.5, 34549.082, 0.00014760328, 0.0015068239, -1373727.6, 27192.074 
1.8761785e+3, 1.6703732e+2, -1293404.5, -1448122.5, 33315.945, 0.00069349085, 0.0028947503, -1286535.5, 16499.15 
1.8761462e+3, 1.7702472e+2, -1192596.1, -1348808.5, 33841.33, 0.00051289477, 0.0046305493, -1185580.0, 19578.145 
1.8761134e+3, 1.8701123e+2, -1104362.4, -1274864.5, 30961.354, 0.00026862873, 0.004960234, -1098914.1, 8376.103 
1.8760802e+3, 1.9699685e+2, -1004306.56, -1176176.9, 31421.75, 0.0003911612, 0.0030310052, -998742.1, 10688.991 
1.8760462e+3, 2.0698163e+2, -916846.44, -1101650.6, 26729.98, 0.00017273343, 0.0022146916, -913057.9, -1477.5626 
1.8760116e+3, 2.1696557e+2, -818798.8, -1004123.25, 27009.695, 0.000025113139, 0.0003960344, -814942.56, -1204.8883 
1.875976e+3, 2.2694865e+2, -732763.25, -930282.6, 20581.887, -0.00015424096, 0.002354379, -730641.4, -14737.941 
1.8759397e+3, 2.3693097e+2, -635916.44, -832654.2, 20063.908, -0.00055789045, 0.005443445, -633891.06, -15814.181 
1.8759024e+3, 2.4691264e+2, -550641.7, -753896.56, 13063.0625, -0.00034301094, 0.004737828, -549805.56, -29549.195 
1.875864e+3, 2.568937e+2, -459222.3, -659243.2, 12946.727, 0.00032656334, 0.00088878564, -458387.8, -35945.953 
1.8758248e+3, 2.668742e+2, -374787.66, -580342.06, 6445.486, 0.00073411973, 0.00092738285, -374585.75, -49952.86 
1.8757848e+3, 2.7685422e+2, -283035.34, -485141.78, 5706.4785, 0.001655681, 0.001774917, -282874.34, -56045.43 
1.8757442e+3, 2.868338e+2, -200783.95, -403469.9, 325.5733, 0.00031951434, 0.0040510967, -200783.44, -71754.53 
1.8757026e+3, 2.9681304e+2, -115038.26, -310770.84, -217.53674, -0.003363725, 0.0052190702, -115038.016, -83805.625 
1.875661e+3, 3.067953e+2, -34353.25, -179290.28, -2325.224, -0.0037588992, 0.0029262644, -34315.957, -34315.957 
1.8756191e+3, 3.167805e+2, -43888.484, -183478.0, -1886.4542, 0.0005779509, -0.002601325, -43862.996, -43862.996 
1.8755774e+3, 3.2677114e+2, 20873.016, -34567.723, -1605.4889, 0.0025657632, 0.0056500984, 20919.469, 20919.469 
1.8866137e+3, 3.716236e+1, -2541310.8, -2581058.0, 1897.7458, 0.0025689823, 0.0028010923, -2541220.5, 34588.777 
1.8865775e+3, 4.716061e+1, -2447852.5, -2498853.3, 9557.055, 0.0010663408, 0.0038791546, -2446120.3, 31706.016 
1.8865418e+3, 5.715826e+1, -2346112.0, -2399414.8, 10559.6045, -0.0012811748, 0.0018306454, -2344096.3, 35753.105 
1.8865073e+3, 6.715509e+1, -2255329.3, -2322868.0, 17802.139, 0.0011903074, 0.002743658, -2250924.3, 30956.303 
1.8864734e+3, 7.715114e+1, -2152938.5, -2223024.0, 18880.934, 0.0013697151, 0.004424578, -2148175.8, 35743.43 
1.8864404e+3, 8.714633e+1, -2062321.5, -2146372.0, 24313.936, 0.00016768379, 0.004216627, -2055794.9, 30171.465 
1.8864079e+3, 9.7140723e+1, -1960522.0, -2046609.6, 25392.55, 0.00017784668, 0.0019766397, -1953590.4, 34430.9 
1.8863758e+3, 1.0713435e+2, -1870118.3, -1969863.8, 29209.97, 0.0006365799, 0.0025979786, -1862193.8, 27890.012 
1.8863441e+3, 1.1712719e+2, -1768342.8, -1870229.0, 30226.305, 0.00095195306, 0.0038908646, -1760050.5, 32103.479 
1.8863125e+3, 1.2711917e+2, -1677808.4, -1794497.0, 32511.547, 0.0003439653, 0.00429701, -1669361.5, 24871.102 
1.886281e+3, 1.371103e+2, -1574943.6, -1694271.4, 33715.453, -0.0005651419, 0.0028948204, -1566076.4, 30243.037 
1.8862498e+3, 1.4710055e+2, -1485329.9, -1619340.9, 34748.996, -0.00023945603, 0.0026180353, -1476855.4, 21559.518 
1.8862182e+3, 1.5708998e+2, -1383717.3, -1519621.5, 35621.84, 0.0003963965, 0.0019888054, -1374946.4, 25572.139 
1.8861865e+3, 1.6707852e+2, -1294029.1, -1445315.0, 34971.62, 0.0004681591, 0.003128091, -1286336.1, 16294.614 
1.8861544e+3, 1.7706619e+2, -1191376.1, -1345119.5, 36244.89, 0.00010929863, 0.0040280838, -1183259.9, 21491.803 
1.886122e+3, 1.8705294e+2, -1102011.9, -1271484.0, 33623.09, 0.00021642582, 0.0047033504, -1095584.9, 11296.718 
1.8860888e+3, 1.9703875e+2, -1000483.75, -1171951.8, 34534.758, 0.0009360366, 0.0036870567, -993789.56, 15230.927 
1.886055e+3, 2.0702368e+2, -912128.9, -1097890.3, 29797.268, 0.00062101916, 0.0026236337, -907466.2, 3701.9373 
1.8860205e+3, 2.1700776e+2, -812656.5, -999608.06, 30364.813, -0.00015099012, 0.00083896925, -807848.3, 5475.999 
1.885985e+3, 2.2699097e+2, -725892.56, -925920.2, 24239.48, -0.00040019437, 0.0027711669, -722997.06, -7508.2173 
1.8859485e+3, 2.3697335e+2, -628686.9, -828256.3, 24884.668, -0.00032182928, 0.005435708, -625630.75, -7969.1924 
1.885911e+3, 2.4695504e+2, -542681.94, -750577.8, 16927.98, -0.000035232435, 0.0048195166, -541312.56, -21471.527 
1.8858723e+3, 2.5693604e+2, -449317.3, -654837.56, 16366.558, 0.00070508337, 0.0013951649, -448022.13, -25995.035 
1.8858327e+3, 2.669165e+2, -365878.5, -576549.9, 9515.978, 0.00077112997, 0.0009911883, -365449.56, -41230.88 
1.8857922e+3, 2.7689642e+2, -276771.3, -482549.2, 9233.416, 0.0008892846, 0.0011192019, -276357.84, -49942.59 
1.8857506e+3, 2.86876e+2, -195007.45, -401070.53, 3366.4023, 0.00031709255, 0.004537161, -194952.47, -66336.96 
1.8857084e+3, 2.968552e+2, -109171.76, -308555.53, 3410.9192, -0.0020356623, 0.008022579, -109113.43, -78294.3 
1.885666e+3, 3.0683732e+2, -31473.99, -179355.42, 590.52295, -0.0031640911, 0.0026823408, -31471.633, -31471.633 
1.885623e+3, 3.1682235e+2, -44605.844, -184364.81, -267.1063, 0.00055379816, -0.008770188, -44605.336, -44605.336 
1.8855806e+3, 3.2681322e+2, 18114.813, -32663.404, 1410.6862, 0.0017517448, 0.009593624, 18153.973, 18153.973 
1.8966179e+3, 3.7200165e+1, -2540784.3, -2579313.3, 3005.3918, 0.00047253742, 0.0014195234, -2540551.3, 34887.406 
1.896582e+3, 4.719866e+1, -2446155.5, -2495218.3, 10652.039, 0.0015073866, 0.0059570833, -2443942.5, 33510.965 
1.8965466e+3, 5.719654e+1, -2344392.3, -2395907.5, 11733.3545, -0.00017468787, 0.0017394715, -2341845.8, 37628.477 
1.8965124e+3, 6.7193586e+1, -2253882.8, -2319649.3, 19114.436, 0.0021156208, 0.0019770847, -2248731.0, 32772.27 
1.8964788e+3, 7.7189857e+1, -2151543.5, -2219838.3, 20209.117, 0.0006112705, 0.0032189535, -2146011.5, 37528.203 
1.896446e+3, 8.718531e+1, -2060648.8, -2142538.8, 25443.16, -0.0005257045, 0.0038705966, -2053387.4, 32196.879 
1.8964139e+3, 9.7179985e+1, -1958821.1, -2042876.3, 26484.78, 0.0008543082, 0.0032298332, -1951172.1, 36464.3 
1.8963821e+3, 1.0717385e+2, -1868483.5, -1966228.5, 30278.953, 0.0004935065, 0.0029017779, -1859864.0, 29832.639 
1.8963505e+3, 1.1716693e+2, -1766659.3, -1866492.0, 31326.703, -0.0011515397, 0.0021149244, -1757643.4, 34121.1 
1.8963194e+3, 1.2715921e+2, -1675813.6, -1789906.9, 33856.723, -0.00044323696, 0.0028609082, -1666523.4, 27316.863 
1.8962884e+3, 1.3715068e+2, -1573103.6, -1689808.5, 34927.63, 0.0013419838, 0.0031991627, -1563449.1, 32474.584 
1.8962571e+3, 1.4714125e+2, -1483739.4, -1615490.9, 35705.508, 0.0014247771, 0.0040134834, -1474685.1, 23330.926 
1.896226e+3, 1.5713096e+2, -1381882.4, -1515522.4, 36689.19, 0.000234332, 0.0043418296, -1372472.5, 27644.533 
1.8961945e+3, 1.6711983e+2, -1291724.0, -1440058.0, 36181.473, -0.00051938905, 0.0039545, -1283369.3, 18856.813 
1.8961628e+3, 1.7710784e+2, -1189436.0, -1340363.3, 37410.027, -0.0011078299, 0.0013812586, -1180672.1, 23671.473 
1.8961304e+3, 1.8709487e+2, -1100815.0, -1268071.9, 34477.63, -0.00029571148, 0.0021555424, -1093986.6, 12483.974 
1.8960977e+3, 1.9708097e+2, -999088.2, -1168371.9, 35425.254, 0.0014314331, 0.003445225, -991973.9, 16632.996 
1.8960641e+3, 2.0706613e+2, -911410.0, -1095720.6, 30210.264, 0.00078220357, 0.004380109, -906584.56, 4167.6313 
1.8960296e+3, 2.1705039e+2, -811678.44, -996991.9, 30896.51, -0.0010333809, 0.004984276, -806662.94, 6243.581 
1.8959941e+3, 2.270338e+2, -724504.2, -922606.25, 24007.932, -0.0003395498, 0.0042207097, -721636.2, -6567.1294 
1.8959576e+3, 2.3701635e+2, -627577.9, -825713.6, 24603.313, 0.0020148114, 0.0011943644, -624568.5, -7328.5933 
1.8959197e+3, 2.4699807e+2, -543556.2, -752314.44, 15683.957, 0.0010036039, 0.0022665197, -542384.44, -22965.268 
1.8958808e+3, 2.5697905e+2, -449763.3, -655977.4, 15164.147, -0.0014683426, 0.00456687, -448654.2, -27048.422 
1.8958408e+3, 2.6695946e+2, -365621.03, -576155.44, 7186.349, -0.0015392815, 0.0044726343, -365376.0, -41578.59 
1.8957995e+3, 2.7693942e+2, -276418.84, -482117.03, 6819.1357, -0.00058345683, 0.001911945, -276193.03, -50199.063 
1.8957573e+3, 2.86919e+2, -194469.17, -400386.75, 128.06268, 0.0013585127, 0.0034175368, -194469.1, -66275.08 
1.8957143e+3, 2.9689825e+2, -109072.875, -309002.03, 148.68987, 0.0019822072, 0.0061108186, -109072.766, -78675.38 
1.8956707e+3, 3.0688015e+2, -33313.19, -183857.73, -3011.985, -0.0012838609, 0.0029505445, -33252.957, -33252.957 
1.8956271e+3, 3.1686494e+2, -45290.25, -186177.64, -3714.3655, -0.0010721616, -0.0059545827, -45192.395, -45192.395 
1.8955836e+3, 3.268561e+2, 22149.678, -23513.393, -2306.8474, -0.0018107699, 0.00810301, 22265.922, 22265.922 
1.9066216e+3, 3.7237522e+1, -2552654.8, -2581091.0, 1138.3619, 0.00030326165, 0.0027963936, -2552609.3, 22463.264 
1.906586e+3, 4.7236264e+1, -2457139.0, -2498154.3, 8752.968, 0.0016518857, 0.0034877935, -2455349.0, 21735.867 
1.906551e+3, 5.72344e+1, -2353375.5, -2397841.3, 9537.969, 0.0001558042, 0.0027344346, -2351415.8, 27687.326 
1.9065171e+3, 6.723169e+1, -2261826.5, -2320847.0, 16800.326, 0.0025465412, 0.0028503046, -2257379.3, 23750.492 
1.906484e+3, 7.7228194e+1, -2159485.0, -2221037.5, 17961.008, 0.00064141955, 0.0025631648, -2154627.3, 28536.744 
1.9064514e+3, 8.72239e+1, -2067936.4, -2143186.5, 23278.646, -0.00059411756, 0.0032878923, -2061317.4, 23888.744 
1.9064195e+3, 9.721886e+1, -1965435.8, -2043212.4, 24395.361, 0.0011306133, 0.0035700253, -1958417.3, 28838.281 
1.906388e+3, 1.07213005e+2, -1874082.9, -1965761.9, 28466.967, 0.00080054085, 0.0035073094, -1865962.9, 23349.994 
1.9063568e+3, 1.1720638e+2, -1771526.3, -1865591.1, 29778.193, -0.0007957831, 0.0026463324, -1762891.9, 28485.982 
1.9063258e+3, 1.2719896e+2, -1680679.3, -1788664.8, 32579.898, -0.00038888317, 0.0031315829, -1671611.1, 21839.34 
1.9062951e+3, 1.3719076e+2, -1578382.3, -1688621.4, 33760.008, 0.0009827187, 0.00333309, -1568865.0, 26665.783 
1.9062643e+3, 1.4718172e+2, -1487412.3, -1612730.4, 35177.266, 0.0009661653, 0.004079172, -1478213.1, 19406.412 
1.9062334e+3, 1.5717183e+2, -1383690.6, -1511887.4, 36964.82, 0.00021141721, 0.004073737, -1373795.8, 25920.727 
1.9062023e+3, 1.6716106e+2, -1293203.3, -1436780.9, 36774.28, 0.00004598459, 0.003546054, -1284332.4, 17489.574 
1.9061708e+3, 1.7714943e+2, -1190934.9, -1336806.5, 38182.574, 0.00008644995, 0.0016025648, -1181544.9, 22391.1 
1.906139e+3, 1.8713687e+2, -1101269.4, -1263460.9, 36154.805, 0.00013378791, 0.0017095584, -1093575.0, 12484.002 
1.9061063e+3, 1.9712338e+2, -998140.44, -1163140.8, 38312.402, 0.00022662918, 0.0022281315, -989678.44, 18512.713 
1.906073e+3, 2.0710893e+2, -908660.3, -1090577.8, 33843.645, 0.00029012814, 0.003340679, -902568.1, 7764.674 
1.9060388e+3, 2.1709353e+2, -806372.5, -990618.0, 35714.785, 0.00059289223, 0.0040010237, -799691.7, 12792.053 
1.9060034e+3, 2.2707722e+2, -718215.1, -917093.2, 28481.266, 0.00031977578, 0.0032830269, -714216.7, 427.02972 
1.9059668e+3, 2.3705998e+2, -619864.56, -819389.06, 29136.205, 0.00042308314, 0.0006733738, -615696.9, 1115.5192 
1.905929e+3, 2.4704188e+2, -534937.44, -746456.2, 20404.016, 0.0004615694, 0.002007271, -532987.2, -13997.381 
1.9058897e+3, 2.5702298e+2, -439997.97, -649712.44, 21435.09, 0.00021246888, 0.004695827, -437829.5, -16654.53 
1.9058491e+3, 2.670035e+2, -357261.88, -571806.0, 12578.989, -0.00070563215, 0.0048189024, -356526.88, -33160.914 
1.9058073e+3, 2.7698347e+2, -269765.78, -478515.63, 12199.352, -0.0017306196, 0.0024763444, -269055.28, -43492.89 
1.9057643e+3, 2.8696308e+2, -187844.63, -396676.2, 4963.4478, 0.000622785, 0.0029190162, -187726.72, -59964.39 
1.9057204e+3, 2.969423e+2, -101988.2, -305296.84, 4834.678, 0.0028663585, 0.003548369, -101873.305, -71907.63 
1.905676e+3, 3.069242e+2, -29616.523, -182563.67, 1732.0208, -0.00023228957, 0.0030607432, -29596.912, -29596.912 
1.905631e+3, 3.16909e+2, -46084.13, -186780.69, 2484.2437, -0.0007817829, 0.00065863674, -46040.277, -46040.277 
1.9055861e+3, 3.2690018e+2, 17948.78, -22530.135, 2032.5973, -0.0020742635, 0.003186451, 18050.588, 18050.588 
1.9166248e+3, 3.727443e+1, -2549395.3, -2574221.8, 2935.2593, 0.00058978656, 0.0044761705, -2549052.8, 25658.1 
1.9165896e+3, 4.7273406e+1, -2455863.0, -2495400.5, 10246.822, 0.001290407, -0.0011719781, -2453365.0, 23355.883 
1.9165552e+3, 5.72718e+1, -2352104.8, -2394956.5, 11188.153, -0.0002116519, 0.004419215, -2349359.8, 29377.09 
1.9165215e+3, 6.726932e+1, -2260177.0, -2317194.3, 18137.137, 0.0022551203, 0.004695153, -2254896.8, 25864.373 
1.9164887e+3, 7.726606e+1, -2157757.0, -2217384.3, 19290.89, 0.00066165737, 0.0021283843, -2152060.3, 30732.764 
1.9164565e+3, 8.7262034e+1, -2065989.9, -2138981.3, 24590.576, -0.0007467317, 0.0026520942, -2058478.5, 26353.959 
1.916425e+3, 9.7257286e+1, -1963484.5, -2039012.8, 25690.56, 0.00041279875, 0.0034050427, -1955574.4, 31304.588 
1.9163936e+3, 1.0725176e+2, -1871807.1, -1960809.5, 29726.496, 0.0010278196, 0.00432679, -1862791.8, 26141.348 
1.9163628e+3, 1.1724549e+2, -1769368.4, -1860827.3, 30955.406, 0.00074888056, 0.0047041536, -1759876.3, 31118.326 
1.9163321e+3, 1.2723841e+2, -1678467.9, -1783673.0, 33738.61, -0.00011152935, 0.0044441456, -1668577.9, 24486.121 
1.9163017e+3, 1.3723055e+2, -1576019.4, -1683353.3, 35007.246, -0.0012051534, 0.003093329, -1565611.0, 29530.006 
1.9162713e+3, 1.4722194e+2, -1484120.6, -1605353.4, 36689.0, -0.0010243931, 0.002802079, -1473882.0, 23343.281 
1.9162408e+3, 1.5721256e+2, -1380857.5, -1505146.6, 38334.742, -0.00008770067, 0.0019389133, -1369985.0, 29332.28 
1.9162099e+3, 1.6720222e+2, -1291055.9, -1431439.5, 37850.742, 0.0010909828, 0.0026727866, -1281500.8, 19917.756 
1.9161788e+3, 1.77191e+2, -1188193.0, -1330688.6, 39406.484, 0.0024719427, 0.0037318338, -1178021.4, 25507.07 
1.916147e+3, 1.8717897e+2, -1097579.9, -1255157.3, 37453.125, 0.0009413324, 0.0028870583, -1089131.0, 16515.48 
1.916115e+3, 1.9716603e+2, -994753.75, -1155190.3, 39590.67, -0.0023755152, 0.0006451568, -985515.94, 22257.193 
1.9160819e+3, 2.071521e+2, -905731.75, -1083700.3, 34830.63, -0.0008877587, 0.00048246694, -899157.8, 10751.95 
1.9160481e+3, 2.1713717e+2, -803603.3, -984180.5, 36671.875, 0.003390783, -0.00007231655, -796440.1, 15615.921 
1.9160128e+3, 2.271212e+2, -717146.9, -914048.0, 28517.334, 0.00093588576, 0.0013565244, -713099.9, 1112.7267 
1.9159763e+3, 2.3710425e+2, -618406.6, -815675.25, 29309.023, -0.0041478546, 0.0030773906, -614144.2, 2234.4688 
1.9159384e+3, 2.4708648e+2, -532700.7, -741417.5, 19503.805, -0.001394434, 0.0036956621, -530893.75, -12340.999 
1.9158989e+3, 2.570679e+2, -437931.16, -645361.2, 20385.03, 0.0043243826, 0.0027399855, -435946.8, -15212.08 
1.9158578e+3, 2.6704857e+2, -357016.1, -571511.4, 9749.114, 0.0021682882, 0.0027262296, -356573.9, -33649.547 
1.9158152e+3, 2.7702856e+2, -269207.84, -477984.13, 9547.264, -0.0029276193, 0.0027717692, -268772.16, -43651.695 
1.9157715e+3, 2.8700817e+2, -187427.42, -396330.22, 1968.5822, -0.001805997, 0.0030394758, -187408.88, -60088.67 
1.9157267e+3, 2.969874e+2, -101507.71, -304438.44, 1636.8691, 0.0008166553, 0.00017815427, -101494.51, -71970.89 
1.9156812e+3, 3.0696946e+2, -28617.893, -180714.08, -3017.0217, 0.00044491052, 0.0029950335, -28558.068, -28558.068 
1.915635e+3, 3.1695446e+2, -45543.32, -186041.84, -2218.1772, 0.0016707351, 0.010548613, -45508.31, -45508.31 
1.9155887e+3, 3.2694545e+2, 17941.707, -22762.188, -3065.4087, -0.002554704, -0.004511325, 18171.268, 18171.268 
1.9266276e+3, 3.7310725e+1, -2560277.5, -2577993.8, 754.1766, 0.001820146, 0.0039042581, -2560245.3, 14109.909 
1.9265929e+3, 4.7309944e+1, -2465211.0, -2497094.5, 6909.986, 0.001254191, 0.00061472546, -2463778.0, 12584.939 
1.9265589e+3, 5.7308584e+1, -2360884.3, -2396394.0, 7995.525, -0.00044976838, 0.0043588583, -2359167.0, 19209.28 
1.9265257e+3, 6.730635e+1, -2268225.3, -2318570.3, 14527.4795, 0.001936442, 0.004470811, -2264334.0, 16064.05 
1.9264932e+3, 7.730333e+1, -2165331.8, -2218512.8, 15579.467, 0.0005888979, 0.0025457782, -2161103.8, 21323.855 
1.9264613e+3, 8.729957e+1, -2073014.8, -2139318.5, 20833.93, -0.0010844918, 0.0028208678, -2067011.9, 17452.701 
1.9264299e+3, 9.7295105e+1, -1970577.8, -2039315.6, 21967.936, -0.000074319134, 0.0032198092, -1964156.9, 22351.451 
1.926399e+3, 1.07289895e+2, -1878520.0, -1960366.8, 26084.254, 0.0010801518, 0.0037343418, -1870913.9, 17645.518 
1.9263685e+3, 1.1728396e+2, -1775890.8, -1860197.8, 27353.715, 0.001637387, 0.0037242472, -1767793.5, 22824.064 
1.9263381e+3, 1.2727727e+2, -1683842.4, -1781592.1, 30568.959, 0.00077758817, 0.0036532932, -1675069.9, 17613.125 
1.926308e+3, 1.3726985e+2, -1580911.1, -1681056.4, 32297.666, -0.00019204653, 0.0028063608, -1571398.5, 23357.322 
1.9262779e+3, 1.472617e+2, -1489408.0, -1602813.6, 34103.914, -0.00027701296, 0.0026024259, -1479942.3, 16893.582 
1.9262476e+3, 1.5725277e+2, -1387212.8, -1502904.9, 35649.72, 0.000025067135, 0.0019893204, -1377109.8, 21813.377 
1.9262172e+3, 1.6724302e+2, -1295756.8, -1426851.0, 36329.117, 0.000645883, 0.0031498808, -1286362.4, 14656.478 
1.9261864e+3, 1.7723241e+2, -1191505.1, -1325508.6, 39346.445, 0.0016110076, 0.0045802854, -1180806.4, 22316.236 
1.9261551e+3, 1.8722099e+2, -1100383.1, -1249631.5, 38074.652, 0.00090904714, 0.004841339, -1091231.1, 14003.381 
1.9261234e+3, 1.972087e+2, -997494.3, -1149425.0, 40865.15, -0.0007836293, 0.0037822365, -987200.2, 20154.82 
1.9260907e+3, 2.0719542e+2, -907105.4, -1076844.9, 37313.496, -0.0004027521, 0.003274946, -899265.0, 10220.251 
1.9260572e+3, 2.1718115e+2, -802910.4, -976234.8, 40573.42, 0.0015510577, 0.002273402, -793882.75, 17742.21 
1.9260222e+3, 2.271658e+2, -714286.56, -906158.9, 33789.36, 0.0005857528, 0.003438357, -708510.06, 5265.337 
1.9259858e+3, 2.3714943e+2, -611625.6, -805889.5, 37013.082, -0.0017309692, 0.005058351, -604812.5, 11123.41 
1.9259478e+3, 2.4713211e+2, -525158.8, -733408.9, 26761.648, -0.0005509356, 0.003933632, -521774.72, -3669.0996 
1.9259082e+3, 2.571139e+2, -430205.16, -637399.25, 27754.03, 0.002464067, 0.00071538566, -426551.88, -6267.731 
1.9258668e+3, 2.6709488e+2, -348435.63, -563732.44, 16782.098, 0.0013077095, 0.0020232662, -347135.34, -24665.004 
1.9258234e+3, 2.7707523e+2, -259434.56, -469780.94, 18594.379, -0.0015291471, 0.0048065265, -257803.48, -33140.313 
1.9257788e+3, 2.8705496e+2, -181126.13, -393172.13, 11061.843, -0.0013603199, 0.004120796, -180550.63, -53689.008 
1.9257331e+3, 2.970342e+2, -96890.71, -301652.7, 10315.312, -0.0006026399, -0.0003966481, -96372.37, -67307.195 
1.9256866e+3, 3.070163e+2, -24478.484, -176882.31, 3771.5366, 0.0013712691, 0.0037921246, -24385.207, -24385.207 
1.925639e+3, 3.170015e+2, -43916.266, -184055.17, 4400.954, 0.0045698523, 0.011920523, -43778.19, -43778.19 
1.9255914e+3, 3.2699233e+2, 20741.992, -24810.11, 2765.1052, -0.0036547366, -0.0029854458, 20909.227, 20909.227 
1.93663e+3, 3.734644e+1, -2560470.3, -2578514.3, 2890.0208, 0.0025305517, 0.0031499127, -2560018.8, 13986.535 
1.9365957e+3, 4.7345856e+1, -2463340.0, -2493225.0, 8605.14, 0.0009579813, 0.0055681416, -2461039.3, 14971.727 
1.936562e+3, 5.73447e+1, -2359227.0, -2392847.8, 9799.361, -0.0005464856, 0.0028117537, -2356579.5, 21442.918 
1.9365294e+3, 6.73427e+1, -2266909.3, -2315324.3, 15918.3, 0.0011556353, 0.0029866172, -2262144.5, 17897.44 
1.9364972e+3, 7.733993e+1, -2163871.3, -2215191.3, 16974.44, -0.0001343522, 0.0032392333, -2158764.8, 23304.225 
1.9364657e+3, 8.733643e+1, -2070974.8, -2134986.5, 22084.38, -0.0016155567, 0.0032114661, -2064095.0, 20008.334 
1.9364347e+3, 9.733225e+1, -1968552.4, -2034984.3, 23214.457, -0.0009789345, 0.0025584218, -1961244.1, 24900.113 
1.9364041e+3, 1.07327364e+2, -1876160.9, -1955213.5, 27368.121, 0.000317528, 0.0018453079, -1867610.8, 20581.51 
1.9363739e+3, 1.17321774e+2, -1773507.4, -1854909.4, 28661.785, 0.0014820282, 0.00036249144, -1764428.1, 25818.816 
1.9363439e+3, 1.2731554e+2, -1680670.0, -1774433.8, 31898.654, 0.0016812471, 0.00091768656, -1670847.1, 21460.982 
1.936314e+3, 1.3730863e+2, -1578078.0, -1674442.1, 33517.707, 0.002143886, 0.001839613, -1567566.4, 26809.424 
1.9362842e+3, 1.4730091e+2, -1486542.5, -1596287.6, 35227.54, 0.00150344, 0.002859466, -1476207.9, 20243.396 
1.9362542e+3, 1.5729249e+2, -1383783.6, -1495529.6, 36966.54, 0.00011377774, 0.003318545, -1372661.8, 25872.24 
1.9362241e+3, 1.6728342e+2, -1290308.9, -1414961.8, 37921.902, -0.0008500904, 0.0041271853, -1279678.8, 20944.135 
1.9361939e+3, 1.7727363e+2, -1186768.6, -1314595.3, 40727.06, -0.0018335902, 0.00422532, -1174895.4, 27823.355 
1.9361629e+3, 1.8726295e+2, -1095908.9, -1239569.8, 39261.504, -0.000119903925, 0.0068396516, -1085879.1, 18944.201 
1.9361314e+3, 1.9725141e+2, -992585.4, -1138872.6, 42199.426, 0.0028833698, 0.009517392, -981285.06, 25651.453 
1.9360992e+3, 2.0723894e+2, -901501.94, -1064429.8, 38887.953, 0.0005402976, 0.009636849, -892696.0, 16362.753 
1.936066e+3, 2.1722554e+2, -797222.3, -963526.75, 42126.656, -0.0039853533, 0.008494433, -787160.0, 24030.01 
1.9360314e+3, 2.2721107e+2, -708512.4, -893491.3, 34750.848, -0.0011288141, 0.0075277677, -702199.44, 11132.406 
1.9359957e+3, 2.3719554e+2, -605906.75, -793738.94, 37968.83, 0.0048440164, 0.005863757, -598522.0, 16962.031 
1.9359577e+3, 2.471788e+2, -522735.5, -727747.6, 25704.56, 0.0016782586, 0.0023198538, -519561.75, -1913.6816 
1.9359177e+3, 2.57161e+2, -428004.13, -631526.8, 26767.145, -0.0043272446, -0.0020861975, -424542.6, -4719.7495 
1.9358757e+3, 2.671425e+2, -344818.97, -555513.8, 14337.584, -0.0025691797, 0.0021072295, -343847.78, -21844.057 
1.9358318e+3, 2.7712345e+2, -255615.4, -461935.2, 16111.77, 0.0014357464, 0.007454025, -254364.8, -30174.264 
1.9357865e+3, 2.871034e+2, -181301.86, -393502.53, 7749.0117, 0.0009883277, 0.0048239096, -181019.27, -54632.406 
1.9357398e+3, 2.970826e+2, -96958.14, -301681.03, 7076.4727, -0.0011233111, 0.0011729306, -96713.82, -68123.09 
1.9356918e+3, 3.0706483e+2, -23792.334, -175524.73, -1310.3983, 0.001918744, 0.0060492763, -23781.018, -23781.018 
1.935643e+3, 3.1704998e+2, -43627.65, -183388.9, -489.75082, 0.0045075743, 0.0063761794, -43625.934, -43625.934 
1.9355944e+3, 3.2704067e+2, 16964.963, -33781.867, -611.056, -0.0035572012, 0.0055713304, 16972.32, 16972.32 
1.9466321e+3, 3.7381363e+1, -2568301.5, -2580053.5, -149.6823, 0.0005775405, 0.0017201898, -2568299.5, 5363.4995 
1.9465984e+3, 4.738099e+1, -2470843.0, -2494757.0, 4742.743, 0.0005581319, 0.005006131, -2469936.8, 5729.928 
1.9465652e+3, 5.7380027e+1, -2366728.3, -2394358.0, 5403.885, -0.00029264812, 0.0015001773, -2365709.0, 11967.125 
1.9465329e+3, 6.737825e+1, -2273818.3, -2316238.8, 10962.12, 0.0018743767, 0.0021693055, -2271153.0, 8540.5 
1.946501e+3, 7.737572e+1, -2170886.8, -2216103.0, 11994.463, 0.0016991467, 0.0033907786, -2167902.0, 13816.182 
1.9464698e+3, 8.737248e+1, -2077925.6, -2135454.8, 16889.875, 0.00049463863, 0.0038805888, -2073333.5, 10416.489 
1.9464391e+3, 9.7368586e+1, -1975253.8, -2035266.1, 17795.754, 0.0010170074, 0.0036555238, -1970373.6, 15414.703 
1.9464087e+3, 1.07364014e+2, -1882351.3, -1954274.5, 21797.18, 0.0005375551, 0.0036456482, -1876261.0, 11571.964 
1.946379e+3, 1.173588e+2, -1780152.1, -1854148.9, 22985.441, -0.0005559437, 0.0029051472, -1773593.6, 16290.541 
1.9463491e+3, 1.2735295e+2, -1687092.9, -1772667.4, 26089.102, -0.0006141442, 0.0033695716, -1679766.4, 12174.969 
1.9463196e+3, 1.3734649e+2, -1585003.1, -1672806.9, 27477.828, 0.00044400606, 0.0039539556, -1577113.1, 16891.652 
1.94629e+3, 1.4733933e+2, -1492198.4, -1592270.1, 29856.926, 0.00094454066, 0.00439017, -1483967.4, 12107.602 
1.9462605e+3, 1.573315e+2, -1389418.3, -1491605.0, 32415.76, 0.0013053785, 0.004144288, -1380002.9, 18148.852 
1.9462307e+3, 1.6732304e+2, -1297009.4, -1410362.8, 33262.668, 0.00065539207, 0.0026213496, -1287969.6, 12264.818 
1.9462007e+3, 1.7731395e+2, -1195985.1, -1310984.9, 35748.863, -0.00076916255, 0.0001315795, -1185778.3, 16545.318 
1.94617e+3, 1.8730411e+2, -1103869.4, -1232758.4, 35638.574, 0.00007725652, -0.00012514004, -1094671.5, 9748.599 
1.946139e+3, 1.972935e+2, -999939.94, -1131668.1, 40271.42, 0.002399231, 0.00010371426, -988603.8, 17920.14 
1.9461071e+3, 2.072821e+2, -908015.06, -1055043.8, 38859.063, 0.0010861224, 0.0009931895, -898376.6, 10259.224 
1.9460745e+3, 2.1726984e+2, -804078.9, -954282.3, 44207.24, -0.0020546357, 0.0019121147, -792033.9, 18722.012 
1.9460402e+3, 2.2725654e+2, -713293.7, -882400.44, 39099.996, -0.0005789091, 0.0012598605, -704690.9, 8195.483 
1.946005e+3, 2.3724219e+2, -607694.5, -780921.44, 44890.23, 0.0034205366, -0.00076739397, -596752.75, 18274.078 
1.9459671e+3, 2.4722664e+2, -521320.6, -715187.4, 35001.43, 0.0010690787, 0.0012146712, -515194.88, 1984.3435 
1.9459271e+3, 2.5720993e+2, -419761.16, -615166.5, 40983.53, -0.003368667, 0.0047524227, -411513.56, 7829.349 
1.9458848e+3, 2.671923e+2, -339279.94, -545712.0, 27707.28, -0.0014496333, 0.0045141736, -335625.75, -14109.921 
1.9458401e+3, 2.7717373e+2, -256535.81, -455317.38, 28650.516, 0.0028788934, 0.00026253087, -252488.8, -28791.129 
1.945794e+3, 2.8715435e+2, -179337.0, -384909.25, 23786.39, 0.000742561, 0.0013295244, -176620.61, -50732.973 
1.9457467e+3, 2.9713428e+2, -84004.414, -288271.9, 27882.6, -0.0036753353, 0.005014815, -80266.82, -52182.277 
1.945698e+3, 3.0711624e+2, -12083.059, -179667.1, 15614.646, -0.00010692176, 0.0056988574, -10640.58, -10640.58 
1.9456479e+3, 3.171004e+2, -23901.338, -183446.78, 9073.771, 0.0034045095, 0.00066883746, -23386.947, -23386.947 
1.9455974e+3, 3.2709068e+2, 19094.879, -33527.81, 2237.7686, 0.00059959927, 0.007126856, 19189.867, 19189.867 
1.9566338e+3, 3.741554e+1, -2565992.8, -2575445.5, 2445.6643, -0.001687346, -0.00076146383, -2565397.3, 7930.7017 
1.9566005e+3, 4.7415352e+1, -2470187.3, -2493156.8, 6322.851, -0.00044555924, 0.0019473452, -2468561.8, 6768.2065 
1.9565679e+3, 5.741453e+1, -2365862.3, -2392513.3, 7154.6606, -0.00075003284, 0.00094273756, -2364063.0, 13274.851 
1.956536e+3, 6.741295e+1, -2272324.3, -2312847.8, 12187.062, 0.0031646441, 0.0021882092, -2268941.5, 10411.952 
1.9565046e+3, 7.741065e+1, -2169433.0, -2212782.5, 13112.087, 0.004647236, 0.0034901253, -2165775.5, 15600.361 
1.9564736e+3, 8.7407666e+1, -2076370.4, -2131919.5, 17987.086, 0.0034285698, 0.0050218087, -2071054.8, 12350.535 
1.9564433e+3, 9.740402e+1, -1973721.6, -2031702.8, 18980.0, 0.0037665232, 0.005906213, -1968061.1, 17379.74 
1.9564134e+3, 1.0739978e+2, -1880201.6, -1949259.9, 22890.9, 0.0009679809, 0.007740496, -1873303.0, 14179.453 
1.9563836e+3, 1.1739495e+2, -1778165.4, -1849319.9, 24150.555, -0.0038197122, 0.009257847, -1770742.8, 18787.123 
1.9563541e+3, 1.2738948e+2, -1684624.9, -1766719.3, 27307.463, -0.0051820483, 0.009663222, -1676371.3, 15212.103 
1.9563249e+3, 1.3738343e+2, -1582336.1, -1666379.0, 28769.893, -0.0043561542, 0.009120946, -1573431.1, 20211.613 
1.9562957e+3, 1.4737687e+2, -1487554.0, -1581812.4, 31151.586, -0.0014205418, 0.0076268194, -1478189.1, 17517.965 
1.9562665e+3, 1.5736973e+2, -1385260.3, -1482086.9, 33507.2, 0.0023779515, 0.0053998814, -1374795.9, 22981.027 
1.9562368e+3, 1.6736193e+2, -1292535.6, -1400584.3, 34068.203, 0.0033060422, 0.0009644046, -1282690.9, 17162.701 
1.956207e+3, 1.7735347e+2, -1190701.3, -1300164.3, 36845.063, 0.0027189022, -0.0049839825, -1179454.8, 22481.62 
1.9561768e+3, 1.8734454e+2, -1095477.0, -1215311.4, 37217.434, 0.0008186321, -0.011314378, -1084859.1, 19164.7 
1.956146e+3, 1.9733508e+2, -991859.9, -1114580.5, 41661.35, -0.0012014881, -0.017679147, -979053.1, 27063.49 
1.9561146e+3, 2.0732495e+2, -898128.1, -1034564.7, 40153.24, 0.001212375, -0.016162302, -887188.25, 21027.527 
1.9560824e+3, 2.1731415e+2, -794136.94, -934024.06, 45433.652, 0.0052507487, -0.011833736, -780676.0, 29645.738 
1.9560488e+3, 2.2730233e+2, -702429.06, -859617.06, 40700.414, 0.0021631022, -0.010192556, -692515.8, 19921.775 
1.9560137e+3, 2.3728956e+2, -596903.4, -757695.7, 46407.996, -0.0036106769, -0.009918245, -584470.4, 30092.125 
1.9559763e+3, 2.472758e+2, -509549.94, -690617.25, 35421.008, -0.0020014627, 0.0033684762, -502867.38, 13830.046 
1.9559367e+3, 2.5726092e+2, -407092.03, -589954.2, 41505.668, 0.0025878781, 0.02033879, -398112.13, 20731.047 
1.9558941e+3, 2.6724428e+2, -335442.25, -538031.2, 22849.832, 0.002957898, 0.009984117, -332897.0, -11890.847 
1.9558483e+3, 2.7722606e+2, -253134.48, -447563.38, 23162.844, 0.0030371144, -0.012130949, -250413.13, -27228.316 
1.9558014e+3, 2.872077e+2, -171118.8, -366656.2, 22175.84, -0.0016610246, -0.0025844877, -168635.39, -43270.38 
1.9557539e+3, 2.9718897e+2, -76316.47, -271959.47, 27141.695, -0.010303094, 0.010397478, -72620.88, -45072.38 
1.9557045e+3, 3.0717042e+2, -25190.814, -206758.05, 12405.252, -0.00774726, 0.0024021938, -24347.168, -24347.168 
1.9556537e+3, 3.1715268e+2, -36750.79, -209608.53, 5381.1978, 0.0010028506, -0.003137009, -36583.43, -36583.43 
1.9556005e+3, 3.2714233e+2, 20395.596, -28268.148, -14201.09, 0.008398475, 0.005619453, 24236.6, 24236.6 
1.9666354e+3, 3.744899e+1, -2570149.8, -2575573.8, -1106.3265, 0.0022545354, 0.0042084907, -2569932.8, 3067.5051 
1.9666027e+3, 4.7448903e+1, -2475173.0, -2494628.5, 1688.3607, 0.0018643715, 0.0041430066, -2475027.5, -26.375397 
1.9665705e+3, 5.744819e+1, -2370885.3, -2394062.5, 2261.3843, -0.00048414344, 0.004500427, -2370666.5, 6341.4624 
1.9665389e+3, 6.7446685e+1, -2278015.5, -2314730.0, 6235.5757, 0.0011524158, 0.004547274, -2276985.3, 2037.5713 
1.9665079e+3, 7.744446e+1, -2175140.3, -2214243.3, 6258.9067, -0.0006290131, 0.0031373894, -2174162.8, 6881.833 
1.9664772e+3, 8.7441635e+1, -2081368.0, -2131848.8, 10528.362, -0.0025362202, 0.002184873, -2079260.1, 3812.151 
1.9664471e+3, 9.743821e+1, -1979186.3, -2031672.8, 11179.724, -0.0011740534, 0.00092541974, -1976904.1, 8201.714 
1.9664174e+3, 1.07434265e+2, -1885352.8, -1947897.5, 14811.485, 0.0010657888, 0.0013147701, -1882022.5, 5122.105 
1.9663881e+3, 1.1742976e+2, -1783807.9, -1848258.0, 15943.086, 0.0026619975, 0.0017297921, -1780079.8, 9108.934 
1.9663587e+3, 1.274247e+2, -1690354.6, -1764511.3, 19047.84, 0.0020744558, 0.0014744377, -1685748.1, 5490.0977 
1.9663298e+3, 1.374191e+2, -1589250.3, -1664863.9, 20579.3, 0.0017327174, 0.00060654304, -1584012.1, 9280.968 
1.9663008e+3, 1.4741306e+2, -1494840.0, -1579126.3, 22461.111, 0.0013176373, 0.0007262485, -1489228.1, 6124.3394 
1.9662718e+3, 1.5740652e+2, -1393841.3, -1479867.9, 23968.693, 0.00051742955, 0.0012829781, -1387613.9, 9802.412 
1.9662425e+3, 1.6739953e+2, -1299726.0, -1394533.0, 24934.014, 0.00022824059, 0.004438655, -1293568.4, 5916.672 
1.9662128e+3, 1.7739204e+2, -1198573.0, -1294765.5, 28653.53, 0.00039861465, 0.00802135, -1190684.8, 10873.708 
1.9661829e+3, 1.8738414e+2, -1104485.1, -1208032.1, 28865.043, 0.0003117988, 0.01027463, -1096982.3, 6653.5557 
1.9661525e+3, 1.9737579e+2, -1004865.75, -1109455.4, 32800.156, -0.00006169189, 0.011714573, -995430.5, 10286.996 
1.9661213e+3, 2.0736688e+2, -911040.8, -1025185.3, 31696.713, -0.0003244916, 0.010524686, -902829.7, 4975.266 
1.9660893e+3, 2.1735743e+2, -808821.7, -924875.6, 37465.594, 0.0005651134, 0.007479559, -797777.6, 12119.952 
1.9660561e+3, 2.2734742e+2, -715918.4, -842566.8, 35404.83, 0.00082344026, 0.008323605, -706692.94, 5302.7305 
1.9660215e+3, 2.3733683e+2, -614598.25, -742812.5, 45227.137, 0.000023099132, 0.01021314, -600250.2, 13849.373 
1.9659844e+3, 2.4732529e+2, -525207.1, -668122.56, 39638.04, -0.000008009552, 0.006199043, -514949.6, 1263.0138 
1.9659449e+3, 2.5731286e+2, -424598.4, -568558.56, 53577.133, 0.0014754981, -0.0011963291, -406847.53, 11486.731 
1.9659016e+3, 2.672994e+2, -354017.34, -508547.16, 44012.035, -0.0008161629, 0.0021628386, -342361.38, -21895.172 
1.9658545e+3, 2.7728495e+2, -277888.78, -417306.94, 67488.9, -0.0032575747, 0.011847095, -250571.55, -27963.68 
1.9658081e+3, 2.8726643e+2, -219795.9, -433900.97, 71877.375, 0.0049873544, 0.008779013, -197904.27, -73114.71 
1.9657631e+3, 2.972434e+2, -59523.887, -311569.7, 34596.695, 0.0096304845, 0.00029328102, -54861.277, -27845.947 
1.9657134e+3, 3.0722302e+2, 39236.207, -164159.5, -9705.16, -0.0006841075, 0.0016143107, 39698.246, 39698.246 
1.9656597e+3, 3.172064e+2, -20442.834, -187140.25, 5082.138, 0.0017594197, 0.0037140772, -20288.037, -20288.037 
1.9656022e+3, 3.271979e+2, 4111.9185, -8467.832, -6419.532, -0.0035954248, 0.0023676914, 6809.4194, 6809.4194 
1.9766368e+3, 3.7481713e+1, -2570730.3, -2575074.8, 1163.3278, 0.0077563487, 0.013190719, -2570438.5, 2241.1655 
1.9766046e+3, 4.748163e+1, -2474859.3, -2493792.3, 3575.247, 0.00586198, 0.007887951, -2474206.5, 473.7956 
1.9765727e+3, 5.7480985e+1, -2370179.8, -2393223.3, 4217.6343, 0.00007535695, 0.009160343, -2369432.0, 7254.576 
1.9765414e+3, 6.747947e+1, -2277878.8, -2314797.8, 7972.946, -0.0028743062, 0.00757946, -2276230.5, 2470.9412 
1.9765107e+3, 7.747719e+1, -2174899.3, -2213876.8, 8200.377, -0.010643463, 0.0021391758, -2173244.3, 7479.4346 
1.9764805e+3, 8.747445e+1, -2080583.4, -2129404.8, 12216.784, -0.013146609, -0.003233442, -2077697.0, 5053.742 
1.9764507e+3, 9.7471166e+1, -1978974.1, -2029314.8, 12754.249, -0.009991961, -0.008813515, -1975927.1, 8855.804 
1.9764213e+3, 1.0746745e+2, -1884242.0, -1943634.1, 16043.772, 0.000608012, -0.011984002, -1880185.1, 6634.106 
1.9763923e+3, 1.1746325e+2, -1782520.8, -1843965.6, 16930.607, 0.013186926, -0.015094975, -1778164.5, 10695.88 
1.9763632e+3, 1.2745857e+2, -1687443.6, -1757950.0, 19686.418, 0.015219122, -0.016542831, -1682319.4, 8586.94 
1.9763345e+3, 1.3745344e+2, -1585784.6, -1658501.9, 21122.207, 0.013246178, -0.017571857, -1580094.5, 12862.195 
1.9763057e+3, 1.4744782e+2, -1490761.8, -1571787.0, 23019.668, 0.005818701, -0.0140913045, -1484678.4, 10333.08 
1.9762768e+3, 1.5744185e+2, -1389485.0, -1471717.4, 24686.334, -0.003753208, -0.008663419, -1382643.3, 14426.926 
1.9762476e+3, 1.6743577e+2, -1292797.9, -1380107.4, 25629.682, -0.0065849237, 0.0074213753, -1285830.4, 13299.552 
1.9762182e+3, 1.7742942e+2, -1193188.5, -1281977.8, 29290.94, -0.0065767113, 0.027647894, -1184396.3, 16795.676 
1.9761884e+3, 1.8742262e+2, -1098426.4, -1193800.1, 29571.912, -0.0022185456, 0.047345817, -1090001.4, 13257.132 
1.9761582e+3, 1.9741547e+2, -998572.56, -1095244.4, 34150.88, 0.0030121608, 0.0652896, -987725.3, 17603.465 
1.9761272e+3, 2.0740776e+2, -900721.75, -1003166.4, 34150.35, -0.003960821, 0.059491396, -890381.3, 17023.057 
1.9760954e+3, 2.173997e+2, -797656.25, -901443.44, 40415.78, -0.0145578245, 0.043190114, -783774.6, 25708.643 
1.9760624e+3, 2.2739184e+2, -697471.44, -803715.2, 38357.637, -0.006777593, 0.04120577, -685070.44, 26489.766 
1.9760282e+3, 2.3738393e+2, -596999.56, -705123.0, 48369.902, 0.007848026, 0.042584516, -578519.44, 35118.508 
1.9759913e+3, 2.473752e+2, -497790.3, -612345.3, 42592.957, 0.0038332492, 0.0015097499, -483689.44, 32033.908 
1.975952e+3, 2.573661e+2, -396129.78, -513341.8, 56521.99, -0.006382006, -0.05477588, -373314.66, 44497.945 
1.9759077e+3, 2.673581e+2, -304607.56, -410998.9, 40558.086, -0.01347743, -0.01927222, -290909.75, 28981.365 
1.9758588e+3, 2.7735093e+2, -227574.7, -314006.16, 64528.813, -0.0165555, 0.055692744, -193127.27, 28834.03 
1.9866379e+3, 3.7513825e+1, -2577126.0, -2578428.0, 1036.0468, -0.008500977, -0.005901842, -2576553.3, -4188.4624 
1.9866063e+3, 4.7513807e+1, -2476571.3, -2493658.3, 2571.8276, -0.006730433, -0.008972909, -2476192.5, -1827.3525 
1.9865751e+3, 5.751327e+1, -2369966.0, -2392101.0, 2831.7073, -0.0019915085, -0.006325371, -2369609.5, 6760.897 
1.9865444e+3, 6.751192e+1, -2277312.3, -2313241.0, 6031.0435, 0.010799341, -0.0011437839, -2276326.8, 2056.6091 
1.986514e+3, 7.750986e+1, -2175270.3, -2213313.5, 6492.9795, 0.017298607, 0.004031607, -2174192.8, 6210.9893 
1.986484e+3, 8.750724e+1, -2084677.0, -2131973.3, 8940.066, 0.015877943, 0.0120404605, -2083043.5, -614.1226 
1.9864543e+3, 9.7504044e+1, -1987051.4, -2034061.6, 8256.827, 0.01529449, 0.019859148, -1985643.4, -1182.6238 
1.9864248e+3, 1.0750033e+2, -1892957.1, -1948679.5, 10044.041, 0.002059896, 0.02388266, -1891201.9, -4704.801 
1.9863957e+3, 1.1749612e+2, -1790413.3, -1848261.5, 8880.043, -0.016231317, 0.025988616, -1789080.9, -542.4154 
1.9863673e+3, 1.2749156e+2, -1690040.6, -1757186.9, 10388.458, -0.02032118, 0.028293418, -1688470.1, 2112.9417 
1.9863388e+3, 1.3748664e+2, -1583439.8, -1654980.1, 9946.894, -0.018092059, 0.029933967, -1582082.5, 10548.826 
1.9863105e+3, 1.4748137e+2, -1486707.4, -1564053.6, 10321.999, -0.0076291054, 0.02719494, -1485353.6, 9329.303 
1.9862819e+3, 1.574758e+2, -1388010.8, -1465124.8, 11670.946, 0.0060974373, 0.021358086, -1386283.1, 10454.414 
1.9862527e+3, 1.6747002e+2, -1295584.5, -1372036.5, 11072.549, 0.010340068, -0.0023108881, -1294013.1, 4781.0576 
1.9862232e+3, 1.7746404e+2, -1203208.9, -1276479.6, 14103.817, 0.009916451, -0.032514956, -1200587.9, 264.88834 
1.9861932e+3, 1.8745807e+2, -1107909.9, -1180856.1, 16722.537, 0.003445358, -0.058912512, -1104259.0, -1347.8569 
1.9861628e+3, 1.9745208e+2, -1010483.25, -1082800.6, 24445.447, -0.0040056, -0.08245666, -1002995.25, 1974.5764 
1.9861323e+3, 2.0744653e+2, -909277.1, -981638.1, 28737.15, 0.0053574387, -0.071428776, -899253.1, 7771.1255 
1.986101e+3, 2.1744119e+2, -808762.9, -881653.75, 38616.496, 0.0200205, -0.047357485, -792109.3, 16967.318 
1.9860676e+3, 2.2743595e+2, -714119.5, -779475.8, 37313.836, 0.005683627, -0.04525334, -697197.44, 13930.654 
1.9860327e+3, 2.3743086e+2, -627157.6, -686769.1, 50498.17, -0.01505282, -0.05108678, -598325.1, 14852.777 
1.9859965e+3, 2.4742684e+2, -515688.94, -572056.8, 50216.023, 0.004040278, 0.006064195, -486288.3, 28929.021 
1.985958e+3, 2.574235e+2, -408318.22, -470729.3, 66552.43, 0.028292727, 0.08539977, -366018.6, 51231.613 
1.9859128e+3, 2.674194e+2, -304765.75, -348952.03, 42113.363, -0.016585613, 0.015466133, -279302.16, 39988.06 
1.9858617e+3, 2.7741626e+2, -251208.38, -270635.53, 12856.5205, 0.022041928, -0.05377492, -244808.48, -23487.602 
1.9966389e+3, 3.754569e+1, -2569600.8, -2575216.0, -807.84296, 0.0052184584, 0.0042928024, -2569487.0, 2565.7178 
1.9966082e+3, 4.7545797e+1, -2473711.0, -2491800.8, -1572.3177, 0.003201885, 0.011080982, -2473575.3, 476.3063 
1.9965774e+3, 5.754524e+1, -2376542.0, -2394925.0, -2961.4495, -0.0012950104, 0.006392284, -2376076.8, -19.776955 
1.996547e+3, 6.75439e+1, -2284826.3, -2315513.8, -2005.4231, -0.0000058199985, 0.0039002355, -2284695.8, -6625.6772 
1.9965167e+3, 7.75419e+1, -2181016.5, -2215767.8, -3313.138, -0.004787884, 0.0028752533, -2180703.3, -613.5858 
1.9964866e+3, 8.7539065e+1, -2082981.0, -2133446.0, -1826.0083, -0.0075016096, 0.0005769288, -2082915.0, -797.4015 
1.996457e+3, 9.7535545e+1, -1974697.6, -2030948.9, -1685.356, -0.0054035475, -0.0025256844, -1974647.1, 9504.895 
1.996428e+3, 1.0753147e+2, -1880328.0, -1946038.1, 1494.8678, 0.002345829, -0.0040280325, -1880294.0, 5897.9976 
1.9963995e+3, 1.1752693e+2, -1780951.6, -1846533.9, 1442.6095, 0.0054830005, -0.0047728894, -1780920.0, 7316.5093 
1.9963714e+3, 1.2752226e+2, -1690432.0, -1757246.6, 4484.357, 0.007082717, -0.005098538, -1690132.4, 149.91238 
1.9963437e+3, 1.3751732e+2, -1597629.1, -1660762.6, 4634.597, 0.008445978, -0.006317743, -1597290.8, -4960.08 
1.9963153e+3, 1.4751247e+2, -1500902.1, -1564656.3, 6448.7437, 0.0026342368, -0.005925506, -1500256.4, -5878.237 
1.9962867e+3, 1.5750751e+2, -1401139.3, -1465600.6, 10765.796, -0.0007268993, -0.006480207, -1399388.8, -2961.9744 
1.996257e+3, 1.675027e+2, -1301144.1, -1366383.8, 10543.22, -0.001655252, 0.006083088, -1299482.5, -1008.769 
1.9962272e+3, 1.7749786e+2, -1200634.5, -1265580.0, 14304.118, -0.0037962527, 0.013655966, -1197623.6, 2897.511 
1.9961973e+3, 1.8749367e+2, -1100106.3, -1157918.5, 8455.001, -0.0012267339, 0.029196331, -1098895.1, 3667.3118 
1.9961669e+3, 1.9748971e+2, -1006605.56, -1060885.1, 4069.42, 0.0013680246, 0.036514685, -1006302.1, -1701.1187 
1.9961363e+3, 2.0748621e+2, -906777.56, -951275.25, -3134.6611, -0.0015585908, 0.026465537, -906557.8, 77.63844 
1.996105e+3, 2.1748318e+2, -814458.6, -856573.06, -5107.733, -0.0016991687, 0.019637343, -813848.0, -5182.9014 
1.9960713e+3, 2.2748074e+2, -707477.9, -741744.9, -14493.311, -0.0040288046, 0.02258443, -702170.06, 8518.966 
1.9960357e+3, 2.3747884e+2, -609133.3, -643183.44, -3056.5159, -0.014651067, 0.019381182, -608861.06, 3846.5493 
1.996e+3, 2.4747792e+2, -512497.5, -520370.0, -17824.584, 0.01173824, -0.003498077, -498179.72, 16537.064 
1.9959621e+3, 2.574785e+2, -435154.34, -429392.72, -21228.734, 0.043452367, 0.006457406, -410850.22, 5860.669 
1.9959155e+3, 2.6748008e+2, -304552.44, -288468.5, 10158.3545, -0.08253048, -0.039982054, -283554.2, 35141.523 
1.995862e+3, 2.7748352e+2, -220893.83, -215195.39, -13254.225, 0.02679886, 0.03649, -204487.61, 16174.217 
