coord_x,coord_y,stress_xx,stress_yy,tau_xy,velocity_x,velocity_y,stress_1,eps,damage
5.002252e+0, 3.4672096e+1, -2549101.0, -2601920.0, 19.718353, 0.00031810123, -0.002444112, -2549101.0, 51112.074 
5.0023353e+0, 4.4668823e+1, -2458493.0, -2522954.8, -839.343, -0.00010024562, -0.0056371265, -2458482.0, 43763.207 
5.0023663e+0, 5.4664916e+1, -2359717.5, -2424996.0, -408.49286, -0.00032957603, -0.0040353728, -2359715.0, 44568.57 
5.002402e+0, 6.4660335e+1, -2269824.8, -2345013.3, -281.3301, -0.00019203889, -0.0025227708, -2269823.8, 36504.64 
5.002444e+0, 7.465513e+1, -2170868.0, -2246693.8, -526.8869, 0.00036938072, -0.0031232296, -2170864.5, 37514.965 
5.002481e+0, 8.4649175e+1, -2082402.0, -2169775.3, -468.2795, 0.00035332347, -0.0027329966, -2082399.4, 28038.354 
5.002515e+0, 9.464248e+1, -1983328.5, -2071424.4, -97.09925, -0.00032700013, -0.003365177, -1983328.4, 29174.988 
5.0025445e+0, 1.0463514e+2, -1893498.5, -1991489.5, -162.84422, -0.000400372, -0.003399429, -1893498.1, 21077.146 
5.002571e+0, 1.14627175e+2, -1794945.1, -1893278.4, -570.8918, 0.00022976744, -0.004803639, -1794941.9, 21711.557 
5.002602e+0, 1.2461848e+2, -1706626.0, -1816416.6, -558.49554, 0.00031685145, -0.0038139971, -1706623.1, 12115.499 
5.002638e+0, 1.3460906e+2, -1607444.9, -1717984.3, -231.27531, -0.00022794711, -0.0021907084, -1607444.4, 13386.609 
5.0026625e+0, 1.4459899e+2, -1517762.9, -1638145.9, -336.59494, -0.0002950724, -0.0015901715, -1517762.0, 5167.755 
5.002673e+0, 1.5458824e+2, -1419575.0, -1540084.1, -662.485, 0.00019763075, -0.004427109, -1419571.4, 5463.499 
5.002699e+0, 1.645768e+2, -1331248.1, -1463071.6, -513.3495, 0.00029538164, -0.004447639, -1331246.1, -4099.1104 
5.0027424e+0, 1.7456463e+2, -1231875.3, -1364474.6, -133.79819, -0.00007275865, -0.0034489755, -1231875.1, -2608.9104 
5.0027674e+0, 1.8455182e+2, -1142184.6, -1284677.0, -227.23396, -0.00019961878, -0.0021872527, -1142184.3, -10792.424 
5.0027704e+0, 1.9453837e+2, -1044079.44, -1186674.4, -521.57495, -0.00004204591, -0.0027178158, -1044077.56, -10553.935 
5.002793e+0, 2.045242e+2, -955445.8, -1108972.0, -462.2823, 0.000070163274, -0.003375932, -955444.4, -19781.91 
5.0028384e+0, 2.1450931e+2, -856127.56, -1010407.75, -324.56726, 0.00012906865, -0.006405445, -856126.9, -18318.396 
5.0028676e+0, 2.2449374e+2, -766939.1, -932002.94, -332.50674, 0.00007031607, -0.005507861, -766938.44, -26977.48 
5.002878e+0, 2.3447752e+2, -668486.8, -833754.94, -254.73853, -0.00013022388, -0.0023175871, -668486.4, -26366.49 
5.002903e+0, 2.444606e+2, -579372.5, -755277.94, -131.68408, -0.00016320696, -0.00095501763, -579372.44, -35086.605 
5.0029457e+0, 2.5444296e+2, -479992.22, -656439.56, -191.08044, 0.000010825577, -0.0040323297, -479992.03, -33533.4 
5.0029826e+0, 2.6442462e+2, -390913.44, -578592.6, -300.31067, 0.00008021743, -0.004689763, -390912.97, -42274.67 
5.0030124e+0, 2.744056e+2, -291796.2, -479784.2, -382.5444, 0.000019607704, -0.0047205393, -291795.4, -40970.793 
5.0030494e+0, 2.843858e+2, -203926.38, -404468.16, -280.40112, 0.000009465893, -0.0030748704, -203925.97, -50907.297 
5.003094e+0, 2.9436523e+2, -104357.6, -305516.2, -65.10436, 0.00006632133, -0.0020404577, -104357.586, -49137.15 
5.0031364e+0, 3.0434734e+2, -15130.87, -175334.03, -52.360867, 0.000013974813, -0.003311872, -15130.853, -15130.853 
5.003172e+0, 3.1433225e+2, -13779.401, -174245.31, -256.52313, -0.00018499911, -0.009859979, -13778.991, -13778.991 
5.003213e+0, 3.2432184e+2, 51336.063, -41398.367, -215.26184, 0.000033339464, 0.00054613664, 51336.563, 51336.563 
1.5006754e+1, 3.4671932e+1, -2551615.0, -2607061.0, 1033.0569, 0.00094436837, -0.0056706355, -2551595.8, 48618.94 
1.5007004e+1, 4.466862e+1, -2457746.8, -2521436.8, -562.3843, -0.0003017526, 0.00010520414, -2457742.0, 44505.36 
1.50071e+1, 5.466478e+1, -2358862.8, -2423253.3, -155.27841, -0.0009896295, -0.003615774, -2358862.3, 45422.55 
1.5007208e+1, 6.4660203e+1, -2270251.3, -2345890.5, -17.426937, -0.0005747864, -0.004597305, -2270251.3, 36078.484 
1.500733e+1, 7.465494e+1, -2171342.8, -2247656.0, -260.8646, 0.0011085042, -0.00443265, -2171342.0, 37039.297 
1.5007444e+1, 8.4649e+1, -2081748.3, -2168395.3, -167.31248, 0.0010595816, -0.003566294, -2081747.9, 28691.592 
1.5007544e+1, 9.464241e+1, -1982639.9, -2069957.6, 205.67055, -0.0009827047, -0.0040449076, -1982639.4, 29864.686 
1.5007634e+1, 1.04635075e+2, -1894233.5, -1992954.6, -11.577096, -0.0012004842, -0.0031674993, -1894233.5, 20342.402 
1.5007712e+1, 1.1462702e+2, -1795732.6, -1894851.3, -423.00537, 0.0006886104, -0.0027756894, -1795730.9, 20924.021 
1.5007804e+1, 1.246183e+2, -1706076.1, -1815240.8, -250.61555, 0.0009507161, -0.0025953471, -1706075.5, 12664.818 
1.5007915e+1, 1.3460894e+2, -1606844.6, -1716703.4, 83.88947, -0.0006831865, -0.004781782, -1606844.5, 13987.608 
1.5007988e+1, 1.4459884e+2, -1518344.1, -1639279.9, -286.48953, -0.00088543136, -0.0043055546, -1518343.5, 4587.448 
1.5008019e+1, 1.5458807e+2, -1420206.8, -1541310.1, -621.7836, 0.00059343607, -0.00293579, -1420203.5, 4832.98 
1.5008096e+1, 1.6457665e+2, -1330607.8, -1461714.3, -171.19803, 0.0008851328, -0.0020795555, -1330607.6, -3458.949 
1.5008228e+1, 1.7456454e+2, -1231184.8, -1363006.5, 221.29007, -0.00021761523, -0.004113855, -1231184.4, -1917.2114 
1.5008302e+1, 1.8455175e+2, -1142695.0, -1285656.5, -204.9969, -0.00060127774, -0.0043612057, -1142694.8, -11302.142 
1.5008311e+1, 1.9453822e+2, -1044639.75, -1187771.1, -513.3356, -0.0001269991, -0.0045685885, -1044637.94, -11112.754 
1.5008378e+1, 2.0452403e+2, -955237.9, -1108537.9, -140.68452, 0.00021049842, -0.0030950112, -955237.75, -19573.64 
1.5008515e+1, 2.1450922e+2, -855902.06, -1009882.0, 12.365906, 0.0003859827, -0.0018004163, -855902.06, -18092.701 
1.5008603e+1, 2.2449368e+2, -766793.75, -931649.75, -231.80511, 0.00021114103, -0.0016828009, -766793.44, -26831.768 
1.5008633e+1, 2.3447742e+2, -668347.75, -833408.6, -166.73743, -0.00039154323, -0.0054651885, -668347.56, -26226.625 
1.5008707e+1, 2.4446048e+2, -579510.8, -755465.4, 166.77762, -0.0004891637, -0.005534063, -579510.6, -35223.688 
1.5008837e+1, 2.544429e+2, -480131.8, -656673.25, 118.47111, 0.00003263351, -0.003183709, -480131.72, -33672.293 
1.5008949e+1, 2.6442453e+2, -391096.63, -578859.56, -67.83006, 0.00024089272, -0.0019886491, -391096.63, -42457.492 
1.5009037e+1, 2.7440548e+2, -291983.28, -480051.5, -155.76955, 0.000058617912, -0.0046234177, -291983.16, -41157.254 
1.5009147e+1, 2.8438568e+2, -203594.97, -403675.56, 49.102375, 0.000028071578, -0.004139238, -203594.95, -50575.0 
1.5009283e+1, 2.9436517e+2, -104007.56, -304643.34, 268.9075, 0.000200465, -0.0024075801, -104007.2, -48786.13 
1.5009408e+1, 3.043473e+2, -15453.324, -176009.86, 241.2177, 0.00004197913, -0.0021177293, -15452.962, -15452.962 
1.5009518e+1, 3.143322e+2, -14138.466, -175041.64, 32.692886, -0.00055017887, -0.0059643425, -14138.46, -14138.46 
1.500964e+1, 3.2432172e+2, 51961.34, -40199.203, 69.98623, 0.00009478534, -0.0029367672, 51961.39, 51961.39 
2.5011295e+1, 3.467166e+1, -2550395.8, -2607017.8, 398.16342, 0.00025018113, -0.006540083, -2550392.8, 49824.58 
2.5011647e+1, 4.4668365e+1, -2458437.0, -2521420.3, -323.75543, 0.000113248, 0.0015228357, -2458435.3, 43814.543 
2.5011826e+1, 5.466454e+1, -2359113.5, -2422958.0, -512.51697, -0.00052298274, -0.0039051473, -2359109.3, 45177.926 
2.5012013e+1, 6.465998e+1, -2270409.8, -2346076.5, -487.59396, -0.00038093148, -0.0053822217, -2270406.8, 35925.176 
2.501222e+1, 7.4654716e+1, -2171043.0, -2247635.5, -322.87173, 0.00066626846, -0.0043353587, -2171041.8, 37341.746 
2.5012407e+1, 8.4648776e+1, -2081353.4, -2168139.3, -430.59592, 0.0005983039, -0.0032385553, -2081351.3, 29090.436 
2.501257e+1, 9.4642186e+1, -1982878.5, -2070021.8, -738.123, -0.0007572585, -0.0042418423, -1982872.3, 29634.066 
2.501273e+1, 1.0463485e+2, -1894555.4, -1993264.1, -945.3182, -0.0008060784, -0.0034138847, -1894546.3, 20031.842 
2.5012872e+1, 1.1462679e+2, -1795114.0, -1894727.0, -649.39526, 0.0006510342, -0.0025331844, -1795109.8, 21547.477 
2.501302e+1, 1.2461807e+2, -1705406.3, -1814795.0, -476.05185, 0.0007620353, -0.0023758158, -1705404.1, 13338.503 
2.5013167e+1, 1.346087e+2, -1607556.1, -1716906.8, -689.9822, -0.0006951144, -0.0051935343, -1607551.8, 13282.608 
2.5013295e+1, 1.4459862e+2, -1519161.0, -1639859.6, -982.9461, -0.00081968796, -0.004828474, -1519153.0, 3780.1992 
2.5013396e+1, 1.5458785e+2, -1419253.8, -1541027.9, -786.26355, 0.00061624934, -0.002967845, -1419248.6, 5790.256 
2.5013524e+1, 1.645764e+2, -1329494.6, -1461077.6, -536.9082, 0.0008333525, -0.0018642311, -1329492.5, -2341.4453 
2.5013673e+1, 1.7456432e+2, -1232178.4, -1363402.4, -816.5333, -0.0003898105, -0.003952578, -1232173.3, -2903.9211 
2.5013795e+1, 1.845515e+2, -1143928.6, -1286342.4, -1155.5293, -0.0006911072, -0.00435051, -1143919.3, -12524.371 
2.5013885e+1, 1.9453798e+2, -1043788.56, -1187432.8, -891.8184, 0.00010795453, -0.004833768, -1043783.06, -10255.628 
2.5014e+1, 2.045238e+2, -954118.6, -1108027.5, -507.35617, 0.00041495953, -0.0032410831, -954116.94, -18450.584 
2.5014162e+1, 2.1450898e+2, -856584.25, -1010270.2, -642.8396, 0.00013206319, -0.0013474638, -856581.56, -18769.975 
2.5014296e+1, 2.2449346e+2, -767770.06, -932076.1, -932.41394, -0.000117179145, -0.0011452906, -767764.75, -27800.902 
2.5014403e+1, 2.3447719e+2, -667945.7, -833137.5, -971.1339, -0.0003288906, -0.0054937713, -667939.94, -25816.818 
2.5014544e+1, 2.4446025e+2, -578824.06, -755278.2, -741.2189, -0.0002441916, -0.0058425125, -578820.94, -34531.777 
2.5014722e+1, 2.5444263e+2, -480365.8, -656894.9, -736.6104, 0.00020743709, -0.0034193576, -480362.75, -33901.01 
2.5014892e+1, 2.6442432e+2, -391573.2, -579011.1, -724.6601, 0.00028257992, -0.001980867, -391570.38, -42928.992 
2.501505e+1, 2.7440527e+2, -292214.13, -480098.38, -573.00574, -0.00011345426, -0.004170664, -292212.38, -41384.363 
2.5015235e+1, 2.8438547e+2, -203728.72, -403705.7, -320.9361, -0.00019455478, -0.003910131, -203728.2, -50706.203 
2.501546e+1, 2.9436496e+2, -104145.75, -304670.34, -469.09406, 0.00013244421, -0.0032596719, -104144.66, -48921.496 
2.5015673e+1, 3.043471e+2, -15586.974, -176051.34, -545.1271, 0.00010186429, -0.002416532, -15585.121, -15585.121 
2.501586e+1, 3.14332e+2, -14229.444, -175119.16, -308.7695, -0.00040480593, -0.00362475, -14228.852, -14228.852 
2.5016063e+1, 3.243215e+2, 51948.008, -40243.277, -284.87436, 0.00011392298, -0.004079768, 51948.887, 51948.887 
3.5015878e+1, 3.4671277e+1, -2548552.3, -2603262.5, 112.39493, -0.0017667237, -0.005074444, -2548552.0, 51669.207 
3.5016263e+1, 4.4668052e+1, -2458660.0, -2521862.8, 19.40657, 0.0011393056, -0.0013959616, -2458660.0, 43592.81 
3.5016546e+1, 5.4664207e+1, -2359408.0, -2423543.3, -146.72807, 0.0010566082, -0.0049061435, -2359407.8, 44882.727 
3.5016826e+1, 6.465966e+1, -2270117.3, -2345487.5, -104.4948, 0.0003775248, -0.004889562, -2270117.3, 36217.76 
3.501711e+1, 7.465445e+1, -2170737.3, -2247002.3, 61.86139, -0.000964557, -0.0028327384, -2170737.3, 37648.75 
3.5017365e+1, 8.4648496e+1, -2081924.6, -2169271.5, -287.45343, -0.0010371286, -0.0017559145, -2081923.6, 28520.793 
3.5017598e+1, 9.4641817e+1, -1983483.6, -2071212.0, -601.097, 0.0003340343, -0.0039539654, -1983479.5, 29030.43 
3.5017827e+1, 1.04634464e+2, -1894031.0, -1992166.6, -568.6286, 0.00076509995, -0.004142244, -1894027.8, 20554.213 
3.501805e+1, 1.14626475e+2, -1794559.4, -1893538.4, -262.77026, 0.00010866783, -0.004062092, -1794558.8, 22101.568 
3.5018244e+1, 1.2461777e+2, -1705798.9, -1815572.5, -502.41058, -0.00025608597, -0.003158673, -1705796.6, 12948.965 
3.50184e+1, 1.3460837e+2, -1607980.5, -1717761.4, -730.2441, -0.00027897296, -0.0034304792, -1607975.6, 12861.956 
3.501858e+1, 1.4459828e+2, -1518812.8, -1639102.0, -506.84418, -0.00011798529, -0.0031724565, -1518810.6, 4125.877 
3.5018808e+1, 1.5458752e+2, -1418869.1, -1540216.8, -288.44724, 0.00026082978, -0.0045104017, -1418868.5, 6173.47 
3.5018978e+1, 1.6457608e+2, -1330028.8, -1462115.9, -702.60345, 0.00012839497, -0.0037968524, -1330025.0, -2870.8352 
3.5019085e+1, 1.7456394e+2, -1232744.8, -1364521.1, -1009.59576, -0.0005988738, -0.0029598877, -1232737.0, -3464.0034 
3.501925e+1, 1.8455115e+2, -1143467.5, -1285333.9, -639.18665, -0.00047811048, -0.0021676735, -1143464.6, -12066.189 
3.5019484e+1, 1.9453768e+2, -1043287.8, -1186330.6, -343.17502, 0.0006506142, -0.003519691, -1043286.94, -9756.6 
3.501967e+1, 2.0452352e+2, -954389.6, -1108514.1, -609.7365, 0.0006707166, -0.0038158856, -954387.25, -18717.975 
3.5019782e+1, 2.1450862e+2, -856887.25, -1010833.2, -776.3239, -0.00063843525, -0.0050225183, -856883.4, -19068.182 
3.5019952e+1, 2.2449307e+2, -767851.2, -932182.0, -513.53485, -0.00092380616, -0.003886939, -767849.56, -27881.988 
3.5020187e+1, 2.3447686e+2, -668002.94, -833237.44, -523.664, 0.000040595278, -0.0024108703, -668001.3, -25874.84 
3.5020408e+1, 2.4445993e+2, -578870.25, -755276.0, -641.17206, 0.00055711786, -0.0019029407, -578867.94, -34575.492 
3.5020608e+1, 2.5444227e+2, -480403.5, -656892.7, -656.37964, 0.0005152118, -0.0047305278, -480401.06, -33935.57 
3.5020816e+1, 2.644239e+2, -391299.66, -578420.4, -452.19882, 0.00018376255, -0.004655908, -391298.56, -42653.457 
3.5021046e+1, 2.7440497e+2, -291929.56, -479463.9, -290.45764, -0.0005087953, -0.0033589206, -291929.1, -41098.13 
3.5021314e+1, 2.843852e+2, -203971.78, -404254.56, 10.43802, -0.0006728297, -0.002401409, -203971.78, -50946.938 
3.502163e+1, 2.943646e+2, -104433.43, -305287.03, -135.44661, -0.00015176859, -0.004586719, -104433.34, -49206.652 
3.502193e+1, 3.0434677e+2, -15188.545, -175167.58, -251.07774, 0.00017278537, -0.004198466, -15188.151, -15188.151 
3.5022202e+1, 3.1433177e+2, -13796.518, -174111.55, -20.181538, 0.00023139355, -0.0028009664, -13796.515, -13796.515 
3.5022485e+1, 3.2432127e+2, 51343.08, -41403.01, 82.23956, 0.00007049865, -0.0028838462, 51343.15, 51343.15 
4.5020458e+1, 3.4670871e+1, -2548551.0, -2602451.0, -346.82526, -0.0016996029, -0.003818249, -2548548.8, 51676.438 
4.5020866e+1, 4.4667634e+1, -2458987.5, -2522327.3, -395.90353, 0.0012749698, -0.0036959457, -2458985.3, 43271.723 
4.5021275e+1, 5.4663783e+1, -2358829.8, -2423612.8, -480.18176, 0.0009008389, -0.0045630387, -2358826.3, 45468.477 
4.5021656e+1, 6.465923e+1, -2269189.5, -2344933.3, -736.9054, 0.0001463843, -0.003704775, -2269182.3, 37156.84 
4.502201e+1, 7.4654025e+1, -2170759.3, -2246901.5, -820.3179, -0.0010248773, -0.002868114, -2170750.3, 37639.992 
4.5022336e+1, 8.4648055e+1, -2082265.8, -2169626.8, -1092.2195, -0.0009187944, -0.0021513489, -2082252.1, 28196.611 
4.5022637e+1, 9.4641364e+1, -1982966.1, -2071160.5, -930.55133, 0.00064213504, -0.0037227748, -1982956.3, 29558.057 
4.5022926e+1, 1.0463401e+2, -1893353.3, -1991662.3, -875.7784, 0.00086994166, -0.003850585, -1893345.5, 21240.957 
4.5023212e+1, 1.1462602e+2, -1795014.3, -1893574.6, -1051.1, -0.00044647008, -0.004362802, -1795003.1, 21661.541 
4.502346e+1, 1.2461732e+2, -1706404.4, -1816080.5, -1498.398, -0.0006601088, -0.003419983, -1706383.9, 12366.028 
4.5023668e+1, 1.3460791e+2, -1607045.4, -1717521.0, -1454.3384, 0.00040832214, -0.0029170176, -1607026.3, 13815.948 
4.5023903e+1, 1.4459783e+2, -1517717.1, -1638369.5, -1145.5978, 0.00054128264, -0.002507553, -1517706.3, 5234.733 
4.5024177e+1, 1.5458708e+2, -1419853.8, -1540472.6, -1201.7262, -0.00042202795, -0.0044227666, -1419841.9, 5204.491 
4.5024395e+1, 1.6457562e+2, -1331227.6, -1462878.1, -1657.7942, -0.0006674383, -0.004032747, -1331206.8, -4048.1963 
4.5024547e+1, 1.7456348e+2, -1231516.5, -1364105.1, -1512.9637, -0.000065615066, -0.0032167053, -1231499.3, -2221.6775 
4.5024762e+1, 1.8455067e+2, -1141961.3, -1284536.4, -1043.9584, 0.00027690644, -0.0022122175, -1141953.5, -10550.472 
4.502504e+1, 1.9453722e+2, -1044382.6, -1186773.0, -1258.3855, 0.00031094355, -0.0030714811, -1044371.56, -10836.6455 
4.5025268e+1, 2.0452306e+2, -955871.44, -1109199.8, -1711.5856, 0.00005675726, -0.003541864, -955852.3, -20178.547 
4.5025432e+1, 2.1450816e+2, -856154.94, -1010428.2, -1555.2449, -0.00054356817, -0.005727847, -856139.25, -18319.557 
4.502566e+1, 2.244926e+2, -766729.25, -931703.9, -1043.4915, -0.00054637797, -0.004691869, -766722.6, -26750.457 
4.5025957e+1, 2.3447639e+2, -668570.9, -833544.06, -1055.3179, 0.0001763167, -0.0022366217, -668564.1, -26433.111 
4.5026225e+1, 2.4445945e+2, -579843.8, -755588.8, -1173.6528, 0.0004519403, -0.0013165256, -579835.94, -35539.035 
4.502647e+1, 2.5444183e+2, -480654.16, -656822.56, -1071.3912, 0.00018190512, -0.0044277967, -480647.63, -34177.746 
4.5026743e+1, 2.644235e+2, -391202.34, -578333.9, -822.77637, -0.0000023536531, -0.0046777697, -391198.72, -42549.273 
4.5027062e+1, 2.744045e+2, -291632.84, -479325.16, -995.1228, -0.000086449436, -0.0037450877, -291627.56, -40792.19 
4.5027402e+1, 2.8438473e+2, -203993.1, -404211.56, -836.44916, -0.00027261127, -0.0026220523, -203989.6, -50960.355 
4.502777e+1, 2.9436412e+2, -105416.45, -305695.5, -680.6766, -0.00058747764, -0.003969106, -105414.14, -50183.12 
4.502815e+1, 3.0434635e+2, -15964.091, -175131.63, -507.5884, -0.00037714667, -0.003933492, -15962.473, -15962.473 
4.502854e+1, 3.1433132e+2, -13451.675, -173478.33, -500.45233, 0.00048499848, -0.004398504, -13450.109, -13450.109 
4.5028943e+1, 3.2432082e+2, 51567.24, -42386.32, -598.1723, 0.00034765835, -0.002038364, 51571.047, 51571.047 
5.502505e+1, 3.467044e+1, -2549374.8, -2604124.8, -656.8383, 0.00042101037, -0.002772081, -2549367.0, 50862.453 
5.502546e+1, 4.4667104e+1, -2459180.8, -2522737.0, 173.39267, 0.0005251797, -0.0053763906, -2459180.3, 43081.844 
5.502601e+1, 5.466326e+1, -2359004.5, -2423983.5, 120.99165, -0.0009952288, -0.002882194, -2359004.3, 45295.434 
5.502651e+1, 6.465869e+1, -2269356.0, -2345252.0, -583.60516, -0.0010906531, -0.001830476, -2269351.5, 36993.133 
5.5026925e+1, 7.4653417e+1, -2170922.5, -2247216.8, -681.2595, 0.00045051298, -0.004429427, -2170916.3, 37479.863 
5.502732e+1, 8.464746e+1, -2081950.1, -2169013.8, -743.9952, 0.0009218889, -0.004413091, -2081943.8, 28510.797 
5.5027694e+1, 9.4640833e+1, -1982636.4, -2070514.9, -574.14844, 0.00015463812, -0.0035483972, -1982632.6, 29886.898 
5.5028033e+1, 1.04633495e+2, -1893666.1, -1992339.1, -775.73486, -0.0005032374, -0.002549902, -1893660.0, 20931.479 
5.502835e+1, 1.1462546e+2, -1795352.4, -1894294.9, -958.55164, -0.0010340977, -0.0034471413, -1795343.1, 21327.146 
5.5028665e+1, 1.2461673e+2, -1706302.1, -1815916.4, -1150.1127, -0.00047658934, -0.003163828, -1706290.0, 12465.747 
5.5028975e+1, 1.3460733e+2, -1606929.5, -1717321.4, -1094.5593, 0.0013401461, -0.003642093, -1606918.6, 13929.294 
5.502926e+1, 1.4459725e+2, -1517841.5, -1638629.9, -1169.8235, 0.0011318392, -0.00282395, -1517830.1, 5116.6016 
5.5029505e+1, 1.545865e+2, -1419968.4, -1540768.8, -1241.2219, -0.0014451109, -0.0027156991, -1419955.6, 5096.4956 
5.5029774e+1, 1.6457504e+2, -1330928.4, -1462272.8, -1241.4589, -0.0015756462, -0.0025844688, -1330916.6, -3752.4805 
5.5030066e+1, 1.7456292e+2, -1231197.9, -1363467.9, -1076.9933, 0.0011855648, -0.0047133914, -1231189.1, -1906.0029 
5.503033e+1, 1.8455009e+2, -1142355.4, -1285417.9, -1143.1067, 0.0015556766, -0.004466156, -1142346.3, -10937.501 
5.5030555e+1, 1.9453661e+2, -1044816.8, -1187710.5, -1380.341, -0.00091860566, -0.0034821397, -1044803.44, -11262.486 
5.503081e+1, 2.0452243e+2, -955597.06, -1108562.3, -1295.2374, -0.0014384934, -0.0024268683, -955586.1, -19906.26 
5.503112e+1, 2.145076e+2, -855833.44, -1009733.5, -1113.3304, 0.00039645698, -0.0034892322, -855825.4, -18000.182 
5.503142e+1, 2.2449204e+2, -766771.3, -931793.1, -1006.1702, 0.0009855791, -0.0035741015, -766765.2, -26787.658 
5.50317e+1, 2.344758e+2, -668627.2, -833675.2, -1039.0554, 0.00005326343, -0.004944202, -668620.6, -26483.824 
5.5032e+1, 2.4445888e+2, -579666.7, -755138.6, -918.6831, -0.0005702066, -0.0040489202, -579661.9, -35359.2 
5.503231e+1, 2.544413e+2, -480476.44, -656327.7, -804.33136, -0.0008145607, -0.0025315173, -480472.75, -33997.875 
5.5032676e+1, 2.6442298e+2, -391480.0, -578998.1, -496.74512, -0.00030957515, -0.0020725077, -391478.7, -42824.258 
5.5033094e+1, 2.7440393e+2, -291959.1, -480041.13, -664.7648, 0.0011267208, -0.0053183744, -291956.75, -41115.535 
5.50335e+1, 2.8438413e+2, -203765.33, -403673.88, -734.4509, 0.00096913544, -0.0045590918, -203762.64, -50727.434 
5.503387e+1, 2.9436362e+2, -105141.625, -305082.53, -596.1181, -0.0011933465, -0.0014337804, -105139.85, -49903.7 
5.503433e+1, 3.0434582e+2, -15936.584, -175023.52, 43.70118, -0.0015637805, -0.0016500786, -15936.572, -15936.572 
5.503489e+1, 3.143308e+2, -13458.763, -173395.7, 80.945946, 0.00036140464, -0.008440575, -13458.722, -13458.722 
5.5035436e+1, 3.2432026e+2, 50731.094, -44124.258, -117.387436, 0.00092163985, -0.0015477723, 50731.242, 50731.242 
6.502964e+1, 3.4669873e+1, -2549593.5, -2605276.0, -1051.5906, 0.0014787081, -0.0038714884, -2549573.8, 50661.234 
6.503013e+1, 4.466651e+1, -2456698.8, -2521659.3, -231.86984, -0.0010584701, -0.0034028317, -2456697.8, 45570.094 
6.5030783e+1, 5.466263e+1, -2358671.8, -2423941.0, -192.63786, -0.00093928, -0.0029260633, -2358671.3, 45634.62 
6.5031356e+1, 6.4658046e+1, -2269830.0, -2345727.3, -913.2327, -0.0004444534, -0.0026429796, -2269819.0, 36531.9 
6.5031844e+1, 7.4652755e+1, -2170499.3, -2247264.3, -1014.0963, 0.00047738614, -0.0045774966, -2170485.8, 37916.902 
6.5032303e+1, 8.464679e+1, -2081140.5, -2168507.5, -1179.1847, 0.00065066206, -0.004298143, -2081124.6, 29336.494 
6.503275e+1, 9.464018e+1, -1982451.9, -2070295.4, -1270.688, -0.000040905765, -0.0036323145, -1982433.5, 30092.545 
6.5033156e+1, 1.04632825e+2, -1893796.6, -1992596.1, -1633.1599, -0.00052350335, -0.0026182623, -1893769.6, 20828.35 
6.5033513e+1, 1.1462477e+2, -1794990.0, -1894343.5, -1611.8237, -0.00076369406, -0.0032481824, -1794963.9, 21713.047 
6.503389e+1, 1.24616034e+2, -1705778.4, -1815518.5, -1588.27, -0.00030792144, -0.0030397226, -1705755.4, 13007.096 
6.503427e+1, 1.3460664e+2, -1607026.8, -1717231.0, -1555.9707, 0.00094767346, -0.0039900606, -1607004.9, 13849.792 
6.50346e+1, 1.4459656e+2, -1518128.1, -1638936.4, -1851.2373, 0.0007910258, -0.003276188, -1518099.9, 4853.6436 
6.5034866e+1, 1.545858e+2, -1419567.4, -1540731.1, -1908.1577, -0.0010136897, -0.0028481358, -1419537.3, 5521.638 
6.5035176e+1, 1.6457435e+2, -1330447.4, -1461851.9, -1764.1115, -0.0010702463, -0.0025014218, -1330423.8, -3252.6848 
6.503554e+1, 1.7456225e+2, -1231813.5, -1363577.0, -1803.4536, 0.0009356121, -0.0045331274, -1231788.9, -2499.1064 
6.503585e+1, 1.8454942e+2, -1143132.9, -1285835.0, -2025.9252, 0.0011365006, -0.0044418746, -1143104.1, -11688.824 
6.5036094e+1, 1.9453591e+2, -1044212.9, -1187482.9, -1872.5018, -0.0008119176, -0.0039150575, -1044188.4, -10640.617 
6.50364e+1, 2.0452175e+2, -954766.0, -1108147.9, -1526.8206, -0.0011244315, -0.0026589255, -954750.8, -19064.164 
6.5036774e+1, 2.1450691e+2, -856416.94, -1009991.8, -1665.9291, 0.0005348897, -0.0027378981, -856398.9, -18566.943 
6.5037125e+1, 2.2449137e+2, -767731.94, -932158.2, -1811.635, 0.00090381503, -0.0027898038, -767712.0, -27727.807 
6.5037435e+1, 2.3447512e+2, -668805.5, -833645.7, -1719.9806, -0.00030463358, -0.005272187, -668787.56, -26644.102 
6.5037787e+1, 2.4445821e+2, -579448.7, -755112.5, -1498.8815, -0.0008079922, -0.0047084363, -579435.9, -35126.594 
6.5038186e+1, 2.5444064e+2, -480233.8, -656317.1, -1635.3877, -0.00043474985, -0.002562216, -480218.63, -33737.125 
6.503861e+1, 2.644223e+2, -391635.1, -579019.1, -1351.7007, 0.00009911742, -0.0018343534, -391625.34, -42964.313 
6.503908e+1, 2.7440327e+2, -293011.56, -480486.78, -1141.8188, 0.0008218179, -0.005261183, -293004.63, -42156.82 
6.5039545e+1, 2.8438345e+2, -204637.8, -403982.13, -1042.6292, 0.0005334243, -0.0044649304, -204632.34, -51590.63 
6.503999e+1, 2.9436296e+2, -104635.77, -304711.2, -1124.2686, -0.0010234449, -0.0010317953, -104629.45, -49386.945 
6.5040535e+1, 3.043452e+2, -15495.948, -175057.81, -572.30994, -0.0012377979, -0.0014829586, -15493.8955, -15493.8955 
6.5041196e+1, 3.1433007e+2, -14463.43, -174154.25, -730.25977, 0.00026951145, -0.009218922, -14460.09, -14460.09 
6.504185e+1, 3.243196e+2, 49596.906, -43545.484, -245.86086, 0.00080082647, -0.001300155, 49597.555, 49597.555 
7.503424e+1, 3.466917e+1, -2550151.0, -2606391.3, 147.60692, 0.0014516645, -0.0070832097, -2550150.8, 50091.098 
7.503488e+1, 4.4665858e+1, -2456719.5, -2521681.5, -153.69807, -0.003475191, 0.0022006952, -2456719.0, 45555.246 
7.503559e+1, 5.466191e+1, -2358671.3, -2423923.0, -151.77155, 0.0010275042, -0.004670151, -2358670.8, 45642.145 
7.503622e+1, 6.465729e+1, -2269988.5, -2346040.3, -559.83923, 0.0020479043, -0.006109478, -2269984.5, 36373.78 
7.5036764e+1, 7.465203e+1, -2170668.5, -2247584.5, -647.55133, -0.0009399968, -0.0033309532, -2170663.3, 37746.695 
7.5037295e+1, 8.464605e+1, -2081329.0, -2168879.0, -978.87177, -0.0017207655, -0.0018350919, -2081318.1, 29150.29 
7.503782e+1, 9.463938e+1, -1982642.5, -2070667.1, -1075.2067, 0.000033730776, -0.003970921, -1982629.4, 29904.373 
7.503829e+1, 1.0463201e+2, -1893762.4, -1992500.9, -1417.7744, 0.0007756465, -0.004033901, -1893742.1, 20863.883 
7.5038713e+1, 1.1462398e+2, -1794952.8, -1894224.0, -1393.8553, 0.0003451793, -0.0037574724, -1794933.1, 21751.584 
7.503913e+1, 1.2461525e+2, -1705728.5, -1815412.6, -1394.5311, -0.00016659954, -0.0030454888, -1705710.8, 13059.451 
7.503954e+1, 1.3460587e+2, -1606979.6, -1717127.1, -1362.5194, -0.0007689927, -0.0039643273, -1606962.8, 13899.4375 
7.503992e+1, 1.4459576e+2, -1518227.4, -1639101.1, -1707.4315, -0.00048480474, -0.0038629868, -1518203.3, 4757.8936 
7.504026e+1, 1.5458497e+2, -1419667.5, -1540908.0, -1764.9879, 0.00083835906, -0.004797025, -1419641.9, 5425.047 
7.504061e+1, 1.6457354e+2, -1330528.4, -1462047.9, -1615.6857, 0.0008115317, -0.0037649425, -1330508.6, -3329.4846 
7.504098e+1, 1.7456143e+2, -1231896.8, -1363773.6, -1654.2202, -0.0008043173, -0.0027024695, -1231876.0, -2578.3643 
7.5041336e+1, 1.8454863e+2, -1142818.9, -1285249.1, -1796.7826, -0.0009691997, -0.0021693083, -1142796.1, -11373.128 
7.504168e+1, 1.9453514e+2, -1043892.9, -1186852.4, -1639.9624, 0.0005950363, -0.0043648444, -1043874.06, -10318.771 
7.504204e+1, 2.0452097e+2, -955024.44, -1108699.0, -1445.2618, 0.0009580366, -0.0042182193, -955010.8, -19316.621 
7.50424e+1, 2.145061e+2, -856714.4, -1010587.7, -1590.3428, -0.00012626256, -0.0034556147, -856697.94, -18858.115 
7.504278e+1, 2.2449057e+2, -767556.25, -931825.5, -1598.4426, -0.00078123633, -0.0023375447, -767540.7, -27548.6 
7.5043166e+1, 2.3447436e+2, -668619.4, -833251.8, -1500.6481, -0.0009157657, -0.003255398, -668605.7, -26454.762 
7.5043595e+1, 2.4445742e+2, -579705.3, -755600.7, -1230.6709, -0.00028253807, -0.003320052, -579696.7, -35379.867 
7.5044066e+1, 2.544398e+2, -480528.47, -656844.75, -1363.3053, 0.0012853357, -0.004499645, -480517.94, -34028.215 
7.504455e+1, 2.644215e+2, -391283.06, -578315.9, -1243.6321, 0.0011849479, -0.003939915, -391274.8, -42605.57 
7.5045013e+1, 2.744025e+2, -292631.5, -479692.2, -1046.444, -0.0009924761, -0.0036005743, -292625.66, -41770.516 
7.504554e+1, 2.8438276e+2, -204725.94, -404186.34, -620.3161, -0.0015700023, -0.0023686711, -204724.02, -51675.24 
7.5046134e+1, 2.9436222e+2, -104749.18, -304991.97, -681.8709, -0.000118406795, -0.002727794, -104746.85, -49496.77 
7.5046784e+1, 3.0434436e+2, -15816.962, -175768.78, -346.8728, 0.0005474224, -0.003399734, -15816.21, -15816.21 
7.504749e+1, 3.143293e+2, -14804.745, -174889.39, -520.2501, 0.00019879967, -0.006751697, -14803.055, -14803.055 
7.504821e+1, 3.2431892e+2, 51798.305, -38929.863, 108.40245, -0.00005571672, -0.0013012956, 51798.434, 51798.434 
8.5038835e+1, 3.4668332e+1, -2549599.3, -2605363.8, -121.09418, 0.0013428404, -0.0060426514, -2549599.0, 50651.176 
8.503965e+1, 4.4665024e+1, -2457004.0, -2522075.5, -849.1841, -0.0032616563, 0.0014231189, -2456993.0, 45289.586 
8.5040396e+1, 5.466106e+1, -2358238.5, -2423996.5, -1068.2928, 0.00082945754, -0.0047095343, -2358221.0, 46100.21 
8.5041094e+1, 6.465643e+1, -2269108.3, -2345560.3, -1302.7441, 0.00189529, -0.005760548, -2269086.0, 37280.67 
8.5041726e+1, 7.4651176e+1, -2170104.0, -2247257.5, -1177.909, -0.00053724233, -0.002987705, -2170086.0, 38332.25 
8.504233e+1, 8.464519e+1, -2081140.3, -2169043.3, -1517.1062, -0.0013995316, -0.0015942757, -2081114.1, 29362.725 
8.5042894e+1, 9.463849e+1, -1982480.8, -2070851.0, -1596.1865, -0.00045298357, -0.0039421306, -1982451.9, 30090.602 
8.5043424e+1, 1.0463112e+2, -1893363.4, -1992261.5, -1895.523, 0.0003370796, -0.004159344, -1893327.1, 21287.658 
8.5043913e+1, 1.1462308e+2, -1794400.3, -1893917.1, -1887.1827, 0.0009432335, -0.0039686826, -1794364.5, 22328.99 
8.504438e+1, 1.2461436e+2, -1705461.1, -1815385.1, -2061.8005, 0.00045927247, -0.0031782347, -1705422.5, 13356.537 
8.5044813e+1, 1.3460496e+2, -1607272.4, -1717382.8, -2152.612, -0.0012979836, -0.003823075, -1607230.4, 13640.714 
8.504524e+1, 1.4459486e+2, -1518411.8, -1639173.3, -2399.0754, -0.0011432274, -0.0036758278, -1518364.1, 4605.8555 
8.5045654e+1, 1.5458408e+2, -1419186.9, -1540636.0, -2324.9558, 0.0012572134, -0.0048265317, -1419142.4, 5933.2905 
8.504605e+1, 1.6457263e+2, -1330046.0, -1461942.5, -2246.5828, 0.0013643744, -0.0038536824, -1330007.8, -2819.7463 
8.5046434e+1, 1.7456052e+2, -1231869.8, -1363914.1, -2302.765, -0.0012397475, -0.0026628927, -1231829.5, -2522.8867 
8.504683e+1, 1.845477e+2, -1142947.8, -1285157.9, -2442.0454, -0.0015278455, -0.0019953474, -1142905.9, -11473.769 
8.5047233e+1, 1.9453424e+2, -1044257.75, -1186879.0, -2493.1243, 0.0009435197, -0.004044355, -1044214.2, -10650.073 
8.504764e+1, 2.0452006e+2, -955478.0, -1108942.0, -2350.5032, 0.0014243184, -0.0041106045, -955442.0, -19738.982 
8.504803e+1, 2.1450521e+2, -856647.4, -1010645.75, -2234.0596, -0.0004909189, -0.0039835796, -856614.94, -18766.234 
8.5048455e+1, 2.2448966e+2, -767314.0, -931699.56, -2136.6921, -0.0012259048, -0.00276678, -767286.25, -27285.225 
8.50489e+1, 2.3447345e+2, -668542.2, -833260.5, -2242.382, -0.0005275691, -0.0027018941, -668511.6, -26351.848 
8.5049385e+1, 2.4445653e+2, -579995.2, -755695.4, -1943.913, 0.00022878067, -0.0026403412, -579973.6, -35647.977 
8.5049903e+1, 2.5443888e+2, -481396.9, -657242.1, -1764.0571, 0.0010470274, -0.004743934, -481379.22, -34880.613 
8.505044e+1, 2.6442057e+2, -392031.13, -578580.7, -1586.7448, 0.0007362393, -0.0043400708, -392017.63, -43339.59 
8.5050964e+1, 2.744016e+2, -292418.06, -479520.03, -1713.8347, -0.0009837999, -0.003199245, -292402.38, -41538.62 
8.5051566e+1, 2.8438187e+2, -204464.56, -404049.1, -1301.4851, -0.0013446308, -0.0021266968, -204456.08, -51398.73 
8.505225e+1, 2.9436132e+2, -105327.41, -305287.8, -1223.2947, 0.000015667098, -0.003854416, -105319.92, -50061.14 
8.5052973e+1, 3.0434346e+2, -16961.549, -176365.72, -789.7734, 0.00051845337, -0.003999723, -16957.635, -16957.635 
8.505372e+1, 3.1432843e+2, -16047.508, -175593.61, -633.564, -0.00007514774, -0.0043799556, -16044.992, -16044.992 
8.505453e+1, 3.2431805e+2, 51319.973, -38047.625, -367.43933, 0.000008919921, -0.002187621, 51321.484, 51321.484 
9.504343e+1, 3.4667355e+1, -2548078.8, -2602241.5, 827.8087, 0.0011124273, -0.0007803165, -2548066.3, 52193.543 
9.504444e+1, 4.4664013e+1, -2457315.8, -2522674.8, -597.5009, -0.00046823596, -0.0056362147, -2457310.3, 44982.008 
9.50452e+1, 5.466009e+1, -2358610.0, -2424720.0, -835.64276, -0.0015218566, -0.0030787743, -2358599.5, 45731.35 
9.504596e+1, 6.465547e+1, -2268893.3, -2345120.5, -1022.6426, -0.0008825094, -0.0016531923, -2268879.5, 37496.566 
9.504672e+1, 7.46502e+1, -2169879.0, -2246768.0, -895.93713, 0.0016438656, -0.0035319524, -2169868.5, 38559.21 
9.5047396e+1, 8.464421e+1, -2081280.0, -2169304.5, -1325.7842, 0.0015591832, -0.0035379839, -2081260.1, 29226.365 
9.5047975e+1, 9.4637513e+1, -1982632.0, -2071138.5, -1405.6251, -0.0015135877, -0.0035486142, -1982609.6, 29942.373 
9.504855e+1, 1.04630135e+2, -1893360.1, -1992224.3, -1647.9152, -0.001830435, -0.003008522, -1893332.8, 21291.654 
9.504913e+1, 1.14622094e+2, -1794393.1, -1893871.8, -1635.8245, 0.0010306175, -0.0038874152, -1794366.3, 22336.928 
9.504965e+1, 1.2461336e+2, -1705651.0, -1815714.0, -2005.4338, 0.0015404219, -0.0034329544, -1705614.5, 13174.267 
9.5050097e+1, 1.3460395e+2, -1607457.6, -1717729.0, -2102.1467, -0.0006760331, -0.0035682942, -1607417.5, 13463.543 
9.505056e+1, 1.4459383e+2, -1518292.5, -1638868.0, -2093.862, -0.0012031929, -0.0027248473, -1518256.1, 4723.9146 
9.505105e+1, 1.5458308e+2, -1419045.6, -1540321.9, -2009.7551, 0.00025387725, -0.0029714974, -1419012.4, 6073.0337 
9.50515e+1, 1.6457164e+2, -1330157.6, -1462149.3, -2205.8025, 0.00058782555, -0.0027842496, -1330120.8, -2923.0571 
9.50519e+1, 1.7455947e+2, -1231978.4, -1364153.4, -2272.5098, -0.00040311366, -0.00438586, -1231939.4, -2622.5352 
9.505232e+1, 1.8454666e+2, -1143032.5, -1285351.1, -2280.3047, -0.00057467096, -0.0038840992, -1142996.0, -11553.647 
9.5052767e+1, 1.945332e+2, -1044354.4, -1187055.8, -2324.8433, 0.00023315151, -0.0029693814, -1044316.5, -10742.276 
9.5053214e+1, 2.0451905e+2, -955275.1, -1108541.1, -2149.8196, 0.00028654732, -0.00236634, -955245.0, -19531.967 
9.505367e+1, 2.1450418e+2, -856456.8, -1010197.06, -2031.7965, -0.0005719241, -0.0043273573, -856430.0, -18571.352 
9.5054156e+1, 2.2448865e+2, -767501.1, -932065.3, -1968.1675, -0.00046265253, -0.0040642493, -767477.56, -27466.617 
9.505465e+1, 2.3447241e+2, -668760.2, -833653.3, -2074.3132, 0.00082668004, -0.003585618, -668734.1, -26564.096 
9.505517e+1, 2.444555e+2, -579702.44, -755075.9, -1824.3983, 0.00071867486, -0.0026583183, -579683.44, -35347.71 
9.5055693e+1, 2.5443792e+2, -481072.84, -656568.7, -1649.7107, -0.001121686, -0.0033317944, -481057.34, -34549.273 
9.5056283e+1, 2.6441962e+2, -392243.72, -578971.5, -1259.4568, -0.0012402512, -0.0030682012, -392235.22, -43547.81 
9.505694e+1, 2.744006e+2, -292675.9, -479967.6, -1373.3562, 0.0008000464, -0.0040381365, -292665.8, -41792.188 
9.505763e+1, 2.8438082e+2, -204363.95, -403832.78, -1071.0416, 0.0011551563, -0.0037035518, -204358.2, -51290.8 
9.505834e+1, 2.943603e+2, -105214.35, -305017.84, -1001.5461, -0.000634902, -0.0044282773, -105209.33, -49940.766 
9.50591e+1, 3.0434254e+2, -16696.266, -175769.31, -611.5734, -0.0013201662, -0.0033136257, -16693.914, -16693.914 
9.5059913e+1, 3.143275e+2, -15768.554, -174970.42, -460.3133, -0.000555329, -0.0021188431, -15767.223, -15767.223 
9.506081e+1, 3.243171e+2, 50583.992, -39569.746, 40.142372, 0.00093945744, -0.0039380807, 50584.008, 50584.008 
1.050481e+2, 3.4666276e+1, -2546159.3, -2601953.5, 600.9132, -0.00092206907, -0.0006144775, -2546152.8, 54117.563 
1.05049215e+2, 4.466291e+1, -2457705.3, -2522628.5, -1375.8873, 0.0026347684, -0.006141435, -2457676.3, 44627.03 
1.0505005e+2, 5.465902e+1, -2357923.3, -2424107.0, -1034.0109, -0.0012395363, -0.0028778126, -2357907.0, 46434.355 
1.0505087e+2, 6.465441e+1, -2268211.8, -2345004.8, -1242.2479, -0.0018990611, -0.001335199, -2268191.5, 38194.973 
1.050517e+2, 7.464912e+1, -2169655.3, -2246904.0, -1518.8418, 0.0010772026, -0.0037612799, -2169625.5, 38812.902 
1.05052434e+2, 8.4643114e+1, -2080954.8, -2169094.5, -2062.9639, 0.0015950325, -0.0039170883, -2080906.5, 29590.734 
1.0505309e+2, 9.463643e+1, -1981954.8, -2070759.6, -1949.9004, -0.00070340984, -0.0036262828, -1981912.0, 30650.73 
1.05053715e+2, 1.04629055e+2, -1892893.1, -1992172.0, -2200.3408, -0.0012729005, -0.0028448182, -1892844.4, 21790.7 
1.05054334e+2, 1.1462099e+2, -1794530.0, -1894093.5, -2306.9478, 0.00015286868, -0.0035604865, -1794476.6, 22237.355 
1.050549e+2, 1.2461225e+2, -1705619.9, -1815786.9, -2684.4426, 0.0006885543, -0.0031737373, -1705554.5, 13245.154 
1.05055414e+2, 1.3460281e+2, -1606568.9, -1717366.4, -2631.986, 0.00018459416, -0.003640246, -1606506.5, 14385.616 
1.0505591e+2, 1.4459273e+2, -1517468.6, -1638569.9, -2632.9165, -0.00020798277, -0.0028122459, -1517411.5, 5579.562 
1.05056435e+2, 1.5458196e+2, -1419372.3, -1540576.1, -2750.759, -0.0004681684, -0.0026976087, -1419309.9, 5786.5234 
1.0505693e+2, 1.6457051e+2, -1330732.8, -1462367.6, -3031.7441, -0.00036067705, -0.0025565233, -1330662.9, -3454.2356 
1.0505737e+2, 1.7455837e+2, -1232026.0, -1364068.9, -2911.8186, 0.000181089, -0.0046915775, -1231961.9, -2634.1096 
1.0505783e+2, 1.8454555e+2, -1142842.6, -1285442.8, -2738.3848, 0.00030246592, -0.00432578, -1142790.1, -11336.775 
1.0505831e+2, 1.9453207e+2, -1043944.44, -1187064.8, -2803.8389, -0.000075406206, -0.0030675335, -1043889.5, -10304.124 
1.050588e+2, 2.0451792e+2, -954977.44, -1108274.5, -2806.7542, -0.00029308783, -0.0022200595, -954926.1, -19201.93 
1.05059296e+2, 2.1450306e+2, -857074.4, -1010360.7, -2817.7158, -0.00032156374, -0.004055644, -857022.56, -19152.959 
1.0505982e+2, 2.2448753e+2, -768425.44, -932431.3, -2553.923, -0.000057483252, -0.0040004714, -768385.7, -28363.79 
1.0506037e+2, 2.3447129e+2, -669138.7, -833760.5, -2393.0103, 0.0005524049, -0.00413925, -669103.94, -26923.033 
1.0506093e+2, 2.444544e+2, -579775.1, -755013.8, -2238.0908, 0.0003077772, -0.0031404323, -579746.56, -35399.965 
1.050615e+2, 2.5443682e+2, -481095.38, -656464.44, -2364.1855, -0.0009988282, -0.002888012, -481063.5, -34544.766 
1.0506214e+2, 2.644185e+2, -392510.47, -579079.2, -1896.7343, -0.0009181952, -0.0025090973, -392491.2, -43793.14 
1.0506287e+2, 2.7439955e+2, -293483.53, -480381.7, -1768.5143, 0.00089388556, -0.004372562, -293466.8, -42582.445 
1.0506363e+2, 2.8437975e+2, -205353.28, -404121.16, -1364.1786, 0.001082631, -0.004085416, -205343.92, -52265.86 
1.050644e+2, 2.9435927e+2, -106056.04, -305237.47, -1317.1752, -0.0007948169, -0.0037791561, -106047.33, -50768.355 
1.05065234e+2, 3.043415e+2, -17033.762, -175541.64, -929.9205, -0.0015423973, -0.0027280848, -17028.307, -17028.307 
1.0506611e+2, 3.143265e+2, -15391.007, -174324.33, -842.1019, -0.0008095488, -0.0030132665, -15386.545, -15386.545 
1.0506709e+2, 3.2431605e+2, 49846.016, -41404.984, -448.30878, 0.0014251997, -0.0038181918, 49848.22, 49848.22 
1.1505281e+2, 3.46651e+1, -2548454.8, -2606633.3, -83.62403, -0.0047572944, -0.0054422677, -2548454.5, 51827.12 
1.1505398e+2, 4.4661725e+1, -2457060.8, -2521295.5, -906.34814, 0.0060396455, -0.00022367218, -2457048.0, 45266.87 
1.1505494e+2, 5.4657865e+1, -2357182.5, -2422569.8, -528.6962, 0.0015999083, -0.004085827, -2357178.0, 47174.52 
1.1505583e+2, 6.4653254e+1, -2268701.0, -2346004.8, -1067.459, -0.0012141612, -0.0047326996, -2268686.3, 37711.516 
1.15056664e+2, 7.464792e+1, -2170187.5, -2247989.0, -1350.9792, -0.0021985536, -0.0036852194, -2170164.0, 38286.035 
1.1505746e+2, 8.464191e+1, -2080748.8, -2168690.0, -1789.8423, -0.0012575209, -0.002763175, -2080712.4, 29796.697 
1.1505825e+2, 9.463523e+1, -1981728.5, -2070301.6, -1673.2317, 0.0019104717, -0.0041555646, -1981696.9, 30877.55 
1.15058936e+2, 1.04627855e+2, -1893085.6, -1992562.9, -2094.344, 0.0019328335, -0.0036472736, -1893041.5, 21605.213 
1.1505953e+2, 1.14619784e+2, -1794727.1, -1894520.9, -2204.686, -0.0016850937, -0.0029915306, -1794678.5, 22047.357 
1.15060136e+2, 1.2461103e+2, -1705528.8, -1815574.4, -2419.1494, -0.0020843847, -0.0024044488, -1705475.6, 13335.984 
1.15060754e+2, 1.3460161e+2, -1606472.6, -1717134.3, -2359.702, 0.0012636491, -0.00403219, -1606422.4, 14481.609 
1.1506132e+2, 1.445915e+2, -1517709.8, -1639011.6, -2603.3557, 0.0018091429, -0.003912941, -1517653.9, 5349.1064 
1.1506181e+2, 1.545807e+2, -1419620.1, -1541047.0, -2728.637, -0.0009291199, -0.0039692987, -1419558.9, 5549.891 
1.1506232e+2, 1.6456926e+2, -1330526.1, -1461879.0, -2864.2666, -0.0014972189, -0.003152691, -1330463.6, -3242.657 
1.15062825e+2, 1.7455716e+2, -1231796.0, -1363543.1, -2739.7766, 0.00050675625, -0.0036137921, -1231739.1, -2399.5203 
1.15063354e+2, 1.8454434e+2, -1142981.4, -1285674.0, -2517.2004, 0.0010946778, -0.0033503687, -1142937.0, -11471.929 
1.1506388e+2, 1.9453084e+2, -1044108.8, -1187335.3, -2578.1199, -0.0000070417677, -0.0043138564, -1044062.44, -10464.94 
1.150644e+2, 2.0451666e+2, -955015.9, -1108329.5, -2830.3098, -0.00034374764, -0.0036402442, -954963.6, -19227.209 
1.1506489e+2, 2.1450183e+2, -857096.6, -1010400.1, -2854.2603, 0.0002452909, -0.0031821742, -857043.5, -19161.787 
1.1506544e+2, 2.244863e+2, -768149.7, -931846.5, -2262.7544, -0.000018165889, -0.002603195, -768118.44, -28084.666 
1.1506606e+2, 2.3447013e+2, -668853.5, -833156.2, -2086.5996, -0.0013268408, -0.0043691215, -668827.0, -26634.541 
1.1506669e+2, 2.4445322e+2, -579983.75, -755437.5, -2099.6038, -0.0009968621, -0.0040760213, -579958.6, -35600.492 
1.1506733e+2, 2.5443563e+2, -481318.0, -656952.06, -2233.826, 0.0013482603, -0.0033884924, -481289.6, -34759.004 
1.1506802e+2, 2.6441732e+2, -392321.63, -578677.5, -1706.7662, 0.0016271274, -0.0026399523, -392305.97, -43596.066 
1.15068756e+2, 2.7439836e+2, -293255.3, -479947.25, -1576.6268, -0.00067280326, -0.0042162356, -293242.0, -42346.12 
1.1506956e+2, 2.843786e+2, -205263.55, -403910.94, -1112.2935, -0.0015156568, -0.0033013136, -205257.33, -52168.02 
1.1507043e+2, 2.9435813e+2, -105969.6, -305050.56, -1063.2954, -0.00050184067, -0.0019332786, -105963.92, -50673.934 
1.1507136e+2, 3.0434036e+2, -16892.105, -175175.53, -569.2983, -0.00021623245, -0.002235491, -16890.059, -16890.059 
1.15072325e+2, 3.1432536e+2, -15236.966, -173957.73, -476.7532, -0.0008528235, -0.0069726715, -15235.534, -15235.534 
1.1507339e+2, 3.243149e+2, 48638.266, -43909.8, -222.45663, 0.001436916, -0.0018640262, 48638.797, 48638.797 
1.2505761e+2, 3.4663913e+1, -2547742.8, -2606467.3, -874.533, -0.003640801, -0.0069288057, -2547729.8, 52563.668 
1.2505873e+2, 4.466054e+1, -2455886.0, -2521037.0, -123.22831, 0.0043768734, 0.0009812012, -2455885.8, 46440.6 
1.2505983e+2, 5.4656637e+1, -2356673.8, -2422656.0, -704.1617, 0.0014461416, -0.004362144, -2356666.0, 47698.54 
1.2506081e+2, 6.4652e+1, -2268177.5, -2345867.5, -1732.308, -0.0006700626, -0.005426332, -2268138.8, 38271.31 
1.250617e+2, 7.464667e+1, -2169163.3, -2247598.0, -1549.9801, -0.001884342, -0.0035825903, -2169132.8, 39329.668 
1.2506256e+2, 8.464064e+1, -2079918.9, -2168502.3, -1974.8633, -0.0012449727, -0.002362986, -2079874.9, 30646.59 
1.2506339e+2, 9.463394e+1, -1981716.4, -2070522.4, -2245.8975, 0.001530252, -0.0040327795, -1981659.6, 30927.436 
1.2506412e+2, 1.0462655e+2, -1892999.4, -1992517.4, -2741.859, 0.001618263, -0.0037711042, -1892923.9, 21735.627 
1.2506478e+2, 1.1461848e+2, -1793824.0, -1894074.4, -2641.6636, -0.001398178, -0.003324607, -1793754.5, 22984.154 
1.2506543e+2, 1.24609716e+2, -1704775.3, -1815337.6, -2913.5242, -0.0017280488, -0.002690332, -1704698.5, 14125.947 
1.2506607e+2, 1.346003e+2, -1606826.4, -1717448.4, -3058.3877, 0.0010680441, -0.003979921, -1606741.9, 14174.981 
1.2506667e+2, 1.4459018e+2, -1518178.4, -1639212.3, -3287.2686, 0.0015217997, -0.0038803108, -1518089.1, 4926.8257 
1.2506722e+2, 1.5457937e+2, -1419281.8, -1540844.1, -3139.4019, -0.00077859155, -0.004382722, -1419200.8, 5921.016 
1.2506776e+2, 1.6456793e+2, -1329936.5, -1461778.4, -3269.2627, -0.0012171873, -0.0034819406, -1329855.5, -2621.477 
1.250683e+2, 1.7455582e+2, -1231374.5, -1363531.4, -3506.6162, 0.000548872, -0.0032269508, -1231281.5, -1928.8248 
1.2506886e+2, 1.8454301e+2, -1142906.6, -1285452.1, -3412.5173, 0.0009617956, -0.0028086742, -1142825.0, -11346.822 
1.2506941e+2, 1.945295e+2, -1045081.2, -1187594.8, -3192.023, -0.00024244435, -0.004290509, -1045009.75, -11399.327 
1.2506996e+2, 2.0451535e+2, -955986.6, -1108912.3, -3218.9797, -0.00046291278, -0.0038369447, -955918.94, -20169.6 
1.250705e+2, 2.1450052e+2, -856428.9, -1010183.9, -3285.5112, 0.0005018394, -0.003244, -856358.7, -18464.006 
1.250711e+2, 2.24485e+2, -767263.75, -931338.3, -2933.5715, 0.00025536813, -0.0024325764, -767211.3, -27164.613 
1.2507173e+2, 2.3446882e+2, -669717.3, -833492.75, -3020.4807, -0.0014771618, -0.003841828, -669661.6, -27456.24 
1.250724e+2, 2.4445191e+2, -581376.44, -756023.1, -2869.3767, -0.0012058878, -0.0037053039, -581329.25, -36958.332 
1.250731e+2, 2.5443432e+2, -481759.22, -657091.1, -2693.857, 0.0015354928, -0.003814591, -481717.84, -35174.434 
1.2507387e+2, 2.64416e+2, -392367.5, -578483.44, -2146.1433, 0.0018107097, -0.0031752926, -392342.75, -43620.16 
1.2507463e+2, 2.7439708e+2, -293762.66, -479923.1, -2103.962, -0.001001542, -0.004005339, -293738.88, -42830.582 
1.2507549e+2, 2.8437734e+2, -206052.0, -404254.22, -1592.54, -0.0018416605, -0.002837234, -206039.2, -52937.656 
1.2507644e+2, 2.9435688e+2, -106757.445, -305376.56, -1596.879, -0.00017259674, -0.0018499644, -106744.61, -51442.395 
1.2507744e+2, 3.043391e+2, -17692.352, -175445.86, -1093.1443, 0.00018125567, -0.0026220202, -17684.777, -17684.777 
1.2507848e+2, 3.1432414e+2, -16229.348, -174314.13, -1090.3212, -0.0011461709, -0.007937966, -16221.827, -16221.827 
1.2507963e+2, 3.2431373e+2, 47792.48, -43563.707, -218.40463, 0.0012724292, -0.0011123996, 47793.0, 47793.0 
1.3506249e+2, 3.466272e+1, -2545759.0, -2602431.5, -1147.4276, 0.0023031575, -0.0051555657, -2545735.8, 54569.38 
1.350635e+2, 4.4659364e+1, -2456916.8, -2523199.0, 180.64198, -0.0022413887, -0.0024181588, -2456916.3, 45421.54 
1.3506469e+2, 5.465534e+1, -2357817.3, -2425034.0, -373.09204, -0.0016599812, -0.003730934, -2357815.3, 46562.184 
1.3506581e+2, 6.4650655e+1, -2267846.8, -2345203.8, -1437.9725, -0.00029555443, -0.003482579, -2267820.0, 38603.258 
1.3506682e+2, 7.464535e+1, -2168782.5, -2246832.3, -1258.4912, 0.0019166312, -0.0034546794, -2168762.3, 39712.92 
1.350677e+2, 8.463931e+1, -2080390.0, -2169510.8, -1904.4363, 0.0015412171, -0.002699974, -2080349.3, 30185.113 
1.3506849e+2, 9.463256e+1, -1982210.3, -2071591.1, -2179.2002, -0.0017964374, -0.0032752154, -1982157.1, 30443.5 
1.3506928e+2, 1.04625136e+2, -1892802.3, -1992187.3, -2442.0803, -0.0021517552, -0.0032337448, -1892742.3, 21931.05 
1.3507009e+2, 1.1461707e+2, -1793621.4, -1893687.1, -2333.2302, 0.00093888177, -0.0045336825, -1793567.0, 23185.283 
1.3507079e+2, 1.24608316e+2, -1705023.9, -1815883.8, -2917.8884, 0.0016578066, -0.004006769, -1704947.1, 13891.109 
1.3507138e+2, 1.3459887e+2, -1607086.1, -1718019.4, -3071.4714, -0.00038041323, -0.0034943905, -1607001.1, 13929.716 
1.35072e+2, 1.4458874e+2, -1517902.5, -1638669.9, -3069.1855, -0.0010292657, -0.0027472556, -1517824.6, 5205.322 
1.3507262e+2, 1.5457799e+2, -1418996.6, -1540258.1, -2913.0247, -0.000047672052, -0.0039608036, -1418926.6, 6208.6904 
1.3507323e+2, 1.6456653e+2, -1330370.0, -1462622.1, -3136.5884, 0.00042732674, -0.0035507525, -1330295.6, -3047.909 
1.350738e+2, 1.7455435e+2, -1231840.1, -1364433.4, -3372.6887, 0.0003019082, -0.003515357, -1231754.5, -2387.414 
1.3507436e+2, 1.8454155e+2, -1142546.1, -1284692.6, -3449.41, -0.000088709116, -0.0026931441, -1142462.5, -10969.973 
1.350749e+2, 1.9452812e+2, -1044666.5, -1186767.6, -3241.339, -0.00078794477, -0.0030340357, -1044592.6, -10968.449 
1.350755e+2, 2.0451397e+2, -956069.4, -1109092.4, -2848.8364, -0.0006659733, -0.0028442163, -956016.4, -20253.545 
1.3507614e+2, 2.144991e+2, -856546.44, -1010424.25, -2892.6162, 0.00044349857, -0.004216388, -856492.06, -18583.559 
1.3507678e+2, 2.2448356e+2, -767435.0, -931760.8, -3055.4163, 0.0007390639, -0.0034579134, -767378.2, -27317.422 
1.3507739e+2, 2.3446736e+2, -669892.75, -833902.75, -3168.5444, 0.000036882127, -0.0025798301, -669831.56, -27612.041 
1.3507807e+2, 2.4445048e+2, -581031.94, -755401.4, -2520.178, -0.00036087914, -0.0020643317, -580995.5, -36610.52 
1.3507886e+2, 2.5443292e+2, -481402.7, -656418.4, -2318.4573, -0.00039269796, -0.00416315, -481371.97, -34814.84 
1.3507967e+2, 2.6441464e+2, -392296.47, -578321.9, -2051.7644, -0.00032794406, -0.004105665, -392273.84, -43537.79 
1.3508049e+2, 2.7439573e+2, -293674.28, -479816.97, -2028.6176, -0.00013893754, -0.0037393358, -293652.16, -42730.61 
1.3508141e+2, 2.84376e+2, -206072.03, -404278.2, -1342.7772, 0.00002654168, -0.0026827506, -206062.94, -52948.168 
1.3508241e+2, 2.943555e+2, -106763.53, -305437.94, -1335.3217, 0.00016842522, -0.0034754446, -106754.56, -51438.94 
1.3508348e+2, 3.0433777e+2, -17710.205, -175445.7, -775.9055, -0.00035011332, -0.003863525, -17706.389, -17706.389 
1.3508463e+2, 3.1432277e+2, -16241.438, -174324.55, -770.5949, -0.0016968912, -0.0060131163, -16237.683, -16237.683 
1.3508584e+2, 3.243125e+2, 49879.426, -39173.49, -82.834114, 0.00089417974, -0.0015269842, 49879.504, 49879.504 
1.450673e+2, 3.4661418e+1, -2546246.0, -2602474.0, -1213.5535, 0.0045699854, -0.0029341166, -2546219.8, 54097.977 
1.4506838e+2, 4.4657996e+1, -2454366.0, -2522557.0, -1068.7439, -0.005456815, -0.0049627745, -2454349.3, 48002.176 
1.4506967e+2, 5.465394e+1, -2356352.3, -2424957.8, -895.3557, -0.0016193966, -0.0032621324, -2356340.5, 48050.48 
1.4507085e+2, 6.464923e+1, -2266944.3, -2344870.5, -1771.1979, 0.00094408623, -0.0020698826, -2266904.3, 39533.137 
1.450719e+2, 7.4643904e+1, -2168682.3, -2246864.8, -2031.0795, 0.0019971987, -0.003474605, -2168629.5, 39859.97 
1.4507285e+2, 8.4637856e+1, -2080168.1, -2169555.5, -2670.1064, 0.0011265929, -0.0032371988, -2080088.5, 30460.25 
1.4507368e+2, 9.463109e+1, -1980668.6, -2070996.6, -2524.1152, -0.0019436181, -0.003270891, -1980598.1, 32016.951 
1.4507452e+2, 1.0462366e+2, -1891443.6, -1991679.4, -2878.3628, -0.0020258618, -0.0029780448, -1891361.0, 23326.848 
1.4507535e+2, 1.14615574e+2, -1794078.6, -1894102.5, -3108.7288, 0.0013509262, -0.004359507, -1793982.1, 22784.988 
1.4507608e+2, 1.246068e+2, -1705573.6, -1816106.6, -3603.4766, 0.0018892514, -0.003934377, -1705456.3, 13396.707 
1.4507674e+2, 1.3459735e+2, -1605953.1, -1717428.1, -3453.7996, -0.0008815354, -0.0035465087, -1605846.1, 15099.457 
1.4507738e+2, 1.4458723e+2, -1516658.5, -1638200.1, -3637.5183, -0.0014777889, -0.0026913756, -1516549.8, 6494.993 
1.4507803e+2, 1.5457647e+2, -1419198.5, -1540516.5, -3893.572, 0.0004771493, -0.003525474, -1419073.6, 6076.674 
1.4507866e+2, 1.64565e+2, -1330999.3, -1462817.0, -3951.4736, 0.00093779207, -0.0031898078, -1330880.9, -3618.1677 
1.4507927e+2, 1.7455283e+2, -1232058.3, -1364436.6, -3643.7783, -0.00037232935, -0.0037601194, -1231958.0, -2576.0818 
1.4507985e+2, 1.8454002e+2, -1142482.1, -1284826.8, -3818.498, -0.00074781827, -0.0030800616, -1142379.8, -10872.248 
1.4508043e+2, 1.9452658e+2, -1044103.5, -1186647.6, -4141.0137, -0.0000060285774, -0.0030056755, -1043983.3, -10344.061 
1.4508106e+2, 2.0451243e+2, -955690.5, -1108688.0, -3755.7742, 0.00016763687, -0.0026359917, -955598.4, -19820.486 
1.4508173e+2, 2.144976e+2, -857701.6, -1010759.5, -3528.889, -0.00034687654, -0.004109113, -857620.3, -19696.947 
1.450824e+2, 2.2448206e+2, -768850.94, -932411.2, -3564.9578, -0.0001968074, -0.0035281754, -768773.3, -28697.73 
1.4508305e+2, 2.3446585e+2, -669504.3, -833751.25, -3515.57, 0.0007619592, -0.0029133672, -669429.06, -27194.734 
1.4508377e+2, 2.4444897e+2, -580341.0, -754821.2, -2817.9937, 0.00057838904, -0.0022639076, -580295.5, -35895.758 
1.4508457e+2, 2.5443143e+2, -482467.7, -656684.44, -2838.1187, -0.0010248338, -0.0037448856, -482421.47, -35849.805 
1.4508544e+2, 2.6441318e+2, -393980.63, -579081.06, -2652.7917, -0.0012056058, -0.0035708228, -393942.63, -45192.15 
1.4508633e+2, 2.7439424e+2, -294432.75, -480079.28, -2672.4363, 0.0003934944, -0.0037109237, -294394.28, -43458.313 
1.450873e+2, 2.8437454e+2, -206250.98, -403997.94, -1899.0583, 0.0008398914, -0.0030659765, -206232.75, -53103.676 
1.4508834e+2, 2.9435408e+2, -107367.61, -305301.03, -1639.7269, -0.00017147306, -0.004140484, -107354.02, -52024.395 
1.4508948e+2, 3.0433637e+2, -18849.754, -175967.84, -874.8576, -0.0009471855, -0.003838745, -18844.883, -18844.883 
1.450907e+2, 3.143214e+2, -17822.04, -175086.52, -844.09937, -0.0014051136, -0.0040535075, -17817.508, -17817.508 
1.4509197e+2, 3.2431114e+2, 48920.48, -38713.84, -919.9014, 0.0008612682, -0.0031154382, 48930.137, 48930.137 
1.5507206e+2, 3.4660015e+1, -2547938.3, -2605974.0, 467.59396, 0.0032166124, -0.00027478058, -2547934.5, 52397.1 
1.5507339e+2, 4.4656444e+1, -2454145.0, -2522124.0, -959.0271, -0.005366292, -0.006676055, -2454131.5, 48235.06 
1.5507475e+2, 5.4652447e+1, -2356065.5, -2424387.8, -840.0581, 0.0014613726, -0.0029475295, -2356055.3, 48350.574 
1.5507592e+2, 6.4647734e+1, -2267385.8, -2345780.8, -1687.9019, 0.0030056445, -0.0011717849, -2267349.3, 39102.633 
1.5507694e+2, 7.4642336e+1, -2169141.5, -2247822.0, -1943.504, -0.0015533125, -0.0036409367, -2169093.5, 39411.246 
1.5507796e+2, 8.463626e+1, -2079885.9, -2169024.0, -2274.724, -0.002420969, -0.0039735157, -2079827.9, 30736.498 
1.5507898e+2, 9.462953e+1, -1980388.6, -2070408.4, -2118.0051, 0.0009729745, -0.004007733, -1980338.9, 32291.387 
1.5507986e+2, 1.046221e+2, -1891844.4, -1992556.5, -3024.7856, 0.001874063, -0.0030011311, -1891753.6, 22949.55 
1.5508059e+2, 1.1461397e+2, -1794498.3, -1895011.6, -3271.1995, -0.00011869215, -0.0028477737, -1794391.9, 22390.86 
1.5508135e+2, 1.2460519e+2, -1705281.5, -1815558.9, -3207.586, -0.00096618617, -0.0025155179, -1705188.3, 13680.608 
1.5508212e+2, 1.3459577e+2, -1605663.5, -1716824.1, -3036.9116, -0.00047547946, -0.0041208495, -1605580.6, 15380.683 
1.5508282e+2, 1.4458564e+2, -1517116.3, -1639155.5, -3764.4355, 0.00010286206, -0.0036794257, -1517000.3, 6060.326 
1.5508343e+2, 1.545748e+2, -1419670.6, -1541524.4, -4037.4902, 0.000787174, -0.0030808968, -1419537.0, 5629.6646 
1.5508406e+2, 1.6456334e+2, -1330443.0, -1461713.4, -3733.7466, 0.00033013665, -0.0024121292, -1330336.9, -3057.893 
1.5508471e+2, 1.7455123e+2, -1231469.6, -1363251.0, -3414.4465, -0.0014723156, -0.0039652837, -1231381.1, -1983.6825 
1.5508537e+2, 1.8453844e+2, -1143028.0, -1285949.3, -3726.5461, -0.0010459411, -0.003958097, -1142930.9, -11407.91 
1.5508598e+2, 1.945249e+2, -1044700.06, -1187871.1, -4049.236, 0.0020437688, -0.004175058, -1044585.6, -10930.02 
1.5508662e+2, 2.0451075e+2, -955339.0, -1107986.0, -3756.8323, 0.0019916545, -0.003192131, -955246.6, -19452.215 
1.5508726e+2, 2.1449597e+2, -857325.06, -1009942.0, -3538.5698, -0.001861388, -0.0029644363, -857243.06, -19303.865 
1.5508796e+2, 2.2448047e+2, -768705.44, -932126.0, -3271.018, -0.0025245845, -0.0026761082, -768640.0, -28548.959 
1.5508872e+2, 2.3446426e+2, -669397.2, -833480.9, -3204.197, 0.0007038045, -0.004794579, -669334.6, -27084.793 
1.550895e+2, 2.4444738e+2, -580408.75, -754987.94, -2883.63, 0.0015942117, -0.00424955, -580361.1, -35945.875 
1.5509027e+2, 2.5442988e+2, -482532.1, -656875.4, -2925.8594, -0.0004198625, -0.002586113, -482483.0, -35896.004 
1.5509115e+2, 2.6441163e+2, -394002.53, -579127.1, -2344.2847, -0.00088531134, -0.0016150966, -393972.88, -45207.06 
1.5509214e+2, 2.7439266e+2, -294452.47, -480134.16, -2338.8616, 0.00059173495, -0.0039140033, -294423.0, -43471.47 
1.5509316e+2, 2.84373e+2, -205843.19, -403109.16, -1732.6685, 0.00061715127, -0.003966526, -205827.97, -52683.54 
1.5509425e+2, 2.943526e+2, -106919.336, -304365.47, -1489.9047, -0.0011910148, -0.003877134, -106908.09, -51563.863 
1.5509544e+2, 3.0433494e+2, -18802.57, -175810.47, -676.77264, -0.0016310695, -0.0025860276, -18799.654, -18799.654 
1.5509674e+2, 3.1431997e+2, -17793.232, -174988.72, -640.2677, -0.0003069526, -0.0020517905, -17790.623, -17790.623 
1.5509807e+2, 3.243096e+2, 48008.008, -40607.277, -595.33435, 0.0011389871, -0.0058468143, 48012.004, 48012.004 
1.6507693e+2, 3.4658423e+1, -2545573.3, -2605568.8, 361.7008, 0.0014605379, -0.0014390184, -2545571.0, 54776.23 
1.6507845e+2, 4.4654864e+1, -2453941.5, -2521852.0, -1387.3206, -0.002609818, -0.0036281717, -2453913.3, 48468.902 
1.6507979e+2, 5.4650855e+1, -2355782.8, -2424047.0, -1460.2233, 0.0015340403, -0.0032769742, -2355751.5, 48669.93 
1.6508101e+2, 6.4646125e+1, -2266848.0, -2345878.5, -2110.7913, 0.002000753, -0.0025634533, -2266791.8, 39675.992 
1.650821e+2, 7.464071e+1, -2167375.8, -2247348.8, -2129.6653, -0.0017754023, -0.003427418, -2167319.0, 41201.754 
1.6508316e+2, 8.4634614e+1, -2078308.6, -2168309.5, -2621.3845, -0.0021681, -0.0032574176, -2078232.3, 32348.197 
1.6508421e+2, 9.4627875e+1, -1981018.6, -2070786.0, -2803.5256, 0.0013397315, -0.004067817, -1980931.1, 31715.326 
1.6508512e+2, 1.04620434e+2, -1892544.3, -1992982.5, -3660.7869, 0.0020354483, -0.003289521, -1892411.0, 22308.477 
1.650859e+2, 1.146123e+2, -1792685.3, -1894219.9, -3518.5935, -0.0005275959, -0.0027367591, -1792563.5, 24235.703 
1.6508669e+2, 1.2460351e+2, -1703427.4, -1814805.1, -3541.5024, -0.001313057, -0.0022529194, -1703314.9, 15570.458 
1.6508749e+2, 1.3459405e+2, -1606561.5, -1717413.0, -3785.7598, -0.00002976136, -0.0039947825, -1606432.3, 14545.58 
1.6508822e+2, 1.4458393e+2, -1518371.8, -1639749.9, -4415.07, 0.0005574554, -0.0037424595, -1518211.4, 4865.848 
1.6508886e+2, 1.5457308e+2, -1418618.9, -1541018.9, -4194.3804, 0.0003331543, -0.0033825112, -1418475.3, 6708.081 
1.650895e+2, 1.6456163e+2, -1329031.9, -1461068.8, -4074.5122, -0.00011567145, -0.0026955288, -1328906.3, -1610.441 
1.6509017e+2, 1.7454953e+2, -1231886.9, -1363495.6, -4406.266, -0.00082603196, -0.0039298753, -1231739.5, -2325.1726 
1.6509084e+2, 1.8453671e+2, -1143933.6, -1286289.0, -4560.5, -0.0004327662, -0.0037758097, -1143787.6, -12247.849 
1.650915e+2, 1.945232e+2, -1044729.25, -1187808.4, -4197.112, 0.0012754239, -0.004048845, -1044606.25, -10933.893 
1.6509219e+2, 2.0450903e+2, -955189.7, -1108009.6, -3985.9563, 0.0012185602, -0.0031974637, -955085.75, -19274.643 
1.6509284e+2, 2.1449424e+2, -857399.8, -1010147.75, -4271.74, -0.0009736234, -0.0031889337, -857280.44, -19324.365 
1.6509356e+2, 2.2447877e+2, -769013.1, -931962.0, -3990.624, -0.0015740822, -0.0028128305, -768915.44, -28807.63 
1.6509435e+2, 2.3446259e+2, -670428.25, -833650.3, -3834.96, -0.00023866056, -0.004484048, -670338.2, -28071.84 
1.6509515e+2, 2.4444573e+2, -581618.9, -755578.5, -3598.148, 0.00044912315, -0.003943109, -581544.5, -37112.895 
1.6509598e+2, 2.5442818e+2, -482667.2, -656958.4, -3611.7346, 0.00032777464, -0.0028377892, -482592.38, -35988.934 
1.6509688e+2, 2.6440993e+2, -393787.47, -578708.4, -2794.9187, 0.00021795709, -0.0019635567, -393745.22, -44963.043 
1.650979e+2, 2.7439103e+2, -295329.34, -480226.9, -2569.2837, 0.00011737498, -0.003780362, -295293.66, -44326.04 
1.6509898e+2, 2.8437138e+2, -207397.94, -403819.28, -2053.3657, -0.0003431357, -0.003526668, -207376.47, -54216.156 
1.6510011e+2, 2.9435098e+2, -108423.02, -305031.44, -2251.752, -0.001245392, -0.0033558807, -108397.234, -53037.18 
1.6510136e+2, 3.043333e+2, -19674.643, -175626.31, -1414.6576, -0.0009830437, -0.0024730186, -19661.813, -19661.813 
1.6510274e+2, 3.1431845e+2, -18058.262, -174469.14, -1010.60925, 0.000764979, -0.002978245, -18051.732, -18051.732 
1.6510414e+2, 3.2430804e+2, 47169.37, -42208.332, -588.31213, 0.00016067838, -0.004830994, 47173.242, 47173.242 
1.7508186e+2, 3.4656647e+1, -2544862.0, -2604141.5, 709.8724, -0.0007187562, -0.0063339253, -2544853.5, 55511.25 
1.7508353e+2, 4.4653267e+1, -2453950.5, -2521856.8, -1305.6539, 0.0027280475, 0.0040340605, -2453925.3, 48472.426 
1.7508481e+2, 5.464916e+1, -2355798.5, -2424093.8, -1387.9653, -0.0013260815, -0.004230059, -2355770.3, 48667.59 
1.7508608e+2, 6.46444e+1, -2266866.3, -2345921.0, -1719.0476, -0.0019954403, -0.0061797323, -2266829.0, 39655.66 
1.7508735e+2, 7.463902e+1, -2167412.5, -2247398.8, -1724.6533, 0.0012140298, -0.0028510946, -2167375.3, 41162.008 
1.7508845e+2, 8.463293e+1, -2078654.8, -2169010.3, -2768.8767, 0.0017578133, -0.0011400884, -2078570.0, 32027.084 
1.750894e+2, 9.462612e+1, -1981365.8, -2071499.0, -2968.6323, -0.0007778539, -0.003473078, -1981268.1, 31395.656 
1.7509034e+2, 1.0461866e+2, -1892250.9, -1992405.8, -3199.7917, -0.0014383264, -0.0038368178, -1892148.8, 22588.115 
1.750913e+2, 1.1461057e+2, -1792397.6, -1893596.1, -3034.9631, 0.00007557911, -0.003980893, -1792306.6, 24509.502 
1.7509212e+2, 1.2460176e+2, -1703897.0, -1815754.5, -3807.495, 0.00074889045, -0.0031102584, -1703767.5, 15134.918 
1.7509285e+2, 1.3459226e+2, -1607048.4, -1718408.4, -4076.2322, 0.0004423626, -0.0031985478, -1606899.3, 14096.193 
1.7509356e+2, 1.4458212e+2, -1517934.6, -1638899.1, -4000.1724, -0.0000869253, -0.00290901, -1517802.5, 5292.486 
1.7509432e+2, 1.5457134e+2, -1418176.8, -1540093.6, -3751.495, -0.00087060523, -0.0044073495, -1418061.4, 7139.211 
1.7509502e+2, 1.6455986e+2, -1329646.4, -1462308.8, -4289.5693, -0.00042058688, -0.004005873, -1329507.9, -2194.7644 
1.7509566e+2, 1.7454769e+2, -1232535.0, -1364822.1, -4644.0625, 0.0014968488, -0.0036658524, -1232372.1, -2939.7131 
1.7509632e+2, 1.8453488e+2, -1143292.4, -1284963.8, -4271.9297, 0.0010517949, -0.0025714845, -1143163.6, -11605.772 
1.7509702e+2, 1.9452146e+2, -1044058.56, -1186356.8, -3889.6353, -0.0022257725, -0.0026752385, -1043952.3, -10262.915 
1.750977e+2, 2.045073e+2, -955691.25, -1109003.1, -4048.0745, -0.0020754854, -0.0026746616, -955584.44, -19756.365 
1.750984e+2, 2.1449241e+2, -857961.0, -1011248.56, -4345.792, 0.0022155708, -0.004732763, -857837.9, -19863.902 
1.7509915e+2, 2.2447692e+2, -768770.94, -931478.8, -3876.7322, 0.0025250262, -0.0039084274, -768678.6, -28552.707 
1.7509991e+2, 2.3446082e+2, -670153.25, -833083.9, -3715.2637, -0.0020463648, -0.0020624674, -670068.56, -27784.86 
1.7510076e+2, 2.4444397e+2, -581620.75, -755573.4, -3403.3313, -0.00279569, -0.0014271433, -581554.2, -37105.42 
1.7510167e+2, 2.544264e+2, -482684.63, -656997.44, -3410.955, 0.00119523, -0.0044477195, -482617.9, -35996.914 
1.7510264e+2, 2.6440817e+2, -393430.8, -577970.0, -2742.9846, 0.0020554843, -0.004528783, -393390.06, -44590.47 
1.7510362e+2, 2.7438936e+2, -294942.6, -479442.9, -2531.17, -0.0010192705, -0.0033248628, -294907.88, -43923.695 
1.7510472e+2, 2.8436968e+2, -207747.72, -404471.3, -1887.77, -0.002032696, -0.0017979514, -207729.61, -54552.914 
1.7510594e+2, 2.9434925e+2, -108818.54, -305788.25, -2073.449, -0.00039287808, -0.0025860455, -108796.71, -53419.65 
1.7510727e+2, 3.043316e+2, -19045.47, -174265.22, -1065.0963, 0.0009259912, -0.0034550682, -19038.162, -19038.162 
1.7510873e+2, 3.1431678e+2, -17362.459, -172969.66, -657.4267, 0.0018025885, -0.0067202896, -17359.682, -17359.682 
1.751102e+2, 3.243065e+2, 46552.324, -43438.336, -142.61182, -0.002046081, -0.00021687051, 46552.55, 46552.55 
1.8508688e+2, 3.4654915e+1, -2542820.5, -2602733.3, 199.06477, -0.0024355408, -0.0056657065, -2542819.8, 57561.84 
1.8508857e+2, 4.465151e+1, -2454474.0, -2522389.0, -1400.0956, 0.0052279537, 0.002069017, -2454445.0, 47969.832 
1.8508992e+2, 5.4647404e+1, -2354245.8, -2423633.8, -1626.3413, -0.0014062694, -0.003928836, -2354207.8, 50247.53 
1.8509124e+2, 6.464264e+1, -2264868.8, -2344994.8, -2221.2126, -0.0029138147, -0.0052087815, -2264807.3, 41694.656 
1.8509257e+2, 7.463724e+1, -2167194.8, -2247340.0, -2235.955, 0.0014654343, -0.0030567432, -2167132.5, 41422.336 
1.8509372e+2, 8.463113e+1, -2078713.5, -2169311.5, -3301.393, 0.0023084534, -0.001667198, -2078593.3, 32021.412 
1.8509468e+2, 9.46243e+1, -1979651.5, -2070942.5, -3328.4524, -0.0009365142, -0.003331075, -1979530.4, 33151.227 
1.8509565e+2, 1.0461682e+2, -1890512.9, -1991678.4, -3523.5515, -0.0018135316, -0.0035448477, -1890390.3, 24364.576 
1.8509665e+2, 1.1460871e+2, -1792889.6, -1893950.6, -3738.0322, 0.000055839002, -0.0041381824, -1792751.6, 24082.71 
1.8509752e+2, 1.245999e+2, -1704585.6, -1816209.6, -4710.5957, 0.00093146483, -0.0034196943, -1704387.1, 14533.496 
1.8509823e+2, 1.3459039e+2, -1605535.5, -1717816.1, -4566.715, 0.0006518326, -0.003312189, -1605350.0, 15663.823 
1.8509899e+2, 1.4458025e+2, -1516268.3, -1638108.3, -4345.4707, 0.000024437624, -0.0028479595, -1516113.5, 6999.8467 
1.8509977e+2, 1.5456946e+2, -1418844.1, -1540436.1, -4565.5073, -0.0010127014, -0.004196884, -1418672.9, 6546.055 
1.8510048e+2, 1.6455796e+2, -1330776.4, -1462944.0, -5208.241, -0.0006278477, -0.003764747, -1330571.5, -3239.9407 
1.8510112e+2, 1.745458e+2, -1231768.6, -1364550.9, -4969.799, 0.0014444533, -0.0035321463, -1231582.8, -2131.8745 
1.851018e+2, 1.8453299e+2, -1142271.0, -1284425.6, -4534.9707, 0.0011446221, -0.0025800122, -1142126.5, -10549.974 
1.8510251e+2, 1.9451956e+2, -1044865.06, -1186717.0, -4851.2817, -0.0019958387, -0.0028713138, -1044699.4, -10991.407 
1.8510322e+2, 2.0450541e+2, -956864.56, -1109395.4, -5069.3647, -0.0020185756, -0.0027292063, -956696.25, -20849.727 
1.8510395e+2, 2.1449055e+2, -857903.9, -1011047.2, -4696.6294, 0.0017230888, -0.004251696, -857759.94, -19767.719 
1.8510471e+2, 2.2447506e+2, -768502.3, -931471.7, -4068.7097, 0.002190522, -0.0034337495, -768400.8, -28256.643 
1.851055e+2, 2.3445894e+2, -670473.44, -833385.9, -4292.5474, -0.0013617822, -0.0022588149, -670360.44, -28058.254 
1.8510635e+2, 2.4444209e+2, -582217.2, -755558.1, -4008.7434, -0.00214276, -0.0017482197, -582124.56, -37657.39 
1.851073e+2, 2.5442457e+2, -483809.25, -657200.44, -3789.0232, 0.0005144163, -0.0042141783, -483726.5, -37087.434 
1.8510829e+2, 2.6440635e+2, -394754.53, -578528.0, -3166.261, 0.0012296351, -0.004207507, -394700.0, -45882.55 
1.8510933e+2, 2.743875e+2, -295743.38, -479737.13, -3314.3105, -0.00050197967, -0.0035051752, -295683.7, -44681.65 
1.8511048e+2, 2.843679e+2, -208188.73, -404514.66, -2607.7927, -0.0012372681, -0.0020388886, -208154.1, -54959.66 
1.8511172e+2, 2.9434747e+2, -109422.19, -305874.56, -2279.4417, -0.0006863624, -0.0023283015, -109395.74, -54001.156 
1.851131e+2, 3.0432984e+2, -20176.186, -174681.23, -1198.782, 0.00031590936, -0.0032598572, -20166.885, -20166.885 
1.8511462e+2, 3.14315e+2, -19407.479, -173817.47, -1467.5142, 0.001889103, -0.0073097246, -19393.531, -19393.531 
1.851162e+2, 3.243048e+2, 44866.734, -43013.203, -412.8391, -0.0020365817, 0.0003783661, 44868.67, 44868.67 
1.9509196e+2, 3.4653217e+1, -2542978.5, -2603039.8, -942.49854, -0.0037268857, 0.00040085553, -2542963.8, 57434.57 
1.9509359e+2, 4.464961e+1, -2454791.3, -2523080.3, -848.48364, 0.0049720285, -0.009200887, -2454780.5, 47652.934 
1.950951e+2, 5.464558e+1, -2354591.3, -2424353.0, -1010.3784, 0.0011790948, -0.0024268068, -2354576.5, 49896.504 
1.9509651e+2, 6.4640826e+1, -2264923.8, -2345076.0, -2249.6492, -0.00087716116, 0.0001912833, -2264860.8, 41658.984 
1.9509777e+2, 7.463536e+1, -2167234.5, -2247392.0, -2288.179, -0.0009354101, -0.004015333, -2167169.3, 41403.906 
1.9509895e+2, 8.462922e+1, -2078718.0, -2169337.3, -3022.4521, -0.00041470426, -0.0047467174, -2078617.3, 32016.094 
1.9510005e+2, 9.462242e+1, -1979657.4, -2070975.5, -3036.4631, 0.0007734963, -0.0036269408, -1979556.5, 33143.523 
1.9510105e+2, 1.0461493e+2, -1890937.6, -1992530.1, -3601.0586, 0.0007828459, -0.0024426198, -1890810.1, 23963.322 
1.95102e+2, 1.1460676e+2, -1793326.9, -1894838.6, -3825.5667, -0.00058020966, -0.0032484003, -1793183.0, 23670.58 
1.9510287e+2, 1.2459792e+2, -1704291.4, -1815611.9, -4448.6387, -0.00071680744, -0.0031984018, -1704113.9, 14826.185 
1.9510369e+2, 1.3458845e+2, -1605224.0, -1717156.1, -4292.6875, 0.00059288816, -0.0043015652, -1605059.6, 15973.232 
1.9510446e+2, 1.445783e+2, -1516693.5, -1638982.5, -4490.234, 0.00084703695, -0.0035343864, -1516528.9, 6603.504 
1.9510521e+2, 1.5456748e+2, -1419312.3, -1541363.8, -4722.1333, -0.00014551399, -0.0028039948, -1419129.9, 6108.68 
1.9510591e+2, 1.6455598e+2, -1330328.9, -1461995.5, -4973.145, -0.0007552484, -0.0020340148, -1330141.4, -2790.2705 
1.951066e+2, 1.7454386e+2, -1231298.9, -1363509.3, -4719.731, -0.0009051184, -0.003525156, -1231130.6, -1660.6741 
1.951073e+2, 1.8453103e+2, -1142868.3, -1285628.6, -4685.836, -0.00011314561, -0.0037557452, -1142714.6, -11119.0 
1.9510803e+2, 1.9451752e+2, -1045504.06, -1188031.4, -5015.003, 0.0018055373, -0.0045728376, -1045327.8, -11599.807 
1.9510876e+2, 2.0450339e+2, -956214.75, -1107989.9, -4841.219, 0.0012469868, -0.0033376315, -956060.44, -20193.94 
1.9510946e+2, 2.1448864e+2, -857188.56, -1009522.3, -4457.566, -0.0023129066, -0.0018236334, -857058.25, -19047.375 
1.9511025e+2, 2.2447318e+2, -768909.5, -932275.8, -4090.62, -0.0024203567, -0.0014482397, -768807.1, -28644.56 
1.951111e+2, 2.3445694e+2, -670930.7, -834326.8, -4322.8677, 0.001697115, -0.004962259, -670816.44, -28494.781 
1.9511199e+2, 2.444401e+2, -581846.6, -754812.6, -3950.0125, 0.002238322, -0.004792034, -581756.5, -37269.727 
1.9511287e+2, 2.5442266e+2, -483389.56, -656359.7, -3730.104, -0.0016659868, -0.0022112553, -483309.2, -36651.563 
1.9511388e+2, 2.6440448e+2, -395018.25, -579044.06, -2987.9832, -0.002177338, -0.0011143694, -394969.75, -46133.977 
1.9511501e+2, 2.7438557e+2, -296043.6, -480361.34, -3125.0413, 0.001586364, -0.004291763, -295990.63, -44969.477 
1.9511622e+2, 2.8436592e+2, -207666.39, -403394.47, -2463.3857, 0.0019239016, -0.0041682497, -207635.39, -54421.875 
1.9511746e+2, 2.9434562e+2, -108832.695, -304648.13, -2143.8591, -0.0020982749, -0.0025629422, -108809.23, -53396.62 
1.9511886e+2, 3.04328e+2, -20673.717, -175682.45, -1075.1426, -0.0027287398, -0.0019418073, -20666.26, -20666.26 
1.9512045e+2, 3.1431314e+2, -19988.256, -174989.4, -1339.503, 0.0010512252, -0.0048981896, -19976.68, -19976.68 
1.9512214e+2, 3.2430294e+2, 46861.676, -38806.613, 122.884346, 0.000051421408, -0.002857848, 46861.85, 46861.85 
2.0509711e+2, 3.465144e+1, -2542715.5, -2604170.5, -1205.8243, -0.0014999702, 0.00027244832, -2542692.0, 57723.742 
2.0509869e+2, 4.4647753e+1, -2450985.8, -2521555.0, -984.2374, 0.0017944627, -0.009777036, -2450972.0, 51479.637 
2.0510034e+2, 5.464371e+1, -2353288.0, -2423999.0, -965.23975, 0.0013788337, -0.0024394447, -2353274.8, 51216.57 
2.0510179e+2, 6.4638925e+1, -2264646.0, -2345295.8, -2442.2673, 0.00044120886, 0.00043538137, -2264572.0, 41966.297 
2.0510305e+2, 7.463343e+1, -2166218.8, -2247257.0, -2687.9514, -0.0010992198, -0.0038484822, -2166129.8, 42462.332 
2.0510426e+2, 8.462726e+1, -2077402.8, -2168843.0, -3385.6785, -0.0010324959, -0.00466103, -2077277.5, 33375.055 
2.0510542e+2, 9.4620454e+1, -1978759.6, -2070684.4, -3487.0735, 0.00088746997, -0.0036269745, -1978627.5, 34091.81 
2.0510647e+2, 1.0461294e+2, -1890250.0, -1992394.1, -4266.151, 0.0012264543, -0.002436714, -1890072.1, 24720.791 
2.0510739e+2, 1.1460475e+2, -1792564.0, -1894664.8, -4194.5874, -0.000268589, -0.0031279747, -1792391.9, 24481.268 
2.0510827e+2, 1.2459591e+2, -1703602.8, -1815339.0, -4537.0757, -0.0007474874, -0.0030300212, -1703418.9, 15540.982 
2.0510913e+2, 1.3458642e+2, -1604963.3, -1717096.9, -4738.8843, -0.000036053774, -0.0041604587, -1604763.3, 16289.43 
2.0510992e+2, 1.4457627e+2, -1516626.4, -1639096.0, -5302.718, 0.0003871416, -0.0034648092, -1516397.1, 6755.145 
2.0511064e+2, 1.5456541e+2, -1419032.3, -1541383.5, -5184.901, 0.00046574458, -0.0028563994, -1418812.9, 6445.7104 
2.0511137e+2, 1.6455394e+2, -1329999.3, -1461737.4, -5133.637, -0.00007940057, -0.0021173474, -1329799.5, -2428.3743 
2.0511208e+2, 1.7454182e+2, -1231426.5, -1363489.0, -5308.76, -0.0013651695, -0.0035242587, -1231213.4, -1723.4885 
2.0511281e+2, 1.8452899e+2, -1143170.4, -1285844.3, -5519.1787, -0.00078650226, -0.003641534, -1142957.1, -11341.624 
2.0511352e+2, 1.9451547e+2, -1045340.44, -1188013.8, -5265.7085, 0.0020244783, -0.0043119905, -1045146.3, -11398.265 
2.0511423e+2, 2.0450135e+2, -956059.1, -1107865.9, -4869.1494, 0.0017339285, -0.0032484469, -955903.1, -20016.52 
2.0511498e+2, 2.144866e+2, -857902.56, -1009796.9, -5189.108, -0.002318144, -0.0023038806, -857725.5, -19694.51 
2.0511578e+2, 2.2447114e+2, -769910.2, -932588.3, -5074.387, -0.0026731635, -0.001948624, -769752.06, -29569.525 
2.0511664e+2, 2.3445493e+2, -671697.9, -834500.6, -4735.0576, 0.0014987517, -0.0048010987, -671560.25, -29218.855 
2.0511752e+2, 2.444381e+2, -582410.25, -754999.25, -4119.226, 0.0022159037, -0.004438227, -582312.0, -37805.594 
2.0511845e+2, 2.5442067e+2, -483688.6, -656419.8, -4274.785, -0.0013612169, -0.0022587527, -483582.84, -36905.64 
2.0511948e+2, 2.644025e+2, -395467.28, -579146.6, -3590.9763, -0.0019963877, -0.0011900702, -395397.1, -46541.81 
2.0512065e+2, 2.743836e+2, -297354.3, -480830.22, -3337.8616, 0.0010720432, -0.0039175353, -297293.63, -46253.125 
2.0512189e+2, 2.8436399e+2, -209085.6, -403698.63, -2500.9128, 0.0014671248, -0.0039253356, -209053.47, -55820.805 
2.0512319e+2, 2.9434368e+2, -109759.94, -304698.1, -2549.3022, -0.0015457186, -0.0031921845, -109726.6, -54295.113 
2.0512462e+2, 3.0432612e+2, -21923.754, -176398.45, -1643.3357, -0.0021597152, -0.002062753, -21906.273, -21906.273 
2.0512621e+2, 3.1431124e+2, -21931.71, -176080.33, -1451.1898, 0.0003606279, -0.0027344201, -21918.05, -21918.05 
2.0512794e+2, 3.2430106e+2, 45314.906, -38022.383, 157.05225, 0.00011843657, -0.004229819, 45315.203, 45315.203 
2.1510233e+2, 3.464959e+1, -2544140.8, -2607075.0, -371.51492, 0.0040864456, -0.0058072214, -2544138.5, 56295.277 
2.1510391e+2, 4.4645953e+1, -2451054.0, -2521716.8, -987.04944, -0.0042004315, -0.000051796844, -2451040.3, 51429.086 
2.151056e+2, 5.464179e+1, -2353307.5, -2424065.8, -1000.0743, -0.0007359683, -0.0039076447, -2353293.3, 51216.863 
2.1510708e+2, 6.463694e+1, -2265046.3, -2346112.5, -2315.3477, 0.0010473771, -0.004274641, -2264980.3, 41577.496 
2.151084e+2, 7.4631447e+1, -2166628.0, -2248097.3, -2549.5176, 0.00087031943, -0.0026076925, -2166548.3, 42063.31 
2.1510965e+2, 8.462526e+1, -2077589.0, -2169262.0, -3203.029, 0.00035464007, -0.001540913, -2077477.3, 33195.035 
2.1511082e+2, 9.461839e+1, -1978963.0, -2071088.1, -3299.971, -0.0005525394, -0.003342222, -1978844.9, 33894.574 
2.1511188e+2, 1.0461086e+2, -1890106.5, -1992104.3, -4326.835, -0.0004149799, -0.003480855, -1889923.3, 24890.008 
2.151128e+2, 1.146027e+2, -1792402.0, -1894332.1, -4266.221, 0.00093424023, -0.0037496842, -1792223.8, 24669.549 
2.1511371e+2, 1.2459385e+2, -1703944.8, -1816101.6, -4389.341, 0.00075265515, -0.0029146494, -1703773.3, 15206.796 
2.151146e+2, 1.3458432e+2, -1605341.1, -1717923.3, -4577.5835, -0.0012247026, -0.0029377928, -1605155.4, 15917.978 
2.1511538e+2, 1.4457414e+2, -1516405.6, -1638667.8, -5396.7046, -0.0013210344, -0.002668588, -1516167.9, 7005.279 
2.151161e+2, 1.5456331e+2, -1418769.3, -1540892.8, -5291.7583, 0.00081599824, -0.0042935424, -1418540.4, 6738.867 
2.1511684e+2, 1.6455182e+2, -1330307.1, -1462393.6, -5020.2188, 0.0013474723, -0.0039391764, -1330116.6, -2724.715 
2.151176e+2, 1.7453967e+2, -1231786.8, -1364206.4, -5181.498, -0.000030190246, -0.0035321515, -1231584.3, -2073.2966 
2.151183e+2, 1.8452688e+2, -1142712.4, -1284908.0, -5553.496, -0.0009135803, -0.002299009, -1142495.8, -10859.384 
2.1511897e+2, 1.9451343e+2, -1044831.3, -1186998.1, -5312.882, -0.0011970691, -0.0021716354, -1044633.06, -10864.913 
2.151197e+2, 2.0449927e+2, -956642.25, -1109029.3, -4857.6177, -0.00045709152, -0.002488986, -956487.56, -20580.766 
2.1512051e+2, 2.1448442e+2, -858538.56, -1011087.75, -5168.4663, 0.0015136995, -0.0055630095, -858363.6, -20311.205 
2.1512133e+2, 2.2446895e+2, -769349.25, -931367.3, -5037.068, 0.0012275439, -0.004826095, -769192.8, -28988.764 
2.1512212e+2, 2.3445287e+2, -671072.06, -833147.2, -4703.393, -0.0018259281, -0.0019018898, -670935.7, -28574.232 
2.1512301e+2, 2.444361e+2, -582695.94, -755513.1, -3994.3867, -0.0020327547, -0.00083222723, -582603.7, -38077.633 
2.1512404e+2, 2.5441855e+2, -484028.97, -657052.5, -4140.702, 0.0012940774, -0.004259412, -483929.94, -37232.082 
2.1512511e+2, 2.644004e+2, -395097.03, -578293.9, -3609.0574, 0.0015909979, -0.004290762, -395025.97, -46149.996 
2.1512619e+2, 2.7438158e+2, -296936.6, -479888.16, -3369.0168, -0.0019341279, -0.002437075, -296874.56, -45814.465 
2.1512744e+2, 2.8436202e+2, -209202.53, -403835.7, -2255.3372, -0.0024591284, -0.0014149627, -209176.39, -55924.508 
2.1512887e+2, 2.9434168e+2, -109917.945, -304917.03, -2284.059, 0.0008523336, -0.0041948757, -109891.195, -54439.977 
2.1513037e+2, 3.043241e+2, -21644.117, -175784.05, -1673.071, 0.0018314263, -0.003555326, -21625.959, -21625.959 
2.151319e+2, 3.1430933e+2, -21615.324, -175401.83, -1500.4518, -0.00019528285, -0.00080467423, -21600.686, -21600.686 
2.1513367e+2, 3.2429916e+2, 45199.473, -38217.01, 529.1202, -0.0017773759, -0.0038266224, 45202.83, 45202.83 
2.2510755e+2, 3.4647638e+1, -2542459.5, -2605684.5, -612.0623, 0.0048712976, -0.006066143, -2542453.5, 57999.293 
2.2510922e+2, 4.4644025e+1, -2449963.3, -2521752.5, -1358.717, -0.005109522, 0.0017569971, -2449937.5, 52550.832 
2.251109e+2, 5.463978e+1, -2352355.8, -2424222.3, -1788.6757, -0.0010064874, -0.004142628, -2352311.3, 52218.695 
2.2511242e+2, 6.463489e+1, -2263609.8, -2345629.0, -2926.9219, 0.0012136118, -0.0052111074, -2263505.5, 43072.375 
2.251138e+2, 7.4629384e+1, -2164614.0, -2247326.0, -2862.446, 0.0012390676, -0.0027013568, -2164515.3, 44116.61 
2.2511506e+2, 8.4623176e+1, -2076014.1, -2168733.5, -3563.7905, 0.0005797644, -0.0012664532, -2075877.4, 34815.22 
2.2511624e+2, 9.461629e+1, -1978873.8, -2071311.4, -3638.7822, -0.00087239535, -0.0032531242, -1978730.8, 34029.38 
2.2511731e+2, 1.04608744e+2, -1890087.6, -1992268.3, -4639.227, -0.00082191505, -0.0034793303, -1889877.5, 24956.65 
2.2511828e+2, 1.14600554e+2, -1790887.8, -1893784.9, -4845.3257, 0.0009775349, -0.0037281632, -1790660.1, 26254.102 
2.2511919e+2, 1.2459169e+2, -1702474.8, -1815534.0, -5172.967, 0.0010486179, -0.0028954512, -1702238.5, 16762.607 
2.2512005e+2, 1.3458215e+2, -1605658.5, -1718217.8, -5081.948, -0.0009167871, -0.0029489484, -1605429.5, 15665.099 
2.2512084e+2, 1.4457196e+2, -1516840.4, -1638863.5, -5687.245, -0.0012468473, -0.00268942, -1516575.9, 6618.583 
2.2512159e+2, 1.5456115e+2, -1417650.1, -1540324.3, -5811.368, 0.00037015887, -0.0042981193, -1417375.5, 7925.095 
2.2512233e+2, 1.6454963e+2, -1329244.0, -1462066.6, -5756.152, 0.0010027876, -0.003959745, -1328995.0, -1581.7699 
2.2512306e+2, 1.7453746e+2, -1232392.4, -1364713.9, -5706.348, 0.00046354602, -0.0036073553, -1232146.8, -2614.22 
2.2512378e+2, 1.8452466e+2, -1143589.5, -1285134.9, -5964.2144, -0.00038021884, -0.0024455131, -1143338.6, -11680.569 
2.2512445e+2, 1.9451123e+2, -1044811.75, -1186778.1, -6094.8047, -0.0015924127, -0.0024121795, -1044550.56, -10760.965 
2.2512518e+2, 2.0449708e+2, -956538.2, -1109109.3, -5712.737, -0.00097567757, -0.0025803405, -956324.6, -20396.416 
2.25126e+2, 2.1448222e+2, -858925.1, -1011416.06, -5475.403, 0.0018515338, -0.0052087707, -858728.8, -20654.895 
2.251268e+2, 2.2446677e+2, -769773.6, -931314.8, -5187.9004, 0.0017019123, -0.0044391504, -769607.2, -29381.723 
2.251276e+2, 2.3445073e+2, -671594.06, -833113.2, -5324.253, -0.0021016246, -0.0019901614, -671418.75, -29036.139 
2.2512852e+2, 2.4443394e+2, -583582.56, -755890.8, -4658.4565, -0.002487171, -0.0010886459, -583456.7, -38909.645 
2.2512956e+2, 2.544164e+2, -485235.5, -657620.3, -4462.9907, 0.0013761197, -0.004299411, -485120.03, -38401.195 
2.2513065e+2, 2.6439825e+2, -396197.13, -578462.06, -3920.3125, 0.0018414049, -0.0042492864, -396112.84, -47216.066 
2.2513174e+2, 2.7437952e+2, -297760.13, -479939.72, -3911.1729, -0.0019771631, -0.002480845, -297676.22, -46595.613 
2.2513302e+2, 2.8435996e+2, -210363.9, -404346.22, -2690.2664, -0.0025233275, -0.0014141694, -210326.6, -57054.42 
2.251345e+2, 2.943396e+2, -111593.68, -305747.88, -2592.3555, 0.001107489, -0.0039815824, -111559.08, -56087.582 
2.2513601e+2, 3.0432206e+2, -22844.266, -175658.86, -1977.6582, 0.0017607034, -0.0035074693, -22818.678, -22818.678 
2.2513756e+2, 3.1430733e+2, -21948.426, -174846.98, -1672.704, -0.0014215858, -0.0014105706, -21930.127, -21930.127 
2.2513938e+2, 3.242972e+2, 43262.223, -40553.31, 170.82858, -0.00065018784, -0.0027962849, 43262.57, 43262.57 
2.3511276e+2, 3.4645593e+1, -2540367.8, -2601490.8, 332.10016, 0.001016219, -0.0007482988, -2540366.0, 60106.996 
2.3511463e+2, 4.464197e+1, -2450639.3, -2523150.3, -1393.6768, -0.001143827, -0.0040321504, -2450612.5, 51895.83 
2.3511629e+2, 5.463769e+1, -2353108.8, -2425812.3, -1847.6995, 0.00046996257, -0.0032031017, -2353061.8, 51488.566 
2.3511781e+2, 6.463277e+1, -2263493.5, -2345385.5, -2649.8445, 0.00093644764, -0.002541564, -2263408.0, 43190.75 
2.3511927e+2, 7.4627244e+1, -2164487.5, -2247024.0, -2575.7585, 0.000062185536, -0.004075863, -2164407.3, 44245.613 
2.3512055e+2, 8.4621024e+1, -2076146.0, -2168992.0, -3750.4883, -0.0003246336, -0.003723893, -2075994.8, 34718.887 
2.3512167e+2, 9.4614136e+1, -1979001.4, -2071572.1, -3841.6265, -0.00014656782, -0.0033583841, -1978842.3, 33938.97 
2.3512276e+2, 1.0460657e+2, -1890433.5, -1992982.1, -4345.3105, -0.00006426902, -0.0024806384, -1890249.6, 24605.717 
2.351238e+2, 1.1459833e+2, -1791280.8, -1894520.0, -4525.9526, -0.00010414233, -0.003094178, -1791082.8, 25853.355 
2.351247e+2, 1.24589436e+2, -1702333.0, -1815262.1, -5446.5806, 0.00016491806, -0.002975397, -1702070.9, 16952.277 
2.3512551e+2, 1.3457991e+2, -1605468.5, -1717892.9, -5382.5864, 0.00080666796, -0.0041365246, -1605211.4, 15905.205 
2.3512633e+2, 1.4456974e+2, -1517014.0, -1639261.4, -5416.2896, 0.0005195117, -0.0034895875, -1516774.5, 6441.9307 
2.351271e+2, 1.5455888e+2, -1417871.1, -1540770.4, -5513.0806, -0.0008517015, -0.0029389707, -1417624.3, 7698.278 
2.3512784e+2, 1.6454738e+2, -1329186.9, -1461955.5, -6038.8335, -0.0010521837, -0.002261978, -1328912.8, -1477.3628 
2.3512852e+2, 1.745352e+2, -1232308.8, -1364558.0, -6014.0103, 0.00014542456, -0.0037453228, -1232035.9, -2481.153 
2.3512922e+2, 1.8452238e+2, -1143786.3, -1285565.1, -5798.0093, 0.0007659396, -0.00400979, -1143549.5, -11869.11 
2.3512995e+2, 1.9450891e+2, -1045044.2, -1187244.1, -5903.2866, 0.00068882026, -0.0049177436, -1044799.56, -10987.178 
2.351307e+2, 2.044948e+2, -956163.25, -1108279.6, -5801.601, 0.000088540015, -0.003484975, -955942.25, -19991.555 
2.3513144e+2, 2.1448004e+2, -858514.44, -1010526.0, -5581.6313, -0.0011469887, -0.0014180512, -858309.75, -20214.361 
2.3513223e+2, 2.2446458e+2, -770001.2, -931757.56, -5188.275, -0.0011067286, -0.00094015896, -769835.0, -29588.176 
2.3513308e+2, 2.3444845e+2, -671844.1, -833639.6, -5318.0596, 0.00050514995, -0.004917322, -671669.5, -29264.598 
2.3513402e+2, 2.4443166e+2, -583285.4, -755260.8, -4611.2314, 0.0006571075, -0.0050178776, -583161.8, -38592.41 
2.3513502e+2, 2.5441426e+2, -484914.72, -656937.1, -4415.0415, -0.0010072718, -0.0024799495, -484801.47, -38061.324 
2.351361e+2, 2.6439613e+2, -396162.56, -578393.25, -3886.8523, -0.0011076541, -0.0012155586, -396079.72, -47161.996 
2.3513727e+2, 2.7437732e+2, -297757.25, -479881.66, -3877.6743, 0.0007716924, -0.0039717113, -297674.72, -46572.816 
2.3513857e+2, 2.843578e+2, -210242.39, -404161.7, -2569.9211, 0.0010627131, -0.0038002136, -210208.33, -56914.844 
2.3514004e+2, 2.9433748e+2, -111504.77, -305552.63, -2463.4407, -0.00068972795, -0.0026185482, -111473.51, -55981.195 
2.3514158e+2, 3.0431998e+2, -22314.414, -174501.28, -1815.7356, -0.0021891512, -0.0019946354, -22292.754, -22292.754 
2.3514317e+2, 3.143053e+2, -21367.992, -173611.67, -1514.0388, -0.003295296, -0.004419226, -21352.936, -21352.936 
2.3514508e+2, 3.2429513e+2, 41662.484, -43804.81, 133.54477, 0.0033066024, -0.001184652, 41662.695, 41662.695 
2.4511808e+2, 3.4643513e+1, -2537793.0, -2601104.3, 380.13223, -0.0015479552, 0.0004011999, -2537790.8, 62702.563 
2.4512008e+2, 4.4639814e+1, -2450414.0, -2523035.5, -2212.1943, 0.0024017307, -0.006421875, -2450346.5, 52182.945 
2.4512172e+2, 5.463556e+1, -2350940.8, -2424716.8, -1870.3898, 0.0009859041, -0.00282423, -2350893.3, 53677.95 
2.4512328e+2, 6.463063e+1, -2261383.0, -2344749.8, -2584.834, -0.00005315716, -0.0012523115, -2261303.0, 45316.64 
2.4512473e+2, 7.462505e+1, -2164216.3, -2247315.0, -2919.0688, -0.00066538143, -0.004036614, -2164113.8, 44560.39 
2.4512604e+2, 8.4618807e+1, -2075908.5, -2169117.3, -4316.6377, -0.0004523901, -0.0042178747, -2075709.0, 35026.41 
2.451272e+2, 9.46119e+1, -1976937.6, -2070812.8, -4414.0713, 0.0007104207, -0.0035545307, -1976730.5, 36072.625 
2.4512827e+2, 1.0460432e+2, -1888403.8, -1992199.1, -4824.776, 0.0006498503, -0.002504434, -1888180.0, 26697.475 
2.451293e+2, 1.1459606e+2, -1791437.0, -1894823.3, -4767.255, -0.00084376114, -0.0030864337, -1791217.6, 25740.74 
2.4513024e+2, 1.24587156e+2, -1702759.9, -1815577.0, -5727.5903, -0.0007424693, -0.0029390194, -1702469.8, 16575.791 
2.4513105e+2, 1.3457762e+2, -1603941.5, -1717263.6, -5911.1733, 0.0012351422, -0.0040753805, -1603634.0, 17505.045 
2.4513184e+2, 1.4456742e+2, -1515510.6, -1638715.0, -6002.648, 0.0013032868, -0.0034151275, -1515218.9, 8020.1006 
2.4513261e+2, 1.5455656e+2, -1418634.9, -1541320.9, -6010.124, -0.0008788212, -0.0028637177, -1418341.1, 7004.2896 
2.4513333e+2, 1.6454506e+2, -1330165.6, -1462281.1, -6549.047, -0.0014555876, -0.0021437327, -1329841.8, -2383.5515 
2.4513398e+2, 1.7453288e+2, -1231547.8, -1364020.8, -6505.9727, -0.00011266653, -0.0035321973, -1231229.0, -1651.5945 
2.451347e+2, 1.8452007e+2, -1142901.9, -1285323.0, -6156.23, 0.0007717568, -0.0037863771, -1142636.3, -10933.216 
2.4513544e+2, 1.9450657e+2, -1045535.1, -1187681.5, -6164.3066, 0.0010983078, -0.004786109, -1045268.3, -11433.069 
2.4513616e+2, 2.0449246e+2, -956988.0, -1108314.1, -6192.8213, 0.0003373007, -0.0034199965, -956735.0, -20761.426 
2.4513687e+2, 2.1447773e+2, -859273.56, -1010479.1, -6159.8105, -0.0017415546, -0.0013822604, -859023.06, -20905.176 
2.4513765e+2, 2.244623e+2, -770869.3, -932340.3, -5653.866, -0.0016209885, -0.0009348416, -770671.6, -30402.447 
2.4513854e+2, 2.3444615e+2, -672302.0, -834040.6, -5643.7754, 0.0011933768, -0.0049545197, -672105.25, -29677.854 
2.4513946e+2, 2.4442936e+2, -583525.44, -755036.75, -5037.5356, 0.001455349, -0.005073473, -583377.6, -38785.742 
2.4514045e+2, 2.54412e+2, -486118.78, -657107.1, -4927.459, -0.0014620486, -0.0025116615, -485976.9, -39214.68 
2.4514154e+2, 2.643939e+2, -397730.2, -579056.4, -4218.6196, -0.0018734656, -0.0013427403, -397632.1, -48692.547 
2.4514274e+2, 2.7437508e+2, -298459.47, -480198.4, -4179.9375, 0.0008854558, -0.0043434766, -298363.38, -47239.66 
2.4514405e+2, 2.8435555e+2, -210950.16, -404088.13, -2999.9512, 0.0015742837, -0.004022006, -210903.56, -57588.49 
2.4514551e+2, 2.9433534e+2, -113731.05, -306196.8, -2739.0708, -0.0004095724, -0.0021930563, -113692.08, -58178.633 
2.4514706e+2, 3.0431786e+2, -24880.45, -175373.78, -1764.8258, -0.0024301128, -0.0019203139, -24859.756, -24859.756 
2.4514875e+2, 3.143032e+2, -22613.139, -173803.08, -1831.2954, -0.0044254246, -0.005983906, -22590.959, -22590.959 
2.4515072e+2, 3.2429302e+2, 40752.86, -44315.926, -104.639694, 0.004042754, -0.0011962978, 40752.99, 40752.99 
2.5512356e+2, 3.46414e+1, -2540867.3, -2607417.0, -513.4459, -0.0029035895, -0.0024754845, -2540863.3, 59650.746 
2.551255e+2, 4.4637555e+1, -2449746.0, -2521769.5, -1812.7472, 0.005537755, -0.00558996, -2449700.3, 52851.39 
2.5512722e+2, 5.4633397e+1, -2350166.0, -2423179.0, -1433.8746, 0.0005659816, -0.0029788706, -2350137.8, 54454.664 
2.551288e+2, 6.462849e+1, -2261983.0, -2345942.5, -2756.5554, -0.0017451782, -0.001282486, -2261892.8, 44747.918 
2.5513023e+2, 7.4622834e+1, -2164842.8, -2248605.8, -3105.887, -0.0009782886, -0.0026542163, -2164727.8, 43968.254 
2.5513154e+2, 8.4616524e+1, -2076052.4, -2169444.0, -4061.6887, 0.00014236882, -0.0028447877, -2075876.0, 34881.74 
2.551328e+2, 9.460959e+1, -1977094.4, -2071110.4, -4140.808, 0.0016671254, -0.003842826, -1976912.4, 35913.402 
2.5513387e+2, 1.0460199e+2, -1888328.0, -1992013.9, -5057.791, 0.0013008415, -0.0035060423, -1888081.9, 26818.352 
2.5513482e+2, 1.1459375e+2, -1791336.1, -1894604.1, -5021.7793, -0.0012725514, -0.0036808876, -1791092.5, 25888.438 
2.5513572e+2, 1.2458484e+2, -1703024.9, -1816183.3, -5542.8896, -0.0016990086, -0.0027972455, -1702754.0, 16314.246 
2.551366e+2, 1.3457528e+2, -1604254.1, -1717910.8, -5703.7744, 0.00041643, -0.0028288895, -1603968.6, 17193.469 
2.5513738e+2, 1.4456505e+2, -1515562.9, -1638842.5, -6269.121, 0.0011372637, -0.002506871, -1515244.9, 8017.394 
2.551381e+2, 1.5455416e+2, -1418669.1, -1541413.6, -6295.2505, 0.00020493082, -0.0040080813, -1418347.1, 7021.7993 
2.551388e+2, 1.6454265e+2, -1330031.4, -1462062.8, -6423.758, -0.00031170485, -0.0035253845, -1329719.6, -2237.8235 
2.551395e+2, 1.7453052e+2, -1231434.6, -1363786.6, -6363.295, -0.00032634675, -0.0029870018, -1231129.4, -1528.7941 
2.551402e+2, 1.8451771e+2, -1142962.0, -1285398.1, -6307.924, -0.0003200024, -0.0018667557, -1142683.3, -10957.122 
2.5514087e+2, 1.9450423e+2, -1045603.1, -1187774.4, -6327.6924, -0.00028610902, -0.002154072, -1045322.06, -11463.793 
2.551416e+2, 2.044901e+2, -956923.7, -1108144.1, -6284.101, -0.00020700751, -0.0024298658, -956663.0, -20666.32 
2.551423e+2, 2.1447535e+2, -859192.3, -1010297.0, -6250.6475, -0.000068741414, -0.0048999735, -858934.2, -20792.906 
2.5514308e+2, 2.2445992e+2, -770878.4, -932316.5, -5544.5845, 0.000021638789, -0.004239944, -770688.2, -30395.727 
2.5514397e+2, 2.3444383e+2, -672316.9, -834064.9, -5521.1685, 0.000054991924, -0.002254366, -672128.6, -29678.422 
2.551449e+2, 2.4442707e+2, -583385.0, -754669.9, -5218.6606, 0.000016992666, -0.0014529376, -583226.1, -38611.684 
2.5514585e+2, 2.5440964e+2, -485940.88, -656722.7, -5129.368, -0.000112288195, -0.0042948746, -485786.94, -39001.9 
2.5514692e+2, 2.6439157e+2, -397673.0, -578917.1, -3988.6978, -0.0005925885, -0.0044598537, -397585.28, -48622.977 
2.5514817e+2, 2.7437285e+2, -298447.1, -480079.78, -3919.5938, -0.0015034229, -0.0036600542, -298362.56, -47216.527 
2.5514948e+2, 2.8435335e+2, -210590.03, -403239.7, -3240.4082, -0.00084725436, -0.0022001874, -210535.55, -57198.582 
2.551509e+2, 2.9433313e+2, -113324.945, -305283.94, -3017.6692, 0.001806892, -0.0026527443, -113277.52, -57742.62 
2.551525e+2, 3.043157e+2, -25007.678, -175587.4, -1298.0304, 0.0008080074, -0.0032097516, -24996.488, -24996.488 
2.5515428e+2, 3.1430098e+2, -22818.033, -174120.1, -1307.8738, -0.0048611877, -0.006189858, -22806.729, -22806.729 
2.551563e+2, 3.2429093e+2, 42006.656, -41579.973, -212.15561, 0.0017160069, -0.0027322392, 42007.195, 42007.195 
2.6512912e+2, 3.463926e+1, -2539314.0, -2607388.8, -1106.673, -0.0009175011, -0.0039468636, -2539296.0, 61238.914 
2.6513097e+2, 4.46354e+1, -2446636.8, -2520679.5, -1029.6904, 0.0032499256, -0.0035670002, -2446622.5, 55950.35 
2.6513278e+2, 5.463118e+1, -2349148.8, -2423097.3, -1666.9246, -0.00012241771, -0.0031925347, -2349111.3, 55502.973 
2.651344e+2, 6.462623e+1, -2261270.5, -2345928.8, -3478.693, -0.0013029518, -0.0022438613, -2261127.8, 45535.05 
2.6513582e+2, 7.4620557e+1, -2162556.3, -2247805.8, -3395.3542, 0.000045210218, -0.002637176, -2162421.3, 46297.04 
2.6513714e+2, 8.461423e+1, -2073797.0, -2168670.0, -4149.931, 0.0007268958, -0.002337396, -2073615.8, 37164.547 
2.6513836e+2, 9.460725e+1, -1976709.3, -2071264.1, -4295.015, 0.0006276142, -0.0034130889, -1976514.5, 36334.16 
2.6513946e+2, 1.0459963e+2, -1888216.8, -1992133.5, -5425.9404, 0.00032177498, -0.0032338735, -1887934.1, 26989.188 
2.651404e+2, 1.14591375e+2, -1789810.8, -1894035.1, -5604.949, -0.00022024779, -0.003654421, -1789510.3, 27494.002 
2.651413e+2, 1.24582455e+2, -1701507.4, -1815639.9, -6102.593, -0.00043896405, -0.0029214309, -1701182.0, 17909.729 
2.6514214e+2, 1.3457286e+2, -1604345.9, -1718155.4, -6084.5127, -0.00027771716, -0.0029934668, -1604021.5, 17164.207 
2.6514295e+2, 1.4456262e+2, -1515853.3, -1638945.1, -6644.7227, -0.000016790576, -0.0025751197, -1515495.6, 7790.472 
2.651436e+2, 1.5455174e+2, -1417783.8, -1540961.1, -6613.1724, 0.00036480185, -0.003812461, -1417429.6, 7962.936 
2.6514432e+2, 1.6454022e+2, -1329173.3, -1461809.8, -6692.082, 0.00038771232, -0.0034115918, -1328836.5, -1330.9832 
2.65145e+2, 1.7452808e+2, -1231717.5, -1364106.3, -6862.521, -0.000014833713, -0.003365903, -1231362.8, -1738.1648 
2.6514566e+2, 1.8451527e+2, -1143565.8, -1285491.5, -6985.3633, -0.0004550734, -0.002193504, -1143222.8, -11472.715 
2.6514632e+2, 1.9450182e+2, -1046108.06, -1187784.0, -6819.278, -0.000934972, -0.0017712201, -1045780.6, -11898.683 
2.65147e+2, 2.0448768e+2, -957337.4, -1108531.5, -6628.281, -0.0005333413, -0.0021064994, -957047.4, -21027.05 
2.6514772e+2, 2.144729e+2, -858988.94, -1010396.5, -6808.3384, 0.0009432884, -0.0055793673, -858683.4, -20518.193 
2.651485e+2, 2.2445749e+2, -770651.6, -931871.8, -6199.858, 0.0008962207, -0.0049897386, -770413.56, -30097.217 
2.6514933e+2, 2.3444143e+2, -673745.1, -834331.25, -5919.035, -0.0010346426, -0.00192388, -673527.25, -31053.658 
2.6515025e+2, 2.4442472e+2, -585302.7, -755487.0, -5462.2705, -0.0011845609, -0.00080806174, -585127.5, -40489.926 
2.651512e+2, 2.5440732e+2, -486569.63, -656942.6, -5499.5313, 0.00088599947, -0.0042923265, -486392.28, -39584.133 
2.6515228e+2, 2.6438922e+2, -398166.5, -578811.9, -4300.85, 0.00075934513, -0.0046447697, -398064.16, -49078.95 
2.6515353e+2, 2.7437052e+2, -300604.7, -480767.06, -4058.1716, -0.0021398836, -0.003451635, -300513.3, -49344.723 
2.6515484e+2, 2.8435108e+2, -212851.17, -404048.6, -3431.2192, -0.0020100544, -0.0020758868, -212789.63, -59430.406 
2.6515627e+2, 2.943309e+2, -113673.66, -305148.8, -3456.2305, 0.0019900629, -0.0032272441, -113611.29, -58054.35 
2.651579e+2, 3.0431345e+2, -25440.553, -175760.38, -1594.1439, 0.0016799441, -0.0035938967, -25423.648, -25423.648 
2.6515973e+2, 3.142988e+2, -25578.11, -175416.48, -1430.2867, -0.004165344, -0.0052181124, -25564.457, -25564.457 
2.6516172e+2, 3.242888e+2, 38867.867, -41017.484, -714.51605, 0.00072859344, -0.003492675, 38874.258, 38874.258 
2.7513477e+2, 3.4637097e+1, -2537296.5, -2603269.5, -867.7989, 0.0042282254, -0.0040863343, -2537285.0, 63271.168 
2.7513653e+2, 4.4633335e+1, -2447737.5, -2523011.3, -1133.7112, -0.0042059296, -0.00041052632, -2447720.5, 54872.57 
2.7513838e+2, 5.462891e+1, -2350367.0, -2425666.5, -1769.4727, -0.0010920874, -0.0034611041, -2350325.5, 54310.96 
2.7514005e+2, 6.462386e+1, -2261100.3, -2345599.5, -3266.0667, 0.0011417134, -0.004089892, -2260974.3, 45711.617 
2.751415e+2, 7.4618226e+1, -2162352.0, -2247379.3, -3173.816, 0.0023241998, -0.003917733, -2162233.8, 46507.418 
2.7514282e+2, 8.46119e+1, -2074056.0, -2169195.0, -4353.7534, 0.0012879611, -0.002653974, -2073857.3, 36945.863 
2.7514395e+2, 9.4604903e+1, -1976968.4, -2071819.5, -4512.2163, -0.002323729, -0.00230218, -1976754.1, 36117.523 
2.7514505e+2, 1.0459724e+2, -1888499.6, -1992763.1, -5327.601, -0.0022244211, -0.0017519569, -1888228.1, 26718.584 
2.7514607e+2, 1.14588946e+2, -1790111.0, -1894682.8, -5491.136, 0.0022200719, -0.0030414255, -1789823.5, 27204.652 
2.7514696e+2, 1.2457998e+2, -1701486.0, -1815614.3, -6298.5146, 0.0028940912, -0.0032962407, -1701139.5, 17976.455 
2.7514774e+2, 1.3457039e+2, -1604298.3, -1718099.3, -6293.896, -0.00086895615, -0.0044945553, -1603951.3, 17258.684 
2.7514845e+2, 1.4456016e+2, -1515753.1, -1638792.8, -6643.773, -0.0021197966, -0.003565909, -1515395.5, 7914.7085 
2.7514917e+2, 1.5454932e+2, -1417701.9, -1540801.4, -6604.416, -0.00037235252, -0.0023544475, -1417348.5, 8067.8574 
2.7514985e+2, 1.6453779e+2, -1329478.9, -1462484.3, -6841.1724, 0.0006404746, -0.0018880104, -1329128.0, -1598.5586 
2.7515048e+2, 1.7452556e+2, -1232052.8, -1364808.0, -7012.0703, 0.0007741937, -0.004615989, -1231683.4, -2034.2448 
2.7515113e+2, 1.8451273e+2, -1143275.5, -1284888.5, -7121.506, 0.00029476394, -0.004643884, -1142918.3, -11143.466 
2.7515173e+2, 1.9449933e+2, -1045787.8, -1187117.3, -6959.7354, -0.00091442734, -0.0035154095, -1045445.9, -11539.691 
2.7515242e+2, 2.0448522e+2, -957638.4, -1109167.0, -6563.455, -0.0006760385, -0.0024132894, -957354.6, -21310.178 
2.7515313e+2, 2.1447042e+2, -859339.0, -1011118.6, -6724.527, 0.001319117, -0.0035763755, -859041.7, -20852.088 
2.751539e+2, 2.24455e+2, -770252.1, -930921.6, -6476.55, 0.0010219346, -0.003322748, -769991.44, -29650.74 
2.7515462e+2, 2.34439e+2, -673273.06, -833297.2, -6224.1514, -0.002094091, -0.0038230463, -673031.3, -30533.703 
2.751555e+2, 2.4442229e+2, -585344.9, -755530.94, -5350.3174, -0.0021745763, -0.002967117, -585176.8, -40515.566 
2.7515656e+2, 2.544049e+2, -486656.63, -657063.4, -5359.381, 0.0015360181, -0.0026080087, -486488.22, -39656.684 
2.7515763e+2, 2.6438686e+2, -397838.8, -578067.4, -4464.097, 0.002155608, -0.0020623927, -397728.3, -48719.96 
2.7515882e+2, 2.743682e+2, -300241.97, -479976.78, -4243.904, -0.0011351261, -0.0036887755, -300141.8, -48950.406 
2.7516013e+2, 2.8434876e+2, -212887.33, -404057.1, -3226.8076, -0.0020040097, -0.0035513055, -212832.88, -59451.027 
2.751616e+2, 2.9432857e+2, -113750.61, -305222.34, -3221.1812, 0.00023822306, -0.003909447, -113696.43, -58116.89 
2.7516323e+2, 3.0431116e+2, -25369.125, -175454.66, -1649.8776, 0.00029724202, -0.0031258005, -25350.99, -25350.99 
2.751651e+2, 3.1429654e+2, -25495.59, -175084.84, -1503.6353, -0.0024215435, -0.0031465117, -25480.479, -25480.479 
2.7516702e+2, 3.2428658e+2, 40046.793, -38473.605, -1051.6758, 0.0009568479, -0.0035384733, 40060.875, 40060.875 
2.8514042e+2, 3.46349e+1, -2536176.3, -2602235.0, -585.3726, 0.0046538343, -0.0023661205, -2536171.0, 64406.863 
2.8514224e+2, 4.463109e+1, -2445581.8, -2522697.8, -2144.982, -0.0053400192, -0.0022963397, -2445522.0, 57092.97 
2.8514406e+2, 5.4626614e+1, -2347994.0, -2425304.8, -2074.2676, -0.00040966578, -0.003427359, -2347938.3, 56720.668 
2.8514576e+2, 6.462152e+1, -2258904.5, -2344774.5, -3246.891, 0.0020488384, -0.0033220202, -2258782.0, 47926.848 
2.8514722e+2, 7.461586e+1, -2161579.3, -2247229.3, -3509.9148, 0.001609006, -0.0037994958, -2161435.5, 47328.684 
2.8514853e+2, 8.4609514e+1, -2073481.6, -2169155.0, -4908.428, 0.00041278303, -0.0029894395, -2073230.5, 37596.043 
2.8514966e+2, 9.4602484e+1, -1975157.6, -2071163.9, -4951.482, -0.0016538538, -0.0028572788, -1974902.9, 37992.406 
2.8515074e+2, 1.04594804e+2, -1886681.9, -1992186.9, -5671.9185, -0.0013237966, -0.0021805374, -1886377.8, 28592.89 
2.8515172e+2, 1.1458647e+2, -1789601.9, -1894759.3, -5741.0034, 0.0018076933, -0.0029449915, -1789289.4, 27762.94 
2.8515258e+2, 1.245775e+2, -1701206.5, -1815542.1, -6585.9497, 0.0021552716, -0.0029434022, -1700828.4, 18311.83 
2.8515333e+2, 1.345679e+2, -1603361.0, -1717700.6, -6652.318, -0.00078221934, -0.0041943016, -1602975.3, 18259.13 
2.85154e+2, 1.4455767e+2, -1514906.1, -1638565.4, -7103.15, -0.0016266293, -0.003490477, -1514499.5, 8835.167 
2.8515473e+2, 1.545468e+2, -1417623.9, -1540962.0, -7273.197, 0.00003187047, -0.0027066844, -1417196.4, 8244.729 
2.8515536e+2, 1.6453525e+2, -1329618.1, -1462532.0, -7504.9326, 0.0006693559, -0.0020996286, -1329195.8, -1641.4938 
2.8515598e+2, 1.7452304e+2, -1232070.0, -1364790.9, -7319.57, 0.00008291164, -0.0040075285, -1231667.5, -1993.6495 
2.8515655e+2, 1.8451022e+2, -1143191.8, -1284908.5, -7375.404, -0.00014468518, -0.004226519, -1142809.0, -11009.381 
2.8515717e+2, 1.944968e+2, -1045520.8, -1187061.8, -7574.482, 0.00007053247, -0.0045121405, -1045116.6, -11185.54 
2.851578e+2, 2.0448269e+2, -957700.25, -1108979.8, -7138.439, 0.00017512425, -0.0032453001, -957364.1, -21294.875 
2.8515851e+2, 2.1446793e+2, -860690.6, -1011533.94, -6812.582, 0.00014065622, -0.002322799, -860383.56, -22169.537 
2.851592e+2, 2.2445253e+2, -771865.9, -931611.3, -6553.745, -0.00018300605, -0.0018790305, -771597.44, -31232.492 
2.8515995e+2, 2.3443651e+2, -673882.94, -833470.7, -6725.5093, -0.00085823634, -0.0045230216, -673600.0, -31078.076 
2.851608e+2, 2.4441981e+2, -585675.0, -755491.56, -5812.0034, -0.00073763484, -0.004227997, -585476.3, -40790.816 
2.851618e+2, 2.544025e+2, -487741.88, -657410.2, -5619.508, 0.00037465311, -0.0024639682, -487555.94, -40700.49 
2.851629e+2, 2.6438445e+2, -399225.25, -578413.44, -4877.528, 0.00067546044, -0.0014248447, -399092.56, -50060.594 
2.8516406e+2, 2.743658e+2, -301473.9, -480224.4, -4849.88, -0.000051802635, -0.0037071363, -301342.4, -50127.613 
2.8516537e+2, 2.843464e+2, -214330.56, -404366.88, -3541.3223, -0.00051055674, -0.0037973193, -214264.6, -60859.637 
2.8516683e+2, 2.9432628e+2, -115887.93, -305882.13, -3259.0964, -0.0006271355, -0.0038319025, -115832.04, -60229.742 
2.8516853e+2, 3.043089e+2, -27656.285, -176032.88, -1631.7769, -0.00070298277, -0.0029309439, -27638.342, -27638.342 
2.8517035e+2, 3.142943e+2, -27576.434, -175583.94, -1289.1083, -0.0006660923, -0.0030916731, -27565.207, -27565.207 
2.8517225e+2, 3.2428443e+2, 38726.023, -38983.047, -1264.3944, 0.00025144216, -0.0035713315, 38746.594, 38746.594 
2.9514602e+2, 3.4632668e+1, -2537443.0, -2604903.0, 487.43683, 0.0005685895, 0.001125909, -2537439.5, 63160.24 
2.951481e+2, 4.4628674e+1, -2445465.0, -2522460.3, -2144.7297, -0.00050060067, -0.008957071, -2445405.5, 57233.344 
2.951499e+2, 5.462429e+1, -2347817.0, -2424948.3, -2112.7576, 0.001811524, -0.0031123718, -2347759.3, 56922.473 
2.9515153e+2, 6.46192e+1, -2259356.3, -2345725.5, -3391.4846, 0.0014794943, -0.000085845684, -2259223.3, 47508.33 
2.9515293e+2, 7.461346e+1, -2162046.3, -2248224.8, -3655.052, -0.0019513362, -0.0023619533, -2161891.5, 46896.305 
2.9515424e+2, 8.4607047e+1, -2073525.9, -2169275.0, -4809.0654, -0.0018386114, -0.0033412413, -2073285.0, 37565.707 
2.9515547e+2, 9.4600004e+1, -1975206.8, -2071258.0, -4842.131, 0.0024071576, -0.0049829003, -1974963.3, 37956.367 
2.951565e+2, 1.0459231e+2, -1886801.3, -1992443.9, -5887.743, 0.002808652, -0.004405772, -1886474.1, 28520.977 
2.9515737e+2, 1.1458398e+2, -1789717.8, -1895017.3, -5967.533, -0.0012992785, -0.003333052, -1789380.6, 27696.133 
2.951582e+2, 1.24575e+2, -1701299.8, -1815740.9, -6633.4346, -0.0024426025, -0.0019014205, -1700916.5, 18248.264 
2.9515895e+2, 1.345654e+2, -1603466.4, -1717899.4, -6691.3164, -0.0000757662, -0.0021974274, -1603076.5, 18182.422 
2.9515967e+2, 1.4455512e+2, -1515221.0, -1639210.1, -7282.508, 0.0012979882, -0.0024101804, -1514794.8, 8564.84 
2.9516026e+2, 1.5454417e+2, -1417951.6, -1541625.5, -7453.665, 0.0014961931, -0.004762945, -1417504.0, 7962.76 
2.951609e+2, 1.6453263e+2, -1329297.8, -1461859.4, -7623.687, 0.00046882778, -0.003948833, -1328860.8, -1280.8425 
2.9516143e+2, 1.7452052e+2, -1231732.5, -1364054.4, -7439.317, -0.0020141331, -0.001652995, -1231315.6, -1616.9529 
2.9516202e+2, 1.8450771e+2, -1143542.0, -1285598.4, -7467.506, -0.0017178365, -0.0011109196, -1143150.5, -11326.295 
2.951626e+2, 1.9449419e+2, -1045910.6, -1187828.5, -7659.225, 0.0019382377, -0.0048032016, -1045498.5, -11541.868 
2.951632e+2, 2.0448008e+2, -957165.2, -1107863.3, -7384.732, 0.0019420101, -0.0045733354, -956804.2, -20709.373 
2.9516378e+2, 2.1446542e+2, -860103.56, -1010322.94, -7074.7905, -0.0025139335, -0.0017732967, -859771.1, -21532.586 
2.9516447e+2, 2.2445005e+2, -772150.06, -932133.2, -6603.3447, -0.002664598, -0.0006498853, -771877.94, -31488.82 
2.9516524e+2, 2.34434e+2, -674206.4, -834106.56, -6758.3403, 0.002510747, -0.0040971683, -673921.2, -31374.602 
2.951661e+2, 2.4441728e+2, -585430.06, -754915.6, -5870.581, 0.0029630074, -0.0046399897, -585226.94, -40516.69 
2.9516703e+2, 2.5439999e+2, -487501.1, -656759.4, -5679.7, -0.0025041376, -0.003764962, -487310.72, -40430.848 
2.9516807e+2, 2.6438197e+2, -399212.6, -578302.5, -5010.525, -0.0035313133, -0.002613199, -399072.53, -50016.42 
2.9516926e+2, 2.7436337e+2, -301453.2, -480144.4, -4985.214, 0.0010894518, -0.0035230084, -301314.22, -50075.465 
2.9517058e+2, 2.84344e+2, -213932.0, -403449.5, -3501.8381, 0.0023624531, -0.0028893375, -213867.31, -60438.78 
2.9517204e+2, 2.9432392e+2, -115480.26, -304927.25, -3211.7122, -0.0006813599, -0.0030423226, -115425.83, -59800.61 
2.9517367e+2, 3.043066e+2, -27188.686, -174879.64, -1664.2301, -0.0013671546, -0.002987279, -27169.936, -27169.936 
2.9517552e+2, 3.142921e+2, -27104.152, -174418.52, -1327.9375, 0.0010958007, -0.004930515, -27092.184, -27092.184 
2.951774e+2, 3.242822e+2, 37764.746, -40897.125, -1083.5812, -0.0013606403, -0.0036026062, 37779.668, 37779.668 
3.0515185e+2, 3.463037e+1, -2533516.3, -2605008.3, 292.13684, -0.0016482435, 0.000019428122, -2533515.3, 67107.016 
3.05154e+2, 4.4626313e+1, -2444444.5, -2521766.8, -2259.2395, 0.0030405996, -0.007853906, -2444378.5, 58283.313 
3.0515575e+2, 5.462194e+1, -2346251.8, -2423904.8, -2226.7898, 0.0016738238, -0.0030339574, -2346188.0, 58516.805 
3.0515736e+2, 6.4616835e+1, -2257805.5, -2345565.8, -3563.631, 0.00005866632, -0.000469603, -2257661.0, 49093.72 
3.0515876e+2, 7.461104e+1, -2159902.0, -2247817.8, -3753.0867, -0.0018648795, -0.0025461172, -2159742.0, 49069.504 
3.0516008e+2, 8.460459e+1, -2071410.3, -2168536.3, -4922.7773, -0.0011310673, -0.0032530965, -2071161.4, 39713.36 
3.0516127e+2, 9.459752e+1, -1974337.6, -2071113.0, -5090.6978, 0.0027028522, -0.0045400406, -1974070.6, 38873.39 
3.0516225e+2, 1.04589805e+2, -1886256.4, -1992296.9, -6275.1074, 0.0026609327, -0.0040207515, -1885886.3, 29133.34 
3.051631e+2, 1.1458145e+2, -1788581.4, -1894583.1, -6318.9233, -0.0019295594, -0.0034857567, -1788206.0, 28895.438 
3.051639e+2, 1.24572456e+2, -1700173.4, -1815452.0, -6961.918, -0.002770531, -0.0022539098, -1699754.4, 19435.213 
3.0516464e+2, 1.3456284e+2, -1602864.6, -1717890.8, -7094.8813, 0.0008199283, -0.0023429727, -1602428.8, 18855.291 
3.051653e+2, 1.4455253e+2, -1514788.9, -1639117.4, -7675.0244, 0.0020667596, -0.002338692, -1514316.9, 9068.039 
3.0516586e+2, 1.545416e+2, -1417447.8, -1541503.1, -7599.6665, 0.0005249588, -0.004461065, -1416984.0, 8508.182 
3.051664e+2, 1.6453004e+2, -1328838.6, -1461591.8, -7777.549, -0.00057305576, -0.0038084798, -1328384.5, -779.21484 
3.0516693e+2, 1.7451793e+2, -1231693.8, -1363977.8, -7913.248, -0.0011252308, -0.0021431027, -1231222.0, -1497.9663 
3.0516744e+2, 1.845051e+2, -1143920.3, -1285848.8, -7918.554, -0.00063125597, -0.0012805418, -1143479.8, -11630.155 
3.05168e+2, 1.9449161e+2, -1046521.4, -1188220.1, -7785.813, 0.0011251327, -0.0035034798, -1046094.9, -12112.925 
3.0516854e+2, 2.044775e+2, -957686.9, -1107924.3, -7658.3315, 0.0008671017, -0.003503677, -957297.5, -21177.38 
3.051691e+2, 2.1446285e+2, -860564.75, -1010327.94, -7808.2036, -0.0018421252, -0.0030003798, -860158.75, -21894.951 
3.0516973e+2, 2.2444749e+2, -772635.4, -932354.1, -7223.2324, -0.0016727882, -0.002129904, -772309.4, -31895.074 
3.051705e+2, 2.3443145e+2, -674602.5, -834280.94, -7036.948, 0.0020501646, -0.0033135368, -674293.0, -31721.4 
3.051713e+2, 2.4441476e+2, -586139.06, -754941.9, -6216.1143, 0.0021918279, -0.0032763593, -585910.44, -41175.434 
3.0517218e+2, 2.5439748e+2, -489595.13, -657393.75, -6109.797, -0.0021535836, -0.003918776, -489372.94, -42468.51 
3.051732e+2, 2.6437953e+2, -401588.9, -579140.3, -5157.7324, -0.002849924, -0.0033262125, -401439.22, -52358.793 
3.0517438e+2, 2.743609e+2, -302606.3, -480398.0, -4977.91, 0.0010885675, -0.0035791022, -302467.03, -51204.3 
3.0517566e+2, 2.8434157e+2, -214816.03, -403506.63, -3642.7788, 0.001916485, -0.0025715635, -214745.73, -61293.547 
3.0517712e+2, 2.9432154e+2, -117477.305, -305514.34, -3594.404, -0.001257822, -0.0027171618, -117408.625, -61760.074 
3.0517873e+2, 3.043043e+2, -29478.697, -175208.73, -2112.775, -0.0013154553, -0.0028501549, -29448.074, -29448.074 
3.0518064e+2, 3.1428987e+2, -29199.201, -174609.92, -1826.5686, 0.0027430553, -0.005229207, -29176.26, -29176.26 
3.0518252e+2, 3.2427996e+2, 35910.29, -42081.3, -836.12897, -0.0024742722, -0.0028888101, 35919.254, 35919.254 
3.1515786e+2, 3.462801e+1, -2534834.0, -2607684.0, -828.4993, -0.0021212446, -0.0054491, -2534824.5, 65820.625 
3.151599e+2, 4.4624004e+1, -2444304.5, -2521518.0, -2201.1023, 0.005346516, 0.0005718563, -2444242.0, 58442.645 
3.1516162e+2, 5.4619575e+1, -2346061.0, -2423544.5, -2135.0566, -0.00070843694, -0.0031746111, -2346002.3, 58725.63 
3.151632e+2, 6.461443e+1, -2258098.5, -2346224.3, -3557.001, -0.002185842, -0.004259728, -2257955.3, 48823.25 
3.1516472e+2, 7.4608594e+1, -2160220.0, -2248524.5, -3743.708, 0.0016272928, -0.0042557335, -2160061.5, 48773.91 
3.15166e+2, 8.460212e+1, -2071700.3, -2169183.5, -5131.4424, 0.0023416714, -0.0027515446, -2071430.9, 39468.043 
3.1516704e+2, 9.459503e+1, -1974626.3, -2071754.1, -5305.0303, -0.0005589252, -0.0016908543, -1974337.4, 38631.02 
3.1516802e+2, 1.0458729e+2, -1886284.8, -1992422.6, -6355.631, -0.0015349983, -0.0011854285, -1885905.6, 29138.744 
3.151689e+2, 1.1457891e+2, -1788601.5, -1894691.8, -6395.298, -0.000254734, -0.0034180284, -1788217.4, 28909.113 
3.1516963e+2, 1.2456988e+2, -1700396.5, -1815942.0, -7136.6685, 0.0008887824, -0.0039103283, -1699957.4, 19257.512 
3.1517035e+2, 1.3456021e+2, -1603110.8, -1718395.1, -7269.29, 0.0018811112, -0.0045004976, -1602654.3, 18655.498 
3.1517094e+2, 1.445499e+2, -1514653.4, -1638828.4, -7841.264, 0.0008002555, -0.0032135097, -1514160.1, 9250.405 
3.1517142e+2, 1.5453903e+2, -1417293.3, -1541180.4, -7768.17, -0.0027438612, -0.0019516855, -1416808.0, 8709.286 
3.1517193e+2, 1.6452746e+2, -1329081.5, -1462093.8, -8004.3857, -0.002424184, -0.0017990404, -1328601.5, -970.98157 
3.1517246e+2, 1.7451526e+2, -1231955.3, -1364520.4, -8140.6807, 0.002544282, -0.005295934, -1231457.3, -1707.0845 
3.151729e+2, 1.8450244e+2, -1143704.6, -1285373.3, -8071.6255, 0.0029362426, -0.004532876, -1143246.3, -11370.501 
3.1517336e+2, 1.9448905e+2, -1046295.4, -1187702.5, -7935.509, -0.0022141465, -0.00071923895, -1045851.44, -11844.277 
3.1517386e+2, 2.0447494e+2, -957952.3, -1108438.1, -7893.3735, -0.0028905938, -0.00018751483, -957539.44, -21394.191 
3.151744e+2, 2.1446018e+2, -860843.44, -1010898.7, -8044.752, 0.0019233319, -0.0058879685, -860413.4, -22123.49 
3.1517503e+2, 2.244448e+2, -772362.0, -931753.3, -7234.473, 0.0025537086, -0.006147084, -772034.3, -31593.809 
3.1517568e+2, 2.3442887e+2, -674323.8, -833642.8, -7037.017, -0.0020088265, -0.0021978547, -674013.6, -31416.727 
3.1517646e+2, 2.4441224e+2, -586020.0, -754566.0, -6610.701, -0.0027861928, -0.00025158163, -585761.1, -41001.33 
3.1517732e+2, 2.5439495e+2, -489449.84, -657009.3, -6529.7695, 0.0011901511, -0.0030053742, -489195.75, -42266.62 
3.1517828e+2, 2.6437703e+2, -401282.7, -578516.06, -5010.811, 0.0023735424, -0.0035966444, -401141.13, -52036.234 
3.1517944e+2, 2.7435845e+2, -302356.03, -479776.66, -4794.2437, 0.000003176246, -0.0038609088, -302226.6, -50939.813 
3.1518072e+2, 2.8433916e+2, -214843.39, -403448.7, -3862.1833, -0.0016476241, -0.0028050938, -214764.34, -61288.383 
3.1518212e+2, 2.9431912e+2, -117498.19, -305483.4, -3836.8367, -0.0023486167, -0.0028247489, -117419.91, -61747.62 
3.1518376e+2, 3.0430192e+2, -29104.248, -174324.72, -2110.655, -0.0006210422, -0.0025315112, -29073.578, -29073.578 
3.1518564e+2, 3.1428754e+2, -28815.639, -173675.08, -1811.0885, 0.0042799804, -0.0040916097, -28793.0, -28793.0 
3.151876e+2, 3.2427773e+2, 36308.043, -41125.02, -182.60703, -0.003147289, -0.0014886175, 36308.473, 36308.473 
3.251639e+2, 3.462573e+1, -2533445.3, -2606015.5, -1161.8226, -0.00044734502, -0.005542429, -2533426.8, 67240.984 
3.2516584e+2, 4.4621727e+1, -2441782.3, -2521281.5, -1382.2919, 0.0028236404, 0.0005850745, -2441758.3, 60948.508 
3.251676e+2, 5.4617196e+1, -2343892.5, -2423564.5, -2144.6458, -0.00095547637, -0.003179123, -2343834.8, 60916.45 
3.251692e+2, 6.461199e+1, -2255863.8, -2345352.5, -4045.7969, -0.0013361081, -0.0042613996, -2255681.0, 51121.14 
3.251707e+2, 7.460614e+1, -2158619.3, -2247923.5, -4019.7864, 0.0021837135, -0.004242442, -2158438.8, 50420.746 
3.2517192e+2, 8.459965e+1, -2070450.4, -2168919.8, -5363.529, 0.0023606718, -0.002736423, -2070159.1, 40764.055 
3.2517293e+2, 9.459253e+1, -1973169.1, -2071402.8, -5462.3647, -0.0013535854, -0.0016921861, -1972866.3, 40126.69 
3.2517385e+2, 1.04584746e+2, -1884814.1, -1992080.1, -6475.2603, -0.001996262, -0.0011540306, -1884424.8, 30644.502 
3.2517472e+2, 1.1457633e+2, -1787352.4, -1894453.4, -6698.5806, 0.0009635895, -0.003288768, -1786935.0, 30216.584 
3.2517543e+2, 1.24567285e+2, -1699342.5, -1815541.1, -7597.514, 0.0019897963, -0.0038224612, -1698847.8, 20392.576 
3.2517603e+2, 1.345576e+2, -1602567.6, -1718235.1, -7558.6772, 0.0007292644, -0.004622407, -1602075.8, 19259.443 
3.2517657e+2, 1.445473e+2, -1514367.4, -1638713.4, -8047.353, -0.00057056156, -0.003318973, -1513848.8, 9587.448 
3.2517704e+2, 1.5453641e+2, -1417061.3, -1541098.6, -8148.335, -0.0019131089, -0.0017656063, -1416528.3, 9014.698 
3.251775e+2, 1.6452484e+2, -1328966.0, -1462277.4, -8468.01, -0.0011376016, -0.0015401621, -1328430.3, -774.08466 
3.2517794e+2, 1.7451262e+2, -1231749.0, -1364665.0, -8499.789, 0.0021872001, -0.0052246484, -1231207.6, -1431.5035 
3.2517835e+2, 1.8449979e+2, -1143422.8, -1284973.0, -8432.103, 0.002045184, -0.004834461, -1142922.3, -11020.488 
3.2517874e+2, 1.9448641e+2, -1046690.8, -1187607.9, -8363.948, -0.0022911252, -0.0016136379, -1046196.06, -12163.162 
3.251792e+2, 2.0447233e+2, -958720.06, -1108945.8, -8192.069, -0.0025231775, -0.0008131303, -958274.7, -22103.781 
3.251797e+2, 2.1445757e+2, -860944.06, -1011112.6, -8178.4067, 0.0022797545, -0.005191555, -860499.94, -22184.336 
3.2518023e+2, 2.244422e+2, -772617.94, -931479.94, -7425.7495, 0.0026303674, -0.0052391686, -772271.56, -31805.418 
3.2518086e+2, 2.3442627e+2, -676511.6, -834277.06, -7307.387, -0.002547523, -0.0024541235, -676173.9, -33551.633 
3.2518154e+2, 2.4440967e+2, -588359.1, -755563.5, -6798.5073, -0.0032522336, -0.000849046, -588083.2, -43298.223 
3.2518238e+2, 2.5439242e+2, -489327.13, -656882.25, -6817.3022, 0.0016636933, -0.002896677, -489050.22, -42096.06 
3.2518333e+2, 2.643745e+2, -400937.38, -577942.44, -5494.204, 0.002933609, -0.003129697, -400767.0, -51637.348 
3.251844e+2, 2.7435595e+2, -304844.28, -480599.63, -5352.361, -0.00044646, -0.0034884473, -304681.44, -53370.22 
3.2518566e+2, 2.843367e+2, -218227.5, -404646.88, -4174.958, -0.0022663607, -0.00259217, -218134.05, -64634.01 
3.251871e+2, 2.943167e+2, -119258.11, -305904.28, -3888.8657, -0.0020458524, -0.0028549822, -119177.12, -63481.11 
3.251887e+2, 3.042995e+2, -30450.418, -174656.34, -2224.5342, -0.0000691617, -0.0023811457, -30416.11, -30416.11 
3.251905e+2, 3.142852e+2, -31130.508, -174465.84, -2210.5098, 0.0041783713, -0.0031988986, -31096.426, -31096.426 
3.2519254e+2, 3.2427543e+2, 33576.125, -41295.555, 12.847663, -0.0034188514, -0.0015964641, 33576.13, 33576.13 
3.3517e+2, 3.4623513e+1, -2530965.3, -2600977.8, -1049.0203, 0.0032272255, -0.0005520812, -2530949.5, 69739.84 
3.3517185e+2, 4.4619468e+1, -2443083.8, -2523997.3, -1392.2655, -0.004241642, -0.007291395, -2443059.8, 59669.074 
3.351737e+2, 5.461481e+1, -2345366.0, -2426598.8, -2131.7388, 0.0007738272, -0.0030624052, -2345310.0, 59464.516 
3.3517534e+2, 6.4609534e+1, -2255821.3, -2345313.8, -4186.933, 0.0023934061, -0.0007148973, -2255625.8, 51200.516 
3.3517668e+2, 7.460368e+1, -2158513.5, -2247763.5, -4173.041, -0.000017420258, -0.002613722, -2158318.8, 50564.848 
3.3517787e+2, 8.459716e+1, -2070574.8, -2169219.8, -5526.9316, -0.000867201, -0.0031706535, -2070266.0, 40681.5 
3.3517888e+2, 9.4589996e+1, -1973302.5, -2071718.4, -5625.188, 0.00013511932, -0.0043528276, -1972982.0, 40035.73 
3.351798e+2, 1.0458218e+2, -1885192.3, -1992903.5, -6608.091, 0.0010130461, -0.0037429635, -1884788.4, 30305.928 
3.351806e+2, 1.1457374e+2, -1787758.5, -1895303.9, -6822.405, 0.0017454533, -0.0031024793, -1787327.5, 29849.668 
3.3518124e+2, 1.2456468e+2, -1699270.5, -1815382.1, -7893.957, 0.00068142195, -0.002101468, -1698736.3, 20529.71 
3.3518174e+2, 1.3455501e+2, -1602469.5, -1718021.3, -7865.4385, -0.0025030514, -0.0028435064, -1601936.5, 19424.197 
3.3518222e+2, 1.4454469e+2, -1514533.4, -1639039.8, -8235.857, -0.002056163, -0.0026994252, -1513991.0, 9470.767 
3.351827e+2, 1.5453376e+2, -1417251.9, -1541457.9, -8328.904, 0.0027267055, -0.003747797, -1416695.9, 8873.065 
3.351831e+2, 1.6452217e+2, -1329046.3, -1462392.8, -8663.476, 0.0030648487, -0.0029188453, -1328485.8, -803.2834 
3.351834e+2, 1.7450997e+2, -1231823.3, -1364787.8, -8694.16, -0.0019350458, -0.0021499875, -1231257.1, -1455.2035 
3.3518374e+2, 1.8449716e+2, -1143314.3, -1284744.1, -8753.61, -0.0030247038, -0.002380034, -1142774.5, -10846.917 
3.3518413e+2, 1.9448371e+2, -1046569.25, -1187358.5, -8695.464, 0.0006503032, -0.005935969, -1046034.25, -11974.979 
3.351845e+2, 2.0446965e+2, -958684.94, -1108874.3, -8268.322, 0.0016771439, -0.005119445, -958231.06, -22033.996 
3.3518493e+2, 2.1445498e+2, -860938.94, -1011065.25, -8235.8955, -0.0005516889, -0.0011611625, -860488.44, -22147.395 
3.3518544e+2, 2.2443964e+2, -772469.06, -931131.25, -7913.5493, -0.0011847204, 0.00026406808, -772075.3, -31584.008 
3.3518595e+2, 2.3442368e+2, -676317.8, -833904.5, -7824.1064, 0.00017144073, -0.0039870944, -675930.3, -33282.58 
3.351866e+2, 2.4440706e+2, -588379.56, -755596.25, -6618.6523, 0.000474013, -0.004823214, -588118.0, -43307.457 
3.3518744e+2, 2.5438982e+2, -489423.78, -656964.25, -6589.062, -0.0005491955, -0.0035447935, -489165.06, -42185.563 
3.3518836e+2, 2.6437196e+2, -400825.34, -577615.2, -6010.2485, -0.00087737065, -0.0019821222, -400621.28, -51466.52 
3.3518934e+2, 2.743534e+2, -304691.94, -480206.9, -5916.9683, -0.0003246458, -0.0025104724, -304492.7, -53156.625 
3.3519053e+2, 2.8433424e+2, -217767.52, -403647.03, -4037.0398, -0.000160321, -0.0019686855, -217679.88, -64155.42 
3.3519197e+2, 2.9431427e+2, -118831.21, -304871.3, -3705.927, -0.00047332267, -0.0028170117, -118757.414, -63037.66 
3.3519354e+2, 3.0429712e+2, -30553.281, -174753.1, -2432.102, 0.00032320243, -0.0023937474, -30512.273, -30512.273 
3.351953e+2, 3.142828e+2, -31263.68, -174645.02, -2439.472, 0.0025518236, -0.00255413, -31222.186, -31222.186 
3.3519736e+2, 3.2427308e+2, 34405.08, -39457.45, 426.09595, -0.0033632664, -0.0031170007, 34407.535, 34407.535 
3.4517622e+2, 3.462127e+1, -2529064.8, -2601857.0, -436.71588, 0.003508519, 0.0008384678, -2529062.3, 71649.15 
3.4517807e+2, 4.46171e+1, -2439106.8, -2522392.3, -2835.9873, -0.0048116683, -0.008904314, -2439010.3, 63741.797 
3.4517992e+2, 5.461243e+1, -2342848.0, -2425659.0, -2308.6443, 0.0012379244, -0.0031599025, -2342783.8, 62014.176 
3.4518147e+2, 6.4607126e+1, -2254284.8, -2345043.0, -3822.1836, 0.0029480723, -0.000158658, -2254124.0, 52725.9 
3.4518278e+2, 7.460122e+1, -2157015.5, -2247523.8, -4208.9746, -0.00048292236, -0.0024137592, -2156820.3, 52087.46 
3.451839e+2, 8.4594655e+1, -2068935.4, -2168781.8, -5800.886, -0.0013804765, -0.0033157407, -2068599.4, 42372.645 
3.451849e+2, 9.458746e+1, -1971547.6, -2071208.1, -5969.7627, 0.0007146385, -0.0048298407, -1971191.3, 41851.324 
3.4518576e+2, 1.0457962e+2, -1883647.1, -1992328.6, -6951.923, 0.0016089046, -0.004192074, -1883204.3, 31915.166 
3.451865e+2, 1.1457117e+2, -1787068.6, -1895144.6, -6871.7754, 0.0010882714, -0.0031005037, -1786633.5, 30568.816 
3.4518707e+2, 1.2456208e+2, -1698818.8, -1815444.3, -7890.429, -0.00009515538, -0.0017615672, -1698287.4, 21003.945 
3.451875e+2, 1.345524e+2, -1601422.8, -1717803.6, -8130.7393, -0.0020695797, -0.0023020688, -1600857.5, 20528.775 
3.4518793e+2, 1.4454205e+2, -1513388.1, -1638698.3, -8654.183, -0.0012594999, -0.0024993622, -1512793.3, 10694.26 
3.4518832e+2, 1.5453108e+2, -1416678.3, -1541402.9, -8698.486, 0.0028770687, -0.0045320704, -1416074.6, 9520.492 
3.4518865e+2, 1.645195e+2, -1328813.8, -1462178.5, -8946.523, 0.0027137273, -0.003605201, -1328216.4, -507.77243 
3.4518892e+2, 1.7450733e+2, -1232074.4, -1364789.4, -8840.414, -0.0026213748, -0.0014373173, -1231488.0, -1660.1793 
3.4518918e+2, 1.8449453e+2, -1143817.5, -1285170.5, -8941.922, -0.0032925936, -0.0013192006, -1143254.1, -11300.629 
3.4518948e+2, 1.9448105e+2, -1046643.56, -1187588.5, -9130.784, 0.0017144768, -0.005807647, -1046054.5, -11969.103 
3.451898e+2, 2.04467e+2, -958750.8, -1108548.6, -8710.572, 0.0025435037, -0.0053403815, -958246.0, -22022.79 
3.4519017e+2, 2.1445234e+2, -862232.06, -1011312.75, -8479.247, -0.001763704, -0.001010935, -861751.3, -23384.521 
3.4519055e+2, 2.2443703e+2, -773940.6, -931802.44, -8188.1133, -0.0025034742, 0.00043479592, -773517.06, -33000.207 
3.4519103e+2, 2.3442104e+2, -676138.9, -833810.44, -8296.761, 0.0011930595, -0.004219499, -675703.5, -33030.14 
3.4519166e+2, 2.4440445e+2, -588296.44, -755211.0, -6964.1567, 0.0018446223, -0.005101052, -588006.4, -43170.344 
3.451924e+2, 2.5438726e+2, -492089.88, -657889.8, -6683.499, -0.0013378006, -0.0034288329, -491820.88, -44816.242 
3.4519324e+2, 2.643694e+2, -404055.1, -578928.4, -6075.636, -0.0021851903, -0.0017765749, -403844.25, -54664.62 
3.451942e+2, 2.743509e+2, -305548.63, -480403.22, -6040.718, -0.000060441478, -0.0025871932, -305340.2, -53979.418 
3.4519535e+2, 2.8433174e+2, -218033.6, -403370.63, -4143.1064, 0.0007427556, -0.0021587627, -217941.03, -64392.113 
3.4519675e+2, 2.9431182e+2, -120951.45, -305514.03, -4065.118, -0.00013818168, -0.0028993548, -120861.96, -65118.094 
3.451983e+2, 3.042947e+2, -33494.438, -175744.02, -2869.7322, -0.00027554887, -0.0022783624, -33436.566, -33436.566 
3.452e+2, 3.1428042e+2, -33613.563, -175362.0, -2559.4963, 0.00052437256, -0.0021307894, -33567.36, -33567.36 
3.452021e+2, 3.2427073e+2, 31842.752, -40279.246, 575.43024, -0.0014866816, -0.002869809, 31847.344, 31847.344 
3.5518247e+2, 3.4619e+1, -2533567.3, -2611139.3, 542.17804, 0.00058054965, -0.0011413617, -2533563.5, 67169.96 
3.551845e+2, 4.461462e+1, -2438301.8, -2520698.3, -3134.6643, 0.0006724825, -0.0046590148, -2438182.5, 64593.934 
3.5518616e+2, 5.461005e+1, -2341798.0, -2423511.8, -2680.9316, 0.00050998887, -0.0034523397, -2341710.0, 63111.234 
3.5518765e+2, 6.460476e+1, -2254878.3, -2346344.0, -4000.33, 0.00052049034, -0.002392329, -2254703.8, 52169.375 
3.5518894e+2, 7.459877e+1, -2157676.3, -2248963.3, -4369.694, 0.00065287837, -0.0035381236, -2157467.5, 51464.25 
3.5519004e+2, 8.459214e+1, -2069218.8, -2169410.5, -5925.6865, 0.00062251306, -0.0031841951, -2068869.5, 42127.207 
3.55191e+2, 9.458492e+1, -1971827.4, -2071818.0, -6089.954, 0.0004313166, -0.0032740252, -1971457.9, 41609.734 
3.5519177e+2, 1.04577065e+2, -1883488.5, -1992017.9, -7290.1226, -0.00006570211, -0.0026454579, -1883001.0, 32143.459 
3.551924e+2, 1.1456862e+2, -1786877.1, -1894797.8, -7226.649, -0.00091809104, -0.0032617103, -1786395.4, 30831.916 
3.5519293e+2, 1.24559514e+2, -1699210.5, -1816243.0, -8054.278, -0.0004002146, -0.002701495, -1698658.8, 20657.742 
3.5519335e+2, 1.3454975e+2, -1601854.6, -1718662.8, -8277.316, 0.0017515664, -0.0029113381, -1601271.0, 20141.01 
3.5519373e+2, 1.445394e+2, -1513488.5, -1638893.8, -8971.225, 0.0016462934, -0.0026921437, -1512850.0, 10663.68 
3.5519397e+2, 1.5452842e+2, -1416771.1, -1541569.8, -9022.846, -0.0011527863, -0.004205671, -1416122.1, 9499.101 
3.5519418e+2, 1.6451685e+2, -1328630.6, -1461772.8, -9267.647, -0.0018905929, -0.0036468732, -1327988.6, -254.02068 
3.551944e+2, 1.7450468e+2, -1231865.4, -1364370.1, -9166.075, -0.0001344038, -0.002919678, -1231234.3, -1380.4718 
3.551946e+2, 1.8449187e+2, -1144134.9, -1285843.1, -9160.535, 0.00088837446, -0.0015609813, -1143545.1, -11565.747 
3.5519484e+2, 1.9447841e+2, -1047001.6, -1188324.5, -9335.039, 0.0010215017, -0.0015570021, -1046387.7, -12276.304 
3.5519508e+2, 2.0446435e+2, -958378.0, -1107797.4, -9079.932, 0.00029320046, -0.0017653445, -957828.3, -21579.004 
3.5519534e+2, 2.1444967e+2, -861826.5, -1010480.75, -8864.27, -0.001488209, -0.0044609034, -861299.8, -22906.91 
3.5519567e+2, 2.2443438e+2, -774102.75, -932137.94, -8282.834, -0.0015211576, -0.0043497602, -773669.8, -33126.926 
3.5519612e+2, 2.3441842e+2, -676351.1, -834220.4, -8366.739, 0.00062415004, -0.0032544383, -675908.94, -33209.832 
3.5519665e+2, 2.4440187e+2, -587925.2, -754396.56, -7433.9404, 0.0010119132, -0.001946591, -587593.9, -42732.41 
3.551973e+2, 2.543847e+2, -491685.16, -656981.75, -7183.27, -0.00082400406, -0.0026056063, -491373.6, -44343.918 
3.5519806e+2, 2.643669e+2, -403948.88, -578716.8, -6055.542, -0.0011917927, -0.0024441027, -403739.3, -54534.934 
3.55199e+2, 2.7434838e+2, -305503.44, -480235.38, -5981.773, 0.00032031038, -0.003643552, -305298.9, -53913.504 
3.5520014e+2, 2.8432924e+2, -218087.89, -403376.66, -4426.4033, 0.0005106427, -0.0031053543, -217982.22, -64408.75 
3.5520145e+2, 2.9430932e+2, -121021.76, -305532.9, -4369.0244, -0.00097433623, -0.003095444, -120918.37, -65150.016 
3.5520294e+2, 3.0429223e+2, -33062.957, -174694.31, -2953.0974, -0.0018271544, -0.0020420211, -33001.41, -33001.41 
3.552046e+2, 3.14278e+2, -33136.523, -174232.88, -2630.258, -0.001887343, -0.0018964148, -33087.508, -33087.508 
3.5520676e+2, 3.2426837e+2, 31420.332, -41012.33, 680.8341, 0.0020141648, -0.0009990233, 31426.73, 31426.73 
3.651889e+2, 3.46167e+1, -2528857.0, -2609376.3, -56.243935, -0.0014898964, -0.0031569088, -2528856.8, 71899.234 
3.6519092e+2, 4.4612327e+1, -2438116.3, -2520910.3, -1856.3594, 0.003997096, -0.0018500787, -2438074.8, 64724.375 
3.651925e+2, 5.46077e+1, -2339980.8, -2422913.8, -2603.7737, 0.00028077848, -0.003387988, -2339899.0, 64945.17 
3.6519393e+2, 6.4602363e+1, -2252374.0, -2345646.0, -4430.0747, -0.0009262681, -0.003468885, -2252164.0, 54732.438 
3.6519518e+2, 7.459633e+1, -2155229.0, -2248311.3, -4453.6177, 0.000716806, -0.0038663945, -2155016.3, 53939.406 
3.6519626e+2, 8.458968e+1, -2067069.5, -2168704.3, -5860.719, 0.0012907326, -0.00288425, -2066732.6, 44288.344 
3.6519712e+2, 9.458242e+1, -1970539.0, -2071515.6, -5953.5713, 0.0006413055, -0.002495827, -1970189.1, 42902.895 
3.651978e+2, 1.0457454e+2, -1882474.5, -1991906.5, -7353.157, -0.0002015491, -0.001982016, -1881982.6, 33186.605 
3.6519837e+2, 1.1456605e+2, -1785472.1, -1894487.1, -7694.196, -0.0012704042, -0.0034148763, -1784931.8, 32320.756 
3.6519882e+2, 1.24556914e+2, -1697724.0, -1815661.3, -8536.232, -0.00051422673, -0.003288867, -1697109.4, 22232.549 
3.651992e+2, 1.3454716e+2, -1601060.5, -1718416.6, -8407.235, 0.0024107196, -0.0034700185, -1600461.3, 20976.33 
3.651995e+2, 1.445368e+2, -1513199.6, -1638943.0, -9025.706, 0.0020672237, -0.0027155366, -1512555.0, 10984.242 
3.6519963e+2, 1.545258e+2, -1416641.1, -1541711.0, -9115.949, -0.0021878805, -0.003092824, -1415980.3, 9666.66 
3.6519977e+2, 1.645142e+2, -1328444.3, -1461711.6, -9432.088, -0.0027609866, -0.0027600992, -1327780.0, -19.545776 
3.6519992e+2, 1.7450203e+2, -1231545.4, -1364234.6, -9547.486, 0.0011157092, -0.003901142, -1230862.0, -982.183 
3.6520004e+2, 1.844892e+2, -1143928.9, -1285688.1, -9466.182, 0.0021658002, -0.0027890354, -1143299.6, -11294.192 
3.6520016e+2, 1.9447577e+2, -1047283.75, -1188427.6, -9261.306, -0.000228307, -0.0010521639, -1046678.7, -12541.477 
3.652003e+2, 2.0446171e+2, -958993.6, -1108058.1, -9084.239, -0.0012314565, -0.0008942059, -958442.06, -22167.041 
3.652005e+2, 2.1444704e+2, -862555.9, -1010796.6, -9266.113, -0.000515576, -0.004906264, -861978.94, -23560.23 
3.652008e+2, 2.2443175e+2, -775006.06, -932305.75, -8506.942, -0.00008569488, -0.0050408295, -774547.4, -33978.79 
3.6520115e+2, 2.3441583e+2, -677772.56, -834635.75, -8229.07, -0.000016595315, -0.002854499, -677342.0, -34617.527 
3.652016e+2, 2.443993e+2, -589411.3, -754912.3, -7497.0796, -0.00014441137, -0.0012506484, -589072.4, -44185.78 
3.6520216e+2, 2.5438213e+2, -492518.84, -657194.9, -7598.305, -0.00052151515, -0.0026173955, -492169.0, -45114.273 
3.6520284e+2, 2.6436436e+2, -404749.4, -578728.56, -6290.0986, -0.00054313854, -0.0027810594, -404522.28, -55293.055 
3.6520374e+2, 2.7434587e+2, -307306.22, -480733.8, -6064.374, -0.000114390954, -0.0038139748, -307094.4, -55684.484 
3.652048e+2, 2.8432676e+2, -220573.95, -404332.06, -4598.398, 0.00003859562, -0.0030844365, -220458.95, -66861.26 
3.6520606e+2, 2.9430687e+2, -123607.89, -306547.13, -4417.151, -0.00012604328, -0.0028530331, -123501.3, -67708.945 
3.652075e+2, 3.0428982e+2, -35303.25, -175307.19, -2728.852, -0.0014488333, -0.0021504906, -35250.082, -35250.082 
3.6520913e+2, 3.1427562e+2, -34905.496, -174587.48, -2615.7646, -0.004361638, -0.0031018646, -34856.53, -34856.53 
3.6521128e+2, 3.2426605e+2, 28447.408, -42446.555, 497.2752, 0.0034109936, -0.0007422575, 28450.896, 28450.896 
3.751955e+2, 3.4614363e+1, -2525318.3, -2602119.5, -1676.3959, -0.0027774542, -0.005196351, -2525281.8, 75497.22 
3.7519732e+2, 4.461021e+1, -2439194.5, -2523208.0, -1883.6927, 0.0053033703, -0.00038021224, -2439152.3, 63667.336 
3.751989e+2, 5.4605395e+1, -2341258.5, -2425601.0, -2549.5276, 0.0004987866, -0.0029938058, -2341181.5, 63685.457 
3.7520033e+2, 6.4599943e+1, -2252405.5, -2345796.5, -4589.85, -0.0014770972, -0.0034701098, -2252180.3, 54739.918 
3.7520152e+2, 7.459392e+1, -2155229.5, -2248373.0, -4624.305, -0.00022469676, -0.0034504123, -2155000.5, 53978.82 
3.752025e+2, 8.458724e+1, -2067200.6, -2169010.3, -6204.0864, 0.0007052978, -0.002424701, -2066823.9, 44220.816 
3.752033e+2, 9.4579965e+1, -1970651.5, -2071836.3, -6306.004, 0.001285323, -0.0024353499, -1970260.0, 42856.047 
3.7520394e+2, 1.0457203e+2, -1883038.3, -1993119.6, -7601.7085, 0.0010661866, -0.002135309, -1882515.8, 32678.064 
3.752044e+2, 1.1456345e+2, -1786063.8, -1895752.4, -7927.915, -0.00010441218, -0.0035587673, -1785493.8, 31784.154 
3.752048e+2, 1.2455429e+2, -1697503.3, -1815204.1, -8854.302, -0.00047090204, -0.0035470992, -1696840.9, 22526.854 
3.7520507e+2, 1.3454457e+2, -1600806.9, -1717884.3, -8737.745, 0.00013225111, -0.003982583, -1600158.4, 21304.6 
3.7520522e+2, 1.4453422e+2, -1513329.0, -1639190.3, -9397.184, 0.00017099912, -0.002582425, -1512631.3, 10933.271 
3.752053e+2, 1.5452322e+2, -1416792.5, -1541992.9, -9483.547, -0.00046897802, -0.0012553844, -1416078.3, 9593.929 
3.752054e+2, 1.645116e+2, -1328656.8, -1462143.9, -9719.74, -0.00018806692, -0.0010156364, -1327952.6, -166.6943 
3.7520543e+2, 1.7449938e+2, -1231763.0, -1364690.8, -9830.749, 0.0012123339, -0.0044237967, -1231039.9, -1134.0226 
3.752055e+2, 1.8448655e+2, -1143592.4, -1284967.3, -9802.656, 0.00074110815, -0.0049272887, -1142915.9, -10884.453 
3.752055e+2, 1.9447316e+2, -1046938.25, -1187647.5, -9603.151, -0.0020072367, -0.004012841, -1046285.9, -12123.09 
3.7520555e+2, 2.044591e+2, -959317.06, -1108682.9, -9492.708, -0.002098773, -0.0025293622, -958716.2, -22415.73 
3.7520564e+2, 2.1444444e+2, -862899.44, -1011492.94, -9670.482, 0.0010858411, -0.0025791791, -862272.75, -23828.475 
3.752058e+2, 2.2442916e+2, -774574.2, -931392.56, -8724.133, 0.0017493766, -0.0019460446, -774090.3, -33496.3 
3.752061e+2, 2.3441328e+2, -677337.75, -833645.8, -8441.285, -0.00074070436, -0.002975649, -676883.2, -34133.645 
3.7520647e+2, 2.4439676e+2, -589631.6, -755263.25, -7817.6187, -0.001616331, -0.00282849, -589263.44, -44351.926 
3.7520695e+2, 2.5437957e+2, -492763.1, -657625.56, -7916.8325, -0.000433976, -0.0034076392, -492383.78, -45303.926 
3.7520757e+2, 2.643618e+2, -404470.72, -578092.0, -6495.3413, -0.0002425198, -0.0028204483, -404228.06, -54973.813 
3.752084e+2, 2.743434e+2, -307022.72, -480037.4, -6265.2505, -0.0013251215, -0.0031645787, -306796.16, -55361.773 
3.7520942e+2, 2.843243e+2, -220370.1, -403774.0, -4917.5293, -0.00068094785, -0.0021674568, -220238.33, -66616.664 
3.752106e+2, 2.9430446e+2, -123388.78, -306007.03, -4742.584, 0.002248956, -0.0022056245, -123265.7, -67449.734 
3.7521198e+2, 3.0428743e+2, -35238.594, -175074.06, -2693.962, 0.0006781167, -0.0025726426, -35186.71, -35186.71 
3.752136e+2, 3.1427327e+2, -34876.992, -174397.48, -2552.3757, -0.0068981424, -0.0056465473, -34830.313, -34830.313 
3.752157e+2, 3.242637e+2, 28665.982, -41799.363, -46.07786, 0.0028311363, -0.001975103, 28666.012, 28666.012 
3.8520217e+2, 3.4612215e+1, -2524666.5, -2601391.0, -1136.158, -0.0007083384, -0.003976254, -2524649.8, 76150.4 
3.8520387e+2, 4.4607997e+1, -2435271.8, -2522283.3, -2358.8047, 0.001767018, -0.002544559, -2435207.8, 67633.555 
3.8520548e+2, 5.4603106e+1, -2338065.0, -2425112.3, -2378.971, 0.0005828952, -0.0028132645, -2338000.0, 66889.305 
3.8520685e+2, 6.459761e+1, -2249703.0, -2344869.0, -4449.9976, 0.000026334052, -0.0023644555, -2249495.5, 57447.84 
3.8520795e+2, 7.4591535e+1, -2153677.5, -2247976.5, -4701.651, 0.000115607414, -0.0030968604, -2153443.8, 55559.098 
3.8520887e+2, 8.4584826e+1, -2065992.9, -2168843.8, -6380.7256, 0.00028238475, -0.0026262663, -2065598.5, 45469.93 
3.8520956e+2, 9.457751e+1, -1968801.8, -2071354.8, -6594.6724, 0.0005700497, -0.0029604896, -1968379.4, 44760.81 
3.8521013e+2, 1.0456953e+2, -1881037.0, -1992429.0, -7826.064, 0.00079615705, -0.0025105178, -1880489.9, 34728.4 
3.852105e+2, 1.1456095e+2, -1784727.6, -1895383.0, -7718.676, 0.0009435414, -0.003220311, -1784191.8, 33110.72 
3.8521078e+2, 1.2455176e+2, -1696666.5, -1815155.8, -8653.408, 0.0003995589, -0.0029425824, -1696037.9, 23354.676 
3.8521093e+2, 1.3454199e+2, -1600208.9, -1717948.9, -9008.567, -0.0009601291, -0.0036421206, -1599523.6, 21964.516 
3.8521102e+2, 1.4453162e+2, -1512568.6, -1638771.9, -9839.194, -0.000967374, -0.002662398, -1511806.1, 11783.705 
3.8521102e+2, 1.5452063e+2, -1415943.4, -1541519.1, -9741.938, 0.0006447037, -0.0019396571, -1415192.1, 10505.426 
3.85211e+2, 1.6450901e+2, -1328227.6, -1462194.4, -9861.489, 0.0011805359, -0.0015048834, -1327505.6, 305.77176 
3.8521093e+2, 1.7449677e+2, -1231883.1, -1365021.0, -9939.601, 0.00041502845, -0.0037470907, -1231145.1, -1213.7196 
3.8521084e+2, 1.8448395e+2, -1143907.5, -1284875.9, -10047.352, -0.0005193145, -0.0041441857, -1143195.0, -11137.961 
3.8521078e+2, 1.9447055e+2, -1047800.2, -1187792.8, -10062.4375, -0.0016566585, -0.0044142674, -1047080.56, -12892.329 
3.8521072e+2, 2.0445652e+2, -960207.75, -1109090.1, -9784.568, -0.0011820515, -0.003177357, -959567.5, -23241.715 
3.8521075e+2, 2.1444187e+2, -862811.9, -1011463.0, -9620.929, 0.0012779941, -0.002313202, -862191.75, -23722.23 
3.8521084e+2, 2.244266e+2, -774561.1, -931170.2, -8795.809, 0.0013857889, -0.0014386968, -774068.6, -33449.473 
3.85211e+2, 2.3441073e+2, -679012.2, -834205.6, -8863.524, -0.001446914, -0.0030795932, -678507.6, -35733.09 
3.852113e+2, 2.4439423e+2, -591806.4, -756006.8, -8037.261, -0.0019485275, -0.003208644, -591413.9, -46477.586 
3.852117e+2, 2.5437707e+2, -494077.0, -657979.5, -7730.3643, 0.0005127007, -0.003615077, -493713.22, -46608.883 
3.8521227e+2, 2.6435933e+2, -405779.75, -578424.75, -6283.676, 0.0006346214, -0.0029137274, -405551.34, -56272.914 
3.85213e+2, 2.7434093e+2, -309308.44, -480838.7, -6236.9033, -0.0022539645, -0.0032348002, -309081.97, -57623.645 
3.852139e+2, 2.8432187e+2, -222676.0, -404387.03, -4853.7925, -0.0018148181, -0.0022429714, -222546.44, -68901.17 
3.8521504e+2, 2.943021e+2, -124948.48, -306223.56, -4600.8647, 0.0029899017, -0.0023240757, -124831.77, -68992.7 
3.8521641e+2, 3.0428514e+2, -37093.13, -175717.14, -2390.3782, 0.0016487465, -0.0026851674, -37051.92, -37051.92 
3.8521796e+2, 3.1427094e+2, -37925.277, -175655.98, -2220.2485, -0.007891079, -0.005680659, -37889.496, -37889.496 
3.8521993e+2, 3.2426146e+2, 24964.102, -42115.63, -120.7834, 0.0029044356, -0.0024946195, 24964.32, 24964.32 
3.9520887e+2, 3.461023e+1, -2527389.0, -2607083.3, -609.0482, 0.0044556335, 0.00026862748, -2527384.5, 73435.1 
3.9521047e+2, 4.4605702e+1, -2435410.5, -2522661.0, -2464.1772, -0.0062506315, -0.00806824, -2435340.8, 67523.02 
3.9521214e+2, 5.460085e+1, -2338148.8, -2425298.5, -2506.5056, 0.00052499655, -0.0028299682, -2338076.8, 66834.6 
3.9521348e+2, 6.4595336e+1, -2250112.3, -2345725.0, -4905.87, 0.0034047957, -0.00023974199, -2249861.3, 57104.305 
3.952144e+2, 7.4589187e+1, -2154046.5, -2248841.3, -5169.8022, 0.0016239681, -0.002797556, -2153765.5, 55260.285 
3.9521524e+2, 8.4582406e+1, -2066319.5, -2169595.3, -6563.192, -0.0000046798186, -0.0034326895, -2065904.1, 45188.04 
3.9521587e+2, 9.4575036e+1, -1969163.1, -2072136.5, -6761.779, -0.0014184846, -0.004026194, -1968721.0, 44443.42 
3.9521638e+2, 1.0456706e+2, -1880841.6, -1991992.6, -8224.265, -0.0009108838, -0.0030896543, -1880236.4, 35006.176 
3.9521667e+2, 1.1455851e+2, -1784483.0, -1894885.0, -8134.5586, 0.0018663544, -0.0024383827, -1783886.8, 33439.586 
3.9521685e+2, 1.245493e+2, -1697268.1, -1816406.0, -9045.077, 0.0020127294, -0.0015396458, -1696585.3, 22831.29 
3.9521688e+2, 1.3453944e+2, -1600864.5, -1719294.5, -9385.976, -0.00097609515, -0.0025163742, -1600125.3, 21387.928 
3.9521685e+2, 1.4452901e+2, -1512403.3, -1638411.0, -10175.853, -0.0014228314, -0.0029317683, -1511586.8, 12028.52 
3.9521676e+2, 1.5451804e+2, -1415738.4, -1541075.4, -10084.937, 0.0011837045, -0.004947021, -1414932.1, 10790.777 
3.952166e+2, 1.6450642e+2, -1328369.0, -1462467.6, -10281.197, 0.0014178469, -0.0040521165, -1327585.4, 251.30713 
3.9521644e+2, 1.744942e+2, -1232047.6, -1365346.4, -10356.215, -0.0012176475, -0.0019718893, -1231247.9, -1291.2727 
3.9521626e+2, 1.8448138e+2, -1143949.0, -1284944.5, -10521.219, -0.0016422279, -0.00067023217, -1143168.1, -11085.938 
3.9521608e+2, 1.9446798e+2, -1047825.4, -1187841.0, -10540.877, 0.0006400316, -0.0024608648, -1047036.25, -12822.668 
3.9521593e+2, 2.0445395e+2, -959928.44, -1108478.0, -9949.2, 0.0013635103, -0.0029169687, -959265.0, -22913.973 
3.9521584e+2, 2.144393e+2, -862567.06, -1010835.3, -9768.786, 0.00015829, -0.003942997, -861926.2, -23431.666 
3.952158e+2, 2.2442403e+2, -774760.4, -931490.8, -9417.421, -0.0010183932, -0.003318307, -774196.5, -33552.465 
3.9521584e+2, 2.3440818e+2, -679192.1, -834575.9, -9507.759, -0.0021595904, -0.0031707142, -678612.5, -35812.98 
3.9521605e+2, 2.4439171e+2, -591322.06, -754924.3, -8161.0894, -0.0012562657, -0.0024821293, -590915.94, -45954.973 
3.9521644e+2, 2.5437462e+2, -493594.84, -656832.25, -7828.1904, 0.0022293061, -0.0032897093, -493220.28, -46092.047 
3.952169e+2, 2.643569e+2, -405791.88, -578358.75, -6723.527, 0.0020120426, -0.0030612613, -405530.3, -56228.367 
3.952175e+2, 2.7433857e+2, -309342.3, -480838.3, -6692.8354, -0.0029447717, -0.003963543, -309081.5, -57599.63 
3.952183e+2, 2.843195e+2, -222362.34, -403600.78, -4997.467, -0.0033493852, -0.003227912, -222224.66, -68556.086 
3.9521942e+2, 2.9429978e+2, -124644.484, -305391.25, -4723.384, 0.0022015146, -0.0031433557, -124521.13, -68659.36 
3.952207e+2, 3.0428284e+2, -37025.055, -175389.19, -2631.2192, 0.0015214834, -0.0025100023, -36975.035, -36975.035 
3.952222e+2, 3.1426874e+2, -37871.51, -175371.73, -2462.7954, -0.0074747205, -0.0034108276, -37827.414, -37827.414 
3.9522403e+2, 3.242593e+2, 26298.105, -39204.047, -1107.506, 0.0035389983, -0.0023646522, 26316.826, 26316.826 
4.0521574e+2, 3.4608155e+1, -2523466.5, -2607566.3, -469.60056, 0.004427445, 0.00060014427, -2523464.0, 77375.98 
4.0521735e+2, 4.4603512e+1, -2431362.8, -2520861.0, -2567.7896, -0.00560625, -0.0073089157, -2431289.0, 71596.29 
4.052189e+2, 5.459864e+1, -2336440.8, -2424554.3, -2620.6777, 0.00046560273, -0.0030592203, -2336363.0, 68570.19 
4.0522012e+2, 6.4593095e+1, -2249098.0, -2345839.5, -4750.6577, 0.0030406467, -0.0007945313, -2248865.3, 58122.24 
4.0522102e+2, 7.458689e+1, -2151039.8, -2247996.0, -4985.6616, 0.0014298464, -0.0028957175, -2150784.3, 58264.094 
4.0522173e+2, 8.4580064e+1, -2063050.1, -2168450.0, -6585.6772, 0.00009946731, -0.0032541659, -2062640.1, 48474.94 
4.0522227e+2, 9.457266e+1, -1968030.1, -2072019.3, -6693.738, -0.0008700438, -0.0037839403, -1967601.0, 45586.766 
4.0522265e+2, 1.04564644e+2, -1880291.8, -1992021.0, -8105.783, -0.0006290017, -0.0029760727, -1879706.8, 35559.56 
4.0522286e+2, 1.1455607e+2, -1782917.8, -1894407.6, -8410.335, 0.0010459844, -0.0026735386, -1782286.9, 35063.453 
4.0522292e+2, 1.2454684e+2, -1695476.4, -1815703.4, -9514.135, 0.0012957393, -0.001760805, -1694728.1, 24712.602 
4.0522283e+2, 1.3453697e+2, -1599941.8, -1719012.3, -9319.641, -0.00016171578, -0.0022967171, -1599216.8, 22320.639 
4.052227e+2, 1.4452654e+2, -1512045.6, -1638589.6, -9855.212, -0.00045471822, -0.0026114983, -1511282.8, 12357.078 
4.052225e+2, 1.5451552e+2, -1415392.4, -1541260.1, -10181.929, 0.0006497843, -0.0049190787, -1414574.1, 11173.653 
4.0522227e+2, 1.6450389e+2, -1327900.9, -1462054.4, -10617.5625, 0.00051459845, -0.0041134604, -1327065.8, 795.87146 
4.052219e+2, 1.7449169e+2, -1232034.1, -1365142.5, -10414.243, -0.0011267257, -0.0018714186, -1231224.3, -1242.9878 
4.052216e+2, 1.8447886e+2, -1144193.0, -1285258.3, -10389.715, -0.0010464578, -0.00048983184, -1143431.9, -11324.994 
4.0522134e+2, 1.9446544e+2, -1047474.44, -1187897.1, -10520.393, 0.0011393008, -0.00229983, -1046690.6, -12452.221 
4.052211e+2, 2.0445141e+2, -959809.6, -1108126.4, -10063.73, 0.0013683726, -0.0028020928, -959129.9, -22754.047 
4.052209e+2, 2.144368e+2, -864453.25, -1011428.1, -9987.606, -0.00082776026, -0.003910971, -863777.7, -25258.637 
4.0522078e+2, 2.2442158e+2, -777051.5, -932441.06, -9547.262, -0.0016690065, -0.0033467652, -776467.1, -35798.785 
4.052207e+2, 2.3440571e+2, -679687.7, -834649.44, -9365.157, -0.00081260136, -0.0032301657, -679123.75, -36300.105 
4.0522078e+2, 2.4438927e+2, -591460.6, -754662.2, -7965.113, 0.000044959754, -0.002529569, -591072.8, -46087.87 
4.0522105e+2, 2.543722e+2, -495526.3, -657404.0, -7963.999, 0.00090494135, -0.0032769719, -495135.44, -47983.574 
4.0522143e+2, 2.6435456e+2, -408329.0, -579089.56, -6932.981, 0.0004335236, -0.0029564574, -408047.97, -58722.785 
4.052219e+2, 2.7433622e+2, -311128.28, -481210.4, -6620.213, -0.0017526081, -0.0037122206, -310871.0, -59366.332 
4.0522265e+2, 2.8431723e+2, -224169.22, -403949.53, -4727.323, -0.001737474, -0.003245011, -224045.0, -70354.05 
4.0522367e+2, 2.9429755e+2, -127504.53, -306254.78, -4541.6274, 0.0011798382, -0.00396146, -127389.21, -71505.44 
4.052249e+2, 3.0428064e+2, -40308.598, -176293.94, -2346.507, 0.00013539263, -0.0031005025, -40268.117, -40268.117 
4.0522635e+2, 3.142666e+2, -40983.188, -176163.89, -1912.064, -0.006231151, -0.0024127597, -40956.15, -40956.15 
4.0522802e+2, 3.2425725e+2, 24055.678, -39411.094, -1406.5613, 0.0035145588, -0.0033015124, 24086.834, 24086.834 
4.152227e+2, 3.4605998e+1, -2523848.5, -2608401.0, -17.439638, -0.0004203265, -0.0026837199, -2523848.5, 77012.56 
4.1522446e+2, 4.4601417e+1, -2431436.0, -2520993.5, -3256.1965, 0.002993008, -0.0007698133, -2431317.8, 71588.16 
4.1522568e+2, 5.459648e+1, -2336402.0, -2424609.8, -3367.107, 0.00039665538, -0.0034771543, -2336273.5, 68680.71 
4.152268e+2, 6.459087e+1, -2249398.3, -2346574.3, -4727.163, -0.0007794556, -0.003808313, -2249168.8, 57840.445 
4.152277e+2, 7.458464e+1, -2151434.3, -2248813.3, -4924.126, -0.00033992672, -0.0033545964, -2151185.8, 57884.523 
4.1522837e+2, 8.4577787e+1, -2063259.0, -2168839.5, -7278.2295, 0.0005484062, -0.0021653634, -2062759.6, 48377.773 
4.1522872e+2, 9.457035e+1, -1968144.9, -2072370.5, -7419.9653, 0.0019837222, -0.0023420975, -1967619.3, 45591.016 
4.1522896e+2, 1.0456229e+2, -1880769.6, -1993076.4, -8269.043, 0.0014590758, -0.0022218574, -1880164.0, 35125.33 
4.1522908e+2, 1.14553615e+2, -1783478.1, -1895541.5, -8542.029, -0.0013841247, -0.0038406285, -1782830.8, 34543.586 
4.1522905e+2, 1.2454437e+2, -1695139.3, -1814974.6, -10097.141, -0.0015779361, -0.0034675281, -1694294.4, 25170.559 
4.1522887e+2, 1.3453458e+2, -1599507.3, -1718184.4, -9935.296, 0.0013952008, -0.002910422, -1598681.3, 22879.705 
4.152286e+2, 1.4452413e+2, -1512581.3, -1639729.3, -10215.144, 0.0018019152, -0.0017487475, -1511765.8, 11897.499 
4.1522828e+2, 1.5451305e+2, -1416017.1, -1542519.9, -10514.696, -0.0008775704, -0.0021114931, -1415149.1, 10622.807 
4.1522786e+2, 1.645014e+2, -1327563.6, -1461338.4, -11143.717, -0.0014507739, -0.001890059, -1326641.8, 1244.3655 
4.1522744e+2, 1.7448922e+2, -1231640.5, -1364317.4, -10959.309, 0.00052979204, -0.003304511, -1230741.4, -735.9142 
4.1522703e+2, 1.8447639e+2, -1144399.8, -1285708.3, -10728.414, 0.0011118911, -0.003331902, -1143589.9, -11458.894 
4.1522664e+2, 1.9446295e+2, -1047743.9, -1188428.1, -10838.5625, -0.000022258557, -0.0037857916, -1046913.75, -12650.924 
4.1522622e+2, 2.0444892e+2, -959745.7, -1107940.0, -10717.178, -0.0009740044, -0.0028253677, -958974.7, -22574.402 
4.1522586e+2, 2.1443434e+2, -864349.8, -1011198.44, -10662.485, -0.0017039385, -0.0023548922, -863579.7, -25036.498 
4.1522563e+2, 2.2441915e+2, -776733.6, -931740.75, -9741.891, -0.0007239506, -0.0016752299, -776123.8, -35431.63 
4.1522554e+2, 2.3440333e+2, -679376.1, -833957.9, -9535.461, 0.0023973023, -0.0032569543, -678790.2, -35943.043 
4.152255e+2, 2.4438688e+2, -591584.1, -754804.1, -8509.555, 0.001887531, -0.0032850374, -591141.7, -46133.49 
4.1522557e+2, 2.5436985e+2, -495674.03, -657606.1, -8525.273, -0.0032217395, -0.0035542147, -495226.44, -48051.176 
4.1522583e+2, 2.643522e+2, -407855.94, -578047.6, -7205.864, -0.0038892976, -0.0026154525, -407551.4, -58203.164 
4.152263e+2, 2.7433395e+2, -310623.56, -480094.22, -6878.573, 0.0011399668, -0.0025608977, -310344.84, -58817.992 
4.15227e+2, 2.84315e+2, -223979.19, -403460.2, -5123.629, 0.0027419096, -0.0023739897, -223833.05, -70120.5 
4.152278e+2, 2.9429534e+2, -127342.04, -305818.9, -4945.1465, -0.000087292676, -0.0047774673, -127205.125, -71299.93 
4.1522893e+2, 3.0427852e+2, -39755.1, -175030.48, -2560.0005, -0.002444933, -0.0043889876, -39706.67, -39706.67 
4.1523036e+2, 3.142646e+2, -40414.57, -174847.47, -2109.8352, -0.004244616, -0.0025854723, -40381.47, -40381.47 
4.152319e+2, 3.2425526e+2, 23699.809, -40006.414, -2029.8284, 0.0028268043, -0.00520817, 23764.42, 23764.42 
4.2522982e+2, 3.4603986e+1, -2519939.0, -2605789.0, 130.56584, -0.002814035, -0.004603885, -2519938.8, 80942.02 
4.252315e+2, 4.4599438e+1, -2431416.8, -2521865.5, -2419.0745, 0.0056573655, 0.0012221455, -2431352.3, 71573.15 
4.2523268e+2, 5.459439e+1, -2332530.5, -2423664.5, -3069.192, 0.0009175228, -0.0032335927, -2332427.3, 72547.62 
4.2523363e+2, 6.458872e+1, -2244802.5, -2344748.0, -4902.3716, -0.0013842161, -0.004221374, -2244562.8, 62467.59 
4.2523447e+2, 7.458246e+1, -2150614.0, -2248811.8, -4967.394, -0.0008471363, -0.0031197148, -2150363.3, 58728.473 
4.25235e+2, 8.4575576e+1, -2063064.8, -2169131.0, -7128.3853, 0.00035568123, -0.001759178, -2062587.8, 48571.383 
4.252353e+2, 9.45681e+1, -1964860.3, -2071142.3, -7327.6963, 0.002348031, -0.0023292324, -1964357.4, 48874.98 
4.2523542e+2, 1.04559995e+2, -1877287.4, -1991866.5, -8368.333, 0.0018954282, -0.0022539634, -1876679.4, 38632.438 
4.252354e+2, 1.14551276e+2, -1783162.4, -1895885.9, -8415.666, -0.0014548568, -0.0035127096, -1782537.5, 34859.664 
4.2523524e+2, 1.24542e+2, -1695460.5, -1815330.8, -9851.549, -0.0018344397, -0.0032709741, -1694656.1, 24831.959 
4.252349e+2, 1.3453218e+2, -1597899.9, -1717568.9, -10181.241, 0.0013345741, -0.0034288003, -1597039.8, 24544.555 
4.2523453e+2, 1.4452173e+2, -1510645.1, -1638910.6, -10718.844, 0.001860701, -0.0021679413, -1509755.6, 13931.234 
4.2523405e+2, 1.5451065e+2, -1415784.0, -1542529.8, -10499.932, -0.00079518894, -0.0014505703, -1414920.1, 10875.393 
4.252335e+2, 1.64499e+2, -1327990.0, -1461643.6, -10941.355, -0.001359546, -0.0011847704, -1327100.3, 809.41486 
4.2523298e+2, 1.7448679e+2, -1231481.5, -1364349.4, -11214.078, 0.0006101449, -0.0038132863, -1230541.6, -512.41974 
4.252324e+2, 1.8447396e+2, -1144250.6, -1285481.0, -11084.402, 0.0010840183, -0.004115981, -1143385.9, -11231.035 
4.2523187e+2, 1.9446054e+2, -1048629.3, -1188676.3, -10861.706, -0.00028410772, -0.0036898172, -1047791.94, -13505.44 
4.2523137e+2, 2.0444654e+2, -960845.94, -1108419.5, -10692.437, -0.0010853249, -0.0024128032, -960075.25, -23651.44 
4.2523083e+2, 2.1443194e+2, -864611.3, -1011259.4, -10729.691, -0.001192949, -0.0023304704, -863830.44, -25263.744 
4.2523047e+2, 2.2441676e+2, -776924.44, -931499.56, -9725.867, -0.00029356085, -0.0017713428, -776314.9, -35599.34 
4.2523026e+2, 2.3440097e+2, -680938.0, -834340.25, -9638.063, 0.0018634904, -0.003128297, -680334.8, -37464.65 
4.2523012e+2, 2.4438457e+2, -593821.25, -755552.4, -8735.4795, 0.0012732107, -0.0030429643, -593350.8, -48319.844 
4.2523006e+2, 2.5436756e+2, -497731.88, -658272.75, -8475.335, -0.0027946956, -0.0033503128, -497285.66, -50087.973 
4.2523018e+2, 2.6434994e+2, -409824.47, -578439.56, -6863.9023, -0.003145201, -0.0026091293, -409545.5, -60175.203 
4.252306e+2, 2.7433175e+2, -312915.0, -480639.2, -6736.4404, 0.0012638937, -0.0029402543, -312644.88, -61096.402 
4.2523113e+2, 2.8431287e+2, -226469.39, -404110.3, -5152.51, 0.0023557802, -0.0026047179, -226320.06, -72586.4 
4.2523184e+2, 2.9429325e+2, -129865.81, -306480.66, -4874.6963, -0.0008465794, -0.004169722, -129731.37, -73805.6 
4.252329e+2, 3.042765e+2, -42164.6, -175151.45, -2291.9048, -0.0022200628, -0.0040451833, -42125.113, -42125.113 
4.252343e+2, 3.1426263e+2, -43314.977, -175188.67, -1804.4227, -0.0012507288, -0.003969033, -43290.29, -43290.29 
4.2523566e+2, 3.2425335e+2, 20472.926, -41798.44, -1768.0634, 0.000705985, -0.005096873, 20523.086, 20523.086 
4.3523708e+2, 3.4602097e+1, -2518662.3, -2603229.3, -1665.984, -0.0029797654, -0.0052649174, -2518629.5, 82269.82 
4.3523848e+2, 4.4597554e+1, -2432339.0, -2523954.8, -2246.3547, 0.0028792806, -0.00094391935, -2432284.0, 70659.81 
4.3523976e+2, 5.459238e+1, -2333651.3, -2425995.8, -2790.0095, 0.0019537907, -0.0023827995, -2333567.0, 71427.37 
4.352407e+2, 6.458662e+1, -2244961.0, -2345074.8, -5767.4146, 0.00092763436, -0.0022500816, -2244629.8, 62421.043 
4.3524125e+2, 7.4580336e+1, -2150646.5, -2249017.3, -5886.699, -0.00021126714, -0.0022488646, -2150295.5, 58817.05 
4.3524167e+2, 8.457341e+1, -2063277.8, -2169711.0, -7082.0425, -0.00043269372, -0.0019760919, -2062808.6, 48371.78 
4.3524194e+2, 9.456588e+1, -1965173.8, -2071797.9, -7237.4355, 0.00042266873, -0.003614683, -1964684.6, 48569.44 
4.3524197e+2, 1.0455775e+2, -1877410.9, -1992082.5, -9288.318, 0.0008045631, -0.0029989588, -1876663.4, 38670.35 
4.3524173e+2, 1.1454905e+2, -1783186.8, -1896041.5, -9380.918, 0.00061409385, -0.0018189905, -1782412.3, 35006.766 
4.352414e+2, 1.2453973e+2, -1695945.6, -1816442.0, -9985.738, 0.0002823691, -0.001337393, -1695123.8, 24386.674 
4.35241e+2, 1.3452981e+2, -1598474.8, -1718781.5, -10269.354, -0.00021254753, -0.003857269, -1597604.4, 24003.225 
4.352405e+2, 1.4451933e+2, -1510298.6, -1638175.9, -11462.979, -0.00010238683, -0.0037539843, -1509279.3, 14431.122 
4.3523988e+2, 1.5450831e+2, -1415353.4, -1541682.4, -11284.432, 0.00074192457, -0.002751932, -1414353.4, 11465.073 
4.3523917e+2, 1.6449666e+2, -1328405.1, -1462563.0, -11350.582, 0.00059452996, -0.0018726918, -1327451.5, 480.9888 
4.3523845e+2, 1.7448439e+2, -1231970.8, -1365367.6, -11592.89, -0.00075751403, -0.003484813, -1230970.8, -917.9639 
4.352378e+2, 1.8447156e+2, -1143907.5, -1284768.5, -11654.39, -0.00095384003, -0.0030246328, -1142949.9, -10771.388 
4.352371e+2, 1.9445819e+2, -1048252.3, -1187876.1, -11448.587, 0.0002588123, -0.0021484178, -1047319.8, -13010.379 
4.3523645e+2, 2.0444421e+2, -960916.5, -1108472.9, -11148.07, 0.0008240142, -0.0015987641, -960079.0, -23632.5 
4.352358e+2, 2.144296e+2, -864704.44, -1011371.3, -11173.758, 0.000576264, -0.0037053886, -863858.06, -25268.377 
4.352353e+2, 2.2441441e+2, -776891.75, -931299.5, -10238.448, -0.00034587533, -0.003481686, -776215.8, -35477.258 
4.352349e+2, 2.3439866e+2, -680906.8, -834150.75, -10156.435, -0.0021110028, -0.0028571167, -680236.6, -37343.758 
4.352346e+2, 2.4438229e+2, -593430.8, -754649.3, -9249.227, -0.0016076373, -0.0018824623, -592901.9, -47848.707 
4.3523446e+2, 2.5436535e+2, -497294.53, -657330.3, -8992.888, 0.0017760275, -0.0027064872, -496790.78, -49571.45 
4.352345e+2, 2.643478e+2, -409700.78, -578087.25, -7221.42, 0.00220703, -0.0029081018, -409391.66, -60000.105 
4.3523476e+2, 2.743296e+2, -312856.03, -480344.7, -7079.557, -0.0011550116, -0.0047128787, -312557.3, -60987.7 
4.3523517e+2, 2.8431073e+2, -226151.08, -403268.7, -5554.9946, -0.0024955412, -0.0038396628, -225977.03, -72222.63 
4.352358e+2, 2.9429123e+2, -129535.79, -305599.5, -5281.518, -0.0011730273, -0.0022578056, -129377.5, -73431.9 
4.3523675e+2, 3.0427453e+2, -41562.656, -173740.83, -2637.8013, 0.00053372286, -0.0022016722, -41510.035, -41510.035 
4.3523806e+2, 3.1426075e+2, -42697.65, -173747.42, -2152.0747, 0.002652303, -0.0064465725, -42662.316, -42662.316 
4.352393e+2, 3.2425156e+2, 20353.316, -41897.016, -1938.5085, -0.0027597595, -0.003168792, 20413.623, 20413.623 
4.4524452e+2, 3.460034e+1, -2516632.3, -2603679.8, -1356.774, 0.000054950295, -0.002913833, -2516611.0, 84305.33 
4.452457e+2, 4.4595653e+1, -2426268.5, -2521484.3, -2618.4622, -0.0008148234, -0.0040216018, -2426196.5, 76765.805 
4.4524693e+2, 5.459047e+1, -2331894.5, -2425615.3, -2354.3794, 0.0010124393, -0.002228342, -2331835.3, 73177.82 
4.4524777e+2, 6.458468e+1, -2244158.0, -2345377.8, -5191.5444, 0.0017367074, -0.0009855665, -2243892.3, 63177.656 
4.452482e+2, 7.457831e+1, -2146556.8, -2247715.8, -5638.663, 0.0011740136, -0.0023745054, -2146243.3, 62889.035 
4.4524848e+2, 8.4571326e+1, -2059143.5, -2168215.0, -7017.294, 0.00030620486, -0.0025613832, -2058693.9, 52506.883 
4.4524863e+2, 9.456376e+1, -1965082.4, -2072273.8, -7195.5166, -0.0009351142, -0.0035576911, -1964601.5, 48673.492 
4.452485e+2, 1.0455559e+2, -1877742.4, -1992450.9, -9304.562, -0.00057789625, -0.0027270063, -1876992.5, 38362.363 
4.4524813e+2, 1.1454687e+2, -1780110.1, -1894741.3, -9427.561, 0.0016674402, -0.0018398645, -1779340.0, 38100.45 
4.4524768e+2, 1.2453753e+2, -1692685.4, -1815309.4, -9971.872, 0.0017647624, -0.0013275833, -1691879.8, 27652.23 
4.4524717e+2, 1.3452758e+2, -1598535.8, -1719266.1, -9973.842, -0.0007053154, -0.0034231027, -1597717.4, 23912.254 
4.452465e+2, 1.4451706e+2, -1511109.5, -1638563.6, -11195.287, -0.0011711025, -0.0034808689, -1510133.6, 13598.945 
4.4524565e+2, 1.5450603e+2, -1414500.0, -1541228.3, -11404.209, 0.00078776176, -0.0033501356, -1413481.9, 12358.769 
4.4524485e+2, 1.6449438e+2, -1327213.6, -1462184.1, -11491.005, 0.0011510651, -0.0024469306, -1326242.3, 1712.5706 
4.45244e+2, 1.744821e+2, -1231712.5, -1365467.1, -11389.041, -0.00043356413, -0.0029349185, -1230749.6, -674.526 
4.4524315e+2, 1.8446928e+2, -1144099.4, -1284729.8, -11509.598, -0.0009692199, -0.002197485, -1143163.6, -10962.813 
4.4524232e+2, 1.9445592e+2, -1048757.4, -1187971.5, -11617.825, -0.00022413355, -0.002089895, -1047794.5, -13462.682 
4.452415e+2, 2.0444193e+2, -961571.75, -1108602.1, -11243.366, 0.0004985622, -0.0018671385, -960716.94, -24248.139 
4.4524077e+2, 2.1442734e+2, -865398.0, -1011502.3, -11092.68, 0.0011837847, -0.003748553, -864560.6, -25948.857 
4.4524008e+2, 2.2441217e+2, -777954.5, -931666.4, -10241.992, 0.00025705277, -0.0034287423, -777275.06, -36514.586 
4.452395e+2, 2.3439644e+2, -682776.4, -834906.25, -10177.721, -0.0026978976, -0.0028704384, -682098.5, -39183.816 
4.4523907e+2, 2.4438012e+2, -595238.06, -754991.8, -9131.814, -0.0023313365, -0.001861144, -594717.75, -49643.043 
4.4523883e+2, 2.543632e+2, -498388.9, -657310.9, -9009.395, 0.0022567569, -0.0025054887, -497879.78, -50639.406 
4.452387e+2, 2.6434568e+2, -410987.75, -578239.06, -7365.695, 0.0030576282, -0.0026825771, -410663.97, -61251.8 
4.452388e+2, 2.7432755e+2, -315471.47, -481125.38, -7101.134, -0.0010266862, -0.0046682158, -315167.63, -63577.742 
4.4523907e+2, 2.8430873e+2, -229316.77, -404083.06, -5382.648, -0.00290687, -0.003668715, -229151.14, -75377.01 
4.4523963e+2, 2.942893e+2, -132600.64, -306369.72, -5102.784, -0.0018932871, -0.0015605137, -132450.92, -76486.26 
4.4524047e+2, 3.0427268e+2, -44671.836, -174511.72, -2552.8235, 0.0005912517, -0.001696276, -44621.664, -44621.664 
4.452417e+2, 3.142589e+2, -46037.504, -174638.2, -2340.7427, 0.0049342536, -0.0070771417, -45994.91, -45994.91 
4.4524282e+2, 3.2424983e+2, 17907.756, -42058.082, -1516.506, -0.0042882706, -0.0017136475, 17946.084, 17946.084 
4.5525205e+2, 3.4598714e+1, -2519474.8, -2609608.8, -521.20264, 0.0059629553, 0.0021923662, -2519471.8, 81460.72 
4.5525318e+2, 4.4593745e+1, -2425932.3, -2520847.5, -3394.7744, -0.0053510973, -0.00791342, -2425811.0, 77170.23 
4.5525414e+2, 5.458866e+1, -2331379.5, -2424679.8, -3217.4214, -0.0017443935, -0.00270651, -2331268.5, 73762.38 
4.5525488e+2, 6.4582855e+1, -2244793.8, -2346780.8, -5292.982, 0.0011550067, -0.00036586344, -2244519.8, 62567.996 
4.552553e+2, 7.457637e+1, -2147292.8, -2249243.8, -5693.7383, 0.0032240122, -0.003402573, -2146975.8, 62175.57 
4.5525545e+2, 8.4569305e+1, -2059499.8, -2168971.5, -7940.5625, 0.002421003, -0.0034762828, -2058926.8, 52293.824 
4.552553e+2, 9.456171e+1, -1965373.0, -2072968.6, -8152.2285, -0.0017915533, -0.0022818292, -1964758.8, 48536.26 
4.5525503e+2, 1.0455351e+2, -1877836.6, -1992725.0, -9404.441, -0.002235989, -0.0015292064, -1877071.9, 38303.49 
4.5525467e+2, 1.1454475e+2, -1780272.6, -1895028.0, -9489.812, 0.0017878581, -0.003414773, -1779493.1, 37968.19 
4.5525408e+2, 1.2453538e+2, -1692745.8, -1815373.1, -10889.534, 0.0026547571, -0.003067193, -1691786.1, 27766.828 
4.552533e+2, 1.3452545e+2, -1598533.3, -1719309.9, -10932.3955, -0.00025268114, -0.0022082888, -1597551.6, 24098.732 
4.5525244e+2, 1.4451492e+2, -1511388.4, -1639215.3, -11567.28, -0.0014354727, -0.0015206564, -1510350.0, 13403.481 
4.5525151e+2, 1.5450384e+2, -1414828.9, -1541929.3, -11743.5205, -0.0005315072, -0.0033141936, -1413752.9, 12109.34 
4.552506e+2, 1.6449216e+2, -1327088.9, -1461868.8, -12099.479, 0.00041687014, -0.0029202974, -1326011.3, 1965.3475 
4.5524958e+2, 1.7447992e+2, -1231573.5, -1365104.6, -12012.247, 0.0014151421, -0.002186411, -1230501.5, -404.91223 
4.5524856e+2, 1.8446709e+2, -1144303.8, -1285103.5, -12173.196, 0.0008431938, -0.0016109486, -1143259.0, -11036.707 
4.5524746e+2, 1.9445367e+2, -1048966.4, -1188383.3, -12280.014, -0.0016576159, -0.003382911, -1047893.06, -13539.343 
4.552465e+2, 2.044397e+2, -961353.5, -1108089.5, -11699.8125, -0.0018808168, -0.0031227758, -960426.5, -23935.826 
4.5524564e+2, 2.1442518e+2, -865187.94, -1010955.1, -11540.983, 0.0007153995, -0.0025832504, -864279.9, -25646.793 
4.5524484e+2, 2.2441003e+2, -777916.56, -931473.0, -10957.159, 0.0014323476, -0.0017648408, -777138.6, -36357.188 
4.5524403e+2, 2.3439428e+2, -682721.4, -834740.25, -10905.699, -0.00022165405, -0.0031433306, -681943.0, -39007.254 
4.5524347e+2, 2.4437797e+2, -595078.2, -754628.56, -9479.921, -0.0011074188, -0.0028722838, -594516.9, -49421.223 
4.5524308e+2, 2.543611e+2, -498266.63, -656963.3, -9333.753, -0.0010051117, -0.0027050066, -497719.53, -50458.582 
4.5524287e+2, 2.6434362e+2, -410692.4, -577464.1, -8030.089, -0.00023167269, -0.0019743417, -410306.63, -60874.36 
4.552428e+2, 2.7432555e+2, -315150.16, -480318.0, -7791.407, 0.0013935117, -0.002964925, -314783.44, -63174.098 
4.5524296e+2, 2.8430682e+2, -228930.72, -403213.28, -5792.239, 0.00070564536, -0.0022127077, -228738.42, -74945.41 
4.5524332e+2, 2.942874e+2, -132226.73, -305499.56, -5492.842, -0.0029980454, -0.0019638683, -132052.78, -76069.695 
4.5524403e+2, 3.0427083e+2, -44532.875, -174108.8, -2954.528, -0.0018363778, -0.0024029538, -44465.543, -44465.543 
4.5524517e+2, 3.1425714e+2, -45936.52, -174291.1, -2739.1985, 0.0057307086, -0.0060259774, -45878.086, -45878.086 
4.5524627e+2, 3.2424814e+2, 19000.42, -39564.676, -1206.3667, -0.00409895, -0.00069966563, 19025.258, 19025.258 
4.6525967e+2, 3.4597084e+1, -2514998.5, -2608177.3, -47.125443, 0.004090319, 0.00029769077, -2514998.5, 85949.98 
4.6526077e+2, 4.4592106e+1, -2424018.8, -2520605.5, -2643.6414, -0.0026782302, -0.0041773147, -2423946.5, 79050.66 
4.6526158e+2, 5.458691e+1, -2327814.0, -2423621.3, -3345.4285, -0.00095425657, -0.003147689, -2327697.3, 77350.78 
4.6526214e+2, 6.458105e+1, -2241200.0, -2345574.3, -5432.1167, 0.0005642293, -0.002195968, -2240918.0, 66187.41 
4.6526244e+2, 7.4574524e+1, -2145747.0, -2249043.5, -5438.371, 0.0018700749, -0.0033203003, -2145461.5, 63708.004 
4.6526247e+2, 8.456743e+1, -2058107.4, -2168711.5, -7790.632, 0.0016455211, -0.0026465368, -2057561.4, 53677.64 
4.6526214e+2, 9.455979e+1, -1962076.5, -2071783.5, -7931.0244, -0.00041433843, -0.0020816885, -1961506.1, 51807.754 
4.6526173e+2, 1.0455155e+2, -1874819.8, -1991781.6, -8971.981, -0.00081835606, -0.0017318155, -1874135.5, 41259.09 
4.652612e+2, 1.1454272e+2, -1779947.9, -1895402.0, -9242.622, 0.000743564, -0.003740029, -1779212.6, 38268.39 
4.6526048e+2, 1.2453334e+2, -1692733.8, -1815441.8, -11009.414, 0.0011523986, -0.0032433989, -1691753.8, 27819.262 
4.652595e+2, 1.345234e+2, -1596681.5, -1718450.6, -11066.106, 0.00017648675, -0.0019154234, -1595684.0, 25986.445 
4.6525845e+2, 1.4451286e+2, -1509406.0, -1638668.5, -11517.514, -0.0003703602, -0.0010781961, -1508387.8, 15385.989 
4.6525738e+2, 1.5450172e+2, -1414272.0, -1542079.3, -11627.782, -0.00039555912, -0.00309972, -1413222.8, 12660.197 
4.6525627e+2, 1.6449003e+2, -1327075.8, -1461722.3, -12121.705, -0.00001763773, -0.002880551, -1325993.1, 2004.3102 
4.6525508e+2, 1.7447782e+2, -1231914.3, -1365103.3, -12105.932, 0.0008437074, -0.00225204, -1230822.8, -705.54767 
4.6525392e+2, 1.8446498e+2, -1144797.3, -1285441.5, -12172.171, 0.00069222227, -0.0017276838, -1143751.6, -11508.686 
4.652527e+2, 1.9445157e+2, -1048994.4, -1188517.0, -12145.766, -0.000715425, -0.0034762472, -1047944.94, -13570.504 
4.6525154e+2, 2.044376e+2, -961489.25, -1108056.8, -11584.215, -0.0011830038, -0.0031050676, -960579.3, -24067.941 
4.652505e+2, 2.1442308e+2, -866484.4, -1011486.44, -11608.392, -0.00048432944, -0.0023337025, -865560.94, -26907.326 
4.652495e+2, 2.2440796e+2, -779384.56, -931804.2, -11053.664, 0.00024799845, -0.001373218, -778587.1, -37785.37 
4.6524855e+2, 2.3439226e+2, -683343.56, -834659.44, -10855.538, 0.0010165075, -0.0027323111, -682568.75, -39613.035 
4.6524784e+2, 2.4437596e+2, -596068.25, -754859.3, -9314.187, 0.0004199079, -0.0027166575, -595523.75, -50408.39 
4.6524724e+2, 2.543591e+2, -500930.8, -658017.1, -9221.5625, -0.0019060012, -0.0031445823, -500391.34, -53110.785 
4.6524686e+2, 2.6434165e+2, -413790.47, -578464.56, -8015.035, -0.0017001259, -0.0022152176, -413401.28, -63949.746 
4.6524668e+2, 2.7432364e+2, -317496.94, -480960.06, -7867.57, 0.0017478107, -0.0019948275, -317119.16, -65491.1 
4.6524668e+2, 2.8430498e+2, -230896.83, -403500.75, -5772.0093, 0.0016670126, -0.0012524906, -230704.03, -76892.8 
4.6524692e+2, 2.9428563e+2, -134413.9, -305902.38, -5499.084, -0.0030430693, -0.0026010314, -134237.75, -78236.88 
4.652475e+2, 3.0426908e+2, -47291.004, -174819.55, -3008.596, -0.0022203643, -0.0026869085, -47220.066, -47220.066 
4.652485e+2, 3.1425548e+2, -49651.41, -175429.3, -2636.7458, 0.005932907, -0.0033758131, -49596.16, -49596.16 
4.6524957e+2, 3.2424653e+2, 14995.778, -40482.83, -487.3041, -0.0042738975, -0.0012776998, 15000.059, 15000.059 
4.7526738e+2, 3.4595454e+1, -2513254.5, -2604712.8, -834.12463, -0.004863312, -0.007934288, -2513246.8, 87717.46 
4.7526848e+2, 4.4590718e+1, -2425098.0, -2522886.0, -3086.8035, 0.0064953743, 0.0064516612, -2425000.5, 78010.27 
4.7526914e+2, 5.458524e+1, -2328983.5, -2426121.8, -3752.6008, 0.0030212966, -0.0035482636, -2328838.8, 76225.66 
4.752695e+2, 6.457925e+1, -2241173.8, -2345638.3, -6000.2153, -0.00005332489, -0.006230713, -2240830.3, 66292.89 
4.7526965e+2, 7.457278e+1, -2145708.5, -2249022.8, -6019.125, -0.002566601, -0.0022328421, -2145359.0, 63827.723 
4.7526953e+2, 8.456568e+1, -2058257.5, -2169059.3, -8259.447, -0.0017540843, -0.0002383922, -2057645.3, 53610.965 
4.7526914e+2, 9.455798e+1, -1962220.3, -2072140.0, -8396.787, 0.0029564914, -0.0028530606, -1961582.5, 51749.105 
4.7526854e+2, 1.0454968e+2, -1875279.8, -1992816.1, -9731.663, 0.003362216, -0.0032001003, -1874479.5, 40933.406 
4.7526777e+2, 1.1454081e+2, -1780438.1, -1896481.1, -10005.316, -0.0013581263, -0.0029394636, -1779581.8, 37918.063 
4.7526684e+2, 1.2453139e+2, -1692772.8, -1815538.3, -11485.618, -0.0025287024, -0.002002656, -1691707.5, 27884.734 
4.7526577e+2, 1.3452142e+2, -1596696.4, -1718524.6, -11535.029, 0.00056776253, -0.0024551835, -1595613.9, 26075.967 
4.7526458e+2, 1.4451087e+2, -1509621.0, -1639117.9, -12211.194, 0.0018798312, -0.0020075187, -1508479.6, 15313.729 
4.7526333e+2, 1.5449971e+2, -1414493.4, -1542569.5, -12327.999, 0.0010403808, -0.0027226708, -1413317.5, 12585.147 
4.75262e+2, 1.64488e+2, -1327056.3, -1461632.5, -12830.769, -0.00019952183, -0.0023691186, -1325843.9, 2173.525 
4.752606e+2, 1.7447577e+2, -1231873.8, -1364990.1, -12819.814, -0.0019274685, -0.0030569439, -1230650.4, -513.14264 
4.752592e+2, 1.8446295e+2, -1144761.6, -1285307.6, -12716.01, -0.0012556844, -0.0024815116, -1143620.4, -11357.579 
4.752579e+2, 1.9444957e+2, -1048958.9, -1188411.6, -12681.783, 0.002355521, -0.0024846448, -1047815.0, -13420.951 
4.752566e+2, 2.0443559e+2, -961595.5, -1108201.0, -12323.956, 0.002287588, -0.0019276843, -960566.75, -24035.734 
4.7525528e+2, 2.1442105e+2, -866612.5, -1011649.9, -12354.479, -0.0023634436, -0.0029154287, -865567.6, -26894.137 
4.752541e+2, 2.2440594e+2, -779071.25, -931108.3, -11567.283, -0.0030980888, -0.0021395336, -778196.2, -37374.688 
4.7525305e+2, 2.343903e+2, -683021.25, -833915.5, -11361.24, 0.0011017335, -0.0017027094, -682170.6, -39195.88 
4.7525212e+2, 2.4437405e+2, -596007.06, -754678.5, -10065.825, 0.0021942514, -0.0015016249, -595371.06, -50237.008 
4.7525138e+2, 2.543572e+2, -500882.13, -657882.2, -9984.529, -0.00068554835, -0.0038009826, -500249.7, -52950.395 
4.7525078e+2, 2.6433975e+2, -413623.53, -578002.06, -8517.335, -0.001544527, -0.003315494, -413183.38, -63713.25 
4.7525042e+2, 2.743218e+2, -317346.6, -480477.8, -8350.85, 0.00020813769, -0.0016921641, -316920.22, -65274.082 
4.752503e+2, 2.8430316e+2, -230620.73, -402769.75, -6213.574, 0.00019720652, -0.0007435227, -230396.75, -76567.87 
4.7525045e+2, 2.9428384e+2, -134168.03, -305159.16, -5943.096, -0.0021581212, -0.0034479485, -133961.72, -77943.58 
4.752509e+2, 3.042674e+2, -46881.7, -173820.05, -3638.8015, -0.00077934394, -0.0025888367, -46777.477, -46777.477 
4.7525167e+2, 3.142539e+2, -49205.453, -174419.08, -3283.3997, 0.0055890037, 0.0007216367, -49119.414, -49119.414 
4.752527e+2, 3.2424495e+2, 14951.661, -40406.098, -220.28749, -0.0048179626, -0.0032763302, 14952.537, 14952.537 
4.8527533e+2, 3.45941e+1, -2509715.3, -2603242.8, -562.13135, -0.0049341656, -0.0075031044, -2509711.8, 91265.76 
4.8527625e+2, 4.4589284e+1, -2422368.8, -2522467.8, -2808.5017, 0.0059523624, 0.0042312727, -2422290.0, 80734.74 
4.8527682e+2, 5.458375e+1, -2325290.0, -2425262.8, -2840.9104, 0.0032151572, -0.0029189943, -2325209.5, 79869.64 
4.8527706e+2, 6.45777e+1, -2237389.5, -2344340.3, -5412.459, 0.00037376926, -0.0046539544, -2237116.3, 70022.13 
4.8527697e+2, 7.457117e+1, -2143448.3, -2248449.0, -5783.8604, -0.002481015, -0.0019498516, -2143130.5, 66071.91 
4.8527667e+2, 8.456401e+1, -2056612.6, -2168821.3, -7892.8994, -0.0018512537, -0.00066493545, -2056060.1, 55212.348 
4.852762e+2, 9.455626e+1, -1960020.1, -2071636.4, -8199.239, 0.00285455, -0.003293338, -1959421.1, 53927.344 
4.8527542e+2, 1.04547925e+2, -1872868.9, -1991978.9, -9944.355, 0.0032707383, -0.0032422254, -1872044.4, 43385.77 
4.852744e+2, 1.14539035e+2, -1778614.1, -1895903.4, -9935.316, -0.0014271011, -0.00208971, -1777778.5, 39738.76 
4.8527327e+2, 1.2452957e+2, -1691436.1, -1815277.9, -11042.263, -0.0024799972, -0.0013442464, -1690459.3, 29150.76 
4.8527205e+2, 1.3451956e+2, -1595773.8, -1718430.8, -11277.871, 0.00083691365, -0.0032864052, -1594745.5, 26962.547 
4.852707e+2, 1.4450899e+2, -1508835.3, -1638791.8, -12202.026, 0.0020566683, -0.0030249017, -1507699.5, 16112.247 
4.8526925e+2, 1.5449783e+2, -1414058.6, -1542395.5, -12131.498, 0.0007448243, -0.0023331197, -1412921.9, 12999.165 
4.852677e+2, 1.6448613e+2, -1326832.8, -1461726.5, -12558.165, -0.000473601, -0.0016494625, -1325673.6, 2362.1697 
4.8526612e+2, 1.7447387e+2, -1231571.6, -1365027.3, -12708.368, -0.0015800686, -0.003322743, -1230372.3, -216.36401 
4.8526457e+2, 1.8446104e+2, -1144464.4, -1285096.4, -12612.956, -0.0009445716, -0.002929245, -1143342.1, -11060.567 
4.8526305e+2, 1.9444767e+2, -1049238.1, -1188444.5, -12566.594, 0.0018236991, -0.0021150894, -1048112.8, -13700.189 
4.8526156e+2, 2.044337e+2, -962273.5, -1108366.1, -12296.494, 0.0018349383, -0.0013965933, -961245.7, -24696.248 
4.8526004e+2, 2.1441917e+2, -867569.25, -1011967.06, -12162.423, -0.001599515, -0.0030371915, -866552.0, -27860.104 
4.8525867e+2, 2.2440408e+2, -780391.3, -931601.25, -11176.898, -0.0023650192, -0.0026185024, -779569.6, -38729.836 
4.8525748e+2, 2.3438846e+2, -684747.6, -834612.6, -11241.447, 0.00024169145, -0.0021603936, -683909.1, -40916.21 
4.8525637e+2, 2.4437223e+2, -597684.5, -755081.1, -10182.947, 0.0011713868, -0.0015204073, -597028.44, -51876.51 
4.852554e+2, 2.5435543e+2, -502305.78, -658143.94, -9937.692, -0.000056645757, -0.0028713315, -501674.63, -54357.89 
4.8525465e+2, 2.6433802e+2, -415102.56, -578275.3, -8198.724, -0.0005897466, -0.0024223977, -414691.63, -65204.473 
4.852541e+2, 2.743201e+2, -319339.94, -481018.22, -7983.6885, -0.00022039258, -0.002090097, -318946.66, -67283.76 
4.8525384e+2, 2.843015e+2, -233403.78, -403806.94, -5909.7407, -0.0005435777, -0.0015151122, -233199.08, -79353.74 
4.852538e+2, 2.942822e+2, -137838.95, -306667.78, -5837.0557, -0.0018290099, -0.0033959206, -137637.39, -81603.12 
4.852541e+2, 3.042658e+2, -50504.152, -174773.13, -3628.8904, -0.00055689865, -0.0018788899, -50398.273, -50398.273 
4.8525473e+2, 3.1425238e+2, -52123.637, -175004.44, -3300.737, 0.004171881, 0.0018677815, -52035.04, -52035.04 
4.852557e+2, 3.2424346e+2, 11445.214, -41675.082, 424.45053, -0.003533395, -0.0034259597, 11448.6045, 11448.6045 
4.9528348e+2, 3.4592995e+1, -2511500.5, -2606989.3, -1767.5647, 0.0029494711, 0.00073929026, -2511468.0, 89520.53 
4.9528402e+2, 4.4587815e+1, -2422343.8, -2522648.3, -3007.21, -0.0033337139, -0.009526783, -2422253.8, 80785.47 
4.9528462e+2, 5.458243e+1, -2325321.5, -2425357.3, -3001.27, -0.000013198221, -0.0013697334, -2325231.5, 79860.55 
4.9528477e+2, 6.4576375e+1, -2238007.8, -2345627.5, -6372.2915, 0.0017096859, 0.0019610217, -2237631.8, 69519.48 
4.9528444e+2, 7.4569684e+1, -2143980.3, -2249741.3, -6771.0864, 0.0016517318, -0.002384215, -2143548.5, 65668.45 
4.9528393e+2, 8.456242e+1, -2057047.0, -2169902.5, -8229.128, 0.0010057903, -0.0036344775, -2056450.0, 54837.99 
4.9528328e+2, 9.4554627e+1, -1960558.9, -2072770.1, -8496.961, -0.0003841344, -0.0034334348, -1959919.1, 53445.36 
4.9528235e+2, 1.04546264e+2, -1872843.5, -1991927.4, -10822.923, -0.00068209576, -0.0019923123, -1871867.8, 43578.59 
4.9528113e+2, 1.1453737e+2, -1778481.3, -1895771.4, -10847.865, 0.00031716577, -0.0011962507, -1777486.4, 40047.086 
4.9527982e+2, 1.2452789e+2, -1691787.5, -1816093.9, -11624.557, 0.0009006235, -0.0012057093, -1690709.9, 28916.688 
4.9527842e+2, 1.345178e+2, -1596180.3, -1719339.0, -11840.642, 0.0009833785, -0.004377378, -1595052.1, 26673.111 
4.952769e+2, 1.445072e+2, -1508716.9, -1638532.0, -12979.126, 0.00035320615, -0.0041115135, -1507431.9, 16397.346 
4.9527517e+2, 1.5449607e+2, -1413888.4, -1542089.0, -12926.729, -0.0011280132, -0.0019295425, -1412597.9, 13340.244 
4.9527344e+2, 1.6448438e+2, -1327075.0, -1462235.6, -13251.388, -0.0008537557, -0.00073701865, -1325788.0, 2264.901 
4.952717e+2, 1.7447208e+2, -1231836.0, -1365592.8, -13391.45, 0.0015625322, -0.0030988187, -1230508.5, -334.96042 
4.9526995e+2, 1.8445922e+2, -1144434.0, -1284987.5, -13288.177, 0.0013888731, -0.0030954585, -1143188.8, -10889.384 
4.952682e+2, 1.9444586e+2, -1049208.8, -1188338.0, -13244.7, -0.0019735075, -0.0023066239, -1047959.2, -13528.828 
4.9526647e+2, 2.0443194e+2, -962067.7, -1107852.5, -13112.538, -0.002177829, -0.0014473636, -960897.7, -24330.764 
4.952648e+2, 2.1441743e+2, -867317.7, -1011421.1, -12992.049, 0.0015322691, -0.0027451306, -866155.75, -27446.78 
4.9526325e+2, 2.2440234e+2, -780532.75, -931910.25, -11800.503, 0.0020388702, -0.0028401949, -779618.4, -38761.61 
4.9526182e+2, 2.3438668e+2, -684960.6, -834999.75, -11842.767, -0.0014894314, -0.0039624483, -684031.6, -41021.363 
4.952605e+2, 2.4437049e+2, -597354.75, -754323.94, -10861.32, -0.0024007019, -0.0026587616, -596606.8, -51437.664 
4.952594e+2, 2.5435376e+2, -501943.75, -657311.44, -10626.026, 0.00001202474, -0.00050829985, -501220.38, -53887.363 
4.9525845e+2, 2.6433644e+2, -414864.7, -577617.25, -8825.903, 0.0010546119, 0.0002761623, -414387.47, -64884.586 
4.9525777e+2, 2.7431852e+2, -319121.75, -480388.72, -8611.195, 0.0003371713, -0.003119356, -318663.22, -66984.73 
4.9525726e+2, 2.842999e+2, -233470.36, -403777.44, -6582.828, -0.00064684934, -0.0034441848, -233216.3, -79355.54 
4.9525708e+2, 2.9428065e+2, -137923.03, -306685.1, -6504.1377, -0.0020247307, -0.0025312235, -137672.72, -81623.29 
4.9525717e+2, 3.042643e+2, -50160.57, -173876.89, -4083.4226, -0.0014668064, -0.00061300764, -50025.938, -50025.938 
4.9525765e+2, 3.1425092e+2, -51778.324, -174054.63, -3747.4421, 0.0017651211, 0.00033849746, -51663.582, -51663.582 
4.9525857e+2, 3.242421e+2, 11694.722, -40852.723, 281.74307, -0.0006376778, -0.0019212794, 11696.232, 11696.232 
5.0529176e+2, 3.459192e+1, -2508266.5, -2606823.0, -1067.0193, 0.0052297027, 0.0014793274, -2508255.0, 92744.0 
5.052921e+2, 4.4586647e+1, -2416099.0, -2520154.3, -2673.7397, -0.0053373487, -0.009011682, -2416030.3, 87020.47 
5.0529253e+2, 5.45812e+1, -2323512.0, -2425016.8, -2987.9626, -0.001245508, -0.0015894145, -2323424.3, 81679.86 
5.052925e+2, 6.457509e+1, -2237118.0, -2345937.0, -6172.225, 0.0015780745, 0.0014082681, -2236769.0, 70394.99 
5.05292e+2, 7.456834e+1, -2139518.0, -2248314.3, -6409.7007, 0.0030044902, -0.0028049091, -2139141.8, 70088.41 
5.0529134e+2, 8.456102e+1, -2052225.5, -2168050.0, -8034.204, 0.002094075, -0.0036286614, -2051670.9, 59631.01 
5.0529045e+2, 9.455318e+1, -1959588.9, -2072780.0, -8099.074, -0.0016398521, -0.0026456953, -1959012.3, 54366.35 
5.052893e+2, 1.0454478e+2, -1872797.4, -1992257.0, -10190.141, -0.0020718304, -0.0014224026, -1871934.4, 43526.566 
5.0528795e+2, 1.14535846e+2, -1776093.5, -1894929.0, -10481.789, 0.0014282975, -0.002033935, -1775176.0, 42372.473 
5.0528646e+2, 1.2452632e+2, -1688973.0, -1815141.3, -11575.79, 0.002401098, -0.0020446954, -1687919.8, 31722.135 
5.0528485e+2, 1.3451622e+2, -1595279.6, -1719297.5, -11634.258, 0.00033081818, -0.0035132982, -1594197.6, 27543.229 
5.05283e+2, 1.4450559e+2, -1508444.8, -1638515.3, -12690.207, -0.0008988095, -0.0029980997, -1507218.3, 16626.738 
5.0528115e+2, 1.5449446e+2, -1413223.1, -1541833.6, -12830.413, -0.0010962614, -0.0023334185, -1411955.6, 13998.526 
5.052792e+2, 1.6448273e+2, -1326333.8, -1462030.3, -13178.247, -0.00022557916, -0.00145549, -1325065.9, 3003.2092 
5.052773e+2, 1.7447042e+2, -1231354.8, -1365522.6, -13151.098, 0.0019446771, -0.0026449126, -1230077.8, 111.83837 
5.052753e+2, 1.8445759e+2, -1144481.9, -1284958.0, -13088.287, 0.0014209964, -0.0024706386, -1143272.9, -10957.349 
5.052733e+2, 1.9444421e+2, -1050474.5, -1188887.8, -13066.848, -0.0024279242, -0.002753445, -1049251.6, -14805.163 
5.052714e+2, 2.0443028e+2, -963440.2, -1108419.5, -12839.6455, -0.0026118914, -0.002079979, -962311.9, -25728.81 
5.052695e+2, 2.144158e+2, -867450.3, -1011362.1, -12904.62, 0.00177041, -0.0024621815, -866302.25, -27577.393 
5.0526774e+2, 2.2440074e+2, -780533.1, -931650.3, -11837.249, 0.0024427522, -0.002164236, -779611.56, -38739.016 
5.052661e+2, 2.343851e+2, -686468.06, -835468.4, -11565.701, -0.0015777571, -0.0035466857, -685575.6, -42549.816 
5.052646e+2, 2.4436891e+2, -599604.06, -755051.0, -10356.381, -0.0027168097, -0.002629608, -598917.1, -53732.7 
5.0526327e+2, 2.543522e+2, -504112.88, -657981.9, -10308.068, -0.00018404353, -0.0010192182, -503425.38, -56077.336 
5.0526214e+2, 2.6433492e+2, -417149.8, -578447.25, -8677.054, 0.0009126861, -0.00024008547, -416684.38, -67166.75 
5.0526124e+2, 2.7431703e+2, -321811.84, -481394.28, -8594.995, 0.00015524346, -0.0029535163, -321350.25, -69657.34 
5.052606e+2, 2.8429848e+2, -235985.73, -404335.72, -6412.887, -0.00053142343, -0.0028118426, -235741.81, -81867.086 
5.052602e+2, 2.942793e+2, -140114.84, -307037.44, -5906.7876, -0.0011931205, -0.0017144441, -139906.08, -83843.336 
5.0526017e+2, 3.0426297e+2, -52799.152, -174824.16, -3332.5059, -0.0014616401, -0.0006303084, -52708.207, -52708.207 
5.052604e+2, 3.142496e+2, -55468.73, -175521.2, -3276.361, -0.0010718085, -0.0018579183, -55379.38, -55379.38 
5.0526124e+2, 3.2424086e+2, 6725.42, -41941.35, 806.5019, 0.001302535, -0.0006849019, 6738.7817, 6738.7817 
5.1530004e+2, 3.4590873e+1, -2508229.0, -2606943.3, -55.55916, 0.0024560825, -0.0044928184, -2508229.0, 92780.23 
5.153005e+2, 4.4585747e+1, -2416718.0, -2521395.8, -3901.1228, -0.00084820355, 0.00424956, -2416572.8, 86486.71 
5.1530045e+2, 5.458007e+1, -2324002.3, -2426228.8, -4305.9995, -0.00071306824, -0.0033836307, -2323821.3, 81293.914 
5.153002e+2, 6.4573836e+1, -2237336.3, -2346626.5, -6256.866, 0.0001095429, -0.0055437074, -2236979.3, 70196.914 
5.1529974e+2, 7.456709e+1, -2139872.5, -2249063.0, -6436.5093, 0.0018612236, -0.0032095406, -2139494.5, 69747.836 
5.152989e+2, 8.4559774e+1, -2052376.1, -2168341.0, -9291.425, 0.0015872202, -0.0009584125, -2051636.4, 59677.703 
5.1529765e+2, 9.455191e+1, -1959600.4, -2072999.1, -9416.895, -0.0011454015, -0.0010329734, -1958823.6, 54567.5 
5.1529634e+2, 1.0454345e+2, -1873144.0, -1993184.8, -10529.301, -0.0011903167, -0.0014568357, -1872227.4, 43246.582 
5.1529485e+2, 1.1453442e+2, -1776554.0, -1895954.3, -10768.189, 0.001959612, -0.0044169347, -1775590.8, 41971.74 
5.152932e+2, 1.2452486e+2, -1689122.9, -1815409.6, -12594.925, 0.002195416, -0.0037537797, -1687879.0, 31777.104 
5.152912e+2, 1.3451478e+2, -1595360.5, -1719520.6, -12688.116, -0.0010562432, -0.00089572184, -1594077.1, 27677.762 
5.152892e+2, 1.4450413e+2, -1508633.8, -1638961.4, -13383.293, -0.0017590878, 0.00009018098, -1507273.6, 16585.658 
5.1528716e+2, 1.5449293e+2, -1413437.9, -1542324.5, -13506.096, 0.0006221925, -0.0034574883, -1412037.8, 13931.367 
5.15285e+2, 1.644812e+2, -1326305.5, -1461944.8, -13917.486, 0.0012836901, -0.0036275915, -1324892.1, 3192.0637 
5.152828e+2, 1.744689e+2, -1231338.5, -1365420.6, -13892.609, -0.0001617615, -0.001981352, -1229914.1, 290.33005 
5.1528066e+2, 1.8445607e+2, -1144470.0, -1284876.5, -14069.964, -0.00063122355, -0.0011333307, -1143074.0, -10743.719 
5.152784e+2, 1.9444269e+2, -1050427.6, -1188798.4, -14064.162, 0.00010075603, -0.0034236857, -1049012.6, -14551.219 
5.1527625e+2, 2.0442876e+2, -963523.44, -1108655.0, -13356.14, 0.00016276537, -0.003230073, -962304.5, -25706.525 
5.1527417e+2, 2.1441427e+2, -867602.56, -1011664.7, -13387.222, -0.0006084491, -0.0021885042, -866369.06, -27629.2 
5.152722e+2, 2.2439924e+2, -780187.8, -930814.2, -12800.292, -0.0007824747, -0.0006777588, -779107.75, -38220.563 
5.1527035e+2, 2.3438369e+2, -686056.44, -834551.25, -12564.361, -0.0002070438, -0.0011348411, -685000.9, -41961.09 
5.152686e+2, 2.4436752e+2, -599553.06, -754928.75, -11039.58, -0.00011285024, -0.0015450518, -598772.6, -53574.5 
5.152671e+2, 2.543508e+2, -504107.4, -657927.94, -10967.242, -0.0006389438, -0.0041165543, -503329.4, -55967.39 
5.1526576e+2, 2.643335e+2, -417167.56, -578330.44, -9382.1045, -0.00087200117, -0.0036560453, -416623.22, -67091.69 
5.1526463e+2, 2.7431569e+2, -321833.0, -481300.66, -9297.153, -0.000712774, -0.001709642, -321292.78, -69586.445 
5.152638e+2, 2.8429717e+2, -235335.16, -402756.03, -6987.9917, -0.00024566168, 0.0001358213, -235043.98, -81156.55 
5.152633e+2, 2.9427812e+2, -139419.56, -305382.78, -6488.975, 0.00054092513, -0.0009400848, -139166.23, -83091.766 
5.152631e+2, 3.0426183e+2, -52919.965, -174867.05, -4040.692, -0.0006575867, -0.00180537, -52786.223, -52786.223 
5.152631e+2, 3.1424844e+2, -55638.563, -175706.14, -3983.2896, -0.004307705, -0.00466753, -55506.56, -55506.56 
5.152637e+2, 3.2423982e+2, 7750.309, -39587.89, -108.94187, 0.0023449042, 0.00032164634, 7750.5596, 7750.5596 
5.253086e+2, 3.4590068e+1, -2502782.5, -2604898.8, 419.01947, -0.0011207163, -0.005779845, -2502780.8, 98236.32 
5.253089e+2, 4.4584912e+1, -2416339.8, -2522023.5, -3386.2688, 0.0034355095, 0.0062950295, -2416231.3, 86836.42 
5.2530867e+2, 5.457914e+1, -2318862.8, -2424533.0, -3704.2341, 0.00067345967, -0.003643613, -2318733.3, 86391.15 
5.2530825e+2, 6.457283e+1, -2231653.0, -2344380.8, -5664.0483, -0.0005719169, -0.0064524454, -2231369.0, 75816.92 
5.2530754e+2, 7.4566054e+1, -2139041.8, -2249178.3, -5836.373, 0.000114754905, -0.0028068153, -2138733.3, 70519.18 
5.2530646e+2, 8.4558684e+1, -2052401.6, -2168909.0, -8850.983, 0.00046228195, -0.00035345455, -2051733.1, 59591.56 
5.2530503e+2, 9.455076e+1, -1955741.1, -2071663.9, -9205.904, 0.0003413562, -0.0015412752, -1955014.6, 58387.8 
5.253035e+2, 1.0454225e+2, -1868759.8, -1991562.5, -10386.216, 0.0004769097, -0.002107979, -1867887.5, 47598.195 
5.253018e+2, 1.14533186e+2, -1775698.0, -1896049.4, -10484.523, 0.000915093, -0.004041271, -1774791.5, 42783.06 
5.2529985e+2, 1.24523595e+2, -1689194.0, -1815588.4, -12280.226, 0.00054013357, -0.0031253574, -1688012.0, 31656.59 
5.252977e+2, 1.345135e+2, -1593829.8, -1718896.1, -12344.296, -0.0008057406, -0.0009425701, -1592623.0, 29144.498 
5.252955e+2, 1.4450283e+2, -1506832.4, -1638488.6, -13017.148, -0.0007039831, -0.00018681526, -1505557.8, 18314.361 
5.252932e+2, 1.5449159e+2, -1412615.0, -1542349.9, -13164.287, 0.0011525207, -0.0034388688, -1411292.8, 14689.528 
5.2529085e+2, 1.6447982e+2, -1326062.4, -1461793.0, -13629.765, 0.0011242401, -0.003562578, -1324707.3, 3390.232 
5.252884e+2, 1.7446756e+2, -1231829.3, -1365613.4, -13618.918, -0.0012145865, -0.002174163, -1230456.9, -239.19641 
5.2528596e+2, 1.8445472e+2, -1144924.1, -1285128.4, -13811.675, -0.0013343927, -0.001229101, -1143576.5, -11233.021 
5.252835e+2, 1.9444135e+2, -1049713.9, -1188502.0, -13869.002, 0.0012747867, -0.0029821228, -1048341.5, -13866.918 
5.2528113e+2, 2.0442742e+2, -963120.5, -1108272.9, -13079.466, 0.0014064963, -0.0028273938, -961951.4, -25340.225 
5.252788e+2, 2.1441294e+2, -869589.0, -1012430.6, -12888.885, -0.0015506413, -0.0025365588, -868435.3, -29682.363 
5.252766e+2, 2.2439793e+2, -782832.5, -931718.0, -12282.111, -0.0021889242, -0.0012015698, -781826.1, -40926.066 
5.252745e+2, 2.343824e+2, -687444.5, -834850.5, -12271.143, 0.00010718067, -0.0011070321, -686429.94, -43377.723 
5.252726e+2, 2.4436627e+2, -600594.5, -755204.25, -10755.993, 0.0008950523, -0.0013239406, -599849.8, -54639.535 
5.252708e+2, 2.5434956e+2, -505779.84, -658501.8, -10593.123, -0.00025545064, -0.0041531287, -505048.6, -57674.555 
5.2526927e+2, 2.643323e+2, -419125.44, -578695.25, -8855.2705, -0.0011332913, -0.003803797, -418635.53, -69092.32 
5.2526796e+2, 2.7431452e+2, -324237.84, -481852.63, -8456.936, -0.001644577, -0.0017842371, -323785.4, -72067.93 
5.252669e+2, 2.8429613e+2, -238365.45, -403734.88, -6096.335, -0.00083554245, 0.000021421336, -238141.02, -84242.98 
5.2526623e+2, 2.9427707e+2, -143221.4, -306696.16, -6098.138, 0.0015983854, -0.0012453407, -142994.23, -86909.59 
5.2526575e+2, 3.0426082e+2, -56883.39, -176121.05, -3721.9443, 0.00012458456, -0.0021061825, -56767.324, -56767.324 
5.252656e+2, 3.142475e+2, -59146.184, -176779.34, -3224.1438, -0.0063422355, -0.004686818, -59057.883, -59057.883 
5.2526593e+2, 3.2423896e+2, 4103.066, -40316.625, 186.84183, 0.0031129622, -0.000030436533, 4103.8516, 4103.8516 
5.353173e+2, 3.4589478e+1, -2503434.5, -2606292.3, -2033.0911, -0.005437319, -0.0028990707, -2503394.3, 97628.68 
5.353173e+2, 4.4584128e+1, -2416636.8, -2522900.3, -3528.4539, 0.0075137587, -0.0016142175, -2416519.8, 86555.67 
5.3531706e+2, 5.457838e+1, -2319274.5, -2425453.0, -3750.9941, 0.0027978101, -0.0025477195, -2319142.3, 85989.53 
5.353164e+2, 6.4572054e+1, -2231966.5, -2345076.3, -6915.759, -0.0005712068, -0.0019983067, -2231545.3, 75648.5 
5.353154e+2, 7.4565196e+1, -2139265.3, -2249817.5, -7142.168, -0.0021756364, -0.0016875749, -2138805.8, 70455.27 
5.353141e+2, 8.455775e+1, -2052849.1, -2169999.3, -9177.583, -0.0012261696, -0.001582601, -2052134.5, 59199.387 
5.3531253e+2, 9.454973e+1, -1956277.9, -2072827.4, -9480.16, 0.0026857727, -0.0039334847, -1955511.8, 57900.695 
5.353108e+2, 1.04541175e+2, -1868993.9, -1992021.3, -11543.589, 0.0028228427, -0.0033037935, -1867920.1, 47576.223 
5.353088e+2, 1.1453212e+2, -1775861.5, -1896460.1, -11683.186, -0.0015394285, -0.0012138678, -1774740.1, 42844.94 
5.353066e+2, 1.2452251e+2, -1689199.9, -1815669.4, -12931.52, -0.0024218955, -0.0004167599, -1687891.1, 31788.076 
5.3530425e+2, 1.3451236e+2, -1593860.9, -1718979.0, -12974.42, 0.00088143523, -0.0033562942, -1592529.6, 29249.035 
5.353018e+2, 1.4450164e+2, -1507129.0, -1639019.9, -13930.346, 0.0020431273, -0.0034655018, -1505673.8, 18209.803 
5.3529924e+2, 1.5449041e+2, -1412919.9, -1542909.8, -14084.336, 0.0006021001, -0.0023978606, -1411411.4, 14582.408 
5.352966e+2, 1.6447864e+2, -1326041.9, -1461747.8, -14562.118, -0.0005465046, -0.0014946184, -1324496.9, 3612.335 
5.3529394e+2, 1.7446634e+2, -1231808.3, -1365531.5, -14551.866, -0.0013354231, -0.003129061, -1230243.0, -13.445021 
5.3529125e+2, 1.844535e+2, -1145015.6, -1285277.1, -14505.097, -0.00084737863, -0.0026045116, -1143531.4, -11175.957 
5.3528863e+2, 1.9444014e+2, -1049839.0, -1188690.0, -14544.827, 0.0012190024, -0.0015442413, -1048331.75, -13845.387 
5.35286e+2, 2.0442623e+2, -962856.94, -1107705.0, -14167.088, 0.0012613047, -0.0010268401, -961484.3, -24861.553 
5.352834e+2, 2.1441178e+2, -869277.8, -1011811.25, -14006.704, -0.0012217294, -0.0034419612, -867914.44, -29150.076 
5.3528094e+2, 2.2439678e+2, -782794.44, -931635.3, -12976.608, -0.0019792032, -0.0035242676, -781671.5, -40760.21 
5.352786e+2, 2.3438126e+2, -687465.75, -834815.7, -12933.872, -0.0005463954, -0.003223204, -686339.06, -43275.62 
5.352765e+2, 2.4436516e+2, -600469.44, -754812.4, -11557.4795, 0.00044522423, -0.0018828879, -599608.8, -54387.594 
5.3527457e+2, 2.5434852e+2, -505661.72, -658100.56, -11399.124, 0.0008567598, -0.0014404504, -504814.03, -57429.67 
5.352727e+2, 2.643313e+2, -418595.75, -577380.44, -9677.776, -0.000054104356, -0.001010046, -418008.1, -68455.15 
5.3527117e+2, 2.743136e+2, -323680.78, -480472.78, -9290.616, -0.0026520693, -0.003042015, -323132.2, -71405.62 
5.352699e+2, 2.842952e+2, -238575.97, -403931.38, -6871.5845, -0.0022389593, -0.002851825, -238290.9, -84384.07 
5.3526896e+2, 2.9427615e+2, -143494.33, -307031.63, -6855.9395, 0.002023862, -0.0025291739, -143207.4, -87113.89 
5.352683e+2, 3.0426e+2, -56288.41, -174636.69, -4310.557, 0.0008579219, -0.0016202419, -56131.617, -56131.617 
5.3526795e+2, 3.142468e+2, -58500.48, -175162.17, -3804.1091, -0.007305174, -0.0021921527, -58376.566, -58376.566 
5.352681e+2, 3.2423827e+2, 4111.8584, -40040.87, -1071.3394, 0.0036000833, -0.0016253005, 4137.8384, 4137.8384 
5.4532623e+2, 3.45891e+1, -2500533.0, -2605331.0, -1484.5591, -0.0022886668, -0.0017743581, -2500512.0, 100514.63 
5.4532593e+2, 4.4583645e+1, -2410331.3, -2520779.8, -2432.966, 0.0035598532, -0.004984972, -2410277.8, 92802.43 
5.453256e+2, 5.4577845e+1, -2316762.3, -2425221.5, -2820.068, 0.002071508, -0.0018316603, -2316689.0, 88448.02 
5.453246e+2, 6.457146e+1, -2230180.8, -2344960.5, -6498.4927, 0.00041642733, -0.000007999989, -2229814.0, 77385.625 
5.453234e+2, 7.4564505e+1, -2134933.3, -2248458.0, -6883.6333, -0.0012813793, -0.001762153, -2134517.3, 74750.32 
5.453218e+2, 8.4556985e+1, -2048348.6, -2168404.8, -8659.784, -0.0008137815, -0.002399977, -2047727.3, 63614.125 
5.453202e+2, 9.4548917e+1, -1954616.4, -2072600.1, -8775.702, 0.0021589883, -0.003917533, -1953967.3, 59453.15 
5.453182e+2, 1.04540326e+2, -1868091.9, -1991962.9, -11084.678, 0.002145683, -0.0028699846, -1867107.8, 48396.848 
5.4531586e+2, 1.1453124e+2, -1773613.3, -1895726.1, -11259.236, -0.0014217448, -0.00084645546, -1772583.8, 45009.89 
5.453134e+2, 1.2452159e+2, -1686817.4, -1814963.5, -12418.385, -0.0019354448, -0.00038552337, -1685625.1, 34063.164 
5.4531085e+2, 1.345114e+2, -1592685.6, -1718868.9, -12688.2295, 0.0012051663, -0.0039943107, -1591422.4, 30365.764 
5.453082e+2, 1.4450066e+2, -1506381.4, -1638765.4, -13806.723, 0.002001866, -0.00400824, -1504956.9, 18936.457 
5.453053e+2, 1.5448943e+2, -1412226.0, -1542657.9, -13735.923, -0.000043820502, -0.0018978002, -1410795.3, 15208.232 
5.4530245e+2, 1.6447765e+2, -1325507.6, -1461607.6, -14159.36, -0.00093790685, -0.0007618457, -1324050.1, 4068.7869 
5.452995e+2, 1.7446533e+2, -1231447.9, -1365481.6, -14265.334, -0.0004246783, -0.0031693005, -1229946.4, 293.14957 
5.4529655e+2, 1.844525e+2, -1145082.9, -1285206.3, -14095.088, -0.000024726276, -0.0029822942, -1143679.1, -11313.798 
5.452937e+2, 1.9443913e+2, -1050968.0, -1189131.1, -13986.451, 0.00023002364, -0.0017182875, -1049566.4, -15070.117 
5.452908e+2, 2.0442523e+2, -964182.94, -1108151.3, -13770.565, 0.00012151716, -0.00094802125, -962877.6, -26245.156 
5.4528797e+2, 2.1441081e+2, -869732.2, -1011843.3, -13830.113, -0.00044273125, -0.0030450337, -868398.75, -29624.883 
5.452852e+2, 2.2439583e+2, -783196.94, -931606.25, -12709.192, -0.00073300063, -0.0032937687, -782116.44, -41195.73 
5.4528266e+2, 2.343803e+2, -688988.75, -835329.0, -12547.865, -0.0006687349, -0.003755828, -687920.6, -44847.973 
5.452803e+2, 2.4436426e+2, -602635.9, -755261.3, -11100.567, -0.00032194497, -0.0024651506, -601832.75, -56602.676 
5.452781e+2, 2.5434768e+2, -508343.47, -658791.56, -10783.996, 0.00037290857, -0.0011553935, -507574.4, -60181.777 
5.4527605e+2, 2.6433054e+2, -421562.13, -578321.56, -9048.247, -0.00013115813, -0.0005067757, -421041.6, -71480.9 
5.4527426e+2, 2.7431282e+2, -326460.2, -481318.34, -9026.462, -0.0021647038, -0.0031715475, -325935.8, -74201.87 
5.4527277e+2, 2.842945e+2, -241251.55, -404595.06, -6590.7227, -0.0017388428, -0.0034463983, -240986.05, -87072.3 
5.4527164e+2, 2.9427552e+2, -146463.52, -307831.88, -6035.1973, 0.0018133826, -0.003362782, -146238.11, -90138.22 
5.4527074e+2, 3.0425942e+2, -59373.496, -175030.33, -3081.2356, 0.00040612454, -0.0019368026, -59291.465, -59291.465 
5.452702e+2, 3.1424633e+2, -62012.91, -175691.03, -2681.1448, -0.007383692, -0.0009994569, -61949.707, -61949.707 
5.452701e+2, 3.2423785e+2, -508.26816, -42200.9, -786.9816, 0.0036571817, -0.003087561, -493.41855, -493.41855 
5.5533534e+2, 3.458892e+1, -2500379.3, -2605213.8, -1277.3818, 0.0073915278, -0.0022111724, -2500363.8, 100664.625 
5.553347e+2, 4.4583425e+1, -2411017.0, -2522346.0, -3449.3875, -0.00747574, -0.0043507996, -2410910.3, 92171.92 
5.553341e+2, 5.4577506e+1, -2317484.8, -2426861.0, -3874.4966, -0.0011939749, -0.0014556142, -2317347.8, 87792.54 
5.553331e+2, 6.457102e+1, -2230714.0, -2346210.8, -7146.0024, 0.0022348855, -0.00019942992, -2230273.5, 76930.43 
5.553315e+2, 7.456396e+1, -2135470.0, -2249698.8, -7505.805, 0.0024071932, -0.0028909093, -2134979.0, 74293.92 
5.5532986e+2, 8.4556395e+1, -2048530.0, -2168875.0, -9659.195, 0.0014395709, -0.002853826, -2047759.6, 63587.53 
5.5532783e+2, 9.4548327e+1, -1954794.9, -2073051.4, -9794.741, -0.000928784, -0.0017735772, -1953989.1, 59437.17 
5.553255e+2, 1.0453969e+2, -1868302.3, -1992457.9, -11938.949, -0.0012259722, -0.0009856201, -1867164.6, 48346.21 
5.55323e+2, 1.1453053e+2, -1773798.5, -1896232.3, -12106.424, 0.00095506903, -0.0026579536, -1772612.9, 44987.676 
5.553203e+2, 1.2452082e+2, -1687271.6, -1815961.9, -13353.857, 0.0015738275, -0.0027207122, -1685900.6, 33795.16 
5.553175e+2, 1.3451059e+2, -1593175.8, -1719919.6, -13618.611, 0.0002953533, -0.0030530503, -1591729.0, 30067.076 
5.5531454e+2, 1.4449984e+2, -1506250.8, -1638469.3, -14731.292, -0.00053066795, -0.002121047, -1504629.4, 19271.992 
5.5531144e+2, 1.5448861e+2, -1412069.3, -1542305.8, -14667.318, -0.00080272317, -0.0018754022, -1410437.8, 15573.677 
5.553083e+2, 1.6447683e+2, -1325671.5, -1461966.9, -15135.396, -0.00022636043, -0.0012133975, -1324011.0, 4115.9614 
5.5530506e+2, 1.744645e+2, -1231616.3, -1365875.9, -15240.044, 0.0013898864, -0.0023902676, -1229908.1, 339.63538 
5.553019e+2, 1.8445164e+2, -1144903.8, -1284831.6, -15052.697, 0.0010749866, -0.002465875, -1143302.8, -10929.109 
5.552987e+2, 1.9443831e+2, -1050792.8, -1188744.8, -14949.278, -0.0016059644, -0.003328222, -1049191.3, -14686.907 
5.552955e+2, 2.0442441e+2, -964290.44, -1108330.3, -14655.952, -0.0019201362, -0.0024026053, -962814.3, -26173.793 
5.552925e+2, 2.1441e+2, -869859.56, -1012061.4, -14701.609, 0.0007205419, -0.0014878224, -868355.56, -29573.738 
5.552895e+2, 2.2439504e+2, -783013.5, -931169.8, -13650.97, 0.0014172087, -0.000777782, -781766.2, -40837.75 
5.552867e+2, 2.3437954e+2, -688813.4, -834851.0, -13492.886, -0.00033817333, -0.0028785642, -687577.2, -44496.965 
5.55284e+2, 2.4436353e+2, -602194.5, -754218.1, -12047.13, -0.0013926491, -0.0030724162, -601245.75, -56008.484 
5.552815e+2, 2.54347e+2, -507888.3, -657725.2, -11736.726, -0.0015707538, -0.0030479021, -506974.53, -59575.418 
5.5527925e+2, 2.6432988e+2, -421645.9, -578347.25, -9830.437, -0.0012779519, -0.0020638707, -421031.63, -71464.87 
5.552773e+2, 2.7431223e+2, -326588.66, -481429.16, -9785.694, -0.00035687754, -0.0022922668, -325972.66, -74232.8 
5.5527556e+2, 2.8429395e+2, -240528.53, -402903.56, -7414.9414, 0.0004414837, -0.0019982527, -240190.63, -86271.54 
5.552741e+2, 2.9427505e+2, -145709.06, -306031.0, -6875.5376, 0.000999626, -0.0037961267, -145414.75, -89310.63 
5.5527306e+2, 3.042591e+2, -58927.746, -173846.11, -3793.8423, -0.0011468619, -0.0029844795, -58802.633, -58802.633 
5.552723e+2, 3.142461e+2, -61588.273, -174561.69, -3386.5232, -0.0066818264, -0.0009906986, -61486.848, -61486.848 
5.5527186e+2, 3.2423764e+2, -742.8206, -42457.066, -2205.2053, 0.0032819617, -0.004418125, -626.5674, -626.5674 
5.6534445e+2, 3.4588912e+1, -2495654.5, -2604411.5, -186.95761, 0.006583828, -0.002946084, -2495654.3, 105374.3 
5.6534374e+2, 4.4583356e+1, -2407077.0, -2521138.0, -3641.1985, -0.0061071357, -0.0009858118, -2406961.0, 96122.07 
5.6534284e+2, 5.457733e+1, -2313614.3, -2425668.3, -3774.1611, -0.0013713853, -0.0022478076, -2313487.3, 91654.72 
5.6534153e+2, 6.4570755e+1, -2227104.3, -2345150.8, -6447.079, 0.0016162525, -0.0022999079, -2226753.3, 80453.19 
5.6533986e+2, 7.456367e+1, -2132280.3, -2248855.5, -6657.0054, 0.0026338901, -0.0029221985, -2131901.3, 77374.65 
5.653379e+2, 8.4556043e+1, -2045741.0, -2168100.8, -9209.055, 0.0017416166, -0.001979402, -2045051.8, 66298.86 
5.653355e+2, 9.4547915e+1, -1952610.1, -2072565.1, -9506.355, -0.0014691716, -0.0013748972, -1951861.5, 61568.832 
5.65333e+2, 1.0453924e+2, -1866233.3, -1991908.6, -11459.913, -0.0017274402, -0.0010359599, -1865196.9, 50318.47 
5.6533027e+2, 1.1453003e+2, -1771431.9, -1895531.0, -11656.69, 0.0015459255, -0.0031243798, -1770346.4, 47259.11 
5.6532735e+2, 1.2452029e+2, -1685100.9, -1815289.6, -13074.087, 0.002279535, -0.002983422, -1683800.9, 35900.137 
5.653242e+2, 1.3451003e+2, -1591994.1, -1719693.6, -13082.013, -0.00006177783, -0.0023555225, -1590667.8, 31133.898 
5.653209e+2, 1.4449926e+2, -1505546.4, -1638260.1, -14069.722, -0.0011722117, -0.001415616, -1504071.1, 19836.006 
5.653176e+2, 1.5448801e+2, -1411692.8, -1542232.0, -14223.302, -0.0007809888, -0.002318551, -1410161.0, 15856.479 
5.653142e+2, 1.644762e+2, -1325374.0, -1461972.9, -14728.674, 0.000049101844, -0.0019149139, -1323804.0, 4329.0996 
5.6531066e+2, 1.7446387e+2, -1231014.3, -1365736.0, -14748.454, 0.0014103736, -0.002248163, -1229418.6, 835.287 
5.653072e+2, 1.8445101e+2, -1144462.3, -1284547.1, -14750.318, 0.001022977, -0.0020063245, -1142925.9, -10546.141 
5.653037e+2, 1.9443768e+2, -1051424.0, -1188954.4, -14800.236, -0.0015150057, -0.0032161127, -1049849.4, -15338.851 
5.653003e+2, 2.044238e+2, -965398.7, -1108584.4, -14262.09, -0.0018170914, -0.0025864823, -963991.94, -27345.43 
5.6529695e+2, 2.1440941e+2, -871045.6, -1012333.4, -14025.725, 0.0006833136, -0.0018916589, -869666.75, -30879.166 
5.652937e+2, 2.2439449e+2, -784433.56, -931570.5, -12975.143, 0.0013017328, -0.0008867351, -783298.1, -42364.19 
5.652906e+2, 2.3437902e+2, -690654.1, -835474.44, -12896.542, -0.00046168765, -0.0020423648, -689514.6, -46429.277 
5.6528765e+2, 2.4436304e+2, -604217.0, -754698.56, -11547.394, -0.0013996047, -0.0023059067, -603336.06, -58094.01 
5.652849e+2, 2.5434655e+2, -510125.34, -658284.1, -11437.781, -0.0013010838, -0.0036494408, -509247.56, -61843.996 
5.6528234e+2, 2.643295e+2, -424039.44, -578907.1, -9296.992, -0.00091729977, -0.0030307607, -423483.3, -73912.58 
5.6528014e+2, 2.743119e+2, -329175.22, -482091.75, -8839.195, -0.00014267609, -0.0023121622, -328665.97, -76922.766 
5.652782e+2, 2.8429368e+2, -243533.27, -403458.78, -6563.2144, 0.00027971028, -0.0015959296, -243264.38, -89342.625 
5.652765e+2, 2.9427487e+2, -149792.25, -307092.3, -6366.681, 0.00015299878, -0.0036676321, -149534.98, -93429.01 
5.6527513e+2, 3.0425897e+2, -63549.586, -175264.52, -3191.4788, -0.0013885361, -0.0032213954, -63458.484, -63458.484 
5.6527424e+2, 3.1424603e+2, -65911.08, -175852.27, -2837.9224, -0.0046247626, -0.0017216416, -65837.87, -65837.87 
5.652735e+2, 3.242377e+2, -3756.2278, -42737.082, -1809.6357, 0.0022198332, -0.00459105, -3672.3982, -3672.3982 
5.7535374e+2, 3.4589064e+1, -2497410.0, -2608178.8, -561.0673, -0.0034356199, -0.003930813, -2497407.3, 103619.805 
5.753531e+2, 4.4583425e+1, -2407283.3, -2521568.5, -4641.9644, 0.0060950913, 0.0047662333, -2407095.0, 95987.43 
5.753518e+2, 5.45773e+1, -2313663.8, -2425912.3, -4818.496, 0.0011297803, -0.004065678, -2313457.3, 91684.91 
5.7535017e+2, 6.457067e+1, -2227321.3, -2345789.0, -7189.09, -0.0011634508, -0.006068639, -2226886.5, 80320.7 
5.7534826e+2, 7.456358e+1, -2132586.8, -2249552.8, -7385.24, -0.00018215385, -0.0019893392, -2132122.3, 77154.42 
5.75346e+2, 8.4555906e+1, -2046207.1, -2169135.0, -10363.572, 0.00031618067, 0.000061787556, -2045339.5, 66012.44 
5.753434e+2, 9.454768e+1, -1953009.0, -2073583.6, -10672.932, 0.00020034092, -0.0025112662, -1952071.6, 61361.043 
5.7534057e+2, 1.0453893e+2, -1866487.0, -1992564.4, -12225.823, 0.00027236197, -0.0027821509, -1865312.4, 50205.95 
5.753376e+2, 1.145297e+2, -1771751.0, -1896219.4, -12402.507, 0.0005521371, -0.0024077739, -1770527.3, 47081.52 
5.753344e+2, 1.24519944e+2, -1685131.3, -1815298.6, -14231.914, 0.00049491675, -0.0014165612, -1683593.4, 36110.992 
5.753309e+2, 1.3450967e+2, -1591958.6, -1719668.5, -14264.774, 0.000045272816, -0.0018727694, -1590384.6, 31420.408 
5.753274e+2, 1.4449887e+2, -1505770.8, -1638739.6, -15088.32, -0.00016291105, -0.0017511627, -1504080.1, 19830.709 
5.753237e+2, 1.5448758e+2, -1411935.9, -1542758.9, -15233.345, -0.00008991648, -0.0031723857, -1410185.5, 15836.043 
5.7532e+2, 1.6447575e+2, -1325393.3, -1462041.3, -15620.816, -0.000086690095, -0.0028318826, -1323630.3, 4507.102 
5.753163e+2, 1.7446342e+2, -1231079.1, -1365822.5, -15631.404, -0.00017163556, -0.0026658257, -1229289.5, 968.7585 
5.753125e+2, 1.8445058e+2, -1144595.0, -1284744.0, -15960.186, -0.00007253242, -0.0015950656, -1142800.4, -10416.267 
5.7530874e+2, 1.9443724e+2, -1051506.5, -1189133.3, -16024.849, 0.00026853563, -0.0015744611, -1049665.3, -15150.331 
5.75305e+2, 2.0442337e+2, -964980.0, -1107750.3, -15165.63, 0.00017642842, -0.0016385948, -963386.8, -26736.074 
5.753014e+2, 2.1440901e+2, -870650.94, -1011476.4, -14920.372, -0.00044008557, -0.004042584, -869087.5, -30296.09 
5.7529783e+2, 2.2439411e+2, -784379.75, -931327.3, -14031.989, -0.00085706176, -0.0033336869, -783051.9, -42114.47 
5.7529444e+2, 2.3437871e+2, -690627.44, -835263.7, -13953.089, -0.0010104347, -0.0012474346, -689293.7, -46205.25 
5.752912e+2, 2.4436276e+2, -604147.44, -754420.0, -12545.346, -0.00047410492, -0.00031812603, -603107.3, -57862.5 
5.7528824e+2, 2.5434628e+2, -510060.34, -658000.0, -12428.916, 0.0009170159, -0.0030958853, -509023.4, -61617.152 
5.752854e+2, 2.6432925e+2, -423413.38, -577479.0, -10121.983, 0.00076230353, -0.0034686404, -422751.22, -73178.29 
5.752829e+2, 2.7431178e+2, -328570.78, -480609.13, -9658.073, -0.0013765886, -0.0031389773, -327959.72, -76215.35 
5.7528067e+2, 2.8429365e+2, -243376.94, -402878.94, -7672.6353, -0.0020146708, -0.002135081, -243008.7, -89086.59 
5.752787e+2, 2.9427487e+2, -149631.13, -306547.97, -7493.275, -0.00074890984, -0.0030361312, -149274.11, -93168.26 
5.752771e+2, 3.0425903e+2, -63221.504, -174415.53, -3834.2454, -0.00048122086, -0.0027332162, -63089.445, -63089.445 
5.75276e+2, 3.1424615e+2, -65635.45, -175021.66, -3439.4163, -0.001363386, -0.0031259183, -65527.418, -65527.418 
5.75275e+2, 3.2423794e+2, -2485.3599, -39752.54, -2691.6213, 0.0005051253, -0.0037490884, -2291.9612, -2291.9612 
5.853633e+2, 3.4589496e+1, -2491771.3, -2605778.8, -185.69614, -0.004479848, -0.003294887, -2491771.0, 109251.83 
5.853624e+2, 4.4583768e+1, -2404960.5, -2521424.0, -3021.1687, 0.0073121055, 0.0024390148, -2404882.0, 98196.84 
5.853608e+2, 5.457759e+1, -2309179.3, -2424725.8, -3639.709, 0.0017552556, -0.003451788, -2309064.8, 96074.7 
5.85359e+2, 6.457089e+1, -2222575.3, -2344171.0, -6616.1177, -0.0012369198, -0.004494015, -2222216.3, 84988.9 
5.853568e+2, 7.456372e+1, -2130242.8, -2249095.3, -6918.501, -0.0011033878, -0.0017961788, -2129841.3, 79434.06 
5.8535427e+2, 8.4555984e+1, -2044285.4, -2168733.3, -9742.326, -0.00030872918, -0.00043792906, -2043527.3, 67823.91 
5.853514e+2, 9.4547707e+1, -1949337.4, -2072326.3, -9898.5, 0.0012261994, -0.0028856895, -1948545.8, 64886.54 
5.8534825e+2, 1.0453891e+2, -1862954.6, -1991373.5, -11544.916, 0.0013766639, -0.0029315946, -1861925.0, 53593.48 
5.85345e+2, 1.1452963e+2, -1770623.5, -1896204.1, -11747.72, -0.0001318975, -0.0022014698, -1769534.0, 48075.48 
5.853415e+2, 1.2451984e+2, -1684597.8, -1815213.5, -13590.146, -0.0006661599, -0.0011579928, -1683198.8, 36506.684 
5.853377e+2, 1.3450955e+2, -1590422.3, -1719072.4, -13720.977, -0.00001758233, -0.0019136792, -1588975.1, 32831.09 
5.853339e+2, 1.4449874e+2, -1503981.8, -1638295.8, -14613.841, 0.00041819923, -0.0017968824, -1502410.1, 21502.152 
5.8532995e+2, 1.544874e+2, -1410409.5, -1542469.1, -14778.221, 0.000585476, -0.0028843682, -1408776.0, 17247.363 
5.8532596e+2, 1.6447556e+2, -1324530.6, -1461532.6, -15235.141, 0.00017161635, -0.0024904846, -1322856.9, 5282.484 
5.8532184e+2, 1.7446324e+2, -1232105.3, -1366201.8, -15165.652, -0.00095480157, -0.0026085237, -1230411.5, -151.43729 
5.853178e+2, 1.8445039e+2, -1145978.1, -1285323.6, -15258.521, -0.0008031695, -0.0016408822, -1144326.9, -11940.901 
5.8531374e+2, 1.9443706e+2, -1051300.8, -1188945.6, -15195.351, 0.00093027815, -0.0014845191, -1049643.1, -15126.54 
5.853097e+2, 2.044232e+2, -964627.1, -1107482.9, -14554.379, 0.0010459892, -0.0014089954, -963159.4, -26507.012 
5.8530575e+2, 2.1440886e+2, -872040.44, -1012042.5, -14681.82, -0.00084389467, -0.0036836208, -870517.3, -31724.33 
5.8530194e+2, 2.2439398e+2, -786384.44, -931718.2, -13804.36, -0.0015374877, -0.0032152082, -785084.9, -44146.188 
5.8529824e+2, 2.3437864e+2, -692499.8, -835583.75, -13469.332, -0.0007131051, -0.0018099791, -691242.9, -48153.645 
5.852947e+2, 2.4436271e+2, -606114.75, -755032.0, -11845.377, 0.00010957736, -0.0007895184, -605178.44, -59933.24 
5.852914e+2, 2.5434628e+2, -511952.22, -658624.25, -11689.187, 0.00091350934, -0.002496398, -511026.47, -63620.17 
5.8528835e+2, 2.643293e+2, -425742.44, -577766.7, -9520.438, 0.00057711767, -0.0026684923, -425148.53, -75576.055 
5.8528554e+2, 2.743119e+2, -332650.56, -481719.0, -9277.767, -0.0012279905, -0.0032629466, -332075.34, -80332.07 
5.8528304e+2, 2.8429383e+2, -247739.7, -404222.5, -7149.204, -0.0019339649, -0.002481146, -247413.75, -93493.44 
5.852808e+2, 2.9427513e+2, -152115.06, -307028.72, -6789.7847, -0.0012618985, -0.0026789538, -151818.05, -95714.7 
5.852789e+2, 3.0425936e+2, -65537.984, -174566.75, -3038.3325, -0.00034646827, -0.0025926316, -65453.38, -65453.38 
5.852776e+2, 3.1424657e+2, -70242.59, -176266.11, -2514.1848, 0.0010225462, -0.004420753, -70183.01, -70183.01 
5.852763e+2, 3.242385e+2, -7807.642, -40755.668, -1858.6268, -0.0015289614, -0.0027405852, -7703.127, -7703.127 
5.953732e+2, 3.459018e+1, -2490538.8, -2603310.8, -2462.3015, 0.002218659, -0.001238279, -2490485.0, 110531.14 
5.953717e+2, 4.4584355e+1, -2405716.0, -2523331.0, -3589.9805, -0.0010406197, -0.006896272, -2405606.5, 97466.54 
5.9537005e+2, 5.4578143e+1, -2310185.0, -2426912.3, -4113.5073, 0.00071457954, -0.00072473794, -2310040.0, 95093.92 
5.9536797e+2, 6.457136e+1, -2223100.0, -2345309.8, -7930.2573, 0.0010031691, 0.001729199, -2222587.5, 84613.016 
5.953654e+2, 7.456406e+1, -2130651.3, -2250144.5, -8265.178, -0.00038534988, -0.0022479012, -2130082.3, 79189.836 
5.9536254e+2, 8.4556246e+1, -2044383.9, -2169168.0, -10464.857, -0.00025329035, -0.0031496242, -2043512.3, 67836.36 
5.953595e+2, 9.454796e+1, -1949514.5, -2072778.5, -10597.714, 0.0016644923, -0.002593915, -1948610.0, 64819.78 
5.9535617e+2, 1.0453914e+2, -1863294.4, -1992131.9, -12901.772, 0.001682668, -0.0016814795, -1862015.1, 53501.18 
5.953524e+2, 1.14529796e+2, -1770918.0, -1896951.6, -13128.173, -0.0005605051, -0.0024471248, -1769565.1, 48042.773 
5.953486e+2, 1.2451995e+2, -1684720.1, -1815576.1, -14521.823, -0.0013020636, -0.0020455364, -1683127.9, 36576.363 
5.953446e+2, 1.3450964e+2, -1590580.1, -1719438.9, -14632.645, -0.0002518383, -0.0024142044, -1588939.5, 32865.89 
5.9534043e+2, 1.444988e+2, -1504283.9, -1638901.3, -15677.345, 0.00060890894, -0.0015877675, -1502482.1, 21429.463 
5.9533626e+2, 1.5448743e+2, -1410758.6, -1543094.9, -15835.316, 0.0012236101, -0.0015952637, -1408890.1, 17132.893 
5.9533185e+2, 1.6447558e+2, -1324422.6, -1461301.8, -16589.176, 0.00074773177, -0.0010430993, -1322440.8, 5698.4624 
5.953274e+2, 1.7446326e+2, -1231909.4, -1365907.8, -16545.021, -0.0010481381, -0.0021339098, -1229896.8, 363.05255 
5.95323e+2, 1.8445043e+2, -1145788.1, -1284994.9, -16096.871, -0.0012340994, -0.0020860669, -1143951.0, -11565.489 
5.9531873e+2, 1.9443712e+2, -1051202.4, -1188667.1, -16003.887, 0.0005801669, -0.0027673962, -1049363.9, -14847.725 
5.953144e+2, 2.0442326e+2, -964966.6, -1108042.0, -15867.118, 0.0008991189, -0.0018166259, -963228.06, -26576.232 
5.9531003e+2, 2.144089e+2, -872362.7, -1012633.9, -16009.227, -0.00062627863, -0.0011013108, -870558.75, -31766.176 
5.953059e+2, 2.2439404e+2, -785869.8, -930563.06, -14831.847, -0.00092626736, -0.00081496616, -784365.1, -43426.992 
5.953019e+2, 2.3437874e+2, -691970.7, -834331.25, -14490.776, 0.00031645046, -0.0035839577, -690510.7, -47422.465 
5.952981e+2, 2.4436288e+2, -605980.9, -754514.3, -12823.806, 0.0003700284, -0.0034556647, -604881.9, -59638.254 
5.952945e+2, 2.543465e+2, -511881.8, -658170.44, -12656.068, -0.0010977814, -0.0018610058, -510794.97, -63390.848 
5.9529114e+2, 2.6432958e+2, -425521.34, -577129.7, -10779.883, -0.0013000213, -0.0007663054, -424758.7, -75188.91 
5.9528804e+2, 2.743122e+2, -332397.72, -481038.06, -10557.295, 0.00013586537, -0.0027588855, -331651.63, -79911.4 
5.9528524e+2, 2.842942e+2, -247247.23, -403020.66, -7815.64, 0.00023993582, -0.0026532228, -246856.08, -92939.39 
5.9528273e+2, 2.942756e+2, -151693.9, -305825.2, -7411.9365, -0.0014431243, -0.002568895, -151338.3, -95239.47 
5.9528065e+2, 3.0425993e+2, -65046.05, -173186.11, -4214.3765, -0.0009329204, -0.002767326, -64882.06, -64882.06 
5.95279e+2, 3.142472e+2, -69719.25, -174855.89, -3734.1597, 0.0026095202, -0.0056230277, -69586.8, -69586.8 
5.9527737e+2, 3.2423922e+2, -7435.626, -39761.523, -2681.6428, -0.0038847884, -0.0015503996, -7214.677, -7214.677 
6.053831e+2, 3.4591138e+1, -2487751.3, -2603268.3, -1027.4851, 0.004176485, -0.0013221981, -2487742.0, 113264.68 
6.0538137e+2, 4.458522e+1, -2397998.3, -2520451.8, -3498.9358, -0.003446302, -0.006065027, -2397898.3, 105166.31 
6.0537946e+2, 5.4578924e+1, -2306778.8, -2426136.0, -3568.5554, 0.00013244587, -0.00071148964, -2306672.3, 98454.18 
6.053771e+2, 6.4572066e+1, -2220973.0, -2345014.8, -7066.0537, 0.0015896807, 0.0013589528, -2220571.8, 86621.92 
6.053742e+2, 7.4564695e+1, -2126350.0, -2248800.0, -7351.003, 0.0005553853, -0.0024841996, -2125910.3, 83355.64 
6.053711e+2, 8.455682e+1, -2040025.3, -2167734.3, -9629.063, 0.0002544994, -0.0031480778, -2039303.3, 72039.766 
6.0536766e+2, 9.4548476e+1, -1947670.1, -2072565.4, -9973.573, 0.0008111133, -0.0022282158, -1946878.6, 66546.12 
6.05364e+2, 1.045396e+2, -1861971.1, -1991870.0, -12461.442, 0.0007208739, -0.0012207156, -1860786.5, 54725.22 
6.0536e+2, 1.1453023e+2, -1768209.1, -1895993.9, -12563.201, -0.00012806145, -0.0022049719, -1766985.6, 50617.973 
6.0535586e+2, 1.2452034e+2, -1681907.0, -1814721.0, -13860.004, -0.00042442494, -0.0020690504, -1680476.0, 39224.43 
6.053515e+2, 1.3450998e+2, -1588992.1, -1719212.0, -14114.289, -0.000078505036, -0.0027602792, -1587479.9, 34322.184 
6.0534704e+2, 1.444991e+2, -1503477.0, -1638523.8, -15226.967, 0.0002787429, -0.0019096659, -1501781.4, 22127.217 
6.0534245e+2, 1.5448774e+2, -1410953.9, -1543172.4, -15087.049, 0.0006406662, -0.0014663987, -1409254.1, 16765.777 
6.0533774e+2, 1.6447589e+2, -1324587.1, -1461547.0, -15720.107, 0.00046088785, -0.00073553564, -1322805.9, 5330.1895 
6.0533303e+2, 1.7446356e+2, -1230430.3, -1365361.3, -15934.339, -0.0003749953, -0.0019891611, -1228574.1, 1682.8776 
6.053283e+2, 1.8445073e+2, -1144414.0, -1284240.4, -15720.533, -0.0005640924, -0.0020699473, -1142668.4, -10285.648 
6.053236e+2, 1.9443741e+2, -1052562.3, -1189226.4, -15720.348, 0.000050773273, -0.0028366535, -1050777.3, -16264.026 
6.0531896e+2, 2.0442356e+2, -967150.25, -1108792.8, -15404.242, 0.00017967806, -0.0018015994, -965494.3, -28845.512 
6.053143e+2, 2.1440925e+2, -873264.1, -1012764.3, -15088.322, -0.00028294505, -0.0007735245, -871650.8, -32861.555 
6.053099e+2, 2.2439441e+2, -786536.3, -930724.06, -13866.452, -0.00022782799, -0.00043126504, -785214.9, -44280.29 
6.0530555e+2, 2.343791e+2, -693560.75, -834944.75, -14016.673, 0.0004712464, -0.0034733436, -692184.5, -49100.008 
6.0530144e+2, 2.443633e+2, -608174.7, -754850.6, -12484.303, 0.00012262864, -0.003481521, -607119.7, -61880.156 
6.052975e+2, 2.54347e+2, -515078.9, -658963.25, -12067.72, -0.0015633998, -0.0018175952, -514073.78, -66674.42 
6.052938e+2, 2.6433015e+2, -428917.94, -578221.2, -10034.001, -0.001476377, -0.00064103835, -428246.6, -78682.13 
6.052904e+2, 2.7431276e+2, -334389.97, -481504.66, -9863.171, 0.00090049044, -0.002553846, -333731.66, -81997.17 
6.052873e+2, 2.8429484e+2, -249318.3, -403158.1, -7088.1797, 0.0009402698, -0.002358314, -248992.4, -95082.03 
6.052845e+2, 2.9427633e+2, -156366.6, -307189.28, -6738.1284, -0.002116157, -0.0021676393, -156066.16, -99974.43 
6.052821e+2, 3.0426073e+2, -70557.695, -174734.75, -3637.1284, -0.0015344985, -0.0022826411, -70430.87, -70430.87 
6.052802e+2, 3.142481e+2, -74061.62, -175835.13, -3172.8276, 0.0039493614, -0.005068395, -73962.8, -73962.8 
6.052783e+2, 3.2424024e+2, -10680.107, -40901.305, -1730.7732, -0.004776333, -0.0013976711, -10581.309, -10581.309 
6.1539316e+2, 3.4592333e+1, -2490151.0, -2608504.8, -55.36747, 0.002005718, -0.0032177467, -2490151.0, 110844.016 
6.153914e+2, 4.4586334e+1, -2398277.0, -2520922.0, -4972.7866, -0.0007341596, 0.0035354146, -2398075.8, 104978.2 
6.15389e+2, 5.45799e+1, -2306806.3, -2426326.5, -5163.049, -0.00008486265, -0.0030485601, -2306583.8, 98533.18 
6.1538625e+2, 6.4572966e+1, -2221237.0, -2345805.3, -7872.047, 0.0007141415, -0.0047046742, -2220741.5, 86443.29 
6.153832e+2, 7.456559e+1, -2126712.3, -2249658.3, -8122.246, 0.001678615, -0.002529364, -2126178.0, 83079.14 
6.1537975e+2, 8.4557664e+1, -2040609.9, -2169006.8, -10955.646, 0.0011354892, -0.00079709175, -2039681.8, 71652.97 
6.1537594e+2, 9.4549215e+1, -1948234.9, -2073840.9, -11313.511, -0.0011871343, -0.0017977762, -1947224.0, 66193.52 
6.153719e+2, 1.0454027e+2, -1862021.1, -1992122.4, -13469.47, -0.0013576193, -0.0014392278, -1860641.3, 54863.863 
6.153676e+2, 1.1453089e+2, -1768268.1, -1896219.6, -13561.938, 0.001038601, -0.001545406, -1766846.4, 50750.69 
6.153632e+2, 1.2452097e+2, -1682327.1, -1815658.1, -15077.26, 0.0017537206, -0.0013395107, -1680643.5, 39050.855 
6.1535853e+2, 1.3451053e+2, -1589456.0, -1720193.8, -15327.071, 0.00043066317, -0.0029696156, -1587683.1, 34113.477 
6.153537e+2, 1.4449963e+2, -1503196.4, -1637994.4, -16542.11, -0.00052552973, -0.002697019, -1501196.0, 22707.36 
6.153487e+2, 1.5448831e+2, -1410612.8, -1542548.5, -16421.139, -0.0010355209, -0.002357675, -1408599.6, 17414.715 
6.153437e+2, 1.6447645e+2, -1324891.5, -1462231.9, -16679.451, -0.0006132234, -0.0014299061, -1322894.9, 5235.6094 
6.153387e+2, 1.7446408e+2, -1230833.0, -1366168.3, -16862.162, 0.0009562035, -0.0021335694, -1228763.8, 1488.1084 
6.153336e+2, 1.8445122e+2, -1144506.3, -1284363.6, -17201.88, 0.0010487582, -0.0016436575, -1142421.6, -10043.74 
6.1532855e+2, 1.944379e+2, -1052586.6, -1189287.8, -17230.84, -0.00066022394, -0.0018412394, -1050448.1, -15939.776 
6.153235e+2, 2.044241e+2, -966574.7, -1107595.1, -16422.275, -0.0010713163, -0.0014170457, -964687.5, -28043.893 
6.153186e+2, 2.1440984e+2, -872707.1, -1011523.0, -16089.578, 0.0001491695, -0.0024442181, -870866.6, -32083.277 
6.153138e+2, 2.2439505e+2, -786910.9, -931337.25, -15116.669, 0.0005202574, -0.0018329286, -785345.6, -44417.227 
6.153091e+2, 2.3437972e+2, -693989.5, -835675.75, -15262.737, -0.00017852467, -0.0016953865, -692364.0, -49285.46 
6.1530465e+2, 2.4436392e+2, -607603.2, -753527.7, -13710.639, -0.0005988674, -0.0011598853, -606326.2, -61092.78 
6.1530036e+2, 2.5434768e+2, -514450.34, -657509.56, -13307.791, -0.00068403076, -0.0023111734, -513222.94, -65830.516 
6.1529636e+2, 2.643309e+2, -428732.25, -577690.0, -10967.485, -0.00017498915, -0.0021051427, -427929.06, -78372.164 
6.1529267e+2, 2.743136e+2, -334286.13, -481057.88, -10766.324, 0.0011044467, -0.0026160805, -333500.6, -81774.125 
6.152893e+2, 2.842957e+2, -248964.86, -402241.88, -8373.209, 0.00029163723, -0.001646474, -248508.81, -94607.02 
6.1528605e+2, 2.9427728e+2, -155967.83, -306225.13, -8054.517, -0.0032636651, -0.0015087632, -155537.31, -99454.85 
6.1528337e+2, 3.0426177e+2, -69991.445, -173362.38, -4570.6377, -0.0021957934, -0.0012106916, -69789.74, -69789.74 
6.152812e+2, 3.1424928e+2, -73521.3, -174466.58, -4080.3682, 0.005049524, -0.0029518693, -73356.625, -73356.625 
6.152792e+2, 3.242414e+2, -10845.291, -40895.34, -2016.9685, -0.0044158427, -0.00218362, -10710.516, -10710.516 
6.254035e+2, 3.4593827e+1, -2482439.8, -2605668.5, 471.6959, -0.000322477, -0.003282619, -2482437.8, 118542.53 
6.254014e+2, 4.4587743e+1, -2397350.0, -2521314.3, -3498.483, 0.0027729138, 0.0037694501, -2397251.5, 105788.63 
6.2539864e+2, 5.4581225e+1, -2302389.8, -2425026.0, -4091.9417, -0.000052841628, -0.003351137, -2302253.5, 102850.47 
6.253956e+2, 6.457422e+1, -2215881.0, -2343971.5, -7027.8955, -0.0006264831, -0.0050250026, -2215496.8, 91675.88 
6.253922e+2, 7.456677e+1, -2123519.3, -2248889.0, -7348.68, 0.0014160327, -0.0022287301, -2123089.8, 86155.57 
6.253885e+2, 8.4558785e+1, -2038168.6, -2168428.0, -10283.67, 0.0014173554, -0.000378445, -2037361.8, 73962.03 
6.2538433e+2, 9.4550276e+1, -1945113.6, -2072942.3, -10417.663, -0.0009947346, -0.0018598458, -1944270.3, 69136.97 
6.253799e+2, 1.0454128e+2, -1858959.4, -1991176.6, -12435.169, -0.0012853676, -0.0017541746, -1857800.0, 57695.3 
6.253754e+2, 1.14531845e+2, -1766129.8, -1895739.4, -12758.72, 0.0009550636, -0.0018351569, -1764885.6, 52702.07 
6.2537056e+2, 1.2452189e+2, -1680760.0, -1815182.4, -14441.415, 0.0016263268, -0.0013272786, -1679226.1, 40459.258 
6.2536556e+2, 1.3451143e+2, -1588444.9, -1719976.1, -14415.7, 0.000394799, -0.002334788, -1586883.5, 34904.35 
6.2536037e+2, 1.4450052e+2, -1502179.1, -1637779.9, -15608.001, -0.0005272793, -0.0020648758, -1500405.9, 23489.014 
6.2535506e+2, 1.5448914e+2, -1408881.6, -1541998.6, -15943.533, -0.0010723717, -0.0024681312, -1406998.6, 19007.428 
6.2534964e+2, 1.6447727e+2, -1323581.4, -1461628.5, -16312.672, -0.00064042327, -0.0018421513, -1321680.0, 6442.499 
6.253443e+2, 1.7446491e+2, -1231720.5, -1366611.0, -16148.579, 0.0009874221, -0.0023180372, -1229814.3, 429.50934 
6.253389e+2, 1.8445206e+2, -1145917.5, -1285021.8, -16348.597, 0.0010613016, -0.0015432292, -1144021.9, -11652.096 
6.253334e+2, 1.9443874e+2, -1052540.4, -1189224.6, -16339.581, -0.00077528367, -0.0013884378, -1050614.3, -16114.068 
6.2532806e+2, 2.0442496e+2, -966285.2, -1107215.9, -15624.707, -0.0011540401, -0.0011092913, -964573.7, -27938.365 
6.253228e+2, 2.144107e+2, -874046.6, -1011924.0, -15724.549, 0.00029504846, -0.0028862178, -872276.0, -33501.09 
6.253177e+2, 2.2439593e+2, -788985.5, -931985.5, -14751.351, 0.00061241846, -0.0022114115, -787479.7, -46559.977 
6.253126e+2, 2.3438066e+2, -695851.5, -836202.06, -14335.231, -0.0004962428, -0.0009898692, -694402.3, -51332.848 
6.253078e+2, 2.443649e+2, -609423.3, -754063.4, -12714.015, -0.00080546725, -0.00024448233, -608314.25, -63090.3 
6.2530315e+2, 2.5434867e+2, -516427.75, -658133.25, -12800.595, -0.00012033267, -0.0022967397, -515280.72, -67897.97 
6.2529886e+2, 2.6433194e+2, -431192.5, -578091.6, -10480.747, 0.00034392125, -0.0023006585, -430448.5, -80901.74 
6.252948e+2, 2.7431473e+2, -338211.16, -482134.38, -10023.837, 0.0005321236, -0.0021129898, -337516.38, -85800.836 
6.25291e+2, 2.842969e+2, -253302.98, -403602.47, -7558.1035, -0.0004487543, -0.0010526734, -252923.88, -99033.69 
6.252876e+2, 2.9427853e+2, -159183.39, -307056.7, -7310.3403, -0.0029670207, -0.001614717, -158822.88, -102752.57 
6.2528455e+2, 3.042631e+2, -72959.11, -173914.53, -3860.2458, -0.001525426, -0.0009932452, -72811.72, -72811.72 
6.252821e+2, 3.1425068e+2, -77758.945, -175637.0, -3500.8064, 0.0051787375, -0.0010629017, -77633.89, -77633.89 
6.252797e+2, 3.242429e+2, -16265.253, -42376.863, -605.4346, -0.0048336904, -0.0021880702, -16251.223, -16251.223 
6.3541406e+2, 3.4595567e+1, -2481383.5, -2603498.5, -2666.3113, -0.0028229372, -0.001777619, -2481325.3, 119637.97 
6.354115e+2, 4.458941e+1, -2397961.8, -2522949.5, -4276.4414, 0.0069278716, -0.004008411, -2397815.5, 105208.086 
6.354085e+2, 5.458285e+1, -2303205.8, -2426888.3, -4756.478, 0.00016338458, -0.0019058336, -2303023.3, 102064.76 
6.354051e+2, 6.457577e+1, -2216399.0, -2345143.0, -8326.578, -0.0023943423, -0.00041565383, -2215862.8, 91294.62 
6.354014e+2, 7.4568206e+1, -2124007.5, -2250020.3, -8671.342, -0.000051762767, -0.0016341927, -2123413.5, 85817.87 
6.353973e+2, 8.456015e+1, -2038262.6, -2168779.8, -11446.619, 0.0011613509, -0.0016222934, -2037266.4, 74044.07 
6.353929e+2, 9.455162e+1, -1945214.5, -2073264.8, -11579.115, 0.0010645034, -0.0023489986, -1944175.9, 69218.11 
6.353882e+2, 1.0454258e+2, -1859447.5, -1992307.1, -13674.516, 0.00062994217, -0.002151592, -1858054.6, 57427.902 
6.353832e+2, 1.1453305e+2, -1766671.6, -1896914.6, -13986.706, -0.00022589031, -0.0029474325, -1765186.5, 52389.395 
6.35378e+2, 1.24523066e+2, -1680667.4, -1815071.4, -15794.13, -0.00052088674, -0.0019390978, -1678836.3, 40837.59 
6.3537264e+2, 1.3451263e+2, -1588303.0, -1719792.3, -15782.64, -0.00013335454, -0.00097592524, -1586435.1, 35340.95 
6.3536704e+2, 1.4450167e+2, -1502689.5, -1638943.6, -16755.078, 0.00015021094, -0.00020514012, -1500659.4, 23223.92 
6.3536143e+2, 1.5449023e+2, -1409481.5, -1543266.5, -17062.426, 0.00029857596, -0.0018990843, -1407339.8, 18655.805 
6.353557e+2, 1.6447833e+2, -1323336.6, -1461104.9, -17782.578, 0.0002165761, -0.002008591, -1321078.3, 7033.9614 
6.353499e+2, 1.7446598e+2, -1231392.5, -1365985.5, -17650.39, -0.00013803296, -0.0025412734, -1229116.4, 1116.7578 
6.353441e+2, 1.8445316e+2, -1145835.8, -1284882.1, -17493.252, -0.00035671584, -0.0017275474, -1143668.8, -11309.895 
6.353383e+2, 1.9443986e+2, -1052523.8, -1189132.0, -17459.66, -0.00038668042, -0.0014167082, -1050327.6, -15838.3955 
6.353326e+2, 2.0442607e+2, -966578.7, -1107667.4, -17021.078, -0.00023003248, -0.0008719313, -964554.25, -27929.838 
6.35327e+2, 2.144118e+2, -874344.06, -1012408.75, -17128.617, 0.00016989693, -0.0022468246, -872250.75, -33486.41 
6.3532144e+2, 2.2439705e+2, -788354.94, -930559.3, -15943.557, 0.000105077816, -0.0016859636, -786589.3, -45680.438 
6.35316e+2, 2.3438187e+2, -695194.6, -834681.5, -15527.901, -0.00054216094, -0.0012385964, -693487.0, -50429.383 
6.353108e+2, 2.4436615e+2, -609703.6, -754416.75, -13985.982, -0.0005773286, -0.00057615864, -608364.3, -63152.707 
6.353058e+2, 2.5434992e+2, -516763.78, -658615.8, -14062.079, 0.00013404134, -0.001835552, -515383.22, -68012.5 
6.353012e+2, 2.6433322e+2, -430600.16, -576767.4, -11759.691, 0.00013730788, -0.0013716371, -429660.1, -80125.68 
6.3529676e+2, 2.743161e+2, -337574.9, -480692.6, -11316.039, -0.000753222, -0.0011136269, -336685.72, -84983.55 
6.3529265e+2, 2.8429833e+2, -253030.23, -402818.53, -8589.166, -0.0013010913, -0.00057339494, -252539.31, -98663.29 
6.3528895e+2, 2.9428e+2, -158957.78, -306337.53, -8317.165, -0.0014012591, -0.0024063562, -158489.9, -102434.16 
6.352856e+2, 3.0426463e+2, -72692.56, -173051.44, -5078.2085, 0.00030831492, -0.0015361249, -72436.26, -72436.26 
6.3528275e+2, 3.1425232e+2, -77501.65, -174767.25, -4738.1416, 0.004418337, 0.0006141719, -77271.38, -77271.38 
6.3528013e+2, 3.2424462e+2, -15175.141, -39768.79, -1246.4963, -0.005976549, -0.0015343504, -15112.125, -15112.125 
6.454248e+2, 3.4597698e+1, -2478940.0, -2602964.3, -1325.8926, -0.0008604832, -0.0016766964, -2478925.8, 122016.61 
6.454218e+2, 4.4591454e+1, -2390348.5, -2520329.8, -3373.8257, 0.0036474518, -0.0046222312, -2390261.0, 112742.54 
6.454186e+2, 5.458481e+1, -2298624.0, -2425795.8, -3652.5564, 0.00077332725, -0.0014477542, -2298519.3, 106549.58 
6.454149e+2, 6.457764e+1, -2213152.8, -2344410.8, -7282.4897, -0.00071229436, 0.00021647559, -2212749.8, 94389.16 
6.454108e+2, 7.4569994e+1, -2120449.0, -2249130.0, -7613.3467, -0.00064224954, -0.0018898858, -2120000.3, 89213.81 
6.454063e+2, 8.456186e+1, -2034620.9, -2167635.5, -10422.33, 0.0000858113, -0.0020856005, -2033809.1, 77484.49 
6.4540154e+2, 9.4553286e+1, -1942038.9, -2072364.9, -10774.353, 0.0016194626, -0.0022029292, -1941154.1, 72223.53 
6.453965e+2, 1.0454419e+2, -1856815.3, -1991544.3, -12998.443, 0.0015080234, -0.0017200628, -1855572.6, 59894.11 
6.453911e+2, 1.1453462e+2, -1764800.4, -1896535.8, -13090.527, -0.00057897315, -0.002613319, -1763512.1, 54048.48 
6.453855e+2, 1.2452458e+2, -1678922.3, -1814547.6, -14853.208, -0.0012473112, -0.0018526189, -1677314.6, 42344.316 
6.453798e+2, 1.3451411e+2, -1586111.6, -1719053.5, -15121.935, -0.00020233038, -0.001295908, -1584413.1, 37348.297 
6.453738e+2, 1.4450315e+2, -1500910.0, -1638378.3, -16111.922, 0.00049963157, -0.0004572509, -1499046.9, 24822.201 
6.4536786e+2, 1.5449166e+2, -1409194.4, -1543419.4, -16031.404, 0.00077321124, -0.0015391, -1407306.1, 18675.3 
6.453618e+2, 1.6447975e+2, -1323367.9, -1461193.8, -16742.225, 0.00041582214, -0.0013986854, -1321363.4, 6735.005 
6.453555e+2, 1.7446741e+2, -1230696.4, -1365699.9, -16938.98, -0.0007068142, -0.0021126838, -1228603.5, 1615.8137 
6.453494e+2, 1.8445458e+2, -1145209.0, -1284432.4, -16859.344, -0.0008854193, -0.001569752, -1143196.5, -10851.487 
6.453432e+2, 1.9444129e+2, -1053212.9, -1189320.9, -16785.727, 0.00010960804, -0.0016272417, -1051173.4, -16698.11 
6.453371e+2, 2.0442751e+2, -967896.44, -1108303.1, -16279.276, 0.00038110817, -0.00096262107, -966033.7, -29423.293 
6.45331e+2, 2.1441324e+2, -875283.06, -1012864.1, -16156.177, -0.00024300316, -0.0016272308, -873411.3, -34661.09 
6.453251e+2, 2.2439851e+2, -789300.2, -930524.3, -15012.932, -0.00048939977, -0.0011330624, -787721.8, -46827.324 
6.453194e+2, 2.3438336e+2, -697263.1, -835183.94, -15016.476, -0.0002685125, -0.0017078796, -695647.06, -52604.2 
6.4531386e+2, 2.4436769e+2, -612384.9, -755289.4, -13396.1455, -0.00016114699, -0.001117962, -611139.94, -65943.44 
6.453085e+2, 2.543515e+2, -519247.56, -659385.8, -12995.58, -0.00021168485, -0.0012453095, -518052.63, -70697.48 
6.453034e+2, 2.6433483e+2, -433102.5, -577396.3, -10695.371, -0.00036191056, -0.0004926924, -432314.03, -82795.63 
6.4529866e+2, 2.7431777e+2, -340565.06, -481553.2, -10636.126, -0.0006416083, -0.0010180457, -339767.2, -88081.45 
6.452942e+2, 2.843001e+2, -256385.81, -403517.56, -7797.736, -0.0009157939, -0.0007882044, -255973.7, -102114.68 
6.4529014e+2, 2.9428184e+2, -162902.66, -307306.44, -7340.2646, -0.0011706845, -0.0023156973, -162530.5, -106492.58 
6.4528644e+2, 3.0426654e+2, -77197.99, -174573.36, -4205.583, 0.000018820692, -0.00114697, -77016.69, -77016.69 
6.452832e+2, 3.1425428e+2, -82258.164, -176398.88, -3948.1172, 0.0030784097, 0.0012753308, -82092.875, -82092.875 
6.4528036e+2, 3.2424667e+2, -20061.264, -40544.605, -213.18237, -0.004797391, -0.0012604352, -20059.045, -20059.045 
6.554357e+2, 3.4600174e+1, -2480419.5, -2606337.5, -1117.4717, 0.004820309, -0.0027266266, -2480409.8, 120508.48 
6.5543234e+2, 4.4593835e+1, -2390884.8, -2521513.5, -4768.7856, -0.0059556095, 0.0008453031, -2390710.8, 112269.445 
6.554288e+2, 5.4587054e+1, -2299070.3, -2426865.0, -5115.5376, 0.0016897833, -0.0018350593, -2298865.8, 106181.016 
6.5542483e+2, 6.457978e+1, -2213535.0, -2345452.0, -8532.8545, 0.0038691934, -0.002530678, -2212985.3, 94132.67 
6.554203e+2, 7.457208e+1, -2120864.3, -2250175.5, -8849.453, -0.00049759215, -0.0028655876, -2120261.5, 88932.03 
6.554155e+2, 8.456388e+1, -2035135.1, -2168846.5, -11694.496, -0.001707855, -0.0018786966, -2034120.0, 77153.766 
6.554103e+2, 9.4555223e+1, -1942590.6, -2073584.8, -12039.149, 0.0008608575, -0.0015239106, -1941493.4, 71865.33 
6.5540487e+2, 1.04546085e+2, -1856887.5, -1991832.6, -14416.179, 0.0014770607, -0.0005825598, -1855364.6, 60083.65 
6.55399e+2, 1.14536494e+2, -1764853.8, -1896763.6, -14516.138, -0.0002374772, -0.0010450342, -1763275.3, 54267.027 
6.553931e+2, 1.2452641e+2, -1679297.0, -1815465.8, -16101.57, -0.00077134545, -0.0011699033, -1677418.9, 42222.13 
6.5538704e+2, 1.3451585e+2, -1586560.3, -1720022.9, -16350.386, 0.00010749763, -0.0030669975, -1584586.4, 37158.094 
6.553807e+2, 1.4450485e+2, -1500766.3, -1638134.0, -17608.352, 0.00054837944, -0.0025383348, -1498545.0, 25307.3 
6.553743e+2, 1.5449342e+2, -1409000.6, -1543093.4, -17546.018, 0.0004474663, -0.0013611804, -1406742.8, 19221.625 
6.5536773e+2, 1.644815e+2, -1323657.6, -1461815.0, -18050.152, 0.000013559044, -0.000117154355, -1321338.4, 6742.8193 
6.5536124e+2, 1.7446911e+2, -1231040.6, -1366396.1, -18227.951, -0.0008058068, -0.0011233415, -1228628.9, 1573.709 
6.553546e+2, 1.8445626e+2, -1145131.3, -1284231.1, -18302.598, -0.00065943337, -0.0011149106, -1142763.4, -10434.806 
6.55348e+2, 1.9444297e+2, -1053103.6, -1189072.4, -18242.896, 0.0006760986, -0.0019999514, -1050698.5, -16239.831 
6.5534157e+2, 2.0442921e+2, -967725.44, -1107866.5, -17588.246, 0.00068861834, -0.0013439547, -965551.8, -28958.209 
6.5533507e+2, 2.1441498e+2, -875148.44, -1012431.44, -17452.385, -0.0009297487, -0.0010334898, -872964.5, -34231.49 
6.553288e+2, 2.2440027e+2, -789416.7, -930635.5, -16484.215, -0.0011811804, -0.00055602094, -787518.06, -46640.86 
6.553226e+2, 2.3438512e+2, -697375.06, -835325.25, -16495.018, 0.00026228355, -0.0023737277, -695430.1, -52404.38 
6.553167e+2, 2.4436948e+2, -611796.2, -753989.7, -14614.544, 0.0003999816, -0.0018473918, -610309.7, -65130.645 
6.55311e+2, 2.543534e+2, -518667.84, -658005.7, -14203.03, -0.0011151372, -0.00055451726, -517234.84, -69898.28 
6.5530556e+2, 2.643368e+2, -433156.72, -577354.56, -12099.212, -0.0011554218, 0.00033046235, -432148.56, -82649.3 
6.553004e+2, 2.743197e+2, -340669.38, -481588.25, -12042.022, 0.0006876031, -0.0017249833, -339647.75, -87981.02 
6.552956e+2, 2.8430206e+2, -255825.97, -402221.47, -8969.071, 0.00054095784, -0.001619079, -255278.52, -101438.93 
6.5529114e+2, 2.9428393e+2, -162340.89, -305930.47, -8502.653, -0.0021629918, -0.0014330739, -161839.16, -105821.83 
6.552871e+2, 3.0426872e+2, -77041.69, -173913.13, -5482.966, -0.0022067244, 0.00007160393, -76732.336, -76732.336 
6.552835e+2, 3.142565e+2, -82124.58, -175796.52, -5223.6704, 0.0012043655, 0.0010330646, -81834.18, -81834.18 
6.5528035e+2, 3.2424897e+2, -19553.617, -39165.492, -1201.6245, -0.0015786218, -0.0012919772, -19480.268, -19480.268 
6.6544676e+2, 3.4602985e+1, -2473379.5, -2604418.0, -5.6943936, 0.004008904, -0.0019089067, -2473379.5, 127511.12 
6.654432e+2, 4.459651e+1, -2387519.5, -2520831.0, -3690.9585, -0.004070161, 0.000069811314, -2387417.3, 115536.74 
6.654392e+2, 5.4589653e+1, -2294799.8, -2425732.5, -4118.461, 0.00091042754, -0.0020280515, -2294670.3, 110351.07 
6.6543484e+2, 6.458231e+1, -2208962.5, -2343970.0, -7550.626, 0.0026087966, -0.0022856847, -2208541.5, 98551.69 
6.6542995e+2, 7.457455e+1, -2116914.5, -2249012.8, -7836.9297, 0.00030296837, -0.0023348865, -2116451.0, 92718.24 
6.6542476e+2, 8.456628e+1, -2031811.0, -2168007.5, -10651.051, -0.00062408095, -0.0014486811, -2030983.0, 80267.36 
6.6541916e+2, 9.4557536e+1, -1939821.1, -2073046.9, -10905.325, 0.00013170292, -0.0016479219, -1938934.4, 74401.66 
6.654133e+2, 1.0454834e+2, -1854172.0, -1990984.5, -13350.968, 0.0004154119, -0.0008613819, -1852881.4, 62544.863 
6.654072e+2, 1.14538714e+2, -1761958.5, -1895836.0, -13620.119, 0.00013357411, -0.0009978756, -1760586.9, 56933.63 
6.654008e+2, 1.2452859e+2, -1676933.5, -1814775.9, -15244.72, 0.000056093413, -0.00093689293, -1675267.6, 44352.094 
6.653943e+2, 1.34518e+2, -1585517.0, -1720003.8, -15346.049, 0.00021259191, -0.0028177502, -1583788.1, 37935.48 
6.653876e+2, 1.4450696e+2, -1500009.8, -1637850.6, -16623.168, 0.00015895763, -0.0024502585, -1498033.4, 25798.36 
6.653807e+2, 1.5449551e+2, -1407744.1, -1542557.5, -16766.004, -0.00015415989, -0.0016472338, -1405690.4, 20253.506 
6.6537386e+2, 1.6448358e+2, -1322611.3, -1461464.4, -17280.988, -0.00030509388, -0.00044877367, -1320492.8, 7567.955 
6.653668e+2, 1.7447117e+2, -1231023.4, -1366538.5, -17232.094, -0.0002443309, -0.0010999718, -1228866.5, 1315.8833 
6.6535985e+2, 1.8445833e+2, -1145552.3, -1284516.3, -17259.154, -0.00006289572, -0.0009608311, -1143440.9, -11132.484 
6.653528e+2, 1.9444504e+2, -1053414.5, -1189291.9, -17356.994, 0.00025876472, -0.001995054, -1051232.4, -16793.818 
6.6534597e+2, 2.044313e+2, -968163.94, -1107667.3, -16776.72, 0.00006943568, -0.0014102211, -966174.75, -29601.438 
6.653391e+2, 2.144171e+2, -876640.1, -1012741.5, -16591.898, -0.00075073174, -0.0010653146, -874646.6, -35934.25 
6.653324e+2, 2.244024e+2, -791478.9, -931533.5, -15496.283, -0.0007872968, -0.00045644338, -789784.75, -48928.5 
6.653259e+2, 2.3438725e+2, -698873.4, -835969.0, -15405.819, 0.0001375941, -0.002018263, -697163.5, -54158.727 
6.653195e+2, 2.4437164e+2, -613220.44, -754022.56, -13577.874, 0.00010468175, -0.001640254, -611923.06, -66765.32 
6.653134e+2, 2.5435564e+2, -521428.53, -658671.6, -13430.9795, -0.0011346338, -0.000987178, -520126.5, -72811.76 
6.653076e+2, 2.643391e+2, -436621.6, -578463.75, -11286.675, -0.0011034094, -0.000125864, -435729.1, -86252.21 
6.65302e+2, 2.7432206e+2, -343665.56, -482508.44, -10931.463, 0.0005415681, -0.0014314629, -342810.2, -91166.305 
6.652968e+2, 2.8430447e+2, -258941.42, -403062.06, -7793.29, 0.0004731276, -0.00097545376, -258521.22, -104705.04 
6.6529197e+2, 2.9428637e+2, -166663.44, -307318.56, -7600.266, -0.0017996384, -0.0009579957, -166253.95, -110260.61 
6.652876e+2, 3.0427125e+2, -81645.234, -175062.94, -4505.8794, -0.0022786064, 0.000081312995, -81428.41, -81428.41 
6.652836e+2, 3.1425908e+2, -86412.1, -176800.33, -3873.976, -0.0004616725, 0.00020597008, -86246.37, -86246.37 
6.652801e+2, 3.2425168e+2, -24701.676, -41082.95, 229.13574, -0.000042293595, -0.0007296979, -24698.47, -24698.47 
6.7545813e+2, 3.460609e+1, -2473685.3, -2605190.3, -1952.8738, -0.0022634892, 0.00047690148, -2473656.3, 127203.945 
6.754542e+2, 4.4599462e+1, -2388010.8, -2522116.3, -4924.984, 0.007460469, -0.005950783, -2387830.0, 115095.09 
6.754498e+2, 5.459256e+1, -2295357.3, -2427050.3, -5319.024, -0.001327823, -0.0020543714, -2295142.8, 109850.09 
6.7544496e+2, 6.4585173e+1, -2209318.3, -2344894.0, -8931.995, -0.0036030586, 0.00048356372, -2208732.3, 98332.875 
6.754398e+2, 7.457733e+1, -2117263.3, -2249906.3, -9227.978, 0.0016453853, -0.0005320113, -2116624.3, 92517.766 
6.754342e+2, 8.4568983e+1, -2032122.3, -2168830.0, -12067.663, 0.0028738424, -0.0008282209, -2031065.1, 80158.67 
6.7542815e+2, 9.456017e+1, -1940164.1, -2073863.1, -12316.507, -0.00059602223, -0.0024573014, -1939039.0, 74271.2 
6.754219e+2, 1.0455091e+2, -1854548.5, -1991896.6, -14727.476, -0.0015404908, -0.002345872, -1852987.1, 62413.867 
6.7541534e+2, 1.1454122e+2, -1762371.6, -1896754.6, -14988.045, 0.00051262195, -0.002259937, -1760720.3, 56775.734 
6.754086e+2, 1.2453106e+2, -1677072.6, -1815136.5, -16810.514, 0.0011577067, -0.0010969328, -1675055.3, 44540.266 
6.754016e+2, 1.3452046e+2, -1585630.0, -1720325.4, -16919.145, 0.000120877696, -0.00084257324, -1583537.4, 38162.05 
6.753945e+2, 1.445094e+2, -1500179.4, -1638329.9, -18005.82, -0.00062534877, -0.00050541863, -1497871.1, 25936.645 
6.7538726e+2, 1.5449789e+2, -1407964.1, -1543063.0, -18135.904, -0.0010152472, -0.002337501, -1405571.9, 20348.59 
6.753799e+2, 1.6448595e+2, -1322533.8, -1461274.8, -18822.95, -0.00057704706, -0.002178419, -1320025.4, 8012.173 
6.753725e+2, 1.7447357e+2, -1230918.8, -1366309.3, -18787.37, 0.00086836296, -0.0019196142, -1228360.1, 1798.7827 
6.753651e+2, 1.8446071e+2, -1145730.3, -1284860.5, -18684.633, 0.0008274015, -0.0010713692, -1143264.6, -10979.753 
6.7535764e+2, 1.944474e+2, -1053648.1, -1189684.8, -18763.635, -0.001037131, -0.0016695912, -1051107.5, -16692.16 
6.7535037e+2, 2.0443365e+2, -967927.25, -1107076.8, -18336.908, -0.0013779034, -0.0012049449, -965551.44, -29001.383 
6.753431e+2, 2.1441951e+2, -876357.0, -1012083.2, -18171.242, 0.00017469662, -0.0016510877, -873966.3, -35277.586 
6.7533594e+2, 2.2440486e+2, -791376.44, -931232.0, -16835.115, 0.00054151495, -0.00078157446, -789378.44, -48546.17 
6.7532897e+2, 2.3438974e+2, -698824.6, -835721.3, -16722.516, -0.00059050426, -0.0007749802, -696811.5, -53831.07 
6.753222e+2, 2.4437414e+2, -613125.0, -753696.94, -15120.593, -0.0009681646, -0.0006066112, -611516.94, -66383.73 
6.753157e+2, 2.5435814e+2, -521326.16, -658338.8, -14989.762, -0.00039435198, -0.0024184796, -519705.4, -72415.24 
6.753094e+2, 2.6434165e+2, -436158.88, -577349.56, -12580.146, -0.0003335798, -0.0017217267, -435046.72, -85594.9 
6.7530346e+2, 2.7432472e+2, -343207.44, -481352.63, -12209.641, -0.00093779695, -0.00025786343, -342136.6, -90518.875 
6.752979e+2, 2.8430718e+2, -258870.69, -402697.16, -9249.317, -0.0009828762, 0.00096378097, -258278.31, -104488.914 
6.7529273e+2, 2.942891e+2, -166631.84, -307023.63, -9061.211, -0.00026270802, -0.00084631116, -166049.42, -110082.945 
6.7528796e+2, 3.0427405e+2, -80826.125, -173104.2, -5719.1475, -0.00046539571, -0.0009837904, -80473.02, -80473.02 
6.7528355e+2, 3.1426206e+2, -85547.766, -174724.27, -5079.581, -0.0019618624, -0.0011622785, -85259.36, -85259.36 
6.752797e+2, 3.2425475e+2, -24878.143, -41103.36, -1135.8489, -0.00006694578, 0.0003417426, -24799.014, -24799.014 
6.8546975e+2, 3.4609604e+1, -2468867.5, -2603747.0, -607.7361, -0.0010713836, -0.00077705755, -2468864.8, 131960.94 
6.8546534e+2, 4.4602916e+1, -2382319.0, -2520384.8, -3521.9766, 0.0053949375, -0.0038475092, -2382229.3, 120662.09 
6.854605e+2, 5.4595906e+1, -2290770.0, -2425891.5, -3937.262, -0.001056431, -0.001657648, -2290655.5, 114304.59 
6.854553e+2, 6.4588416e+1, -2205257.0, -2343845.3, -7649.1343, -0.0026394646, -0.000013494733, -2204836.3, 102197.266 
6.854497e+2, 7.4580485e+1, -2113209.8, -2248870.8, -8084.4136, 0.0013832175, -0.00095420756, -2112729.8, 96381.39 
6.854437e+2, 8.4572077e+1, -2028169.3, -2167528.8, -11097.649, 0.002316328, -0.0009226231, -2027291.0, 83902.54 
6.854373e+2, 9.456321e+1, -1936812.0, -2072851.8, -11337.893, -0.0003689895, -0.0019272792, -1935873.5, 77406.88 
6.854306e+2, 1.04553886e+2, -1851859.6, -1991200.5, -13695.852, -0.0010934793, -0.0018131138, -1850526.1, 64845.598 
6.854237e+2, 1.1454414e+2, -1760403.3, -1896419.3, -13905.943, 0.0005096495, -0.0024490636, -1758996.1, 58471.21 
6.8541646e+2, 1.2453394e+2, -1675179.0, -1814531.6, -15772.073, 0.0009029331, -0.0014047178, -1673416.3, 46151.1 
6.8540907e+2, 1.3452332e+2, -1583453.4, -1719567.8, -15913.847, -0.00015657512, -0.00055003795, -1581617.6, 40053.832 
6.854015e+2, 1.4451222e+2, -1498405.8, -1637791.8, -17011.414, -0.00067239336, -0.000048016373, -1496359.6, 27420.523 
6.853938e+2, 1.545007e+2, -1407353.9, -1543118.3, -17132.174, -0.0005249046, -0.0022268477, -1405225.4, 20667.781 
6.8538606e+2, 1.644887e+2, -1322265.4, -1461196.3, -17850.232, -0.00013722593, -0.0023005435, -1320008.5, 8001.9375 
6.853782e+2, 1.7447634e+2, -1230409.6, -1366110.3, -17937.863, 0.0005391653, -0.0021436242, -1228078.5, 2053.2988 
6.853703e+2, 1.8446349e+2, -1145492.0, -1284594.1, -17829.477, 0.0003099209, -0.001145567, -1143243.0, -10985.312 
6.8536246e+2, 1.944502e+2, -1054496.4, -1189958.8, -17652.04, -0.0010374661, -0.0012786476, -1052234.0, -17845.963 
6.8535465e+2, 2.0443645e+2, -969213.06, -1107685.1, -17144.27, -0.0011777357, -0.0008630317, -967122.0, -30599.348 
6.8534696e+2, 2.144223e+2, -877129.25, -1012435.5, -17267.541, 0.00017286914, -0.0019872347, -874960.4, -36299.0 
6.853394e+2, 2.2440767e+2, -792121.1, -931075.94, -16009.2, 0.00043130832, -0.0012329166, -790300.56, -49495.85 
6.8533206e+2, 2.3439261e+2, -700869.3, -836165.1, -15698.932, -0.0006851571, -0.0006441172, -699071.56, -56119.227 
6.8532485e+2, 2.4437706e+2, -615985.75, -754772.4, -14013.465, -0.0009923361, -0.00020586043, -614584.9, -69480.195 
6.853179e+2, 2.5436106e+2, -524004.47, -659329.2, -13897.709, -0.000289012, -0.0021371148, -522591.94, -75330.51 
6.853112e+2, 2.643446e+2, -438728.94, -577837.25, -11399.28, -0.00037762447, -0.0016959343, -437801.03, -88378.35 
6.853049e+2, 2.7432775e+2, -346501.53, -482171.78, -11116.46, -0.0014874825, -0.00065544783, -345596.7, -94008.78 
6.8529886e+2, 2.843103e+2, -262724.72, -403763.97, -8194.818, -0.0013368531, 0.0006151977, -262250.2, -108491.28 
6.8529326e+2, 2.9429233e+2, -170775.89, -308219.34, -7718.8433, 0.00048030727, -0.0005310693, -170343.77, -114408.52 
6.852881e+2, 3.042773e+2, -85087.586, -174155.78, -4141.6147, 0.00010523758, -0.0008746597, -84895.414, -84895.414 
6.852833e+2, 3.142654e+2, -90104.75, -175872.89, -3889.528, -0.003241631, -0.0024233237, -89928.72, -89928.72 
6.852791e+2, 3.2425818e+2, -30378.586, -43027.836, -307.29153, 0.00045120504, 0.00055312953, -30371.125, -30371.125 
6.954815e+2, 3.461347e+1, -2469532.5, -2605286.5, -1833.5891, 0.0062498422, -0.005024238, -2469507.8, 131280.22 
6.954766e+2, 4.4606808e+1, -2382876.5, -2521821.8, -5022.5366, -0.008023057, 0.0050286483, -2382695.3, 120157.94 
6.954715e+2, 5.459961e+1, -2291346.0, -2427314.5, -5440.7607, 0.0013101981, -0.0009163535, -2291128.5, 113795.16 
6.954659e+2, 6.459198e+1, -2205859.0, -2345295.8, -9042.069, 0.004306585, -0.0032445064, -2205275.3, 101723.36 
6.9545984e+2, 7.458396e+1, -2113861.0, -2250330.8, -9457.98, -0.00025153728, -0.0032407006, -2113208.8, 95868.35 
6.9545335e+2, 8.4575486e+1, -2028493.5, -2168336.8, -12645.972, -0.0016746315, -0.0016147189, -2027359.3, 83800.96 
6.9544655e+2, 9.456659e+1, -1937109.4, -2073626.9, -12894.736, 0.0006447596, -0.00027283537, -1935902.1, 77345.26 
6.9543946e+2, 1.0455722e+2, -1852123.0, -1991892.1, -15245.38, 0.0013590517, 0.00042060512, -1850479.4, 64859.79 
6.95432e+2, 1.145474e+2, -1760683.5, -1897115.0, -15449.846, 0.0001608731, -0.001733069, -1758955.8, 58479.574 
6.954244e+2, 1.2453715e+2, -1675350.8, -1814998.6, -17260.105, -0.0005318958, -0.0018401348, -1673249.1, 46286.754 
6.954165e+2, 1.3452649e+2, -1583649.0, -1720030.6, -17398.68, -0.0006116206, -0.0017056179, -1581464.4, 40175.938 
6.954085e+2, 1.4451537e+2, -1498586.1, -1638223.9, -18672.637, -0.00010788106, -0.00087005453, -1496132.4, 27616.936 
6.954004e+2, 1.545038e+2, -1407535.6, -1543535.6, -18794.283, 0.0011010632, -0.001432604, -1404986.1, 20876.326 
6.9539213e+2, 1.6449182e+2, -1322378.9, -1461460.0, -19330.428, 0.00088853226, -0.0010414631, -1319742.1, 8237.817 
6.9538385e+2, 1.7447941e+2, -1230579.5, -1366374.6, -19402.88, -0.0010547371, -0.0018615456, -1227861.5, 2240.0718 
6.9537556e+2, 1.8446659e+2, -1145218.5, -1283967.0, -19508.775, -0.0014418918, -0.0011923729, -1142527.8, -10300.242 
6.953673e+2, 1.9445334e+2, -1054183.9, -1189271.1, -19352.158, 0.0000747565, -0.0008315823, -1051466.1, -17109.002 
6.95359e+2, 2.0443961e+2, -969460.0, -1108132.0, -18586.842, 0.00043403788, -0.00040358672, -967011.94, -30520.252 
6.953509e+2, 2.1442541e+2, -877459.56, -1012974.56, -18679.715, -0.000658454, -0.0021092698, -874931.9, -36301.023 
6.953429e+2, 2.244108e+2, -791728.8, -930121.9, -17640.982, -0.000953025, -0.001794476, -789515.56, -48741.438 
6.9533503e+2, 2.343958e+2, -700424.4, -835119.1, -17357.033, -0.00023838472, -0.0014954121, -698223.7, -55302.64 
6.953274e+2, 2.4438031e+2, -615886.2, -754417.8, -15520.189, -0.00011040341, -0.00036280233, -614168.7, -69095.9 
6.9531995e+2, 2.5436437e+2, -523933.63, -659037.44, -15386.689, -0.00076796, -0.00035343546, -522203.44, -74974.28 
6.9531286e+2, 2.6434794e+2, -438451.9, -577075.1, -12857.753, -0.0011759885, -0.0002497836, -437269.4, -87879.336 
6.9530606e+2, 2.7433112e+2, -346248.3, -481391.25, -12575.544, -0.0012345263, -0.0024528857, -345088.1, -93533.07 
6.952997e+2, 2.8431374e+2, -262161.44, -402296.2, -9719.593, -0.00073727913, -0.0017701574, -261490.5, -107765.25 
6.9529366e+2, 2.942959e+2, -170185.81, -306711.9, -9254.068, 0.00049485685, -0.000036367914, -169561.39, -113661.15 
6.95288e+2, 3.0428097e+2, -84975.54, -173587.53, -5428.604, -0.00046110648, 0.00027349728, -84644.2, -84644.2 
6.952829e+2, 3.1426907e+2, -90063.72, -175398.81, -5152.637, -0.004343027, -0.003591706, -89753.73, -89753.73 
6.952782e+2, 3.2426193e+2, -29794.613, -41419.473, -2018.7369, 0.0014317147, -0.0000023212049, -29454.023, -29454.023 
7.0549345e+2, 3.461777e+1, -2464429.3, -2603697.5, -386.76874, 0.00463145, -0.0030907316, -2464428.3, 136317.64 
7.054882e+2, 4.4610986e+1, -2377263.8, -2520055.8, -4030.8904, -0.0062293606, 0.0033816018, -2377150.0, 125662.22 
7.0548266e+2, 5.4603714e+1, -2286204.8, -2425809.3, -4421.9404, 0.0018101293, -0.0012214251, -2286064.8, 118818.695 
7.0547664e+2, 6.4596003e+1, -2201268.3, -2343870.8, -7871.679, 0.004049572, -0.0027798521, -2200835.0, 106124.12 
7.054701e+2, 7.4587905e+1, -2110195.0, -2249362.5, -8106.0894, -0.0006437037, -0.0026785126, -2109724.5, 99313.93 
7.054632e+2, 8.457936e+1, -2025265.8, -2167498.5, -11273.783, -0.0018912783, -0.0013424094, -2024377.8, 86744.47 
7.0545596e+2, 9.4570386e+1, -1933830.9, -2072763.5, -11607.885, 0.00097288284, -0.00073866197, -1932867.6, 80342.45 
7.054484e+2, 1.0456096e+2, -1848878.5, -1990793.9, -14059.275, 0.0016941901, -0.00003969026, -1847499.0, 67803.44 
7.0544046e+2, 1.1455111e+2, -1757922.4, -1896278.4, -14237.74, -0.00014259244, -0.0013122775, -1756472.5, 60926.582 
7.0543236e+2, 1.2454081e+2, -1673195.8, -1814388.1, -16020.352, -0.00086454337, -0.001370912, -1671400.8, 48099.15 
7.054241e+2, 1.3453011e+2, -1582196.5, -1719776.0, -16221.102, -0.00024883854, -0.0021617936, -1580309.8, 41295.113 
7.0541567e+2, 1.4451896e+2, -1497317.6, -1637787.3, -17545.344, 0.0003395923, -0.0014670744, -1495159.3, 28554.93 
7.0540696e+2, 1.5450738e+2, -1406108.5, -1543049.3, -17597.535, 0.0009052748, -0.0012179686, -1403883.3, 21944.16 
7.053983e+2, 1.644954e+2, -1321410.0, -1461124.4, -18070.084, 0.00049565715, -0.0004466362, -1319110.8, 8834.38 
7.053895e+2, 1.7448296e+2, -1230763.9, -1366641.4, -18126.28, -0.001110455, -0.0014174252, -1228387.4, 1679.5088 
7.0538074e+2, 1.844701e+2, -1145696.9, -1284108.9, -18313.936, -0.0012901089, -0.0011076701, -1143314.8, -11121.893 
7.0537204e+2, 1.9445688e+2, -1054167.5, -1189184.9, -18425.168, 0.00027641206, -0.001359821, -1051698.4, -17375.809 
7.053633e+2, 2.0444316e+2, -969705.3, -1108003.9, -17621.746, 0.00054068543, -0.00085444195, -967495.3, -31038.424 
7.053547e+2, 2.14429e+2, -879071.25, -1013510.8, -17330.303, -0.0008413424, -0.0016229703, -876873.2, -38277.438 
7.0534617e+2, 2.244144e+2, -793994.25, -930913.94, -16230.856, -0.0012272748, -0.001232913, -792096.5, -51357.75 
7.053379e+2, 2.3439942e+2, -702524.94, -835834.4, -16270.299, -0.00036254857, -0.0019346592, -700567.94, -57682.418 
7.0532984e+2, 2.4438398e+2, -617836.8, -754719.5, -14414.071, -0.00010074693, -0.0010326143, -616335.44, -71298.52 
7.0532197e+2, 2.543681e+2, -526194.6, -659473.9, -14036.295, -0.0006273087, -0.0002756491, -524732.44, -77539.83 
7.053144e+2, 2.6435176e+2, -441354.2, -577912.1, -11451.238, -0.001037137, 0.000044131008, -440400.6, -91047.65 
7.053072e+2, 2.7433494e+2, -350114.94, -482701.2, -11226.588, -0.0012793385, -0.0026152902, -349171.03, -97653.6 
7.053003e+2, 2.843176e+2, -266284.1, -403329.84, -8381.511, -0.0007980485, -0.002206171, -265773.4, -112086.34 
7.0529383e+2, 2.9429987e+2, -174134.56, -307660.56, -8065.59, 0.0006189332, -0.00049707113, -173649.13, -117787.92 
7.0528775e+2, 3.0428502e+2, -89458.06, -175017.9, -4170.1274, -0.00043308412, 0.00001619181, -89255.3, -89255.3 
7.052822e+2, 3.1427318e+2, -95598.73, -177356.56, -3730.5996, -0.004743265, -0.003365234, -95428.86, -95428.86 
7.052771e+2, 3.2426617e+2, -35115.96, -41772.773, -645.76416, 0.0016323845, -0.00034132734, -35053.9, -35053.9 
7.1550554e+2, 3.4622452e+1, -2464635.0, -2604524.5, -1142.4874, -0.004345558, 0.0039155404, -2464625.8, 136074.28 
7.155002e+2, 4.4615418e+1, -2377833.5, -2521322.8, -5596.225, 0.008117118, -0.006961934, -2377615.8, 125153.164 
7.1549404e+2, 5.460815e+1, -2286708.0, -2427038.8, -6014.7207, 0.0007210301, -0.0023851865, -2286450.8, 118389.336 
7.154874e+2, 6.460041e+1, -2201493.5, -2344591.8, -9481.487, -0.0022130841, 0.0007548765, -2200868.0, 106047.9 
7.154805e+2, 7.459226e+1, -2110431.3, -2250067.8, -9722.543, -0.000006114278, 0.00025267183, -2109757.5, 99238.33 
7.1547323e+2, 8.458363e+1, -2025700.6, -2168597.8, -12819.245, 0.0010214421, -0.00026735864, -2024559.8, 86520.65 
7.154654e+2, 9.4574547e+1, -1934304.6, -2073890.9, -13140.906, 0.00069684896, -0.0029850865, -1933078.4, 80090.99 
7.1545744e+2, 1.04565054e+2, -1849114.3, -1991370.4, -15724.575, 0.00022424065, -0.002757447, -1847396.8, 67865.56 
7.1544904e+2, 1.1455519e+2, -1758150.6, -1896820.5, -15910.47, -0.0004252584, -0.0011475123, -1756348.6, 61010.484 
7.154405e+2, 1.2454486e+2, -1673470.4, -1815076.5, -17692.996, -0.0002907139, -0.00014324574, -1671293.1, 48167.137 
7.154317e+2, 1.3453409e+2, -1582504.6, -1720471.3, -17884.705, 0.0007831268, -0.002033322, -1580223.9, 41341.938 
7.154228e+2, 1.445229e+2, -1497356.3, -1637920.5, -19170.398, 0.0006661654, -0.0018764233, -1494788.6, 28886.785 
7.1541363e+2, 1.5451133e+2, -1406170.4, -1543149.3, -19219.664, -0.000868449, -0.0015077571, -1403524.8, 22263.988 
7.1540445e+2, 1.6449933e+2, -1321482.3, -1461304.8, -19849.65, -0.0011313722, -0.00042672022, -1318718.9, 9187.593 
7.153952e+2, 1.7448689e+2, -1230853.6, -1366799.0, -19904.43, 0.00014057668, -0.00083499926, -1227999.3, 2029.056 
7.15386e+2, 1.8447404e+2, -1145868.5, -1284484.0, -19882.928, 0.00048104464, -0.0009127572, -1143073.0, -10918.462 
7.1537673e+2, 1.9446073e+2, -1054396.0, -1189588.0, -19974.357, -0.00033257133, -0.0027381538, -1051506.6, -17222.055 
7.1536756e+2, 2.0444705e+2, -969279.94, -1107081.0, -19385.893, -0.00067791896, -0.0020948788, -966604.6, -30185.865 
7.1535844e+2, 2.1443298e+2, -878615.1, -1012500.44, -19114.732, -0.0004703986, -0.000609848, -875939.6, -37382.87 
7.153495e+2, 2.2441843e+2, -794106.6, -931074.0, -17851.242, -0.00055231474, 0.00030584497, -791818.25, -51118.91 
7.153407e+2, 2.3440342e+2, -702692.4, -836074.4, -17868.56, -0.0010182078, -0.0020156412, -700340.06, -57493.68 
7.1533215e+2, 2.4438798e+2, -617337.94, -753557.8, -15977.968, -0.0008822368, -0.0021525638, -615488.9, -70491.31 
7.1532387e+2, 2.5437218e+2, -525686.0, -658241.44, -15606.872, 0.000031665353, -0.0017088561, -523873.22, -76720.836 
7.153159e+2, 2.643559e+2, -441168.53, -577288.56, -13155.315, -0.00011301854, -0.0006802155, -439908.78, -90596.8 
7.153081e+2, 2.7433917e+2, -349947.1, -482114.38, -12934.594, -0.0016140416, -0.0013291063, -348693.13, -97217.22 
7.153008e+2, 2.8432193e+2, -265950.66, -402453.22, -9877.208, -0.0014761983, -0.00091577176, -265239.66, -111594.664 
7.152939e+2, 2.943042e+2, -173831.34, -306772.4, -9543.493, 0.00078832195, -0.0018173902, -173149.75, -117331.01 
7.152874e+2, 3.0428943e+2, -89077.1, -173919.92, -5689.375, 0.00008032295, -0.0014940739, -88697.29, -88697.29 
7.152814e+2, 3.142777e+2, -95232.95, -176256.19, -5251.037, -0.0045366413, -0.001910456, -94894.055, -94894.055 
7.152758e+2, 3.2427084e+2, -33469.0, -37981.02, -2480.2048, 0.0010568947, -0.00053370744, -32372.25, -32372.25 
7.25518e+2, 3.46276e+1, -2457160.3, -2602425.5, 275.26706, -0.0035581645, 0.0027396565, -2457159.8, 143489.83 
7.255121e+2, 4.462046e+1, -2374469.5, -2520721.8, -3753.209, 0.007903828, -0.0068198387, -2374373.3, 128346.2 
7.255055e+2, 5.46131e+1, -2282090.0, -2425800.3, -4181.59, 0.00003488101, -0.0018277715, -2281968.5, 122823.12 
7.2549856e+2, 6.460528e+1, -2196419.3, -2343024.0, -8037.484, -0.0026550882, 0.0012224537, -2195980.0, 110888.27 
7.2549117e+2, 7.4597037e+1, -2105946.5, -2248795.5, -8498.214, 0.0006554733, 0.000034233894, -2105442.8, 103506.21 
7.2548336e+2, 8.4588325e+1, -2021764.3, -2167389.5, -11618.809, 0.0017744859, -0.0005861096, -2020843.0, 90191.266 
7.254751e+2, 9.4579184e+1, -1931167.1, -2073054.6, -11846.148, 0.00032806798, -0.0027206282, -1930184.9, 82938.945 
7.254666e+2, 1.0456964e+2, -1846366.3, -1990657.9, -14469.513, -0.00033550974, -0.00244326, -1844929.6, 70287.87 
7.254578e+2, 1.1455971e+2, -1755495.4, -1896162.4, -14761.643, -0.00006528636, -0.0013951836, -1753963.0, 63351.727 
7.2544867e+2, 1.2454933e+2, -1671040.9, -1814272.8, -16621.748, 0.00022796995, -0.0003720867, -1669137.3, 50279.23 
7.2543937e+2, 1.3453853e+2, -1580695.5, -1719990.1, -16731.322, 0.000555854, -0.0015441147, -1578714.0, 42808.32 
7.2543e+2, 1.4452733e+2, -1496082.1, -1637522.4, -17955.455, 0.00020110887, -0.0013546977, -1493838.3, 29793.873 
7.2542036e+2, 1.5451573e+2, -1405425.8, -1543053.0, -18110.047, -0.00096891, -0.0017794982, -1403082.5, 22663.234 
7.254107e+2, 1.645037e+2, -1320894.9, -1461011.3, -18816.309, -0.0009742546, -0.000995818, -1318412.0, 9451.634 
7.254009e+2, 1.7449127e+2, -1230165.1, -1366494.0, -18812.863, 0.00043490998, -0.0010762517, -1227616.6, 2368.8406 
7.2539115e+2, 1.8447839e+2, -1145661.9, -1284408.0, -18627.031, 0.00063101883, -0.0008354115, -1143204.6, -11093.01 
7.2538143e+2, 1.9446512e+2, -1055279.6, -1190056.9, -18568.719, -0.0006883785, -0.002372165, -1052768.3, -18526.484 
7.253718e+2, 2.0445143e+2, -970505.2, -1107345.1, -18067.596, -0.0010330635, -0.0018462567, -968159.8, -31784.014 
7.253622e+2, 2.1443738e+2, -879730.44, -1012722.44, -18084.512, -0.00019301173, -0.0009780596, -877315.1, -38801.59 
7.253527e+2, 2.2442287e+2, -795404.75, -931300.56, -16742.91, -0.00012554487, -0.000113838214, -793372.4, -52716.54 
7.2534347e+2, 2.344079e+2, -704545.2, -836581.8, -16426.977, -0.0010531747, -0.0017643619, -702532.1, -59729.688 
7.253344e+2, 2.4439251e+2, -619790.0, -754190.5, -14477.962, -0.0011140513, -0.0018805638, -618248.06, -73294.86 
7.2532564e+2, 2.5437677e+2, -529025.6, -659304.6, -14373.367, -0.00004750833, -0.0022442178, -527458.7, -80351.08 
7.253171e+2, 2.6436055e+2, -444755.6, -578248.7, -11951.274, -0.00008716542, -0.0012727838, -443694.06, -94427.41 
7.253089e+2, 2.7434388e+2, -353142.94, -482901.56, -11560.927, -0.0015586184, -0.001015167, -352120.97, -100691.15 
7.253011e+2, 2.843267e+2, -269242.22, -403146.47, -8311.669, -0.0014536537, -0.00050010375, -268728.28, -115130.1 
7.2529376e+2, 2.9430905e+2, -177916.97, -307866.94, -7895.529, 0.00067791645, -0.0023542354, -177439.0, -121667.77 
7.252868e+2, 3.0429438e+2, -93780.46, -175101.19, -3982.2136, 0.00016392805, -0.0018274265, -93585.92, -93585.92 
7.2528034e+2, 3.1428277e+2, -100682.625, -177786.23, -3422.2244, -0.0038029698, -0.00053471036, -100531.02, -100531.02 
7.252742e+2, 3.24276e+2, -39037.656, -39346.41, -1227.0887, 0.00044514576, -0.0015060564, -37955.273, -37955.273 
7.355308e+2, 3.4633157e+1, -2458601.5, -2605398.0, -3016.4414, 0.005094523, -0.005065141, -2458539.8, 142055.38 
7.3552406e+2, 4.462603e+1, -2374813.0, -2522055.5, -5092.5605, -0.0042612874, 0.0019304225, -2374637.3, 128027.64 
7.355172e+2, 5.46185e+1, -2282636.3, -2427184.5, -5440.7095, -0.0003225005, 0.00012874378, -2282431.8, 122306.94 
7.355098e+2, 6.4610535e+1, -2197154.3, -2344619.3, -9780.846, 0.0016648838, -0.00084441685, -2196508.3, 110308.375 
7.355019e+2, 7.4602175e+1, -2106623.8, -2250369.0, -10247.447, 0.0013102116, -0.002792318, -2105896.8, 103001.79 
7.354936e+2, 8.45934e+1, -2022025.1, -2168135.5, -13340.093, 0.00071734964, -0.0020553903, -2020817.1, 90167.48 
7.3548484e+2, 9.4584244e+1, -1931437.6, -2073778.1, -13568.198, -0.00014169469, -0.0003662771, -1930155.9, 82918.52 
7.354759e+2, 1.04574636e+2, -1846774.1, -1991606.9, -16149.467, -0.00015888538, 0.00039929032, -1844995.3, 70173.23 
7.3546654e+2, 1.14564605e+2, -1755952.8, -1897119.6, -16431.313, 0.0008137265, -0.001995663, -1754065.5, 63201.313 
7.3545694e+2, 1.2455418e+2, -1671181.4, -1814623.9, -18427.164, 0.0006745575, -0.0018221865, -1668852.0, 50517.004 
7.3544717e+2, 1.3454336e+2, -1580822.4, -1720301.8, -18542.865, -0.00075532077, -0.0007586988, -1578399.4, 43075.535 
7.354372e+2, 1.4453213e+2, -1496271.6, -1638009.0, -19712.434, -0.000947939, -0.00005172738, -1493581.1, 30003.854 
7.3542714e+2, 1.545205e+2, -1405674.9, -1543539.3, -19853.8, 0.00033458823, -0.0020428083, -1402872.8, 22826.352 
7.3541695e+2, 1.6450843e+2, -1320832.4, -1460947.8, -20563.83, 0.0006807808, -0.0020692304, -1317876.8, 9940.433 
7.354067e+2, 1.7449602e+2, -1230122.1, -1366392.0, -20560.705, -0.00010832895, -0.0020232592, -1227087.5, 2851.4941 
7.353964e+2, 1.8448317e+2, -1145578.4, -1284198.3, -20460.588, -0.00062768307, -0.0008602481, -1142621.4, -10556.53 
7.3538613e+2, 1.9446993e+2, -1055207.6, -1189839.5, -20404.414, -0.00083692704, -0.000503141, -1052183.1, -17988.488 
7.3537594e+2, 2.0445624e+2, -970568.0, -1107432.3, -19816.729, -0.00065649603, -0.00030898713, -967756.5, -31427.746 
7.3536587e+2, 2.1444215e+2, -879833.44, -1012825.1, -19821.664, -0.000013058172, -0.0025478778, -876942.0, -38475.242 
7.353559e+2, 2.2442766e+2, -794948.44, -930270.06, -18483.338, 0.00006637191, -0.0022408094, -792469.25, -51860.418 
7.3534614e+2, 2.3441279e+2, -704081.56, -835496.1, -18175.357, -0.00056185335, -0.0012222453, -701614.1, -58859.72 
7.3533654e+2, 2.4439748e+2, -619752.44, -753920.3, -16275.301, -0.0008818351, -0.0003879307, -617806.4, -72901.79 
7.3532724e+2, 2.5438172e+2, -529009.8, -659095.44, -16168.3, -0.000806751, -0.0019965873, -527030.44, -79971.44 
7.3531824e+2, 2.6436555e+2, -444269.13, -577032.94, -13558.944, -0.00088886265, -0.0017505685, -442898.53, -93680.945 
7.3530954e+2, 2.7434897e+2, -352672.56, -481630.75, -13157.788, -0.0011768047, -0.0015738589, -351343.75, -99963.89 
7.353013e+2, 2.843319e+2, -268810.9, -401903.3, -9994.789, -0.00083873625, -0.00087076105, -268064.53, -114517.21 
7.3529345e+2, 2.9431432e+2, -177506.73, -306631.28, -9586.356, 0.0002856094, -0.0021907275, -176798.9, -121079.46 
7.35286e+2, 3.0429977e+2, -93162.96, -173487.92, -5706.1426, -0.00016567114, -0.0011118668, -92759.625, -92759.625 
7.35279e+2, 3.1428826e+2, -100049.97, -176144.69, -5145.15, -0.0026163976, 0.0007507178, -99703.66, -99703.66 
7.3527247e+2, 3.242815e+2, -39342.23, -39677.52, -2951.6255, -0.00024495943, -0.003181491, -36553.492, -36553.492 
7.455438e+2, 3.463922e+1, -2455148.0, -2604852.0, -1308.0853, 0.005177362, -0.005190193, -2455136.5, 145399.02 
7.455365e+2, 4.4632012e+1, -2365475.5, -2518564.8, -3819.8076, -0.0052822325, 0.0033340661, -2365380.3, 137225.92 
7.455292e+2, 5.4624367e+1, -2277556.5, -2425794.3, -4217.4136, 0.00018126953, -0.00021202315, -2277436.5, 127244.55 
7.4552125e+2, 6.4616305e+1, -2193861.3, -2343940.8, -8250.907, 0.0024954765, -0.0017616799, -2193409.0, 113351.1 
7.4551284e+2, 7.4607867e+1, -2102475.3, -2249264.3, -8546.182, 0.0010559674, -0.0029240204, -2101979.5, 106863.41 
7.45504e+2, 8.4599006e+1, -2017581.1, -2166718.8, -11790.327, 0.00020895821, -0.0017687965, -2016654.8, 94274.89 
7.454948e+2, 9.458978e+1, -1927633.5, -2072685.4, -12136.891, 0.00006751736, -0.00007472812, -1926625.0, 86395.03 
7.454853e+2, 1.0458012e+2, -1843606.4, -1990703.3, -14722.724, 0.00021071969, 0.00062616105, -1842147.4, 72967.51 
7.454755e+2, 1.1457002e+2, -1753580.6, -1896618.3, -14934.085, 0.0006866048, -0.0019144809, -1752038.0, 65175.64 
7.4546534e+2, 1.24559544e+2, -1669069.9, -1813966.6, -16924.693, 0.00045684027, -0.0018786838, -1667119.3, 52197.098 
7.45455e+2, 1.3454871e+2, -1578617.3, -1719618.8, -17109.799, -0.00059325085, -0.0009316515, -1576570.8, 44851.83 
7.4544454e+2, 1.4453745e+2, -1494380.0, -1637344.5, -18340.672, -0.0006503613, -0.00012901466, -1492064.6, 31468.387 
7.454339e+2, 1.5452577e+2, -1404604.4, -1543298.5, -18423.477, 0.00049566774, -0.0017682312, -1402198.8, 23448.533 
7.4542314e+2, 1.645137e+2, -1320356.5, -1460825.1, -19087.193, 0.00068439275, -0.001768877, -1317809.1, 9956.472 
7.4541235e+2, 1.7450127e+2, -1230070.5, -1366491.4, -19220.963, -0.00031157627, -0.0020913498, -1227414.1, 2473.391 
7.4540156e+2, 1.8448842e+2, -1145684.1, -1284000.1, -19238.744, -0.00077090267, -0.0011025596, -1143058.1, -11044.676 
7.4539083e+2, 1.9447519e+2, -1055590.4, -1189778.5, -19156.482, -0.0005871751, -0.00066001166, -1052909.1, -18766.178 
7.4538004e+2, 2.0446153e+2, -971420.56, -1107683.0, -18441.207, -0.00041186507, -0.00036643198, -968968.9, -32692.018 
7.4536943e+2, 2.1444745e+2, -881220.6, -1013361.75, -18334.154, -0.00027027045, -0.002507091, -878724.0, -40309.168 
7.4535894e+2, 2.2443299e+2, -796658.5, -930611.9, -17035.494, -0.00023325942, -0.0022105095, -794526.0, -53969.4 
7.453487e+2, 2.3441817e+2, -706386.25, -836098.3, -16947.646, -0.00033491882, -0.0013284481, -704208.5, -61506.73 
7.453386e+2, 2.444029e+2, -622346.9, -754614.44, -15042.357, -0.0005850981, -0.00044045597, -620657.75, -75806.26 
7.453288e+2, 2.543872e+2, -531612.5, -659781.4, -14702.681, -0.0010284208, -0.0017610744, -529947.56, -82942.25 
7.4531925e+2, 2.6437107e+2, -447146.22, -577607.2, -11966.923, -0.001109964, -0.0015945786, -446057.6, -96894.29 
7.453101e+2, 2.7435458e+2, -356625.63, -482702.6, -11659.166, -0.00072230404, -0.0019648622, -355556.5, -104231.63 
7.453013e+2, 2.8433758e+2, -273471.2, -403213.88, -8549.048, -0.0005081381, -0.0012787676, -272910.3, -119418.78 
7.452929e+2, 2.943201e+2, -182563.3, -308130.56, -8153.613, -0.00057195505, -0.0019314424, -182036.05, -126373.31 
7.4528503e+2, 3.0430567e+2, -98047.7, -174391.77, -4178.305, -0.0008993982, -0.00094877026, -97819.71, -97819.71 
7.452776e+2, 3.1429428e+2, -104517.69, -176835.42, -3545.6406, -0.0014573975, -0.00017921245, -104344.266, -104344.266 
7.4527043e+2, 3.2428762e+2, -44264.15, -42039.96, -1268.1566, -0.00018662744, -0.0031615824, -41465.348, -41465.348 
7.555567e+2, 3.464573e+1, -2454994.8, -2605043.3, -607.08, -0.0016748442, 0.00088592875, -2454992.3, 145479.63 
7.555494e+2, 4.4638348e+1, -2366335.8, -2520127.0, -6086.1294, 0.0027248727, -0.0012539107, -2366095.3, 136448.72 
7.5554127e+2, 5.4630625e+1, -2278119.5, -2427240.0, -6593.591, 0.0013519338, -0.0024233987, -2277828.8, 126791.16 
7.555328e+2, 6.46225e+1, -2194063.5, -2344787.0, -9792.474, 0.0004464469, -0.0017319759, -2193429.8, 113269.63 
7.555239e+2, 7.461401e+1, -2102832.3, -2250173.8, -10058.449, 0.000042815293, -0.00085005956, -2102148.8, 106633.945 
7.555146e+2, 8.460508e+1, -2018125.1, -2167903.8, -13666.751, 0.00013692694, -0.000043845455, -2016888.3, 93981.87 
7.555049e+2, 9.459575e+1, -1928144.4, -2073863.6, -14022.204, 0.0008127882, -0.0014959766, -1926807.3, 86154.34 
7.5549483e+2, 1.04586e+2, -1843869.5, -1991374.8, -16602.703, 0.0007155735, -0.001313834, -1842023.9, 73033.266 
7.554844e+2, 1.1457589e+2, -1753856.3, -1897266.8, -16810.734, -0.00029327787, -0.0012684814, -1751912.1, 65244.133 
7.554738e+2, 1.2456537e+2, -1669308.1, -1814542.9, -18712.666, -0.00033221077, -0.00077539636, -1666935.9, 52323.48 
7.5546294e+2, 1.3455448e+2, -1578894.9, -1720203.1, -18894.38, 0.0007825051, -0.0019123995, -1576412.1, 44953.934 
7.554519e+2, 1.4454317e+2, -1494484.0, -1637609.8, -20304.385, 0.0008398763, -0.001362812, -1491659.3, 31817.533 
7.554407e+2, 1.5453151e+2, -1404694.9, -1543526.6, -20393.248, -0.00032474537, -0.0010433341, -1401761.3, 23829.826 
7.5542945e+2, 1.6451943e+2, -1320522.5, -1461263.6, -20950.482, -0.0007312128, -0.0003072029, -1317470.1, 10239.5 
7.5541806e+2, 1.7450695e+2, -1230284.1, -1366944.5, -21068.113, -0.00024064444, -0.0014071744, -1227110.0, 2721.9082 
7.554068e+2, 1.8449408e+2, -1145537.9, -1283697.6, -21134.477, 0.000020666068, -0.0015256342, -1142377.3, -10419.329 
7.553955e+2, 1.9448087e+2, -1055437.3, -1189449.0, -21063.373, -0.00002173371, -0.0025578847, -1052204.6, -18117.232 
7.5538415e+2, 2.0446724e+2, -971273.06, -1107333.3, -20324.248, -0.00031000035, -0.001794799, -968301.94, -32080.969 
7.55373e+2, 2.1445322e+2, -881089.75, -1013013.94, -20213.756, -0.0009208885, -0.001067218, -878062.06, -39703.645 
7.55362e+2, 2.2443877e+2, -796596.75, -930382.25, -18924.059, -0.0009882621, -0.0003057047, -793971.44, -53471.504 
7.553511e+2, 2.3442395e+2, -706348.94, -835881.6, -18833.262, -0.0003724545, -0.0020034588, -703666.25, -61021.043 
7.553406e+2, 2.4440871e+2, -621904.25, -753526.5, -16831.668, -0.0002542657, -0.0018402883, -619785.94, -74991.4 
7.553302e+2, 2.543931e+2, -531168.75, -658663.3, -16490.201, -0.0008053928, -0.001533469, -529070.44, -82123.05 
7.553202e+2, 2.643771e+2, -446828.25, -576701.44, -13840.903, -0.0008609919, -0.0008791159, -445369.56, -96264.945 
7.553105e+2, 2.7436063e+2, -356309.22, -481816.56, -13540.712, -0.00023287446, -0.0022038785, -354864.97, -103599.336 
7.553011e+2, 2.843437e+2, -273039.97, -402015.5, -10342.044, -0.0004676961, -0.0017187154, -272215.97, -118784.39 
7.5529224e+2, 2.9432634e+2, -182158.64, -306924.28, -9939.14, -0.0018821774, -0.0015963273, -181371.83, -125769.96 
7.5528383e+2, 3.0431196e+2, -97309.15, -172504.64, -5801.7505, -0.002032183, -0.0012833034, -96864.15, -96864.15 
7.5527596e+2, 3.1430072e+2, -103777.0, -174912.27, -5166.6987, -0.00033928498, -0.003101368, -103403.69, -103403.69 
7.5526834e+2, 3.2429418e+2, -44386.504, -41914.19, -2871.2463, 0.00048597663, -0.0016472415, -40024.31, -40024.31 
7.6557004e+2, 3.4652779e+1, -2446025.5, -2601423.8, 874.2089, -0.0031059384, 0.0019146885, -2446020.5, 154382.19 
7.655622e+2, 4.464528e+1, -2365877.0, -2521071.5, -4129.052, 0.004902842, -0.0028623925, -2365767.3, 136708.89 
7.6555365e+2, 5.4637456e+1, -2272431.3, -2425668.5, -4669.781, 0.0014929929, -0.00246583, -2272289.0, 132263.88 
7.655446e+2, 6.462923e+1, -2186769.3, -2342131.8, -8306.131, -0.00025883052, -0.0010460573, -2186326.5, 120306.914 
7.6553524e+2, 7.4620664e+1, -2098608.8, -2249022.8, -8709.533, -0.00011293147, -0.00042656212, -2098106.0, 110611.32 
7.6552534e+2, 8.4611654e+1, -2015238.3, -2167271.8, -12202.771, 0.00027634416, 0.000031965323, -2014265.1, 96540.6 
7.655151e+2, 9.460224e+1, -1924786.6, -2072996.6, -12472.469, 0.0009350615, -0.0018725571, -1923744.3, 89153.63 
7.655045e+2, 1.04592435e+2, -1840308.6, -1990136.0, -15130.592, 0.000799374, -0.0016846604, -1838795.9, 76198.16 
7.654935e+2, 1.1458229e+2, -1750717.3, -1896256.9, -15341.019, -0.00027006026, -0.0010758148, -1749117.8, 67975.79 
7.6548237e+2, 1.24571726e+2, -1666874.8, -1813871.0, -17237.525, -0.0003574359, -0.00038924246, -1664880.5, 54316.594 
7.654709e+2, 1.3456078e+2, -1577410.0, -1720022.6, -17472.564, 0.0007287094, -0.0017815606, -1575300.6, 46003.805 
7.6545936e+2, 1.4454944e+2, -1493297.8, -1637243.5, -18932.166, 0.0008614603, -0.0014156034, -1490849.4, 32566.053 
7.6544756e+2, 1.5453775e+2, -1403330.5, -1543107.9, -19059.61, -0.000116499614, -0.0011553313, -1400778.3, 24751.79 
7.6543576e+2, 1.6452564e+2, -1319379.0, -1460731.8, -19572.953, -0.00057072466, -0.00029086656, -1316718.8, 10929.767 
7.6542383e+2, 1.7451316e+2, -1229976.3, -1366824.9, -19524.781, -0.00039641542, -0.0010552747, -1227245.1, 2525.732 
7.65412e+2, 1.845003e+2, -1145806.9, -1283828.0, -19557.291, -0.00015707914, -0.0011172564, -1143089.1, -11192.249 
7.654001e+2, 1.944871e+2, -1056086.1, -1189754.0, -19646.715, 0.000123965, -0.002443617, -1053258.3, -19231.762 
7.6538825e+2, 2.0447347e+2, -972088.4, -1107356.5, -18951.44, -0.00005755696, -0.0017780246, -969483.44, -33323.52 
7.653765e+2, 2.144595e+2, -882329.3, -1013234.75, -18786.32, -0.0008334177, -0.00086278276, -879686.6, -41389.688 
7.6536494e+2, 2.2444507e+2, -798295.6, -930840.6, -17424.44, -0.0010218356, -0.00008642816, -796043.3, -55605.145 
7.653535e+2, 2.3443028e+2, -708420.7, -836545.3, -17251.191, -0.00048186196, -0.0020250515, -706138.56, -63555.42 
7.653424e+2, 2.4441509e+2, -624330.2, -754002.9, -15215.8, -0.00029026018, -0.0019242537, -622568.7, -77836.66 
7.653315e+2, 2.5439954e+2, -534460.44, -659521.0, -14981.512, -0.0005609199, -0.0014405278, -532690.75, -85806.53 
7.653209e+2, 2.6438358e+2, -450541.7, -577764.9, -12348.639, -0.00058919645, -0.00076986064, -449354.2, -100313.37 
7.6531065e+2, 2.743672e+2, -359937.3, -482838.28, -12041.008, -0.00026164742, -0.0022665935, -358768.72, -107567.516 
7.653008e+2, 2.8435034e+2, -276721.06, -402752.06, -8830.071, -0.0005901458, -0.0018253482, -276105.4, -122739.05 
7.6529133e+2, 2.9433307e+2, -186533.6, -307964.28, -8365.425, -0.0018399305, -0.001591321, -185960.0, -130424.3 
7.652824e+2, 3.0431882e+2, -102329.8, -173890.48, -4152.802, -0.0017753444, -0.0015039897, -102089.61, -102089.61 
7.6527405e+2, 3.1430766e+2, -109408.87, -176572.77, -3815.5835, 0.00023123581, -0.0040251287, -109192.8, -109192.8 
7.6526594e+2, 3.2430124e+2, -49907.4, -43060.016, -1185.9788, -0.00026209088, -0.0005960929, -42860.42, -42860.42 
7.755838e+2, 3.4660286e+1, -2446847.5, -2603137.0, -3798.062, -0.00026543418, -0.0011090015, -2446755.3, 153573.84 
7.755751e+2, 4.4652706e+1, -2366174.3, -2522594.8, -5224.256, 0.0023488703, -0.0020576457, -2366000.0, 136403.44 
7.755662e+2, 5.464478e+1, -2273172.0, -2427399.8, -5619.595, 0.00078361423, -0.00076217996, -2272967.5, 131513.63 
7.755567e+2, 6.4636445e+1, -2187513.3, -2343623.8, -10563.437, 0.000094678944, 0.00015439183, -2186801.5, 119761.234 
7.755466e+2, 7.4627745e+1, -2099160.8, -2250415.5, -11013.499, 0.00041249147, -0.0013611771, -2098363.0, 110285.05 
7.755362e+2, 8.461865e+1, -2015471.5, -2168081.5, -13952.58, 0.0005708379, -0.0012400581, -2014206.4, 96530.75 
7.755254e+2, 9.46092e+1, -1925118.1, -2073834.1, -14205.243, 0.0005224663, -0.0013952448, -1923773.5, 89056.33 
7.755143e+2, 1.0459935e+2, -1840582.9, -1990799.1, -17105.717, 0.00051921746, -0.0007651626, -1838659.5, 76266.78 
7.7550274e+2, 1.1458913e+2, -1750994.3, -1896899.0, -17326.963, 0.00056770927, -0.0012633083, -1748964.8, 68061.64 
7.7549094e+2, 1.2457852e+2, -1667194.9, -1814643.5, -19268.291, 0.00022729952, -0.0005995013, -1664718.5, 54411.887 
7.75479e+2, 1.3456751e+2, -1577744.9, -1720797.9, -19496.656, -0.0005354187, -0.00072643306, -1575135.3, 46102.918 
7.754668e+2, 1.4455615e+2, -1493414.5, -1637626.5, -20849.328, -0.00036141314, -0.0004766321, -1490460.8, 32888.926 
7.754545e+2, 1.5454441e+2, -1403491.3, -1543477.4, -20968.96, 0.0009402255, -0.0019734763, -1400417.6, 25046.945 
7.754421e+2, 1.645323e+2, -1319256.6, -1460533.1, -21632.691, 0.0008908004, -0.0014921023, -1316018.4, 11564.841 
7.754296e+2, 1.7451987e+2, -1229840.6, -1366602.9, -21599.459, -0.0007636702, -0.0009845626, -1226510.4, 3194.9336 
7.754171e+2, 1.84507e+2, -1145933.0, -1284113.1, -21558.813, -0.0011773971, -0.00000062864905, -1142647.5, -10816.178 
7.754047e+2, 1.9449377e+2, -1056246.1, -1190069.6, -21636.518, -0.000117692885, -0.0006074617, -1052834.9, -18873.951 
7.753923e+2, 2.0448016e+2, -971840.2, -1106810.3, -20933.693, 0.00029338046, -0.000516371, -968668.0, -32573.598 
7.7537996e+2, 2.1446618e+2, -882085.2, -1012663.75, -20775.09, -0.0001252316, -0.0017295397, -878859.56, -40628.348 
7.753678e+2, 2.2445183e+2, -798067.06, -930289.06, -19415.082, -0.0004604347, -0.0013236814, -795275.2, -54903.16 
7.753558e+2, 2.344371e+2, -708215.8, -835983.3, -19237.072, -0.00068926794, -0.0014664513, -705382.25, -62865.848 
7.7534413e+2, 2.4442194e+2, -624064.75, -753310.5, -17226.148, -0.00066913205, -0.00085011666, -621808.2, -77143.38 
7.753326e+2, 2.5440645e+2, -534192.44, -658832.56, -16995.26, -0.00033799116, -0.0014640959, -531916.56, -85099.93 
7.7532154e+2, 2.6439053e+2, -450185.72, -576851.4, -14208.33, -0.00035136237, -0.0011852309, -448611.5, -99638.82 
7.7531075e+2, 2.7437425e+2, -359618.4, -481935.7, -13889.239, -0.0007763707, -0.002166048, -358061.1, -106928.73 
7.7530026e+2, 2.8435746e+2, -276178.22, -401339.53, -10789.258, -0.000884539, -0.0016360598, -275254.97, -121958.266 
7.752903e+2, 2.9434028e+2, -185962.97, -306519.63, -10337.989, -0.00064839533, -0.0018784464, -185082.89, -129617.84 
7.7528083e+2, 3.0432612e+2, -102078.96, -173139.63, -5933.783, -0.00034045652, -0.0016262259, -101586.875, -101586.875 
7.752719e+2, 3.14315e+2, -109219.63, -175894.81, -5576.3516, 0.00029045882, -0.0031716006, -108756.47, -108756.47 
7.752633e+2, 3.2430875e+2, -48444.21, -39622.95, -2717.4956, -0.002380199, 0.00007597677, -38852.996, -38852.996 
7.855977e+2, 3.4668395e+1, -2443693.8, -2603911.0, -1638.91, 0.0026271683, -0.0016866479, -2443677.0, 156572.69 
7.855884e+2, 4.4660679e+1, -2354355.3, -2517789.3, -3770.9434, -0.0008573009, -0.0018258609, -2354268.3, 148057.03 
7.855789e+2, 5.465267e+1, -2268547.3, -2426083.0, -3972.818, 0.00030821288, -0.00024169475, -2268447.3, 135956.69 
7.855689e+2, 6.464424e+1, -2185447.0, -2343614.3, -8626.039, 0.00093953335, 0.0005634546, -2184978.0, 121508.51 
7.855583e+2, 7.4635446e+1, -2094158.9, -2248981.3, -9033.366, 0.00092279847, -0.0015401611, -2093633.6, 114938.98 
7.855473e+2, 8.462627e+1, -2009748.1, -2166112.8, -12167.228, 0.0007240344, -0.0014829461, -2008807.0, 101855.484 
7.855359e+2, 9.4616735e+1, -1921476.8, -2072885.9, -12540.792, 0.0002995431, -0.0010691322, -1920445.1, 92310.8 
7.855242e+2, 1.0460682e+2, -1837947.3, -1990147.9, -15482.678, 0.00027113693, -0.00032419336, -1836388.3, 78464.88 
7.855121e+2, 1.14596546e+2, -1748390.1, -1896260.4, -15789.338, 0.0007095588, -0.00125221, -1746723.0, 70230.81 
7.8549975e+2, 1.24585874e+2, -1664559.3, -1813698.3, -17788.346, 0.0005267214, -0.00076609483, -1662466.9, 56591.457 
7.854871e+2, 1.3457485e+2, -1575395.0, -1720006.0, -17875.887, -0.0003501904, -0.00076152413, -1573218.0, 47948.387 
7.8547436e+2, 1.4456345e+2, -1491614.6, -1637008.8, -19125.191, -0.00042805247, -0.0003455577, -1489141.0, 34137.184 
7.854615e+2, 1.5455168e+2, -1402588.0, -1543310.9, -19262.502, 0.00045170795, -0.001648283, -1399998.9, 25394.48 
7.854485e+2, 1.6453956e+2, -1318750.6, -1460334.8, -20047.8, 0.0006031791, -0.0012636388, -1315966.6, 11545.559 
7.854354e+2, 1.745271e+2, -1229521.4, -1366468.6, -20161.908, -0.00013252754, -0.001155676, -1226614.8, 3019.5842 
7.854223e+2, 1.8451424e+2, -1145836.9, -1284010.9, -20101.459, -0.00052315264, -0.00022689163, -1142972.0, -11211.602 
7.854092e+2, 1.9450103e+2, -1056596.3, -1190186.1, -20024.871, -0.00049557956, -0.0004872587, -1053659.1, -19769.178 
7.853962e+2, 2.0448741e+2, -972633.7, -1106936.1, -19330.064, -0.0003149622, -0.00033450546, -969906.94, -33883.65 
7.8538334e+2, 2.1447347e+2, -883639.1, -1013165.06, -19303.125, 0.000014723925, -0.0018566232, -880823.6, -42663.723 
7.853706e+2, 2.2445914e+2, -800047.25, -930709.9, -17927.813, -0.0000061306014, -0.0015023517, -797632.06, -57331.69 
7.85358e+2, 2.3444444e+2, -710526.8, -836574.9, -17705.668, -0.0004762041, -0.001341211, -708087.0, -65642.69 
7.853458e+2, 2.4442935e+2, -626627.9, -754020.5, -15663.82, -0.0006735107, -0.00067627383, -624730.2, -80137.96 
7.853337e+2, 2.544139e+2, -536793.25, -659593.06, -15472.723, -0.0005092861, -0.0015817444, -534873.7, -88130.1 
7.8532195e+2, 2.6439804e+2, -453173.03, -577443.94, -12678.935, -0.00050221675, -0.0012907975, -451892.63, -102993.57 
7.853106e+2, 2.7438185e+2, -363878.25, -483114.4, -12286.74, -0.0006900844, -0.0018680877, -362625.3, -111567.37 
7.852996e+2, 2.8436515e+2, -280921.34, -402707.6, -9096.319, -0.0007321081, -0.0011698381, -280245.7, -127024.22 
7.8528905e+2, 2.9434806e+2, -190294.22, -307673.72, -8784.17, -0.00064302154, -0.0015751949, -189640.5, -134251.48 
7.8527904e+2, 3.0433396e+2, -106691.375, -174380.34, -4394.833, -0.00041403406, -0.0013381114, -106407.22, -106407.22 
7.852696e+2, 3.1432295e+2, -115042.06, -177726.97, -3824.3481, 0.00022701973, -0.0026664678, -114809.6, -114809.6 
7.8526044e+2, 3.243168e+2, -54706.07, -40690.734, -822.1539, -0.0027733478, -0.0003150459, -40642.67, -40642.67 
7.956117e+2, 3.4677014e+1, -2445345.5, -2607813.5, -632.50653, 0.0054916367, -0.00031679537, -2445343.0, 154822.27 
7.956021e+2, 4.4669107e+1, -2354971.8, -2518861.3, -6492.373, -0.004594862, -0.0020635098, -2354715.0, 147527.7 
7.9559183e+2, 5.4661036e+1, -2268742.3, -2426856.0, -6851.383, 0.000008946551, -0.0006778196, -2268446.0, 135875.97 
7.955812e+2, 6.465253e+1, -2185750.8, -2344738.0, -10186.902, 0.0021500532, 0.00033834745, -2185100.8, 121304.49 
7.9557014e+2, 7.464366e+1, -2094689.9, -2250235.5, -10546.075, 0.0014019214, -0.0011134497, -2093978.1, 114513.914 
7.955586e+2, 8.4634393e+1, -2010377.8, -2167438.8, -14426.313, 0.00075325766, -0.00089467777, -2009063.6, 101519.27 
7.9554653e+2, 9.462477e+1, -1922031.1, -2074179.1, -14818.103, 0.00021320938, -0.00087384955, -1920601.5, 92075.78 
7.955342e+2, 1.0461477e+2, -1838313.8, -1991142.5, -17460.531, 0.000029322116, -0.000276368, -1836344.4, 78430.945 
7.955215e+2, 1.1460442e+2, -1748805.0, -1897260.3, -17753.064, 0.00026394502, -0.0010765687, -1746711.5, 70165.09 
7.9550856e+2, 1.24593705e+2, -1664612.1, -1813929.0, -19870.572, 0.0005756184, -0.0008918945, -1662013.0, 56968.566 
7.954954e+2, 1.3458265e+2, -1575445.5, -1720213.9, -19973.469, 0.0010191189, -0.0016961682, -1572740.3, 48349.57 
7.95482e+2, 1.4457123e+2, -1491786.5, -1637430.3, -21268.828, 0.0004403033, -0.00087519316, -1488744.1, 34457.758 
7.9546845e+2, 1.5455946e+2, -1402776.5, -1543755.6, -21405.65, -0.0013446923, -0.00036478997, -1399598.1, 25719.104 
7.9545486e+2, 1.6454732e+2, -1318901.8, -1460695.0, -22149.89, -0.0011726453, 0.00016812717, -1315522.3, 11914.034 
7.9544115e+2, 1.7453481e+2, -1229690.4, -1366847.4, -22258.559, 0.0013248614, -0.0015303659, -1226168.6, 3390.209 
7.954275e+2, 1.8452194e+2, -1145704.1, -1283734.6, -22195.953, 0.0015260277, -0.0015845047, -1142222.8, -10537.823 
7.954138e+2, 1.9450873e+2, -1056466.4, -1189886.1, -22123.184, -0.0010243182, -0.0018271881, -1052893.6, -19079.287 
7.954002e+2, 2.0449515e+2, -972627.56, -1106833.0, -21499.25, -0.0017803147, -0.0010687328, -969267.6, -33320.18 
7.953867e+2, 2.1448123e+2, -883645.4, -1013071.6, -21474.482, -0.0003563987, -0.0013382094, -880175.4, -42091.49 
7.953734e+2, 2.2446692e+2, -799727.8, -929971.56, -19997.7, 0.0003244506, -0.00076263293, -796726.5, -56502.457 
7.9536015e+2, 2.3445229e+2, -710225.25, -835806.94, -19772.188, 0.000071977214, -0.0015917546, -707185.75, -64818.234 
7.953473e+2, 2.4443725e+2, -626438.3, -753441.3, -17679.348, -0.00037241675, -0.0012831596, -624023.2, -79508.19 
7.9533464e+2, 2.5442183e+2, -536648.0, -659037.0, -17479.857, -0.001057774, -0.0017824458, -534200.44, -87534.484 
7.953223e+2, 2.6440603e+2, -452713.8, -576261.4, -14844.72, -0.001037151, -0.0011194197, -450955.2, -102134.4 
7.953104e+2, 2.7438992e+2, -363381.78, -481885.97, -14466.06, -0.00009898049, -0.0013873792, -361641.44, -110662.67 
7.9529876e+2, 2.8437328e+2, -280575.72, -401796.84, -10965.671, -0.00021599252, -0.0004542614, -279591.75, -126450.23 
7.9528767e+2, 2.9435626e+2, -190010.58, -306812.06, -10629.323, -0.001736567, -0.0007414921, -189051.16, -133742.75 
7.9527706e+2, 3.0434224e+2, -106124.03, -172840.16, -6450.863, -0.0018862961, -0.0006717344, -105506.016, -105506.016 
7.9526705e+2, 3.1433135e+2, -114451.32, -176147.69, -5894.6313, 0.000028473163, -0.0024672386, -113893.18, -113893.18 
7.9525733e+2, 3.2432532e+2, -54157.918, -39200.074, -2582.5615, -0.0016772216, -0.0016777698, -38766.73, -38766.73 
8.056261e+2, 3.4686208e+1, -2436060.5, -2603744.8, 1075.3495, 0.0028174887, -0.0012146862, -2436053.5, 164021.67 
8.056159e+2, 4.4678253e+1, -2354363.5, -2519852.5, -4167.4116, -0.0017671009, 0.0009706143, -2354258.5, 147894.56 
8.056051e+2, 5.467002e+1, -2262409.5, -2425111.5, -4964.5923, 0.00051034975, -0.0012135911, -2262258.3, 141975.69 
8.055938e+2, 6.46614e+1, -2177798.0, -2341838.8, -8587.169, 0.0015505186, -0.0012420152, -2177349.8, 128968.54 
8.0558217e+2, 7.465246e+1, -2090494.6, -2249162.3, -8955.461, 0.0010621918, -0.00086460926, -2089990.9, 118415.07 
8.0556995e+2, 8.4643114e+1, -2007520.6, -2166741.8, -12805.041, 0.00070577953, -0.000013474212, -2006497.5, 104000.0 
8.055573e+2, 9.463341e+1, -1918051.0, -2072953.9, -13036.149, 0.0005079651, -0.00072052947, -1916961.6, 95630.9 
8.055444e+2, 1.0462335e+2, -1834256.4, -1989834.6, -15580.687, 0.00033374396, -0.00043601816, -1832711.4, 81979.836 
8.055311e+2, 1.1461294e+2, -1745798.0, -1896493.4, -15847.756, 0.00019140322, -0.00106832, -1744149.4, 72643.8 
8.055175e+2, 1.24602176e+2, -1662224.0, -1813191.3, -18048.998, 0.00036743272, -0.00070236967, -1660096.1, 58802.617 
8.0550367e+2, 1.3459107e+2, -1573525.1, -1719674.8, -18317.084, 0.000948096, -0.0013243017, -1571264.4, 49742.918 
8.0548966e+2, 1.4457962e+2, -1490148.3, -1636898.8, -19718.754, 0.00059717026, -0.00062323886, -1487544.9, 35574.75 
8.0547553e+2, 1.5456782e+2, -1401492.8, -1543389.9, -19819.457, -0.0008532907, -0.00058308116, -1398776.5, 26458.832 
8.054613e+2, 1.6455565e+2, -1317971.9, -1460353.1, -20495.031, -0.0008714066, -0.000095924595, -1315080.4, 12274.1875 
8.05447e+2, 1.7454314e+2, -1229332.1, -1366795.8, -20520.137, 0.00081762025, -0.0013390882, -1226334.4, 3142.8772 
8.054327e+2, 1.8453027e+2, -1145728.4, -1283550.6, -20426.904, 0.0010372382, -0.0013105557, -1142764.6, -11161.299 
8.054183e+2, 1.9451708e+2, -1057105.4, -1189976.6, -20383.78, -0.00053256756, -0.0018712654, -1054048.6, -20316.111 
8.054041e+2, 2.045035e+2, -973651.9, -1107179.3, -19763.877, -0.0011083327, -0.0010930102, -970787.94, -34922.453 
8.0538994e+2, 2.1448961e+2, -884763.4, -1013478.25, -19697.852, -0.00045226407, -0.00096102996, -881816.4, -43814.582 
8.05376e+2, 2.2447532e+2, -801067.0, -930217.0, -18218.787, -0.000091318965, -0.00027435095, -798546.1, -58404.36 
8.053622e+2, 2.3446073e+2, -712247.7, -836384.6, -18116.607, -0.00012854104, -0.0013421758, -709657.75, -67372.89 
8.053487e+2, 2.4444573e+2, -629109.4, -754087.8, -16022.429, -0.00034593305, -0.0010729977, -627088.0, -82656.1 
8.0533546e+2, 2.5443038e+2, -540299.44, -660127.6, -15689.651, -0.00080081035, -0.0013646309, -538279.2, -91696.93 
8.053225e+2, 2.6441464e+2, -456591.78, -577400.8, -12983.746, -0.00082226796, -0.0006813586, -455212.13, -106475.69 
8.0530995e+2, 2.743986e+2, -366637.78, -482710.72, -12751.339, -0.00026288375, -0.0011660407, -365253.5, -114359.7 
8.0529773e+2, 2.8438205e+2, -284071.03, -402505.34, -9254.022, -0.00042101883, -0.00029033894, -283352.3, -130296.53 
8.05286e+2, 2.943651e+2, -195114.5, -308294.56, -8773.54, -0.0015645686, -0.00043661564, -194438.42, -139216.61 
8.0527484e+2, 3.043512e+2, -111886.41, -174389.48, -4512.1675, -0.0017241953, -0.00046262465, -111562.35, -111562.35 
8.0526423e+2, 3.143404e+2, -120053.67, -177596.3, -3982.971, -0.0003020935, -0.0026228612, -119779.29, -119779.29 
8.05254e+2, 3.2433447e+2, -59977.664, -41034.043, -534.16547, -0.0017208387, -0.0009007158, -41018.992, -41018.992 
8.156407e+2, 3.4695882e+1, -2435107.0, -2601763.8, -3357.262, -0.0041685416, -0.003867924, -2435039.5, 164940.92 
8.1562984e+2, 4.4687995e+1, -2355116.3, -2522148.0, -5600.9937, 0.0061717075, 0.0065606576, -2354928.5, 147129.0 
8.156185e+2, 5.467952e+1, -2263602.0, -2427718.0, -6267.9985, 0.0016138582, -0.0018379156, -2263363.0, 140777.83 
8.156067e+2, 6.467075e+1, -2178473.8, -2343188.8, -11024.889, -0.000505098, -0.003894464, -2177739.0, 128487.66 
8.155943e+2, 7.466174e+1, -2091017.5, -2250408.3, -11432.399, 0.000045712466, -0.0007642442, -2090201.8, 118113.24 
8.155815e+2, 8.4652334e+1, -2007670.5, -2167329.5, -14772.78, 0.0005767319, 0.001093289, -2006315.1, 104092.0 
8.155682e+2, 9.4642586e+1, -1918276.6, -2073552.6, -14998.392, 0.0010842616, -0.00061685056, -1916841.3, 95661.42 
8.155547e+2, 1.0463245e+2, -1834611.5, -1990719.3, -17823.197, 0.0010556553, -0.00076910754, -1832602.4, 81999.53 
8.1554073e+2, 1.1462199e+2, -1746162.5, -1897373.1, -18094.492, 0.00041121867, -0.0011942022, -1744027.4, 72677.164 
8.1552655e+2, 1.2461116e+2, -1662592.4, -1814079.6, -20248.564, -0.00007473173, -0.00025734754, -1659932.5, 58878.06 
8.1551206e+2, 1.3460003e+2, -1573915.0, -1720563.3, -20508.225, -0.0003358406, 0.00012604543, -1571101.0, 49818.746 
8.1549746e+2, 1.4458852e+2, -1490251.6, -1637213.5, -21927.861, 0.00014301449, 0.00028187525, -1487049.6, 35982.93 
8.154827e+2, 1.5457667e+2, -1401597.9, -1543712.5, -22033.348, 0.0015244574, -0.0020511283, -1398260.3, 26888.379 
8.154678e+2, 1.6456449e+2, -1317972.1, -1460383.4, -22724.822, 0.0011199551, -0.0017620443, -1314433.8, 12834.213 
8.1545275e+2, 1.74552e+2, -1229333.1, -1366837.9, -22755.492, -0.0013711919, -0.0006607233, -1225665.3, 3725.2495 
8.154378e+2, 1.8453914e+2, -1145636.3, -1283362.8, -22675.672, -0.0016115783, 0.00035375162, -1141998.9, -10482.491 
8.1542283e+2, 1.9452596e+2, -1057021.1, -1189804.9, -22642.094, 0.0007954004, -0.0008120097, -1053266.4, -19620.799 
8.15408e+2, 2.045124e+2, -973563.75, -1106911.1, -21961.064, 0.0013480778, -0.0005075912, -970040.1, -34261.67 
8.153932e+2, 2.144985e+2, -884689.56, -1013210.4, -21889.514, -0.00033345996, -0.00070630177, -881063.7, -43149.098 
8.153786e+2, 2.2448425e+2, -800990.44, -929935.75, -20454.436, -0.0011855571, 0.0000024258493, -797823.5, -57769.22 
8.153642e+2, 2.3446967e+2, -712196.2, -836112.56, -20351.414, -0.001017014, -0.0006465385, -708939.4, -66742.15 
8.1535e+2, 2.4445471e+2, -628668.2, -753031.56, -18282.574, -0.0005861553, -0.00014009693, -626036.2, -81692.445 
8.153361e+2, 2.5443944e+2, -539831.1, -659023.1, -17955.604, 0.00013326723, -0.00040413608, -537184.94, -90691.625 
8.153226e+2, 2.6442376e+2, -456344.6, -576736.5, -15004.78, 0.0000053887993, -0.0000023104317, -454502.7, -105855.81 
8.153094e+2, 2.7440777e+2, -366469.16, -482102.94, -14750.73, -0.0011190627, -0.0011644018, -364617.16, -113813.305 
8.152966e+2, 2.8439128e+2, -283531.88, -401100.3, -11505.659, -0.0012931492, -0.00060501427, -282416.47, -129451.305 
8.1528425e+2, 2.943745e+2, -194527.8, -306829.66, -11043.988, -0.00031450373, -0.0006025099, -193452.02, -138321.88 
8.152724e+2, 3.0436066e+2, -111282.17, -172882.52, -6553.813, -0.00016464575, -0.0006573046, -110592.61, -110592.61 
8.152612e+2, 3.1434998e+2, -119486.92, -176117.73, -6010.107, -0.0007784169, -0.003098595, -118856.11, -118856.11 
8.1525034e+2, 3.243442e+2, -59748.37, -40177.05, -2377.2603, -0.0029012915, 0.0018404499, -39892.43, -39892.43 
8.256556e+2, 3.4706283e+1, -2431106.0, -2601313.8, -993.70215, -0.0019986597, -0.0016816655, -2431100.3, 168778.28 
8.25644e+2, 4.4698212e+1, -2344618.3, -2518099.0, -4144.5103, 0.003365986, 0.0024968546, -2344519.3, 157438.11 
8.256322e+2, 5.468968e+1, -2258559.5, -2426370.0, -4329.056, 0.0017222441, -0.0010717208, -2258447.8, 145593.25 
8.256197e+2, 6.4680827e+1, -2175393.5, -2342645.5, -8887.443, 0.0006464253, -0.0016378234, -2174922.8, 131205.27 
8.256067e+2, 7.467171e+1, -2086075.6, -2248979.0, -9299.657, 0.000107328844, -0.0007761377, -2085546.4, 122670.85 
8.255932e+2, 8.4662217e+1, -2002371.8, -2165596.0, -12707.848, 0.00018659174, 0.00018791723, -2001388.3, 108922.01 
8.2557935e+2, 9.465239e+1, -1914423.0, -2072561.5, -13165.595, 0.0009794568, -0.00085918605, -1913334.4, 99072.164 
8.255651e+2, 1.046422e+2, -1831464.6, -1989672.4, -16152.909, 0.0011615681, -0.0006055871, -1829832.3, 84674.18 
8.2555056e+2, 1.14631675e+2, -1743250.9, -1896441.3, -16337.559, 0.0006336538, -0.0009196878, -1741527.9, 75081.61 
8.2553566e+2, 1.246208e+2, -1660013.4, -1813280.4, -18376.783, 0.00008169147, -0.000090059264, -1657840.8, 60875.285 
8.255205e+2, 1.3460962e+2, -1571780.9, -1720018.9, -18537.766, -0.00046166632, -0.000052840132, -1569497.9, 51327.883 
8.2550526e+2, 1.4459807e+2, -1488459.8, -1636610.9, -19942.451, -0.000035938257, 0.00009664975, -1485822.3, 37116.6 
8.254898e+2, 1.545862e+2, -1400353.9, -1543364.8, -20077.523, 0.0015706107, -0.0018506697, -1397588.6, 27466.547 
8.2547426e+2, 1.6457401e+2, -1317052.4, -1460019.1, -20807.244, 0.0012962575, -0.0013937021, -1314085.6, 13089.08 
8.2545865e+2, 1.7456149e+2, -1228842.6, -1366663.3, -20863.572, -0.0012093135, -0.00037321504, -1225753.5, 3543.7446 
8.2544297e+2, 1.8454865e+2, -1145600.1, -1283403.8, -20885.402, -0.0016119012, 0.00062214915, -1142504.3, -11080.963 
8.2542735e+2, 1.9453545e+2, -1057543.9, -1190105.5, -20975.385, 0.0004931067, -0.000508422, -1054304.1, -20751.541 
8.2541186e+2, 2.0452191e+2, -974360.75, -1106945.0, -20263.195, 0.0010797695, -0.0002635691, -971333.06, -35647.78 
8.2539636e+2, 2.1450806e+2, -886031.0, -1013488.44, -20093.643, -0.00019525299, -0.0005865295, -882938.25, -45117.184 
8.253811e+2, 2.2449382e+2, -802878.7, -930487.0, -18612.895, -0.0009174987, 0.00010208628, -800219.2, -60258.71 
8.25366e+2, 2.3447928e+2, -714601.8, -836934.3, -18438.58, -0.00095528364, -0.00047584568, -711883.06, -69779.984 
8.253512e+2, 2.4446437e+2, -631165.1, -753640.8, -16322.166, -0.0006428738, 0.000020754238, -629027.25, -84778.03 
8.253367e+2, 2.5444916e+2, -542119.9, -659533.06, -16171.16, 0.000077106466, -0.00033066235, -539933.4, -93535.086 
8.2532245e+2, 2.6443353e+2, -459267.06, -577349.1, -13281.915, -0.000076265904, 0.00010176386, -457791.56, -109240.3 
8.253086e+2, 2.744176e+2, -371363.84, -483654.28, -12862.605, -0.0012762153, -0.0008771195, -369909.3, -119201.82 
8.252952e+2, 2.844012e+2, -288969.25, -402670.22, -9420.427, -0.001379809, -0.00037945205, -288194.03, -135326.03 
8.252822e+2, 2.9438445e+2, -198981.3, -307900.72, -9042.159, -0.000114410715, -0.00075891166, -198235.73, -143203.64 
8.2526976e+2, 3.043708e+2, -115619.65, -173835.9, -4693.6826, -0.000001394017, -0.00021447567, -115243.65, -115243.65 
8.252579e+2, 3.1436023e+2, -125040.66, -177674.72, -4198.5503, -0.0011123305, -0.0008089574, -124707.85, -124707.85 
8.2524645e+2, 3.243545e+2, -66528.695, -42182.16, -283.85587, -0.002989853, 0.001384862, -42178.85, -42178.85 
8.3567065e+2, 3.4717286e+1, -2433226.8, -2606232.8, -872.2546, 0.007120359, 0.004157135, -2433222.3, 166548.39 
8.3565855e+2, 4.470884e+1, -2345040.0, -2518881.3, -6796.4375, -0.007817724, -0.009041807, -2344774.8, 157078.66 
8.35646e+2, 5.47004e+1, -2258657.3, -2426878.0, -7087.028, 0.0010497996, 0.0008062999, -2258359.3, 145576.89 
8.3563286e+2, 6.4691526e+1, -2175757.8, -2343802.8, -10880.38, 0.00428502, 0.004459385, -2175056.3, 130966.945 
8.356192e+2, 7.4682254e+1, -2086583.4, -2250214.3, -11273.596, 0.0009973609, -0.0008930831, -2085810.3, 122303.65 
8.356051e+2, 8.4672636e+1, -2003054.0, -2167150.5, -15034.114, -0.0004236218, -0.002307117, -2001687.9, 108520.21 
8.355906e+2, 9.466272e+1, -1915119.0, -2074114.0, -15487.884, 0.0003056254, -0.0013754051, -1913624.3, 98681.016 
8.355757e+2, 1.04652464e+2, -1831636.8, -1990219.9, -18428.809, 0.0007393258, -0.000046030287, -1829523.3, 84882.53 
8.3556044e+2, 1.1464191e+2, -1743421.5, -1896949.5, -18621.643, 0.00083862466, -0.00031987627, -1741195.1, 75314.12 
8.3554494e+2, 1.24630995e+2, -1660160.6, -1813746.0, -20684.166, 0.0007052398, -0.0001426589, -1657423.8, 61192.47 
8.355291e+2, 1.3461977e+2, -1571961.9, -1720502.1, -20846.916, 0.00034028044, -0.0015608483, -1569091.5, 51634.777 
8.355131e+2, 1.4460818e+2, -1488640.1, -1637035.9, -22287.143, -0.0000220735, -0.0009719517, -1485365.1, 37474.62 
8.35497e+2, 1.5459631e+2, -1400544.8, -1543804.5, -22422.91, -0.00033487566, -0.00026128098, -1397117.1, 27839.014 
8.3548075e+2, 1.6458409e+2, -1317131.5, -1460173.1, -23139.865, -0.00005918546, 0.0006701, -1313481.3, 13594.597 
8.354645e+2, 1.7457156e+2, -1228930.3, -1366817.9, -23197.236, 0.000906531, -0.00041929644, -1225132.4, 4066.3638 
8.354482e+2, 1.8455867e+2, -1145767.9, -1283702.4, -23258.746, 0.0005877754, -0.0002797711, -1141951.5, -10626.536 
8.354318e+2, 1.9454548e+2, -1057711.9, -1190429.0, -23344.623, -0.001235588, -0.0008392417, -1053725.4, -20270.986 
8.354156e+2, 2.0453194e+2, -974087.06, -1106323.8, -22578.494, -0.0015408205, -0.00029682418, -970338.25, -34751.285 
8.353995e+2, 2.1451813e+2, -885759.1, -1012847.7, -22417.914, -0.00005693204, -0.00057671714, -881920.6, -44198.35 
8.353836e+2, 2.2450395e+2, -802646.8, -929899.7, -20981.354, 0.0004872352, 0.000049282386, -799276.7, -59415.418 
8.353678e+2, 2.3448944e+2, -714377.9, -836346.9, -20809.729, -0.00010149257, -0.00075863436, -710925.2, -68921.695 
8.353523e+2, 2.4447456e+2, -631024.56, -753241.75, -18534.738, -0.00056132936, -0.0004814151, -628275.56, -84126.27 
8.353371e+2, 2.5445938e+2, -542039.94, -659164.44, -18367.432, -0.00088015775, -0.001034387, -539227.1, -92929.04 
8.3532226e+2, 2.644438e+2, -458752.94, -576107.3, -15781.034, -0.0010032395, -0.0002949007, -456667.84, -108217.41 
8.3530766e+2, 2.7442798e+2, -370784.84, -482347.06, -15385.078, -0.0008386472, -0.00033024966, -368702.03, -118096.37 
8.3529365e+2, 2.844117e+2, -288487.22, -401535.8, -11454.087, -0.0008091184, 0.00032785928, -287338.38, -134573.08 
8.3528e+2, 2.9439503e+2, -198582.45, -306821.0, -11044.172, -0.0009218099, -0.0008905031, -197467.05, -142538.34 
8.3526695e+2, 3.0438143e+2, -115163.19, -172525.44, -7014.3267, -0.0011565534, 0.00082575966, -114317.92, -114317.92 
8.3525443e+2, 3.14371e+2, -124555.8, -176348.83, -6537.295, -0.0013448771, 0.003969277, -123743.41, -123743.41 
8.352424e+2, 3.2436532e+2, -65622.49, -39991.66, -2483.8599, -0.0021820692, -0.0020307964, -39753.17, -39753.17 
8.456861e+2, 3.4728912e+1, -2424048.8, -2603980.0, 1128.8845, 0.004700048, 0.0023169878, -2424041.5, 175615.08 
8.456734e+2, 4.4720373e+1, -2342140.8, -2518414.0, -4275.264, -0.0036559268, -0.005839533, -2342037.0, 159703.31 
8.456601e+2, 5.471181e+1, -2252352.3, -2424709.3, -4843.467, 0.0005151219, 0.00016734816, -2252216.3, 151608.13 
8.456463e+2, 6.470283e+1, -2168738.5, -2341462.3, -8847.479, 0.0024400176, 0.0027388108, -2168286.5, 137625.8 
8.45632e+2, 7.4693483e+1, -2081584.4, -2248898.3, -9324.711, 0.0015389741, -0.0006548812, -2081066.3, 126937.59 
8.4561723e+2, 8.468378e+1, -1999060.5, -2165974.0, -13103.383, 0.00076571177, -0.0013369329, -1998038.1, 112060.85 
8.45602e+2, 9.467379e+1, -1911369.5, -2073061.5, -13326.419, 0.00022593887, -0.0010304727, -1910278.5, 101918.36 
8.4558636e+2, 1.0466346e+2, -1828155.3, -1989194.4, -16181.818, 0.0001878135, -0.00007354761, -1826545.3, 87752.805 
8.4557045e+2, 1.1465284e+2, -1740290.3, -1896129.5, -16553.658, 0.00071323453, -0.0004252083, -1738551.3, 77850.914 
8.4555423e+2, 1.2464187e+2, -1657335.9, -1812791.0, -18774.799, 0.00090620527, -0.00020641979, -1655100.5, 63409.074 
8.455378e+2, 1.346306e+2, -1569753.5, -1719841.5, -18976.0, 0.00073831243, -0.0014812419, -1567391.5, 53228.637 
8.455211e+2, 1.4461899e+2, -1486851.5, -1636417.1, -20435.436, 0.00018909536, -0.00079956726, -1484109.6, 38624.28 
8.455042e+2, 1.5460709e+2, -1399259.1, -1543409.8, -20515.004, -0.00078581995, -0.000012409225, -1396396.4, 28454.125 
8.454873e+2, 1.6459484e+2, -1316303.0, -1459938.8, -21212.473, -0.0005654464, 0.000871351, -1313235.8, 13734.668 
8.454703e+2, 1.745823e+2, -1228642.3, -1366843.0, -21298.152, 0.0010618108, -0.0004294152, -1225434.5, 3658.98 
8.454533e+2, 1.8456942e+2, -1145699.4, -1283549.3, -21280.072, 0.0010146104, -0.00036828537, -1142489.1, -11269.334 
8.454363e+2, 1.9455622e+2, -1057916.9, -1190386.8, -21140.994, -0.0010082052, -0.00083994324, -1054624.9, -21275.83 
8.4541935e+2, 2.0454271e+2, -974772.44, -1106498.1, -20364.41, -0.0015708122, -0.00027494208, -971696.0, -36214.535 
8.454026e+2, 2.145289e+2, -887233.1, -1013400.6, -20419.607, -0.00037695907, -0.0006066976, -884010.6, -46393.914 
8.453859e+2, 2.2451474e+2, -804434.2, -930302.6, -19057.559, 0.00022962014, 0.000026178619, -801612.0, -61856.508 
8.453695e+2, 2.3450027e+2, -716319.7, -836822.56, -18889.91, 0.00008542247, -0.00069531274, -713427.94, -71530.69 
8.453533e+2, 2.4448545e+2, -633618.06, -753878.6, -16545.346, -0.00036082862, -0.0003485679, -631383.3, -87340.75 
8.453374e+2, 2.5447032e+2, -546009.56, -660470.5, -16222.731, -0.0011819168, -0.0008531856, -543754.7, -97563.836 
8.4532183e+2, 2.6445484e+2, -462864.56, -577281.75, -13572.945, -0.0013058012, -0.000001890188, -461276.47, -112933.86 
8.4530663e+2, 2.7443907e+2, -373702.44, -482937.88, -13347.915, -0.00053735124, 0.00016442194, -372095.06, -121597.92 
8.4529185e+2, 2.8442284e+2, -291718.13, -402084.0, -9497.716, -0.00059231796, 0.00071607827, -290906.75, -138250.73 
8.4527767e+2, 2.944063e+2, -204363.42, -308579.3, -9031.424, -0.0016253662, -0.0010113331, -203586.53, -148767.95 
8.452639e+2, 3.0439276e+2, -121863.61, -174493.02, -4818.4365, -0.0019187852, 0.00073751976, -121426.1, -121426.1 
8.4525067e+2, 3.1438246e+2, -130521.75, -177930.39, -4221.1294, -0.0011244834, 0.0046447255, -130148.84, -130148.84 
8.45238e+2, 3.2437685e+2, -71195.88, -41735.285, -277.07266, -0.0014067091, -0.0025959094, -41732.68, -41732.68 
8.5570174e+2, 3.4741074e+1, -2424710.5, -2605271.0, -3202.326, -0.0064159753, -0.005229745, -2424653.8, 174883.84 
8.556884e+2, 4.473265e+1, -2342585.8, -2519962.5, -6150.1016, 0.012234214, 0.008696589, -2342372.8, 159247.36 
8.556744e+2, 5.47238e+1, -2253061.0, -2426389.5, -6664.5117, 0.000029645284, -0.0024651845, -2252805.3, 150901.52 
8.556599e+2, 6.471465e+1, -2169491.8, -2343084.0, -11325.477, -0.003676544, -0.005043565, -2168756.0, 137040.48 
8.5564494e+2, 7.4705267e+1, -2082284.3, -2250479.8, -11810.179, 0.0017814825, -0.00011708927, -2081459.0, 126429.35 
8.556295e+2, 8.4695524e+1, -1999244.6, -2166555.5, -15476.25, 0.003328391, 0.0023558962, -1997825.1, 112158.695 
8.556135e+2, 9.4685465e+1, -1911541.1, -2073609.3, -15711.192, 0.0005828094, -0.00001539014, -1910032.1, 102050.38 
8.5559726e+2, 1.04675055e+2, -1828631.3, -1990399.3, -18554.453, -0.0005032572, -0.0005684808, -1826530.4, 87654.13 
8.5558057e+2, 1.14664346e+2, -1740825.6, -1897379.4, -18916.87, 0.00030234148, -0.0010963388, -1738572.4, 77717.06 
8.5556364e+2, 1.2465332e+2, -1657596.3, -1813462.3, -21213.398, 0.00073324813, -0.0002753537, -1654760.8, 63636.758 
8.5554653e+2, 1.3464202e+2, -1570021.1, -1720493.0, -21412.752, 0.00077031495, -0.00010504494, -1567033.3, 53475.03 
8.555291e+2, 1.4463037e+2, -1486931.1, -1636648.9, -22883.473, 0.00052658573, 0.0003876203, -1483511.6, 39110.73 
8.5551155e+2, 1.5461844e+2, -1399331.1, -1543637.4, -22970.875, -0.000053957592, -0.00087231066, -1395762.8, 28976.484 
8.554939e+2, 1.6460617e+2, -1316421.8, -1460220.4, -23670.793, -0.00041009014, -0.00045996983, -1312625.5, 14233.928 
8.554762e+2, 1.7459361e+2, -1228776.9, -1367134.3, -23752.13, -0.0004521737, -0.00040153216, -1224812.9, 4169.628 
8.554585e+2, 1.8458074e+2, -1145459.4, -1282991.9, -23707.61, -0.00005963901, 0.00023187906, -1141487.4, -10378.643 
8.554408e+2, 1.9456759e+2, -1057670.5, -1189810.0, -23582.14, 0.00084697385, -0.0005663068, -1053588.1, -20350.467 
8.5542315e+2, 2.0455408e+2, -974895.3, -1106678.5, -22886.244, 0.00055901136, -0.00020413958, -971033.94, -35663.965 
8.5540557e+2, 2.1454027e+2, -887387.2, -1013620.5, -22933.283, -0.0011123979, -0.00066878, -883349.94, -45844.54 
8.553882e+2, 2.2452612e+2, -804214.0, -929763.75, -21457.42, -0.0014827303, 0.00003531358, -800648.06, -61004.06 
8.553711e+2, 2.345117e+2, -716115.5, -836258.75, -21285.61, -0.00033072868, -0.0003244971, -712455.8, -70670.484 
8.553542e+2, 2.4449693e+2, -633193.9, -752873.94, -19095.217, -0.000080231584, 0.00034855743, -630221.06, -86290.95 
8.5533756e+2, 2.5448188e+2, -545568.7, -659439.06, -18784.543, -0.00093358237, 0.000103547725, -542549.94, -96472.266 
8.5532135e+2, 2.6446646e+2, -462606.13, -576630.9, -15790.578, -0.0010975454, 0.00090164645, -460459.78, -112230.984 
8.553055e+2, 2.7445072e+2, -373514.44, -482345.78, -15540.564, -0.0003839102, 0.00062301446, -371338.8, -120955.92 
8.5529006e+2, 2.8443456e+2, -291210.78, -400800.63, -12140.889, -0.0007191557, 0.0008307966, -289881.88, -137340.73 
8.5527503e+2, 2.944181e+2, -203800.94, -307245.72, -11704.244, -0.002279978, -0.001105715, -202493.2, -147790.47 
8.5526055e+2, 3.044047e+2, -121122.06, -172695.81, -6987.628, -0.0023816726, -0.0003528006, -120192.09, -120192.09 
8.552468e+2, 3.143945e+2, -129816.39, -176139.98, -6358.901, -0.00053235627, 0.0016226204, -128959.35, -128959.35 
8.552334e+2, 3.2438904e+2, -71307.79, -41592.77, -2362.2231, -0.00074874324, -0.0004933509, -41406.156, -41406.156 
8.657177e+2, 3.475406e+1, -2419476.8, -2603041.0, -930.42365, -0.0035804962, -0.004890964, -2419472.0, 179938.22 
8.6570364e+2, 4.4745544e+1, -2333405.0, -2517019.0, -3777.2292, 0.00794335, 0.008571105, -2333327.3, 168166.44 
8.65689e+2, 5.4736555e+1, -2247591.5, -2425323.3, -4473.538, 0.0007911472, -0.0020447192, -2247479.0, 156102.9 
8.656738e+2, 6.472729e+1, -2165295.3, -2341943.3, -9171.3545, -0.0016080958, -0.004688354, -2164820.3, 140852.25 
8.656581e+2, 7.471782e+1, -2077607.6, -2249088.3, -9482.84, 0.0010257389, -0.00042679513, -2077084.9, 130680.57 
8.656419e+2, 8.4707993e+1, -1994410.9, -2165029.8, -13156.146, 0.0019278042, 0.0019477351, -1993402.4, 116459.3 
8.6562526e+2, 9.469785e+1, -1907021.9, -2072238.5, -13603.226, 0.0009575327, 0.00007722726, -1905909.4, 106051.7 
8.656082e+2, 1.0468738e+2, -1824635.0, -1989119.4, -16557.453, 0.0004200706, -0.0003450962, -1822984.9, 91078.875 
8.655909e+2, 1.146766e+2, -1737789.9, -1896572.6, -16768.01, 0.00038715344, -0.0011552142, -1736038.5, 80130.805 
8.655732e+2, 1.2466553e+2, -1655077.4, -1812633.8, -18948.86, 0.0003443523, -0.00026120964, -1652830.5, 65447.344 
8.655553e+2, 1.3465418e+2, -1567860.8, -1719842.1, -19103.059, 0.00031301423, 0.00038815738, -1565496.4, 54892.625 
8.6553717e+2, 1.446425e+2, -1485113.6, -1636151.1, -20621.564, 0.00036562068, 0.0008131509, -1482348.8, 40154.76 
8.655189e+2, 1.5463053e+2, -1397929.9, -1543327.1, -20823.545, 0.0004955936, -0.001155164, -1395006.3, 29614.514 
8.6550057e+2, 1.6461824e+2, -1315298.9, -1459692.9, -21555.893, 0.0001541257, -0.0009230893, -1312149.6, 14591.617 
8.6548203e+2, 1.7460568e+2, -1228252.9, -1366872.3, -21512.465, -0.00069400284, -0.0004044121, -1224991.1, 3873.135 
8.654636e+2, 1.8459281e+2, -1145509.1, -1282970.3, -21483.227, -0.0005902242, 0.00045166907, -1142229.8, -11239.344 
8.654452e+2, 1.9457966e+2, -1058305.9, -1190078.3, -21607.514, 0.0006530653, -0.00037866214, -1054853.3, -21733.96 
8.6542684e+2, 2.0456617e+2, -975827.3, -1106861.6, -20961.766, 0.00067886733, 0.000017488526, -972555.7, -37304.125 
8.6540854e+2, 2.1455237e+2, -888535.3, -1013907.25, -20770.11, -0.0007331118, -0.00037150938, -885183.94, -47797.184 
8.653904e+2, 2.2453825e+2, -805773.6, -930083.5, -19146.885, -0.0012511001, 0.0003530424, -802891.3, -63366.2 
8.653726e+2, 2.3452386e+2, -718528.1, -837009.7, -19010.473, -0.0007283088, -0.000018580828, -715552.6, -73886.47 
8.6535496e+2, 2.4450915e+2, -635873.4, -753543.6, -16899.906, -0.0005569579, 0.0006082437, -633494.25, -89683.82 
8.6533767e+2, 2.5449413e+2, -548045.94, -660003.25, -16723.234, -0.0008214304, 0.00027015916, -545601.3, -99643.85 
8.653207e+2, 2.6447877e+2, -465738.47, -577283.75, -13655.21, -0.00084785774, 0.0008498692, -464091.16, -115983.12 
8.6530405e+2, 2.7446315e+2, -378579.56, -483927.72, -13226.809, -0.0005727007, 0.00019398474, -376944.28, -126682.82 
8.652879e+2, 2.8444704e+2, -296720.63, -402450.8, -9796.47, -0.0009493341, 0.00084751286, -295820.6, -143401.72 
8.652722e+2, 2.9443067e+2, -208090.77, -308308.06, -9440.37, -0.0020277004, 0.00037598005, -207209.23, -152629.75 
8.65257e+2, 3.0441737e+2, -125330.83, -173505.03, -4732.858, -0.0020348388, 0.00008863655, -124870.26, -124870.26 
8.6524254e+2, 3.1440723e+2, -135795.06, -177798.38, -4233.401, -0.0006495438, -0.0020596483, -135372.63, -135372.63 
8.6522853e+2, 3.2440194e+2, -78860.2, -43667.652, 128.42633, -0.00082486495, 0.0018670729, -43667.184, -43667.184 
8.7573403e+2, 3.4767726e+1, -2419133.8, -2602720.5, -1818.1082, 0.009518288, 0.0012966774, -2419115.8, 180160.69 
8.75719e+2, 4.475896e+1, -2334591.0, -2519472.8, -6564.0996, -0.01169366, -0.0026846796, -2334358.3, 167003.88 
8.7570375e+2, 5.474994e+1, -2248619.8, -2427719.3, -7268.0913, 0.0025419751, 0.0007764843, -2248325.5, 155125.25 
8.7568784e+2, 6.474059e+1, -2165502.0, -2342755.5, -11503.965, 0.0067028194, 0.0019334853, -2164758.5, 140783.8 
8.756714e+2, 7.4730986e+1, -2077882.5, -2249901.0, -11825.797, -0.0005562442, -0.001408568, -2077073.4, 130563.02 
8.7565446e+2, 8.472105e+1, -1995036.5, -2166467.5, -15600.219, -0.0025748648, -0.0016423118, -1993628.4, 116105.266 
8.756372e+2, 9.4710845e+1, -1907698.8, -2073715.4, -16038.931, 0.0013249575, -0.00054678094, -1906163.4, 105670.31 
8.756194e+2, 1.0470031e+2, -1824900.3, -1989745.4, -19140.861, 0.0025667103, 0.00045050195, -1822706.9, 91230.1 
8.7560123e+2, 1.14689484e+2, -1738014.1, -1897168.3, -19360.938, 0.00083847676, -0.0007180141, -1735692.8, 80350.36 
8.755828e+2, 1.24678366e+2, -1655217.3, -1813093.6, -21476.023, -0.00024287237, -0.0001726052, -1652348.0, 65804.02 
8.755642e+2, 1.3466698e+2, -1568033.1, -1720307.8, -21633.537, -0.0005616673, 0.00016349768, -1565019.4, 55244.246 
8.755453e+2, 1.4465526e+2, -1485436.6, -1636855.8, -23170.912, -0.00023207278, 0.00062461966, -1481970.3, 40408.207 
8.755263e+2, 1.5464325e+2, -1398272.4, -1544058.4, -23362.281, 0.0008774011, -0.0009602078, -1394620.1, 29876.16 
8.755072e+2, 1.6463093e+2, -1315199.8, -1459513.8, -24148.754, 0.0010276639, -0.0006696313, -1311266.0, 15350.806 
8.75488e+2, 1.746184e+2, -1228137.0, -1366672.1, -24121.607, 0.00009941621, -0.00044217947, -1224057.1, 4682.685 
8.754688e+2, 1.8460551e+2, -1145711.6, -1283375.4, -24061.05, -0.00069378724, 0.00035248612, -1141627.4, -10761.344 
8.754496e+2, 1.9459233e+2, -1058554.0, -1190528.5, -24172.275, -0.0013077765, -0.000270289, -1054266.0, -21270.826 
8.7543046e+2, 2.0457885e+2, -975516.2, -1106184.1, -23516.256, -0.00093191396, 0.00036911233, -971412.8, -36285.477 
8.754115e+2, 2.1456511e+2, -888214.9, -1013179.06, -23330.719, 0.0005848687, 0.00023160047, -884001.1, -46739.156 
8.753926e+2, 2.2455102e+2, -805605.7, -929630.25, -21762.346, 0.0006040572, 0.00093363586, -801897.94, -62497.973 
8.75374e+2, 2.3453666e+2, -718385.5, -836580.06, -21627.857, -0.0011463455, 0.00022896501, -714552.25, -73011.57 
8.7535566e+2, 2.4452198e+2, -635690.4, -753051.4, -19397.848, -0.0017143257, 0.0004931946, -632567.3, -88882.64 
8.753376e+2, 2.54507e+2, -547886.3, -659532.56, -19215.012, -0.00086228974, -0.00024948997, -544671.9, -98840.5 
8.753199e+2, 2.644917e+2, -465198.28, -576004.44, -16342.585, -0.00061908294, -0.00003124756, -462838.2, -114856.86 
8.7530255e+2, 2.7447614e+2, -378005.8, -482607.3, -15929.905, -0.0010983747, -0.0010141168, -375633.63, -125499.77 
8.752856e+2, 2.844602e+2, -296275.44, -401399.38, -12160.979, -0.0013068623, 0.0007973495, -294886.97, -142596.67 
8.7526923e+2, 2.9444388e+2, -207699.56, -307301.88, -11780.05, -0.0010310829, 0.0033005665, -206325.28, -151875.38 
8.752534e+2, 3.0443066e+2, -124881.586, -172245.27, -7316.2803, -0.0010351866, 0.0019281494, -123777.19, -123777.19 
8.752381e+2, 3.1442055e+2, -135347.73, -176542.56, -6832.473, -0.0014414418, -0.006333137, -134244.08, -134244.08 
8.7522334e+2, 3.2441553e+2, -77282.41, -40075.797, -2432.5513, -0.001679682, 0.004514738, -39917.434, -39917.434 
8.857504e+2, 3.4782135e+1, -2411329.8, -2600950.0, 727.9446, 0.006977316, 0.0028080354, -2411326.8, 187808.28 
8.857348e+2, 4.4773194e+1, -2330091.3, -2518264.5, -4503.7954, -0.0075240214, -0.005146948, -2329983.5, 171239.19 
8.857188e+2, 5.4764104e+1, -2241960.0, -2425428.8, -4721.3193, 0.002173293, 0.00090890325, -2241838.5, 161473.22 
8.8570213e+2, 6.4754677e+1, -2158553.8, -2340497.5, -8933.054, 0.0050900443, 0.0031217213, -2158116.3, 147288.02 
8.856849e+2, 7.474495e+1, -2072474.3, -2248411.8, -9534.0205, 0.00008635181, -0.00090945116, -2071959.1, 135540.44 
8.856673e+2, 8.473492e+1, -1990662.6, -2165201.0, -13374.562, -0.0015078869, -0.0016093885, -1989643.8, 119954.086 
8.8564914e+2, 9.472463e+1, -1904223.0, -2072875.5, -13656.991, 0.0008492052, -0.0007058282, -1903124.3, 108574.38 
8.8563067e+2, 1.04714036e+2, -1821645.0, -1988742.4, -16696.85, 0.0017113619, 0.00045048873, -1819993.0, 93809.57 
8.856118e+2, 1.1470316e+2, -1734581.5, -1896102.0, -16975.443, 0.000856191, -0.00019952026, -1732816.8, 83092.35 
8.8559264e+2, 1.24691986e+2, -1652092.3, -1812109.3, -19227.59, 0.0002027326, 0.00017549875, -1649814.3, 68204.266 
8.855732e+2, 1.3468054e+2, -1565709.4, -1719735.5, -19497.572, -0.00020141163, -0.00037746187, -1563279.5, 56851.164 
8.855536e+2, 1.4466879e+2, -1483574.5, -1636152.1, -20973.453, -0.0001476186, 0.00014325783, -1480744.0, 41501.84 
8.855338e+2, 1.5465675e+2, -1396959.6, -1543612.0, -20950.787, 0.000488828, -0.00033754803, -1394025.3, 30338.506 
8.855139e+2, 1.6464444e+2, -1314327.1, -1459309.6, -21735.813, 0.00064270344, 0.00021876248, -1311138.6, 15345.873 
8.854939e+2, 1.7463186e+2, -1227579.3, -1366598.1, -21920.854, 0.00023206194, -0.0002387903, -1224204.6, 4403.1235 
8.8547397e+2, 1.8461898e+2, -1145438.9, -1283167.9, -21898.54, -0.00039023615, 0.00028791372, -1142040.9, -11306.832 
8.85454e+2, 1.946058e+2, -1059011.3, -1190660.1, -21756.729, -0.0012375533, -0.00013796489, -1055508.8, -22645.625 
8.854341e+2, 2.0459233e+2, -976477.06, -1106355.1, -20986.799, -0.0010603565, 0.00049982476, -973170.06, -38174.88 
8.8541436e+2, 2.1457861e+2, -889644.4, -1013587.0, -20981.953, 0.00031261402, 0.00017738581, -886188.7, -49059.082 
8.8539475e+2, 2.2456458e+2, -807364.9, -930017.06, -19517.87, 0.00041408668, 0.0008063931, -804333.9, -65066.62 
8.853753e+2, 2.3455025e+2, -720524.44, -837146.56, -19324.473, -0.0010246452, 0.00013382212, -717405.75, -75998.15 
8.853562e+2, 2.445356e+2, -638388.75, -753762.8, -16971.104, -0.0015149175, 0.00048144348, -635944.1, -92392.984 
8.853374e+2, 2.5452068e+2, -551525.7, -660704.1, -16692.373, -0.00086372683, -0.00010542664, -549030.56, -103333.23 
8.8531893e+2, 2.6450545e+2, -469077.6, -577011.75, -13846.377, -0.00080690795, 0.00018381923, -467329.63, -119482.88 
8.8530076e+2, 2.7448997e+2, -381551.75, -483450.1, -13584.528, -0.0014653718, -0.00082457863, -379771.8, -129773.28 
8.852831e+2, 2.8447407e+2, -300149.6, -402110.75, -9726.084, -0.00150212, 0.00068709353, -299230.1, -147075.95 
8.8526607e+2, 2.9445788e+2, -213082.02, -308716.97, -9176.738, -0.0005835226, 0.0025589801, -212209.4, -157896.56 
8.852494e+2, 3.0444473e+2, -131294.19, -174398.33, -4761.6494, -0.0006576541, 0.0018040804, -130774.44, -130774.44 
8.852334e+2, 3.1443477e+2, -142078.25, -178864.95, -4351.7744, -0.0021235817, -0.0042958325, -141570.45, -141570.45 
8.852179e+2, 3.244298e+2, -83365.01, -40808.633, -119.06906, -0.002094433, 0.0037088015, -40808.297, -40808.297 
8.957671e+2, 3.4797168e+1, -2413518.3, -2605726.8, -2717.5654, -0.006973718, 0.0009355771, -2413480.0, 185507.88 
8.95751e+2, 4.4788098e+1, -2330005.5, -2518651.5, -6685.4033, 0.0144323325, -0.00095372245, -2329769.0, 171307.83 
8.957341e+2, 5.477892e+1, -2242047.8, -2425812.8, -6912.8315, 0.000079704354, -0.0010151658, -2241788.0, 161378.56 
8.957166e+2, 6.4769393e+1, -2159484.5, -2342493.3, -11669.655, -0.004084156, 0.00019218492, -2158743.3, 146516.63 
8.956987e+2, 7.4759585e+1, -2073339.8, -2250398.0, -12264.667, 0.0024398048, 0.00075781107, -2072494.3, 134861.94 
8.956803e+2, 8.474946e+1, -1990928.6, -2166007.0, -16023.0625, 0.0038048236, 0.0012308874, -1989474.4, 119981.0 
8.956613e+2, 9.473909e+1, -1904476.0, -2073661.4, -16314.521, -0.00033873648, -0.0005010855, -1902917.3, 108639.8 
8.9564204e+2, 1.04728416e+2, -1821942.8, -1989567.9, -19234.924, -0.0015340836, -0.00015634422, -1819763.9, 93897.71 
8.9562243e+2, 1.147175e+2, -1734956.6, -1896955.1, -19508.295, 0.00051430357, 0.00038499603, -1732640.5, 83128.11 
8.956025e+2, 1.2470626e+2, -1652503.5, -1813032.4, -21941.688, 0.0014350141, 0.00073521986, -1649558.4, 68320.27 
8.9558226e+2, 1.3469476e+2, -1566106.9, -1720653.9, -22207.236, 0.0011118831, -0.0011699877, -1562979.1, 57012.395 
8.955619e+2, 1.4468296e+2, -1483475.1, -1636037.4, -23638.26, 0.00044796825, -0.0005671054, -1479896.5, 42210.566 
8.955413e+2, 1.5467095e+2, -1396864.4, -1543481.4, -23631.338, -0.00054671144, 0.0006230796, -1393149.8, 31075.012 
8.955206e+2, 1.6465862e+2, -1314649.8, -1459970.3, -24400.205, -0.0008062784, 0.0016143227, -1310662.3, 15683.349 
8.954999e+2, 1.7464598e+2, -1227921.0, -1367310.5, -24574.71, -0.00020991583, 0.00016125987, -1223715.4, 4754.033 
8.9547914e+2, 1.8463309e+2, -1145201.0, -1282636.8, -24632.617, 0.00023188203, 0.00025632384, -1140919.5, -10323.652 
8.954584e+2, 1.9461995e+2, -1058752.3, -1190087.0, -24504.854, 0.0005119679, 0.00000014654242, -1054329.0, -21604.47 
8.9543766e+2, 2.046065e+2, -976475.06, -1106318.0, -23665.59, 0.000021250922, 0.00043623138, -972296.2, -37439.86 
8.954171e+2, 2.1459277e+2, -889691.5, -1013589.9, -23650.844, -0.0013417411, -0.00044427632, -885330.3, -48339.508 
8.953967e+2, 2.2457875e+2, -807101.06, -929388.8, -22218.59, -0.0015540806, 0.000067712535, -803189.25, -64061.02 
8.9537656e+2, 2.3456448e+2, -720267.44, -836495.6, -22029.762, -0.00045725275, -0.00024882777, -716232.06, -74963.96 
8.953567e+2, 2.445499e+2, -638030.8, -752881.9, -19702.883, -0.00016937428, 0.0005723358, -634744.75, -91333.67 
8.9533705e+2, 2.5453505e+2, -551169.1, -659823.56, -19428.324, -0.0008656241, 0.0006261747, -547799.7, -102243.07 
8.953178e+2, 2.6451987e+2, -468793.22, -576256.25, -16453.71, -0.0014054336, 0.0013802714, -466330.44, -118625.08 
8.9529896e+2, 2.7450442e+2, -381300.9, -482730.38, -16186.267, -0.0017161996, 0.00061588973, -378780.5, -128923.93 
8.9528054e+2, 2.8448862e+2, -299467.38, -400485.72, -12452.84, -0.0015796316, 0.0005245426, -297954.9, -145943.39 
8.9526266e+2, 2.9447252e+2, -212373.95, -307056.4, -11916.538, -0.00067771605, -0.0014651313, -210897.2, -156727.81 
8.9524525e+2, 3.044595e+2, -130920.484, -173346.4, -7442.869, -0.0008990727, -0.000036894548, -129652.66, -129652.66 
8.9522845e+2, 3.1444967e+2, -141735.55, -177864.06, -7016.255, -0.0027390395, 0.0035124696, -140420.81, -140420.81 
8.952122e+2, 3.2444474e+2, -82538.02, -38807.098, -2671.7114, -0.0021693006, -0.0003536845, -38644.477, -38644.477 
9.057842e+2, 3.4813073e+1, -2406124.3, -2604174.0, -95.90043, -0.0036994785, -0.00082035613, -2406124.3, 192707.67 
9.057672e+2, 4.4803903e+1, -2321444.0, -2515626.3, -3714.7488, 0.010921935, 0.002313383, -2321373.0, 179548.9 
9.057495e+2, 5.479458e+1, -2236546.3, -2424320.3, -4440.428, -0.00009408018, -0.000976413, -2236441.3, 166571.89 
9.057313e+2, 6.4784944e+1, -2155165.0, -2341436.8, -9284.9375, -0.0031061643, -0.000917771, -2154703.3, 150404.3 
9.0571266e+2, 7.477504e+1, -2068326.6, -2248987.8, -9617.636, 0.0022804486, 0.00079643953, -2067816.0, 139388.67 
9.056934e+2, 8.476484e+1, -1985606.0, -2164306.0, -13394.366, 0.0034437343, 0.001810235, -1984607.6, 124697.02 
9.056737e+2, 9.475438e+1, -1899533.9, -2072148.4, -13832.536, 0.00006730585, -0.00008888637, -1898432.4, 112974.74 
9.056536e+2, 1.0474364e+2, -1817666.1, -1988141.3, -16838.389, -0.0010333717, -0.0000073225547, -1816018.9, 97493.58 
9.0563315e+2, 1.1473265e+2, -1732003.3, -1896177.4, -17107.08, 0.00039446956, 0.00021337462, -1730239.6, 85380.42 
9.0561247e+2, 1.2472136e+2, -1650108.5, -1812321.0, -19449.758, 0.0010878138, 0.0007181006, -1647809.0, 69921.67 
9.055915e+2, 1.347098e+2, -1563652.0, -1719942.0, -19578.87, 0.0009567385, -0.0005366364, -1561236.6, 58607.348 
9.0557027e+2, 1.4469798e+2, -1481270.8, -1635255.3, -21108.967, 0.0004494371, -0.000007777514, -1478429.5, 43530.273 
9.055488e+2, 1.5468594e+2, -1395472.6, -1543067.0, -21318.51, -0.00047795876, 0.000341751, -1392455.0, 31622.734 
9.055274e+2, 1.6467358e+2, -1313781.4, -1459651.6, -22026.217, -0.0007358281, 0.0011768293, -1310528.0, 15670.86 
9.0550584e+2, 1.7466095e+2, -1227547.5, -1367222.4, -21946.188, -0.00018060929, 0.00029854756, -1224180.4, 4142.3403 
9.054843e+2, 1.8464804e+2, -1145092.8, -1282485.1, -22014.322, 0.00024494829, 0.0005895195, -1141651.6, -11202.446 
9.054627e+2, 1.9463491e+2, -1058913.1, -1190072.5, -22092.29, 0.0005436509, 0.00012057356, -1055291.9, -22714.041 
9.054412e+2, 2.0462148e+2, -977094.8, -1106372.4, -21296.857, 0.000025607718, 0.00048015913, -973676.8, -38967.277 
9.054199e+2, 2.1460778e+2, -891157.7, -1014054.9, -21156.035, -0.001432531, -0.0003124139, -887617.75, -50773.94 
9.0539867e+2, 2.2459377e+2, -809099.94, -929878.25, -19647.875, -0.0016128445, 0.00023362618, -805984.06, -67003.08 
9.0537775e+2, 2.3457956e+2, -722725.7, -837215.25, -19508.389, -0.00034123444, -0.00011892312, -719492.8, -78372.41 
9.05357e+2, 2.4456502e+2, -640680.5, -753437.2, -17193.826, -0.00006576922, 0.0006027401, -638116.94, -94854.0 
9.053366e+2, 2.5455022e+2, -554025.7, -660464.56, -16916.72, -0.0010058867, 0.00048727499, -551401.75, -105993.88 
9.053166e+2, 2.6453513e+2, -472231.34, -577111.06, -13893.602, -0.0015435725, 0.0013408975, -470422.03, -122866.08 
9.052969e+2, 2.7451974e+2, -385917.53, -484152.8, -13514.029, -0.0015806715, 0.0010074917, -384092.34, -134385.86 
9.052777e+2, 2.8450403e+2, -304571.6, -401909.28, -9767.745, -0.001482518, 0.0007611506, -303601.1, -151740.45 
9.05259e+2, 2.94488e+2, -217479.1, -308455.34, -9418.894, -0.0009800396, -0.0020954513, -216514.19, -162496.48 
9.0524083e+2, 3.044751e+2, -135941.39, -174300.83, -4890.2085, -0.0012404621, -0.00013597065, -135327.78, -135327.78 
9.052232e+2, 3.1446543e+2, -147204.19, -179015.5, -4056.4983, -0.002728104, 0.0057068705, -146695.06, -146695.06 
9.052062e+2, 3.244605e+2, -89531.84, -41812.973, 110.39061, -0.0016030656, -0.0020328688, -41812.72, -41812.72 
9.1580176e+2, 3.4829703e+1, -2406717.8, -2605336.0, -2428.3813, 0.011845657, -0.0024410689, -2406688.0, 191980.88 
9.157836e+2, 4.4820446e+1, -2322580.5, -2518089.0, -6721.295, -0.011494432, 0.004898968, -2322349.5, 178410.13 
9.157653e+2, 5.481094e+1, -2237551.5, -2426724.8, -7446.2983, 0.0012445496, 0.00056339405, -2237258.8, 165594.13 
9.1574633e+2, 6.480117e+1, -2155382.3, -2342277.8, -11808.269, 0.0054551237, -0.0006346055, -2154639.3, 150309.39 
9.157267e+2, 7.4791193e+1, -2068650.3, -2249873.3, -12141.672, 0.00013174773, -0.00039332462, -2067840.4, 139206.05 
9.1570675e+2, 8.478091e+1, -1986242.5, -2165718.8, -16133.055, -0.0012706966, 0.0006842551, -1984803.9, 124343.36 
9.1568625e+2, 9.477036e+1, -1900174.3, -2073597.5, -16563.45, 0.0016938716, 0.00050111185, -1898606.5, 112644.016 
9.156654e+2, 1.04759544e+2, -1818026.6, -1988976.8, -19686.367, 0.0023224314, 0.00073807925, -1815788.9, 97567.71 
9.156441e+2, 1.14748485e+2, -1732334.3, -1897001.1, -19964.97, 0.000411531, -0.0005490653, -1729948.3, 85516.73 
9.1562253e+2, 1.2473715e+2, -1650206.6, -1812666.9, -22135.072, -0.0005369516, 0.0002676317, -1647244.8, 70331.18 
9.156007e+2, 1.3472559e+2, -1563814.8, -1720301.6, -22261.168, -0.00039020818, 0.0012341705, -1560709.6, 58979.684 
9.155787e+2, 1.4471373e+2, -1481637.0, -1636013.0, -23969.174, -0.000052784344, 0.001557838, -1478001.0, 43804.496 
9.1555643e+2, 1.5470162e+2, -1395810.8, -1543830.3, -24178.47, 0.00047080577, -0.00095325476, -1391961.4, 31962.896 
9.155342e+2, 1.6468923e+2, -1313600.4, -1459352.5, -24793.207, 0.00054827664, -0.00074519287, -1309498.3, 16547.318 
9.1551185e+2, 1.7467664e+2, -1227398.8, -1366928.6, -24722.697, 0.00020920191, 0.00021598276, -1223147.8, 5021.3003 
9.1548944e+2, 1.8466373e+2, -1145250.0, -1282748.9, -24820.525, -0.00027898175, 0.0012180145, -1140906.8, -10611.241 
9.15467e+2, 1.9465059e+2, -1059090.6, -1190354.5, -24891.674, -0.000902719, 0.00021328626, -1054529.0, -22104.621 
9.154448e+2, 2.0463714e+2, -976895.06, -1105897.5, -24166.955, -0.00090995757, 0.0006092593, -972516.4, -37960.355 
9.1542256e+2, 2.146235e+2, -890953.6, -1013564.8, -24032.39, -0.00021119161, 0.00045490824, -886411.44, -49721.555 
9.1540056e+2, 2.2460952e+2, -808902.75, -929421.0, -22463.063, -0.00008679717, 0.0011675783, -804852.06, -66025.375 
9.153788e+2, 2.3459533e+2, -722556.6, -836759.44, -22320.723, -0.0006522429, 0.00044979545, -718349.06, -77383.23 
9.1535723e+2, 2.4458082e+2, -640315.6, -752583.44, -19971.645, -0.0010626294, 0.00057562045, -636868.7, -93760.72 
9.153361e+2, 2.545661e+2, -553682.4, -659625.5, -19699.75, -0.0013042096, -0.00040760005, -550137.9, -104885.555 
9.153152e+2, 2.6455104e+2, -471769.1, -575939.94, -16792.1, -0.0013353319, 0.00023321524, -469129.13, -121729.414 
9.152947e+2, 2.745358e+2, -385435.06, -482975.34, -16423.313, -0.0011419248, 0.00047823135, -382744.03, -133194.67 
9.152747e+2, 2.8452015e+2, -304196.56, -400971.94, -12504.602, -0.0012704881, 0.0013817424, -302606.9, -150904.22 
9.152552e+2, 2.9450423e+2, -217153.42, -307558.22, -12141.898, -0.0015292428, 0.0003851428, -215551.1, -161692.17 
9.1523623e+2, 3.0449143e+2, -134857.92, -171782.16, -7677.715, -0.0017182892, 0.0013706796, -133325.11, -133325.11 
9.152178e+2, 3.144819e+2, -146080.08, -176417.4, -6855.312, -0.0021727455, 0.0027654967, -144602.92, -144602.92 
9.1519994e+2, 3.2447708e+2, -90194.74, -42912.86, -2787.198, -0.00055367086, -0.0014469577, -42749.125, -42749.125 
9.2581934e+2, 3.4847182e+1, -2400096.5, -2602164.8, 272.91223, 0.009138014, -0.0013405419, -2400096.3, 198401.55 
9.2580044e+2, 4.4837832e+1, -2316809.3, -2516921.3, -4111.807, -0.00910521, 0.0040747537, -2316724.8, 183864.7 
9.2578125e+2, 5.4828185e+1, -2230504.8, -2424963.5, -4720.392, 0.0019260545, 0.0010308203, -2230390.3, 172293.77 
9.257615e+2, 6.48183e+1, -2148149.5, -2339715.0, -9111.059, 0.005270354, 0.00016907383, -2147717.3, 157063.61 
9.257411e+2, 7.480822e+1, -2063402.0, -2248275.8, -9597.346, -0.00009493181, -0.0002723646, -2062905.1, 143974.39 
9.257203e+2, 8.4797853e+1, -1982072.0, -2164437.3, -13548.876, -0.0015028206, 0.0005765953, -1981070.9, 127910.234 
9.25699e+2, 9.4787246e+1, -1896385.0, -2072515.1, -13800.484, 0.0015320345, 0.00066182093, -1895310.3, 115774.91 
9.2567724e+2, 1.0477635e+2, -1814394.6, -1988006.1, -16933.926, 0.002285772, 0.0010587374, -1812758.3, 100433.56 
9.2565507e+2, 1.1476522e+2, -1728704.5, -1896024.0, -17285.596, 0.0005153978, -0.00017370479, -1726937.4, 88363.6 
9.256328e+2, 1.2475383e+2, -1646864.5, -1811421.4, -19523.14, -0.0004058238, 0.0005275894, -1644579.9, 72832.61 
9.2561007e+2, 1.3474223e+2, -1561692.6, -1719641.1, -19692.195, -0.0003630011, 0.0011843094, -1559274.5, 60251.707 
9.2558724e+2, 1.4473033e+2, -1480071.3, -1635663.5, -21331.252, -0.00004584582, 0.0015396866, -1477199.8, 44443.023 
9.2556417e+2, 1.5471818e+2, -1393988.8, -1543378.8, -21446.994, 0.0005584624, -0.00055744563, -1390970.8, 32791.23 
9.2554104e+2, 1.6470577e+2, -1311961.4, -1458539.8, -22188.64, 0.00064483064, -0.00033257733, -1308676.1, 17207.354 
9.255178e+2, 1.7469317e+2, -1227031.5, -1366723.0, -22249.615, 0.00020289961, 0.00023293584, -1223573.3, 4433.766 
9.2549455e+2, 1.8468027e+2, -1145685.3, -1282904.6, -22233.69, -0.00041272157, 0.0010837633, -1142172.6, -12039.241 
9.2547137e+2, 1.9466713e+2, -1059828.5, -1190668.6, -22159.953, -0.0011799572, 0.00020732758, -1056177.3, -23914.924 
9.2544824e+2, 2.046537e+2, -977770.56, -1105974.8, -21441.373, -0.00096908316, 0.00074401614, -974279.7, -39885.92 
9.2542523e+2, 2.1464008e+2, -892133.4, -1013807.9, -21351.004, 0.00035334277, 0.0007187974, -888495.5, -51968.156 
9.2540234e+2, 2.2462614e+2, -810459.8, -929704.4, -19735.64, 0.0003938813, 0.0014446798, -807278.4, -68614.51 
9.253797e+2, 2.3461199e+2, -724671.0, -837329.44, -19553.648, -0.0011079338, 0.0006310605, -721373.7, -80571.0 
9.2535734e+2, 2.4459754e+2, -643074.56, -753248.56, -17213.379, -0.0016773725, 0.00072512374, -640447.8, -97503.516 
9.2533535e+2, 2.5458285e+2, -557470.4, -660774.9, -16975.021, -0.0011496071, -0.00023466983, -554752.56, -109664.414 
9.2531365e+2, 2.6456788e+2, -475792.75, -576986.5, -14038.828, -0.0009653348, 0.00025221382, -473881.22, -126646.35 
9.252923e+2, 2.7455267e+2, -389141.88, -483847.44, -13696.801, -0.0012351364, 0.00014483495, -387200.75, -137816.95 
9.252715e+2, 2.8453714e+2, -308277.3, -401831.22, -9761.199, -0.0014903133, 0.0014027385, -307269.72, -155733.47 
9.252512e+2, 2.945213e+2, -222639.22, -309114.88, -9211.278, -0.0014810091, 0.0016205797, -221668.94, -167977.48 
9.2523134e+2, 3.045086e+2, -140989.3, -173451.31, -4756.7344, -0.0016234706, 0.0015869451, -140306.64, -140306.64 
9.2521214e+2, 3.1449914e+2, -152247.05, -178106.97, -4427.62, -0.0023375885, -0.0007531607, -151509.97, -151509.97 
9.251935e+2, 3.244945e+2, -96517.11, -44632.51, -154.8052, -0.0003379859, 0.00076328154, -44632.047, -44632.047 
9.35837e+2, 3.486537e+1, -2399461.5, -2601251.0, -2181.7314, -0.006537978, 0.0017271229, -2399437.8, 198881.72 
9.3581766e+2, 4.4855917e+1, -2317579.8, -2518857.8, -6785.9243, 0.011373022, 0.00078159146, -2317351.3, 183060.92 
9.357976e+2, 5.484616e+1, -2231394.8, -2426961.0, -7350.582, 0.00197833, 0.000733785, -2231118.8, 171389.0 
9.357768e+2, 6.483617e+1, -2148843.8, -2341255.0, -12123.74, -0.001453439, 0.0013882365, -2148082.8, 156523.02 
9.3575567e+2, 7.482598e+1, -2064014.6, -2249803.3, -12615.834, 0.0011346968, 0.00085575954, -2063161.9, 143543.64 
9.35734e+2, 8.4815526e+1, -1982255.4, -2165088.0, -16360.556, 0.0016120069, 0.0012566056, -1980803.0, 128005.016 
9.357118e+2, 9.4804853e+1, -1896609.0, -2073207.6, -16626.078, -0.000057579084, 0.0005100928, -1895057.4, 115855.15 
9.356892e+2, 1.047939e+2, -1814881.0, -1989137.9, -19779.38, -0.00039794718, 0.0010843598, -1812664.1, 100355.805 
9.3566626e+2, 1.147827e+2, -1729215.6, -1897193.1, -20116.37, 0.00067024754, 0.0010975207, -1726840.1, 88289.555 
9.356431e+2, 1.24771245e+2, -1647077.8, -1811997.8, -22503.967, 0.0010601324, 0.0013434371, -1644062.1, 73179.75 
9.3561953e+2, 1.3475958e+2, -1561889.8, -1720190.9, -22683.379, 0.00072183635, -0.00031414794, -1558703.6, 60652.598 
9.355958e+2, 1.4474764e+2, -1480200.5, -1636047.3, -24112.059, 0.00032914986, 0.00028458767, -1476555.3, 44917.8 
9.3557197e+2, 1.5473549e+2, -1394207.3, -1543823.6, -24218.824, -0.000075189455, 0.001204745, -1390384.6, 33207.676 
9.355479e+2, 1.6472307e+2, -1312118.8, -1458786.1, -25260.586, -0.00025427074, 0.00196109, -1307890.1, 17823.91 
9.355238e+2, 1.7471044e+2, -1227109.5, -1366947.8, -25339.18, -0.0001535076, 0.00031699738, -1222659.5, 5178.3066 
9.3549967e+2, 1.8469752e+2, -1145498.9, -1282605.0, -25103.955, -0.0002468853, 0.00032101606, -1141046.9, -11082.608 
9.3547565e+2, 1.946844e+2, -1059703.4, -1190389.5, -25026.553, -0.0005155935, 0.00010838586, -1055074.8, -22981.799 
9.3545175e+2, 2.0467103e+2, -977656.7, -1105654.6, -24386.338, -0.00034158543, 0.0008737332, -973168.0, -38943.816 
9.354278e+2, 2.146574e+2, -892028.8, -1013488.2, -24300.473, 0.00033037548, 0.00054533954, -887347.44, -50989.832 
9.354041e+2, 2.2464351e+2, -810212.7, -929105.5, -22686.959, -0.000055141736, 0.0011536115, -806030.7, -67536.96 
9.3538064e+2, 2.3462938e+2, -724448.3, -836732.6, -22507.338, -0.0017198045, 0.00048292032, -720104.75, -79472.63 
9.3535733e+2, 2.4461499e+2, -642798.9, -752515.94, -20241.768, -0.0019913346, 0.0010375076, -639183.56, -96410.305 
9.3533444e+2, 2.5460038e+2, -557182.3, -660047.94, -20014.252, -0.0006297589, 0.0008851713, -553425.44, -108508.91 
9.35312e+2, 2.6458544e+2, -475368.97, -575936.1, -16856.184, -0.00049585174, 0.0012798762, -472618.9, -125556.25 
9.352898e+2, 2.7457032e+2, -388764.7, -482816.2, -16506.377, -0.001838915, -0.000009713254, -385951.88, -136740.95 
9.352681e+2, 2.8455487e+2, -307608.8, -400187.03, -12843.891, -0.0021303599, 0.0009022377, -305859.94, -154497.48 
9.352469e+2, 2.9453915e+2, -221944.81, -307449.72, -12310.352, -0.0009310398, 0.0017511237, -220207.75, -166691.34 
9.3522626e+2, 3.045265e+2, -140757.4, -172739.8, -7568.6978, -0.0010471095, 0.0006572648, -139056.7, -139056.7 
9.3520623e+2, 3.1451708e+2, -152071.0, -177469.05, -7220.0303, -0.003195669, -0.004775344, -150162.0, -150162.0 
9.3518674e+2, 3.245127e+2, -94657.195, -40476.418, -3139.727, -0.00093155814, 0.0045042704, -40295.082, -40295.082 
9.458552e+2, 3.4884518e+1, -2391393.0, -2600061.8, 877.3105, -0.00436203, 0.0038641577, -2391389.3, 206742.73 
9.45835e+2, 4.4874856e+1, -2310362.0, -2516006.0, -4373.7744, 0.010189104, -0.001410819, -2310269.0, 189957.45 
9.45814e+2, 5.4865056e+1, -2225594.5, -2424827.0, -4507.7217, 0.0014679502, 0.0008092086, -2225492.8, 176829.95 
9.4579256e+2, 6.485498e+1, -2143827.3, -2339978.5, -9158.525, -0.0015216998, 0.00241628, -2143400.5, 161020.75 
9.4577044e+2, 7.484469e+1, -2058518.9, -2248290.5, -9656.595, 0.0014118893, 0.0014575779, -2058028.8, 148493.56 
9.4574785e+2, 8.483413e+1, -1976780.1, -2163334.8, -13525.512, 0.001993931, 0.0015453175, -1975804.6, 132821.06 
9.457248e+2, 9.482337e+1, -1892149.9, -2071940.1, -14002.769, 0.00009022148, 0.0005877189, -1891065.9, 119665.24 
9.4570136e+2, 1.0481235e+2, -1810948.5, -1987725.6, -17125.826, -0.00040912724, 0.0011635304, -1809304.6, 103534.484 
9.456776e+2, 1.148011e+2, -1725850.5, -1896072.6, -17254.938, 0.0006042278, 0.0013914689, -1724119.0, 90830.305 
9.4565344e+2, 1.24789596e+2, -1644102.6, -1811195.0, -19660.326, 0.00103353, 0.0016417915, -1641820.5, 75241.58 
9.4562906e+2, 1.3477786e+2, -1558982.3, -1719433.5, -19956.557, 0.0008082509, -0.00018722232, -1556537.4, 62639.633 
9.456045e+2, 1.447659e+2, -1477803.3, -1634984.6, -21414.453, 0.00041525855, 0.00040715092, -1474938.0, 46356.305 
9.455797e+2, 1.5475374e+2, -1393530.9, -1543598.6, -21403.877, -0.00011469291, 0.0014832324, -1390537.8, 32875.793 
9.455548e+2, 1.6474131e+2, -1312000.3, -1458948.8, -22308.63, -0.00032454415, 0.0022683805, -1308688.1, 16847.283 
9.455298e+2, 1.7472863e+2, -1226064.1, -1366679.0, -22422.385, -0.00015379983, 0.00053101475, -1222575.3, 5084.2534 
9.455049e+2, 1.8471573e+2, -1144382.0, -1281913.5, -22332.697, -0.000056029912, 0.0005816616, -1140846.5, -11060.426 
9.454799e+2, 1.9470261e+2, -1059973.9, -1190374.4, -22304.924, -0.000014125851, 0.0005560863, -1056264.3, -24349.7 
9.454551e+2, 2.0468923e+2, -978804.06, -1105931.6, -21615.223, -0.0001577886, 0.0011823784, -975229.44, -41183.797 
9.454303e+2, 2.1467564e+2, -893593.4, -1013995.1, -21534.213, -0.0005117023, 0.00037488015, -889857.8, -53678.902 
9.454058e+2, 2.2466177e+2, -812165.4, -929495.06, -19922.652, -0.00074871135, 0.00087527, -808874.8, -70560.07 
9.4538134e+2, 2.346477e+2, -727031.56, -837445.75, -19727.469, -0.00093787484, 0.0005206838, -723612.75, -83160.08 
9.453573e+2, 2.4463335e+2, -645608.9, -753237.44, -17410.404, -0.0010186029, 0.0012441289, -642862.56, -100269.27 
9.453335e+2, 2.546188e+2, -559905.4, -660726.7, -17152.953, -0.00095242215, 0.0010842497, -557067.0, -112330.984 
9.4531006e+2, 2.6460394e+2, -478612.22, -576608.3, -13964.707, -0.0011629291, 0.0014584832, -476661.06, -129779.54 
9.4528705e+2, 2.7458885e+2, -393619.53, -484269.22, -13581.741, -0.0017517741, 0.00012557386, -391628.38, -142599.33 
9.452645e+2, 2.8457353e+2, -312915.56, -401526.75, -9914.54, -0.001783793, 0.0006568372, -311819.78, -160640.1 
9.452424e+2, 2.945579e+2, -226750.72, -308553.34, -9450.378, -0.00091450295, 0.00073763996, -225673.14, -172340.47 
9.4522095e+2, 3.0454537e+2, -146061.61, -174288.81, -4591.98, -0.0012551569, 0.00044762867, -145333.38, -145333.38 
9.452001e+2, 3.1453606e+2, -158774.78, -179711.89, -3975.2297, -0.003499414, -0.0023478614, -158045.42, -158045.42 
9.451797e+2, 3.2453176e+2, -101629.52, -41599.242, -197.23448, -0.0010230842, 0.0033756567, -41598.594, -41598.594 
9.558739e+2, 3.490445e+1, -2394548.5, -2606741.0, -2308.255, 0.01018302, 0.0053534447, -2394523.5, 203413.2 
9.5585245e+2, 4.4894516e+1, -2310325.8, -2516189.5, -7296.728, -0.0066837673, -0.0027420104, -2310067.5, 189966.48 
9.5583075e+2, 5.4884726e+1, -2225543.8, -2424921.0, -7485.448, 0.00059950893, 0.0011779602, -2225263.0, 176866.84 
9.558084e+2, 6.487459e+1, -2144432.5, -2341485.5, -12036.357, 0.003248369, 0.0033174346, -2143700.0, 160529.14 
9.557854e+2, 7.486417e+1, -2059171.0, -2249854.5, -12523.21, 0.00091960526, 0.0016877648, -2058352.0, 147979.23 
9.5576197e+2, 8.4853506e+1, -1977462.0, -2164898.0, -16573.787, 0.00031365707, 0.0015659005, -1976007.8, 132428.08 
9.55738e+2, 9.484264e+1, -1892804.4, -2073525.1, -17040.254, 0.001535403, 0.00085244584, -1891211.6, 119330.61 
9.557137e+2, 1.04831554e+2, -1811008.0, -1988025.5, -20073.64, 0.0015694682, 0.0012985342, -1808760.3, 103890.79 
9.55689e+2, 1.14820264e+2, -1725952.9, -1896375.0, -20224.32, 0.0003330867, 0.0009386078, -1723585.8, 91175.78 
9.55664e+2, 1.24808714e+2, -1644574.4, -1812242.4, -22653.48, -0.00018697925, 0.0015623698, -1641567.6, 75307.07 
9.556387e+2, 1.3479693e+2, -1559494.6, -1720509.6, -22930.242, 0.00009080537, 0.0012277842, -1556292.8, 62697.41 
9.556132e+2, 1.4478493e+2, -1477749.0, -1634932.3, -24613.93, 0.00024621811, 0.0016176599, -1473984.8, 47123.125 
9.555875e+2, 1.5477273e+2, -1393394.3, -1543497.5, -24632.584, 0.0003037992, 0.00055972196, -1389455.4, 33771.953 
9.5556176e+2, 1.6476029e+2, -1312105.1, -1459290.9, -25148.885, 0.00024542256, 0.0009857804, -1307926.6, 17422.602 
9.5553595e+2, 1.7474762e+2, -1226300.3, -1367098.3, -25245.791, 0.00010272385, 0.00085504376, -1221910.4, 5563.103 
9.555101e+2, 1.847347e+2, -1144418.1, -1281880.5, -25541.541, 0.000116774114, 0.0016816222, -1139825.8, -10225.681 
9.554842e+2, 1.947216e+2, -1059964.0, -1190302.1, -25524.988, 0.00031831153, 0.0014484975, -1055143.5, -23414.975 
9.5545846e+2, 2.0470822e+2, -978668.56, -1105619.9, -24658.795, -0.0003800502, 0.0016386872, -974047.06, -40187.547 
9.554327e+2, 2.1469463e+2, -893485.5, -1013694.44, -24577.88, -0.0020739783, 0.00019881461, -888654.44, -52661.78 
9.5540726e+2, 2.246808e+2, -811873.8, -928826.44, -23024.244, -0.0016820526, 0.00060290645, -807504.3, -69376.125 
9.553821e+2, 2.346668e+2, -726749.3, -836774.25, -22838.348, 0.001018722, 0.0007207293, -722197.0, -81931.41 
9.553571e+2, 2.446525e+2, -645269.1, -752409.4, -20412.678, 0.0010312188, 0.0013568755, -641511.8, -99106.13 
9.553324e+2, 2.54638e+2, -559610.1, -659921.25, -20154.467, -0.0020688246, 0.000473961, -555712.2, -111164.28 
9.55308e+2, 2.646232e+2, -478148.44, -575471.94, -17184.525, -0.0028834897, 0.000906488, -475203.28, -128510.56 
9.552842e+2, 2.7460825e+2, -393129.6, -483123.4, -16819.281, -0.0010753562, 0.0005358729, -390088.9, -141249.58 
9.5526075e+2, 2.8459296e+2, -312321.84, -400136.0, -12887.914, -0.0005930003, 0.0006497649, -310469.44, -159480.27 
9.552378e+2, 2.9457742e+2, -226193.88, -307178.8, -12417.08, -0.0014467429, -0.00131026, -224332.78, -171191.4 
9.552154e+2, 3.0456504e+2, -145353.36, -172601.84, -7748.137, -0.0022269657, 0.00094250374, -143304.27, -143304.27 
9.5519364e+2, 3.1455594e+2, -158063.16, -178023.75, -7139.2173, -0.0033253415, 0.0060916743, -155772.56, -155772.56 
9.5517236e+2, 3.245516e+2, -100992.93, -40021.52, -3382.9893, -0.000732952, -0.0024129238, -39834.39, -39834.39 
9.658927e+2, 3.492534e+1, -2386667.5, -2604216.3, 490.64063, 0.007787448, 0.0018218906, -2386666.5, 211065.38 
9.658704e+2, 4.491536e+1, -2303406.8, -2514193.0, -3458.217, -0.00402278, 0.0018758276, -2303350.0, 196479.77 
9.6584773e+2, 5.490539e+1, -2218958.5, -2423138.3, -4345.5093, 0.00063215784, 0.0014809415, -2218866.0, 183061.4 
9.658245e+2, 6.489513e+1, -2138208.3, -2339436.0, -9164.515, 0.0024617375, 0.0020187362, -2137791.8, 166236.3 
9.658006e+2, 7.488463e+1, -2053864.0, -2248254.3, -9558.65, 0.0010885356, 0.0016333024, -2053395.1, 152735.69 
9.6577626e+2, 8.487388e+1, -1972547.0, -2163370.3, -13544.259, 0.0007139444, 0.00209137, -1971590.4, 136645.78 
9.657514e+2, 9.486293e+1, -1888015.5, -2072042.5, -13825.855, 0.0014238732, 0.0012505014, -1886982.5, 123360.96 
9.657262e+2, 1.0485175e+2, -1806692.1, -1986722.5, -16967.0, 0.0013567139, 0.0015005785, -1805107.0, 107345.99 
9.6570057e+2, 1.14840396e+2, -1722681.8, -1895586.1, -17421.225, 0.0004273456, 0.00088152074, -1720944.0, 93620.33 
9.6567464e+2, 1.24828786e+2, -1641889.5, -1811255.1, -19835.564, -0.000026980095, 0.0016005804, -1639597.4, 77080.59 
9.656484e+2, 1.3481699e+2, -1557528.4, -1719865.5, -19842.463, 0.000060186638, 0.0017638681, -1555138.3, 63655.52 
9.65622e+2, 1.4480492e+2, -1475859.9, -1634443.9, -21527.15, 0.00022760732, 0.0020666064, -1472989.5, 47922.223 
9.655955e+2, 1.5479271e+2, -1390801.5, -1542640.0, -21817.332, 0.0004920707, 0.00029309726, -1387728.8, 35302.88 
9.655687e+2, 1.6478023e+2, -1309948.8, -1458264.5, -22452.623, 0.0004291113, 0.00066188176, -1306624.4, 18529.578 
9.65542e+2, 1.7476755e+2, -1226453.1, -1367183.1, -22389.94, 0.00006087693, 0.001179796, -1222976.8, 4301.3486 
9.6551526e+2, 1.8475464e+2, -1145442.6, -1282238.4, -22551.424, -0.000069740156, 0.002064179, -1141820.9, -12416.135 
9.654885e+2, 1.9474153e+2, -1060421.9, -1190405.5, -22513.115, 0.00006721427, 0.001266995, -1056633.1, -25099.994 
9.6546173e+2, 2.0472819e+2, -979098.9, -1105580.0, -21640.785, -0.00033159112, 0.0014542469, -975498.7, -41834.676 
9.654352e+2, 2.1471462e+2, -894690.9, -1014039.56, -21558.65, -0.0013476047, 0.0006460812, -890916.0, -55119.13 
9.654088e+2, 2.2470082e+2, -813521.3, -929135.44, -20002.82, -0.0011549486, 0.0011811506, -810158.4, -72226.305 
9.6538264e+2, 2.3468682e+2, -728742.8, -837271.0, -19859.314, 0.00038939473, 0.0008647201, -725222.94, -85153.805 
9.6535677e+2, 2.446726e+2, -647889.5, -752909.94, -17441.02, 0.00032540105, 0.0012395539, -645068.75, -102860.016 
9.6533114e+2, 2.5465813e+2, -563582.44, -661080.1, -17114.648, -0.0016749868, 0.000293795, -560665.4, -116315.08 
9.653059e+2, 2.6464343e+2, -482546.47, -576728.8, -14062.961, -0.002225955, 0.0008557729, -480491.5, -133997.06 
9.652811e+2, 2.7462855e+2, -396943.56, -484114.38, -13747.481, -0.0010847449, 0.0008490281, -394826.88, -146186.56 
9.6525675e+2, 2.8461334e+2, -316338.47, -401049.84, -9859.717, -0.00089275814, 0.0010582504, -315206.0, -164416.69 
9.652329e+2, 2.945979e+2, -231617.63, -308758.72, -9433.054, -0.0016715849, -0.0011062996, -230480.86, -177540.19 
9.6520966e+2, 3.0458564e+2, -151169.67, -173832.48, -4737.111, -0.0021561205, 0.0009963809, -150219.34, -150219.34 
9.65187e+2, 3.1457666e+2, -163853.88, -179212.8, -3995.126, -0.0026210465, 0.0060436577, -162876.83, -162876.83 
9.651648e+2, 3.245724e+2, -107568.95, -42896.23, -527.081, -0.0011937692, -0.002890888, -42891.938, -42891.938 
9.759117e+2, 3.4947026e+1, -2385868.3, -2602436.5, -3070.8696, -0.006312603, -0.00506993, -2385824.5, 211694.73 
9.7588867e+2, 4.4937152e+1, -2304707.3, -2517284.0, -6573.9927, 0.012438651, 0.010720565, -2304504.0, 195112.03 
9.7586495e+2, 5.492688e+1, -2220292.8, -2426258.5, -7412.3525, 0.0011867858, 0.0017210013, -2220026.5, 181690.4 
9.7584075e+2, 6.491644e+1, -2138591.8, -2340595.3, -12247.234, -0.002385909, -0.0008449784, -2137851.8, 165967.38 
9.7581595e+2, 7.490588e+1, -2054287.9, -2249439.3, -12645.201, 0.0017406415, 0.0013910766, -2053471.9, 152450.75 
9.757908e+2, 8.489506e+1, -1972851.4, -2164201.3, -16616.256, 0.0026012687, 0.0030029335, -1971419.1, 136609.38 
9.7576493e+2, 9.488405e+1, -1888338.0, -2072906.0, -16909.893, 0.000076857934, 0.0017756613, -1886801.6, 123334.94 
9.7573876e+2, 1.04872786e+2, -1807394.4, -1988316.3, -20206.736, -0.00054572406, 0.0017863946, -1805165.0, 107081.87 
9.7571224e+2, 1.1486132e+2, -1723351.4, -1897187.8, -20640.65, 0.0007864872, 0.0011367354, -1720934.3, 93425.05 
9.7568536e+2, 1.24849655e+2, -1641772.5, -1811191.3, -22976.654, 0.0011477409, 0.0017402364, -1638711.6, 77761.91 
9.7565824e+2, 1.3483785e+2, -1557406.5, -1719805.1, -23013.916, 0.00053741806, 0.0016196178, -1554208.1, 64381.223 
9.7563094e+2, 1.4482576e+2, -1476326.0, -1635503.1, -24544.941, 0.00029786973, 0.0019382123, -1472627.1, 48080.54 
9.7560346e+2, 1.5481347e+2, -1391355.3, -1543771.4, -24815.291, 0.0004664301, 0.0005650382, -1387416.8, 35411.54 
9.755758e+2, 1.6480094e+2, -1309894.6, -1458072.5, -25848.645, 0.0002655373, 0.0011259003, -1305515.0, 19435.861 
9.755481e+2, 1.747883e+2, -1226307.6, -1366937.4, -25812.748, -0.00025105773, 0.0014988516, -1221719.4, 5355.5327 
9.755203e+2, 1.847754e+2, -1145310.9, -1282053.3, -25615.867, -0.0005811011, 0.0018635535, -1140669.8, -11468.45 
9.7549266e+2, 1.9476229e+2, -1060348.4, -1190257.9, -25576.598, -0.00069995853, 0.00020114062, -1055494.3, -24164.541 
9.75465e+2, 2.0474894e+2, -979010.56, -1105277.1, -24869.846, -0.00008444515, 0.0007459087, -974288.7, -40828.242 
9.754376e+2, 2.1473543e+2, -894620.9, -1013745.2, -24793.35, 0.0012894336, 0.0016217044, -889666.7, -54073.715 
9.754102e+2, 2.2472167e+2, -813338.44, -928641.1, -23184.918, 0.00056211994, 0.0024835605, -808851.06, -71123.21 
9.753831e+2, 2.347077e+2, -728581.0, -836786.4, -23048.646, -0.002514465, 0.00095531513, -723876.0, -84011.31 
9.753563e+2, 2.446935e+2, -647443.7, -751821.06, -20780.168, -0.0027843607, 0.00093036535, -643458.75, -101454.94 
9.7532976e+2, 2.5467914e+2, -563111.6, -659973.7, -20469.912, 0.00003924718, 0.0004930215, -558963.3, -114818.766 
9.753036e+2, 2.6466453e+2, -482131.84, -575750.44, -17141.676, 0.000488704, 0.0012486643, -479091.9, -132803.97 
9.752779e+2, 2.7464968e+2, -396587.47, -483174.5, -16819.934, -0.0017635766, 0.0010776008, -393434.9, -145001.72 
9.752526e+2, 2.8463456e+2, -315886.53, -399868.0, -13173.438, -0.0025739307, 0.0018701622, -313868.6, -163287.22 
9.7522783e+2, 2.9461923e+2, -231163.44, -307580.84, -12756.965, -0.0016429723, 0.0011782858, -229090.08, -176358.31 
9.752037e+2, 3.0460706e+2, -150218.77, -171630.31, -7888.182, -0.0011704207, 0.0006124387, -147626.53, -147626.53 
9.751801e+2, 3.1459814e+2, -162898.7, -176983.89, -7152.377, -0.00146799, -0.0019172822, -159903.64, -159903.64 
9.7515696e+2, 3.245941e+2, -108138.08, -43800.332, -3726.3203, -0.0024035904, 0.0018664963, -43585.23, -43585.23 
9.8593104e+2, 3.4969795e+1, -2379551.3, -2599711.5, 127.10499, -0.0030919753, -0.0019741512, -2379551.3, 217745.0 
9.85907e+2, 4.495976e+1, -2297398.8, -2515328.0, -3885.1248, 0.0070461174, 0.006662137, -2297329.5, 202065.08 
9.8588246e+2, 5.4949373e+1, -2213399.5, -2424541.0, -4318.225, 0.001907221, 0.0019472627, -2213311.3, 188185.14 
9.858573e+2, 6.493882e+1, -2132012.5, -2338436.5, -9101.33, -0.000021273972, 0.0007070601, -2131612.0, 171987.83 
9.858316e+2, 7.492814e+1, -2048647.3, -2247734.3, -9600.085, 0.0013595574, 0.0013072293, -2048185.4, 157519.03 
9.858054e+2, 8.4917235e+1, -1967912.0, -2162628.5, -13641.71, 0.0014629554, 0.002436984, -1966960.9, 140850.4 
9.857787e+2, 9.4906145e+1, -1884219.8, -2071724.5, -14056.525, 0.00013360532, 0.0019038022, -1883171.9, 126748.09 
9.8575157e+2, 1.0489482e+2, -1803534.8, -1987075.5, -17300.984, -0.00003363067, 0.002230598, -1801918.3, 110112.83 
9.8572403e+2, 1.1488329e+2, -1719506.9, -1895941.0, -17422.87, 0.0010268663, 0.0015521402, -1717802.8, 96341.27 
9.856963e+2, 1.2487156e+2, -1638130.9, -1809980.0, -19777.75, 0.0012389066, 0.0019127114, -1635884.0, 80374.875 
9.856681e+2, 1.3485968e+2, -1554343.0, -1718848.9, -20151.91, 0.0005657251, 0.0012711327, -1551910.4, 66464.93 
9.8563987e+2, 1.4484757e+2, -1474123.1, -1634603.5, -21696.596, 0.00025880095, 0.0017503195, -1471241.5, 49252.45 
9.8561144e+2, 1.5483525e+2, -1390835.1, -1543694.5, -21620.996, 0.00035383587, 0.0013173741, -1387835.9, 34778.836 
9.855829e+2, 1.6482274e+2, -1309715.5, -1458076.1, -22571.271, 0.00026566506, 0.0019204506, -1306357.5, 18379.875 
9.855542e+2, 1.7481004e+2, -1225192.3, -1366490.6, -22699.857, 0.000042486638, 0.0013718879, -1221635.0, 5226.7144 
9.855255e+2, 1.8479714e+2, -1144221.8, -1281472.9, -22562.484, -0.00030401957, 0.0015878212, -1140607.9, -11619.707 
9.854969e+2, 1.9478405e+2, -1060566.6, -1190319.6, -22568.574, -0.00077168236, 0.0006196365, -1056753.3, -25636.662 
9.854683e+2, 2.0477071e+2, -979951.6, -1105339.6, -21892.07, -0.00031085662, 0.0012679525, -976239.25, -42992.21 
9.8543984e+2, 2.1475723e+2, -896070.1, -1014064.6, -21729.188, 0.0011295398, 0.0016166965, -892195.8, -56816.49 
9.854116e+2, 2.247435e+2, -815408.2, -929177.06, -20034.398, 0.0006102312, 0.0023250848, -811983.3, -74469.37 
9.853835e+2, 2.3472957e+2, -731487.1, -837737.25, -19865.271, -0.0021507174, 0.0010557866, -727894.44, -88244.11 
9.8535573e+2, 2.4471542e+2, -650458.4, -752638.9, -17601.73, -0.0025171188, 0.0013050318, -647511.3, -105722.305 
9.8532826e+2, 2.547011e+2, -565647.56, -660568.94, -17438.188, -0.00017514637, 0.0011600726, -562545.4, -118616.164 
9.8530114e+2, 2.6468655e+2, -485004.2, -576190.25, -14142.479, 0.00023139981, 0.0016644626, -482861.13, -136789.19 
9.852745e+2, 2.7467182e+2, -401205.56, -484448.1, -13696.137, -0.0016472968, 0.00063687185, -399010.0, -150793.56 
9.852482e+2, 2.8465676e+2, -321289.34, -401287.13, -9910.924, -0.0023561732, 0.0017477239, -320079.75, -169716.05 
9.852225e+2, 2.9464155e+2, -236530.13, -308994.44, -9355.696, -0.0016394153, 0.0027123804, -235341.72, -182828.8 
9.8519737e+2, 3.0462945e+2, -155987.31, -173285.66, -4553.724, -0.0012354887, 0.0011904794, -154861.8, -154861.8 
9.851729e+2, 3.1462064e+2, -169497.55, -179044.16, -4245.039, -0.00136146, -0.0053371196, -167882.98, -167882.98 
9.8514885e+2, 3.246168e+2, -114718.24, -44940.582, -230.35887, -0.002900975, 0.0042976965, -44939.82, -44939.82 
9.9595076e+2, 3.4993443e+1, -2380173.3, -2601541.8, -2236.4763, 0.0116294, 0.007875279, -2380150.8, 216913.89 
9.959256e+2, 4.498306e+1, -2297983.5, -2516729.5, -7057.2866, -0.013665608, -0.0064073955, -2297756.0, 201410.19 
9.959003e+2, 5.497271e+1, -2214049.8, -2425944.5, -7470.3633, 0.0028078172, 0.0022311911, -2213786.8, 187481.1 
9.958742e+2, 6.4962083e+1, -2132713.8, -2340062.5, -12414.777, 0.007408037, 0.005425205, -2131973.3, 171398.63 
9.958474e+2, 7.495125e+1, -2049308.4, -2249351.5, -12904.461, 0.00015508579, 0.0013404841, -2048479.4, 156998.61 
9.958202e+2, 8.4940225e+1, -1968434.4, -2163962.3, -16889.746, -0.0018876843, 0.0008157347, -1966986.1, 140599.94 
9.957926e+2, 9.4929045e+1, -1884759.0, -2073069.0, -17298.955, 0.001229934, 0.001748651, -1883183.0, 126512.555 
9.9576455e+2, 1.0491766e+2, -1803616.1, -1987359.9, -20485.873, 0.0022430478, 0.0028040186, -1801359.9, 110447.24 
9.95736e+2, 1.149061e+2, -1719616.8, -1896247.8, -20626.941, 0.001135419, 0.0021036444, -1717240.0, 96680.414 
9.957073e+2, 1.2489433e+2, -1638770.1, -1811363.0, -23063.025, 0.00046459967, 0.0021333655, -1635741.5, 80294.375 
9.9567825e+2, 1.3488235e+2, -1554991.0, -1720273.8, -23422.69, 0.00023023172, 0.00077723205, -1551735.8, 66417.484 
9.956489e+2, 1.4487019e+2, -1473941.9, -1634274.4, -25108.11, 0.000102134814, 0.0015429797, -1470101.9, 50170.38 
9.9561954e+2, 1.548579e+2, -1390589.3, -1543342.0, -25065.684, 0.00014260398, 0.0024631175, -1386581.3, 35811.44 
9.9559e+2, 1.6484538e+2, -1309861.9, -1458483.8, -25732.877, 0.00036854346, 0.0029927574, -1305532.5, 18982.932 
9.955603e+2, 1.7483266e+2, -1225408.6, -1366948.9, -25857.227, 0.000803662, 0.00088652567, -1220832.9, 5807.3086 
9.955307e+2, 1.8481973e+2, -1144286.1, -1281531.4, -25939.281, 0.0005844893, 0.0012698607, -1139547.3, -10780.395 
9.9550104e+2, 1.9480664e+2, -1060645.1, -1190391.1, -25951.592, -0.00029951354, 0.0022785391, -1055646.9, -24751.799 
9.954715e+2, 2.0479335e+2, -979685.5, -1104737.4, -25244.436, -0.0009713914, 0.0028208052, -974781.6, -41756.246 
9.954421e+2, 2.1477988e+2, -895793.94, -1013448.0, -25098.209, -0.0014297884, 0.0007814347, -890663.6, -55506.203 
9.9541277e+2, 2.2476618e+2, -815127.1, -928547.6, -23434.615, -0.000771681, 0.00093917194, -810475.9, -73184.24 
9.953838e+2, 2.347523e+2, -731216.06, -837113.06, -23271.904, 0.0010188164, 0.0011773384, -726327.5, -86899.99 
9.9535507e+2, 2.447382e+2, -650253.3, -752134.44, -20813.752, 0.0006177833, 0.0022838155, -646165.2, -104599.51 
9.953266e+2, 2.5472394e+2, -565495.8, -660109.5, -20651.64, -0.0021611657, 0.0022336352, -561184.56, -117478.97 
9.952985e+2, 2.6470944e+2, -484422.34, -574802.2, -17648.174, -0.0027082118, 0.0021011825, -481098.5, -135250.78 
9.9527085e+2, 2.7469477e+2, -400596.88, -483037.5, -17223.23, -0.0008369864, -0.00041198547, -397143.3, -149151.97 
9.952437e+2, 2.8467986e+2, -320520.66, -399567.56, -13229.779, -0.0004678799, 0.0007775913, -318365.22, -168227.69 
9.95217e+2, 2.9466477e+2, -235778.39, -307280.75, -12676.051, -0.0017426477, 0.0035610085, -233597.67, -181312.28 
9.951909e+2, 3.0465278e+2, -155786.52, -172677.17, -7919.0537, -0.0023515706, 0.0026712248, -152654.5, -152654.5 
9.951655e+2, 3.1464398e+2, -169346.89, -178496.48, -7609.773, -0.002297934, -0.004536385, -165042.64, -165042.64 
9.951405e+2, 3.2464036e+2, -112090.11, -39165.27, -3518.412, -0.002828355, 0.004444592, -38995.91, -38995.91 
1.0059707e+3, 3.5018072e+1, -2371141.8, -2600163.0, 1092.7006, 0.008581675, 0.0073374985, -2371136.8, 225686.56 
1.0059446e+3, 4.5007533e+1, -2290871.3, -2514078.8, -4044.8596, -0.008230535, -0.0046771765, -2290798.0, 208128.39 
1.0059183e+3, 5.499708e+1, -2207850.8, -2423784.5, -4344.2744, 0.0020068241, 0.0020642295, -2207763.5, 193265.47 
1.0058913e+3, 6.498636e+1, -2127125.3, -2338375.0, -9202.349, 0.00493339, 0.004917201, -2126725.3, 176408.81 
1.00586355e+3, 7.497543e+1, -2043691.4, -2247672.8, -9623.396, 0.0004858374, 0.0020018322, -2043238.4, 162002.72 
1.0058353e+3, 8.496431e+1, -1962954.9, -2162177.5, -13588.54, -0.00058549695, 0.0015756428, -1962032.3, 145317.73 
1.0058066e+3, 9.495304e+1, -1879903.0, -2071580.4, -13923.44, 0.0016649509, 0.0015688756, -1878896.9, 130563.49 
1.0057776e+3, 1.04941584e+2, -1799293.3, -1985833.0, -17145.465, 0.0020760826, 0.0023492216, -1797730.5, 113842.26 
1.00574814e+3, 1.1492997e+2, -1716131.5, -1895125.6, -17485.896, 0.0006109715, 0.0020095005, -1714439.4, 99247.15 
1.0057184e+3, 1.2491813e+2, -1635966.9, -1810498.6, -19929.496, 0.00010240379, 0.0023504202, -1633720.1, 82082.414 
1.0056884e+3, 1.3490611e+2, -1552919.4, -1719735.0, -19978.365, 0.0005487994, 0.001283717, -1550560.0, 67360.3 
1.00565806e+3, 1.4489391e+2, -1471878.3, -1633562.3, -21646.725, 0.0005868672, 0.0019075164, -1469030.4, 51009.492 
1.0056276e+3, 1.5488161e+2, -1388213.8, -1542465.1, -21905.213, 0.00026633806, 0.0022386038, -1385163.3, 36997.242 
1.0055971e+3, 1.6486906e+2, -1307924.5, -1457668.9, -22631.66, 0.0002443458, 0.002736247, -1304578.8, 19704.695 
1.0055665e+3, 1.748563e+2, -1224853.1, -1366819.5, -22653.2, 0.00052603456, 0.0012181321, -1221326.0, 5082.319 
1.0055358e+3, 1.8484339e+2, -1144496.6, -1281449.8, -22728.71, 0.00048667172, 0.0016869397, -1140823.0, -12288.003 
1.0055052e+3, 1.9483031e+2, -1061452.5, -1190585.8, -22616.174, 0.00011842808, 0.002266692, -1057606.0, -26942.898 
1.0054747e+3, 2.0481701e+2, -980852.6, -1105113.5, -21829.396, -0.00059301767, 0.0027415042, -977129.3, -44335.92 
1.0054442e+3, 2.1480356e+2, -897120.5, -1013913.3, -21868.672, -0.00169168, 0.000995395, -893160.0, -58234.723 
1.005414e+3, 2.247899e+2, -816401.5, -928594.5, -20305.42, -0.001176567, 0.0012694829, -812839.56, -75780.38 
1.00538395e+3, 2.3477608e+2, -732716.94, -837271.25, -20098.807, 0.0010539575, 0.0014694007, -728986.4, -89791.766 
1.0053542e+3, 2.4476203e+2, -652626.06, -752600.2, -17550.271, 0.00087134866, 0.0024289002, -649634.7, -108302.39 
1.0053248e+3, 2.547478e+2, -569661.6, -661437.3, -17207.71, -0.002031849, 0.002114182, -566541.3, -123069.73 
1.0052958e+3, 2.6473337e+2, -489209.56, -576235.0, -14155.948, -0.0027607635, 0.002281902, -486964.78, -141351.72 
1.0052671e+3, 2.7471882e+2, -404928.75, -484276.7, -13897.735, -0.0010534152, 0.00068438676, -402564.97, -154809.08 
1.005239e+3, 2.8470397e+2, -324624.22, -400349.03, -9939.027, -0.0005630086, 0.0013053075, -323341.44, -173440.17 
1.0052113e+3, 2.9468897e+2, -240400.98, -308293.75, -9474.406, -0.0014955596, 0.0018744224, -239103.63, -187055.34 
1.0051843e+3, 3.046771e+2, -161327.4, -174183.19, -4725.5664, -0.0020073752, 0.0024811348, -159777.28, -159777.28 
1.00515775e+3, 3.1466845e+2, -176198.6, -180654.84, -4001.064, -0.0020017128, 0.00097498414, -173847.08, -173847.08 
1.00513175e+3, 3.2466486e+2, -119196.984, -40658.75, -291.30457, -0.003581954, 0.0021549978, -40657.668, -40657.668 
1.0159908e+3, 3.5043514e+1, -2373768.3, -2605420.8, -2833.658, -0.006177842, -0.000043965236, -2373733.8, 222840.16 
1.0159641e+3, 4.5032954e+1, -2291092.5, -2514975.8, -7356.012, 0.015135322, 0.007329698, -2290851.0, 207826.27 
1.0159364e+3, 5.5022305e+1, -2208116.8, -2424704.0, -7689.217, -0.00018634702, 0.0015094561, -2207844.3, 192937.48 
1.0159084e+3, 6.5011466e+1, -2127581.3, -2339693.5, -12474.566, -0.004548997, 0.0007285849, -2126850.3, 176037.7 
1.0158797e+3, 7.5000495e+1, -2044190.5, -2249020.5, -12898.203, 0.001956035, 0.0031434898, -2043381.5, 161613.86 
1.0158507e+3, 8.4989303e+1, -1963367.0, -2163258.3, -16994.834, 0.0040144674, 0.0040597045, -1961932.4, 145172.73 
1.01582095e+3, 9.4977933e+1, -1880322.9, -2072669.1, -17332.473, 0.0015126142, 0.0013854182, -1878773.5, 130442.97 
1.01579085e+3, 1.0496639e+2, -1799776.5, -1987017.3, -20554.564, 0.000055206754, 0.0011685465, -1797546.6, 113783.01 
1.0157604e+3, 1.14954695e+2, -1716627.9, -1896320.0, -20891.322, -0.00039728705, 0.0014448396, -1714231.0, 99213.26 
1.0157296e+3, 1.2494282e+2, -1635988.6, -1810618.8, -23375.338, 0.000009189463, 0.002587885, -1632913.9, 82646.74 
1.0156985e+3, 1.349308e+2, -1552900.1, -1719861.5, -23444.463, 0.0013383698, 0.0025799614, -1549670.5, 68007.91 
1.0156673e+3, 1.4491856e+2, -1472274.3, -1634456.1, -24977.092, 0.0015346906, 0.0027327242, -1468514.8, 51283.6 
1.0156359e+3, 1.5490615e+2, -1388666.0, -1543418.9, -25233.012, 0.00062289386, 0.00093835726, -1384655.5, 37264.324 
1.0156043e+3, 1.6489357e+2, -1307966.8, -1457731.3, -26126.484, -0.00009818447, 0.0014592411, -1303539.8, 20503.416 
1.0155726e+3, 1.7488085e+2, -1224901.1, -1366890.9, -26155.336, -0.0006227791, 0.0022390555, -1220236.5, 5931.431 
1.015541e+3, 1.8486793e+2, -1144299.8, -1281033.6, -26250.697, -0.00044753862, 0.002713632, -1139433.3, -11138.757 
1.0155094e+3, 1.9485486e+2, -1061215.5, -1190159.6, -26161.537, 0.00046917555, 0.0008839319, -1056109.8, -25687.215 
1.0154778e+3, 2.0484158e+2, -980906.94, -1105219.4, -25218.336, 0.0006310855, 0.0013383024, -975985.9, -43433.24 
1.0154463e+3, 2.1482813e+2, -897228.06, -1014059.94, -25253.988, -0.000046864272, 0.0021202879, -892002.94, -57318.492 
1.0154152e+3, 2.248145e+2, -816085.44, -927839.7, -23736.926, -0.0008124711, 0.0030710378, -811252.6, -74434.555 
1.0153841e+3, 2.3480074e+2, -732428.44, -836525.75, -23547.574, -0.0016590664, 0.0018999949, -727349.56, -88396.516 
1.01535335e+3, 2.4478674e+2, -652127.75, -751423.06, -21218.027, -0.0013915328, 0.0018494553, -647783.75, -106693.625 
1.0153229e+3, 2.547726e+2, -569118.56, -660249.3, -20895.0, -0.000033298595, 0.0009353011, -564556.06, -121327.33 
1.01529285e+3, 2.6475823e+2, -488862.94, -575436.5, -17554.945, -0.00030406532, 0.0022534032, -485438.7, -140069.3 
1.0152632e+3, 2.7474374e+2, -404629.56, -483518.4, -17296.074, -0.0022611648, 0.0037238686, -401004.06, -153492.66 
1.015234e+3, 2.8472897e+2, -324067.06, -399008.0, -13371.748, -0.0024916446, 0.0031596648, -321752.63, -172096.45 
1.01520546e+3, 2.9471403e+2, -239859.88, -306960.28, -12918.712, -0.0009493184, -0.0022017627, -237458.6, -185655.78 
1.0151774e+3, 3.047023e+2, -160376.4, -171975.83, -8419.356, -0.00036250186, 0.00077396183, -155952.52, -155952.52 
1.0151499e+3, 3.1469393e+2, -175231.8, -178428.27, -7708.392, -0.0006210395, 0.010956784, -168957.69, -168957.69 
1.0151228e+3, 3.2469025e+2, -119700.3, -41454.977, -3627.76, -0.005168507, -0.0026879397, -41287.14, -41287.14 
1.0260115e+3, 3.5070103e+1, -2366775.3, -2602500.5, 470.30542, -0.003410667, -0.0010080506, -2366774.5, 229538.84 
1.0259836e+3, 4.5059475e+1, -2283379.3, -2512589.0, -3492.0427, 0.010867643, 0.008340482, -2283326.3, 215091.31 
1.0259551e+3, 5.504868e+1, -2201053.8, -2422683.0, -4188.748, 0.00041556265, 0.0018051459, -2200974.8, 199548.5 
1.0259259e+3, 6.503772e+1, -2121063.3, -2337523.8, -9098.761, -0.0025773966, 0.00044654164, -2120681.5, 181949.06 
1.0258962e+3, 7.502665e+1, -2038550.1, -2247296.0, -9544.185, 0.002030492, 0.0025170867, -2038114.6, 166624.5 
1.0258661e+3, 8.501537e+1, -1958303.6, -2161595.5, -13726.047, 0.0033289143, 0.0037071928, -1957381.0, 149468.64 
1.02583535e+3, 9.5003927e+1, -1875795.5, -2071267.9, -14082.781, 0.001091772, 0.0018937931, -1874786.1, 134175.61 
1.0258042e+3, 1.049923e+2, -1795725.0, -1985739.6, -17286.46, 0.00009365658, 0.001825648, -1794165.3, 116910.49 
1.0257727e+3, 1.1498053e+2, -1713205.4, -1895346.1, -17529.25, 0.0003090727, 0.0015340014, -1711533.8, 101657.25 
1.02574095e+3, 1.2496861e+2, -1632687.9, -1809345.1, -19992.027, 0.00056717684, 0.0024320649, -1630453.6, 84854.266 
1.02570884e+3, 1.3495654e+2, -1549758.6, -1718637.5, -20194.047, 0.0009254758, 0.0025637706, -1547377.4, 70048.64 
1.0256765e+3, 1.4494428e+2, -1469809.3, -1633635.5, -21742.793, 0.0009990722, 0.0028195565, -1466972.8, 52573.58 
1.025644e+3, 1.5493184e+2, -1387420.3, -1543187.3, -21827.31, 0.000800073, 0.0010542229, -1384419.5, 37248.79 
1.0256116e+3, 1.6491923e+2, -1307232.9, -1457349.0, -22678.328, 0.00026143226, 0.001606139, -1303881.6, 19910.217 
1.0255788e+3, 1.749065e+2, -1224634.6, -1366724.0, -22673.186, -0.0006019913, 0.002454712, -1221104.4, 4812.1187 
1.0255461e+3, 1.8489358e+2, -1144161.4, -1280960.3, -22754.328, -0.0006224336, 0.0029498732, -1140475.8, -12432.696 
1.0255134e+3, 1.9488052e+2, -1060867.1, -1189990.6, -22861.146, 0.0002235801, 0.0010986268, -1056939.1, -26767.914 
1.0254809e+3, 2.0486724e+2, -980805.3, -1104828.9, -21945.277, 0.0005584986, 0.0015576822, -977036.75, -44735.527 
1.0254485e+3, 2.1485382e+2, -898374.1, -1014250.44, -21708.592, 0.00030892304, 0.0024011086, -894440.75, -60007.992 
1.0254161e+3, 2.2484022e+2, -818337.0, -928519.9, -20129.174, -0.00051944266, 0.0033332012, -814774.8, -78208.72 
1.0253841e+3, 2.3482648e+2, -735776.0, -837743.8, -20061.045, -0.001966966, 0.002018626, -731971.2, -93270.42 
1.0253523e+3, 2.4481253e+2, -655439.75, -752315.94, -17785.803, -0.0018517718, 0.0019468603, -652277.56, -111440.2 
1.0253208e+3, 2.5479847e+2, -571567.44, -660718.9, -17599.361, -0.00012729745, 0.0011597484, -568218.94, -125243.586 
1.0252898e+3, 2.647842e+2, -491449.75, -575820.06, -14284.777, -0.00004574667, 0.0024205046, -489096.8, -143981.47 
1.02525905e+3, 2.7476975e+2, -408744.44, -484635.22, -13857.579, -0.0017279311, 0.003697528, -406293.22, -159036.56 
1.0252289e+3, 2.8475505e+2, -329369.06, -400521.88, -9807.108, -0.0023306757, 0.003360311, -328042.06, -178641.5 
1.0251992e+3, 2.947402e+2, -246173.9, -308971.16, -9381.559, -0.0018880247, -0.0013546468, -244802.31, -193256.0 
1.02517016e+3, 3.0472857e+2, -166395.05, -173223.38, -4929.837, -0.0011748931, 0.0014402964, -163812.56, -163812.56 
1.0251417e+3, 3.1472036e+2, -180319.67, -179207.22, -4286.504, 0.00018300633, 0.01056891, -175441.0, -175441.0 
1.0251136e+3, 3.2471675e+2, -125885.27, -44892.496, -65.416626, -0.0045746346, -0.002245889, -44892.44, -44892.44 
1.03603244e+3, 3.5097626e+1, -2365339.3, -2599834.8, -2374.2302, 0.010449832, 0.0022442173, -2365315.3, 230728.34 
1.0360033e+3, 4.508689e+1, -2284575.5, -2515161.8, -7045.8335, -0.012216069, 0.0018271045, -2284360.3, 213788.44 
1.0359739e+3, 5.507599e+1, -2202152.5, -2425169.8, -7711.102, 0.0030880629, 0.0027478628, -2201886.0, 198369.44 
1.0359437e+3, 6.5064913e+1, -2121576.8, -2338921.3, -12578.929, 0.0072818124, 0.0028989976, -2120851.0, 181513.08 
1.0359129e+3, 7.50537e+1, -2039154.0, -2248721.0, -13017.117, 0.0010064965, 0.0006186932, -2038348.6, 166125.47 
1.0358817e+3, 8.504231e+1, -1958801.4, -2162776.3, -17226.502, -0.001143924, 0.0013487367, -1957356.8, 149228.83 
1.03585e+3, 9.503082e+1, -1876277.0, -2072451.6, -17582.572, 0.00048199404, 0.0029304244, -1874713.5, 133984.69 
1.03581786e+3, 1.0501914e+2, -1796023.5, -1986513.9, -20814.11, 0.0016172691, 0.0038421554, -1793775.8, 117037.016 
1.0357853e+3, 1.150073e+2, -1713491.1, -1896125.6, -21063.74, 0.002257093, 0.0021224353, -1711093.3, 101835.43 
1.03575245e+3, 1.24995306e+2, -1632979.9, -1810037.3, -23436.695, 0.0015614115, 0.002004869, -1629930.1, 85116.09 
1.0357192e+3, 1.3498318e+2, -1550096.8, -1719401.0, -23655.656, -0.00043398218, 0.0015560181, -1546853.6, 70311.3 
1.0356859e+3, 1.4497088e+2, -1469946.9, -1633885.8, -25360.674, -0.0006967802, 0.0023757354, -1466113.3, 53172.242 
1.03565246e+3, 1.5495844e+2, -1387543.3, -1543440.8, -25449.076, 0.0008078411, 0.0023160018, -1383494.1, 37913.445 
1.0356188e+3, 1.6494583e+2, -1307167.4, -1457282.1, -26277.57, 0.0011402459, 0.0029007434, -1302700.4, 20830.783 
1.0355851e+3, 1.7493309e+2, -1224557.6, -1366657.1, -26291.137, 0.00033555628, 0.0020208908, -1219849.3, 5806.7373 
1.0355513e+3, 1.8492015e+2, -1144339.8, -1281319.4, -26204.578, -0.00022297257, 0.0025740406, -1139497.9, -11715.191 
1.0355176e+3, 1.9490707e+2, -1061120.9, -1190406.8, -26308.492, -0.000554941, 0.0026626808, -1055972.4, -26061.451 
1.035484e+3, 2.0489383e+2, -980424.9, -1103949.3, -25635.912, -0.000621001, 0.0031380965, -975315.8, -43275.04 
1.0354505e+3, 2.1488045e+2, -897964.6, -1013362.44, -25427.186, -0.00046003345, 0.0019761312, -892610.4, -58438.56 
1.0354171e+3, 2.2486688e+2, -818222.9, -928230.44, -23853.51, -0.00032767424, 0.0023196938, -813273.3, -76968.516 
1.035384e+3, 2.3485316e+2, -735640.5, -837456.0, -23793.09, -0.00022692278, 0.0018889171, -730354.75, -91915.55 
1.0353512e+3, 2.4483927e+2, -655141.56, -751682.56, -21218.207, -0.0008192515, 0.0026571213, -650683.94, -110108.484 
1.03531875e+3, 2.5482523e+2, -571340.94, -660130.7, -21034.148, -0.0021492434, 0.0026361404, -566610.0, -123897.09 
1.0352865e+3, 2.64811e+2, -490852.78, -574432.06, -18057.664, -0.0017931937, 0.002757867, -487118.22, -142265.88 
1.0352549e+3, 2.7479666e+2, -408113.47, -483231.88, -17652.943, 0.00036039407, 0.0008613991, -404171.8, -157178.86 
1.0352236e+3, 2.8478208e+2, -328816.4, -399262.4, -13504.581, -0.00033754265, 0.0020770514, -326316.3, -177180.48 
1.0351929e+3, 2.9476735e+2, -245652.08, -307737.6, -13084.808, -0.004306733, 0.0040826253, -243007.08, -191727.02 
1.0351627e+3, 3.0475587e+2, -165536.72, -171276.61, -8391.8125, -0.004342688, 0.0042153257, -159537.67, -159537.67 
1.0351333e+3, 3.1474763e+2, -179484.48, -177259.13, -7752.7285, 0.00038954898, 0.0002474707, -170539.64, -170539.64 
1.03510424e+3, 3.2474422e+2, -126299.27, -45448.816, -3553.4128, -0.0019999272, 0.0035969943, -45292.945, -45292.945 
1.0460536e+3, 3.512635e+1, -2356608.0, -2596924.8, 1214.9988, 0.0075601907, 0.003471929, -2356602.0, 239160.11 
1.04602344e+3, 4.5115456e+1, -2278418.0, -2513584.3, -3738.6355, -0.008352947, 0.00006237954, -2278358.5, 219510.19 
1.0459929e+3, 5.5104434e+1, -2195418.5, -2423341.8, -4183.5205, 0.0029825873, 0.002587369, -2195341.8, 204635.13 
1.0459618e+3, 6.509325e+1, -2114876.3, -2336593.0, -9161.17, 0.005940347, 0.0035455425, -2114498.3, 187588.16 
1.04592994e+3, 7.508193e+1, -2033628.9, -2246987.0, -9559.411, 0.0009466662, 0.0012605628, -2033201.4, 170995.98 
1.0458976e+3, 8.5070467e+1, -1953855.6, -2161081.5, -13592.57, -0.00065631367, 0.0016466386, -1952967.9, 153341.83 
1.04586475e+3, 9.5058894e+1, -1871620.4, -2070916.6, -13882.098, 0.0008217847, 0.0025997458, -1870658.0, 137765.13 
1.0458315e+3, 1.0504714e+2, -1791585.0, -1984955.1, -17123.629, 0.0016348952, 0.0035020784, -1790080.4, 120457.984 
1.045798e+3, 1.1503525e+2, -1709439.8, -1894714.4, -17384.719, 0.0018012443, 0.002377501, -1707822.6, 104832.27 
1.045764e+3, 1.2502319e+2, -1629641.4, -1809024.4, -19823.604, 0.0013010129, 0.002406196, -1627476.8, 87296.23 
1.0457299e+3, 1.35011e+2, -1547939.8, -1718949.5, -20075.71, 0.00009217275, 0.0016391588, -1545614.5, 71277.88 
1.0456955e+3, 1.4499867e+2, -1468060.3, -1633044.8, -21766.145, -0.00024781638, 0.0023757296, -1465237.0, 53776.37 
1.04566075e+3, 1.549862e+2, -1385801.1, -1542684.0, -21792.895, 0.00035508964, 0.0025392463, -1382830.1, 38305.258 
1.0456261e+3, 1.6497357e+2, -1305655.8, -1456728.1, -22612.422, 0.0006833958, 0.0031085806, -1302343.8, 20915.402 
1.0455913e+3, 1.7496082e+2, -1223193.0, -1366178.6, -22771.46, 0.00074289396, 0.001964968, -1219654.1, 5730.2256 
1.0455565e+3, 1.8494788e+2, -1143618.9, -1280857.3, -22700.053, 0.0002704117, 0.002493508, -1139961.6, -12450.504 
1.0455217e+3, 1.949348e+2, -1062050.0, -1190732.6, -22564.02, -0.0007765996, 0.0027940427, -1058208.1, -28568.926 
1.0454871e+3, 2.0492157e+2, -982037.6, -1104438.8, -21877.393, -0.0010827115, 0.003288811, -978244.9, -46475.953 
1.04545236e+3, 2.149082e+2, -899558.44, -1013841.06, -21918.582, -0.00065944094, 0.0019360773, -895498.8, -61599.016 
1.0454179e+3, 2.2489467e+2, -819539.3, -928455.6, -20367.873, -0.00025248824, 0.0023244806, -815855.06, -79822.58 
1.0453838e+3, 2.34881e+2, -736620.4, -837502.94, -20180.768, 0.00010895902, 0.0022229226, -732733.1, -94566.56 
1.04535e+3, 2.4486713e+2, -656950.94, -751949.9, -17580.041, -0.00056710816, 0.0031265884, -653802.06, -113499.68 
1.0453163e+3, 2.5485316e+2, -575548.4, -661548.3, -17320.465, -0.0023565788, 0.003041242, -572191.06, -129751.75 
1.0452832e+3, 2.64839e+2, -495757.2, -575958.5, -14265.019, -0.002217008, 0.0029646426, -493295.5, -148717.34 
1.0452504e+3, 2.748247e+2, -412172.3, -484356.28, -14034.575, -0.000004675264, 0.00072398665, -409539.63, -162821.5 
1.0452181e+3, 2.8481022e+2, -332675.03, -399985.56, -10063.604, -0.00036964615, 0.0024199267, -331202.63, -182342.52 
1.0451863e+3, 2.9479563e+2, -250418.31, -308897.8, -9557.254, -0.0037758984, 0.005828379, -248896.0, -197892.77 
1.045155e+3, 3.0478418e+2, -171487.5, -173175.33, -4804.615, -0.003998849, 0.0044944678, -167453.25, -167453.25 
1.0451246e+3, 3.14776e+2, -186687.16, -179771.08, -4562.379, -0.00017932236, -0.004129212, -177504.33, -177504.33 
1.0450946e+3, 3.2477283e+2, -133457.94, -46353.33, 371.84943, -0.0020260068, 0.0065998025, -46351.742, -46351.742 
1.05607495e+3, 3.5156047e+1, -2358739.8, -2601401.0, -3185.3357, -0.0058963695, 0.0034231287, -2358698.0, 236773.0 
1.05604395e+3, 4.5144954e+1, -2278721.0, -2515015.5, -7047.7036, 0.0134477625, 0.0015448777, -2278511.0, 219068.61 
1.0560122e+3, 5.51338e+1, -2196067.0, -2424932.3, -7484.4185, 0.0007457774, 0.0016400276, -2195822.5, 203866.64 
1.0559799e+3, 6.5122515e+1, -2115472.3, -2337944.3, -12905.302, -0.0031391357, 0.0029544146, -2114726.0, 187073.58 
1.055947e+3, 7.511114e+1, -2034084.3, -2248254.3, -13308.749, 0.0016110832, 0.003704901, -2033260.5, 170650.73 
1.0559136e+3, 8.5099584e+1, -1954111.1, -2161962.5, -17139.797, 0.003286825, 0.0038209676, -1952707.3, 153317.05 
1.05587974e+3, 9.5087916e+1, -1871950.0, -2071843.0, -17450.982, 0.0017644258, 0.0012864685, -1870437.9, 137700.8 
1.0558455e+3, 1.0507609e+2, -1791947.5, -1985874.6, -20748.145, 0.0005082869, 0.0014867303, -1789752.5, 120502.055 
1.0558107e+3, 1.1506416e+2, -1709816.5, -1895666.9, -21017.525, -0.0004559955, 0.0024018404, -1707469.3, 104902.26 
1.0557757e+3, 1.2505205e+2, -1630057.3, -1809940.3, -23574.578, 0.00007759239, 0.0034494025, -1627019.0, 87471.22 
1.0557405e+3, 1.3503979e+2, -1548299.9, -1719875.0, -23821.137, 0.00202404, 0.0025741577, -1545054.0, 71556.305 
1.05570495e+3, 1.4502741e+2, -1467982.3, -1633055.1, -25398.102, 0.0017927503, 0.0027371352, -1464162.9, 54568.67 
1.0556692e+3, 1.5501493e+2, -1385754.5, -1542720.8, -25453.432, -0.0005026469, 0.0019556712, -1381730.1, 39123.652 
1.0556334e+3, 1.6500229e+2, -1305922.5, -1457292.1, -26240.113, -0.0008565664, 0.0024942567, -1301502.8, 21475.025 
1.0555975e+3, 1.7498949e+2, -1223508.9, -1366782.8, -26396.514, 0.0006968685, 0.0022520605, -1218800.4, 6302.815 
1.0555617e+3, 1.8497655e+2, -1143400.6, -1280322.0, -26561.943, 0.0007988867, 0.002676714, -1138428.3, -11198.25 
1.0555258e+3, 1.949635e+2, -1061764.4, -1190187.5, -26453.518, -0.0005781505, 0.0017640251, -1056528.8, -27170.861 
1.05549e+3, 2.0495029e+2, -982065.2, -1104519.5, -25557.025, -0.0009892412, 0.002293747, -976945.3, -45457.832 
1.0554543e+3, 2.1493694e+2, -899619.9, -1013956.1, -25604.797, -0.00042240243, 0.002252981, -894147.75, -60529.438 
1.05541885e+3, 2.2492342e+2, -819229.0, -927698.3, -23974.139, -0.00034207213, 0.003216316, -814166.44, -78415.68 
1.0553835e+3, 2.3490979e+2, -736349.6, -836782.56, -23801.465, -0.00080619083, 0.0029614773, -730994.5, -93110.164 
1.0553487e+3, 2.4489598e+2, -656599.94, -751042.94, -21617.988, -0.0010206166, 0.0033914212, -651886.75, -111867.14 
1.0553139e+3, 2.5488207e+2, -575127.0, -660634.94, -21381.594, -0.0009720767, 0.0024829283, -570078.56, -127922.48 
1.0552795e+3, 2.6486796e+2, -495430.0, -575206.5, -17813.732, -0.0015283722, 0.0030767862, -491633.0, -147338.73 
1.0552457e+3, 2.7485377e+2, -411913.66, -483652.0, -17584.043, -0.0026705672, 0.0030417244, -407835.4, -161401.86 
1.0552124e+3, 2.8483933e+2, -331989.1, -398405.75, -13976.451, -0.0022700247, 0.0041969037, -329167.78, -180593.0 
1.0551795e+3, 2.948248e+2, -249707.25, -307302.6, -13490.223, -0.0005111281, 0.0040772706, -246704.11, -195986.98 
1.0551472e+3, 3.0481344e+2, -171339.69, -172725.0, -8576.824, -0.00045124724, 0.0024449106, -163427.6, -163427.6 
1.0551156e+3, 3.1480533e+2, -186588.48, -179365.19, -8335.496, -0.0015870844, -0.0028404798, -173892.53, -173892.53 
1.0550846e+3, 3.2480237e+2, -130316.63, -39519.445, -3287.8386, -0.00460493, 0.0067004724, -39400.547, -39400.547 
1.06609665e+3, 3.5186914e+1, -2351433.0, -2600271.5, 616.13293, -0.0031948278, 0.0036297813, -2351431.5, 243737.19 
1.0660646e+3, 4.5175666e+1, -2269023.0, -2511134.5, -3521.3586, 0.010914742, 0.0017814091, -2268971.8, 228307.1 
1.06603175e+3, 5.5164427e+1, -2189658.8, -2422666.8, -3823.0938, 0.00070116785, 0.0020990504, -2189596.0, 209792.84 
1.06599845e+3, 6.5153044e+1, -2110297.8, -2336380.8, -8937.166, -0.0023975815, 0.0032392372, -2109945.0, 191555.47 
1.0659643e+3, 7.514156e+1, -2028028.8, -2246289.5, -9372.534, 0.0016969761, 0.003510092, -2027627.0, 175986.06 
1.0659299e+3, 8.512992e+1, -1948207.9, -2160037.5, -13411.863, 0.0031597347, 0.0037051165, -1947362.1, 158364.98 
1.0658949e+3, 9.511816e+1, -1867251.8, -2070479.4, -13871.997, 0.001767481, 0.0017412002, -1866309.3, 141533.11 
1.0658595e+3, 1.0510626e+2, -1787972.4, -1984499.4, -17194.117, 0.000654668, 0.0019389603, -1786479.5, 123479.55 
1.0658236e+3, 1.1509425e+2, -1706622.5, -1894660.0, -17423.547, -0.00016530558, 0.0023654737, -1705021.8, 107054.92 
1.0657876e+3, 1.2508209e+2, -1626979.3, -1808714.9, -19864.027, 0.00017563651, 0.0033364836, -1624833.4, 89362.38 
1.0657511e+3, 1.350698e+2, -1545242.6, -1718649.6, -19896.4, 0.0016547199, 0.0027433783, -1542989.0, 73327.14 
1.0657145e+3, 1.4505741e+2, -1465370.0, -1632209.9, -21479.074, 0.0015950296, 0.00297835, -1462649.3, 55788.617 
1.0656777e+3, 1.5504488e+2, -1383865.6, -1542229.8, -21781.953, 0.00004100522, 0.002086563, -1380924.3, 39636.23 
1.0656409e+3, 1.650322e+2, -1304675.3, -1456691.3, -22620.588, -0.0004600124, 0.0025798767, -1301380.6, 21304.139 
1.0656039e+3, 1.750194e+2, -1223489.6, -1366763.3, -22536.889, 0.000078253484, 0.0023739287, -1220028.3, 4782.064 
1.0655669e+3, 1.8500645e+2, -1143593.0, -1280313.0, -22641.648, 0.00019957777, 0.0028245973, -1139940.9, -13003.833 
1.0655298e+3, 1.949934e+2, -1061391.0, -1189889.6, -22715.564, -0.00014372045, 0.0019188732, -1057493.6, -28428.727 
1.0654929e+3, 2.049802e+2, -981838.56, -1104240.4, -21852.299, -0.0003811204, 0.0024827993, -978054.25, -46859.84 
1.0654562e+3, 2.1496686e+2, -900394.6, -1014141.75, -21753.37, -0.0004866587, 0.0025159197, -896376.4, -63051.25 
1.06541954e+3, 2.2495337e+2, -821017.06, -928048.7, -20077.127, -0.00076778536, 0.00338133, -817374.94, -81917.586 
1.0653832e+3, 2.3493977e+2, -739769.2, -837902.56, -19931.416, -0.0012829056, 0.0028599459, -735875.5, -98284.984 
1.0653472e+3, 2.44926e+2, -660058.75, -752112.7, -17770.678, -0.0011938064, 0.0032345008, -656747.25, -117021.95 
1.0653113e+3, 2.5491214e+2, -577086.94, -660981.4, -17603.357, -0.00049835694, 0.002484743, -573543.0, -131681.75 
1.0652759e+3, 2.648981e+2, -497801.0, -575590.3, -14066.226, -0.0011146906, 0.0033165878, -495335.63, -151336.73 
1.06524095e+3, 2.74884e+2, -416930.03, -485318.3, -13722.254, -0.0030716546, 0.0036321785, -414279.38, -168141.86 
1.0652065e+3, 2.8486964e+2, -337600.16, -399958.75, -9932.807, -0.0026693172, 0.00421464, -336056.22, -187778.25 
1.0651726e+3, 2.948552e+2, -254246.67, -308339.63, -9519.529, -0.000021637097, 0.0025072081, -252620.28, -202200.78 
1.0651392e+3, 3.048439e+2, -176250.3, -174105.45, -4665.847, -0.00004455336, 0.0023498975, -170390.38, -170390.38 
1.0651065e+3, 3.1483594e+2, -193187.53, -181578.67, -4047.8093, -0.0023204023, 0.0018892877, -180306.66, -180306.66 
1.0650742e+3, 3.2483304e+2, -137957.02, -41088.92, 211.14441, -0.0044068135, 0.004285331, -41088.465, -41088.465 
1.0761189e+3, 3.5218728e+1, -2352278.8, -2602329.8, -1821.155, 0.009329653, 0.004015863, -2352265.5, 242591.34 
1.0760854e+3, 4.520736e+1, -2269664.3, -2512296.8, -7644.7485, -0.0077174893, 0.0012131014, -2269423.5, 227544.69 
1.0760517e+3, 5.5196065e+1, -2189929.3, -2423618.3, -7980.353, 0.0022642587, 0.003511975, -2189657.0, 209421.9 
1.0760171e+3, 6.518459e+1, -2110677.8, -2337729.3, -12421.74, 0.0049359305, 0.0041131675, -2110000.3, 191191.13 
1.0759819e+3, 7.517297e+1, -2028634.8, -2247726.0, -12870.107, 0.0012908753, 0.0014764741, -2027881.3, 175423.84 
1.0759463e+3, 8.516123e+1, -1948953.9, -2161672.0, -17256.178, 0.00016875096, 0.0020174598, -1947563.0, 157857.19 
1.0759102e+3, 9.514939e+1, -1867929.9, -2072067.8, -17696.809, 0.0010824531, 0.003487596, -1866407.1, 141129.19 
1.0758737e+3, 1.0513741e+2, -1788216.8, -1985252.5, -20943.49, 0.0016885666, 0.004178021, -1786015.1, 123638.555 
1.07583664e+3, 1.1512533e+2, -1706878.0, -1895430.8, -21188.39, 0.001974174, 0.0022884263, -1704526.4, 107245.78 
1.0757995e+3, 1.2511313e+2, -1626926.0, -1808760.9, -23568.832, 0.0011977903, 0.0023991973, -1623920.8, 89970.9 
1.075762e+3, 1.3510084e+2, -1545227.3, -1718736.9, -23642.008, -0.00048620935, 0.002354211, -1542063.6, 73948.38 
1.0757242e+3, 1.4508839e+2, -1465885.1, -1633311.1, -25302.81, -0.00030403698, 0.0031587335, -1462144.6, 55989.33 
1.0756863e+3, 1.550758e+2, -1384390.1, -1543353.6, -25589.36, 0.0016516682, 0.0027946783, -1380372.4, 39885.03 
1.0756483e+3, 1.650631e+2, -1304476.5, -1456320.8, -26532.83, 0.0013907647, 0.0032358165, -1299973.8, 22408.254 
1.0756101e+3, 1.750503e+2, -1223247.5, -1366388.9, -26477.844, -0.0010369024, 0.0023728393, -1218506.8, 6000.5444 
1.075572e+3, 1.8503737e+2, -1143676.1, -1280522.4, -26341.363, -0.0013332297, 0.0029728932, -1138780.8, -12146.732 
1.0755339e+3, 1.9502433e+2, -1061535.6, -1190146.8, -26425.945, 0.0004375, 0.0030680317, -1056317.6, -27555.605 
1.075496e+3, 2.0501111e+2, -981665.4, -1103825.3, -25778.354, 0.00059789815, 0.003665717, -976448.4, -45556.973 
1.075458e+3, 2.1499778e+2, -900204.06, -1013737.5, -25694.182, -0.00086050294, 0.0027487043, -894659.8, -61637.887 
1.0754203e+3, 2.2498433e+2, -820752.5, -927437.06, -24102.41, -0.0015516663, 0.0029613122, -815560.0, -80406.16 
1.0753827e+3, 2.3497078e+2, -739478.9, -837307.06, -23975.68, -0.0014215896, 0.0020476996, -733918.94, -96632.29 
1.0753456e+3, 2.4495706e+2, -659774.56, -751481.94, -21412.063, -0.001188513, 0.0027334772, -655021.56, -115600.56 
1.0753086e+3, 2.5494325e+2, -576857.44, -660401.3, -21253.543, -0.000918349, 0.002993611, -571761.4, -130204.945 
1.0752721e+3, 2.6492926e+2, -497307.75, -574458.2, -18293.836, -0.001009575, 0.0036667758, -493189.72, -149496.25 
1.075236e+3, 2.749152e+2, -416386.8, -484168.63, -17967.523, -0.0014292112, 0.0026149447, -411918.56, -166087.13 
1.07520044e+3, 2.8490093e+2, -336980.2, -398630.53, -13572.395, -0.0017651913, 0.002594965, -334124.5, -186153.36 
1.0751654e+3, 2.948866e+2, -253682.44, -307044.94, -13165.898, -0.0022383137, 0.0010901805, -250610.86, -200499.11 
1.07513085e+3, 3.0487546e+2, -175410.28, -172195.45, -8864.831, -0.0026594987, 0.004090191, -164793.48, -164793.48 
1.07509695e+3, 3.1486768e+2, -192345.95, -179675.36, -8264.347, -0.002453013, 0.009886539, -175597.42, -175597.42 
1.0750636e+3, 3.248647e+2, -138741.39, -42509.29, -3954.7603, -0.001654797, -0.00078109954, -42347.035, -42347.035 
1.0861414e+3, 3.525189e+1, -2343060.0, -2598786.3, 1866.2273, 0.0074122, 0.002719656, -2343046.3, 251485.53 
1.0861068e+3, 4.5240453e+1, -2264914.8, -2511311.0, -3222.831, -0.0056249355, 0.0042479886, -2264872.8, 231771.28 
1.0860718e+3, 5.522899e+1, -2182477.3, -2421343.8, -3890.098, 0.0022431982, 0.0033016186, -2182414.0, 216342.28 
1.08603604e+3, 6.521738e+1, -2103028.0, -2335080.0, -8624.469, 0.0044096797, 0.0031405424, -2102708.0, 198162.05 
1.08599976e+3, 7.520567e+1, -2023252.4, -2246196.0, -9114.335, 0.0015573212, 0.0019326119, -2022880.4, 180104.39 
1.085963e+3, 8.519384e+1, -1944309.5, -2160065.5, -13331.386, 0.00054033194, 0.002703217, -1943488.9, 161611.77 
1.0859256e+3, 9.518192e+1, -1863132.6, -2070403.8, -13520.135, 0.0009890912, 0.0033782222, -1862254.4, 144963.14 
1.0858881e+3, 1.0516987e+2, -1783602.9, -1983645.8, -16701.865, 0.0015041836, 0.0039798953, -1782218.0, 127117.6 
1.08585e+3, 1.1515772e+2, -1702799.3, -1894101.6, -17003.988, 0.002036691, 0.002607835, -1701299.6, 110155.03 
1.08581156e+3, 1.2514547e+2, -1623467.5, -1807673.1, -19529.86, 0.0014225291, 0.002742382, -1621419.6, 92155.15 
1.0857728e+3, 1.3513312e+2, -1542665.3, -1718061.3, -19900.508, -0.00025224415, 0.0023421752, -1540435.8, 75260.07 
1.085734e+3, 1.4512062e+2, -1463768.8, -1632388.4, -21545.018, -0.00031659967, 0.0030427405, -1461059.4, 56758.773 
1.08569495e+3, 1.5510802e+2, -1382906.5, -1542729.1, -21437.771, 0.0012037808, 0.002756426, -1380080.9, 39860.9 
1.0856558e+3, 1.6509528e+2, -1303184.4, -1455869.1, -22298.125, 0.0011387488, 0.0033671313, -1299994.6, 22071.943 
1.0856164e+3, 1.7508247e+2, -1221788.8, -1365828.8, -22496.7, -0.00051719917, 0.002766821, -1218356.9, 5835.109 
1.08557716e+3, 1.8506953e+2, -1142761.9, -1280056.3, -22445.408, -0.0009035788, 0.0032604258, -1139185.6, -12866.684 
1.085538e+3, 1.9505647e+2, -1062200.4, -1190434.8, -22414.908, -0.00003229894, 0.002947526, -1058395.3, -29948.318 
1.0854988e+3, 2.0504327e+2, -982940.06, -1104089.1, -21693.39, 0.000039996863, 0.0034927633, -979172.75, -48596.496 
1.08545974e+3, 2.1502998e+2, -901604.06, -1014040.75, -21599.14, -0.00075049483, 0.0028385422, -897597.6, -64891.152 
1.0854209e+3, 2.2501655e+2, -822121.8, -927796.4, -20097.36, -0.001194123, 0.0031880669, -818428.75, -83590.64 
1.0853822e+3, 2.3500302e+2, -740703.06, -837566.0, -20059.342, -0.001225778, 0.0022673341, -736713.3, -99742.62 
1.0853439e+3, 2.4498935e+2, -661771.94, -751790.0, -17424.545, -0.001245082, 0.0028507328, -658516.8, -119412.14 
1.0853058e+3, 2.549756e+2, -581117.56, -661781.5, -17151.2, -0.00135011, 0.002946243, -577622.25, -136382.63 
1.0852682e+3, 2.6496166e+2, -501839.8, -575746.2, -14196.886, -0.0013288648, 0.0035928143, -499206.53, -155830.55 
1.08523086e+3, 2.7494767e+2, -419472.47, -484749.4, -13888.068, -0.0011287833, 0.0026659316, -416640.56, -171127.38 
1.0851941e+3, 2.849335e+2, -340646.22, -399393.25, -9483.73, -0.0014828861, 0.0027637384, -339153.2, -191501.1 
1.085158e+3, 2.9491922e+2, -260122.97, -309158.4, -9136.878, -0.0026398986, 0.0013935572, -258475.81, -208683.89 
1.0851223e+3, 3.0490822e+2, -182231.14, -173892.81, -4865.675, -0.0031617275, 0.0043302374, -171654.42, -171654.42 
1.0850873e+3, 3.1490055e+2, -197823.2, -180726.86, -4239.349, -0.0024635615, 0.009862036, -179733.38, -179733.38 
1.0850527e+3, 3.2489765e+2, -144543.28, -45443.617, 222.66068, -0.00082596304, -0.0005900207, -45443.117, -45443.117 
1.09616406e+3, 3.5286117e+1, -2343571.0, -2599439.8, -3758.3188, -0.0033034026, 0.00048034385, -2343515.8, 250680.61 
1.0961283e+3, 4.527465e+1, -2265560.5, -2513590.3, -6644.647, 0.009808631, 0.009578683, -2265382.5, 230926.27 
1.096092e+3, 5.5262953e+1, -2183547.5, -2423785.3, -7314.245, 0.0009768415, 0.0019747305, -2183325.0, 215098.53 
1.0960553e+3, 6.5251195e+1, -2103829.5, -2336812.3, -12701.523, -0.0014135438, 0.0009647783, -2103139.0, 197399.61 
1.0960178e+3, 7.523941e+1, -2023875.4, -2247796.3, -13169.08, 0.002302156, 0.00411795, -2023103.6, 179550.56 
1.0959799e+3, 8.52275e+1, -1944374.6, -2160566.0, -17079.154, 0.0031822608, 0.005010463, -1943033.8, 161737.13 
1.09594144e+3, 9.52155e+1, -1863309.0, -2070968.0, -17310.723, 0.00125383, 0.0019443537, -1861875.8, 145012.63 
1.0959026e+3, 1.0520339e+2, -1784039.0, -1984720.4, -20626.11, 0.00041078997, 0.0020920532, -1781941.0, 127066.08 
1.0958633e+3, 1.1519119e+2, -1703224.4, -1895188.3, -20931.611, 0.00056045403, 0.0032411092, -1700968.5, 110158.09 
1.0958237e+3, 1.2517886e+2, -1624056.4, -1809023.0, -23457.328, 0.0010347983, 0.004028408, -1621127.9, 92119.664 
1.0957839e+3, 1.3516639e+2, -1543258.0, -1719406.8, -23812.527, 0.0017280325, 0.0026215652, -1540095.8, 75273.84 
1.0957439e+3, 1.4515387e+2, -1463481.3, -1631917.3, -25476.56, 0.0010377564, 0.002731105, -1459712.3, 57780.145 
1.0957036e+3, 1.5514128e+2, -1382603.6, -1542269.0, -25413.496, -0.0008826407, 0.0021597026, -1378656.3, 40959.465 
1.0956632e+3, 1.6512856e+2, -1303501.8, -1456602.0, -26169.424, -0.0007695607, 0.0031255325, -1299152.1, 22588.309 
1.0956228e+3, 1.751157e+2, -1222138.0, -1366598.4, -26370.342, 0.0012782651, 0.00350544, -1217474.8, 6391.689 
1.0955824e+3, 1.8510273e+2, -1142669.5, -1279864.9, -26543.607, 0.001024588, 0.0036783766, -1137713.0, -11719.495 
1.095542e+3, 1.9508967e+2, -1062067.9, -1190247.8, -26530.545, -0.0014359857, 0.0018095119, -1056793.6, -28672.057 
1.09550156e+3, 2.0507649e+2, -982710.5, -1103627.4, -25629.674, -0.0018219091, 0.0022444155, -977502.4, -47251.68 
1.0954614e+3, 2.1506324e+2, -901399.2, -1013620.44, -25556.984, -0.00026787215, 0.0028260876, -895853.0, -63472.473 
1.0954214e+3, 2.2504984e+2, -822063.3, -927617.56, -24071.404, 0.00005883291, 0.003976419, -816833.06, -82321.18 
1.0953816e+3, 2.3503633e+2, -740645.6, -837406.8, -24040.27, -0.00078996696, 0.0033967972, -735002.0, -98357.66 
1.09534204e+3, 2.4502268e+2, -661316.06, -750750.3, -21639.049, -0.0013995045, 0.003518184, -656355.56, -117577.57 
1.09530285e+3, 2.55009e+2, -580634.25, -660755.94, -21385.572, -0.0018268363, 0.002388168, -575283.5, -134371.2 
1.095264e+3, 2.6499516e+2, -501339.84, -574647.2, -18034.393, -0.0020818212, 0.003153477, -497143.4, -154095.47 
1.0952256e+3, 2.7498123e+2, -419016.1, -483682.72, -17736.615, -0.002113876, 0.0036873678, -414470.8, -169286.55 
1.09518774e+3, 2.8496712e+2, -340176.53, -398303.66, -13838.813, -0.0018177251, 0.004575405, -337049.97, -189727.61 
1.0951504e+3, 2.9495293e+2, -259642.34, -308066.28, -13503.431, -0.0013561952, 0.0032977806, -256131.36, -206669.94 
1.0951135e+3, 3.04942e+2, -181290.55, -171855.97, -8714.934, -0.0017168081, 0.0030471708, -166663.52, -166663.52 
1.09507725e+3, 3.1493443e+2, -196908.44, -178703.02, -8095.5376, -0.0024429113, 0.0019487966, -175623.89, -175623.89 
1.0950416e+3, 3.2493174e+2, -144220.6, -44579.492, -3938.3496, -0.0019753086, 0.0050420403, -44424.07, -44424.07 
1.106187e+3, 3.5321653e+1, -2337368.3, -2597007.8, 473.2277, -0.002431848, 0.0018309231, -2337367.5, 256480.8 
1.10615015e+3, 4.5310035e+1, -2255686.0, -2510141.3, -3024.4065, 0.008461713, 0.0062445705, -2255650.3, 240311.86 
1.1061127e+3, 5.529824e+1, -2177337.5, -2422154.8, -3506.71, 0.0015451252, 0.0023573404, -2177287.3, 220790.39 
1.1060747e+3, 6.5286374e+1, -2098525.0, -2335068.3, -8585.52, -0.0006204089, 0.0022394864, -2098213.8, 201980.02 
1.106036e+3, 7.527449e+1, -2017607.9, -2245597.3, -8886.567, 0.0018953955, 0.0038992835, -2017262.0, 185048.34 
1.105997e+3, 8.526249e+1, -1938395.1, -2158510.3, -12915.594, 0.002694751, 0.0045119054, -1937639.9, 166788.19 
1.10595725e+3, 9.52504e+1, -1858681.3, -2069593.0, -13417.672, 0.001654498, 0.0021801696, -1857831.0, 148715.38 
1.10591725e+3, 1.05238214e+2, -1780025.1, -1983371.3, -16755.107, 0.00089248625, 0.0024164545, -1778653.8, 130012.08 
1.1058769e+3, 1.1522594e+2, -1699533.0, -1893988.4, -16979.783, 0.00040462564, 0.0031133748, -1698061.5, 112724.58 
1.105836e+3, 1.2521355e+2, -1620673.0, -1807722.4, -19338.814, 0.0007152977, 0.0039255368, -1618694.5, 94212.98 
1.10579506e+3, 1.3520107e+2, -1540440.0, -1718410.1, -19360.719, 0.0016798693, 0.0029852577, -1538358.1, 76671.78 
1.1057538e+3, 1.451885e+2, -1461060.1, -1631081.8, -21028.898, 0.0011910779, 0.0031960504, -1458497.9, 58655.297 
1.1057124e+3, 1.5517586e+2, -1380477.5, -1541568.3, -21374.467, -0.00062346563, 0.0024073294, -1377689.6, 41587.258 
1.1056708e+3, 1.651631e+2, -1301942.8, -1455920.4, -22210.783, -0.0006681661, 0.0030636094, -1298803.0, 22598.988 
1.1056293e+3, 1.7515022e+2, -1221762.9, -1366479.5, -22156.295, 0.0010141451, 0.003085895, -1218446.8, 5081.3823 
1.1055876e+3, 1.8513726e+2, -1142582.6, -1279682.1, -22226.814, 0.0008584076, 0.003436023, -1139069.3, -13413.965 
1.10554606e+3, 1.951242e+2, -1061720.9, -1189948.3, -22239.078, -0.0011236109, 0.002188083, -1057973.4, -30190.15 
1.1055045e+3, 2.0511103e+2, -982752.06, -1103484.0, -21411.639, -0.0015691313, 0.0026900354, -979067.2, -49154.945 
1.1054631e+3, 2.1509778e+2, -902506.44, -1013975.75, -21456.348, -0.00052697165, 0.002840551, -898519.0, -66476.93 
1.10542186e+3, 2.250844e+2, -823794.5, -927907.7, -19875.908, -0.00021430204, 0.0038184936, -820129.1, -85955.91 
1.1053809e+3, 2.3507093e+2, -743098.44, -838046.4, -19616.307, -0.0006621433, 0.0033349844, -739205.3, -102900.09 
1.1053402e+3, 2.4505734e+2, -664001.94, -751478.6, -17272.176, -0.0012086269, 0.0036064684, -660715.06, -122276.67 
1.1052997e+3, 2.550437e+2, -583102.44, -661368.25, -17181.832, -0.0018552664, 0.0026727284, -579496.56, -138924.3 
1.1052597e+3, 2.6502988e+2, -504481.53, -575365.75, -13832.769, -0.0021561645, 0.0032871766, -501877.78, -159170.34 
1.10522024e+3, 2.75016e+2, -424025.47, -485309.88, -13597.848, -0.002101839, 0.0033469822, -421143.84, -176300.64 
1.10518105e+3, 2.8500202e+2, -345398.3, -399585.72, -9746.422, -0.0017903236, 0.0044446834, -343698.6, -196718.14 
1.10514246e+3, 2.9498795e+2, -263993.28, -308946.25, -9205.646, -0.001335452, 0.004037525, -262181.2, -213062.77 
1.10510446e+3, 3.0497712e+2, -186146.0, -173109.95, -4319.1455, -0.0016647887, 0.0030049896, -171808.8, -171808.8 
1.1050671e+3, 3.1496957e+2, -203441.61, -180765.72, -4065.2556, -0.0024013391, -0.0004694756, -180058.95, -180058.95 
1.10503025e+3, 3.249671e+2, -151551.84, -46262.473, 46.286472, -0.0018549964, 0.0060894312, -46262.453, -46262.453 
1.1162103e+3, 3.535823e+1, -2337351.5, -2597728.8, -1381.978, 0.005201907, 0.005233096, -2337344.3, 256145.52 
1.1161722e+3, 4.5346397e+1, -2256697.3, -2511948.3, -7429.002, -0.0036510157, -0.002564769, -2256481.3, 239124.45 
1.1161336e+3, 5.5334586e+1, -2177932.3, -2423695.3, -7873.0, 0.0033941765, 0.003921719, -2177680.3, 220041.17 
1.1160944e+3, 6.5322655e+1, -2098702.5, -2335935.0, -12345.591, 0.004457334, 0.005758093, -2098061.8, 201776.52 
1.1160546e+3, 7.5310636e+1, -2018040.6, -2246599.8, -12690.812, 0.00063941756, 0.0020373946, -2017338.1, 184617.9 
1.1160141e+3, 8.529854e+1, -1939236.3, -2160297.0, -17041.941, 0.00007427682, 0.0021556977, -1937930.3, 166144.47 
1.1159734e+3, 9.528637e+1, -1859404.4, -2071303.4, -17519.818, 0.0021234134, 0.0036163758, -1857965.6, 148228.34 
1.1159321e+3, 1.05274096e+2, -1780261.1, -1984069.8, -20674.701, 0.0024285004, 0.0042982535, -1778185.0, 130129.195 
1.1158904e+3, 1.1526175e+2, -1699843.0, -1894706.4, -20920.664, 0.0011730772, 0.0024243959, -1697622.3, 112812.875 
1.1158485e+3, 1.2524933e+2, -1620629.8, -1807720.9, -23392.19, 0.00040737266, 0.0028480918, -1617749.4, 94807.54 
1.11580625e+3, 1.3523684e+2, -1540387.0, -1718439.6, -23444.668, 0.00009091092, 0.0034404113, -1537351.8, 77327.51 
1.1157638e+3, 1.4522423e+2, -1461640.3, -1632350.0, -25046.953, 0.0004418828, 0.004260751, -1458041.1, 58761.7 
1.1157212e+3, 1.5521152e+2, -1381072.3, -1542828.9, -25382.441, 0.001413318, 0.0033140732, -1377182.9, 41744.676 
1.1156785e+3, 1.651987e+2, -1301803.3, -1455632.6, -26341.674, 0.00091252115, 0.0031622942, -1297417.6, 23635.441 
1.1156356e+3, 1.7518583e+2, -1221591.8, -1366209.8, -26312.998, -0.0009331212, 0.0017579381, -1216953.0, 6226.1284 
1.1155928e+3, 1.8517289e+2, -1142530.1, -1279608.5, -26239.756, -0.0009887668, 0.0027006452, -1137679.0, -12372.893 
1.11555e+3, 1.9515985e+2, -1061697.4, -1189907.8, -26273.67, 0.0005547573, 0.003816443, -1056522.1, -29088.36 
1.1155073e+3, 2.0514669e+2, -982795.4, -1103587.8, -25621.799, 0.00035242332, 0.0045230812, -977585.3, -48022.47 
1.1154647e+3, 2.1513341e+2, -902529.3, -1014070.1, -25668.582, -0.0014851273, 0.0028782212, -896905.75, -65212.855 
1.11542225e+3, 2.2512005e+2, -823268.25, -926833.3, -24023.213, -0.0018460269, 0.002881913, -817967.1, -84143.336 
1.11538015e+3, 2.3510666e+2, -742584.5, -837001.25, -23788.074, -0.0008391564, 0.0022466762, -736929.8, -100974.734 
1.1153381e+3, 2.4509312e+2, -663854.7, -751131.75, -21428.465, -0.0007718684, 0.0031983892, -658877.4, -120789.61 
1.1152965e+3, 2.550795e+2, -582963.0, -661043.5, -21346.12, -0.0015620576, 0.003722638, -577508.3, -137287.03 
1.11525536e+3, 2.6506573e+2, -504105.25, -574549.9, -18152.176, -0.0016909249, 0.0039332667, -499702.9, -157346.84 
1.1152146e+3, 2.7505192e+2, -423641.8, -484495.3, -17927.627, -0.0012113864, 0.0017262923, -418753.03, -174261.53 
1.1151742e+3, 2.85038e+2, -344483.53, -397664.38, -13866.525, -0.0015032118, 0.0024959603, -341085.1, -194457.25 
1.1151344e+3, 2.9502407e+2, -263107.34, -307039.63, -13345.505, -0.0026060925, 0.003640779, -259371.1, -210606.75 
1.11509524e+3, 3.0501333e+2, -185880.83, -172482.9, -8613.464, -0.0030131256, 0.004167782, -168270.05, -168270.05 
1.1150568e+3, 3.150059e+2, -203186.1, -180147.56, -8361.997, -0.002409521, 0.0024794382, -177432.5, -177432.5 
1.11501865e+3, 3.2500345e+2, -149845.55, -42523.137, -4362.3755, -0.0006871079, 0.0022867725, -42346.11, -42346.11 
1.12623386e+3, 3.5396194e+1, -2327695.0, -2595764.5, 2436.7678, 0.005652307, 0.005406297, -2327672.8, 265444.84 
1.1261946e+3, 4.5384207e+1, -2251803.0, -2510301.0, -3268.421, -0.0037658093, -0.0017281261, -2251761.8, 243473.44 
1.1261548e+3, 5.537231e+1, -2170291.3, -2420753.3, -3524.0518, 0.0030020296, 0.0037482034, -2170241.5, 227110.14 
1.1261143e+3, 6.536028e+1, -2091257.8, -2333349.8, -8231.692, 0.0043854923, 0.005462053, -2090978.3, 208491.44 
1.1260732e+3, 7.534816e+1, -2012889.6, -2245164.0, -8776.205, 0.001182334, 0.0022578584, -2012558.5, 189029.92 
1.12603165e+3, 8.533597e+1, -1934634.9, -2158782.3, -12911.557, 0.00047601262, 0.0024089885, -1933893.5, 169814.36 
1.1259896e+3, 9.532372e+1, -1854286.3, -2069526.5, -13098.488, 0.0018193572, 0.0035636085, -1853492.0, 152335.89 
1.12594716e+3, 1.0531138e+2, -1775439.6, -1982337.0, -16226.283, 0.0020972965, 0.0042900173, -1774174.8, 133774.11 
1.1259042e+3, 1.15298964e+2, -1696166.6, -1893557.9, -16526.162, 0.0013895257, 0.002790112, -1694792.6, 115277.914 
1.1258611e+3, 1.2528649e+2, -1617436.9, -1806553.4, -19062.273, 0.0007223769, 0.0030750914, -1615534.5, 96658.23 
1.1258176e+3, 1.3527396e+2, -1537400.4, -1717368.1, -19339.426, 0.00011724891, 0.0030487787, -1535345.6, 78969.95 
1.1257739e+3, 1.4526129e+2, -1459140.3, -1631455.6, -20899.291, 0.00039700686, 0.0038473543, -1456641.6, 59797.953 
1.1257301e+3, 1.5524855e+2, -1379430.8, -1542331.6, -20882.318, 0.0015090395, 0.0034523709, -1376796.4, 41768.188 
1.1256862e+3, 1.6523571e+2, -1300450.3, -1455014.9, -21756.236, 0.0009950302, 0.0036014926, -1297446.3, 23244.027 
1.12564206e+3, 1.7522284e+2, -1220410.9, -1365643.6, -21855.783, -0.0010652478, 0.002231468, -1217193.1, 5623.333 
1.125598e+3, 1.8520987e+2, -1141909.8, -1279316.5, -21835.89, -0.0011812001, 0.0029452145, -1138523.1, -13579.54 
1.1255541e+3, 1.9519682e+2, -1062083.9, -1190070.3, -21903.93, 0.00049066, 0.003634995, -1058439.0, -31367.543 
1.1255101e+3, 2.0518367e+2, -983526.56, -1103596.3, -21196.338, 0.00045636436, 0.0042573265, -979894.56, -50694.098 
1.12546615e+3, 2.1517041e+2, -903411.56, -1014164.06, -21027.918, -0.0012152259, 0.002836093, -899553.5, -68223.23 
1.12542264e+3, 2.2515708e+2, -824591.6, -927109.44, -19424.434, -0.0017719344, 0.002946772, -821034.6, -87573.72 
1.1253791e+3, 2.351437e+2, -744642.6, -837614.0, -19498.418, -0.001261572, 0.002350821, -740718.9, -105126.91 
1.1253361e+3, 2.451302e+2, -666364.3, -751678.7, -17161.125, -0.0010621491, 0.0032285259, -663041.75, -125317.44 
1.1252932e+3, 2.551166e+2, -586107.8, -661886.44, -16864.031, -0.0011619492, 0.0035614837, -582524.3, -142666.95 
1.12525076e+3, 2.6510292e+2, -507502.66, -575387.1, -13605.34, -0.0012603735, 0.0038358055, -504877.4, -162885.84 
1.1252087e+3, 2.7508917e+2, -427162.03, -485374.63, -13299.767, -0.0013717113, 0.0018932652, -424267.4, -180141.06 
1.1251672e+3, 2.8507534e+2, -348660.25, -398659.8, -9327.111, -0.001783404, 0.0025157554, -346977.0, -200715.03 
1.12512626e+3, 2.950615e+2, -268735.78, -308738.44, -9143.709, -0.0025790215, 0.0031539693, -266744.84, -218347.14 
1.1250858e+3, 3.0505085e+2, -192230.69, -174386.44, -4368.529, -0.0027723098, 0.003920222, -173374.36, -173374.36 
1.125046e+3, 3.1504348e+2, -209709.02, -182160.97, -3734.6255, -0.002042767, 0.0033602484, -181663.66, -181663.66 
1.12500675e+3, 3.2504117e+2, -155776.98, -43540.523, 26.427723, -0.0011637321, 0.0018605188, -43540.52, -43540.52 
1.13625795e+3, 3.5435268e+1, -2330366.8, -2600975.3, -3740.2007, 0.0019121729, 0.003818422, -2330315.0, 262419.72 
1.1362173e+3, 4.5423168e+1, -2251585.8, -2510885.5, -6753.4546, 0.0035894674, 0.0051806183, -2251410.0, 243443.31 
1.13617614e+3, 5.5411124e+1, -2170654.5, -2421612.0, -7119.465, 0.0010242373, 0.0023914524, -2170452.5, 226518.73 
1.1361345e+3, 6.5398985e+1, -2092208.8, -2335336.5, -12621.417, 0.00092940155, 0.002739172, -2091555.4, 207534.94 
1.1360922e+3, 7.538678e+1, -2013555.9, -2246974.3, -13127.626, 0.0029337425, 0.003911184, -2012819.9, 188390.05 
1.1360493e+3, 8.5374504e+1, -1934666.3, -2159238.0, -16813.049, 0.0028532553, 0.004399549, -1933414.5, 169915.69 
1.136006e+3, 9.536218e+1, -1854514.4, -2070103.3, -17050.473, 0.00090293534, 0.0024654109, -1853174.1, 152276.77 
1.1359623e+3, 1.0534979e+2, -1775920.0, -1983381.3, -20474.186, 0.0004292863, 0.0030087053, -1773918.8, 133653.73 
1.1359181e+3, 1.1533733e+2, -1696567.9, -1894573.0, -20773.496, 0.001197315, 0.003927212, -1694412.0, 115282.61 
1.1358738e+3, 1.2532477e+2, -1617825.9, -1807550.8, -23133.371, 0.0014400485, 0.004234375, -1615045.9, 96771.65 
1.135829e+3, 1.3531215e+2, -1537821.4, -1718368.4, -23423.992, 0.0012807581, 0.0020391727, -1534831.9, 79109.375 
1.1357842e+3, 1.4529945e+2, -1459045.6, -1631341.9, -25107.607, 0.00082024746, 0.002374067, -1455461.5, 60604.164 
1.135739e+3, 1.5528673e+2, -1379318.6, -1542240.1, -25114.371, 0.000059899325, 0.003031272, -1375535.1, 42655.375 
1.1356939e+3, 1.6527389e+2, -1300583.6, -1455363.1, -25933.135, -0.00011882603, 0.004339257, -1296354.1, 23962.072 
1.1356486e+3, 1.75261e+2, -1220537.1, -1366005.0, -26046.22, 0.00021178125, 0.0041334275, -1216014.1, 6428.3325 
1.1356033e+3, 1.85248e+2, -1141942.3, -1279489.4, -26105.07, -0.00012841185, 0.0039575207, -1137154.5, -12584.547 
1.135558e+3, 1.9523492e+2, -1062111.1, -1190222.6, -26179.086, -0.0010702353, 0.0019842628, -1056968.0, -30269.945 
1.1355128e+3, 2.0522179e+2, -983136.56, -1102831.0, -25427.16, -0.00096089183, 0.0023145655, -977958.94, -49132.1 
1.13546774e+3, 2.152086e+2, -903042.6, -1013445.3, -25285.805, 0.000053051597, 0.0027412155, -897526.94, -66570.91 
1.1354229e+3, 2.251953e+2, -824693.3, -927341.0, -23761.557, -0.00032876886, 0.0038555344, -819459.7, -86373.266 
1.1353782e+3, 2.351819e+2, -744735.7, -837844.0, -23834.662, -0.0019557816, 0.0034907055, -738989.0, -103771.32 
1.13533385e+3, 2.4516843e+2, -665812.4, -750511.5, -21456.432, -0.0020185548, 0.003638031, -660687.06, -123337.34 
1.1352898e+3, 2.551549e+2, -585561.7, -660731.75, -21180.842, -0.0007051816, 0.002297853, -580004.3, -140522.2 
1.1352461e+3, 2.651413e+2, -506993.06, -574273.8, -17952.865, -0.0009254186, 0.0030840752, -502502.34, -160886.8 
1.1352028e+3, 2.7512765e+2, -426659.34, -484280.8, -17660.512, -0.0025524881, 0.0037280489, -421677.3, -177927.97 
1.13516e+3, 2.8511387e+2, -348400.56, -398054.72, -13829.7, -0.0026432332, 0.0043628737, -344808.53, -198924.16 
1.1351178e+3, 2.9510003e+2, -268471.53, -308132.06, -13654.074, -0.0013524755, 0.0025525424, -264225.4, -216205.45 
1.13507606e+3, 3.0508947e+2, -191214.83, -172235.6, -8699.998, -0.0010734912, 0.0023061659, -168851.1, -168851.1 
1.135035e+3, 3.1508228e+2, -208717.05, -180049.56, -8075.8457, -0.0013850268, 0.0021802075, -177931.1, -177931.1 
1.1349945e+3, 3.250801e+2, -155346.97, -42582.594, -4292.4805, -0.0034306347, 0.004862146, -42419.43, -42419.43 
1.1462821e+3, 3.5475785e+1, -2323328.3, -2598140.8, 797.15533, 0.001262373, 0.002642472, -2323326.0, 269011.78 
1.1462402e+3, 4.5463604e+1, -2241595.0, -2507487.0, -2054.8262, 0.0050660865, 0.006699066, -2241579.3, 252877.88 
1.14619784e+3, 5.54514e+1, -2164903.3, -2420279.0, -2896.7346, 0.0010361973, 0.0023387105, -2164870.3, 231706.34 
1.1461549e+3, 6.5439135e+1, -2087158.0, -2333731.5, -8258.935, 0.0004162647, 0.002270257, -2086881.8, 211815.14 
1.1461112e+3, 7.542684e+1, -2006925.6, -2244581.0, -8518.01, 0.0026869806, 0.004035682, -2006620.6, 194196.64 
1.14606716e+3, 8.541448e+1, -1928319.9, -2156925.3, -12335.75, 0.0028752699, 0.004616133, -1927656.1, 175282.33 
1.1460226e+3, 9.5402074e+1, -1850221.9, -2068790.3, -12787.51, 0.0011959603, 0.0023458034, -1849476.4, 155583.69 
1.1459775e+3, 1.053896e+2, -1772193.4, -1982120.0, -16142.407, 0.00067329174, 0.0027952348, -1770959.3, 136222.92 
1.1459322e+3, 1.1537709e+2, -1692481.0, -1893155.3, -16344.062, 0.0011384052, 0.0038880082, -1691158.5, 118146.37 
1.1458865e+3, 1.2536448e+2, -1614145.0, -1806252.5, -18633.55, 0.0013524909, 0.00439748, -1612354.3, 99074.164 
1.1458406e+3, 1.353518e+2, -1535215.3, -1717565.9, -18797.436, 0.0013456396, 0.0024149823, -1533297.8, 80254.99 
1.1457945e+3, 1.4533909e+2, -1456821.4, -1630352.8, -20474.08, 0.00081272866, 0.0026532714, -1454438.4, 61238.98 
1.14574805e+3, 1.553263e+2, -1377410.6, -1541391.8, -20592.037, -0.00021455245, 0.002945304, -1374864.4, 42938.137 
1.1457016e+3, 1.6531347e+2, -1299137.8, -1454837.5, -21417.89, -0.00028726386, 0.0040676333, -1296245.3, 23683.152 
1.1456551e+3, 1.7530055e+2, -1219675.0, -1365742.3, -21497.092, 0.00053062197, 0.0038686793, -1216577.0, 5478.0474 
1.1456085e+3, 1.8528754e+2, -1141420.1, -1279073.3, -21514.053, 0.00022176075, 0.0039038, -1138136.0, -13953.575 
1.145562e+3, 1.9527446e+2, -1062062.4, -1190053.6, -21466.205, -0.0011256878, 0.0023382052, -1058558.1, -32247.53 
1.1455156e+3, 2.0526132e+2, -983582.9, -1102841.8, -20745.748, -0.0012246866, 0.0027046716, -980077.1, -51637.773 
1.14546925e+3, 2.1524815e+2, -904106.06, -1013743.2, -20844.217, -0.00017606498, 0.0028457942, -900276.9, -69708.47 
1.1454231e+3, 2.2523487e+2, -826088.3, -927532.06, -19282.627, -0.0002716938, 0.0038727436, -822546.7, -89848.02 
1.1453772e+3, 2.352215e+2, -746475.75, -838202.7, -18999.799, -0.0014630988, 0.0035616476, -742695.94, -107866.375 
1.14533156e+3, 2.4520807e+2, -668044.7, -751037.56, -16593.803, -0.0017194944, 0.0036999271, -664849.9, -127888.56 
1.14528626e+3, 2.551946e+2, -588585.2, -661619.9, -16554.229, -0.0011335224, 0.0023299016, -585008.2, -145914.86 
1.1452412e+3, 2.6518103e+2, -510623.7, -575178.6, -13479.874, -0.0013588187, 0.0030425824, -507921.97, -166695.78 
1.1451966e+3, 2.7516744e+2, -431098.1, -485569.7, -13239.337, -0.0023387803, 0.0036163703, -428050.75, -184691.39 
1.1451527e+3, 2.8515375e+2, -352991.06, -399296.38, -9270.737, -0.0022904894, 0.0043581366, -351203.97, -205710.27 
1.14510916e+3, 2.9514e+2, -272752.7, -309227.63, -8817.769, -0.0012736502, 0.0027765734, -270732.84, -223104.34 
1.1450662e+3, 3.051295e+2, -195996.66, -173407.48, -4003.1865, -0.0010662411, 0.0025402978, -172719.03, -172719.03 
1.1450239e+3, 3.151224e+2, -215061.63, -181974.55, -3760.134, -0.0013550237, 0.002214225, -181552.61, -181552.61 
1.14498205e+3, 3.2512036e+2, -162600.28, -44288.08, 219.46288, -0.0038486863, 0.005009031, -44287.67, -44287.67 
1.15630664e+3, 3.5517445e+1, -2322313.5, -2596241.3, -1818.5336, 0.0022949849, 0.0016687507, -2322301.5, 269627.9 
1.1562636e+3, 4.5505202e+1, -2243151.0, -2510549.5, -6904.6167, 0.0027888718, 0.0049268785, -2242972.8, 251076.67 
1.1562197e+3, 5.549282e+1, -2166020.5, -2423038.3, -7629.39, 0.0023374707, 0.0031678048, -2165794.3, 230376.47 
1.1561754e+3, 6.548043e+1, -2087272.6, -2334485.5, -12136.817, 0.0017270462, 0.0032448582, -2086678.1, 211613.95 
1.1561306e+3, 7.5468063e+1, -2007324.4, -2245513.8, -12461.813, 0.0010625849, 0.0031595114, -2006674.3, 193739.13 
1.1560852e+3, 8.545562e+1, -1929086.0, -2158500.0, -16817.846, 0.0013321098, 0.003708168, -1927859.8, 174675.56 
1.1560393e+3, 9.544312e+1, -1850814.4, -2070266.6, -17242.313, 0.0022910428, 0.002913991, -1849467.9, 155189.94 
1.15599304e+3, 1.0543057e+2, -1772354.4, -1982713.9, -20228.393, 0.0021659536, 0.0033252062, -1770426.8, 136353.94 
1.1559464e+3, 1.15418e+2, -1692764.4, -1893814.4, -20461.797, 0.0011277387, 0.0030159515, -1690703.0, 118201.04 
1.1558994e+3, 1.2540536e+2, -1614408.4, -1806819.9, -22976.475, 0.0006566335, 0.0038807187, -1611702.6, 99325.28 
1.15585215e+3, 1.3539265e+2, -1535419.0, -1718114.0, -23145.395, 0.0005704184, 0.0038274892, -1532532.3, 80620.125 
1.15580484e+3, 1.4537989e+2, -1456983.6, -1630760.5, -24731.04, 0.0004635353, 0.004240575, -1453532.6, 61744.875 
1.1557571e+3, 1.5536708e+2, -1377586.4, -1541821.5, -24868.807, 0.00037764516, 0.0031114086, -1373903.3, 43499.64 
1.1557095e+3, 1.653542e+2, -1299226.3, -1455086.8, -25715.684, 0.00021737431, 0.0030402206, -1295093.0, 24436.219 
1.15566164e+3, 1.7534125e+2, -1219758.0, -1366000.6, -25809.969, 0.000041550193, 0.0019188607, -1215336.5, 6319.602 
1.1556137e+3, 1.8532825e+2, -1141239.8, -1278766.1, -25882.883, -0.000016907701, 0.0030514547, -1136529.8, -12746.327 
1.15556605e+3, 1.9531523e+2, -1061902.3, -1189767.9, -25852.297, 0.000004258839, 0.0043315296, -1056873.3, -30962.041 
1.1555183e+3, 2.0530209e+2, -983689.0, -1103130.0, -25124.963, -0.0005980289, 0.0049803, -978619.06, -50579.156 
1.1554707e+3, 2.1528888e+2, -904208.94, -1013997.1, -25223.568, -0.0017238883, 0.0030887576, -898691.2, -68521.8 
1.1554232e+3, 2.252756e+2, -825526.75, -926386.2, -23680.86, -0.0014166064, 0.0031368781, -820243.5, -87944.1 
1.15537606e+3, 2.3526233e+2, -745933.25, -837094.56, -23424.318, 0.000016993881, 0.0027078579, -740266.5, -105836.95 
1.1553291e+3, 2.4524893e+2, -667963.25, -750864.75, -21106.46, -0.0004020825, 0.0034732143, -662898.94, -126338.18 
1.1552825e+3, 2.552355e+2, -588493.94, -661449.0, -21070.29, -0.0024485472, 0.0035383862, -582845.9, -144153.28 
1.1552362e+3, 2.6522195e+2, -510187.38, -574293.7, -18026.426, -0.002547317, 0.0036234297, -505466.13, -164640.95 
1.1551904e+3, 2.752084e+2, -430658.47, -484687.6, -17800.158, -0.0008658772, 0.0016751401, -425321.34, -182363.38 
1.1551452e+3, 2.8519478e+2, -352179.9, -397624.56, -13691.279, -0.0008993833, 0.0026512095, -348373.88, -203282.45 
1.1551003e+3, 2.9518119e+2, -271968.2, -307594.7, -13258.248, -0.0024130174, 0.0038479676, -267575.72, -220350.88 
1.15505606e+3, 3.0517077e+2, -195701.39, -172776.7, -8747.65, -0.0028095776, 0.0045719063, -169820.08, -169820.08 
1.1550125e+3, 3.151637e+2, -214749.88, -181310.44, -8508.877, -0.0020159672, 0.0034007544, -179269.83, -179269.83 
1.1549693e+3, 3.2516178e+2, -160891.92, -40698.582, -4421.7813, -0.0025531682, 0.002312553, -40536.13, -40536.13 
1.1663314e+3, 3.5560536e+1, -2314190.3, -2593699.5, 2522.8281, 0.004010866, 0.0031925808, -2314167.5, 277339.7 
1.166287e+3, 4.554815e+1, -2237360.3, -2508589.5, -3244.6072, -0.00027839356, 0.003103854, -2237321.5, 256306.98 
1.1662419e+3, 5.553569e+1, -2158055.3, -2420035.3, -3362.48, 0.0030617141, 0.0035092907, -2158012.3, 237738.42 
1.1661963e+3, 6.552322e+1, -2079784.3, -2331734.3, -7659.6377, 0.0033736713, 0.0039784657, -2079551.6, 218321.3 
1.1661501e+3, 7.551074e+1, -2002511.5, -2244063.5, -8163.724, 0.0012155405, 0.002917324, -2002236.0, 197759.19 
1.1661035e+3, 8.5498214e+1, -1924781.5, -2157095.0, -12414.91, 0.0009210315, 0.0033989656, -1924119.9, 177997.98 
1.16605625e+3, 9.548564e+1, -1845550.1, -2068389.9, -12625.821, 0.0021405432, 0.0032878371, -1844837.1, 159403.98 
1.1660086e+3, 1.0547303e+2, -1767405.8, -1980838.4, -15570.163, 0.002162238, 0.0037031558, -1766275.9, 140088.84 
1.1659607e+3, 1.1546038e+2, -1689358.8, -1892673.1, -15855.774, 0.001159669, 0.0027886783, -1688129.6, 120359.0 
1.16591245e+3, 1.2544769e+2, -1611472.4, -1805601.4, -18311.863, 0.0006437543, 0.0035497972, -1609760.3, 100852.805 
1.1658639e+3, 1.3543497e+2, -1532501.8, -1716915.5, -18389.887, 0.00044081878, 0.003913735, -1530685.8, 82052.02 
1.1658152e+3, 1.4542216e+2, -1454472.1, -1629919.8, -19950.836, 0.0004968239, 0.0044694035, -1452232.1, 62631.08 
1.1657663e+3, 1.5540932e+2, -1375675.1, -1541261.4, -20133.572, 0.00085199345, 0.0032209076, -1373262.3, 43726.86 
1.1657173e+3, 1.6539639e+2, -1297717.9, -1454320.1, -20943.156, 0.00052826357, 0.003164885, -1294965.4, 24150.207 
1.1656682e+3, 1.7538343e+2, -1218873.1, -1365546.5, -20946.049, -0.00035906822, 0.0022325425, -1215940.5, 5302.149 
1.16561905e+3, 1.8537043e+2, -1140772.8, -1278416.5, -21030.588, -0.0004742824, 0.0032277657, -1137631.1, -14261.106 
1.16556995e+3, 1.9535741e+2, -1061790.0, -1189608.8, -21097.613, 0.00006736445, 0.0040683364, -1058397.8, -32899.895 
1.165521e+3, 2.0534427e+2, -984005.6, -1103009.8, -20290.135, -0.00029604643, 0.0047135055, -980641.3, -53014.797 
1.16547205e+3, 2.1533106e+2, -905131.9, -1014171.7, -20144.521, -0.0014658835, 0.0032013324, -901529.3, -71773.48 
1.1654233e+3, 2.2531782e+2, -826962.56, -926699.75, -18664.348, -0.001416126, 0.0032798564, -823584.25, -91698.57 
1.1653749e+3, 2.3530456e+2, -747977.2, -837698.06, -18739.338, -0.0003505555, 0.0026004775, -744220.5, -110204.85 
1.1653267e+3, 2.452912e+2, -670297.1, -751370.4, -16466.787, -0.0006183099, 0.0033357572, -667080.2, -130933.66 
1.1652787e+3, 2.552778e+2, -591162.2, -662108.25, -16163.427, -0.0020740824, 0.0035803183, -587653.3, -149375.39 
1.1652312e+3, 2.652643e+2, -513172.44, -575016.06, -13028.69, -0.0021154508, 0.0038564089, -510539.75, -170129.73 
1.1651841e+3, 2.7525082e+2, -434033.13, -485594.6, -12829.427, -0.0008444664, 0.0020937042, -431017.34, -188475.06 
1.16513744e+3, 2.8523728e+2, -356351.44, -398648.34, -8847.9, -0.0011370266, 0.0026731647, -354575.2, -209900.06 
1.1650913e+3, 2.952237e+2, -277671.4, -309354.34, -8648.956, -0.0027935854, 0.0030089894, -275464.16, -228656.28 
1.16504565e+3, 3.0521342e+2, -201864.17, -174611.45, -4125.1743, -0.0030616897, 0.004524479, -174000.73, -174000.73 
1.1650007e+3, 3.1520644e+2, -220555.06, -182970.33, -3504.0488, -0.0020142714, 0.0055208737, -182646.44, -182646.44 
1.1649563e+3, 3.2520458e+2, -166483.28, -42014.598, 250.26472, -0.002038904, 0.0009928145, -42014.094, -42014.094 
1.1763566e+3, 3.5604766e+1, -2315946.8, -2597660.0, -2163.9802, 0.005917156, 0.006211584, -2315930.3, 275143.5 
1.1763107e+3, 4.5592186e+1, -2237378.5, -2508881.3, -7211.1724, -0.0037800486, 0.0012976925, -2237187.0, 256009.95 
1.1762644e+3, 5.557972e+1, -2158208.0, -2420461.8, -7440.8843, 0.0033782953, 0.0035728307, -2157997.0, 237322.11 
1.1762175e+3, 6.556718e+1, -2080533.5, -2333408.5, -12260.822, 0.005144192, 0.0046063266, -2079940.5, 217501.56 
1.1761699e+3, 7.555458e+1, -2003107.4, -2245634.8, -12733.929, 0.0024960362, 0.0031116488, -2002440.6, 197124.81 
1.176122e+3, 8.5541975e+1, -1924928.9, -2157712.5, -16537.133, 0.0012227139, 0.0035046346, -1923759.9, 177929.13 
1.1760733e+3, 9.552936e+1, -1845851.9, -2069105.8, -16792.705, 0.0010717701, 0.0035378928, -1844595.9, 159216.84 
1.1760245e+3, 1.0551669e+2, -1767869.3, -1981837.6, -20056.705, 0.0010950263, 0.0040043397, -1766005.4, 139931.44 
1.1759752e+3, 1.15503974e+2, -1689713.5, -1893596.9, -20340.445, 0.0012196144, 0.0030237196, -1687704.0, 120357.4 
1.17592566e+3, 1.2549123e+2, -1611485.6, -1805819.3, -22616.209, 0.0010654605, 0.003363203, -1608888.4, 101297.914 
1.17587574e+3, 1.3547848e+2, -1532562.1, -1717192.3, -22731.898, 0.0007163031, 0.0030507466, -1529804.5, 82506.71 
1.1758258e+3, 1.4546566e+2, -1454758.4, -1630620.9, -24362.389, 0.0007612781, 0.003739899, -1451445.9, 62991.086 
1.1757755e+3, 1.5545276e+2, -1375950.8, -1541938.3, -24547.23, 0.0011625236, 0.0033091072, -1372396.6, 44166.746 
1.1757252e+3, 1.6543983e+2, -1297641.9, -1454263.5, -25380.506, 0.0006265575, 0.004197674, -1293631.8, 25058.318 
1.1756748e+3, 1.754269e+2, -1218814.8, -1365521.3, -25402.338, -0.0007223483, 0.0042951424, -1214540.9, 6276.058 
1.17562436e+3, 1.8541387e+2, -1140799.6, -1278596.4, -25485.895, -0.0011403458, 0.0041815955, -1136237.0, -13292.56 
1.175574e+3, 1.9540079e+2, -1061817.0, -1189742.1, -25560.6, -0.00078503124, 0.0019613577, -1056898.8, -31826.203 
1.1755237e+3, 2.0538768e+2, -983663.44, -1102354.8, -24814.121, -0.00028977272, 0.0023979892, -978684.56, -51483.43 
1.1754734e+3, 2.1537454e+2, -904807.6, -1013564.8, -24690.033, 0.00025212375, 0.0032328037, -899464.94, -70135.086 
1.17542334e+3, 2.2536132e+2, -827050.6, -926940.4, -23226.693, -0.00053226954, 0.0041693957, -821914.0, -90454.53 
1.1753736e+3, 2.3534802e+2, -748055.7, -837899.6, -23298.977, -0.0023988779, 0.0031299526, -742373.06, -108783.35 
1.17532395e+3, 2.453347e+2, -669720.4, -750168.2, -21035.342, -0.0021970244, 0.003256734, -664552.1, -128831.81 
1.1752748e+3, 2.5532135e+2, -590600.0, -660953.75, -20760.295, -0.00021496689, 0.002564326, -584930.8, -147079.81 
1.175226e+3, 2.6530796e+2, -512811.97, -574264.2, -17684.203, -0.0003212552, 0.003811253, -508086.38, -168104.02 
1.1751775e+3, 2.752945e+2, -433669.25, -484865.9, -17503.78, -0.0022693141, 0.004756829, -428257.0, -186143.11 
1.1751295e+3, 2.8528103e+2, -356002.22, -397928.7, -13670.56, -0.002969937, 0.00430986, -351938.66, -207692.31 
1.175082e+3, 2.952675e+2, -277306.13, -308612.47, -13482.578, -0.0024781912, 0.0002886755, -272300.13, -225921.11 
1.1750352e+3, 3.052573e+2, -200832.4, -172495.55, -8781.001, -0.0019534428, 0.002504572, -169995.13, -169995.13 
1.1749889e+3, 3.1525052e+2, -219552.3, -180921.17, -8182.5923, -0.001455554, 0.008664338, -179259.47, -179259.47 
1.17494315e+3, 3.252487e+2, -166589.05, -42211.84, -4478.239, -0.0025735302, 0.0010483243, -42050.805, -42050.805 
1.18638195e+3, 3.5650584e+1, -2307051.5, -2594648.8, 2163.34, 0.0029009548, 0.0051356363, -2307035.3, 283589.34 
1.1863349e+3, 4.5637912e+1, -2230127.3, -2506473.8, -1857.9595, 0.0019461273, 0.0030435678, -2230114.8, 262634.06 
1.1862871e+3, 5.5625314e+1, -2152246.8, -2418633.0, -2566.3577, 0.0024971452, 0.0033773482, -2152222.0, 242650.27 
1.1862389e+3, 6.5612674e+1, -2074617.6, -2331324.3, -7667.954, 0.002797831, 0.004083873, -2074388.9, 222607.42 
1.18618995e+3, 7.559999e+1, -1996669.6, -2243291.3, -7947.544, 0.0026314566, 0.0034681074, -1996413.8, 202706.75 
1.1861405e+3, 8.5587305e+1, -1919084.4, -2155473.3, -11624.79, 0.0020554923, 0.003925506, -1918514.1, 182730.66 
1.1860907e+3, 9.557462e+1, -1841692.9, -2067687.9, -11975.777, 0.0012074322, 0.0034226873, -1841060.0, 162309.19 
1.1860404e+3, 1.0556188e+2, -1764225.4, -1980541.4, -15206.789, 0.0009971282, 0.0039751846, -1763161.6, 142332.33 
1.1859899e+3, 1.1554912e+2, -1685825.3, -1892166.6, -15389.719, 0.0012640888, 0.0036250139, -1684683.8, 122935.36 
1.18593894e+3, 1.2553632e+2, -1607868.1, -1804549.5, -17677.717, 0.0012193071, 0.003792358, -1606291.9, 103452.57 
1.1858877e+3, 1.3552351e+2, -1529751.8, -1716264.8, -17964.547, 0.00097257074, 0.0026414176, -1528037.1, 83832.81 
1.1858363e+3, 1.4551063e+2, -1452353.1, -1629556.9, -19572.018, 0.0007464768, 0.0033228584, -1450217.1, 63778.906 
1.1857848e+3, 1.5549773e+2, -1374053.3, -1541128.8, -19548.645, 0.0005492196, 0.0036036759, -1371796.5, 44326.15 
1.18573315e+3, 1.6548479e+2, -1296209.1, -1453621.4, -20330.135, 0.00018701742, 0.0046081403, -1293625.9, 24623.566 
1.1856814e+3, 1.7547183e+2, -1217885.8, -1365124.5, -20421.156, -0.00033212465, 0.0043046977, -1215105.9, 5270.6123 
1.1856297e+3, 1.8545878e+2, -1140348.5, -1278310.3, -20462.75, -0.00061719347, 0.0041584135, -1137377.4, -14873.151 
1.1855779e+3, 1.9544572e+2, -1061831.5, -1189692.9, -20485.738, -0.00069843873, 0.00221883, -1058629.5, -33997.03 
1.18552625e+3, 2.054326e+2, -983968.7, -1102236.9, -19837.422, -0.00047892745, 0.0026649304, -980730.0, -53969.047 
1.1854748e+3, 2.1541947e+2, -905530.1, -1013642.7, -19879.459, -0.000021647746, 0.0033381365, -901990.6, -73101.016 
1.18542336e+3, 2.2540624e+2, -828140.4, -927037.94, -18335.941, -0.00058824394, 0.0042586424, -824850.3, -93831.25 
1.1853722e+3, 2.3539299e+2, -749728.2, -838273.56, -18074.004, -0.002018946, 0.003354129, -746181.0, -113032.016 
1.1853213e+3, 2.453797e+2, -671953.3, -750717.56, -15809.742, -0.0019861434, 0.0035651727, -668898.44, -133619.13 
1.1852708e+3, 2.5536638e+2, -593511.0, -661810.8, -15799.049, -0.0006250832, 0.0028551472, -590033.44, -152623.83 
1.18522055e+3, 2.6535302e+2, -516169.38, -575104.8, -12821.212, -0.00066386606, 0.003916125, -513501.0, -173960.44 
1.1851708e+3, 2.7533966e+2, -437614.8, -485970.75, -12546.482, -0.0020248916, 0.004571202, -434553.3, -192881.78 
1.18512146e+3, 2.8532624e+2, -360247.75, -399108.22, -8672.963, -0.0026474737, 0.0044526965, -358399.97, -214596.61 
1.18507266e+3, 2.9531273e+2, -281722.66, -309872.38, -8320.516, -0.0024626472, 0.0012954035, -279447.2, -233511.88 
1.1850243e+3, 3.0530265e+2, -205575.78, -173634.72, -3663.623, -0.0020692684, 0.0025483356, -173219.89, -173219.89 
1.1849768e+3, 3.1529593e+2, -225169.08, -182494.64, -3431.1738, -0.0016906412, 0.006171688, -182220.52, -182220.52 
1.1849295e+3, 3.2529426e+2, -173275.19, -44191.727, 404.3828, -0.0025708226, 0.002992849, -44190.46, -44190.46 
1.19640775e+3, 3.5697648e+1, -2307388.0, -2595091.8, -3153.1753, -0.0025950526, 0.0019200899, -2307353.5, 282810.0 
1.1963591e+3, 4.568494e+1, -2230904.5, -2508742.5, -6277.629, 0.012928456, 0.0069499384, -2230762.8, 261525.19 
1.1963101e+3, 5.567213e+1, -2153241.5, -2420950.8, -6951.3643, 0.00075859873, 0.0030189287, -2153061.3, 241352.31 
1.1962604e+3, 6.565937e+1, -2075026.0, -2332220.0, -12046.647, -0.0021122666, 0.0029079188, -2074463.0, 222075.64 
1.1962101e+3, 7.5646645e+1, -1997098.8, -2244219.8, -12367.704, 0.0020292804, 0.003962275, -1996481.3, 202182.02 
1.1961594e+3, 8.5633886e+1, -1919575.9, -2156631.8, -16215.617, 0.0032116403, 0.004567497, -1918471.8, 182316.53 
1.19610816e+3, 9.562111e+1, -1842098.1, -2068772.5, -16561.498, 0.002108334, 0.0030853222, -1840894.5, 162019.05 
1.1960565e+3, 1.05608314e+2, -1764378.9, -1981095.8, -19588.908, 0.0014984873, 0.0037638135, -1762622.5, 142416.44 
1.1960045e+3, 1.1559552e+2, -1686041.1, -1892781.0, -19801.104, 0.0012568624, 0.0044840504, -1684161.8, 123002.55 
1.1959523e+3, 1.2558267e+2, -1608342.6, -1805597.6, -22169.969, 0.0011485959, 0.004671939, -1605881.6, 103408.66 
1.1958998e+3, 1.3556977e+2, -1530192.9, -1717270.5, -22455.72, 0.0011757584, 0.0025785626, -1527535.3, 83881.44 
1.195847e+3, 1.4555687e+2, -1452273.6, -1629436.1, -24060.377, 0.0004986749, 0.0031674781, -1449064.3, 64478.84 
1.19579405e+3, 1.5554398e+2, -1373978.1, -1541033.1, -24071.844, -0.00078454294, 0.004054322, -1370578.6, 45090.75 
1.1957411e+3, 1.6553102e+2, -1296324.1, -1453942.6, -24884.252, -0.0006760768, 0.0045496486, -1292488.8, 25307.615 
1.195688e+3, 1.7551802e+2, -1217981.4, -1365420.3, -24984.74, 0.00060006505, 0.0027281034, -1213862.5, 6061.33 
1.195635e+3, 1.8550497e+2, -1140277.8, -1278297.8, -25018.574, 0.0007800967, 0.0034211318, -1135882.6, -13831.028 
1.1955819e+3, 1.9549192e+2, -1061798.3, -1189690.4, -25050.459, 0.00009005204, 0.004404727, -1057066.6, -32887.01 
1.19552895e+3, 2.054788e+2, -983989.9, -1102339.5, -24443.705, -0.0008727708, 0.005015025, -979140.06, -52831.96 
1.195476e+3, 2.1546565e+2, -905538.5, -1013713.1, -24495.791, -0.0020220766, 0.0034699973, -900250.06, -71813.0 
1.1954233e+3, 2.2545247e+2, -827620.7, -925979.8, -23014.936, -0.0014603037, 0.003666836, -822501.9, -91935.63 
1.1953707e+3, 2.3543929e+2, -749227.44, -837282.5, -22783.014, 0.00042183642, 0.0033230581, -743681.9, -110986.445 
1.1953186e+3, 2.4542603e+2, -671899.7, -750658.75, -20569.5, -0.0003117349, 0.00424487, -666851.2, -132025.81 
1.1952666e+3, 2.5541273e+2, -593437.0, -661720.9, -20568.771, -0.0032150643, 0.004345745, -587719.9, -150764.28 
1.19521506e+3, 2.6539943e+2, -515644.9, -574043.25, -17614.15, -0.003021365, 0.004132934, -510743.5, -171657.28 
1.19516395e+3, 2.7538607e+2, -437087.8, -484923.5, -17361.822, -0.00023484546, 0.0017012559, -431450.7, -190233.88 
1.19511314e+3, 2.853727e+2, -359599.53, -397801.34, -13550.879, -0.00039817987, 0.0032714484, -355280.97, -211933.31 
1.195063e+3, 2.953594e+2, -281092.28, -308606.03, -13210.804, -0.0028946244, 0.0060290233, -275776.22, -230298.02 
1.1950133e+3, 3.053493e+2, -205231.64, -172961.95, -8555.709, -0.0035039478, 0.0045858785, -170833.9, -170833.9 
1.19496435e+3, 3.1534255e+2, -224784.98, -181744.1, -8350.324, -0.0028008248, -0.0021117919, -180180.84, -180180.84 
1.1949159e+3, 3.2534117e+2, -171681.3, -40843.26, -4715.789, -0.002231868, 0.0070859785, -40673.51, -40673.51 
1.2064337e+3, 3.5746312e+1, -2300501.0, -2593030.8, 1971.9138, 0.000016442733, 0.0032471837, -2300487.8, 289198.8 
1.2063838e+3, 4.573346e+1, -2221872.3, -2505291.5, -1985.5089, 0.009161188, 0.005166681, -2221858.5, 269954.2 
1.2063333e+3, 5.572057e+1, -2146418.5, -2418604.8, -2297.3572, 0.0015177402, 0.0034636927, -2146399.3, 247539.7 
1.2062821e+3, 6.570771e+1, -2069376.3, -2330257.5, -7012.6494, -0.0004495131, 0.0038680981, -2069188.0, 226876.95 
1.20623045e+3, 7.5694895e+1, -1992010.9, -2242554.3, -7449.7495, 0.0019557322, 0.004159653, -1991789.5, 206400.97 
1.2061784e+3, 8.568205e+1, -1914599.8, -2154851.3, -11336.42, 0.0027215893, 0.004533228, -1914066.0, 186250.33 
1.2061258e+3, 9.56692e+1, -1836984.8, -2066934.3, -11614.194, 0.0021891536, 0.003213651, -1836399.6, 166042.64 
1.2060727e+3, 1.0565634e+2, -1759654.9, -1979246.6, -14581.185, 0.0016787952, 0.0037336615, -1758690.9, 145877.38 
1.20601945e+3, 1.1564348e+2, -1682261.1, -1891355.6, -14851.261, 0.0011842027, 0.004109166, -1681211.6, 125482.734 
1.2059658e+3, 1.2563059e+2, -1605124.3, -1804346.8, -17140.783, 0.0009699059, 0.004720552, -1603660.3, 105160.51 
1.20591186e+3, 1.3561766e+2, -1527590.4, -1716272.9, -17176.66, 0.0009753373, 0.0036106892, -1526039.5, 84907.945 
1.2058578e+3, 1.4560471e+2, -1450095.0, -1628554.9, -18713.08, 0.00051492854, 0.004022235, -1448153.9, 64920.266 
1.20580345e+3, 1.5559179e+2, -1372170.8, -1540329.4, -18899.482, -0.0003615113, 0.0038551218, -1370072.8, 45128.1 
1.20574914e+3, 1.655788e+2, -1294800.4, -1453253.9, -19734.14, -0.00034827724, 0.0041923206, -1292379.6, 24948.57 
1.2056947e+3, 1.7556578e+2, -1216702.3, -1364861.3, -19785.732, 0.0004779474, 0.0029196313, -1214105.5, 5350.3135 
1.2056403e+3, 1.8555273e+2, -1139371.4, -1277655.9, -19796.762, 0.00053567527, 0.00371262, -1136593.0, -15009.47 
1.2055858e+3, 1.9553967e+2, -1061616.8, -1189461.5, -19783.23, -0.0000046695077, 0.004526942, -1058625.4, -34913.83 
1.2055315e+3, 2.0552656e+2, -984419.4, -1102335.1, -19065.816, -0.00084299955, 0.0051360326, -981413.3, -55573.19 
1.2054772e+3, 2.1551341e+2, -906526.25, -1013962.56, -18974.947, -0.0018884246, 0.003665459, -903273.44, -75304.46 
1.2054231e+3, 2.2550024e+2, -828874.5, -926207.9, -17587.43, -0.0014459507, 0.0039369515, -825794.06, -95696.016 
1.2053692e+3, 2.3548707e+2, -750692.25, -837615.25, -17649.004, 0.0001830775, 0.00364376, -747245.44, -115018.4 
1.2053157e+3, 2.4547385e+2, -673771.2, -751025.94, -15513.774, -0.00033211045, 0.0044324244, -670772.25, -136415.52 
1.2052623e+3, 2.554606e+2, -596094.4, -662457.5, -15242.576, -0.0026983907, 0.004321982, -592760.9, -156274.22 
1.20520934e+3, 2.654473e+2, -518747.97, -574813.75, -12178.488, -0.0027856876, 0.004161594, -516216.88, -177600.03 
1.2051569e+3, 2.7543402e+2, -440595.6, -485885.84, -12021.567, -0.0008823361, 0.0019269875, -437602.47, -196855.58 
1.2051049e+3, 2.8542075e+2, -363426.4, -398677.66, -8340.948, -0.00088022265, 0.003656781, -361552.44, -218675.33 
1.20505325e+3, 2.954075e+2, -285513.8, -309789.22, -8057.2817, -0.0023495306, 0.006665442, -283082.94, -238076.03 
1.2050022e+3, 3.0539745e+2, -210787.11, -174999.45, -3499.7864, -0.0029588921, 0.005027079, -174660.4, -174660.4 
1.2049518e+3, 3.1539074e+2, -231529.19, -184273.4, -3269.0547, -0.0032724584, -0.0023979654, -184048.33, -184048.33 
1.20490186e+3, 3.253895e+2, -177313.9, -40530.934, 480.92474, -0.0028962821, 0.007379258, -40529.242, -40529.242 
1.2164601e+3, 3.5796225e+1, -2301458.0, -2595399.0, -1188.6217, 0.006556773, 0.0069686435, -2301453.3, 287744.22 
1.2164085e+3, 4.5783168e+1, -2222672.8, -2506407.3, -6908.741, -0.0031890632, 0.00015869638, -2222504.8, 268820.75 
1.2163567e+3, 5.5770266e+1, -2146737.5, -2419523.3, -7229.041, 0.0038806314, 0.004468899, -2146546.0, 246905.73 
1.2163042e+3, 6.575734e+1, -2069781.6, -2331621.8, -11529.404, 0.005123717, 0.006132484, -2069274.9, 226303.66 
1.2162511e+3, 7.57444e+1, -1992529.4, -2243915.0, -11973.413, 0.0021304637, 0.004181048, -1991960.4, 205745.05 
1.2161975e+3, 8.5731477e+1, -1914959.1, -2155768.8, -15830.838, 0.0011704232, 0.0041258913, -1913922.9, 185909.19 
1.2161435e+3, 9.5718557e+1, -1837403.9, -2067866.8, -16133.016, 0.0016847053, 0.003678483, -1836280.0, 165678.52 
1.2160892e+3, 1.05705634e+2, -1760081.6, -1980183.4, -19175.777, 0.0015945005, 0.0038473543, -1758423.5, 145661.73 
1.21603444e+3, 1.15692705e+2, -1682646.3, -1892261.3, -19455.45, 0.0010470636, 0.0029145705, -1680855.8, 125356.24 
1.2159794e+3, 1.2567978e+2, -1605155.9, -1804414.0, -21747.727, 0.0006899481, 0.0042518857, -1602809.9, 105528.73 
1.2159241e+3, 1.3566688e+2, -1527572.9, -1716373.0, -21814.852, 0.0004387737, 0.005437699, -1525085.0, 85380.11 
1.2158687e+3, 1.456539e+2, -1450342.8, -1629239.1, -23296.314, 0.00068346004, 0.005601804, -1447358.9, 65233.324 
1.215813e+3, 1.556409e+2, -1372430.4, -1540988.1, -23488.293, 0.0013086963, 0.0031778829, -1369218.5, 45501.152 
1.21575736e+3, 1.6562788e+2, -1294844.9, -1453419.3, -24313.947, 0.000804892, 0.0036568397, -1291200.6, 25646.559 
1.2157014e+3, 1.7561486e+2, -1216763.1, -1365026.1, -24391.701, -0.0005081997, 0.004479267, -1212853.4, 6121.3325 
1.2156456e+3, 1.8560182e+2, -1139252.6, -1277514.3, -24528.18, -0.0010175054, 0.004788065, -1135030.3, -13927.615 
1.2155897e+3, 1.9558874e+2, -1061499.1, -1189299.3, -24532.477, -0.000846736, 0.0029745547, -1056951.6, -33720.89 
1.21553406e+3, 2.0557564e+2, -984188.44, -1101950.1, -23807.092, -0.0004945619, 0.0034722988, -979557.6, -54198.535 
1.2154784e+3, 2.1556254e+2, -906299.3, -1013611.2, -23734.639, -0.00003317055, 0.0039509065, -901284.2, -73796.63 
1.215423e+3, 2.2554937e+2, -828922.2, -926404.0, -22329.984, -0.00078555563, 0.004955122, -824050.56, -94434.02 
1.2153677e+3, 2.3553619e+2, -750744.1, -837774.7, -22408.426, -0.0024907242, 0.0042733424, -745313.3, -113567.55 
1.2153128e+3, 2.4552298e+2, -673243.75, -749966.1, -20456.523, -0.0018548225, 0.00417487, -668130.25, -134255.05 
1.2152581e+3, 2.555098e+2, -595548.2, -661436.25, -20209.182, 0.0005989918, 0.002941987, -589843.56, -153839.06 
1.2152036e+3, 2.6549658e+2, -518415.28, -574169.4, -17083.074, -0.0003328081, 0.0040928647, -513597.34, -175463.3 
1.2151497e+3, 2.7548337e+2, -440273.16, -485246.4, -16948.586, -0.003972571, 0.005122343, -434601.25, -194337.83 
1.2150962e+3, 2.8547013e+2, -362911.4, -397650.63, -13370.422, -0.0040196697, 0.0055076447, -358361.34, -215968.16 
1.2150432e+3, 2.9545692e+2, -285009.56, -308792.8, -13112.112, -0.00086053537, 0.0032646582, -279199.8, -234677.0 
1.21499084e+3, 3.0544695e+2, -210379.13, -174217.34, -8727.849, -0.0005425593, 0.004036325, -172221.05, -172221.05 
1.214939e+3, 3.1544036e+2, -231050.13, -183331.95, -8500.459, -0.0032120743, 0.0055733672, -181862.92, -181862.92 
1.2148876e+3, 3.2543918e+2, -175169.7, -36074.98, -4575.4346, -0.004750133, 0.0033469766, -35924.637, -35924.637 
1.2264867e+3, 3.58478e+1, -2292394.0, -2592417.0, 2992.5667, 0.0066357474, 0.006438158, -2292364.3, 296327.8 
1.22643374e+3, 4.583465e+1, -2218034.0, -2505090.0, -1543.2816, -0.0029427216, 0.002012027, -2218025.5, 272795.38 
1.2263804e+3, 5.582163e+1, -2139651.0, -2417013.5, -2040.6656, 0.0038057421, 0.004803599, -2139636.0, 253312.6 
1.22632645e+3, 6.58086e+1, -2062412.4, -2328840.0, -6553.2246, 0.0051271855, 0.00590815, -2062251.3, 232824.92 
1.226272e+3, 7.579556e+1, -1986495.9, -2241788.0, -6917.4297, 0.0023773378, 0.0041599316, -1986308.5, 210895.44 
1.2262169e+3, 8.5782564e+1, -1909861.6, -2153881.3, -10618.248, 0.0013074884, 0.004369865, -1909400.5, 189930.86 
1.2261615e+3, 9.5769584e+1, -1833149.1, -2066373.1, -10922.236, 0.0014973577, 0.0042328406, -1832638.8, 168819.78 
1.2261057e+3, 1.05756596e+2, -1756304.5, -1978777.8, -13904.715, 0.0015012197, 0.0045251725, -1755438.8, 148147.02 
1.2260496e+3, 1.15743615e+2, -1679338.3, -1891051.9, -14069.427, 0.0013422973, 0.0035255062, -1678407.3, 127305.78 
1.2259932e+3, 1.2573065e+2, -1601947.5, -1803106.1, -16285.701, 0.0009147074, 0.0044688783, -1600637.6, 107202.58 
1.2259364e+3, 1.3571768e+2, -1524393.1, -1715066.6, -16476.871, 0.00026563805, 0.005134186, -1522979.8, 86987.375 
1.2258795e+3, 1.4570469e+2, -1447532.5, -1628114.5, -17970.193, 0.0005074857, 0.005390403, -1445761.6, 66332.88 
1.2258225e+3, 1.5569165e+2, -1370293.8, -1540191.0, -18050.15, 0.001479727, 0.0034755908, -1368397.3, 45825.074 
1.22576535e+3, 1.6567862e+2, -1293324.4, -1452690.3, -18790.357, 0.0009779559, 0.004105079, -1291138.8, 25211.275 
1.2257081e+3, 1.7566559e+2, -1216064.6, -1364687.4, -18829.266, -0.0006159082, 0.0048686485, -1213716.1, 4761.606 
1.225651e+3, 1.8565252e+2, -1138967.8, -1277271.0, -18969.938, -0.0011908109, 0.0051848087, -1136413.0, -15807.263 
1.22559376e+3, 1.9563943e+2, -1061299.0, -1189105.0, -19042.383, -0.00090664, 0.0033519862, -1058522.1, -35788.11 
1.2255366e+3, 2.0562634e+2, -984049.94, -1101615.6, -18370.709, -0.0004091757, 0.0037823927, -981246.2, -56383.84 
1.2254796e+3, 2.1561323e+2, -906410.4, -1013403.0, -18366.336, 0.00023002678, 0.0042305435, -903345.4, -76354.625 
1.2254227e+3, 2.2560008e+2, -829803.94, -926514.2, -16957.707, -0.0005985873, 0.005140932, -826916.7, -97797.06 
1.2253661e+3, 2.3558691e+2, -752949.25, -838509.7, -16779.914, -0.0025794662, 0.004273701, -749776.06, -118527.31 
1.2253097e+3, 2.4557373e+2, -675569.7, -750498.44, -14724.141, -0.002121039, 0.004274531, -672780.1, -139402.23 
1.2252536e+3, 2.5556058e+2, -597353.7, -661710.56, -14655.576, 0.00031204204, 0.003375741, -594173.44, -158666.6 
1.22519776e+3, 2.655474e+2, -520766.03, -574733.56, -11777.823, -0.0003583209, 0.0047393916, -518307.63, -180671.64 
1.2251423e+3, 2.7553424e+2, -444067.16, -486507.56, -11616.794, -0.0036045574, 0.0059665698, -441095.5, -201330.5 
1.2250875e+3, 2.8552103e+2, -367260.6, -398905.34, -7932.1025, -0.0038357074, 0.0056172726, -365383.66, -223489.28 
1.2250331e+3, 2.9550785e+2, -289448.4, -310079.22, -7685.8066, -0.0012894222, 0.0017946786, -286899.94, -242876.4 
1.2249792e+3, 3.0549797e+2, -214821.17, -175087.1, -3301.1892, -0.00083417754, 0.0041251616, -174814.69, -174814.69 
1.2249259e+3, 3.154916e+2, -235998.39, -184476.6, -2677.3694, -0.002693375, 0.009936034, -184337.84, -184337.84 
1.2248731e+3, 3.254904e+2, -181096.6, -38279.582, 436.02176, -0.00477074, 0.0012305831, -38278.25, -38278.25 
1.23651356e+3, 3.590067e+1, -2293535.3, -2594046.5, -3927.5874, 0.0034416271, 0.0038749678, -2293484.0, 294689.97 
1.2364591e+3, 4.5887485e+1, -2218136.5, -2506414.5, -5734.353, 0.00447125, 0.0077926363, -2218022.5, 272280.66 
1.2364043e+3, 5.5874294e+1, -2140485.8, -2418671.0, -6311.5557, 0.002100283, 0.0047084526, -2140342.8, 252089.73 
1.236349e+3, 6.5861154e+1, -2063159.5, -2330152.8, -11417.709, 0.0017378754, 0.0042628576, -2062672.1, 231889.06 
1.23629294e+3, 7.5848055e+1, -1987030.0, -2242992.3, -11775.282, 0.0026782355, 0.0041689067, -1986489.5, 210200.14 
1.2362365e+3, 8.5834986e+1, -1910234.0, -2154895.3, -15313.139, 0.0024806878, 0.0050471076, -1909279.4, 189538.36 
1.2361797e+3, 9.582193e+1, -1833505.0, -2067322.6, -15625.583, 0.0014751252, 0.004867061, -1832465.4, 168480.25 
1.2361224e+3, 1.058089e+2, -1756467.9, -1979267.4, -18584.646, 0.0013753257, 0.00563219, -1754928.3, 148145.03 
1.2360648e+3, 1.1579588e+2, -1679491.5, -1891532.5, -18766.102, 0.0018900303, 0.005372165, -1677843.4, 127357.445 
1.236007e+3, 1.2578286e+2, -1602223.3, -1803743.6, -20871.947, 0.0014450413, 0.0051555033, -1600084.1, 107244.305 
1.2359489e+3, 1.3576983e+2, -1524730.1, -1715742.3, -21096.662, 0.00030680228, 0.003335293, -1522427.9, 87028.28 
1.2358906e+3, 1.4575681e+2, -1447669.3, -1628429.3, -22704.557, 0.00004771864, 0.003964428, -1444861.0, 66722.805 
1.2358321e+3, 1.5574376e+2, -1370405.6, -1540469.6, -22803.148, 0.00051120046, 0.0045322133, -1367401.1, 46310.457 
1.2357736e+3, 1.6573071e+2, -1293320.8, -1452786.9, -23579.672, 0.0004043348, 0.0052914866, -1289907.1, 25932.348 
1.235715e+3, 1.7571767e+2, -1216044.5, -1364776.8, -23632.947, -0.00008782957, 0.004360784, -1212379.6, 5587.7637 
1.2356564e+3, 1.8570459e+2, -1138995.0, -1277484.9, -23705.154, -0.00035169607, 0.005116122, -1135049.8, -14954.265 
1.23559766e+3, 1.9569151e+2, -1061334.3, -1189294.4, -23790.676, -0.00039723777, 0.0053115026, -1057054.3, -34830.473 
1.2355392e+3, 2.056784e+2, -983980.7, -1101561.1, -23157.842, -0.00058169436, 0.005696304, -979584.06, -55231.92 
1.2354807e+3, 2.1566528e+2, -906354.4, -1013350.25, -23188.943, -0.00090866454, 0.004502587, -901544.9, -75064.19 
1.2354225e+3, 2.2565216e+2, -829441.3, -925794.8, -22023.658, -0.00084685587, 0.0046403557, -824646.0, -96036.64 
1.2353644e+3, 2.3563902e+2, -752535.4, -837801.3, -21857.803, -0.00047408574, 0.003749206, -747258.7, -116520.67 
1.2353065e+3, 2.4562588e+2, -675363.9, -750184.0, -19529.848, -0.0014106738, 0.0047372407, -670572.9, -137706.13 
1.23524904e+3, 2.5561276e+2, -597200.8, -661429.8, -19506.25, -0.0033834542, 0.0054981364, -591740.94, -156745.55 
1.23519175e+3, 2.655996e+2, -520441.25, -574103.5, -17064.684, -0.0027008161, 0.0060464847, -515474.38, -178350.05 
1.235135e+3, 2.7558646e+2, -443710.66, -485855.78, -16905.348, 0.000039147628, 0.0045820265, -437767.6, -198514.45 
1.23507865e+3, 2.855733e+2, -366764.84, -397959.6, -12994.193, -0.00062057155, 0.004126346, -362061.3, -220679.3 
1.2350227e+3, 2.955602e+2, -288935.13, -309073.34, -12778.582, -0.0037921793, 0.0022877338, -282735.28, -239224.88 
1.2349674e+3, 3.055505e+2, -213660.48, -172766.98, -8657.961, -0.0038885453, 0.005289342, -171009.47, -171009.47 
1.2349126e+3, 3.1554422e+2, -234979.92, -182453.61, -8035.558, -0.001748935, 0.010619395, -181251.81, -181251.81 
1.23485826e+3, 3.2554296e+2, -182547.03, -41298.688, -4885.8335, -0.0031449841, 0.0013011948, -41129.887, -41129.887 
1.2465406e+3, 3.5955256e+1, -2287311.8, -2591878.0, 2071.2346, 0.0016108322, 0.0034216314, -2287297.8, 300341.4 
1.2464849e+3, 4.5941982e+1, -2207566.5, -2502378.5, -946.06067, 0.0072810333, 0.008704225, -2207563.5, 282205.7 
1.2464285e+3, 5.592866e+1, -2134797.8, -2417035.0, -1493.7836, 0.0018468745, 0.0045733475, -2134789.8, 257109.95 
1.2463716e+3, 6.591542e+1, -2058785.5, -2328584.5, -6147.5366, 0.00072450226, 0.004124766, -2058645.4, 235383.98 
1.2463142e+3, 7.5902253e+1, -1981886.0, -2241027.5, -6429.2314, 0.0025763176, 0.0048045595, -1981726.6, 214431.86 
1.2462562e+3, 8.588911e+1, -1904954.1, -2152768.5, -9920.186, 0.0027993266, 0.005698022, -1904557.6, 193729.53 
1.2461979e+3, 9.587599e+1, -1828703.8, -2065427.9, -10150.119, 0.0018373694, 0.005045341, -1828269.3, 172146.5 
1.24613926e+3, 1.0586291e+2, -1751981.0, -1977481.8, -13031.23, 0.0015017214, 0.0056620897, -1751230.5, 151313.56 
1.2460802e+3, 1.1584983e+2, -1675298.6, -1889899.1, -13273.3125, 0.0016176914, 0.0054849745, -1674480.9, 130191.35 
1.2460209e+3, 1.2583676e+2, -1598819.4, -1802503.8, -15383.911, 0.00139866, 0.005317195, -1597664.0, 109136.31 
1.2459614e+3, 1.3582367e+2, -1522414.0, -1715021.8, -15604.109, 0.00096222205, 0.0035083224, -1521158.0, 87770.445 
1.2459017e+3, 1.458106e+2, -1445712.0, -1627416.9, -17103.922, 0.00041879524, 0.004296087, -1444116.0, 66940.48 
1.2458418e+3, 1.5579756e+2, -1368617.6, -1539556.3, -17126.053, -0.00014393053, 0.00518004, -1366918.6, 46265.81 
1.24578185e+3, 1.657845e+2, -1291690.9, -1452035.1, -17876.783, -0.00016543946, 0.0058603636, -1289721.9, 25590.553 
1.2457218e+3, 1.7577142e+2, -1214518.5, -1364052.4, -17952.846, 0.00025801922, 0.004501952, -1212393.4, 5047.315 
1.24566175e+3, 1.8575834e+2, -1137810.1, -1276837.5, -17971.574, 0.00019206354, 0.005138763, -1135524.6, -15955.696 
1.2456017e+3, 1.9574524e+2, -1060810.9, -1188966.4, -17969.02, -0.00018346075, 0.0055319555, -1058339.0, -36641.844 
1.2455417e+3, 2.0573214e+2, -984285.25, -1101513.0, -17331.584, -0.00072405726, 0.005992716, -981776.56, -57950.883 
1.2454818e+3, 2.1571901e+2, -907711.7, -1013799.75, -17315.217, -0.0013951532, 0.0047068293, -904957.1, -79002.86 
1.24542214e+3, 2.2570589e+2, -830545.56, -925932.4, -16146.842, -0.0010740269, 0.004993967, -827886.44, -99803.61 
1.2453625e+3, 2.3569278e+2, -752705.4, -837463.25, -16102.884, 0.000030709456, 0.0045189317, -749749.2, -119537.95 
1.2453034e+3, 2.4567966e+2, -676439.3, -750390.7, -13948.864, -0.0010065028, 0.0054374924, -673895.75, -141555.94 
1.2452444e+3, 2.5566655e+2, -600584.8, -662726.2, -13881.009, -0.0037410236, 0.005711657, -597625.06, -163156.75 
1.24518566e+3, 2.656534e+2, -523850.44, -575051.1, -11291.757, -0.003073201, 0.005950244, -521470.78, -184873.8 
1.2451275e+3, 2.756403e+2, -445766.72, -486150.72, -11045.056, 0.00031657369, 0.0043254388, -442943.28, -204217.92 
1.2450696e+3, 2.8562722e+2, -369463.06, -398531.56, -7313.7554, -0.000319824, 0.004668697, -367726.63, -226872.97 
1.2450122e+3, 2.9561418e+2, -293891.25, -310738.38, -7127.509, -0.004182695, 0.0044547874, -291280.44, -248299.0 
1.2449554e+3, 3.0560452e+2, -219180.64, -174389.75, -3257.178, -0.004320244, 0.0057915854, -174154.13, -174154.13 
1.2448992e+3, 3.1559828e+2, -240085.52, -183892.86, -3202.3472, -0.0013804277, 0.006835107, -183710.95, -183710.95 
1.2448434e+3, 3.255972e+2, -187434.1, -42629.395, 901.20703, -0.0030419934, 0.0041456986, -42623.785, -42623.785 
1.2565681e+3, 3.601118e+1, -2287556.5, -2592619.5, -74.653755, 0.00043271753, 0.0040537147, -2287556.5, 299534.53 
1.2565109e+3, 4.5997784e+1, -2209094.0, -2504464.8, -6545.842, 0.0073197065, 0.0069252257, -2208949.0, 280273.3 
1.256453e+3, 5.5984354e+1, -2135473.8, -2418646.3, -6971.796, 0.0024551826, 0.004469944, -2135302.3, 256051.78 
1.2563944e+3, 6.597104e+1, -2058851.3, -2329330.8, -10685.422, 0.0010932996, 0.004914265, -2058429.8, 235054.56 
1.2563355e+3, 7.595781e+1, -1982182.6, -2241902.5, -11027.105, 0.0021671401, 0.005845329, -1981715.3, 213898.73 
1.2562762e+3, 8.5944617e+1, -1905295.5, -2153527.0, -14717.879, 0.0025595452, 0.006370564, -1904425.9, 193317.48 
1.2562165e+3, 9.5931435e+1, -1829058.9, -2066203.1, -14971.743, 0.0024028653, 0.0049553127, -1828117.4, 171755.13 
1.2561563e+3, 1.0591828e+2, -1752409.6, -1978345.8, -17777.635, 0.0017343456, 0.0050208764, -1751019.4, 150982.02 
1.2560958e+3, 1.1590515e+2, -1675711.6, -1890747.4, -18044.7, 0.00074740197, 0.0044703274, -1674207.9, 129922.234 
1.256035e+3, 1.2589203e+2, -1599158.4, -1803243.8, -20234.266, 0.0009524583, 0.0052070515, -1597171.6, 109087.07 
1.255974e+3, 1.358789e+2, -1522670.5, -1715672.5, -20448.758, 0.0019940932, 0.0051075947, -1520527.8, 87859.5 
1.2559128e+3, 1.4586583e+2, -1445626.3, -1627451.3, -21836.854, 0.0013086415, 0.005890814, -1443040.5, 67475.02 
1.2558514e+3, 1.5585275e+2, -1368567.1, -1539602.9, -21900.555, -0.0006183604, 0.005528995, -1365807.4, 46836.24 
1.25579e+3, 1.6583967e+2, -1291797.9, -1452330.1, -22668.303, -0.00077300717, 0.006011497, -1288658.3, 26113.479 
1.2557286e+3, 1.7582656e+2, -1214618.1, -1364314.5, -22772.879, 0.00042057707, 0.0051729, -1211230.5, 5669.692 
1.255667e+3, 1.8581347e+2, -1137735.6, -1276775.3, -22874.814, 0.00046030688, 0.005249993, -1134068.9, -15040.462 
1.2556055e+3, 1.9580036e+2, -1060730.5, -1188910.3, -22905.361, -0.00026380803, 0.004391102, -1056760.3, -35603.445 
1.2555441e+3, 2.0578727e+2, -984165.7, -1101387.1, -22396.58, -0.00088798936, 0.005051043, -980032.3, -56747.07 
1.2554829e+3, 2.1577416e+2, -907544.5, -1013652.94, -22382.627, -0.0014028453, 0.004911207, -903016.3, -77602.625 
1.2554218e+3, 2.2576107e+2, -830397.2, -925733.0, -20954.77, -0.0013608348, 0.006113921, -825994.6, -98452.6 
1.2553608e+3, 2.35748e+2, -752618.6, -837316.6, -20976.182, -0.00095762865, 0.0064471443, -747708.4, -118038.04 
1.2553e+3, 2.4573487e+2, -676266.75, -750062.5, -19361.184, -0.000903695, 0.006359135, -671495.56, -139696.75 
1.2552397e+3, 2.5572175e+2, -600325.25, -662326.06, -19273.94, -0.0011206709, 0.0041892524, -594822.06, -160894.7 
1.2551795e+3, 2.6570868e+2, -523327.22, -574075.9, -16216.439, -0.0018071883, 0.004601908, -518587.94, -182532.38 
1.2551197e+3, 2.7569565e+2, -445294.56, -485235.78, -16040.412, -0.002756653, 0.00520539, -439650.34, -201467.2 
1.2550604e+3, 2.8568265e+2, -369083.75, -397794.22, -12976.738, -0.0028545684, 0.007250936, -364087.78, -223777.03 
1.2550016e+3, 2.9566965e+2, -293538.6, -310049.4, -12775.222, -0.0024813798, 0.008329496, -286583.53, -244145.63 
1.2549433e+3, 3.0565998e+2, -219080.61, -174272.84, -8507.988, -0.0022271276, 0.005567437, -172711.77, -172711.77 
1.2548855e+3, 3.1565365e+2, -239823.84, -183444.72, -8482.618, -0.0017535709, -0.0017040819, -182196.1, -182196.1 
1.2548281e+3, 3.2565293e+2, -184670.67, -36887.094, -4417.1914, -0.0047278046, 0.010284847, -36755.184, -36755.184 
1.2665959e+3, 3.606882e+1, -2278739.8, -2589030.0, 4244.207, 0.0032435975, 0.005565357, -2278681.8, 307844.47 
1.266537e+3, 4.6055326e+1, -2206036.8, -2503458.3, -1289.7252, 0.0023947707, 0.005334846, -2206031.3, 282627.25 
1.2664776e+3, 5.604185e+1, -2128357.3, -2415678.0, -1416.1025, 0.003480189, 0.0052615516, -2128350.3, 262440.28 
1.2664177e+3, 6.6028464e+1, -2051350.5, -2326372.3, -5124.7744, 0.0032018502, 0.0060371356, -2051255.0, 241666.66 
1.2663572e+3, 7.601514e+1, -1976582.1, -2239891.8, -5550.1953, 0.0020261414, 0.00591587, -1976465.3, 218587.0 
1.2662962e+3, 8.600186e+1, -1900689.0, -2151787.0, -9226.924, 0.0019189329, 0.006131739, -1900350.4, 196831.95 
1.266235e+3, 9.598862e+1, -1825014.0, -2064698.5, -9508.651, 0.0024668816, 0.0049252682, -1824637.4, 174674.77 
1.2661733e+3, 1.0597541e+2, -1748723.9, -1976950.0, -12166.349, 0.0019771913, 0.00524445, -1748077.1, 153364.38 
1.2661114e+3, 1.1596223e+2, -1672456.1, -1889507.4, -12353.031, 0.0007880888, 0.005028877, -1671755.4, 131815.36 
1.2660491e+3, 1.2594907e+2, -1595899.9, -1801747.3, -14386.429, 0.00078673114, 0.0059778052, -1594899.3, 110800.445 
1.2659867e+3, 1.3593593e+2, -1519397.6, -1714170.8, -14395.579, 0.0016593061, 0.0059918556, -1518339.4, 89489.125 
1.2659241e+3, 1.4592281e+2, -1442839.5, -1626320.5, -15744.957, 0.0013279984, 0.006417623, -1441498.3, 68458.91 
1.2658614e+3, 1.5590969e+2, -1366437.8, -1538774.4, -15975.5, 0.000103572944, 0.0053698206, -1364969.4, 47116.363 
1.2657985e+3, 1.6589658e+2, -1290232.8, -1451628.1, -16769.764, -0.00028988565, 0.0058317226, -1288508.6, 25705.516 
1.2657355e+3, 1.7588346e+2, -1213699.8, -1363911.3, -16839.395, 0.00004874441, 0.0055024824, -1211835.1, 4507.5645 
1.2656726e+3, 1.8587035e+2, -1137224.1, -1276323.4, -16925.809, -0.000021313916, 0.0056678117, -1135194.1, -16722.969 
1.2656096e+3, 1.9585724e+2, -1060614.3, -1188673.9, -16944.775, -0.00033664325, 0.004568775, -1058410.1, -37810.453 
1.2655467e+3, 2.0584413e+2, -983944.94, -1101103.9, -16420.895, -0.0006656266, 0.00527588, -981686.94, -58958.86 
1.265484e+3, 2.1583103e+2, -906897.56, -1013130.6, -16409.656, -0.0009398665, 0.0054051946, -904420.56, -79564.06 
1.2654214e+3, 2.2581793e+2, -830738.1, -925627.06, -15029.819, -0.0012119565, 0.0064051994, -828414.4, -101429.555 
1.2653589e+3, 2.3580484e+2, -755098.0, -838251.56, -15007.085, -0.0015500962, 0.0062171486, -752472.5, -123359.37 
1.2652968e+3, 2.4579175e+2, -678546.7, -750702.25, -13306.843, -0.0012843767, 0.00628347, -676170.9, -144929.39 
1.2652348e+3, 2.5577867e+2, -600881.06, -662120.06, -13144.868, -0.00050417206, 0.00475173, -598178.8, -164809.08 
1.2651733e+3, 2.657656e+2, -524726.7, -574215.8, -10236.433, -0.0013898107, 0.0052476213, -522692.94, -187195.34 
1.265112e+3, 2.7575263e+2, -449558.38, -486755.78, -10216.405, -0.0035095692, 0.005541842, -446937.13, -209312.22 
1.2650512e+3, 2.8573966e+2, -373408.03, -399066.9, -7198.8213, -0.003377281, 0.00739151, -371526.34, -231774.25 
1.2649907e+3, 2.9572672e+2, -296108.28, -310507.44, -6863.2754, -0.0016752365, 0.0083522005, -293361.1, -251482.38 
1.264931e+3, 3.0571708e+2, -222549.53, -175598.9, -2585.7485, -0.0015814061, 0.0058537615, -175456.94, -175456.94 
1.2648715e+3, 3.1571075e+2, -245541.63, -185666.8, -2461.7356, -0.0023217394, -0.0010557016, -185565.75, -185565.75 
1.2648128e+3, 3.257102e+2, -190691.34, -36630.996, 1076.1466, -0.0052322065, 0.010816138, -36623.48, -36623.48 
1.2766239e+3, 3.612781e+1, -2279539.0, -2590182.0, -2944.6797, 0.007661643, 0.007541081, -2279511.0, 306437.03 
1.2765631e+3, 4.6114227e+1, -2205729.5, -2503604.3, -5525.01, -0.005115356, 0.003967918, -2205627.0, 282454.25 
1.2765025e+3, 5.6100756e+1, -2128608.5, -2416182.8, -5839.07, 0.0047316323, 0.0066004493, -2128490.0, 261723.22 
1.2764409e+3, 6.6087294e+1, -2052179.5, -2327840.3, -10237.774, 0.0061860653, 0.007374258, -2051799.8, 240545.36 
1.276379e+3, 7.607386e+1, -1977292.9, -2241275.5, -10639.846, 0.0019878042, 0.0054151444, -1976864.8, 217612.05 
1.2763165e+3, 8.60605e+1, -1901130.6, -2152742.5, -14117.943, 0.001020662, 0.0053914003, -1900341.0, 196266.73 
1.2762538e+3, 9.604719e+1, -1825349.0, -2065594.6, -14406.547, 0.0021685928, 0.004978168, -1824488.3, 174249.9 
1.2761906e+3, 1.0603394e+2, -1748876.0, -1977476.6, -16970.93, 0.0021959117, 0.006083049, -1747623.0, 153244.97 
1.2761272e+3, 1.1602073e+2, -1672641.8, -1890003.1, -17182.451, 0.0013837739, 0.006656265, -1671291.9, 131705.6 
1.2760635e+3, 1.2600756e+2, -1595872.6, -1801756.3, -19212.97, 0.00076517917, 0.0073587485, -1594095.0, 111031.555 
1.2759995e+3, 1.359944e+2, -1519422.8, -1714240.3, -19277.488, 0.00032581438, 0.006381784, -1517533.6, 89721.945 
1.2759355e+3, 1.4598124e+2, -1443240.0, -1627170.3, -20679.254, 0.0007007911, 0.0062356186, -1440943.6, 68440.84 
1.2758712e+3, 1.5596806e+2, -1366773.6, -1539546.3, -20916.613, 0.001663184, 0.0049030096, -1364277.4, 47236.277 
1.2758067e+3, 1.6595492e+2, -1290273.8, -1451852.8, -21719.518, 0.0009345142, 0.0054794145, -1287405.1, 26237.398 
1.2757425e+3, 1.7594177e+2, -1213724.6, -1364104.9, -21812.092, -0.00079654355, 0.0056293486, -1210624.8, 5146.4297 
1.275678e+3, 1.8592867e+2, -1137143.0, -1276286.9, -21907.58, -0.0011244682, 0.006401111, -1133775.3, -15875.608 
1.2756135e+3, 1.9591556e+2, -1060525.3, -1188630.4, -21950.557, -0.0004402573, 0.0058460934, -1056868.5, -36840.395 
1.2755492e+3, 2.0590247e+2, -983868.94, -1101069.3, -21354.205, -0.00015909306, 0.006477131, -980099.4, -57942.91 
1.275485e+3, 2.1588936e+2, -906841.44, -1013100.9, -21401.14, -0.00016544864, 0.0061756694, -902693.06, -78408.14 
1.275421e+3, 2.2587626e+2, -830589.7, -925366.5, -20408.64, -0.0007784591, 0.0060426807, -826381.9, -99968.57 
1.275357e+3, 2.3586316e+2, -754867.2, -837952.6, -20374.15, -0.0018979118, 0.0041261334, -750140.0, -121598.42 
1.2752934e+3, 2.4585012e+2, -678169.25, -750090.06, -18256.42, -0.0021823824, 0.005394488, -673800.44, -143130.9 
1.2752299e+3, 2.5583708e+2, -600571.1, -661570.9, -18177.4, -0.0018070841, 0.0073007005, -595565.25, -162768.14 
1.2751667e+3, 2.6582408e+2, -524580.6, -573974.75, -15927.839, -0.0018201252, 0.0077729477, -519889.9, -184965.16 
1.275104e+3, 2.7581108e+2, -449356.88, -486427.8, -15882.552, -0.0020988248, 0.0053578746, -443482.94, -206430.78 
1.2750417e+3, 2.8579813e+2, -372792.63, -397909.28, -12400.667, -0.002063693, 0.0051235138, -367701.94, -228522.9 
1.2749797e+3, 2.9578525e+2, -295528.53, -309404.53, -12130.58, -0.0019008884, 0.0045005735, -288492.03, -247186.97 
1.2749183e+3, 3.057757e+2, -222234.92, -175072.84, -8465.664, -0.002494144, 0.0068630665, -173599.3, -173599.3 
1.2748574e+3, 3.1576952e+2, -245191.5, -185036.58, -8334.977, -0.0031916029, 0.009434956, -183903.06, -183903.06 
1.274797e+3, 3.257689e+2, -189703.16, -34530.27, -4745.185, -0.0046354085, 0.0046569714, -34385.297, -34385.297 
1.286652e+3, 3.6188737e+1, -2273282.5, -2588602.5, 2766.056, 0.004798463, 0.0076301517, -2273258.3, 312092.8 
1.2865898e+3, 4.6175027e+1, -2196815.3, -2500377.8, 303.45526, 0.00046595928, 0.0042398167, -2196815.0, 290670.4 
1.2865275e+3, 5.616143e+1, -2122986.3, -2414451.3, -448.4964, 0.0034602545, 0.006424297, -2122985.5, 266633.13 
1.2864645e+3, 6.614789e+1, -2047527.0, -2326016.5, -4951.0728, 0.003892389, 0.0072109853, -2047439.0, 244312.36 
1.2864009e+3, 7.613439e+1, -1972588.4, -2239363.0, -5117.259, 0.0022982894, 0.0055653043, -1972490.3, 221393.38 
1.286337e+3, 8.612098e+1, -1896279.3, -2150836.5, -8249.621, 0.0017193556, 0.0058807177, -1896012.3, 200002.83 
1.2862727e+3, 9.6107614e+1, -1820386.0, -2063607.8, -8462.928, 0.0018579246, 0.005890838, -1820092.0, 178054.08 
1.286208e+3, 1.06094316e+2, -1744384.1, -1975501.4, -11015.257, 0.0019640366, 0.0067012967, -1743860.3, 156416.11 
1.286143e+3, 1.1608104e+2, -1669047.3, -1888470.4, -11208.251, 0.001957959, 0.0065108594, -1668476.1, 133930.34 
1.286078e+3, 1.2606782e+2, -1592977.8, -1800563.0, -13247.136, 0.0012349206, 0.0069396035, -1592135.9, 112400.26 
1.2860124e+3, 1.360546e+2, -1517139.1, -1713292.8, -13504.532, 0.00008765382, 0.006037374, -1516213.8, 90451.67 
1.2859468e+3, 1.4604142e+2, -1441145.8, -1626230.0, -14792.108, 0.0003423315, 0.006265084, -1439971.0, 68823.73 
1.2858811e+3, 1.5602821e+2, -1364757.0, -1538628.3, -14796.955, 0.0016496554, 0.0055289995, -1363506.8, 47417.332 
1.2858152e+3, 1.6601506e+2, -1288402.8, -1450878.1, -15477.467, 0.0011561945, 0.006157954, -1286941.5, 26111.623 
1.2857494e+3, 1.760019e+2, -1212201.4, -1363320.1, -15494.858, -0.00046197438, 0.006017843, -1210629.0, 4552.968 
1.2856835e+3, 1.8598878e+2, -1135987.5, -1275722.3, -15571.68, -0.00092013937, 0.006697722, -1134273.3, -16962.654 
1.2856175e+3, 1.9597565e+2, -1059675.8, -1188168.6, -15667.053, -0.00051505014, 0.0061689857, -1057793.1, -38353.883 
1.2855518e+3, 2.0596254e+2, -983735.2, -1100748.3, -15072.947, -0.00028658414, 0.0067298273, -981824.75, -60257.043 
1.285486e+3, 2.1594943e+2, -907985.44, -1013409.44, -15041.973, -0.00020822593, 0.0063455356, -905881.2, -82185.08 
1.2854204e+3, 2.2593634e+2, -831552.56, -925690.06, -14073.869, -0.0007433195, 0.006417739, -829493.5, -103669.03 
1.285355e+3, 2.3592325e+2, -754600.0, -837610.4, -14079.338, -0.0017192845, 0.004824247, -752277.0, -124324.234 
1.2852898e+3, 2.459102e+2, -678694.6, -749838.2, -12021.674, -0.0021101986, 0.005782308, -676718.1, -146637.53 
1.285225e+3, 2.5589722e+2, -603571.25, -662536.9, -11975.429, -0.002090397, 0.007080971, -601231.94, -169024.0 
1.2851603e+3, 2.6588422e+2, -527696.5, -575046.4, -9768.792, -0.0019426538, 0.0077830898, -525760.25, -191424.9 
1.285096e+3, 2.7587125e+2, -450884.56, -486708.97, -9587.755, -0.0016337046, 0.006080663, -448479.97, -212017.47 
1.285032e+3, 2.858583e+2, -374887.34, -398282.88, -6153.139, -0.0017720959, 0.005376258, -373367.72, -234778.64 
1.2849686e+3, 2.9584548e+2, -299973.13, -310896.22, -6107.208, -0.0023733121, 0.0035011633, -297241.6, -256526.75 
1.2849058e+3, 3.05836e+2, -227020.19, -176374.14, -2570.8599, -0.0030244612, 0.007274948, -176243.97, -176243.97 
1.2848432e+3, 3.1582993e+2, -249169.4, -185993.22, -2128.4004, -0.003081544, 0.013119158, -185921.61, -185921.61 
1.2847811e+3, 3.258293e+2, -193642.42, -36074.36, 951.05743, -0.003917447, 0.0024286637, -36068.617, -36068.617 
1.2966804e+3, 3.6251134e+1, -2274549.0, -2590954.5, -1681.979, -0.0011478437, 0.006989136, -2274540.3, 310199.38 
1.296617e+3, 4.6237278e+1, -2197981.3, -2502718.8, -5043.4873, 0.012801884, 0.0054122685, -2197897.8, 288977.47 
1.2965527e+3, 5.62235e+1, -2124087.5, -2416616.0, -5684.1836, 0.0005970384, 0.0054015517, -2123977.0, 265033.34 
1.2964882e+3, 6.6209877e+1, -2047801.1, -2326559.8, -9921.11, -0.0013623589, 0.006262204, -2047448.4, 243695.47 
1.2964231e+3, 7.619636e+1, -1972708.1, -2239835.0, -10124.793, 0.0028239351, 0.006150406, -1972325.0, 220951.44 
1.2963575e+3, 8.6182904e+1, -1896604.5, -2151493.3, -13085.983, 0.0033136522, 0.007146049, -1895934.4, 199473.81 
1.2962918e+3, 9.6169496e+1, -1820828.5, -2064312.9, -13350.2705, 0.001481479, 0.0073283105, -1820098.6, 177440.97 
1.2962256e+3, 1.0615613e+2, -1744749.1, -1976195.4, -16069.282, 0.0014150023, 0.007197024, -1743638.8, 156031.81 
1.296159e+3, 1.161428e+2, -1669323.4, -1889137.0, -16276.538, 0.002469342, 0.0052398476, -1668124.8, 133676.47 
1.2960923e+3, 1.2612952e+2, -1593346.6, -1801456.5, -18210.654, 0.002001272, 0.0053968825, -1591765.1, 112166.21 
1.2960254e+3, 1.3611627e+2, -1517402.5, -1714075.8, -18474.516, 0.00053927035, 0.0052689, -1515682.1, 90379.164 
1.2959583e+3, 1.4610305e+2, -1441011.5, -1626157.9, -19693.223, 0.00009947551, 0.0065374803, -1438939.9, 69250.73 
1.2958911e+3, 1.5608987e+2, -1364684.0, -1538587.6, -19749.244, 0.0004423905, 0.0069994912, -1362469.4, 47850.566 
1.2958238e+3, 1.660767e+2, -1288410.6, -1450900.9, -20507.557, 0.0006102064, 0.0076370817, -1285862.4, 26586.549 
1.2957564e+3, 1.7606355e+2, -1212172.3, -1363369.0, -20565.863, 0.0007208509, 0.0066424585, -1209424.8, 5153.0933 
1.2956889e+3, 1.860504e+2, -1136088.8, -1276063.1, -20648.855, 0.00020892317, 0.0067105563, -1133106.1, -16399.438 
1.2956215e+3, 1.9603725e+2, -1059754.9, -1188439.1, -20774.12, -0.00065879454, 0.0058076065, -1056484.4, -37648.75 
1.2955542e+3, 2.0602414e+2, -983528.2, -1100446.1, -20351.693, -0.0009957574, 0.006329996, -980086.94, -59122.824 
1.295487e+3, 2.1601105e+2, -907759.5, -1013141.06, -20329.164, -0.0009913872, 0.0060747433, -903973.75, -80881.414 
1.29542e+3, 2.2599797e+2, -831497.56, -925712.6, -19122.348, -0.0010697755, 0.00748805, -827764.3, -102543.77 
1.295353e+3, 2.3598489e+2, -754558.7, -837603.4, -19199.834, -0.0011686975, 0.008015969, -750334.56, -122985.88 
1.2952864e+3, 2.4597184e+2, -678442.75, -749414.06, -17640.354, -0.0012660272, 0.007310506, -674300.0, -144823.47 
1.2952198e+3, 2.5595883e+2, -603276.94, -662083.6, -17579.535, -0.0015488614, 0.0042986465, -598422.44, -166818.45 
1.2951536e+3, 2.6594588e+2, -527302.75, -574375.9, -15045.564, -0.0019205456, 0.005500216, -522904.75, -189173.73 
1.295088e+3, 2.75933e+2, -450516.72, -486069.78, -14928.572, -0.002189298, 0.007776432, -445079.72, -209222.36 
1.2950225e+3, 2.859201e+2, -374703.4, -398003.8, -11978.095, -0.0025527296, 0.008177583, -369644.25, -231660.66 
1.2949574e+3, 2.959073e+2, -299740.53, -310488.9, -11936.512, -0.0032112738, 0.005391753, -292024.2, -251914.9 
1.2948929e+3, 3.0589786e+2, -226104.45, -174595.02, -8237.685, -0.00327405, 0.0069553643, -173309.67, -173309.67 
1.2948288e+3, 3.1589186e+2, -248375.17, -184486.52, -7800.7314, -0.002024371, 0.009486466, -183547.84, -183547.84 
1.2947652e+3, 3.2589126e+2, -194387.53, -37664.87, -4907.81, -0.003394037, 0.0049691806, -37511.332, -37511.332 
1.306709e+3, 3.63152e+1, -2267753.8, -2588604.0, 3738.5332, 0.0014510396, 0.0066875895, -2267710.3, 316401.44 
1.3066441e+3, 4.6301278e+1, -2191189.0, -2499633.0, -365.86835, 0.009062568, 0.0058428296, -2191188.8, 295059.5 
1.3065782e+3, 5.6287456e+1, -2118388.8, -2414036.5, -329.6791, 0.00088775135, 0.006143288, -2118388.5, 269995.2 
1.3065119e+3, 6.627377e+1, -2042462.8, -2324486.3, -3930.8923, -0.00010279125, 0.0068918425, -2042407.9, 248109.81 
1.3064453e+3, 7.626018e+1, -1967148.9, -2237600.0, -4291.053, 0.0031678274, 0.006488702, -1967080.9, 225570.13 
1.3063782e+3, 8.6246663e+1, -1891675.5, -2149428.0, -7335.4063, 0.0033148632, 0.00714234, -1891467.0, 203316.4 
1.3063109e+3, 9.62332e+1, -1817299.4, -2062895.0, -7545.4746, 0.0015112233, 0.006992027, -1817067.9, 179847.5 
1.3062431e+3, 1.062198e+2, -1741621.0, -1974869.6, -10081.964, 0.0012528114, 0.0070785764, -1741186.1, 157860.58 
1.3061751e+3, 1.1620642e+2, -1665952.9, -1887699.4, -10232.2295, 0.0019901278, 0.005640706, -1665481.6, 135696.05 
1.3061069e+3, 1.261931e+2, -1589984.3, -1800003.4, -11961.536, 0.0019159871, 0.0059886896, -1589305.1, 114003.12 
1.3060385e+3, 1.361798e+2, -1514143.9, -1712611.8, -12059.573, 0.0013167948, 0.005921417, -1513413.9, 92024.78 
1.3059698e+3, 1.4616656e+2, -1438274.5, -1624740.8, -13274.651, 0.0006187945, 0.006914865, -1437334.1, 70234.14 
1.3059011e+3, 1.5615335e+2, -1363018.8, -1537669.9, -13370.162, -0.00001814363, 0.0069113555, -1362001.1, 47696.668 
1.3058323e+3, 1.6614017e+2, -1287184.8, -1450322.5, -14080.628, 0.00010151702, 0.007491002, -1285978.4, 25848.65 
1.3057634e+3, 1.7612699e+2, -1210937.4, -1362730.6, -14206.405, 0.00075073, 0.0066389963, -1209619.1, 4337.009 
1.3056944e+3, 1.8611383e+2, -1135100.0, -1275453.1, -14284.184, 0.00048538198, 0.0068867123, -1133661.0, -17575.83 
1.3056256e+3, 1.9610067e+2, -1059378.9, -1188128.3, -14261.832, -0.00031290157, 0.006291107, -1057818.0, -39603.875 
1.3055567e+3, 2.0608754e+2, -983234.75, -1100224.8, -13861.501, -0.00090785424, 0.0066938917, -981614.8, -61272.07 
1.3054879e+3, 2.1607444e+2, -907106.0, -1012677.9, -13956.299, -0.0013813142, 0.0060140328, -905292.2, -82821.02 
1.3054195e+3, 2.2606136e+2, -831511.1, -925323.44, -12682.839, -0.0013280907, 0.0073896134, -829826.7, -105227.38 
1.305351e+3, 2.3604831e+2, -756249.8, -838063.7, -12578.306, -0.0008643526, 0.008223332, -754359.7, -127632.38 
1.3052827e+3, 2.4603526e+2, -680259.0, -750087.4, -11101.148, -0.0009787037, 0.007786666, -678536.6, -149681.61 
1.3052148e+3, 2.5602224e+2, -604029.9, -662189.3, -11130.035, -0.0016003663, 0.0048849443, -601972.7, -170990.14 
1.305147e+3, 2.660093e+2, -528448.56, -574344.2, -8615.152, -0.0020086453, 0.005723246, -526884.7, -193775.34 
1.3050796e+3, 2.7599645e+2, -453376.44, -486882.1, -8522.062, -0.002159821, 0.0074858167, -451333.47, -216098.03 
1.3050126e+3, 2.8598362e+2, -378052.3, -399062.1, -5660.67, -0.0025185302, 0.008528402, -376624.22, -239262.94 
1.304946e+3, 2.9597083e+2, -302627.2, -311329.9, -5453.035, -0.003255638, 0.007080871, -300002.16, -260515.6 
1.30488e+3, 3.0596143e+2, -229275.42, -175435.19, -2018.3042, -0.0033955288, 0.0069245812, -175359.63, -175359.63 
1.3048142e+3, 3.1595543e+2, -252409.7, -185673.63, -2148.5159, -0.002080501, 0.005793259, -185604.53, -185604.53 
1.304749e+3, 3.2595497e+2, -199097.14, -38553.05, 1206.5956, -0.0026534807, 0.0074423533, -38543.984, -38543.984 
1.3167381e+3, 3.6380595e+1, -2268084.0, -2589475.8, -213.0261, 0.0074464544, 0.0065797498, -2268083.8, 315387.03 
1.3166712e+3, 4.6366662e+1, -2191594.5, -2499498.8, -5710.858, -0.0030605176, 0.0060593584, -2191488.5, 294118.94 
1.3166039e+3, 5.635288e+1, -2118262.3, -2413830.0, -5721.7627, 0.0030805785, 0.007871633, -2118151.5, 269591.03 
1.316536e+3, 6.633915e+1, -2042958.1, -2325650.5, -8807.707, 0.004689037, 0.008374739, -2042684.0, 247193.08 
1.3164678e+3, 7.632545e+1, -1967824.0, -2238789.5, -9225.529, 0.0032706868, 0.0066918205, -1967510.3, 224500.95 
1.3163993e+3, 8.631188e+1, -1892090.6, -2150057.8, -12501.425, 0.0023526046, 0.0064389934, -1891486.3, 202658.08 
1.3163301e+3, 9.629836e+1, -1817534.5, -2063453.5, -12712.467, 0.001758244, 0.005601231, -1816879.0, 179397.69 
1.316261e+3, 1.0628493e+2, -1741780.0, -1975311.9, -15001.495, 0.0012691936, 0.006654257, -1740820.3, 157588.1 
1.3161914e+3, 1.1627155e+2, -1666128.9, -1888128.3, -15193.202, 0.0008130304, 0.0071666325, -1665093.9, 135445.75 
1.3161215e+3, 1.262582e+2, -1590094.5, -1800309.4, -16932.262, 0.0012569971, 0.008023921, -1588739.4, 113930.94 
1.3160516e+3, 1.3624488e+2, -1514311.0, -1712932.4, -17083.973, 0.0022564544, 0.0075560096, -1512852.3, 91948.65 
1.3159814e+3, 1.462316e+2, -1438404.1, -1625064.1, -18469.105, 0.0015983412, 0.0073955823, -1436594.3, 70336.68 
1.3159111e+3, 1.5621836e+2, -1363016.3, -1537945.4, -18582.943, 0.0000062351082, 0.005764574, -1361063.9, 47996.766 
1.3158408e+3, 1.6620515e+2, -1287280.6, -1450681.3, -19099.092, -0.00043765476, 0.0062704855, -1285077.9, 26112.275 
1.3157704e+3, 1.7619196e+2, -1211060.4, -1363058.4, -19261.264, -0.00014982853, 0.006288328, -1208657.6, 4662.0005 
1.3157001e+3, 1.8617879e+2, -1134966.0, -1275257.8, -19512.408, 0.00006760255, 0.0073115407, -1132302.8, -16854.188 
1.3156296e+3, 1.9616565e+2, -1059234.3, -1187976.8, -19519.623, 0.00038248522, 0.00748178, -1056339.8, -38762.434 
1.3155591e+3, 2.0615251e+2, -983335.25, -1100540.1, -19031.969, -0.00023195671, 0.007710542, -980322.25, -60616.176 
1.315489e+3, 2.1613938e+2, -907158.4, -1012872.2, -19171.86, -0.0015407607, 0.006169742, -903788.9, -81954.055 
1.3154188e+3, 2.2612631e+2, -831113.5, -924633.6, -18186.611, -0.0016025745, 0.006358222, -827701.3, -103738.43 
1.3153489e+3, 2.3611328e+2, -755863.56, -837437.3, -18094.5, -0.00088293804, 0.0058561447, -752030.06, -125939.54 
1.315279e+3, 2.4610028e+2, -680210.9, -750137.44, -16447.254, -0.0012671726, 0.007432947, -676535.56, -148317.58 
1.3152094e+3, 2.560873e+2, -603963.1, -662177.0, -16522.834, -0.0022830982, 0.0086690625, -599600.4, -169255.23 
1.3151403e+3, 2.6607436e+2, -528110.9, -573765.44, -14349.31, -0.0022980487, 0.008271514, -523975.47, -191503.58 
1.3150713e+3, 2.760615e+2, -453034.22, -486289.25, -14271.532, -0.0016335044, 0.0052404758, -447749.4, -213151.33 
1.3150027e+3, 2.860487e+2, -377581.22, -398211.56, -11378.102, -0.0017402024, 0.006521571, -372538.53, -235815.13 
1.3149345e+3, 2.96036e+2, -302226.13, -310597.47, -11195.111, -0.0026229133, 0.00861764, -294459.8, -255611.97 
1.3148667e+3, 3.0602658e+2, -229381.14, -175812.16, -7932.966, -0.0035254199, 0.007197218, -174662.06, -174662.06 
1.3147995e+3, 3.1602055e+2, -252270.1, -185528.19, -8089.8716, -0.0034708397, 0.0019504757, -184561.6, -184561.6 
1.3147326e+3, 3.2602036e+2, -196689.19, -33448.934, -4990.7456, -0.0019979202, 0.009829115, -33296.496, -33296.496 
1.3267674e+3, 3.6448088e+1, -2260150.5, -2586212.5, 4779.6035, 0.0067520314, 0.0055751842, -2260080.5, 322729.1 
1.3266987e+3, 4.643412e+1, -2187946.3, -2498378.5, 804.89984, -0.0029506017, 0.009234666, -2187944.3, 297002.25 
1.3266298e+3, 5.6420213e+1, -2112217.8, -2411466.5, 306.15454, 0.0036233827, 0.007229467, -2112217.5, 274865.16 
1.3265602e+3, 6.640641e+1, -2037109.3, -2323239.3, -2997.2417, 0.004837634, 0.0071355565, -2037077.9, 252140.06 
1.3264905e+3, 7.639266e+1, -1963654.1, -2237176.5, -3271.176, 0.002359243, 0.006670408, -1963615.0, 227737.61 
1.3264203e+3, 8.637903e+1, -1888097.9, -2148433.3, -6317.087, 0.0018109475, 0.0068874867, -1887944.8, 205541.5 
1.3263497e+3, 9.6365464e+1, -1813067.8, -2061533.9, -6501.8433, 0.0024876308, 0.0060762963, -1812897.8, 182721.38 
1.3262787e+3, 1.0635199e+2, -1737538.3, -1973455.8, -8676.167, 0.0020418451, 0.006978704, -1737219.6, 160531.58 
1.3262078e+3, 1.1633855e+2, -1662555.5, -1886563.5, -8859.882, 0.00084447704, 0.007351032, -1662205.6, 137677.33 
1.3261363e+3, 1.2632518e+2, -1587310.3, -1798876.6, -10555.976, 0.00088889955, 0.008063875, -1586784.9, 115229.125 
1.3260648e+3, 1.3631183e+2, -1512513.0, -1712008.4, -10633.528, 0.0017669487, 0.0074389474, -1511947.8, 92196.945 
1.3259931e+3, 1.4629854e+2, -1436671.1, -1624363.5, -11885.334, 0.0014855705, 0.0074798223, -1435921.5, 70353.555 
1.3259214e+3, 1.5628524e+2, -1360468.9, -1536779.0, -12074.044, 0.00055236794, 0.006213117, -1359645.9, 48759.41 
1.3258494e+3, 1.6627201e+2, -1284940.8, -1449485.3, -12602.4375, 0.000031491338, 0.0066565154, -1283981.1, 26553.895 
1.3257775e+3, 1.7625879e+2, -1209976.4, -1362409.8, -12597.719, -0.0001808855, 0.0064482675, -1208942.3, 3722.371 
1.3257055e+3, 1.8624562e+2, -1134159.8, -1274785.4, -12772.944, -0.00017112402, 0.0072981142, -1133009.0, -18215.354 
1.3256337e+3, 1.9623247e+2, -1058240.1, -1187374.8, -12830.335, 0.000086582324, 0.007307359, -1056977.6, -40055.05 
1.3255617e+3, 2.0621933e+2, -982778.3, -1100043.8, -12270.786, -0.00025892688, 0.00783411, -981508.06, -62456.703 
1.3254899e+3, 2.162062e+2, -907511.5, -1012821.1, -12212.668, -0.001074293, 0.006945826, -906113.75, -84933.71 
1.3254182e+3, 2.2619312e+2, -831651.56, -924715.56, -11370.678, -0.0013073283, 0.006859289, -830282.44, -106974.234 
1.3253467e+3, 2.3618007e+2, -755992.06, -837275.1, -11539.72, -0.0012042491, 0.0054928297, -754385.5, -128949.52 
1.3252755e+3, 2.4616708e+2, -680729.5, -749974.25, -9850.651, -0.001520729, 0.007055895, -679355.44, -151792.06 
1.3252042e+3, 2.5615412e+2, -605626.94, -662564.0, -9710.35, -0.0019557478, 0.008898174, -604016.44, -174326.11 
1.3251334e+3, 2.661412e+2, -530131.25, -574396.6, -7649.794, -0.0021250548, 0.008648565, -528846.5, -197029.56 
1.3250628e+3, 2.7612832e+2, -454778.06, -486740.47, -7670.7773, -0.0020765788, 0.005326863, -453032.47, -219089.42 
1.3249926e+3, 2.8611556e+2, -379553.9, -398400.7, -4892.988, -0.0018621101, 0.0063342657, -378359.3, -242291.2 
1.3249229e+3, 2.9610294e+2, -305138.56, -311280.75, -4705.126, -0.0018185928, 0.008226134, -302590.97, -264398.9 
1.3248535e+3, 3.0609354e+2, -233249.84, -177336.8, -1354.2677, -0.00300543, 0.0073690563, -177304.02, -177304.02 
1.3247846e+3, 3.160875e+2, -256546.14, -187045.97, -1214.1067, -0.0040407553, 0.0031863004, -187024.77, -187024.77 
1.3247159e+3, 3.2608742e+2, -199966.44, -32825.273, 978.501, -0.0019287502, 0.009144257, -32819.547, -32819.547 
1.3367969e+3, 3.6517143e+1, -2261417.0, -2587474.3, -3207.1584, 0.0031444984, 0.0045469278, -2261385.5, 320747.34 
1.3367264e+3, 4.6503127e+1, -2188296.5, -2499981.3, -3934.5364, 0.0035148994, 0.01378137, -2188246.8, 296023.3 
1.3366559e+3, 5.648903e+1, -2113143.3, -2413235.3, -4553.1636, 0.0031044954, 0.0052752416, -2113074.3, 273334.03 
1.3365848e+3, 6.647514e+1, -2037674.5, -2324066.5, -8365.783, 0.002374797, 0.004516767, -2037430.4, 251113.95 
1.3365133e+3, 7.646136e+1, -1963948.1, -2237877.3, -8609.935, 0.00087026577, 0.006588507, -1963677.8, 227001.56 
1.3364415e+3, 8.644771e+1, -1888405.6, -2148985.8, -11314.652, 0.0015030556, 0.008053767, -1887915.3, 204897.92 
1.3363694e+3, 9.6434104e+1, -1813414.5, -2062147.3, -11556.623, 0.003435451, 0.0076907002, -1812878.6, 182067.86 
1.336297e+3, 1.0642058e+2, -1737915.6, -1974040.1, -13785.989, 0.0032069995, 0.00778174, -1737113.5, 159965.63 
1.3362242e+3, 1.1640709e+2, -1662856.4, -1887069.3, -14010.293, 0.0016058943, 0.006701642, -1661984.4, 137226.9 
1.3361512e+3, 1.2639369e+2, -1587367.1, -1798987.3, -15784.659, 0.00066066347, 0.006870204, -1586196.3, 115146.336 
1.3360782e+3, 1.3638034e+2, -1512481.6, -1712145.4, -15869.938, 0.00024960702, 0.0062073553, -1511228.1, 92245.336 
1.3360049e+3, 1.4636701e+2, -1436870.8, -1625018.1, -16849.25, 0.00060655666, 0.0074038412, -1435373.8, 70230.19 
1.3359316e+3, 1.563537e+2, -1360745.8, -1537380.5, -17088.582, 0.0014196559, 0.007886514, -1359107.8, 48626.75 
1.3358581e+3, 1.6634046e+2, -1284884.9, -1449422.1, -17939.654, 0.0011633205, 0.008267119, -1282951.6, 26912.771 
1.3357846e+3, 1.7632723e+2, -1209823.0, -1362345.1, -17947.443, 0.00035630396, 0.007023424, -1207739.6, 4254.3833 
1.3357112e+3, 1.8631403e+2, -1134161.9, -1274876.0, -17933.785, -0.00037861575, 0.0070055304, -1131912.1, -17788.97 
1.3356377e+3, 1.9630086e+2, -1058234.4, -1187409.8, -18045.254, -0.0010874489, 0.0061346455, -1055760.9, -39508.59 
1.3355643e+3, 2.0628774e+2, -982521.44, -1099638.8, -17703.043, -0.0008985492, 0.0073880204, -979904.0, -61523.1 
1.3354908e+3, 2.1627465e+2, -907263.3, -1012507.06, -17669.89, -0.0001271069, 0.008308507, -904375.9, -83866.65 
1.3354176e+3, 2.2626157e+2, -831809.56, -925187.44, -16784.8, -0.00060529227, 0.00872155, -828884.1, -106246.68 
1.3353445e+3, 2.3624848e+2, -756088.6, -837592.9, -16984.426, -0.0019187103, 0.006928011, -752690.94, -127925.32 
1.3352716e+3, 2.4623549e+2, -680284.94, -749202.7, -15492.742, -0.0017978138, 0.006655665, -676962.4, -150069.39 
1.335199e+3, 2.5622258e+2, -605211.7, -661869.4, -15383.818, -0.00079861697, 0.0058591957, -601304.1, -172284.44 
1.3351265e+3, 2.6620966e+2, -530037.7, -574340.56, -13335.488, -0.0016785689, 0.007111227, -526333.3, -195187.36 
1.3350543e+3, 2.7619684e+2, -454634.28, -486580.56, -13395.423, -0.0036085506, 0.007813569, -449760.88, -216489.16 
1.3349825e+3, 2.861841e+2, -379093.8, -397590.63, -10858.363, -0.002970079, 0.007918049, -374079.1, -238682.55 
1.334911e+3, 2.961715e+2, -304681.94, -310449.5, -10685.696, -0.00094933185, 0.005795808, -296497.72, -258977.39 
1.3348399e+3, 3.0616218e+2, -232722.52, -176396.11, -7411.362, -0.0019320518, 0.0075996625, -175437.25, -175437.25 
1.3347694e+3, 3.1615624e+2, -256091.83, -186227.42, -7269.155, -0.0038501741, 0.010129824, -185479.11, -185479.11 
1.3346991e+3, 3.2615608e+2, -199860.55, -32660.379, -5195.5894, -0.0027790319, 0.004547908, -32499.086, -32499.086 
1.3468264e+3, 3.6588097e+1, -2256858.5, -2584628.5, 2972.4788, 0.00018078867, 0.005283855, -2256831.5, 324606.0 
1.3467544e+3, 4.6573994e+1, -2179944.5, -2496995.0, 1505.5411, 0.007144702, 0.01206536, -2179937.5, 303638.2 
1.3466822e+3, 5.655979e+1, -2108445.0, -2411874.5, 960.2165, 0.002585499, 0.00528249, -2108442.0, 277272.88 
1.3466094e+3, 6.654583e+1, -2033274.0, -2322006.3, -2491.9824, 0.0015566992, 0.0051919026, -2033252.5, 254599.08 
1.3465363e+3, 7.653202e+1, -1958842.1, -2235451.0, -2612.3887, 0.0017975519, 0.0071952133, -1958817.5, 231169.45 
1.3464628e+3, 8.651831e+1, -1883774.3, -2147026.0, -5193.5684, 0.00200052, 0.008276219, -1883671.8, 208449.52 
1.346389e+3, 9.6504647e+1, -1809899.8, -2060631.3, -5408.9575, 0.0024014956, 0.007434412, -1809783.1, 184472.03 
1.346315e+3, 1.0649109e+2, -1734833.3, -1972579.6, -7453.1436, 0.0023898825, 0.007582675, -1734599.8, 161788.31 
1.3462408e+3, 1.1647757e+2, -1660154.5, -1885749.4, -7557.3535, 0.002012397, 0.006902021, -1659901.6, 138618.89 
1.3461663e+3, 1.2646414e+2, -1584482.4, -1797768.0, -9252.078, 0.001240333, 0.007207514, -1584081.9, 116570.336 
1.3460915e+3, 1.3645074e+2, -1508990.3, -1710560.9, -9432.819, 0.00037988197, 0.0064959484, -1508549.8, 94233.695 
1.3460167e+3, 1.464374e+2, -1434078.1, -1623408.3, -10261.92, 0.0005156369, 0.007487672, -1433523.5, 71390.664 
1.3459419e+3, 1.5642408e+2, -1359563.5, -1536571.0, -10205.093, 0.0012551213, 0.007754112, -1358977.1, 48067.742 
1.3458669e+3, 1.6641082e+2, -1283865.0, -1448809.4, -10929.842, 0.0010456522, 0.008377816, -1283143.9, 26030.934 
1.3457918e+3, 1.7639755e+2, -1208028.1, -1361357.0, -11029.835, 0.00037236983, 0.0076165437, -1207238.8, 4065.8792 
1.3457169e+3, 1.8638435e+2, -1132688.5, -1274131.1, -11050.887, -0.00028256106, 0.007582275, -1131830.4, -18396.244 
1.3456418e+3, 1.9637115e+2, -1057816.9, -1187083.5, -11107.486, -0.001007371, 0.0064253057, -1056869.4, -41305.96 
1.3455668e+3, 2.0635803e+2, -982289.06, -1099344.4, -10841.805, -0.000875048, 0.0073251547, -981293.4, -63601.293 
1.3454919e+3, 2.1634492e+2, -906846.25, -1012105.9, -10936.698, -0.00016030131, 0.007919567, -905721.9, -85901.4 
1.345417e+3, 2.2633183e+2, -831670.44, -924910.75, -9941.524, -0.0005898176, 0.008696754, -830622.25, -108673.51 
1.3453422e+3, 2.3631875e+2, -756499.3, -837558.75, -9859.409, -0.0017431255, 0.0076739937, -755317.3, -131240.42 
1.3452679e+3, 2.4630575e+2, -681019.5, -749278.94, -8504.634, -0.001724986, 0.007139145, -679975.8, -153771.55 
1.3451935e+3, 2.5629282e+2, -606043.75, -661951.94, -8643.501, -0.0010020982, 0.0054472983, -604738.0, -176406.92 
1.3451195e+3, 2.6627997e+2, -531320.94, -574481.06, -6618.92, -0.0017091199, 0.0069278004, -530328.7, -199871.5 
1.3450457e+3, 2.7626714e+2, -456755.2, -487116.25, -6468.8965, -0.0031932555, 0.008582485, -455434.38, -222851.75 
1.3449723e+3, 2.8625444e+2, -381466.44, -398330.22, -4072.828, -0.002785591, 0.0083008725, -380534.3, -245827.02 
1.3448992e+3, 2.962418e+2, -306806.13, -311013.0, -4136.317, -0.0013441445, 0.004928692, -304269.16, -267438.06 
1.3448264e+3, 3.0623254e+2, -235001.81, -176731.42, -1178.3292, -0.002073231, 0.007483315, -176707.61, -176707.61 
1.3447541e+3, 3.1622672e+2, -259136.61, -186942.83, -1111.385, -0.0031236738, 0.012024106, -186925.73, -186925.73 
1.3446821e+3, 3.2622653e+2, -203528.52, -33792.426, 921.53644, -0.0028427306, 0.0036473335, -33787.426, -33787.426 
1.3568561e+3, 3.6660504e+1, -2256184.5, -2583280.5, 154.612, -0.002257803, 0.0065981653, -2256184.3, 324543.5 
1.3567826e+3, 4.66463e+1, -2181548.5, -2499096.0, -4394.2686, 0.009064188, 0.007207047, -2181487.8, 301379.16 
1.3567086e+3, 5.6632036e+1, -2109223.8, -2413426.0, -4724.2935, 0.0020524326, 0.006486747, -2109150.5, 275856.38 
1.3566342e+3, 6.661804e+1, -2033341.0, -2322293.5, -7528.2446, 0.0016400024, 0.007688123, -2033145.0, 253999.02 
1.3565594e+3, 7.6604193e+1, -1959162.4, -2235910.5, -7754.4175, 0.0040137167, 0.008181309, -1958945.3, 230334.42 
1.3564844e+3, 8.6590433e+1, -1884292.0, -2147750.3, -10470.345, 0.0028779376, 0.007982266, -1883876.5, 207538.02 
1.3564089e+3, 9.657672e+1, -1810175.4, -2061213.6, -10681.484, 0.00012551305, 0.0061127306, -1809721.6, 183827.23 
1.3563332e+3, 1.0656314e+2, -1734884.3, -1972729.4, -12604.846, 0.00034673876, 0.0068735094, -1734218.1, 161463.88 
1.3562573e+3, 1.1654962e+2, -1660235.6, -1885994.6, -12743.166, 0.0021544448, 0.0076815267, -1659518.6, 138295.88 
1.3561812e+3, 1.2653616e+2, -1584855.6, -1798438.8, -14276.981, 0.0022859867, 0.00858356, -1583905.5, 116040.836 
1.356105e+3, 1.3652273e+2, -1509319.4, -1711092.9, -14519.393, 0.0015333819, 0.007831814, -1508279.9, 93798.266 
1.3560286e+3, 1.4650936e+2, -1433890.6, -1622995.5, -15620.197, 0.0008656768, 0.0077105435, -1432609.1, 71599.836 
1.3559522e+3, 1.5649605e+2, -1359305.4, -1536197.8, -15582.129, 0.00027112593, 0.0063760085, -1357943.3, 48396.234 
1.3558756e+3, 1.6648279e+2, -1283946.0, -1449156.4, -16065.582, -0.0000067410615, 0.00752204, -1282398.3, 26071.223 
1.3557991e+3, 1.7646953e+2, -1208152.6, -1361701.8, -16225.932, -0.000044161734, 0.00834021, -1206456.8, 4142.6914 
1.3557224e+3, 1.8645631e+2, -1132692.3, -1274209.9, -16503.6, 0.0000038483518, 0.008922422, -1130793.1, -18064.21 
1.3556458e+3, 1.964431e+2, -1057753.5, -1187165.1, -16568.426, 0.000023790668, 0.007892929, -1055666.0, -40807.65 
1.3555692e+3, 2.0642994e+2, -982322.06, -1099512.1, -16197.643, -0.0004095342, 0.007580187, -980124.5, -63137.22 
1.3554928e+3, 2.164168e+2, -906828.3, -1012181.56, -16340.263, -0.0011091313, 0.0060902643, -904352.1, -85236.125 
1.3554163e+3, 2.2640374e+2, -831292.1, -924313.2, -15505.304, -0.00120071, 0.0071759163, -828775.7, -107531.61 
1.35534e+3, 2.3639071e+2, -756173.9, -837082.25, -15461.343, -0.0008829724, 0.007910065, -753319.9, -129948.195 
1.355264e+3, 2.4637774e+2, -681090.8, -749557.06, -14207.557, -0.0014473257, 0.0085169, -678259.7, -152760.67 
1.355188e+3, 2.5636476e+2, -606038.5, -662094.3, -14374.801, -0.0026320945, 0.0075280527, -602567.2, -174941.25 
1.3551125e+3, 2.6635194e+2, -530848.44, -573673.3, -12527.383, -0.0022882945, 0.0080031585, -527453.06, -197701.13 
1.3550371e+3, 2.7633914e+2, -456338.6, -486411.47, -12387.465, -0.0009218694, 0.0076929857, -451893.13, -220016.11 
1.354962e+3, 2.8632644e+2, -381440.88, -398433.7, -10010.059, -0.0014371952, 0.007618028, -376807.53, -242805.97 
1.3548872e+3, 2.9631382e+2, -306741.56, -311021.84, -10106.104, -0.0032740321, 0.0057929624, -298551.5, -262426.2 
1.3548128e+3, 3.0630457e+2, -234592.33, -176069.05, -7429.331, -0.0036332652, 0.0069070384, -175140.66, -175140.66 
1.3547389e+3, 3.1629872e+2, -258694.45, -186195.53, -7401.1626, -0.0019477269, 0.008152533, -185447.69, -185447.69 
1.354665e+3, 3.262987e+2, -202879.25, -32479.924, -5419.1626, -0.002442974, 0.007553302, -32307.752, -32307.752 
1.366886e+3, 3.6734807e+1, -2249598.5, -2581106.5, 5332.9556, 0.002623404, 0.009126751, -2249512.8, 330486.94 
1.3668108e+3, 4.6720496e+1, -2178152.8, -2496988.3, 1060.6414, 0.003045311, 0.0030296324, -2178149.3, 303990.72 
1.3667351e+3, 5.67063e+1, -2103311.0, -2410184.8, 1354.4265, 0.002768786, 0.00796997, -2103305.0, 280974.1 
1.3666591e+3, 6.669226e+1, -2028095.9, -2320018.0, -1371.3981, 0.0032260076, 0.009476878, -2028089.5, 258327.16 
1.3665827e+3, 7.6678336e+1, -1955637.3, -2234387.8, -1696.2317, 0.0032615184, 0.007518483, -1955627.0, 232926.13 
1.3665059e+3, 8.6664534e+1, -1880850.1, -2146037.3, -4092.3923, 0.002266088, 0.0072438675, -1880787.0, 209901.33 
1.3664289e+3, 9.665081e+1, -1806310.6, -2059262.1, -4144.8276, 0.0009976751, 0.0065551046, -1806242.8, 186580.08 
1.3663515e+3, 1.066372e+2, -1731223.0, -1971097.1, -6032.2085, 0.0010231541, 0.0074195843, -1731071.4, 163884.83 
1.366274e+3, 1.1662363e+2, -1657012.4, -1884487.4, -6215.6685, 0.0017547259, 0.0077256737, -1656842.6, 140246.5 
1.3661964e+3, 1.2661016e+2, -1582144.6, -1797014.0, -7479.3325, 0.0018218872, 0.008431749, -1581884.6, 117336.65 
1.3661186e+3, 1.365967e+2, -1507630.9, -1710088.8, -7448.4653, 0.0015291555, 0.0077261664, -1507357.3, 93995.93 
1.3660407e+3, 1.4658333e+2, -1432201.9, -1622185.1, -8581.349, 0.00090355775, 0.0078795245, -1431815.1, 71669.09 
1.3659625e+3, 1.5656997e+2, -1356920.9, -1535075.8, -8786.042, 0.00017363054, 0.0069807675, -1356488.6, 49126.32 
1.3658844e+3, 1.665567e+2, -1281974.8, -1448060.1, -9205.047, -0.00007096318, 0.0077869175, -1281466.1, 26279.104 
1.3658063e+3, 1.7654341e+2, -1207213.8, -1361056.8, -9221.708, -0.0000035443404, 0.0078080306, -1206662.9, 3212.4731 
1.3657281e+3, 1.8653019e+2, -1131808.4, -1273542.3, -9412.818, 0.000087440756, 0.00854779, -1131186.0, -19180.973 
1.3656498e+3, 1.9651696e+2, -1056459.4, -1186313.6, -9398.636, 0.00016894082, 0.008205304, -1055782.6, -41648.2 
1.3655718e+3, 2.065038e+2, -981376.44, -1098968.4, -8985.308, -0.00032991968, 0.008027477, -980693.9, -64430.37 
1.3654937e+3, 2.1649064e+2, -906674.06, -1011914.25, -9024.025, -0.0012524286, 0.0063651428, -905905.94, -87513.48 
1.3654158e+3, 2.2647758e+2, -831412.1, -924021.06, -8261.6, -0.0013113201, 0.0072197304, -830680.9, -110160.36 
1.3653378e+3, 2.3646456e+2, -756410.7, -836837.56, -8356.991, -0.0008226882, 0.00776783, -755551.5, -132903.38 
1.3652602e+3, 2.4645157e+2, -681662.7, -749612.75, -7120.0825, -0.0013498737, 0.008676025, -680924.6, -156149.23 
1.3651825e+3, 2.564386e+2, -606962.06, -662271.8, -7071.526, -0.0024894916, 0.008234659, -606072.25, -179169.88 
1.3651054e+3, 2.6642576e+2, -531669.2, -573739.44, -5382.919, -0.0022072166, 0.00823679, -530991.4, -201962.97 
1.3650283e+3, 2.76413e+2, -456816.22, -486279.66, -5533.213, -0.0009081632, 0.0069096033, -455811.34, -224657.8 
1.3649517e+3, 2.864003e+2, -382602.0, -398483.06, -3237.32, -0.0014520533, 0.0076491414, -381967.44, -248689.58 
1.3648751e+3, 2.963877e+2, -309285.8, -311766.44, -3043.7236, -0.0032927229, 0.0076511917, -307239.4, -271838.16 
1.3647991e+3, 3.0637845e+2, -237794.39, -177288.39, -552.8682, -0.0035177162, 0.0073370086, -177283.34, -177283.34 
1.3647234e+3, 3.163726e+2, -261765.11, -187175.05, -750.44885, -0.001653534, 0.0052736597, -187167.5, -187167.5 
1.3646479e+3, 3.2637268e+2, -204711.98, -31980.1, 1150.2673, -0.0024920902, 0.009664655, -31972.44, -31972.44 
1.3769163e+3, 3.6810574e+1, -2251070.0, -2584084.0, -1216.4707, 0.010011951, 0.011996559, -2251065.5, 328191.56 
1.3768391e+3, 4.6796167e+1, -2177578.0, -2495812.0, -3702.8394, -0.006572355, -0.00044462626, -2177535.0, 303863.3 
1.376762e+3, 5.6782097e+1, -2103227.5, -2409548.5, -3706.174, 0.004182396, 0.00962474, -2103182.8, 280353.6 
1.3766842e+3, 6.6768044e+1, -2028892.9, -2321216.0, -6943.5854, 0.0054125492, 0.010830116, -2028728.0, 256945.92 
1.376606e+3, 7.6754016e+1, -1956022.6, -2235286.5, -7186.7886, 0.00078463706, 0.005990413, -1955837.8, 231973.64 
1.3765275e+3, 8.6740196e+1, -1880889.9, -2146045.5, -9175.157, 0.00086864363, 0.0063858847, -1880572.8, 209374.13 
1.376449e+3, 9.672649e+1, -1806488.1, -2059450.1, -9324.372, 0.003671614, 0.0080779875, -1806144.9, 185936.33 
1.3763702e+3, 1.06712855e+2, -1731632.5, -1971775.0, -11299.302, 0.0032100994, 0.008750167, -1731102.0, 163112.83 
1.3762909e+3, 1.1669923e+2, -1657214.8, -1884964.6, -11496.027, 0.00092341297, 0.007355663, -1656636.0, 139712.39 
1.3762116e+3, 1.2668574e+2, -1582015.1, -1796569.1, -12741.516, 0.00034350602, 0.007369595, -1581261.1, 117219.34 
1.3761322e+3, 1.366723e+2, -1507521.1, -1709853.0, -12763.596, 0.00070077344, 0.0067168716, -1506719.1, 93892.984 
1.3760526e+3, 1.4665894e+2, -1432523.1, -1622937.6, -13771.385, 0.00069569534, 0.008120661, -1431532.3, 71211.01 
1.3759731e+3, 1.5664555e+2, -1357202.4, -1535699.8, -14014.067, 0.00062398065, 0.009004208, -1356108.9, 48765.633 
1.3758934e+3, 1.6663224e+2, -1281898.4, -1447974.6, -14575.5205, 0.00048739876, 0.008857953, -1280628.9, 26376.08 
1.3758136e+3, 1.7661893e+2, -1207061.0, -1360918.3, -14615.59, 0.00027758794, 0.0063493503, -1205684.9, 3450.4355 
1.3757338e+3, 1.866057e+2, -1131680.0, -1273446.4, -14728.726, -0.0000832599, 0.0069475896, -1130165.9, -18901.064 
1.375654e+3, 1.9659251e+2, -1056335.8, -1186218.1, -14785.464, -0.00050360645, 0.007716173, -1054673.9, -41279.652 
1.3755743e+3, 2.0657936e+2, -981277.44, -1098927.8, -14578.332, -0.0006428207, 0.008776571, -979497.9, -63974.8 
1.3754946e+3, 2.165662e+2, -906516.6, -1011862.6, -14634.596, -0.00077970827, 0.008464699, -904521.4, -86869.43 
1.375415e+3, 2.2655313e+2, -831347.75, -924071.9, -13863.95, -0.0011157392, 0.008630857, -829319.2, -109539.09 
1.3753356e+3, 2.3654008e+2, -756318.2, -836812.8, -14002.379, -0.0016145513, 0.007306095, -753952.0, -132044.02 
1.3752563e+3, 2.465271e+2, -681363.06, -749160.44, -12917.956, -0.0014493566, 0.0077768355, -678985.1, -154949.95 
1.375177e+3, 2.565142e+2, -606713.8, -661944.25, -12888.602, -0.0008125409, 0.007734336, -603854.2, -177692.34 
1.3750982e+3, 2.665013e+2, -531755.5, -574104.94, -11228.1875, -0.0016957633, 0.0077821855, -528962.75, -200674.8 
1.3750196e+3, 2.7648848e+2, -456813.13, -486435.25, -11455.316, -0.0032971723, 0.0063158385, -452900.1, -222486.66 
1.3749412e+3, 2.8647587e+2, -382048.3, -397507.78, -9544.099, -0.0028802496, 0.008429852, -377496.4, -244959.1 
1.3748631e+3, 2.9646334e+2, -308815.47, -310934.03, -9326.48, -0.0014173724, 0.010576978, -300488.3, -265828.44 
1.3747852e+3, 3.064541e+2, -237846.03, -177578.95, -6819.8564, -0.0018251122, 0.008942263, -176816.84, -176816.84 
1.3747078e+3, 3.1644818e+2, -261655.84, -187167.22, -6968.872, -0.002587007, 0.0036553985, -186520.86, -186520.86 
1.3746306e+3, 3.2644835e+2, -203718.9, -29935.52, -4938.346, -0.0034824256, 0.009465504, -29795.3, -29795.3 
1.3869466e+3, 3.688852e+1, -2244860.8, -2582530.3, 4293.935, 0.0062861308, 0.009853041, -2244806.3, 333687.16 
1.3868678e+3, 4.6874064e+1, -2171916.5, -2493349.3, 3021.9216, -0.0007580266, 0.0027806975, -2171888.3, 308746.75 
1.3867888e+3, 5.68599e+1, -2099598.5, -2407921.8, 2406.2524, 0.0028839293, 0.009011008, -2099579.8, 283194.13 
1.3867094e+3, 6.684581e+1, -2025164.9, -2319389.5, -823.0409, 0.0036049774, 0.009813685, -2025162.6, 259749.33 
1.3866295e+3, 7.6831764e+1, -1951471.6, -2232978.5, -793.09174, 0.0014290701, 0.0062501044, -1951469.4, 235580.16 
1.3865495e+3, 8.681791e+1, -1876821.6, -2144149.5, -2648.8115, 0.0015505404, 0.006994192, -1876795.4, 212389.9 
1.3864692e+3, 9.680416e+1, -1803533.3, -2058012.3, -2891.7776, 0.0033732345, 0.008582456, -1803500.5, 187819.58 
1.3863885e+3, 1.06790505e+2, -1728911.8, -1970181.9, -4603.8184, 0.0027614569, 0.008963563, -1728824.0, 164629.94 
1.3863079e+3, 1.1677686e+2, -1654488.9, -1883341.8, -4574.201, 0.00067862525, 0.00719448, -1654397.5, 141190.03 
1.3862269e+3, 1.2676336e+2, -1579409.9, -1795357.4, -5844.675, 0.0002995285, 0.007536629, -1579251.8, 118468.1 
1.3861458e+3, 1.3674991e+2, -1505061.5, -1708618.3, -6059.7476, 0.00096311455, 0.0076095588, -1504881.3, 94970.54 
1.3860647e+3, 1.467365e+2, -1430328.1, -1621707.1, -6819.4585, 0.00093102816, 0.008605769, -1430085.4, 71897.73 
1.3859835e+3, 1.567231e+2, -1355462.3, -1534676.1, -6759.9824, 0.00059033633, 0.008491734, -1355207.6, 48906.82 
1.3859022e+3, 1.6670978e+2, -1280311.1, -1447016.8, -7245.977, 0.0004151092, 0.00856624, -1279996.8, 26248.352 
1.3858208e+3, 1.7669645e+2, -1205456.9, -1359979.4, -7295.8027, 0.0002684718, 0.0069624693, -1205113.1, 3262.3855 
1.3857394e+3, 1.8668322e+2, -1130539.6, -1272731.9, -7376.124, -0.00014915262, 0.0074594263, -1130158.0, -19652.867 
1.3856582e+3, 1.9667001e+2, -1055841.0, -1185762.0, -7453.6167, -0.00068833696, 0.007590704, -1055414.9, -42780.094 
1.3855769e+3, 2.0665684e+2, -980778.6, -1098478.9, -7271.3896, -0.00067140645, 0.008692609, -980331.06, -65567.36 
1.3854957e+3, 2.1664369e+2, -905675.9, -1011233.06, -7314.5967, -0.0004470927, 0.008800341, -905171.44, -88278.76 
1.3854145e+3, 2.266306e+2, -830816.56, -923713.94, -6613.0933, -0.0009090451, 0.008918242, -830348.2, -111327.19 
1.3853334e+3, 2.3661752e+2, -756370.25, -836647.5, -6715.231, -0.001802299, 0.007266719, -755812.44, -134663.36 
1.3852525e+3, 2.4660453e+2, -681351.3, -748854.44, -5692.4863, -0.0015559476, 0.0076442766, -680874.6, -157598.34 
1.3851716e+3, 2.5659162e+2, -606447.3, -661489.75, -5766.4033, -0.00052985264, 0.007678736, -605849.7, -180446.73 
1.3850911e+3, 2.6657873e+2, -532379.6, -574142.1, -4158.546, -0.0015493924, 0.007995447, -531969.56, -204440.5 
1.3850108e+3, 2.7656594e+2, -458862.9, -487127.5, -4105.383, -0.0036643166, 0.0068586967, -458278.7, -228624.16 
1.3849306e+3, 2.8655332e+2, -383747.56, -397847.63, -2377.5989, -0.003005219, 0.00851686, -383357.44, -251579.05 
1.3848509e+3, 2.965408e+2, -309421.78, -310782.47, -2486.434, -0.00069606176, 0.009851542, -307524.28, -273623.4 
1.3847712e+3, 3.0653155e+2, -238894.92, -177840.38, -197.57494, -0.0014074075, 0.008835218, -177839.73, -177839.73 
1.384692e+3, 3.1652567e+2, -263590.4, -187677.81, -168.56264, -0.0033744879, 0.0049138074, -187677.44, -187677.44 
1.3846132e+3, 3.2652587e+2, -206849.84, -30307.87, 1667.8972, -0.0035974535, 0.008941759, -30292.113, -30292.113 
1.3969773e+3, 3.6968082e+1, -2246593.8, -2584672.3, -2448.951, -0.0014054938, 0.00610352, -2246576.0, 331137.66 
1.3968965e+3, 4.695361e+1, -2172521.8, -2494967.8, -2536.784, 0.012148545, 0.009256357, -2172501.8, 307353.6 
1.3968158e+3, 5.6939244e+1, -2100390.0, -2409425.8, -3061.1423, -0.00002142491, 0.007172818, -2100359.5, 281636.6 
1.3967346e+3, 6.692512e+1, -2025389.9, -2319478.8, -6022.0, -0.0001969342, 0.007704037, -2025266.6, 258868.02 
1.396653e+3, 7.691111e+1, -1951682.8, -2233220.3, -6096.805, 0.0037833552, 0.00758762, -1951550.8, 234721.2 
1.3965714e+3, 8.689723e+1, -1877316.9, -2144898.5, -8041.275, 0.003267367, 0.008453558, -1877075.4, 211332.56 
1.3964894e+3, 9.688342e+1, -1803821.0, -2058538.1, -8259.312, 0.0012219332, 0.008509752, -1803553.5, 186989.8 
1.3964072e+3, 1.0686976e+2, -1728801.0, -1969927.4, -9788.371, 0.000721494, 0.008580216, -1728404.3, 164273.0 
1.3963248e+3, 1.1685614e+2, -1654453.0, -1883251.5, -9846.276, 0.0007806498, 0.0072285444, -1654030.1, 140780.53 
1.3962424e+3, 1.2684263e+2, -1579816.9, -1796097.3, -11128.662, 0.0011172439, 0.008556921, -1579245.8, 117697.41 
1.3961597e+3, 1.3682914e+2, -1505273.5, -1709146.8, -11343.136, 0.0018175326, 0.009731108, -1504644.4, 94431.07 
1.396077e+3, 1.468157e+2, -1430099.6, -1621222.0, -12061.495, 0.0013331749, 0.009242425, -1429341.5, 71865.414 
1.395994e+3, 1.5680231e+2, -1355260.8, -1534273.9, -12072.804, 0.00013969585, 0.006222397, -1354450.1, 48888.08 
1.3959111e+3, 1.66789e+2, -1280354.5, -1447129.6, -12622.18, -0.00015171888, 0.0074152728, -1279404.6, 26064.088 
1.3958283e+3, 1.7677571e+2, -1205426.5, -1360058.3, -12715.9, -0.000037713704, 0.009180571, -1204387.9, 3211.0803 
1.3957453e+3, 1.8676247e+2, -1130519.4, -1272832.3, -12860.471, -0.0002078051, 0.009593886, -1129366.5, -19637.85 
1.3956623e+3, 1.9674923e+2, -1055765.1, -1185826.6, -12960.365, -0.0005546355, 0.0077285166, -1054486.1, -42627.64 
1.3955793e+3, 2.0673604e+2, -980685.5, -1098442.0, -12745.292, -0.0005475142, 0.007963319, -979321.8, -65334.156 
1.3954966e+3, 2.1672288e+2, -905586.1, -1011234.8, -12850.801, -0.00032716416, 0.0076927175, -904045.44, -87928.78 
1.3954139e+3, 2.2670978e+2, -830753.06, -923795.4, -12385.881, -0.00077338633, 0.008332284, -829132.5, -110887.45 
1.395331e+3, 2.366967e+2, -756277.56, -836704.7, -12481.507, -0.0015788121, 0.0077155824, -754385.06, -134011.94 
1.3952485e+3, 2.4668372e+2, -681244.44, -748861.8, -11434.214, -0.0017833301, 0.008297359, -679363.2, -156862.81 
1.395166e+3, 2.5667077e+2, -606306.1, -661386.6, -11595.386, -0.0017327565, 0.008085386, -603964.6, -179337.48 
1.3950838e+3, 2.6665792e+2, -532031.9, -573592.94, -10399.604, -0.001873143, 0.008915219, -529574.9, -202821.89 
1.3950019e+3, 2.7664518e+2, -458565.06, -486681.25, -10312.652, -0.0020958835, 0.008622459, -455188.13, -226310.1 
1.39492e+3, 2.866325e+2, -383788.88, -398154.16, -8409.764, -0.0019452538, 0.007951967, -379911.94, -248909.81 
1.3948385e+3, 2.9661995e+2, -309407.13, -310971.47, -8593.967, -0.0014307899, 0.0053517334, -301559.8, -268434.6 
1.3947572e+3, 3.0661076e+2, -238535.7, -177359.48, -6752.4688, -0.0025158578, 0.0070716785, -176623.03, -176623.03 
1.3946763e+3, 3.1660494e+2, -263219.9, -187150.4, -6721.0845, -0.004112805, 0.009520737, -186561.14, -186561.14 
1.3945957e+3, 3.2660514e+2, -206469.84, -29646.266, -5020.1567, -0.0030088865, 0.008066442, -29503.854, -29503.854 
1.4070079e+3, 3.7049603e+1, -2242732.0, -2582384.5, 4363.298, 0.00034423458, 0.0065760068, -2242675.8, 334238.88 
1.4069256e+3, 4.703513e+1, -2165634.5, -2491742.8, 2848.0823, 0.010502682, 0.011765587, -2165609.8, 313447.0 
1.4068429e+3, 5.7020694e+1, -2095847.9, -2407292.8, 2843.4316, 0.00026766656, 0.00656137, -2095821.9, 285376.13 
1.40676e+3, 6.700653e+1, -2021827.8, -2317609.5, 580.5556, 0.0003546259, 0.0072429706, -2021826.6, 261510.27 
1.4066769e+3, 7.699252e+1, -1948487.9, -2231431.8, 410.71133, 0.0035962912, 0.008682746, -1948487.3, 236986.98 
1.4065933e+3, 8.6978614e+1, -1874031.8, -2143177.3, -1405.0889, 0.0027516526, 0.0091808345, -1874024.5, 213586.0 
1.4065096e+3, 9.6964777e+1, -1800562.6, -2056763.4, -1385.636, 0.00066489767, 0.008022039, -1800555.1, 189190.94 
1.4064258e+3, 1.06951095e+2, -1725985.3, -1968448.9, -2773.4941, 0.0007597084, 0.008503807, -1725953.6, 165926.58 
1.406342e+3, 1.16937466e+2, -1652108.3, -1881930.6, -2969.1326, 0.0017231648, 0.008424444, -1652069.9, 141943.83 
1.4062577e+3, 1.2692393e+2, -1577476.5, -1794760.1, -4002.6414, 0.0015327926, 0.009215656, -1577402.8, 118743.586 
1.4061734e+3, 1.369104e+2, -1502860.1, -1707749.8, -3941.9526, 0.0010439536, 0.008959674, -1502784.4, 95494.555 
1.406089e+3, 1.4689699e+2, -1428038.6, -1620030.5, -4641.8394, 0.00081453234, 0.008906215, -1427926.5, 72483.94 
1.4060046e+3, 1.5688358e+2, -1353788.0, -1533331.4, -4769.6597, 0.0005775337, 0.0071861674, -1353661.4, 48880.42 
1.4059202e+3, 1.6687025e+2, -1279014.3, -1446317.4, -5246.8125, 0.00015760698, 0.008213456, -1278849.9, 25822.514 
1.4058356e+3, 1.7685694e+2, -1204059.9, -1359163.4, -5290.3105, -0.00030426256, 0.009194081, -1203879.6, 2923.2534 
1.405751e+3, 1.8684368e+2, -1129186.4, -1271998.1, -5422.6406, -0.00031506116, 0.009628526, -1128980.8, -20047.969 
1.4056665e+3, 1.968304e+2, -1054374.6, -1184952.9, -5476.138, -0.00019037229, 0.008180348, -1054145.4, -43082.53 
1.405582e+3, 2.0681721e+2, -979621.25, -1097670.9, -5201.63, -0.00041419922, 0.0082977135, -979392.5, -66200.46 
1.4054975e+3, 2.1680404e+2, -905126.4, -1010759.06, -5238.1343, -0.0007709025, 0.0076021445, -904867.25, -89546.055 
1.4054132e+3, 2.2679093e+2, -830326.44, -923424.56, -4774.11, -0.0009120689, 0.0084014125, -830082.25, -112632.59 
1.4053287e+3, 2.3677784e+2, -755441.94, -836118.2, -4842.6113, -0.0009663063, 0.008314933, -755152.3, -135574.38 
1.4052446e+3, 2.4676485e+2, -681099.3, -748625.94, -3881.5747, -0.001500669, 0.008755022, -680876.9, -159171.55 
1.4051606e+3, 2.567519e+2, -607311.56, -661647.44, -4005.089, -0.0023325658, 0.008022689, -607017.94, -183185.63 
1.4050767e+3, 2.6673904e+2, -532439.3, -573377.4, -2967.085, -0.0020276897, 0.008855492, -532225.44, -206267.27 
1.404993e+3, 2.7672628e+2, -457675.78, -485888.56, -3024.515, -0.0010719902, 0.00884169, -457355.2, -229272.05 
1.4049095e+3, 2.8671363e+2, -383804.53, -397977.53, -1223.0807, -0.0014809584, 0.0080116745, -383699.78, -253492.45 
1.4048262e+3, 2.9670104e+2, -311291.03, -311697.2, -1277.3662, -0.0024112402, 0.00499681, -310200.72, -277870.13 
1.4047432e+3, 3.0669183e+2, -240675.9, -178197.03, 261.04813, -0.0032298698, 0.0074721337, -178195.95, -178195.95 
1.4046603e+3, 3.1668603e+2, -264755.6, -187533.27, 75.016174, -0.003630686, 0.011512718, -187533.19, -187533.19 
1.404578e+3, 3.266862e+2, -207339.98, -29229.473, 1416.2739, -0.0026178847, 0.007356681, -29218.213, -29218.213 
1.4170389e+3, 3.7132642e+1, -2242207.0, -2581110.0, 1546.303, 0.00544782, 0.00900343, -2242200.0, 333901.13 
1.4169547e+3, 4.7118184e+1, -2166886.3, -2492279.3, -3285.352, 0.0019206058, 0.012383654, -2166853.0, 311389.78 
1.4168702e+3, 5.710375e+1, -2096187.0, -2407512.8, -3184.1843, 0.0022989546, 0.0067313304, -2096154.5, 284229.78 
1.4167856e+3, 6.7089564e+1, -2022092.4, -2318124.8, -4706.166, 0.0030031593, 0.007720542, -2022017.5, 260505.63 
1.4167006e+3, 7.7075523e+1, -1948757.4, -2231879.0, -4914.2417, 0.0018948339, 0.00967121, -1948672.1, 235988.66 
1.4166155e+3, 8.7061614e+1, -1874180.4, -2142984.5, -6747.241, 0.0010121663, 0.009566331, -1874011.1, 212785.92 
1.4165302e+3, 9.704778e+1, -1800637.8, -2056699.3, -6793.747, 0.0010259702, 0.0073700114, -1800457.6, 188474.98 
1.4164446e+3, 1.0703409e+2, -1726321.1, -1969033.5, -8105.46, 0.0019617912, 0.008701839, -1726050.8, 165016.13 
1.416359e+3, 1.1702044e+2, -1652288.0, -1882313.9, -8295.273, 0.0030131238, 0.010318197, -1651989.3, 141211.33 
1.4162733e+3, 1.270069e+2, -1577328.6, -1794346.6, -9223.241, 0.0015852195, 0.009648607, -1576937.3, 118396.0 
1.4161873e+3, 1.3699336e+2, -1502763.4, -1707471.5, -9258.794, -0.00084001065, 0.0063700397, -1502345.5, 95120.414 
1.4161013e+3, 1.4697996e+2, -1428204.3, -1620397.1, -10061.524, -0.0003476657, 0.008049229, -1427679.0, 71918.32 
1.4160153e+3, 1.5696657e+2, -1353805.1, -1533563.9, -10189.614, 0.0015434538, 0.010401556, -1353229.4, 48499.207 
1.415929e+3, 1.6695324e+2, -1278964.6, -1446342.3, -10568.249, 0.0009788166, 0.010350763, -1278300.0, 25559.3 
1.415843e+3, 1.7693986e+2, -1203979.6, -1359206.5, -10654.66, -0.00064896833, 0.0075498414, -1203251.6, 2738.5227 
1.4157568e+3, 1.869266e+2, -1129148.6, -1272072.0, -10886.516, -0.00055242085, 0.008169959, -1128324.1, -20203.965 
1.4156707e+3, 1.9691335e+2, -1054290.4, -1184962.6, -10985.903, 0.00018554203, 0.008962752, -1053373.3, -43123.18 
1.4155845e+3, 2.0690016e+2, -979458.4, -1097507.8, -10832.464, -0.00041512327, 0.009561836, -978472.56, -66093.32 
1.4154984e+3, 2.16887e+2, -904931.6, -1010599.7, -10896.991, -0.0017917656, 0.00839581, -903819.56, -89311.195 
1.4154124e+3, 2.2687387e+2, -830230.0, -923520.44, -10437.787, -0.0013815822, 0.009083239, -829076.44, -112439.555 
1.4153266e+3, 2.3686078e+2, -755360.8, -836190.25, -10590.062, -0.00011176137, 0.009069209, -753996.4, -135231.11 
1.4152408e+3, 2.4684776e+2, -680978.1, -748616.5, -9956.437, -0.00081508193, 0.009063155, -679542.94, -158650.19 
1.415155e+3, 2.568348e+2, -607186.1, -661627.3, -10040.079, -0.002485926, 0.007567135, -605393.56, -182373.7 
1.4150694e+3, 2.6682192e+2, -532386.6, -573493.94, -8873.332, -0.0021423958, 0.0079147285, -530553.06, -205407.23 
1.414984e+3, 2.768092e+2, -457594.66, -485913.06, -9040.025, -0.0006953901, 0.0076006884, -454954.88, -227683.95 
1.4148988e+3, 2.867965e+2, -383607.44, -397765.72, -7780.093, -0.001719806, 0.008880267, -380167.84, -250772.94 
1.4148137e+3, 2.9678398e+2, -311164.16, -311593.25, -7795.703, -0.003776521, 0.009180738, -303580.03, -272062.25 
1.414729e+3, 3.0677474e+2, -240809.11, -178706.92, -6159.527, -0.003603506, 0.010238043, -178101.89, -178101.89 
1.4146446e+3, 3.1676885e+2, -264743.97, -187800.53, -6362.804, -0.002020556, 0.010555799, -187277.9, -187277.9 
1.4145602e+3, 3.267691e+2, -206490.94, -27829.785, -5255.3228, -0.0028469018, 0.0071462174, -27675.334, -27675.334 
1.4270698e+3, 3.721781e+1, -2235699.5, -2577437.8, 6589.951, 0.006891021, 0.009508394, -2235572.5, 339693.97 
1.4269838e+3, 4.7203335e+1, -2166086.8, -2491809.3, 3128.3845, -0.00078385783, 0.011278928, -2166056.8, 311351.56 
1.4268976e+3, 5.7188904e+1, -2092197.5, -2405377.8, 3169.6646, 0.003012078, 0.008454503, -2092165.4, 287384.3 
1.4268112e+3, 6.71747e+1, -2017769.8, -2315739.0, 1781.5223, 0.003985861, 0.009064935, -2017759.1, 263929.75 
1.4267245e+3, 7.7160627e+1, -1945542.1, -2229990.0, 1734.2284, 0.0015676366, 0.009349005, -1945531.5, 238295.2 
1.4266378e+3, 8.7146723e+1, -1871294.6, -2141507.8, 87.458145, 0.0008893561, 0.009557438, -1871294.6, 214668.45 
1.4265506e+3, 9.7132874e+1, -1797871.4, -2055088.4, -37.69473, 0.001871266, 0.00849267, -1797871.4, 190227.38 
1.4264636e+3, 1.07119165e+2, -1723602.6, -1967432.6, -1124.4224, 0.002231729, 0.009107562, -1723597.5, 166635.64 
1.4263761e+3, 1.171055e+2, -1649710.8, -1880757.4, -1088.7587, 0.0020390535, 0.009246326, -1649705.6, 142661.42 
1.4262886e+3, 1.2709194e+2, -1575201.1, -1793074.5, -1910.8099, 0.0011138789, 0.009331922, -1575184.4, 119315.39 
1.4262012e+3, 1.3707843e+2, -1501120.6, -1706411.8, -2070.9067, -0.00005848056, 0.007779907, -1501099.8, 95532.63 
1.4261135e+3, 1.47065e+2, -1426551.4, -1619382.3, -2735.8855, 0.000101209116, 0.008920412, -1426512.6, 72251.33 
1.426026e+3, 1.5705158e+2, -1351813.5, -1532310.9, -2717.8381, 0.0010264087, 0.009906792, -1351772.5, 49122.902 
1.4259382e+3, 1.6703823e+2, -1277082.9, -1445235.0, -2955.7087, 0.00072127004, 0.010079778, -1277030.9, 25995.37 
1.4258504e+3, 1.7702487e+2, -1202502.4, -1358226.4, -2973.283, -0.00013135356, 0.008002511, -1202445.6, 2711.5913 
1.4257626e+3, 1.870116e+2, -1127897.9, -1271340.6, -3151.5518, -0.00021894815, 0.008481554, -1127828.8, -20541.39 
1.4256749e+3, 1.9699833e+2, -1053285.6, -1184303.4, -3174.7185, -0.000049310434, 0.008843718, -1053208.6, -43791.297 
1.4255871e+3, 2.069851e+2, -978560.25, -1096989.5, -3087.2468, -0.0005263311, 0.0094694635, -978479.8, -66933.03 
1.4254995e+3, 2.169719e+2, -903844.5, -1009904.3, -3241.0986, -0.0014888509, 0.008594894, -903745.56, -90069.48 
1.4254119e+3, 2.2695878e+2, -829427.0, -922811.44, -2778.7993, -0.0012300469, 0.009166627, -829344.4, -113539.625 
1.4253244e+3, 2.3694567e+2, -755103.75, -835785.25, -2830.168, -0.00036785382, 0.0088441465, -755004.6, -137071.4 
1.4252368e+3, 2.4693264e+2, -680434.1, -748188.0, -2286.3997, -0.0007902245, 0.009046466, -680357.06, -160296.19 
1.4251494e+3, 2.5691968e+2, -605894.4, -660874.06, -2372.1526, -0.0018026966, 0.00798241, -605792.2, -183604.06 
1.4250621e+3, 2.6690677e+2, -531902.6, -573204.25, -1329.215, -0.0018236798, 0.008140138, -531859.9, -207545.52 
1.4249751e+3, 2.7689397e+2, -458605.06, -486291.56, -1543.566, -0.0012332103, 0.0073472285, -458519.28, -232079.42 
1.4248882e+3, 2.8688133e+2, -384238.66, -397704.3, -485.5962, -0.0022721987, 0.009193997, -384221.2, -255657.34 
1.4248013e+3, 2.968688e+2, -310761.25, -311077.03, -509.6444, -0.0039378665, 0.010584481, -310385.6, -279698.97 
1.4247148e+3, 3.0685952e+2, -241003.25, -178818.11, 1054.2625, -0.0031908208, 0.010287835, -178800.25, -178800.25 
1.4246285e+3, 3.1685358e+2, -265926.0, -188285.22, 951.70215, -0.000907154, 0.008126195, -188273.55, -188273.55 
1.4245425e+3, 3.2685387e+2, -207724.5, -27575.105, 1676.4236, -0.0035195856, 0.008106866, -27559.506, -27559.506 
1.4371009e+3, 3.7304595e+1, -2236830.5, -2577745.5, -1860.3862, 0.006730751, 0.009111981, -2236820.5, 337595.5 
1.437013e+3, 4.7290096e+1, -2166129.5, -2492019.8, -1859.4331, -0.0006126417, 0.009648946, -2166119.0, 310439.1 
1.4369251e+3, 5.727568e+1, -2092587.8, -2405737.8, -1992.6045, 0.0029348684, 0.01096916, -2092575.1, 286124.2 
1.4368369e+3, 6.7261475e+1, -2018048.8, -2315851.8, -3766.3286, 0.0040211845, 0.010793368, -2018001.1, 262837.38 
1.4367485e+3, 7.724738e+1, -1945669.8, -2230130.5, -3844.1838, 0.0019456906, 0.008421055, -1945617.9, 237358.8 
1.4366598e+3, 8.7233466e+1, -1871648.0, -2141876.3, -5238.1836, 0.0016118706, 0.009492598, -1871546.5, 213566.5 
1.4365713e+3, 9.721963e+1, -1798099.6, -2055361.4, -5386.2524, 0.002825225, 0.010588317, -1797986.9, 189261.81 
1.4364824e+3, 1.0720591e+2, -1723564.9, -1967191.4, -6437.9526, 0.0017989813, 0.009615708, -1723394.9, 165988.14 
1.4363934e+3, 1.1719223e+2, -1649637.8, -1880587.0, -6474.491, -0.00035561316, 0.006468087, -1649456.4, 142060.7 
1.4363043e+3, 1.271787e+2, -1575375.0, -1793390.5, -7265.5903, 0.00035154156, 0.008697544, -1575133.1, 118516.586 
1.4362152e+3, 1.3716519e+2, -1501170.9, -1706580.3, -7424.8467, 0.0023056052, 0.01176437, -1500902.9, 94879.19 
1.4361258e+3, 1.4715175e+2, -1426405.9, -1619269.0, -8001.9736, 0.0014210485, 0.010850989, -1426074.5, 71839.33 
1.4360367e+3, 1.5713829e+2, -1351631.6, -1532201.5, -8049.574, -0.00061279204, 0.006856751, -1351273.5, 48772.21 
1.4359473e+3, 1.6712496e+2, -1276988.9, -1445125.3, -8357.726, -0.00034335547, 0.008240822, -1276574.5, 25601.865 
1.4358579e+3, 1.7711164e+2, -1202374.8, -1358102.3, -8433.123, 0.00091092096, 0.010050226, -1201919.4, 2387.488 
1.4357686e+3, 1.8709835e+2, -1127796.4, -1271282.3, -8662.139, 0.00043122575, 0.010121921, -1127275.4, -20838.4 
1.4356792e+3, 1.9708505e+2, -1053152.1, -1184288.0, -8718.103, -0.0008602465, 0.007983039, -1052575.1, -44007.766 
1.4355898e+3, 2.0707184e+2, -978618.1, -1097372.0, -8673.882, -0.00076653226, 0.008315179, -977987.94, -67291.04 
1.4355005e+3, 2.1705861e+2, -903841.94, -1010150.94, -8868.11, -0.00019938832, 0.008303113, -903107.3, -90280.805 
1.4354113e+3, 2.2704549e+2, -829150.6, -922550.2, -8590.549, -0.0007133221, 0.008760487, -828367.06, -113411.945 
1.435322e+3, 2.3703238e+2, -754874.8, -835596.75, -8664.214, -0.001746939, 0.007814384, -753955.3, -136871.78 
1.4352329e+3, 2.4701935e+2, -680395.25, -748402.0, -8155.281, -0.0014107333, 0.0088357525, -679431.0, -160219.73 
1.4351438e+3, 2.5700635e+2, -605873.25, -661077.06, -8336.105, -0.00044290093, 0.009290496, -604641.94, -183303.39 
1.435055e+3, 2.6699346e+2, -531979.2, -573583.7, -7661.835, -0.0012462514, 0.009566545, -530613.06, -207148.02 
1.434966e+3, 2.769806e+2, -458637.28, -486560.78, -7863.0254, -0.0028002297, 0.008189894, -456575.38, -230984.55 
1.4348775e+3, 2.8696796e+2, -384049.7, -397525.63, -6781.9067, -0.003200358, 0.008982916, -381227.6, -253512.67 
1.434789e+3, 2.969554e+2, -310586.06, -310947.4, -6857.2046, -0.0029124985, 0.009061458, -303907.16, -274069.38 
1.4347006e+3, 3.069461e+2, -240875.25, -178828.83, -5682.1924, -0.002063361, 0.007459126, -178312.75, -178312.75 
1.4346126e+3, 3.1694016e+2, -265751.94, -188226.4, -5764.3374, -0.00071450014, 0.0041686594, -187800.14, -187800.14 
1.4345245e+3, 3.2694057e+2, -207554.9, -27300.672, -5070.9756, -0.0051539787, 0.010736261, -27158.125, -27158.125 
1.4471321e+3, 3.7393612e+1, -2233945.0, -2576082.3, 4618.416, 0.0028756375, 0.008961691, -2233882.8, 339660.88 
1.4470424e+3, 4.7379088e+1, -2160405.8, -2489319.8, 4875.887, 0.0036946845, 0.010182097, -2160333.5, 315352.47 
1.4469527e+3, 5.7364625e+1, -2089273.4, -2404112.3, 4708.283, 0.0022724576, 0.010520298, -2089202.9, 288624.8 
1.4468627e+3, 6.735039e+1, -2015265.8, -2314360.0, 2990.838, 0.0030940766, 0.010703035, -2015235.9, 264731.38 
1.4467725e+3, 7.733628e+1, -1942705.4, -2228385.8, 2854.6736, 0.002606954, 0.009179347, -1942676.8, 239428.66 
1.4466822e+3, 8.732235e+1, -1868785.6, -2140128.3, 1728.6615, 0.0019520192, 0.00986915, -1868774.6, 215467.34 
1.4465919e+3, 9.7308505e+1, -1795825.4, -2053834.6, 1769.325, 0.002128368, 0.010157599, -1795813.3, 190564.45 
1.4465013e+3, 1.0729478e+2, -1721474.4, -1965893.1, 887.9687, 0.0014592817, 0.009985373, -1721471.1, 167040.89 
1.4464107e+3, 1.1728111e+2, -1647535.5, -1879231.6, 764.2309, 0.00018253287, 0.008169793, -1647533.0, 143113.06 
1.44632e+3, 1.2726757e+2, -1573255.3, -1792027.5, 151.58623, 0.0006996824, 0.009428509, -1573255.1, 119523.67 
1.446229e+3, 1.3725406e+2, -1499097.5, -1705198.4, 199.83174, 0.0021699022, 0.010756203, -1499097.4, 95813.945 
1.4461383e+3, 1.472406e+2, -1424569.3, -1618050.3, -185.65588, 0.001439132, 0.010427073, -1424569.1, 72473.945 
1.4460474e+3, 1.5722714e+2, -1349884.3, -1531010.3, -281.415, -0.00029355695, 0.007835411, -1349883.9, 49291.08 
1.4459564e+3, 1.672138e+2, -1275532.1, -1444249.3, -646.0488, -0.00023787722, 0.008817709, -1275529.6, 25776.125 
1.4458655e+3, 1.7720045e+2, -1201261.1, -1357302.8, -733.8221, 0.0006587925, 0.009741559, -1201257.8, 2178.8276 
1.4457744e+3, 1.8718717e+2, -1126542.0, -1270399.0, -839.7189, 0.00032580787, 0.010045947, -1126537.1, -20970.428 
1.4456835e+3, 1.9717386e+2, -1051558.0, -1183228.1, -864.2902, -0.0005821721, 0.008444485, -1051552.3, -43855.21 
1.4455925e+3, 2.071606e+2, -977111.06, -1096528.6, -775.3955, -0.0004829909, 0.008762344, -977106.0, -67279.125 
1.4455016e+3, 2.1714737e+2, -902608.5, -1009447.94, -823.833, 0.00006135468, 0.008573253, -902602.1, -90645.414 
1.4454107e+3, 2.2713421e+2, -828159.56, -922040.44, -696.90704, -0.00056728424, 0.008931911, -828154.4, -114068.75 
1.4453198e+3, 2.3712108e+2, -753813.8, -835001.1, -925.59906, -0.0019069558, 0.00786044, -753803.25, -137588.86 
1.445229e+3, 2.4710801e+2, -679629.3, -747890.1, -451.43756, -0.0016455331, 0.008810234, -679626.3, -161284.05 
1.4451383e+3, 2.57095e+2, -605520.94, -660754.7, -575.42053, -0.00058854173, 0.0093521755, -605514.94, -185045.13 
1.4450476e+3, 2.670821e+2, -531438.75, -573165.44, 32.94662, -0.001306679, 0.009850993, -531438.75, -208842.28 
1.4449571e+3, 2.770692e+2, -457641.25, -485909.3, 46.24742, -0.0028105073, 0.008696677, -457641.2, -232918.7 
1.4448667e+3, 2.870565e+2, -383484.97, -397201.9, 986.27606, -0.0029600002, 0.009019607, -383414.4, -256567.58 
1.4447765e+3, 2.9704398e+2, -310769.56, -310983.0, 722.4001, -0.0023011095, 0.00831059, -310146.03, -281176.0 
1.4446864e+3, 3.0703464e+2, -241430.56, -179118.63, 1406.7563, -0.001911465, 0.007201316, -179086.88, -179086.88 
1.4445965e+3, 3.1702864e+2, -266355.47, -188213.73, 1219.0505, -0.0013612227, 0.004903285, -188194.73, -188194.73 
1.4445066e+3, 3.2702908e+2, -207875.72, -26416.594, 2013.1669, -0.0053484957, 0.011083164, -26394.262, -26394.262 
1.4571634e+3, 3.7484294e+1, -2234568.0, -2575891.3, -42.1508, -0.001697351, 0.009345066, -2234568.0, 338087.06 
1.4570719e+3, 4.746975e+1, -2161400.5, -2490159.3, -1042.3933, 0.009593843, 0.011552721, -2161397.3, 313400.16 
1.4569803e+3, 5.745521e+1, -2089952.8, -2404808.8, -1175.4847, 0.0012060632, 0.008738758, -2089948.4, 286991.66 
1.4568886e+3, 6.7440957e+1, -2015750.0, -2314917.5, -2542.6353, 0.0016831541, 0.0099499915, -2015728.4, 263351.22 
1.4567968e+3, 7.742685e+1, -1943069.0, -2228799.8, -2658.1143, 0.003280497, 0.010839347, -1943044.4, 238173.61 
1.4567047e+3, 8.741292e+1, -1868843.1, -2139915.0, -3723.027, 0.0019700613, 0.010450184, -1868792.0, 214562.47 
1.4566125e+3, 9.739906e+1, -1795768.0, -2053713.6, -3717.0469, 0.00047674577, 0.008394692, -1795714.4, 189775.77 
1.4565203e+3, 1.0738537e+2, -1721648.9, -1966125.4, -4427.773, 0.0011766803, 0.01044193, -1721568.6, 166055.72 
1.4564282e+3, 1.1737173e+2, -1647604.6, -1879311.9, -4582.6357, 0.0023527464, 0.01253859, -1647514.1, 142244.08 
1.4563356e+3, 1.2735817e+2, -1573110.0, -1791667.9, -5189.1807, 0.0015793709, 0.010913143, -1572986.9, 118904.12 
1.4562431e+3, 1.3734461e+2, -1498917.1, -1704901.1, -5194.032, 0.00033300248, 0.006595418, -1498786.3, 95237.41 
1.4561506e+3, 1.4733121e+2, -1424626.8, -1618145.4, -5485.812, 0.0005760146, 0.008670907, -1424471.3, 71683.85 
1.4560582e+3, 1.5731779e+2, -1349915.6, -1531093.9, -5650.845, 0.0012965734, 0.011632678, -1349739.5, 48547.07 
1.4559656e+3, 1.6730441e+2, -1275569.6, -1444441.5, -6130.5293, 0.00057057873, 0.011017114, -1275347.4, 25070.37 
1.455873e+3, 1.7729102e+2, -1201130.1, -1357373.5, -6209.9033, -0.00065883965, 0.0076609724, -1200883.8, 1665.2921 
1.4557804e+3, 1.8727772e+2, -1126358.9, -1270329.3, -6218.396, -0.00040367397, 0.008770371, -1126090.8, -21411.553 
1.4556877e+3, 1.9726445e+2, -1051405.9, -1183149.4, -6331.549, 0.00040973764, 0.009998405, -1051102.3, -44292.926 
1.4555952e+3, 2.0725122e+2, -976948.44, -1096428.0, -6422.6563, 0.000088103705, 0.010525029, -976604.2, -67665.164 
1.4555027e+3, 2.1723796e+2, -902501.9, -1009505.5, -6531.2344, -0.00063334085, 0.009317067, -902104.7, -91035.734 
1.45541e+3, 2.2722477e+2, -828313.56, -922640.56, -6498.19, -0.00079973467, 0.0096272435, -827868.06, -114669.83 
1.4553174e+3, 2.3721159e+2, -753887.4, -835438.56, -6768.468, -0.0010419366, 0.008865914, -753329.44, -138002.03 
1.455225e+3, 2.471985e+2, -679478.5, -747871.5, -6444.0107, -0.0016228363, 0.0089676995, -678876.6, -161421.13 
1.4551327e+3, 2.571855e+2, -605369.06, -660688.5, -6614.5747, -0.0023288114, 0.008244223, -604589.1, -185005.92 
1.4550404e+3, 2.6717257e+2, -531215.0, -572952.2, -6192.851, -0.0020433255, 0.009071095, -530315.56, -208605.77 
1.4549482e+3, 2.7715972e+2, -457522.38, -485876.5, -6227.5503, -0.0012704947, 0.008951515, -456214.88, -232379.27 
1.4548561e+3, 2.8714702e+2, -383636.38, -397733.16, -5536.7476, -0.0016146094, 0.009430041, -381721.78, -255761.55 
1.454764e+3, 2.971344e+2, -310932.8, -311523.53, -5809.588, -0.002331361, 0.008597933, -305411.06, -277327.22 
1.454672e+3, 3.0712506e+2, -241626.97, -179791.42, -5409.9473, -0.0029705204, 0.010107037, -179321.67, -179321.67 
1.4545804e+3, 3.1711906e+2, -266266.06, -188305.45, -5578.2173, -0.0031540168, 0.011083662, -187908.34, -187908.34 
1.4544888e+3, 3.2711947e+2, -206667.92, -24070.646, -4786.2373, -0.0039749388, 0.008165243, -23945.275, -23945.275 
1.4671946e+3, 3.7577048e+1, -2230290.3, -2573410.0, 6404.9844, -0.0006715109, 0.010422103, -2230170.8, 341575.16 
1.4671014e+3, 4.7562453e+1, -2158742.0, -2489063.3, 4929.257, 0.008859303, 0.010055007, -2158668.3, 315220.63 
1.467008e+3, 5.754789e+1, -2086907.5, -2403246.0, 4853.692, 0.001230235, 0.009634658, -2086833.0, 289198.7 
1.4669144e+3, 6.753365e+1, -2012640.1, -2312532.8, 3965.8655, 0.001570424, 0.010600542, -2012587.8, 265583.6 
1.4668208e+3, 7.751956e+1, -1940595.0, -2226865.0, 4238.2554, 0.002662777, 0.010226593, -1940532.3, 239777.05 
1.4667271e+3, 8.750564e+1, -1866686.4, -2138583.0, 3443.0, 0.001853254, 0.01030996, -1866642.9, 215802.97 
1.4666332e+3, 9.749179e+1, -1793377.8, -2052168.6, 3355.2124, 0.0012367504, 0.009378288, -1793334.3, 191247.23 
1.4665394e+3, 1.0747809e+2, -1719392.9, -1964489.4, 2886.4558, 0.0017152871, 0.010716952, -1719358.9, 167356.81 
1.4664455e+3, 1.1746444e+2, -1645787.8, -1877841.1, 2927.0452, 0.0022628843, 0.011605258, -1645750.9, 143098.67 
1.4663513e+3, 1.2745088e+2, -1571420.0, -1790580.1, 2417.301, 0.0014525917, 0.010748581, -1571393.3, 119589.0 
1.4662573e+3, 1.3743734e+2, -1497110.3, -1703683.1, 2284.4011, 0.00039665788, 0.007784907, -1497085.0, 96030.05 
1.4661631e+3, 1.4742392e+2, -1423000.0, -1617000.6, 2117.747, 0.0005123093, 0.009334218, -1422977.0, 72269.586 
1.4660689e+3, 1.574105e+2, -1348759.6, -1530097.1, 2124.4683, 0.0011320611, 0.011169244, -1348734.8, 48643.285 
1.4659747e+3, 1.6739714e+2, -1274110.9, -1443439.0, 1897.7953, 0.00079891365, 0.010888474, -1274089.5, 25419.51 
1.4658806e+3, 1.7738372e+2, -1198869.4, -1355991.0, 1936.6919, 0.000070596936, 0.0083828885, -1198845.5, 2794.932 
1.4657864e+3, 1.8737042e+2, -1124580.0, -1269372.8, 1871.9182, -0.000042177606, 0.009241792, -1124555.9, -20784.973 
1.465692e+3, 1.973571e+2, -1050259.9, -1182408.9, 1651.4229, 0.000106638596, 0.009971582, -1050239.3, -44337.855 
1.4655979e+3, 2.0734386e+2, -975840.0, -1095632.3, 1534.9207, -0.00023551374, 0.010443726, -975820.3, -67789.12 
1.4655037e+3, 2.1733057e+2, -901268.25, -1008667.1, 1458.4536, -0.0007854631, 0.009240461, -901248.5, -91087.195 
1.4654095e+3, 2.2731736e+2, -826930.06, -921975.75, 1593.7756, -0.0007071938, 0.0098403385, -826903.4, -114612.61 
1.4653154e+3, 2.3730415e+2, -752281.1, -834619.0, 1495.4666, -0.0005421046, 0.009544599, -752254.0, -137833.72 
1.4652213e+3, 2.4729103e+2, -678031.94, -747119.6, 1682.4769, -0.001313618, 0.009381844, -677991.0, -161442.23 
1.4651272e+3, 2.5727797e+2, -604199.4, -660079.1, 1454.3898, -0.002502853, 0.008029351, -604161.56, -185484.75 
1.4650331e+3, 2.6726502e+2, -530214.3, -572485.44, 1608.7247, -0.0022618826, 0.008943852, -530153.1, -209349.44 
1.4649393e+3, 2.7725214e+2, -456497.6, -485338.8, 1327.6499, -0.0012919327, 0.009270612, -456436.6, -233506.72 
1.4648454e+3, 2.872394e+2, -382731.03, -397145.16, 1953.9843, -0.0015635641, 0.009495028, -382470.84, -257416.08 
1.4647517e+3, 2.9722676e+2, -310385.97, -311220.5, 1963.4667, -0.0022381586, 0.008214855, -308795.94, -281617.25 
1.4646578e+3, 3.072174e+2, -241323.72, -179929.84, 2132.9358, -0.0032120158, 0.011111567, -179855.83, -179855.83 
1.4645644e+3, 3.1721136e+2, -265681.25, -188124.27, 1926.5597, -0.0038633142, 0.013918585, -188076.44, -188076.44 
1.4644708e+3, 3.2721174e+2, -206071.98, -22944.262, 1865.0491, -0.0030295965, 0.006871103, -22925.27, -22925.27 
1.477226e+3, 3.7671393e+1, -2231088.0, -2572855.8, 727.726, 0.0025908728, 0.011570988, -2231086.5, 339734.97 
1.4771311e+3, 4.7656754e+1, -2159831.0, -2489922.0, -888.10284, 0.004872324, 0.007650042, -2159828.8, 313136.13 
1.4770357e+3, 5.76422e+1, -2087643.8, -2403673.5, -801.6319, 0.0017594481, 0.011840915, -2087641.8, 287465.88 
1.4769405e+3, 6.7627996e+1, -2012509.5, -2311631.5, -1609.0372, 0.0019787578, 0.011878236, -2012500.9, 264745.88 
1.4768451e+3, 7.761396e+1, -1940417.0, -2226187.3, -1434.2362, 0.0012983714, 0.008557743, -1940409.8, 238974.48 
1.4767496e+3, 8.760006e+1, -1867044.1, -2138957.3, -1980.0798, 0.0016590228, 0.009992899, -1867029.8, 214490.77 
1.4766541e+3, 9.758622e+1, -1793574.9, -2052344.6, -2067.2732, 0.003178082, 0.011880295, -1793558.4, 190097.75 
1.4765584e+3, 1.07572526e+2, -1719257.8, -1964112.4, -2505.047, 0.0025153563, 0.010827324, -1719232.1, 166558.13 
1.4764628e+3, 1.1755887e+2, -1645661.5, -1877617.4, -2504.1482, 0.000733313, 0.0076160063, -1645634.4, 142289.69 
1.4763671e+3, 1.2754534e+2, -1571630.3, -1790937.1, -2881.5469, 0.0007260673, 0.009835372, -1571592.4, 118464.25 
1.4762713e+3, 1.3753183e+2, -1497165.9, -1703818.3, -3040.4065, 0.0015285934, 0.012445833, -1497121.1, 95067.92 
1.4761755e+3, 1.475184e+2, -1422763.8, -1616566.8, -3264.1536, 0.0007817939, 0.01148026, -1422708.8, 71611.89 
1.4760798e+3, 1.5750496e+2, -1348386.3, -1529602.1, -3271.8088, -0.00034337305, 0.00779398, -1348327.1, 48125.24 
1.475984e+3, 1.6749163e+2, -1273910.9, -1443172.5, -3351.896, 0.0005641095, 0.009304521, -1273844.5, 24738.498 
1.4758882e+3, 1.7747827e+2, -1198781.0, -1355901.1, -3429.3882, 0.0021899538, 0.011185775, -1198706.1, 2007.7491 
1.4757924e+3, 1.8746494e+2, -1124741.3, -1269932.3, -3716.522, 0.0010230719, 0.010957414, -1124646.1, -21801.555 
1.4756966e+3, 1.9745155e+2, -1050282.1, -1182784.6, -3931.8242, -0.0013108334, 0.008684324, -1050165.6, -45189.82 
1.4756007e+3, 2.0743829e+2, -975658.5, -1095576.3, -4050.105, -0.0012884659, 0.008929513, -975521.9, -68416.09 
1.475505e+3, 2.1742502e+2, -901064.75, -1008589.94, -4188.8857, -0.00055884774, 0.008535428, -900901.8, -91666.03 
1.4754091e+3, 2.274118e+2, -826804.9, -921982.0, -4133.9507, -0.00047321743, 0.009682468, -826625.7, -115260.44 
1.4753133e+3, 2.373986e+2, -752219.44, -834730.2, -4326.821, -0.00048966904, 0.009961303, -751993.2, -138498.4 
1.4752175e+3, 2.4738546e+2, -678083.4, -747474.0, -4395.366, -0.0007822382, 0.010089296, -677806.1, -162182.64 
1.4751217e+3, 2.5737235e+2, -604307.6, -660547.94, -4668.945, -0.0012689624, 0.008674274, -603922.7, -186170.8 
1.475026e+3, 2.6735935e+2, -530486.6, -573330.7, -4637.765, -0.0021186827, 0.0094976965, -529990.4, -210111.06 
1.4749303e+3, 2.773464e+2, -456640.25, -485878.66, -5002.821, -0.0030556056, 0.009746707, -455807.94, -233801.86 
1.4748347e+3, 2.8733364e+2, -382409.47, -396713.16, -4652.5513, -0.0029293431, 0.009249383, -381029.3, -256898.28 
1.4747392e+3, 2.9732105e+2, -310223.9, -311073.5, -4651.3477, -0.0021507202, 0.00709203, -305978.0, -279723.2 
1.4746436e+3, 3.0731162e+2, -241572.06, -180683.27, -4643.401, -0.0026555415, 0.009954654, -180331.19, -180331.19 
1.4745483e+3, 3.1730554e+2, -265872.5, -188805.98, -4887.3237, -0.0036241033, 0.013054821, -188497.28, -188497.28 
1.4744529e+3, 3.2730588e+2, -206436.27, -23975.11, -5292.53, -0.0029597066, 0.008307753, -23821.72, -23821.72 
1.4872576e+3, 3.776772e+1, -2228290.0, -2571662.3, 6313.494, 0.0057269526, 0.013725806, -2228174.0, 341703.47 
1.4871606e+3, 4.7753114e+1, -2156781.3, -2486409.3, 5095.333, -0.00092936325, 0.0044017117, -2156702.5, 315317.97 
1.4870636e+3, 5.7738733e+1, -2085388.0, -2401053.5, 6091.4595, 0.0031809916, 0.012397403, -2085270.5, 288890.94 
1.4869666e+3, 6.772456e+1, -2011027.9, -2310693.0, 5513.8296, 0.003970438, 0.013089028, -2010926.4, 265374.0 
1.4868693e+3, 7.77105e+1, -1938384.1, -2224757.5, 5292.67, 0.0016346545, 0.009454013, -1938286.3, 240151.9 
1.4867721e+3, 8.769662e+1, -1864880.3, -2136968.3, 5031.368, 0.0013727924, 0.010160866, -1864787.3, 215786.9 
1.486675e+3, 9.7682816e+1, -1791887.4, -2050634.5, 5288.693, 0.0026297441, 0.011215255, -1791779.3, 190930.25 
1.4865775e+3, 1.0766914e+2, -1717847.6, -1962909.4, 5030.8994, 0.0022657574, 0.010766087, -1717744.4, 167099.17 
1.4864802e+3, 1.1765549e+2, -1644147.1, -1876302.1, 4957.6235, 0.00097118155, 0.008607013, -1644041.4, 142935.84 
1.4863828e+3, 1.2764198e+2, -1570076.4, -1789540.5, 4922.088, 0.00088958186, 0.010344573, -1569966.0, 119143.58 
1.4862855e+3, 1.3762848e+2, -1495735.0, -1702469.1, 5053.436, 0.001418536, 0.012047366, -1495611.5, 95630.44 
1.4861882e+3, 1.4761505e+2, -1421077.8, -1615542.9, 4914.7373, 0.0010896373, 0.0113875875, -1420953.6, 72419.91 
1.4860907e+3, 1.5760161e+2, -1346197.4, -1528229.5, 4768.1377, 0.0005482818, 0.008420586, -1346072.6, 49432.754 
1.4859933e+3, 1.6758826e+2, -1272224.4, -1442173.1, 4607.8447, 0.0006083866, 0.009707461, -1272099.5, 25536.63 
1.4858958e+3, 1.7757487e+2, -1197810.1, -1355170.3, 4440.0273, 0.0010592911, 0.011083427, -1197685.0, 2082.2373 
1.4857985e+3, 1.8756154e+2, -1123554.5, -1268969.4, 4368.9053, 0.0005355451, 0.010988545, -1123423.4, -21525.502 
1.4857009e+3, 1.9754815e+2, -1048507.0, -1181622.0, 4483.8105, -0.0004743484, 0.009042456, -1048356.1, -44327.035 
1.4856035e+3, 2.0753485e+2, -973950.2, -1094802.4, 4349.979, -0.00057620904, 0.009356737, -973793.8, -67634.47 
1.4855061e+3, 2.1752155e+2, -899182.3, -1007609.2, 4045.8965, -0.00055709406, 0.008997034, -899031.56, -90741.72 
1.4854085e+3, 2.275083e+2, -825030.25, -920965.8, 3971.0671, -0.00068803737, 0.009771465, -824866.2, -114446.61 
1.4853111e+3, 2.3749505e+2, -750933.9, -834002.5, 3793.7158, -0.00067014835, 0.009573901, -750761.0, -138211.6 
1.4852138e+3, 2.474819e+2, -676793.2, -746927.7, 3673.155, -0.00084885024, 0.010168983, -676601.4, -161922.97 
1.4851163e+3, 2.5746876e+2, -602637.06, -659832.8, 3458.7947, -0.0011752511, 0.009498994, -602428.6, -185621.42 
1.4850187e+3, 2.674557e+2, -528701.5, -572570.75, 3597.253, -0.0020259859, 0.010007339, -528408.5, -209473.4 
1.4849216e+3, 2.7744272e+2, -454813.5, -485081.47, 3435.9116, -0.0030604857, 0.009600765, -454428.38, -233365.95 
1.4848241e+3, 2.8742993e+2, -380821.7, -396034.97, 3300.3337, -0.0029668366, 0.00964644, -380136.56, -256948.86 
1.4847268e+3, 2.9741725e+2, -308971.6, -310568.16, 2908.34, -0.0022232388, 0.008313316, -306753.97, -281442.13 
1.4846294e+3, 3.0740777e+2, -240417.11, -180351.73, 2772.2485, -0.0028647427, 0.009303084, -180224.05, -180224.05 
1.4845322e+3, 3.1740162e+2, -264492.66, -188242.83, 2501.6755, -0.0036058086, 0.010022916, -188160.84, -188160.84 
1.4844349e+3, 3.2740197e+2, -205168.84, -23348.74, 1873.6191, -0.0027442772, 0.010374985, -23329.436, -23329.436 
1.4972891e+3, 3.786563e+1, -2228915.5, -2571506.3, 1251.8458, 0.008679431, 0.01612965, -2228910.8, 340007.13 
1.4971901e+3, 4.7851104e+1, -2156231.0, -2483245.3, -255.02336, -0.0071677845, 0.0011273506, -2156231.0, 314829.34 
1.4970915e+3, 5.7836986e+1, -2084491.9, -2398734.0, 335.60562, 0.004907912, 0.01229592, -2084491.5, 288707.13 
1.4969926e+3, 6.782284e+1, -2011576.3, -2311714.3, 28.13215, 0.0065167304, 0.014370021, -2011576.3, 263761.03 
1.4968936e+3, 7.780873e+1, -1938911.8, -2225323.5, -131.48509, 0.0026758527, 0.011618953, -1938911.6, 238563.95 
1.4967947e+3, 8.7794876e+1, -1864685.8, -2135945.0, -376.18628, 0.00094975805, 0.010553967, -1864685.3, 214926.06 
1.4966957e+3, 9.778112e+1, -1791629.4, -2049876.9, -215.97377, 0.0006662675, 0.008892709, -1791629.1, 190116.94 
1.4965966e+3, 1.0776749e+2, -1718011.4, -1963044.4, -341.46503, 0.0013865021, 0.010818625, -1718010.9, 165868.75 
1.4964977e+3, 1.17753886e+2, -1644092.1, -1876139.3, -411.54288, 0.0021438173, 0.012554483, -1644091.5, 141921.58 
1.4963987e+3, 1.2774038e+2, -1569671.9, -1788711.3, -383.7907, 0.0014831872, 0.011626428, -1569671.3, 118474.0 
1.4962997e+3, 1.377269e+2, -1495377.6, -1701887.3, -314.73465, 0.0004357091, 0.008511715, -1495377.1, 94900.31 
1.4962007e+3, 1.4771348e+2, -1421246.3, -1615863.3, -363.02185, 0.0014000206, 0.010073196, -1421245.6, 71163.26 
1.4961016e+3, 1.5770008e+2, -1346352.6, -1528556.3, -568.4226, 0.002953764, 0.011836496, -1346350.9, 48189.496 
1.4960025e+3, 1.6768667e+2, -1272373.6, -1442491.0, -846.5542, 0.00071276235, 0.011447087, -1272369.4, 24302.188 
1.4959036e+3, 1.7767325e+2, -1197660.1, -1355062.0, -1000.7976, -0.002499559, 0.008884016, -1197653.9, 1149.3796 
1.4958045e+3, 1.8765996e+2, -1123066.4, -1268272.9, -1022.4643, -0.0010890769, 0.009904151, -1123059.3, -22125.73 
1.4957054e+3, 1.9764663e+2, -1048186.1, -1181236.3, -1000.95264, 0.0020285654, 0.010730616, -1048178.6, -45114.582 
1.4956065e+3, 2.0763332e+2, -974218.2, -1095614.3, -1230.3397, 0.0014211393, 0.011328301, -974205.75, -69011.16 
1.4955074e+3, 2.1761994e+2, -899339.8, -1008190.75, -1578.6254, -0.00085155765, 0.010422656, -899316.94, -91991.22 
1.4954083e+3, 2.2760665e+2, -824928.1, -921017.75, -1885.1927, -0.0013303299, 0.010065991, -824891.1, -115435.414 
1.495309e+3, 2.3759338e+2, -750827.1, -834083.6, -2109.9387, -0.0011083842, 0.008519178, -750773.7, -139187.95 
1.49521e+3, 2.475802e+2, -676823.7, -747333.2, -2311.67, -0.0015380919, 0.009753621, -676748.0, -163033.05 
1.4951108e+3, 2.5756705e+2, -602620.75, -660098.8, -2590.428, -0.0023358623, 0.010521297, -602504.2, -186660.27 
1.4950117e+3, 2.67554e+2, -528533.6, -572515.4, -2652.969, -0.0020949724, 0.010486937, -528374.2, -210402.23 
1.4949127e+3, 2.7754095e+2, -454828.38, -485353.03, -2921.04, -0.001317259, 0.00883868, -454551.34, -234451.88 
1.4948134e+3, 2.8752813e+2, -381327.84, -397307.3, -3415.8062, -0.0017349917, 0.0108269155, -380628.3, -258403.06 
1.4947143e+3, 2.9751542e+2, -309397.63, -311644.88, -3811.303, -0.0027015177, 0.012303237, -306547.75, -282197.72 
1.4946152e+3, 3.0750582e+2, -240499.94, -180797.97, -3964.9424, -0.004053915, 0.0092763845, -180535.8, -180535.8 
1.4945163e+3, 3.1749958e+2, -264436.78, -188415.92, -4372.8784, -0.0043554534, 0.004247478, -188165.22, -188165.22 
1.494417e+3, 3.2750005e+2, -204892.83, -22717.023, -5322.251, -0.002731069, 0.01309685, -22561.668, -22561.668 
1.5073207e+3, 3.796629e+1, -2224921.0, -2570858.5, 6740.306, 0.0049205017, 0.013933149, -2224789.8, 343141.84 
1.5072198e+3, 4.7951707e+1, -2156468.8, -2484532.0, 8366.543, 0.00042967626, 0.005883774, -2156255.5, 313818.9 
1.5071192e+3, 5.793741e+1, -2081763.0, -2397815.3, 7282.854, 0.0030443934, 0.012054194, -2081595.3, 290619.3 
1.5070187e+3, 6.792327e+1, -2008594.0, -2309000.0, 6707.6357, 0.004213971, 0.013198078, -2008444.3, 265908.8 
1.5069178e+3, 7.790922e+1, -1937610.9, -2223663.0, 7240.997, 0.0029988703, 0.011136769, -1937427.8, 239063.08 
1.5068172e+3, 8.789539e+1, -1863764.9, -2135172.3, 7320.118, 0.0016807835, 0.010899945, -1863567.6, 215058.69 
1.5067166e+3, 9.788164e+1, -1790305.3, -2048641.6, 7165.057, 0.00093190075, 0.009988441, -1790106.8, 190654.33 
1.5066159e+3, 1.0786803e+2, -1716415.8, -1961422.1, 7281.3545, 0.00142626, 0.0113005545, -1716199.5, 166694.83 
1.5065151e+3, 1.1785445e+2, -1642575.9, -1874613.5, 7491.6475, 0.0021086638, 0.012038233, -1642334.3, 142693.19 
1.5064146e+3, 1.2784097e+2, -1568214.0, -1787582.8, 7580.4063, 0.001630114, 0.011446819, -1567952.4, 119207.29 
1.5063138e+3, 1.3782749e+2, -1493650.0, -1700542.1, 7388.1846, 0.0008766013, 0.009074605, -1493386.5, 95905.305 
1.5062132e+3, 1.4781407e+2, -1419916.9, -1614696.8, 7470.4673, 0.0013018438, 0.01034051, -1419630.8, 71792.32 
1.5061125e+3, 1.5780064e+2, -1345609.0, -1527618.5, 7516.4453, 0.0021334488, 0.011618031, -1345299.1, 48255.527 
1.506012e+3, 1.6778728e+2, -1271096.4, -1441461.6, 7583.806, 0.0006052246, 0.011482371, -1270759.4, 24926.438 
1.5059112e+3, 1.7777383e+2, -1195468.4, -1353632.6, 7632.812, -0.0015518995, 0.009320335, -1195100.9, 2716.6174 
1.5058106e+3, 1.8776052e+2, -1121027.4, -1267280.0, 7349.535, -0.0005173321, 0.010064639, -1120658.9, -20710.895 
1.5057099e+3, 1.9774714e+2, -1046344.06, -1180201.3, 6998.0654, 0.0018352071, 0.010486714, -1045979.2, -43900.26 
1.5056093e+3, 2.0773381e+2, -972428.5, -1094525.4, 6902.274, 0.0011039437, 0.011234446, -972039.56, -67829.91 
1.5055087e+3, 2.1772042e+2, -897740.94, -1007225.9, 6909.715, -0.0008637113, 0.010700225, -897306.6, -90965.67 
1.5054078e+3, 2.277071e+2, -823309.0, -920326.3, 6542.1484, -0.0012785792, 0.0105124945, -822869.8, -114398.53 
1.5053071e+3, 2.3769379e+2, -748703.1, -833117.75, 6216.906, -0.001260182, 0.008906108, -748247.75, -137645.89 
1.5052062e+3, 2.4768057e+2, -674491.7, -746287.0, 5943.6787, -0.0015341883, 0.009919236, -674002.94, -161271.5 
1.5051056e+3, 2.5766736e+2, -600200.6, -658953.0, 5674.1484, -0.0020091836, 0.010576512, -599657.7, -184796.73 
1.5050048e+3, 2.6765424e+2, -526429.94, -571617.6, 5295.473, -0.0019473901, 0.010464138, -525817.7, -208828.3 
1.5049039e+3, 2.7764118e+2, -453143.84, -484653.47, 4865.358, -0.0014466754, 0.008703284, -452409.7, -233292.3 
1.504803e+3, 2.876283e+2, -379312.3, -396460.97, 4451.0737, -0.0016229271, 0.010996481, -378225.84, -256982.23 
1.504702e+3, 2.9761553e+2, -306837.47, -310635.2, 4474.234, -0.0024136335, 0.012953253, -303875.84, -280506.97 
1.5046011e+3, 3.0760586e+2, -238537.34, -180458.44, 4005.5098, -0.004170874, 0.009715394, -180183.48, -180183.48 
1.5045002e+3, 3.175995e+2, -262994.6, -188042.61, 3146.428, -0.004458042, 0.0041862815, -187910.75, -187910.75 
1.5043992e+3, 3.2759997e+2, -202264.45, -20631.414, 1691.0092, -0.0030859758, 0.012898136, -20615.672, -20615.672 
1.5173525e+3, 3.8068837e+1, -2228645.0, -2572945.5, -4549.493, 0.0011194549, 0.010999311, -2228585.0, 338341.66 
1.5172496e+3, 4.805415e+1, -2157121.0, -2487801.8, 2838.2349, 0.013274937, 0.01387858, -2157096.8, 311973.75 
1.5171473e+3, 5.803951e+1, -2084182.4, -2400605.5, 1898.4231, -0.000933342, 0.011602965, -2084171.0, 287042.94 
1.5170448e+3, 6.802539e+1, -2008829.8, -2307738.0, 751.8547, -0.00047554387, 0.010994431, -2008827.9, 264524.5 
1.5169421e+3, 7.8011465e+1, -1937190.8, -2222595.5, 1298.1628, 0.0029492052, 0.00949901, -1937184.8, 238303.97 
1.5168397e+3, 8.7997663e+1, -1864135.1, -2135694.8, 1912.7585, 0.00293633, 0.011364518, -1864121.8, 213502.31 
1.5167373e+3, 9.7983915e+1, -1790543.3, -2048799.3, 1800.9797, 0.002199708, 0.012952694, -1790530.6, 189228.13 
1.516635e+3, 1.0797033e+2, -1716144.8, -1960467.1, 1941.896, 0.0018199562, 0.012021367, -1716129.4, 165762.56 
1.5165326e+3, 1.1795679e+2, -1642346.0, -1874000.9, 2085.6892, 0.0012927286, 0.009028076, -1642327.3, 141697.42 
1.5164302e+3, 1.2794332e+2, -1568510.0, -1788094.6, 2328.4282, 0.0014629978, 0.010627496, -1568485.4, 117671.195 
1.5163282e+3, 1.3792984e+2, -1493772.4, -1700705.3, 2099.0234, 0.0020746132, 0.012278049, -1493751.1, 94537.57 
1.5162258e+3, 1.4791644e+2, -1419669.5, -1614178.8, 2074.9985, 0.0007915446, 0.0116375685, -1419647.4, 70772.55 
1.5161236e+3, 1.5790302e+2, -1345169.5, -1527021.1, 2129.502, -0.0009242391, 0.009059241, -1345144.6, 47406.934 
1.5160212e+3, 1.678897e+2, -1270728.9, -1440929.8, 2372.1472, 0.00037825233, 0.010524121, -1270695.9, 23986.303 
1.5159191e+3, 1.7787631e+2, -1195367.4, -1353560.6, 2311.049, 0.0025254427, 0.011733407, -1195333.6, 1479.5564 
1.5158167e+3, 1.8786293e+2, -1121535.4, -1268380.0, 1864.2249, 0.0014660814, 0.011120454, -1121511.8, -22567.402 
1.5157145e+3, 1.9784947e+2, -1046516.4, -1180722.6, 1508.8909, -0.00059876236, 0.008751922, -1046499.4, -45423.12 
1.5156123e+3, 2.0783614e+2, -972026.44, -1093941.4, 1302.4043, -0.0010325633, 0.009593286, -972012.56, -68805.695 
1.51551e+3, 2.1782279e+2, -897461.6, -1006931.9, 1239.5311, -0.0007138517, 0.010109142, -897447.56, -92109.85 
1.5154076e+3, 2.2780946e+2, -823509.5, -921060.44, 794.7063, -0.00076903286, 0.011154085, -823503.06, -116034.76 
1.5153052e+3, 2.377961e+2, -748815.94, -833681.56, 419.23053, -0.0012332896, 0.010614717, -748813.9, -139214.6 
1.5152028e+3, 2.4778283e+2, -674534.3, -746690.5, -28.847967, -0.00091111154, 0.010604609, -674534.3, -162804.98 
1.5151003e+3, 2.5776955e+2, -600280.2, -659421.6, -394.56357, -0.00035509447, 0.009681853, -600277.56, -186418.25 
1.5149978e+3, 2.677564e+2, -526694.8, -572452.2, -1099.3501, -0.0017717505, 0.009983345, -526668.44, -210680.19 
1.5148953e+3, 2.7774328e+2, -453238.28, -485108.9, -1548.6715, -0.003676582, 0.0092204735, -453163.2, -235046.45 
1.5147924e+3, 2.877304e+2, -378996.5, -396051.25, -2113.2888, -0.0027789015, 0.009982889, -378738.53, -258495.47 
1.5146898e+3, 2.9771763e+2, -306790.97, -310761.3, -2116.72, -0.0013941027, 0.009811838, -305874.2, -283505.84 
1.5145871e+3, 3.077079e+2, -239343.39, -182384.86, -2926.0525, -0.0031760538, 0.010825029, -182234.94, -182234.94 
1.5144844e+3, 3.1770152e+2, -263480.3, -189263.17, -3799.4246, -0.004156519, 0.011144158, -189069.17, -189069.17 
1.5143813e+3, 3.2770184e+2, -201949.6, -19931.031, -5293.569, -0.004081487, 0.008834817, -19777.21, -19777.21 
1.5273836e+3, 3.8172758e+1, -2229515.0, -2571937.5, 5688.106, -0.0061402367, 0.0098306, -2229420.8, 336487.5 
1.5272796e+3, 4.815824e+1, -2147859.8, -2481131.8, 5943.0654, 0.020528102, 0.0127516035, -2147753.8, 320296.63 
1.5271749e+3, 5.814377e+1, -2085096.8, -2399389.3, 7478.841, -0.003049974, 0.011508376, -2084918.9, 285273.38 
1.5270707e+3, 6.812971e+1, -2010421.3, -2307631.0, 8097.366, -0.0025884265, 0.01145653, -2010200.9, 262129.14 
1.5269664e+3, 7.8115827e+1, -1935339.3, -2220598.0, 8172.6885, 0.0037281036, 0.010383042, -1935105.3, 239360.73 
1.5268622e+3, 8.810209e+1, -1862001.5, -2133387.0, 8972.168, 0.0037788174, 0.011476162, -1861705.3, 214895.44 
1.5267582e+3, 9.8088396e+1, -1789590.4, -2047174.4, 9451.717, 0.0022518085, 0.012108016, -1789244.0, 189490.94 
1.5266542e+3, 1.0807484e+2, -1715514.1, -1959721.6, 9824.857, 0.0017046726, 0.012019536, -1715119.5, 165748.19 
1.5265502e+3, 1.18061304e+2, -1641322.6, -1872838.1, 9713.258, 0.001210935, 0.01028089, -1640915.9, 142084.5 
1.5264462e+3, 1.2804787e+2, -1567482.9, -1786682.9, 10291.744, 0.0014442059, 0.011243371, -1567000.8, 118131.32 
1.5263423e+3, 1.380344e+2, -1492998.9, -1699546.6, 10479.819, 0.0021345608, 0.011883699, -1492468.5, 94795.414 
1.5262385e+3, 1.4802103e+2, -1418404.8, -1613150.9, 10601.173, 0.00096438924, 0.011787724, -1417829.4, 71565.76 
1.5261345e+3, 1.5800759e+2, -1342872.5, -1525424.6, 10518.155, -0.0006772231, 0.009957812, -1342268.5, 49258.168 
1.5260306e+3, 1.6799425e+2, -1268760.6, -1439694.5, 10621.024, 0.0005906476, 0.010780448, -1268103.3, 25554.146 
1.5259269e+3, 1.7798087e+2, -1194082.9, -1352581.5, 10402.547, 0.0028500254, 0.011167196, -1193403.0, 2385.624 
1.525823e+3, 1.8796746e+2, -1120175.4, -1267460.3, 10293.44, 0.001396538, 0.011134397, -1119459.4, -21539.545 
1.5257192e+3, 1.97954e+2, -1044760.0, -1179613.6, 10404.139, -0.0013627226, 0.009708979, -1043962.06, -43910.156 
1.5256153e+3, 2.0794064e+2, -970036.7, -1092999.5, 9999.413, -0.0014568561, 0.010272142, -969228.8, -67046.02 
1.5255113e+3, 2.1792723e+2, -895011.25, -1005717.25, 9591.21, -0.0004076862, 0.010136017, -894186.44, -89872.305 
1.5254073e+3, 2.2791389e+2, -820960.2, -919882.0, 9138.613, -0.000305553, 0.011205282, -820123.0, -113677.94 
1.5253033e+3, 2.3790047e+2, -746258.75, -832420.06, 8951.273, -0.00077432557, 0.0109594455, -745338.6, -136762.14 
1.5251993e+3, 2.4788715e+2, -672157.25, -745716.8, 8424.645, -0.0008738302, 0.011030395, -671204.7, -160497.69 
1.5250953e+3, 2.5787383e+2, -598042.94, -658497.5, 8029.1206, -0.0007096338, 0.01005966, -596994.75, -184157.2 
1.5249908e+3, 2.6786062e+2, -524291.2, -571430.94, 7308.538, -0.001929824, 0.010623533, -523184.1, -208217.16 
1.5248866e+3, 2.7784747e+2, -450495.5, -483936.13, 7074.221, -0.003615728, 0.010219305, -449060.53, -231964.58 
1.5247822e+3, 2.878345e+2, -376054.4, -394938.56, 6022.359, -0.0028049739, 0.010246651, -374297.3, -255074.34 
1.5246777e+3, 2.978216e+2, -303634.97, -309579.44, 5432.255, -0.0016104415, 0.009072481, -300414.97, -279065.97 
1.5245731e+3, 3.078119e+2, -236481.78, -181512.03, 4411.39, -0.0029371593, 0.011489228, -181160.27, -181160.27 
1.5244685e+3, 3.1780538e+2, -260710.36, -188208.81, 3970.438, -0.002994782, 0.01382099, -187992.03, -187992.03 
1.5243636e+3, 3.2780564e+2, -198855.31, -18597.822, 1802.4716, -0.0052483487, 0.00846719, -18579.799, -18579.799 
1.5374151e+3, 3.8278022e+1, -2226950.8, -2566268.8, 11652.932, -0.010307498, 0.008964811, -2226551.3, 338325.34 
1.5373099e+3, 4.82638e+1, -2150481.0, -2478055.0, -1774.0497, 0.02275513, 0.008338778, -2150471.3, 316544.56 
1.5372026e+3, 5.824971e+1, -2083188.5, -2395469.8, 488.54504, -0.0040414003, 0.0116502885, -2083187.8, 285966.22 
1.5370965e+3, 6.8235755e+1, -2009944.9, -2307466.8, 3390.9453, -0.0031662607, 0.013109504, -2009906.3, 261384.55 
1.5369909e+3, 7.8221893e+1, -1935745.3, -2220358.8, 3162.5938, 0.0046263174, 0.012481433, -1935710.1, 237716.56 
1.5368849e+3, 8.820823e+1, -1861792.1, -2131749.5, 3380.7495, 0.00416579, 0.011431701, -1861749.9, 213810.69 
1.536779e+3, 9.8194635e+1, -1789147.3, -2046029.5, 3834.0522, 0.0015653316, 0.009401427, -1789090.0, 188603.75 
1.5366732e+3, 1.0818112e+2, -1715860.4, -1960128.8, 4566.653, 0.0012639519, 0.011843737, -1715775.1, 164051.14 
1.5365677e+3, 1.181676e+2, -1641343.3, -1872709.1, 4468.836, 0.0014206057, 0.01399338, -1641257.0, 140701.73 
1.536462e+3, 1.281542e+2, -1566945.6, -1785429.4, 4998.8735, 0.0014196354, 0.012704481, -1566831.4, 117258.64 
1.5363565e+3, 1.381408e+2, -1492535.3, -1698655.1, 5141.663, 0.0014270707, 0.0093485825, -1492407.1, 93814.266 
1.536251e+3, 1.4812744e+2, -1418508.6, -1613355.0, 5451.7573, 0.0015318677, 0.01137411, -1418356.3, 69995.97 
1.5361457e+3, 1.5811405e+2, -1342989.6, -1525660.5, 5282.101, 0.0016367285, 0.01321875, -1342837.0, 47646.527 
1.5360402e+3, 1.6810064e+2, -1268978.8, -1440140.0, 5213.383, 0.0009474696, 0.011882779, -1268820.1, 23794.605 
1.5359347e+3, 1.7808719e+2, -1193953.9, -1352518.9, 4989.8335, 0.00041033453, 0.008610525, -1193797.0, 949.5789 
1.5358292e+3, 1.8807386e+2, -1119678.8, -1266657.4, 4917.8286, -0.00015161275, 0.010601674, -1119514.4, -22637.104 
1.5357238e+3, 1.9806047e+2, -1044513.3, -1179317.1, 4964.64, -0.000884528, 0.012816405, -1044330.75, -45322.18 
1.5356183e+3, 2.0804706e+2, -970465.3, -1094091.5, 4466.75, -0.00061329326, 0.012813478, -970304.1, -69164.2 
1.5355128e+3, 2.1803355e+2, -895225.5, -1006429.2, 4025.786, -0.00007935349, 0.010692653, -895079.94, -91807.75 
1.5354072e+3, 2.2802018e+2, -820848.56, -919953.4, 3391.302, 0.00007110215, 0.010776645, -820732.7, -115329.19 
1.5353017e+3, 2.3800674e+2, -746198.9, -832604.9, 3137.66, -0.000027020378, 0.010151807, -746085.06, -138550.0 
1.5351959e+3, 2.479934e+2, -672290.3, -746322.2, 2392.641, -0.0014925061, 0.011309689, -672213.06, -162547.23 
1.53509e+3, 2.5798005e+2, -598069.25, -658883.9, 1927.3362, -0.0031311417, 0.011691385, -598008.2, -186211.47 
1.5349841e+3, 2.6796684e+2, -524222.53, -571586.8, 1006.6778, -0.002471532, 0.012367331, -524201.13, -210274.81 
1.534878e+3, 2.7795365e+2, -450641.3, -484512.88, 746.59766, -0.0012132769, 0.011696005, -450624.88, -234569.33 
1.5347719e+3, 2.8794056e+2, -376876.63, -396901.94, -466.59888, -0.0017843749, 0.011881877, -376865.75, -258682.19 
1.5346657e+3, 2.979276e+2, -304211.66, -310986.6, -1152.4216, -0.0035002069, 0.010978659, -304021.0, -283710.1 
1.5345593e+3, 3.0791774e+2, -236381.55, -181553.17, -2605.1833, -0.003669514, 0.011417769, -181429.67, -181429.67 
1.5344529e+3, 3.1791124e+2, -260879.53, -188770.55, -2947.5264, -0.0011346936, 0.011054576, -188650.27, -188650.27 
1.5343459e+3, 3.2791144e+2, -199539.47, -20258.15, -5124.2285, -0.0068833856, 0.013030646, -20111.809, -20111.809 
1.547447e+3, 3.838607e+1, -2221401.5, -2564100.8, 10357.601, 0.019007241, 0.011899538, -2221088.8, 342728.94 
1.5473387e+3, 4.8371947e+1, -2162357.0, -2481736.8, 7842.0303, -0.019615576, 0.010810163, -2162164.5, 303791.63 
1.5472306e+3, 5.8357984e+1, -2078685.9, -2391541.3, 8721.975, 0.009223781, 0.011500634, -2078443.0, 289649.97 
1.5471227e+3, 6.8344086e+1, -2006320.1, -2304763.5, 10488.51, 0.009326985, 0.01241854, -2005951.9, 264277.22 
1.5470149e+3, 7.833025e+1, -1937063.5, -2219997.3, 10677.1045, 0.000578032, 0.012081841, -1936661.1, 235703.64 
1.5469073e+3, 8.831664e+1, -1862834.9, -2131366.3, 11266.076, 0.00023721912, 0.011979188, -1862363.1, 212135.1 
1.5467998e+3, 9.8303086e+1, -1788239.4, -2044537.6, 11340.272, 0.002449211, 0.010854664, -1787738.6, 188892.38 
1.5466924e+3, 1.08289614e+2, -1714618.4, -1958386.6, 12429.431, 0.0025257387, 0.012004276, -1713986.3, 164776.73 
1.5465851e+3, 1.18276134e+2, -1640451.0, -1871256.1, 12802.266, 0.0017963117, 0.012565429, -1639743.1, 141152.05 
1.546478e+3, 1.2826276e+2, -1566120.0, -1784494.6, 13346.73, 0.0014028373, 0.012331105, -1565307.3, 117718.875 
1.5463707e+3, 1.3824935e+2, -1491214.1, -1697307.8, 13184.335, 0.0011374846, 0.010504647, -1490374.1, 94783.3 
1.5462637e+3, 1.4823602e+2, -1417324.8, -1612165.1, 13699.254, 0.0014134315, 0.011610862, -1416366.3, 70921.836 
1.5461566e+3, 1.5822262e+2, -1342223.9, -1524658.9, 13759.324, 0.001903257, 0.012122067, -1341192.0, 48227.58 
1.5460496e+3, 1.6820922e+2, -1267729.3, -1439230.6, 13938.461, 0.0008906521, 0.011779056, -1266603.8, 24946.898 
1.5459426e+3, 1.7819577e+2, -1191763.1, -1351075.0, 13870.641, -0.00019309612, 0.009960101, -1190564.5, 3118.139 
1.5458356e+3, 1.881824e+2, -1117378.4, -1265375.0, 13533.923, -0.0002481363, 0.011251296, -1116150.9, -20337.428 
1.5457284e+3, 1.9816898e+2, -1042329.75, -1178052.4, 13291.789, -0.00002903047, 0.012217373, -1041040.3, -43095.17 
1.5456215e+3, 2.0815554e+2, -968181.44, -1092927.0, 13000.408, -0.000017771514, 0.012455696, -966841.0, -66764.234 
1.5455145e+3, 2.1814202e+2, -892645.75, -1005097.6, 12886.835, -0.00022332725, 0.010990263, -891187.8, -88978.43 
1.5454072e+3, 2.2812858e+2, -818324.25, -918810.56, 12103.537, -0.00042955508, 0.011210943, -816886.94, -112545.91 
1.5452999e+3, 2.381151e+2, -743698.4, -831465.0, 11728.539, -0.00064934604, 0.010680518, -742158.1, -135684.98 
1.5451925e+3, 2.4810171e+2, -669604.06, -745216.1, 10916.394, -0.0017004758, 0.01184242, -668059.56, -159455.17 
1.545085e+3, 2.580883e+2, -594975.75, -657522.1, 10517.711, -0.00289118, 0.0120905815, -593254.5, -182518.66 
1.5449774e+3, 2.6807502e+2, -520695.56, -570224.06, 9288.198, -0.0021252157, 0.012521529, -519011.03, -206144.94 
1.5448697e+3, 2.7806175e+2, -446675.47, -482940.94, 8754.639, -0.0007390646, 0.01169843, -444672.66, -229676.64 
1.5447617e+3, 2.8804862e+2, -373370.38, -395720.34, 7665.7817, -0.0018645581, 0.012809695, -370993.8, -253869.08 
1.5446538e+3, 2.9803556e+2, -301255.78, -310037.44, 7399.1772, -0.0043832073, 0.012944035, -297042.7, -277789.84 
1.5445456e+3, 3.080256e+2, -233169.14, -180541.63, 5332.2715, -0.004071062, 0.011909495, -180006.8, -180006.8 
1.5444373e+3, 3.1801897e+2, -257008.39, -187324.55, 4495.169, -0.00032969323, 0.009413973, -187035.78, -187035.78 
1.5443285e+3, 3.2801917e+2, -195016.77, -18412.133, 2176.5967, -0.0070113735, 0.014902296, -18385.31, -18385.31 
1.557479e+3, 3.849607e+1, -2225901.8, -2565830.5, -11515.383, 0.05232532, 0.016672546, -2225512.3, 337227.63 
1.557367e+3, 4.8481965e+1, -2158249.5, -2478675.5, 6015.282, -0.07480247, 0.015598292, -2158136.5, 306741.56 
1.5572587e+3, 5.846802e+1, -2079286.9, -2390864.5, 4768.7656, 0.027750649, 0.011223973, -2079213.9, 287800.8 
1.557149e+3, 6.845417e+1, -2007025.1, -2304465.3, 3918.9834, 0.025798947, 0.01085362, -2006973.5, 262176.9 
1.5570389e+3, 7.844039e+1, -1936729.5, -2219408.5, 4626.235, -0.0057940874, 0.010555486, -1936653.8, 234631.6 
1.5569296e+3, 8.8426816e+1, -1862933.5, -2131425.8, 6271.0015, -0.005422899, 0.012914094, -1862787.1, 210631.31 
1.5568206e+3, 9.8413295e+1, -1788265.0, -2044112.6, 6208.406, 0.0039504273, 0.014436935, -1788114.4, 187436.56 
1.5567115e+3, 1.0839988e+2, -1714144.1, -1956879.0, 7100.8433, 0.0044692196, 0.0123199355, -1713936.6, 163745.77 
1.5566026e+3, 1.1838647e+2, -1640154.3, -1870330.4, 7403.11, 0.002108421, 0.008375659, -1639916.4, 139897.42 
1.5564936e+3, 1.2837313e+2, -1566495.6, -1784994.9, 8141.055, 0.001291391, 0.011131965, -1566192.6, 115751.82 
1.556385e+3, 1.3835976e+2, -1491233.1, -1697332.6, 7971.849, 0.0009818283, 0.014016903, -1490925.3, 93150.305 
1.5562762e+3, 1.4834642e+2, -1417020.3, -1611500.0, 8442.986, 0.0007474776, 0.012290212, -1416654.4, 69551.96 
1.5561676e+3, 1.58333e+2, -1341843.3, -1523999.8, 8495.763, 0.00073194527, 0.008326429, -1341447.9, 46889.867 
1.5560591e+3, 1.6831969e+2, -1267608.4, -1438993.0, 8746.747, 0.00054400176, 0.011116809, -1267163.1, 23305.148 
1.5559505e+3, 1.7830628e+2, -1191802.8, -1351159.1, 8584.287, 0.00039637947, 0.014150996, -1191341.6, 1258.0154 
1.5558419e+3, 1.8829285e+2, -1117765.6, -1266276.8, 8081.2217, 0.00058088894, 0.012738273, -1117327.1, -22595.889 
1.5557332e+3, 1.982793e+2, -1042379.56, -1178427.5, 7863.675, 0.00096954044, 0.008881131, -1041926.56, -45062.68 
1.5556246e+3, 2.0826589e+2, -967910.4, -1092634.6, 7544.225, 0.00028342058, 0.010020972, -967455.7, -68460.234 
1.555516e+3, 2.1825239e+2, -892517.5, -1005041.3, 7321.6636, -0.0008536306, 0.011232137, -892043.1, -90915.414 
1.5554072e+3, 2.2823894e+2, -818598.2, -919615.3, 6301.62, -0.0017919248, 0.012493205, -818206.6, -114946.984 
1.5552983e+3, 2.382254e+2, -743837.8, -832070.5, 5906.33, -0.002577239, 0.012440676, -743444.2, -138051.94 
1.5551892e+3, 2.4821196e+2, -669642.1, -745637.56, 4969.7134, -0.0015139774, 0.012569694, -669318.5, -161794.52 
1.5550801e+3, 2.581985e+2, -595132.0, -658188.3, 4528.5234, -0.0002263379, 0.011251854, -594808.44, -185152.48 
1.5549709e+3, 2.681851e+2, -521165.72, -571541.56, 3103.3906, -0.0011393802, 0.011047049, -520975.25, -209188.22 
1.5548615e+3, 2.7817175e+2, -446928.25, -483787.94, 2447.5308, -0.0025004467, 0.010096803, -446766.44, -232848.5 
1.5547517e+3, 2.8815863e+2, -373192.4, -395626.75, 1035.7047, -0.0031711701, 0.01284626, -373144.72, -257098.02 
1.554642e+3, 2.9814556e+2, -301460.38, -310634.6, 771.91113, -0.0042343657, 0.014896418, -301395.88, -283221.2 
1.5545319e+3, 3.081355e+2, -234224.95, -182920.36, -1439.9814, -0.004361357, 0.012924515, -182879.97, -182879.97 
1.5544218e+3, 3.181287e+2, -257529.11, -188731.19, -2235.6272, -0.0015905774, 0.008742118, -188658.63, -188658.63 
1.5543112e+3, 3.2812884e+2, -194778.14, -18165.055, -4575.839, -0.005428482, 0.013215083, -18046.58, -18046.58 
1.5675096e+3, 3.8608983e+1, -2228361.5, -2567151.5, 2294.3496, -0.012958573, 0.015387517, -2228345.8, 333287.44 
1.5673976e+3, 4.8594546e+1, -2147757.8, -2478472.0, 13946.544, 0.016460652, 0.011546928, -2147170.8, 316604.0 
1.5672861e+3, 5.8580226e+1, -2082940.5, -2395068.8, 10911.546, -0.000010375098, 0.012330459, -2082559.5, 283355.53 
1.5671745e+3, 6.8566406e+1, -2008558.5, -2303030.3, 10597.226, 0.0012339845, 0.012340164, -2008177.6, 259872.75 
1.5670632e+3, 7.855276e+1, -1934853.3, -2216645.5, 11807.68, 0.0032744443, 0.011116096, -1934359.4, 235824.88 
1.5669522e+3, 8.8539225e+1, -1861909.1, -2130142.3, 13998.913, 0.0024827372, 0.012406146, -1861180.5, 211136.36 
1.5668413e+3, 9.852572e+1, -1788590.5, -2043245.5, 14143.67, 0.0019140799, 0.013064284, -1787807.4, 186641.83 
1.5667306e+3, 1.08512364e+2, -1714555.9, -1956043.8, 15062.383, 0.002028296, 0.012340344, -1713620.0, 162960.1 
1.56662e+3, 1.1849901e+2, -1640217.8, -1869244.5, 15207.691, 0.0018055011, 0.010103973, -1639212.4, 139498.58 
1.5665095e+3, 1.2848571e+2, -1565960.5, -1783918.8, 16443.77, 0.001568927, 0.011855838, -1564726.9, 116114.45 
1.5663992e+3, 1.3847233e+2, -1490101.3, -1695959.5, 16601.152, 0.0015049442, 0.013303583, -1488771.0, 94201.25 
1.5662889e+3, 1.4845902e+2, -1415565.6, -1610343.1, 17090.904, 0.0011716468, 0.012223468, -1414077.4, 71025.54 
1.5661786e+3, 1.5844561e+2, -1339957.1, -1522528.1, 17020.787, 0.0009154844, 0.00936334, -1338383.9, 48850.285 
1.5660685e+3, 1.6843228e+2, -1266145.3, -1437899.6, 17252.99, 0.0006288275, 0.011595879, -1264429.3, 24935.555 
1.5659586e+3, 1.7841886e+2, -1190676.0, -1350181.4, 17126.059, 0.00034826226, 0.013671088, -1188858.0, 2638.4666 
1.5658484e+3, 1.8840541e+2, -1115838.6, -1265169.0, 16919.248, 0.00040213225, 0.012691376, -1113945.6, -20317.531 
1.5657382e+3, 1.9839185e+2, -1039297.94, -1176760.0, 16942.697, 0.0006897653, 0.009560046, -1037240.44, -41479.477 
1.5656279e+3, 2.0837839e+2, -965192.56, -1091396.3, 16297.576, 0.000025789048, 0.010642256, -963121.94, -65228.984 
1.5655176e+3, 2.1836485e+2, -890386.94, -1003976.94, 15855.695, -0.0010167713, 0.0117097795, -888215.25, -88189.555 
1.5654072e+3, 2.2835135e+2, -815882.3, -918369.56, 14895.259, -0.0017263023, 0.012789733, -813761.4, -111603.33 
1.5652968e+3, 2.3833777e+2, -740199.56, -830376.9, 14669.492, -0.0022133903, 0.012470586, -737873.25, -133582.11 
1.5651861e+3, 2.4832426e+2, -665859.2, -744121.56, 13528.439, -0.0013472686, 0.012680094, -663586.7, -157163.2 
1.5650754e+3, 2.5831074e+2, -591248.4, -656655.94, 12946.325, -0.00036553747, 0.011591522, -588779.1, -180222.97 
1.5649644e+3, 2.6829728e+2, -517663.38, -570393.8, 11469.502, -0.0015109383, 0.01171953, -515276.63, -204588.63 
1.5648533e+3, 2.782838e+2, -443587.9, -482553.16, 10934.601, -0.0031058541, 0.011027746, -440729.13, -227909.36 
1.5647419e+3, 2.882706e+2, -368961.56, -393757.28, 9090.23, -0.0032718312, 0.012761443, -365986.1, -251036.86 
1.5646303e+3, 2.9825747e+2, -296489.66, -308741.53, 8432.865, -0.003593984, 0.013664268, -292192.53, -275114.56 
1.5645184e+3, 3.0824733e+2, -229731.55, -182016.69, 5960.9976, -0.004287328, 0.013489764, -181283.25, -181283.25 
1.5644063e+3, 3.1824034e+2, -253011.06, -187345.61, 5247.3296, -0.0022964093, 0.011450409, -186928.94, -186928.94 
1.564294e+3, 3.2824042e+2, -189961.7, -15756.38, 2428.6772, -0.004591889, 0.012042799, -15722.527, -15722.527 
1.5775403e+3, 3.8723716e+1, -2229912.0, -2564881.3, 4743.5605, -0.08007334, 0.010953874, -2229844.8, 330663.94 
1.577429e+3, 4.870889e+1, -2154604.3, -2488299.8, 3705.4377, 0.1528984, 0.004552269, -2154563.0, 308091.0 
1.5773132e+3, 5.869411e+1, -2087529.5, -2400519.0, 3729.8955, -0.047900528, 0.014116152, -2087485.0, 277313.88 
1.5772e+3, 6.8680346e+1, -2008669.3, -2300893.0, 5534.0146, -0.038541924, 0.015117314, -2008564.5, 258369.33 
1.5770873e+3, 7.866687e+1, -1934371.8, -2214837.0, 6304.4424, 0.019377014, 0.012633707, -1934230.1, 234835.88 
1.5769745e+3, 8.86534e+1, -1862018.1, -2129556.3, 8385.059, 0.015885727, 0.011246559, -1861755.6, 209442.38 
1.5768619e+3, 9.8639923e+1, -1788663.6, -2042745.5, 8662.524, -0.002199338, 0.009353732, -1788368.6, 184961.39 
1.5767495e+3, 1.0862664e+2, -1714683.9, -1955870.4, 9850.594, -0.0026104979, 0.012466713, -1714282.3, 161178.0 
1.5766373e+3, 1.1861335e+2, -1639836.3, -1868537.5, 10063.315, 0.0010930664, 0.015135875, -1639394.3, 138196.16 
1.5765253e+3, 1.2860008e+2, -1565498.0, -1782800.8, 11440.828, 0.0019398374, 0.013638657, -1564897.4, 114823.09 
1.5764135e+3, 1.3858674e+2, -1489872.3, -1695231.8, 11471.371, 0.0022951264, 0.010163953, -1489233.5, 92617.65 
1.5763016e+3, 1.4857347e+2, -1415785.9, -1610540.4, 11915.477, 0.002153461, 0.011938281, -1415059.6, 68921.64 
1.5761898e+3, 1.585601e+2, -1340025.4, -1522598.1, 11776.703, 0.0017998078, 0.013622906, -1339268.9, 46843.402 
1.5760781e+3, 1.6854674e+2, -1266151.8, -1437984.0, 11945.831, 0.0008931763, 0.012839592, -1265325.3, 22917.941 
1.5759665e+3, 1.7853326e+2, -1190417.5, -1349967.9, 11901.081, -0.0002284054, 0.010074812, -1189534.8, 840.6068 
1.5758547e+3, 1.8851985e+2, -1115609.3, -1264870.0, 11783.763, -0.0005841667, 0.011835359, -1114684.6, -22178.047 
1.5757431e+3, 1.9850637e+2, -1039334.75, -1176877.0, 11617.665, -0.00061035185, 0.013461141, -1038360.4, -43721.445 
1.5756314e+3, 2.0849283e+2, -965679.06, -1092496.4, 10593.399, -0.0006633053, 0.013711238, -964800.25, -68028.75 
1.5755194e+3, 2.1847919e+2, -890531.75, -1004577.4, 10262.547, -0.00087650854, 0.012408242, -889615.6, -90710.44 
1.5754075e+3, 2.2846565e+2, -815793.4, -918497.7, 9341.199, -0.0004933668, 0.012304846, -814950.7, -113912.82 
1.5752955e+3, 2.3845205e+2, -740215.56, -830722.6, 9009.127, 0.000102274, 0.011011067, -739327.5, -136156.3 
1.5751831e+3, 2.4843848e+2, -666252.8, -745274.9, 7598.5444, -0.0013632308, 0.012310143, -665528.8, -160224.72 
1.5750706e+3, 2.5842488e+2, -591527.44, -657577.5, 6934.096, -0.003375091, 0.013096411, -590807.3, -183369.88 
1.574958e+3, 2.6841137e+2, -517874.88, -571160.2, 5200.2236, -0.003253806, 0.014526496, -517372.13, -207802.36 
1.5748452e+3, 2.783979e+2, -443898.8, -483482.97, 4684.704, -0.0025539096, 0.014530162, -443351.94, -231649.88 
1.574732e+3, 2.8838456e+2, -369459.94, -395058.3, 2732.8604, -0.0021844076, 0.01223346, -369171.44, -255338.67 
1.5746188e+3, 2.983713e+2, -297072.06, -310190.34, 1941.749, -0.0026659975, 0.008465055, -296790.7, -280827.84 
1.5745051e+3, 3.0836102e+2, -230430.13, -183800.1, -845.6477, -0.0039411956, 0.013491873, -183784.77, -183784.77 
1.5743913e+3, 3.1835404e+2, -253469.69, -188730.14, -1515.412, -0.0026377875, 0.01834157, -188694.69, -188694.69 
1.574277e+3, 3.2835394e+2, -190133.63, -16292.148, -4435.657, -0.0052377516, 0.010232408, -16179.044, -16179.044 
1.587572e+3, 3.88378e+1, -2231833.0, -2565221.8, 10871.471, 0.0021409635, 0.011026301, -2231478.8, 327912.0 
1.5874572e+3, 4.8823833e+1, -2151872.8, -2474143.3, 759.6168, 0.034694094, 0.005687463, -2151870.8, 309656.8 
1.5873408e+3, 5.881008e+1, -2089034.8, -2393232.8, 8795.425, -0.010423329, 0.014510177, -2088780.8, 274881.75 
1.5872258e+3, 6.879651e+1, -2013400.9, -2302938.8, 13819.447, -0.00743053, 0.014906778, -2012742.9, 253052.67 
1.5871114e+3, 7.878301e+1, -1935954.9, -2214355.3, 13411.021, 0.0074634743, 0.01207704, -1935310.3, 232617.47 
1.5869968e+3, 8.876969e+1, -1862313.8, -2127439.3, 15293.678, 0.0061602313, 0.012069012, -1861434.5, 208623.83 
1.5868825e+3, 9.875638e+1, -1789330.0, -2041123.9, 16306.038, 0.0006621568, 0.011683889, -1788278.4, 183910.31 
1.5867685e+3, 1.08743146e+2, -1714837.3, -1955033.4, 18252.734, 0.00071206567, 0.013150848, -1713458.1, 160860.31 
1.5866546e+3, 1.1872988e+2, -1638755.6, -1866987.9, 18558.924, 0.0019516723, 0.013742243, -1637256.4, 139192.11 
1.5865411e+3, 1.2871666e+2, -1564921.1, -1781769.4, 19849.51, 0.0017700006, 0.01295898, -1563119.3, 115458.87 
1.5864275e+3, 1.3870336e+2, -1489989.6, -1694346.1, 19806.408, 0.0014664499, 0.010738904, -1488087.6, 92620.7 
1.5863141e+3, 1.4869009e+2, -1415612.6, -1609759.3, 20589.479, 0.0013789826, 0.012658425, -1413453.0, 69385.23 
1.5862009e+3, 1.5867674e+2, -1339083.6, -1521446.0, 20668.533, 0.0013005554, 0.014205655, -1336770.4, 48198.766 
1.5860878e+3, 1.6866338e+2, -1264060.3, -1436661.6, 20992.521, 0.0009755192, 0.013150989, -1261543.8, 25556.451 
1.5859745e+3, 1.7864987e+2, -1187193.6, -1348036.1, 20971.072, 0.0005672763, 0.010101186, -1184504.3, 4728.2036 
1.5858613e+3, 1.8863644e+2, -1113247.1, -1263642.9, 20599.94, -0.00016001539, 0.011823612, -1110476.5, -19112.473 
1.585748e+3, 1.9862291e+2, -1037940.2, -1176006.9, 20283.768, -0.00092376315, 0.0136376545, -1035021.94, -41525.145 
1.5856348e+3, 2.0860934e+2, -963135.8, -1091243.6, 19464.133, -0.0009172002, 0.0140364, -960243.8, -64614.14 
1.5855213e+3, 2.1859567e+2, -886329.56, -1002554.94, 19446.238, -0.00076513033, 0.012755922, -883162.25, -85398.53 
1.5854077e+3, 2.2858205e+2, -811854.3, -917001.6, 18218.754, -0.00039395358, 0.012601651, -808787.06, -108889.97 
1.585294e+3, 2.3856838e+2, -736679.5, -829319.44, 17573.703, -0.000005243377, 0.011211779, -733457.9, -131426.67 
1.5851802e+3, 2.4855474e+2, -662702.6, -743957.2, 16047.399, -0.0016157646, 0.012443606, -659648.2, -155483.39 
1.5850662e+3, 2.5854105e+2, -587645.4, -656013.1, 15512.985, -0.0036570516, 0.01328265, -584290.06, -177991.17 
1.5849517e+3, 2.685275e+2, -513162.16, -569261.4, 13637.985, -0.0033541694, 0.014629873, -510022.4, -201590.45 
1.5848373e+3, 2.785139e+2, -438342.72, -481293.2, 13046.049, -0.0023405454, 0.014547017, -434690.6, -224125.55 
1.5847225e+3, 2.8850046e+2, -364413.0, -393438.4, 10817.719, -0.0019444847, 0.0127445655, -360824.8, -248128.11 
1.5846074e+3, 2.9848707e+2, -292528.6, -308851.66, 9912.522, -0.0025332912, 0.009302872, -287850.0, -273022.06 
1.5844919e+3, 3.084767e+2, -225128.48, -182267.69, 6887.06, -0.0041006985, 0.013424045, -181188.23, -181188.23 
1.5843764e+3, 3.1846955e+2, -247144.0, -186527.58, 6049.3184, -0.0028614644, 0.017847013, -185929.78, -185929.78 
1.5842602e+3, 3.2846937e+2, -184473.16, -14227.451, 2366.0095, -0.004587554, 0.011001458, -14194.575, -14194.575 
1.5976039e+3, 3.895264e+1, -2228086.5, -2559242.8, 20664.734, 0.099821076, 0.012855631, -2226802.0, 331463.5 
1.5974846e+3, 4.8939952e+1, -2147644.3, -2452366.3, -3203.865, -0.17103593, 0.010791021, -2147610.5, 312779.28 
1.5973686e+3, 5.8927727e+1, -2078684.1, -2376364.0, 2770.513, 0.06343143, 0.01400049, -2078658.4, 283851.2 
1.5972517e+3, 6.891439e+1, -2012001.5, -2303278.8, 9706.937, 0.050220154, 0.013291259, -2011678.4, 252961.84 
1.5971349e+3, 7.890083e+1, -1936841.6, -2214434.0, 9033.132, -0.017835958, 0.010761233, -1936548.0, 230225.1 
1.5970188e+3, 8.888771e+1, -1861814.1, -2124619.0, 10063.879, -0.013499759, 0.013996193, -1861429.3, 207472.5 
1.5969029e+3, 9.887464e+1, -1788182.9, -2038662.6, 11024.799, 0.007094549, 0.016933965, -1787698.6, 183331.23 
1.5967874e+3, 1.0886147e+2, -1714552.0, -1954140.9, 13397.699, 0.0077227503, 0.014033337, -1713805.3, 159353.72 
1.5966721e+3, 1.18848205e+2, -1638750.4, -1866389.4, 13489.024, 0.00334274, 0.009030157, -1637953.9, 137335.0 
1.5965569e+3, 1.2883504e+2, -1565059.1, -1781639.0, 14594.507, 0.0011972415, 0.011193565, -1564080.0, 113337.82 
1.5964417e+3, 1.3882181e+2, -1489668.6, -1693771.5, 14645.44, -0.00039031828, 0.013581503, -1488623.1, 90924.5 
1.596327e+3, 1.4880858e+2, -1415238.0, -1609031.9, 15623.885, -0.0005449291, 0.013996329, -1413986.5, 67690.7 
1.5962121e+3, 1.5879524e+2, -1338723.3, -1520852.3, 15672.87, -0.00019087337, 0.01256304, -1337384.4, 46423.46 
1.5960974e+3, 1.687819e+2, -1264070.0, -1436688.4, 15981.376, 0.0008821926, 0.013075399, -1262602.9, 23335.773 
1.5959826e+3, 1.7876841e+2, -1187347.1, -1348289.8, 15773.584, 0.0021537133, 0.012765314, -1185815.8, 2254.9846 
1.5958679e+3, 1.8875493e+2, -1113662.3, -1264490.3, 15081.153, 0.0011227672, 0.012433476, -1112169.1, -21966.127 
1.595753e+3, 1.987413e+2, -1037940.7, -1176297.3, 14917.356, -0.00061528047, 0.011081561, -1036350.6, -44014.156 
1.5956382e+3, 2.0872775e+2, -962893.8, -1091033.0, 14233.008, -0.00088762445, 0.012429375, -961331.94, -66862.695 
1.5955234e+3, 2.187141e+2, -886403.2, -1002950.8, 14051.799, -0.0008289562, 0.013004305, -884732.94, -88129.805 
1.5954082e+3, 2.2870041e+2, -812501.4, -918588.25, 12477.971, -0.0014241893, 0.01370135, -811053.5, -112316.21 
1.5952928e+3, 2.3868662e+2, -737068.7, -830437.5, 11841.587, -0.0023725946, 0.012944258, -735590.3, -134717.88 
1.5951774e+3, 2.4867292e+2, -662861.94, -744674.06, 10165.301, -0.0020512978, 0.012991738, -661617.8, -158611.08 
1.5950617e+3, 2.5865915e+2, -587789.44, -656677.3, 9635.736, -0.001433014, 0.012103031, -586467.0, -181325.53 
1.5949458e+3, 2.686455e+2, -513467.66, -570284.44, 7632.808, -0.0019921425, 0.011877366, -512460.13, -205184.77 
1.5948296e+3, 2.7863184e+2, -438695.94, -482397.88, 6911.806, -0.0026854442, 0.010766418, -437628.84, -228219.55 
1.594713e+3, 2.8861836e+2, -365067.25, -395092.25, 4317.506, -0.0028273314, 0.014471864, -364458.75, -252917.22 
1.5945964e+3, 2.9860488e+2, -293225.94, -310513.06, 3505.2644, -0.0036508646, 0.017079554, -292542.22, -278868.8 
1.594479e+3, 3.085943e+2, -225753.5, -183909.02, 431.9117, -0.0049219355, 0.012543184, -183904.56, -183904.56 
1.5943615e+3, 3.1858695e+2, -247728.6, -188225.17, -642.88666, -0.003090948, 0.0068720267, -188218.22, -188218.22 
1.5942435e+3, 3.285868e+2, -185121.2, -16044.777, -4827.8633, -0.0032801575, 0.016545046, -15907.033, -15907.033 
1.6076346e+3, 3.907442e+1, -2220441.3, -2556042.8, 10849.196, 0.03331849, 0.009967291, -2220090.8, 336981.3 
1.6075134e+3, 4.9061218e+1, -2176878.0, -2476961.5, 21338.484, -0.08393066, 0.025395624, -2175368.3, 283833.13 
1.6073959e+3, 5.904794e+1, -2071706.9, -2377893.3, 14224.436, 0.036547147, 0.008760586, -2071047.5, 290284.06 
1.6072772e+3, 6.903461e+1, -2003963.0, -2296753.5, 15784.395, 0.029496476, 0.010241934, -2003114.5, 260347.58 
1.6071586e+3, 7.902129e+1, -1940854.4, -2214439.3, 17241.805, -0.0092475, 0.014041671, -1939772.0, 225820.69 
1.6070408e+3, 8.9008164e+1, -1865806.6, -2126260.8, 19392.203, -0.0069148084, 0.0147299105, -1864370.8, 203350.6 
1.6069233e+3, 9.899505e+1, -1788340.3, -2037874.8, 19283.064, 0.0057061957, 0.013850175, -1786858.9, 182990.94 
1.6068062e+3, 1.0898196e+2, -1714768.1, -1953074.3, 21438.082, 0.0055019157, 0.013398858, -1712854.9, 159123.25 
1.6066894e+3, 1.18968785e+2, -1640107.6, -1865697.3, 21686.291, 0.0018835189, 0.0117472205, -1638041.9, 136065.39 
1.6065726e+3, 1.2895566e+2, -1565430.5, -1780883.9, 23249.23, 0.0011650705, 0.012828127, -1562950.3, 113285.5 
1.6064559e+3, 1.3894245e+2, -1488475.5, -1692251.3, 23505.803, 0.0010396808, 0.013371077, -1485799.3, 92566.08 
1.6063395e+3, 1.4892922e+2, -1413671.5, -1607809.5, 24527.78, 0.0005727072, 0.013469206, -1410620.5, 69874.28 
1.6062233e+3, 1.5891589e+2, -1336926.3, -1519404.4, 24442.34, 0.00016939164, 0.012046322, -1333709.0, 48916.53 
1.606107e+3, 1.6890255e+2, -1262745.5, -1435761.0, 24714.617, 0.0005045676, 0.012911395, -1259284.4, 25472.004 
1.6059908e+3, 1.7888905e+2, -1186266.5, -1347397.3, 24516.486, 0.0012232428, 0.013203558, -1182618.9, 4269.7754 
1.6058744e+3, 1.8887554e+2, -1111360.9, -1263234.3, 24012.775, 0.000812418, 0.013346657, -1107654.6, -18633.596 
1.6057582e+3, 1.9886188e+2, -1034038.56, -1174273.4, 24120.86, -0.00018093572, 0.012161784, -1030005.7, -38850.793 
1.6056418e+3, 2.0884827e+2, -959185.6, -1089469.0, 23148.486, -0.0005423493, 0.012574653, -955194.9, -61906.566 
1.6055255e+3, 2.1883453e+2, -883147.56, -1001568.1, 22598.426, -0.000682792, 0.012193649, -878981.6, -83558.695 
1.6054086e+3, 2.2882077e+2, -808893.4, -917173.75, 21053.314, -0.0016825326, 0.01351438, -804944.0, -107386.31 
1.6052918e+3, 2.3880692e+2, -732720.5, -828605.06, 20743.709, -0.002998891, 0.013797007, -728425.2, -128731.695 
1.6051748e+3, 2.4879314e+2, -658073.25, -742779.0, 18899.424, -0.0019935567, 0.013715516, -654047.75, -152219.17 
1.6050576e+3, 2.587793e+2, -582550.25, -654601.56, 18247.863, -0.0005098484, 0.012281899, -578192.4, -174228.17 
1.60494e+3, 2.6876554e+2, -508522.53, -568725.0, 15851.513, -0.00187427, 0.011644834, -504603.84, -198504.72 
1.6048221e+3, 2.7875173e+2, -433721.56, -480587.5, 14854.048, -0.0036658957, 0.010227946, -429410.22, -221175.98 
1.6047038e+3, 2.8873816e+2, -359211.38, -392740.4, 12192.806, -0.002996833, 0.014753383, -355246.34, -244879.1 
1.6045853e+3, 2.9872465e+2, -286684.94, -308118.66, 11673.481, -0.002718363, 0.01845536, -281555.0, -269055.1 
1.6044663e+3, 3.0871388e+2, -219717.34, -182330.61, 8255.845, -0.0050711636, 0.012477939, -180588.69, -180588.69 
1.6043471e+3, 3.1870636e+2, -241761.42, -186432.33, 6704.153, -0.004273404, 0.00483951, -185631.6, -185631.6 
1.604227e+3, 3.2870612e+2, -177887.06, -13013.807, 2140.9075, -0.002586544, 0.018929353, -12986.012, -12986.012 
1.6176648e+3, 3.919953e+1, -2232208.0, -2560620.3, -46952.92, -0.042955868, 0.008663999, -2225627.0, 330219.13 
1.6175427e+3, 4.9185163e+1, -2175426.0, -2497347.5, 20941.488, 0.10450479, 0.04130298, -2174069.3, 283917.53 
1.6174228e+3, 5.916996e+1, -2086031.5, -2395709.3, 11987.04, -0.035134822, 0.0020967622, -2085568.1, 274567.6 
1.6173024e+3, 6.915662e+1, -2007011.8, -2294543.3, 7283.739, -0.022090333, 0.0073293922, -2006827.4, 255439.1 
1.6171822e+3, 7.914367e+1, -1938741.3, -2211666.3, 10101.587, 0.015152294, 0.019228475, -1938368.0, 226025.47 
1.6170627e+3, 8.913048e+1, -1865906.8, -2127406.5, 14804.727, 0.010842211, 0.014736579, -1865071.3, 201451.39 
1.6169438e+3, 9.911721e+1, -1789178.4, -2038504.6, 14487.333, -0.000081233535, 0.006919687, -1788339.4, 180313.33 
1.616825e+3, 1.0910422e+2, -1714817.6, -1952157.5, 16209.027, -0.0013621293, 0.0123266615, -1713715.8, 157064.22 
1.6167064e+3, 1.1909121e+2, -1639526.9, -1864434.9, 16604.244, -0.0010403572, 0.018407572, -1638307.8, 134599.83 
1.6165881e+3, 1.2907813e+2, -1565007.4, -1779878.8, 18476.188, 0.001376873, 0.016251791, -1563430.3, 111605.39 
1.6164702e+3, 1.3906494e+2, -1488218.0, -1691620.5, 18625.129, 0.0041754497, 0.011532295, -1486526.6, 90638.32 
1.6163523e+3, 1.4905174e+2, -1413844.4, -1608019.4, 19595.828, 0.0033054163, 0.012043488, -1411886.5, 67407.79 
1.6162345e+3, 1.5903841e+2, -1336956.1, -1519433.4, 19436.174, 0.0015098277, 0.012358284, -1334908.9, 46516.07 
1.6161168e+3, 1.6902503e+2, -1262846.6, -1435960.1, 19582.275, -0.00015209895, 0.012761057, -1260659.1, 22896.766 
1.615999e+3, 1.7901152e+2, -1186108.1, -1347290.0, 19440.223, -0.0015139171, 0.012220699, -1183796.6, 1891.8219 
1.6158812e+3, 1.8899804e+2, -1111190.0, -1263109.3, 18977.84, -0.0006769036, 0.014690008, -1108855.3, -21034.68 
1.6157635e+3, 1.989844e+2, -1034129.6, -1174692.6, 18974.438, 0.00021285116, 0.016064724, -1031613.3, -41659.113 
1.6156456e+3, 2.0897068e+2, -959829.3, -1090982.9, 17728.7, -0.000033618922, 0.0140831, -957475.1, -65386.49 
1.6155276e+3, 2.1895681e+2, -883461.1, -1002469.6, 17178.139, -0.00055100024, 0.010511862, -881031.2, -86806.68 
1.6154094e+3, 2.2894304e+2, -808906.3, -917518.25, 15489.768, -0.0013806195, 0.012281896, -806740.44, -110380.83 
1.6152911e+3, 2.3892915e+2, -732841.1, -829187.3, 15158.428, -0.0021382342, 0.013921082, -730512.5, -132016.89 
1.6151723e+3, 2.489153e+2, -658525.1, -744044.7, 13126.204, -0.0015952217, 0.014658268, -656555.75, -155924.4 
1.6150534e+3, 2.5890136e+2, -583107.56, -656086.6, 12428.703, -0.0010239837, 0.013778444, -581049.0, -178281.05 
1.6149342e+3, 2.688875e+2, -509357.75, -570770.8, 9772.78, -0.0031386837, 0.013976149, -507840.1, -202935.97 
1.6148148e+3, 2.7887353e+2, -434200.13, -481897.88, 8788.119, -0.005443214, 0.013061316, -432632.47, -225591.94 
1.6146949e+3, 2.888599e+2, -359183.97, -393042.28, 5974.4194, -0.0023347875, 0.012911736, -358160.7, -248986.25 
1.6145746e+3, 2.9884624e+2, -287078.1, -309304.0, 5423.957, 0.00054554833, 0.011718007, -285825.06, -274517.16 
1.6144538e+3, 3.0883542e+2, -220959.55, -185370.72, 1726.1036, -0.00486496, 0.013624117, -185287.19, -185287.19 
1.6143328e+3, 3.1882775e+2, -242464.34, -188420.61, 89.807274, -0.008005065, 0.01494826, -188420.47, -188420.47 
1.6142109e+3, 3.2882732e+2, -177305.44, -12598.5625, -4895.614, -0.002664256, 0.014651576, -12453.178, -12453.178 
1.6276945e+3, 3.9322427e+1, -2246181.5, -2564727.0, -6905.9043, -0.052808788, 0.01615409, -2246032.0, 308609.7 
1.6275729e+3, 4.9308202e+1, -2129907.8, -2469454.8, 8045.8286, 0.12328532, 0.014746125, -2129717.0, 327063.88 
1.6274491e+3, 5.9293807e+1, -2108010.8, -2402347.5, 12569.503, -0.043799035, 0.011932228, -2107475.0, 251447.08 
1.6273272e+3, 6.9280654e+1, -2024038.3, -2300642.5, 15693.667, -0.028098973, 0.013523202, -2023150.8, 237900.25 
1.6272058e+3, 7.9267764e+1, -1935203.0, -2207595.5, 16859.44, 0.01817838, 0.0148744, -1934163.5, 229013.9 
1.6270848e+3, 8.9254737e+1, -1863467.0, -2124459.8, 21035.963, 0.01255421, 0.0136695625, -1861782.4, 203522.6 
1.6269639e+3, 9.924164e+1, -1791981.6, -2037958.4, 22070.936, -0.0017213527, 0.011006199, -1790017.0, 177416.33 
1.6268435e+3, 1.0922873e+2, -1716875.1, -1951710.9, 24789.908, -0.0013411581, 0.013296406, -1714286.8, 155273.1 
1.6267236e+3, 1.1921576e+2, -1639490.4, -1862982.8, 25294.385, 0.001278015, 0.015438148, -1636663.4, 135023.55 
1.6266038e+3, 1.2920275e+2, -1564934.6, -1778969.8, 27199.078, 0.001967425, 0.015105051, -1561532.4, 112282.07 
1.6264842e+3, 1.3918959e+2, -1488154.1, -1690635.4, 27275.518, 0.0026318652, 0.012988179, -1484544.3, 91399.06 
1.6263649e+3, 1.491764e+2, -1413508.5, -1607340.1, 28468.633, 0.0023785683, 0.013103385, -1409413.8, 68658.8 
1.6262457e+3, 1.5916306e+2, -1335947.5, -1518254.0, 28440.283, 0.0017125325, 0.01267032, -1331613.8, 48589.535 
1.6261265e+3, 1.691497e+2, -1260910.8, -1434660.1, 28751.46, 0.0003989538, 0.013384271, -1256276.6, 26057.639 
1.6260073e+3, 1.7913617e+2, -1183227.0, -1345566.5, 28752.691, -0.001015618, 0.013105646, -1178284.9, 6181.927 
1.625888e+3, 1.8912263e+2, -1108100.8, -1261841.6, 28096.047, -0.0005904076, 0.014463278, -1103127.1, -16527.514 
1.6257688e+3, 1.9910891e+2, -1030796.6, -1173263.4, 27797.227, 0.00010493018, 0.014831819, -1025565.1, -36831.21 
1.6256495e+3, 2.0909514e+2, -956251.3, -1089633.4, 26539.162, -0.00029977146, 0.014167326, -951164.75, -60295.78 
1.62553e+3, 2.1908121e+2, -879261.94, -1000702.7, 26206.316, -0.0009840373, 0.012119658, -873848.06, -80842.56 
1.6254103e+3, 2.2906734e+2, -804386.7, -915752.75, 24222.896, -0.0011739511, 0.013071479, -799346.2, -104204.79 
1.6252902e+3, 2.3905335e+2, -728080.1, -827355.4, 23670.715, -0.0011636658, 0.013524158, -722725.0, -125446.68 
1.6251701e+3, 2.4903941e+2, -653441.94, -742297.94, 21401.959, -0.0015668168, 0.014178846, -648555.75, -149140.63 
1.6250497e+3, 2.5902537e+2, -577416.4, -653967.75, 20632.404, -0.0021605738, 0.013512902, -572209.6, -170656.92 
1.6249289e+3, 2.6901138e+2, -503347.84, -568494.5, 18048.96, -0.0032898474, 0.014806483, -498681.6, -194991.83 
1.6248076e+3, 2.7899736e+2, -427999.22, -479548.47, 17377.992, -0.0042512952, 0.014947452, -422688.06, -216860.95 
1.624686e+3, 2.8898355e+2, -352918.84, -390902.1, 13851.8, -0.002111194, 0.012606744, -348404.0, -240441.63 
1.6245641e+3, 2.9896978e+2, -280470.53, -306988.03, 12635.589, -0.00044892967, 0.008926502, -275413.9, -265316.6 
1.6244416e+3, 3.0895886e+2, -214016.6, -183115.05, 9043.544, -0.0052317553, 0.014804363, -180662.97, -180662.97 
1.6243187e+3, 3.189511e+2, -234966.06, -185768.36, 7896.979, -0.0071336413, 0.020427508, -184531.86, -184531.86 
1.6241951e+3, 3.2895043e+2, -168901.94, -9783.628, 1824.2686, -0.0028740924, 0.010831122, -9762.716, -9762.716 
1.6377243e+3, 3.9445278e+1, -2235345.5, -2551178.3, 67451.87, -0.043817006, 0.018517286, -2221543.0, 331894.38 
1.6376033e+3, 4.9431792e+1, -2143303.5, -2460175.8, -11095.896, 0.07032431, -0.024247795, -2142915.5, 312654.2 
1.6374749e+3, 5.9419227e+1, -2095613.4, -2386565.3, 1038.9412, -0.023570087, 0.028489714, -2095609.6, 262083.33 
1.6373515e+3, 6.940632e+1, -2019010.0, -2296959.3, 14992.154, -0.014605536, 0.022720262, -2018203.6, 241615.86 
1.6372293e+3, 7.9393363e+1, -1936807.0, -2206528.8, 13695.083, 0.010480537, 0.006521105, -1936113.4, 225833.0 
1.6371065e+3, 8.938064e+1, -1864018.4, -2121904.0, 14987.828, 0.0067405235, 0.012607619, -1863150.3, 200920.9 
1.6369839e+3, 9.936788e+1, -1790712.1, -2035087.0, 16605.092, -0.0011702667, 0.020380426, -1789589.0, 176607.23 
1.636862e+3, 1.0935504e+2, -1716228.8, -1950086.0, 20255.928, 0.0019941684, 0.015113081, -1714487.3, 153834.75 
1.6367406e+3, 1.1934209e+2, -1639169.8, -1861879.0, 20543.307, 0.006002313, 0.0075868233, -1637290.8, 133158.17 
1.6366194e+3, 1.2932917e+2, -1565053.9, -1778755.1, 22332.174, 0.0025180231, 0.011823091, -1562745.0, 109830.414 
1.6364983e+3, 1.393161e+2, -1487935.8, -1690126.3, 22434.094, -0.0016415447, 0.016392866, -1485476.4, 89227.15 
1.6363776e+3, 1.4930294e+2, -1413366.3, -1607050.3, 23690.967, -0.0007035559, 0.015616063, -1410510.5, 66322.04 
1.6362569e+3, 1.592896e+2, -1335639.6, -1517806.9, 23632.045, 0.0010883199, 0.013061953, -1332623.8, 46339.598 
1.6361362e+3, 1.6927627e+2, -1260762.3, -1434410.1, 23877.082, 0.0016202485, 0.014667785, -1257539.0, 23555.049 
1.6360156e+3, 1.7926276e+2, -1183260.0, -1345845.1, 23828.838, 0.0014388832, 0.015321849, -1179839.5, 3386.904 
1.635895e+3, 1.892491e+2, -1108660.3, -1263161.8, 23056.418, 0.0003695212, 0.013073914, -1105292.9, -19932.744 
1.6357742e+3, 1.9923526e+2, -1031096.75, -1174150.6, 22714.64, -0.00060913793, 0.009847965, -1027576.7, -40080.93 
1.6356534e+3, 2.0922148e+2, -956407.8, -1090222.0, 21268.307, -0.0012431766, 0.013382184, -953108.75, -63477.883 
1.6355325e+3, 2.1920754e+2, -879541.4, -1001571.56, 20902.764, -0.0020069398, 0.016533567, -876060.2, -84292.68 
1.6354112e+3, 2.2919355e+2, -804952.44, -917299.9, 18712.904, -0.0011618899, 0.015591927, -801917.56, -108013.09 
1.6352898e+3, 2.3917945e+2, -728597.7, -828820.06, 18179.908, -0.0002622942, 0.012622113, -725401.9, -129359.07 
1.6351679e+3, 2.4916537e+2, -654015.7, -743841.06, 15769.503, -0.0020510356, 0.012315327, -651327.7, -153146.98 
1.635046e+3, 2.5915122e+2, -577731.5, -654985.5, 14925.954, -0.004101957, 0.0114673525, -574948.0, -174628.64 
1.6349235e+3, 2.691372e+2, -503407.6, -569035.2, 12054.234, -0.002306533, 0.01400984, -501263.56, -198806.7 
1.6348007e+3, 2.7912313e+2, -428552.44, -481072.56, 11406.322, -0.000051531442, 0.015631216, -426182.2, -221587.56 
1.6346775e+3, 2.8910914e+2, -354312.28, -394125.13, 7703.791, -0.0027824491, 0.014087762, -352873.56, -246141.83 
1.6345538e+3, 2.9909515e+2, -281333.84, -309082.84, 6493.422, -0.00688118, 0.011102716, -279889.53, -271020.8 
1.6344295e+3, 3.0908415e+2, -213929.73, -183483.67, 2626.372, -0.006252228, 0.015368934, -183258.77, -183258.77 
1.6343051e+3, 3.190763e+2, -235320.56, -187308.6, 1403.6505, -0.0009014813, 0.01817485, -187267.6, -187267.6 
1.6341795e+3, 3.290754e+2, -170786.69, -14083.104, -4895.487, -0.004875723, 0.009266787, -13930.315, -13930.315 
1.6477558e+3, 3.9571598e+1, -2228868.8, -2546907.0, 31968.795, 0.0600213, 0.016218793, -2225687.3, 326512.44 
1.6476285e+3, 4.9558952e+1, -2201505.0, -2478842.5, 6752.8486, -0.07843178, -0.008217038, -2201340.8, 252982.88 
1.6475022e+3, 5.954694e+1, -2073320.0, -2369759.8, 12574.732, 0.033701792, 0.023696722, -2072787.6, 283653.84 
1.6473769e+3, 6.95342e+1, -2007810.8, -2290749.3, 21057.26, 0.023608088, 0.019936949, -2006252.3, 252314.0 
1.647252e+3, 7.9521346e+1, -1948533.6, -2210137.5, 20739.557, -0.0070859757, 0.009040384, -1946899.6, 213792.56 
1.6471277e+3, 8.9508814e+1, -1872158.0, -2122857.8, 23786.492, -0.004399962, 0.012950413, -1869921.1, 192893.97 
1.6470037e+3, 9.9496233e+1, -1791763.8, -2033177.0, 25202.771, 0.0042636176, 0.017991114, -1789160.8, 175777.64 
1.6468805e+3, 1.094835e+2, -1717364.6, -1949616.1, 28629.293, 0.0048147384, 0.015241998, -1713887.6, 153175.42 
1.6467576e+3, 1.1947062e+2, -1640804.1, -1861370.4, 28783.889, 0.0034361049, 0.010424177, -1637109.8, 132079.56 
1.646635e+3, 1.2945774e+2, -1565913.4, -1778241.5, 30947.53, 0.0015990419, 0.012676332, -1561494.6, 109820.914 
1.6465124e+3, 1.3944471e+2, -1487585.5, -1688813.1, 31254.781, -0.00007409476, 0.01499296, -1482842.8, 90600.57 
1.6463901e+3, 1.494316e+2, -1412384.9, -1605733.0, 32747.814, 0.000118863245, 0.015257541, -1406988.9, 68582.95 
1.646268e+3, 1.5941827e+2, -1334107.9, -1516425.9, 32807.29, 0.00065851706, 0.014077372, -1328384.1, 49318.277 
1.646146e+3, 1.6940491e+2, -1258865.6, -1433637.0, 32879.13, 0.0012527468, 0.015035968, -1252884.9, 26948.52 
1.646024e+3, 1.7939132e+2, -1180546.4, -1344481.8, 32574.49, 0.0015022204, 0.01492, -1174310.9, 7655.6323 
1.645902e+3, 1.8937762e+2, -1105385.6, -1261790.4, 31940.629, 0.00044155426, 0.01343318, -1099114.3, -15013.546 
1.6457799e+3, 1.9936374e+2, -1027213.8, -1172298.0, 31784.164, -0.000685875, 0.011030218, -1020556.25, -34319.453 
1.6456576e+3, 2.0934989e+2, -952262.7, -1088417.4, 30197.98, -0.0012373856, 0.013819981, -945865.56, -57493.02 
1.6455351e+3, 2.1933585e+2, -875129.25, -999852.7, 29859.096, -0.0017798302, 0.016263409, -868349.5, -77839.51 
1.6454123e+3, 2.2932176e+2, -799679.3, -915652.94, 27520.156, -0.0010656731, 0.015634649, -793480.2, -100832.13 
1.6452894e+3, 2.3930752e+2, -721987.44, -826403.06, 26824.049, -0.0003971343, 0.012885257, -715499.56, -120711.91 
1.6451661e+3, 2.4929334e+2, -647935.4, -741739.1, 24111.152, -0.0022033907, 0.012933497, -642100.8, -145174.08 
1.6450424e+3, 2.5927904e+2, -572354.75, -653088.6, 23284.633, -0.0041367887, 0.012495429, -566120.56, -167054.0 
1.6449185e+3, 2.692649e+2, -497137.1, -566834.1, 19836.738, -0.0020692383, 0.013784541, -491886.8, -190681.5 
1.6447942e+3, 2.7925074e+2, -421126.0, -478349.97, 18671.977, 0.00044132958, 0.014233775, -415572.38, -212228.03 
1.6446692e+3, 2.8923663e+2, -346951.56, -391661.88, 15136.896, -0.0031953554, 0.015410106, -342308.97, -236826.44 
1.6445439e+3, 2.9922253e+2, -274115.16, -306679.2, 14531.816, -0.008073097, 0.015118398, -268573.38, -260952.69 
1.644418e+3, 3.092113e+2, -206274.27, -180920.8, 9982.027, -0.0058872676, 0.014468851, -177462.47, -177462.47 
1.6442916e+3, 3.1920326e+2, -226973.78, -184597.56, 8011.4937, 0.0010507805, 0.012352583, -183133.52, -183133.52 
1.6441643e+3, 3.2920226e+2, -161198.17, -11318.249, 1934.8516, -0.0057891184, 0.012705986, -11293.275, -11293.275 
1.6577865e+3, 3.970025e+1, -2238058.3, -2548511.3, -52753.164, 0.14559214, 0.018624064, -2229339.3, 321600.03 
1.6576523e+3, 4.9688375e+1, -2180900.5, -2462198.0, 19189.773, -0.24157968, 0.027207877, -2179597.5, 273458.0 
1.6575302e+3, 5.9676385e+1, -2078604.3, -2368548.8, 13823.49, 0.1010625, 0.009916128, -2077946.6, 277226.25 
1.6574024e+3, 6.966383e+1, -2012862.6, -2292958.8, 11713.901, 0.066502616, 0.012835963, -2012373.6, 244922.38 
1.6572744e+3, 7.965116e+1, -1946308.0, -2207652.5, 14320.334, -0.028267872, 0.016573774, -1945525.8, 213894.38 
1.6571486e+3, 8.963877e+1, -1869751.8, -2119027.8, 20484.406, -0.016859172, 0.013797107, -1868079.6, 193461.83 
1.6570237e+3, 9.962632e+1, -1791202.6, -2031187.1, 20967.848, 0.011673874, 0.0101601565, -1789384.5, 174279.0 
1.6568989e+3, 1.0961374e+2, -1717703.1, -1949413.0, 23805.434, 0.006887167, 0.014946819, -1715282.8, 150504.06 
1.6567743e+3, 1.1960098e+2, -1640522.6, -1860520.6, 24128.09, -0.00298279, 0.018845031, -1637907.5, 130004.43 
1.6566503e+3, 1.2958814e+2, -1565547.4, -1777196.8, 26526.666, -0.000010070954, 0.015621872, -1562273.4, 107764.445 
1.6565265e+3, 1.395751e+2, -1487034.3, -1687665.6, 26751.955, 0.0045803143, 0.010927839, -1483528.4, 88637.13 
1.6564028e+3, 1.4956208e+2, -1412041.8, -1604962.8, 28146.75, 0.0029224392, 0.013437103, -1408019.1, 66274.04 
1.6562793e+3, 1.5954883e+2, -1334013.8, -1516357.4, 28137.21, 0.00012653525, 0.015547925, -1329770.8, 46652.23 
1.6561559e+3, 1.6953538e+2, -1259425.3, -1434903.4, 28204.605, -0.00021409788, 0.014757036, -1255003.4, 23551.412 
1.6560327e+3, 1.795217e+2, -1180695.4, -1345092.9, 27906.477, -0.000120646495, 0.012780266, -1176087.4, 4601.426 
1.6559091e+3, 1.89508e+2, -1105434.6, -1262099.5, 27106.488, -0.00018048668, 0.015195327, -1100877.1, -18054.219 
1.6557856e+3, 1.9949412e+2, -1027281.3, -1172686.0, 26827.328, -0.00045259262, 0.016800387, -1022489.5, -37530.56 
1.6556619e+3, 2.0948018e+2, -952528.4, -1089317.8, 24984.688, -0.0005822948, 0.015033682, -948107.75, -61012.11 
1.6555378e+3, 2.1946603e+2, -875504.56, -1001078.4, 24728.727, -0.00079601334, 0.012029035, -870810.3, -81576.06 
1.6554137e+3, 2.2945184e+2, -800428.44, -917607.1, 22367.799, -0.0011596105, 0.013611798, -796303.9, -104930.48 
1.6552892e+3, 2.3943749e+2, -722646.5, -828101.9, 21441.57, -0.0015456442, 0.014309322, -718453.6, -124939.555 
1.6551644e+3, 2.4942319e+2, -648554.6, -743365.06, 18213.076, -0.0019903248, 0.015954874, -645176.25, -149522.1 
1.6550393e+3, 2.594088e+2, -573164.7, -655100.8, 17584.38, -0.0024823183, 0.01642346, -569550.3, -171755.16 
1.6549137e+3, 2.6939443e+2, -498279.94, -569532.8, 14156.085, -0.0028868061, 0.013972559, -495570.53, -195634.55 
1.6547877e+3, 2.7938002e+2, -421746.94, -480008.94, 12838.127, -0.0031860066, 0.010621631, -419043.47, -216966.36 
1.6546611e+3, 2.8936592e+2, -346986.4, -392155.88, 8926.511, -0.0031591954, 0.016473694, -345286.3, -241070.84 
1.654534e+3, 2.993518e+2, -274789.3, -308489.63, 8453.646, -0.0035896772, 0.020679593, -272787.63, -266433.8 
1.6544065e+3, 3.0934027e+2, -207874.03, -184755.1, 3724.075, -0.0043268055, 0.0115544265, -184170.02, -184170.02 
1.6542786e+3, 3.193319e+2, -227944.44, -187228.36, 1679.2583, -0.002390351, 0.0029890563, -187159.22, -187159.22 
1.6541496e+3, 3.2933098e+2, -161071.89, -12095.11, -4290.5376, -0.006938082, 0.022382282, -11971.6455, -11971.6455 
1.6678137e+3, 3.98335e+1, -2247719.8, -2555708.3, -15627.018, -0.023846108, 0.010559045, -2246928.8, 302704.6 
1.6676825e+3, 4.9821094e+1, -2148208.8, -2456273.8, 28384.586, -0.0132046575, 0.040420227, -2145615.3, 306139.63 
1.6675548e+3, 5.980812e+1, -2108013.0, -2386173.5, 19730.2, 0.013612004, 0.0033027856, -2106620.5, 247261.47 
1.667426e+3, 6.979575e+1, -2029247.5, -2296860.0, 20359.371, 0.012281072, 0.009419094, -2027707.4, 228295.72 
1.6672972e+3, 7.978344e+1, -1943787.5, -2203839.3, 23771.385, -0.001992121, 0.019680995, -1941632.5, 216491.33 
1.6671698e+3, 8.977106e+1, -1869761.0, -2119039.8, 29184.256, -0.0010879624, 0.016218396, -1866389.9, 193855.19 
1.6670433e+3, 9.975858e+1, -1795185.0, -2031993.0, 28834.688, 0.0051049925, 0.010477872, -1791724.5, 170642.9 
1.666917e+3, 1.0974609e+2, -1720554.4, -1949034.9, 32276.662, 0.0032018365, 0.014246557, -1716082.3, 148407.5 
1.666791e+3, 1.19733445e+2, -1641809.1, -1859325.3, 33109.027, -0.00071095786, 0.017877277, -1636881.1, 129732.6 
1.6666657e+3, 1.2972069e+2, -1566149.0, -1776274.9, 35850.613, 0.00093429355, 0.015993586, -1560200.8, 108537.945 
1.6665404e+3, 1.3970771e+2, -1487000.3, -1686725.3, 36051.43, 0.0035135378, 0.012447903, -1480692.0, 90173.8 
1.6664153e+3, 1.4969467e+2, -1411657.8, -1604735.8, 37165.62, 0.002527652, 0.014092673, -1404750.8, 68242.96 
1.6662906e+3, 1.5968138e+2, -1332556.4, -1515231.3, 36863.117, 0.0007096763, 0.015257499, -1325398.1, 49725.855 
1.6661659e+3, 1.6966793e+2, -1256994.5, -1433492.3, 37342.01, 0.00012067249, 0.014720495, -1249419.1, 27836.674 
1.6660412e+3, 1.7965423e+2, -1177507.9, -1343240.5, 37392.754, -0.00010473956, 0.013170272, -1169461.9, 9928.191 
1.6659163e+3, 1.8964049e+2, -1102091.6, -1260616.1, 36460.4, -0.00031924856, 0.015401499, -1094107.9, -12583.138 
1.6657914e+3, 1.9962654e+2, -1023486.94, -1171236.4, 36073.86, -0.0006974468, 0.016843423, -1015149.75, -31488.295 
1.6656663e+3, 2.0961246e+2, -947506.5, -1088012.1, 33825.953, -0.00027186424, 0.015217581, -939787.2, -53987.87 
1.665541e+3, 2.1959817e+2, -868864.9, -998730.9, 33162.344, 0.00009460187, 0.012122812, -860886.7, -72947.38 
1.6654153e+3, 2.2958386e+2, -794444.25, -915451.9, 30670.16, -0.0014707197, 0.013691793, -787114.7, -97035.04 
1.6652894e+3, 2.3956938e+2, -717614.8, -826528.44, 29919.219, -0.0029908363, 0.014680198, -709937.06, -117715.59 
1.665163e+3, 2.4955495e+2, -641661.94, -741207.2, 26355.648, -0.0017423175, 0.01631609, -635114.7, -140751.67 
1.6650364e+3, 2.595404e+2, -564126.06, -651977.5, 25477.906, -0.000428149, 0.01672703, -557271.94, -160766.36 
1.6649091e+3, 2.695259e+2, -490669.3, -567180.1, 21881.451, -0.0030300496, 0.014625131, -484853.47, -186205.5 
1.6647816e+3, 2.795113e+2, -415510.78, -478023.3, 20730.64, -0.005726525, 0.011392651, -409260.88, -208470.14 
1.6646533e+3, 2.8949705e+2, -338934.28, -389111.97, 16168.7, -0.003241501, 0.016123291, -334175.56, -231245.1 
1.6645248e+3, 2.994828e+2, -265237.5, -305237.66, 15094.661, -0.00064496323, 0.019511208, -260180.61, -255110.39 
1.6643953e+3, 3.0947104e+2, -199849.67, -183135.05, 10213.932, -0.003708475, 0.01227378, -178295.05, -178295.05 
1.6642657e+3, 3.1946248e+2, -220087.55, -184672.3, 8714.534, -0.004822535, 0.00567235, -182644.08, -182644.08 
1.664135e+3, 3.2946143e+2, -150988.33, -7660.1235, 2902.3071, -0.0069881068, 0.023407402, -7601.378, -7601.378 
1.677841e+3, 3.9969045e+1, -2248366.3, -2556426.3, 24722.24, -0.16905144, 0.0006508711, -2246394.8, 301910.1 
1.6777146e+3, 4.9955735e+1, -2166884.5, -2480827.0, 9415.966, 0.32094648, 0.043891758, -2166602.3, 283833.1 
1.6775781e+3, 5.9941554e+1, -2109401.0, -2391975.3, 10326.614, -0.13222285, 0.00053453946, -2109024.3, 243550.13 
1.6774485e+3, 6.992943e+1, -2024993.8, -2289510.3, 17943.99, -0.07319349, 0.00802391, -2023782.0, 230911.0 
1.6773202e+3, 7.991755e+1, -1943825.9, -2201803.3, 19346.904, 0.043911554, 0.020794742, -1942383.1, 214426.5 
1.6771911e+3, 8.990515e+1, -1871876.5, -2121512.0, 23586.555, 0.024909716, 0.01949469, -1869667.5, 189263.53 
1.6770625e+3, 9.9892586e+1, -1795273.5, -2031680.5, 24011.373, -0.008308919, 0.014798351, -1792859.4, 168194.88 
1.6769348e+3, 1.098802e+2, -1719557.9, -1946527.0, 28036.813, -0.0029080468, 0.013352068, -1716145.9, 147029.66 
1.6768077e+3, 1.1986768e+2, -1640901.1, -1857255.9, 28751.62, 0.0058186124, 0.012185102, -1637145.5, 128152.66 
1.6766809e+3, 1.2985508e+2, -1565813.8, -1775281.4, 31509.16, 0.0028827048, 0.015266276, -1561176.6, 106245.01 
1.6765544e+3, 1.3984223e+2, -1486961.5, -1686531.4, 31624.557, -0.00080665055, 0.017135594, -1482070.0, 87477.74 
1.6764282e+3, 1.498291e+2, -1412254.5, -1605934.3, 32798.695, 0.00033016634, 0.016070744, -1406850.9, 64825.445 
1.676302e+3, 1.598157e+2, -1332418.0, -1515271.8, 32589.113, 0.0017595453, 0.013835115, -1326783.4, 47024.18 
1.6761759e+3, 1.6980231e+2, -1256560.9, -1432776.1, 32946.395, 0.0013831779, 0.014929509, -1250602.5, 25336.49 
1.6760498e+3, 1.7978865e+2, -1177303.5, -1343119.8, 32815.26, 0.00074831326, 0.015238361, -1171045.5, 7027.1943 
1.6759236e+3, 1.8977484e+2, -1102381.1, -1261582.5, 31674.191, -0.00035253895, 0.014366037, -1096310.8, -16102.772 
1.6757974e+3, 1.9976078e+2, -1023973.75, -1172763.8, 31363.2, -0.0015368543, 0.012638364, -1017633.0, -35287.117 
1.6756709e+3, 2.0974657e+2, -948624.25, -1090653.3, 29079.822, -0.00034117824, 0.014770416, -942900.9, -58415.816 
1.6755442e+3, 2.1973215e+2, -869579.56, -1000542.4, 28204.977, 0.00074196927, 0.015801318, -863763.44, -77136.96 
1.6754171e+3, 2.2971772e+2, -794839.2, -916670.4, 25214.156, -0.0021508352, 0.0155010745, -789827.06, -101059.19 
1.6752897e+3, 2.397031e+2, -718217.25, -828254.5, 24657.4, -0.0048710057, 0.013985373, -712944.6, -122033.68 
1.6751619e+3, 2.4968849e+2, -642682.56, -743748.44, 21137.564, -0.0015605967, 0.014045627, -638439.9, -145385.64 
1.6750337e+3, 2.5967377e+2, -565052.2, -654249.8, 19908.727, 0.0016902222, 0.013465821, -560810.3, -165611.7 
1.674905e+3, 2.6965913e+2, -491471.63, -569209.6, 15691.43, -0.0026934983, 0.015946366, -488423.8, -191081.72 
1.6747756e+3, 2.7964443e+2, -416540.16, -480462.22, 14925.616, -0.007328135, 0.01677392, -413226.8, -213740.83 
1.6746458e+3, 2.896299e+2, -340149.9, -392089.8, 10548.013, -0.0036726326, 0.0138432635, -338089.53, -236461.13 
1.6745158e+3, 2.9961535e+2, -266348.0, -308154.0, 9028.456, 0.00023247438, 0.010579929, -264481.53, -260710.69 
1.6743846e+3, 3.0960354e+2, -201177.75, -186423.22, 3484.886, -0.004770022, 0.018095795, -185641.53, -185641.53 
1.674253e+3, 3.195949e+2, -220738.17, -186361.77, 2545.796, -0.007930142, 0.02362255, -186174.27, -186174.27 
1.674121e+3, 3.2959354e+2, -150509.67, -7410.909, -3015.672, -0.0049243835, 0.011722178, -7347.385, -7347.385 
1.6878714e+3, 4.0102282e+1, -2253483.0, -2559130.8, 19063.846, -0.0005986451, 0.0115211895, -2252298.8, 294700.44 
1.6877395e+3, 5.008967e+1, -2184552.5, -2474656.3, 4481.8037, 0.11283347, 0.02130171, -2184483.3, 264639.4 
1.6876039e+3, 6.007697e+1, -2103276.0, -2380837.0, 15468.7295, -0.050028924, 0.012042562, -2102416.5, 248830.67 
1.6874725e+3, 7.006503e+1, -2026338.4, -2289117.0, 24870.998, -0.02585075, 0.013302684, -2024005.3, 229359.11 
1.687342e+3, 8.005313e+1, -1951785.5, -2203085.3, 24815.799, 0.02027074, 0.015406039, -1949358.4, 206122.42 
1.6872115e+3, 9.0041023e+1, -1877493.0, -2120894.8, 30418.068, 0.011792731, 0.016986819, -1873749.3, 183850.31 
1.6870816e+3, 1.00028746e+2, -1798154.0, -2030242.4, 32488.74, -0.0022738315, 0.016750747, -1793691.9, 166027.92 
1.6869527e+3, 1.1001649e+2, -1722066.1, -1946266.6, 36882.348, 0.00046887333, 0.015025389, -1716154.6, 145685.3 
1.6868243e+3, 1.2000404e+2, -1642792.6, -1856707.6, 37287.23, 0.0043267203, 0.012744833, -1636479.4, 127482.45 
1.6866961e+3, 1.2999149e+2, -1567228.9, -1775292.8, 40026.004, 0.0022566358, 0.015274477, -1559794.5, 106290.51 
1.6865683e+3, 1.3997863e+2, -1487290.9, -1685535.1, 40089.395, -0.00003024987, 0.01688359, -1479490.9, 88719.99 
1.6864407e+3, 1.4996557e+2, -1411243.0, -1604436.5, 41992.094, 0.00082482694, 0.015843168, -1402510.5, 67828.43 
1.6863133e+3, 1.5995221e+2, -1330370.6, -1513567.0, 42329.145, 0.0017861946, 0.013747316, -1321063.0, 51406.746 
1.6861859e+3, 1.6993877e+2, -1254355.4, -1431879.8, 42293.824, 0.0010521249, 0.015365206, -1244794.1, 29807.412 
1.6860586e+3, 1.7992505e+2, -1174283.0, -1341796.1, 41671.527, 0.00020483643, 0.016161919, -1164489.3, 12246.81 
1.6859311e+3, 1.8991114e+2, -1098129.6, -1260122.6, 40329.32, 0.000023953744, 0.014801747, -1088644.6, -9772.477 
1.6858035e+3, 1.9989698e+2, -1018381.4, -1170592.4, 39959.34, -0.00026930706, 0.012462744, -1008528.8, -27517.639 
1.6856757e+3, 2.0988266e+2, -943125.06, -1088871.1, 37924.418, -0.00059302757, 0.014966023, -933847.4, -50695.902 
1.6855477e+3, 2.1986811e+2, -864067.0, -998659.44, 37334.49, -0.0007843904, 0.0165267, -854404.5, -69110.42 
1.6854192e+3, 2.2985353e+2, -787848.56, -914469.94, 33903.098, -0.0019512597, 0.015924472, -779342.4, -91905.44 
1.6852903e+3, 2.3983876e+2, -709576.75, -825332.4, 33059.195, -0.0031397645, 0.013984166, -700800.56, -111219.01 
1.685161e+3, 2.4982396e+2, -634927.1, -741646.6, 29271.988, -0.0016230011, 0.013941, -627425.44, -135698.8 
1.6850314e+3, 2.5980902e+2, -558024.06, -652406.0, 27858.035, -0.000051663235, 0.013296808, -550414.9, -156541.83 
1.684901e+3, 2.697942e+2, -482364.47, -566428.75, 22973.215, -0.0027364872, 0.016597038, -476495.97, -180477.67 
1.6847701e+3, 2.7977931e+2, -405583.6, -477067.1, 21951.76, -0.005520404, 0.018279476, -399380.7, -201216.56 
1.6846389e+3, 2.8976452e+2, -330966.06, -389851.75, 17159.488, -0.003465166, 0.013394044, -326330.63, -226021.56 
1.684507e+3, 2.9974973e+2, -258677.33, -306498.63, 15375.093, -0.0014682976, 0.008313374, -254160.66, -251706.61 
1.6843742e+3, 3.0973774e+2, -191394.0, -183637.11, 9648.467, -0.0057313875, 0.020005554, -177116.75, -177116.75 
1.684241e+3, 3.1972888e+2, -209206.52, -182802.16, 9046.809, -0.0068573463, 0.029121954, -179999.89, -179999.89 
1.6841073e+3, 3.297272e+2, -140328.55, -4493.216, 1918.4412, -0.0030657107, 0.006222632, -4466.1265, -4466.1265 
1.6979012e+3, 4.023565e+1, -2255017.8, -2554124.5, 9333.999, 0.13740781, 0.020607576, -2254726.8, 290965.22 
1.697762e+3, 5.022438e+1, -2172494.5, -2444579.5, 3524.6038, -0.25601894, -0.007885654, -2172449.0, 275353.7 
1.6976306e+3, 6.021401e+1, -2097379.5, -2366254.3, 10890.772, 0.11861597, 0.02916936, -2096939.1, 252965.16 
1.6974968e+3, 7.0202184e+1, -2028107.9, -2290610.0, 19964.482, 0.065656036, 0.020928627, -2026598.3, 225421.92 
1.6973631e+3, 8.019016e+1, -1951306.4, -2200511.0, 20526.324, -0.032973688, 0.007612634, -1949627.0, 204510.98 
1.6972317e+3, 9.017847e+1, -1875263.5, -2114752.3, 26435.37, -0.016310105, 0.012278889, -1872380.1, 183872.3 
1.6971008e+3, 1.00166656e+2, -1796818.3, -2026523.1, 28154.059, 0.012749012, 0.017734963, -1793417.9, 164950.47 
1.6969705e+3, 1.1015455e+2, -1722170.1, -1945576.9, 32705.453, 0.0076191565, 0.018066498, -1717480.6, 143006.36 
1.6968405e+3, 1.2014218e+2, -1642681.6, -1856091.8, 33180.97, -0.00138532, 0.016473016, -1637641.8, 124966.6 
1.6967112e+3, 1.301296e+2, -1567311.8, -1775232.6, 36071.902, 0.00040543196, 0.015598032, -1561231.5, 103499.99 
1.6965821e+3, 1.4011677e+2, -1486521.5, -1684187.5, 36224.984, 0.0033441603, 0.013930358, -1480091.9, 86765.445 
1.6964534e+3, 1.5010384e+2, -1410224.4, -1602492.3, 38057.457, 0.0025827822, 0.014486432, -1402965.4, 66018.61 
1.6963246e+3, 1.6009061e+2, -1330097.5, -1513232.8, 38174.164, 0.001039981, 0.014458053, -1322458.8, 48654.824 
1.696196e+3, 1.7007707e+2, -1255113.3, -1433682.9, 38036.445, -0.00032026408, 0.015879426, -1247348.9, 25897.355 
1.6960675e+3, 1.8006323e+2, -1174722.5, -1343172.9, 37493.047, -0.0013896293, 0.016262759, -1166754.4, 8627.576 
1.6959387e+3, 1.9004925e+2, -1098626.3, -1261662.6, 36053.31, 0.00057772885, 0.016272929, -1091009.4, -13490.39 
1.69581e+3, 2.0003496e+2, -1018591.94, -1171591.0, 35537.793, 0.0022627567, 0.015198878, -1010740.3, -31081.44 
1.6956808e+3, 2.1002057e+2, -943289.25, -1089704.6, 33153.97, -0.0012353725, 0.015507107, -936131.9, -54331.863 
1.6955513e+3, 2.200059e+2, -864551.4, -1000193.3, 32557.336, -0.004301127, 0.014708032, -857141.56, -73197.984 
1.6954215e+3, 2.2999118e+2, -788948.9, -917163.5, 28968.682, -0.0011104039, 0.015113492, -782707.5, -96619.55 
1.6952913e+3, 2.3997623e+2, -710645.56, -827950.75, 27952.96, 0.0016316304, 0.01464802, -704325.1, -116090.69 
1.6951606e+3, 2.4996124e+2, -636082.4, -744417.1, 23732.533, -0.0021365182, 0.015973099, -631111.44, -140730.11 
1.6950291e+3, 2.599461e+2, -559301.9, -655412.25, 22436.031, -0.005739847, 0.016106008, -554322.4, -161792.77 
1.6948974e+3, 2.6993102e+2, -483845.4, -569916.25, 17431.445, -0.0030550142, 0.016358407, -480449.13, -185771.64 
1.694765e+3, 2.7991587e+2, -407175.2, -480824.7, 16191.111, -0.00015318781, 0.015598387, -403772.9, -206946.9 
1.694632e+3, 2.8990084e+2, -332709.72, -393912.63, 10911.849, -0.0029169545, 0.015453809, -330822.44, -231849.19 
1.6944984e+3, 2.998858e+2, -260163.83, -309949.2, 9323.478, -0.006653808, 0.014156558, -258475.08, -257354.42 
1.6943641e+3, 3.098735e+2, -192244.06, -186132.56, 3612.6636, -0.0065309783, 0.01626352, -184456.61, -184456.61 
1.6942294e+3, 3.1986436e+2, -211121.9, -187932.36, 2828.287, -0.0012494259, 0.017957123, -187592.4, -187592.4 
1.694094e+3, 3.298623e+2, -144367.31, -12643.795, -4698.1157, -0.004141353, 0.011285955, -12476.442, -12476.442 
1.7079274e+3, 4.0374574e+1, -2261655.8, -2549291.3, 11710.382, 0.018285941, 0.026602885, -2261179.8, 283150.9 
1.7077887e+3, 5.03633e+1, -2189608.3, -2453156.8, 20121.613, -0.12672073, -0.012396616, -2188080.8, 258360.39 
1.7076544e+3, 6.035297e+1, -2107455.5, -2369087.0, 18818.627, 0.06884892, 0.029984435, -2106108.8, 242433.78 
1.7075193e+3, 7.034142e+1, -2035703.6, -2290501.0, 27374.953, 0.039236445, 0.023116233, -2032795.6, 217859.98 
1.7073846e+3, 8.032968e+1, -1958468.3, -2200390.0, 29486.836, -0.018765492, 0.010108885, -1954926.1, 197844.6 
1.7072517e+3, 9.031819e+1, -1881657.0, -2115393.8, 35452.28, -0.009218, 0.012864266, -1876398.0, 178485.27 
1.7071195e+3, 1.0030653e+2, -1801906.5, -2026442.9, 36241.414, 0.009181256, 0.016630344, -1796201.9, 160795.69 
1.7069879e+3, 1.1029458e+2, -1726127.8, -1945667.6, 41179.293, 0.0058902376, 0.017436262, -1718657.9, 140456.84 
1.7068566e+3, 1.2028234e+2, -1645255.5, -1855357.1, 42075.76, -0.00030922765, 0.016530821, -1637142.6, 124092.19 
1.7067263e+3, 1.3026987e+2, -1568353.0, -1774310.5, 45617.03, 0.0011828373, 0.015782584, -1558701.8, 104655.24 
1.706596e+3, 1.4025708e+2, -1486131.0, -1682957.3, 45996.227, 0.0034803264, 0.014246372, -1475912.6, 89569.44 
1.706466e+3, 1.5024416e+2, -1409701.8, -1602135.1, 47218.664, 0.002252902, 0.015532568, -1398739.9, 68868.9 
1.7063361e+3, 1.602309e+2, -1328698.0, -1512095.8, 46709.105, 0.0005021893, 0.016028496, -1317487.1, 52251.543 
1.7062064e+3, 1.7021735e+2, -1252447.9, -1432255.3, 47017.65, 0.00002499023, 0.016106723, -1240895.5, 30975.994 
1.7060766e+3, 1.8020347e+2, -1170810.1, -1341363.1, 47027.06, -0.00030212683, 0.015219523, -1158702.8, 15304.972 
1.7059465e+3, 1.9018938e+2, -1093993.6, -1260157.0, 45611.49, 0.00043576787, 0.016442304, -1082296.8, -6150.992 
1.7058165e+3, 2.0017499e+2, -1012786.0, -1169329.9, 44950.87, 0.0011742747, 0.01659855, -1000796.8, -22510.09 
1.705686e+3, 2.1016046e+2, -936844.4, -1087470.3, 42077.57, -0.0011563317, 0.01602335, -925887.0, -45457.957 
1.7055552e+3, 2.2014564e+2, -857535.06, -997909.75, 41248.246, -0.003322345, 0.014352157, -846311.9, -63737.73 
1.705424e+3, 2.3013073e+2, -781452.1, -915328.8, 37502.57, -0.00091299, 0.01506789, -771662.44, -86942.11 
1.7052925e+3, 2.4011558e+2, -702350.5, -825500.9, 36316.08, 0.0012702427, 0.014986337, -692438.94, -105570.11 
1.7051603e+3, 2.501004e+2, -626971.3, -741575.8, 31808.666, -0.0025133304, 0.016748622, -618734.75, -129717.234 
1.7050275e+3, 2.6008508e+2, -549644.06, -652615.6, 30730.459, -0.0061023883, 0.017284762, -541170.3, -150002.56 
1.7048942e+3, 2.7006972e+2, -473634.28, -567431.3, 25526.16, -0.0029925148, 0.01590974, -467137.53, -173819.23 
1.7047603e+3, 2.800543e+2, -396190.16, -477813.94, 23895.455, 0.0003839301, 0.013876437, -389709.3, -194239.75 
1.7046256e+3, 2.9003903e+2, -322122.6, -391090.9, 18326.64, -0.0028129965, 0.01739776, -317555.2, -219936.22 
1.7044903e+3, 3.0002373e+2, -250199.72, -307996.72, 17340.14, -0.0069592744, 0.018994736, -245396.53, -245396.53 
1.7043544e+3, 3.1001103e+2, -181635.95, -184531.6, 10569.363, -0.0063032093, 0.013366487, -172415.7, -172415.7 
1.7042181e+3, 3.2000145e+2, -199695.77, -185167.1, 8530.153, -0.0005345323, 0.008863228, -181227.23, -181227.23 
1.704081e+3, 3.2999933e+2, -134914.81, -10240.321, 2906.7126, -0.003866003, 0.017961277, -10172.59, -10172.59 
1.7179537e+3, 4.0516293e+1, -2260816.3, -2537912.8, -11596.772, -0.07145979, 0.031659383, -2260331.8, 282610.16 
1.7178164e+3, 5.0504583e+1, -2192810.0, -2464400.3, 17380.34, 0.15108295, -0.007367855, -2191702.3, 253354.38 
1.7176771e+3, 6.049349e+1, -2109698.5, -2371655.3, 15356.7295, -0.064338036, 0.024530333, -2108801.3, 238364.13 
1.717541e+3, 7.048233e+1, -2033807.4, -2284481.3, 22699.223, -0.027403008, 0.023325268, -2031768.5, 217506.4 
1.717406e+3, 8.0471057e+1, -1957024.5, -2196636.8, 24939.15, 0.02332016, 0.016990608, -1954456.4, 196928.97 
1.7172717e+3, 9.045967e+1, -1881666.1, -2114448.0, 31639.898, 0.011081922, 0.015813904, -1877442.3, 176054.56 
1.717138e+3, 1.00448065e+2, -1801268.5, -2024536.5, 32469.207, -0.0032231193, 0.014665709, -1796642.5, 158968.08 
1.717005e+3, 1.1043629e+2, -1725257.3, -1943364.3, 37465.33, 0.00029966736, 0.015175477, -1719001.0, 138724.95 
1.7168728e+3, 1.204242e+2, -1644053.6, -1852924.1, 38399.35, 0.0040395623, 0.014869791, -1637217.9, 122626.445 
1.716741e+3, 1.3041191e+2, -1567608.1, -1772523.8, 42025.098, 0.0029879124, 0.015997898, -1559324.4, 102640.59 
1.7166097e+3, 1.4039925e+2, -1486161.6, -1682767.5, 42202.39, 0.0017543802, 0.016292185, -1477485.5, 86603.38 
1.7164785e+3, 1.5038626e+2, -1410519.0, -1603859.8, 43423.055, 0.0007521922, 0.017860001, -1401214.3, 65002.035 
1.7163475e+3, 1.6037291e+2, -1328499.5, -1512155.8, 43041.74, -0.0001681415, 0.01801436, -1318912.6, 49434.5 
1.7162167e+3, 1.7035937e+2, -1251856.6, -1431478.9, 43230.35, 0.0012450146, 0.016061459, -1241993.8, 28485.936 
1.7160857e+3, 1.8034548e+2, -1170586.1, -1341496.8, 43162.51, 0.0023472176, 0.013342734, -1160304.3, 12311.572 
1.7159545e+3, 1.9033132e+2, -1094502.8, -1261678.0, 41590.39, -0.00041818657, 0.01567588, -1084727.4, -9972.865 
1.7158233e+3, 2.0031685e+2, -1013359.2, -1171019.0, 40751.656, -0.0027949398, 0.017033815, -1003448.75, -26552.188 
1.7156915e+3, 2.1030217e+2, -937666.44, -1089774.1, 37508.566, -0.00056551525, 0.016536262, -928920.06, -49879.676 
1.7155595e+3, 2.2028719e+2, -858316.6, -1000264.5, 36716.594, 0.0011664106, 0.015121196, -849381.8, -68194.734 
1.7154269e+3, 2.3027208e+2, -782584.6, -918189.1, 32766.742, -0.0015904416, 0.015682327, -775082.1, -91746.875 
1.715294e+3, 2.4025671e+2, -703334.0, -827964.56, 31411.313, -0.0039163926, 0.015064151, -695864.8, -110379.1 
1.7151603e+3, 2.5024137e+2, -627966.3, -744052.1, 26467.176, -0.0026063132, 0.0163053, -622216.7, -134580.52 
1.7150262e+3, 2.6022583e+2, -550983.56, -655760.1, 25534.172, -0.0014823122, 0.0167628, -545092.1, -155303.8 
1.7148913e+3, 2.702102e+2, -475415.3, -571495.8, 20188.371, -0.0030466162, 0.0153441215, -471345.72, -179404.28 
1.714756e+3, 2.8019452e+2, -397570.28, -481094.5, 18152.436, -0.00435732, 0.01335993, -393795.75, -199700.33 
1.7146197e+3, 2.9017907e+2, -323262.53, -393972.63, 11976.398, -0.0030404974, 0.019227639, -321289.13, -225042.47 
1.7144828e+3, 3.0016354e+2, -252577.13, -313472.66, 11535.591, -0.0024102784, 0.02243797, -250465.16, -250465.16 
1.7143454e+3, 3.1015024e+2, -185405.8, -192876.86, 4769.096, -0.0053298376, 0.0120362975, -183083.4, -183083.4 
1.7142072e+3, 3.2014015e+2, -200503.1, -187131.17, 1852.3417, -0.0048993477, 0.003440546, -186879.31, -186879.31 
1.7140682e+3, 3.3013836e+2, -132600.28, -5670.4106, -3773.8743, -0.004267798, 0.026048156, -5558.305, -5558.305 
1.7279805e+3, 4.0658948e+1, -2272428.0, -2541175.8, -16.613873, 0.0038849455, 0.023216011, -2272428.0, 269116.0 
1.7278408e+3, 5.064743e+1, -2195827.5, -2466283.8, 21965.674, 0.08629861, 0.0028358817, -2194055.3, 249601.52 
1.7277007e+3, 6.0636187e+1, -2121084.5, -2375155.0, 22583.148, -0.040224455, 0.021327285, -2119092.8, 226674.2 
1.7275631e+3, 7.0625275e+1, -2043281.5, -2285685.0, 30509.117, -0.015498039, 0.020107068, -2039500.6, 208373.34 
1.7274266e+3, 8.0614287e+1, -1964114.6, -2196854.3, 32395.195, 0.016894748, 0.016086906, -1959689.6, 190291.97 
1.727291e+3, 9.0603113e+1, -1887941.9, -2115199.8, 39915.625, 0.008430221, 0.01636099, -1881135.0, 170956.14 
1.7271562e+3, 1.0059168e+2, -1806525.0, -2024623.3, 41147.656, -0.0009965275, 0.01587106, -1799020.1, 155183.03 
1.7270221e+3, 1.10580035e+2, -1728978.4, -1943362.4, 46402.133, 0.0015553249, 0.015884424, -1719365.9, 136951.42 
1.7268889e+3, 1.2056807e+2, -1646112.5, -1852019.3, 47047.637, 0.0038531087, 0.01519929, -1635871.9, 122562.65 
1.7267558e+3, 1.3055587e+2, -1569587.3, -1772346.8, 50510.652, 0.0023779834, 0.016462319, -1557701.0, 102853.18 
1.7266235e+3, 1.4054327e+2, -1487522.8, -1682035.1, 50673.258, 0.0011041774, 0.01676359, -1475113.4, 87564.22 
1.7264912e+3, 1.5053032e+2, -1409915.3, -1602595.5, 52756.902, 0.0008118041, 0.017483925, -1396415.9, 68388.58 
1.7263591e+3, 1.6051699e+2, -1325935.6, -1510365.0, 52949.51, 0.0004160318, 0.017068945, -1311815.0, 55120.145 
1.7262271e+3, 1.7050341e+2, -1248428.0, -1430208.0, 52594.85, 0.0015195864, 0.016463008, -1234307.4, 34760.805 
1.726095e+3, 1.8048944e+2, -1165947.4, -1339282.3, 51930.07, 0.0024923636, 0.0148237385, -1151580.3, 19624.828 
1.7259626e+3, 1.9047523e+2, -1089718.8, -1259683.8, 50376.08, -0.00043876987, 0.016018528, -1075909.8, -2565.2024 
1.7258301e+3, 2.0046063e+2, -1008279.5, -1169200.8, 49785.58, -0.0030816062, 0.016466102, -994122.4, -18634.902 
1.7256972e+3, 2.104458e+2, -930851.2, -1087960.5, 46451.438, -0.0004078208, 0.016593784, -918144.9, -40512.06 
1.725564e+3, 2.2043064e+2, -849318.94, -997223.6, 45555.71, 0.0019913714, 0.015819104, -836413.5, -56632.223 
1.7254302e+3, 2.3041534e+2, -773663.94, -915363.4, 41431.64, -0.001785474, 0.01628585, -762438.9, -80507.7 
1.7252958e+3, 2.403998e+2, -694587.9, -825389.3, 40267.645, -0.0050869416, 0.015472452, -683185.4, -99101.75 
1.725161e+3, 2.503842e+2, -617841.0, -741263.8, 34807.69, -0.0023558675, 0.016135184, -608701.3, -122464.98 
1.7250253e+3, 2.6036844e+2, -539444.94, -652338.56, 33468.89, 0.00012013517, 0.016258467, -530268.56, -141877.63 
1.724889e+3, 2.7035257e+2, -465456.56, -568945.0, 27931.787, -0.0032120238, 0.015863074, -458399.0, -167852.52 
1.724752e+3, 2.8033662e+2, -388688.2, -478922.1, 26074.004, -0.0062558446, 0.014518659, -381695.72, -188992.77 
1.7246142e+3, 2.903209e+2, -310763.9, -390069.34, 19370.87, -0.003166051, 0.01817444, -306285.34, -211428.56 
1.7244756e+3, 3.003051e+2, -238043.94, -309692.7, 18856.357, -0.0003149147, 0.01997268, -233384.39, -233384.39 
1.7243366e+3, 3.102914e+2, -175521.77, -192425.92, 12880.008, -0.004355082, 0.014019283, -168568.27, -168568.27 
1.724197e+3, 3.2028097e+2, -191806.11, -184236.14, 10446.333, -0.0057892823, 0.008666268, -176910.23, -176910.23 
1.7240559e+3, 3.302791e+2, -120750.805, 1137.595, 2601.6921, -0.005437402, 0.02420842, 1193.1025, 1193.1025 
1.7380066e+3, 4.080272e+1, -2272354.0, -2538121.0, 9227.598, 0.05063327, 0.013713608, -2272034.0, 268101.03 
1.7378639e+3, 5.079166e+1, -2197758.5, -2464609.8, 14460.27, -0.080467254, 0.014387232, -2196977.3, 245266.05 
1.7377245e+3, 6.078054e+1, -2120862.8, -2372104.5, 16886.6, 0.0418601, 0.01919272, -2119732.8, 224619.64 
1.737585e+3, 7.076985e+1, -2042884.9, -2283106.0, 26299.006, 0.0223502, 0.015948212, -2040039.5, 206417.69 
1.7374466e+3, 8.0759084e+1, -1963046.4, -2193762.0, 28305.344, -0.009589868, 0.012320487, -1959624.4, 188938.16 
1.73731e+3, 9.074818e+1, -1887029.6, -2112330.8, 36148.742, -0.0029219254, 0.016112952, -1881371.8, 169297.69 
1.7371741e+3, 1.0073698e+2, -1805708.0, -2022235.4, 37510.76, 0.007642069, 0.018561497, -1799393.9, 153385.39 
1.7370391e+3, 1.1072547e+2, -1728836.1, -1942009.6, 43131.72, 0.005433585, 0.018075516, -1720439.9, 134452.19 
1.7369045e+3, 1.2071361e+2, -1645894.8, -1850875.6, 43663.53, 0.0012352092, 0.016563648, -1636981.5, 120026.85 
1.7367706e+3, 1.3070145e+2, -1569492.5, -1771842.3, 47067.51, 0.0006115711, 0.017069614, -1559080.1, 100047.28 
1.736637e+3, 1.4068893e+2, -1486480.0, -1680196.3, 47499.613, 0.00085174263, 0.016404117, -1475459.9, 85790.46 
1.7365038e+3, 1.506761e+2, -1408863.1, -1600556.8, 49638.313, 0.0015625838, 0.015558218, -1396772.1, 66603.78 
1.7363708e+3, 1.6066286e+2, -1325818.1, -1510424.5, 49639.195, 0.0016590095, 0.014350769, -1313317.0, 52188.637 
1.7362376e+3, 1.7064919e+2, -1249360.6, -1432416.8, 49112.5, 0.0011223748, 0.017201122, -1237016.5, 30623.129 
1.7361045e+3, 1.8063511e+2, -1166173.9, -1340217.6, 48347.836, 0.00077561, 0.018509528, -1153645.1, 16132.329 
1.735971e+3, 1.9062082e+2, -1089653.4, -1260186.4, 46452.766, -0.000050083825, 0.017015968, -1077820.9, -5903.2446 
1.7358375e+3, 2.0060614e+2, -1008429.44, -1170351.3, 45972.117, -0.000926522, 0.01504361, -996287.7, -22226.305 
1.7357032e+3, 2.1059118e+2, -931735.44, -1090413.9, 42532.44, -0.0008115042, 0.016307462, -921053.94, -44845.902 
1.7355688e+3, 2.2057587e+2, -850097.56, -999305.1, 41317.418, -0.0003621156, 0.016498005, -839420.3, -61062.16 
1.7354338e+3, 2.305604e+2, -774423.8, -917464.8, 36596.223, -0.0016289449, 0.01681683, -765604.6, -85095.086 
1.735298e+3, 2.4054469e+2, -695719.44, -828310.94, 35565.035, -0.0028572122, 0.016013661, -686782.25, -104118.625 
1.7351617e+3, 2.5052884e+2, -619586.6, -745402.3, 29959.424, -0.0019313557, 0.016200254, -612816.9, -127997.89 
1.7350248e+3, 2.605128e+2, -540964.1, -655869.9, 28230.24, -0.0014848292, 0.015917407, -534403.1, -147426.73 
1.7348869e+3, 2.704967e+2, -466869.72, -572131.56, 22034.139, -0.003630939, 0.017687056, -462443.5, -173309.55 
1.7347485e+3, 2.804805e+2, -390271.44, -482460.63, 20691.021, -0.0053725857, 0.017487295, -385840.5, -194547.9 
1.7346092e+3, 2.904645e+2, -312365.16, -393955.72, 14043.414, -0.003375465, 0.013775941, -310015.66, -216565.89 
1.7344691e+3, 3.0044833e+2, -239308.27, -313187.44, 12712.972, -0.0011881688, 0.010977693, -237181.84, -237181.84 
1.7343283e+3, 3.1043458e+2, -177044.86, -196034.4, 5992.9414, -0.0040730243, 0.021080604, -175311.72, -175311.72 
1.7341867e+3, 3.20424e+2, -193679.58, -187918.53, 4147.0776, -0.0059212013, 0.026980035, -185749.72, -185749.72 
1.734044e+3, 3.304215e+2, -123091.43, -3533.884, -4262.428, -0.006054103, 0.008721862, -3382.1138, -3382.1138 
1.7480312e+3, 4.094711e+1, -2285202.5, -2545550.5, 11346.414, -0.008843191, 0.014714404, -2284709.0, 254010.97 
1.7478882e+3, 5.093683e+1, -2211863.5, -2460420.0, 17443.186, -0.027833978, 0.01697996, -2210645.5, 230175.31 
1.7477466e+3, 6.0926515e+1, -2132036.0, -2370595.5, 22509.742, 0.019982392, 0.018195774, -2129930.8, 212991.19 
1.7476061e+3, 7.091618e+1, -2053398.4, -2284962.5, 33225.457, 0.013499002, 0.01679199, -2048725.5, 196297.64 
1.7474666e+3, 8.0905694e+1, -1971444.8, -2194284.5, 35337.914, -0.0022995686, 0.014730714, -1965975.1, 181150.73 
1.7473288e+3, 9.089502e+1, -1894310.5, -2112893.0, 43623.53, -0.00006452458, 0.01665075, -1885926.0, 163304.52 
1.7471917e+3, 1.00884035e+2, -1811566.8, -2021856.3, 45176.098, 0.005698013, 0.017647801, -1802272.4, 149065.75 
1.7470555e+3, 1.1087274e+2, -1734038.0, -1941974.4, 51529.168, 0.0040843477, 0.017837957, -1721969.0, 131479.81 
1.74692e+3, 1.2086107e+2, -1650191.4, -1850537.6, 52517.33, 0.00091717136, 0.017043484, -1637259.6, 118303.65 
1.7467852e+3, 1.3084905e+2, -1571429.6, -1771150.0, 56464.688, 0.001245269, 0.017304478, -1556571.4, 101109.7 
1.7466506e+3, 1.408366e+2, -1485977.8, -1678526.3, 57035.31, 0.002134868, 0.01638392, -1470351.3, 89451.81 
1.7465164e+3, 1.508238e+2, -1408035.0, -1599611.4, 58645.426, 0.0021189004, 0.016203146, -1391508.1, 70420.24 
1.7463823e+3, 1.6081056e+2, -1324207.6, -1508830.5, 58219.273, 0.0016725583, 0.015433687, -1307382.1, 56676.043 
1.7462483e+3, 1.7079689e+2, -1246563.8, -1430759.6, 58302.58, 0.0005884646, 0.017470682, -1229660.6, 36531.46 
1.746114e+3, 1.807828e+2, -1161926.4, -1338147.8, 58104.543, -0.00015937853, 0.018306049, -1144492.6, 23837.775 
1.7459796e+3, 1.9076839e+2, -1083663.4, -1258180.5, 55837.6, 0.0002793283, 0.017120006, -1067327.1, 3144.3286 
1.7458448e+3, 2.0075358e+2, -1000584.44, -1167260.5, 55072.113, 0.0005951212, 0.015399185, -984031.75, -11415.286 
1.7457096e+3, 2.107385e+2, -924116.75, -1087726.5, 51547.23, -0.0009152847, 0.016698632, -909230.56, -34466.14 
1.745574e+3, 2.2072302e+2, -842547.56, -996762.0, 50478.17, -0.0018624876, 0.016798794, -827494.2, -50578.14 
1.7454377e+3, 2.3070738e+2, -765168.7, -914667.56, 45302.387, -0.0012598973, 0.016942387, -752512.25, -73442.95 
1.7453006e+3, 2.4069145e+2, -684588.94, -824740.75, 44076.15, -0.0009928835, 0.016234973, -671879.94, -90654.51 
1.7451629e+3, 2.5067535e+2, -608957.9, -742543.06, 38390.19, -0.0021063038, 0.0164574, -598711.1, -115327.87 
1.7450246e+3, 2.6065904e+2, -530286.56, -652662.94, 36789.96, -0.0033189752, 0.016048638, -520077.97, -134534.78 
1.7448854e+3, 2.706427e+2, -454200.4, -568069.1, 30257.018, -0.0033947965, 0.018081734, -446659.88, -158956.84 
1.7447454e+3, 2.8062627e+2, -376636.78, -478390.75, 29054.479, -0.003167475, 0.018247323, -368925.13, -179061.03 
1.7446046e+3, 2.9060993e+2, -301571.72, -391782.66, 21957.082, -0.003358305, 0.0133397225, -296511.3, -204486.86 
1.7444628e+3, 3.0059344e+2, -229935.3, -310970.72, 20074.059, -0.0034457268, 0.009684159, -225235.17, -225235.17 
1.7443202e+3, 3.105795e+2, -164705.97, -191820.05, 13012.417, -0.004696632, 0.022463208, -159471.61, -159471.61 
1.744177e+3, 3.2056868e+2, -179985.27, -184132.73, 11651.036, -0.0036579315, 0.030178845, -170224.86, -170224.86 
1.7440327e+3, 3.3056575e+2, -109196.016, -755.7645, 2476.8862, -0.005381554, 0.0054729246, -699.2194, -699.2194 
1.7580557e+3, 4.1092604e+1, -2288304.3, -2545268.5, 5497.8027, -0.038415197, 0.01759437, -2288186.5, 249107.6 
1.7579123e+3, 5.108324e+1, -2205546.3, -2444402.3, 14363.331, 0.0843351, 0.016381534, -2204685.5, 234700.39 
1.7577678e+3, 6.1073935e+1, -2128267.5, -2361351.5, 18581.953, -0.038879007, 0.01806502, -2126795.5, 214681.78 
1.7576265e+3, 7.1064013e+1, -2052746.9, -2281411.3, 29835.021, -0.0102438405, 0.019747041, -2048918.3, 194656.25 
1.7574863e+3, 8.1053823e+1, -1970775.4, -2190814.8, 31870.71, 0.017885389, 0.019472461, -1966252.3, 179422.1 
1.7573471e+3, 9.1043365e+1, -1893714.1, -2109909.5, 40475.684, 0.0076713287, 0.017499782, -1886384.9, 161391.9 
1.757209e+3, 1.0103261e+2, -1810256.3, -2018240.5, 42097.855, -0.001240887, 0.015296216, -1802058.4, 147823.83 
1.7570719e+3, 1.11021586e+2, -1732803.1, -1938676.6, 48521.863, 0.00030766526, 0.016570106, -1721940.3, 130049.914 
1.7569354e+3, 1.21010154e+2, -1648882.9, -1847621.6, 49632.13, 0.0015779742, 0.017003922, -1637177.4, 116924.79 
1.7567997e+3, 1.3099828e+2, -1570687.5, -1769180.3, 53732.54, 0.0029542681, 0.01724017, -1557075.4, 99143.08 
1.7566642e+3, 1.4098597e+2, -1485811.4, -1677969.9, 54149.98, 0.0039112535, 0.016573569, -1471602.6, 86736.76 
1.756529e+3, 1.5097316e+2, -1408502.0, -1600630.3, 55670.598, 0.0023477776, 0.018398385, -1393536.8, 66928.04 
1.756394e+3, 1.609599e+2, -1323649.6, -1508095.8, 55359.477, 0.000750014, 0.018797554, -1308309.9, 54284.883 
1.7562589e+3, 1.7094627e+2, -1245816.9, -1429514.1, 55227.707, -0.00022046317, 0.01735814, -1230491.5, 34236.75 
1.7561238e+3, 1.8093218e+2, -1161807.9, -1338445.0, 54961.137, -0.0007551919, 0.015581655, -1146103.0, 20763.365 
1.7559883e+3, 1.909177e+2, -1084441.0, -1260417.5, 52482.355, 0.0004804135, 0.016756337, -1069977.6, -969.3435 
1.7558526e+3, 2.0090277e+2, -1001020.4, -1168793.1, 51547.707, 0.001447257, 0.017052459, -986448.1, -15293.559 
1.7557162e+3, 2.1088755e+2, -924498.25, -1089096.3, 47499.527, -0.0009520799, 0.01753808, -911774.5, -38470.793 
1.7555794e+3, 2.2087196e+2, -843169.4, -998766.25, 46486.582, -0.0028068717, 0.016763175, -830338.94, -54882.348 
1.7554419e+3, 2.308561e+2, -766387.94, -917875.1, 41076.734, -0.00078503275, 0.016786346, -755966.6, -78354.83 
1.7553037e+3, 2.4083994e+2, -685729.3, -827655.8, 39602.74, 0.0003973869, 0.016285261, -675426.56, -95656.414 
1.7551647e+3, 2.5082365e+2, -610216.3, -745623.94, 33369.27, -0.0029920915, 0.017001815, -602439.56, -120509.55 
1.755025e+3, 2.608071e+2, -531451.0, -655496.75, 31771.402, -0.0056638015, 0.016616104, -523787.03, -139694.95 
1.7548843e+3, 2.7079055e+2, -455587.56, -571293.8, 24861.58, -0.0025660365, 0.016995803, -450471.78, -164217.61 
1.7547429e+3, 2.8077388e+2, -378420.75, -482495.94, 23451.893, 0.00017109045, 0.016872302, -373380.3, -184962.66 
1.7546004e+3, 2.9075724e+2, -303891.7, -396926.88, 15806.138, -0.0036288, 0.018075058, -301279.66, -210698.86 
1.754457e+3, 3.0074048e+2, -231517.6, -314339.72, 14144.062, -0.007922826, 0.017690597, -229168.73, -229168.73 
1.7543128e+3, 3.107262e+2, -165312.27, -193680.02, 6925.816, -0.0060795415, 0.016079662, -163711.67, -163711.67 
1.754168e+3, 3.2071513e+2, -181682.16, -188936.45, 5425.444, 0.001158627, 0.01488473, -178783.08, -178783.08 
1.7540218e+3, 3.3071205e+2, -112387.2, -7414.191, -3788.274, -0.0063567683, 0.019772224, -7277.657, -7277.657 
1.76808e+3, 4.124113e+1, -2304185.3, -2548392.3, 8563.445, 0.021241339, 0.02385019, -2303885.5, 231953.25 
1.767934e+3, 5.123198e+1, -2222007.8, -2448394.3, 23721.602, 0.025206637, 0.008647522, -2219548.8, 218379.64 
1.7677891e+3, 6.1223125e+1, -2141006.3, -2362926.8, 25030.914, -0.009617948, 0.021519518, -2138218.0, 201797.06 
1.7676465e+3, 7.121353e+1, -2065054.4, -2283116.3, 36737.402, 0.00087844726, 0.019965505, -2059031.5, 183077.63 
1.7675051e+3, 8.1203675e+1, -1982243.3, -2191709.3, 39273.797, 0.008072095, 0.016916003, -1975121.8, 169083.98 
1.767365e+3, 9.119358e+1, -1903016.8, -2110529.3, 48796.85, 0.0038081035, 0.017433295, -1892114.9, 154189.81 
1.767226e+3, 1.01183124e+2, -1817536.4, -2018449.4, 50633.42, 0.0013652013, 0.01726959, -1805497.3, 142909.88 
1.7670879e+3, 1.1117229e+2, -1738449.5, -1939107.5, 57037.633, 0.0025293361, 0.0176065, -1723369.6, 127143.73 
1.7669505e+3, 1.2116101e+2, -1652432.6, -1846795.1, 57933.137, 0.0028381357, 0.017027898, -1636474.9, 116149.06 
1.766814e+3, 1.3114929e+2, -1573230.5, -1768549.5, 62181.543, 0.0026654957, 0.017301396, -1555114.6, 99624.02 
1.7666778e+3, 1.4113708e+2, -1487098.1, -1676707.1, 62671.824, 0.0026059598, 0.016866893, -1468255.6, 88602.72 
1.7665416e+3, 1.5112437e+2, -1408020.3, -1599193.9, 64831.496, 0.0015789737, 0.018445544, -1388108.3, 70874.68 
1.7664057e+3, 1.6111116e+2, -1321282.4, -1505832.4, 65001.734, 0.00070529344, 0.018857274, -1300686.3, 60426.152 
1.7662698e+3, 1.7109755e+2, -1242288.8, -1427545.5, 64473.617, 0.00044524207, 0.017712444, -1222059.5, 41186.355 
1.7661338e+3, 1.8108343e+2, -1156893.5, -1335924.6, 63926.434, 0.00024628968, 0.016033527, -1136410.8, 28973.38 
1.7659973e+3, 1.9106886e+2, -1078571.9, -1258068.0, 61566.97, 0.00051908765, 0.017225029, -1059484.3, 8042.611 
1.7658606e+3, 2.0105383e+2, -993839.56, -1165754.4, 60857.965, 0.00092467957, 0.01737642, -974476.7, -4802.5474 
1.7657231e+3, 2.110385e+2, -916063.9, -1086049.5, 56487.484, -0.0007222932, 0.01778511, -899004.7, -27180.232 
1.7655852e+3, 2.2102275e+2, -833299.7, -995176.2, 55479.906, -0.0022193356, 0.01725363, -816110.4, -42131.613 
1.7654465e+3, 2.3100671e+2, -755946.56, -914665.7, 49947.37, -0.0009971837, 0.017111816, -741536.8, -65400.867 
1.7653072e+3, 2.4099033e+2, -674536.6, -823818.4, 48452.76, -0.00016994732, 0.016415356, -660189.1, -81892.695 
1.7651668e+3, 2.5097382e+2, -598807.5, -741916.6, 41892.09, -0.0028055848, 0.017580451, -587446.4, -106988.14 
1.7650257e+3, 2.6095706e+2, -519825.88, -651850.4, 40531.848, -0.0048178593, 0.017415687, -508375.56, -125753.11 
1.7648837e+3, 2.7094024e+2, -443260.56, -567887.06, 33114.023, -0.0024748037, 0.016259212, -435008.38, -150221.08 
1.7647408e+3, 2.8092328e+2, -365031.97, -478305.0, 31302.996, -0.00039624993, 0.015494945, -356957.03, -170003.42 
1.7645967e+3, 2.909064e+2, -290527.88, -392871.0, 23799.05, -0.0035992763, 0.020399345, -285264.3, -196145.28 
1.7644517e+3, 3.008894e+2, -218216.44, -310571.66, 22699.516, -0.0073132142, 0.02193504, -212938.83, -212938.83 
1.764306e+3, 3.1087473e+2, -152212.69, -190450.14, 13915.978, -0.0064924974, 0.012997416, -147684.42, -147684.42 
1.7641594e+3, 3.2086328e+2, -168501.56, -184958.55, 11281.155, 0.0005652921, 0.007872377, -162766.8, -162766.8 
1.7640114e+3, 3.3086008e+2, -100369.44, -3819.7676, 3518.104, -0.006094884, 0.026172766, -3691.7437, -3691.7437 
1.7781033e+3, 4.1391382e+1, -2302684.3, -2539822.5, -2838.811, 0.046594575, 0.025976365, -2302650.3, 231715.86 
1.7779545e+3, 5.138232e+1, -2222120.5, -2447797.0, 20284.238, -0.078239545, -0.000255383, -2220311.8, 216143.2 
1.7778103e+3, 6.1373734e+1, -2141454.5, -2359835.3, 21432.496, 0.04909609, 0.02629146, -2139371.0, 199168.2 
1.7776662e+3, 7.136448e+1, -2063985.0, -2278215.8, 33437.97, 0.021752428, 0.0190086, -2058887.3, 181742.67 
1.7775233e+3, 8.1354964e+1, -1980065.9, -2186247.3, 36246.766, -0.013447708, 0.011691767, -1973879.3, 168843.83 
1.7773825e+3, 9.13453e+1, -1901410.6, -2105828.5, 46091.03, -0.004122044, 0.017216839, -1891498.9, 153319.0 
1.7772427e+3, 1.013352e+2, -1816584.4, -2015295.4, 47836.883, 0.007959022, 0.021036064, -1805668.0, 141248.81 
1.7771037e+3, 1.1132452e+2, -1738044.5, -1937357.9, 54517.758, 0.0071359617, 0.019656649, -1724107.0, 124914.54 
1.7769656e+3, 1.2131337e+2, -1651550.9, -1844657.8, 55558.46, 0.0039103176, 0.017347474, -1636707.3, 114423.61 
1.776828e+3, 1.3130179e+2, -1572573.1, -1766911.5, 59834.902, 0.0010863026, 0.017738264, -1555628.0, 97616.21 
1.7766911e+3, 1.4128973e+2, -1485966.9, -1674285.4, 60361.977, -0.00044075953, 0.017266612, -1468280.0, 87082.48 
1.7765541e+3, 1.5127715e+2, -1406983.4, -1597005.5, 62345.855, 0.00026253567, 0.017195173, -1388354.1, 69131.47 
1.7764175e+3, 1.6126406e+2, -1320770.1, -1505068.8, 62455.4, 0.0010372619, 0.016969055, -1301599.4, 58014.586 
1.7762807e+3, 1.7125045e+2, -1242589.5, -1428446.9, 61744.793, 0.0019227628, 0.018531559, -1223946.9, 37800.52 
1.7761438e+3, 1.812363e+2, -1156752.1, -1336172.8, 61242.05, 0.0020300252, 0.018630784, -1137841.5, 26044.654 
1.7760065e+3, 1.912217e+2, -1078512.0, -1258382.5, 58501.555, 0.00019074386, 0.018202916, -1061158.9, 4870.288 
1.7758688e+3, 2.0120661e+2, -993951.8, -1166592.4, 57635.727, -0.0008768326, 0.016855868, -976478.7, -8301.629 
1.7757304e+3, 2.1119115e+2, -916678.44, -1088002.5, 52860.785, -0.00041773746, 0.017740916, -901681.44, -31352.932 
1.7755914e+3, 2.2117527e+2, -833894.7, -997118.06, 51853.293, -0.00059386017, 0.018183801, -818814.94, -46330.74 
1.7754516e+3, 2.3115906e+2, -756917.2, -917226.6, 45873.91, -0.0020165178, 0.017816655, -744718.3, -70075.25 
1.7753111e+3, 2.4114248e+2, -675393.1, -826058.1, 44074.363, -0.0027480864, 0.016580293, -663447.1, -86641.766 
1.7751694e+3, 2.511258e+2, -599862.0, -744530.4, 36861.145, -0.0016087629, 0.018228037, -591011.4, -112042.54 
1.7750269e+3, 2.6110885e+2, -521299.3, -655272.7, 35682.363, -0.0011690109, 0.018607637, -512388.38, -131253.42 
1.7748834e+3, 2.7109173e+2, -445269.4, -572380.6, 27974.34, -0.0036645236, 0.01604831, -439385.25, -156082.48 
1.7747392e+3, 2.8107446e+2, -366148.06, -481034.94, 25761.545, -0.0052773594, 0.014125785, -360635.9, -175164.0 
1.7745934e+3, 2.9105747e+2, -291257.03, -394938.13, 17688.352, -0.0027912543, 0.020029608, -288322.4, -200683.67 
1.774447e+3, 3.0104023e+2, -220422.64, -315754.63, 16909.336, -0.0017850652, 0.022458319, -217512.23, -217512.23 
1.7742994e+3, 3.1102508e+2, -155842.84, -198361.69, 7668.924, -0.0068358514, 0.015106015, -154501.92, -154501.92 
1.7741512e+3, 3.210132e+2, -169274.58, -186619.1, 4663.041, -0.006181039, 0.010524426, -168100.4, -168100.4 
1.7740013e+3, 3.3101004e+2, -99136.86, -1551.4022, -2792.0635, -0.0045854854, 0.02200162, -1471.5824, -1471.5824 
1.7881249e+3, 4.1542584e+1, -2319058.0, -2542582.0, 4668.7085, -0.005516383, 0.024443934, -2318960.5, 213924.0 
1.787976e+3, 5.1534e+1, -2237659.3, -2450204.0, 23610.889, -0.026713697, -0.0011419096, -2235068.0, 199900.55 
1.7878295e+3, 6.152588e+1, -2160067.3, -2363435.0, 27104.39, 0.023269856, 0.0283353, -2156516.8, 180531.33 
1.7876847e+3, 7.151706e+1, -2078534.3, -2280362.5, 40534.66, 0.013184184, 0.021160387, -2070697.6, 168436.98 
1.7875412e+3, 8.150793e+1, -1991116.6, -2187295.0, 43135.094, -0.004554458, 0.013573017, -1982051.1, 159172.94 
1.7873994e+3, 9.1498536e+1, -1911579.4, -2107447.3, 52953.555, -0.0007750919, 0.017267559, -1898179.9, 145136.3 
1.7872588e+3, 1.014887e+2, -1825089.3, -2015505.3, 54727.484, 0.0060418635, 0.019675098, -1810480.8, 134931.75 
1.7871192e+3, 1.1147831e+2, -1744298.5, -1936983.5, 62311.574, 0.005408838, 0.018963696, -1725903.9, 121610.484 
1.7869802e+3, 1.2146743e+2, -1655846.9, -1843629.6, 63801.215, 0.0028085604, 0.017653247, -1636220.9, 113400.18 
1.786842e+3, 1.3145603e+2, -1575759.4, -1766192.5, 68360.33, 0.0011928286, 0.018629676, -1553761.1, 97971.5 
1.7867042e+3, 1.4144412e+2, -1487468.5, -1672709.1, 69162.81, 0.0007341115, 0.018419998, -1464494.6, 89354.766 
1.7865668e+3, 1.5143168e+2, -1406827.5, -1595300.9, 71105.22, 0.0013414096, 0.017602779, -1383011.1, 72960.13 
1.7864293e+3, 1.6141868e+2, -1318708.5, -1502627.9, 71114.61, 0.0014859512, 0.016670087, -1294419.1, 63679.66 
1.7862917e+3, 1.714051e+2, -1239132.4, -1426187.1, 70720.16, 0.0015124006, 0.018527087, -1215404.9, 44826.85 
1.786154e+3, 1.8139097e+2, -1151782.9, -1332904.4, 70609.47, 0.0014996993, 0.018920943, -1127509.3, 34861.08 
1.786016e+3, 1.9137636e+2, -1072332.9, -1255095.4, 67788.266, -0.000023544208, 0.018768512, -1049934.5, 14578.89 
1.7858773e+3, 2.0136124e+2, -986337.25, -1162985.3, 67043.25, -0.0010797092, 0.017830444, -963774.25, 2887.519 
1.7857379e+3, 2.1134566e+2, -907602.8, -1084618.9, 62095.438, -0.00007264313, 0.017823128, -887992.8, -19178.475 
1.785598e+3, 2.2132961e+2, -823318.5, -992770.6, 61131.734, 0.0004772693, 0.01763172, -803566.8, -32595.38 
1.785457e+3, 2.3131327e+2, -746419.94, -913265.2, 54898.43, -0.0020380223, 0.018426586, -729976.8, -56845.195 
1.7853153e+3, 2.4129656e+2, -664576.6, -822126.56, 53333.3, -0.0036633988, 0.01784121, -648220.44, -72924.92 
1.7851724e+3, 2.5127965e+2, -586736.0, -740116.94, 45659.594, -0.0011561348, 0.017953992, -574172.75, -96711.61 
1.7850287e+3, 2.6126245e+2, -506274.34, -649911.56, 44259.875, 0.0002765481, 0.017646912, -493731.53, -114101.945 
1.7848837e+3, 2.7124512e+2, -432642.9, -568653.06, 36550.848, -0.0039805695, 0.017234622, -423442.7, -141643.0 
1.7847379e+3, 2.812276e+2, -354552.7, -477239.1, 34675.676, -0.006925844, 0.016148482, -345430.34, -161459.06 
1.7845908e+3, 2.9121032e+2, -276893.38, -390044.78, 25812.553, -0.0025577403, 0.01831493, -271283.1, -185142.52 
1.7844428e+3, 3.0119282e+2, -204811.39, -311219.97, 24522.338, -0.00002420961, 0.019069273, -199432.05, -199432.05 
1.7842937e+3, 3.1117734e+2, -142838.84, -196003.69, 15702.851, -0.006494322, 0.017769571, -138547.27, -138547.27 
1.7841434e+3, 3.2116517e+2, -155911.1, -182184.77, 13201.52, -0.0070231026, 0.016001144, -150423.84, -150423.84 
1.7839918e+3, 3.311617e+2, -83627.414, 5276.5605, 3024.2036, -0.0049685165, 0.017623235, 5379.315, 5379.315 
1.798146e+3, 4.1694847e+1, -2318258.3, -2535203.8, 8734.31, -0.022318495, 0.021981934, -2317907.3, 213484.97 
1.797997e+3, 5.168688e+1, -2236474.0, -2443522.3, 19125.586, 0.06440993, 0.0005849991, -2234722.0, 198748.34 
1.797848e+3, 6.167929e+1, -2156279.0, -2355870.3, 23977.525, -0.031451765, 0.02936134, -2153439.0, 182105.8 
1.7977026e+3, 7.167095e+1, -2076308.5, -2274426.8, 38523.293, -0.0041197487, 0.024445692, -2069081.5, 168545.11 
1.7975587e+3, 8.166224e+1, -1990026.1, -2183082.3, 40629.965, 0.015656553, 0.018041303, -1981823.8, 157888.2 
1.797416e+3, 9.1653067e+1, -1910748.6, -2104266.0, 50642.984, 0.0064034318, 0.017305542, -1898296.8, 143505.06 
1.7972745e+3, 1.0164348e+2, -1823189.6, -2010852.6, 52750.96, 0.00015053677, 0.016228981, -1809378.1, 134517.6 
1.7971343e+3, 1.1163345e+2, -1742689.0, -1932372.6, 60444.76, 0.0006119313, 0.01716238, -1725065.1, 120928.875 
1.7969948e+3, 1.21622905e+2, -1654597.3, -1840055.9, 61759.137, 0.0006899365, 0.017820796, -1635913.4, 112184.016 
1.7968558e+3, 1.3161173e+2, -1574798.5, -1763593.8, 66236.99, 0.0023831811, 0.0195406, -1553878.0, 96328.695 
1.7967173e+3, 1.4160001e+2, -1486356.8, -1670392.5, 67228.47, 0.0038911905, 0.019960225, -1464414.3, 87907.48 
1.7965792e+3, 1.515877e+2, -1406320.4, -1593935.5, 69162.086, 0.0033700168, 0.019114804, -1383580.6, 70861.766 
1.7964412e+3, 1.6157478e+2, -1317960.8, -1501016.9, 69140.234, 0.0016736663, 0.017519714, -1294781.5, 61787.42 
1.7963028e+3, 1.715613e+2, -1238421.3, -1424870.1, 68396.625, -0.00021621886, 0.018103665, -1216021.8, 42679.383 
1.7961644e+3, 1.8154724e+2, -1151034.6, -1331822.5, 68284.055, -0.00075903186, 0.017886179, -1128142.3, 32696.65 
1.7960255e+3, 1.9153267e+2, -1072106.8, -1255071.6, 65079.605, -0.0003010186, 0.01933629, -1051320.0, 11661.749 
1.7958862e+3, 2.0151754e+2, -986252.56, -1163411.0, 64306.05, -0.00019683568, 0.019920386, -965371.56, -241.50874 
1.7957458e+3, 2.1150187e+2, -908015.1, -1086121.5, 58906.63, 0.000295745, 0.017890729, -890295.4, -23011.758 
1.7956048e+3, 2.214857e+2, -823592.25, -993977.0, 57681.76, 0.00075386005, 0.016008753, -805901.56, -36459.57 
1.7954628e+3, 2.3146927e+2, -746883.8, -914813.9, 50712.902, -0.0014317937, 0.019221416, -732757.44, -61154.508 
1.7953199e+3, 2.4145244e+2, -665401.9, -824396.6, 49349.043, -0.0032155553, 0.020256894, -651330.2, -77562.234 
1.795176e+3, 2.5143528e+2, -588099.1, -743421.1, 41341.37, -0.0015492721, 0.016919093, -577780.94, -101844.914 
1.7950308e+3, 2.6141784e+2, -507342.8, -652519.25, 39238.813, -0.0006538558, 0.014764904, -497416.0, -119309.164 
1.7948845e+3, 2.7140036e+2, -433769.34, -571356.3, 30724.938, -0.003407345, 0.020198325, -427219.84, -146941.66 
1.7947371e+3, 2.8138268e+2, -355967.5, -480461.3, 29415.727, -0.0055400277, 0.022053743, -349367.03, -166915.56 
1.7945887e+3, 2.9136506e+2, -278740.2, -394296.16, 20448.654, -0.003536772, 0.014950508, -275228.34, -190604.06 
1.7944391e+3, 3.0134723e+2, -205982.47, -314279.8, 18499.824, -0.0024097308, 0.010658694, -202909.45, -202909.45 
1.7942882e+3, 3.1133163e+2, -144050.31, -199187.56, 9109.414, -0.0049543497, 0.02166607, -142584.3, -142584.3 
1.7941362e+3, 3.2131925e+2, -158531.88, -188112.94, 7205.4336, -0.0034766744, 0.027100338, -156870.11, -156870.11 
1.793983e+3, 3.3131513e+2, -87210.93, -2160.8025, -3884.341, -0.008057038, 0.012221059, -1983.7684, -1983.7684 
1.8081667e+3, 4.1849038e+1, -2339854.0, -2537116.8, 8115.5947, 0.010673206, 0.028796032, -2339520.8, 190360.48 
1.8080159e+3, 5.184135e+1, -2260316.8, -2451707.8, 25673.777, 0.03669192, -0.0026786204, -2256932.8, 175023.9 
1.8078664e+3, 6.1834127e+1, -2170519.0, -2358105.3, 29407.05, -0.017144026, 0.030737296, -2166017.0, 168010.38 
1.80772e+3, 7.1826166e+1, -2090523.9, -2276943.5, 44121.54, 0.00009689033, 0.023891337, -2080608.6, 155496.92 
1.8075754e+3, 8.181782e+1, -2003833.4, -2184974.0, 46444.83, 0.010601309, 0.01668475, -1992619.1, 145568.25 
1.807432e+3, 9.1809046e+1, -1921765.5, -2105308.5, 57405.363, 0.0048945574, 0.01791324, -1905290.1, 134983.1 
1.8072899e+3, 1.01799816e+2, -1831794.0, -2010887.8, 59799.504, 0.0017999123, 0.018297873, -1813662.6, 128701.12 
1.8071489e+3, 1.1179008e+2, -1750734.4, -1932758.6, 67511.44, 0.0017810218, 0.018630316, -1728428.4, 116030.625 
1.807009e+3, 1.2177981e+2, -1661231.0, -1839528.6, 68982.44, 0.0012020796, 0.018489707, -1637658.5, 108901.21 
1.8068694e+3, 1.3176893e+2, -1578509.9, -1762142.9, 74052.4, 0.002393221, 0.019154845, -1552368.6, 96297.86 
1.8067305e+3, 1.4175743e+2, -1487585.0, -1667964.0, 75236.04, 0.0035571116, 0.019014983, -1460324.0, 90455.1 
1.8065917e+3, 1.517453e+2, -1406823.1, -1591945.6, 77451.8, 0.0029105905, 0.019381221, -1378693.1, 74204.75 
1.806453e+3, 1.6173255e+2, -1317224.5, -1498137.5, 77934.64, 0.0015141228, 0.018698117, -1288281.8, 66741.11 
1.8063141e+3, 1.7171921e+2, -1235332.1, -1421526.1, 77455.586, -0.00009749869, 0.018657343, -1207324.1, 49829.477 
1.806175e+3, 1.8170525e+2, -1145793.3, -1327842.1, 77525.87, -0.00045315488, 0.018071063, -1117253.0, 42037.445 
1.8060353e+3, 1.916907e+2, -1065980.6, -1251633.3, 74180.2, 0.0004108023, 0.018965455, -1039981.75, 21451.232 
1.8058951e+3, 2.0167556e+2, -978554.94, -1159093.0, 73687.96, 0.0005739206, 0.019427132, -952297.5, 11283.83 
1.805754e+3, 2.1165988e+2, -898766.75, -1081596.0, 68250.086, -0.00041588894, 0.018853568, -876099.3, -10364.253 
1.8056121e+3, 2.2164366e+2, -812710.0, -988961.5, 67197.445, -0.0005232396, 0.017552134, -790013.2, -22119.158 
1.8054691e+3, 2.316271e+2, -734690.44, -909921.9, 59753.652, -0.0005918551, 0.019294953, -716254.25, -46198.004 
1.805325e+3, 2.4161011e+2, -652152.44, -819066.44, 58518.777, -0.001274962, 0.019768244, -633680.44, -61457.727 
1.8051799e+3, 2.5159281e+2, -575975.6, -739049.9, 50445.594, -0.002040254, 0.017664893, -561632.3, -87239.91 
1.8050335e+3, 2.615752e+2, -495236.2, -647988.4, 48512.547, -0.0025769142, 0.016036885, -481131.5, -104566.47 
1.8048859e+3, 2.715575e+2, -418661.4, -565614.3, 39619.355, -0.0027342143, 0.020649647, -408660.44, -129922.2 
1.804737e+3, 2.8153962e+2, -339175.5, -474361.38, 38429.793, -0.0029724715, 0.022189444, -329014.66, -148101.0 
1.8045871e+3, 2.915217e+2, -265230.3, -390576.3, 29118.637, -0.0035050432, 0.01518028, -258796.16, -175706.92 
1.8044358e+3, 3.0150357e+2, -193273.42, -310109.84, 26894.947, -0.004376928, 0.010795437, -187379.69, -187379.69 
1.8042834e+3, 3.1148776e+2, -127969.32, -193525.13, 16739.451, -0.0050784145, 0.022233015, -123942.33, -123942.33 
1.8041298e+3, 3.2147506e+2, -141031.13, -182948.58, 14940.347, -0.0014212978, 0.027502382, -136251.13, -136251.13 
1.8039747e+3, 3.3147052e+2, -71562.055, 615.7601, 3498.7905, -0.007513115, 0.0113843335, 784.9659, 784.9659 
1.8181857e+3, 4.2004386e+1, -2337409.5, -2525384.0, -4150.3906, 0.015263892, 0.03203976, -2337317.8, 191041.06 
1.8180336e+3, 5.199697e+1, -2259640.5, -2449192.5, 23648.256, -0.023054104, -0.006254608, -2256734.8, 173696.97 
1.8178844e+3, 6.199005e+1, -2170417.8, -2353997.0, 26584.752, 0.02036067, 0.031888355, -2166645.5, 165853.9 
1.817737e+3, 7.1982455e+1, -2089564.8, -2272253.0, 41481.504, 0.010075918, 0.02172611, -2080587.0, 153986.86 
1.8175913e+3, 8.197449e+1, -2001575.8, -2179044.8, 44422.832, -0.0044968054, 0.013099356, -1991077.3, 145574.7 
1.8174475e+3, 9.19662e+1, -1919960.9, -2099770.0, 55761.484, 0.0001851509, 0.01878829, -1904072.4, 134660.83 
1.817305e+3, 1.0195739e+2, -1830427.6, -2006446.0, 57965.64, 0.006551194, 0.022594392, -1813053.5, 127765.97 
1.8171634e+3, 1.11947946e+2, -1749428.8, -1929016.1, 65732.586, 0.0054595494, 0.021398503, -1727940.5, 114971.586 
1.8170227e+3, 1.21937945e+2, -1659164.5, -1834944.9, 67641.61, 0.0026573564, 0.019473735, -1636149.0, 108861.06 
1.8168828e+3, 1.3192736e+2, -1576894.5, -1757798.9, 72792.266, 0.001517509, 0.018422572, -1551242.0, 95871.85 
1.8167433e+3, 1.4191616e+2, -1486327.9, -1664398.0, 73686.83, 0.00097050704, 0.017193392, -1459790.5, 89433.13 
1.816604e+3, 1.5190428e+2, -1405541.5, -1588962.4, 75609.94, 0.00089096656, 0.019266037, -1378392.1, 72947.914 
1.8164647e+3, 1.6189177e+2, -1315477.3, -1494939.8, 76432.875, 0.0011883838, 0.020197142, -1287337.1, 66125.586 
1.8163253e+3, 1.718786e+2, -1234141.5, -1419066.6, 75698.67, 0.0011045295, 0.019990072, -1207106.8, 48484.832 
1.8161857e+3, 1.818648e+2, -1144934.4, -1326152.1, 75540.83, 0.001064706, 0.019168906, -1117575.5, 40151.434 
1.8160453e+3, 1.9185027e+2, -1065463.1, -1251153.0, 71798.94, 0.0015475955, 0.017911758, -1040939.94, 18929.15 
1.8159044e+3, 2.0183517e+2, -977734.25, -1158148.4, 71452.945, 0.0010419542, 0.017150356, -952863.8, 9153.413 
1.8157625e+3, 2.1181954e+2, -898443.2, -1081301.0, 65438.508, -0.0020627002, 0.020703489, -877437.94, -13267.659 
1.8156198e+3, 2.2180337e+2, -812841.3, -989585.1, 64117.063, -0.0031467963, 0.021716718, -792031.75, -25702.713 
1.8154758e+3, 2.3178665e+2, -735259.75, -911616.2, 55984.47, 0.00044717055, 0.018624041, -718988.6, -50495.95 
1.8153307e+3, 2.4176952e+2, -652452.8, -820386.6, 54560.266, 0.0016932645, 0.01662911, -636283.5, -65622.89 
1.8151842e+3, 2.5175214e+2, -576530.25, -740810.2, 45797.99, -0.003038461, 0.020264357, -564625.4, -91794.49 
1.8150367e+3, 2.6173443e+2, -495838.97, -649746.2, 43928.633, -0.0057908758, 0.021483751, -484183.44, -109178.914 
1.8148877e+3, 2.7171654e+2, -419618.34, -567985.7, 34637.47, -0.0019003103, 0.018405383, -411930.34, -134750.45 
1.8147376e+3, 2.816984e+2, -340458.06, -477471.97, 32882.25, 0.0007819499, 0.016229434, -332975.25, -153617.77 
1.8145859e+3, 2.916803e+2, -267199.03, -394985.78, 22974.678, -0.0026951183, 0.020308198, -263193.97, -181659.13 
1.8144332e+3, 3.01662e+2, -194654.4, -313248.75, 21358.28, -0.0066153556, 0.021508107, -190925.14, -190925.14 
1.8142791e+3, 3.1164578e+2, -129363.85, -197194.64, 11072.745, -0.007676247, 0.017313045, -127602.086, -127602.086 
1.8141238e+3, 3.216327e+2, -142357.7, -187011.28, 8811.147, -0.0025199705, 0.013387474, -140681.95, -140681.95 
1.813967e+3, 3.3162805e+2, -73303.836, -3958.9626, -3336.0522, -0.0038613977, 0.02050214, -3798.841, -3798.841 
1.8282036e+3, 4.216013e+1, -2358010.8, -2523049.3, 5171.5303, 0.006435532, 0.019765573, -2357849.0, 168983.78 
1.8280509e+3, 5.2153414e+1, -2281440.5, -2456375.8, 25443.64, -0.017574795, 0.008241456, -2277815.0, 151083.58 
1.8279009e+3, 6.2146693e+1, -2192344.0, -2358646.5, 29455.047, 0.017505143, 0.027299777, -2187281.3, 143683.22 
1.8277529e+3, 7.2139686e+1, -2106735.8, -2274465.0, 45659.492, 0.009884033, 0.020837007, -2095111.8, 137921.28 
1.8276067e+3, 8.213227e+1, -2015242.1, -2179891.8, 48976.855, -0.0028432026, 0.015641503, -2001774.9, 133330.8 
1.8274625e+3, 9.212442e+1, -1932762.3, -2100833.0, 60635.926, 0.0005059458, 0.019627774, -1913170.0, 124012.64 
1.8273193e+3, 1.0211602e+2, -1841704.5, -2006941.1, 63281.043, 0.005994468, 0.02208743, -1820254.3, 119010.78 
1.8271774e+3, 1.12106964e+2, -1757472.4, -1928491.0, 71815.98, 0.0052800854, 0.020932075, -1731315.4, 110038.414 
1.8270363e+3, 1.2209733e+2, -1664761.3, -1833218.4, 73999.31, 0.002794742, 0.019377537, -1636872.3, 106575.85 
1.8268958e+3, 1.3208708e+2, -1582386.0, -1756582.8, 79379.51, 0.0013205936, 0.019361386, -1551640.3, 93908.25 
1.8267559e+3, 1.4207621e+2, -1490918.8, -1662492.3, 80731.85, 0.0007968853, 0.018764226, -1458904.9, 88750.23 
1.8266161e+3, 1.5206464e+2, -1406866.0, -1585891.6, 83311.67, 0.0011744046, 0.01974325, -1374094.9, 75673.695 
1.8264765e+3, 1.620524e+2, -1314244.8, -1490850.8, 84548.6, 0.0017467823, 0.019981695, -1280294.4, 71594.08 
1.8263365e+3, 1.7203948e+2, -1232653.1, -1415493.4, 83956.83, 0.0014576691, 0.019901305, -1199950.8, 54064.254 
1.8261965e+3, 1.8202586e+2, -1141915.6, -1321916.5, 84392.125, 0.00090069644, 0.019384738, -1108538.3, 47610.223 
1.8260553e+3, 1.9201154e+2, -1059116.6, -1246049.1, 81101.91, 0.0008322962, 0.018971117, -1028835.3, 29453.576 
1.825914e+3, 2.0199655e+2, -968624.0, -1151775.1, 81167.35, 0.00076503, 0.018288087, -937830.4, 22605.338 
1.8257713e+3, 2.11981e+2, -889479.56, -1075903.5, 74954.0, -0.0013412419, 0.020652069, -863081.44, -493.33365 
1.8256278e+3, 2.2196485e+2, -803165.0, -984101.9, 74129.64, -0.00236148, 0.021361474, -776673.0, -11926.465 
1.8254828e+3, 2.319481e+2, -723156.44, -906049.56, 65895.44, 0.0000582373, 0.018964494, -701887.94, -34977.344 
1.8253368e+3, 2.4193087e+2, -637919.75, -813630.25, 64451.684, 0.000977141, 0.017339366, -616813.75, -47734.34 
1.8251891e+3, 2.519134e+2, -562004.8, -734602.6, 55050.047, -0.0026433617, 0.021224529, -545941.56, -74690.81 
1.8250404e+3, 2.6189554e+2, -481606.34, -643759.25, 53434.8, -0.0047110817, 0.022425527, -465581.47, -92155.76 
1.8248901e+3, 2.7187744e+2, -406125.72, -562830.0, 43904.945, -0.0019036687, 0.017832002, -394663.06, -119060.19 
1.8247385e+3, 2.8185916e+2, -326547.1, -471711.44, 42013.46, 0.00015080928, 0.015188563, -315264.47, -137482.3 
1.8245855e+3, 2.918409e+2, -251537.23, -389153.5, 32620.416, -0.0021667578, 0.022531953, -244196.5, -164235.52 
1.8244311e+3, 3.0182236e+2, -177428.5, -307217.13, 31563.95, -0.005551859, 0.025264233, -170159.42, -170159.42 
1.8242756e+3, 3.1180575e+2, -113709.72, -193434.23, 19733.086, -0.00772828, 0.015557321, -109092.836, -109092.836 
1.8241186e+3, 3.2179233e+2, -125712.23, -181262.45, 16687.332, -0.0026207862, 0.009414, -121084.81, -121084.81 
1.82396e+3, 3.3178747e+2, -54981.523, 2489.2893, 4205.2397, -0.0041121095, 0.025525233, 2795.3638, 2795.3638 
1.8382207e+3, 4.2316616e+1, -2353437.3, -2507559.5, 13185.233, 0.0115013225, 0.015982982, -2352317.3, 172981.83 
1.8380676e+3, 5.231059e+1, -2282274.5, -2452829.5, 22564.66, 0.0059540113, 0.025975509, -2279339.8, 148018.4 
1.8379165e+3, 6.230408e+1, -2188025.8, -2349965.8, 28078.063, 0.00040645312, 0.020830031, -2183295.5, 146126.6 
1.8377683e+3, 7.229775e+1, -2103568.0, -2266212.5, 44788.52, 0.006615067, 0.02069683, -2092050.0, 139434.11 
1.8376218e+3, 8.2290953e+1, -2013361.1, -2173253.8, 47606.383, 0.005154543, 0.020309448, -2000260.3, 133290.38 
1.8374766e+3, 9.228353e+1, -1930772.1, -2094741.0, 59231.906, 0.0025888043, 0.020173773, -1911613.8, 124009.63 
1.8373331e+3, 1.0227556e+2, -1839218.9, -2000653.6, 62249.652, 0.0029757079, 0.019467276, -1818003.4, 119698.18 
1.8371908e+3, 1.1226696e+2, -1755370.6, -1922518.5, 70922.94, 0.0031720577, 0.019147541, -1729333.1, 110452.66 
1.8370494e+3, 1.2225777e+2, -1662982.8, -1828066.6, 72802.65, 0.002092924, 0.018953498, -1635463.9, 106412.08 
1.8369086e+3, 1.3224791e+2, -1580355.1, -1751647.3, 78031.04, 0.0015221122, 0.021129994, -1550138.8, 93833.79 
1.8367682e+3, 1.4223741e+2, -1488161.5, -1656774.8, 79878.805, 0.0018401715, 0.02176081, -1456329.3, 89746.15 
1.8366282e+3, 1.522262e+2, -1404488.4, -1580436.5, 82389.28, 0.0025604947, 0.020287706, -1371932.6, 76252.56 
1.8364881e+3, 1.6221432e+2, -1312286.5, -1486257.1, 83239.41, 0.0024479101, 0.018976394, -1278875.6, 71426.03 
1.8363477e+3, 1.722017e+2, -1230821.5, -1411655.4, 82328.44, 0.0012268529, 0.019238332, -1198955.3, 53470.246 
1.8362072e+3, 1.8218836e+2, -1139727.0, -1317766.5, 83198.305, -0.00036227127, 0.019423919, -1106900.6, 47655.426 
1.8360658e+3, 1.921743e+2, -1057513.6, -1242665.6, 79630.82, -0.0011871824, 0.021897534, -1027977.5, 28716.31 
1.8359238e+3, 2.0215955e+2, -967421.25, -1149082.1, 79152.98, -0.00041245163, 0.022037938, -937771.94, 21066.416 
1.8357804e+3, 2.1214409e+2, -888581.1, -1074393.8, 72093.44, 0.00075285207, 0.019202542, -863890.44, -2900.523 
1.835636e+3, 2.2212799e+2, -802016.56, -982637.2, 71692.36, 0.0005539739, 0.01760438, -777019.7, -13872.044 
1.8354903e+3, 2.3211132e+2, -722963.94, -906310.44, 62827.84, -0.0018510044, 0.020576783, -703500.7, -38189.66 
1.8353434e+3, 2.4209408e+2, -638027.94, -814279.44, 60751.79, -0.0028390945, 0.021768007, -619116.6, -51636.72 
1.8351945e+3, 2.5207648e+2, -562406.75, -736027.56, 50312.156, -0.00067361013, 0.020633848, -548880.94, -79228.39 
1.8350446e+3, 2.6205847e+2, -482214.2, -645465.9, 48676.473, 0.000016757103, 0.019095484, -468802.28, -96973.42 
1.8348928e+3, 2.7204028e+2, -407009.53, -565111.8, 38818.83, -0.0037604829, 0.0194041, -397992.63, -123985.56 
1.83474e+3, 2.820219e+2, -326617.7, -472174.4, 36715.39, -0.005730714, 0.01923533, -317880.97, -141693.63 
1.8345855e+3, 2.9200357e+2, -251888.39, -390293.13, 27244.578, -0.0014887588, 0.02083449, -246718.48, -168351.44 
1.8344298e+3, 3.0198482e+2, -179504.7, -311949.13, 26210.305, -0.0004914427, 0.021187127, -174506.4, -174506.4 
1.8342726e+3, 3.1196776e+2, -117300.94, -201542.17, 13791.302, -0.0054227016, 0.019430982, -115100.6, -115100.6 
1.8341142e+3, 3.2195395e+2, -126379.93, -183471.08, 10713.306, -0.0029845042, 0.017005362, -124435.76, -124435.76 
1.8339536e+3, 3.3194888e+2, -56227.836, -479.8577, -2424.8303, -0.008313316, 0.021686053, -374.58536, -374.58536 
1.848236e+3, 4.2473698e+1, -2384333.5, -2516088.5, 6177.2705, -0.0013172696, 0.025688145, -2384044.5, 139715.31 
1.8480828e+3, 5.246824e+1, -2307775.0, -2456852.3, 26962.354, 0.01668143, 0.018135281, -2303048.5, 122764.75 
1.8479314e+3, 6.246252e+1, -2204275.5, -2350862.3, 31625.582, -0.0041461443, 0.02205848, -2197743.5, 130125.82 
1.8477826e+3, 7.245672e+1, -2121022.3, -2268996.5, 47699.023, 0.0053121755, 0.021781798, -2106979.3, 122946.92 
1.8476357e+3, 8.245041e+1, -2030690.3, -2175975.0, 50929.03, 0.0061849575, 0.020940386, -2014615.9, 117372.18 
1.8474904e+3, 9.2443466e+1, -1944691.8, -2096207.5, 63103.2, 0.0030445193, 0.02039918, -1921853.1, 112202.984 
1.8473464e+3, 1.0243597e+2, -1850416.8, -2000475.0, 66156.195, 0.0030198004, 0.01963553, -1825415.8, 110713.8 
1.8472038e+3, 1.12427846e+2, -1765824.9, -1922085.4, 75241.26, 0.0028423662, 0.020257397, -1735485.9, 102723.28 
1.8470621e+3, 1.22419134e+2, -1672348.9, -1827126.0, 77607.766, 0.0018973185, 0.020492453, -1640138.4, 100156.18 
1.846921e+3, 1.324097e+2, -1586501.5, -1749202.8, 83546.375, 0.0023582715, 0.021173714, -1551242.0, 91144.83 
1.8467803e+3, 1.4239965e+2, -1492034.3, -1653281.5, 85866.88, 0.0030218733, 0.02100129, -1454873.0, 89612.41 
1.84664e+3, 1.523889e+2, -1408329.4, -1577169.0, 88717.34, 0.002268384, 0.020401772, -1370285.0, 76305.766 
1.8464996e+3, 1.6237745e+2, -1315034.1, -1482422.9, 90191.0, 0.0013227812, 0.019708803, -1275687.3, 73015.836 
1.8463589e+3, 1.7236522e+2, -1229845.3, -1406426.1, 90085.055, 0.0009906635, 0.020039866, -1191998.8, 58824.125 
1.846218e+3, 1.8235227e+2, -1136039.1, -1310956.9, 91589.1, 0.00046332343, 0.019996963, -1096858.3, 56091.457 
1.8460761e+3, 1.9233859e+2, -1054209.4, -1236688.8, 88496.08, -0.00068776, 0.021834357, -1018341.9, 36742.023 
1.8459336e+3, 2.0232415e+2, -963088.75, -1143018.8, 88959.2, -0.00044619283, 0.02194318, -926533.25, 30692.014 
1.8457898e+3, 2.1230893e+2, -879541.6, -1067440.1, 82342.65, 0.0008852377, 0.019499356, -848563.8, 10810.678 
1.8456449e+3, 2.2229302e+2, -788587.44, -973672.25, 82429.695, 0.00071391725, 0.018262837, -757199.4, 4331.085 
1.8454982e+3, 2.3227644e+2, -710503.94, -899031.1, 73268.14, -0.0022574733, 0.021584429, -685378.06, -21685.217 
1.8453504e+3, 2.4225926e+2, -625652.44, -807464.0, 71732.164, -0.0028998405, 0.022608379, -600759.44, -34898.133 
1.8452005e+3, 2.5224158e+2, -547615.8, -728981.8, 60816.996, 0.00013005236, 0.020202637, -529110.4, -61075.89 
1.8450493e+3, 2.622235e+2, -465996.28, -637762.9, 59143.375, 0.0007587197, 0.018370349, -447601.66, -77390.01 
1.8448961e+3, 2.7220523e+2, -392788.88, -558820.56, 49419.55, -0.0040526465, 0.020852508, -379192.47, -106801.82 
1.8447419e+3, 2.8218675e+2, -313153.78, -466121.6, 47554.31, -0.0065129874, 0.021512335, -299575.47, -125003.45 
1.8445861e+3, 2.921682e+2, -236626.11, -384113.53, 37551.156, -0.0010925141, 0.019751025, -227615.81, -150862.38 
1.844429e+3, 3.0214927e+2, -161712.11, -305306.53, 36066.074, 0.0011828326, 0.018719064, -153162.56, -153162.56 
1.8442702e+3, 3.1213194e+2, -99839.9, -197494.6, 24298.764, -0.0052381726, 0.021884538, -94127.9, -94127.9 
1.8441102e+3, 3.221177e+2, -105912.75, -176852.64, 21277.5, -0.004713571, 0.02177861, -100020.29, -100020.29 
1.843948e+3, 3.3211216e+2, -32895.336, 7528.5664, 4684.47, -0.006454266, 0.018464541, 8064.3193, 8064.3193 
1.8582502e+3, 4.2631167e+1, -2381449.3, -2508554.0, -4924.9453, -0.008996256, 0.026588228, -2381258.8, 140957.89 
1.858097e+3, 5.2626395e+1, -2302164.5, -2444525.0, 28888.506, 0.020929938, 0.003459948, -2296525.8, 127737.66 
1.8579456e+3, 6.262163e+1, -2203174.5, -2343492.3, 30518.143, -0.0040324116, 0.02601664, -2196824.5, 129485.6 
1.8577965e+3, 7.261631e+1, -2119562.5, -2262931.0, 45946.297, 0.0042827097, 0.02284295, -2106101.5, 122260.61 
1.857649e+3, 8.2610476e+1, -2027959.9, -2169103.8, 50142.47, 0.0039451346, 0.019716505, -2011960.0, 118459.46 
1.8575034e+3, 9.2604035e+1, -1942256.6, -2089433.5, 62624.973, 0.0026161147, 0.020426871, -1919216.1, 113266.375 
1.8573593e+3, 1.0259705e+2, -1847899.5, -1993551.4, 65423.84, 0.0040624766, 0.02107746, -1822828.1, 111722.914 
1.8572164e+3, 1.1258947e+2, -1762876.4, -1914780.1, 74380.12, 0.003060515, 0.02250671, -1732521.6, 104103.6 
1.8570744e+3, 1.2258128e+2, -1669120.1, -1819586.9, 77015.24, 0.0015919564, 0.022487985, -1636690.1, 102015.45 
1.8569331e+3, 1.3257238e+2, -1583370.3, -1741584.3, 82951.69, 0.0032944584, 0.020314896, -1547852.3, 92940.53 
1.8567923e+3, 1.4256285e+2, -1489222.9, -1646417.1, 84932.35, 0.003980609, 0.018892158, -1452100.5, 90785.73 
1.8566515e+3, 1.5255259e+2, -1405160.1, -1570158.4, 87619.984, 0.000950904, 0.02090469, -1367312.4, 77674.25 
1.856511e+3, 1.6254166e+2, -1311513.1, -1475078.9, 89583.445, -0.0011136339, 0.021866573, -1271996.3, 75097.586 
1.85637e+3, 1.7252994e+2, -1226549.3, -1399142.8, 89437.98, 0.0004851514, 0.021885462, -1188563.0, 60645.76 
1.8562287e+3, 1.825175e+2, -1132839.3, -1303868.4, 90442.34, 0.002006347, 0.020834707, -1093884.8, 57445.88 
1.8560866e+3, 1.9250426e+2, -1050983.4, -1230054.6, 86737.74, 0.0010002762, 0.019677412, -1015859.1, 37601.203 
1.8559437e+3, 2.0249027e+2, -959808.3, -1136854.3, 87825.57, 0.00017073509, 0.019317701, -923633.06, 31964.43 
1.8557993e+3, 2.1247542e+2, -877410.7, -1063321.5, 81068.29, -0.00026137164, 0.02133462, -847026.0, 10716.949 
1.855654e+3, 2.224598e+2, -786846.8, -969879.3, 80360.56, -0.0010647149, 0.022226999, -756572.1, 3323.9722 
1.8555067e+3, 2.324434e+2, -709350.06, -896895.2, 69880.37, -0.0016032851, 0.021747854, -686175.8, -24119.016 
1.8553577e+3, 2.4242632e+2, -624734.8, -806017.3, 68648.62, -0.0008402518, 0.020201862, -601672.6, -37448.5 
1.855207e+3, 2.5240868e+2, -547307.75, -729078.3, 56745.387, -0.0010337859, 0.02029341, -531047.44, -64650.457 
1.8550545e+3, 2.6239058e+2, -465551.0, -637681.1, 54210.586, -0.0022820267, 0.0204333, -449900.88, -81326.63 
1.8549e+3, 2.7237228e+2, -392932.13, -559556.0, 43883.504, -0.002084634, 0.0221691, -382081.22, -111327.68 
1.8547443e+3, 2.823537e+2, -314108.75, -468336.72, 42400.582, -0.0017356582, 0.022256646, -303220.6, -130284.77 
1.8545872e+3, 2.9233494e+2, -238474.53, -388060.72, 33025.652, -0.0022918084, 0.019618316, -231507.61, -156387.9 
1.8544288e+3, 3.0231574e+2, -162136.78, -306567.9, 30976.066, -0.0038638194, 0.016868157, -155773.7, -155773.7 
1.8542686e+3, 3.1229827e+2, -101438.11, -201481.84, 18802.135, -0.00779845, 0.02199191, -98021.16, -98021.16 
1.8541072e+3, 3.2228363e+2, -109889.32, -185564.92, 16517.027, -0.005118934, 0.025549138, -106441.39, -106441.39 
1.8539435e+3, 3.3227748e+2, -36152.008, 22.626919, -1629.3813, -0.0031580846, 0.017266668, 95.86938, 95.86938 
1.8682638e+3, 4.278946e+1, -2405864.5, -2517995.3, 788.1883, 0.018056922, 0.028640172, -2405859.0, 114806.32 
1.8681102e+3, 5.278515e+1, -2324561.3, -2449341.0, 30085.814, -0.00019337243, -0.00017706641, -2317686.0, 105021.54 
1.8679588e+3, 6.2781066e+1, -2228607.8, -2349388.3, 31031.408, 0.0067059807, 0.032980822, -2221101.5, 103646.08 
1.8678091e+3, 7.2776246e+1, -2139554.3, -2266751.5, 46850.906, 0.0071476027, 0.023559712, -2124160.5, 102634.36 
1.8676613e+3, 8.27709e+1, -2043424.5, -2170513.3, 51360.164, 0.0007881297, 0.016951552, -2025263.6, 103583.67 
1.8675157e+3, 9.2765045e+1, -1956575.9, -2090257.1, 64179.746, 0.0016551522, 0.02078174, -1930752.0, 100152.664 
1.8673715e+3, 1.0275862e+2, -1861285.9, -1993939.6, 67275.44, 0.005089076, 0.022971883, -1833139.3, 99828.31 
1.8672283e+3, 1.12751566e+2, -1774008.4, -1913920.0, 76571.34, 0.0037733617, 0.02197177, -1740248.4, 94788.516 
1.867086e+3, 1.2274391e+2, -1678639.4, -1817801.0, 79555.15, 0.0016004643, 0.020874482, -1642529.5, 94582.24 
1.8669446e+3, 1.3273561e+2, -1592351.0, -1739164.9, 85890.734, 0.0024159695, 0.021017563, -1552772.1, 86421.0 
1.8668036e+3, 1.4272669e+2, -1497171.6, -1643427.6, 88482.766, 0.003212952, 0.020939862, -1455509.0, 85771.62 
1.8666627e+3, 1.5271702e+2, -1409980.4, -1565244.8, 92009.79, 0.0015589132, 0.021400286, -1367227.5, 76147.72 
1.8665218e+3, 1.6270672e+2, -1314455.9, -1469162.5, 94761.55, -0.000004732995, 0.021441313, -1269484.8, 75991.695 
1.8663807e+3, 1.7269562e+2, -1229777.6, -1393212.1, 95449.0, 0.00034376676, 0.022050476, -1185843.8, 61741.32 
1.8662393e+3, 1.8268383e+2, -1135313.3, -1297778.9, 97489.46, 0.0012808685, 0.021534113, -1089648.6, 60052.063 
1.8660969e+3, 1.926712e+2, -1049222.0, -1222140.1, 94688.336, 0.0011039202, 0.02005, -1007458.4, 44366.027 
1.8659535e+3, 2.026578e+2, -954542.56, -1127078.0, 96926.64, 0.00036672736, 0.01960907, -911053.25, 42902.395 
1.865809e+3, 2.1264352e+2, -872659.6, -1054486.1, 91351.94, -0.0007956415, 0.022171473, -834691.56, 21403.955 
1.8656631e+3, 2.2262844e+2, -780817.9, -960504.56, 92357.62, -0.0007752697, 0.022801263, -741813.44, 16429.96 
1.8655153e+3, 2.3261246e+2, -698107.06, -886861.1, 82732.484, -0.0004716126, 0.021315744, -666978.4, -6578.3267 
1.8653657e+3, 2.4259569e+2, -608281.5, -794403.4, 82807.9, -0.00045367397, 0.019901626, -576773.2, -14208.889 
1.865214e+3, 2.5257817e+2, -531398.94, -720596.25, 70175.76, -0.0018008524, 0.021260068, -508211.6, -43475.56 
1.8650602e+3, 2.625601e+2, -449850.9, -629963.7, 67053.07, -0.0026951814, 0.021919275, -427629.66, -60716.273 
1.8649043e+3, 2.7254164e+2, -378042.13, -552262.2, 55649.71, -0.0007835931, 0.022497112, -361783.66, -92689.93 
1.864747e+3, 2.82523e+2, -301648.03, -461257.88, 54700.215, 0.000018140016, 0.02192912, -284701.0, -113424.38 
1.8645886e+3, 2.9250413e+2, -225849.92, -384478.66, 48611.43, -0.0030931137, 0.019908182, -212138.27, -138676.67 
1.8644294e+3, 3.0248463e+2, -140529.98, -299710.53, 45433.984, -0.00637759, 0.018251007, -128474.97, -128474.97 
1.864268e+3, 3.1246656e+2, -75678.36, -195927.66, 27885.361, -0.0060786037, 0.023322532, -69526.57, -69526.57 
1.8641052e+3, 3.2245123e+2, -84496.39, -179586.98, 23541.162, -0.000036098605, 0.026010938, -78987.55, -78987.55 
1.8639402e+3, 3.324443e+2, -4930.3003, 5721.5938, 5980.5313, -0.004947871, 0.018605027, 8403.922, 8403.922 
1.8782763e+3, 4.294795e+1, -2406589.0, -2515482.5, 5640.8438, 0.022582931, 0.02588689, -2406297.5, 112814.56 
1.8781221e+3, 5.2944165e+1, -2323565.0, -2443267.5, 28055.229, -0.024546416, 0.00056110526, -2317316.0, 103833.4 
1.8779708e+3, 6.2940687e+1, -2226274.5, -2341640.5, 30602.377, 0.019495616, 0.039998658, -2218659.5, 104524.06 
1.8778211e+3, 7.293638e+1, -2137098.0, -2259162.5, 46713.633, 0.010712482, 0.023820681, -2121272.5, 103953.05 
1.8776733e+3, 8.293158e+1, -2040639.5, -2162756.0, 50987.836, -0.0023678106, 0.013891283, -2022149.8, 105122.87 
1.8775275e+3, 9.292635e+1, -1953560.0, -2082046.3, 63532.39, 0.00063995144, 0.021183077, -1927450.9, 101873.14 
1.877383e+3, 1.02920525e+2, -1858305.4, -1986089.3, 66792.11, 0.005799006, 0.024620684, -1829767.0, 101614.02 
1.8772398e+3, 1.1291402e+2, -1770807.1, -1905561.9, 76065.195, 0.0044941828, 0.020152776, -1736569.5, 96875.305 
1.8770973e+3, 1.2290697e+2, -1675227.8, -1809350.8, 78988.52, 0.0016221901, 0.018131813, -1638672.5, 96841.33 
1.8769556e+3, 1.3289936e+2, -1588250.8, -1729722.9, 85220.84, 0.0005722625, 0.022752704, -1548234.0, 89354.516 
1.8768145e+3, 1.4289111e+2, -1492702.1, -1633582.6, 88122.79, 0.0011583612, 0.02462079, -1450326.4, 89342.87 
1.8766735e+3, 1.5288214e+2, -1405318.6, -1554658.3, 91603.35, 0.0028331217, 0.021399269, -1361807.4, 79949.76 
1.8765326e+3, 1.6287254e+2, -1309851.9, -1458762.9, 93998.266, 0.0029046903, 0.019457193, -1264393.6, 79457.555 
1.8763912e+3, 1.7286223e+2, -1224606.3, -1382076.5, 94407.23, 0.00054450537, 0.021402594, -1180410.8, 65541.62 
1.8762495e+3, 1.828512e+2, -1130122.6, -1286951.9, 96961.8, -0.00074734195, 0.022491686, -1083835.8, 64224.566 
1.876107e+3, 1.9283934e+2, -1044226.2, -1211165.5, 94216.31, 0.00037564864, 0.022341913, -1001823.3, 48353.37 
1.8759635e+3, 2.0282672e+2, -949353.6, -1115715.4, 95981.96, 0.0002932828, 0.021935679, -905524.25, 46776.016 
1.8758187e+3, 2.1281321e+2, -867276.5, -1043176.3, 89778.82, -0.0013166745, 0.022365974, -829546.56, 24886.084 
1.8756723e+3, 2.2279888e+2, -775368.7, -949447.75, 91325.38, -0.0006221503, 0.02151887, -736248.75, 20324.309 
1.8755242e+3, 2.3278356e+2, -694066.9, -878754.5, 81088.07, 0.00018828317, 0.021301944, -663517.8, -4794.5244 
1.8753742e+3, 2.4276732e+2, -604945.5, -787933.06, 80569.76, -0.0007091184, 0.021692915, -574527.0, -13644.528 
1.8752214e+3, 2.5275e+2, -531047.44, -720136.2, 65840.375, -0.0020070071, 0.02282151, -510380.72, -47328.598 
1.8750665e+3, 2.627319e+2, -450560.53, -631442.6, 62129.813, -0.0018224128, 0.022558816, -431276.03, -66046.57 
1.8749091e+3, 2.727134e+2, -377906.34, -552393.44, 49705.895, -0.0012856646, 0.02177983, -364740.16, -97329.01 
1.8747501e+3, 2.826947e+2, -299660.16, -457816.63, 48632.676, -0.0024564094, 0.020033693, -285902.47, -116308.55 
1.8745907e+3, 2.926759e+2, -228020.25, -388769.0, 46247.484, -0.0028797637, 0.02085207, -215664.53, -143886.33 
1.8744309e+3, 3.0265602e+2, -145838.88, -310433.4, 43488.617, -0.0022149787, 0.024651155, -135054.98, -135054.98 
1.8742687e+3, 3.1263682e+2, -84105.75, -213565.56, 22774.436, 0.0016851743, 0.025546126, -80216.16, -80216.16 
1.8741041e+3, 3.2262036e+2, -88832.41, -189289.92, 17530.762, 0.002789397, 0.01798946, -85861.016, -85861.016 
1.873938e+3, 3.3261275e+2, -12253.644, -10563.234, 4711.787, -0.0118894875, 0.02056349, -6621.4453, -6621.4453 
1.888287e+3, 4.310544e+1, -2433969.8, -2521412.8, 4012.9836, -0.006166348, 0.025277339, -2433785.8, 83782.92 
1.8881333e+3, 5.3102714e+1, -2346524.5, -2443467.5, 24527.121, -0.0026064962, 0.0056776805, -2340672.5, 78923.15 
1.8879817e+3, 6.3100034e+1, -2247567.8, -2344268.8, 29178.893, 0.0073526306, 0.03559899, -2239445.3, 82176.58 
1.887832e+3, 7.309638e+1, -2156088.8, -2261952.8, 45501.39, 0.00860779, 0.024034787, -2139219.8, 84437.82 
1.8876843e+3, 8.3092195e+1, -2057551.6, -2164569.0, 49482.676, 0.0012342089, 0.016698947, -2038178.8, 87519.89 
1.8875383e+3, 9.308753e+1, -1968808.4, -2082737.0, 61926.19, 0.0011842517, 0.020938663, -1941631.3, 86113.15 
1.8873937e+3, 1.0308232e+2, -1872432.9, -1986045.6, 65560.58, 0.0050280797, 0.02323418, -1842491.6, 87303.8 
1.8872505e+3, 1.130765e+2, -1783641.4, -1904231.0, 75297.24, 0.0043956214, 0.02180458, -1747473.1, 84379.41 
1.887108e+3, 1.2307014e+2, -1687149.1, -1807633.9, 78828.33, 0.0018992659, 0.020936418, -1648179.4, 85735.43 
1.8869662e+3, 1.330632e+2, -1598119.9, -1726187.8, 85639.05, 0.0009287978, 0.022303566, -1555222.0, 80760.734 
1.886825e+3, 1.4305569e+2, -1501609.5, -1629435.4, 89034.26, 0.0013136683, 0.022653105, -1455923.4, 82132.945 
1.8866839e+3, 1.5304755e+2, -1414053.0, -1549546.3, 93155.38, 0.0024215363, 0.021919651, -1366614.9, 73521.41 
1.8865427e+3, 1.6303879e+2, -1318057.6, -1453339.1, 96312.1, 0.0024279011, 0.021365806, -1268006.9, 74215.16 
1.8864012e+3, 1.7302935e+2, -1229686.5, -1374129.8, 97534.484, 0.0008187014, 0.021811837, -1180545.3, 63769.414 
1.8862595e+3, 1.8301922e+2, -1133627.5, -1278032.0, 101108.734, -0.00013991633, 0.022198051, -1081587.5, 64826.24 
1.8861167e+3, 1.9300833e+2, -1048086.44, -1201384.3, 99764.92, 0.00030217782, 0.022977969, -998925.56, 49594.934 
1.885973e+3, 2.0299673e+2, -953182.3, -1105708.4, 103164.305, 0.00041919816, 0.022659652, -901153.0, 49481.156 
1.885828e+3, 2.1298426e+2, -867416.75, -1030766.4, 98662.2, -0.0010383216, 0.022139292, -821009.56, 31746.777 
1.8856815e+3, 2.22971e+2, -772981.25, -935901.8, 102529.99, -0.0008717718, 0.021472527, -723490.44, 31395.83 
1.8855329e+3, 2.3295671e+2, -691539.3, -865748.8, 94750.96, 0.000089460984, 0.022134582, -649939.06, 7087.372 
1.8853824e+3, 2.4294147e+2, -598825.1, -772670.9, 97896.25, -0.00027934738, 0.022681538, -554831.0, 4344.7905 
1.8852292e+3, 2.5292498e+2, -519111.56, -705843.56, 86283.17, -0.0017127909, 0.022961577, -485347.72, -24010.424 
1.8850733e+3, 2.6290748e+2, -430506.72, -615787.75, 86543.14, -0.0015627699, 0.022454832, -396371.9, -32862.8 
1.8849145e+3, 2.7288884e+2, -359160.25, -547665.7, 71429.016, -0.0015519677, 0.0216236, -335151.9, -69460.08 
1.8847539e+3, 2.8286964e+2, -287147.44, -458117.22, 64892.91, -0.0024149062, 0.020448146, -265306.84, -97426.984 
1.8845932e+3, 2.928502e+2, -215117.23, -386698.13, 64609.625, -0.0017333344, 0.023750676, -193509.33, -123438.99 
1.8844336e+3, 3.0282983e+2, -114158.95, -296721.88, 62742.28, -0.0010366376, 0.025271846, -94675.35, -94675.35 
1.8842709e+3, 3.1280947e+2, -44304.33, -216653.03, 39038.695, -0.0010833287, 0.020254692, -35874.035, -35874.035 
1.8841055e+3, 3.2279095e+2, -31443.014, -181832.98, 24079.666, -0.00016246487, 0.014140146, -27681.58, -27681.58 
1.8839368e+3, 3.327825e+2, 5914.6777, -1589.1649, 802.7358, -0.009200769, 0.022606801, 5999.591, 5999.591 
1.898297e+3, 4.3262637e+1, -2431885.0, -2510465.3, 7409.908, -0.0025790636, 0.030241592, -2431192.3, 84836.1 
1.8981437e+3, 5.326101e+1, -2340543.5, -2428146.3, 25314.46, 0.028292798, 0.011156485, -2333754.5, 84289.76 
1.8979916e+3, 6.325914e+1, -2242740.5, -2333933.3, 30001.922, -0.012380975, 0.027655682, -2233755.3, 86307.3 
1.8978423e+3, 7.32562e+1, -2153081.3, -2253579.8, 46052.715, 0.0047722002, 0.02438554, -2135170.3, 86921.26 
1.8976948e+3, 8.325266e+1, -2055152.1, -2156716.8, 49562.05, 0.00655281, 0.02123, -2034975.0, 89151.11 
1.8975487e+3, 9.3248576e+1, -1965672.0, -2073936.6, 61627.63, 0.0019222917, 0.020218331, -1937778.3, 88387.9 
1.8974039e+3, 1.0324401e+2, -1868723.4, -1976714.9, 65394.6, 0.0034660925, 0.020826943, -1837913.5, 90297.47 
1.8972605e+3, 1.1323896e+2, -1779144.0, -1893549.0, 74912.81, 0.003719892, 0.024877187, -1742091.3, 88169.24 
1.8971181e+3, 1.2323337e+2, -1682564.1, -1797065.6, 78510.5, 0.001902551, 0.025508506, -1642647.3, 89667.984 
1.8969762e+3, 1.3322715e+2, -1593061.5, -1714389.3, 85234.195, 0.002070197, 0.02035305, -1549107.1, 85268.914 
1.8968348e+3, 1.4322045e+2, -1496567.1, -1617788.6, 88426.38, 0.0024336148, 0.018266607, -1449973.0, 86468.7 
1.8966936e+3, 1.5321325e+2, -1408014.0, -1536224.6, 92403.03, 0.0010775884, 0.02321951, -1359656.9, 78855.625 
1.8965523e+3, 1.6320544e+2, -1311862.6, -1439907.6, 95889.4, -0.0000054695347, 0.025429884, -1260587.0, 80001.86 
1.8964109e+3, 1.7319696e+2, -1222793.1, -1358905.3, 97102.22, 0.00091307505, 0.022619154, -1172272.4, 70399.65 
1.8962689e+3, 1.831879e+2, -1126585.8, -1262564.8, 100381.34, 0.0013882791, 0.020934312, -1073335.9, 71424.914 
1.896126e+3, 1.9317818e+2, -1039670.5, -1183586.9, 98807.945, 0.00019826555, 0.022555955, -989395.4, 57460.7 
1.8959822e+3, 2.0316781e+2, -944659.6, -1087852.1, 102525.39, -0.00023803415, 0.022845317, -891206.0, 57751.594 
1.8958369e+3, 2.1315666e+2, -857919.94, -1010674.7, 97909.72, -0.00037692933, 0.022009578, -810120.75, 40946.195 
1.8956903e+3, 2.2314477e+2, -763398.3, -915975.3, 101467.21, -0.0005771626, 0.022055378, -712739.9, 40443.508 
1.8955414e+3, 2.331319e+2, -681292.8, -844646.0, 93525.67, -0.00052311085, 0.023321321, -638799.7, 16509.953 
1.8953907e+3, 2.4311817e+2, -587516.56, -749309.4, 97132.01, -0.0008377248, 0.023264203, -542005.44, 15438.83 
1.8952371e+3, 2.531031e+2, -509951.66, -687054.8, 84532.414, -0.0019742427, 0.022445908, -476081.38, -16489.816 
1.8950808e+3, 2.6308674e+2, -423658.22, -602120.2, 84644.336, -0.0021081162, 0.021931354, -389898.0, -28145.66 
1.8949209e+3, 2.7306798e+2, -366096.38, -562603.06, 64618.344, -0.0013425638, 0.0224071, -346751.88, -82816.08 
1.894758e+3, 2.8304774e+2, -298038.63, -480646.22, 55735.332, 0.00028679532, 0.023591397, -282371.34, -116236.98 
1.8945964e+3, 2.93027e+2, -219946.92, -395469.7, 66563.164, -0.0018245508, 0.02748941, -197559.7, -129222.11 
1.8944371e+3, 3.030061e+2, -112419.94, -293220.78, 65854.47, -0.011759632, 0.016686467, -90976.51, -90976.51 
1.894275e+3, 3.129847e+2, -64067.27, -258279.11, 38348.445, -0.024754977, 0.008781102, -56769.344, -56769.344 
1.8941092e+3, 3.2296336e+2, -51803.203, -224926.45, 20266.793, -0.011716554, 0.023560839, -49462.31, -49462.31 
1.8939361e+3, 3.32954e+2, 12818.349, 14872.486, -28950.164, 0.012281071, 0.036413576, 42813.793, 42813.793 
1.9083057e+3, 4.3420503e+1, -2460653.5, -2516315.3, 1612.2365, 0.008500154, 0.024516841, -2460606.8, 53874.453 
1.9081526e+3, 5.341937e+1, -2364961.8, -2436363.8, 25276.213, 0.016173754, 0.015677297, -2356919.8, 59572.63 
1.908001e+3, 6.341786e+1, -2260071.5, -2336544.5, 26693.107, -0.005254654, 0.02408423, -2251675.8, 66831.34 
1.9078517e+3, 7.341552e+1, -2171080.5, -2256187.0, 41857.36, 0.0062184166, 0.023208788, -2153944.5, 66585.63 
1.9077042e+3, 8.34126e+1, -2073353.9, -2158955.0, 45677.617, 0.0038529302, 0.022365412, -2053557.8, 69000.945 
1.9075581e+3, 9.3409175e+1, -1981537.5, -2074260.6, 57732.42, 0.0011853843, 0.022273092, -1953855.6, 70736.664 
1.9074135e+3, 1.0340528e+2, -1883446.9, -1976709.3, 61648.52, 0.004461995, 0.022283467, -1852779.9, 73850.62 
1.90727e+3, 1.134009e+2, -1792392.8, -1892002.1, 71162.77, 0.0039837994, 0.023287054, -1755337.5, 73335.88 
1.9071274e+3, 1.2339605e+2, -1695268.3, -1795009.6, 74806.016, 0.0014832286, 0.023275765, -1655233.3, 75487.7 
1.9069855e+3, 1.3339068e+2, -1605141.0, -1710825.8, 81795.37, 0.0020393932, 0.02169411, -1560603.8, 72169.81 
1.9068441e+3, 1.4338487e+2, -1508461.8, -1614001.0, 85365.836, 0.0029181908, 0.021098018, -1460872.3, 73958.28 
1.9067028e+3, 1.5337858e+2, -1417777.3, -1529919.1, 89803.586, 0.0011233239, 0.023266457, -1367977.4, 68914.92 
1.9065616e+3, 1.6337177e+2, -1321031.9, -1432932.5, 93807.98, -0.00027907887, 0.024026165, -1267755.9, 71203.04 
1.9064198e+3, 1.7336442e+2, -1232067.4, -1350064.8, 95771.336, 0.0010140383, 0.022500752, -1178580.6, 62450.42 
1.9062778e+3, 1.8335657e+2, -1136501.3, -1253779.3, 99848.99, 0.0015529253, 0.021486295, -1079345.8, 63762.13 
1.9061346e+3, 1.9334815e+2, -1047528.2, -1171522.0, 99247.45, -0.00021515017, 0.022604367, -992505.1, 52685.164 
1.9059907e+3, 2.0333922e+2, -952702.9, -1075632.6, 104308.71, -0.00072790147, 0.023014883, -893096.56, 54181.32 
1.9058453e+3, 2.1332966e+2, -866396.44, -995426.44, 101446.08, 0.00031437114, 0.022559518, -810688.75, 38682.92 
1.9056983e+3, 2.233195e+2, -773649.1, -900764.9, 107367.914, 0.00034676667, 0.022440214, -712437.3, 39033.777 
1.905549e+3, 2.333086e+2, -689719.2, -824126.44, 103175.836, -0.0014476515, 0.023225285, -633790.44, 19787.518 
1.9053979e+3, 2.4329703e+2, -598689.6, -729510.1, 111469.8, -0.0017236999, 0.022935443, -534855.9, 20835.436 
1.9052438e+3, 2.5328448e+2, -523536.78, -662203.6, 105455.33, -0.000091585214, 0.022014128, -466664.25, -8849.839 
1.905087e+3, 2.6327085e+2, -439928.97, -576198.6, 118363.43, 0.00033529336, 0.021384371, -371490.53, -11542.587 
1.9049254e+3, 2.732555e+2, -383403.25, -525905.94, 116864.03, -0.004267601, 0.023501817, -317782.56, -55684.11 
1.90476e+3, 2.8323886e+2, -337660.66, -457711.84, 140988.14, -0.0031442882, 0.02497536, -244452.02, -80190.65 
1.9045992e+3, 2.9321444e+2, -303726.1, -547643.3, 165346.36, 0.010840665, 0.020082094, -220225.9, -153725.3 
1.9044454e+3, 3.0318296e+2, -72450.14, -395740.47, 90064.61, 0.010638274, 0.025971744, -49052.625, -49052.625 
1.9042832e+3, 3.1315678e+2, 60705.703, -179630.05, -2219.3079, -0.0053837798, 0.034755517, 60726.195, 60726.195 
1.9041127e+3, 3.231374e+2, -44814.69, -186128.89, 16141.908, 0.005192883, 0.022773098, -42994.297, -42994.297 
1.9039336e+3, 3.3313054e+2, 1787.429, 35810.44, -7685.038, -0.011825768, 0.010609463, 37465.78, 37465.78 
1.918313e+3, 4.357819e+1, -2457630.5, -2507748.3, -4893.9766, 0.000010712874, 0.02097431, -2457157.3, 55778.715 
1.9181605e+3, 5.357733e+1, -2365566.5, -2435140.0, 27224.799, -0.007420198, 0.019430693, -2356179.5, 58764.85 
1.9180098e+3, 6.3576055e+1, -2259468.3, -2330738.0, 27374.883, 0.010400229, 0.022277694, -2250167.3, 66789.65 
1.9178604e+3, 7.357428e+1, -2168633.8, -2248556.3, 41606.633, 0.009189038, 0.021558957, -2150906.0, 68068.27 
1.9177127e+3, 8.357197e+1, -2069748.3, -2150160.8, 46026.684, -0.0016455149, 0.022127945, -2048839.9, 72157.12 
1.917567e+3, 9.356926e+1, -1977353.8, -2064104.0, 57636.457, -0.0000739545, 0.025175292, -1948594.5, 74428.97 
1.9174223e+3, 1.03566065e+2, -1879650.3, -1967308.9, 61442.02, 0.006200542, 0.024831386, -1848006.8, 77048.0 
1.9172788e+3, 1.13562346e+2, -1787969.4, -1881291.3, 70771.38, 0.004419838, 0.019608999, -1749861.0, 77230.2 
1.9171362e+3, 1.2355826e+2, -1690604.0, -1783949.5, 74307.414, 0.00073334103, 0.018497331, -1649527.4, 79603.86 
1.9169942e+3, 1.3355383e+2, -1599333.1, -1697705.1, 81133.38, 0.001449399, 0.024843447, -1553640.9, 77533.85 
1.9168526e+3, 1.4354897e+2, -1502435.3, -1600685.3, 84922.75, 0.0027682746, 0.026864333, -1453452.5, 79769.94 
1.9167113e+3, 1.535436e+2, -1410785.4, -1514401.1, 89313.04, 0.0014327152, 0.022008207, -1359341.8, 75933.23 
1.91657e+3, 1.6353787e+2, -1313796.5, -1416909.5, 93046.4, 0.00024870082, 0.019661011, -1258977.8, 78353.33 
1.9164282e+3, 1.735318e+2, -1223281.0, -1331096.6, 94779.49, 0.0010477959, 0.02220896, -1168151.3, 71239.51 
1.916286e+3, 1.8352528e+2, -1127566.5, -1234611.4, 99036.9, 0.0009004117, 0.023509359, -1068514.8, 72939.73 
1.9161429e+3, 1.9351834e+2, -1036695.06, -1148480.0, 98242.96, -0.00076358486, 0.023175366, -979558.1, 63964.45 
1.9159986e+3, 2.03511e+2, -941630.5, -1052110.6, 103065.375, -0.0010250307, 0.0229696, -879934.94, 65659.52 
1.9158527e+3, 2.1350329e+2, -852195.5, -965846.56, 99838.57, 0.0010076492, 0.02364621, -794143.3, 53526.848 
1.9157055e+3, 2.2349522e+2, -758519.5, -869412.94, 105819.61, 0.0007794377, 0.023493852, -694500.2, 55249.004 
1.9155559e+3, 2.334868e+2, -669647.3, -782601.0, 101176.805, -0.0030235583, 0.02270121, -610251.94, 41579.625 
1.9154043e+3, 2.4347804e+2, -579089.44, -689069.2, 108884.04, -0.0028171027, 0.022097025, -512097.28, 41820.105 
1.9152494e+3, 2.53469e+2, -493437.97, -600684.6, 101734.49, 0.0037195897, 0.02187753, -432059.7, 23946.523 
1.9150917e+3, 2.634598e+2, -405633.56, -505862.9, 116061.56, 0.004155213, 0.021496914, -329329.22, 28766.781 
1.9149284e+3, 2.7345127e+2, -321354.47, -399320.97, 104853.06, -0.012668066, 0.02511522, -248472.36, 11707.39 
1.9147596e+3, 2.83443e+2, -278079.13, -335569.16, 125748.88, -0.013594153, 0.022233235, -177831.67, -15570.802 
1.9283198e+3, 4.3734208e+1, -2476520.5, -2512029.0, -2951.902, 0.018750813, 0.02580369, -2476276.8, 35130.203 
1.9281676e+3, 5.3733945e+1, -2383852.8, -2437115.3, 20303.232, -0.012193054, 0.017783804, -2376996.0, 36413.61 
1.9280173e+3, 6.3733375e+1, -2280273.3, -2334982.3, 21636.3, 0.013406318, 0.028350728, -2272750.8, 42664.42 
1.9278681e+3, 7.3732114e+1, -2185567.0, -2250851.8, 35024.094, 0.010871069, 0.023455763, -2170332.3, 47095.246 
1.9277206e+3, 8.373034e+1, -2084824.0, -2151642.8, 39171.527, -0.0017631325, 0.020596186, -2066749.5, 52695.406 
1.9275749e+3, 9.372822e+1, -1991971.5, -2064553.8, 50097.117, -0.000096049844, 0.022139842, -1966401.8, 55064.03 
1.9274303e+3, 1.0372569e+2, -1894315.9, -1967364.4, 53717.387, 0.0068094367, 0.022773378, -1865881.8, 57608.746 
1.9272868e+3, 1.1372274e+2, -1801812.6, -1879738.6, 63013.926, 0.0042441767, 0.021781143, -1766688.6, 58830.754 
1.9271442e+3, 1.23719454e+2, -1704199.6, -1782089.0, 66609.586, -0.000053127376, 0.021715516, -1665985.3, 61566.473 
1.9270022e+3, 1.3371585e+2, -1611321.1, -1693595.8, 73462.555, 0.0010954177, 0.024242375, -1568262.1, 61324.848 
1.9268607e+3, 1.4371191e+2, -1514140.6, -1596150.1, 77254.31, 0.003015332, 0.024826117, -1467683.3, 63942.367 
1.9267192e+3, 1.5370761e+2, -1421953.6, -1507688.0, 81827.01, 0.001982004, 0.02217059, -1372445.3, 61222.5 
1.9265777e+3, 1.6370302e+2, -1325491.0, -1410353.6, 85586.56, 0.0005499985, 0.021170417, -1272395.0, 63317.68 
1.926436e+3, 1.7369817e+2, -1233645.8, -1321548.6, 87281.266, 0.00037425445, 0.023750313, -1179874.4, 57885.836 
1.9262935e+3, 1.8369302e+2, -1138279.4, -1224623.8, 91826.555, 0.00034215007, 0.024740912, -1079982.6, 59828.074 
1.92615e+3, 1.936876e+2, -1047274.94, -1135131.0, 91179.73, 0.000067608984, 0.023538847, -989993.25, 51870.46 
1.9260056e+3, 2.0368196e+2, -954218.8, -1039505.2, 96338.375, -0.00014414595, 0.022927482, -891507.75, 52411.36 
1.9258593e+3, 2.1367615e+2, -864240.5, -948404.1, 93050.58, 0.00032151176, 0.023771003, -804198.44, 41777.59 
1.9257116e+3, 2.2367023e+2, -774071.0, -853013.8, 99060.49, 0.00017010009, 0.02384777, -706907.7, 41126.465 
1.9255616e+3, 2.3366435e+2, -687021.7, -759426.3, 93562.75, -0.0017239284, 0.023381146, -622901.56, 27190.09 
1.9254091e+3, 2.4365847e+2, -602365.25, -668458.5, 101713.22, -0.001392685, 0.023007073, -528464.9, 23684.492 
1.9252534e+3, 2.536529e+2, -512567.38, -564639.4, 92432.66, 0.0022415803, 0.022816885, -442573.88, 11630.032 
1.9250943e+3, 2.6364803e+2, -437707.75, -470686.0, 103287.54, -0.002294126, 0.024012938, -349601.44, 6650.107 
1.924929e+3, 2.7364498e+2, -351187.97, -345196.5, 78369.805, 0.0034016625, 0.0256115, -269765.2, -11483.795 
1.9247578e+3, 2.8364283e+2, -268132.34, -257031.9, 73539.94, -0.002064611, 0.013694779, -188833.05, -28530.41 
1.9383256e+3, 4.388899e+1, -2474533.5, -2506164.8, 9334.442, 0.02196486, 0.021744205, -2471984.3, 37905.906 
1.938174e+3, 5.3889525e+1, -2380096.3, -2426261.8, 20465.412, -0.011020349, 0.015469057, -2372330.3, 39554.71 
1.938024e+3, 6.3889766e+1, -2277740.5, -2327643.0, 22930.732, 0.011144237, 0.036497466, -2268804.0, 45078.574 
1.9378753e+3, 7.3889e+1, -2182793.3, -2243115.0, 35478.37, 0.011777615, 0.026353927, -2166388.3, 49501.855 
1.9377281e+3, 8.388773e+1, -2082254.9, -2144439.8, 39273.484, -0.0004071326, 0.01885358, -2063255.9, 54646.617 
1.9375823e+3, 9.3886155e+1, -1988635.4, -2056017.0, 49707.24, 0.000040357983, 0.017320609, -1962277.1, 57640.805 
1.9374378e+3, 1.0388428e+2, -1890444.0, -1957919.5, 53437.13, 0.006804133, 0.019347088, -1860985.5, 60950.793 
1.9372942e+3, 1.13882154e+2, -1797036.9, -1868451.6, 62494.22, 0.0036241263, 0.026263436, -1760768.3, 63188.906 
1.9371516e+3, 1.23879686e+2, -1699302.8, -1770712.3, 66186.36, -0.0012921644, 0.027385505, -1659804.6, 66176.766 
1.9370095e+3, 1.3387688e+2, -1605269.3, -1680032.8, 72907.87, 0.0005029205, 0.02095059, -1560718.4, 67290.48 
1.936868e+3, 1.4387387e+2, -1507895.3, -1582330.1, 76576.56, 0.003186038, 0.01874343, -1459971.0, 70067.43 
1.9367264e+3, 1.538707e+2, -1414365.1, -1491087.9, 80937.445, 0.0026204402, 0.022946747, -1363158.3, 68911.15 
1.936585e+3, 1.638673e+2, -1318016.3, -1393955.5, 84647.63, 0.00058443437, 0.02530293, -1263212.5, 70890.38 
1.9364427e+3, 1.738637e+2, -1224529.5, -1301753.3, 86147.06, -0.00094441324, 0.025502563, -1168736.9, 67401.21 
1.9363002e+3, 1.8385994e+2, -1128589.9, -1203738.4, 90614.52, -0.00065544446, 0.024804316, -1068068.3, 70106.77 
1.9361565e+3, 1.9385614e+2, -1035291.06, -1109765.6, 89373.7, 0.0013617115, 0.02346463, -975707.5, 64504.695 
1.9360118e+3, 2.0385224e+2, -942007.0, -1013936.75, 94500.28, 0.00092028326, 0.02283472, -876859.2, 65391.293 
1.9358651e+3, 2.138484e+2, -848897.5, -916671.2, 90480.484, -0.0020282606, 0.023039144, -786166.3, 58121.7 
1.9357169e+3, 2.2384463e+2, -758631.7, -821178.0, 96077.8, -0.0016661145, 0.023212489, -688865.5, 57459.37 
1.9355658e+3, 2.3384133e+2, -666484.44, -717516.25, 89280.055, 0.001824798, 0.024791231, -599145.7, 49211.7 
1.9354126e+3, 2.4383835e+2, -581008.1, -625020.7, 98498.8, 0.0017737944, 0.025277019, -502087.25, 48299.324 
1.9352557e+3, 2.5383624e+2, -484385.47, -507284.56, 86762.98, -0.0051622414, 0.024157055, -408319.84, 44087.316 
1.9350944e+3, 2.6383546e+2, -407081.75, -407882.06, 93080.15, -0.020887246, 0.028584173, -314400.9, 40014.203 
1.9349274e+3, 2.7383652e+2, -324180.75, -289086.84, 69851.29, 0.044789623, 0.025742874, -234612.3, 21792.025 
1.9347547e+3, 2.8383842e+2, -228190.92, -178426.95, 48174.582, -0.014333243, 0.0129342005, -149088.06, 9297.867 
1.9483304e+3, 4.404242e+1, -2495047.0, -2519287.5, 86.51192, -0.016113712, 0.031702332, -2495046.8, 13339.864 
1.9481798e+3, 5.4043615e+1, -2392289.0, -2422872.0, 12052.691, 0.0043426505, 0.008667725, -2388110.3, 22264.691 
1.94803e+3, 6.4044553e+1, -2291851.3, -2329493.8, 14863.133, 0.0036761067, 0.028667098, -2286690.3, 25675.506 
1.9478817e+3, 7.4044317e+1, -2196762.0, -2244703.3, 26127.703, 0.008949306, 0.022406712, -2185275.0, 29093.047 
1.9477347e+3, 8.404362e+1, -2096371.9, -2146060.8, 29263.406, -0.0022129426, 0.020125328, -2082828.9, 33545.945 
1.9475889e+3, 9.404266e+1, -2002199.1, -2056563.0, 38988.652, -0.0013350691, 0.024950469, -1981852.4, 36531.86 
1.9474445e+3, 1.0404139e+2, -1903866.0, -1957989.5, 42467.746, 0.0074538286, 0.02657909, -1880570.6, 39826.063 
1.9473009e+3, 1.1403987e+2, -1809707.9, -1866857.8, 51015.555, 0.0052867215, 0.024383113, -1779809.6, 42601.996 
1.9471583e+3, 1.24038115e+2, -1711937.3, -1769148.0, 54449.598, -0.00018367343, 0.022795938, -1679036.4, 45392.465 
1.9470163e+3, 1.340362e+2, -1616412.3, -1676058.9, 60661.285, 0.0004222936, 0.022054123, -1578639.5, 47808.09 
1.9468747e+3, 1.4403409e+2, -1519198.9, -1578499.3, 63551.54, 0.0027512242, 0.022296647, -1478721.1, 49747.05 
1.946733e+3, 1.540319e+2, -1424807.3, -1484755.4, 67235.78, 0.0022006994, 0.024648227, -1381166.9, 49322.895 
1.9465913e+3, 1.6402958e+2, -1328676.5, -1386814.9, 70596.62, 0.0005921525, 0.024988081, -1281398.5, 51113.914 
1.946449e+3, 1.7402725e+2, -1234512.3, -1291612.3, 71910.03, -0.000025250549, 0.02271948, -1185692.0, 48843.285 
1.9463062e+3, 1.8402489e+2, -1139574.0, -1194071.0, 76224.234, 0.0002396223, 0.021788793, -1085874.3, 50684.188 
1.9461623e+3, 1.9402266e+2, -1045127.7, -1096599.0, 74034.85, 0.0010739194, 0.023131866, -992482.94, 46097.344 
1.9460171e+3, 2.0402044e+2, -952370.75, -1000617.9, 78636.586, 0.000119770295, 0.023780182, -894240.7, 46361.254 
1.9458699e+3, 2.140185e+2, -857903.0, -899031.4, 73010.38, -0.0022116462, 0.023435894, -802616.06, 40005.08 
1.945721e+3, 2.2401676e+2, -768666.2, -804452.7, 77066.57, -0.0012279775, 0.023288075, -707442.9, 37195.22 
1.9455692e+3, 2.3401566e+2, -673627.4, -695244.44, 66563.62, 0.0031706358, 0.02475403, -617000.5, 29648.51 
1.945415e+3, 2.4401513e+2, -589957.44, -601920.56, 72123.66, 0.0023860298, 0.024532076, -523567.72, 25086.465 
1.9452569e+3, 2.5401574e+2, -493062.22, -481238.66, 53732.855, -0.008585553, 0.022152666, -433093.34, 17554.688 
1.9450942e+3, 2.6401764e+2, -401743.1, -378170.34, 48874.32, -0.023245186, 0.026299348, -339681.28, 12948.177 
1.9449262e+3, 2.7402115e+2, -285428.34, -250216.73, 16104.113, 0.057738084, 0.027629938, -243962.39, 10632.835 
1.9447532e+3, 2.8402543e+2, -157307.64, -126053.5, -11313.74, -0.047491543, 0.029948266, -122387.92, 34165.453 
1.958335e+3, 4.4194734e+1, -2498695.3, -2521045.0, 275.2352, -0.002861285, 0.041875713, -2498691.8, 8202.079 
1.958185e+3, 5.4196507e+1, -2388192.8, -2411954.5, 13929.452, 0.020247636, 0.0012508966, -2381765.8, 27110.9 
1.9580354e+3, 6.419803e+1, -2290039.3, -2323859.3, 16449.277, -0.005059184, 0.01725922, -2283358.5, 27503.254 
1.9578876e+3, 7.4198294e+1, -2194296.5, -2238296.3, 26697.242, 0.0057707066, 0.016831161, -2181702.5, 31156.64 
1.9577406e+3, 8.419814e+1, -2093557.3, -2139314.0, 29422.645, -0.004678961, 0.022208598, -2079164.9, 35695.645 
1.957595e+3, 9.41978e+1, -1998849.9, -2048637.1, 38536.098, -0.0034390783, 0.036132403, -1977866.3, 38997.74 
1.9574505e+3, 1.0419709e+2, -1900364.4, -1949786.4, 42004.64, 0.007938583, 0.03654424, -1876341.1, 42529.71 
1.9573072e+3, 1.1419607e+2, -1805192.3, -1856853.8, 50179.3, 0.0074996017, 0.019816859, -1774585.5, 46295.32 
1.9571644e+3, 1.2419497e+2, -1707552.9, -1759422.6, 53782.316, 0.0015664175, 0.014928048, -1673778.9, 49112.69 
1.9570224e+3, 1.3419394e+2, -1610958.5, -1663939.5, 59764.684, 0.00043972852, 0.026115209, -1572076.5, 52825.31 
1.9568807e+3, 1.4419273e+2, -1513880.5, -1566692.5, 62448.418, 0.0018004954, 0.030715847, -1472484.8, 54429.004 
1.9567388e+3, 1.541914e+2, -1417965.3, -1469894.0, 66062.51, 0.0010014507, 0.027008533, -1372947.9, 55978.723 
1.9565971e+3, 1.6419013e+2, -1320906.1, -1370048.8, 69389.516, 0.00027774088, 0.022746563, -1271865.9, 59073.12 
1.9564545e+3, 1.7418908e+2, -1225045.1, -1271341.8, 70315.83, 0.002063394, 0.01826367, -1174165.3, 58784.152 
1.9563115e+3, 1.841881e+2, -1130396.6, -1174459.4, 74698.45, 0.002125553, 0.018031914, -1074548.4, 60410.688 
1.9561672e+3, 1.9418739e+2, -1034064.75, -1073361.4, 71970.484, -0.00049962435, 0.02365727, -979108.75, 57857.137 
1.9560216e+3, 2.0418683e+2, -940885.8, -976564.7, 76616.695, -0.0020231686, 0.026304625, -880059.1, 58912.285 
1.955874e+3, 2.1418664e+2, -844689.94, -871706.1, 70125.56, -0.00066803925, 0.025691623, -786783.3, 54189.89 
1.9557245e+3, 2.2418676e+2, -755737.94, -777958.6, 74083.11, 0.00060023094, 0.025112592, -691936.7, 51035.414 
1.9555718e+3, 2.341875e+2, -659973.6, -667352.1, 62537.633, 0.0019382576, 0.024485018, -601016.5, 43948.402 
1.9554165e+3, 2.4418893e+2, -574797.7, -570806.94, 67095.38, -0.00027844476, 0.021703834, -505677.25, 41273.6 
1.955257e+3, 2.541915e+2, -480879.9, -456237.9, 49314.65, -0.007663044, 0.017217446, -417728.38, 31197.314 
1.9550939e+3, 2.6419467e+2, -395264.25, -365165.28, 46093.555, -0.008684505, 0.016263876, -331726.6, 19167.959 
1.9549257e+3, 2.7419883e+2, -284274.06, -247505.53, 19844.082, 0.036646757, 0.02928458, -238838.56, 14015.713 
1.9547546e+3, 2.842035e+2, -171339.06, -152886.03, 24832.936, -0.025447225, 0.03654661, -135620.97, 19187.613 
1.9683391e+3, 4.4346607e+1, -2500958.0, -2506788.8, -1918.7177, 0.021481458, 0.0079270275, -2500383.3, 5022.342 
1.9681895e+3, 5.4348856e+1, -2401597.8, -2420573.5, 7866.833, 0.007270687, 0.025020411, -2398760.5, 8623.098 
1.9680405e+3, 6.435044e+1, -2300028.8, -2326244.5, 8300.687, -0.0059105037, 0.042379476, -2297621.5, 11746.432 
1.9678931e+3, 7.435088e+1, -2203615.5, -2239868.5, 16760.988, 0.014641488, 0.029592969, -2197054.0, 14309.668 
1.9677463e+3, 8.4350896e+1, -2103088.3, -2140882.0, 17881.547, 0.004230461, 0.019270496, -2095969.0, 17394.578 
1.9676007e+3, 9.4350713e+1, -2008605.3, -2049706.9, 25385.926, -0.0009186679, 0.014425018, -1996494.5, 18870.852 
1.9674562e+3, 1.0435037e+2, -1910703.5, -1951962.4, 27696.514, 0.006984066, 0.016098231, -1896797.9, 20570.83 
1.9673127e+3, 1.1434997e+2, -1814300.5, -1857296.1, 33947.18, 0.0034618294, 0.02405142, -1795616.6, 23756.008 
1.9671701e+3, 1.2434941e+2, -1716218.6, -1758710.6, 36161.047, -0.0025731195, 0.026547175, -1695524.1, 25854.05 
1.9670281e+3, 1.3434885e+2, -1619291.0, -1660952.4, 40884.727, 0.0015822548, 0.024068853, -1594236.1, 29147.42 
1.9668864e+3, 1.4434835e+2, -1522072.4, -1561993.4, 42711.617, 0.004944002, 0.022468196, -1494887.4, 30501.197 
1.9667444e+3, 1.5434805e+2, -1424853.8, -1461872.1, 46106.254, 0.0008737164, 0.021537112, -1393680.1, 33711.277 
1.9666024e+3, 1.643479e+2, -1329223.3, -1363608.8, 48752.832, -0.0016568672, 0.02279993, -1294720.5, 34672.45 
1.9664596e+3, 1.7434807e+2, -1232986.3, -1261979.6, 48446.203, 0.0009877707, 0.026684796, -1196914.3, 34476.97 
1.9663163e+3, 1.8434839e+2, -1138938.3, -1164842.3, 52387.457, 0.00219389, 0.027297717, -1097925.5, 35462.613 
1.9661716e+3, 1.9434908e+2, -1040714.2, -1060057.3, 48973.54, -0.00017984486, 0.024811886, -1000466.4, 34915.105 
1.9660257e+3, 2.0435005e+2, -947153.0, -962781.94, 53040.77, -0.0013297291, 0.023349883, -901354.1, 36017.695 
1.9658776e+3, 2.1435156e+2, -849021.3, -855433.6, 45184.297, 0.0012454209, 0.023449231, -806929.56, 32427.465 
1.9657274e+3, 2.2435345e+2, -757773.5, -760056.44, 48314.66, 0.0005367796, 0.024359988, -710586.8, 30751.654 
1.965574e+3, 2.3435597e+2, -657985.7, -648463.75, 35151.527, -0.0046120356, 0.025518995, -617752.25, 25561.541 
1.9654179e+3, 2.4435915e+2, -566699.25, -549197.94, 36301.168, -0.0027134598, 0.025193732, -520607.6, 24675.094 
1.9652577e+3, 2.5436318e+2, -468647.25, -438695.9, 15962.479, 0.0080336975, 0.02389708, -431783.88, 15459.179 
1.965094e+3, 2.643674e+2, -372510.47, -346935.97, 13906.765, 0.0002068813, 0.02081943, -340831.13, 8370.684 
1.9649261e+3, 2.743718e+2, -244057.95, -230465.19, -7176.431, -0.017720398, 0.03025308, -227377.64, 23781.307 
1.964757e+3, 2.8437632e+2, -154240.81, -154638.42, 3019.7368, 0.016322222, 0.026071426, -151413.34, 1701.2675 
1.9783425e+3, 4.44978e+1, -2497529.5, -2494697.5, 234.24849, 0.01259588, -0.012054832, -2494678.3, 9245.656 
1.9781935e+3, 5.4500115e+1, -2404677.3, -2427432.3, 8159.2456, -0.010121934, 0.055537555, -2402054.0, 3847.2524 
1.9780451e+3, 6.450154e+1, -2297853.3, -2323466.3, 9037.241, -0.0024355492, 0.07289339, -2294985.5, 12901.726 
1.9778982e+3, 7.4502045e+1, -2203046.0, -2237285.5, 16636.943, 0.024728322, 0.047250208, -2196293.8, 13588.528 
1.9777516e+3, 8.450206e+1, -2103157.0, -2138637.3, 17381.277, 0.013829443, 0.016575713, -2096061.1, 15820.978 
1.977606e+3, 9.450185e+1, -2007487.0, -2046583.6, 24585.385, 0.0025353574, -0.014340278, -1995625.5, 18258.828 
1.9774614e+3, 1.045017e+2, -1910379.6, -1950467.9, 27668.137, 0.0058983266, -0.010890688, -1896258.1, 19627.62 
1.977318e+3, 1.1450182e+2, -1814260.5, -1854615.8, 34247.35, -0.0024977394, 0.031387996, -1794688.6, 23195.91 
1.9771752e+3, 1.2450163e+2, -1715419.1, -1754137.1, 36950.797, -0.008984724, 0.0420613, -1693063.1, 26823.213 
1.9770332e+3, 1.3450134e+2, -1616099.9, -1652798.5, 41603.625, 0.0027587067, 0.016091341, -1588978.8, 32910.547 
1.9768915e+3, 1.4450142e+2, -1517150.3, -1550579.1, 43182.063, 0.0091497945, 0.00436227, -1487560.6, 36327.83 
1.9767493e+3, 1.5450214e+2, -1418364.5, -1446649.6, 45868.684, 0.00072030106, 0.009770013, -1384507.6, 41373.863 
1.976607e+3, 1.6450307e+2, -1324344.6, -1351161.8, 47969.527, -0.0049420586, 0.020784536, -1287944.9, 39927.45 
1.9764638e+3, 1.7450441e+2, -1226207.8, -1245523.1, 47468.043, -0.002517859, 0.037762336, -1187424.9, 42434.25 
1.9763203e+3, 1.8450597e+2, -1130973.5, -1146663.8, 51892.54, 0.000047269783, 0.039051063, -1086336.4, 45507.56 
1.9761753e+3, 1.945079e+2, -1030093.4, -1037889.4, 48106.46, 0.00022166647, 0.021955656, -985727.25, 48097.637 
1.976029e+3, 2.0451033e+2, -936111.7, -940392.8, 51939.387, 0.000267035, 0.013041552, -886268.75, 49532.332 
1.9758806e+3, 2.1451342e+2, -837192.44, -831745.7, 43533.05, 0.0025601597, 0.014602678, -790850.9, 46919.82 
1.9757299e+3, 2.2451703e+2, -745111.56, -734468.9, 46661.582, -0.0022466388, 0.01803436, -692826.2, 46909.36 
1.9755758e+3, 2.3452123e+2, -647306.7, -626802.6, 33280.676, -0.01578872, 0.024800358, -602230.75, 39463.6 
1.975419e+3, 2.4452586e+2, -557532.9, -530753.8, 33140.563, -0.0038811404, 0.032459557, -508400.16, 35248.656 
1.9752586e+3, 2.5453094e+2, -463936.47, -429282.9, 14497.884, 0.036578503, 0.04101392, -424017.5, 21581.596 
1.9750947e+3, 2.6453596e+2, -367556.88, -337265.9, 17077.256, -0.0005569478, 0.039701797, -329585.56, 17964.578 
1.9749278e+3, 2.7454022e+2, -246202.88, -234659.56, 2370.2268, -0.10722789, 0.030364012, -234191.83, 15316.393 
1.9747601e+3, 2.845443e+2, -152634.48, -149088.61, -6470.1772, 0.058104575, 0.014443153, -144152.86, 7315.473 
1.9883451e+3, 4.4648352e+1, -2509178.0, -2506361.3, 3554.0288, -0.0127944155, 0.09435507, -2503946.8, -1498.0891 
1.9881977e+3, 5.464855e+1, -2406884.0, -2430432.8, 2941.4067, 0.005675941, -0.036704708, -2406522.3, -2075.5298 
1.98805e+3, 6.464955e+1, -2298475.3, -2322613.8, 1501.6188, 0.023654886, -0.059455115, -2298382.0, 8054.673 
1.9879025e+3, 7.465095e+1, -2208980.0, -2238801.5, 7819.8364, -0.0077643148, -0.013042197, -2207053.8, 1369.3616 
1.987756e+3, 8.4651923e+1, -2110370.0, -2140900.8, 8848.467, -0.03225456, 0.03645298, -2107991.0, 2422.5588 
1.9876109e+3, 9.465267e+1, -2011611.0, -2047282.3, 14655.198, -0.0111913, 0.087130524, -2006362.4, 6043.8584 
1.9874665e+3, 1.046527e+2, -1912553.6, -1946975.3, 16342.76, 0.012987114, 0.07927524, -1906030.6, 8375.362 
1.987323e+3, 1.14652276e+2, -1819724.4, -1851069.3, 23408.994, 0.01710649, 0.013284879, -1807225.9, 9184.319 
1.9871801e+3, 1.2465234e+2, -1723582.8, -1753433.9, 28056.865, 0.008273558, -0.0022144997, -1706728.5, 11680.98 
1.987038e+3, 1.3465321e+2, -1620668.5, -1648240.3, 32325.148, -0.0037144634, 0.033824135, -1599312.3, 21088.527 
1.986896e+3, 1.4465404e+2, -1524496.9, -1551480.9, 31325.467, -0.003393366, 0.04994843, -1503881.5, 18511.373 
1.9867536e+3, 1.5465507e+2, -1427026.4, -1445257.4, 30944.26, 0.0042049326, 0.044993497, -1403883.0, 20499.723 
1.986611e+3, 1.6465646e+2, -1333888.6, -1346263.8, 31284.701, 0.0059203487, 0.028707933, -1308185.5, 18183.637 
1.9864675e+3, 1.7465848e+2, -1236031.8, -1237177.3, 30694.793, 0.004076462, 0.0031740034, -1205904.4, 22444.965 
1.9863236e+3, 1.8466127e+2, -1140132.6, -1137530.9, 36767.13, 0.0016015986, 0.0026243655, -1102041.6, 28280.344 
1.9861785e+3, 1.9466504e+2, -1033158.0, -1022859.94, 32862.434, -0.0021858038, 0.02586766, -994745.6, 37539.406 
1.9860321e+3, 2.0466918e+2, -936184.7, -924545.4, 36148.55, -0.0012685086, 0.037044615, -893751.06, 40493.375 
1.9858831e+3, 2.1467382e+2, -833859.1, -812775.5, 27576.523, 0.005310814, 0.036957543, -793794.56, 42404.383 
1.985732e+3, 2.2467895e+2, -740027.4, -714352.25, 30225.422, 0.0026849085, 0.031392366, -694351.1, 43797.438 
1.9855775e+3, 2.3468451e+2, -642966.4, -609206.2, 16736.277, -0.00945406, 0.018267373, -602315.7, 37778.45 
1.9854204e+3, 2.446904e+2, -548084.0, -512354.3, 16875.014, -0.0028673832, 0.010627785, -505644.4, 36391.945 
1.9852595e+3, 2.5469634e+2, -447734.34, -414639.3, 483.1261, 0.02789842, 0.0102886055, -414632.25, 29345.855 
1.9850959e+3, 2.6470214e+2, -351852.8, -320021.16, 4651.215, 0.0071032215, 0.0061010835, -319355.44, 26565.773 
1.9849302e+3, 2.7470708e+2, -264939.4, -241991.94, -2453.325, -0.054775566, 0.013052787, -241732.58, 6139.927 
1.984763e+3, 2.8471133e+2, -141160.5, -142556.38, -10702.758, 0.04645384, 0.015746318, -131132.95, 18698.08 
1.9983484e+3, 4.479493e+1, -2497127.5, -2496316.3, -5130.6885, 0.01987834, -0.0035340036, -2491575.3, 9437.057 
1.9982016e+3, 5.479765e+1, -2402503.5, -2421776.0, 57.291855, -0.013803576, 0.047171228, -2402503.3, 482.2738 
1.9980544e+3, 6.479934e+1, -2301553.8, -2323785.5, 1605.9955, 0.0066427034, 0.063487016, -2301438.5, 3530.4956 
1.9979075e+3, 7.4800056e+1, -2205974.8, -2239142.3, 1910.0269, 0.0221514, 0.04773111, -2205865.0, 1096.741 
1.9977608e+3, 8.4800184e+1, -2104709.8, -2137780.3, 1269.63, -0.0019526571, 0.015770743, -2104661.3, 4299.4424 
1.9976158e+3, 9.480017e+1, -2014619.0, -2048299.3, 7357.3916, 0.001094369, -0.017012773, -2013082.0, -2121.194 
1.9974713e+3, 1.0480069e+2, -1917108.0, -1947630.4, 2956.9521, 0.010507575, 0.014358106, -1916824.1, -3868.5344 
1.9973272e+3, 1.14801496e+2, -1816788.6, -1846120.4, -1381.0026, -0.0026692834, 0.040920958, -1816723.8, -1775.9718 
1.9971845e+3, 1.2480184e+2, -1717812.0, -1749628.0, -4264.4766, -0.0035540652, 0.020935897, -1717250.4, -305.82306 
1.9970426e+3, 1.3480268e+2, -1612431.6, -1640669.4, -8029.8706, 0.006363769, 0.020775253, -1610307.9, 8628.192 
1.9969004e+3, 1.4480379e+2, -1515621.3, -1544957.9, -7019.2666, 0.0029043911, 0.022811498, -1514028.4, 6897.0264 
1.9967577e+3, 1.5480517e+2, -1412990.1, -1433382.6, 5222.6206, -0.00060739415, 0.0074812495, -1411730.4, 11181.367 
1.9966146e+3, 1.6480753e+2, -1317592.1, -1330939.0, 7478.604, -0.00030445037, 0.02509192, -1314242.4, 10646.178 
1.9964705e+3, 1.7481093e+2, -1218942.5, -1217333.4, -359.9655, -0.0015050384, 0.043060534, -1217256.5, 9598.714 
1.9963264e+3, 1.8481469e+2, -1128525.8, -1120006.3, 2241.6084, 0.001882471, 0.021052534, -1119452.5, 9365.782 
1.9961815e+3, 1.9481964e+2, -1027536.2, -1004299.8, -5211.729, 0.005943028, 0.022118585, -1003184.4, 27585.563 
1.9960347e+3, 2.0482531e+2, -935302.6, -907637.06, -465.8433, -0.004113131, 0.02457851, -907629.25, 25085.059 
1.9958854e+3, 2.1483156e+2, -833355.0, -794142.44, -1370.936, -0.010411223, 0.015613124, -794094.56, 40558.563 
1.9957341e+3, 2.2483854e+2, -737943.9, -696053.75, 5297.724, 0.0025681187, 0.023288915, -695394.2, 41190.37 
1.9955793e+3, 2.3484579e+2, -636819.44, -590425.75, -3018.2957, 0.015414697, 0.023790061, -590230.2, 48283.28 
1.9954216e+3, 2.4485329e+2, -538099.94, -491958.22, 6217.356, -0.0016211626, 0.023793243, -491135.16, 49304.97 
1.9952604e+3, 2.548605e+2, -439247.1, -402127.75, 658.7327, -0.033120748, 0.04220401, -402116.06, 40253.375 
1.995097e+3, 2.6486704e+2, -343877.94, -302768.72, -292.87878, -0.017835472, 0.016570212, -302766.66, 41538.668 
1.9949329e+3, 2.74873e+2, -252383.58, -228387.28, -7471.762, 0.09703122, 0.021821946, -226250.97, 19996.006 
1.9947654e+3, 2.848776e+2, -134846.48, -141585.89, 3800.8662, -0.06518278, 0.030124977, -133136.67, 15065.023 
