coord_x,coord_y,stress_xx,stress_yy,tau_xy,velocity_x,velocity_y,stress_1,eps,damage,lx,ly
5.0e+0, 1.2500267e+2, -1734751.6, -1755970.8, 0.0000000005483346, 0.0000000000000002755122, 0.035749003, -1734751.6, -19774.236, 0.0, 10.0, 9.999719 
5.0e+0, 1.3500254e+2, -1636775.0, -1658022.0, 0.00000000032595182, 0.00000000000000041247273, 0.05121213, -1636775.0, -19794.813, 0.0, 10.0, 9.999719 
5.0e+0, 1.4500229e+2, -1551217.6, -1585838.5, 0.00000000019815007, 0.00000000000000034089005, 0.06410298, -1551217.6, -32233.871, 0.0, 10.0, 9.999541 
5.0e+0, 1.5500194e+2, -1453229.8, -1487868.4, 0.000000000292581, 0.00000000000000006022576, 0.07429765, -1453229.8, -32241.465, 0.0, 10.0, 9.999541 
5.0e+0, 1.6500156e+2, -1348002.9, -1374878.3, 0.0000000003122776, 0.000000000000000039384858, 0.077027395, -1348002.9, -25010.77, 0.0, 10.0, 9.999643 
5.0e+0, 1.7500116e+2, -1250012.4, -1276901.8, 0.00000000011772541, 0.0000000000000002787814, 0.07221167, -1250012.4, -25016.963, 0.0, 10.0, 9.999643 
5.0e+0, 1.8500075e+2, -1148206.4, -1171007.4, 0.000000000012978078, 0.0000000000000004081073, 0.064932436, -1148206.4, -21207.867, 0.0, 10.0, 9.999698 
5.0e+0, 1.9500035e+2, -1050217.8, -1073034.1, 0.000000000030440112, 0.00000000000000042737405, 0.05510195, -1050217.8, -21216.19, 0.0, 10.0, 9.999698 
5.0e+0, 2.05e+2, -937596.1, -944690.2, 0.000000000023563908, 0.0000000000000003467402, 0.03908175, -937596.1, -6592.257, 0.0, 10.0, 9.999906 
5.0e+0, 2.1499968e+2, -839606.56, -846712.8, 0.00000000009101703, 0.00000000000000016610918, 0.016793974, -839606.56, -6601.0806, 0.0, 10.0, 9.999906 
5.0e+0, 2.2499956e+2, -720963.3, -705862.75, 0.00000000018692385, -0.00000000000000001018559, 0.000012675083, -705862.75, 29142.398, 0.0, 10.0, 10.0002 
5.0e+0, 2.3499964e+2, -622965.4, -607864.94, 0.00000000013334774, -0.00000000000000018252307, -0.011346158, -607864.94, 29137.918, 0.0, 10.0, 10.0002 
5.0e+0, 2.4499972e+2, -526092.06, -512201.94, -0.000000000002296122, -0.00000000000000019441337, -0.022398034, -512201.94, 26798.5, 0.0, 10.0, 10.000184 
5.0e+0, 2.5499982e+2, -428085.0, -414185.25, -0.00000000007792544, -0.000000000000000045590192, -0.033223554, -414185.25, 26812.695, 0.0, 10.0, 10.000184 
5.0e+0, 2.6499957e+2, -367472.94, -393815.5, -0.0000000000063362904, 0.000000000000000033703497, -0.049455743, -367472.94, -24474.283, 0.0, 10.0, 9.999651 
5.0e+0, 2.74999e+2, -269458.56, -295789.34, 0.00000000006976085, 0.000000000000000043438804, -0.071181946, -269458.56, -24456.014, 0.0, 10.0, 9.999651 
5.0e+0, 2.849982e+2, -214890.0, -287986.97, -0.000000000018486506, 0.00000000000000004495512, -0.08577683, -214890.0, -67880.586, 0.0, 10.0, 9.999031 
5.0e+0, 2.9499716e+2, -116866.016, -189947.38, -0.00000000005150078, 0.000000000000000038323427, -0.09333666, -116866.016, -67846.8, 0.0, 10.0, 9.999032 
5.0e+0, 3.0499634e+2, -42599.594, -88476.086, -0.00000000006583507, 0.000000000000000033865052, -0.0955658, -42599.594, -42599.594, 0.0, 10.0, 9.9993925 
5.0e+0, 3.1499577e+2, -42579.195, -88433.71, -0.00000000006560067, 0.000000000000000031192716, -0.09256171, -42579.195, -42579.195, 0.0, 10.0, 9.9993925 
1.5e+1, 1.2500267e+2, -1734751.6, -1755970.8, 0.00000000061293165, 0.00000000000000082653666, 0.035749003, -1734751.6, -19774.236, 0.0, 10.0, 9.999719 
1.5e+1, 1.3500254e+2, -1636775.0, -1658022.0, 0.00000000039062556, 0.0000000000000012374183, 0.05121213, -1636775.0, -19794.813, 0.0, 10.0, 9.999719 
1.5e+1, 1.4500229e+2, -1551217.6, -1585838.5, 0.00000000013369096, 0.0000000000000010226701, 0.06410298, -1551217.6, -32233.871, 0.0, 10.0, 9.999541 
1.5e+1, 1.5500194e+2, -1453229.8, -1487868.4, 0.0000000002281813, 0.0000000000000001806773, 0.07429765, -1453229.8, -32241.465, 0.0, 10.0, 9.999541 
1.5e+1, 1.6500156e+2, -1348002.9, -1374878.3, 0.00000000037529047, 0.00000000000000011815457, 0.077027395, -1348002.9, -25010.77, 0.0, 10.0, 9.999643 
1.5e+1, 1.7500116e+2, -1250012.4, -1276901.8, 0.00000000018120537, 0.00000000000000083634424, 0.07221167, -1250012.4, -25016.963, 0.0, 10.0, 9.999643 
1.5e+1, 1.8500075e+2, -1148206.4, -1171007.4, 0.000000000034320765, 0.0000000000000012243219, 0.064932436, -1148206.4, -21207.867, 0.0, 10.0, 9.999698 
1.5e+1, 1.9500035e+2, -1050217.8, -1073034.1, 0.000000000054947644, 0.0000000000000012821221, 0.05510195, -1050217.8, -21216.19, 0.0, 10.0, 9.999698 
1.5e+1, 2.05e+2, -937596.1, -944690.2, -0.000000000028908282, 0.0000000000000010402206, 0.03908175, -937596.1, -6592.257, 0.0, 10.0, 9.999906 
1.5e+1, 2.1499968e+2, -839606.56, -846712.8, 0.000000000038785, 0.00000000000000049832754, 0.016793974, -839606.56, -6601.0806, 0.0, 10.0, 9.999906 
1.5e+1, 2.2499956e+2, -720963.3, -705862.75, 0.00000000028881045, -0.000000000000000030556773, 0.000012675083, -705862.75, 29142.398, 0.0, 10.0, 10.0002 
1.5e+1, 2.3499964e+2, -622965.4, -607864.94, 0.00000000023601426, -0.0000000000000005475692, -0.011346158, -607864.94, 29137.918, 0.0, 10.0, 10.0002 
1.5e+1, 2.4499972e+2, -526092.06, -512201.94, -0.000000000056313954, -0.0000000000000005832401, -0.022398034, -512201.94, 26798.5, 0.0, 10.0, 10.000184 
1.5e+1, 2.5499982e+2, -428085.0, -414185.25, -0.00000000013100067, -0.00000000000000013677057, -0.033223554, -414185.25, 26812.695, 0.0, 10.0, 10.000184 
1.5e+1, 2.6499957e+2, -367472.94, -393815.5, 0.00000000009793373, 0.000000000000000101110495, -0.049455743, -367472.94, -24474.283, 0.0, 10.0, 9.999651 
1.5e+1, 2.74999e+2, -269458.56, -295789.34, 0.00000000017400464, 0.00000000000000013031642, -0.071181946, -269458.56, -24456.014, 0.0, 10.0, 9.999651 
1.5e+1, 2.849982e+2, -214890.0, -287986.97, -0.00000000011975684, 0.00000000000000013486535, -0.08577683, -214890.0, -67880.586, 0.0, 10.0, 9.999031 
1.5e+1, 2.9499716e+2, -116866.016, -189947.38, -0.00000000015278151, 0.00000000000000011497028, -0.09333666, -116866.016, -67846.8, 0.0, 10.0, 9.999032 
1.5e+1, 3.0499634e+2, -42599.594, -88476.086, -0.00000000011657593, 0.000000000000000101595157, -0.0955658, -42599.594, -42599.594, 0.0, 10.0, 9.9993925 
1.5e+1, 3.1499577e+2, -42579.195, -88433.71, -0.00000000011632608, 0.00000000000000009357815, -0.09256171, -42579.195, -42579.195, 0.0, 10.0, 9.9993925 
2.5e+1, 1.2500267e+2, -1734751.6, -1755970.8, -0.00000000035506711, 0.000000000000000626295, 0.035749003, -1734751.6, -19774.236, 0.0, 10.0, 9.999719 
2.5e+1, 1.3500254e+2, -1636775.0, -1658022.0, -0.00000000022281114, 0.0000000000000010506589, 0.05121213, -1636775.0, -19794.813, 0.0, 10.0, 9.999719 
2.5e+1, 1.4500229e+2, -1551217.6, -1585838.5, -0.00000000023622607, 0.0000000000000009335773, 0.06410298, -1551217.6, -32233.871, 0.0, 10.0, 9.999541 
2.5e+1, 1.5500194e+2, -1453229.8, -1487868.4, -0.00000000021119155, 0.00000000000000027423258, 0.07429765, -1453229.8, -32241.465, 0.0, 10.0, 9.999541 
2.5e+1, 1.6500156e+2, -1348002.9, -1374878.3, -0.0000000000346346, 0.00000000000000020218597, 0.077027395, -1348002.9, -25010.77, 0.0, 10.0, 9.999643 
2.5e+1, 1.7500116e+2, -1250012.4, -1276901.8, 0.0000000000059862623, 0.0000000000000007182875, 0.07221167, -1250012.4, -25016.963, 0.0, 10.0, 9.999643 
2.5e+1, 1.8500075e+2, -1148206.4, -1171007.4, -0.000000000000063120245, 0.0000000000000010382179, 0.064932436, -1148206.4, -21207.867, 0.0, 10.0, 9.999698 
2.5e+1, 1.9500035e+2, -1050217.8, -1073034.1, 0.00000000002675439, 0.000000000000001162258, 0.05510195, -1050217.8, -21216.19, 0.0, 10.0, 9.999698 
2.5e+1, 2.05e+2, -937596.1, -944690.2, -0.00000000013770175, 0.0000000000000009334554, 0.03908175, -937596.1, -6592.257, 0.0, 10.0, 9.999906 
2.5e+1, 2.1499968e+2, -839606.56, -846712.8, -0.00000000018628653, 0.00000000000000035155467, 0.016793974, -839606.56, -6601.0806, 0.0, 10.0, 9.999906 
2.5e+1, 2.2499956e+2, -720963.3, -705862.75, 0.00000000007772954, -0.00000000000000012629138, 0.000012675083, -705862.75, 29142.398, 0.0, 10.0, 10.0002 
2.5e+1, 2.3499964e+2, -622965.4, -607864.94, 0.00000000008963424, -0.0000000000000005012801, -0.011346158, -607864.94, 29137.918, 0.0, 10.0, 10.0002 
2.5e+1, 2.4499972e+2, -526092.06, -512201.94, -0.0000000001641456, -0.000000000000000481601, -0.022398034, -512201.94, 26798.5, 0.0, 10.0, 10.000184 
2.5e+1, 2.5499982e+2, -428085.0, -414185.25, -0.000000000053264136, -0.00000000000000006628712, -0.033223554, -414185.25, 26812.695, 0.0, 10.0, 10.000184 
2.5e+1, 2.6499957e+2, -367472.94, -393815.5, 0.00000000025401983, 0.00000000000000012364422, -0.049455743, -367472.94, -24474.283, 0.0, 10.0, 9.999651 
2.5e+1, 2.74999e+2, -269458.56, -295789.34, 0.00000000017868212, 0.000000000000000087844636, -0.071181946, -269458.56, -24456.014, 0.0, 10.0, 9.999651 
2.5e+1, 2.849982e+2, -214890.0, -287986.97, -0.00000000016257408, 0.00000000000000009657319, -0.08577683, -214890.0, -67880.586, 0.0, 10.0, 9.999031 
2.5e+1, 2.9499716e+2, -116866.016, -189947.38, -0.00000000015950033, 0.0000000000000001502415, -0.09333666, -116866.016, -67846.8, 0.0, 10.0, 9.999032 
2.5e+1, 3.0499634e+2, -42599.594, -88476.086, 0.00000000001249546, 0.00000000000000015216603, -0.0955658, -42599.594, -42599.594, 0.0, 10.0, 9.9993925 
2.5e+1, 3.1499577e+2, -42579.195, -88433.71, 0.00000000014576652, 0.00000000000000010114688, -0.09256171, -42579.195, -42579.195, 0.0, 10.0, 9.9993925 
3.5e+1, 1.2500267e+2, -1734751.6, -1755970.8, -0.00000000048938315, -0.00000000000000032521285, 0.035749003, -1734751.6, -19774.236, 0.0, 10.0, 9.999719 
3.5e+1, 1.3500254e+2, -1636775.0, -1658022.0, -0.000000000357394, -0.00000000000000014780514, 0.05121213, -1636775.0, -19794.813, 0.0, 10.0, 9.999719 
3.5e+1, 1.4500229e+2, -1551217.6, -1585838.5, -0.00000000004868232, 0.000000000000000073611445, 0.06410298, -1551217.6, -32233.871, 0.0, 10.0, 9.999541 
3.5e+1, 1.5500194e+2, -1453229.8, -1487868.4, -0.000000000023626604, 0.0000000000000003408916, 0.07429765, -1453229.8, -32241.465, 0.0, 10.0, 9.999541 
3.5e+1, 1.6500156e+2, -1348002.9, -1374878.3, -0.00000000012494235, 0.00000000000000029147905, 0.077027395, -1348002.9, -25010.77, 0.0, 10.0, 9.999643 
3.5e+1, 1.7500116e+2, -1250012.4, -1276901.8, -0.00000000008379913, -0.00000000000000007538887, 0.07221167, -1250012.4, -25016.963, 0.0, 10.0, 9.999643 
3.5e+1, 1.8500075e+2, -1148206.4, -1171007.4, -0.000000000011514814, -0.00000000000000015020455, 0.064932436, -1148206.4, -21207.867, 0.0, 10.0, 9.999698 
3.5e+1, 1.9500035e+2, -1050217.8, -1073034.1, 0.000000000015619634, 0.00000000000000006778155, 0.05510195, -1050217.8, -21216.19, 0.0, 10.0, 9.999698 
3.5e+1, 2.05e+2, -937596.1, -944690.2, -0.0000000001516058, 0.000000000000000026444562, 0.03908175, -937596.1, -6592.257, 0.0, 10.0, 9.999906 
3.5e+1, 2.1499968e+2, -839606.56, -846712.8, -0.00000000020466445, -0.00000000000000027420942, 0.016793974, -839606.56, -6601.0806, 0.0, 10.0, 9.999906 
3.5e+1, 2.2499956e+2, -720963.3, -705862.75, 0.00000000008471492, -0.00000000000000029738943, 0.000012675083, -705862.75, 29142.398, 0.0, 10.0, 10.0002 
3.5e+1, 2.3499964e+2, -622965.4, -607864.94, 0.000000000096663504, -0.000000000000000043655674, -0.011346158, -607864.94, 29137.918, 0.0, 10.0, 10.0002 
3.5e+1, 2.4499972e+2, -526092.06, -512201.94, -0.00000000013887488, 0.00000000000000011050389, -0.022398034, -512201.94, 26798.5, 0.0, 10.0, 10.000184 
3.5e+1, 2.5499982e+2, -428085.0, -414185.25, -0.000000000027054758, 0.00000000000000016586017, -0.033223554, -414185.25, 26812.695, 0.0, 10.0, 10.000184 
3.5e+1, 2.6499957e+2, -367472.94, -393815.5, 0.00000000018913993, 0.00000000000000010130468, -0.049455743, -367472.94, -24474.283, 0.0, 10.0, 9.999651 
3.5e+1, 2.74999e+2, -269458.56, -295789.34, 0.00000000011382586, -0.00000000000000008397654, -0.071181946, -269458.56, -24456.014, 0.0, 10.0, 9.999651 
3.5e+1, 2.849982e+2, -214890.0, -287986.97, -0.00000000012916232, -0.00000000000000006992138, -0.08577683, -214890.0, -67880.586, 0.0, 10.0, 9.999031 
3.5e+1, 2.9499716e+2, -116866.016, -189947.38, -0.0000000001261046, 0.0000000000000001441371, -0.09333666, -116866.016, -67846.8, 0.0, 10.0, 9.999032 
3.5e+1, 3.0499634e+2, -42599.594, -88476.086, 0.000000000010635491, 0.00000000000000018557767, -0.0955658, -42599.594, -42599.594, 0.0, 10.0, 9.9993925 
3.5e+1, 3.1499577e+2, -42579.195, -88433.71, 0.00000000014386656, 0.0000000000000000538989, -0.09256171, -42579.195, -42579.195, 0.0, 10.0, 9.9993925 
4.5e+1, 1.2500267e+2, -1734751.6, -1755970.8, 0.0000000001465172, -0.0000000000000006195408, 0.035749003, -1734751.6, -19774.236, 0.0, 10.0, 9.999719 
4.5e+1, 1.3500254e+2, -1636775.0, -1658022.0, -0.000000000075181125, -0.0000000000000006165226, 0.05121213, -1636775.0, -19794.813, 0.0, 10.0, 9.999719 
4.5e+1, 1.4500229e+2, -1551217.6, -1585838.5, 0.00000000004725243, -0.00000000000000027148565, 0.06410298, -1551217.6, -32233.871, 0.0, 10.0, 9.999541 
4.5e+1, 1.5500194e+2, -1453229.8, -1487868.4, -0.00000000009137138, 0.0000000000000004184758, 0.07429765, -1453229.8, -32241.465, 0.0, 10.0, 9.999541 
4.5e+1, 1.6500156e+2, -1348002.9, -1374878.3, -0.00000000032280414, 0.0000000000000004813129, 0.077027395, -1348002.9, -25010.77, 0.0, 10.0, 9.999643 
4.5e+1, 1.7500116e+2, -1250012.4, -1276901.8, -0.00000000023823474, -0.00000000000000008418599, 0.07221167, -1250012.4, -25016.963, 0.0, 10.0, 9.999643 
4.5e+1, 1.8500075e+2, -1148206.4, -1171007.4, -0.00000000017869858, -0.0000000000000003705883, 0.064932436, -1148206.4, -21207.867, 0.0, 10.0, 9.999698 
4.5e+1, 1.9500035e+2, -1050217.8, -1073034.1, -0.00000000013729129, -0.00000000000000037745048, 0.05510195, -1050217.8, -21216.19, 0.0, 10.0, 9.999698 
4.5e+1, 2.05e+2, -937596.1, -944690.2, -0.000000000043492994, -0.00000000000000037750948, 0.03908175, -937596.1, -6592.257, 0.0, 10.0, 9.999906 
4.5e+1, 2.1499968e+2, -839606.56, -846712.8, 0.0000000001784961, -0.00000000000000037043115, 0.016793974, -839606.56, -6601.0806, 0.0, 10.0, 9.999906 
4.5e+1, 2.2499956e+2, -720963.3, -705862.75, 0.00000000045672124, -0.00000000000000017410906, 0.000012675083, -705862.75, 29142.398, 0.0, 10.0, 10.0002 
4.5e+1, 2.3499964e+2, -622965.4, -607864.94, 0.00000000024874525, 0.00000000000000021123294, -0.011346158, -607864.94, 29137.918, 0.0, 10.0, 10.0002 
4.5e+1, 2.4499972e+2, -526092.06, -512201.94, -0.000000000087763664, 0.00000000000000031605944, -0.022398034, -512201.94, 26798.5, 0.0, 10.0, 10.000184 
4.5e+1, 2.5499982e+2, -428085.0, -414185.25, -0.00000000011948288, 0.00000000000000014078989, -0.033223554, -414185.25, 26812.695, 0.0, 10.0, 10.000184 
4.5e+1, 2.6499957e+2, -367472.94, -393815.5, -0.000000000016896989, 0.0000000000000000038752915, -0.049455743, -367472.94, -24474.283, 0.0, 10.0, 9.999651 
4.5e+1, 2.74999e+2, -269458.56, -295789.34, 0.00000000006259147, -0.000000000000000095322785, -0.071181946, -269458.56, -24456.014, 0.0, 10.0, 9.999651 
4.5e+1, 2.849982e+2, -214890.0, -287986.97, -0.000000000016269966, -0.000000000000000041870718, -0.08577683, -214890.0, -67880.586, 0.0, 10.0, 9.999031 
4.5e+1, 2.9499716e+2, -116866.016, -189947.38, 0.000000000012440574, 0.00000000000000016473181, -0.09333666, -116866.016, -67846.8, 0.0, 10.0, 9.999032 
4.5e+1, 3.0499634e+2, -42599.594, -88476.086, -0.000000000006726524, 0.00000000000000012485975, -0.0955658, -42599.594, -42599.594, 0.0, 10.0, 9.9993925 
4.5e+1, 3.1499577e+2, -42579.195, -88433.71, -0.00000000008464454, -0.00000000000000016178323, -0.09256171, -42579.195, -42579.195, 0.0, 10.0, 9.9993925 
5.5e+1, 1.2500267e+2, -1734751.6, -1755970.8, 0.000000000215128, -0.0000000000000002566889, 0.035749003, -1734751.6, -19774.236, 0.0, 10.0, 9.999719 
5.5e+1, 1.3500254e+2, -1636775.0, -1658022.0, -0.000000000006111096, -0.00000000000000035549345, 0.05121213, -1636775.0, -19794.813, 0.0, 10.0, 9.999719 
5.5e+1, 1.4500229e+2, -1551217.6, -1585838.5, -0.00000000006929372, -0.000000000000000101714065, 0.06410298, -1551217.6, -32233.871, 0.0, 10.0, 9.999541 
5.5e+1, 1.5500194e+2, -1453229.8, -1487868.4, -0.00000000020816163, 0.0000000000000005069851, 0.07429765, -1453229.8, -32241.465, 0.0, 10.0, 9.999541 
5.5e+1, 1.6500156e+2, -1348002.9, -1374878.3, -0.00000000028801966, 0.0000000000000007716876, 0.077027395, -1348002.9, -25010.77, 0.0, 10.0, 9.999643 
5.5e+1, 1.7500116e+2, -1250012.4, -1276901.8, -0.00000000020274865, 0.0000000000000006918961, 0.07221167, -1250012.4, -25016.963, 0.0, 10.0, 9.999643 
5.5e+1, 1.8500075e+2, -1148206.4, -1171007.4, -0.0000000002908138, 0.00000000000000037706672, 0.064932436, -1148206.4, -21207.867, 0.0, 10.0, 9.999698 
5.5e+1, 1.9500035e+2, -1050217.8, -1073034.1, -0.00000000024925131, -0.00000000000000017343814, 0.05510195, -1050217.8, -21216.19, 0.0, 10.0, 9.999698 
5.5e+1, 2.05e+2, -937596.1, -944690.2, 0.00000000012301758, -0.00000000000000027840679, 0.03908175, -937596.1, -6592.257, 0.0, 10.0, 9.999906 
5.5e+1, 2.1499968e+2, -839606.56, -846712.8, 0.00000000034281425, 0.00000000000000006288956, 0.016793974, -839606.56, -6601.0806, 0.0, 10.0, 9.999906 
5.5e+1, 2.2499956e+2, -720963.3, -705862.75, 0.00000000043576637, 0.00000000000000024354974, 0.000012675083, -705862.75, 29142.398, 0.0, 10.0, 10.0002 
5.5e+1, 2.3499964e+2, -622965.4, -607864.94, 0.0000000002282161, 0.0000000000000002633858, -0.011346158, -607864.94, 29137.918, 0.0, 10.0, 10.0002 
5.5e+1, 2.4499972e+2, -526092.06, -512201.94, -0.000000000051359514, 0.00000000000000013506561, -0.022398034, -512201.94, 26798.5, 0.0, 10.0, 10.000184 
5.5e+1, 2.5499982e+2, -428085.0, -414185.25, -0.000000000082249416, -0.00000000000000014149795, -0.033223554, -414185.25, 26812.695, 0.0, 10.0, 10.000184 
5.5e+1, 2.6499957e+2, -367472.94, -393815.5, -0.00000000013706099, -0.00000000000000016864394, -0.049455743, -367472.94, -24474.283, 0.0, 10.0, 9.999651 
5.5e+1, 2.74999e+2, -269458.56, -295789.34, -0.000000000057504976, 0.000000000000000053805905, -0.071181946, -269458.56, -24456.014, 0.0, 10.0, 9.999651 
5.5e+1, 2.849982e+2, -214890.0, -287986.97, 0.00000000003631513, 0.00000000000000018072516, -0.08577683, -214890.0, -67880.586, 0.0, 10.0, 9.999031 
5.5e+1, 2.9499716e+2, -116866.016, -189947.38, 0.000000000065036046, 0.00000000000000021202566, -0.09333666, -116866.016, -67846.8, 0.0, 10.0, 9.999032 
5.5e+1, 3.0499634e+2, -42599.594, -88476.086, 0.000000000027361535, -0.000000000000000029987742, -0.0955658, -42599.594, -42599.594, 0.0, 10.0, 9.9993925 
5.5e+1, 3.1499577e+2, -42579.195, -88433.71, -0.000000000050545925, -0.0000000000000005458995, -0.09256171, -42579.195, -42579.195, 0.0, 10.0, 9.9993925 
6.5e+1, 1.2500267e+2, -1734751.6, -1755970.8, 0.000000000014728802, -0.0000000000000000408398, 0.035749003, -1734751.6, -19774.236, 0.0, 10.0, 9.999719 
6.5e+1, 1.3500254e+2, -1636775.0, -1658022.0, 0.00000000008649056, -0.00000000000000012223628, 0.05121213, -1636775.0, -19794.813, 0.0, 10.0, 9.999719 
6.5e+1, 1.4500229e+2, -1551217.6, -1585838.5, 0.00000000021364575, 0.000000000000000025069335, 0.06410298, -1551217.6, -32233.871, 0.0, 10.0, 9.999541 
6.5e+1, 1.5500194e+2, -1453229.8, -1487868.4, 0.00000000020844727, 0.0000000000000004017899, 0.07429765, -1453229.8, -32241.465, 0.0, 10.0, 9.999541 
6.5e+1, 1.6500156e+2, -1348002.9, -1374878.3, 0.00000000014037607, 0.00000000000000067202286, 0.077027395, -1348002.9, -25010.77, 0.0, 10.0, 9.999643 
6.5e+1, 1.7500116e+2, -1250012.4, -1276901.8, 0.000000000115527955, 0.0000000000000008360137, 0.07221167, -1250012.4, -25016.963, 0.0, 10.0, 9.999643 
6.5e+1, 1.8500075e+2, -1148206.4, -1171007.4, -0.000000000031948263, 0.0000000000000006145279, 0.064932436, -1148206.4, -21207.867, 0.0, 10.0, 9.999698 
6.5e+1, 1.9500035e+2, -1050217.8, -1073034.1, 0.00000000004758424, 0.0000000000000000066405456, 0.05510195, -1050217.8, -21216.19, 0.0, 10.0, 9.999698 
6.5e+1, 2.05e+2, -937596.1, -944690.2, 0.00000000038722847, -0.00000000000000012498147, 0.03908175, -937596.1, -6592.257, 0.0, 10.0, 9.999906 
6.5e+1, 2.1499968e+2, -839606.56, -846712.8, 0.00000000012133612, 0.00000000000000022024674, 0.016793974, -839606.56, -6601.0806, 0.0, 10.0, 9.999906 
6.5e+1, 2.2499956e+2, -720963.3, -705862.75, 0.000000000040536744, 0.0000000000000003310902, 0.000012675083, -705862.75, 29142.398, 0.0, 10.0, 10.0002 
6.5e+1, 2.3499964e+2, -622965.4, -607864.94, 0.00000000029238903, 0.00000000000000020742676, -0.011346158, -607864.94, 29137.918, 0.0, 10.0, 10.0002 
6.5e+1, 2.4499972e+2, -526092.06, -512201.94, 0.00000000021587901, -0.0000000000000000032508663, -0.022398034, -512201.94, 26798.5, 0.0, 10.0, 10.000184 
6.5e+1, 2.5499982e+2, -428085.0, -414185.25, 0.0000000001108177, -0.00000000000000030099745, -0.033223554, -414185.25, 26812.695, 0.0, 10.0, 10.000184 
6.5e+1, 2.6499957e+2, -367472.94, -393815.5, -0.00000000011225477, -0.0000000000000002561938, -0.049455743, -367472.94, -24474.283, 0.0, 10.0, 9.999651 
6.5e+1, 2.74999e+2, -269458.56, -295789.34, -0.00000000009477072, 0.00000000000000013147852, -0.071181946, -269458.56, -24456.014, 0.0, 10.0, 9.999651 
6.5e+1, 2.849982e+2, -214890.0, -287986.97, 0.000000000061986395, 0.0000000000000002833187, -0.08577683, -214890.0, -67880.586, 0.0, 10.0, 9.999031 
6.5e+1, 2.9499716e+2, -116866.016, -189947.38, 0.00000000004104001, 0.00000000000000019907081, -0.09333666, -116866.016, -67846.8, 0.0, 10.0, 9.999032 
6.5e+1, 3.0499634e+2, -42599.594, -88476.086, -0.000000000026770076, -0.00000000000000008512413, -0.0955658, -42599.594, -42599.594, 0.0, 10.0, 9.9993925 
6.5e+1, 3.1499577e+2, -42579.195, -88433.71, -0.000000000047960993, -0.0000000000000005698842, -0.09256171, -42579.195, -42579.195, 0.0, 10.0, 9.9993925 
7.5e+1, 1.2500267e+2, -1734751.6, -1755970.8, -0.00000000013338033, 0.00000000000000002800644, 0.035749003, -1734751.6, -19774.236, 0.0, 10.0, 9.999719 
7.5e+1, 1.3500254e+2, -1636775.0, -1658022.0, -0.000000000061689064, 0.000000000000000083248886, 0.05121213, -1636775.0, -19794.813, 0.0, 10.0, 9.999719 
7.5e+1, 1.4500229e+2, -1551217.6, -1585838.5, 0.0000000003126108, 0.00000000000000010886454, 0.06410298, -1551217.6, -32233.871, 0.0, 10.0, 9.999541 
7.5e+1, 1.5500194e+2, -1453229.8, -1487868.4, 0.00000000030754685, 0.00000000000000010289008, 0.07429765, -1453229.8, -32241.465, 0.0, 10.0, 9.999541 
7.5e+1, 1.6500156e+2, -1348002.9, -1374878.3, 0.00000000010895057, 0.00000000000000018231867, 0.077027395, -1348002.9, -25010.77, 0.0, 10.0, 9.999643 
7.5e+1, 1.7500116e+2, -1250012.4, -1276901.8, 0.0000000000846173, 0.00000000000000034816665, 0.07221167, -1250012.4, -25016.963, 0.0, 10.0, 9.999643 
7.5e+1, 1.8500075e+2, -1148206.4, -1171007.4, 0.0000000000029776383, 0.00000000000000034179526, 0.064932436, -1148206.4, -21207.867, 0.0, 10.0, 9.999698 
7.5e+1, 1.9500035e+2, -1050217.8, -1073034.1, 0.00000000008300873, 0.00000000000000016278554, 0.05510195, -1050217.8, -21216.19, 0.0, 10.0, 9.999698 
7.5e+1, 2.05e+2, -937596.1, -944690.2, 0.00000000045007315, 0.000000000000000082766435, 0.03908175, -937596.1, -6592.257, 0.0, 10.0, 9.999906 
7.5e+1, 2.1499968e+2, -839606.56, -846712.8, 0.00000000018475851, 0.00000000000000010164038, 0.016793974, -839606.56, -6601.0806, 0.0, 10.0, 9.999906 
7.5e+1, 2.2499956e+2, -720963.3, -705862.75, -0.000000000007690975, 0.00000000000000008851233, 0.000012675083, -705862.75, 29142.398, 0.0, 10.0, 10.0002 
7.5e+1, 2.3499964e+2, -622965.4, -607864.94, 0.00000000024514757, 0.000000000000000043355855, -0.011346158, -607864.94, 29137.918, 0.0, 10.0, 10.0002 
7.5e+1, 2.4499972e+2, -526092.06, -512201.94, 0.00000000021540893, -0.00000000000000009888999, -0.022398034, -512201.94, 26798.5, 0.0, 10.0, 10.000184 
7.5e+1, 2.5499982e+2, -428085.0, -414185.25, 0.000000000110949916, -0.0000000000000003377086, -0.033223554, -414185.25, 26812.695, 0.0, 10.0, 10.000184 
7.5e+1, 2.6499957e+2, -367472.94, -393815.5, -0.0000000001019115, -0.00000000000000025877426, -0.049455743, -367472.94, -24474.283, 0.0, 10.0, 9.999651 
7.5e+1, 2.74999e+2, -269458.56, -295789.34, -0.00000000008450961, 0.00000000000000013769507, -0.071181946, -269458.56, -24456.014, 0.0, 10.0, 9.999651 
7.5e+1, 2.849982e+2, -214890.0, -287986.97, 0.00000000006055955, 0.00000000000000026590987, -0.08577683, -214890.0, -67880.586, 0.0, 10.0, 9.999031 
7.5e+1, 2.9499716e+2, -116866.016, -189947.38, 0.00000000003963046, 0.00000000000000012586727, -0.09333666, -116866.016, -67846.8, 0.0, 10.0, 9.999032 
7.5e+1, 3.0499634e+2, -42599.594, -88476.086, -0.000000000095127524, -0.00000000000000004054943, -0.0955658, -42599.594, -42599.594, 0.0, 10.0, 9.9993925 
7.5e+1, 3.1499577e+2, -42579.195, -88433.71, -0.00000000011631809, -0.00000000000000023373734, -0.09256171, -42579.195, -42579.195, 0.0, 10.0, 9.9993925 
8.5e+1, 1.2500267e+2, -1734751.6, -1755970.8, -0.00000000035515918, -0.00000000000000001783459, 0.035749003, -1734751.6, -19774.236, 0.0, 10.0, 9.999719 
8.5e+1, 1.3500254e+2, -1636775.0, -1658022.0, -0.00000000024583582, 0.00000000000000015273672, 0.05121213, -1636775.0, -19794.813, 0.0, 10.0, 9.999719 
8.5e+1, 1.4500229e+2, -1551217.6, -1585838.5, 0.00000000028218902, 0.00000000000000019059386, 0.06410298, -1551217.6, -32233.871, 0.0, 10.0, 9.999541 
8.5e+1, 1.5500194e+2, -1453229.8, -1487868.4, 0.00000000028067818, 0.000000000000000093542315, 0.07429765, -1453229.8, -32241.465, 0.0, 10.0, 9.999541 
8.5e+1, 1.6500156e+2, -1348002.9, -1374878.3, 0.00000000010747412, 0.000000000000000104222415, 0.077027395, -1348002.9, -25010.77, 0.0, 10.0, 9.999643 
8.5e+1, 1.7500116e+2, -1250012.4, -1276901.8, 0.00000000008220008, 0.00000000000000022364444, 0.07221167, -1250012.4, -25016.963, 0.0, 10.0, 9.999643 
8.5e+1, 1.8500075e+2, -1148206.4, -1171007.4, -0.0000000000032227571, 0.00000000000000025864275, 0.064932436, -1148206.4, -21207.867, 0.0, 10.0, 9.999698 
8.5e+1, 1.9500035e+2, -1050217.8, -1073034.1, -0.00000000007753774, 0.0000000000000002090342, 0.05510195, -1050217.8, -21216.19, 0.0, 10.0, 9.999698 
8.5e+1, 2.05e+2, -937596.1, -944690.2, 0.0000000003209853, 0.0000000000000001154095, 0.03908175, -937596.1, -6592.257, 0.0, 10.0, 9.999906 
8.5e+1, 2.1499968e+2, -839606.56, -846712.8, 0.0000000005271878, -0.000000000000000022615346, 0.016793974, -839606.56, -6601.0806, 0.0, 10.0, 9.999906 
8.5e+1, 2.2499956e+2, -720963.3, -705862.75, 0.00000000036821576, -0.0000000000000001776938, 0.000012675083, -705862.75, 29142.398, 0.0, 10.0, 10.0002 
8.5e+1, 2.3499964e+2, -622965.4, -607864.94, 0.00000000025219296, -0.0000000000000003496212, -0.011346158, -607864.94, 29137.918, 0.0, 10.0, 10.0002 
8.5e+1, 2.4499972e+2, -526092.06, -512201.94, 0.00000000012747096, -0.000000000000000368247, -0.022398034, -512201.94, 26798.5, 0.0, 10.0, 10.000184 
8.5e+1, 2.5499982e+2, -428085.0, -414185.25, 0.00000000012390114, -0.00000000000000023338058, -0.033223554, -414185.25, 26812.695, 0.0, 10.0, 10.000184 
8.5e+1, 2.6499957e+2, -367472.94, -393815.5, 0.0000000000034476313, -0.00000000000000008370776, -0.049455743, -367472.94, -24474.283, 0.0, 10.0, 9.999651 
8.5e+1, 2.74999e+2, -269458.56, -295789.34, -0.000000000042446525, 0.00000000000000008066784, -0.071181946, -269458.56, -24456.014, 0.0, 10.0, 9.999651 
8.5e+1, 2.849982e+2, -214890.0, -287986.97, -0.000000000033090315, 0.00000000000000011336435, -0.08577683, -214890.0, -67880.586, 0.0, 10.0, 9.999031 
8.5e+1, 2.9499716e+2, -116866.016, -189947.38, -0.0000000000504193, 0.000000000000000014352123, -0.09333666, -116866.016, -67846.8, 0.0, 10.0, 9.999032 
8.5e+1, 3.0499634e+2, -42599.594, -88476.086, -0.000000000055693516, -0.000000000000000021231033, -0.0955658, -42599.594, -42599.594, 0.0, 10.0, 9.9993925 
8.5e+1, 3.1499577e+2, -42579.195, -88433.71, 0.000000000033569227, 0.0000000000000000064066594, -0.09256171, -42579.195, -42579.195, 0.0, 10.0, 9.9993925 
9.5e+1, 1.2500267e+2, -1734751.6, -1755970.8, -0.0000000004204325, -0.00000000000000017836289, 0.035749003, -1734751.6, -19774.236, 0.0, 10.0, 9.999719 
9.5e+1, 1.3500254e+2, -1636775.0, -1658022.0, -0.00000000031141875, 0.0000000000000000862272, 0.05121213, -1636775.0, -19794.813, 0.0, 10.0, 9.999719 
9.5e+1, 1.4500229e+2, -1551217.6, -1585838.5, 0.0000000001613044, 0.00000000000000027025732, 0.06410298, -1551217.6, -32233.871, 0.0, 10.0, 9.999541 
9.5e+1, 1.5500194e+2, -1453229.8, -1487868.4, 0.00000000015993157, 0.00000000000000037374662, 0.07429765, -1453229.8, -32241.465, 0.0, 10.0, 9.999541 
9.5e+1, 1.6500156e+2, -1348002.9, -1374878.3, 0.00000000012454017, 0.00000000000000043773413, 0.077027395, -1348002.9, -25010.77, 0.0, 10.0, 9.999643 
9.5e+1, 1.7500116e+2, -1250012.4, -1276901.8, 0.00000000009989704, 0.00000000000000046244706, 0.07221167, -1250012.4, -25016.963, 0.0, 10.0, 9.999643 
9.5e+1, 1.8500075e+2, -1148206.4, -1171007.4, 0.00000000012616082, 0.00000000000000036507038, 0.064932436, -1148206.4, -21207.867, 0.0, 10.0, 9.999698 
9.5e+1, 1.9500035e+2, -1050217.8, -1073034.1, 0.000000000051233094, 0.00000000000000014538654, 0.05510195, -1050217.8, -21216.19, 0.0, 10.0, 9.999698 
9.5e+1, 2.05e+2, -937596.1, -944690.2, 0.00000000019985075, -0.00000000000000002705227, 0.03908175, -937596.1, -6592.257, 0.0, 10.0, 9.999906 
9.5e+1, 2.1499968e+2, -839606.56, -846712.8, 0.00000000040556983, -0.00000000000000015252045, 0.016793974, -839606.56, -6601.0806, 0.0, 10.0, 9.999906 
9.5e+1, 2.2499956e+2, -720963.3, -705862.75, 0.00000000032965133, -0.0000000000000004675282, 0.000012675083, -705862.75, 29142.398, 0.0, 10.0, 10.0002 
9.5e+1, 2.3499964e+2, -622965.4, -607864.94, 0.00000000021380561, -0.0000000000000009715043, -0.011346158, -607864.94, 29137.918, 0.0, 10.0, 10.0002 
9.5e+1, 2.4499972e+2, -526092.06, -512201.94, 0.0000000001295273, -0.0000000000000008113219, -0.022398034, -512201.94, 26798.5, 0.0, 10.0, 10.000184 
9.5e+1, 2.5499982e+2, -428085.0, -414185.25, 0.00000000012648477, 0.000000000000000011986586, -0.033223554, -414185.25, 26812.695, 0.0, 10.0, 10.000184 
9.5e+1, 2.6499957e+2, -367472.94, -393815.5, 0.00000000011861838, 0.00000000000000026900573, -0.049455743, -367472.94, -24474.283, 0.0, 10.0, 9.999651 
9.5e+1, 2.74999e+2, -269458.56, -295789.34, 0.0000000000726939, -0.000000000000000039603164, -0.071181946, -269458.56, -24456.014, 0.0, 10.0, 9.999651 
9.5e+1, 2.849982e+2, -214890.0, -287986.97, -0.00000000012844201, -0.00000000000000017431786, -0.08577683, -214890.0, -67880.586, 0.0, 10.0, 9.999031 
9.5e+1, 2.9499716e+2, -116866.016, -189947.38, -0.00000000014575241, -0.00000000000000013547465, -0.09333666, -116866.016, -67846.8, 0.0, 10.0, 9.999032 
9.5e+1, 3.0499634e+2, -42599.594, -88476.086, 0.000000000028866482, -0.000000000000000027168949, -0.0955658, -42599.594, -42599.594, 0.0, 10.0, 9.9993925 
9.5e+1, 3.1499577e+2, -42579.195, -88433.71, 0.00000000011808125, 0.00000000000000015054782, -0.09256171, -42579.195, -42579.195, 0.0, 10.0, 9.9993925 
1.05e+2, 1.2500267e+2, -1734751.6, -1755970.8, 0.00000000022657985, 0.000000000000000024936595, 0.035749003, -1734751.6, -19774.236, 0.0, 10.0, 9.999719 
1.05e+2, 1.3500254e+2, -1636775.0, -1658022.0, 0.000000000056372875, 0.0000000000000000756604, 0.05121213, -1636775.0, -19794.813, 0.0, 10.0, 9.999719 
1.05e+2, 1.4500229e+2, -1551217.6, -1585838.5, 0.00000000020410716, 0.0000000000000002329124, 0.06410298, -1551217.6, -32233.871, 0.0, 10.0, 9.999541 
1.05e+2, 1.5500194e+2, -1453229.8, -1487868.4, 0.00000000013697454, 0.00000000000000049801524, 0.07429765, -1453229.8, -32241.465, 0.0, 10.0, 9.999541 
1.05e+2, 1.6500156e+2, -1348002.9, -1374878.3, 0.0000000002191866, 0.0000000000000005712882, 0.077027395, -1348002.9, -25010.77, 0.0, 10.0, 9.999643 
1.05e+2, 1.7500116e+2, -1250012.4, -1276901.8, 0.00000000022422737, 0.0000000000000004525251, 0.07221167, -1250012.4, -25016.963, 0.0, 10.0, 9.999643 
1.05e+2, 1.8500075e+2, -1148206.4, -1171007.4, 0.00000000025879707, 0.00000000000000026420564, 0.064932436, -1148206.4, -21207.867, 0.0, 10.0, 9.999698 
1.05e+2, 1.9500035e+2, -1050217.8, -1073034.1, 0.000000000093811334, 0.000000000000000006424643, 0.05510195, -1050217.8, -21216.19, 0.0, 10.0, 9.999698 
1.05e+2, 2.05e+2, -937596.1, -944690.2, -0.000000000041161605, -0.00000000000000016856647, 0.03908175, -937596.1, -6592.257, 0.0, 10.0, 9.999906 
1.05e+2, 2.1499968e+2, -839606.56, -846712.8, 0.00000000007342273, -0.000000000000000261141, 0.016793974, -839606.56, -6601.0806, 0.0, 10.0, 9.999906 
1.05e+2, 2.2499956e+2, -720963.3, -705862.75, 0.00000000011912313, -0.0000000000000005298361, 0.000012675083, -705862.75, 29142.398, 0.0, 10.0, 10.0002 
1.05e+2, 2.3499964e+2, -622965.4, -607864.94, 0.00000000000042404426, -0.0000000000000009741606, -0.011346158, -607864.94, 29137.918, 0.0, 10.0, 10.0002 
1.05e+2, 2.4499972e+2, -526092.06, -512201.94, -0.00000000010850336, -0.0000000000000007637478, -0.022398034, -512201.94, 26798.5, 0.0, 10.0, 10.000184 
1.05e+2, 2.5499982e+2, -428085.0, -414185.25, 0.000000000022412013, 0.00000000000000010035165, -0.033223554, -414185.25, 26812.695, 0.0, 10.0, 10.000184 
1.05e+2, 2.6499957e+2, -367472.94, -393815.5, 0.00000000018283156, 0.0000000000000003007158, -0.049455743, -367472.94, -24474.283, 0.0, 10.0, 9.999651 
1.05e+2, 2.74999e+2, -269458.56, -295789.34, 0.00000000011624618, -0.00000000000000016197971, -0.071181946, -269458.56, -24456.014, 0.0, 10.0, 9.999651 
1.05e+2, 2.849982e+2, -214890.0, -287986.97, -0.00000000012983419, -0.0000000000000003338266, -0.08577683, -214890.0, -67880.586, 0.0, 10.0, 9.999031 
1.05e+2, 2.9499716e+2, -116866.016, -189947.38, -0.000000000101863865, -0.00000000000000021499857, -0.09333666, -116866.016, -67846.8, 0.0, 10.0, 9.999032 
1.05e+2, 3.0499634e+2, -42599.594, -88476.086, 0.000000000037784335, -0.00000000000000003832151, -0.0955658, -42599.594, -42599.594, 0.0, 10.0, 9.9993925 
1.05e+2, 3.1499577e+2, -42579.195, -88433.71, 0.000000000014419929, 0.00000000000000019644685, -0.09256171, -42579.195, -42579.195, 0.0, 10.0, 9.9993925 
1.15e+2, 1.2500267e+2, -1734751.6, -1755970.8, 0.0000000003796551, 0.00000000000000059206385, 0.035749003, -1734751.6, -19774.236, 0.0, 10.0, 9.999719 
1.15e+2, 1.3500254e+2, -1636775.0, -1658022.0, 0.00000000020978329, 0.0000000000000001210363, 0.05121213, -1636775.0, -19794.813, 0.0, 10.0, 9.999719 
1.15e+2, 1.4500229e+2, -1551217.6, -1585838.5, 0.00000000013639041, 0.00000000000000007855912, 0.06410298, -1551217.6, -32233.871, 0.0, 10.0, 9.999541 
1.15e+2, 1.5500194e+2, -1453229.8, -1487868.4, 0.00000000006907397, 0.0000000000000004663482, 0.07429765, -1453229.8, -32241.465, 0.0, 10.0, 9.999541 
1.15e+2, 1.6500156e+2, -1348002.9, -1374878.3, 0.00000000029492472, 0.0000000000000005048846, 0.077027395, -1348002.9, -25010.77, 0.0, 10.0, 9.999643 
1.15e+2, 1.7500116e+2, -1250012.4, -1276901.8, 0.00000000030064531, 0.00000000000000019387848, 0.07221167, -1250012.4, -25016.963, 0.0, 10.0, 9.999643 
1.15e+2, 1.8500075e+2, -1148206.4, -1171007.4, 0.00000000026475835, -0.000000000000000043951494, 0.064932436, -1148206.4, -21207.867, 0.0, 10.0, 9.999698 
1.15e+2, 1.9500035e+2, -1050217.8, -1073034.1, 0.000000000099078634, -0.0000000000000002078515, 0.05510195, -1050217.8, -21216.19, 0.0, 10.0, 9.999698 
1.15e+2, 2.05e+2, -937596.1, -944690.2, -0.00000000015711643, -0.0000000000000003091331, 0.03908175, -937596.1, -6592.257, 0.0, 10.0, 9.999906 
1.15e+2, 2.1499968e+2, -839606.56, -846712.8, -0.000000000042271554, -0.00000000000000034847695, 0.016793974, -839606.56, -6601.0806, 0.0, 10.0, 9.999906 
1.15e+2, 2.2499956e+2, -720963.3, -705862.75, 0.0000000002668195, -0.00000000000000036461746, 0.000012675083, -705862.75, 29142.398, 0.0, 10.0, 10.0002 
1.15e+2, 2.3499964e+2, -622965.4, -607864.94, 0.00000000014894448, -0.00000000000000035759005, -0.011346158, -607864.94, 29137.918, 0.0, 10.0, 10.0002 
1.15e+2, 2.4499972e+2, -526092.06, -512201.94, -0.00000000023606436, -0.0000000000000002255248, -0.022398034, -512201.94, 26798.5, 0.0, 10.0, 10.000184 
1.15e+2, 2.5499982e+2, -428085.0, -414185.25, -0.00000000010424001, 0.00000000000000003171462, -0.033223554, -414185.25, 26812.695, 0.0, 10.0, 10.000184 
1.15e+2, 2.6499957e+2, -367472.94, -393815.5, 0.00000000013483746, 0.000000000000000011422553, -0.049455743, -367472.94, -24474.283, 0.0, 10.0, 9.999651 
1.15e+2, 2.74999e+2, -269458.56, -295789.34, 0.000000000068283906, -0.00000000000000028646178, -0.071181946, -269458.56, -24456.014, 0.0, 10.0, 9.999651 
1.15e+2, 2.849982e+2, -214890.0, -287986.97, -0.00000000005105624, -0.00000000000000036516183, -0.08577683, -214890.0, -67880.586, 0.0, 10.0, 9.999031 
1.15e+2, 2.9499716e+2, -116866.016, -189947.38, -0.00000000002316949, -0.00000000000000022421968, -0.09333666, -116866.016, -67846.8, 0.0, 10.0, 9.999032 
1.15e+2, 3.0499634e+2, -42599.594, -88476.086, 0.000000000007622854, -0.000000000000000054688725, -0.0955658, -42599.594, -42599.594, 0.0, 10.0, 9.9993925 
1.15e+2, 3.1499577e+2, -42579.195, -88433.71, -0.000000000015605888, 0.00000000000000014410373, -0.09256171, -42579.195, -42579.195, 0.0, 10.0, 9.9993925 
1.25e+2, 1.2500267e+2, -1734751.6, -1755970.8, -0.0000000005255621, 0.0000000000000007617739, 0.035749003, -1734751.6, -19774.236, 0.0, 10.0, 9.999719 
1.25e+2, 1.3500254e+2, -1636775.0, -1658022.0, -0.00000000034997832, 0.00000000000000021596021, 0.05121213, -1636775.0, -19794.813, 0.0, 10.0, 9.999719 
1.25e+2, 1.4500229e+2, -1551217.6, -1585838.5, -0.00000000037782996, 0.000000000000000043129667, 0.06410298, -1551217.6, -32233.871, 0.0, 10.0, 9.999541 
1.25e+2, 1.5500194e+2, -1453229.8, -1487868.4, -0.00000000036947267, 0.00000000000000024386793, 0.07429765, -1453229.8, -32241.465, 0.0, 10.0, 9.999541 
1.25e+2, 1.6500156e+2, -1348002.9, -1374878.3, -0.000000000018501313, 0.00000000000000025085505, 0.077027395, -1348002.9, -25010.77, 0.0, 10.0, 9.999643 
1.25e+2, 1.7500116e+2, -1250012.4, -1276901.8, 0.000000000021992885, 0.00000000000000006412154, 0.07221167, -1250012.4, -25016.963, 0.0, 10.0, 9.999643 
1.25e+2, 1.8500075e+2, -1148206.4, -1171007.4, 0.0000000001180692, -0.00000000000000009490463, 0.064932436, -1148206.4, -21207.867, 0.0, 10.0, 9.999698 
1.25e+2, 1.9500035e+2, -1050217.8, -1073034.1, 0.00000000025074465, -0.00000000000000022522042, 0.05510195, -1050217.8, -21216.19, 0.0, 10.0, 9.999698 
1.25e+2, 2.05e+2, -937596.1, -944690.2, -0.0000000001403873, -0.00000000000000024753802, 0.03908175, -937596.1, -6592.257, 0.0, 10.0, 9.999906 
1.25e+2, 2.1499968e+2, -839606.56, -846712.8, -0.00000000047513465, -0.00000000000000016252776, 0.016793974, -839606.56, -6601.0806, 0.0, 10.0, 9.999906 
1.25e+2, 2.2499956e+2, -720963.3, -705862.75, -0.00000000012355426, -0.00000000000000007618717, 0.000012675083, -705862.75, 29142.398, 0.0, 10.0, 10.0002 
1.25e+2, 2.3499964e+2, -622965.4, -607864.94, 0.0000000001498202, 0.000000000000000011127718, -0.011346158, -607864.94, 29137.918, 0.0, 10.0, 10.0002 
1.25e+2, 2.4499972e+2, -526092.06, -512201.94, -0.00000000012379321, -0.0000000000000000011354416, -0.022398034, -512201.94, 26798.5, 0.0, 10.0, 10.000184 
1.25e+2, 2.5499982e+2, -428085.0, -414185.25, -0.000000000059263115, -0.0000000000000001123116, -0.033223554, -414185.25, 26812.695, 0.0, 10.0, 10.000184 
1.25e+2, 2.6499957e+2, -367472.94, -393815.5, 0.00000000010420521, -0.00000000000000017714334, -0.049455743, -367472.94, -24474.283, 0.0, 10.0, 9.999651 
1.25e+2, 2.74999e+2, -269458.56, -295789.34, 0.00000000013210305, -0.00000000000000019610453, -0.071181946, -269458.56, -24456.014, 0.0, 10.0, 9.999651 
1.25e+2, 2.849982e+2, -214890.0, -287986.97, 0.00000000009470883, -0.000000000000000228934, -0.08577683, -214890.0, -67880.586, 0.0, 10.0, 9.999031 
1.25e+2, 2.9499716e+2, -116866.016, -189947.38, -0.0000000000083246144, -0.00000000000000027498536, -0.09333666, -116866.016, -67846.8, 0.0, 10.0, 9.999032 
1.25e+2, 3.0499634e+2, -42599.594, -88476.086, -0.00000000006917146, -0.0000000000000002028236, -0.0955658, -42599.594, -42599.594, 0.0, 10.0, 9.9993925 
1.25e+2, 3.1499577e+2, -42579.195, -88433.71, -0.00000000013699805, -0.000000000000000011881111, -0.09256171, -42579.195, -42579.195, 0.0, 10.0, 9.9993925 
1.35e+2, 1.2500267e+2, -1734751.6, -1755970.8, -0.00000000041744685, 0.00000000000000053406666, 0.035749003, -1734751.6, -19774.236, 0.0, 10.0, 9.999719 
1.35e+2, 1.3500254e+2, -1636775.0, -1658022.0, -0.00000000024212266, 0.00000000000000036043213, 0.05121213, -1636775.0, -19794.813, 0.0, 10.0, 9.999719 
1.35e+2, 1.4500229e+2, -1551217.6, -1585838.5, -0.00000000041776635, 0.00000000000000012662404, 0.06410298, -1551217.6, -32233.871, 0.0, 10.0, 9.999541 
1.35e+2, 1.5500194e+2, -1453229.8, -1487868.4, -0.00000000040929785, -0.00000000000000016942552, 0.07429765, -1453229.8, -32241.465, 0.0, 10.0, 9.999541 
1.35e+2, 1.6500156e+2, -1348002.9, -1374878.3, -0.000000000044627503, -0.00000000000000019080039, 0.077027395, -1348002.9, -25010.77, 0.0, 10.0, 9.999643 
1.35e+2, 1.7500116e+2, -1250012.4, -1276901.8, -0.0000000000035923812, 0.00000000000000006325421, 0.07221167, -1250012.4, -25016.963, 0.0, 10.0, 9.999643 
1.35e+2, 1.8500075e+2, -1148206.4, -1171007.4, 0.0000000001308565, 0.00000000000000011134624, 0.064932436, -1148206.4, -21207.867, 0.0, 10.0, 9.999698 
1.35e+2, 1.9500035e+2, -1050217.8, -1073034.1, 0.000000000263127, -0.000000000000000045682148, 0.05510195, -1050217.8, -21216.19, 0.0, 10.0, 9.999698 
1.35e+2, 2.05e+2, -937596.1, -944690.2, -0.00000000009450962, 0.000000000000000016218808, 0.03908175, -937596.1, -6592.257, 0.0, 10.0, 9.999906 
1.35e+2, 2.1499968e+2, -839606.56, -846712.8, -0.00000000043442788, 0.00000000000000029670662, 0.016793974, -839606.56, -6601.0806, 0.0, 10.0, 9.999906 
1.35e+2, 2.2499956e+2, -720963.3, -705862.75, -0.00000000021099289, 0.00000000000000033545477, 0.000012675083, -705862.75, 29142.398, 0.0, 10.0, 10.0002 
1.35e+2, 2.3499964e+2, -622965.4, -607864.94, 0.00000000006259032, 0.00000000000000013199267, -0.011346158, -607864.94, 29137.918, 0.0, 10.0, 10.0002 
1.35e+2, 2.4499972e+2, -526092.06, -512201.94, -0.0000000000072178197, -0.000000000000000090579705, -0.022398034, -512201.94, 26798.5, 0.0, 10.0, 10.000184 
1.35e+2, 2.5499982e+2, -428085.0, -414185.25, 0.00000000005781702, -0.00000000000000033172703, -0.033223554, -414185.25, 26812.695, 0.0, 10.0, 10.000184 
1.35e+2, 2.6499957e+2, -367472.94, -393815.5, 0.000000000053252184, -0.00000000000000026498184, -0.049455743, -367472.94, -24474.283, 0.0, 10.0, 9.999651 
1.35e+2, 2.74999e+2, -269458.56, -295789.34, 0.00000000008112965, 0.00000000000000010909207, -0.071181946, -269458.56, -24456.014, 0.0, 10.0, 9.999651 
1.35e+2, 2.849982e+2, -214890.0, -287986.97, 0.00000000007606804, 0.00000000000000007485693, -0.08577683, -214890.0, -67880.586, 0.0, 10.0, 9.999031 
1.35e+2, 2.9499716e+2, -116866.016, -189947.38, -0.00000000002686659, -0.00000000000000036729564, -0.09333666, -116866.016, -67846.8, 0.0, 10.0, 9.999032 
1.35e+2, 3.0499634e+2, -42599.594, -88476.086, -0.000000000052032403, -0.00000000000000048272614, -0.0955658, -42599.594, -42599.594, 0.0, 10.0, 9.9993925 
1.35e+2, 3.1499577e+2, -42579.195, -88433.71, -0.00000000012002234, -0.00000000000000027150768, -0.09256171, -42579.195, -42579.195, 0.0, 10.0, 9.9993925 
1.45e+2, 1.2500267e+2, -1734751.6, -1755970.8, 0.00000000014554657, 0.00000000000000029836418, 0.035749003, -1734751.6, -19774.236, 0.0, 10.0, 9.999719 
1.45e+2, 1.3500254e+2, -1636775.0, -1658022.0, 0.0000000001993396, 0.00000000000000027411776, 0.05121213, -1636775.0, -19794.813, 0.0, 10.0, 9.999719 
1.45e+2, 1.4500229e+2, -1551217.6, -1585838.5, -0.00000000022934807, 0.00000000000000007910265, 0.06410298, -1551217.6, -32233.871, 0.0, 10.0, 9.999541 
1.45e+2, 1.5500194e+2, -1453229.8, -1487868.4, -0.0000000002826358, -0.00000000000000028899782, 0.07429765, -1453229.8, -32241.465, 0.0, 10.0, 9.999541 
1.45e+2, 1.6500156e+2, -1348002.9, -1374878.3, -0.00000000013926611, -0.00000000000000023764475, 0.077027395, -1348002.9, -25010.77, 0.0, 10.0, 9.999643 
1.45e+2, 1.7500116e+2, -1250012.4, -1276901.8, -0.00000000025915645, 0.00000000000000023406448, 0.07221167, -1250012.4, -25016.963, 0.0, 10.0, 9.999643 
1.45e+2, 1.8500075e+2, -1148206.4, -1171007.4, -0.0000000001584585, 0.00000000000000027413843, 0.064932436, -1148206.4, -21207.867, 0.0, 10.0, 9.999698 
1.45e+2, 1.9500035e+2, -1050217.8, -1073034.1, -0.00000000012922718, -0.00000000000000011692903, 0.05510195, -1050217.8, -21216.19, 0.0, 10.0, 9.999698 
1.45e+2, 2.05e+2, -937596.1, -944690.2, -0.0000000002410462, -0.000000000000000103058777, 0.03908175, -937596.1, -6592.257, 0.0, 10.0, 9.999906 
1.45e+2, 2.1499968e+2, -839606.56, -846712.8, -0.000000000026140137, 0.00000000000000031564995, 0.016793974, -839606.56, -6601.0806, 0.0, 10.0, 9.999906 
1.45e+2, 2.2499956e+2, -720963.3, -705862.75, 0.00000000022151464, 0.0000000000000004256811, 0.000012675083, -705862.75, 29142.398, 0.0, 10.0, 10.0002 
1.45e+2, 2.3499964e+2, -622965.4, -607864.94, 0.00000000018571204, 0.00000000000000022642768, -0.011346158, -607864.94, 29137.918, 0.0, 10.0, 10.0002 
1.45e+2, 2.4499972e+2, -526092.06, -512201.94, 0.00000000004091451, -0.000000000000000019390325, -0.022398034, -512201.94, 26798.5, 0.0, 10.0, 10.000184 
1.45e+2, 2.5499982e+2, -428085.0, -414185.25, -0.00000000010100636, -0.00000000000000031143803, -0.033223554, -414185.25, 26812.695, 0.0, 10.0, 10.000184 
1.45e+2, 2.6499957e+2, -367472.94, -393815.5, -0.00000000027541275, -0.00000000000000023779569, -0.049455743, -367472.94, -24474.283, 0.0, 10.0, 9.999651 
1.45e+2, 2.74999e+2, -269458.56, -295789.34, -0.00000000016743602, 0.00000000000000020132676, -0.071181946, -269458.56, -24456.014, 0.0, 10.0, 9.999651 
1.45e+2, 2.849982e+2, -214890.0, -287986.97, -0.00000000004766523, 0.00000000000000021742486, -0.08577683, -214890.0, -67880.586, 0.0, 10.0, 9.999031 
1.45e+2, 2.9499716e+2, -116866.016, -189947.38, -0.000000000094302725, -0.0000000000000001896116, -0.09333666, -116866.016, -67846.8, 0.0, 10.0, 9.999032 
1.45e+2, 3.0499634e+2, -42599.594, -88476.086, -0.000000000004962069, -0.00000000000000037670427, -0.0955658, -42599.594, -42599.594, 0.0, 10.0, 9.9993925 
1.45e+2, 3.1499577e+2, -42579.195, -88433.71, 0.00000000002693628, -0.00000000000000034385363, -0.09256171, -42579.195, -42579.195, 0.0, 10.0, 9.9993925 
1.55e+2, 1.2500267e+2, -1734751.6, -1755970.8, 0.00000000038775586, 0.000000000000000054666434, 0.035749003, -1734751.6, -19774.236, 0.0, 10.0, 9.999719 
1.55e+2, 1.3500254e+2, -1636775.0, -1658022.0, 0.0000000004414693, -0.00000000000000004298286, 0.05121213, -1636775.0, -19794.813, 0.0, 10.0, 9.999719 
1.55e+2, 1.4500229e+2, -1551217.6, -1585838.5, -0.00000000013462799, -0.00000000000000009943451, 0.06410298, -1551217.6, -32233.871, 0.0, 10.0, 9.999541 
1.55e+2, 1.5500194e+2, -1453229.8, -1487868.4, -0.00000000018789367, -0.00000000000000011484896, 0.07429765, -1453229.8, -32241.465, 0.0, 10.0, 9.999541 
1.55e+2, 1.6500156e+2, -1348002.9, -1374878.3, -0.00000000027348482, 0.00000000000000011032199, 0.077027395, -1348002.9, -25010.77, 0.0, 10.0, 9.999643 
1.55e+2, 1.7500116e+2, -1250012.4, -1276901.8, -0.00000000039304116, 0.0000000000000005765523, 0.07221167, -1250012.4, -25016.963, 0.0, 10.0, 9.999643 
1.55e+2, 1.8500075e+2, -1148206.4, -1171007.4, -0.00000000017109804, 0.00000000000000039347195, 0.064932436, -1148206.4, -21207.867, 0.0, 10.0, 9.999698 
1.55e+2, 1.9500035e+2, -1050217.8, -1073034.1, -0.00000000014243122, -0.0000000000000004389611, 0.05510195, -1050217.8, -21216.19, 0.0, 10.0, 9.999698 
1.55e+2, 2.05e+2, -937596.1, -944690.2, -0.00000000024785973, -0.00000000000000060537074, 0.03908175, -937596.1, -6592.257, 0.0, 10.0, 9.999906 
1.55e+2, 2.1499968e+2, -839606.56, -846712.8, -0.00000000002933218, -0.00000000000000010569779, 0.016793974, -839606.56, -6601.0806, 0.0, 10.0, 9.999906 
1.55e+2, 2.2499956e+2, -720963.3, -705862.75, 0.00000000015696572, 0.00000000000000019449176, 0.000012675083, -705862.75, 29142.398, 0.0, 10.0, 10.0002 
1.55e+2, 2.3499964e+2, -622965.4, -607864.94, 0.0000000001220319, 0.00000000000000029443273, -0.011346158, -607864.94, 29137.918, 0.0, 10.0, 10.0002 
1.55e+2, 2.4499972e+2, -526092.06, -512201.94, 0.000000000103631444, 0.0000000000000002124327, -0.022398034, -512201.94, 26798.5, 0.0, 10.0, 10.000184 
1.55e+2, 2.5499982e+2, -428085.0, -414185.25, -0.000000000037433064, -0.000000000000000051444586, -0.033223554, -414185.25, 26812.695, 0.0, 10.0, 10.000184 
1.55e+2, 2.6499957e+2, -367472.94, -393815.5, -0.00000000033391118, -0.000000000000000095584876, -0.049455743, -367472.94, -24474.283, 0.0, 10.0, 9.999651 
1.55e+2, 2.74999e+2, -269458.56, -295789.34, -0.00000000022582741, 0.00000000000000008059956, -0.071181946, -269458.56, -24456.014, 0.0, 10.0, 9.999651 
1.55e+2, 2.849982e+2, -214890.0, -287986.97, 0.000000000026141108, 0.00000000000000019876981, -0.08577683, -214890.0, -67880.586, 0.0, 10.0, 9.999031 
1.55e+2, 2.9499716e+2, -116866.016, -189947.38, -0.00000000002061381, 0.00000000000000025806677, -0.09333666, -116866.016, -67846.8, 0.0, 10.0, 9.999032 
1.55e+2, 3.0499634e+2, -42599.594, -88476.086, 0.000000000066745325, 0.00000000000000011524204, -0.0955658, -42599.594, -42599.594, 0.0, 10.0, 9.9993925 
1.55e+2, 3.1499577e+2, -42579.195, -88433.71, 0.00000000009874054, -0.00000000000000022891897, -0.09256171, -42579.195, -42579.195, 0.0, 10.0, 9.9993925 
1.65e+2, 1.2500267e+2, -1734751.6, -1755970.8, 0.0000000002087348, -0.0000000000000006226525, 0.035749003, -1734751.6, -19774.236, 0.0, 10.0, 9.999719 
1.65e+2, 1.3500254e+2, -1636775.0, -1658022.0, 0.00000000010806571, -0.00000000000000021235813, 0.05121213, -1636775.0, -19794.813, 0.0, 10.0, 9.999719 
1.65e+2, 1.4500229e+2, -1551217.6, -1585838.5, -0.00000000040799103, -0.00000000000000009799803, 0.06410298, -1551217.6, -32233.871, 0.0, 10.0, 9.999541 
1.65e+2, 1.5500194e+2, -1453229.8, -1487868.4, -0.00000000025589258, -0.0000000000000002806061, 0.07429765, -1453229.8, -32241.465, 0.0, 10.0, 9.999541 
1.65e+2, 1.6500156e+2, -1348002.9, -1374878.3, -0.00000000025618774, -0.00000000000000005546079, 0.077027395, -1348002.9, -25010.77, 0.0, 10.0, 9.999643 
1.65e+2, 1.7500116e+2, -1250012.4, -1276901.8, -0.00000000010346823, 0.0000000000000005784107, 0.07221167, -1250012.4, -25016.963, 0.0, 10.0, 9.999643 
1.65e+2, 1.8500075e+2, -1148206.4, -1171007.4, 0.00000000021358308, 0.00000000000000045832863, 0.064932436, -1148206.4, -21207.867, 0.0, 10.0, 9.999698 
1.65e+2, 1.9500035e+2, -1050217.8, -1073034.1, 0.00000000018201021, -0.00000000000000041608916, 0.05510195, -1050217.8, -21216.19, 0.0, 10.0, 9.999698 
1.65e+2, 2.05e+2, -937596.1, -944690.2, -0.00000000011231467, -0.00000000000000067117975, 0.03908175, -937596.1, -6592.257, 0.0, 10.0, 9.999906 
1.65e+2, 2.1499968e+2, -839606.56, -846712.8, -0.000000000301315, -0.00000000000000030700206, 0.016793974, -839606.56, -6601.0806, 0.0, 10.0, 9.999906 
1.65e+2, 2.2499956e+2, -720963.3, -705862.75, -0.00000000025136043, -0.00000000000000003877063, 0.000012675083, -705862.75, 29142.398, 0.0, 10.0, 10.0002 
1.65e+2, 2.3499964e+2, -622965.4, -607864.94, -0.00000000010788765, 0.0000000000000001330679, -0.011346158, -607864.94, 29137.918, 0.0, 10.0, 10.0002 
1.65e+2, 2.4499972e+2, -526092.06, -512201.94, 0.000000000078749854, 0.00000000000000018401711, -0.022398034, -512201.94, 26798.5, 0.0, 10.0, 10.000184 
1.65e+2, 2.5499982e+2, -428085.0, -414185.25, 0.00000000023999813, 0.0000000000000001140627, -0.033223554, -414185.25, 26812.695, 0.0, 10.0, 10.000184 
1.65e+2, 2.6499957e+2, -367472.94, -393815.5, 0.000000000055424783, 0.00000000000000007395904, -0.049455743, -367472.94, -24474.283, 0.0, 10.0, 9.999651 
1.65e+2, 2.74999e+2, -269458.56, -295789.34, -0.000000000105227944, 0.00000000000000006425795, -0.071181946, -269458.56, -24456.014, 0.0, 10.0, 9.999651 
1.65e+2, 2.849982e+2, -214890.0, -287986.97, -0.000000000023179252, 0.0000000000000001215959, -0.08577683, -214890.0, -67880.586, 0.0, 10.0, 9.999031 
1.65e+2, 2.9499716e+2, -116866.016, -189947.38, -0.000000000028788054, 0.00000000000000024516516, -0.09333666, -116866.016, -67846.8, 0.0, 10.0, 9.999032 
1.65e+2, 3.0499634e+2, -42599.594, -88476.086, 0.000000000003420282, 0.00000000000000013086946, -0.0955658, -42599.594, -42599.594, 0.0, 10.0, 9.9993925 
1.65e+2, 3.1499577e+2, -42579.195, -88433.71, 0.000000000008543933, -0.0000000000000002204216, -0.09256171, -42579.195, -42579.195, 0.0, 10.0, 9.9993925 
1.75e+2, 1.2500267e+2, -1734751.6, -1755970.8, 0.00000000008017014, -0.0000000000000017335926, 0.035749003, -1734751.6, -19774.236, 0.0, 10.0, 9.999719 
1.75e+2, 1.3500254e+2, -1636775.0, -1658022.0, -0.000000000020586807, -0.00000000000000023400807, 0.05121213, -1636775.0, -19794.813, 0.0, 10.0, 9.999719 
1.75e+2, 1.4500229e+2, -1551217.6, -1585838.5, -0.00000000027609984, 0.00000000000000008341207, 0.06410298, -1551217.6, -32233.871, 0.0, 10.0, 9.999541 
1.75e+2, 1.5500194e+2, -1453229.8, -1487868.4, -0.00000000012401283, -0.0000000000000007862693, 0.07429765, -1453229.8, -32241.465, 0.0, 10.0, 9.999541 
1.75e+2, 1.6500156e+2, -1348002.9, -1374878.3, -0.00000000023363037, -0.0000000000000007349931, 0.077027395, -1348002.9, -25010.77, 0.0, 10.0, 9.999643 
1.75e+2, 1.7500116e+2, -1250012.4, -1276901.8, -0.000000000079858835, 0.00000000000000023963965, 0.07221167, -1250012.4, -25016.963, 0.0, 10.0, 9.999643 
1.75e+2, 1.8500075e+2, -1148206.4, -1171007.4, 0.00000000008634489, 0.0000000000000004687085, 0.064932436, -1148206.4, -21207.867, 0.0, 10.0, 9.999698 
1.75e+2, 1.9500035e+2, -1050217.8, -1073034.1, 0.000000000055030806, -0.00000000000000004831324, 0.05510195, -1050217.8, -21216.19, 0.0, 10.0, 9.999698 
1.75e+2, 2.05e+2, -937596.1, -944690.2, -0.00000000016415481, -0.00000000000000030048573, 0.03908175, -937596.1, -6592.257, 0.0, 10.0, 9.999906 
1.75e+2, 2.1499968e+2, -839606.56, -846712.8, -0.0000000003535292, -0.0000000000000002882629, 0.016793974, -839606.56, -6601.0806, 0.0, 10.0, 9.999906 
1.75e+2, 2.2499956e+2, -720963.3, -705862.75, -0.0000000002385879, -0.00000000000000027410608, 0.000012675083, -705862.75, 29142.398, 0.0, 10.0, 10.0002 
1.75e+2, 2.3499964e+2, -622965.4, -607864.94, -0.00000000009497527, -0.00000000000000025766687, -0.011346158, -607864.94, 29137.918, 0.0, 10.0, 10.0002 
1.75e+2, 2.4499972e+2, -526092.06, -512201.94, -0.000000000041834522, -0.00000000000000010463709, -0.022398034, -512201.94, 26798.5, 0.0, 10.0, 10.000184 
1.75e+2, 2.5499982e+2, -428085.0, -414185.25, 0.00000000012004728, 0.00000000000000018508386, -0.033223554, -414185.25, 26812.695, 0.0, 10.0, 10.000184 
1.75e+2, 2.6499957e+2, -367472.94, -393815.5, 0.0000000002740349, 0.00000000000000027083606, -0.049455743, -367472.94, -24474.283, 0.0, 10.0, 9.999651 
1.75e+2, 2.74999e+2, -269458.56, -295789.34, 0.00000000011324399, 0.00000000000000015230194, -0.071181946, -269458.56, -24456.014, 0.0, 10.0, 9.999651 
1.75e+2, 2.849982e+2, -214890.0, -287986.97, -0.000000000065956254, -0.000000000000000014096877, -0.08577683, -214890.0, -67880.586, 0.0, 10.0, 9.999031 
1.75e+2, 2.9499716e+2, -116866.016, -189947.38, -0.000000000071439375, -0.0000000000000002283164, -0.09333666, -116866.016, -67846.8, 0.0, 10.0, 9.999032 
1.75e+2, 3.0499634e+2, -42599.594, -88476.086, -0.000000000113474764, -0.00000000000000032982198, -0.0955658, -42599.594, -42599.594, 0.0, 10.0, 9.9993925 
1.75e+2, 3.1499577e+2, -42579.195, -88433.71, -0.000000000108454704, -0.00000000000000031836154, -0.09256171, -42579.195, -42579.195, 0.0, 10.0, 9.9993925 
1.85e+2, 1.2500267e+2, -1734751.6, -1755970.8, 0.00000000019964715, -0.0000000000000017298752, 0.035749003, -1734751.6, -19774.236, 0.0, 10.0, 9.999719 
1.85e+2, 1.3500254e+2, -1636775.0, -1658022.0, 0.00000000028839417, -0.00000000000000022285318, 0.05121213, -1636775.0, -19794.813, 0.0, 10.0, 9.999719 
1.85e+2, 1.4500229e+2, -1551217.6, -1585838.5, 0.00000000019653495, 0.000000000000000053143678, 0.06410298, -1551217.6, -32233.871, 0.0, 10.0, 9.999541 
1.85e+2, 1.5500194e+2, -1453229.8, -1487868.4, 0.00000000014941179, -0.0000000000000009060398, 0.07429765, -1453229.8, -32241.465, 0.0, 10.0, 9.999541 
1.85e+2, 1.6500156e+2, -1348002.9, -1374878.3, -0.00000000017818794, -0.0000000000000008923618, 0.077027395, -1348002.9, -25010.77, 0.0, 10.0, 9.999643 
1.85e+2, 1.7500116e+2, -1250012.4, -1276901.8, -0.00000000015136531, 0.000000000000000095871384, 0.07221167, -1250012.4, -25016.963, 0.0, 10.0, 9.999643 
1.85e+2, 1.8500075e+2, -1148206.4, -1171007.4, -0.00000000008736337, 0.0000000000000004997389, 0.064932436, -1148206.4, -21207.867, 0.0, 10.0, 9.999698 
1.85e+2, 1.9500035e+2, -1050217.8, -1073034.1, 0.0000000000010016725, 0.0000000000000003191312, 0.05510195, -1050217.8, -21216.19, 0.0, 10.0, 9.999698 
1.85e+2, 2.05e+2, -937596.1, -944690.2, 0.000000000006917044, 0.0000000000000001675293, 0.03908175, -937596.1, -6592.257, 0.0, 10.0, 9.999906 
1.85e+2, 2.1499968e+2, -839606.56, -846712.8, 0.00000000011189282, 0.00000000000000004414103, 0.016793974, -839606.56, -6601.0806, 0.0, 10.0, 9.999906 
1.85e+2, 2.2499956e+2, -720963.3, -705862.75, 0.00000000032664751, -0.00000000000000014024674, 0.000012675083, -705862.75, 29142.398, 0.0, 10.0, 10.0002 
1.85e+2, 2.3499964e+2, -622965.4, -607864.94, 0.00000000013785817, -0.0000000000000003848952, -0.011346158, -607864.94, 29137.918, 0.0, 10.0, 10.0002 
1.85e+2, 2.4499972e+2, -526092.06, -512201.94, -0.00000000016926689, -0.00000000000000032103364, -0.022398034, -512201.94, 26798.5, 0.0, 10.0, 10.000184 
1.85e+2, 2.5499982e+2, -428085.0, -414185.25, -0.00000000027383268, 0.000000000000000051644284, -0.033223554, -414185.25, 26812.695, 0.0, 10.0, 10.000184 
1.85e+2, 2.6499957e+2, -367472.94, -393815.5, 0.000000000057627847, 0.0000000000000001985, -0.049455743, -367472.94, -24474.283, 0.0, 10.0, 9.999651 
1.85e+2, 2.74999e+2, -269458.56, -295789.34, 0.00000000016611487, 0.00000000000000011875596, -0.071181946, -269458.56, -24456.014, 0.0, 10.0, 9.999651 
1.85e+2, 2.849982e+2, -214890.0, -287986.97, -0.000000000012037849, -0.00000000000000009164026, -0.08577683, -214890.0, -67880.586, 0.0, 10.0, 9.999031 
1.85e+2, 2.9499716e+2, -116866.016, -189947.38, -0.000000000019738875, -0.00000000000000043213464, -0.09333666, -116866.016, -67846.8, 0.0, 10.0, 9.999032 
1.85e+2, 3.0499634e+2, -42599.594, -88476.086, -0.000000000095104154, -0.00000000000000045616853, -0.0955658, -42599.594, -42599.594, 0.0, 10.0, 9.9993925 
1.85e+2, 3.1499577e+2, -42579.195, -88433.71, -0.00000000016667906, -0.00000000000000016387472, -0.09256171, -42579.195, -42579.195, 0.0, 10.0, 9.9993925 
1.95e+2, 1.2500267e+2, -1734751.6, -1755970.8, 0.000000000155774, -0.0000000000000006115003, 0.035749003, -1734751.6, -19774.236, 0.0, 10.0, 9.999719 
1.95e+2, 1.3500254e+2, -1636775.0, -1658022.0, 0.0000000002449261, -0.00000000000000017889345, 0.05121213, -1636775.0, -19794.813, 0.0, 10.0, 9.999719 
1.95e+2, 1.4500229e+2, -1551217.6, -1585838.5, 0.00000000020519632, -0.00000000000000018880322, 0.06410298, -1551217.6, -32233.871, 0.0, 10.0, 9.999541 
1.95e+2, 1.5500194e+2, -1453229.8, -1487868.4, 0.0000000001580524, -0.00000000000000063991767, 0.07429765, -1453229.8, -32241.465, 0.0, 10.0, 9.999541 
1.95e+2, 1.6500156e+2, -1348002.9, -1374878.3, -0.00000000016530463, -0.00000000000000052756685, 0.077027395, -1348002.9, -25010.77, 0.0, 10.0, 9.999643 
1.95e+2, 1.7500116e+2, -1250012.4, -1276901.8, -0.00000000013741591, 0.00000000000000014710593, 0.07221167, -1250012.4, -25016.963, 0.0, 10.0, 9.999643 
1.95e+2, 1.8500075e+2, -1148206.4, -1171007.4, -0.000000000070626484, 0.0000000000000005514198, 0.064932436, -1148206.4, -21207.867, 0.0, 10.0, 9.999698 
1.95e+2, 1.9500035e+2, -1050217.8, -1073034.1, 0.000000000017263595, 0.00000000000000068624423, 0.05510195, -1050217.8, -21216.19, 0.0, 10.0, 9.999698 
1.95e+2, 2.05e+2, -937596.1, -944690.2, -0.000000000020189893, 0.00000000000000073286535, 0.03908175, -937596.1, -6592.257, 0.0, 10.0, 9.999906 
1.95e+2, 2.1499968e+2, -839606.56, -846712.8, 0.000000000075594, 0.00000000000000069020967, 0.016793974, -839606.56, -6601.0806, 0.0, 10.0, 9.999906 
1.95e+2, 2.2499956e+2, -720963.3, -705862.75, 0.00000000038957587, 0.0000000000000003628074, 0.000012675083, -705862.75, 29142.398, 0.0, 10.0, 10.0002 
1.95e+2, 2.3499964e+2, -622965.4, -607864.94, 0.0000000002018087, -0.00000000000000024861717, -0.011346158, -607864.94, 29137.918, 0.0, 10.0, 10.0002 
1.95e+2, 2.4499972e+2, -526092.06, -512201.94, -0.00000000018439236, -0.00000000000000046517255, -0.022398034, -512201.94, 26798.5, 0.0, 10.0, 10.000184 
1.95e+2, 2.5499982e+2, -428085.0, -414185.25, -0.0000000002884887, -0.000000000000000286256, -0.033223554, -414185.25, 26812.695, 0.0, 10.0, 10.000184 
1.95e+2, 2.6499957e+2, -367472.94, -393815.5, 0.00000000007246545, -0.00000000000000014304911, -0.049455743, -367472.94, -24474.283, 0.0, 10.0, 9.999651 
1.95e+2, 2.74999e+2, -269458.56, -295789.34, 0.00000000018095518, -0.000000000000000036379986, -0.071181946, -269458.56, -24456.014, 0.0, 10.0, 9.999651 
1.95e+2, 2.849982e+2, -214890.0, -287986.97, 0.00000000003103892, -0.00000000000000011103427, -0.08577683, -214890.0, -67880.586, 0.0, 10.0, 9.999031 
1.95e+2, 2.9499716e+2, -116866.016, -189947.38, 0.000000000023285724, -0.00000000000000036628958, -0.09333666, -116866.016, -67846.8, 0.0, 10.0, 9.999032 
1.95e+2, 3.0499634e+2, -42599.594, -88476.086, -0.00000000006187881, -0.00000000000000024817025, -0.0955658, -42599.594, -42599.594, 0.0, 10.0, 9.9993925 
1.95e+2, 3.1499577e+2, -42579.195, -88433.71, -0.00000000013339334, 0.00000000000000024303887, -0.09256171, -42579.195, -42579.195, 0.0, 10.0, 9.9993925 
2.05e+2, 1.2500267e+2, -1734751.6, -1755970.8, 0.00000000035914552, 0.000000000000000006300582, 0.035749003, -1734751.6, -19774.236, 0.0, 10.0, 9.999719 
2.05e+2, 1.3500254e+2, -1636775.0, -1658022.0, 0.00000000025387595, -0.00000000000000018804935, 0.05121213, -1636775.0, -19794.813, 0.0, 10.0, 9.999719 
2.05e+2, 1.4500229e+2, -1551217.6, -1585838.5, 0.00000000019458392, -0.00000000000000022484153, 0.06410298, -1551217.6, -32233.871, 0.0, 10.0, 9.999541 
2.05e+2, 1.5500194e+2, -1453229.8, -1487868.4, 0.00000000024389257, -0.00000000000000010030011, 0.07429765, -1453229.8, -32241.465, 0.0, 10.0, 9.999541 
2.05e+2, 1.6500156e+2, -1348002.9, -1374878.3, 0.0000000000764879, -0.00000000000000002128707, 0.077027395, -1348002.9, -25010.77, 0.0, 10.0, 9.999643 
2.05e+2, 1.7500116e+2, -1250012.4, -1276901.8, 0.00000000011390335, 0.0000000000000000098032136, 0.07221167, -1250012.4, -25016.963, 0.0, 10.0, 9.999643 
2.05e+2, 1.8500075e+2, -1148206.4, -1171007.4, 0.0000000000094801, 0.00000000000000018265381, 0.064932436, -1148206.4, -21207.867, 0.0, 10.0, 9.999698 
2.05e+2, 1.9500035e+2, -1050217.8, -1073034.1, -0.00000000007062841, 0.00000000000000049835427, 0.05510195, -1050217.8, -21216.19, 0.0, 10.0, 9.999698 
2.05e+2, 2.05e+2, -937596.1, -944690.2, -0.00000000020796442, 0.0000000000000006554807, 0.03908175, -937596.1, -6592.257, 0.0, 10.0, 9.999906 
2.05e+2, 2.1499968e+2, -839606.56, -846712.8, -0.000000000371278, 0.0000000000000006533299, 0.016793974, -839606.56, -6601.0806, 0.0, 10.0, 9.999906 
2.05e+2, 2.2499956e+2, -720963.3, -705862.75, -0.00000000017808328, 0.00000000000000038433117, 0.000012675083, -705862.75, 29142.398, 0.0, 10.0, 10.0002 
2.05e+2, 2.3499964e+2, -622965.4, -607864.94, 0.00000000007443304, -0.00000000000000015102314, -0.011346158, -607864.94, 29137.918, 0.0, 10.0, 10.0002 
2.05e+2, 2.4499972e+2, -526092.06, -512201.94, 0.0000000001476377, -0.00000000000000037215597, -0.022398034, -512201.94, 26798.5, 0.0, 10.0, 10.000184 
2.05e+2, 2.5499982e+2, -428085.0, -414185.25, 0.00000000012316369, -0.00000000000000027875727, -0.033223554, -414185.25, 26812.695, 0.0, 10.0, 10.000184 
2.05e+2, 2.6499957e+2, -367472.94, -393815.5, 0.00000000017610387, -0.00000000000000023468602, -0.049455743, -367472.94, -24474.283, 0.0, 10.0, 9.999651 
2.05e+2, 2.74999e+2, -269458.56, -295789.34, 0.00000000006564088, -0.0000000000000002403802, -0.071181946, -269458.56, -24456.014, 0.0, 10.0, 9.999651 
2.05e+2, 2.849982e+2, -214890.0, -287986.97, -0.0000000000007069949, -0.00000000000000022882632, -0.08577683, -214890.0, -67880.586, 0.0, 10.0, 9.999031 
2.05e+2, 2.9499716e+2, -116866.016, -189947.38, 0.000000000073839004, -0.00000000000000019953023, -0.09333666, -116866.016, -67846.8, 0.0, 10.0, 9.999032 
2.05e+2, 3.0499634e+2, -42599.594, -88476.086, 0.000000000037490552, -0.00000000000000002473702, -0.0955658, -42599.594, -42599.594, 0.0, 10.0, 9.9993925 
2.05e+2, 3.1499577e+2, -42579.195, -88433.71, 0.00000000012540667, 0.00000000000000029542175, -0.09256171, -42579.195, -42579.195, 0.0, 10.0, 9.9993925 
2.15e+2, 1.2500267e+2, -1734751.6, -1755970.8, 0.00000000025974803, 0.00000000000000012352743, 0.035749003, -1734751.6, -19774.236, 0.0, 10.0, 9.999719 
2.15e+2, 1.3500254e+2, -1636775.0, -1658022.0, 0.00000000015447454, -0.0000000000000002503209, 0.05121213, -1636775.0, -19794.813, 0.0, 10.0, 9.999719 
2.15e+2, 1.4500229e+2, -1551217.6, -1585838.5, 0.00000000011997917, -0.00000000000000005497123, 0.06410298, -1551217.6, -32233.871, 0.0, 10.0, 9.999541 
2.15e+2, 1.5500194e+2, -1453229.8, -1487868.4, 0.00000000016920247, 0.0000000000000007128129, 0.07429765, -1453229.8, -32241.465, 0.0, 10.0, 9.999541 
2.15e+2, 1.6500156e+2, -1348002.9, -1374878.3, 0.00000000019524055, 0.0000000000000006264776, 0.077027395, -1348002.9, -25010.77, 0.0, 10.0, 9.999643 
2.15e+2, 1.7500116e+2, -1250012.4, -1276901.8, 0.0000000002333131, -0.00000000000000031603675, 0.07221167, -1250012.4, -25016.963, 0.0, 10.0, 9.999643 
2.15e+2, 1.8500075e+2, -1148206.4, -1171007.4, -0.000000000089947216, -0.0000000000000006065591, 0.064932436, -1148206.4, -21207.867, 0.0, 10.0, 9.999698 
2.15e+2, 1.9500035e+2, -1050217.8, -1073034.1, -0.0000000001704985, -0.00000000000000024453868, 0.05510195, -1050217.8, -21216.19, 0.0, 10.0, 9.999698 
2.15e+2, 2.05e+2, -937596.1, -944690.2, -0.0000000000070866624, -0.000000000000000064624736, 0.03908175, -937596.1, -6592.257, 0.0, 10.0, 9.999906 
2.15e+2, 2.1499968e+2, -839606.56, -846712.8, -0.00000000017018699, -0.00000000000000006649824, 0.016793974, -839606.56, -6601.0806, 0.0, 10.0,