coord_x,coord_y,stress_xx,stress_yy,tau_xy,velocity_x,velocity_y,stress_1,eps,damage,lx,ly
2.5069964e+0, 1.2152299e+2, -1709674.3, -1744051.3, 136.37505, -0.0000055911914, -0.015993953, -1709673.8, 39410.082, 0.0, 5.0139875, 4.9915895 
2.5069946e+0, 1.2651406e+2, -1669344.5, -1712807.8, 104.25552, -0.00014754808, 0.033128627, -1669344.3, 30821.71, 0.0, 5.014016, 4.985752 
2.507041e+0, 1.3149793e+2, -1620277.6, -1663772.6, 55.420162, 0.0002133444, 0.013721459, -1620277.6, 31047.129, 0.0, 5.014038, 4.985752 
2.507087e+0, 1.364818e+2, -1573420.3, -1619276.6, 6.613703, 0.00056315, -0.004436608, -1573420.3, 29063.412, 0.0, 5.01406, 4.984248 
2.5070977e+0, 1.4146367e+2, -1530728.5, -1583362.5, -30.23201, 0.0005657655, -0.0011987097, -1530728.4, 22933.45, 0.0, 5.01408, 4.9798193 
2.5070444e+0, 1.4644417e+2, -1481290.8, -1533550.8, -50.72284, -0.0000008517764, 0.0008074714, -1481290.6, 23561.889, 0.0, 5.0140867, 4.9800625 
2.5069898e+0, 1.5142466e+2, -1432215.8, -1484484.4, -69.46932, -0.00057666673, 0.0023385554, -1432215.6, 23827.744, 0.0, 5.014092, 4.9800625 
2.506935e+0, 1.5640515e+2, -1384569.6, -1438395.5, -88.28534, -0.0011552633, 0.004321751, -1384569.5, 22664.717, 0.0, 5.0140977, 4.9790673 
2.5068963e+0, 1.6138168e+2, -1343892.1, -1406889.3, -103.39744, -0.0015671924, 0.0102922255, -1343892.0, 14572.138, 0.0, 5.0141015, 4.9731936 
2.5068888e+0, 1.6635484e+2, -1294712.5, -1357616.6, -109.749466, -0.0016037412, 0.0067888377, -1294712.3, 15015.168, 0.0, 5.014095, 4.973246 
2.5068825e+0, 1.7132798e+2, -1245609.0, -1308501.8, -114.083626, -0.0016313911, 0.003219984, -1245608.9, 15381.83, 0.0, 5.014087, 4.973246 
2.5068757e+0, 1.7630114e+2, -1197641.8, -1261791.1, -118.136314, -0.0016640819, 0.00004296963, -1197641.5, 14612.351, 0.0, 5.0140796, 4.972439 
2.506862e+0, 1.8127087e+2, -1157264.8, -1231033.8, -145.75214, -0.0015922195, 0.006360108, -1157264.5, 6286.1377, 0.0, 5.014037, 4.9662547 
2.5068375e+0, 1.8623772e+2, -1108088.6, -1181219.6, -143.23102, -0.0011534296, 0.0072714123, -1108088.4, 6787.6494, 0.0, 5.0139003, 4.966527 
2.5068134e+0, 1.912046e+2, -1059304.9, -1132220.5, -128.84756, -0.00069542346, 0.007966945, -1059304.6, 6896.521, 0.0, 5.013759, 4.9665275 
2.5067887e+0, 1.9617146e+2, -1011410.0, -1085135.3, -114.273766, -0.0002442311, 0.00898545, -1011409.9, 6116.318, 0.0, 5.013618, 4.9658766 
2.5067633e+0, 2.0113456e+2, -971645.2, -1055715.3, -72.29965, 0.00006455985, 0.01591737, -971645.1, -2757.0828, 0.0, 5.0135045, 4.9591823 
2.5067294e+0, 2.0609368e+2, -922183.9, -1005742.06, -65.2455, 0.000025780588, 0.010173191, -922183.8, -1895.4543, 0.0, 5.013445, 4.9594464 
2.5066942e+0, 2.110528e+2, -873079.8, -956550.75, -66.54032, -0.00004051479, 0.0038009796, -873079.75, -1390.9945, 0.0, 5.013387, 4.9594464 
2.5066584e+0, 2.1601193e+2, -824640.25, -908813.44, -67.34491, -0.00011661391, -0.0024421858, -824640.2, -1551.0055, 0.0, 5.0133295, 4.958947 
2.5066108e+0, 2.2096775e+2, -784442.25, -879017.3, -114.17498, -0.0001936542, 0.0013872957, -784442.06, -9921.502, 0.0, 5.0132484, 4.952281 
2.506552e+0, 2.2592045e+2, -734786.75, -828346.9, -220.97173, -0.00014583758, -0.0025140126, -734786.25, -8806.676, 0.0, 5.0131173, 4.9527907 
2.5064942e+0, 2.3087315e+2, -685812.1, -779176.3, -329.17474, -0.000099118144, -0.007090839, -685811.0, -8372.742, 0.0, 5.012986, 4.952791 
2.506436e+0, 2.3582584e+2, -637484.5, -731449.4, -436.19888, -0.00007383032, -0.011639433, -637482.5, -8585.52, 0.0, 5.0128546, 4.9522896 
2.5063205e+0, 2.4077486e+2, -599605.5, -706617.25, -552.62933, -0.00023831677, -0.0025475626, -599602.7, -19208.256, 0.0, 5.0126457, 4.9438653 
2.50612e+0, 2.4571949e+2, -550559.06, -656692.25, -528.1088, -0.00088632805, -0.0012505216, -550556.44, -18612.826, 0.0, 5.012361, 4.9441466 
2.505923e+0, 2.50664e+2, -501837.38, -607589.25, -516.8515, -0.0015913986, -0.0023794484, -501834.84, -18339.744, 0.0, 5.0120893, 4.944146 
2.5057238e+0, 2.556085e+2, -453354.28, -559046.4, -507.5491, -0.002329852, -0.003462658, -453351.84, -18305.285, 0.0, 5.011815, 4.9439473 
2.5054878e+0, 2.6055023e+2, -410460.25, -522356.9, -901.1012, -0.002717198, 0.0059723663, -410452.97, -23831.63, 0.0, 5.01137, 4.939541 
2.5050396e+0, 2.6549315e+2, -359548.66, -463640.3, -1864.9471, -0.0019190405, -0.013209602, -359515.25, -21344.553, 0.0, 5.010119, 4.943071 
2.504549e+0, 2.7043656e+2, -313470.9, -415659.72, -2698.7002, -0.0015594168, -0.035978537, -313399.7, -23685.588, 0.0, 5.0087857, 4.9430995 
2.5040376e+0, 2.7537996e+2, -267363.13, -367789.16, -3467.004, -0.0017638858, -0.059104722, -267243.6, -25986.166, 0.0, 5.00745, 4.9430804 
2.5039184e+0, 2.8032273e+2, -251254.81, -399720.72, -1601.0577, -0.008019434, 0.06737989, -251237.56, -58425.51, 0.0, 5.00825, 4.914318 
2.504401e+0, 2.8525147e+2, -184593.69, -317157.44, -2271.8867, -0.0082597, 0.12956676, -184554.75, -40027.027, 0.0, 5.0095778, 4.9249682 
2.5047764e+0, 2.9017392e+2, -135147.5, -267561.9, -2927.1753, -0.0032523144, 0.07363392, -135082.81, -38774.46, 0.0, 5.0095305, 4.9249687 
2.5051323e+0, 2.9509628e+2, -85557.04, -217930.08, -3581.439, 0.00097588514, 0.017099002, -85460.21, -37370.78, 0.0, 5.0094724, 4.9249687 
2.505774e+0, 3.000316e+2, -21370.69, -102733.63, -3435.8005, 0.005443613, -0.028457342, -21225.86, -21225.86, 0.0, 5.0097194, 4.957245 
2.507549e+0, 3.0501103e+2, 5353.957, -40512.47, -6694.5015, 0.019598441, -0.09115063, 6311.0894, 6311.0894, 0.0, 5.009528, 4.977995 
2.509324e+0, 3.1000036e+2, 5180.039, -40323.1, -10584.918, 0.033348948, -0.15943444, 7521.783, 7521.783, 0.0, 5.00898, 4.9781966 
2.511001e+0, 3.1499e+2, 5342.3613, -40156.93, -13960.553, 0.04435913, -0.22709815, 9284.352, 9284.352, 0.0, 5.008431, 4.9784007 
7.52098e+0, 1.215243e+2, -1709514.1, -1743722.0, 151.79875, -0.00011880108, -0.0046952614, -1709513.5, 39557.75, 0.0, 5.013987, 4.991698 
7.520982e+0, 1.2651308e+2, -1669437.4, -1712993.5, 119.642815, -0.00046366628, 0.022070477, -1669437.0, 30738.658, 0.0, 5.0140157, 4.985691 
7.521122e+0, 1.3149756e+2, -1620367.9, -1663957.0, 71.39273, 0.0006199372, 0.009328554, -1620367.8, 30960.936, 0.0, 5.014038, 4.985691 
7.5212604e+0, 1.3648203e+2, -1573509.3, -1619460.4, 23.194742, 0.00167028, -0.0021690393, -1573509.3, 28972.621, 0.0, 5.0140605, 4.984187 
7.521293e+0, 1.4146422e+2, -1530757.9, -1583420.6, -23.852783, 0.0016943411, 0.004828472, -1530757.9, 22898.951, 0.0, 5.0140796, 4.9798 
7.5211334e+0, 1.464445e+2, -1481324.3, -1533616.6, -48.085606, -0.000002925495, 0.0048307637, -1481324.3, 23525.371, 0.0, 5.014086, 4.9800415 
7.5209695e+0, 1.5142477e+2, -1432249.4, -1484550.3, -65.784195, -0.0017318623, 0.004204662, -1432249.3, 23793.326, 0.0, 5.0140915, 4.9800415 
7.5208056e+0, 1.5640502e+2, -1384603.8, -1438461.5, -83.56588, -0.0034691442, 0.004032743, -1384603.6, 22632.047, 0.0, 5.0140967, 4.9790463 
7.520689e+0, 1.6138138e+2, -1343898.6, -1406899.0, -105.032394, -0.0047016162, 0.008580651, -1343898.4, 14568.634, 0.0, 5.0141006, 4.9731913 
7.520667e+0, 1.6635455e+2, -1294720.9, -1357631.1, -115.31536, -0.0048152003, 0.005528343, -1294720.6, 15009.46, 0.0, 5.014094, 4.973242 
7.5206465e+0, 1.7132775e+2, -1245617.5, -1308515.5, -118.85493, -0.004903446, 0.0025062442, -1245617.3, 15375.672, 0.0, 5.0140862, 4.973242 
7.520627e+0, 1.7630096e+2, -1197650.9, -1261804.5, -122.26656, -0.005006815, -0.00012221269, -1197650.6, 14605.103, 0.0, 5.0140786, 4.972435 
7.520586e+0, 1.8127073e+2, -1157224.6, -1230941.4, -226.29594, -0.004778821, 0.006333373, -1157223.9, 6328.3125, 0.0, 5.0140357, 4.9662867 
7.520513e+0, 1.8623756e+2, -1108063.5, -1181158.3, -250.37679, -0.0034646296, 0.006956333, -1108062.6, 6814.9375, 0.0, 5.013899, 4.966549 
7.5204396e+0, 1.9120444e+2, -1059280.8, -1132159.3, -234.60846, -0.002098051, 0.007404185, -1059280.0, 6922.711, 0.0, 5.013757, 4.9665494 
7.5203645e+0, 1.9617131e+2, -1011387.8, -1085074.4, -218.73705, -0.00075191364, 0.008179561, -1011387.1, 6140.602, 0.0, 5.013615, 4.965899 
7.5202906e+0, 2.0113441e+2, -971629.44, -1055667.6, -127.52543, 0.00019288962, 0.015024981, -971629.25, -2739.8184, 0.0, 5.0135016, 4.9592 
7.5201887e+0, 2.0609361e+2, -922186.56, -1005736.1, -107.21736, 0.000072710725, 0.009879501, -922186.44, -1897.3971, 0.0, 5.0134425, 4.95945 
7.520081e+0, 2.1105279e+2, -873082.0, -956543.25, -106.80695, -0.00013901434, 0.004178567, -873081.9, -1393.0723, 0.0, 5.013385, 4.9594507 
7.519973e+0, 2.1601197e+2, -824643.1, -908805.0, -106.20909, -0.00038015057, -0.0013906802, -824643.0, -1554.5238, 0.0, 5.013327, 4.9589515 
7.5198334e+0, 2.2096781e+2, -784539.5, -879224.8, -199.11642, -0.0005933384, 0.0026424201, -784539.06, -10019.14, 0.0, 5.0132465, 4.952211 
7.519657e+0, 2.2592041e+2, -734960.8, -828722.1, -311.25446, -0.00046004087, -0.0008995768, -734959.75, -8979.423, 0.0, 5.013115, 4.9526634 
7.5194824e+0, 2.3087302e+2, -685989.6, -779549.2, -417.0294, -0.00034325983, -0.004917477, -685987.75, -8547.341, 0.0, 5.012982, 4.952665 
7.519306e+0, 2.3582564e+2, -637667.75, -731821.06, -521.99097, -0.00029077497, -0.00890783, -637664.8, -8764.349, 0.0, 5.012848, 4.9521646 
7.518967e+0, 2.4077454e+2, -599558.3, -706490.44, -779.3677, -0.0007643569, -0.00043064822, -599552.6, -19153.293, 0.0, 5.0126405, 4.9439106 
7.518366e+0, 2.4571912e+2, -550545.25, -656614.9, -760.002, -0.002693609, -0.00003796448, -550539.8, -18591.227, 0.0, 5.0123506, 4.944178 
7.517769e+0, 2.5066358e+2, -501853.75, -607529.4, -743.71686, -0.004811477, -0.001548635, -501848.5, -18348.834, 0.0, 5.0120683, 4.944176 
7.517166e+0, 2.5560805e+2, -453407.06, -559006.75, -730.10754, -0.0070294915, -0.0029195475, -453402.0, -18351.37, 0.0, 5.0117807, 4.943976 
7.516445e+0, 2.6054972e+2, -411288.22, -523963.22, -1392.9789, -0.00826028, 0.0067151915, -411271.0, -24645.08, 0.0, 5.011316, 4.939022 
7.51505e+0, 2.654918e+2, -360992.2, -466338.6, -2454.8054, -0.0065138657, -0.008785758, -360935.03, -22752.396, 0.0, 5.0100174, 4.9422154 
7.513524e+0, 2.7043432e+2, -315026.13, -418222.16, -3278.6426, -0.0061515667, -0.028009824, -314922.06, -25188.084, 0.0, 5.0086184, 4.9422994 
7.5119364e+0, 2.7537686e+2, -269075.88, -370235.97, -4064.188, -0.0074816886, -0.048305616, -268912.88, -27627.785, 0.0, 5.0072, 4.9423366 
7.5115806e+0, 2.8031754e+2, -250457.88, -394392.25, 14.181447, -0.023710828, 0.05129969, -250457.88, -57598.344, 0.0, 5.0076876, 4.916394 
7.5131214e+0, 2.852453e+2, -187405.27, -319388.47, -2255.582, -0.022089295, 0.1023176, -187366.73, -42783.25, 0.0, 5.0089583, 4.924471 
7.5143117e+0, 2.90168e+2, -137544.45, -269596.03, -2665.1758, -0.0072120214, 0.05999773, -137490.69, -41130.406, 0.0, 5.0090413, 4.9244704 
7.515443e+0, 2.950906e+2, -87668.25, -219825.75, -3122.222, 0.0053279353, 0.015871756, -87594.53, -39456.12, 0.0, 5.009068, 4.9244704 
7.517307e+0, 3.0002773e+2, -22371.209, -101423.42, -2332.1199, 0.018548405, -0.012455593, -22302.469, -22302.469, 0.0, 5.0092154, 4.957962 
7.522028e+0, 3.0500323e+2, -1827.8142, -50799.285, -5273.506, 0.056859717, -0.06677029, -1266.372, -1266.372, 0.0, 5.008604, 4.9749575 
7.526699e+0, 3.0998617e+2, -2974.5278, -49814.723, -8967.1455, 0.092918955, -0.13234738, -1316.5338, -1316.5338, 0.0, 5.0075927, 4.975544 
7.5310737e+0, 3.1497008e+2, -4004.6936, -48946.836, -12245.856, 0.120759845, -0.19606683, -884.5547, -884.5547, 0.0, 5.006499, 4.9761343 
1.2534954e+1, 1.2152557e+2, -1709292.8, -1743274.4, 166.8011, -0.00036786572, 0.006363194, -1709292.0, 39766.94, 0.0, 5.013988, 4.991844 
1.2534967e+1, 1.265121e+2, -1669528.9, -1713177.9, 133.87709, -0.0008078123, 0.011062606, -1669528.4, 30656.938, 0.0, 5.0140157, 4.98563 
1.2535201e+1, 1.3149719e+2, -1620458.0, -1664140.5, 87.27936, 0.0009997363, 0.0049654306, -1620457.8, 30874.78, 0.0, 5.0140386, 4.98563 
1.2535433e+1, 1.3648225e+2, -1573598.1, -1619643.1, 40.728313, 0.0027518505, 0.00010780842, -1573598.1, 28881.975, 0.0, 5.014061, 4.984126 
1.2535489e+1, 1.4146478e+2, -1530790.8, -1583487.9, -17.0632, 0.0028189754, 0.010883418, -1530790.8, 22861.066, 0.0, 5.0140796, 4.9797783 
1.2535222e+1, 1.4644484e+2, -1481356.3, -1533681.5, -44.068928, -0.0000054936168, 0.008875814, -1481356.1, 23490.486, 0.0, 5.014086, 4.9800205 
1.2534948e+1, 1.5142487e+2, -1432281.0, -1484614.9, -60.98009, -0.0028895414, 0.0060762796, -1432280.9, 23760.994, 0.0, 5.0140915, 4.9800205 
1.2534675e+1, 1.5640487e+2, -1384635.1, -1438526.0, -77.974915, -0.005787498, 0.003732999, -1384635.0, 22602.252, 0.0, 5.0140967, 4.9790254 
1.2534481e+1, 1.6138107e+2, -1343906.1, -1406916.3, -105.67655, -0.007836093, 0.0068898094, -1343905.9, 14564.074, 0.0, 5.014101, 4.9731855 
1.2534446e+1, 1.663543e+2, -1294726.4, -1357643.8, -120.57334, -0.0080319615, 0.004287428, -1294726.1, 15006.533, 0.0, 5.0140944, 4.9732375 
1.253441e+1, 1.7132755e+2, -1245623.0, -1308527.5, -123.19693, -0.008187865, 0.0017965039, -1245622.8, 15372.387, 0.0, 5.0140867, 4.973238 
1.2534375e+1, 1.763008e+2, -1197656.4, -1261815.9, -125.69118, -0.008368973, -0.0002989765, -1197656.1, 14601.451, 0.0, 5.0140786, 4.9724307 
1.253431e+1, 1.812706e+2, -1157186.1, -1230859.8, -305.83014, -0.007968305, 0.006342126, -1157184.9, 6368.913, 0.0, 5.0140357, 4.9663143 
1.2534188e+1, 1.8623742e+2, -1108033.8, -1181094.3, -356.62872, -0.005781616, 0.006675692, -1108032.0, 6847.106, 0.0, 5.0138993, 4.9665704 
1.2534064e+1, 1.9120428e+2, -1059251.1, -1132094.9, -339.52902, -0.0035163844, 0.0068521253, -1059249.5, 6954.703, 0.0, 5.013757, 4.966571 
1.2533939e+1, 1.9617115e+2, -1011358.3, -1085009.6, -322.31088, -0.0012852219, 0.0073606353, -1011356.9, 6172.406, 0.0, 5.013615, 4.965921 
1.2533818e+1, 2.0113428e+2, -971613.7, -1055633.8, -181.7566, 0.00032016687, 0.014175591, -971613.3, -2722.5212, 0.0, 5.0135016, 4.9592113 
1.2533648e+1, 2.0609353e+2, -922182.3, -1005726.1, -148.54782, 0.00011346637, 0.009627434, -922182.06, -1892.3273, 0.0, 5.013443, 4.959453 
1.2533468e+1, 2.1105278e+2, -873077.2, -956531.7, -146.0518, -0.0002608069, 0.004562468, -873076.94, -1388.1674, 0.0, 5.0133853, 4.959454 
1.2533285e+1, 2.1601203e+2, -824637.8, -908791.9, -143.36288, -0.0006840985, -0.00036817227, -824637.56, -1549.7997, 0.0, 5.013327, 4.9589553 
1.2533058e+1, 2.2096787e+2, -784638.06, -879451.9, -279.48047, -0.0010095239, 0.003966141, -784637.25, -10117.999, 0.0, 5.0132484, 4.9521317 
1.2532763e+1, 2.2592038e+2, -735122.2, -829089.6, -398.51468, -0.0008042805, 0.0007897413, -735120.5, -9139.474, 0.0, 5.013118, 4.952536 
1.253247e+1, 2.3087291e+2, -686149.5, -779912.06, -500.49594, -0.00064860756, -0.0027302029, -686146.8, -8704.328, 0.0, 5.0129843, 4.9525385 
1.2532172e+1, 2.3582542e+2, -637826.2, -732179.4, -601.6515, -0.0006000967, -0.006223288, -637822.3, -8918.354, 0.0, 5.01285, 4.952039 
1.253162e+1, 2.4077421e+2, -599503.2, -706396.06, -986.36975, -0.0013562735, 0.0018076663, -599494.06, -19089.887, 0.0, 5.0126476, 4.943937 
1.2530619e+1, 2.4571875e+2, -550487.3, -656506.25, -978.98157, -0.004547061, 0.0013374307, -550478.25, -18524.852, 0.0, 5.0123587, 4.944208 
1.2529616e+1, 2.506632e+2, -501804.03, -607428.4, -954.984, -0.008081265, -0.00064542773, -501795.38, -18291.242, 0.0, 5.012073, 4.9442053 
1.2528601e+1, 2.5560766e+2, -453365.47, -558913.25, -933.651, -0.011782375, -0.002394494, -453357.22, -18302.56, 0.0, 5.0117826, 4.944004 
1.2527378e+1, 2.6054916e+2, -412016.0, -525547.56, -1897.0503, -0.013948192, 0.007413046, -411984.3, -25353.813, 0.0, 5.0113144, 4.9384766 
1.2524971e+1, 2.654904e+2, -362217.75, -468897.25, -3055.6543, -0.012117555, -0.0050832783, -362130.28, -23935.477, 0.0, 5.0100055, 4.9413466 
1.2522337e+1, 2.7043203e+2, -316215.47, -420578.88, -3803.8403, -0.012707946, -0.021624453, -316077.0, -26322.668, 0.0, 5.0085936, 4.941487 
1.25196e+1, 2.753737e+2, -270229.84, -372391.56, -4513.5854, -0.016119175, -0.039951872, -270030.8, -28717.318, 0.0, 5.0071626, 4.94158 
1.251901e+1, 2.8031242e+2, -249215.36, -389743.25, 1540.5972, -0.038940642, 0.036169775, -249198.47, -56292.293, 0.0, 5.007469, 4.9180746 
1.2521732e+1, 2.8523934e+2, -189468.78, -321160.47, -1928.5961, -0.03233121, 0.07806943, -189440.55, -44803.063, 0.0, 5.008642, 4.923962 
1.2523822e+1, 2.9016224e+2, -139420.45, -271273.47, -2211.7952, -0.0077777747, 0.04796402, -139383.36, -42972.24, 0.0, 5.0087743, 4.923961 
1.2525815e+1, 2.950849e+2, -89357.7, -221409.61, -2542.4587, 0.012880713, 0.01484896, -89308.77, -41121.766, 0.0, 5.0088496, 4.9239597 
1.2528819e+1, 3.0002356e+2, -23520.695, -101225.875, -1494.0917, 0.03460607, 0.002398557, -23491.979, -23491.979, 0.0, 5.008924, 4.9581285 
1.2535684e+1, 3.0499467e+2, -8226.257, -60580.73, -4086.6033, 0.09154105, -0.0494084, -7909.1914, -7909.1914, 0.0, 5.0080214, 4.971843 
1.2542376e+1, 3.0997092e+2, -9783.367, -58557.836, -7334.0107, 0.14299524, -0.119992286, -8704.449, -8704.449, 0.0, 5.0067554, 4.9728136 
1.2548575e+1, 3.1494877e+2, -11222.793, -56652.453, -10164.055, 0.18075982, -0.18748707, -9052.457, -9052.457, 0.0, 5.005408, 4.9737873 
1.7548914e+1, 1.2152681e+2, -1709083.1, -1742744.1, 182.41278, -0.00074864615, 0.017188018, -1709082.1, 39964.703, 0.0, 5.013966, 4.9920287 
1.754895e+1, 1.2651113e+2, -1669648.3, -1713374.9, 147.13081, -0.0011782476, 0.00010545288, -1669647.8, 30547.332, 0.0, 5.0140066, 4.985569 
1.7549278e+1, 1.3149682e+2, -1620554.4, -1664326.1, 103.03008, 0.0013532456, 0.00063216925, -1620554.1, 30782.385, 0.0, 5.0140367, 4.985569 
1.7549604e+1, 1.3648248e+2, -1573691.1, -1619827.0, 58.824905, 0.0038081896, 0.0023936273, -1573691.0, 28787.186, 0.0, 5.0140605, 4.9840646 
1.7549685e+1, 1.4146535e+2, -1530839.9, -1583570.4, -10.346492, 0.0039404207, 0.016965529, -1530839.9, 22806.879, 0.0, 5.014076, 4.9797525 
1.754931e+1, 1.4644517e+2, -1481398.4, -1533751.1, -38.680595, -0.000007749141, 0.012941978, -1481398.4, 23445.332, 0.0, 5.0140824, 4.979999 
1.7548928e+1, 1.5142496e+2, -1432328.5, -1484687.0, -54.691936, -0.004048478, 0.007952677, -1432328.4, 23712.736, 0.0, 5.0140862, 4.979999 
1.7548543e+1, 1.5640472e+2, -1384695.3, -1438604.1, -70.89405, -0.008108286, 0.003421647, -1384695.1, 22543.537, 0.0, 5.014087, 4.979004 
1.7548276e+1, 1.6138078e+2, -1343951.8, -1406959.0, -104.61824, -0.010968214, 0.0052188262, -1343951.6, 14521.311, 0.0, 5.01409, 4.9731765 
1.7548223e+1, 1.6635403e+2, -1294747.1, -1357663.5, -125.64726, -0.011252427, 0.0030656136, -1294746.9, 14988.393, 0.0, 5.0140896, 4.9732327 
1.7548174e+1, 1.7132734e+2, -1245638.3, -1308543.9, -128.82217, -0.011483036, 0.0010906263, -1245637.9, 15359.401, 0.0, 5.014084, 4.973233 
1.7548124e+1, 1.7630063e+2, -1197680.3, -1261835.6, -132.45444, -0.011748049, -0.00048717772, -1197680.0, 14579.402, 0.0, 5.014073, 4.9724264 
1.7548037e+1, 1.8127047e+2, -1157179.4, -1230803.4, -390.95206, -0.011157261, 0.0063865897, -1157177.4, 6377.9214, 0.0, 5.0140276, 4.9663367 
1.7547865e+1, 1.8623729e+2, -1108015.5, -1181035.3, -470.44907, -0.0081012845, 0.006429286, -1108012.4, 6868.1826, 0.0, 5.0138955, 4.966592 
1.754769e+1, 1.9120413e+2, -1059236.3, -1132037.0, -454.12927, -0.0049467497, 0.0063098543, -1059233.4, 6972.4077, 0.0, 5.0137525, 4.9665923 
1.7547512e+1, 1.9617099e+2, -1011365.5, -1084961.8, -437.8135, -0.0018389487, 0.0065267845, -1011362.9, 6167.9453, 0.0, 5.013603, 4.9659424 
1.7547348e+1, 2.0113415e+2, -971657.56, -1055641.8, -249.61906, 0.00045252885, 0.013366676, -971656.9, -2764.7827, 0.0, 5.0134845, 4.9592166 
1.7547108e+1, 2.0609346e+2, -922195.5, -1005723.44, -204.95377, 0.00015228892, 0.009415279, -922195.0, -1904.6508, 0.0, 5.0134377, 4.959456 
1.7546853e+1, 2.1105276e+2, -873078.06, -956522.0, -201.90277, -0.00040212914, 0.0049516535, -873077.56, -1388.8466, 0.0, 5.013384, 4.9594574 
1.7546597e+1, 2.1601208e+2, -824651.9, -908787.1, -199.15497, -0.0010235587, 0.00062478473, -824651.44, -1564.3954, 0.0, 5.013321, 4.958959 
1.7546286e+1, 2.2096795e+2, -784785.0, -879720.56, -378.91684, -0.0014356021, 0.005357745, -784783.5, -10265.031, 0.0, 5.0132384, 4.9520435 
1.7545873e+1, 2.2592035e+2, -735310.9, -829468.0, -508.37173, -0.001171195, 0.0025511237, -735308.1, -9326.477, 0.0, 5.0131116, 4.952408 
1.7545456e+1, 2.3087278e+2, -686371.4, -780301.8, -605.75165, -0.0010045755, -0.0005351937, -686367.5, -8922.94, 0.0, 5.0129657, 4.952411 
1.7545034e+1, 2.3582523e+2, -638129.06, -732602.44, -700.65857, -0.0009853366, -0.003596499, -638123.9, -9216.465, 0.0, 5.0128016, 4.9519124 
1.7544283e+1, 2.4077393e+2, -599730.56, -706468.75, -1204.718, -0.001990559, 0.0041532344, -599717.0, -19308.076, 0.0, 5.012566, 4.943944 
1.7542881e+1, 2.457184e+2, -550809.56, -656562.8, -1254.3148, -0.006417379, 0.0028679024, -550794.7, -18836.574, 0.0, 5.012235, 4.9442368 
1.7541464e+1, 2.506628e+2, -502339.03, -607585.75, -1272.4796, -0.011361257, 0.00033437542, -502323.66, -18815.17, 0.0, 5.0118737, 4.9442325 
1.7540033e+1, 2.5560725e+2, -454202.5, -559211.2, -1304.636, -0.016534079, -0.0018664299, -454186.3, -19127.729, 0.0, 5.0114756, 4.94403 
1.753829e+1, 2.6054862e+2, -414239.84, -527835.6, -2657.0918, -0.01969767, 0.008094691, -414177.72, -27542.568, 0.0, 5.010796, 4.937905 
1.7534803e+1, 2.65489e+2, -366775.66, -472915.25, -3800.0984, -0.018560741, -0.0021451022, -366639.75, -28432.453, 0.0, 5.00881, 4.9404674 
1.7530991e+1, 2.704297e+2, -323534.6, -425641.2, -4120.4707, -0.02093355, -0.01699172, -323368.6, -33593.24, 0.0, 5.006377, 4.940665 
1.7527033e+1, 2.7537042e+2, -281165.0, -378870.53, -4212.0894, -0.027221425, -0.034386218, -280983.75, -39640.87, 0.0, 5.003613, 4.940814 
1.7526212e+1, 2.8030738e+2, -261256.53, -391922.1, 4008.6494, -0.05311586, 0.021490006, -261133.66, -68181.375, 0.0, 5.0026684, 4.9193625 
1.7530243e+1, 2.8523353e+2, -200639.16, -326861.9, -480.55917, -0.038530543, 0.056522653, -200637.31, -55947.44, 0.0, 5.005079, 4.9234385 
1.753332e+1, 2.9015654e+2, -147161.63, -275423.16, -1011.17584, -0.00461585, 0.037418984, -147153.66, -50692.74, 0.0, 5.0064225, 4.923436 
1.753626e+1, 2.9507926e+2, -95177.18, -224687.11, -1548.3866, 0.02391959, 0.014035398, -95158.67, -46923.523, 0.0, 5.007171, 4.9234343 
1.7540327e+1, 3.0001906e+2, -29831.598, -104287.84, -658.11774, 0.053959873, 0.01610253, -29825.781, -29825.781, 0.0, 5.007005, 4.957752 
1.7548543e+1, 3.049853e+2, -26420.129, -75214.6, -801.14215, 0.12441615, -0.039449908, -26406.979, -26406.979, 0.0, 5.003136, 4.9686794 
1.7556404e+1, 3.0995464e+2, -40521.83, -77377.92, 419.2966, 0.1850156, -0.12316013, -40517.06, -40517.06, 0.0, 4.997151, 4.9700403 
1.756358e+1, 3.149262e+2, -58759.723, -81507.93, 3602.0132, 0.22661918, -0.20250212, -58202.996, -58202.996, 0.0, 4.989542, 4.9713993 
2.2562988e+1, 1.2152734e+2, -1708642.9, -1742536.3, 81.30014, -0.00039661868, 0.021761786, -1708642.8, 40398.535, 0.0, 5.0141153, 4.9920225 
2.2563042e+1, 1.2651077e+2, -1669257.4, -1713240.8, 57.634136, -0.001040179, -0.003958882, -1669257.4, 30940.926, 0.0, 5.0141497, 4.9855413 
2.2563362e+1, 1.3149664e+2, -1620154.1, -1664189.5, 59.89899, 0.0010588072, -0.001220036, -1620154.0, 31183.846, 0.0, 5.0141835, 4.985541 
2.2563681e+1, 1.364825e+2, -1573262.0, -1619678.1, 61.928143, 0.0031579544, 0.0027483953, -1573261.9, 29215.861, 0.0, 5.0142174, 4.9840364 
2.2563761e+1, 1.4146547e+2, -1530374.3, -1583374.5, 11.893706, 0.0031307032, 0.018541737, -1530374.3, 23271.143, 0.0, 5.0142384, 4.979738 
2.2563396e+1, 1.464452e+2, -1480986.8, -1533582.1, -9.4284115, -0.000701226, 0.01371675, -1480986.8, 23856.451, 0.0, 5.0142274, 4.979985 
2.2563024e+1, 1.5142488e+2, -1431967.1, -1484543.5, -16.163864, -0.004591409, 0.007860262, -1431967.1, 24074.434, 0.0, 5.0142145, 4.979985 
2.2562651e+1, 1.5640454e+2, -1384376.6, -1438482.3, -23.06784, -0.008472966, 0.0024572094, -1384376.6, 22863.494, 0.0, 5.0142016, 4.9789896 
2.2562379e+1, 1.6138056e+2, -1343755.0, -1406917.9, -73.65557, -0.01122801, 0.0038743832, -1343754.9, 14719.966, 0.0, 5.0141687, 4.973152 
2.256228e+1, 1.6635385e+2, -1294787.6, -1357745.1, -136.19536, -0.011594991, 0.0023966315, -1294787.4, 14949.623, 0.0, 5.01409, 4.9732056 
2.2562188e+1, 1.7132717e+2, -1245899.1, -1308734.1, -175.23471, -0.01184984, 0.0011255066, -1245898.6, 15100.128, 0.0, 5.0140095, 4.973205 
2.2562096e+1, 1.7630053e+2, -1198146.1, -1262126.1, -214.38493, -0.012071455, 0.00024433513, -1198145.4, 14115.169, 0.0, 5.0139284, 4.972398 
2.2561952e+1, 1.8127038e+2, -1157616.4, -1231050.8, -507.56885, -0.011562818, 0.0074311644, -1157612.9, 5943.697, 0.0, 5.013887, 4.96632 
2.256168e+1, 1.8623713e+2, -1107922.1, -1181036.3, -648.64734, -0.009150371, 0.0069423956, -1107916.4, 6966.2324, 0.0, 5.0139384, 4.966572 
2.2561398e+1, 1.9120389e+2, -1058568.3, -1131766.5, -696.041, -0.006611757, 0.006235485, -1058561.6, 7646.941, 0.0, 5.0139933, 4.9665723 
2.2561117e+1, 1.9617067e+2, -1010107.8, -1084414.4, -743.7979, -0.0040511684, 0.0058393483, -1010100.4, 7434.076, 0.0, 5.014048, 4.965922 
2.256089e+1, 2.0113377e+2, -969965.2, -1054853.0, -589.9099, -0.0018936795, 0.012441173, -969961.06, -1065.0157, 0.0, 5.014075, 4.95921 
2.25607e+1, 2.0609316e+2, -920454.5, -1004911.56, -553.4357, -0.0014109451, 0.009240123, -920450.9, -157.22235, 0.0, 5.014046, 4.959451 
2.25605e+1, 2.1105254e+2, -871274.25, -955689.0, -564.3249, -0.0010198482, 0.00555084, -871270.5, 420.82465, 0.0, 5.014016, 4.959451 
2.2560303e+1, 2.1601191e+2, -822759.94, -907921.44, -575.8005, -0.00057126035, 0.0019765454, -822756.06, 332.9081, 0.0, 5.013986, 4.958952 
2.2560024e+1, 2.2096778e+2, -782845.4, -879046.1, -779.7982, -0.00010525406, 0.007135808, -782839.06, -8318.585, 0.0, 5.01396, 4.951947 
2.2559515e+1, 2.2592007e+2, -733236.4, -828810.6, -931.2159, 0.00008201437, 0.0041102557, -733227.3, -7241.702, 0.0, 5.013899, 4.952279 
2.2558995e+1, 2.3087233e+2, -684089.44, -779548.7, -1038.3197, 0.00028546006, 0.0006953169, -684078.2, -6627.574, 0.0, 5.0138297, 4.952284 
2.2558472e+1, 2.358246e+2, -635592.7, -731732.8, -1145.5052, 0.00054316013, -0.002802896, -635579.06, -6663.4272, 0.0, 5.01376, 4.9517865 
2.2557615e+1, 2.4077313e+2, -596597.56, -705051.25, -1696.5114, 0.000053419146, 0.0039581712, -596571.06, -16152.209, 0.0, 5.0136766, 4.943939 
2.2556017e+1, 2.4571761e+2, -547222.94, -655008.3, -1776.2083, -0.0035965475, 0.002892854, -547193.7, -15226.999, 0.0, 5.0135245, 4.9442115 
2.255439e+1, 2.506621e+2, -498257.84, -605871.1, -1770.293, -0.007417803, 0.0014124676, -498228.72, -14713.743, 0.0, 5.013362, 4.944191 
2.2552754e+1, 2.5560665e+2, -449538.47, -557298.5, -1766.3792, -0.011091468, 0.00072671956, -449509.53, -14446.839, 0.0, 5.0131984, 4.9439726 
2.2550718e+1, 2.605479e+2, -408542.56, -526724.7, -3407.4275, -0.012175798, 0.0117167635, -408444.4, -21805.217, 0.0, 5.0131364, 4.9373283 
2.2546509e+1, 2.6548693e+2, -355600.47, -469598.7, -5128.54, -0.007581531, -0.002993603, -355370.22, -17145.31, 0.0, 5.013207, 4.9397836 
2.2541884e+1, 2.70426e+2, -305326.7, -418752.94, -6017.888, -0.0039041939, -0.027484443, -305008.3, -15199.044, 0.0, 5.0132647, 4.9401584 
2.2537068e+1, 2.7536494e+2, -255048.58, -368122.1, -6856.685, -0.0014733254, -0.059309136, -254634.31, -13239.764, 0.0, 5.0133195, 4.940486 
2.2535744e+1, 2.8029943e+2, -230718.31, -372646.38, 1726.8973, -0.013332507, -0.040769376, -230697.3, -37669.336, 0.0, 5.0132256, 4.921605 
2.2540726e+1, 2.8522643e+2, -180551.11, -317435.84, -603.0234, -0.003200545, 0.0026581837, -180548.45, -35791.496, 0.0, 5.013381, 4.9231515 
2.2544867e+1, 2.9015118e+2, -129646.33, -267180.88, -917.2018, 0.023701414, 0.012737374, -129640.21, -33129.54, 0.0, 5.0137568, 4.9230967 
2.2548886e+1, 2.9507506e+2, -78680.15, -217000.7, -1178.6952, 0.050892696, 0.011967371, -78670.11, -30397.227, 0.0, 5.014129, 4.923042 
2.2553957e+1, 3.0001667e+2, -10783.867, -92619.79, -1316.0889, 0.089714274, 0.031936917, -10762.707, -10762.707, 0.0, 5.014401, 4.9586616 
2.256299e+1, 3.0498087e+2, 1781.1246, -60296.137, -4729.0566, 0.19755156, -0.03223094, 2139.318, 2139.318, 0.0, 5.014461, 4.969298 
2.2571816e+1, 3.0994874e+2, 5373.647, -50568.43, -8127.8003, 0.31457257, -0.12767474, 6530.6045, 6530.6045, 0.0, 5.014551, 4.9723787 
2.2580087e+1, 3.149216e+2, 9441.764, -41324.566, -11401.475, 0.42971277, -0.21350951, 11884.821, 11884.821, 0.0, 5.014636, 4.9754653 
2.7577156e+1, 1.21527165e+2, -1708931.3, -1743114.6, 94.35792, 0.0000105684585, 0.02019907, -1708931.0, 40110.89, 0.0, 5.0141144, 4.9918323 
2.7577227e+1, 1.26511e+2, -1669254.5, -1713228.3, 80.64076, -0.00071099063, -0.0013626706, -1669254.3, 30941.02, 0.0, 5.014149, 4.985545 
2.7577448e+1, 1.3149667e+2, -1620151.3, -1664177.4, 84.37016, 0.000053403837, -0.0006627996, -1620151.1, 31185.783, 0.0, 5.014183, 4.9855447 
2.7577665e+1, 1.3648233e+2, -1573259.3, -1619666.5, 87.855965, 0.00079109037, 0.0012678582, -1573259.0, 29219.643, 0.0, 5.014217, 4.98404 
2.757772e+1, 1.4146517e+2, -1530378.6, -1583381.8, 8.884717, 0.00028245916, 0.015805699, -1530378.6, 23268.844, 0.0, 5.0142384, 4.979736 
2.7577475e+1, 1.4644495e+2, -1480996.6, -1533602.1, -19.85363, -0.0022309467, 0.011380225, -1480996.6, 23848.367, 0.0, 5.0142274, 4.9799786 
2.7577227e+1, 1.5142466e+2, -1431976.9, -1484564.0, -25.829365, -0.0047646877, 0.0059762914, -1431976.9, 24066.146, 0.0, 5.0142145, 4.9799786 
2.7576977e+1, 1.5640436e+2, -1384386.1, -1438503.1, -31.971867, -0.007302676, 0.0010252505, -1384386.1, 22855.004, 0.0, 5.0142016, 4.978983 
2.7576765e+1, 1.613804e+2, -1343808.8, -1407031.6, -124.97665, -0.009123256, 0.0030124418, -1343808.5, 14667.105, 0.0, 5.014169, 4.973115 
2.7576596e+1, 1.6635373e+2, -1294855.6, -1357889.1, -198.7855, -0.009407413, 0.0023543742, -1294855.0, 14882.708, 0.0, 5.01409, 4.973158 
2.7576423e+1, 1.713271e+2, -1245966.9, -1308878.0, -236.72021, -0.00962981, 0.0019114356, -1245966.0, 15033.538, 0.0, 5.0140095, 4.9731574 
2.7576253e+1, 1.7630048e+2, -1198213.5, -1262270.0, -274.75543, -0.009841537, 0.0018586238, -1198212.4, 14048.876, 0.0, 5.0139284, 4.97235 
2.7576017e+1, 1.8127032e+2, -1157688.5, -1231200.3, -492.60364, -0.009878497, 0.009406914, -1157685.1, 5872.3745, 0.0, 5.0138865, 4.96627 
2.7575585e+1, 1.8623693e+2, -1108002.8, -1181204.1, -607.59393, -0.009535148, 0.00822265, -1107997.8, 6887.2246, 0.0, 5.0139375, 4.9665155 
2.757514e+1, 1.9120358e+2, -1058648.1, -1131934.3, -653.38934, -0.009181526, 0.006778597, -1058642.3, 7569.9785, 0.0, 5.013993, 4.9665155 
2.7574694e+1, 1.9617023e+2, -1010186.94, -1084582.1, -699.55383, -0.008834916, 0.005644516, -1010180.4, 7359.153, 0.0, 5.0140476, 4.965865 
2.7574384e+1, 2.0113325e+2, -969987.0, -1054899.9, -605.4425, -0.0078085493, 0.011867209, -969982.7, -1080.6705, 0.0, 5.014075, 4.959194 
2.7574363e+1, 2.060927e+2, -920466.3, -1004939.9, -579.62213, -0.005322466, 0.0094125625, -920462.3, -163.30022, 0.0, 5.014046, 4.959442 
2.757435e+1, 2.1105215e+2, -871286.2, -955719.2, -588.0453, -0.0027745252, 0.006548205, -871282.06, 413.9682, 0.0, 5.0140166, 4.9594417 
2.7574342e+1, 2.160116e+2, -822771.94, -907953.4, -597.0526, -0.0002080878, 0.003801053, -822767.75, 325.28174, 0.0, 5.0139866, 4.9589415 
2.7574188e+1, 2.2096747e+2, -782969.7, -879313.25, -808.7092, 0.0017243973, 0.009422211, -782962.94, -8438.267, 0.0, 5.0139594, 4.9518557 
2.7573583e+1, 2.2591957e+2, -733404.44, -829169.7, -980.2247, 0.0015746602, 0.0059354734, -733394.4, -7402.4517, 0.0, 5.0138974, 4.952156 
2.757295e+1, 2.3087168e+2, -684257.3, -779907.1, -1083.3466, 0.0012829832, 0.0020184657, -684245.0, -6785.8384, 0.0, 5.013828, 4.952161 
2.757231e+1, 2.3582377e+2, -635760.4, -732090.7, -1186.5428, 0.000996876, -0.0019823762, -635745.75, -6819.2534, 0.0, 5.0137577, 4.9516635 
2.7571398e+1, 2.4077214e+2, -596579.56, -704954.06, -1762.6761, 0.0004573721, 0.0038710353, -596550.9, -16119.767, 0.0, 5.013669, 4.943974 
2.7569795e+1, 2.4571669e+2, -547198.25, -654884.4, -1903.6571, -0.0014629788, 0.0029935788, -547164.56, -15188.107, 0.0, 5.0135155, 4.9442554 
2.7568153e+1, 2.5066125e+2, -498229.2, -605748.3, -1891.6587, -0.0034693873, 0.002061505, -498195.9, -14674.018, 0.0, 5.0133543, 4.9442344 
2.7566496e+1, 2.556059e+2, -449505.84, -557176.94, -1881.6553, -0.005388827, 0.0019077584, -449473.0, -14406.2705, 0.0, 5.0131927, 4.9440145 
2.7564356e+1, 2.6054704e+2, -409344.6, -528417.75, -3376.0876, -0.0064230277, 0.013229393, -409248.94, -22605.95, 0.0, 5.0131226, 4.9367485 
2.755975e+1, 2.65485e+2, -356918.34, -472218.4, -4933.259, -0.009206538, -0.0014356257, -356707.66, -18467.334, 0.0, 5.0131626, 4.9389086 
2.755469e+1, 2.7042288e+2, -306699.47, -421271.22, -5690.8784, -0.013850526, -0.025745057, -306417.5, -16580.625, 0.0, 5.0131893, 4.9393196 
2.754943e+1, 2.7536076e+2, -256476.27, -370539.28, -6397.8994, -0.019906197, -0.057180785, -256118.52, -14684.772, 0.0, 5.0132136, 4.939683 
2.7547532e+1, 2.802936e+2, -228551.13, -367587.78, -294.36502, -0.025809288, -0.058388002, -228550.52, -35466.273, 0.0, 5.013218, 4.9234033 
2.7552837e+1, 2.8522056e+2, -180094.3, -317009.03, -926.5333, -0.0078194775, -0.021856345, -180088.03, -35273.875, 0.0, 5.0134687, 4.9233646 
2.755758e+1, 2.901462e+2, -129201.945, -266648.8, -1094.9065, 0.016429532, -0.0005561108, -129193.22, -32633.813, 0.0, 5.013837, 4.9233403 
2.7562195e+1, 2.9507098e+2, -78248.64, -216363.95, -1210.6656, 0.040781546, 0.009685547, -78238.03, -29924.94, 0.0, 5.0142007, 4.923316 
2.75676e+1, 3.000144e+2, -10515.404, -92027.06, -2104.1892, 0.07766636, 0.045300554, -10461.121, -10461.121, 0.0, 5.014437, 4.95895 
2.7576026e+1, 3.0497912e+2, -1294.2439, -66681.55, -5027.6367, 0.17564449, 0.020059569, -909.92725, -909.92725, 0.0, 5.0143747, 4.9673915 
2.7584168e+1, 3.099468e+2, 1892.1282, -57090.395, -7456.9873, 0.27973422, -0.029354282, 2820.2874, 2820.2874, 0.0, 5.0143433, 4.9704766 
2.7591744e+1, 3.1491977e+2, 5557.6, -47985.098, -9762.715, 0.38152838, -0.06609777, 7282.1406, 7282.1406, 0.0, 5.0143065, 4.9735665 
3.2591325e+1, 1.21526934e+2, -1709166.8, -1743584.0, 106.49377, 0.00038475485, 0.018088553, -1709166.4, 39876.777, 0.0, 5.0141134, 4.9916778 
3.2591414e+1, 1.2651122e+2, -1669252.0, -1713215.1, 103.87062, -0.00038758703, 0.0012681639, -1669251.8, 30940.563, 0.0, 5.0141487, 4.985549 
3.2591534e+1, 1.314967e+2, -1620148.9, -1664164.8, 109.064575, -0.0009563591, -0.00008459983, -1620148.6, 31187.178, 0.0, 5.0141826, 4.985548 
3.2591653e+1, 1.3648216e+2, -1573257.0, -1619654.4, 114.007034, -0.0015787081, -0.00020537539, -1573256.8, 29222.887, 0.0, 5.0142164, 4.9840436 
3.2591674e+1, 1.4146487e+2, -1530386.3, -1583394.8, 6.378899, -0.0025745318, 0.013083919, -1530386.3, 23263.363, 0.0, 5.0142384, 4.9797316 
3.2591552e+1, 1.464447e+2, -1481006.8, -1533622.0, -30.057383, -0.003768653, 0.009054684, -1481006.8, 23839.994, 0.0, 5.0142274, 4.979972 
3.2591426e+1, 1.5142444e+2, -1431986.9, -1484584.3, -35.27339, -0.004943399, 0.0040950654, -1431986.9, 24057.574, 0.0, 5.0142145, 4.9799714 
3.25913e+1, 1.5640417e+2, -1384396.0, -1438523.8, -40.65439, -0.006135267, -0.00041220195, -1384396.0, 22846.232, 0.0, 5.0142016, 4.9789762 
3.2591152e+1, 1.6138025e+2, -1343865.6, -1407150.9, -176.41719, -0.0070176483, 0.0021615408, -1343865.1, 14611.331, 0.0, 5.014169, 4.9730754 
3.2590908e+1, 1.6635363e+2, -1294924.0, -1358032.9, -261.2932, -0.0072150137, 0.002321431, -1294922.9, 14815.51, 0.0, 5.01409, 4.9731097 
3.259066e+1, 1.7132702e+2, -1246034.9, -1309021.5, -298.12326, -0.0074013136, 0.0026973865, -1246033.5, 14966.665, 0.0, 5.0140095, 4.9731097 
3.2590413e+1, 1.7630044e+2, -1198281.4, -1262413.5, -335.04343, -0.0075995084, 0.003463642, -1198279.6, 13982.3, 0.0, 5.0139284, 4.972302 
3.259008e+1, 1.8127024e+2, -1157764.6, -1231357.5, -477.77542, -0.008202819, 0.011393522, -1157761.5, 5796.989, 0.0, 5.013886, 4.966217 
3.258949e+1, 1.8623675e+2, -1108084.0, -1181371.5, -566.28766, -0.00993314, 0.009508369, -1108079.6, 6807.6963, 0.0, 5.013937, 4.966459 
3.258888e+1, 1.9120327e+2, -1058728.5, -1132101.6, -610.4848, -0.011761514, 0.007310737, -1058723.5, 7492.508, 0.0, 5.0139923, 4.966459 
3.2588276e+1, 1.9616976e+2, -1010266.7, -1084749.6, -655.0569, -0.013625885, 0.0054222764, -1010260.9, 7283.7324, 0.0, 5.014047, 4.9658084 
3.258788e+1, 2.0113271e+2, -970017.9, -1054965.1, -620.15546, -0.013740543, 0.011314531, -970013.3, -1105.3627, 0.0, 5.014075, 4.9591722 
3.258803e+1, 2.0609224e+2, -920478.8, -1004967.75, -605.1681, -0.009244739, 0.0096035125, -920474.5, -170.07489, 0.0, 5.014046, 4.9594326 
3.2588208e+1, 2.1105176e+2, -871298.75, -955748.8, -611.1252, -0.0045279004, 0.007535084, -871294.3, 406.42444, 0.0, 5.014017, 4.959431 
3.2588384e+1, 2.1601127e+2, -822784.6, -907984.75, -617.66425, 0.00016844146, 0.005586077, -822780.1, 316.97787, 0.0, 5.013987, 4.958931 
3.2588348e+1, 2.2096716e+2, -783097.3, -879586.25, -838.0714, 0.0035456072, 0.0117259165, -783090.0, -8561.221, 0.0, 5.0139585, 4.9517617 
3.258765e+1, 2.259191e+2, -733573.44, -829528.0, -1029.2684, 0.003052588, 0.007751187, -733562.44, -7564.1855, 0.0, 5.0138955, 4.9520326 
3.2586902e+1, 2.30871e+2, -684426.1, -780264.9, -1128.4082, 0.002273544, 0.0032581072, -684412.8, -6945.059, 0.0, 5.013826, 4.952037 
3.258615e+1, 2.3582292e+2, -635928.94, -732447.9, -1227.6149, 0.0014513842, -0.001319365, -635913.4, -6976.0083, 0.0, 5.013756, 4.95154 
3.2585174e+1, 2.4077116e+2, -596604.1, -704949.06, -1834.218, 0.0008446082, 0.0039921775, -596573.06, -16129.87, 0.0, 5.0136614, 4.943976 
3.2583565e+1, 2.4571577e+2, -547175.25, -654758.94, -2030.2406, 0.00065585756, 0.0033995498, -547136.94, -15150.861, 0.0, 5.0135064, 4.9442983 
3.258191e+1, 2.5066042e+2, -498202.22, -605624.06, -2012.159, 0.0004800089, 0.002879101, -498164.53, -14635.891, 0.0, 5.013347, 4.9442763 
3.258024e+1, 2.5560516e+2, -449474.94, -557053.9, -1996.0662, 0.00033050883, 0.003120663, -449437.94, -14367.252, 0.0, 5.0131865, 4.944056 
3.2577989e+1, 2.6054612e+2, -410177.75, -530173.6, -3374.1611, -0.000643271, 0.014327263, -410082.94, -23435.637, 0.0, 5.013109, 4.936131 
3.2572922e+1, 2.6548284e+2, -358243.47, -474840.03, -4791.3765, -0.011211425, -0.0031799178, -358046.9, -19789.748, 0.0, 5.0131183, 4.9379883 
3.2567352e+1, 2.7041954e+2, -308079.06, -423790.8, -5417.204, -0.02462226, -0.030554568, -307826.0, -17959.17, 0.0, 5.0131145, 4.938435 
3.2561576e+1, 2.7535623e+2, -257910.36, -372957.13, -5992.3945, -0.039609894, -0.06484725, -257599.08, -16122.8125, 0.0, 5.0131083, 4.9388347 
3.2559302e+1, 2.802881e+2, -228440.61, -367277.22, -2212.1853, -0.038116023, -0.071644306, -228405.38, -35267.71, 0.0, 5.0132113, 4.9235277 
3.2565114e+1, 2.8521544e+2, -179645.22, -316578.63, -1309.9357, -0.011331131, -0.032189846, -179632.69, -34768.707, 0.0, 5.0135565, 4.9235353 
3.2570428e+1, 2.9014182e+2, -128764.8, -266112.9, -1332.4722, 0.009774511, -0.0037458327, -128751.87, -32149.623, 0.0, 5.0139165, 4.9235415 
3.2575616e+1, 2.9506734e+2, -77823.88, -215722.98, -1302.477, 0.030796811, 0.013430285, -77811.586, -29462.717, 0.0, 5.014272, 4.9235473 
3.2581383e+1, 3.0001134e+2, -11507.693, -94372.95, -2937.5015, 0.06616944, 0.055572465, -11403.692, -11403.692, 0.0, 5.014474, 4.958093 
3.2589152e+1, 3.0497488e+2, -4381.1455, -73071.66, -5357.354, 0.1558207, 0.042705998, -3965.8225, -3965.8225, 0.0, 5.0142884, 4.9651737 
3.259651e+1, 3.0994138e+2, -1601.6819, -63617.758, -6816.141, 0.24820295, 0.010451935, -861.3624, -861.3624, 0.0, 5.014135, 4.9682627 
3.2603294e+1, 3.1491336e+2, 1659.5774, -54650.977, -8152.6997, 0.33787492, -0.0060696215, 2816.1775, 2816.1775, 0.0, 5.0139766, 4.971356 
3.7605485e+1, 1.2152664e+2, -1709415.8, -1743977.3, 107.4324, 0.00073331135, 0.01542531, -1709415.5, 39629.58, 0.0, 5.014091, 4.9915586 
3.7605602e+1, 1.2651145e+2, -1669283.1, -1713217.6, 120.279205, -0.000066821376, 0.003933728, -1669282.9, 30906.518, 0.0, 5.0141373, 4.9855523 
3.7605622e+1, 1.3149673e+2, -1620165.1, -1664160.4, 129.73233, -0.0019690045, 0.00051458937, -1620164.8, 31170.047, 0.0, 5.0141764, 4.985552 
3.760563e+1, 1.36482e+2, -1573274.9, -1619651.3, 138.47725, -0.0039494587, -0.0016713062, -1573274.5, 29206.03, 0.0, 5.0142093, 4.984047 
3.760563e+1, 1.4146459e+2, -1530423.3, -1583426.5, 3.9681408, -0.0054369294, 0.010376383, -1530423.3, 23228.54, 0.0, 5.0142293, 4.979725 
3.7605628e+1, 1.4644442e+2, -1481036.5, -1533651.0, -40.481037, -0.0053109624, 0.0067399414, -1481036.4, 23812.123, 0.0, 5.0142207, 4.979965 
3.7605628e+1, 1.5142421e+2, -1432016.9, -1484613.9, -44.96067, -0.0051230113, 0.002216009, -1432016.9, 24029.016, 0.0, 5.014208, 4.9799647 
3.7605625e+1, 1.5640399e+2, -1384434.4, -1438557.9, -49.50253, -0.0049638655, -0.0018563388, -1384434.4, 22808.92, 0.0, 5.0141926, 4.978969 
3.7605542e+1, 1.6138011e+2, -1343955.9, -1407290.5, -227.71208, -0.0049029165, 0.0013200559, -1343955.0, 14522.206, 0.0, 5.014159, 4.973034 
3.7605226e+1, 1.6635351e+2, -1295003.3, -1358181.1, -322.25192, -0.0050115823, 0.002296694, -1295001.6, 14737.512, 0.0, 5.0140867, 4.973062 
3.76049e+1, 1.7132695e+2, -1246104.9, -1309165.4, -356.5801, -0.00515886, 0.003482743, -1246102.8, 14898.047, 0.0, 5.014009, 4.9730616 
3.7604576e+1, 1.7630039e+2, -1198353.8, -1262558.5, -390.7571, -0.005339096, 0.005059191, -1198351.3, 13911.195, 0.0, 5.013927, 4.972254 
3.760414e+1, 1.8127018e+2, -1157850.8, -1231525.4, -457.50372, -0.006528896, 0.013391145, -1157847.9, 5711.6543, 0.0, 5.0138836, 4.9661613 
3.7603393e+1, 1.8623658e+2, -1108155.8, -1181533.8, -520.03326, -0.010338769, 0.010799969, -1108152.1, 6737.5034, 0.0, 5.01394, 4.966402 
3.7602624e+1, 1.9120294e+2, -1058798.5, -1132263.3, -562.66, -0.014345002, 0.00783227, -1058794.3, 7425.4937, 0.0, 5.0139956, 4.9664016 
3.7601852e+1, 1.9616933e+2, -1010350.44, -1084918.0, -604.6475, -0.018413624, 0.0051726117, -1010345.5, 7204.22, 0.0, 5.0140457, 4.965751 
3.7601373e+1, 2.0113221e+2, -970071.44, -1055055.1, -626.773, -0.019675484, 0.01078278, -970066.8, -1152.8844, 0.0, 5.01407, 4.959143 
3.760169e+1, 2.0609178e+2, -920484.4, -1004991.4, -623.3037, -0.013164183, 0.009813627, -920479.8, -170.01952, 0.0, 5.014049, 4.9594226 
3.760206e+1, 2.1105136e+2, -871304.94, -955774.5, -627.29974, -0.006264453, 0.008513465, -871300.3, 405.1947, 0.0, 5.0140195, 4.9594207 
3.7602428e+1, 2.1601096e+2, -822815.44, -908023.7, -631.6216, 0.00057867094, 0.007335166, -822810.75, 290.458, 0.0, 5.0139813, 4.9589195 
3.760251e+1, 2.2096686e+2, -783278.8, -879888.8, -863.0233, 0.005384196, 0.014051904, -783271.1, -8738.202, 0.0, 5.0139403, 4.9516654 
3.7601718e+1, 2.2591862e+2, -733810.75, -829917.06, -1079.5671, 0.0045434064, 0.009562312, -733798.6, -7794.169, 0.0, 5.0138707, 4.951908 
3.7600857e+1, 2.3087035e+2, -684715.5, -780677.44, -1181.3469, 0.0032896572, 0.0044176606, -684700.94, -7224.6123, 0.0, 5.0137825, 4.9519124 
3.759999e+1, 2.3582208e+2, -636308.75, -732901.5, -1283.3004, 0.0019476266, -0.00081334024, -636291.75, -7343.5063, 0.0, 5.0136795, 4.9514155 
3.759894e+1, 2.407702e+2, -596990.0, -705183.75, -1933.3923, 0.0012668947, 0.0043194075, -596955.44, -16500.26, 0.0, 5.0135417, 4.943945 
3.759733e+1, 2.4571489e+2, -547558.9, -654818.56, -2189.446, 0.0028230322, 0.004112076, -547514.2, -15518.704, 0.0, 5.0133543, 4.9443398 
3.7595665e+1, 2.506596e+2, -498718.03, -605746.2, -2177.7798, 0.00450967, 0.003871574, -498673.75, -15138.458, 0.0, 5.0131474, 4.944317 
3.7593982e+1, 2.556044e+2, -450177.22, -557262.56, -2169.25, 0.006167235, 0.004377723, -450133.28, -15058.72, 0.0, 5.01292, 4.9440956 
3.759162e+1, 2.6054513e+2, -412348.66, -532603.06, -3564.2249, 0.0053236033, 0.015042235, -412243.1, -25590.963, 0.0, 5.0126324, 4.935468 
3.758603e+1, 2.6548058e+2, -363360.75, -479222.97, -5482.2236, -0.013186694, -0.008128967, -363101.9, -24826.44, 0.0, 5.011724, 4.9370046 
3.7579888e+1, 2.704159e+2, -316996.22, -429768.0, -6960.5747, -0.035441596, -0.041756075, -316568.22, -26668.727, 0.0, 5.0103397, 4.937481 
3.7573537e+1, 2.7535132e+2, -271755.6, -381013.94, -8722.703, -0.05933773, -0.08210349, -271063.6, -29540.875, 0.0, 5.0085382, 4.9379106 
3.7571093e+1, 2.802827e+2, -246905.66, -379098.75, -8287.01, -0.04859998, -0.080336034, -246388.17, -53199.008, 0.0, 5.0072527, 4.92198 
3.7577584e+1, 2.8521094e+2, -191615.98, -321601.72, -5142.9937, -0.012415774, -0.028316123, -191412.83, -46505.473, 0.0, 5.009141, 4.923682 
3.7583444e+1, 2.9013798e+2, -136987.13, -269366.75, -4162.4854, 0.0047296328, 0.0030966238, -136856.38, -40216.42, 0.0, 5.010843, 4.9237113 
3.7589166e+1, 2.9506412e+2, -83788.97, -217876.81, -3393.3147, 0.021727448, 0.023136558, -83703.16, -35322.348, 0.0, 5.012008, 4.923742 
3.7595326e+1, 3.0000737e+2, -20180.2, -102523.305, -5677.53, 0.056010548, 0.06284485, -19790.578, -19790.578, 0.0, 5.0121474, 4.956065 
3.7602407e+1, 3.0496815e+2, -21854.799, -85896.75, -9884.105, 0.13958456, 0.03615414, -20364.008, -20364.008, 0.0, 5.008917, 4.9625697 
3.76089e+1, 3.0993226e+2, -32433.018, -82200.984, -14090.414, 0.2226268, -0.0077612437, -28720.63, -28720.63, 0.0, 5.0038757, 4.965649 
3.761481e+1, 3.1490204e+2, -46716.363, -80740.2, -19308.467, 0.30284047, -0.03321335, -37994.6, -37994.6, 0.0, 4.997305, 4.968745 
4.2619735e+1, 1.2152581e+2, -1709536.9, -1744458.0, -100.683716, 0.0021303433, 0.009127751, -1709536.5, 39515.07, 0.0, 5.014143, 4.991374 
4.26198e+1, 1.2651154e+2, -1669232.3, -1713112.0, -77.75372, 0.00054895045, 0.006742614, -1669232.1, 30955.063, 0.0, 5.0141387, 4.985585 
4.2619774e+1, 1.3149664e+2, -1620265.4, -1664130.8, -34.94318, -0.0019738327, 0.0011042876, -1620265.4, 31069.113, 0.0, 5.0141277, 4.985584 
4.2619744e+1, 1.3648172e+2, -1573508.8, -1619688.8, 7.616833, -0.004496656, -0.0032951867, -1573508.8, 28973.297, 0.0, 5.0141163, 4.9840784 
4.2619735e+1, 1.414642e+2, -1530734.0, -1583578.3, -94.07757, -0.0061645578, 0.0075077103, -1530733.9, 22920.527, 0.0, 5.0141253, 4.979725 
4.2619792e+1, 1.4644411e+2, -1481211.3, -1533761.4, -144.025, -0.0056236363, 0.004649045, -1481210.9, 23639.91, 0.0, 5.0141673, 4.9799542 
4.2619854e+1, 1.5142396e+2, -1432027.6, -1484644.4, -156.33809, -0.0049628667, 0.0009586832, -1432027.1, 24020.443, 0.0, 5.0142097, 4.979954 
4.2619914e+1, 1.5640382e+2, -1384273.9, -1438505.8, -168.76208, -0.0042857425, -0.002288823, -1384273.4, 22971.14, 0.0, 5.014252, 4.9789577 
4.261987e+1, 1.6137998e+2, -1343539.5, -1407102.9, -338.98914, -0.003897875, 0.001404455, -1343537.8, 14940.5205, 0.0, 5.014303, 4.973028 
4.261954e+1, 1.6635336e+2, -1294170.8, -1357794.6, -377.75922, -0.004159854, 0.0023344236, -1294168.5, 15571.81, 0.0, 5.014373, 4.9730554 
4.2619202e+1, 1.713268e+2, -1244839.3, -1308571.5, -355.34607, -0.0044281133, 0.0034645419, -1244837.3, 16164.863, 0.0, 5.0144434, 4.9730554 
4.2618862e+1, 1.7630021e+2, -1196645.6, -1261754.6, -332.87433, -0.0046773655, 0.004987783, -1196643.9, 15619.978, 0.0, 5.0145135, 4.9722476 
4.261841e+1, 1.8127e+2, -1155994.3, -1230740.5, -358.3307, -0.005977854, 0.013284865, -1155992.5, 7568.64, 0.0, 5.0145397, 4.966117 
4.2617625e+1, 1.8623632e+2, -1106725.4, -1180983.4, -421.07486, -0.010038292, 0.010744486, -1106723.0, 8168.9546, 0.0, 5.0144577, 4.966345 
4.261683e+1, 1.9120266e+2, -1057785.3, -1131910.6, -466.34317, -0.014205527, 0.0078314375, -1057782.4, 8440.383, 0.0, 5.014371, 4.966346 
4.261603e+1, 1.9616899e+2, -1009735.7, -1084752.9, -511.40494, -0.01833715, 0.0052205264, -1009732.2, 7821.236, 0.0, 5.0142837, 4.965696 
4.2615527e+1, 2.0113182e+2, -969655.25, -1054968.1, -523.2339, -0.019689323, 0.011002553, -969652.06, -733.93976, 0.0, 5.014235, 4.9590964 
4.261584e+1, 2.0609145e+2, -919876.9, -1004825.4, -572.4352, -0.013452698, 0.010872894, -919873.06, 440.85687, 0.0, 5.014283, 4.959371 
4.2616203e+1, 2.1105108e+2, -870463.2, -955497.94, -645.55853, -0.0067321095, 0.0105111925, -870458.25, 1251.1785, 0.0, 5.0143356, 4.9593697 
4.2616567e+1, 2.160107e+2, -821716.7, -907627.0, -718.0875, 0.0000363826, 0.010301232, -821710.7, 1394.2877, 0.0, 5.014388, 4.958869 
4.2616677e+1, 2.2096659e+2, -781814.2, -879322.6, -922.1988, 0.004899485, 0.017405046, -781805.44, -7268.471, 0.0, 5.0144763, 4.951615 
4.2615983e+1, 2.2591814e+2, -731611.5, -829033.56, -1024.5541, 0.0043860646, 0.011293554, -731600.75, -5589.7544, 0.0, 5.014669, 4.9518485 
4.261522e+1, 2.3086964e+2, -681700.9, -779422.06, -1017.4139, 0.0036034533, 0.004346713, -681690.25, -4204.8135, 0.0, 5.0148683, 4.9518523 
4.2614457e+1, 2.3582111e+2, -632445.06, -731261.8, -1009.24335, 0.0028544697, -0.0027136405, -632434.75, -3474.76, 0.0, 5.015067, 4.951355 
4.2613533e+1, 2.4076913e+2, -592160.25, -703086.0, -1590.5936, 0.0029619378, 0.0018708893, -592137.44, -11669.508, 0.0, 5.0152655, 4.943896 
4.261205e+1, 2.4571407e+2, -541500.4, -652096.75, -1959.7485, 0.0058627897, 0.0044219363, -541465.7, -9461.676, 0.0, 5.0155005, 4.944325 
4.2610505e+1, 2.5065908e+2, -491411.53, -602461.5, -2026.7134, 0.009131698, 0.0070817224, -491374.56, -7835.2886, 0.0, 5.0157385, 4.944304 
4.260894e+1, 2.5560412e+2, -441575.9, -553398.75, -2089.8232, 0.01255727, 0.010484576, -441536.88, -6462.874, 0.0, 5.015972, 4.944085 
4.2606738e+1, 2.6054472e+2, -403003.5, -530273.0, -3434.7234, 0.014436713, 0.022607625, -402910.84, -16258.905, 0.0, 5.0162873, 4.9346585 
4.260156e+1, 2.6547846e+2, -351235.22, -477581.28, -4676.245, 0.0038435624, -0.00582715, -351062.38, -12768.101, 0.0, 5.016625, 4.9354463 
4.25959e+1, 2.7041155e+2, -300368.9, -427056.1, -5017.469, -0.0059477743, -0.045117926, -300170.5, -10228.001, 0.0, 5.01692, 4.93561 
4.2590076e+1, 2.7534443e+2, -249537.3, -376709.78, -5294.4697, -0.0131942555, -0.090728305, -249317.27, -7723.7866, 0.0, 5.0171986, 4.9357257 
4.2587993e+1, 2.8027442e+2, -218894.16, -371484.75, -3661.7983, 0.020073438, -0.07511757, -218806.33, -25530.473, 0.0, 5.0178423, 4.919828 
4.2594394e+1, 2.852038e+2, -164127.6, -306471.34, 537.1661, 0.04535362, -0.019229915, -164125.58, -19144.531, 0.0, 5.017997, 4.9248424 
4.260014e+1, 2.9013187e+2, -115240.36, -257671.63, 685.15094, 0.04449269, 0.0038736262, -115237.06, -18535.281, 0.0, 5.017723, 4.924682 
4.2605764e+1, 2.950593e+2, -66306.07, -208904.73, 1015.2927, 0.04812872, 0.020735288, -66298.84, -17870.361, 0.0, 5.0173974, 4.9245214 
4.2611638e+1, 3.0000237e+2, -7910.809, -105009.58, -1606.6329, 0.07715369, 0.05871631, -7884.2324, -7881.8877, 0.0, 5.017146, 4.953053 
4.261723e+1, 3.0496237e+2, -4200.0435, -92072.74, -3347.9468, 0.17295703, 0.052813835, -4072.6716, -4072.6716, 0.0, 5.0164695, 4.957049 
4.2622215e+1, 3.0992413e+2, -4383.3745, -87543.71, -3684.6533, 0.28331828, 0.02664858, -4220.435, -4220.435, 0.0, 5.0155177, 4.958662 
4.2626828e+1, 3.1488845e+2, -4395.8857, -83184.56, -4313.505, 0.40610838, 0.005404412, -4160.4346, -4160.4346, 0.0, 5.014488, 4.9602776 
4.7634056e+1, 1.2152452e+2, -1709898.5, -1745188.9, -82.97113, 0.0037972357, -0.00032964099, -1709898.3, 39163.9, 0.0, 5.0141425, 4.9911337 
4.7634006e+1, 1.2651153e+2, -1669150.3, -1712939.8, -87.84671, 0.001151114, 0.009685159, -1669150.0, 31035.705, 0.0, 5.014138, 4.9856415 
4.7633988e+1, 1.3149644e+2, -1620183.9, -1663959.1, -43.612206, -0.0011534803, 0.0016876046, -1620183.8, 31151.1, 0.0, 5.0141273, 4.98564 
4.763397e+1, 1.3648134e+2, -1573427.6, -1619517.8, 0.3745597, -0.003477973, -0.005070783, -1573427.6, 29056.68, 0.0, 5.014116, 4.9841347 
4.763397e+1, 1.4146373e+2, -1530726.8, -1583562.5, -69.43442, -0.00513832, 0.004488237, -1530726.8, 22930.898, 0.0, 5.0141253, 4.9797306 
4.763402e+1, 1.4644374e+2, -1481232.0, -1533804.3, -112.306854, -0.0050539076, 0.0027919528, -1481231.8, 23621.648, 0.0, 5.0141673, 4.9799404 
4.7634074e+1, 1.5142372e+2, -1432048.3, -1484687.3, -123.80983, -0.004880517, 0.0003472567, -1432048.0, 24001.621, 0.0, 5.0142097, 4.97994 
4.7634134e+1, 1.5640368e+2, -1384294.5, -1438548.6, -135.43019, -0.0046996074, -0.0016530222, -1384294.1, 22951.754, 0.0, 5.014252, 4.978944 
4.7634095e+1, 1.6137989e+2, -1343501.3, -1407025.1, -293.7761, -0.004711317, 0.002536351, -1343499.9, 14979.329, 0.0, 5.014303, 4.9730544 
4.7633815e+1, 1.6635321e+2, -1294124.5, -1357700.1, -325.56903, -0.005178644, 0.0025484033, -1294122.9, 15618.88, 0.0, 5.0143733, 4.973088 
4.7633526e+1, 1.7132656e+2, -1244793.6, -1308477.6, -301.89755, -0.005663211, 0.0027330637, -1244792.3, 16211.705, 0.0, 5.0144434, 4.9730873 
4.7633237e+1, 1.7629993e+2, -1196600.6, -1261661.1, -278.17645, -0.006145311, 0.0033129617, -1196599.5, 15666.617, 0.0, 5.014514, 4.9722795 
4.763284e+1, 1.8126968e+2, -1156036.9, -1230835.4, -395.01227, -0.007139259, 0.011119349, -1156034.8, 7528.8936, 0.0, 5.01454, 4.9660854 
4.7632137e+1, 1.8623602e+2, -1106799.8, -1181146.1, -487.28955, -0.009556792, 0.00934176, -1106796.5, 8097.973, 0.0, 5.014458, 4.9662905 
4.7631425e+1, 1.9120237e+2, -1057859.9, -1132073.0, -530.9994, -0.012039567, 0.007268992, -1057856.0, 8369.242, 0.0, 5.014371, 4.9662914 
4.763071e+1, 1.9616874e+2, -1009810.44, -1084915.1, -574.4931, -0.014506359, 0.005501724, -1009806.06, 7749.902, 0.0, 5.0142837, 4.9656415 
4.7630218e+1, 2.0113158e+2, -969746.8, -1055167.8, -513.9075, -0.015261053, 0.01195107, -969743.7, -822.8729, 0.0, 5.014235, 4.959029 
4.7630334e+1, 2.060912e+2, -919998.9, -1005090.75, -534.4181, -0.011445716, 0.012707814, -919995.5, 321.48404, 0.0, 5.0142827, 4.9592814 
4.763049e+1, 2.1105082e+2, -870585.3, -955761.9, -605.1413, -0.007354591, 0.013322012, -870581.0, 1131.9146, 0.0, 5.014335, 4.9592805 
4.763064e+1, 2.1601047e+2, -821839.0, -907889.56, -675.2743, -0.0032409893, 0.0140893, -821833.7, 1275.1073, 0.0, 5.014387, 4.95878 
4.7630668e+1, 2.2096631e+2, -781823.1, -879326.3, -801.88354, -0.0001288986, 0.021226505, -781816.56, -7274.8677, 0.0, 5.0144734, 4.951615 
4.7630256e+1, 2.2591761e+2, -731605.75, -828993.6, -865.6818, 0.00020588355, 0.012468261, -731598.06, -5579.8906, 0.0, 5.0146646, 4.9518642 
4.7629803e+1, 2.3086883e+2, -681699.56, -779382.9, -854.6249, 0.00039704848, 0.0027464118, -681692.06, -4196.869, 0.0, 5.0148625, 4.951869 
4.762934e+1, 2.3582007e+2, -632448.25, -731223.3, -842.5527, 0.0005867571, -0.007055227, -632441.06, -3468.7202, 0.0, 5.01506, 4.9513717 
4.7628725e+1, 2.4076799e+2, -592297.0, -703269.3, -1411.734, 0.0014645341, -0.0031045452, -592279.06, -11798.345, 0.0, 5.0152435, 4.9438443 
4.7627464e+1, 2.4571337e+2, -541636.0, -652269.1, -1785.5592, 0.004411461, 0.0042637163, -541607.2, -9596.193, 0.0, 5.0154757, 4.9442797 
4.762613e+1, 2.506588e+2, -491530.78, -602615.7, -1844.3394, 0.0075935167, 0.011896961, -491500.2, -7960.006, 0.0, 5.0157185, 4.944261 
4.7624776e+1, 2.556043e+2, -441678.97, -553534.9, -1899.2721, 0.010881228, 0.020142933, -441646.72, -6577.8237, 0.0, 5.0159574, 4.9440446 
4.7622907e+1, 2.6054493e+2, -403517.72, -531282.9, -3047.8967, 0.013078088, 0.03397925, -403445.06, -16799.064, 0.0, 5.016257, 4.9343076 
4.761864e+1, 2.6547748e+2, -352164.13, -479170.5, -4079.3623, 0.0050586904, -0.0038613873, -352033.22, -13729.689, 0.0, 5.0165286, 4.934898 
4.761393e+1, 2.7040946e+2, -301508.53, -428718.7, -4319.971, -0.0028398263, -0.051988743, -301362.0, -11394.789, 0.0, 5.0167623, 4.935065 
4.7609013e+1, 2.7534124e+2, -250886.38, -378444.63, -4496.358, -0.009248387, -0.10477063, -250728.08, -9095.715, 0.0, 5.016979, 4.9351845 
4.7607386e+1, 2.8027156e+2, -220108.13, -376207.75, -3610.7026, 0.022957435, -0.07344241, -220024.64, -26709.896, 0.0, 5.0180697, 4.918179 
4.761316e+1, 2.8520185e+2, -160902.53, -303757.7, 406.43674, 0.0454548, -0.010687771, -160901.38, -15893.001, 0.0, 5.0185304, 4.9257646 
4.7618237e+1, 2.901301e+2, -112316.97, -254815.47, 722.2846, 0.040900066, 0.0017100433, -112313.31, -15590.03, 0.0, 5.018155, 4.925685 
4.762315e+1, 2.9505792e+2, -63684.18, -205905.55, 1220.0955, 0.03943889, 0.00870925, -63673.715, -15230.832, 0.0, 5.0177274, 4.925605 
4.7628087e+1, 3.0000022e+2, -7888.7026, -107629.25, -1175.3649, 0.059318744, 0.035001606, -7874.8535, -7851.9185, 0.0, 5.01743, 4.952099 
4.763118e+1, 3.049643e+2, -3514.1199, -94140.2, -2447.4238, 0.12684926, 0.06165438, -3448.0735, -3448.0735, 0.0, 5.0168576, 4.956055 
4.763321e+1, 3.0993214e+2, -3765.1997, -90856.12, -2243.076, 0.20096578, 0.085822366, -3707.4663, -3707.4663, 0.0, 5.01602, 4.957284 
4.7634682e+1, 3.1490225e+2, -3845.2144, -87741.52, -2331.4255, 0.28230718, 0.117281504, -3780.4756, -3780.4756, 0.0, 5.015105, 4.9585147 
5.264837e+1, 1.215232e+2, -1710196.5, -1745789.5, -65.2367, 0.005425826, -0.010062317, -1710196.4, 38876.746, 0.0, 5.014142, 4.9909363 
5.264821e+1, 1.2651151e+2, -1669068.6, -1712767.1, -97.83949, 0.0017464838, 0.012676991, -1669068.4, 31115.96, 0.0, 5.0141377, 4.985698 
5.26482e+1, 1.3149625e+2, -1620102.6, -1663787.3, -52.18107, -0.00034003326, 0.0022995, -1620102.5, 31232.703, 0.0, 5.014127, 4.985697 
5.2648187e+1, 1.3648096e+2, -1573346.8, -1619346.4, -6.767572, -0.0024663077, -0.0068385107, -1573346.8, 29139.682, 0.0, 5.014116, 4.984191 
5.26482e+1, 1.4146325e+2, -1530724.5, -1583556.4, -44.583168, -0.004113539, 0.0014877176, -1530724.4, 22936.406, 0.0, 5.0141253, 4.9797325 
5.264825e+1, 1.4644338e+2, -1481252.9, -1533846.9, -80.5342, -0.004484347, 0.0009470658, -1481252.8, 23603.225, 0.0, 5.0141673, 4.9799266 
5.26483e+1, 1.5142347e+2, -1432069.1, -1484729.9, -91.227066, -0.0047981925, -0.00026669353, -1432068.9, 23982.646, 0.0, 5.0142097, 4.9799256 
5.264835e+1, 1.5640351e+2, -1384315.3, -1438591.4, -102.04376, -0.005113355, -0.0010344738, -1384315.0, 22932.225, 0.0, 5.0142517, 4.97893 
5.2648324e+1, 1.6137978e+2, -1343468.8, -1406958.6, -248.12024, -0.005530793, 0.0036961774, -1343467.9, 15012.473, 0.0, 5.0143037, 4.973077 
5.264809e+1, 1.6635306e+2, -1294078.6, -1357605.5, -273.39258, -0.0062045148, 0.0027905777, -1294077.5, 15665.68, 0.0, 5.0143733, 4.9731197 
5.2647847e+1, 1.7132635e+2, -1244748.4, -1308383.5, -248.46274, -0.006904321, 0.0020120735, -1244747.4, 16258.29, 0.0, 5.014444, 4.9731193 
5.264761e+1, 1.7629963e+2, -1196556.0, -1261567.5, -223.49234, -0.0076182005, 0.0016309218, -1196555.3, 15713.01, 0.0, 5.014514, 4.9723115 
5.264727e+1, 1.8126935e+2, -1156084.5, -1230940.3, -431.2763, -0.008298985, 0.008974485, -1156082.0, 7484.146, 0.0, 5.0145407, 4.96605 
5.2646655e+1, 1.8623571e+2, -1106874.5, -1181308.6, -553.61584, -0.00906839, 0.007951185, -1106870.4, 8026.675, 0.0, 5.0144587, 4.9662356 
5.264602e+1, 1.9120209e+2, -1057934.8, -1132235.3, -595.76715, -0.009862505, 0.0066927793, -1057930.0, 8297.791, 0.0, 5.0143714, 4.9662366 
5.264539e+1, 1.9616847e+2, -1009885.6, -1085077.0, -637.6929, -0.010660262, 0.005743236, -1009880.25, 7678.2637, 0.0, 5.0142837, 4.9655867 
5.264491e+1, 2.0113134e+2, -969852.56, -1055397.3, -504.415, -0.010821046, 0.012955419, -969849.6, -926.08026, 0.0, 5.014235, 4.958951 
5.264483e+1, 2.0609096e+2, -920121.5, -1005355.8, -496.8899, -0.009428136, 0.014609089, -920118.56, 201.50674, 0.0, 5.0142827, 4.9591913 
5.264478e+1, 2.110506e+2, -870708.06, -956025.44, -565.21277, -0.007964934, 0.016161112, -870704.3, 1012.0678, 0.0, 5.0143347, 4.959191 
5.264472e+1, 2.1601024e+2, -821961.94, -908151.7, -632.9497, -0.006504683, 0.017867576, -821957.3, 1155.3654, 0.0, 5.014386, 4.9586906 
5.264466e+1, 2.2096604e+2, -781837.56, -879340.5, -682.3336, -0.00516568, 0.025073702, -781832.8, -7286.4565, 0.0, 5.014471, 4.951611 
5.264452e+1, 2.2591707e+2, -731600.94, -828952.94, -707.12286, -0.0039945343, 0.013628932, -731595.8, -5570.489, 0.0, 5.01466, 4.9518795 
5.264437e+1, 2.3086804e+2, -681699.25, -779342.94, -692.149, -0.0028294644, 0.0010483336, -681694.3, -4189.324, 0.0, 5.014857, 4.9518847 
5.2644217e+1, 2.35819e+2, -632452.4, -731184.06, -676.17487, -0.0017009336, -0.011578333, -632447.75, -3463.0203, 0.0, 5.015053, 4.951388 
5.2643883e+1, 2.407669e+2, -592488.8, -703565.1, -1259.3882, 0.00003414907, -0.007835892, -592474.5, -11981.1455, 0.0, 5.0152216, 4.9437523 
5.264286e+1, 2.457127e+2, -541777.6, -652435.94, -1618.0286, 0.003043845, 0.0044855108, -541754.0, -9736.182, 0.0, 5.0154514, 4.944233 
5.264175e+1, 2.5065857e+2, -491656.03, -602764.25, -1668.623, 0.006109074, 0.016951906, -491630.97, -8090.0713, 0.0, 5.0156984, 4.944217 
5.2640605e+1, 2.5560454e+2, -441787.97, -553665.3, -1715.3779, 0.0092289485, 0.029900678, -441761.7, -6698.0015, 0.0, 5.015942, 4.944003 
5.2639097e+1, 2.605451e+2, -404070.4, -532328.2, -2673.3813, 0.011977815, 0.045111805, -404014.7, -17374.396, 0.0, 5.016226, 4.9339314 
5.2635694e+1, 2.6547644e+2, -353120.7, -480736.38, -3495.027, 0.007018686, -0.0036157956, -353025.06, -14711.458, 0.0, 5.016433, 4.9343276 
5.263186e+1, 2.704072e+2, -302675.7, -430357.78, -3634.9424, 0.0014825256, -0.06221915, -302572.28, -12579.047, 0.0, 5.0166044, 4.9344983 
5.2627784e+1, 2.7533793e+2, -252262.77, -380155.78, -3710.6296, -0.0036185468, -0.12381189, -252155.2, -10482.176, 0.0, 5.0167594, 4.934622 
5.262704e+1, 2.8026882e+2, -222348.58, -383251.7, -2762.933, 0.0266248, -0.069491245, -222301.14, -28949.027, 0.0, 5.018297, 4.9157076 
5.2632403e+1, 2.8520024e+2, -157761.72, -300965.34, 134.76411, 0.04479471, 0.0044737635, -157761.58, -12729.52, 0.0, 5.019064, 4.9266624 
5.263664e+1, 2.901286e+2, -109477.414, -251880.55, 618.3014, 0.036012936, 0.0033272873, -109474.734, -12732.454, 0.0, 5.018587, 4.9266634 
5.264069e+1, 2.9505664e+2, -61145.72, -202827.48, 1283.6056, 0.028921029, -0.0023742046, -61134.09, -12678.169, 0.0, 5.018058, 4.926664 
5.26447e+1, 2.999978e+2, -8651.326, -111781.695, -504.8733, 0.040145416, 0.010201514, -8648.8545, -8602.904, 0.0, 5.0177135, 4.9505363 
5.264601e+1, 3.0496544e+2, -2946.311, -96094.6, -1049.9429, 0.08677398, 0.06155078, -2934.478, -2934.478, 0.0, 5.017246, 4.9549503 
5.2645856e+1, 3.09939e+2, -3265.392, -94058.3, -303.306, 0.13321641, 0.12500584, -3264.379, -3264.379, 0.0, 5.0165224, 4.9557943 
5.264495e+1, 3.1491446e+2, -3413.2097, -92191.45, 150.41188, 0.18166143, 0.19813484, -3412.9548, -3412.9548, 0.0, 5.015722, 4.95664 
5.7662684e+1, 1.21521845e+2, -1710532.9, -1746309.8, -49.17318, 0.0070235394, -0.020057933, -1710532.8, 38551.598, 0.0, 5.0141077, 4.9907813 
5.766241e+1, 1.265115e+2, -1669032.5, -1712616.6, -108.159454, 0.0023386013, 0.015710954, -1669032.3, 31150.602, 0.0, 5.0141225, 4.9857545 
5.7662416e+1, 1.3149604e+2, -1620035.0, -1663621.5, -61.537518, 0.00046784306, 0.0029357597, -1620034.9, 31300.773, 0.0, 5.014122, 4.9857526 
5.766241e+1, 1.3648057e+2, -1573270.3, -1619176.6, -15.132984, -0.0014602232, -0.008598783, -1573270.3, 29218.379, 0.0, 5.014114, 4.984247 
5.7662433e+1, 1.414628e+2, -1530739.6, -1583566.0, -20.506617, -0.0030875714, -0.0014914613, -1530739.6, 22924.428, 0.0, 5.014121, 4.9797316 
5.766248e+1, 1.4644302e+2, -1481295.5, -1533899.9, -48.78723, -0.003912285, -0.000883626, -1481295.5, 23563.158, 0.0, 5.01416, 4.9799123 
5.766252e+1, 1.514232e+2, -1432124.4, -1484789.1, -58.26088, -0.004712405, -0.0008814222, -1432124.4, 23929.223, 0.0, 5.0141983, 4.9799113 
5.7662565e+1, 1.5640336e+2, -1384387.5, -1438658.9, -68.32585, -0.0055218153, -0.00043142674, -1384387.4, 22861.223, 0.0, 5.0142345, 4.9789157 
5.7662547e+1, 1.613797e+2, -1343500.8, -1406932.0, -201.64305, -0.0063501815, 0.0048857564, -1343500.1, 14981.261, 0.0, 5.014284, 4.973095 
5.766236e+1, 1.663529e+2, -1294076.1, -1357531.3, -220.5495, -0.0072323987, 0.0030625076, -1294075.4, 15669.171, 0.0, 5.014359, 4.973151 
5.766217e+1, 1.7132613e+2, -1244740.0, -1308306.5, -194.01646, -0.008145498, 0.0013025574, -1244739.4, 16268.074, 0.0, 5.0144315, 4.973151 
5.7661974e+1, 1.7629936e+2, -1196551.9, -1261492.6, -167.33414, -0.009087157, -0.00005824185, -1196551.5, 15719.018, 0.0, 5.0145, 4.9723434 
5.76617e+1, 1.8126902e+2, -1156176.6, -1231073.4, -462.9495, -0.009445757, 0.00684985, -1156173.8, 7394.8687, 0.0, 5.014528, 4.9660115 
5.766117e+1, 1.8623541e+2, -1106965.0, -1181477.5, -609.8317, -0.008563518, 0.006573707, -1106960.0, 7939.4854, 0.0, 5.014454, 4.966181 
5.7660615e+1, 1.912018e+2, -1058013.1, -1132398.0, -645.3517, -0.00766451, 0.006105264, -1058007.6, 8222.72, 0.0, 5.0143704, 4.9661818 
5.766007e+1, 1.9616821e+2, -1009964.9, -1085239.9, -681.6825, -0.0067865704, 0.005949097, -1009958.75, 7602.276, 0.0, 5.0142827, 4.965532 
5.76596e+1, 2.011311e+2, -969979.9, -1055659.0, -469.83453, -0.006355488, 0.014019733, -969977.25, -1051.0996, 0.0, 5.0142326, 4.9588633 
5.765933e+1, 2.0609072e+2, -920243.0, -1005618.8, -425.21954, -0.0073905312, 0.016576735, -920240.94, 82.2256, 0.0, 5.014283, 4.959101 
5.765906e+1, 2.1105038e+2, -870832.25, -956288.06, -481.5066, -0.008555958, 0.019023314, -870829.5, 890.30896, 0.0, 5.0143337, 4.9591007 
5.76588e+1, 2.1601e+2, -822100.94, -908419.7, -537.318, -0.009747247, 0.021624798, -822097.56, 1018.88605, 0.0, 5.01438, 4.9586005 
5.765865e+1, 2.2096574e+2, -781879.56, -879374.94, -504.73328, -0.0102028325, 0.02893426, -781876.94, -7325.9917, 0.0, 5.014461, 4.951603 
5.7658786e+1, 2.2591655e+2, -731587.3, -828907.44, -502.5133, -0.008208564, 0.014778784, -731584.7, -5552.284, 0.0, 5.0146594, 4.951894 
5.7658935e+1, 2.3086725e+2, -681688.4, -779298.0, -502.8963, -0.0060647014, -0.0007297281, -681685.75, -4171.0137, 0.0, 5.014855, 4.951899 
5.765908e+1, 2.3581795e+2, -632478.2, -731155.25, -508.26935, -0.0039859195, -0.016252894, -632475.56, -3478.474, 0.0, 5.015038, 4.9514027 
5.7659024e+1, 2.407658e+2, -592792.56, -704001.44, -1155.3304, -0.0012936663, -0.01228926, -592780.56, -12274.697, 0.0, 5.0151796, 4.9436197 
5.765824e+1, 2.4571204e+2, -541960.7, -652614.56, -1487.5878, 0.0017977434, 0.005107525, -541940.7, -9916.304, 0.0, 5.0154138, 4.944185 
5.7657355e+1, 2.5065836e+2, -491828.16, -602925.94, -1532.8417, 0.004721784, 0.022250328, -491807.0, -8265.546, 0.0, 5.0156636, 4.944172 
5.7656443e+1, 2.5560474e+2, -441981.78, -553824.8, -1568.2916, 0.007653918, 0.03974335, -441959.78, -6901.4326, 0.0, 5.015898, 4.9439607 
5.7655317e+1, 2.6054525e+2, -404851.03, -533516.44, -2420.508, 0.01120846, 0.056001015, -404805.5, -18170.566, 0.0, 5.0161304, 4.9335217 
5.765272e+1, 2.6547527e+2, -354655.94, -482589.2, -3569.8186, 0.009862578, -0.004991297, -354556.4, -16231.788, 0.0, 5.0161467, 4.9337134 
5.7649696e+1, 2.7040476e+2, -305011.84, -432571.13, -4420.0654, 0.007275879, -0.075654544, -304858.84, -14837.878, 0.0, 5.016046, 4.9338794 
5.76464e+1, 2.753343e+2, -255618.67, -382819.88, -5450.051, 0.004116848, -0.14770131, -255385.58, -13669.232, 0.0, 5.015848, 4.9339986 
5.764696e+1, 2.8026614e+2, -228277.42, -393784.56, -4486.594, 0.03163634, -0.063224666, -228155.89, -34766.61, 0.0, 5.0175657, 4.912415 
5.7652134e+1, 2.851989e+2, -156542.75, -298802.34, -2770.8325, 0.043775644, 0.026109386, -156488.8, -11435.528, 0.0, 5.0189176, 4.9275613 
5.765537e+1, 2.9012728e+2, -107791.57, -249269.44, -1334.0021, 0.030081933, 0.008536355, -107778.99, -11019.332, 0.0, 5.0186186, 4.9276333 
5.7658374e+1, 2.9505548e+2, -59273.902, -199888.7, 45.17865, 0.016724942, -0.012631074, -59273.89, -10805.696, 0.0, 5.018167, 4.927706 
5.7661486e+1, 2.9999512e+2, -10598.195, -117695.59, -594.7649, 0.019735808, -0.015594975, -10594.892, -10523.182, 0.0, 5.0178576, 4.9483366 
5.766173e+1, 3.0496573e+2, -3064.9143, -98316.22, -1202.8983, 0.052889545, 0.05254921, -3049.7258, -3049.7258, 0.0, 5.0174465, 4.95367 
5.766017e+1, 3.0994445e+2, -4020.1985, -97766.41, -1088.0884, 0.08041302, 0.14344332, -4007.571, -4007.571, 0.0, 5.016637, 4.9541187 
5.7657677e+1, 3.149247e+2, -5219.395, -97545.43, -1209.0444, 0.10481549, 0.24569297, -5203.5645, -5203.5645, 0.0, 5.0156016, 4.9545693 
6.2676805e+1, 1.2152165e+2, -1710641.0, -1746228.1, 107.74026, 0.0075362874, -0.019066226, -1710640.6, 38444.277, 0.0, 5.0140414, 4.9908404 
6.2676585e+1, 1.2651068e+2, -1669044.1, -1712558.5, 24.506998, 0.0028982428, 0.010069681, -1669044.1, 31145.414, 0.0, 5.014104, 4.9857817 
6.2676644e+1, 1.3149545e+2, -1619865.1, -1663471.5, 23.55093, 0.0013015203, -0.0007923865, -1619865.1, 31474.99, 0.0, 5.0141644, 4.9857807 
6.2676704e+1, 1.364802e+2, -1572897.4, -1618924.5, 22.214073, -0.00029714013, -0.010389586, -1572897.4, 29593.488, 0.0, 5.0142245, 4.984276 
6.267675e+1, 1.4146256e+2, -1530333.9, -1583366.0, -23.314623, -0.0018129778, -0.0019251439, -1530333.9, 23330.865, 0.0, 5.014257, 4.979731 
6.267674e+1, 1.4644282e+2, -1481126.1, -1533839.9, -54.995514, -0.0031808373, -0.0011600214, -1481126.1, 23733.553, 0.0, 5.014222, 4.9799023 
6.2676734e+1, 1.5142299e+2, -1432180.6, -1484840.6, -63.005806, -0.0045366264, -0.0010256795, -1432180.6, 23874.361, 0.0, 5.014185, 4.979901 
6.267672e+1, 1.5640317e+2, -1384663.6, -1438818.5, -71.08681, -0.005883266, -0.00043428625, -1384663.5, 22586.852, 0.0, 5.0141473, 4.9789047 
6.2676686e+1, 1.6137949e+2, -1343886.0, -1407101.1, -155.28993, -0.0070845154, 0.0049607875, -1343885.6, 14597.726, 0.0, 5.01415, 4.973103 
6.2676585e+1, 1.6635269e+2, -1294415.3, -1357661.3, -187.7486, -0.007975301, 0.003016545, -1294414.8, 15331.781, 0.0, 5.0142365, 4.9731665 
6.267648e+1, 1.7132592e+2, -1245027.9, -1308410.8, -191.48935, -0.008835794, 0.0011175474, -1245027.3, 15982.191, 0.0, 5.0143256, 4.9731665 
6.267637e+1, 1.7629915e+2, -1196778.9, -1261566.4, -195.28502, -0.009676708, -0.0003895717, -1196778.3, 15494.141, 0.0, 5.014415, 4.9723587 
6.26762e+1, 1.8126881e+2, -1156231.6, -1231079.5, -525.0044, -0.009606166, 0.0063945865, -1156228.0, 7342.6333, 0.0, 5.014505, 4.96602 
6.26758e+1, 1.8623522e+2, -1106538.9, -1181260.9, -614.991, -0.007525656, 0.00612677, -1106533.9, 8367.519, 0.0, 5.014597, 4.9661865 
6.2675387e+1, 1.9120161e+2, -1057078.8, -1131943.0, -578.0614, -0.005341358, 0.0056867264, -1057074.3, 9157.841, 0.0, 5.0146894, 4.966186 
6.2674975e+1, 1.9616804e+2, -1008512.44, -1084543.4, -540.8917, -0.003128707, 0.0055682203, -1008508.56, 9054.138, 0.0, 5.0147815, 4.9655356 
6.267457e+1, 2.0113093e+2, -968207.06, -1054831.4, -225.87784, -0.0021839882, 0.013782198, -968206.44, 721.2667, 0.0, 5.0148463, 4.958859 
6.267413e+1, 2.0609055e+2, -918696.3, -1004896.56, -76.09082, -0.005002591, 0.01654537, -918696.25, 1628.2104, 0.0, 5.0148196, 4.9590993 
6.267369e+1, 2.1105023e+2, -869534.06, -955684.5, -28.490852, -0.008031938, 0.019160071, -869534.06, 2186.8967, 0.0, 5.014786, 4.959099 
6.2673247e+1, 2.1600989e+2, -821037.6, -907927.0, 19.628454, -0.011038638, 0.021905916, -821037.6, 2079.8342, 0.0, 5.0147514, 4.958599 
6.267301e+1, 2.2096562e+2, -781049.44, -879069.9, 200.82869, -0.012823673, 0.029347, -781049.0, -6496.971, 0.0, 5.0147676, 4.9515696 
6.267336e+1, 2.2591642e+2, -730841.06, -828717.9, 150.10559, -0.010738425, 0.01563103, -730840.8, -4806.4907, 0.0, 5.0149493, 4.95183 
6.2673753e+1, 2.3086709e+2, -680944.44, -779125.0, 42.286156, -0.008274576, 0.0005875861, -680944.44, -3426.77, 0.0, 5.0151443, 4.9518304 
6.267414e+1, 2.3581775e+2, -631702.7, -730983.0, -63.0593, -0.0057396432, -0.0144971255, -631702.6, -2701.6086, 0.0, 5.015338, 4.9513288 
6.267434e+1, 2.4076559e+2, -591747.4, -703690.3, -642.9777, -0.0025066433, -0.009696777, -591743.7, -11233.527, 0.0, 5.0155587, 4.943565 
6.2673956e+1, 2.4571179e+2, -540121.2, -651733.0, -755.7287, 0.0009697384, 0.007270365, -540116.06, -8088.061, 0.0, 5.016026, 4.9442244 
6.2673503e+1, 2.506581e+2, -489266.78, -601689.6, -693.434, 0.0043277107, 0.023459362, -489262.53, -5718.0225, 0.0, 5.0165253, 4.9442205 
6.267302e+1, 2.556044e+2, -438671.78, -552223.9, -633.49524, 0.0077697607, 0.039888795, -438668.25, -3607.4426, 0.0, 5.017019, 4.9440184 
6.267249e+1, 2.605448e+2, -401158.53, -532834.7, -1254.1139, 0.012983868, 0.05554086, -401146.6, -14508.072, 0.0, 5.017575, 4.933122 
6.267107e+1, 2.6547444e+2, -349963.56, -482917.75, -1928.566, 0.01818235, -0.0020904534, -349935.6, -11600.276, 0.0, 5.018125, 4.932755 
6.26693e+1, 2.7040318e+2, -298624.56, -432753.94, -2041.7045, 0.022739671, -0.06952979, -298593.5, -8551.479, 0.0, 5.018639, 4.932734 
6.266726e+1, 2.7533177e+2, -247328.92, -382762.78, -2041.278, 0.026798764, -0.13927689, -247298.17, -5547.5957, 0.0, 5.019129, 4.932666 
6.266909e+1, 2.8026307e+2, -219555.45, -391967.53, 3296.8157, 0.049446072, -0.044835124, -219492.44, -26061.018, 0.0, 5.020888, 4.9114494 
6.2673265e+1, 2.8519633e+2, -149341.02, -292842.84, 2522.1416, 0.048255656, 0.04302515, -149296.7, -4207.572, 0.0, 5.02093, 4.928491 
6.267492e+1, 2.901251e+2, -103673.18, -245262.89, 1712.8062, 0.02788872, 0.01662263, -103652.47, -6861.958, 0.0, 5.0195694, 4.9284124 
6.2676346e+1, 2.950537e+2, -57950.234, -197687.05, 976.719, 0.0077518644, -0.011062183, -57943.41, -9450.08, 0.0, 5.018156, 4.928334 
6.2678087e+1, 2.9999337e+2, -12357.267, -120285.71, 379.44516, 0.0007114485, -0.018141836, -12355.933, -12260.552, 0.0, 5.0172896, 4.947572 
6.267776e+1, 3.0496398e+2, -2673.1877, -102099.25, -487.04556, 0.0182983, 0.055934772, -2670.802, -2670.802, 0.0, 5.0179086, 4.9519286 
6.267566e+1, 3.0994183e+2, 141.98885, -100261.62, -893.29834, 0.029231671, 0.14246093, 149.93596, 149.93596, 0.0, 5.0184536, 4.9522014 
6.26726e+1, 3.1491974e+2, 3039.1514, -98508.81, -904.07465, 0.03524761, 0.22472242, 3047.1997, 3047.1997, 0.0, 5.018926, 4.952473 
6.7690766e+1, 1.2152248e+2, -1710270.3, -1745468.3, 144.5043, 0.0066045555, -0.008771419, -1710269.6, 38806.64, 0.0, 5.0140405, 4.991091 
6.769073e+1, 1.2650916e+2, -1669043.0, -1712549.8, 69.23155, 0.0032050714, -0.0033031374, -1669042.9, 31160.543, 0.0, 5.014103, 4.9857855 
6.7690897e+1, 1.314945e+2, -1619863.6, -1663463.1, 69.51287, 0.002074397, -0.008367169, -1619863.5, 31484.484, 0.0, 5.0141635, 4.985784 
6.769106e+1, 1.3647984e+2, -1572895.6, -1618916.6, 69.39942, 0.0009262776, -0.012167289, -1572895.5, 29597.344, 0.0, 5.0142236, 4.984279 
6.769115e+1, 1.4146258e+2, -1530337.6, -1583374.4, -36.07186, -0.000464068, -0.000080833874, -1530337.6, 23325.586, 0.0, 5.014257, 4.9797287 
6.769104e+1, 1.4644271e+2, -1481138.6, -1533867.4, -83.7816, -0.0024617333, -0.00007511986, -1481138.5, 23720.736, 0.0, 5.0142226, 4.979893 
6.7690927e+1, 1.514228e+2, -1432193.3, -1484868.1, -90.95112, -0.0044872137, -0.0008234095, -1432193.0, 23862.844, 0.0, 5.014185, 4.9798923 
6.7690814e+1, 1.5640287e+2, -1384676.1, -1438845.8, -98.185234, -0.006510809, -0.001113905, -1384676.0, 22576.623, 0.0, 5.0141473, 4.978896 
6.769074e+1, 1.6137916e+2, -1343889.6, -1407110.9, -107.96074, -0.008101603, 0.0038592785, -1343889.5, 14596.879, 0.0, 5.01415, 4.9730997 
6.769075e+1, 1.6635244e+2, -1294419.1, -1357671.9, -119.611786, -0.008747657, 0.0025615038, -1294418.9, 15330.222, 0.0, 5.014237, 4.973163 
6.769076e+1, 1.7132571e+2, -1245031.6, -1308421.1, -122.355484, -0.009356253, 0.0013521246, -1245031.4, 15980.233, 0.0, 5.014326, 4.973163 
6.7690766e+1, 1.76299e+2, -1196782.6, -1261576.5, -125.16537, -0.009960634, 0.00053372805, -1196782.4, 15491.79, 0.0, 5.0144153, 4.9723554 
6.769072e+1, 1.812687e+2, -1156173.6, -1230960.9, -455.1158, -0.009502055, 0.007523654, -1156170.8, 7401.265, 0.0, 5.0145054, 4.9660597 
6.76905e+1, 1.8623507e+2, -1106468.1, -1181115.0, -543.2399, -0.006547321, 0.006509753, -1106464.1, 8438.743, 0.0, 5.0145974, 4.9662356 
6.769027e+1, 1.9120146e+2, -1057008.8, -1131797.4, -504.98782, -0.0034767382, 0.0053038257, -1057005.4, 9228.248, 0.0, 5.01469, 4.9662356 
6.769004e+1, 1.9616784e+2, -1008443.4, -1084398.1, -466.50504, -0.00039735195, 0.004421357, -1008440.5, 9123.758, 0.0, 5.014782, 4.965585 
6.7689735e+1, 2.0113073e+2, -968124.0, -1054652.1, -219.34392, 0.00089857366, 0.012058921, -968123.44, 805.6264, 0.0, 5.0148463, 4.95892 
6.768918e+1, 2.060904e+2, -918613.3, -1004715.3, -100.24259, -0.0028526145, 0.014605223, -918613.2, 1711.823, 0.0, 5.014819, 4.9591613 
6.7688596e+1, 2.1105011e+2, -869451.8, -955502.9, -50.58726, -0.006904598, 0.01700909, -869451.75, 2268.8972, 0.0, 5.0147853, 4.9591613 
6.768802e+1, 2.1600981e+2, -820956.1, -907745.0, -0.40949622, -0.010960473, 0.019543901, -820956.1, 2160.237, 0.0, 5.0147505, 4.958662 
6.768771e+1, 2.2096561e+2, -781135.94, -879260.2, 296.07944, -0.013649774, 0.027249904, -781135.0, -6584.565, 0.0, 5.014767, 4.9515047 
6.76882e+1, 2.2591652e+2, -731012.6, -829087.3, 316.73798, -0.01206647, 0.016094556, -731011.6, -4979.0117, 0.0, 5.014948, 4.951704 
6.768875e+1, 2.3086736e+2, -681120.25, -779490.8, 213.91992, -0.010157956, 0.0038923465, -681119.75, -3604.122, 0.0, 5.0151405, 4.951706 
6.768929e+1, 2.3581818e+2, -631882.7, -731345.25, 113.56062, -0.0082528675, -0.00832122, -631882.56, -2883.865, 0.0, 5.0153317, 4.9512057 
6.7689675e+1, 2.4076605e+2, -591721.7, -703534.7, -378.24637, -0.0056078583, -0.002472847, -591720.4, -11212.088, 0.0, 5.015544, 4.943623 
6.7689824e+1, 2.457119e+2, -540010.25, -651365.3, -389.25607, -0.0015939579, 0.009669099, -540008.94, -7979.6113, 0.0, 5.0160084, 4.944357 
6.7689955e+1, 2.506578e+2, -489154.38, -601324.44, -319.2314, 0.0024195213, 0.02063178, -489153.47, -5604.295, 0.0, 5.016508, 4.9443517 
6.769005e+1, 2.556037e+2, -438557.8, -551861.25, -251.57953, 0.006445668, 0.031867415, -438557.25, -3488.437, 0.0, 5.0170026, 4.9441485 
6.7690253e+1, 2.6054397e+2, -401224.8, -532728.5, -558.8864, 0.013071575, 0.04500914, -401222.44, -14574.67, 0.0, 5.0175366, 4.9331794 
6.7690206e+1, 2.6547462e+2, -350486.66, -483293.72, -907.348, 0.023424942, 0.000022034536, -350480.47, -12142.651, 0.0, 5.0180135, 4.9326806 
6.768982e+1, 2.704046e+2, -299289.2, -432908.75, -924.5804, 0.03224478, -0.05235866, -299282.8, -9247.24, 0.0, 5.0184574, 4.932745 
6.7689115e+1, 2.7533454e+2, -248135.31, -382696.84, -828.2373, 0.039228678, -0.10673497, -248130.2, -6396.3047, 0.0, 5.0188766, 4.932762 
6.7691934e+1, 2.8026623e+2, -218426.17, -388440.44, 5005.2915, 0.05165191, -0.015851073, -218278.94, -24865.213, 0.0, 5.0207696, 4.91276 
6.7694736e+1, 2.851984e+2, -149932.83, -294262.5, 1824.4465, 0.041290794, 0.061320227, -149909.77, -4827.0317, 0.0, 5.020962, 4.9280972 
6.769461e+1, 2.901264e+2, -104193.086, -246411.78, 1149.8597, 0.019625304, 0.035346095, -104183.79, -7392.54, 0.0, 5.019605, 4.928082 
6.769423e+1, 2.9505426e+2, -58399.39, -198566.31, 548.631, -0.003242006, 0.0068691275, -58397.246, -9895.621, 0.0, 5.0181956, 4.9280663 
6.769426e+1, 2.9999423e+2, -10712.414, -115367.125, 1398.6508, -0.019228306, -0.0016227002, -10693.726, -10593.606, 0.0, 5.017227, 4.9494414 
6.769295e+1, 3.0496383e+2, -3826.7715, -101225.54, 1820.1039, -0.025874209, 0.07024773, -3792.7708, -3792.7708, 0.0, 5.017507, 4.9526696 
6.768979e+1, 3.0994028e+2, -1798.2703, -98933.734, 1752.3752, -0.044305857, 0.16003378, -1766.6667, -1766.6667, 0.0, 5.017735, 4.953187 
6.76855e+1, 3.1491747e+2, 312.48523, -96726.58, 2080.0857, -0.07244436, 0.25036472, 357.05252, 357.05252, 0.0, 5.01789, 4.9537034 
7.2704726e+1, 1.2152325e+2, -1709842.4, -1744591.4, 180.89778, 0.005652373, 0.0012342643, -1709841.4, 39226.652, 0.0, 5.0140395, 4.9913793 
7.2704864e+1, 1.2650764e+2, -1669042.3, -1712540.8, 114.132034, 0.0035041545, -0.016621921, -1669041.9, 31175.4, 0.0, 5.014102, 4.985789 
7.270514e+1, 1.3149358e+2, -1619862.6, -1663454.6, 115.65071, 0.0028412763, -0.01590606, -1619862.3, 31493.713, 0.0, 5.0141625, 4.9857874 
7.2705406e+1, 1.3647948e+2, -1572894.3, -1618908.5, 116.76067, 0.002145446, -0.0139272455, -1572894.0, 29600.94, 0.0, 5.014223, 4.984282 
7.2705543e+1, 1.4146258e+2, -1530346.8, -1583393.4, -48.18586, 0.00088511186, 0.001793743, -1530346.8, 23314.973, 0.0, 5.014257, 4.979723 
7.270534e+1, 1.4644264e+2, -1481151.4, -1533894.8, -112.61295, -0.0017417126, 0.00103245, -1481151.3, 23707.723, 0.0, 5.0142226, 4.9798846 
7.2705114e+1, 1.5142262e+2, -1432206.0, -1484895.4, -118.94169, -0.004436825, -0.0006142128, -1432205.8, 23851.133, 0.0, 5.014185, 4.979883 
7.2704905e+1, 1.564026e+2, -1384688.9, -1438873.0, -125.32893, -0.0071373163, -0.0018023388, -1384688.6, 22566.207, 0.0, 5.0141473, 4.978887 
7.27048e+1, 1.6137883e+2, -1343897.0, -1407127.9, -60.44761, -0.009119988, 0.0027736868, -1343897.0, 14592.43, 0.0, 5.0141506, 4.9730945 
7.270491e+1, 1.6635215e+2, -1294423.4, -1357682.4, -51.53917, -0.009522196, 0.0021219691, -1294423.4, 15328.455, 0.0, 5.014237, 4.9731593 
7.270503e+1, 1.7132552e+2, -1245035.8, -1308431.3, -53.28581, -0.0098790685, 0.0015901229, -1245035.8, 15978.08, 0.0, 5.0143266, 4.9731593 
7.2705156e+1, 1.7629887e+2, -1196786.8, -1261586.5, -55.109894, -0.01024709, 0.0014483638, -1196786.6, 15489.251, 0.0, 5.0144153, 4.972352 
7.2705245e+1, 1.812686e+2, -1156120.4, -1230851.6, -384.95374, -0.00939661, 0.008675716, -1156118.4, 7455.1816, 0.0, 5.014506, 4.9660964 
7.270521e+1, 1.8623495e+2, -1106397.8, -1180968.9, -471.64764, -0.0055671763, 0.0069138743, -1106394.8, 8509.625, 0.0, 5.0145984, 4.966285 
7.2705156e+1, 1.912013e+2, -1056939.4, -1131651.5, -432.07303, -0.0016111634, 0.0049244063, -1056936.9, 9298.325, 0.0, 5.0146904, 4.966285 
7.270511e+1, 1.9616766e+2, -1008374.8, -1084252.4, -392.27713, 0.0023341032, 0.0032603168, -1008372.8, 9193.061, 0.0, 5.014782, 4.965635 
7.270491e+1, 2.0113055e+2, -968048.4, -1054488.0, -213.39673, 0.0039847335, 0.010363804, -968047.9, 882.47974, 0.0, 5.0148463, 4.958976 
7.2704226e+1, 2.0609027e+2, -918530.94, -1004533.5, -124.97349, -0.0007026539, 0.012690893, -918530.8, 1794.7114, 0.0, 5.0148187, 4.9592233 
7.2703505e+1, 2.1105e+2, -869370.25, -955320.7, -73.26288, -0.00578237, 0.014856725, -869370.2, 2350.1826, 0.0, 5.014785, 4.9592233 
7.270279e+1, 2.1600975e+2, -820875.3, -907562.44, -21.02676, -0.010892519, 0.0171533, -820875.3, 2239.9336, 0.0, 5.01475, 4.958724 
7.270241e+1, 2.209656e+2, -781233.0, -879469.9, 391.87067, -0.014484505, 0.025205847, -781231.44, -6682.588, 0.0, 5.014767, 4.951432 
7.270304e+1, 2.2591664e+2, -731186.4, -829454.75, 481.34244, -0.013418106, 0.016607333, -731184.06, -5153.2163, 0.0, 5.014946, 4.951577 
7.270374e+1, 2.3086762e+2, -681298.2, -779854.7, 383.5268, -0.012081228, 0.007186991, -681296.7, -3783.093, 0.0, 5.0151367, 4.9515805 
7.270442e+1, 2.3581862e+2, -632064.9, -731705.6, 288.15457, -0.010822286, -0.0022147961, -632064.06, -3067.6802, 0.0, 5.015326, 4.951082 
7.2704995e+1, 2.4076654e+2, -591726.8, -703430.9, -123.61777, -0.008732199, 0.004897592, -591726.7, -11220.396, 0.0, 5.0155296, 4.943661 
7.2705674e+1, 2.4571203e+2, -539908.06, -650989.1, -23.073442, -0.0041551776, 0.012278623, -539908.06, -7877.6216, 0.0, 5.0159907, 4.9444885 
7.2706383e+1, 2.506575e+2, -489050.63, -600950.8, 54.679764, 0.0005210567, 0.017924339, -489050.6, -5496.892, 0.0, 5.0164914, 4.9444823 
7.2707057e+1, 2.5560302e+2, -438452.53, -551490.2, 130.04332, 0.0051385523, 0.023875514, -438452.38, -3375.6262, 0.0, 5.0169864, 4.944278 
7.2708017e+1, 2.6054314e+2, -401374.06, -532735.7, 63.305523, 0.013384401, 0.0343762, -401374.03, -14716.689, 0.0, 5.0174985, 4.933183 
7.270919e+1, 2.654747e+2, -351047.8, -483634.53, -9.750001, 0.028133951, 0.0010786866, -351047.8, -12706.8, 0.0, 5.017903, 4.9325895 
7.271003e+1, 2.7040592e+2, -299991.66, -433028.28, 69.03895, 0.040236924, -0.037373494, -299991.63, -9961.472, 0.0, 5.0182757, 4.9327393 
7.27105e+1, 2.753372e+2, -248979.31, -382595.5, 261.41275, 0.04916601, -0.077509254, -248978.8, -7260.152, 0.0, 5.018625, 4.932842 
7.271465e+1, 2.8026944e+2, -217952.6, -386374.63, 6754.3545, 0.054931555, 0.014033785, -217682.14, -24286.518, 0.0, 5.0206523, 4.9135494 
7.2716445e+1, 2.852006e+2, -150606.81, -295602.25, 995.41315, 0.03802605, 0.08303951, -150599.98, -5525.066, 0.0, 5.020994, 4.9276853 
7.2714555e+1, 2.901278e+2, -104795.07, -247480.38, 455.50607, 0.014172439, 0.05568485, -104793.62, -8002.215, 0.0, 5.019641, 4.9277325 
7.271236e+1, 2.950548e+2, -58930.535, -199364.92, -10.945865, -0.012314332, 0.024607493, -58930.53, -10420.366, 0.0, 5.018235, 4.9277797 
7.271071e+1, 2.9999495e+2, -9628.765, -111463.39, 2109.2417, -0.03648124, 0.01454074, -9585.096, -9478.572, 0.0, 5.0171647, 4.9508953 
7.2707903e+1, 3.0496335e+2, -5091.5166, -100241.63, 3778.181, -0.068294235, 0.08159656, -4941.73, -4941.73, 0.0, 5.017106, 4.9533587 
7.270301e+1, 3.099381e+2, -3849.2288, -97496.29, 4048.853, -0.11878539, 0.16906999, -3674.5017, -3674.5017, 0.0, 5.017017, 4.9541197 
7.2696805e+1, 3.1491438e+2, -2524.4873, -94835.38, 4714.949, -0.18377005, 0.26189142, -2284.2876, -2284.2876, 0.0, 5.0168552, 4.9548807 
7.771869e+1, 1.21524e+2, -1709468.4, -1743654.8, 227.40509, 0.004703316, 0.010946829, -1709466.9, 39593.25, 0.0, 5.0140023, 4.991705 
7.771901e+1, 1.2650612e+2, -1669093.9, -1712557.6, 162.37689, 0.0038052553, -0.029865019, -1669093.3, 31137.803, 0.0, 5.014084, 4.9857917 
7.7719384e+1, 1.3149263e+2, -1619885.1, -1663457.4, 162.51498, 0.0036036547, -0.023397027, -1619884.5, 31479.361, 0.0, 5.014154, 4.9857903 
7.771976e+1, 1.3647912e+2, -1572910.9, -1618908.8, 163.27193, 0.0033594053, -0.015666604, -1572910.3, 29586.674, 0.0, 5.0142164, 4.984285 
7.771994e+1, 1.4146258e+2, -1530386.9, -1583435.4, -60.725346, 0.0022358836, 0.0036958195, -1530386.8, 23273.37, 0.0, 5.0142484, 4.979713 
7.7719635e+1, 1.4644256e+2, -1481189.1, -1533934.0, -141.76035, -0.0010164595, 0.0021612607, -1481188.8, 23669.725, 0.0, 5.0142145, 4.9798756 
7.771931e+1, 1.5142246e+2, -1432247.8, -1484936.3, -145.58974, -0.004376828, -0.00039810236, -1432247.4, 23810.44, 0.0, 5.0141754, 4.9798746 
7.7718997e+1, 1.5640233e+2, -1384740.3, -1438918.1, -148.51065, -0.007748478, -0.002498361, -1384739.8, 22517.32, 0.0, 5.0141344, 4.978878 
7.771885e+1, 1.613785e+2, -1343954.4, -1407174.0, -5.654782, -0.010122721, 0.0017054466, -1343954.4, 14538.069, 0.0, 5.014135, 4.9730864 
7.771908e+1, 1.663519e+2, -1294476.1, -1357715.5, 24.525278, -0.010287056, 0.0016978595, -1294476.1, 15278.2705, 0.0, 5.014221, 4.973156 
7.771931e+1, 1.7132531e+2, -1245102.0, -1308470.6, 24.892908, -0.0103950845, 0.0018295625, -1245102.0, 15913.987, 0.0, 5.0143056, 4.973156 
7.771955e+1, 1.7629874e+2, -1196878.4, -1261637.8, 25.537247, -0.010526899, 0.0023500891, -1196878.4, 15399.249, 0.0, 5.0143857, 4.9723487 
7.7719766e+1, 1.8126851e+2, -1156178.1, -1230802.1, -301.40018, -0.009280773, 0.0098454375, -1156176.9, 7398.08, 0.0, 5.01447, 4.96613 
7.771991e+1, 1.8623482e+2, -1106419.1, -1180865.4, -384.99747, -0.004580679, 0.007336417, -1106417.1, 8488.753, 0.0, 5.0145674, 4.9663343 
7.7720046e+1, 1.9120114e+2, -1056957.5, -1131546.3, -342.20834, 0.00025797563, 0.0045480602, -1056956.0, 9280.691, 0.0, 5.014661, 4.9663343 
7.772018e+1, 1.9616748e+2, -1008402.7, -1084151.3, -299.23358, 0.005069209, 0.002086478, -1008401.5, 9165.924, 0.0, 5.014749, 4.9656844 
7.7720076e+1, 2.0113038e+2, -968086.6, -1054388.9, -187.51837, 0.0070798765, 0.00869854, -968086.25, 845.3891, 0.0, 5.0148096, 4.9590263 
7.771927e+1, 2.0609012e+2, -918548.2, -1004397.9, -132.75728, 0.0014537413, 0.010802184, -918548.0, 1777.9934, 0.0, 5.0147843, 4.9592843 
7.771841e+1, 2.110499e+2, -869397.25, -955188.8, -82.32094, -0.0046524988, 0.012699428, -869397.2, 2322.874, 0.0, 5.014747, 4.959285 
7.771756e+1, 2.1600968e+2, -820930.44, -907442.75, -31.113155, -0.010810289, 0.0147257, -820930.44, 2183.704, 0.0, 5.014703, 4.958786 
7.771711e+1, 2.2096556e+2, -781505.06, -879775.06, 500.45914, -0.015293251, 0.02320185, -781502.5, -6955.317, 0.0, 5.0147095, 4.9513526 
7.771788e+1, 2.2591676e+2, -731544.6, -829904.44, 667.8612, -0.014761642, 0.017151695, -731540.1, -5511.1406, 0.0, 5.01488, 4.9514503 
7.7718717e+1, 2.308679e+2, -681717.94, -780327.3, 587.5382, -0.014006718, 0.010438806, -681714.44, -4202.918, 0.0, 5.0150485, 4.951455 
7.7719545e+1, 2.3581904e+2, -632586.25, -732219.5, 509.74506, -0.013394067, 0.003763598, -632583.6, -3589.5884, 0.0, 5.015201, 4.9509583 
7.772029e+1, 2.4076703e+2, -592204.4, -703589.7, 171.02829, -0.011808036, 0.012330487, -592204.1, -11699.903, 0.0, 5.01536, 4.9436765 
7.772151e+1, 2.4571215e+2, -540315.7, -650847.2, 328.73874, -0.00664203, 0.015048095, -540314.7, -8283.222, 0.0, 5.015797, 4.9446154 
7.77228e+1, 2.5065723e+2, -489563.22, -600860.0, 337.49344, -0.0012840054, 0.015351679, -489562.2, -6004.0293, 0.0, 5.016261, 4.9446077 
7.772405e+1, 2.5560233e+2, -439120.4, -551472.8, 338.6039, 0.003957743, 0.01602005, -439119.4, -4034.8245, 0.0, 5.016701, 4.9444017 
7.772576e+1, 2.605423e+2, -402715.2, -533390.44, 318.87604, 0.0140975, 0.023821475, -402714.44, -16047.247, 0.0, 5.017071, 4.9331245 
7.7728033e+1, 2.654747e+2, -354005.44, -485063.2, 238.49365, 0.032741617, 0.0009967993, -354005.0, -15659.6875, 0.0, 5.016954, 4.9324646 
7.772995e+1, 2.7040702e+2, -305055.47, -435133.6, 172.82457, 0.047559936, -0.02525135, -305055.25, -15028.345, 0.0, 5.016548, 4.932695 
7.7731454e+1, 2.7533948e+2, -256799.73, -385661.38, 214.92908, 0.058005296, -0.05317584, -256799.38, -15092.501, 0.0, 5.0158787, 4.932877 
7.7737284e+1, 2.8027236e+2, -227478.67, -389884.63, 7537.8184, 0.06115943, 0.04232415, -227129.56, -33749.445, 0.0, 5.017184, 4.9138303 
7.773844e+1, 2.8520274e+2, -158012.58, -299650.4, -406.3834, 0.039850324, 0.10642437, -158011.4, -12943.736, 0.0, 5.018639, 4.9272804 
7.773478e+1, 2.9012915e+2, -109720.23, -250225.98, -468.93457, 0.012518961, 0.076823816, -109718.664, -12926.817, 0.0, 5.0181637, 4.9273753 
7.773078e+1, 2.950553e+2, -62597.35, -201356.38, -673.7546, -0.018629597, 0.042198457, -62594.08, -14075.159, 0.0, 5.0171967, 4.9274707 
7.7727485e+1, 2.9999548e+2, -12662.415, -110034.79, 2621.5417, -0.05001314, 0.03088271, -12591.887, -12477.892, 0.0, 5.015824, 4.9519415 
7.7722716e+1, 3.0496246e+2, -15783.11, -102931.42, 7240.1504, -0.1065755, 0.088933155, -15185.705, -15185.705, 0.0, 5.013277, 4.9540744 
7.7715486e+1, 3.099353e+2, -24940.23, -103764.04, 11416.381, -0.18965286, 0.16607521, -23320.05, -23320.05, 0.0, 5.0093193, 4.9551353 
7.770678e+1, 3.1491038e+2, -37354.656, -106125.414, 17626.406, -0.29136577, 0.2528557, -33100.1, -33100.1, 0.0, 5.0040746, 4.9561996 
8.2732654e+1, 1.21523924e+2, -1709352.4, -1743971.5, 132.02354, 0.003771088, 0.012929175, -1709351.9, 39708.508, 0.0, 5.0141177, 4.9915457 
8.2733136e+1, 1.2650567e+2, -1668807.6, -1712335.5, 84.83703, 0.0038795872, -0.031656306, -1668807.5, 31427.873, 0.0, 5.0141587, 4.9858303 
8.2733554e+1, 1.3149232e+2, -1619679.5, -1663272.0, 138.13857, 0.0034214566, -0.024406785, -1619679.1, 31687.844, 0.0, 5.014202, 4.9858303 
8.2733965e+1, 1.3647892e+2, -1572762.5, -1618748.1, 190.68806, 0.0030305902, -0.015891317, -1572761.6, 29737.115, 0.0, 5.0142455, 4.984326 
8.2734185e+1, 1.4146245e+2, -1530301.9, -1583391.3, -33.89857, 0.0020742936, 0.0039098114, -1530301.9, 23359.373, 0.0, 5.0142756, 4.9797153 
8.2733923e+1, 1.464424e+2, -1481036.4, -1533875.9, -128.86232, -0.00054662465, 0.002223707, -1481036.0, 23823.918, 0.0, 5.0142694, 4.979869 
8.2733643e+1, 1.5142226e+2, -1432003.6, -1484830.0, -137.06348, -0.0032415448, -0.00049714756, -1432003.3, 24056.186, 0.0, 5.014261, 4.979869 
8.273337e+1, 1.5640211e+2, -1384399.9, -1438761.6, -145.41293, -0.0059248577, -0.0027613584, -1384399.5, 22859.53, 0.0, 5.0142517, 4.9788737 
8.2733256e+1, 1.6137828e+2, -1343624.5, -1406985.9, 41.68626, -0.007920263, 0.0013709412, -1343624.4, 14870.001, 0.0, 5.0142407, 4.9730983 
8.2733476e+1, 1.663517e+2, -1294479.4, -1357681.1, 102.55193, -0.00840968, 0.0015123172, -1294479.1, 15276.945, 0.0, 5.014212, 4.973171 
8.273371e+1, 1.7132516e+2, -1245441.8, -1308597.4, 125.68206, -0.008822675, 0.0017989386, -1245441.5, 15575.934, 0.0, 5.014182, 4.9731717 
8.273394e+1, 1.7629862e+2, -1197540.5, -1261917.9, 148.8618, -0.0092122145, 0.0024706072, -1197540.1, 14738.692, 0.0, 5.014152, 4.972365 
8.2734185e+1, 1.8126841e+2, -1156994.0, -1231102.8, -100.22695, -0.008209991, 0.010005257, -1156993.9, 6581.9927, 0.0, 5.014173, 4.9661684 
8.273442e+1, 1.8623476e+2, -1107082.6, -1181078.8, -178.90016, -0.0038318804, 0.007327309, -1107082.3, 7824.0967, 0.0, 5.014319, 4.9663787 
8.273465e+1, 1.9120109e+2, -1057449.4, -1131676.6, -154.96762, 0.00072017167, 0.0043609138, -1057449.0, 8787.746, 0.0, 5.0144706, 4.9663787 
8.2734877e+1, 1.9616747e+2, -1008711.1, -1084194.0, -130.8049, 0.0052893003, 0.001715961, -1008710.94, 8856.256, 0.0, 5.014622, 4.9657288 
8.273485e+1, 2.0113036e+2, -968275.0, -1054356.9, -109.06071, 0.007258894, 0.007952143, -968274.8, 656.30664, 0.0, 5.014721, 4.959078 
8.273407e+1, 2.0609008e+2, -918785.94, -1004405.8, -106.34284, 0.0022074487, 0.009235657, -918785.8, 1539.766, 0.0, 5.014682, 4.959329 
8.2733244e+1, 2.1104981e+2, -869659.4, -955210.7, -80.72312, -0.0031848713, 0.0102691185, -869659.25, 2060.53, 0.0, 5.0146356, 4.959329 
8.273243e+1, 2.1600954e+2, -821198.06, -907470.06, -55.124187, -0.008532191, 0.011405303, -821198.06, 1915.9952, 0.0, 5.014589, 4.95883 
8.273201e+1, 2.2096546e+2, -781926.4, -879986.4, 564.57227, -0.012519911, 0.019839514, -781923.1, -7376.32, 0.0, 5.01456, 4.9513526 
8.273277e+1, 2.2591692e+2, -732493.8, -830381.25, 885.4371, -0.012770518, 0.016489992, -732485.8, -6459.368, 0.0, 5.014548, 4.951444 
8.273362e+1, 2.3086831e+2, -683189.4, -781047.2, 933.15125, -0.01275082, 0.012501567, -683180.5, -5673.6323, 0.0, 5.014532, 4.9514484 
8.2734454e+1, 2.358197e+2, -634535.25, -733161.3, 984.3714, -0.0127137, 0.008354128, -634525.4, -5538.014, 0.0, 5.0145154, 4.9509516 
8.273526e+1, 2.4076773e+2, -594365.4, -704426.3, 967.94507, -0.01158879, 0.016853249, -594356.9, -13859.259, 0.0, 5.01454, 4.943771 
8.273673e+1, 2.4571244e+2, -543206.94, -652147.5, 1291.9121, -0.006839918, 0.014745304, -543191.6, -11162.005, 0.0, 5.014739, 4.944663 
8.273831e+1, 2.5065714e+2, -493191.38, -602524.56, 1344.2313, -0.0016702194, 0.010814249, -493174.84, -9614.094, 0.0, 5.0149527, 4.944648 
8.273985e+1, 2.556019e+2, -443428.8, -553473.7, 1390.9552, 0.0036219924, 0.00788222, -443411.25, -8320.148, 0.0, 5.0151625, 4.944434 
8.2741934e+1, 2.6054198e+2, -406807.72, -534961.44, 1644.7318, 0.01462708, 0.015723806, -406786.63, -20113.303, 0.0, 5.0155187, 4.9333515 
8.274489e+1, 2.6547548e+2, -355589.2, -485475.53, 2438.283, 0.036159784, 0.0032790108, -355543.44, -17201.963, 0.0, 5.0162234, 4.9327884 
8.274751e+1, 2.704085e+2, -303408.94, -434273.4, 3289.768, 0.055882704, -0.017954525, -303326.28, -13309.172, 0.0, 5.016939, 4.9330096 
8.274972e+1, 2.7534115e+2, -251230.94, -383302.6, 4261.368, 0.073337644, -0.047710735, -251093.58, -9397.221, 0.0, 5.0176454, 4.9331837 
8.2756025e+1, 2.8027287e+2, -222907.95, -381287.1, 13341.429, 0.08275329, 0.018255373, -221791.97, -28409.861, 0.0, 5.0181313, 4.916373 
8.275646e+1, 2.8520346e+2, -164367.16, -300385.56, 4995.4717, 0.05391352, 0.079608224, -164183.94, -19117.729, 0.0, 5.017164, 4.927351 
8.2751906e+1, 2.901309e+2, -117987.84, -252582.19, 3667.441, 0.020503918, 0.067486145, -117887.984, -21108.307, 0.0, 5.015998, 4.9271846 
8.274704e+1, 2.9505762e+2, -71521.23, -204816.22, 2457.332, -0.012610319, 0.04695154, -71475.94, -22975.295, 0.0, 5.014814, 4.9270186 
8.274279e+1, 2.999996e+2, -16791.488, -104443.875, 4929.152, -0.041710675, 0.048588976, -16515.168, -16439.078, 0.0, 5.013725, 4.954672 
8.273658e+1, 3.049671e+2, -13020.408, -90713.41, 8219.988, -0.09129362, 0.087766595, -12160.249, -12160.249, 0.0, 5.013205, 4.9585295 
8.2728e+1, 3.0994034e+2, -11144.082, -83072.48, 9331.132, -0.15519628, 0.13032323, -9953.286, -9953.286, 0.0, 5.012761, 4.961105 
8.271814e+1, 3.149174e+2, -8858.4375, -75848.164, 10732.155, -0.22430082, 0.17674021, -7181.081, -7181.081, 0.0, 5.012297, 4.963682 
8.774659e+1, 1.2152311e+2, -1710189.8, -1745669.4, 108.599945, 0.0018823376, 0.008324371, -1710189.5, 38878.563, 0.0, 5.014117, 4.990989 
8.7747246e+1, 1.265061e+2, -1668698.1, -1712110.3, 115.28256, 0.0033436245, -0.023851601, -1668697.9, 31533.85, 0.0, 5.014158, 4.9859056 
8.7747645e+1, 1.3149248e+2, -1619569.5, -1663047.3, 170.34059, 0.0023172952, -0.01997951, -1619568.8, 31797.162, 0.0, 5.0142016, 4.985905 
8.774804e+1, 1.3647883e+2, -1572651.8, -1618523.9, 224.63661, 0.0013295066, -0.014848877, -1572650.6, 29849.828, 0.0, 5.0142455, 4.9844007 
8.7748307e+1, 1.4146218e+2, -1530285.1, -1583358.9, -30.81069, 0.00046045394, 0.0026944696, -1530285.1, 23379.441, 0.0, 5.014276, 4.979727 
8.7748206e+1, 1.4644216e+2, -1481047.6, -1533901.3, -135.3449, -0.0005059845, 0.0013693208, -1481047.3, 23815.496, 0.0, 5.0142694, 4.979861 
8.7748086e+1, 1.5142205e+2, -1432014.8, -1484855.4, -142.72377, -0.0014990615, -0.00088823546, -1432014.4, 24047.434, 0.0, 5.014261, 4.979861 
8.7747973e+1, 1.5640195e+2, -1384410.9, -1438786.9, -150.24956, -0.0024890667, -0.0026894312, -1384410.4, 22850.44, 0.0, 5.014252, 4.9788656 
8.774794e+1, 1.6137815e+2, -1343585.5, -1406905.4, 25.316727, -0.003512054, 0.0016371966, -1343585.5, 14910.277, 0.0, 5.0142407, 4.9731255 
8.774807e+1, 1.6635157e+2, -1294434.1, -1357586.6, 79.74214, -0.0046206755, 0.0015420227, -1294434.0, 15323.258, 0.0, 5.014212, 4.973203 
8.7748206e+1, 1.7132503e+2, -1245397.3, -1308503.5, 103.922615, -0.0057254843, 0.001594071, -1245397.1, 15621.27, 0.0, 5.014182, 4.9732037 
8.7748337e+1, 1.762985e+2, -1197496.6, -1261824.6, 128.15701, -0.006821515, 0.002033543, -1197496.4, 14783.069, 0.0, 5.0141516, 4.972397 
8.774852e+1, 1.812683e+2, -1156941.3, -1230992.8, -19.448975, -0.0066536264, 0.009454306, -1156941.3, 6634.9033, 0.0, 5.014173, 4.9662056 
8.774877e+1, 1.8623471e+2, -1107034.1, -1180978.1, -61.889114, -0.0035139131, 0.0070396746, -1107034.1, 7871.9634, 0.0, 5.014319, 4.9664125 
8.774903e+1, 1.9120112e+2, -1057401.5, -1131576.0, -36.4323, -0.00024913505, 0.0043653348, -1057401.5, 8834.528, 0.0, 5.0144706, 4.966413 
8.7749285e+1, 1.9616754e+2, -1008663.9, -1084093.3, -10.760654, 0.003012118, 0.0020144433, -1008663.9, 8901.966, 0.0, 5.014622, 4.965763 
8.774931e+1, 2.0113046e+2, -968204.94, -1054206.0, -107.282845, 0.004506192, 0.007980011, -968204.8, 724.7799, 0.0, 5.014721, 4.95913 
8.774868e+1, 2.060901e+2, -918736.6, -1004300.0, -143.7583, 0.001389863, 0.007980271, -918736.4, 1588.3798, 0.0, 5.014682, 4.9593663 
8.7748015e+1, 2.1104974e+2, -869610.9, -955106.25, -115.77476, -0.0019457581, 0.007734625, -869610.7, 2109.0857, 0.0, 5.014635, 4.9593663 
8.774736e+1, 2.1600936e+2, -821150.4, -907367.0, -87.80804, -0.005261723, 0.0076011056, -821150.3, 1964.507, 0.0, 5.0145884, 4.9588666 
8.774704e+1, 2.2096528e+2, -781854.8, -879821.0, 556.6931, -0.00793161, 0.015778385, -781851.7, -7304.418, 0.0, 5.0145593, 4.9514093 
8.7747705e+1, 2.2591712e+2, -732401.7, -830150.44, 887.6977, -0.00910133, 0.015432034, -732393.6, -6370.4663, 0.0, 5.014544, 4.9515243 
8.7748426e+1, 2.308689e+2, -683104.25, -780812.7, 941.84894, -0.010221624, 0.014720195, -683095.2, -5595.735, 0.0, 5.0145254, 4.951531 
8.774915e+1, 2.3582071e+2, -634457.06, -732923.06, 999.51105, -0.011377071, 0.0138697345, -634446.94, -5471.123, 0.0, 5.0145063, 4.951036 
8.77499e+1, 2.407689e+2, -594130.6, -703758.25, 1095.0366, -0.011422877, 0.022264197, -594119.7, -13634.955, 0.0, 5.014521, 4.9440026 
8.775142e+1, 2.4571313e+2, -543097.56, -651735.1, 1443.9065, -0.00792837, 0.0140170595, -543078.4, -11055.659, 0.0, 5.0147176, 4.9448075 
8.7753034e+1, 2.5065735e+2, -493079.88, -602122.56, 1505.2355, -0.0041270605, 0.0041720252, -493059.1, -9498.987, 0.0, 5.014932, 4.944789 
8.775461e+1, 2.5560167e+2, -443315.16, -553081.94, 1560.9631, -0.0002795946, -0.004618208, -443292.97, -8196.271, 0.0, 5.015144, 4.9445715 
8.775673e+1, 2.60542e+2, -405955.94, -532720.56, 2137.364, 0.008028893, 0.0024321899, -405919.9, -19242.338, 0.0, 5.01548, 4.9341526 
8.775991e+1, 2.654783e+2, -354408.22, -481878.56, 3318.1123, 0.021275623, 0.009517771, -354321.9, -16003.929, 0.0, 5.016113, 4.9341173 
8.7762755e+1, 2.7041444e+2, -302382.5, -430449.6, 4326.5767, 0.03152666, 0.0101349875, -302236.5, -12274.473, 0.0, 5.0167565, 4.9344296 
8.776518e+1, 2.7535033e+2, -250359.42, -379252.22, 5454.933, 0.038965903, 0.0025379406, -250128.98, -8520.636, 0.0, 5.0173917, 4.934695 
8.7770915e+1, 2.8028318e+2, -219350.16, -372764.16, 11561.091, 0.045172166, 0.05475068, -218483.81, -25201.664, 0.0, 5.0180893, 4.9194164 
8.7770545e+1, 2.8521118e+2, -164825.22, -302636.78, 3718.8538, 0.025315976, 0.08817948, -164724.94, -19734.477, 0.0, 5.017334, 4.9266605 
8.7765646e+1, 2.9013667e+2, -118419.195, -254533.1, 2554.9878, -0.0019031124, 0.06954976, -118371.25, -21649.555, 0.0, 5.016159, 4.926573 
8.776041e+1, 2.9506138e+2, -71927.07, -206468.1, 1509.2189, -0.02947816, 0.04156113, -71910.15, -23449.586, 0.0, 5.0149665, 4.9264855 
8.7755424e+1, 3.0000362e+2, -13156.698, -95822.63, 3614.755, -0.056051664, 0.04219467, -12998.936, -12968.733, 0.0, 5.0137877, 4.9578757 
8.7747407e+1, 3.049743e+2, -10140.73, -81701.664, 7598.957, -0.12165331, 0.10063906, -9342.707, -9342.707, 0.0, 5.012963, 4.962378 
8.773697e+1, 3.0995032e+2, -9203.894, -74264.484, 9580.417, -0.20587975, 0.16895232, -7822.4727, -7822.4727, 0.0, 5.012227, 4.9650145 
8.7725204e+1, 3.1493083e+2, -7859.229, -67240.664, 11850.693, -0.29663047, 0.2479057, -5581.562, -5581.562, 0.0, 5.011471, 4.9676533 
9.276054e+1, 1.21522255e+2, -1710976.6, -1747262.6, 84.25738, 0.00003829004, 0.0034126202, -1710976.4, 38099.598, 0.0, 5.0141153, 4.9904666 
9.276136e+1, 1.2650655e+2, -1668589.4, -1711884.4, 145.94191, 0.0028246366, -0.015999181, -1668588.9, 31639.14, 0.0, 5.0141563, 4.9859805 
9.2761743e+1, 1.3149266e+2, -1619460.0, -1662821.9, 202.75633, 0.0012271169, -0.015523405, -1619459.1, 31905.809, 0.0, 5.014201, 4.98598 
9.2762125e+1, 1.3647872e+2, -1572541.6, -1618299.0, 258.7988, -0.00036058575, -0.013796486, -1572540.1, 29961.879, 0.0, 5.014245, 4.9844756 
9.276242e+1, 1.4146191e+2, -1530273.4, -1583335.9, -27.65308, -0.0011497806, 0.0015021112, -1530273.4, 23394.53, 0.0, 5.014276, 4.9797344 
9.276248e+1, 1.464419e+2, -1481059.3, -1533926.5, -141.78181, -0.0004638682, 0.00053261855, -1481058.9, 23806.783, 0.0, 5.0142694, 4.9798527 
9.276253e+1, 1.5142184e+2, -1432026.1, -1484880.5, -148.33841, 0.00024454633, -0.0012749409, -1432025.8, 24038.393, 0.0, 5.014261, 4.9798527 
9.276257e+1, 1.5640178e+2, -1384422.0, -1438812.1, -155.04054, 0.0009474973, -0.002626423, -1384421.5, 22841.068, 0.0, 5.014252, 4.9788575 
9.2762625e+1, 1.6137801e+2, -1343550.3, -1406832.3, 8.939875, 0.0008917141, 0.0019181672, -1343550.3, 14946.859, 0.0, 5.0142407, 4.97315 
9.276267e+1, 1.6635144e+2, -1294389.1, -1357492.0, 56.918465, -0.0008353732, 0.001582854, -1294389.1, 15369.269, 0.0, 5.014212, 4.973235 
9.27627e+1, 1.7132491e+2, -1245353.0, -1308409.5, 82.14927, -0.0026294228, 0.0013853409, -1245352.9, 15666.309, 0.0, 5.014182, 4.9732356 
9.276274e+1, 1.7629836e+2, -1197453.1, -1261731.1, 107.43831, -0.0044293725, 0.0015776282, -1197452.9, 14827.155, 0.0, 5.0141516, 4.9724283 
9.276286e+1, 1.8126822e+2, -1156894.1, -1230893.9, 61.97574, -0.0051029855, 0.008931589, -1156894.0, 6682.3613, 0.0, 5.0141735, 4.9662385 
9.276313e+1, 1.8623468e+2, -1106986.1, -1180877.3, 54.878895, -0.0032087127, 0.0067792027, -1106986.1, 7919.734, 0.0, 5.0143194, 4.9664464 
9.276341e+1, 1.9120115e+2, -1057354.0, -1131475.0, 81.85999, -0.0012353588, 0.004373805, -1057354.0, 8881.234, 0.0, 5.014471, 4.966447 
9.2763686e+1, 1.9616763e+2, -1008617.0, -1083992.1, 109.04056, 0.0007138685, 0.0022938612, -1008616.8, 8947.613, 0.0, 5.014622, 4.9657974 
9.2763764e+1, 2.0113057e+2, -968147.44, -1054081.4, -105.55175, 0.0017540265, 0.008050083, -968147.3, 780.72845, 0.0, 5.014721, 4.9591722 
9.276329e+1, 2.0609011e+2, -918687.9, -1004193.8, -181.05365, 0.00058166636, 0.006761335, -918687.5, 1636.4862, 0.0, 5.0146813, 4.959403 
9.276279e+1, 2.1104965e+2, -869562.9, -955001.5, -150.70633, -0.00069594453, 0.0051959623, -869562.6, 2157.1465, 0.0, 5.014635, 4.9594026 
9.276229e+1, 2.1600918e+2, -821103.2, -907263.6, -120.37187, -0.0019792428, 0.0037521191, -821103.06, 2012.5366, 0.0, 5.0145884, 4.9589024 
9.276207e+1, 2.2096513e+2, -781791.44, -879671.25, 548.2541, -0.0033564903, 0.011769445, -781788.4, -7240.6895, 0.0, 5.0145583, 4.95146 
9.276264e+1, 2.2591731e+2, -732311.06, -829918.5, 886.41846, -0.0054812916, 0.0143713085, -732303.0, -6283.2563, 0.0, 5.01454, 4.9516034 
9.276323e+1, 2.308695e+2, -683020.6, -780577.06, 947.00665, -0.0077648293, 0.016802276, -683011.44, -5519.473, 0.0, 5.014519, 4.951612 
9.276382e+1, 2.358217e+2, -634380.44, -732683.7, 1011.11035, -0.0101360995, 0.019115016, -634370.06, -5405.8086, 0.0, 5.0144973, 4.951119 
9.276451e+1, 2.4077009e+2, -593966.7, -703238.7, 1215.2227, -0.011356787, 0.028051075, -593953.2, -13481.675, 0.0, 5.0145025, 4.944182 
9.276608e+1, 2.4571389e+2, -542993.1, -651318.06, 1599.6871, -0.009068689, 0.013883376, -542969.5, -10954.1455, 0.0, 5.0146956, 4.944951 
9.276774e+1, 2.5065765e+2, -492973.3, -601715.9, 1670.0238, -0.0065832012, -0.0020731266, -492947.7, -9388.554, 0.0, 5.014912, 4.9449286 
9.2769355e+1, 2.556015e+2, -443206.4, -552685.56, 1734.7537, -0.004127916, -0.016919078, -443178.94, -8076.9063, 0.0, 5.015125, 4.944708 
9.277151e+1, 2.6054195e+2, -405229.34, -530732.0, 2553.717, 0.0016427619, -0.011357117, -405177.38, -18494.605, 0.0, 5.0154414, 4.9348464 
9.2774755e+1, 2.6548085e+2, -353245.4, -478274.28, 4063.4797, 0.005650499, 0.011999483, -353113.47, -14816.675, 0.0, 5.0160017, 4.935398 
9.277767e+1, 2.7042e+2, -301373.6, -426618.34, 5228.9365, 0.005279514, 0.030933814, -301155.7, -11245.396, 0.0, 5.0165744, 4.9358015 
9.278014e+1, 2.7535906e+2, -249504.89, -375194.28, 6514.038, 0.0015530036, 0.041962594, -249168.19, -7643.4663, 0.0, 5.017138, 4.936157 
9.278576e+1, 2.8029373e+2, -217833.38, -368951.78, 9948.267, 0.008502807, 0.09514563, -217181.28, -24001.646, 0.0, 5.018048, 4.9208026 
9.2785037e+1, 2.8521964e+2, -165312.6, -304864.06, 2293.4973, 0.00030357423, 0.11111695, -165274.9, -20367.945, 0.0, 5.0175037, 4.92593 
9.277974e+1, 2.9014304e+2, -118879.5, -256459.34, 1293.804, -0.021947121, 0.08195992, -118867.336, -22209.896, 0.0, 5.0163207, 4.925921 
9.27741e+1, 2.950656e+2, -72361.54, -208094.66, 412.354, -0.04520513, 0.042498108, -72360.29, -23944.613, 0.0, 5.0151196, 4.9259124 
9.2768407e+1, 3.0000684e+2, -10715.017, -89911.57, 2146.5396, -0.06844489, 0.032294925, -10656.879, -10656.879, 0.0, 5.013851, 4.9600306 
9.275839e+1, 3.0497894e+2, -7295.6797, -72677.6, 6864.7183, -0.14733621, 0.08529383, -6582.6997, -6582.6997, 0.0, 5.012721, 4.965965 
9.274575e+1, 3.099569e+2, -7297.5444, -65443.168, 9714.526, -0.25010005, 0.1543137, -5717.454, -5717.454, 0.0, 5.0116935, 4.9686613 
9.273175e+1, 3.1493995e+2, -6893.9023, -58618.277, 12852.118, -0.36071098, 0.24074954, -3876.518, -3876.518, 0.0, 5.0106454, 4.971361 
9.777449e+1, 1.2152136e+2, -1711762.6, -1748774.9, 71.719536, -0.0017394039, -0.0018083247, -1711762.5, 37321.902, 0.0, 5.0140977, 4.989979 
9.777548e+1, 1.26507e+2, -1668513.5, -1711674.3, 183.51997, 0.0023297688, -0.008106452, -1668512.8, 31711.57, 0.0, 5.014145, 4.9860554 
9.777584e+1, 1.3149282e+2, -1619380.3, -1662610.6, 235.2607, 0.00015471545, -0.011041644, -1619378.9, 31984.924, 0.0, 5.014191, 4.986055 
9.7776204e+1, 1.3647863e+2, -1572470.9, -1618092.9, 286.76572, -0.002034678, -0.012732795, -1572469.1, 30034.516, 0.0, 5.014232, 4.98455 
9.7776544e+1, 1.4146164e+2, -1530313.5, -1583345.0, -32.988194, -0.0027493339, 0.00033678883, -1530313.5, 23357.68, 0.0, 5.0142603, 4.979739 
9.777676e+1, 1.4644168e+2, -1481103.1, -1533966.8, -152.75888, -0.00041653495, -0.00028401605, -1481102.6, 23765.902, 0.0, 5.014259, 4.9798446 
9.777697e+1, 1.5142165e+2, -1432059.8, -1484915.9, -154.81024, 0.001990981, -0.0016566727, -1432059.3, 24007.135, 0.0, 5.0142536, 4.9798446 
9.7777176e+1, 1.564016e+2, -1384451.5, -1438845.6, -157.37683, 0.004386033, -0.0025735176, -1384451.0, 22813.371, 0.0, 5.0142465, 4.9788494 
9.777732e+1, 1.6137786e+2, -1343536.8, -1406774.6, -2.4318147, 0.005292224, 0.0022115603, -1343536.8, 14961.675, 0.0, 5.014235, 4.9731717 
9.7777265e+1, 1.663513e+2, -1294364.4, -1357406.4, 40.038532, 0.0029474255, 0.0016330872, -1294364.4, 15395.044, 0.0, 5.0142055, 4.9732666 
9.77772e+1, 1.7132477e+2, -1245341.3, -1308330.4, 67.1505, 0.0004698917, 0.0011712611, -1245341.1, 15678.945, 0.0, 5.0141706, 4.973267 
9.777714e+1, 1.7629825e+2, -1197464.8, -1261663.4, 94.329, -0.0020249705, 0.0011011709, -1197464.6, 14816.085, 0.0, 5.0141325, 4.97246 
9.7777194e+1, 1.8126813e+2, -1156933.5, -1230845.0, 152.1221, -0.0035419804, 0.008435295, -1156933.1, 6643.5586, 0.0, 5.014146, 4.9662676 
9.7777486e+1, 1.8623465e+2, -1107041.8, -1180825.5, 177.20915, -0.0029009192, 0.0065443283, -1107041.4, 7864.177, 0.0, 5.0142846, 4.96648 
9.7777784e+1, 1.9120118e+2, -1057449.6, -1131441.6, 203.69458, -0.0022187287, 0.004382595, -1057449.0, 8785.31, 0.0, 5.014422, 4.9664807 
9.777808e+1, 1.9616772e+2, -1008769.8, -1083985.1, 230.89134, -0.001575726, 0.0025457665, -1008769.1, 8793.941, 0.0, 5.0145535, 4.965831 
9.777822e+1, 2.0113067e+2, -968340.8, -1054096.0, -103.25528, -0.0009607756, 0.00815042, -968340.7, 585.7319, 0.0, 5.0146384, 4.9592056 
9.7777903e+1, 2.0609012e+2, -918839.75, -1004182.3, -224.92146, -0.00019057615, 0.005574747, -918839.2, 1483.9692, 0.0, 5.014612, 4.959439 
9.7777563e+1, 2.1104956e+2, -869690.5, -954979.2, -199.50906, 0.000584778, 0.0026578428, -869690.06, 2029.6882, 0.0, 5.0145745, 4.959438 
9.7777224e+1, 2.16009e+2, -821224.56, -907238.8, -173.39214, 0.0013341485, -0.00012797797, -821224.2, 1892.1832, 0.0, 5.01453, 4.9589376 
9.77771e+1, 2.2096498e+2, -781919.44, -879623.25, 513.8698, 0.0012270274, 0.0078305965, -781916.75, -7368.7095, 0.0, 5.0144935, 4.9515038 
9.777755e+1, 2.2591753e+2, -732464.75, -829800.5, 849.01056, -0.0018785849, 0.013311796, -732457.4, -6441.019, 0.0, 5.014452, 4.9516807 
9.7778016e+1, 2.308701e+2, -683288.06, -780505.7, 904.0511, -0.0053228703, 0.01872716, -683279.6, -5795.074, 0.0, 5.0143905, 4.951691 
9.7778475e+1, 2.3582268e+2, -634807.25, -732679.4, 958.1104, -0.008891938, 0.024034765, -634797.9, -5845.093, 0.0, 5.0143123, 4.9511995 
9.77791e+1, 2.4077126e+2, -594552.6, -703190.6, 1240.101, -0.011241543, 0.034134317, -594538.5, -14080.397, 0.0, 5.014245, 4.9443054 
9.778072e+1, 2.4571466e+2, -543750.25, -651301.7, 1615.7, -0.0100669945, 0.014312214, -543726.0, -11718.333, 0.0, 5.014372, 4.94509 
9.778244e+1, 2.5065792e+2, -493954.75, -601810.6, 1641.4705, -0.008782337, -0.007901289, -493929.78, -10371.89, 0.0, 5.0145087, 4.945064 
9.7784096e+1, 2.556013e+2, -444459.63, -552911.9, 1665.9255, -0.0075851525, -0.028951578, -444434.06, -9326.859, 0.0, 5.0146255, 4.9448404 
9.7786295e+1, 2.6054174e+2, -406688.7, -529998.56, 2494.9678, -0.0040074023, -0.025532408, -406638.22, -19949.117, 0.0, 5.01468, 4.9354086 
9.7789484e+1, 2.6548308e+2, -356952.88, -477023.84, 3524.3035, -0.009477781, 0.010784057, -356849.53, -18570.932, 0.0, 5.0141754, 4.9365706 
9.7792304e+1, 2.7042508e+2, -309337.4, -427042.72, 3692.999, -0.020556167, 0.044287153, -309221.66, -19358.117, 0.0, 5.0132, 4.9370418 
9.779469e+1, 2.7536705e+2, -262880.47, -377789.06, 3617.0205, -0.035229195, 0.070036836, -262766.75, -21318.248, 0.0, 5.011789, 4.9374657 
9.7800696e+1, 2.803041e+2, -237133.86, -378264.1, 3367.7905, -0.022400293, 0.13847606, -237053.53, -43974.656, 0.0, 5.011245, 4.92051 
9.780003e+1, 2.8522855e+2, -180256.77, -313304.13, -3470.0813, -0.017284926, 0.14753987, -180166.33, -35346.934, 0.0, 5.012438, 4.925198 
9.779427e+1, 2.9014975e+2, -129520.98, -262748.25, -3416.339, -0.03681124, 0.10417171, -129433.43, -32843.766, 0.0, 5.012787, 4.9252477 
9.7788167e+1, 2.9507017e+2, -80119.89, -212873.34, -3552.7217, -0.057661615, 0.04968621, -80024.88, -31656.99, 0.0, 5.012612, 4.9252973 
9.7781825e+1, 3.000091e+2, -16140.154, -89797.625, -2111.0676, -0.07692781, 0.019357469, -16079.699, -16079.699, 0.0, 5.0114784, 4.9610467 
9.7769606e+1, 3.049809e+2, -18093.867, -69969.055, 1737.7598, -0.1647675, 0.041832693, -18035.719, -18035.719, 0.0, 5.0074987, 4.9691067 
9.775451e+1, 3.0995953e+2, -30308.059, -67881.75, 3260.3186, -0.28158224, 0.08483568, -30027.256, -30027.256, 0.0, 5.0020256, 4.9718275 
9.7738016e+1, 3.1494373e+2, -45640.387, -67692.01, 4738.7407, -0.40674457, 0.15087315, -44665.19, -44665.19, 0.0, 4.995252, 4.9745517 
1.0278861e+2, 1.215206e+2, -1711677.0, -1749404.0, 5.561387, -0.0024112905, -0.0057065, -1711677.0, 37415.2, 0.0, 5.014269, 4.989689 
1.02789566e+2, 1.2650722e+2, -1668150.0, -1711402.4, 141.4699, 0.0013245553, -0.0021927233, -1668149.5, 32073.545, 0.0, 5.0142446, 4.986097 
1.0278995e+2, 1.3149287e+2, -1619235.6, -1662447.0, 152.62758, -0.00073703844, -0.007358016, -1619235.1, 32129.465, 0.0, 5.0142183, 4.9860964 
1.0279033e+2, 1.364785e+2, -1572530.8, -1618029.6, 163.0709, -0.0027617356, -0.011276196, -1572530.3, 29976.025, 0.0, 5.0141916, 4.984592 
1.0279073e+2, 1.4146139e+2, -1530468.4, -1583340.6, -146.1577, -0.0031534447, 0.0002899598, -1530468.0, 23206.932, 0.0, 5.0141916, 4.979774 
1.0279104e+2, 1.4644144e+2, -1481073.3, -1533871.1, -208.05034, -0.00014246386, -0.0003024733, -1481072.5, 23798.994, 0.0, 5.014252, 4.9798794 
1.02791354e+2, 1.5142147e+2, -1431830.5, -1484724.8, -155.32832, 0.0029813962, -0.0015965475, -1431830.1, 24238.504, 0.0, 5.014314, 4.979879 
1.0279166e+2, 1.5640147e+2, -1384018.1, -1438557.1, -102.74353, 0.0061126985, -0.0024342835, -1384018.0, 23247.828, 0.0, 5.014376, 4.9788833 
1.0279186e+2, 1.6137776e+2, -1343038.8, -1406456.1, 35.69273, 0.007599885, 0.0022858218, -1343038.8, 15460.585, 0.0, 5.0143876, 4.9732046 
1.02791764e+2, 1.663512e+2, -1294071.8, -1357190.4, 57.51849, 0.0054783854, 0.0013597162, -1294071.8, 15688.447, 0.0, 5.01429, 4.9732985 
1.0279166e+2, 1.7132466e+2, -1245247.1, -1308210.8, 78.641655, 0.0032527891, 0.00053935306, -1245247.1, 15773.58, 0.0, 5.014188, 4.9732985 
1.0279155e+2, 1.7629813e+2, -1197557.5, -1261634.0, 99.80828, 0.0010527199, 0.000106848056, -1197557.3, 14723.862, 0.0, 5.014086, 4.9724913 
1.02791555e+2, 1.8126802e+2, -1157321.9, -1230990.3, 223.94243, -0.00057051564, 0.007414617, -1157321.1, 6255.651, 0.0, 5.014004, 4.966285 
1.02791786e+2, 1.8623464e+2, -1107951.4, -1181229.9, 242.39365, -0.001045905, 0.006150017, -1107950.5, 6954.404, 0.0, 5.0139656, 4.9664927 
1.02792025e+2, 1.9120124e+2, -1058864.6, -1132084.0, 237.27502, -0.001449225, 0.004594629, -1058863.9, 7369.192, 0.0, 5.013928, 4.966494 
1.02792256e+2, 1.9616784e+2, -1010669.56, -1084854.3, 232.42078, -0.0018139802, 0.0033275543, -1010668.9, 6892.334, 0.0, 5.0138903, 4.9658446 
1.0279238e+2, 2.011308e+2, -970513.2, -1055148.9, -140.78836, -0.0016934457, 0.008934946, -970512.94, -1588.381, 0.0, 5.013891, 4.959195 
1.02792166e+2, 2.0609014e+2, -920659.1, -1005098.3, -335.01346, -0.00030483698, 0.005353031, -920657.8, -335.29605, 0.0, 5.013992, 4.959414 
1.02791935e+2, 2.1104945e+2, -871091.2, -955693.56, -389.0647, 0.0012013504, 0.0014337434, -871089.44, 630.9671, 0.0, 5.0140977, 4.959414 
1.0279172e+2, 2.1600877e+2, -822191.75, -907746.3, -442.94107, 0.0027469594, -0.0023374069, -822189.5, 928.76404, 0.0, 5.014203, 4.958914 
1.02791645e+2, 2.209647e+2, -782524.06, -879651.7, 147.18803, 0.0032219505, 0.00507969, -782523.8, -7973.8184, 0.0, 5.01423, 4.9516153 
1.0279196e+2, 2.2591743e+2, -733523.75, -829908.06, 585.62177, 0.00010337366, 0.010667786, -733520.2, -7504.5986, 0.0, 5.0139976, 4.9518523 
1.0279228e+2, 2.3087017e+2, -684885.5, -780879.94, 800.1835, -0.0031657761, 0.016043283, -684878.8, -7397.6973, 0.0, 5.0137453, 4.9518576 
1.027926e+2, 2.358229e+2, -636893.25, -733295.56, 1017.8127, -0.006335966, 0.021177206, -636882.5, -7935.614, 0.0, 5.013492, 4.951361 
1.0279313e+2, 2.4077162e+2, -597318.44, -704579.7, 1485.289, -0.008270967, 0.031358417, -597297.9, -16847.129, 0.0, 5.0132594, 4.944281 
1.0279466e+2, 2.4571502e+2, -547404.06, -653336.75, 1612.1266, -0.0073537338, 0.012763849, -547379.5, -15377.186, 0.0, 5.0131097, 4.9449663 
1.02796264e+2, 2.506583e+2, -498389.25, -604184.6, 1356.2382, -0.006160372, -0.008190714, -498371.84, -14816.992, 0.0, 5.012963, 4.944945 
1.0279783e+2, 2.5560167e+2, -449620.6, -555597.7, 1100.263, -0.0047893086, -0.02803564, -449609.16, -14502.643, 0.0, 5.0128126, 4.944725 
1.0279982e+2, 2.6054218e+2, -411820.06, -531771.25, 1762.9248, -0.0010798258, -0.02367895, -411794.16, -25105.273, 0.0, 5.0126505, 4.935727 
1.02802515e+2, 2.6548392e+2, -361835.3, -478571.63, 3615.5864, -0.0052484195, 0.010003918, -361723.44, -23452.414, 0.0, 5.012035, 4.937081 
1.0280491e+2, 2.7042583e+2, -313622.22, -429359.78, 5147.3706, -0.010518011, 0.03847159, -313393.75, -23541.229, 0.0, 5.011315, 4.9372325 
1.0280695e+2, 2.7536717e+2, -265398.88, -380331.4, 6812.9175, -0.014764441, 0.05724151, -264996.44, -23557.1, 0.0, 5.0105796, 4.937337 
1.02812536e+2, 2.8030378e+2, -240577.25, -381008.28, 7770.9893, 0.017131198, 0.1261312, -240148.55, -47077.875, 0.0, 5.010031, 4.91992 
1.0281202e+2, 2.852289e+2, -186508.98, -314820.6, 1806.1176, 0.019801637, 0.13934757, -186483.58, -41677.246, 0.0, 5.0099435, 4.9253173 
1.02806665e+2, 2.9015058e+2, -137042.6, -265803.72, 600.39667, -0.0077762576, 0.09605791, -137039.8, -40465.0, 0.0, 5.00985, 4.9251103 
1.02800995e+2, 2.9507136e+2, -87511.484, -216842.17, -362.01996, -0.032148257, 0.04366063, -87510.48, -39158.76, 0.0, 5.009711, 4.924904 
1.0279485e+2, 3.0000958e+2, -20914.273, -94140.28, -258.09488, -0.046683032, 0.009434839, -20913.363, -20913.363, 0.0, 5.009422, 4.960244 
1.02781415e+2, 3.049803e+2, -15325.732, -69910.92, 3673.4797, -0.11041487, 0.007994442, -15079.624, -15079.624, 0.0, 5.00744, 4.969039 
1.02765135e+2, 3.0995664e+2, -19301.645, -66156.875, 6166.972, -0.18898186, 0.013190103, -18503.557, -18503.557, 0.0, 5.004987, 4.9710245 
1.0274777e+2, 3.149362e+2, -23034.992, -62646.973, 8516.235, -0.26214546, 0.025060132, -21281.68, -21281.68, 0.0, 5.00247, 4.973013 
1.07802846e+2, 1.2151991e+2, -1711858.6, -1749771.8, -37.277016, -0.0028919817, -0.008542818, -1711858.5, 37241.313, 0.0, 5.0142684, 4.989568 
1.0780365e+2, 1.2650725e+2, -1668122.0, -1711344.8, 116.8361, -0.00039252848, 0.0021698235, -1668121.6, 32102.35, 0.0, 5.014244, 4.9861164 
1.0780409e+2, 1.3149278e+2, -1619207.4, -1662390.1, 129.8454, -0.0016088868, -0.0042942995, -1619207.0, 32159.69, 0.0, 5.0142183, 4.9861155 
1.0780453e+2, 1.364783e+2, -1572502.4, -1617973.4, 142.14673, -0.0028191837, -0.009511943, -1572502.0, 30007.697, 0.0, 5.0141916, 4.9846106 
1.0780496e+2, 1.4146113e+2, -1530382.1, -1583162.8, -114.164116, -0.0027286313, 0.0011127766, -1530381.9, 23296.953, 0.0, 5.0141916, 4.9798326 
1.0780533e+2, 1.4644125e+2, -1480972.6, -1533662.6, -160.5071, 0.00020012274, 0.0003151232, -1480972.1, 23902.416, 0.0, 5.014252, 4.9799485 
1.0780569e+2, 1.5142132e+2, -1431730.4, -1484517.1, -107.1862, 0.0032228893, -0.0011625702, -1431730.1, 24340.55, 0.0, 5.014314, 4.979948 
1.0780606e+2, 1.5640138e+2, -1383918.4, -1438350.1, -54.01215, 0.006245948, -0.0021843794, -1383918.4, 23348.545, 0.0, 5.014376, 4.9789524 
1.0780629e+2, 1.6137768e+2, -1342981.8, -1406338.5, -16.523005, 0.007974677, 0.0022345348, -1342981.8, 15517.96, 0.0, 5.0143876, 4.973244 
1.078062e+2, 1.6635111e+2, -1294030.3, -1357105.3, -20.464323, 0.006835156, 0.00085248717, -1294030.3, 15730.328, 0.0, 5.01429, 4.973327 
1.0780609e+2, 1.7132455e+2, -1245206.1, -1308126.1, 1.766773, 0.0055979877, -0.0004192577, -1245206.1, 15814.977, 0.0, 5.014188, 4.9733276 
1.07805975e+2, 1.76298e+2, -1197516.8, -1261549.8, 24.054525, 0.004368799, -0.0013020617, -1197516.8, 14764.792, 0.0, 5.014086, 4.97252 
1.07805945e+2, 1.8126792e+2, -1157309.5, -1230965.0, 183.91324, 0.0031318394, 0.0059672496, -1157309.0, 6267.8237, 0.0, 5.014004, 4.966294 
1.07806034e+2, 1.8623462e+2, -1107955.4, -1181238.0, 213.3656, 0.0016923557, 0.0056414073, -1107954.8, 6949.518, 0.0, 5.013965, 4.9664907 
1.0780614e+2, 1.9120133e+2, -1058869.6, -1132092.4, 209.97182, 0.00024859415, 0.005075972, -1058869.0, 7362.482, 0.0, 5.0139275, 4.9664917 
1.0780623e+2, 1.9616804e+2, -1010675.5, -1084863.0, 206.84691, -0.0011769988, 0.0048071863, -1010674.94, 6883.7983, 0.0, 5.0138893, 4.9658427 
1.07806265e+2, 2.0113102e+2, -970571.5, -1055275.5, -92.98151, -0.0018677972, 0.010715728, -970571.4, -1649.3229, 0.0, 5.013891, 4.9591527 
1.0780613e+2, 2.0609017e+2, -920749.1, -1005296.75, -256.47375, -0.0007232178, 0.0061592367, -920748.3, -426.52246, 0.0, 5.0139923, 4.9593472 
1.0780598e+2, 2.1104932e+2, -871181.1, -955891.6, -308.20163, 0.00053146324, 0.0012636761, -871180.0, 541.5348, 0.0, 5.0140977, 4.959347 
1.0780584e+2, 2.1600845e+2, -822281.6, -907944.1, -359.76318, 0.0017999872, -0.003479634, -822280.06, 841.1133, 0.0, 5.014203, 4.958847 
1.0780578e+2, 2.209643e+2, -782289.4, -879124.0, 43.345158, 0.0021705937, 0.002751369, -782289.4, -7735.698, 0.0, 5.014228, 4.951797 
1.07805915e+2, 2.259171e+2, -733170.2, -829095.06, 400.69748, -0.0003739058, 0.0063860524, -733168.5, -7151.5806, 0.0, 5.013992, 4.952134 
1.07806064e+2, 2.3086993e+2, -684543.4, -780069.75, 621.2171, -0.0030547858, 0.009791479, -684539.3, -7059.3955, 0.0, 5.0137367, 4.9521403 
1.078062e+2, 2.3582275e+2, -636562.44, -732488.0, 844.827, -0.0056799455, 0.0129988715, -636555.0, -7611.9063, 0.0, 5.0134807, 4.9516454 
1.0780656e+2, 2.4077162e+2, -597516.4, -704810.5, 1367.4149, -0.007408129, 0.023194538, -597498.94, -17054.28, 0.0, 5.0132265, 4.944214 
1.0780782e+2, 2.4571541e+2, -547850.9, -654095.75, 1478.4382, -0.007406184, 0.0105608255, -547830.3, -15834.99, 0.0, 5.013072, 4.9447165 
1.0780913e+2, 2.5065905e+2, -498814.94, -604929.5, 1230.9299, -0.0072938004, -0.0040842225, -498800.7, -15253.527, 0.0, 5.0129313, 4.9446955 
1.07810386e+2, 2.556028e+2, -450025.34, -556328.56, 983.341, -0.0070680855, -0.017719055, -450016.25, -14918.034, 0.0, 5.012787, 4.9444757 
1.0781183e+2, 2.6054358e+2, -410845.84, -529261.3, 1550.0803, -0.0067188945, -0.011350556, -410825.53, -24146.414, 0.0, 5.0126023, 4.9366107 
1.0781323e+2, 2.6548555e+2, -360059.97, -473534.6, 3444.6697, -0.021380268, 0.007713602, -359955.5, -21703.121, 0.0, 5.011883, 4.938879 
1.0781424e+2, 2.7042797e+2, -312165.16, -424280.44, 5116.7036, -0.03854613, 0.021534536, -311932.13, -22110.168, 0.0, 5.0110583, 4.939088 
1.0781485e+2, 2.7537006e+2, -264259.56, -375208.47, 6922.3784, -0.055591796, 0.02749751, -263829.34, -22434.52, 0.0, 5.010219, 4.9392495 
1.0781886e+2, 2.8030804e+2, -240406.05, -382177.6, 6487.7017, -0.030276503, 0.09951509, -240109.78, -47102.164, 0.0, 5.0102158, 4.9195485 
1.07819e+2, 2.8523347e+2, -184996.7, -316271.22, 1576.7893, -0.01407401, 0.12165042, -184977.77, -40232.99, 0.0, 5.0105314, 4.924801 
1.07815e+2, 2.9015484e+2, -135815.13, -266934.28, 575.4985, -0.028590254, 0.078678094, -135812.6, -39290.906, 0.0, 5.010327, 4.9247184 
1.0781065e+2, 2.9507548e+2, -86569.05, -217653.06, -182.43304, -0.041122884, 0.026917068, -86568.79, -38262.977, 0.0, 5.010077, 4.9246364 
1.0780551e+2, 3.000129e+2, -19612.496, -93137.86, -699.6219, -0.045254804, -0.01185315, -19605.838, -19605.838, 0.0, 5.009686, 4.960614 
1.07791595e+2, 3.0498675e+2, -11254.679, -62252.094, 2954.8843, -0.10130351, -0.01430785, -11084.038, -11084.038, 0.0, 5.00765, 4.971742 
1.0777447e+2, 3.099679e+2, -15726.776, -59735.438, 6114.9556, -0.17615698, 0.00018928765, -14892.91, -14892.91, 0.0, 5.0051656, 4.9734006 
1.0775609e+2, 3.1495228e+2, -19958.701, -57461.395, 9132.336, -0.24972928, 0.026811814, -17853.092, -17853.092, 0.0, 5.0026174, 4.9750624 
1.1281708e+2, 1.2151918e+2, -1711985.0, -1750025.3, -80.15501, -0.003427164, -0.011668176, -1711984.9, 37123.04, 0.0, 5.014268, 4.9894853 
1.1281773e+2, 1.2650728e+2, -1668094.8, -1711286.3, 92.5317, -0.0021150764, 0.0065756137, -1668094.6, 32130.318, 0.0, 5.014244, 4.9861355 
1.1281822e+2, 1.314927e+2, -1619180.0, -1662332.4, 107.39261, -0.0024844494, -0.0012046326, -1619179.8, 32189.078, 0.0, 5.014218, 4.9861345 
1.1281872e+2, 1.3647813e+2, -1572474.9, -1617916.4, 121.551994, -0.002878597, -0.007739034, -1572474.5, 30038.533, 0.0, 5.0141916, 4.9846296 
1.128192e+2, 1.414609e+2, -1530299.4, -1582991.3, -82.19427, -0.0023050397, 0.0019497002, -1530299.3, 23383.547, 0.0, 5.0141916, 4.9798894 
1.1281962e+2, 1.4644106e+2, -1480872.1, -1533454.0, -112.89333, 0.00054118567, 0.0009431343, -1480871.9, 24005.65, 0.0, 5.014252, 4.9800177 
1.1282003e+2, 1.5142117e+2, -1431630.4, -1484309.1, -58.973576, 0.0034628017, -0.0007272351, -1431630.3, 24442.418, 0.0, 5.014314, 4.980017 
1.1282045e+2, 1.5640128e+2, -1383818.9, -1438142.9, -5.210295, 0.0063775596, -0.0019421746, -1383818.9, 23449.084, 0.0, 5.014376, 4.9790215 
1.1282072e+2, 1.6137761e+2, -1342928.0, -1406227.0, -68.76205, 0.008347083, 0.0021992365, -1342927.9, 15572.229, 0.0, 5.014388, 4.973281 
1.12820625e+2, 1.6635102e+2, -1293989.0, -1357020.0, -98.41062, 0.00818952, 0.00035850063, -1293988.9, 15772.028, 0.0, 5.01429, 4.973356 
1.1282052e+2, 1.7132445e+2, -1245165.4, -1308041.3, -75.071625, 0.007941209, -0.0013775141, -1245165.3, 15856.193, 0.0, 5.014188, 4.973356 
1.128204e+2, 1.7629789e+2, -1197476.4, -1261465.3, -51.662766, 0.0076833284, -0.002723505, -1197476.4, 14805.539, 0.0, 5.014086, 4.9725485 
1.1282033e+2, 1.8126781e+2, -1157302.1, -1230949.5, 143.97609, 0.006833633, 0.004539274, -1157301.9, 6275.1445, 0.0, 5.014004, 4.9662995 
1.1282029e+2, 1.8623461e+2, -1107959.8, -1181245.8, 184.24365, 0.004431474, 0.0051400457, -1107959.3, 6944.2188, 0.0, 5.013965, 4.9664884 
1.12820245e+2, 1.912014e+2, -1058875.0, -1132100.6, 182.57472, 0.0019495019, 0.005534892, -1058874.5, 7355.369, 0.0, 5.0139265, 4.9664893 
1.128202e+2, 1.961682e+2, -1010681.9, -1084871.5, 181.17914, -0.0005346978, 0.0062347245, -1010681.44, 6874.8706, 0.0, 5.0138884, 4.9658403 
1.12820156e+2, 2.0113121e+2, -970644.8, -1055433.8, -43.70544, -0.0020472843, 0.012562885, -970644.75, -1725.2189, 0.0, 5.013891, 4.9590993 
1.1282009e+2, 2.060902e+2, -920839.6, -1005494.8, -178.02151, -0.0011497276, 0.007050313, -920839.25, -518.21594, 0.0, 5.0139923, 4.95928 
1.1282002e+2, 2.1104918e+2, -871271.56, -956089.3, -227.42595, -0.00014452235, 0.0011394754, -871270.94, 451.66122, 0.0, 5.0140977, 4.9592795 
1.12819955e+2, 2.1600814e+2, -822372.0, -908141.5, -276.67255, 0.00084894686, -0.004614998, -822371.1, 753.0456, 0.0, 5.0142026, 4.95878 
1.1281992e+2, 2.209639e+2, -782062.56, -878611.75, -61.973564, 0.0011214404, 0.00043049344, -782062.5, -7505.1675, 0.0, 5.014226, 4.9519725 
1.1281988e+2, 2.2591676e+2, -732817.94, -828281.3, 213.98239, -0.0008419865, 0.0020146752, -732817.44, -6799.1255, 0.0, 5.013986, 4.9524145 
1.1281984e+2, 2.3086968e+2, -684202.5, -779258.8, 440.45795, -0.0029262702, 0.0033185498, -684200.5, -6721.656, 0.0, 5.013728, 4.952422 
1.1281978e+2, 2.3582259e+2, -636232.9, -731679.6, 670.0467, -0.004998072, 0.0044679325, -636228.2, -7288.7646, 0.0, 5.013469, 4.951928 
1.1281996e+2, 2.4077167e+2, -597784.6, -705187.8, 1218.9467, -0.0065280055, 0.015395815, -597770.8, -17332.55, 0.0, 5.0131936, 4.9440937 
1.12820946e+2, 2.4571584e+2, -548303.7, -654849.2, 1341.2188, -0.007442117, 0.009003178, -548286.8, -16298.992, 0.0, 5.0130343, 4.9444656 
1.1282197e+2, 2.5065985e+2, -499246.66, -605668.75, 1102.0928, -0.008401501, 0.0005019891, -499235.22, -15696.2, 0.0, 5.0129, 4.9444447 
1.12822935e+2, 2.5560397e+2, -450436.06, -557053.9, 862.8922, -0.00931193, -0.007088404, -450429.06, -15339.502, 0.0, 5.012761, 4.9442253 
1.1282387e+2, 2.605449e+2, -409958.1, -526899.56, 1286.7474, -0.011884379, 0.00036262258, -409943.94, -23273.66, 0.0, 5.0125546, 4.9374247 
1.1282384e+2, 2.6548702e+2, -358311.66, -468481.38, 3184.2083, -0.037007257, 0.0019653542, -358219.7, -19983.781, 0.0, 5.01173, 4.94064 
1.12823285e+2, 2.7042985e+2, -310734.6, -419184.53, 4996.2793, -0.06624434, -0.0017001455, -310504.9, -20710.43, 0.0, 5.010802, 4.9409056 
1.1282231e+2, 2.7537253e+2, -263146.22, -370068.63, 6941.867, -0.0962644, -0.011383298, -262697.4, -21343.191, 0.0, 5.0098586, 4.9411244 
1.1282538e+2, 2.803125e+2, -241984.98, -387334.72, 6061.623, -0.07632419, 0.07617608, -241732.64, -48789.813, 0.0, 5.0104003, 4.9177704 
1.1282663e+2, 2.8523862e+2, -183555.55, -317655.03, 1121.1205, -0.046633467, 0.115121305, -183546.17, -38868.543, 0.0, 5.011119, 4.924246 
1.1282378e+2, 2.9015955e+2, -134658.4, -267997.56, 324.31717, -0.04925011, 0.06825262, -134657.61, -38193.07, 0.0, 5.0108037, 4.924288 
1.1282056e+2, 2.9507986e+2, -85696.984, -218396.19, -229.10077, -0.05110609, 0.012913916, -85696.586, -37439.16, 0.0, 5.010443, 4.92433 
1.1281646e+2, 3.0001587e+2, -19157.416, -93852.516, -1011.5411, -0.04406539, -0.03473687, -19143.719, -19143.719, 0.0, 5.0099506, 4.9603024 
1.128026e+2, 3.0499208e+2, -7285.873, -54505.99, 2645.9136, -0.08434272, -0.050898436, -7138.0757, -7138.0757, 0.0, 5.007861, 4.974286 
1.12785175e+2, 3.0997744e+2, -12254.667, -53223.44, 6472.9907, -0.1467156, -0.04326693, -11256.277, -11256.277, 0.0, 5.0053453, 4.9756174 
1.1276636e+2, 3.1496602e+2, -16986.047, -52182.297, 10159.408, -0.21193749, -0.01804975, -14264.044, -14264.044, 0.0, 5.0027657, 4.976952 
1.178313e+2, 1.2151842e+2, -1712159.4, -1750212.6, -100.8683, -0.0040001418, -0.015062215, -1712159.0, 36957.17, 0.0, 5.014233, 4.9894404 
1.17831804e+2, 1.2650733e+2, -1668123.9, -1711254.9, 89.8491, -0.0038365251, 0.011004408, -1668123.6, 32102.158, 0.0, 5.0142255, 4.986154 
1.1783236e+2, 1.3149263e+2, -1619178.4, -1662286.6, 101.950806, -0.003360729, 0.0018988785, -1619178.1, 32192.855, 0.0, 5.0142097, 4.986153 
1.178329e+2, 1.3647792e+2, -1572458.5, -1617864.1, 113.13399, -0.0029358051, -0.0059608314, -1572458.3, 30058.25, 0.0, 5.0141883, 4.9846478 
1.17833436e+2, 1.4146063e+2, -1530234.1, -1582833.0, -43.050148, -0.0018760251, 0.0028037205, -1530234.0, 23452.697, 0.0, 5.014187, 4.9799433 
1.17833905e+2, 1.4644085e+2, -1480802.6, -1533260.5, -63.213623, 0.0008853737, 0.0015851442, -1480802.5, 24077.994, 0.0, 5.0142417, 4.9800863 
1.17834374e+2, 1.5142103e+2, -1431582.6, -1484126.9, -14.002936, 0.0037055297, -0.00028677887, -1431582.6, 24492.092, 0.0, 5.014297, 4.980086 
1.17834836e+2, 1.5640117e+2, -1383797.4, -1437973.6, 35.044598, 0.0065136394, -0.0017039893, -1383797.4, 23471.693, 0.0, 5.0143504, 4.9790897 
1.1783515e+2, 1.6137753e+2, -1342966.6, -1406164.4, -132.17253, 0.008723984, 0.0021821135, -1342966.4, 15534.191, 0.0, 5.014358, 4.973316 
1.1783506e+2, 1.6635092e+2, -1294017.5, -1356967.4, -185.70198, 0.0095456755, -0.00012335033, -1294016.9, 15744.419, 0.0, 5.0142665, 4.9733844 
1.1783495e+2, 1.7132434e+2, -1245183.3, -1307983.8, -159.6369, 0.01028729, -0.002339699, -1245182.9, 15838.919, 0.0, 5.0141683, 4.9733844 
1.1783483e+2, 1.7629775e+2, -1197494.3, -1261407.8, -133.66267, 0.01100531, -0.0041648275, -1197494.0, 14788.26, 0.0, 5.014066, 4.9725766 
1.1783472e+2, 1.8126771e+2, -1157356.9, -1230970.4, 99.962326, 0.010546786, 0.0031219984, -1157356.8, 6220.2705, 0.0, 5.0139847, 4.9663014 
1.1783453e+2, 1.862346e+2, -1108005.3, -1181272.4, 152.10649, 0.0071789133, 0.0046410854, -1108004.9, 6897.7915, 0.0, 5.013951, 4.9664855 
1.1783435e+2, 1.9120148e+2, -1058915.1, -1132124.6, 152.12552, 0.0036606782, 0.005969837, -1058914.9, 7313.508, 0.0, 5.0139146, 4.966487 
1.1783416e+2, 1.9616838e+2, -1010728.0, -1084898.4, 151.34761, 0.00012444121, 0.007610958, -1010727.7, 6826.189, 0.0, 5.013874, 4.9658375 
1.1783405e+2, 2.0113139e+2, -970785.9, -1055647.5, 3.9576235, -0.0022153803, 0.014477166, -970785.9, -1868.8651, 0.0, 5.0138726, 4.959035 
1.17834054e+2, 2.0609023e+2, -921003.4, -1005725.6, -97.624344, -0.0015683676, 0.00802446, -921003.25, -682.9946, 0.0, 5.013967, 4.959213 
1.1783406e+2, 2.1104904e+2, -871469.7, -956335.7, -139.0209, -0.00080619956, 0.0010556186, -871469.5, 254.17511, 0.0, 5.0140605, 4.9592123 
1.1783408e+2, 2.1600786e+2, -822619.3, -908410.06, -179.52425, -0.00007592939, -0.005754038, -822618.94, 508.11716, 0.0, 5.014148, 4.958712 
1.1783405e+2, 2.209635e+2, -782042.56, -878209.06, -155.83923, 0.00011391209, -0.0018917014, -782042.3, -7481.3057, 0.0, 5.0141544, 4.952142 
1.1783384e+2, 2.2591643e+2, -732659.0, -827561.3, 3.9581165, -0.001263025, -0.0024275621, -732659.0, -6639.3154, 0.0, 5.013914, 4.952692 
1.1783361e+2, 2.3086941e+2, -684070.5, -778550.7, 189.68832, -0.0027356248, -0.003329581, -684070.1, -6592.345, 0.0, 5.0136476, 4.9527 
1.17833376e+2, 2.3582241e+2, -636155.1, -730995.56, 368.19598, -0.004229511, -0.004345115, -636153.7, -7217.7524, 0.0, 5.0133705, 4.952206 
1.17833324e+2, 2.4077173e+2, -598423.1, -705859.75, 862.58344, -0.00554643, 0.0080395825, -598416.2, -17984.557, 0.0, 5.013055, 4.9439197 
1.1783403e+2, 2.457163e+2, -549120.25, -655768.44, 1007.40576, -0.00734966, 0.008139369, -549110.75, -17130.8, 0.0, 5.0128684, 4.9442134 
1.17834784e+2, 2.506607e+2, -500137.88, -606612.6, 776.0072, -0.009331039, 0.00556735, -500132.22, -16601.549, 0.0, 5.012705, 4.944194 
1.17835484e+2, 2.5560513e+2, -451434.88, -558036.9, 559.2132, -0.011314771, 0.0037857904, -451431.97, -16351.158, 0.0, 5.0125256, 4.943976 
1.1783595e+2, 2.605461e+2, -410095.84, -525187.94, 670.4501, -0.016252035, 0.011392427, -410091.94, -23429.305, 0.0, 5.0121827, 4.938141 
1.17834374e+2, 2.6548818e+2, -358862.7, -464646.4, 1590.7089, -0.05134222, -0.0069897133, -358838.75, -20616.447, 0.0, 5.0107903, 4.942286 
1.17832124e+2, 2.7043125e+2, -313561.03, -416260.5, 2116.7654, -0.09212063, -0.03072779, -313517.4, -23745.834, 0.0, 5.0090594, 4.942579 
1.1782942e+2, 2.7537432e+2, -268816.25, -368292.75, 2349.6335, -0.13437346, -0.058743283, -268760.78, -27440.395, 0.0, 5.0071054, 4.942825 
1.1783222e+2, 2.803167e+2, -254215.72, -400422.2, 481.20303, -0.11787399, 0.056595102, -254214.13, -61333.69, 0.0, 5.0073833, 4.9145823 
1.17834985e+2, 2.8524396e+2, -188537.64, -321497.1, -4080.966, -0.07558281, 0.1197361, -188412.5, -43804.023, 0.0, 5.00937, 4.923729 
1.1783308e+2, 2.901644e+2, -137421.94, -270503.72, -3352.0725, -0.06828893, 0.06467081, -137337.56, -40931.625, 0.0, 5.009849, 4.9238687 
1.1783077e+2, 2.9508433e+2, -86986.26, -219896.63, -2788.7532, -0.061216943, 0.0018165016, -86927.77, -38719.65, 0.0, 5.0100207, 4.9240084 
1.1782771e+2, 3.0001843e+2, -20795.959, -97036.734, -3276.165, -0.042550325, -0.058374193, -20655.438, -20655.438, 0.0, 5.0097756, 4.959213 
1.1781449e+2, 3.0499607e+2, -5432.547, -48037.47, -1341.1161, -0.058639508, -0.100980334, -5390.373, -5390.373, 0.0, 5.0073876, 4.976451 
1.1779737e+2, 3.0998468e+2, -12880.156, -48858.066, 959.88385, -0.098854944, -0.1186804, -12854.564, -12854.564, 0.0, 5.0041184, 4.977423 
1.17778726e+2, 3.1497627e+2, -21271.883, -50389.39, 3252.253, -0.14556445, -0.11548679, -20913.049, -20913.049, 0.0, 5.000363, 4.9783983 
1.2284545e+2, 1.2151834e+2, -1712007.9, -1749592.8, 273.5649, -0.0044709435, -0.014230673, -1712006.0, 37111.945, 0.0, 5.014165, 4.9896765 
1.2284585e+2, 1.2650703e+2, -1668209.5, -1711394.9, 406.4086, -0.0055852635, 0.00986119, -1668205.6, 32023.598, 0.0, 5.014217, 4.986111 
1.22846514e+2, 1.3149244e+2, -1619088.4, -1662339.9, 333.84955, -0.0041629546, 0.0019270405, -1619085.8, 32288.037, 0.0, 5.01426, 4.9861097 
1.2284717e+2, 1.364778e+2, -1572177.8, -1617824.0, 260.91574, -0.002746023, -0.004749924, -1572176.3, 30342.227, 0.0, 5.0143023, 4.9846044 
1.22847766e+2, 1.4146055e+2, -1529838.4, -1582626.1, 26.775616, -0.0011263844, 0.004733335, -1529838.4, 23849.928, 0.0, 5.0143166, 4.979948 
1.22848205e+2, 1.4644074e+2, -1480680.4, -1533162.6, -60.198277, 0.0012781733, 0.0031879363, -1480680.4, 24201.943, 0.0, 5.014275, 4.980102 
1.2284864e+2, 1.5142088e+2, -1431755.0, -1484173.3, -80.3701, 0.0037372708, 0.0009486507, -1431754.9, 24321.828, 0.0, 5.014231, 4.980101 
1.2284907e+2, 1.5640104e+2, -1384257.8, -1438160.4, -100.75978, 0.0062058344, -0.00083888747, -1384257.5, 23013.607, 0.0, 5.0141873, 4.9791055 
1.2284936e+2, 1.6137737e+2, -1343554.5, -1406392.0, -355.2673, 0.00837847, 0.0026077211, -1343552.5, 14950.219, 0.0, 5.0141473, 4.9733405 
1.2284926e+2, 1.6635072e+2, -1294431.8, -1357105.0, -430.33957, 0.009830307, -0.00024431097, -1294428.8, 15334.761, 0.0, 5.0141134, 4.973411 
1.2284916e+2, 1.7132412e+2, -1245408.1, -1308029.5, -414.86697, 0.011265011, -0.0030022056, -1245405.4, 15618.635, 0.0, 5.0140796, 4.973411 
1.22849055e+2, 1.762975e+2, -1197520.8, -1261357.8, -399.39902, 0.012714303, -0.0053634765, -1197518.3, 14766.246, 0.0, 5.0140452, 4.972604 
1.2284891e+2, 1.8126746e+2, -1157241.9, -1230866.3, -137.7075, 0.0126227485, 0.0016190908, -1157241.6, 6337.39, 0.0, 5.0140157, 4.9663224 
1.2284866e+2, 1.8623437e+2, -1107858.6, -1181168.3, -57.462708, 0.008737478, 0.0034349125, -1107858.6, 7045.341, 0.0, 5.0139947, 4.9665008 
1.2284841e+2, 1.9120131e+2, -1058722.6, -1132001.9, -36.864433, 0.0047142995, 0.005089499, -1058722.5, 7506.2764, 0.0, 5.0139747, 4.9665008 
1.22848146e+2, 1.9616826e+2, -1010478.44, -1084752.0, -15.951292, 0.00072191044, 0.007053804, -1010478.44, 7075.224, 0.0, 5.0139537, 4.965851 
1.22847974e+2, 2.011313e+2, -970720.5, -1055678.5, -115.62795, -0.001772037, 0.014139252, -970720.3, -1803.8513, 0.0, 5.013907, 4.959009 
1.2284802e+2, 2.0609008e+2, -921587.25, -1006076.3, -182.42445, -0.0005532668, 0.007443796, -921586.9, -1266.3606, 0.0, 5.0137787, 4.9591804 
1.22848086e+2, 2.1104883e+2, -872701.4, -956986.1, -193.37773, 0.0008769838, 0.00017591231, -872700.94, -976.13776, 0.0, 5.013645, 4.959181 
1.2284814e+2, 2.1600758e+2, -824479.9, -909349.0, -204.36903, 0.002334863, -0.0069463407, -824479.4, -1350.3474, 0.0, 5.013511, 4.958682 
1.2284808e+2, 2.2096315e+2, -784236.56, -879110.8, -322.2442, 0.002964875, -0.0036180606, -784235.5, -9672.034, 0.0, 5.01336, 4.9521966 
1.228476e+2, 2.2591607e+2, -734730.3, -828371.44, -438.728, 0.0011198204, -0.0050603105, -734728.25, -8706.837, 0.0, 5.0131483, 4.9527645 
1.228471e+2, 2.3086904e+2, -685992.25, -779315.5, -485.6138, -0.00079065945, -0.006858728, -685989.7, -8510.936, 0.0, 5.012932, 4.9527636 
1.22846596e+2, 2.3582199e+2, -637901.3, -731703.3, -528.79047, -0.002632755, -0.008765865, -637898.4, -8962.09, 0.0, 5.012714, 4.952261 
1.2284625e+2, 2.4077137e+2, -600202.8, -707048.7, -129.84341, -0.004275158, 0.004304451, -600202.7, -19771.543, 0.0, 5.0124555, 4.9437957 
1.2284673e+2, 2.4571611e+2, -551103.56, -657089.25, 196.53648, -0.006069112, 0.0075762933, -551103.2, -19124.043, 0.0, 5.012189, 4.9440765 
1.2284727e+2, 2.5066066e+2, -502337.94, -607970.56, 110.362816, -0.007838871, 0.0077617383, -502337.8, -18807.818, 0.0, 5.0119286, 4.944075 
1.2284776e+2, 2.5560522e+2, -453817.88, -559415.1, 22.44897, -0.00948186, 0.008428134, -453817.88, -18737.492, 0.0, 5.0116615, 4.943875 
1.2284789e+2, 2.6054606e+2, -412261.28, -525952.1, -192.40071, -0.01373257, 0.015421855, -412260.97, -25597.592, 0.0, 5.0112486, 4.938289 
1.2284539e+2, 2.6548746e+2, -361189.38, -466139.3, -37.73942, -0.0455334, -0.011979216, -361189.34, -22964.432, 0.0, 5.0097556, 4.9422665 
1.2284218e+2, 2.7042937e+2, -315805.3, -418718.75, 368.88742, -0.08116427, -0.045531154, -315804.0, -26024.371, 0.0, 5.00808, 4.9422393 
1.2283857e+2, 2.753709e+2, -270416.6, -371436.13, 927.9157, -0.11664246, -0.083762415, -270408.06, -29070.072, 0.0, 5.006377, 4.942165 
1.22840956e+2, 2.8031266e+2, -257747.2, -404930.4, 3482.3076, -0.099780865, 0.03881056, -257664.86, -64764.12, 0.0, 5.0063424, 4.913185 
1.2284428e+2, 2.852414e+2, -192318.84, -321208.47, -1943.5308, -0.06413027, 0.11344266, -192289.53, -47670.88, 0.0, 5.0074673, 4.9241304 
1.22842915e+2, 2.901631e+2, -142105.86, -271696.5, -3494.1897, -0.05818943, 0.061549738, -142011.7, -45602.082, 0.0, 5.007713, 4.92399 
1.22841194e+2, 2.9508436e+2, -91857.836, -222227.05, -4885.1997, -0.050763626, 0.0058227265, -91675.03, -43470.582, 0.0, 5.0079026, 4.923849 
1.2283898e+2, 3.0001864e+2, -25242.975, -103076.02, -6899.3022, -0.028734772, -0.04979322, -24636.137, -24636.137, 0.0, 5.00838, 4.957531 
1.22827895e+2, 3.049938e+2, -1684.2504, -51113.64, -8446.917, -0.020290507, -0.1124788, -280.6271, -280.6271, 0.0, 5.008828, 4.974465 
1.2281319e+2, 3.0997816e+2, 205.51247, -48618.32, -9159.967, -0.029081076, -0.1732479, 1867.4652, 1867.4652, 0.0, 5.0089464, 4.975086 
1.2279706e+2, 3.1496307e+2, 2186.3042, -46212.496, -9570.468, -0.041896563, -0.23724698, 4010.0635, 4010.0635, 0.0, 5.008991, 4.975707 
1.2785955e+2, 1.21518776e+2, -1711317.5, -1748181.9, 344.24252, -0.0053489204, -0.010335065, -1711314.3, 37800.227, 0.0, 5.014164, 4.99014 
1.2785988e+2, 1.2650649e+2, -1668346.9, -1711667.4, 435.92856, -0.007563985, 0.0043565305, -1668342.5, 31892.26, 0.0, 5.014216, 4.9860215 
1.278607e+2, 1.3149211e+2, -1619225.0, -1662612.3, 364.92273, -0.00500408, -0.0004234882, -1619221.9, 32155.145, 0.0, 5.014259, 4.98602 
1.278615e+2, 1.3647771e+2, -1572313.8, -1618096.5, 293.53256, -0.0024717741, -0.003942532, -1572311.9, 30207.678, 0.0, 5.0143013, 4.984514 
1.2786217e+2, 1.414606e+2, -1529888.6, -1582728.1, 4.349986, -0.0002841317, 0.0075422125, -1529888.6, 23799.582, 0.0, 5.0143166, 4.979914 
1.2786251e+2, 1.4644071e+2, -1480715.6, -1533236.1, -93.77483, 0.0015781178, 0.0055469396, -1480715.5, 24167.64, 0.0, 5.014275, 4.9800777 
1.2786284e+2, 1.5142077e+2, -1431789.8, -1484246.5, -113.12957, 0.0034523713, 0.0027789786, -1431789.5, 24288.947, 0.0, 5.014231, 4.980077 
1.2786317e+2, 1.5640084e+2, -1384292.3, -1438233.5, -132.69516, 0.0053285593, 0.00046292026, -1384291.9, 22982.13, 0.0, 5.014188, 4.9790807 
1.2786339e+2, 1.6137712e+2, -1343535.5, -1406353.3, -383.10477, 0.00719893, 0.0033529096, -1343533.1, 14973.171, 0.0, 5.0141473, 4.9733534 
1.2786332e+2, 1.6635045e+2, -1294400.4, -1357040.4, -456.2534, 0.009049714, -0.0000211197, -1294397.0, 15370.051, 0.0, 5.0141134, 4.973433 
1.278632e+2, 1.713238e+2, -1245377.0, -1307964.9, -439.97333, 0.010902092, -0.0032905564, -1245373.9, 15653.669, 0.0, 5.0140796, 4.973433 
1.2786311e+2, 1.7629716e+2, -1197489.8, -1261293.3, -423.69342, 0.012757906, -0.0061635803, -1197487.0, 14801.025, 0.0, 5.0140452, 4.9726257 
1.2786298e+2, 1.8126708e+2, -1157195.1, -1230770.6, -156.67207, 0.012934904, 0.0002653351, -1157194.9, 6387.5884, 0.0, 5.0140157, 4.966355 
1.2786269e+2, 1.8623401e+2, -1107818.4, -1181085.3, -72.03897, 0.009044625, 0.0017391567, -1107818.3, 7088.5635, 0.0, 5.013995, 4.9665294 
1.2786241e+2, 1.9120093e+2, -1058683.8, -1131919.4, -49.878292, 0.004989366, 0.0030966504, -1058683.6, 7547.568, 0.0, 5.013974, 4.9665294 
1.2786213e+2, 1.9616787e+2, -1010440.94, -1084669.9, -27.40032, 0.0009462583, 0.0047696587, -1010440.94, 7114.594, 0.0, 5.013953, 4.9658794 
1.2786195e+2, 2.0113093e+2, -970720.06, -1055672.9, -190.36143, -0.0012388005, 0.011766018, -970719.6, -1801.7246, 0.0, 5.013906, 4.9590116 
1.27862e+2, 2.0608974e+2, -921605.7, -1006112.5, -283.2442, 0.0012946577, 0.0055177375, -921604.75, -1282.8699, 0.0, 5.013778, 4.959169 
1.2786207e+2, 2.1104853e+2, -872718.94, -957021.94, -292.39493, 0.0040739607, -0.0012756829, -872717.94, -991.84326, 0.0, 5.0136447, 4.9591694 
1.2786213e+2, 2.1600729e+2, -824496.6, -909384.44, -301.57266, 0.006858813, -0.007927913, -824495.56, -1365.2574, 0.0, 5.0135107, 4.95867 
1.2786196e+2, 2.2096287e+2, -784281.8, -879201.2, -462.92993, 0.008140679, -0.0045816954, -784279.56, -9714.589, 0.0, 5.013358, 4.9521666 
1.2786116e+2, 2.2591569e+2, -734817.4, -828533.9, -587.4637, 0.0049506286, -0.006554774, -734813.7, -8790.025, 0.0, 5.0131435, 4.952711 
1.2786031e+2, 2.3086855e+2, -686085.75, -779472.94, -628.9714, 0.0015016468, -0.008805371, -686081.5, -8599.856, 0.0, 5.012924, 4.9527125 
1.2785944e+2, 2.358214e+2, -638001.3, -731855.7, -666.7511, -0.0019391035, -0.011139258, -637996.56, -9056.835, 0.0, 5.0127034, 4.9522123 
1.2785873e+2, 2.4077071e+2, -600303.8, -707095.44, -338.96194, -0.0049528135, 0.0015912504, -600302.75, -19867.738, 0.0, 5.0124288, 4.9437876 
1.2785897e+2, 2.4571553e+2, -551238.0, -657174.44, -26.261648, -0.0065985494, 0.0058882823, -551238.0, -19255.373, 0.0, 5.012156, 4.944058 
1.2785928e+2, 2.5066015e+2, -502466.78, -608055.56, -104.760086, -0.008086451, 0.0073950733, -502466.7, -18933.842, 0.0, 5.011897, 4.944055 
1.2785953e+2, 2.5560483e+2, -453941.2, -559500.06, -184.9891, -0.009516292, 0.009422918, -453940.84, -18858.277, 0.0, 5.011632, 4.943854 
1.2785934e+2, 2.605457e+2, -412001.9, -524960.8, -683.44507, -0.0131845325, 0.015292384, -411997.75, -25332.97, 0.0, 5.0111856, 4.9386597 
1.2785605e+2, 2.6548678e+2, -361178.38, -464937.7, -642.369, -0.0416506, -0.018820826, -361174.4, -22949.242, 0.0, 5.0095863, 4.9427514 
1.2785193e+2, 2.7042854e+2, -316037.9, -417305.44, -116.83079, -0.07509373, -0.058230508, -316037.75, -26260.861, 0.0, 5.00781, 4.9428205 
1.2784737e+2, 2.7537012e+2, -270893.1, -369810.88, 561.19293, -0.10996987, -0.101371124, -270889.94, -29559.465, 0.0, 5.0060067, 4.9428415 
1.2784876e+2, 2.803118e+2, -257440.16, -404110.16, 4688.8857, -0.105009876, 0.013863969, -257290.4, -64399.785, 0.0, 5.006325, 4.9135394 
1.2785245e+2, 2.8524065e+2, -192611.7, -324105.6, -1404.2452, -0.07091246, 0.09713721, -192596.7, -47984.32, 0.0, 5.0077596, 4.9231715 
1.2785186e+2, 2.9016265e+2, -142433.14, -274229.72, -2790.487, -0.056943394, 0.059962284, -142374.1, -45968.13, 0.0, 5.00797, 4.9231315 
1.2785086e+2, 2.950843e+2, -92220.74, -224397.9, -4016.9656, -0.04303971, 0.018072503, -92098.77, -43895.49, 0.0, 5.008125, 4.923092 
1.278496e+2, 3.0001858e+2, -25165.93, -103189.195, -5548.8267, -0.016680025, -0.031292297, -24773.287, -24773.287, 0.0, 5.0084953, 4.957521 
1.278412e+2, 3.0499145e+2, -3495.139, -53385.344, -6716.0347, 0.00677653, -0.10355721, -2606.8665, -2606.8665, 0.0, 5.0086303, 4.9738765 
1.2782934e+2, 3.099738e+2, -2548.8364, -51013.01, -7066.9507, 0.012346486, -0.16492493, -1539.3737, -1539.3737, 0.0, 5.0084405, 4.9745803 
1.2781589e+2, 3.1495747e+2, -1511.0135, -48730.098, -7114.83, 0.009131908, -0.22253418, -462.26526, -462.26526, 0.0, 5.0081773, 4.9752846 
1.3287362e+2, 1.2151918e+2, -1710569.1, -1746651.9, 415.10977, -0.0063218777, -0.006701113, -1710564.4, 38547.086, 0.0, 5.014163, 4.9906416 
1.3287391e+2, 1.2650596e+2, -1668484.9, -1711939.4, 465.76205, -0.009569261, -0.0010938208, -1668479.9, 31760.324, 0.0, 5.014215, 4.985932 
1.3287488e+2, 1.314918e+2, -1619362.3, -1662884.3, 396.30948, -0.005869146, -0.0027388507, -1619358.6, 32021.662, 0.0, 5.014258, 4.98593 
1.3287584e+2, 1.3647762e+2, -1572450.4, -1618368.5, 326.46304, -0.002218851, -0.0031191164, -1572448.1, 30072.547, 0.0, 5.0143003, 4.984424 
1.3287657e+2, 1.4146063e+2, -1529943.4, -1582839.1, -17.406885, 0.00055248564, 0.010376552, -1529943.4, 23744.629, 0.0, 5.0143166, 4.979877 
1.3287681e+2, 1.4644068e+2, -1480751.0, -1533309.4, -127.31099, 0.0018758976, 0.007923223, -1480750.8, 24133.123, 0.0, 5.014275, 4.980053 
1.3287705e+2, 1.5142068e+2, -1431824.9, -1484319.6, -145.84862, 0.0031655955, 0.0046110316, -1431824.5, 24255.86, 0.0, 5.0142317, 4.980052 
1.3287729e+2, 1.5640065e+2, -1384326.9, -1438306.5, -164.5901, 0.004449696, 0.0017508984, -1384326.4, 22950.451, 0.0, 5.014188, 4.9790564 
1.3287742e+2, 1.6137688e+2, -1343520.4, -1406322.3, -411.21298, 0.006018846, 0.0041131577, -1343517.8, 14992.222, 0.0, 5.0141473, 4.973364 
1.3287735e+2, 1.6635017e+2, -1294369.4, -1356975.5, -482.2245, 0.00826819, 0.00021825099, -1294365.6, 15405.099, 0.0, 5.0141134, 4.9734545 
1.3287726e+2, 1.7132351e+2, -1245346.1, -1307900.1, -465.137, 0.010537736, -0.0035743725, -1245342.6, 15688.464, 0.0, 5.0140796, 4.9734545 
1.3287717e+2, 1.7629683e+2, -1197459.1, -1261228.6, -448.0451, 0.012799564, -0.0069707935, -1197456.0, 14835.569, 0.0, 5.0140452, 4.972647 
1.3287702e+2, 1.8126673e+2, -1157154.0, -1230685.9, -175.32147, 0.013246914, -0.0010597873, -1157153.6, 6432.2314, 0.0, 5.014016, 4.966383 
1.3287672e+2, 1.8623362e+2, -1107778.6, -1181002.0, -86.752426, 0.009354337, 0.00006527327, -1107778.5, 7131.292, 0.0, 5.013995, 4.9665575 
1.3287643e+2, 1.9120055e+2, -1058645.3, -1131836.5, -63.02938, 0.0052697337, 0.0011010525, -1058645.3, 7588.375, 0.0, 5.013974, 4.966558 
1.3287611e+2, 1.961675e+2, -1010403.94, -1084587.4, -38.986607, 0.0011786426, 0.002458143, -1010403.9, 7153.4897, 0.0, 5.0139527, 4.9659076 
1.3287593e+2, 2.0113055e+2, -970728.06, -1055684.4, -265.41342, -0.0006986699, 0.009431703, -970727.25, -1807.9508, 0.0, 5.013905, 4.959008 
1.3287598e+2, 2.060894e+2, -921624.7, -1006148.25, -384.1231, 0.0031483937, 0.003638369, -921622.94, -1299.7695, 0.0, 5.0137773, 4.959157 
1.3287604e+2, 2.1104822e+2, -872737.1, -957057.3, -391.47122, 0.0072769932, -0.0027084907, -872735.3, -1007.93506, 0.0, 5.013644, 4.9591575 
1.328761e+2, 2.1600704e+2, -824514.0, -909419.4, -398.83536, 0.011389064, -0.0089186, -824512.1, -1380.5516, 0.0, 5.0135107, 4.958658 
1.3287587e+2, 2.2096258e+2, -784340.3, -879317.3, -606.21674, 0.013330229, -0.005509686, -784336.44, -9769.937, 0.0, 5.0133567, 4.952127 
1.3287471e+2, 2.2591528e+2, -734906.4, -828694.7, -739.4716, 0.008777624, -0.008056844, -734900.5, -8874.62, 0.0, 5.013139, 4.9526563 
1.328735e+2, 2.3086804e+2, -686181.1, -779628.7, -775.6018, 0.0037694073, -0.010845568, -686174.7, -8690.177, 0.0, 5.0129166, 4.95266 
1.3287227e+2, 2.3582079e+2, -638103.1, -732006.4, -807.9855, -0.0012907303, -0.013692153, -638096.2, -9152.977, 0.0, 5.0126934, 4.9521623 
1.3287118e+2, 2.4077007e+2, -600440.4, -707202.94, -568.02997, -0.0056498474, -0.000918382, -600437.4, -19998.688, 0.0, 5.012402, 4.943756 
1.3287117e+2, 2.4571498e+2, -551382.25, -657249.94, -248.66524, -0.0071166004, 0.004553499, -551381.6, -19395.906, 0.0, 5.012123, 4.9440384 
1.3287124e+2, 2.506597e+2, -502605.44, -608131.0, -319.48776, -0.0083069615, 0.0072805756, -502604.47, -19069.074, 0.0, 5.011866, 4.9440346 
1.3287126e+2, 2.556045e+2, -454074.28, -559575.3, -392.03128, -0.009507975, 0.010568814, -454072.84, -18988.273, 0.0, 5.011603, 4.9438324 
1.328708e+2, 2.6054528e+2, -411863.34, -524155.25, -1268.2328, -0.0120210815, 0.014832005, -411849.03, -25182.107, 0.0, 5.011123, 4.938949 
1.3286655e+2, 2.6548597e+2, -361212.38, -463694.7, -1391.2877, -0.03765222, -0.027474929, -361193.47, -22966.535, 0.0, 5.009417, 4.943215 
1.3286135e+2, 2.704275e+2, -316315.3, -415850.47, -747.10046, -0.06981576, -0.07422485, -316309.7, -26533.541, 0.0, 5.0075407, 4.94338 
1.3285561e+2, 2.7536905e+2, -271414.3, -368143.66, 49.657726, -0.104998186, -0.12375718, -271414.3, -30088.953, 0.0, 5.0056367, 4.943497 
1.3285655e+2, 2.8031102e+2, -257998.22, -405230.7, 6326.234, -0.108991675, -0.009573742, -257726.89, -64847.043, 0.0, 5.0063076, 4.913207 
1.3286108e+2, 2.8524017e+2, -192991.4, -326919.56, -1066.5344, -0.07478475, 0.08615758, -192982.9, -48379.418, 0.0, 5.0080523, 4.9221883 
1.3286117e+2, 2.901624e+2, -142847.02, -276679.4, -2288.2024, -0.054095026, 0.061263584, -142807.9, -46407.234, 0.0, 5.0082273, 4.9222493 
1.3286081e+2, 2.950843e+2, -92669.97, -226484.86, -3350.01, -0.035020806, 0.0307741, -92586.16, -44384.668, 0.0, 5.008347, 4.9223104 
1.328606e+2, 3.0001843e+2, -25733.56, -104501.48, -4370.764, -0.003055556, -0.013034797, -25491.773, -25491.773, 0.0, 5.0086107, 4.957028 
1.328547e+2, 3.049887e+2, -5419.9272, -55544.883, -5127.2266, 0.038114335, -0.09813209, -4900.844, -4900.844, 0.0, 5.0084324, 4.9732304 
1.3284528e+2, 3.0996883e+2, -5417.7803, -53295.438, -5115.6177, 0.05915027, -0.16652906, -4877.29, -4877.29, 0.0, 5.007935, 4.974017 
1.3283409e+2, 3.149509e+2, -5323.8843, -51135.316, -4800.383, 0.06664302, -0.22418103, -4826.278, -4826.278, 0.0, 5.007364, 4.9748044 
1.3788772e+2, 1.2151954e+2, -1709859.8, -1745061.3, 459.6933, -0.007358671, -0.003324156, -1709853.8, 39254.95, 0.0, 5.0141325, 4.9911785 
1.3788792e+2, 1.2650542e+2, -1668660.0, -1712228.5, 468.38776, -0.011580435, -0.0064468575, -1668655.0, 31590.637, 0.0, 5.0142016, 4.985842 
1.3788906e+2, 1.3149148e+2, -1619522.0, -1663165.5, 410.62677, -0.006751784, -0.00499819, -1619518.1, 31865.357, 0.0, 5.0142493, 4.9858403 
1.3789016e+2, 1.3647753e+2, -1572623.5, -1618656.1, 354.5514, -0.0019875884, -0.002282525, -1572620.8, 29900.943, 0.0, 5.0142875, 4.9843345 
1.3789098e+2, 1.4146067e+2, -1530063.9, -1582988.3, -32.685394, 0.0013837387, 0.013217385, -1530063.9, 23623.979, 0.0, 5.014296, 4.9798374 
1.3789113e+2, 1.4644065e+2, -1480848.5, -1533412.4, -152.68912, 0.0021756585, 0.010301925, -1480848.0, 24036.625, 0.0, 5.0142546, 4.9800286 
1.3789125e+2, 1.5142058e+2, -1431927.1, -1484424.5, -167.90372, 0.0028867652, 0.006435498, -1431926.5, 24155.621, 0.0, 5.0142093, 4.9800277 
1.3789138e+2, 1.5640047e+2, -1384439.8, -1438416.1, -182.56807, 0.00358654, 0.003022003, -1384439.1, 22840.604, 0.0, 5.0141616, 4.9790316 
1.3789147e+2, 1.6137663e+2, -1343589.0, -1406338.1, -424.20822, 0.0048591276, 0.0048911297, -1343586.1, 14927.341, 0.0, 5.014121, 4.973371 
1.3789138e+2, 1.6634989e+2, -1294391.9, -1356937.3, -500.11884, 0.007499999, 0.00048026492, -1294387.9, 15386.454, 0.0, 5.014096, 4.9734755 
1.378913e+2, 1.7132318e+2, -1245348.8, -1307852.1, -489.89514, 0.01018237, -0.0038441934, -1245344.9, 15689.784, 0.0, 5.0140686, 4.973476 
1.3789122e+2, 1.7629647e+2, -1197449.6, -1261174.6, -479.48608, 0.012849155, -0.007773493, -1197446.0, 14849.078, 0.0, 5.0140386, 4.972668 
1.3789108e+2, 1.8126635e+2, -1157137.8, -1230620.4, -204.40576, 0.013570329, -0.0023461948, -1157137.3, 6451.977, 0.0, 5.01401, 4.9664083 
1.3789076e+2, 1.8623327e+2, -1107776.1, -1180934.3, -107.29128, 0.009680257, -0.0015845927, -1107776.0, 7136.7446, 0.0, 5.0139823, 4.966586 
1.3789043e+2, 1.9120018e+2, -1058672.4, -1131782.5, -76.18811, 0.005574516, -0.0009044415, -1058672.3, 7563.7256, 0.0, 5.0139513, 4.9665866 
1.378901e+2, 1.9616711e+2, -1010470.44, -1084551.5, -44.396633, 0.0014471331, 0.000101570964, -1010470.4, 7088.86, 0.0, 5.0139165, 4.9659367 
1.3788989e+2, 2.0113018e+2, -970875.8, -1055775.3, -330.24176, -0.00011849926, 0.0071126446, -970874.5, -1953.8844, 0.0, 5.0138593, 4.9589987 
1.3788995e+2, 2.0608906e+2, -921756.44, -1006237.5, -483.53506, 0.0050318274, 0.0017940967, -921753.7, -1429.209, 0.0, 5.0137386, 4.959144 
1.3789001e+2, 2.1104792e+2, -872860.5, -957142.4, -498.71448, 0.010506277, -0.004122667, -872857.56, -1128.9436, 0.0, 5.013608, 4.9591446 
1.3789007e+2, 2.1600676e+2, -824644.5, -909507.44, -513.06287, 0.01594865, -0.009909185, -824641.4, -1508.5884, 0.0, 5.013472, 4.9586453 
1.3788977e+2, 2.209623e+2, -784517.94, -879507.7, -772.7663, 0.018560203, -0.006390396, -784511.7, -9943.65, 0.0, 5.0133185, 4.9520783 
1.3788825e+2, 2.2591488e+2, -735046.5, -828877.4, -914.3712, 0.012625406, -0.009572872, -735037.56, -9009.401, 0.0, 5.013117, 4.9526014 
1.3788669e+2, 2.3086753e+2, -686303.0, -779796.56, -948.6749, 0.0060486454, -0.013017587, -686293.4, -8805.887, 0.0, 5.012901, 4.952607 
1.3788508e+2, 2.3582017e+2, -638241.4, -732175.4, -983.9185, -0.0006257978, -0.016507905, -638231.06, -9284.197, 0.0, 5.0126715, 4.952111 
1.3788362e+2, 2.4076943e+2, -600663.44, -707411.1, -863.508, -0.006276498, -0.0033502055, -600656.44, -20214.129, 0.0, 5.012358, 4.943698 
1.3788335e+2, 2.4571444e+2, -551613.4, -657375.3, -576.4214, -0.0075309216, 0.003502674, -551610.25, -19621.549, 0.0, 5.0120645, 4.944012 
1.3788322e+2, 2.5065926e+2, -502909.44, -608291.25, -704.2808, -0.008386812, 0.0074354974, -502904.75, -19366.9, 0.0, 5.0117826, 4.9440074 
1.37883e+2, 2.5560415e+2, -454497.66, -559791.1, -832.25366, -0.00929974, 0.011987066, -454491.06, -19404.662, 0.0, 5.011478, 4.9438047 
1.3788225e+2, 2.6054478e+2, -412368.94, -523859.44, -2340.2886, -0.009981334, 0.014260924, -412319.84, -25649.998, 0.0, 5.0108876, 4.939128 
1.3787693e+2, 2.654849e+2, -362588.44, -463188.22, -3310.854, -0.032840673, -0.03800409, -362479.6, -24248.418, 0.0, 5.008809, 4.9435925 
1.3787043e+2, 2.7042603e+2, -319304.72, -415810.34, -3379.0688, -0.06390639, -0.09441518, -319186.56, -29406.688, 0.0, 5.006347, 4.943832 
1.378634e+2, 2.753673e+2, -276596.75, -368819.75, -3459.815, -0.09931526, -0.15318637, -276467.16, -35139.81, 0.0, 5.0036488, 4.944024 
1.3786444e+2, 2.803096e+2, -266067.38, -411093.0, 4971.4243, -0.10848368, -0.03537492, -265897.16, -73021.945, 0.0, 5.0039425, 4.9122176 
1.3787027e+2, 2.8523946e+2, -197792.81, -331137.84, -3129.3398, -0.07342129, 0.07759851, -197719.42, -53122.625, 0.0, 5.006816, 4.921268 
1.3787095e+2, 2.901621e+2, -145478.25, -279677.63, -3269.3362, -0.048101787, 0.064110585, -145398.64, -49002.46, 0.0, 5.007753, 4.921393 
1.3787118e+2, 2.950843e+2, -94267.42, -228770.55, -3612.5027, -0.025547313, 0.044221167, -94170.47, -45971.117, 0.0, 5.0082326, 4.9215183 
1.3787207e+2, 3.0001822e+2, -28350.152, -107546.61, -3853.4446, 0.013419753, 0.0065226415, -28163.098, -28163.098, 0.0, 5.0082664, 4.9560347 
1.3786854e+2, 3.049855e+2, -12787.898, -59659.03, -3380.277, 0.076630756, -0.09727273, -12545.373, -12545.373, 0.0, 5.0062985, 4.9725676 
1.3786122e+2, 3.099629e+2, -20596.57, -60254.688, -586.29626, 0.11706931, -0.1843209, -20587.904, -20587.904, 0.0, 5.002939, 4.973518 
1.37852e+2, 3.149428e+2, -30966.074, -62079.625, 4153.5103, 0.14019811, -0.2555853, -30421.145, -30421.145, 0.0, 4.9985404, 4.974468 
1.4290188e+2, 1.21519536e+2, -1709312.8, -1745229.0, 133.06721, -0.008247412, -0.00023430405, -1709312.3, 39798.082, 0.0, 5.0144053, 4.99099 
1.4290217e+2, 1.2650535e+2, -1668038.0, -1711831.0, 82.60844, -0.01214197, -0.0043241247, -1668037.9, 32210.002, 0.0, 5.0143867, 4.9858828 
1.429033e+2, 1.3149135e+2, -1619180.1, -1662901.0, 189.47092, -0.007188935, -0.0038773112, -1619179.3, 32206.623, 0.0, 5.0143414, 4.9858828 
1.4290443e+2, 1.3647732e+2, -1572531.4, -1618508.9, 295.6989, -0.00223428, -0.0021803328, -1572529.5, 29994.717, 0.0, 5.0142956, 4.984379 
1.4290525e+2, 1.4146045e+2, -1530169.1, -1583045.0, 15.923438, 0.0012884665, 0.012771184, -1530169.1, 23521.215, 0.0, 5.0142612, 4.979835 
1.4290535e+2, 1.4644046e+2, -1480900.5, -1533472.9, -95.8123, 0.0019716788, 0.010315402, -1480900.4, 23986.645, 0.0, 5.014244, 4.980013 
1.4290544e+2, 1.5142041e+2, -1431894.8, -1484440.6, -106.04749, 0.0025741458, 0.0069490774, -1431894.5, 24189.773, 0.0, 5.0142274, 4.980013 
1.4290553e+2, 1.5640034e+2, -1384317.9, -1438385.4, -116.45314, 0.0031807094, 0.0040453384, -1384317.6, 22964.094, 0.0, 5.01421, 4.9790177 
1.4290558e+2, 1.613765e+2, -1343388.3, -1406316.3, -351.05045, 0.004408841, 0.006276992, -1343386.3, 15129.12, 0.0, 5.014205, 4.973338 
1.429055e+2, 1.6634975e+2, -1294067.9, -1356870.9, -492.82086, 0.0070928256, 0.0018744745, -1294064.0, 15712.596, 0.0, 5.0142245, 4.973437 
1.4290543e+2, 1.71323e+2, -1244886.3, -1307719.6, -558.60535, 0.009848381, -0.0024627238, -1244881.3, 16156.086, 0.0, 5.0142446, 4.973437 
1.4290535e+2, 1.7629625e+2, -1196841.8, -1260973.1, -624.4921, 0.01261663, -0.006412494, -1196835.8, 15462.463, 0.0, 5.0142646, 4.9726295 
1.429052e+2, 1.8126605e+2, -1156423.8, -1230250.3, -447.02, 0.013602846, -0.0014254025, -1156421.0, 7171.7227, 0.0, 5.014248, 4.966421 
1.4290488e+2, 1.8623286e+2, -1107278.5, -1180628.1, -382.35568, 0.010321495, -0.0019545872, -1107276.5, 7640.0464, 0.0, 5.014139, 4.966616 
1.4290453e+2, 1.9119968e+2, -1058415.3, -1131589.4, -369.9004, 0.0068635726, -0.0025943618, -1058413.4, 7826.8223, 0.0, 5.0140257, 4.9666176 
1.429042e+2, 1.9616652e+2, -1010442.06, -1084465.1, -357.1322, 0.0034103568, -0.002913802, -1010440.4, 7123.388, 0.0, 5.0139127, 4.965968 
1.4290395e+2, 2.0112956e+2, -971051.7, -1055951.3, -660.79065, 0.0022459542, 0.0036140864, -971046.56, -2121.3718, 0.0, 5.013819, 4.958958 
1.4290391e+2, 2.0608854e+2, -921742.4, -1006403.9, -882.33563, 0.0070863813, 0.00010330431, -921733.2, -1404.8402, 0.0, 5.0137806, 4.959069 
1.4290386e+2, 2.110475e+2, -872573.25, -957179.2, -975.21643, 0.012274495, -0.003894616, -872562.06, -830.16394, 0.0, 5.0137453, 4.9590697 
1.4290382e+2, 2.1600647e+2, -824070.4, -909409.56, -1068.2377, 0.01749108, -0.007780189, -824057.0, -921.5966, 0.0, 5.0137095, 4.958571 
1.4290342e+2, 2.20962e+2, -783606.75, -879271.1, -1419.0321, 0.020102268, -0.0035567652, -783585.7, -9014.79, 0.0, 5.013674, 4.952002 
1.4290184e+2, 2.2591424e+2, -733764.44, -828493.75, -1639.4385, 0.01470627, -0.009252043, -733736.06, -7701.985, 0.0, 5.0136037, 4.95252 
1.4290021e+2, 2.3086652e+2, -684627.5, -779248.25, -1744.4286, 0.008810665, -0.015514265, -684595.4, -7098.645, 0.0, 5.013528, 4.952522 
1.4289854e+2, 2.3581877e+2, -636139.6, -731449.7, -1844.9619, 0.0029357474, -0.021957926, -636103.94, -7144.3784, 0.0, 5.013451, 4.9520216 
1.4289694e+2, 2.4076773e+2, -597949.5, -706150.2, -1785.0273, -0.001953103, -0.011437257, -597920.06, -17462.648, 0.0, 5.0132775, 4.9437428 
1.4289631e+2, 2.4571304e+2, -549330.25, -656374.56, -1313.6946, -0.0030708832, -0.0020465394, -549314.1, -17313.799, 0.0, 5.0128365, 4.9440446 
1.4289582e+2, 2.5065824e+2, -501157.56, -607540.7, -1226.5999, -0.0036902146, 0.0055679437, -501143.4, -17598.402, 0.0, 5.012374, 4.94404 
1.4289524e+2, 2.5560355e+2, -453226.16, -559266.2, -1144.6769, -0.0041768663, 0.0141015025, -453213.8, -18124.963, 0.0, 5.011906, 4.943837 
1.4289418e+2, 2.605444e+2, -411173.0, -524555.0, -2902.4502, -0.00254017, 0.01938414, -411098.75, -24429.342, 0.0, 5.0114856, 4.9386935 
1.4288868e+2, 2.65483e+2, -357603.97, -463768.7, -4945.1484, -0.016809031, -0.037673455, -357374.1, -19128.877, 0.0, 5.010951, 4.9425936 
1.4288206e+2, 2.7042174e+2, -309029.63, -414581.72, -5846.4263, -0.037161913, -0.10572695, -308706.78, -18890.287, 0.0, 5.0103664, 4.9427085 
1.4287491e+2, 2.7536002e+2, -260429.7, -365596.44, -6587.5005, -0.06004776, -0.18240263, -260018.69, -18626.041, 0.0, 5.009765, 4.942776 
1.4287576e+2, 2.8029883e+2, -247818.98, -397674.28, 4592.3906, -0.06469597, -0.10287039, -247678.38, -54703.992, 0.0, 5.0098376, 4.9141994 
1.4288174e+2, 2.852308e+2, -188201.58, -322802.6, -2505.0083, -0.04169606, 0.018890386, -188154.97, -43480.906, 0.0, 5.0105686, 4.9221554 
1.4288273e+2, 2.9015675e+2, -137351.14, -273117.4, -3166.8635, -0.023525663, 0.036880117, -137277.3, -40838.51, 0.0, 5.011048, 4.921944 
1.4288327e+2, 2.9508197e+2, -86441.85, -223504.6, -3665.1343, -0.0050271815, 0.047316696, -86343.914, -38133.17, 0.0, 5.011491, 4.921733 
1.4288482e+2, 3.0001923e+2, -18014.941, -100989.414, -3752.4404, 0.03570074, 0.03815657, -17845.586, -17845.586, 0.0, 5.012258, 4.9565306 
1.4288369e+2, 3.0498344e+2, 6622.249, -52224.047, -7429.8467, 0.12379887, -0.08042895, 7545.8345, 7545.8345, 0.0, 5.0142813, 4.971832 
1.4287911e+2, 3.099558e+2, 15109.417, -42738.37, -11074.781, 0.2014615, -0.20787872, 17157.162, 17157.162, 0.0, 5.0163727, 4.974052 
1.428728e+2, 3.149312e+2, 23946.057, -33618.574, -14295.626, 0.2714201, -0.33524036, 27300.738, 27300.738, 0.0, 5.018428, 4.9762774 
1.4791617e+2, 1.21519215e+2, -1710373.6, -1747374.3, 273.81146, -0.009649695, 0.002456224, -1710371.6, 38744.082, 0.0, 5.0144033, 4.9902864 
1.4791659e+2, 1.2650557e+2, -1667826.9, -1711388.0, 45.359783, -0.01189808, 0.0032712992, -1667826.9, 32421.043, 0.0, 5.0143847, 4.986029 
1.4791763e+2, 1.3149132e+2, -1618970.0, -1662460.3, 153.7468, -0.0073798886, -0.00031405003, -1618969.5, 32418.229, 0.0, 5.0143394, 4.9860287 
1.4791867e+2, 1.3647704e+2, -1572322.3, -1618070.0, 261.51038, -0.0028848057, -0.0026495205, -1572320.8, 30207.045, 0.0, 5.014294, 4.9845247 
1.4791942e+2, 1.4146002e+2, -1530135.1, -1582971.4, -1.5843639, 0.00038521702, 0.009915997, -1530135.1, 23559.666, 0.0, 5.014261, 4.97986 
1.4791952e+2, 1.4644013e+2, -1480917.9, -1533507.3, -109.17965, 0.0012384446, 0.008623279, -1480917.6, 23972.764, 0.0, 5.014244, 4.980002 
1.4791961e+2, 1.5142019e+2, -1431911.9, -1484474.9, -118.86685, 0.0020133706, 0.006540576, -1431911.6, 24175.064, 0.0, 5.014227, 4.980002 
1.4791971e+2, 1.5640025e+2, -1384334.8, -1438419.6, -128.72176, 0.0027861034, 0.004920231, -1384334.4, 22948.547, 0.0, 5.0142097, 4.979007 
1.4791976e+2, 1.6137649e+2, -1343477.1, -1406504.1, -342.50735, 0.0041048876, 0.008114341, -1343475.3, 15040.901, 0.0, 5.0142055, 4.973275 
1.479197e+2, 1.6634966e+2, -1294182.5, -1357114.5, -477.94742, 0.0066760755, 0.0040880097, -1294178.9, 15599.128, 0.0, 5.014225, 4.9733553 
1.4791961e+2, 1.713229e+2, -1245000.3, -1307962.6, -542.8947, 0.009295236, 0.00011762317, -1244995.6, 16043.959, 0.0, 5.014245, 4.9733553 
1.4791954e+2, 1.762961e+2, -1196955.3, -1261215.4, -607.9466, 0.011914323, -0.0034645384, -1196949.5, 15351.646, 0.0, 5.014265, 4.972548 
1.4791942e+2, 1.812658e+2, -1156429.3, -1230264.6, -507.61182, 0.013116136, 0.0011658346, -1156425.8, 7170.832, 0.0, 5.014248, 4.966416 
1.4791909e+2, 1.8623243e+2, -1107252.0, -1180573.0, -466.66425, 0.01091749, -0.0012746261, -1107249.0, 7672.3213, 0.0, 5.014139, 4.966635 
1.4791875e+2, 1.9119908e+2, -1058389.6, -1131533.8, -452.71994, 0.00856158, -0.0038735904, -1058386.9, 7859.146, 0.0, 5.0140257, 4.9666367 
1.479184e+2, 1.9616573e+2, -1010417.3, -1084409.0, -438.45013, 0.0061947354, -0.006150304, -1010414.75, 7155.75, 0.0, 5.013912, 4.9659877 
1.479181e+2, 2.0112869e+2, -971140.75, -1056140.1, -706.4543, 0.0054092705, -0.00042215834, -971134.9, -2202.5198, 0.0, 5.0138187, 4.958894 
1.4791787e+2, 2.0608783e+2, -921898.3, -1006738.9, -910.3684, 0.008757409, -0.0012211814, -921888.56, -1554.0311, 0.0, 5.01378, 4.958955 
1.4791761e+2, 2.1104698e+2, -872728.4, -957513.5, -1001.39, 0.012330599, -0.002264501, -872716.56, -979.642, 0.0, 5.013745, 4.958956 
1.4791739e+2, 2.1600612e+2, -824224.7, -909743.2, -1092.549, 0.01591189, -0.00318767, -824210.7, -1071.4069, 0.0, 5.013709, 4.958457 
1.4791685e+2, 2.2096166e+2, -783764.2, -879604.75, -1458.1201, 0.017850898, 0.002212525, -783742.0, -9166.81, 0.0, 5.013672, 4.951888 
1.4791547e+2, 2.2591339e+2, -733935.1, -828835.9, -1679.322, 0.014683212, -0.0072590457, -733905.44, -7862.3667, 0.0, 5.013599, 4.9524045 
1.4791399e+2, 2.3086512e+2, -684803.9, -779582.0, -1777.5521, 0.011155811, -0.017572163, -684770.5, -7259.875, 0.0, 5.0135202, 4.9524093 
1.4791252e+2, 2.3581685e+2, -636321.6, -731775.1, -1871.3151, 0.0075987987, -0.028053578, -636284.94, -7306.5703, 0.0, 5.01344, 4.951912 
1.4791098e+2, 2.4076542e+2, -597777.56, -705573.44, -2014.756, 0.0046128333, -0.021549165, -597739.94, -17260.5, 0.0, 5.0132523, 4.9439435 
1.479099e+2, 2.457112e+2, -549163.06, -655754.7, -1677.5896, 0.003584747, -0.009684857, -549136.7, -17120.28, 0.0, 5.012804, 4.9442625 
1.4790888e+2, 2.5065702e+2, -500996.03, -606934.94, -1580.5656, 0.0027483106, 0.0018334787, -500972.47, -17418.635, 0.0, 5.0123405, 4.9442544 
1.479078e+2, 2.5560293e+2, -453070.22, -558674.56, -1488.694, 0.0019421191, 0.014390566, -453049.22, -17958.902, 0.0, 5.0118713, 4.944048 
1.4790636e+2, 2.605443e+2, -411971.44, -525864.5, -3129.3394, 0.004104992, 0.024440888, -411885.53, -25220.553, 0.0, 5.011419, 4.9382687 
1.4790116e+2, 2.6548207e+2, -359403.8, -466563.8, -4900.998, -0.005870243, -0.028228953, -359180.13, -20929.063, 0.0, 5.010786, 4.941703 
1.4789492e+2, 2.7041993e+2, -311001.13, -417034.75, -5633.119, -0.02242936, -0.09222742, -310702.72, -20869.014, 0.0, 5.010107, 4.9419417 
1.4788811e+2, 2.7535746e+2, -262573.4, -367708.1, -6204.664, -0.042457733, -0.1645394, -262208.5, -20789.035, 0.0, 5.0094113, 4.942133 
1.4788842e+2, 2.8029406e+2, -244383.69, -389422.5, 3916.5203, -0.048139494, -0.11639707, -244278.02, -51254.52, 0.0, 5.0097914, 4.9171624 
1.4789397e+2, 2.852252e+2, -187057.58, -321927.2, -2295.0676, -0.028144488, -0.0122164795, -187018.53, -42294.215, 0.0, 5.010821, 4.9226007 
1.4789516e+2, 2.90152e+2, -136168.48, -271815.4, -2758.8367, -0.01268133, 0.016947903, -136112.4, -39638.855, 0.0, 5.01129, 4.922503 
1.4789584e+2, 2.9507807e+2, -85222.7, -221778.17, -3059.2302, 0.0018943158, 0.037036434, -85154.2, -36923.926, 0.0, 5.0117235, 4.9224052 
1.4789762e+2, 3.0001777e+2, -16679.18, -97753.78, -3083.7454, 0.03695134, 0.043684445, -16562.057, -16562.057, 0.0, 5.012353, 4.9577794 
1.4789826e+2, 3.0498078e+2, 1593.6123, -60757.117, -5876.6445, 0.11902802, -0.04490678, 2142.6597, 2142.6597, 0.0, 5.0139337, 4.969334 
1.4789584e+2, 3.099504e+2, 8834.615, -51403.15, -8700.526, 0.18928924, -0.13565645, 10066.111, 10066.111, 0.0, 5.015615, 4.971672 
1.4789158e+2, 3.1492397e+2, 16431.758, -42415.656, -11100.355, 0.24946107, -0.21699908, 18455.982, 18455.982, 0.0, 5.01726, 4.974015 
1.5293044e+2, 1.2151885e+2, -1711378.8, -1749404.9, 413.73328, -0.011112995, 0.0047963513, -1711374.3, 37747.18, 0.0, 5.0144014, 4.9896197 
1.52931e+2, 1.2650579e+2, -1667616.4, -1710944.6, 8.490189, -0.011663136, 0.010911619, -1667616.4, 32631.555, 0.0, 5.014383, 4.986175 
1.5293196e+2, 1.3149129e+2, -1618760.5, -1662019.0, 118.401665, -0.00757762, 0.0032770268, -1618760.1, 32629.303, 0.0, 5.014338, 4.9861746 
1.5293291e+2, 1.3647674e+2, -1572113.6, -1617630.6, 227.70078, -0.00353994, -0.0031079724, -1572112.5, 30418.838, 0.0, 5.0142927, 4.98467 
1.529336e+2, 1.414596e+2, -1530104.9, -1582904.9, -18.247074, -0.0005200763, 0.007079538, -1530104.9, 23594.447, 0.0, 5.0142603, 4.979882 
1.529337e+2, 1.4643982e+2, -1480935.5, -1533541.4, -122.470055, 0.00050336827, 0.0069469246, -1480935.1, 23958.71, 0.0, 5.0142436, 4.9799905 
1.5293379e+2, 1.5142e+2, -1431929.1, -1484509.0, -131.60927, 0.0014510304, 0.0061389576, -1431928.9, 24160.184, 0.0, 5.014227, 4.9799905 
1.5293387e+2, 1.5640016e+2, -1384351.8, -1438453.9, -140.9134, 0.0023902096, 0.00579312, -1384351.4, 22932.834, 0.0, 5.0142097, 4.9789953 
1.5293393e+2, 1.6137646e+2, -1343568.9, -1406697.9, -333.525, 0.0037980778, 0.009961561, -1343567.1, 14949.787, 0.0, 5.0142055, 4.973211 
1.5293388e+2, 1.663496e+2, -1294297.5, -1357358.0, -463.08786, 0.006257153, 0.0063068285, -1294294.1, 15485.393, 0.0, 5.0142255, 4.9732733 
1.529338e+2, 1.7132276e+2, -1245114.6, -1308205.4, -527.1979, 0.008741323, 0.002692116, -1245110.3, 15931.57, 0.0, 5.014245, 4.9732738 
1.5293375e+2, 1.7629594e+2, -1197068.9, -1261457.5, -591.4149, 0.011212653, -0.0005335747, -1197063.5, 15240.574, 0.0, 5.014265, 4.9724665 
1.5293363e+2, 1.8126556e+2, -1156438.5, -1230286.5, -568.16724, 0.012626133, 0.003787391, -1156434.1, 7166.171, 0.0, 5.0142484, 4.9664083 
1.5293328e+2, 1.8623202e+2, -1107225.9, -1180517.5, -551.42413, 0.011506362, -0.00056845776, -1107221.8, 7704.37, 0.0, 5.014139, 4.9666533 
1.5293294e+2, 1.9119848e+2, -1058364.4, -1131477.9, -535.99084, 0.010250186, -0.005151974, -1058360.5, 7891.248, 0.0, 5.0140257, 4.9666553 
1.529326e+2, 1.9616495e+2, -1010393.0, -1084352.6, -520.21954, 0.008967431, -0.009411322, -1010389.3, 7187.8926, 0.0, 5.0139117, 4.9660068 
1.5293226e+2, 2.0112783e+2, -971241.2, -1056352.8, -751.91296, 0.00857592, -0.004413385, -971234.56, -2295.0195, 0.0, 5.0138183, 4.958822 
1.5293182e+2, 2.0608713e+2, -922054.75, -1007073.5, -938.3471, 0.010434953, -0.0024976127, -922044.4, -1703.72, 0.0, 5.0137796, 4.958841 
1.5293138e+2, 2.1104644e+2, -872883.94, -957847.5, -1027.5094, 0.012390968, -0.0006212065, -872871.56, -1129.6046, 0.0, 5.0137444, 4.9588413 
1.5293095e+2, 2.1600577e+2, -824379.44, -910076.5, -1116.8059, 0.014334712, 0.0013831556, -824364.9, -1221.6881, 0.0, 5.0137086, 4.9583426 
1.5293032e+2, 2.2096132e+2, -783933.4, -879961.56, -1499.2932, 0.01559666, 0.008014987, -783909.94, -9330.483, 0.0, 5.0136704, 4.951766 
1.5292907e+2, 2.2591254e+2, -734107.56, -829176.7, -1724.0925, 0.014622813, -0.0053157452, -734076.3, -8024.227, 0.0, 5.013594, 4.9522877 
1.5292777e+2, 2.3086374e+2, -684981.9, -779914.44, -1815.5621, 0.013431177, -0.019818582, -684947.2, -7422.525, 0.0, 5.013512, 4.9522953 
1.5292647e+2, 2.3581493e+2, -636505.25, -732099.3, -1902.5547, 0.01215963, -0.03447657, -636467.4, -7470.124, 0.0, 5.0134296, 4.9518013 
1.5292497e+2, 2.4076316e+2, -597668.5, -705121.3, -2255.315, 0.011042721, -0.031285096, -597621.2, -17120.082, 0.0, 5.0132275, 4.9440994 
1.5292345e+2, 2.4570943e+2, -549004.2, -655126.8, -2037.6027, 0.010161276, -0.016684933, -548965.1, -16933.148, 0.0, 5.012771, 4.944479 
1.5292192e+2, 2.5065583e+2, -500842.8, -606321.2, -1930.65, 0.0091853645, -0.0014459039, -500807.47, -17245.271, 0.0, 5.0123067, 4.9444675 
1.5292032e+2, 2.5560233e+2, -452922.53, -558074.9, -1828.8302, 0.008137265, 0.014951564, -452890.72, -17799.268, 0.0, 5.011837, 4.944258 
1.5291849e+2, 2.6054406e+2, -412957.66, -527543.0, -3467.4202, 0.011160687, 0.028842416, -412852.8, -26190.89, 0.0, 5.0113525, 4.937692 
1.5291342e+2, 2.6548082e+2, -361233.0, -469339.34, -5039.8276, 0.004249808, -0.02278993, -360998.56, -22738.574, 0.0, 5.0106215, 4.940764 
1.5290731e+2, 2.7041766e+2, -313001.63, -419467.16, -5602.794, -0.010093709, -0.08616482, -312707.6, -22852.627, 0.0, 5.0098476, 4.941127 
1.5290062e+2, 2.7535436e+2, -264745.8, -369798.13, -6004.8438, -0.028843056, -0.15754412, -264403.7, -22952.285, 0.0, 5.009058, 4.941442 
1.5290108e+2, 2.8028953e+2, -242859.81, -385555.97, 3463.5676, -0.030066308, -0.12627421, -242775.78, -49705.48, 0.0, 5.0097456, 4.918586 
1.529068e+2, 2.8522044e+2, -185971.3, -320998.38, -2298.7952, -0.009347516, -0.029569358, -185932.17, -41165.24, 0.0, 5.0110726, 4.9230056 
1.529081e+2, 2.9014796e+2, -135043.08, -270460.0, -2564.3745, 0.001677466, 0.0065950854, -134994.53, -38492.285, 0.0, 5.0115323, 4.923022 
1.5290889e+2, 2.950746e+2, -84060.31, -219998.42, -2666.8323, 0.010599742, 0.032161247, -84008.016, -35762.68, 0.0, 5.011956, 4.9230375 
1.5291092e+2, 3.000155e+2, -16719.795, -97564.44, -2677.83, 0.04113711, 0.046081636, -16631.193, -16631.193, 0.0, 5.0124474, 4.957852 
1.5291297e+2, 3.049758e+2, -3500.6387, -69248.484, -4512.586, 0.12007611, -0.034099627, -3192.364, -3192.364, 0.0, 5.013586, 4.966604 
1.5291214e+2, 3.0994186e+2, 2492.4407, -60027.133, -6513.479, 0.18416011, -0.110769704, 3163.825, 3163.825, 0.0, 5.0148573, 4.9690595 
1.5290937e+2, 3.1491274e+2, 8847.423, -51172.363, -8090.365, 0.23577085, -0.16872181, 9918.837, 9918.837, 0.0, 5.016093, 4.97152 
1.5794472e+2, 1.2151845e+2, -1712345.9, -1751322.8, 618.1592, -0.012571788, 0.006771215, -1712336.1, 36791.395, 0.0, 5.0143924, 4.9889946 
1.5794542e+2, 1.2650603e+2, -1667410.3, -1710507.3, 19.954561, -0.011396612, 0.018580746, -1667410.3, 32837.53, 0.0, 5.0143805, 4.9863195 
1.5794629e+2, 1.3149126e+2, -1618560.0, -1661585.6, 106.12903, -0.007765359, 0.0068885344, -1618559.8, 32831.457, 0.0, 5.014334, 4.9863186 
1.5794714e+2, 1.3647646e+2, -1571939.6, -1617211.4, 192.49039, -0.0041926857, -0.0035522212, -1571938.9, 30596.047, 0.0, 5.0142803, 4.984814 
1.5794776e+2, 1.4145917e+2, -1530137.4, -1582874.9, -50.567654, -0.0014191258, 0.004272407, -1530137.3, 23566.436, 0.0, 5.01424, 4.9799013 
1.5794788e+2, 1.464395e+2, -1481003.1, -1533599.5, -150.35298, -0.00022333373, 0.0052924096, -1481002.8, 23894.605, 0.0, 5.014227, 4.9799795 
1.5794797e+2, 1.514198e+2, -1431991.1, -1484564.3, -156.31232, 0.00090226956, 0.005744084, -1431990.8, 24100.7, 0.0, 5.0142117, 4.979979 
1.5794806e+2, 1.5640008e+2, -1384413.1, -1438508.6, -161.871, 0.0020162568, 0.006656292, -1384412.6, 22872.893, 0.0, 5.0141945, 4.9789844 
1.5794812e+2, 1.6137645e+2, -1343707.5, -1406917.8, -329.11905, 0.0035162824, 0.011805646, -1343705.8, 14811.95, 0.0, 5.014191, 4.973144 
1.5794806e+2, 1.6634955e+2, -1294452.1, -1357619.9, -450.9543, 0.005857732, 0.008521479, -1294448.9, 15332.062, 0.0, 5.014212, 4.9731917 
1.5794802e+2, 1.7132266e+2, -1245273.3, -1308468.8, -512.36273, 0.008206282, 0.005255807, -1245269.1, 15774.825, 0.0, 5.0142307, 4.973192 
1.5794796e+2, 1.7629577e+2, -1197241.4, -1261727.1, -574.1193, 0.010533896, 0.0023805057, -1197236.3, 15070.702, 0.0, 5.0142455, 4.972385 
1.5794781e+2, 1.8126532e+2, -1156522.5, -1230350.9, -629.3126, 0.012157492, 0.0064432556, -1156517.1, 7086.8506, 0.0, 5.014225, 4.966398 
1.579475e+2, 1.862316e+2, -1107263.6, -1180493.8, -648.77515, 0.012108636, 0.00016803654, -1107257.9, 7672.973, 0.0, 5.014118, 4.966671 
1.5794714e+2, 1.9119787e+2, -1058407.5, -1131455.8, -644.0871, 0.011951888, -0.0064276634, -1058401.8, 7855.648, 0.0, 5.0140023, 4.9666734 
1.579468e+2, 1.9616418e+2, -1010454.9, -1084338.5, -639.0755, 0.01175952, -0.012699703, -1010449.3, 7134.623, 0.0, 5.013882, 4.9660244 
1.579464e+2, 2.0112695e+2, -971446.4, -1056631.5, -836.3993, 0.011785, -0.008369057, -971438.2, -2491.471, 0.0, 5.013786, 4.9587417 
1.5794577e+2, 2.0608644e+2, -922268.94, -1007432.44, -987.57666, 0.012154102, -0.003737674, -922257.5, -1910.7369, 0.0, 5.013759, 4.9587274 
1.5794514e+2, 2.1104594e+2, -873074.1, -958194.8, -1056.6141, 0.012492624, 0.00102094, -873061.06, -1314.0922, 0.0, 5.013732, 4.958728 
1.579445e+2, 2.1600541e+2, -824560.7, -910419.3, -1126.0142, 0.012805275, 0.005914173, -824545.94, -1398.801, 0.0, 5.013699, 4.958229 
1.5794377e+2, 2.2096097e+2, -784146.06, -880357.5, -1515.3627, 0.013396317, 0.013828219, -784122.25, -9538.511, 0.0, 5.013658, 4.9516344 
1.5794267e+2, 2.2591168e+2, -734341.44, -829549.7, -1762.2056, 0.014594628, -0.003450671, -734308.8, -8247.726, 0.0, 5.0135694, 4.952168 
1.5794155e+2, 2.3086233e+2, -685287.9, -780312.3, -1871.3035, 0.015739055, -0.022299547, -685251.0, -7712.2837, 0.0, 5.013462, 4.952178 
1.579404e+2, 2.3581298e+2, -636921.94, -732539.4, -1982.4918, 0.016773757, -0.041302364, -636880.9, -7864.4277, 0.0, 5.0133395, 4.951686 
1.5793893e+2, 2.4076091e+2, -597955.2, -704970.1, -2594.9065, 0.017559532, -0.04074026, -597892.3, -17369.676, 0.0, 5.0130877, 4.944204 
1.5793696e+2, 2.4570769e+2, -549245.9, -654701.1, -2567.8833, 0.01695894, -0.023068931, -549183.4, -17136.22, 0.0, 5.012604, 4.9446874 
1.5793493e+2, 2.5065464e+2, -501185.44, -605952.44, -2540.5886, 0.01603767, -0.0042192433, -501123.88, -17553.504, 0.0, 5.012107, 4.9446726 
1.5793285e+2, 2.5560173e+2, -453399.5, -557777.4, -2517.8499, 0.014982376, 0.015897244, -453338.78, -18246.309, 0.0, 5.011593, 4.9444594 
1.5793064e+2, 2.6054364e+2, -415265.63, -530231.4, -4461.393, 0.019531868, 0.032731578, -415092.75, -28432.121, 0.0, 5.010908, 4.9369226 
1.5792553e+2, 2.6547912e+2, -366768.5, -474060.94, -6697.914, 0.015677368, -0.021494538, -366351.97, -28078.584, 0.0, 5.0091887, 4.9396744 
1.579194e+2, 2.7041465e+2, -322628.9, -425717.63, -8279.78, 0.0037975153, -0.08838227, -321968.13, -32084.398, 0.0, 5.006925, 4.9401236 
1.5791266e+2, 2.7535012e+2, -279702.75, -378106.3, -10059.0, -0.012897677, -0.16336493, -278685.03, -37190.523, 0.0, 5.004195, 4.9405265 
1.5791394e+2, 2.8028437e+2, -260698.19, -393805.9, -2035.7975, -0.0022085933, -0.13573779, -260667.06, -67543.48, 0.0, 5.003487, 4.9184613 
1.5792042e+2, 2.8521577e+2, -197535.38, -325155.75, -6652.212, 0.020954492, -0.03587635, -197189.56, -52380.47, 0.0, 5.006806, 4.923463 
1.5792175e+2, 2.9014394e+2, -141729.22, -272162.13, -5749.884, 0.023893062, 0.004135717, -141476.23, -44946.25, 0.0, 5.0089912, 4.9235525 
1.5792257e+2, 2.950713e+2, -87571.39, -220008.53, -5002.1655, 0.024182668, 0.03216307, -87382.73, -39123.566, 0.0, 5.01054, 4.9236426 
1.5792488e+2, 3.0001226e+2, -22115.834, -102310.64, -4860.203, 0.05104406, 0.04584326, -21822.355, -21822.355, 0.0, 5.0111394, 4.9566364 
1.5792803e+2, 3.0496803e+2, -19650.71, -82889.19, -6534.1865, 0.1324426, -0.049323563, -18982.617, -18982.617, 0.0, 5.009259, 4.963434 
1.579283e+2, 3.0992916e+2, -26566.123, -78834.63, -8328.805, 0.19627734, -0.1392572, -25271.047, -25271.047, 0.0, 5.005806, 4.966005 
1.5792662e+2, 3.148958e+2, -36953.01, -76778.49, -9298.42, 0.24680682, -0.20364363, -34888.996, -34888.996, 0.0, 5.0009127, 4.9685807 
1.6295917e+2, 1.2151812e+2, -1711204.1, -1750999.0, 1085.3854, -0.01421477, 0.005430999, -1711174.6, 37957.12, 0.0, 5.014818, 4.9888935 
1.6296013e+2, 1.2650631e+2, -1666586.3, -1710166.4, 263.61444, -0.00968946, 0.023753755, -1666584.6, 33661.31, 0.0, 5.0146637, 4.986295 
1.6296078e+2, 1.3149127e+2, -1618098.9, -1661421.4, 152.61218, -0.0069794706, 0.009538979, -1618098.4, 33293.66, 0.0, 5.0144978, 4.9862957 
1.6296144e+2, 1.3647619e+2, -1571818.1, -1617211.0, 40.661568, -0.004207074, -0.003404928, -1571818.0, 30720.344, 0.0, 5.014331, 4.9847918 
1.6296194e+2, 1.4145872e+2, -1530168.1, -1582878.9, -248.05638, -0.0018276266, 0.0028574236, -1530166.9, 23541.875, 0.0, 5.014227, 4.9799075 
1.629621e+2, 1.4643912e+2, -1480901.5, -1533525.6, -305.39758, -0.00042504512, 0.004289838, -1480899.8, 24001.87, 0.0, 5.0142555, 4.9799905 
1.6296221e+2, 1.5141946e+2, -1431746.6, -1484419.9, -286.80914, 0.0009461378, 0.005208361, -1431745.0, 24349.84, 0.0, 5.014288, 4.979991 
1.6296235e+2, 1.5639982e+2, -1384021.4, -1438292.0, -268.51865, 0.0023321176, 0.0065755243, -1384020.1, 23268.098, 0.0, 5.0143204, 4.9789963 
1.6296242e+2, 1.6137621e+2, -1343281.5, -1406819.9, -395.30237, 0.003896562, 0.01222398, -1343279.1, 15240.822, 0.0, 5.014357, 4.973097 
1.6296236e+2, 1.6634932e+2, -1293987.1, -1357545.3, -495.70963, 0.0057894215, 0.009640019, -1293983.3, 15800.166, 0.0, 5.014401, 4.9731264 
1.629623e+2, 1.7132244e+2, -1244735.9, -1308360.8, -539.983, 0.0077050747, 0.0070964475, -1244731.3, 16315.437, 0.0, 5.0144444, 4.9731264 
1.6296221e+2, 1.7629556e+2, -1196622.1, -1261581.5, -584.4257, 0.009637237, 0.0049512475, -1196616.9, 15693.125, 0.0, 5.0144877, 4.972319 
1.6296208e+2, 1.8126506e+2, -1155808.5, -1230183.9, -716.5983, 0.011193458, 0.0092293015, -1155801.6, 7806.1064, 0.0, 5.014504, 4.966322 
1.6296175e+2, 1.8623114e+2, -1106386.6, -1180258.9, -873.3364, 0.011801442, 0.0018146591, -1106376.3, 8560.101, 0.0, 5.0144553, 4.966592 
1.6296138e+2, 1.9119722e+2, -1057347.0, -1131135.8, -992.08203, 0.0123856, -0.006006826, -1057333.8, 8931.272, 0.0, 5.0144033, 4.9665937 
1.6296104e+2, 1.9616331e+2, -1009198.56, -1083928.1, -1110.9537, 0.012990022, -0.013523637, -1009182.06, 8411.459, 0.0, 5.0143514, 4.9659452 
1.629606e+2, 2.0112598e+2, -969846.2, -1055856.0, -1285.058, 0.013299723, -0.009986439, -969827.0, -869.6847, 0.0, 5.014333, 4.9587507 
1.6295989e+2, 2.0608556e+2, -920372.44, -1006453.1, -1238.1935, 0.012433285, -0.004706088, -920354.6, 1.194574, 0.0, 5.0143976, 4.958766 
1.6295914e+2, 2.1104516e+2, -870908.6, -957094.1, -1124.3511, 0.011499352, 0.00079882593, -870893.94, 860.3628, 0.0, 5.0144663, 4.958766 
1.629584e+2, 2.1600476e+2, -822112.8, -909191.9, -1010.555, 0.010592628, 0.0064369375, -822101.06, 1051.6958, 0.0, 5.0145345, 4.9582667 
1.6295764e+2, 2.2096035e+2, -781609.0, -879427.94, -1284.4214, 0.010818615, 0.014785702, -781592.1, -7003.302, 0.0, 5.014593, 4.951527 
1.6295673e+2, 2.2591083e+2, -731654.9, -828723.75, -1587.9587, 0.014206564, -0.0032089339, -731628.94, -5559.4375, 0.0, 5.0145907, 4.951991 
1.6295578e+2, 2.3086119e+2, -682336.3, -779388.7, -1749.7449, 0.017879235, -0.022969585, -682304.75, -4753.992, 0.0, 5.0145807, 4.9519954 
1.6295485e+2, 2.3581156e+2, -633667.94, -731501.56, -1908.1978, 0.02161024, -0.04298876, -633630.7, -4598.46, 0.0, 5.0145698, 4.951498 
1.6295354e+2, 2.4075928e+2, -593925.9, -703451.44, -2667.9565, 0.024818568, -0.04292878, -593860.94, -13319.981, 0.0, 5.0145483, 4.944091 
1.6295135e+2, 2.4570622e+2, -543950.3, -652588.44, -2973.8591, 0.025209593, -0.022729944, -543869.0, -11806.516, 0.0, 5.0145073, 4.944595 
1.6294912e+2, 2.506534e+2, -494654.4, -603292.4, -3207.0112, 0.025459206, -0.001046766, -494559.8, -10977.598, 0.0, 5.014461, 4.9445786 
1.6294682e+2, 2.5560066e+2, -445607.1, -554562.8, -3441.0256, 0.025915759, 0.021833826, -445498.5, -10397.571, 0.0, 5.0144105, 4.9443645 
1.6294454e+2, 2.6054242e+2, -406440.7, -528861.2, -5422.811, 0.03378116, 0.041052733, -406200.97, -19530.832, 0.0, 5.014497, 4.9358783 
1.6294001e+2, 2.654759e+2, -353162.94, -472673.28, -6886.33, 0.042336196, -0.017445935, -352767.44, -14461.043, 0.0, 5.014735, 4.9378724 
1.6293463e+2, 2.704086e+2, -302289.9, -422360.9, -7280.544, 0.048211783, -0.093170196, -301850.06, -11901.481, 0.0, 5.0149336, 4.938026 
1.6292872e+2, 2.7534065e+2, -251402.69, -372271.47, -7496.845, 0.053821355, -0.18054318, -250939.47, -9342.173, 0.0, 5.015116, 4.9381323 
1.6293043e+2, 2.802717e+2, -227195.25, -377871.5, 2245.928, 0.09003843, -0.1693567, -227161.78, -33901.98, 0.0, 5.015375, 4.9187384 
1.6293675e+2, 2.8520495e+2, -171575.77, -308480.72, -933.9201, 0.09670434, -0.066213615, -171569.39, -26647.734, 0.0, 5.0156918, 4.925041 
1.6293807e+2, 2.9013562e+2, -121083.6, -258817.2, -1321.7448, 0.076220416, -0.016580336, -121070.92, -24459.518, 0.0, 5.015997, 4.924873 
1.6293894e+2, 2.9506528e+2, -70521.65, -209232.28, -1426.914, 0.058310904, 0.021582026, -70506.97, -22196.04, 0.0, 5.0162535, 4.9247046 
1.6294123e+2, 3.0000776e+2, -8524.175, -100184.08, -2002.9003, 0.07553608, 0.04524814, -8480.43, -8480.43, 0.0, 5.0166073, 4.9548407 
1.6294433e+2, 3.0496123e+2, -1537.2489, -84343.34, -2497.537, 0.16996007, -0.047447402, -1461.9884, -1461.9884, 0.0, 5.016942, 4.9594216 
1.629449e+2, 3.0991805e+2, 2117.7039, -76195.734, -3326.87, 0.26293886, -0.15354623, 2258.7803, 2258.7803, 0.0, 5.0171056, 4.9618607 
1.6294383e+2, 3.148787e+2, 6107.4727, -68382.76, -4143.8223, 0.35735765, -0.2536561, 6337.281, 6337.281, 0.0, 5.0172067, 4.964304 
1.679737e+2, 1.2151778e+2, -1710775.4, -1750119.4, 1016.6039, -0.017183386, 0.0014849378, -1710749.1, 38386.063, 0.0, 5.0148163, 4.989184 
1.6797502e+2, 1.2650661e+2, -1666792.4, -1710582.0, 134.1365, -0.0074978275, 0.02711921, -1666792.0, 33451.07, 0.0, 5.0146623, 4.9861603 
1.6797541e+2, 1.3149127e+2, -1618302.4, -1661835.8, 24.758572, -0.0056742136, 0.01151517, -1618302.3, 33090.074, 0.0, 5.014497, 4.9861603 
1.6797581e+2, 1.3647592e+2, -1572018.9, -1617624.5, -85.52821, -0.003811197, -0.0028233023, -1572018.6, 30523.291, 0.0, 5.0143304, 4.984656 
1.6797617e+2, 1.4145829e+2, -1530173.5, -1582890.0, -256.71356, -0.0019834244, 0.0024230117, -1530172.3, 23542.135, 0.0, 5.0142264, 4.979904 
1.6797635e+2, 1.4643867e+2, -1480863.1, -1533446.4, -280.45105, -0.00037910716, 0.0037260037, -1480861.6, 24045.006, 0.0, 5.014255, 4.9800177 
1.6797653e+2, 1.5141904e+2, -1431708.4, -1484341.3, -261.24307, 0.0012077211, 0.0045514484, -1431707.1, 24392.078, 0.0, 5.014288, 4.9800177 
1.6797672e+2, 1.563994e+2, -1383983.5, -1438214.1, -242.33784, 0.0028028698, 0.005826405, -1383982.4, 23309.465, 0.0, 5.0143204, 4.979023 
1.6797684e+2, 1.6137582e+2, -1343334.3, -1406927.9, -364.28165, 0.004318966, 0.011672223, -1343332.1, 15190.958, 0.0, 5.0143566, 4.973061 
1.6797675e+2, 1.6634896e+2, -1294065.8, -1357707.9, -462.96954, 0.0055958997, 0.010007469, -1294062.4, 15724.212, 0.0, 5.0144005, 4.9730725 
1.6797665e+2, 1.7132212e+2, -1244813.9, -1308522.8, -506.38736, 0.006863734, 0.008415787, -1244809.9, 16240.006, 0.0, 5.014444, 4.9730725 
1.6797656e+2, 1.7629531e+2, -1196699.6, -1261743.1, -549.9801, 0.008136548, 0.007221438, -1196695.0, 15618.206, 0.0, 5.0144873, 4.972265 
1.6797641e+2, 1.8126477e+2, -1155980.4, -1230546.9, -738.06946, 0.00934699, 0.012038897, -1155973.1, 7638.4526, 0.0, 5.014504, 4.9662 
1.6797605e+2, 1.8623067e+2, -1106593.5, -1180697.5, -911.6208, 0.010345764, 0.0041383537, -1106582.4, 8360.333, 0.0, 5.014455, 4.966444 
1.679757e+2, 1.9119655e+2, -1057553.0, -1131573.1, -1028.9272, 0.011336809, -0.004213133, -1057538.8, 8735.017, 0.0, 5.014403, 4.966446 
1.6797532e+2, 1.9616243e+2, -1009403.7, -1084364.4, -1146.3535, 0.012333994, -0.012255729, -1009386.1, 8218.641, 0.0, 5.014351, 4.9657974 
1.6797487e+2, 2.0112494e+2, -969751.8, -1055651.3, -1258.798, 0.012656169, -0.009469259, -969733.3, -763.3664, 0.0, 5.0143323, 4.958821 
1.6797411e+2, 2.0608455e+2, -920173.06, -1006022.2, -1186.7566, 0.010841204, -0.005217489, -920156.7, 210.12839, 0.0, 5.014397, 4.9589133 
1.6797335e+2, 2.110442e+2, -870711.06, -956665.06, -1071.126, 0.008887897, -0.0007142936, -870697.75, 1065.6464, 0.0, 5.014466, 4.9589133 
1.679726e+2, 2.1600387e+2, -821917.06, -908764.6, -955.5474, 0.0069399136, 0.003929204, -821906.56, 1253.3855, 0.0, 5.0145345, 4.9584136 
1.6797185e+2, 2.2095948e+2, -781726.2, -879666.44, -1269.2678, 0.006858448, 0.012029227, -781709.7, -7114.737, 0.0, 5.0145903, 4.951446 
1.6797113e+2, 2.2591e+2, -731931.7, -829290.7, -1587.8151, 0.012248237, -0.0038753538, -731905.75, -5828.71, 0.0, 5.014584, 4.9517984 
1.6797042e+2, 2.308604e+2, -682619.1, -779951.7, -1743.6755, 0.018041251, -0.021340823, -682587.94, -5027.9736, 0.0, 5.0145717, 4.951804 
1.6796967e+2, 2.3581079e+2, -633956.9, -732060.7, -1896.1989, 0.023849968, -0.03903171, -633920.25, -4877.254, 0.0, 5.014558, 4.9513083 
1.6796856e+2, 2.4075851e+2, -594280.8, -704009.44, -2662.4404, 0.028707976, -0.03714809, -594216.25, -13663.315, 0.0, 5.0145135, 4.9439087 
1.6796634e+2, 2.4570534e+2, -544340.2, -653182.1, -3025.933, 0.029305952, -0.016141145, -544256.2, -12182.038, 0.0, 5.0144653, 4.9444013 
1.67964e+2, 2.506524e+2, -495028.63, -603876.75, -3251.595, 0.029555902, 0.006326169, -494931.6, -11338.187, 0.0, 5.014424, 4.944385 
1.679616e+2, 2.5559956e+2, -445965.75, -555138.1, -3478.1165, 0.029934803, 0.029939668, -445855.06, -10743.354, 0.0, 5.0143776, 4.9441705 
1.6795926e+2, 2.6054108e+2, -407295.7, -530356.1, -5189.8477, 0.036942363, 0.049944077, -407077.22, -20394.393, 0.0, 5.014432, 4.9353747 
1.6795534e+2, 2.6547384e+2, -354532.88, -474430.2, -6320.9424, 0.04457762, -0.009535714, -354200.56, -15869.759, 0.0, 5.0145407, 4.937314 
1.679506e+2, 2.7040604e+2, -303989.34, -423940.38, -6538.4526, 0.048997965, -0.085130975, -303634.0, -13650.439, 0.0, 5.0146112, 4.937563 
1.6794533e+2, 2.7533782e+2, -253430.78, -373673.0, -6577.8887, 0.052205477, -0.1706034, -253072.0, -11431.632, 0.0, 5.0146666, 4.937764 
1.6794686e+2, 2.8026888e+2, -226180.92, -377059.78, 879.345, 0.09029903, -0.15747327, -226175.8, -32869.31, 0.0, 5.0155597, 4.9190726 
1.6795284e+2, 2.8520218e+2, -168195.3, -306148.56, -1040.1183, 0.098667815, -0.06037456, -168187.45, -23224.486, 0.0, 5.0163713, 4.925883 
1.6795433e+2, 2.901329e+2, -117980.15, -256073.8, -1191.5402, 0.074814096, -0.018112682, -117969.87, -21324.209, 0.0, 5.0165677, 4.925866 
1.6795531e+2, 2.9506278e+2, -67696.13, -206078.4, -1060.7814, 0.052109558, 0.012632719, -67688.0, -19351.025, 0.0, 5.0167155, 4.9258494 
1.6795735e+2, 3.0000556e+2, -7847.9214, -100748.19, -1657.9473, 0.060349975, 0.03370777, -7818.342, -7818.342, 0.0, 5.016929, 4.954646 
1.6795924e+2, 3.049632e+2, -2482.0117, -87473.72, -1580.7637, 0.13296428, -0.011318126, -2452.621, -2452.621, 0.0, 5.0170646, 4.9583697 
1.6795848e+2, 3.0992553e+2, 262.8928, -80577.66, -1579.5647, 0.19948341, -0.050952498, 293.74454, 293.74454, 0.0, 5.017058, 4.9605317 
1.6795594e+2, 3.14892e+2, 3344.9897, -74014.49, -1567.0176, 0.26341575, -0.07590056, 3376.7188, 3376.7188, 0.0, 5.0169888, 4.962697 
1.7298824e+2, 1.215174e+2, -1710289.4, -1749122.0, 946.644, -0.02013992, -0.0027846333, -1710266.3, 38872.707, 0.0, 5.014815, 4.9895124 
1.729899e+2, 1.265069e+2, -1666999.3, -1710997.1, 5.077868, -0.0052872435, 0.030534776, -1666999.3, 33240.92, 0.0, 5.014661, 4.986025 
1.7299005e+2, 1.3149129e+2, -1618506.4, -1662249.6, -102.6755, -0.0043530134, 0.013522285, -1618506.1, 32886.56, 0.0, 5.014496, 4.9860244 
1.7299019e+2, 1.3647567e+2, -1572220.3, -1618037.4, -211.29817, -0.0034023847, -0.0022299394, -1572219.3, 30326.254, 0.0, 5.01433, 4.9845204 
1.7299038e+2, 1.4145783e+2, -1530182.9, -1582908.8, -265.08224, -0.002136835, 0.0020041536, -1530181.5, 23538.4, 0.0, 5.014226, 4.9798985 
1.7299062e+2, 1.4643823e+2, -1480824.9, -1533366.9, -255.29787, -0.00033113197, 0.0031725403, -1480823.6, 24087.926, 0.0, 5.014255, 4.9800444 
1.7299086e+2, 1.5141863e+2, -1431670.5, -1484262.5, -235.47035, 0.0014737463, 0.0038945193, -1431669.4, 24434.107, 0.0, 5.0142875, 4.9800444 
1.7299108e+2, 1.5639898e+2, -1383945.8, -1438136.0, -215.95041, 0.0032804685, 0.0050668805, -1383944.9, 23350.627, 0.0, 5.0143204, 4.979049 
1.7299125e+2, 1.6137545e+2, -1343390.9, -1407043.6, -333.3652, 0.0047394885, 0.011133458, -1343389.1, 15137.244, 0.0, 5.0143566, 4.9730225 
1.7299114e+2, 1.6634864e+2, -1294144.6, -1357870.3, -430.19174, 0.0053985734, 0.010385884, -1294141.8, 15648.022, 0.0, 5.0144, 4.973018 
1.7299102e+2, 1.7132182e+2, -1244892.3, -1308684.8, -472.75403, 0.0060197236, 0.009733837, -1244888.8, 16164.348, 0.0, 5.0144434, 4.973018 
1.729909e+2, 1.7629504e+2, -1196777.4, -1261904.6, -515.4967, 0.006634324, 0.009478085, -1196773.3, 15543.066, 0.0, 5.014487, 4.9722104 
1.7299074e+2, 1.8126449e+2, -1156155.6, -1230916.1, -759.3267, 0.0074966834, 0.014870543, -1156147.9, 7467.529, 0.0, 5.0145035, 4.966076 
1.7299037e+2, 1.8623018e+2, -1106800.9, -1181136.0, -949.9304, 0.008885987, 0.0064751203, -1106788.6, 8160.232, 0.0, 5.0144544, 4.9662957 
1.7299e+2, 1.9119586e+2, -1057759.4, -1132010.4, -1065.7975, 0.010285129, -0.0024333552, -1057744.1, 8538.436, 0.0, 5.0144024, 4.9662976 
1.7298962e+2, 1.9616154e+2, -1009609.1, -1084800.5, -1181.7783, 0.011676285, -0.011028724, -1009590.56, 8025.507, 0.0, 5.01435, 4.965649 
1.7298914e+2, 2.0112392e+2, -969670.3, -1055473.6, -1231.6229, 0.012008541, -0.008897318, -969652.6, -670.0362, 0.0, 5.0143323, 4.958881 
1.7298837e+2, 2.0608355e+2, -919974.2, -1005590.94, -1135.2866, 0.009242463, -0.0056575285, -919959.1, 418.58972, 0.0, 5.014397, 4.95906 
1.7298757e+2, 2.1104325e+2, -870514.06, -956235.7, -1017.8682, 0.006268994, -0.002187033, -870502.0, 1270.4766, 0.0, 5.014466, 4.95906 
1.7298678e+2, 2.1600296e+2, -821721.9, -908337.06, -900.50714, 0.0032789605, 0.0014308698, -821712.5, 1454.6406, 0.0, 5.014534, 4.9585605 
1.7298605e+2, 2.2095864e+2, -781851.0, -879920.0, -1256.6653, 0.0029008405, 0.00926411, -781834.9, -7233.7856, 0.0, 5.014588, 4.9513593 
1.7298554e+2, 2.2590916e+2, -732209.8, -829856.7, -1590.2927, 0.010292049, -0.004655191, -732183.9, -6099.1875, 0.0, 5.014578, 4.9516044 
1.7298502e+2, 2.308596e+2, -682903.3, -780513.75, -1740.2268, 0.018203162, -0.01995078, -682872.3, -5303.097, 0.0, 5.014562, 4.951612 
1.729845e+2, 2.3581001e+2, -634247.2, -732618.9, -1886.82, 0.026087351, -0.03543868, -634211.0, -5157.1265, 0.0, 5.014546, 4.951118 
1.7298354e+2, 2.4075778e+2, -594693.75, -704684.75, -2687.0078, 0.032579016, -0.030985603, -594628.1, -14063.613, 0.0, 5.0144787, 4.943684 
1.7298126e+2, 2.4570453e+2, -544737.06, -653769.2, -3079.9136, 0.033408783, -0.008854525, -544650.1, -12564.92, 0.0, 5.014424, 4.944207 
1.7297883e+2, 2.5065145e+2, -495409.78, -604454.56, -3298.083, 0.033698194, 0.014258379, -495310.13, -11706.046, 0.0, 5.014386, 4.9441905 
1.7297636e+2, 2.555985e+2, -446331.38, -555706.8, -3517.11, 0.03403856, 0.038466234, -446218.38, -11096.315, 0.0, 5.0143447, 4.943976 
1.7297402e+2, 2.605396e+2, -408297.88, -532132.75, -5044.91, 0.040795222, 0.057858024, -408092.7, -21395.578, 0.0, 5.014367, 4.9347496 
1.7297049e+2, 2.6547146e+2, -355930.84, -476168.56, -5900.5127, 0.04717596, -0.0064738723, -355641.97, -17283.271, 0.0, 5.014346, 4.936705 
1.7296618e+2, 2.7040303e+2, -305716.44, -425500.56, -5941.187, 0.049442407, -0.0856217, -305422.47, -15399.314, 0.0, 5.0142894, 4.937049 
1.7296131e+2, 2.7533442e+2, -255486.16, -375054.56, -5803.6396, 0.04954924, -0.17287382, -255205.13, -13515.92, 0.0, 5.014217, 4.937346 
1.7296347e+2, 2.8026628e+2, -227362.38, -381294.34, 427.54868, 0.09222516, -0.14164022, -227361.19, -34009.945, 0.0, 5.0157466, 4.9176273 
1.7296976e+2, 2.8520018e+2, -164895.4, -303742.94, -1422.1436, 0.10329102, -0.03957663, -164880.84, -19884.078, 0.0, 5.0170503, 4.9266796 
1.7297119e+2, 2.901308e+2, -114956.55, -253257.06, -1337.1526, 0.074425794, -0.009357781, -114943.625, -18269.592, 0.0, 5.017138, 4.9268146 
1.729721e+2, 2.950607e+2, -64949.758, -202851.4, -970.4993, 0.04528434, 0.009298787, -64942.93, -16584.162, 0.0, 5.0171766, 4.926949 
1.7297393e+2, 3.0000278e+2, -8123.9985, -103273.72, -1264.7234, 0.045923408, 0.01947673, -8107.191, -8107.191, 0.0, 5.017251, 4.953666 
1.7297505e+2, 3.0496335e+2, -3524.1914, -90517.4, -332.29187, 0.10561264, 0.0024373056, -3522.9224, -3522.9224, 0.0, 5.017187, 4.9571023 
1.7297328e+2, 3.0993044e+2, -1691.288, -84876.19, 501.19095, 0.15446687, 0.008207899, -1688.2684, -1688.2684, 0.0, 5.0170097, 4.958986 
1.729696e+2, 3.1490195e+2, 480.385, -79566.38, 1345.634, 0.19669499, 0.037388045, 502.99954, 502.99954, 0.0, 5.0167704, 4.960873 
1.7800276e+2, 1.2151697e+2, -1710034.3, -1748146.5, 903.2888, -0.023025563, -0.007345004, -1710012.9, 39130.26, 0.0, 5.0147176, 4.98988 
1.7800479e+2, 1.265072e+2, -1667372.0, -1711493.8, -98.2201, -0.0030437557, 0.03396267, -1667371.8, 32865.457, 0.0, 5.014605, 4.985889 
1.7800468e+2, 1.3149132e+2, -1618755.6, -1662685.6, -211.25407, -0.0030085798, 0.015541152, -1618754.6, 32638.367, 0.0, 5.01448, 4.9858885 
1.7800458e+2, 1.364754e+2, -1572362.1, -1618421.3, -325.764, -0.0029733554, -0.0016239701, -1572359.9, 30189.17, 0.0, 5.01435, 4.984384 
1.780046e+2, 1.4145738e+2, -1530078.5, -1582878.3, -270.4356, -0.0022790856, 0.0016145508, -1530077.1, 23648.318, 0.0, 5.0142655, 4.97989 
1.7800488e+2, 1.4643781e+2, -1480685.5, -1533238.8, -234.12051, -0.00027808445, 0.0026394974, -1480684.5, 24232.102, 0.0, 5.014289, 4.9800706 
1.7800517e+2, 1.514182e+2, -1431553.8, -1484146.3, -220.55481, 0.0017430392, 0.0032431944, -1431552.8, 24555.049, 0.0, 5.014314, 4.98007 
1.7800546e+2, 1.563986e+2, -1383855.8, -1438033.6, -207.46736, 0.0037613385, 0.0042977748, -1383855.0, 23444.277, 0.0, 5.0143385, 4.979075 
1.7800565e+2, 1.6137506e+2, -1343422.6, -1407152.6, -323.16977, 0.0051543685, 0.010603859, -1343421.0, 15108.548, 0.0, 5.0143657, 4.972982 
1.7800552e+2, 1.6634828e+2, -1294212.1, -1358025.8, -412.24387, 0.0051969513, 0.010768927, -1294209.4, 15583.568, 0.0, 5.0144033, 4.9729643 
1.7800538e+2, 1.7132151e+2, -1244982.5, -1308850.9, -447.73526, 0.005179814, 0.011041157, -1244979.4, 16076.937, 0.0, 5.0144386, 4.972964 
1.7800525e+2, 1.7629477e+2, -1196897.3, -1262084.6, -483.02765, 0.0051485905, 0.011707834, -1196893.6, 15425.839, 0.0, 5.014472, 4.9721565 
1.7800507e+2, 1.812642e+2, -1156389.8, -1231317.1, -774.69806, 0.0056684883, 0.017708868, -1156381.8, 7237.4834, 0.0, 5.014484, 4.9659495 
1.7800468e+2, 1.862297e+2, -1107028.0, -1181583.1, -978.0609, 0.007443638, 0.00881678, -1107015.1, 7939.9854, 0.0, 5.014447, 4.9661474 
1.7800431e+2, 1.9119518e+2, -1057957.0, -1132443.4, -1089.8683, 0.009252593, -0.00066956435, -1057941.1, 8350.187, 0.0, 5.014405, 4.9661493 
1.7800392e+2, 1.9616066e+2, -1009787.6, -1085224.3, -1203.2207, 0.011045038, -0.009840494, -1009768.44, 7858.8794, 0.0, 5.0143585, 4.9655004 
1.7800343e+2, 2.011229e+2, -969570.0, -1055309.5, -1191.4221, 0.0113929, -0.008265106, -969553.44, -558.21606, 0.0, 5.0143433, 4.9589314 
1.7800263e+2, 2.0608258e+2, -919756.44, -1005152.0, -1083.8085, 0.0076775006, -0.006010353, -919742.7, 645.95404, 0.0, 5.014404, 4.959206 
1.7800179e+2, 2.1104231e+2, -870323.56, -955810.56, -977.2847, 0.0036945385, -0.003594797, -870312.4, 1469.1023, 0.0, 5.0144634, 4.959206 
1.7800094e+2, 2.1600206e+2, -821571.6, -907931.56, -870.35095, -0.00031934804, -0.0010273871, -821562.9, 1611.4031, 0.0, 5.0145183, 4.9587064 
1.7800024e+2, 2.2095777e+2, -782067.25, -880231.1, -1282.5194, -0.00096898054, 0.006520537, -782050.5, -7443.216, 0.0, 5.0145564, 4.9512653 
1.7799993e+2, 2.2590831e+2, -732595.2, -830478.94, -1650.4131, 0.008414143, -0.005526246, -732567.4, -6474.9126, 0.0, 5.0145354, 4.9514065 
1.7799962e+2, 2.3085876e+2, -683344.56, -781157.94, -1824.0331, 0.01844686, -0.018783018, -683310.56, -5731.8774, 0.0, 5.0144997, 4.9514146 
1.7799932e+2, 2.3580922e+2, -634774.25, -733298.25, -2004.2863, 0.028427048, -0.032196626, -634733.5, -5668.4575, 0.0, 5.0144525, 4.950921 
1.7799848e+2, 2.4075706e+2, -595451.1, -705626.94, -2903.3723, 0.036578793, -0.024434103, -595374.7, -14798.717, 0.0, 5.0143433, 4.943414 
1.7799616e+2, 2.4570376e+2, -545391.7, -654482.8, -3315.6904, 0.0377403, -0.0008502495, -545291.0, -13195.089, 0.0, 5.0142922, 4.9440093 
1.7799369e+2, 2.5065055e+2, -496038.47, -605150.5, -3536.9602, 0.03821407, 0.02275249, -495923.94, -12309.386, 0.0, 5.014263, 4.943994 
1.7799114e+2, 2.555974e+2, -446957.7, -556395.6, -3751.074, 0.038690288, 0.047360297, -446829.28, -11696.915, 0.0, 5.014221, 4.94378 
1.7798883e+2, 2.6053786e+2, -410060.22, -534628.1, -5348.5557, 0.046095174, 0.06476791, -409831.0, -23117.506, 0.0, 5.014108, 4.9339457 
1.7798556e+2, 2.6546857e+2, -359959.06, -479477.88, -7137.671, 0.052023612, -0.007916679, -359534.3, -21142.717, 0.0, 5.0132766, 4.935897 
1.7798153e+2, 2.703992e+2, -313074.78, -430124.9, -8759.79, 0.05312936, -0.09410072, -312422.84, -22352.072, 0.0, 5.0120296, 4.9362836 
1.7797688e+2, 2.7532983e+2, -267090.72, -381371.7, -10741.744, 0.05160805, -0.18682534, -266089.8, -24339.982, 0.0, 5.010433, 4.9366255 
1.7798057e+2, 2.8026298e+2, -243641.83, -396161.53, -6407.797, 0.10325292, -0.12188142, -243373.1, -49970.184, 0.0, 5.011303, 4.9144197 
1.779877e+2, 2.8519818e+2, -170562.97, -304541.75, -7453.529, 0.115909204, -0.00428464, -170149.6, -25119.32, 0.0, 5.0144544, 4.92759 
1.7798883e+2, 2.9012883e+2, -117032.59, -252160.75, -5536.5513, 0.078409076, 0.009513357, -116806.125, -20104.613, 0.0, 5.015835, 4.9278126 
1.779894e+2, 2.950588e+2, -64770.043, -200443.83, -3862.6907, 0.039819337, 0.012189179, -64660.16, -16280.961, 0.0, 5.016694, 4.9280376 
1.7799108e+2, 2.9999933e+2, -10995.102, -108846.805, -3328.3774, 0.033573538, 0.0044390988, -10882.019, -10882.019, 0.0, 5.0170026, 4.9517274 
1.7799184e+2, 3.0496123e+2, -8916.484, -96165.266, -3506.9312, 0.090250105, -0.004921809, -8775.752, -8775.752, 0.0, 5.015838, 4.955243 
1.7798947e+2, 3.0993158e+2, -12957.179, -93914.76, -4224.576, 0.13265651, 0.02031327, -12737.326, -12737.326, 0.0, 5.013674, 4.9568095 
1.7798509e+2, 3.1490624e+2, -18799.336, -92852.94, -4758.966, 0.16555946, 0.07367017, -18494.76, -18494.76, 0.0, 5.010676, 4.9583817 
1.8301731e+2, 1.2151708e+2, -1710642.1, -1747365.4, 916.6719, -0.02220412, -0.008119609, -1710619.3, 38522.6, 0.0, 5.0142817, 4.990351 
1.8301952e+2, 1.2650722e+2, -1668251.3, -1712339.0, 40.824287, -0.0006743109, 0.033612657, -1668251.3, 31984.94, 0.0, 5.0144, 4.985712 
1.8301937e+2, 1.3149123e+2, -1618792.9, -1663116.5, -124.41538, -0.0014149183, 0.015827416, -1618792.6, 32601.049, 0.0, 5.0145545, 4.985711 
1.8301919e+2, 1.364752e+2, -1571547.4, -1618435.6, -290.08707, -0.0021179826, -0.0006944037, -1571545.5, 31005.768, 0.0, 5.0147085, 4.9842057 
1.8301918e+2, 1.4145708e+2, -1528541.0, -1582243.0, -300.7121, -0.0020429932, 0.0027535227, -1528539.3, 25189.777, 0.0, 5.014804, 4.9798393 
1.8301943e+2, 1.464374e+2, -1479248.4, -1532581.9, -319.09863, -0.0004046749, 0.0031657957, -1479246.5, 25674.271, 0.0, 5.0147796, 4.980052 
1.8301967e+2, 1.5141772e+2, -1430279.8, -1483571.9, -358.62726, 0.0012769445, 0.0031390341, -1430277.4, 25835.309, 0.0, 5.014752, 4.9800515 
1.8301992e+2, 1.5639803e+2, -1382739.3, -1437538.4, -398.33188, 0.0029656445, 0.003562472, -1382736.4, 24568.205, 0.0, 5.014724, 4.979056 
1.8302009e+2, 1.6137445e+2, -1342462.4, -1406707.0, -526.78015, 0.004106543, 0.009560395, -1342458.1, 16077.119, 0.0, 5.0146933, 4.9729743 
1.8301994e+2, 1.6634771e+2, -1293449.0, -1357669.4, -558.62714, 0.0040899008, 0.010130255, -1293444.1, 16354.273, 0.0, 5.0146637, 4.9729595 
1.830198e+2, 1.71321e+2, -1244412.1, -1308587.5, -538.39764, 0.0040473985, 0.010827854, -1244407.6, 16653.688, 0.0, 5.0146337, 4.97296 
1.8301967e+2, 1.7629428e+2, -1196511.5, -1261909.8, -518.3266, 0.004016204, 0.011914259, -1196507.4, 15816.923, 0.0, 5.014604, 4.9721527 
1.8301949e+2, 1.8126373e+2, -1156126.9, -1231346.3, -731.3397, 0.004484192, 0.018321877, -1156119.9, 7504.175, 0.0, 5.0146046, 4.965882 
1.8301912e+2, 1.8622917e+2, -1106467.3, -1181535.3, -861.086, 0.0060921675, 0.009869058, -1106457.4, 8503.602, 0.0, 5.014683, 4.9660525 
1.8301876e+2, 1.911946e+2, -1057036.5, -1132230.6, -905.1282, 0.00776666, 0.0008217317, -1057025.6, 9272.545, 0.0, 5.0147643, 4.9660525 
1.8301839e+2, 1.9616002e+2, -1008499.5, -1084844.1, -948.8624, 0.009460366, -0.007917871, -1008487.7, 9147.611, 0.0, 5.014846, 4.965402 
1.8301791e+2, 2.0112222e+2, -967903.2, -1054506.8, -890.9759, 0.009756719, -0.0061559216, -967894.06, 1109.8486, 0.0, 5.014911, 4.9589396 
1.8301715e+2, 2.060819e+2, -918149.2, -1004279.5, -886.6, 0.0061127413, -0.004402362, -918140.06, 2256.6633, 0.0, 5.014932, 4.959258 
1.8301637e+2, 2.1104163e+2, -868837.3, -954996.94, -898.81323, 0.002261894, -0.002543896, -868827.94, 2960.9648, 0.0, 5.0149508, 4.9592586 
1.8301558e+2, 2.1600138e+2, -820192.2, -907169.75, -911.04376, -0.0015684561, -0.0005488548, -820182.7, 2998.434, 0.0, 5.0149693, 4.9587593 
1.8301493e+2, 2.2095706e+2, -780901.4, -879881.5, -1398.0581, -0.0020651545, 0.0068126954, -780881.6, -6267.5947, 0.0, 5.0149946, 4.9511843 
1.8301462e+2, 2.2590761e+2, -731380.75, -830301.0, -1688.7916, 0.007305173, -0.003911889, -731351.9, -5251.231, 0.0, 5.0150256, 4.9512453 
1.8301433e+2, 2.3085804e+2, -681945.94, -780920.75, -1763.5288, 0.017419437, -0.015660435, -681914.56, -4326.0356, 0.0, 5.015056, 4.951246 
1.8301402e+2, 2.3580848e+2, -633162.8, -732988.7, -1835.3358, 0.027592259, -0.027514402, -633129.06, -4052.6338, 0.0, 5.0150857, 4.9507446 
1.8301326e+2, 2.407563e+2, -593067.56, -704848.56, -2425.8044, 0.035969894, -0.018350126, -593014.94, -12426.551, 0.0, 5.015202, 4.943315 
1.830112e+2, 2.4570277e+2, -541257.94, -652705.0, -2456.1953, 0.037416734, 0.0035542902, -541203.9, -9095.381, 0.0, 5.015717, 4.94401 
1.8300901e+2, 2.506493e+2, -490248.03, -602594.3, -2371.3567, 0.038390752, 0.024612721, -490198.0, -6570.4067, 0.0, 5.016268, 4.9440036 
1.8300678e+2, 2.555959e+2, -439498.97, -553062.25, -2285.7268, 0.039569005, 0.046322487, -439452.97, -4306.8223, 0.0, 5.0168114, 4.9437995 
1.8300495e+2, 2.6053593e+2, -401448.25, -532899.75, -3287.4587, 0.049225345, 0.061947446, -401366.1, -14634.807, 0.0, 5.017464, 4.9330835 
1.8300276e+2, 2.6546583e+2, -348400.53, -478800.44, -4044.8943, 0.06544386, -0.004900599, -348275.2, -9852.265, 0.0, 5.017959, 4.9341574 
1.8299991e+2, 2.7039516e+2, -297113.56, -428708.2, -4089.711, 0.08045672, -0.084741004, -296986.56, -6865.532, 0.0, 5.0183516, 4.9341555 
1.8299654e+2, 2.75324e+2, -245845.98, -378808.97, -3938.14, 0.0956984, -0.17181668, -245729.45, -3905.153, 0.0, 5.018713, 4.934106 
1.8300128e+2, 2.8025618e+2, -219816.7, -388020.34, 4939.8306, 0.15765333, -0.08902772, -219671.75, -26180.17, 0.0, 5.0200877, 4.913091 
1.8300778e+2, 2.8519294e+2, -152011.56, -290497.66, 2560.118, 0.15319917, 0.02743201, -151964.25, -6861.98, 0.0, 5.0200334, 4.9294705 
1.8300809e+2, 2.901247e+2, -105849.97, -242870.06, 1694.1636, 0.10034301, 0.028127778, -105829.02, -9069.396, 0.0, 5.0188546, 4.929313 
1.8300785e+2, 2.9505578e+2, -59608.047, -195275.84, 1088.3298, 0.049811926, 0.021082558, -59599.316, -11175.403, 0.0, 5.017609, 4.929156 
1.830087e+2, 2.9999638e+2, -12143.066, -114239.91, 418.0379, 0.033012666, 0.0066571296, -12141.3545, -12136.15, 0.0, 5.016782, 4.949741 
1.8300816e+2, 3.0495828e+2, -8271.401, -104611.6, 808.6485, 0.07982182, 0.012204776, -8264.614, -8264.614, 0.0, 5.01657, 4.9515924 
1.8300457e+2, 3.0992696e+2, -7457.9585, -101149.06, 1307.8898, 0.11842121, 0.034542974, -7439.7046, -7439.7046, 0.0, 5.0160866, 4.952711 
1.8299913e+2, 3.1489712e+2, -6498.9995, -97830.04, 2064.6577, 0.1534122, 0.056284446, -6452.349, -6452.349, 0.0, 5.0155168, 4.9538302 
1.8803191e+2, 1.2151751e+2, -1709815.8, -1745682.8, 718.44824, -0.019380195, -0.00638074, -1709801.4, 39335.69, 0.0, 5.014281, 4.9909043 
1.8803415e+2, 1.2650706e+2, -1668560.4, -1712967.6, 155.1464, 0.0015616673, 0.030749656, -1668559.9, 31676.752, 0.0, 5.014399, 4.985506 
1.8803409e+2, 1.3149107e+2, -1619098.9, -1663742.5, -8.263449, 0.00025325443, 0.014990597, -1619098.9, 32295.752, 0.0, 5.014554, 4.985505 
1.8803401e+2, 1.3647504e+2, -1571850.3, -1619059.4, -172.139, -0.0010454319, 0.0004870709, -1571849.6, 30703.234, 0.0, 5.0147085, 4.984 
1.8803403e+2, 1.4145684e+2, -1528656.1, -1582480.9, -295.2145, -0.0016521362, 0.0049391333, -1528654.5, 25076.996, 0.0, 5.014804, 4.979761 
1.8803416e+2, 1.4643705e+2, -1479319.1, -1532727.9, -339.80695, -0.00074495823, 0.004409993, -1479316.9, 25607.654, 0.0, 5.0147796, 4.980004 
1.8803431e+2, 1.5141721e+2, -1430350.3, -1483717.4, -378.64218, 0.0002042634, 0.0033961618, -1430347.6, 25770.26, 0.0, 5.0147514, 4.9800034 
1.8803447e+2, 1.5639737e+2, -1382809.6, -1437683.4, -417.64844, 0.001152948, 0.0028339778, -1382806.5, 24504.69, 0.0, 5.0147233, 4.979008 
1.8803455e+2, 1.613737e+2, -1342442.1, -1406662.6, -551.0496, 0.0018971548, 0.008147903, -1342437.4, 16105.233, 0.0, 5.014693, 4.9729896 
1.8803445e+2, 1.6634698e+2, -1293409.4, -1357584.5, -580.82697, 0.0022344377, 0.008748035, -1293404.1, 16401.186, 0.0, 5.014663, 4.9729886 
1.880343e+2, 1.713203e+2, -1244372.9, -1308503.0, -559.73615, 0.0025599052, 0.0095082335, -1244368.0, 16699.764, 0.0, 5.0146337, 4.9729886 
1.8803418e+2, 1.7629363e+2, -1196472.5, -1261825.5, -538.7999, 0.0028848716, 0.0106586255, -1196468.0, 15862.166, 0.0, 5.0146036, 4.9721813 
1.88034e+2, 1.812631e+2, -1156166.3, -1231428.1, -691.2674, 0.0034193252, 0.017341716, -1156160.0, 7469.666, 0.0, 5.0146046, 4.9658546 
1.8803366e+2, 1.8622862e+2, -1106544.4, -1181696.1, -797.3597, 0.004476835, 0.009987827, -1106535.9, 8430.659, 0.0, 5.0146823, 4.9659986 
1.8803331e+2, 1.9119409e+2, -1057114.4, -1132391.0, -840.0624, 0.0055621737, 0.0021141777, -1057105.0, 9198.809, 0.0, 5.0147634, 4.965999 
1.8803295e+2, 1.9615957e+2, -1008578.0, -1085004.1, -882.46533, 0.006650021, -0.005443853, -1008567.8, 9073.081, 0.0, 5.0148444, 4.9653487 
1.8803255e+2, 2.011218e+2, -967930.1, -1054557.1, -863.7225, 0.0067148223, -0.0029513745, -967921.56, 1088.0208, 0.0, 5.0149097, 4.9589233 
1.880319e+2, 2.0608145e+2, -918169.9, -1004317.56, -872.36725, 0.003911479, -0.0014591314, -918161.0, 2241.638, 0.0, 5.014931, 4.959246 
1.8803121e+2, 2.1104114e+2, -868857.94, -955034.94, -882.9608, 0.00094485056, 0.00011162558, -868848.9, 2946.2244, 0.0, 5.01495, 4.959246 
1.8803053e+2, 2.1600084e+2, -820212.75, -907207.6, -893.57306, -0.0020203437, 0.0018213472, -820203.56, 2983.9763, 0.0, 5.0149684, 4.958747 
1.8802992e+2, 2.209565e+2, -780980.56, -880035.9, -1372.0808, -0.0022538826, 0.009110212, -780961.56, -6340.6597, 0.0, 5.0149913, 4.9511323 
1.880295e+2, 2.2590706e+2, -731515.9, -830560.6, -1652.8684, 0.0056088353, -0.0005856888, -731488.3, -5379.871, 0.0, 5.01502, 4.9511585 
1.8802908e+2, 2.3085752e+2, -682086.4, -781176.7, -1722.9702, 0.014044754, -0.011154815, -682056.44, -4459.2856, 0.0, 5.015048, 4.9511604 
1.8802866e+2, 2.3580799e+2, -633308.5, -733241.0, -1790.1439, 0.022487726, -0.021804802, -633276.44, -4190.54, 0.0, 5.015075, 4.950661 
1.8802789e+2, 2.4075577e+2, -593020.06, -704557.06, -2155.9478, 0.029295074, -0.012819281, -592978.4, -12379.774, 0.0, 5.0151734, 4.9434266 
1.8802626e+2, 2.45702e+2, -541105.5, -652139.4, -2062.0044, 0.029877279, 0.0046133795, -541067.25, -8948.018, 0.0, 5.0156813, 4.94422 
1.8802454e+2, 2.5064826e+2, -490089.94, -602024.4, -1969.1506, 0.029988226, 0.02090123, -490055.3, -6416.5317, 0.0, 5.0162344, 4.9442143 
1.8802275e+2, 2.5559458e+2, -439335.25, -552488.06, -1875.525, 0.030232444, 0.03783661, -439304.16, -4146.4165, 0.0, 5.0167804, 4.9440107 
1.8802153e+2, 2.6053455e+2, -401701.8, -533018.44, -2562.1897, 0.039210062, 0.051587112, -401651.8, -14909.188, 0.0, 5.017393, 4.9330664 
1.8802048e+2, 2.6546553e+2, -349349.22, -479502.47, -3041.9194, 0.05723934, -0.002741849, -349278.2, -10847.99, 0.0, 5.0177474, 4.9339767 
1.8801874e+2, 2.703963e+2, -298397.2, -429171.06, -2934.8325, 0.072741844, -0.06683301, -298331.34, -8209.948, 0.0, 5.0180044, 4.9340897 
1.880164e+2, 2.753268e+2, -247463.95, -379032.4, -2631.274, 0.08668018, -0.13660954, -247411.34, -5596.1074, 0.0, 5.018231, 4.934155 
1.8802136e+2, 2.802605e+2, -219318.27, -387501.4, 5660.169, 0.13648658, -0.04008807, -219128.0, -25654.14, 0.0, 5.0201635, 4.9133363 
1.88027e+2, 2.851961e+2, -150000.33, -289944.25, 1919.8773, 0.13162045, 0.063902825, -149974.0, -4877.9634, 0.0, 5.0205593, 4.9296966 
1.8802667e+2, 2.9012644e+2, -104025.35, -241859.8, 1274.8217, 0.08661503, 0.047874656, -104013.56, -7245.7905, 0.0, 5.019294, 4.9296885 
1.8802576e+2, 2.9505613e+2, -57971.504, -193809.6, 889.7692, 0.04198256, 0.023583077, -57965.676, -9520.015, 0.0, 5.017962, 4.9296803 
1.8802556e+2, 2.9999572e+2, -11164.847, -112880.11, 950.5398, 0.022191275, -0.004180976, -11155.965, -11119.097, 0.0, 5.016988, 4.950249 
1.8802255e+2, 3.049612e+2, -8466.004, -103628.984, 2082.7126, 0.03847493, 0.036692634, -8420.444, -8420.444, 0.0, 5.016441, 4.952121 
1.8801609e+2, 3.099353e+2, -8798.602, -100747.06, 3094.722, 0.03865426, 0.11501742, -8694.561, -8694.561, 0.0, 5.0156326, 4.9532046 
1.8800752e+2, 3.1491157e+2, -8986.054, -98007.98, 4364.8525, 0.029461471, 0.20200127, -8772.552, -8772.552, 0.0, 5.0147367, 4.9542894 
1.9304648e+2, 1.2151791e+2, -1708927.4, -1743872.1, 518.7661, -0.016621884, -0.0048882854, -1708919.6, 40212.87, 0.0, 5.0142803, 4.9915 
1.9304878e+2, 1.2650691e+2, -1668870.5, -1713595.5, 269.43695, 0.0038050627, 0.027935041, -1668868.9, 31368.176, 0.0, 5.0143986, 4.9853005 
1.9304882e+2, 1.314909e+2, -1619405.8, -1664367.8, 107.85715, 0.0019256365, 0.014183276, -1619405.5, 31990.102, 0.0, 5.0145535, 4.985299 
1.9304885e+2, 1.3647486e+2, -1572154.1, -1619682.4, -54.222088, 0.00002812016, 0.0016791503, -1572154.0, 30400.352, 0.0, 5.014708, 4.983794 
1.9304888e+2, 1.4145663e+2, -1528775.5, -1582726.6, -289.90424, -0.0012624033, 0.0071422285, -1528774.0, 24959.932, 0.0, 5.014804, 4.9796796 
1.9304892e+2, 1.4643668e+2, -1479390.1, -1532873.8, -360.5596, -0.0010867642, 0.0056670276, -1479387.6, 25540.713, 0.0, 5.0147796, 4.979955 
1.9304897e+2, 1.5141669e+2, -1430421.1, -1483862.8, -398.70142, -0.0008701538, 0.0036553359, -1430418.1, 25704.89, 0.0, 5.0147514, 4.979955 
1.9304903e+2, 1.563967e+2, -1382880.4, -1437828.3, -437.00934, -0.0006616979, 0.002096739, -1382876.9, 24440.857, 0.0, 5.014723, 4.97896 
1.9304903e+2, 1.6137294e+2, -1342425.0, -1406624.5, -575.04755, -0.0003135459, 0.006749455, -1342419.9, 16130.144, 0.0, 5.014693, 4.9730024 
1.9304892e+2, 1.6634627e+2, -1293370.1, -1357499.5, -603.01776, 0.00037709714, 0.0073781316, -1293364.4, 16447.803, 0.0, 5.0146627, 4.973017 
1.930488e+2, 1.713196e+2, -1244333.9, -1308418.4, -581.0657, 0.0010699716, 0.008189009, -1244328.6, 16745.547, 0.0, 5.014633, 4.973017 
1.9304867e+2, 1.7629297e+2, -1196433.8, -1261741.1, -559.2642, 0.0017505375, 0.009391468, -1196429.0, 15907.122, 0.0, 5.0146036, 4.97221 
1.930485e+2, 1.8126248e+2, -1156210.5, -1231519.5, -651.07404, 0.0023526263, 0.016380806, -1156204.9, 7430.3774, 0.0, 5.014604, 4.965824 
1.930482e+2, 1.8622805e+2, -1106622.0, -1181856.5, -733.86554, 0.0028600967, 0.010121505, -1106614.8, 8357.388, 0.0, 5.0146813, 4.965945 
1.9304787e+2, 1.911936e+2, -1057192.6, -1132551.0, -775.22864, 0.00335712, 0.0034015935, -1057184.6, 9124.756, 0.0, 5.0147624, 4.9659452 
1.9304755e+2, 1.9615915e+2, -1008657.0, -1085163.8, -816.30023, 0.0038399468, -0.0029948012, -1008648.25, 8998.246, 0.0, 5.014843, 4.965295 
1.9304717e+2, 2.0112142e+2, -967964.8, -1054623.4, -835.75085, 0.0036713337, 0.0002913792, -967956.75, 1058.4102, 0.0, 5.014909, 4.958901 
1.9304661e+2, 2.06081e+2, -918190.94, -1004355.4, -858.20984, 0.0017074659, 0.0015285076, -918182.44, 2226.1243, 0.0, 5.0149302, 4.9592333 
1.9304605e+2, 2.1104065e+2, -868879.0, -955072.6, -867.1838, -0.00037426024, 0.0027839702, -868870.25, 2931.0098, 0.0, 5.014949, 4.9592338 
1.9304547e+2, 2.160003e+2, -820233.75, -907245.2, -876.1778, -0.0024736153, 0.0041807876, -820224.94, 2969.0583, 0.0, 5.014967, 4.9587345 
1.9304492e+2, 2.2095594e+2, -781070.4, -880210.75, -1348.7384, -0.0024416281, 0.011424478, -781052.0, -6424.207, 0.0, 5.0149884, 4.9510727 
1.930444e+2, 2.259065e+2, -731652.75, -830818.8, -1619.378, 0.003902286, 0.002717109, -731626.3, -5510.0923, 0.0, 5.015014, 4.951071 
1.9304384e+2, 2.3085701e+2, -682228.5, -781431.2, -1684.844, 0.010648946, -0.0067455494, -682199.9, -4594.075, 0.0, 5.01504, 4.9510746 
1.9304328e+2, 2.358075e+2, -633455.9, -733491.9, -1747.3838, 0.017351154, -0.01626451, -633425.4, -4329.945, 0.0, 5.0150647, 4.950577 
1.9304249e+2, 2.4075527e+2, -593006.7, -704321.9, -1911.4368, 0.022624118, -0.0070555666, -592973.9, -12365.233, 0.0, 5.0151443, 4.943516 
1.9304128e+2, 2.4570125e+2, -540963.94, -651563.06, -1670.0051, 0.022380546, 0.006062114, -540938.75, -8809.092, 0.0, 5.0156455, 4.9444294 
1.9304003e+2, 2.5064722e+2, -489942.7, -601443.9, -1569.1375, 0.02165097, 0.017480265, -489920.6, -6270.933, 0.0, 5.016201, 4.9444246 
1.9303872e+2, 2.5559327e+2, -439182.38, -551903.3, -1467.5173, 0.0209837, 0.029542126, -439163.25, -3994.1338, 0.0, 5.0167494, 4.944221 
1.9303814e+2, 2.605331e+2, -402102.38, -533374.44, -1948.322, 0.030037787, 0.040665783, -402073.47, -15318.416, 0.0, 5.0173216, 4.9329453 
1.9303802e+2, 2.65465e+2, -350347.4, -480160.5, -2212.8574, 0.049411092, -0.003347348, -350309.7, -11869.995, 0.0, 5.0175357, 4.933765 
1.9303714e+2, 2.703971e+2, -299730.0, -429589.56, -1953.6471, 0.06444207, -0.05382791, -299700.6, -9575.916, 0.0, 5.0176578, 4.933993 
1.930356e+2, 2.7532923e+2, -249130.77, -379211.13, -1497.881, 0.0761157, -0.10844351, -249113.52, -7303.7744, 0.0, 5.0177493, 4.9341736 
1.9304153e+2, 2.8026488e+2, -220090.13, -389877.25, 7145.8086, 0.116796605, 0.011303473, -219789.92, -26334.87, 0.0, 5.0202413, 4.9125576 
1.930469e+2, 2.8519973e+2, -148095.02, -289289.03, 994.1871, 0.11286053, 0.10874634, -148088.02, -3002.448, 0.0, 5.0210857, 4.929888 
1.9304577e+2, 2.9012844e+2, -102306.38, -240747.42, 569.6943, 0.07400348, 0.07259554, -102304.04, -5531.067, 0.0, 5.0197334, 4.930029 
1.93044e+2, 2.9505658e+2, -56440.324, -192240.98, 405.0587, 0.033567354, 0.027659608, -56439.117, -7973.37, 0.0, 5.0183153, 4.9301696 
1.9304286e+2, 2.999949e+2, -11032.108, -113128.46, 1374.0571, 0.012184682, -0.015405373, -11013.619, -10943.248, 0.0, 5.0171933, 4.9501133 
1.9303736e+2, 3.049635e+2, -8796.758, -102512.01, 3358.0623, 0.0033341486, 0.05453911, -8676.584, -8676.584, 0.0, 5.016312, 4.952558 
1.9302776e+2, 3.099426e+2, -10276.35, -100210.266, 4883.2417, -0.030659946, 0.17890923, -10011.976, -10011.976, 0.0, 5.015178, 4.9536076 
1.9301589e+2, 3.1492457e+2, -11611.692, -98050.81, 6667.374, -0.07980041, 0.32120654, -11100.4375, -11100.4375, 0.0, 5.013957, 4.954657 
1.9806105e+2, 1.21518284e+2, -1707961.0, -1741944.8, 228.21777, -0.013881252, -0.0035432, -1707959.5, 41168.848, 0.0, 5.014289, 4.992129 
1.9806342e+2, 1.2650675e+2, -1669144.5, -1714199.9, 306.85953, 0.0060483245, 0.02507748, -1669142.5, 31095.057, 0.0, 5.014409, 4.985096 
1.9806354e+2, 1.3149074e+2, -1619694.1, -1664978.0, 176.96922, 0.0035934148, 0.013347501, -1619693.4, 31703.201, 0.0, 5.0145583, 4.985095 
1.9806366e+2, 1.364747e+2, -1572469.4, -1620304.9, 47.67102, 0.0010991966, 0.0028577927, -1572469.4, 30086.563, 0.0, 5.0147033, 4.98359 
1.980637e+2, 1.4145643e+2, -1528943.9, -1583000.9, -277.66647, -0.0008692828, 0.009362474, -1528942.5, 24793.752, 0.0, 5.014788, 4.979596 
1.9806366e+2, 1.464363e+2, -1479523.0, -1533049.4, -372.74695, -0.0014217632, 0.0069377515, -1479520.4, 25411.766, 0.0, 5.0147586, 4.979907 
1.9806361e+2, 1.5141618e+2, -1430574.5, -1484047.8, -409.53314, -0.0019315874, 0.0039175875, -1430571.4, 25556.867, 0.0, 5.0147233, 4.979907 
1.9806357e+2, 1.5639605e+2, -1383059.5, -1438025.4, -446.36047, -0.002454387, 0.0013516734, -1383055.9, 24268.402, 0.0, 5.014686, 4.9789114 
1.9806351e+2, 1.613722e+2, -1342525.1, -1406648.5, -588.9849, -0.002497827, 0.005365174, -1342519.8, 16037.62, 0.0, 5.014654, 4.973013 
1.980634e+2, 1.6634554e+2, -1293398.0, -1357447.9, -622.65295, -0.0014640177, 0.006020584, -1293391.9, 16427.219, 0.0, 5.0146403, 4.973045 
1.980633e+2, 1.7131892e+2, -1244321.3, -1308347.3, -607.5273, -0.00040883347, 0.006869641, -1244315.4, 16765.178, 0.0, 5.0146246, 4.9730453 
1.9806316e+2, 1.762923e+2, -1196389.1, -1261654.8, -592.3656, 0.000627913, 0.008110966, -1196383.8, 15958.281, 0.0, 5.0146055, 4.972238 
1.9806302e+2, 1.8126185e+2, -1156238.5, -1231608.6, -625.60626, 0.001301189, 0.015434255, -1156233.4, 7407.4785, 0.0, 5.014611, 4.9657907 
1.9806273e+2, 1.862275e+2, -1106700.9, -1182014.9, -674.08466, 0.0012555843, 0.010260087, -1106694.9, 8282.934, 0.0, 5.01468, 4.9658914 
1.9806242e+2, 1.9119309e+2, -1057305.8, -1132725.0, -701.83875, 0.0011672681, 0.004665877, -1057299.3, 9015.736, 0.0, 5.014749, 4.965892 
1.9806212e+2, 1.961587e+2, -1008814.2, -1085357.9, -729.12274, 0.001054171, -0.0006001419, -1008807.25, 8844.849, 0.0, 5.0148144, 4.965242 
1.980618e+2, 2.0112102e+2, -968124.2, -1054760.4, -775.11816, 0.0006550326, 0.0035325156, -968117.25, 903.5217, 0.0, 5.0148673, 4.9588737 
1.9806135e+2, 2.0608057e+2, -918336.06, -1004451.8, -815.4255, -0.00048442575, 0.0045262203, -918328.3, 2086.0388, 0.0, 5.014887, 4.95922 
1.9806089e+2, 2.1104017e+2, -869041.4, -955176.75, -827.1907, -0.0016869525, 0.0054439846, -869033.44, 2773.9954, 0.0, 5.0148993, 4.9592204 
1.9806042e+2, 2.1599977e+2, -820427.2, -907363.4, -838.533, -0.0029173074, 0.006503554, -820419.06, 2781.3315, 0.0, 5.0149064, 4.958721 
1.980599e+2, 2.2095537e+2, -781361.06, -880494.0, -1305.9893, -0.0026112678, 0.013731078, -781343.9, -6709.179, 0.0, 5.014919, 4.951007 
1.9805925e+2, 2.2590595e+2, -731954.8, -831153.2, -1556.8577, 0.0022066832, 0.005968033, -731930.44, -5806.3857, 0.0, 5.0149503, 4.950983 
1.9805858e+2, 2.3085648e+2, -682537.9, -781765.3, -1613.5476, 0.0072742174, -0.002479668, -682511.6, -4897.1196, 0.0, 5.014973, 4.9509873 
1.9805789e+2, 2.3580699e+2, -633804.0, -733840.0, -1673.1052, 0.0122637255, -0.010973933, -633776.0, -4670.99, 0.0, 5.014984, 4.95049 
1.9805706e+2, 2.4075478e+2, -593263.2, -704276.6, -1670.5985, 0.016084677, -0.0011796854, -593238.06, -12619.47, 0.0, 5.0150323, 4.943578 
1.9805628e+2, 2.457005e+2, -541128.3, -651149.75, -1330.234, 0.015087495, 0.007845669, -541112.2, -8972.336, 0.0, 5.0155067, 4.9446287 
1.9805549e+2, 2.506462e+2, -490187.5, -601065.9, -1304.3021, 0.013589794, 0.014395873, -490172.16, -6511.68, 0.0, 5.0160346, 4.944624 
1.9805466e+2, 2.5559196e+2, -439523.66, -551567.25, -1281.1873, 0.012101754, 0.02160343, -439509.0, -4328.495, 0.0, 5.0165505, 4.944421 
1.9805479e+2, 2.6053146e+2, -403425.44, -534477.56, -1866.4716, 0.02215308, 0.029492108, -403398.88, -16629.994, 0.0, 5.0169954, 4.9326677 
1.9805542e+2, 2.6546407e+2, -353451.5, -482077.06, -2796.371, 0.043245748, -0.006685984, -353390.75, -14937.625, 0.0, 5.0166316, 4.9333963 
1.9805521e+2, 2.7039722e+2, -305241.88, -432330.03, -3548.9895, 0.05822148, -0.04679035, -305142.84, -15007.778, 0.0, 5.015885, 4.933695 
1.9805427e+2, 2.7533048e+2, -257789.48, -383087.8, -4414.1953, 0.06852069, -0.090266705, -257634.17, -15818.449, 0.0, 5.0148387, 4.933946 
1.98062e+2, 2.8026822e+2, -232080.19, -399243.34, 4702.284, 0.104557194, 0.059701145, -231948.02, -38501.234, 0.0, 5.016767, 4.9108176 
1.980676e+2, 2.8520292e+2, -153325.27, -290814.0, -3146.7327, 0.10095468, 0.15763986, -153253.28, -8173.9624, 0.0, 5.019077, 4.9302197 
1.9806549e+2, 2.901303e+2, -104733.16, -240751.03, -2124.6343, 0.06486362, 0.10022821, -104699.98, -7920.296, 0.0, 5.01873, 4.930436 
1.980627e+2, 2.9505712e+2, -57486.965, -191348.39, -1364.8833, 0.025981288, 0.033756863, -57473.05, -8987.975, 0.0, 5.0178103, 4.930653 
1.9806065e+2, 2.99994e+2, -14333.031, -116093.67, 890.49866, 0.004336831, -0.024436232, -14325.239, -14221.263, 0.0, 5.0165133, 4.9492726 
1.980527e+2, 3.04965e+2, -15716.909, -103970.3, 4136.659, -0.021908676, 0.064538516, -15523.438, -15523.438, 0.0, 5.013854, 4.9528656 
1.9803993e+2, 3.0994812e+2, -25429.19, -104992.65, 8103.149, -0.08144254, 0.21621321, -24612.31, -24612.31, 0.0, 5.00976, 4.953981 
1.9802472e+2, 3.149346e+2, -37994.15, -107432.64, 14025.203, -0.16021204, 0.39100385, -35268.336, -35268.336, 0.0, 5.0045013, 4.955097 
2.030761e+2, 1.2151878e+2, -1706908.8, -1741704.3, -740.826, -0.008651395, 0.006235413, -1706893.0, 42229.863, 0.0, 5.0146947, 4.992008 
2.0307806e+2, 1.2650512e+2, -1668097.6, -1713642.5, -320.60364, 0.006720698, 0.013588977, -1668095.4, 32157.318, 0.0, 5.0147448, 4.9851146 
2.0307828e+2, 1.3148965e+2, -1618914.4, -1664551.1, -193.37033, 0.004142406, 0.0070915534, -1618913.6, 32492.67, 0.0, 5.0148067, 4.985114 
2.030785e+2, 1.3647416e+2, -1571942.5, -1620000.3, -66.677704, 0.0015478772, 0.0018366141, -1571942.4, 30617.691, 0.0, 5.0148683, 4.98361 
2.0307857e+2, 1.414562e+2, -1528688.1, -1582939.3, -302.28745, -0.0006407717, 0.011661572, -1528686.5, 25050.58, 0.0, 5.0148864, 4.979569 
2.0307843e+2, 1.4643599e+2, -1479404.5, -1533086.3, -403.6643, -0.0015958267, 0.008519861, -1479401.5, 25532.863, 0.0, 5.0148177, 4.9798665 
2.030783e+2, 1.5141574e+2, -1430565.1, -1484137.4, -432.4043, -0.002490301, 0.0046530054, -1430561.6, 25570.28, 0.0, 5.0147457, 4.9798665 
2.0307814e+2, 1.5639548e+2, -1383153.3, -1438164.3, -461.37424, -0.003382387, 0.0012398598, -1383149.4, 24180.197, 0.0, 5.014673, 4.9788713 
2.0307803e+2, 1.6137153e+2, -1342592.9, -1406743.3, -561.1567, -0.0036837626, 0.004616164, -1342587.9, 15975.797, 0.0, 5.0146437, 4.9729867 
2.0307796e+2, 1.6634484e+2, -1293212.3, -1357413.4, -635.5471, -0.0026539515, 0.005076966, -1293206.0, 16619.863, 0.0, 5.0147142, 4.973022 
2.0307788e+2, 1.7131817e+2, -1243870.4, -1308185.3, -681.8342, -0.0015570482, 0.005743135, -1243863.1, 17224.49, 0.0, 5.0147886, 4.9730225 
2.0307781e+2, 1.7629153e+2, -1195666.5, -1261362.9, -728.2782, -0.00044295215, 0.0067989277, -1195658.4, 16691.074, 0.0, 5.014863, 4.972215 
2.0307767e+2, 1.8126108e+2, -1155330.5, -1231133.3, -783.9528, 0.00016241152, 0.01417387, -1155322.4, 8325.843, 0.0, 5.0149117, 4.96581 
2.0307736e+2, 1.862268e+2, -1106017.1, -1181618.8, -742.8281, -0.00036575607, 0.009802248, -1106009.8, 8974.426, 0.0, 5.0148993, 4.9659233 
2.0307705e+2, 1.9119252e+2, -1056869.9, -1132447.6, -676.2593, -0.0009218421, 0.005042814, -1056863.8, 9456.58, 0.0, 5.0148835, 4.9659243 
2.030767e+2, 1.9615825e+2, -1008614.3, -1085192.9, -609.17426, -0.0014665688, 0.000592254, -1008609.44, 9046.97, 0.0, 5.0148673, 4.9652743 
2.0307638e+2, 2.0112062e+2, -968179.2, -1054802.6, -590.7262, -0.0021231796, 0.005129286, -968175.1, 849.47845, 0.0, 5.01485, 4.958868 
2.0307595e+2, 2.060801e+2, -918538.44, -1004624.75, -650.5703, -0.0031062586, 0.005628938, -918533.5, 1885.9174, 0.0, 5.014831, 4.9591875 
2.030755e+2, 2.1103962e+2, -869333.0, -955390.6, -687.3752, -0.0040790876, 0.00600995, -869327.56, 2486.1904, 0.0, 5.014812, 4.959188 
2.0307505e+2, 2.1599913e+2, -820793.75, -907611.25, -724.2733, -0.0050269905, 0.006522523, -820787.7, 2420.3438, 0.0, 5.0147924, 4.958689 
2.0307456e+2, 2.2095473e+2, -781640.25, -880552.7, -1125.5951, -0.004758747, 0.013805938, -781627.5, -6984.7676, 0.0, 5.0148005, 4.951044 
2.0307386e+2, 2.2590557e+2, -732054.9, -831078.56, -1177.8501, -0.0010731951, 0.007976622, -732040.9, -5911.1196, 0.0, 5.0148797, 4.9510465 
2.0307313e+2, 2.3085634e+2, -682466.4, -781628.25, -1042.445, 0.002873677, 0.0014963406, -682455.44, -4837.585, 0.0, 5.0149617, 4.9510465 
2.030724e+2, 2.3580708e+2, -633530.4, -733627.56, -902.8507, 0.0068399133, -0.0051355874, -633522.25, -4416.0723, 0.0, 5.015043, 4.950545 
2.0307162e+2, 2.4075492e+2, -592568.94, -703755.7, -480.79895, 0.00984818, 0.00427454, -592566.9, -11947.579, 0.0, 5.0151916, 4.9437017 
2.0307125e+2, 2.4570026e+2, -540528.1, -650738.8, 35.1584, 0.008594383, 0.0082118185, -540528.1, -8383.885, 0.0, 5.015632, 4.9447374 
2.0307095e+2, 2.5064555e+2, -489772.63, -600758.2, 90.25531, 0.00697904, 0.009785248, -489772.56, -6104.0938, 0.0, 5.016096, 4.944729 
2.0307057e+2, 2.5559092e+2, -439276.16, -551354.0, 140.90956, 0.0054597952, 0.012220879, -439276.0, -4084.0195, 0.0, 5.016554, 4.9445224 
2.0307127e+2, 2.6053053e+2, -402986.63, -534718.94, -71.42165, 0.016299501, 0.020018484, -402986.6, -16206.489, 0.0, 5.017115, 4.932598 
2.0307274e+2, 2.65464e+2, -351020.78, -482786.25, 98.22386, 0.041988056, -0.0018719166, -351020.72, -12561.96, 0.0, 5.0175524, 4.932898 
2.0307337e+2, 2.7039742e+2, -299691.1, -432471.2, 824.5697, 0.06377319, -0.031990346, -299685.97, -9544.341, 0.0, 5.0179057, 4.9329824 
2.0307334e+2, 2.7533028e+2, -248350.5, -382381.63, 1766.3052, 0.08294775, -0.0713745, -248327.22, -6497.102, 0.0, 5.0182343, 4.933019 
2.0308128e+2, 2.802665e+2, -223664.67, -390244.97, 14801.285, 0.11779075, 0.060178738, -222359.73, -28881.334, 0.0, 5.0190473, 4.9127436 
2.030856e+2, 2.8520173e+2, -155732.6, -286652.13, 5241.7695, 0.100563005, 0.14788193, -155523.06, -10420.696, 0.0, 5.018173, 4.9315014 
2.030823e+2, 2.9013032e+2, -110919.46, -239730.11, 3558.2703, 0.059032846, 0.09466863, -110821.24, -14033.928, 0.0, 5.0165305, 4.931283 
2.0307836e+2, 2.95058e+2, -66000.45, -192847.66, 2118.7795, 0.018371195, 0.03232749, -65965.08, -17484.395, 0.0, 5.0148354, 4.931065 
2.0307511e+2, 2.9999676e+2, -20910.586, -114449.65, 3584.0806, -0.0043291096, -0.01684018, -20773.457, -20695.877, 0.0, 5.013544, 4.950942 
2.0306557e+2, 3.049687e+2, -14832.371, -98519.28, 5394.057, -0.032732293, 0.06936625, -14486.129, -14486.129, 0.0, 5.013434, 4.9548926 
2.0305134e+2, 3.099513e+2, -12290.574, -91551.64, 6236.855, -0.08451849, 0.19083026, -11802.813, -11802.813, 0.0, 5.013264, 4.957074 
2.0303485e+2, 3.1493682e+2, -9411.56, -84927.46, 7562.5054, -0.14552063, 0.31199414, -8661.663, -8661.663, 0.0, 5.013037, 4.959255 
2.0809145e+2, 1.2151933e+2, -1707802.4, -1743507.4, -819.1042, -0.0022248034, 0.021351995, -1707783.6, 41333.188, 0.0, 5.014693, 4.9914155 
2.0809278e+2, 1.2650253e+2, -1667852.3, -1713127.4, -279.2945, 0.0061920886, -0.0035718374, -1667850.5, 32427.16, 0.0, 5.0147433, 4.985284 
2.0809306e+2, 1.3148797e+2, -1618670.5, -1664038.1, -149.99106, 0.0038825956, -0.0027190568, -1618670.1, 32751.676, 0.0, 5.0148053, 4.9852834 
2.0809336e+2, 1.3647337e+2, -1571700.0, -1619489.1, -21.238024, 0.001518198, -0.000622563, -1571700.0, 30866.035, 0.0, 5.0148664, 4.983779 
2.0809346e+2, 1.4145601e+2, -1528676.9, -1582909.3, -338.06247, -0.0006247125, 0.0140310945, -1528674.8, 25062.207, 0.0, 5.0148854, 4.979579 
2.0809323e+2, 1.4643571e+2, -1479457.8, -1533190.9, -457.66345, -0.0017721022, 0.010342454, -1479453.9, 25481.73, 0.0, 5.0148168, 4.9798317 
2.08093e+2, 1.5141535e+2, -1430618.1, -1484241.9, -485.68945, -0.0028667923, 0.0057532033, -1430613.8, 25520.926, 0.0, 5.0147448, 4.9798317 
2.0809276e+2, 1.5639497e+2, -1383206.1, -1438268.6, -513.93335, -0.0039674407, 0.0016191356, -1383201.3, 24132.582, 0.0, 5.0146728, 4.9788365 
2.080926e+2, 1.6137093e+2, -1342665.8, -1406895.1, -531.7756, -0.0044741705, 0.00437303, -1342661.4, 15908.1, 0.0, 5.014643, 4.972936 
2.0809259e+2, 1.6634415e+2, -1293292.9, -1357583.3, -578.86896, -0.0035876068, 0.00446607, -1293287.6, 16544.832, 0.0, 5.0147142, 4.9729652 
2.0809257e+2, 1.7131738e+2, -1243950.8, -1308354.8, -624.3049, -0.00263924, 0.0047793663, -1243944.8, 17150.518, 0.0, 5.0147886, 4.9729657 
2.0809256e+2, 1.7629063e+2, -1195746.6, -1261532.1, -669.9072, -0.0016858485, 0.005484225, -1195739.9, 16618.16, 0.0, 5.014863, 4.9721584 
2.0809245e+2, 1.8126017e+2, -1155259.3, -1230980.8, -778.8468, -0.0013004275, 0.0127334455, -1155251.3, 8405.714, 0.0, 5.0149117, 4.9658613 
2.080921e+2, 1.8622604e+2, -1105899.4, -1181364.1, -752.6766, -0.0022062787, 0.008998061, -1105891.9, 9099.357, 0.0, 5.0148983, 4.96601 
2.080917e+2, 1.9119191e+2, -1056754.1, -1132193.0, -684.6784, -0.003166245, 0.004934411, -1056748.0, 9577.643, 0.0, 5.0148826, 4.966011 
2.0809132e+2, 1.961578e+2, -1008500.6, -1084938.4, -616.16187, -0.004130512, 0.0011838289, -1008495.7, 9164.188, 0.0, 5.014866, 4.9653616 
2.0809095e+2, 2.0112026e+2, -968174.9, -1054783.4, -605.4846, -0.0051274914, 0.0059364066, -968170.6, 856.60175, 0.0, 5.0148487, 4.9588747 
2.0809047e+2, 2.0607962e+2, -918600.8, -1004751.75, -664.35645, -0.006283535, 0.0056891344, -918595.7, 1828.2448, 0.0, 5.01483, 4.959145 
2.0808999e+2, 2.1103902e+2, -869394.94, -955517.56, -699.32916, -0.007448943, 0.005307472, -869389.25, 2430.9688, 0.0, 5.0148106, 4.959145 
2.080895e+2, 2.1599841e+2, -820855.2, -907738.1, -734.3935, -0.008610997, 0.005058721, -820849.0, 2367.5598, 0.0, 5.014791, 4.958646 
2.08089e+2, 2.2095403e+2, -781503.94, -880237.94, -1080.7113, -0.008718676, 0.0124307135, -781492.1, -6840.556, 0.0, 5.014798, 4.951153 
2.080883e+2, 2.2590528e+2, -731835.5, -830559.8, -1097.7256, -0.0059101568, 0.009331642, -731823.25, -5689.4233, 0.0, 5.0148745, 4.951227 
2.0808756e+2, 2.3085652e+2, -682254.25, -781104.25, -956.89594, -0.0029302659, 0.00577483, -682245.0, -4628.1245, 0.0, 5.014954, 4.95123 
2.0808683e+2, 2.3580772e+2, -633325.44, -733098.2, -811.8835, 0.000018812323, 0.0020732465, -633318.8, -4218.798, 0.0, 5.015033, 4.950731 
2.0808615e+2, 2.4075575e+2, -592341.75, -703046.25, -209.05733, 0.002095686, 0.011095198, -592341.4, -11730.306, 0.0, 5.0151644, 4.9439507 
2.0808621e+2, 2.4570063e+2, -540419.3, -650237.3, 376.15778, 0.00057748466, 0.008390792, -540418.06, -8276.433, 0.0, 5.015597, 4.9449167 
2.0808631e+2, 2.5064546e+2, -489665.53, -600266.06, 438.91388, -0.0012825389, 0.0035273663, -489663.78, -5992.1816, 0.0, 5.016061, 4.9449053 
2.0808636e+2, 2.5559035e+2, -439170.66, -550871.2, 497.21216, -0.003117287, -0.00036131745, -439168.47, -3967.6882, 0.0, 5.0165186, 4.944696 
2.0808746e+2, 2.6053032e+2, -402340.34, -532665.25, 542.0203, 0.006219939, 0.007560538, -402338.1, -15552.059, 0.0, 5.017035, 4.9333515 
2.080894e+2, 2.654666e+2, -350582.0, -480098.22, 1039.0001, 0.027306495, 0.00777358, -350573.66, -12134.667, 0.0, 5.017333, 4.9339423 
2.0809048e+2, 2.7040312e+2, -299538.9, -429393.63, 1958.9269, 0.042912863, 0.0021574453, -299509.38, -9416.713, 0.0, 5.0175533, 4.9341826 
2.0809086e+2, 2.7533934e+2, -248485.38, -378915.0, 3094.071, 0.054476257, -0.0118899, -248412.03, -6662.6055, 0.0, 5.017749, 4.9343753 
2.080979e+2, 2.8027648e+2, -219862.8, -381492.34, 13907.258, 0.0759747, 0.10475513, -218674.89, -25286.203, 0.0, 5.0190477, 4.915891 
2.0810056e+2, 2.852086e+2, -155076.38, -288356.16, 3920.2605, 0.06118065, 0.15848827, -154961.16, -9923.302, 0.0, 5.018613, 4.931021 
2.0809628e+2, 2.9013494e+2, -110292.12, -240873.38, 2474.9656, 0.027812373, 0.09452391, -110245.23, -13506.56, 0.0, 5.0169287, 4.9309626 
2.0809132e+2, 2.9506046e+2, -65404.16, -193432.0, 1273.8884, -0.0064740404, 0.019892618, -65391.49, -16943.67, 0.0, 5.015191, 4.9309034 
2.0808671e+2, 2.9999956e+2, -16500.725, -104397.97, 2887.476, -0.029823424, -0.03392106, -16405.97, -16371.462, 0.0, 5.0137115, 4.954659 
2.080755e+2, 3.0497432e+2, -13414.051, -91684.984, 5477.168, -0.07866358, 0.07308318, -13032.634, -13032.634, 0.0, 5.013074, 4.9580193 
2.0805958e+2, 3.099593e+2, -12418.186, -85002.79, 7141.7856, -0.15548375, 0.22659707, -11722.161, -11722.161, 0.0, 5.0124154, 4.9603148 
2.080413e+2, 3.149483e+2, -11086.076, -78660.87, 9288.828, -0.24525641, 0.39140654, -9832.49, -9832.49, 0.0, 5.0116997, 4.9626107 
2.131068e+2, 1.2151983e+2, -1708636.3, -1745186.3, -895.7864, 0.0040561343, 0.0361705, -1708614.3, 40496.887, 0.0, 5.014691, 4.990864 
2.1310747e+2, 1.2649994e+2, -1667608.0, -1712611.4, -237.74883, 0.0056371465, -0.020702101, -1667606.6, 32695.992, 0.0, 5.0147414, 4.9854527 
2.1310785e+2, 1.3148627e+2, -1618427.8, -1663524.3, -106.37553, 0.0035984437, -0.012513339, -1618427.5, 33009.688, 0.0, 5.0148034, 4.985452 
2.1310823e+2, 1.3647258e+2, -1571458.6, -1618977.0, 24.437687, 0.0014661683, -0.0030796346, -1571458.6, 31113.395, 0.0, 5.014865, 4.9839478 
2.1310835e+2, 1.4145581e+2, -1528669.6, -1582886.3, -373.2837, -0.00061852124, 0.016416876, -1528667.1, 25069.838, 0.0, 5.014885, 4.9795866 
2.1310803e+2, 1.4643542e+2, -1479511.4, -1533295.4, -511.59558, -0.001954609, 0.012178594, -1479506.5, 25430.334, 0.0, 5.0148163, 4.979797 
2.131077e+2, 1.5141496e+2, -1430671.6, -1484346.1, -538.9076, -0.0032485365, 0.006857173, -1430666.1, 25471.31, 0.0, 5.0147443, 4.979797 
2.1310739e+2, 1.5639448e+2, -1383259.4, -1438372.8, -566.4255, -0.0045567695, 0.0019924066, -1383253.5, 24084.7, 0.0, 5.014672, 4.9788017 
2.1310718e+2, 1.6137034e+2, -1342741.8, -1407052.9, -501.7006, -0.005268765, 0.004142569, -1342737.8, 15837.358, 0.0, 5.014643, 4.972883 
2.1310721e+2, 1.6634345e+2, -1293373.8, -1357752.9, -522.2177, -0.004523382, 0.003865155, -1293369.6, 16469.596, 0.0, 5.0147142, 4.9729085 
2.1310726e+2, 1.713166e+2, -1244031.5, -1308524.0, -566.80237, -0.0037209122, 0.00381406, -1244026.5, 17076.35, 0.0, 5.0147886, 4.9729085 
2.131073e+2, 1.7628975e+2, -1195827.1, -1261701.0, -611.56305, -0.0029255857, 0.004156467, -1195821.5, 16545.059, 0.0, 5.014863, 4.9721017 
2.1310723e+2, 1.8125924e+2, -1155192.0, -1230836.1, -773.73663, -0.0027686795, 0.01131526, -1155184.1, 8481.592, 0.0, 5.0149117, 4.96591 
2.1310681e+2, 1.8622528e+2, -1105782.1, -1181109.1, -763.08246, -0.0040580425, 0.008209634, -1105774.4, 9223.868, 0.0, 5.014898, 4.966096 
2.1310636e+2, 1.911913e+2, -1056638.9, -1131938.3, -693.65497, -0.005423995, 0.004817818, -1056632.5, 9698.293, 0.0, 5.014881, 4.9660974 
2.1310595e+2, 1.9615734e+2, -1008387.4, -1084683.6, -623.70703, -0.0068099084, 0.0017432644, -1008382.3, 9281.004, 0.0, 5.0148644, 4.9654484 
2.131055e+2, 2.0111987e+2, -968181.44, -1054786.6, -619.79675, -0.008138493, 0.006789124, -968177.0, 852.8581, 0.0, 5.0148473, 4.9588737 
2.13105e+2, 2.0607913e+2, -918663.7, -1004878.3, -678.0545, -0.009461235, 0.0058047897, -918658.4, 1769.9819, 0.0, 5.0148287, 4.9591017 
2.1310447e+2, 2.1103841e+2, -869457.44, -955644.06, -711.19507, -0.010815487, 0.0046300828, -869451.56, 2375.1694, 0.0, 5.0148096, 4.9591017 
2.1310398e+2, 2.1599768e+2, -820917.25, -907864.56, -744.4255, -0.01218796, 0.0035896404, -820910.9, 2314.211, 0.0, 5.01479, 4.9586024 
2.1310341e+2, 2.2095332e+2, -781377.2, -879941.4, -1038.4366, -0.012682492, 0.011069259, -781366.25, -6705.811, 0.0, 5.014796, 4.951255 
2.1310271e+2, 2.2590502e+2, -731617.8, -830039.7, -1021.8852, -0.010788765, 0.010632498, -731607.2, -5469.204, 0.0, 5.014869, 4.951407 
2.1310198e+2, 2.3085669e+2, -682043.8, -780578.9, -875.6307, -0.008808568, 0.009898201, -682036.0, -4420.0913, 0.0, 5.014946, 4.951412 
2.1310124e+2, 2.3580836e+2, -633122.1, -732567.44, -725.2, -0.0069093597, 0.0090260105, -633116.8, -4022.903, 0.0, 5.0150223, 4.9509163 
2.1310066e+2, 2.4075662e+2, -592163.06, -702427.3, 44.98632, -0.0057409676, 0.01823638, -592163.0, -11560.442, 0.0, 5.015137, 4.9441667 
2.1310112e+2, 2.4570103e+2, -540319.9, -649726.6, 719.28534, -0.0074687013, 0.009113247, -540315.1, -8176.594, 0.0, 5.015562, 4.945095 
2.1310166e+2, 2.506454e+2, -489567.75, -599764.8, 789.6985, -0.009532107, -0.0023224994, -489562.06, -5887.707, 0.0, 5.0160255, 4.945081 
2.131021e+2, 2.5558984e+2, -439074.47, -550379.25, 855.63873, -0.011641062, -0.012670996, -439067.9, -3858.6257, 0.0, 5.0164833, 4.9448686 
2.1310362e+2, 2.6053002e+2, -401887.84, -530972.75, 1011.35345, -0.0031956446, -0.0055988566, -401879.9, -15086.468, 0.0, 5.016955, 4.9339533 
2.1310578e+2, 2.6546887e+2, -350184.47, -477378.75, 1746.6547, 0.01193865, 0.013227292, -350160.5, -11738.06, 0.0, 5.017113, 4.9349365 
2.1310702e+2, 2.704084e+2, -299427.38, -426284.53, 2860.2358, 0.019479534, 0.02856895, -299362.94, -9314.978, 0.0, 5.017201, 4.935333 
2.131075e+2, 2.7534783e+2, -248660.27, -375416.7, 4188.8315, 0.02154474, 0.036314238, -248522.0, -6847.9644, 0.0, 5.017264, 4.9356813 
2.1311453e+2, 2.8028667e+2, -218084.55, -377391.5, 13502.093, 0.035938665, 0.15299796, -216948.28, -23651.338, 0.0, 5.019049, 4.917402 
2.1311633e+2, 2.8521624e+2, -154504.52, -289981.34, 2302.6091, 0.027653374, 0.18306978, -154465.39, -9499.372, 0.0, 5.019053, 4.930495 
2.1311097e+2, 2.901402e+2, -109748.89, -241936.97, 1095.2655, 0.0002840288, 0.103921495, -109739.81, -13055.476, 0.0, 5.017327, 4.9305954 
2.1310487e+2, 2.950633e+2, -64891.74, -193935.92, 132.29137, -0.029789906, 0.012568409, -64891.6, -16480.662, 0.0, 5.0155473, 4.9306955 
2.13099e+2, 3.000017e+2, -13454.549, -97273.09, 1885.0825, -0.052091025, -0.053434726, -13412.175, -13412.175, 0.0, 5.01388, 4.9572396 
2.1308573e+2, 3.049778e+2, -12086.6875, -84772.586, 5363.7173, -0.11691359, 0.05498452, -11693.015, -11693.015, 0.0, 5.012715, 4.960931 
2.1306752e+2, 3.099644e+2, -12635.903, -78374.4, 7848.4644, -0.21644141, 0.21905558, -11711.87, -11711.87, 0.0, 5.011568, 4.96334 
2.130468e+2, 3.1495607e+2, -12850.952, -72312.88, 10815.315, -0.3326587, 0.40600777, -10944.893, -10944.893, 0.0, 5.010363, 4.9657497 
2.1812211e+2, 1.2152027e+2, -1709483.5, -1746775.9, -999.7023, 0.010230206, 0.050545607, -1709456.8, 39649.28, 0.0, 5.014665, 4.9903526 
2.1812215e+2, 1.2649736e+2, -1667405.9, -1712115.0, -224.28622, 0.0050904523, -0.037618697, -1667404.8, 32922.793, 0.0, 5.014726, 4.9856215 
2.1812263e+2, 1.3148458e+2, -1618250.9, -1663042.0, -91.43424, 0.0033036452, -0.02220065, -1618250.8, 33201.94, 0.0, 5.0147805, 4.9856205 
2.181231e+2, 1.3647181e+2, -1571337.6, -1618523.6, 38.70741, 0.0014020766, -0.0055281064, -1571337.6, 31240.385, 0.0, 5.014824, 4.984116 
2.1812323e+2, 1.414556e+2, -1528827.9, -1582949.3, -439.19492, -0.00060312083, 0.018776515, -1528824.4, 24912.588, 0.0, 5.0148296, 4.9795914 
2.1812284e+2, 1.4643514e+2, -1479691.3, -1533460.5, -592.6186, -0.0021190036, 0.013995503, -1479684.8, 25253.406, 0.0, 5.014773, 4.979762 
2.1812242e+2, 1.5141457e+2, -1430818.1, -1484494.8, -615.6329, -0.0036019415, 0.007941458, -1430811.0, 25329.285, 0.0, 5.014712, 4.979762 
2.18122e+2, 1.5639398e+2, -1383377.8, -1438507.6, -638.8896, -0.005103074, 0.0023433715, -1383370.4, 23972.209, 0.0, 5.0146494, 4.978767 
2.1812175e+2, 1.6136973e+2, -1342875.6, -1407241.6, -485.77158, -0.006012741, 0.00391065, -1342872.0, 15708.863, 0.0, 5.0146246, 4.9728293 
2.1812184e+2, 1.6634275e+2, -1293536.3, -1357959.9, -471.67413, -0.005419715, 0.0032585827, -1293532.9, 16312.987, 0.0, 5.014686, 4.972852 
2.1812195e+2, 1.713158e+2, -1244230.1, -1308748.0, -506.26703, -0.0047705504, 0.0028295398, -1244226.1, 16884.309, 0.0, 5.014748, 4.9728527 
2.1812205e+2, 1.7628886e+2, -1196070.8, -1261946.0, -540.73303, -0.0041365414, 0.0027951861, -1196066.4, 16308.704, 0.0, 5.0148067, 4.9720454 
2.1812199e+2, 1.8125835e+2, -1155339.0, -1230800.9, -750.7507, -0.004218093, 0.009895685, -1155331.5, 8342.902, 0.0, 5.0148396, 4.9659553 
2.1812151e+2, 1.8622452e+2, -1105908.6, -1180972.5, -765.7604, -0.0058913785, 0.007412159, -1105900.8, 9104.52, 0.0, 5.0148144, 4.966181 
2.1812104e+2, 1.9119069e+2, -1056809.9, -1131821.6, -705.76306, -0.00765198, 0.0046654916, -1056803.3, 9532.805, 0.0, 5.0147824, 4.9661827 
2.1812055e+2, 1.9615687e+2, -1008614.06, -1084592.1, -645.53345, -0.009440249, 0.002238382, -1008608.56, 9058.196, 0.0, 5.0147467, 4.9655337 
2.1812005e+2, 2.0111951e+2, -968590.44, -1054996.9, -652.4258, -0.011071943, 0.007651468, -968585.5, 446.95554, 0.0, 5.0147114, 4.958865 
2.1811952e+2, 2.0607866e+2, -919151.3, -1005202.94, -703.0189, -0.0125502, 0.005950204, -919145.56, 1287.2567, 0.0, 5.014681, 4.959059 
2.1811897e+2, 2.1103781e+2, -869989.8, -955989.0, -725.9983, -0.014075983, 0.0039627175, -869983.7, 1849.4802, 0.0, 5.0146456, 4.959059 
2.1811843e+2, 2.1599697e+2, -821508.5, -908236.2, -748.34393, -0.015631989, 0.0021096105, -821502.06, 1731.4844, 0.0, 5.0146055, 4.9585595 
2.1811783e+2, 2.209526e+2, -781848.56, -879938.1, -982.21246, -0.016500285, 0.009705212, -781838.7, -7169.4727, 0.0, 5.0145884, 4.95135 
2.1811712e+2, 2.259047e+2, -732050.9, -829824.06, -932.98694, -0.0155444, 0.011791422, -732042.0, -5899.793, 0.0, 5.014637, 4.9515853 
2.1811637e+2, 2.3085684e+2, -682581.75, -780403.9, -784.94885, -0.014558827, 0.013688153, -682575.44, -4960.2886, 0.0, 5.014677, 4.951593 
2.1811564e+2, 2.3580897e+2, -633801.06, -732449.2, -635.85406, -0.013679666, 0.01543779, -633796.94, -4708.739, 0.0, 5.0147033, 4.951099 
2.1811512e+2, 2.4075748e+2, -593103.4, -702422.25, 262.77246, -0.013315014, 0.02535325, -593102.7, -12508.588, 0.0, 5.0147357, 4.94434 
2.1811599e+2, 2.4570146e+2, -541668.06, -649912.25, 951.2123, -0.015099504, 0.010251572, -541659.75, -9524.432, 0.0, 5.015023, 4.9452596 
2.1811694e+2, 2.5064534e+2, -491324.84, -600144.25, 926.79285, -0.017187878, -0.00762969, -491316.94, -7640.0107, 0.0, 5.0153437, 4.945243 
2.1811782e+2, 2.555893e+2, -441256.53, -550957.94, 895.3129, -0.019352423, -0.024296282, -441249.25, -6031.702, 0.0, 5.015652, 4.9450274 
2.1811979e+2, 2.6052958e+2, -404757.8, -531262.1, 788.1423, -0.010778011, -0.018865587, -404752.9, -17950.434, 0.0, 5.0157948, 4.9343348 
2.1812198e+2, 2.654706e+2, -356007.2, -477911.88, 746.2838, -0.0011580402, 0.014325126, -356002.63, -17591.375, 0.0, 5.014748, 4.9357142 
2.1812314e+2, 2.7041262e+2, -310027.25, -428631.66, 693.8571, -0.00080998574, 0.045333553, -310023.2, -20009.975, 0.0, 5.0131016, 4.9362035 
2.1812354e+2, 2.7535474e+2, -265332.25, -380130.13, 465.48694, -0.0065234806, 0.06867209, -265330.34, -23715.65, 0.0, 5.010957, 4.936646 
2.1813151e+2, 2.802955e+2, -240331.55, -387565.06, 7827.791, 0.0099691115, 0.19732472, -239916.55, -46697.75, 0.0, 5.0111914, 4.9172907 
2.1813318e+2, 2.852234e+2, -170386.17, -297939.1, -3803.9714, 0.009025758, 0.21562643, -170272.83, -25373.86, 0.0, 5.0135965, 4.9300985 
2.1812655e+2, 2.901452e+2, -119805.44, -246978.86, -3609.1577, -0.017539116, 0.119517185, -119703.09, -23070.955, 0.0, 5.0139437, 4.9302816 
2.181192e+2, 2.9506612e+2, -71188.62, -196985.89, -3631.5708, -0.047479384, 0.009793313, -71083.87, -22709.82, 0.0, 5.013504, 4.930465 
2.1811208e+2, 3.0000302e+2, -17544.547, -95760.3, -1624.5482, -0.06747407, -0.073642105, -17510.818, -17510.818, 0.0, 5.0120173, 4.9585266 
2.1809651e+2, 3.0497873e+2, -23540.88, -83727.484, 2183.142, -0.13967174, 0.013254072, -23461.797, -23461.797, 0.0, 5.0077724, 4.9633794 
2.1807562e+2, 3.0996525e+2, -37777.152, -82749.125, 5619.908, -0.25217977, 0.15757324, -37085.5, -37085.5, 0.0, 5.0016413, 4.965936 
2.1805215e+2, 3.1495765e+2, -56191.33, -84018.38, 10466.94, -0.3825143, 0.3319454, -52693.85, -52693.85, 0.0, 4.993826, 4.968497 
2.2313727e+2, 1.2151905e+2, -1708983.8, -1747718.1, -1057.3746, 0.012911745, 0.049780983, -1708954.9, 40161.2, 0.0, 5.0150857, 4.9898353 
2.2313696e+2, 1.2649588e+2, -1666345.9, -1711263.3, -441.45422, 0.0043391376, -0.041766338, -1666341.5, 33999.395, 0.0, 5.0150065, 4.985762 
2.2313745e+2, 1.3148336e+2, -1617706.3, -1662449.4, -353.05823, 0.0030992068, -0.025304347, -1617703.5, 33759.996, 0.0, 5.0148916, 4.98576 
2.2313793e+2, 1.3647082e+2, -1571273.6, -1618171.5, -266.16953, 0.0018425906, -0.0075287158, -1571272.1, 31314.06, 0.0, 5.0147767, 4.984254 
2.2313808e+2, 1.4145482e+2, -1529153.9, -1583056.6, -732.33154, 0.0003364517, 0.017725969, -1529143.9, 24599.205, 0.0, 5.0147095, 4.979614 
2.2313766e+2, 1.4643437e+2, -1479781.1, -1533524.4, -848.78986, -0.0012417199, 0.01324289, -1479767.8, 25176.473, 0.0, 5.0147467, 4.9797535 
2.2313724e+2, 1.5141381e+2, -1430606.1, -1484411.9, -844.488, -0.0027881945, 0.0074334885, -1430592.9, 25553.598, 0.0, 5.014787, 4.9797535 
2.2313683e+2, 1.5639324e+2, -1382860.6, -1438277.4, -840.54834, -0.0043267705, 0.0020657687, -1382847.9, 24500.902, 0.0, 5.0148273, 4.978758 
2.2313653e+2, 1.6136897e+2, -1342208.4, -1406936.1, -632.4277, -0.0054662446, 0.0035580338, -1342202.1, 16385.168, 0.0, 5.0148525, 4.9728227 
2.2313657e+2, 1.6634193e+2, -1293069.3, -1357749.9, -558.8209, -0.005591759, 0.0022916615, -1293064.4, 16788.412, 0.0, 5.0148473, 4.972847 
2.2313665e+2, 1.7131492e+2, -1243966.8, -1308635.6, -542.0232, -0.005663559, 0.0012381928, -1243962.3, 17155.72, 0.0, 5.01484, 4.9728475 
2.231367e+2, 1.7628792e+2, -1196000.8, -1261925.9, -525.372, -0.0057324255, 0.0005785964, -1195996.5, 16386.504, 0.0, 5.014833, 4.9720407 
2.2313657e+2, 1.8125738e+2, -1155417.4, -1230782.0, -757.2468, -0.006271051, 0.007461078, -1155409.8, 8272.722, 0.0, 5.014801, 4.965981 
2.2313607e+2, 1.8622366e+2, -1106159.8, -1181016.4, -838.47546, -0.00779986, 0.0057299067, -1106150.4, 8862.048, 0.0, 5.014712, 4.9662156 
2.2313555e+2, 1.9118996e+2, -1057233.1, -1131947.5, -835.0284, -0.009345186, 0.0037696892, -1057223.8, 9118.407, 0.0, 5.014621, 4.966217 
2.2313501e+2, 1.9615625e+2, -1009196.9, -1084793.6, -831.5466, -0.010874631, 0.0021205659, -1009187.75, 8484.12, 0.0, 5.014529, 4.965568 
2.2313446e+2, 2.0111895e+2, -969373.0, -1055331.0, -867.5664, -0.012368142, 0.007915422, -969364.25, -327.17255, 0.0, 5.014433, 4.958882 
2.2313382e+2, 2.0607805e+2, -920178.3, -1005673.44, -868.6136, -0.014084646, 0.005643038, -920169.5, 268.81476, 0.0, 5.0143223, 4.959066 
2.2313316e+2, 2.1103716e+2, -871234.44, -956558.5, -839.16486, -0.015816573, 0.0030419286, -871226.2, 613.3994, 0.0, 5.01421, 4.9590664 
2.2313252e+2, 2.1599625e+2, -822955.2, -908896.94, -809.7674, -0.017525759, 0.00057478057, -822947.5, 293.3592, 0.0, 5.014098, 4.958567 
2.2313185e+2, 2.2095191e+2, -783233.94, -880232.4, -904.27966, -0.018623775, 0.007847743, -783225.56, -8549.173, 0.0, 5.014029, 4.951511 
2.231311e+2, 2.259043e+2, -733446.44, -829972.7, -763.5433, -0.018284699, 0.010325859, -733440.44, -7294.505, 0.0, 5.0140395, 4.951814 
2.2313036e+2, 2.3085669e+2, -684058.2, -780595.25, -552.75885, -0.017826293, 0.012563311, -684055.0, -6439.6826, 0.0, 5.0140505, 4.95182 
2.231296e+2, 2.3580907e+2, -635320.9, -732666.5, -338.16193, -0.01734265, 0.014562755, -635319.7, -6234.7354, 0.0, 5.0140605, 4.951324 
2.2312911e+2, 2.4075772e+2, -594927.06, -703131.44, 651.9449, -0.017072024, 0.024163537, -594923.1, -14334.074, 0.0, 5.0140367, 4.9444265 
2.2313002e+2, 2.4570175e+2, -544730.4, -651482.1, 1248.9406, -0.018321233, 0.009376776, -544715.8, -12583.676, 0.0, 5.0139327, 4.945228 
2.2313106e+2, 2.5064567e+2, -495608.38, -602283.7, 1143.6713, -0.019622458, -0.0076990733, -495596.13, -11920.487, 0.0, 5.013819, 4.945207 
2.2313201e+2, 2.555897e+2, -446733.47, -553650.6, 1037.1523, -0.020769311, -0.023393348, -446723.4, -11505.388, 0.0, 5.0137005, 4.9449873 
2.2313394e+2, 2.605303e+2, -410139.13, -533044.7, 1047.9779, -0.01160094, -0.015593356, -410130.2, -23329.531, 0.0, 5.0136404, 4.9347453 
2.2313578e+2, 2.6547173e+2, -358899.78, -479144.78, 2170.8633, -0.00032010305, 0.017932069, -358860.6, -20458.592, 0.0, 5.0133734, 4.9360776 
2.2313671e+2, 2.7041334e+2, -309315.44, -429385.53, 3810.3047, 0.0065273196, 0.042850353, -309194.66, -19190.3, 0.0, 5.0130253, 4.9362583 
2.2313695e+2, 2.7535418e+2, -259685.17, -379861.78, 5676.2456, 0.01219204, 0.054223243, -259417.66, -17803.5, 0.0, 5.0126586, 4.9363914 
2.231444e+2, 2.8029287e+2, -235556.2, -382084.06, 15010.186, 0.04449911, 0.15677595, -234034.38, -40798.625, 0.0, 5.0123854, 4.918551 
2.2314538e+2, 2.8522158e+2, -176508.78, -297666.94, 3306.123, 0.034268595, 0.17604335, -176418.63, -31508.844, 0.0, 5.011594, 4.9305344 
2.2313839e+2, 2.901449e+2, -129618.32, -249616.42, 879.62463, -0.004058706, 0.09414606, -129611.87, -32980.563, 0.0, 5.010618, 4.9303412 
2.2313073e+2, 2.9506695e+2, -82619.875, -201631.8, -1187.5714, -0.039988946, -0.0018212281, -82608.03, -34243.344, 0.0, 5.0095797, 4.9301486 
2.2312313e+2, 3.00005e+2, -25310.102, -96789.66, -1057.9897, -0.057849076, -0.07544874, -25294.445, -25294.445, 0.0, 5.0085955, 4.959367 
2.231068e+2, 3.0497983e+2, -20773.297, -78907.39, 2281.3376, -0.106702305, -0.016174233, -20683.91, -20683.91, 0.0, 5.007495, 4.965071 
2.2308554e+2, 3.0996346e+2, -20588.941, -71263.32, 4606.5825, -0.17807856, 0.072348334, -20173.582, -20173.582, 0.0, 5.0062075, 4.967879 
2.2306204e+2, 3.149515e+2, -20015.719, -64009.53, 7055.514, -0.2508379, 0.1678284, -18911.887, -18911.887, 0.0, 5.004845, 4.9706893 
2.2815233e+2, 1.21516764e+2, -1709776.6, -1749306.4, -893.7235, 0.012406378, 0.03907124, -1709756.4, 39379.45, 0.0, 5.015082, 4.9893146 
2.2815186e+2, 1.264951e+2, -1666177.4, -1710896.6, -531.46576, 0.003007713, -0.03808124, -1666171.0, 34176.383, 0.0, 5.015003, 4.9858837 
2.2815232e+2, 1.3148242e+2, -1617537.9, -1662085.3, -441.48062, 0.0027970623, -0.024312517, -1617533.5, 33937.984, 0.0, 5.0148892, 4.985881 
2.2815277e+2, 1.3646972e+2, -1571105.3, -1617809.8, -352.9663, 0.0025509063, -0.0092304945, -1571102.5, 31493.127, 0.0, 5.0147743, 4.984374 
2.2815295e+2, 1.4145365e+2, -1529109.3, -1582956.5, -728.4294, 0.0017643338, 0.0145237865, -1529099.4, 24653.955, 0.0, 5.014708, 4.979647 
2.2815256e+2, 1.4643331e+2, -1479772.3, -1533499.6, -817.93634, 0.00015499901, 0.010870957, -1479759.8, 25193.736, 0.0, 5.0147457, 4.979762 
2.2815217e+2, 1.5141284e+2, -1430597.1, -1484387.1, -813.04205, -0.0014656275, 0.0059498153, -1430584.8, 25570.04, 0.0, 5.0147862, 4.9797616 
2.2815178e+2, 1.5639238e+2, -1382851.5, -1438252.6, -808.5144, -0.0030835131, 0.0014689848, -1382839.8, 24516.563, 0.0, 5.014827, 4.9787664 
2.2815147e+2, 1.6136815e+2, -1342179.1, -1406872.0, -632.44525, -0.0045775706, 0.0032692014, -1342173.0, 16421.293, 0.0, 5.0148525, 4.9728436 
2.2815141e+2, 1.6634105e+2, -1293036.5, -1357678.5, -564.0014, -0.005709807, 0.0012284141, -1293031.6, 16828.373, 0.0, 5.014847, 4.972871 
2.2815137e+2, 1.7131399e+2, -1243934.8, -1308564.6, -546.34424, -0.0068285433, -0.0006185416, -1243930.1, 17195.295, 0.0, 5.0148396, 4.9728713 
2.281513e+2, 1.7628692e+2, -1195969.4, -1261855.1, -528.8325, -0.007956755, -0.0020695846, -1195965.1, 16425.701, 0.0, 5.0148325, 4.9720645 
2.2815111e+2, 1.8125638e+2, -1155400.0, -1230740.0, -811.6554, -0.009101452, 0.0045057284, -1155391.3, 8298.938, 0.0, 5.0148, 4.9659953 
2.2815056e+2, 1.8622275e+2, -1106153.6, -1180997.1, -906.43585, -0.010126512, 0.0036451435, -1106142.6, 8876.976, 0.0, 5.014711, 4.9662223 
2.2815e+2, 1.9118914e+2, -1057227.8, -1131928.6, -901.7372, -0.011134155, 0.002613201, -1057216.8, 9131.967, 0.0, 5.0146194, 4.9662237 
2.2814941e+2, 1.9615553e+2, -1009192.25, -1084774.9, -896.9938, -0.012141001, 0.0018964928, -1009181.56, 8496.293, 0.0, 5.014528, 4.9655747 
2.281488e+2, 2.011183e+2, -969329.25, -1055231.4, -949.4876, -0.013386983, 0.008142209, -969318.75, -275.98245, 0.0, 5.014432, 4.958916 
2.2814801e+2, 2.0607738e+2, -920126.1, -1005557.06, -954.3743, -0.0154647725, 0.005299091, -920115.44, 328.8876, 0.0, 5.014322, 4.959106 
2.2814722e+2, 2.1103646e+2, -871182.9, -956442.94, -923.2244, -0.01759949, 0.0021060838, -871172.9, 673.14044, 0.0, 5.0142097, 4.9591064 
2.281464e+2, 2.1599555e+2, -822904.1, -908782.1, -892.1167, -0.019730935, -0.0009487942, -822894.9, 352.76563, 0.0, 5.0140977, 4.958607 
2.2814563e+2, 2.2095124e+2, -782970.75, -879632.8, -909.82275, -0.021254675, 0.0057850904, -782962.2, -8279.681, 0.0, 5.0140257, 4.951717 
2.2814485e+2, 2.2590384e+2, -733108.7, -829181.2, -740.94336, -0.021442236, 0.0078255795, -733102.94, -6954.1904, 0.0, 5.014033, 4.952089 
2.2814406e+2, 2.3085646e+2, -683731.06, -779803.7, -524.12964, -0.021577, 0.009664833, -683728.2, -6113.4746, 0.0, 5.0140405, 4.9520965 
2.2814326e+2, 2.3580909e+2, -635004.25, -731874.6, -303.5027, -0.021732602, 0.01130456, -635003.3, -5922.542, 0.0, 5.0140476, 4.9516025 
2.2814277e+2, 2.4075796e+2, -594916.7, -702860.8, 634.71515, -0.021961784, 0.020814948, -594913.0, -14330.52, 0.0, 5.0140004, 4.944531 
2.2814353e+2, 2.4570225e+2, -544907.75, -651579.06, 1154.2214, -0.023365885, 0.008776728, -544895.25, -12769.539, 0.0, 5.0138884, 4.945207 
2.2814438e+2, 2.5064647e+2, -495772.22, -602373.5, 1056.8911, -0.024889864, -0.005078364, -495761.75, -12092.284, 0.0, 5.013779, 4.945185 
2.2814515e+2, 2.555908e+2, -446883.9, -553733.4, 958.31616, -0.02633101, -0.017576927, -446875.3, -11663.194, 0.0, 5.0136647, 4.9449654 
2.281466e+2, 2.6053205e+2, -408884.88, -529689.1, 1035.6459, -0.020834433, -0.0071618184, -408876.0, -22086.13, 0.0, 5.013568, 4.935943 
2.2814739e+2, 2.654749e+2, -357231.3, -473687.75, 2428.9753, -0.023089426, 0.023763673, -357180.7, -18809.574, 0.0, 5.013144, 4.9380746 
2.2814716e+2, 2.704182e+2, -308060.9, -423681.47, 4290.8403, -0.031453677, 0.046810474, -307901.88, -17952.21, 0.0, 5.0126395, 4.9383864 
2.2814628e+2, 2.7536103e+2, -258844.45, -373909.75, 6378.9053, -0.042144332, 0.058270894, -258491.9, -16959.234, 0.0, 5.0121164, 4.938651 
2.2815187e+2, 2.8030086e+2, -233355.61, -378911.5, 12673.32, -0.017540919, 0.1512716, -232260.4, -39122.07, 0.0, 5.012615, 4.919719 
2.281525e+2, 2.8522804e+2, -175132.95, -301183.8, 2168.2986, -0.01264692, 0.16368018, -175095.67, -30261.973, 0.0, 5.0124364, 4.929325 
2.2814596e+2, 2.9015008e+2, -128526.15, -252538.31, 31.346375, -0.03837249, 0.083399884, -128526.14, -31950.168, 0.0, 5.011334, 4.9293337 
2.2813867e+2, 2.9507098e+2, -81812.7, -203960.2, -1745.9103, -0.06362289, -0.011393605, -81787.76, -33458.902, 0.0, 5.0101686, 4.9293423 
2.281311e+2, 3.000085e+2, -21872.637, -91258.695, -2006.1658, -0.074167125, -0.08670688, -21814.68, -21814.68, 0.0, 5.009001, 4.9613914 
2.2811458e+2, 3.049866e+2, -16546.578, -69405.8, 1821.5056, -0.12000873, -0.02377136, -16483.885, -16483.885, 0.0, 5.007575, 4.9687924 
2.2809318e+2, 3.0997458e+2, -17681.502, -63102.96, 5125.51, -0.19210355, 0.082640804, -17110.307, -17110.307, 0.0, 5.005992, 4.97135 
2.2806937e+2, 3.1496754e+2, -18430.5, -57185.613, 8554.174, -0.27035838, 0.20765239, -16626.375, -16626.375, 0.0, 5.004333, 4.973912 
2.3316738e+2, 1.2151445e+2, -1710517.8, -1750788.3, -729.268, 0.011806017, 0.028168961, -1710504.5, 38651.3, 0.0, 5.0150785, 4.9888287 
2.3316674e+2, 1.264943e+2, -1666009.4, -1710529.5, -620.55426, 0.0016635207, -0.034314238, -1666000.8, 34353.12, 0.0, 5.0150003, 4.9860044 
2.3316717e+2, 1.3148147e+2, -1617370.0, -1661720.8, -528.98, 0.0024862299, -0.023261897, -1617363.6, 34115.72, 0.0, 5.0148864, 4.9860015 
2.3316762e+2, 1.3646865e+2, -1570937.4, -1617447.5, -438.8399, 0.003254615, -0.010896593, -1570933.3, 31671.92, 0.0, 5.0147724, 4.984494 
2.3316778e+2, 1.414525e+2, -1529068.8, -1582864.5, -723.88153, 0.0031932776, 0.011337263, -1529059.0, 24704.463, 0.0, 5.014707, 4.979678 
2.3316745e+2, 1.4643224e+2, -1479763.5, -1533474.9, -787.0725, 0.0015535044, 0.008503407, -1479752.0, 25210.84, 0.0, 5.0147448, 4.9797707 
2.331671e+2, 1.5141188e+2, -1430588.3, -1484362.4, -781.5859, -0.0001412024, 0.0044593974, -1430576.9, 25586.328, 0.0, 5.0147853, 4.97977 
2.3316674e+2, 1.563915e+2, -1382842.5, -1438227.9, -776.47015, -0.0018383259, 0.000854328, -1382831.6, 24532.078, 0.0, 5.014826, 4.978775 
2.3316643e+2, 1.6136733e+2, -1342152.6, -1406813.1, -631.9999, -0.0036992228, 0.002995209, -1342146.5, 16454.695, 0.0, 5.014852, 4.972863 
2.3316626e+2, 1.6634016e+2, -1293004.1, -1357607.0, -569.2491, -0.0058403816, 0.0001819127, -1292999.1, 16868.033, 0.0, 5.0148463, 4.972894 
2.331661e+2, 1.7131305e+2, -1243903.0, -1308493.4, -550.7325, -0.008004446, -0.002469713, -1243898.4, 17234.574, 0.0, 5.014839, 4.972895 
2.3316592e+2, 1.7628594e+2, -1195938.3, -1261784.1, -532.36035, -0.010190395, -0.0047233854, -1195934.0, 16464.61, 0.0, 5.014832, 4.9720883 
2.3316564e+2, 1.8125537e+2, -1155386.1, -1230704.6, -866.08795, -0.011939093, 0.0015702223, -1155376.1, 8321.811, 0.0, 5.014799, 4.966007 
2.3316504e+2, 1.8622185e+2, -1106147.8, -1180977.6, -974.45807, -0.012458409, 0.0015746445, -1106135.1, 8891.643, 0.0, 5.01471, 4.966229 
2.3316444e+2, 1.9118832e+2, -1057222.6, -1131909.4, -968.50775, -0.012926168, 0.0014513796, -1057210.1, 9145.2705, 0.0, 5.0146184, 4.966231 
2.3316383e+2, 1.9615482e+2, -1009187.94, -1084756.0, -962.5028, -0.013408212, 0.0016474902, -1009175.6, 8508.213, 0.0, 5.0145264, 4.965582 
2.3316315e+2, 2.0111765e+2, -969295.56, -1055152.8, -1030.5856, -0.014399202, 0.008409783, -969283.2, -234.71425, 0.0, 5.0144315, 4.9589434 
2.3316221e+2, 2.0607673e+2, -920074.3, -1005440.44, -1040.108, -0.016835988, 0.0050018877, -920061.7, 388.67865, 0.0, 5.014321, 4.9591455 
2.3316126e+2, 2.1103577e+2, -871131.7, -956327.06, -1007.2571, -0.019372879, 0.0011880241, -871119.75, 732.6057, 0.0, 5.0142093, 4.959146 
2.331603e+2, 2.1599482e+2, -822853.5, -908666.94, -974.4391, -0.021925965, -0.0024835407, -822842.44, 411.9009, 0.0, 5.014097, 4.958647 
2.3315941e+2, 2.2095059e+2, -782713.5, -879044.56, -917.7767, -0.023893913, 0.003735389, -782704.75, -8016.165, 0.0, 5.014023, 4.9519186 
2.3315859e+2, 2.2590339e+2, -732772.3, -828388.7, -721.1484, -0.02463494, 0.005254128, -732766.9, -6615.282, 0.0, 5.0140257, 4.952362 
2.3315775e+2, 2.3085624e+2, -683405.3, -779011.06, -498.30588, -0.025378875, 0.006570846, -683402.75, -5788.626, 0.0, 5.0140305, 4.9523716 
2.3315692e+2, 2.3580909e+2, -634689.1, -731081.75, -271.64957, -0.026189722, 0.007726528, -634688.3, -5611.6597, 0.0, 5.0140347, 4.9518795 
2.3315637e+2, 2.4075824e+2, -594972.5, -702723.8, 585.2961, -0.026888903, 0.017935473, -594969.3, -14393.885, 0.0, 5.013964, 4.944587 
2.33157e+2, 2.4570283e+2, -545092.8, -651668.5, 1057.0776, -0.02840055, 0.00897429, -545082.3, -12963.653, 0.0, 5.0138445, 4.9451847 
2.3315766e+2, 2.5064734e+2, -495943.8, -602455.8, 967.68713, -0.030111944, -0.0018198048, -495935.0, -12272.248, 0.0, 5.013739, 4.945163 
2.3315828e+2, 2.5559196e+2, -447042.06, -553808.7, 877.0569, -0.031812057, -0.011282412, -447034.84, -11829.083, 0.0, 5.013629, 4.9449425 
2.3315927e+2, 2.6053357e+2, -407851.56, -526773.5, 908.4052, -0.029218031, 0.00024026453, -407844.63, -21063.55, 0.0, 5.013495, 4.9369583 
2.3315875e+2, 2.6547757e+2, -355597.2, -468212.53, 2486.555, -0.045671403, 0.023814311, -355542.3, -17197.73, 0.0, 5.0129147, 4.940007 
2.3315714e+2, 2.7042243e+2, -306839.84, -417958.94, 4570.5933, -0.070418335, 0.04030001, -306652.16, -16751.348, 0.0, 5.0122538, 4.94045 
2.331548e+2, 2.7536714e+2, -258036.38, -367938.97, 6880.5015, -0.09863546, 0.04716038, -257607.3, -16148.894, 0.0, 5.0115747, 4.940846 
2.3315962e+2, 2.8030908e+2, -233862.89, -381946.4, 11411.884, -0.07745412, 0.15053932, -232988.61, -39950.11, 0.0, 5.012848, 4.9186997 
2.3316069e+2, 2.8523552e+2, -173856.6, -304608.78, 667.01105, -0.055457562, 0.17003633, -173853.19, -29105.2, 0.0, 5.0132794, 4.92806 
2.3315434e+2, 2.9015604e+2, -127533.13, -255367.03, -1180.436, -0.07083112, 0.08588201, -127522.234, -31009.354, 0.0, 5.01205, 4.92827 
2.331472e+2, 2.9507563e+2, -81104.38, -206194.25, -2667.867, -0.08765216, -0.013229314, -81047.51, -32760.395, 0.0, 5.0107574, 4.92848 
2.3313974e+2, 3.0001137e+2, -19727.44, -88407.81, -2969.793, -0.08917742, -0.100866824, -19599.262, -19599.262, 0.0, 5.0094066, 4.9623528 
2.3312336e+2, 3.0499104e+2, -12443.407, -59804.867, 1647.0983, -0.12191133, -0.058304485, -12386.194, -12386.194, 0.0, 5.0076556, 4.9722643 
2.33102e+2, 3.0998242e+2, -14897.706, -54838.51, 5929.085, -0.18516445, 0.04109122, -14036.137, -14036.137, 0.0, 5.0057764, 4.974572 
2.3307805e+2, 3.1497937e+2, -16970.338, -50253.098, 10337.515, -0.25935823, 0.17073965, -14020.911, -14020.911, 0.0, 5.003821, 4.976884 
2.3818241e+2, 1.2151211e+2, -1711382.8, -1752251.0, -513.29224, 0.011189471, 0.017078161, -1711376.3, 37799.836, 0.0, 5.015017, 4.988378 
2.381816e+2, 1.2649353e+2, -1665938.6, -1710217.8, -678.1587, 0.0003590692, -0.030388173, -1665928.3, 34431.867, 0.0, 5.014966, 4.9861226 
2.3818205e+2, 1.3148054e+2, -1617252.9, -1661387.6, -607.7674, 0.002181742, -0.022097401, -1617244.5, 34242.758, 0.0, 5.0148683, 4.9861193 
2.3818247e+2, 1.3646756e+2, -1570804.9, -1617108.0, -536.7108, 0.003949158, -0.012493794, -1570798.6, 31815.916, 0.0, 5.0147595, 4.984612 
2.3818265e+2, 1.4145134e+2, -1529072.0, -1582802.5, -745.3917, 0.0046150424, 0.008180761, -1529061.8, 24712.016, 0.0, 5.0146933, 4.979705 
2.3818234e+2, 1.4643116e+2, -1479790.5, -1533468.9, -788.16266, 0.0029458785, 0.0061439113, -1479779.0, 25193.201, 0.0, 5.014732, 4.9797783 
2.3818201e+2, 1.5141091e+2, -1430615.4, -1484356.1, -786.84534, 0.0011801866, 0.0029559538, -1430603.8, 25567.826, 0.0, 5.014773, 4.9797783 
2.3818168e+2, 1.563906e+2, -1382874.5, -1438223.6, -785.3824, -0.00059032306, 0.00020588114, -1382863.3, 24507.916, 0.0, 5.0148115, 4.978783 
2.3818137e+2, 1.6136649e+2, -1342196.0, -1406791.6, -673.2964, -0.0028196357, 0.002716451, -1342188.9, 16419.213, 0.0, 5.0148287, 4.9728813 
2.3818108e+2, 1.6633928e+2, -1293111.6, -1357602.5, -612.57245, -0.005950572, -0.00085584447, -1293105.9, 16768.549, 0.0, 5.0147986, 4.972918 
2.3818082e+2, 1.7131211e+2, -1244095.0, -1308529.4, -588.8007, -0.009127426, -0.004311742, -1244089.6, 17050.72, 0.0, 5.0147624, 4.9729185 
2.3818055e+2, 1.7628492e+2, -1196224.8, -1261865.1, -565.1467, -0.012329121, -0.0073685087, -1196219.9, 16186.513, 0.0, 5.014723, 4.9721117 
2.3818016e+2, 1.8125437e+2, -1155765.9, -1230863.1, -946.02234, -0.014648019, -0.0013300016, -1155754.0, 7951.8145, 0.0, 5.014665, 4.966017 
2.3817952e+2, 1.8622093e+2, -1106538.4, -1181148.0, -1072.8875, -0.014664364, -0.000484384, -1106523.0, 8510.996, 0.0, 5.0145736, 4.966235 
2.3817888e+2, 1.9118752e+2, -1057628.9, -1132086.6, -1071.6599, -0.014589661, 0.0002585918, -1057613.4, 8748.57, 0.0, 5.0144763, 4.9662366 
2.3817824e+2, 1.961541e+2, -1009622.44, -1084946.0, -1070.4883, -0.014537277, 0.0013208234, -1009607.25, 8082.711, 0.0, 5.0143743, 4.9655876 
2.381775e+2, 2.01117e+2, -969739.1, -1055317.4, -1155.5385, -0.015257839, 0.008652318, -969723.5, -669.2857, 0.0, 5.01427, 4.9589624 
2.381764e+2, 2.0607606e+2, -920496.44, -1005548.6, -1171.4454, -0.018052265, 0.004729017, -920480.3, -23.910126, 0.0, 5.014157, 4.959184 
2.381753e+2, 2.1103507e+2, -871573.25, -956443.9, -1138.1425, -0.020982178, 0.0003109916, -871558.0, 300.73157, 0.0, 5.014038, 4.9591846 
2.381742e+2, 2.1599412e+2, -823329.7, -908799.1, -1104.2526, -0.023937456, -0.003962478, -823315.44, -54.39132, 0.0, 5.0139136, 4.9586854 
2.3817317e+2, 2.2094992e+2, -783062.7, -878754.94, -987.06, -0.026341649, 0.0017806119, -783052.5, -8357.867, 0.0, 5.0138116, 4.952113 
2.3817232e+2, 2.2590293e+2, -733197.2, -827963.8, -811.89215, -0.027621483, 0.0026289304, -733190.25, -7035.67, 0.0, 5.0137553, 4.952628 
2.3817144e+2, 2.3085599e+2, -684038.1, -778680.7, -643.1055, -0.028917322, 0.0032138634, -684033.75, -6419.8984, 0.0, 5.0136876, 4.952638 
2.3817056e+2, 2.3580904e+2, -635564.56, -730860.6, -480.00656, -0.030294329, 0.0036596477, -635562.1, -6488.979, 0.0, 5.0136065, 4.9521465 
2.3816994e+2, 2.407585e+2, -596541.2, -703422.5, 192.55415, -0.031305686, 0.01528644, -596540.8, -15972.162, 0.0, 5.0134196, 4.944586 
2.3817042e+2, 2.4570341e+2, -547097.6, -652621.4, 573.9329, -0.032733794, 0.009894418, -547094.5, -14982.903, 0.0, 5.013161, 4.9451523 
2.3817092e+2, 2.506482e+2, -498330.78, -603573.06, 428.99902, -0.034413744, 0.0021564895, -498329.03, -14673.009, 0.0, 5.0129185, 4.945132 
2.3817138e+2, 2.5559312e+2, -449819.22, -555092.06, 292.66342, -0.036113895, -0.004315566, -449818.4, -14618.966, 0.0, 5.0126677, 4.944913 
2.3817202e+2, 2.6053482e+2, -410561.63, -526175.5, -112.1652, -0.03514201, 0.006950263, -410561.5, -23786.568, 0.0, 5.012214, 4.937687 
2.3817003e+2, 2.6547953e+2, -360694.2, -466446.5, 28.388863, -0.06432829, 0.018526042, -360694.2, -22368.922, 0.0, 5.0103884, 4.9416184 
2.3816681e+2, 2.7042538e+2, -316836.22, -418199.1, 90.65841, -0.10351162, 0.023296826, -316836.16, -26971.76, 0.0, 5.007981, 4.942104 
2.3816285e+2, 2.7537128e+2, -274119.34, -370675.3, -240.80609, -0.14647146, 0.019831203, -274118.75, -32715.414, 0.0, 5.005122, 4.942543 
2.3816808e+2, 2.8031576e+2, -258909.78, -400662.13, 1747.3179, -0.12145605, 0.15165213, -258888.25, -65934.78, 0.0, 5.0052705, 4.9155197 
2.3817028e+2, 2.8524256e+2, -188142.78, -313692.3, -8209.278, -0.08432981, 0.19226606, -187608.28, -42941.824, 0.0, 5.008475, 4.9270024 
2.3816381e+2, 2.9016188e+2, -135657.39, -261349.58, -7786.169, -0.09529002, 0.10009565, -135176.9, -38725.637, 0.0, 5.009445, 4.927313 
2.3815653e+2, 2.9508033e+2, -85050.93, -209959.19, -7654.4097, -0.1084475, -0.006910868, -84583.61, -36339.0, 0.0, 5.009653, 4.9276237 
2.3814918e+2, 3.0001324e+2, -21427.69, -89872.77, -7360.19, -0.10044046, -0.115109675, -20645.164, -20645.164, 0.0, 5.0089393, 4.9619827 
2.3813337e+2, 3.0499244e+2, -13892.627, -53696.875, -4212.8286, -0.10792885, -0.11835122, -13451.632, -13451.632, 0.0, 5.0058775, 4.974922 
2.3811238e+2, 3.0998516e+2, -23977.963, -52773.082, -1496.2115, -0.14812343, -0.05898458, -23900.428, -23900.428, 0.0, 5.0013804, 4.9769287 
2.3808874e+2, 3.1498352e+2, -36859.867, -53509.098, 1741.0698, -0.20186758, 0.03609775, -36679.746, -36679.746, 0.0, 4.995669, 4.9789405 
2.4319746e+2, 1.2150986e+2, -1710948.5, -1752780.3, -344.20557, 0.0099641215, 0.005441628, -1710945.6, 38251.035, 0.0, 5.0153136, 4.9880614 
2.4319665e+2, 1.2649329e+2, -1665167.0, -1709793.4, -741.6722, -0.00006268214, -0.021778166, -1665154.6, 35207.117, 0.0, 5.015207, 4.986147 
2.4319701e+2, 1.3147993e+2, -1616560.8, -1660997.6, -763.5301, 0.0019310595, -0.017471956, -1616547.6, 34945.035, 0.0, 5.0150824, 4.9861455 
2.4319732e+2, 1.3646656e+2, -1570160.9, -1616736.6, -787.0025, 0.0039674635, -0.011855424, -1570147.6, 32476.273, 0.0, 5.0149584, 4.9846396 
2.4319747e+2, 1.414501e+2, -1528490.5, -1582542.9, -964.7663, 0.004910865, 0.0061210543, -1528473.4, 25312.22, 0.0, 5.0148907, 4.9796963 
2.431972e+2, 1.4642991e+2, -1479173.3, -1533209.4, -1005.68054, 0.003228351, 0.0040825107, -1479154.6, 25829.396, 0.0, 5.0149465, 4.9797616 
2.4319693e+2, 1.5140963e+2, -1429942.5, -1484068.5, -1032.5173, 0.0014398381, 0.0009804859, -1429922.8, 26260.54, 0.0, 5.015006, 4.979762 
2.4319665e+2, 1.5638934e+2, -1382141.4, -1437905.6, -1059.8824, -0.00034008527, -0.0016799475, -1382121.3, 25261.56, 0.0, 5.015066, 4.9787674 
2.4319634e+2, 1.6136523e+2, -1341451.1, -1406318.8, -1044.781, -0.0025753886, 0.00088703266, -1341434.3, 17185.03, 0.0, 5.015056, 4.9729304 
2.4319595e+2, 1.6633809e+2, -1292736.4, -1357271.9, -961.75336, -0.0057086893, -0.0026495317, -1292722.1, 17162.586, 0.0, 5.014893, 4.9729843 
2.4319558e+2, 1.7131099e+2, -1244111.5, -1308388.9, -889.5451, -0.008839231, -0.0060670944, -1244099.3, 17050.484, 0.0, 5.014724, 4.9729843 
2.4319518e+2, 1.7628388e+2, -1196620.1, -1261907.0, -817.6709, -0.011943946, -0.009088679, -1196609.9, 15804.854, 0.0, 5.014555, 4.9721775 
2.431947e+2, 1.8125337e+2, -1156504.5, -1231208.9, -1154.1833, -0.014115485, -0.0029616437, -1156486.8, 7226.809, 0.0, 5.0144086, 4.9660215 
2.43194e+2, 1.8621995e+2, -1107282.3, -1181549.0, -1299.3737, -0.013967464, -0.0018929469, -1107259.5, 7782.499, 0.0, 5.0143247, 4.966217 
2.4319328e+2, 1.9118652e+2, -1058320.5, -1132462.8, -1328.1727, -0.013700193, -0.0009377128, -1058296.8, 8073.707, 0.0, 5.0142446, 4.966218 
2.4319257e+2, 1.961531e+2, -1010249.56, -1085291.8, -1356.8239, -0.013423911, 0.0003183542, -1010225.06, 7473.705, 0.0, 5.0141635, 4.9655685 
2.4319173e+2, 2.01116e+2, -970268.9, -1055457.0, -1469.0372, -0.0139462, 0.0076578977, -970243.56, -1180.3612, 0.0, 5.014059, 4.959013 
2.4319053e+2, 2.060751e+2, -921162.94, -1005695.9, -1443.1838, -0.01663659, 0.0034780987, -921138.3, -673.6017, 0.0, 5.013887, 4.9592595 
2.4318928e+2, 2.110342e+2, -872401.75, -956664.8, -1358.5034, -0.01941686, -0.0011942204, -872379.9, -513.57166, 0.0, 5.0137105, 4.95926 
2.4318804e+2, 2.1599327e+2, -824304.1, -909085.94, -1273.8184, -0.022171116, -0.0057257893, -824285.0, -1017.1277, 0.0, 5.013534, 4.9587607 
2.4318688e+2, 2.2094914e+2, -784156.56, -878978.3, -1115.905, -0.024520641, -0.00035690027, -784143.44, -9442.822, 0.0, 5.013366, 4.9522414 
2.4318585e+2, 2.259022e+2, -734601.56, -828332.8, -1034.724, -0.026119303, -0.00025652788, -734590.1, -8430.636, 0.0, 5.013195, 4.9527597 
2.4318485e+2, 2.308553e+2, -685738.9, -779211.1, -966.8716, -0.027596693, -0.00050926546, -685728.9, -8110.976, 0.0, 5.013021, 4.9527617 
2.431838e+2, 2.3580839e+2, -637524.2, -731533.94, -895.02606, -0.028997948, -0.0009672411, -637515.6, -8439.153, 0.0, 5.012846, 4.952262 
2.43183e+2, 2.4075793e+2, -598963.1, -704776.75, -434.6045, -0.02977233, 0.0112541625, -598961.3, -18390.275, 0.0, 5.0125604, 4.9445233 
2.4318308e+2, 2.457032e+2, -550415.3, -654525.1, -139.965, -0.03036626, 0.010362908, -550415.1, -18302.748, 0.0, 5.011992, 4.9450393 
2.431832e+2, 2.5064832e+2, -502578.3, -605864.4, -285.47293, -0.030970905, 0.0070227343, -502577.53, -18922.01, 0.0, 5.011402, 4.9450293 
2.4318326e+2, 2.5559354e+2, -454980.7, -557760.4, -432.63797, -0.031395253, 0.0046696356, -454978.88, -19781.096, 0.0, 5.010804, 4.944821 
2.4318337e+2, 2.605352e+2, -415607.53, -528343.4, -876.1132, -0.029450987, 0.016095735, -415600.72, -28827.23, 0.0, 5.010224, 4.9378505 
2.4318044e+2, 2.6547867e+2, -363587.72, -468507.75, -187.38467, -0.055141363, 0.013380671, -363587.38, -25259.125, 0.0, 5.0090833, 4.941601 
2.4317634e+2, 2.7042255e+2, -316716.66, -420338.53, 1215.8732, -0.0866404, 0.00048599334, -316702.38, -26823.904, 0.0, 5.0077934, 4.9416456 
2.4317162e+2, 2.753657e+2, -269805.44, -372359.34, 2879.6362, -0.11801811, -0.022864299, -269724.66, -28289.133, 0.0, 5.006472, 4.9416428 
2.4317625e+2, 2.803085e+2, -255873.84, -401274.13, 9629.952, -0.08304892, 0.105674654, -255238.83, -62241.74, 0.0, 5.006529, 4.914371 
2.4317886e+2, 2.852379e+2, -190756.53, -311961.56, -915.1853, -0.056122895, 0.16815226, -190749.63, -46057.145, 0.0, 5.007211, 4.9273486 
2.4317302e+2, 2.901597e+2, -141631.52, -262842.9, -3701.8315, -0.07515678, 0.093219146, -141518.56, -45055.797, 0.0, 5.0070667, 4.9271917 
2.431664e+2, 2.9508045e+2, -92429.44, -213793.84, -6114.8306, -0.091450974, 0.0060598874, -92122.125, -43878.836, 0.0, 5.006838, 4.9270363 
2.4315989e+2, 3.0001384e+2, -27445.68, -97060.836, -7808.479, -0.07974704, -0.09183338, -26580.58, -26580.58, 0.0, 5.006941, 4.960011 
2.4314587e+2, 3.0498904e+2, -9410.435, -56329.098, -7186.175, -0.059028238, -0.13438377, -8334.458, -8334.458, 0.0, 5.007211, 4.9730487 
2.4312706e+2, 3.0997536e+2, -7031.15, -50768.62, -6905.293, -0.058754798, -0.14581262, -5966.838, -5966.838, 0.0, 5.0071177, 4.974686 
2.4310577e+2, 3.1496426e+2, -4453.2544, -45403.36, -6401.157, -0.06328177, -0.1526619, -3475.9739, -3475.9739, 0.0, 5.0069194, 4.9763246 
2.4821255e+2, 1.21507555e+2, -1711271.3, -1753419.3, -328.80487, 0.0075483765, -0.0068998006, -1711268.8, 37949.582, 0.0, 5.015311, 4.9878535 
2.4821185e+2, 1.2649332e+2, -1665204.4, -1709854.8, -838.69653, -0.00035894738, -0.010415444, -1665188.6, 35172.51, 0.0, 5.015204, 4.986129 
2.4821205e+2, 1.3147947e+2, -1616596.0, -1661059.1, -858.8918, 0.0015705167, -0.010790706, -1616579.4, 34917.656, 0.0, 5.0150805, 4.9861264 
2.4821225e+2, 1.3646562e+2, -1570193.9, -1616798.1, -880.65173, 0.0035206687, -0.009863133, -1570177.3, 32455.986, 0.0, 5.0149565, 4.9846206 
2.4821231e+2, 1.414488e+2, -1528536.3, -1582633.6, -951.1219, 0.0044200826, 0.00475404, -1528519.5, 25278.967, 0.0, 5.0148897, 4.9796667 
2.482121e+2, 1.4642853e+2, -1479220.8, -1533304.4, -959.8542, 0.0027299137, 0.002214297, -1479203.8, 25793.621, 0.0, 5.014946, 4.9797306 
2.4821189e+2, 1.5140817e+2, -1429989.9, -1484163.3, -986.0365, 0.0009222942, -0.0012918977, -1429972.0, 26225.129, 0.0, 5.0150056, 4.979731 
2.4821167e+2, 1.563878e+2, -1382188.8, -1438000.3, -1012.7517, -0.00088154053, -0.0043548224, -1382170.4, 25226.572, 0.0, 5.015065, 4.9787364 
2.4821137e+2, 1.6136369e+2, -1341355.4, -1406111.4, -1136.2981, -0.0029492876, -0.0019275063, -1341335.4, 17297.83, 0.0, 5.015055, 4.9730005 
2.4821086e+2, 1.663367e+2, -1292605.1, -1356989.0, -1090.533, -0.005546379, -0.0049408786, -1292586.6, 17310.283, 0.0, 5.0148916, 4.9730797 
2.4821036e+2, 1.7130974e+2, -1243981.3, -1308107.0, -1017.53253, -0.008143359, -0.007801578, -1243965.0, 17195.164, 0.0, 5.014723, 4.9730797 
2.4820986e+2, 1.762828e+2, -1196490.8, -1261626.1, -944.84467, -0.010725768, -0.010265579, -1196477.0, 15946.489, 0.0, 5.0145535, 4.972273 
2.4820927e+2, 1.8125238e+2, -1156505.1, -1231203.9, -1234.5986, -0.012547947, -0.003796958, -1156484.8, 7236.617, 0.0, 5.0144076, 4.9660234 
2.4820848e+2, 1.862189e+2, -1107332.9, -1181649.4, -1359.3932, -0.012445601, -0.002783422, -1107308.0, 7742.5605, 0.0, 5.0143237, 4.966183 
2.4820769e+2, 1.9118544e+2, -1058371.8, -1132562.9, -1386.9059, -0.012256369, -0.0018806632, -1058345.9, 8033.86, 0.0, 5.014243, 4.9661846 
2.482069e+2, 1.9615199e+2, -1010301.5, -1085391.8, -1414.262, -0.012073605, -0.0006696236, -1010274.9, 7433.904, 0.0, 5.014162, 4.965535 
2.4820594e+2, 2.0111486e+2, -970165.44, -1055226.6, -1583.643, -0.01253319, 0.006418166, -970136.0, -1062.4852, 0.0, 5.0140576, 4.9590917 
2.482046e+2, 2.0607403e+2, -921014.25, -1005369.3, -1577.3956, -0.014761013, 0.0017339414, -920984.75, -510.7177, 0.0, 5.013886, 4.9593716 
2.4820323e+2, 2.1103317e+2, -872254.2, -956339.44, -1491.026, -0.017079368, -0.0034181918, -872227.75, -353.19122, 0.0, 5.01371, 4.959372 
2.4820186e+2, 2.1599233e+2, -824157.6, -908761.6, -1404.6376, -0.01938962, -0.008424618, -824134.3, -859.2615, 0.0, 5.0135336, 4.958873 
2.4820055e+2, 2.2094826e+2, -784023.0, -878667.9, -1240.272, -0.021586247, -0.0035224187, -784006.75, -9299.975, 0.0, 5.0133634, 4.9523487 
2.4819931e+2, 2.259014e+2, -734504.06, -828076.6, -1150.782, -0.023752173, -0.0035366714, -734489.94, -8325.102, 0.0, 5.0131884, 4.9528503 
2.4819808e+2, 2.3085459e+2, -685651.7, -778953.9, -1077.3262, -0.025890261, -0.0037939881, -685639.25, -8016.9355, 0.0, 5.013011, 4.952854 
2.4819683e+2, 2.3580776e+2, -637447.25, -731275.56, -999.86206, -0.028008742, -0.0042063138, -637436.56, -8356.635, 0.0, 5.0128326, 4.9523563 
2.481957e+2, 2.4075745e+2, -599081.25, -704817.8, -767.7136, -0.029479459, 0.008777417, -599075.7, -18502.322, 0.0, 5.0125256, 4.9445224 
2.4819519e+2, 2.45703e+2, -550631.1, -654755.6, -607.5073, -0.030194517, 0.011318562, -550627.56, -18514.578, 0.0, 5.011952, 4.944975 
2.4819471e+2, 2.506484e+2, -502775.97, -606086.9, -744.3507, -0.030901842, 0.011656552, -502770.63, -19116.227, 0.0, 5.011368, 4.944964 
2.4819414e+2, 2.5559393e+2, -455160.34, -557975.0, -882.8297, -0.031504147, 0.012957823, -455152.75, -19957.807, 0.0, 5.010776, 4.9447546 
2.4819347e+2, 2.6053575e+2, -414771.56, -526050.5, -1269.2471, -0.03165213, 0.023358494, -414757.1, -27988.17, 0.0, 5.0101604, 4.9386725 
2.4818932e+2, 2.6547882e+2, -362542.38, -464464.0, -380.13345, -0.06370902, 0.0038636525, -362540.97, -24222.275, 0.0, 5.0088415, 4.9430947 
2.4818394e+2, 2.7042267e+2, -316155.2, -416027.53, 1229.6428, -0.103500955, -0.024980808, -316140.06, -26279.965, 0.0, 5.0073695, 4.9432845 
2.4817783e+2, 2.7536616e+2, -269727.94, -367779.94, 3099.826, -0.14509791, -0.061965473, -269630.03, -28225.193, 0.0, 5.005866, 4.9434266 
2.4818082e+2, 2.8030974e+2, -255537.3, -401999.38, 9574.78, -0.12515725, 0.062486097, -254914.02, -61961.527, 0.0, 5.006715, 4.9141774 
2.4818423e+2, 2.852395e+2, -190051.3, -316708.03, -941.8808, -0.08621877, 0.14325479, -190044.3, -45391.137, 0.0, 5.008022, 4.9256744 
2.4818003e+2, 2.9016152e+2, -141242.39, -266970.88, -3439.0845, -0.08562991, 0.08718478, -141148.39, -44716.473, 0.0, 5.0077353, 4.9257255 
2.48175e+2, 2.9508266e+2, -92357.32, -217305.1, -5562.236, -0.08480216, 0.018569373, -92110.195, -43890.7, 0.0, 5.0073643, 4.9257774 
2.4817002e+2, 3.000158e+2, -27393.504, -98664.46, -6840.5825, -0.060906563, -0.06907117, -26742.885, -26742.885, 0.0, 5.0072637, 4.959438 
2.481581e+2, 3.0498928e+2, -9508.663, -55704.164, -5681.584, -0.02933131, -0.12695807, -8820.147, -8820.147, 0.0, 5.0071664, 4.97344 
2.4814135e+2, 3.0997485e+2, -8456.915, -51094.98, -4732.9404, -0.022681644, -0.14406544, -7937.8647, -7937.8647, 0.0, 5.006727, 4.974947 
2.4812186e+2, 3.1496376e+2, -7206.0347, -46679.45, -3560.5352, -0.027772686, -0.14543775, -6887.443, -6887.443, 0.0, 5.006182, 4.976455 
2.5322765e+2, 1.215052e+2, -1711538.6, -1753943.9, -316.9781, 0.005242652, -0.019615714, -1711536.3, 37704.168, 0.0, 5.0153074, 4.987683 
2.5322706e+2, 1.2649335e+2, -1665242.4, -1709915.5, -935.1851, -0.0006339263, 0.0010183209, -1665222.8, 35137.61, 0.0, 5.015201, 4.98611 
2.532271e+2, 1.3147902e+2, -1616631.9, -1661120.0, -953.71765, 0.001228684, -0.004059962, -1616611.4, 34889.977, 0.0, 5.015078, 4.986108 
2.5322717e+2, 1.3646467e+2, -1570227.5, -1616859.1, -973.765, 0.0030900096, -0.007842896, -1570207.3, 32435.373, 0.0, 5.014955, 4.9846015 
2.5322714e+2, 1.4144748e+2, -1528586.1, -1582732.3, -936.8703, 0.003931931, 0.0034054692, -1528569.9, 25241.545, 0.0, 5.0148892, 4.9796343 
2.53227e+2, 1.4642714e+2, -1479268.5, -1533399.1, -914.0195, 0.0022307816, 0.00035413067, -1479253.1, 25757.69, 0.0, 5.014945, 4.979699 
2.5322685e+2, 1.514067e+2, -1430037.6, -1484257.8, -939.5473, 0.00040418032, -0.003568918, -1430021.4, 26189.572, 0.0, 5.0150046, 4.9796996 
2.532267e+2, 1.5638627e+2, -1382236.4, -1438094.6, -965.61255, -0.0014234409, -0.007047018, -1382219.6, 25191.441, 0.0, 5.0150642, 4.9787054 
2.5322637e+2, 1.6136216e+2, -1341263.5, -1405911.9, -1227.8942, -0.0033198283, -0.0047274726, -1341240.3, 17406.91, 0.0, 5.0150537, 4.9730673 
2.5322577e+2, 1.6633531e+2, -1292474.0, -1356706.0, -1219.2881, -0.0053789075, -0.0072150617, -1292450.9, 17458.213, 0.0, 5.0148907, 4.9731746 
2.5322515e+2, 1.713085e+2, -1243851.1, -1307825.0, -1145.4956, -0.007441376, -0.009529545, -1243830.6, 17340.078, 0.0, 5.0147214, 4.973175 
2.5322455e+2, 1.7628169e+2, -1196361.6, -1261345.0, -1071.994, -0.009500528, -0.01144661, -1196344.0, 16088.349, 0.0, 5.0145526, 4.972368 
2.5322384e+2, 1.8125138e+2, -1156508.9, -1231205.1, -1314.4305, -0.010987049, -0.004616953, -1156485.8, 7243.3115, 0.0, 5.0144067, 4.966023 
2.5322297e+2, 1.8621786e+2, -1107383.8, -1181749.6, -1419.616, -0.010935877, -0.0036671564, -1107356.6, 7702.335, 0.0, 5.0143228, 4.9661493 
2.5322208e+2, 1.9118437e+2, -1058423.4, -1132662.9, -1445.8424, -0.010824659, -0.0028372807, -1058395.3, 7993.7314, 0.0, 5.0142417, 4.9661508 
2.532212e+2, 1.9615088e+2, -1010353.75, -1085491.4, -1471.9034, -0.01073539, -0.0016916748, -1010324.94, 7393.824, 0.0, 5.01416, 4.965502 
2.5322017e+2, 2.0111376e+2, -970072.3, -1055017.9, -1697.3639, -0.011119041, 0.005232944, -970038.44, -954.6525, 0.0, 5.0140567, 4.959163 
2.5321868e+2, 2.0607297e+2, -920866.0, -1005042.44, -1711.6648, -0.012882487, 0.000057285706, -920831.2, -347.88293, 0.0, 5.0138855, 4.959483 
2.532172e+2, 2.1103217e+2, -872107.06, -956013.75, -1623.6062, -0.014741136, -0.0056058457, -872075.6, -192.857, 0.0, 5.013709, 4.9594836 
2.532157e+2, 2.1599138e+2, -824011.56, -908437.0, -1535.5145, -0.01660959, -0.011118311, -823983.7, -701.4425, 0.0, 5.0135326, 4.958985 
2.532142e+2, 2.2094737e+2, -783900.4, -878378.6, -1366.5316, -0.01864612, -0.006677542, -783880.6, -9167.678, 0.0, 5.0133605, 4.952448 
2.5321278e+2, 2.2590059e+2, -734408.44, -827818.9, -1269.6548, -0.021392392, -0.006876887, -734391.2, -8221.012, 0.0, 5.0131817, 4.95294 
2.532113e+2, 2.3085387e+2, -685566.3, -778695.06, -1190.5961, -0.024205195, -0.007235986, -685551.1, -7924.331, 0.0, 5.0130014, 4.9529457 
2.5320983e+2, 2.3580714e+2, -637372.1, -731015.6, -1107.5142, -0.027054919, -0.007699859, -637359.06, -8275.546, 0.0, 5.01282, 4.95245 
2.5320837e+2, 2.40757e+2, -599246.4, -704942.25, -1131.2563, -0.029199433, 0.0066242637, -599234.3, -18658.951, 0.0, 5.0124907, 4.94449 
2.5320727e+2, 2.4570285e+2, -550858.5, -654974.8, -1076.7113, -0.030002166, 0.012823267, -550847.4, -18734.21, 0.0, 5.0119123, 4.944909 
2.5320616e+2, 2.5064856e+2, -502985.22, -606298.06, -1204.887, -0.030786045, 0.01670236, -502971.2, -19318.283, 0.0, 5.0113335, 4.9448977 
2.53205e+2, 2.5559437e+2, -455351.53, -558178.3, -1334.677, -0.031540196, 0.021520957, -455334.22, -20142.402, 0.0, 5.0107474, 4.9446874 
2.532036e+2, 2.6053607e+2, -414162.25, -524167.78, -1780.8245, -0.0327523, 0.029973062, -414133.44, -27367.52, 0.0, 5.010097, 4.939324 
2.5319803e+2, 2.6547864e+2, -361551.2, -460376.7, -795.2481, -0.071626596, -0.009687805, -361544.8, -23232.354, 0.0, 5.0085998, 4.944539 
2.53191e+2, 2.704223e+2, -315647.3, -411672.6, 1020.6422, -0.120815426, -0.05794431, -315636.47, -25790.387, 0.0, 5.006946, 4.9448743 
2.531832e+2, 2.75366e+2, -269703.47, -363156.22, 3096.8318, -0.17373598, -0.11202461, -269600.94, -28221.355, 0.0, 5.0052605, 4.945162 
2.5318557e+2, 2.803111e+2, -257182.14, -407225.75, 10680.087, -0.16525905, 0.022685563, -256425.75, -63519.395, 0.0, 5.0069027, 4.912402 
2.531906e+2, 2.8524175e+2, -189477.9, -321330.22, -1358.5089, -0.11283437, 0.13141306, -189463.92, -44856.633, 0.0, 5.008833, 4.9239526 
2.531878e+2, 2.9016387e+2, -140984.83, -270973.47, -3565.9666, -0.09478609, 0.08972272, -140887.08, -44491.008, 0.0, 5.0084043, 4.9242115 
2.531841e+2, 2.9508525e+2, -92416.45, -220689.83, -5399.0156, -0.079000086, 0.035166916, -92189.61, -43997.36, 0.0, 5.007891, 4.9244714 
2.5318068e+2, 3.0001748e+2, -28364.389, -102197.77, -5971.8145, -0.041269697, -0.046910148, -27884.494, -27884.494, 0.0, 5.007587, 4.958086 
2.5317103e+2, 3.0498853e+2, -9771.536, -54916.918, -4056.7, 0.009166588, -0.13071921, -9409.903, -9409.903, 0.0, 5.007122, 4.973706 
2.5315627e+2, 3.0997282e+2, -10048.833, -51259.055, -2439.287, 0.029251797, -0.16709556, -9904.95, -9904.95, 0.0, 5.006336, 4.975082 
2.531385e+2, 3.1496114e+2, -10127.303, -47793.62, -597.17004, 0.030652663, -0.17657875, -10117.837, -10117.837, 0.0, 5.0054445, 4.9764595 
2.5824276e+2, 1.2150284e+2, -1711966.6, -1754451.0, -246.31499, 0.0031557744, -0.032504674, -1711965.1, 37297.523, 0.0, 5.01523, 4.987555 
2.5824222e+2, 1.2649338e+2, -1665386.5, -1710038.5, -994.1736, -0.00087726983, 0.012365478, -1665364.4, 34995.383, 0.0, 5.015165, 4.986088 
2.5824216e+2, 1.3147856e+2, -1616680.4, -1661195.3, -1042.5021, 0.00090025464, 0.0026277544, -1616656.0, 34849.72, 0.0, 5.0150733, 4.9860854 
2.582421e+2, 1.3646373e+2, -1570208.8, -1616900.6, -1087.5854, 0.0026740376, -0.0058275387, -1570183.5, 32468.438, 0.0, 5.014972, 4.9845796 
2.58242e+2, 1.4144619e+2, -1528577.1, -1582808.1, -957.6879, 0.0034607847, 0.0020821332, -1528560.3, 25264.121, 0.0, 5.0149093, 4.9795995 
2.5824192e+2, 1.4642575e+2, -1479316.3, -1533493.0, -899.6551, 0.0017537894, -0.0014824895, -1479301.3, 25722.984, 0.0, 5.0149446, 4.979668 
2.582418e+2, 1.5140525e+2, -1430154.0, -1484385.3, -919.98724, -0.00008065776, -0.00582514, -1430138.4, 26086.326, 0.0, 5.014981, 4.9796686 
2.582417e+2, 1.5638475e+2, -1382425.8, -1438257.4, -941.0956, -0.0019179373, -0.009718997, -1382409.9, 25015.363, 0.0, 5.0150156, 4.9786744 
2.582414e+2, 1.6136062e+2, -1341366.9, -1405815.9, -1342.9238, -0.0036301417, -0.0074662333, -1341338.9, 17322.137, 0.0, 5.014989, 4.97313 
2.582407e+2, 1.6633393e+2, -1292516.1, -1356510.8, -1390.1111, -0.005153639, -0.009423124, -1292485.9, 17435.41, 0.0, 5.0148315, 4.9732676 
2.5823995e+2, 1.7130725e+2, -1243878.5, -1307623.3, -1335.8234, -0.006680822, -0.011200284, -1243850.6, 17330.686, 0.0, 5.014668, 4.973268 
2.5823924e+2, 1.7628059e+2, -1196380.6, -1261139.6, -1282.116, -0.008211368, -0.012579962, -1196355.3, 16085.862, 0.0, 5.0145016, 4.9724607 
2.5823843e+2, 1.8125036e+2, -1156661.6, -1231280.6, -1487.1671, -0.009371611, -0.005380605, -1156632.0, 7104.852, 0.0, 5.0143557, 4.9660215 
2.5823745e+2, 1.8621683e+2, -1107602.4, -1181926.0, -1558.3966, -0.0093779955, -0.0045389943, -1107569.8, 7497.7915, 0.0, 5.014263, 4.9661174 
2.5823647e+2, 1.9118328e+2, -1058676.9, -1132855.3, -1567.2688, -0.009336818, -0.0038428218, -1058643.8, 7754.513, 0.0, 5.0141697, 4.966119 
2.582355e+2, 1.9614975e+2, -1010652.7, -1085704.6, -1576.2045, -0.009323673, -0.0028274271, -1010619.56, 7109.341, 0.0, 5.0140724, 4.9654694 
2.5823438e+2, 2.0111261e+2, -970268.6, -1054964.4, -1846.1349, -0.009603598, 0.004003569, -970228.4, -1134.2407, 0.0, 5.0139594, 4.959226 
2.582328e+2, 2.0607188e+2, -920962.1, -1004834.75, -1896.0333, -0.010908786, -0.0015856546, -920919.25, -426.64133, 0.0, 5.0138006, 4.959593 
2.5823113e+2, 2.1103115e+2, -872172.6, -955792.06, -1822.5049, -0.012311092, -0.007725011, -872132.9, -241.88089, 0.0, 5.013635, 4.9595933 
2.5822952e+2, 2.1599044e+2, -824056.25, -908205.75, -1748.5076, -0.013732929, -0.013713245, -824019.94, -730.5401, 0.0, 5.0134664, 4.959094 
2.582279e+2, 2.2094649e+2, -783987.5, -878214.7, -1601.9977, -0.015582189, -0.009698402, -783960.3, -9241.125, 0.0, 5.0132904, 4.952535 
2.5822622e+2, 2.2589977e+2, -734593.75, -827707.8, -1549.8861, -0.018873472, -0.0102078905, -734567.94, -8392.222, 0.0, 5.0130796, 4.9530225 
2.5822452e+2, 2.3085311e+2, -685871.94, -778636.75, -1522.5417, -0.022303963, -0.01084883, -685846.94, -8215.275, 0.0, 5.0128574, 4.9530287 
2.5822282e+2, 2.3580644e+2, -637824.44, -731021.44, -1496.6783, -0.025806086, -0.011568665, -637800.44, -8712.745, 0.0, 5.0126243, 4.9525332 
2.58221e+2, 2.407565e+2, -600060.9, -705464.6, -1858.365, -0.028499603, 0.00456494, -600028.1, -19450.342, 0.0, 5.0122447, 4.9444165 
2.5821933e+2, 2.4570268e+2, -551670.8, -655494.94, -1942.7141, -0.029261855, 0.014753788, -551634.44, -19520.885, 0.0, 5.011671, 4.9448314 
2.5821766e+2, 2.5064868e+2, -503777.94, -606808.75, -2130.7246, -0.02996434, 0.022189112, -503733.9, -20082.219, 0.0, 5.0111, 4.944819 
2.582159e+2, 2.5559473e+2, -456144.44, -558688.25, -2321.8098, -0.03067273, 0.030551175, -456091.88, -20902.879, 0.0, 5.010515, 4.9446087 
2.5821394e+2, 2.6053616e+2, -414793.3, -523493.44, -3274.75, -0.031494588, 0.03639192, -414694.72, -27929.518, 0.0, 5.009726, 4.9396806 
2.582067e+2, 2.6547775e+2, -363680.78, -458401.9, -3930.28, -0.07576082, -0.02687512, -363518.0, -25205.055, 0.0, 5.007369, 4.9456553 
2.581978e+2, 2.7042073e+2, -321311.22, -411024.53, -4099.9336, -0.13273524, -0.0992319, -321124.25, -31279.693, 0.0, 5.0044613, 4.9460554 
2.581881e+2, 2.7536383e+2, -279846.6, -364224.34, -4468.2285, -0.19467235, -0.17625153, -279610.63, -38236.203, 0.0, 5.0011826, 4.946409 
2.5819102e+2, 2.8031048e+2, -274957.84, -422638.8, 4023.3333, -0.19170253, -0.020688942, -274848.3, -81968.46, 0.0, 5.0020685, 4.9091663 
2.5819832e+2, 2.8524306e+2, -198109.08, -328315.25, -8222.389, -0.12830555, 0.12663451, -197591.89, -53020.992, 0.0, 5.0063696, 4.9225335 
2.5819656e+2, 2.9016578e+2, -144613.9, -275444.03, -8042.4644, -0.09842027, 0.097652875, -144121.36, -47756.523, 0.0, 5.0077224, 4.9228706 
2.5819388e+2, 2.9508775e+2, -93110.32, -223562.44, -8224.378, -0.07192769, 0.055932105, -92593.86, -44428.336, 0.0, 5.008267, 4.9232097 
2.5819203e+2, 3.0001888e+2, -29946.697, -107547.17, -7317.4033, -0.019341886, -0.02210861, -29262.725, -29262.725, 0.0, 5.008151, 4.9558268 
2.581849e+2, 3.0498633e+2, -13147.771, -55424.168, -4972.8857, 0.060858484, -0.14648926, -12570.698, -12570.698, 0.0, 5.006086, 4.9736505 
2.5817227e+2, 3.0996788e+2, -22161.396, -55442.996, -1589.5734, 0.10766336, -0.22777937, -22085.648, -22085.648, 0.0, 5.0021863, 4.9750233 
2.5815654e+2, 3.1495377e+2, -34918.457, -57298.7, 3892.6704, 0.1316981, -0.27794462, -34260.723, -34260.723, 0.0, 4.996762, 4.976397 
2.6325804e+2, 1.2150179e+2, -1711034.9, -1753336.0, -222.28262, 0.0026208947, -0.0333504, -1711033.6, 38240.05, 0.0, 5.0153904, 4.987846 
2.6325735e+2, 1.2649263e+2, -1664892.6, -1710098.3, -1041.4832, -0.002506726, 0.015508798, -1664868.8, 35498.445, 0.0, 5.0153875, 4.9859633 
2.632573e+2, 1.3147753e+2, -1615926.8, -1661117.4, -1180.4066, -0.00028075516, 0.0042906934, -1615896.0, 35619.902, 0.0, 5.015382, 4.9859643 
2.632572e+2, 1.3646244e+2, -1569169.1, -1616672.9, -1320.9045, 0.002021224, -0.005680156, -1569132.5, 33532.33, 0.0, 5.0153756, 4.9844613 
2.6325712e+2, 1.414447e+2, -1527311.8, -1582242.6, -1232.1538, 0.0032949396, 0.0011750073, -1527284.1, 26554.988, 0.0, 5.0153427, 4.9795775 
2.6325703e+2, 1.4642426e+2, -1478352.1, -1533019.5, -1132.6768, 0.0018785951, -0.0024006965, -1478328.6, 26710.037, 0.0, 5.015266, 4.9796705 
2.6325694e+2, 1.5140378e+2, -1429531.6, -1484080.9, -1118.5038, 0.0003420414, -0.006707774, -1429508.8, 26730.219, 0.0, 5.015188, 4.979671 
2.6325685e+2, 1.5638328e+2, -1382138.1, -1438117.4, -1105.1724, -0.0011852079, -0.0105536925, -1382116.3, 25322.908, 0.0, 5.0151105, 4.978676 
2.632565e+2, 1.6135918e+2, -1341310.8, -1405797.6, -1586.4153, -0.0024962071, -0.008081504, -1341271.8, 17402.852, 0.0, 5.0150084, 4.973127 
2.632557e+2, 1.6633251e+2, -1292429.8, -1356480.6, -1749.794, -0.0034628352, -0.009469338, -1292382.0, 17552.676, 0.0, 5.0148625, 4.9732633 
2.6325488e+2, 1.7130591e+2, -1243743.3, -1307571.0, -1797.6716, -0.0044135335, -0.010667067, -1243692.8, 17501.535, 0.0, 5.014715, 4.9732633 
2.6325405e+2, 1.7627929e+2, -1196190.5, -1261062.6, -1846.0304, -0.0053505558, -0.011469844, -1196138.0, 16315.742, 0.0, 5.0145674, 4.9724555 
2.6325312e+2, 1.8124908e+2, -1156376.0, -1231026.8, -2066.632, -0.006266005, -0.004365971, -1156318.9, 7430.5845, 0.0, 5.014426, 4.966074 
2.63252e+2, 1.8621546e+2, -1107385.5, -1181671.9, -2027.223, -0.0068333535, -0.005125073, -1107330.1, 7750.3115, 0.0, 5.0143027, 4.9661846 
2.6325086e+2, 1.9118181e+2, -1058544.1, -1132643.4, -1929.803, -0.0073440033, -0.006095136, -1058493.9, 7917.7305, 0.0, 5.01418, 4.9661856 
2.6324973e+2, 1.9614816e+2, -1010592.94, -1085529.3, -1832.3622, -0.007841498, -0.006757906, -1010548.1, 7194.538, 0.0, 5.0140576, 4.965536 
2.6324844e+2, 2.0111102e+2, -970258.6, -1054822.1, -2049.8977, -0.008216182, -0.0007028216, -970208.94, -1101.2974, 0.0, 5.01393, 4.9592876 
2.632468e+2, 2.060705e+2, -920909.44, -1004679.7, -2143.965, -0.008661642, -0.0047935406, -920854.6, -350.38153, 0.0, 5.0137873, 4.959651 
2.632451e+2, 2.1102998e+2, -872056.2, -955608.56, -2116.8293, -0.009128724, -0.009344835, -872002.56, -101.931595, 0.0, 5.0136437, 4.959651 
2.632434e+2, 2.1598947e+2, -823866.8, -907990.2, -2089.8606, -0.009581569, -0.013763651, -823814.9, -517.83777, 0.0, 5.0134997, 4.9591517 
2.632417e+2, 2.2094564e+2, -783884.6, -878193.75, -2060.3374, -0.010590183, -0.008982051, -783839.6, -9113.704, 0.0, 5.013321, 4.952531 
2.632398e+2, 2.2589876e+2, -734793.2, -827909.94, -2113.3713, -0.013579293, -0.010739041, -734745.25, -8560.979, 0.0, 5.0130157, 4.9529862 
2.6323786e+2, 2.3085192e+2, -686330.2, -778972.8, -2163.7302, -0.016685097, -0.012812804, -686279.6, -8637.417, 0.0, 5.0127, 4.952988 
2.6323593e+2, 2.3580503e+2, -638512.44, -731477.6, -2209.6448, -0.01978415, -0.015070356, -638459.94, -9359.548, 0.0, 5.0123835, 4.9524884 
2.6323384e+2, 2.4075498e+2, -600491.3, -705783.6, -2625.372, -0.022238016, 0.00004123157, -600425.94, -19834.066, 0.0, 5.0120625, 4.944402 
2.6323172e+2, 2.4570137e+2, -551206.56, -655501.44, -2571.3005, -0.023297077, 0.012794074, -551143.2, -19018.133, 0.0, 5.011805, 4.9447904 
2.632296e+2, 2.5064763e+2, -502409.34, -606421.0, -2584.9487, -0.024157878, 0.02337314, -502345.16, -18684.994, 0.0, 5.01155, 4.944775 
2.6322743e+2, 2.55594e+2, -453857.22, -557904.25, -2604.9456, -0.024854343, 0.03498198, -453792.03, -18597.639, 0.0, 5.0112877, 4.9445615 
2.6322514e+2, 2.6053536e+2, -411640.6, -523584.6, -3690.6057, -0.02323683, 0.04235834, -411519.03, -24749.27, 0.0, 5.0109806, 4.9391584 
2.6321778e+2, 2.6547492e+2, -357762.5, -459097.0, -4924.964, -0.05460693, -0.030519929, -357523.7, -19190.121, 0.0, 5.0097494, 4.944523 
2.6320878e+2, 2.7041483e+2, -311212.2, -410936.3, -5032.6475, -0.095743775, -0.11947155, -310958.88, -21067.975, 0.0, 5.008322, 4.9446282 
2.6319894e+2, 2.7535406e+2, -264600.34, -362983.38, -4858.1675, -0.13976163, -0.2190214, -264361.03, -22906.592, 0.0, 5.006862, 4.9446855 
2.6320127e+2, 2.802969e+2, -260012.58, -412079.88, 8866.357, -0.13372056, -0.095789194, -259497.36, -66503.18, 0.0, 5.0068746, 4.910357 
2.6320866e+2, 2.8523254e+2, -192742.64, -320675.47, -3193.241, -0.09099126, 0.06870587, -192662.98, -48004.313, 0.0, 5.0083447, 4.9235315 
2.632075e+2, 2.901593e+2, -141024.58, -270563.38, -5562.5234, -0.07210479, 0.07412082, -140786.16, -44369.156, 0.0, 5.0091944, 4.923305 
2.6320547e+2, 2.9508498e+2, -89235.4, -220553.31, -7572.0923, -0.051538285, 0.067478284, -88800.22, -40614.285, 0.0, 5.0099654, 4.9230785 
2.6320454e+2, 3.0001947e+2, -22878.195, -105644.74, -7630.083, 0.00035873931, 0.02296367, -22180.672, -22180.672, 0.0, 5.0111732, 4.9549437 
2.6320004e+2, 3.049826e+2, 4810.736, -51532.824, -10236.452, 0.10347607, -0.12502192, 6612.8467, 6612.8467, 0.0, 5.013476, 4.971664 
2.6319057e+2, 3.0995673e+2, 13817.477, -41257.434, -13804.66, 0.1894259, -0.27086535, 17083.918, 17083.918, 0.0, 5.01563, 4.974026 
2.6317823e+2, 3.1493416e+2, 23135.973, -31306.422, -16857.037, 0.2646741, -0.41582072, 27932.791, 27932.791, 0.0, 5.0177016, 4.976394 
2.6827338e+2, 1.215014e+2, -1710194.8, -1751608.1, -233.65474, 0.00208468, -0.027211431, -1710193.4, 39085.56, 0.0, 5.015387, 4.9884143 
2.6827246e+2, 1.264914e+2, -1665153.4, -1710611.1, -1052.1508, -0.0052775335, 0.014015676, -1665129.0, 35250.64, 0.0, 5.0153837, 4.985797 
2.682725e+2, 1.3147616e+2, -1616184.8, -1661629.9, -1188.7668, -0.0020537064, 0.003072415, -1616153.6, 35375.996, 0.0, 5.0153785, 4.9857974 
2.6827252e+2, 1.3646092e+2, -1569424.5, -1617185.1, -1326.9133, 0.0012035605, -0.006625034, -1569387.6, 33292.27, 0.0, 5.0153728, 4.984294 
2.6827246e+2, 1.414431e+2, -1527339.9, -1582291.5, -1284.3813, 0.0032141374, 0.0005191666, -1527309.8, 26545.035, 0.0, 5.0153413, 4.979562 
2.6827234e+2, 1.4642271e+2, -1478324.3, -1532954.4, -1190.3197, 0.002228801, -0.0027744367, -1478298.3, 26755.627, 0.0, 5.015265, 4.979693 
2.682722e+2, 1.5140226e+2, -1429503.5, -1484016.3, -1175.4547, 0.001114753, -0.0068035712, -1429478.1, 26775.28, 0.0, 5.0151873, 4.979693 
2.6827207e+2, 1.5638182e+2, -1382109.8, -1438053.1, -1161.4088, 0.0000030974024, -0.010372602, -1382085.6, 25367.434, 0.0, 5.0151095, 4.9786983 
2.6827165e+2, 1.6135776e+2, -1341371.9, -1405920.8, -1690.0306, -0.00083562627, -0.007554165, -1341327.6, 17360.598, 0.0, 5.0150075, 4.973086 
2.682708e+2, 1.663311e+2, -1292516.3, -1356658.0, -1861.9817, -0.0011870239, -0.00836821, -1292462.3, 17486.496, 0.0, 5.0148616, 4.973204 
2.6826987e+2, 1.713045e+2, -1243829.1, -1307747.6, -1909.0168, -0.0015268847, -0.008977685, -1243772.3, 17436.557, 0.0, 5.0147142, 4.973204 
2.6826897e+2, 1.7627788e+2, -1196275.9, -1261238.6, -1956.5145, -0.001864124, -0.009193716, -1196217.0, 16251.816, 0.0, 5.014567, 4.9723964 
2.682679e+2, 1.8124764e+2, -1156262.0, -1230778.5, -2164.1587, -0.00263333, -0.002417024, -1156199.1, 7565.638, 0.0, 5.0144253, 4.9661574 
2.6826656e+2, 1.8621388e+2, -1107215.3, -1181300.8, -2117.841, -0.0041188714, -0.0055475337, -1107154.9, 7941.0723, 0.0, 5.0143013, 4.9663105 
2.6826522e+2, 1.9118011e+2, -1058376.6, -1132274.1, -2019.1602, -0.005609078, -0.008952966, -1058321.5, 8105.5654, 0.0, 5.0141783, 4.9663115 
2.6826385e+2, 1.9614637e+2, -1010428.06, -1085161.8, -1920.4453, -0.0071020764, -0.012040562, -1010378.75, 7379.4272, 0.0, 5.0140553, 4.965662 
2.6826245e+2, 2.011092e+2, -970176.25, -1054634.5, -2157.5527, -0.007860139, -0.007074124, -970121.2, -998.683, 0.0, 5.0139284, 4.959352 
2.6826078e+2, 2.0606895e+2, -920860.1, -1004565.6, -2254.8376, -0.0070753964, -0.008845996, -920799.44, -282.57657, 0.0, 5.0137863, 4.95969 
2.6825908e+2, 2.1102872e+2, -872006.94, -955495.06, -2225.6895, -0.006245314, -0.010902218, -871947.6, -36.70118, 0.0, 5.013643, 4.9596906 
2.6825735e+2, 2.1598852e+2, -823817.6, -907877.25, -2196.6968, -0.005416187, -0.012821326, -823760.25, -455.22418, 0.0, 5.0134993, 4.959191 
2.682556e+2, 2.2094484e+2, -783931.94, -878288.4, -2251.2297, -0.0052999924, -0.006619674, -783878.25, -9145.4, 0.0, 5.0133195, 4.9524984 
2.6825342e+2, 2.2589773e+2, -734889.56, -828090.25, -2332.6594, -0.007815061, -0.00981078, -734831.25, -8637.675, 0.0, 5.0130115, 4.9529257 
2.6825124e+2, 2.3085067e+2, -686434.6, -779147.3, -2377.218, -0.010567769, -0.013427543, -686373.7, -8719.651, 0.0, 5.0126925, 4.9529305 
2.6824906e+2, 2.3580359e+2, -638624.94, -731646.25, -2417.3042, -0.01336449, -0.017192831, -638562.2, -9447.509, 0.0, 5.0123725, 4.952433 
2.6824668e+2, 2.4075334e+2, -600464.6, -705482.4, -2818.2747, -0.01593328, -0.0039896965, -600389.06, -19781.236, 0.0, 5.012029, 4.944514 
2.6824418e+2, 2.4569993e+2, -551205.7, -655203.44, -2775.5244, -0.018387068, 0.00930049, -551131.7, -18993.467, 0.0, 5.011763, 4.944902 
2.6824164e+2, 2.506464e+2, -502399.0, -606128.44, -2778.7192, -0.020818377, 0.021167386, -502324.63, -18654.906, 0.0, 5.011512, 4.944883 
2.6823902e+2, 2.55593e+2, -453837.38, -557617.1, -2788.252, -0.023165803, 0.034126364, -453762.53, -18562.164, 0.0, 5.011253, 4.944666 
2.6823643e+2, 2.605347e+2, -411985.25, -523777.9, -3982.859, -0.02152974, 0.043407224, -411843.53, -25072.03, 0.0, 5.0109, 4.9391255 
2.6822928e+2, 2.6547372e+2, -358971.97, -459856.5, -5127.06, -0.04461577, -0.028851194, -358712.06, -20373.354, 0.0, 5.0094876, 4.9443636 
2.6822048e+2, 2.7041328e+2, -312818.5, -411219.38, -4994.0537, -0.07837175, -0.11660509, -312565.7, -22667.555, 0.0, 5.0078793, 4.9446635 
2.6821083e+2, 2.7535248e+2, -266604.25, -362790.13, -4578.3545, -0.116976336, -0.21348843, -266386.8, -24926.475, 0.0, 5.006239, 4.9449153 
2.6821196e+2, 2.80294e+2, -256871.44, -405596.47, 8684.824, -0.1186787, -0.117257856, -256366.0, -63354.08, 0.0, 5.006966, 4.912697 
2.6821908e+2, 2.8522864e+2, -191581.8, -323243.75, -2629.0913, -0.08047715, 0.038621802, -191529.31, -46842.836, 0.0, 5.0090384, 4.9227314 
2.682187e+2, 2.9015583e+2, -140033.78, -272412.75, -4693.2676, -0.059509575, 0.062309153, -139867.6, -43426.44, 0.0, 5.0097904, 4.9227242 
2.6821738e+2, 2.95082e+2, -88416.734, -221686.9, -6397.8364, -0.039492447, 0.07259291, -88110.3, -39904.598, 0.0, 5.010463, 4.9227166 
2.6821706e+2, 3.000185e+2, -21829.143, -103978.06, -6297.389, 0.0062426184, 0.049615405, -21349.2, -21349.2, 0.0, 5.0114207, 4.955629 
2.6821458e+2, 3.0497953e+2, -138.75455, -59673.715, -8248.865, 0.10093985, -0.07793244, 983.0296, 983.0296, 0.0, 5.013129, 4.969338 
2.6820737e+2, 3.0995023e+2, 7095.9863, -49899.61, -10970.067, 0.17596872, -0.19549789, 9134.509, 9134.509, 0.0, 5.0147343, 4.9717674 
2.6819706e+2, 3.1492543e+2, 14650.414, -40448.66, -13175.393, 0.23500289, -0.29847407, 17638.852, 17638.852, 0.0, 5.0162573, 4.974203 
2.7328873e+2, 1.21501e+2, -1709296.5, -1749759.0, -247.95601, 0.001476829, -0.02133219, -1709295.0, 39989.55, 0.0, 5.0153837, 4.9890223 
2.7328756e+2, 1.2649016e+2, -1665415.4, -1711122.9, -1061.9745, -0.008032661, 0.012559439, -1665390.6, 35001.457, 0.0, 5.01538, 4.98563 
2.7328768e+2, 1.314748e+2, -1616444.0, -1662141.3, -1196.2832, -0.0038077068, 0.0018759125, -1616412.8, 35130.71, 0.0, 5.0153756, 4.98563 
2.732878e+2, 1.3645941e+2, -1569681.1, -1617696.3, -1332.078, 0.0004081205, -0.007563244, -1569644.1, 33050.83, 0.0, 5.01537, 4.9841266 
2.7328777e+2, 1.4144151e+2, -1527372.9, -1582349.4, -1335.35, 0.0031380819, -0.000116385105, -1527340.5, 26530.11, 0.0, 5.0153394, 4.9795437 
2.7328762e+2, 1.4642118e+2, -1478296.6, -1532889.0, -1247.793, 0.0025791503, -0.0031312802, -1478268.1, 26800.926, 0.0, 5.0152636, 4.9797153 
2.7328748e+2, 1.5140077e+2, -1429475.8, -1483951.3, -1232.2361, 0.00188863, -0.0068933098, -1429447.9, 26820.05, 0.0, 5.0151863, 4.979715 
2.732873e+2, 1.5638037e+2, -1382081.9, -1437988.5, -1217.4757, 0.00119359, -0.010196291, -1382055.4, 25411.668, 0.0, 5.0151086, 4.97872 
2.7328688e+2, 1.6135634e+2, -1341436.6, -1406051.0, -1793.4226, 0.0008224243, -0.007014607, -1341386.9, 17314.941, 0.0, 5.015007, 4.9730425 
2.732859e+2, 1.6632968e+2, -1292603.0, -1356835.0, -1974.2206, 0.0010857933, -0.007258234, -1292542.4, 17420.379, 0.0, 5.014861, 4.9731445 
2.7328488e+2, 1.7130306e+2, -1243915.4, -1307924.0, -2020.4131, 0.0013579237, -0.0072915656, -1243851.6, 17371.64, 0.0, 5.014714, 4.9731445 
2.732839e+2, 1.7627646e+2, -1196361.4, -1261414.4, -2067.0496, 0.0016216218, -0.0069329576, -1196295.8, 16187.946, 0.0, 5.0145664, 4.9723372 
2.732827e+2, 1.8124618e+2, -1156151.4, -1230536.6, -2261.7266, 0.000993499, -0.000449069, -1156082.6, 7697.539, 0.0, 5.0144243, 4.966239 
2.7328116e+2, 1.8621232e+2, -1107045.6, -1180929.4, -2208.5034, -0.0014105074, -0.005953607, -1106979.6, 8131.6416, 0.0, 5.0143, 4.9664364 
2.732796e+2, 1.9117843e+2, -1058209.5, -1131904.5, -2108.5615, -0.0038779702, -0.0118143, -1058149.3, 8293.21, 0.0, 5.014177, 4.9664373 
2.7327803e+2, 1.9614455e+2, -1010263.56, -1084793.9, -2008.5729, -0.006364172, -0.017346611, -1010209.5, 7564.124, 0.0, 5.014053, 4.9657874 
2.7327642e+2, 2.011074e+2, -970107.2, -1054474.9, -2264.0552, -0.0074984184, -0.013387853, -970046.5, -909.21967, 0.0, 5.0139265, 4.9594064 
2.7327472e+2, 2.0606743e+2, -920811.2, -1004451.3, -2365.8105, -0.005484613, -0.012839438, -920744.3, -214.92583, 0.0, 5.0137854, 4.959729 
2.7327302e+2, 2.1102749e+2, -871958.1, -955381.25, -2334.6501, -0.0033596547, -0.012441725, -871892.8, 28.38173, 0.0, 5.013642, 4.959729 
2.732713e+2, 2.1598755e+2, -823768.94, -907763.94, -2303.6335, -0.001250844, -0.011902256, -823705.75, -392.7541, 0.0, 5.0134983, 4.95923 
2.7326944e+2, 2.2094403e+2, -783989.8, -878403.4, -2442.3877, -0.000016693504, -0.004212265, -783926.6, -9186.911, 0.0, 5.0133185, 4.9524584 
2.7326706e+2, 2.2589673e+2, -734987.75, -828269.06, -2556.0679, -0.002092865, -0.008888431, -734917.75, -8714.929, 0.0, 5.0130067, 4.9528637 
2.732646e+2, 2.3084943e+2, -686540.8, -779320.25, -2594.8267, -0.004524523, -0.014162237, -686468.3, -8802.4375, 0.0, 5.0126843, 4.9528713 
2.7326214e+2, 2.3580213e+2, -638739.2, -731813.44, -2629.0854, -0.0070509566, -0.01954929, -638665.0, -9536.023, 0.0, 5.012361, 4.952377 
2.7325946e+2, 2.4075176e+2, -600497.75, -705292.0, -3038.5564, -0.009694709, -0.0076538087, -600409.75, -19786.232, 0.0, 5.0119953, 4.944584 
2.7325657e+2, 2.456985e+2, -551217.06, -654893.5, -2978.31, -0.013476768, 0.0063912426, -551131.6, -18980.74, 0.0, 5.0117216, 4.945012 
2.732536e+2, 2.5064522e+2, -502400.94, -605823.94, -2971.0508, -0.017432678, 0.01937535, -502315.66, -18636.74, 0.0, 5.0114737, 4.9449897 
2.7325058e+2, 2.5559205e+2, -453829.8, -557318.0, -2970.1194, -0.02138517, 0.03351386, -453744.66, -18538.594, 0.0, 5.011218, 4.944769 
2.7324772e+2, 2.6053384e+2, -412560.78, -524389.5, -4439.754, -0.018973874, 0.04385621, -412384.8, -25610.066, 0.0, 5.0108194, 4.938915 
2.7324048e+2, 2.654722e+2, -360236.0, -460571.44, -5621.489, -0.035349913, -0.031742487, -359922.03, -21574.805, 0.0, 5.009226, 4.9441433 
2.7323148e+2, 2.7041122e+2, -314479.13, -411456.66, -5248.0913, -0.063939646, -0.12255939, -314195.94, -24285.877, 0.0, 5.0074368, 4.944638 
2.7322155e+2, 2.753503e+2, -268662.16, -362549.84, -4591.51, -0.099346444, -0.22103561, -268438.16, -26965.99, 0.0, 5.005616, 4.9450846 
2.7322283e+2, 2.802913e+2, -256177.19, -404717.72, 9346.103, -0.101493895, -0.13485424, -255591.44, -62563.707, 0.0, 5.0070596, 4.913073 
2.7323064e+2, 2.852255e+2, -190545.48, -325693.25, -2472.2627, -0.06307665, 0.024471909, -190500.28, -45793.77, 0.0, 5.0097327, 4.9218774 
2.7323082e+2, 2.9015297e+2, -139166.8, -274143.06, -4230.796, -0.04265968, 0.061572235, -139034.31, -42575.074, 0.0, 5.0103865, 4.922089 
2.7323002e+2, 2.9507944e+2, -87721.125, -222701.19, -5629.899, -0.025822809, 0.083922535, -87486.72, -39265.617, 0.0, 5.0109615, 4.922301 
2.732304e+2, 3.0001688e+2, -22066.111, -104925.07, -5298.1357, 0.015700335, 0.07417308, -21728.715, -21728.715, 0.0, 5.0116687, 4.955271 
2.7322957e+2, 3.0497444e+2, -5223.464, -67701.03, -6409.261, 0.108198985, -0.051851988, -4572.747, -4572.747, 0.0, 5.0127826, 4.966806 
2.7322406e+2, 3.0994093e+2, 236.29617, -58429.754, -8281.066, 0.17634162, -0.1617786, 1382.8121, 1382.8121, 0.0, 5.0138392, 4.969303 
2.732152e+2, 3.1491315e+2, 6022.3184, -49480.184, -9636.65, 0.22319975, -0.24342506, 7647.8774, 7647.8774, 0.0, 5.014814, 4.971806 
2.7830404e+2, 1.2150055e+2, -1708535.6, -1747916.8, -315.58832, 0.0008111337, -0.015728872, -1708533.1, 40757.496, 0.0, 5.015322, 4.989657 
2.783027e+2, 1.2648894e+2, -1665771.8, -1711678.4, -1121.6348, -0.010749888, 0.011148304, -1665744.4, 34660.234, 0.0, 5.0153446, 4.9854646 
2.783029e+2, 1.3147344e+2, -1616745.3, -1662669.8, -1235.7062, -0.0055268053, 0.0007095462, -1616712.1, 34845.168, 0.0, 5.015358, 4.985464 
2.783031e+2, 1.364579e+2, -1569941.1, -1618204.6, -1349.4941, -0.00034439965, -0.008484695, -1569903.4, 32806.668, 0.0, 5.0153656, 4.9839606 
2.7830312e+2, 1.4143991e+2, -1527404.5, -1582413.9, -1385.4756, 0.003097228, -0.0007192891, -1527369.6, 26516.71, 0.0, 5.01534, 4.9795218 
2.7830294e+2, 1.4641961e+2, -1478280.9, -1532831.1, -1311.6318, 0.0029601357, -0.0034574878, -1478249.4, 26834.85, 0.0, 5.015259, 4.9797363 
2.7830273e+2, 1.5139927e+2, -1429481.0, -1483903.9, -1301.7631, 0.0026965744, -0.0069636772, -1429449.9, 26832.613, 0.0, 5.0151744, 4.9797363 
2.7830252e+2, 1.5637892e+2, -1382112.0, -1437953.4, -1292.145, 0.0024246245, -0.010013826, -1382082.1, 25398.8, 0.0, 5.0150886, 4.978741 
2.7830204e+2, 1.6135491e+2, -1341566.0, -1406218.3, -1916.2983, 0.0025138243, -0.0064586196, -1341509.3, 17206.295, 0.0, 5.0149856, 4.9729967 
2.78301e+2, 1.6632827e+2, -1292705.1, -1357019.5, -2104.251, 0.0033696834, -0.0061428216, -1292636.4, 17340.486, 0.0, 5.0148554, 4.9730854 
2.782999e+2, 1.7130165e+2, -1243976.4, -1308088.1, -2147.9358, 0.004238806, -0.005618811, -1243904.4, 17333.38, 0.0, 5.014722, 4.9730854 
2.7829883e+2, 1.7627504e+2, -1196388.4, -1261561.8, -2191.8389, 0.00509493, -0.0047038128, -1196314.8, 16184.063, 0.0, 5.014586, 4.972278 
2.782975e+2, 1.8124472e+2, -1155972.9, -1230270.1, -2377.1775, 0.0046107154, 0.0015217628, -1155896.9, 7898.636, 0.0, 5.0144486, 4.966317 
2.7829576e+2, 1.8621074e+2, -1106828.4, -1180539.5, -2332.6926, 0.0013282768, -0.0063457647, -1106754.6, 8372.044, 0.0, 5.014316, 4.96656 
2.7829397e+2, 1.9117673e+2, -1058031.4, -1131534.3, -2247.7534, -0.0020630653, -0.014674263, -1057962.6, 8495.298, 0.0, 5.01418, 4.966561 
2.7829218e+2, 1.9614273e+2, -1010136.9, -1084448.9, -2163.1018, -0.005479203, -0.022671213, -1010074.0, 7715.1807, 0.0, 5.0140395, 4.965911 
2.7829045e+2, 2.0110558e+2, -970128.25, -1054379.9, -2444.938, -0.006943821, -0.019642647, -970057.4, -905.18384, 0.0, 5.0138993, 4.959451 
2.7828872e+2, 2.0606588e+2, -920831.9, -1004369.3, -2556.1646, -0.0037348992, -0.016745765, -920753.75, -211.72026, 0.0, 5.0137606, 4.959768 
2.78287e+2, 2.1102624e+2, -871978.6, -955299.6, -2527.5667, -0.00034370588, -0.013908892, -871902.0, 29.559364, 0.0, 5.0136175, 4.959768 
2.7828524e+2, 2.159866e+2, -823800.06, -907687.5, -2498.5479, 0.0030263572, -0.0109303, -823725.75, -404.67114, 0.0, 5.0134706, 4.959268 
2.7828333e+2, 2.2094323e+2, -784131.0, -878577.5, -2725.559, 0.005366236, -0.0016838431, -784052.44, -9305.76, 0.0, 5.0132937, 4.9524093 
2.7828068e+2, 2.258957e+2, -735098.94, -828464.8, -2895.112, 0.0037168525, -0.007958016, -735009.25, -8797.017, 0.0, 5.013001, 4.952797 
2.7827796e+2, 2.3084816e+2, -686637.06, -779503.94, -2955.71, 0.0016322581, -0.015102556, -686543.06, -8865.057, 0.0, 5.0126843, 4.952806 
2.7827525e+2, 2.3580061e+2, -638864.06, -732004.9, -3017.8142, -0.0005639079, -0.02236034, -638766.4, -9622.573, 0.0, 5.012351, 4.952313 
2.7827224e+2, 2.407501e+2, -600602.1, -705261.9, -3499.8076, -0.0031145953, -0.011294599, -600485.2, -19845.686, 0.0, 5.0119615, 4.9446015 
2.7826896e+2, 2.4569707e+2, -551252.0, -654637.2, -3476.249, -0.00797177, 0.0039149695, -551135.2, -18971.525, 0.0, 5.0116835, 4.945106 
2.7826563e+2, 2.5064403e+2, -502454.72, -605585.4, -3544.1184, -0.013169434, 0.018114785, -502333.06, -18644.832, 0.0, 5.0114346, 4.9450803 
2.782622e+2, 2.555911e+2, -453914.13, -557101.94, -3616.2278, -0.018396968, 0.03356527, -453787.53, -18575.736, 0.0, 5.0111747, 4.9448566 
2.7825913e+2, 2.605328e+2, -413956.72, -526050.4, -5830.741, -0.013837147, 0.044446956, -413654.25, -26874.28, 0.0, 5.0106006, 4.938395 
2.782516e+2, 2.6546997e+2, -364876.7, -463630.94, -8715.553, -0.02233974, -0.03905696, -364113.4, -25750.576, 0.0, 5.0079107, 4.9435515 
2.782422e+2, 2.7040774e+2, -323908.9, -416316.03, -10227.863, -0.043804675, -0.1395496, -322790.4, -32854.074, 0.0, 5.0043993, 4.9441414 
2.782318e+2, 2.753457e+2, -284464.88, -369877.34, -11948.37, -0.07282479, -0.24792089, -282824.9, -41316.8, 0.0, 5.000288, 4.9446864 
2.782345e+2, 2.802861e+2, -277914.25, -417770.47, 2228.3115, -0.06388054, -0.16007732, -277878.78, -84810.69, 0.0, 5.000114, 4.911594 
2.782439e+2, 2.8522116e+2, -203282.67, -332379.16, -8593.368, -0.026026443, 0.016987693, -202713.17, -57974.324, 0.0, 5.0055704, 4.921351 
2.7824432e+2, 2.9014942e+2, -145191.22, -277538.88, -8006.4233, -0.013860347, 0.06658037, -144708.63, -48224.95, 0.0, 5.008591, 4.921641 
2.7824372e+2, 2.950767e+2, -89600.74, -223949.69, -7716.0034, -0.006081819, 0.10001316, -89159.05, -40920.92, 0.0, 5.010635, 4.9219327 
2.7824476e+2, 3.0001438e+2, -24947.268, -109149.21, -6501.3223, 0.03206985, 0.09830398, -24448.252, -24448.252, 0.0, 5.011531, 4.9537077 
2.7824542e+2, 3.0496678e+2, -18413.04, -79394.14, -6781.1436, 0.13338067, -0.049731288, -17668.072, -17668.072, 0.0, 5.0095916, 4.9638157 
2.7824125e+2, 3.0992734e+2, -27281.4, -75767.24, -6708.0703, 0.20843813, -0.18484615, -26370.445, -26370.445, 0.0, 5.005417, 4.9664693 
2.7823374e+2, 3.1489438e+2, -41148.633, -74743.81, -4723.584, 0.26112425, -0.2845066, -40497.117, -40497.117, 0.0, 4.999221, 4.9691234 
2.8331923e+2, 1.21499546e+2, -1708069.0, -1747630.3, -563.7111, -0.0012592473, -0.011855499, -1708061.0, 41240.574, 0.0, 5.0154614, 4.9896846 
2.833179e+2, 1.2648736e+2, -1665174.5, -1711506.0, -1464.0789, -0.013292402, 0.009691494, -1665128.3, 35292.598, 0.0, 5.015565, 4.9854155 
2.8331828e+2, 1.3147186e+2, -1615971.6, -1662407.9, -1452.124, -0.0067989286, -0.0002513999, -1615926.3, 35647.1, 0.0, 5.015637, 4.985416 
2.8331867e+2, 1.3645633e+2, -1568978.0, -1617847.0, -1441.1785, -0.00032352973, -0.008938855, -1568935.5, 33790.492, 0.0, 5.015708, 4.9839134 
2.8331876e+2, 1.4143836e+2, -1526306.8, -1581917.5, -1489.9698, 0.0041189473, -0.0006422711, -1526266.9, 27635.133, 0.0, 5.015714, 4.979505 
2.8331852e+2, 1.4641811e+2, -1477288.5, -1532366.6, -1460.1014, 0.0044195056, -0.0029707921, -1477249.9, 27849.63, 0.0, 5.0155945, 4.9797287 
2.8331825e+2, 1.513978e+2, -1428606.9, -1483497.3, -1480.7522, 0.0045928275, -0.006091858, -1428567.0, 27730.428, 0.0, 5.015471, 4.979729 
2.8331798e+2, 1.5637746e+2, -1381351.0, -1437601.8, -1501.9927, 0.0047674975, -0.00876514, -1381310.9, 26184.566, 0.0, 5.0153475, 4.9787345 
2.8331742e+2, 1.6135345e+2, -1340864.6, -1405964.0, -2134.0916, 0.005004517, -0.0050558886, -1340794.8, 17935.361, 0.0, 5.0152392, 4.9729605 
2.833162e+2, 1.6632673e+2, -1291844.3, -1356711.9, -2304.1567, 0.0054020328, -0.0049845143, -1291762.5, 18229.684, 0.0, 5.0151687, 4.973039 
2.8331497e+2, 1.7130005e+2, -1242930.5, -1307692.1, -2334.5898, 0.005821354, -0.004706596, -1242846.4, 18407.604, 0.0, 5.015099, 4.9730396 
2.8331378e+2, 1.7627338e+2, -1195151.6, -1261075.1, -2365.4988, 0.0062539354, -0.0040324326, -1195066.9, 17448.93, 0.0, 5.0150294, 4.9722323 
2.8331235e+2, 1.81243e+2, -1154519.8, -1229482.8, -2592.6565, 0.0057299156, 0.0017798262, -1154430.3, 9382.732, 0.0, 5.014925, 4.9663587 
2.8331047e+2, 1.8620898e+2, -1105461.1, -1179730.6, -2605.0083, 0.003218439, -0.006972241, -1105369.9, 9773.995, 0.0, 5.014751, 4.9666305 
2.8330866e+2, 1.9117495e+2, -1056785.3, -1130787.3, -2570.856, 0.0006604429, -0.016237948, -1056696.0, 9778.758, 0.0, 5.0145745, 4.966631 
2.833068e+2, 1.9614094e+2, -1008998.1, -1083756.9, -2536.4094, -0.0018856362, -0.02520229, -1008912.1, 8893.531, 0.0, 5.0143976, 4.965981 
2.8330496e+2, 2.011038e+2, -969168.56, -1053880.4, -2856.5022, -0.0025910374, -0.02243932, -969072.4, 95.7995, 0.0, 5.0142193, 4.959473 
2.8330314e+2, 2.060643e+2, -920039.56, -1003998.6, -3013.0125, 0.0011818279, -0.01767924, -919931.6, 625.0646, 0.0, 5.0140347, 4.959768 
2.833013e+2, 2.1102485e+2, -871311.56, -954988.1, -3036.1287, 0.005181107, -0.012857933, -871201.56, 743.25, 0.0, 5.0138493, 4.9597683 
2.8329948e+2, 2.1598542e+2, -823246.6, -907429.3, -3059.3215, 0.009199659, -0.007910505, -823135.56, 197.30724, 0.0, 5.0136633, 4.959269 
2.832974e+2, 2.2094214e+2, -783554.4, -878390.2, -3302.796, 0.011926596, 0.0022939332, -783439.44, -8681.395, 0.0, 5.013509, 4.9523783 
2.8329453e+2, 2.2589432e+2, -733991.6, -828087.5, -3431.6963, 0.009823557, -0.0063433438, -733866.6, -7640.198, 0.0, 5.01341, 4.952746 
2.832916e+2, 2.3084643e+2, -684913.6, -778861.3, -3441.1868, 0.007358204, -0.016267454, -684787.75, -7092.3105, 0.0, 5.013311, 4.95275 
2.8328863e+2, 2.3579854e+2, -636484.5, -731081.4, -3446.349, 0.0049216654, -0.026468204, -636359.1, -7194.4385, 0.0, 5.0132113, 4.9522524 
2.832855e+2, 2.4074775e+2, -597225.4, -703741.8, -3804.9014, 0.0025893974, -0.018020848, -597089.6, -16426.857, 0.0, 5.0131207, 4.9446206 
2.832822e+2, 2.45695e+2, -547115.9, -652807.7, -3730.8657, -0.00083395845, -0.00031512583, -546984.3, -14801.73, 0.0, 5.0131116, 4.945123 
2.8327888e+2, 2.5064233e+2, -497658.2, -603469.75, -3743.7578, -0.004318775, 0.017458025, -497525.88, -13824.178, 0.0, 5.0131073, 4.9450974 
2.8327546e+2, 2.5558978e+2, -448449.53, -554699.7, -3758.1724, -0.0076351296, 0.03672224, -448316.78, -13097.167, 0.0, 5.013097, 4.9448733 
2.832725e+2, 2.6053178e+2, -407904.6, -525842.7, -6010.5576, 0.0010641749, 0.052213263, -407599.06, -20814.39, 0.0, 5.013149, 4.9374256 
2.8326562e+2, 2.6546672e+2, -353254.0, -464392.8, -8614.861, 0.010578774, -0.033127867, -352590.2, -14196.907, 0.0, 5.012863, 4.9413266 
2.832571e+2, 2.7040082e+2, -303594.94, -414605.84, -9192.192, 0.01373976, -0.14497364, -302838.94, -12831.932, 0.0, 5.0124626, 4.941547 
2.832477e+2, 2.75334e+2, -253856.38, -365085.88, -9476.147, 0.0144734625, -0.2731788, -253054.84, -11425.167, 0.0, 5.0120387, 4.9417195 
2.832505e+2, 2.8026915e+2, -242080.95, -396283.34, 8256.78, 0.049045715, -0.22825892, -241640.11, -48396.74, 0.0, 5.012101, 4.913652 
2.8325942e+2, 2.8520682e+2, -181649.56, -314123.25, 66.84723, 0.059769273, -0.05098053, -181649.53, -36769.77, 0.0, 5.0128613, 4.923927 
2.8325987e+2, 2.9013914e+2, -130330.445, -264050.06, -775.67487, 0.0418801, 0.01992896, -130325.95, -33751.01, 0.0, 5.0135155, 4.9237056 
2.8325933e+2, 2.9506987e+2, -78906.36, -214106.66, -1147.8696, 0.026483502, 0.07278819, -78896.62, -30611.451, 0.0, 5.0140867, 4.923483 
2.832604e+2, 3.000109e+2, -16127.816, -105682.39, -431.74588, 0.04977096, 0.09191106, -16125.735, -16125.735, 0.0, 5.0148683, 4.953186 
2.8326142e+2, 3.0496195e+2, -2201.648, -79100.0, -1758.3269, 0.15930425, -0.048017353, -2161.4636, -2161.4636, 0.0, 5.016394, 4.9607515 
2.832582e+2, 3.099186e+2, 5701.161, -67124.76, -4061.0781, 0.26371655, -0.20195511, 5926.924, 5926.924, 0.0, 5.017834, 4.9639134 
2.8325215e+2, 3.148805e+2, 14017.443, -55571.395, -6173.1826, 0.36497918, -0.34501454, 14560.819, 14560.819, 0.0, 5.0191813, 4.9670825 
2.8833437e+2, 1.2149818e+2, -1708511.8, -1748506.8, -287.57983, -0.0047195945, -0.009113041, -1708509.6, 40806.273, 0.0, 5.015458, 4.989397 
2.8833318e+2, 1.2648557e+2, -1665151.6, -1711433.5, -1414.1068, -0.01594951, 0.008134539, -1665108.5, 35331.066, 0.0, 5.0155616, 4.98544 
2.883338e+2, 1.3147016e+2, -1615949.1, -1662337.3, -1400.0804, -0.007923408, -0.0011297434, -1615906.9, 35684.09, 0.0, 5.0156336, 4.98544 
2.883344e+2, 1.3645472e+2, -1568955.6, -1617777.9, -1386.9956, 0.000048887552, -0.009135088, -1568916.3, 33826.387, 0.0, 5.015705, 4.983937 
2.8833464e+2, 1.4143683e+2, -1526332.4, -1581958.0, -1557.6365, 0.0056338217, -0.00017178003, -1526288.8, 27628.957, 0.0, 5.0157123, 4.979492 
2.883343e+2, 1.4641659e+2, -1477327.3, -1532437.0, -1552.7593, 0.0063879425, -0.002011659, -1477283.5, 27831.436, 0.0, 5.015593, 4.979706 
2.8833395e+2, 1.513963e+2, -1428645.5, -1483567.6, -1572.671, 0.0069846404, -0.004660288, -1428600.5, 27712.117, 0.0, 5.0154696, 4.979706 
2.8833362e+2, 1.56376e+2, -1381389.5, -1437671.8, -1593.1315, 0.00757398, -0.0068597975, -1381344.4, 26166.082, 0.0, 5.015346, 4.978711 
2.883329e+2, 1.6135198e+2, -1340910.9, -1406056.5, -2197.1438, 0.0077612377, -0.0030877246, -1340836.9, 17908.33, 0.0, 5.015239, 4.97293 
2.8833154e+2, 1.6632515e+2, -1291898.1, -1356822.3, -2356.9202, 0.0071292967, -0.003766732, -1291812.6, 18195.734, 0.0, 5.015168, 4.9730024 
2.8833017e+2, 1.7129835e+2, -1242984.0, -1307802.0, -2386.5574, 0.0064778235, -0.004258483, -1242896.3, 18375.07, 0.0, 5.0150986, 4.9730024 
2.8832877e+2, 1.7627156e+2, -1195204.8, -1261184.6, -2416.662, 0.0058305333, -0.0043536434, -1195116.4, 17417.73, 0.0, 5.015029, 4.9721956 
2.8832722e+2, 1.8124112e+2, -1154489.0, -1229412.4, -2710.3186, 0.0050619086, 0.0009332688, -1154391.0, 9440.809, 0.0, 5.0149245, 4.9663825 
2.8832534e+2, 1.8620716e+2, -1105400.9, -1179594.3, -2736.526, 0.0041820435, -0.007748614, -1105300.1, 9861.834, 0.0, 5.0147495, 4.966677 
2.883235e+2, 1.9117318e+2, -1056726.6, -1130650.8, -2700.931, 0.0033042256, -0.016910583, -1056628.1, 9864.005, 0.0, 5.0145726, 4.966678 
2.883216e+2, 1.9613922e+2, -1008941.1, -1083620.0, -2665.0234, 0.0024184745, -0.0257647, -1008846.1, 8976.066, 0.0, 5.0143957, 4.966028 
2.8831977e+2, 2.0110214e+2, -969163.6, -1053863.6, -2997.9075, 0.002946396, -0.022726703, -969057.6, 126.35855, 0.0, 5.0142183, 4.959479 
2.8831777e+2, 2.0606275e+2, -920075.06, -1004073.56, -3156.312, 0.007101602, -0.016671529, -919956.6, 615.3481, 0.0, 5.0140343, 4.9597425 
2.883158e+2, 2.110234e+2, -871347.2, -955063.0, -3177.6917, 0.0114445705, -0.010428318, -871226.75, 732.82245, 0.0, 5.013849, 4.959743 
2.883138e+2, 2.1598409e+2, -823282.44, -907504.2, -3199.1333, 0.01578907, -0.0040506003, -823161.06, 186.05916, 0.0, 5.013663, 4.9592433 
2.8831157e+2, 2.2094084e+2, -783570.44, -878408.06, -3384.7927, 0.018421896, 0.0066432194, -783449.75, -8677.38, 0.0, 5.0135064, 4.9523726 
2.883085e+2, 2.2589278e+2, -734020.9, -828108.06, -3487.3887, 0.015043283, -0.004423778, -733891.8, -7648.749, 0.0, 5.013404, 4.952741 
2.8830537e+2, 2.3084462e+2, -684951.75, -778877.3, -3490.684, 0.011181055, -0.016956, -684822.2, -7107.71, 0.0, 5.0133014, 4.952748 
2.8830218e+2, 2.3579645e+2, -636531.44, -731092.75, -3489.6401, 0.007302097, -0.02972622, -636402.8, -7216.769, 0.0, 5.013198, 4.952253 
2.882989e+2, 2.4074547e+2, -597215.8, -703455.1, -3788.3367, 0.0041953153, -0.02373459, -597080.94, -16395.42, 0.0, 5.013083, 4.94473 
2.8829575e+2, 2.4569301e+2, -547137.94, -652529.06, -3737.0476, 0.00242755, -0.0041122576, -547005.6, -14805.074, 0.0, 5.013065, 4.9452314 
2.8829253e+2, 2.5064072e+2, -497669.16, -603185.9, -3741.6396, 0.0007435239, 0.016468907, -497536.66, -13822.681, 0.0, 5.013064, 4.9452047 
2.8828928e+2, 2.5558856e+2, -448449.47, -554410.7, -3747.7532, -0.00083290716, 0.03855654, -448317.1, -13090.895, 0.0, 5.013057, 4.9449797 
2.8828633e+2, 2.60531e+2, -408552.25, -526658.4, -5937.921, 0.008468115, 0.057881027, -408254.47, -21467.95, 0.0, 5.013059, 4.9371758 
2.882801e+2, 2.6546556e+2, -355275.56, -466849.22, -8195.732, 0.019828562, -0.02141962, -354676.75, -16271.121, 0.0, 5.0125737, 4.9405813 
2.8827226e+2, 2.7039945e+2, -306083.94, -416651.38, -8483.115, 0.024238966, -0.1254021, -305436.88, -15407.635, 0.0, 5.011975, 4.940984 
2.882635e+2, 2.7533284e+2, -256812.33, -366720.56, -8476.503, 0.024712197, -0.24347539, -256162.44, -14504.605, 0.0, 5.0113525, 4.9413395 
2.8826562e+2, 2.8026712e+2, -238216.31, -389694.63, 6207.8994, 0.06155064, -0.2135621, -237962.33, -44678.816, 0.0, 5.0123878, 4.9160233 
2.88274e+2, 2.8520337e+2, -176461.02, -310397.5, -48.12243, 0.07341698, -0.06521067, -176461.0, -31540.893, 0.0, 5.0139136, 4.925307 
2.8827474e+2, 2.901353e+2, -125553.44, -259564.19, -514.33167, 0.05103668, -0.007874608, -125551.47, -28947.97, 0.0, 5.0143948, 4.9253535 
2.8827447e+2, 2.950658e+2, -74542.84, -208862.61, -511.61685, 0.02855944, 0.030832028, -74540.9, -26240.709, 0.0, 5.014793, 4.9253993 
2.8827533e+2, 3.0000785e+2, -13560.66, -102306.74, 264.39224, 0.038253594, 0.045666136, -13559.872, -13559.872, 0.0, 5.0153193, 4.9544563 
2.882756e+2, 3.049633e+2, -4303.8506, -83879.99, -167.02219, 0.11951566, -0.03297603, -4303.5, -4303.5, 0.0, 5.0164247, 4.959406 
2.8827167e+2, 3.099251e+2, 2009.567, -73408.53, -1382.7085, 0.18977673, -0.10167444, 2034.909, 2034.909, 0.0, 5.017491, 4.9622974 
2.8826466e+2, 3.1489283e+2, 8743.303, -63355.19, -2409.7476, 0.25080225, -0.14568524, 8823.754, 8823.754, 0.0, 5.018463, 4.965195 
2.9334947e+2, 1.214968e+2, -1708897.1, -1749264.3, -10.71613, -0.008492717, -0.00657137, -1708897.1, 40433.336, 0.0, 5.015455, 4.989148 
2.9334852e+2, 1.2648377e+2, -1665129.9, -1711360.0, -1363.3915, -0.018641656, 0.0066210562, -1665089.8, 35368.438, 0.0, 5.015558, 4.9854636 
2.9334933e+2, 1.3146846e+2, -1615927.6, -1662265.6, -1347.2938, -0.009073848, -0.0019808172, -1615888.5, 35719.996, 0.0, 5.0156302, 4.985463 
2.9335016e+2, 1.364531e+2, -1568934.3, -1617707.6, -1332.0697, 0.00040442933, -0.009320253, -1568897.9, 33861.207, 0.0, 5.015702, 4.9839597 
2.933505e+2, 1.414353e+2, -1526362.5, -1582006.5, -1623.8917, 0.0071392264, 0.00031469346, -1526315.1, 27618.324, 0.0, 5.015711, 4.979476 
2.933501e+2, 1.4641508e+2, -1477366.3, -1532507.1, -1645.367, 0.008347513, -0.0010421554, -1477317.3, 27813.139, 0.0, 5.0155916, 4.9796824 
2.9334968e+2, 1.5139481e+2, -1428684.5, -1483637.6, -1664.5398, 0.00936801, -0.0032292565, -1428634.1, 27693.709, 0.0, 5.015468, 4.979683 
2.9334924e+2, 1.5637454e+2, -1381428.3, -1437741.4, -1684.2202, 0.010372442, -0.0049659032, -1381378.0, 26147.492, 0.0, 5.0153446, 4.9786882 
2.9334846e+2, 1.6135049e+2, -1340961.3, -1406156.9, -2259.4932, 0.010519917, -0.001101168, -1340883.1, 17877.3, 0.0, 5.015238, 4.972896 
2.9334688e+2, 1.6632354e+2, -1291952.3, -1356932.4, -2409.7273, 0.008861194, -0.002530725, -1291863.0, 18161.605, 0.0, 5.0151677, 4.9729652 
2.9334533e+2, 1.7129664e+2, -1243037.8, -1307911.8, -2438.5684, 0.0071389843, -0.0038049195, -1242946.1, 18342.363, 0.0, 5.015098, 4.9729657 
2.9334375e+2, 1.7626972e+2, -1195258.1, -1261294.0, -2467.869, 0.005411879, -0.0046821777, -1195166.1, 17386.355, 0.0, 5.0150285, 4.9721584 
2.9334208e+2, 1.8123923e+2, -1154462.0, -1229349.4, -2828.3777, 0.0043883636, 0.0001026156, -1154355.4, 9495.35, 0.0, 5.0149236, 4.966404 
2.933402e+2, 1.8620531e+2, -1105341.3, -1179457.6, -2868.6287, 0.005131907, -0.008516002, -1105230.4, 9949.722, 0.0, 5.0147486, 4.966724 
2.9333836e+2, 1.9117141e+2, -1056668.5, -1130513.9, -2831.5913, 0.0059298356, -0.0175951, -1056560.1, 9949.302, 0.0, 5.014571, 4.966725 
2.9333648e+2, 1.9613749e+2, -1008884.56, -1083482.9, -2794.2227, 0.006699981, -0.02635985, -1008780.06, 9058.645, 0.0, 5.0143933, 4.9660754 
2.9333457e+2, 2.0110048e+2, -969169.94, -1053870.5, -3137.6897, 0.008479581, -0.022960212, -969053.9, 145.94522, 0.0, 5.014218, 4.9594765 
2.9333243e+2, 2.0606118e+2, -920110.94, -1004148.25, -3299.7424, 0.013021317, -0.015599726, -919981.6, 605.6883, 0.0, 5.014034, 4.9597173 
2.9333028e+2, 2.1102197e+2, -871383.25, -955137.7, -3319.3857, 0.01770546, -0.007968158, -871251.9, 722.45654, 0.0, 5.0138483, 4.9597173 
2.9332817e+2, 2.1598276e+2, -823318.6, -907578.75, -3339.076, 0.022373384, -0.0001936945, -823186.5, 174.87326, 0.0, 5.0136623, 4.9592175 
2.9332578e+2, 2.2093955e+2, -783594.4, -878441.2, -3469.0815, 0.024912128, 0.010992374, -783467.7, -8680.961, 0.0, 5.013504, 4.952361 
2.9332247e+2, 2.2589122e+2, -734051.6, -828127.56, -3546.9531, 0.020232294, -0.0026053942, -733918.06, -7658.3657, 0.0, 5.013397, 4.952735 
2.933191e+2, 2.3084278e+2, -684991.25, -778892.2, -3544.0527, 0.014948519, -0.017878035, -684857.7, -7124.131, 0.0, 5.0132914, 4.9527445 
2.933157e+2, 2.3579434e+2, -636579.8, -731103.0, -3536.8027, 0.009602473, -0.03335001, -636447.6, -7240.08, 0.0, 5.0131845, 4.952252 
2.933123e+2, 2.407432e+2, -597274.7, -703304.9, -3805.682, 0.0057708765, -0.028953252, -597138.25, -16430.496, 0.0, 5.013045, 4.944789 
2.9330927e+2, 2.4569109e+2, -547169.06, -652241.7, -3746.4092, 0.0057112076, -0.007064322, -547035.7, -14817.8545, 0.0, 5.013018, 4.945338 
2.9330617e+2, 2.5063917e+2, -497689.16, -602893.3, -3742.7012, 0.0058556045, 0.016144898, -497556.2, -13830.502, 0.0, 5.0130205, 4.9453106 
2.9330304e+2, 2.555874e+2, -448458.4, -554113.0, -3740.5137, 0.0060467296, 0.040876005, -448326.13, -13093.82, 0.0, 5.0130177, 4.9450846 
2.933002e+2, 2.6053e+2, -409475.22, -528022.06, -6024.2007, 0.016871387, 0.06237122, -409169.88, -22379.104, 0.0, 5.0129695, 4.9366965 
2.9329425e+2, 2.6546386e+2, -357339.78, -469278.7, -8053.4717, 0.0288605, -0.016870638, -356763.34, -18340.047, 0.0, 5.0122843, 4.93975 
2.9328668e+2, 2.7039734e+2, -308615.16, -418668.3, -8050.8125, 0.032629475, -0.11906221, -308029.3, -17970.666, 0.0, 5.011487, 4.9403358 
2.9327816e+2, 2.753307e+2, -259810.06, -368324.94, -7753.6016, 0.030951388, -0.23307268, -259258.86, -17563.852, 0.0, 5.010667, 4.940874 
2.9328105e+2, 2.8026536e+2, -237870.63, -391201.97, 5449.3716, 0.076658204, -0.19332312, -237677.19, -44356.047, 0.0, 5.0126786, 4.9155507 
2.9328996e+2, 2.852011e+2, -171410.75, -306546.5, -644.5489, 0.093339846, -0.05605102, -171407.67, -26458.531, 0.0, 5.0149665, 4.9266176 
2.9329073e+2, 2.9013234e+2, -120913.305, -254954.33, -734.2713, 0.063561305, -0.01896961, -120909.29, -24286.396, 0.0, 5.0152745, 4.9269323 
2.932904e+2, 2.9506245e+2, -70314.8, -203495.88, -356.58923, 0.031096604, -0.0010966972, -70313.84, -22005.65, 0.0, 5.0154996, 4.927246 
2.9329103e+2, 3.000041e+2, -12239.746, -101404.54, 873.6338, 0.028827894, -0.0036251321, -12231.1875, -12231.1875, 0.0, 5.0157704, 4.9547234 
2.9329088e+2, 3.0496216e+2, -6558.023, -88525.91, 1725.24, 0.093344174, -0.047618482, -6521.7266, -6521.7266, 0.0, 5.016454, 4.9577913 
2.932864e+2, 3.0992806e+2, -1837.2339, -79563.21, 1599.3586, 0.14050926, -0.05797895, -1804.338, -1804.338, 0.0, 5.0171466, 4.9604115 
2.932786e+2, 3.1490064e+2, 3308.9949, -71015.28, 1661.1565, 0.17233968, -0.029812144, 3346.1033, 3346.1033, 0.0, 5.0177445, 4.9630375 
2.9836455e+2, 1.2149538e+2, -1709352.5, -1749973.9, 276.7826, -0.012443987, -0.004195517, -1709350.6, 39994.61, 0.0, 5.015411, 4.988935 
2.983638e+2, 1.2648198e+2, -1665165.6, -1711318.9, -1308.9106, -0.021253563, 0.005170627, -1665128.6, 35348.188, 0.0, 5.0155363, 4.985486 
2.9836485e+2, 1.3146675e+2, -1615914.5, -1662201.3, -1297.099, -0.010205194, -0.0027715522, -1615878.1, 35747.94, 0.0, 5.015625, 4.985485 
2.9836586e+2, 1.3645151e+2, -1568896.6, -1617631.9, -1284.8989, 0.0007416344, -0.009447486, -1568862.8, 33912.79, 0.0, 5.0157046, 4.9839816 
2.9836637e+2, 1.4143376e+2, -1526370.0, -1582052.5, -1700.8013, 0.008616865, 0.0008648827, -1526318.1, 27630.957, 0.0, 5.015718, 4.9794564 
2.9836586e+2, 1.4641358e+2, -1477357.0, -1532555.9, -1756.0394, 0.01028487, -0.000041856365, -1477301.3, 27844.58, 0.0, 5.015607, 4.979658 
2.9836538e+2, 1.5139332e+2, -1428658.6, -1483678.1, -1780.8158, 0.011740749, -0.0018085007, -1428601.0, 27742.154, 0.0, 5.015489, 4.9796586 
2.983649e+2, 1.5637307e+2, -1381391.6, -1437776.5, -1805.8947, 0.013177947, -0.0031254059, -1381333.9, 26206.67, 0.0, 5.0153694, 4.978664 
2.9836398e+2, 1.61349e+2, -1340939.0, -1406227.5, -2352.931, 0.0133119915, 0.0008425999, -1340854.3, 17921.365, 0.0, 5.0152636, 4.9728603 
2.9836226e+2, 1.6632196e+2, -1291941.8, -1357010.5, -2489.1904, 0.01063492, -0.0013164224, -1291846.8, 18194.152, 0.0, 5.015189, 4.9729285 
2.983605e+2, 1.7129494e+2, -1243045.9, -1307999.0, -2512.7004, 0.007852742, -0.0033616896, -1242948.9, 18356.979, 0.0, 5.0151134, 4.972929 
2.9835877e+2, 1.762679e+2, -1195292.3, -1261393.6, -2537.0894, 0.0050621196, -0.005008878, -1195195.0, 17375.756, 0.0, 5.015035, 4.9721217 
2.9835695e+2, 1.8123734e+2, -1154447.6, -1229302.1, -2966.2644, 0.00378706, -0.00068599085, -1154330.3, 9539.289, 0.0, 5.014921, 4.966421 
2.9835507e+2, 1.8620348e+2, -1105316.6, -1179342.9, -3038.323, 0.0061509963, -0.009248996, -1105192.1, 10006.08, 0.0, 5.0147367, 4.966768 
2.9835322e+2, 1.911696e+2, -1056683.3, -1130416.8, -3018.1877, 0.00863788, -0.018273927, -1056560.0, 9966.866, 0.0, 5.014546, 4.966769 
2.9835135e+2, 1.9613574e+2, -1008950.75, -1083408.9, -2997.6052, 0.011090056, -0.026985168, -1008830.25, 9025.074, 0.0, 5.014351, 4.9661202 
2.9834935e+2, 2.0109881e+2, -969335.56, -1053970.4, -3355.377, 0.014157157, -0.02315289, -969202.75, 12.989295, 0.0, 5.014167, 4.9594665 
2.983471e+2, 2.0605963e+2, -920236.44, -1004263.25, -3512.424, 0.01904864, -0.014460165, -920089.9, 512.80023, 0.0, 5.0140038, 4.959692 
2.983448e+2, 2.1102054e+2, -871456.44, -955227.9, -3520.4756, 0.02403781, -0.0054561095, -871308.75, 680.3845, 0.0, 5.0138364, 4.959692 
2.983425e+2, 2.1598142e+2, -823351.94, -907649.94, -3528.1042, 0.029004069, 0.0036965022, -823204.56, 171.0918, 0.0, 5.0136647, 4.9591923 
2.9833993e+2, 2.2093825e+2, -783598.75, -878484.0, -3604.6953, 0.031464864, 0.015385427, -783462.0, -8660.926, 0.0, 5.0135145, 4.952341 
2.9833642e+2, 2.2588965e+2, -734059.2, -828152.3, -3696.4333, 0.025580779, -0.000853569, -733914.25, -7637.7173, 0.0, 5.0134044, 4.952722 
2.983328e+2, 2.308409e+2, -685052.2, -778938.4, -3733.6716, 0.019010717, -0.01904542, -684903.94, -7150.886, 0.0, 5.0132804, 4.952732 
2.9832923e+2, 2.3579217e+2, -636736.6, -731189.7, -3773.9, 0.012364091, -0.03743686, -636586.06, -7356.408, 0.0, 5.01314, 4.9522405 
2.9832572e+2, 2.4074095e+2, -597600.8, -703426.5, -4098.87, 0.008055885, -0.033875015, -597442.3, -16711.98, 0.0, 5.012941, 4.944789 
2.983228e+2, 2.4568917e+2, -547585.0, -652171.0, -4065.2866, 0.009928065, -0.009251286, -547427.25, -15192.104, 0.0, 5.012844, 4.945432 
2.9831988e+2, 2.506376e+2, -498298.28, -602903.6, -4109.9424, 0.012137572, 0.016558781, -498137.03, -14399.542, 0.0, 5.012781, 4.9454064 
2.9831687e+2, 2.5558618e+2, -449262.38, -554203.6, -4147.539, 0.014373845, 0.04390405, -449098.72, -13860.112, 0.0, 5.012712, 4.9451823 
2.983142e+2, 2.6052868e+2, -412183.9, -531027.25, -6996.107, 0.02830249, 0.066244826, -411773.47, -24975.254, 0.0, 5.0124207, 4.93584 
2.983083e+2, 2.654613e+2, -364102.9, -474845.0, -10739.402, 0.042952273, -0.018375868, -363071.06, -24621.16, 0.0, 5.010491, 4.938459 
2.9830083e+2, 2.7039355e+2, -320761.16, -426411.25, -13109.155, 0.04914519, -0.125466, -319158.84, -29054.383, 0.0, 5.007776, 4.939097 
2.982924e+2, 2.7532586e+2, -279033.13, -378941.75, -15920.656, 0.049840257, -0.24331897, -276557.47, -34798.85, 0.0, 5.0044265, 4.939693 
2.982976e+2, 2.8026122e+2, -263579.53, -410190.47, -4824.5273, 0.11584383, -0.17226572, -263420.94, -70039.0, 0.0, 5.004955, 4.912353 
2.9830799e+2, 2.85198e+2, -181883.3, -307484.38, -9256.068, 0.13431226, -0.027555618, -181204.84, -36218.207, 0.0, 5.010396, 4.928311 
2.9830825e+2, 2.9012918e+2, -124481.65, -252551.88, -6608.001, 0.08810379, -0.014874977, -124141.59, -27495.926, 0.0, 5.013169, 4.928712 
2.983074e+2, 2.950592e+2, -69650.76, -198917.3, -4354.3643, 0.038667876, -0.021522164, -69504.25, -21188.537, 0.0, 5.01492, 4.9291167 
2.9830775e+2, 2.9999942e+2, -14055.087, -104379.65, -1994.5516, 0.024160204, -0.051187485, -14011.064, -14011.064, 0.0, 5.0155954, 4.953679 
2.9830757e+2, 3.049579e+2, -14921.1455, -96931.11, -1460.3956, 0.0860824, -0.08947027, -14895.147, -14895.147, 0.0, 5.0144253, 4.955305 
2.983029e+2, 3.0992553e+2, -20206.146, -92996.05, -2016.194, 0.12814833, -0.07988056, -20150.344, -20150.344, 0.0, 5.0116415, 4.9576254 
2.9829487e+2, 3.148998e+2, -29109.451, -91122.19, -1726.9342, 0.15257736, -0.026479207, -29061.396, -29061.396, 0.0, 5.0073075, 4.9599524 
3.0337992e+2, 1.2149407e+2, -1708516.6, -1750250.5, 414.08566, -0.014914659, -0.0007575206, -1708512.5, 40846.918, 0.0, 5.0158334, 4.9886374 
3.033796e+2, 1.2648022e+2, -1663939.4, -1710706.4, -1289.7994, -0.020784553, 0.004169918, -1663903.8, 36591.938, 0.0, 5.0159388, 4.9854903 
3.033807e+2, 1.3146514e+2, -1614660.8, -1661574.4, -1292.8224, -0.009975799, -0.0023980327, -1614625.3, 37018.227, 0.0, 5.016037, 4.985491 
3.0338183e+2, 1.3645002e+2, -1567590.5, -1616977.6, -1296.7847, 0.0008210518, -0.007696266, -1567556.5, 35234.906, 0.0, 5.016135, 4.9839883 
3.0338234e+2, 1.4143236e+2, -1525051.3, -1581503.3, -1839.5804, 0.008794786, 0.0034556303, -1524991.4, 28972.64, 0.0, 5.016178, 4.9794145 
3.033818e+2, 1.4641206e+2, -1475935.4, -1531978.1, -1945.4951, 0.010815427, 0.002006444, -1475868.0, 29293.766, 0.0, 5.016107, 4.979608 
3.0338126e+2, 1.5139171e+2, -1427114.6, -1483042.4, -1997.4845, 0.012642795, -0.00037554043, -1427043.4, 29316.795, 0.0, 5.016032, 4.9796085 
3.033807e+2, 1.5637134e+2, -1379719.5, -1437080.0, -2050.0261, 0.014473862, -0.0023162083, -1379646.3, 27912.299, 0.0, 5.015957, 4.9786143 
3.033797e+2, 1.6134718e+2, -1339172.3, -1405399.9, -2606.7107, 0.014825426, 0.0011378448, -1339069.9, 19724.604, 0.0, 5.0158663, 4.9728484 
3.0337787e+2, 1.6632012e+2, -1290308.9, -1356236.0, -2710.492, 0.011905783, -0.0011857793, -1290197.6, 19861.889, 0.0, 5.0157456, 4.9729233 
3.0337602e+2, 1.7129308e+2, -1241553.1, -1307296.3, -2702.7974, 0.008878812, -0.0033692538, -1241442.3, 19882.264, 0.0, 5.015624, 4.9729233 
3.033741e+2, 1.7626604e+2, -1193931.0, -1260758.1, -2695.7449, 0.0058619957, -0.0051494297, -1193822.5, 18766.873, 0.0, 5.0155025, 4.9721155 
3.033722e+2, 1.8123546e+2, -1153228.9, -1228787.8, -3180.956, 0.0047855917, -0.0007329915, -1153095.3, 10792.883, 0.0, 5.0153503, 4.9663935 
3.0337024e+2, 1.8620163e+2, -1104220.9, -1178898.3, -3341.3843, 0.008360594, -0.008629186, -1104071.6, 11145.266, 0.0, 5.015127, 4.9667363 
3.033683e+2, 1.911678e+2, -1055696.1, -1130025.1, -3396.9177, 0.0121506555, -0.01698103, -1055541.1, 11004.386, 0.0, 5.0149007, 4.966738 
3.0336633e+2, 1.9613397e+2, -1008058.94, -1083063.9, -3452.4585, 0.015954088, -0.025044793, -1007900.4, 9973.832, 0.0, 5.014673, 4.9660892 
3.0336422e+2, 2.0109706e+2, -968372.8, -1053437.5, -3784.7578, 0.019635096, -0.020941833, -968204.75, 1029.8228, 0.0, 5.014484, 4.959502 
3.0336168e+2, 2.0605789e+2, -919064.4, -1003611.0, -3846.1785, 0.023077767, -0.012587873, -918889.8, 1731.2866, 0.0, 5.0143905, 4.9597373 
3.0335912e+2, 2.110188e+2, -870061.4, -954473.06, -3778.1553, 0.02654366, -0.003921592, -869892.56, 2114.525, 0.0, 5.014302, 4.959738 
3.0335656e+2, 2.1597971e+2, -821722.9, -906788.7, -3710.2559, 0.030026969, 0.004890005, -821561.3, 1831.7847, 0.0, 5.0142126, 4.959238 
3.0335385e+2, 2.209365e+2, -781729.44, -877635.5, -3656.096, 0.031799752, 0.016216421, -781590.25, -6771.7725, 0.0, 5.0141706, 4.9523363 
3.033505e+2, 2.2588785e+2, -731741.7, -827183.1, -3691.7332, 0.027569849, -0.00035413486, -731599.1, -5304.0044, 0.0, 5.0142326, 4.9526844 
3.0334708e+2, 2.3083901e+2, -682201.94, -777745.44, -3696.552, 0.022912107, -0.018988514, -682059.1, -4286.043, 0.0, 5.0142975, 4.9526887 
3.0334365e+2, 2.3579018e+2, -633313.3, -729757.44, -3695.2532, 0.018282909, -0.037959915, -633171.94, -3920.6277, 0.0, 5.0143614, 4.952192 
3.0334032e+2, 2.4073888e+2, -593401.2, -701515.9, -3964.0295, 0.016000988, -0.03481421, -593256.06, -12503.416, 0.0, 5.0143833, 4.944821 
3.0333745e+2, 2.456872e+2, -543119.6, -650080.75, -3899.7417, 0.019768268, -0.009797669, -542977.7, -10723.104, 0.0, 5.014356, 4.9455085 
3.0333465e+2, 2.5063574e+2, -493732.94, -600756.8, -3882.7595, 0.024011338, 0.016437972, -493592.25, -9838.517, 0.0, 5.0143256, 4.9454913 
3.0333173e+2, 2.5558445e+2, -444594.97, -552000.5, -3870.4329, 0.028437002, 0.04417637, -444455.7, -9204.051, 0.0, 5.0142865, 4.945276 
3.0332923e+2, 2.605268e+2, -407448.88, -531768.56, -6252.173, 0.04528087, 0.067736186, -407135.25, -20322.447, 0.0, 5.014519, 4.934713 
3.0332437e+2, 2.6545808e+2, -353286.34, -476594.8, -8334.996, 0.07199082, -0.009515847, -352725.5, -14238.993, 0.0, 5.015208, 4.935946 
3.033182e+2, 2.7038798e+2, -300710.38, -425737.84, -8325.721, 0.096865736, -0.1118283, -300158.38, -9984.736, 0.0, 5.0158505, 4.936069 
3.0331123e+2, 2.7531698e+2, -248091.77, -375152.34, -7973.2104, 0.12181805, -0.22906424, -247593.39, -5723.6665, 0.0, 5.0164557, 4.9361444 
3.033173e+2, 2.802498e+2, -226949.72, -394253.13, 8061.4736, 0.2089504, -0.15265702, -226562.17, -33036.945, 0.0, 5.0180364, 4.9118066 
3.033268e+2, 2.8518918e+2, -157608.33, -287454.3, 2526.9373, 0.20259032, -0.008616188, -157559.17, -12458.812, 0.0, 5.0178328, 4.9312954 
3.0332622e+2, 2.9012284e+2, -112164.94, -240029.17, 775.41565, 0.13015993, -0.0038915826, -112160.234, -15430.761, 0.0, 5.0164266, 4.931094 
3.033247e+2, 2.9505497e+2, -66581.66, -192688.88, -459.3269, 0.061402578, -0.01711945, -66579.984, -18206.451, 0.0, 5.014918, 4.9308915 
3.033242e+2, 2.99996e+2, -18532.186, -109436.3, -356.92007, 0.032775257, -0.052715994, -18530.785, -18530.785, 0.0, 5.0138526, 4.9524007 
3.033226e+2, 3.0495545e+2, -16527.266, -105227.266, 852.2122, 0.08451929, -0.072549365, -16519.078, -16519.078, 0.0, 5.0140605, 4.9521494 
3.033169e+2, 3.099224e+2, -13444.171, -98123.53, 1129.2542, 0.12858737, -0.06374858, -13429.114, -13429.114, 0.0, 5.014119, 4.9541864 
3.0330825e+2, 3.1489298e+2, -10130.525, -91249.586, 1552.0015, 0.1681244, -0.044182885, -10100.843, -10100.843, 0.0, 5.014056, 4.9562254 
3.0839553e+2, 1.21492766e+2, -1709009.3, -1751226.5, 517.58813, -0.017413283, 0.003034081, -1709003.0, 40370.633, 0.0, 5.01583, 4.988318 
3.083957e+2, 1.2647842e+2, -1663947.8, -1710697.1, -1216.8954, -0.01901024, 0.0033303895, -1663916.1, 36599.04, 0.0, 5.0159354, 4.985494 
3.0839685e+2, 1.3146351e+2, -1614668.4, -1661566.0, -1218.611, -0.009126624, -0.001454978, -1614636.8, 37024.11, 0.0, 5.016034, 4.9854937 
3.0839795e+2, 1.3644859e+2, -1567596.9, -1616969.3, -1221.13, 0.0007263748, -0.0049729543, -1567566.8, 35240.145, 0.0, 5.0161324, 4.983991 
3.0839846e+2, 1.4143102e+2, -1525134.6, -1581662.3, -1872.1377, 0.008186391, 0.007127661, -1525072.6, 28905.975, 0.0, 5.016176, 4.9793625 
3.083979e+2, 1.4641055e+2, -1476032.8, -1532168.4, -2001.9855, 0.010447416, 0.0046366523, -1475961.5, 29216.531, 0.0, 5.0161057, 4.979545 
3.0839726e+2, 1.5139002e+2, -1427211.4, -1483232.0, -2053.3123, 0.012517753, 0.0011290557, -1427136.3, 29241.836, 0.0, 5.0160303, 4.9795456 
3.0839667e+2, 1.5636946e+2, -1379815.6, -1437268.8, -2105.1353, 0.014585066, -0.0019364206, -1379738.6, 27839.646, 0.0, 5.0159554, 4.9785514 
3.0839562e+2, 1.613452e+2, -1339175.4, -1405400.3, -2695.4949, 0.0151856635, 0.000728454, -1339065.8, 19749.242, 0.0, 5.0158653, 4.9728484 
3.083937e+2, 1.6631815e+2, -1290292.3, -1356197.4, -2804.077, 0.0125284195, -0.001514804, -1290173.3, 19906.4, 0.0, 5.015745, 4.9729366 
3.0839172e+2, 1.7129114e+2, -1241536.4, -1307258.0, -2795.5342, 0.0097517185, -0.003574336, -1241417.8, 19926.129, 0.0, 5.0156236, 4.972936 
3.0838975e+2, 1.762641e+2, -1193914.3, -1260720.1, -2787.62, 0.0069744512, -0.0052313386, -1193798.1, 18809.96, 0.0, 5.015502, 4.9721284 
3.083877e+2, 1.8123357e+2, -1153300.0, -1228933.5, -3333.486, 0.0063133105, -0.00045667117, -1153153.4, 10753.153, 0.0, 5.01535, 4.9663444 
3.083856e+2, 1.8619977e+2, -1104321.5, -1179104.3, -3511.5781, 0.010779436, -0.0072517656, -1104156.9, 11078.803, 0.0, 5.015126, 4.966667 
3.0838355e+2, 1.9116598e+2, -1055797.4, -1130230.6, -3565.6897, 0.015470906, -0.014442251, -1055627.0, 10937.796, 0.0, 5.014899, 4.966669 
3.0838144e+2, 1.9613221e+2, -1008160.94, -1083268.9, -3619.7842, 0.020160256, -0.021335687, -1007986.9, 9906.875, 0.0, 5.0146713, 4.96602 
3.0837914e+2, 2.0109533e+2, -968295.75, -1053262.3, -3885.0955, 0.02384751, -0.016890926, -968118.44, 1135.8995, 0.0, 5.0144825, 4.9595623 
3.0837628e+2, 2.0605607e+2, -918943.5, -1003344.0, -3915.4856, 0.024871323, -0.010178799, -918762.25, 1878.5586, 0.0, 5.0143895, 4.9598293 
3.0837336e+2, 2.110169e+2, -869940.6, -954206.3, -3844.9783, 0.025758484, -0.0032300253, -869765.5, 2261.2698, 0.0, 5.0143013, 4.9598293 
3.0837044e+2, 2.1597773e+2, -821602.25, -906522.2, -3774.5876, 0.026645282, 0.003867673, -821434.75, 1977.9655, 0.0, 5.0142126, 4.95933 
3.0836755e+2, 2.209345e+2, -781703.94, -877572.8, -3631.8796, 0.027168727, 0.014202154, -781566.56, -6728.5264, 0.0, 5.0141697, 4.9523573 
3.0836457e+2, 2.2588597e+2, -731770.06, -827205.9, -3620.1704, 0.02567729, -0.0009829457, -731632.94, -5318.716, 0.0, 5.0142264, 4.9526772 
3.0836153e+2, 2.3083732e+2, -682244.44, -777763.5, -3616.8462, 0.02395922, -0.01796585, -682107.6, -4316.099, 0.0, 5.0142865, 4.9526854 
3.083585e+2, 2.3578863e+2, -633369.94, -729770.7, -3607.4077, 0.022207674, -0.03520375, -633235.1, -3966.0386, 0.0, 5.014345, 4.9521914 
3.0835548e+2, 2.4073748e+2, -593395.2, -701210.25, -3927.4883, 0.022219097, -0.031070303, -593252.3, -12483.008, 0.0, 5.014338, 4.9449434 
3.0835262e+2, 2.4568573e+2, -543071.2, -649662.1, -3922.9968, 0.026506592, -0.00824778, -542927.0, -10656.9795, 0.0, 5.014307, 4.9456735 
3.0834976e+2, 2.506342e+2, -493652.7, -600329.94, -3894.5835, 0.031065796, 0.015435576, -493510.7, -9742.518, 0.0, 5.014288, 4.9456534 
3.083468e+2, 2.5558275e+2, -444483.06, -551565.44, -3870.8223, 0.035740785, 0.04055617, -444343.3, -9078.242, 0.0, 5.0142603, 4.9454355 
3.0834433e+2, 2.6052502e+2, -407921.34, -532424.3, -5578.328, 0.05073648, 0.06278809, -407671.9, -20844.6, 0.0, 5.0144544, 4.9345007 
3.0834022e+2, 2.654571e+2, -354775.5, -477893.78, -6881.3755, 0.071027055, -0.0026685568, -354392.06, -15889.347, 0.0, 5.014907, 4.9355745 
3.083349e+2, 2.7038845e+2, -302836.63, -426695.4, -6579.4556, 0.087230265, -0.08768715, -302488.1, -12301.611, 0.0, 5.0153055, 4.935881 
3.0832866e+2, 2.753194e+2, -250853.08, -375767.56, -5934.0005, 0.1012201, -0.18430556, -250571.83, -8697.351, 0.0, 5.0156665, 4.93614 
3.0833435e+2, 2.8025433e+2, -225940.94, -394442.94, 7524.9985, 0.17349301, -0.086056516, -225605.55, -32087.28, 0.0, 5.0183525, 4.9117937 
3.08343e+2, 2.8519243e+2, -153339.55, -286751.4, 1262.2465, 0.17515124, 0.044862967, -153327.61, -8220.637, 0.0, 5.0189977, 4.9315166 
3.083422e+2, 2.9012424e+2, -108432.09, -238548.42, -92.32536, 0.11569052, 0.028091395, -108432.03, -11677.693, 0.0, 5.017369, 4.931601 
3.083403e+2, 2.9505473e+2, -63386.668, -190430.92, -930.6989, 0.05673275, -0.0065228106, -63379.848, -14965.66, 0.0, 5.0156374, 4.931685 
3.0833906e+2, 2.999946e+2, -16610.541, -107702.76, -71.448364, 0.028178683, -0.058813814, -16610.484, -16610.484, 0.0, 5.014313, 4.953045 
3.0833504e+2, 3.0495948e+2, -15415.428, -102966.16, 2224.19, 0.047062986, -0.030067917, -15358.959, -15358.959, 0.0, 5.01417, 4.9531384 
3.0832633e+2, 3.0993447e+2, -13718.06, -97168.4, 3283.0972, 0.046711653, 0.055623554, -13589.096, -13589.096, 0.0, 5.0138993, 4.954946 
3.0831444e+2, 3.1491375e+2, -11789.472, -91597.76, 4488.017, 0.0339774, 0.16405056, -11537.881, -11537.881, 0.0, 5.013507, 4.9567556 
3.1341112e+2, 1.21491425e+2, -1709442.3, -1752079.5, 621.95184, -0.020111797, 0.006546078, -1709433.1, 39954.945, 0.0, 5.015826, 4.988038 
3.1341183e+2, 1.2647663e+2, -1663956.8, -1710687.5, -1143.3937, -0.017243693, 0.0025313292, -1663928.8, 36605.73, 0.0, 5.0159316, 4.9854975 
3.1341296e+2, 1.3146192e+2, -1614676.6, -1661557.1, -1143.8018, -0.008282164, -0.00048596613, -1614648.6, 37029.594, 0.0, 5.016031, 4.985497 
3.134141e+2, 1.3644718e+2, -1567603.9, -1616960.4, -1144.8777, 0.0006300309, -0.0022381956, -1567577.4, 35244.984, 0.0, 5.0161295, 4.9839945 
3.1341457e+2, 1.4142966e+2, -1525221.9, -1581828.4, -1903.768, 0.0075759627, 0.010811968, -1525157.9, 28835.379, 0.0, 5.016175, 4.979307 
3.1341398e+2, 1.4640902e+2, -1476130.4, -1532358.5, -2058.4724, 0.010076192, 0.007272172, -1476055.1, 29139.11, 0.0, 5.016104, 4.979482 
3.134133e+2, 1.5138832e+2, -1427308.5, -1483421.5, -2109.1367, 0.01238906, 0.0026281374, -1427229.3, 29166.69, 0.0, 5.016029, 4.979482 
3.1341267e+2, 1.563676e+2, -1379912.0, -1437457.4, -2160.241, 0.014692181, -0.0015729726, -1379831.0, 27766.81, 0.0, 5.0159535, 4.9784884 
3.1341153e+2, 1.6134322e+2, -1339184.0, -1405411.8, -2783.4883, 0.015536634, 0.00034108723, -1339067.3, 19768.441, 0.0, 5.0158644, 4.9728446 
3.1340948e+2, 1.6631618e+2, -1290276.0, -1356158.6, -2897.5623, 0.0131421415, -0.0018202602, -1290148.8, 19950.906, 0.0, 5.015744, 4.9729495 
3.1340745e+2, 1.7128919e+2, -1241520.0, -1307219.6, -2888.1716, 0.010617824, -0.0037693698, -1241393.3, 19969.992, 0.0, 5.015623, 4.972949 
3.1340536e+2, 1.762622e+2, -1193897.8, -1260682.1, -2879.3958, 0.008082223, -0.005316717, -1193773.8, 18853.041, 0.0, 5.0155015, 4.9721413 
3.1340322e+2, 1.8123168e+2, -1153373.0, -1229082.5, -3486.3665, 0.007836345, -0.00016977255, -1153212.9, 10712.184, 0.0, 5.015349, 4.9662943 
3.13401e+2, 1.8619792e+2, -1104422.5, -1179309.9, -3681.9626, 0.013193001, -0.0058779344, -1104241.9, 11012.688, 0.0, 5.015125, 4.9665976 
3.1339878e+2, 1.9116418e+2, -1055899.1, -1130435.9, -3734.652, 0.018786024, -0.011932526, -1055712.4, 10871.557, 0.0, 5.0148973, 4.9665995 
3.1339657e+2, 1.9613047e+2, -1008263.3, -1083473.6, -3787.3003, 0.024361437, -0.017681094, -1008073.06, 9840.26, 0.0, 5.0146694, 4.965951 
3.1339407e+2, 2.0109358e+2, -968236.06, -1053123.8, -3984.568, 0.028074387, -0.012755473, -968049.44, 1224.6415, 0.0, 5.014481, 4.95961 
3.1339088e+2, 2.0605426e+2, -918823.1, -1003076.7, -3985.0942, 0.026676971, -0.0076718614, -918635.06, 2025.4431, 0.0, 5.0143886, 4.959921 
3.133876e+2, 2.11015e+2, -869820.4, -953939.25, -3912.103, 0.024976032, -0.0024955356, -869638.8, 2407.6409, 0.0, 5.0143003, 4.959921 
3.1338432e+2, 2.1597573e+2, -821482.06, -906255.3, -3839.2217, 0.023256946, 0.0028333315, -821308.56, 2123.785, 0.0, 5.014212, 4.9594216 
3.1338128e+2, 2.2093248e+2, -781694.9, -877542.94, -3607.9346, 0.022543658, 0.012238087, -781559.25, -6701.7324, 0.0, 5.0141687, 4.9523664 
3.1337863e+2, 2.2588408e+2, -731800.4, -827227.1, -3553.2847, 0.023757203, -0.0016634158, -731668.25, -5334.9746, 0.0, 5.0142207, 4.9526687 
3.1337598e+2, 2.3083559e+2, -682288.9, -777780.0, -3541.8154, 0.024938649, -0.017167823, -682157.7, -4347.609, 0.0, 5.014275, 4.95268 
3.1337333e+2, 2.3578708e+2, -633428.5, -729782.4, -3524.2358, 0.026024608, -0.032845184, -633299.8, -4012.8105, 0.0, 5.0143285, 4.95219 
3.133706e+2, 2.4073613e+2, -593470.0, -701061.06, -3934.2947, 0.028411282, -0.026824309, -593326.3, -12540.751, 0.0, 5.0142927, 4.945009 
3.1336772e+2, 2.4568433e+2, -543035.9, -649230.75, -3947.2688, 0.03328025, -0.005854034, -542889.3, -10604.485, 0.0, 5.014258, 4.9458375 
3.1336486e+2, 2.5063267e+2, -493585.47, -599890.25, -3907.4248, 0.038170464, 0.015034516, -493442.06, -9660.021, 0.0, 5.01425, 4.945815 
3.1336188e+2, 2.555811e+2, -444384.2, -551117.6, -3872.23, 0.043109644, 0.037294768, -444243.9, -8965.804, 0.0, 5.014234, 4.945594 
3.1335953e+2, 2.6052305e+2, -408734.0, -533732.9, -5044.416, 0.057616737, 0.057096567, -408530.75, -21686.88, 0.0, 5.0143895, 4.934023 
3.1335586e+2, 2.6545566e+2, -356327.75, -479143.25, -5713.5054, 0.07102397, -0.0015641552, -356062.53, -17538.938, 0.0, 5.014607, 4.9351277 
3.1335092e+2, 2.703883e+2, -305025.34, -427602.47, -5118.3867, 0.07724595, -0.07463707, -304812.0, -14606.398, 0.0, 5.0147614, 4.9356184 
3.1334504e+2, 2.7532095e+2, -253676.33, -376331.28, -4179.455, 0.078963205, -0.15598318, -253534.08, -11646.941, 0.0, 5.014878, 4.936061 
3.1335178e+2, 2.802591e+2, -227863.72, -401378.2, 8657.452, 0.1405457, -0.014599553, -227432.83, -33923.883, 0.0, 5.0186734, 4.909411 
3.133606e+2, 2.8519672e+2, -149237.83, -285890.5, -523.93164, 0.1516914, 0.118101075, -149235.81, -4132.427, 0.0, 5.0201626, 4.93167 
3.1335917e+2, 2.9012647e+2, -104865.586, -236909.44, -1482.2855, 0.10240236, 0.07354996, -104848.945, -8077.9204, 0.0, 5.018311, 4.932041 
3.1335658e+2, 2.9505515e+2, -60357.266, -188014.55, -1925.1128, 0.05044616, 0.011266948, -60328.24, -11879.556, 0.0, 5.016357, 4.9324107 
3.133545e+2, 2.9999295e+2, -15980.864, -108436.49, 149.76433, 0.023332821, -0.06491203, -15980.622, -15930.67, 0.0, 5.0147743, 4.952701 
3.1334832e+2, 3.0496225e+2, -14494.319, -100520.055, 3852.3386, 0.01950683, -0.0008517687, -14322.151, -14322.151, 0.0, 5.01428, 4.953982 
3.1333685e+2, 3.0994466e+2, -14183.961, -96027.93, 5694.2085, -0.015603904, 0.14565007, -13789.691, -13789.691, 0.0, 5.01368, 4.95556 
3.133219e+2, 3.1493202e+2, -13642.739, -91760.83, 7683.0366, -0.07096919, 0.32688686, -12894.271, -12894.271, 0.0, 5.012957, 4.95714 
3.1842667e+2, 1.2149005e+2, -1709678.3, -1752742.4, 773.5371, -0.022809638, 0.009702564, -1709664.4, 39738.62, 0.0, 5.015867, 4.987799 
3.1842798e+2, 1.2647487e+2, -1663839.3, -1710620.4, -1029.0023, -0.015459717, 0.002015056, -1663816.6, 36736.953, 0.0, 5.0159707, 4.9854994 
3.184291e+2, 1.3146032e+2, -1614588.3, -1661506.0, -1038.1238, -0.007429997, 0.00061034615, -1614565.3, 37130.23, 0.0, 5.0160604, 4.9854984 
3.1843022e+2, 1.3644575e+2, -1567565.0, -1616934.1, -1048.038, 0.00054827065, 0.00047134404, -1567542.8, 35295.063, 0.0, 5.016143, 4.9839954 
3.184307e+2, 1.4142829e+2, -1525310.5, -1582004.0, -1920.8655, 0.0069869077, 0.014392184, -1525245.5, 28762.523, 0.0, 5.016174, 4.979249 
3.1843004e+2, 1.464075e+2, -1476221.4, -1532548.6, -2106.7798, 0.009713654, 0.009839956, -1476142.8, 29067.787, 0.0, 5.016105, 4.979418 
3.1842932e+2, 1.5138663e+2, -1427397.3, -1483610.5, -2163.1865, 0.012262365, 0.004095127, -1427314.1, 29099.852, 0.0, 5.016031, 4.9794183 
3.184286e+2, 1.5636572e+2, -1380003.1, -1437647.0, -2220.3425, 0.014800722, -0.0012073049, -1379917.6, 27699.814, 0.0, 5.0159545, 4.9784245 
3.1842744e+2, 1.6134124e+2, -1339202.5, -1405437.9, -2880.2954, 0.015892072, 0.000018706041, -1339077.4, 19778.822, 0.0, 5.0158625, 4.972837 
3.1842533e+2, 1.6631423e+2, -1290284.5, -1356132.5, -3003.1326, 0.013780324, -0.0020707848, -1290147.8, 19971.875, 0.0, 5.0157356, 4.9729624 
3.1842315e+2, 1.7128725e+2, -1241555.5, -1307206.5, -2995.3523, 0.01153807, -0.003935355, -1241419.1, 19963.588, 0.0, 5.0156054, 4.972962 
3.1842098e+2, 1.7626028e+2, -1193966.6, -1260684.9, -2987.7598, 0.009281516, -0.0053990227, -1193833.1, 18812.518, 0.0, 5.0154724, 4.9721537 
3.1841874e+2, 1.8122979e+2, -1153555.5, -1229289.1, -3656.658, 0.009472994, 0.00012446284, -1153379.4, 10564.206, 0.0, 5.0153127, 4.9662414 
3.184164e+2, 1.8619607e+2, -1104618.8, -1179566.1, -3875.237, 0.015699418, -0.004511243, -1104418.9, 10854.492, 0.0, 5.0150924, 4.966526 
3.1841403e+2, 1.9116238e+2, -1056093.6, -1130691.4, -3934.912, 0.022183321, -0.009457299, -1055886.6, 10716.609, 0.0, 5.0148654, 4.9665275 
3.1841168e+2, 1.961287e+2, -1008468.7, -1083734.3, -3996.548, 0.028645802, -0.014090765, -1008257.06, 9675.937, 0.0, 5.0146337, 4.9658785 
3.18409e+2, 2.0109184e+2, -968303.44, -1053071.6, -4127.698, 0.032407742, -0.008554035, -968102.94, 1190.987, 0.0, 5.014442, 4.9596457 
3.1840545e+2, 2.0605244e+2, -918795.56, -1002848.4, -4092.3716, 0.028585073, -0.005074622, -918596.75, 2083.4482, 0.0, 5.0143557, 4.9600134 
3.184018e+2, 2.110131e+2, -869787.6, -953708.9, -4010.3105, 0.024297493, -0.0017174752, -869596.44, 2469.701, 0.0, 5.0142694, 4.960014 
3.1839824e+2, 2.1597375e+2, -821458.25, -906029.2, -3927.8782, 0.0199867, 0.001789008, -821276.25, 2175.745, 0.0, 5.0141783, 4.9595146 
3.1839502e+2, 2.2093047e+2, -781852.6, -877630.7, -3615.014, 0.018078364, 0.010342233, -781716.4, -6839.295, 0.0, 5.0141187, 4.9523573 
3.183927e+2, 2.258822e+2, -732137.5, -827421.4, -3579.096, 0.022013044, -0.0022984676, -732003.25, -5650.7495, 0.0, 5.014114, 4.9526467 
3.183904e+2, 2.3083383e+2, -682841.56, -778069.56, -3631.57, 0.026149454, -0.016447695, -682703.25, -4874.355, 0.0, 5.014093, 4.952659 
3.183881e+2, 2.3578547e+2, -634242.44, -730186.75, -3690.5376, 0.0301736, -0.030724311, -634100.7, -4795.3447, 0.0, 5.0140543, 4.9521694 
3.1838563e+2, 2.4073477e+2, -594510.3, -701531.3, -4301.767, 0.035177004, -0.022000957, -594337.7, -13535.668, 0.0, 5.013938, 4.9450045 
3.1838283e+2, 2.4568292e+2, -543751.6, -649191.5, -4362.495, 0.04082918, -0.00258686, -543571.44, -11271.631, 0.0, 5.0139503, 4.9459863 
3.1837997e+2, 2.506311e+2, -494153.44, -599785.44, -4385.0977, 0.046249922, 0.015231442, -493971.72, -10175.304, 0.0, 5.013997, 4.9459624 
3.1837702e+2, 2.5557938e+2, -444836.1, -550961.7, -4406.912, 0.05169945, 0.03433243, -444653.4, -9361.426, 0.0, 5.0140247, 4.9457397 
3.1837493e+2, 2.605207e+2, -410891.88, -536616.8, -5514.9795, 0.06764806, 0.0508128, -410650.44, -23786.23, 0.0, 5.0140424, 4.933113 
3.1837153e+2, 2.6545328e+2, -361610.84, -483152.44, -7513.0234, 0.07644589, -0.0056082695, -361148.2, -22594.348, 0.0, 5.013156, 4.9341974 
3.183667e+2, 2.7038634e+2, -314884.28, -433405.03, -9205.324, 0.07542469, -0.07321617, -314173.56, -23931.695, 0.0, 5.0116925, 4.934742 
3.1836087e+2, 2.7531967e+2, -269321.44, -384407.44, -11217.611, 0.06869432, -0.14738627, -268238.25, -26310.61, 0.0, 5.009756, 4.935244 
3.1837013e+2, 2.8026104e+2, -250942.9, -422019.88, 1261.551, 0.12725025, 0.053069957, -250933.61, -57406.99, 0.0, 5.0124965, 4.904907 
3.1838e+2, 2.8519973e+2, -157821.83, -287885.28, -9058.491, 0.14318715, 0.20281239, -157193.97, -12082.116, 0.0, 5.0167413, 4.932352 
3.183774e+2, 2.9012814e+2, -107875.85, -236211.69, -6951.982, 0.09600101, 0.12761648, -107500.36, -10707.776, 0.0, 5.016893, 4.9327965 
3.183736e+2, 2.9505566e+2, -60418.703, -185755.02, -5335.867, 0.045079134, 0.03563309, -60191.953, -11709.891, 0.0, 5.016014, 4.9332447 
3.1837067e+2, 2.9999113e+2, -18931.703, -112578.94, -1020.7574, 0.019726964, -0.06707943, -18920.578, -18814.082, 0.0, 5.014465, 4.9512577 
3.183628e+2, 3.049635e+2, -20280.01, -100837.0, 4104.1226, 0.0069325287, 0.014587933, -20071.459, -20071.459, 0.0, 5.0120707, 4.954473 
3.1834894e+2, 3.0995157e+2, -30241.27, -100903.78, 8252.146, -0.044889636, 0.19050768, -29290.36, -29290.36, 0.0, 5.007823, 4.955978 
3.1833148e+2, 3.1494465e+2, -44569.117, -103116.82, 14544.501, -0.120640695, 0.40365508, -41155.04, -41155.04, 0.0, 5.0018106, 4.9574857 
3.234432e+2, 1.2148843e+2, -1707437.0, -1752127.1, 938.52454, -0.020893518, 0.008557761, -1707417.3, 42003.96, 0.0, 5.0167117, 4.9875865 
3.2344446e+2, 1.2647413e+2, -1661691.1, -1709645.9, -872.7995, -0.014038098, 0.010025886, -1661675.3, 38887.742, 0.0, 5.016698, 4.985464 
3.234456e+2, 1.3145919e+2, -1612743.0, -1660685.0, -918.0097, -0.0065744566, 0.0052462593, -1612725.5, 38982.727, 0.0, 5.0166893, 4.9854627 
3.234467e+2, 1.3644426e+2, -1565998.4, -1616252.8, -963.7244, 0.0008953551, 0.0017430047, -1565979.9, 36873.65, 0.0, 5.0166807, 4.98396 
3.234471e+2, 1.4142655e+2, -1523984.9, -1581538.9, -1921.6375, 0.0069712, 0.013611209, -1523920.8, 30105.174, 0.0, 5.016654, 4.9791703 
3.2344636e+2, 1.4640574e+2, -1474900.0, -1532101.9, -2139.896, 0.009380687, 0.009682686, -1474820.1, 30408.717, 0.0, 5.0165887, 4.979333 
3.2344556e+2, 1.5138485e+2, -1426059.9, -1483158.9, -2216.0754, 0.011621021, 0.004638305, -1425974.0, 30458.613, 0.0, 5.016521, 4.979333 
3.2344472e+2, 1.5636392e+2, -1378644.5, -1437187.8, -2292.6104, 0.0138728265, 0.000032294658, -1378554.8, 29081.592, 0.0, 5.016453, 4.978339 
3.2344344e+2, 1.6133942e+2, -1337777.8, -1404798.9, -3017.3147, 0.0149578815, 0.0015903141, -1337642.3, 21233.229, 0.0, 5.0163536, 4.972816 
3.2344127e+2, 1.6631235e+2, -1288966.6, -1355504.5, -3169.4016, 0.01344089, -0.0009482817, -1288816.0, 21323.1, 0.0, 5.016184, 4.9729595 
3.23439e+2, 1.7128533e+2, -1240365.9, -1306641.4, -3181.0015, 0.011841235, -0.003286174, -1240213.6, 21188.7, 0.0, 5.0160108, 4.9729595 
3.2343674e+2, 1.762583e+2, -1192897.6, -1260178.4, -3193.1882, 0.010253621, -0.005221617, -1192746.5, 19918.988, 0.0, 5.015838, 4.9721518 
3.2343435e+2, 1.8122779e+2, -1152576.3, -1228887.8, -3884.529, 0.010852682, 0.00018275187, -1152379.0, 11584.472, 0.0, 5.0156603, 4.966213 
3.2343176e+2, 1.8619412e+2, -1103569.6, -1179173.5, -4066.8564, 0.016816849, -0.003651848, -1103351.5, 11941.788, 0.0, 5.0154724, 4.9664807 
3.234292e+2, 1.9116046e+2, -1054936.1, -1130254.6, -4080.4832, 0.023044355, -0.007749931, -1054715.8, 11907.449, 0.0, 5.0152836, 4.9664807 
3.234266e+2, 1.961268e+2, -1007190.8, -1083248.0, -4094.3281, 0.029287668, -0.011537854, -1006971.06, 10981.8955, 0.0, 5.0150948, 4.9658303 
3.234237e+2, 2.0108996e+2, -966879.56, -1052297.6, -4146.703, 0.03267653, -0.005776208, -966678.75, 2635.1865, 0.0, 5.0149097, 4.9596915 
3.2341993e+2, 2.0605049e+2, -917573.7, -1002085.94, -4118.345, 0.027977683, -0.0037992233, -917373.5, 3326.8035, 0.0, 5.0147376, 4.9600964 
3.234161e+2, 2.1101108e+2, -868813.5, -953065.25, -4069.461, 0.022819974, -0.0020673682, -868617.4, 3468.8982, 0.0, 5.014567, 4.960097 
3.234123e+2, 2.1597165e+2, -820716.1, -905496.2, -4020.5828, 0.017678374, -0.00020886063, -820525.9, 2946.3665, 0.0, 5.0143957, 4.9595976 
3.2340893e+2, 2.2092839e+2, -781465.6, -877441.06, -3664.4019, 0.0154337445, 0.008070084, -781325.94, -6429.1475, 0.0, 5.0142455, 4.952367 
3.2340664e+2, 2.2588046e+2, -732185.25, -827530.75, -3540.7012, 0.020613464, -0.0010536324, -732053.94, -5683.8726, 0.0, 5.0141015, 4.9526196 
3.2340443e+2, 2.3083243e+2, -683255.06, -778378.3, -3502.4072, 0.026245952, -0.011572042, -683126.25, -5281.806, 0.0, 5.0139513, 4.952623 
3.234022e+2, 2.357844e+2, -634972.8, -730670.75, -3458.3542, 0.03190893, -0.022326475, -634848.0, -5528.968, 0.0, 5.0137997, 4.952124 
3.233998e+2, 2.407338e+2, -594852.7, -701688.6, -3748.2083, 0.03820679, -0.012233799, -594721.4, -13906.049, 0.0, 5.0137563, 4.945052 
3.2339728e+2, 2.4568142e+2, -542582.5, -648541.9, -3594.4836, 0.04358799, 0.0010325382, -542460.75, -10143.23, 0.0, 5.014259, 4.9461 
3.233947e+2, 2.5062904e+2, -491528.9, -598472.56, -3543.5273, 0.048728406, 0.011902334, -491411.63, -7592.68, 0.0, 5.014815, 4.9460793 
3.2339203e+2, 2.5557676e+2, -440735.75, -548982.3, -3496.7454, 0.054038234, 0.02394258, -440622.9, -5303.4756, 0.0, 5.0153604, 4.94586 
3.2339042e+2, 2.605178e+2, -405504.63, -535806.9, -3728.4807, 0.07115162, 0.03859442, -405398.03, -18503.508, 0.0, 5.016088, 4.9325533 
3.2338816e+2, 2.6545087e+2, -352561.44, -483043.38, -3465.1738, 0.08787, -0.0009244298, -352469.5, -13885.858, 0.0, 5.016685, 4.9328613 
3.2338455e+2, 2.7038363e+2, -300468.7, -432360.9, -2265.051, 0.097872674, -0.05545559, -300429.8, -10150.085, 0.0, 5.017149, 4.932992 
3.2337996e+2, 2.7531567e+2, -248333.23, -381945.03, -708.0612, 0.104836844, -0.12267375, -248329.48, -6346.3726, 0.0, 5.0175714, 4.933075 
3.2338938e+2, 2.8025526e+2, -230329.92, -408113.22, 18535.578, 0.16053888, 0.06905776, -228417.98, -34813.836, 0.0, 5.0192137, 4.906351 
3.2339728e+2, 2.8519577e+2, -152453.13, -276628.94, 5034.489, 0.15372604, 0.211249, -152249.34, -7076.0156, 0.0, 5.0181046, 4.9347577 
3.23393e+2, 2.9012638e+2, -110890.9, -231104.5, 2118.7922, 0.09671642, 0.13721702, -110853.56, -14019.569, 0.0, 5.0153775, 4.9345074 
3.2338747e+2, 2.9505566e+2, -69180.766, -185627.5, -331.33514, 0.041828986, 0.048291087, -69179.82, -20672.217, 0.0, 5.0125456, 4.9342566 
3.2338282e+2, 2.999935e+2, -28888.736, -113504.7, 1869.4034, 0.01351298, -0.044565354, -28847.455, -28738.145, 0.0, 5.0102534, 4.9524317 
3.2337305e+2, 3.049673e+2, -24391.104, -99406.67, 4551.0586, -0.0052658254, 0.040571745, -24116.01, -24116.01, 0.0, 5.00982, 4.9556437 
3.233576e+2, 3.0995467e+2, -22434.705, -91881.49, 4398.8086, -0.049673416, 0.18637757, -22157.19, -22157.19, 0.0, 5.0093336, 4.9580426 
3.2333884e+2, 3.1494573e+2, -20176.912, -84661.375, 4715.1797, -0.10438013, 0.3367668, -19833.957, -19833.957, 0.0, 5.008737, 4.9604406 
3.284603e+2, 1.2148662e+2, -1707721.8, -1752682.9, 877.98315, -0.017112505, 0.004753083, -1707704.6, 41737.027, 0.0, 5.016708, 4.987406 
3.2846126e+2, 1.2647386e+2, -1661777.4, -1709801.1, -880.7345, -0.013049048, 0.022272374, -1661761.3, 38806.63, 0.0, 5.0166945, 4.985414 
3.2846233e+2, 1.3145831e+2, -1612827.4, -1660840.6, -924.67975, -0.005808659, 0.011638623, -1612809.6, 38908.99, 0.0, 5.016687, 4.9854126 
3.284634e+2, 1.3644272e+2, -1566080.3, -1616407.3, -968.8442, 0.0014210286, 0.0022782388, -1566061.5, 36808.008, 0.0, 5.0166783, 4.98391 
3.284638e+2, 1.4142461e+2, -1524118.1, -1581804.5, -1965.4677, 0.0071858726, 0.010614451, -1524051.3, 29994.436, 0.0, 5.0166526, 4.979083 
3.2846293e+2, 1.4640383e+2, -1475041.1, -1532385.3, -2191.0603, 0.008983202, 0.008137556, -1474957.5, 30290.79, 0.0, 5.0165873, 4.9792395 
3.2846197e+2, 1.5138301e+2, -1426200.0, -1483441.4, -2266.6758, 0.010583042, 0.004713503, -1426110.4, 30341.11, 0.0, 5.0165195, 4.9792395 
3.2846102e+2, 1.5636216e+2, -1378783.6, -1437468.9, -2342.5508, 0.012188716, 0.0017289525, -1378690.3, 28964.676, 0.0, 5.0164514, 4.9782457 
3.2845962e+2, 1.6133766e+2, -1337822.6, -1404887.3, -3134.305, 0.013039587, 0.004165726, -1337676.5, 21217.338, 0.0, 5.0163527, 4.972787 
3.284573e+2, 1.6631052e+2, -1288987.0, -1355543.1, -3301.9795, 0.012201428, 0.0009026422, -1288823.6, 21334.55, 0.0, 5.016183, 4.972947 
3.2845494e+2, 1.712834e+2, -1240386.1, -1306679.9, -3312.7996, 0.01130381, -0.0022132776, -1240221.0, 21201.055, 0.0, 5.0160103, 4.972947 
3.2845262e+2, 1.7625628e+2, -1192917.6, -1260216.9, -3324.187, 0.010408274, -0.004927182, -1192753.9, 19932.016, 0.0, 5.015837, 4.9721394 
3.2845008e+2, 1.8122572e+2, -1152589.9, -1228907.8, -4024.9485, 0.011233421, 0.000086020016, -1152378.1, 11606.053, 0.0, 5.015659, 4.966207 
3.284472e+2, 1.8619211e+2, -1103593.8, -1179213.4, -4208.326, 0.016293053, -0.0031167874, -1103360.3, 11953.497, 0.0, 5.015471, 4.966468 
3.2844433e+2, 1.911585e+2, -1054960.5, -1130294.4, -4220.651, 0.021545494, -0.0065251384, -1054724.8, 11918.492, 0.0, 5.015282, 4.966468 
3.2844147e+2, 1.9612491e+2, -1007215.44, -1083287.6, -4233.174, 0.026793905, -0.009620056, -1006980.6, 10992.06, 0.0, 5.015093, 4.9658175 
3.284383e+2, 2.0108807e+2, -966817.5, -1052157.8, -4285.515, 0.029485235, -0.0038373913, -966602.9, 2730.6265, 0.0, 5.014909, 4.9597397 
3.2843438e+2, 2.0604852e+2, -917486.94, -1001894.75, -4250.903, 0.024988554, -0.0033808006, -917273.44, 3446.7727, 0.0, 5.014737, 4.960162 
3.284304e+2, 2.11009e+2, -868727.94, -952875.4, -4199.978, 0.02006779, -0.0032151674, -868518.9, 3587.6426, 0.0, 5.0145664, 4.960162 
3.2842645e+2, 2.1596949e+2, -820631.8, -905307.5, -4149.0454, 0.015143175, -0.0029113924, -820429.0, 3063.7837, 0.0, 5.0143948, 4.959663 
3.2842293e+2, 2.209263e+2, -781390.06, -877259.2, -3758.8765, 0.012926952, 0.0053919232, -781242.94, -6326.386, 0.0, 5.0142436, 4.952429 
3.2842052e+2, 2.2587888e+2, -732134.7, -827369.94, -3620.9001, 0.01796674, 0.0008250982, -731997.25, -5611.1987, 0.0, 5.0140944, 4.9526763 
3.2841817e+2, 2.3083138e+2, -683218.06, -778213.4, -3575.6404, 0.02340578, -0.0047924942, -683083.7, -5227.2544, 0.0, 5.0139394, 4.9526825 
3.2841578e+2, 2.357839e+2, -634949.4, -730501.7, -3524.607, 0.028800238, -0.010578425, -634819.56, -5492.6304, 0.0, 5.013783, 4.9521866 
3.2841334e+2, 2.4073355e+2, -594757.3, -701174.2, -3513.6458, 0.03432878, 0.00071379857, -594641.44, -13819.488, 0.0, 5.0137134, 4.94524 
3.2841107e+2, 2.4568048e+2, -542489.44, -647963.9, -3182.7495, 0.037712738, 0.0048956643, -542393.5, -10062.541, 0.0, 5.014207, 4.9463115 
3.2840884e+2, 2.5062734e+2, -491425.2, -597894.4, -3119.9587, 0.04068525, 0.0061922, -491333.84, -7494.171, 0.0, 5.014766, 4.946288 
3.2840648e+2, 2.5557432e+2, -440621.4, -548403.9, -3061.3613, 0.043721978, 0.0086988835, -440534.53, -5187.1187, 0.0, 5.0153155, 4.9460664 
3.2840532e+2, 2.605155e+2, -404746.56, -533332.75, -2770.728, 0.057800297, 0.020556217, -404686.88, -17765.904, 0.0, 5.0159845, 4.933452 
3.2840404e+2, 2.654518e+2, -352119.13, -479494.4, -1943.8766, 0.07083322, 0.0042792005, -352089.47, -13508.637, 0.0, 5.016348, 4.9342256 
3.2840142e+2, 2.7038836e+2, -300572.66, -428269.72, -449.72922, 0.07489157, -0.022679476, -300571.06, -10329.625, 0.0, 5.016578, 4.934592 
3.283977e+2, 2.7532467e+2, -248983.28, -377311.63, 1401.0237, 0.07341987, -0.060187228, -248967.98, -7063.093, 0.0, 5.016768, 4.9349103 
3.2840618e+2, 2.8026623e+2, -226113.22, -399951.16, 17981.975, 0.107469715, 0.12458709, -224272.63, -30764.305, 0.0, 5.019413, 4.9092746 
3.284118e+2, 2.852037e+2, -150303.0, -279484.6, 2841.049, 0.10551698, 0.23803054, -150240.55, -5130.8926, 0.0, 5.019136, 4.933819 
3.28406e+2, 2.9013202e+2, -109024.766, -233073.13, 300.33023, 0.06531044, 0.15668319, -109024.04, -12229.043, 0.0, 5.01626, 4.933854 
3.2839894e+2, 2.9505917e+2, -67601.57, -186710.64, -1774.3639, 0.023602566, 0.05907031, -67575.14, -19083.176, 0.0, 5.013279, 4.933889 
3.2839224e+2, 2.9999727e+2, -24305.305, -104886.49, 796.10736, -0.0026190782, -0.03590766, -24297.44, -24206.063, 0.0, 5.01069, 4.955608 
3.283798e+2, 3.049731e+2, -23168.98, -94362.69, 4379.037, -0.048551984, 0.067348674, -22900.643, -22900.643, 0.0, 5.009649, 4.958105 
3.2836163e+2, 3.0996227e+2, -23128.938, -87662.35, 5103.551, -0.1284244, 0.24525508, -22727.822, -22727.822, 0.0, 5.008606, 4.9604955 
3.2833982e+2, 3.1495634e+2, -22789.05, -81263.6, 6296.597, -0.2255199, 0.44272414, -22118.713, -22118.713, 0.0, 5.007452, 4.9628863 
3.334774e+2, 1.2148475e+2, -1707948.4, -1753119.1, 817.4017, -0.013314796, 0.0004925784, -1707933.6, 41529.03, 0.0, 5.016704, 4.987263 
3.334781e+2, 1.264736e+2, -1661864.1, -1709955.9, -888.0065, -0.012060091, 0.034575332, -1661847.8, 38724.957, 0.0, 5.016691, 4.9853644 
3.3347914e+2, 1.3145742e+2, -1612912.4, -1660995.8, -930.6868, -0.005041926, 0.018071799, -1612894.4, 38834.69, 0.0, 5.016684, 4.985362 
3.3348015e+2, 1.3644119e+2, -1566162.5, -1616561.1, -973.3004, 0.0019486656, 0.0028386284, -1566143.8, 36741.816, 0.0, 5.016676, 4.9838595 
3.3348048e+2, 1.4142266e+2, -1524254.9, -1582076.4, -2008.7089, 0.0074023167, 0.0076295775, -1524185.1, 29880.299, 0.0, 5.016651, 4.978994 
3.3347946e+2, 1.4640194e+2, -1475182.4, -1532668.4, -2242.214, 0.008587197, 0.0065947976, -1475095.0, 30172.701, 0.0, 5.016586, 4.979146 
3.334784e+2, 1.5138118e+2, -1426340.5, -1483723.8, -2317.2654, 0.009546621, 0.0047813305, -1426247.1, 30223.443, 0.0, 5.016518, 4.979146 
3.3347732e+2, 1.563604e+2, -1378923.0, -1437749.9, -2392.4807, 0.010506242, 0.0034084974, -1378825.9, 28847.602, 0.0, 5.01645, 4.9781523 
3.334758e+2, 1.6133592e+2, -1337871.9, -1404984.1, -3250.7512, 0.011123831, 0.0067605516, -1337714.9, 21197.428, 0.0, 5.0163517, 4.972755 
3.3347338e+2, 1.6630869e+2, -1289007.6, -1355581.5, -3434.5354, 0.010965446, 0.002775926, -1288831.0, 21346.248, 0.0, 5.0161824, 4.9729347 
3.334709e+2, 1.7128147e+2, -1240406.5, -1306718.3, -3444.576, 0.01077074, -0.0011294235, -1240228.1, 21213.658, 0.0, 5.01601, 4.9729342 
3.3346847e+2, 1.7625429e+2, -1192937.9, -1260255.3, -3455.1638, 0.010568157, -0.0046331906, -1192761.0, 19945.281, 0.0, 5.0158367, 4.9721265 
3.3346575e+2, 1.8122366e+2, -1152607.5, -1228935.4, -4166.0337, 0.011611981, 0.0000013924933, -1152380.8, 11624.211, 0.0, 5.015658, 4.966198 
3.3346266e+2, 1.861901e+2, -1103618.3, -1179252.9, -4349.9023, 0.015762044, -0.0025771048, -1103368.9, 11965.289, 0.0, 5.015469, 4.966455 
3.334595e+2, 1.9115655e+2, -1054985.3, -1130333.8, -4360.9243, 0.020037256, -0.0053129983, -1054733.8, 11929.618, 0.0, 5.0152802, 4.966455 
3.3345634e+2, 1.96123e+2, -1007240.5, -1083326.9, -4372.126, 0.024288608, -0.007732182, -1006990.06, 11002.301, 0.0, 5.015091, 4.9658046 
3.3345294e+2, 2.010862e+2, -966765.5, -1052038.9, -4423.0303, 0.026295021, -0.0018448427, -966536.7, 2816.3118, 0.0, 5.014908, 4.95978 
3.3344886e+2, 2.0604655e+2, -917400.6, -1001703.4, -4383.643, 0.022002928, -0.00290351, -917173.3, 3566.7317, 0.0, 5.0147367, 4.960227 
3.3344474e+2, 2.1100694e+2, -868642.9, -952685.2, -4330.6772, 0.017318072, -0.0043417746, -868420.3, 3706.3801, 0.0, 5.0145655, 4.9602275 
3.334406e+2, 2.1596733e+2, -820547.94, -905118.56, -4277.6904, 0.012609405, -0.005630402, -820332.1, 3181.1938, 0.0, 5.0143943, 4.959728 
3.3343694e+2, 2.2092421e+2, -781324.2, -877094.8, -3853.949, 0.010404374, 0.0027534338, -781169.3, -6233.074, 0.0, 5.014241, 4.9524846 
3.3343437e+2, 2.258773e+2, -732086.75, -827206.9, -3705.9492, 0.015260442, 0.0026838065, -731942.56, -5540.5527, 0.0, 5.014087, 4.9527316 
3.3343184e+2, 2.3083036e+2, -683183.6, -778046.25, -3653.7227, 0.020473229, 0.0018497608, -683043.1, -5174.705, 0.0, 5.0139275, 4.952741 
3.3342928e+2, 2.3578341e+2, -634928.44, -730330.44, -3595.7085, 0.025566366, 0.00091508485, -634793.1, -5458.274, 0.0, 5.0137663, 4.9522486 
3.3342677e+2, 2.4073333e+2, -594727.6, -700776.25, -3312.273, 0.030370824, 0.014065716, -594624.25, -13796.024, 0.0, 5.0136704, 4.945384 
3.3342484e+2, 2.4567959e+2, -542412.4, -647370.25, -2773.2349, 0.031832516, 0.009423027, -542339.1, -9995.195, 0.0, 5.0141544, 4.946521 
3.3342293e+2, 2.506257e+2, -491337.4, -597300.5, -2698.6113, 0.032692682, 0.0009816587, -491268.72, -7408.7383, 0.0, 5.014718, 4.9464955 
3.3342093e+2, 2.555719e+2, -440522.97, -547809.75, -2628.201, 0.03351184, -0.0062099025, -440458.63, -5083.5776, 0.0, 5.015271, 4.9462714 
3.3342025e+2, 2.6051307e+2, -404236.94, -531289.5, -2014.4152, 0.045471802, 0.0017209918, -404205.03, -17255.799, 0.0, 5.0158815, 4.934161 
3.334196e+2, 2.6545227e+2, -351745.5, -475891.22, -779.6721, 0.053067435, 0.0038646918, -351740.63, -13158.601, 0.0, 5.0160108, 4.9355164 
3.3341742e+2, 2.7039254e+2, -300744.28, -424124.22, 1008.7977, 0.04869104, -0.0006079012, -300736.03, -10527.367, 0.0, 5.0160084, 4.9361186 
3.3341414e+2, 2.75333e+2, -249700.0, -372623.84, 3153.5652, 0.036291968, -0.0134896, -249619.14, -7785.4307, 0.0, 5.015965, 4.9366727 
3.334233e+2, 2.802775e+2, -224794.08, -398460.72, 18719.215, 0.057033144, 0.1845503, -222799.28, -29389.146, 0.0, 5.0196176, 4.909861 
3.3342785e+2, 2.8521264e+2, -148319.39, -282181.72, 135.12828, 0.0651947, 0.28411263, -148319.25, -3282.9995, 0.0, 5.0201683, 4.932818 
3.334203e+2, 2.901385e+2, -107325.26, -234881.66, -2031.6211, 0.038592633, 0.19007897, -107292.914, -10544.861, 0.0, 5.0171432, 4.9331384 
3.3341143e+2, 2.950633e+2, -66189.06, -187632.27, -3731.9727, 0.006866326, 0.07840922, -66074.484, -17604.33, 0.0, 5.014013, 4.933459 
3.3340272e+2, 3.0000043e+2, -21118.232, -98994.15, -616.25275, -0.015063406, -0.02875499, -21113.355, -21033.637, 0.0, 5.011128, 4.957693 
3.333875e+2, 3.0497673e+2, -22120.275, -89153.2, 4158.325, -0.07957371, 0.073053844, -21863.303, -21863.303, 0.0, 5.0094786, 4.960376 
3.3336607e+2, 3.09967e+2, -23996.31, -83274.62, 5758.1597, -0.18864034, 0.26324338, -23442.156, -23442.156, 0.0, 5.0078793, 4.962758 
3.3334076e+2, 3.1496328e+2, -25575.611, -77694.195, 7826.9575, -0.3218554, 0.48796394, -24425.568, -24425.568, 0.0, 5.0061684, 4.9651413 
3.384945e+2, 1.21482864e+2, -1707944.6, -1753360.6, 845.0644, -0.009404574, -0.004037467, -1707928.9, 41554.95, 0.0, 5.0167584, 4.987157 
3.384949e+2, 1.2647334e+2, -1661747.0, -1710018.5, -830.21625, -0.010997864, 0.04668269, -1661732.8, 38844.96, 0.0, 5.0167565, 4.9853115 
3.384959e+2, 1.3145651e+2, -1612823.5, -1661073.0, -888.4727, -0.004254089, 0.024415297, -1612807.1, 38932.375, 0.0, 5.01674, 4.985309 
3.384969e+2, 1.3643967e+2, -1566134.8, -1616667.8, -945.357, 0.0024741576, 0.0034217858, -1566117.0, 36784.445, 0.0, 5.016711, 4.983807 
3.3849716e+2, 1.4142072e+2, -1524359.0, -1582339.6, -2027.418, 0.007620427, 0.004735511, -1524288.1, 29796.896, 0.0, 5.016662, 4.9789014 
3.38496e+2, 1.4640005e+2, -1475326.0, -1532955.0, -2270.0032, 0.00821047, 0.005104601, -1475236.8, 30050.32, 0.0, 5.016584, 4.9790516 
3.384948e+2, 1.5137935e+2, -1426523.3, -1484029.6, -2346.2395, 0.008552354, 0.004860316, -1426427.8, 30061.744, 0.0, 5.0165024, 4.9790516 
3.3849362e+2, 1.5635864e+2, -1379148.6, -1438076.0, -2423.1765, 0.008893381, 0.0050584665, -1379049.1, 28642.86, 0.0, 5.01642, 4.9780583 
3.3849198e+2, 1.6133419e+2, -1338047.4, -1405150.6, -3348.682, 0.009291051, 0.009343787, -1337880.8, 21050.002, 0.0, 5.0163097, 4.972719 
3.3848944e+2, 1.6630685e+2, -1289157.6, -1355684.0, -3555.4956, 0.009787683, 0.004659885, -1288968.1, 21228.092, 0.0, 5.016138, 4.972921 
3.3848688e+2, 1.7127955e+2, -1240567.4, -1306825.4, -3571.5889, 0.01027675, -0.000025481613, -1240375.5, 21086.04, 0.0, 5.0159616, 4.972921 
3.3848432e+2, 1.7625228e+2, -1193115.8, -1260369.9, -3587.5857, 0.010755259, -0.0043106237, -1192924.9, 19801.78, 0.0, 5.015783, 4.972113 
3.384815e+2, 1.812216e+2, -1152799.4, -1229055.6, -4314.7544, 0.012006532, -0.00003401041, -1152556.0, 11469.689, 0.0, 5.015599, 4.9661846 
3.3847806e+2, 1.8618809e+2, -1103807.5, -1179375.6, -4506.781, 0.015250952, -0.0020166573, -1103539.6, 11815.025, 0.0, 5.015412, 4.96644 
3.3847463e+2, 1.9115458e+2, -1055179.9, -1130459.0, -4524.9824, 0.018569332, -0.004128979, -1054908.9, 11774.544, 0.0, 5.015221, 4.96644 
3.384712e+2, 1.961211e+2, -1007453.4, -1083460.6, -4543.278, 0.021857481, -0.005931069, -1007182.75, 10829.427, 0.0, 5.015025, 4.9657893 
3.3846757e+2, 2.0108429e+2, -966942.4, -1052042.4, -4594.2573, 0.02322788, 0.00011337659, -966695.06, 2677.6223, 0.0, 5.0148315, 4.9598145 
3.384633e+2, 2.0604457e+2, -917582.2, -1001634.9, -4553.162, 0.019158546, -0.0024014788, -917336.25, 3423.7144, 0.0, 5.014643, 4.9602933 
3.3845904e+2, 2.1100487e+2, -868886.44, -952646.0, -4499.9097, 0.014736222, -0.005425309, -868645.4, 3501.5203, 0.0, 5.0144506, 4.9602933 
3.3845478e+2, 2.1596518e+2, -820866.1, -905114.0, -4445.3657, 0.010283517, -0.008294752, -820632.2, 2901.6555, 0.0, 5.014253, 4.9597936 
3.3845097e+2, 2.2092211e+2, -781766.06, -877194.75, -3996.5916, 0.00810752, 0.00024778376, -781599.0, -6643.0273, 0.0, 5.014068, 4.952528 
3.3844823e+2, 2.258757e+2, -732654.2, -827359.2, -3884.8396, 0.012738925, 0.004573106, -732495.1, -6077.0723, 0.0, 5.0138702, 4.9527745 
3.384455e+2, 2.3082928e+2, -683919.94, -778272.1, -3875.3655, 0.017734824, 0.008276494, -683761.0, -5880.2847, 0.0, 5.013651, 4.952785 
3.384428e+2, 2.3578285e+2, -635879.94, -730650.2, -3865.708, 0.022579508, 0.011857917, -635722.5, -6379.0615, 0.0, 5.0134134, 4.9522934 
3.3844018e+2, 2.4073303e+2, -595877.56, -701069.2, -3384.2292, 0.026840953, 0.027254926, -595768.8, -14933.638, 0.0, 5.013234, 4.94547 
3.3843857e+2, 2.4567863e+2, -543646.7, -647436.44, -2693.6907, 0.026701327, 0.014274361, -543576.8, -11219.435, 0.0, 5.013647, 4.946711 
3.3843705e+2, 2.50624e+2, -492811.44, -597474.94, -2698.768, 0.025837803, -0.0036338943, -492741.9, -8861.221, 0.0, 5.014131, 4.946685 
3.384354e+2, 2.555695e+2, -442269.4, -548105.6, -2704.2927, 0.024907533, -0.02012612, -442200.38, -6797.516, 0.0, 5.0145946, 4.9464602 
3.384353e+2, 2.605104e+2, -406808.94, -531500.4, -2333.7834, 0.03652116, -0.016578604, -406765.28, -19785.598, 0.0, 5.014868, 4.9344883 
3.3843493e+2, 2.6545185e+2, -358291.03, -476689.0, -2767.966, 0.040708367, -0.0016230115, -358226.34, -19634.15, 0.0, 5.0134163, 4.936258 
3.38433e+2, 2.7039468e+2, -313762.25, -427515.34, -3349.2595, 0.031172909, 0.0076434626, -313663.72, -23468.37, 0.0, 5.0110917, 4.9369407 
3.3842984e+2, 2.7533773e+2, -270998.13, -379361.88, -4211.2773, 0.012809289, 0.007875466, -270834.7, -29038.262, 0.0, 5.008072, 4.937579 
3.3844134e+2, 2.8028485e+2, -255500.77, -415580.8, 10289.358, 0.034222312, 0.2306601, -254842.13, -61492.72, 0.0, 5.009485, 4.908322 
3.38446e+2, 2.8521946e+2, -167607.5, -291288.5, -9779.261, 0.049381193, 0.33446598, -166839.05, -21855.857, 0.0, 5.0136147, 4.9323845 
3.3843625e+2, 2.9014385e+2, -117476.086, -239664.63, -9051.162, 0.02565429, 0.22836594, -116809.26, -20097.766, 0.0, 5.013839, 4.9327765 
3.384251e+2, 2.950671e+2, -70370.63, -189499.14, -8704.125, -0.0040163826, 0.10286099, -69738.02, -21287.043, 0.0, 5.0128393, 4.933171 
3.384144e+2, 3.0000263e+2, -22204.016, -96827.875, -4125.2637, -0.021132698, -0.02204258, -21976.662, -21900.354, 0.0, 5.0106187, 4.9585624 
3.383964e+2, 3.0497772e+2, -29446.656, -87249.56, 2567.143, -0.08999354, 0.053230755, -29332.867, -29332.867, 0.0, 5.006356, 4.962282 
3.3837166e+2, 3.099673e+2, -44930.977, -86762.64, 7149.708, -0.20991625, 0.22079788, -43742.73, -43742.73, 0.0, 4.9998403, 4.9648066 
3.383431e+2, 3.1496364e+2, -65928.14, -89023.7, 13862.801, -0.35544357, 0.4297997, -59433.51, -59433.51, 0.0, 4.9911366, 4.967336 
3.435122e+2, 1.2148178e+2, -1705047.4, -1752379.1, 1138.957, -0.0057698092, -0.003468481, -1705020.0, 44475.746, 0.0, 5.017809, 4.986964 
3.435124e+2, 1.2647243e+2, -1659059.9, -1708930.0, -695.72925, -0.008888766, 0.050062165, -1659050.1, 41537.715, 0.0, 5.017694, 4.985213 
3.435132e+2, 1.3145536e+2, -1610530.3, -1660179.9, -794.81946, -0.0031233658, 0.026379982, -1610517.5, 41234.184, 0.0, 5.017549, 4.9852114 
3.43514e+2, 1.364383e+2, -1564197.6, -1615948.4, -893.18225, 0.0027191804, 0.0039928127, -1564182.1, 38733.695, 0.0, 5.0174036, 4.983711 
3.4351408e+2, 1.4141914e+2, -1522705.5, -1581747.1, -2006.0427, 0.007260295, 0.0044699376, -1522637.4, 31463.648, 0.0, 5.0172596, 4.9788094 
3.435128e+2, 1.4639844e+2, -1473846.1, -1532443.1, -2241.1836, 0.007595121, 0.0052336864, -1473760.5, 31543.027, 0.0, 5.017123, 4.9789624 
3.4351146e+2, 1.513777e+2, -1425210.5, -1483603.6, -2311.444, 0.007700884, 0.005436043, -1425119.1, 31387.248, 0.0, 5.0169873, 4.9789615 
3.4351015e+2, 1.5635693e+2, -1377996.9, -1437731.8, -2381.5103, 0.007819028, 0.0060845627, -1377902.0, 29807.31, 0.0, 5.016851, 4.9779677 
3.4350833e+2, 1.6133241e+2, -1337009.4, -1404777.6, -3361.0564, 0.008087555, 0.010568981, -1336843.0, 22105.543, 0.0, 5.0166864, 4.972664 
3.4350562e+2, 1.6630502e+2, -1288270.4, -1355367.1, -3615.2917, 0.008633867, 0.0055999975, -1288076.1, 22138.688, 0.0, 5.0164614, 4.972873 
3.4350288e+2, 1.7127764e+2, -1239831.6, -1306581.5, -3670.0325, 0.009198224, 0.0006185692, -1239630.5, 21850.254, 0.0, 5.016234, 4.9728737 
3.435001e+2, 1.7625028e+2, -1192524.3, -1260195.0, -3725.3357, 0.009773628, -0.003963876, -1192319.8, 20426.84, 0.0, 5.016006, 4.9720664 
3.4349704e+2, 1.8121956e+2, -1152287.9, -1228859.0, -4473.509, 0.010796111, 0.0001384922, -1152027.4, 12018.647, 0.0, 5.015782, 4.9661655 
3.434933e+2, 1.8618603e+2, -1103355.9, -1179198.9, -4649.9844, 0.01296416, -0.0017140657, -1103071.8, 12303.013, 0.0, 5.0155716, 4.966426 
3.434896e+2, 1.9115253e+2, -1054780.5, -1130309.3, -4655.522, 0.01520367, -0.0037138686, -1054494.6, 12208.909, 0.0, 5.0153623, 4.9664254 
3.4348583e+2, 1.9611904e+2, -1007092.7, -1083331.9, -4660.571, 0.017453156, -0.005437399, -1006808.9, 11223.247, 0.0, 5.015153, 4.9657745 
3.4348193e+2, 2.010822e+2, -966667.6, -1051866.4, -4745.485, 0.018439395, 0.00024757755, -966404.1, 2988.6377, 0.0, 5.0149126, 4.959837 
3.4347758e+2, 2.0604241e+2, -917707.8, -1001649.44, -4778.1846, 0.015677243, -0.0031093794, -917436.7, 3344.0598, 0.0, 5.014587, 4.960315 
3.4347317e+2, 2.1100263e+2, -869407.2, -952844.6, -4797.0347, 0.012693771, -0.006947565, -869132.25, 3036.1382, 0.0, 5.014256, 4.9603157 
3.434688e+2, 2.1596289e+2, -821766.3, -905488.5, -4816.089, 0.009721665, -0.010643622, -821490.2, 2065.862, 0.0, 5.013925, 4.9598165 
3.4346473e+2, 2.2091989e+2, -782947.2, -877484.5, -4378.481, 0.008173865, -0.0022560796, -782744.8, -7767.218, 0.0, 5.013594, 4.952649 
3.4346154e+2, 2.2587381e+2, -734284.9, -827850.8, -4101.4077, 0.011072378, 0.0043521128, -734105.44, -7669.312, 0.0, 5.01323, 4.9529037 
3.434584e+2, 2.3082772e+2, -685965.5, -778972.56, -3907.0322, 0.0143206725, 0.010233343, -685801.6, -7906.3193, 0.0, 5.0128593, 4.9529095 
3.4345523e+2, 2.3578157e+2, -638288.5, -731537.1, -3704.688, 0.017544532, 0.015649341, -638141.56, -8786.63, 0.0, 5.012488, 4.952413 
3.4345233e+2, 2.4073182e+2, -598352.94, -701921.8, -2679.4983, 0.02042596, 0.03003801, -598283.7, -17437.432, 0.0, 5.0122347, 4.945638 
3.4345093e+2, 2.4567725e+2, -546797.4, -648841.25, -1853.583, 0.019898154, 0.014268023, -546763.75, -14391.605, 0.0, 5.0124416, 4.9467854 
3.4344968e+2, 2.5062254e+2, -496647.4, -599187.75, -1885.1741, 0.01904254, -0.005137514, -496612.75, -12714.458, 0.0, 5.0126834, 4.9467616 
3.434483e+2, 2.55568e+2, -446751.5, -550106.9, -1922.9606, 0.018405346, -0.02248664, -446715.75, -11293.055, 0.0, 5.012918, 4.94654 
3.4344834e+2, 2.6050955e+2, -410471.2, -531993.8, -1224.1901, 0.029962214, -0.01633452, -410458.84, -23464.898, 0.0, 5.0131783, 4.9351735 
3.4344807e+2, 2.6545176e+2, -358850.4, -477767.56, 349.3216, 0.03957994, 0.005649609, -358849.38, -20255.213, 0.0, 5.012856, 4.936434 
3.4344628e+2, 2.7039385e+2, -309033.66, -428032.5, 2643.088, 0.04174342, 0.011117614, -308974.97, -18775.873, 0.0, 5.0123787, 4.9366565 
3.4344348e+2, 2.7533475e+2, -259093.28, -378609.94, 5318.6685, 0.04059017, -0.0038681177, -258857.05, -17041.234, 0.0, 5.011872, 4.9368315 
3.434539e+2, 2.8027782e+2, -245151.44, -401694.7, 24580.01, 0.07530149, 0.1653027, -241382.69, -47978.95, 0.0, 5.0116615, 4.9119873 
3.4345692e+2, 2.8521395e+2, -176118.69, -288219.66, 4218.589, 0.070045605, 0.2636512, -175960.17, -30935.988, 0.0, 5.0107665, 4.9338284 
3.434464e+2, 2.901412e+2, -130211.09, -240508.81, 234.60641, 0.029609373, 0.18216676, -130210.6, -33483.54, 0.0, 5.0095115, 4.9335876 
3.4343466e+2, 2.9506657e+2, -84142.77, -192905.7, -3164.5142, -0.008439072, 0.07785817, -84050.78, -35602.08, 0.0, 5.0081553, 4.9333477 
3.4342313e+2, 3.000045e+2, -30472.012, -95826.086, -1734.9177, -0.026144443, -0.027452102, -30425.988, -30375.88, 0.0, 5.006965, 4.9599733 
3.4340417e+2, 3.049797e+2, -26160.578, -79729.85, 2277.6443, -0.0777276, 0.02572556, -26063.912, -26063.912, 0.0, 5.006188, 4.964673 
3.4337905e+2, 3.099672e+2, -24873.648, -70490.64, 2940.0574, -0.15964285, 0.13820064, -24684.94, -24684.94, 0.0, 5.0052247, 4.967855 
3.433505e+2, 3.149605e+2, -23200.229, -61641.17, 3779.2441, -0.24824247, 0.26925525, -22832.203, -22832.203, 0.0, 5.0041504, 4.971039 
3.4853032e+2, 1.2148104e+2, -1705386.8, -1753043.9, 1215.4543, -0.0028179071, -0.0006875084, -1705355.9, 44147.934, 0.0, 5.0178046, 4.9867487 
3.4853032e+2, 1.2647118e+2, -1659245.0, -1709285.3, -810.2935, -0.0065153223, 0.04913574, -1659231.9, 41368.824, 0.0, 5.0176897, 4.985099 
3.485309e+2, 1.3145408e+2, -1610712.4, -1660534.3, -907.4452, -0.001873412, 0.026208049, -1610695.9, 41069.184, 0.0, 5.017545, 4.985097 
3.4853142e+2, 1.3643697e+2, -1564375.4, -1616299.5, -1003.3627, 0.0028133958, 0.004567598, -1564356.0, 38573.566, 0.0, 5.0174007, 4.983597 
3.4853128e+2, 1.4141777e+2, -1522846.0, -1582027.8, -2114.4995, 0.006512727, 0.0054840613, -1522770.5, 31344.705, 0.0, 5.0172577, 4.9787173 
3.4852985e+2, 1.4639696e+2, -1473975.0, -1532701.9, -2344.3823, 0.006708142, 0.006138263, -1473881.6, 31436.96, 0.0, 5.017122, 4.978877 
3.485284e+2, 1.5137611e+2, -1425338.8, -1483861.4, -2413.9534, 0.0066941455, 0.006221725, -1425239.4, 31282.965, 0.0, 5.016986, 4.9788766 
3.485269e+2, 1.5635526e+2, -1378123.9, -1437987.5, -2483.154, 0.0066862954, 0.0067511364, -1378021.0, 29705.09, 0.0, 5.0168495, 4.9778833 
3.485249e+2, 1.6133066e+2, -1337106.6, -1404976.5, -3522.1816, 0.0068063955, 0.0110719595, -1336924.4, 22041.807, 0.0, 5.0166855, 4.972598 
3.4852195e+2, 1.6630317e+2, -1288367.6, -1355568.9, -3789.3784, 0.007153982, 0.005983364, -1288154.6, 22078.463, 0.0, 5.016461, 4.972806 
3.485189e+2, 1.7127572e+2, -1239928.3, -1306782.9, -3843.3574, 0.0075079035, 0.0008988634, -1239708.0, 21791.75, 0.0, 5.0162334, 4.972806 
3.4851593e+2, 1.7624828e+2, -1192620.1, -1260396.1, -3897.872, 0.007863907, -0.0037853508, -1192396.6, 20369.7, 0.0, 5.016006, 4.9719987 
3.4851256e+2, 1.8121749e+2, -1152314.3, -1228911.5, -4639.0474, 0.008388841, 0.00021500104, -1152034.4, 12031.938, 0.0, 5.015781, 4.966148 
3.4850854e+2, 1.8618396e+2, -1103363.9, -1179208.5, -4807.3496, 0.009310136, -0.0016996969, -1103060.4, 12334.455, 0.0, 5.0155706, 4.966423 
3.4850445e+2, 1.9115046e+2, -1054789.9, -1130318.0, -4811.293, 0.010245317, -0.0037488916, -1054484.6, 12238.589, 0.0, 5.015361, 4.9664235 
3.485004e+2, 1.9611694e+2, -1007103.6, -1083339.6, -4814.7256, 0.011173915, -0.0055143777, -1006800.75, 11250.89, 0.0, 5.0151505, 4.965773 
3.4849623e+2, 2.0108007e+2, -966668.9, -1051859.4, -4977.5073, 0.0117219, -0.00024537861, -966379.06, 3033.4507, 0.0, 5.014911, 4.9598403 
3.484917e+2, 2.0604019e+2, -917732.9, -1001698.06, -5033.0825, 0.010893242, -0.004354552, -917432.25, 3369.4814, 0.0, 5.014586, 4.9602995 
3.4848717e+2, 2.1100034e+2, -869431.94, -952893.5, -5049.402, 0.009952639, -0.0088789845, -869127.56, 3063.0505, 0.0, 5.0142555, 4.9602995 
3.4848264e+2, 2.1596049e+2, -821790.8, -905537.6, -5065.8994, 0.00900635, -0.0132507635, -821485.5, 2093.9785, 0.0, 5.0139246, 4.9598002 
3.4847838e+2, 2.2091751e+2, -782687.9, -876900.44, -4641.4185, 0.0082668215, -0.00538505, -782459.75, -7458.777, 0.0, 5.0135922, 4.9528503 
3.4847456e+2, 2.2587177e+2, -733967.75, -827096.2, -4354.0522, 0.008374489, 0.0022601548, -733764.6, -7309.4233, 0.0, 5.0132217, 4.953167 
3.4847078e+2, 2.3082605e+2, -685664.0, -778209.06, -4149.1255, 0.00853301, 0.009454028, -685478.3, -7568.675, 0.0, 5.012846, 4.953178 
3.4846696e+2, 2.3578028e+2, -638002.56, -730764.7, -3936.197, 0.008606865, 0.016227495, -637835.8, -8471.425, 0.0, 5.0124693, 4.952687 
3.484636e+2, 2.4073079e+2, -598170.2, -701118.06, -2576.7317, 0.008694889, 0.029993823, -598105.75, -17252.527, 0.0, 5.0121794, 4.945929 
3.4846225e+2, 2.4567634e+2, -546858.56, -648494.6, -1662.9664, 0.007007535, 0.013977391, -546831.4, -14450.649, 0.0, 5.012374, 4.9469213 
3.4846106e+2, 2.5062183e+2, -496691.47, -598842.44, -1683.4899, 0.0050924257, -0.004665768, -496663.72, -12755.469, 0.0, 5.012622, 4.946894 
3.4845975e+2, 2.5556746e+2, -446778.5, -549762.9, -1710.2168, 0.0033241531, -0.02119308, -446750.13, -11316.124, 0.0, 5.0128627, 4.9466686 
3.4845942e+2, 2.6051e+2, -408326.9, -526253.56, -1054.1278, 0.009847367, -0.013671583, -408317.5, -21320.676, 0.0, 5.0130563, 4.9372344 
3.484583e+2, 2.6545492e+2, -356589.56, -469810.47, 930.84436, 0.005354632, 0.013525947, -356581.9, -18019.863, 0.0, 5.0124774, 4.939404 
3.4845564e+2, 2.7040023e+2, -307385.9, -419525.5, 3606.7705, -0.008585247, 0.027018825, -307270.03, -17144.102, 0.0, 5.011748, 4.939876 
3.4845188e+2, 2.7534488e+2, -258059.48, -369552.0, 6663.768, -0.027746363, 0.02267119, -257662.61, -15966.036, 0.0, 5.0109887, 4.9403005 
3.4845972e+2, 2.802893e+2, -239295.73, -391208.1, 21039.38, -0.0043527377, 0.1642574, -236435.69, -43171.68, 0.0, 5.012035, 4.9157143 
3.484618e+2, 2.8522193e+2, -173903.47, -293753.6, 2380.6858, 0.0087720435, 0.23388194, -173856.2, -28936.043, 0.0, 5.012129, 4.931946 
3.4845188e+2, 2.9014674e+2, -128520.195, -245068.7, -1153.4618, -0.014197704, 0.15295836, -128508.78, -31859.0, 0.0, 5.010638, 4.9320445 
3.4844065e+2, 2.9506984e+2, -82977.86, -196493.84, -4101.9585, -0.038100343, 0.048811387, -82829.83, -34434.27, 0.0, 5.009047, 4.932144 
3.484291e+2, 3.0000755e+2, -26584.65, -89987.09, -2772.3447, -0.048561115, -0.051616095, -26463.658, -26463.658, 0.0, 5.007516, 4.9621654 
3.4840977e+2, 3.0498493e+2, -22827.0, -71966.08, 1777.115, -0.10006797, 0.008365271, -22762.814, -22762.814, 0.0, 5.006266, 4.9679875 
3.4838432e+2, 3.099747e+2, -23229.555, -64339.316, 3515.935, -0.18641147, 0.1368844, -22931.02, -22931.02, 0.0, 5.00491, 4.970882 
3.4835514e+2, 3.1497106e+2, -23247.787, -57096.95, 5432.092, -0.28656384, 0.29852027, -22397.412, -22397.412, 0.0, 5.0034413, 4.9737782 
3.535485e+2, 1.21480264e+2, -1705673.0, -1753597.8, 1288.0693, 0.00027767612, 0.0018467993, -1705638.4, 43873.7, 0.0, 5.0178, 4.986569 
3.535483e+2, 1.2646995e+2, -1659431.3, -1709639.5, -924.28766, -0.004109692, 0.04826466, -1659414.3, 41199.36, 0.0, 5.0176854, 4.9849844 
3.5354856e+2, 1.3145281e+2, -1610895.5, -1660887.8, -1019.50085, -0.000593941, 0.026075166, -1610874.8, 40903.594, 0.0, 5.017542, 4.984982 
3.5354882e+2, 1.3643566e+2, -1564554.1, -1616649.8, -1112.9717, 0.0029344622, 0.0051651397, -1564530.4, 38412.805, 0.0, 5.0173974, 4.9834824 
3.5354847e+2, 1.4141639e+2, -1522990.8, -1582316.1, -2221.87, 0.0057734624, 0.006514497, -1522907.8, 31221.74, 0.0, 5.0172563, 4.978623 
3.535469e+2, 1.4639547e+2, -1474104.4, -1532960.3, -2447.7036, 0.005823816, 0.007049739, -1474002.8, 31330.88, 0.0, 5.0171204, 4.978792 
3.5354525e+2, 1.5137455e+2, -1425467.3, -1484118.9, -2516.585, 0.0056889793, 0.0070023728, -1425359.5, 31178.668, 0.0, 5.0169845, 4.978791 
3.5354364e+2, 1.5635358e+2, -1378251.3, -1438243.0, -2584.92, 0.005554055, 0.0074007427, -1378140.0, 29602.852, 0.0, 5.016848, 4.9777985 
3.5354146e+2, 1.6132888e+2, -1337207.6, -1405182.8, -3682.3232, 0.005521922, 0.011598629, -1337008.8, 21974.943, 0.0, 5.016685, 4.9725294 
3.5353827e+2, 1.6630132e+2, -1288465.3, -1355770.5, -3963.3694, 0.00567084, 0.006394315, -1288232.6, 22018.803, 0.0, 5.0164604, 4.9727383 
3.53535e+2, 1.712738e+2, -1240025.1, -1306984.3, -4016.5864, 0.005815779, 0.0011945408, -1239785.0, 21733.809, 0.0, 5.016233, 4.9727383 
3.5353178e+2, 1.7624627e+2, -1192716.3, -1260597.1, -4070.3125, 0.0059538353, -0.003603642, -1192473.0, 20313.107, 0.0, 5.0160055, 4.971931 
3.5352814e+2, 1.8121544e+2, -1152345.9, -1228974.5, -4805.0054, 0.0059816553, 0.00030141734, -1152045.8, 12040.7295, 0.0, 5.0157804, 4.966127 
3.5352373e+2, 1.8618189e+2, -1103372.4, -1179217.8, -4965.4536, 0.0056497217, -0.0016965452, -1103048.6, 12366.228, 0.0, 5.015569, 4.96642 
3.5351935e+2, 1.9114836e+2, -1054799.9, -1130326.4, -4967.8027, 0.0052745654, -0.0038257942, -1054474.5, 12268.603, 0.0, 5.015359, 4.966421 
3.5351494e+2, 1.9611484e+2, -1007114.94, -1083347.1, -4969.619, 0.0048762686, -0.0056638927, -1006792.3, 11278.864, 0.0, 5.0151486, 4.965771 
3.5351047e+2, 2.0107794e+2, -966686.8, -1051887.5, -5208.2935, 0.005006318, -0.00064394256, -966369.56, 3062.5977, 0.0, 5.0149097, 4.959831 
3.5350582e+2, 2.0603798e+2, -917758.3, -1001746.44, -5288.027, 0.0061141914, -0.0054824147, -917426.7, 3395.917, 0.0, 5.014585, 4.9602833 
3.535012e+2, 2.1099803e+2, -869457.1, -952942.1, -5301.816, 0.0072120945, -0.010750616, -869121.8, 3090.978, 0.0, 5.0142546, 4.9602833 
3.5349652e+2, 2.159581e+2, -821815.75, -905586.56, -5315.7563, 0.008287259, -0.015855625, -821479.8, 2123.0984, 0.0, 5.013924, 4.9597836 
3.5349196e+2, 2.2091511e+2, -782446.8, -876353.6, -4907.2524, 0.008364712, -0.008484074, -782191.1, -7166.792, 0.0, 5.01359, 4.9530377 
3.5348755e+2, 2.2586972e+2, -733652.7, -826340.3, -4614.3765, 0.005622615, 0.00001844274, -733423.5, -6949.2197, 0.0, 5.013214, 4.953428 
3.5348308e+2, 2.3082435e+2, -685364.56, -777444.3, -4398.9004, 0.0026270617, 0.008276676, -685154.9, -7230.747, 0.0, 5.0128326, 4.953444 
3.534786e+2, 2.3577899e+2, -637718.7, -729990.9, -4175.39, -0.00051337556, 0.016159387, -637530.1, -8155.989, 0.0, 5.01245, 4.952958 
3.534748e+2, 2.4072981e+2, -598093.2, -700528.4, -2520.7954, -0.0031148754, 0.030658256, -598031.2, -17171.646, 0.0, 5.0121245, 4.9461427 
3.5347348e+2, 2.4567555e+2, -546931.5, -648136.56, -1471.3827, -0.005853944, 0.014969862, -546910.1, -14521.866, 0.0, 5.012306, 4.947056 
3.5347238e+2, 2.506212e+2, -496747.28, -598485.6, -1480.8411, -0.008783695, -0.0031974562, -496725.72, -12808.382, 0.0, 5.0125604, 4.9470253 
3.5347113e+2, 2.5556704e+2, -446817.25, -549407.4, -1496.5104, -0.01163822, -0.019189458, -446795.44, -11350.823, 0.0, 5.0128074, 4.946796 
3.5347056e+2, 2.6051006e+2, -406602.97, -521367.84, -1106.2377, -0.00887305, -0.01265239, -406592.3, -19589.145, 0.0, 5.0129337, 4.93895 
3.5346812e+2, 2.654573e+2, -354385.56, -461826.75, 1134.3861, -0.029228838, 0.011672861, -354373.6, -15836.021, 0.0, 5.0120993, 4.9422603 
3.53464e+2, 2.7040562e+2, -305793.44, -410991.97, 4191.8804, -0.06201875, 0.025100445, -305626.7, -15563.8545, 0.0, 5.0111175, 4.942982 
3.5345876e+2, 2.7535376e+2, -257079.45, -360467.63, 7629.5815, -0.10193431, 0.023306135, -256519.45, -14929.64, 0.0, 5.0101066, 4.9436564 
3.5346597e+2, 2.8030097e+2, -237984.02, -391174.84, 19186.922, -0.080895476, 0.16883938, -235617.44, -42495.297, 0.0, 5.0124154, 4.9157777 
3.5346857e+2, 2.852313e+2, -171845.55, -299142.94, -59.045162, -0.043844376, 0.23319799, -171845.52, -27042.973, 0.0, 5.013492, 4.929976 
3.5345882e+2, 2.9015335e+2, -126986.266, -249481.72, -3143.3445, -0.052920796, 0.14499633, -126905.66, -30344.334, 0.0, 5.011766, 4.930414 
3.5344768e+2, 2.9507405e+2, -81969.62, -199932.92, -5641.3667, -0.06625183, 0.03317071, -81700.445, -33366.758, 0.0, 5.009939, 4.9308534 
3.5343608e+2, 3.0000973e+2, -23799.002, -86191.22, -3984.2039, -0.0677167, -0.07908335, -23545.61, -23545.61, 0.0, 5.008067, 4.9635043 
3.534167e+2, 3.0498746e+2, -19672.666, -64041.383, 1598.0342, -0.10639418, -0.040791087, -19615.184, -19615.184, 0.0, 5.0063443, 4.971056 
3.5339108e+2, 3.099785e+2, -21764.793, -58021.6, 4412.474, -0.18526226, 0.077842385, -21235.518, -21235.518, 0.0, 5.0045953, 4.973662 
3.5336152e+2, 3.1497687e+2, -23476.58, -52381.47, 7405.9004, -0.28506243, 0.2441273, -21689.55, -21689.55, 0.0, 5.0027323, 4.9762707 
3.585666e+2, 1.2147945e+2, -1705875.0, -1754035.6, 1428.3766, 0.0035604776, 0.0040179132, -1705832.8, 43687.887, 0.0, 5.017806, 4.986423 
3.5856622e+2, 1.2646873e+2, -1659535.9, -1709966.9, -983.30927, -0.0016406614, 0.04756745, -1659516.6, 41109.633, 0.0, 5.0177097, 4.9848657 
3.5856625e+2, 1.3145155e+2, -1610938.6, -1661183.3, -1098.2349, 0.00071333174, 0.02603326, -1610914.6, 40876.805, 0.0, 5.0175858, 4.9848638 
3.5856625e+2, 1.3643435e+2, -1564553.3, -1616920.1, -1207.4408, 0.0030610282, 0.005771113, -1564525.4, 38431.324, 0.0, 5.0174556, 4.9833655 
3.585657e+2, 1.4141501e+2, -1522955.8, -1582523.8, -2322.9731, 0.005017533, 0.007505412, -1522865.3, 31278.465, 0.0, 5.017316, 4.9785256 
3.5856393e+2, 1.46394e+2, -1474094.8, -1533151.3, -2543.8965, 0.0049272724, 0.0079243835, -1473985.4, 31363.377, 0.0, 5.0171657, 4.9787073 
3.5856217e+2, 1.5137295e+2, -1425506.1, -1484332.6, -2609.26, 0.004685014, 0.007747561, -1425390.5, 31163.586, 0.0, 5.017013, 4.978707 
3.5856038e+2, 1.563519e+2, -1378341.0, -1438479.8, -2673.279, 0.0044405144, 0.008015524, -1378222.4, 29537.295, 0.0, 5.016859, 4.9777145 
3.5855806e+2, 1.6132712e+2, -1337328.8, -1405404.3, -3824.7292, 0.0042678295, 0.012138208, -1337114.5, 21886.72, 0.0, 5.016679, 4.972458 
3.5855457e+2, 1.6629948e+2, -1288627.4, -1356004.0, -4123.6875, 0.0042236703, 0.0068245325, -1288375.9, 21893.775, 0.0, 5.0164385, 4.9726706 
3.5855108e+2, 1.7127188e+2, -1240238.1, -1307242.4, -4179.916, 0.0041731712, 0.0014985636, -1239978.4, 21559.467, 0.0, 5.0161934, 4.97267 
3.5854757e+2, 1.7624427e+2, -1192985.1, -1260881.9, -4236.546, 0.004113815, -0.0034261472, -1192721.8, 20084.184, 0.0, 5.015947, 4.971863 
3.5854366e+2, 1.8121338e+2, -1152620.8, -1229165.4, -4970.223, 0.0036695783, 0.00038963265, -1152299.4, 11807.441, 0.0, 5.0156994, 4.9661007 
3.58539e+2, 1.8617982e+2, -1103704.9, -1179387.3, -5134.554, 0.0021095916, -0.00170767, -1103358.1, 12076.817, 0.0, 5.0154586, 4.966415 
3.5853425e+2, 1.9114627e+2, -1055232.4, -1130542.0, -5148.16, 0.00046316165, -0.0039469134, -1054882.1, 11880.853, 0.0, 5.0152135, 4.966416 
3.5852948e+2, 1.9611274e+2, -1007659.94, -1083614.1, -5162.332, -0.0012095657, -0.0058928723, -1007310.6, 10780.227, 0.0, 5.0149636, 4.965766 
3.5852474e+2, 2.0107582e+2, -967332.5, -1052239.1, -5480.8076, -0.001455937, -0.00096239144, -966980.1, 2471.767, 0.0, 5.0146976, 4.95981 
3.5851997e+2, 2.0603576e+2, -918360.4, -1002064.1, -5587.66, 0.0014961604, -0.0064794812, -917989.0, 2854.4941, 0.0, 5.0143847, 4.9602675 
3.5851517e+2, 2.1099573e+2, -870027.7, -953244.2, -5601.2993, 0.004540344, -0.012525327, -869652.3, 2582.5845, 0.0, 5.0140643, 4.960267 
3.5851038e+2, 2.159557e+2, -822366.1, -905878.1, -5613.7344, 0.0075585716, -0.018406993, -821990.44, 1635.8772, 0.0, 5.0137405, 4.9597673 
3.5850555e+2, 2.2091274e+2, -782748.4, -876104.9, -5236.766, 0.008442164, -0.011497126, -782455.56, -7407.8364, 0.0, 5.0134077, 4.9532056 
3.5850048e+2, 2.2586764e+2, -733897.8, -825877.4, -5001.2246, 0.002938379, -0.0023158751, -733626.6, -7133.031, 0.0, 5.013016, 4.953675 
3.5849538e+2, 2.3082264e+2, -685720.9, -777023.8, -4846.221, -0.0030536575, 0.006720238, -685464.4, -7525.2993, 0.0, 5.0125966, 4.9536934 
3.5849026e+2, 2.3577759e+2, -638250.75, -729641.25, -4693.934, -0.009185233, 0.015383589, -638010.25, -8625.584, 0.0, 5.012153, 4.9532104 
3.5848597e+2, 2.4072883e+2, -599187.9, -700724.44, -2887.046, -0.014048827, 0.03185858, -599105.8, -18239.836, 0.0, 5.0117006, 4.946258 
3.5848475e+2, 2.4567476e+2, -548722.0, -648658.06, -1798.7499, -0.0174092, 0.01721217, -548689.6, -16293.971, 0.0, 5.0116453, 4.9471617 
3.584837e+2, 2.5062054e+2, -499228.4, -599332.06, -1943.4354, -0.020911282, -0.0006094774, -499190.7, -15264.098, 0.0, 5.011657, 4.9471264 
3.5848257e+2, 2.555665e+2, -449997.97, -550579.75, -2098.7446, -0.02433204, -0.016228728, -449954.2, -14498.489, 0.0, 5.011658, 4.946893 
3.5848185e+2, 2.605096e+2, -409867.9, -520080.78, -2703.669, -0.022961974, -0.012652415, -409801.63, -22786.895, 0.0, 5.0112944, 4.9400787 
3.5847783e+2, 2.6545823e+2, -361584.16, -459651.16, -2788.0984, -0.056024857, 0.0012084802, -361504.97, -22977.973, 0.0, 5.0086045, 4.944432 
3.5847208e+2, 2.7040842e+2, -320629.8, -411966.38, -2820.8987, -0.10303707, 0.0053049396, -320542.78, -30518.168, 0.0, 5.004907, 4.9452095 
3.5846514e+2, 2.753586e+2, -281660.28, -365455.16, -3395.2542, -0.15699205, -0.004882817, -281522.94, -40000.395, 0.0, 5.000421, 4.945943 
3.5847375e+2, 2.8030887e+2, -275792.13, -416069.9, 4667.5947, -0.12248799, 0.17104486, -275636.97, -82619.914, 0.0, 5.0004935, 4.9123445 
3.58478e+2, 2.8523898e+2, -194168.56, -312276.94, -13031.378, -0.0666108, 0.25497144, -192747.84, -48046.89, 0.0, 5.006032, 4.9285984 
3.5846776e+2, 2.9015929e+2, -138452.67, -257478.02, -12456.395, -0.07498642, 0.15539396, -137163.05, -40682.81, 0.0, 5.008167, 4.929128 
3.5845605e+2, 2.950782e+2, -86031.22, -204326.56, -12328.364, -0.087648846, 0.03192611, -84760.055, -36487.414, 0.0, 5.0089936, 4.929661 
3.5844427e+2, 3.0001086e+2, -22931.158, -85324.74, -9213.641, -0.08134211, -0.10495358, -21599.023, -21599.023, 0.0, 5.0083957, 4.9636407 
3.5842538e+2, 3.0498642e+2, -19588.328, -58520.84, -3851.8628, -0.090993956, -0.12012107, -19210.895, -19210.895, 0.0, 5.005494, 4.9732113 
3.584003e+2, 3.0997625e+2, -30945.969, -57107.203, -896.57263, -0.1404137, -0.051963124, -30915.277, -30915.277, 0.0, 5.0005527, 4.9755373 
3.5837126e+2, 3.1497335e+2, -47208.863, -58225.016, 3216.6765, -0.21192172, 0.067852296, -46338.39, -46338.39, 0.0, 4.993609, 4.97787 
3.635852e+2, 1.2147846e+2, -1703564.1, -1753199.8, 1507.9135, 0.006807127, 0.0020278692, -1703518.4, 46011.816, 0.0, 5.0186296, 4.9862967 
3.6358464e+2, 1.2646803e+2, -1657342.5, -1709281.4, -904.4319, 0.0011975068, 0.049962856, -1657326.8, 43306.594, 0.0, 5.018516, 4.9847 
3.6358437e+2, 1.3145056e+2, -1608692.0, -1660466.5, -1050.0039, 0.0018320761, 0.027303085, -1608670.8, 43130.684, 0.0, 5.0184116, 4.9847007 
3.635841e+2, 1.3643308e+2, -1562233.0, -1616159.6, -1192.526, 0.0024733678, 0.0059123402, -1562206.6, 40762.984, 0.0, 5.0183063, 4.983206 
3.6358327e+2, 1.4141352e+2, -1520551.5, -1581559.5, -2370.9036, 0.0032330484, 0.0068990565, -1520459.5, 33699.184, 0.0, 5.018163, 4.978435 
3.6358133e+2, 1.4639246e+2, -1471895.9, -1532247.8, -2591.9607, 0.0031444174, 0.0074903737, -1471784.8, 33579.207, 0.0, 5.0179377, 4.9786353 
3.6357936e+2, 1.5137137e+2, -1423540.6, -1483544.5, -2647.6895, 0.0029677965, 0.007523962, -1423424.0, 33145.65, 0.0, 5.017709, 4.978635 
3.6357743e+2, 1.5635027e+2, -1376602.8, -1437802.1, -2702.4836, 0.0027984823, 0.008000577, -1376483.6, 31291.684, 0.0, 5.017479, 4.977644 
3.6357483e+2, 1.6132544e+2, -1335860.5, -1404872.6, -3917.2798, 0.0027178759, 0.012262186, -1335638.8, 23378.502, 0.0, 5.0172124, 4.9723806 
3.6357108e+2, 1.6629772e+2, -1287506.0, -1355659.0, -4252.122, 0.0028413455, 0.006870049, -1287241.6, 23045.008, 0.0, 5.0168595, 4.9725857 
3.635673e+2, 1.7127e+2, -1239448.3, -1307059.3, -4327.958, 0.0029835363, 0.0014498163, -1239172.4, 22383.39, 0.0, 5.016503, 4.972585 
3.635635e+2, 1.762423e+2, -1192519.4, -1260856.1, -4404.0317, 0.0031358378, -0.0035718305, -1192236.8, 20588.12, 0.0, 5.0161457, 4.971778 
3.635593e+2, 1.8121132e+2, -1152436.3, -1229179.3, -5159.3477, 0.0026410124, 0.000007750343, -1152090.9, 12035.563, 0.0, 5.015782, 4.9660583 
3.6355418e+2, 1.8617767e+2, -1103915.1, -1179559.3, -5338.372, 0.00027790025, -0.0026055535, -1103540.3, 11914.821, 0.0, 5.0153985, 4.9663863 
3.6354905e+2, 1.9114405e+2, -1055847.9, -1130908.0, -5365.7134, -0.0021790958, -0.0053751054, -1055466.3, 11317.173, 0.0, 5.0150137, 4.966387 
3.635439e+2, 1.9611043e+2, -1008665.2, -1084165.9, -5392.399, -0.0046263966, -0.007859719, -1008282.0, 9829.653, 0.0, 5.0146284, 4.9657364 
3.6353877e+2, 2.0107345e+2, -968667.8, -1052983.1, -5729.805, -0.0054291035, -0.0031343906, -968280.2, 1192.829, 0.0, 5.014256, 4.959763 
3.6353362e+2, 2.0603342e+2, -919785.56, -1002871.25, -5889.1987, -0.0025423293, -0.008016681, -919370.2, 1494.9232, 0.0, 5.0139155, 4.9602094 
3.6352852e+2, 2.109934e+2, -871501.0, -954069.94, -5963.4556, 0.000495213, -0.0134065, -871072.5, 1184.5676, 0.0, 5.013577, 4.9602103 
3.635234e+2, 2.1595336e+2, -823876.44, -906717.44, -6037.9263, 0.0035443266, -0.018654652, -823438.6, 210.35773, 0.0, 5.0132375, 4.959711 
3.6351824e+2, 2.2091039e+2, -784070.7, -876464.94, -5745.986, 0.004440613, -0.011911259, -783714.7, -8644.083, 0.0, 5.0128865, 4.9533243 
3.6351278e+2, 2.2586526e+2, -735217.5, -826117.75, -5533.1597, -0.0012802377, -0.004755743, -734881.94, -8366.501, 0.0, 5.0124655, 4.9538503 
3.6350727e+2, 2.3082021e+2, -687066.56, -777298.6, -5376.1597, -0.0073255794, 0.0021092347, -686747.4, -8787.6, 0.0, 5.0120363, 4.9538617 
3.6350173e+2, 2.3577511e+2, -639557.6, -729920.7, -5211.7803, -0.0133008715, 0.008510113, -639258.0, -9853.556, 0.0, 5.0116057, 4.953371 
3.6349705e+2, 2.4072644e+2, -601003.3, -701737.6, -3452.3457, -0.017603619, 0.025124257, -600885.1, -20001.09, 0.0, 5.011041, 4.946231 
3.6349532e+2, 2.4567291e+2, -552762.06, -650921.94, -2465.8296, -0.02002517, 0.0166082, -552700.2, -20289.152, 0.0, 5.0102143, 4.9470553 
3.6349383e+2, 2.506192e+2, -505617.66, -602690.1, -2653.4343, -0.022397127, 0.004882993, -505545.16, -21605.45, 0.0, 5.009375, 4.9470143 
3.6349225e+2, 2.5556564e+2, -458706.38, -555011.8, -2841.552, -0.024439448, -0.004879711, -458622.6, -23155.727, 0.0, 5.008525, 4.946775 
3.634909e+2, 2.6050884e+2, -419095.28, -524096.47, -3538.4153, -0.02141789, -0.000045025692, -418976.16, -31951.02, 0.0, 5.0077085, 4.9403634 
3.6348596e+2, 2.654561e+2, -367139.1, -463081.88, -2467.552, -0.0473826, -0.0026234738, -367075.66, -28534.96, 0.0, 5.0061593, 4.944563 
3.6347944e+2, 2.7040386e+2, -320871.47, -415052.78, -138.78389, -0.08037853, -0.020670937, -320871.25, -30819.857, 0.0, 5.0044036, 4.944734 
3.6347187e+2, 2.7535045e+2, -274480.34, -367285.56, 2620.1326, -0.113643266, -0.057519373, -274406.4, -32833.29, 0.0, 5.0026054, 4.944857 
3.634793e+2, 2.8029796e+2, -269760.94, -412939.6, 16566.846, -0.05880489, 0.101463825, -267869.03, -74781.664, 0.0, 5.0023856, 4.9121475 
3.6348346e+2, 2.8523153e+2, -199813.33, -309648.0, -654.0154, -0.0243662, 0.20810366, -199809.44, -55064.44, 0.0, 5.0036654, 4.9294634 
3.6347407e+2, 2.9015526e+2, -148994.73, -259492.08, -4933.982, -0.053942487, 0.13187535, -148774.86, -52274.91, 0.0, 5.0041966, 4.9292946 
3.634634e+2, 2.950771e+2, -98047.94, -209486.13, -8526.392, -0.078593455, 0.03225471, -97399.336, -49126.035, 0.0, 5.0046015, 4.929127 
3.6345285e+2, 3.0001092e+2, -31311.354, -91707.63, -8809.855, -0.07332021, -0.091757104, -30052.521, -30052.521, 0.0, 5.005267, 4.962372 
3.6343622e+2, 3.0498305e+2, -15322.58, -59279.613, -7146.448, -0.05420835, -0.14822544, -14189.911, -14189.911, 0.0, 5.006428, 4.972188 
3.634142e+2, 3.0996686e+2, -10004.3, -50767.113, -8022.6084, -0.053785805, -0.15614046, -8482.191, -8482.191, 0.0, 5.007322, 4.9743934 
3.633888e+2, 3.149552e+2, -4469.7295, -42473.34, -8871.132, -0.05736254, -0.14621371, -2500.9465, -2500.9465, 0.0, 5.0080786, 4.9766016 
3.6860412e+2, 1.2147734e+2, -1703713.5, -1753470.1, 1308.5381, 0.009562289, -0.0021407555, -1703679.1, 45861.547, 0.0, 5.018625, 4.986209 
3.6860347e+2, 1.2646753e+2, -1657621.3, -1709816.3, -990.08, 0.0040680026, 0.053718127, -1657602.5, 43035.43, 0.0, 5.0185113, 4.9845257 
3.686029e+2, 1.3144968e+2, -1608967.9, -1661001.4, -1133.5321, 0.0028106314, 0.029136889, -1608943.1, 42866.703, 0.0, 5.0184073, 4.9845257 
3.6860234e+2, 1.3643184e+2, -1562504.1, -1616690.5, -1273.1776, 0.0015200932, 0.005821533, -1562474.3, 40507.793, 0.0, 5.0183024, 4.9830317 
3.686012e+2, 1.4141203e+2, -1520687.3, -1581826.5, -2525.795, 0.0009091686, 0.005554429, -1520583.1, 33590.58, 0.0, 5.0181613, 4.9783473 
3.6859903e+2, 1.4639093e+2, -1471999.0, -1532450.9, -2765.7395, 0.0008606991, 0.0064391256, -1471872.6, 33506.43, 0.0, 5.017936, 4.978568 
3.6859685e+2, 1.5136981e+2, -1423643.1, -1483747.4, -2820.8123, 0.0007819692, 0.0068292366, -1423511.0, 33073.707, 0.0, 5.017707, 4.978568 
3.685947e+2, 1.5634868e+2, -1376704.0, -1438002.8, -2874.6497, 0.0007039061, 0.007664405, -1376569.4, 31221.002, 0.0, 5.0174775, 4.9775777 
3.6859185e+2, 1.6132379e+2, -1335982.3, -1405126.0, -4168.9194, 0.0007820031, 0.012179585, -1335731.8, 23300.867, 0.0, 5.0172124, 4.972296 
3.685878e+2, 1.6629596e+2, -1287640.1, -1355942.0, -4525.0923, 0.0012795136, 0.0067162015, -1287341.6, 22961.354, 0.0, 5.0168595, 4.972491 
3.685837e+2, 1.7126817e+2, -1239581.8, -1307341.6, -4600.1055, 0.0017995368, 0.0012068081, -1239270.9, 22302.266, 0.0, 5.016503, 4.972491 
3.685796e+2, 1.7624035e+2, -1192652.0, -1261137.8, -4675.3105, 0.0023202603, -0.0039025748, -1192334.4, 20508.89, 0.0, 5.016146, 4.971683 
3.68575e+2, 1.8120927e+2, -1152502.3, -1229317.1, -5446.224, 0.0019050164, -0.00064386206, -1152118.0, 12027.857, 0.0, 5.0157814, 4.966012 
3.6856946e+2, 1.861755e+2, -1103963.4, -1179654.6, -5628.506, -0.0011595174, -0.0040664137, -1103547.1, 11927.984, 0.0, 5.0153975, 4.9663544 
3.6856383e+2, 1.9114175e+2, -1055897.8, -1131002.6, -5654.2417, -0.0043784915, -0.007647056, -1055474.4, 11329.576, 0.0, 5.015012, 4.966355 
3.6855826e+2, 1.9610803e+2, -1008716.75, -1084259.6, -5679.282, -0.0076064346, -0.010930435, -1008292.1, 9840.712, 0.0, 5.014626, 4.9657054 
3.6855268e+2, 2.01071e+2, -968767.1, -1053188.8, -6002.1504, -0.009217905, -0.006403119, -968342.5, 1152.1793, 0.0, 5.014255, 4.9596934 
3.685471e+2, 2.0603101e+2, -919907.94, -1003132.8, -6151.682, -0.0071159713, -0.009950491, -919455.7, 1431.3197, 0.0, 5.0139155, 4.9601207 
3.685416e+2, 2.1099102e+2, -871623.06, -954332.0, -6223.617, -0.0048726522, -0.013909211, -871157.4, 1121.7925, 0.0, 5.0135765, 4.9601207 
3.6853606e+2, 2.1595106e+2, -823998.2, -906980.06, -6295.7393, -0.002634303, -0.017711513, -823523.25, 148.04065, 0.0, 5.013237, 4.9596214 
3.6853048e+2, 2.2090806e+2, -783921.5, -876117.8, -6038.5176, -0.0021464918, -0.010958395, -783527.7, -8434.502, 0.0, 5.0128837, 4.953443 
3.685247e+2, 2.2586276e+2, -734985.6, -825541.2, -5826.9116, -0.0072367876, -0.0076298257, -734612.25, -8074.0557, 0.0, 5.0124555, 4.954051 
3.6851883e+2, 2.3081753e+2, -686857.06, -776723.06, -5660.1343, -0.012671172, -0.0046794275, -686502.0, -8519.399, 0.0, 5.012019, 4.9540653 
3.6851296e+2, 2.3577225e+2, -639370.4, -729345.94, -5485.939, -0.018100506, -0.0020807483, -639037.1, -9609.943, 0.0, 5.011582, 4.953578 
3.685078e+2, 2.4072371e+2, -601235.44, -701839.25, -3967.5977, -0.021942792, 0.014485581, -601079.25, -20174.44, 0.0, 5.0109773, 4.9462214 
3.6850524e+2, 2.4567099e+2, -553085.1, -651171.1, -3102.5222, -0.024406482, 0.014706644, -552987.06, -20561.135, 0.0, 5.010142, 4.946996 
3.6850286e+2, 2.506181e+2, -505898.13, -602911.4, -3274.572, -0.027020413, 0.011777699, -505787.75, -21838.732, 0.0, 5.0093155, 4.9469557 
3.6850032e+2, 2.5556535e+2, -458944.6, -555205.44, -3447.0994, -0.029417777, 0.0105965715, -458821.3, -23350.578, 0.0, 5.0084786, 4.946717 
3.6849788e+2, 2.6050898e+2, -417930.22, -520728.72, -4068.1038, -0.02901604, 0.016724624, -417769.5, -30744.686, 0.0, 5.0076017, 4.941567 
3.684913e+2, 2.6545593e+2, -365535.3, -456541.1, -2603.2844, -0.064764835, -0.010498431, -365460.9, -26927.996, 0.0, 5.0057487, 4.9469666 
3.68483e+2, 2.7040392e+2, -320104.44, -408113.25, 96.25, -0.11072814, -0.05166997, -320104.34, -30074.846, 0.0, 5.003684, 4.947368 
3.6847362e+2, 2.753514e+2, -274550.38, -359944.72, 3225.655, -0.159655, -0.10734877, -274428.72, -32897.59, 0.0, 5.001577, 4.9477215 
3.6847836e+2, 2.803004e+2, -268434.72, -413870.4, 15135.222, -0.12160033, 0.047242183, -266876.34, -73853.445, 0.0, 5.002888, 4.9118395 
3.684836e+2, 2.852337e+2, -196823.75, -315886.1, -915.3563, -0.06999759, 0.17076398, -196816.7, -52123.008, 0.0, 5.0053105, 4.9271617 
3.6847675e+2, 2.9015693e+2, -146871.8, -264817.0, -4693.5884, -0.07755389, 0.1109708, -146685.31, -50219.22, 0.0, 5.005499, 4.927355 
3.684685e+2, 2.950787e+2, -96790.45, -213899.72, -7784.021, -0.08435593, 0.029315986, -96275.33, -48022.703, 0.0, 5.005561, 4.927549 
3.6846024e+2, 3.000122e+2, -30209.563, -93102.87, -7761.2, -0.066820666, -0.08275028, -29265.967, -29265.967, 0.0, 5.0058517, 4.9619365 
3.6844638e+2, 3.0498317e+2, -14022.076, -57999.113, -5596.107, -0.036372244, -0.14962019, -13321.14, -13321.14, 0.0, 5.006696, 4.972913 
3.6842698e+2, 3.099666e+2, -9925.622, -51003.88, -5676.3203, -0.031070003, -0.15797667, -9155.683, -9155.683, 0.0, 5.0073395, 4.9747972 
3.684039e+2, 3.1495494e+2, -5610.8296, -44224.03, -5729.424, -0.038463786, -0.13756387, -4778.6333, -4778.6333, 0.0, 5.007846, 4.976684 
3.7362304e+2, 1.2147619e+2, -1703810.9, -1753631.5, 1104.5957, 0.012120025, -0.0065729283, -1703786.4, 45765.11, 0.0, 5.0186195, 4.986157 
3.7362224e+2, 1.2646703e+2, -1657901.4, -1710350.1, -1074.7682, 0.0069234655, 0.057512175, -1657879.3, 42763.195, 0.0, 5.018506, 4.984351 
3.736214e+2, 1.3144884e+2, -1609245.0, -1661535.0, -1216.1005, 0.0037810653, 0.030996261, -1609216.6, 42601.637, 0.0, 5.0184026, 4.98435 
3.7362054e+2, 1.3643062e+2, -1562776.5, -1617220.3, -1352.8672, 0.00056561123, 0.0057430808, -1562742.9, 40251.496, 0.0, 5.018298, 4.982857 
3.736191e+2, 1.4141054e+2, -1520827.1, -1582100.1, -2678.928, -0.0014146633, 0.0042226636, -1520710.1, 33478.613, 0.0, 5.0181594, 4.978257 
3.7361676e+2, 1.4638941e+2, -1472102.4, -1532653.9, -2939.4377, -0.0014246901, 0.0053942855, -1471960.0, 33434.188, 0.0, 5.017935, 4.9785013 
3.7361434e+2, 1.5136825e+2, -1423746.0, -1483949.9, -2993.8542, -0.001406127, 0.0061309934, -1423597.5, 33002.3, 0.0, 5.0177054, 4.978501 
3.7361196e+2, 1.5634708e+2, -1376805.5, -1438203.1, -3046.7346, -0.0013935363, 0.0073147896, -1376654.6, 31150.836, 0.0, 5.017476, 4.977511 
3.736089e+2, 1.6132215e+2, -1336108.8, -1405389.0, -4419.2236, -0.0011561846, 0.012120277, -1335828.0, 23219.898, 0.0, 5.017212, 4.9722085 
3.7360454e+2, 1.6629422e+2, -1287774.5, -1356225.0, -4798.144, -0.00028362055, 0.006587306, -1287439.9, 22879.457, 0.0, 5.01686, 4.9723964 
3.736001e+2, 1.7126632e+2, -1239715.4, -1307623.8, -4872.3345, 0.000615532, 0.0009753615, -1239367.6, 22222.898, 0.0, 5.016503, 4.972396 
3.7359568e+2, 1.762384e+2, -1192785.0, -1261419.1, -4946.671, 0.0015059747, -0.0042351456, -1192430.3, 20431.395, 0.0, 5.016146, 4.971588 
3.7359074e+2, 1.812072e+2, -1152571.9, -1229462.1, -5733.4824, 0.0011661296, -0.0012810213, -1152146.8, 12018.507, 0.0, 5.0157814, 4.965963 
3.7358472e+2, 1.8617332e+2, -1104012.0, -1179749.9, -5919.372, -0.002606465, -0.005527838, -1103552.1, 11942.919, 0.0, 5.0153966, 4.966322 
3.7357864e+2, 1.9113947e+2, -1055948.0, -1131096.9, -5943.503, -0.006591672, -0.009948168, -1055480.9, 11343.757, 0.0, 5.0150104, 4.9663234 
3.735726e+2, 1.9610563e+2, -1008768.7, -1084353.1, -5966.898, -0.01060451, -0.014058904, -1008300.56, 9853.529, 0.0, 5.0146236, 4.965674 
3.7356657e+2, 2.0106854e+2, -968883.4, -1053430.5, -6272.1167, -0.013023008, -0.009589679, -968420.6, 1095.652, 0.0, 5.014254, 4.9596114 
3.735606e+2, 2.060286e+2, -920030.7, -1003394.2, -6414.079, -0.011703208, -0.0117844995, -919540.06, 1368.7302, 0.0, 5.013915, 4.9600315 
3.7355465e+2, 2.1098867e+2, -871745.5, -954593.9, -6483.6924, -0.010250474, -0.014364956, -871241.2, 1060.0308, 0.0, 5.013576, 4.960031 
3.7354872e+2, 2.1594875e+2, -824120.3, -907242.5, -6553.466, -0.008819253, -0.016774226, -823606.8, 86.72421, 0.0, 5.013237, 4.9595313 
3.7354273e+2, 2.2090575e+2, -783785.75, -875796.5, -6331.985, -0.008737156, -0.009971878, -783352.06, -8236.315, 0.0, 5.0128813, 4.9535522 
3.735366e+2, 2.2586024e+2, -734756.3, -824962.75, -6125.1123, -0.013205816, -0.010612674, -734342.3, -7781.3237, 0.0, 5.0124454, 4.95425 
3.7353036e+2, 2.3081481e+2, -686650.1, -776145.56, -5948.56, -0.018032273, -0.011786778, -686256.44, -8250.938, 0.0, 5.0120025, 4.9542675 
3.7352413e+2, 2.3576938e+2, -639185.6, -728769.3, -5764.5522, -0.02291868, -0.01320017, -638816.25, -9366.12, 0.0, 5.011558, 4.953783 
3.7351853e+2, 2.4072102e+2, -601583.6, -702168.7, -4547.027, -0.026242362, 0.0045065447, -601378.5, -20453.53, 0.0, 5.010913, 4.946129 
3.735151e+2, 2.4566916e+2, -553425.25, -651403.7, -3748.569, -0.028690064, 0.013971796, -553282.06, -20842.07, 0.0, 5.0100694, 4.9469347 
3.7351185e+2, 2.506171e+2, -506195.75, -603116.06, -3905.0566, -0.03150812, 0.019575868, -506038.66, -22081.1, 0.0, 5.0092564, 4.9468946 
3.7350842e+2, 2.5556514e+2, -459199.88, -555382.5, -4061.9873, -0.034222707, 0.026713125, -459028.66, -23554.672, 0.0, 5.0084324, 4.9466567 
3.7350494e+2, 2.6050884e+2, -417107.7, -517994.03, -4792.021, -0.035061147, 0.032317292, -416880.56, -29853.514, 0.0, 5.0074954, 4.9425006 
3.7349632e+2, 2.6545513e+2, -364006.9, -449947.34, -3100.924, -0.08135026, -0.026416672, -363895.2, -25364.102, 0.0, 5.005339, 4.949273 
3.7348574e+2, 2.7040318e+2, -319411.53, -401120.1, -31.627487, -0.14188816, -0.09783157, -319411.53, -29395.768, 0.0, 5.002965, 4.9499044 
3.7347394e+2, 2.753513e+2, -274693.4, -352549.5, 3467.2163, -0.20808508, -0.17945573, -274539.3, -33039.81, 0.0, 5.000549, 4.9504886 
3.7347806e+2, 2.803031e+2, -271268.9, -424324.1, 16152.795, -0.18192238, -0.0010526191, -269582.78, -76626.77, 0.0, 5.003396, 4.9082084 
3.7348574e+2, 2.852371e+2, -194032.36, -321938.2, -1828.2366, -0.11106903, 0.15965353, -194006.23, -49376.04, 0.0, 5.006957, 4.9247713 
3.7348083e+2, 2.9015958e+2, -144946.13, -269954.44, -5103.535, -0.09960735, 0.10839644, -144738.11, -48315.65, 0.0, 5.006802, 4.9253254 
3.7347445e+2, 2.9508108e+2, -95729.31, -218124.36, -7690.8955, -0.09156249, 0.036806464, -95247.94, -47023.344, 0.0, 5.0065207, 4.925881 
3.7346828e+2, 3.0001324e+2, -30187.79, -96363.87, -6813.2266, -0.060348462, -0.073819384, -29493.607, -29493.607, 0.0, 5.0064363, 4.9607162 
3.7345773e+2, 3.0498192e+2, -12937.748, -56507.613, -3661.7107, -0.0067504486, -0.16593575, -12632.153, -12632.153, 0.0, 5.006964, 4.9734983 
3.7344137e+2, 3.0996427e+2, -10063.941, -51030.332, -2944.7507, 0.015098761, -0.19075695, -9853.349, -9853.349, 0.0, 5.007357, 4.9750614 
3.7342104e+2, 3.14952e+2, -6970.6235, -45765.926, -2200.4968, 0.015552773, -0.1758811, -6846.209, -6846.209, 0.0, 5.0076118, 4.9766264 
3.7864193e+2, 1.21475026e+2, -1703480.3, -1753529.9, 966.35974, 0.014635136, -0.011085329, -1703461.5, 46100.723, 0.0, 5.0187445, 4.986128 
3.7864104e+2, 1.2646654e+2, -1657834.3, -1710719.3, -1101.454, 0.009725324, 0.061210398, -1657811.4, 42835.7, 0.0, 5.0186167, 4.9841747 
3.7863994e+2, 1.3144799e+2, -1609252.9, -1661940.6, -1241.7643, 0.0047232667, 0.032800745, -1609223.6, 42603.18, 0.0, 5.0184875, 4.984174 
3.7863877e+2, 1.364294e+2, -1562869.0, -1617664.1, -1374.2771, -0.0003611288, 0.0056563597, -1562834.6, 40172.06, 0.0, 5.018354, 4.982682 
3.7863705e+2, 1.4140905e+2, -1520884.1, -1582343.3, -2772.506, -0.0036596593, 0.0029264006, -1520759.3, 33444.477, 0.0, 5.018187, 4.9781632 
3.7863445e+2, 1.4638786e+2, -1472185.6, -1532854.1, -3070.1565, -0.0036409928, 0.0043709297, -1472030.6, 33378.684, 0.0, 5.0179415, 4.978431 
3.7863186e+2, 1.5136668e+2, -1423893.0, -1484181.6, -3140.8464, -0.0035310446, 0.005433961, -1423729.9, 32885.094, 0.0, 5.0176907, 4.9784307 
3.7862924e+2, 1.5634547e+2, -1377017.3, -1438465.3, -3210.362, -0.0034279542, 0.0069454685, -1376850.0, 30970.656, 0.0, 5.017439, 4.9774413 
3.7862593e+2, 1.613205e+2, -1336393.6, -1405737.3, -4670.2104, -0.0030371507, 0.012061938, -1336080.5, 22982.791, 0.0, 5.0171604, 4.9721174 
3.7862122e+2, 1.6629247e+2, -1288052.4, -1356576.6, -5075.0576, -0.0018181438, 0.0064540245, -1287678.6, 22657.066, 0.0, 5.0168114, 4.9723015 
3.7861648e+2, 1.7126447e+2, -1239986.0, -1307971.0, -5150.2373, -0.00056198135, 0.0007181661, -1239598.1, 22009.816, 0.0, 5.0164566, 4.972301 
3.786117e+2, 1.7623645e+2, -1193055.0, -1261765.1, -5224.876, 0.0006834315, -0.004618076, -1192659.9, 20220.258, 0.0, 5.0160995, 4.9714937 
3.7860644e+2, 1.8120514e+2, -1152788.3, -1229686.4, -6029.743, 0.0004159365, -0.0019463632, -1152318.4, 11866.335, 0.0, 5.0157332, 4.96591 
3.7859997e+2, 1.8617114e+2, -1104217.5, -1179927.6, -6232.7993, -0.004029322, -0.006977489, -1103707.8, 11807.325, 0.0, 5.0153437, 4.9662867 
3.7859347e+2, 1.911372e+2, -1056182.0, -1131288.3, -6271.856, -0.008724204, -0.012218777, -1055661.9, 11183.42, 0.0, 5.0149474, 4.9662876 
3.7858695e+2, 1.9610323e+2, -1009045.5, -1084564.3, -6312.5522, -0.013448528, -0.017148824, -1008521.5, 9653.901, 0.0, 5.0145464, 4.9656377 
3.7858048e+2, 2.0106609e+2, -969284.1, -1053831.5, -6605.4053, -0.0166055, -0.012604368, -968771.2, 766.77185, 0.0, 5.0141606, 4.959519 
3.785741e+2, 2.0602618e+2, -920452.8, -1003789.9, -6733.222, -0.016055567, -0.013471183, -919912.25, 1018.3838, 0.0, 5.0138106, 4.959945 
3.7856773e+2, 2.1098632e+2, -872208.9, -955008.4, -6791.06, -0.015369155, -0.014774516, -871655.6, 667.7099, 0.0, 5.013457, 4.9599442 
3.7856135e+2, 2.1594644e+2, -824637.06, -907681.06, -6847.277, -0.014706177, -0.015902359, -824076.25, -360.3431, 0.0, 5.0130987, 4.9594445 
3.78555e+2, 2.2090341e+2, -784141.6, -875749.56, -6675.5347, -0.014985555, -0.009013071, -783657.75, -8519.334, 0.0, 5.0127177, 4.9536414 
3.785485e+2, 2.258577e+2, -735113.8, -824712.94, -6579.3877, -0.018784715, -0.013569198, -734633.3, -8049.274, 0.0, 5.0122414, 4.954425 
3.7854192e+2, 2.3081207e+2, -687171.75, -775975.7, -6519.7607, -0.022910561, -0.018920261, -686695.6, -8666.767, 0.0, 5.011742, 4.9544406 
3.7853533e+2, 2.3576644e+2, -639915.06, -728697.1, -6472.6533, -0.027123343, -0.024454359, -639445.6, -9971.898, 0.0, 5.011226, 4.953954 
3.7852913e+2, 2.4071829e+2, -602994.5, -703236.2, -5719.022, -0.029727232, -0.0045909034, -602669.3, -21723.662, 0.0, 5.0105147, 4.9459386 
3.7852493e+2, 2.4566726e+2, -554691.9, -652117.8, -4971.0356, -0.03194195, 0.014292249, -554438.9, -21984.352, 0.0, 5.009673, 4.94686 
3.7852085e+2, 2.5061595e+2, -507423.75, -603791.1, -5143.873, -0.034698043, 0.02790815, -507149.97, -23182.934, 0.0, 5.0088763, 4.9468246 
3.7851664e+2, 2.5556475e+2, -460378.63, -556012.8, -5305.0854, -0.03739984, 0.04285962, -460085.25, -24606.725, 0.0, 5.008074, 4.946591 
3.785123e+2, 2.605082e+2, -418095.6, -517310.44, -6790.795, -0.037286453, 0.046575047, -417632.97, -30598.824, 0.0, 5.007, 4.9428873 
3.7850145e+2, 2.6545304e+2, -366824.4, -447147.25, -8101.3643, -0.09051697, -0.048695233, -366015.47, -27473.35, 0.0, 5.0036955, 4.950781 
3.784883e+2, 2.703999e+2, -327478.8, -400508.44, -8944.575, -0.16077958, -0.15781377, -326399.25, -36372.45, 0.0, 4.99951, 4.951424 
3.7847397e+2, 2.7534702e+2, -289668.6, -354773.22, -10372.934, -0.23768517, -0.27517587, -288055.84, -46546.824, 0.0, 4.9946966, 4.9520254 
3.7847948e+2, 2.8030142e+2, -300143.84, -452264.56, 2773.589, -0.21303295, -0.052069597, -300093.28, -107160.91, 0.0, 4.996186, 4.9016547 
3.7849066e+2, 2.852382e+2, -206417.97, -330442.6, -14290.332, -0.13060091, 0.16576013, -204792.72, -60203.445, 0.0, 5.0031295, 4.923273 
3.784868e+2, 2.9016107e+2, -149810.25, -274987.38, -12860.175, -0.11159198, 0.11863721, -148502.7, -52112.324, 0.0, 5.0056396, 4.923885 
3.784815e+2, 2.9508314e+2, -96024.55, -220959.22, -12035.716, -0.09706438, 0.053162254, -94875.64, -46676.133, 0.0, 5.0070043, 4.9245014 
3.7847722e+2, 3.000138e+2, -30026.457, -100742.02, -8434.981, -0.053221475, -0.0619579, -29034.25, -29034.25, 0.0, 5.0075135, 4.958616 
3.784705e+2, 3.0497903e+2, -12627.096, -55209.125, -4209.088, 0.03801538, -0.19636953, -12215.029, -12215.029, 0.0, 5.0071015, 4.97367 
3.78458e+2, 3.0995882e+2, -17630.982, -53416.133, -1303.5245, 0.0971312, -0.26770708, -17583.563, -17583.563, 0.0, 5.004736, 4.975089 
3.784415e+2, 3.1494373e+2, -27442.752, -53914.754, 3577.652, 0.13200113, -0.29933813, -26967.762, -26967.762, 0.0, 5.0004206, 4.976512 
3.8366175e+2, 1.21474475e+2, -1699892.5, -1752377.4, 1122.6099, 0.017950153, -0.012541898, -1699868.5, 49698.15, 0.0, 5.020062, 4.985862 
3.8366038e+2, 1.2646592e+2, -1654469.4, -1709449.0, -978.83405, 0.010249497, 0.06074881, -1654452.0, 46200.38, 0.0, 5.019813, 4.9840083 
3.8365898e+2, 1.314472e+2, -1606305.1, -1660875.0, -1105.0066, 0.0047774846, 0.03227092, -1606282.8, 45551.023, 0.0, 5.019548, 4.9840093 
3.8365757e+2, 1.3642843e+2, -1560320.3, -1616788.6, -1224.5046, -0.00070000836, 0.0050783767, -1560293.8, 42721.78, 0.0, 5.0192823, 4.982521 
3.836556e+2, 1.4140794e+2, -1518658.9, -1581549.0, -2680.2288, -0.0043193446, 0.0023603253, -1518544.8, 35669.246, 0.0, 5.0189934, 4.9780354 
3.836527e+2, 1.4638664e+2, -1470270.1, -1532212.9, -3041.318, -0.0046493625, 0.0038257218, -1470121.3, 35299.55, 0.0, 5.0186453, 4.9783044 
3.836497e+2, 1.5136532e+2, -1422281.4, -1483693.8, -3162.378, -0.004875252, 0.004900849, -1422118.9, 34508.56, 0.0, 5.0182943, 4.9783034 
3.8364676e+2, 1.56344e+2, -1375703.8, -1438125.1, -3281.261, -0.005093746, 0.006422317, -1375531.8, 32302.61, 0.0, 5.017943, 4.977314 
3.836431e+2, 1.613189e+2, -1335311.4, -1405478.3, -4815.7407, -0.0049743326, 0.011449497, -1334982.5, 24095.703, 0.0, 5.0175815, 4.972003 
3.83638e+2, 1.6629073e+2, -1287078.8, -1356370.8, -5255.3286, -0.0039016525, 0.0056756334, -1286682.4, 23669.443, 0.0, 5.017197, 4.9721875 
3.8363287e+2, 1.7126259e+2, -1239104.1, -1307809.9, -5357.8037, -0.002768525, -0.00022199053, -1238688.9, 22936.61, 0.0, 5.016812, 4.9721875 
3.8362774e+2, 1.7623444e+2, -1192257.6, -1261644.8, -5460.396, -0.0016291165, -0.005727181, -1191830.5, 21068.521, 0.0, 5.016426, 4.97138 
3.8362208e+2, 1.8120302e+2, -1152032.8, -1229474.6, -6313.2974, -0.0018728431, -0.003272449, -1151521.5, 12683.1045, 0.0, 5.016022, 4.965846 
3.8361523e+2, 1.8616892e+2, -1103655.3, -1179796.6, -6538.43, -0.005922088, -0.00865913, -1103097.9, 12437.7295, 0.0, 5.0155635, 4.9662294 
3.8360834e+2, 1.9113487e+2, -1055815.5, -1131257.4, -6587.364, -0.010156623, -0.014291503, -1055244.6, 11621.875, 0.0, 5.015101, 4.9662285 
3.8360143e+2, 1.9610082e+2, -1008858.8, -1084625.9, -6635.609, -0.01437799, -0.019640973, -1008282.06, 9915.163, 0.0, 5.0146384, 4.965577 
3.8359454e+2, 2.010636e+2, -969328.8, -1054042.0, -6907.688, -0.01726573, -0.015184487, -968769.25, 791.1591, 0.0, 5.014181, 4.9594407 
3.8358775e+2, 2.0602371e+2, -920775.94, -1004151.2, -7048.167, -0.017068712, -0.0149588855, -920184.3, 769.00366, 0.0, 5.013739, 4.9598575 
3.8358092e+2, 2.1098387e+2, -872781.2, -955482.3, -7134.2964, -0.016725458, -0.015104543, -872170.25, 175.92473, 0.0, 5.013298, 4.959858 
3.8357413e+2, 2.1594404e+2, -825444.94, -908260.44, -7220.6177, -0.016366156, -0.015100087, -824820.1, -1081.1437, 0.0, 5.0128565, 4.959359 
3.8356733e+2, 2.2090097e+2, -785067.4, -876169.9, -7141.558, -0.016692206, -0.0079620965, -784510.94, -9349.093, 0.0, 5.0123887, 4.953651 
3.835604e+2, 2.2585508e+2, -736267.25, -825232.2, -7128.399, -0.019643106, -0.014738909, -735699.7, -9091.134, 0.0, 5.0118213, 4.9544444 
3.8355342e+2, 2.308092e+2, -688541.44, -776642.56, -7113.5186, -0.02278263, -0.022598129, -687970.75, -9915.925, 0.0, 5.0112453, 4.954446 
3.8354638e+2, 2.357633e+2, -641456.0, -729490.3, -7090.759, -0.025941374, -0.030788785, -640888.56, -11387.073, 0.0, 5.0106673, 4.953945 
3.8353968e+2, 2.4071497e+2, -604351.2, -704071.7, -6420.3066, -0.027765958, -0.012465585, -603939.56, -22965.158, 0.0, 5.01, 4.9459105 
3.835346e+2, 2.456643e+2, -556147.2, -652969.25, -5582.6216, -0.02937286, 0.009860863, -555826.4, -23346.254, 0.0, 5.0090985, 4.946861 
3.835297e+2, 2.506134e+2, -509230.1, -604767.0, -5601.766, -0.03125054, 0.027424132, -508902.75, -24913.992, 0.0, 5.008172, 4.9468384 
3.835247e+2, 2.5556263e+2, -462546.25, -557116.06, -5625.227, -0.03288583, 0.04635231, -462212.8, -26716.496, 0.0, 5.007235, 4.9466176 
3.835197e+2, 2.605062e+2, -420294.94, -520114.97, -6947.2915, -0.029468264, 0.05279135, -419813.75, -32763.992, 0.0, 5.0063896, 4.9422855 
3.8350895e+2, 2.6544875e+2, -365129.75, -451753.28, -8472.125, -0.06410934, -0.04917925, -364308.9, -25732.525, 0.0, 5.0047936, 4.948982 
3.8349605e+2, 2.7039167e+2, -319293.78, -404385.47, -8494.538, -0.11037092, -0.17325604, -318454.06, -28359.018, 0.0, 5.0029593, 4.9490023 
3.8348195e+2, 2.753335e+2, -273342.78, -357263.34, -8075.9746, -0.1595508, -0.31293467, -272572.7, -30948.336, 0.0, 5.001074, 4.948974 
3.8348642e+2, 2.802825e+2, -283562.53, -439688.03, 13966.95, -0.13268459, -0.12722877, -282322.9, -89225.71, 0.0, 5.0012684, 4.9032865 
3.8349703e+2, 2.8522336e+2, -204335.47, -319514.94, -2764.7568, -0.08430304, 0.10230971, -204269.16, -59551.645, 0.0, 5.003296, 4.9258366 
3.8349396e+2, 2.9015148e+2, -152338.4, -269097.06, -6005.695, -0.08256699, 0.086183876, -152030.3, -55559.527, 0.0, 5.004345, 4.925606 
3.8348958e+2, 2.9507813e+2, -100242.81, -218821.3, -8664.594, -0.078117, 0.052274436, -99613.03, -51374.188, 0.0, 5.005268, 4.9253736 
3.834864e+2, 3.000131e+2, -32231.47, -101478.9, -7544.5107, -0.040026505, -0.029647198, -31419.027, -31419.027, 0.0, 5.006703, 4.9583354 
3.8348302e+2, 3.0497614e+2, -5455.124, -55519.7, -8781.787, 0.06535906, -0.17462675, -3959.4036, -3959.4036, 0.0, 5.0101624, 4.971905 
3.8347483e+2, 3.099504e+2, 6716.963, -44263.51, -12904.805, 0.15846202, -0.29656965, 9797.448, 9797.448, 0.0, 5.0136123, 4.9740725 
3.8346303e+2, 3.149284e+2, 19100.254, -33243.25, -16682.373, 0.24231906, -0.40940163, 23964.967, 23964.967, 0.0, 5.0169277, 4.9762464 
3.886821e+2, 1.2147418e+2, -1700415.6, -1753413.3, 1004.7293, 0.020778801, -0.013019319, -1700396.6, 49171.492, 0.0, 5.020058, 4.9855227 
3.8868016e+2, 1.2646525e+2, -1654713.4, -1709916.6, -1183.1478, 0.009511801, 0.058339953, -1654688.1, 45969.69, 0.0, 5.019809, 4.9838557 
3.886785e+2, 1.3144644e+2, -1606547.3, -1661343.3, -1307.9077, 0.0043587326, 0.030673772, -1606516.0, 45324.05, 0.0, 5.019544, 4.9838557 
3.8867685e+2, 1.3642761e+2, -1560557.6, -1617252.1, -1424.8955, -0.0008179892, 0.0042948825, -1560521.9, 42500.67, 0.0, 5.019279, 4.982369 
3.886746e+2, 1.4140704e+2, -1518877.9, -1581987.6, -2933.9778, -0.004371835, 0.0021435414, -1518741.8, 35480.258, 0.0, 5.0189915, 4.977891 
3.8867128e+2, 1.4638558e+2, -1470494.6, -1532668.1, -3308.717, -0.0052477177, 0.0035057927, -1470319.0, 35111.22, 0.0, 5.018644, 4.9781537 
3.886679e+2, 1.5136409e+2, -1422503.8, -1484147.8, -3429.144, -0.006052335, 0.0044417176, -1422313.6, 34325.03, 0.0, 5.018293, 4.9781528 
3.886645e+2, 1.563426e+2, -1375922.9, -1438575.3, -3546.917, -0.006856077, 0.0058223847, -1375722.6, 32124.395, 0.0, 5.017942, 4.977164 
3.8866043e+2, 1.6131732e+2, -1335495.1, -1405862.5, -5107.9272, -0.0072531146, 0.010599412, -1335126.3, 23966.162, 0.0, 5.0175815, 4.971875 
3.8865495e+2, 1.6628902e+2, -1287261.5, -1356756.0, -5550.502, -0.0064945035, 0.004637697, -1286821.0, 23546.66, 0.0, 5.017197, 4.9720583 
3.886494e+2, 1.7126073e+2, -1239286.1, -1308194.5, -5652.291, -0.005674565, -0.0014129644, -1238825.5, 22817.215, 0.0, 5.016812, 4.9720583 
3.8864386e+2, 1.7623244e+2, -1192438.6, -1262028.6, -5754.1387, -0.0048581543, -0.0070675537, -1191966.0, 20951.758, 0.0, 5.0164266, 4.9712515 
3.8863778e+2, 1.8120089e+2, -1152128.0, -1229672.3, -6649.569, -0.005114993, -0.0048196083, -1151562.0, 12662.489, 0.0, 5.0160217, 4.9657803 
3.8863057e+2, 1.8616672e+2, -1103738.3, -1179963.9, -6888.444, -0.008302135, -0.010561921, -1103120.8, 12435.454, 0.0, 5.015562, 4.9661736 
3.886233e+2, 1.9113258e+2, -1055899.1, -1131423.1, -6935.7813, -0.0116448905, -0.016549768, -1055267.4, 11620.299, 0.0, 5.015099, 4.966173 
3.8861603e+2, 1.9609842e+2, -1008943.1, -1084790.0, -6982.3813, -0.014994553, -0.022248577, -1008305.7, 9913.455, 0.0, 5.014636, 4.9655223 
3.8860872e+2, 2.0106113e+2, -969442.3, -1054275.9, -7252.5024, -0.017314194, -0.01789794, -968826.75, 756.1581, 0.0, 5.01418, 4.959362 
3.8860148e+2, 2.0602125e+2, -920921.0, -1004458.06, -7388.017, -0.017258104, -0.016518822, -920272.6, 703.3902, 0.0, 5.013738, 4.959754 
3.885942e+2, 2.1098143e+2, -872925.75, -955789.4, -7472.357, -0.017108042, -0.015363227, -872257.3, 111.631805, 0.0, 5.013297, 4.959754 
3.885869e+2, 2.1594161e+2, -825589.1, -908567.75, -7556.8535, -0.016959876, -0.014043039, -824906.56, -1144.6722, 0.0, 5.0128555, 4.9592547 
3.8857964e+2, 2.2089852e+2, -785072.4, -876141.25, -7532.7734, -0.017365687, -0.006603045, -784453.5, -9268.332, 0.0, 5.0123835, 4.9536624 
3.8857225e+2, 2.2585244e+2, -736255.8, -825119.4, -7524.192, -0.019705499, -0.015563382, -735623.2, -8989.922, 0.0, 5.0118093, 4.9544873 
3.8856477e+2, 2.3080637e+2, -688542.06, -776518.0, -7500.9956, -0.022250237, -0.025672538, -687907.06, -9826.108, 0.0, 5.011228, 4.954494 
3.8855726e+2, 2.3576027e+2, -641468.7, -729353.94, -7469.87, -0.024906315, -0.036075745, -640838.25, -11309.397, 0.0, 5.0106454, 4.9539986 
3.8854992e+2, 2.407118e+2, -604325.2, -703615.1, -6989.775, -0.026618278, -0.020438729, -603835.56, -22832.727, 0.0, 5.009945, 4.946083 
3.8854393e+2, 2.4566141e+2, -556203.8, -652609.75, -6306.495, -0.028256258, 0.0032927033, -555793.0, -23288.006, 0.0, 5.00903, 4.947003 
3.8853806e+2, 2.506109e+2, -509274.7, -604406.75, -6314.802, -0.030097833, 0.023404663, -508857.34, -24848.166, 0.0, 5.0081077, 4.946978 
3.8853207e+2, 2.5556052e+2, -462578.84, -556755.06, -6327.3896, -0.031747002, 0.044970352, -462155.63, -26643.426, 0.0, 5.0071745, 4.946755 
3.8852635e+2, 2.6050463e+2, -420461.25, -519437.78, -7375.7505, -0.027670767, 0.053739976, -419914.63, -32854.953, 0.0, 5.0062404, 4.942591 
3.8851574e+2, 2.654468e+2, -366655.9, -451907.38, -8441.472, -0.053088978, -0.047015924, -365828.1, -27239.527, 0.0, 5.004344, 4.949125 
3.8850302e+2, 2.7038965e+2, -321468.66, -403819.88, -8095.751, -0.0918335, -0.16790144, -320680.3, -30573.621, 0.0, 5.0022206, 4.949445 
3.8848907e+2, 2.7533197e+2, -276167.53, -355977.9, -7308.068, -0.13683638, -0.30172455, -275503.84, -33874.09, 0.0, 5.0000463, 4.9497166 
3.884914e+2, 2.802796e+2, -278183.28, -429514.97, 13745.439, -0.1297685, -0.15211071, -276944.9, -83829.95, 0.0, 5.0015454, 4.906879 
3.8850164e+2, 2.8521886e+2, -201097.61, -322260.44, -2322.583, -0.0851986, 0.060292058, -201053.11, -56302.844, 0.0, 5.004619, 4.924952 
3.8850024e+2, 2.9014745e+2, -149603.03, -270847.34, -5111.9033, -0.071362555, 0.06540024, -149387.89, -52889.207, 0.0, 5.0054417, 4.92506 
3.8849744e+2, 2.950748e+2, -98011.21, -219579.81, -7319.721, -0.059171267, 0.052160088, -97572.07, -49312.633, 0.0, 5.0061383, 4.925167 
3.884955e+2, 3.000122e+2, -30044.518, -99100.16, -5755.0957, -0.023682196, -0.0034124532, -29568.174, -29568.174, 0.0, 5.0072136, 4.959268 
3.884946e+2, 3.0497345e+2, -9072.393, -62758.61, -6220.5034, 0.06846198, -0.13163158, -8361.062, -8361.062, 0.0, 5.0101085, 4.9698386 
3.8848913e+2, 3.0994427e+2, 1327.8059, -52587.285, -9524.945, 0.14310066, -0.23126169, 2961.06, 2961.06, 0.0, 5.013069, 4.9718857 
3.8847977e+2, 3.149198e+2, 11948.576, -42648.457, -12485.828, 0.19966629, -0.30766478, 14668.47, 14668.47, 0.0, 5.0158954, 4.9739394 
3.9370242e+2, 1.21473856e+2, -1700881.0, -1754329.9, 886.67426, 0.023244726, -0.013628245, -1700866.4, 48703.527, 0.0, 5.020054, 4.985223 
3.9369988e+2, 1.2646459e+2, -1654958.0, -1710383.9, -1386.3295, 0.00875238, 0.055984378, -1654923.4, 45739.71, 0.0, 5.0198045, 4.9837027 
3.93698e+2, 1.314457e+2, -1606789.9, -1661811.1, -1509.6768, 0.0039276145, 0.029112667, -1606748.5, 45097.76, 0.0, 5.0195403, 4.983702 
3.936961e+2, 1.364268e+2, -1560795.6, -1617715.1, -1624.1512, -0.0009389753, 0.0035301987, -1560749.4, 42280.168, 0.0, 5.0192757, 4.9822164 
3.9369357e+2, 1.4140615e+2, -1519103.3, -1582438.6, -3186.2615, -0.0044247066, 0.0019414729, -1518943.4, 35286.574, 0.0, 5.0189896, 4.977742 
3.9368984e+2, 1.463845e+2, -1470719.4, -1533123.4, -3575.9832, -0.005848391, 0.0031929412, -1470515.1, 34924.652, 0.0, 5.0186424, 4.978003 
3.9368606e+2, 1.5136285e+2, -1422726.4, -1484601.5, -3695.7773, -0.0072324546, 0.0039787865, -1422506.5, 34143.27, 0.0, 5.018292, 4.9780016 
3.936823e+2, 1.5634118e+2, -1376142.1, -1439025.1, -3812.4385, -0.008622163, 0.0052077784, -1375911.9, 31947.895, 0.0, 5.017941, 4.977014 
3.936778e+2, 1.6131577e+2, -1335682.0, -1406253.0, -5399.4756, -0.009542362, 0.009767455, -1335271.3, 23835.506, 0.0, 5.0175815, 4.9717445 
3.9367187e+2, 1.662873e+2, -1287444.5, -1357141.3, -5845.5864, -0.009097891, 0.0036210252, -1286957.6, 23425.824, 0.0, 5.0171976, 4.9719296 
3.936659e+2, 1.7125888e+2, -1239468.1, -1308579.0, -5946.6895, -0.008588709, -0.0025930298, -1238960.3, 22699.771, 0.0, 5.016812, 4.9719296 
3.9365998e+2, 1.7623045e+2, -1192619.8, -1262412.4, -6047.793, -0.008092862, -0.008407372, -1192099.6, 20836.91, 0.0, 5.0164266, 4.9711223 
3.9365348e+2, 1.8119876e+2, -1152228.0, -1229879.1, -6986.8623, -0.008358367, -0.0063587343, -1151604.4, 12639.976, 0.0, 5.0160213, 4.9657106 
3.936459e+2, 1.8616448e+2, -1103821.8, -1180130.8, -7239.266, -0.010688837, -0.012473275, -1103141.0, 12435.815, 0.0, 5.0155606, 4.9661174 
3.9363825e+2, 1.9113025e+2, -1055983.3, -1131588.5, -7285.007, -0.013145435, -0.01884231, -1055287.6, 11621.371, 0.0, 5.0150976, 4.9661174 
3.9363062e+2, 1.9609602e+2, -1009027.9, -1084953.9, -7329.9624, -0.015629014, -0.024916166, -1008326.75, 9914.37, 0.0, 5.0146337, 4.965467 
3.9362293e+2, 2.0105867e+2, -969567.1, -1054533.6, -7595.6343, -0.017369768, -0.020539887, -968893.44, 711.9145, 0.0, 5.0141788, 4.959275 
3.9361522e+2, 2.0601882e+2, -921066.5, -1004764.75, -7727.638, -0.017450485, -0.017979546, -920359.0, 639.6654, 0.0, 5.013737, 4.9596496 
3.936075e+2, 2.10979e+2, -873070.8, -956096.2, -7810.188, -0.017492982, -0.015559205, -872342.5, 49.226433, 0.0, 5.013296, 4.9596496 
3.9359972e+2, 2.159392e+2, -825733.75, -908874.8, -7892.8594, -0.017555315, -0.012959782, -824991.06, -1206.3331, 0.0, 5.012854, 4.95915 
3.9359197e+2, 2.208961e+2, -785088.8, -876133.2, -7930.608, -0.018035898, -0.0052668485, -784403.2, -9194.629, 0.0, 5.0123777, 4.9536657 
3.9358404e+2, 2.2584979e+2, -736247.4, -825003.94, -7927.6787, -0.019830544, -0.016541472, -735544.8, -8886.663, 0.0, 5.0117974, 4.9545293 
3.935761e+2, 2.3080352e+2, -688545.6, -776390.8, -7896.168, -0.021849604, -0.029041119, -687841.5, -9734.256, 0.0, 5.011211, 4.9545407 
3.935681e+2, 2.3575723e+2, -641484.25, -729214.94, -7856.6777, -0.024072109, -0.041797385, -640786.25, -11229.736, 0.0, 5.010623, 4.9540505 
3.9356014e+2, 2.4070866e+2, -604375.44, -703296.9, -7606.35, -0.025495004, -0.027885146, -603793.94, -22763.176, 0.0, 5.0098896, 4.9462037 
3.9355323e+2, 2.4565859e+2, -556277.25, -652233.8, -7032.8633, -0.027049825, -0.0023297463, -555764.5, -23235.39, 0.0, 5.0089617, 4.9471445 
3.9354637e+2, 2.5060847e+2, -509336.13, -604030.0, -7030.329, -0.028847074, 0.0201456, -508817.0, -24788.041, 0.0, 5.0080433, 4.947117 
3.9353943e+2, 2.5555846e+2, -462628.28, -556377.5, -7032.041, -0.0305019, 0.044163566, -462103.75, -26576.17, 0.0, 5.0071144, 4.946891 
3.9353293e+2, 2.605028e+2, -420971.44, -519374.78, -8082.8984, -0.024344156, 0.053388875, -420311.94, -33239.598, 0.0, 5.0060916, 4.9426336 
3.9352202e+2, 2.6544425e+2, -368270.88, -451986.75, -8868.32, -0.0427706, -0.05239685, -367341.72, -28735.012, 0.0, 5.003895, 4.9491787 
3.9350888e+2, 2.7038682e+2, -323732.0, -403177.66, -8155.0522, -0.0773958, -0.17630324, -322903.53, -32777.285, 0.0, 5.001483, 4.949799 
3.9349443e+2, 2.7532944e+2, -279080.44, -354613.94, -6998.907, -0.121621266, -0.3104794, -278437.4, -36792.406, 0.0, 4.9990196, 4.9503703 
3.9349666e+2, 2.8027683e+2, -276361.38, -427518.84, 15263.425, -0.12450717, -0.17272036, -274835.5, -81704.2, 0.0, 5.0018306, 4.907628 
3.9350823e+2, 2.8521544e+2, -198060.9, -324811.9, -2501.8113, -0.07692327, 0.04077873, -198011.55, -53238.746, 0.0, 5.0059433, 4.923994 
3.9350808e+2, 2.9014426e+2, -147067.6, -272403.63, -4838.4014, -0.054506876, 0.06097611, -146881.1, -50362.797, 0.0, 5.0065393, 4.924441 
3.9350644e+2, 2.950721e+2, -95978.26, -220144.52, -6594.118, -0.03809283, 0.06225918, -95629.05, -47355.355, 0.0, 5.0070095, 4.9248867 
3.935057e+2, 3.0001077e+2, -28877.459, -98442.0, -4308.3413, -0.0030291157, 0.021250734, -28611.646, -28611.646, 0.0, 5.0077243, 4.9594655 
3.9350736e+2, 3.0496883e+2, -12908.174, -69797.79, -3572.1223, 0.08639871, -0.10814602, -12684.757, -12684.757, 0.0, 5.0100546, 4.9676237 
3.9350444e+2, 3.099356e+2, -4281.7607, -60715.46, -6055.387, 0.15111502, -0.20178497, -3639.326, -3639.326, 0.0, 5.012526, 4.969551 
3.9349738e+2, 3.14908e+2, 4573.2354, -51862.66, -8196.339, 0.18893795, -0.2580941, 5739.5103, 5739.5103, 0.0, 5.0148625, 4.971484 
3.987227e+2, 1.2147353e+2, -1700858.4, -1754913.1, 871.4665, 0.025355091, -0.014460145, -1700844.3, 48727.418, 0.0, 5.020191, 4.9849634 
3.9871964e+2, 1.2646395e+2, -1654812.3, -1710669.4, -1498.3296, 0.008081782, 0.05376741, -1654772.0, 45896.176, 0.0, 5.0199313, 4.983546 
3.9871752e+2, 1.3144498e+2, -1606682.4, -1662116.0, -1635.5719, 0.0035200391, 0.027627554, -1606634.1, 45218.086, 0.0, 5.0196543, 4.9835453 
3.987154e+2, 1.36426e+2, -1560734.9, -1618039.1, -1760.4403, -0.0010844524, 0.0027824873, -1560680.9, 42355.523, 0.0, 5.019373, 4.9820614 
3.9871255e+2, 1.4140522e+2, -1519097.0, -1582789.0, -3382.196, -0.004520721, 0.0017210114, -1518918.0, 35319.977, 0.0, 5.0190673, 4.977588 
3.9870843e+2, 1.4638343e+2, -1470764.9, -1533494.5, -3793.1125, -0.006467544, 0.0028446864, -1470536.4, 34912.94, 0.0, 5.018702, 4.977851 
3.9870426e+2, 1.5136161e+2, -1422827.1, -1484999.8, -3917.6377, -0.008398922, 0.003460608, -1422581.3, 34079.645, 0.0, 5.0183325, 4.9778495 
3.9870006e+2, 1.5633978e+2, -1376296.9, -1439447.5, -4038.396, -0.010337381, 0.0045172, -1376039.6, 31832.941, 0.0, 5.017963, 4.9768624 
3.9869517e+2, 1.6131419e+2, -1335855.6, -1406641.6, -5652.367, -0.011751501, 0.0088893715, -1335407.1, 23714.002, 0.0, 5.017587, 4.9716125 
3.9868885e+2, 1.662856e+2, -1287644.8, -1357533.9, -6101.3247, -0.011596927, 0.0025872034, -1287116.1, 23283.182, 0.0, 5.017192, 4.971801 
3.9868248e+2, 1.7125702e+2, -1239707.4, -1308990.0, -6200.723, -0.011362339, -0.0037737852, -1239156.8, 22520.463, 0.0, 5.0167933, 4.971801 
3.986761e+2, 1.7622843e+2, -1192905.5, -1262845.3, -6299.8237, -0.011140575, -0.009732668, -1192342.6, 20612.572, 0.0, 5.0163913, 4.9709935 
3.986692e+2, 1.8119666e+2, -1152474.0, -1230171.8, -7287.697, -0.011387588, -0.007844423, -1151796.4, 12467.831, 0.0, 5.0159745, 4.9656343 
3.9866123e+2, 1.8616228e+2, -1104026.5, -1180368.9, -7580.702, -0.012913422, -0.014297962, -1103281.0, 12316.475, 0.0, 5.015521, 4.966056 
3.9865324e+2, 1.9112794e+2, -1056174.4, -1131819.3, -7654.5845, -0.014524554, -0.021033863, -1055407.5, 11522.812, 0.0, 5.015062, 4.966056 
3.986452e+2, 1.9609362e+2, -1009217.06, -1085182.6, -7728.235, -0.01616729, -0.027480057, -1008438.8, 9824.335, 0.0, 5.0145984, 4.9654055 
3.9863715e+2, 2.010562e+2, -969793.7, -1054854.4, -7999.154, -0.017320396, -0.02295977, -969047.94, 579.95233, 0.0, 5.0141454, 4.9591813 
3.9862895e+2, 2.0601636e+2, -921271.94, -1005090.7, -8108.432, -0.017515749, -0.019239523, -920494.75, 526.53534, 0.0, 5.0137143, 4.9595494 
3.9862075e+2, 2.1097657e+2, -873258.9, -956413.4, -8166.8096, -0.017718263, -0.015642688, -872464.4, -49.86366, 0.0, 5.0132785, 4.9595494 
3.9861256e+2, 2.1593678e+2, -825918.06, -909189.5, -8223.245, -0.017945435, -0.011858506, -825113.75, -1306.0988, 0.0, 5.0128384, 4.9590497 
3.9860433e+2, 2.2089364e+2, -785159.2, -876197.6, -8333.707, -0.018441971, -0.0039612325, -784402.56, -9170.545, 0.0, 5.0123634, 4.9536495 
3.985959e+2, 2.2584713e+2, -736260.3, -824957.4, -8437.724, -0.019674327, -0.017537802, -735464.75, -8781.458, 0.0, 5.0117884, 4.954547 
3.9858744e+2, 2.3080063e+2, -688606.0, -776358.25, -8509.032, -0.021082792, -0.03253143, -687788.56, -9654.444, 0.0, 5.0111856, 4.954561 
3.985789e+2, 2.357541e+2, -641660.56, -729227.4, -8578.372, -0.022715162, -0.047863163, -640828.1, -11243.053, 0.0, 5.010557, 4.954073 
3.9857042e+2, 2.4070546e+2, -604563.6, -703218.4, -8665.923, -0.023427255, -0.035010785, -603808.2, -22748.63, 0.0, 5.009814, 4.9462557 
3.9856258e+2, 2.4565572e+2, -555888.6, -651728.6, -8237.232, -0.02459441, -0.007243302, -555185.75, -22631.787, 0.0, 5.009071, 4.947259 
3.9855483e+2, 2.5060594e+2, -508343.78, -603267.25, -8335.5205, -0.026115209, 0.017648207, -507617.38, -23567.81, 0.0, 5.008378, 4.9472265 
3.98547e+2, 2.5555632e+2, -460978.13, -555334.06, -8453.857, -0.027508227, 0.044351798, -460226.7, -24682.99, 0.0, 5.007697, 4.946996 
3.985399e+2, 2.605005e+2, -419962.4, -519955.53, -10361.024, -0.017099567, 0.053172756, -418900.1, -31810.979, 0.0, 5.006766, 4.942102 
3.9852846e+2, 2.6544037e+2, -370257.53, -454168.44, -13902.302, -0.026041193, -0.06323804, -368014.16, -29376.084, 0.0, 5.0036526, 4.9484277 
3.985147e+2, 2.7038124e+2, -330586.0, -407178.13, -16618.498, -0.052259333, -0.19952618, -327135.66, -36962.926, 0.0, 4.9995213, 4.949143 
3.9849958e+2, 2.753223e+2, -292913.6, -361308.0, -19662.164, -0.08887566, -0.34721917, -287664.0, -45957.742, 0.0, 4.9945927, 4.9498186 
3.98504e+2, 2.8026885e+2, -297833.28, -440780.7, 3465.9258, -0.08387047, -0.20783179, -297749.28, -104549.61, 0.0, 4.9952745, 4.9059176 
3.985179e+2, 2.85209e+2, -209213.27, -329293.0, -13136.126, -0.03810159, 0.02905612, -207793.03, -62968.19, 0.0, 5.002326, 4.9239244 
3.9851815e+2, 2.901395e+2, -150376.13, -273227.66, -11358.079, -0.02134482, 0.06500683, -149334.86, -52781.094, 0.0, 5.005638, 4.9244213 
3.9851692e+2, 2.9506886e+2, -94450.22, -218632.48, -9919.226, -0.011208857, 0.079900034, -93662.9, -45369.09, 0.0, 5.007791, 4.924923 
3.985172e+2, 3.0000836e+2, -26979.88, -98144.36, -5109.389, 0.022241807, 0.045255776, -26614.914, -26614.914, 0.0, 5.008939, 4.958874 
3.9852148e+2, 3.04962e+2, -18800.967, -76881.01, -1549.4375, 0.12273635, -0.107444726, -18759.662, -18759.662, 0.0, 5.00932, 4.9651985 
3.9852145e+2, 3.0992362e+2, -21271.494, -72277.27, -62.06858, 0.19742702, -0.22440667, -21271.418, -21271.418, 0.0, 5.007806, 4.967195 
3.985173e+2, 3.1489143e+2, -28868.203, -70193.07, 3483.7056, 0.24395892, -0.29771483, -28576.584, -28576.584, 0.0, 5.0042167, 4.969191 
4.037437e+2, 1.2147339e+2, -1696834.4, -1753366.5, 1134.5172, 0.0255015, -0.018050756, -1696811.6, 52759.563, 0.0, 5.0216193, 4.984771 
4.0374038e+2, 1.264639e+2, -1651105.4, -1709298.8, -1306.8015, 0.0090409005, 0.053075287, -1651076.0, 49591.016, 0.0, 5.021259, 4.9833484 
4.0373784e+2, 1.3144474e+2, -1603265.8, -1660889.8, -1474.4349, 0.003604319, 0.026867736, -1603228.0, 48625.17, 0.0, 5.0208874, 4.9833493 
4.0373528e+2, 1.3642554e+2, -1557591.0, -1616942.4, -1630.2804, -0.0018353935, 0.001970128, -1557546.3, 45493.34, 0.0, 5.0205164, 4.9818687 
4.037321e+2, 1.4140458e+2, -1516205.3, -1581768.6, -3330.2258, -0.005762562, 0.0007823256, -1516036.5, 38206.582, 0.0, 5.020118, 4.9774165 
4.037275e+2, 1.4638259e+2, -1468175.5, -1532623.9, -3772.333, -0.007681444, 0.0015671996, -1467955.4, 37501.08, 0.0, 5.019654, 4.9776807 
4.0372294e+2, 1.5136057e+2, -1420538.3, -1484280.1, -3913.89, -0.00956441, 0.0018303909, -1420298.9, 36371.125, 0.0, 5.0191855, 4.9776793 
4.0371832e+2, 1.5633853e+2, -1374304.3, -1438873.0, -4050.829, -0.011442232, 0.0025312263, -1374051.1, 33832.555, 0.0, 5.0187173, 4.976693 
4.03713e+2, 1.6131276e+2, -1334096.3, -1406094.3, -5687.6997, -0.012795812, 0.006701411, -1333649.8, 25484.137, 0.0, 5.018246, 4.971481 
4.037062e+2, 1.6628407e+2, -1286132.3, -1357101.4, -6141.271, -0.012590767, 0.0007878014, -1285604.8, 24808.191, 0.0, 5.017768, 4.971672 
4.036994e+2, 1.7125541e+2, -1238433.1, -1308674.5, -6247.0337, -0.012282306, -0.005139154, -1237881.8, 23809.967, 0.0, 5.017289, 4.971672 
4.036926e+2, 1.7622675e+2, -1191859.6, -1262641.0, -6352.556, -0.01196121, -0.010663803, -1191294.0, 21676.537, 0.0, 5.0168104, 4.970865 
4.0368527e+2, 1.8119486e+2, -1151625.4, -1230079.5, -7375.377, -0.012099171, -0.008413585, -1150938.0, 13342.67, 0.0, 5.016329, 4.9654994 
4.0367684e+2, 1.8616037e+2, -1103281.5, -1180354.5, -7733.9033, -0.0135744, -0.014672144, -1102513.1, 13102.424, 0.0, 5.0158453, 4.96591 
4.0366837e+2, 1.911259e+2, -1055500.4, -1131842.5, -7873.831, -0.015107515, -0.021247255, -1054696.8, 12253.299, 0.0, 5.015362, 4.9659095 
4.0365988e+2, 1.9609143e+2, -1008601.94, -1085238.1, -8012.727, -0.016636921, -0.02756517, -1007773.1, 10511.53, 0.0, 5.0148783, 4.965259 
4.036514e+2, 2.0105392e+2, -969105.7, -1054653.4, -8291.981, -0.017527571, -0.022994142, -968309.4, 1341.2489, 0.0, 5.0144043, 4.959132 
4.0364283e+2, 2.0601408e+2, -920638.4, -1004876.56, -8349.791, -0.017183477, -0.018869098, -919818.7, 1225.0687, 0.0, 5.0139475, 4.9595175 
4.0363422e+2, 2.109743e+2, -872687.2, -956226.3, -8364.711, -0.016811004, -0.014797708, -871857.9, 578.8037, 0.0, 5.0134907, 4.9595184 
4.0362564e+2, 2.1593454e+2, -825394.06, -909023.1, -8379.937, -0.01643472, -0.010539661, -824562.6, -733.1713, 0.0, 5.013034, 4.9590197 
4.03617e+2, 2.2089131e+2, -784735.2, -876251.06, -8545.693, -0.01622742, -0.0026914398, -783944.06, -8689.697, 0.0, 5.012554, 4.9535494 
4.036081e+2, 2.2584458e+2, -735866.3, -825143.0, -8726.213, -0.0165834, -0.017145967, -735021.4, -8312.964, 0.0, 5.0119853, 4.9544024 
4.035992e+2, 2.307978e+2, -688129.3, -776525.7, -8851.788, -0.016959153, -0.03332029, -687251.6, -9089.172, 0.0, 5.0114083, 4.954413 
4.0359023e+2, 2.3575096e+2, -641030.5, -729347.94, -8965.993, -0.017384341, -0.050208226, -640129.44, -10512.488, 0.0, 5.01083, 4.953921 
4.0358132e+2, 2.4070196e+2, -602906.25, -702248.56, -8935.298, -0.016803239, -0.040636998, -602109.0, -21014.236, 0.0, 5.0102997, 4.9463854 
4.0357313e+2, 2.4565236e+2, -553209.2, -650532.0, -8439.324, -0.016515732, -0.012377432, -552482.75, -19896.621, 0.0, 5.0099554, 4.947306 
4.03565e+2, 2.5060287e+2, -504707.3, -601719.06, -8451.471, -0.016453272, 0.015061693, -503976.53, -19899.406, 0.0, 5.0096197, 4.9472556 
4.035568e+2, 2.5555354e+2, -456445.22, -553470.44, -8476.23, -0.016172502, 0.045026254, -455710.3, -20144.152, 0.0, 5.009277, 4.947006 
4.035495e+2, 2.60498e+2, -415130.28, -521827.28, -10258.098, -0.00150284, 0.060038723, -414153.0, -27044.121, 0.0, 5.0090957, 4.940596 
4.0353918e+2, 2.6543534e+2, -359538.06, -458573.06, -12971.191, 0.010402231, -0.047210824, -357867.34, -19178.244, 0.0, 5.008687, 4.945102 
4.0352696e+2, 2.7037176e+2, -309784.8, -409181.4, -13996.994, 0.013754561, -0.18644093, -307851.38, -17576.889, 0.0, 5.008127, 4.9452925 
4.0351358e+2, 2.7530676e+2, -259848.58, -360153.34, -14563.033, 0.014039115, -0.3500644, -257776.98, -15902.556, 0.0, 5.0075345, 4.9454346 
4.0351757e+2, 2.8024605e+2, -258869.03, -410599.63, 13187.009, 0.04835465, -0.27807203, -257731.47, -64287.805, 0.0, 5.006974, 4.911138 
4.0352947e+2, 2.8519022e+2, -193724.69, -309300.0, 148.42923, 0.056300037, -0.047816228, -193724.5, -48700.914, 0.0, 5.007155, 4.927947 
4.0352923e+2, 2.901268e+2, -142864.25, -258930.03, -1492.2941, 0.034730088, 0.021702196, -142845.06, -46159.887, 0.0, 5.0076475, 4.927765 
4.035278e+2, 2.950612e+2, -91819.64, -208765.0, -2469.461, 0.016365953, 0.063898295, -91767.52, -43399.438, 0.0, 5.008052, 4.927581 
4.0352795e+2, 3.0000556e+2, -27276.855, -95729.28, -56.292244, 0.02941046, 0.058899615, -27276.809, -27276.809, 0.0, 5.008687, 4.959192 
4.0353233e+2, 3.049603e+2, -16330.431, -77544.82, 49.078785, 0.12222904, -0.07789184, -16330.392, -16330.392, 0.0, 5.0105233, 4.963849 
4.0353334e+2, 3.0992106e+2, -8334.253, -66634.38, -3044.8652, 0.21198285, -0.2032025, -8175.6587, -8175.6587, 0.0, 5.012386, 4.9665394 
4.0353113e+2, 3.1488764e+2, -69.403625, -56002.32, -6104.8276, 0.29614633, -0.30261925, 589.157, 589.157, 0.0, 5.01415, 4.969236 
4.0876523e+2, 1.2147336e+2, -1697051.6, -1753787.9, 893.32294, 0.024389565, -0.02310955, -1697037.6, 52531.945, 0.0, 5.021616, 4.984634 
4.087618e+2, 1.2646414e+2, -1651425.3, -1709934.0, -1589.7683, 0.01049138, 0.052934032, -1651382.0, 49280.71, 0.0, 5.021256, 4.9831405 
4.0875876e+2, 1.3144474e+2, -1603582.9, -1661524.4, -1756.222, 0.0038210165, 0.026376296, -1603529.6, 48321.953, 0.0, 5.0208855, 4.983141 
4.0875575e+2, 1.364253e+2, -1557901.9, -1617569.3, -1909.495, -0.0028677282, 0.0011284503, -1557840.9, 45199.758, 0.0, 5.0205145, 4.9816623 
4.0875202e+2, 1.414041e+2, -1516473.3, -1582318.0, -3672.1333, -0.007520101, -0.00045135914, -1516269.1, 37977.496, 0.0, 5.0201178, 4.9772353 
4.0874705e+2, 1.4638188e+2, -1468436.4, -1533162.5, -4129.76, -0.009193746, -0.00009836595, -1468173.9, 37288.14, 0.0, 5.0196533, 4.9775023 
4.08742e+2, 1.5135963e+2, -1420797.4, -1484816.9, -4270.818, -0.010813986, -0.00026735506, -1420513.8, 36163.953, 0.0, 5.019185, 4.977501 
4.0873697e+2, 1.5633738e+2, -1374559.8, -1439404.5, -4406.5615, -0.012433384, 0.0000003345433, -1374261.6, 33631.758, 0.0, 5.018717, 4.9765162 
4.0873116e+2, 1.6131145e+2, -1334291.1, -1406501.4, -6057.3613, -0.013552647, 0.0039994414, -1333786.5, 25358.822, 0.0, 5.018246, 4.971346 
4.0872395e+2, 1.6628268e+2, -1286321.5, -1357498.3, -6507.7456, -0.013192737, -0.0012971035, -1285731.4, 24693.74, 0.0, 5.017768, 4.97154 
4.0871665e+2, 1.7125395e+2, -1238621.1, -1309070.4, -6612.6577, -0.012747018, -0.0065579657, -1238005.9, 23698.813, 0.0, 5.017289, 4.9715395 
4.0870938e+2, 1.7622523e+2, -1192046.5, -1263035.8, -6717.2354, -0.012300082, -0.01141646, -1191416.5, 21567.686, 0.0, 5.0168104, 4.9707327 
4.0870157e+2, 1.8119325e+2, -1151847.0, -1230547.9, -7747.426, -0.012390975, -0.0086321365, -1151091.6, 13203.722, 0.0, 5.016329, 4.965342 
4.0869263e+2, 1.8615861e+2, -1103525.6, -1180868.6, -8101.796, -0.014071738, -0.014611931, -1102686.1, 12946.111, 0.0, 5.0158443, 4.965737 
4.0868366e+2, 1.91124e+2, -1055744.1, -1132353.6, -8239.778, -0.015844349, -0.020909015, -1054868.0, 12100.953, 0.0, 5.0153604, 4.965737 
4.086747e+2, 1.9608939e+2, -1008845.25, -1085746.3, -8376.679, -0.01762963, -0.02694701, -1007943.4, 10362.166, 0.0, 5.0148764, 4.965087 
4.0866572e+2, 2.0105177e+2, -969167.7, -1054772.0, -8649.178, -0.018457985, -0.022196028, -968302.5, 1370.3749, 0.0, 5.0144024, 4.959093 
4.0865678e+2, 2.0601195e+2, -920661.1, -1004912.6, -8702.038, -0.01726137, -0.017874284, -919771.75, 1293.9175, 0.0, 5.013946, 4.9595065 
4.086478e+2, 2.1097219e+2, -872710.06, -956263.94, -8714.461, -0.01602129, -0.013556152, -871810.9, 647.1109, 0.0, 5.0134892, 4.9595065 
4.0863886e+2, 2.1593241e+2, -825417.1, -909062.3, -8727.153, -0.01479709, -0.009030089, -824516.3, -666.0515, 0.0, 5.0130324, 4.9590073 
4.0862983e+2, 2.2088914e+2, -784889.6, -876552.6, -8954.051, -0.013684593, -0.0014524617, -784023.1, -8747.45, 0.0, 5.0125494, 4.953448 
4.0862045e+2, 2.2584215e+2, -736090.6, -825537.1, -9135.978, -0.013416677, -0.016742924, -735167.0, -8434.165, 0.0, 5.011972, 4.9542723 
4.0861106e+2, 2.3079515e+2, -688371.4, -776904.1, -9248.256, -0.013324686, -0.03357351, -687415.6, -9225.739, 0.0, 5.0113873, 4.954289 
4.0860158e+2, 2.3574813e+2, -641290.4, -729710.75, -9349.112, -0.013366256, -0.05103222, -640312.7, -10665.421, 0.0, 5.010801, 4.953804 
4.0859228e+2, 2.4069896e+2, -602882.2, -701728.9, -9191.839, -0.012342505, -0.043361973, -602034.7, -20907.832, 0.0, 5.010234, 4.9465866 
4.0858376e+2, 2.456495e+2, -553261.94, -650147.44, -8708.417, -0.010964818, -0.015219884, -552485.4, -19870.896, 0.0, 5.0098834, 4.9474635 
4.0857533e+2, 2.5060025e+2, -504721.63, -601335.56, -8702.048, -0.00978937, 0.013116648, -503944.1, -19843.234, 0.0, 5.009561, 4.9474053 
4.0856677e+2, 2.5555116e+2, -456421.22, -553088.06, -8708.281, -0.008449804, 0.043983564, -455643.0, -20057.693, 0.0, 5.009232, 4.947149 
4.085592e+2, 2.604959e+2, -416342.34, -523791.0, -10305.332, 0.0069609834, 0.06293021, -415362.9, -28238.088, 0.0, 5.0089874, 4.9399686 
4.0854955e+2, 2.6543298e+2, -362423.3, -462042.03, -12345.022, 0.020642636, -0.030012421, -360916.28, -22198.805, 0.0, 5.008269, 4.94408 
4.0853804e+2, 2.7036962e+2, -313396.03, -411967.63, -12878.674, 0.023952724, -0.15112482, -311741.16, -21429.076, 0.0, 5.007395, 4.944566 
4.0852538e+2, 2.7530542e+2, -264184.75, -362257.22, -12951.236, 0.022056144, -0.29315475, -262503.28, -20588.3, 0.0, 5.0064883, 4.9450035 
4.0852752e+2, 2.80244e+2, -251505.64, -396682.44, 8747.153, 0.059134062, -0.24741842, -250980.52, -57481.21, 0.0, 5.007361, 4.916026 
4.0853807e+2, 2.851864e+2, -187304.02, -306329.13, -1077.8121, 0.07205322, -0.05644465, -187294.27, -42206.97, 0.0, 5.008656, 4.9290657 
4.0853837e+2, 2.9012302e+2, -137267.2, -255057.22, -2180.6096, 0.04799835, 0.00956113, -137226.84, -40489.32, 0.0, 5.0088253, 4.9292445 
4.0853742e+2, 2.950579e+2, -87046.78, -203991.19, -2622.1035, 0.024019016, 0.049499616, -86988.016, -38583.098, 0.0, 5.008906, 4.929421 
4.0853745e+2, 3.0000463e+2, -24944.781, -93165.97, 454.1104, 0.023170058, 0.05886199, -24941.758, -24941.758, 0.0, 5.0091457, 4.960259 
4.0854037e+2, 3.0496296e+2, -17705.61, -81265.305, 1473.497, 0.08237717, -0.02180538, -17671.467, -17671.467, 0.0, 5.0106373, 4.962968 
4.0853974e+2, 3.099268e+2, -10893.216, -71829.56, -779.2199, 0.13172443, -0.08134188, -10883.253, -10883.253, 0.0, 5.0122557, 4.9653435 
4.085357e+2, 3.1489688e+2, -3807.1572, -62668.836, -3000.143, 0.16899316, -0.10459598, -3654.637, -3654.637, 0.0, 5.0137763, 4.967725 
4.1378674e+2, 1.2147329e+2, -1697202.5, -1754072.9, 655.8906, 0.023104146, -0.028416777, -1697194.9, 52373.31, 0.0, 5.0216126, 4.9845414 
4.137832e+2, 1.2646441e+2, -1651745.5, -1710569.1, -1871.9823, 0.011925345, 0.052845508, -1651685.9, 48972.49, 0.0, 5.0212536, 4.982932 
4.137797e+2, 1.3144475e+2, -1603900.3, -1662158.8, -2037.2563, 0.0040261257, 0.025920926, -1603829.1, 48020.797, 0.0, 5.020883, 4.982932 
4.1377616e+2, 1.3642506e+2, -1558213.3, -1618196.0, -2187.955, -0.0039067273, 0.0003061911, -1558133.5, 44908.113, 0.0, 5.0205126, 4.981456 
4.13772e+2, 1.4140363e+2, -1516747.5, -1582880.0, -4013.1833, -0.009278694, -0.00167565, -1516504.9, 37745.2, 0.0, 5.0201173, 4.97705 
4.1376653e+2, 1.4638118e+2, -1468697.4, -1533701.0, -4487.246, -0.010706511, -0.0017649276, -1468389.1, 37078.586, 0.0, 5.0196533, 4.977324 
4.1376105e+2, 1.5135872e+2, -1421056.6, -1485353.8, -4627.805, -0.012063733, -0.0023779098, -1420725.3, 35960.17, 0.0, 5.019185, 4.9773226 
4.137556e+2, 1.5633625e+2, -1374815.4, -1439935.9, -4762.351, -0.013424414, -0.002555175, -1374469.0, 33434.285, 0.0, 5.018717, 4.976339 
4.1374934e+2, 1.6131014e+2, -1334490.1, -1406916.9, -6427.211, -0.01431248, 0.001323133, -1333924.1, 25232.64, 0.0, 5.018246, 4.9712076 
4.1374165e+2, 1.662813e+2, -1286511.0, -1357895.1, -6874.1875, -0.013795861, -0.0033490397, -1285855.0, 24582.268, 0.0, 5.017768, 4.9714074 
4.137339e+2, 1.712525e+2, -1238809.5, -1309466.3, -6978.249, -0.013209577, -0.007955736, -1238126.9, 23590.643, 0.0, 5.017289, 4.971407 
4.1372615e+2, 1.7622371e+2, -1192233.5, -1263430.4, -7081.882, -0.012633493, -0.012159999, -1191535.9, 21461.775, 0.0, 5.0168104, 4.9706 
4.1371787e+2, 1.8119165e+2, -1152073.9, -1231026.9, -8119.912, -0.01268428, -0.008843332, -1151247.4, 13062.498, 0.0, 5.016329, 4.965181 
4.1370845e+2, 1.8615685e+2, -1103770.3, -1181382.5, -8470.684, -0.014579099, -0.014576872, -1102856.5, 12792.428, 0.0, 5.015844, 4.9655633 
4.1369894e+2, 1.911221e+2, -1055988.3, -1132864.5, -8606.721, -0.01659645, -0.02063721, -1055036.5, 11951.237, 0.0, 5.0153594, 4.965564 
4.136895e+2, 1.9608735e+2, -1009089.0, -1086254.3, -8741.625, -0.018642854, -0.026436547, -1008111.1, 10215.404, 0.0, 5.0148745, 4.9649143 
4.1368005e+2, 2.0104966e+2, -969248.44, -1054930.3, -9005.793, -0.019397434, -0.021276409, -968312.06, 1383.0319, 0.0, 5.0144005, 4.9590397 
4.1367072e+2, 2.0600982e+2, -920684.4, -1004948.3, -9053.788, -0.01734693, -0.016705934, -919722.56, 1364.8198, 0.0, 5.013944, 4.959495 
4.136614e+2, 2.1097006e+2, -872733.44, -956301.25, -9063.714, -0.015241821, -0.012199428, -871761.7, 717.4738, 0.0, 5.013488, 4.9594946 
4.1365203e+2, 2.1593031e+2, -825440.6, -909101.25, -9073.873, -0.013172274, -0.007463694, -824467.8, -596.8959, 0.0, 5.0130305, 4.958995 
4.1364262e+2, 2.2088692e+2, -785065.7, -876897.56, -9368.315, -0.0111122085, -0.00025122947, -784119.7, -8822.588, 0.0, 5.0125446, 4.95333 
4.1363275e+2, 2.258397e+2, -736317.7, -825929.4, -9556.115, -0.010290537, -0.016662132, -735309.94, -8552.425, 0.0, 5.0119586, 4.9541388 
4.1362283e+2, 2.3079248e+2, -688616.2, -777280.6, -9655.096, -0.009822004, -0.034450848, -687577.0, -9359.339, 0.0, 5.0113664, 4.9541626 
4.1361287e+2, 2.3574524e+2, -641553.0, -730071.6, -9742.603, -0.00957112, -0.05278208, -640493.4, -10815.398, 0.0, 5.010772, 4.9536843 
4.1360316e+2, 2.4069604e+2, -603033.2, -701577.7, -9504.764, -0.007897353, -0.04499881, -602124.8, -20966.586, 0.0, 5.0101676, 4.946657 
4.1359434e+2, 2.456468e+2, -553326.2, -649752.25, -8976.476, -0.00531473, -0.01616355, -552497.6, -19856.186, 0.0, 5.009811, 4.947618 
4.1358557e+2, 2.5059775e+2, -504747.4, -600941.4, -8951.592, -0.003040814, 0.012584688, -503921.47, -19798.086, 0.0, 5.009503, 4.947552 
4.135767e+2, 2.5554883e+2, -456408.63, -552694.94, -8939.298, -0.0006569696, 0.043868393, -455585.75, -19982.258, 0.0, 5.009187, 4.947288 
4.1356897e+2, 2.6049346e+2, -418134.5, -526961.1, -10592.039, 0.017082868, 0.06461925, -417113.16, -29968.754, 0.0, 5.0088797, 4.9388604 
4.135595e+2, 2.6542976e+2, -365372.63, -465474.84, -12176.926, 0.030550651, -0.024026277, -363912.66, -25158.133, 0.0, 5.007851, 4.94291 
4.1354808e+2, 2.7036625e+2, -317070.56, -414714.56, -12218.196, 0.030584034, -0.13791695, -315564.94, -25203.16, 0.0, 5.0066633, 4.943692 
4.1353548e+2, 2.7530253e+2, -268583.72, -364318.5, -11797.248, 0.0232727, -0.2692393, -267151.4, -25180.396, 0.0, 5.0054426, 4.944426 
4.1353792e+2, 2.8024194e+2, -250240.97, -396868.47, 6366.322, 0.072216876, -0.2111419, -249965.06, -56410.67, 0.0, 5.007759, 4.9159846 
4.1354877e+2, 2.8518397e+2, -181037.36, -303221.8, -2948.2124, 0.096394815, -0.030023405, -180966.25, -35828.617, 0.0, 5.010157, 4.9300694 
4.1354904e+2, 2.901203e+2, -131821.47, -251049.6, -3512.6465, 0.06658845, 0.022465467, -131718.08, -34938.617, 0.0, 5.010003, 4.9306083 
4.1354796e+2, 2.9505533e+2, -82422.625, -199084.11, -3418.2402, 0.03372749, 0.050140213, -82322.555, -33888.25, 0.0, 5.0097604, 4.931145 
4.135477e+2, 3.0000317e+2, -22970.709, -90959.195, 778.7838, 0.019914467, 0.056499828, -22961.79, -22961.79, 0.0, 5.0096045, 4.961102 
4.1354963e+2, 3.049637e+2, -19237.873, -84840.445, 3266.3232, 0.056938678, 0.009360594, -19075.646, -19075.646, 0.0, 5.010751, 4.9619083 
4.1354778e+2, 3.099299e+2, -13610.669, -76883.22, 1856.3265, 0.077329345, -0.004405353, -13556.254, -13556.254, 0.0, 5.0121255, 4.963969 
4.135423e+2, 3.1490266e+2, -7705.7876, -69198.29, 476.69592, 0.0791445, 0.028511556, -7702.093, -7702.093, 0.0, 5.013402, 4.966035 
4.1880822e+2, 1.2147323e+2, -1696975.3, -1754095.4, 553.2745, 0.021754682, -0.03374438, -1696969.9, 52596.92, 0.0, 5.021718, 4.984482 
4.1880462e+2, 1.2646466e+2, -1651725.3, -1711040.1, -2030.2855, 0.013246443, 0.052637454, -1651655.8, 48998.29, 0.0, 5.021364, 4.982723 
4.188006e+2, 1.3144477e+2, -1603870.4, -1662625.8, -2196.5188, 0.0041630534, 0.025416225, -1603788.4, 48059.74, 0.0, 5.0209966, 4.9827228 
4.1879657e+2, 1.3642484e+2, -1558185.9, -1618659.6, -2345.0347, -0.004942276, -0.00051345443, -1558095.1, 44947.324, 0.0, 5.0206237, 4.9812484 
4.1879192e+2, 1.4140317e+2, -1516713.1, -1583303.1, -4230.709, -0.010965099, -0.0028711732, -1516445.4, 37807.973, 0.0, 5.020222, 4.9768596 
4.1878608e+2, 1.463805e+2, -1468658.6, -1534097.8, -4729.8525, -0.012139053, -0.0033958957, -1468318.5, 37154.65, 0.0, 5.0197544, 4.977144 
4.1878015e+2, 1.513578e+2, -1421030.4, -1485755.9, -4879.138, -0.013222415, -0.004437804, -1420664.6, 36028.31, 0.0, 5.019282, 4.9771423 
4.1877422e+2, 1.5633512e+2, -1374802.8, -1440341.0, -5021.5723, -0.014307898, -0.005035743, -1374420.3, 33492.727, 0.0, 5.0188084, 4.9761605 
4.187675e+2, 1.6130884e+2, -1334446.6, -1407223.4, -6707.9175, -0.014958007, -0.0012116956, -1333833.5, 25334.563, 0.0, 5.01833, 4.9710655 
4.1875938e+2, 1.6627993e+2, -1286483.5, -1358188.9, -7157.512, -0.0142947445, -0.0052898284, -1285776.0, 24673.3, 0.0, 5.0178423, 4.9712744 
4.1875115e+2, 1.7125106e+2, -1238815.9, -1309776.1, -7266.3647, -0.013568626, -0.009296933, -1238079.5, 23650.816, 0.0, 5.0173516, 4.971274 
4.1874295e+2, 1.7622219e+2, -1192279.6, -1263758.8, -7373.984, -0.012855147, -0.012905391, -1191526.9, 21484.34, 0.0, 5.016859, 4.970467 
4.187342e+2, 1.8119003e+2, -1152189.5, -1231458.5, -8418.342, -0.0128608355, -0.009082099, -1151305.3, 13019.265, 0.0, 5.016368, 4.9650173 
4.1872424e+2, 1.8615511e+2, -1103895.4, -1181839.5, -8761.844, -0.014956614, -0.014554146, -1102922.6, 12742.997, 0.0, 5.015884, 4.9653897 
4.1871426e+2, 1.911202e+2, -1056126.3, -1133327.1, -8894.932, -0.017182479, -0.0203685, -1055114.6, 11891.944, 0.0, 5.0153947, 4.96539 
4.1870427e+2, 1.9608532e+2, -1009257.1, -1086730.5, -9029.379, -0.019433962, -0.025921496, -1008218.7, 10128.741, 0.0, 5.0148993, 4.9647408 
4.186944e+2, 2.0104752e+2, -969310.5, -1055111.0, -9282.979, -0.020067858, -0.020116437, -968317.6, 1399.4585, 0.0, 5.014412, 4.9589734 
4.186847e+2, 2.0600772e+2, -920687.56, -1004974.94, -9325.748, -0.01722357, -0.015296305, -919668.1, 1440.7817, 0.0, 5.0139494, 4.959483 
4.1867495e+2, 2.1096796e+2, -872763.6, -956341.9, -9332.866, -0.014305906, -0.010729611, -871734.1, 766.1174, 0.0, 5.0134835, 4.9594827 
4.1866526e+2, 2.1592821e+2, -825512.06, -909162.1, -9338.77, -0.011426768, -0.005934722, -824482.2, -590.61676, 0.0, 5.0130124, 4.9589825 
4.1865543e+2, 2.2088471e+2, -785275.3, -877312.94, -9704.385, -0.008395684, 0.00082094345, -784263.25, -8944.487, 0.0, 5.012538, 4.9531894 
4.1864508e+2, 2.2583723e+2, -736327.06, -826271.8, -9959.515, -0.0070188083, -0.016704688, -735237.44, -8455.014, 0.0, 5.012028, 4.9539857 
4.1863468e+2, 2.307898e+2, -688484.6, -777553.44, -10131.928, -0.0060843728, -0.0355077, -687346.6, -9100.908, 0.0, 5.0114865, 4.9540105 
4.186242e+2, 2.3574233e+2, -641368.56, -730314.1, -10316.034, -0.005349796, -0.054828957, -640187.75, -10478.5625, 0.0, 5.0109134, 4.953533 
4.18614e+2, 2.4069317e+2, -602702.56, -701562.4, -10121.79, -0.0025438145, -0.045048658, -601676.9, -20487.648, 0.0, 5.0103307, 4.9465857 
4.1860494e+2, 2.4564417e+2, -552274.25, -648885.56, -9509.748, 0.0014141306, -0.015199126, -551347.06, -18679.059, 0.0, 5.010134, 4.9477677 
4.1859594e+2, 2.505952e+2, -503107.38, -599802.3, -9456.222, 0.004819279, 0.012918332, -502191.28, -18045.031, 0.0, 5.0100408, 4.9477034 
4.1858685e+2, 2.5554645e+2, -454072.16, -551235.7, -9381.869, 0.008283441, 0.04346549, -453174.56, -17551.826, 0.0, 5.009982, 4.9474406 
4.1857916e+2, 2.6049042e+2, -417822.5, -530681.7, -11515.04, 0.03044838, 0.064199924, -416659.6, -29489.81, 0.0, 5.0098357, 4.937079 
4.1856968e+2, 2.654253e+2, -367756.78, -470418.34, -15195.529, 0.046727445, -0.026336513, -365554.8, -26750.59, 0.0, 5.0079465, 4.9409595 
4.185582e+2, 2.7036053e+2, -324560.3, -421705.13, -18545.92, 0.048682727, -0.14147708, -321140.13, -30705.576, 0.0, 5.005002, 4.9417696 
4.185455e+2, 2.752957e+2, -283513.53, -374268.94, -22732.564, 0.044063237, -0.2723542, -278137.88, -36072.465, 0.0, 5.001201, 4.942546 
4.1855073e+2, 2.8023636e+2, -273724.8, -417779.94, -8874.496, 0.12235413, -0.16687182, -273180.16, -79535.41, 0.0, 5.0016294, 4.911335 
4.1856283e+2, 2.8518018e+2, -188283.88, -302068.16, -14923.049, 0.151747, 0.03166702, -186359.25, -41157.94, 0.0, 5.006711, 4.931881 
4.1856197e+2, 2.9011706e+2, -133095.0, -247277.6, -11053.292, 0.101919666, 0.061127257, -132034.84, -35207.848, 0.0, 5.0086613, 4.9324527 
4.1855985e+2, 2.950528e+2, -80337.09, -193771.14, -7768.683, 0.049609624, 0.06741153, -79807.516, -31343.264, 0.0, 5.009621, 4.9330335 
4.1855875e+2, 3.0000094e+2, -22279.238, -89905.19, -1032.872, 0.019943397, 0.054940403, -22263.465, -22263.465, 0.0, 5.009706, 4.961461 
4.1856015e+2, 3.0496213e+2, -24469.133, -90780.05, 2897.0981, 0.047979906, 0.016454224, -24342.8, -24342.8, 0.0, 5.0095716, 4.9601917 
4.18558e+2, 3.099288e+2, -27386.121, -87215.65, 2732.8096, 0.06063834, 0.016322387, -27261.555, -27261.555, 0.0, 5.0079904, 4.961953 
4.1855246e+2, 3.149017e+2, -34596.332, -85820.12, 3408.6375, 0.055957437, 0.063556194, -34370.5, -34370.5, 0.0, 5.004666, 4.9637184 
4.2383063e+2, 1.2147431e+2, -1692981.9, -1752677.4, 834.85114, 0.020623973, -0.033954576, -1692970.3, 56584.39, 0.0, 5.0231614, 4.9842415 
4.238266e+2, 1.2646519e+2, -1647908.3, -1709621.9, -1705.5676, 0.011892174, 0.04889016, -1647861.3, 52786.27, 0.0, 5.0227313, 4.9825225 
4.2382216e+2, 1.314452e+2, -1600237.4, -1661303.3, -1863.958, 0.0029924484, 0.02304062, -1600180.5, 51661.773, 0.0, 5.0223055, 4.9825225 
4.2381778e+2, 1.3642521e+2, -1554714.8, -1617415.0, -2003.9961, -0.005865067, -0.0015659421, -1554650.8, 48386.5, 0.0, 5.021879, 4.9810514 
4.2381275e+2, 1.414034e+2, -1513417.1, -1582153.5, -3945.62, -0.011527488, -0.0032418815, -1513191.4, 41058.195, 0.0, 5.0214243, 4.9766583 
4.238064e+2, 1.4638051e+2, -1465546.5, -1533065.3, -4482.406, -0.012454929, -0.0040927683, -1465250.3, 40221.61, 0.0, 5.020903, 4.9769325 
4.2380002e+2, 1.5135758e+2, -1418079.8, -1484806.3, -4661.0503, -0.013302228, -0.0054473686, -1417755.8, 38938.49, 0.0, 5.020379, 4.976931 
4.237936e+2, 1.5633462e+2, -1372006.8, -1439466.9, -4831.83, -0.014138717, -0.0063299043, -1371662.5, 36254.258, 0.0, 5.019855, 4.975951 
4.2378643e+2, 1.6130815e+2, -1331781.3, -1406313.8, -6571.562, -0.014538958, -0.0026125736, -1331206.3, 27967.695, 0.0, 5.0193124, 4.9709 
4.2377773e+2, 1.662791e+2, -1284084.1, -1357390.5, -7047.881, -0.013662806, -0.0064721676, -1283412.6, 27043.986, 0.0, 5.018732, 4.971118 
4.2376903e+2, 1.712501e+2, -1236689.6, -1309112.5, -7182.024, -0.012711829, -0.010257444, -1235984.3, 25754.605, 0.0, 5.0181503, 4.971118 
4.2376032e+2, 1.762211e+2, -1190418.1, -1263224.5, -7314.936, -0.011755642, -0.013651647, -1189690.5, 23330.643, 0.0, 5.0175686, 4.9703116 
4.23751e+2, 1.8118882e+2, -1150554.4, -1231029.9, -8354.203, -0.0115272505, -0.009582887, -1149696.3, 14639.646, 0.0, 5.016999, 4.9648647 
4.237406e+2, 1.861538e+2, -1102447.9, -1181523.8, -8686.204, -0.013434496, -0.0145576745, -1101504.9, 14173.707, 0.0, 5.016455, 4.965229 
4.2373013e+2, 1.9111878e+2, -1054838.4, -1133095.4, -8813.478, -0.015430418, -0.019840702, -1053858.1, 13163.108, 0.0, 5.015913, 4.965228 
4.2371964e+2, 1.9608377e+2, -1008110.56, -1086573.6, -8939.009, -0.017403789, -0.024856223, -1007105.06, 11258.682, 0.0, 5.0153704, 4.9645767 
4.237092e+2, 2.0104593e+2, -968161.56, -1054686.4, -9169.249, -0.017904503, -0.018470438, -967200.56, 2533.8848, 0.0, 5.014829, 4.9589257 
4.23699e+2, 2.0600612e+2, -919682.1, -1004514.06, -9196.524, -0.01536183, -0.013569098, -918696.6, 2429.2769, 0.0, 5.014296, 4.9594817 
4.2368874e+2, 2.1096635e+2, -871947.4, -955971.8, -9199.802, -0.012731162, -0.009064317, -870951.9, 1565.0795, 0.0, 5.013765, 4.9594812 
4.236785e+2, 2.1592657e+2, -824869.44, -908874.94, -9202.896, -0.0101032555, -0.004384568, -823873.06, 34.965527, 0.0, 5.013233, 4.958981 
4.236682e+2, 2.2088304e+2, -784782.9, -877454.94, -9467.508, -0.006913373, 0.002441815, -783825.56, -8489.781, 0.0, 5.0127745, 4.9530354 
4.2365766e+2, 2.2583546e+2, -735330.0, -826343.44, -9680.847, -0.0043791635, -0.014126236, -734311.7, -7509.854, 0.0, 5.0124645, 4.9537697 
4.2364702e+2, 2.307879e+2, -686828.8, -777377.94, -9827.407, -0.0020090428, -0.031972278, -685774.5, -7506.6816, 0.0, 5.0121574, 4.953778 
4.2363635e+2, 2.3574027e+2, -638971.8, -729855.94, -9963.891, 0.00042035122, -0.050438114, -637892.25, -8157.9893, 0.0, 5.0118484, 4.9532843 
4.23626e+2, 2.4069102e+2, -599022.1, -700081.94, -9509.396, 0.0047225766, -0.039912816, -598135.1, -16919.066, 0.0, 5.0115986, 4.9465566 
4.2361686e+2, 2.4564192e+2, -547969.4, -646734.8, -8821.731, 0.008940657, -0.012362024, -547187.6, -14493.933, 0.0, 5.0115423, 4.9479194 
4.2360774e+2, 2.5059283e+2, -498689.72, -597538.56, -8765.761, 0.012509579, 0.012367156, -497918.38, -13747.382, 0.0, 5.01149, 4.94788 
4.2359853e+2, 2.5554386e+2, -449655.28, -548911.8, -8716.405, 0.016133364, 0.03903143, -448895.66, -13248.832, 0.0, 5.0114293, 4.9476423 
4.2359105e+2, 2.6048774e+2, -414018.78, -532499.4, -10014.323, 0.03973171, 0.0617917, -413178.3, -25983.078, 0.0, 5.011733, 4.935697 
4.2358324e+2, 2.6542217e+2, -358566.66, -473937.63, -11237.032, 0.07208968, -0.008895638, -357482.38, -18638.178, 0.0, 5.0122128, 4.9381337 
4.23574e+2, 2.7035573e+2, -306737.2, -423930.94, -10948.912, 0.09974002, -0.10634682, -305723.06, -15220.698, 0.0, 5.01252, 4.938144 
4.2356384e+2, 2.75288e+2, -254821.73, -374221.5, -10203.033, 0.12898415, -0.22285067, -253956.14, -11782.562, 0.0, 5.0127773, 4.938106 
4.2356938e+2, 2.802259e+2, -240492.33, -402354.78, 9378.725, 0.23377217, -0.10569378, -239950.72, -46162.414, 0.0, 5.0133367, 4.911074 
4.2357785e+2, 2.851722e+2, -169063.95, -281388.0, 2786.008, 0.2287949, 0.078145735, -168994.89, -23679.838, 0.0, 5.011837, 4.9358063 
4.2357436e+2, 2.901115e+2, -126245.9, -235043.67, 958.89526, 0.14554906, 0.086895995, -126237.45, -29328.344, 0.0, 5.009542, 4.9355917 
4.2357013e+2, 2.9504913e+2, -83243.08, -188797.78, -243.2048, 0.06901078, 0.07524418, -83242.52, -34722.75, 0.0, 5.0071387, 4.935376 
4.23567e+2, 2.999988e+2, -32739.055, -94443.89, 2738.5266, 0.02080537, 0.051205512, -32617.754, -32599.42, 0.0, 5.005048, 4.9616957 
4.23566e+2, 3.049627e+2, -37138.168, -100614.15, 5428.47, 0.030444134, 0.03415054, -36677.273, -36677.273, 0.0, 5.0044374, 4.958743 
4.2356253e+2, 3.0993038e+2, -36787.867, -95901.164, 4397.7, 0.04400576, 0.037544247, -36462.492, -36462.492, 0.0, 5.003831, 4.9603267 
4.235568e+2, 3.1490177e+2, -36304.387, -91322.35, 3181.1106, 0.061671283, 0.058999628, -36121.066, -36121.066, 0.0, 5.003092, 4.961912 
4.2885366e+2, 1.2147591e+2, -1693411.9, -1753542.5, 429.25867, 0.019351527, -0.03242138, -1693408.8, 56128.734, 0.0, 5.023159, 4.983959 
4.288491e+2, 1.2646589e+2, -1648203.6, -1710219.1, -2030.911, 0.009350677, 0.043733526, -1648137.3, 52501.723, 0.0, 5.02273, 4.982328 
4.2884433e+2, 1.3144593e+2, -1600530.4, -1661899.1, -2188.2908, 0.0012828575, 0.019895798, -1600452.4, 51381.31, 0.0, 5.022304, 4.9823275 
4.2883956e+2, 1.3642593e+2, -1555001.6, -1618001.6, -2325.826, -0.006756311, -0.0026970133, -1554915.9, 48112.92, 0.0, 5.0218782, 4.980859 
4.2883414e+2, 1.4140405e+2, -1513724.3, -1582787.5, -4335.1665, -0.011719286, -0.0031901577, -1513453.3, 40788.66, 0.0, 5.021424, 4.9764495 
4.2882732e+2, 1.4638089e+2, -1465875.3, -1533747.3, -4882.308, -0.01243528, -0.0043693697, -1465525.9, 39941.04, 0.0, 5.020903, 4.976707 
4.288204e+2, 1.513577e+2, -1418406.3, -1485486.1, -5060.379, -0.013112203, -0.0060834624, -1418026.6, 38665.492, 0.0, 5.020379, 4.9767056 
4.2881352e+2, 1.5633449e+2, -1372328.6, -1440139.6, -5229.6694, -0.013782932, -0.0073258914, -1371927.6, 35989.723, 0.0, 5.019855, 4.975727 
4.288058e+2, 1.6130778e+2, -1332034.8, -1406848.8, -7010.415, -0.013976351, -0.0038209343, -1331383.5, 27793.514, 0.0, 5.019313, 4.9707217 
4.2879656e+2, 1.662786e+2, -1284322.5, -1357895.5, -7492.282, -0.012802776, -0.0075294324, -1283567.3, 26893.893, 0.0, 5.0187325, 4.970949 
4.287873e+2, 1.7124943e+2, -1236927.4, -1309616.1, -7625.8384, -0.011562125, -0.0111433705, -1236135.9, 25609.072, 0.0, 5.018151, 4.970949 
4.2877802e+2, 1.7622028e+2, -1190654.9, -1263726.4, -7758.004, -0.010325522, -0.014362088, -1189840.3, 23188.45, 0.0, 5.0175686, 4.9701433 
4.287682e+2, 1.8118787e+2, -1150771.5, -1231487.9, -8776.29, -0.009801916, -0.010097653, -1149828.3, 14516.837, 0.0, 5.0169983, 4.964711 
4.2875725e+2, 1.8615271e+2, -1102671.8, -1181991.5, -9097.978, -0.011377185, -0.014636699, -1101641.5, 14047.913, 0.0, 5.016454, 4.965072 
4.2874628e+2, 1.911176e+2, -1055063.3, -1133560.9, -9223.691, -0.013058987, -0.019441707, -1053994.0, 13039.685, 0.0, 5.0159106, 4.9650717 
4.287353e+2, 1.9608247e+2, -1008336.44, -1087037.0, -9347.608, -0.014735449, -0.023968454, -1007241.4, 11136.478, 0.0, 5.015367, 4.964421 
4.2872435e+2, 2.0104459e+2, -968225.0, -1054809.1, -9582.079, -0.015295203, -0.017046297, -967177.25, 2572.2346, 0.0, 5.0148273, 4.958885 
4.287135e+2, 2.060048e+2, -919684.75, -1004510.2, -9604.59, -0.013461595, -0.011928122, -918610.9, 2529.6108, 0.0, 5.014295, 4.9594836 
4.2870262e+2, 2.1096504e+2, -871951.56, -955970.6, -9606.1045, -0.011567034, -0.0072496873, -870867.25, 1663.736, 0.0, 5.0137634, 4.9594827 
4.286918e+2, 2.1592529e+2, -824875.2, -908876.3, -9607.394, -0.009696403, -0.0023727668, -823790.4, 131.14851, 0.0, 5.0132313, 4.958982 
4.2868102e+2, 2.2088173e+2, -784982.9, -877840.8, -9728.279, -0.006749038, 0.004783754, -783974.7, -8625.117, 0.0, 5.0127673, 4.952905 
4.2867026e+2, 2.2583407e+2, -735613.25, -826848.06, -9877.295, -0.0030198728, -0.010960783, -734556.1, -7738.0605, 0.0, 5.012448, 4.953601 
4.286595e+2, 2.3078646e+2, -687132.8, -777875.6, -10012.853, 0.0005241173, -0.027812669, -686041.1, -7754.631, 0.0, 5.0121326, 4.9536138 
4.2864868e+2, 2.3573878e+2, -639296.56, -730346.7, -10138.305, 0.0040287157, -0.04515356, -638181.4, -8426.201, 0.0, 5.0118155, 4.953124 
4.286382e+2, 2.4068953e+2, -599186.3, -700059.44, -9572.23, 0.008667614, -0.033542532, -598286.0, -17048.1, 0.0, 5.0115385, 4.946591 
4.286288e+2, 2.456404e+2, -547943.1, -646305.44, -8901.019, 0.012027962, -0.007859245, -547144.2, -14430.54, 0.0, 5.011483, 4.948095 
4.2861947e+2, 2.5059125e+2, -498621.16, -597098.56, -8829.68, 0.014769993, 0.01435183, -497835.72, -13646.545, 0.0, 5.011446, 4.94805 
4.286101e+2, 2.5554222e+2, -449544.6, -548461.4, -8764.956, 0.017566409, 0.038417872, -448773.94, -13110.588, 0.0, 5.0114007, 4.9478073 
4.2860252e+2, 2.6048627e+2, -414461.4, -532987.44, -9291.662, 0.03872614, 0.0625837, -413737.4, -26527.24, 0.0, 5.0116525, 4.935552 
4.2859584e+2, 2.6542193e+2, -359868.5, -474104.53, -9735.61, 0.06994758, 0.005030235, -359044.72, -20187.143, 0.0, 5.011809, 4.938187 
4.285878e+2, 2.7035746e+2, -308922.63, -423659.88, -9056.217, 0.09441357, -0.07461874, -308212.22, -17703.525, 0.0, 5.0117807, 4.9384384 
4.2857876e+2, 2.7529228e+2, -257888.05, -373510.75, -7918.781, 0.117292136, -0.16861117, -257348.22, -15181.777, 0.0, 5.0117025, 4.9386406 
4.2858252e+2, 2.8023246e+2, -238387.16, -400773.34, 7103.701, 0.20226774, -0.034217495, -238076.98, -44309.12, 0.0, 5.013751, 4.911626 
4.2858812e+2, 2.8517652e+2, -163200.47, -280351.97, 281.24036, 0.20091869, 0.12422482, -163199.8, -17887.893, 0.0, 5.0133734, 4.9361014 
4.285835e+2, 2.9011342e+2, -121352.766, -233372.58, -1072.3868, 0.13230692, 0.10505208, -121342.5, -24419.12, 0.0, 5.010721, 4.9361897 
4.2857796e+2, 2.9504913e+2, -79321.38, -186489.86, -1801.8682, 0.066653535, 0.06832102, -79291.09, -30744.389, 0.0, 5.0079613, 4.936276 
4.2857307e+2, 2.99998e+2, -29799.85, -91395.49, 1831.875, 0.019196305, 0.028899534, -29745.418, -29697.244, 0.0, 5.0055227, 4.9629507 
4.2856875e+2, 3.04967e+2, -34806.66, -98233.69, 5269.45, -0.0009060994, 0.056316823, -34371.863, -34371.863, 0.0, 5.0047965, 4.9598737 
4.285615e+2, 3.0994093e+2, -34995.664, -94917.375, 4868.6196, -0.028279897, 0.121759154, -34602.668, -34602.668, 0.0, 5.0041556, 4.9610906 
4.2855173e+2, 3.1491846e+2, -35051.72, -91734.39, 4282.2417, -0.06003308, 0.21025097, -34730.03, -34730.03, 0.0, 5.0033817, 4.9623084 
4.3387675e+2, 1.2147745e+2, -1693768.0, -1754256.4, 24.590302, 0.018218081, -0.03140546, -1693768.0, 55753.09, 0.0, 5.023157, 4.9837265 
4.3387154e+2, 1.264666e+2, -1648499.4, -1710816.1, -2355.904, 0.00681877, 0.038609188, -1648410.5, 52219.98, 0.0, 5.022728, 4.982133 
4.3386647e+2, 1.3144664e+2, -1600823.8, -1662494.9, -2512.2734, -0.0004185823, 0.016768621, -1600721.5, 51103.633, 0.0, 5.0223026, 4.982132 
4.3386137e+2, 1.3642666e+2, -1555288.8, -1618588.0, -2647.3105, -0.0076408423, -0.0038250838, -1555178.1, 47841.996, 0.0, 5.0218773, 4.980666 
4.3385556e+2, 1.4140469e+2, -1514037.4, -1583433.6, -4724.13, -0.011907136, -0.0031135974, -1513717.3, 40516.844, 0.0, 5.0214233, 4.9762363 
4.338482e+2, 1.4638127e+2, -1466204.1, -1534429.3, -5282.284, -0.012412948, -0.0046233973, -1465797.6, 39664.33, 0.0, 5.020903, 4.9764814 
4.338408e+2, 1.5135781e+2, -1418732.8, -1486166.0, -5459.7813, -0.012919676, -0.006709114, -1418293.6, 38396.363, 0.0, 5.020379, 4.97648 
4.338334e+2, 1.5633436e+2, -1372650.5, -1440812.5, -5627.58, -0.013424827, -0.008323563, -1372189.0, 35728.973, 0.0, 5.019855, 4.975503 
4.3382517e+2, 1.6130742e+2, -1332290.9, -1407389.1, -7448.8467, -0.013421382, -0.005016233, -1331559.1, 27620.945, 0.0, 5.019314, 4.9705415 
4.3381536e+2, 1.6627808e+2, -1284561.1, -1358400.5, -7936.8574, -0.0119510405, -0.008574346, -1283717.6, 26748.14, 0.0, 5.0187335, 4.9707804 
4.3380556e+2, 1.7124876e+2, -1237165.1, -1310119.8, -8069.827, -0.010417621, -0.012025972, -1236283.1, 25467.895, 0.0, 5.0181513, 4.9707804 
4.3379572e+2, 1.7621945e+2, -1190891.8, -1264228.3, -8201.245, -0.008897507, -0.01507823, -1189985.8, 23050.568, 0.0, 5.017569, 4.9699745 
4.3378538e+2, 1.8118688e+2, -1150992.9, -1231954.4, -9199.046, -0.008075707, -0.010609069, -1149960.9, 14393.415, 0.0, 5.0169983, 4.9645543 
4.337739e+2, 1.8615164e+2, -1102896.0, -1182459.0, -9510.834, -0.009319814, -0.014729504, -1101774.9, 13925.403, 0.0, 5.016453, 4.964915 
4.3376243e+2, 1.9111641e+2, -1055288.5, -1134026.1, -9634.988, -0.01068705, -0.019082831, -1054126.6, 12919.555, 0.0, 5.0159087, 4.964915 
4.3375096e+2, 1.9608118e+2, -1008562.7, -1087500.0, -9757.289, -0.012066156, -0.023147138, -1007374.5, 11017.539, 0.0, 5.015364, 4.9642644 
4.3373945e+2, 2.0104323e+2, -968300.9, -1054958.0, -9991.791, -0.012720376, -0.0155391265, -967163.75, 2600.7776, 0.0, 5.0148253, 4.958835 
4.3372798e+2, 2.0600346e+2, -919687.8, -1004506.0, -10012.222, -0.011604198, -0.0101655815, -918521.94, 2633.0024, 0.0, 5.0142937, 4.9594855 
4.3371654e+2, 2.1096373e+2, -871956.2, -955969.06, -10011.974, -0.010436428, -0.0053472724, -870779.5, 1765.4601, 0.0, 5.013762, 4.9594836 
4.337051e+2, 2.1592401e+2, -824881.3, -908877.44, -10011.457, -0.009313762, -0.00030694538, -823704.56, 230.37997, 0.0, 5.0132294, 4.958982 
4.3369383e+2, 2.2088042e+2, -785194.8, -878248.25, -9995.298, -0.006551405, 0.0070586144, -784133.25, -8769.831, 0.0, 5.01276, 4.952766 
4.336829e+2, 2.2583267e+2, -735899.56, -827350.25, -10081.066, -0.0016492761, -0.0080857305, -734801.5, -7966.936, 0.0, 5.012431, 4.95343 
4.3367192e+2, 2.3078497e+2, -687439.94, -778370.8, -10205.617, 0.0030284964, -0.024154652, -686308.56, -8003.188, 0.0, 5.012108, 4.9534473 
4.3366095e+2, 2.3573726e+2, -639624.5, -730834.94, -10320.037, 0.0075682355, -0.0405817, -638471.4, -8694.975, 0.0, 5.011783, 4.9529624 
4.3365026e+2, 2.406881e+2, -599494.7, -700334.4, -9684.367, 0.012648278, -0.026272347, -598573.06, -17313.959, 0.0, 5.0114784, 4.946519 
4.3364072e+2, 2.45639e+2, -547929.44, -645864.3, -8986.074, 0.015161906, -0.0017995944, -547111.75, -14379.265, 0.0, 5.0114245, 4.948267 
4.3363118e+2, 2.5058976e+2, -498565.06, -596646.8, -8899.367, 0.017034544, 0.01750716, -497764.13, -13557.734, 0.0, 5.011402, 4.9482174 
4.336216e+2, 2.5554064e+2, -449446.34, -547999.1, -8819.278, 0.018961104, 0.038588885, -448663.34, -12984.27, 0.0, 5.011372, 4.9479694 
4.3361413e+2, 2.6048452e+2, -415341.97, -534320.8, -8750.415, 0.039497383, 0.06266491, -414701.88, -27474.324, 0.0, 5.011572, 4.9350657 
4.336082e+2, 2.6542112e+2, -361254.7, -474203.72, -8630.666, 0.06904074, 0.011635972, -360599.0, -21722.188, 0.0, 5.0114055, 4.9381447 
4.3360078e+2, 2.703583e+2, -311191.5, -423320.03, -7559.4043, 0.08865508, -0.057424534, -310684.16, -20160.973, 0.0, 5.011042, 4.938637 
4.335923e+2, 2.7529544e+2, -261036.98, -372730.13, -6029.85, 0.10350036, -0.13611382, -260712.4, -18542.629, 0.0, 5.010629, 4.9390798 
4.335961e+2, 2.8023908e+2, -240310.48, -408501.8, 7319.2217, 0.17186628, 0.04178173, -239992.58, -46245.92, 0.0, 5.014172, 4.9089203 
4.336002e+2, 2.8518182e+2, -157515.5, -279150.25, -2766.1926, 0.17586465, 0.19384873, -157452.63, -12153.316, 0.0, 5.01491, 4.9363112 
4.335938e+2, 2.9011607e+2, -116636.84, -231535.34, -3647.852, 0.11997322, 0.13900307, -116521.15, -19590.445, 0.0, 5.0119014, 4.9367013 
4.3358645e+2, 2.9504958e+2, -75575.7, -184015.17, -3906.2844, 0.06329115, 0.06944389, -75435.17, -26865.998, 0.0, 5.008785, 4.9370904 
4.3357956e+2, 2.9999706e+2, -27413.016, -89027.68, 884.36707, 0.01743514, 0.006302216, -27400.324, -27320.994, 0.0, 5.0059977, 4.963871 
4.335726e+2, 3.0497056e+2, -32681.057, -95652.17, 5579.811, -0.022093788, 0.06884904, -32190.457, -32190.457, 0.0, 5.005156, 4.960919 
4.3356234e+2, 3.0995032e+2, -33409.67, -93731.32, 5809.583, -0.07920341, 0.18539523, -32855.246, -32855.246, 0.0, 5.004481, 4.9617686 
4.3354926e+2, 3.149335e+2, -34005.773, -91943.61, 5854.4814, -0.14918934, 0.32999066, -33420.113, -33420.113, 0.0, 5.0036726, 4.962619 
4.3889984e+2, 1.2147895e+2, -1693568.9, -1754582.4, -170.78308, 0.017223319, -0.030940639, -1693568.4, 55936.543, 0.0, 5.023315, 4.983543 
4.3889406e+2, 1.2646736e+2, -1648334.4, -1711189.8, -2491.2627, 0.004418099, 0.03372017, -1648235.9, 52385.64, 0.0, 5.022881, 4.9819365 
4.3888864e+2, 1.3144739e+2, -1600708.1, -1662893.4, -2658.5635, -0.0020261514, 0.013754093, -1600594.6, 51221.71, 0.0, 5.022439, 4.9819355 
4.3888322e+2, 1.364274e+2, -1555227.1, -1619007.4, -2801.7322, -0.008447821, -0.0049752262, -1555104.3, 47907.17, 0.0, 5.0219936, 4.980472 
4.38877e+2, 1.4140534e+2, -1514062.4, -1583946.6, -4947.832, -0.012026396, -0.003114721, -1513713.8, 40512.51, 0.0, 5.0215216, 4.9760203 
4.3886915e+2, 1.4638166e+2, -1466261.9, -1534977.8, -5515.2554, -0.012335341, -0.004911144, -1465822.0, 39634.78, 0.0, 5.020994, 4.976256 
4.388612e+2, 1.5135795e+2, -1418809.0, -1486722.5, -5690.271, -0.012679843, -0.007332379, -1418335.6, 38352.008, 0.0, 5.0204635, 4.9762545 
4.388533e+2, 1.5633425e+2, -1372743.9, -1441372.6, -5854.0527, -0.013023513, -0.009286151, -1372248.1, 35670.39, 0.0, 5.0199323, 4.97528 
4.3884453e+2, 1.6130708e+2, -1332318.3, -1407820.9, -7709.749, -0.012842536, -0.0061378647, -1331539.1, 27643.766, 0.0, 5.0193925, 4.9703603 
4.388342e+2, 1.6627759e+2, -1284511.9, -1358765.5, -8204.168, -0.011102233, -0.00955578, -1283616.1, 26853.96, 0.0, 5.0188313, 4.970612 
4.3882382e+2, 1.7124812e+2, -1237062.0, -1310458.5, -8336.852, -0.009289981, -0.012869218, -1236126.9, 25630.047, 0.0, 5.0182676, 4.970612 
4.3881345e+2, 1.7621866e+2, -1190741.0, -1264543.3, -8467.261, -0.007490175, -0.01578458, -1189782.0, 23261.799, 0.0, 5.017701, 4.969806 
4.3880254e+2, 1.8118596e+2, -1150802.0, -1232227.4, -9442.124, -0.0063579427, -0.011100632, -1149721.5, 14641.803, 0.0, 5.0171394, 4.964396 
4.387906e+2, 1.861506e+2, -1102720.6, -1182735.9, -9738.61, -0.0072379056, -0.014755795, -1101552.4, 14158.551, 0.0, 5.016588, 4.964758 
4.387786e+2, 1.9111525e+2, -1055142.9, -1134318.0, -9857.139, -0.008244634, -0.018629065, -1053934.1, 13124.328, 0.0, 5.0160336, 4.9647574 
4.387666e+2, 1.9607991e+2, -1008457.0, -1087811.5, -9975.819, -0.009269544, -0.022215186, -1007222.1, 11183.71, 0.0, 5.0154753, 4.9641066 
4.3875456e+2, 2.0104194e+2, -968107.94, -1055002.8, -10203.467, -0.010005534, -0.013813736, -966925.9, 2853.2546, 0.0, 5.0149198, 4.9587765 
4.387425e+2, 2.0600216e+2, -919483.1, -1004405.6, -10231.093, -0.009616912, -0.00828162, -918267.9, 2901.2573, 0.0, 5.014364, 4.9594874 
4.3873045e+2, 2.1096243e+2, -871833.3, -955904.94, -10231.594, -0.009161379, -0.003513585, -870606.0, 1952.7977, 0.0, 5.0138035, 4.9594865 
4.3871835e+2, 2.1592271e+2, -824848.8, -908853.06, -10225.264, -0.00876095, 0.001470819, -823622.06, 326.3322, 0.0, 5.01324, 4.958986 
4.3870664e+2, 2.2087908e+2, -785425.4, -878687.2, -10064.255, -0.006135546, 0.008911797, -784351.6, -8974.13, 0.0, 5.0127516, 4.952617 
4.386955e+2, 2.2583127e+2, -736126.3, -827871.9, -10126.946, -0.000104231636, -0.0053326557, -735021.8, -8170.886, 0.0, 5.0124416, 4.9532413 
4.3868437e+2, 2.307835e+2, -687663.44, -778901.6, -10313.686, 0.0057386, -0.020396985, -686512.06, -8187.945, 0.0, 5.0121217, 4.953254 
4.3867323e+2, 2.3573573e+2, -639903.9, -731400.0, -10517.831, 0.011436869, -0.035816256, -638710.4, -8912.876, 0.0, 5.0117793, 4.9527655 
4.3866235e+2, 2.4068674e+2, -599851.44, -700894.06, -9888.001, 0.017243614, -0.017479166, -598892.9, -17613.277, 0.0, 5.0114417, 4.9463444 
4.386526e+2, 2.4563764e+2, -547801.2, -645363.9, -9080.855, 0.018974144, 0.005631386, -546963.1, -14212.192, 0.0, 5.0113974, 4.9484506 
4.3864295e+2, 2.5058824e+2, -498297.9, -596057.9, -8918.5625, 0.019943047, 0.02086873, -497490.94, -13266.875, 0.0, 5.0114264, 4.948408 
4.386332e+2, 2.5553897e+2, -448943.84, -547277.0, -8719.56, 0.020925002, 0.03772219, -448176.63, -12480.609, 0.0, 5.0114846, 4.948167 
4.3862605e+2, 2.604824e+2, -416174.63, -536692.56, -8287.988, 0.042603083, 0.06043546, -415607.34, -28358.168, 0.0, 5.01174, 4.9341 
4.3862057e+2, 2.6541936e+2, -362888.78, -475957.2, -9902.813, 0.07208751, 0.013341892, -362028.0, -23123.41, 0.0, 5.011189, 4.9374366 
4.386135e+2, 2.7035734e+2, -315382.47, -426080.84, -11762.114, 0.08957105, -0.050659906, -314146.5, -23591.674, 0.0, 5.0099945, 4.937926 
4.3860534e+2, 2.7529538e+2, -269017.3, -376946.2, -14216.058, 0.10103825, -0.12242822, -267176.22, -24972.092, 0.0, 5.0083237, 4.938377 
4.386112e+2, 2.8024217e+2, -256347.83, -428029.56, -1904.029, 0.16080977, 0.11804635, -256326.7, -62567.92, 0.0, 5.011062, 4.9034324 
4.3861467e+2, 2.8518546e+2, -160856.52, -278036.34, -13136.869, 0.16516833, 0.28187442, -159401.81, -14099.758, 0.0, 5.0131946, 4.9373174 
4.3860567e+2, 2.9011795e+2, -117015.51, -229194.72, -10356.723, 0.11421782, 0.18642598, -116067.36, -19122.715, 0.0, 5.011219, 4.9377213 
4.3859574e+2, 2.9504988e+2, -74192.6, -180899.89, -8022.972, 0.060871925, 0.07857211, -73592.75, -25000.076, 0.0, 5.0087385, 4.9381313 
4.385864e+2, 2.9999593e+2, -26356.977, -87502.34, -932.8665, 0.015610374, -0.014718297, -26342.746, -26230.771, 0.0, 5.0061746, 4.9643793 
4.3857753e+2, 3.0497333e+2, -32303.842, -93414.47, 5683.2505, -0.032175414, 0.07117071, -31779.797, -31779.797, 0.0, 5.0049367, 4.961759 
4.385654e+2, 3.0995804e+2, -36728.11, -93615.51, 8459.316, -0.10205262, 0.218521, -35496.836, -35496.836, 0.0, 5.003052, 4.962399 
4.3855044e+2, 3.1494576e+2, -43368.22, -94905.81, 12447.564, -0.18846335, 0.39244783, -40519.316, -40519.316, 0.0, 5.000214, 4.9630423 
4.4392386e+2, 1.2148135e+2, -1688806.1, -1752513.9, 451.12454, 0.015343333, -0.030710824, -1688802.9, 60677.805, 0.0, 5.024958, 4.9834185 
4.4391775e+2, 1.2646946e+2, -1643992.9, -1709547.3, -1949.7906, 0.003867195, 0.032961875, -1643935.0, 56664.895, 0.0, 5.0244336, 4.981719 
4.4391182e+2, 1.3144921e+2, -1596684.9, -1661414.3, -2133.0295, -0.0021490003, 0.012543415, -1596614.6, 55182.543, 0.0, 5.023889, 4.9817185 
4.4390595e+2, 1.3642894e+2, -1551505.8, -1617675.9, -2290.9214, -0.00810489, -0.006665442, -1551426.6, 51568.16, 0.0, 5.023344, 4.980258 
4.4389924e+2, 1.4140664e+2, -1510619.4, -1582747.0, -4487.956, -0.011382338, -0.005074304, -1510341.1, 43870.805, 0.0, 5.0227795, 4.975808 
4.438908e+2, 1.463828e+2, -1463050.8, -1533922.3, -5060.6963, -0.011803749, -0.0063815573, -1462691.1, 42753.36, 0.0, 5.022183, 4.9760323 
4.4388232e+2, 1.5135892e+2, -1415805.1, -1485772.1, -5240.111, -0.012268517, -0.008277376, -1415414.9, 41262.457, 0.0, 5.021585, 4.976032 
4.4387382e+2, 1.5633503e+2, -1369941.8, -1440519.5, -5407.1934, -0.012725702, -0.009714129, -1369529.9, 38380.38, 0.0, 5.0209866, 4.975059 
4.4386446e+2, 1.613077e+2, -1329611.4, -1406927.8, -7265.2065, -0.012617281, -0.006210561, -1328934.6, 30242.088, 0.0, 5.0203967, 4.9701786 
4.438536e+2, 1.6627803e+2, -1281828.8, -1357875.1, -7766.694, -0.010833885, -0.009569492, -1281043.6, 29422.176, 0.0, 5.019827, 4.970436 
4.4384265e+2, 1.7124839e+2, -1234400.1, -1309582.8, -7913.4966, -0.008954969, -0.012840208, -1233576.3, 28178.395, 0.0, 5.019258, 4.9704356 
4.438317e+2, 1.7621875e+2, -1188093.0, -1263677.8, -8057.864, -0.0070694108, -0.01572298, -1187243.6, 25799.773, 0.0, 5.018689, 4.9696307 
4.4382027e+2, 1.8118592e+2, -1148156.4, -1231263.0, -9048.308, -0.0055350517, -0.010837597, -1147182.6, 17181.695, 0.0, 5.018106, 4.9642663 
4.4380787e+2, 1.8615049e+2, -1100278.1, -1181863.6, -9323.722, -0.005317007, -0.013730313, -1099226.1, 16486.682, 0.0, 5.0174837, 4.964633 
4.4379538e+2, 1.9111511e+2, -1052908.0, -1133555.3, -9415.561, -0.0051869075, -0.01682672, -1051823.3, 15237.817, 0.0, 5.01686, 4.964631 
4.4378293e+2, 1.9607973e+2, -1006417.4, -1087152.3, -9504.902, -0.0050615896, -0.019663192, -1005313.44, 13095.949, 0.0, 5.016236, 4.963979 
4.4377032e+2, 2.0104164e+2, -966170.2, -1054191.5, -9717.405, -0.0052222623, -0.011249443, -965110.2, 4673.567, 0.0, 5.015602, 4.958739 
4.4375756e+2, 2.0600174e+2, -917887.1, -1003709.3, -9774.475, -0.00547323, -0.0069889664, -916787.94, 4387.1953, 0.0, 5.014921, 4.9594703 
4.437448e+2, 2.1096185e+2, -870599.94, -955366.7, -9805.221, -0.0056753377, -0.003540216, -869480.5, 3085.6257, 0.0, 5.0142355, 4.9594736 
4.4373205e+2, 2.1592198e+2, -823966.6, -908466.44, -9834.756, -0.0059206206, 0.00007027372, -822837.06, 1119.9896, 0.0, 5.01355, 4.958977 
4.4371969e+2, 2.2087836e+2, -784875.9, -878557.75, -9475.021, -0.0037798353, 0.007725186, -783927.1, -8540.861, 0.0, 5.0129657, 4.952567 
4.437083e+2, 2.2583097e+2, -735753.56, -828026.2, -9347.462, 0.0023537334, -0.00092141656, -734816.1, -7959.3945, 0.0, 5.012623, 4.953116 
4.4369692e+2, 2.3078363e+2, -687329.25, -779150.06, -9396.558, 0.008494043, -0.010249225, -686377.56, -8050.318, 0.0, 5.01229, 4.9531083 
4.436855e+2, 2.3573622e+2, -639547.0, -731718.75, -9431.135, 0.014672162, -0.020239066, -638591.9, -8793.535, 0.0, 5.0119553, 4.9525986 
4.4367436e+2, 2.4068719e+2, -598974.6, -700127.75, -8450.446, 0.02046601, -0.0020212317, -598273.56, -16991.94, 0.0, 5.011606, 4.94656 
4.4366434e+2, 2.456373e+2, -547821.9, -644866.7, -7553.983, 0.02206667, 0.0106363, -547237.44, -14477.269, 0.0, 5.0112243, 4.948729 
4.4365445e+2, 2.5058714e+2, -499507.66, -596022.0, -7416.7036, 0.023009714, 0.0154629, -498941.03, -14700.894, 0.0, 5.0108333, 4.948715 
4.4364443e+2, 2.555371e+2, -451431.3, -547741.44, -7302.7886, 0.023820776, 0.021755306, -450880.72, -15161.893, 0.0, 5.0104365, 4.9485035 
4.43637e+2, 2.6048073e+2, -419363.22, -537521.1, -5722.546, 0.042833794, 0.04190007, -419086.72, -31817.45, 0.0, 5.010391, 4.9345326 
4.436321e+2, 2.654199e+2, -365142.1, -480140.75, -5135.884, 0.072533086, 0.025954796, -364913.2, -26007.61, 0.0, 5.010563, 4.936633 
4.4362587e+2, 2.7035874e+2, -314363.13, -431008.6, -4114.5503, 0.095140174, -0.010527687, -314218.2, -23669.354, 0.0, 5.010589, 4.9365134 
4.4361874e+2, 2.7529636e+2, -263475.22, -382183.4, -2688.2131, 0.11558358, -0.062975734, -263414.38, -21209.777, 0.0, 5.010573, 4.9363446 
4.436235e+2, 2.8024042e+2, -251303.16, -415509.9, 17351.076, 0.16425416, 0.14785688, -249489.77, -55702.355, 0.0, 5.0109825, 4.9076595 
4.4362396e+2, 2.8518403e+2, -169203.69, -273562.2, 4136.792, 0.15176645, 0.2819855, -169039.95, -23713.174, 0.0, 5.0096445, 4.939651 
4.436134e+2, 2.9011786e+2, -125998.81, -227271.73, 1099.0165, 0.10269083, 0.18507008, -125986.89, -29031.533, 0.0, 5.00752, 4.93938 
4.4360217e+2, 2.9505038e+2, -82620.02, -181072.02, -1486.6573, 0.055092957, 0.073499985, -82597.58, -34000.74, 0.0, 5.005323, 4.9391093 
4.4359156e+2, 2.9999736e+2, -32576.176, -87839.96, 729.03906, 0.014498739, -0.018761799, -32566.56, -32461.033, 0.0, 5.003335, 4.9651895 
4.4358113e+2, 3.0497655e+2, -37168.113, -92337.164, 3569.6924, -0.03715769, 0.07076379, -36938.098, -36938.098, 0.0, 5.002301, 4.9630094 
4.4356814e+2, 3.099624e+2, -38611.49, -89740.54, 3096.9897, -0.101442575, 0.20665063, -38424.582, -38424.582, 0.0, 5.0012593, 4.9641542 
4.43553e+2, 3.1495082e+2, -39942.277, -87258.49, 2751.758, -0.17190005, 0.35504824, -39782.78, -39782.78, 0.0, 5.0001287, 4.965299 
4.4894862e+2, 1.2148422e+2, -1688913.8, -1752732.0, 155.48576, 0.013022632, -0.030782668, -1688913.3, 60538.836, 0.0, 5.0249577, 4.9833484 
4.4894215e+2, 1.264722e+2, -1644332.0, -1710240.5, -2366.2446, 0.0039341813, 0.033841074, -1644247.1, 56324.797, 0.0, 5.024433, 4.9814925 
4.4893578e+2, 1.3145158e+2, -1597022.1, -1662106.0, -2548.2458, -0.0017313756, 0.012025448, -1596922.5, 54850.074, 0.0, 5.023888, 4.981492 
4.4892937e+2, 1.3643093e+2, -1551837.6, -1618358.4, -2703.6926, -0.007355866, -0.008574048, -1551727.9, 51245.676, 0.0, 5.023343, 4.980034 
4.489221e+2, 1.4140835e+2, -1510935.0, -1583402.5, -4943.3545, -0.010535288, -0.007772912, -1510599.4, 43594.227, 0.0, 5.02278, 4.975592 
4.4891307e+2, 1.4638436e+2, -1463380.1, -1534609.3, -5516.456, -0.011204628, -0.00831568, -1462955.4, 42472.64, 0.0, 5.0221834, 4.9758053 
4.4890392e+2, 1.5136033e+2, -1416132.5, -1486456.9, -5695.3823, -0.011924291, -0.00937506, -1415674.3, 40988.48, 0.0, 5.021585, 4.9758043 
4.488948e+2, 1.563363e+2, -1370264.3, -1441196.3, -5860.9053, -0.012640215, -0.009975025, -1369783.3, 38114.207, 0.0, 5.020987, 4.9748335 
4.4888484e+2, 1.6130883e+2, -1329878.0, -1407493.6, -7708.882, -0.01272142, -0.0059010223, -1329119.8, 30045.965, 0.0, 5.0203977, 4.96999 
4.488734e+2, 1.6627896e+2, -1282087.9, -1358427.3, -8200.786, -0.01093053, -0.0092118485, -1281216.9, 29240.084, 0.0, 5.0198283, 4.9702516 
4.488619e+2, 1.7124915e+2, -1234658.5, -1310133.6, -8347.032, -0.009043452, -0.0124428375, -1233746.4, 28001.38, 0.0, 5.019259, 4.970251 
4.488504e+2, 1.7621933e+2, -1188350.3, -1264226.6, -8490.585, -0.0071586864, -0.015280433, -1187411.8, 25626.791, 0.0, 5.01869, 4.9694467 
4.4883844e+2, 1.8118635e+2, -1148333.1, -1231635.3, -9516.897, -0.005207625, -0.010193556, -1147259.6, 17101.578, 0.0, 5.0181055, 4.964142 
4.488255e+2, 1.861509e+2, -1100437.9, -1182194.1, -9798.117, -0.0036044614, -0.012410848, -1099280.0, 16430.326, 0.0, 5.0174828, 4.9645224 
4.4881257e+2, 1.9111547e+2, -1053067.9, -1133882.1, -9887.731, -0.0020705783, -0.014797028, -1051875.6, 15183.579, 0.0, 5.016858, 4.9645214 
4.487996e+2, 1.9608003e+2, -1006577.4, -1087475.5, -9974.784, -0.000561237, -0.01692125, -1005365.6, 13042.477, 0.0, 5.016233, 4.9638696 
4.4878647e+2, 2.0104188e+2, -966215.9, -1054286.3, -10220.656, 0.000053075415, -0.008679091, -965045.3, 4738.146, 0.0, 5.015602, 4.958707 
4.4877297e+2, 2.0600177e+2, -917931.06, -1003805.8, -10297.564, -0.00079469394, -0.0059608673, -916713.5, 4463.1367, 0.0, 5.0149217, 4.959438 
4.4875947e+2, 2.109617e+2, -870646.2, -955464.8, -10326.127, -0.0016650149, -0.003976038, -869407.2, 3162.156, 0.0, 5.014235, 4.959441 
4.4874594e+2, 2.1592166e+2, -824015.25, -908566.2, -10353.422, -0.0026007686, -0.0017846127, -822765.9, 1196.0177, 0.0, 5.0135484, 4.958945 
4.4873294e+2, 2.2087803e+2, -784914.5, -878600.0, -9805.949, -0.00097551587, 0.006240693, -783899.1, -8507.947, 0.0, 5.0129595, 4.952557 
4.4872117e+2, 2.2583123e+2, -735834.4, -828089.75, -9573.694, 0.004687863, 0.0036606032, -734851.4, -7994.0557, 0.0, 5.012607, 4.953103 
4.487094e+2, 2.307845e+2, -687427.3, -779190.44, -9607.224, 0.010170091, 0.0009066597, -686432.25, -8109.276, 0.0, 5.0122666, 4.9531045 
4.4869763e+2, 2.3573771e+2, -639662.2, -731735.94, -9626.211, 0.015570802, -0.0024262315, -638666.56, -8877.442, 0.0, 5.011924, 4.952604 
4.486861e+2, 2.4068883e+2, -598656.4, -699012.6, -8714.878, 0.020097652, 0.015312767, -597905.2, -16633.248, 0.0, 5.0115514, 4.9469624 
4.4867563e+2, 2.4563801e+2, -547662.06, -644109.7, -7907.694, 0.021652024, 0.015828913, -547018.0, -14258.613, 0.0, 5.0111685, 4.949013 
4.486653e+2, 2.50587e+2, -499328.16, -595307.9, -7753.2783, 0.022953534, 0.009621426, -498705.88, -14457.975, 0.0, 5.0107875, 4.9489827 
4.4865486e+2, 2.5553608e+2, -451232.03, -547070.0, -7622.2114, 0.024126846, 0.0052477564, -450629.6, -14894.664, 0.0, 5.0104012, 4.9487534 
4.4864684e+2, 2.604802e+2, -417429.1, -532594.94, -5348.823, 0.039201956, 0.020939654, -417181.22, -29900.715, 0.0, 5.010306, 4.9363284 
4.4864154e+2, 2.6542294e+2, -363998.03, -475048.94, -3925.486, 0.057296716, 0.031290278, -363859.44, -24980.46, 0.0, 5.0102234, 4.9386454 
4.4863495e+2, 2.7036613e+2, -313776.84, -425167.78, -2500.7769, 0.065977685, 0.027142664, -313720.72, -23242.898, 0.0, 5.0099893, 4.9388227 
4.486274e+2, 2.7530855e+2, -263447.53, -375593.94, -671.72974, 0.06986226, 0.009158469, -263443.5, -21359.637, 0.0, 5.0097127, 4.938951 
4.4862926e+2, 2.8025398e+2, -242984.61, -396942.0, 15330.742, 0.089195475, 0.18468522, -241472.84, -47820.92, 0.0, 5.011053, 4.914214 
4.4862792e+2, 2.851932e+2, -168541.4, -278520.06, 1823.5056, 0.08654495, 0.2700025, -168511.17, -23276.154, 0.0, 5.0104856, 4.9381027 
4.486176e+2, 2.901244e+2, -125715.11, -231400.16, -815.06354, 0.0635361, 0.17403, -125708.83, -28817.588, 0.0, 5.008176, 4.9381084 
4.4860655e+2, 2.9505447e+2, -82716.58, -184372.66, -3000.7712, 0.03944656, 0.063113116, -82628.08, -34069.984, 0.0, 5.005794, 4.938114 
4.4859567e+2, 3.0000073e+2, -31175.014, -85308.07, -601.8452, 0.014884871, -0.022040095, -31168.324, -31094.848, 0.0, 5.003551, 4.966194 
4.4858378e+2, 3.049799e+2, -36264.09, -88741.37, 2511.081, -0.040603228, 0.06819196, -36144.207, -36144.207, 0.0, 5.0022016, 4.964687 
4.4856903e+2, 3.0996525e+2, -38711.54, -86919.03, 2524.6511, -0.11547814, 0.206647, -38579.684, -38579.684, 0.0, 5.0008965, 4.9657164 
4.4855198e+2, 3.1495366e+2, -41048.055, -85210.75, 2665.8613, -0.20222084, 0.36527956, -40887.715, -40887.715, 0.0, 4.9995027, 4.966746 
4.5397335e+2, 1.2148704e+2, -1688943.9, -1752790.9, -145.43265, 0.010841331, -0.031376515, -1688943.6, 60480.633, 0.0, 5.024957, 4.98333 
4.5396662e+2, 1.2647495e+2, -1644671.5, -1710933.4, -2782.5234, 0.0040113116, 0.034748387, -1644554.9, 55989.13, 0.0, 5.024432, 4.981266 
4.539597e+2, 1.3145396e+2, -1597359.9, -1662797.5, -2963.2874, -0.0013034263, 0.011519877, -1597226.0, 54522.04, 0.0, 5.0238876, 4.981265 
4.539528e+2, 1.3643295e+2, -1552169.9, -1619040.8, -3116.3086, -0.006596343, -0.010485972, -1552024.9, 50927.426, 0.0, 5.0233426, 4.9798098 
4.5394495e+2, 1.4141007e+2, -1511256.0, -1584068.6, -5397.8076, -0.00968517, -0.010453679, -1510858.0, 43317.207, 0.0, 5.02278, 4.9753723 
4.5393527e+2, 1.4638592e+2, -1463709.6, -1535296.3, -5972.3853, -0.010604988, -0.01023348, -1463214.8, 42196.8, 0.0, 5.022184, 4.9755774 
4.5392555e+2, 1.5136173e+2, -1416459.9, -1487141.6, -6150.823, -0.011579537, -0.010467571, -1415928.6, 40719.39, 0.0, 5.0215855, 4.975577 
4.539158e+2, 1.5633757e+2, -1370586.9, -1441873.1, -6314.786, -0.012554193, -0.010241893, -1370031.8, 37852.836, 0.0, 5.0209875, 4.974608 
4.5390525e+2, 1.6130996e+2, -1330147.1, -1408064.9, -8151.8584, -0.012835046, -0.005580269, -1329303.5, 29851.234, 0.0, 5.020399, 4.9697995 
4.538932e+2, 1.6627991e+2, -1282347.1, -1358979.4, -8634.968, -0.011035844, -0.008843145, -1281386.1, 29061.84, 0.0, 5.0198293, 4.970067 
4.5388114e+2, 1.7124991e+2, -1234917.0, -1310684.6, -8780.657, -0.009135755, -0.012043462, -1233912.8, 27828.22, 0.0, 5.01926, 4.9700665 
4.5386907e+2, 1.7621991e+2, -1188607.6, -1264775.6, -8923.393, -0.007246933, -0.014844933, -1187576.1, 25457.623, 0.0, 5.0186906, 4.969262 
4.5385656e+2, 1.811868e+2, -1148516.8, -1232021.9, -9987.055, -0.0048768134, -0.00953923, -1147338.9, 17019.182, 0.0, 5.018105, 4.964012 
4.5384318e+2, 1.861513e+2, -1100598.1, -1182524.5, -10274.071, -0.0019008951, -0.011108553, -1099329.4, 16378.547, 0.0, 5.0174813, 4.9644113 
4.5382974e+2, 1.9111581e+2, -1053228.3, -1134208.8, -10361.46, 0.0010254384, -0.0128254695, -1051923.5, 15133.937, 0.0, 5.016856, 4.9644113 
4.538163e+2, 1.9608034e+2, -1006737.9, -1087798.6, -10446.225, 0.0039074775, -0.014278383, -1005413.3, 12993.567, 0.0, 5.0162306, 4.9637604 
4.5380262e+2, 2.010421e+2, -966273.25, -1054405.5, -10720.345, 0.0052924673, -0.005997732, -964987.94, 4795.1523, 0.0, 5.0156016, 4.958667 
4.5378837e+2, 2.0600182e+2, -917975.3, -1003902.1, -10820.461, 0.0038318443, -0.004771683, -916633.7, 4544.2656, 0.0, 5.0149217, 4.9594054 
4.5377406e+2, 2.1096158e+2, -870692.8, -955562.75, -10846.838, 0.0022782865, -0.0043055657, -869328.5, 3243.9067, 0.0, 5.014235, 4.9594083 
4.537598e+2, 2.1592134e+2, -824064.2, -908665.8, -10871.895, 0.0006370485, -0.0035879698, -822689.44, 1277.2549, 0.0, 5.0135474, 4.9589114 
4.537462e+2, 2.2087772e+2, -785004.25, -878749.3, -10147.801, 0.0019653316, 0.0047670905, -783918.3, -8522.04, 0.0, 5.0129533, 4.9525094 
4.5373404e+2, 2.2583143e+2, -735918.9, -828150.6, -9814.513, 0.0071127634, 0.007981356, -734886.06, -8027.8486, 0.0, 5.0125914, 4.9530873 
4.5372188e+2, 2.3078531e+2, -687528.94, -779228.06, -9832.47, 0.0117836, 0.011483247, -686486.5, -8167.3066, 0.0, 5.012243, 4.953098 
4.5370972e+2, 2.3573914e+2, -639781.0, -731750.4, -9835.861, 0.016253673, 0.014489431, -638740.8, -8960.398, 0.0, 5.0118923, 4.9526057 
4.536977e+2, 2.406905e+2, -598488.25, -698212.8, -9007.325, 0.019624157, 0.033601094, -597681.2, -16419.549, 0.0, 5.0114965, 4.9472523 
4.5368686e+2, 2.4563886e+2, -547511.3, -643344.56, -8245.829, 0.021158947, 0.022699565, -546807.0, -14049.609, 0.0, 5.011112, 4.949294 
4.5367607e+2, 2.5058693e+2, -499157.75, -594585.56, -8074.288, 0.022752669, 0.004947566, -498479.38, -14224.784, 0.0, 5.0107417, 4.949246 
4.536652e+2, 2.5553516e+2, -451041.75, -546390.3, -7926.079, 0.02422201, -0.010602474, -450387.38, -14637.229, 0.0, 5.0103655, 4.949 
4.5365676e+2, 2.6047936e+2, -416111.16, -528941.7, -5195.8926, 0.03744319, -0.00015471909, -415872.4, -28578.205, 0.0, 5.010221, 4.9376345 
4.5365062e+2, 2.654254e+2, -362929.84, -469904.2, -3176.0972, 0.041638024, 0.029752763, -362835.63, -23977.111, 0.0, 5.009884, 4.940552 
4.5364305e+2, 2.7037263e+2, -313264.84, -419274.53, -1348.0259, 0.03234597, 0.04989633, -313247.72, -22832.193, 0.0, 5.00939, 4.941026 
4.5363447e+2, 2.7531964e+2, -263492.56, -368952.6, 883.57623, 0.015625805, 0.05833691, -263485.16, -21510.79, 0.0, 5.008853, 4.9414515 
4.5363504e+2, 2.8026754e+2, -238828.7, -387962.8, 14428.018, 0.015523416, 0.22530022, -237445.69, -43929.766, 0.0, 5.0111265, 4.9174266 
4.5363328e+2, 2.852034e+2, -167993.92, -283374.84, -1003.2028, 0.030201254, 0.281984, -167985.19, -22851.742, 0.0, 5.011328, 4.9364696 
4.5362285e+2, 2.9013166e+2, -125545.89, -235423.36, -3242.7861, 0.029946677, 0.17929839, -125450.27, -28630.459, 0.0, 5.008833, 4.9367514 
4.536116e+2, 2.9505906e+2, -82927.305, -187565.97, -5028.8936, 0.02605275, 0.061380375, -82686.18, -34171.64, 0.0, 5.0062656, 4.9370337 
4.5360032e+2, 3.0000398e+2, -30245.959, -83476.44, -2159.3755, 0.017235076, -0.025453527, -30158.504, -30115.666, 0.0, 5.003768, 4.9668803 
4.5358703e+2, 3.0498245e+2, -35497.2, -85010.984, 1560.4845, -0.0354462, 0.056295276, -35448.066, -35448.066, 0.0, 5.002103, 4.966293 
4.535706e+2, 3.099669e+2, -38948.54, -83960.72, 2059.6272, -0.11452605, 0.18739906, -38854.492, -38854.492, 0.0, 5.000535, 4.967207 
4.5355168e+2, 3.1495485e+2, -42291.055, -83024.23, 2686.8252, -0.21116424, 0.346338, -42114.59, -42114.59, 0.0, 4.998878, 4.968121 
4.5899814e+2, 1.2148984e+2, -1688434.4, -1752507.9, -239.8931, 0.0089324545, -0.032204323, -1688433.5, 60962.74, 0.0, 5.02512, 4.9833436 
4.5899108e+2, 1.2647769e+2, -1644562.5, -1711405.8, -2985.1458, 0.0040886025, 0.03536762, -1644429.5, 56086.61, 0.0, 5.024581, 4.981039 
4.5898363e+2, 1.3145635e+2, -1597263.1, -1663274.9, -3164.6377, -0.0008746135, 0.010891408, -1597111.8, 54611.625, 0.0, 5.0240316, 4.981038 
4.5897624e+2, 1.3643499e+2, -1552082.4, -1619515.5, -3313.54, -0.005827456, -0.012359287, -1551920.0, 51010.938, 0.0, 5.023482, 4.979586 
4.5896783e+2, 1.4141183e+2, -1511180.3, -1584538.9, -5626.0684, -0.008814655, -0.012971216, -1510751.3, 43405.258, 0.0, 5.0229135, 4.975153 
4.5895755e+2, 1.4638753e+2, -1463667.4, -1535791.6, -6183.3677, -0.009963947, -0.012026033, -1463141.1, 42253.574, 0.0, 5.0223074, 4.975354 
4.5894718e+2, 1.5136321e+2, -1416446.1, -1487650.1, -6341.305, -0.011167512, -0.011487987, -1415885.8, 40747.242, 0.0, 5.0216994, 4.9753532 
4.5893684e+2, 1.5633889e+2, -1370598.8, -1442388.9, -6483.313, -0.01237233, -0.010491851, -1370017.9, 37853.48, 0.0, 5.021091, 4.9743867 
4.5892566e+2, 1.613111e+2, -1330144.3, -1408503.5, -8292.332, -0.012846854, -0.00525864, -1329276.4, 29866.936, 0.0, 5.020492, 4.9696093 
4.5891306e+2, 1.662809e+2, -1282370.5, -1359415.1, -8763.628, -0.01105888, -0.008472478, -1281386.3, 29052.402, 0.0, 5.01991, 4.969883 
4.589004e+2, 1.7125072e+2, -1234982.5, -1311140.1, -8905.039, -0.009155426, -0.011655107, -1233955.0, 27778.598, 0.0, 5.0193257, 4.969883 
4.5888776e+2, 1.7622054e+2, -1188720.5, -1265252.8, -9042.612, -0.0072641117, -0.014441014, -1187666.6, 25362.006, 0.0, 5.0187397, 4.9690785 
4.588747e+2, 1.8118727e+2, -1148582.4, -1232362.1, -10136.323, -0.0045063915, -0.00889756, -1147373.5, 16981.123, 0.0, 5.018147, 4.9638777 
4.588608e+2, 1.8615171e+2, -1100586.1, -1182776.8, -10434.178, -0.00026635567, -0.0097947195, -1099282.1, 16422.86, 0.0, 5.0175395, 4.9642987 
4.588469e+2, 1.911162e+2, -1053179.0, -1134443.0, -10528.472, 0.0039710943, -0.010838666, -1051837.1, 15218.05, 0.0, 5.016927, 4.9642982 
4.5883298e+2, 1.9608068e+2, -1006665.6, -1088021.3, -10621.922, 0.0081737, -0.011626707, -1005301.6, 13103.624, 0.0, 5.0163093, 4.963648 
4.5881873e+2, 2.0104238e+2, -966110.56, -1054450.5, -10933.962, 0.010340011, -0.003105959, -964777.4, 5004.828, 0.0, 5.0156837, 4.958615 
4.5880374e+2, 2.0600192e+2, -917786.56, -1003899.3, -11091.488, 0.008350567, -0.0033588575, -916380.94, 4797.9097, 0.0, 5.015005, 4.959369 
4.5878872e+2, 2.1096149e+2, -870522.5, -955566.94, -11144.716, 0.006220709, -0.0045521627, -869086.3, 3488.8352, 0.0, 5.0143113, 4.9593725 
4.587737e+2, 2.1592104e+2, -823938.94, -908689.2, -11191.606, 0.0040002395, -0.0055074603, -822486.0, 1485.3513, 0.0, 5.0136085, 4.9588766 
4.5875946e+2, 2.2087738e+2, -785030.1, -878949.2, -10299.02, 0.0052861627, 0.0030640012, -783914.0, -8512.3955, 0.0, 5.012986, 4.952425 
4.5874688e+2, 2.2583163e+2, -736003.0, -828234.8, -9854.594, 0.009721183, 0.012007894, -734961.9, -8102.5825, 0.0, 5.0125785, 4.9530616 
4.5873433e+2, 2.3078609e+2, -687792.0, -779387.9, -9865.819, 0.013404186, 0.0215547, -686741.44, -8425.899, 0.0, 5.012167, 4.9530735 
4.5872176e+2, 2.3574051e+2, -640270.5, -732005.7, -9882.3125, 0.016897364, 0.030573206, -639218.0, -9445.897, 0.0, 5.0117373, 4.952584 
4.5870936e+2, 2.4069221e+2, -598982.75, -698037.56, -9189.356, 0.01944325, 0.05262271, -598137.44, -16886.576, 0.0, 5.011261, 4.947414 
4.5869806e+2, 2.4563974e+2, -547777.2, -642817.56, -8573.872, 0.02116654, 0.030895563, -547009.94, -14255.151, 0.0, 5.0109143, 4.949559 
4.586869e+2, 2.5058687e+2, -499130.1, -593931.4, -8489.7705, 0.023108155, 0.0009121448, -498375.8, -14114.553, 0.0, 5.010654, 4.9495096 
4.5867562e+2, 2.5553417e+2, -450564.63, -545539.2, -8364.775, 0.024885, -0.026675604, -449833.56, -14067.653, 0.0, 5.010446, 4.949261 
4.5866698e+2, 2.6047814e+2, -414942.38, -526698.3, -5513.71, 0.038420208, -0.022005182, -414671.03, -27359.348, 0.0, 5.010384, 4.938326 
4.586598e+2, 2.6542693e+2, -362797.4, -466562.2, -4749.134, 0.029216709, 0.023105772, -362580.5, -23733.701, 0.0, 5.009463, 4.9418488 
4.5865098e+2, 2.7037722e+2, -316469.66, -417143.94, -5179.308, 0.0037416648, 0.059303984, -316203.9, -25832.797, 0.0, 5.0078025, 4.9423933 
4.586412e+2, 2.7532735e+2, -271602.56, -368667.22, -6095.1396, -0.029100891, 0.083032876, -271221.3, -29324.416, 0.0, 5.0055466, 4.942896 
4.5864242e+2, 2.8027767e+2, -253605.05, -394043.94, 4238.376, -0.031563062, 0.2613873, -253477.25, -60064.355, 0.0, 5.00606, 4.9175253 
4.58641e+2, 2.8521195e+2, -179672.78, -290526.6, -11070.473, -0.0007745668, 0.31048673, -178578.05, -33530.91, 0.0, 5.007816, 4.9354796 
4.586296e+2, 2.9013807e+2, -132064.28, -240102.84, -10344.255, 0.010183515, 0.19676845, -131082.77, -34326.695, 0.0, 5.007086, 4.9358206 
4.5861748e+2, 2.950633e+2, -85556.83, -190315.64, -9931.015, 0.017607506, 0.066935174, -84623.695, -36150.098, 0.0, 5.005862, 4.9361653 
4.5860547e+2, 3.0000678e+2, -29255.564, -81746.27, -5462.774, 0.021159781, -0.02836687, -28693.074, -28677.123, 0.0, 5.0041723, 4.96724 
4.5859107e+2, 3.0498412e+2, -34082.81, -80358.44, -14.420224, -0.020688595, 0.03423875, -34082.805, -34082.805, 0.0, 5.002247, 4.967848 
4.5857358e+2, 3.0996725e+2, -41193.13, -80697.414, 3038.1533, -0.08925739, 0.1423975, -40960.84, -40960.84, 0.0, 4.9994164, 4.9688077 
4.5855385e+2, 3.1495425e+2, -50982.29, -82330.24, 7266.171, -0.17429227, 0.28213385, -49379.957, -49379.957, 0.0, 4.9955134, 4.969771 
4.6402416e+2, 1.2149415e+2, -1683643.3, -1750673.4, 420.96664, 0.00864326, -0.029022323, -1683640.6, 65712.77, 0.0, 5.0268283, 4.983109 
4.6401647e+2, 1.2648101e+2, -1640018.0, -1709660.1, -2301.059, 0.0036948854, 0.030917037, -1639942.1, 60540.676, 0.0, 5.0262017, 4.9808216 
4.6400854e+2, 1.3145961e+2, -1592934.3, -1661639.9, -2472.0178, -0.000729205, 0.008061274, -1592845.4, 58845.336, 0.0, 5.025584, 4.980822 
4.6400058e+2, 1.3643819e+2, -1547961.6, -1617980.9, -2612.339, -0.0051388624, -0.013577108, -1547864.4, 55034.574, 0.0, 5.0249662, 4.979373 
4.639916e+2, 1.4141493e+2, -1507220.0, -1582977.1, -4949.5728, -0.0077325767, -0.013141717, -1506898.0, 47227.543, 0.0, 5.0243235, 4.974987 
4.6398067e+2, 1.4639047e+2, -1459956.0, -1534353.6, -5470.0674, -0.008703531, -0.012094874, -1459556.0, 45809.27, 0.0, 5.0236363, 4.9751897 
4.639697e+2, 1.51366e+2, -1412983.5, -1486339.4, -5588.704, -0.009728142, -0.01147359, -1412560.1, 44044.992, 0.0, 5.022948, 4.9751887 
4.639587e+2, 1.5634152e+2, -1367379.4, -1441196.8, -5689.8125, -0.0107508, -0.010398057, -1366943.4, 40901.813, 0.0, 5.0222588, 4.974224 
4.6394688e+2, 1.613136e+2, -1327171.1, -1407433.9, -7453.361, -0.011221691, -0.0051284805, -1326484.8, 32633.953, 0.0, 5.0215774, 4.969447 
4.639336e+2, 1.662832e+2, -1279652.8, -1358489.6, -7906.119, -0.009843454, -0.008339134, -1278867.6, 31548.441, 0.0, 5.020914, 4.969714 
4.639203e+2, 1.7125285e+2, -1232501.8, -1310333.0, -8039.5483, -0.0083569335, -0.011527236, -1231680.0, 30033.143, 0.0, 5.0202513, 4.969714 
4.6390697e+2, 1.762225e+2, -1186468.4, -1264558.0, -8168.6733, -0.0068700844, -0.014331168, -1185623.0, 27387.04, 0.0, 5.019589, 4.9689107 
4.6389323e+2, 1.8118912e+2, -1146468.8, -1231670.3, -9251.597, -0.0043745143, -0.008425687, -1145475.8, 18861.846, 0.0, 5.0189347, 4.9637394 
4.6387875e+2, 1.8615356e+2, -1098562.0, -1182119.9, -9564.5, -0.00007850067, -0.008068501, -1097481.1, 18207.234, 0.0, 5.0182953, 4.964166 
4.6386424e+2, 1.9111805e+2, -1051239.5, -1133836.0, -9679.044, 0.0042801965, -0.0078382455, -1050120.4, 16918.514, 0.0, 5.017656, 4.9641643 
4.638497e+2, 1.9608252e+2, -1004795.94, -1087457.1, -9789.863, 0.008663983, -0.0073692063, -1003652.3, 14737.12, 0.0, 5.0170164, 4.9635124 
4.6383488e+2, 2.0104411e+2, -964314.94, -1053844.0, -10167.667, 0.011223306, 0.0013787006, -963174.75, 6592.8433, 0.0, 5.01635, 4.9585147 
4.6381927e+2, 2.0600335e+2, -916180.8, -1003415.75, -10402.505, 0.010127936, -0.00070596125, -914957.5, 6209.827, 0.0, 5.0156145, 4.959255 
4.6380362e+2, 2.1096258e+2, -869045.7, -955139.3, -10526.594, 0.008953795, -0.0038788503, -867777.25, 4789.6987, 0.0, 5.0148764, 4.959261 
4.6378797e+2, 2.1592185e+2, -822563.3, -908304.1, -10648.819, 0.0077214385, -0.0069330717, -821260.5, 2705.9937, 0.0, 5.0141377, 4.9587674 
4.6377307e+2, 2.2087805e+2, -783712.6, -878261.5, -9691.11, 0.009383025, 0.0012343797, -782729.56, -7331.735, 0.0, 5.013427, 4.9524612 
4.6375972e+2, 2.2583278e+2, -735453.9, -827704.2, -9032.649, 0.011764133, 0.013738094, -734577.75, -7727.693, 0.0, 5.0127006, 4.9531956 
4.6374643e+2, 2.3078771e+2, -688173.75, -779350.25, -8840.538, 0.0134377545, 0.026720066, -687324.44, -9023.623, 0.0, 5.011964, 4.9531918 
4.637331e+2, 2.3574257e+2, -641525.6, -732436.2, -8634.754, 0.015227309, 0.038936917, -640712.75, -10960.49, 0.0, 5.011226, 4.952686 
4.6372005e+2, 2.4069433e+2, -601179.4, -699187.5, -7805.181, 0.017225433, 0.06043414, -600561.7, -19331.396, 0.0, 5.0104537, 4.947401 
4.6370834e+2, 2.4564123e+2, -551458.1, -645164.4, -7609.3413, 0.020828975, 0.03490569, -550844.25, -18101.447, 0.0, 5.0096974, 4.9493103 
4.6369675e+2, 2.5058776e+2, -504157.63, -596769.5, -8043.6113, 0.024601607, 0.0017613708, -503464.22, -19206.363, 0.0, 5.008957, 4.9492993 
4.6368513e+2, 2.5553447e+2, -457087.47, -548933.0, -8491.257, 0.028056385, -0.029318817, -456309.03, -20538.125, 0.0, 5.0082145, 4.94909 
4.6367574e+2, 2.6047868e+2, -421743.47, -527680.1, -5775.08, 0.040443566, -0.026006594, -421429.56, -34114.44, 0.0, 5.007518, 4.9393487 
4.6366754e+2, 2.6542848e+2, -370510.34, -469838.34, -3456.6643, 0.026300943, 0.026197664, -370390.2, -31560.365, 0.0, 5.0063133, 4.9424386 
4.6365812e+2, 2.7037853e+2, -323490.63, -422249.53, -1584.8088, 0.0029426422, 0.062659144, -323465.22, -33119.688, 0.0, 5.0049586, 4.9424033 
4.6364814e+2, 2.7532706e+2, -276290.1, -374984.66, 640.41016, -0.020068048, 0.07819551, -276285.94, -34409.984, 0.0, 5.003584, 4.94232 
4.6364787e+2, 2.8027374e+2, -261737.44, -389571.84, 13039.222, -0.0037616638, 0.20906095, -260420.98, -67001.805, 0.0, 5.0016885, 4.9209623 
4.636446e+2, 2.852082e+2, -198752.83, -295521.8, -999.85864, 0.015875868, 0.2448515, -198742.5, -53687.023, 0.0, 5.001299, 4.935893 
4.6363276e+2, 2.9013577e+2, -147869.4, -245439.63, -4301.8726, 0.011355192, 0.14933442, -147680.1, -50924.113, 0.0, 5.001768, 4.9356956 
4.636206e+2, 2.9506186e+2, -96847.8, -195507.89, -7255.7607, 0.010279951, 0.036051556, -96317.04, -47846.22, 0.0, 5.0022044, 4.935499 
4.6360877e+2, 3.0000648e+2, -33073.98, -82137.87, -6275.38, 0.01231533, -0.042163458, -32284.063, -32278.238, 0.0, 5.0025225, 4.9675074 
4.6359465e+2, 3.0498445e+2, -30222.553, -73845.23, -3826.2698, -0.016158907, 0.0101692295, -29889.482, -29889.482, 0.0, 5.002554, 4.969854 
4.6357867e+2, 3.099674e+2, -28996.314, -69389.13, -4030.7844, -0.050231155, 0.09078956, -28598.012, -28598.012, 0.0, 5.0025415, 4.9712534 
4.6356183e+2, 3.149541e+2, -27630.766, -65073.32, -4441.9487, -0.079986624, 0.19363728, -27111.016, -27111.016, 0.0, 5.0024877, 4.972654 
4.6905097e+2, 1.21499166e+2, -1684071.6, -1751548.0, -134.27258, 0.008500252, -0.024918891, -1684071.4, 65232.01, 0.0, 5.026828, 4.982823 
4.6904263e+2, 1.2648478e+2, -1640337.9, -1710316.1, -2771.724, 0.00305155, 0.024730368, -1640228.3, 60216.996, 0.0, 5.0262017, 4.9806066 
4.690341e+2, 1.3146342e+2, -1593252.0, -1662294.8, -2941.779, -0.00072524964, 0.004478874, -1593126.9, 58526.043, 0.0, 5.025584, 4.9806066 
4.690256e+2, 1.3644204e+2, -1548274.6, -1618628.8, -3080.9114, -0.0045003896, -0.014555431, -1548140.0, 54720.91, 0.0, 5.0249667, 4.9791594 
4.6901605e+2, 1.4141876e+2, -1507443.1, -1583446.1, -5470.879, -0.006594328, -0.0124742, -1507051.4, 47036.543, 0.0, 5.0243244, 4.974832 
4.6900445e+2, 1.4639413e+2, -1460170.3, -1534806.5, -5994.4395, -0.007236412, -0.011555031, -1459691.9, 45637.207, 0.0, 5.0236373, 4.9750395 
4.689928e+2, 1.513695e+2, -1413196.8, -1486791.1, -6112.6406, -0.007939996, -0.011099941, -1412692.5, 43878.145, 0.0, 5.0229487, 4.975039 
4.6898118e+2, 1.5634485e+2, -1367588.5, -1441640.9, -6212.2783, -0.00864546, -0.010188106, -1367071.0, 40741.242, 0.0, 5.0222597, 4.9740767 
4.6896866e+2, 1.6131675e+2, -1327391.8, -1407905.3, -7967.682, -0.00906579, -0.0050589633, -1326610.8, 32476.67, 0.0, 5.021579, 4.96929 
4.6895465e+2, 1.6628622e+2, -1279886.5, -1358989.5, -8410.818, -0.008257965, -0.008296405, -1279002.1, 31384.693, 0.0, 5.020915, 4.9695473 
4.6894062e+2, 1.712557e+2, -1232734.8, -1310831.6, -8543.695, -0.0073794294, -0.011495817, -1231811.0, 29874.729, 0.0, 5.020252, 4.9695473 
4.689266e+2, 1.7622517e+2, -1186700.0, -1265054.0, -8671.834, -0.0065103373, -0.014303981, -1185751.8, 27232.922, 0.0, 5.0195894, 4.9687443 
4.6891218e+2, 1.8119168e+2, -1146673.6, -1232112.6, -9746.541, -0.0045163194, -0.007960831, -1145575.9, 18737.76, 0.0, 5.0189357, 4.963591 
4.68897e+2, 1.861561e+2, -1098759.9, -1182543.1, -10051.495, -0.0005036999, -0.0062090545, -1097570.9, 18094.045, 0.0, 5.0182953, 4.9640245 
4.6888182e+2, 1.911206e+2, -1051439.0, -1134257.3, -10163.95, 0.0035544615, -0.0045352397, -1050209.9, 16805.887, 0.0, 5.017655, 4.964023 
4.6886662e+2, 1.9608507e+2, -1004997.2, -1087876.3, -10272.614, 0.0076216995, -0.002606453, -1003742.9, 14623.695, 0.0, 5.0170145, 4.9633713 
4.6885112e+2, 2.0104659e+2, -964484.1, -1054200.9, -10714.565, 0.010243413, 0.00648635, -963222.25, 6523.708, 0.0, 5.016349, 4.9583936 
4.688349e+2, 2.060055e+2, -916387.25, -1003852.25, -10963.521, 0.010460746, 0.0025109034, -915033.94, 6115.302, 0.0, 5.015613, 4.9591074 
4.6881866e+2, 2.109644e+2, -869255.8, -955578.7, -11085.025, 0.010660138, -0.002529755, -867855.1, 4697.311, 0.0, 5.0148735, 4.9591126 
4.6880242e+2, 2.1592331e+2, -822777.25, -908746.4, -11204.606, 0.0107703395, -0.0073857233, -821340.94, 2614.5586, 0.0, 5.014134, 4.958618 
4.6878687e+2, 2.2087939e+2, -783621.2, -878067.9, -10257.655, 0.012947353, 0.00040081437, -782519.94, -7132.046, 0.0, 5.0134277, 4.9525294 
4.687726e+2, 2.2583446e+2, -735128.2, -826956.94, -9598.098, 0.013101618, 0.014154992, -734135.7, -7300.518, 0.0, 5.0126963, 4.9534564 
4.687583e+2, 2.3078977e+2, -687875.5, -778598.06, -9386.981, 0.0122548705, 0.028330935, -686914.44, -8633.871, 0.0, 5.0119505, 4.9534574 
4.68744e+2, 2.3574503e+2, -641254.7, -731678.8, -9162.144, 0.01145378, 0.041893695, -640335.7, -10609.307, 0.0, 5.0112042, 4.952956 
4.687301e+2, 2.4069695e+2, -601443.44, -699539.06, -8372.424, 0.011914872, 0.06320826, -600734.0, -19531.707, 0.0, 5.0104203, 4.9472933 
4.6871778e+2, 2.4564357e+2, -552213.8, -646650.6, -8218.746, 0.01744788, 0.03911291, -551503.9, -18782.803, 0.0, 5.0096674, 4.948808 
4.6870556e+2, 2.5058985e+2, -504893.03, -598278.1, -8632.414, 0.023342494, 0.008759752, -504101.75, -19859.248, 0.0, 5.008935, 4.9487853 
4.6869326e+2, 2.5553632e+2, -457802.53, -550464.1, -9059.449, 0.02889822, -0.019259155, -456925.13, -21163.254, 0.0, 5.0082006, 4.9485636 
4.6868277e+2, 2.6048064e+2, -419938.53, -523444.3, -6640.2207, 0.039430965, -0.01601229, -419514.28, -32209.123, 0.0, 5.007489, 4.940864 
4.6867263e+2, 2.6543117e+2, -368195.2, -462802.1, -3893.9675, 0.012580836, 0.023335123, -368035.2, -29235.053, 0.0, 5.006061, 4.9450507 
4.6866125e+2, 2.7038223e+2, -321823.8, -414815.4, -1589.2028, -0.02545877, 0.04840927, -321796.66, -31505.879, 0.0, 5.0044584, 4.945215 
4.686493e+2, 2.7533227e+2, -275272.0, -367150.63, 1068.226, -0.064499706, 0.055700727, -275259.56, -33468.117, 0.0, 5.0028358, 4.9453316 
4.6864548e+2, 2.80279e+2, -258007.52, -382541.38, 8579.697, -0.05395173, 0.15499412, -257419.19, -64096.613, 0.0, 5.00188, 4.923416 
4.6864182e+2, 2.8521085e+2, -198568.55, -302836.44, -1983.5577, -0.021325622, 0.17658633, -198530.83, -53540.63, 0.0, 5.0022416, 4.933296 
4.6863165e+2, 2.9013667e+2, -148235.16, -252413.44, -4920.414, -0.017384859, 0.09320494, -148003.28, -51288.066, 0.0, 5.0025077, 4.9332576 
4.686212e+2, 2.9506135e+2, -97761.38, -202141.19, -7508.8584, -0.011279267, -0.0058194413, -97223.98, -48772.414, 0.0, 5.002741, 4.9332194 
4.6861073e+2, 3.0000556e+2, -31711.613, -81937.055, -6534.7466, -0.0032436205, -0.06732277, -30875.314, -30875.314, 0.0, 5.0028787, 4.967676 
4.685976e+2, 3.0498385e+2, -26902.799, -69292.04, -4045.4856, -0.021493236, -0.017500332, -26520.164, -26520.164, 0.0, 5.002927, 4.971765 
4.685826e+2, 3.0996647e+2, -25739.803, -65668.94, -3811.039, -0.04631655, 0.055381898, -25379.313, -25379.313, 0.0, 5.002981, 4.972912 
4.685667e+2, 3.149525e+2, -24437.766, -62185.336, -3783.0137, -0.069651365, 0.15119292, -24062.37, -24062.37, 0.0, 5.0029936, 4.9740596 
4.7407776e+2, 1.2150411e+2, -1684420.5, -1752259.9, -692.40607, 0.0080682505, -0.021451222, -1684413.5, 64840.65, 0.0, 5.026828, 4.9825897 
4.7406876e+2, 1.2648854e+2, -1640657.9, -1710972.1, -3242.0852, 0.0023915032, 0.018579762, -1640508.6, 59898.97, 0.0, 5.0262017, 4.9803915 
4.740597e+2, 1.3146722e+2, -1593570.0, -1662949.5, -3411.236, -0.00073367875, 0.0009173792, -1593402.8, 58212.42, 0.0, 5.025584, 4.980391 
4.7405064e+2, 1.3644588e+2, -1548587.9, -1619276.5, -3549.2236, -0.0038699931, -0.015528014, -1548410.1, 54412.73, 0.0, 5.0249667, 4.9789457 
4.7404048e+2, 1.414226e+2, -1507670.6, -1583924.4, -5991.625, -0.0054596816, -0.011789759, -1507202.8, 46847.434, 0.0, 5.0243254, 4.974674 
4.7402823e+2, 1.463978e+2, -1460384.6, -1535259.5, -6518.91, -0.0057715117, -0.0110019995, -1459821.3, 45471.703, 0.0, 5.0236387, 4.9748898 
4.7401592e+2, 1.51373e+2, -1413410.0, -1487242.8, -6636.677, -0.0061523775, -0.01072364, -1412818.3, 43717.906, 0.0, 5.0229497, 4.974889 
4.7400364e+2, 1.5634817e+2, -1367797.8, -1442085.0, -6734.848, -0.0065389574, -0.009986031, -1367192.1, 40587.21, 0.0, 5.0222607, 4.973929 
4.739904e+2, 1.6131993e+2, -1327615.3, -1408382.9, -8481.407, -0.0069217365, -0.0049790395, -1326734.3, 32321.877, 0.0, 5.02158, 4.969131 
4.7397572e+2, 1.662892e+2, -1280120.4, -1359489.5, -8915.594, -0.0066885054, -0.008243857, -1279131.3, 31226.238, 0.0, 5.0209165, 4.9693804 
4.7396097e+2, 1.7125851e+2, -1232967.9, -1311330.3, -9047.92, -0.006417119, -0.011464327, -1231936.8, 29721.633, 0.0, 5.020253, 4.96938 
4.7394618e+2, 1.7622784e+2, -1186931.8, -1265550.1, -9175.067, -0.0061649475, -0.014286464, -1185875.1, 27084.08, 0.0, 5.0195904, 4.9685774 
4.7393107e+2, 1.8119423e+2, -1146886.4, -1232571.3, -10241.637, -0.004651719, -0.0074849655, -1145679.3, 18610.494, 0.0, 5.0189366, 4.963437 
4.7391522e+2, 1.8615864e+2, -1098958.1, -1182966.4, -10539.855, -0.0009190641, -0.004364923, -1097655.9, 17985.486, 0.0, 5.0182953, 4.963882 
4.738994e+2, 1.9112313e+2, -1051638.9, -1134678.3, -10650.221, 0.0028377927, -0.0012878799, -1050294.8, 16697.904, 0.0, 5.0176544, 4.963881 
4.738835e+2, 1.9608761e+2, -1005198.8, -1088295.4, -10756.73, 0.006587716, 0.002060344, -1003828.94, 14514.888, 0.0, 5.0170126, 4.96323 
4.7386733e+2, 2.0104906e+2, -964663.2, -1054578.5, -11257.431, 0.009206841, 0.011704311, -963275.2, 6449.062, 0.0, 5.0163484, 4.958266 
4.7385052e+2, 2.0600764e+2, -916594.06, -1004288.5, -11524.071, 0.010706366, 0.0058791186, -915105.0, 6025.9814, 0.0, 5.0156116, 4.958959 
4.738337e+2, 2.109662e+2, -869466.44, -956017.75, -11642.99, 0.012279949, -0.0010921626, -867927.56, 4610.136, 0.0, 5.0148706, 4.9589634 
4.7381687e+2, 2.159248e+2, -822991.6, -909188.4, -11759.929, 0.013733369, -0.007812703, -821416.0, 2528.306, 0.0, 5.0141296, 4.9584684 
4.7380063e+2, 2.2088072e+2, -783604.9, -878036.6, -10818.992, 0.016602317, -0.00032094054, -782381.2, -7003.031, 0.0, 5.0134287, 4.9525394 
4.737854e+2, 2.258361e+2, -734804.8, -826208.94, -10174.086, 0.014552238, 0.01434238, -733686.06, -6865.3496, 0.0, 5.0126915, 4.953712 
4.7377017e+2, 2.3079176e+2, -687579.5, -777845.1, -9943.969, 0.011138788, 0.02924118, -686497.0, -8236.244, 0.0, 5.011937, 4.953718 
4.737549e+2, 2.3574741e+2, -640986.0, -730920.6, -9700.08, 0.0077007534, 0.04367901, -639951.6, -10250.459, 0.0, 5.0111823, 4.953222 
4.737401e+2, 2.4069966e+2, -601896.3, -700304.1, -8949.944, 0.006471156, 0.06720027, -601089.0, -19915.625, 0.0, 5.010387, 4.9470406 
4.7372714e+2, 2.4564607e+2, -552973.06, -648134.8, -8819.958, 0.013819126, 0.04548578, -552162.5, -19464.797, 0.0, 5.009638, 4.948302 
4.7371432e+2, 2.5059208e+2, -505631.9, -599784.8, -9213.016, 0.02181849, 0.017244838, -504738.84, -20513.123, 0.0, 5.008913, 4.9482665 
4.737014e+2, 2.5553828e+2, -458521.03, -551993.25, -9619.434, 0.02945796, -0.00839136, -457541.34, -21789.727, 0.0, 5.008187, 4.9480324 
4.7368997e+2, 2.6048234e+2, -418973.03, -521048.66, -7616.453, 0.040044513, -0.005855973, -418407.88, -31109.48, 0.0, 5.0074615, 4.941688 
4.7367758e+2, 2.65433e+2, -365925.63, -455751.44, -4673.1396, -0.000043393637, 0.012277656, -365683.16, -26904.922, 0.0, 5.00581, 4.947528 
4.736638e+2, 2.7038476e+2, -320200.7, -407366.5, -1936.3644, -0.05455774, 0.01566953, -320157.72, -29910.531, 0.0, 5.003959, 4.9478927 
4.736494e+2, 2.7533603e+2, -274295.84, -359301.28, 1152.2451, -0.111421175, 0.004430593, -274280.25, -32558.834, 0.0, 5.002088, 4.9482093 
4.736432e+2, 2.8028423e+2, -259331.2, -387127.34, 5729.1523, -0.104162365, 0.1040139, -259074.88, -65848.31, 0.0, 5.0020747, 4.9217954 
4.7364017e+2, 2.8521454e+2, -198440.05, -310111.03, -3264.3896, -0.056506447, 0.13607709, -198344.7, -53430.156, 0.0, 5.003185, 4.930607 
4.7363135e+2, 2.9013833e+2, -148655.77, -259346.1, -5835.1216, -0.045234367, 0.05618498, -148349.02, -51682.17, 0.0, 5.0032477, 4.930727 
4.736222e+2, 2.9506132e+2, -98729.01, -208732.13, -8057.24, -0.033078104, -0.037226807, -98141.984, -49714.5, 0.0, 5.0032773, 4.9308476 
4.73613e+2, 3.0000445e+2, -30447.506, -81776.94, -6795.5254, -0.018443322, -0.09347032, -29563.084, -29563.084, 0.0, 5.0032344, 4.9677925 
4.736014e+2, 3.049823e+2, -23651.879, -64678.582, -3928.8572, -0.01994854, -0.058579113, -23279.025, -23279.025, 0.0, 5.003299, 4.973588 
4.7358805e+2, 3.0996406e+2, -22551.906, -61887.125, -3255.701, -0.028604604, -0.0050861873, -22284.26, -22284.26, 0.0, 5.0034204, 4.974482 
4.735736e+2, 3.1494892e+2, -21313.248, -59234.484, -2788.5164, -0.038599875, 0.07203311, -21109.293, -21109.293, 0.0, 5.0034995, 4.9753766 
4.7910455e+2, 1.2150903e+2, -1684188.1, -1752578.3, -841.49567, 0.0074173114, -0.018821225, -1684177.9, 65027.375, 0.0, 5.0269995, 4.9824014 
4.7909492e+2, 1.264924e+2, -1640481.5, -1711383.4, -3319.0007, 0.0017942719, 0.012805289, -1640326.4, 60042.76, 0.0, 5.0263677, 4.9801755 
4.790853e+2, 1.3147111e+2, -1593440.9, -1663384.1, -3491.821, -0.0007143765, -0.002425452, -1593267.0, 58309.58, 0.0, 5.025734, 4.9801755 
4.7907564e+2, 1.364498e+2, -1548510.1, -1619732.0, -3632.065, -0.003228299, -0.016430832, -1548325.4, 54458.953, 0.0, 5.025098, 4.978732 
4.790649e+2, 1.4142647e+2, -1507544.6, -1584233.4, -6122.8843, -0.0043193623, -0.011111114, -1507058.9, 46953.164, 0.0, 5.024446, 4.9745145 
4.79052e+2, 1.4640152e+2, -1460213.0, -1535521.5, -6653.0854, -0.004316307, -0.01045224, -1459629.8, 45626.676, 0.0, 5.0237694, 4.9747405 
4.7903907e+2, 1.5137655e+2, -1413208.6, -1487490.3, -6769.9023, -0.0043852446, -0.010353942, -1412596.6, 43904.39, 0.0, 5.0230904, 4.9747396 
4.7902608e+2, 1.5635157e+2, -1367566.3, -1442312.8, -6865.4775, -0.0044590114, -0.009796881, -1366940.9, 40805.008, 0.0, 5.0224104, 4.9737816 
4.7901225e+2, 1.6132315e+2, -1327409.3, -1408657.4, -8605.177, -0.004809561, -0.004890059, -1326507.9, 32516.486, 0.0, 5.021728, 4.9689693 
4.7899678e+2, 1.6629227e+2, -1280002.1, -1359821.0, -9039.084, -0.0051214513, -0.008166474, -1278991.3, 31336.285, 0.0, 5.0210376, 4.969212 
4.7898132e+2, 1.7126141e+2, -1232935.3, -1311702.3, -9177.326, -0.005411928, -0.011410634, -1231880.1, 29750.408, 0.0, 5.020345, 4.969212 
4.7896585e+2, 1.7623056e+2, -1186988.3, -1265962.9, -9308.699, -0.005720965, -0.014260585, -1185905.9, 27027.52, 0.0, 5.019651, 4.9684105 
4.7895e+2, 1.8119682e+2, -1147002.6, -1232985.4, -10359.081, -0.0046492144, -0.007006816, -1145772.1, 18493.156, 0.0, 5.018971, 4.963282 
4.7893348e+2, 1.8616123e+2, -1099101.8, -1183353.5, -10632.651, -0.001260143, -0.0025903329, -1097780.6, 17836.834, 0.0, 5.018312, 4.9637437 
4.7891697e+2, 1.9112572e+2, -1051840.8, -1135092.9, -10724.429, 0.002145151, 0.0018060601, -1050481.4, 16487.617, 0.0, 5.017651, 4.9637423 
4.7890043e+2, 1.9609019e+2, -1005465.44, -1088739.9, -10814.235, 0.0055482173, 0.00649146, -1004084.0, 14236.562, 0.0, 5.0169873, 4.963091 
4.7888356e+2, 2.0105158e+2, -964963.25, -1055034.5, -11361.937, 0.008099602, 0.016875284, -963552.1, 6149.7476, 0.0, 5.0163107, 4.958129 
4.7886616e+2, 2.0600985e+2, -916844.94, -1004756.8, -11681.712, 0.01086289, 0.009374394, -915319.2, 5792.812, 0.0, 5.0155973, 4.9588065 
4.7884873e+2, 2.1096808e+2, -869661.5, -956461.25, -11829.749, 0.013852287, 0.00044390804, -868078.1, 4444.2944, 0.0, 5.014875, 4.9588103 
4.7883126e+2, 2.1592633e+2, -823154.0, -909617.8, -11970.666, 0.016724272, -0.008294656, -821527.3, 2405.412, 0.0, 5.014145, 4.9583154 
4.7881442e+2, 2.2088204e+2, -783633.4, -878134.44, -11023.98, 0.020474032, -0.001145901, -782364.44, -6996.0005, 0.0, 5.0134363, 4.9525003 
4.7879827e+2, 2.2583774e+2, -734607.3, -825541.25, -10440.548, 0.016194807, 0.014284083, -733424.0, -6617.7637, 0.0, 5.0126467, 4.9539557 
4.7878206e+2, 2.3079376e+2, -687576.06, -777270.94, -10260.302, 0.010208574, 0.02963974, -686417.4, -8176.2495, 0.0, 5.011828, 4.9539595 
4.787658e+2, 2.3574975e+2, -641200.94, -730446.7, -10088.726, 0.0042019635, 0.04465007, -640074.7, -10398.454, 0.0, 5.011, 4.9534616 
4.7875008e+2, 2.4070247e+2, -603079.25, -701763.3, -9433.295, 0.0012611822, 0.07262592, -602185.6, -21042.29, 0.0, 5.0101576, 4.9466443 
4.787365e+2, 2.4564873e+2, -554097.06, -649769.3, -9307.164, 0.010309635, 0.053885963, -553200.0, -20527.273, 0.0, 5.009467, 4.947811 
4.7872305e+2, 2.5059435e+2, -506446.66, -601234.5, -9592.552, 0.020385293, 0.026190005, -505485.63, -21277.348, 0.0, 5.0088463, 4.9477873 
4.7870958e+2, 2.5554016e+2, -458915.97, -553207.8, -9790.023, 0.030085912, 0.00070195156, -457910.25, -22168.299, 0.0, 5.0082655, 4.9475646 
4.7869742e+2, 2.6048347e+2, -418134.06, -520109.78, -8076.5005, 0.042545743, 0.00096231763, -417498.38, -30201.705, 0.0, 5.0077, 4.9418406 
4.7868276e+2, 2.6543406e+2, -363058.22, -449333.25, -6546.7686, -0.009447878, -0.005334094, -362564.28, -23800.072, 0.0, 5.005963, 4.9495373 
4.7866645e+2, 2.703861e+2, -318739.94, -401512.94, -6098.569, -0.07819612, -0.028338263, -318293.0, -28077.121, 0.0, 5.003715, 4.9498696 
4.786496e+2, 2.7533776e+2, -275133.75, -354291.1, -6439.4644, -0.14879413, -0.063203834, -274613.3, -32941.914, 0.0, 5.001148, 4.9501615 
4.786425e+2, 2.8028825e+2, -270261.78, -404254.9, -5606.157, -0.13789204, 0.06925655, -270027.63, -76884.44, 0.0, 5.000725, 4.9163094 
4.7864053e+2, 2.852184e+2, -203252.95, -317335.56, -11388.268, -0.0782477, 0.13139997, -202127.23, -57289.22, 0.0, 5.0022545, 4.9283533 
4.7863236e+2, 2.9014033e+2, -152971.83, -266454.7, -10867.557, -0.06533283, 0.0435287, -151940.48, -55324.16, 0.0, 5.0024695, 4.928487 
4.7862384e+2, 2.950616e+2, -102870.9, -215796.88, -10675.8545, -0.051601306, -0.05482268, -101870.484, -53469.66, 0.0, 5.002557, 4.928623 
4.786156e+2, 3.0000314e+2, -31950.844, -83010.6, -7903.11, -0.032225154, -0.11798393, -30755.568, -30755.568, 0.0, 5.002582, 4.967749 
4.7860602e+2, 3.0497986e+2, -22096.514, -61366.508, -4891.6006, -0.012289302, -0.110014535, -21496.371, -21496.371, 0.0, 5.0031095, 4.975021 
4.78595e+2, 3.0995992e+2, -20249.896, -58940.87, -4062.3438, 0.0033375695, -0.090450615, -19827.973, -19827.973, 0.0, 5.0036116, 4.9756536 
4.7858313e+2, 3.1494248e+2, -18724.334, -56809.863, -3228.6848, 0.018001141, -0.050446413, -18452.563, -18452.563, 0.0, 5.00392, 4.976288 
4.8413244e+2, 1.21515386e+2, -1679076.0, -1750631.4, 399.31366, 0.0064538736, -0.019167764, -1679073.8, 70068.66, 0.0, 5.028829, 4.982143 
4.8412222e+2, 1.2649846e+2, -1635578.1, -1709457.3, -2161.7378, 0.0019904368, 0.011749863, -1635514.9, 64794.51, 0.0, 5.0281105, 4.979957 
4.8411193e+2, 1.31477e+2, -1588869.3, -1661628.6, -2338.4426, -0.0002086796, -0.00290662, -1588794.1, 62724.617, 0.0, 5.02737, 4.979957 
4.8410165e+2, 1.3645552e+2, -1544257.5, -1618136.0, -2482.7349, -0.002383134, -0.016320998, -1544174.1, 58554.19, 0.0, 5.02663, 4.978515 
4.840902e+2, 1.4143203e+2, -1503453.5, -1582572.0, -4974.8228, -0.0032404524, -0.010689046, -1503141.9, 50815.914, 0.0, 5.0258937, 4.9743624 
4.8407662e+2, 1.4640692e+2, -1456228.6, -1533902.0, -5494.909, -0.00317385, -0.010111748, -1455841.9, 49361.695, 0.0, 5.0251813, 4.974595 
4.84063e+2, 1.5138179e+2, -1409332.8, -1485929.9, -5612.6675, -0.0031764011, -0.010098441, -1408923.6, 47525.984, 0.0, 5.024469, 4.9745946 
4.8404935e+2, 1.5635666e+2, -1363791.6, -1440802.6, -5707.811, -0.0031755439, -0.009630889, -1363370.9, 44324.92, 0.0, 5.023757, 4.973639 
4.8403478e+2, 1.6132809e+2, -1323847.1, -1407311.1, -7489.458, -0.0034278764, -0.004760573, -1323180.4, 35795.48, 0.0, 5.0230155, 4.9688025 
4.840186e+2, 1.6629705e+2, -1276816.6, -1358694.8, -7941.3174, -0.0036193936, -0.007855782, -1276053.5, 34227.547, 0.0, 5.022207, 4.969032 
4.8400235e+2, 1.7126602e+2, -1230106.0, -1310752.0, -8091.915, -0.0037774635, -0.010921773, -1229302.1, 32283.855, 0.0, 5.021395, 4.9690323 
4.8398614e+2, 1.76235e+2, -1184507.1, -1265181.8, -8235.374, -0.003938145, -0.0136128785, -1183675.1, 29215.82, 0.0, 5.0205836, 4.968231 
4.8396954e+2, 1.8120115e+2, -1144740.6, -1232135.5, -9249.332, -0.0030639297, -0.0061349897, -1143772.4, 20451.926, 0.0, 5.0197926, 4.963181 
4.8395216e+2, 1.8616548e+2, -1097131.4, -1182588.1, -9475.203, -0.0007705125, -0.0015659201, -1096093.4, 19483.527, 0.0, 5.0190234, 4.963669 
4.8393482e+2, 1.911299e+2, -1050195.6, -1134490.0, -9523.293, 0.0015207462, 0.0029754702, -1049133.1, 17795.852, 0.0, 5.0182524, 4.9636664 
4.8391744e+2, 1.9609432e+2, -1004136.56, -1088294.3, -9566.446, 0.003842334, 0.007829498, -1003062.8, 15218.176, 0.0, 5.0174813, 4.9630136 
4.8389983e+2, 2.0105559e+2, -963987.94, -1054924.5, -10079.566, 0.005859174, 0.018177425, -962884.1, 6779.284, 0.0, 5.016718, 4.957979 
4.838818e+2, 2.0601375e+2, -915961.3, -1004831.9, -10420.008, 0.009493928, 0.011745184, -914755.9, 6319.439, 0.0, 5.016001, 4.9585958 
4.8386377e+2, 2.1097188e+2, -868737.4, -956516.56, -10613.428, 0.013480768, 0.0038849954, -867472.3, 5015.4365, 0.0, 5.015291, 4.958601 
4.838457e+2, 2.1592997e+2, -822166.3, -909643.7, -10802.643, 0.017410586, -0.0040635206, -820852.06, 3048.209, 0.0, 5.014581, 4.958107 
4.8382816e+2, 2.2088556e+2, -782535.25, -877623.2, -9989.608, 0.021441972, 0.003173655, -781497.1, -6159.8, 0.0, 5.0138144, 4.9525027 
4.8381093e+2, 2.2584102e+2, -734281.56, -825172.5, -9610.957, 0.016443698, 0.0152839925, -733276.44, -6501.1533, 0.0, 5.012707, 4.9540596 
4.8379368e+2, 2.3079677e+2, -688201.44, -777392.56, -9562.931, 0.009934501, 0.026936173, -687187.7, -8977.27, 0.0, 5.011559, 4.9540486 
4.8377636e+2, 2.357525e+2, -642747.25, -731043.3, -9499.818, 0.0035226522, 0.038332477, -641736.7, -12090.877, 0.0, 5.01041, 4.953536 
4.8375967e+2, 2.4070501e+2, -605613.3, -703502.3, -8684.938, -0.00028220448, 0.06450518, -604848.75, -23735.346, 0.0, 5.0093226, 4.9464536 
4.8374513e+2, 2.4565159e+2, -557368.06, -652200.2, -8459.056, 0.007156603, 0.052645713, -556619.44, -23976.936, 0.0, 5.0084434, 4.947458 
4.8373076e+2, 2.5059745e+2, -510333.88, -603716.4, -8781.984, 0.01569068, 0.031174678, -509515.16, -25336.742, 0.0, 5.00758, 4.947504 
4.8371634e+2, 2.5554344e+2, -463532.16, -555787.5, -9116.881, 0.023867134, 0.009928143, -462639.84, -26926.219, 0.0, 5.006714, 4.9473515 
4.8370317e+2, 2.6048645e+2, -423191.38, -522141.16, -7801.475, 0.03433665, 0.008865192, -422580.06, -35308.51, 0.0, 5.0058527, 4.941956 
4.8368812e+2, 2.6543593e+2, -368462.63, -452943.94, -7602.1577, -0.008542033, -0.0067241406, -367784.0, -29042.13, 0.0, 5.0040946, 4.9492745 
4.8367193e+2, 2.7038622e+2, -323965.44, -406962.8, -7658.207, -0.06156567, -0.03760264, -323264.75, -33062.977, 0.0, 5.0021186, 4.9489865 
4.836555e+2, 2.7533543e+2, -279374.84, -361187.97, -7418.4595, -0.11186883, -0.07902509, -278707.63, -37035.266, 0.0, 5.000115, 4.9486494 
4.8364723e+2, 2.8028387e+2, -276728.53, -408468.63, -2942.102, -0.093301326, 0.053406287, -276662.84, -83505.234, 0.0, 4.9985046, 4.9156075 
4.836429e+2, 2.852154e+2, -212959.28, -319805.63, -6567.39, -0.05223133, 0.121506386, -212557.13, -67713.16, 0.0, 4.9983206, 4.9286127 
4.836337e+2, 2.9013896e+2, -163785.48, -270862.8, -7875.0063, -0.05110505, 0.0410313, -163209.42, -66596.13, 0.0, 4.998246, 4.928408 
4.8362446e+2, 2.9506186e+2, -114537.47, -221985.47, -8926.079, -0.04698323, -0.045439404, -113800.99, -65412.332, 0.0, 4.9981284, 4.928203 
4.8361582e+2, 3.0000415e+2, -42605.02, -88982.91, -7570.8438, -0.0351667, -0.10232788, -41400.426, -41400.426, 0.0, 4.998295, 4.9675303 
4.8360735e+2, 3.0497983e+2, -28812.37, -65061.87, -5902.6196, -0.016042685, -0.113263875, -27875.443, -27875.443, 0.0, 4.999968, 4.9751697 
4.835985e+2, 3.0995795e+2, -23397.682, -61502.633, -5804.6777, 0.0067792004, -0.12342896, -22533.053, -22533.053, 0.0, 5.00179, 4.9755845 
4.8358956e+2, 3.1493717e+2, -17937.475, -57995.49, -5945.8643, 0.036030706, -0.12657514, -17073.555, -17073.555, 0.0, 5.0035563, 4.976 
4.891611e+2, 1.2152253e+2, -1679453.1, -1751402.8, -34.089806, 0.0049855704, -0.02056048, -1679453.1, 69618.875, 0.0, 5.0288286, 4.9818907 
4.8915035e+2, 1.2650555e+2, -1635908.6, -1710139.0, -2724.812, 0.0023621712, 0.012230643, -1635808.6, 64430.902, 0.0, 5.0281105, 4.9797335 
4.8913938e+2, 1.3148387e+2, -1589197.4, -1662308.9, -2900.637, 0.0004314986, -0.0024294406, -1589082.4, 62368.996, 0.0, 5.0273705, 4.9797335 
4.8912838e+2, 1.3646215e+2, -1544582.3, -1618813.0, -3045.4382, -0.0014886337, -0.015848882, -1544457.6, 58205.906, 0.0, 5.0266304, 4.978292 
4.8911622e+2, 1.4143847e+2, -1503676.6, -1583045.0, -5530.3125, -0.0022261878, -0.010312569, -1503293.1, 50601.98, 0.0, 5.025895, 4.974206 
4.891019e+2, 1.464132e+2, -1456439.5, -1534351.5, -6036.502, -0.0021808136, -0.009811948, -1455974.6, 49167.652, 0.0, 5.0251827, 4.9744463 
4.8908755e+2, 1.5138793e+2, -1409542.4, -1486378.1, -6153.8203, -0.002211579, -0.009861095, -1409052.8, 47336.973, 0.0, 5.0244703, 4.974446 
4.890732e+2, 1.5636262e+2, -1363997.4, -1441243.5, -6247.8794, -0.0022423565, -0.009454035, -1363495.3, 44141.93, 0.0, 5.0237584, 4.973492 
4.8905787e+2, 1.613339e+2, -1324088.5, -1407830.4, -8094.6294, -0.002392874, -0.0045859665, -1323313.3, 35605.445, 0.0, 5.0230174, 4.9686294 
4.890409e+2, 1.6630271e+2, -1277078.4, -1359258.1, -8558.592, -0.002208107, -0.007449001, -1276196.5, 34029.41, 0.0, 5.0222087, 4.9688435 
4.8902392e+2, 1.7127152e+2, -1230366.9, -1311314.1, -8708.6, -0.0019918922, -0.010259048, -1229440.6, 32092.273, 0.0, 5.0213966, 4.968844 
4.8900694e+2, 1.7624034e+2, -1184766.3, -1265741.0, -8850.776, -0.001786742, -0.01268609, -1183810.1, 29029.678, 0.0, 5.020585, 4.968044 
4.889895e+2, 1.8120635e+2, -1144863.6, -1232416.4, -9840.693, -0.0010319058, -0.004970924, -1143771.1, 20403.53, 0.0, 5.0197954, 4.9630876 
4.8897126e+2, 1.861706e+2, -1097204.9, -1182762.0, -10061.02, -0.000042476764, -0.000723406, -1096037.8, 19490.137, 0.0, 5.0190253, 4.963612 
4.8895296e+2, 1.911349e+2, -1050271.4, -1134662.4, -10107.037, 0.00086776126, 0.0034403708, -1049077.8, 17802.729, 0.0, 5.018254, 4.96361 
4.889347e+2, 1.960992e+2, -1004214.44, -1088465.1, -10148.038, 0.001789856, 0.007934443, -1003009.3, 15223.73, 0.0, 5.017482, 4.962958 
4.8891622e+2, 2.0106038e+2, -964198.44, -1055382.5, -10646.905, 0.0030070462, 0.017877074, -962971.8, 6644.8467, 0.0, 5.0167184, 4.9578238 
4.8889756e+2, 2.0601854e+2, -916279.4, -1005513.94, -10956.843, 0.0072121937, 0.013559131, -914953.7, 6075.948, 0.0, 5.0160003, 4.9583645 
4.8887888e+2, 2.1097669e+2, -869059.94, -957197.4, -11146.606, 0.011775748, 0.008323901, -867672.1, 4770.71, 0.0, 5.0152884, 4.9583707 
4.8886016e+2, 2.1593483e+2, -822493.5, -910323.4, -11332.108, 0.016245557, 0.0030812162, -821054.94, 2801.082, 0.0, 5.014576, 4.957877 
4.8884183e+2, 2.2089037e+2, -782563.75, -877739.8, -10739.857, 0.020274783, 0.011493727, -781366.94, -6073.143, 0.0, 5.0138216, 4.9524636 
4.8882353e+2, 2.2584522e+2, -734196.25, -825031.9, -10485.18, 0.015611704, 0.017172555, -733001.6, -6266.3896, 0.0, 5.012713, 4.95411 
4.8880517e+2, 2.3080029e+2, -688140.8, -777244.0, -10420.606, 0.009583207, 0.021714527, -686938.4, -8764.094, 0.0, 5.011556, 4.9541044 
4.8878682e+2, 2.3575535e+2, -642711.25, -730886.75, -10340.862, 0.0035660474, 0.026168229, -641514.75, -11901.33, 0.0, 5.010399, 4.9535966 
4.88769e+2, 2.4070744e+2, -605769.94, -703738.25, -9382.135, -0.0011604751, 0.047431696, -604879.5, -23795.844, 0.0, 5.0093045, 4.946384 
4.8875314e+2, 2.4565473e+2, -557870.1, -653267.1, -9145.765, 0.0025256362, 0.04616174, -557001.25, -24393.55, 0.0, 5.008432, 4.9471054 
4.8873752e+2, 2.5060156e+2, -510817.8, -604806.75, -9453.814, 0.007214555, 0.038076025, -509876.34, -25739.307, 0.0, 5.0075755, 4.94714 
4.8872182e+2, 2.5554848e+2, -463997.9, -556901.25, -9773.815, 0.01153836, 0.030552432, -462980.8, -27315.375, 0.0, 5.0067177, 4.9469767 
4.8870733e+2, 2.6049167e+2, -423257.63, -522681.44, -8753.928, 0.018968195, 0.03431729, -422492.75, -35270.24, 0.0, 5.005889, 4.9417944 
4.8869213e+2, 2.654384e+2, -368983.0, -453444.7, -8441.148, -0.010329876, -0.0044137924, -368147.63, -29433.828, 0.0, 5.0039744, 4.949208 
4.8867598e+2, 2.703861e+2, -324999.8, -407098.72, -8225.991, -0.048318807, -0.057544213, -324183.72, -33991.277, 0.0, 5.001792, 4.9490905 
4.8865962e+2, 2.7533314e+2, -280923.3, -360958.25, -7714.7803, -0.08546824, -0.11856716, -280186.44, -38508.77, 0.0, 4.999583, 4.948924 
4.8864892e+2, 2.8028005e+2, -274480.84, -404282.7, -4000.9734, -0.077536575, -0.010045136, -274357.63, -81184.19, 0.0, 4.998625, 4.9170737 
4.886425e+2, 2.852126e+2, -211686.58, -322280.2, -6831.14, -0.050150536, 0.06946713, -211266.23, -66411.32, 0.0, 4.99896, 4.9277525 
4.8863295e+2, 2.9013792e+2, -162957.52, -273101.5, -7903.7764, -0.048495505, 0.01705449, -162393.23, -65779.86, 0.0, 4.998723, 4.9276667 
4.8862326e+2, 2.9506287e+2, -114153.0, -223987.69, -8719.956, -0.045440223, -0.039562732, -113465.02, -65089.574, 0.0, 4.998443, 4.9275804 
4.8861435e+2, 3.0000648e+2, -42029.285, -89470.234, -6785.806, -0.03749512, -0.07488454, -41077.75, -41077.75, 0.0, 4.998485, 4.967438 
4.886071e+2, 3.0498144e+2, -26894.832, -63117.832, -4613.986, -0.023427533, -0.09767673, -26316.354, -26316.354, 0.0, 5.0002484, 4.9759407 
4.8859972e+2, 3.0995882e+2, -21256.771, -60078.96, -4240.842, -0.008224802, -0.12160763, -20798.912, -20798.912, 0.0, 5.0021963, 4.976166 
4.8859218e+2, 3.1493685e+2, -15573.869, -57091.637, -4106.9478, 0.009529742, -0.1400664, -15171.508, -15171.508, 0.0, 5.004088, 4.976392 
4.9418977e+2, 1.21529624e+2, -1679751.5, -1752012.9, -465.99832, 0.0032251026, -0.022258125, -1679748.5, 69253.51, 0.0, 5.028828, 4.9816914 
4.941785e+2, 1.2651266e+2, -1636239.1, -1710820.6, -3287.545, 0.0027210547, 0.012742425, -1636094.5, 64075.19, 0.0, 5.028111, 4.9795103 
4.941668e+2, 1.3149074e+2, -1589525.6, -1662989.0, -3462.49, 0.0010630161, -0.0019361264, -1589362.8, 62021.33, 0.0, 5.027371, 4.97951 
4.9415508e+2, 1.3646881e+2, -1544907.4, -1619490.0, -3607.8752, -0.00059863477, -0.015375502, -1544733.3, 57865.383, 0.0, 5.026631, 4.978069 
4.9414217e+2, 1.4144492e+2, -1503903.6, -1583526.4, -6085.2417, -0.0012154169, -0.009918774, -1503441.3, 50391.082, 0.0, 5.0258965, 4.974047 
4.9412715e+2, 1.464195e+2, -1456650.4, -1534801.1, -6578.176, -0.0011908151, -0.009498407, -1456100.5, 48980.4, 0.0, 5.025184, 4.9742975 
4.941121e+2, 1.5139405e+2, -1409752.1, -1486826.5, -6695.0537, -0.001248278, -0.009621444, -1409174.9, 47154.805, 0.0, 5.024472, 4.974297 
4.9409702e+2, 1.5636861e+2, -1364203.1, -1441684.6, -6788.047, -0.0013091752, -0.009286307, -1363612.9, 43965.72, 0.0, 5.02376, 4.9733453 
4.9408096e+2, 1.6133973e+2, -1324333.0, -1408356.0, -8699.558, -0.0013692067, -0.004399745, -1323441.6, 35419.973, 0.0, 5.023019, 4.9684544 
4.9406323e+2, 1.6630836e+2, -1277340.3, -1359821.6, -9175.844, -0.00081034534, -0.0070341993, -1276331.8, 33839.1, 0.0, 5.02221, 4.968655 
4.9404547e+2, 1.7127702e+2, -1230627.8, -1311876.5, -9325.262, -0.00021738085, -0.009602484, -1229571.3, 31908.568, 0.0, 5.021398, 4.9686556 
4.940277e+2, 1.7624567e+2, -1185025.3, -1266300.3, -9466.147, 0.0003560664, -0.011779638, -1183937.3, 28851.361, 0.0, 5.0205865, 4.967856 
4.940095e+2, 1.8121156e+2, -1144997.0, -1232719.5, -10431.08, 0.0010084598, -0.0037553902, -1143773.8, 20351.258, 0.0, 5.019798, 4.962987 
4.9399033e+2, 1.861757e+2, -1097278.9, -1182935.8, -10648.272, 0.00069052, 0.00016433523, -1095975.0, 19503.834, 0.0, 5.0190277, 4.9635544 
4.9397114e+2, 1.911399e+2, -1050347.4, -1134834.5, -10692.218, 0.00021368903, 0.0039122286, -1049015.3, 17816.744, 0.0, 5.0182548, 4.963553 
4.9395198e+2, 1.9610412e+2, -1004292.6, -1088635.8, -10731.067, -0.0002697518, 0.008008096, -1002948.7, 15236.401, 0.0, 5.0174823, 4.9629016 
4.9393263e+2, 2.0106517e+2, -964416.5, -1055856.1, -11211.474, 0.00012017958, 0.017635472, -963061.94, 6507.8994, 0.0, 5.0167193, 4.957663 
4.939133e+2, 2.0602334e+2, -916598.0, -1006195.75, -11494.706, 0.004853262, 0.015402219, -915146.8, 5837.0835, 0.0, 5.0159993, 4.9581327 
4.9389395e+2, 2.1098149e+2, -869383.1, -957878.0, -11680.814, 0.0099655185, 0.012697851, -867867.25, 4530.6113, 0.0, 5.015285, 4.9581394 
4.9387464e+2, 2.1593969e+2, -822821.2, -911002.9, -11862.604, 0.014947328, 0.010066953, -821253.25, 2558.553, 0.0, 5.01457, 4.957647 
4.9385554e+2, 2.2089516e+2, -782683.0, -878053.5, -11477.42, 0.01921734, 0.02005838, -781321.2, -6070.948, 0.0, 5.0138283, 4.9523554 
4.938362e+2, 2.2584938e+2, -734113.06, -824890.3, -11370.394, 0.014929104, 0.019198379, -732710.56, -6015.171, 0.0, 5.0127187, 4.954157 
4.9381667e+2, 2.3080377e+2, -688082.3, -777094.5, -11289.281, 0.009312362, 0.016258137, -686672.9, -8534.463, 0.0, 5.011554, 4.9541564 
4.937972e+2, 2.3575819e+2, -642677.4, -730729.2, -11192.911, 0.0036210082, 0.013397436, -641276.8, -11695.475, 0.0, 5.010388, 4.953654 
4.9377823e+2, 2.4070993e+2, -606014.6, -704163.56, -10080.763, -0.0021341566, 0.030948276, -604989.94, -23936.56, 0.0, 5.009287, 4.946248 
4.9376115e+2, 2.4565801e+2, -558375.3, -654331.8, -9821.529, -0.0023452868, 0.040623516, -557380.4, -24808.451, 0.0, 5.00842, 4.9467506 
4.9374422e+2, 2.5060573e+2, -511304.84, -605894.8, -10114.695, -0.0015908555, 0.04536773, -510235.34, -26140.451, 0.0, 5.0075717, 4.946774 
4.9372724e+2, 2.5555357e+2, -464466.75, -558012.75, -10419.796, -0.001208987, 0.051012155, -463320.2, -27703.434, 0.0, 5.006722, 4.9465995 
4.9371174e+2, 2.6049677e+2, -424013.4, -524707.94, -9742.872, 0.0053856517, 0.060648628, -423079.38, -35904.406, 0.0, 5.0059257, 4.941086 
4.9369618e+2, 2.6544052e+2, -369553.9, -453906.25, -9567.227, -0.010494362, -0.004538023, -368482.4, -29793.014, 0.0, 5.0038548, 4.949071 
4.9367973e+2, 2.7038547e+2, -326084.2, -407194.6, -9081.296, -0.03513649, -0.085231856, -325079.84, -34891.402, 0.0, 5.0014663, 4.949125 
4.936629e+2, 2.7533013e+2, -282521.25, -360687.56, -8299.095, -0.060818713, -0.1711647, -281649.84, -39959.79, 0.0, 4.999051, 4.9491296 
4.9365073e+2, 2.8027615e+2, -274416.2, -405092.2, -3939.0422, -0.061798673, -0.07301012, -274297.56, -81107.55, 0.0, 4.998744, 4.9167905 
4.9364284e+2, 2.852102e+2, -210483.2, -324690.4, -7320.632, -0.046451062, 0.027673837, -210015.86, -65153.586, 0.0, 4.9995995, 4.92685 
4.9363258e+2, 2.9013708e+2, -162198.31, -275275.5, -8157.9814, -0.045203485, -0.0016115886, -161612.78, -65000.984, 0.0, 4.9992, 4.9268823 
4.936222e+2, 2.9506385e+2, -113836.8, -225924.94, -8738.98, -0.044150308, -0.033308577, -113159.555, -64797.09, 0.0, 4.9987583, 4.926914 
4.9361286e+2, 3.0000883e+2, -41836.918, -90600.74, -5978.2217, -0.04066913, -0.047714945, -41114.71, -41114.71, 0.0, 4.9986753, 4.9670825 
4.936073e+2, 3.0498308e+2, -25065.47, -61087.563, -3052.9612, -0.02819116, -0.08283526, -24808.557, -24808.557, 0.0, 5.0005293, 4.9766793 
4.936019e+2, 3.0995944e+2, -19203.77, -58569.31, -2405.0303, -0.016117334, -0.12546822, -19057.379, -19057.379, 0.0, 5.002603, 4.976715 
4.935962e+2, 3.1493616e+2, -13297.882, -56102.105, -1996.4396, -0.0053715366, -0.16417845, -13204.967, -13204.967, 0.0, 5.00462, 4.9767513 
4.992184e+2, 1.2153682e+2, -1679448.8, -1752204.0, -365.5462, 0.001429174, -0.023801785, -1679446.9, 69484.164, 0.0, 5.0290027, 4.9815435 
4.9920663e+2, 1.265198e+2, -1636066.4, -1711257.5, -3313.1887, 0.0030652203, 0.012965639, -1635920.6, 64178.723, 0.0, 5.0282803, 4.9792843 
4.9919423e+2, 1.3149768e+2, -1589336.3, -1663417.9, -3501.9048, 0.0016792809, -0.0015776785, -1589171.1, 62144.902, 0.0, 5.027546, 4.979284 
4.9918184e+2, 1.3647553e+2, -1544709.6, -1619913.4, -3661.3018, 0.00028572106, -0.01488534, -1544531.9, 58001.117, 0.0, 5.026808, 4.9778438 
4.991682e+2, 1.4145145e+2, -1503637.8, -1583772.4, -6141.6426, -0.00020846768, -0.009405047, -1503169.8, 50598.96, 0.0, 5.0260653, 4.9738846 
4.9915242e+2, 1.4642586e+2, -1456440.9, -1535046.6, -6632.7725, -0.00022027748, -0.00911831, -1455885.1, 49133.63, 0.0, 5.0253277, 4.9741473 
4.9913666e+2, 1.5140025e+2, -1409618.1, -1487108.1, -6759.537, -0.0003147893, -0.009379064, -1409032.9, 47236.133, 0.0, 5.02459, 4.974147 
4.9912086e+2, 1.5637463e+2, -1364141.8, -1441996.3, -6860.915, -0.00041173934, -0.009180336, -1363541.8, 43977.62, 0.0, 5.0238523, 4.9731975 
4.9910405e+2, 1.6134563e+2, -1324344.5, -1408766.9, -8834.021, -0.0004012056, -0.004275155, -1323430.0, 35373.996, 0.0, 5.0231, 4.9682794 
4.9908558e+2, 1.6631408e+2, -1277317.8, -1360240.3, -9311.673, 0.00051226164, -0.0066307965, -1276285.0, 33830.145, 0.0, 5.022307, 4.9684696 
4.99067e+2, 1.7128259e+2, -1230562.4, -1312274.8, -9449.935, 0.0014787741, -0.008930042, -1229483.8, 31942.166, 0.0, 5.0215096, 4.96847 
4.990485e+2, 1.762511e+2, -1184925.0, -1266680.5, -9578.442, 0.0024299617, -0.010846421, -1183817.8, 28919.027, 0.0, 5.020709, 4.967671 
4.990295e+2, 1.8121685e+2, -1144799.4, -1232876.1, -10509.948, 0.0030122318, -0.0024590238, -1143562.6, 20511.871, 0.0, 5.019916, 4.96288 
4.990094e+2, 1.8618089e+2, -1097119.3, -1183000.5, -10743.238, 0.0014367093, 0.001092271, -1095795.8, 19633.264, 0.0, 5.01911, 4.9634953 
4.989893e+2, 1.9114499e+2, -1050301.1, -1134950.5, -10802.6045, -0.00036481707, 0.004337521, -1048944.3, 17838.59, 0.0, 5.0182986, 4.963495 
4.989692e+2, 1.961091e+2, -1004365.6, -1088805.0, -10854.791, -0.0021810452, 0.007928616, -1002992.56, 15144.114, 0.0, 5.0174847, 4.962844 
4.9894908e+2, 2.0107003e+2, -964723.8, -1056378.3, -11319.377, -0.002605103, 0.01729391, -963346.56, 6175.918, 0.0, 5.0166917, 4.9574986 
4.9892902e+2, 2.0602816e+2, -917022.25, -1006920.56, -11576.69, 0.002522519, 0.017176455, -915555.4, 5382.1323, 0.0, 5.015961, 4.957903 
4.9890903e+2, 2.1098636e+2, -869864.06, -958630.7, -11755.577, 0.00811787, 0.016876226, -868333.6, 4018.7615, 0.0, 5.015226, 4.957909 
4.9888903e+2, 2.1594454e+2, -823387.5, -911796.3, -11930.313, 0.0136128515, 0.016628662, -821805.9, 1961.2842, 0.0, 5.0144806, 4.957416 
4.9886924e+2, 2.2089998e+2, -783227.2, -878694.9, -11699.076, 0.018380424, 0.02844997, -781814.44, -6607.9565, 0.0, 5.013714, 4.952189 
4.9884883e+2, 2.2585359e+2, -734269.44, -824868.75, -11805.763, 0.014446423, 0.021313129, -732756.3, -6101.2773, 0.0, 5.012643, 4.9541955 
4.988282e+2, 2.3080733e+2, -688140.94, -777009.75, -11777.1455, 0.009165305, 0.01084035, -686606.7, -8504.672, 0.0, 5.0115128, 4.9542 
4.988076e+2, 2.3576106e+2, -642674.5, -730595.9, -11728.3955, 0.0037704762, 0.00048519284, -641136.9, -11587.999, 0.0, 5.01037, 4.9537015 
4.9878746e+2, 2.4071254e+2, -606344.5, -704767.7, -10479.93, -0.0030174237, 0.015347816, -605241.0, -24218.928, 0.0, 5.0092683, 4.946053 
4.987691e+2, 2.4566141e+2, -559001.9, -655433.9, -10177.213, -0.007174519, 0.036011335, -557939.5, -25404.56, 0.0, 5.008363, 4.9464035 
4.9875093e+2, 2.5060993e+2, -512023.66, -607039.4, -10398.38, -0.010303577, 0.052321877, -510899.0, -26846.74, 0.0, 5.0074773, 4.9464273 
4.987327e+2, 2.5555858e+2, -465264.2, -559193.7, -10571.503, -0.013746275, 0.0693509, -464089.1, -28520.51, 0.0, 5.0065956, 4.9462523 
4.9871638e+2, 2.6050153e+2, -425744.78, -528181.06, -9996.677, -0.005930267, 0.08506954, -424778.34, -37648.34, 0.0, 5.0058346, 4.939905 
4.9870035e+2, 2.654423e+2, -369620.1, -454449.72, -10828.596, -0.008998992, -0.006571178, -368259.63, -29591.688, 0.0, 5.0039964, 4.948749 
4.986832e+2, 2.7038434e+2, -325862.78, -407302.7, -11351.94, -0.021445496, -0.1173529, -324310.03, -34120.652, 0.0, 5.0017524, 4.9488697 
4.9866578e+2, 2.7532628e+2, -282366.0, -360462.6, -12034.408, -0.03589401, -0.23189148, -280553.63, -38842.074, 0.0, 4.9993725, 4.948946 
4.9865296e+2, 2.8027165e+2, -275889.9, -409734.22, -6354.3633, -0.04239207, -0.13267265, -275588.9, -82375.266, 0.0, 4.9991446, 4.915005 
4.9864414e+2, 2.852078e+2, -209999.36, -326221.06, -9767.054, -0.038646374, -0.002391633, -209184.28, -64314.11, 0.0, 5.0000377, 4.9261737 
4.9863288e+2, 2.9013628e+2, -162063.3, -276795.03, -9324.218, -0.039798953, -0.013547225, -161310.45, -64700.504, 0.0, 4.999469, 4.926269 
4.9862146e+2, 2.9506478e+2, -114344.63, -227522.52, -8836.597, -0.04212786, -0.026319956, -113658.85, -65309.01, 0.0, 4.998773, 4.9263654 
4.986114e+2, 3.000111e+2, -43509.844, -92686.75, -4688.056, -0.043656494, -0.022387523, -43066.918, -43066.918, 0.0, 4.998317, 4.9665236 
4.986078e+2, 3.049849e+2, -26881.607, -60260.93, -905.1015, -0.02920363, -0.069752105, -26857.084, -26857.084, 0.0, 4.99955, 4.977381 
4.986049e+2, 3.0996037e+2, -23505.717, -59168.727, 406.5279, -0.014425905, -0.13399217, -23501.084, -23501.084, 0.0, 5.0007772, 4.977292 
4.9860165e+2, 3.1493592e+2, -20751.31, -58390.375, 1865.9827, -0.0034239138, -0.19524549, -20659.03, -20659.03, 0.0, 5.0017257, 4.977203 
5.042485e+2, 1.2154682e+2, -1673879.3, -1749639.6, 1053.8542, 0.0017742019, -0.019702636, -1673864.5, 74968.305, 0.0, 5.030902, 4.9814544 
5.042359e+2, 1.2652878e+2, -1631026.0, -1709331.6, -1777.8058, 0.0031737061, 0.009145631, -1630985.8, 69025.47, 0.0, 5.030086, 4.9790344 
5.0422275e+2, 1.3150662e+2, -1584504.8, -1661601.5, -1984.8937, 0.002133955, -0.0031415715, -1584453.8, 66774.59, 0.0, 5.029286, 4.9790344 
5.042096e+2, 1.3648443e+2, -1540075.8, -1618200.3, -2164.2786, 0.0010922455, -0.014192333, -1540015.8, 62429.914, 0.0, 5.0284853, 4.977595 
5.041952e+2, 1.4146024e+2, -1499137.3, -1581962.0, -4677.9775, 0.00069004, -0.007542961, -1498873.9, 54808.844, 0.0, 5.0276637, 4.973709 
5.0417864e+2, 1.4643441e+2, -1452272.8, -1533394.9, -5183.058, 0.000449525, -0.007994243, -1451942.9, 52992.355, 0.0, 5.026816, 4.973976 
5.04162e+2, 1.5140855e+2, -1405788.5, -1485627.5, -5330.145, 0.00013017523, -0.009024735, -1405434.3, 50753.883, 0.0, 5.025967, 4.973976 
5.041454e+2, 1.5638268e+2, -1360644.8, -1440678.1, -5451.2017, -0.00018543034, -0.009593766, -1360275.1, 47165.883, 0.0, 5.025119, 4.973029 
5.041278e+2, 1.6135347e+2, -1321055.0, -1407487.5, -7422.6333, -0.00029478472, -0.0049537625, -1320422.1, 38305.43, 0.0, 5.0242825, 4.96814 
5.041085e+2, 1.6632189e+2, -1274094.8, -1358993.8, -7857.487, 0.0006907024, -0.006454501, -1273373.6, 36665.688, 0.0, 5.023469, 4.9683323 
5.040891e+2, 1.7129034e+2, -1227394.1, -1311060.9, -7957.737, 0.0017489309, -0.007878939, -1226644.0, 34706.91, 0.0, 5.0226555, 4.9683323 
5.040698e+2, 1.7625879e+2, -1181800.6, -1265492.0, -8046.417, 0.0028097846, -0.008944565, -1181034.1, 31628.352, 0.0, 5.021842, 4.9675336 
5.0404996e+2, 1.8122445e+2, -1141776.4, -1231657.0, -8992.328, 0.0033579902, -0.0002148402, -1140885.6, 23115.447, 0.0, 5.020998, 4.9627805 
5.0402904e+2, 1.8618828e+2, -1094524.8, -1182005.1, -9284.748, 0.0018144284, 0.0022848346, -1093550.3, 21807.162, 0.0, 5.0200505, 4.9633904 
5.0400805e+2, 1.9115214e+2, -1048126.75, -1134157.1, -9393.051, 0.00008982476, 0.0043651196, -1047113.1, 19600.09, 0.0, 5.019096, 4.963391 
5.039871e+2, 1.9611602e+2, -1002602.0, -1088207.8, -9495.757, -0.0016461461, 0.006760496, -1001561.3, 16507.639, 0.0, 5.0181413, 4.962741 
5.03966e+2, 2.0107672e+2, -963377.0, -1056057.3, -9929.984, -0.0020671468, 0.015237359, -962325.0, 7131.69, 0.0, 5.0172224, 4.9573607 
5.039451e+2, 2.060349e+2, -916001.3, -1006777.0, -10086.175, 0.001856939, 0.016909968, -914894.1, 5977.661, 0.0, 5.016383, 4.957757 
5.039242e+2, 2.1099311e+2, -869131.25, -958631.75, -10182.882, 0.0061853714, 0.018589271, -867987.3, 4299.1636, 0.0, 5.0155478, 4.957761 
5.0390327e+2, 2.1595134e+2, -822911.4, -911927.5, -10272.958, 0.010546879, 0.020147707, -821741.25, 1960.0979, 0.0, 5.014712, 4.9572654 
5.038826e+2, 2.2090672e+2, -783020.7, -878872.06, -10074.386, 0.014560174, 0.032787275, -781973.25, -6832.2476, 0.0, 5.013835, 4.952073 
5.0386125e+2, 2.2585984e+2, -734246.44, -825363.25, -10502.27, 0.012335096, 0.022890145, -733051.6, -6457.605, 0.0, 5.012747, 4.953981 
5.0383973e+2, 2.3081298e+2, -688057.56, -777469.4, -10790.057, 0.009157668, 0.009079843, -686773.8, -8727.783, 0.0, 5.0116353, 4.9539895 
5.038182e+2, 2.3576614e+2, -642495.5, -731007.06, -11067.42, 0.0059247245, -0.0048702885, -641132.6, -11634.516, 0.0, 5.0105233, 4.9534955 
5.037972e+2, 2.40717e+2, -605860.2, -704433.4, -9934.483, 0.0004915221, 0.0045213173, -604868.94, -23892.363, 0.0, 5.0094023, 4.946122 
5.0377744e+2, 2.4566604e+2, -559327.4, -655631.94, -9299.005, -0.0064247833, 0.02761174, -558437.7, -25951.346, 0.0, 5.008246, 4.9464054 
5.0375795e+2, 2.506149e+2, -513096.97, -607504.25, -9212.504, -0.012678213, 0.047728386, -512206.38, -28207.115, 0.0, 5.0070844, 4.946454 
5.0373834e+2, 2.555638e+2, -467087.88, -559931.94, -9135.247, -0.019076243, 0.067378305, -466197.56, -30685.58, 0.0, 5.0059214, 4.9463043 
5.037209e+2, 2.605069e+2, -428888.9, -530768.44, -8153.08, -0.0128838075, 0.08489559, -428240.56, -41169.21, 0.0, 5.0049353, 4.9394555 
5.037044e+2, 2.654466e+2, -372531.4, -459963.25, -10344.618, -0.007373106, 0.00087645545, -371324.13, -32699.887, 0.0, 5.0036955, 4.947151 
5.036871e+2, 2.7038684e+2, -326553.72, -412551.7, -12301.191, -0.008260872, -0.103354864, -324828.75, -34661.63, 0.0, 5.002296, 4.9470816 
5.0366956e+2, 2.7532658e+2, -280489.47, -365366.94, -14077.214, -0.009487512, -0.21424228, -278215.66, -36500.645, 0.0, 5.0008826, 4.946964 
5.036558e+2, 2.8026864e+2, -270745.1, -399725.78, -5942.485, -0.013927114, -0.14847519, -270471.9, -77220.17, 0.0, 4.999524, 4.918483 
5.036453e+2, 2.8520548e+2, -213298.72, -325206.38, -7340.437, -0.020669542, -0.029036941, -212819.28, -67920.836, 0.0, 4.998664, 4.927133 
5.03633e+2, 2.9013598e+2, -165763.1, -276176.78, -7491.9316, -0.025677593, -0.021577477, -165257.06, -68642.555, 0.0, 4.9979043, 4.927147 
5.036206e+2, 2.9506615e+2, -118132.38, -227214.38, -7549.68, -0.030708019, -0.018842086, -117612.336, -69278.54, 0.0, 4.997137, 4.92716 
5.036097e+2, 3.000134e+2, -47947.586, -93207.69, -4426.188, -0.034920383, -0.008654509, -47518.793, -47518.793, 0.0, 4.9964595, 4.9670267 
5.03606e+2, 3.049867e+2, -35113.133, -62903.52, -2719.9087, -0.02395639, -0.06352915, -34849.43, -34849.43, 0.0, 4.996461, 4.9776206 
5.036033e+2, 3.099623e+2, -34810.656, -62582.957, -3309.7803, -0.009494528, -0.12835467, -34421.656, -34421.656, 0.0, 4.996585, 4.977687 
5.036003e+2, 3.1493858e+2, -34481.87, -62288.027, -3942.1497, 0.004368729, -0.18659526, -33933.785, -33933.785, 0.0, 4.9967, 4.977753 
5.092795e+2, 1.2155801e+2, -1673947.0, -1749778.9, 261.60916, 0.0026215608, -0.014730592, -1673946.1, 74777.086, 0.0, 5.030901, 4.9814095 
5.0926596e+2, 1.2653872e+2, -1631409.6, -1710128.0, -2385.9895, 0.0031575721, 0.004142999, -1631337.4, 68575.94, 0.0, 5.030087, 4.978773 
5.092521e+2, 1.315166e+2, -1584886.1, -1662396.0, -2592.227, 0.0025136096, -0.0052531403, -1584799.5, 66330.875, 0.0, 5.029287, 4.978773 
5.092382e+2, 1.3649444e+2, -1540455.6, -1618994.8, -2774.6248, 0.001853417, -0.013409955, -1540357.6, 61989.94, 0.0, 5.0284863, 4.9773326 
5.092229e+2, 1.4147016e+2, -1499403.6, -1582529.6, -5323.755, 0.0015326829, -0.0052418364, -1499064.0, 54521.434, 0.0, 5.027665, 4.973522 
5.0920546e+2, 1.4644407e+2, -1452532.4, -1533951.5, -5827.2256, 0.0010084186, -0.0066103167, -1452117.5, 52723.44, 0.0, 5.026818, 4.9737926 
5.0918794e+2, 1.5141793e+2, -1406046.6, -1486182.6, -5974.0127, 0.00039867737, -0.008598598, -1405603.8, 50492.95, 0.0, 5.025969, 4.9737926 
5.091705e+2, 1.5639177e+2, -1360899.1, -1441226.9, -6094.9736, -0.00021068883, -0.010121724, -1360439.3, 46913.29, 0.0, 5.0251207, 4.972847 
5.09152e+2, 1.6136236e+2, -1321237.8, -1407888.9, -8051.855, -0.0005181549, -0.0058173793, -1320495.9, 38145.242, 0.0, 5.024285, 4.968006 
5.091319e+2, 1.6633077e+2, -1274264.9, -1359367.6, -8474.958, 0.00043709966, -0.0063112103, -1273429.1, 36524.117, 0.0, 5.023471, 4.9682074 
5.0911176e+2, 1.7129919e+2, -1227564.5, -1311434.3, -8574.37, 0.001454907, -0.006668204, -1226696.9, 34568.004, 0.0, 5.022657, 4.9682074 
5.0909156e+2, 1.7626762e+2, -1181970.4, -1265862.5, -8661.228, 0.0024642984, -0.0066528465, -1181085.5, 31491.219, 0.0, 5.021843, 4.9674096 
5.090709e+2, 1.8123323e+2, -1141917.3, -1231979.5, -9689.4795, 0.0029424108, 0.0025022824, -1140886.6, 23029.238, 0.0, 5.021001, 4.9626737 
5.0904906e+2, 1.8619679e+2, -1094695.5, -1182393.4, -10010.002, 0.0019432734, 0.0036824308, -1093567.4, 21707.121, 0.0, 5.0200534, 4.963261 
5.090272e+2, 1.9116037e+2, -1048298.2, -1134544.5, -10116.515, 0.0008338613, 0.004369343, -1047127.44, 19505.346, 0.0, 5.0190983, 4.9632616 
5.090053e+2, 1.9612397e+2, -1002774.3, -1088594.3, -10217.332, -0.00030177413, 0.0053937803, -1001574.6, 16416.338, 0.0, 5.018143, 4.962612 
5.089834e+2, 2.0108443e+2, -963554.5, -1056466.4, -10595.4795, -0.00039168113, 0.012843541, -962361.5, 7019.395, 0.0, 5.017226, 4.9572215 
5.0896144e+2, 2.0604263e+2, -916148.5, -1007107.0, -10719.579, 0.0017411713, 0.0158946, -914902.3, 5893.4175, 0.0, 5.016384, 4.957645 
5.089395e+2, 2.1100093e+2, -869289.0, -958963.4, -10810.822, 0.003957753, 0.019349024, -868004.1, 4205.553, 0.0, 5.0155454, 4.9576497 
5.0891757e+2, 2.1595922e+2, -823079.7, -912260.75, -10895.37, 0.0061622784, 0.022786038, -821767.94, 1855.7997, 0.0, 5.0147057, 4.9571548 
5.0889575e+2, 2.2091463e+2, -783220.25, -879336.5, -10861.217, 0.008646965, 0.03653559, -782008.2, -6945.071, 0.0, 5.013838, 4.9519186 
5.0887364e+2, 2.258672e+2, -734701.5, -826399.1, -11349.146, 0.009055584, 0.02453175, -733317.7, -6796.002, 0.0, 5.012751, 4.9536314 
5.0885135e+2, 2.3081972e+2, -688520.5, -778496.3, -11621.126, 0.008988301, 0.008426027, -687043.75, -9063.66, 0.0, 5.0116363, 4.9536424 
5.0882906e+2, 2.3577225e+2, -642966.44, -732025.2, -11882.595, 0.008828578, -0.0077272845, -641408.3, -11969.883, 0.0, 5.0105205, 4.953151 
5.0880706e+2, 2.4072237e+2, -605719.06, -704067.9, -10815.62, 0.0057669533, -0.0040349765, -604543.7, -23619.926, 0.0, 5.009397, 4.946248 
5.0878596e+2, 2.4567144e+2, -559144.44, -655172.25, -10199.125, -0.0036136357, 0.017492859, -558073.1, -25642.338, 0.0, 5.008238, 4.9465704 
5.08765e+2, 2.5062057e+2, -512934.9, -607094.1, -10081.17, -0.01313819, 0.039031204, -511867.66, -27929.434, 0.0, 5.007074, 4.946607 
5.0874394e+2, 2.555698e+2, -466946.44, -559571.0, -9972.423, -0.022872506, 0.060697302, -465884.94, -30439.871, 0.0, 5.0059085, 4.9464455 
5.0872505e+2, 2.6051345e+2, -429601.16, -532654.94, -8996.493, -0.01912531, 0.08321522, -428821.66, -41823.516, 0.0, 5.004963, 4.9388523 
5.087082e+2, 2.654521e+2, -375197.5, -465769.13, -10979.477, -0.006257074, 0.0124899065, -373885.5, -35316.664, 0.0, 5.003657, 4.945259 
5.0869054e+2, 2.703911e+2, -329432.75, -418000.94, -12678.623, 0.0010279034, -0.07679478, -327653.56, -37521.14, 0.0, 5.0021462, 4.945317 
5.086727e+2, 2.7532983e+2, -283581.47, -370460.44, -14196.795, 0.0071864715, -0.17172775, -281320.44, -39621.766, 0.0, 5.0006227, 4.9453263 
5.086575e+2, 2.8026924e+2, -265244.56, -386673.16, -7466.812, 0.0035972944, -0.14195926, -264787.16, -71519.5, 0.0, 4.9994693, 4.9230733 
5.0864553e+2, 2.8520507e+2, -212215.66, -323808.8, -8392.299, -0.006398916, -0.050442286, -211588.05, -66671.195, 0.0, 4.998804, 4.9277663 
5.086324e+2, 2.9013664e+2, -164783.52, -274628.34, -8346.414, -0.011994684, -0.029208876, -164152.95, -67538.76, 0.0, 4.998001, 4.9278326 
5.086193e+2, 2.9506794e+2, -117256.51, -225515.27, -8207.086, -0.017926993, -0.012235549, -116637.87, -68324.0, 0.0, 4.997191, 4.9278984 
5.0860757e+2, 3.0001596e+2, -47336.87, -91786.02, -4762.1255, -0.024492484, 0.0055844076, -46832.4, -46832.4, 0.0, 4.996478, 4.967556 
5.086029e+2, 3.0498803e+2, -35424.17, -63651.586, -2864.2373, -0.021916727, -0.055163056, -35136.47, -35136.47, 0.0, 4.9964776, 4.977445 
5.085991e+2, 3.0996236e+2, -35156.082, -63490.637, -3346.4993, -0.01729969, -0.12127133, -34766.203, -34766.203, 0.0, 4.996603, 4.977467 
5.085951e+2, 3.149373e+2, -34861.66, -63355.305, -3871.3853, -0.013944938, -0.18097743, -34345.027, -34345.027, 0.0, 4.9967194, 4.977489 
5.143104e+2, 1.2156908e+2, -1673945.3, -1749776.9, -520.778, 0.003364296, -0.010793036, -1673941.6, 74672.875, 0.0, 5.0309005, 4.9814105 
5.14296e+2, 1.2654868e+2, -1631793.5, -1710924.5, -2993.9836, 0.0031284953, -0.0008146607, -1631680.4, 68135.23, 0.0, 5.030088, 4.978512 
5.142814e+2, 1.3152656e+2, -1585267.5, -1663190.5, -3199.3708, 0.0028804606, -0.007335249, -1585136.4, 65896.03, 0.0, 5.029288, 4.9785113 
5.1426667e+2, 1.3650444e+2, -1540835.5, -1619789.4, -3384.9014, 0.0026018845, -0.012613632, -1540690.8, 61558.813, 0.0, 5.0284877, 4.9770703 
5.1425064e+2, 1.414801e+2, -1499673.3, -1583104.5, -5969.0825, 0.0023701238, -0.002925817, -1499248.4, 54239.824, 0.0, 5.027667, 4.973333 
5.142323e+2, 1.4645371e+2, -1452792.0, -1534508.4, -6471.403, 0.0015638039, -0.0052172444, -1452282.8, 52463.863, 0.0, 5.0268197, 4.973609 
5.142139e+2, 1.514273e+2, -1406304.8, -1486737.9, -6617.8896, 0.0006640596, -0.008173401, -1405763.9, 50241.445, 0.0, 5.0259714, 4.9736085 
5.1419556e+2, 1.5640084e+2, -1361153.4, -1441775.9, -6738.7925, -0.00023867992, -0.010660699, -1360594.0, 46670.08, 0.0, 5.0251226, 4.972665 
5.141762e+2, 1.6137126e+2, -1321424.1, -1408297.9, -8680.641, -0.0007490263, -0.006664368, -1320565.1, 37989.54, 0.0, 5.024287, 4.96787 
5.1415527e+2, 1.6633964e+2, -1274435.0, -1359741.5, -9092.541, 0.00017407049, -0.0061574625, -1273476.6, 36390.42, 0.0, 5.023473, 4.9680824 
5.1413435e+2, 1.7130804e+2, -1227735.0, -1311807.6, -9191.114, 0.0011523133, -0.005465104, -1226742.0, 34437.04, 0.0, 5.022659, 4.9680824 
5.1411337e+2, 1.7627648e+2, -1182140.0, -1266233.0, -9276.14, 0.0021111001, -0.004386843, -1181129.0, 31361.986, 0.0, 5.0218444, 4.9672856 
5.140918e+2, 1.81242e+2, -1142067.1, -1232321.4, -10384.875, 0.002518317, 0.0052726315, -1140887.6, 22943.111, 0.0, 5.0210037, 4.96256 
5.140691e+2, 1.8620531e+2, -1094866.3, -1182781.8, -10736.09, 0.0020571924, 0.0051266747, -1093574.1, 21617.492, 0.0, 5.0200562, 4.963132 
5.140463e+2, 1.911686e+2, -1048469.8, -1134931.9, -10840.8125, 0.0015590884, 0.0043787756, -1047131.25, 19421.1, 0.0, 5.0191007, 4.9631324 
5.140235e+2, 1.9613194e+2, -1002946.7, -1088981.0, -10939.74, 0.0010199095, 0.0039908607, -1001577.44, 16335.517, 0.0, 5.0181456, 4.962483 
5.140007e+2, 2.0109217e+2, -963749.56, -1056912.6, -11256.722, 0.0012636463, 0.010537119, -962408.7, 6896.342, 0.0, 5.0172296, 4.957069 
5.139777e+2, 2.0605037e+2, -916296.6, -1007436.5, -11354.601, 0.0015871958, 0.014916463, -914903.3, 5816.2437, 0.0, 5.0163856, 4.957532 
5.1395476e+2, 2.1100874e+2, -869447.7, -959294.5, -11440.383, 0.0016826527, 0.020015847, -868013.8, 4119.038, 0.0, 5.0155425, 4.957537 
5.139318e+2, 2.159671e+2, -823248.9, -912593.56, -11519.402, 0.0017209314, 0.025201356, -821787.56, 1758.5667, 0.0, 5.0146995, 4.957043 
5.13909e+2, 2.2092256e+2, -783504.9, -879987.0, -11635.356, 0.002774999, 0.0406209, -782121.56, -7136.417, 0.0, 5.013841, 4.951699 
5.13886e+2, 2.2587457e+2, -735157.7, -827435.25, -12203.267, 0.0058038025, 0.026438627, -733571.1, -7121.8057, 0.0, 5.012756, 4.9532776 
5.138629e+2, 2.3082645e+2, -688984.6, -779523.5, -12459.4375, 0.008795522, 0.0076160887, -687301.3, -9387.09, 0.0, 5.011637, 4.953291 
5.1383984e+2, 2.3577833e+2, -643438.5, -733043.56, -12705.01, 0.011657918, -0.011161505, -641671.9, -12293.024, 0.0, 5.010518, 4.9528027 
5.1381695e+2, 2.4072778e+2, -605730.06, -704037.1, -11683.906, 0.010950254, -0.011818226, -604360.5, -23490.166, 0.0, 5.0093923, 4.946256 
5.137945e+2, 2.456769e+2, -558964.1, -654711.8, -11083.064, -0.0009726653, 0.008262715, -557697.94, -25323.568, 0.0, 5.00823, 4.946729 
5.1377195e+2, 2.506263e+2, -512775.4, -606683.06, -10933.663, -0.01382323, 0.030247137, -511519.22, -27642.525, 0.0, 5.0070634, 4.9467535 
5.137495e+2, 2.5557578e+2, -466807.5, -559209.1, -10793.434, -0.02694869, 0.052954335, -465563.47, -30185.508, 0.0, 5.0058956, 4.94658 
5.137294e+2, 2.6052e+2, -431065.56, -536207.75, -9831.849, -0.024221694, 0.083583705, -430154.1, -43229.17, 0.0, 5.0049906, 4.9376454 
5.13712e+2, 2.654575e+2, -377892.8, -471565.0, -11829.531, -0.004807395, 0.023708217, -376421.97, -37907.49, 0.0, 5.0036182, 4.9432926 
5.1369375e+2, 2.7039507e+2, -332340.47, -423438.75, -13271.0625, 0.008753396, -0.05680986, -330446.53, -40345.832, 0.0, 5.001997, 4.943477 
5.136753e+2, 2.753326e+2, -286701.6, -375541.03, -14531.255, 0.020401843, -0.14196347, -284385.16, -42697.832, 0.0, 5.0003633, 4.943614 
5.1365906e+2, 2.8026986e+2, -262307.88, -379513.88, -8745.591, 0.020485077, -0.13417356, -261658.89, -68375.84, 0.0, 4.999415, 4.925606 
5.1364595e+2, 2.8520516e+2, -211146.81, -322402.8, -9556.256, 0.0097690765, -0.060060315, -210331.95, -65401.266, 0.0, 4.9989448, 4.928349 
5.13632e+2, 2.9013756e+2, -163817.45, -273071.4, -9312.957, 0.0026135393, -0.030605577, -163029.28, -66418.016, 0.0, 4.9980984, 4.928468 
5.1361805e+2, 2.9506978e+2, -116393.45, -223807.53, -8976.544, -0.005191921, -0.00494309, -115648.46, -67355.15, 0.0, 4.9972453, 4.928587 
5.136054e+2, 3.0001858e+2, -47220.777, -91476.53, -5112.796, -0.015069853, 0.019851051, -46637.785, -46637.785, 0.0, 4.996496, 4.9676723 
5.135998e+2, 3.0498946e+2, -35749.535, -64385.777, -2943.8384, -0.019797629, -0.045519523, -35450.04, -35450.04, 0.0, 4.996494, 4.9772525 
5.135951e+2, 3.099624e+2, -35515.824, -64384.64, -3318.5188, -0.023249269, -0.11630793, -35139.266, -35139.266, 0.0, 4.996621, 4.97723 
5.135902e+2, 3.1493583e+2, -35255.75, -64409.117, -3735.938, -0.02862814, -0.18087488, -34784.61, -34784.61, 0.0, 4.9967394, 4.9772077 
5.193414e+2, 1.2158008e+2, -1673124.4, -1749386.8, -745.5764, 0.004013671, -0.008441113, -1673117.1, 75389.6, 0.0, 5.031177, 4.981404 
5.193261e+2, 1.2655877e+2, -1631431.1, -1711331.3, -3063.468, 0.0031368802, -0.0051683113, -1631313.9, 68402.51, 0.0, 5.030334, 4.978258 
5.1931065e+2, 1.3153666e+2, -1585049.5, -1663668.8, -3236.7905, 0.0032128484, -0.009147116, -1584916.5, 66016.836, 0.0, 5.0294857, 4.978258 
5.192952e+2, 1.3651454e+2, -1540767.5, -1620342.8, -3393.4514, 0.0032639897, -0.011881352, -1540623.0, 61527.504, 0.0, 5.028635, 4.9768167 
5.192784e+2, 1.414901e+2, -1499613.9, -1583517.9, -5985.242, 0.0031280862, -0.0008584851, -1499189.0, 54201.23, 0.0, 5.02778, 4.973142 
5.1925915e+2, 1.4646344e+2, -1452722.1, -1534902.9, -6493.4023, 0.0020970071, -0.003976899, -1452212.3, 52439.254, 0.0, 5.026933, 4.9734244 
5.192399e+2, 1.5143673e+2, -1406232.4, -1487130.5, -6647.94, 0.00096420944, -0.0078082876, -1405689.8, 50223.316, 0.0, 5.026085, 4.9734244 
5.192207e+2, 1.5641004e+2, -1361079.4, -1442163.4, -6776.0513, -0.00017424017, -0.011176284, -1360517.0, 46657.758, 0.0, 5.025236, 4.972482 
5.192005e+2, 1.6138025e+2, -1321309.4, -1408563.6, -8707.737, -0.0008726689, -0.0074154516, -1320448.9, 38018.426, 0.0, 5.024392, 4.967732 
5.191787e+2, 1.6634859e+2, -1274378.5, -1360004.1, -9114.437, -0.00003391098, -0.0059516453, -1273419.1, 36360.918, 0.0, 5.0235515, 4.9679575 
5.1915693e+2, 1.7131698e+2, -1227762.8, -1312110.5, -9216.623, 0.00086874835, -0.0042781304, -1226767.4, 34324.797, 0.0, 5.0227084, 4.9679575 
5.191351e+2, 1.7628539e+2, -1182255.6, -1266575.5, -9303.309, 0.0017566902, -0.0022162518, -1181241.3, 31163.082, 0.0, 5.0218635, 4.9671617 
5.191127e+2, 1.8125086e+2, -1142233.0, -1232684.4, -10487.757, 0.0020846708, 0.007959679, -1141032.9, 22711.84, 0.0, 5.021004, 4.9624395 
5.190891e+2, 1.8621388e+2, -1094983.6, -1183149.8, -10895.354, 0.0021271084, 0.006533171, -1093657.1, 21450.87, 0.0, 5.020079, 4.962999 
5.1906544e+2, 1.9117692e+2, -1048526.25, -1135269.3, -11024.238, 0.0022249357, 0.0043465304, -1047147.06, 19324.176, 0.0, 5.019144, 4.963 
5.190418e+2, 1.9613996e+2, -1002956.25, -1089294.4, -11144.166, 0.0022877892, 0.0025095963, -1001541.0, 16293.345, 0.0, 5.018204, 4.9623504 
5.1901805e+2, 2.0109995e+2, -963786.6, -1057302.5, -11407.133, 0.0028642733, 0.00830002, -962415.3, 6813.2783, 0.0, 5.0172925, 4.9569077 
5.189941e+2, 2.0605817e+2, -916376.1, -1007724.94, -11477.392, 0.0013659301, 0.013964286, -914956.2, 5686.6074, 0.0, 5.016408, 4.9574223 
5.1897e+2, 2.110166e+2, -869668.2, -959649.9, -11548.965, -0.00061919633, 0.020487808, -868209.5, 3845.9507, 0.0, 5.0155163, 4.957427 
5.1894605e+2, 2.1597502e+2, -823624.5, -913021.2, -11614.53, -0.002668754, 0.027113434, -822140.2, 1327.9551, 0.0, 5.0146194, 4.956932 
5.1892227e+2, 2.2093052e+2, -784189.5, -880935.2, -11815.607, -0.0029078731, 0.044515494, -782767.4, -7860.6577, 0.0, 5.0137296, 4.951426 
5.188984e+2, 2.25882e+2, -735711.7, -828521.0, -12506.739, 0.0025959092, 0.028439898, -734055.9, -7679.551, 0.0, 5.012729, 4.9529166 
5.188745e+2, 2.3083323e+2, -689308.06, -780501.75, -12804.083, 0.008508286, 0.0067885164, -687544.44, -9696.739, 0.0, 5.01169, 4.9529295 
5.1885056e+2, 2.357845e+2, -643583.9, -733936.25, -13093.226, 0.014308412, -0.014895846, -641724.75, -12405.806, 0.0, 5.0106344, 4.9524407 
5.188269e+2, 2.4073334e+2, -605428.3, -704130.8, -12155.744, 0.015968416, -0.018597657, -603953.3, -23137.395, 0.0, 5.009551, 4.9461484 
5.18803e+2, 2.4568251e+2, -558266.1, -654004.94, -11629.633, 0.001601462, 0.00007275191, -556873.75, -24556.836, 0.0, 5.0084047, 4.9468875 
5.18779e+2, 2.5063205e+2, -512047.75, -605979.5, -11466.465, -0.014419291, 0.020991575, -510668.25, -26853.402, 0.0, 5.0072513, 4.9469075 
5.1875496e+2, 2.555817e+2, -466053.78, -558507.0, -11264.898, -0.03075929, 0.042704407, -464701.03, -29389.225, 0.0, 5.006097, 4.946729 
5.1873386e+2, 2.6052642e+2, -432668.25, -540838.7, -9986.994, -0.02778936, 0.083379745, -431753.9, -44900.688, 0.0, 5.0052066, 4.935944 
5.187158e+2, 2.6546285e+2, -379569.44, -477004.63, -12151.479, -0.0029016973, 0.033985414, -378076.84, -39616.1, 0.0, 5.003991, 4.9412074 
5.1869684e+2, 2.7039883e+2, -333965.47, -428705.53, -13884.819, 0.015947046, -0.04200055, -331972.47, -41901.27, 0.0, 5.0024056, 4.941418 
5.1867765e+2, 2.7533478e+2, -288793.34, -380806.2, -15887.515, 0.03314672, -0.12245441, -286127.34, -44445.633, 0.0, 5.0006375, 4.9415865 
5.1866096e+2, 2.802702e+2, -262048.8, -377880.72, -11382.462, 0.041742455, -0.12307296, -260940.88, -67639.39, 0.0, 4.9994063, 4.9261484 
5.186469e+2, 2.8520554e+2, -210346.75, -320277.1, -11469.305, 0.031184135, -0.05663457, -209162.88, -64220.887, 0.0, 4.999009, 4.9290857 
5.186319e+2, 2.901387e+2, -162648.34, -270882.56, -10361.083, 0.019948758, -0.024842646, -161665.42, -65059.188, 0.0, 4.998269, 4.9291925 
5.186168e+2, 2.9507175e+2, -115086.35, -221616.58, -9419.868, 0.00830633, 0.0033683025, -114259.82, -65987.89, 0.0, 4.9974523, 4.9293017 
5.1860315e+2, 3.0002126e+2, -47294.066, -92065.17, -4853.2935, -0.0062639243, 0.033595055, -46773.996, -46773.996, 0.0, 4.9966135, 4.9674015 
5.185967e+2, 3.049911e+2, -37177.914, -65601.49, -2418.0215, -0.017017009, -0.034927703, -36973.68, -36973.68, 0.0, 4.9961185, 4.977017 
5.185913e+2, 3.0996254e+2, -38945.85, -66496.086, -2782.461, -0.025230387, -0.11266566, -38667.645, -38667.645, 0.0, 4.995514, 4.9769883 
5.1858574e+2, 3.1493452e+2, -41258.383, -67669.06, -3068.2888, -0.034573533, -0.18378533, -40906.605, -40906.605, 0.0, 4.994695, 4.9769588 
5.2437377e+2, 1.21592775e+2, -1667521.3, -1747733.9, 867.57587, 0.00415616, -0.012109516, -1667511.9, 80870.125, 0.0, 5.0332904, 4.9809113 
5.2435756e+2, 1.2657183e+2, -1625754.6, -1708860.0, -1495.0974, 0.0034268007, -0.003246937, -1625727.8, 73860.336, 0.0, 5.0323057, 4.978107 
5.243411e+2, 1.3154946e+2, -1579866.3, -1661449.6, -1599.0806, 0.0032258935, -0.008199333, -1579835.0, 70972.58, 0.0, 5.0312967, 4.9781065 
5.243247e+2, 1.3652709e+2, -1536069.5, -1618372.9, -1690.2384, 0.0030221753, -0.0119050415, -1536034.9, 65992.34, 0.0, 5.0302877, 4.9766636 
5.243069e+2, 1.4150241e+2, -1495326.4, -1581798.8, -4188.5107, 0.0028825805, -0.0016254653, -1495124.0, 58145.355, 0.0, 5.029306, 4.972971 
5.2428687e+2, 1.4647558e+2, -1448649.3, -1533335.9, -4678.855, 0.0022896454, -0.004495926, -1448391.5, 56140.926, 0.0, 5.028399, 4.9732356 
5.242668e+2, 1.5144871e+2, -1402337.6, -1485656.4, -4837.8076, 0.0015920189, -0.008022419, -1402057.6, 53738.363, 0.0, 5.027494, 4.9732356 
5.242467e+2, 1.5642183e+2, -1357356.0, -1440775.1, -4970.6973, 0.0008861226, -0.011097172, -1357060.9, 49998.777, 0.0, 5.0265894, 4.9722953 
5.2422565e+2, 1.6139193e+2, -1317708.3, -1407087.4, -6910.5835, 0.0002780393, -0.0069976724, -1317177.0, 41176.684, 0.0, 5.025672, 4.9676113 
5.242029e+2, 1.6636017e+2, -1271098.3, -1358660.4, -7301.961, 0.0005201528, -0.005212332, -1270493.5, 39173.582, 0.0, 5.024719, 4.9678497 
5.241801e+2, 1.7132847e+2, -1224818.9, -1310933.9, -7389.0996, 0.00082192157, -0.0032352288, -1224189.4, 36790.47, 0.0, 5.023764, 4.9678497 
5.241574e+2, 1.7629679e+2, -1179639.1, -1265558.4, -7459.0063, 0.0011298307, -0.0008791024, -1178996.4, 33296.316, 0.0, 5.022809, 4.967055 
5.2413404e+2, 1.8126214e+2, -1139921.6, -1231880.8, -8640.811, 0.0011053167, 0.009031842, -1139116.8, 24517.6, 0.0, 5.02186, 4.9623046 
5.241095e+2, 1.862249e+2, -1092778.1, -1182527.1, -9083.173, 0.0014286573, 0.006955152, -1091868.1, 23132.318, 0.0, 5.0209265, 4.962809 
5.240849e+2, 1.9118766e+2, -1046315.25, -1134646.5, -9259.45, 0.0018768713, 0.0041400637, -1045355.06, 21011.496, 0.0, 5.0199943, 4.962811 
5.2406037e+2, 1.9615045e+2, -1000725.6, -1088665.1, -9429.616, 0.0023265455, 0.0016195478, -999725.8, 18006.684, 0.0, 5.019062, 4.9621625 
5.2403575e+2, 2.0111024e+2, -961528.5, -1056476.6, -9720.77, 0.0029998815, 0.0073648365, -960543.5, 8584.944, 0.0, 5.0181212, 4.9568024 
5.2401066e+2, 2.0606846e+2, -914481.25, -1006875.2, -9742.042, 0.00035491178, 0.013058025, -913465.25, 7076.67, 0.0, 5.017071, 4.957404 
5.239855e+2, 2.110268e+2, -868272.3, -959042.06, -9733.448, -0.0028436312, 0.019319918, -867240.3, 4713.63, 0.0, 5.016007, 4.957408 
5.239604e+2, 2.1598515e+2, -822709.44, -912645.9, -9716.445, -0.0060566044, 0.025554419, -821671.7, 1694.3123, 0.0, 5.0149426, 4.956912 
5.2393556e+2, 2.2094053e+2, -783872.5, -881150.9, -9772.998, -0.007301031, 0.04194457, -782900.4, -8095.042, 0.0, 5.0139155, 4.951266 
5.239109e+2, 2.2589178e+2, -735440.06, -829496.4, -10523.1, -0.00083362754, 0.028120877, -734277.1, -7997.74, 0.0, 5.0130477, 4.9524393 
5.238862e+2, 2.3084275e+2, -688498.8, -781251.75, -10975.269, 0.0064147245, 0.009220364, -687217.8, -9462.213, 0.0, 5.0121965, 4.952447 
5.238616e+2, 2.3579372e+2, -642189.0, -734443.94, -11417.241, 0.013643721, -0.0100393, -640797.0, -11565.069, 0.0, 5.011345, 4.951953 
5.2383703e+2, 2.4074206e+2, -603104.1, -703434.4, -10746.6875, 0.01715477, -0.014593712, -601965.9, -21231.06, 0.0, 5.0104265, 4.9460006 
5.2381206e+2, 2.4569064e+2, -555886.5, -652602.56, -10370.547, 0.0042293277, -0.002576584, -554787.0, -22549.309, 0.0, 5.009174, 4.947028 
5.2378696e+2, 2.5063962e+2, -510046.84, -604672.6, -10276.941, -0.010681043, 0.0108923465, -508943.6, -25206.492, 0.0, 5.007883, 4.947073 
5.2376187e+2, 2.555886e+2, -464426.66, -557294.75, -10170.605, -0.025981924, 0.024121344, -463325.84, -28089.707, 0.0, 5.0065913, 4.94692 
5.237394e+2, 2.605334e+2, -432311.2, -540793.06, -8262.087, -0.024834497, 0.062431723, -431685.53, -44910.49, 0.0, 5.005424, 4.935851 
5.2372026e+2, 2.6547053e+2, -379815.5, -480709.16, -9477.797, -0.0022398962, 0.033679303, -378932.9, -40549.32, 0.0, 5.0046234, 4.9397144 
5.237005e+2, 2.7040648e+2, -332214.53, -432392.28, -10387.098, 0.018171567, -0.021656508, -331148.84, -41145.895, 0.0, 5.0038385, 4.9396544 
5.236808e+2, 2.7534193e+2, -284581.63, -384267.8, -11197.896, 0.039872717, -0.08334494, -283339.22, -41711.883, 0.0, 5.0030494, 4.9395466 
5.2366316e+2, 2.8027532e+2, -255021.78, -372921.78, -6162.5103, 0.05788352, -0.09002982, -254700.55, -61427.465, 0.0, 5.0016985, 4.926846 
5.236478e+2, 2.8520975e+2, -206340.64, -315836.28, -6047.4937, 0.0464756, -0.043216344, -206007.64, -61090.94, 0.0, 5.0001903, 4.9299693 
5.236316e+2, 2.9014286e+2, -159863.33, -267705.63, -6302.2676, 0.031022523, -0.018434852, -159496.27, -62922.477, 0.0, 4.999035, 4.929897 
5.2361554e+2, 2.9507565e+2, -113317.05, -219596.1, -6505.752, 0.016582495, 0.0026125866, -112920.29, -64685.906, 0.0, 4.9978724, 4.929824 
5.2360094e+2, 3.0002522e+2, -47144.824, -91464.164, -2843.2673, 0.0025772813, 0.028982474, -46963.16, -46963.16, 0.0, 4.996468, 4.9677076 
5.235932e+2, 3.0499566e+2, -43014.02, -69524.74, -750.1083, -0.0041154013, -0.026607553, -42992.813, -42992.813, 0.0, 4.9941335, 4.9765296 
5.235866e+2, 3.099675e+2, -49516.777, -72123.25, -1709.0253, -0.005594508, -0.08960737, -49388.31, -49388.31, 0.0, 4.991715, 4.9766173 
5.2358013e+2, 3.1494e+2, -55968.785, -74783.65, -2777.5083, -0.0039467444, -0.14588717, -55567.33, -55567.33, 0.0, 4.9892817, 4.976705 
5.29407e+2, 1.21606514e+2, -1668379.1, -1749498.3, 237.39885, 0.0042602797, -0.017155364, -1668378.4, 79868.67, 0.0, 5.033291, 4.9803324 
5.293899e+2, 1.2658627e+2, -1625940.5, -1709254.0, -2260.0134, 0.0037273336, 0.0004525053, -1625879.3, 73567.13, 0.0, 5.0323067, 4.9779778 
5.293724e+2, 1.3156359e+2, -1580051.0, -1661843.0, -2363.2236, 0.003123026, -0.006450527, -1579982.8, 70686.16, 0.0, 5.0312977, 4.9779773 
5.2935493e+2, 1.3654087e+2, -1536256.4, -1618773.1, -2460.191, 0.002502468, -0.012101463, -1536183.1, 65708.42, 0.0, 5.0302887, 4.976532 
5.293361e+2, 1.4151593e+2, -1495571.3, -1582327.0, -4899.684, 0.002319526, -0.0031156638, -1495295.5, 57840.977, 0.0, 5.0293083, 4.972797 
5.2931523e+2, 1.4648895e+2, -1448925.1, -1533931.0, -5366.288, 0.002359308, -0.0054519004, -1448587.8, 55813.613, 0.0, 5.0284014, 4.973039 
5.292943e+2, 1.5146196e+2, -1402612.1, -1486250.3, -5524.8335, 0.0022920705, -0.008348341, -1402248.8, 53417.734, 0.0, 5.0274963, 4.973039 
5.292734e+2, 1.5643495e+2, -1357628.1, -1441365.5, -5658.883, 0.0022123128, -0.010787049, -1357247.4, 49684.406, 0.0, 5.0265913, 4.9720993 
5.292514e+2, 1.6140492e+2, -1317869.8, -1407449.6, -7630.333, 0.0017721861, -0.006156654, -1317224.4, 41002.727, 0.0, 5.025675, 4.9674916 
5.292277e+2, 1.6637307e+2, -1271239.0, -1358978.3, -8025.492, 0.0012761862, -0.0042714137, -1270511.0, 39030.17, 0.0, 5.0247216, 4.9677444 
5.2920383e+2, 1.7134129e+2, -1224960.1, -1311251.1, -8111.884, 0.00080214103, -0.0022114092, -1224204.3, 36650.39, 0.0, 5.023766, 4.967745 
5.2918005e+2, 1.763095e+2, -1179779.9, -1265872.8, -8179.765, 0.00032422028, 0.00023978465, -1179009.6, 33158.527, 0.0, 5.0228105, 4.966951 
5.291557e+2, 1.8127467e+2, -1140121.3, -1232327.5, -9365.649, -0.00017634661, 0.009700228, -1139179.5, 24331.648, 0.0, 5.0218625, 4.962155 
5.291302e+2, 1.862372e+2, -1093066.0, -1183166.1, -9794.159, 0.00039023868, 0.0071487026, -1092013.6, 22866.506, 0.0, 5.0209293, 4.9625945 
5.2910477e+2, 1.9119972e+2, -1046602.2, -1135285.5, -9968.611, 0.0010966322, 0.003997889, -1045495.5, 20753.646, 0.0, 5.019997, 4.962596 
5.290793e+2, 1.9616227e+2, -1001011.75, -1089304.3, -10136.856, 0.0017946325, 0.0011619226, -999862.94, 17755.086, 0.0, 5.019065, 4.961947 
5.2905375e+2, 2.011219e+2, -961643.06, -1056762.0, -10481.786, 0.002433867, 0.007291472, -960501.7, 8513.679, 0.0, 5.018126, 4.9567056 
5.290275e+2, 2.0608003e+2, -914448.9, -1006830.1, -10542.794, -0.0010399442, 0.012302525, -913261.0, 7166.995, 0.0, 5.017074, 4.95742 
5.290013e+2, 2.1103832e+2, -868248.94, -958995.7, -10528.833, -0.0051503275, 0.017600223, -867043.4, 4795.7607, 0.0, 5.016007, 4.9574246 
5.2897495e+2, 2.159966e+2, -822695.1, -912598.2, -10506.378, -0.009309109, 0.02294388, -821483.7, 1766.6373, 0.0, 5.01494, 4.9569306 
5.2894896e+2, 2.2095184e+2, -784094.2, -881674.2, -10524.325, -0.011440107, 0.03774406, -782972.0, -8281.536, 0.0, 5.0139203, 4.951091 
5.289235e+2, 2.2590292e+2, -736139.5, -831074.9, -11182.229, -0.0044545615, 0.027227074, -734840.2, -8671.168, 0.0, 5.0130525, 4.9519057 
5.2889806e+2, 2.3085377e+2, -689207.25, -782825.9, -11618.332, 0.0034658548, 0.012957714, -687786.94, -10137.381, 0.0, 5.012197, 4.951915 
5.288726e+2, 2.3580462e+2, -642906.5, -736014.0, -12044.175, 0.011319775, -0.0014836142, -641373.7, -12243.671, 0.0, 5.0113416, 4.9514217 
5.2884734e+2, 2.4075258e+2, -603358.44, -704053.5, -11577.323, 0.016283588, -0.004712112, -602044.5, -21406.666, 0.0, 5.010435, 4.9457803 
5.288214e+2, 2.4570028e+2, -555730.8, -652284.5, -11336.606, 0.0062849163, -0.0020576657, -554417.6, -22272.842, 0.0, 5.0091796, 4.9471283 
5.287953e+2, 2.5064844e+2, -509933.94, -604368.94, -11211.365, -0.0059093223, 0.001962248, -508621.2, -24973.975, 0.0, 5.007876, 4.947174 
5.2876914e+2, 2.555967e+2, -464356.28, -557005.2, -11073.36, -0.01863138, 0.0063234875, -463051.2, -27902.434, 0.0, 5.006572, 4.9470215 
5.2874523e+2, 2.605415e+2, -431955.94, -540225.56, -9173.385, -0.019740753, 0.04071879, -431184.2, -44498.777, 0.0, 5.005453, 4.9360676 
5.2872473e+2, 2.654795e+2, -381034.28, -483541.94, -10005.854, -0.0028125532, 0.02944405, -380066.72, -41773.29, 0.0, 5.0046244, 4.9387946 
5.287039e+2, 2.704163e+2, -333642.88, -435180.3, -10755.123, 0.01311685, -0.00440473, -332516.2, -42602.586, 0.0, 5.003767, 4.9387674 
5.286831e+2, 2.7535272e+2, -286218.66, -387010.5, -11405.928, 0.029924167, -0.04317473, -284944.03, -43406.703, 0.0, 5.0029054, 4.938692 
5.286638e+2, 2.8028566e+2, -254410.48, -371613.75, -8075.643, 0.046125997, -0.049073655, -253856.67, -60662.258, 0.0, 5.001717, 4.9272933 
5.2864724e+2, 2.8521776e+2, -205831.34, -315819.34, -7185.366, 0.03952141, -0.026501283, -205363.92, -60509.527, 0.0, 5.000327, 4.9299564 
5.286304e+2, 2.901494e+2, -159563.13, -267756.2, -7312.386, 0.027970387, -0.015300191, -159071.14, -62552.07, 0.0, 4.9991074, 4.92989 
5.286135e+2, 2.9508075e+2, -113224.88, -219713.06, -7388.234, 0.017077286, -0.0065140855, -112714.72, -64528.56, 0.0, 4.997881, 4.9298234 
5.2859825e+2, 3.0002984e+2, -46902.04, -90981.88, -4308.7983, 0.008992657, 0.014158274, -46484.805, -46484.805, 0.0, 4.9964314, 4.967931 
5.28589e+2, 3.0500165e+2, -43447.7, -71274.61, -2538.549, 0.010565003, -0.020421239, -43218.01, -43218.01, 0.0, 4.994187, 4.9759827 
5.285806e+2, 3.0997446e+2, -49566.906, -73750.29, -3303.1648, 0.014472084, -0.06278247, -49123.848, -49123.848, 0.0, 4.991883, 4.9760666 
5.285724e+2, 3.149476e+2, -55634.65, -76287.89, -4177.433, 0.020072436, -0.10206112, -54821.7, -54821.7, 0.0, 4.9895635, 4.976151 
5.344404e+2, 1.2162024e+2, -1669146.1, -1751076.5, -398.05295, 0.0045709545, -0.022175876, -1669144.1, 78968.125, 0.0, 5.033292, 4.9798145 
5.3442216e+2, 1.2660071e+2, -1626126.4, -1709648.0, -3024.6863, 0.0040152925, 0.0041747945, -1626017.0, 73287.7, 0.0, 5.0323076, 4.977849 
5.344036e+2, 1.3157772e+2, -1580235.6, -1662236.6, -3127.1235, 0.003006409, -0.004694507, -1580116.5, 70413.73, 0.0, 5.031299, 4.977848 
5.3438514e+2, 1.3655467e+2, -1536443.4, -1619173.8, -3230.0276, 0.0019677922, -0.012306298, -1536317.5, 65438.496, 0.0, 5.03029, 4.9764004 
5.343653e+2, 1.4152946e+2, -1495821.0, -1582865.6, -5609.647, 0.0017497009, -0.004584067, -1495461.0, 57542.58, 0.0, 5.0293107, 4.9726195 
5.343436e+2, 1.4650233e+2, -1449200.9, -1534526.4, -6053.6484, 0.0024252539, -0.0063875993, -1448773.5, 55496.617, 0.0, 5.0284038, 4.972842 
5.3432184e+2, 1.514752e+2, -1402886.6, -1486844.4, -6211.786, 0.002990945, -0.008667182, -1402429.5, 53107.53, 0.0, 5.0274987, 4.972842 
5.343001e+2, 1.5644807e+2, -1357900.1, -1441956.1, -6347.0527, 0.0035398626, -0.010483032, -1357423.5, 49380.45, 0.0, 5.0265937, 4.9719033 
5.3427714e+2, 1.614179e+2, -1318035.5, -1407821.5, -8349.567, 0.0032540974, -0.005292593, -1317265.6, 40834.875, 0.0, 5.0256777, 4.9673686 
5.342524e+2, 1.6638598e+2, -1271379.8, -1359296.1, -8749.255, 0.0020162598, -0.0033134748, -1270517.5, 38897.67, 0.0, 5.024724, 4.9676394 
5.3422755e+2, 1.7135409e+2, -1225101.5, -1311568.6, -8834.9, 0.0007679604, -0.0011886944, -1224208.0, 36521.348, 0.0, 5.023768, 4.9676394 
5.3420275e+2, 1.7632219e+2, -1179920.5, -1266187.3, -8900.745, -0.0004942316, 0.0013394532, -1179011.8, 33031.75, 0.0, 5.022812, 4.9668465 
5.3417736e+2, 1.8128723e+2, -1140331.6, -1232797.8, -10088.536, -0.0014718792, 0.010418336, -1139243.6, 24144.281, 0.0, 5.0218654, 4.9619975 
5.34151e+2, 1.8624951e+2, -1093353.9, -1183805.3, -10504.889, -0.0006601944, 0.0073775603, -1092149.9, 22609.97, 0.0, 5.020932, 4.9623795 
5.341246e+2, 1.9121177e+2, -1046889.2, -1135924.8, -10677.517, 0.0003102377, 0.0038417133, -1045626.6, 20505.105, 0.0, 5.02, 4.96238 
5.3409827e+2, 1.9617406e+2, -1001298.0, -1089943.6, -10843.841, 0.0012624201, 0.0006410223, -999990.75, 17512.746, 0.0, 5.019068, 4.9617305 
5.340718e+2, 2.0113356e+2, -961774.44, -1057083.3, -11239.818, 0.0018594316, 0.007338173, -960466.9, 8435.319, 0.0, 5.0181313, 4.9565964 
5.3404444e+2, 2.0609161e+2, -914417.1, -1006784.8, -11346.574, -0.0024804987, 0.011619455, -913043.75, 7270.245, 0.0, 5.017077, 4.957434 
5.3401697e+2, 2.1104982e+2, -868226.25, -958949.1, -11327.247, -0.007531215, 0.015813919, -866833.4, 4890.953, 0.0, 5.016007, 4.957441 
5.3398955e+2, 2.1600802e+2, -822681.44, -912550.3, -11299.342, -0.012664274, 0.02012779, -821282.56, 1852.0587, 0.0, 5.0149364, 4.956948 
5.339625e+2, 2.2096315e+2, -784408.6, -882400.9, -11262.976, -0.015530164, 0.033866275, -783130.75, -8555.196, 0.0, 5.013925, 4.950845 
5.3393614e+2, 2.2591405e+2, -736840.1, -832653.9, -11846.055, -0.008034763, 0.026569862, -735397.25, -9338.655, 0.0, 5.0130577, 4.951369 
5.339099e+2, 2.3086475e+2, -689916.8, -784400.6, -12266.088, 0.0004858065, 0.016497077, -688350.4, -10806.772, 0.0, 5.012198, 4.951379 
5.338837e+2, 2.3581548e+2, -643625.06, -737584.56, -12675.797, 0.008892802, 0.006439825, -641945.06, -12916.678, 0.0, 5.011338, 4.9508867 
5.3385764e+2, 2.4076316e+2, -603753.75, -704985.1, -12380.071, 0.015333943, 0.0059100175, -602261.75, -21721.428, 0.0, 5.010444, 4.9454503 
5.3383076e+2, 2.4571003e+2, -555577.25, -651966.06, -12308.876, 0.00809996, -0.00067682954, -554030.25, -21979.19, 0.0, 5.009185, 4.9472227 
5.338036e+2, 2.5065735e+2, -509823.03, -604064.8, -12152.011, -0.001547083, -0.0070248353, -508281.3, -24724.54, 0.0, 5.0078692, 4.947269 
5.3377634e+2, 2.5560483e+2, -464287.88, -556715.1, -11982.349, -0.011859095, -0.0124497255, -462759.75, -27698.56, 0.0, 5.0065527, 4.947117 
5.33751e+2, 2.6054958e+2, -432255.16, -541131.0, -9999.914, -0.014484476, 0.02043641, -431344.3, -44748.26, 0.0, 5.005482, 4.9357595 
5.3372926e+2, 2.6548836e+2, -382265.9, -486372.34, -10617.266, -0.0028800168, 0.025370408, -381194.13, -42989.656, 0.0, 5.004626, 4.9378285 
5.3370726e+2, 2.7042586e+2, -335083.66, -437965.56, -11206.423, 0.008461626, 0.009026816, -333877.16, -44050.5, 0.0, 5.0036955, 4.9378343 
5.3368527e+2, 2.7536312e+2, -287867.7, -389750.03, -11697.159, 0.02026946, -0.01080304, -286541.97, -45090.965, 0.0, 5.002761, 4.937792 
5.3366446e+2, 2.80296e+2, -255160.03, -373439.3, -9578.746, 0.033520963, -0.0073080854, -254389.33, -61274.19, 0.0, 5.0017366, 4.9266367 
5.336467e+2, 2.852262e+2, -205335.55, -315792.84, -8339.309, 0.031222135, -0.0028421348, -204709.48, -59921.047, 0.0, 5.0004635, 4.929915 
5.3362906e+2, 2.9015613e+2, -159276.02, -267797.0, -8338.619, 0.024042439, -0.00885312, -158639.03, -62176.97, 0.0, 4.99918, 4.929855 
5.3361154e+2, 2.9508597e+2, -113145.45, -219820.08, -8286.873, 0.017165199, -0.015957016, -112505.54, -64368.52, 0.0, 4.9978895, 4.9297953 
5.335953e+2, 3.000344e+2, -47378.496, -92124.18, -5793.839, 0.014337802, -0.0011857115, -46640.46, -46640.46, 0.0, 4.9963956, 4.967555 
5.3358465e+2, 3.050074e+2, -43903.12, -73002.18, -4279.136, 0.023110231, -0.016202593, -43286.906, -43286.906, 0.0, 4.9942417, 4.975397 
5.3357476e+2, 3.09981e+2, -49638.695, -75355.04, -4849.229, 0.032332737, -0.042705167, -48754.684, -48754.684, 0.0, 4.9920516, 4.975477 
5.3356487e+2, 3.1495458e+2, -55322.16, -77769.83, -5529.075, 0.04181462, -0.06975692, -54034.195, -54034.195, 0.0, 4.989846, 4.975558 
5.394737e+2, 1.2163422e+2, -1669336.3, -1752112.4, -286.75418, 0.0051202886, -0.025907977, -1669335.3, 78639.75, 0.0, 5.0334315, 4.9794064 
5.3945446e+2, 1.266152e+2, -1625936.1, -1709875.6, -3040.1304, 0.004272312, 0.006973711, -1625826.3, 73336.43, 0.0, 5.03244, 4.97771 
5.394349e+2, 1.3159189e+2, -1580039.0, -1662461.1, -3189.3662, 0.0028883817, -0.0034228596, -1579915.8, 70475.16, 0.0, 5.031433, 4.9777093 
5.3941536e+2, 1.3656856e+2, -1536252.4, -1619406.8, -3343.5132, 0.0014810279, -0.012582614, -1536118.1, 65501.293, 0.0, 5.0304236, 4.976259 
5.3939456e+2, 1.4154308e+2, -1495707.0, -1583221.5, -5686.465, 0.0012469188, -0.0058284854, -1495339.1, 57530.414, 0.0, 5.029435, 4.9724426 
5.3937197e+2, 1.4651582e+2, -1449175.1, -1534955.6, -6091.417, 0.002487966, -0.0071441173, -1448744.8, 55393.094, 0.0, 5.028505, 4.9726524 
5.393494e+2, 1.5148856e+2, -1402932.9, -1487308.8, -6229.7085, 0.00362437, -0.008880521, -1402475.4, 52931.016, 0.0, 5.0275755, 4.972652 
5.393268e+2, 1.5646127e+2, -1358017.9, -1442453.0, -6346.347, 0.0047493274, -0.010154915, -1357543.5, 49131.51, 0.0, 5.026645, 4.971714 
5.3930295e+2, 1.6143101e+2, -1318113.3, -1408149.0, -8361.962, 0.0045920033, -0.0044463975, -1317343.3, 40629.547, 0.0, 5.0257106, 4.967245 
5.392771e+2, 1.6639897e+2, -1271443.6, -1359576.0, -8776.7705, 0.002668762, -0.0023991994, -1270578.1, 38710.156, 0.0, 5.0247526, 4.967533 
5.3925127e+2, 1.7136697e+2, -1225180.0, -1311855.0, -8872.8955, 0.0007200486, -0.00026143284, -1224281.0, 36322.176, 0.0, 5.0237913, 4.9675336 
5.392254e+2, 1.7633498e+2, -1180018.1, -1266480.1, -8946.433, -0.0012420465, 0.0022718136, -1179102.1, 32815.94, 0.0, 5.022828, 4.9667416 
5.3919905e+2, 1.8129987e+2, -1140523.0, -1233268.9, -10136.823, -0.0026406867, 0.011007986, -1139428.0, 23835.936, 0.0, 5.021877, 4.961834 
5.391718e+2, 1.862619e+2, -1093591.9, -1184410.4, -10540.465, -0.0016243064, 0.007580015, -1092384.5, 22254.06, 0.0, 5.020951, 4.9621673 
5.391445e+2, 1.9122393e+2, -1047111.44, -1136522.8, -10708.133, -0.00042146933, 0.0037152641, -1045846.9, 20166.447, 0.0, 5.0200233, 4.9621673 
5.391173e+2, 1.9618598e+2, -1001512.1, -1090538.1, -10868.062, 0.0007652906, 0.00018077606, -1000204.6, 17183.334, 0.0, 5.0190935, 4.9615173 
5.390898e+2, 2.0114534e+2, -961861.3, -1057396.5, -11295.785, 0.001296175, 0.0076194964, -960543.94, 8243.887, 0.0, 5.018156, 4.9564786 
5.390613e+2, 2.0610331e+2, -914352.5, -1006740.5, -11497.336, -0.0038433073, 0.011050272, -912943.2, 7255.79, 0.0, 5.017095, 4.95744 
5.390327e+2, 2.110614e+2, -868203.7, -958927.9, -11529.607, -0.009711772, 0.01383805, -866761.44, 4847.5015, 0.0, 5.0160108, 4.9574456 
5.3900415e+2, 2.1601948e+2, -822724.2, -912561.5, -11555.705, -0.015664345, 0.016712626, -821261.56, 1757.2094, 0.0, 5.014918, 4.956952 
5.3897595e+2, 2.2097445e+2, -784914.94, -883323.7, -11454.922, -0.019039411, 0.029645156, -783599.1, -9138.382, 0.0, 5.0138865, 4.950549 
5.3894883e+2, 2.2592522e+2, -737582.94, -834184.3, -11880.143, -0.011362145, 0.025796132, -736143.4, -10195.579, 0.0, 5.013036, 4.950856 
5.389218e+2, 2.308758e+2, -690638.2, -785920.8, -12184.52, -0.0025937269, 0.019715989, -689104.75, -11667.94, 0.0, 5.012182, 4.950865 
5.388947e+2, 2.3582642e+2, -644370.0, -739112.7, -12478.193, 0.006083476, 0.013663043, -642754.1, -13828.494, 0.0, 5.011314, 4.9503717 
5.38868e+2, 2.407739e+2, -604341.6, -706235.56, -12219.762, 0.01385662, 0.017180905, -602896.7, -22455.951, 0.0, 5.0104337, 4.945019 
5.388401e+2, 2.4571997e+2, -555177.9, -651610.44, -12534.807, 0.009344176, 0.0018876395, -553575.2, -21619.941, 0.0, 5.0092916, 4.947282 
5.388118e+2, 2.5066638e+2, -509179.16, -603590.1, -12557.067, 0.0024441737, -0.015995052, -507537.53, -24072.014, 0.0, 5.0080614, 4.9473305 
5.3878355e+2, 2.5561288e+2, -463523.03, -556173.9, -12532.945, -0.0050544776, -0.03317123, -461857.63, -26882.992, 0.0, 5.0067883, 4.9471807 
5.387571e+2, 2.605574e+2, -432545.63, -542885.94, -10264.703, -0.007986158, -0.001106397, -431598.84, -45089.285, 0.0, 5.0056973, 4.935051 
5.387339e+2, 2.6549706e+2, -382845.88, -488668.1, -10392.8545, -0.0018817006, 0.020000568, -381834.88, -43718.11, 0.0, 5.0048294, 4.9369135 
5.3871065e+2, 2.704354e+2, -335698.34, -440234.97, -10619.206, 0.0043311114, 0.01923665, -334630.53, -44890.996, 0.0, 5.0039124, 4.9369135 
5.386873e+2, 2.753736e+2, -288524.8, -391951.94, -10939.612, 0.010777915, 0.0164639, -287380.38, -46016.83, 0.0, 5.002999, 4.9368677 
5.386652e+2, 2.803069e+2, -256202.2, -377663.1, -9387.519, 0.019826459, 0.038979698, -255480.94, -62451.54, 0.0, 5.002148, 4.9249434 
5.3864634e+2, 2.8523532e+2, -204099.98, -315367.1, -8098.852, 0.021484353, 0.029798634, -203513.58, -58798.98, 0.0, 5.000888, 4.929841 
5.3862786e+2, 2.9016337e+2, -158465.48, -267535.75, -8025.995, 0.019372033, 0.0016314111, -157878.06, -61477.902, 0.0, 4.9994497, 4.929804 
5.3860945e+2, 2.9509136e+2, -112851.914, -219736.6, -7869.1064, 0.01724442, -0.026264127, -112275.68, -64189.88, 0.0, 4.9979796, 4.929766 
5.385922e+2, 3.0003887e+2, -48715.313, -94818.6, -5896.7837, 0.01935002, -0.018822175, -47973.043, -47973.043, 0.0, 4.996311, 4.9666247 
5.385802e+2, 3.050129e+2, -45417.016, -75207.484, -4573.893, 0.034856163, -0.015201129, -44730.58, -44730.58, 0.0, 4.9939637, 4.974734 
5.3856885e+2, 3.0998722e+2, -52145.313, -78060.11, -5117.2964, 0.05004362, -0.029041592, -51171.42, -51171.42, 0.0, 4.991404, 4.974797 
5.385575e+2, 3.1496128e+2, -59302.08, -81169.06, -5836.609, 0.06418617, -0.04657155, -57841.73, -57841.73, 0.0, 4.988662, 4.9748607 
5.4450816e+2, 1.21652424e+2, -1663402.5, -1748768.6, 1608.411, 0.0057286336, -0.01743215, -1663372.1, 84424.69, 0.0, 5.0353312, 4.9795723 
5.444878e+2, 1.2663174e+2, -1620891.4, -1707874.4, -1065.7129, 0.0040658084, 0.0008310336, -1620878.3, 78121.945, 0.0, 5.034239, 4.977488 
5.444672e+2, 1.3160846e+2, -1575239.5, -1660588.0, -1265.6082, 0.0028162228, -0.0069159865, -1575220.8, 75007.516, 0.0, 5.0331535, 4.977488 
5.4444665e+2, 1.3658516e+2, -1531691.5, -1617664.6, -1477.8894, 0.0015645461, -0.013466008, -1531666.1, 69790.4, 0.0, 5.0320683, 4.976035 
5.444248e+2, 1.4155965e+2, -1491263.0, -1581338.9, -3792.1572, 0.0013338703, -0.004942514, -1491103.6, 61603.28, 0.0, 5.0309987, 4.9723067 
5.4440117e+2, 1.4653228e+2, -1445014.3, -1533180.1, -4136.5244, 0.0023411799, -0.006107913, -1444820.6, 59155.95, 0.0, 5.0299683, 4.972533 
5.4437757e+2, 1.515049e+2, -1399079.1, -1485690.1, -4225.965, 0.0032505002, -0.007749086, -1398873.4, 56373.18, 0.0, 5.0289383, 4.9725327 
5.4435396e+2, 1.564775e+2, -1354466.5, -1440985.9, -4294.81, 0.0041622235, -0.00893678, -1354253.9, 52262.86, 0.0, 5.0279083, 4.9715953 
5.443291e+2, 1.614471e+2, -1314789.4, -1406719.4, -6264.784, 0.003928228, -0.0034218216, -1314364.4, 43451.473, 0.0, 5.0268803, 4.9671617 
5.4430234e+2, 1.6641489e+2, -1268346.0, -1358280.6, -6656.9917, 0.0022471866, -0.001997387, -1267855.9, 41276.73, 0.0, 5.025852, 4.967442 
5.442755e+2, 1.7138271e+2, -1222286.3, -1310663.3, -6738.4507, 0.0005622132, -0.0005061071, -1221775.4, 38673.56, 0.0, 5.0248237, 4.9674425 
5.442487e+2, 1.7635053e+2, -1177319.4, -1265385.3, -6795.8887, -0.0011261039, 0.0013567532, -1176798.1, 34967.203, 0.0, 5.0237947, 4.9666514 
5.442214e+2, 1.8131524e+2, -1138059.9, -1232382.9, -7941.6465, -0.002273279, 0.009520016, -1137395.9, 25716.867, 0.0, 5.0227833, 4.9617014 
5.441931e+2, 1.8627723e+2, -1091310.0, -1183690.3, -8285.672, -0.0014428358, 0.0071574757, -1090572.8, 23915.63, 0.0, 5.021813, 4.9620013 
5.441649e+2, 1.912392e+2, -1044952.5, -1135863.9, -8411.557, -0.00047466988, 0.004534424, -1044180.75, 21683.262, 0.0, 5.020845, 4.9620013 
5.4413664e+2, 1.9620119e+2, -999467.6, -1089936.1, -8528.634, 0.00048714495, 0.002218024, -998670.7, 18568.91, 0.0, 5.019877, 4.961352 
5.4410815e+2, 2.011605e+2, -959831.94, -1056563.8, -8954.426, 0.0006546976, 0.010418426, -959010.06, 9629.917, 0.0, 5.018887, 4.9564185 
5.4407865e+2, 2.0611812e+2, -912541.5, -1006053.8, -9246.938, -0.003849469, 0.011243434, -911635.9, 8417.761, 0.0, 5.017758, 4.9573655 
5.440491e+2, 2.110758e+2, -866564.9, -958339.9, -9340.064, -0.008863355, 0.010872387, -865623.94, 5842.6587, 0.0, 5.016614, 4.9573684 
5.4401946e+2, 2.1603344e+2, -821232.2, -912061.7, -9423.727, -0.01392013, 0.010399958, -820264.8, 2614.9263, 0.0, 5.0154705, 4.9568715 
5.4399025e+2, 2.20988e+2, -783642.25, -882906.2, -9222.9, -0.017009042, 0.020084972, -782792.6, -8467.56, 0.0, 5.0143633, 4.9504733 
5.4396194e+2, 2.2593908e+2, -736688.8, -834145.4, -9332.806, -0.012133432, 0.021186987, -735803.1, -9993.126, 0.0, 5.013424, 4.950693 
5.4393363e+2, 2.308901e+2, -689938.7, -785979.6, -9401.113, -0.006459696, 0.021224068, -689027.1, -11730.967, 0.0, 5.0125027, 4.9507003 
5.439054e+2, 2.3584108e+2, -643819.0, -739250.2, -9454.706, -0.00080085325, 0.02107004, -642891.3, -14108.997, 0.0, 5.0115805, 4.9502053 
5.4387754e+2, 2.4078877e+2, -603981.25, -706632.7, -8979.328, 0.00503455, 0.02880074, -603201.7, -22905.455, 0.0, 5.01067, 4.9447803 
5.43849e+2, 2.4573395e+2, -554470.2, -652038.06, -9583.842, 0.004035457, 0.008311914, -553537.7, -21718.344, 0.0, 5.009684, 4.9469633 
5.438202e+2, 2.5067917e+2, -507794.03, -603696.1, -9972.032, 0.0017274228, -0.017633164, -506768.1, -23427.146, 0.0, 5.0086794, 4.94702 
5.437913e+2, 2.5562432e+2, -461339.06, -555914.6, -10349.765, -0.0006897944, -0.04477823, -460219.7, -25356.867, 0.0, 5.0076737, 4.9468784 
5.4376394e+2, 2.6056775e+2, -429158.97, -539771.0, -8085.6675, -0.0013203851, -0.025489723, -428571.03, -42162.707, 0.0, 5.006583, 4.9357324 
5.4373926e+2, 2.655087e+2, -380663.75, -486948.13, -7417.5024, 0.00028179766, 0.005042759, -380148.6, -42145.87, 0.0, 5.005472, 4.9372606 
5.4371464e+2, 2.7044874e+2, -334084.97, -439002.56, -6991.4243, 0.0021138026, 0.020861749, -333621.13, -44012.38, 0.0, 5.0043993, 4.9371843 
5.4369e+2, 2.7538863e+2, -287502.25, -391211.16, -6511.8237, 0.0043243836, 0.035903715, -287095.0, -45878.99, 0.0, 5.003324, 4.9370604 
5.436665e+2, 2.8032297e+2, -256051.1, -377834.22, -3608.72, 0.008608714, 0.06952778, -255944.25, -63072.19, 0.0, 5.0022, 4.924903 
5.436464e+2, 2.8524977e+2, -204838.83, -316732.78, -2289.5532, 0.011826699, 0.046992783, -204792.0, -60218.31, 0.0, 5.0007367, 4.92945 
5.436267e+2, 2.9017603e+2, -159401.89, -268737.16, -2815.425, 0.013537741, 0.0048514395, -159329.45, -63052.586, 0.0, 4.9992127, 4.9294953 
5.4360706e+2, 2.951024e+2, -113913.266, -220737.75, -3311.3547, 0.0152593795, -0.036426987, -113810.72, -65831.914, 0.0, 4.9976873, 4.92954 
5.4358864e+2, 3.0004886e+2, -49628.95, -95712.5, -2060.5369, 0.021799373, -0.036764823, -49537.0, -49537.0, 0.0, 4.996114, 4.9663706 
5.435751e+2, 3.0502418e+2, -45104.97, -75976.32, -426.30792, 0.044128288, -0.017634824, -45099.082, -45099.082, 0.0, 4.9943113, 4.974276 
5.4356223e+2, 3.099999e+2, -49971.555, -78134.81, -339.27402, 0.0659625, -0.013071309, -49967.465, -49967.465, 0.0, 4.9924736, 4.974287 
5.435492e+2, 3.1497538e+2, -54809.816, -80328.38, -257.5678, 0.0862246, -0.01203023, -54807.22, -54807.22, 0.0, 4.99063, 4.9742975 
5.495435e+2, 1.2167216e+2, -1662922.0, -1747804.6, 644.1838, 0.0060757543, -0.007942026, -1662917.1, 84686.68, 0.0, 5.0353327, 4.97989 
5.49522e+2, 1.2664948e+2, -1621252.9, -1708639.5, -1888.4742, 0.003667404, -0.007440195, -1621212.1, 77613.945, 0.0, 5.0342407, 4.977237 
5.495003e+2, 1.3162632e+2, -1575598.8, -1661351.4, -2087.6116, 0.0027314194, -0.011540193, -1575548.0, 74504.9, 0.0, 5.0331554, 4.977237 
5.494787e+2, 1.3660313e+2, -1532054.4, -1618438.8, -2308.1755, 0.0017786167, -0.014441451, -1531992.8, 69287.24, 0.0, 5.0320706, 4.97578 
5.4945576e+2, 1.4157766e+2, -1491445.6, -1581744.1, -4584.5166, 0.0015358664, -0.003432925, -1491213.5, 61316.613, 0.0, 5.031001, 4.972173 
5.494311e+2, 1.4655021e+2, -1445159.9, -1533509.5, -4917.4854, 0.0020855002, -0.0045262673, -1444887.1, 58913.957, 0.0, 5.029971, 4.9724245 
5.4940635e+2, 1.5152271e+2, -1399224.3, -1486018.6, -5006.6416, 0.0025277415, -0.006165092, -1398936.4, 56135.97, 0.0, 5.0289407, 4.972424 
5.493817e+2, 1.564952e+2, -1354610.9, -1441313.3, -5078.582, 0.0029691097, -0.0073459754, -1354314.4, 52029.355, 0.0, 5.0279107, 4.971487 
5.4935575e+2, 1.6146469e+2, -1314890.8, -1406961.1, -7053.272, 0.002590465, -0.002185769, -1314353.5, 43290.61, 0.0, 5.0268836, 4.967083 
5.493281e+2, 1.6643228e+2, -1268463.8, -1358556.8, -7438.342, 0.0014605032, -0.001672166, -1267853.8, 41108.7, 0.0, 5.025855, 4.9673524 
5.4930025e+2, 1.7139992e+2, -1222404.3, -1310939.1, -7518.6924, 0.00034101668, -0.0010835397, -1221770.3, 38510.016, 0.0, 5.024826, 4.9673524 
5.492725e+2, 1.7636755e+2, -1177436.6, -1265658.6, -7573.606, -0.0007893743, -0.000112463975, -1176791.3, 34806.87, 0.0, 5.023797, 4.9665623 
5.4924417e+2, 1.8133211e+2, -1138229.8, -1232780.9, -8699.525, -0.0014963038, 0.007534763, -1137436.0, 25510.959, 0.0, 5.0227876, 4.9615674 
5.492149e+2, 1.8629408e+2, -1091509.6, -1184152.4, -9022.188, -0.00095860905, 0.0066895215, -1090639.1, 23683.816, 0.0, 5.021817, 4.961845 
5.491857e+2, 1.9125609e+2, -1045153.25, -1136325.6, -9146.369, -0.0003744428, 0.0058066333, -1044244.75, 21453.967, 0.0, 5.0208483, 4.9618454 
5.491564e+2, 1.9621809e+2, -999669.7, -1090397.5, -9261.643, 0.00018850046, 0.0052611465, -998733.9, 18340.514, 0.0, 5.01988, 4.961196 
5.4912686e+2, 2.011774e+2, -959896.75, -1056734.0, -9774.323, -0.000073676885, 0.014251772, -958920.0, 9554.967, 0.0, 5.0188904, 4.956363 
5.4909635e+2, 2.0613459e+2, -912675.0, -1006360.4, -10111.03, -0.0035131585, 0.011689584, -911596.2, 8295.96, 0.0, 5.0177593, 4.957265 
5.490657e+2, 2.1109177e+2, -866703.4, -958642.06, -10198.062, -0.0072660632, 0.007646772, -865585.75, 5723.2485, 0.0, 5.0166135, 4.957269 
5.4903513e+2, 2.1604894e+2, -821375.75, -912359.56, -10275.538, -0.011090586, 0.0035764994, -820229.7, 2496.241, 0.0, 5.015467, 4.956774 
5.490048e+2, 2.2100312e+2, -783681.9, -883081.4, -10027.1455, -0.013695416, 0.010143779, -782680.44, -8505.865, 0.0, 5.014375, 4.9504113 
5.489752e+2, 2.259546e+2, -736736.3, -834341.75, -10045.277, -0.012293497, 0.016053563, -735713.2, -10057.24, 0.0, 5.013436, 4.9506264 
5.4894567e+2, 2.3090614e+2, -690011.94, -786181.8, -10096.335, -0.010643885, 0.022374926, -688963.44, -11826.26, 0.0, 5.012507, 4.950634 
5.489161e+2, 2.3585771e+2, -643918.0, -739458.06, -10132.609, -0.009089691, 0.028771782, -642855.2, -14236.935, 0.0, 5.011577, 4.95014 
5.48887e+2, 2.4080577e+2, -604250.5, -707263.4, -9728.917, -0.006330236, 0.0412147, -603339.7, -23210.598, 0.0, 5.0106745, 4.944566 
5.4885787e+2, 2.4575001e+2, -555036.06, -653308.44, -10344.263, -0.0038485394, 0.015772311, -553959.0, -22296.322, 0.0, 5.0096846, 4.9465313 
5.488285e+2, 2.5069416e+2, -508396.03, -604984.75, -10697.305, -0.001955268, -0.015626162, -507225.47, -24029.469, 0.0, 5.0086684, 4.9465857 
5.487991e+2, 2.5563833e+2, -461976.94, -557221.3, -11039.879, -0.0002789055, -0.0476814, -460714.06, -25984.89, 0.0, 5.0076523, 4.9464417 
5.4877067e+2, 2.605808e+2, -427980.47, -537344.06, -9058.269, 0.0009149133, -0.03895498, -427235.28, -40950.84, 0.0, 5.0066113, 4.9365854 
5.487447e+2, 2.6552242e+2, -379729.1, -485101.25, -8173.187, 0.00040052377, -0.007571087, -379098.9, -41229.938, 0.0, 5.005504, 4.9379473 
5.487188e+2, 2.7046362e+2, -333255.06, -437113.75, -7654.218, 0.000020157408, 0.015758429, -332694.0, -43233.992, 0.0, 5.004395, 4.937896 
5.486929e+2, 2.7540478e+2, -286776.97, -389280.1, -7081.814, -0.00016526539, 0.03892534, -286290.0, -45238.453, 0.0, 5.0032835, 4.9377956 
5.4866797e+2, 2.803398e+2, -255273.31, -376066.4, -4442.846, 0.0003578897, 0.073265515, -255110.13, -62412.207, 0.0, 5.002202, 4.925525 
5.4864645e+2, 2.8526568e+2, -205404.56, -318299.63, -3532.8955, 0.0034734278, 0.043957807, -205294.11, -60882.74, 0.0, 5.000769, 4.928906 
5.486253e+2, 2.9019096e+2, -160029.05, -270271.3, -3997.5994, 0.0068388, -0.0010537074, -159884.28, -63756.94, 0.0, 4.9992204, 4.928967 
5.486042e+2, 2.9511645e+2, -114601.625, -222239.11, -4432.3955, 0.010128575, -0.044992015, -114419.41, -66577.69, 0.0, 4.9976697, 4.929028 
5.4858434e+2, 3.000623e+2, -49987.703, -96155.68, -3397.0315, 0.018663658, -0.046887074, -49739.09, -49739.09, 0.0, 4.9960556, 4.9662232 
5.4856944e+2, 3.0503875e+2, -45417.223, -76239.234, -1992.3191, 0.044113684, -0.016517205, -45288.973, -45288.973, 0.0, 4.994247, 4.9741664 
5.4855514e+2, 3.1001598e+2, -50177.598, -78262.03, -1821.9745, 0.0685862, 0.00209127, -50059.89, -50059.89, 0.0, 4.9924293, 4.97421 
5.485406e+2, 3.1499287e+2, -54909.52, -80319.88, -1657.0294, 0.09095774, 0.016213406, -54801.92, -54801.92, 0.0, 4.9906063, 4.974252 
5.5457884e+2, 1.21691644e+2, -1662414.5, -1746785.3, -320.43268, 0.006324141, -0.0008902605, -1662413.3, 84999.94, 0.0, 5.035334, 4.980225 
5.5455613e+2, 1.2666725e+2, -1621614.4, -1709404.8, -2711.0798, 0.0032597089, -0.015651975, -1621530.8, 77121.07, 0.0, 5.0342426, 4.9769864 
5.545334e+2, 1.3164419e+2, -1575958.0, -1662114.9, -2909.4592, 0.002638605, -0.016120836, -1575859.9, 74017.61, 0.0, 5.033158, 4.976986 
5.545107e+2, 1.366211e+2, -1532417.4, -1619213.3, -3138.4392, 0.0019859213, -0.015389199, -1532304.0, 68799.5, 0.0, 5.032073, 4.975525 
5.544867e+2, 1.4159569e+2, -1491630.1, -1582154.0, -5376.3916, 0.001730611, -0.0018992963, -1491311.9, 61041.32, 0.0, 5.0310044, 4.9720383 
5.5446094e+2, 1.4656812e+2, -1445305.4, -1533839.1, -5698.5015, 0.0018219036, -0.002931082, -1444940.1, 58685.355, 0.0, 5.029974, 4.972316 
5.544352e+2, 1.5154052e+2, -1399369.1, -1486347.5, -5787.3735, 0.0017971576, -0.004579376, -1398985.8, 55912.35, 0.0, 5.0289435, 4.9723153 
5.5440944e+2, 1.5651289e+2, -1354755.0, -1441641.1, -5862.4834, 0.0017682633, -0.005765261, -1354361.3, 51809.52, 0.0, 5.0279136, 4.9713783 
5.543825e+2, 1.6148227e+2, -1314998.0, -1407215.8, -7841.2773, 0.0012488379, -0.0009289723, -1314336.0, 43136.445, 0.0, 5.0268865, 4.967 
5.543538e+2, 1.6644968e+2, -1268581.4, -1358833.1, -8219.886, 0.00067159353, -0.0013442418, -1267838.9, 40953.383, 0.0, 5.0258584, 4.967262 
5.54325e+2, 1.7141712e+2, -1222522.1, -1311215.3, -8299.129, 0.00011956935, -0.001689828, -1221752.3, 38359.348, 0.0, 5.024829, 4.9672623 
5.542962e+2, 1.7638457e+2, -1177553.8, -1265932.3, -8351.517, -0.00045092273, -0.0016420723, -1176771.5, 34659.383, 0.0, 5.0238, 4.9664726 
5.542669e+2, 1.8134896e+2, -1138413.0, -1233208.0, -9454.649, -0.0007234261, 0.0056280647, -1137479.3, 25301.889, 0.0, 5.022792, 4.961424 
5.542367e+2, 1.8631096e+2, -1091709.3, -1184614.8, -9759.088, -0.00049265573, 0.006313262, -1090695.1, 23462.281, 0.0, 5.0218215, 4.9616885 
5.5420643e+2, 1.9127297e+2, -1045354.06, -1136787.6, -9881.565, -0.00030065517, 0.0071278317, -1044298.4, 21235.035, 0.0, 5.020852, 4.961689 
5.541762e+2, 1.9623502e+2, -999871.75, -1090859.0, -9995.035, -0.00014474153, 0.0083105825, -998786.75, 18122.465, 0.0, 5.0198827, 4.961039 
5.5414563e+2, 2.011943e+2, -959979.8, -1056944.0, -10593.998, -0.00078097306, 0.01814064, -958835.8, 9474.153, 0.0, 5.018894, 4.956294 
5.541141e+2, 2.0615104e+2, -912808.9, -1006667.1, -10978.53, -0.0031854783, 0.012066464, -911541.8, 8188.868, 0.0, 5.017761, 4.957163 
5.5408245e+2, 2.1110773e+2, -866842.2, -958944.44, -11059.466, -0.0057289694, 0.00418513, -865532.8, 5618.6665, 0.0, 5.016613, 4.957169 
5.5405086e+2, 2.1606442e+2, -821519.56, -912657.6, -11130.757, -0.008372763, -0.0036496131, -820179.9, 2392.3943, 0.0, 5.015465, 4.9566755 
5.5401945e+2, 2.2101824e+2, -783818.7, -883469.3, -10808.793, -0.010433175, 0.0006859659, -782659.8, -8635.8955, 0.0, 5.0143876, 4.950275 
5.539886e+2, 2.2597015e+2, -736785.5, -834537.9, -10762.821, -0.012539823, 0.011470902, -735614.56, -10112.979, 0.0, 5.0134478, 4.950556 
5.5395764e+2, 2.3092222e+2, -690086.94, -786383.6, -10796.63, -0.014960571, 0.023652343, -688891.3, -11913.284, 0.0, 5.0125113, 4.9505644 
5.5392677e+2, 2.3587435e+2, -644018.56, -739665.6, -10815.589, -0.017557228, 0.036176212, -642810.8, -14356.779, 0.0, 5.011574, 4.9500713 
5.538965e+2, 2.4082282e+2, -604668.5, -708224.44, -10448.223, -0.017774891, 0.054228194, -603624.9, -23663.229, 0.0, 5.010679, 4.944235 
5.538666e+2, 2.4576613e+2, -555604.1, -654579.3, -11106.742, -0.011827101, 0.023583202, -554373.06, -22867.348, 0.0, 5.0096846, 4.946091 
5.538367e+2, 2.5070918e+2, -509000.1, -606273.75, -11424.634, -0.0057756514, -0.01427839, -507676.3, -24625.246, 0.0, 5.008658, 4.946143 
5.538067e+2, 2.556523e+2, -462616.84, -558528.3, -11732.047, -0.00004876584, -0.052252702, -461202.6, -26606.76, 0.0, 5.007631, 4.9459968 
5.537775e+2, 2.6059392e+2, -427325.22, -536099.0, -9949.741, 0.0033024081, -0.050833534, -426422.56, -40262.742, 0.0, 5.00664, 4.9370213 
5.5375016e+2, 2.6553628e+2, -378801.4, -483252.97, -8980.625, 0.0005907548, -0.017974254, -378034.9, -40300.85, 0.0, 5.005536, 4.938609 
5.537229e+2, 2.7047855e+2, -332431.84, -435223.34, -8368.794, -0.0022790255, 0.010455821, -331754.94, -42444.094, 0.0, 5.0043907, 4.9385815 
5.536957e+2, 2.7542084e+2, -286058.0, -387347.3, -7703.621, -0.0051372605, 0.039339803, -285475.47, -44588.004, 0.0, 5.003243, 4.9385056 
5.5366945e+2, 2.8035668e+2, -255196.8, -375914.4, -5185.9546, -0.008131232, 0.077088594, -254974.42, -62450.895, 0.0, 5.0022044, 4.925579 
5.536465e+2, 2.8528166e+2, -205974.44, -319864.7, -4804.8745, -0.0047950083, 0.042841032, -205772.08, -61523.49, 0.0, 5.000802, 4.928346 
5.5362386e+2, 2.9020593e+2, -160660.16, -271803.56, -5208.392, 0.00017866914, -0.006952291, -160416.61, -64438.523, 0.0, 4.999228, 4.9284234 
5.5360126e+2, 2.951304e+2, -115293.766, -223738.4, -5582.039, 0.0049906117, -0.055459905, -115007.195, -67301.51, 0.0, 4.997652, 4.9285007 
5.5357987e+2, 3.0007553e+2, -50805.74, -97650.39, -4808.142, 0.015148756, -0.058765076, -50317.32, -50317.32, 0.0, 4.9959974, 4.9656835 
5.5356354e+2, 3.0505303e+2, -45737.3, -76493.25, -3583.9807, 0.04274941, -0.017406901, -45325.184, -45325.184, 0.0, 4.9941835, 4.974036 
5.5354774e+2, 3.100317e+2, -50391.426, -78380.36, -3330.2534, 0.06913327, 0.013537223, -50000.633, -50000.633, 0.0, 4.992386, 4.974111 
5.5353177e+2, 3.1501e+2, -55016.973, -80302.53, -3082.0034, 0.0928882, 0.039033156, -54646.734, -54646.734, 0.0, 4.990583, 4.974186 
5.596141e+2, 1.21710844e+2, -1661551.4, -1745821.6, -564.72955, 0.006090267, 0.0023263267, -1661547.6, 85677.55, 0.0, 5.035507, 4.9804564 
5.595903e+2, 1.2668528e+2, -1621502.4, -1709889.8, -2807.5967, 0.00284313, -0.02217793, -1621413.3, 77061.64, 0.0, 5.034396, 4.9767528 
5.5956656e+2, 1.3166228e+2, -1575929.3, -1662642.4, -2952.7368, 0.0025367243, -0.019811872, -1575828.9, 73871.35, 0.0, 5.0332828, 4.9767513 
5.595428e+2, 1.3663925e+2, -1532482.1, -1619797.8, -3138.2493, 0.0021951785, -0.016200518, -1532369.5, 68556.21, 0.0, 5.0321684, 4.975286 
5.595176e+2, 1.4161383e+2, -1491631.1, -1582465.1, -5304.207, 0.0019497103, -0.00067250617, -1491322.5, 60852.902, 0.0, 5.0310683, 4.9719048 
5.5949086e+2, 1.4658615e+2, -1445364.4, -1534125.6, -5630.3022, 0.0016388583, -0.001567176, -1445008.6, 58440.156, 0.0, 5.030007, 4.972205 
5.59464e+2, 1.5155844e+2, -1399518.5, -1486678.6, -5735.226, 0.0012084803, -0.0031491404, -1399142.8, 55579.92, 0.0, 5.028946, 4.9722047 
5.5943716e+2, 1.5653074e+2, -1354993.6, -1442015.8, -5829.66, 0.0007728678, -0.0042776656, -1354604.8, 51391.785, 0.0, 5.027885, 4.9712677 
5.594092e+2, 1.6149996e+2, -1315253.0, -1407545.4, -7819.431, 0.00013413238, 0.0002996069, -1314595.3, 42704.363, 0.0, 5.026841, 4.9669137 
5.5937946e+2, 1.6646717e+2, -1268810.9, -1359158.0, -8202.856, 0.000034835783, -0.0010525393, -1268072.1, 40548.695, 0.0, 5.0258226, 4.967172 
5.593497e+2, 1.7143443e+2, -1222724.5, -1311527.3, -8292.922, -0.000012963799, -0.0023600773, -1221956.6, 37985.145, 0.0, 5.0248027, 4.967172 
5.5932003e+2, 1.7640169e+2, -1177733.9, -1266232.1, -8354.237, -0.00007245885, -0.0032728084, -1176952.1, 34310.63, 0.0, 5.0237803, 4.966383 
5.5928975e+2, 1.8136595e+2, -1138658.1, -1233668.3, -9430.752, 0.00004052101, 0.003765829, -1137731.0, 24883.219, 0.0, 5.022776, 4.961277 
5.5925846e+2, 1.8632795e+2, -1091989.9, -1185092.8, -9698.244, -0.00007290192, 0.0059735053, -1090990.4, 23000.385, 0.0, 5.0217934, 4.96154 
5.592272e+2, 1.9128998e+2, -1045681.7, -1137285.0, -9793.311, -0.00028956012, 0.008366538, -1044646.4, 20720.484, 0.0, 5.0208073, 4.961541 
5.5919594e+2, 1.9625203e+2, -1000255.3, -1091379.9, -9876.455, -0.0005441786, 0.011106534, -999197.1, 17545.746, 0.0, 5.019818, 4.960892 
5.5916435e+2, 2.0121129e+2, -960307.5, -1057287.4, -10533.397, -0.0015053969, 0.021693915, -959176.6, 8967.384, 0.0, 5.01882, 4.956212 
5.591318e+2, 2.0616758e+2, -912983.4, -1007016.56, -11038.43, -0.0029325883, 0.012327964, -911704.94, 7863.331, 0.0, 5.0177555, 4.957047 
5.5909914e+2, 2.111238e+2, -866825.3, -959209.5, -11202.347, -0.0042858045, 0.00074512523, -865486.3, 5506.766, 0.0, 5.0166736, 4.9570513 
5.5906653e+2, 2.1608e+2, -821344.56, -912853.3, -11360.562, -0.0057067485, -0.010822868, -819955.25, 2462.6394, 0.0, 5.0155807, 4.956557 
5.5903417e+2, 2.210335e+2, -783641.4, -883822.94, -10976.369, -0.0070661395, -0.007849149, -782452.9, -8580.625, 0.0, 5.0145335, 4.950088 
5.59002e+2, 2.2598581e+2, -736625.44, -834560.06, -10805.083, -0.012571134, 0.0074208323, -735447.5, -10101.36, 0.0, 5.0135183, 4.950514 
5.589697e+2, 2.3093837e+2, -690228.06, -786534.75, -10714.263, -0.018886691, 0.024301112, -689050.44, -12232.239, 0.0, 5.012476, 4.9505253 
5.5893743e+2, 2.3589095e+2, -644517.75, -739967.6, -10593.199, -0.02539928, 0.04151425, -643356.25, -15066.335, 0.0, 5.0114136, 4.950034 
5.5890596e+2, 2.4083981e+2, -606005.0, -709777.4, -10062.733, -0.028388644, 0.065287344, -605038.25, -25243.98, 0.0, 5.010406, 4.9438176 
5.588755e+2, 2.4578232e+2, -556786.9, -656175.2, -10892.361, -0.019516477, 0.030867934, -555607.1, -24259.453, 0.0, 5.009483, 4.9456215 
5.588449e+2, 2.5072435e+2, -509962.75, -607810.7, -11347.473, -0.009729286, -0.01298215, -508664.03, -25759.38, 0.0, 5.0085344, 4.9456606 
5.5881435e+2, 2.5566643e+2, -463416.6, -560024.94, -11802.901, -0.00017449637, -0.05696123, -461995.5, -27534.379, 0.0, 5.007567, 4.9455013 
5.587844e+2, 2.606073e+2, -427301.6, -535993.5, -10190.798, 0.0057035335, -0.05966302, -426354.38, -40321.293, 0.0, 5.0066133, 4.9370775 
5.587557e+2, 2.6555035e+2, -378178.25, -481449.1, -9230.879, 0.00083666603, -0.025615284, -377359.63, -39762.54, 0.0, 5.005446, 4.9392824 
5.5872697e+2, 2.7049357e+2, -332107.5, -433456.25, -8517.046, -0.004626285, 0.0045665754, -331396.72, -42235.64, 0.0, 5.0041947, 4.9392824 
5.586983e+2, 2.7543682e+2, -286116.63, -385635.78, -7729.7627, -0.010208149, 0.035560403, -285519.84, -44795.508, 0.0, 5.002916, 4.9392343 
5.586708e+2, 2.8037345e+2, -256984.38, -377694.97, -4948.5815, -0.016263938, 0.07828822, -256781.86, -64431.72, 0.0, 5.001793, 4.925129 
5.5864656e+2, 2.8529766e+2, -207377.92, -321803.1, -5143.3076, -0.012716204, 0.042170744, -207147.2, -63061.72, 0.0, 5.0005665, 4.9277554 
5.5862236e+2, 2.9022092e+2, -161605.58, -273527.34, -5627.3145, -0.0064637316, -0.0130980015, -161323.36, -65494.746, 0.0, 4.999142, 4.9278374 
5.585983e+2, 2.9514435e+2, -115950.99, -225309.34, -6105.815, -0.00031564562, -0.06754743, -115611.14, -68040.95, 0.0, 4.9976606, 4.92792 
5.585754e+2, 3.0008855e+2, -51699.04, -100042.35, -5649.278, 0.0111583145, -0.07251868, -51047.656, -51047.656, 0.0, 4.9960594, 4.964757 
5.585575e+2, 3.0506688e+2, -46239.254, -77101.42, -4705.455, 0.0408923, -0.021033503, -45537.773, -45537.773, 0.0, 4.994072, 4.973796 
5.585403e+2, 3.1004688e+2, -52481.094, -79746.54, -5051.545, 0.070270136, 0.021416722, -51575.273, -51575.273, 0.0, 4.9917083, 4.9738417 
5.585228e+2, 3.150265e+2, -59736.676, -82851.53, -5797.9756, 0.09725682, 0.058739204, -58363.88, -58363.88, 0.0, 4.9889646, 4.9738913 
5.646503e+2, 1.21731825e+2, -1656742.4, -1744922.5, 1357.2437, 0.0020622131, -0.0063851313, -1656721.5, 90298.73, 0.0, 5.037443, 4.9798007 
5.6462556e+2, 1.267077e+2, -1616182.0, -1707415.9, -817.27527, 0.0021692757, -0.014978918, -1616174.6, 82081.414, 0.0, 5.036219, 4.976672 
5.6460065e+2, 1.3168424e+2, -1570984.5, -1660365.0, -866.46484, 0.0023213134, -0.016124142, -1570976.1, 78509.555, 0.0, 5.0349855, 4.9766703 
5.6457573e+2, 1.3666078e+2, -1527910.8, -1617724.5, -962.3147, 0.0024371487, -0.015958317, -1527900.4, 72815.03, 0.0, 5.0337515, 4.975199 
5.645495e+2, 1.4163508e+2, -1487418.9, -1580587.1, -3006.731, 0.0024252583, -0.0023654015, -1487322.0, 64646.016, 0.0, 5.032534, 4.9718137 
5.6452155e+2, 1.4660735e+2, -1441521.0, -1532470.1, -3308.5789, 0.002242822, -0.0023887234, -1441400.9, 61840.73, 0.0, 5.0313582, 4.9720993 
5.644936e+2, 1.5157962e+2, -1396020.8, -1485199.8, -3403.1855, 0.001957192, -0.003043607, -1395891.1, 58624.438, 0.0, 5.0301833, 4.9720984 
5.6446564e+2, 1.5655187e+2, -1351840.5, -1440713.6, -3489.922, 0.0016676544, -0.0032648996, -1351703.6, 54085.97, 0.0, 5.029009, 4.97116 
5.644365e+2, 1.6152102e+2, -1312327.4, -1406277.5, -5406.3164, 0.001109165, 0.0014689979, -1312017.3, 45076.133, 0.0, 5.027872, 4.9668407 
5.6440574e+2, 1.6648802e+2, -1266028.5, -1357977.8, -5753.6777, 0.0008943341, -0.00092383934, -1265669.9, 42746.75, 0.0, 5.02681, 4.9670935 
5.64375e+2, 1.7145509e+2, -1220066.0, -1310413.1, -5828.6196, 0.00073786906, -0.0032921955, -1219691.5, 40048.04, 0.0, 5.0257497, 4.967093 
5.6434417e+2, 1.7642212e+2, -1175191.6, -1265178.4, -5872.399, 0.00058816664, -0.005271746, -1174810.0, 36252.383, 0.0, 5.0246897, 4.966304 
5.643129e+2, 1.8138628e+2, -1136206.5, -1232581.8, -6889.7417, 0.0005064409, 0.0016255993, -1135716.5, 26698.285, 0.0, 5.0236382, 4.961233 
5.642805e+2, 1.8634836e+2, -1089741.4, -1184045.6, -7052.17, -0.00025188588, 0.005137119, -1089217.0, 24573.031, 0.0, 5.022575, 4.9615226 
5.6424814e+2, 1.9131048e+2, -1043667.06, -1136348.4, -7045.9243, -0.001142078, 0.008759902, -1043134.5, 22030.39, 0.0, 5.021509, 4.961525 
5.6421584e+2, 1.9627261e+2, -998463.9, -1090548.3, -7028.536, -0.0020610166, 0.0126473205, -997930.5, 18609.21, 0.0, 5.0204434, 4.9608774 
5.641832e+2, 2.012318e+2, -958827.3, -1056779.9, -7627.795, -0.0033661863, 0.022785375, -958236.9, 9704.574, 0.0, 5.0193777, 4.9561195 
5.641497e+2, 2.0618773e+2, -911587.06, -1006948.44, -8189.492, -0.0035890029, 0.012466036, -910888.9, 8481.478, 0.0, 5.0183654, 4.9567847 
5.641161e+2, 2.1114355e+2, -865209.7, -959060.56, -8447.327, -0.0035305913, 0.00014972227, -864455.44, 6344.5547, 0.0, 5.0173607, 4.9567842 
5.640826e+2, 2.1609937e+2, -819477.3, -912611.9, -8692.631, -0.003452908, -0.012265247, -818672.94, 3556.7395, 0.0, 5.016356, 4.956284 
5.6404936e+2, 2.210526e+2, -781285.75, -882566.8, -8337.759, -0.003802394, -0.009859077, -780603.94, -6917.2617, 0.0, 5.0153213, 4.950155 
5.6401587e+2, 2.2600502e+2, -734646.94, -832949.94, -8006.6226, -0.010228324, 0.0040871124, -733999.1, -8841.913, 0.0, 5.014071, 4.9508095 
5.6398237e+2, 2.3095766e+2, -688908.75, -785210.4, -7725.489, -0.017580701, 0.018969461, -688292.94, -11667.087, 0.0, 5.0127945, 4.950829 
5.639488e+2, 2.3591031e+2, -643796.2, -738899.6, -7429.242, -0.02507148, 0.03368258, -643219.3, -15124.836, 0.0, 5.0115175, 4.950347 
5.63916e+2, 2.4085921e+2, -606390.44, -709924.1, -6570.5537, -0.029348023, 0.05515332, -605975.1, -26377.752, 0.0, 5.0102816, 4.9438205 
5.6388444e+2, 2.4580191e+2, -557994.4, -657997.9, -7224.0015, -0.021827746, 0.028324697, -557475.25, -26322.287, 0.0, 5.0093203, 4.945074 
5.6385297e+2, 2.5074407e+2, -511094.3, -609694.3, -7698.2407, -0.012980847, -0.0069564315, -510496.88, -27783.904, 0.0, 5.0083947, 4.9450855 
5.6382143e+2, 2.556862e+2, -464413.06, -561955.2, -8154.1807, -0.003976951, -0.0432921, -463736.1, -29462.602, 0.0, 5.0074687, 4.9448986 
5.637905e+2, 2.6062673e+2, -427143.5, -534888.6, -6548.7974, 0.00231129, -0.04642986, -426746.94, -40895.8, 0.0, 5.006439, 4.9375467 
5.6376064e+2, 2.655694e+2, -378077.97, -479744.06, -5738.332, -0.0017843043, -0.022357399, -377755.13, -40340.656, 0.0, 5.00515, 4.940022 
5.6373066e+2, 2.705123e+2, -332131.8, -431735.72, -5340.133, -0.0066692764, -0.0011927823, -331846.3, -42870.336, 0.0, 5.003852, 4.9400473 
5.6370074e+2, 2.7545527e+2, -286194.56, -383863.78, -4932.5786, -0.01159458, 0.020058246, -285946.1, -45409.08, 0.0, 5.002554, 4.940025 
5.636721e+2, 2.8039175e+2, -258080.98, -376809.88, -1925.8441, -0.016641436, 0.05371077, -258049.77, -65889.1, 0.0, 5.0012035, 4.9257026 
5.636463e+2, 2.8531668e+2, -210210.06, -323714.72, -1558.6599, -0.014405088, 0.0267309, -210188.66, -66295.61, 0.0, 4.9997396, 4.927462 
5.636207e+2, 2.902406e+2, -164492.83, -275577.94, -1686.8158, -0.009907685, -0.016987681, -164467.22, -68832.445, 0.0, 4.9982686, 4.9275045 
5.6359506e+2, 2.9516447e+2, -118727.04, -227435.25, -1804.0088, -0.0050756666, -0.062065557, -118697.11, -71319.96, 0.0, 4.9967966, 4.927547 
5.635706e+2, 3.0010882e+2, -52676.582, -99492.41, -449.69504, 0.0054960093, -0.064236015, -52672.266, -52672.266, 0.0, 4.9953985, 4.9652452 
5.635512e+2, 3.0508736e+2, -45962.62, -77163.96, 1262.4347, 0.03569099, -0.0141405, -45911.625, -45911.625, 0.0, 4.993998, 4.973873 
5.635323e+2, 3.1006762e+2, -49918.156, -79493.74, 1736.3138, 0.06795288, 0.033331946, -49816.57, -49816.57, 0.0, 4.9925265, 4.9736977 
5.6351316e+2, 3.1504753e+2, -53856.348, -81847.89, 2240.1257, 0.1003282, 0.07978285, -53678.207, -53678.207, 0.0, 4.9910455, 4.9735217 
5.696872e+2, 1.21754274e+2, -1657892.0, -1747301.0, 421.62924, -0.0028779143, -0.015077686, -1657890.0, 88911.01, 0.0, 5.037445, 4.97902 
5.696616e+2, 1.2673195e+2, -1616255.1, -1707591.6, -1751.7285, 0.0013589391, -0.0046652546, -1616221.5, 81798.3, 0.0, 5.0362215, 4.9766154 
5.6963557e+2, 1.3170795e+2, -1571057.1, -1660541.8, -1800.0789, 0.0020349843, -0.010711606, -1571020.9, 78233.74, 0.0, 5.0349874, 4.976613 
5.6960946e+2, 1.3668393e+2, -1527990.0, -1617917.8, -1905.7003, 0.0026550002, -0.015441123, -1527949.6, 72540.06, 0.0, 5.033754, 4.9751363 
5.69582e+2, 1.4165786e+2, -1487539.1, -1580867.0, -3909.223, 0.0029481514, -0.004684808, -1487375.6, 64370.0, 0.0, 5.0325365, 4.9717226 
5.695529e+2, 1.4663014e+2, -1441670.9, -1532813.3, -4199.051, 0.0030265173, -0.003666968, -1441477.9, 61541.156, 0.0, 5.031361, 4.9719872 
5.695238e+2, 1.516024e+2, -1396169.5, -1485542.1, -4293.5156, 0.0030157755, -0.0031820675, -1395963.6, 58329.04, 0.0, 5.0301867, 4.9719863 
5.6949466e+2, 1.5657465e+2, -1351990.0, -1441059.8, -4385.2476, 0.002998248, -0.0022620517, -1351774.6, 53791.895, 0.0, 5.0290117, 4.971046 
5.694645e+2, 1.6154371e+2, -1312427.1, -1406522.3, -6237.594, 0.0025649485, 0.0027718602, -1312015.5, 44855.285, 0.0, 5.0278754, 4.96676 
5.694326e+2, 1.6651054e+2, -1266133.6, -1358234.3, -6560.4434, 0.0021114142, -0.00073292624, -1265668.6, 42527.188, 0.0, 5.0268135, 4.9670086 
5.694007e+2, 1.714774e+2, -1220171.0, -1310669.8, -6634.484, 0.0016964402, -0.004227738, -1219687.3, 39833.465, 0.0, 5.0257535, 4.967008 
5.6936884e+2, 1.7644425e+2, -1175296.1, -1265434.1, -6676.223, 0.0012828086, -0.0073259147, -1174804.4, 36041.137, 0.0, 5.024693, 4.9662194 
5.693364e+2, 1.8140835e+2, -1136215.3, -1232640.0, -7696.149, 0.0008035912, -0.0004917614, -1135604.9, 26593.527, 0.0, 5.023642, 4.9612145 
5.69303e+2, 1.8637055e+2, -1089703.0, -1183999.9, -7857.549, -0.00071300444, 0.0042484812, -1089052.8, 24518.945, 0.0, 5.0225787, 4.9615393 
5.692695e+2, 1.913328e+2, -1043630.9, -1136302.4, -7849.4077, -0.0023979603, 0.0090858145, -1042970.75, 21973.855, 0.0, 5.021512, 4.961542 
5.69236e+2, 1.9629507e+2, -998430.06, -1090502.3, -7830.0015, -0.0041268566, 0.014214192, -997768.94, 18548.492, 0.0, 5.020446, 4.9608946 
5.692021e+2, 2.0125422e+2, -958981.7, -1057180.0, -8445.8545, -0.0056973924, 0.023835685, -958260.56, 9459.101, 0.0, 5.019386, 4.9559846 
5.6916785e+2, 2.0620978e+2, -911987.5, -1007872.4, -8958.562, -0.004529284, 0.012822954, -911157.7, 7996.004, 0.0, 5.0183716, 4.9564734 
5.6913346e+2, 2.1116525e+2, -865620.7, -959983.1, -9207.741, -0.0030326794, 0.0003455273, -864730.56, 5857.6885, 0.0, 5.017363, 4.956474 
5.690991e+2, 2.1612075e+2, -819898.9, -913533.25, -9444.3125, -0.0015602226, -0.012098683, -818955.8, 3067.0557, 0.0, 5.016354, 4.9559746 
5.6906486e+2, 2.210738e+2, -781105.56, -882225.9, -9221.855, -0.0010931811, -0.00940831, -780271.44, -6789.6777, 0.0, 5.015328, 4.95027 
5.6903017e+2, 2.2602627e+2, -734137.3, -831868.4, -8967.77, -0.0076779113, 0.0014180357, -733321.25, -8372.592, 0.0, 5.0140753, 4.9511795 
5.689953e+2, 2.3097892e+2, -688425.5, -784138.25, -8671.029, -0.015262593, 0.012803689, -687646.3, -11232.846, 0.0, 5.012792, 4.9511995 
5.689604e+2, 2.3593162e+2, -643339.1, -737836.6, -8359.076, -0.02305533, 0.024270982, -642605.44, -14727.381, 0.0, 5.011509, 4.9507174 
5.689263e+2, 2.4088056e+2, -606318.0, -709877.44, -7479.0117, -0.028099535, 0.042615592, -605780.6, -26401.537, 0.0, 5.0102973, 4.9438386 
5.688936e+2, 2.4582358e+2, -558629.8, -659528.3, -7951.022, -0.022517323, 0.023887975, -558007.1, -27070.434, 0.0, 5.0093336, 4.9445586 
5.6886095e+2, 2.507662e+2, -511783.22, -611240.9, -8384.534, -0.015850553, -0.00056463946, -511081.34, -28583.396, 0.0, 5.008392, 4.9445705 
5.6882834e+2, 2.5570878e+2, -465155.2, -563517.75, -8799.742, -0.009144407, -0.02556052, -464374.16, -30314.834, 0.0, 5.0074487, 4.944384 
5.6879634e+2, 2.606494e+2, -426556.53, -533574.2, -7529.314, -0.0040579205, -0.02576746, -426029.4, -40390.01, 0.0, 5.0064383, 4.93801 
5.687653e+2, 2.6559135e+2, -377284.7, -478029.34, -6744.467, -0.0063262866, -0.014470917, -376835.2, -39630.46, 0.0, 5.00516, 4.9406347 
5.6873417e+2, 2.7053356e+2, -331373.72, -430043.2, -6286.854, -0.009376253, -0.004962674, -330974.75, -42207.86, 0.0, 5.0038543, 4.940656 
5.687031e+2, 2.7547586e+2, -285471.5, -382193.22, -5819.9346, -0.01250175, 0.004847891, -285122.56, -44794.055, 0.0, 5.002549, 4.9406304 
5.6867325e+2, 2.80412e+2, -257057.34, -374529.28, -3094.3342, -0.015447259, 0.027655704, -256975.89, -65024.246, 0.0, 5.0012126, 4.9264994 
5.6864595e+2, 2.8533804e+2, -210216.17, -323806.72, -2754.3936, -0.013964496, 0.010439985, -210149.4, -66471.62, 0.0, 4.999747, 4.9274464 
5.686187e+2, 2.902633e+2, -164559.11, -275700.1, -2830.6394, -0.011259264, -0.017969428, -164487.06, -69074.95, 0.0, 4.9982586, 4.9274883 
5.685915e+2, 2.9518852e+2, -118853.164, -227587.19, -2895.979, -0.008282762, -0.04752996, -118776.086, -71629.15, 0.0, 4.996769, 4.927531 
5.6856555e+2, 3.0013403e+2, -51516.477, -96232.04, -1354.9235, -0.00031582845, -0.041925803, -51475.457, -51475.457, 0.0, 4.9953065, 4.966472 
5.685442e+2, 3.0511293e+2, -45502.32, -75217.46, 237.6246, 0.023239769, 0.0028867943, -45500.42, -45500.42, 0.0, 4.9938636, 4.974652 
5.6852317e+2, 3.1009334e+2, -49378.0, -77348.805, 790.1021, 0.04732169, 0.046540927, -49355.7, -49355.7, 0.0, 4.992399, 4.974531 
5.685019e+2, 3.1507346e+2, -53236.26, -79504.47, 1372.4255, 0.070555314, 0.088206895, -53164.75, -53164.75, 0.0, 4.9909253, 4.97441 
5.747241e+2, 1.2177695e+2, -1658915.4, -1749420.8, -519.0171, -0.007695962, -0.021289483, -1658912.4, 87667.29, 0.0, 5.0374475, 4.978325 
5.746977e+2, 1.2675619e+2, -1616328.1, -1707767.6, -2685.6335, 0.0005186284, 0.0056381417, -1616249.3, 81534.25, 0.0, 5.0362234, 4.976558 
5.7467043e+2, 1.3173163e+2, -1571129.6, -1660718.6, -2733.1448, 0.0017252462, -0.005323534, -1571046.4, 77977.36, 0.0, 5.03499, 4.9765553 
5.7464314e+2, 1.3670707e+2, -1528069.4, -1618111.4, -2848.671, 0.0028559912, -0.01496257, -1527979.4, 72284.75, 0.0, 5.0337567, 4.9750733 
5.746145e+2, 1.4168063e+2, -1487662.6, -1581154.9, -4811.376, 0.0034683112, -0.00699179, -1487415.8, 64107.56, 0.0, 5.03254, 4.9716287 
5.7458425e+2, 1.4665292e+2, -1441820.5, -1533156.8, -5089.384, 0.0038100262, -0.0049312795, -1441537.8, 61258.688, 0.0, 5.0313644, 4.9718747 
5.74554e+2, 1.5162519e+2, -1396317.8, -1485884.9, -5183.7065, 0.0040743304, -0.0033177664, -1396018.8, 58051.043, 0.0, 5.0301895, 4.9718733 
5.7452375e+2, 1.5659742e+2, -1352139.3, -1441406.4, -5280.5117, 0.004328975, -0.0012676081, -1351828.0, 53515.402, 0.0, 5.029015, 4.970932 
5.744924e+2, 1.6156644e+2, -1312532.6, -1406779.9, -7068.021, 0.0040119854, 0.0040961895, -1312005.5, 44642.543, 0.0, 5.027879, 4.9666753 
5.7445943e+2, 1.6653307e+2, -1266238.6, -1358491.1, -7367.0776, 0.0033206227, -0.0005342477, -1265654.0, 42321.11, 0.0, 5.0268173, 4.9669237 
5.744265e+2, 1.7149973e+2, -1220275.9, -1310926.8, -7440.2173, 0.002651347, -0.005180368, -1219669.3, 39632.56, 0.0, 5.025757, 4.9669228 
5.743936e+2, 1.7646639e+2, -1175400.5, -1265690.1, -7479.9243, 0.0019779862, -0.009422003, -1174785.1, 35843.543, 0.0, 5.0246964, 4.9661345 
5.7436e+2, 1.814304e+2, -1136228.0, -1232707.1, -8501.293, 0.001077576, -0.0025478906, -1135484.6, 26497.352, 0.0, 5.023647, 4.961193 
5.743254e+2, 1.8639274e+2, -1089664.6, -1183954.3, -8663.833, -0.0012222179, 0.0034011842, -1088875.1, 24478.14, 0.0, 5.0225825, 4.961556 
5.742907e+2, 1.9135514e+2, -1043594.75, -1136256.5, -8653.796, -0.0037177834, 0.009400121, -1042793.5, 21930.785, 0.0, 5.0215154, 4.961559 
5.742561e+2, 1.9631755e+2, -998396.25, -1090456.5, -8632.367, -0.0062724687, 0.015716555, -997593.8, 18501.287, 0.0, 5.0204487, 4.9609118 
5.7422125e+2, 2.0127662e+2, -959185.5, -1057686.9, -9257.26, -0.007993112, 0.025061104, -958323.0, 9174.885, 0.0, 5.019394, 4.9558125 
5.74186e+2, 2.0623183e+2, -912388.75, -1008796.5, -9730.889, -0.0054278444, 0.013269709, -911416.4, 7520.637, 0.0, 5.018378, 4.9561596 
5.741508e+2, 2.1118695e+2, -866032.5, -960905.94, -9971.412, -0.002518449, 0.00041507607, -864995.8, 5380.8843, 0.0, 5.0173655, 4.956161 
5.741156e+2, 2.161421e+2, -820321.3, -914454.8, -10199.252, 0.00032340604, -0.012274293, -819228.9, 2587.319, 0.0, 5.0163527, 4.955663 
5.740804e+2, 2.2109506e+2, -780982.56, -882010.8, -10087.554, 0.0015210892, -0.0085163, -779985.1, -6708.6934, 0.0, 5.015335, 4.9503417 
5.7404435e+2, 2.2604755e+2, -733628.9, -830787.06, -9933.684, -0.005311793, -0.0008417228, -732623.6, -7884.048, 0.0, 5.01408, 4.951546 
5.7400817e+2, 2.3100023e+2, -687943.44, -783066.4, -9621.344, -0.0131713385, 0.0066209664, -686980.06, -10779.352, 0.0, 5.01279, 4.951566 
5.7397205e+2, 2.3595297e+2, -642883.25, -736773.75, -9293.691, -0.021308558, 0.014416538, -641972.2, -14310.828, 0.0, 5.0115004, 4.951085 
5.739366e+2, 2.4090195e+2, -606491.6, -710378.2, -8337.697, -0.026993662, 0.030941464, -605826.75, -26666.178, 0.0, 5.010313, 4.9436646 
5.739028e+2, 2.4584527e+2, -559268.8, -661058.75, -8684.426, -0.023271862, 0.02019172, -558533.2, -27812.996, 0.0, 5.0093474, 4.944033 
5.73869e+2, 2.5078827e+2, -512475.6, -612787.5, -9077.205, -0.018723795, 0.0054611983, -511660.8, -29377.736, 0.0, 5.0083885, 4.9440455 
5.738352e+2, 2.5573134e+2, -465900.66, -565080.25, -9451.677, -0.01425404, -0.009300232, -465007.94, -31162.309, 0.0, 5.0074286, 4.9438596 
5.7380205e+2, 2.6067215e+2, -426354.84, -533133.1, -8453.166, -0.0105791185, -0.0040119165, -425689.78, -40262.727, 0.0, 5.006438, 4.9381666 
5.737699e+2, 2.656134e+2, -376493.13, -476316.8, -7757.348, -0.01107869, -0.004864625, -375893.9, -38900.027, 0.0, 5.00517, 4.941231 
5.7373774e+2, 2.705549e+2, -330617.13, -428352.75, -7240.3433, -0.012140819, -0.008687026, -330083.66, -41526.47, 0.0, 5.0038576, 4.941249 
5.7370555e+2, 2.7549648e+2, -284749.72, -380524.56, -6714.08, -0.013313826, -0.0119895125, -284281.3, -44161.42, 0.0, 5.002545, 4.9412193 
5.7367444e+2, 2.804323e+2, -256535.13, -373400.9, -4211.304, -0.014538694, 0.0020481723, -256383.58, -64641.47, 0.0, 5.0012226, 4.92689 
5.736456e+2, 2.8535947e+2, -210226.03, -323897.28, -3945.8645, -0.013871604, -0.0042605167, -210089.22, -66627.37, 0.0, 4.9997544, 4.9274163 
5.7361674e+2, 2.90286e+2, -164628.98, -275820.7, -3970.219, -0.012576206, -0.01894851, -164487.4, -69298.02, 0.0, 4.9982486, 4.9274583 
5.7358795e+2, 2.952125e+2, -118982.72, -227737.52, -3983.723, -0.011073356, -0.03457743, -118836.99, -71919.695, 0.0, 4.9967413, 4.9275002 
5.7356036e+2, 3.001591e+2, -50796.598, -93967.04, -2385.7468, -0.005751084, -0.021198746, -50665.152, -50665.152, 0.0, 4.995213, 4.96733 
5.7353693e+2, 3.0513817e+2, -45056.05, -73255.48, -843.68677, 0.009893258, 0.018187124, -45030.832, -45030.832, 0.0, 4.993729, 4.975417 
5.735137e+2, 3.1011876e+2, -48851.87, -75188.56, -212.56546, 0.024691364, 0.056722376, -48850.156, -48850.156, 0.0, 4.992272, 4.975352 
5.734902e+2, 3.1509903e+2, -52630.21, -77145.94, 448.308, 0.037681192, 0.0923048, -52622.016, -52622.016, 0.0, 4.9908056, 4.9752855 
5.797611e+2, 1.2180035e+2, -1659613.1, -1750991.9, -318.0303, -0.011458178, -0.022629205, -1659612.0, 86739.266, 0.0, 5.0374765, 4.977795 
5.797338e+2, 1.2678044e+2, -1616310.0, -1707940.6, -2520.8608, -0.00041655684, 0.013981849, -1616240.6, 81306.38, 0.0, 5.036267, 4.976481 
5.797053e+2, 1.3175541e+2, -1571077.5, -1660871.5, -2650.7297, 0.0013528764, -0.00083491654, -1570999.4, 77792.414, 0.0, 5.035044, 4.976479 
5.7967687e+2, 1.3673037e+2, -1528008.1, -1618268.8, -2854.9302, 0.0030520614, -0.014365608, -1527917.9, 72118.82, 0.0, 5.033816, 4.9749928 
5.7964694e+2, 1.4170365e+2, -1487621.5, -1581350.4, -4817.1616, 0.004038448, -0.008616255, -1487374.6, 63924.234, 0.0, 5.032598, 4.971537 
5.796156e+2, 1.4667588e+2, -1441810.4, -1533401.4, -5074.8535, 0.0046100672, -0.005784343, -1441530.0, 61041.977, 0.0, 5.031419, 4.9717684 
5.7958424e+2, 1.5164812e+2, -1396320.5, -1486137.8, -5161.14, 0.0051188995, -0.0033199026, -1396025.0, 57820.418, 0.0, 5.03024, 4.9717665 
5.7955277e+2, 1.5662035e+2, -1352159.3, -1441673.4, -5255.817, 0.0056236526, -0.00040120725, -1351851.8, 53267.125, 0.0, 5.0290604, 4.970823 
5.795203e+2, 1.6158926e+2, -1312552.6, -1406997.5, -6979.8687, 0.0054135663, 0.0052100574, -1312039.6, 44384.594, 0.0, 5.027914, 4.966587 
5.7948625e+2, 1.665557e+2, -1266316.3, -1358730.6, -7280.2046, 0.0045157364, -0.00041066844, -1265746.3, 42006.816, 0.0, 5.026831, 4.966838 
5.794522e+2, 1.7152219e+2, -1220416.4, -1311196.0, -7376.1055, 0.0036307133, -0.0060877916, -1219820.9, 39260.848, 0.0, 5.0257487, 4.966837 
5.7941824e+2, 1.7648865e+2, -1175604.3, -1265988.3, -7436.075, 0.0027396488, -0.011366443, -1174996.6, 35413.8, 0.0, 5.0246663, 4.966049 
5.7938355e+2, 1.8145262e+2, -1136406.5, -1232838.3, -8461.105, 0.0014204662, -0.0043584285, -1135669.8, 26094.41, 0.0, 5.023594, 4.9611754 
5.7934785e+2, 1.8641508e+2, -1089869.8, -1184015.3, -8632.955, -0.0016186122, 0.0025756618, -1089084.8, 24049.045, 0.0, 5.022502, 4.961574 
5.79312e+2, 1.9137757e+2, -1043894.75, -1136366.1, -8630.3545, -0.004835105, 0.009414134, -1043096.2, 21406.85, 0.0, 5.021402, 4.961576 
5.792762e+2, 1.9634005e+2, -998808.4, -1090622.5, -8616.2, -0.008094434, 0.01652871, -998006.8, 17865.396, 0.0, 5.0202956, 4.960928 
5.792403e+2, 2.0129906e+2, -959939.2, -1058488.8, -9226.349, -0.00981243, 0.02566073, -959082.8, 8192.902, 0.0, 5.01922, 4.955622 
5.7920414e+2, 2.0625395e+2, -913206.9, -1009857.44, -9621.237, -0.0061119795, 0.013437633, -912258.44, 6461.0366, 0.0, 5.018229, 4.955868 
5.791681e+2, 2.1120878e+2, -866798.06, -961935.25, -9802.653, -0.0020548487, 0.00033898643, -865798.5, 4365.2773, 0.0, 5.0172343, 4.9558697 
5.7913196e+2, 2.1616362e+2, -821061.25, -915463.6, -9969.273, 0.0019361036, -0.012592391, -820019.94, 1588.003, 0.0, 5.016231, 4.9553723 
5.7909584e+2, 2.2111653e+2, -781282.9, -882066.56, -9890.518, 0.0036488222, -0.0070028896, -780321.44, -7252.508, 0.0, 5.015219, 4.9503717 
5.790585e+2, 2.2606903e+2, -733328.1, -829875.5, -10029.822, -0.0033722676, -0.0023555704, -732297.2, -7768.5024, 0.0, 5.014032, 4.9518743 
5.7902104e+2, 2.3102166e+2, -687492.4, -782098.56, -9906.208, -0.011243368, 0.00062907784, -686466.2, -10479.246, 0.0, 5.012794, 4.9518924 
5.7898366e+2, 2.3597433e+2, -642360.5, -735782.2, -9759.834, -0.01932998, 0.0038109918, -641351.8, -13906.87, 0.0, 5.0115294, 4.951409 
5.7894695e+2, 2.4092329e+2, -606836.2, -711262.0, -8725.725, -0.02517782, 0.019112526, -606112.1, -27169.168, 0.0, 5.010331, 4.943353 
5.7891196e+2, 2.4586697e+2, -560028.06, -662481.56, -8775.988, -0.023463031, 0.016469529, -559281.75, -28778.035, 0.0, 5.009289, 4.9435673 
5.7887703e+2, 2.5081044e+2, -513504.1, -614328.75, -8897.191, -0.021153148, 0.010534891, -512725.0, -30657.395, 0.0, 5.008238, 4.943578 
5.7884204e+2, 2.5575393e+2, -467231.97, -566746.8, -8995.501, -0.018952278, 0.004801474, -466425.38, -32794.29, 0.0, 5.0071754, 4.9433904 
5.788077e+2, 2.6069507e+2, -427479.63, -533952.2, -7979.534, -0.01694749, 0.017885892, -426884.9, -41672.39, 0.0, 5.00611, 4.9380198 
5.7877445e+2, 2.6563564e+2, -376658.8, -475203.16, -7766.9263, -0.015905222, 0.006185378, -376050.4, -39269.793, 0.0, 5.0048785, 4.9417334 
5.7874113e+2, 2.7057636e+2, -330688.28, -427207.6, -7616.3394, -0.014965326, -0.011895372, -330090.97, -41744.867, 0.0, 5.0036, 4.9417496 
5.787079e+2, 2.755171e+2, -284765.16, -379349.28, -7442.8833, -0.014108597, -0.029516105, -284183.06, -44272.0, 0.0, 5.0023127, 4.9417176 
5.786756e+2, 2.8045267e+2, -257176.25, -373571.84, -5287.98, -0.01396655, -0.022221021, -256936.52, -65404.05, 0.0, 5.0009904, 4.9269176 
5.786452e+2, 2.8538102e+2, -210944.27, -324127.4, -4867.807, -0.014054238, -0.016966328, -210735.3, -67490.01, 0.0, 4.9994955, 4.927432 
5.786148e+2, 2.9030877e+2, -165410.13, -276145.16, -4636.404, -0.013719489, -0.01976387, -165216.34, -70250.086, 0.0, 4.9979715, 4.9274573 
5.785844e+2, 2.9523647e+2, -119816.25, -228137.11, -4449.4077, -0.013263771, -0.023290023, -119633.79, -72946.12, 0.0, 4.996453, 4.9274836 
5.7855505e+2, 3.00184e+2, -51152.754, -93000.125, -2822.483, -0.010625028, -0.0024158393, -50963.242, -50963.242, 0.0, 4.9948874, 4.9678187 
5.785294e+2, 3.0516312e+2, -45540.75, -71889.52, -1505.9819, -0.0037381016, 0.030828943, -45454.953, -45454.953, 0.0, 4.993288, 4.9761066 
5.78504e+2, 3.1014365e+2, -49943.61, -74018.16, -1342.9337, 0.0018283454, 0.06275278, -49868.93, -49868.93, 0.0, 4.9916086, 4.976062 
5.7847834e+2, 3.1512386e+2, -54671.625, -76311.0, -1369.6068, 0.005291151, 0.09115124, -54585.285, -54585.285, 0.0, 4.9897966, 4.9760184 
5.847996e+2, 1.2182949e+2, -1653966.8, -1747595.3, 2177.1643, -0.01017284, -0.006502821, -1653916.1, 92150.24, 0.0, 5.0392447, 4.9780416 
5.847706e+2, 1.2680712e+2, -1611618.8, -1706069.4, 21.42417, -0.0021539421, 0.0075251977, -1611618.8, 85667.37, 0.0, 5.0379443, 4.9762735 
5.8474106e+2, 1.3178231e+2, -1566638.0, -1659126.0, -179.15112, 0.00059742667, -0.0030187063, -1566637.6, 81891.586, 0.0, 5.03664, 4.9762735 
5.8471143e+2, 1.3675746e+2, -1523807.0, -1616653.8, -465.24432, 0.0032953315, -0.012331835, -1523804.8, 75967.84, 0.0, 5.035337, 4.974784 
5.846804e+2, 1.4173077e+2, -1483392.9, -1579345.1, -2408.7012, 0.0049124043, -0.0046263193, -1483332.4, 67701.875, 0.0, 5.0340476, 4.9714947 
5.846477e+2, 1.4670281e+2, -1437793.9, -1531492.1, -2603.553, 0.0053828815, -0.0032608428, -1437721.6, 64587.473, 0.0, 5.0327973, 4.971733 
5.846151e+2, 1.5167482e+2, -1392522.5, -1484344.5, -2638.0256, 0.005782448, -0.002262004, -1392446.8, 61137.3, 0.0, 5.031548, 4.97173 
5.8458245e+2, 1.5664683e+2, -1348578.1, -1440000.3, -2683.5676, 0.0061886255, -0.0007802117, -1348499.5, 56359.617, 0.0, 5.030299, 4.970783 
5.845488e+2, 1.6161561e+2, -1309251.4, -1405550.9, -4310.295, 0.006035654, 0.004104155, -1309058.9, 47106.82, 0.0, 5.0290766, 4.9665093 
5.845136e+2, 1.6658202e+2, -1263321.4, -1357478.3, -4590.3604, 0.005409851, -0.0008018561, -1263098.1, 44397.203, 0.0, 5.0279007, 4.966742 
5.8447844e+2, 1.7154843e+2, -1217700.8, -1310081.8, -4684.0986, 0.0047930414, -0.0057283673, -1217463.9, 41360.945, 0.0, 5.026726, 4.966742 
5.844433e+2, 1.7651486e+2, -1173164.8, -1265009.0, -4740.029, 0.0041651363, -0.010269087, -1172920.8, 37233.43, 0.0, 5.025551, 4.9659543 
5.844075e+2, 1.8147877e+2, -1134028.4, -1231494.8, -5731.029, 0.0027840333, -0.0032920951, -1133692.5, 27815.67, 0.0, 5.024376, 4.961254 
5.843706e+2, 1.8644106e+2, -1087802.0, -1182799.5, -5833.7363, -0.00039837655, 0.0015393544, -1087445.1, 25433.156, 0.0, 5.023173, 4.961665 
5.8433366e+2, 1.914034e+2, -1042133.75, -1135307.5, -5762.5005, -0.0036804122, 0.0061075496, -1041778.7, 22469.379, 0.0, 5.021968, 4.9616656 
5.842967e+2, 1.9636571e+2, -997333.5, -1089711.8, -5677.099, -0.0069619026, 0.010874351, -996985.94, 18631.953, 0.0, 5.020763, 4.9610157 
5.842596e+2, 2.0132458e+2, -958870.56, -1058093.6, -6132.69, -0.00861642, 0.01860475, -958492.94, 8529.41, 0.0, 5.0196133, 4.955568 
5.8422244e+2, 2.0627975e+2, -912296.8, -1009646.8, -6367.205, -0.0058568288, 0.010619119, -911882.1, 6582.5093, 0.0, 5.0185933, 4.9557652 
5.8418524e+2, 2.1123491e+2, -865947.7, -961744.3, -6438.356, -0.0028938383, 0.0021812702, -865516.9, 4390.3467, 0.0, 5.0175796, 4.9557695 
5.84148e+2, 2.1619007e+2, -820244.1, -915281.0, -6493.8784, 0.000016984757, -0.006225006, -819802.44, 1547.3293, 0.0, 5.0165653, 4.955275 
5.8411074e+2, 2.2114316e+2, -780401.4, -881375.94, -6380.8027, 0.0008200194, 0.0012355921, -779999.75, -7189.959, 0.0, 5.015489, 4.950478 
5.840725e+2, 2.2609508e+2, -732613.6, -829523.7, -6701.8374, -0.004171707, 0.00053927826, -732152.4, -7878.427, 0.0, 5.0142903, 4.9518733 
5.8403414e+2, 2.3104702e+2, -686657.3, -781724.44, -6796.2017, -0.009420289, -0.002749182, -686173.9, -10436.154, 0.0, 5.013089, 4.951885 
5.839957e+2, 2.3599891e+2, -641326.2, -735355.3, -6873.757, -0.014648059, -0.006488613, -640826.4, -13624.61, 0.0, 5.0118876, 4.9513955 
5.839581e+2, 2.4094732e+2, -605581.6, -710167.2, -5875.8667, -0.018357161, 0.0028263982, -605252.56, -26548.35, 0.0, 5.0106587, 4.943581 
5.839216e+2, 2.458919e+2, -559442.6, -661667.5, -5486.875, -0.01876765, 0.0070978506, -559149.0, -28891.658, 0.0, 5.009387, 4.943805 
5.8388525e+2, 2.5083637e+2, -513550.13, -613793.3, -5223.797, -0.018986084, 0.009646038, -513278.66, -31466.371, 0.0, 5.0081162, 4.943817 
5.838489e+2, 2.5578082e+2, -467874.0, -566474.3, -4948.3447, -0.019218348, 0.012044728, -467626.28, -34259.12, 0.0, 5.0068455, 4.943631 
5.8381313e+2, 2.6072258e+2, -429035.5, -534439.3, -3535.4158, -0.01907905, 0.029612873, -428917.06, -43973.703, 0.0, 5.0055394, 4.9380937 
5.8377856e+2, 2.6566246e+2, -378872.13, -476727.94, -3640.848, -0.018174332, 0.013545056, -378736.84, -42218.426, 0.0, 5.0042114, 4.9414907 
5.83744e+2, 2.7060235e+2, -332995.06, -428803.97, -3983.0059, -0.01710944, -0.009681789, -332829.75, -44737.36, 0.0, 5.002891, 4.941501 
5.837095e+2, 2.755422e+2, -287141.3, -381000.72, -4325.806, -0.015975202, -0.03309375, -286942.34, -47276.09, 0.0, 5.0015707, 4.9414635 
5.8367586e+2, 2.8047717e+2, -258936.7, -373017.94, -2486.9712, -0.015047628, -0.031503312, -258882.52, -67589.16, 0.0, 5.0001307, 4.92747 
5.8364385e+2, 2.8540662e+2, -212988.98, -323404.03, -1655.7443, -0.01455956, -0.02189434, -212964.17, -69968.516, 0.0, 4.9984846, 4.928115 
5.8361197e+2, 2.9033566e+2, -167795.03, -275723.66, -1066.6748, -0.0139986165, -0.017917847, -167784.48, -73080.03, 0.0, 4.99685, 4.9280934 
5.8357996e+2, 2.952646e+2, -122558.37, -228023.88, -463.10846, -0.013408161, -0.014494267, -122556.336, -76142.234, 0.0, 4.9952145, 4.928072 
5.8354896e+2, 3.0021307e+2, -53883.676, -92609.79, 1615.4731, -0.012436076, 0.009682285, -53816.402, -53816.402, 0.0, 4.99355, 4.968586 
5.835211e+2, 3.0519158e+2, -49125.438, -72686.46, 3185.6135, -0.011118162, 0.03316, -48702.316, -48702.316, 0.0, 4.991731, 4.9766126 
5.8349365e+2, 3.1017125e+2, -54051.332, -75401.62, 3673.9568, -0.009335827, 0.05451866, -53436.805, -53436.805, 0.0, 4.9898787, 4.97648 
5.83466e+2, 3.151505e+2, -58937.6, -78165.31, 4221.797, -0.0075706965, 0.07297173, -58051.47, -58051.47, 0.0, 4.9880195, 4.9763465 
5.8983886e+2, 1.2186022e+2, -1653363.5, -1746389.8, 1110.1234, -0.00909487, 0.007961176, -1653350.3, 92415.586, 0.0, 5.0392466, 4.978439 
5.898083e+2, 1.2683527e+2, -1611969.0, -1706823.4, -965.07996, -0.0041196533, -0.0018632974, -1611959.1, 85051.76, 0.0, 5.0379467, 4.9760265 
5.8977747e+2, 1.318108e+2, -1566985.9, -1659878.1, -1164.9268, -0.00025763368, -0.0064549074, -1566971.3, 81279.66, 0.0, 5.036643, 4.9760265 
5.897467e+2, 1.367863e+2, -1524160.5, -1617421.3, -1461.105, 0.0035384705, -0.009817636, -1524137.6, 75353.56, 0.0, 5.03534, 4.974531 
5.8971435e+2, 1.4175974e+2, -1483443.3, -1579489.0, -3368.9033, 0.0058310465, 0.0007115321, -1483325.3, 67426.48, 0.0, 5.034051, 4.971449 
5.896805e+2, 1.4673154e+2, -1437823.4, -1531592.9, -3549.9207, 0.006110205, 0.00009134553, -1437689.1, 64339.184, 0.0, 5.0328007, 4.9717016 
5.896466e+2, 1.5170333e+2, -1392551.8, -1484445.0, -3583.839, 0.006293836, -0.00093096605, -1392412.1, 60892.94, 0.0, 5.0315514, 4.9716988 
5.8961266e+2, 1.566751e+2, -1348611.6, -1440110.1, -3635.2705, 0.006481204, -0.001464223, -1348467.4, 56114.59, 0.0, 5.0303025, 4.970749 
5.8957773e+2, 1.6164373e+2, -1309361.5, -1405828.0, -5217.375, 0.0063662212, 0.0025491656, -1309080.1, 46809.6, 0.0, 5.029081, 4.9664173 
5.8954144e+2, 1.6661014e+2, -1263459.5, -1357814.6, -5483.0815, 0.0061571896, -0.0011594618, -1263141.9, 44077.83, 0.0, 5.027905, 4.96663 
5.895052e+2, 1.7157659e+2, -1217838.8, -1310417.1, -5576.0273, 0.005950691, -0.00482952, -1217504.1, 41045.273, 0.0, 5.02673, 4.96663 
5.8946896e+2, 1.7654303e+2, -1173303.1, -1265343.9, -5630.8535, 0.0057228003, -0.008101472, -1172959.9, 36919.164, 0.0, 5.0255547, 4.9658422 
5.8943194e+2, 1.8150693e+2, -1133881.3, -1231223.9, -6646.9604, 0.004421393, -0.0012215741, -1133429.5, 27803.693, 0.0, 5.0243797, 4.961348 
5.893938e+2, 1.8646899e+2, -1087641.1, -1182489.3, -6748.0254, 0.001222324, 0.00044217356, -1087163.4, 25440.633, 0.0, 5.0231757, 4.9617734 
5.8935565e+2, 1.9143109e+2, -1041978.2, -1134998.5, -6673.0913, -0.0020582355, 0.0017902809, -1041501.94, 22472.807, 0.0, 5.0219693, 4.9617743 
5.893175e+2, 1.963932e+2, -997183.4, -1089403.9, -6583.8296, -0.005357222, 0.003394376, -996715.7, 18629.678, 0.0, 5.020763, 4.9611244 
5.892793e+2, 2.0135199e+2, -958910.94, -1058272.5, -6953.096, -0.007073709, 0.010034578, -958426.7, 8323.425, 0.0, 5.0196247, 4.955506 
5.892409e+2, 2.0630763e+2, -912362.75, -1009875.1, -7135.189, -0.0057136966, 0.007610809, -911843.44, 6345.7134, 0.0, 5.018604, 4.9556866 
5.892025e+2, 2.1126333e+2, -866028.7, -961973.0, -7197.4814, -0.0043824962, 0.0053143147, -865491.75, 4136.1675, 0.0, 5.0175853, 4.9556923 
5.8916414e+2, 2.1621902e+2, -820340.2, -915510.0, -7244.069, -0.003160152, 0.0031925628, -819791.94, 1274.5825, 0.0, 5.016566, 4.955199 
5.8912563e+2, 2.2117236e+2, -780254.6, -881126.8, -7296.924, -0.0034711435, 0.012699404, -779729.5, -7204.5586, 0.0, 5.0154977, 4.9505653 
5.890864e+2, 2.2612351e+2, -732707.94, -829779.75, -7617.4883, -0.005662288, 0.0047798357, -732113.8, -8117.5513, 0.0, 5.0142946, 4.9517922 
5.8904725e+2, 2.3107459e+2, -686780.4, -781991.75, -7694.271, -0.0077893515, -0.005649756, -686162.56, -10694.94, 0.0, 5.0130854, 4.9518037 
5.89008e+2, 2.3602568e+2, -641477.94, -735633.75, -7754.1514, -0.009979596, -0.01623005, -640843.6, -13904.609, 0.0, 5.011875, 4.9513135 
5.889693e+2, 2.4097362e+2, -605186.9, -709363.0, -6887.2, -0.011684707, -0.012067053, -604733.5, -26287.865, 0.0, 5.010668, 4.943858 
5.889314e+2, 2.459191e+2, -558908.44, -660566.56, -6477.1353, -0.0137163345, -0.0021079131, -558497.44, -28508.336, 0.0, 5.0093985, 4.944189 
5.8889353e+2, 2.5086465e+2, -513056.28, -612716.5, -6183.3813, -0.015979592, 0.007878988, -512674.1, -31141.45, 0.0, 5.008118, 4.9441986 
5.888556e+2, 2.5581023e+2, -467420.25, -565421.3, -5877.235, -0.01832632, 0.018008044, -467069.06, -33993.063, 0.0, 5.006838, 4.94401 
5.8881843e+2, 2.6075268e+2, -428879.4, -534089.06, -4568.2363, -0.020046243, 0.0394517, -428681.44, -44036.473, 0.0, 5.0055375, 4.938222 
5.887825e+2, 2.6569197e+2, -379330.84, -477808.63, -4663.121, -0.019579614, 0.019841693, -379110.53, -42881.707, 0.0, 5.004215, 4.9411254 
5.887466e+2, 2.7063105e+2, -333460.97, -429902.4, -4976.879, -0.018861834, -0.006428516, -333204.8, -45391.97, 0.0, 5.0028934, 4.9411297 
5.887107e+2, 2.7557012e+2, -287614.28, -382116.75, -5291.3013, -0.018108347, -0.032799024, -287318.94, -47922.133, 0.0, 5.001572, 4.941087 
5.886757e+2, 2.8050458e+2, -258040.13, -371109.84, -3761.9678, -0.016998734, -0.03596086, -257915.11, -66884.375, 0.0, 5.000149, 4.928138 
5.886422e+2, 2.8543502e+2, -211931.86, -321127.06, -2944.8804, -0.015713079, -0.02439099, -211852.5, -69130.836, 0.0, 4.9985023, 4.928924 
5.886086e+2, 2.903653e+2, -166788.63, -273452.84, -2332.5776, -0.014546319, -0.015540806, -166737.64, -72321.28, 0.0, 4.9968524, 4.9289093 
5.8857507e+2, 2.9529548e+2, -121602.56, -225759.11, -1705.8126, -0.013361885, -0.0071949824, -121574.64, -75462.82, 0.0, 4.995202, 4.928894 
5.8854234e+2, 3.0024493e+2, -53036.902, -90284.016, 306.65256, -0.013285094, 0.018847026, -53034.38, -53034.38, 0.0, 4.9934893, 4.9694705 
5.885121e+2, 3.0522308e+2, -48648.676, -70859.73, 1852.9678, -0.01823537, 0.03245403, -48495.152, -48495.152, 0.0, 4.991623, 4.9773355 
5.884822e+2, 3.1020218e+2, -53567.242, -73354.84, 2449.5369, -0.023971286, 0.0422499, -53268.52, -53268.52, 0.0, 4.9897504, 4.977272 
5.8845204e+2, 3.15181e+2, -58446.14, -75898.39, 3105.4763, -0.030393217, 0.049007427, -57910.016, -57910.016, 0.0, 4.987871, 4.977207 
5.948781e+2, 1.21890426e+2, -1652776.5, -1745218.9, 48.569164, -0.009025061, 0.017139262, -1652776.5, 92693.99, 0.0, 5.0392485, 4.978824 
5.9484595e+2, 1.2686342e+2, -1612319.0, -1707577.6, -1951.4059, -0.0060852766, -0.011134736, -1612279.0, 84456.59, 0.0, 5.0379496, 4.9757795 
5.9481394e+2, 1.318393e+2, -1567333.5, -1660630.6, -2150.5242, -0.0011100356, -0.009791525, -1567284.0, 80688.52, 0.0, 5.036646, 4.9757795 
5.9478194e+2, 1.3681516e+2, -1524513.9, -1618189.3, -2456.926, 0.0037868593, -0.0072212927, -1524449.5, 74760.28, 0.0, 5.035343, 4.9742785 
5.9474844e+2, 1.4178869e+2, -1483497.3, -1579641.3, -4328.747, 0.006754139, 0.0060689095, -1483302.8, 67166.48, 0.0, 5.0340548, 4.9714003 
5.947133e+2, 1.4676027e+2, -1437852.5, -1531694.3, -4496.277, 0.0068375748, 0.003435789, -1437637.5, 64110.063, 0.0, 5.0328045, 4.9716697 
5.946781e+2, 1.5173182e+2, -1392580.6, -1484546.1, -4529.641, 0.006802801, 0.00036881678, -1392358.1, 60668.11, 0.0, 5.031555, 4.9716673 
5.946429e+2, 1.5670335e+2, -1348644.8, -1440220.6, -4587.0396, 0.0067689, -0.0022029781, -1348415.5, 55889.344, 0.0, 5.0303063, 4.9707136 
5.9460676e+2, 1.6167185e+2, -1309479.3, -1406122.0, -6123.238, 0.0066977586, 0.001047664, -1309092.9, 46521.016, 0.0, 5.0290856, 4.96632 
5.945693e+2, 1.6663827e+2, -1263597.4, -1358151.3, -6376.164, 0.0068978807, -0.001461003, -1263169.3, 43774.766, 0.0, 5.0279098, 4.966518 
5.945319e+2, 1.7160474e+2, -1217976.6, -1310752.8, -6468.318, 0.007093848, -0.0038971354, -1217527.9, 40746.168, 0.0, 5.0267344, 4.966518 
5.944945e+2, 1.7657119e+2, -1173441.3, -1265679.1, -6522.0576, 0.007258126, -0.005922827, -1172982.4, 36621.508, 0.0, 5.025559, 4.96573 
5.944564e+2, 1.8153507e+2, -1133742.8, -1230972.1, -7562.935, 0.0060692034, 0.00086545583, -1133158.0, 27800.168, 0.0, 5.024384, 4.961435 
5.9441704e+2, 1.8649691e+2, -1087480.3, -1182179.4, -7663.6313, 0.0028411658, -0.00072741316, -1086864.1, 25465.795, 0.0, 5.0231786, 4.9618807 
5.943777e+2, 1.9145879e+2, -1041822.75, -1134689.9, -7584.999, -0.0004581163, -0.0027006308, -1041207.3, 22494.174, 0.0, 5.0219707, 4.9618816 
5.943383e+2, 1.9642067e+2, -997033.3, -1089096.5, -7491.868, -0.0037947781, -0.0043603894, -996427.6, 18645.387, 0.0, 5.020763, 4.9612327 
5.9429896e+2, 2.0137942e+2, -959000.25, -1058557.3, -7757.855, -0.005603471, 0.001845227, -958399.4, 8078.297, 0.0, 5.019636, 4.9554067 
5.942593e+2, 2.0633556e+2, -912429.8, -1010103.1, -7907.616, -0.005702076, 0.005014346, -911793.8, 6119.48, 0.0, 5.018615, 4.955606 
5.942198e+2, 2.1129178e+2, -866110.8, -962201.3, -7961.051, -0.006037305, 0.008651539, -865455.7, 3892.5747, 0.0, 5.017591, 4.955613 
5.9418017e+2, 2.1624802e+2, -820437.4, -915738.7, -7998.7036, -0.00653805, 0.012606845, -819770.7, 1012.355, 0.0, 5.0165668, 4.955121 
5.941405e+2, 2.2120158e+2, -780195.7, -881070.3, -8195.586, -0.007802514, 0.024459664, -779534.2, -7294.2383, 0.0, 5.0155067, 4.950585 
5.941005e+2, 2.2615191e+2, -732803.8, -830035.94, -8536.368, -0.007132969, 0.00906429, -732060.06, -8341.447, 0.0, 5.0142994, 4.951707 
5.9406036e+2, 2.3110214e+2, -686905.0, -782259.1, -8595.573, -0.006125673, -0.008985743, -686136.3, -10938.592, 0.0, 5.0130816, 4.9517183 
5.9402025e+2, 2.3605241e+2, -641631.1, -735912.25, -8637.783, -0.0052655516, -0.026885783, -640846.3, -14169.691, 0.0, 5.011863, 4.951228 
5.9398055e+2, 2.4099994e+2, -604992.3, -709006.75, -7851.544, -0.005208696, -0.026088303, -604402.94, -26216.35, 0.0, 5.0106773, 4.9439783 
5.9394115e+2, 2.4594636e+2, -558376.25, -659466.44, -7470.1304, -0.008897611, -0.010213907, -557827.2, -28107.096, 0.0, 5.00941, 4.9445653 
5.939018e+2, 2.50893e+2, -512564.3, -611640.5, -7145.7144, -0.013088515, 0.0063891383, -512051.6, -30799.049, 0.0, 5.00812, 4.944572 
5.938624e+2, 2.5583965e+2, -466968.3, -564369.06, -6808.886, -0.017432658, 0.023426868, -466494.63, -33710.04, 0.0, 5.0068297, 4.9443808 
5.9382373e+2, 2.6078287e+2, -428971.44, -534301.3, -5572.5244, -0.021186814, 0.049869746, -428677.44, -44331.273, 0.0, 5.005536, 4.9381533 
5.9378636e+2, 2.6572144e+2, -379790.16, -478890.6, -5681.301, -0.021145126, 0.026945421, -379465.5, -43526.67, 0.0, 5.004218, 4.940753 
5.937492e+2, 2.7065971e+2, -333927.38, -431002.03, -5966.658, -0.020591427, -0.0032296572, -333562.0, -46028.797, 0.0, 5.002896, 4.9407516 
5.93712e+2, 2.7559802e+2, -288087.66, -383234.0, -6252.7017, -0.020035863, -0.03341929, -287678.5, -48550.96, 0.0, 5.0015736, 4.9407024 
5.9367555e+2, 2.8053194e+2, -257396.08, -369784.53, -4999.3613, -0.018996606, -0.040465042, -257174.14, -66405.92, 0.0, 5.0001674, 4.9285994 
5.936404e+2, 2.854634e+2, -210877.1, -318850.13, -4241.5874, -0.017038161, -0.02651208, -210710.72, -68262.89, 0.0, 4.9985204, 4.929726 
5.936053e+2, 2.9039487e+2, -165784.48, -271182.06, -3606.0718, -0.015110588, -0.013529082, -165661.25, -71532.5, 0.0, 4.9968553, 4.9297175 
5.935702e+2, 2.9532626e+2, -120648.93, -223494.27, -2956.1284, -0.013177372, -0.00100095, -120564.02, -74753.68, 0.0, 4.99519, 4.929709 
5.935357e+2, 3.002766e+2, -52473.04, -88593.11, -1109.8007, -0.013667891, 0.02646242, -52438.973, -52438.973, 0.0, 4.9934278, 4.970111 
5.93503e+2, 3.0525422e+2, -48183.06, -69020.4, 433.8613, -0.026043331, 0.028200733, -48174.027, -48174.027, 0.0, 4.991515, 4.9780307 
5.934704e+2, 3.102327e+2, -53094.285, -71295.67, 1138.6619, -0.04077697, 0.024247669, -53023.33, -53023.33, 0.0, 4.9896226, 4.9780364 
5.934376e+2, 3.1521097e+2, -57965.8, -73619.29, 1902.6945, -0.05686327, 0.017126821, -57737.848, -57737.848, 0.0, 4.9877234, 4.9780407 
5.999172e+2, 1.2191999e+2, -1652120.3, -1744396.6, -146.67444, -0.009531582, 0.018400123, -1652120.0, 93061.266, 0.0, 5.039361, 4.9790406 
5.998837e+2, 1.2689197e+2, -1612411.1, -1708145.8, -2037.6414, -0.0075854855, -0.017999608, -1612367.8, 84088.68, 0.0, 5.03803, 4.9755545 
5.998505e+2, 1.318681e+2, -1567515.9, -1661242.6, -2181.391, -0.0017603991, -0.0120480275, -1567465.1, 80226.32, 0.0, 5.0366955, 4.9755545 
5.998172e+2, 1.3684416e+2, -1524796.1, -1618862.6, -2442.3015, 0.0040215035, -0.004819032, -1524732.8, 74193.89, 0.0, 5.035361, 4.974048 
5.997824e+2, 1.4181776e+2, -1483572.8, -1579795.6, -4246.3354, 0.007557034, 0.010536997, -1483385.8, 66799.945, 0.0, 5.0340524, 4.971351 
5.99746e+2, 1.4678912e+2, -1437918.0, -1531805.4, -4423.671, 0.0074721645, 0.0061716195, -1437710.0, 63755.637, 0.0, 5.032797, 4.9716377 
5.997095e+2, 1.5176044e+2, -1392660.3, -1484662.6, -4479.524, 0.007249981, 0.0013381351, -1392442.6, 60303.22, 0.0, 5.031543, 4.9716353 
5.996731e+2, 1.5673177e+2, -1348743.4, -1440352.5, -4564.5337, 0.007025023, -0.0030134423, -1348516.5, 55509.7, 0.0, 5.0302887, 4.9706793 
5.9963566e+2, 1.6170013e+2, -1309675.4, -1406437.5, -6056.6953, 0.0069936747, -0.0002742364, -1309297.8, 46038.527, 0.0, 5.0290627, 4.966226 
5.9959716e+2, 1.6666658e+2, -1263839.1, -1358511.9, -6287.4824, 0.0075519243, -0.001613306, -1263423.5, 43243.26, 0.0, 5.027876, 4.966414 
5.995586e+2, 1.7163305e+2, -1218260.8, -1311133.1, -6368.3296, 0.008117582, -0.0029054356, -1217826.0, 40170.9, 0.0, 5.026685, 4.966414 
5.9952e+2, 1.7659952e+2, -1173777.6, -1266084.4, -6410.25, 0.008658566, -0.003811085, -1173334.5, 35992.613, 0.0, 5.0254917, 4.965626 
5.994807e+2, 1.8156333e+2, -1133869.0, -1230858.3, -7483.2876, 0.0076323454, 0.0028126913, -1133295.0, 27386.676, 0.0, 5.0243034, 4.961512 
5.9944016e+2, 1.8652497e+2, -1087518.0, -1181979.9, -7660.0337, 0.004412019, -0.001914873, -1086900.9, 25153.58, 0.0, 5.0231194, 4.961977 
5.993997e+2, 1.9148661e+2, -1041806.94, -1134468.5, -7658.4277, 0.0011544193, -0.007137627, -1041178.25, 22248.871, 0.0, 5.02193, 4.9619775 
5.993591e+2, 1.9644825e+2, -996980.0, -1088860.4, -7641.6553, -0.0021286486, -0.012050745, -996348.8, 18450.932, 0.0, 5.020736, 4.961327 
5.993186e+2, 2.01407e+2, -959241.3, -1058931.1, -7802.963, -0.0040107975, -0.005670532, -958634.25, 7569.8027, 0.0, 5.0196033, 4.955296 
5.9927785e+2, 2.0636362e+2, -912788.7, -1010405.3, -7869.5615, -0.0055621658, 0.0027826866, -912158.3, 5477.8184, 0.0, 5.0185127, 4.9555492 
5.992371e+2, 2.1132031e+2, -866718.8, -962614.94, -7839.9395, -0.0074368617, 0.011587928, -866082.06, 2985.631, 0.0, 5.0174007, 4.955558 
5.991963e+2, 2.1627702e+2, -821342.1, -916283.3, -7788.295, -0.00944988, 0.020629684, -820707.5, -208.44566, 0.0, 5.0162725, 4.955067 
5.991555e+2, 2.2123079e+2, -781272.2, -881648.75, -8029.2544, -0.011390304, 0.034614466, -780634.0, -8679.158, 0.0, 5.015146, 4.950552 
5.991144e+2, 2.2618039e+2, -733694.3, -830665.6, -8498.331, -0.008276027, 0.012698256, -732955.1, -9514.933, 0.0, 5.014031, 4.951613 
5.990734e+2, 2.3112984e+2, -687544.7, -782777.25, -8646.562, -0.00452177, -0.01237391, -686766.0, -11839.346, 0.0, 5.012902, 4.9516225 
5.990324e+2, 2.3607932e+2, -642065.9, -736337.25, -8770.65, -0.0008821482, -0.03729292, -641256.8, -14844.014, 0.0, 5.0117574, 4.95113 
5.9899163e+2, 2.4102654e+2, -605186.0, -709133.25, -8024.487, 0.000601246, -0.037965745, -604570.2, -26644.848, 0.0, 5.010618, 4.9439588 
5.9895086e+2, 2.4597386e+2, -558035.7, -658459.0, -7766.2573, -0.0046010865, -0.016607182, -557438.6, -27989.344, 0.0, 5.0093584, 4.944929 
5.9891003e+2, 2.5092143e+2, -512248.38, -610640.75, -7467.445, -0.01034851, 0.004996435, -511684.88, -30713.234, 0.0, 5.0080595, 4.9449377 
5.988692e+2, 2.5586903e+2, -466729.0, -563393.25, -7130.7314, -0.016247064, 0.027095824, -466205.8, -33712.246, 0.0, 5.006745, 4.9447474 
5.98829e+2, 2.6081294e+2, -429613.8, -535119.7, -5866.634, -0.021888547, 0.05874306, -429288.6, -45240.313, 0.0, 5.005415, 4.9379196 
5.9879035e+2, 2.657509e+2, -380720.84, -480146.34, -5980.3047, -0.022319874, 0.03352579, -380362.4, -44713.543, 0.0, 5.00405, 4.9403863 
5.987518e+2, 2.706885e+2, -335008.1, -432337.47, -6227.48, -0.021860877, -0.00032753352, -334611.25, -47358.418, 0.0, 5.002674, 4.9403806 
5.987133e+2, 2.7562606e+2, -289331.7, -384648.7, -6464.408, -0.021418823, -0.034147125, -288895.28, -50038.457, 0.0, 5.001295, 4.940327 
5.986754e+2, 2.8055954e+2, -257929.63, -369440.25, -5406.96, -0.020775834, -0.043585725, -257668.06, -67164.484, 0.0, 4.9998617, 4.9288535 
5.986386e+2, 2.8549188e+2, -210673.72, -317019.53, -4912.1963, -0.018339105, -0.02753262, -210447.3, -68274.4, 0.0, 4.998252, 4.9304852 
5.9860194e+2, 2.904244e+2, -165482.78, -269297.78, -4466.428, -0.015596596, -0.011759017, -165290.98, -71449.65, 0.0, 4.996624, 4.9304824 
5.985652e+2, 2.953569e+2, -120249.43, -221549.95, -4010.1855, -0.012859406, 0.0037246281, -120090.93, -74580.7, 0.0, 4.9949975, 4.93048 
5.98529e+2, 3.0030793e+2, -52595.727, -87825.2, -2624.1504, -0.013557124, 0.031907205, -52401.336, -52401.336, 0.0, 4.993241, 4.97046 
5.984937e+2, 3.052848e+2, -48684.51, -67844.12, -1565.6558, -0.033524763, 0.02028096, -48557.414, -48557.414, 0.0, 4.9911094, 4.9785967 
5.984584e+2, 3.1026253e+2, -54613.51, -70392.87, -1542.0764, -0.057139993, 0.00124657, -54464.22, -54464.22, 0.0, 4.988848, 4.9786444 
5.9842294e+2, 3.1524011e+2, -60865.14, -73126.2, -1673.7233, -0.082350396, -0.020848706, -60640.77, -60640.77, 0.0, 4.9864526, 4.9786935 
6.0495734e+2, 1.2195131e+2, -1647595.1, -1743351.4, 1937.1512, -0.009485693, 0.0022242079, -1647555.9, 97318.74, 0.0, 5.041148, 4.978505 
6.0492253e+2, 1.2692563e+2, -1607525.3, -1705819.3, 270.3404, -0.006451015, -0.009715208, -1607524.5, 88602.54, 0.0, 5.0397024, 4.9754987 
6.048879e+2, 1.3190126e+2, -1562974.5, -1659093.5, 230.2247, -0.0012091032, -0.007664893, -1562974.0, 84392.9, 0.0, 5.0382557, 4.9754987 
6.048532e+2, 1.3687688e+2, -1520599.4, -1616901.3, 65.96644, 0.004034378, -0.0042731278, -1520599.4, 78007.445, 0.0, 5.0368104, 4.9739876 
6.0481703e+2, 1.4185016e+2, -1479602.0, -1577869.5, -1589.5151, 0.0073419427, 0.008654615, -1479576.3, 70292.54, 0.0, 5.03541, 4.971326 
6.047793e+2, 1.4682147e+2, -1434195.6, -1530016.6, -1741.5525, 0.0073745316, 0.0045769718, -1434164.0, 66985.02, 0.0, 5.034076, 4.971608 
6.047416e+2, 1.5179276e+2, -1389178.3, -1482995.5, -1788.0333, 0.0072724386, 0.00008755743, -1389144.1, 63285.16, 0.0, 5.0327435, 4.9716067 
6.0470384e+2, 1.5676408e+2, -1345504.6, -1438816.8, -1868.9043, 0.007162078, -0.003937311, -1345467.3, 58242.492, 0.0, 5.031411, 4.970647 
6.0466516e+2, 1.6173245e+2, -1306600.4, -1404893.1, -3261.7356, 0.0070220367, -0.00054835674, -1306492.3, 48527.16, 0.0, 5.0301104, 4.966234 
6.046253e+2, 1.6669898e+2, -1260988.4, -1357098.3, -3403.1248, 0.007213306, -0.00082863425, -1260868.1, 45481.164, 0.0, 5.028853, 4.966415 
6.045855e+2, 1.7166552e+2, -1215612.4, -1309823.3, -3404.516, 0.0074320207, -0.001101743, -1215489.5, 42189.344, 0.0, 5.0275955, 4.9664145 
6.0454565e+2, 1.7663205e+2, -1171321.1, -1264873.5, -3365.5063, 0.007645619, -0.0010328584, -1171200.1, 37808.375, 0.0, 5.026338, 4.965626 
6.045052e+2, 1.8159579e+2, -1131596.0, -1229715.3, -4404.119, 0.0068784254, 0.005021344, -1131398.8, 28965.086, 0.0, 5.025084, 4.961521 
6.044636e+2, 1.8655716e+2, -1085438.0, -1181027.6, -4631.879, 0.0050827167, -0.0017973641, -1085214.1, 26525.22, 0.0, 5.023855, 4.9619455 
6.04422e+2, 1.9151853e+2, -1039841.5, -1133580.4, -4707.4004, 0.0032807314, -0.009057967, -1039605.7, 23509.03, 0.0, 5.022629, 4.9619446 
6.0438037e+2, 1.9647989e+2, -995112.56, -1088028.9, -4765.199, 0.0014615129, -0.01603452, -994868.8, 19621.244, 0.0, 5.0214024, 4.9612927 
6.043387e+2, 2.014386e+2, -957344.2, -1057582.6, -4850.247, 0.000006780822, -0.009968474, -957110.0, 8784.204, 0.0, 5.020179, 4.95548 
6.042966e+2, 2.0639555e+2, -911344.6, -1009087.5, -4692.3687, -0.0027686025, -0.00019662676, -911119.9, 6201.8496, 0.0, 5.0188932, 4.9558144 
6.0425454e+2, 2.1135256e+2, -865788.6, -961540.9, -4437.809, -0.0057686716, 0.009504305, -865583.4, 3165.5073, 0.0, 5.0176005, 4.9558244 
6.042124e+2, 2.1630956e+2, -820873.7, -915428.4, -4168.454, -0.008780895, 0.019098626, -820690.3, -514.0773, 0.0, 5.0163074, 4.955335 
6.0417026e+2, 2.2126335e+2, -781532.5, -881754.6, -4228.619, -0.010988567, 0.031555694, -781354.4, -9722.825, 0.0, 5.0150585, 4.950549 
6.041282e+2, 2.2621284e+2, -734165.3, -831461.2, -4749.699, -0.008076132, 0.011598642, -733934.0, -10813.535, 0.0, 5.0139923, 4.9513545 
6.040861e+2, 2.3116222e+2, -687794.0, -783476.3, -5055.6294, -0.0045827497, -0.010822404, -687527.6, -12917.337, 0.0, 5.0129414, 4.9513617 
6.04044e+2, 2.3611157e+2, -642049.9, -736925.2, -5342.2583, -0.0010770835, -0.033407174, -641750.0, -15649.989, 0.0, 5.0118895, 4.950867 
6.040021e+2, 2.4105878e+2, -604498.8, -708099.75, -4670.506, 0.00046841742, -0.03329148, -604288.7, -26674.82, 0.0, 5.0107317, 4.94426 
6.0396016e+2, 2.4600612e+2, -557531.4, -657200.06, -4334.7524, -0.0038028704, -0.015325747, -557343.25, -28208.455, 0.0, 5.0093455, 4.9453654 
6.039181e+2, 2.5095364e+2, -511989.4, -609476.4, -3993.002, -0.008373132, 0.002231804, -511826.16, -31171.83, 0.0, 5.0079517, 4.9453816 
6.03876e+2, 2.5590122e+2, -466667.16, -562300.1, -3647.4656, -0.012930165, 0.019800741, -466528.25, -34354.55, 0.0, 5.0065584, 4.9452 
6.038345e+2, 2.6084507e+2, -430189.4, -534890.1, -2270.4573, -0.01729417, 0.046982393, -430140.2, -46412.92, 0.0, 5.0051184, 4.93812 
6.037944e+2, 2.657834e+2, -382250.47, -481264.84, -2285.0256, -0.01838621, 0.026951183, -382197.78, -46870.04, 0.0, 5.003599, 4.9401894 
6.037542e+2, 2.7072138e+2, -336941.13, -433626.3, -2479.5557, -0.018897166, 0.0001777342, -336877.56, -49946.438, 0.0, 5.002079, 4.9401855 
6.037141e+2, 2.7565932e+2, -291653.6, -386102.97, -2678.7551, -0.019420266, -0.026493661, -291577.7, -53043.297, 0.0, 5.000559, 4.940134 
6.0367465e+2, 2.805931e+2, -260064.52, -369747.13, -1583.4211, -0.01956751, -0.03211854, -260041.67, -69860.914, 0.0, 4.99899, 4.9291143 
6.036362e+2, 2.855254e+2, -212778.14, -317045.63, -1278.8887, -0.017429052, -0.019550344, -212762.45, -70914.17, 0.0, 4.9973335, 4.9308662 
6.035979e+2, 2.9045796e+2, -167661.14, -269368.13, -1074.1749, -0.014979342, -0.00681008, -167649.8, -74135.766, 0.0, 4.995675, 4.9308605 
6.0355955e+2, 2.9539055e+2, -122508.82, -221663.95, -864.1725, -0.012556629, 0.0059631253, -122501.29, -77321.38, 0.0, 4.994017, 4.930855 
6.0352165e+2, 3.0034146e+2, -55056.203, -88915.68, 240.8937, -0.012908533, 0.0313636, -55054.49, -55054.49, 0.0, 4.99232, 4.9704695 
6.0348463e+2, 3.0531734e+2, -51352.207, -69807.73, 994.392, -0.029820323, 0.012472342, -51298.785, -51298.785, 0.0, 4.9902215, 4.9783096 
6.034475e+2, 3.102939e+2, -57203.72, -72586.164, 882.204, -0.04880383, -0.014053026, -57153.29, -57153.29, 0.0, 4.98803, 4.978266 
6.034104e+2, 3.1527027e+2, -63036.887, -75391.69, 823.0946, -0.06771386, -0.042692706, -62982.293, -62982.293, 0.0, 4.985834, 4.978221 
6.0999846e+2, 1.2198471e+2, -1648347.3, -1744928.6, 708.5245, -0.008977548, -0.009957959, -1648342.0, 96205.72, 0.0, 5.0411496, 4.977989 
6.099623e+2, 1.2696129e+2, -1607567.5, -1705951.0, -822.9282, -0.004945606, 0.0013270468, -1607560.6, 88217.516, 0.0, 5.0397053, 4.975457 
6.099261e+2, 1.3193634e+2, -1563015.9, -1659225.6, -862.35754, -0.0004913588, -0.002046763, -1563008.1, 84015.47, 0.0, 5.0382595, 4.9754567 
6.0988986e+2, 1.3691136e+2, -1520646.6, -1617048.3, -1035.0162, 0.0039528115, -0.0040746033, -1520635.5, 77633.805, 0.0, 5.036814, 4.9739404 
6.0985225e+2, 1.4188428e+2, -1479640.3, -1578000.1, -2612.5022, 0.0068828, 0.0056526936, -1479570.9, 69963.95, 0.0, 5.035414, 4.9712844 
6.0981315e+2, 1.4685562e+2, -1434243.1, -1530165.9, -2750.1152, 0.0071016117, 0.0022339902, -1434164.4, 66650.32, 0.0, 5.0340805, 4.9715605 
6.097742e+2, 1.5182695e+2, -1389226.0, -1483144.3, -2796.2566, 0.007192786, -0.0015178747, -1389142.8, 62951.813, 0.0, 5.0327477, 4.9715586 
6.0973513e+2, 1.5679826e+2, -1345559.3, -1438979.5, -2883.6912, 0.007269504, -0.004801049, -1345470.3, 57904.406, 0.0, 5.0314155, 4.9705944 
6.096951e+2, 1.6176672e+2, -1306558.4, -1404850.0, -4225.3135, 0.0069649536, -0.00050974893, -1306377.0, 48306.58, 0.0, 5.030114, 4.966251 
6.0965395e+2, 1.6673335e+2, -1260953.4, -1357067.3, -4356.216, 0.006545498, 0.00026163657, -1260756.4, 45255.863, 0.0, 5.0288563, 4.966428 
6.096128e+2, 1.7170002e+2, -1215578.5, -1309792.3, -4356.685, 0.0061435946, 0.0010553133, -1215377.5, 41963.22, 0.0, 5.027599, 4.9664273 
6.0957164e+2, 1.7666666e+2, -1171289.5, -1264845.3, -4317.787, 0.0057252254, 0.002208387, -1171090.6, 37578.496, 0.0, 5.026341, 4.965638 
6.095299e+2, 1.8163036e+2, -1131625.5, -1229849.3, -5364.2407, 0.005246814, 0.0078085396, -1131333.4, 28691.621, 0.0, 5.0250916, 4.961476 
6.094873e+2, 1.8659145e+2, -1085529.6, -1181287.3, -5565.4214, 0.005408665, -0.001039803, -1085207.3, 26196.307, 0.0, 5.0238614, 4.9618587 
6.094446e+2, 1.9155253e+2, -1039941.1, -1133842.1, -5636.593, 0.005558762, -0.010187975, -1039604.0, 23178.064, 0.0, 5.0226326, 4.961858 
6.0940206e+2, 1.9651364e+2, -995220.1, -1088292.8, -5689.816, 0.005657603, -0.018973006, -994873.56, 19286.81, 0.0, 5.021404, 4.961206 
6.093592e+2, 2.0147239e+2, -956980.7, -1056845.9, -5809.309, 0.004717987, -0.0132091325, -956643.94, 8920.167, 0.0, 5.020183, 4.9557323 
6.093157e+2, 2.0642966e+2, -910864.25, -1008077.4, -5667.564, 0.00064824545, -0.0033840367, -910535.0, 6451.3213, 0.0, 5.018895, 4.9561625 
6.092722e+2, 2.1138701e+2, -865324.5, -960540.0, -5404.734, -0.0036604793, 0.006307212, -865018.7, 3389.4377, 0.0, 5.0175986, 4.9561715 
6.092286e+2, 2.1634434e+2, -820425.6, -914436.56, -5127.0127, -0.008021193, 0.016031291, -820146.9, -316.87122, 0.0, 5.016302, 4.955682 
6.091852e+2, 2.2129822e+2, -781618.44, -882060.8, -5140.0376, -0.010732321, 0.027293311, -781356.06, -10072.028, 0.0, 5.0150733, 4.9504423 
6.09142e+2, 2.262477e+2, -734576.6, -832478.1, -5564.505, -0.008209439, 0.010560586, -734261.4, -11484.886, 0.0, 5.014006, 4.951007 
6.090988e+2, 2.3119713e+2, -688234.2, -784504.4, -5851.9517, -0.005385511, -0.007445852, -687879.75, -13610.53, 0.0, 5.012946, 4.9510136 
6.090556e+2, 2.3614657e+2, -642518.9, -737964.4, -6120.02, -0.0026262156, -0.025365585, -642128.06, -16366.275, 0.0, 5.0118856, 4.9505186 
6.090125e+2, 2.4109389e+2, -603998.0, -707015.06, -5695.4316, -0.0014597445, -0.023447065, -603684.1, -26407.873, 0.0, 5.010733, 4.9446387 
6.089693e+2, 2.4604104e+2, -556902.44, -655838.2, -5407.8994, -0.003991268, -0.011836754, -556607.75, -27812.459, 0.0, 5.0093484, 4.9458437 
6.08926e+2, 2.5098836e+2, -511379.0, -608139.44, -5047.0386, -0.0066669355, -0.00085224805, -511116.47, -30803.393, 0.0, 5.007952, 4.945855 
6.088827e+2, 2.559357e+2, -466075.13, -560987.9, -4682.36, -0.009370973, 0.010278356, -465844.7, -34013.99, 0.0, 5.0065565, 4.945668 
6.0884005e+2, 2.6087943e+2, -429887.66, -534212.06, -3436.959, -0.01208963, 0.031766623, -429774.56, -46391.168, 0.0, 5.005115, 4.938363 
6.0879827e+2, 2.658183e+2, -382470.47, -481787.75, -3475.678, -0.013809213, 0.018410787, -382349.0, -47367.08, 0.0, 5.003599, 4.9400196 
6.0875654e+2, 2.707569e+2, -337152.8, -434160.03, -3649.019, -0.0153507525, 0.00047336743, -337015.75, -50432.95, 0.0, 5.0020823, 4.940011 
6.0871476e+2, 2.756955e+2, -291857.0, -386647.47, -3827.0417, -0.016929545, -0.017442867, -291702.72, -53519.02, 0.0, 5.000566, 4.9399543 
6.0867363e+2, 2.8062966e+2, -259704.72, -369032.6, -2830.645, -0.017852789, -0.018421317, -259631.48, -69802.91, 0.0, 4.9990015, 4.929366 
6.086335e+2, 2.855619e+2, -212380.13, -316219.16, -2563.3984, -0.016174892, -0.009549237, -212316.88, -70822.15, 0.0, 4.9973416, 4.931164 
6.085935e+2, 2.9049435e+2, -167278.78, -268539.5, -2350.7715, -0.014255093, -0.00033741893, -167224.25, -74065.54, 0.0, 4.9956784, 4.9311614 
6.0855347e+2, 2.954268e+2, -122142.11, -220833.14, -2132.8667, -0.012358951, 0.008875898, -122096.04, -77273.23, 0.0, 4.994015, 4.931159 
6.085139e+2, 3.003776e+2, -55022.5, -88694.695, -1148.1442, -0.0121340705, 0.03053313, -54983.4, -54983.4, 0.0, 4.992292, 4.970566 
6.084752e+2, 3.0535272e+2, -51830.22, -70479.375, -564.44385, -0.02511097, 0.0054089148, -51813.152, -51813.152, 0.0, 4.9901524, 4.978087 
6.084364e+2, 3.1032836e+2, -57729.254, -73144.23, -615.06244, -0.040629767, -0.027850052, -57704.75, -57704.75, 0.0, 4.987935, 4.978084 
6.083975e+2, 3.1530386e+2, -63609.918, -75836.14, -612.60645, -0.056620143, -0.06285812, -63579.3, -63579.3, 0.0, 4.9857135, 4.9780803 
6.150396e+2, 1.22018754e+2, -1648922.9, -1746147.0, -501.67947, -0.007993438, -0.015614937, -1648920.4, 95294.21, 0.0, 5.0411515, 4.977591 
6.1500204e+2, 1.2699693e+2, -1607609.4, -1706083.3, -1915.8706, -0.0034589774, 0.012322028, -1607572.1, 87857.086, 0.0, 5.039709, 4.975415 
6.149643e+2, 1.319714e+2, -1563056.9, -1659358.0, -1954.6134, 0.00020926175, 0.003507391, -1563017.3, 83663.14, 0.0, 5.0382633, 4.9754148 
6.149266e+2, 1.3694584e+2, -1520693.6, -1617195.9, -2135.815, 0.003855843, -0.00395672, -1520646.4, 77285.5, 0.0, 5.0368185, 4.973893 
6.148875e+2, 1.419184e+2, -1479683.3, -1578142.0, -3634.7473, 0.006419899, 0.0026779575, -1479549.3, 69651.52, 0.0, 5.035419, 4.971239 
6.148471e+2, 1.4688978e+2, -1434290.4, -1530315.5, -3758.877, 0.0068261423, -0.00007653563, -1434143.4, 66336.91, 0.0, 5.0340853, 4.9715123 
6.148068e+2, 1.5186112e+2, -1389273.5, -1483293.5, -3804.6785, 0.0071108947, -0.003103632, -1389119.8, 62640.17, 0.0, 5.032752, 4.971511 
6.1476636e+2, 1.5683246e+2, -1345613.5, -1439142.8, -3898.7546, 0.007375012, -0.0056578796, -1345451.3, 57588.348, 0.0, 5.0314198, 4.9705415 
6.1472505e+2, 1.61801e+2, -1306519.5, -1404814.8, -5188.515, 0.0068975743, -0.00044300137, -1306246.4, 48101.395, 0.0, 5.030118, 4.9662647 
6.1468256e+2, 1.6676775e+2, -1260918.1, -1357036.5, -5309.622, 0.0058567272, 0.0013562492, -1260625.8, 45049.477, 0.0, 5.02886, 4.96644 
6.1464006e+2, 1.7173451e+2, -1215544.4, -1309761.6, -5309.1685, 0.0048249685, 0.0031863467, -1215246.1, 41756.36, 0.0, 5.027602, 4.96644 
6.145977e+2, 1.7670128e+2, -1171257.8, -1264817.4, -5270.4097, 0.0037653951, 0.0053932737, -1170961.8, 37368.027, 0.0, 5.026344, 4.96565 
6.145547e+2, 1.8166493e+2, -1131678.4, -1230034.0, -6318.756, 0.0036254693, 0.0107037155, -1131274.1, 28412.06, 0.0, 5.0250993, 4.9614134 
6.14511e+2, 1.8662575e+2, -1085621.8, -1181547.1, -6500.361, 0.005747807, -0.00022117555, -1085183.3, 25884.611, 0.0, 5.023868, 4.961771 
6.144673e+2, 1.9158657e+2, -1040041.2, -1134104.1, -6567.183, 0.007848082, -0.011355165, -1039584.9, 22864.521, 0.0, 5.022637, 4.96177 
6.1442363e+2, 1.9654739e+2, -995328.06, -1088556.8, -6615.8164, 0.009863082, -0.02204683, -994860.94, 18969.826, 0.0, 5.0214057, 4.961118 
6.1437964e+2, 2.0150617e+2, -956635.7, -1056149.6, -6760.218, 0.0093526635, -0.016226588, -956178.56, 9055.166, 0.0, 5.020188, 4.955971 
6.1433476e+2, 2.0646378e+2, -910384.44, -1007067.9, -6644.5103, 0.0039654244, -0.00647294, -909929.94, 6720.6675, 0.0, 5.018897, 4.956508 
6.142898e+2, 2.1142146e+2, -864860.9, -959539.75, -6373.414, -0.0016487146, 0.002977827, -864433.75, 3633.4297, 0.0, 5.017597, 4.956517 
6.142449e+2, 2.1637914e+2, -819978.06, -913445.4, -6087.3296, -0.0073546837, 0.012601097, -819583.25, -99.598175, 0.0, 5.016297, 4.9560266 
6.142001e+2, 2.2133312e+2, -781842.0, -882669.4, -6017.6016, -0.010644389, 0.0236858, -781484.1, -10547.867, 0.0, 5.0150886, 4.9502306 
6.141558e+2, 2.262826e+2, -734990.06, -833495.1, -6382.1387, -0.00849973, 0.010163595, -734578.25, -12146.111, 0.0, 5.0140195, 4.9506555 
6.141114e+2, 2.3123206e+2, -688676.5, -785532.44, -6651.103, -0.0062691853, -0.0039064465, -688221.9, -14293.825, 0.0, 5.0129504, 4.9506617 
6.1406714e+2, 2.3618156e+2, -642989.94, -739003.5, -6900.612, -0.004180271, -0.017638855, -642496.56, -17072.969, 0.0, 5.0118814, 4.950166 
6.140229e+2, 2.4112903e+2, -603621.4, -706208.25, -6695.4424, -0.0035300713, -0.013120714, -603186.25, -26248.0, 0.0, 5.010735, 4.9449196 
6.1397845e+2, 2.4607602e+2, -556274.25, -654477.56, -6477.036, -0.004273572, -0.007935205, -555848.94, -27393.494, 0.0, 5.0093517, 4.946317 
6.1393404e+2, 2.5102308e+2, -510769.28, -606803.75, -6097.075, -0.0049157464, -0.0040897406, -510383.75, -30412.076, 0.0, 5.007953, 4.9463234 
6.138895e+2, 2.5597018e+2, -465483.7, -559676.8, -5713.2637, -0.0056280317, 0.00003711544, -465138.4, -33650.727, 0.0, 5.0065546, 4.9461317 
6.138455e+2, 2.609138e+2, -429797.97, -534014.3, -4597.4395, -0.00696596, 0.017045062, -429595.53, -46556.23, 0.0, 5.005112, 4.938438 
6.1380213e+2, 2.658532e+2, -382690.5, -482311.84, -4660.583, -0.009374062, 0.010673971, -382472.94, -47837.13, 0.0, 5.003599, 4.9398437 
6.137588e+2, 2.7079245e+2, -337364.47, -434694.9, -4812.734, -0.011814196, 0.0009578442, -337127.1, -50892.684, 0.0, 5.002086, 4.93983 
6.1371547e+2, 2.7573162e+2, -292060.25, -387193.1, -4969.5786, -0.014316846, -0.008817267, -291801.38, -53968.21, 0.0, 5.0005736, 4.9397683 
6.136727e+2, 2.8066623e+2, -259468.1, -368602.47, -4072.4446, -0.016116695, -0.0047983937, -259316.34, -69839.91, 0.0, 4.9990134, 4.9295177 
6.1363083e+2, 2.8559837e+2, -211982.25, -315393.16, -3851.252, -0.01499159, 0.0006483108, -211839.02, -70697.84, 0.0, 4.9973507, 4.931458 
6.135891e+2, 2.905307e+2, -166896.53, -267711.3, -3630.715, -0.01357132, 0.0060568196, -166765.95, -73962.46, 0.0, 4.9956822, 4.9314594 
6.135473e+2, 2.9546306e+2, -121775.46, -220002.73, -3404.9116, -0.012171405, 0.011435731, -121657.58, -77191.64, 0.0, 4.994014, 4.9314604 
6.1350614e+2, 3.0041364e+2, -55064.92, -88635.57, -2601.6174, -0.011078213, 0.028840913, -54864.504, -54864.504, 0.0, 4.9922633, 4.9705944 
6.134657e+2, 3.053879e+2, -52316.74, -71141.95, -2183.389, -0.020745134, -0.0037782036, -52066.82, -52066.82, 0.0, 4.9900837, 4.9778504 
6.134251e+2, 3.103626e+2, -58263.305, -73693.18, -2172.4343, -0.033612117, -0.04484223, -57963.273, -57963.273, 0.0, 4.9878407, 4.977888 
6.133843e+2, 3.1533727e+2, -64191.484, -76271.46, -2108.4119, -0.047494594, -0.087288566, -63834.063, -63834.063, 0.0, 4.985593, 4.9779253 
6.2008065e+2, 1.2205369e+2, -1649626.3, -1746910.6, -563.4094, -0.0073959893, -0.014432821, -1649623.0, 94249.75, 0.0, 5.041008, 4.97741 
6.2004167e+2, 1.2703256e+2, -1607984.8, -1706378.4, -1929.1241, -0.0022250803, 0.020995853, -1607946.9, 87133.69, 0.0, 5.039608, 4.9753675 
6.2000245e+2, 1.3200656e+2, -1563341.4, -1659612.5, -2016.2126, 0.0007478156, 0.007988274, -1563299.1, 83037.3, 0.0, 5.038192, 4.9753656 
6.1996317e+2, 1.3698052e+2, -1520909.8, -1617432.9, -2254.5247, 0.0037026864, -0.003754958, -1520857.1, 76735.445, 0.0, 5.0367723, 4.9738383 
6.199227e+2, 1.4195277e+2, -1479854.9, -1578326.6, -3704.7754, 0.005975844, 0.0004780121, -1479715.8, 69148.79, 0.0, 5.03538, 4.9711976 
6.19881e+2, 1.4692414e+2, -1434502.4, -1530514.8, -3814.4324, 0.006592043, -0.0018352635, -1434351.1, 65792.88, 0.0, 5.0340314, 4.9714727 
6.198393e+2, 1.518955e+2, -1389532.0, -1483513.8, -3856.8962, 0.007097198, -0.004391485, -1389374.0, 62049.47, 0.0, 5.0326824, 4.971472 
6.1979765e+2, 1.5686682e+2, -1345928.3, -1439399.9, -3953.713, 0.0075797522, -0.0064764535, -1345761.3, 56941.75, 0.0, 5.031333, 4.970498 
6.1975497e+2, 1.6183542e+2, -1306774.4, -1404884.1, -5172.053, 0.006954807, -0.00053280295, -1306502.5, 47508.1, 0.0, 5.0300183, 4.966291 
6.1971116e+2, 1.6680227e+2, -1261188.9, -1357114.6, -5261.643, 0.005302402, 0.0021982824, -1260901.3, 44435.688, 0.0, 5.028754, 4.966466 
6.196674e+2, 1.7176913e+2, -1215841.1, -1309854.3, -5239.6704, 0.0036723746, 0.004933926, -1215550.0, 41113.03, 0.0, 5.027487, 4.9664655 
6.196236e+2, 1.7673601e+2, -1171592.4, -1264932.1, -5180.5317, 0.0020248124, 0.008028773, -1171305.6, 36683.51, 0.0, 5.026216, 4.9656734 
6.1957943e+2, 1.8169963e+2, -1132130.3, -1230424.3, -6209.939, 0.0022380624, 0.013244005, -1131739.4, 27606.566, 0.0, 5.0249753, 4.9613404 
6.1953473e+2, 1.8666019e+2, -1086011.0, -1181928.8, -6406.964, 0.0061210236, 0.00059461617, -1085584.9, 25145.695, 0.0, 5.0237703, 4.9616876 
6.1948997e+2, 1.9162075e+2, -1040375.2, -1134451.5, -6493.5117, 0.010005785, -0.012341576, -1039929.06, 22186.04, 0.0, 5.022558, 4.9616885 
6.1944526e+2, 1.9658133e+2, -995630.94, -1088880.4, -6554.23, 0.013812679, -0.024889154, -995172.5, 18326.941, 0.0, 5.021338, 4.9610386 
6.194001e+2, 2.0154014e+2, -956552.1, -1055578.5, -6721.5596, 0.013619812, -0.01883134, -956097.94, 8803.587, 0.0, 5.0201125, 4.956199 
6.193538e+2, 2.0649807e+2, -910096.3, -1006177.8, -6748.3486, 0.006990377, -0.009292246, -909624.6, 6688.903, 0.0, 5.0188446, 4.9568357 
6.1930746e+2, 2.1145602e+2, -864521.75, -958641.7, -6589.828, 0.00024685863, -0.0004500305, -864062.6, 3662.7683, 0.0, 5.0175624, 4.9568405 
6.19261e+2, 2.1641396e+2, -819619.3, -912551.3, -6413.6577, -0.006551824, 0.008522183, -819178.75, -41.5599, 0.0, 5.01627, 4.9563465 
6.192151e+2, 2.2136803e+2, -782308.8, -883535.5, -6243.788, -0.010330775, 0.02016746, -781925.2, -11336.775, 0.0, 5.0150504, 4.949952 
6.191696e+2, 2.2631755e+2, -735700.9, -834547.3, -6470.604, -0.008604898, 0.009987298, -735279.06, -13191.8955, 0.0, 5.01391, 4.950343 
6.191242e+2, 2.3126708e+2, -689638.94, -786690.1, -6597.104, -0.0068718037, -0.0006776473, -689192.5, -15606.55, 0.0, 5.012752, 4.9503508 
6.190787e+2, 2.3621665e+2, -644244.2, -740280.7, -6689.2593, -0.0052780416, -0.011022114, -643780.5, -18696.123, 0.0, 5.0115805, 4.9498568 
6.190332e+2, 2.4116427e+2, -604423.2, -706139.56, -6546.718, -0.0051949113, -0.0035050039, -604003.56, -27404.506, 0.0, 5.01037, 4.945106 
6.1898756e+2, 2.4611108e+2, -556538.94, -653609.5, -6628.2417, -0.0043873396, -0.004097672, -556088.44, -27974.076, 0.0, 5.009062, 4.946746 
6.189419e+2, 2.510579e+2, -510821.16, -605851.8, -6465.755, -0.0031297528, -0.0072205476, -510383.25, -30754.008, 0.0, 5.0077386, 4.9467497 
6.1889625e+2, 2.5600475e+2, -465352.34, -558650.44, -6279.285, -0.001921832, -0.010104744, -464931.63, -33787.676, 0.0, 5.0064073, 4.946555 
6.188509e+2, 2.609483e+2, -430148.56, -534355.7, -5373.489, -0.0022149794, 0.0037262265, -429872.22, -47177.766, 0.0, 5.005022, 4.93836 
6.1880594e+2, 2.6588824e+2, -383009.2, -482825.88, -5381.404, -0.0052396366, 0.004049225, -382719.9, -48430.86, 0.0, 5.0035553, 4.9396834 
6.1876106e+2, 2.7082804e+2, -337586.22, -435167.56, -5425.2827, -0.008313473, 0.0015400569, -337285.5, -51399.895, 0.0, 5.002076, 4.9396687 
6.187161e+2, 2.757678e+2, -292221.16, -387637.03, -5459.565, -0.011460986, -0.0009906654, -291909.78, -54427.42, 0.0, 5.0005865, 4.9396057 
6.186717e+2, 2.807028e+2, -259308.53, -368392.2, -4558.9624, -0.014115335, 0.008253123, -259118.33, -69994.445, 0.0, 4.9990425, 4.9295793 
6.1862814e+2, 2.8563482e+2, -211517.22, -314557.13, -4471.1943, -0.013660625, 0.010580351, -211323.56, -70536.25, 0.0, 4.9973927, 4.931735 
6.1858463e+2, 2.9056704e+2, -166402.77, -266861.44, -4354.1914, -0.012765148, 0.012012469, -166214.4, -73766.13, 0.0, 4.9957337, 4.931739 
6.185412e+2, 2.9549927e+2, -121258.59, -219138.08, -4234.855, -0.011884737, 0.013385193, -121075.7, -76966.38, 0.0, 4.9940743, 4.931743 
6.184984e+2, 3.0044958e+2, -54915.984, -88664.64, -3778.4768, -0.009711774, 0.026245894, -54498.125, -54498.125, 0.0, 4.9923387, 4.9705386 
6.184561e+2, 3.054229e+2, -52366.668, -71741.7, -3808.1677, -0.016514992, -0.0144577185, -51645.047, -51645.047, 0.0, 4.990199, 4.977548 
6.1841357e+2, 3.1039664e+2, -58422.984, -74257.04, -4204.6113, -0.027023997, -0.06394124, -57375.746, -57375.746, 0.0, 4.9879208, 4.977604 
6.183709e+2, 3.1537032e+2, -64710.617, -76891.32, -4692.312, -0.038851425, -0.11467634, -63112.656, -63112.656, 0.0, 4.98555, 4.977662 
6.251219e+2, 1.2209339e+2, -1644103.3, -1742435.3, 2073.7358, -0.010702343, -0.005936537, -1644059.5, 99425.63, 0.0, 5.0425053, 4.9781394 
6.250818e+2, 1.2707093e+2, -1603830.5, -1704453.8, 640.72516, -0.002507026, 0.017079478, -1603826.4, 90879.13, 0.0, 5.041051, 4.975288 
6.250411e+2, 1.3204506e+2, -1559352.8, -1657781.9, 542.21075, 0.00033527755, 0.0066916524, -1559349.8, 86610.09, 0.0, 5.039583, 4.9752846 
6.250004e+2, 1.3701914e+2, -1517073.5, -1615698.9, 289.08688, 0.0031750589, -0.0025192455, -1517072.6, 80141.805, 0.0, 5.038117, 4.973751 
6.2495846e+2, 1.4199147e+2, -1476034.4, -1576369.0, -1105.7598, 0.0055461186, 0.0030359414, -1476022.1, 72463.68, 0.0, 5.03667, 4.971213 
6.249154e+2, 1.4696273e+2, -1430928.4, -1528671.8, -1169.9834, 0.006511052, 0.00004229908, -1430914.4, 68851.984, 0.0, 5.035239, 4.9714932 
6.248724e+2, 1.5193401e+2, -1386207.4, -1481797.6, -1174.6964, 0.0073775426, -0.0032199316, -1386192.9, 64853.973, 0.0, 5.033808, 4.9714923 
6.2482935e+2, 1.5690528e+2, -1342854.5, -1437822.5, -1238.7477, 0.008222299, -0.006017872, -1342838.4, 59489.168, 0.0, 5.0323787, 4.9705133 
6.2478536e+2, 1.618738e+2, -1303737.4, -1403001.6, -2333.0427, 0.0077963844, -0.0009856096, -1303682.6, 49952.746, 0.0, 5.030983, 4.9664507 
6.2474024e+2, 1.6684072e+2, -1258414.3, -1355357.3, -2310.9421, 0.0059569934, 0.001051867, -1258359.1, 46601.145, 0.0, 5.0296307, 4.9666295 
6.2469506e+2, 1.7180763e+2, -1213321.6, -1308227.0, -2189.2168, 0.0041391393, 0.0031199106, -1213271.3, 43013.875, 0.0, 5.0282784, 4.9666276 
6.2465e+2, 1.7677453e+2, -1169316.6, -1263432.5, -2028.9231, 0.0023184116, 0.0055392347, -1169273.0, 38336.94, 0.0, 5.0269265, 4.9658337 
6.2460446e+2, 1.8173824e+2, -1130259.8, -1229540.1, -2899.6655, 0.0024081198, 0.0110674165, -1130175.1, 28790.732, 0.0, 5.0256333, 4.961319 
6.245585e+2, 1.8669896e+2, -1084218.3, -1181163.8, -3053.657, 0.00595562, 0.001160947, -1084122.1, 26228.021, 0.0, 5.024421, 4.9616303 
6.2451255e+2, 1.916597e+2, -1038580.25, -1133676.9, -3127.8174, 0.009512295, -0.009078656, -1038477.44, 23256.85, 0.0, 5.02321, 4.961635 
6.244666e+2, 1.9662043e+2, -993810.0, -1088085.1, -3181.5286, 0.013031559, -0.019090952, -993702.75, 19415.666, 0.0, 5.021999, 4.96099 
6.2442017e+2, 2.0157926e+2, -954497.9, -1054011.9, -3414.6643, 0.012853775, -0.013719954, -954380.9, 10139.931, 0.0, 5.0207233, 4.9564385 
6.2437266e+2, 2.0653681e+2, -908347.25, -1004914.0, -3498.2822, 0.0075118146, -0.008850157, -908220.7, 7713.78, 0.0, 5.0193806, 4.9570117 
6.243252e+2, 2.114944e+2, -862942.44, -957482.2, -3423.7502, 0.0021831056, -0.0046788957, -862818.6, 4529.515, 0.0, 5.01804, 4.9570117 
6.242777e+2, 2.1645197e+2, -818176.2, -911483.94, -3330.9758, -0.0031331137, -0.00049852836, -818057.4, 704.45514, 0.0, 5.0167, 4.956512 
6.242305e+2, 2.2140594e+2, -781238.25, -882761.8, -3047.9578, -0.0061005065, 0.009256258, -781146.8, -10933.553, 0.0, 5.0153766, 4.9500623 
6.2418365e+2, 2.2635609e+2, -735174.4, -833994.06, -2988.8616, -0.0055094506, 0.0048478167, -735084.06, -13376.948, 0.0, 5.0140424, 4.9504642 
6.241368e+2, 2.3130624e+2, -689617.4, -786347.8, -2859.3464, -0.004911146, -0.000053316508, -689532.94, -16331.935, 0.0, 5.0127044, 4.9504795 
6.240899e+2, 2.3625642e+2, -644685.25, -740129.0, -2712.6042, -0.004328992, -0.005068718, -644608.2, -19913.328, 0.0, 5.011366, 4.949993 
6.240431e+2, 2.4120432e+2, -605146.0, -705918.9, -2382.8176, -0.004632683, 0.0034113657, -605089.7, -28882.135, 0.0, 5.0100217, 4.945329 
6.239962e+2, 2.4615072e+2, -557466.9, -654015.0, -2680.4636, -0.0038909798, -0.0009241404, -557392.5, -29665.918, 0.0, 5.008748, 4.946741 
6.239493e+2, 2.5109708e+2, -511575.16, -606177.3, -2832.6545, -0.0027361133, -0.007531324, -511490.4, -32245.047, 0.0, 5.007484, 4.946746 
6.239023e+2, 2.560435e+2, -465906.22, -558887.8, -2980.164, -0.0015510172, -0.014087551, -465810.8, -35046.848, 0.0, 5.00622, 4.9465523 
6.238557e+2, 2.6098672e+2, -430315.38, -533948.75, -2252.4897, -0.0014015373, -0.003275232, -430266.44, -47949.555, 0.0, 5.0048785, 4.9385567 
6.2380946e+2, 2.659271e+2, -383197.47, -482379.2, -2009.3671, -0.0033497382, -0.00037212763, -383156.78, -49249.016, 0.0, 5.003398, 4.939898 
6.2376314e+2, 2.7086744e+2, -337783.56, -434690.6, -1789.4684, -0.0053451518, 0.0006729025, -337750.53, -52250.78, 0.0, 5.0019145, 4.939893 
6.2371683e+2, 2.7580774e+2, -292398.1, -387112.06, -1574.2277, -0.0073802373, 0.0019340297, -292371.94, -55280.285, 0.0, 5.000431, 4.93984 
6.2367094e+2, 2.8074318e+2, -259522.48, -367948.03, -490.24084, -0.009173371, 0.013789224, -259520.27, -70791.2, 0.0, 4.998892, 4.9297805 
6.2362576e+2, 2.8567508e+2, -211950.92, -314467.03, -522.6839, -0.009384633, 0.014023551, -211948.25, -71555.016, 0.0, 4.997206, 4.9318323 
6.2358046e+2, 2.906071e+2, -166937.89, -266835.25, -534.0883, -0.00937282, 0.012969307, -166935.05, -74879.5, 0.0, 4.9955087, 4.931832 
6.235352e+2, 2.9553908e+2, -121891.766, -219173.48, -543.2356, -0.009389285, 0.011856056, -121888.73, -78170.8, 0.0, 4.9938116, 4.931831 
6.2349075e+2, 3.004893e+2, -55687.645, -89386.4, -285.6299, -0.007478586, 0.023826996, -55685.223, -55685.223, 0.0, 4.9921265, 4.970369 
6.2344706e+2, 3.0546245e+2, -52679.98, -73642.55, -686.3347, -0.009193716, -0.0117452415, -52657.535, -52657.535, 0.0, 4.9903665, 4.976825 
6.234033e+2, 3.1043568e+2, -57420.83, -75893.95, -1341.3641, -0.012930634, -0.056822322, -57323.938, -57323.938, 0.0, 4.988572, 4.9768023 
6.2335944e+2, 3.1540865e+2, -62136.695, -78177.086, -1961.9525, -0.017112356, -0.10449972, -61900.207, -61900.207, 0.0, 4.9867754, 4.976779 
6.30164e+2, 1.2213457e+2, -1642917.3, -1740065.9, 1042.7269, -0.013273127, -0.0009611927, -1642906.0, 100176.945, 0.0, 5.0425105, 4.9789195 
6.301226e+2, 1.2711097e+2, -1603970.0, -1704798.4, -469.18222, -0.003111106, 0.01138924, -1603967.8, 90346.24, 0.0, 5.0410557, 4.975177 
6.3008046e+2, 1.3208535e+2, -1559491.3, -1658126.9, -566.7828, -0.0002807849, 0.0046191113, -1559488.0, 86077.75, 0.0, 5.0395875, 4.975173 
6.3003826e+2, 1.3705969e+2, -1517215.9, -1616055.3, -824.4217, 0.0025357015, -0.00097154273, -1517209.0, 79608.734, 0.0, 5.0381217, 4.9736357 
6.2999487e+2, 1.4203213e+2, -1476008.1, -1576368.1, -2194.3384, 0.0050704437, 0.006535846, -1475960.1, 72127.56, 0.0, 5.0366745, 4.971215 
6.2995046e+2, 1.4700334e+2, -1430895.9, -1528657.0, -2251.6663, 0.0064035305, 0.0027110733, -1430844.0, 68525.21, 0.0, 5.035243, 4.9715 
6.29906e+2, 1.5197453e+2, -1386174.9, -1481783.1, -2256.0984, 0.0076452047, -0.001401661, -1386121.6, 64529.242, 0.0, 5.0338125, 4.971499 
6.2986165e+2, 1.569457e+2, -1342829.6, -1437825.0, -2326.089, 0.008861103, -0.0050470484, -1342772.8, 59159.87, 0.0, 5.032383, 4.9705143 
6.298162e+2, 1.6191421e+2, -1303480.3, -1402520.9, -3374.005, 0.008727662, -0.0011813476, -1303365.5, 49875.156, 0.0, 5.030988, 4.966614 
6.2976974e+2, 1.6688116e+2, -1258146.6, -1354846.6, -3337.205, 0.006833244, -0.00040291267, -1258031.5, 46532.492, 0.0, 5.0296345, 4.9668036 
6.2972325e+2, 1.7184813e+2, -1213059.1, -1307718.6, -3212.996, 0.004931004, 0.0004583417, -1212950.3, 42937.03, 0.0, 5.0282817, 4.966802 
6.296768e+2, 1.768151e+2, -1169061.6, -1262931.3, -3052.9614, 0.0030108027, 0.0017081543, -1168962.4, 38248.152, 0.0, 5.0269284, 4.9660068 
6.2962997e+2, 1.8177894e+2, -1130295.6, -1229684.8, -3839.3628, 0.0028039333, 0.00792893, -1130147.5, 28417.545, 0.0, 5.02564, 4.9612713 
6.295827e+2, 1.8673998e+2, -1084300.9, -1181400.5, -3971.4595, 0.0054198997, 0.0019730965, -1084138.6, 25808.932, 0.0, 5.024427, 4.9615517 
6.2953544e+2, 1.9170104e+2, -1038668.4, -1133913.3, -4041.3535, 0.007989939, -0.0041802605, -1038497.2, 22832.848, 0.0, 5.023214, 4.9615574 
6.2948817e+2, 1.966621e+2, -993903.5, -1088320.9, -4090.5361, 0.01049951, -0.010039349, -993726.56, 18985.791, 0.0, 5.0220003, 4.9609127 
6.294404e+2, 2.0162092e+2, -954211.06, -1053485.1, -4460.7026, 0.010319921, -0.0052055153, -954011.0, 10103.989, 0.0, 5.0207334, 4.9566183 
6.2939185e+2, 2.0657796e+2, -908158.7, -1004579.56, -4520.8013, 0.007245791, -0.0070959874, -907947.2, 7585.3115, 0.0, 5.0193872, 4.957129 
6.293432e+2, 2.1153499e+2, -862775.4, -957158.2, -4435.173, 0.004190124, -0.009419646, -862567.4, 4382.4717, 0.0, 5.018041, 4.9571285 
6.2929463e+2, 2.1649203e+2, -818030.5, -911170.25, -4331.2124, 0.0010876029, -0.011548643, -817829.5, 537.6732, 0.0, 5.016695, 4.956629 
6.2924623e+2, 2.2144592e+2, -780993.8, -882289.44, -4068.2878, -0.0009639229, -0.003590048, -780830.7, -11012.355, 0.0, 5.0153823, 4.9502254 
6.291979e+2, 2.2639693e+2, -734878.75, -833398.06, -4010.206, -0.0017891257, -0.0013720634, -734715.8, -13411.302, 0.0, 5.014047, 4.9506717 
6.291495e+2, 2.3134798e+2, -689341.9, -785765.3, -3867.265, -0.0027047817, 0.0007116571, -689187.0, -16396.674, 0.0, 5.012704, 4.950685 
6.2910116e+2, 2.3629904e+2, -644429.6, -739559.75, -3706.9934, -0.003678629, 0.0028312106, -644285.4, -20009.35, 0.0, 5.011361, 4.9501967 
6.2905294e+2, 2.4124733e+2, -604931.56, -705508.4, -3417.4749, -0.004677867, 0.012823366, -604815.56, -29030.162, 0.0, 5.0100284, 4.9454746 
6.290047e+2, 2.4619313e+2, -557614.94, -654431.6, -3672.0474, -0.0040360573, 0.003665956, -557475.9, -30164.928, 0.0, 5.0087566, 4.9466043 
6.289565e+2, 2.511389e+2, -511734.47, -606610.4, -3808.9556, -0.0031658784, -0.0071324734, -511581.78, -32745.54, 0.0, 5.0074906, 4.9466047 
6.289083e+2, 2.5608468e+2, -466076.72, -559337.25, -3941.1565, -0.0023051293, -0.017794603, -465910.47, -35549.035, 0.0, 5.006224, 4.9464073 
6.2886035e+2, 2.6102757e+2, -429976.72, -533198.8, -3358.7827, -0.001864222, -0.0101312725, -429867.53, -47949.652, 0.0, 5.004876, 4.9388237 
6.2881273e+2, 2.6596853e+2, -382788.34, -481476.44, -3156.0059, -0.0021985527, -0.00475732, -382687.53, -49184.9, 0.0, 5.003397, 4.94022 
6.2876517e+2, 2.7090946e+2, -337366.4, -433796.88, -2926.627, -0.0026004743, -0.0006007841, -337277.66, -52189.77, 0.0, 5.001918, 4.940211 
6.287175e+2, 2.7585042e+2, -291972.9, -386227.34, -2701.9026, -0.0030825157, 0.0036675124, -291895.53, -55222.305, 0.0, 5.000438, 4.9401546 
6.286702e+2, 2.8078628e+2, -259225.84, -367364.6, -1736.8574, -0.0036192662, 0.017160505, -259197.95, -70892.43, 0.0, 4.9989004, 4.9299884 
6.2862325e+2, 2.8571805e+2, -211905.53, -314441.03, -1831.2672, -0.004442833, 0.015639344, -211872.84, -71901.984, 0.0, 4.997212, 4.9318485 
6.2857616e+2, 2.9064986e+2, -166898.5, -266806.44, -1840.9393, -0.0053269453, 0.012634606, -166864.6, -75229.49, 0.0, 4.995512, 4.9318495 
6.2852913e+2, 2.955817e+2, -121858.34, -219141.86, -1848.3568, -0.006243281, 0.009553845, -121823.24, -78523.81, 0.0, 4.993812, 4.9318504 
6.2848294e+2, 3.0053192e+2, -56002.242, -90038.99, -1572.3501, -0.0049198554, 0.021545537, -55929.76, -55929.76, 0.0, 4.992108, 4.970154 
6.284381e+2, 3.0550522e+2, -53694.996, -75723.65, -1948.4836, -0.0013785353, -0.004811168, -53523.977, -53523.977, 0.0, 4.9903226, 4.9761043 
6.2839323e+2, 3.1047854e+2, -58448.395, -77868.97, -2536.475, 0.0010371159, -0.039597124, -58122.574, -58122.574, 0.0, 4.988514, 4.9761167 
6.2834835e+2, 3.1545174e+2, -63176.71, -80046.05, -3090.0447, 0.0027090213, -0.07679354, -62628.504, -62628.504, 0.0, 4.9867024, 4.9761286 
6.352062e+2, 1.2217529e+2, -1641998.6, -1738245.5, -16.574871, -0.014578771, -0.0006627744, -1641998.6, 100686.52, 0.0, 5.042516, 4.9795194 
6.351634e+2, 1.2715103e+2, -1604109.3, -1705143.3, -1578.4521, -0.003725814, 0.005791202, -1604084.6, 89837.88, 0.0, 5.0410604, 4.975065 
6.351198e+2, 1.3212565e+2, -1559629.5, -1658472.3, -1675.1392, -0.00090065453, 0.0026165163, -1559601.1, 85570.44, 0.0, 5.0395927, 4.975061 
6.3507617e+2, 1.3710023e+2, -1517358.1, -1616412.1, -1937.4589, 0.0018994695, 0.0006238986, -1517320.3, 79100.734, 0.0, 5.038127, 4.97352 
6.350313e+2, 1.4207281e+2, -1475981.8, -1576368.1, -3283.354, 0.004588418, 0.0100532705, -1475874.4, 71815.22, 0.0, 5.036679, 4.9712167 
6.3498545e+2, 1.4704394e+2, -1430863.0, -1528642.8, -3333.37, 0.006288918, 0.005376553, -1430749.5, 68222.71, 0.0, 5.0352473, 4.971506 
6.349397e+2, 1.5201506e+2, -1386141.9, -1481769.1, -3337.5212, 0.007905209, 0.0003962762, -1386025.5, 64229.305, 0.0, 5.033817, 4.971505 
6.3489383e+2, 1.5698616e+2, -1342804.4, -1437828.3, -3413.5293, 0.009491695, -0.004113579, -1342681.9, 58855.723, 0.0, 5.0323877, 4.970515 
6.3484704e+2, 1.6195463e+2, -1303231.6, -1402059.1, -4414.095, 0.009661049, -0.0013132261, -1303034.9, 49810.918, 0.0, 5.0309935, 4.96677 
6.3479924e+2, 1.6692162e+2, -1257878.9, -1354336.6, -4364.267, 0.0077008475, -0.0018416035, -1257681.8, 46485.93, 0.0, 5.029639, 4.9669766 
6.347514e+2, 1.7188862e+2, -1212796.6, -1307210.8, -4237.575, 0.0057062907, -0.0022554882, -1212606.8, 42882.668, 0.0, 5.028285, 4.9669757 
6.3470364e+2, 1.7685564e+2, -1168806.4, -1262430.6, -4077.8357, 0.003678683, -0.0022434695, -1168629.1, 38182.06, 0.0, 5.026931, 4.9661784 
6.346555e+2, 1.8181965e+2, -1130358.1, -1229887.3, -4772.4585, 0.0031513886, 0.0050371694, -1130129.8, 28034.22, 0.0, 5.025647, 4.9612036 
6.346069e+2, 1.86781e+2, -1084383.8, -1181637.5, -4891.228, 0.0048044245, 0.0029839738, -1084138.4, 25406.588, 0.0, 5.0244327, 4.961472 
6.3455826e+2, 1.9174239e+2, -1038756.75, -1134150.0, -4956.8555, 0.006366457, 0.0007973261, -1038499.9, 22425.809, 0.0, 5.0232177, 4.961478 
6.345097e+2, 1.9670378e+2, -993997.06, -1088556.6, -5001.48, 0.0078449845, -0.0010279635, -993733.25, 18573.021, 0.0, 5.0220027, 4.9608345 
6.344606e+2, 2.0166263e+2, -953984.06, -1053088.1, -5494.8525, 0.007760247, 0.0035443665, -953680.3, 10028.867, 0.0, 5.020744, 4.956753 
6.34411e+2, 2.0661908e+2, -907971.3, -1004245.4, -5545.0996, 0.0069907303, -0.0052735573, -907653.0, 7477.5576, 0.0, 5.0193944, 4.9572444 
6.343612e+2, 2.1157557e+2, -862609.44, -956834.44, -5448.38, 0.0062349495, -0.014376007, -862295.44, 4256.279, 0.0, 5.0180426, 4.9572434 
6.343115e+2, 2.1653204e+2, -817885.94, -910856.8, -5333.2383, 0.0053729466, -0.023097962, -817581.0, 391.6949, 0.0, 5.0166907, 4.956743 
6.342619e+2, 2.2148596e+2, -780830.56, -881996.8, -5065.0493, 0.0040122564, -0.01582231, -780577.6, -11154.676, 0.0, 5.015389, 4.9503255 
6.34212e+2, 2.2643782e+2, -734583.9, -832802.9, -5032.484, 0.0017604074, -0.007004357, -734326.75, -13425.451, 0.0, 5.014052, 4.9508758 
6.341622e+2, 2.3138976e+2, -689067.06, -785183.56, -4876.1216, -0.00060348405, 0.0016848024, -688820.3, -16441.135, 0.0, 5.0127044, 4.9508877 
6.3411236e+2, 2.363417e+2, -644174.75, -738991.2, -4702.3267, -0.0030676841, 0.01056033, -643942.1, -20085.207, 0.0, 5.011357, 4.9503975 
6.340627e+2, 2.4129038e+2, -604870.75, -705441.6, -4426.5576, -0.0049175974, 0.022639336, -604676.3, -29313.156, 0.0, 5.010035, 4.9454994 
6.340132e+2, 2.4623555e+2, -557763.8, -654848.8, -4659.431, -0.004327022, 0.008607258, -557540.7, -30645.473, 0.0, 5.0087657, 4.946463 
6.339637e+2, 2.511807e+2, -511894.56, -607044.06, -4781.061, -0.0035974132, -0.006819998, -511654.9, -33227.66, 0.0, 5.0074973, 4.9464602 
6.3391423e+2, 2.5612587e+2, -466247.94, -559787.3, -4897.9575, -0.0029170548, -0.022025144, -465992.16, -36033.016, 0.0, 5.0062284, 4.946259 
6.33865e+2, 2.610685e+2, -429731.9, -532660.6, -4468.093, -0.0023533672, -0.016775357, -429538.3, -48019.555, 0.0, 5.0048738, 4.939017 
6.3381606e+2, 2.6601e+2, -382379.28, -480574.2, -4297.747, -0.0011053405, -0.0087204175, -382191.53, -49094.29, 0.0, 5.0033965, 4.940539 
6.3376707e+2, 2.7095154e+2, -336949.25, -432903.63, -4058.8884, 0.00016641853, -0.0017119336, -336777.88, -52102.004, 0.0, 5.0019217, 4.940527 
6.3371813e+2, 2.7589303e+2, -291547.72, -385343.1, -3824.6816, 0.0013175133, 0.005304266, -291392.0, -55137.32, 0.0, 5.0004463, 4.9404674 
6.336695e+2, 2.808294e+2, -258984.9, -366910.3, -2988.3445, 0.0019614338, 0.020450313, -258902.23, -71020.195, 0.0, 4.9989095, 4.9301505 
6.3362074e+2, 2.8576103e+2, -211859.69, -314415.72, -3142.3835, 0.00043655586, 0.017179864, -211763.5, -72214.83, 0.0, 4.9972177, 4.931863 
6.3357186e+2, 2.9069266e+2, -166858.64, -266778.3, -3150.3232, -0.001356204, 0.0121267075, -166759.4, -75544.49, 0.0, 4.9955153, 4.931865 
6.33523e+2, 2.9562426e+2, -121824.44, -219110.89, -3156.011, -0.0031851141, 0.0069806385, -121722.16, -78840.914, 0.0, 4.9938135, 4.931868 
6.334751e+2, 3.005744e+2, -56409.117, -90896.25, -2906.2488, -0.0021700244, 0.018554006, -56165.918, -56165.918, 0.0, 4.9920893, 4.969856 
6.3342905e+2, 3.0554777e+2, -54715.008, -77799.48, -3257.8398, 0.006045874, -0.00016679688, -54264.047, -54264.047, 0.0, 4.990279, 4.975366 
6.3338304e+2, 3.105212e+2, -59480.926, -79838.664, -3778.749, 0.013771766, -0.026175583, -58802.156, -58802.156, 0.0, 4.988456, 4.975414 
6.333369e+2, 3.1549454e+2, -64221.67, -81909.64, -4265.26, 0.02045609, -0.054402962, -63246.875, -63246.875, 0.0, 4.98663, 4.9754605 
6.402486e+2, 1.2221616e+2, -1642511.3, -1738420.9, -327.9063, -0.013541507, -0.00016413139, -1642510.1, 99775.734, 0.0, 5.0423255, 4.979554 
6.402042e+2, 1.2719133e+2, -1604747.1, -1705601.0, -1802.4443, -0.004638383, 0.0014692163, -1604714.9, 88813.53, 0.0, 5.0408754, 4.975004 
6.4015913e+2, 1.3216615e+2, -1560258.1, -1658927.5, -1778.4241, -0.0016276044, 0.0010485396, -1560226.1, 84549.125, 0.0, 5.039411, 4.974999 
6.40114e+2, 1.3714096e+2, -1517992.3, -1616881.1, -1929.0863, 0.0013657172, 0.0019220025, -1517954.6, 78067.67, 0.0, 5.037946, 4.973452 
6.400677e+2, 1.4211366e+2, -1476457.5, -1576569.1, -3175.5903, 0.0042770496, 0.0129853, -1476356.9, 70932.984, 0.0, 5.03651, 4.9712315 
6.400205e+2, 1.4708474e+2, -1431255.1, -1528811.5, -3230.4673, 0.006252028, 0.007764981, -1431148.3, 67424.875, 0.0, 5.0351076, 4.9715176 
6.399733e+2, 1.520558e+2, -1386457.8, -1481905.0, -3249.7588, 0.00818375, 0.0021930644, -1386347.3, 63509.414, 0.0, 5.033703, 4.971515 
6.399261e+2, 1.5702684e+2, -1343062.4, -1437953.5, -3348.0215, 0.010115146, -0.0029470897, -1342944.4, 58195.86, 0.0, 5.0322957, 4.970518 
6.398779e+2, 1.6199528e+2, -1303232.1, -1401729.3, -4334.1265, 0.010582262, -0.0010410778, -1303041.8, 49406.785, 0.0, 5.030921, 4.966916 
6.3982874e+2, 1.6696227e+2, -1257818.5, -1353932.9, -4346.2246, 0.008571871, -0.003049368, -1257622.4, 46147.117, 0.0, 5.029578, 4.967142 
6.3977957e+2, 1.7192928e+2, -1212719.4, -1306798.9, -4289.2925, 0.006527121, -0.0049730474, -1212524.3, 42565.914, 0.0, 5.02823, 4.967141 
6.3973033e+2, 1.7689632e+2, -1168730.5, -1262022.4, -4199.622, 0.0044556055, -0.0064769997, -1168541.8, 37869.063, 0.0, 5.0268774, 4.9663424 
6.396809e+2, 1.8186048e+2, -1130629.9, -1230149.0, -4790.432, 0.0035600797, 0.002020591, -1130399.8, 27362.215, 0.0, 5.025582, 4.961147 
6.39631e+2, 1.8682216e+2, -1084698.1, -1181919.3, -4844.5557, 0.0041561997, 0.0038337186, -1084457.4, 24683.572, 0.0, 5.0243497, 4.9614162 
6.395811e+2, 1.9178386e+2, -1039143.7, -1134473.1, -4854.2095, 0.004706948, 0.005367605, -1038897.1, 21622.783, 0.0, 5.023109, 4.96142 
6.395312e+2, 1.9674556e+2, -994484.5, -1088932.0, -4845.3726, 0.005226773, 0.0071713366, -994236.6, 17662.205, 0.0, 5.021858, 4.9607744 
6.394809e+2, 2.017044e+2, -954295.1, -1053034.1, -5438.0347, 0.0053898003, 0.011656188, -953996.5, 9305.58, 0.0, 5.02059, 4.956843 
6.3943005e+2, 2.0666033e+2, -908135.3, -1004082.8, -5603.395, 0.0068159825, -0.0035763516, -907809.2, 6918.0854, 0.0, 5.0192842, 4.9573507 
6.393792e+2, 2.1161626e+2, -862681.5, -956620.9, -5600.852, 0.008295499, -0.019226987, -862348.75, 3803.5925, 0.0, 5.017966, 4.9573517 
6.393284e+2, 2.1657223e+2, -817904.94, -910608.4, -5565.318, 0.009670267, -0.034525227, -817572.0, 5.1290927, 0.0, 5.0166345, 4.956853 
6.392775e+2, 2.2152619e+2, -780940.5, -881893.94, -5258.8706, 0.008793204, -0.026995745, -780667.25, -11641.203, 0.0, 5.015326, 4.9503884 
6.392262e+2, 2.2647887e+2, -734457.1, -832269.94, -5284.3945, 0.005068778, -0.011853814, -734172.5, -13675.841, 0.0, 5.014002, 4.9510794 
6.391749e+2, 2.3143162e+2, -688913.94, -784652.25, -5140.542, 0.0013586116, 0.0027141816, -688638.75, -16671.688, 0.0, 5.012663, 4.951088 
6.3912356e+2, 2.3638438e+2, -644028.7, -738472.6, -4974.386, -0.0024056556, 0.017431265, -643767.44, -20330.105, 0.0, 5.011313, 4.950595 
6.390725e+2, 2.4133338e+2, -605104.4, -705738.3, -4675.5063, -0.005114298, 0.031797282, -604887.6, -29946.72, 0.0, 5.009985, 4.945421 
6.390217e+2, 2.4627799e+2, -558132.25, -655330.25, -4921.1763, -0.004532553, 0.013298531, -557883.75, -31404.508, 0.0, 5.0086913, 4.946332 
6.38971e+2, 2.5122252e+2, -512359.4, -607568.4, -5032.3066, -0.0037967495, -0.0067077107, -512094.16, -34076.43, 0.0, 5.007389, 4.946329 
6.389202e+2, 2.561671e+2, -466832.06, -560362.2, -5121.0317, -0.003118475, -0.026481826, -466552.53, -36996.46, 0.0, 5.0060797, 4.946127 
6.388696e+2, 2.611095e+2, -430039.4, -532533.9, -4809.513, -0.0025920174, -0.022780858, -429814.22, -48695.977, 0.0, 5.00471, 4.939135 
6.388193e+2, 2.6605153e+2, -382316.34, -479861.66, -4755.915, 0.00003786352, -0.012092116, -382085.0, -49394.223, 0.0, 5.0032816, 4.9408393 
6.3876903e+2, 2.7099365e+2, -336785.78, -432144.44, -4601.7266, 0.002925114, -0.002593981, -336564.22, -52301.08, 0.0, 5.001842, 4.940829 
6.387188e+2, 2.7593577e+2, -291326.63, -384555.47, -4434.92, 0.005712593, 0.006896427, -291116.13, -55280.44, 0.0, 5.000388, 4.9407706 
6.386687e+2, 2.8087252e+2, -258946.77, -366616.34, -3763.385, 0.007452236, 0.023726316, -258815.38, -71357.1, 0.0, 4.9988675, 4.9302754 
6.386182e+2, 2.85804e+2, -211844.58, -314375.03, -3953.4587, 0.005196768, 0.018639104, -211692.36, -72565.984, 0.0, 4.997215, 4.9318833 
6.3856757e+2, 2.9073542e+2, -166735.7, -266693.53, -3951.515, 0.002521295, 0.011396043, -166579.73, -75784.984, 0.0, 4.9955516, 4.9318852 
6.385169e+2, 2.956668e+2, -121596.82, -218982.0, -3959.4338, -0.00020958173, 0.004059807, -121436.1, -78972.91, 0.0, 4.9938884, 4.9318867 
6.3846725e+2, 3.006168e+2, -56624.445, -91832.77, -3806.1187, 0.00076546747, 0.014781594, -56217.69, -56217.69, 0.0, 4.9921784, 4.969476 
6.384199e+2, 3.0559012e+2, -55552.945, -79859.016, -4253.2056, 0.013201021, 0.0023232335, -54830.188, -54830.188, 0.0, 4.990322, 4.9745865 
6.3837266e+2, 3.1056353e+2, -60651.074, -81979.266, -4978.163, 0.025848566, -0.016287373, -59546.35, -59546.35, 0.0, 4.988382, 4.9746475 
6.383254e+2, 3.1553692e+2, -65937.5, -84208.95, -5817.3184, 0.037401028, -0.03700239, -64242.59, -64242.59, 0.0, 4.986363, 4.9747114 
6.4529186e+2, 1.2226171e+2, -1639964.4, -1739757.6, 1978.9873, -0.009091091, 0.012016837, -1639925.1, 101915.32, 0.0, 5.0437584, 4.9784055 
6.452452e+2, 1.2723581e+2, -1600467.3, -1702947.4, 650.9134, -0.0075704046, 0.0016444635, -1600463.1, 92630.516, 0.0, 5.0422173, 4.975213 
6.451987e+2, 1.3221079e+2, -1556250.1, -1656412.9, 806.85596, -0.0030956843, 0.0008917563, -1556243.6, 88095.21, 0.0, 5.0406666, 4.975208 
6.451523e+2, 1.3718571e+2, -1514244.6, -1614503.4, 795.2887, 0.0013590672, 0.0015340948, -1514238.3, 81345.92, 0.0, 5.0391192, 4.973659 
6.451045e+2, 1.4215857e+2, -1473022.9, -1574579.3, -271.18826, 0.0049044304, 0.012837921, -1473022.1, 73828.016, 0.0, 5.0376287, 4.9713387 
6.450559e+2, 1.4712977e+2, -1427999.1, -1527005.6, -273.0204, 0.006429757, 0.00869951, -1427998.4, 70133.945, 0.0, 5.0361876, 4.971586 
6.450072e+2, 1.5210097e+2, -1383314.0, -1480163.5, -248.25827, 0.007952581, 0.0042112726, -1383313.4, 66101.31, 0.0, 5.0347476, 4.9715824 
6.4495856e+2, 1.5707213e+2, -1340026.3, -1436286.6, -303.64612, 0.009512779, 0.00012235362, -1340025.3, 60672.082, 0.0, 5.033309, 4.9705787 
6.44909e+2, 1.6204056e+2, -1300250.8, -1400028.0, -1227.734, 0.010068679, 0.0018608512, -1300235.6, 51769.9, 0.0, 5.031904, 4.9670024 
6.4485854e+2, 1.670074e+2, -1254990.1, -1352327.5, -1279.1647, 0.008770942, -0.0020593572, -1254973.4, 48354.477, 0.0, 5.030516, 4.9672213 
6.4480805e+2, 1.7197427e+2, -1210018.8, -1305259.5, -1271.4875, 0.0074328533, -0.0059160553, -1210001.8, 44648.137, 0.0, 5.029127, 4.9672213 
6.4475757e+2, 1.7694113e+2, -1166144.0, -1260547.0, -1234.995, 0.0060601197, -0.009364469, -1166127.9, 39844.086, 0.0, 5.0277386, 4.9664207 
6.447067e+2, 1.8190531e+2, -1128085.9, -1228376.8, -1714.1873, 0.004934407, -0.0014977867, -1128056.6, 29265.854, 0.0, 5.0263653, 4.961364 
6.446554e+2, 1.8686733e+2, -1082510.6, -1180344.0, -1571.0593, 0.004311455, 0.0019529527, -1082485.5, 26212.28, 0.0, 5.025016, 4.961625 
6.446041e+2, 1.9182931e+2, -1037271.3, -1133065.3, -1396.279, 0.0037194877, 0.005063962, -1037251.0, 22822.197, 0.0, 5.023668, 4.961625 
6.4455277e+2, 1.967913e+2, -992895.4, -1087676.5, -1197.7178, 0.00317609, 0.0083159115, -992880.25, 18568.479, 0.0, 5.0223193, 4.960976 
6.4450115e+2, 2.0175019e+2, -953145.94, -1052453.5, -1705.4042, 0.0034064846, 0.012547132, -953116.7, 9735.099, 0.0, 5.020996, 4.956839 
6.444492e+2, 2.0670597e+2, -906997.8, -1003664.2, -1982.9913, 0.005912731, -0.0026225082, -906957.1, 7322.5127, 0.0, 5.019723, 4.9572783 
6.4439714e+2, 2.1166179e+2, -861410.0, -956124.1, -2139.8022, 0.008464941, -0.018206352, -861361.7, 4345.6797, 0.0, 5.0184507, 4.9572854 
6.4434516e+2, 2.1661761e+2, -816463.3, -910017.94, -2277.6553, 0.010963559, -0.03368346, -816407.9, 727.07806, 0.0, 5.017179, 4.956793 
6.4429295e+2, 2.2157162e+2, -779083.3, -880117.5, -2017.7034, 0.010716664, -0.02668144, -779043.0, -10459.302, 0.0, 5.0158215, 4.9507594 
6.442403e+2, 2.2652449e+2, -732952.4, -830709.3, -1871.2667, 0.0069398847, -0.012653815, -732916.56, -12866.13, 0.0, 5.0143824, 4.9514337 
6.4418757e+2, 2.3147738e+2, -687681.2, -783242.5, -1588.3112, 0.0032746433, 0.00065460097, -687654.8, -16137.535, 0.0, 5.0129466, 4.9514365 
6.441349e+2, 2.3643027e+2, -643034.06, -737199.06, -1289.1697, -0.00032802895, 0.01390801, -643016.44, -20032.242, 0.0, 5.0115104, 4.9509377 
6.440825e+2, 2.4137928e+2, -604764.5, -705433.7, -825.47095, -0.0027533525, 0.026675183, -604757.75, -30271.008, 0.0, 5.010087, 4.94547 
6.440303e+2, 2.4632397e+2, -558220.3, -655491.8, -1051.5333, -0.00269142, 0.010459965, -558208.94, -32182.805, 0.0, 5.008702, 4.9462595 
6.4397806e+2, 2.5126866e+2, -512673.28, -607803.44, -1183.2234, -0.0025225864, -0.0068761115, -512658.56, -35093.04, 0.0, 5.0073175, 4.9462647 
6.439259e+2, 2.5621334e+2, -467349.6, -560659.0, -1310.6357, -0.002345093, -0.024104258, -467331.2, -38226.453, 0.0, 5.005934, 4.946072 
6.43874e+2, 2.6115587e+2, -430276.22, -532118.5, -944.77075, -0.001957375, -0.019089421, -430267.44, -49600.58, 0.0, 5.004542, 4.939341 
6.4382225e+2, 2.6609796e+2, -382420.34, -479338.3, -885.76605, 0.0007541841, -0.009717363, -382412.25, -50174.348, 0.0, 5.0031514, 4.941069 
6.4377064e+2, 2.7104014e+2, -336756.16, -431532.7, -747.99115, 0.003764599, -0.0013648001, -336750.28, -52941.824, 0.0, 5.0017595, 4.941067 
6.43719e+2, 2.759823e+2, -291124.53, -383836.38, -613.46063, 0.0067865397, 0.007224319, -291120.47, -55741.613, 0.0, 5.0003676, 4.941018 
6.4366746e+2, 2.809192e+2, -258555.56, -365761.4, -4.99427, 0.008941627, 0.023024186, -258555.56, -71555.945, 0.0, 4.998915, 4.9305353 
6.4361537e+2, 2.8585067e+2, -211407.33, -313661.1, -106.52824, 0.0071379705, 0.01647718, -211407.22, -72739.016, 0.0, 4.9973106, 4.9320755 
6.435631e+2, 2.9078206e+2, -166180.45, -265957.28, 43.110672, 0.0048141624, 0.007861043, -166180.44, -75843.07, 0.0, 4.9956946, 4.9320683 
6.4351094e+2, 2.9571345e+2, -120923.2, -218223.44, 193.02715, 0.002356388, -0.00081383716, -120922.82, -78916.15, 0.0, 4.994079, 4.9320617 
6.4345956e+2, 3.006635e+2, -55982.492, -91583.71, 450.9583, 0.0031456102, 0.01033873, -55976.78, -55976.78, 0.0, 4.9924464, 4.9694533 
6.434107e+2, 3.0563742e+2, -54511.05, -80259.09, 604.6992, 0.016854117, 0.0075878818, -54496.86, -54496.86, 0.0, 4.9908695, 4.974241 
6.4336205e+2, 3.1061134e+2, -58675.207, -82264.37, 633.03204, 0.032407586, -0.00037067023, -58658.23, -58658.23, 0.0, 4.9893055, 4.9742084 
6.433134e+2, 3.1558502e+2, -62817.49, -84295.305, 692.90515, 0.048218876, -0.0108069545, -62795.156, -62795.156, 0.0, 4.98774, 4.974175 
6.5033543e+2, 1.22308336e+2, -1640992.9, -1741957.0, 747.24756, -0.009144606, 0.016920509, -1640987.4, 100397.305, 0.0, 5.043767, 4.9776835 
6.5028685e+2, 1.2728222e+2, -1600106.8, -1702289.4, -517.7012, -0.010892563, 0.002194279, -1600104.1, 92536.086, 0.0, 5.0422244, 4.9754314 
6.50239e+2, 1.3225734e+2, -1555892.8, -1655756.4, -360.57645, -0.0047286632, 0.00090557145, -1555891.4, 87992.016, 0.0, 5.0406737, 4.975426 
6.501912e+2, 1.3723244e+2, -1513890.9, -1613849.8, -370.46603, 0.0014011863, 0.0010221435, -1513889.5, 81237.37, 0.0, 5.0391254, 4.973877 
6.50142e+2, 1.4220548e+2, -1472868.8, -1574323.1, -1370.0835, 0.005637499, 0.012426851, -1472850.3, 73540.7, 0.0, 5.0376334, 4.9714265 
6.500919e+2, 1.4717686e+2, -1427900.5, -1526862.0, -1361.059, 0.0065631904, 0.009562427, -1427881.9, 69789.695, 0.0, 5.036192, 4.971637 
6.500417e+2, 1.5214822e+2, -1383216.9, -1480021.0, -1335.6403, 0.0074838344, 0.006391638, -1383198.4, 65753.87, 0.0, 5.034752, 4.9716334 
6.499916e+2, 1.5711957e+2, -1339937.6, -1436161.1, -1394.6874, 0.00843413, 0.0036329539, -1339917.4, 60315.81, 0.0, 5.033313, 4.970624 
6.4994055e+2, 1.6208804e+2, -1300171.4, -1399927.6, -2285.232, 0.008985671, 0.005452241, -1300119.0, 51421.938, 0.0, 5.03191, 4.9670367 
6.498888e+2, 1.6705473e+2, -1254927.1, -1352254.6, -2331.936, 0.008630933, -0.0003832862, -1254871.3, 47993.605, 0.0, 5.0305204, 4.9672475 
6.4983696e+2, 1.7202143e+2, -1209960.5, -1305188.9, -2322.1047, 0.008216886, -0.006127927, -1209903.9, 44284.54, 0.0, 5.0291305, 4.9672465 
6.497852e+2, 1.7698814e+2, -1166093.9, -1260486.3, -2288.1384, 0.007740143, -0.011416196, -1166038.4, 39473.605, 0.0, 5.0277405, 4.966444 
6.4973295e+2, 1.8195237e+2, -1127715.5, -1227656.3, -2752.0107, 0.0064819097, -0.004472662, -1127639.8, 29221.984, 0.0, 5.026371, 4.96161 
6.496802e+2, 1.8691468e+2, -1082146.1, -1179620.5, -2594.4758, 0.004669352, -0.00036572624, -1082077.1, 26155.893, 0.0, 5.0250196, 4.9618745 
6.496274e+2, 1.9187698e+2, -1036918.7, -1132348.4, -2414.4363, 0.0028618742, 0.0035355315, -1036857.6, 22746.68, 0.0, 5.023669, 4.9618745 
6.4957464e+2, 1.9683929e+2, -992554.06, -1086965.0, -2210.3179, 0.0010684021, 0.007675729, -992502.4, 18473.357, 0.0, 5.022318, 4.961225 
6.4952165e+2, 2.0179829e+2, -953249.4, -1052768.3, -2705.9282, 0.0010953897, 0.01225122, -953175.8, 9201.722, 0.0, 5.0210056, 4.956732 
6.494685e+2, 2.067541e+2, -907196.8, -1004173.44, -2954.277, 0.004417432, -0.0012290261, -907106.9, 6700.722, 0.0, 5.01973, 4.9571056 
6.4941525e+2, 2.1170993e+2, -861622.6, -956638.9, -3102.8389, 0.0077012395, -0.014837924, -861521.4, 3715.9268, 0.0, 5.018454, 4.9571123 
6.493621e+2, 2.1666579e+2, -816689.56, -910538.5, -3232.3748, 0.010889584, -0.028226253, -816578.4, 88.435356, 0.0, 5.017178, 4.9566197 
6.493086e+2, 2.2161986e+2, -778507.0, -878927.6, -3134.915, 0.011236783, -0.021608576, -778409.2, -10293.788, 0.0, 5.015828, 4.95117 
6.492545e+2, 2.2657269e+2, -732408.75, -829585.25, -2970.217, 0.008228011, -0.011874489, -732318.06, -12738.36, 0.0, 5.0143876, 4.9518256 
6.4920044e+2, 2.3152554e+2, -687155.8, -782138.3, -2676.8213, 0.005286643, -0.002704111, -687080.44, -16036.417, 0.0, 5.0129485, 4.951825 
6.4914644e+2, 2.3647837e+2, -642526.75, -736114.44, -2367.1272, 0.0023543835, 0.0065302323, -642466.94, -19958.51, 0.0, 5.0115094, 4.951323 
6.490926e+2, 2.414274e+2, -604740.4, -705433.3, -1910.7916, 0.00020364819, 0.017294304, -604704.1, -30694.697, 0.0, 5.01009, 4.945473 
6.490389e+2, 2.4637246e+2, -558348.0, -655840.06, -2125.9126, -0.0005373744, 0.005720953, -558301.6, -32753.781, 0.0, 5.008706, 4.946142 
6.4898527e+2, 2.5131753e+2, -512802.1, -608159.6, -2248.6035, -0.0012571937, -0.0065359604, -512749.1, -35662.926, 0.0, 5.0073223, 4.946145 
6.489316e+2, 2.5626257e+2, -467479.53, -561023.1, -2366.982, -0.0019910957, -0.01869837, -467419.66, -38795.31, 0.0, 5.005939, 4.9459496 
6.488782e+2, 2.6120538e+2, -429986.7, -531508.7, -2003.7684, -0.0019610242, -0.011265967, -429947.16, -49761.75, 0.0, 5.004543, 4.93956 
6.4882517e+2, 2.661474e+2, -382131.28, -478741.63, -1960.9021, 0.0006946327, -0.0046495423, -382091.5, -50335.81, 0.0, 5.0031543, 4.9412856 
6.487721e+2, 2.7108946e+2, -336459.0, -430942.03, -1818.6271, 0.0035022488, 0.0008225687, -336424.0, -53098.336, 0.0, 5.001766, 4.9412813 
6.487191e+2, 2.7603152e+2, -290819.25, -383251.78, -1679.5879, 0.006266268, 0.0064502894, -290788.75, -55893.133, 0.0, 5.000378, 4.94123 
6.486661e+2, 2.8096837e+2, -258180.9, -365010.97, -1202.3062, 0.008456562, 0.019400995, -258167.38, -71651.45, 0.0, 4.9989247, 4.930802 
6.4861244e+2, 2.859e+2, -211102.88, -313055.9, -1352.4652, 0.007499109, 0.011963317, -211084.94, -72900.95, 0.0, 4.9973183, 4.932293 
6.485587e+2, 2.9083154e+2, -165878.17, -265352.22, -1202.8468, 0.006039648, 0.0027746733, -165863.63, -76011.055, 0.0, 4.995702, 4.9322867 
6.48505e+2, 2.957631e+2, -120623.09, -217618.52, -1052.9513, 0.00443549, -0.006459856, -120611.67, -79090.375, 0.0, 4.994086, 4.9322805 
6.484519e+2, 3.007135e+2, -55767.934, -91166.61, -790.75385, 0.005131811, 0.0059595183, -55750.277, -55750.277, 0.0, 4.9924498, 4.9696145 
6.4840144e+2, 3.056885e+2, -54476.426, -80115.28, -526.26373, 0.017190142, 0.013985396, -54465.63, -54465.63, 0.0, 4.9908533, 4.974313 
6.483511e+2, 3.106637e+2, -58691.574, -82081.336, -446.0171, 0.030899253, 0.01844325, -58683.074, -58683.074, 0.0, 4.9892683, 4.974298 
6.483007e+2, 3.156387e+2, -62884.848, -84073.055, -334.2922, 0.044684403, 0.020895364, -62879.574, -62879.574, 0.0, 4.987683, 4.9742827 
6.5537864e+2, 1.22354336e+2, -1641316.6, -1742711.5, -522.7554, -0.012894444, 0.0157468, -1641313.9, 99621.31, 0.0, 5.0437756, 4.9774365 
6.553286e+2, 1.273286e+2, -1599746.0, -1701631.8, -1686.8804, -0.014189716, 0.0028000877, -1599718.0, 92468.55, 0.0, 5.0422325, 4.9756494 
6.552793e+2, 1.323039e+2, -1555535.1, -1655100.3, -1528.5735, -0.006341694, 0.0009491117, -1555511.6, 87916.28, 0.0, 5.0406814, 4.9756446 
6.552301e+2, 1.3727917e+2, -1513537.1, -1613196.6, -1536.9597, 0.0014583747, 0.0005137068, -1513513.5, 81156.11, 0.0, 5.0391326, 4.974095 
6.5517944e+2, 1.4225239e+2, -1472725.3, -1574090.1, -2469.58, 0.0063707433, 0.01206325, -1472665.1, 73266.72, 0.0, 5.037638, 4.9715066 
6.551278e+2, 1.4722393e+2, -1427801.6, -1526719.0, -2449.018, 0.006696278, 0.010454135, -1427741.0, 69469.72, 0.0, 5.0361967, 4.9716873 
6.5507615e+2, 1.5219548e+2, -1383119.3, -1479879.1, -2422.9429, 0.0070140916, 0.008573884, -1383058.6, 65431.223, 0.0, 5.034756, 4.971684 
6.550245e+2, 1.57167e+2, -1339848.8, -1436036.4, -2485.7224, 0.0073538483, 0.007118559, -1339784.5, 59984.61, 0.0, 5.033317, 4.9706693 
6.54972e+2, 1.6213554e+2, -1300102.3, -1399849.9, -3339.6636, 0.007879685, 0.009106901, -1299990.6, 51085.793, 0.0, 5.0319157, 4.9670634 
6.54919e+2, 1.6710207e+2, -1254864.0, -1352182.0, -3385.3027, 0.008460928, 0.0013157901, -1254746.4, 47655.414, 0.0, 5.030525, 4.9672728 
6.548659e+2, 1.7206861e+2, -1209902.3, -1305118.8, -3373.318, 0.008966695, -0.0063643586, -1209782.9, 43944.043, 0.0, 5.0291343, 4.967272 
6.548129e+2, 1.7703517e+2, -1166043.8, -1260425.9, -3341.928, 0.009381709, -0.013540002, -1165925.5, 39126.54, 0.0, 5.027743, 4.9664664 
6.547592e+2, 1.8199944e+2, -1127360.8, -1226970.0, -3783.9192, 0.007986864, -0.007301671, -1127217.3, 29183.621, 0.0, 5.026377, 4.961844 
6.547049e+2, 1.8696205e+2, -1081781.9, -1178897.4, -3618.9614, 0.0049864394, -0.0026406965, -1081647.3, 26120.908, 0.0, 5.0250235, 4.9621224 
6.546507e+2, 1.9192466e+2, -1036566.44, -1131632.1, -3433.6653, 0.0019675987, 0.0019127921, -1036442.56, 22692.855, 0.0, 5.0236697, 4.962122 
6.545965e+2, 1.9688728e+2, -992213.06, -1086254.1, -3223.9714, -0.0010718089, 0.006803374, -992102.7, 18399.984, 0.0, 5.0223165, 4.9614725 
6.5454215e+2, 2.0184645e+2, -953416.9, -1053222.9, -3689.6445, -0.0013299071, 0.012378257, -953280.7, 8622.468, 0.0, 5.0210156, 4.9565763 
6.544878e+2, 2.0680225e+2, -907396.56, -1004683.06, -3927.2834, 0.002821383, 0.0005126552, -907238.3, 6097.0527, 0.0, 5.0197377, 4.9569316 
6.5443337e+2, 2.1175809e+2, -861836.0, -957154.0, -4067.598, 0.006878861, -0.011339528, -861662.7, 3104.4226, 0.0, 5.0184574, 4.956938 
6.543789e+2, 2.1671396e+2, -816916.6, -911059.44, -4188.8184, 0.010798958, -0.022857063, -816730.6, -531.98425, 0.0, 5.0171776, 4.9564443 
6.543242e+2, 2.2166811e+2, -777989.8, -877868.6, -4235.394, 0.011624374, -0.016276987, -777810.56, -10163.61, 0.0, 5.015835, 4.9515347 
6.5426874e+2, 2.266209e+2, -731866.06, -828461.8, -4066.3564, 0.009459414, -0.010996364, -731695.2, -12586.358, 0.0, 5.014393, 4.952215 
6.542133e+2, 2.3157369e+2, -686631.3, -781034.8, -3762.5276, 0.007355509, -0.00625348, -686481.6, -15910.863, 0.0, 5.012951, 4.9522114 
6.5415794e+2, 2.3652647e+2, -642020.3, -735030.5, -3442.2876, 0.0052071316, -0.0013273539, -641893.06, -19860.365, 0.0, 5.0115085, 4.951706 
6.5410274e+2, 2.4147557e+2, -604819.4, -705663.9, -2981.2554, 0.0030409563, 0.0083344, -604731.3, -31199.297, 0.0, 5.010093, 4.945396 
6.540476e+2, 2.46421e+2, -558475.7, -656189.06, -3197.1416, 0.0014931676, 0.0014691339, -558371.2, -33301.836, 0.0, 5.0087113, 4.9460225 
6.539924e+2, 2.513664e+2, -512930.94, -608516.56, -3310.8352, -0.000020637097, -0.0059661544, -512816.4, -36209.703, 0.0, 5.0073276, 4.946023 
6.5393734e+2, 2.5631183e+2, -467609.44, -561388.0, -3420.1812, -0.0015713759, -0.013320077, -467484.88, -39340.94, 0.0, 5.0059443, 4.945825 
6.538825e+2, 2.6125488e+2, -429740.9, -530996.9, -3067.3225, -0.0020035554, -0.003387335, -429648.06, -49944.227, 0.0, 5.004544, 4.939744 
6.53828e+2, 2.6619685e+2, -381842.56, -478144.7, -3031.9436, 0.00057604554, 0.0004879377, -381747.22, -50473.777, 0.0, 5.0031576, 4.941501 
6.5377355e+2, 2.711388e+2, -336162.16, -430351.13, -2885.1687, 0.0032263035, 0.0029795584, -336073.84, -53230.99, 0.0, 5.0017734, 4.9414945 
6.537191e+2, 2.760808e+2, -290514.28, -382666.9, -2741.6213, 0.005777783, 0.005545952, -290432.8, -56020.43, 0.0, 5.0003886, 4.94144 
6.5366465e+2, 2.8101754e+2, -257828.3, -364312.16, -2406.7598, 0.007993275, 0.015679643, -257773.94, -71741.6, 0.0, 4.9989343, 4.931051 
6.536095e+2, 2.8594932e+2, -210797.81, -312451.4, -2598.7676, 0.007821478, 0.007384106, -210731.42, -73031.54, 0.0, 4.997326, 4.9325094 
6.535542e+2, 2.90881e+2, -165575.28, -264747.84, -2449.169, 0.007187695, -0.0023978637, -165514.83, -76146.9, 0.0, 4.995709, 4.932504 
6.534989e+2, 2.9581273e+2, -120322.38, -217014.3, -2299.2942, 0.006398533, -0.0122128315, -120267.74, -79231.66, 0.0, 4.9940925, 4.9324985 
6.5344435e+2, 3.0076346e+2, -55616.348, -90892.06, -2046.9291, 0.007333781, 0.0014287229, -55497.97, -55497.97, 0.0, 4.992453, 4.969716 
6.53392e+2, 3.0573952e+2, -54445.11, -79968.82, -1687.3618, 0.01758121, 0.019199671, -54334.043, -54334.043, 0.0, 4.9908366, 4.97437 
6.5334e+2, 3.107159e+2, -58711.227, -81895.71, -1555.1971, 0.029100863, 0.034864787, -58607.37, -58607.37, 0.0, 4.9892316, 4.974373 
6.532878e+2, 3.156922e+2, -62955.465, -83848.27, -1391.6176, 0.040515263, 0.04899788, -62863.18, -62863.18, 0.0, 4.987626, 4.9743752 
6.6042286e+2, 1.2239982e+2, -1641823.0, -1742877.5, -351.50696, -0.0060964283, 0.004927611, -1641821.8, 98669.07, 0.0, 5.0435863, 4.977476 
6.6037023e+2, 1.2737535e+2, -1600101.1, -1701420.4, -1367.0776, -0.01638135, 0.0031202345, -1600082.8, 91646.91, 0.0, 5.0420284, 4.9758196 
6.6031957e+2, 1.3235077e+2, -1555923.5, -1654892.6, -1375.5316, -0.0073631243, 0.0009774223, -1555904.4, 87065.21, 0.0, 5.040464, 4.975819 
6.602689e+2, 1.3732615e+2, -1513979.5, -1613004.6, -1539.8773, 0.0016640034, 0.00018230549, -1513955.6, 80254.06, 0.0, 5.038895, 4.974273 
6.6021687e+2, 1.4229952e+2, -1473280.6, -1574167.5, -2467.5522, 0.0070518423, 0.011799738, -1473220.3, 72250.14, 0.0, 5.037408, 4.971593 
6.601637e+2, 1.4727123e+2, -1428297.1, -1526810.0, -2420.866, 0.006771223, 0.011140158, -1428237.6, 68510.266, 0.0, 5.0359955, 4.971755 
6.6011053e+2, 1.5224291e+2, -1383534.9, -1479930.8, -2379.8833, 0.00647486, 0.010281092, -1383476.1, 64549.336, 0.0, 5.034582, 4.971751 
6.600574e+2, 1.572146e+2, -1340197.6, -1436068.0, -2431.78, 0.0061883596, 0.009896515, -1340135.9, 59167.305, 0.0, 5.033169, 4.970731 
6.600036e+2, 1.621832e+2, -1300418.9, -1399963.6, -3244.9685, 0.0066163144, 0.012232237, -1300313.1, 50296.84, 0.0, 5.0317984, 4.967081 
6.5994924e+2, 1.6714959e+2, -1255036.1, -1352226.0, -3351.949, 0.008053103, 0.0029650016, -1254920.8, 47016.17, 0.0, 5.030456, 4.9672904 
6.598948e+2, 1.7211598e+2, -1209955.5, -1305103.9, -3394.879, 0.009463861, -0.0063123987, -1209834.5, 43429.043, 0.0, 5.0291047, 4.967291 
6.5984046e+2, 1.7708239e+2, -1166009.3, -1260372.9, -3418.1855, 0.01081775, -0.015174012, -1165885.6, 38704.645, 0.0, 5.0277443, 4.966483 
6.5978545e+2, 1.8204671e+2, -1127037.5, -1226277.1, -3870.8826, 0.009431016, -0.009586254, -1126886.8, 29051.568, 0.0, 5.026375, 4.96208 
6.597297e+2, 1.8700957e+2, -1081509.6, -1178184.4, -3735.7793, 0.005408126, -0.004791165, -1081365.5, 25936.52, 0.0, 5.0249944, 4.962379 
6.59674e+2, 1.9197245e+2, -1036386.2, -1130966.5, -3575.579, 0.001367493, -0.000089433735, -1036251.25, 22414.346, 0.0, 5.0236106, 4.9623775 
6.596183e+2, 1.9693533e+2, -992138.0, -1085639.4, -3386.9653, -0.0027040686, 0.0049841474, -992015.44, 18013.664, 0.0, 5.022222, 4.9617276 
6.595627e+2, 2.0189467e+2, -953986.44, -1053898.1, -3761.6196, -0.0033453065, 0.01208517, -953845.06, 7583.001, 0.0, 5.0209007, 4.956401 
6.595071e+2, 2.0685053e+2, -907916.4, -1005292.56, -3968.813, 0.0013296457, 0.0022380434, -907754.9, 5106.975, 0.0, 5.0196285, 4.9567738 
6.594514e+2, 2.118064e+2, -862356.8, -957761.2, -4064.883, 0.0059846644, -0.007799753, -862183.94, 2111.464, 0.0, 5.018346, 4.9567804 
6.5939575e+2, 2.1676229e+2, -817467.6, -911676.06, -4134.7905, 0.010564464, -0.017625373, -817286.5, -1557.7062, 0.0, 5.017054, 4.9562874 
6.5933967e+2, 2.217165e+2, -777868.25, -877085.44, -4295.644, 0.011792556, -0.010987625, -777682.6, -10505.696, 0.0, 5.0157266, 4.9518533 
6.59283e+2, 2.2666922e+2, -731505.6, -827443.9, -4284.382, 0.010533677, -0.010133548, -731314.6, -12677.874, 0.0, 5.0143437, 4.952589 
6.592262e+2, 2.3162194e+2, -686138.4, -779957.4, -4108.3604, 0.0093798665, -0.009912404, -685958.8, -15862.133, 0.0, 5.0129504, 4.9525857 
6.5916944e+2, 2.3657465e+2, -641427.7, -733907.1, -3895.9385, 0.00816026, -0.009456403, -641263.8, -19707.295, 0.0, 5.011546, 4.95208 
6.591128e+2, 2.4152383e+2, -604859.94, -705997.7, -3422.34, 0.0057656057, -0.00005258595, -604744.25, -31690.377, 0.0, 5.010143, 4.9452596 
6.590562e+2, 2.464696e+2, -558522.2, -656467.9, -3610.5996, 0.0034179108, -0.0022701724, -558389.25, -33799.133, 0.0, 5.008744, 4.9459114 
6.589996e+2, 2.5141537e+2, -513029.78, -608822.1, -3679.5771, 0.0012167196, -0.0052155624, -512888.66, -36762.184, 0.0, 5.00734, 4.9459114 
6.58943e+2, 2.5636116e+2, -467772.16, -561723.06, -3737.29, -0.0010162219, -0.008109832, -467623.72, -39960.992, 0.0, 5.0059333, 4.9457126 
6.5888673e+2, 2.6130444e+2, -429619.2, -530604.25, -3373.7456, -0.0019855304, 0.0042989617, -429506.6, -50285.01, 0.0, 5.004516, 4.939897 
6.588309e+2, 2.6624632e+2, -381682.06, -477605.2, -3409.486, 0.000470614, 0.0054544923, -381561.03, -50770.4, 0.0, 5.003117, 4.941713 
6.5877503e+2, 2.7118817e+2, -336065.1, -429843.0, -3326.0242, 0.0030165855, 0.004957828, -335947.25, -53587.63, 0.0, 5.0017104, 4.941706 
6.587191e+2, 2.7613002e+2, -290507.88, -382202.0, -3235.4868, 0.0054536643, 0.0044991495, -290393.84, -56465.12, 0.0, 5.000294, 4.9416513 
6.586633e+2, 2.8106678e+2, -257864.42, -363819.16, -3087.259, 0.0077133016, 0.011977472, -257774.55, -72226.164, 0.0, 4.9988146, 4.931281 
6.586065e+2, 2.8599864e+2, -210781.7, -311968.22, -3342.5876, 0.008185438, 0.0028444221, -210671.4, -73455.87, 0.0, 4.997232, 4.9327254 
6.5854967e+2, 2.909305e+2, -165482.16, -264226.6, -3220.4412, 0.008283568, -0.0075859036, -165377.23, -76494.086, 0.0, 4.995643, 4.9327216 
6.5849286e+2, 2.9586238e+2, -120158.81, -216457.95, -3095.4187, 0.008247223, -0.01805082, -120059.414, -79508.59, 0.0, 4.9940524, 4.932718 
6.584367e+2, 3.0081335e+2, -55628.36, -90802.195, -2913.087, 0.0097696865, -0.0032419518, -55388.73, -55388.73, 0.0, 4.992426, 4.9697547 
6.583827e+2, 3.0579042e+2, -54623.625, -79943.41, -2621.8137, 0.018152462, 0.023430334, -54354.992, -54354.992, 0.0, 4.990761, 4.9743934 
6.583288e+2, 3.10768e+2, -59111.016, -81912.01, -2675.398, 0.027365178, 0.04931624, -58801.3, -58801.3, 0.0, 4.989083, 4.974406 
6.582749e+2, 3.1574547e+2, -63633.555, -83920.35, -2783.9963, 0.036359385, 0.07415082, -63258.438, -63258.438, 0.0, 4.9873843, 4.9744186 
6.654676e+2, 1.2245213e+2, -1637778.8, -1740661.9, 2167.2615, 0.0018791434, 0.012222116, -1637733.0, 102245.84, 0.0, 5.0449276, 4.9775367 
6.654129e+2, 1.2742701e+2, -1596433.8, -1699597.5, 1555.9618, -0.013401384, 0.0046577305, -1596410.3, 94813.914, 0.0, 5.0432897, 4.975792 
6.6536045e+2, 1.324023e+2, -1552492.3, -1653186.1, 1468.755, -0.005601283, 0.0020435678, -1552470.9, 89994.52, 0.0, 5.0416465, 4.975794 
6.653081e+2, 1.3737756e+2, -1510757.1, -1611395.1, 1224.1598, 0.0022939816, 0.00072527525, -1510742.3, 82964.62, 0.0, 5.040007, 4.974252 
6.652545e+2, 1.4235082e+2, -1469885.8, -1572047.1, 406.78128, 0.007151253, 0.011282999, -1469884.1, 75084.02, 0.0, 5.0384865, 4.9717607 
6.651998e+2, 1.4732261e+2, -1425062.6, -1524763.3, 514.31006, 0.006442761, 0.010240499, -1425060.0, 71184.266, 0.0, 5.0370216, 4.971927 
6.651452e+2, 1.522944e+2, -1380464.1, -1477968.5, 616.66986, 0.005705292, 0.009109557, -1380460.3, 67060.23, 0.0, 5.035556, 4.9719234 
6.6509056e+2, 1.5726617e+2, -1337288.4, -1434198.0, 626.98114, 0.0049632182, 0.008510716, -1337284.3, 61512.457, 0.0, 5.0340924, 4.970899 
6.6503537e+2, 1.6223489e+2, -1297787.1, -1398496.8, -48.811733, 0.0050382186, 0.011495977, -1297787.1, 52315.246, 0.0, 5.0326843, 4.967134 
6.6497964e+2, 1.6720141e+2, -1252488.6, -1350878.0, -125.69455, 0.0063394704, 0.0039788755, -1252488.4, 48940.508, 0.0, 5.031331, 4.967312 
6.649239e+2, 1.7216796e+2, -1207416.0, -1303763.8, -150.7308, 0.007668083, -0.00365454, -1207415.8, 45339.68, 0.0, 5.029978, 4.967313 
6.648682e+2, 1.7713445e+2, -1163453.5, -1259036.0, -164.72322, 0.009000946, -0.010997275, -1163453.3, 40628.797, 0.0, 5.028625, 4.966503 
6.648118e+2, 1.8209878e+2, -1124240.4, -1224251.5, -664.97107, 0.008225582, -0.0064271246, -1124235.9, 31194.297, 0.0, 5.0272207, 4.962349 
6.6475475e+2, 1.870615e+2, -1078971.4, -1176306.3, -526.62427, 0.005386533, -0.0049161585, -1078968.6, 27825.238, 0.0, 5.025759, 4.9626403 
6.6469777e+2, 1.9202426e+2, -1034078.9, -1129203.6, -376.41943, 0.0025051404, -0.0034414632, -1034077.4, 24079.953, 0.0, 5.024298, 4.9626393 
6.646407e+2, 1.9698703e+2, -990045.1, -1083983.0, -199.53932, -0.00041982078, -0.0015840997, -990044.7, 19476.094, 0.0, 5.0228376, 4.96199 
6.6458374e+2, 2.0194651e+2, -952321.06, -1052713.3, -375.69937, -0.0010561249, 0.00545607, -952319.6, 8598.228, 0.0, 5.0214267, 4.9565473 
6.645266e+2, 2.0690286e+2, -906511.6, -1004301.1, -353.65762, 0.0019270738, 0.000297133, -906510.4, 5837.342, 0.0, 5.020078, 4.956891 
6.644695e+2, 2.1185923e+2, -861134.94, -956858.3, -250.695, 0.0050057564, -0.005260979, -861134.3, 2643.2578, 0.0, 5.01873, 4.956898 
6.6441244e+2, 2.1681556e+2, -816398.6, -910849.44, -129.8927, 0.0081553515, -0.010904602, -816398.44, -1190.9097, 0.0, 5.0173826, 4.956405 
6.64355e+2, 2.2176984e+2, -776729.4, -876043.06, -237.52629, 0.009318548, -0.0049492046, -776728.8, -10073.225, 0.0, 5.016044, 4.952051 
6.64297e+2, 2.267222e+2, -730303.1, -826593.2, -426.8811, 0.009014922, -0.007904581, -730301.25, -12182.753, 0.0, 5.014734, 4.9526906 
6.642389e+2, 2.3167458e+2, -684697.75, -778978.25, -494.33173, 0.008774999, -0.011182833, -684695.2, -15114.049, 0.0, 5.0134244, 4.952694 
6.64181e+2, 2.3662698e+2, -639718.1, -732788.06, -542.53143, 0.008497691, -0.014220019, -639715.0, -18671.447, 0.0, 5.012115, 4.9521956 
6.6412306e+2, 2.4157615e+2, -602979.6, -704529.25, -132.92787, 0.006916931, -0.0061020316, -602979.44, -30438.727, 0.0, 5.0107174, 4.9454956 
6.64065e+2, 2.4652234e+2, -557050.94, -655253.06, -43.478394, 0.0049199723, -0.005492631, -557050.9, -32978.055, 0.0, 5.0091877, 4.9461203 
6.6400695e+2, 2.5146854e+2, -511919.6, -607769.06, 165.57576, 0.0030627453, -0.005507122, -511919.28, -36314.223, 0.0, 5.007656, 4.946121 
6.639489e+2, 2.5641474e+2, -467010.9, -560824.5, 379.12766, 0.0012061953, -0.005494744, -467009.38, -39872.043, 0.0, 5.006125, 4.945924 
6.6389126e+2, 2.613583e+2, -429151.06, -529899.94, 974.8288, 0.00029521537, 0.007886242, -429141.66, -50447.836, 0.0, 5.004612, 4.940084 
6.638338e+2, 2.6630002e+2, -381526.66, -477222.78, 842.25714, 0.001547721, 0.0073338114, -381519.25, -51255.254, 0.0, 5.003138, 4.941822 
6.6377634e+2, 2.7124178e+2, -336098.66, -429529.75, 812.67896, 0.0029076545, 0.0052954135, -336091.6, -54257.516, 0.0, 5.001663, 4.94182 
6.6371894e+2, 2.7618355e+2, -290701.9, -381944.25, 781.4617, 0.00427902, 0.0034030136, -290695.2, -57291.145, 0.0, 5.0001884, 4.941771 
6.636614e+2, 2.8112024e+2, -257971.34, -363174.78, 812.27704, 0.005826949, 0.00991371, -257965.06, -72941.32, 0.0, 4.9986725, 4.9315505 
6.636031e+2, 2.8605244e+2, -210838.48, -311209.88, 643.1931, 0.0066301418, 0.0011874522, -210834.36, -74145.37, 0.0, 4.9970913, 4.9330344 
6.635448e+2, 2.9098457e+2, -165526.4, -263453.22, 869.6643, 0.007241134, -0.008798969, -165518.67, -77164.016, 0.0, 4.9955072, 4.933034 
6.634864e+2, 2.9591668e+2, -120185.234, -215666.5, 1096.287, 0.007810396, -0.018910516, -120172.65, -80152.18, 0.0, 4.9939237, 4.9330335 
6.634287e+2, 3.0086794e+2, -55763.875, -90210.35, 1268.1729, 0.009568581, -0.0032739101, -55717.25, -55717.25, 0.0, 4.992286, 4.970012 
6.633728e+2, 3.0584544e+2, -55049.02, -79556.12, 1857.755, 0.016250217, 0.02608573, -54908.992, -54908.992, 0.0, 4.9905267, 4.97463 
6.633171e+2, 3.1082335e+2, -59823.633, -81742.33, 2197.132, 0.02380931, 0.05522046, -59605.563, -59605.563, 0.0, 4.9887605, 4.974608 
6.6326135e+2, 3.1580123e+2, -64585.996, -83946.24, 2562.6216, 0.031527013, 0.08381192, -64252.54, -64252.54, 0.0, 4.9869933, 4.974585 
6.705114e+2, 1.2250783e+2, -1637783.4, -1740739.9, 1269.5634, -0.0065783327, 0.032838706, -1637767.8, 101666.125, 0.0, 5.044931, 4.977515 
6.7045623e+2, 1.274808e+2, -1596534.8, -1699881.1, 317.2814, -0.009843755, 0.0070794187, -1596533.8, 94163.984, 0.0, 5.0432944, 4.975702 
6.7040205e+2, 1.3245593e+2, -1552591.8, -1653469.4, 231.06308, -0.0035399527, 0.0035934641, -1552591.1, 89349.55, 0.0, 5.041652, 4.9757032 
6.703479e+2, 1.3743101e+2, -1510849.1, -1611665.1, -3.8019197, 0.0028568879, 0.0014064275, -1510849.1, 82334.85, 0.0, 5.040013, 4.974166 
6.702927e+2, 1.4240417e+2, -1469644.8, -1571625.6, -694.90625, 0.00702133, 0.01072906, -1469640.0, 74806.055, 0.0, 5.0384927, 4.971903 
6.702365e+2, 1.4737608e+2, -1424810.6, -1524313.4, -591.7294, 0.005954846, 0.009166439, -1424807.1, 70913.375, 0.0, 5.0370274, 4.9720798 
6.701804e+2, 1.5234797e+2, -1380215.6, -1477520.6, -488.1153, 0.0048546446, 0.0075754314, -1380213.3, 66781.74, 0.0, 5.035561, 4.972076 
6.701243e+2, 1.5731984e+2, -1337047.6, -1433761.4, -477.96667, 0.003742153, 0.0065273666, -1337045.3, 61224.246, 0.0, 5.0340967, 4.9710484 
6.700675e+2, 1.6228873e+2, -1297731.4, -1398449.5, -1083.7908, 0.0034216582, 0.010298016, -1297719.8, 51854.0, 0.0, 5.03269, 4.9671526 
6.7001045e+2, 1.6725548e+2, -1252474.6, -1350911.8, -1152.7126, 0.0043318174, 0.0050459593, -1252461.1, 48438.203, 0.0, 5.0313354, 4.967304 
6.699533e+2, 1.7222221e+2, -1207406.9, -1303800.5, -1175.3202, 0.00524385, -0.00027517328, -1207392.6, 44832.27, 0.0, 5.0299807, 4.967304 
6.6989625e+2, 1.7718895e+2, -1163453.8, -1259086.3, -1193.5938, 0.0061388016, -0.0052603, -1163438.9, 40111.53, 0.0, 5.028627, 4.9664907 
6.698384e+2, 1.8215328e+2, -1123909.1, -1223624.1, -1785.1266, 0.0059650224, -0.00143065, -1123877.1, 31021.313, 0.0, 5.0272274, 4.9625616 
6.6978014e+2, 1.8711583e+2, -1078651.3, -1175688.3, -1637.1366, 0.004919357, -0.0041413247, -1078623.6, 27639.05, 0.0, 5.0257635, 4.9628515 
6.6972184e+2, 1.9207838e+2, -1033770.2, -1128593.1, -1481.5961, 0.0037979255, -0.006788498, -1033747.06, 23879.81, 0.0, 5.0243, 4.9628496 
6.6966355e+2, 1.9704096e+2, -989747.0, -1083378.1, -1299.1483, 0.0026023702, -0.008966494, -989728.94, 19261.875, 0.0, 5.0228367, 4.9622006 
6.6960514e+2, 2.0200063e+2, -952053.2, -1052202.6, -1422.6937, 0.0020619486, -0.0020213448, -952033.0, 8352.643, 0.0, 5.0214314, 4.9567246 
6.695464e+2, 2.0695761e+2, -906269.25, -1003837.8, -1378.3881, 0.0029810322, -0.002289199, -906249.8, 5560.115, 0.0, 5.020082, 4.957054 
6.694878e+2, 2.1191461e+2, -860901.44, -956404.1, -1267.5504, 0.0039658556, -0.0028637345, -860884.6, 2349.5627, 0.0, 5.0187325, 4.95706 
6.694291e+2, 2.168716e+2, -816174.1, -910404.9, -1138.8368, 0.00500114, -0.0034567812, -816160.4, -1501.8396, 0.0, 5.017383, 4.956565 
6.693703e+2, 2.21826e+2, -776617.2, -875893.75, -1268.3656, 0.0056976955, 0.0024984463, -776601.0, -10495.264, 0.0, 5.016053, 4.952104 
6.693111e+2, 2.2677794e+2, -730324.75, -826730.2, -1435.534, 0.0063873883, -0.004340557, -730303.4, -12730.316, 0.0, 5.014742, 4.9526467 
6.692519e+2, 2.317299e+2, -684730.2, -779123.25, -1493.6006, 0.007055403, -0.011205849, -684706.56, -15666.579, 0.0, 5.0134296, 4.9526486 
6.691927e+2, 2.3668188e+2, -639761.25, -732941.1, -1532.3168, 0.007660102, -0.017766228, -639736.06, -19229.475, 0.0, 5.0121174, 4.952149 
6.691335e+2, 2.4163102e+2, -602552.6, -703640.0, -1287.1436, 0.0071298433, -0.011165135, -602536.2, -30532.164, 0.0, 5.0107203, 4.9458075 
6.69074e+2, 2.4657772e+2, -556636.25, -654399.75, -1219.9268, 0.0060930084, -0.008391088, -556621.0, -33090.605, 0.0, 5.009192, 4.9464216 
6.690145e+2, 2.5152442e+2, -511507.06, -606926.3, -1005.45416, 0.0051292586, -0.0061350497, -511496.47, -36439.563, 0.0, 5.0076613, 4.94642 
6.68955e+2, 2.5647113e+2, -466600.5, -559992.2, -786.43884, 0.0041397903, -0.003870046, -466593.88, -40010.383, 0.0, 5.0061307, 4.94622 
6.6889584e+2, 2.6141497e+2, -428964.56, -529545.25, -158.12114, 0.003386575, 0.010119519, -428964.3, -50827.76, 0.0, 5.0046153, 4.9402122 
6.688367e+2, 2.6635665e+2, -381487.75, -477208.4, -294.2175, 0.002902981, 0.008448914, -381486.84, -51778.88, 0.0, 5.0031424, 4.941832 
6.6877764e+2, 2.7129832e+2, -336054.44, -429519.53, -320.76123, 0.0023965342, 0.0053660953, -336053.34, -54773.906, 0.0, 5.00167, 4.9418287 
6.687185e+2, 2.7623993e+2, -290652.38, -381938.2, -348.93503, 0.0018645726, 0.0023902173, -290651.03, -57800.18, 0.0, 5.0001974, 4.941777 
6.6865945e+2, 2.811767e+2, -257613.38, -362481.72, -398.8429, 0.0020512117, 0.008357522, -257611.86, -73141.195, 0.0, 4.9986835, 4.931798 
6.685996e+2, 2.8610933e+2, -210398.06, -310323.6, -577.6045, 0.0033253194, 0.00086247973, -210394.72, -74262.266, 0.0, 4.9971013, 4.9333525 
6.6853976e+2, 2.910419e+2, -165091.14, -262570.56, -351.42636, 0.004532225, -0.007750646, -165089.88, -77295.42, 0.0, 4.995517, 4.9333515 
6.6847986e+2, 2.959745e+2, -119755.125, -214787.47, -125.097404, 0.005688933, -0.01645829, -119754.96, -80298.4, 0.0, 4.9939322, 4.933351 
6.6842043e+2, 3.0092615e+2, -55260.24, -89164.37, -22.695772, 0.0073090354, -0.00021448638, -55260.223, -55260.223, 0.0, 4.992294, 4.970404 
6.683625e+2, 3.0590364e+2, -54514.7, -78330.73, 596.1231, 0.011273385, 0.025860878, -54499.785, -54499.785, 0.0, 4.99052, 4.9750953 
6.6830474e+2, 3.108816e+2, -59319.844, -80467.51, 973.10205, 0.015627062, 0.05146389, -59275.16, -59275.16, 0.0, 4.988739, 4.9750915 
6.682469e+2, 3.158596e+2, -64112.746, -82621.98, 1376.1412, 0.019964105, 0.076792315, -64010.992, -64010.992, 0.0, 4.9869566, 4.9750876 
6.755559e+2, 1.22561894e+2, -1637110.6, -1739439.9, 93.51117, -0.0075728907, 0.037145127, -1637110.6, 101794.16, 0.0, 5.0449367, 4.9779453 
6.754996e+2, 1.2753461e+2, -1596635.3, -1700165.3, -921.2926, -0.006317084, 0.009523368, -1596627.1, 93544.2, 0.0, 5.0432997, 4.975611 
6.754436e+2, 1.3250956e+2, -1552690.8, -1653753.4, -1006.52216, -0.0015082154, 0.00513244, -1552680.6, 88735.414, 0.0, 5.041658, 4.975612 
6.753876e+2, 1.3748446e+2, -1510940.8, -1611935.9, -1231.8043, 0.0033917944, 0.0020435513, -1510925.8, 81735.414, 0.0, 5.040019, 4.974079 
6.753308e+2, 1.4245753e+2, -1469408.5, -1571215.5, -1794.8143, 0.0068544014, 0.01025799, -1469376.9, 74546.94, 0.0, 5.0384994, 4.9720407 
6.752732e+2, 1.4742954e+2, -1424558.4, -1523864.1, -1698.204, 0.0054346863, 0.0081481105, -1424529.4, 70667.25, 0.0, 5.0370336, 4.9722314 
6.7521554e+2, 1.5240152e+2, -1379967.0, -1477073.4, -1593.3359, 0.0039789886, 0.0060573486, -1379940.9, 66528.54, 0.0, 5.035567, 4.9722276 
6.751579e+2, 1.573735e+2, -1336806.8, -1433325.3, -1583.4177, 0.002503313, 0.0045204144, -1336780.8, 60961.53, 0.0, 5.0341015, 4.971197 
6.7509973e+2, 1.6234258e+2, -1297694.1, -1398442.3, -2115.9536, 0.0017703137, 0.00923458, -1297649.8, 51395.2, 0.0, 5.032696, 4.967158 
6.750412e+2, 1.6730952e+2, -1252460.6, -1350946.0, -2180.0088, 0.0023001796, 0.0061858776, -1252412.4, 47957.285, 0.0, 5.0313396, 4.9672956 
6.749827e+2, 1.7227648e+2, -1207397.8, -1303837.6, -2200.1887, 0.002808227, 0.0031062393, -1207347.6, 44346.62, 0.0, 5.029984, 4.9672956 
6.7492425e+2, 1.7724344e+2, -1163455.0, -1259139.0, -2222.8232, 0.003277843, 0.00040801545, -1163403.4, 39615.406, 0.0, 5.028629, 4.9664774 
6.748651e+2, 1.8220781e+2, -1123601.5, -1223048.3, -2898.633, 0.003679691, 0.003740901, -1123517.1, 30849.502, 0.0, 5.027234, 4.962756 
6.748055e+2, 1.8717013e+2, -1078331.5, -1175070.9, -2748.1367, 0.004438791, -0.0033063062, -1078253.5, 27478.068, 0.0, 5.0257683, 4.963062 
6.74746e+2, 1.9213249e+2, -1033461.8, -1127983.3, -2587.2634, 0.0050950847, -0.010216806, -1033391.06, 23705.271, 0.0, 5.0243025, 4.963059 
6.746864e+2, 1.9709486e+2, -989449.2, -1082773.9, -2399.1968, 0.0056466786, -0.01657147, -989387.56, 19073.318, 0.0, 5.0228367, 4.9624095 
6.746265e+2, 2.0205477e+2, -951830.2, -1051790.4, -2458.8813, 0.0050666416, -0.009075246, -951769.75, 8083.301, 0.0, 5.0214367, 4.9568677 
6.7456627e+2, 2.0701239e+2, -906027.1, -1003375.4, -2402.3572, 0.0039522075, -0.0046192105, -905967.9, 5303.9946, 0.0, 5.020086, 4.9572153 
6.745061e+2, 2.1197003e+2, -860668.1, -955950.9, -2283.6472, 0.0028900101, -0.00044850152, -860613.44, 2077.2056, 0.0, 5.018735, 4.957219 
6.7444587e+2, 2.1692766e+2, -815949.9, -909961.25, -2147.0251, 0.001857764, 0.0037709684, -815900.9, -1791.3801, 0.0, 5.017384, 4.9567227 
6.7438567e+2, 2.2188221e+2, -776597.94, -875949.44, -2284.5432, 0.0019534698, 0.010369342, -776545.44, -10989.73, 0.0, 5.016063, 4.952085 
6.743252e+2, 2.268337e+2, -730346.8, -826867.8, -2443.5684, 0.0036726967, -0.0004479992, -730285.0, -13257.602, 0.0, 5.01475, 4.9526005 
6.742648e+2, 2.3178522e+2, -684763.06, -779268.94, -2492.2534, 0.005325548, -0.011170816, -684697.4, -16198.671, 0.0, 5.013435, 4.9526014 
6.7420435e+2, 2.3673679e+2, -639804.9, -733094.75, -2521.4885, 0.006889067, -0.021524575, -639736.75, -19767.08, 0.0, 5.0121202, 4.9521003 
6.7414385e+2, 2.416859e+2, -602179.5, -702872.25, -2436.2585, 0.0072619054, -0.015977282, -602120.6, -30653.424, 0.0, 5.0107236, 4.9460773 
6.7408293e+2, 2.4663313e+2, -556221.44, -653547.2, -2393.0642, 0.007217283, -0.011069111, -556162.6, -33174.824, 0.0, 5.0091968, 4.9467216 
6.74022e+2, 2.5158033e+2, -511094.4, -606084.25, -2173.1753, 0.0072234133, -0.0067075454, -511044.72, -36536.086, 0.0, 5.007667, 4.9467173 
6.739611e+2, 2.5652754e+2, -466189.9, -559160.56, -1948.6984, 0.0071773413, -0.002354731, -466149.06, -40119.516, 0.0, 5.0061374, 4.9465146 
6.7390037e+2, 2.6147172e+2, -428824.06, -529294.25, -1292.386, 0.006397418, 0.012400102, -428807.44, -51228.125, 0.0, 5.004619, 4.9403043 
6.738397e+2, 2.6641327e+2, -381448.8, -477194.16, -1427.5411, 0.0041468246, 0.009643518, -381427.53, -52275.594, 0.0, 5.0031476, 4.9418416 
6.737789e+2, 2.713548e+2, -336010.2, -429509.4, -1451.0505, 0.001805668, 0.0054517416, -335987.7, -55262.855, 0.0, 5.001677, 4.941836 
6.7371815e+2, 2.7629635e+2, -290602.8, -381932.22, -1476.1809, -0.0005979921, 0.0013279187, -290578.97, -58281.246, 0.0, 5.0002065, 4.941783 
6.7365736e+2, 2.8123316e+2, -257255.44, -361789.75, -1610.3895, -0.0017184116, 0.0067786938, -257230.64, -73313.04, 0.0, 4.998695, 4.9320455 
6.73596e+2, 2.861662e+2, -209957.38, -309437.84, -1798.863, 0.000019703095, 0.0005319749, -209924.86, -74348.97, 0.0, 4.9971123, 4.9336696 
6.7353463e+2, 2.9109925e+2, -164655.63, -261688.44, -1572.9781, 0.0018027662, -0.0067170593, -164630.13, -77395.9, 0.0, 4.9955263, 4.933669 
6.734732e+2, 2.9603225e+2, -119324.76, -213908.94, -1346.9429, 0.0035271891, -0.014029987, -119305.58, -80412.92, 0.0, 4.9939413, 4.9336686 
6.7341214e+2, 3.0098432e+2, -54778.285, -88163.23, -1326.5903, 0.0051290714, 0.002777566, -54725.652, -54725.652, 0.0, 4.992302, 4.970774 
6.733522e+2, 3.0596185e+2, -53983.867, -77102.02, -694.31226, 0.0060372027, 0.024787491, -53963.035, -53963.035, 0.0, 4.990514, 4.975551 
6.732923e+2, 3.1093982e+2, -58819.527, -79189.44, -279.73517, 0.0067998013, 0.046006158, -58815.688, -58815.688, 0.0, 4.9887176, 4.975566 
6.7323244e+2, 3.1591782e+2, -63642.95, -81294.52, 160.84915, 0.007371087, 0.06722006, -63641.484, -63641.484, 0.0, 4.9869204, 4.9755807 
6.806006e+2, 1.2261471e+2, -1637664.6, -1737885.9, -53.42194, -0.0060760095, 0.026318656, -1637664.5, 100723.125, 0.0, 5.044357, 4.9787397 
6.805428e+2, 1.2758878e+2, -1597936.4, -1700965.9, -996.684, -0.0028777965, 0.012996834, -1597926.8, 91714.36, 0.0, 5.0428953, 4.975546 
6.804851e+2, 1.3256349e+2, -1553498.6, -1654317.5, -1046.6396, 0.00035993967, 0.0072431616, -1553487.9, 87400.35, 0.0, 5.041418, 4.9755445 
6.8042743e+2, 1.3753818e+2, -1511320.5, -1612346.3, -1242.696, 0.0037391656, 0.0027796207, -1511305.3, 80830.234, 0.0, 5.039934, 4.973987 
6.8036896e+2, 1.4251114e+2, -1469248.0, -1570788.0, -1692.3876, 0.006519024, 0.009777966, -1469219.8, 74179.234, 0.0, 5.0384765, 4.972195 
6.8030983e+2, 1.474832e+2, -1424524.5, -1523530.1, -1694.743, 0.0049100565, 0.007056541, -1424495.5, 70175.12, 0.0, 5.0369744, 4.972372 
6.8025064e+2, 1.5245526e+2, -1380037.8, -1476784.9, -1662.1039, 0.003267885, 0.0043303557, -1380009.3, 65933.016, 0.0, 5.0354714, 4.97237 
6.801916e+2, 1.5742731e+2, -1336987.3, -1433091.1, -1720.4612, 0.0016037486, 0.002106566, -1336956.4, 60257.582, 0.0, 5.03397, 4.9713383 
6.801319e+2, 1.6239655e+2, -1298102.6, -1398575.3, -2162.688, 0.0004876467, 0.0077631013, -1298056.0, 50459.152, 0.0, 5.0325403, 4.9671893 
6.80072e+2, 1.6736373e+2, -1252913.8, -1351108.4, -2157.317, 0.00050047267, 0.0069654398, -1252866.4, 46972.05, 0.0, 5.0311704, 4.9673233 
6.800121e+2, 1.7233093e+2, -1207905.5, -1304027.8, -2109.5337, 0.0005120531, 0.0060972986, -1207859.3, 43302.496, 0.0, 5.0297956, 4.9673223 
6.799522e+2, 1.7729813e+2, -1164035.9, -1259375.3, -2070.7393, 0.00050598447, 0.0055835177, -1163990.9, 38494.047, 0.0, 5.0284176, 4.966499 
6.798917e+2, 1.8226252e+2, -1123927.5, -1222846.6, -2814.9458, 0.0013710413, 0.008777425, -1123847.5, 29984.81, 0.0, 5.0270443, 4.9629126 
6.7983085e+2, 1.8722466e+2, -1078388.5, -1174686.1, -2817.8003, 0.0038132756, -0.0021997245, -1078306.1, 26892.232, 0.0, 5.025659, 4.963242 
6.7977e+2, 1.9218679e+2, -1033314.5, -1127494.4, -2792.7175, 0.006186731, -0.013185447, -1033231.75, 23332.418, 0.0, 5.0242634, 4.963242 
6.797092e+2, 1.9714893e+2, -989133.0, -1082195.3, -2727.515, 0.008480475, -0.023728225, -989053.1, 18876.768, 0.0, 5.0228558, 4.962596 
6.7964786e+2, 2.0210905e+2, -951540.44, -1051298.1, -2729.7769, 0.007814125, -0.015490425, -951465.8, 7853.7783, 0.0, 5.0214667, 4.9570208 
6.795861e+2, 2.070673e+2, -905718.9, -1002801.4, -2632.225, 0.004817857, -0.006835408, -905647.56, 5085.3228, 0.0, 5.020105, 4.957403 
6.7952436e+2, 2.1202552e+2, -860402.44, -955413.94, -2476.291, 0.0018841809, 0.0014991782, -860337.94, 1808.2864, 0.0, 5.0187407, 4.957402 
6.794627e+2, 2.1698375e+2, -815737.06, -909463.44, -2305.0925, -0.0010250133, 0.0099161975, -815680.44, -2120.6897, 0.0, 5.017374, 4.9569006 
6.79401e+2, 2.2193845e+2, -776772.06, -876218.0, -2406.9832, -0.0016323307, 0.017791744, -776713.9, -11709.069, 0.0, 5.016037, 4.952006 
6.7933935e+2, 2.2688954e+2, -730526.94, -827067.6, -2618.6997, 0.0010342727, 0.0034521022, -730455.94, -13975.224, 0.0, 5.014705, 4.952553 
6.792777e+2, 2.3184066e+2, -685008.25, -779494.9, -2699.403, 0.0036780697, -0.01098423, -684931.2, -16974.924, 0.0, 5.013366, 4.952555 
6.79216e+2, 2.3679179e+2, -640134.06, -733352.94, -2748.8535, 0.006261883, -0.025166048, -640053.06, -20621.41, 0.0, 5.012021, 4.9520555 
6.7915416e+2, 2.4174091e+2, -602148.3, -702319.25, -2809.6812, 0.007417275, -0.020339753, -602069.56, -31140.35, 0.0, 5.010624, 4.9463153 
6.790919e+2, 2.4668863e+2, -555961.94, -652749.0, -2839.315, 0.008333008, -0.013516388, -555878.7, -33434.39, 0.0, 5.0091486, 4.9470234 
6.790295e+2, 2.5163633e+2, -510717.8, -605240.25, -2660.859, 0.009329321, -0.0073076477, -510642.97, -36683.32, 0.0, 5.0076613, 4.947017 
6.789672e+2, 2.5658402e+2, -465725.47, -558283.1, -2470.1382, 0.010271476, -0.0010856418, -465659.6, -40184.49, 0.0, 5.0061646, 4.946813 
6.7890495e+2, 2.6152843e+2, -428618.53, -529077.6, -1808.2344, 0.009272334, 0.014596645, -428586.0, -51564.363, 0.0, 5.004663, 4.940365 
6.7884254e+2, 2.6646993e+2, -381293.28, -477110.84, -1957.2079, 0.0052415044, 0.010818344, -381253.3, -52657.793, 0.0, 5.0031943, 4.941854 
6.7878014e+2, 2.714114e+2, -335871.66, -429435.66, -1991.365, 0.0011488373, 0.005502081, -335829.28, -55659.45, 0.0, 5.0017176, 4.9418483 
6.7871773e+2, 2.763528e+2, -290510.03, -381880.8, -2020.5514, -0.0030023234, 0.00021252215, -290465.38, -58721.2, 0.0, 5.0002303, 4.941795 
6.786553e+2, 2.8128964e+2, -256920.94, -361093.9, -2255.1199, -0.005304806, 0.0052004475, -256872.14, -73508.07, 0.0, 4.998699, 4.9322944 
6.785924e+2, 2.862231e+2, -209563.48, -308563.16, -2505.2422, -0.0031572045, 0.00019053563, -209500.13, -74481.18, 0.0, 4.9971085, 4.9339876 
6.785295e+2, 2.911566e+2, -164290.11, -260827.47, -2330.5654, -0.0008528351, -0.0057378625, -164233.88, -77560.15, 0.0, 4.9955134, 4.933987 
6.7846656e+2, 2.9609007e+2, -118991.91, -213063.42, -2152.9133, 0.001401129, -0.011704066, -118942.664, -80614.1, 0.0, 4.993917, 4.9339867 
6.7840385e+2, 3.0104247e+2, -54451.95, -87262.44, -2293.4119, 0.0030818328, 0.0056308676, -54292.418, -54292.418, 0.0, 4.9922643, 4.9711204 
6.783418e+2, 3.0602e+2, -53672.832, -75987.84, -1810.7523, 0.0006163802, 0.022874294, -53526.85, -53526.85, 0.0, 4.990436, 4.9759846 
6.7827976e+2, 3.1099793e+2, -58707.48, -78103.77, -1530.0193, -0.0025050775, 0.03879571, -58587.53, -58587.53, 0.0, 4.9885664, 4.9760146 
6.782177e+2, 3.1597593e+2, -63822.754, -80271.516, -1239.3042, -0.0059557534, 0.05485555, -63729.902, -63729.902, 0.0, 4.986663, 4.9760447 
6.8564516e+2, 1.22669436e+2, -1633699.1, -1734263.6, 2481.0195, -0.0041457987, -0.005401905, -1633638.0, 104212.9, 0.0, 5.0453577, 4.9794307 
6.8558604e+2, 1.2764743e+2, -1594699.1, -1699013.4, 1748.4738, -0.00040318535, 0.020104093, -1594669.8, 94396.24, 0.0, 5.043937, 4.975669 
6.855267e+2, 1.326219e+2, -1550121.0, -1652303.3, 1818.5579, 0.0013505365, 0.01137907, -1550088.6, 90227.09, 0.0, 5.0425115, 4.975666 
6.854675e+2, 1.3759634e+2, -1507758.4, -1610231.1, 1769.0938, 0.003238944, 0.0039736796, -1507727.8, 83837.86, 0.0, 5.041089, 4.974115 
6.854075e+2, 1.425692e+2, -1465702.3, -1568714.1, 1298.2152, 0.005412765, 0.009102563, -1465685.9, 77144.59, 0.0, 5.0396366, 4.9723063 
6.8534684e+2, 1.4754122e+2, -1421264.4, -1521647.0, 1273.454, 0.0041069174, 0.0058824415, -1421248.1, 72854.19, 0.0, 5.0380507, 4.972463 
6.8528616e+2, 1.5251328e+2, -1377028.6, -1475025.5, 1288.1417, 0.0027693848, 0.0026234875, -1377011.6, 68362.61, 0.0, 5.036464, 4.972463 
6.852256e+2, 1.5748529e+2, -1334225.8, -1431454.6, 1208.9526, 0.0014153293, -0.00019374261, -1334210.6, 62435.664, 0.0, 5.03488, 4.971432 
6.8516445e+2, 1.6245463e+2, -1295314.6, -1396525.4, 925.5235, 0.00040605335, 0.005330133, -1295306.1, 52640.105, 0.0, 5.0333757, 4.967461 
6.8510306e+2, 1.6742215e+2, -1250378.9, -1349205.3, 1070.4792, -0.00010771341, 0.0057995995, -1250367.3, 48898.715, 0.0, 5.031927, 4.967586 
6.8504167e+2, 1.7238966e+2, -1205596.3, -1302237.9, 1251.5366, -0.0006193611, 0.0062141493, -1205580.0, 45005.65, 0.0, 5.0304785, 4.9675846 
6.8498033e+2, 1.7735717e+2, -1161942.8, -1257705.5, 1418.6051, -0.0011362684, 0.006985198, -1161921.8, 39983.676, 0.0, 5.0290303, 4.966756 
6.8491846e+2, 1.8232171e+2, -1122168.4, -1221768.3, 810.8261, -0.00036805106, 0.010534608, -1122161.8, 31089.807, 0.0, 5.0276346, 4.962981 
6.8485624e+2, 1.872838e+2, -1076550.4, -1173661.8, 752.3923, 0.0023669004, -0.00025395697, -1076544.5, 28074.559, 0.0, 5.026297, 4.9632716 
6.847941e+2, 1.922459e+2, -1031302.1, -1126380.4, 698.4486, 0.0050758696, -0.011191907, -1031297.0, 24689.443, 0.0, 5.0249605, 4.963276 
6.8473196e+2, 1.9720799e+2, -986911.8, -1080974.9, 674.1579, 0.0077575664, -0.0218799, -986907.0, 20446.719, 0.0, 5.023624, 4.9626346 
6.846693e+2, 2.0216812e+2, -948823.94, -1048996.5, 648.3874, 0.0072917617, -0.015173786, -948819.75, 9923.373, 0.0, 5.0222373, 4.9574265 
6.8460613e+2, 2.0712651e+2, -903248.1, -1000734.94, 846.699, 0.0043279645, -0.007847025, -903240.75, 6912.513, 0.0, 5.0208173, 4.957761 
6.84543e+2, 2.120849e+2, -858104.56, -953447.9, 1085.035, 0.0014039289, -0.0006537991, -858092.2, 3471.2883, 0.0, 5.0193977, 4.957755 
6.8447983e+2, 2.170433e+2, -813601.1, -907594.8, 1344.1888, -0.0015113365, 0.0067097303, -813581.94, -608.1419, 0.0, 5.017978, 4.9572487 
6.844169e+2, 2.2199814e+2, -775251.4, -875292.2, 1382.5615, -0.0021955532, 0.014772875, -775232.25, -10815.303, 0.0, 5.0165625, 4.9520664 
6.843538e+2, 2.2694942e+2, -729299.25, -826367.6, 1238.5981, 0.00024740913, 0.0028674137, -729283.44, -13390.625, 0.0, 5.0151467, 4.9525743 
6.842907e+2, 2.3190069e+2, -683994.0, -778885.4, 1206.273, 0.0027433375, -0.009369028, -683978.7, -16610.2, 0.0, 5.0137305, 4.9525805 
6.8422765e+2, 2.3685198e+2, -639314.56, -732824.25, 1193.9246, 0.005270637, -0.021659162, -639299.3, -20455.162, 0.0, 5.0123143, 4.9520845 
6.8416446e+2, 2.4180116e+2, -601000.56, -700953.3, 1177.2057, 0.006837916, -0.017114991, -600986.7, -30645.201, 0.0, 5.0108976, 4.9466443 
6.841007e+2, 2.4674888e+2, -554649.2, -651388.94, 1132.0403, 0.00802752, -0.012302719, -554635.94, -32780.727, 0.0, 5.0094995, 4.9473186 
6.8403697e+2, 2.5169662e+2, -509161.8, -603768.44, 1275.6779, 0.009266286, -0.007847077, -509144.63, -35775.625, 0.0, 5.0081015, 4.947314 
6.8397325e+2, 2.5664437e+2, -463899.72, -556688.7, 1426.2031, 0.010481871, -0.0032257747, -463877.78, -38995.098, 0.0, 5.006703, 4.947111 
6.8390954e+2, 2.615889e+2, -426867.7, -527804.7, 2073.1204, 0.009548056, 0.011654988, -426825.13, -50397.48, 0.0, 5.0052304, 4.9405394 
6.838456e+2, 2.6653048e+2, -379917.6, -476092.8, 2015.9067, 0.005331227, 0.008468348, -379875.34, -51874.75, 0.0, 5.003646, 4.9419928 
6.837816e+2, 2.7147204e+2, -334803.8, -428546.5, 2086.838, 0.0011113663, 0.0037707377, -334757.38, -55183.35, 0.0, 5.0020585, 4.941991 
6.837177e+2, 2.7641356e+2, -289720.25, -381104.78, 2159.1643, -0.0030983868, -0.0009227104, -289669.25, -58521.773, 0.0, 5.0004716, 4.941941 
6.836537e+2, 2.8135064e+2, -256202.27, -360047.7, 1946.8109, -0.00540357, 0.0047661355, -256165.78, -73399.945, 0.0, 4.9988585, 4.93257 
6.8358916e+2, 2.8628442e+2, -208979.55, -307539.66, 1662.3789, -0.003413869, 0.00078536157, -208951.52, -74533.5, 0.0, 4.9972124, 4.934281 
6.835246e+2, 2.912182e+2, -163852.84, -259870.14, 1797.2656, -0.0012555937, -0.004084035, -163819.22, -77749.17, 0.0, 4.9955654, 4.9342813 
6.8346e+2, 2.96152e+2, -118695.98, -212169.44, 1931.1685, 0.00089529407, -0.008984594, -118656.09, -80933.96, 0.0, 4.993918, 4.934282 
6.8339556e+2, 3.0110458e+2, -54421.094, -86707.25, 1485.5786, 0.0018675731, 0.008336415, -54352.883, -54352.883, 0.0, 4.9922123, 4.9713254 
6.833315e+2, 3.060815e+2, -53816.66, -75798.18, 1498.8054, -0.0025918093, 0.019729411, -53714.934, -53714.934, 0.0, 4.9903626, 4.976074 
6.832674e+2, 3.110587e+2, -58794.97, -77946.766, 1322.1836, -0.0076010814, 0.028400159, -58704.12, -58704.12, 0.0, 4.988508, 4.976093 
6.832033e+2, 3.1603587e+2, -63762.707, -80111.64, 1157.2638, -0.012780374, 0.036336478, -63681.195, -63681.195, 0.0, 4.986654, 4.976111 
6.9069046e+2, 1.22727625e+2, -1633765.0, -1734514.3, 1269.8274, -0.0019762618, -0.021602897, -1633749.0, 103530.94, 0.0, 5.045369, 4.9793496 
6.906299e+2, 1.2770806e+2, -1594474.4, -1698658.6, 667.7745, 0.001747934, 0.02735274, -1594470.1, 94001.37, 0.0, 5.0439467, 4.9757876 
6.90569e+2, 1.3268234e+2, -1549900.8, -1651954.6, 740.3807, 0.0020921237, 0.015606382, -1549895.4, 89827.84, 0.0, 5.0425205, 4.975784 
6.905081e+2, 1.3765661e+2, -1507527.6, -1609855.4, 717.92883, 0.002532489, 0.005228154, -1507522.6, 83452.625, 0.0, 5.0410976, 4.974242 
6.904467e+2, 1.426294e+2, -1465579.8, -1568530.0, 107.312874, 0.004124019, 0.008646857, -1465579.6, 76661.164, 0.0, 5.039641, 4.9723706 
6.9038445e+2, 1.4760143e+2, -1421173.3, -1521530.5, 75.58058, 0.003137967, 0.0049466016, -1421173.3, 72339.65, 0.0, 5.0380554, 4.972505 
6.903223e+2, 1.5257345e+2, -1376936.8, -1474910.6, 91.40517, 0.0021131001, 0.0012182611, -1376936.6, 67848.32, 0.0, 5.0364695, 4.972504 
6.9026005e+2, 1.5754549e+2, -1334130.5, -1431336.3, 10.265821, 0.0010665961, -0.0020675443, -1334130.5, 61926.684, 0.0, 5.034886, 4.9714746 
6.9019747e+2, 1.6251498e+2, -1294912.0, -1395758.1, -178.08678, 0.00021061227, 0.003395219, -1294911.6, 52443.887, 0.0, 5.0333815, 4.967721 
6.901346e+2, 1.6748282e+2, -1249984.3, -1348444.6, -28.98817, -0.00068501575, 0.004682752, -1249984.3, 48686.996, 0.0, 5.0319314, 4.967845 
6.900717e+2, 1.7245066e+2, -1205209.5, -1301483.5, 155.59064, -0.0015999117, 0.005965062, -1205209.3, 44777.652, 0.0, 5.0304813, 4.967843 
6.900089e+2, 1.7741852e+2, -1161570.4, -1256972.1, 317.70486, -0.0025404128, 0.007653226, -1161569.4, 39733.363, 0.0, 5.029032, 4.9670086 
6.899456e+2, 1.8238327e+2, -1122140.5, -1221787.5, -215.48566, -0.001975071, 0.011793194, -1122140.0, 30507.287, 0.0, 5.027641, 4.9629774 
6.8988204e+2, 1.8734542e+2, -1076578.8, -1173789.0, -263.8428, 0.00068483566, 0.0020123497, -1076578.1, 27437.648, 0.0, 5.0263014, 4.963232 
6.898185e+2, 1.9230756e+2, -1031337.5, -1126509.6, -313.48752, 0.003288426, -0.007817048, -1031336.44, 24047.553, 0.0, 5.024963, 4.963237 
6.89755e+2, 1.9726972e+2, -986953.0, -1081103.9, -333.41702, 0.005838548, -0.017322656, -986951.8, 19800.313, 0.0, 5.023624, 4.9625964 
6.89691e+2, 2.0222989e+2, -948277.1, -1047912.75, -457.20673, 0.005560112, -0.012100293, -948275.0, 9866.083, 0.0, 5.022246, 4.9577975 
6.8962646e+2, 2.0718831e+2, -902766.44, -999778.06, -237.27966, 0.0032422792, -0.007855494, -902765.9, 6783.0293, 0.0, 5.0208235, 4.958091 
6.8956196e+2, 2.1214671e+2, -857636.0, -952500.94, 8.161325, 0.00092715275, -0.003591272, -857636.0, 3320.7114, 0.0, 5.0194016, 4.9580846 
6.894975e+2, 2.1710514e+2, -813146.1, -906658.7, 274.38977, -0.0014128584, 0.0009308088, -813145.3, -780.7703, 0.0, 5.0179796, 4.9575763 
6.8943304e+2, 2.2206019e+2, -775183.56, -875220.1, 294.15356, -0.0020684476, 0.009097891, -775182.7, -11377.33, 0.0, 5.0165677, 4.952094 
6.8936855e+2, 2.2701186e+2, -729278.2, -826394.44, 156.53586, -0.00010705116, 0.0011914275, -729277.94, -13998.605, 0.0, 5.0151515, 4.952569 
6.8930393e+2, 2.3196352e+2, -683978.4, -778918.8, 129.60771, 0.001885199, -0.006989451, -683978.2, -17224.973, 0.0, 5.013734, 4.952574 
6.8923944e+2, 2.3691519e+2, -639304.25, -732864.25, 122.76754, 0.0038849441, -0.015195394, -639304.1, -21077.01, 0.0, 5.0123167, 4.9520764 
6.8917483e+2, 2.4186456e+2, -600607.9, -700170.94, 89.28092, 0.0054738186, -0.010312628, -600607.8, -30884.38, 0.0, 5.010905, 4.9469185 
6.891097e+2, 2.4681215e+2, -554322.3, -650757.75, 55.306778, 0.0067516905, -0.009032067, -554322.25, -33085.215, 0.0, 5.0095077, 4.9475417 
6.8904454e+2, 2.5175977e+2, -508838.78, -603145.3, 202.2743, 0.008001802, -0.007997154, -508838.34, -36087.68, 0.0, 5.0081096, 4.9475355 
6.8897945e+2, 2.5670737e+2, -463580.5, -556073.5, 356.172, 0.009200307, -0.006795733, -463579.13, -39314.87, 0.0, 5.006711, 4.947331 
6.8891424e+2, 2.616519e+2, -426625.0, -527354.4, 882.3748, 0.008502252, 0.0063214577, -426617.28, -50809.066, 0.0, 5.0052366, 4.9407015 
6.888488e+2, 2.6659378e+2, -379712.44, -475728.97, 800.5421, 0.0049513564, 0.0045148814, -379705.75, -52327.027, 0.0, 5.0036526, 4.9421253 
6.8878335e+2, 2.715356e+2, -334599.1, -428184.1, 872.7441, 0.0013513066, 0.0012718535, -334590.94, -55641.242, 0.0, 5.0020657, 4.942123 
6.8871784e+2, 2.7647746e+2, -289515.94, -380743.84, 946.3543, -0.0022834777, -0.0019779827, -289506.13, -58985.41, 0.0, 5.0004783, 4.942073 
6.886523e+2, 2.814148e+2, -255888.48, -359454.66, 670.1701, -0.004235273, 0.004988619, -255884.14, -73747.75, 0.0, 4.998869, 4.932782 
6.88586e+2, 2.8634888e+2, -208670.23, -306959.63, 390.76233, -0.0026126096, 0.0020362597, -208668.69, -74883.11, 0.0, 4.997223, 4.93449 
6.885198e+2, 2.9128298e+2, -163547.34, -259295.25, 526.16187, -0.00090784486, -0.0017513044, -163544.45, -78109.86, 0.0, 4.995575, 4.9344897 
6.884535e+2, 2.962171e+2, -118394.25, -211599.67, 660.57764, 0.0007620718, -0.0055214227, -118389.57, -81305.93, 0.0, 4.9939275, 4.9344893 
6.883873e+2, 3.011698e+2, -54331.67, -86629.95, 105.91329, 0.0006695423, 0.011098392, -54331.33, -54331.33, 0.0, 4.9922214, 4.9713655 
6.8832123e+2, 3.061458e+2, -53962.855, -76217.15, 122.43606, -0.0049764905, 0.015006066, -53962.18, -53962.18, 0.0, 4.9903655, 4.9759393 
6.882552e+2, 3.1112197e+2, -58950.99, -78337.12, -23.26072, -0.011138648, 0.015789771, -58950.96, -58950.96, 0.0, 4.988505, 4.9759674 
6.881892e+2, 3.1609815e+2, -63928.535, -80473.38, -157.28749, -0.01754504, 0.015990376, -63927.04, -63927.04, 0.0, 4.9866443, 4.975995 
6.957358e+2, 1.2278828e+2, -1634544.9, -1736229.4, 47.019505, 0.0019571846, -0.013166607, -1634544.9, 102140.12, 0.0, 5.0453806, 4.9787855 
6.9567364e+2, 1.2776868e+2, -1594250.1, -1698304.0, -411.7549, 0.003849039, 0.034582727, -1594248.5, 93628.516, 0.0, 5.043957, 4.9759054 
6.956112e+2, 1.3274278e+2, -1549680.9, -1651606.0, -336.62836, 0.002801423, 0.019772239, -1549679.8, 89451.0, 0.0, 5.0425305, 4.9759007 
6.955488e+2, 1.3771686e+2, -1507307.4, -1609500.6, -332.23517, 0.0018071976, 0.0063866335, -1507306.4, 83078.484, 0.0, 5.041106, 4.974362 
6.954858e+2, 1.4268959e+2, -1465455.6, -1568344.1, -1087.9401, 0.0028273915, 0.008230093, -1465444.1, 76206.984, 0.0, 5.039645, 4.9724355 
6.9542205e+2, 1.4766163e+2, -1421081.8, -1521414.8, -1121.8673, 0.00216382, 0.004010923, -1421069.3, 71854.14, 0.0, 5.03806, 4.9725466 
6.953583e+2, 1.5263365e+2, -1376844.4, -1474796.4, -1104.9054, 0.0014567852, -0.00023372367, -1376832.0, 67363.73, 0.0, 5.0364747, 4.972545 
6.9529456e+2, 1.5760566e+2, -1334056.9, -1431264.9, -1183.2078, 0.0007258284, -0.004035229, -1334042.5, 61425.723, 0.0, 5.034892, 4.971501 
6.952304e+2, 1.6257533e+2, -1294504.3, -1394980.8, -1284.5668, -0.00004663952, 0.0016902363, -1294487.8, 52276.758, 0.0, 5.0333877, 4.9679832 
6.95166e+2, 1.6754352e+2, -1249589.8, -1347684.9, -1128.561, -0.0013120761, 0.0037028547, -1249576.8, 48499.55, 0.0, 5.031936, 4.968103 
6.951017e+2, 1.725117e+2, -1204823.0, -1300729.8, -940.46246, -0.0026161426, 0.005758099, -1204813.8, 44574.332, 0.0, 5.030485, 4.9681005 
6.9503736e+2, 1.7747988e+2, -1161198.1, -1256239.5, -783.3083, -0.0039661536, 0.008268672, -1161191.8, 39508.156, 0.0, 5.0290346, 4.9672604 
6.9497263e+2, 1.8244483e+2, -1122146.0, -1221878.8, -1235.0859, -0.0036241682, 0.013282559, -1122130.8, 29912.168, 0.0, 5.0276475, 4.962949 
6.949078e+2, 1.8740703e+2, -1076607.4, -1173916.8, -1281.3062, -0.0010439892, 0.004395163, -1076590.5, 26821.752, 0.0, 5.0263057, 4.963192 
6.948429e+2, 1.9236924e+2, -1031373.0, -1126639.4, -1326.6527, 0.0014511266, -0.004451401, -1031354.5, 23427.0, 0.0, 5.0249653, 4.9631963 
6.94778e+2, 1.9733147e+2, -986994.25, -1081233.3, -1342.2234, 0.0038665764, -0.012900197, -986975.1, 19175.36, 0.0, 5.0236244, 4.962557 
6.947126e+2, 2.0229167e+2, -947771.56, -1046919.94, -1552.2811, 0.0037746925, -0.008770327, -947747.3, 9791.591, 0.0, 5.022255, 4.958136 
6.946467e+2, 2.072501e+2, -902285.3, -998821.94, -1321.2476, 0.0021353567, -0.0077561005, -902267.25, 6677.16, 0.0, 5.0208306, 4.9584193 
6.9458085e+2, 2.1220854e+2, -857167.94, -951554.7, -1068.7053, 0.0004643898, -0.0066150017, -857155.8, 3194.0046, 0.0, 5.019406, 4.9584117 
6.94515e+2, 2.1716699e+2, -812691.56, -905723.3, -795.40717, -0.0012651581, -0.005128272, -812684.75, -929.48096, 0.0, 5.017981, 4.9579024 
6.9444925e+2, 2.2212227e+2, -775168.8, -875265.9, -785.22656, -0.0020566678, 0.0037945611, -775162.7, -11969.183, 0.0, 5.016573, 4.952081 
6.943832e+2, 2.2707433e+2, -729257.2, -826421.94, -924.4853, -0.0005299572, -0.0002093993, -729248.4, -14582.698, 0.0, 5.015156, 4.952563 
6.943172e+2, 2.3202637e+2, -683962.75, -778952.9, -946.01807, 0.0010189598, -0.004493673, -683953.3, -17815.482, 0.0, 5.0137377, 4.9525657 
6.9425124e+2, 2.3697843e+2, -639293.94, -732904.94, -947.3516, 0.0025514252, -0.008774197, -639284.4, -21674.416, 0.0, 5.0123196, 4.952067 
6.941852e+2, 2.4192797e+2, -600254.44, -699477.1, -989.48145, 0.003988601, -0.0034298475, -600244.56, -31139.29, 0.0, 5.010912, 4.9471617 
6.941187e+2, 2.4687542e+2, -553995.44, -650126.94, -1019.3514, 0.005374267, -0.0057043578, -553984.6, -33365.8, 0.0, 5.009516, 4.9477644 
6.940521e+2, 2.5182292e+2, -508515.75, -602522.56, -869.05554, 0.0066925506, -0.008178098, -508507.72, -36375.418, 0.0, 5.0081177, 4.9477563 
6.939856e+2, 2.5677037e+2, -463261.3, -555458.75, -711.7871, 0.007930734, -0.010484386, -463255.8, -39609.99, 0.0, 5.006719, 4.9475503 
6.93919e+2, 2.6171494e+2, -426395.06, -526933.06, -311.08325, 0.007451784, 0.0010132864, -426394.1, -51205.355, 0.0, 5.0052433, 4.940853 
6.93852e+2, 2.666571e+2, -379507.28, -475365.13, -414.45773, 0.004563945, 0.00061811804, -379505.5, -52748.703, 0.0, 5.0036592, 4.9422574 
6.9378495e+2, 2.715992e+2, -334394.34, -427821.72, -340.9846, 0.0015911653, -0.001180113, -334393.13, -56067.805, 0.0, 5.002073, 4.942255 
6.9371796e+2, 2.765413e+2, -289311.66, -380382.88, -266.09006, -0.0014612043, -0.0029961127, -289310.88, -59416.98, 0.0, 5.000486, 4.942205 
6.9365084e+2, 2.8147894e+2, -255577.45, -358869.9, -603.85925, -0.0030801762, 0.0052724173, -255573.92, -74067.03, 0.0, 4.9988794, 4.932992 
6.935829e+2, 2.8641337e+2, -208360.67, -306380.1, -880.0813, -0.0018611923, 0.0033460169, -208352.78, -75199.7, 0.0, 4.997234, 4.934699 
6.935149e+2, 2.9134777e+2, -163241.6, -258720.84, -744.16925, -0.00063279574, 0.0006266563, -163235.78, -78436.695, 0.0, 4.9955854, 4.9346976 
6.9344693e+2, 2.9628223e+2, -118092.266, -211030.38, -609.2409, 0.0005333144, -0.0020266233, -118088.27, -81643.18, 0.0, 4.993937, 4.9346967 
6.933789e+2, 3.01235e+2, -54275.652, -86628.84, -1282.4303, -0.00048278438, 0.013594058, -54224.9, -54224.9, 0.0, 4.9922304, 4.9713736 
6.933109e+2, 3.0620998e+2, -54109.883, -76635.07, -1269.4594, -0.0074961474, 0.009191397, -54038.563, -54038.563, 0.0, 4.9903684, 4.9757953 
6.9324297e+2, 3.1118515e+2, -59107.824, -78726.445, -1384.2249, -0.015056475, 0.0012972789, -59010.637, -59010.637, 0.0, 4.988502, 4.975833 
6.9317496e+2, 3.1616032e+2, -64095.164, -80834.12, -1487.353, -0.022934912, -0.0070275557, -63964.035, -63964.035, 0.0, 4.986635, 4.9758706 
7.007813e+2, 1.2285015e+2, -1635877.4, -1738622.3, -296.74744, 0.0070354105, 0.006164071, -1635876.5, 100201.31, 0.0, 5.045305, 4.9780326 
7.007174e+2, 1.2782921e+2, -1594494.5, -1698034.3, -523.12335, 0.005718418, 0.038964905, -1594491.9, 92791.445, 0.0, 5.043791, 4.9760723 
7.006534e+2, 1.3280326e+2, -1550203.9, -1651476.8, -359.93243, 0.00333412, 0.022154149, -1550202.6, 88335.07, 0.0, 5.0422716, 4.976066 
7.0058936e+2, 1.377773e+2, -1508112.0, -1609504.6, -247.46982, 0.00097313436, 0.0067875125, -1508111.5, 81680.84, 0.0, 5.0407534, 4.974529 
7.0052487e+2, 1.4275005e+2, -1466425.0, -1568651.1, -1076.658, 0.0014685573, 0.007832488, -1466413.8, 74644.71, 0.0, 5.039282, 4.972508 
7.0045954e+2, 1.4772213e+2, -1421833.4, -1521682.8, -1143.2842, 0.0010800839, 0.003469741, -1421820.3, 70510.64, 0.0, 5.037782, 4.9725914 
7.003942e+2, 1.5269415e+2, -1377360.1, -1474959.3, -1161.9354, 0.00067795615, -0.00094854145, -1377346.3, 66257.086, 0.0, 5.0362773, 4.972587 
7.00329e+2, 1.5766616e+2, -1334379.5, -1431383.1, -1273.7441, 0.000281622, -0.0049418234, -1334362.8, 60513.285, 0.0, 5.034769, 4.971523 
7.002633e+2, 1.6263598e+2, -1294407.3, -1394334.3, -1332.1383, -0.0003860745, 0.0010668865, -1294389.5, 51781.332, 0.0, 5.033293, 4.968245 
7.001975e+2, 1.6760442e+2, -1249520.3, -1347060.8, -1229.7992, -0.0018029764, 0.00302484, -1249504.8, 47974.688, 0.0, 5.031833, 4.9683623 
7.001317e+2, 1.7257285e+2, -1204794.8, -1300126.6, -1093.828, -0.0032477283, 0.0050292085, -1204782.3, 44005.94, 0.0, 5.0303683, 4.96836 
7.0006585e+2, 1.7754127e+2, -1161304.3, -1255825.6, -968.0756, -0.004733089, 0.0075053405, -1161294.3, 38802.51, 0.0, 5.0288987, 4.9674654 
6.9999975e+2, 1.8250643e+2, -1122513.4, -1222002.3, -1352.3156, -0.0047018966, 0.0135871, -1122495.0, 28943.129, 0.0, 5.02751, 4.962973 
6.9993347e+2, 1.8746875e+2, -1076937.3, -1174119.3, -1349.5728, -0.0025894335, 0.006263919, -1076918.6, 25889.09, 0.0, 5.026199, 4.9631753 
6.9986725e+2, 1.9243108e+2, -1031641.9, -1126818.8, -1365.1168, -0.0004837115, -0.0011436837, -1031622.3, 22554.867, 0.0, 5.024879, 4.9631777 
6.9980097e+2, 1.973934e+2, -987231.44, -1081400.5, -1352.2742, 0.0016154749, -0.008275541, -987212.06, 18334.516, 0.0, 5.0235486, 4.9625373 
6.997343e+2, 2.0235367e+2, -947553.8, -1046155.0, -1668.9458, 0.0017350556, -0.0048620314, -947525.6, 9408.786, 0.0, 5.0221887, 4.9584284 
6.99667e+2, 2.0731206e+2, -902005.4, -997990.94, -1574.4332, 0.0009252163, -0.007298974, -901979.56, 6358.7876, 0.0, 5.020779, 4.9587274 
6.995998e+2, 2.1227047e+2, -856869.4, -950704.2, -1438.5933, 0.00007722413, -0.009607063, -856847.3, 2894.87, 0.0, 5.0193605, 4.958724 
6.995326e+2, 2.1722887e+2, -812402.75, -904866.06, -1265.3363, -0.0008377709, -0.011560796, -812385.44, -1239.57, 0.0, 5.017934, 4.958218 
6.9946533e+2, 2.221844e+2, -775350.3, -875383.56, -1230.1521, -0.001827537, -0.0015146926, -775335.2, -12753.686, 0.0, 5.0165167, 4.952067 
6.9939786e+2, 2.2713685e+2, -729374.7, -826438.0, -1312.0376, -0.0008326591, -0.001644332, -729357.0, -15305.498, 0.0, 5.0151043, 4.952582 
6.9933045e+2, 2.3208931e+2, -684076.4, -778977.3, -1268.5377, 0.00022443008, -0.0021248695, -684059.44, -18537.875, 0.0, 5.0136876, 4.952582 
6.99263e+2, 2.3704174e+2, -639416.7, -732941.9, -1206.2444, 0.0012857305, -0.0026159966, -639401.1, -22409.441, 0.0, 5.012267, 4.95208 
6.991955e+2, 2.4199145e+2, -600072.44, -698933.25, -1238.2009, 0.002369885, 0.0033403384, -600056.94, -31570.926, 0.0, 5.0108776, 4.9473696 
6.9912755e+2, 2.4693877e+2, -553722.5, -649527.94, -1367.6012, 0.003856008, -0.0023885071, -553702.94, -33703.305, 0.0, 5.009511, 4.947979 
6.990596e+2, 2.518861e+2, -508190.16, -601895.56, -1299.0553, 0.005311043, -0.008317155, -508172.13, -36658.883, 0.0, 5.008131, 4.9479733 
6.989917e+2, 2.5683343e+2, -462913.22, -554817.8, -1209.5985, 0.006702844, -0.014082027, -462897.3, -39870.492, 0.0, 5.006741, 4.9477687 
6.989237e+2, 2.6177806e+2, -426113.2, -526489.25, -973.3882, 0.006476529, -0.0040370077, -426103.75, -51535.05, 0.0, 5.005274, 4.9409995 
6.9885516e+2, 2.6672047e+2, -379214.06, -474941.97, -1115.7898, 0.0042286646, -0.0031075203, -379201.03, -53066.645, 0.0, 5.0036993, 4.9423933 
6.987866e+2, 2.716628e+2, -334103.13, -427400.13, -1060.9083, 0.0018987338, -0.003552457, -334091.06, -56390.504, 0.0, 5.0021124, 4.942391 
6.9871813e+2, 2.766052e+2, -289046.63, -379973.72, -1003.8536, -0.0005257968, -0.004000731, -289035.53, -59768.75, 0.0, 5.000517, 4.942341 
6.9864935e+2, 2.8154314e+2, -255202.94, -358236.1, -1405.6208, -0.0018188636, 0.005582552, -255183.77, -74306.664, 0.0, 4.998915, 4.9332056 
6.985797e+2, 2.8647783e+2, -207894.98, -305703.72, -1681.8545, -0.0010897657, 0.0046968306, -207866.08, -75345.82, 0.0, 4.997302, 4.934915 
6.9851005e+2, 2.914126e+2, -162714.17, -258021.77, -1549.4312, -0.0003911938, 0.0030250917, -162689.0, -78525.73, 0.0, 4.995677, 4.9349127 
6.984404e+2, 2.9634735e+2, -117529.64, -210320.44, -1420.2821, 0.00023640673, 0.001446493, -117507.91, -81701.65, 0.0, 4.994043, 4.9349103 
6.983705e+2, 3.013001e+2, -54023.074, -86611.73, -2282.9216, -0.0015378763, 0.015787851, -53863.926, -53863.926, 0.0, 4.992332, 4.9713407 
6.983006e+2, 3.0627412e+2, -54142.91, -77055.586, -2484.7832, -0.009969746, 0.0024512687, -53876.54, -53876.54, 0.0, 4.9904284, 4.975618 
6.982307e+2, 3.1124818e+2, -59360.016, -79227.484, -2828.8113, -0.018974539, -0.014832295, -58965.086, -58965.086, 0.0, 4.988483, 4.9756584 
6.9816077e+2, 3.1622228e+2, -64670.957, -81451.67, -3211.2832, -0.028341424, -0.03250491, -64077.414, -64077.414, 0.0, 4.9865003, 4.9757004 
7.058275e+2, 1.229144e+2, -1632637.8, -1738386.4, 2213.2202, 0.012087949, 0.010023096, -1632591.5, 102855.24, 0.0, 5.0467234, 4.977398 
7.0576143e+2, 1.2789237e+2, -1590345.4, -1695045.6, 2198.155, 0.0067563592, 0.02908048, -1590299.3, 96363.445, 0.0, 5.0450234, 4.976436 
7.056956e+2, 1.3286716e+2, -1546613.8, -1648772.9, 2430.227, 0.0031644788, 0.016420139, -1546556.0, 91353.84, 0.0, 5.043322, 4.976428 
7.056299e+2, 1.3784191e+2, -1505046.5, -1607029.6, 2653.3484, -0.00037151948, 0.0051631914, -1504977.5, 84179.91, 0.0, 5.041624, 4.974905 
7.055638e+2, 1.4281513e+2, -1463917.5, -1567026.3, 1981.9542, -0.0001874226, 0.008655813, -1463879.5, 76540.14, 0.0, 5.0400844, 4.9726415 
7.054971e+2, 1.4778727e+2, -1419354.8, -1520147.5, 1969.6161, -0.00043772455, 0.0051463316, -1419316.4, 72375.555, 0.0, 5.0385923, 4.972694 
7.0543027e+2, 1.5275943e+2, -1374850.8, -1473417.0, 1998.691, -0.00067258254, 0.001593172, -1374810.3, 68154.01, 0.0, 5.037101, 4.9726887 
7.053636e+2, 1.5773155e+2, -1331798.9, -1429778.0, 1941.1563, -0.00087344786, -0.0015097185, -1331760.5, 62476.344, 0.0, 5.035611, 4.971639 
7.0529646e+2, 1.6270141e+2, -1291641.8, -1392311.9, 1940.0729, -0.0012229496, 0.0036341934, -1291604.4, 53926.766, 0.0, 5.034133, 4.9685 
7.052292e+2, 1.6766977e+2, -1246858.8, -1345118.0, 2035.2324, -0.0020132805, 0.0031547986, -1246816.6, 50023.07, 0.0, 5.032646, 4.9686074 
7.05162e+2, 1.7263812e+2, -1202203.9, -1298222.0, 2159.302, -0.0028213614, 0.0027130975, -1202155.3, 45992.867, 0.0, 5.0311594, 4.9686055 
7.050948e+2, 1.7760648e+2, -1158754.4, -1253926.9, 2253.0918, -0.00365707, 0.0027289698, -1158701.0, 40755.64, 0.0, 5.0296736, 4.9677196 
7.050272e+2, 1.8257181e+2, -1120164.6, -1220344.4, 2068.931, -0.003943556, 0.008906728, -1120122.0, 30674.303, 0.0, 5.0282497, 4.9631658 
7.0495945e+2, 1.8753456e+2, -1074737.3, -1172579.1, 2183.8374, -0.0032619124, 0.0050190035, -1074688.5, 27473.732, 0.0, 5.026898, 4.96335 
7.0489174e+2, 1.924973e+2, -1029538.7, -1125337.6, 2281.3242, -0.0025130669, 0.00094160886, -1029484.4, 24043.893, 0.0, 5.0255466, 4.96335 
7.0482403e+2, 1.9746004e+2, -985193.0, -1079962.4, 2410.2668, -0.0016908793, -0.0029822362, -985131.75, 19762.643, 0.0, 5.024195, 4.962707 
7.047559e+2, 2.0242035e+2, -945584.8, -1044709.7, 2080.5596, -0.0013915899, 0.00009821992, -945541.1, 10740.615, 0.0, 5.0228076, 4.9586115 
7.046874e+2, 2.0737852e+2, -900091.25, -996629.3, 2094.455, -0.000965679, -0.005201475, -900045.8, 7642.0313, 0.0, 5.0213943, 4.958885 
7.0461893e+2, 2.1233672e+2, -854936.25, -949317.94, 2117.7114, -0.0005595402, -0.010432667, -854888.75, 4204.9526, 0.0, 5.0199823, 4.9588885 
7.045505e+2, 2.1729492e+2, -810424.75, -903444.3, 2161.5002, -0.0001860335, -0.015400306, -810374.56, 124.84446, 0.0, 5.0185704, 4.958389 
7.0448184e+2, 2.2225055e+2, -773183.7, -873420.1, 2252.6694, -0.0005714869, -0.0064811464, -773133.06, -11199.256, 0.0, 5.017132, 4.952436 
7.044128e+2, 2.2720344e+2, -727397.56, -824692.6, 2370.508, -0.00036815376, -0.0044059735, -727339.9, -13940.891, 0.0, 5.015681, 4.952897 
7.0434386e+2, 2.3215634e+2, -682208.4, -777298.3, 2600.9219, -0.00008430243, -0.002602329, -682137.3, -17273.076, 0.0, 5.0142293, 4.9528933 
7.042749e+2, 2.3710923e+2, -637644.2, -731323.7, 2851.925, 0.00025017644, -0.0008099713, -637557.44, -21227.793, 0.0, 5.0127773, 4.9523873 
7.04206e+2, 2.4205914e+2, -598566.8, -697784.4, 2978.5015, 0.0008994467, 0.005811675, -598477.44, -30655.715, 0.0, 5.0113645, 4.947526 
7.0413667e+2, 2.4700643e+2, -552300.3, -648512.06, 2762.38, 0.002044189, -0.00057008525, -552221.06, -32884.734, 0.0, 5.00999, 4.9480934 
7.0406735e+2, 2.5195372e+2, -506758.6, -600857.56, 2729.7244, 0.0032364898, -0.007153901, -506679.47, -35828.65, 0.0, 5.008613, 4.9480944 
7.0399797e+2, 2.5690103e+2, -461442.53, -553744.0, 2704.006, 0.0044635306, -0.013603329, -461363.4, -38998.23, 0.0, 5.0072365, 4.947897 
7.039286e+2, 2.6184565e+2, -424451.4, -525093.8, 2791.5625, 0.004781656, -0.004242362, -424374.03, -50467.05, 0.0, 5.00579, 4.941232 
7.038586e+2, 2.6678815e+2, -377561.13, -473579.25, 2669.8992, 0.003772736, -0.003782333, -377486.94, -52015.38, 0.0, 5.0042195, 4.9426155 
7.0378864e+2, 2.7173063e+2, -332426.28, -426029.84, 2772.2954, 0.0027114446, -0.0045912, -332344.25, -55307.69, 0.0, 5.0026445, 4.942613 
7.037186e+2, 2.7667308e+2, -287321.63, -378585.3, 2875.8958, 0.001604707, -0.0053237905, -287231.1, -58629.54, 0.0, 5.001069, 4.942563 
7.036484e+2, 2.8161123e+2, -253199.44, -356395.34, 2571.3774, 0.0008754692, 0.004546595, -253135.4, -72926.05, 0.0, 4.999506, 4.933568 
7.035771e+2, 2.8654635e+2, -205682.14, -303748.8, 2413.1677, 0.0006307092, 0.004780021, -205622.8, -73774.83, 0.0, 4.997967, 4.935289 
7.0350575e+2, 2.914815e+2, -160278.84, -255976.39, 2657.4849, 0.0003735625, 0.0041812514, -160205.11, -76718.555, 0.0, 4.9964266, 4.9352856 
7.034344e+2, 2.9641664e+2, -114847.27, -208174.66, 2901.6372, 0.00010585508, 0.0036046354, -114757.14, -79631.93, 0.0, 4.994887, 4.935282 
7.033629e+2, 3.0136943e+2, -51791.477, -86107.08, 1795.6581, -0.0021421458, 0.017555257, -51697.77, -51697.77, 0.0, 4.9932957, 4.9710875 
7.0329124e+2, 3.0634242e+2, -51635.92, -77266.76, 1206.986, -0.009240532, 0.0012978575, -51579.207, -51579.207, 0.0, 4.9916334, 4.9750175 
7.032197e+2, 3.113154e+2, -56091.348, -79283.03, 531.1283, -0.01641147, -0.019569118, -56079.188, -56079.188, 0.0, 4.9899755, 4.9750085 
7.031482e+2, 3.1628826e+2, -60537.184, -81312.914, -133.95757, -0.023530638, -0.041545358, -60536.32, -60536.32, 0.0, 4.988318, 4.974999 
7.1087384e+2, 1.2298085e+2, -1633048.5, -1739357.3, 789.1899, 0.013032659, 0.015311945, -1633042.6, 101751.53, 0.0, 5.046735, 4.977081 
7.1080613e+2, 1.2795748e+2, -1589807.6, -1694051.8, 917.39655, 0.007518675, 0.017633747, -1589799.6, 96223.54, 0.0, 5.0450325, 4.976766 
7.1073854e+2, 1.3293308e+2, -1546083.6, -1647783.0, 1152.3878, 0.0027429482, 0.009923097, -1546070.5, 91191.57, 0.0, 5.04333, 4.9767585 
7.106709e+2, 1.3790865e+2, -1504515.0, -1606022.1, 1415.4352, -0.0019872135, 0.0036381506, -1504495.3, 84006.11, 0.0, 5.0416307, 4.975242 
7.106033e+2, 1.4288239e+2, -1463743.4, -1566754.0, 844.4246, -0.002043436, 0.010043885, -1463736.4, 76022.445, 0.0, 5.0400906, 4.9727354 
7.1053505e+2, 1.4785469e+2, -1419222.5, -1519958.5, 841.86475, -0.0021162836, 0.007367336, -1419215.5, 71815.33, 0.0, 5.0385985, 4.972761 
7.104668e+2, 1.52827e+2, -1374721.0, -1473230.4, 872.7364, -0.0021820837, 0.0046643815, -1374713.3, 67589.41, 0.0, 5.037106, 4.9727554 
7.103986e+2, 1.5779927e+2, -1331647.5, -1429541.9, 820.4675, -0.0022314957, 0.0024476629, -1331640.6, 61934.133, 0.0, 5.035616, 4.971723 
7.1033007e+2, 1.6276918e+2, -1291330.1, -1391725.4, 813.483, -0.0023012687, 0.006643236, -1291323.5, 53544.96, 0.0, 5.034137, 4.9687 
7.102614e+2, 1.6773747e+2, -1246570.5, -1344574.8, 909.68024, -0.0024028437, 0.0035497516, -1246562.0, 49614.76, 0.0, 5.032649, 4.9687934 
7.1019274e+2, 1.7270575e+2, -1201921.4, -1297684.4, 1035.9319, -0.0025462043, 0.00054268976, -1201910.1, 45575.004, 0.0, 5.0311613, 4.9687905 
7.101241e+2, 1.7767404e+2, -1158477.3, -1253396.6, 1117.95, -0.0027406232, -0.0019612578, -1158464.1, 40329.344, 0.0, 5.029675, 4.967903 
7.1005505e+2, 1.8263957e+2, -1119885.4, -1219837.4, 1036.7579, -0.003375683, 0.0044259657, -1119874.6, 30256.322, 0.0, 5.0282564, 4.9633403 
7.0998585e+2, 1.876028e+2, -1074491.0, -1172129.8, 1155.8768, -0.0040140077, 0.0037187329, -1074477.4, 27015.422, 0.0, 5.0269027, 4.9635067 
7.0991665e+2, 1.92566e+2, -1029301.94, -1124894.9, 1257.9977, -0.004616296, 0.00289074, -1029285.4, 23569.256, 0.0, 5.025549, 4.9635057 
7.0984745e+2, 1.9752923e+2, -984996.4, -1079592.6, 1395.7253, -0.0051789857, 0.0022845569, -984975.8, 19240.764, 0.0, 5.0241957, 4.9628396 
7.0977795e+2, 2.0248967e+2, -945417.44, -1044422.75, 978.4714, -0.004778238, 0.005413812, -945407.75, 10195.279, 0.0, 5.022812, 4.958713 
7.0970815e+2, 2.0744765e+2, -899983.5, -996464.56, 1015.9086, -0.0030882019, -0.0024884944, -899972.8, 7038.6167, 0.0, 5.0213976, 4.9589458 
7.0963836e+2, 2.1240562e+2, -854833.5, -949158.8, 1043.6854, -0.0014498257, -0.010284004, -854821.94, 3597.6577, 0.0, 5.0199847, 4.958948 
7.095686e+2, 2.1736363e+2, -810327.9, -903292.9, 1091.8282, 0.00013475787, -0.017785193, -810315.06, -487.48016, 0.0, 5.018572, 4.9584465 
7.094985e+2, 2.2231936e+2, -772640.94, -872319.0, 1125.6722, 0.000354307, -0.010205635, -772628.25, -11367.481, 0.0, 5.0171375, 4.9528184 
7.09428e+2, 2.2727272e+2, -726933.1, -823764.9, 1259.4718, -0.000034365934, -0.0068789776, -726916.75, -14196.279, 0.0, 5.015687, 4.953222 
7.093576e+2, 2.3222606e+2, -681749.4, -776381.4, 1495.1262, -0.00038024533, -0.003750356, -681725.75, -17545.41, 0.0, 5.0142355, 4.9532156 
7.092871e+2, 2.3717938e+2, -637190.5, -730417.5, 1751.4834, -0.00070030766, -0.00063193525, -637157.6, -21517.176, 0.0, 5.0127835, 4.952708 
7.092167e+2, 2.4212958e+2, -598478.0, -697677.25, 1920.8593, -0.00055846066, 0.006890458, -598440.8, -31311.258, 0.0, 5.01137, 4.9475665 
7.09146e+2, 2.470769e+2, -552256.44, -648512.44, 1707.094, 0.00012925029, 0.00094502995, -552226.2, -33581.48, 0.0, 5.0099974, 4.9480968 
7.090752e+2, 2.5202423e+2, -506712.8, -600861.3, 1677.641, 0.00083632214, -0.005241147, -506682.9, -36523.156, 0.0, 5.008621, 4.9480968 
7.0900446e+2, 2.569716e+2, -461394.84, -553751.2, 1655.1659, 0.0015568049, -0.011323575, -461365.2, -39690.453, 0.0, 5.007245, 4.947898 
7.0893365e+2, 2.6191625e+2, -424177.25, -524589.9, 1608.7714, 0.0023421927, -0.0023154067, -424151.47, -50934.93, 0.0, 5.0057983, 4.941413 
7.0886225e+2, 2.6685882e+2, -377293.03, -473092.56, 1462.4169, 0.0029533135, -0.0029949965, -377270.72, -52490.563, 0.0, 5.0042286, 4.9427915 
7.0879084e+2, 2.7180132e+2, -332159.28, -425547.53, 1566.1194, 0.0034736432, -0.0049198787, -332133.03, -55788.836, 0.0, 5.0026536, 4.942788 
7.087195e+2, 2.7674386e+2, -287055.7, -378107.34, 1671.0386, 0.0039157695, -0.0067725764, -287025.03, -59116.8, 0.0, 5.001079, 4.942737 
7.0864767e+2, 2.8168225e+2, -252715.67, -355443.28, 1372.3218, 0.0037326894, 0.0027883085, -252697.33, -73183.96, 0.0, 4.99952, 4.9339066 
7.085747e+2, 2.8661782e+2, -205180.28, -302756.72, 1228.0759, 0.0024272774, 0.0040682494, -205164.83, -74018.375, 0.0, 4.997981, 4.935643 
7.085017e+2, 2.9155344e+2, -159780.05, -254987.58, 1472.501, 0.0010812796, 0.004555688, -159757.27, -76977.805, 0.0, 4.996441, 4.93564 
7.0842874e+2, 2.9648903e+2, -114351.516, -207189.11, 1716.761, -0.00028373377, 0.005079218, -114319.78, -79907.22, 0.0, 4.994901, 4.9356365 
7.0835555e+2, 3.0144188e+2, -52262.055, -87402.32, 515.50867, -0.0028967785, 0.019082164, -52254.492, -52254.492, 0.0, 4.9933133, 4.970623 
7.0828253e+2, 3.064141e+2, -52513.438, -79466.59, -41.257553, -0.007865844, 0.0025954612, -52513.375, -52513.375, 0.0, 4.991645, 4.9742274 
7.082096e+2, 3.1138623e+2, -56990.715, -81473.62, -690.8867, -0.012847836, -0.018143212, -56971.234, -56971.234, 0.0, 4.9899793, 4.974224 
7.081367e+2, 3.1635827e+2, -61458.39, -83494.266, -1329.7683, -0.017838536, -0.0397901, -61378.438, -61378.438, 0.0, 4.9883137, 4.9742203 
7.1592027e+2, 1.2304614e+2, -1632926.9, -1739233.0, -586.9702, 0.01407064, 0.0091120815, -1632923.6, 101229.38, 0.0, 5.0467463, 4.9771233 
7.1585083e+2, 1.280226e+2, -1589270.1, -1693058.6, -364.508, 0.008179275, 0.00647167, -1589268.9, 96114.484, 0.0, 5.0450425, 4.9770956 
7.157814e+2, 1.3299902e+2, -1545553.5, -1646793.8, -126.59845, 0.0022165705, 0.0036469046, -1545553.3, 91060.72, 0.0, 5.043339, 4.9770875 
7.157119e+2, 1.3797542e+2, -1503991.5, -1605032.3, 181.41946, -0.003696867, 0.0022691695, -1503991.3, 83853.805, 0.0, 5.0416374, 4.975573 
7.156427e+2, 1.4294966e+2, -1463585.5, -1566517.1, -296.85452, -0.003908645, 0.011581429, -1463584.6, 75513.516, 0.0, 5.040097, 4.972818 
7.15573e+2, 1.4792211e+2, -1419089.9, -1519770.1, -285.6791, -0.0037964024, 0.0096736755, -1419089.1, 71280.52, 0.0, 5.0386047, 4.972828 
7.155033e+2, 1.5289456e+2, -1374591.0, -1473044.4, -253.01115, -0.0036858835, 0.00775998, -1374590.4, 67050.74, 0.0, 5.0371118, 4.972822 
7.154336e+2, 1.5786698e+2, -1331508.6, -1429333.0, -296.74738, -0.0035844534, 0.0063812295, -1331507.8, 61405.035, 0.0, 5.035621, 4.971798 
7.1536356e+2, 1.6283695e+2, -1291016.6, -1391136.0, -315.10687, -0.0034082404, 0.009698481, -1291015.6, 53190.08, 0.0, 5.0341406, 4.9688997 
7.152935e+2, 1.6780518e+2, -1246282.3, -1344032.0, -215.52815, -0.0028066365, 0.0039327634, -1246281.8, 49232.207, 0.0, 5.032652, 4.968979 
7.1522343e+2, 1.7277339e+2, -1201638.8, -1297147.4, -87.09569, -0.0022705386, -0.0017000599, -1201638.8, 45183.4, 0.0, 5.0311637, 4.968975 
7.151534e+2, 1.777416e+2, -1158222.5, -1252915.8, -8.327571, -0.0018123903, -0.0067745424, -1158222.5, 39907.727, 0.0, 5.029677, 4.96807 
7.150828e+2, 1.8270737e+2, -1119610.1, -1219338.8, 4.3876204, -0.002892767, 0.00019903816, -1119610.1, 29855.188, 0.0, 5.028263, 4.963511 
7.1501213e+2, 1.8767105e+2, -1074245.3, -1171680.8, 127.71286, -0.0048259213, 0.0025571191, -1074245.0, 26578.066, 0.0, 5.0269074, 4.963662 
7.1494144e+2, 1.9263473e+2, -1029065.6, -1124452.8, 234.46585, -0.006754663, 0.0048632394, -1029065.0, 23115.87, 0.0, 5.0255523, 4.9636602 
7.1487087e+2, 1.9759841e+2, -984794.2, -1079211.4, 380.42755, -0.008678034, 0.0074637136, -984792.6, 18746.027, 0.0, 5.0241966, 4.962975 
7.1479994e+2, 2.0255901e+2, -945292.1, -1044227.56, -116.86576, -0.00822258, 0.010968353, -945292.0, 9632.138, 0.0, 5.0228167, 4.958782 
7.1472883e+2, 2.0751677e+2, -899875.7, -996300.5, -61.895023, -0.005226803, 0.00033201007, -899875.7, 6459.226, 0.0, 5.0214014, 4.9590054 
7.146578e+2, 2.1247455e+2, -854730.7, -949000.4, -29.599224, -0.0023131336, -0.010166839, -854730.6, 3014.789, 0.0, 5.0199876, 4.9590063 
7.1458673e+2, 2.1743235e+2, -810231.0, -903142.2, 22.89192, 0.00052553363, -0.020340446, -810230.94, -1075.1648, 0.0, 5.0185738, 4.9585032 
7.1451527e+2, 2.223882e+2, -772131.7, -871292.6, 6.277911, 0.0011547438, -0.013684037, -772131.7, -11544.219, 0.0, 5.0171437, 4.953174 
7.1444327e+2, 2.27342e+2, -726468.75, -822837.94, 151.14825, 0.00023681573, -0.00923214, -726468.56, -14426.6875, 0.0, 5.0156937, 4.953545 
7.1437126e+2, 2.3229578e+2, -681290.44, -775465.3, 392.04062, -0.0006642191, -0.0049343286, -681288.8, -17792.406, 0.0, 5.0142417, 4.9535365 
7.142993e+2, 2.3724954e+2, -636736.8, -729512.0, 653.7496, -0.0015643326, -0.0006454596, -636732.25, -21781.076, 0.0, 5.0127897, 4.953027 
7.1422744e+2, 2.4220003e+2, -598436.5, -697675.8, 866.6773, -0.0020943636, 0.008196178, -598428.94, -31991.695, 0.0, 5.0113764, 4.9475703 
7.1415526e+2, 2.4714741e+2, -552212.25, -648513.25, 653.8086, -0.0018338868, 0.0026348475, -552207.8, -34254.906, 0.0, 5.0100045, 4.9480996 
7.140831e+2, 2.5209478e+2, -506666.75, -600865.56, 627.55774, -0.0015697583, -0.003243996, -506662.56, -37193.92, 0.0, 5.0086293, 4.948098 
7.1401095e+2, 2.5704214e+2, -461346.88, -553758.8, 608.32574, -0.0013135991, -0.009049633, -461342.88, -40358.582, 0.0, 5.0072546, 4.947898 
7.1393865e+2, 2.6198688e+2, -423912.34, -524107.25, 423.71555, -0.0000940456, -0.00037061164, -423910.53, -51384.496, 0.0, 5.0058074, 4.9415855 
7.138659e+2, 2.669295e+2, -377024.84, -472606.13, 256.24628, 0.002146952, -0.002194435, -377024.16, -52935.465, 0.0, 5.0042377, 4.9429665 
7.137931e+2, 2.718721e+2, -331892.16, -425065.5, 361.2549, 0.004269338, -0.0052584372, -331890.78, -56239.0, 0.0, 5.0026636, 4.942962 
7.1372026e+2, 2.7681467e+2, -286789.66, -377629.66, 467.4926, 0.0062807347, -0.008254322, -286787.25, -59572.37, 0.0, 5.001089, 4.9429107 
7.136469e+2, 2.8175327e+2, -252233.47, -354496.72, 176.95602, 0.0065582963, 0.0010763067, -252233.17, -73415.91, 0.0, 4.9995337, 4.9342437 
7.135723e+2, 2.866893e+2, -204678.0, -301765.28, 42.995552, 0.004162655, 0.0034029768, -204677.98, -74233.164, 0.0, 4.997996, 4.9359975 
7.134977e+2, 2.9162538e+2, -159280.8, -253999.4, 287.52884, 0.0017145427, 0.004959649, -159279.92, -77207.66, 0.0, 4.9964557, 4.9359937 
7.1342295e+2, 2.9656142e+2, -113855.33, -206204.2, 531.8968, -0.0007610257, 0.006566375, -113852.266, -80152.46, 0.0, 4.9949155, 4.9359903 
7.133482e+2, 3.0151433e+2, -52804.105, -88863.83, -766.2587, -0.0034954683, 0.020585494, -52787.832, -52787.832, 0.0, 4.9933314, 4.9700937 
7.132738e+2, 3.0648568e+2, -53392.098, -81666.78, -1298.5496, -0.0063621798, 0.0032793675, -53332.586, -53332.586, 0.0, 4.991657, 4.9734297 
7.1319944e+2, 3.1145698e+2, -57891.22, -83664.57, -1921.9423, -0.00924778, -0.018005611, -57748.684, -57748.684, 0.0, 4.9899836, 4.973432 
7.131251e+2, 3.1642818e+2, -62380.723, -85675.99, -2534.6116, -0.012202424, -0.039996907, -62108.137, -62108.137, 0.0, 4.9883103, 4.973434 
7.209665e+2, 1.23111114e+2, -1634943.0, -1739630.1, -561.1079, 0.015244909, -0.0036941285, -1634940.0, 98575.35, 0.0, 5.045928, 4.9774003 
7.208953e+2, 1.280882e+2, -1590825.0, -1693153.4, -435.6293, 0.00844141, -0.0026673041, -1590823.3, 93915.89, 0.0, 5.0443635, 4.9774013 
7.2082406e+2, 1.3306533e+2, -1546755.5, -1646686.9, -293.1254, 0.0016599693, -0.0015692736, -1546754.6, 89208.22, 0.0, 5.0427737, 4.977402 
7.207529e+2, 1.380424e+2, -1504929.5, -1604779.3, -18.236074, -0.0049208445, 0.0009113591, -1504929.5, 82257.38, 0.0, 5.04116, 4.9758906 
7.2068214e+2, 1.430171e+2, -1464610.0, -1566744.4, -387.98148, -0.0050856774, 0.012533739, -1464608.6, 73827.41, 0.0, 5.039687, 4.972942 
7.206109e+2, 1.4798972e+2, -1419956.3, -1519929.8, -292.29993, -0.004971601, 0.011273004, -1419955.4, 69751.195, 0.0, 5.038252, 4.9729457 
7.2053975e+2, 1.5296233e+2, -1375300.9, -1473117.8, -186.76416, -0.0048650578, 0.010048231, -1375300.5, 65676.664, 0.0, 5.0368123, 4.9729414 
7.204686e+2, 1.5793493e+2, -1332088.3, -1429352.9, -138.04008, -0.00479245, 0.009427272, -1332088.0, 60159.82, 0.0, 5.035371, 4.971911 
7.203972e+2, 1.6290498e+2, -1291303.1, -1390897.3, -206.50409, -0.0045221313, 0.012172671, -1291302.8, 52237.387, 0.0, 5.0339613, 4.9690666 
7.2032565e+2, 1.6787311e+2, -1246355.4, -1343740.6, -253.59866, -0.0033761023, 0.004359668, -1246354.8, 48493.8, 0.0, 5.032555, 4.969124 
7.202541e+2, 1.7284125e+2, -1201493.3, -1296744.8, -269.9868, -0.0022613555, -0.0034086236, -1201492.5, 44664.477, 0.0, 5.03114, 4.9691234 
7.2018266e+2, 1.7780939e+2, -1157918.6, -1252482.8, -325.92035, -0.0012014555, -0.010674475, -1157917.5, 39547.8, 0.0, 5.029717, 4.968199 
7.2011065e+2, 1.8277535e+2, -1119250.6, -1218709.6, -268.48074, -0.0026206921, -0.0031653668, -1119250.0, 29548.38, 0.0, 5.028288, 4.9637127 
7.2003853e+2, 1.8773945e+2, -1074103.6, -1171189.4, -106.47951, -0.00552867, 0.001384704, -1074103.5, 26048.893, 0.0, 5.026864, 4.9638505 
7.1996635e+2, 1.9270353e+2, -1029131.2, -1124063.1, 40.842525, -0.008456935, 0.0059477575, -1029131.2, 22375.232, 0.0, 5.025439, 4.963847 
7.1989423e+2, 1.9766761e+2, -985121.5, -1079027.9, 236.05331, -0.011412348, 0.010892443, -985120.94, 17739.525, 0.0, 5.024011, 4.9631257 
7.198219e+2, 2.0262837e+2, -945781.94, -1044336.0, -303.42123, -0.011000286, 0.015202496, -945781.0, 8463.71, 0.0, 5.0226192, 4.9588385 
7.197495e+2, 2.07586e+2, -900230.5, -996360.5, -304.61584, -0.0070617977, 0.0027961067, -900229.5, 5427.761, 0.0, 5.021252, 4.9590554 
7.1967715e+2, 2.1254362e+2, -854963.25, -949001.2, -333.6915, -0.0031584257, -0.009642162, -854962.1, 2107.6248, 0.0, 5.0198793, 4.959058 
7.196048e+2, 2.1750127e+2, -810365.0, -903095.8, -334.84958, 0.00071981054, -0.021911168, -810363.8, -1881.7198, 0.0, 5.0184994, 4.9585543 
7.195319e+2, 2.2245724e+2, -771786.9, -870385.6, -437.13412, 0.0015589821, -0.015922708, -771784.94, -11872.542, 0.0, 5.017107, 4.953504 
7.1945846e+2, 2.274114e+2, -726040.3, -821921.8, -361.97385, 0.00031183028, -0.011020591, -726038.94, -14676.794, 0.0, 5.0156927, 4.9538636 
7.19385e+2, 2.3236555e+2, -680781.06, -774512.9, -182.63698, -0.00094317086, -0.006132791, -680780.7, -17968.744, 0.0, 5.014271, 4.9538555 
7.1931154e+2, 2.3731971e+2, -636164.7, -728530.7, 27.183153, -0.0022246803, -0.0011576524, -636164.6, -21902.79, 0.0, 5.012843, 4.953346 
7.1923816e+2, 2.422705e+2, -598327.8, -697667.94, 284.78592, -0.0035086954, 0.009282597, -598327.0, -32582.025, 0.0, 5.01142, 4.947556 
7.1916455e+2, 2.4721792e+2, -552181.1, -648479.25, 85.981964, -0.0036671774, 0.004182508, -552181.06, -34920.04, 0.0, 5.010006, 4.9481134 
7.1909094e+2, 2.5216535e+2, -506749.22, -600888.56, 78.576, -0.0038169597, -0.0013482516, -506749.13, -37971.92, 0.0, 5.00859, 4.9481106 
7.190174e+2, 2.5711277e+2, -461539.66, -553835.9, 79.8515, -0.003979604, -0.0068634576, -461539.6, -41246.15, 0.0, 5.007176, 4.9479094 
7.189437e+2, 2.6205754e+2, -423890.9, -523729.9, -236.20029, -0.0024044565, 0.001574365, -423890.34, -52055.285, 0.0, 5.005734, 4.9417553 
7.188695e+2, 2.6700026e+2, -376829.16, -472131.9, -453.6426, 0.0013724463, -0.0013699542, -376827.0, -53430.215, 0.0, 5.0042233, 4.9431453 
7.187953e+2, 2.7194288e+2, -331571.78, -424536.22, -374.9316, 0.005052457, -0.0055791624, -331570.28, -56611.297, 0.0, 5.0026937, 4.943141 
7.1872103e+2, 2.768855e+2, -286382.88, -377063.1, -289.04745, 0.008627638, -0.009739643, -286381.97, -59860.77, 0.0, 5.001151, 4.9430895 
7.1864617e+2, 2.8182432e+2, -251559.77, -353447.2, -583.42834, 0.009289983, -0.0005788688, -251556.44, -73435.64, 0.0, 4.999619, 4.9345837 
7.1856993e+2, 2.867608e+2, -203937.44, -300645.7, -735.93304, 0.0058084624, 0.0027498526, -203931.84, -74188.93, 0.0, 4.9980984, 4.936356 
7.184936e+2, 2.9169732e+2, -158516.08, -252868.61, -511.82764, 0.0022814646, 0.005294202, -158513.3, -77148.38, 0.0, 4.9965677, 4.936353 
7.184173e+2, 2.9663384e+2, -113085.51, -205071.11, -282.65338, -0.001277251, 0.007884932, -113084.64, -80097.66, 0.0, 4.995031, 4.9363503 
7.1834093e+2, 3.015867e+2, -53122.645, -90321.68, -1685.005, -0.0038695263, 0.021902949, -53046.473, -53046.473, 0.0, 4.9934573, 4.96951 
7.1826506e+2, 3.065572e+2, -53939.617, -83690.13, -2208.886, -0.0046694013, 0.0034438923, -53776.508, -53776.508, 0.0, 4.991794, 4.972631 
7.1818936e+2, 3.1152764e+2, -58487.24, -85690.695, -2850.3982, -0.005511396, -0.018814983, -58191.78, -58191.78, 0.0, 4.9901066, 4.972636 
7.1811354e+2, 3.1649804e+2, -63094.074, -87731.21, -3517.8843, -0.0064590094, -0.041617393, -62601.605, -62601.605, 0.0, 4.9883943, 4.972642 
7.260119e+2, 1.2318188e+2, -1631923.0, -1737373.1, 2244.0605, 0.012369252, -0.0027130148, -1631875.3, 100947.34, 0.0, 5.046811, 4.9776974 
7.259392e+2, 1.2815909e+2, -1588007.6, -1690989.5, 2407.7703, 0.006699851, -0.0028291885, -1587951.4, 96093.64, 0.0, 5.045181, 4.977702 
7.258665e+2, 1.3313629e+2, -1544062.9, -1644577.0, 2570.0442, 0.0010638285, -0.0028586765, -1543997.3, 91270.086, 0.0, 5.0435505, 4.977707 
7.2579384e+2, 1.381135e+2, -1502272.8, -1602659.4, 2898.752, -0.004320557, -0.0015022819, -1502189.1, 84300.73, 0.0, 5.041922, 4.976207 
7.257216e+2, 1.4308842e+2, -1461942.6, -1564603.3, 2670.0596, -0.0040935716, 0.009923724, -1461873.1, 75863.164, 0.0, 5.0404534, 4.973262 
7.25649e+2, 1.4806135e+2, -1417342.3, -1517828.0, 2861.9077, -0.0046620197, 0.009536385, -1417260.9, 71742.48, 0.0, 5.039007, 4.97326 
7.255763e+2, 1.5303428e+2, -1372715.3, -1471026.8, 3053.5771, -0.0052466705, 0.009199861, -1372620.5, 67649.87, 0.0, 5.0375614, 4.973258 
7.255036e+2, 1.5800722e+2, -1329514.4, -1427262.9, 3210.5537, -0.005865822, 0.009447517, -1329409.1, 62128.37, 0.0, 5.0361176, 4.97223 
7.254308e+2, 1.6297738e+2, -1289052.9, -1389518.8, 3202.65, -0.0057411464, 0.012266395, -1288950.9, 53877.93, 0.0, 5.0347137, 4.969149 
7.253579e+2, 1.679455e+2, -1244121.4, -1342436.0, 3162.7883, -0.004609365, 0.0047844006, -1244019.8, 50118.746, 0.0, 5.033318, 4.9691787 
7.2528505e+2, 1.7291366e+2, -1199203.9, -1295412.0, 3132.8862, -0.0034863395, -0.0026993598, -1199102.0, 46346.016, 0.0, 5.0319223, 4.96918 
7.2521216e+2, 1.7788178e+2, -1155511.6, -1251036.8, 3039.1, -0.0023870424, -0.009738877, -1155415.0, 41342.395, 0.0, 5.0305285, 4.9682817 
7.251387e+2, 1.8284781e+2, -1116540.6, -1216475.5, 3109.6626, -0.003360226, -0.003158251, -1116444.0, 31645.686, 0.0, 5.029074, 4.9640727 
7.250652e+2, 1.8781202e+2, -1071590.4, -1169089.0, 3336.2085, -0.005701661, -0.0000903441, -1071476.4, 27965.084, 0.0, 5.0275936, 4.964195 
7.2499156e+2, 1.927762e+2, -1026785.0, -1122047.1, 3546.359, -0.008072861, 0.003030124, -1026653.1, 24140.068, 0.0, 5.0261135, 4.964192 
7.24918e+2, 1.9774042e+2, -982909.7, -1077039.1, 3798.6528, -0.010478917, 0.006567302, -982756.6, 19388.33, 0.0, 5.0246334, 4.963488 
7.248443e+2, 2.0270137e+2, -944015.56, -1043176.1, 3437.2917, -0.010284953, 0.01150156, -943896.5, 9630.816, 0.0, 5.023219, 4.958931 
7.247704e+2, 2.076593e+2, -898441.25, -995226.7, 3473.025, -0.0073110433, 0.0023795257, -898316.75, 6621.6284, 0.0, 5.021869, 4.9591327 
7.2469664e+2, 2.1261722e+2, -853107.1, -947836.4, 3463.1514, -0.0042902585, -0.006909828, -852980.7, 3368.715, 0.0, 5.02052, 4.959136 
7.2462285e+2, 2.1757513e+2, -808430.4, -901914.2, 3473.9304, -0.0012142787, -0.016180836, -808301.5, -540.97754, 0.0, 5.019171, 4.9586267 
7.2454864e+2, 2.2253117e+2, -769445.25, -868423.4, 3349.9802, -0.00028943032, -0.010921589, -769332.0, -10141.595, 0.0, 5.017806, 4.953831 
7.2447383e+2, 2.2748522e+2, -723704.2, -820091.9, 3360.6455, -0.0009340609, -0.008728271, -723587.1, -12947.054, 0.0, 5.0164204, 4.954134 
7.2439903e+2, 2.3243931e+2, -678351.6, -772633.06, 3464.3757, -0.0016004993, -0.0063955407, -678224.5, -16134.851, 0.0, 5.0150337, 4.9541297 
7.243242e+2, 2.3739341e+2, -633624.9, -726593.94, 3592.1494, -0.002299777, -0.00381642, -633486.25, -19947.188, 0.0, 5.013647, 4.953624 
7.242494e+2, 2.4234428e+2, -595983.4, -695970.56, 3833.658, -0.0032924674, 0.0059396736, -595836.6, -30815.7, 0.0, 5.0121884, 4.9477677 
7.241743e+2, 2.4729195e+2, -550225.25, -647026.25, 3719.7893, -0.0036372093, 0.0022027448, -550082.5, -33547.418, 0.0, 5.010652, 4.9482985 
7.240992e+2, 2.5223958e+2, -505146.6, -599602.25, 3800.4282, -0.0039728237, -0.0019610883, -504993.94, -36944.45, 0.0, 5.009113, 4.948295 
7.240241e+2, 2.5718722e+2, -460291.44, -552715.3, 3890.1665, -0.0043056575, -0.006148082, -460128.0, -40564.03, 0.0, 5.007574, 4.9480934 
7.2394896e+2, 2.621322e+2, -422667.75, -522506.16, 3678.1467, -0.0027812521, 0.0028874283, -422532.44, -51428.332, 0.0, 5.0061016, 4.941989 
7.238734e+2, 2.6707497e+2, -375350.6, -470830.66, 3446.508, 0.00093264953, -0.00026395786, -375226.34, -52561.445, 0.0, 5.004691, 4.943363 
7.237977e+2, 2.720177e+2, -329777.53, -423087.7, 3506.7573, 0.0046375017, -0.0046952874, -329645.9, -55419.734, 0.0, 5.003276, 4.943362 
7.23722e+2, 2.7696046e+2, -284237.16, -375452.5, 3569.1296, 0.008340001, -0.009111909, -284097.72, -58310.258, 0.0, 5.0018606, 4.9433136 
7.236456e+2, 2.8189942e+2, -248864.22, -351137.44, 3285.4326, 0.00910024, -0.0005958154, -248758.8, -71373.58, 0.0, 5.000437, 4.935009 
7.235679e+2, 2.8683612e+2, -201059.86, -298251.6, 3147.2107, 0.005854526, 0.0014330714, -200958.06, -71953.41, 0.0, 4.998985, 4.9367857 
7.234901e+2, 2.917728e+2, -155439.67, -250382.5, 3375.8591, 0.002588275, 0.002635165, -155319.8, -74695.78, 0.0, 4.9975286, 4.9367867 
7.2341233e+2, 2.9670954e+2, -109792.305, -202486.05, 3603.77, -0.0006995618, 0.0038343135, -109652.41, -77408.98, 0.0, 4.996073, 4.9367876 
7.233346e+2, 3.0166242e+2, -50313.15, -89680.34, 2202.9697, -0.0028251281, 0.018230267, -50190.254, -50190.254, 0.0, 4.9946675, 4.969185 
7.232573e+2, 3.0663294e+2, -50420.61, -83103.31, 1912.4097, -0.0025679236, 0.005246886, -50309.086, -50309.086, 0.0, 4.9933414, 4.972141 
7.231802e+2, 3.116033e+2, -53994.402, -84694.25, 1539.2609, -0.0021731672, -0.011132119, -53917.418, -53917.418, 0.0, 4.9920206, 4.9721355 
7.2310305e+2, 3.1657368e+2, -57563.473, -86292.59, 1179.3705, -0.0016838523, -0.027882846, -57515.14, -57515.14, 0.0, 4.9906993, 4.97213 
7.310579e+2, 1.23254985e+2, -1631497.0, -1736615.8, 1007.3255, 0.008846564, 0.0008850434, -1631487.3, 100619.65, 0.0, 5.0468197, 4.97795 
7.309836e+2, 1.2823223e+2, -1587585.0, -1690240.0, 1174.334, 0.0046413653, -0.0013172255, -1587571.5, 95757.016, 0.0, 5.04519, 4.9779534 
7.3090947e+2, 1.3320948e+2, -1543643.6, -1643835.1, 1339.906, 0.00041384195, -0.0034081372, -1543625.8, 90924.37, 0.0, 5.0435596, 4.9779563 
7.308353e+2, 1.3818674e+2, -1501845.8, -1601898.4, 1719.7524, -0.0035989631, -0.0040727244, -1501816.3, 83955.64, 0.0, 5.0419316, 4.976463 
7.3076165e+2, 1.431619e+2, -1461492.3, -1563767.3, 1577.3834, -0.0031235937, 0.0070115626, -1461467.9, 75547.64, 0.0, 5.040461, 4.9735427 
7.3068744e+2, 1.4813522e+2, -1416894.5, -1516995.5, 1771.4683, -0.0044392874, 0.0075949617, -1416863.3, 71415.08, 0.0, 5.039015, 4.97354 
7.306133e+2, 1.5310852e+2, -1372270.1, -1470197.9, 1965.3723, -0.005778953, 0.008225996, -1372230.6, 67310.43, 0.0, 5.037569, 4.9735374 
7.305391e+2, 1.5808181e+2, -1329077.9, -1426449.5, 2137.9111, -0.007145502, 0.00939829, -1329031.0, 61773.03, 0.0, 5.036125, 4.972505 
7.3046476e+2, 1.6305217e+2, -1288993.0, -1389483.5, 2135.747, -0.0071605486, 0.012488806, -1288947.6, 53146.523, 0.0, 5.0347204, 4.969165 
7.303905e+2, 1.6802032e+2, -1244088.3, -1342451.9, 2100.5984, -0.0060393317, 0.005463583, -1244043.5, 49361.223, 0.0, 5.033324, 4.9691777 
7.303163e+2, 1.7298849e+2, -1199175.4, -1295432.3, 2073.6013, -0.0049479483, -0.0015284172, -1199130.8, 45584.38, 0.0, 5.031927, 4.9691787 
7.30242e+2, 1.7795669e+2, -1155449.0, -1250981.3, 1965.0089, -0.003898398, -0.008039273, -1155408.6, 40616.727, 0.0, 5.030532, 4.9683065 
7.3016715e+2, 1.8292281e+2, -1116080.5, -1215563.3, 1981.7943, -0.004402594, -0.002372576, -1116041.0, 31315.377, 0.0, 5.029077, 4.964384 
7.3009217e+2, 1.878871e+2, -1071159.5, -1168230.9, 2212.4963, -0.0059548295, -0.0012910798, -1071109.0, 27596.713, 0.0, 5.0275955, 4.96449 
7.300172e+2, 1.928514e+2, -1026361.3, -1121196.1, 2425.7903, -0.007560298, -0.00011140312, -1026299.25, 23755.867, 0.0, 5.0261145, 4.964486 
7.2994226e+2, 1.9781572e+2, -982485.3, -1076180.1, 2676.6074, -0.009224933, 0.0015353772, -982408.9, 18995.57, 0.0, 5.024634, 4.9637866 
7.2986704e+2, 2.0277694e+2, -943925.25, -1043067.75, 2396.7795, -0.0093589425, 0.0072683687, -943867.4, 8917.215, 0.0, 5.023225, 4.9589725 
7.2979176e+2, 2.0773524e+2, -898381.8, -995182.4, 2445.2952, -0.0075160973, 0.0018580403, -898320.06, 5873.3906, 0.0, 5.021874, 4.9591527 
7.297165e+2, 2.1269354e+2, -853050.3, -947795.94, 2440.2136, -0.005631817, -0.0036838208, -852987.5, 2614.8945, 0.0, 5.0205245, 4.9591556 
7.2964126e+2, 2.1765184e+2, -808358.94, -901840.9, 2456.134, -0.0037049183, -0.009191878, -808294.44, -1283.1425, 0.0, 5.0191755, 4.9586577 
7.295657e+2, 2.2260799e+2, -769152.25, -867880.2, 2282.0703, -0.0027295551, -0.0041995724, -769099.5, -10659.054, 0.0, 5.017813, 4.954022 
7.294895e+2, 2.2756189e+2, -723445.1, -819619.8, 2301.4968, -0.0025851396, -0.0051645203, -723390.1, -13499.497, 0.0, 5.016427, 4.9543014 
7.294134e+2, 2.3251581e+2, -678095.56, -772164.56, 2409.0122, -0.0024805046, -0.005995486, -678033.94, -16693.271, 0.0, 5.01504, 4.9542966 
7.293373e+2, 2.3746975e+2, -633371.75, -726128.8, 2540.6787, -0.0024163048, -0.00657518, -633302.25, -20511.62, 0.0, 5.0136533, 4.9537897 
7.292611e+2, 2.4242067e+2, -595712.7, -695472.5, 2660.0757, -0.0028633703, 0.0018768277, -595641.75, -31370.248, 0.0, 5.012195, 4.9479456 
7.2918445e+2, 2.4736862e+2, -550000.3, -646631.56, 2545.4128, -0.0032108845, -0.00045264923, -549933.3, -34150.137, 0.0, 5.010659, 4.948441 
7.291078e+2, 2.5231653e+2, -504923.78, -599211.5, 2627.5085, -0.0035752724, -0.0031559428, -504850.63, -37555.598, 0.0, 5.00912, 4.9484367 
7.290312e+2, 2.5726447e+2, -460070.72, -552328.56, 2718.7517, -0.003952049, -0.005878363, -459990.7, -41183.703, 0.0, 5.0075808, 4.9482346 
7.2895455e+2, 2.6220965e+2, -422415.78, -522081.03, 2592.3196, -0.002615663, 0.004002521, -422348.4, -52003.4, 0.0, 5.0061145, 4.94214 
7.2887737e+2, 2.6715258e+2, -375129.4, -470477.47, 2363.371, 0.0004968489, 0.0010687386, -375070.88, -53166.336, 0.0, 5.004704, 4.94349 
7.2880024e+2, 2.720955e+2, -329558.5, -422737.56, 2424.8816, 0.0035675326, -0.0031141564, -329495.44, -56030.9, 0.0, 5.0032887, 4.9434886 
7.287231e+2, 2.7703837e+2, -284020.28, -375105.44, 2488.526, 0.006611863, -0.0072672046, -283952.34, -58927.816, 0.0, 5.001873, 4.9434395 
7.2864527e+2, 2.8197747e+2, -248350.31, -350142.84, 2158.1182, 0.007271888, 0.00035636371, -248304.58, -71683.89, 0.0, 5.000454, 4.9353633 
7.285662e+2, 2.869143e+2, -200552.78, -297275.44, 2025.4497, 0.0049221995, -0.00024108306, -200510.38, -72271.73, 0.0, 4.9990025, 4.937135 
7.284871e+2, 2.9185107e+2, -154936.56, -249412.28, 2255.9087, 0.002551762, -0.0016293394, -154882.73, -75026.18, 0.0, 4.997546, 4.937135 
7.284079e+2, 2.9678786e+2, -109293.16, -201521.73, 2485.6284, 0.0001418672, -0.0029713747, -109226.21, -77751.74, 0.0, 4.9960904, 4.9371357 
7.283288e+2, 3.017409e+2, -50574.79, -90573.33, 1190.1115, -0.0014481732, 0.012244211, -50539.41, -50539.41, 0.0, 4.9946966, 4.9688625 
7.2825027e+2, 3.0671176e+2, -50816.516, -84268.6, 939.7496, -0.0010282871, 0.0073284414, -50790.137, -50790.137, 0.0, 4.993366, 4.9717216 
7.281718e+2, 3.1168255e+2, -54412.066, -85841.73, 584.943, -0.0005960583, -0.00057218847, -54401.184, -54401.184, 0.0, 4.9920363, 4.9717245 
7.280933e+2, 3.166533e+2, -58002.887, -87422.28, 243.38289, -0.00018719044, -0.008673384, -58000.875, -58000.875, 0.0, 4.990706, 4.971727 
7.361038e+2, 1.233281e+2, -1631071.3, -1735858.9, -227.67497, 0.0053938827, 0.004580851, -1631070.8, 100320.55, 0.0, 5.046829, 4.9782023 
7.3602813e+2, 1.2830539e+2, -1587162.6, -1689490.9, -57.36924, 0.002672517, 0.00022974359, -1587162.6, 95449.51, 0.0, 5.045199, 4.978204 
7.3595244e+2, 1.3328269e+2, -1543224.6, -1643093.8, 111.498985, -0.00012690503, -0.0039852588, -1543224.5, 90608.33, 0.0, 5.043569, 4.978205 
7.3587686e+2, 1.3825996e+2, -1501434.1, -1601169.8, 543.54834, -0.0027644325, -0.006704374, -1501431.3, 83622.58, 0.0, 5.041941, 4.9767084 
7.358017e+2, 1.4323539e+2, -1461041.8, -1562931.9, 484.62045, -0.002214204, 0.004276839, -1461039.5, 75255.04, 0.0, 5.0404687, 4.973822 
7.3572594e+2, 1.4820908e+2, -1416446.8, -1516163.8, 680.94226, -0.004268153, 0.0057637333, -1416442.0, 71110.99, 0.0, 5.039023, 4.9738193 
7.356502e+2, 1.5318277e+2, -1371824.9, -1469369.8, 877.08093, -0.0063538533, 0.007295157, -1371816.9, 66994.695, 0.0, 5.037577, 4.9738164 
7.3557454e+2, 1.5815644e+2, -1328677.6, -1425712.6, 1071.1122, -0.008457032, 0.009338005, -1328665.8, 61404.645, 0.0, 5.0361333, 4.972754 
7.3549885e+2, 1.6312696e+2, -1288937.6, -1389458.5, 1063.2474, -0.008633432, 0.012866265, -1288926.4, 52433.137, 0.0, 5.034727, 4.9691763 
7.3542315e+2, 1.6809516e+2, -1244055.4, -1342468.4, 1039.0114, -0.0074939327, 0.006216115, -1244044.4, 48626.535, 0.0, 5.0333295, 4.9691763 
7.3534745e+2, 1.7306335e+2, -1199146.9, -1295453.1, 1014.91797, -0.0064051165, -0.00036613067, -1199136.3, 44845.99, 0.0, 5.031932, 4.9691763 
7.352719e+2, 1.7803156e+2, -1155393.4, -1250941.3, 894.27673, -0.005384569, -0.006406089, -1155385.0, 39908.297, 0.0, 5.030536, 4.968325 
7.351956e+2, 1.8299781e+2, -1115622.8, -1214657.0, 853.28503, -0.005480451, -0.001476088, -1115615.4, 31007.492, 0.0, 5.0290804, 4.9646935 
7.351192e+2, 1.879622e+2, -1070728.5, -1167373.6, 1089.3136, -0.006221608, -0.0024683143, -1070716.3, 27253.69, 0.0, 5.0275974, 4.964784 
7.3504287e+2, 1.929266e+2, -1025937.56, -1120346.0, 1305.7494, -0.007039357, -0.0033171226, -1025919.5, 23397.432, 0.0, 5.0261154, 4.9647794 
7.349665e+2, 1.9789103e+2, -982099.75, -1075406.1, 1560.9303, -0.007947688, -0.003616704, -982073.6, 18590.248, 0.0, 5.0246344, 4.964055 
7.3488975e+2, 2.028525e+2, -943836.44, -1042963.25, 1358.687, -0.008500463, 0.00336213, -943817.9, 8223.778, 0.0, 5.02323, 4.9590116 
7.3481303e+2, 2.078112e+2, -898322.4, -995138.75, 1418.468, -0.0077618435, 0.0015212296, -898301.6, 5146.815, 0.0, 5.021879, 4.959172 
7.347363e+2, 2.1276988e+2, -852993.4, -947756.2, 1418.1779, -0.006990193, -0.00041810234, -852972.2, 1883.0637, 0.0, 5.0205293, 4.959173 
7.346596e+2, 2.1772856e+2, -808320.75, -901841.56, 1441.6566, -0.006188163, -0.0023085175, -808298.56, -2036.504, 0.0, 5.01918, 4.958662 
7.3458266e+2, 2.226848e+2, -768862.75, -867346.0, 1214.7012, -0.005189939, 0.002740487, -768847.75, -11157.422, 0.0, 5.0178204, 4.954209 
7.345052e+2, 2.2763854e+2, -723185.9, -819148.5, 1242.7734, -0.004236044, -0.0015031882, -723169.75, -14028.777, 0.0, 5.0164337, 4.954468 
7.344278e+2, 2.3259231e+2, -677839.25, -771696.8, 1354.073, -0.0033384962, -0.0056183054, -677819.75, -17228.158, 0.0, 5.0150466, 4.954462 
7.343503e+2, 2.3754609e+2, -633153.06, -725741.1, 1485.0687, -0.0024906346, -0.009472631, -633129.25, -21087.129, 0.0, 5.0136595, 4.9539285 
7.342728e+2, 2.4249709e+2, -595425.56, -694939.56, 1490.8137, -0.0024785134, -0.0020449723, -595403.25, -31881.236, 0.0, 5.0122023, 4.948135 
7.341946e+2, 2.4744532e+2, -549775.0, -646237.44, 1371.971, -0.0028136824, -0.0029921615, -549755.5, -34724.395, 0.0, 5.0106664, 4.948583 
7.341164e+2, 2.523935e+2, -504700.63, -598821.4, 1455.5231, -0.0031850506, -0.0042828256, -504678.13, -38137.652, 0.0, 5.009127, 4.9485784 
7.3403823e+2, 2.573417e+2, -459849.66, -551942.4, 1548.2711, -0.0035840045, -0.0055885287, -459823.63, -41773.73, 0.0, 5.0075884, 4.948375 
7.339601e+2, 2.6228714e+2, -422173.7, -521679.2, 1514.0172, -0.0024999785, 0.0051844427, -422150.66, -52564.813, 0.0, 5.0061274, 4.942283 
7.338815e+2, 2.672302e+2, -374908.16, -470124.53, 1280.7754, 0.00000983105, 0.0024544785, -374890.9, -53746.84, 0.0, 5.0047174, 4.9436164 
7.338028e+2, 2.721733e+2, -329339.38, -422387.7, 1343.5466, 0.0024490294, -0.0015040801, -329319.97, -56617.176, 0.0, 5.0033016, 4.9436145 
7.337242e+2, 2.771163e+2, -283803.3, -374758.6, 1408.4626, 0.0048378673, -0.0054176236, -283781.5, -59519.973, 0.0, 5.001886, 4.943565 
7.3364496e+2, 2.820556e+2, -247840.4, -349158.66, 1034.7289, 0.005463548, 0.0012988137, -247829.84, -71973.734, 0.0, 5.000471, 4.9357133 
7.3356444e+2, 2.8699246e+2, -200045.63, -296299.75, 904.5482, 0.0040018037, -0.001978416, -200037.13, -72564.5, 0.0, 4.99902, 4.9374843 
7.3348397e+2, 2.9192933e+2, -154433.38, -248442.5, 1136.8171, 0.0025138967, -0.0060165557, -154419.64, -75330.555, 0.0, 4.9975643, 4.937484 
7.3340344e+2, 2.968662e+2, -108793.92, -200557.86, 1368.3448, 0.00096867315, -0.009959229, -108773.52, -78068.01, 0.0, 4.996108, 4.937483 
7.33323e+2, 3.0181938e+2, -50889.992, -91586.875, 185.0266, 0.000062720675, 0.0066219713, -50889.15, -50889.15, 0.0, 4.9947267, 4.968494 
7.3324317e+2, 3.0679062e+2, -51215.07, -85431.67, -46.245354, 0.0005250648, 0.009519341, -51215.008, -51215.008, 0.0, 4.99339, 4.971299 
7.331634e+2, 3.117618e+2, -54832.38, -86987.01, -382.70282, 0.00084880425, 0.009697948, -54827.824, -54827.824, 0.0, 4.9920516, 4.9713097 
7.330836e+2, 3.16733e+2, -58444.95, -88549.77, -705.92584, 0.0010314536, 0.009847601, -58428.402, -58428.402, 0.0, 4.9907126, 4.97132 
7.411497e+2, 1.2340171e+2, -1632956.1, -1736249.8, 224.51921, 0.0037580905, 0.007852182, -1632955.6, 97714.805, 0.0, 5.046092, 4.9784293 
7.410726e+2, 1.2837905e+2, -1588534.1, -1689647.6, 268.8707, 0.0018038892, 0.002048982, -1588533.5, 93357.18, 0.0, 5.044633, 4.978426 
7.4099535e+2, 1.3335636e+2, -1544119.5, -1643034.8, 311.16632, -0.00012785179, -0.0037588181, -1544118.5, 88992.37, 0.0, 5.0431623, 4.978423 
7.409183e+2, 1.3833368e+2, -1501897.0, -1600906.4, 664.1874, -0.0018274653, -0.008138293, -1501892.5, 82438.85, 0.0, 5.041678, 4.976925 
7.408417e+2, 1.433093e+2, -1461314.6, -1562458.8, 585.1411, -0.0014042215, 0.0025232935, -1461311.3, 74258.586, 0.0, 5.0402455, 4.974089 
7.407644e+2, 1.4828323e+2, -1416711.4, -1515691.4, 692.74347, -0.0039982647, 0.0040624994, -1416706.5, 70118.72, 0.0, 5.0388007, 4.9740853 
7.406872e+2, 1.5325718e+2, -1372087.8, -1468899.8, 804.9182, -0.0066137183, 0.0056121694, -1372081.0, 65999.734, 0.0, 5.0373545, 4.974082 
7.4061e+2, 1.582311e+2, -1328992.3, -1425343.5, 932.18915, -0.009222405, 0.007641065, -1328983.3, 60353.277, 0.0, 5.035908, 4.9729877 
7.405328e+2, 1.6320178e+2, -1289528.0, -1389666.9, 951.9208, -0.009641423, 0.0118413055, -1289519.0, 51105.4, 0.0, 5.0345044, 4.9692154 
7.4045575e+2, 1.6817011e+2, -1244625.3, -1342667.3, 971.01654, -0.008687656, 0.0062069185, -1244615.6, 47320.098, 0.0, 5.033114, 4.9692144 
7.403787e+2, 1.7313841e+2, -1199713.9, -1295650.6, 991.43005, -0.00774809, 0.00054626557, -1199703.6, 43543.41, 0.0, 5.0317173, 4.9692135 
7.403016e+2, 1.7810676e+2, -1155955.1, -1251104.4, 904.91907, -0.0068559023, -0.0046156305, -1155946.5, 38611.754, 0.0, 5.0303173, 4.9683757 
7.4022394e+2, 1.8307309e+2, -1115771.4, -1214132.5, 756.7746, -0.006611179, -0.00010423315, -1115765.6, 30120.93, 0.0, 5.028902, 4.964956 
7.4014616e+2, 1.8803751e+2, -1070679.8, -1166783.3, 826.74347, -0.00653274, -0.0030737657, -1070672.6, 26559.316, 0.0, 5.027492, 4.965035 
7.4006844e+2, 1.9300197e+2, -1025705.9, -1119663.4, 885.12146, -0.006510555, -0.005957556, -1025697.5, 22879.9, 0.0, 5.026072, 4.965033 
7.3999065e+2, 1.9796643e+2, -981771.06, -1074756.5, 999.56616, -0.0065788613, -0.008272211, -981760.3, 18162.383, 0.0, 5.024641, 4.964275 
7.399125e+2, 2.0292817e+2, -943707.6, -1042726.3, 863.4022, -0.0075323517, -0.000049126542, -943700.1, 7598.0957, 0.0, 5.023236, 4.9590907 
7.3983437e+2, 2.0788723e+2, -898297.7, -995006.56, 996.59814, -0.007830256, 0.0011904321, -898287.44, 4415.334, 0.0, 5.0218587, 4.9592285 
7.3975617e+2, 2.1284628e+2, -853050.2, -947673.2, 1059.6409, -0.008098691, 0.002360474, -853038.3, 1069.0656, 0.0, 5.0204816, 4.959226 
7.3967797e+2, 2.1780531e+2, -808506.0, -901902.3, 1147.5215, -0.00834494, 0.0036127567, -808491.9, -2979.7717, 0.0, 5.0191045, 4.9586787 
7.395996e+2, 2.2276168e+2, -768878.25, -866995.5, 858.952, -0.0073993173, 0.009093419, -768870.75, -11931.309, 0.0, 5.0177364, 4.9543705 
7.3952085e+2, 2.2771527e+2, -723181.75, -818821.25, 782.1368, -0.0057527614, 0.0019397878, -723175.4, -14784.623, 0.0, 5.016363, 4.9546156 
7.394421e+2, 2.3266889e+2, -677806.44, -771348.8, 797.8988, -0.004142078, -0.0051969453, -677799.7, -17957.697, 0.0, 5.014984, 4.9546137 
7.3936343e+2, 2.376225e+2, -633104.0, -725375.06, 845.4565, -0.0025610554, -0.012150455, -633096.25, -21803.092, 0.0, 5.0136013, 4.954084 
7.3928434e+2, 2.4257356e+2, -595314.4, -694540.56, 721.37103, -0.0021454925, -0.005521403, -595309.2, -32537.146, 0.0, 5.0121646, 4.9482946 
7.3920465e+2, 2.4752206e+2, -549585.2, -645815.9, 616.291, -0.0024016595, -0.0052660536, -549581.25, -35302.59, 0.0, 5.010659, 4.948738 
7.3912495e+2, 2.5247052e+2, -504446.4, -598374.0, 716.24445, -0.0027032269, -0.005315392, -504440.97, -38655.457, 0.0, 5.009144, 4.9487324 
7.390452e+2, 2.5741902e+2, -459549.9, -551477.56, 825.98334, -0.0030435105, -0.0053522587, -459542.47, -42250.023, 0.0, 5.0076222, 4.9485283 
7.389656e+2, 2.6236466e+2, -421878.47, -521245.2, 887.7314, -0.0022956193, 0.006343607, -421870.56, -53044.258, 0.0, 5.0061655, 4.9424224 
7.388855e+2, 2.6730788e+2, -374653.78, -469731.88, 618.39746, -0.00045919692, 0.0038370306, -374649.75, -54266.473, 0.0, 5.0047455, 4.943747 
7.3880535e+2, 2.722511e+2, -329136.47, -422020.03, 660.0127, 0.0013285504, 0.00009769546, -329131.78, -57190.996, 0.0, 5.0033116, 4.9437447 
7.3872524e+2, 2.7719426e+2, -283672.53, -374424.8, 706.46216, 0.0030847914, -0.003598096, -283667.03, -60168.75, 0.0, 5.0018706, 4.9436946 
7.386446e+2, 2.8213367e+2, -247471.22, -348210.38, 286.45984, 0.0037481757, 0.0022395104, -247470.4, -72379.11, 0.0, 5.000441, 4.936068 
7.3856276e+2, 2.8707066e+2, -199671.1, -295349.72, 152.97977, 0.0031304709, -0.0036888807, -199670.84, -72964.52, 0.0, 4.998992, 4.9378405 
7.384809e+2, 2.920076e+2, -154074.56, -247504.3, 383.13562, 0.0024939927, -0.010388088, -154072.98, -75751.65, 0.0, 4.9975314, 4.9378386 
7.3839897e+2, 2.969446e+2, -108468.02, -199638.56, 611.40466, 0.0017959863, -0.01697421, -108463.92, -78527.6, 0.0, 4.996065, 4.937837 
7.3831725e+2, 3.018979e+2, -51442.543, -92745.81, -425.35718, 0.001714029, 0.0014697531, -51438.164, -51438.164, 0.0, 4.9946876, 4.968094 
7.3823607e+2, 3.068695e+2, -51817.887, -86633.68, -607.05457, 0.0020961598, 0.011726117, -51807.31, -51807.31, 0.0, 4.99334, 4.970885 
7.3815495e+2, 3.1184104e+2, -55571.152, -88222.37, -884.3251, 0.0022000321, 0.019386642, -55547.22, -55547.22, 0.0, 4.9919524, 4.970902 
7.3807377e+2, 3.1681263e+2, -59420.426, -89860.31, -1156.9744, 0.0020609375, 0.02718641, -59376.516, -59376.516, 0.0, 4.9905276, 4.9709187 
7.4619555e+2, 1.2348003e+2, -1630571.3, -1734527.8, 3345.7073, 0.005175489, 0.00974846, -1630463.6, 99439.555, 0.0, 5.0468273, 4.9786124 
7.4611694e+2, 1.2845747e+2, -1586154.3, -1687943.8, 3398.674, 0.0030323735, 0.004194185, -1586040.9, 95081.664, 0.0, 5.045372, 4.9786043 
7.4603826e+2, 1.334349e+2, -1541710.1, -1641334.1, 3451.7979, 0.00093159237, -0.0014138212, -1541590.6, 90751.31, 0.0, 5.0439167, 4.978596 
7.459597e+2, 1.3841231e+2, -1499356.6, -1599041.3, 3834.1277, -0.0009591546, -0.0056408783, -1499209.4, 84352.32, 0.0, 5.042456, 4.9771433 
7.458817e+2, 1.4338794e+2, -1458766.0, -1560496.5, 3779.4995, -0.0008986736, 0.0035692856, -1458625.8, 76173.695, 0.0, 5.041006, 4.9743514 
7.4580294e+2, 1.4836182e+2, -1414275.4, -1513785.8, 3911.7126, -0.003438468, 0.0026874111, -1414121.9, 71932.914, 0.0, 5.039525, 4.974349 
7.4572426e+2, 1.5333568e+2, -1369757.8, -1467048.0, 4042.753, -0.005974571, 0.0018007272, -1369590.1, 67720.12, 0.0, 5.0380445, 4.9743466 
7.4564564e+2, 1.5830952e+2, -1326742.4, -1423499.4, 4187.6206, -0.008464704, 0.0013879801, -1326561.5, 62004.37, 0.0, 5.0365653, 4.973267 
7.45567e+2, 1.6328043e+2, -1287442.1, -1388048.9, 4336.289, -0.009191611, 0.0061651766, -1287255.6, 52596.105, 0.0, 5.0351424, 4.969429 
7.4548846e+2, 1.6824916e+2, -1242555.6, -1341057.6, 4434.179, -0.009010859, 0.0034716555, -1242356.4, 48803.227, 0.0, 5.0337486, 4.9694285 
7.454099e+2, 1.7321788e+2, -1197642.9, -1294041.4, 4532.46, -0.008819343, 0.0006865641, -1197430.3, 45037.402, 0.0, 5.0323553, 4.9694276 
7.453314e+2, 1.781866e+2, -1153853.0, -1249464.1, 4498.2817, -0.008630069, -0.001714931, -1153641.9, 40133.684, 0.0, 5.0309644, 4.968598 
7.452524e+2, 1.8315305e+2, -1113696.0, -1212656.9, 4444.563, -0.008068914, 0.0027627826, -1113496.8, 31606.395, 0.0, 5.029575, 4.9651117 
7.4517334e+2, 1.8811737e+2, -1068515.5, -1165333.9, 4468.0938, -0.0071093948, -0.0015720926, -1068309.8, 28140.242, 0.0, 5.028211, 4.9651623 
7.450943e+2, 1.9308169e+2, -1023378.94, -1118135.0, 4479.615, -0.0061704996, -0.0058619557, -1023167.6, 24629.17, 0.0, 5.0268483, 4.9651628 
7.4501526e+2, 1.9804606e+2, -979207.2, -1073039.4, 4526.3784, -0.005285658, -0.009651162, -978989.3, 20154.047, 0.0, 5.0254846, 4.96444 
7.4493575e+2, 2.030079e+2, -940943.9, -1040605.3, 4442.2866, -0.006060029, -0.0019665512, -940746.25, 9771.404, 0.0, 5.0240927, 4.9593844 
7.4485606e+2, 2.0796722e+2, -895629.6, -992992.75, 4651.3716, -0.0069339285, 0.00020470742, -895407.94, 6511.2163, 0.0, 5.022697, 4.959498 
7.447764e+2, 2.1292652e+2, -850444.25, -945702.0, 4790.46, -0.007789593, 0.0023337433, -850203.94, 3116.798, 0.0, 5.0213027, 4.959493 
7.446968e+2, 2.1788582e+2, -805960.56, -899975.25, 4959.795, -0.008630241, 0.004566974, -805699.6, -977.14746, 0.0, 5.0199084, 4.958942 
7.44617e+2, 2.2284228e+2, -766697.5, -865698.06, 4712.216, -0.00790565, 0.010463729, -766473.7, -10324.661, 0.0, 5.0185127, 4.954429 
7.4453694e+2, 2.2779581e+2, -721053.8, -817561.4, 4565.887, -0.006264452, 0.00316608, -720838.3, -13236.479, 0.0, 5.0171256, 4.954669 
7.4445677e+2, 2.3274934e+2, -675702.5, -770089.8, 4489.4175, -0.0046207015, -0.004227532, -675489.44, -16434.852, 0.0, 5.015738, 4.9546723 
7.4437666e+2, 2.3770288e+2, -630989.7, -724064.94, 4429.5107, -0.0029621606, -0.011557895, -630779.3, -20272.084, 0.0, 5.0143504, 4.954164 
7.4429625e+2, 2.42654e+2, -592839.6, -692481.4, 4245.891, -0.0019813727, -0.005766314, -592659.06, -30673.406, 0.0, 5.0129285, 4.9486284 
7.442151e+2, 2.4760269e+2, -547087.3, -643802.9, 4198.13, -0.0016646864, -0.005666713, -546905.44, -33415.906, 0.0, 5.011446, 4.9490485 
7.4413395e+2, 2.5255135e+2, -501876.7, -596332.1, 4356.1807, -0.0013934239, -0.00578333, -501676.22, -36682.57, 0.0, 5.0099597, 4.949043 
7.4405277e+2, 2.5750002e+2, -456890.1, -549399.2, 4523.7607, -0.0011582166, -0.0058248956, -456669.4, -40171.57, 0.0, 5.008474, 4.9488387 
7.439717e+2, 2.6244587e+2, -419507.94, -519598.1, 4635.4595, -0.0007155851, 0.0062632477, -419293.72, -51264.074, 0.0, 5.0069785, 4.942598 
7.438899e+2, 2.673892e+2, -372560.97, -468248.7, 4309.41, -0.000030703493, 0.004233212, -372367.28, -52781.395, 0.0, 5.0054684, 4.943908 
7.4380827e+2, 2.7233252e+2, -327277.34, -420646.2, 4298.815, 0.00070436584, 0.00093978184, -327079.84, -55937.21, 0.0, 5.003952, 4.943907 
7.4372655e+2, 2.7727583e+2, -282024.97, -373149.47, 4289.731, 0.0015207132, -0.0023513783, -281823.47, -59124.047, 0.0, 5.002436, 4.9438577 
7.436444e+2, 2.8221542e+2, -245652.75, -346220.53, 3856.7832, 0.0020789856, 0.0035187486, -245505.06, -71214.47, 0.0, 5.0009456, 4.936509 
7.435612e+2, 2.8715268e+2, -197892.42, -293388.03, 3718.7444, 0.0022552884, -0.00298355, -197747.83, -71844.875, 0.0, 4.9994864, 4.9382806 
7.4347794e+2, 2.920899e+2, -152311.4, -245558.78, 3937.8904, 0.002446266, -0.010362858, -152145.4, -74630.0, 0.0, 4.998024, 4.9382777 
7.4339473e+2, 2.9702714e+2, -106703.266, -197701.78, 4156.5225, 0.0026169342, -0.017737398, -106513.805, -77385.875, 0.0, 4.9965615, 4.938275 
7.4331164e+2, 3.0198064e+2, -49831.234, -91604.97, 3493.3555, 0.0027028078, 0.0004159048, -49541.117, -49541.117, 0.0, 4.995276, 4.9682183 
7.432292e+2, 3.0695215e+2, -49394.656, -85270.69, 3654.1807, 0.002256442, 0.010392079, -49026.24, -49026.24, 0.0, 4.994244, 4.970957 
7.431468e+2, 3.1192356e+2, -52150.47, -86459.914, 3704.4976, 0.001742012, 0.017390488, -51755.04, -51755.04, 0.0, 4.9932165, 4.9709673 
7.4306434e+2, 3.1689495e+2, -54898.227, -87659.2, 3755.256, 0.0011861196, 0.024127156, -54473.29, -54473.29, 0.0, 4.992189, 4.970978 
7.5124186e+2, 1.2356052e+2, -1630330.5, -1734179.4, 2230.4392, 0.006281403, 0.011844787, -1630282.6, 98831.92, 0.0, 5.046841, 4.978729 
7.511618e+2, 1.285381e+2, -1585919.6, -1687602.8, 2288.6672, 0.004071538, 0.0065351026, -1585868.1, 94464.72, 0.0, 5.045385, 4.9787197 
7.5108165e+2, 1.3351567e+2, -1541481.5, -1641000.3, 2347.051, 0.001826447, 0.0012239484, -1541426.1, 90124.99, 0.0, 5.0439286, 4.97871 
7.5100166e+2, 1.3849322e+2, -1499060.0, -1598553.1, 2739.3596, -0.00033976653, -0.0026538458, -1498984.6, 83785.086, 0.0, 5.042466, 4.977309 
7.509221e+2, 1.4346892e+2, -1458424.6, -1559883.9, 2659.7014, -0.00065898383, 0.005036999, -1458355.0, 75651.43, 0.0, 5.0410123, 4.97456 
7.508419e+2, 1.4844272e+2, -1413934.4, -1513177.1, 2793.418, -0.0030492635, 0.0015432546, -1413855.9, 71405.664, 0.0, 5.0395317, 4.9745564 
7.507618e+2, 1.5341653e+2, -1369417.1, -1466443.4, 2925.9597, -0.005439212, -0.0019466972, -1369328.9, 67187.72, 0.0, 5.0380516, 4.9745526 
7.5068164e+2, 1.5839031e+2, -1326392.9, -1422875.4, 3071.1038, -0.007783969, -0.0048777116, -1326295.3, 61476.855, 0.0, 5.036573, 4.97348 
7.506016e+2, 1.633615e+2, -1287174.5, -1387570.1, 3277.5732, -0.008872496, 0.00071880803, -1287067.6, 51987.684, 0.0, 5.035147, 4.969593 
7.5052154e+2, 1.683307e+2, -1242292.1, -1340582.9, 3378.277, -0.009471397, 0.0009541998, -1242176.1, 48183.027, 0.0, 5.033753, 4.969592 
7.5044155e+2, 1.7329988e+2, -1197383.6, -1293570.5, 3479.3699, -0.010075523, 0.0011151026, -1197258.0, 44405.297, 0.0, 5.032359, 4.969591 
7.503615e+2, 1.7826904e+2, -1153573.1, -1248949.0, 3417.5637, -0.010672155, 0.0016183889, -1153450.9, 39516.45, 0.0, 5.030968, 4.968777 
7.5028116e+2, 1.8323563e+2, -1113575.3, -1212480.6, 3416.936, -0.009769996, 0.0060570524, -1113457.4, 30836.684, 0.0, 5.029579, 4.965176 
7.502008e+2, 1.8819985e+2, -1068420.5, -1165208.4, 3430.7942, -0.007865728, 0.00033563873, -1068299.0, 27343.273, 0.0, 5.028215, 4.96521 
7.5012046e+2, 1.9316408e+2, -1023287.2, -1118011.4, 3444.6514, -0.0060064103, -0.0053081005, -1023162.1, 23828.307, 0.0, 5.026851, 4.9652104 
7.5004023e+2, 1.9812833e+2, -979071.7, -1072819.8, 3477.123, -0.004229372, -0.010443472, -978942.9, 19395.459, 0.0, 5.025487, 4.9645205 
7.499593e+2, 2.0309031e+2, -940596.94, -1039944.56, 3373.5378, -0.00476617, -0.003257416, -940482.5, 9228.595, 0.0, 5.024098, 4.959614 
7.4987817e+2, 2.080499e+2, -895318.9, -992403.56, 3589.8892, -0.0060887905, -0.0005347089, -895186.3, 5922.8867, 0.0, 5.0227013, 4.959704 
7.497971e+2, 2.1300946e+2, -850138.44, -945117.4, 3732.1853, -0.007413847, 0.0021746687, -849992.0, 2515.4224, 0.0, 5.021306, 4.9596987 
7.4971604e+2, 2.1796903e+2, -805671.3, -899421.2, 3901.6726, -0.008745065, 0.0050275, -805509.25, -1603.453, 0.0, 5.0199113, 4.959138 
7.496348e+2, 2.2292559e+2, -766734.6, -865874.7, 3640.7966, -0.008287717, 0.011382006, -766601.1, -11269.657, 0.0, 5.0185184, 4.954373 
7.495533e+2, 2.2787908e+2, -721100.4, -817757.7, 3508.5435, -0.0066885273, 0.004259213, -720973.2, -14187.232, 0.0, 5.017131, 4.9546065 
7.494718e+2, 2.3283255e+2, -675750.6, -770290.1, 3435.0242, -0.005100142, -0.002942842, -675626.0, -17385.604, 0.0, 5.0157433, 4.9546084 
7.493903e+2, 2.3778604e+2, -631014.0, -724213.3, 3376.79, -0.0035069566, -0.010078153, -630891.8, -21197.082, 0.0, 5.014355, 4.9541183 
7.493085e+2, 2.4273723e+2, -592439.7, -691702.8, 3113.7495, -0.002026846, -0.0049479436, -592342.1, -31169.648, 0.0, 5.0129356, 4.9489036 
7.49226e+2, 2.4768612e+2, -546728.44, -643117.1, 3064.5566, -0.0009849838, -0.005304263, -546631.1, -33957.754, 0.0, 5.0114536, 4.9492927 
7.4914336e+2, 2.5263497e+2, -501520.53, -595652.06, 3224.45, -0.000010810892, -0.0058498117, -501410.2, -37235.715, 0.0, 5.009968, 4.949286 
7.490608e+2, 2.5758386e+2, -456556.97, -548770.1, 3401.1638, 0.0009033869, -0.0063200304, -456431.7, -40755.992, 0.0, 5.008482, 4.949065 
7.4897814e+2, 2.6252985e+2, -419367.16, -519425.25, 3471.5896, 0.0010445105, 0.005958125, -419246.84, -52041.297, 0.0, 5.00699, 4.9426622 
7.488948e+2, 2.674733e+2, -372447.88, -468146.03, 3152.196, 0.0005633244, 0.00440521, -372344.16, -53582.95, 0.0, 5.0054803, 4.9439483 
7.488115e+2, 2.7241668e+2, -327163.5, -420545.8, 3143.03, 0.00009157836, 0.0015908834, -327057.84, -56740.434, 0.0, 5.003965, 4.9439464 
7.4872816e+2, 2.7736005e+2, -281910.34, -373051.38, 3135.3872, -0.00033849932, -0.001228027, -281802.63, -59928.977, 0.0, 5.0024495, 4.9438963 
7.486445e+2, 2.822999e+2, -245149.73, -345265.3, 2715.8677, -0.00005105595, 0.0050440533, -245076.11, -71613.2, 0.0, 5.000964, 4.936849 
7.485599e+2, 2.8723752e+2, -197394.7, -292446.44, 2596.6724, 0.0010379269, -0.0011925325, -197323.81, -72251.67, 0.0, 4.999505, 4.9386177 
7.484752e+2, 2.921751e+2, -151817.42, -244621.81, 2816.888, 0.0021147998, -0.008282515, -151732.0, -75050.51, 0.0, 4.9980426, 4.9386144 
7.4839056e+2, 2.9711273e+2, -106213.02, -196769.44, 3036.5896, 0.00315147, -0.0153474, -106111.31, -77820.414, 0.0, 4.99658, 4.938611 
7.483062e+2, 3.020664e+2, -49382.59, -90869.62, 2693.5503, 0.0028721115, 0.0010670838, -49208.44, -49208.44, 0.0, 4.995311, 4.968492 
7.4822265e+2, 3.0703756e+2, -49018.15, -84726.97, 2894.255, 0.0008250128, 0.006526582, -48785.086, -48785.086, 0.0, 4.994282, 4.9711623 
7.48139e+2, 3.120087e+2, -51770.79, -85908.49, 2964.838, -0.001268557, 0.009060751, -51515.207, -51515.207, 0.0, 4.9932547, 4.9711747 
7.4805546e+2, 3.169798e+2, -54515.38, -87100.08, 3035.845, -0.003438593, 0.011356074, -54234.95, -54234.95, 0.0, 4.992227, 4.971187 
7.562883e+2, 1.2364102e+2, -1630091.0, -1733830.9, 1116.2853, 0.007294341, 0.014229839, -1630079.0, 98246.81, 0.0, 5.046855, 4.9788446 
7.562067e+2, 1.2861875e+2, -1585686.1, -1687261.5, 1179.7723, 0.0050360314, 0.009081884, -1585672.4, 93870.59, 0.0, 5.045398, 4.9788337 
7.5612503e+2, 1.3359645e+2, -1541254.0, -1640666.4, 1243.4137, 0.0026648925, 0.0039848285, -1541238.4, 89521.8, 0.0, 5.0439405, 4.978823 
7.560435e+2, 1.3857414e+2, -1498768.4, -1598074.0, 1642.0234, 0.0002423886, 0.00036957147, -1498741.3, 83236.4, 0.0, 5.0424767, 4.977472 
7.559625e+2, 1.4354987e+2, -1458083.0, -1559272.0, 1541.0339, -0.0004194523, 0.0064786286, -1458059.5, 75153.79, 0.0, 5.0410185, 4.974767 
7.5588083e+2, 1.4852363e+2, -1413593.0, -1512569.1, 1676.2537, -0.0026554381, 0.00031506302, -1413564.6, 70903.51, 0.0, 5.039539, 4.974763 
7.5579923e+2, 1.534974e+2, -1369076.0, -1465839.5, 1810.2968, -0.0048944587, -0.0058360426, -1369042.1, 66680.91, 0.0, 5.0380597, 4.9747586 
7.5571764e+2, 1.5847114e+2, -1326068.8, -1422305.9, 1954.6078, -0.0071034897, -0.011255443, -1326029.0, 60949.156, 0.0, 5.036581, 4.973675 
7.556361e+2, 1.6344261e+2, -1286906.8, -1387092.1, 2218.9763, -0.008624378, -0.004457802, -1286857.6, 51400.89, 0.0, 5.0351524, 4.9697566 
7.555546e+2, 1.6841227e+2, -1242028.8, -1340108.6, 2322.493, -0.0099865245, -0.0013680448, -1241973.8, 47584.81, 0.0, 5.0337577, 4.9697547 
7.5547314e+2, 1.7338188e+2, -1197124.5, -1293100.1, 2426.3965, -0.011369907, 0.001664389, -1197063.3, 43795.53, 0.0, 5.0323634, 4.9697533 
7.5539166e+2, 1.7835152e+2, -1153323.1, -1248497.4, 2352.3813, -0.012733045, 0.0050009377, -1153265.0, 38893.883, 0.0, 5.030972, 4.968934 
7.553099e+2, 1.833182e+2, -1113447.4, -1212290.6, 2376.8318, -0.011467837, 0.009413679, -1113390.3, 30094.627, 0.0, 5.029584, 4.9652443 
7.5522834e+2, 1.8828231e+2, -1068325.4, -1165083.3, 2393.3035, -0.00861379, 0.002245255, -1068266.3, 26568.291, 0.0, 5.0282187, 4.965257 
7.5514674e+2, 1.9324645e+2, -1023195.56, -1117888.3, 2409.4966, -0.0058295093, -0.0048146853, -1023134.25, 23049.826, 0.0, 5.026854, 4.9652576 
7.5506514e+2, 1.9821061e+2, -978947.06, -1072625.4, 2427.2075, -0.003164086, -0.011331155, -978884.25, 18649.14, 0.0, 5.02549, 4.964592 
7.549828e+2, 2.0317274e+2, -940251.06, -1039286.3, 2309.2666, -0.0035038607, -0.00438143, -940197.25, 8707.162, 0.0, 5.024103, 4.9598417 
7.5490034e+2, 2.0813258e+2, -895008.1, -991814.94, 2528.772, -0.005261148, -0.0011985841, -894942.1, 5357.039, 0.0, 5.022706, 4.959909 
7.548178e+2, 2.130924e+2, -849832.56, -944533.44, 2674.275, -0.0070401854, 0.0020003878, -849757.1, 1936.8754, 0.0, 5.02131, 4.9599032 
7.547353e+2, 2.1805224e+2, -805410.7, -898930.75, 2846.7031, -0.008856828, 0.0054153125, -805324.1, -2235.1682, 0.0, 5.0199146, 4.9593115 
7.546526e+2, 2.2300892e+2, -766775.6, -866060.75, 2571.2666, -0.008727134, 0.012450015, -766709.1, -12195.212, 0.0, 5.018524, 4.954313 
7.5456977e+2, 2.2796234e+2, -721146.75, -817954.56, 2452.4485, -0.0071327058, 0.005414554, -721084.6, -15114.575, 0.0, 5.0171366, 4.9545426 
7.544868e+2, 2.3291577e+2, -675798.6, -770491.06, 2381.879, -0.005562607, -0.0016843386, -675738.75, -18312.518, 0.0, 5.0157485, 4.9545436 
7.5440395e+2, 2.3786922e+2, -631041.9, -724370.5, 2325.9207, -0.004002322, -0.008712329, -630983.94, -22101.635, 0.0, 5.0143604, 4.954069 
7.5432074e+2, 2.4282049e+2, -592045.6, -690938.5, 1984.4149, -0.0021257636, -0.0040233615, -592005.8, -31646.709, 0.0, 5.0129437, 4.949173 
7.5423676e+2, 2.4776956e+2, -546369.3, -642432.0, 1932.391, -0.0003283357, -0.004876833, -546330.44, -34473.44, 0.0, 5.011462, 4.949536 
7.541528e+2, 2.5271863e+2, -501164.1, -594972.6, 2094.1262, 0.00137886, -0.0059022363, -501117.38, -37762.2, 0.0, 5.009976, 4.949528 
7.540688e+2, 2.576677e+2, -456219.84, -548133.0, 2269.8594, 0.0029978356, -0.0068453993, -456163.84, -41310.414, 0.0, 5.00849, 4.9492936 
7.5398463e+2, 2.6261386e+2, -419243.4, -519291.4, 2320.375, 0.0027572734, 0.0056979214, -419189.63, -52808.246, 0.0, 5.0070014, 4.9427133 
7.5389963e+2, 2.6755738e+2, -372334.78, -468043.44, 1996.1067, 0.0011211059, 0.004609515, -372293.16, -54356.703, 0.0, 5.0054927, 4.9439883 
7.5381464e+2, 2.7250084e+2, -327049.7, -420445.47, 1988.3702, -0.00054725935, 0.0022585257, -327007.38, -57515.23, 0.0, 5.0039783, 4.9439855 
7.537297e+2, 2.7744433e+2, -281795.78, -372953.3, 1982.1691, -0.0022135812, -0.00010388467, -281752.7, -60704.85, 0.0, 5.0024633, 4.943935 
7.5364447e+2, 2.823844e+2, -244644.92, -344306.75, 1580.3317, -0.0021673315, 0.0066142473, -244619.86, -71984.73, 0.0, 5.0009828, 4.9371905 
7.5355846e+2, 2.873224e+2, -196896.9, -291505.22, 1475.1501, -0.00017652335, 0.0006181541, -196873.9, -72632.64, 0.0, 4.9995246, 4.9389544 
7.5347245e+2, 2.9226035e+2, -151323.38, -243685.22, 1696.4357, 0.0017769344, -0.006209125, -151292.22, -75444.7, 0.0, 4.9980617, 4.9389505 
7.533865e+2, 2.971983e+2, -105722.695, -195837.45, 1917.2067, 0.003670301, -0.01299094, -105681.92, -78228.125, 0.0, 4.996599, 4.9389467 
7.5330085e+2, 3.021521e+2, -48952.22, -90176.41, 1913.268, 0.0030353095, 0.0015692969, -48863.61, -48863.61, 0.0, 4.9953456, 4.9687457 
7.532161e+2, 3.0712298e+2, -48642.125, -84182.625, 2132.2578, -0.0006743842, 0.0019962694, -48514.656, -48514.656, 0.0, 4.99432, 4.9713616 
7.5313133e+2, 3.120938e+2, -51391.586, -85356.46, 2223.105, -0.004420117, -0.00046770764, -51246.695, -51246.695, 0.0, 4.9932933, 4.971376 
7.530466e+2, 3.1706458e+2, -54132.996, -86540.36, 2314.3586, -0.008277241, -0.0031471273, -53968.55, -53968.55, 0.0, 4.9922657, 4.9713902 
7.613348e+2, 1.2372186e+2, -1630124.6, -1733676.4, 1568.6064, 0.009724407, 0.014716666, -1630100.9, 97431.57, 0.0, 5.04679, 4.9789324 
7.612516e+2, 1.2869969e+2, -1585807.6, -1687130.0, 1551.1359, 0.006692357, 0.009981037, -1585783.9, 92964.984, 0.0, 5.0453014, 4.978928 
7.611685e+2, 1.3367754e+2, -1541516.0, -1640584.0, 1540.9512, 0.0035845514, 0.0053648045, -1541492.0, 88473.31, 0.0, 5.0437956, 4.9789233 
7.610854e+2, 1.3865536e+2, -1499160.3, -1597929.1, 1877.4293, 0.00044239493, 0.002274423, -1499124.5, 82057.17, 0.0, 5.042265, 4.9776235 
7.610028e+2, 1.4363116e+2, -1458491.9, -1559089.6, 1680.1649, -0.00051983417, 0.0073761037, -1458463.9, 73952.97, 0.0, 5.0407953, 4.974936 
7.6091975e+2, 1.4860487e+2, -1413921.6, -1512349.3, 1676.7206, -0.0025115272, -0.00060411793, -1413893.1, 69778.58, 0.0, 5.0393434, 4.974932 
7.6083666e+2, 1.535786e+2, -1369339.5, -1465589.4, 1675.7201, -0.004513949, -0.008575913, -1369310.4, 65616.086, 0.0, 5.0378866, 4.9749284 
7.607537e+2, 1.5855232e+2, -1326283.3, -1422024.4, 1695.1908, -0.006516013, -0.01562925, -1326253.3, 59928.12, 0.0, 5.0364237, 4.9738483 
7.6067066e+2, 1.6352408e+2, -1287106.9, -1386738.4, 2023.4487, -0.008282662, -0.007875979, -1287065.8, 50393.27, 0.0, 5.0349865, 4.969955 
7.605877e+2, 1.6849408e+2, -1242265.1, -1339779.3, 2157.066, -0.010078375, -0.003038056, -1242217.5, 46538.3, 0.0, 5.0335793, 4.969952 
7.605048e+2, 1.7346406e+2, -1197408.3, -1292799.1, 2288.993, -0.0119057335, 0.00180401, -1197353.3, 42699.254, 0.0, 5.032169, 4.969949 
7.604218e+2, 1.7843404e+2, -1153681.1, -1248269.0, 2229.5652, -0.013702393, 0.006975386, -1153628.6, 37720.77, 0.0, 5.0307593, 4.9691143 
7.6033866e+2, 1.8340087e+2, -1113902.9, -1212389.1, 2272.2266, -0.0122873755, 0.011590587, -1113850.5, 28824.252, 0.0, 5.0293975, 4.965302 
7.602558e+2, 1.8836492e+2, -1068650.9, -1165147.8, 2227.1943, -0.008977705, 0.00372685, -1068599.5, 25425.771, 0.0, 5.0280824, 4.9653025 
7.601729e+2, 1.93329e+2, -1023399.2, -1117893.8, 2185.6685, -0.00566981, -0.0041421596, -1023348.7, 22027.271, 0.0, 5.026759, 4.9653034 
7.6009005e+2, 1.9829312e+2, -979050.94, -1072580.9, 2129.0254, -0.0024335573, -0.011542867, -979002.5, 17723.797, 0.0, 5.025429, 4.964639 
7.6000637e+2, 2.0325537e+2, -940062.75, -1038699.1, 1943.2268, -0.0025752967, -0.004744154, -940024.5, 8071.374, 0.0, 5.0240602, 4.960064 
7.5992244e+2, 2.0821539e+2, -894817.4, -991296.75, 2075.1255, -0.0045617563, -0.0015858017, -894772.8, 4715.1826, 0.0, 5.0226784, 4.960101 
7.598385e+2, 2.1317542e+2, -849614.94, -943997.3, 2147.6301, -0.0065872753, 0.0016412182, -849566.1, 1313.9813, 0.0, 5.0212917, 4.960098 
7.5975454e+2, 2.1813543e+2, -805242.1, -898508.4, 2260.4814, -0.008692336, 0.005213063, -805187.4, -2915.1484, 0.0, 5.0198984, 4.959466 
7.596705e+2, 2.2309224e+2, -766895.25, -866220.75, 1981.4309, -0.008864079, 0.013092376, -766855.7, -13159.339, 0.0, 5.0184984, 4.9542723 
7.5958616e+2, 2.2804566e+2, -721321.25, -818148.25, 1901.1986, -0.007295098, 0.006386766, -721283.94, -16130.105, 0.0, 5.0170918, 4.9544997 
7.595018e+2, 2.3299907e+2, -676028.06, -770716.6, 1857.5024, -0.005740387, -0.00042444465, -675991.6, -19380.344, 0.0, 5.0156846, 4.9544983 
7.5941753e+2, 2.3795247e+2, -631310.56, -724591.5, 1828.5754, -0.004199436, -0.007206926, -631274.75, -23205.959, 0.0, 5.0142775, 4.954034 
7.5933295e+2, 2.4290383e+2, -591881.2, -690317.8, 1372.4908, -0.0021120245, -0.002753528, -591862.06, -32317.418, 0.0, 5.0128846, 4.94942 
7.5924754e+2, 2.4785307e+2, -546089.56, -641799.4, 1216.356, 0.0003170209, -0.0042353137, -546074.1, -35034.11, 0.0, 5.011452, 4.949765 
7.591622e+2, 2.5280228e+2, -500776.13, -594285.25, 1293.6698, 0.0026942533, -0.0058539775, -500758.25, -38222.7, 0.0, 5.0100045, 4.9497604 
7.590768e+2, 2.5775152e+2, -455783.13, -547466.75, 1396.4862, 0.005003019, -0.00735399, -455761.84, -41730.758, 0.0, 5.0085454, 4.9495068 
7.58991e+2, 2.6269785e+2, -418903.8, -519019.56, 1425.2576, 0.0043487665, 0.0054787593, -418883.5, -53326.24, 0.0, 5.00709, 4.9427743 
7.5890446e+2, 2.6764148e+2, -371922.9, -467761.0, 1127.1002, 0.0016289218, 0.0048343665, -371909.63, -54797.94, 0.0, 5.0056114, 4.944041 
7.5881785e+2, 2.7258506e+2, -326584.88, -420140.63, 1156.0684, -0.0011561383, 0.0029263066, -326570.6, -57903.875, 0.0, 5.0041165, 4.9440374 
7.5873125e+2, 2.7752858e+2, -281322.25, -372673.56, 1189.5427, -0.0039723753, 0.0010005056, -281306.75, -61084.945, 0.0, 5.002611, 4.9439745 
7.586445e+2, 2.8246894e+2, -243895.02, -343200.0, 786.51215, -0.004133257, 0.008177635, -243888.78, -72081.64, 0.0, 5.001091, 4.9375405 
7.5855714e+2, 2.8740725e+2, -196404.61, -290552.78, 613.4395, -0.0013179354, 0.0023653589, -196400.63, -72990.28, 0.0, 4.999548, 4.9392886 
7.584697e+2, 2.9234558e+2, -151038.44, -242820.61, 779.417, 0.001459035, -0.0042510177, -151031.81, -76018.22, 0.0, 4.9980106, 4.939287 
7.583824e+2, 2.9728392e+2, -105616.79, -195048.05, 963.8772, 0.0041756374, -0.010797173, -105606.4, -78989.57, 0.0, 4.996483, 4.9392853 
7.582955e+2, 3.0223778e+2, -48928.24, -89682.766, 1261.7905, 0.0032223, 0.0019163438, -48889.21, -48889.21, 0.0, 4.995247, 4.9689746 
7.582095e+2, 3.0720833e+2, -48530.094, -83753.8, 1357.9403, -0.0021027462, -0.0029662289, -48477.82, -48477.82, 0.0, 4.9942718, 4.971546 
7.5812364e+2, 3.121788e+2, -51321.234, -84941.31, 1341.0072, -0.007455232, -0.010842029, -51267.832, -51267.832, 0.0, 4.99323, 4.9715614 
7.5803775e+2, 3.1714925e+2, -54280.066, -86211.336, 1317.1409, -0.012962758, -0.019011348, -54225.83, -54225.83, 0.0, 4.9921227, 4.971578 
7.6638174e+2, 1.2380672e+2, -1627142.4, -1731739.9, 4615.164, 0.014208413, 0.00844419, -1626939.3, 99756.95, 0.0, 5.0477357, 4.9790854 
7.662968e+2, 1.2878479e+2, -1583215.0, -1685377.8, 4655.668, 0.009397123, 0.0053347303, -1583003.3, 94908.07, 0.0, 5.0461206, 4.979084 
7.662119e+2, 1.3376285e+2, -1539257.5, -1638987.6, 4696.3647, 0.0044873757, 0.0023702357, -1539036.8, 90089.57, 0.0, 5.044505, 4.979082 
7.6612705e+2, 1.3874091e+2, -1497125.8, -1596346.5, 5095.149, -0.00037184323, 0.00087162544, -1496864.8, 83476.6, 0.0, 5.0428843, 4.9778223 
7.6604295e+2, 1.4371684e+2, -1456685.5, -1557798.8, 5021.5166, -0.0015314221, 0.0066392706, -1456436.8, 75139.29, 0.0, 5.041381, 4.9750547 
7.659585e+2, 1.4869064e+2, -1412113.4, -1511057.4, 5027.3154, -0.0030485517, -0.00066318666, -1411858.5, 70972.41, 0.0, 5.0399323, 4.9750514 
7.658741e+2, 1.5366444e+2, -1367514.0, -1464290.3, 5033.448, -0.0045848084, -0.007932808, -1367253.0, 66832.9, 0.0, 5.0384836, 4.9750485 
7.657896e+2, 1.5863825e+2, -1324280.1, -1420401.3, 5062.3037, -0.006134604, -0.01425288, -1324014.3, 61326.305, 0.0, 5.0370326, 4.974073 
7.657053e+2, 1.636102e+2, -1284908.1, -1384713.9, 5499.6777, -0.007397275, -0.007027402, -1284606.0, 52010.234, 0.0, 5.035602, 4.9703097 
7.6562095e+2, 1.6858032e+2, -1240051.4, -1337755.1, 5693.5547, -0.008685244, -0.003368418, -1239720.6, 48189.934, 0.0, 5.034203, 4.9703054 
7.6553667e+2, 1.7355044e+2, -1195168.6, -1290770.9, 5886.8184, -0.00999549, 0.00034907932, -1194807.5, 44397.57, 0.0, 5.0328045, 4.970301 
7.654524e+2, 1.7852058e+2, -1151420.8, -1246266.0, 5885.3057, -0.011259682, 0.0044383956, -1151057.0, 39442.684, 0.0, 5.0314107, 4.9694533 
7.6536787e+2, 1.8348753e+2, -1111932.8, -1211138.0, 6067.472, -0.010237365, 0.009666433, -1111563.0, 30260.857, 0.0, 5.0300827, 4.9653707 
7.652836e+2, 1.8845175e+2, -1066520.6, -1163824.8, 6023.3345, -0.008028309, 0.0036825489, -1066149.1, 27024.996, 0.0, 5.0288258, 4.9653707 
7.6519936e+2, 1.9341597e+2, -1021084.75, -1116488.8, 5979.37, -0.0057659405, -0.0023689684, -1020711.44, 23813.057, 0.0, 5.0275683, 4.965371 
7.65115e+2, 1.983802e+2, -976495.3, -1071013.5, 5877.7837, -0.0034944336, -0.008066928, -976131.2, 19743.479, 0.0, 5.026312, 4.9647307 
7.650301e+2, 2.0334242e+2, -937295.9, -1036774.75, 5691.997, -0.0033437226, -0.0020573672, -936971.25, 10273.124, 0.0, 5.024969, 4.9602637 
7.6494485e+2, 2.083023e+2, -892019.6, -989401.56, 5792.5825, -0.0044494574, -0.0010223129, -891676.25, 6960.8877, 0.0, 5.02361, 4.9602833 
7.648596e+2, 2.1326219e+2, -846740.8, -942062.94, 5836.2837, -0.005580353, 0.00015462932, -846384.75, 3645.079, 0.0, 5.022252, 4.960283 
7.6477444e+2, 2.182221e+2, -802248.0, -896469.94, 5909.8564, -0.006770632, 0.001745102, -801878.75, -456.30054, 0.0, 5.0208936, 4.959674 
7.6468897e+2, 2.2317898e+2, -763959.3, -864344.2, 5664.2017, -0.00672314, 0.009733199, -763640.7, -10795.075, 0.0, 5.0195055, 4.9544187 
7.6460314e+2, 2.2813267e+2, -718478.5, -816377.4, 5634.101, -0.0055768467, 0.0054998123, -718155.3, -13854.25, 0.0, 5.01808, 4.9546213 
7.6451737e+2, 2.3308633e+2, -673246.6, -768986.0, 5636.64, -0.004413629, 0.0011131902, -672915.94, -17159.338, 0.0, 5.0166545, 4.954618 
7.6443166e+2, 2.3803999e+2, -628581.4, -722884.2, 5659.026, -0.003233028, -0.0033314752, -628243.0, -21030.752, 0.0, 5.015229, 4.954158 
7.6434565e+2, 2.4299136e+2, -589195.94, -688653.94, 5171.4966, -0.0014211205, 0.0013049669, -588927.75, -30239.783, 0.0, 5.0138326, 4.949528 
7.642588e+2, 2.4794045e+2, -543338.06, -640131.1, 4860.5464, 0.0006249252, -0.0016746103, -543094.6, -32909.65, 0.0, 5.012432, 4.9498634 
7.6417196e+2, 2.528895e+2, -497902.7, -592552.0, 4768.9756, 0.0027049107, -0.0047545903, -497663.0, -35981.027, 0.0, 5.0110283, 4.949864 
7.6408505e+2, 2.5783864e+2, -452746.72, -545635.44, 4689.493, 0.0048137307, -0.0076679373, -452510.56, -39331.77, 0.0, 5.0096245, 4.9496236 
7.63998e+2, 2.6278502e+2, -415572.22, -516760.34, 4672.171, 0.0042852955, 0.004697204, -415356.94, -50652.68, 0.0, 5.008218, 4.943021 
7.6390994e+2, 2.6772884e+2, -368538.28, -465509.56, 4410.3774, 0.0017904709, 0.0047844034, -368338.1, -52081.953, 0.0, 5.0067697, 4.944275 
7.638219e+2, 2.726726e+2, -323095.53, -417840.13, 4481.3604, -0.00073928427, 0.0036675965, -322884.03, -55075.43, 0.0, 5.005316, 4.9442744 
7.637338e+2, 2.7761635e+2, -277691.75, -370295.6, 4554.852, -0.00327106, 0.0025639767, -277468.25, -58107.12, 0.0, 5.003862, 4.94422 
7.636455e+2, 2.825567e+2, -240761.95, -341345.84, 3833.663, -0.003329174, 0.009061918, -240616.05, -69669.695, 0.0, 5.0022182, 4.937658 
7.6355636e+2, 2.874949e+2, -194180.19, -289149.6, 3325.9868, -0.00084946345, 0.0017835968, -194063.84, -71512.05, 0.0, 5.0003595, 4.939387 
7.6346725e+2, 2.924331e+2, -149704.3, -241787.67, 3137.7983, 0.0016548481, -0.006235936, -149597.5, -75440.43, 0.0, 4.9984975, 4.9393964 
7.63378e+2, 2.973713e+2, -105194.75, -194391.56, 2949.187, 0.004166488, -0.01413271, -105097.34, -79335.28, 0.0, 4.996635, 4.9394064 
7.6329e+2, 3.0232534e+2, -48732.438, -90012.37, 3570.5679, 0.0030593313, 0.0011242165, -48425.875, -48425.875, 0.0, 4.995486, 4.968708 
7.632036e+2, 3.0729616e+2, -46408.4, -83465.88, 3014.7036, -0.0014409247, 0.0027589567, -46164.75, -46164.75, 0.0, 4.9952497, 4.9711933 
7.631172e+2, 3.1226677e+2, -46989.203, -83755.664, 2334.7942, -0.0057239165, 0.0007885295, -46841.53, -46841.53, 0.0, 4.995019, 4.971192 
7.6303077e+2, 3.1723732e+2, -47563.79, -84050.72, 1665.7422, -0.009963607, -0.0021578255, -47487.9, -47487.9, 0.0, 4.9947867, 4.971191 
7.714292e+2, 1.2389383e+2, -1626918.0, -1731421.8, 3379.0564, 0.018232156, 0.0024343003, -1626808.9, 99028.86, 0.0, 5.0477476, 4.9791927 
7.713425e+2, 1.2887216e+2, -1582993.6, -1685062.8, 3424.6404, 0.011716962, 0.00094351417, -1582878.9, 94172.25, 0.0, 5.0461326, 4.9791903 
7.712558e+2, 1.338505e+2, -1539039.3, -1638675.8, 3470.4155, 0.00504435, -0.0003843826, -1538918.5, 89345.89, 0.0, 5.044517, 4.979188 
7.711691e+2, 1.3882883e+2, -1496870.4, -1595953.8, 3889.836, -0.0014919247, -0.00032486802, -1496717.9, 82759.8, 0.0, 5.0428953, 4.977956 
7.710835e+2, 1.4380494e+2, -1456562.8, -1557654.1, 3922.82, -0.0027828668, 0.0061969846, -1456410.8, 74300.805, 0.0, 5.0413885, 4.975107 
7.709977e+2, 1.4877886e+2, -1411992.4, -1510913.5, 3931.006, -0.0038122004, -0.00037942437, -1411836.4, 70129.92, 0.0, 5.0399394, 4.975104 
7.709118e+2, 1.5375276e+2, -1367394.9, -1464147.1, 3939.524, -0.0048696552, -0.0069163246, -1367234.6, 65986.33, 0.0, 5.0384903, 4.975101 
7.70826e+2, 1.5872674e+2, -1324010.6, -1419936.4, 3968.1396, -0.005957524, -0.012481696, -1323846.8, 60628.63, 0.0, 5.037039, 4.974233 
7.707402e+2, 1.6369887e+2, -1284472.0, -1383877.4, 4439.8574, -0.0066492897, -0.0057938052, -1284274.1, 51474.363, 0.0, 5.035606, 4.970594 
7.706546e+2, 1.6866916e+2, -1239619.6, -1336924.8, 4635.889, -0.007334484, -0.0034640208, -1239399.3, 47640.99, 0.0, 5.034207, 4.9705887 
7.7056897e+2, 1.7363943e+2, -1194741.3, -1289946.5, 4831.307, -0.008059549, -0.0010540716, -1194496.8, 43835.35, 0.0, 5.0328083, 4.970584 
7.704833e+2, 1.786097e+2, -1151040.4, -1245541.6, 4827.5127, -0.008774798, 0.0017863897, -1150794.4, 38829.73, 0.0, 5.0314145, 4.969703 
7.703975e+2, 1.8357684e+2, -1111934.3, -1211216.8, 5108.813, -0.008231795, 0.007828566, -1111672.1, 29274.826, 0.0, 5.0300865, 4.9653482 
7.703118e+2, 1.8854125e+2, -1066525.1, -1163906.6, 5067.263, -0.00718195, 0.0038188456, -1066262.1, 26034.588, 0.0, 5.0288286, 4.965348 
7.702261e+2, 1.9350563e+2, -1021092.06, -1116573.8, 5025.8857, -0.006103448, -0.00023543685, -1020828.25, 22818.244, 0.0, 5.0275707, 4.9653473 
7.701405e+2, 1.9847003e+2, -976484.25, -1071064.0, 4874.9863, -0.0050149444, -0.003959611, -976233.6, 18762.486, 0.0, 5.0263147, 4.9647193 
7.700542e+2, 2.0343225e+2, -937113.7, -1036461.2, 4674.0645, -0.0045532393, 0.0012168818, -936894.25, 9471.614, 0.0, 5.0249724, 4.9603767 
7.6996773e+2, 2.0839196e+2, -891872.1, -989164.44, 4762.1, -0.0045449384, -0.00017624751, -891639.6, 6119.9326, 0.0, 5.0236135, 4.9603705 
7.6988125e+2, 2.1335168e+2, -846595.4, -941829.06, 4808.0654, -0.0045752875, -0.0014117595, -846353.25, 2799.8823, 0.0, 5.0222554, 4.9603696 
7.697948e+2, 2.1831143e+2, -802069.75, -896163.7, 4875.2065, -0.0046724835, -0.0022200644, -801817.8, -1271.2609, 0.0, 5.020897, 4.959786 
7.697079e+2, 2.2326845e+2, -763836.06, -864164.2, 4576.1216, -0.004420285, 0.0058129313, -763627.75, -11659.138, 0.0, 5.0195093, 4.9544864 
7.6962066e+2, 2.2822243e+2, -718392.94, -816282.94, 4550.165, -0.0037518132, 0.0044396142, -718181.9, -14760.608, 0.0, 5.0180845, 4.9546604 
7.6953346e+2, 2.3317641e+2, -673161.0, -768894.9, 4555.131, -0.0030741931, 0.0029311618, -672944.75, -18070.723, 0.0, 5.0166593, 4.9546566 
7.6944625e+2, 2.3813038e+2, -628504.2, -722813.6, 4582.89, -0.0023878615, 0.0013446944, -628282.0, -21955.04, 0.0, 5.015234, 4.954189 
7.6935875e+2, 2.4308181e+2, -589224.0, -688822.7, 4096.9106, -0.0009052641, 0.006417338, -589055.8, -31253.15, 0.0, 5.0138383, 4.949475 
7.692704e+2, 2.4803063e+2, -543381.75, -640344.5, 3791.606, 0.000650396, 0.0016853763, -543233.7, -33931.395, 0.0, 5.0124393, 4.9497943 
7.6918215e+2, 2.5297946e+2, -497943.06, -592767.75, 3702.175, 0.0022058228, -0.0031778002, -497798.75, -36996.69, 0.0, 5.011037, 4.949794 
7.690939e+2, 2.579283e+2, -452759.78, -545799.5, 3630.1125, 0.0037716746, -0.00789325, -452618.38, -40316.7, 0.0, 5.0096345, 4.9495707 
7.690053e+2, 2.628747e+2, -415291.13, -516285.13, 3566.0027, 0.0034970208, 0.0038965056, -415165.34, -51338.645, 0.0, 5.008231, 4.943192 
7.689159e+2, 2.6781875e+2, -368280.66, -465087.66, 3303.4956, 0.001761004, 0.0048607322, -368168.06, -52792.547, 0.0, 5.006783, 4.9444284 
7.688265e+2, 2.7276278e+2, -322840.25, -417421.2, 3376.8252, -0.000026732037, 0.004672719, -322719.84, -55794.97, 0.0, 5.0053287, 4.9444275 
7.687371e+2, 2.777068e+2, -277431.47, -369863.7, 3448.622, -0.0018417949, 0.004497072, -277303.0, -58828.727, 0.0, 5.003875, 4.9443784 
7.686471e+2, 2.82647e+2, -240888.66, -341819.6, 2386.6497, -0.0017790917, 0.009798105, -240832.25, -70771.55, 0.0, 5.0022316, 4.9374967 
7.68556e+2, 2.8758478e+2, -194317.97, -289664.06, 1889.7075, -0.000004316394, 0.00016407686, -194280.53, -72609.445, 0.0, 5.0003753, 4.9392095 
7.684649e+2, 2.9252258e+2, -149836.45, -242298.03, 1704.5369, 0.0017714709, -0.010197113, -149805.05, -76523.74, 0.0, 4.998514, 4.9392195 
7.6837385e+2, 2.9746038e+2, -105321.29, -194897.84, 1518.9408, 0.0035287226, -0.020438075, -105295.54, -80404.31, 0.0, 4.996653, 4.9392295 
7.682847e+2, 3.024145e+2, -49369.594, -91966.35, 3381.2637, 0.0023207932, -0.000010765559, -49102.863, -49102.863, 0.0, 4.995546, 4.967987 
7.681982e+2, 3.073858e+2, -47118.355, -85549.664, 2870.5261, -0.00087711035, 0.014320033, -46905.133, -46905.133, 0.0, 4.9953046, 4.970427 
7.681117e+2, 3.1235698e+2, -47730.824, -85840.03, 2211.392, -0.0039476966, 0.025324278, -47602.934, -47602.934, 0.0, 4.9950633, 4.9704294 
7.6802516e+2, 3.1732807e+2, -48337.063, -86135.67, 1563.1136, -0.007130423, 0.035626817, -48272.53, -48272.53, 0.0, 4.9948206, 4.970432 
7.764767e+2, 1.23980954e+2, -1626694.1, -1731104.1, 2143.2563, 0.022158457, -0.003128696, -1626650.3, 98329.01, 0.0, 5.0477605, 4.979298 
7.763881e+2, 1.2895955e+2, -1582772.9, -1684748.3, 2193.9194, 0.013945169, -0.0031024811, -1582725.6, 93465.125, 0.0, 5.0461445, 4.9792957 
7.762996e+2, 1.3393816e+2, -1538821.5, -1638364.4, 2244.771, 0.00551548, -0.002895336, -1538770.9, 88631.39, 0.0, 5.044529, 4.979293 
7.762112e+2, 1.3891675e+2, -1496632.5, -1595598.5, 2683.903, -0.002653651, -0.001378446, -1496559.9, 82054.05, 0.0, 5.0429068, 4.978076 
7.76124e+2, 1.4389302e+2, -1456439.9, -1557510.1, 2823.8276, -0.0040327567, 0.0059131854, -1456361.0, 73485.984, 0.0, 5.0413966, 4.9751587 
7.760368e+2, 1.4886707e+2, -1411871.3, -1510770.3, 2834.401, -0.0045707626, -0.000007982349, -1411790.0, 69311.54, 0.0, 5.039947, 4.975156 
7.7594954e+2, 1.5384111e+2, -1367275.5, -1464004.6, 2845.3042, -0.005145888, -0.005882892, -1367191.9, 65164.297, 0.0, 5.0384974, 4.9751525 
7.758622e+2, 1.588152e+2, -1323749.9, -1419491.0, 2873.7415, -0.00577437, -0.010731509, -1323663.6, 59946.46, 0.0, 5.037045, 4.9743867 
7.7577513e+2, 1.6378756e+2, -1284035.9, -1383041.4, 3381.1372, -0.005900305, -0.0045267954, -1283920.6, 50960.035, 0.0, 5.03561, 4.9708776 
7.756882e+2, 1.6875798e+2, -1239187.9, -1336094.9, 3579.3235, -0.0059670648, -0.0035869365, -1239055.9, 47113.91, 0.0, 5.034211, 4.970872 
7.756012e+2, 1.737284e+2, -1194313.9, -1289122.8, 3776.8945, -0.006091311, -0.0025451994, -1194163.8, 43295.33, 0.0, 5.0328116, 4.9708657 
7.755143e+2, 1.7869884e+2, -1150691.3, -1244885.3, 3774.3296, -0.006274215, -0.00094220345, -1150540.4, 38208.14, 0.0, 5.031419, 4.969929 
7.75427e+2, 1.8366617e+2, -1111936.0, -1211295.9, 4150.6445, -0.006306492, 0.0061620465, -1111762.9, 28306.99, 0.0, 5.03009, 4.965325 
7.7533996e+2, 1.8863073e+2, -1066529.8, -1163988.9, 4111.682, -0.006394249, 0.0040657218, -1066356.5, 25062.652, 0.0, 5.0288315, 4.965324 
7.7525294e+2, 1.935953e+2, -1021099.56, -1116659.1, 4072.8909, -0.00647803, 0.0019479713, -1020926.25, 21842.193, 0.0, 5.0275736, 4.965323 
7.75166e+2, 1.9855988e+2, -976447.94, -1071061.8, 3869.1086, -0.0065516285, 0.00015701754, -976290.0, 17827.537, 0.0, 5.0263176, 4.964725 
7.750783e+2, 2.0352207e+2, -936967.1, -1036224.7, 3661.843, -0.005754032, 0.004534807, -936832.2, 8655.145, 0.0, 5.0249763, 4.9604626 
7.7499056e+2, 2.0848161e+2, -891724.56, -988927.8, 3732.37, -0.0046150503, 0.0006498249, -891581.44, 5300.441, 0.0, 5.0236173, 4.9604573 
7.749028e+2, 2.1344118e+2, -846449.8, -941595.6, 3780.6, -0.0035285826, -0.0030634284, -846299.8, 1976.5204, 0.0, 5.0222588, 4.9604554 
7.7481514e+2, 2.1840078e+2, -801908.6, -895895.7, 3844.8428, -0.0025287266, -0.0062951916, -801751.6, -2080.9805, 0.0, 5.0209002, 4.959884 
7.7472687e+2, 2.2335792e+2, -763716.8, -863994.7, 3485.9607, -0.002153406, 0.002108817, -763595.75, -12504.316, 0.0, 5.019514, 4.9545507 
7.746382e+2, 2.2831222e+2, -718307.06, -816189.06, 3467.7593, -0.0019401127, 0.0035298544, -718184.4, -15643.038, 0.0, 5.0180893, 4.9546986 
7.745494e+2, 2.332665e+2, -673075.06, -768804.4, 3475.1516, -0.0017264993, 0.0048258533, -672949.06, -18957.729, 0.0, 5.0166645, 4.954694 
7.7446073e+2, 2.3822078e+2, -628440.2, -722773.3, 3508.6997, -0.0015206534, 0.00603549, -628309.9, -22868.313, 0.0, 5.0152397, 4.9542093 
7.743718e+2, 2.4317223e+2, -589259.9, -689009.44, 3023.6265, -0.00041833147, 0.011583512, -589168.3, -32251.033, 0.0, 5.013845, 4.9494147 
7.742821e+2, 2.4812081e+2, -543425.25, -640558.25, 2724.581, 0.00066874456, 0.0050456296, -543348.9, -34929.227, 0.0, 5.012447, 4.9497247 
7.7419233e+2, 2.530694e+2, -497983.3, -592983.8, 2637.2903, 0.0017218806, -0.0016519474, -497910.16, -37987.973, 0.0, 5.0110455, 4.949723 
7.741026e+2, 2.5801802e+2, -452771.7, -545961.6, 2573.9888, 0.0027686497, -0.008210924, -452700.66, -41276.09, 0.0, 5.0096445, 4.9495187 
7.740127e+2, 2.6296443e+2, -415014.38, -515820.16, 2461.4768, 0.0027128682, 0.0032233582, -414954.3, -52005.36, 0.0, 5.0082445, 4.9433594 
7.7392185e+2, 2.6790872e+2, -368023.0, -464666.0, 2197.1257, 0.001741222, 0.005015855, -367973.06, -53478.395, 0.0, 5.006797, 4.9445815 
7.7383107e+2, 2.7285296e+2, -322584.9, -417002.5, 2272.802, 0.00070143834, 0.005702774, -322530.22, -56489.293, 0.0, 5.0053425, 4.94458 
7.737403e+2, 2.7779722e+2, -277207.47, -369514.9, 2330.7397, -0.00038796142, 0.0064008716, -277148.66, -59561.395, 0.0, 5.003888, 4.944507 
7.736486e+2, 2.827373e+2, -241016.84, -342298.03, 945.28107, -0.00025679663, 0.010607791, -241008.02, -71832.86, 0.0, 5.002246, 4.937333 
7.735556e+2, 2.876747e+2, -194455.33, -290178.84, 453.02698, 0.0007856284, -0.0014677877, -194453.17, -73662.67, 0.0, 5.0003915, 4.9390316 
7.734626e+2, 2.9261205e+2, -149968.17, -242808.69, 270.8756, 0.0018047409, -0.014264207, -149967.38, -77561.69, 0.0, 4.9985313, 4.939042 
7.7336955e+2, 2.9754943e+2, -105532.88, -195603.45, 100.51827, 0.0027810165, -0.026936602, -105532.77, -81512.195, 0.0, 4.996672, 4.938981 
7.732794e+2, 3.025037e+2, -50022.855, -93951.086, 3236.3096, 0.0018181003, -0.0005452948, -49785.707, -49785.707, 0.0, 4.9956064, 4.9672513 
7.731929e+2, 3.074755e+2, -47832.508, -87631.28, 2719.1897, -0.00009349254, 0.026068062, -47647.582, -47647.582, 0.0, 4.995359, 4.9696574 
7.731063e+2, 3.1244713e+2, -48476.656, -87922.24, 2080.8455, -0.0019893048, 0.049619753, -48367.19, -48367.19, 0.0, 4.995107, 4.9696636 
7.730196e+2, 3.1741878e+2, -49114.56, -88218.484, 1453.3545, -0.0041527725, 0.07274419, -49060.617, -49060.617, 0.0, 4.9948545, 4.9696693 
7.8152394e+2, 1.2406818e+2, -1627260.1, -1731025.5, 1461.9635, 0.024120195, -0.008903854, -1627239.5, 96881.14, 0.0, 5.047491, 4.9794617 
7.8143364e+2, 1.2904707e+2, -1583326.6, -1684660.9, 1616.2279, 0.014805579, -0.007393542, -1583300.9, 92029.15, 0.0, 5.0458755, 4.979461 
7.813434e+2, 1.3402596e+2, -1539439.9, -1638305.4, 1764.2312, 0.005476496, -0.005815705, -1539408.4, 87130.91, 0.0, 5.044235, 4.9794602 
7.812532e+2, 1.3900483e+2, -1497373.8, -1595577.9, 2319.6929, -0.0032797926, -0.0030884035, -1497318.9, 80429.81, 0.0, 5.0425663, 4.9782515 
7.811646e+2, 1.4398132e+2, -1457287.1, -1557676.1, 2678.4016, -0.004578723, 0.0052020783, -1457215.8, 71764.73, 0.0, 5.0410523, 4.975272 
7.8107595e+2, 1.4895555e+2, -1412632.5, -1510887.8, 2770.1104, -0.004797524, 0.00019435016, -1412554.4, 67679.69, 0.0, 5.039631, 4.9752703 
7.8098726e+2, 1.5392977e+2, -1367959.0, -1464077.4, 2862.2432, -0.00504139, -0.0048464336, -1367873.9, 63613.93, 0.0, 5.0382075, 4.9752684 
7.808986e+2, 1.5890403e+2, -1324249.3, -1419300.5, 2969.062, -0.0053394684, -0.008914958, -1324156.6, 58584.176, 0.0, 5.036782, 4.9745774 
7.8081006e+2, 1.6387656e+2, -1284290.0, -1382617.0, 3441.534, -0.0050442694, -0.0031984744, -1284169.6, 49839.63, 0.0, 5.035408, 4.971117 
7.807217e+2, 1.6884707e+2, -1239244.3, -1335571.3, 3488.7346, -0.004634678, -0.0035773085, -1239118.1, 46178.625, 0.0, 5.0340743, 4.971113 
7.806335e+2, 1.738176e+2, -1194206.3, -1288516.6, 3543.365, -0.004256099, -0.0038807981, -1194073.4, 42510.816, 0.0, 5.0327306, 4.9711094 
7.805452e+2, 1.7878813e+2, -1150529.3, -1244364.3, 3413.2056, -0.0039791833, -0.0034920082, -1150405.3, 37466.51, 0.0, 5.031379, 4.970125 
7.804565e+2, 1.8375565e+2, -1112042.4, -1211313.0, 3891.2432, -0.00450069, 0.0046100956, -1111890.1, 27301.764, 0.0, 5.030044, 4.965342 
7.803681e+2, 1.8872036e+2, -1066695.0, -1164042.1, 3906.3337, -0.0055033113, 0.004110423, -1066538.5, 24001.92, 0.0, 5.0287657, 4.9653387 
7.802797e+2, 1.9368508e+2, -1021340.8, -1116755.1, 3917.479, -0.0065079955, 0.0035967021, -1021180.25, 20708.857, 0.0, 5.027482, 4.965335 
7.8019136e+2, 1.9864982e+2, -976751.56, -1071152.3, 3713.0293, -0.007492252, 0.0034228743, -976605.7, 16631.785, 0.0, 5.0261965, 4.9647536 
7.8010243e+2, 2.03612e+2, -937153.7, -1036185.75, 3447.86, -0.006427045, 0.0073436466, -937033.75, 7573.585, 0.0, 5.0248814, 4.960523 
7.8001344e+2, 2.085714e+2, -891752.2, -988809.2, 3382.122, -0.0043835826, 0.0015167842, -891634.44, 4368.413, 0.0, 5.023575, 4.9605207 
7.7992445e+2, 2.1353081e+2, -846342.3, -941412.4, 3316.564, -0.0023605383, -0.0042510405, -846226.75, 1171.5836, 0.0, 5.0222626, 4.9605207 
7.7983546e+2, 2.1849024e+2, -801681.2, -895647.7, 3266.0298, -0.00041229188, -0.009571583, -801567.8, -2774.1858, 0.0, 5.020943, 4.959954 
7.797459e+2, 2.234475e+2, -763430.6, -863729.4, 2816.1594, 0.00000855233, -0.0007750013, -763351.6, -13138.287, 0.0, 5.01958, 4.954616 
7.7965564e+2, 2.2840206e+2, -718008.2, -815968.75, 2783.4436, -0.00017068729, 0.0029239738, -717929.2, -16268.379, 0.0, 5.01817, 4.9547424 
7.795655e+2, 2.3335664e+2, -672745.9, -768569.3, 2782.044, -0.00035423564, 0.0065695937, -672665.2, -19556.799, 0.0, 5.016756, 4.9547377 
7.7947533e+2, 2.3831119e+2, -628128.44, -722607.06, 2818.6692, -0.0005682954, 0.010201799, -628044.44, -23488.283, 0.0, 5.0153384, 4.9542265 
7.79385e+2, 2.4326265e+2, -589068.75, -689081.6, 2318.1177, 0.00012552866, 0.016288372, -589015.06, -32983.13, 0.0, 5.013937, 4.9493523 
7.792938e+2, 2.4821101e+2, -543285.8, -640667.8, 1992.9817, 0.00075613515, 0.008147432, -543245.06, -35708.117, 0.0, 5.0125227, 4.949657 
7.792025e+2, 2.5315937e+2, -497891.84, -593116.06, 1882.2544, 0.001336818, -0.0002265705, -497854.66, -38812.547, 0.0, 5.011104, 4.949655 
7.791113e+2, 2.581077e+2, -452708.56, -546065.75, 1811.4779, 0.0019071369, -0.008499386, -452673.44, -42126.29, 0.0, 5.009684, 4.949469 
7.7902e+2, 2.6305416e+2, -414748.47, -515333.2, 1641.9392, 0.0020214627, 0.0027611968, -414721.7, -52650.95, 0.0, 5.0082574, 4.9435296 
7.7892786e+2, 2.679987e+2, -367883.28, -464266.94, 1371.448, 0.0017988727, 0.0052083395, -367863.75, -54250.227, 0.0, 5.00677, 4.9447393 
7.7883565e+2, 2.7294317e+2, -322579.63, -416664.78, 1450.3043, 0.0015269236, 0.006598957, -322557.28, -57400.42, 0.0, 5.0052676, 4.9447384 
7.7874345e+2, 2.7788764e+2, -277421.84, -369392.7, 1488.5607, 0.0012135572, 0.008017676, -277397.75, -60697.516, 0.0, 5.0037575, 4.9446144 
7.7865016e+2, 2.8282762e+2, -241172.72, -342696.38, -71.97497, 0.0013431397, 0.0112651605, -241172.67, -72883.055, 0.0, 5.002242, 4.937201 
7.7855515e+2, 2.8776458e+2, -193960.0, -290329.9, -432.4054, 0.001579921, -0.0031900764, -193958.06, -74048.44, 0.0, 5.0006304, 4.9388814 
7.7846026e+2, 2.9270157e+2, -148967.06, -242745.83, -507.0817, 0.0018071122, -0.018406795, -148964.33, -77434.71, 0.0, 4.9989557, 4.9388876 
7.783653e+2, 2.9763854e+2, -104304.17, -195675.17, -555.8616, 0.0020080493, -0.033468623, -104300.79, -81151.42, 0.0, 4.9972243, 4.938724 
7.782743e+2, 3.0259293e+2, -49841.215, -95597.58, 3675.2192, 0.0016056004, -0.0004901075, -49547.895, -49547.895, 0.0, 4.995994, 4.966487 
7.7818763e+2, 3.0756515e+2, -48771.39, -89805.27, 2822.3608, 0.00095471623, 0.037884027, -48578.176, -48578.176, 0.0, 4.9953456, 4.9688725 
7.781009e+2, 3.125373e+2, -50387.598, -90490.414, 2001.376, 0.00023313059, 0.07346532, -50287.965, -50287.965, 0.0, 4.994736, 4.968888 
7.780141e+2, 3.1751022e+2, -53364.62, -94596.91, 1287.3218, -0.0009892255, 0.11631648, -53324.47, -53324.47, 0.0, 4.994172, 4.96764 
7.865702e+2, 1.24158844e+2, -1625013.3, -1728714.3, 4172.8423, 0.018566603, -0.015258951, -1624845.6, 98384.8, 0.0, 5.0480585, 4.979913 
7.8647846e+2, 1.2913817e+2, -1581400.8, -1682531.0, 4429.6035, 0.011294868, -0.012822671, -1581207.1, 93228.34, 0.0, 5.046342, 4.9799056 
7.863868e+2, 1.3411748e+2, -1537757.0, -1636317.8, 4683.345, 0.0040775766, -0.010340418, -1537535.0, 88105.6, 0.0, 5.0446253, 4.979898 
7.862951e+2, 1.3909675e+2, -1495852.0, -1593687.3, 5381.1455, -0.0025579652, -0.0067167757, -1495556.9, 81289.14, 0.0, 5.0429068, 4.978683 
7.86205e+2, 1.4407368e+2, -1455927.5, -1556056.8, 6051.694, -0.0033078399, 0.0031953799, -1455563.1, 72510.67, 0.0, 5.041385, 4.9756155 
7.8611493e+2, 1.4904833e+2, -1411161.5, -1509211.1, 6237.373, -0.0036658326, -0.00001864651, -1410766.3, 68557.55, 0.0, 5.040004, 4.9756145 
7.8602487e+2, 1.5402295e+2, -1366369.9, -1462340.8, 6421.8735, -0.00402913, -0.003308671, -1365942.1, 64631.938, 0.0, 5.038622, 4.9756136 
7.8593475e+2, 1.5899763e+2, -1322503.6, -1417435.6, 6622.53, -0.0043979096, -0.0059224996, -1322043.9, 59779.836, 0.0, 5.037241, 4.974946 
7.85845e+2, 1.6397019e+2, -1282669.1, -1381226.1, 7217.627, -0.0039554685, -0.0013123135, -1282143.4, 50948.52, 0.0, 5.0359216, 4.9713016 
7.8575546e+2, 1.6894063e+2, -1237403.0, -1334076.0, 7247.013, -0.0034018483, -0.00310455, -1236862.9, 47517.37, 0.0, 5.0346656, 4.9712977 
7.856658e+2, 1.7391105e+2, -1192113.4, -1286903.1, 7277.165, -0.0028547077, -0.0048732813, -1191558.0, 44110.57, 0.0, 5.033409, 4.9712944 
7.855762e+2, 1.788815e+2, -1148099.0, -1242495.9, 7100.04, -0.002382064, -0.005937682, -1147568.0, 39388.99, 0.0, 5.0321546, 4.9703526 
7.8548634e+2, 1.8384916e+2, -1109490.4, -1209395.4, 7678.337, -0.0028699224, 0.0022797775, -1108903.6, 29371.861, 0.0, 5.0308676, 4.965564 
7.8539664e+2, 1.8881409e+2, -1064073.4, -1162104.5, 7755.0596, -0.0039964523, 0.002758909, -1063463.6, 26158.21, 0.0, 5.0296173, 4.9655576 
7.8530693e+2, 1.9377899e+2, -1018632.94, -1114790.5, 7831.398, -0.005101022, 0.0032190578, -1017999.3, 22969.04, 0.0, 5.0283666, 4.965551 
7.8521734e+2, 1.9874391e+2, -973934.56, -1069142.3, 7675.487, -0.006137504, 0.0039724917, -973319.75, 18994.91, 0.0, 5.0271206, 4.9649706 
7.851271e+2, 2.037061e+2, -934466.7, -1034803.1, 7453.503, -0.005142909, 0.008221923, -933916.06, 9768.955, 0.0, 5.0258813, 4.96049 
7.8503686e+2, 2.0866539e+2, -888826.5, -987316.9, 7303.702, -0.0030861283, 0.0028598355, -888287.8, 6794.6035, 0.0, 5.0246596, 4.9604897 
7.849466e+2, 2.1362469e+2, -843161.6, -939806.7, 7149.5996, -0.0010318729, -0.002537867, -842635.56, 3844.2788, 0.0, 5.0234385, 4.9604897 
7.848564e+2, 2.1858399e+2, -798173.94, -893805.9, 6986.9585, 0.0009793375, -0.0076604676, -797666.2, 210.92433, 0.0, 5.0222163, 4.9599633 
7.847654e+2, 2.2354117e+2, -759588.7, -861411.7, 6442.4766, 0.0015639305, 0.00047065577, -759182.7, -9885.454, 0.0, 5.020908, 4.9547634 
7.846738e+2, 2.2849567e+2, -714102.44, -813675.3, 6406.866, 0.0013300601, 0.0033855129, -713691.9, -12947.383, 0.0, 5.0195355, 4.9548683 
7.8458226e+2, 2.3345017e+2, -668731.9, -766224.75, 6394.712, 0.0010993528, 0.006342071, -668314.2, -16122.377, 0.0, 5.0181637, 4.9548664 
7.844907e+2, 2.3840468e+2, -624001.7, -720224.7, 6421.1836, 0.00083950296, 0.009395657, -623575.06, -19935.87, 0.0, 5.016792, 4.9543514 
7.843989e+2, 2.433561e+2, -585187.7, -687214.1, 5857.7163, 0.0012422766, 0.015691366, -584852.5, -29736.89, 0.0, 5.015383, 4.9493046 
7.843062e+2, 2.4830438e+2, -539556.75, -638879.5, 5473.4346, 0.001387603, 0.008414996, -539256.0, -32634.074, 0.0, 5.01392, 4.949607 
7.842135e+2, 2.5325266e+2, -494299.53, -591384.6, 5288.0107, 0.0015096823, 0.0008458102, -494012.34, -35883.914, 0.0, 5.012454, 4.9496098 
7.841208e+2, 2.582009e+2, -449214.9, -544309.5, 5136.5947, 0.0016554465, -0.0066992347, -448938.28, -39303.477, 0.0, 5.010988, 4.949456 
7.8402793e+2, 2.6314738e+2, -411271.44, -513020.47, 4823.8354, 0.001849868, 0.003966753, -411043.28, -49884.707, 0.0, 5.009449, 4.943761 
7.8393424e+2, 2.6809183e+2, -364859.47, -462217.38, 4481.145, 0.0021929361, 0.004833244, -364653.63, -51952.395, 0.0, 5.0078115, 4.9449496 
7.838406e+2, 2.7303627e+2, -319952.4, -414803.3, 4487.1685, 0.0025856849, 0.004708416, -319740.6, -55496.23, 0.0, 5.006168, 4.9449487 
7.837469e+2, 2.7798072e+2, -275166.38, -367721.25, 4463.6084, 0.0030424914, 0.0046450472, -274951.6, -59164.098, 0.0, 5.004527, 4.944819 
7.8365225e+2, 2.8292093e+2, -237584.33, -339753.25, 3486.6226, 0.0032438827, 0.008077648, -237465.48, -70091.58, 0.0, 5.00337, 4.937699 
7.8355604e+2, 2.8785843e+2, -188327.17, -286577.47, 3537.9805, 0.0029706901, -0.004657777, -188199.94, -69211.336, 0.0, 5.0025187, 4.939345 
7.834599e+2, 2.927959e+2, -141114.23, -238074.83, 3900.8027, 0.0028025869, -0.01831866, -140957.55, -70353.78, 0.0, 5.0016627, 4.9393344 
7.8336364e+2, 2.9773334e+2, -94115.36, -190075.8, 4337.3394, 0.002734489, -0.031951617, -93919.71, -71700.51, 0.0, 5.000804, 4.93914 
7.8327113e+2, 3.026865e+2, -45452.16, -99260.0, 7217.4185, 0.0022393845, 0.0016894782, -44500.883, -44500.883, 0.0, 4.998795, 4.9638996 
7.831827e+2, 3.0765593e+2, -49909.734, -95825.195, 4089.2495, 0.002574149, 0.038853154, -49548.387, -49548.387, 0.0, 4.996107, 4.9663 
7.830943e+2, 3.126254e+2, -57105.445, -98818.45, 899.98, 0.0031872566, 0.07353235, -57086.035, -57086.035, 0.0, 4.9934278, 4.966367 
7.830045e+2, 3.1757656e+2, -77866.09, -133263.5, -1210.0028, -0.010254511, -0.07458072, -77839.68, -77839.68, 0.0, 4.9907312, 4.955065 
7.916168e+2, 1.2425186e+2, -1624409.5, -1727562.9, 2858.557, 0.012011184, -0.021098081, -1624330.4, 97986.74, 0.0, 5.04806, 4.980302 
7.9152364e+2, 1.2923163e+2, -1580796.3, -1681386.6, 3121.1367, 0.0072308173, -0.017887698, -1580699.5, 92818.164, 0.0, 5.046345, 4.9802923 
7.914304e+2, 1.3421139e+2, -1537151.8, -1635180.3, 3380.6963, 0.0024178736, -0.0146359885, -1537035.4, 87683.05, 0.0, 5.04463, 4.980283 
7.9133725e+2, 1.3919114e+2, -1495259.1, -1592587.6, 4114.905, -0.0020204093, -0.0101794265, -1495085.5, 80833.875, 0.0, 5.0429144, 4.9790545 
7.9124564e+2, 1.4416859e+2, -1455478.4, -1555225.8, 5004.865, -0.0022661202, 0.0015358328, -1455227.9, 71914.664, 0.0, 5.0413914, 4.9758954 
7.9115415e+2, 1.4914368e+2, -1410712.6, -1508383.5, 5192.393, -0.0027411, 0.00019483564, -1410437.4, 67951.1, 0.0, 5.0400105, 4.975894 
7.910628e+2, 1.5411878e+2, -1365921.3, -1461516.6, 5378.7397, -0.0032256208, -0.0012259387, -1365619.6, 64014.863, 0.0, 5.03863, 4.975892 
7.909713e+2, 1.5909387e+2, -1322056.3, -1416611.8, 5577.406, -0.0036797493, -0.002254808, -1321728.4, 59151.79, 0.0, 5.0372486, 4.975225 
7.908802e+2, 1.640665e+2, -1282520.3, -1380991.3, 6265.4556, -0.0030500828, 0.0011042242, -1282123.3, 50024.79, 0.0, 5.035925, 4.971386 
7.9078937e+2, 1.6903685e+2, -1237256.1, -1333840.5, 6297.434, -0.0023380248, -0.0023256193, -1236847.3, 46590.164, 0.0, 5.0346684, 4.971383 
7.906985e+2, 1.740072e+2, -1191968.3, -1286667.1, 6330.177, -0.0016528236, -0.0057290345, -1191547.0, 43179.77, 0.0, 5.033412, 4.97138 
7.9060775e+2, 1.7897756e+2, -1147889.6, -1242121.8, 6127.154, -0.001065555, -0.008308313, -1147492.9, 38523.094, 0.0, 5.032157, 4.9704847 
7.905165e+2, 1.8394539e+2, -1109286.3, -1209028.5, 6732.4614, -0.0014895617, 0.00010225811, -1108833.9, 28498.844, 0.0, 5.0308695, 4.965693 
7.904256e+2, 1.8891054e+2, -1063871.0, -1161740.4, 6811.2236, -0.0026040217, 0.0015047587, -1063399.3, 25277.145, 0.0, 5.0296187, 4.9656863 
7.9033464e+2, 1.9387567e+2, -1018432.44, -1114429.3, 6889.6016, -0.0037198118, 0.0028971133, -1017940.5, 22079.813, 0.0, 5.0283685, 4.9656796 
7.9024374e+2, 1.988408e+2, -973753.25, -1068827.3, 6719.393, -0.004777055, 0.004559555, -973280.7, 18083.477, 0.0, 5.027123, 4.965084 
7.901523e+2, 2.0380297e+2, -934661.9, -1035302.4, 6528.4985, -0.003940943, 0.009180845, -934240.1, 8494.897, 0.0, 5.0258846, 4.9603257 
7.900608e+2, 2.0876215e+2, -889019.9, -987814.44, 6379.32, -0.0019268593, 0.0044484376, -888609.7, 5524.8477, 0.0, 5.024663, 4.9603252 
7.899694e+2, 2.1372135e+2, -843354.44, -940304.6, 6228.033, 0.00006641712, -0.00031066276, -842955.94, 2578.034, 0.0, 5.0234413, 4.960325 
7.898779e+2, 2.1868055e+2, -798278.8, -894113.6, 6065.9453, 0.002007673, -0.004860237, -797896.4, -963.08154, 0.0, 5.0222197, 4.959863 
7.897856e+2, 2.2363766e+2, -759529.3, -861378.4, 5375.855, 0.0028262069, 0.0027003824, -759246.4, -10892.61, 0.0, 5.0209126, 4.9547806 
7.896927e+2, 2.2859202e+2, -714045.9, -813643.9, 5367.9985, 0.002637295, 0.0042124037, -713757.4, -13956.128, 0.0, 5.01954, 4.954885 
7.895997e+2, 2.3354642e+2, -668676.4, -766194.6, 5357.968, 0.0024404502, 0.0057781935, -668382.9, -17134.12, 0.0, 5.0181675, 4.9548826 
7.8950685e+2, 2.3850079e+2, -623954.7, -720213.2, 5388.601, 0.0021937597, 0.0074813697, -623654.0, -20957.703, 0.0, 5.0167956, 4.9543614 
7.894135e+2, 2.4345213e+2, -585375.4, -687761.3, 4730.2236, 0.0023032662, 0.013917728, -585157.3, -30983.787, 0.0, 5.0153913, 4.9491205 
7.893193e+2, 2.4840038e+2, -539744.2, -639429.25, 4359.466, 0.0019653286, 0.008139655, -539553.9, -33872.984, 0.0, 5.0139284, 4.9494214 
7.892251e+2, 2.533486e+2, -494485.13, -591933.7, 4175.29, 0.0015939426, 0.0020959089, -494306.56, -37118.113, 0.0, 5.0124626, 4.9494243 
7.8913087e+2, 2.5829685e+2, -449350.28, -544747.3, 4023.0642, 0.0012398897, -0.0039376146, -449180.94, -40485.094, 0.0, 5.010997, 4.9493093 
7.890365e+2, 2.632432e+2, -411092.03, -512763.72, 3573.4268, 0.0015239122, 0.005867066, -410966.56, -50746.254, 0.0, 5.0094585, 4.9438567 
7.889412e+2, 2.681875e+2, -364715.16, -462041.44, 3235.5095, 0.0024510655, 0.004357111, -364607.72, -52843.617, 0.0, 5.0078216, 4.9450183 
7.8884596e+2, 2.731318e+2, -319809.84, -414631.66, 3244.3232, 0.0033883126, 0.0019039158, -319698.97, -56390.637, 0.0, 5.006178, 4.9450164 
7.887506e+2, 2.7807605e+2, -274989.25, -367480.7, 3278.755, 0.004339306, -0.00045929325, -274873.16, -60020.582, 0.0, 5.0045395, 4.9449105 
7.886548e+2, 2.830167e+2, -236735.77, -338122.4, 2832.9292, 0.0045518717, 0.003854551, -236656.67, -70222.57, 0.0, 5.003406, 4.9382734 
7.8855777e+2, 2.8795514e+2, -187510.67, -285019.63, 2897.9712, 0.004169671, -0.005288804, -187424.63, -69385.516, 0.0, 5.0025554, 4.9398956 
7.884607e+2, 2.928935e+2, -140301.44, -236518.66, 3264.9077, 0.0038570839, -0.015332216, -140190.77, -70546.16, 0.0, 5.0017, 4.939886 
7.883636e+2, 2.9783183e+2, -93462.45, -188867.16, 3621.3098, 0.0035933792, -0.025310965, -93325.195, -72074.86, 0.0, 5.000838, 4.93957 
7.8826916e+2, 3.027829e+2, -49996.582, -110119.97, 5068.0205, 0.0027860457, 0.005025744, -49572.37, -49572.37, 0.0, 4.9988112, 4.959976 
7.88178e+2, 3.077473e+2, -54445.027, -106677.52, 1984.6544, 0.0036172937, 0.031922888, -54369.727, -54369.727, 0.0, 4.9961286, 4.9623756 
7.88087e+2, 3.1271183e+2, -61645.633, -109665.086, -1178.5065, 0.00466409, 0.056437798, -61616.727, -61616.727, 0.0, 4.9934497, 4.962447 
7.8799367e+2, 3.1761336e+2, 9704.771, 70662.6, -1450.023, -0.01957518, -0.56525743, 70697.07, 70697.07, 0.0, 4.990638, 5.0303316 
7.966634e+2, 1.24344885e+2, -1623806.6, -1726411.6, 1547.0125, 0.0056315656, -0.02658558, -1623783.4, 97620.27, 0.0, 5.048062, 4.980689 
7.9656875e+2, 1.2932512e+2, -1580192.6, -1680242.4, 1815.4105, 0.0033423835, -0.022704626, -1580159.6, 92440.04, 0.0, 5.0463486, 4.980678 
7.96474e+2, 1.3430534e+2, -1536547.4, -1634043.0, 2080.788, 0.00093357736, -0.018786877, -1536503.0, 87293.02, 0.0, 5.0446353, 4.980667 
7.963794e+2, 1.3928552e+2, -1494682.4, -1591521.6, 2855.7056, -0.0013576307, -0.013548407, -1494598.1, 80394.35, 0.0, 5.0429225, 4.9794145 
7.9628634e+2, 1.4426348e+2, -1455029.1, -1554395.3, 3958.6797, -0.0012382079, 0.000037471367, -1454871.6, 71339.46, 0.0, 5.041398, 4.9761744 
7.961935e+2, 1.4923906e+2, -1410263.6, -1507556.5, 4148.056, -0.0018327752, 0.00051264395, -1410087.0, 67365.77, 0.0, 5.040018, 4.976172 
7.9610056e+2, 1.5421462e+2, -1365472.5, -1460693.0, 4336.2495, -0.0024411157, 0.00090431597, -1365275.5, 63419.227, 0.0, 5.038638, 4.97617 
7.9600775e+2, 1.5919015e+2, -1321642.1, -1415858.3, 4529.2954, -0.002973236, 0.00141263, -1321424.9, 58511.707, 0.0, 5.0372567, 4.9754806 
7.9591537e+2, 1.6416281e+2, -1282371.6, -1380756.6, 5312.446, -0.0021280658, 0.0035713078, -1282085.6, 49118.566, 0.0, 5.0359287, 4.9714704 
7.958233e+2, 1.6913307e+2, -1237109.3, -1333605.3, 5347.016, -0.0012603312, -0.0015585936, -1236813.9, 45680.7, 0.0, 5.034672, 4.971468 
7.9573125e+2, 1.7410333e+2, -1191823.3, -1286431.3, 5382.3496, -0.000439834, -0.0066590863, -1191518.0, 42266.953, 0.0, 5.0334144, 4.971465 
7.9563916e+2, 1.7907363e+2, -1147686.1, -1241761.1, 5153.7026, 0.00024643642, -0.010740876, -1147404.6, 37670.285, 0.0, 5.03216, 4.9706125 
7.955467e+2, 1.8404162e+2, -1109082.3, -1208661.9, 5787.215, -0.00012284606, -0.001968661, -1108747.0, 27642.678, 0.0, 5.0308714, 4.965822 
7.954545e+2, 1.89007e+2, -1063668.9, -1161376.6, 5868.016, -0.0012181102, 0.0003113257, -1063317.8, 24413.162, 0.0, 5.0296206, 4.965815 
7.9536235e+2, 1.9397235e+2, -1018232.06, -1114068.3, 5948.433, -0.002338006, 0.002590045, -1017864.25, 21207.906, 0.0, 5.0283704, 4.965808 
7.952702e+2, 1.989377e+2, -973605.2, -1068585.3, 5766.7676, -0.0034225546, 0.0051542544, -973256.4, 17157.178, 0.0, 5.027126, 4.965172 
7.951774e+2, 2.0389988e+2, -934856.0, -1035800.0, 5603.0615, -0.0027308336, 0.010275399, -934545.94, 7239.0474, 0.0, 5.0258884, 4.9601607 
7.950847e+2, 2.0885895e+2, -889213.3, -988312.4, 5455.4316, -0.00074465404, 0.006097972, -888913.94, 4272.7056, 0.0, 5.0246663, 4.96016 
7.949921e+2, 2.1381801e+2, -843547.25, -940803.0, 5306.9604, 0.0012024301, 0.0019028393, -843258.5, 1329.6648, 0.0, 5.023445, 4.9601593 
7.9489934e+2, 2.187771e+2, -798413.9, -894491.5, 5121.335, 0.0030780733, -0.002108459, -798141.7, -2152.1384, 0.0, 5.0222235, 4.9597387 
7.9480577e+2, 2.2373413e+2, -759452.0, -861303.94, 4331.7036, 0.0040706536, 0.0049986015, -759268.1, -11857.9, 0.0, 5.0209174, 4.954811 
7.947115e+2, 2.2868839e+2, -713989.06, -813612.94, 4329.4556, 0.0039302045, 0.005042961, -713801.25, -14943.358, 0.0, 5.019544, 4.9549007 
7.946172e+2, 2.3364265e+2, -668620.6, -766165.06, 4321.5483, 0.003771422, 0.0051553356, -668429.56, -18123.967, 0.0, 5.018172, 4.9548984 
7.945229e+2, 2.385969e+2, -623941.7, -720278.9, 4352.641, 0.0035343522, 0.0054786503, -623745.44, -21992.139, 0.0, 5.0168, 4.9543443 
7.944281e+2, 2.4354817e+2, -585550.56, -688281.6, 3608.713, 0.003353347, 0.012271219, -585423.94, -32192.578, 0.0, 5.0154, 4.9489455 
7.943324e+2, 2.4849638e+2, -539931.3, -639979.5, 3246.077, 0.0025367283, 0.007963076, -539826.1, -35086.273, 0.0, 5.013937, 4.949236 
7.9423666e+2, 2.5344458e+2, -494670.44, -592483.2, 3063.1494, 0.001674108, 0.0034108208, -494574.6, -38326.156, 0.0, 5.0124717, 4.9492383 
7.9414093e+2, 2.5839275e+2, -449471.25, -545153.9, 2905.7502, 0.00082365994, -0.0011548146, -449383.1, -41626.266, 0.0, 5.011006, 4.949173 
7.94045e+2, 2.6333904e+2, -410922.44, -512529.1, 2326.8176, 0.0012118802, 0.00770056, -410869.16, -51587.11, 0.0, 5.0094686, 4.9439445 
7.939481e+2, 2.6828316e+2, -364571.06, -461865.7, 1990.9475, 0.002746106, 0.0037733095, -364530.3, -53703.37, 0.0, 5.0078316, 4.945086 
7.9385126e+2, 2.7322727e+2, -319667.47, -414460.16, 2002.5507, 0.0042479816, -0.0010516745, -319625.16, -57252.87, 0.0, 5.0061884, 4.945083 
7.937544e+2, 2.7817136e+2, -274802.9, -367221.13, 2121.0815, 0.005690194, -0.005735765, -274754.25, -60836.586, 0.0, 5.0045524, 4.9450083 
7.9365736e+2, 2.8311253e+2, -235889.67, -336495.38, 2185.3645, 0.005755342, -0.00033188303, -235842.22, -70348.23, 0.0, 5.003442, 4.938846 
7.9355943e+2, 2.8805184e+2, -186694.92, -283461.44, 2256.9387, 0.0052105114, -0.0059679397, -186642.3, -69552.945, 0.0, 5.0025926, 4.9404454 
7.9346156e+2, 2.9299113e+2, -139489.34, -234962.17, 2627.989, 0.00470239, -0.012483184, -139417.06, -70731.86, 0.0, 5.0017376, 4.9404373 
7.933635e+2, 2.979304e+2, -93122.836, -188380.73, 2823.2239, 0.0042116297, -0.018841961, -93039.234, -72757.914, 0.0, 5.000871, 4.939741 
7.9326713e+2, 3.028791e+2, -54541.35, -120985.54, 2951.1616, 0.0035445543, 0.008172067, -54410.53, -54410.53, 0.0, 4.998829, 4.956056 
7.931734e+2, 3.078385e+2, -58987.043, -117546.91, -123.50377, 0.0048042517, 0.024110503, -58986.78, -58986.78, 0.0, 4.9961514, 4.9584503 
7.930798e+2, 3.12798e+2, -66192.55, -120528.72, -3260.485, 0.006194341, 0.0377218, -65997.59, -65997.59, 0.0, 4.993473, 4.9585266 
7.9298437e+2, 3.1773004e+2, 16844.184, 87909.68, -6470.9014, -0.011100462, -0.25846145, 88494.086, 88494.086, 0.0, 4.990484, 5.0369368 
8.017098e+2, 1.2443868e+2, -1626380.8, -1726801.0, 1225.7886, 0.00026136113, -0.027521072, -1626365.8, 94119.08, 0.0, 5.0469975, 4.9810863 
8.016136e+2, 1.2941925e+2, -1582114.8, -1680307.1, 1470.3552, 0.00015674796, -0.024023756, -1582092.8, 89584.47, 0.0, 5.045501, 4.9810753 
8.0151755e+2, 1.3439982e+2, -1537887.1, -1633819.0, 1714.6757, -0.00012641169, -0.020440634, -1537856.5, 85013.266, 0.0, 5.043982, 4.9810643 
8.0142146e+2, 1.3938035e+2, -1495577.6, -1591112.6, 2504.387, -0.00057322526, -0.015348, -1495512.0, 78550.42, 0.0, 5.0424285, 4.979794 
8.0132693e+2, 1.4435874e+2, -1455857.3, -1554084.8, 3833.5962, -0.00026267386, -0.0008115354, -1455707.9, 69569.04, 0.0, 5.0409627, 4.9764876 
8.012327e+2, 1.4933468e+2, -1410952.5, -1507191.1, 4048.033, -0.0009127385, 0.0005749958, -1410782.6, 65732.27, 0.0, 5.039631, 4.976481 
8.011384e+2, 1.5431064e+2, -1366034.8, -1460278.0, 4256.418, -0.0015614429, 0.0019435432, -1365842.9, 61910.094, 0.0, 5.038295, 4.976475 
8.0104417e+2, 1.5928654e+2, -1322150.9, -1415522.3, 4457.4585, -0.0020789388, 0.0033293471, -1321938.6, 57052.883, 0.0, 5.036955, 4.9757404 
8.009505e+2, 1.6425928e+2, -1282986.0, -1380856.5, 5323.3906, -0.0010830407, 0.0049092015, -1282697.4, 47561.18, 0.0, 5.0356755, 4.9715595 
8.008572e+2, 1.692295e+2, -1237570.8, -1333627.5, 5319.0938, -0.00017939157, -0.0011189707, -1237277.1, 44272.44, 0.0, 5.03447, 4.971558 
8.007639e+2, 1.7419973e+2, -1192140.0, -1286380.0, 5316.3374, 0.00068679644, -0.0071972325, -1191841.0, 40999.523, 0.0, 5.0332623, 4.9715567 
8.0067056e+2, 1.7917003e+2, -1147808.3, -1241524.4, 5026.4946, 0.001412769, -0.012144102, -1147539.5, 36591.563, 0.0, 5.0320554, 4.970744 
8.0057687e+2, 1.8413816e+2, -1109044.4, -1208367.1, 5649.7715, 0.0011889118, -0.0030921907, -1108724.0, 26719.955, 0.0, 5.030825, 4.9659457 
8.0048347e+2, 1.8910368e+2, -1063474.5, -1161007.3, 5680.0327, 0.00024048703, -0.0003740058, -1063144.9, 23638.322, 0.0, 5.029628, 4.965939 
8.0039006e+2, 1.9406919e+2, -1017901.4, -1113634.1, 5711.68, -0.0007478586, 0.0023771534, -1017561.8, 20560.67, 0.0, 5.0284247, 4.9659324 
8.002966e+2, 1.990347e+2, -973234.1, -1068251.3, 5474.402, -0.0017350453, 0.0054914844, -972919.75, 16542.143, 0.0, 5.027219, 4.9652452 
8.002026e+2, 2.0399685e+2, -934767.5, -1036097.44, 5335.891, -0.0012415178, 0.011136209, -934487.3, 6346.788, 0.0, 5.0259867, 4.9600153 
8.0010873e+2, 2.0895582e+2, -889129.56, -988615.6, 5198.231, 0.00058109575, 0.0075034793, -888858.7, 3378.973, 0.0, 5.024763, 4.9600134 
8.000148e+2, 2.139148e+2, -843486.2, -941119.1, 5060.709, 0.0023983347, 0.0038385503, -843224.56, 416.6529, 0.0, 5.023534, 4.9600115 
7.9992086e+2, 2.1887377e+2, -798338.56, -894717.8, 4862.8013, 0.0041608512, 0.000365798, -798093.8, -3049.3699, 0.0, 5.0223007, 4.9596276 
7.998259e+2, 2.2383073e+2, -759134.9, -861178.5, 3912.3364, 0.0052441745, 0.0072226436, -758985.06, -12519.639, 0.0, 5.0210276, 4.954807 
7.997303e+2, 2.2878483e+2, -713533.94, -813421.94, 3800.299, 0.0051336554, 0.0058756135, -713389.56, -15475.883, 0.0, 5.019702, 4.9548984 
7.996346e+2, 2.3373894e+2, -668050.4, -765918.1, 3686.725, 0.005018463, 0.0045728995, -667911.7, -18549.813, 0.0, 5.018369, 4.954898 
7.9953897e+2, 2.3869306e+2, -623325.3, -720087.44, 3616.2288, 0.0048118723, 0.0035443816, -623190.3, -22380.229, 0.0, 5.017029, 4.9543114 
7.9944277e+2, 2.4364424e+2, -585082.06, -688492.75, 2775.4973, 0.0043945275, 0.010772783, -585007.6, -32718.527, 0.0, 5.015641, 4.9487696 
7.993455e+2, 2.485924e+2, -539478.9, -640202.8, 2414.1096, 0.003145384, 0.0077917776, -539421.06, -35622.367, 0.0, 5.0141735, 4.949058 
7.992482e+2, 2.5354055e+2, -494255.8, -592724.5, 2234.081, 0.0018527596, 0.0046183276, -494205.16, -38896.824, 0.0, 5.012695, 4.9490604 
7.99151e+2, 2.584887e+2, -449054.06, -545283.25, 2067.6934, 0.000578415, 0.0014313373, -449009.66, -42191.918, 0.0, 5.0112076, 4.949044 
7.9905355e+2, 2.634349e+2, -410214.9, -512093.28, 1270.2039, 0.0010518075, 0.009424565, -410199.1, -51855.332, 0.0, 5.009687, 4.944006 
7.989551e+2, 2.6837885e+2, -363778.4, -461425.34, 789.1704, 0.0031249716, 0.0032658735, -363772.03, -53882.176, 0.0, 5.008088, 4.9451337 
7.988566e+2, 2.7332276e+2, -318791.3, -413974.94, 688.36554, 0.0051592193, -0.0038176302, -318786.34, -57349.95, 0.0, 5.006475, 4.9451337 
7.9875815e+2, 2.782667e+2, -273817.3, -366591.2, 829.0352, 0.007062176, -0.01074923, -273809.88, -60827.023, 0.0, 5.0048614, 4.9451013 
7.9866e+2, 2.8320828e+2, -234459.39, -334663.66, 1210.6703, 0.0068317633, -0.0043328004, -234444.77, -69890.58, 0.0, 5.003712, 4.939382 
7.9856116e+2, 2.8814846e+2, -185528.86, -281779.44, 1081.9039, 0.006073132, -0.006871616, -185516.7, -69376.25, 0.0, 5.0027757, 4.940969 
7.9846233e+2, 2.9308861e+2, -138536.6, -233359.84, 1307.5753, 0.0053256, -0.010137418, -138518.58, -70791.62, 0.0, 5.001842, 4.940968 
7.9836345e+2, 2.9802877e+2, -93098.555, -188566.8, 1188.2654, 0.0046093534, -0.012974116, -93083.766, -73770.08, 0.0, 5.000906, 4.9396644 
7.9826516e+2, 3.02975e+2, -58789.188, -131529.84, 677.1075, 0.0045226975, 0.010904179, -58782.887, -58782.887, 0.0, 4.9989314, 4.952215 
7.9816884e+2, 3.0792958e+2, -62976.555, -128011.99, -1581.0275, 0.0061805556, 0.015687106, -62938.145, -62938.145, 0.0, 4.9963584, 4.954591 
7.980725e+2, 3.1288415e+2, -70132.85, -131004.64, -4097.2246, 0.007879511, 0.018144906, -69858.31, -69858.31, 0.0, 4.9937077, 4.9546533 
7.97974e+2, 3.1785962e+2, -41902.086, -50488.797, -6955.658, -0.014684012, 0.22793348, -38021.453, -38021.453, 0.0, 4.990822, 4.9851966 
8.067551e+2, 1.24537095e+2, -1625729.5, -1725088.4, 4233.4404, -0.0045446013, -0.021330046, -1625549.4, 93975.38, 0.0, 5.046979, 4.9816284 
8.0665773e+2, 1.2951794e+2, -1581546.0, -1678625.0, 4561.0474, -0.002467614, -0.019320562, -1581332.3, 89381.3, 0.0, 5.0454583, 4.98162 
8.065603e+2, 1.3449878e+2, -1537334.6, -1632135.1, 4887.017, -0.0007450515, -0.017294595, -1537083.3, 84819.18, 0.0, 5.043937, 4.981611 
8.064628e+2, 1.3947958e+2, -1494959.5, -1589338.8, 5752.7026, 0.00036379465, -0.013812267, -1494610.1, 78481.49, 0.0, 5.0423994, 4.980362 
8.0636686e+2, 1.4445822e+2, -1455261.1, -1552471.4, 7362.8545, 0.00065108656, -0.0007911188, -1454706.6, 69595.94, 0.0, 5.040974, 4.976977 
8.0627143e+2, 1.4943443e+2, -1410125.6, -1505466.8, 7644.9546, 0.00010745253, -0.0006000838, -1409516.5, 66020.77, 0.0, 5.0397234, 4.9769697 
8.061759e+2, 1.5441063e+2, -1364966.4, -1458439.5, 7926.712, -0.00042791144, -0.00037886365, -1364299.0, 62473.086, 0.0, 5.0384727, 4.9769626 
8.060804e+2, 1.5938678e+2, -1320915.9, -1413743.8, 8212.636, -0.0008261205, 0.000049145005, -1320194.9, 57812.45, 0.0, 5.037222, 4.9761662 
8.0598545e+2, 1.6435978e+2, -1281818.8, -1379721.4, 9236.521, 0.00003073911, 0.0025918935, -1280954.9, 48317.68, 0.0, 5.0360556, 4.971713 
8.0589104e+2, 1.693302e+2, -1236059.5, -1332322.5, 9245.977, 0.00065282517, -0.001706783, -1235179.4, 45383.22, 0.0, 5.0349703, 4.9717135 
8.057966e+2, 1.7430063e+2, -1190279.4, -1284904.1, 9255.852, 0.0012613655, -0.0060233795, -1189382.5, 42470.11, 0.0, 5.0338845, 4.9717135 
8.0570215e+2, 1.7927112e+2, -1145502.1, -1239682.8, 8966.654, 0.0018192572, -0.009326452, -1144656.1, 38485.94, 0.0, 5.0328016, 4.9709682 
8.056073e+2, 1.8423928e+2, -1106425.3, -1206453.4, 9638.494, 0.0021576383, -0.0010048576, -1105505.0, 28949.441, 0.0, 5.0316973, 4.9661355 
8.0551285e+2, 1.8920472e+2, -1060529.0, -1158944.1, 9679.071, 0.0019518547, 0.00039609123, -1059586.0, 26207.607, 0.0, 5.0306168, 4.9661283 
8.054184e+2, 1.9417016e+2, -1014612.1, -1111414.8, 9720.122, 0.0017135072, 0.0018777987, -1013645.8, 23487.146, 0.0, 5.029536, 4.966121 
8.053239e+2, 1.991356e+2, -969612.1, -1065918.8, 9465.401, 0.0014424562, 0.0038084225, -968690.7, 19781.672, 0.0, 5.028457, 4.965417 
8.0522865e+2, 2.0409776e+2, -931135.56, -1034170.94, 9357.403, 0.0015728042, 0.009841834, -930292.6, 9552.16, 0.0, 5.0273128, 4.9600086 
8.0513346e+2, 2.090567e+2, -885298.3, -986602.0, 9236.945, 0.0024476955, 0.0072518503, -884462.94, 6786.029, 0.0, 5.0261626, 4.9600067 
8.050383e+2, 2.1401562e+2, -839439.25, -939011.9, 9115.93, 0.003404774, 0.00464361, -838611.56, 4041.638, 0.0, 5.025013, 4.9600053 
8.0494314e+2, 2.1897458e+2, -794051.7, -892497.2, 8949.718, 0.0044197734, 0.0022291671, -793244.7, 812.38007, 0.0, 5.0238657, 4.9596252 
8.0484694e+2, 2.2393134e+2, -754685.5, -859144.9, 7866.358, 0.0053117448, 0.008802366, -754096.44, -8616.339, 0.0, 5.022695, 4.954698 
8.0475e+2, 2.288851e+2, -708816.56, -811279.4, 7663.992, 0.0052738814, 0.0065940884, -708246.44, -11314.979, 0.0, 5.02147, 4.954786 
8.0465305e+2, 2.338389e+2, -663032.75, -763638.25, 7425.861, 0.0052632745, 0.0044208756, -662487.6, -14104.906, 0.0, 5.020246, 4.9547887 
8.0455613e+2, 2.3879269e+2, -617957.2, -717586.25, 7236.9844, 0.0052177683, 0.0024639738, -617434.2, -17600.287, 0.0, 5.01902, 4.9542327 
8.0445856e+2, 2.4374366e+2, -579582.5, -685936.44, 6183.1016, 0.0050016395, 0.009165824, -579224.25, -27909.146, 0.0, 5.017681, 4.94869 
8.0435985e+2, 2.4869162e+2, -534062.94, -637728.5, 5796.835, 0.0040561655, 0.0065031373, -533739.75, -30913.5, 0.0, 5.0161953, 4.948965 
8.0426115e+2, 2.536396e+2, -488881.44, -590282.75, 5568.4106, 0.0031399045, 0.003739592, -488576.56, -34239.07, 0.0, 5.0147066, 4.948967 
8.0416256e+2, 2.585876e+2, -443717.2, -542920.1, 5351.7993, 0.0023036276, 0.0010606257, -443429.3, -37580.934, 0.0, 5.0132194, 4.9489293 
8.040635e+2, 2.6353353e+2, -405050.53, -510351.78, 4216.096, 0.0026512293, 0.0104319975, -404882.0, -47505.355, 0.0, 5.011742, 4.943657 
8.039634e+2, 2.6847723e+2, -358469.75, -459630.84, 3278.549, 0.0041473596, 0.0058379527, -358363.6, -49437.58, 0.0, 5.0102005, 4.944783 
8.0386335e+2, 2.7342087e+2, -313292.2, -412072.13, 2691.9124, 0.0056954785, 0.00015924864, -313218.9, -52743.203, 0.0, 5.008653, 4.9447975 
8.0376333e+2, 2.783645e+2, -268108.9, -364548.56, 2406.579, 0.0071777673, -0.0056743077, -268048.88, -56023.613, 0.0, 5.0071077, 4.94479 
8.036638e+2, 2.833053e+2, -229423.75, -333310.13, 2175.1829, 0.0066555636, -0.0029682945, -229378.23, -65773.75, 0.0, 5.005795, 4.938903 
8.035639e+2, 2.8824443e+2, -181287.92, -280782.0, 905.29016, 0.0057747955, -0.010877775, -181279.67, -66078.89, 0.0, 5.0045743, 4.940493 
8.0346394e+2, 2.9318362e+2, -135077.58, -232658.45, -70.14826, 0.004887338, -0.018995743, -135077.53, -68281.234, 0.0, 5.0033484, 4.9405184 
8.033639e+2, 2.9812288e+2, -90477.1, -188324.39, -1478.985, 0.004060165, -0.0260084, -90454.76, -72063.79, 0.0, 5.002124, 4.939179 
8.0326384e+2, 3.0307016e+2, -54054.227, -127681.49, -472.68802, 0.0043835044, 0.006695465, -54051.19, -54051.19, 0.0, 5.0004153, 4.9529147 
8.031653e+2, 3.08027e+2, -56511.29, -123712.97, 1908.0847, 0.006624166, 0.02830248, -56457.156, -56457.156, 0.0, 4.9985347, 4.9551578 
8.0306685e+2, 3.1298363e+2, -61683.97, -126161.125, 4234.69, 0.009079605, 0.04793308, -61407.035, -61407.035, 0.0, 4.996663, 4.9550843 
8.029693e+2, 3.1791005e+2, 1891.5872, 32876.67, 6255.807, 0.01635043, -0.24903014, 34092.03, 34092.03, 0.0, 4.994519, 5.0144534 
8.1180066e+2, 1.24637954e+2, -1624943.4, -1723608.4, 3058.114, -0.009920253, -0.014281122, -1624848.8, 93692.1, 0.0, 5.0469894, 4.9821205 
8.117019e+2, 1.2961912e+2, -1580759.8, -1677148.8, 3393.1628, -0.005586746, -0.013887034, -1580640.5, 89084.93, 0.0, 5.0454707, 4.982111 
8.116031e+2, 1.3460028e+2, -1536548.1, -1630662.6, 3726.5735, -0.0017259367, -0.013504907, -1536400.8, 84509.484, 0.0, 5.0439506, 4.982102 
8.115044e+2, 1.3958143e+2, -1494150.0, -1587823.0, 4585.943, 0.0010914976, -0.011682052, -1493926.0, 78169.27, 0.0, 5.042414, 4.9808683 
8.11407e+2, 1.4456034e+2, -1454632.0, -1551263.8, 6415.3745, 0.0013486271, -0.00039746912, -1454208.0, 69094.555, 0.0, 5.04098, 4.9773827 
8.113103e+2, 1.495368e+2, -1409501.0, -1504264.5, 6699.572, 0.00091166585, -0.0016385125, -1409029.6, 65504.082, 0.0, 5.039729, 4.977375 
8.1121355e+2, 1.5451325e+2, -1364346.3, -1457242.8, 6983.4253, 0.00047480108, -0.0028354144, -1363824.3, 61940.875, 0.0, 5.0384784, 4.9773674 
8.111168e+2, 1.5948969e+2, -1320422.1, -1412804.5, 7282.103, 0.00015628815, -0.0035308134, -1319851.6, 57145.305, 0.0, 5.037227, 4.9764857 
8.1102073e+2, 1.6446295e+2, -1281729.5, -1379603.4, 8411.588, 0.0008640896, 0.00025769282, -1281011.9, 47248.246, 0.0, 5.036059, 4.9717565 
8.109252e+2, 1.6943362e+2, -1235972.3, -1332204.6, 8423.588, 0.001213767, -0.00211032, -1235240.4, 44308.5, 0.0, 5.0349727, 4.971757 
8.108296e+2, 1.7440428e+2, -1190194.1, -1284786.5, 8436.006, 0.0015307112, -0.004479684, -1189447.6, 41390.023, 0.0, 5.033887, 4.9717574 
8.1073403e+2, 1.7937502e+2, -1145325.8, -1239369.4, 8137.558, 0.0018583421, -0.00600223, -1144626.9, 37498.797, 0.0, 5.032803, 4.971079 
8.106381e+2, 1.843432e+2, -1106304.8, -1206240.0, 8824.36, 0.002833512, 0.0013942381, -1105531.6, 27905.932, 0.0, 5.0316963, 4.9662137 
8.105427e+2, 1.8930857e+2, -1060411.1, -1158732.1, 8866.772, 0.0034721436, 0.0012605201, -1059617.9, 25158.969, 0.0, 5.0306153, 4.9662066 
8.104473e+2, 1.9427392e+2, -1014496.9, -1111204.3, 8909.658, 0.004052694, 0.001221991, -1013682.94, 22433.297, 0.0, 5.029534, 4.9661994 
8.103518e+2, 1.9923928e+2, -969533.44, -1065788.9, 8624.005, 0.004501833, 0.0017393968, -968766.9, 18688.809, 0.0, 5.0284553, 4.9654675 
8.102553e+2, 2.0420144e+2, -931278.44, -1034545.94, 8488.501, 0.004259667, 0.008401158, -930585.3, 8242.78, 0.0, 5.027314, 4.959886 
8.1015885e+2, 2.0916037e+2, -885440.75, -986978.2, 8370.011, 0.0041462746, 0.006953837, -884755.4, 5477.274, 0.0, 5.026164, 4.9598837 
8.1006247e+2, 2.141193e+2, -839581.25, -939389.3, 8250.963, 0.0040971697, 0.005494833, -838903.75, 2733.5166, 0.0, 5.0250144, 4.9598813 
8.09966e+2, 2.1907823e+2, -794190.56, -892874.5, 8084.2007, 0.004124188, 0.004198044, -793532.7, -491.15573, 0.0, 5.023868, 4.9595013 
8.098686e+2, 2.2403473e+2, -755016.7, -859966.0, 6939.3857, 0.004720428, 0.010313795, -754559.8, -10092.717, 0.0, 5.0227, 4.9544215 
8.0977046e+2, 2.2898816e+2, -709129.7, -812065.56, 6742.4966, 0.004833245, 0.0073167128, -708689.94, -12767.954, 0.0, 5.021475, 4.9545207 
8.0967236e+2, 2.339416e+2, -663342.56, -764422.2, 6506.045, 0.0049581667, 0.004356733, -662925.5, -15548.789, 0.0, 5.0202513, 4.9545236 
8.0957425e+2, 2.3889504e+2, -618199.8, -718220.8, 6311.612, 0.0050704195, 0.0015602927, -617803.1, -18971.627, 0.0, 5.019025, 4.954018 
8.094753e+2, 2.4384573e+2, -579821.44, -686593.1, 5047.202, 0.005193663, 0.007611144, -579583.4, -29268.338, 0.0, 5.017688, 4.94847 
8.0937517e+2, 2.4879348e+2, -534308.3, -638408.9, 4670.9844, 0.004922255, 0.0050615706, -534099.1, -32271.023, 0.0, 5.016203, 4.9487357 
8.092751e+2, 2.5374123e+2, -489122.03, -590961.6, 4444.842, 0.004660829, 0.0024211134, -488928.38, -35587.19, 0.0, 5.014715, 4.948737 
8.09175e+2, 2.58689e+2, -444042.28, -543799.1, 4262.2734, 0.004432022, -0.000069616115, -443860.5, -39006.52, 0.0, 5.0132294, 4.948628 
8.090744e+2, 2.6363468e+2, -405782.13, -512211.66, 3011.7478, 0.0045694294, 0.011599956, -405696.97, -49311.723, 0.0, 5.0117598, 4.9430103 
8.089727e+2, 2.6857796e+2, -359218.0, -461541.5, 2099.335, 0.0052361744, 0.0099291215, -359174.94, -51236.0, 0.0, 5.0102186, 4.944116 
8.0887103e+2, 2.7352124e+2, -314033.06, -413977.13, 1515.6664, 0.005914606, 0.007180552, -314010.1, -54517.133, 0.0, 5.0086718, 4.9441304 
8.0876935e+2, 2.7846447e+2, -268881.03, -366534.97, 1300.908, 0.0064957994, 0.003996256, -268863.72, -57816.527, 0.0, 5.0071273, 4.944092 
8.086685e+2, 2.8340378e+2, -230681.83, -336481.6, 1209.0762, 0.0057072346, 0.001091162, -230668.02, -68026.96, 0.0, 5.0058236, 4.937785 
8.0856735e+2, 2.8834084e+2, -182547.78, -283976.63, -51.216022, 0.0047208034, -0.015858114, -182547.77, -68290.53, 0.0, 5.0046043, 4.9393625 
8.0846614e+2, 2.93278e+2, -136324.83, -235838.89, -1021.3248, 0.0036767158, -0.03301352, -136314.34, -70441.71, 0.0, 5.0033793, 4.9393888 
8.0836487e+2, 2.982153e+2, -91293.6, -190488.84, -2464.3423, 0.0026610226, -0.048645757, -91232.414, -73745.74, 0.0, 5.0021505, 4.938411 
8.082631e+2, 3.0316564e+2, -50277.273, -119111.41, -1904.8442, 0.0028862075, 0.0010162147, -50224.6, -50224.6, 0.0, 5.000435, 4.9560227 
8.081626e+2, 3.081288e+2, -52714.773, -115208.58, 572.7037, 0.0051851263, 0.05420418, -52709.523, -52709.523, 0.0, 4.9985733, 4.958237 
8.080622e+2, 3.1309175e+2, -57844.594, -117645.305, 2968.8254, 0.0075253295, 0.10542778, -57697.566, -57697.566, 0.0, 4.996717, 4.95816 
8.079651e+2, 3.1803396e+2, -1109.8464, 25990.412, 4241.647, 0.037677653, -0.068062626, 26638.79, 26638.79, 0.0, 4.994464, 5.0119185 
8.1684613e+2, 1.2473883e+2, -1624159.0, -1722127.9, 1884.2905, -0.015188789, -0.0069178827, -1624122.8, 93433.734, 0.0, 5.047001, 4.9826107 
8.167461e+2, 1.2972032e+2, -1579975.3, -1675671.9, 2226.7798, -0.008607089, -0.008250501, -1579923.4, 88813.63, 0.0, 5.045483, 4.982601 
8.1664604e+2, 1.347018e+2, -1535763.4, -1629189.6, 2567.6309, -0.0026163873, -0.009623406, -1535692.9, 84225.016, 0.0, 5.043965, 4.9825916 
8.165459e+2, 1.3968326e+2, -1493358.1, -1586342.5, 3417.1243, 0.0018712505, -0.009542397, -1493232.8, 77866.09, 0.0, 5.042429, 4.9813614 
8.1644714e+2, 1.4466245e+2, -1454003.1, -1550056.8, 5468.6, 0.0020377373, 0.00002768068, -1453692.8, 68609.61, 0.0, 5.040986, 4.977788 
8.163492e+2, 1.4963919e+2, -1408876.5, -1503063.0, 5754.8945, 0.0017124123, -0.002709072, -1408526.1, 65003.96, 0.0, 5.0397353, 4.97778 
8.1625116e+2, 1.5461591e+2, -1363726.3, -1456046.6, 6040.843, 0.0013790051, -0.00538767, -1363332.6, 61425.363, 0.0, 5.0384846, 4.9777718 
8.1615317e+2, 1.5959258e+2, -1319967.3, -1411947.4, 6353.521, 0.0011381961, -0.0071241404, -1319530.5, 56456.008, 0.0, 5.037233, 4.9767776 
8.1605595e+2, 1.6456614e+2, -1281640.6, -1379485.6, 7586.377, 0.0017065513, -0.001898162, -1281055.9, 46191.71, 0.0, 5.0360622, 4.971799 
8.159593e+2, 1.6953705e+2, -1235885.1, -1332087.1, 7600.921, 0.0017740962, -0.0023981396, -1235288.3, 43246.824, 0.0, 5.0349755, 4.9718 
8.158626e+2, 1.7450795e+2, -1190108.9, -1284669.0, 7615.8823, 0.0017897207, -0.0028828487, -1189499.5, 40323.12, 0.0, 5.033889, 4.9718003 
8.157659e+2, 1.7947891e+2, -1145158.3, -1239075.5, 7307.567, 0.0018859131, -0.0026776511, -1144593.1, 36516.14, 0.0, 5.032805, 4.971183 
8.15669e+2, 1.8444711e+2, -1106184.5, -1206026.8, 8010.0483, 0.0035598858, 0.0037932936, -1105546.0, 26874.576, 0.0, 5.031696, 4.9662914 
8.1557256e+2, 1.894124e+2, -1060293.4, -1158520.4, 8054.296, 0.00504777, 0.0020872876, -1059637.4, 24122.613, 0.0, 5.030614, 4.9662843 
8.154761e+2, 1.9437768e+2, -1014381.8, -1110994.0, 8099.0166, 0.0064520505, 0.00049093156, -1013707.56, 21391.86, 0.0, 5.0295324, 4.9662766 
8.153796e+2, 1.9934297e+2, -969475.4, -1065704.5, 7785.0938, 0.0075888, -0.00037156793, -968849.6, 17589.371, 0.0, 5.028454, 4.9655023 
8.15282e+2, 2.0430516e+2, -931421.44, -1034921.06, 7620.643, 0.006881327, 0.0070823273, -930863.3, 6947.9907, 0.0, 5.0273156, 4.959763 
8.1518424e+2, 2.0926407e+2, -885583.3, -987354.56, 7504.12, 0.0057926304, 0.0067350897, -885033.0, 4183.3125, 0.0, 5.026166, 4.95976 
8.1508654e+2, 2.1422298e+2, -839723.4, -939766.94, 7387.039, 0.004750313, 0.0063827746, -839180.9, 1440.3999, 0.0, 5.0250163, 4.9597573 
8.149889e+2, 2.191819e+2, -794333.06, -893262.6, 7208.023, 0.0038074662, 0.006158462, -793810.6, -1784.6793, 0.0, 5.023871, 4.9593735 
8.1489027e+2, 2.2413814e+2, -755352.75, -860796.75, 6022.961, 0.004155187, 0.0118561, -755009.9, -11555.744, 0.0, 5.0227046, 4.9541416 
8.1479096e+2, 2.290912e+2, -709442.75, -812852.1, 5821.3696, 0.0044185175, 0.008027628, -709116.06, -14203.551, 0.0, 5.02148, 4.9542546 
8.146916e+2, 2.340443e+2, -663652.2, -765206.5, 5586.5986, 0.0046787616, 0.0042382, -663345.8, -16975.025, 0.0, 5.020257, 4.9542575 
8.145923e+2, 2.3899738e+2, -618473.06, -718924.9, 5375.1753, 0.004949482, 0.00060010474, -618186.25, -20357.22, 0.0, 5.01903, 4.9537797 
8.14492e+2, 2.4394783e+2, -580039.44, -687202.75, 3918.4526, 0.00542399, 0.006130611, -579896.4, -30581.451, 0.0, 5.017695, 4.9482656 
8.143904e+2, 2.4889535e+2, -534553.56, -639089.56, 3546.152, 0.0058268323, 0.0036464587, -534433.44, -33603.527, 0.0, 5.016211, 4.948506 
8.142889e+2, 2.5384286e+2, -489362.5, -591640.75, 3322.2927, 0.006218245, 0.0010804972, -489254.72, -36909.832, 0.0, 5.014724, 4.948507 
8.141874e+2, 2.587904e+2, -444395.38, -544744.1, 3147.573, 0.006586276, -0.0012214339, -444296.75, -40437.17, 0.0, 5.01324, 4.9483037 
8.140853e+2, 2.637358e+2, -406523.44, -514091.88, 1838.8229, 0.0064343084, 0.012966352, -406492.0, -51098.16, 0.0, 5.0117774, 4.9423556 
8.13982e+2, 2.6867875e+2, -359966.3, -463452.8, 920.8042, 0.006275893, 0.014145889, -359958.13, -53006.22, 0.0, 5.010237, 4.943448 
8.1387866e+2, 2.7362162e+2, -314774.03, -415882.78, 340.10483, 0.006084472, 0.014254398, -314772.9, -56262.574, 0.0, 5.008691, 4.9434624 
8.137754e+2, 2.7856445e+2, -269700.3, -368628.97, 204.86186, 0.005789667, 0.013550622, -269699.9, -59630.563, 0.0, 5.007147, 4.9433556 
8.136732e+2, 2.835022e+2, -231951.03, -339677.5, 241.06306, 0.004819503, 0.0047066826, -231950.5, -70271.98, 0.0, 5.005852, 4.936659 
8.135708e+2, 2.884372e+2, -183808.63, -287172.1, -1008.81683, 0.0037190511, -0.021400658, -183798.78, -70484.195, 0.0, 5.0046344, 4.9382315 
8.1346834e+2, 2.933723e+2, -137573.02, -239020.19, -1973.5916, 0.0025124953, -0.047716063, -137534.64, -72584.73, 0.0, 5.0034103, 4.938258 
8.133658e+2, 2.9830766e+2, -92057.49, -192519.53, -3516.6528, 0.0012924409, -0.071607254, -91934.54, -75351.7, 0.0, 5.002176, 4.937691 
8.132624e+2, 3.032614e+2, -46507.445, -110556.23, -3300.5422, 0.001450479, -0.003329386, -46337.813, -46337.813, 0.0, 5.000456, 4.9591274 
8.1316e+2, 3.082309e+2, -48923.793, -106712.15, -757.48834, 0.0038066695, 0.07977359, -48913.867, -48913.867, 0.0, 4.998613, 4.9613156 
8.130576e+2, 3.1320015e+2, -54010.74, -109137.53, 1708.0621, 0.006009745, 0.16089149, -53957.867, -53957.867, 0.0, 4.9967723, 4.961234 
8.1296015e+2, 3.1816402e+2, -32797.438, -48050.836, 1401.1635, 0.052936707, 0.19362031, -32669.797, -32669.797, 0.0, 4.9944787, 4.9844894 
8.2189196e+2, 1.24840505e+2, -1625721.5, -1722008.9, 2509.5146, -0.015806938, 0.00006491538, -1625656.1, 90906.72, 0.0, 5.046269, 4.9830103 
8.2179046e+2, 1.298222e+2, -1581072.3, -1675298.4, 2681.9353, -0.009141388, -0.0032095558, -1580996.0, 86745.086, 0.0, 5.0449038, 4.983009 
8.216889e+2, 1.3480388e+2, -1536510.6, -1628620.9, 2850.323, -0.0026831746, -0.0063255127, -1536422.5, 82496.81, 0.0, 5.0435004, 4.9830074 
8.215873e+2, 1.397856e+2, -1493885.0, -1585640.0, 3508.597, 0.0024098954, -0.0077455877, -1493751.0, 76346.234, 0.0, 5.042037, 4.9817867 
8.214872e+2, 1.4476502e+2, -1454551.9, -1549528.0, 5636.9307, 0.0025152958, 0.00055985287, -1454218.5, 67079.5, 0.0, 5.040628, 4.978137 
8.2138795e+2, 1.4974196e+2, -1409315.4, -1502468.8, 5771.1646, 0.0024157201, -0.0033321339, -1408959.1, 63563.883, 0.0, 5.0394125, 4.9781337 
8.2128876e+2, 1.5471889e+2, -1364068.5, -1455393.6, 5912.408, 0.0022899022, -0.0071916007, -1363687.3, 60060.934, 0.0, 5.0381937, 4.97813 
8.211895e+2, 1.5969583e+2, -1320334.3, -1411472.0, 6139.2393, 0.0022112322, -0.009720907, -1319922.6, 55051.152, 0.0, 5.0369706, 4.977062 
8.210912e+2, 1.6466966e+2, -1282148.8, -1379471.8, 7569.0996, 0.002692906, -0.003305447, -1281563.6, 44668.94, 0.0, 5.0358405, 4.9719048 
8.209934e+2, 1.696408e+2, -1236259.4, -1332033.0, 7682.9443, 0.0025474848, -0.0023793771, -1235647.0, 41871.48, 0.0, 5.0348015, 4.9718976 
8.208956e+2, 1.7461191e+2, -1190397.9, -1284597.0, 7778.173, 0.0023787431, -0.0014434303, -1189759.9, 39044.625, 0.0, 5.0337462, 4.971891 
8.207978e+2, 1.7958307e+2, -1145350.6, -1238895.9, 7513.861, 0.002384195, 0.00003133889, -1144750.9, 35338.867, 0.0, 5.032681, 4.9713025 
8.206998e+2, 1.8455127e+2, -1106259.6, -1205910.4, 8188.946, 0.0045428514, 0.0057217083, -1105591.1, 25809.756, 0.0, 5.031644, 4.966354 
8.206024e+2, 1.8951647e+2, -1060096.9, -1158271.6, 8144.834, 0.0065478315, 0.0027381098, -1059425.8, 23315.037, 0.0, 5.0306554, 4.966348 
8.2050496e+2, 1.9448164e+2, -1013965.56, -1110638.5, 8104.743, 0.008543878, -0.00019381229, -1013290.8, 20789.895, 0.0, 5.029649, 4.9663424 
8.2040745e+2, 1.9944686e+2, -968949.75, -1065400.0, 7690.2944, 0.01022166, -0.002247735, -968340.44, 17080.229, 0.0, 5.0286293, 4.965525 
8.203086e+2, 2.0440905e+2, -930966.1, -1034962.4, 7485.592, 0.009138436, 0.006002739, -930430.06, 6362.9053, 0.0, 5.0275254, 4.959654 
8.2020974e+2, 2.0936792e+2, -885064.56, -987371.06, 7365.802, 0.00728235, 0.0065808813, -884537.0, 3661.3943, 0.0, 5.026398, 4.95965 
8.201108e+2, 2.143268e+2, -839163.8, -939769.1, 7243.209, 0.0054380596, 0.007171525, -838645.0, 958.80884, 0.0, 5.025263, 4.9596457 
8.2001185e+2, 2.1928568e+2, -793789.25, -893333.5, 7045.5625, 0.0036969115, 0.007859997, -793293.06, -2284.0576, 0.0, 5.0241237, 4.959236 
8.199121e+2, 2.2424166e+2, -754968.56, -861234.1, 5794.075, 0.0038044562, 0.013206264, -754653.56, -12213.707, 0.0, 5.022959, 4.9538784 
8.1981146e+2, 2.2919437e+2, -709065.5, -813292.94, 5549.327, 0.0041410862, 0.008608843, -708770.9, -14868.968, 0.0, 5.0217314, 4.953993 
8.1971085e+2, 2.341471e+2, -663298.5, -765662.7, 5276.333, 0.004489346, 0.0040248428, -663027.25, -17663.367, 0.0, 5.0204997, 4.9539943 
8.1961036e+2, 2.3909983e+2, -618140.06, -719374.8, 5001.495, 0.0048933253, -0.00038709608, -617893.56, -21067.867, 0.0, 5.019262, 4.953524 
8.1950873e+2, 2.4405001e+2, -579547.3, -687432.44, 3348.837, 0.0056718187, 0.0048010717, -579443.5, -31129.637, 0.0, 5.017951, 4.9480767 
8.1940573e+2, 2.489973e+2, -534022.25, -639383.9, 2943.8755, 0.0067035872, 0.002421148, -533940.06, -34109.36, 0.0, 5.0164967, 4.948282 
8.193028e+2, 2.539446e+2, -488775.56, -591910.44, 2698.2397, 0.0077255988, -0.000062609695, -488705.03, -37357.43, 0.0, 5.01503, 4.948283 
8.191998e+2, 2.588919e+2, -443932.5, -545346.94, 2510.8086, 0.008675174, -0.0021533235, -443870.38, -41006.117, 0.0, 5.0135565, 4.9479585 
8.1909627e+2, 2.63837e+2, -406295.06, -515439.78, 1229.1615, 0.008194052, 0.014415479, -406281.22, -51879.414, 0.0, 5.0121326, 4.9417334 
8.1899124e+2, 2.6877955e+2, -359657.94, -464818.0, 354.6644, 0.0072758356, 0.018040352, -359656.75, -53692.234, 0.0, 5.01063, 4.942803 
8.1888634e+2, 2.7372202e+2, -314451.2, -417247.66, -176.6616, 0.006319256, 0.02070805, -314450.88, -56923.363, 0.0, 5.0090895, 4.9428144 
8.1878144e+2, 2.7866438e+2, -269594.2, -370333.25, -194.20113, 0.005305129, 0.022213755, -269593.8, -60502.203, 0.0, 5.007514, 4.9426007 
8.1867796e+2, 2.836006e+2, -232700.34, -342518.13, 141.81622, 0.004193131, 0.007815617, -232700.17, -71984.336, 0.0, 5.006055, 4.9355764 
8.185743e+2, 2.8853366e+2, -185072.16, -290256.06, -888.59705, 0.0028861174, -0.02679579, -185064.64, -72693.76, 0.0, 5.004651, 4.9371395 
8.184706e+2, 2.9346678e+2, -139301.6, -242316.94, -1682.4735, 0.0014927922, -0.06187854, -139274.13, -75248.555, 0.0, 5.003257, 4.9371605 
8.1836677e+2, 2.9840022e+2, -93662.76, -194725.88, -3271.6628, 0.000077147626, -0.09331813, -93556.96, -77880.36, 0.0, 5.0018654, 4.937046 
8.182616e+2, 3.033575e+2, -43248.965, -102321.14, -3659.964, 0.00015834416, -0.0062586856, -43023.066, -43023.066, 0.0, 5.0003204, 4.9621773 
8.181574e+2, 3.0833313e+2, -44866.11, -98142.82, -1608.8252, 0.0025563538, 0.10397904, -44817.57, -44817.57, 0.0, 4.9987736, 4.9643626 
8.180531e+2, 3.133086e+2, -49543.855, -100373.33, 538.57416, 0.004673501, 0.21295911, -49538.15, -49538.15, 0.0, 4.9970794, 4.9642873 
8.179501e+2, 3.182594e+2, -56911.047, -106812.73, -645.2937, 0.015860073, 0.10838341, -56902.703, -56902.703, 0.0, 4.994969, 4.9628043 
8.269372e+2, 1.2494647e+2, -1626687.9, -1721286.5, 5744.1064, -0.011335795, 0.003967036, -1626340.4, 89184.414, 0.0, 5.0457726, 4.9834433 
8.268341e+2, 1.2992834e+2, -1582112.6, -1674616.3, 5954.7817, -0.0065820976, -0.00059220643, -1581730.9, 84970.555, 0.0, 5.0443873, 4.9834385 
8.267311e+2, 1.3491023e+2, -1537510.9, -1627922.1, 6163.2217, -0.0017518186, -0.0047276644, -1537092.8, 80785.0, 0.0, 5.0430017, 4.983434 
8.266279e+2, 1.3989218e+2, -1494671.3, -1584744.9, 6849.6797, 0.0022381004, -0.0068306825, -1494153.4, 74900.14, 0.0, 5.041595, 4.9822516 
8.265265e+2, 1.4487186e+2, -1455164.9, -1548801.0, 9294.894, 0.002853519, 0.0011087426, -1454251.1, 66000.695, 0.0, 5.0403085, 4.978483 
8.264262e+2, 1.4984897e+2, -1409492.8, -1501525.0, 9462.37, 0.0030577828, -0.003112183, -1408530.0, 62945.336, 0.0, 5.039242, 4.978481 
8.2632595e+2, 1.5482609e+2, -1363800.3, -1454230.1, 9629.392, 0.0032397043, -0.0073114885, -1362786.3, 59912.594, 0.0, 5.0381756, 4.978478 
8.262256e+2, 1.5980324e+2, -1319507.9, -1409842.6, 9903.3125, 0.0034278699, -0.010137727, -1318434.9, 55487.496, 0.0, 5.037105, 4.977493 
8.261262e+2, 1.647774e+2, -1281045.3, -1377775.4, 11547.903, 0.0039045743, -0.0034119685, -1279685.8, 45491.813, 0.0, 5.036103, 4.972289 
8.2602745e+2, 1.6974884e+2, -1234753.4, -1330180.3, 11728.22, 0.0038775683, -0.001860049, -1233333.0, 43126.99, 0.0, 5.035207, 4.972271 
8.2592875e+2, 1.7472024e+2, -1188443.9, -1282568.9, 11908.468, 0.003908013, -0.00037655293, -1186960.5, 40782.266, 0.0, 5.034311, 4.972253 
8.2583004e+2, 1.7969164e+2, -1142969.5, -1236812.8, 11744.695, 0.004164769, 0.0013865122, -1141521.9, 37503.473, 0.0, 5.0334225, 4.971604 
8.257311e+2, 1.8465982e+2, -1103717.0, -1204266.8, 12518.588, 0.005904882, 0.006595949, -1102181.9, 28155.158, 0.0, 5.0325623, 4.9664207 
8.256327e+2, 1.8962489e+2, -1057066.4, -1156405.6, 12432.924, 0.007273607, 0.0031926972, -1055534.0, 26144.564, 0.0, 5.0317454, 4.9664135 
8.255343e+2, 1.9458996e+2, -1010399.6, -1108529.8, 12346.8545, 0.008741412, -0.00018703572, -1008869.94, 24150.139, 0.0, 5.030928, 4.9664063 
8.254359e+2, 1.9955505e+2, -964769.8, -1062945.8, 11845.572, 0.010069601, -0.0027227418, -963360.75, 21000.797, 0.0, 5.0301104, 4.9656177 
8.2533604e+2, 2.0451717e+2, -926414.44, -1032457.4, 11617.061, 0.009293173, 0.0054281144, -925156.75, 10577.417, 0.0, 5.0291553, 4.959701 
8.252361e+2, 2.0947595e+2, -880165.4, -984717.7, 11549.33, 0.007840024, 0.0061616446, -878904.75, 8234.945, 0.0, 5.0281544, 4.9596944 
8.251361e+2, 2.1443476e+2, -833896.9, -936959.56, 11481.027, 0.0063413163, 0.0069167875, -832633.4, 5911.905, 0.0, 5.0271535, 4.959687 
8.2503617e+2, 2.1939354e+2, -788158.5, -890408.0, 11330.141, 0.004872036, 0.0076936227, -786918.1, 3032.785, 0.0, 5.026156, 4.9592586 
8.249352e+2, 2.2434925e+2, -749293.5, -858832.3, 10035.282, 0.0045280056, 0.0127079515, -748381.7, -6996.936, 0.0, 5.0251136, 4.9536695 
8.248334e+2, 2.293016e+2, -703240.5, -810844.7, 9744.641, 0.0045354757, 0.008150378, -702365.1, -9514.3125, 0.0, 5.023945, 4.9537797 
8.247316e+2, 2.3425397e+2, -657309.1, -763157.25, 9433.287, 0.0045911632, 0.003573719, -656474.94, -12158.205, 0.0, 5.022777, 4.9537797 
8.2462984e+2, 2.3920637e+2, -611932.44, -716727.56, 9111.439, 0.004753614, -0.0008152649, -611146.1, -15363.608, 0.0, 5.02161, 4.9533334 
8.245269e+2, 2.4415633e+2, -573021.4, -684557.94, 7302.325, 0.0056390176, 0.0048917583, -572545.3, -25272.768, 0.0, 5.020392, 4.9479284 
8.2442254e+2, 2.4910337e+2, -527263.3, -636449.5, 6854.6567, 0.006708415, 0.0030463084, -526834.7, -28043.492, 0.0, 5.0190344, 4.9481173 
8.243182e+2, 2.540504e+2, -481731.16, -588846.6, 6565.01, 0.0077556614, 0.0010668467, -481330.28, -31020.418, 0.0, 5.0176744, 4.9481225 
8.242138e+2, 2.5899747e+2, -436596.0, -542186.8, 6376.445, 0.008697247, -0.0007021679, -436212.34, -34383.813, 0.0, 5.016317, 4.9477873 
8.241088e+2, 2.6394194e+2, -398886.75, -512516.66, 5162.2075, 0.008014532, 0.013324887, -398652.7, -45280.414, 0.0, 5.0149636, 4.941455 
8.240024e+2, 2.6888373e+2, -352145.72, -461896.94, 4482.131, 0.0069444794, 0.013764157, -351962.97, -47020.227, 0.0, 5.013511, 4.9425116 
8.238959e+2, 2.7382547e+2, -306739.88, -414274.47, 4141.9707, 0.006032943, 0.013629794, -306580.56, -50067.273, 0.0, 5.0120516, 4.942515 
8.2378954e+2, 2.7876717e+2, -261596.66, -367141.38, 4283.714, 0.0052671563, 0.013006001, -261423.08, -53338.7, 0.0, 5.010563, 4.942349 
8.236843e+2, 2.8370395e+2, -225952.8, -339397.78, 5047.041, 0.0040617315, 0.0070495736, -225728.7, -66025.29, 0.0, 5.008567, 4.9355273 
8.235786e+2, 2.8863806e+2, -180627.36, -288232.44, 4828.671, 0.0024496086, -0.014914435, -180411.11, -69062.51, 0.0, 5.006345, 4.9370656 
8.2347304e+2, 2.9357204e+2, -137184.17, -241399.94, 4911.3916, 0.0009698077, -0.038380597, -136953.22, -73958.34, 0.0, 5.004118, 4.937059 
8.2336736e+2, 2.9850623e+2, -93586.23, -194270.88, 4269.4, -0.00027861065, -0.059840105, -93405.516, -78766.164, 0.0, 5.0018935, 4.937143 
8.2326084e+2, 3.03461e+2, -42015.883, -100047.086, 2906.4138, 0.00041861067, -0.0005324515, -41870.684, -41870.684, 0.0, 5.0005465, 4.9628415 
8.2315564e+2, 3.0843267e+2, -41040.92, -94725.836, 1961.0425, 0.0038151285, 0.06512817, -40969.383, -40969.383, 0.0, 4.9999456, 4.965037 
8.2305044e+2, 3.1340492e+2, -42617.617, -95505.03, 924.2046, 0.0075338264, 0.13470419, -42601.47, -42601.47, 0.0, 4.999357, 4.965018 
8.229431e+2, 3.1832433e+2, -35553.46, -71689.26, -2439.5452, -0.010756334, -0.3057869, -35389.508, -35389.508, 0.0, 4.997925, 4.974225 
8.3198225e+2, 1.2505482e+2, -1626101.4, -1720224.1, 4673.4126, -0.0085276915, 0.0072992695, -1625869.9, 88593.27, 0.0, 5.045784, 4.983799 
8.3187765e+2, 1.3003695e+2, -1581526.3, -1673559.0, 4889.5615, -0.0050104447, 0.00189874, -1581267.3, 84370.11, 0.0, 5.0443993, 4.9837937 
8.3177304e+2, 1.3501911e+2, -1536924.9, -1626870.0, 5103.472, -0.0014643094, -0.0030916051, -1536636.3, 80175.1, 0.0, 5.043015, 4.9837885 
8.316684e+2, 1.4000133e+2, -1494023.9, -1583568.3, 5777.9287, 0.0014923331, -0.0059476057, -1493652.6, 74332.03, 0.0, 5.041609, 4.982648 
8.315658e+2, 1.4498131e+2, -1454764.9, -1548052.1, 8482.6455, 0.002771688, 0.0016808866, -1453999.9, 65180.266, 0.0, 5.040313, 4.978737 
8.3146447e+2, 1.4995866e+2, -1409094.0, -1500778.4, 8652.374, 0.003291742, -0.0027773948, -1408284.6, 62116.84, 0.0, 5.039246, 4.9787345 
8.3136314e+2, 1.5493599e+2, -1363402.8, -1453485.6, 8821.647, 0.0037752942, -0.007214979, -1362547.0, 59075.918, 0.0, 5.03818, 4.9787316 
8.3126175e+2, 1.5991339e+2, -1319008.4, -1408875.4, 9101.242, 0.004213502, -0.0101910615, -1318096.0, 54748.133, 0.0, 5.037109, 4.9778214 
8.3116144e+2, 1.6488789e+2, -1280666.8, -1377002.4, 10871.686, 0.00480929, -0.0031839092, -1279455.1, 44640.44, 0.0, 5.036099, 4.9725537 
8.3106184e+2, 1.6985965e+2, -1234374.8, -1329406.5, 11055.066, 0.005028538, -0.0011265283, -1233105.6, 42268.758, 0.0, 5.0352035, 4.9725366 
8.3096224e+2, 1.7483138e+2, -1188065.1, -1281794.3, 11238.378, 0.0052744322, 0.00085499726, -1186736.5, 39917.113, 0.0, 5.034308, 4.972519 
8.308626e+2, 1.7980306e+2, -1142700.5, -1236273.8, 11078.839, 0.0056571597, 0.002968683, -1141406.8, 36526.207, 0.0, 5.033421, 4.9717903 
8.307628e+2, 1.8477122e+2, -1103816.4, -1204512.0, 11905.128, 0.006975684, 0.007841282, -1102428.0, 26817.05, 0.0, 5.032561, 4.966344 
8.306635e+2, 1.8973616e+2, -1057165.0, -1156651.3, 11822.543, 0.007719652, 0.003956899, -1055779.4, 24809.063, 0.0, 5.031744, 4.9663367 
8.3056426e+2, 1.9470109e+2, -1010497.44, -1108775.8, 11739.552, 0.008528087, 0.00010009407, -1009114.6, 22817.246, 0.0, 5.030927, 4.966329 
8.304649e+2, 1.9966607e+2, -964820.9, -1063090.3, 11181.874, 0.009251699, -0.0028778648, -963564.56, 19710.408, 0.0, 5.030109, 4.9655747 
8.303641e+2, 2.0462811e+2, -926499.56, -1032656.25, 10868.939, 0.008778408, 0.0050478154, -925398.1, 9249.604, 0.0, 5.0291505, 4.95964 
8.3026326e+2, 2.0958684e+2, -880248.7, -984916.2, 10803.924, 0.007948323, 0.005819767, -879145.1, 6908.0938, 0.0, 5.02815, 4.959633 
8.3016235e+2, 2.1454556e+2, -833978.44, -937157.75, 10738.337, 0.0070383125, 0.0066040927, -832872.7, 4586.0083, 0.0, 5.02715, 4.9596257 
8.3006144e+2, 2.1950427e+2, -788298.0, -890742.44, 10584.808, 0.0060724104, 0.007327153, -787215.8, 1648.6165, 0.0, 5.0261536, 4.9591494 
8.299593e+2, 2.2445971e+2, -749713.44, -859836.56, 9161.93, 0.00521139, 0.012028049, -748956.44, -8655.146, 0.0, 5.0251164, 4.9533296 
8.2985634e+2, 2.2941172e+2, -703682.94, -811907.0, 8867.559, 0.004889599, 0.0076772515, -702961.1, -11189.827, 0.0, 5.0239487, 4.953419 
8.297533e+2, 2.3436375e+2, -657746.9, -764216.3, 8558.829, 0.0045850766, 0.0033166104, -657063.2, -13821.913, 0.0, 5.022781, 4.9534187 
8.2965034e+2, 2.3931582e+2, -612300.4, -717639.75, 8269.334, 0.004373326, -0.000764816, -611655.2, -16944.37, 0.0, 5.0216146, 4.953022 
8.295462e+2, 2.4426557e+2, -573349.6, -685477.25, 6240.152, 0.0055128727, 0.0058690794, -573003.44, -26800.959, 0.0, 5.0204077, 4.9476132 
8.294404e+2, 2.4921235e+2, -527588.25, -637351.5, 5829.921, 0.0063414145, 0.0045051565, -527279.44, -29556.45, 0.0, 5.0190487, 4.947808 
8.293347e+2, 2.5415912e+2, -482056.4, -589744.8, 5543.368, 0.0070973793, 0.003042585, -481771.8, -32528.252, 0.0, 5.0176873, 4.947814 
8.2922894e+2, 2.591059e+2, -436898.25, -543033.75, 5410.099, 0.007689017, 0.0015305348, -436623.2, -35858.773, 0.0, 5.01633, 4.9474955 
8.291225e+2, 2.6404965e+2, -399189.97, -513473.22, 4029.8813, 0.0067866747, 0.011235656, -399048.03, -46732.49, 0.0, 5.0149884, 4.9411244 
8.290146e+2, 2.6899058e+2, -352451.13, -462857.6, 3386.8877, 0.0057310006, 0.006452408, -352347.3, -48452.574, 0.0, 5.0135355, 4.942179 
8.2890666e+2, 2.7393144e+2, -307044.03, -415232.94, 3050.6233, 0.0047831424, 0.0011902048, -306958.1, -51484.09, 0.0, 5.012076, 4.942182 
8.2879883e+2, 2.7887243e+2, -261790.63, -367813.88, 3080.522, 0.0039025887, -0.0036385714, -261701.2, -54648.453, 0.0, 5.0105805, 4.942119 
8.286916e+2, 2.838107e+2, -225593.25, -338834.3, 3324.4878, 0.0025559012, 0.0050470224, -225495.73, -66838.32, 0.0, 5.008585, 4.935737 
8.2858366e+2, 2.8874722e+2, -180296.14, -287751.9, 3129.1765, 0.0010954326, 0.0054758796, -180205.1, -69925.84, 0.0, 5.0063667, 4.9372454 
8.2847583e+2, 2.9368362e+2, -136846.3, -240913.9, 3222.5037, -0.00031075237, 0.0043017175, -136746.6, -74844.31, 0.0, 5.0041423, 4.93724 
8.28368e+2, 2.9861996e+2, -93410.21, -194155.92, 2732.477, -0.0015091226, 0.0028885487, -93336.16, -79810.35, 0.0, 5.0019174, 4.9371924 
8.282603e+2, 3.0356893e+2, -42811.492, -102536.766, 2250.6304, 0.0006905922, 0.008626992, -42726.805, -42726.805, 0.0, 5.000621, 4.961935 
8.281546e+2, 3.0853063e+2, -41831.75, -97384.92, 1489.3027, 0.005946015, -0.015724538, -41791.85, -41791.85, 0.0, 5.0000544, 4.964054 
8.280488e+2, 3.1349277e+2, -43324.176, -98132.28, 578.6005, 0.011149528, -0.036565203, -43318.066, -43318.066, 0.0, 4.9994974, 4.964033 
8.279392e+2, 3.1842923e+2, -30931.666, -61455.72, -2694.7344, -0.017568994, -0.30288023, -30695.594, -30695.594, 0.0, 4.997988, 4.9779606 
8.370273e+2, 1.2516321e+2, -1625515.6, -1719162.3, 3604.9229, -0.0057011894, 0.010988968, -1625377.0, 88024.336, 0.0, 5.0457954, 4.9841537 
8.3692116e+2, 1.301456e+2, -1580940.8, -1672502.1, 3826.5447, -0.0034172728, 0.004626138, -1580781.0, 83792.1, 0.0, 5.044412, 4.9841475 
8.36815e+2, 1.3512799e+2, -1536339.5, -1625818.1, 4045.9255, -0.0011521883, -0.0013399996, -1536156.9, 79587.85, 0.0, 5.0430284, 4.9841413 
8.3670884e+2, 1.401105e+2, -1493394.4, -1582429.5, 4705.986, 0.0008064117, -0.0050110747, -1493146.3, 73769.25, 0.0, 5.041623, 4.9830303 
8.3660513e+2, 1.4509077e+2, -1454365.1, -1547303.6, 7670.6465, 0.0026941956, 0.0023544114, -1453736.3, 64371.973, 0.0, 5.0403166, 4.97899 
8.365027e+2, 1.5006834e+2, -1408695.5, -1500032.0, 7842.6284, 0.0035236336, -0.002395287, -1408027.0, 61300.566, 0.0, 5.039251, 4.978987 
8.3640033e+2, 1.5504591e+2, -1363005.5, -1452741.4, 8014.1543, 0.004302412, -0.007125172, -1362295.4, 58251.55, 0.0, 5.0381846, 4.9789844 
8.362979e+2, 1.6002356e+2, -1318525.6, -1407943.5, 8293.427, 0.004998902, -0.010232421, -1317762.9, 54002.785, 0.0, 5.0371127, 4.9781384 
8.361966e+2, 1.6499841e+2, -1280288.8, -1376229.3, 10194.942, 0.005766658, -0.002875267, -1279217.4, 43796.02, 0.0, 5.0360956, 4.9728184 
8.360961e+2, 1.6997047e+2, -1233996.6, -1328632.4, 10381.388, 0.0062052887, -0.00037247466, -1232871.3, 41417.457, 0.0, 5.0352006, 4.9728017 
8.359957e+2, 1.7494251e+2, -1187687.0, -1281019.4, 10567.764, 0.006639769, 0.0020470642, -1186505.5, 39058.863, 0.0, 5.0343056, 4.972785 
8.358951e+2, 1.7991447e+2, -1142459.8, -1235794.9, 10412.787, 0.007106687, 0.0045169787, -1141312.3, 35528.21, 0.0, 5.0334196, 4.9719567 
8.357945e+2, 1.8488264e+2, -1103916.3, -1204757.0, 11292.249, 0.008060285, 0.009150899, -1102667.3, 25485.775, 0.0, 5.0325594, 4.9662666 
8.356943e+2, 1.8984744e+2, -1057264.1, -1156896.8, 11212.743, 0.008184613, 0.004730951, -1056017.9, 23480.434, 0.0, 5.031743, 4.966259 
8.355942e+2, 1.9481224e+2, -1010595.8, -1109021.6, 11132.83, 0.008338786, 0.00034267383, -1009352.3, 21491.266, 0.0, 5.030926, 4.9662514 
8.35494e+2, 1.9977708e+2, -964883.0, -1063257.8, 10512.651, 0.008455185, -0.0030439594, -963772.1, 18416.176, 0.0, 5.0301075, 4.9655237 
8.3539224e+2, 2.0473906e+2, -926585.0, -1032855.06, 10121.29, 0.008304204, 0.004779609, -925629.6, 7931.5737, 0.0, 5.029146, 4.9595785 
8.3529043e+2, 2.0969774e+2, -880332.3, -985114.6, 10058.989, 0.00810316, 0.0055388645, -879375.44, 5591.1157, 0.0, 5.0281463, 4.959571 
8.351885e+2, 2.146564e+2, -834060.4, -937355.9, 9996.118, 0.0077878186, 0.0063012876, -833101.9, 3270.078, 0.0, 5.0271463, 4.9595637 
8.350867e+2, 2.1961503e+2, -788465.6, -891138.9, 9841.225, 0.0073000877, 0.0069489963, -787530.9, 246.98257, 0.0, 5.026151, 4.959018 
8.3498347e+2, 2.2457017e+2, -750136.0, -860845.9, 8289.412, 0.0058740396, 0.01140857, -749518.75, -10300.933, 0.0, 5.0251193, 4.9529877 
8.348792e+2, 2.2952186e+2, -704125.7, -812969.44, 7991.104, 0.0052093463, 0.0072158906, -703542.1, -12850.194, 0.0, 5.023952, 4.9530573 
8.3477503e+2, 2.3447353e+2, -658184.9, -765275.5, 7685.0005, 0.0045310524, 0.0030212707, -657636.2, -15470.297, 0.0, 5.022785, 4.953057 
8.3467084e+2, 2.3942527e+2, -612686.0, -718592.9, 7430.116, 0.0039459686, -0.0007415949, -612167.25, -18528.12, 0.0, 5.0216203, 4.952696 
8.345655e+2, 2.4437481e+2, -573672.06, -686382.4, 5179.309, 0.005465778, 0.0069524185, -573434.56, -28302.297, 0.0, 5.020424, 4.947303 
8.344583e+2, 2.4932134e+2, -527913.5, -638253.56, 4803.9316, 0.00602951, 0.0060160668, -527704.7, -31049.953, 0.0, 5.0190635, 4.947498 
8.343512e+2, 2.5426784e+2, -482382.0, -590643.06, 4520.472, 0.0064740255, 0.005018065, -482193.6, -34016.37, 0.0, 5.017701, 4.9475045 
8.342441e+2, 2.592143e+2, -437254.3, -544002.6, 4452.803, 0.0066994876, 0.0036654188, -437068.88, -37368.52, 0.0, 5.0163436, 4.9471607 
8.3413625e+2, 2.6415733e+2, -399458.22, -514348.66, 2897.9053, 0.0054938216, 0.008983853, -399385.16, -48126.14, 0.0, 5.015013, 4.9408216 
8.340269e+2, 2.690974e+2, -352757.34, -463817.8, 2291.3848, 0.0044624144, -0.0010609814, -352710.1, -49863.105, 0.0, 5.01356, 4.9418464 
8.339175e+2, 2.7403745e+2, -307349.03, -416190.97, 1959.0159, 0.0034835013, -0.01149715, -307313.78, -52878.82, 0.0, 5.0121, 4.941849 
8.338081e+2, 2.7897766e+2, -261964.55, -368435.8, 1856.1069, 0.0024887747, -0.020256042, -261932.2, -55911.152, 0.0, 5.0105977, 4.9419065 
8.3369887e+2, 2.8391755e+2, -225260.92, -338336.8, 1600.52, 0.0010589724, 0.00392199, -225238.27, -67627.81, 0.0, 5.008604, 4.935922 
8.335887e+2, 2.8885648e+2, -179964.2, -287271.7, 1428.88, -0.00025463157, 0.026521733, -179945.17, -70736.195, 0.0, 5.006389, 4.937424 
8.334787e+2, 2.937953e+2, -136507.69, -240428.2, 1532.8145, -0.001598313, 0.047414947, -136485.08, -75676.27, 0.0, 5.0041676, 4.93742 
8.333686e+2, 2.9873368e+2, -93553.914, -194783.77, 1192.814, -0.0027627677, 0.065458275, -93539.86, -81127.54, 0.0, 5.001941, 4.936976 
8.332599e+2, 3.0367652e+2, -43634.1, -105085.69, 1620.151, 0.0011291894, 0.014598242, -43591.418, -43591.418, 0.0, 5.000697, 4.9610023 
8.3315367e+2, 3.086282e+2, -42623.156, -100040.04, 1023.9485, 0.0084119765, -0.102643415, -42604.902, -42604.902, 0.0, 5.0001645, 4.963068 
8.330475e+2, 3.1358027e+2, -44031.074, -100755.82, 239.40456, 0.015232738, -0.2168262, -44030.063, -44030.063, 0.0, 4.999639, 4.963045 
8.329357e+2, 3.1856713e+2, -34306.41, -69953.695, -2609.3325, -0.021633992, 0.04367666, -34116.42, -34116.42, 0.0, 4.998073, 4.97481 
8.420723e+2, 1.2527159e+2, -1625677.9, -1718384.3, 3421.7024, -0.003222877, 0.010492188, -1625551.8, 86786.7, 0.0, 5.045558, 4.984534 
8.4196466e+2, 1.3025434e+2, -1581099.6, -1671735.6, 3649.0835, -0.0019716471, 0.0045680394, -1580952.9, 82553.984, 0.0, 5.0441737, 4.9845257 
8.4185696e+2, 1.3523711e+2, -1536604.3, -1625116.0, 3865.9167, -0.00075875083, -0.0012379434, -1536435.8, 78239.64, 0.0, 5.0427527, 4.984517 
8.4174925e+2, 1.4021997e+2, -1493786.0, -1581753.9, 4525.315, 0.00038645376, -0.004821653, -1493553.9, 72289.14, 0.0, 5.0412946, 4.9834223 
8.4164435e+2, 1.452006e+2, -1454820.8, -1546898.3, 7783.506, 0.0027431515, 0.0029254924, -1454167.5, 62865.22, 0.0, 5.0400276, 4.979265 
8.4154093e+2, 1.5017843e+2, -1408961.4, -1499524.6, 7971.133, 0.0038624161, -0.0016528686, -1408265.1, 59984.613, 0.0, 5.0390253, 4.9792647 
8.414376e+2, 1.5515627e+2, -1363102.1, -1452142.3, 8161.657, 0.0049399803, -0.006302599, -1362360.3, 57106.58, 0.0, 5.0380163, 4.9792643 
8.413341e+2, 1.601342e+2, -1318406.8, -1407115.4, 8454.528, 0.005901666, -0.009346264, -1317608.3, 53074.813, 0.0, 5.036992, 4.978473 
8.412318e+2, 1.6510934e+2, -1280198.4, -1375565.0, 10484.995, 0.0067626843, -0.0020612804, -1279059.1, 42868.355, 0.0, 5.035999, 4.9730873 
8.4113044e+2, 1.7008163e+2, -1233837.3, -1327916.8, 10652.307, 0.0072519155, 0.00039642997, -1232646.3, 40553.574, 0.0, 5.0351267, 4.973076 
8.410291e+2, 1.7505392e+2, -1187441.8, -1280244.1, 10828.526, 0.0077095116, 0.0028307647, -1186195.0, 38277.383, 0.0, 5.0342607, 4.9730644 
8.4092766e+2, 1.8002614e+2, -1142253.4, -1235272.0, 10684.381, 0.008112804, 0.0054016747, -1141042.0, 34703.605, 0.0, 5.033413, 4.972133 
8.4082615e+2, 1.8499431e+2, -1103918.6, -1204871.4, 11638.179, 0.008832664, 0.010092162, -1102594.3, 24464.121, 0.0, 5.0325875, 4.9662137 
8.407251e+2, 1.8995899e+2, -1057201.4, -1156984.9, 11577.594, 0.008463252, 0.0053944406, -1055875.6, 22529.67, 0.0, 5.031794, 4.9662046 
8.406241e+2, 1.9492367e+2, -1010476.5, -1109087.3, 11512.704, 0.0080892, 0.00068816316, -1009150.25, 20602.064, 0.0, 5.0309973, 4.966195 
8.40523e+2, 1.9988842e+2, -964672.4, -1063247.9, 10840.108, 0.007712674, -0.0028952057, -963494.4, 17604.02, 0.0, 5.0302033, 4.965482 
8.4042037e+2, 2.0485032e+2, -926137.4, -1032777.2, 10355.279, 0.007862964, 0.0047783754, -925141.1, 7330.5874, 0.0, 5.029333, 4.959517 
8.4031755e+2, 2.0980887e+2, -879637.2, -984916.9, 10246.73, 0.0082604615, 0.005308553, -878649.1, 5228.289, 0.0, 5.028419, 4.9595113 
8.4021485e+2, 2.1476743e+2, -833162.56, -937059.8, 10142.928, 0.008582811, 0.0058510834, -832181.6, 3101.5688, 0.0, 5.0274906, 4.9595056 
8.401121e+2, 2.1972594e+2, -787552.06, -891058.3, 9951.898, 0.008642903, 0.006295412, -786603.9, 85.75985, 0.0, 5.0265465, 4.958864 
8.400076e+2, 2.2468081e+2, -749435.0, -861268.1, 8237.487, 0.0066346745, 0.010718516, -748831.5, -10698.765, 0.0, 5.0255127, 4.952667 
8.399022e+2, 2.2963214e+2, -703522.5, -813514.8, 7902.1924, 0.0055939313, 0.00680759, -702957.7, -13346.91, 0.0, 5.024326, 4.952704 
8.3979684e+2, 2.3458348e+2, -657662.6, -765860.2, 7562.732, 0.004546512, 0.002866594, -657136.56, -16047.807, 0.0, 5.02313, 4.952703 
8.396914e+2, 2.395349e+2, -612241.4, -719165.2, 7301.8447, 0.0036389832, -0.00050098455, -611745.06, -19179.398, 0.0, 5.021928, 4.952363 
8.395848e+2, 2.444842e+2, -573215.7, -686899.25, 4794.9336, 0.005583068, 0.008126474, -573013.75, -28953.027, 0.0, 5.02072, 4.946996 
8.394762e+2, 2.494304e+2, -527465.25, -638789.8, 4381.792, 0.005789299, 0.007310363, -527293.06, -31707.354, 0.0, 5.0193586, 4.9471855 
8.3936775e+2, 2.5437662e+2, -481970.63, -591201.0, 4034.3801, 0.0059025446, 0.00648783, -481821.8, -34711.29, 0.0, 5.0179825, 4.947191 
8.392592e+2, 2.5932276e+2, -436984.13, -544725.5, 3980.8677, 0.0057923268, 0.005043611, -436837.22, -38200.785, 0.0, 5.016594, 4.9468045 
8.391499e+2, 2.6426503e+2, -399335.56, -514981.4, 2213.9004, 0.004183596, 0.006499226, -399293.22, -49090.97, 0.0, 5.015173, 4.9405403 
8.390391e+2, 2.692043e+2, -352986.6, -464701.97, 1661.0159, 0.0031253488, -0.0081927525, -352961.88, -51163.6, 0.0, 5.013611, 4.941524 
8.389282e+2, 2.7414352e+2, -307841.28, -417194.34, 1340.0845, 0.0020914015, -0.02338791, -307824.88, -54430.38, 0.0, 5.012056, 4.941526 
8.388173e+2, 2.790831e+2, -262533.84, -369253.53, 1067.0107, 0.0009822457, -0.035581037, -262523.16, -57535.723, 0.0, 5.0104823, 4.9416795 
8.387061e+2, 2.8402454e+2, -224934.13, -337831.0, 293.62482, -0.0004064517, 0.0036557065, -224933.38, -68371.22, 0.0, 5.0086255, 4.9361057 
8.3859384e+2, 2.8896576e+2, -179234.86, -286635.13, -45.83071, -0.0014867536, 0.04719953, -179234.84, -71096.21, 0.0, 5.006565, 4.937588 
8.384815e+2, 2.939069e+2, -135481.88, -239656.31, -79.751656, -0.0026895737, 0.089515716, -135481.81, -75765.914, 0.0, 5.0044513, 4.937587 
8.383692e+2, 2.9884723e+2, -93120.08, -195684.81, -379.2624, -0.0037778288, 0.12647781, -93118.67, -81818.16, 0.0, 5.002281, 4.936523 
8.382595e+2, 3.0378368e+2, -43955.215, -107457.266, 998.18555, 0.0017968918, 0.017138993, -43939.527, -43939.527, 0.0, 5.0009766, 4.9600377 
8.3815295e+2, 3.0872557e+2, -43420.477, -102649.16, 556.3042, 0.011125983, -0.19401206, -43415.25, -43415.25, 0.0, 5.000277, 4.962087 
8.380464e+2, 3.1366765e+2, -45400.87, -103611.195, -71.47516, 0.019722758, -0.4028668, -45400.78, -45400.78, 0.0, 4.999543, 4.9620633 
8.3793384e+2, 3.1871194e+2, -15364.2705, -26039.295, -2136.3174, -0.010890535, 0.4306265, -14952.619, -14952.619, 0.0, 4.998099, 4.9908886 
8.4711605e+2, 1.2538286e+2, -1628517.9, -1718215.0, 6118.9077, -0.0023438355, 0.004750066, -1628102.4, 83143.266, 0.0, 5.0443606, 4.9851303 
8.47007e+2, 1.3036624e+2, -1583843.8, -1671537.1, 6452.994, -0.0011208341, 0.0005434972, -1583371.4, 79037.17, 0.0, 5.0430117, 4.985114 
8.468979e+2, 1.353496e+2, -1539144.6, -1624835.8, 6782.2007, -0.00023173222, -0.0037981728, -1538611.3, 74960.69, 0.0, 5.0416617, 4.985098 
8.4678876e+2, 1.4033303e+2, -1495997.4, -1581317.1, 7633.909, 0.0003827508, -0.0061012604, -1495319.8, 69414.8, 0.0, 5.040315, 4.983999 
8.466828e+2, 1.4531416e+2, -1456698.1, -1546530.9, 11329.121, 0.0029922787, 0.0029286258, -1455291.5, 60628.387, 0.0, 5.03923, 4.9797187 
8.4657854e+2, 1.5029249e+2, -1410215.8, -1498834.6, 11588.742, 0.0044985362, -0.0003022906, -1408725.4, 58407.543, 0.0, 5.0384383, 4.9797215 
8.464743e+2, 1.5527079e+2, -1363718.0, -1451124.4, 11848.5, 0.005955399, -0.0035999643, -1362140.3, 56205.855, 0.0, 5.037647, 4.979725 
8.4637e+2, 1.6024916e+2, -1318246.8, -1405531.1, 12206.057, 0.0071833, -0.0057801562, -1316572.0, 52986.47, 0.0, 5.0368485, 4.979017 
8.4626687e+2, 1.652245e+2, -1279528.0, -1374026.1, 14458.784, 0.007769867, -0.00007259437, -1277365.3, 43435.082, 0.0, 5.036095, 4.9735036 
8.4616464e+2, 1.7019694e+2, -1232548.3, -1326040.3, 14701.7705, 0.007813821, 0.00090945174, -1230290.9, 41779.664, 0.0, 5.035436, 4.973503 
8.4606254e+2, 1.7516936e+2, -1185555.4, -1278042.9, 14946.627, 0.0077743605, 0.0019470205, -1183199.9, 40140.89, 0.0, 5.034777, 4.9735026 
8.459603e+2, 1.8014173e+2, -1139907.6, -1233020.6, 14879.753, 0.00769437, 0.0034636348, -1137587.5, 37024.176, 0.0, 5.0341296, 4.972493 
8.458581e+2, 1.8511008e+2, -1101289.9, -1203007.4, 15939.664, 0.008411254, 0.008872239, -1098850.5, 27072.793, 0.0, 5.033503, 4.966353 
8.4575635e+2, 1.9007486e+2, -1054042.6, -1154874.3, 15961.4375, 0.007931268, 0.0052258726, -1051576.4, 25693.271, 0.0, 5.032897, 4.966343 
8.4565467e+2, 1.9503964e+2, -1006783.44, -1106730.0, 15983.262, 0.0074174097, 0.0015392789, -1004289.6, 24326.43, 0.0, 5.0322905, 4.9663324 
8.4555286e+2, 2.0000449e+2, -960384.06, -1060568.6, 15404.455, 0.0069428002, -0.0012142352, -958068.94, 21892.705, 0.0, 5.0316978, 4.96564 
8.4544945e+2, 2.0496622e+2, -921254.75, -1030148.25, 14941.563, 0.0071393587, 0.005470874, -919241.8, 12094.383, 0.0, 5.031094, 4.9595394 
8.45346e+2, 2.0992455e+2, -874137.94, -981994.0, 14848.862, 0.007985864, 0.004938822, -872131.0, 10612.788, 0.0, 5.030401, 4.9595375 
8.452425e+2, 2.148829e+2, -827007.4, -933827.3, 14755.781, 0.00890722, 0.0044807983, -825006.5, 9144.854, 0.0, 5.0297084, 4.959535 
8.4513897e+2, 2.198412e+2, -780820.75, -887728.44, 14523.704, 0.009628716, 0.0041243597, -778882.8, 6676.698, 0.0, 5.029006, 4.958824 
8.450336e+2, 2.247959e+2, -742449.94, -858174.6, 12706.765, 0.0076966207, 0.009541594, -741071.1, -4066.8547, 0.0, 5.0281196, 4.9524918 
8.4492695e+2, 2.2974698e+2, -696211.4, -810348.94, 12444.057, 0.0061751013, 0.0068342383, -694870.4, -6385.595, 0.0, 5.027069, 4.9524975 
8.448204e+2, 2.3469807e+2, -649960.3, -762521.0, 12180.967, 0.004724558, 0.004089922, -648657.25, -8691.994, 0.0, 5.0260186, 4.952498 
8.4471387e+2, 2.3964922e+2, -604131.06, -715638.2, 11988.556, 0.0035354556, 0.0016472887, -602856.7, -11411.854, 0.0, 5.0249677, 4.9521613 
8.44606e+2, 2.4459793e+2, -565085.0, -683557.4, 9314.299, 0.005064512, 0.008350557, -564357.2, -21411.348, 0.0, 5.0238113, 4.946708 
8.4449595e+2, 2.4954346e+2, -519368.9, -635557.7, 8799.477, 0.0048774644, 0.005489387, -518706.28, -24228.756, 0.0, 5.0224543, 4.9468694 
8.4438604e+2, 2.54489e+2, -473848.75, -588007.5, 8346.792, 0.0048385775, 0.002654889, -473241.7, -27232.617, 0.0, 5.021095, 4.946866 
8.4427613e+2, 2.594345e+2, -428764.88, -541379.4, 8176.248, 0.0047722957, -0.00044319476, -428174.34, -30633.059, 0.0, 5.0197177, 4.9465384 
8.441652e+2, 2.6437676e+2, -391400.5, -511436.63, 6188.016, 0.0026788076, 0.003966093, -391082.34, -41975.42, 0.0, 5.0181293, 4.940423 
8.440526e+2, 2.6931617e+2, -346038.06, -461699.34, 5642.1157, 0.0013403486, -0.0063924002, -345763.5, -45062.17, 0.0, 5.016234, 4.9413733 
8.4393996e+2, 2.7425548e+2, -301878.63, -414654.4, 5352.575, 0.000009263235, -0.017712414, -301625.16, -49328.746, 0.0, 5.0143294, 4.941373 
8.4382725e+2, 2.7919504e+2, -257415.22, -367007.28, 5114.3364, -0.0012551615, -0.027102867, -257177.08, -53287.785, 0.0, 5.0124354, 4.9415693 
8.437144e+2, 2.841353e+2, -219458.64, -335591.7, 3982.3333, -0.0009243883, 0.003827394, -219322.23, -63846.938, 0.0, 5.010737, 4.935926 
8.436005e+2, 2.890752e+2, -172901.75, -284001.28, 3194.7634, 0.00032046295, 0.03727583, -172809.95, -65744.79, 0.0, 5.008984, 4.937424 
8.4348655e+2, 2.9401526e+2, -128187.24, -236617.08, 2715.058, 0.0014521978, 0.072001345, -128119.3, -69466.05, 0.0, 5.0072227, 4.937424 
8.433725e+2, 2.9895484e+2, -84470.51, -191403.16, 2233.6614, 0.0022036785, 0.103104286, -84423.875, -74177.92, 0.0, 5.005421, 4.936654 
8.432604e+2, 3.0389255e+2, -39308.656, -106354.33, 3365.0073, 0.0024812683, 0.011715554, -39140.19, -39140.19, 0.0, 5.0029864, 4.9595017 
8.431512e+2, 3.0883658e+2, -43908.18, -103773.195, 2573.283, 0.004310758, -0.16645618, -43797.77, -43797.77, 0.0, 5.000419, 4.961535 
8.430421e+2, 3.137808e+2, -50871.645, -106895.72, 1562.4144, 0.0065389955, -0.3432596, -50828.105, -50828.105, 0.0, 4.9978666, 4.9615064 
8.429302e+2, 3.188135e+2, 165.59694, 23378.076, -2347.1895, -0.004943915, 0.33972263, 23613.04, 23613.04, 0.0, 4.9956145, 5.010255 
8.521592e+2, 1.2549646e+2, -1627696.3, -1716637.0, 5068.1597, -0.0024006062, -0.000045852576, -1627408.4, 82721.51, 0.0, 5.0443664, 4.985659 
8.5204875e+2, 1.3048051e+2, -1583011.4, -1669958.5, 5411.057, -0.0010693719, -0.002961553, -1582675.9, 78611.14, 0.0, 5.043022, 4.9856424 
8.5193837e+2, 1.3546449e+2, -1538301.8, -1623256.9, 5749.0767, -0.00023223973, -0.006135435, -1537914.4, 74530.31, 0.0, 5.041676, 4.985626 
8.5182786e+2, 1.4044854e+2, -1495168.1, -1579781.5, 6688.024, 0.00020275496, -0.0072693634, -1494642.8, 68959.11, 0.0, 5.0403333, 4.984511 
8.517209e+2, 1.4543027e+2, -1456149.9, -1545453.0, 10718.3955, 0.0030972236, 0.0030842999, -1454881.5, 59900.758, 0.0, 5.0392327, 4.980079 
8.5161597e+2, 1.5040909e+2, -1409672.6, -1497761.3, 10980.83, 0.0049939738, 0.0012043392, -1408324.5, 57666.617, 0.0, 5.0384407, 4.980082 
8.5151094e+2, 1.5538788e+2, -1363180.0, -1450055.5, 11243.401, 0.006820721, -0.0007365391, -1361748.5, 55451.625, 0.0, 5.0376487, 4.9800854 
8.5140586e+2, 1.6036673e+2, -1317598.9, -1404225.6, 11602.324, 0.008291645, -0.0020760316, -1316071.9, 52336.395, 0.0, 5.03685, 4.979459 
8.51302e+2, 1.653423e+2, -1279072.9, -1373075.4, 13957.158, 0.008552472, 0.0019757468, -1277044.4, 42602.777, 0.0, 5.0360923, 4.9738283 
8.511991e+2, 1.7031488e+2, -1232098.0, -1325087.9, 14203.374, 0.008064868, 0.0013573194, -1229976.9, 40938.13, 0.0, 5.0354323, 4.9738293 
8.510963e+2, 1.7528747e+2, -1185110.0, -1277088.8, 14451.461, 0.007453832, 0.0008137351, -1182892.9, 39290.098, 0.0, 5.034772, 4.9738307 
8.5099334e+2, 1.8026005e+2, -1139603.8, -1232362.0, 14402.231, 0.0068760067, 0.0011552661, -1137419.0, 36032.547, 0.0, 5.0341234, 4.9727225 
8.508905e+2, 1.8522854e+2, -1101266.6, -1202918.4, 15483.664, 0.007667849, 0.0073522143, -1098960.5, 25801.172, 0.0, 5.0334935, 4.9663887 
8.507882e+2, 1.901935e+2, -1054018.8, -1154783.3, 15508.335, 0.0070721395, 0.0049238834, -1051685.9, 24420.975, 0.0, 5.0328875, 4.966379 
8.506858e+2, 1.9515844e+2, -1006758.7, -1106637.1, 15533.057, 0.0063914657, 0.0024554818, -1004398.75, 23053.438, 0.0, 5.0322814, 4.9663696 
8.505834e+2, 2.0012341e+2, -960320.4, -1060397.1, 14978.099, 0.0057716346, 0.0007018705, -958126.7, 20669.967, 0.0, 5.0316896, 4.9657035 
8.5047936e+2, 2.0508504e+2, -921385.7, -1030442.75, 14426.61, 0.006099761, 0.006361523, -919509.56, 10662.544, 0.0, 5.0310903, 4.959445 
8.5037524e+2, 2.1004315e+2, -874267.9, -982288.8, 14336.638, 0.007499648, 0.0047275294, -872397.5, 9184.025, 0.0, 5.030398, 4.959442 
8.502711e+2, 2.1500129e+2, -827136.2, -934122.4, 14246.284, 0.008937228, 0.0031641298, -825271.7, 7719.183, 0.0, 5.029705, 4.9594398 
8.50167e+2, 2.1995938e+2, -781020.1, -888180.8, 13944.103, 0.01005541, 0.0019453235, -779235.4, 5165.322, 0.0, 5.029002, 4.958675 
8.500606e+2, 2.2491397e+2, -742830.3, -859065.2, 11924.935, 0.008370131, 0.008737412, -741619.5, -5772.9595, 0.0, 5.028119, 4.9521914 
8.499529e+2, 2.2986488e+2, -696596.2, -811252.6, 11664.059, 0.006327489, 0.007391911, -695421.6, -8092.8833, 0.0, 5.0270686, 4.952192 
8.4984523e+2, 2.3481579e+2, -650342.0, -763420.9, 11403.304, 0.0043260986, 0.0060159713, -649203.5, -10392.609, 0.0, 5.026018, 4.9521923 
8.497376e+2, 2.3976672e+2, -604497.9, -716517.25, 11186.415, 0.0026092276, 0.0045162826, -603391.75, -13099.16, 0.0, 5.0249686, 4.9518614 
8.496283e+2, 2.4471475e+2, -565642.3, -684991.06, 8307.884, 0.0034950937, 0.008278355, -565066.8, -23266.266, 0.0, 5.0238256, 4.946216 
8.495171e+2, 2.4965951e+2, -519939.88, -637031.1, 7791.446, 0.0033845804, 0.0029429311, -519423.72, -26083.758, 0.0, 5.022469, 4.9463615 
8.4940577e+2, 2.5460428e+2, -474414.66, -589475.9, 7342.1665, 0.003379724, -0.0023364914, -473948.03, -29068.8, 0.0, 5.02111, 4.946358 
8.492945e+2, 2.5954914e+2, -429190.4, -542532.56, 7081.9043, 0.0032412072, -0.0071428623, -428749.63, -32331.41, 0.0, 5.019732, 4.9461403 
8.491819e+2, 2.6449165e+2, -391625.28, -512204.2, 4830.9526, 0.0006274586, 0.0026988003, -391432.03, -43451.01, 0.0, 5.0181513, 4.9401603 
8.4906733e+2, 2.6943147e+2, -346276.34, -462524.06, 4210.839, -0.0008478126, -0.00056729844, -346124.03, -46553.266, 0.0, 5.0162582, 4.94109 
8.489528e+2, 2.7437118e+2, -302113.4, -415479.9, 3925.144, -0.0023924778, -0.0047813617, -301977.66, -50816.44, 0.0, 5.0143547, 4.9410887 
8.4883827e+2, 2.7931097e+2, -257722.8, -368014.56, 3768.112, -0.0036673995, -0.008908539, -257594.22, -54842.824, 0.0, 5.0124626, 4.9412193 
8.487239e+2, 2.8424895e+2, -219849.3, -336866.3, 2660.634, -0.0008867865, 0.003409502, -219788.83, -65428.848, 0.0, 5.0107727, 4.9354806 
8.4860843e+2, 2.8918582e+2, -173291.83, -285312.9, 1867.2968, 0.0034137126, 0.011515797, -173260.7, -67281.06, 0.0, 5.009025, 4.936962 
8.4849304e+2, 2.9412287e+2, -128561.766, -237919.52, 1406.2488, 0.0075586466, 0.020897675, -128543.69, -70946.125, 0.0, 5.007268, 4.9369626 
8.4837747e+2, 2.9905987e+2, -84364.77, -191545.64, 971.0023, 0.010291418, 0.030022476, -84355.98, -75140.445, 0.0, 5.005458, 4.936609 
8.482621e+2, 3.0400386e+2, -39790.414, -107957.63, 1303.5842, 0.001408624, 0.007441381, -39765.496, -39765.496, 0.0, 5.003029, 4.9589367 
8.4814864e+2, 3.089574e+2, -44322.633, -105316.336, 838.6305, -0.009958172, -0.06392417, -44311.105, -44311.105, 0.0, 5.00048, 4.960985 
8.480352e+2, 3.1391105e+2, -51249.824, -108439.086, 127.11962, -0.02131403, -0.13422832, -51249.543, -51249.543, 0.0, 4.997944, 4.9609504 
8.479235e+2, 3.1891158e+2, -19005.902, -22426.605, 927.1359, -0.01667479, 0.25363994, -18770.777, -18770.777, 0.0, 4.995783, 4.9932694 
8.572024e+2, 1.2561013e+2, -1626876.8, -1715057.1, 4020.0483, -0.002246524, -0.0044899313, -1626693.9, 82319.79, 0.0, 5.0443726, 4.986187 
8.570906e+2, 1.305948e+2, -1582181.3, -1668378.3, 4371.7607, -0.000817449, -0.006216564, -1581960.1, 78205.086, 0.0, 5.0430326, 4.9861703 
8.569788e+2, 1.3557942e+2, -1537461.0, -1621676.3, 4718.597, -0.000042734788, -0.008324422, -1537197.5, 74119.836, 0.0, 5.041691, 4.9861536 
8.5686696e+2, 1.4056411e+2, -1494365.8, -1578298.8, 5741.461, 0.00015476756, -0.008325535, -1493974.9, 68494.016, 0.0, 5.040352, 4.9850044 
8.567591e+2, 1.4554639e+2, -1455602.3, -1544375.1, 10107.606, 0.0031833583, 0.0033967814, -1454466.0, 59178.46, 0.0, 5.0392356, 4.9804397 
8.5665333e+2, 1.505257e+2, -1409130.3, -1496688.0, 10372.854, 0.005480122, 0.0028009804, -1407918.1, 56930.98, 0.0, 5.038443, 4.980442 
8.565476e+2, 1.55505e+2, -1362642.6, -1448986.8, 10638.236, 0.007686267, 0.0021501314, -1361351.3, 54702.63, 0.0, 5.0376506, 4.980445 
8.5644174e+2, 1.6048433e+2, -1316973.6, -1402967.9, 10997.808, 0.00941942, 0.0016128814, -1315589.4, 51668.438, 0.0, 5.0368514, 4.979885 
8.563371e+2, 1.6546011e+2, -1278618.5, -1372124.3, 13453.458, 0.009394305, 0.0040801363, -1276721.4, 41772.47, 0.0, 5.036089, 4.9741526 
8.5623354e+2, 1.7043287e+2, -1231648.5, -1324135.1, 13702.903, 0.008333235, 0.0018014889, -1229661.0, 40098.516, 0.0, 5.035428, 4.9741554 
8.5612994e+2, 1.754056e+2, -1184665.4, -1276134.4, 13954.221, 0.007108719, -0.0003829681, -1182583.9, 38441.14, 0.0, 5.034766, 4.9741583 
8.560263e+2, 1.8037835e+2, -1139321.9, -1231750.5, 13921.112, 0.0060320836, -0.001148987, -1137270.8, 35020.617, 0.0, 5.034117, 4.972935 
8.559229e+2, 1.8534704e+2, -1101244.1, -1202828.8, 15027.362, 0.0069717523, 0.0059320144, -1099067.8, 24532.148, 0.0, 5.033484, 4.966424 
8.558199e+2, 1.9031213e+2, -1053995.4, -1154691.8, 15054.932, 0.006236463, 0.00468621, -1051792.8, 23151.264, 0.0, 5.0328784, 4.9664154 
8.5571694e+2, 1.9527723e+2, -1006734.56, -1106543.6, 15082.552, 0.0053651202, 0.0034005074, -1004505.2, 21783.014, 0.0, 5.032272, 4.9664063 
8.556139e+2, 2.0024234e+2, -960267.94, -1060249.8, 14553.846, 0.004588481, 0.0026110546, -958192.5, 19439.11, 0.0, 5.031681, 4.965759 
8.5550934e+2, 2.0520386e+2, -921517.2, -1030737.0, 13912.326, 0.0051318915, 0.007282499, -919772.9, 9235.032, 0.0, 5.031087, 4.9593496 
8.5540456e+2, 2.1016176e+2, -874398.3, -982583.4, 13825.081, 0.0070919893, 0.0045049977, -872659.5, 7759.6055, 0.0, 5.0303946, 4.959347 
8.5529983e+2, 2.1511967e+2, -827265.6, -934417.2, 13737.458, 0.009052623, 0.0017946777, -825532.44, 6297.87, 0.0, 5.0297017, 4.959344 
8.551949e+2, 2.2007757e+2, -781238.7, -888674.4, 13360.838, 0.0105494885, -0.00022220143, -779602.06, 3639.774, 0.0, 5.0289984, 4.958511 
8.5508764e+2, 2.2503206e+2, -743218.56, -859972.75, 11142.367, 0.009038287, 0.008056934, -742164.7, -7476.009, 0.0, 5.0281186, 4.9518843 
8.549788e+2, 2.299828e+2, -696981.25, -812156.44, 10883.826, 0.0064584007, 0.008032483, -695961.75, -9789.171, 0.0, 5.027068, 4.951885 
8.548701e+2, 2.3493353e+2, -650723.9, -764320.9, 10625.407, 0.0038900564, 0.007984107, -649738.56, -12082.116, 0.0, 5.0260177, 4.9518857 
8.547613e+2, 2.3988423e+2, -604880.06, -717435.75, 10366.762, 0.001639289, 0.0073189563, -603933.2, -14792.85, 0.0, 5.02497, 4.9515476 
8.546508e+2, 2.4483156e+2, -566210.4, -686443.8, 7323.016, 0.00192602, 0.008132788, -565766.0, -25110.67, 0.0, 5.0238404, 4.945717 
8.5453814e+2, 2.4977556e+2, -520511.22, -638504.8, 6783.3423, 0.0018746686, 0.00026669636, -520122.53, -27919.994, 0.0, 5.022485, 4.945853 
8.544255e+2, 2.547196e+2, -474980.9, -590944.44, 6337.469, 0.0018855084, -0.0075183976, -474635.6, -30886.035, 0.0, 5.021126, 4.9458504 
8.5431284e+2, 2.5966376e+2, -429648.28, -543756.44, 6004.4976, 0.0016289997, -0.013818686, -429333.2, -34038.156, 0.0, 5.0197463, 4.9457173 
8.541986e+2, 2.6460657e+2, -391829.78, -512928.53, 3454.3928, -0.0014371581, 0.001967991, -391731.3, -44876.75, 0.0, 5.0181737, 4.939912 
8.5408205e+2, 2.695468e+2, -346514.66, -463349.1, 2781.2688, -0.0030317388, 0.005717086, -346448.5, -48008.793, 0.0, 5.0162835, 4.9408064 
8.539656e+2, 2.7448696e+2, -302348.2, -416305.75, 2499.4204, -0.0047721597, 0.008529923, -302293.4, -52267.836, 0.0, 5.0143805, 4.940804 
8.538492e+2, 2.7942687e+2, -258073.39, -369121.6, 2417.662, -0.0059954287, 0.009010554, -258020.77, -56406.977, 0.0, 5.01249, 4.940834 
8.5373336e+2, 2.8436244e+2, -220267.14, -338203.6, 1349.6975, -0.00077206286, 0.0013741323, -220251.69, -67005.266, 0.0, 5.010809, 4.935012 
8.536165e+2, 2.8929627e+2, -173681.56, -286624.6, 540.6195, 0.0065977895, -0.01633107, -173678.97, -68783.02, 0.0, 5.009067, 4.936499 
8.5349953e+2, 2.9423028e+2, -128935.91, -239222.05, 98.23771, 0.013766285, -0.03276344, -128935.82, -72392.086, 0.0, 5.0073137, 4.9364996 
8.533824e+2, 2.9916495e+2, -85037.64, -193496.95, -376.6386, 0.018173479, -0.04208965, -85036.336, -76851.46, 0.0, 5.0054936, 4.9359174 
8.532637e+2, 3.041157e+2, -40239.832, -109483.45, -714.6825, -0.00021648686, 0.009000127, -40232.457, -40232.457, 0.0, 5.0030737, 4.958392 
8.53146e+2, 3.0907866e+2, -44738.11, -106857.64, -880.6058, -0.024599288, 0.036571987, -44725.63, -44725.63, 0.0, 5.0005426, 4.9604278 
8.5302836e+2, 3.1404164e+2, -51628.98, -109980.81, -1292.7587, -0.04938282, 0.06490497, -51600.35, -51600.35, 0.0, 4.9980226, 4.9603868 
8.5291797e+2, 3.1901377e+2, -40424.848, -73505.5, 5497.6294, -0.019860545, 0.21578765, -39535.137, -39535.137, 0.0, 4.9959617, 4.9744525 
8.622454e+2, 1.2572415e+2, -1628113.6, -1714282.5, 3218.3586, -0.0017816477, -0.005190799, -1627993.5, 79902.49, 0.0, 5.0436444, 4.9868 
8.6213225e+2, 1.3070947e+2, -1583099.6, -1667425.0, 3728.4883, -0.00046569496, -0.0068242326, -1582935.1, 76106.31, 0.0, 5.0424104, 4.9867887 
8.620191e+2, 1.3569474e+2, -1538134.3, -1620581.1, 4239.9414, 0.00036414427, -0.008633597, -1537916.8, 72270.445, 0.0, 5.041152, 4.986777 
8.61906e+2, 1.406801e+2, -1494933.4, -1577223.8, 5509.6533, 0.00056872756, -0.008079126, -1494566.1, 66766.25, 0.0, 5.0398703, 4.9855924 
8.617971e+2, 1.4566293e+2, -1456262.0, -1543661.0, 10366.6455, 0.0034035482, 0.0043091415, -1455049.3, 57453.387, 0.0, 5.0387964, 4.9808855 
8.6169064e+2, 1.5064275e+2, -1409712.0, -1495959.4, 10741.948, 0.0057979706, 0.004328627, -1408394.3, 55308.516, 0.0, 5.0380335, 4.9808803 
8.615841e+2, 1.5562253e+2, -1363165.8, -1448251.6, 11106.996, 0.008174077, 0.004353101, -1361739.8, 53163.395, 0.0, 5.0372643, 4.9808755 
8.614775e+2, 1.606023e+2, -1317415.0, -1402179.4, 11550.331, 0.010104537, 0.00422475, -1315869.4, 50233.48, 0.0, 5.036492, 4.980321 
8.613721e+2, 1.655783e+2, -1278923.6, -1371537.3, 14077.442, 0.009877949, 0.0055865436, -1276831.1, 40505.145, 0.0, 5.035841, 4.974463 
8.6126786e+2, 1.705512e+2, -1231609.5, -1323400.5, 14248.236, 0.008381019, 0.0020790778, -1229448.8, 39151.395, 0.0, 5.0353, 4.974461 
8.611636e+2, 1.755241e+2, -1184369.3, -1275294.9, 14400.329, 0.006824252, -0.0013259962, -1182143.1, 37720.684, 0.0, 5.0347285, 4.9744596 
8.6105937e+2, 1.8049699e+2, -1139000.1, -1231104.3, 14289.465, 0.0056391153, -0.002842739, -1136834.3, 34294.066, 0.0, 5.0341306, 4.973149 
8.609553e+2, 1.8546587e+2, -1100983.8, -1202494.0, 15490.905, 0.006701982, 0.0049454872, -1098672.4, 23762.805, 0.0, 5.0335436, 4.9665027 
8.6085176e+2, 1.904311e+2, -1053592.3, -1154292.0, 15587.81, 0.0057121185, 0.0045882356, -1051234.6, 22543.447, 0.0, 5.032989, 4.966492 
8.607482e+2, 1.9539635e+2, -1006257.4, -1106112.3, 15674.384, 0.0046738647, 0.0042342236, -1003854.75, 21266.229, 0.0, 5.0324106, 4.9664817 
8.6064446e+2, 2.003616e+2, -959768.94, -1059825.0, 15215.849, 0.0038288652, 0.004183951, -957506.2, 18957.057, 0.0, 5.0318317, 4.9658284 
8.605393e+2, 2.0532295e+2, -921099.3, -1030744.9, 14441.293, 0.004390893, 0.008007695, -919229.2, 8611.548, 0.0, 5.031285, 4.959254 
8.604339e+2, 2.1028063e+2, -873840.94, -982538.8, 14277.094, 0.00659436, 0.004238419, -871997.0, 7257.0493, 0.0, 5.030641, 4.9592476 
8.6032844e+2, 2.1523832e+2, -826639.8, -934353.6, 14106.517, 0.008853316, 0.00051204296, -824823.06, 5844.291, 0.0, 5.029973, 4.959242 
8.602229e+2, 2.2019601e+2, -780680.3, -888801.75, 13582.665, 0.01060863, -0.0021413658, -779000.06, 3080.6963, 0.0, 5.029276, 4.958342 
8.601147e+2, 2.2515036e+2, -742646.75, -860359.25, 11191.282, 0.009309861, 0.007440357, -741592.2, -8063.3057, 0.0, 5.0284495, 4.9516025 
8.6000484e+2, 2.3010087e+2, -696263.25, -812479.0, 10951.676, 0.006333815, 0.008411396, -695240.2, -10225.463, 0.0, 5.0274515, 4.9516015 
8.5989493e+2, 2.3505141e+2, -649913.25, -764604.5, 10706.232, 0.0033544742, 0.00939971, -648922.44, -12421.904, 0.0, 5.026435, 4.951601 
8.597851e+2, 2.4000186e+2, -604100.25, -717845.6, 10408.331, 0.0007162536, 0.009329375, -603155.7, -15168.82, 0.0, 5.0253983, 4.9512153 
8.596733e+2, 2.449485e+2, -565639.75, -687322.25, 7150.483, 0.00042775893, 0.0077264463, -565221.0, -25712.26, 0.0, 5.024257, 4.9452324 
8.5955924e+2, 2.4989177e+2, -520109.7, -639510.9, 6527.14, 0.00042769345, -0.0021903554, -519753.94, -28690.531, 0.0, 5.0228505, 4.9453473 
8.594453e+2, 2.5483504e+2, -474767.53, -592028.0, 6042.405, 0.00047785722, -0.012155634, -474457.0, -31838.99, 0.0, 5.0214224, 4.945347 
8.593312e+2, 2.5977862e+2, -429588.2, -544771.8, 5611.1963, 0.00013466898, -0.019592967, -429315.47, -35145.797, 0.0, 5.0199604, 4.945274 
8.592152e+2, 2.647217e+2, -391528.4, -513437.1, 2665.323, -0.0032802664, 0.0018869011, -391470.16, -45743.563, 0.0, 5.0183864, 4.939654 
8.590968e+2, 2.696622e+2, -346176.38, -463937.97, 1803.408, -0.0049877693, 0.01194254, -346148.78, -48840.69, 0.0, 5.0165243, 4.940509 
8.589784e+2, 2.746027e+2, -302016.1, -416899.2, 1394.8668, -0.0068252133, 0.021260357, -301999.16, -53109.09, 0.0, 5.0146184, 4.940507 
8.588602e+2, 2.7954265e+2, -257999.75, -370142.75, 1291.3226, -0.00782766, 0.025527935, -257984.88, -57507.344, 0.0, 5.0126934, 4.940402 
8.587428e+2, 2.8447574e+2, -220324.73, -339388.1, 221.31824, -0.000428767, -0.0021866476, -220324.33, -68189.89, 0.0, 5.0109797, 4.934537 
8.586244e+2, 2.8940666e+2, -173793.97, -287794.2, -601.8264, 0.009775458, -0.045227174, -173790.8, -69977.836, 0.0, 5.0092087, 4.9360414 
8.5850596e+2, 2.943377e+2, -129158.2, -240435.97, -1023.7881, 0.019887123, -0.08747344, -129148.79, -73658.586, 0.0, 5.0074143, 4.9360423 
8.583873e+2, 2.9927024e+2, -86399.98, -197015.75, -1556.7313, 0.025684243, -0.11124535, -86378.08, -79225.836, 0.0, 5.0055256, 4.934666 
8.5826516e+2, 3.0422813e+2, -40624.406, -111014.21, -2579.9248, -0.0022825713, 0.015726589, -40529.973, -40529.973, 0.0, 5.0031605, 4.957816 
8.581434e+2, 3.092003e+2, -44815.137, -108181.04, -2441.1614, -0.039281443, 0.13313845, -44721.23, -44721.23, 0.0, 5.000729, 4.959883 
8.580217e+2, 3.141725e+2, -51663.875, -111280.2, -2354.8193, -0.077101514, 0.25137803, -51571.004, -51571.004, 0.0, 4.9982243, 4.959844 
8.579146e+2, 3.190933e+2, -16187.294, -17906.576, 11507.689, -0.0023736462, -0.14423454, -5507.1826, -5507.1826, 0.0, 4.9960866, 4.994737 
8.672864e+2, 1.2584099e+2, -1633898.8, -1714995.5, 5448.3735, -0.0016410801, -0.0033034876, -1633534.4, 73218.945, 0.0, 5.041299, 4.9876704 
8.671722e+2, 1.3082711e+2, -1588293.9, -1667779.3, 6050.276, -0.00041058622, -0.0048806164, -1587836.0, 70054.48, 0.0, 5.04026, 4.9876738 
8.670579e+2, 1.3581324e+2, -1542669.1, -1620544.8, 6649.9385, 0.0007232495, -0.0063773207, -1542105.4, 66922.29, 0.0, 5.03922, 4.9876776 
8.669437e+2, 1.4079942e+2, -1498669.1, -1576667.6, 8120.5454, 0.0013894165, -0.005627721, -1497832.8, 62331.477, 0.0, 5.0381927, 4.986537 
8.6683404e+2, 1.4578289e+2, -1459357.9, -1543262.5, 13464.289, 0.004034212, 0.005597971, -1457250.3, 54077.555, 0.0, 5.037441, 4.981625 
8.667268e+2, 1.5076324e+2, -1411987.4, -1495150.9, 13983.875, 0.005838838, 0.005054702, -1409699.0, 52822.797, 0.0, 5.036957, 4.9816203 
8.6661965e+2, 1.5574358e+2, -1364606.8, -1447030.9, 14503.559, 0.0076933103, 0.004526339, -1362129.1, 51586.805, 0.0, 5.036473, 4.9816165 
8.665124e+2, 1.6072388e+2, -1318189.1, -1400893.4, 15158.841, 0.009235875, 0.0039119273, -1315498.1, 49411.902, 0.0, 5.0359893, 4.9809413 
8.664066e+2, 1.6570024e+2, -1279285.0, -1370543.6, 17903.693, 0.008895854, 0.0052352925, -1275898.3, 40242.44, 0.0, 5.0355964, 4.9748535 
8.66302e+2, 1.706734e+2, -1231215.5, -1322075.6, 18126.957, 0.007734494, 0.0018773219, -1227732.6, 39669.906, 0.0, 5.03532, 4.9748416 
8.661974e+2, 1.7564656e+2, -1183139.4, -1273603.4, 18349.412, 0.006773618, -0.0012794068, -1179559.1, 39105.21, 0.0, 5.0350423, 4.9748297 
8.660928e+2, 1.8061973e+2, -1136754.8, -1228736.4, 18361.357, 0.0063025677, -0.002570024, -1133225.0, 36701.55, 0.0, 5.0347586, 4.973602 
8.6598825e+2, 1.8558887e+2, -1098122.8, -1200005.4, 19744.518, 0.006906923, 0.0049536736, -1094430.3, 26800.082, 0.0, 5.0344315, 4.966866 
8.6588424e+2, 1.9055435e+2, -1050119.1, -1151515.8, 19968.17, 0.005692384, 0.0046131136, -1046328.44, 26241.715, 0.0, 5.034096, 4.966855 
8.6578023e+2, 1.9551982e+2, -1002108.06, -1103020.4, 20191.852, 0.0046757883, 0.004340312, -998217.8, 25692.436, 0.0, 5.033759, 4.9668436 
8.656761e+2, 2.0048524e+2, -955010.75, -1056652.5, 19890.08, 0.0039975476, 0.0042040204, -951257.1, 23993.072, 0.0, 5.0334425, 4.9661 
8.655704e+2, 2.0544653e+2, -916050.0, -1028038.8, 19181.273, 0.004159386, 0.007722322, -912855.8, 13772.884, 0.0, 5.0331216, 4.9592676 
8.654643e+2, 2.1040405e+2, -868120.06, -979534.25, 19103.854, 0.005417567, 0.0037894626, -864935.44, 13108.682, 0.0, 5.032721, 4.959258 
8.6535835e+2, 2.1536154e+2, -820181.44, -931023.0, 19024.918, 0.0067737894, -0.0001237844, -817006.9, 12452.689, 0.0, 5.0323195, 4.959249 
8.652522e+2, 2.2031908e+2, -773336.44, -884938.8, 18567.53, 0.007842007, -0.0029733896, -770328.44, 10546.576, 0.0, 5.0319138, 4.9584055 
8.6514324e+2, 2.2527319e+2, -734688.1, -856413.6, 16165.517, 0.006640034, 0.005714853, -732577.9, -253.12009, 0.0, 5.0313454, 4.951577 
8.6503255e+2, 2.3022346e+2, -687791.75, -808308.6, 16042.235, 0.00451306, 0.0060653826, -685692.9, -1880.3776, 0.0, 5.0305405, 4.9515753 
8.649218e+2, 2.3517373e+2, -640879.4, -760189.2, 15917.154, 0.002367611, 0.0064680995, -638792.4, -3492.1794, 0.0, 5.0297346, 4.9515734 
8.648112e+2, 2.4012391e+2, -594633.9, -713511.94, 15682.915, 0.00042022308, 0.0059716743, -592599.75, -5811.0103, 0.0, 5.0289154, 4.9510703 
8.646982e+2, 2.450703e+2, -555990.1, -683411.8, 12246.872, -0.00025147083, 0.0062033725, -554823.7, -16509.895, 0.0, 5.027933, 4.9448767 
8.645827e+2, 2.500132e+2, -510413.06, -635656.75, 11622.773, -0.0004776385, -0.0015595221, -509343.6, -19470.797, 0.0, 5.026566, 4.9449615 
8.644672e+2, 2.5495613e+2, -464928.9, -588093.3, 11158.212, -0.00065402745, -0.009645229, -463926.2, -22494.377, 0.0, 5.025193, 4.944972 
8.6435175e+2, 2.598993e+2, -419393.8, -540378.3, 10669.275, -0.0010315968, -0.015811522, -418460.13, -25472.07, 0.0, 5.023804, 4.9450374 
8.642342e+2, 2.6484156e+2, -381827.0, -509791.84, 7360.587, -0.0030891097, 0.0031048579, -381405.03, -36852.766, 0.0, 5.0221386, 4.939218 
8.6411387e+2, 2.697813e+2, -336870.63, -460336.03, 6370.002, -0.0041019884, 0.010741546, -336542.84, -40401.57, 0.0, 5.020109, 4.9401445 
8.639936e+2, 2.7472103e+2, -293105.53, -413495.7, 5831.6167, -0.0048443745, 0.018212965, -292823.72, -45093.566, 0.0, 5.018065, 4.9401436 
8.6387354e+2, 2.7966034e+2, -249423.66, -366913.8, 5723.179, -0.004623158, 0.021211183, -249145.53, -49821.688, 0.0, 5.0160236, 4.940038 
8.6375403e+2, 2.845932e+2, -212336.94, -336003.2, 4580.6343, 0.00030802653, -0.003951757, -212167.5, -61184.746, 0.0, 5.0140104, 4.934363 
8.636332e+2, 2.8952393e+2, -167228.33, -285164.28, 3768.9878, 0.0075804624, -0.04441688, -167108.0, -64444.96, 0.0, 5.011751, 4.93582 
8.635125e+2, 2.9445463e+2, -123922.03, -238396.73, 3365.088, 0.015343479, -0.08600764, -123823.195, -69479.336, 0.0, 5.009475, 4.935825 
8.633915e+2, 2.9938674e+2, -82486.04, -195463.88, 2792.3965, 0.01999412, -0.110158734, -82417.06, -76406.91, 0.0, 5.007083, 4.934497 
8.632674e+2, 3.043443e+2, -38121.21, -110253.96, 1355.7483, -0.0028864238, 0.019647049, -38095.74, -38095.74, 0.0, 5.0043097, 4.957506 
8.631436e+2, 3.0931658e+2, -42584.832, -107178.305, 789.8808, -0.034179103, 0.14336714, -42575.176, -42575.176, 0.0, 5.0017166, 4.9597273 
8.630198e+2, 3.1428954e+2, -49530.223, -110095.64, -18.828257, -0.06601446, 0.27100965, -49530.215, -49530.215, 0.0, 4.9991364, 4.9597855 
8.629147e+2, 3.1917602e+2, 10211.377, 47003.734, 9575.364, 0.053671807, -0.5270728, 49346.58, 49346.58, 0.0, 4.9954553, 5.019164 
8.723262e+2, 1.259596e+2, -1632539.9, -1712375.6, 4629.098, -0.00391543, -0.0030136774, -1632272.4, 73321.0, 0.0, 5.0413156, 4.9885373 
8.72211e+2, 1.3094667e+2, -1586942.3, -1665172.4, 5236.188, -0.0017902158, -0.0038287556, -1586593.4, 70127.555, 0.0, 5.0402775, 4.988539 
8.7209576e+2, 1.3593371e+2, -1541324.9, -1617950.9, 5841.039, 0.00017250741, -0.00458106, -1540882.1, 66966.44, 0.0, 5.039238, 4.9885416 
8.7198067e+2, 1.409208e+2, -1497277.8, -1573960.3, 7436.1694, 0.0013553106, -0.0035369026, -1496563.3, 62412.656, 0.0, 5.0382104, 4.9874406 
8.718703e+2, 1.4590493e+2, -1458340.3, -1541188.5, 13086.787, 0.0038715582, 0.0062923552, -1456322.3, 53810.08, 0.0, 5.0374417, 4.9823213 
8.717626e+2, 1.5088591e+2, -1410977.0, -1493083.4, 13609.138, 0.0051434115, 0.005122237, -1408780.0, 52539.52, 0.0, 5.0369573, 4.982317 
8.7165487e+2, 1.5586686e+2, -1363603.6, -1444969.9, 14131.587, 0.0064462875, 0.003969524, -1361219.1, 51287.9, 0.0, 5.0364733, 4.982313 
8.7154704e+2, 1.6084775e+2, -1317428.0, -1399318.3, 14841.641, 0.007503159, 0.0029238951, -1314821.0, 48873.875, 0.0, 5.0359883, 4.981476 
8.71441e+2, 1.6582452e+2, -1278893.5, -1369675.6, 17683.695, 0.0073264134, 0.004492103, -1275570.5, 39351.73, 0.0, 5.0355864, 4.9751515 
8.713361e+2, 1.70798e+2, -1230822.3, -1321207.0, 17910.871, 0.0068027326, 0.0014841777, -1227402.4, 38779.152, 0.0, 5.0353107, 4.97514 
8.712313e+2, 1.757715e+2, -1182744.4, -1272734.1, 18137.238, 0.006449003, -0.0013367254, -1179226.4, 38214.43, 0.0, 5.0350347, 4.975129 
8.711265e+2, 1.80745e+2, -1136221.9, -1227555.5, 18162.77, 0.0063680806, -0.0023733769, -1132742.5, 35957.5, 0.0, 5.0347495, 4.974007 
8.710216e+2, 1.857145e+2, -1097762.6, -1199159.8, 19494.959, 0.0066056824, 0.0049393326, -1094143.6, 25856.174, 0.0, 5.0344176, 4.967161 
8.7091726e+2, 1.9068027e+2, -1049759.8, -1150670.1, 19722.15, 0.0055303923, 0.00469069, -1046042.2, 25293.975, 0.0, 5.034082, 4.96715 
8.708129e+2, 1.9564603e+2, -1001749.5, -1102174.8, 19949.371, 0.004603782, 0.004503755, -997931.7, 24740.889, 0.0, 5.033746, 4.9671392 
8.707084e+2, 2.006117e+2, -954814.75, -1056154.9, 19651.34, 0.0038719622, 0.0042817364, -951137.5, 22872.148, 0.0, 5.0334296, 4.966277 
8.7060237e+2, 2.0557298e+2, -916190.9, -1028281.0, 18880.861, 0.003634558, 0.007626451, -913095.94, 12292.562, 0.0, 5.03311, 4.959191 
8.7049586e+2, 2.105304e+2, -868254.56, -979772.5, 18808.672, 0.003896693, 0.0035965303, -865167.7, 11637.639, 0.0, 5.032711, 4.9591823 
8.703893e+2, 2.1548781e+2, -820309.56, -931257.4, 18734.969, 0.004171431, -0.00044031028, -817231.3, 10990.918, 0.0, 5.032311, 4.959173 
8.7028265e+2, 2.2044525e+2, -773351.6, -884931.0, 18231.242, 0.004286251, -0.0034712392, -770448.3, 9190.43, 0.0, 5.031905, 4.9584126 
8.7017304e+2, 2.253992e+2, -734837.9, -856799.1, 15567.479, 0.0031412297, 0.003906361, -732882.1, -1792.5215, 0.0, 5.031347, 4.951448 
8.7006164e+2, 2.3034926e+2, -687936.06, -808694.06, 15448.911, 0.0023662986, 0.0034784114, -685990.94, -3412.242, 0.0, 5.0305433, 4.9514456 
8.6995023e+2, 2.3529933e+2, -641018.25, -760574.6, 15328.544, 0.001496897, 0.0030944066, -639084.25, -5016.4854, 0.0, 5.029739, 4.9514427 
8.698389e+2, 2.402493e+2, -594982.25, -714378.1, 15039.569, 0.0005523282, 0.002214854, -593116.94, -7559.1665, 0.0, 5.0289216, 4.950772 
8.697248e+2, 2.4519555e+2, -556541.94, -684800.6, 11240.77, -0.00039731368, 0.0053032283, -555564.25, -18479.377, 0.0, 5.0279436, 4.9444003 
8.6960787e+2, 2.501382e+2, -511031.78, -637192.1, 10591.33, -0.001362565, 0.00030951027, -510148.8, -21501.51, 0.0, 5.026575, 4.944434 
8.69491e+2, 2.5508085e+2, -465551.53, -589625.44, 10132.533, -0.0023621512, -0.004927958, -464729.5, -24519.816, 0.0, 5.0252, 4.9444447 
8.6937404e+2, 2.6002368e+2, -419928.0, -541703.3, 9565.683, -0.0032952006, -0.009036893, -419181.16, -27411.389, 0.0, 5.0238085, 4.944582 
8.692549e+2, 2.6496497e+2, -382439.0, -511513.22, 5829.2075, -0.0031932967, 0.004883044, -382176.28, -38832.586, 0.0, 5.0221653, 4.9386206 
8.691327e+2, 2.699036e+2, -337448.75, -461991.47, 4837.703, -0.002681433, 0.007210118, -337261.13, -42318.035, 0.0, 5.0201364, 4.939569 
8.690105e+2, 2.7484226e+2, -293682.06, -415148.06, 4305.826, -0.0020229989, 0.00944815, -293529.63, -46987.332, 0.0, 5.0180917, 4.939568 
8.688885e+2, 2.7978063e+2, -249915.81, -368363.88, 4302.344, -0.0011079512, 0.008907975, -249759.73, -51615.21, 0.0, 5.0160494, 4.9395323 
8.687665e+2, 2.847143e+2, -212508.8, -336908.47, 2853.8286, -0.0006880238, -0.0041966764, -212443.36, -62647.797, 0.0, 5.014059, 4.934052 
8.6864287e+2, 2.8964624e+2, -167449.27, -286176.34, 2053.8696, 0.0012250484, -0.028943587, -167413.73, -65949.305, 0.0, 5.011798, 4.9354715 
8.6851937e+2, 2.945781e+2, -124148.445, -239399.61, 1674.9116, 0.0035065142, -0.054774325, -124124.11, -70990.33, 0.0, 5.009518, 4.9354796 
8.683957e+2, 2.9951093e+2, -82335.5, -195603.5, 662.87054, 0.005132509, -0.06906661, -82331.62, -77538.62, 0.0, 5.007127, 4.934459 
8.682702e+2, 3.0446392e+2, -38365.09, -111550.805, -737.82117, -0.0032734738, 0.02134884, -38357.652, -38357.652, 0.0, 5.0043807, 4.957049 
8.6814547e+2, 3.0943054e+2, -42735.695, -108205.03, -1058.0818, -0.01768016, 0.09748993, -42718.6, -42718.6, 0.0, 5.001774, 4.959376 
8.680207e+2, 3.14398e+2, -49726.24, -111139.766, -1585.7233, -0.033303957, 0.17912146, -49685.32, -49685.32, 0.0, 4.9991755, 4.959436 
8.6791253e+2, 3.1929976e+2, -15455.229, -13422.127, 8436.804, 0.08698923, -0.41416398, -5940.8525, -5940.8525, 0.0, 4.9955, 4.996749 
8.77366e+2, 1.2607826e+2, -1631182.8, -1709756.1, 3812.4653, -0.0062027597, -0.00248639, -1630998.1, 73434.86, 0.0, 5.0413327, 4.9894037 
8.7724984e+2, 1.3106625e+2, -1585592.4, -1662565.8, 4424.7427, -0.0031463807, -0.0026318815, -1585338.9, 70212.125, 0.0, 5.040295, 4.989404 
8.7713367e+2, 1.3605423e+2, -1539982.4, -1615357.3, 5034.7817, -0.00031838592, -0.0027322052, -1539647.5, 67021.734, 0.0, 5.0392566, 4.9894047 
8.7701756e+2, 1.410422e+2, -1495914.0, -1571309.1, 6751.017, 0.0013653999, -0.0014442748, -1495314.3, 62473.15, 0.0, 5.038228, 4.988325 
8.769066e+2, 1.46027e+2, -1457323.6, -1539114.9, 12709.331, 0.0036684794, 0.0070969663, -1455394.3, 53542.29, 0.0, 5.037442, 4.9830174 
8.767983e+2, 1.5100859e+2, -1409967.6, -1491016.1, 13234.447, 0.00440806, 0.005238311, -1407861.3, 52255.86, 0.0, 5.036958, 4.983013 
8.7669003e+2, 1.5599015e+2, -1362601.4, -1442909.1, 13759.661, 0.0051598325, 0.0033995784, -1360309.3, 50988.54, 0.0, 5.0364733, 4.9830093 
8.765817e+2, 1.6097163e+2, -1316712.4, -1397838.4, 14518.617, 0.00576008, 0.0019867683, -1314192.4, 48287.332, 0.0, 5.035987, 4.9819784 
8.7647533e+2, 1.659488e+2, -1278502.8, -1368807.3, 17463.953, 0.0058078687, 0.0038206282, -1275243.0, 38460.684, 0.0, 5.0355763, 4.9754486 
8.763703e+2, 1.709226e+2, -1230429.8, -1320337.9, 17695.041, 0.0058890604, 0.0010822277, -1227072.5, 37888.07, 0.0, 5.0353017, 4.975438 
8.7626517e+2, 1.7589642e+2, -1182350.1, -1271864.4, 17925.322, 0.0061096605, -0.0014833646, -1178894.0, 37323.336, 0.0, 5.0350266, 4.9754276 
8.761601e+2, 1.808703e+2, -1135701.8, -1226400.8, 17954.37, 0.006410729, -0.0022058163, -1132276.9, 35196.617, 0.0, 5.0347404, 4.9744034 
8.76055e+2, 1.8584014e+2, -1097403.3, -1198313.5, 19244.99, 0.0064409934, 0.00504035, -1093857.6, 24911.545, 0.0, 5.0344033, 4.9674554 
8.759503e+2, 1.908062e+2, -1049401.1, -1149823.9, 19475.72, 0.0054802056, 0.0048297853, -1045756.4, 24345.51, 0.0, 5.034068, 4.967445 
8.7584555e+2, 1.9577225e+2, -1001391.7, -1101328.6, 19706.48, 0.0046188277, 0.004674886, -997646.1, 23788.611, 0.0, 5.0337324, 4.967435 
8.7574077e+2, 2.0073816e+2, -954651.8, -1055727.4, 19409.63, 0.0037813466, 0.004386903, -951052.75, 21716.225, 0.0, 5.0334167, 4.9664297 
8.756343e+2, 2.0569943e+2, -916332.94, -1028522.06, 18581.158, 0.0030662443, 0.0075938343, -913335.5, 10812.819, 0.0, 5.033098, 4.9591136 
8.7552726e+2, 2.1065675e+2, -868390.25, -980009.6, 18514.203, 0.0023030792, 0.0034052653, -865399.44, 10167.163, 0.0, 5.0327005, 4.959105 
8.754202e+2, 2.1561407e+2, -820438.94, -931490.7, 18445.732, 0.0014670737, -0.00081674644, -817455.25, 9529.699, 0.0, 5.032302, 4.9590964 
8.7531304e+2, 2.2057143e+2, -773376.7, -884942.7, 17891.697, 0.0006342124, -0.004022275, -770577.6, 7824.7847, 0.0, 5.0318966, 4.9584126 
8.7520283e+2, 2.2552523e+2, -734988.6, -857183.9, 14971.235, -0.0002514697, 0.0021926402, -733181.1, -3326.8152, 0.0, 5.031348, 4.9513187 
8.750908e+2, 2.3047507e+2, -688081.4, -809078.75, 14857.382, 0.00030858343, 0.0009247428, -686283.75, -4938.99, 0.0, 5.030546, 4.951315 
8.749787e+2, 2.3542492e+2, -641158.2, -760959.25, 14741.73, 0.00069817563, -0.00030742818, -639370.9, -6535.6665, 0.0, 5.0297437, 4.9513116 
8.7486666e+2, 2.4037471e+2, -595352.2, -715289.94, 14399.493, 0.0006900712, -0.0014313075, -593647.6, -9320.919, 0.0, 5.028928, 4.9504566 
8.747513e+2, 2.4532081e+2, -557130.94, -686272.7, 10222.495, -0.00042712622, 0.0045905067, -556326.75, -20470.805, 0.0, 5.0279546, 4.943894 
8.74633e+2, 2.5026318e+2, -511651.6, -638727.4, 9558.244, -0.0021449076, 0.0022735596, -510936.7, -23514.844, 0.0, 5.026584, 4.9439054 
8.7451464e+2, 2.5520557e+2, -466175.25, -591157.5, 9105.209, -0.0039805993, -0.00020889881, -465515.4, -26527.768, 0.0, 5.0252066, 4.943917 
8.7439626e+2, 2.6014808e+2, -420554.34, -543239.6, 8452.621, -0.0054491283, -0.002453522, -419974.72, -29422.996, 0.0, 5.0238132, 4.9440517 
8.742755e+2, 2.6508832e+2, -382983.2, -513074.13, 4318.9146, -0.003463787, 0.0065313117, -382839.97, -40704.61, 0.0, 5.022192, 4.9380784 
8.741514e+2, 2.7002588e+2, -338027.9, -463646.75, 3305.267, -0.0014250857, 0.0034824715, -337941.0, -44195.87, 0.0, 5.020164, 4.9389925 
8.740274e+2, 2.7496344e+2, -294259.6, -416800.28, 2779.8967, 0.0006351856, 0.00040535035, -294196.56, -48841.91, 0.0, 5.018119, 4.9389915 
8.739034e+2, 2.7990097e+2, -250444.14, -369900.06, 2849.563, 0.002150361, -0.0032483405, -250376.2, -53411.06, 0.0, 5.016076, 4.9389954 
8.737789e+2, 2.8483552e+2, -212707.95, -337870.4, 1169.6115, -0.0018425878, -0.0038298042, -212697.03, -64089.156, 0.0, 5.014108, 4.933719 
8.7365246e+2, 2.8976855e+2, -167670.66, -287188.63, 336.04456, -0.0053634155, -0.013421475, -167669.72, -67404.305, 0.0, 5.0118456, 4.935121 
8.735261e+2, 2.9470158e+2, -124375.28, -240402.72, -17.970848, -0.0086508915, -0.024069292, -124375.28, -72451.914, 0.0, 5.009562, 4.935132 
8.7339985e+2, 2.9963508e+2, -82806.14, -197195.58, -1416.8868, -0.009418341, -0.027728563, -82788.59, -79212.23, 0.0, 5.007172, 4.933901 
8.732731e+2, 3.045834e+2, -38676.477, -112997.3, -2838.7068, -0.0030653626, 0.021290446, -38568.207, -38568.207, 0.0, 5.004453, 4.9565296 
8.7314725e+2, 3.095443e+2, -42893.117, -109229.05, -2890.6416, -0.0013294565, 0.04266882, -42767.39, -42767.39, 0.0, 5.001831, 4.959017 
8.730214e+2, 3.145061e+2, -49928.664, -112181.44, -3137.1086, -0.0015108883, 0.071060084, -49770.977, -49770.977, 0.0, 4.999215, 4.959079 
8.7290597e+2, 3.1944013e+2, -32883.074, -54580.023, 9616.047, 0.06763955, -0.15046883, -29234.73, -29234.73, 0.0, 4.995541, 4.981584 
8.824055e+2, 1.2619771e+2, -1633901.1, -1709084.0, 4365.7705, -0.006119579, -0.0008670866, -1633648.5, 69616.086, 0.0, 5.039994, 4.9902773 
8.8228846e+2, 1.3118653e+2, -1587352.3, -1661444.8, 4939.3887, -0.0032576055, -0.001089384, -1587024.4, 67349.7, 0.0, 5.03928, 4.99027 
8.8217133e+2, 1.3617533e+2, -1541024.4, -1613909.4, 5484.115, -0.00035938853, -0.0010378474, -1540614.0, 64869.777, 0.0, 5.038486, 4.990263 
8.820543e+2, 1.4116412e+2, -1496541.0, -1569675.0, 7212.3467, 0.0014367414, 0.00035732417, -1495836.5, 60756.96, 0.0, 5.037597, 4.98918 
8.819427e+2, 1.4614953e+2, -1458058.6, -1537922.5, 13410.057, 0.0034348539, 0.007740603, -1455867.0, 51869.113, 0.0, 5.0368633, 4.9836955 
8.8183385e+2, 1.5113169e+2, -1410533.0, -1489728.9, 13877.264, 0.0036696792, 0.00506682, -1408171.8, 50738.85, 0.0, 5.0364356, 4.9836955 
8.817251e+2, 1.5611383e+2, -1363030.9, -1441543.4, 14350.233, 0.003931921, 0.0024401282, -1360490.3, 49594.88, 0.0, 5.0359964, 4.9836955 
8.816163e+2, 1.6109586e+2, -1317271.3, -1396930.6, 15146.6, 0.0041515664, 0.0006803288, -1314488.5, 46772.71, 0.0, 5.035553, 4.9824896 
8.8150966e+2, 1.6607346e+2, -1279135.1, -1368311.8, 18255.844, 0.004445483, 0.003109016, -1275542.6, 36938.93, 0.0, 5.035205, 4.975788 
8.8140434e+2, 1.7104764e+2, -1230838.0, -1319725.5, 18522.656, 0.00497676, 0.00088630524, -1227132.6, 36602.79, 0.0, 5.0350056, 4.9757795 
8.812991e+2, 1.7602178e+2, -1182544.1, -1271138.6, 18799.096, 0.0055580577, -0.0013432708, -1178720.1, 36269.227, 0.0, 5.034804, 4.9757714 
8.8119364e+2, 1.8099603e+2, -1135561.5, -1225345.1, 18873.771, 0.006027683, -0.0018394565, -1131755.4, 34486.945, 0.0, 5.0346, 4.97482 
8.810883e+2, 1.859662e+2, -1097044.3, -1197426.1, 20118.176, 0.0060415, 0.005150103, -1093162.4, 24371.936, 0.0, 5.034393, 4.967758 
8.8098335e+2, 1.9093248e+2, -1048689.1, -1148772.4, 20302.4, 0.005310636, 0.0047486257, -1044727.44, 24136.56, 0.0, 5.034181, 4.967747 
8.808783e+2, 1.9589877e+2, -1000390.75, -1100144.1, 20484.451, 0.0046288464, 0.0044111162, -996348.06, 23845.773, 0.0, 5.0339475, 4.9677362 
8.8077325e+2, 2.0086488e+2, -953662.25, -1054901.0, 20141.316, 0.0037710608, 0.004001594, -949802.3, 21723.332, 0.0, 5.033699, 4.9665804 
8.806663e+2, 2.0582618e+2, -915566.0, -1028282.7, 19262.193, 0.0025507568, 0.0072887368, -912365.2, 10540.234, 0.0, 5.0333977, 4.9590564 
8.805588e+2, 2.107834e+2, -867649.9, -979778.8, 19203.314, 0.0008757671, 0.0031015582, -864452.3, 9872.632, 0.0, 5.0329914, 4.959049 
8.8045126e+2, 2.1574064e+2, -819766.7, -931287.44, 19143.893, -0.0008498414, -0.0011435982, -816571.94, 9172.622, 0.0, 5.03257, 4.9590416 
8.803436e+2, 2.2069794e+2, -772703.44, -884610.5, 18538.752, -0.0023833255, -0.004369939, -769712.25, 7450.7026, 0.0, 5.0321403, 4.958414 
8.8023275e+2, 2.2565153e+2, -734355.9, -857200.44, 15291.91, -0.003076396, 0.0008485079, -732480.94, -3864.8306, 0.0, 5.0316386, 4.951182 
8.8012e+2, 2.3060115e+2, -687349.75, -809054.9, 15079.656, -0.001470839, -0.0012689246, -685509.1, -5400.8047, 0.0, 5.030871, 4.9511776 
8.8000727e+2, 2.3555075e+2, -640402.75, -760929.75, 14868.399, 0.000054260006, -0.0033611977, -638595.6, -6995.063, 0.0, 5.030076, 4.9511733 
8.7989444e+2, 2.4050032e+2, -594839.3, -715731.06, 14404.531, 0.0009843122, -0.004598281, -593146.7, -10052.761, 0.0, 5.029244, 4.950165 
8.79778e+2, 2.4544623e+2, -556903.3, -687370.4, 9886.851, -0.00017800233, 0.004083269, -556158.3, -21532.719, 0.0, 5.0282617, 4.9433827 
8.796582e+2, 2.503883e+2, -511402.22, -639807.44, 9264.774, -0.002684539, 0.004017315, -510737.2, -24542.066, 0.0, 5.0268955, 4.9433985 
8.795384e+2, 2.5533038e+2, -465955.03, -592264.8, 8837.369, -0.0053134672, 0.0039056302, -465339.72, -27575.172, 0.0, 5.02551, 4.943404 
8.794185e+2, 2.6027253e+2, -420451.13, -544555.7, 8082.23, -0.0072485786, 0.0031863411, -419927.0, -30593.986, 0.0, 5.024104, 4.9434724 
8.792962e+2, 2.6521176e+2, -382586.63, -514125.94, 3506.152, -0.0038746563, 0.0077625653, -382493.22, -41567.02, 0.0, 5.022547, 4.9375668 
8.791702e+2, 2.7014825e+2, -337584.66, -464843.16, 2362.232, -0.0004987449, -0.00029634376, -337540.8, -44994.555, 0.0, 5.020565, 4.9384103 
8.790442e+2, 2.750847e+2, -293757.84, -417971.06, 1757.5785, 0.0028607035, -0.008497086, -293732.97, -49566.797, 0.0, 5.01854, 4.9384093 
8.7891823e+2, 2.800214e+2, -249973.8, -371037.8, 1817.6667, 0.004893807, -0.014774053, -249946.5, -54161.77, 0.0, 5.0164776, 4.9384336 
8.7879133e+2, 2.8495675e+2, -212240.92, -338606.75, -198.3949, -0.0031105652, -0.0029336999, -212240.61, -64821.184, 0.0, 5.0144176, 4.9333496 
8.786621e+2, 2.898909e+2, -167515.44, -288063.53, -1218.5468, -0.011860042, 0.0015899028, -167503.11, -68436.695, 0.0, 5.0120373, 4.934755 
8.785329e+2, 2.9482502e+2, -124574.65, -241437.64, -1717.5355, -0.020563764, 0.0051394887, -124549.414, -73835.7, 0.0, 5.009624, 4.9347653 
8.784041e+2, 2.99759e+2, -84143.49, -200331.42, -3537.773, -0.023015684, 0.013042174, -84035.875, -81674.23, 0.0, 5.0071263, 4.9328303 
8.78276e+2, 3.0470273e+2, -38824.32, -114434.62, -5048.5376, -0.0021978985, 0.019170852, -38488.72, -38488.72, 0.0, 5.0046005, 4.9559736 
8.78149e+2, 3.0965778e+2, -42754.035, -110157.62, -4899.244, 0.014779497, -0.021393666, -42399.793, -42399.793, 0.0, 5.0020056, 4.958635 
8.7802196e+2, 3.1461376e+2, -50393.984, -113389.12, -5058.3687, 0.029432653, -0.05450458, -49990.395, -49990.395, 0.0, 4.9991713, 4.958689 
8.7789345e+2, 3.195859e+2, -14310.954, -12127.48, 13553.697, -0.02223187, 0.0700767, 378.37793, 378.37793, 0.0, 4.995693, 4.9970016 
8.8744265e+2, 1.2631992e+2, -1642126.0, -1710702.5, 5850.23, -0.003735881, 0.002642471, -1641630.5, 60438.58, 0.0, 5.036777, 4.9912777 
8.8732487e+2, 1.3130952e+2, -1594988.9, -1662806.3, 6496.6914, -0.0016013961, 0.0014597797, -1594372.1, 58798.2, 0.0, 5.036264, 4.9912558 
8.87207e+2, 1.3629913e+2, -1547841.4, -1614901.9, 7136.4414, 0.00045177582, 0.0007623112, -1547090.4, 57181.324, 0.0, 5.0357485, 4.991234 
8.870892e+2, 1.4128874e+2, -1502312.0, -1570176.4, 9103.528, 0.0014144704, 0.0016138336, -1501112.0, 54261.055, 0.0, 5.0352135, 4.9901404 
8.869772e+2, 1.4627482e+2, -1463007.8, -1538438.0, 15671.711, 0.0030282969, 0.007953978, -1459881.4, 46627.277, 0.0, 5.034839, 4.984474 
8.868681e+2, 1.512576e+2, -1414534.0, -1489752.5, 16262.421, 0.003017857, 0.004571876, -1411168.6, 46507.86, 0.0, 5.0347295, 4.984479 
8.8675904e+2, 1.5624039e+2, -1366057.3, -1441066.1, 16852.602, 0.003033699, 0.0012585634, -1362444.9, 46399.473, 0.0, 5.0346193, 4.984484 
8.8664997e+2, 1.6122305e+2, -1319382.6, -1396128.9, 17818.31, 0.0031418977, -0.00083053025, -1315447.5, 44566.477, 0.0, 5.0345182, 4.9832206 
8.865432e+2, 1.6620128e+2, -1280533.4, -1367486.8, 21279.541, 0.0036559661, 0.0024193781, -1275605.1, 35623.4, 0.0, 5.034492, 4.9763703 
8.864379e+2, 1.7117605e+2, -1231375.9, -1318430.0, 21748.979, 0.0041248663, 0.0012459812, -1226244.8, 36232.137, 0.0, 5.034585, 4.976375 
8.863325e+2, 1.7615078e+2, -1182219.6, -1269376.0, 22220.645, 0.0044850763, -0.00019125902, -1176881.4, 36844.13, 0.0, 5.0346775, 4.97638 
8.8622713e+2, 1.8112555e+2, -1134345.9, -1223093.8, 22485.063, 0.004616108, -0.0005852738, -1128974.3, 35999.203, 0.0, 5.034774, 4.9754515 
8.861217e+2, 1.8609601e+2, -1095134.6, -1195174.3, 23963.436, 0.004894042, 0.005153481, -1089690.6, 26571.285, 0.0, 5.0348735, 4.968253 
8.860167e+2, 1.9106258e+2, -1045929.1, -1146090.6, 24366.111, 0.004622824, 0.0038306643, -1040316.2, 27272.334, 0.0, 5.0349617, 4.9682493 
8.8591176e+2, 1.9602916e+2, -996724.6, -1097009.9, 24767.053, 0.004306088, 0.0025585312, -990941.5, 27973.703, 0.0, 5.035049, 4.9682455 
8.8580656e+2, 2.0099555e+2, -949167.25, -1051540.5, 24623.27, 0.0035777495, 0.0015595355, -943552.7, 26691.4, 0.0, 5.035132, 4.9670157 
8.8569945e+2, 2.0595707e+2, -910509.1, -1025088.4, 23924.703, 0.0018289676, 0.005506321, -905714.2, 15907.438, 0.0, 5.035121, 4.959301 
8.855916e+2, 2.109145e+2, -861864.9, -976211.3, 24130.857, -0.000044472486, 0.002180048, -856981.06, 16058.574, 0.0, 5.034978, 4.9593034 
8.854838e+2, 2.158719e+2, -813217.3, -927332.25, 24336.467, -0.0017599823, -0.0011469238, -808244.0, 16213.631, 0.0, 5.034834, 4.959306 
8.8537586e+2, 2.2082938e+2, -765353.8, -880241.5, 23954.129, -0.0030512738, -0.0037162872, -760559.44, 15315.132, 0.0, 5.034697, 4.958691 
8.852645e+2, 2.257829e+2, -726507.6, -853093.2, 20750.73, -0.0035839751, 0.0010862495, -723192.8, 4135.6504, 0.0, 5.03449, 4.9512296 
8.851512e+2, 2.307323e+2, -678667.9, -804553.7, 20723.932, -0.0022572854, -0.0015440976, -675343.94, 3478.7786, 0.0, 5.034027, 4.9512305 
8.8503784e+2, 2.356817e+2, -630818.5, -756006.4, 20696.922, -0.0007277498, -0.0041005746, -627485.5, 2831.4502, 0.0, 5.0335627, 4.9512315 
8.849243e+2, 2.4063107e+2, -584310.1, -710342.0, 20359.984, 0.00059414055, -0.005572272, -581102.7, 709.365, 0.0, 5.0330715, 4.9502387 
8.8480693e+2, 2.4557671e+2, -546093.8, -682273.8, 15733.896, -0.00030806536, 0.0026548386, -544299.56, -10953.319, 0.0, 5.0322657, 4.9432745 
8.846858e+2, 2.5051847e+2, -500204.94, -634580.5, 15292.504, -0.002857089, 0.0026057467, -498486.56, -13567.818, 0.0, 5.031051, 4.9432826 
8.845647e+2, 2.5546023e+2, -454350.8, -586925.7, 15078.701, -0.0052921614, 0.0026074073, -452657.4, -16166.123, 0.0, 5.029829, 4.9432707 
8.844436e+2, 2.6040193e+2, -408595.94, -539496.0, 14498.834, -0.0069714366, 0.0018049463, -407009.25, -18945.705, 0.0, 5.028599, 4.943176 
8.843195e+2, 2.653406e+2, -370529.66, -509108.1, 9625.942, -0.004839041, 0.006038242, -369864.22, -30201.174, 0.0, 5.027143, 4.937215 
8.8419133e+2, 2.7027637e+2, -325850.9, -460214.7, 8431.202, -0.0022557483, -0.0020132558, -325323.94, -34033.445, 0.0, 5.025095, 4.937965 
8.8406324e+2, 2.752121e+2, -282169.25, -413434.5, 7829.5596, 0.0004387948, -0.010667688, -281703.9, -38785.71, 0.0, 5.0230255, 4.9379635 
8.8393515e+2, 2.8014806e+2, -238582.2, -366484.97, 7799.675, 0.0022570807, -0.01720053, -238108.33, -43564.203, 0.0, 5.020875, 4.938044 
8.83806e+2, 2.8508306e+2, -202623.19, -334876.84, 5157.4067, -0.003835202, -0.0021805433, -202422.38, -56240.027, 0.0, 5.0181837, 4.9329467 
8.836741e+2, 2.90017e+2, -160058.53, -285322.97, 3926.1116, -0.010674703, 0.0066997544, -159935.6, -62104.066, 0.0, 5.0150104, 4.9343634 
8.8354224e+2, 2.9495087e+2, -119278.42, -239763.75, 3287.7244, -0.017562624, 0.014886208, -119188.77, -69707.805, 0.0, 5.011818, 4.934346 
8.834106e+2, 2.9988447e+2, -80617.07, -198872.22, 1695.0586, -0.019288687, 0.024904003, -80592.78, -79459.91, 0.0, 5.0085707, 4.9326572 
8.832798e+2, 3.048265e+2, -35206.36, -112565.18, 149.07753, -0.00067469536, 0.017509291, -35206.074, -35206.074, 0.0, 5.006026, 4.955948 
8.8315016e+2, 3.097787e+2, -38549.65, -108314.72, -353.2994, 0.016039897, -0.047730707, -38547.86, -38547.86, 0.0, 5.0036716, 4.958504 
8.830206e+2, 3.1473064e+2, -44982.387, -111341.7, -1077.1842, 0.03306734, -0.116351046, -44964.906, -44964.906, 0.0, 5.001307, 4.9584403 
8.8288474e+2, 3.1971684e+2, 3583.8806, 26679.309, 11200.626, -0.07358286, 0.09197739, 31218.973, 31218.973, 0.0, 4.996865, 5.0104856 
8.924782e+2, 1.2644328e+2, -1640638.1, -1707816.5, 5422.955, -0.0030091717, 0.0058133067, -1640203.1, 60658.82, 0.0, 5.0367947, 4.992234 
8.923598e+2, 1.3143376e+2, -1593495.8, -1659930.8, 6079.0264, -0.001026415, 0.003747884, -1592944.1, 59010.375, 0.0, 5.0362864, 4.99221 
8.9224136e+2, 1.3642421e+2, -1546343.1, -1612036.6, 6728.388, 0.0006901341, 0.0020518515, -1545661.0, 57386.14, 0.0, 5.0357757, 4.992186 
8.92123e+2, 1.4141464e+2, -1500851.9, -1567354.1, 8826.649, 0.0011530304, 0.0018981701, -1499700.3, 54439.652, 0.0, 5.0352383, 4.991079 
8.9201075e+2, 1.464015e+2, -1461886.5, -1536131.5, 15565.154, 0.0023542615, 0.007311921, -1458755.4, 46512.285, 0.0, 5.03484, 4.985246 
8.9190155e+2, 1.51385e+2, -1413420.3, -1487455.0, 16159.884, 0.0021422107, 0.0034706907, -1410046.8, 46381.277, 0.0, 5.034731, 4.985251 
8.9179236e+2, 1.5636848e+2, -1364951.3, -1438777.6, 16754.086, 0.0019212845, -0.00032477785, -1361327.0, 46261.547, 0.0, 5.0346203, 4.9852552 
8.9168316e+2, 1.6135187e+2, -1318379.5, -1394047.8, 17755.467, 0.0019325841, -0.002493256, -1314420.4, 44330.477, 0.0, 5.0345206, 4.983923 
8.9157647e+2, 1.6633081e+2, -1279717.3, -1365709.4, 21324.945, 0.0025943036, 0.001482681, -1274719.4, 35239.2, 0.0, 5.034485, 4.976971 
8.9147127e+2, 1.7130627e+2, -1230567.3, -1316652.8, 21797.674, 0.0029445738, 0.0012687916, -1225362.5, 35837.965, 0.0, 5.0345764, 4.976978 
8.91366e+2, 1.762817e+2, -1181418.5, -1267598.8, 22272.629, 0.0031464319, 0.0007947905, -1176002.8, 36440.027, 0.0, 5.034668, 4.976985 
8.912607e+2, 1.8125711e+2, -1133539.9, -1221291.1, 22537.705, 0.0031878792, 0.00085973006, -1128089.9, 35594.453, 0.0, 5.0347624, 4.9760675 
8.911554e+2, 1.86228e+2, -1094483.6, -1193667.6, 24016.45, 0.003795586, 0.0053293747, -1088974.3, 25993.863, 0.0, 5.0348587, 4.9687686 
8.910505e+2, 1.91195e+2, -1045276.5, -1144585.6, 24424.008, 0.003740568, 0.0028840394, -1039594.75, 26695.648, 0.0, 5.0349483, 4.9687653 
8.909457e+2, 1.9616196e+2, -996070.44, -1095506.5, 24829.836, 0.0035479423, 0.00046551655, -990215.06, 27397.76, 0.0, 5.0350375, 4.9687614 
8.908406e+2, 2.0112875e+2, -948631.0, -1050272.5, 24640.006, 0.0027340732, -0.0011603448, -942972.75, 25964.615, 0.0, 5.035118, 4.9674535 
8.9073336e+2, 2.0609073e+2, -910241.9, -1024365.5, 23807.123, 0.0007226963, 0.0037044245, -905474.7, 14836.327, 0.0, 5.0350995, 4.9595547 
8.9062536e+2, 2.1104851e+2, -861598.25, -975491.1, 24017.555, -0.0010317644, 0.0015131867, -856740.6, 14985.045, 0.0, 5.0349574, 4.9595566 
8.905174e+2, 2.1600626e+2, -812951.4, -926614.8, 24227.44, -0.002716601, -0.00068931206, -808002.75, 15137.727, 0.0, 5.0348144, 4.9595585 
8.9040935e+2, 2.2096406e+2, -765100.4, -879558.9, 23805.91, -0.003996828, -0.0025232884, -760346.5, 14207.93, 0.0, 5.0346785, 4.9589324 
8.902977e+2, 2.2591767e+2, -726551.5, -853159.25, 20405.207, -0.0042784433, 0.0019044069, -723344.06, 2663.6167, 0.0, 5.0344815, 4.9512124 
8.901838e+2, 2.3086695e+2, -678708.1, -804615.7, 20383.658, -0.0034602662, -0.0013584791, -675490.4, 2012.4092, 0.0, 5.034019, 4.9512143 
8.9006996e+2, 2.3581629e+2, -630855.2, -756064.3, 20361.9, -0.0025229687, -0.0045596734, -627627.1, 1370.7251, 0.0, 5.033556, 4.951216 
8.8995594e+2, 2.4076559e+2, -584318.4, -710328.5, 19917.016, -0.0016612785, -0.0065966127, -581245.25, -751.58496, 0.0, 5.0330625, 4.9502482 
8.898376e+2, 2.4571103e+2, -546305.75, -682932.3, 14829.543, -0.0019196947, 0.0007010774, -544714.7, -12685.262, 0.0, 5.03228, 4.943052 
8.897153e+2, 2.5065255e+2, -500412.97, -635231.56, 14391.229, -0.0035845386, 0.00066558475, -498893.88, -15290.126, 0.0, 5.0310655, 4.943062 
8.8959306e+2, 2.5559407e+2, -454556.78, -587572.1, 14183.905, -0.0052141096, 0.0007068635, -453061.13, -17882.99, 0.0, 5.029843, 4.943051 
8.8947076e+2, 2.6053554e+2, -408921.66, -540413.8, 13545.083, -0.0065563642, -0.000058974383, -407540.88, -20788.291, 0.0, 5.0286126, 4.9428596 
8.893449e+2, 2.6547378e+2, -371187.28, -510921.88, 8139.8306, -0.006313852, 0.0048971376, -370714.72, -32357.969, 0.0, 5.027169, 4.9365897 
8.892145e+2, 2.70409e+2, -326510.16, -462071.2, 6884.862, -0.0050514955, -0.0020570904, -326161.4, -36171.055, 0.0, 5.025125, 4.937323 
8.890842e+2, 2.7534416e+2, -282820.72, -415288.47, 6289.6226, -0.003774546, -0.009609959, -282522.78, -40898.59, 0.0, 5.0230565, 4.9373207 
8.88954e+2, 2.8027958e+2, -239213.13, -368263.47, 6062.717, -0.0026102744, -0.01523676, -238928.94, -45672.676, 0.0, 5.0209, 4.9374275 
8.888224e+2, 2.852138e+2, -203267.55, -336844.97, 2760.037, -0.004607248, -0.0009283416, -203210.55, -58308.305, 0.0, 5.0182204, 4.9322643 
8.8868773e+2, 2.9014707e+2, -160619.75, -287134.53, 1519.5714, -0.006486399, 0.007912517, -160601.5, -64043.46, 0.0, 5.0150504, 4.933735 
8.8855314e+2, 2.950803e+2, -119832.07, -241569.7, 903.2937, -0.008536764, 0.016166339, -119825.37, -71611.43, 0.0, 5.011858, 4.9337177 
8.884184e+2, 3.0001318e+2, -80491.32, -199197.38, -496.46652, -0.009465728, 0.023676107, -80489.24, -80489.24, 0.0, 5.0086284, 4.93255 
8.8828397e+2, 3.049548e+2, -34850.203, -112743.86, -1840.9323, -0.0014156422, 0.01556199, -34806.72, -34806.72, 0.0, 5.0061364, 4.9558926 
8.8815075e+2, 3.0990678e+2, -38449.816, -108988.27, -2147.4202, 0.0048373523, -0.043979313, -38384.5, -38384.5, 0.0, 5.0037603, 4.958281 
8.8801754e+2, 3.1485862e+2, -44957.5, -112066.375, -2661.0728, 0.01093704, -0.10566838, -44852.145, -44852.145, 0.0, 5.001372, 4.958209 
8.8788515e+2, 3.198456e+2, -16926.61, -22700.531, 9706.148, -0.023580583, 0.16532119, -9687.176, -9687.176, 0.0, 4.9970345, 4.9922748 
8.9751375e+2, 1.265667e+2, -1639152.6, -1704928.0, 5009.4175, -0.0021424792, 0.009135158, -1638773.3, 60881.18, 0.0, 5.036813, 4.99319 
8.973948e+2, 1.3155802e+2, -1592006.4, -1657053.1, 5666.1855, -0.0002814324, 0.006098524, -1591516.5, 59221.8, 0.0, 5.036309, 4.9931636 
8.9727575e+2, 1.365493e+2, -1544848.5, -1609169.4, 6325.164, 0.0011284738, 0.003315411, -1544232.4, 57589.973, 0.0, 5.035803, 4.9931374 
8.9715683e+2, 1.4154057e+2, -1499431.6, -1564608.9, 8537.031, 0.0010121572, 0.0021781041, -1498332.0, 54574.543, 0.0, 5.035263, 4.991991 
8.970443e+2, 1.4652817e+2, -1460766.6, -1533825.0, 15459.061, 0.0016106832, 0.0067723664, -1457630.3, 46396.203, 0.0, 5.034841, 4.9860177 
8.96935e+2, 1.5151238e+2, -1412308.1, -1485157.5, 16057.81, 0.0012254716, 0.002387056, -1408925.6, 46253.73, 0.0, 5.034732, 4.9860215 
8.968257e+2, 1.564966e+2, -1363846.6, -1436489.1, 16656.033, 0.0007962103, -0.001975535, -1360209.6, 46122.78, 0.0, 5.0346217, 4.9860253 
8.967164e+2, 1.6148071e+2, -1317416.4, -1392050.0, 17688.777, 0.00076759467, -0.0041298266, -1313436.3, 44051.234, 0.0, 5.034523, 4.984597 
8.966098e+2, 1.6646038e+2, -1278902.0, -1363932.0, 21367.967, 0.0015889754, 0.00072950206, -1273834.4, 34854.21, 0.0, 5.034477, 4.9775715 
8.9650464e+2, 1.7143652e+2, -1229759.5, -1314875.3, 21843.986, 0.0017847338, 0.0014145894, -1224480.9, 35443.09, 0.0, 5.034568, 4.9775805 
8.963995e+2, 1.7641264e+2, -1180618.4, -1265821.4, 22322.23, 0.0017923379, 0.0018432912, -1175124.4, 36035.31, 0.0, 5.034658, 4.977589 
8.9629424e+2, 1.8138869e+2, -1132745.0, -1219512.6, 22583.48, 0.0017681135, 0.0022892691, -1127219.0, 35176.133, 0.0, 5.0347514, 4.9766755 
8.961891e+2, 1.8636003e+2, -1093834.0, -1192160.0, 24070.434, 0.0027704411, 0.0055137263, -1088257.8, 25416.445, 0.0, 5.034844, 4.9692836 
8.9608437e+2, 1.9132741e+2, -1044625.25, -1143079.8, 24482.88, 0.0028837502, 0.0018979848, -1038873.1, 26119.041, 0.0, 5.0349355, 4.9692802 
8.959795e+2, 1.9629477e+2, -995417.56, -1094002.3, 24893.594, 0.0027673317, -0.0017148263, -989488.3, 26821.967, 0.0, 5.035026, 4.9692774 
8.9587456e+2, 2.01262e+2, -948119.5, -1049055.4, 24640.824, 0.0018708477, -0.0038246338, -942425.3, 25205.182, 0.0, 5.035104, 4.9678736 
8.957672e+2, 2.062244e+2, -909975.75, -1023641.7, 23690.152, -0.00022764987, 0.0020684074, -905235.94, 13764.232, 0.0, 5.0350785, 4.9598083 
8.956591e+2, 2.1118252e+2, -861332.75, -974770.06, 23904.86, -0.0018693925, 0.00097330054, -856501.06, 13910.55, 0.0, 5.034937, 4.95981 
8.95551e+2, 2.1614066e+2, -812686.5, -925896.44, 24119.023, -0.0035298355, -0.00014362486, -807762.2, 14060.876, 0.0, 5.0347943, 4.9598117 
8.954428e+2, 2.2109875e+2, -764868.0, -878921.0, 23659.375, -0.004837574, -0.0013101241, -760154.8, 13079.363, 0.0, 5.0346603, 4.9591584 
8.953308e+2, 2.260524e+2, -726596.4, -853224.4, 20059.443, -0.0050614607, 0.0026442457, -723494.7, 1192.2794, 0.0, 5.034473, 4.951195 
8.952164e+2, 2.3100162e+2, -678749.44, -804676.7, 20043.146, -0.0047871047, -0.0013176466, -675636.25, 546.7163, 0.0, 5.0340114, 4.9511976 
8.9510196e+2, 2.3595086e+2, -630892.94, -756121.3, 20026.64, -0.004477362, -0.005230021, -627768.25, -89.34274, 0.0, 5.033549, 4.9512005 
8.949874e+2, 2.4090008e+2, -584360.94, -710389.6, 19472.791, -0.004083166, -0.0077700904, -581420.8, -2245.5278, 0.0, 5.033054, 4.950231 
8.948683e+2, 2.4584536e+2, -546510.3, -683572.5, 13923.438, -0.0034393738, -0.00095971016, -545110.2, -14397.8955, 0.0, 5.032294, 4.9428344 
8.947449e+2, 2.5078666e+2, -500621.7, -635882.3, 13489.241, -0.0042620623, -0.0010933243, -499289.56, -17001.047, 0.0, 5.0310793, 4.94284 
8.9462143e+2, 2.5572798e+2, -454763.44, -588218.2, 13288.398, -0.0051284917, -0.0011247693, -453453.16, -19588.441, 0.0, 5.0298567, 4.9428296 
8.9449793e+2, 2.606692e+2, -409275.9, -541398.8, 12568.258, -0.0062812273, -0.0017854813, -408090.97, -22649.537, 0.0, 5.0286264, 4.9425197 
8.943702e+2, 2.6560697e+2, -371873.47, -512796.9, 6669.7397, -0.007711628, 0.0040155817, -371558.5, -34508.023, 0.0, 5.027196, 4.935942 
8.942377e+2, 2.7054164e+2, -327169.84, -463928.16, 5341.0176, -0.007769572, -0.0019629686, -326961.56, -38271.332, 0.0, 5.0251555, 4.9366803 
8.9410514e+2, 2.7547622e+2, -283472.63, -417142.94, 4752.1836, -0.007912443, -0.008535954, -283303.9, -42973.64, 0.0, 5.0230885, 4.936677 
8.939727e+2, 2.8041103e+2, -239850.92, -370060.56, 4291.0244, -0.0072893067, -0.013366802, -239709.67, -47740.97, 0.0, 5.0209255, 4.9368043 
8.9383876e+2, 2.8534448e+2, -203969.47, -338943.88, 387.7934, -0.0052644047, 0.000009813905, -203968.36, -60345.754, 0.0, 5.0182576, 4.931535 
8.9370143e+2, 2.9027706e+2, -161180.52, -288947.6, -884.02563, -0.002228707, 0.008285774, -161174.4, -65889.305, 0.0, 5.0150914, 4.933104 
8.935641e+2, 2.9520965e+2, -120385.234, -243377.14, -1478.1848, 0.0005188898, 0.01608165, -120367.48, -73419.94, 0.0, 5.0118995, 4.933088 
8.934262e+2, 3.0014196e+2, -80846.78, -200663.81, -2626.5056, -0.000046414123, 0.023656238, -80789.234, -80789.234, 0.0, 5.0086894, 4.9320335 
8.932882e+2, 3.0508322e+2, -34557.25, -113045.29, -3804.5303, -0.0023209893, 0.014978538, -34373.266, -34373.266, 0.0, 5.006247, 4.9557843 
8.931513e+2, 3.1003493e+2, -38359.547, -109659.03, -3928.7842, -0.006699735, -0.044251412, -38143.71, -38143.71, 0.0, 5.0038486, 4.9580503 
8.9301443e+2, 3.1498653e+2, -44941.785, -112788.55, -4232.1953, -0.01175113, -0.10447994, -44678.805, -44678.805, 0.0, 5.0014367, 4.95797 
8.9288765e+2, 3.199722e+2, -29923.73, -55098.965, 8342.406, 0.051210415, 0.19795437, -27410.227, -27410.227, 0.0, 4.997314, 4.980327 
9.02549e+2, 1.266908e+2, -1640660.9, -1703664.5, 6216.998, -0.00094670785, 0.010674757, -1640053.3, 58384.973, 0.0, 5.035861, 4.994082 
9.024295e+2, 1.3168293e+2, -1593112.4, -1655555.1, 6790.3013, 0.00058652135, 0.0071136807, -1592382.5, 57131.598, 0.0, 5.0354867, 4.9940667 
9.0231e+2, 1.3667503e+2, -1545642.9, -1607483.4, 7374.485, 0.0017666859, 0.003581819, -1544775.6, 55814.69, 0.0, 5.035082, 4.9940515 
9.0219057e+2, 1.4166708e+2, -1500105.3, -1562999.6, 9621.297, 0.0013250011, 0.0018207518, -1498666.4, 53000.33, 0.0, 5.0346217, 4.9928374 
9.020778e+2, 1.4665541e+2, -1461449.6, -1532500.8, 16604.11, 0.0013068318, 0.0063464437, -1457760.9, 45018.637, 0.0, 5.0342693, 4.986733 
9.019684e+2, 1.5164033e+2, -1412749.9, -1483705.3, 17046.684, 0.00088658434, 0.0020424481, -1408867.0, 45058.836, 0.0, 5.03424, 4.9867415 
9.0185905e+2, 1.5662521e+2, -1364070.6, -1434920.3, 17502.912, 0.0004651956, -0.002356424, -1359982.5, 45089.63, 0.0, 5.034202, 4.9867506 
9.017497e+2, 1.6161004e+2, -1317533.6, -1390490.4, 18493.959, 0.00053743453, -0.0043385476, -1313113.4, 43106.965, 0.0, 5.0341516, 4.985298 
9.0164304e+2, 1.6659038e+2, -1279052.1, -1362489.9, 22348.975, 0.0012532074, 0.00078628695, -1273443.0, 33971.56, 0.0, 5.0341177, 4.978225 
9.01538e+2, 1.7156717e+2, -1229868.8, -1313413.1, 22869.92, 0.0011207897, 0.0017132872, -1224018.0, 34625.6, 0.0, 5.034225, 4.9782343 
9.01433e+2, 1.7654397e+2, -1180701.1, -1264346.8, 23381.635, 0.0009259876, 0.0025907021, -1174608.9, 35263.766, 0.0, 5.0343266, 4.9782434 
9.0132785e+2, 1.8152063e+2, -1132829.3, -1218137.1, 23640.156, 0.00091888814, 0.0032756727, -1126716.3, 34385.625, 0.0, 5.0344405, 4.9772873 
9.0122277e+2, 1.864924e+2, -1093905.3, -1191006.4, 25067.775, 0.002040828, 0.0056023556, -1087815.6, 24560.914, 0.0, 5.034589, 4.9697895 
9.011181e+2, 1.9146016e+2, -1044545.5, -1141852.9, 25407.117, 0.0020513053, 0.0010530079, -1038311.1, 25379.436, 0.0, 5.034733, 4.9697876 
9.0101343e+2, 1.964279e+2, -995247.3, -1092730.4, 25749.275, 0.0019609628, -0.0034989645, -988863.9, 26140.857, 0.0, 5.034856, 4.9697857 
9.009085e+2, 2.0139557e+2, -947946.4, -1047917.44, 25413.643, 0.0011436599, -0.0058771437, -941856.9, 24463.824, 0.0, 5.0349665, 4.968321 
9.008011e+2, 2.063584e+2, -909640.9, -1022733.25, 24451.266, -0.0009158461, 0.0008177748, -904580.8, 13105.389, 0.0, 5.0350657, 4.9601164 
9.0069294e+2, 2.113169e+2, -860682.75, -973718.3, 24738.906, -0.0024159027, 0.0005306308, -855505.56, 13588.621, 0.0, 5.035037, 4.960116 
9.005847e+2, 2.1627538e+2, -811878.9, -924776.4, 25018.268, -0.0038430528, 0.00026942656, -806583.2, 13919.047, 0.0, 5.0349536, 4.9601154 
9.004764e+2, 2.2123379e+2, -764108.4, -877992.1, 24569.145, -0.0049638283, -0.00037543115, -759033.94, 12876.526, 0.0, 5.0348344, 4.9593935 
9.0036404e+2, 2.2618745e+2, -725968.44, -852949.9, 20756.65, -0.0055032074, 0.003183068, -722661.6, 701.5438, 0.0, 5.034705, 4.951183 
9.0024906e+2, 2.3113656e+2, -677984.2, -804339.25, 20707.045, -0.0059614866, -0.0013794443, -674677.25, 183.03096, 0.0, 5.034293, 4.9511857 
9.0013415e+2, 2.360857e+2, -630079.9, -755762.7, 20651.184, -0.0063504647, -0.0059032463, -626773.6, -416.2901, 0.0, 5.033849, 4.951188 
9.0001905e+2, 2.4103487e+2, -583601.56, -710093.9, 19954.879, -0.006421121, -0.008828609, -580528.25, -2673.8362, 0.0, 5.033344, 4.9502015 
8.9989907e+2, 2.4597998e+2, -545778.94, -683740.5, 13913.889, -0.0048096953, -0.0021866187, -544389.6, -14996.9375, 0.0, 5.032644, 4.942628 
8.997745e+2, 2.50921e+2, -499822.3, -636046.7, 13421.996, -0.0048584887, -0.0025439884, -498512.47, -17541.438, 0.0, 5.0314574, 4.942623 
8.996499e+2, 2.5586206e+2, -453978.72, -588390.6, 13167.793, -0.0048953732, -0.0028214124, -452700.84, -20151.502, 0.0, 5.030229, 4.9426126 
8.9952517e+2, 2.6080298e+2, -408756.63, -542030.1, 12324.879, -0.005770159, -0.0033732918, -407626.4, -23497.783, 0.0, 5.028969, 4.942157 
8.9939564e+2, 2.6574033e+2, -371659.3, -514277.56, 5916.1597, -0.008614082, 0.003404968, -371414.3, -35671.508, 0.0, 5.027553, 4.9352865 
8.992609e+2, 2.7067438e+2, -326933.06, -465361.97, 4481.8965, -0.010012146, -0.0016078564, -326788.1, -39399.242, 0.0, 5.025509, 4.9360437 
8.991262e+2, 2.7560842e+2, -283348.84, -418635.13, 3855.2502, -0.011485901, -0.0071878745, -283239.06, -44203.938, 0.0, 5.0234003, 4.9360375 
8.989916e+2, 2.8054264e+2, -239918.34, -371659.13, 3111.6853, -0.011242227, -0.01127872, -239844.89, -49164.67, 0.0, 5.0211706, 4.9361563 
8.9885503e+2, 2.8547522e+2, -204093.23, -340773.84, -1356.9723, -0.0056621153, 0.0006931356, -204079.75, -61737.33, 0.0, 5.0185037, 4.930811 
8.9871496e+2, 2.904071e+2, -161314.63, -290532.7, -2663.144, 0.00204686, 0.007828128, -161259.75, -67247.984, 0.0, 5.0152826, 4.932489 
8.985749e+2, 2.9533905e+2, -120881.2, -245112.28, -3216.837, 0.009607668, 0.014774603, -120797.96, -75117.266, 0.0, 5.0119576, 4.932474 
8.98434e+2, 3.002709e+2, -82013.586, -203411.81, -4021.2234, 0.00924039, 0.025359737, -81880.53, -81880.53, 0.0, 5.0086346, 4.9311094 
8.982924e+2, 3.0521184e+2, -34325.215, -113366.24, -5242.613, -0.0032003452, 0.015249269, -33979.004, -33979.004, 0.0, 5.0063486, 4.95566 
8.981518e+2, 3.1016323e+2, -38519.99, -110364.11, -5432.901, -0.01824414, -0.048349544, -38111.47, -38111.47, 0.0, 5.003849, 4.957829 
8.980111e+2, 3.1511465e+2, -46249.598, -113986.67, -5565.7397, -0.03429775, -0.11162237, -45795.324, -45795.324, 0.0, 5.001019, 4.9577494 
8.9788926e+2, 3.2008764e+2, -19317.549, -32143.906, 7517.73, 0.12055773, 0.037699204, -15849.173, -15849.173, 0.0, 4.997536, 4.9886174 
9.0758127e+2, 1.268164e+2, -1651994.6, -1707118.8, 6229.113, 0.0005347255, 0.010466367, -1651299.5, 45906.297, 0.0, 5.0316052, 4.9950137 
9.074616e+2, 1.3180947e+2, -1603215.6, -1658355.1, 6920.1934, 0.0017578428, 0.0069612027, -1602360.4, 45912.145, 0.0, 5.031633, 4.9950066 
9.0734184e+2, 1.368025e+2, -1554436.8, -1609593.1, 7608.223, 0.002667994, 0.0033282703, -1553406.5, 45933.383, 0.0, 5.0316586, 4.995 
9.072222e+2, 1.4179546e+2, -1507666.0, -1564714.6, 10032.093, 0.0020496745, 0.0015648627, -1505953.3, 44454.605, 0.0, 5.031657, 4.9936886 
9.0710956e+2, 1.4678456e+2, -1468015.6, -1534138.0, 17337.514, 0.0015456041, 0.0065994323, -1463745.4, 37768.453, 0.0, 5.031705, 4.987429 
9.070003e+2, 1.5177023e+2, -1418339.6, -1484817.4, 17940.756, 0.0013540775, 0.0032685867, -1413806.9, 38846.484, 0.0, 5.0320005, 4.9874477 
9.0689105e+2, 1.5675591e+2, -1368668.6, -1435504.4, 18543.932, 0.0012412335, -0.00014275085, -1363868.3, 39924.71, 0.0, 5.0322957, 4.9874663 
9.067819e+2, 1.617415e+2, -1320863.9, -1390008.0, 19719.773, 0.0015481504, -0.0018452319, -1315635.1, 39298.563, 0.0, 5.0325823, 4.9862075 
9.0667546e+2, 1.6672258e+2, -1281518.1, -1361655.8, 23908.59, 0.0018990819, 0.0019664266, -1274927.1, 31192.613, 0.0, 5.0328455, 4.979111 
9.065706e+2, 1.7170012e+2, -1231594.9, -1312183.1, 24727.123, 0.0013581462, 0.0020809963, -1224612.8, 32727.719, 0.0, 5.0332093, 4.9791293 
9.0646577e+2, 1.7667769e+2, -1181678.4, -1262718.9, 25545.768, 0.00095075206, 0.0024967105, -1174298.0, 34262.996, 0.0, 5.0335727, 4.979147 
9.0636086e+2, 1.8165512e+2, -1133205.5, -1216443.9, 26151.563, 0.0008422678, 0.0030134404, -1125671.3, 34110.95, 0.0, 5.033952, 4.978084 
9.062561e+2, 1.8662754e+2, -1093701.8, -1189209.9, 27920.143, 0.001339254, 0.005153577, -1086138.6, 24912.494, 0.0, 5.034356, 4.970489 
9.0615165e+2, 1.915959e+2, -1043519.8, -1139589.8, 28595.793, 0.0008143634, 0.00051730423, -1035652.44, 26707.404, 0.0, 5.034788, 4.9705067 
9.060472e+2, 1.9656427e+2, -993346.2, -1089979.5, 29270.953, 0.00050679484, -0.0039969464, -985171.4, 28497.023, 0.0, 5.035219, 4.9705243 
9.059426e+2, 2.0153259e+2, -945004.44, -1044374.0, 29244.84, -0.000044230776, -0.0062852567, -937036.5, 27941.639, 0.0, 5.035652, 4.969177 
9.0583545e+2, 2.0649607e+2, -905976.7, -1018956.3, 28665.182, -0.0016668914, -0.000034273715, -899119.9, 17216.666, 0.0, 5.036054, 4.9609003 
9.057275e+2, 2.1145523e+2, -856070.94, -969451.06, 29349.479, -0.0026985442, -0.00035663004, -848924.06, 18813.648, 0.0, 5.036369, 4.9609118 
9.056195e+2, 2.1641436e+2, -806170.7, -919953.7, 30031.934, -0.0034589318, -0.000585989, -798730.56, 20408.357, 0.0, 5.0366817, 4.9609237 
9.055113e+2, 2.2137335e+2, -757425.44, -873065.6, 29944.697, -0.0039371466, -0.0011988184, -750131.4, 20409.74, 0.0, 5.036993, 4.9600444 
9.053988e+2, 2.2632737e+2, -718658.25, -848274.25, 26375.514, -0.0047857906, 0.0028593827, -713496.6, 8494.317, 0.0, 5.037203, 4.951588 
9.0528363e+2, 2.3127674e+2, -669715.2, -799180.75, 26745.334, -0.005817715, -0.0013775758, -664407.7, 9078.79, 0.0, 5.0371456, 4.9516015 
9.051684e+2, 2.362261e+2, -620770.3, -750087.75, 27113.693, -0.006710522, -0.0055828, -615315.56, 9666.349, 0.0, 5.0370874, 4.9516144 
9.050529e+2, 2.4117547e+2, -573123.9, -703677.1, 26754.28, -0.0072222324, -0.008630466, -567853.8, 8623.476, 0.0, 5.0369844, 4.9507084 
9.0493214e+2, 2.4612056e+2, -534686.2, -677687.8, 20745.607, -0.0061076107, -0.003283538, -531737.4, -3722.1162, 0.0, 5.036639, 4.942848 
9.0480655e+2, 2.510615e+2, -488010.75, -629661.2, 20645.152, -0.0056613344, -0.0038250515, -485063.13, -5469.139, 0.0, 5.035728, 4.942844 
9.04681e+2, 2.5600246e+2, -441340.03, -581601.7, 20774.65, -0.0049871486, -0.0045541064, -438327.72, -7154.82, 0.0, 5.0348086, 4.9428463 
9.0455526e+2, 2.6094323e+2, -395347.72, -535078.6, 20244.666, -0.0048205093, -0.0052463887, -392473.72, -9720.658, 0.0, 5.033878, 4.942311 
9.0442413e+2, 2.6588038e+2, -358411.1, -508153.25, 13647.266, -0.007352696, 0.0030415542, -357177.47, -22807.582, 0.0, 5.032551, 4.935111 
9.042872e+2, 2.7081415e+2, -313915.22, -459306.22, 12486.4375, -0.008972423, 0.000058361526, -312850.66, -26831.262, 0.0, 5.0304313, 4.935889 
9.0415037e+2, 2.7574795e+2, -270484.88, -412646.56, 12193.496, -0.010328519, -0.0032264867, -269446.6, -31777.629, 0.0, 5.0282807, 4.9358873 
9.040136e+2, 2.8068182e+2, -226990.8, -365313.84, 11578.311, -0.009771707, -0.006193249, -226028.33, -36710.594, 0.0, 5.026021, 4.936156 
9.038739e+2, 2.8561354e+2, -191919.27, -334823.53, 6919.87, -0.0055082794, 0.00070023147, -191584.97, -50597.3, 0.0, 5.023065, 4.9308176 
9.037302e+2, 2.9054454e+2, -150854.64, -285421.2, 5692.861, 0.0018712358, 0.00330934, -150614.23, -57949.395, 0.0, 5.019241, 4.93247 
9.0358657e+2, 2.954757e+2, -111889.234, -240627.88, 5291.56, 0.010107534, 0.006488045, -111672.1, -67331.305, 0.0, 5.015382, 4.932467 
9.0344244e+2, 3.0040687e+2, -74215.57, -199300.19, 5375.2915, 0.012436297, 0.014218471, -73985.01, -73985.01, 0.0, 5.01158, 4.9311852 
9.032981e+2, 3.0534828e+2, -29405.758, -110970.16, 3469.3718, 0.0003529864, 0.016429756, -29258.453, -29258.453, 0.0, 5.0083823, 4.9555125 
9.031541e+2, 3.1030074e+2, -35908.457, -108621.586, 2258.839, -0.016464323, -0.028352689, -35838.35, -35838.35, 0.0, 5.00499, 4.9578185 
9.0300995e+2, 3.1525388e+2, -45139.64, -112630.25, 1065.629, -0.03197421, -0.06829162, -45122.82, -45122.82, 0.0, 5.001581, 4.9578366 
9.0287846e+2, 3.202162e+2, -11743.702, -6928.339, 3900.1038, 0.06728306, -0.065077856, -4752.6006, -4752.6006, 0.0, 4.9960876, 4.9985557 
9.126115e+2, 1.2694193e+2, -1650449.1, -1704128.9, 6199.3257, 0.00054593344, 0.00902306, -1649742.5, 46231.46, 0.0, 5.031632, 4.995996 
9.1249186e+2, 1.3193598e+2, -1601679.0, -1655382.6, 6898.1343, 0.0018003004, 0.005514696, -1600807.0, 46224.316, 0.0, 5.0316606, 4.9959865 
9.1237205e+2, 1.3692997e+2, -1552908.6, -1606638.1, 7593.894, 0.0026089074, 0.0018695375, -1551856.0, 46233.28, 0.0, 5.0316877, 4.995977 
9.122525e+2, 1.419239e+2, -1506324.3, -1562121.0, 10104.887, 0.0017751456, 0.0004896382, -1504550.6, 44597.56, 0.0, 5.031685, 4.994547 
9.1214e+2, 1.4691387e+2, -1466862.9, -1531788.9, 17522.299, 0.00084228086, 0.0061073313, -1462435.9, 37810.72, 0.0, 5.0317125, 4.9882126 
9.120311e+2, 1.5190041e+2, -1417199.5, -1482480.3, 18130.135, 0.0011404528, 0.0036044992, -1412502.4, 38876.16, 0.0, 5.032007, 4.9882307 
9.119222e+2, 1.5688694e+2, -1367541.1, -1433179.1, 18737.908, 0.0014862928, 0.0010458985, -1362568.6, 39941.844, 0.0, 5.0323014, 4.988249 
9.1181344e+2, 1.618734e+2, -1319469.3, -1387082.9, 19951.434, 0.002047735, -0.0004822027, -1314021.0, 39621.867, 0.0, 5.032583, 4.987195 
9.117073e+2, 1.668554e+2, -1280114.6, -1358609.3, 24146.16, 0.002083724, 0.002273592, -1273281.8, 31537.262, 0.0, 5.0328345, 4.980142 
9.1160274e+2, 1.7183389e+2, -1230201.1, -1309145.0, 24968.35, 0.0010972127, 0.0017910014, -1222967.0, 33062.26, 0.0, 5.0331984, 4.9801607 
9.1149825e+2, 1.7681243e+2, -1180294.4, -1259689.3, 25790.652, 0.00020924133, 0.0016112451, -1172652.1, 34587.367, 0.0, 5.0335617, 4.980179 
9.1139364e+2, 1.8179075e+2, -1132016.5, -1213809.0, 26435.762, -0.00043711034, 0.001676482, -1124216.3, 34235.133, 0.0, 5.0339403, 4.9789844 
9.112893e+2, 1.8676405e+2, -1092617.4, -1186735.0, 28207.791, -0.0002458829, 0.0038925346, -1084810.9, 24901.494, 0.0, 5.034337, 4.971334 
9.1118526e+2, 1.9173329e+2, -1042439.94, -1137119.4, 28888.342, -0.00085349067, -0.00043922706, -1034321.7, 26691.313, 0.0, 5.03477, 4.971352 
9.110813e+2, 1.9670253e+2, -992270.75, -1087513.5, 29568.404, -0.0013293753, -0.004659111, -983837.8, 28475.785, 0.0, 5.035202, 4.9713707 
9.1097707e+2, 2.0167175e+2, -943786.3, -1041594.06, 29491.22, -0.0017998674, -0.0066956975, -935582.2, 28032.53, 0.0, 5.035635, 4.970134 
9.108703e+2, 2.0663613e+2, -904842.9, -1016361.4, 28874.117, -0.002787656, -0.0010601513, -897810.4, 17153.586, 0.0, 5.036038, 4.9617953 
9.1076267e+2, 2.1159613e+2, -854938.9, -966861.25, 29566.906, -0.0031882988, -0.0015295814, -847608.25, 18747.744, 0.0, 5.0363545, 4.9618077 
9.106551e+2, 2.1655613e+2, -805040.44, -917368.94, 30257.852, -0.0034795632, -0.001940969, -797408.44, 20339.662, 0.0, 5.0366693, 4.9618196 
9.105472e+2, 2.2151592e+2, -756590.06, -871103.06, 30091.781, -0.003813094, -0.00258307, -749164.06, 19978.1, 0.0, 5.0369787, 4.9607277 
9.1043484e+2, 2.2647059e+2, -718113.25, -846936.8, 26304.152, -0.004506572, 0.0025109865, -712949.25, 7637.181, 0.0, 5.037184, 4.9520574 
9.103195e+2, 2.314205e+2, -669167.3, -797843.8, 26681.412, -0.0055106063, -0.00079426344, -663854.25, 8223.05, 0.0, 5.037129, 4.9520707 
9.1020423e+2, 2.3637041e+2, -620219.6, -748751.4, 27057.21, -0.0065110233, -0.0041074227, -614756.06, 8812.06, 0.0, 5.0370727, 4.952084 
9.1008854e+2, 2.4132031e+2, -572467.2, -702081.1, 26582.479, -0.0073343087, -0.0068716747, -567227.2, 7831.583, 0.0, 5.036967, 4.9512696 
9.099671e+2, 2.4626556e+2, -534418.6, -677137.4, 20036.654, -0.007281721, -0.0038644902, -531659.0, -5064.271, 0.0, 5.036637, 4.943049 
9.0984064e+2, 2.5120658e+2, -487761.94, -629129.6, 19964.672, -0.0068055997, -0.0052857413, -484996.53, -6824.56, 0.0, 5.035723, 4.9430394 
9.0971416e+2, 2.5614762e+2, -441098.53, -581068.5, 20104.535, -0.0062322384, -0.006829833, -438268.06, -8518.691, 0.0, 5.034802, 4.943043 
9.0958744e+2, 2.6108858e+2, -395232.6, -534807.25, 19466.596, -0.005904686, -0.0073561617, -392568.44, -11240.684, 0.0, 5.0338683, 4.9424167 
9.094548e+2, 2.6602584e+2, -358619.53, -509024.88, 12073.072, -0.0073237345, 0.0035001072, -357656.6, -24712.666, 0.0, 5.0325847, 4.9348106 
9.0931594e+2, 2.7095962e+2, -314073.38, -460080.7, 10880.945, -0.008075786, 0.0029601215, -313266.94, -28672.553, 0.0, 5.030467, 4.935622 
9.0917695e+2, 2.758934e+2, -270639.5, -413413.13, 10599.217, -0.008762321, 0.0021458708, -269856.9, -33612.098, 0.0, 5.028316, 4.9356227 
9.090378e+2, 2.8082713e+2, -226948.16, -365557.56, 9676.372, -0.008310889, -0.00014717199, -226275.9, -38380.863, 0.0, 5.026044, 4.9360805 
9.088948e+2, 2.857581e+2, -191819.16, -335277.78, 4110.299, -0.00650964, -0.00015582598, -191701.48, -52130.246, 0.0, 5.023122, 4.930675 
9.08747e+2, 2.9068816e+2, -150849.83, -286175.0, 2807.16, -0.0014230459, -0.004143259, -150791.63, -59535.31, 0.0, 5.019307, 4.9322195 
9.0859926e+2, 2.9561836e+2, -111873.53, -241389.02, 2436.2847, 0.004236264, -0.0077502844, -111827.72, -68887.2, 0.0, 5.015453, 4.932213 
9.084516e+2, 3.0054885e+2, -74125.24, -199894.69, 2864.6494, 0.0075591444, -0.0052425237, -74060.02, -74060.02, 0.0, 5.011654, 4.9309883 
9.0830475e+2, 3.054918e+2, -29855.877, -113362.06, 833.1412, 0.0038486395, 0.022076398, -29847.564, -29847.564, 0.0, 5.008521, 4.9546614 
9.081576e+2, 3.1044573e+2, -36018.523, -110390.77, -220.54185, -0.007839311, 0.0026654506, -36017.867, -36017.867, 0.0, 5.0051503, 4.9571896 
9.0801036e+2, 3.1540015e+2, -45210.62, -114423.516, -1134.1449, -0.019532554, -0.013981395, -45192.043, -45192.043, 0.0, 5.0017567, 4.9571958 
9.0786034e+2, 3.203625e+2, -23518.686, -32478.879, -2202.156, -0.055308707, 0.032819737, -23006.713, -23006.713, 0.0, 4.9956512, 4.989479 
9.1764176e+2, 1.2706749e+2, -1648905.5, -1701136.1, 6173.3003, 0.00051752926, 0.0076451045, -1648185.8, 46556.246, 0.0, 5.031659, 4.9969773 
9.1752213e+2, 1.3206251e+2, -1600149.4, -1652410.0, 6881.709, 0.0018461281, 0.004056771, -1599258.4, 46531.684, 0.0, 5.0316877, 4.9969654 
9.174024e+2, 1.3705747e+2, -1551384.6, -1603681.4, 7582.5874, 0.0025992016, 0.00032133466, -1550307.4, 46531.22, 0.0, 5.031717, 4.996953 
9.172828e+2, 1.4205237e+2, -1505026.5, -1559614.0, 10171.023, 0.0015418277, -0.0005199434, -1503193.0, 44695.465, 0.0, 5.031713, 4.9953756 
9.171705e+2, 1.470432e+2, -1465712.1, -1529439.8, 17707.996, 0.00008971199, 0.0058474434, -1461122.3, 37856.902, 0.0, 5.03172, 4.9889956 
9.170619e+2, 1.5203059e+2, -1416061.4, -1480143.1, 18320.43, 0.00090744736, 0.00407812, -1411193.5, 38909.97, 0.0, 5.032014, 4.989013 
9.1695344e+2, 1.5701799e+2, -1366415.4, -1430853.9, 18932.799, 0.0017418232, 0.0022777445, -1361264.5, 39963.32, 0.0, 5.0323067, 4.989031 
9.168449e+2, 1.6200532e+2, -1318093.0, -1384194.3, 20174.146, 0.0025585892, 0.0009109919, -1312422.3, 39929.477, 0.0, 5.0325847, 4.9881706 
9.167391e+2, 1.6698824e+2, -1278712.5, -1355563.6, 24383.455, 0.002259995, 0.0026311867, -1271628.9, 31888.98, 0.0, 5.0328236, 4.9811726 
9.166349e+2, 1.7196769e+2, -1228808.6, -1306107.8, 25209.3, 0.000811384, 0.001470586, -1221313.9, 33404.08, 0.0, 5.0331874, 4.9811916 
9.1653067e+2, 1.7694716e+2, -1178911.5, -1256660.4, 26035.26, -0.0005737189, 0.00061447994, -1170998.6, 34919.21, 0.0, 5.0335507, 4.9812107 
9.164264e+2, 1.819264e+2, -1130861.4, -1211245.5, 26713.025, -0.0017094639, 0.00035641296, -1122793.8, 34326.55, 0.0, 5.033929, 4.9798594 
9.1632247e+2, 1.8690057e+2, -1091534.5, -1184259.9, 28495.33, -0.0017914776, 0.002707815, -1083477.8, 24895.65, 0.0, 5.0343184, 4.972178 
9.162189e+2, 1.9187067e+2, -1041361.5, -1134648.6, 29180.783, -0.0025240933, -0.001379214, -1032985.6, 26680.502, 0.0, 5.034752, 4.9721975 
9.161153e+2, 1.9684081e+2, -991196.75, -1085047.4, 29865.746, -0.003210651, -0.0053645344, -982498.8, 28459.947, 0.0, 5.035185, 4.9722166 
9.1601145e+2, 2.0181093e+2, -942582.5, -1038844.2, 29731.79, -0.0035380484, -0.007055644, -934139.9, 28111.203, 0.0, 5.0356183, 4.9710803 
9.159052e+2, 2.0677619e+2, -903711.56, -1013765.3, 29084.104, -0.0038309684, -0.001960877, -896498.25, 17092.764, 0.0, 5.036021, 4.96269 
9.157979e+2, 2.1173707e+2, -853809.3, -964270.25, 29785.385, -0.0036401695, -0.0026637309, -846289.7, 18684.297, 0.0, 5.03634, 4.9627023 
9.1569066e+2, 2.1669792e+2, -803912.56, -914783.1, 30484.822, -0.003501984, -0.003343536, -796083.4, 20273.623, 0.0, 5.0366573, 4.962715 
9.155831e+2, 2.2165854e+2, -755806.94, -869251.9, 30220.438, -0.0037394997, -0.0038701342, -748258.8, 19484.271, 0.0, 5.036964, 4.961372 
9.154708e+2, 2.2661383e+2, -717570.0, -845597.9, 26233.555, -0.0040855883, 0.0023843881, -712403.1, 6778.6514, 0.0, 5.0371647, 4.9525256 
9.153554e+2, 2.315643e+2, -668621.2, -796505.44, 26618.256, -0.0051075886, -0.000081069324, -663302.06, 7365.9854, 0.0, 5.037112, 4.9525394 
9.1524005e+2, 2.3651476e+2, -619670.7, -747413.6, 27001.494, -0.0062615434, -0.0025940968, -614197.75, 7956.518, 0.0, 5.0370584, 4.9525533 
9.151242e+2, 2.4146517e+2, -571822.0, -700507.25, 26401.537, -0.007468213, -0.0051477593, -566615.94, 7024.275, 0.0, 5.036949, 4.9518228 
9.1500205e+2, 2.4641055e+2, -534168.4, -676621.94, 19322.434, -0.008361809, -0.004546016, -531594.0, -6419.771, 0.0, 5.036635, 4.943236 
9.148747e+2, 2.5135165e+2, -487514.84, -628596.9, 19282.125, -0.007902224, -0.0070169587, -484926.97, -8176.8857, 0.0, 5.035719, 4.9432335 
9.1474724e+2, 2.562928e+2, -440858.75, -580534.1, 19432.35, -0.007475186, -0.009544986, -438205.63, -9879.588, 0.0, 5.0347953, 4.9432387 
9.146196e+2, 2.6123393e+2, -395131.8, -534565.56, 18692.06, -0.007074677, -0.009644061, -392669.5, -12767.049, 0.0, 5.0338583, 4.9425106 
9.144856e+2, 2.661714e+2, -358859.72, -509964.13, 10502.452, -0.007347564, 0.0045250617, -358133.25, -26615.813, 0.0, 5.0326185, 4.934485 
9.1434455e+2, 2.7110514e+2, -314232.8, -460853.88, 9274.928, -0.00726117, 0.0062590973, -313648.44, -30479.56, 0.0, 5.030503, 4.935354 
9.1420346e+2, 2.7603891e+2, -270795.4, -414178.4, 9004.413, -0.0073110345, 0.007749585, -270232.16, -35411.926, 0.0, 5.0283523, 4.9353566 
9.140621e+2, 2.809725e+2, -226919.55, -365822.66, 7779.556, -0.0072220336, 0.005891149, -226485.2, -40013.004, 0.0, 5.0260663, 4.9359965 
9.1391563e+2, 2.8590265e+2, -191808.81, -335951.88, 1271.0139, -0.0073767356, -0.001513589, -191797.61, -53642.395, 0.0, 5.023182, 4.930452 
9.137638e+2, 2.9083174e+2, -150843.89, -286930.25, -71.65038, -0.0043545663, -0.012782373, -150843.86, -60995.49, 0.0, 5.019376, 4.9319663 
9.1361195e+2, 2.9576096e+2, -111856.66, -242151.58, -412.09708, -0.0010376375, -0.023883045, -111855.35, -70314.38, 0.0, 5.0155263, 4.931956 
9.134607e+2, 3.0069092e+2, -74722.24, -202097.75, 373.5077, 0.0021794846, -0.02245406, -74721.15, -74721.15, 0.0, 5.0117297, 4.930214 
9.133115e+2, 3.0563548e+2, -30341.102, -115815.83, -1757.614, 0.0072626197, 0.029119648, -30304.975, -30304.975, 0.0, 5.008662, 4.953774 
9.131614e+2, 3.105907e+2, -36133.305, -112155.41, -2664.9624, 0.0026259432, 0.027837371, -36040.0, -36040.0, 0.0, 5.0053134, 4.9565487 
9.1301125e+2, 3.1554627e+2, -45285.8, -116212.87, -3298.8447, -0.003348074, 0.027367001, -45132.7, -45132.7, 0.0, 5.001935, 4.956543 
9.128479e+2, 3.205078e+2, -27086.469, -37165.11, -8441.185, -0.10889994, 0.08848677, -22294.8, -22294.8, 0.0, 4.9949265, 4.9880624 
9.2267185e+2, 1.2719311e+2, -1650602.4, -1699478.3, 6582.5566, 0.001456413, 0.0063267215, -1649731.4, 43778.62, 0.0, 5.030593, 4.998033 
9.2255217e+2, 1.3218918e+2, -1601336.4, -1650492.1, 7380.5, 0.0023009982, 0.0028814161, -1600252.1, 44295.848, 0.0, 5.0307927, 4.9980235 
9.224324e+2, 1.371852e+2, -1552330.9, -1601636.3, 8184.172, 0.002802244, -0.0006059818, -1551007.9, 44578.508, 0.0, 5.030904, 4.998014 
9.223129e+2, 1.4218116e+2, -1506031.6, -1557883.4, 11016.047, 0.0014647397, -0.0007879255, -1503788.3, 42837.934, 0.0, 5.0309353, 4.996318 
9.222008e+2, 1.4717288e+2, -1466699.0, -1527869.9, 18819.412, -0.0007450011, 0.0060401554, -1461372.9, 36335.387, 0.0, 5.0309696, 4.989879 
9.220926e+2, 1.5216117e+2, -1416979.0, -1478561.3, 19519.96, 0.0004939501, 0.0045441096, -1411313.0, 37511.305, 0.0, 5.031289, 4.98989 
9.219844e+2, 1.5714942e+2, -1367268.1, -1429260.8, 20212.004, 0.0017716406, 0.0030636084, -1361260.4, 38680.125, 0.0, 5.0316067, 4.989901 
9.218762e+2, 1.6213761e+2, -1318688.8, -1382242.0, 21498.068, 0.002922562, 0.0016388363, -1312099.8, 38956.164, 0.0, 5.031925, 4.9891424 
9.217708e+2, 1.6712141e+2, -1279076.6, -1353386.0, 25633.121, 0.0024545325, 0.002620062, -1271092.3, 31120.496, 0.0, 5.032225, 4.982187 
9.216669e+2, 1.721018e+2, -1228967.5, -1303863.1, 26334.72, 0.00071651005, 0.00089683256, -1220634.8, 32768.418, 0.0, 5.0326605, 4.982198 
9.21563e+2, 1.7708217e+2, -1178898.8, -1254364.3, 27030.857, -0.0009602882, -0.00067575864, -1170215.6, 34377.926, 0.0, 5.0330844, 4.9822097 
9.214591e+2, 1.8206228e+2, -1130921.8, -1209280.5, 27639.713, -0.0024167423, -0.0012416937, -1122153.5, 33633.965, 0.0, 5.0335, 4.9807305 
9.213556e+2, 1.8703735e+2, -1091450.6, -1182173.0, 29442.678, -0.002778211, 0.0015124237, -1082733.1, 24298.992, 0.0, 5.0339427, 4.973059 
9.212524e+2, 1.9200838e+2, -1041148.7, -1132507.3, 30131.56, -0.0035572632, -0.0020554166, -1032105.9, 26210.52, 0.0, 5.0344234, 4.973077 
9.211494e+2, 1.969794e+2, -990971.4, -1082905.1, 30822.035, -0.004245095, -0.005568309, -981594.3, 28006.344, 0.0, 5.034864, 4.9730954 
9.2104596e+2, 2.0195046e+2, -942266.0, -1036476.1, 30647.656, -0.004297818, -0.006826709, -933173.5, 27710.545, 0.0, 5.035292, 4.9720407 
9.2094e+2, 2.0691659e+2, -903294.4, -1011470.5, 29975.844, -0.0042809625, -0.002420869, -895543.4, 16671.674, 0.0, 5.0357556, 4.9635973 
9.208331e+2, 2.1187828e+2, -853214.06, -961898.94, 30667.932, -0.0038088104, -0.003637197, -845157.6, 18431.697, 0.0, 5.0361385, 4.9636087 
9.207262e+2, 2.1683997e+2, -803215.44, -912369.7, 31358.988, -0.0033402408, -0.0048423726, -794847.75, 20115.967, 0.0, 5.0364947, 4.9636207 
9.2061895e+2, 2.2180136e+2, -755377.8, -867507.25, 31023.375, -0.0034607565, -0.005265609, -747366.75, 18975.168, 0.0, 5.036823, 4.9620366 
9.205067e+2, 2.2675733e+2, -717066.6, -844112.75, 26982.393, -0.0034524403, 0.0022021076, -711573.5, 6201.1704, 0.0, 5.037114, 4.9530544 
9.203913e+2, 2.3170838e+2, -667905.0, -794927.0, 27473.557, -0.0045060944, 0.0005706519, -662217.44, 7038.417, 0.0, 5.03714, 4.953066 
9.2027587e+2, 2.3665941e+2, -618862.8, -745798.9, 27948.746, -0.005569554, -0.0011042482, -612981.56, 7755.4897, 0.0, 5.0371222, 4.9530773 
9.2016e+2, 2.4161035e+2, -570862.06, -698741.5, 27276.672, -0.006859228, -0.0033306626, -565287.0, 6931.1377, 0.0, 5.037049, 4.9523883 
9.2003715e+2, 2.4655585e+2, -533331.8, -675848.75, 19643.508, -0.008693926, -0.0050097117, -530673.9, -6923.253, 0.0, 5.0368524, 4.9434133 
9.199088e+2, 2.51497e+2, -486487.13, -627689.2, 19588.29, -0.00841717, -0.008630983, -483820.13, -8494.613, 0.0, 5.035999, 4.94343 
9.1978043e+2, 2.5643817e+2, -439765.3, -579589.7, 19692.66, -0.008167361, -0.012231975, -437044.75, -10144.392, 0.0, 5.035102, 4.943437 
9.1965187e+2, 2.613795e+2, -394255.0, -533941.4, 18830.754, -0.007785293, -0.011807073, -391761.0, -13285.958, 0.0, 5.034134, 4.9426103 
9.195163e+2, 2.6631716e+2, -358376.9, -510518.66, 9856.703, -0.007206062, 0.0059180236, -357741.0, -27652.309, 0.0, 5.032915, 4.934176 
9.1937315e+2, 2.7125084e+2, -313595.2, -461197.9, 8583.331, -0.0064928485, 0.009652192, -313097.72, -31356.416, 0.0, 5.030824, 4.9351096 
9.1923004e+2, 2.7618456e+2, -270241.06, -414570.7, 8282.796, -0.005903483, 0.013248828, -269767.28, -36373.496, 0.0, 5.0286446, 4.935108 
9.190862e+2, 2.8111795e+2, -226351.48, -366134.63, 6647.006, -0.006243765, 0.011647731, -226036.11, -40988.035, 0.0, 5.026348, 4.935783 
9.1893655e+2, 2.8604722e+2, -190773.06, -336090.6, -952.326, -0.007855389, -0.0033306016, -190766.81, -54028.094, 0.0, 5.023614, 4.930249 
9.1878057e+2, 2.9097536e+2, -149720.64, -287194.22, -2522.586, -0.0066121407, -0.022128742, -149674.38, -61234.293, 0.0, 5.0198655, 4.9316993 
9.186247e+2, 2.9590356e+2, -110836.875, -242468.66, -2982.8167, -0.005225097, -0.041063864, -110769.32, -70628.18, 0.0, 5.0159774, 4.9316883 
9.184697e+2, 3.0083314e+2, -75346.96, -205590.3, -1842.3701, -0.003376917, -0.03625045, -75320.9, -75320.9, 0.0, 5.012049, 4.9288716 
9.1831815e+2, 3.057793e+2, -30917.633, -118171.79, -4041.3987, 0.010740518, 0.037215404, -30730.846, -30730.846, 0.0, 5.0087595, 4.9529247 
9.181654e+2, 3.107358e+2, -37847.703, -114515.71, -4695.017, 0.015228892, 0.046877384, -37561.258, -37561.258, 0.0, 5.0048857, 4.955927 
9.1801256e+2, 3.156923e+2, -49211.09, -119580.63, -4815.259, 0.017387237, 0.05564296, -48883.12, -48883.12, 0.0, 5.0006995, 4.955907 
9.178482e+2, 3.2064205e+2, -11025.443, 8849.675, -15949.567, -0.013506752, -0.057957977, 17704.236, 17704.236, 0.0, 4.9932923, 5.0055437 
9.276988e+2, 1.2731859e+2, -1662508.0, -1702895.3, 5026.0947, 0.003587249, 0.006193924, -1661892.0, 30388.086, 0.0, 5.026086, 4.9991097 
9.275794e+2, 1.3231581e+2, -1612253.6, -1653379.9, 5771.4023, 0.0036356982, 0.003299175, -1611459.1, 31847.86, 0.0, 5.0266066, 4.999108 
9.2745996e+2, 1.3731302e+2, -1562009.5, -1603876.6, 6510.78, 0.0035246923, 0.00061502185, -1561020.4, 33313.63, 0.0, 5.027124, 4.999106 
9.273407e+2, 1.4231013e+2, -1514198.4, -1559432.3, 9450.365, 0.0014785548, 0.00084194686, -1512303.4, 33059.176, 0.0, 5.027654, 4.9974 
9.272289e+2, 1.4730284e+2, -1473747.1, -1529327.6, 17356.148, -0.0015868208, 0.006931455, -1468772.5, 27662.318, 0.0, 5.028078, 4.99084 
9.2712116e+2, 1.5229209e+2, -1423360.5, -1479684.4, 18224.025, 0.0000037591913, 0.005388925, -1417978.3, 29562.744, 0.0, 5.028618, 4.990849 
9.2701346e+2, 1.5728131e+2, -1372983.9, -1430053.3, 19090.438, 0.0016437783, 0.0037983998, -1367186.8, 31460.686, 0.0, 5.029156, 4.990859 
9.269058e+2, 1.6227046e+2, -1323727.6, -1382651.5, 20581.078, 0.003309807, 0.002076761, -1317250.9, 32502.436, 0.0, 5.0296917, 4.9901166 
9.268009e+2, 1.6725527e+2, -1283421.1, -1353386.6, 25018.828, 0.003006688, 0.002803636, -1275395.4, 25504.998, 0.0, 5.0302057, 4.983195 
9.2669755e+2, 1.7223664e+2, -1232696.3, -1303545.0, 26024.041, 0.0011750159, 0.0007548568, -1224164.5, 27916.424, 0.0, 5.0308504, 4.9832087 
9.2659426e+2, 1.7721798e+2, -1181983.3, -1253717.6, 27029.338, -0.0006441969, -0.0014353222, -1172939.0, 30322.89, 0.0, 5.0314946, 4.9832225 
9.264908e+2, 1.8219903e+2, -1133419.9, -1208310.4, 27913.363, -0.0023160484, -0.002483672, -1124160.8, 30285.96, 0.0, 5.0321155, 4.9817495 
9.2638785e+2, 1.8717524e+2, -1093409.8, -1180559.4, 30179.818, -0.0028097448, 0.0006826205, -1083979.0, 21701.469, 0.0, 5.0327015, 4.974214 
9.2628527e+2, 1.9214751e+2, -1042572.5, -1130555.3, 31290.332, -0.0031584508, -0.0017815556, -1032579.4, 24373.484, 0.0, 5.033368, 4.9742537 
9.261828e+2, 1.9711979e+2, -991748.9, -1080565.9, 32399.979, -0.0033695847, -0.004185033, -981185.8, 27039.39, 0.0, 5.0340343, 4.974293 
9.260799e+2, 2.0209204e+2, -942243.8, -1033518.5, 32603.877, -0.0031059214, -0.0051034796, -931793.9, 27702.926, 0.0, 5.0347114, 4.973328 
9.2597455e+2, 2.070593e+2, -902605.1, -1008014.3, 32507.377, -0.003234695, -0.0016845302, -893386.3, 17429.97, 0.0, 5.0354037, 4.9649324 
9.2586815e+2, 2.1202214e+2, -851643.94, -957932.1, 33796.613, -0.0032821966, -0.0038004708, -841807.8, 20371.188, 0.0, 5.0361023, 4.964969 
9.2576176e+2, 2.16985e+2, -800697.06, -907865.25, 35086.117, -0.003154661, -0.005865795, -790232.06, 23309.691, 0.0, 5.0368004, 4.9650064 
9.256549e+2, 2.2194757e+2, -751943.25, -862560.2, 35278.207, -0.0034728982, -0.0066547287, -741650.06, 23258.213, 0.0, 5.03748, 4.963407 
9.25543e+2, 2.2690472e+2, -712693.3, -838723.7, 31892.424, -0.0037834458, 0.00056441926, -705082.44, 11247.105, 0.0, 5.0381393, 4.954385 
9.2542785e+2, 2.3185703e+2, -662535.7, -788989.1, 33179.676, -0.0044169966, 0.000065732325, -654358.56, 13439.769, 0.0, 5.038535, 4.954418 
9.2531276e+2, 2.3680933e+2, -612386.0, -739264.0, 34467.504, -0.0046945815, -0.00037561887, -603627.25, 15639.902, 0.0, 5.038929, 4.954452 
9.2519706e+2, 2.4176148e+2, -563253.75, -691786.06, 34584.633, -0.004825109, -0.0015562595, -554538.8, 16197.677, 0.0, 5.039311, 4.9537077 
9.250741e+2, 2.4670784e+2, -524627.44, -669157.56, 27297.006, -0.006324208, -0.0030180989, -519643.8, 2617.2986, 0.0, 5.0396795, 4.9443736 
9.249452e+2, 2.516496e+2, -476117.63, -620072.7, 28112.195, -0.006254255, -0.0074173138, -470822.53, 3008.103, 0.0, 5.0394373, 4.9444394 
9.2481637e+2, 2.5659138e+2, -427660.1, -571073.5, 29067.63, -0.006035483, -0.011676444, -421992.53, 3407.4734, 0.0, 5.03919, 4.9444747 
9.24687e+2, 2.615333e+2, -380439.28, -524389.1, 28846.0, -0.005708311, -0.012248267, -374874.0, 2094.9768, 0.0, 5.0388327, 4.943743 
9.245499e+2, 2.6647127e+2, -344867.66, -502236.5, 19921.607, -0.0059720124, 0.0042585717, -342384.94, -13805.659, 0.0, 5.037747, 4.934791 
9.2440456e+2, 2.7140513e+2, -300096.34, -452852.4, 19246.572, -0.0055170064, 0.00842609, -297708.7, -17479.186, 0.0, 5.035656, 4.9357595 
9.242593e+2, 2.7633896e+2, -256645.52, -406195.06, 19587.627, -0.0047035995, 0.0122544225, -254122.55, -22242.445, 0.0, 5.0335283, 4.935758 
9.2411333e+2, 2.8127238e+2, -212400.47, -357822.38, 18408.994, -0.0043403837, 0.010269098, -210106.27, -26572.252, 0.0, 5.0314217, 4.9363365 
9.239605e+2, 2.8620154e+2, -177519.84, -329020.0, 10012.326, -0.006007662, -0.002354183, -176861.02, -41634.74, 0.0, 5.02866, 4.930343 
9.2380065e+2, 2.9112953e+2, -136778.11, -280052.1, 8462.933, -0.005456285, -0.018881937, -136279.95, -49349.477, 0.0, 5.02478, 4.9318805 
9.236408e+2, 2.9605755e+2, -97989.414, -235276.7, 8074.9688, -0.004553486, -0.035542034, -97516.09, -58882.25, 0.0, 5.020858, 4.931905 
9.234818e+2, 3.0098712e+2, -62891.215, -196962.83, 9807.775, -0.0031890979, -0.03004764, -62177.543, -62177.543, 0.0, 5.016478, 4.9298067 
9.233251e+2, 3.0593324e+2, -24845.37, -112022.57, 7710.9585, 0.007472294, 0.041260894, -24168.576, -24168.576, 0.0, 5.010831, 4.954012 
9.2316717e+2, 3.1089014e+2, -38985.695, -111905.97, 6966.917, 0.014987409, 0.05486607, -38326.035, -38326.035, 0.0, 5.004353, 4.9568615 
9.2300916e+2, 3.1584758e+2, -56629.977, -119765.68, 6707.1357, 0.023878554, 0.071024954, -55925.316, -55925.316, 0.0, 4.9978466, 4.956839 
9.228476e+2, 3.2078803e+2, 3062.7002, 39891.957, -16610.43, 0.088830456, -0.17621963, 46276.62, 46276.62, 0.0, 4.9939694, 5.0166845 
9.327235e+2, 1.2744279e+2, -1660786.6, -1699588.1, 5359.168, 0.0030664634, 0.005937026, -1660060.0, 31002.682, 0.0, 5.026121, 5.000196 
9.326046e+2, 1.3244113e+2, -1610535.5, -1650091.4, 6116.5815, 0.0035899142, 0.003594718, -1609611.3, 32467.531, 0.0, 5.026645, 5.0001903 
9.3248564e+2, 1.3743947e+2, -1560294.8, -1600606.6, 6868.0664, 0.003719292, 0.0013976969, -1559156.8, 33938.566, 0.0, 5.0271664, 5.000185 
9.3236697e+2, 1.4243762e+2, -1512513.1, -1556157.4, 9968.192, 0.0012658294, 0.0014192268, -1510344.3, 33769.28, 0.0, 5.0276895, 4.9984846 
9.3225574e+2, 1.474313e+2, -1472123.1, -1525994.0, 17730.996, -0.0027548273, 0.006405124, -1466811.0, 28365.04, 0.0, 5.028087, 4.9919553 
9.321486e+2, 1.5242162e+2, -1421744.3, -1476363.0, 18604.229, -0.00087200024, 0.0048471955, -1416009.4, 30261.717, 0.0, 5.028628, 4.991964 
9.320414e+2, 1.5741196e+2, -1371375.4, -1426744.3, 19475.996, 0.0010086547, 0.003179122, -1365211.0, 32155.568, 0.0, 5.029168, 4.9919724 
9.319343e+2, 1.6240217e+2, -1322128.4, -1379335.8, 20982.463, 0.0029788932, 0.0013339557, -1315257.6, 33204.133, 0.0, 5.0297017, 4.991235 
9.3183005e+2, 1.6738816e+2, -1281680.4, -1349658.5, 25450.744, 0.002795755, 0.0018861365, -1273207.8, 26389.504, 0.0, 5.0302014, 4.9844527 
9.317274e+2, 1.7237075e+2, -1230969.0, -1299828.8, 26460.57, 0.0009826083, -0.0004356717, -1221975.6, 28790.219, 0.0, 5.030846, 4.984467 
9.316247e+2, 1.7735332e+2, -1180269.5, -1250013.3, 27470.48, -0.0008617414, -0.0028981015, -1170749.1, 31185.627, 0.0, 5.03149, 4.9844813 
9.315219e+2, 1.8233563e+2, -1131727.8, -1204627.8, 28278.016, -0.0025828741, -0.0037183538, -1122044.8, 31062.604, 0.0, 5.0321093, 4.9830046 
9.314195e+2, 1.8731323e+2, -1091520.9, -1176379.8, 30622.266, -0.0031372218, -0.0001596574, -1081624.6, 22703.15, 0.0, 5.032686, 4.9756403 
9.313177e+2, 1.92287e+2, -1040696.56, -1126391.9, 31738.266, -0.0031349265, -0.0018331741, -1030222.2, 25363.625, 0.0, 5.0333543, 4.975679 
9.312159e+2, 1.9726075e+2, -989885.75, -1076418.9, 32853.4, -0.0031056807, -0.003443234, -978826.06, 28017.697, 0.0, 5.0340214, 4.9757185 
9.311137e+2, 2.0223445e+2, -940318.9, -1029209.44, 32987.176, -0.0028378116, -0.004359577, -929414.94, 28686.357, 0.0, 5.0346966, 4.974813 
9.3100893e+2, 2.0720318e+2, -900565.6, -1003309.5, 32959.4, -0.0027981747, -0.0017011664, -890901.56, 18504.502, 0.0, 5.035371, 4.9665556 
9.309032e+2, 2.121676e+2, -849620.3, -953241.9, 34255.8, -0.0030772923, -0.0043607173, -839319.75, 21433.467, 0.0, 5.03607, 4.9665923 
9.3079746e+2, 2.17132e+2, -798689.3, -903189.6, 35552.465, -0.0033346338, -0.0069732955, -787740.94, 24359.527, 0.0, 5.036768, 4.96663 
9.306913e+2, 2.2209616e+2, -749941.56, -857917.9, 35658.93, -0.0041344166, -0.007855134, -739228.25, 24223.197, 0.0, 5.037452, 4.965022 
9.305798e+2, 2.2705483e+2, -710606.5, -834007.94, 32124.602, -0.004974655, -0.001696391, -702744.56, 12113.087, 0.0, 5.038128, 4.9560204 
9.304651e+2, 2.3200884e+2, -660459.3, -784280.2, 33421.523, -0.00523966, -0.0015527396, -652014.2, 14295.497, 0.0, 5.0385246, 4.956056 
9.303504e+2, 2.3696284e+2, -610320.2, -734561.94, 34719.01, -0.0053308564, -0.001400327, -601276.4, 16485.55, 0.0, 5.03892, 4.9560924 
9.302351e+2, 2.4191666e+2, -561416.6, -687526.56, 34802.12, -0.0050024246, -0.0019555523, -552449.94, 16765.258, 0.0, 5.039295, 4.9551992 
9.301123e+2, 2.468645e+2, -523153.1, -665765.1, 26985.533, -0.005128431, -0.0013184091, -518217.6, 2508.1172, 0.0, 5.0396657, 4.945566 
9.299832e+2, 2.518075e+2, -474642.78, -616638.0, 27850.707, -0.004666535, -0.005125688, -469375.56, 2908.036, 0.0, 5.039421, 4.94565 
9.2985415e+2, 2.5675055e+2, -426195.66, -567632.8, 28818.328, -0.0042456603, -0.00877554, -420549.22, 3292.0374, 0.0, 5.039172, 4.945691 
9.2972434e+2, 2.616937e+2, -378939.5, -520780.78, 28237.213, -0.004033652, -0.009602461, -373524.84, 1873.5737, 0.0, 5.0388002, 4.9450264 
9.2958564e+2, 2.6663217e+2, -344073.72, -500656.78, 18312.885, -0.0050658225, 0.0033172586, -341960.47, -14958.037, 0.0, 5.037758, 4.935361 
9.294382e+2, 2.7156648e+2, -299303.34, -451298.47, 17657.809, -0.004818456, 0.005911537, -297278.94, -18631.053, 0.0, 5.035672, 4.936321 
9.292907e+2, 2.765007e+2, -255842.73, -404636.9, 18016.945, -0.004478373, 0.008130057, -253692.22, -23398.457, 0.0, 5.033549, 4.9363203 
9.2914265e+2, 2.814345e+2, -211759.9, -356621.97, 16647.756, -0.004301485, 0.0057190517, -209871.34, -27928.023, 0.0, 5.0314403, 4.9367743 
9.2898667e+2, 2.8636438e+2, -177714.08, -330358.5, 7046.8965, -0.005144805, 0.0012362689, -177389.45, -43758.77, 0.0, 5.0287356, 4.9298973 
9.288229e+2, 2.9129267e+2, -136622.28, -280597.16, 5506.1094, -0.00493491, -0.00937106, -136412.02, -51078.754, 0.0, 5.024858, 4.931715 
9.286591e+2, 2.9622105e+2, -97821.57, -235787.14, 5166.8423, -0.004964464, -0.020266047, -97628.34, -60593.426, 0.0, 5.0209346, 4.93175 
9.2849565e+2, 3.01151e+2, -60887.555, -193093.61, 6035.2334, -0.004745409, -0.016015558, -60612.617, -60612.617, 0.0, 5.01654, 4.931222 
9.2833257e+2, 3.0609617e+2, -23094.719, -109120.46, 2781.2415, -0.0011144315, 0.03659871, -23004.895, -23004.895, 0.0, 5.0109234, 4.955129 
9.2816764e+2, 3.1105247e+2, -37758.734, -110233.51, 2240.1204, 0.003433777, 0.043832146, -37689.56, -37689.56, 0.0, 5.0044346, 4.9575453 
9.2800283e+2, 3.1600922e+2, -55477.227, -118194.625, 2283.0925, 0.008067361, 0.054419957, -55394.227, -55394.227, 0.0, 4.9979086, 4.957496 
9.278349e+2, 3.2095703e+2, -14080.42, -2640.8662, -14551.093, 0.045266222, -0.05987516, 7274.259, 7274.259, 0.0, 4.994237, 5.001096 
9.3774825e+2, 1.2756701e+2, -1659162.4, -1696322.8, 5683.3154, 0.0026664212, 0.0057804957, -1658312.5, 31532.48, 0.0, 5.026126, 5.0012817 
9.376299e+2, 1.3256648e+2, -1608850.5, -1646812.9, 6460.4355, 0.003721276, 0.003890062, -1607781.3, 33069.25, 0.0, 5.0266747, 5.0012727 
9.375115e+2, 1.3756594e+2, -1558591.9, -1597343.1, 7231.189, 0.004154267, 0.002083544, -1557286.5, 34569.836, 0.0, 5.027208, 5.0012608 
9.373933e+2, 1.4256515e+2, -1510868.1, -1552958.8, 10458.297, 0.0011976915, 0.0019859604, -1508412.9, 34451.453, 0.0, 5.0277247, 4.999543 
9.372826e+2, 1.4755978e+2, -1470501.4, -1522660.8, 18106.715, -0.0039853184, 0.006024385, -1464832.0, 29084.865, 0.0, 5.0280957, 4.99307 
9.37176e+2, 1.525512e+2, -1420130.4, -1473042.0, 18985.299, -0.001762471, 0.0043427693, -1414023.1, 30977.928, 0.0, 5.0286384, 4.9930778 
9.370694e+2, 1.575426e+2, -1369778.4, -1423454.4, 19859.809, 0.0004068791, 0.0024893444, -1363229.4, 32856.168, 0.0, 5.02918, 4.993079 
9.3696296e+2, 1.625339e+2, -1320569.5, -1376104.5, 21372.582, 0.0026684816, 0.00059204083, -1313296.8, 33873.29, 0.0, 5.0297117, 4.992325 
9.368593e+2, 1.6752106e+2, -1279941.3, -1345932.1, 25882.65, 0.0025657334, 0.0011003063, -1271000.9, 27293.055, 0.0, 5.030197, 4.98571 
9.3675727e+2, 1.7250489e+2, -1229243.3, -1296114.1, 26897.088, 0.0007698773, -0.0015924857, -1219767.4, 29683.11, 0.0, 5.0308414, 4.985725 
9.366552e+2, 1.7748868e+2, -1178557.3, -1246310.5, 27911.607, -0.0011008789, -0.0044251624, -1168539.9, 32067.482, 0.0, 5.031485, 4.9857397 
9.3655306e+2, 1.8247226e+2, -1130050.1, -1200975.8, 28635.268, -0.0028438284, -0.004920989, -1119932.4, 31835.553, 0.0, 5.032103, 4.984249 
9.364512e+2, 1.8745126e+2, -1089634.6, -1172201.1, 31066.041, -0.0033521964, -0.0008714072, -1079251.6, 23723.125, 0.0, 5.0326715, 4.977066 
9.363501e+2, 1.9242652e+2, -1038823.1, -1122229.5, 32187.53, -0.0030078876, -0.0018081337, -1027846.25, 26372.174, 0.0, 5.0333405, 4.977104 
9.3624896e+2, 1.9740178e+2, -988025.2, -1072272.9, 33308.15, -0.0027473546, -0.0026786625, -976447.5, 29014.506, 0.0, 5.0340085, 4.977143 
9.3614745e+2, 2.0237689e+2, -938415.44, -1024944.9, 33356.69, -0.0024886164, -0.0036220683, -927049.56, 29655.963, 0.0, 5.034682, 4.976283 
9.3604326e+2, 2.0734711e+2, -898529.4, -998605.9, 33411.023, -0.0024525383, -0.0017176877, -888400.2, 19595.387, 0.0, 5.0353384, 4.968178 
9.3593824e+2, 2.1231307e+2, -847599.9, -948552.9, 34714.598, -0.00297897, -0.0049885698, -836814.8, 22512.445, 0.0, 5.0360374, 4.9682155 
9.358332e+2, 2.1727903e+2, -796684.7, -898515.1, 36018.426, -0.0036370629, -0.008216149, -785232.56, 25426.377, 0.0, 5.0367355, 4.9682536 
9.357276e+2, 2.2224475e+2, -747958.44, -853316.3, 36049.215, -0.004922056, -0.009091018, -736804.6, 25189.795, 0.0, 5.037425, 4.9666233 
9.3561655e+2, 2.2720501e+2, -708523.1, -829293.0, 32355.443, -0.006265743, -0.0038553297, -700401.0, 12984.294, 0.0, 5.038116, 4.957655 
9.355023e+2, 2.321607e+2, -658386.4, -779572.06, 33662.035, -0.006221093, -0.003189323, -649663.8, 15156.968, 0.0, 5.038514, 4.957693 
9.353881e+2, 2.371164e+2, -608257.75, -729860.7, 34969.19, -0.0061850147, -0.0025632528, -598918.9, 17337.447, 0.0, 5.0389104, 4.9577317 
9.352731e+2, 2.4207185e+2, -559706.56, -683547.1, 34993.645, -0.0052277297, -0.0022866302, -550502.44, 17191.146, 0.0, 5.03928, 4.956593 
9.3515056e+2, 2.4702121e+2, -521662.88, -662330.25, 26666.855, -0.0035254424, 0.0009017662, -516777.22, 2412.792, 0.0, 5.039652, 4.946772 
9.3502116e+2, 2.5196546e+2, -473170.78, -613202.5, 27583.637, -0.0028192694, -0.0024971312, -467933.22, 2803.0974, 0.0, 5.039405, 4.94686 
9.348918e+2, 2.5690973e+2, -424734.03, -564191.2, 28563.443, -0.0023458358, -0.0057246387, -419110.47, 3171.8254, 0.0, 5.0391545, 4.946906 
9.3476164e+2, 2.6185408e+2, -377505.1, -517313.6, 27599.31, -0.0023912576, -0.0069271466, -372254.0, 1573.6976, 0.0, 5.0387673, 4.9462595 
9.3462133e+2, 2.6679313e+2, -343243.44, -498990.3, 16703.773, -0.0041251387, 0.002191471, -341472.13, -16046.545, 0.0, 5.0377703, 4.9359584 
9.344717e+2, 2.717278e+2, -298511.97, -449742.7, 16070.534, -0.0041792793, 0.0029390042, -296823.1, -19756.795, 0.0, 5.0356894, 4.9368796 
9.343221e+2, 2.766624e+2, -255041.56, -403076.88, 16447.758, -0.004416832, 0.0032683737, -253236.13, -24528.623, 0.0, 5.0335703, 4.9368806 
9.3417186e+2, 2.815967e+2, -211410.55, -356088.75, 14863.46, -0.004605492, 0.0013096863, -209899.34, -29546.695, 0.0, 5.0314593, 4.9369736 
9.340129e+2, 2.8652722e+2, -177830.19, -331514.0, 4073.5444, -0.0040709064, 0.0055409647, -177722.28, -45687.348, 0.0, 5.0288143, 4.929511 
9.338451e+2, 2.914558e+2, -136466.94, -281140.94, 2546.1116, -0.0043634702, -0.00025633545, -136422.14, -52685.965, 0.0, 5.0249386, 4.931544 
9.336772e+2, 2.963845e+2, -97654.13, -236296.28, 2255.543, -0.0054585845, -0.006435617, -97617.45, -62181.09, 0.0, 5.021014, 4.931589 
9.3350935e+2, 3.0131486e+2, -59308.766, -190232.95, 2205.4854, -0.0073914942, -0.0009912907, -59271.625, -59271.625, 0.0, 5.0166063, 4.932273 
9.3333995e+2, 3.0625913e+2, -21533.742, -106645.93, -2088.8064, -0.00768587, 0.030360902, -21482.51, -21482.51, 0.0, 5.0110207, 4.956074 
9.331684e+2, 3.1121463e+2, -36540.137, -108567.8, -2448.2644, -0.0043188417, 0.023692485, -36457.01, -36457.01, 0.0, 5.0045214, 4.958208 
9.329967e+2, 3.1617054e+2, -54332.42, -116630.23, -2102.5745, -0.0023123773, 0.020846648, -54261.54, -54261.54, 0.0, 4.997976, 4.9581327 
9.328239e+2, 3.2112882e+2, -25956.14, -32339.625, -10172.245, 0.010054037, 0.05726661, -18486.654, -18486.654, 0.0, 4.9944386, 4.9901695 
9.427722e+2, 1.2769112e+2, -1663687.5, -1695865.0, 6336.066, 0.0025107467, 0.005348205, -1662484.9, 26143.781, 0.0, 5.0240655, 5.0024366 
9.4265467e+2, 1.3269173e+2, -1612051.8, -1645653.9, 7224.92, 0.0045027984, 0.0034521094, -1610564.1, 29058.959, 0.0, 5.025051, 5.00244 
9.4253695e+2, 1.3769233e+2, -1560751.9, -1595624.9, 8148.292, 0.0058095455, 0.0017101966, -1558942.0, 31675.846, 0.0, 5.02593, 5.002441 
9.424194e+2, 1.4269267e+2, -1512539.5, -1551144.4, 11622.473, 0.0025237766, 0.0016048149, -1509310.5, 32304.078, 0.0, 5.026642, 5.000661 
9.423092e+2, 1.4768833e+2, -1471756.4, -1520569.6, 19256.826, -0.004507685, 0.0049108346, -1465074.3, 27582.604, 0.0, 5.027129, 4.9942307 
9.4220316e+2, 1.5268086e+2, -1420987.8, -1470741.5, 20118.277, -0.0024032476, 0.0031010068, -1413870.8, 29858.992, 0.0, 5.0278063, 4.994243 
9.4209725e+2, 1.5767339e+2, -1370302.4, -1420959.3, 20993.52, -0.0002966803, 0.0011562499, -1362733.1, 32069.799, 0.0, 5.028458, 4.9942565 
9.419913e+2, 1.6266575e+2, -1321129.3, -1373917.6, 22438.467, 0.002174438, -0.00050760503, -1312880.4, 32996.22, 0.0, 5.0290346, 4.99338 
9.4188833e+2, 1.6765408e+2, -1280213.1, -1343226.6, 26889.914, 0.0023406816, 0.00038304113, -1270298.3, 26691.17, 0.0, 5.0295258, 4.986942 
9.4178694e+2, 1.7263913e+2, -1229588.6, -1293429.6, 27748.445, 0.00078558293, -0.002383348, -1219213.8, 28920.602, 0.0, 5.030143, 4.9869637 
9.4168556e+2, 1.7762417e+2, -1179063.5, -1243728.4, 28638.264, -0.0008646418, -0.0052963807, -1168204.0, 31075.46, 0.0, 5.030739, 4.986967 
9.41584e+2, 1.8260902e+2, -1130458.4, -1198098.3, 29289.227, -0.0025488653, -0.0054752766, -1119538.6, 30888.932, 0.0, 5.03134, 4.9855857 
9.414828e+2, 1.8758948e+2, -1089799.1, -1168867.9, 31854.998, -0.0029710792, -0.0010982568, -1078562.4, 23057.748, 0.0, 5.031923, 4.97855 
9.413824e+2, 1.9256622e+2, -1038986.2, -1118901.5, 33033.063, -0.0022399414, -0.0016887764, -1027099.9, 25749.148, 0.0, 5.0325947, 4.978587 
9.41282e+2, 1.9754297e+2, -988220.9, -1068957.9, 34228.05, -0.0015726849, -0.0022917697, -975663.25, 28414.734, 0.0, 5.0332537, 4.978627 
9.411811e+2, 2.0251952e+2, -938651.44, -1021704.5, 34233.633, -0.0012710751, -0.003450349, -926359.8, 28947.701, 0.0, 5.033928, 4.9777427 
9.4107753e+2, 2.074912e+2, -898310.94, -994762.25, 34383.395, -0.0017617702, -0.0019277593, -887308.8, 19274.18, 0.0, 5.034671, 4.969798 
9.4097316e+2, 2.1245876e+2, -847193.94, -944617.5, 35666.117, -0.0026405363, -0.0055340077, -835532.6, 22366.611, 0.0, 5.035438, 4.969839 
9.4086885e+2, 2.1742629e+2, -796228.56, -894551.2, 36958.598, -0.003496852, -0.009176984, -783885.6, 25329.934, 0.0, 5.0361567, 4.9698806 
9.4076383e+2, 2.223936e+2, -747492.4, -849294.94, 37002.215, -0.004938786, -0.010093778, -735464.3, 25071.102, 0.0, 5.0368423, 4.968276 
9.406533e+2, 2.2735542e+2, -707747.8, -825066.6, 33242.297, -0.006831399, -0.005954624, -698983.3, 12927.403, 0.0, 5.037626, 4.9593396 
9.405395e+2, 2.3231278e+2, -657389.4, -775255.94, 34589.793, -0.00662551, -0.0051758876, -647988.25, 15341.406, 0.0, 5.038109, 4.959375 
9.4042563e+2, 2.3727015e+2, -607199.2, -725529.75, 35918.395, -0.006419849, -0.0044109453, -597149.9, 17598.9, 0.0, 5.038534, 4.9594107 
9.4031113e+2, 2.4222726e+2, -559024.25, -680130.75, 35916.258, -0.0048214514, -0.0032279962, -549173.8, 16996.252, 0.0, 5.0389304, 4.9579396 
9.4018877e+2, 2.4717814e+2, -520448.63, -658799.4, 27241.686, -0.0014640067, 0.0029796804, -515277.9, 2374.172, 0.0, 5.0395155, 4.94806 
9.400592e+2, 2.5212368e+2, -471468.8, -609531.44, 28291.98, -0.00079659803, 0.00013501856, -465896.13, 3290.2363, 0.0, 5.039463, 4.948115 
9.399296e+2, 2.570692e+2, -422780.47, -560429.0, 29320.813, -0.00022474234, -0.0025936803, -416795.03, 3925.436, 0.0, 5.03931, 4.948156 
9.3979895e+2, 2.6201478e+2, -375391.0, -513586.0, 28002.71, -0.0003849505, -0.0041940724, -369932.34, 2321.8555, 0.0, 5.039005, 4.947464 
9.396571e+2, 2.669543e+2, -340994.28, -496567.56, 16113.551, -0.0028349757, 0.000884954, -339342.84, -15496.411, 0.0, 5.03829, 4.9365926 
9.395054e+2, 2.718893e+2, -295991.84, -447368.63, 15417.2, -0.0031575842, -0.00040065238, -294437.63, -18954.74, 0.0, 5.036346, 4.93744 
9.393537e+2, 2.768243e+2, -252501.28, -400691.1, 15715.291, -0.0036746997, -0.001969018, -250853.03, -23733.395, 0.0, 5.03424, 4.9374413 
9.392012e+2, 2.8175902e+2, -209895.6, -355460.97, 13892.739, -0.004187578, -0.0024338386, -208581.53, -29821.219, 0.0, 5.0320086, 4.936969 
9.3903905e+2, 2.866902e+2, -176696.27, -331818.3, 1978.2877, -0.0024923694, 0.010341649, -176671.03, -46233.16, 0.0, 5.029311, 4.9292345 
9.388672e+2, 2.9161906e+2, -135689.38, -281316.9, 448.06247, -0.0035499588, 0.0080668265, -135688.0, -53549.688, 0.0, 5.025246, 4.931396 
9.386953e+2, 2.96548e+2, -97867.85, -236908.69, 113.05858, -0.0053407503, 0.005517316, -97867.76, -64030.227, 0.0, 5.020959, 4.9314423 
9.3852293e+2, 3.0147868e+2, -59666.258, -189434.84, -932.1116, -0.009874118, 0.014919968, -59659.563, -59659.563, 0.0, 5.0162125, 4.9327774 
9.383475e+2, 3.0642205e+2, -20619.492, -104345.445, -6765.474, -0.011223918, 0.021789845, -20076.33, -20076.33, 0.0, 5.0108824, 4.957034 
9.381693e+2, 3.1137672e+2, -35932.875, -107073.41, -6820.366, -0.0074940063, -0.0059207217, -35284.9, -35284.9, 0.0, 5.004399, 4.958866 
9.37991e+2, 3.1633162e+2, -54805.395, -115622.805, -5992.0693, -0.0062630866, -0.029891737, -54220.645, -54220.645, 0.0, 4.9974637, 4.9587784 
9.378191e+2, 3.212942e+2, -25019.361, -24985.37, -2940.1958, 0.02756953, 0.023564413, -22062.121, -22062.121, 0.0, 4.993319, 4.9931774 
9.477926e+2, 1.2781343e+2, -1674429.5, -1698843.0, 3044.6936, 0.0024630078, 0.005972319, -1674055.5, 13374.433, 0.0, 5.0199194, 5.0035124 
9.4767624e+2, 1.3281517e+2, -1621944.1, -1648133.6, 3770.8982, 0.005678168, 0.0033359933, -1621412.0, 17001.408, 0.0, 5.021173, 5.0035357 
9.475598e+2, 1.3781697e+2, -1569481.8, -1597448.6, 4507.6133, 0.00793491, 0.0012520881, -1568773.1, 20623.137, 0.0, 5.0224233, 5.003561 
9.4744325e+2, 1.4281857e+2, -1519886.9, -1552402.5, 7790.0273, 0.004518713, 0.0012130409, -1518116.9, 22263.629, 0.0, 5.023596, 5.0017486 
9.473337e+2, 1.478153e+2, -1478414.5, -1521903.9, 15249.767, -0.0036640628, 0.0037500097, -1473600.1, 17811.656, 0.0, 5.0243034, 4.9952383 
9.472283e+2, 1.5280896e+2, -1427532.8, -1471959.0, 16179.982, -0.0023115515, 0.0019149287, -1422264.8, 20208.56, 0.0, 5.0250115, 4.995263 
9.4712293e+2, 1.578026e+2, -1376666.4, -1422037.6, 17115.416, -0.0010007492, 0.00013002228, -1370934.1, 22600.742, 0.0, 5.025719, 4.995286 
9.470178e+2, 1.6279605e+2, -1327358.6, -1375193.5, 18580.416, 0.0015326422, -0.0013117252, -1320989.5, 23608.875, 0.0, 5.02638, 4.994303 
9.469154e+2, 1.6778551e+2, -1285883.4, -1344036.9, 23219.465, 0.0024372165, -0.00020257941, -1277749.9, 17951.145, 0.0, 5.026964, 4.9880056 
9.468147e+2, 1.7277181e+2, -1235184.5, -1294061.3, 24308.598, 0.0013742438, -0.0021846497, -1226445.3, 20389.23, 0.0, 5.027596, 4.988064 
9.46714e+2, 1.7775811e+2, -1184508.1, -1244125.1, 25402.291, 0.0002059603, -0.0041782577, -1175152.6, 22815.156, 0.0, 5.028228, 4.9881144 
9.466131e+2, 1.8274437e+2, -1135381.6, -1197617.0, 26234.309, -0.0011992971, -0.0039956574, -1125798.5, 23303.678, 0.0, 5.0288873, 4.9869924 
9.465125e+2, 1.877264e+2, -1094113.5, -1167482.6, 29198.74, -0.0013882706, -0.000009489224, -1083911.8, 16366.652, 0.0, 5.0295563, 4.9802094 
9.464129e+2, 1.9270489e+2, -1042945.5, -1117232.9, 30780.158, -0.00045158746, -0.00079819345, -1031849.44, 19640.074, 0.0, 5.030343, 4.980277 
9.4631326e+2, 1.9768336e+2, -991783.0, -1066979.5, 32361.625, 0.00046798922, -0.0016923745, -979773.75, 22926.797, 0.0, 5.031129, 4.980353 
9.4621307e+2, 2.0266159e+2, -941953.3, -1019766.3, 32679.662, 0.0006471589, -0.0033159847, -930049.6, 23863.998, 0.0, 5.0319357, 4.9793835 
9.461101e+2, 2.0763512e+2, -900983.6, -991837.2, 33434.316, -0.0008179805, -0.0022201152, -890006.1, 15165.937, 0.0, 5.0327554, 4.9717393 
9.460066e+2, 2.126047e+2, -849757.9, -941539.7, 35319.426, -0.0017850212, -0.005337478, -837739.94, 18729.207, 0.0, 5.033561, 4.971806 
9.45903e+2, 2.175743e+2, -798561.7, -891287.7, 37201.12, -0.0023453473, -0.008478161, -785481.8, 22284.328, 0.0, 5.034366, 4.9718637 
9.457989e+2, 2.2254373e+2, -749223.25, -844979.7, 37766.61, -0.0026629476, -0.009358431, -736120.8, 22944.559, 0.0, 5.035133, 4.9705787 
9.456891e+2, 2.2750783e+2, -708990.56, -819884.4, 34985.297, -0.0035771076, -0.006269057, -698875.8, 11541.714, 0.0, 5.036005, 4.961889 
9.455759e+2, 2.3246753e+2, -657960.94, -769625.06, 37485.555, -0.0039106053, -0.0066829044, -646544.3, 15268.705, 0.0, 5.0367393, 4.961958 
9.454626e+2, 2.3742722e+2, -606948.0, -719381.25, 39987.664, -0.0041132225, -0.0069146156, -594176.8, 19031.807, 0.0, 5.037472, 4.9620285 
9.4534856e+2, 2.4238658e+2, -558113.5, -673849.0, 41147.793, -0.0033289955, -0.006444442, -544975.5, 19632.021, 0.0, 5.0381894, 4.960443 
9.452265e+2, 2.4733986e+2, -518489.63, -651213.5, 33845.758, -0.0009397645, -0.00029627266, -510357.0, 5709.573, 0.0, 5.0390906, 4.9508147 
9.4509715e+2, 2.5228807e+2, -468262.1, -601210.06, 36557.406, -0.000105654675, -0.0008490915, -458872.8, 8702.223, 0.0, 5.0395217, 4.9508963 
9.449678e+2, 2.5723627e+2, -418043.38, -551218.4, 39273.76, 0.000895136, -0.0017286435, -407324.2, 11759.879, 0.0, 5.0399494, 4.95098 
9.448372e+2, 2.6218426e+2, -369075.97, -503707.38, 39465.363, 0.001567176, -0.0028298886, -358360.16, 12233.78, 0.0, 5.040302, 4.9502115 
9.4469464e+2, 2.6712567e+2, -332735.28, -486147.75, 28657.209, -0.00062354136, 0.00061107916, -327556.94, -5389.313, 0.0, 5.0404725, 4.9390664 
9.4454163e+2, 2.7206224e+2, -284680.03, -435441.25, 30080.482, -0.0004935905, -0.00204981, -278899.88, -5111.446, 0.0, 5.039739, 4.9398828 
9.443886e+2, 2.7699894e+2, -237630.56, -386765.13, 32431.49, 0.000039747454, -0.0041063805, -230883.14, -5474.4204, 0.0, 5.038974, 4.939981 
9.4423443e+2, 2.8193542e+2, -192276.06, -340554.1, 32254.77, 0.00021772076, -0.003961849, -185563.6, -8531.775, 0.0, 5.037908, 4.939323 
9.4406855e+2, 2.868671e+2, -161222.83, -320534.8, 20226.148, -0.0012949611, 0.006828966, -158695.03, -29990.764, 0.0, 5.0349503, 4.9303703 
9.43892e+2, 2.9179612e+2, -123042.82, -272127.16, 18440.133, -0.0024597729, 0.0076757646, -120795.84, -40392.625, 0.0, 5.0299797, 4.9322186 
9.437156e+2, 2.967251e+2, -87267.84, -228904.69, 17945.344, -0.0016777158, 0.007910426, -85029.55, -52927.285, 0.0, 5.0249553, 4.9321947 
9.435388e+2, 3.0165517e+2, -49676.313, -181091.64, 16232.238, -0.0005795071, 0.0133526595, -47701.02, -47701.02, 0.0, 5.0198364, 4.933834 
9.433576e+2, 3.065987e+2, -11118.166, -94865.45, 7939.9067, -0.000547615, 0.018233199, -10372.047, -10372.047, 0.0, 5.014157, 4.958607 
9.431727e+2, 3.1155384e+2, -26676.973, -96983.695, 7019.324, 0.0039498312, -0.012875214, -25983.023, -25983.023, 0.0, 5.007495, 4.960689 
9.429879e+2, 3.1650957e+2, -44744.52, -104629.3, 6979.72, 0.011638636, -0.03935341, -43941.777, -43941.777, 0.0, 5.000795, 4.9607735 
9.428124e+2, 3.2147497e+2, -19369.553, -7211.016, 10636.68, 0.05841091, -0.0031160905, -1038.898, -1038.898, 0.0, 4.993324, 4.999146 
9.528112e+2, 1.2793282e+2, -1672662.8, -1695455.5, 3906.7407, 0.0018764024, 0.0051314924, -1672011.8, 14248.204, 0.0, 5.0199637, 5.004619 
9.5269614e+2, 1.3293563e+2, -1620199.4, -1644771.5, 4649.2896, 0.006181977, 0.0020258895, -1619349.1, 17883.959, 0.0, 5.0212154, 5.004639 
9.5258087e+2, 1.3793845e+2, -1567754.3, -1594102.1, 5409.601, 0.009224449, -0.00045641648, -1566686.9, 21518.842, 0.0, 5.0224648, 5.0046644 
9.5246565e+2, 1.4294113e+2, -1518194.0, -1549072.6, 8664.548, 0.00547568, -0.00052221806, -1515928.9, 23250.154, 0.0, 5.023629, 5.0028524 
9.5235693e+2, 1.47939e+2, -1476643.3, -1518297.8, 15723.975, -0.003644232, 0.0016874586, -1471374.3, 18824.566, 0.0, 5.0243177, 4.996444 
9.5225215e+2, 1.5293387e+2, -1425784.9, -1468373.3, 16661.822, -0.003011912, 0.00020924272, -1420041.0, 21206.898, 0.0, 5.0250235, 4.9964676 
9.521474e+2, 1.5792874e+2, -1374969.8, -1418529.5, 17602.629, -0.0024647303, -0.0011585726, -1368745.8, 23551.248, 0.0, 5.025728, 4.9964705 
9.5204294e+2, 1.6292334e+2, -1325788.6, -1371879.8, 19044.482, 0.0002444768, -0.0021446676, -1318937.9, 24411.666, 0.0, 5.026381, 4.9954267 
9.519414e+2, 1.6791408e+2, -1283928.6, -1339880.8, 23609.568, 0.0018200764, -0.00097563904, -1275297.8, 19142.73, 0.0, 5.0269613, 4.9894137 
9.518413e+2, 1.7290181e+2, -1233247.5, -1289920.0, 24703.805, 0.0011702664, -0.002539552, -1223990.9, 21569.885, 0.0, 5.0275927, 4.9894724 
9.517413e+2, 1.7788956e+2, -1182568.6, -1239956.8, 25804.443, 0.00037453894, -0.0040758387, -1172672.3, 24008.486, 0.0, 5.028224, 4.9895372 
9.51641e+2, 1.828773e+2, -1133105.8, -1192722.8, 26635.762, -0.00079652003, -0.004031636, -1122939.1, 24861.324, 0.0, 5.028884, 4.9886665 
9.515412e+2, 1.8786113e+2, -1091392.8, -1161561.5, 29706.361, -0.0006987748, -0.0007874757, -1080505.6, 18452.623, 0.0, 5.029546, 4.9822326 
9.5144236e+2, 1.9284162e+2, -1040245.06, -1111329.3, 31293.805, 0.00042246954, -0.0017477638, -1028431.7, 21717.121, 0.0, 5.0303326, 4.982301 
9.513436e+2, 1.978221e+2, -989122.7, -1061136.5, 32880.746, 0.0014522589, -0.0028044328, -976368.56, 24970.791, 0.0, 5.031119, 4.9823637 
9.512442e+2, 2.0280223e+2, -939405.7, -1014159.06, 33148.516, 0.0013714959, -0.0043950193, -926823.94, 25709.666, 0.0, 5.0319276, 4.9813175 
9.511419e+2, 2.0777793e+2, -897819.0, -984855.0, 33928.164, -0.0006408074, -0.003637248, -886156.06, 17615.695, 0.0, 5.0327444, 4.974149 
9.510392e+2, 2.1274997e+2, -846619.25, -934590.8, 35823.13, -0.0016406088, -0.006093214, -833877.25, 21168.459, 0.0, 5.0335517, 4.974213 
9.5093644e+2, 2.1772201e+2, -795433.06, -884336.4, 37709.207, -0.002420046, -0.008544859, -781592.94, 24726.639, 0.0, 5.034357, 4.9742813 
9.508331e+2, 2.2269398e+2, -745777.25, -837291.3, 38129.184, -0.0023171809, -0.009061475, -731973.06, 25620.996, 0.0, 5.035122, 4.973258 
9.507241e+2, 2.2766106e+2, -704944.94, -810728.1, 35368.695, -0.0016503291, -0.005973503, -694209.0, 14707.39, 0.0, 5.0359797, 4.965076 
9.5061165e+2, 2.3262392e+2, -653949.56, -760494.75, 37879.29, -0.0018199519, -0.006585514, -641855.44, 18424.725, 0.0, 5.036713, 4.9651475 
9.5049906e+2, 2.3758678e+2, -602985.6, -710310.1, 40394.875, -0.0020657945, -0.0070050736, -589481.0, 22162.918, 0.0, 5.0374446, 4.965209 
9.503857e+2, 2.4254924e+2, -554216.94, -664983.4, 41438.215, -0.002109351, -0.0066588772, -540430.6, 22581.93, 0.0, 5.038174, 4.9635572 
9.50264e+2, 2.4750566e+2, -514109.16, -641234.9, 33989.824, -0.0012575256, -0.0024758098, -505591.88, 8849.326, 0.0, 5.0390754, 4.954319 
9.5013505e+2, 2.5245747e+2, -463918.38, -591248.44, 36721.176, -0.00069484086, -0.0021836439, -454087.28, 11827.832, 0.0, 5.0395045, 4.954407 
9.500062e+2, 2.5740921e+2, -413736.53, -541273.8, 39457.23, -0.00025830648, -0.0022011262, -402516.44, 14873.079, 0.0, 5.0399303, 4.9544973 
9.4987583e+2, 2.6236075e+2, -365140.9, -494517.8, 39429.676, 0.00059263373, -0.0027593027, -354071.22, 14793.727, 0.0, 5.040275, 4.953475 
9.4973296e+2, 2.6730543e+2, -328728.34, -477036.94, 27713.564, -0.00007776459, 0.0017412105, -323718.88, -3312.3167, 0.0, 5.0404677, 4.942308 
9.4957924e+2, 2.7224505e+2, -280925.4, -426815.1, 29312.166, 0.0011516355, -0.0005636112, -275256.3, -3258.664, 0.0, 5.039729, 4.9429636 
9.4942546e+2, 2.7718475e+2, -233897.84, -378140.34, 31687.74, 0.0023906701, -0.002279265, -227243.53, -3655.3945, 0.0, 5.0389624, 4.9430704 
9.4927007e+2, 2.821244e+2, -188955.63, -332654.75, 30540.291, 0.0022986608, -0.0018885258, -182734.27, -7553.539, 0.0, 5.037856, 4.9421763 
9.4910026e+2, 2.8705677e+2, -160689.14, -319967.88, 16534.254, -0.0021644784, 0.00060080277, -158990.88, -32144.955, 0.0, 5.034977, 4.930618 
9.489188e+2, 2.9198566e+2, -122926.24, -272712.0, 14746.632, -0.0026200556, 0.0026147456, -121488.22, -42943.19, 0.0, 5.0300326, 4.9320498 
9.4873744e+2, 2.9691455e+2, -87095.68, -229489.58, 14317.405, -0.001788616, 0.0037572063, -85670.36, -55425.637, 0.0, 5.0250278, 4.9320188 
9.485559e+2, 3.0184376e+2, -49499.67, -181700.14, 11920.83, 0.002580474, 0.0029398156, -48433.344, -48433.344, 0.0, 5.019923, 4.9336457 
9.4836885e+2, 3.0678838e+2, -9894.129, -93687.58, 2735.9207, 0.005359152, 0.023384864, -9804.894, -9804.894, 0.0, 5.0142946, 4.9590883 
9.481769e+2, 3.1174397e+2, -24770.076, -94416.45, 1847.1666, 0.008269374, -0.008031059, -24721.121, -24721.121, 0.0, 5.007649, 4.96168 
9.479852e+2, 3.1670004e+2, -42822.79, -102154.03, 2079.3394, 0.012680903, -0.03614134, -42750.004, -42750.004, 0.0, 5.0009584, 4.9617305 
9.477966e+2, 3.2166636e+2, -26328.18, -27112.904, 11057.969, -0.0060698343, 0.03131025, -15655.613, -15655.613, 0.0, 4.9939184, 4.9917836 
9.5782983e+2, 1.2805222e+2, -1670983.0, -1692104.0, 4785.997, 0.0015036227, 0.0045054397, -1669949.0, 15140.705, 0.0, 5.019981, 5.0057244 
9.577161e+2, 1.3305606e+2, -1618489.6, -1641419.9, 5538.578, 0.0069836923, 0.00075908, -1617221.9, 18830.693, 0.0, 5.021249, 5.0057416 
9.5760214e+2, 1.3805997e+2, -1566048.3, -1590763.4, 6319.9185, 0.010896112, -0.0022848102, -1564526.0, 22488.957, 0.0, 5.022502, 5.005765 
9.574881e+2, 1.4306374e+2, -1516549.1, -1545836.1, 9517.821, 0.00666308, -0.002218673, -1513727.8, 24249.453, 0.0, 5.023663, 5.0039244 
9.573801e+2, 1.4806274e+2, -1474874.8, -1514692.9, 16198.914, -0.0037214768, -0.00015482036, -1469117.1, 19868.365, 0.0, 5.0243325, 4.997648 
9.5727605e+2, 1.5305881e+2, -1424039.6, -1464788.8, 17144.39, -0.003752546, -0.0014369081, -1417786.1, 22236.05, 0.0, 5.025036, 4.9976707 
9.571719e+2, 1.580549e+2, -1373303.1, -1415079.4, 18086.898, -0.0038953735, -0.0025341306, -1366560.6, 24498.195, 0.0, 5.025738, 4.997634 
9.570681e+2, 1.6305064e+2, -1324255.6, -1368639.5, 19509.605, -0.0009246034, -0.0029464369, -1316899.1, 25201.42, 0.0, 5.0263815, 4.9965243 
9.569673e+2, 1.6804267e+2, -1281975.9, -1335726.9, 23999.023, 0.0012103895, -0.001542166, -1272820.1, 20359.53, 0.0, 5.026959, 4.990821 
9.5686793e+2, 1.7303184e+2, -1231312.4, -1285781.0, 25098.36, 0.00096106646, -0.0027988085, -1221511.0, 22775.824, 0.0, 5.0275893, 4.9908795 
9.567686e+2, 1.7802103e+2, -1180627.1, -1235783.0, 26207.758, 0.00052759785, -0.003975185, -1170160.5, 25233.191, 0.0, 5.0282197, 4.990962 
9.5666903e+2, 1.8301028e+2, -1130832.6, -1187833.3, 27035.984, -0.00039310622, -0.004011034, -1120049.3, 26449.057, 0.0, 5.02888, 4.9903383 
9.565699e+2, 1.879959e+2, -1088675.1, -1155644.5, 30213.55, -0.00009595068, -0.0015569659, -1077059.0, 20578.572, 0.0, 5.029536, 4.984255 
9.564719e+2, 1.9297837e+2, -1037547.8, -1105429.9, 31807.02, 0.0011805017, -0.0028118477, -1024973.5, 23834.256, 0.0, 5.0303226, 4.984325 
9.5637393e+2, 1.9796084e+2, -986495.3, -1055362.1, 33399.477, 0.00228907, -0.004136285, -972958.06, 27019.73, 0.0, 5.0311084, 4.984351 
9.562753e+2, 2.0294294e+2, -936884.56, -1008607.9, 33616.215, 0.0019565595, -0.005390723, -923592.3, 27561.023, 0.0, 5.03192, 4.983233 
9.561737e+2, 2.079208e+2, -894660.1, -977877.4, 34425.3, -0.00037028905, -0.0047603496, -882265.2, 20105.754, 0.0, 5.032734, 4.9765587 
9.560718e+2, 2.1289529e+2, -843486.3, -927646.5, 36330.12, -0.0013632098, -0.0066856323, -829973.1, 23648.623, 0.0, 5.0335417, 4.97662 
9.5596987e+2, 2.178698e+2, -792307.44, -877383.7, 38217.164, -0.002322371, -0.008571499, -777661.3, 27211.219, 0.0, 5.0343475, 4.9767003 
9.558673e+2, 2.2284429e+2, -742388.25, -829722.75, 38491.02, -0.0017837444, -0.008708611, -727845.6, 28276.59, 0.0, 5.035111, 4.9758987 
9.557591e+2, 2.278143e+2, -700907.1, -801580.8, 35749.56, 0.000015924197, -0.005867179, -689504.0, 17911.168, 0.0, 5.0359545, 4.9682636 
9.5564735e+2, 2.3278032e+2, -649945.94, -751373.4, 38270.492, -0.000030951924, -0.0068348954, -637126.06, 21621.094, 0.0, 5.0366864, 4.9683375 
9.555356e+2, 2.3774634e+2, -599044.06, -701277.3, 40797.633, -0.00036578093, -0.0075924317, -584759.2, 25320.074, 0.0, 5.037417, 4.9683795 
9.5542276e+2, 2.427119e+2, -550362.06, -656213.5, 41733.152, -0.0012819567, -0.007037122, -535887.56, 25529.797, 0.0, 5.0381603, 4.9666414 
9.553014e+2, 2.4767156e+2, -509738.78, -631266.2, 34128.637, -0.001710378, -0.003950923, -500810.34, 12004.421, 0.0, 5.03906, 4.957823 
9.551729e+2, 2.5262693e+2, -459584.72, -581296.7, 36879.69, -0.0015606553, -0.0031439557, -449282.0, 14972.183, 0.0, 5.0394874, 4.957917 
9.550444e+2, 2.5758225e+2, -409439.5, -531338.44, 39631.89, -0.0018308453, -0.0026288566, -397687.34, 18006.623, 0.0, 5.039911, 4.958014 
9.5491445e+2, 2.6253733e+2, -361340.28, -485628.44, 39371.87, -0.00040156575, -0.002530736, -349917.84, 17217.166, 0.0, 5.0402484, 4.9566345 
9.547712e+2, 2.674853e+2, -324756.63, -467997.78, 26759.24, 0.0011119415, 0.0035944476, -319920.9, -1276.2997, 0.0, 5.040464, 4.945525 
9.5461684e+2, 2.7242795e+2, -277179.0, -418194.88, 28539.172, 0.003242199, 0.0012299574, -271622.16, -1416.0692, 0.0, 5.039719, 4.946043 
9.544624e+2, 2.7737066e+2, -230173.3, -369521.5, 30939.318, 0.0049884655, -0.0005766176, -223612.75, -1845.8591, 0.0, 5.0389514, 4.946158 
9.543056e+2, 2.8231335e+2, -185651.77, -324782.22, 28712.453, 0.0040455423, 0.00034493845, -179959.27, -6630.097, 0.0, 5.0378027, 4.9450207 
9.5413196e+2, 2.8724644e+2, -160358.84, -319871.88, 12864.733, -0.0026524358, -0.005214841, -159327.97, -34341.01, 0.0, 5.035009, 4.9306884 
9.539456e+2, 2.9217526e+2, -122811.484, -273293.22, 11071.614, -0.002376105, -0.0033108995, -122001.26, -45314.69, 0.0, 5.0300903, 4.931873 
9.5375925e+2, 2.9710397e+2, -86925.3, -230070.75, 10708.018, -0.0014893935, -0.002582676, -86128.71, -57741.49, 0.0, 5.025105, 4.931835 
9.53573e+2, 3.0203232e+2, -50119.445, -184143.73, 7655.081, 0.0059631895, -0.0054047783, -49683.625, -49683.625, 0.0, 5.0200124, 4.9327917 
9.5338e+2, 3.0697796e+2, -8797.834, -92801.36, -2465.9614, 0.01171366, 0.02817864, -8725.507, -8725.507, 0.0, 5.0144405, 4.9594407 
9.531812e+2, 3.1193382e+2, -22871.861, -91848.734, -3263.767, 0.013966244, -0.011015224, -22717.773, -22717.773, 0.0, 5.0078106, 4.9626474 
9.5298254e+2, 3.1689003e+2, -40908.97, -99679.37, -2760.0842, 0.016022481, -0.04760676, -40779.633, -40779.633, 0.0, 5.001129, 4.962664 
9.5278275e+2, 3.2186118e+2, -28900.957, -36117.086, 13319.95, -0.0584585, 0.07743287, -18709.05, -18709.05, 0.0, 4.99442, 4.9883347 
9.628482e+2, 1.281711e+2, -1674869.1, -1691295.8, 5489.3013, 0.004759529, 0.0008583029, -1673203.6, 10720.877, 0.0, 5.018153, 5.0068645 
9.627356e+2, 1.3317627e+2, -1621477.0, -1640174.6, 6425.0645, 0.007413272, -0.0012999916, -1619482.0, 15392.319, 0.0, 5.019719, 5.006879 
9.626227e+2, 1.3818146e+2, -1568367.1, -1589206.6, 7373.75, 0.0092707, -0.002930075, -1566021.9, 19801.912, 0.0, 5.0211983, 5.006895 
9.625099e+2, 1.4318635e+2, -1518811.4, -1544513.3, 10555.676, 0.0048768944, -0.0023633074, -1515032.0, 21743.053, 0.0, 5.0224366, 5.00494 
9.624028e+2, 1.481864e+2, -1476674.9, -1512810.8, 16841.883, -0.005337063, -0.00046047647, -1470042.6, 17730.186, 0.0, 5.0231833, 4.9988194 
9.622996e+2, 1.5318365e+2, -1425633.9, -1462831.6, 17668.117, -0.0042833127, -0.0018270864, -1418579.6, 20218.432, 0.0, 5.023956, 4.9988365 
9.621963e+2, 1.581809e+2, -1374826.1, -1413159.3, 18492.947, -0.00338088, -0.0029925355, -1367359.1, 22464.207, 0.0, 5.024692, 4.998773 
9.620932e+2, 1.6317779e+2, -1325501.1, -1366573.4, 19983.818, -0.00007139857, -0.0030641006, -1317382.8, 23471.307, 0.0, 5.025423, 4.9976745 
9.6199304e+2, 1.6817118e+2, -1282484.5, -1332581.6, 24440.775, 0.0016505031, -0.0013428493, -1272536.1, 19384.176, 0.0, 5.0260963, 4.9922905 
9.618944e+2, 1.731618e+2, -1231688.8, -1282599.9, 25577.557, 0.0011519492, -0.0024310185, -1221058.3, 21955.236, 0.0, 5.026777, 4.9923415 
9.617957e+2, 1.7815247e+2, -1180936.5, -1232555.0, 26724.256, 0.0006670137, -0.003371022, -1169593.4, 24513.094, 0.0, 5.027427, 4.9924345 
9.616968e+2, 1.8314323e+2, -1131010.9, -1184087.9, 27501.121, -0.00023107097, -0.0037353735, -1119331.6, 25864.521, 0.0, 5.02804, 4.9920087 
9.615984e+2, 1.8813062e+2, -1088514.6, -1150915.0, 30735.818, -0.00018740266, -0.0023699466, -1075918.3, 20399.322, 0.0, 5.028649, 4.9862776 
9.615012e+2, 1.9311506e+2, -1037554.8, -1100778.6, 32283.059, 0.00096984976, -0.004215949, -1023983.7, 23484.068, 0.0, 5.0293813, 4.9863496 
9.614039e+2, 1.9809951e+2, -986804.0, -1050944.4, 33838.27, 0.002066145, -0.006002686, -972253.06, 26364.709, 0.0, 5.030086, 4.9863367 
9.6130604e+2, 2.0308359e+2, -937569.3, -1004473.6, 34057.11, 0.0018433494, -0.0063876184, -923283.3, 26490.547, 0.0, 5.0307837, 4.9851794 
9.612053e+2, 2.0806375e+2, -894812.6, -972381.2, 34948.68, -0.00018066367, -0.0051614884, -881389.3, 19580.498, 0.0, 5.0315514, 4.978998 
9.611042e+2, 2.1304075e+2, -843779.3, -922219.2, 36885.742, -0.0007260583, -0.006338947, -829159.1, 23037.588, 0.0, 5.0323133, 4.9790616 
9.610031e+2, 2.1801774e+2, -792838.5, -872034.8, 38821.84, -0.0013040481, -0.007586569, -776982.6, 26441.01, 0.0, 5.033033, 4.979158 
9.609013e+2, 2.2299474e+2, -742722.06, -823874.44, 39063.875, -0.00041028231, -0.0077097653, -726974.06, 27674.57, 0.0, 5.033791, 4.978534 
9.6079385e+2, 2.2796766e+2, -699973.7, -793792.1, 36416.402, 0.0015463014, -0.0053416044, -687497.5, 18415.133, 0.0, 5.0348206, 4.9714823 
9.6068287e+2, 2.3293687e+2, -648513.8, -743384.1, 38953.266, 0.0015238085, -0.006679473, -634569.4, 22643.537, 0.0, 5.0357394, 4.9715514 
9.605718e+2, 2.3790605e+2, -597309.75, -693236.56, 41486.43, 0.0013450761, -0.007895833, -581857.0, 26656.418, 0.0, 5.0366, 4.9715624 
9.6045977e+2, 2.428748e+2, -548455.06, -648132.5, 42453.438, -0.000017959794, -0.006839685, -532824.75, 26995.715, 0.0, 5.0374246, 4.969808 
9.603389e+2, 2.4783781e+2, -507082.0, -621856.0, 34877.26, -0.0014535314, -0.0041891914, -497314.75, 13870.302, 0.0, 5.038406, 4.961415 
9.6021074e+2, 2.5279674e+2, -456901.84, -571915.25, 37783.336, -0.0016255972, -0.0035700505, -445600.1, 16989.756, 0.0, 5.0388565, 4.9615016 
9.6008265e+2, 2.577556e+2, -406900.56, -522047.63, 40626.008, -0.0021588167, -0.0031324022, -394010.03, 19985.088, 0.0, 5.039242, 4.9615965 
9.59953e+2, 2.627142e+2, -359252.0, -477491.53, 40288.797, 0.00001456379, -0.0025463945, -346829.25, 18572.734, 0.0, 5.0396175, 4.9597983 
9.5980954e+2, 2.676655e+2, -321451.94, -459051.9, 27140.508, 0.0030222295, 0.0059205536, -316292.2, 586.7078, 0.0, 5.040203, 4.948821 
9.5965433e+2, 2.7261126e+2, -273336.78, -409291.4, 29327.744, 0.0053096646, 0.0036633953, -267280.1, 1129.8531, 0.0, 5.0397234, 4.949217 
9.594992e+2, 2.7755708e+2, -226132.83, -360586.53, 31895.076, 0.0073890556, 0.0017836072, -218950.38, 990.40955, 0.0, 5.039049, 4.9493136 
9.5934093e+2, 2.8250277e+2, -181691.55, -316339.16, 28734.482, 0.005617059, 0.003247523, -175815.86, -4342.6064, 0.0, 5.037966, 4.9479747 
9.5916355e+2, 2.8743657e+2, -159319.4, -319368.72, 11649.04, -0.0022890337, -0.01046531, -158475.98, -35352.453, 0.0, 5.035344, 4.930747 
9.589723e+2, 2.9236528e+2, -122191.055, -273137.88, 10337.708, -0.001070428, -0.0094427075, -121486.36, -46662.883, 0.0, 5.0303235, 4.931842 
9.5878106e+2, 2.9729393e+2, -87212.16, -230269.28, 10426.731, 0.00007831162, -0.0091147255, -86456.2, -59931.895, 0.0, 5.0250187, 4.931803 
9.585899e+2, 3.022215e+2, -52187.46, -188431.1, 7186.438, 0.009656045, -0.008545338, -51809.45, -51809.45, 0.0, 5.0199113, 4.931299 
9.5839113e+2, 3.071677e+2, -6645.2695, -91424.15, -5433.3115, 0.018065784, 0.033300005, -6298.478, -6298.478, 0.0, 5.015041, 4.959727 
9.5818555e+2, 3.121235e+2, -20114.018, -88919.77, -7827.649, 0.021072177, -0.020406354, -19234.746, -19234.746, 0.0, 5.0083466, 4.963553 
9.579801e+2, 3.1707975e+2, -40356.082, -97850.516, -8445.882, 0.02273476, -0.071413636, -39141.066, -39141.066, 0.0, 5.0008454, 4.963539 
9.5777434e+2, 3.2205778e+2, -22725.875, -17873.95, 17720.613, -0.06879064, 0.07390005, -2414.0117, -2414.0117, 0.0, 4.9936104, 4.9952807 
9.678643e+2, 1.2828659e+2, -1680703.9, -1692115.5, 1001.4267, 0.00992131, -0.0038329717, -1680616.8, 2175.4695, 0.0, 5.0157022, 5.0078125 
9.677525e+2, 1.3329323e+2, -1627419.3, -1641140.9, 1572.4883, 0.0065479716, -0.0024743956, -1627241.4, 6485.988, 0.0, 5.0172343, 5.0078 
9.6764064e+2, 1.3829987e+2, -1574195.4, -1590255.4, 2173.458, 0.0036727176, -0.00068053586, -1573906.5, 10756.034, 0.0, 5.018762, 5.007769 
9.675291e+2, 1.4330582e+2, -1524523.6, -1545886.1, 4822.8623, -0.00054084096, 0.00052838435, -1523485.4, 12118.159, 0.0, 5.020095, 5.0056696 
9.6742326e+2, 1.4830674e+2, -1482191.6, -1514192.4, 10550.658, -0.008715265, 0.0018271472, -1479026.3, 7566.9023, 0.0, 5.0208516, 4.9995894 
9.6732104e+2, 1.5330489e+2, -1431383.0, -1464352.3, 11218.508, -0.004454089, 0.00007961387, -1427927.8, 9682.295, 0.0, 5.021538, 4.999599 
9.672188e+2, 1.5830302e+2, -1380677.4, -1414721.3, 11897.499, -0.00033104047, -0.0015892272, -1376931.6, 11695.482, 0.0, 5.022223, 4.9995437 
9.671166e+2, 1.6330095e+2, -1331166.5, -1367689.1, 13316.299, 0.0036823442, -0.0016904351, -1326827.0, 12820.878, 0.0, 5.0229244, 4.998608 
9.6701705e+2, 1.6829562e+2, -1287868.0, -1333060.1, 17466.203, 0.0040090005, 0.00052214484, -1281904.5, 8796.845, 0.0, 5.0235624, 4.9934626 
9.669189e+2, 1.7328764e+2, -1237155.0, -1283107.4, 18491.578, 0.002388641, -0.00012971305, -1230638.0, 11142.775, 0.0, 5.0242066, 4.993515 
9.6682066e+2, 1.7827971e+2, -1186376.5, -1233004.9, 19524.37, 0.00090648164, -0.0006887505, -1179281.0, 13578.922, 0.0, 5.02485, 4.9936256 
9.667223e+2, 1.8327183e+2, -1136219.0, -1184117.6, 20164.857, -0.0007693824, -0.0018774738, -1128860.3, 15075.948, 0.0, 5.0254683, 4.993333 
9.666244e+2, 1.8826081e+2, -1093330.1, -1149872.3, 23355.986, -0.0019495408, -0.0021158608, -1084930.3, 10111.488, 0.0, 5.0259995, 4.988007 
9.6652776e+2, 1.9324711e+2, -1042785.4, -1099886.4, 24920.574, -0.0012930498, -0.0047735344, -1033439.1, 12734.506, 0.0, 5.0265822, 4.9880896 
9.6643114e+2, 1.9823349e+2, -992385.8, -1050194.4, 26472.236, -0.0003968818, -0.0071291425, -982095.25, 15209.693, 0.0, 5.0271626, 4.988077 
9.66334e+2, 2.0321968e+2, -943284.0, -1003469.06, 26715.229, 0.00072688394, -0.006368465, -933136.44, 15303.967, 0.0, 5.0277343, 4.987067 
9.66234e+2, 2.0820245e+2, -900321.8, -969936.3, 27927.955, 0.00033976004, -0.0035345363, -890502.7, 9108.201, 0.0, 5.028277, 4.9814935 
9.661336e+2, 2.1318236e+2, -850083.6, -920026.3, 30272.188, 0.00050421455, -0.0029023539, -838801.3, 12008.052, 0.0, 5.028752, 4.981587 
9.6603316e+2, 2.1816227e+2, -799789.4, -869986.44, 32592.213, 0.00064997055, -0.0024930695, -786990.5, 15017.313, 0.0, 5.029227, 4.9817305 
9.659319e+2, 2.2314204e+2, -749942.3, -821404.56, 33279.824, 0.0011503253, -0.0035458638, -736844.56, 16361.361, 0.0, 5.029792, 4.98133 
9.6582514e+2, 2.2811829e+2, -706837.0, -789197.06, 31347.094, 0.0023414907, -0.002260738, -696263.44, 8173.9575, 0.0, 5.0305495, 4.975147 
9.6571505e+2, 2.3309134e+2, -656397.8, -739118.2, 34786.406, 0.0029469954, -0.003419479, -643713.94, 11986.289, 0.0, 5.031104, 4.975249 
9.6560484e+2, 2.3806435e+2, -606049.06, -689213.44, 38208.23, 0.0036347858, -0.0047508427, -591160.44, 15803.029, 0.0, 5.031655, 4.975297 
9.6549356e+2, 2.4303709e+2, -557779.2, -643265.2, 39944.45, 0.0037459624, -0.0031602974, -542019.9, 16211.063, 0.0, 5.032089, 4.9739885 
9.653731e+2, 2.4800488e+2, -516203.72, -614455.8, 33806.22, 0.0029131793, -0.0007573518, -505695.66, 3852.6682, 0.0, 5.032712, 4.966613 
9.652454e+2, 2.5296882e+2, -466525.5, -564472.56, 38888.473, 0.0026521557, -0.0015673329, -452963.28, 7940.1743, 0.0, 5.032995, 4.966765 
9.651177e+2, 2.5793272e+2, -416851.88, -514467.84, 43931.21, 0.0025252316, -0.0021743672, -399992.72, 12266.256, 0.0, 5.0332737, 4.966932 
9.649881e+2, 2.6289624e+2, -369411.4, -469324.5, 45915.15, 0.0032212948, -0.0030747028, -351516.22, 12100.994, 0.0, 5.0335298, 4.9653554 
9.648441e+2, 2.6785362e+2, -330624.0, -446209.28, 35621.74, 0.0028681664, 0.0043437635, -320527.78, -5492.522, 0.0, 5.0338087, 4.956074 
9.646882e+2, 2.7280632e+2, -283915.2, -396668.75, 42624.523, 0.0034773538, 0.00551764, -269615.3, -3116.414, 0.0, 5.0329237, 4.9564962 
9.6453226e+2, 2.777588e+2, -237423.81, -347504.34, 49876.71, 0.0044538113, 0.005574635, -218186.78, -222.32831, 0.0, 5.032021, 4.956789 
9.64373e+2, 2.8271118e+2, -192359.61, -299574.97, 50552.973, 0.006244646, 0.0054583405, -172282.92, -2851.352, 0.0, 5.030702, 4.9567714 
9.641927e+2, 2.8765303e+2, -168410.1, -298628.03, 40799.152, 0.0045496076, -0.0043194243, -156683.2, -35680.625, 0.0, 5.0286617, 4.9403334 
9.639975e+2, 2.9258892e+2, -125003.71, -247110.88, 50483.79, 0.006307896, -0.0065274187, -106835.12, -34203.715, 0.0, 5.026087, 4.9420166 
9.6380204e+2, 2.9752532e+2, -83259.164, -198877.38, 61554.65, 0.0054170275, -0.0020040963, -56623.81, -32368.342, 0.0, 5.0234423, 4.94253 
9.6360606e+2, 3.0246025e+2, -46162.64, -163211.2, 69907.52, 0.0030998853, 0.0101587325, -13515.908, -13515.908, 0.0, 5.021034, 4.9383936 
9.6340257e+2, 3.0739957e+2, -10084.31, -111700.3, 51710.023, 0.0010579675, 0.044468775, 11601.6875, 11601.6875, 0.0, 5.0203123, 4.948684 
9.631928e+2, 3.1234187e+2, -6725.2173, -109945.8, 27909.795, -0.0008209792, 0.017098732, 337.98483, 337.98483, 0.0, 5.0202646, 4.9499354 
9.6298325e+2, 3.1728557e+2, -6357.514, -114787.88, 4640.532, 0.000054163036, 0.0029831787, -6159.2744, -6159.2744, 0.0, 5.0201163, 4.948897 
9.627873e+2, 3.2224387e+2, 8258.007, -22421.406, -7418.946, 0.08254033, 0.07843158, 9957.882, 9957.882, 0.0, 5.0076413, 4.9877114 
9.728788e+2, 1.2839848e+2, -1679308.8, -1689498.6, 2090.5562, 0.009161078, -0.007625041, -1678896.5, 2798.7268, 0.0, 5.015741, 5.0086746 
9.7276825e+2, 1.334063e+2, -1626027.5, -1638536.9, 2680.286, 0.0032475735, -0.0029430024, -1625477.5, 7141.243, 0.0, 5.017276, 5.00866 
9.7265756e+2, 1.3841406e+2, -1572867.8, -1587785.6, 3293.1204, -0.0024162177, 0.002004299, -1572173.3, 11369.27, 0.0, 5.018806, 5.008587 
9.725475e+2, 1.4342074e+2, -1523385.9, -1543686.9, 5704.8354, -0.006253477, 0.0034953346, -1521892.6, 12583.786, 0.0, 5.020123, 5.006401 
9.724427e+2, 1.4842236e+2, -1480887.9, -1511542.0, 11030.177, -0.01271613, 0.0035896872, -1477331.5, 8128.281, 0.0, 5.0208635, 5.000474 
9.723415e+2, 1.534213e+2, -1430089.0, -1461702.4, 11705.181, -0.0050973822, 0.00082425773, -1426226.9, 10242.657, 0.0, 5.0215483, 5.0004864 
9.722402e+2, 1.584202e+2, -1379372.1, -1412028.1, 12395.463, 0.0022226698, -0.0018576612, -1375200.1, 12279.141, 0.0, 5.022233, 5.000448 
9.721388e+2, 1.634191e+2, -1329652.5, -1364496.3, 13885.51, 0.006828122, -0.002175916, -1324795.9, 13694.837, 0.0, 5.0229273, 4.9996862 
9.720399e+2, 1.6841501e+2, -1286031.3, -1329186.3, 17873.21, 0.00595303, 0.00045676823, -1279590.1, 9941.793, 0.0, 5.0235615, 4.994774 
9.719422e+2, 1.7340837e+2, -1235329.6, -1279233.5, 18905.729, 0.003115859, 0.00016932926, -1228310.6, 12287.553, 0.0, 5.024205, 4.994831 
9.7184455e+2, 1.7840178e+2, -1184537.6, -1229076.9, 19941.734, 0.00033841864, -0.000060990722, -1176913.9, 14750.121, 0.0, 5.0248475, 4.9949636 
9.717466e+2, 1.8339519e+2, -1134198.1, -1179774.3, 20568.22, -0.0024991606, -0.0019566575, -1126288.5, 16439.012, 0.0, 5.025466, 4.994815 
9.716493e+2, 1.8838581e+2, -1090604.0, -1144025.4, 23700.541, -0.004668882, -0.0035893277, -1081605.1, 12211.814, 0.0, 5.025997, 4.990007 
9.7155315e+2, 1.9337405e+2, -1040081.25, -1094056.6, 25270.088, -0.0043337345, -0.007102678, -1030097.2, 14832.773, 0.0, 5.026579, 4.990091 
9.7145706e+2, 1.9836234e+2, -989725.44, -1044427.0, 26806.11, -0.0037904617, -0.010233521, -978779.56, 17262.867, 0.0, 5.0271583, 4.990064 
9.713606e+2, 2.0335068e+2, -940362.56, -997125.3, 27010.412, -0.0015141097, -0.008426596, -929564.06, 17593.035, 0.0, 5.0277314, 4.9892592 
9.7126126e+2, 2.083363e+2, -896327.0, -961226.75, 28139.756, -0.00009206223, -0.0036597394, -885825.3, 12474.435, 0.0, 5.0282717, 4.984508 
9.711615e+2, 2.1331944e+2, -846125.56, -911347.06, 30491.059, 0.0012214939, -0.00063844083, -834091.4, 15375.054, 0.0, 5.0287447, 4.9846025 
9.7106165e+2, 2.183026e+2, -795852.56, -861306.2, 32824.496, 0.0023933307, 0.002099911, -782227.56, 18405.61, 0.0, 5.029218, 4.9847574 
9.709609e+2, 2.2328542e+2, -745702.8, -812122.7, 33580.72, 0.0026746786, 0.00080365257, -731683.94, 20117.465, 0.0, 5.0297985, 4.9845734 
9.708547e+2, 2.2826532e+2, -700969.8, -776462.1, 31561.781, 0.0030736786, -0.00021041052, -689513.1, 13484.152, 0.0, 5.0305805, 4.9795976 
9.7074515e+2, 2.3324263e+2, -650576.5, -726423.4, 35014.402, 0.003611015, -0.0032639666, -636884.06, 17334.695, 0.0, 5.0311356, 4.9797015 
9.7063553e+2, 2.3821989e+2, -600250.06, -676503.0, 38417.93, 0.004000654, -0.006451823, -584251.06, 21189.525, 0.0, 5.031685, 4.9797716 
9.7052467e+2, 2.4319719e+2, -551555.25, -629535.44, 39868.406, 0.004684854, -0.0054557216, -534780.5, 21882.836, 0.0, 5.0321145, 4.9788384 
9.7040457e+2, 2.4817084e+2, -507968.3, -595919.56, 33604.59, 0.0052628573, -0.0017542414, -496598.44, 11324.071, 0.0, 5.032697, 4.973177 
9.7027725e+2, 2.5314146e+2, -458352.44, -545987.56, 38703.145, 0.0058915587, -0.0008824681, -443707.1, 15504.336, 0.0, 5.0329795, 4.973334 
9.701499e+2, 2.5811204e+2, -408751.44, -496054.7, 43737.277, 0.0063607353, 0.00012012705, -390609.75, 19891.004, 0.0, 5.0332575, 4.973498 
9.700202e+2, 2.630822e+2, -360869.5, -449829.1, 45696.21, 0.0045438455, 0.00006251191, -341579.44, 20214.432, 0.0, 5.033517, 4.9723206 
9.698754e+2, 2.680477e+2, -318496.66, -418941.2, 34073.8, 0.0005461163, 0.0029197866, -308028.72, 5104.1113, 0.0, 5.0338364, 4.965825 
9.697184e+2, 2.7300993e+2, -272076.75, -369888.38, 41353.95, -0.001129521, 0.003294109, -256936.28, 7567.459, 0.0, 5.0329466, 4.966105 
9.695614e+2, 2.779719e+2, -225631.84, -320732.88, 48589.117, -0.0030785506, 0.0023050555, -205197.4, 10679.448, 0.0, 5.032046, 4.966425 
9.6940094e+2, 2.8293416e+2, -179296.1, -269966.75, 47777.508, 0.0019506634, -0.00008168287, -158768.06, 8478.864, 0.0, 5.0307436, 4.9674644 
9.6921796e+2, 2.8789005e+2, -151263.27, -258543.13, 37278.17, 0.008857167, 0.0056969807, -139581.66, -20902.191, 0.0, 5.02856, 4.95477 
9.6901995e+2, 2.9284024e+2, -108302.09, -207688.86, 47461.67, 0.0112235285, 0.0049858275, -89278.35, -19110.473, 0.0, 5.0259447, 4.9562845 
9.688216e+2, 2.9779086e+2, -66885.97, -159983.75, 58756.055, 0.00793233, 0.011531524, -38474.383, -16822.441, 0.0, 5.0232744, 4.956665 
9.686211e+2, 3.027395e+2, -39073.297, -146010.14, 67507.76, -0.020852542, 0.04353308, -6424.532, -6424.532, 0.0, 5.02096, 4.9445553 
9.684151e+2, 3.0766794e+2, -41374.074, -184406.19, 53113.53, -0.028065722, 0.06230458, -23808.182, -23808.182, 0.0, 5.0203447, 4.9223676 
9.682047e+2, 3.1258476e+2, -40963.83, -190752.38, 31244.857, -0.03328106, 0.05932975, -34707.668, -34707.668, 0.0, 5.0204625, 4.9206996 
9.679943e+2, 3.1750223e+2, -40436.563, -196596.75, 9232.97, -0.046255834, 0.07035336, -39892.56, -39892.56, 0.0, 5.020484, 4.919318 
9.677897e+2, 3.224129e+2, 10198.354, -12667.4375, -13564.6875, 0.06119131, -0.15140319, 16505.578, 16505.578, 0.0, 5.007269, 4.990458 
9.778935e+2, 1.2851043e+2, -1678081.8, -1686960.3, 3190.6702, 0.008859214, -0.010867237, -1677054.0, 3543.5952, 0.0, 5.015727, 5.0095344 
9.777841e+2, 1.335194e+2, -1624664.4, -1635940.1, 3787.0723, 0.0005223914, -0.0030627737, -1623510.6, 7998.9834, 0.0, 5.017311, 5.0095186 
9.776746e+2, 1.385283e+2, -1571583.4, -1585356.9, 4407.975, -0.007796972, 0.0048548314, -1570293.5, 12128.563, 0.0, 5.0188437, 5.0093913 
9.775659e+2, 1.435357e+2, -1522309.4, -1541586.5, 6552.373, -0.011364077, 0.0065315696, -1520293.1, 13056.007, 0.0, 5.0201473, 5.007099 
9.774621e+2, 1.48538e+2, -1479586.4, -1508891.3, 11505.941, -0.016751532, 0.0054842564, -1475608.8, 8717.5625, 0.0, 5.0208755, 5.001357 
9.773619e+2, 1.535377e+2, -1428797.3, -1459052.1, 12188.096, -0.0058085895, 0.0015890567, -1424498.3, 10830.623, 0.0, 5.0215597, 5.001372 
9.7726166e+2, 1.585374e+2, -1378058.0, -1409311.0, 12889.978, 0.004654503, -0.002196849, -1373427.8, 12903.741, 0.0, 5.022243, 5.0013595 
9.77161e+2, 1.6353726e+2, -1328181.9, -1361396.4, 14435.965, 0.009878605, -0.0025174518, -1322784.6, 14548.779, 0.0, 5.0229306, 5.000732 
9.7706276e+2, 1.6853441e+2, -1284196.6, -1325313.9, 18275.736, 0.007993113, 0.0006008011, -1277247.9, 11114.585, 0.0, 5.0235605, 4.996084 
9.7696555e+2, 1.7352912e+2, -1233506.5, -1275361.1, 19315.395, 0.0038502645, 0.0005375539, -1225955.1, 13460.366, 0.0, 5.024204, 4.996145 
9.768684e+2, 1.7852385e+2, -1182728.0, -1225208.0, 20342.719, -0.00030793383, 0.0005004384, -1174557.8, 15910.316, 0.0, 5.024845, 4.9962807 
9.7677106e+2, 1.8351857e+2, -1132163.8, -1175401.9, 20976.506, -0.0043007596, -0.0020911093, -1123659.8, 17858.826, 0.0, 5.025464, 4.996306 
9.766742e+2, 1.8851086e+2, -1087881.0, -1138182.5, 24043.213, -0.007307254, -0.0050115404, -1078237.6, 14354.119, 0.0, 5.025995, 4.9920063 
9.765786e+2, 1.9350101e+2, -1037380.3, -1088230.8, 25617.723, -0.007315027, -0.009473505, -1026712.44, 16973.54, 0.0, 5.026576, 4.9920917 
9.764831e+2, 1.9849123e+2, -987074.75, -1038678.2, 27144.615, -0.0071296077, -0.013429046, -975425.7, 19353.965, 0.0, 5.0271544, 4.992045 
9.7638726e+2, 2.0348172e+2, -937465.2, -990831.44, 27299.363, -0.0036113888, -0.010234891, -925974.44, 19898.746, 0.0, 5.0277286, 4.991435 
9.762886e+2, 2.0847018e+2, -892338.44, -952526.5, 28349.912, -0.00062447943, -0.003471076, -881087.94, 15899.976, 0.0, 5.028266, 4.9875226 
9.761894e+2, 2.1345659e+2, -842173.56, -902677.25, 30708.283, 0.0018741653, 0.0017967715, -829318.9, 18804.021, 0.0, 5.0287375, 4.9876175 
9.760902e+2, 2.1844298e+2, -791920.1, -852632.1, 33047.523, 0.0040921313, 0.006693844, -777402.7, 21855.234, 0.0, 5.0292096, 4.9877853 
9.7599e+2, 2.2342886e+2, -741502.9, -802924.4, 33925.375, 0.0040795915, 0.0052621346, -726452.44, 23943.799, 0.0, 5.0298057, 4.9877915 
9.7588426e+2, 2.2841246e+2, -695116.9, -763746.3, 31774.965, 0.0038160197, 0.0021459055, -682664.6, 18891.7, 0.0, 5.030612, 4.9840493 
9.757753e+2, 2.33394e+2, -644769.3, -713747.6, 35240.9, 0.004248297, -0.003062145, -629949.0, 22787.453, 0.0, 5.0311666, 4.9841557 
9.756663e+2, 2.3837551e+2, -594487.5, -663861.3, 38619.42, 0.0043097003, -0.008326527, -577264.5, 26652.314, 0.0, 5.0317154, 4.9842296 
9.7555584e+2, 2.4335736e+2, -545472.44, -616119.0, 39755.53, 0.005788352, -0.007694651, -527614.56, 27480.15, 0.0, 5.0321403, 4.983588 
9.7543603e+2, 2.4833679e+2, -499757.0, -577428.4, 33400.457, 0.0075981333, -0.0029441742, -487369.63, 18926.912, 0.0, 5.032682, 4.979745 
9.753091e+2, 2.533141e+2, -450203.34, -527547.7, 38515.3, 0.009062336, -0.0008510569, -434295.63, 23223.63, 0.0, 5.0329638, 4.9799066 
9.7518206e+2, 2.582914e+2, -400689.1, -477716.75, 43510.457, 0.010031346, 0.0012958284, -381095.5, 27646.951, 0.0, 5.033241, 4.9800572 
9.750522e+2, 2.632683e+2, -352200.1, -430106.78, 45280.67, 0.0049091135, 0.0026560244, -331423.2, 28546.547, 0.0, 5.033511, 4.979391 
9.7490656e+2, 2.68242e+2, -306617.75, -392145.38, 32759.59, -0.0020398488, 0.0019618815, -295511.97, 15716.3125, 0.0, 5.0338573, 4.9754524 
9.747486e+2, 2.732137e+2, -260290.61, -343203.94, 40087.7, -0.0058265342, 0.00078991504, -244078.58, 18427.973, 0.0, 5.0329695, 4.9757233 
9.745906e+2, 2.781852e+2, -213902.8, -294082.9, 47297.273, -0.010455542, -0.0019565679, -191990.88, 21796.346, 0.0, 5.032071, 4.9760623 
9.7442895e+2, 2.8315735e+2, -166964.94, -242030.81, 45000.305, -0.0014609726, -0.0065724845, -145899.67, 19160.537, 0.0, 5.030788, 4.977604 
9.74243e+2, 2.881267e+2, -133901.38, -217939.03, 33703.793, 0.012863376, 0.0088469405, -122054.375, -5694.172, 0.0, 5.0284615, 4.9695 
9.740422e+2, 2.930911e+2, -91716.086, -168490.38, 44486.06, 0.016652368, 0.0056257597, -71344.55, -3635.6921, 0.0, 5.0258036, 4.9705715 
9.829071e+2, 1.2862244e+2, -1680844.4, -1686731.6, 3684.7825, 0.0018229043, -0.007614503, -1679071.9, 427.4153, 0.0, 5.014493, 5.01023 
9.8280007e+2, 1.3363186e+2, -1626779.8, -1635339.4, 3962.3025, 0.0006095843, -0.001900184, -1625227.1, 5179.6025, 0.0, 5.016277, 5.010235 
9.826928e+2, 1.3864128e+2, -1573122.8, -1584458.0, 4324.004, -0.0010155633, 0.004076548, -1571661.6, 9652.516, 0.0, 5.017995, 5.010111 
9.825853e+2, 1.4364932e+2, -1523901.6, -1540813.4, 6132.3296, -0.004886947, 0.0051076296, -1521912.0, 10323.451, 0.0, 5.019298, 5.0077696 
9.8248196e+2, 1.4865243e+2, -1480838.3, -1507437.0, 10749.507, -0.014869686, 0.004465962, -1477037.3, 6167.8145, 0.0, 5.020046, 5.0022345 
9.8238224e+2, 1.5365306e+2, -1430139.3, -1457610.6, 11441.343, -0.005209194, 0.00077258353, -1425998.4, 8200.738, 0.0, 5.0206985, 5.0022573 
9.8228264e+2, 1.5865369e+2, -1379593.1, -1407840.5, 12188.64, 0.0045445496, -0.0029602647, -1375061.0, 10132.195, 0.0, 5.0212965, 5.002292 
9.8218274e+2, 1.636546e+2, -1329736.3, -1359502.0, 13932.742, 0.010008691, -0.0032530783, -1324232.4, 11952.237, 0.0, 5.021889, 5.00185 
9.8208517e+2, 1.6865306e+2, -1285565.9, -1322699.0, 17801.24, 0.00830059, 0.00013333857, -1278410.9, 8789.294, 0.0, 5.0224476, 4.997479 
9.819886e+2, 1.7364918e+2, -1235154.6, -1272856.3, 19023.662, 0.003851902, -0.00012680673, -1227223.9, 11015.024, 0.0, 5.0229945, 4.997546 
9.8189205e+2, 1.7864531e+2, -1184785.6, -1222904.6, 20235.932, -0.0005254884, -0.00046734558, -1176046.6, 13230.714, 0.0, 5.0234995, 4.9976754 
9.817953e+2, 1.8364142e+2, -1134517.1, -1173209.1, 20883.705, -0.0043113995, -0.0029393486, -1125395.6, 14918.806, 0.0, 5.024008, 4.9977164 
9.816991e+2, 1.886355e+2, -1089562.8, -1134604.4, 23725.264, -0.006744401, -0.005119974, -1079371.5, 11999.223, 0.0, 5.0245314, 4.9939075 
9.816042e+2, 1.9362761e+2, -1039139.75, -1084710.3, 25064.93, -0.005793825, -0.008913567, -1028051.44, 14394.743, 0.0, 5.0250845, 4.9939885 
9.815094e+2, 1.9861977e+2, -988993.9, -1035163.25, 26346.746, -0.00458271, -0.012565794, -977049.2, 16471.973, 0.0, 5.0255876, 4.9939775 
9.8141414e+2, 2.0361228e+2, -939272.8, -986476.3, 26546.822, -0.0006845986, -0.009856211, -927353.06, 17241.572, 0.0, 5.026053, 4.9937024 
9.813159e+2, 2.0860344e+2, -893072.8, -945777.44, 27674.688, 0.0017674253, -0.004051916, -881210.8, 14471.811, 0.0, 5.026578, 4.9906297 
9.812172e+2, 2.1359292e+2, -842894.5, -895967.8, 30171.008, 0.0040943255, 0.00068249396, -829250.5, 17536.557, 0.0, 5.0270634, 4.990713 
9.8111844e+2, 2.1858238e+2, -792738.6, -846022.25, 32660.102, 0.006447864, 0.0052930326, -777232.25, 20659.236, 0.0, 5.027513, 4.9908643 
9.8101884e+2, 2.2357143e+2, -742299.94, -796044.2, 33722.742, 0.006243351, 0.0045748577, -726052.06, 22946.838, 0.0, 5.0280657, 4.990991 
9.809137e+2, 2.2855893e+2, -694496.44, -753433.94, 31345.176, 0.0055110473, 0.0015026459, -680942.8, 19178.494, 0.0, 5.028819, 4.9884825 
9.808052e+2, 2.3354484e+2, -644415.56, -703532.4, 34725.816, 0.0058950474, -0.0045401095, -628371.56, 22887.46, 0.0, 5.0292845, 4.9886007 
9.806968e+2, 2.3853074e+2, -594525.5, -653790.7, 38033.465, 0.006025495, -0.010792886, -575943.6, 26453.285, 0.0, 5.0297, 4.9886885 
9.8058677e+2, 2.4351707e+2, -544919.4, -605321.1, 38992.066, 0.008082775, -0.011139408, -525800.2, 27730.404, 0.0, 5.030242, 4.9882646 
9.804672e+2, 2.4850218e+2, -495857.63, -560914.2, 32659.549, 0.010084426, -0.0062003406, -482291.06, 22385.213, 0.0, 5.031122, 4.986321 
9.803407e+2, 2.5348622e+2, -445607.84, -510686.75, 37750.297, 0.012014228, -0.0033312864, -428308.53, 27524.068, 0.0, 5.031669, 4.986502 
9.8021406e+2, 2.584702e+2, -395901.56, -460808.72, 42761.08, 0.013572758, -0.0004699819, -374673.25, 32316.025, 0.0, 5.0320497, 4.9866366 
9.8008406e+2, 2.6345402e+2, -346938.72, -411747.28, 44483.695, 0.0055555855, 0.0033002743, -324308.16, 33840.863, 0.0, 5.0322566, 4.9865427 
9.799377e+2, 2.6843622e+2, -298669.7, -366974.16, 31261.793, -0.0030199187, 0.0005149043, -286522.1, 22802.855, 0.0, 5.032458, 4.9851494 
9.797788e+2, 2.7341753e+2, -253215.77, -318318.47, 38871.05, -0.0074658967, -0.002444207, -235066.53, 25443.01, 0.0, 5.0312743, 4.98546 
9.7961986e+2, 2.783987e+2, -208307.77, -269928.1, 46468.082, -0.012589696, -0.0066802166, -183363.58, 28332.367, 0.0, 5.029896, 4.985757 
9.79457e+2, 2.8338072e+2, -160562.61, -217290.0, 42998.125, -0.0008838889, -0.013900172, -137415.73, 25456.195, 0.0, 5.0289097, 4.987397 
9.792676e+2, 2.883629e+2, -118576.18, -177985.64, 30026.215, 0.016213154, 0.0052469103, -106044.15, 8001.314, 0.0, 5.0276427, 4.9843745 
9.790641e+2, 2.9334143e+2, -77770.65, -130459.72, 40523.67, 0.023134807, -0.00473405, -55780.902, 9473.769, 0.0, 5.0247297, 4.984901 
9.879191e+2, 1.2873106e+2, -1680432.5, -1686738.0, -875.83203, -0.009076327, -0.0022087067, -1680313.1, -1879.435, 0.0, 5.014476, 5.0103683 
9.878149e+2, 1.3374016e+2, -1627494.9, -1635783.4, -803.13446, 0.0036326547, -0.002102472, -1627417.8, 1926.9626, 0.0, 5.0158653, 5.010407 
9.877106e+2, 1.3874929e+2, -1574789.0, -1585242.6, -809.7315, 0.0154031785, -0.0020364558, -1574726.8, 5528.721, 0.0, 5.0172386, 5.0103245 
9.876043e+2, 1.4375767e+2, -1526286.4, -1541892.0, 286.4478, 0.011136246, -0.0015724835, -1526281.1, 4892.667, 0.0, 5.0182877, 5.0079937 
9.87501e+2, 1.4876151e+2, -1483070.1, -1508154.9, 3982.1274, -0.005818368, 0.00055120554, -1482453.3, -316.10446, 0.0, 5.0190196, 5.002606 
9.874014e+2, 1.5376288e+2, -1432284.9, -1458273.4, 4054.095, -0.0025810115, -0.0008201455, -1431667.1, 1457.268, 0.0, 5.0196915, 5.002636 
9.873018e+2, 1.5876429e+2, -1381387.8, -1408167.5, 4171.796, 0.00089334795, -0.0022326217, -1380752.9, 3358.4546, 0.0, 5.0203633, 5.0027475 
9.8720247e+2, 1.6376598e+2, -1330933.5, -1359078.8, 5204.9663, 0.0053031426, -0.0023877139, -1330001.8, 5092.9097, 0.0, 5.021043, 5.0025187 
9.871056e+2, 1.6876541e+2, -1286719.3, -1321772.1, 8187.808, 0.0051843817, 0.00046600844, -1284901.0, 1198.5743, 0.0, 5.0215006, 4.9983687 
9.8700964e+2, 1.7376265e+2, -1236566.9, -1272136.4, 8679.677, 0.0019202611, 0.00025594656, -1234561.9, 2564.3127, 0.0, 5.0219545, 4.998415 
9.869137e+2, 1.7875992e+2, -1186428.5, -1222560.9, 9169.403, -0.0011938072, 0.000011083344, -1184234.8, 3917.722, 0.0, 5.0224066, 4.998448 
9.868177e+2, 1.837572e+2, -1136376.3, -1173367.9, 9009.308, -0.0018947318, 0.000023206136, -1134298.6, 4880.1455, 0.0, 5.022872, 4.9983597 
9.867223e+2, 1.8875284e+2, -1091358.6, -1134026.0, 11195.901, -0.000572846, 0.001411334, -1088599.3, 1621.9526, 0.0, 5.023171, 4.9949584 
9.8662806e+2, 1.937467e+2, -1042000.8, -1084717.0, 12035.441, 0.003700019, 0.0013463076, -1038843.2, 2437.889, 0.0, 5.0233502, 4.99502 
9.865339e+2, 1.9874057e+2, -992599.9, -1035326.5, 12775.292, 0.007779797, 0.00088184234, -989071.44, 3269.3179, 0.0, 5.023524, 4.995115 
9.864386e+2, 2.0373449e+2, -943000.8, -985255.3, 12424.977, 0.009899071, -0.0010074081, -939618.06, 3781.8499, 0.0, 5.0236278, 4.995493 
9.8634034e+2, 2.0872745e+2, -896832.75, -942835.06, 13189.099, 0.009019725, -0.0030531397, -893319.6, 1148.7117, 0.0, 5.023725, 4.993262 
9.862415e+2, 2.1371919e+2, -848125.06, -893703.4, 15462.825, 0.008210363, -0.0056797573, -843374.4, 2174.6248, 0.0, 5.023687, 4.993347 
9.861427e+2, 2.18711e+2, -799401.7, -844573.75, 17699.205, 0.0077092205, -0.00781707, -793292.94, 3336.0356, 0.0, 5.0236487, 4.9934344 
9.860433e+2, 2.237033e+2, -750345.75, -794944.9, 18525.188, 0.0075362115, -0.0060183625, -743654.75, 4050.1313, 0.0, 5.02365, 4.993682 
9.8593843e+2, 2.2869508e+2, -702998.56, -749861.94, 15845.16, 0.007286904, -0.0030976897, -698144.0, 641.8211, 0.0, 5.02369, 4.9923882 
9.8583e+2, 2.336858e+2, -654986.0, -700749.56, 19243.275, 0.0072456137, -0.0038884282, -647969.94, 1907.3236, 0.0, 5.0234003, 4.9925523 
9.8572165e+2, 2.386766e+2, -606946.1, -651631.6, 22522.992, 0.007478638, -0.004498586, -597563.75, 3404.2725, 0.0, 5.0231133, 4.992718 
9.856118e+2, 2.4366735e+2, -558129.2, -602219.25, 23602.934, 0.009186491, -0.0067284554, -547877.44, 4181.2964, 0.0, 5.0230546, 4.992913 
9.8549235e+2, 2.4865787e+2, -508407.7, -554768.44, 17263.586, 0.009691501, -0.0074383384, -502685.47, 466.00552, 0.0, 5.023339, 4.9924498 
9.853659e+2, 2.5364834e+2, -460926.3, -505434.78, 22373.186, 0.011320406, -0.007117753, -451624.06, 2620.7207, 0.0, 5.0228715, 4.992713 
9.852393e+2, 2.5863886e+2, -413480.06, -456127.7, 27201.8, 0.012832123, -0.0066506756, -400240.28, 5097.1753, 0.0, 5.022385, 4.992977 
9.851093e+2, 2.6363018e+2, -366868.6, -406330.2, 28410.438, 0.010151768, 0.00050121004, -352009.53, 4414.0503, 0.0, 5.021406, 4.99365 
9.849624e+2, 2.6862195e+2, -317471.16, -356650.6, 14454.589, 0.006683895, 0.0057074847, -312715.6, -5209.33, 0.0, 5.020986, 4.9943805 
9.8480254e+2, 2.7361333e+2, -271803.8, -307836.44, 21576.063, 0.0050888183, 0.0053575602, -261711.16, -3118.8154, 0.0, 5.019843, 4.994722 
9.846427e+2, 2.7860495e+2, -226012.23, -258699.48, 28511.771, 0.0037588433, 0.0065603764, -209491.97, 184.23393, 0.0, 5.01868, 4.9951897 
9.844779e+2, 2.835965e+2, -177893.39, -206117.22, 24131.717, 0.011305773, -0.005415313, -164050.23, -3292.4834, 0.0, 5.017831, 4.996811 
9.842845e+2, 2.8858766e+2, -133848.05, -163772.81, 8453.017, 0.011017914, -0.0057584, -131625.36, -19783.479, 0.0, 5.016273, 4.9953775 
9.84076e+2, 2.9357758e+2, -99096.36, -117583.35, 16520.04, 0.005122248, -0.01987568, -89409.62, -26471.207, 0.0, 5.0109076, 4.996333 
9.929309e+2, 1.2883596e+2, -1680045.5, -1686121.0, 60.615715, -0.023883859, 0.005354316, -1680044.9, -2640.2803, 0.0, 5.01452, 5.0105476 
9.928297e+2, 1.3384454e+2, -1627190.1, -1635225.4, 185.06609, 0.0046889833, -0.0015374924, -1627185.9, 1135.198, 0.0, 5.01589, 5.0105777 
9.927281e+2, 1.3885319e+2, -1574546.0, -1584688.8, 152.19684, 0.030389298, -0.007759236, -1574543.6, 4693.098, 0.0, 5.0172396, 5.010507 
9.926228e+2, 1.4386179e+2, -1526319.6, -1541880.0, 979.5339, 0.024623895, -0.006657909, -1526258.1, 3895.6028, 0.0, 5.0182805, 5.007998 
9.9251974e+2, 1.4886598e+2, -1482718.4, -1507706.9, 4399.74, 0.0012866795, -0.0015492594, -1481966.3, -852.1263, 0.0, 5.0190654, 5.002735 
9.9242014e+2, 1.5386769e+2, -1431934.9, -1457831.1, 4491.329, -0.0020541525, -0.0011448377, -1431178.0, 920.71655, 0.0, 5.019738, 5.0027637 
9.9232054e+2, 1.5886945e+2, -1381017.6, -1407682.5, 4647.2847, -0.005061414, -0.00076098467, -1380231.0, 2851.9604, 0.0, 5.0204105, 5.002891 
9.922219e+2, 1.6387141e+2, -1330273.1, -1357947.0, 5571.6665, -0.0015028116, -0.00088899717, -1329193.5, 4869.263, 0.0, 5.0210814, 5.0028825 
9.9212563e+2, 1.688713e+2, -1285795.9, -1319942.4, 8404.428, -0.0001885163, 0.0007708794, -1283839.5, 1222.9508, 0.0, 5.021518, 4.9989676 
9.920302e+2, 1.738691e+2, -1235667.4, -1270325.4, 8931.416, -0.0023858426, -0.00021789732, -1233501.1, 2581.108, 0.0, 5.021969, 4.999012 
9.919349e+2, 1.7886698e+2, -1185770.6, -1221230.8, 9442.834, -0.0046665585, -0.00073360046, -1183412.9, 3688.7559, 0.0, 5.0224175, 4.998885 
9.918396e+2, 1.8386497e+2, -1135664.6, -1171948.1, 9309.4, -0.0027654995, 0.0023482263, -1133415.5, 4706.4526, 0.0, 5.0228896, 4.9988265 
9.917448e+2, 1.8886182e+2, -1089759.8, -1130894.3, 11203.121, 0.0016821132, 0.007044643, -1086906.5, 2247.4736, 0.0, 5.0232153, 4.996 
9.9165106e+2, 1.938571e+2, -1040401.9, -1081594.4, 12075.048, 0.008859746, 0.010015821, -1037123.2, 3078.0313, 0.0, 5.0233974, 4.9960604 
9.9155724e+2, 1.9885238e+2, -990846.56, -1031882.44, 12796.358, 0.015054263, 0.012305556, -987183.25, 4065.195, 0.0, 5.0235744, 4.9962687 
9.914619e+2, 2.038474e+2, -940471.44, -980022.44, 12341.321, 0.015063667, 0.005863875, -936936.44, 5359.5776, 0.0, 5.0236607, 4.997283 
9.913633e+2, 2.0884204e+2, -893022.06, -934581.3, 12980.767, 0.011405925, -0.0035020306, -889300.8, 4045.6206, 0.0, 5.023721, 4.996131 
9.9126405e+2, 2.138359e+2, -844322.06, -885492.4, 15284.132, 0.0065434077, -0.013750438, -839268.4, 5136.3457, 0.0, 5.023692, 4.9962087 
9.911648e+2, 2.1882986e+2, -795728.5, -836677.4, 17559.336, 0.0017574843, -0.022870157, -789230.1, 6231.962, 0.0, 5.0236635, 4.996193 
9.910652e+2, 2.2382523e+2, -746588.0, -786815.44, 18296.518, 0.00007908717, -0.017561948, -739511.2, 6996.65, 0.0, 5.0236626, 4.9965315 
9.909602e+2, 2.2882152e+2, -697552.75, -737606.7, 15322.092, 0.0009849328, -0.006255772, -692363.75, 5181.88, 0.0, 5.023645, 4.996715 
9.9085164e+2, 2.3381746e+2, -649564.3, -688539.3, 18752.137, 0.0023514223, 0.0017559507, -642007.3, 6579.4077, 0.0, 5.023361, 4.9968762 
9.907431e+2, 2.3881342e+2, -601536.44, -639456.44, 22104.365, 0.0035708316, 0.009485884, -591374.56, 8252.996, 0.0, 5.023083, 4.997042 
9.906332e+2, 2.4380867e+2, -551758.9, -588077.56, 23491.959, 0.005254703, 0.006734483, -540225.94, 10448.566, 0.0, 5.023058, 4.997945 
9.905136e+2, 2.488047e+2, -499386.28, -535557.25, 16400.752, 0.004219289, -0.00037957326, -493057.22, 8656.308, 0.0, 5.023455, 4.9993 
9.9038655e+2, 2.5380138e+2, -452018.0, -486311.78, 21550.777, 0.004108415, -0.0070800744, -441624.88, 11121.443, 0.0, 5.0229754, 4.999561 
9.9025935e+2, 2.5879815e+2, -404678.22, -437053.66, 26208.04, 0.0035299168, -0.012727225, -390061.66, 13716.028, 0.0, 5.0224714, 4.9998384 
9.9012864e+2, 2.6379696e+2, -357468.25, -385615.03, 26791.26, 0.006014556, -0.0034083312, -341278.94, 13511.869, 0.0, 5.0214577, 5.001146 
9.899813e+2, 2.687985e+2, -306042.06, -330732.38, 12838.878, 0.0120869335, 0.015373721, -300576.0, 5201.716, 0.0, 5.0209675, 5.003828 
9.89821e+2, 2.7380028e+2, -260489.19, -281947.25, 20044.176, 0.017324705, 0.024734413, -248483.2, 8278.823, 0.0, 5.0198045, 5.0041933 
9.896605e+2, 2.7880225e+2, -214602.25, -232337.22, 26989.756, 0.020911667, 0.034582548, -195060.6, 12683.967, 0.0, 5.0186205, 5.004869 
9.894938e+2, 2.8380272e+2, -166064.98, -179460.02, 22577.266, 0.024656298, 0.01779455, -149212.77, 9524.707, 0.0, 5.017907, 5.006604 
9.8929626e+2, 2.888019e+2, -118575.92, -131302.89, 3459.8567, 0.0086894855, -0.012870387, -117696.164, -7955.0205, 0.0, 5.0165305, 5.007452 
9.890799e+2, 2.9380164e+2, -84112.09, -85595.08, 11971.201, -0.031964846, -0.0446055, -72859.445, -12119.552, 0.0, 5.011129, 5.0082936 
9.979429e+2, 1.2894082e+2, -1680923.5, -1686096.1, 738.8817, -0.037649292, 0.013280421, -1680820.0, -4443.924, 0.0, 5.0141454, 5.0107317 
9.9784446e+2, 1.3394892e+2, -1627005.3, -1634698.4, 1090.1731, 0.0061388235, -0.00048812423, -1626853.8, 443.66785, 0.0, 5.0158763, 5.0107512 
9.9774563e+2, 1.3895713e+2, -1574908.9, -1584485.5, 1130.7838, 0.04570372, -0.013203367, -1574777.1, 3440.6836, 0.0, 5.017055, 5.0106573 
9.976412e+2, 1.4396591e+2, -1526927.9, -1542337.1, 1761.4595, 0.037715014, -0.011321065, -1526729.1, 2404.4248, 0.0, 5.018123, 5.0079136 
9.9753845e+2, 1.489704e+2, -1482444.8, -1507292.9, 4831.314, 0.007882385, -0.0034613328, -1481538.5, -1446.6818, 0.0, 5.019086, 5.002862 
9.9743885e+2, 1.5397246e+2, -1431588.4, -1457386.5, 4930.4683, -0.0020033559, -0.0015523826, -1430678.1, 395.4979, 0.0, 5.0197854, 5.0028887 
9.9733937e+2, 1.5897454e+2, -1380708.3, -1407314.3, 5102.921, -0.011277595, 0.00049198186, -1379763.1, 2291.9229, 0.0, 5.0204577, 5.0029917 
9.9724126e+2, 1.6397679e+2, -1329738.0, -1357071.6, 5943.2134, -0.007991006, 0.0008055342, -1328501.6, 4529.8867, 0.0, 5.021121, 5.003156 
9.971457e+2, 1.689771e+2, -1284878.8, -1318110.9, 8623.096, -0.005530542, 0.0013723159, -1282774.4, 1251.4186, 0.0, 5.0215364, 4.9995594 
9.970508e+2, 1.739755e+2, -1234773.8, -1268512.6, 9185.199, -0.0066780653, -0.0010209038, -1232435.3, 2603.7048, 0.0, 5.021983, 4.999602 
9.9695605e+2, 1.7897396e+2, -1185199.4, -1220070.0, 9682.17, -0.008101448, -0.002190197, -1182691.4, 3360.2048, 0.0, 5.0224285, 4.999257 
9.968616e+2, 1.8397267e+2, -1135032.8, -1170686.3, 9698.351, -0.0035920893, 0.004530313, -1132565.4, 4500.157, 0.0, 5.0229063, 4.9992337 
9.967674e+2, 1.8897076e+2, -1088169.8, -1127757.4, 11214.136, 0.00340831, 0.012896345, -1085213.8, 2873.1582, 0.0, 5.023259, 4.9970374 
9.966741e+2, 1.9396746e+2, -1038811.8, -1078466.8, 12118.452, 0.0133283585, 0.018537601, -1035401.7, 3720.1238, 0.0, 5.0234447, 4.997097 
9.9658066e+2, 1.9896415e+2, -989102.25, -1028434.7, 12845.483, 0.021399744, 0.023223208, -985278.75, 4877.924, 0.0, 5.0236244, 4.9974194 
9.964852e+2, 2.0396027e+2, -938067.4, -975058.4, 12159.296, 0.019696763, 0.012548968, -934428.5, 6763.9546, 0.0, 5.023694, 4.998976 
9.963863e+2, 2.089566e+2, -889221.4, -926332.6, 12784.658, 0.01399392, -0.0037399747, -885243.5, 6981.0425, 0.0, 5.0237174, 4.998996 
9.962866e+2, 2.1395256e+2, -840529.06, -877286.4, 15117.656, 0.005065475, -0.02208401, -835110.25, 8150.301, 0.0, 5.023697, 4.9990664 
9.961869e+2, 2.1894869e+2, -792151.94, -828977.94, 17464.686, -0.0039785677, -0.038216792, -785186.75, 9108.433, 0.0, 5.0236783, 4.998881 
9.960871e+2, 2.2394723e+2, -742931.56, -778905.06, 17996.053, -0.007293239, -0.028515693, -735474.6, 9835.819, 0.0, 5.023676, 4.9993033 
9.959819e+2, 2.289479e+2, -692123.1, -725366.5, 14808.237, -0.0061645317, -0.00954496, -686483.5, 9822.517, 0.0, 5.0235996, 5.0010405 
9.9587315e+2, 2.3394905e+2, -644158.7, -676344.1, 18270.209, -0.0034613046, 0.00672945, -635904.4, 11392.435, 0.0, 5.0233226, 5.0011983 
9.957645e+2, 2.3895016e+2, -596187.7, -627400.56, 21667.7, -0.0013233413, 0.022186087, -585091.1, 13196.81, 0.0, 5.023053, 5.001328 
9.9565446e+2, 2.4394995e+2, -545615.5, -574406.8, 23537.9, 0.00024263252, 0.019339697, -532420.06, 16870.688, 0.0, 5.023061, 5.002816 
9.9553496e+2, 2.4895172e+2, -490397.47, -516393.75, 15535.629, -0.0016335589, 0.009309067, -483139.56, 17134.053, 0.0, 5.0235715, 5.006149 
9.954073e+2, 2.539546e+2, -443142.03, -467236.3, 20726.072, -0.0034219164, -0.005225235, -431216.2, 20029.8, 0.0, 5.023079, 5.0064077 
9.9527943e+2, 2.5895768e+2, -395976.8, -418178.6, 25217.299, -0.0060351933, -0.017453227, -379525.2, 22690.766, 0.0, 5.0225563, 5.006644 
9.9514806e+2, 2.6396397e+2, -348295.5, -365388.84, 25084.342, 0.0016158482, -0.0055593094, -330341.8, 22814.064, 0.0, 5.0215096, 5.0084863 
9.9500024e+2, 2.689749e+2, -294668.97, -304900.47, 11206.635, 0.017659532, 0.023365648, -287465.66, 16584.725, 0.0, 5.020948, 5.0132804 
9.9483943e+2, 2.7398708e+2, -249230.19, -256144.28, 18495.736, 0.02935244, 0.040558893, -233871.19, 21062.049, 0.0, 5.0197654, 5.013669 
9.9467814e+2, 2.789993e+2, -203359.2, -206335.75, 25562.258, 0.036926173, 0.056822788, -179241.94, 26573.16, 0.0, 5.018564, 5.014454 
9.945094e+2, 2.8400886e+2, -155160.52, -154844.92, 21204.313, 0.034721635, 0.037641063, -133797.83, 22919.693, 0.0, 5.017988, 5.015669 
9.9430853e+2, 2.8901756e+2, -103430.99, -98992.22, -1397.6791, 0.013377737, -0.0077495817, -98588.79, 9037.767, 0.0, 5.0167904, 5.019498 
9.940845e+2, 2.9402682e+2, -69252.3, -53764.25, 7556.805, -0.05948979, -0.06683971, -50688.14, 7842.109, 0.0, 5.011353, 5.0202236 
1.0029641e+3, 1.290392e+2, -1675851.0, -1680973.8, -2236.7078, 0.03875536, -0.025225477, -1675011.9, 405.1688, 0.0, 5.01521, 5.011946 
1.0028587e+3, 1.3405216e+2, -1624254.0, -1630692.0, -509.30505, 0.0048626238, -0.0009425152, -1624214.0, 2073.6323, 0.0, 5.0161858, 5.011966 
1.00275345e+3, 1.390638e+2, -1572642.9, -1581450.3, 739.72144, -0.035979588, 0.010322849, -1572581.1, 4590.023, 0.0, 5.0173407, 5.011557 
1.0026501e+3, 1.4407267e+2, -1526682.5, -1542299.8, 809.3305, -0.04471472, 0.0075897323, -1526640.6, 1444.5049, 0.0, 5.0181546, 5.007925 
1.00255154e+3, 1.4907649e+2, -1482124.3, -1506884.0, 3381.7046, -0.040179282, 0.00813146, -1481670.8, -2621.3518, 0.0, 5.01905, 5.003043 
1.002456e+3, 1.5407841e+2, -1430703.5, -1456948.0, 3253.4429, -0.016824078, 0.006381715, -1430306.3, -273.79172, 0.0, 5.019954, 5.003004 
1.00235984e+3, 1.5908062e+2, -1379021.8, -1407082.1, 2984.391, -0.0015669804, 0.008936119, -1378707.9, 2304.5127, 0.0, 5.020967, 5.0029016 
1.0022629e+3, 1.6408232e+2, -1328859.6, -1358727.4, 1721.2151, 0.0053473855, 0.007431283, -1328760.8, 3235.2856, 0.0, 5.0216866, 5.0023937 
1.0021679e+3, 1.6908227e+2, -1283805.0, -1318590.9, 2680.6963, 0.010492163, 0.0074272156, -1283599.6, -603.77545, 0.0, 5.0219464, 4.9992557 
1.0020737e+3, 1.7408076e+2, -1233583.9, -1269078.6, 1711.7482, 0.010015785, 0.0061948663, -1233501.5, 508.49, 0.0, 5.022427, 4.99927 
1.00197904e+3, 1.7907935e+2, -1183119.6, -1219741.4, 519.70276, 0.0032748822, 0.0063432422, -1183112.3, 1910.6648, 0.0, 5.0230217, 4.999185 
1.00188345e+3, 1.8407746e+2, -1133413.8, -1169074.4, 100.457886, -0.0054197903, 0.00009301057, -1133413.4, 2629.087, 0.0, 5.0230546, 4.9998097 
1.001789e+3, 1.8907544e+2, -1086877.3, -1124640.3, 1926.6853, -0.005389587, -0.0063565825, -1086779.1, 284.48654, 0.0, 5.0229445, 4.9983516 
1.0016953e+3, 1.9407254e+2, -1038489.1, -1076051.4, 3448.3691, 0.00004281858, -0.012852825, -1038175.1, -81.35977, 0.0, 5.02281, 4.998338 
1.0016014e+3, 1.9906992e+2, -989470.0, -1026715.8, 4424.4766, 0.00045363844, -0.016099112, -988951.6, 169.30318, 0.0, 5.022773, 4.998546 
1.0015061e+3, 2.040698e+2, -940299.44, -973607.4, 2640.2727, 0.0041694166, -0.0060623907, -940091.44, 27.52673, 0.0, 5.0220733, 5.000373 
1.0014085e+3, 2.0907158e+2, -891907.25, -922631.56, 2846.083, 0.013921717, 0.009119397, -891645.9, -549.23444, 0.0, 5.021427, 5.0014944 
1.00131005e+3, 2.1407308e+2, -844342.2, -874303.44, 4559.0234, 0.018880041, 0.017841674, -843663.8, -1586.6401, 0.0, 5.021011, 5.0015106 
1.00121126e+3, 2.1907416e+2, -796942.5, -827380.56, 6186.4043, 0.01781959, 0.024213959, -795733.2, -2671.0593, 0.0, 5.0207853, 5.000952 
1.0011105e+3, 2.2407301e+2, -746878.75, -777368.2, 5130.93, 0.003435532, 0.013761559, -746038.44, -1962.596, 0.0, 5.021161, 5.0011806 
1.0010045e+3, 2.2907351e+2, -692634.06, -718790.0, 262.42538, -0.003120795, 0.00008547572, -692631.44, 2443.931, 0.0, 5.02161, 5.004462 
1.0008954e+3, 2.3407574e+2, -642867.56, -669103.2, 2228.819, -0.0043901014, -0.012545416, -642679.56, 3378.1245, 0.0, 5.0219665, 5.004589 
1.00078605e+3, 2.3907864e+2, -593328.44, -619342.9, 3971.4236, -0.009818999, -0.018996935, -592735.7, 4297.458, 0.0, 5.022185, 5.004817 
1.0006761e+3, 2.4408472e+2, -546095.44, -566691.7, 4930.572, -0.0043660845, -0.0029738059, -544975.94, 2998.8892, 0.0, 5.0207353, 5.0068545 
1.0005576e+3, 2.4909614e+2, -492678.06, -504696.78, -4416.17, 0.0070100534, 0.024223113, -491229.88, 7633.2427, 0.0, 5.019601, 5.012403 
1.0004306e+3, 2.541079e+2, -449186.3, -457453.72, 526.76556, 0.019719915, 0.028295023, -449152.9, 595.1802, 0.0, 5.017747, 5.0125957 
1.0003026e+3, 2.5911897e+2, -404658.88, -408728.03, 4623.836, 0.022952044, 0.02510325, -401641.78, -1002.2363, 0.0, 5.016043, 5.013254 
1.0001683e+3, 2.6412928e+2, -357352.22, -354672.75, 5531.23, 0.014541667, -0.0041291635, -350321.3, 1216.3636, 0.0, 5.014548, 5.015782 
1.0000176e+3, 2.6914468e+2, -302221.34, -288384.44, -6033.3643, 0.016607177, -0.023323745, -286123.22, 16262.674, 0.0, 5.0135903, 5.0228887 
9.998525e+2, 2.741635e+2, -256851.53, -239884.14, 3827.426, -0.0028395245, -0.042821076, -239060.72, 14140.472, 0.0, 5.01243, 5.023164 
9.996872e+2, 2.7918416e+2, -211592.95, -192175.67, 12909.831, -0.026438126, -0.042715486, -185731.25, 18267.594, 0.0, 5.011381, 5.023098 
9.995203e+2, 2.8420663e+2, -161320.23, -140846.89, 9381.677, 0.0011737335, -0.02343194, -137198.13, 17577.133, 0.0, 5.0118327, 5.02379 
9.9932504e+2, 2.892377e+2, -98067.45, -71821.75, -11930.167, 0.063673034, 0.041052785, -67209.375, 38256.105, 0.0, 5.0132375, 5.0315003 
9.990993e+2, 2.9426342e+2, -60336.35, -25132.678, 1514.2426, 0.020147119, 0.013592741, -25067.664, 31139.932, 0.0, 5.009268, 5.0321093 
