coord_x,coord_y,stress_xx,stress_yy,tau_xy,velocity_x,velocity_y,stress_1,eps,damage,lx,ly
2.5072291e+0, 1.2151754e+2, -1711093.5, -1746930.8, -331.83066, 0.0023063188, 0.0006212631, -1711090.4, 38028.297, 0.0, 5.013984, 4.990644 
2.5070313e+0, 1.2650248e+2, -1668477.0, -1711288.6, -234.74881, -0.000064875734, -0.0148438625, -1668475.8, 31790.887, 0.0, 5.0140686, 4.986224 
2.5070524e+0, 1.3148886e+2, -1619225.3, -1662165.4, -119.77171, -0.00026675218, -0.014063833, -1619224.9, 32176.955, 0.0, 5.0141544, 4.986224 
2.507073e+0, 1.364752e+2, -1572182.6, -1617581.0, -5.260134, -0.00048483055, -0.012034486, -1572182.6, 30354.725, 0.0, 5.0142403, 4.9847198 
2.507108e+0, 1.4145868e+2, -1529375.0, -1581742.4, 82.81921, -0.00058039365, 0.0029136909, -1529374.9, 24326.25, 0.0, 5.0143285, 4.9802346 
2.507179e+0, 1.4643922e+2, -1479696.8, -1531799.6, 95.67123, -0.0002958168, 0.0011749575, -1479696.5, 25197.24, 0.0, 5.0144143, 4.9804854 
2.507252e+0, 1.5141974e+2, -1430392.3, -1482625.5, 106.04168, 0.0000050929784, -0.0013319094, -1430392.0, 25694.834, 0.0, 5.014499, 4.9804854 
2.5073248e+0, 1.5640025e+2, -1382517.6, -1436429.5, 116.27581, 0.00030248833, -0.0033883757, -1382517.4, 24762.596, 0.0, 5.0145845, 4.9794903 
2.5073615e+0, 1.6137715e+2, -1341707.5, -1404762.6, 55.24526, 0.00051498006, 0.0020415343, -1341707.4, 16801.063, 0.0, 5.0146146, 4.973658 
2.507315e+0, 1.6635144e+2, -1292770.6, -1355556.6, -10.332083, 0.0005424575, 0.0052385028, -1292770.6, 16991.715, 0.0, 5.0145173, 4.9737344 
2.5072652e+0, 1.7132577e+2, -1243955.5, -1306585.4, -61.22669, 0.0005572695, 0.008588124, -1243955.4, 17060.455, 0.0, 5.014415, 4.9737344 
2.507215e+0, 1.7630011e+2, -1196274.1, -1260015.8, -112.20018, 0.0005659693, 0.012328069, -1196274.0, 15995.438, 0.0, 5.0143123, 4.972927 
2.5071737e+0, 1.8127051e+2, -1156524.4, -1230526.4, -95.347404, 0.0004168975, 0.021866962, -1156524.3, 7036.6816, 0.0, 5.0142584, 4.9663215 
2.5071505e+0, 1.8623672e+2, -1107004.1, -1180857.5, -78.35446, -0.00004585471, 0.017047888, -1107004.1, 7887.541, 0.0, 5.0143046, 4.9664593 
2.5071275e+0, 1.9120292e+2, -1057669.1, -1131598.6, -72.9831, -0.00052607857, 0.011607048, -1057669.0, 8553.632, 0.0, 5.014354, 4.9664593 
2.5071043e+0, 1.9616911e+2, -1009226.0, -1084256.8, -67.654396, -0.0010154978, 0.006485843, -1009225.94, 8327.689, 0.0, 5.014404, 4.965809 
2.5071016e+0, 2.0113169e+2, -969415.1, -1055448.6, -87.80871, -0.0012153048, 0.009895164, -969415.06, -496.04254, 0.0, 5.014437, 4.9588394 
2.5071543e+0, 2.0609067e+2, -919925.94, -1005592.75, -152.77388, -0.0005784218, 0.006656401, -919925.7, 390.6884, 0.0, 5.0144157, 4.959048 
2.5072098e+0, 2.1104966e+2, -870733.25, -956363.0, -214.6776, 0.000097436045, 0.0030223827, -870732.7, 980.7594, 0.0, 5.0143905, 4.959048 
2.5072652e+0, 2.1600865e+2, -822205.25, -908587.56, -276.3087, 0.00076251524, -0.00047962507, -822204.4, 906.2273, 0.0, 5.014365, 4.9585485 
2.5073048e+0, 2.2096363e+2, -782978.7, -881054.8, -345.96558, 0.0014174246, 0.0014081524, -782977.5, -8430.738, 0.0, 5.0143113, 4.9510927 
2.507313e+0, 2.2591351e+2, -733776.3, -831350.3, -333.33237, 0.0021686524, -0.016182495, -733775.2, -7743.601, 0.0, 5.0141735, 4.95127 
2.5073197e+0, 2.308633e+2, -684826.06, -782189.7, -305.61304, 0.0029105248, -0.03496745, -684825.1, -7307.8765, 0.0, 5.0140314, 4.9512706 
2.5073257e+0, 2.3581308e+2, -636521.9, -734472.8, -276.9348, 0.003626285, -0.05373023, -636521.1, -7518.1685, 0.0, 5.0138893, 4.950769 
2.5072524e+0, 2.4076046e+2, -598550.3, -709370.3, -247.83582, 0.0039715366, -0.045914646, -598549.75, -18035.354, 0.0, 5.0136614, 4.942455 
2.5071034e+0, 2.4570648e+2, -548950.0, -658674.4, -64.230774, 0.0033791538, -0.018329378, -548950.0, -16903.27, 0.0, 5.0134664, 4.9429617 
2.5069663e+0, 2.5065243e+2, -499895.25, -609413.9, 76.18983, 0.0026897697, 0.007093334, -499895.2, -16314.878, 0.0, 5.013307, 4.9429626 
2.5068256e+0, 2.5559837e+2, -451077.66, -560714.06, 219.31644, 0.0019486903, 0.032590616, -451077.22, -15963.353, 0.0, 5.0131445, 4.942765 
2.5068554e+0, 2.605382e+2, -407815.4, -524221.13, 66.00559, 0.003146772, 0.036816943, -407815.34, -21113.354, 0.0, 5.0128913, 4.9381413 
2.5072002e+0, 2.6547137e+2, -355062.78, -462831.2, -1107.7144, 0.010129115, -0.07900307, -355051.4, -16718.877, 0.0, 5.0119042, 4.9423895 
2.5075117e+0, 2.7040496e+2, -308188.44, -414518.5, -2266.741, 0.016667105, -0.20258594, -308140.16, -18183.273, 0.0, 5.0108137, 4.9424186 
2.5077936e+0, 2.7533853e+2, -261273.67, -366317.84, -3369.0005, 0.022396144, -0.32676992, -261165.73, -19584.395, 0.0, 5.0097156, 4.9424 
2.5083634e+0, 2.8027928e+2, -247740.69, -409843.13, -810.73785, 0.017300539, -0.19378997, -247736.64, -54593.188, 0.0, 5.0115676, 4.909252 
2.5087088e+0, 2.852215e+2, -171404.11, -310711.78, -1338.8322, 0.010406634, 0.015998349, -171391.25, -26662.945, 0.0, 5.014073, 4.9251146 
2.5087976e+0, 2.9015595e+2, -120328.43, -260431.39, -1743.2675, 0.009813504, 0.06918271, -120306.74, -23912.537, 0.0, 5.0146546, 4.9251075 
2.508864e+0, 2.9509038e+2, -69093.03, -210116.02, -2164.2864, 0.008304416, 0.121712394, -69059.82, -20999.164, 0.0, 5.0152254, 4.9251003 
2.5094116e+0, 3.000266e+2, -16909.52, -127810.11, -1055.9817, 0.0070889113, 0.12252985, -16899.467, -16899.467, 0.0, 5.016419, 4.945025 
2.5117916e+0, 3.0498248e+2, 13700.485, -66081.76, -3825.375, 0.016940735, -0.091273434, 13883.483, 13883.483, 0.0, 5.0180464, 4.963741 
2.5141963e+0, 3.0995023e+2, 18798.977, -63586.426, -7645.693, 0.026111657, -0.3154147, 19502.52, 19502.52, 0.0, 5.0193243, 4.963999 
2.516485e+0, 3.1491837e+2, 24299.746, -61161.098, -10822.506, 0.032050863, -0.53908056, 25648.975, 25648.975, 0.0, 5.020593, 4.964259 
7.521676e+0, 1.2151681e+2, -1711852.4, -1748454.1, -329.27518, 0.0067916946, -0.002441298, -1711849.4, 37276.977, 0.0, 5.013981, 4.990145 
7.521091e+0, 1.265023e+2, -1668262.4, -1710836.5, -172.55128, -0.00021640034, -0.013263722, -1668261.6, 32007.262, 0.0, 5.014066, 4.9863734 
7.5211555e+0, 1.3148865e+2, -1619008.3, -1661713.6, -56.649372, -0.00081804016, -0.0142769525, -1619008.1, 32395.834, 0.0, 5.014153, 4.9863734 
7.521218e+0, 1.3647497e+2, -1571965.6, -1617130.6, 58.99306, -0.0014682867, -0.014044977, -1571965.5, 30573.738, 0.0, 5.01424, 4.9848685 
7.521323e+0, 1.4145847e+2, -1529302.8, -1581587.8, 148.08536, -0.0017422076, 0.000084134146, -1529302.4, 24400.145, 0.0, 5.0143275, 4.980286 
7.5215375e+0, 1.4643918e+2, -1479678.4, -1531756.3, 159.7378, -0.0008867143, -0.00020072325, -1479677.9, 25215.855, 0.0, 5.014413, 4.9805007 
7.521756e+0, 1.5141986e+2, -1430374.0, -1482582.4, 170.85077, 0.000014898379, -0.0011646578, -1430373.5, 25712.012, 0.0, 5.014498, 4.9805007 
7.5219744e+0, 1.5640053e+2, -1382500.0, -1436386.9, 181.8085, 0.0009059678, -0.0016795633, -1382499.4, 24777.902, 0.0, 5.0145836, 4.9795055 
7.522084e+0, 1.613775e+2, -1341770.9, -1404888.9, 9.56022, 0.0015461529, 0.0045167687, -1341770.9, 16734.35, 0.0, 5.0146136, 4.973617 
7.521945e+0, 1.6635166e+2, -1292864.3, -1355748.0, -88.53096, 0.0016269702, 0.0069981175, -1292864.1, 16896.469, 0.0, 5.0145164, 4.9736714 
7.5217956e+0, 1.7132585e+2, -1244048.0, -1306775.9, -138.55562, 0.0016685365, 0.00959934, -1244047.6, 16967.959, 0.0, 5.014414, 4.9736714 
7.5216454e+0, 1.7630003e+2, -1196366.4, -1260205.9, -188.7478, 0.0016917661, 0.012589649, -1196365.8, 15904.894, 0.0, 5.0143113, 4.9728637 
7.521521e+0, 1.8127035e+2, -1156522.3, -1230512.0, -81.62015, 0.0012509953, 0.02154305, -1156522.1, 7040.9937, 0.0, 5.0142565, 4.9663277 
7.521451e+0, 1.8623662e+2, -1106995.0, -1180828.1, -38.850315, -0.0001399774, 0.01711046, -1106994.9, 7898.2935, 0.0, 5.0143027, 4.9664707 
7.521382e+0, 1.9120286e+2, -1057659.5, -1131568.9, -31.76515, -0.0015864465, 0.012153631, -1057659.5, 8564.014, 0.0, 5.0143523, 4.9664707 
7.5213116e+0, 1.9616911e+2, -1009217.1, -1084227.3, -24.886375, -0.003060502, 0.0075143343, -1009217.1, 8336.549, 0.0, 5.014402, 4.9658203 
7.521305e+0, 2.011317e+2, -969463.7, -1055539.1, -88.06969, -0.0036486005, 0.011109498, -969463.6, -544.75885, 0.0, 5.0144343, 4.9588103 
7.521463e+0, 2.0609064e+2, -920034.75, -1005811.9, -171.38162, -0.00174142, 0.008098728, -920034.4, 282.9282, 0.0, 5.0144124, 4.958975 
7.521628e+0, 2.1104957e+2, -870842.6, -956581.3, -231.32729, 0.00027710103, 0.0047915354, -870842.0, 873.6191, 0.0, 5.014387, 4.9589753 
7.5217927e+0, 2.1600853e+2, -822316.6, -908805.8, -291.22913, 0.0022632864, 0.0016249206, -822315.6, 798.2679, 0.0, 5.014361, 4.958476 
7.521914e+0, 2.2096346e+2, -782954.8, -880983.3, -420.32205, 0.0042382004, 0.0036005864, -782953.0, -8402.225, 0.0, 5.0143075, 4.9511194 
7.521938e+0, 2.259134e+2, -733721.6, -831212.5, -425.4532, 0.006474193, -0.013803729, -733719.8, -7684.8584, 0.0, 5.0141697, 4.9513206 
7.521957e+0, 2.3086324e+2, -684774.0, -782050.44, -394.93228, 0.008673293, -0.032300074, -684772.4, -7252.606, 0.0, 5.0140266, 4.9513216 
7.521974e+0, 2.358131e+2, -636475.25, -734333.44, -364.09528, 0.010794051, -0.05078708, -636473.94, -7469.2915, 0.0, 5.013882, 4.9508214 
7.5217694e+0, 2.4076036e+2, -598266.0, -708741.56, -464.0048, 0.011855751, -0.045422997, -598264.0, -17747.041, 0.0, 5.0136604, 4.94267 
7.52132e+0, 2.4570611e+2, -548740.4, -658155.2, -235.5946, 0.010086933, -0.022392774, -548739.9, -16688.482, 0.0, 5.0134554, 4.943143 
7.520895e+0, 2.5065187e+2, -499741.97, -608915.0, -90.334625, 0.008005084, -0.00067276944, -499741.88, -16155.438, 0.0, 5.0132766, 4.9431458 
7.52046e+0, 2.5559762e+2, -450990.7, -560239.94, 57.185165, 0.005768158, 0.021273552, -450990.7, -15869.427, 0.0, 5.01309, 4.9429502 
7.520501e+0, 2.6053774e+2, -408754.75, -525844.3, -138.9705, 0.009067919, 0.028659768, -408754.56, -22048.195, 0.0, 5.0128, 4.937633 
7.5214803e+0, 2.6547167e+2, -356951.78, -466316.13, -1313.5359, 0.02913984, -0.06512844, -356936.03, -18602.662, 0.0, 5.0117683, 4.941281 
7.522375e+0, 2.704058e+2, -310157.47, -417847.2, -2457.3242, 0.047927365, -0.16708128, -310101.44, -20145.379, 0.0, 5.0106163, 4.9413667 
7.5231814e+0, 2.753399e+2, -263381.22, -369516.28, -3577.9207, 0.06428744, -0.27083802, -263260.75, -21681.672, 0.0, 5.0094357, 4.9414053 
7.5248706e+0, 2.8027844e+2, -246390.69, -402110.6, 1931.5077, 0.05211172, -0.16805013, -246366.72, -53201.535, 0.0, 5.0108223, 4.9122195 
7.526e+0, 2.8521726e+2, -174581.53, -312066.66, -919.1003, 0.03446962, 0.0008047476, -174575.38, -29795.916, 0.0, 5.0131893, 4.9250245 
7.5263566e+0, 2.9014993e+2, -122965.69, -261587.25, -1005.085, 0.032733552, 0.045213822, -122958.4, -26500.545, 0.0, 5.0139484, 4.925002 
7.526647e+0, 2.9508245e+2, -71347.55, -211144.06, -1167.9155, 0.028249938, 0.08765901, -71337.79, -23199.906, 0.0, 5.0146403, 4.9249797 
7.5281864e+0, 3.0002072e+2, -16024.596, -120788.64, 1400.5313, 0.024340536, 0.09718515, -16005.876, -16005.876, 0.0, 5.0157213, 4.947902 
7.534533e+0, 3.049764e+2, 6942.539, -73579.23, -414.4528, 0.048295766, -0.07480163, 6944.6724, 6944.6724, 0.0, 5.01686, 4.962048 
7.5409186e+0, 3.099407e+2, 11005.858, -69935.87, -3929.7173, 0.06904431, -0.26320973, 11196.198, 11196.198, 0.0, 5.017614, 4.962809 
7.5469536e+0, 3.1490612e+2, 15237.458, -66464.055, -6910.2866, 0.080104634, -0.45019972, 15817.806, 15817.806, 0.0, 5.018271, 4.9635725 
1.2536106e+1, 1.2151606e+2, -1712552.4, -1749872.1, -327.583, 0.011108149, -0.0056273914, -1712549.5, 36584.742, 0.0, 5.013981, 4.9896793 
1.2535147e+1, 1.2650213e+2, -1668043.3, -1710380.6, -111.606064, -0.00039695544, -0.011642192, -1668043.0, 32228.205, 0.0, 5.0140653, 4.9865227 
1.2535256e+1, 1.3148843e+2, -1618789.9, -1661259.9, 6.328885, -0.0013930398, -0.014467637, -1618789.9, 32616.15, 0.0, 5.014153, 4.986522 
1.2535362e+1, 1.3647471e+2, -1571747.9, -1616678.5, 123.984215, -0.0024701366, -0.01605199, -1571747.6, 30793.563, 0.0, 5.01424, 4.9850173 
1.253554e+1, 1.4145824e+2, -1529231.9, -1581439.1, 213.29799, -0.0029053893, -0.0027259898, -1529231.0, 24472.834, 0.0, 5.014327, 4.980335 
1.2535895e+1, 1.4643912e+2, -1479657.6, -1531711.3, 224.72296, -0.0014766298, -0.0015609371, -1479656.6, 25237.148, 0.0, 5.014413, 4.980516 
1.253626e+1, 1.5141997e+2, -1430352.8, -1482537.5, 236.57285, 0.00002419678, -0.0009945695, -1430351.6, 25732.36, 0.0, 5.014498, 4.980516 
1.2536624e+1, 1.564008e+2, -1382478.3, -1436342.1, 248.2544, 0.0015074513, 0.000019455365, -1382477.1, 24797.297, 0.0, 5.0145836, 4.9795203 
1.2536807e+1, 1.6137783e+2, -1341833.4, -1405020.4, -35.658012, 0.002578943, 0.007009795, -1341833.4, 16668.533, 0.0, 5.0146136, 4.973573 
1.2536575e+1, 1.6635187e+2, -1292954.0, -1355937.1, -165.9825, 0.002710947, 0.008774436, -1292953.6, 16805.176, 0.0, 5.0145164, 4.973608 
1.2536326e+1, 1.7132592e+2, -1244136.6, -1306964.3, -215.05832, 0.0027754412, 0.0106138345, -1244135.9, 16879.445, 0.0, 5.0144143, 4.973608 
1.2536077e+1, 1.7629997e+2, -1196454.0, -1260393.4, -264.28806, 0.002809374, 0.012841082, -1196452.9, 15819.116, 0.0, 5.014312, 4.9728003 
1.2535869e+1, 1.8127018e+2, -1156520.5, -1230506.8, -67.95532, 0.0020854962, 0.021253034, -1156520.5, 7044.8535, 0.0, 5.0142565, 4.9663296 
1.2535751e+1, 1.862365e+2, -1106981.4, -1180795.9, 1.444834, -0.00023731877, 0.017201519, -1106981.4, 7913.3633, 0.0, 5.0143027, 4.9664817 
1.2535635e+1, 1.912028e+2, -1057645.3, -1131536.3, 10.203061, -0.002657763, 0.0127018895, -1057645.3, 8579.012, 0.0, 5.014353, 4.966482 
1.2535518e+1, 1.961691e+2, -1009202.25, -1084194.1, 18.750532, -0.0051241843, 0.008517688, -1009202.25, 8351.475, 0.0, 5.014402, 4.9658318 
1.253551e+1, 2.0113172e+2, -969515.44, -1055648.6, -87.56319, -0.006085477, 0.012374743, -969515.3, -596.6722, 0.0, 5.0144343, 4.9587727 
1.2535772e+1, 2.060906e+2, -920136.4, -1006026.75, -189.14029, -0.00291262, 0.0095966095, -920136.0, 182.27998, 0.0, 5.0144124, 4.958902 
1.2536044e+1, 2.110495e+2, -870943.8, -956794.9, -246.86005, 0.00043649343, 0.006578638, -870943.06, 774.6316, 0.0, 5.0143867, 4.958902 
1.2536317e+1, 2.1600841e+2, -822417.3, -909018.1, -304.53326, 0.0037317148, 0.0037098133, -822416.25, 700.90424, 0.0, 5.0143604, 4.958403 
1.2536524e+1, 2.2096331e+2, -782929.7, -880930.56, -490.8081, 0.007040216, 0.005845258, -782927.25, -8372.49, 0.0, 5.014308, 4.951137 
1.2536564e+1, 2.259133e+2, -733652.4, -831065.25, -515.00165, 0.010737387, -0.011383129, -733649.7, -7611.425, 0.0, 5.0141716, 4.9513707 
1.2536593e+1, 2.308632e+2, -684702.7, -781899.7, -479.8959, 0.014358354, -0.029658642, -684700.3, -7178.0737, 0.0, 5.014029, 4.9513726 
1.253662e+1, 2.3581311e+2, -636402.0, -734179.1, -444.46136, 0.017848747, -0.047937647, -636400.0, -7393.671, 0.0, 5.013885, 4.950873 
1.2536304e+1, 2.4076027e+2, -597970.75, -708139.2, -650.6275, 0.019661494, -0.044783164, -597966.9, -17447.49, 0.0, 5.013674, 4.9428673 
1.2535548e+1, 2.4570577e+2, -548481.44, -657597.0, -394.52637, 0.016727336, -0.026225422, -548480.0, -16424.143, 0.0, 5.0134664, 4.9433236 
1.2534818e+1, 2.506513e+2, -499508.8, -608363.4, -239.93307, 0.013234762, -0.0082978085, -499508.28, -15915.917, 0.0, 5.013278, 4.943328 
1.253407e+1, 2.555969e+2, -450783.25, -559694.6, -83.07279, 0.009483749, 0.010007851, -450783.2, -15654.69, 0.0, 5.0130825, 4.943134 
1.2534061e+1, 2.6053733e+2, -409576.56, -527445.44, -362.9648, 0.014492592, 0.02021531, -409575.44, -22864.328, 0.0, 5.012776, 4.9370875 
1.25356e+1, 2.654719e+2, -358584.56, -469622.1, -1510.8348, 0.046486836, -0.052521024, -358564.03, -20228.998, 0.0, 5.011741, 4.940158 
1.2537025e+1, 2.704065e+2, -311691.13, -420916.84, -2554.0562, 0.07642182, -0.13381577, -311631.44, -21675.094, 0.0, 5.010593, 4.9403005 
1.2538302e+1, 2.7534115e+2, -264816.75, -372350.8, -3573.909, 0.102310196, -0.21811779, -264698.1, -23119.932, 0.0, 5.0094156, 4.9403963 
1.2541085e+1, 2.802777e+2, -244302.36, -395017.7, 4578.6143, 0.087201566, -0.1410048, -244163.39, -50977.605, 0.0, 5.010546, 4.914753 
1.2543122e+1, 2.852133e+2, -176629.89, -312768.9, 16.380585, 0.06286576, -0.010213227, -176629.89, -31802.018, 0.0, 5.012754, 4.924922 
1.2543868e+1, 2.9014412e+2, -124793.84, -262234.8, 77.402794, 0.06004422, 0.023838101, -124793.805, -28274.293, 0.0, 5.0135756, 4.924885 
1.2544501e+1, 2.9507467e+2, -72956.664, -211737.89, 61.53891, 0.052644245, 0.054617207, -72956.64, -24742.752, 0.0, 5.01433, 4.9248476 
1.2546895e+1, 3.000144e+2, -15361.61, -115385.77, 3534.9302, 0.045687437, 0.07002344, -15236.839, -15236.839, 0.0, 5.0153112, 4.950007 
1.2556152e+1, 3.049691e+2, 1119.8446, -80471.42, 2692.856, 0.07628817, -0.06971315, 1208.6237, 1208.6237, 0.0, 5.0160785, 4.960243 
1.2565413e+1, 3.0992955e+2, 4707.84, -75439.99, -234.0371, 0.09961708, -0.23320846, 4708.5234, 4708.5234, 0.0, 5.0165176, 4.961505 
1.2574093e+1, 3.1489184e+2, 8466.169, -70582.07, -2624.4568, 0.10681555, -0.39435485, 8553.207, 8553.207, 0.0, 5.01686, 4.9627695 
1.7550522e+1, 1.2151529e+2, -1713285.3, -1751230.0, -321.11523, 0.015260433, -0.008937933, -1713282.6, 35859.668, 0.0, 5.013954, 4.9892454 
1.7549202e+1, 1.2650195e+2, -1667859.6, -1709940.8, -46.9013, -0.0006045659, -0.009979236, -1667859.6, 32413.857, 0.0, 5.0140533, 4.986672 
1.7549354e+1, 1.3148822e+2, -1618585.4, -1660811.3, 72.530525, -0.0019909162, -0.014635747, -1618585.3, 32822.86, 0.0, 5.0141487, 4.986671 
1.7549506e+1, 1.3647446e+2, -1571543.8, -1616231.5, 191.2559, -0.0034897034, -0.018055176, -1571542.9, 31000.172, 0.0, 5.014236, 4.985166 
1.7549753e+1, 1.4145802e+2, -1529187.3, -1581308.9, 278.9919, -0.004068938, -0.0055162525, -1529185.8, 24519.367, 0.0, 5.0143194, 4.980382 
1.7550252e+1, 1.4643906e+2, -1479658.3, -1531676.3, 291.5912, -0.002064731, -0.0029055856, -1479656.6, 25237.121, 0.0, 5.0144057, 4.9805307 
1.7550763e+1, 1.5142007e+2, -1430358.9, -1482505.6, 304.3874, 0.00003401607, -0.0008218297, -1430357.1, 25725.465, 0.0, 5.014489, 4.9805307 
1.7551275e+1, 1.5640108e+2, -1382497.6, -1436316.8, 316.77826, 0.0021085562, 0.0017082741, -1382495.8, 24775.918, 0.0, 5.01457, 4.9795356 
1.7551531e+1, 1.6137819e+2, -1341943.8, -1405180.8, -79.39133, 0.0036151563, 0.0095201405, -1341943.6, 16554.996, 0.0, 5.0145993, 4.9735265 
1.7551206e+1, 1.6635208e+2, -1293063.5, -1356135.3, -242.09157, 0.0037952955, 0.010567159, -1293062.5, 16694.375, 0.0, 5.01451, 4.9735446 
1.7550857e+1, 1.7132598e+2, -1244235.1, -1307156.8, -290.60092, 0.003878833, 0.011631484, -1244233.9, 16781.285, 0.0, 5.0144114, 4.9735446 
1.7550507e+1, 1.762999e+2, -1196557.4, -1260588.0, -339.1575, 0.0039204825, 0.013082417, -1196555.6, 15717.692, 0.0, 5.014307, 4.972737 
1.7550215e+1, 1.8127002e+2, -1156547.5, -1230524.1, -55.406933, 0.0029228912, 0.020996988, -1156547.4, 7020.136, 0.0, 5.0142484, 4.966327 
1.7550051e+1, 1.862364e+2, -1106980.3, -1180769.0, 40.584778, -0.0003358559, 0.017320778, -1106980.3, 7916.023, 0.0, 5.014299, 4.9664927 
1.7549889e+1, 1.9120274e+2, -1057652.1, -1131513.0, 51.11449, -0.003737437, 0.013251008, -1057652.1, 8572.929, 0.0, 5.0143456, 4.966493 
1.7549723e+1, 1.961691e+2, -1009237.7, -1084184.1, 62.72272, -0.007202264, 0.009494415, -1009237.6, 8316.105, 0.0, 5.014385, 4.9658427 
1.7549713e+1, 2.0113173e+2, -969653.1, -1055816.4, -85.30115, -0.008520348, 0.013689061, -969653.0, -734.5891, 0.0, 5.0144086, 4.9587274 
1.755008e+1, 2.0609057e+2, -920295.0, -1006267.5, -206.17287, -0.004087692, 0.011148865, -920294.5, 24.639618, 0.0, 5.014393, 4.958828 
1.7550461e+1, 2.1104942e+2, -871106.94, -957036.6, -262.75235, 0.00058022403, 0.008382797, -871106.1, 613.67706, 0.0, 5.014365, 4.9588284 
1.7550841e+1, 2.1600828e+2, -822611.44, -909273.3, -319.10602, 0.0051744194, 0.0057740128, -822610.3, 510.1027, 0.0, 5.0143275, 4.9583297 
1.7551132e+1, 2.2096317e+2, -783041.3, -880960.9, -561.30396, 0.009832263, 0.008140424, -783038.1, -8479.403, 0.0, 5.0142655, 4.951145 
1.755119e+1, 2.2591321e+2, -733694.4, -830967.06, -604.0305, 0.014966846, -0.008924668, -733690.6, -7649.1665, 0.0, 5.0141354, 4.95142 
1.7551227e+1, 2.3086317e+2, -684769.75, -781810.25, -557.5384, 0.019976748, -0.027051268, -684766.56, -7241.8594, 0.0, 5.0139832, 4.9514227 
1.7551261e+1, 2.3581313e+2, -636539.7, -734119.3, -507.098, 0.024806727, -0.045196056, -636537.06, -7529.073, 0.0, 5.013814, 4.950924 
1.7550856e+1, 2.4076019e+2, -598012.3, -707724.4, -796.57135, 0.027411902, -0.044014532, -598006.5, -17484.82, 0.0, 5.0135784, 4.943046 
1.7549789e+1, 2.4570543e+2, -548654.4, -657222.75, -575.68854, 0.023330588, -0.029838838, -548651.3, -16591.22, 0.0, 5.0133286, 4.9435024 
1.7548738e+1, 2.5065076e+2, -499925.3, -608094.94, -473.05524, 0.018422887, -0.015775803, -499923.25, -16325.129, 0.0, 5.013054, 4.943508 
1.754766e+1, 2.555962e+2, -451550.03, -559579.6, -384.30807, 0.013160361, -0.0011743394, -451548.7, -16413.098, 0.0, 5.0127335, 4.943316 
1.7547537e+1, 2.6053685e+2, -412115.66, -529859.25, -859.99786, 0.019525548, 0.011530213, -412109.38, -25393.176, 0.0, 5.012164, 4.9365044 
1.7549568e+1, 2.65472e+2, -364215.22, -474665.7, -1798.216, 0.062391777, -0.04123507, -364185.97, -25848.4, 0.0, 5.010298, 4.939022 
1.7551471e+1, 2.7040714e+2, -320693.0, -427271.8, -2262.5444, 0.102544814, -0.10302419, -320644.97, -30687.098, 0.0, 5.007901, 4.939224 
1.7553173e+1, 2.753422e+2, -278242.22, -380476.3, -2448.2026, 0.1370793, -0.16909291, -278183.63, -36604.66, 0.0, 5.00509, 4.9393773 
1.755703e+1, 2.8027707e+2, -258547.83, -396217.06, 8570.7295, 0.123386815, -0.11336486, -258016.31, -64810.64, 0.0, 5.004611, 4.916855 
1.7560095e+1, 2.8520957e+2, -190248.83, -318474.38, 2515.4182, 0.09624443, -0.017486282, -190199.5, -45325.773, 0.0, 5.0081825, 4.9248023 
1.7561348e+1, 2.9013848e+2, -134389.73, -266175.06, 2156.2986, 0.09223517, 0.004897907, -134354.47, -37775.254, 0.0, 5.010431, 4.9247494 
1.7562445e+1, 2.95067e+2, -80197.914, -214665.31, 1773.3833, 0.08189685, 0.022611758, -80174.53, -31885.938, 0.0, 5.0120163, 4.924697 
1.7565563e+1, 3.000076e+2, -21592.111, -114463.7, 5520.069, 0.071585245, 0.041070152, -21265.162, -21265.162, 0.0, 5.0127354, 4.9513497 
1.7576687e+1, 3.0496058e+2, -19554.084, -93509.305, 8462.842, 0.10187304, -0.0765431, -18598.023, -18598.023, 0.0, 5.0098677, 4.958364 
1.7587739e+1, 3.0991673e+2, -30849.842, -93316.516, 11508.828, 0.11954577, -0.22654186, -28796.93, -28796.93, 0.0, 5.0046763, 4.960137 
1.7597982e+1, 3.1487557e+2, -46590.8, -95299.86, 17126.252, 0.11482268, -0.37320155, -41171.992, -41171.992, 0.0, 4.9977083, 4.961912 
2.2564976e+1, 1.215151e+2, -1712042.6, -1750886.8, 350.14233, 0.017887717, -0.010002978, -1712039.5, 37104.64, 0.0, 5.014427, 4.989124 
2.2563498e+1, 1.2650195e+2, -1666830.3, -1709381.0, 383.55, 0.00012608882, -0.0091948835, -1666826.9, 33446.566, 0.0, 5.014387, 4.9866905 
2.2563642e+1, 1.3148817e+2, -1618066.1, -1660506.3, 299.21655, -0.001460373, -0.014569888, -1618064.0, 33344.4, 0.0, 5.0143137, 4.986689 
2.2563785e+1, 1.3647437e+2, -1571510.0, -1616167.4, 214.66092, -0.0030926666, -0.018696047, -1571509.0, 31034.656, 0.0, 5.0142393, 4.9851837 
2.2564039e+1, 1.4145792e+2, -1529531.1, -1581476.9, 194.30002, -0.0038303097, -0.0064251446, -1529530.4, 24175.39, 0.0, 5.0142055, 4.9803815 
2.2564575e+1, 1.46439e+2, -1480123.1, -1531928.4, 173.04407, -0.0021488168, -0.0032123348, -1480122.5, 24771.527, 0.0, 5.0142555, 4.98052 
2.2565125e+1, 1.5142006e+2, -1430913.4, -1482801.0, 142.0305, -0.00035203528, -0.0004974044, -1430912.9, 25169.725, 0.0, 5.014309, 4.9805193 
2.2565672e+1, 1.5640113e+2, -1383133.4, -1436651.3, 110.71582, 0.0014496745, 0.0026684958, -1383133.3, 24138.143, 0.0, 5.014362, 4.9795237 
2.2565962e+1, 1.6137825e+2, -1342463.0, -1405481.0, -326.07187, 0.0027735343, 0.010717869, -1342461.3, 16037.131, 0.0, 5.0144343, 4.973506 
2.256565e+1, 1.6635205e+2, -1293010.5, -1356163.3, -440.58267, 0.002956195, 0.011131383, -1293007.4, 16750.15, 0.0, 5.01454, 4.9735217 
2.2565313e+1, 1.7132586e+2, -1243580.0, -1306894.8, -428.42694, 0.0031152219, 0.011531489, -1243577.1, 17439.438, 0.0, 5.014646, 4.9735217 
2.2564977e+1, 1.7629968e+2, -1195288.0, -1260032.3, -416.28943, 0.0033002591, 0.012317592, -1195285.4, 16990.207, 0.0, 5.014752, 4.9727144 
2.2564706e+1, 1.8126976e+2, -1154927.4, -1229756.3, -98.76572, 0.002568059, 0.019895399, -1154927.3, 8642.976, 0.0, 5.014804, 4.966325 
2.2564566e+1, 1.8623619e+2, -1105743.4, -1180178.1, -19.247555, -0.00032464002, 0.016813805, -1105743.4, 9155.017, 0.0, 5.014723, 4.9664936 
2.2564426e+1, 1.9120261e+2, -1056807.6, -1131107.0, -26.39273, -0.00328434, 0.013380999, -1056807.6, 9418.834, 0.0, 5.014636, 4.966495 
2.2564287e+1, 1.9616902e+2, -1008762.3, -1083950.8, -33.576283, -0.006224184, 0.010248674, -1008762.3, 8792.232, 0.0, 5.014549, 4.965846 
2.2564283e+1, 2.011317e+2, -969527.25, -1055820.0, -185.74191, -0.0071410537, 0.014859398, -969526.8, -607.82355, 0.0, 5.014467, 4.9586997 
2.2564597e+1, 2.060905e+2, -920332.0, -1006396.8, -269.66144, -0.0028633128, 0.012311951, -920331.2, -10.49384, 0.0, 5.014404, 4.95878 
2.2564928e+1, 2.1104929e+2, -871240.25, -957214.75, -288.4565, 0.0017407255, 0.009487956, -871239.25, 483.0963, 0.0, 5.0143423, 4.95878 
2.256526e+1, 2.1600808e+2, -822813.9, -909487.2, -307.52475, 0.0064070104, 0.0067824367, -822812.8, 311.24228, 0.0, 5.0142803, 4.95828 
2.2565515e+1, 2.2096297e+2, -783134.0, -881057.4, -532.02496, 0.011241636, 0.009516037, -783131.1, -8568.244, 0.0, 5.0142417, 4.951126 
2.2565533e+1, 2.2591317e+2, -733356.25, -830815.1, -659.7644, 0.016479451, -0.0059100175, -733351.75, -7307.12, 0.0, 5.014252, 4.951423 
2.2565536e+1, 2.3086329e+2, -683966.25, -781439.9, -709.6936, 0.021789046, -0.022510761, -683961.06, -6434.192, 0.0, 5.014264, 4.951428 
2.2565542e+1, 2.3581338e+2, -635227.0, -733513.5, -760.4084, 0.027142571, -0.03931948, -635221.1, -6211.8696, 0.0, 5.0142756, 4.9509315 
2.2565155e+1, 2.4076037e+2, -595842.75, -706469.25, -1135.1682, 0.0307919, -0.03964474, -595831.06, -15307.142, 0.0, 5.0142856, 4.943164 
2.25641e+1, 2.457053e+2, -546033.7, -655937.0, -1049.826, 0.028740529, -0.029417794, -546023.6, -13958.769, 0.0, 5.0142365, 4.943552 
2.2563057e+1, 2.5065044e+2, -496790.9, -606649.2, -1028.586, 0.026456842, -0.017929044, -496781.28, -13176.839, 0.0, 5.014174, 4.943538 
2.2562006e+1, 2.5559568e+2, -447796.16, -557927.75, -1008.76575, 0.024404788, -0.005038707, -447786.9, -12644.1455, 0.0, 5.0141106, 4.9433265 
2.2561899e+1, 2.6053664e+2, -407405.7, -528908.56, -1780.1688, 0.035375606, 0.01150463, -407379.63, -20658.725, 0.0, 5.014121, 4.9360495 
2.2564073e+1, 2.6547214e+2, -354299.22, -471909.34, -3057.634, 0.08907522, -0.02818751, -354219.78, -15875.713, 0.0, 5.01427, 4.9383464 
2.2566175e+1, 2.7040717e+2, -303508.06, -420790.84, -3938.738, 0.14459765, -0.084113516, -303375.94, -13405.003, 0.0, 5.0144277, 4.9387617 
2.2568089e+1, 2.7534184e+2, -252690.67, -369915.13, -4779.177, 0.19846013, -0.15175979, -252496.16, -10894.633, 0.0, 5.0145826, 4.93913 
2.2572206e+1, 2.802742e+2, -228662.5, -373522.44, 6915.6416, 0.20784776, -0.14294942, -228333.11, -35077.03, 0.0, 5.014436, 4.9206567 
2.2575916e+1, 2.8520584e+2, -175884.73, -309689.72, 4223.784, 0.16895111, -0.06339582, -175751.55, -30825.096, 0.0, 5.0144672, 4.925183 
2.2577871e+1, 2.9013512e+2, -125014.766, -259691.81, 4726.465, 0.14853458, -0.02835669, -124849.09, -28227.875, 0.0, 5.014841, 4.925038 
2.2579698e+1, 2.950632e+2, -74063.734, -209784.67, 5272.9434, 0.12816192, -0.0068511846, -73859.18, -25531.98, 0.0, 5.0152106, 4.9248924 
2.2583446e+1, 3.0000582e+2, -12971.609, -101461.56, 8329.231, 0.118943125, 0.020295091, -12194.436, -12194.436, 0.0, 5.0154624, 4.954685 
2.2595298e+1, 3.0496144e+2, -4204.4297, -77096.75, 7975.2134, 0.18259245, -0.07866057, -3342.0571, -3342.0571, 0.0, 5.0154347, 4.962051 
2.2607327e+1, 3.099214e+2, 472.39734, -64415.324, 5903.1216, 0.25475904, -0.21141197, 1005.05774, 1005.05774, 0.0, 5.015438, 4.96614 
2.2618648e+1, 3.1488773e+2, 5844.0, -52450.95, 4035.453, 0.3230758, -0.33489844, 6122.0273, 6122.0273, 0.0, 5.015435, 4.970235 
2.7579463e+1, 1.2151547e+2, -1711790.8, -1750360.3, 534.0283, 0.01833299, -0.009249242, -1711783.4, 37356.9, 0.0, 5.0144258, 4.9892964 
2.7578017e+1, 1.2650214e+2, -1666999.4, -1709711.6, 323.9492, 0.0013995171, -0.009301049, -1666997.0, 33274.047, 0.0, 5.014386, 4.986581 
2.757811e+1, 1.3148828e+2, -1618234.3, -1660836.3, 241.17812, 0.000021512007, -0.014307521, -1618232.9, 33174.066, 0.0, 5.0143123, 4.9865794 
2.7578196e+1, 1.3647442e+2, -1571677.1, -1616497.0, 158.20235, -0.0014306883, -0.018063001, -1571676.6, 30866.436, 0.0, 5.0142384, 4.985074 
2.757839e+1, 1.4145789e+2, -1529602.0, -1581619.4, 213.07552, -0.002415883, -0.0055750464, -1529601.1, 24104.87, 0.0, 5.014205, 4.9803343 
2.757886e+1, 1.4643894e+2, -1480179.3, -1532043.4, 213.1228, -0.0019086308, -0.002523293, -1480178.4, 24716.566, 0.0, 5.0142555, 4.9804816 
2.757934e+1, 1.5141994e+2, -1430969.0, -1482916.1, 182.71098, -0.0013315562, 0.000013555858, -1430968.4, 25115.82, 0.0, 5.014309, 4.980481 
2.757982e+1, 1.5640093e+2, -1383188.8, -1436766.8, 151.98965, -0.0007587204, 0.003001225, -1383188.3, 24085.273, 0.0, 5.014362, 4.979485 
2.7580097e+1, 1.6137801e+2, -1342453.5, -1405462.5, -252.68419, -0.00026789494, 0.010725881, -1342452.5, 16048.703, 0.0, 5.0144343, 4.973512 
2.75799e+1, 1.6635177e+2, -1292984.0, -1356109.1, -360.11377, 0.000038795908, 0.01055786, -1292981.9, 16778.574, 0.0, 5.01454, 4.9735403 
2.7579686e+1, 1.7132555e+2, -1243554.1, -1306841.1, -346.88013, 0.00034242566, 0.01037512, -1243552.1, 17467.523, 0.0, 5.0146465, 4.9735403 
2.757947e+1, 1.7629932e+2, -1195262.6, -1259979.3, -333.67825, 0.00065134, 0.010580477, -1195260.9, 17017.982, 0.0, 5.0147524, 4.9727325 
2.7579316e+1, 1.8126939e+2, -1154923.8, -1229747.6, -130.1986, 0.000545498, 0.01796134, -1154923.5, 8650.033, 0.0, 5.014804, 4.9663277 
2.7579266e+1, 1.8623589e+2, -1105752.3, -1180195.3, -86.08131, -0.000615458, 0.01574837, -1105752.3, 9148.891, 0.0, 5.014723, 4.966488 
2.7579215e+1, 1.9120239e+2, -1056817.3, -1131124.8, -91.50138, -0.0018317183, 0.013249112, -1056817.1, 9411.43, 0.0, 5.0146356, 4.9664893 
2.7579162e+1, 1.9616891e+2, -1008772.5, -1083969.3, -96.95039, -0.0030534805, 0.011054597, -1008772.4, 8783.551, 0.0, 5.0145483, 4.9658403 
2.7579167e+1, 2.0113163e+2, -969543.5, -1055850.3, -244.01265, -0.0030823657, 0.01621986, -969542.8, -622.69293, 0.0, 5.0144663, 4.9586897 
2.7579287e+1, 2.0609038e+2, -920361.44, -1006456.5, -319.0759, -0.000103318234, 0.013307398, -920360.25, -37.548035, 0.0, 5.0144033, 4.9587603 
2.7579412e+1, 2.1104911e+2, -871270.06, -957275.8, -335.684, 0.003048099, 0.010080032, -871268.75, 456.5685, 0.0, 5.014342, 4.95876 
2.7579537e+1, 2.1600783e+2, -822844.2, -909549.6, -352.56036, 0.0062278025, 0.0069732876, -822842.75, 285.24518, 0.0, 5.01428, 4.9582596 
2.7579612e+1, 2.2096275e+2, -783189.2, -881176.44, -535.45886, 0.009640002, 0.010269378, -783186.25, -8619.156, 0.0, 5.014241, 4.951086 
2.7579534e+1, 2.2591323e+2, -733418.0, -830954.9, -644.1636, 0.013727976, -0.0017744297, -733413.75, -7366.5117, 0.0, 5.0142527, 4.951376 
2.7579448e+1, 2.3086363e+2, -684025.6, -781579.06, -688.0916, 0.017864807, -0.014837559, -684020.8, -6493.0283, 0.0, 5.0142655, 4.9513807 
2.7579358e+1, 2.3581402e+2, -635284.1, -733652.2, -732.8036, 0.021997593, -0.02813599, -635278.6, -6270.1504, 0.0, 5.0142775, 4.950884 
2.757904e+1, 2.4076106e+2, -595729.75, -706168.9, -1094.6674, 0.02566085, -0.028139262, -595718.9, -15195.461, 0.0, 5.0142803, 4.943267 
2.7578282e+1, 2.4570562e+2, -545981.75, -655741.8, -1103.2001, 0.02752076, -0.022601236, -545970.7, -13902.955, 0.0, 5.0142264, 4.9436197 
2.757752e+1, 2.5065035e+2, -496740.5, -606457.6, -1075.9734, 0.029362736, -0.015534306, -496729.94, -13119.501, 0.0, 5.014164, 4.9436054 
2.7576745e+1, 2.555952e+2, -447747.22, -557739.9, -1050.1636, 0.031372078, -0.0070744897, -447737.2, -12585.239, 0.0, 5.0141, 4.9433923 
2.757665e+1, 2.605363e+2, -407969.53, -530005.5, -1753.792, 0.04312479, 0.011224826, -407944.3, -21214.742, 0.0, 5.0141, 4.935691 
2.7578396e+1, 2.6547292e+2, -355413.4, -474053.53, -2784.0864, 0.08679151, -0.0066611213, -355348.13, -16999.717, 0.0, 5.014227, 4.9376655 
2.758009e+1, 2.7040908e+2, -304635.53, -422806.47, -3488.4246, 0.13142875, -0.039619345, -304532.63, -14561.481, 0.0, 5.0143642, 4.9381204 
2.7581587e+1, 2.753449e+2, -253831.67, -371802.84, -4152.0923, 0.17425187, -0.08441634, -253685.72, -12088.489, 0.0, 5.0144997, 4.9385276 
2.758494e+1, 2.8027645e+2, -224229.11, -363062.22, 4009.7288, 0.19170271, -0.09624794, -224113.4, -30848.977, 0.0, 5.0144057, 4.9243584 
2.7588817e+1, 2.85206e+2, -174249.23, -306102.97, 3724.0142, 0.16284098, -0.058103323, -174144.14, -29196.746, 0.0, 5.0145073, 4.926551 
2.7591354e+1, 2.901343e+2, -123361.24, -255994.92, 4418.4033, 0.13850603, -0.039320096, -123214.21, -26572.742, 0.0, 5.0148854, 4.9264345 
2.759376e+1, 2.950615e+2, -72393.055, -205978.17, 5156.456, 0.11403055, -0.03449828, -72194.31, -23847.445, 0.0, 5.01526, 4.926319 
2.7597663e+1, 3.0000615e+2, -9907.651, -94003.86, 7162.1895, 0.10132306, -0.0039915387, -9302.033, -9302.033, 0.0, 5.015473, 4.9574947 
2.760837e+1, 3.049694e+2, -4535.7236, -76303.95, 7634.391, 0.1491413, -0.011181572, -3732.598, -3732.598, 0.0, 5.0152664, 4.9629555 
2.761922e+1, 3.0993676e+2, -403.32086, -63641.996, 6987.212, 0.20145445, -0.037408937, 359.4916, 359.4916, 0.0, 5.01509, 4.967108 
2.762935e+1, 3.1491086e+2, 4430.723, -51695.367, 6541.0474, 0.24946731, -0.0503225, 5182.948, 5182.948, 0.0, 5.0149093, 4.9712667 
3.2593948e+1, 1.2151577e+2, -1711494.6, -1749742.3, 717.6162, 0.018727422, -0.008925073, -1711481.3, 37655.652, 0.0, 5.0144243, 4.9894986 
3.259254e+1, 1.2650234e+2, -1667169.3, -1710041.8, 264.59232, 0.0026629108, -0.009370691, -1667167.6, 33101.0, 0.0, 5.014385, 4.9864717 
3.2592574e+1, 1.314884e+2, -1618403.0, -1661165.8, 183.38373, 0.0014938494, -0.014022049, -1618402.3, 33003.195, 0.0, 5.0143113, 4.98647 
3.2592607e+1, 1.3647446e+2, -1571845.0, -1616825.9, 101.98797, 0.00022222947, -0.017420266, -1571844.8, 30697.664, 0.0, 5.0142374, 4.9849644 
3.2592744e+1, 1.4145787e+2, -1529675.9, -1581767.8, 232.66768, -0.0010112149, -0.0047133574, -1529674.9, 24031.244, 0.0, 5.0142045, 4.980285 
3.2593143e+1, 1.4643885e+2, -1480235.5, -1532158.3, 253.43669, -0.0016748935, -0.0018266938, -1480234.3, 24661.436, 0.0, 5.0142555, 4.9804435 
3.2593554e+1, 1.514198e+2, -1431024.9, -1483031.1, 223.62662, -0.002313803, 0.00052464113, -1431024.0, 25061.752, 0.0, 5.014309, 4.9804425 
3.259397e+1, 1.5640074e+2, -1383244.3, -1436882.0, 193.49866, -0.0029661183, 0.0033266468, -1383243.5, 24032.246, 0.0, 5.0143623, 4.9794464 
3.2594234e+1, 1.6137776e+2, -1342446.6, -1405449.0, -179.14183, -0.003312818, 0.010745224, -1342446.1, 16057.772, 0.0, 5.014435, 4.973517 
3.2594153e+1, 1.6635148e+2, -1292957.9, -1356054.6, -279.58368, -0.002880809, 0.009994112, -1292956.6, 16806.805, 0.0, 5.0145407, 4.9735584 
3.2594058e+1, 1.713252e+2, -1243528.5, -1306787.3, -265.27213, -0.002429035, 0.009218966, -1243527.4, 17495.426, 0.0, 5.0146465, 4.9735584 
3.259397e+1, 1.7629895e+2, -1195237.6, -1259925.9, -251.00589, -0.0019927023, 0.0088340165, -1195236.6, 17045.584, 0.0, 5.0147524, 4.972751 
3.2593927e+1, 1.8126902e+2, -1154923.9, -1229746.1, -161.18292, -0.0014860155, 0.016042598, -1154923.5, 8653.37, 0.0, 5.014804, 4.966328 
3.2593963e+1, 1.8623559e+2, -1105761.8, -1180212.0, -152.81161, -0.0009160077, 0.014688206, -1105761.4, 9142.351, 0.0, 5.0147223, 4.966482 
3.2594e+1, 1.912022e+2, -1056827.3, -1131142.1, -156.50659, -0.00038365796, 0.013098983, -1056827.0, 9403.617, 0.0, 5.014635, 4.9664836 
3.259404e+1, 1.961688e+2, -1008783.2, -1083987.3, -160.22107, 0.00011783148, 0.011818765, -1008782.8, 8774.465, 0.0, 5.014548, 4.965834 
3.259405e+1, 2.0113157e+2, -969570.9, -1055903.5, -301.8308, 0.0009679316, 0.01761721, -969569.8, -648.5974, 0.0, 5.0144653, 4.958672 
3.2593974e+1, 2.0609026e+2, -920391.44, -1006515.6, -368.109, 0.00265549, 0.014351302, -920389.9, -65.20903, 0.0, 5.0144024, 4.95874 
3.2593894e+1, 2.1104892e+2, -871300.5, -957336.4, -382.53006, 0.004367884, 0.010692933, -871298.8, 429.44177, 0.0, 5.014341, 4.9587393 
3.2593814e+1, 2.1600759e+2, -822875.06, -909611.56, -397.2145, 0.0060746027, 0.007157332, -822873.25, 258.6567, 0.0, 5.014279, 4.9582386 
3.2593703e+1, 2.2096252e+2, -783249.9, -881306.4, -537.24066, 0.008014887, 0.010990745, -783246.9, -8675.572, 0.0, 5.014241, 4.9510417 
3.2593533e+1, 2.2591327e+2, -733480.8, -831094.0, -628.2345, 0.010936114, 0.0022170874, -733476.75, -7426.8477, 0.0, 5.0142536, 4.9513273 
3.2593355e+1, 2.3086397e+2, -684086.06, -781717.6, -666.16113, 0.013908701, -0.00743864, -684081.56, -6552.7466, 0.0, 5.0142665, 4.951332 
3.2593173e+1, 2.3581465e+2, -635342.2, -733790.2, -704.8701, 0.016829269, -0.017356988, -635337.1, -6329.249, 0.0, 5.0142794, 4.950835 
3.2592914e+1, 2.4076182e+2, -595673.4, -705991.94, -1061.726, 0.020500071, -0.016227068, -595663.2, -15140.628, 0.0, 5.0142746, 4.9433265 
3.2592452e+1, 2.4570598e+2, -545931.6, -655545.06, -1155.4387, 0.026305381, -0.015061303, -545919.44, -13849.51, 0.0, 5.014217, 4.943687 
3.2591975e+1, 2.5065032e+2, -496691.84, -606264.56, -1122.2255, 0.032317076, -0.012590355, -496680.38, -13064.428, 0.0, 5.014154, 4.943671 
3.2591483e+1, 2.555948e+2, -447700.03, -557550.44, -1090.4263, 0.03843187, -0.008735237, -447689.22, -12528.491, 0.0, 5.0140896, 4.9434576 
3.2591382e+1, 2.605358e+2, -408655.56, -531371.56, -1765.1138, 0.05089513, 0.009827271, -408630.16, -21890.236, 0.0, 5.014079, 4.935217 
3.2592627e+1, 2.6547334e+2, -356535.6, -476201.1, -2566.1367, 0.083905526, 0.009197998, -356480.6, -18124.152, 0.0, 5.0141835, 4.936923 
3.2593846e+1, 2.7041048e+2, -305770.38, -424824.75, -3093.6301, 0.11701534, -0.0052150507, -305690.03, -15713.654, 0.0, 5.014301, 4.9374175 
3.259486e+1, 2.7534738e+2, -254979.48, -373692.47, -3580.4624, 0.14815708, -0.031584196, -254871.6, -13272.337, 0.0, 5.0144167, 4.9378643 
3.2597637e+1, 2.8027913e+2, -222489.5, -358827.3, 1092.3105, 0.17570025, -0.04322395, -222480.75, -29212.016, 0.0, 5.014378, 4.925868 
3.260186e+1, 2.8520733e+2, -172622.72, -302515.0, 3164.1934, 0.15829222, -0.031868376, -172545.69, -27589.14, 0.0, 5.014547, 4.9278646 
3.260497e+1, 2.9013455e+2, -121716.055, -252296.55, 4050.208, 0.12944636, -0.03479355, -121590.55, -24938.734, 0.0, 5.0149302, 4.9277782 
3.260794e+1, 2.9506058e+2, -70730.1, -202169.9, 4979.7354, 0.10027552, -0.052107748, -70541.71, -22183.191, 0.0, 5.0153093, 4.927692 
3.261205e+1, 3.0000532e+2, -8742.468, -90982.54, 5908.925, 0.084769815, -0.032898057, -8320.082, -8320.082, 0.0, 5.0154834, 4.9585915 
3.2621455e+1, 3.0497348e+2, -4877.837, -75515.11, 7180.951, 0.11780619, 0.010993903, -4155.217, -4155.217, 0.0, 5.0150986, 4.9634047 
3.2630864e+1, 3.0994675e+2, -1290.4836, -62873.094, 7958.2896, 0.15051557, 0.049349505, -278.66245, -278.66245, 0.0, 5.014742, 4.96762 
3.263954e+1, 3.1492716e+2, 2999.1802, -50944.965, 8933.92, 0.1784748, 0.10506623, 4440.267, 4440.267, 0.0, 5.014381, 4.9718423 
3.760842e+1, 1.2151603e+2, -1711312.9, -1749111.3, 897.85004, 0.019082077, -0.009029209, -1711291.6, 37842.344, 0.0, 5.014371, 4.9897304 
3.760706e+1, 1.2650253e+2, -1667413.5, -1710407.6, 204.63937, 0.0039224685, -0.009404036, -1667412.6, 32853.664, 0.0, 5.0143595, 4.986362 
3.7607038e+1, 1.3148853e+2, -1618596.6, -1661506.3, 126.8092, 0.002958938, -0.013713531, -1618596.3, 32807.64, 0.0, 5.0143023, 4.9863605 
3.760701e+1, 1.3647449e+2, -1572016.1, -1617155.4, 48.794598, 0.0018673602, -0.01676737, -1572016.1, 30525.781, 0.0, 5.0142355, 4.9848547 
3.760709e+1, 1.4145786e+2, -1529756.4, -1581923.4, 257.4833, 0.00038585172, -0.0038392616, -1529755.1, 23951.205, 0.0, 5.014203, 4.9802337 
3.7607425e+1, 1.4643878e+2, -1480299.1, -1532276.3, 299.47998, -0.0014450473, -0.0011223734, -1480297.4, 24599.188, 0.0, 5.014253, 4.980405 
3.7607774e+1, 1.5141968e+2, -1431098.0, -1483154.1, 271.71655, -0.0032949774, 0.0010353291, -1431096.5, 24990.676, 0.0, 5.014303, 4.980404 
3.7608117e+1, 1.5640056e+2, -1383333.1, -1437013.0, 244.04971, -0.0051665893, 0.0036435463, -1383332.0, 23945.943, 0.0, 5.0143514, 4.979408 
3.7608373e+1, 1.6137752e+2, -1342487.1, -1405462.1, -95.5108, -0.0063540298, 0.010774359, -1342487.0, 16019.65, 0.0, 5.01442, 4.97352 
3.760841e+1, 1.663512e+2, -1292971.6, -1356018.9, -190.76042, -0.0057969578, 0.009439129, -1292971.0, 16795.428, 0.0, 5.0145273, 4.973577 
3.7608436e+1, 1.713249e+2, -1243547.5, -1306754.3, -176.60458, -0.005193791, 0.008062415, -1243547.0, 17479.016, 0.0, 5.0146317, 4.973577 
3.760846e+1, 1.7629859e+2, -1195272.6, -1259900.8, -161.86887, -0.004625399, 0.007077829, -1195272.3, 17013.305, 0.0, 5.014732, 4.9727693 
3.760853e+1, 1.8126865e+2, -1154996.8, -1229784.9, -185.96907, -0.0035194736, 0.014139078, -1154996.4, 8583.826, 0.0, 5.01478, 4.9663258 
3.7608662e+1, 1.8623531e+2, -1105822.3, -1180252.5, -216.65274, -0.0012215879, 0.013633919, -1105821.6, 9084.786, 0.0, 5.014705, 4.966476 
3.760879e+1, 1.9120198e+2, -1056884.3, -1131181.3, -221.77817, 0.0010643387, 0.01293162, -1056883.6, 9349.033, 0.0, 5.014619, 4.966477 
3.7608913e+1, 1.9616868e+2, -1008852.4, -1084032.4, -226.94771, 0.0032963334, 0.012542257, -1008851.7, 8707.011, 0.0, 5.0145273, 4.9658275 
3.7608927e+1, 2.011315e+2, -969678.5, -1056012.4, -364.69714, 0.0050188466, 0.01905222, -969676.94, -754.6036, 0.0, 5.014441, 4.958646 
3.7608662e+1, 2.0609014e+2, -920476.75, -1006600.06, -421.26752, 0.0054212776, 0.015444246, -920474.7, -148.07779, 0.0, 5.014383, 4.9587197 
3.7608376e+1, 2.1104874e+2, -871389.4, -957423.4, -431.15582, 0.0057090335, 0.011327052, -871387.2, 343.99292, 0.0, 5.01432, 4.9587183 
3.7608093e+1, 2.1600734e+2, -822986.8, -909710.25, -439.97134, 0.005959033, 0.007334734, -822984.6, 151.1833, 0.0, 5.0142503, 4.9582176 
3.76078e+1, 2.209623e+2, -783428.7, -881499.75, -533.5255, 0.0063818144, 0.011680227, -783425.8, -8850.207, 0.0, 5.0142016, 4.9509926 
3.760753e+1, 2.2591332e+2, -733700.2, -831304.75, -613.6687, 0.008124884, 0.0060661444, -733696.3, -7643.6294, 0.0, 5.0141997, 4.9512777 
3.7607265e+1, 2.308643e+2, -684402.06, -781972.94, -649.1056, 0.009952431, -0.00030941074, -684397.75, -6867.792, 0.0, 5.0141783, 4.951282 
3.7606993e+1, 2.3581526e+2, -635812.0, -734116.2, -682.51587, 0.0116852345, -0.0069735404, -635807.25, -6799.8345, 0.0, 5.0141363, 4.950785 
3.7606788e+1, 2.4076259e+2, -596268.8, -706212.5, -1045.8245, 0.015376083, -0.0038949342, -596258.8, -15737.565, 0.0, 5.0140595, 4.9433427 
3.7606624e+1, 2.4570641e+2, -546598.56, -655676.56, -1243.7245, 0.025176184, -0.006785023, -546584.4, -14512.819, 0.0, 5.013954, 4.943752 
3.7606433e+1, 2.5065035e+2, -497502.28, -606464.4, -1244.9227, 0.03541996, -0.0090876855, -497488.06, -13867.128, 0.0, 5.0138397, 4.943735 
3.7606227e+1, 2.555944e+2, -448684.22, -557831.75, -1258.807, 0.045706335, -0.0100179, -448669.72, -13500.572, 0.0, 5.013713, 4.9435205 
3.76061e+1, 2.6053512e+2, -411131.28, -533779.75, -2068.243, 0.058879185, 0.0073197386, -411096.4, -24344.428, 0.0, 5.0134654, 4.9346213 
3.7606782e+1, 2.6547334e+2, -362513.38, -480580.34, -3173.0317, 0.080942266, 0.01947751, -362428.16, -24059.842, 0.0, 5.012407, 4.9361067 
3.7607467e+1, 2.7041137e+2, -316651.03, -431277.53, -4356.4443, 0.1023871, 0.019310748, -316485.72, -26498.85, 0.0, 5.0107408, 4.936635 
3.7607947e+1, 2.7534914e+2, -272280.4, -382874.63, -5794.9224, 0.12185646, 0.0071069864, -271977.6, -30369.66, 0.0, 5.0085144, 4.937117 
3.7610352e+1, 2.802822e+2, -245074.16, -370471.03, -5583.2114, 0.16209202, 0.016609019, -244826.06, -51556.535, 0.0, 5.0065446, 4.925185 
3.76151e+1, 2.8520983e+2, -187579.17, -306244.44, -490.44226, 0.15712778, 0.015499619, -187577.14, -42622.633, 0.0, 5.008566, 4.9291368 
3.761876e+1, 2.901357e+2, -131897.03, -253800.86, 1282.0886, 0.122739024, -0.014814652, -131883.55, -35230.633, 0.0, 5.0106616, 4.929075 
3.7622276e+1, 2.9506043e+2, -77894.39, -202238.27, 2883.5002, 0.08798036, -0.059840176, -77827.555, -29464.734, 0.0, 5.012126, 4.9290133 
3.7626648e+1, 3.0000314e+2, -18169.82, -96254.484, 2670.4973, 0.070317246, -0.066513784, -18078.596, -18078.596, 0.0, 5.012287, 4.957942 
3.7634605e+1, 3.0497366e+2, -24205.234, -83187.086, 1786.1729, 0.09052057, -0.0117070805, -24151.193, -24151.193, 0.0, 5.0079474, 4.963303 
3.764233e+1, 3.0995125e+2, -37714.758, -77750.98, -920.20325, 0.10530871, 0.04962311, -37693.62, -37693.62, 0.0, 5.0013185, 4.967553 
3.7649316e+1, 3.1493628e+2, -55705.164, -75184.05, -5077.301, 0.11525649, 0.13202487, -54461.176, -54461.176, 0.0, 4.9928007, 4.9718223 
4.2622527e+1, 1.2151618e+2, -1711295.5, -1748674.9, 969.1216, 0.017009748, -0.009425916, -1711270.4, 37861.227, 0.0, 5.014285, 4.9899154 
4.2621666e+1, 1.2650251e+2, -1667418.0, -1710613.9, 135.95303, 0.006198366, -0.010781357, -1667417.6, 32847.875, 0.0, 5.0144033, 4.986272 
4.2621595e+1, 1.3148852e+2, -1618107.3, -1661466.8, 77.04261, 0.004409532, -0.014188656, -1618107.1, 33296.313, 0.0, 5.01451, 4.9862704 
4.2621517e+1, 1.3647449e+2, -1571007.8, -1616859.5, 18.120527, 0.0026189105, -0.016320497, -1571007.8, 31533.852, 0.0, 5.014617, 4.984765 
4.262156e+1, 1.4145784e+2, -1528397.1, -1581331.9, 235.81288, 0.0006721367, -0.0029568395, -1528396.0, 25310.324, 0.0, 5.014673, 4.980201 
4.262187e+1, 1.4643867e+2, -1479290.5, -1531836.6, 289.83994, -0.0013449764, -0.0008790628, -1479288.9, 25608.605, 0.0, 5.0146027, 4.980382 
4.2622182e+1, 1.5141948e+2, -1430469.9, -1482899.9, 280.75677, -0.0033425891, 0.0006049795, -1430468.4, 25620.605, 0.0, 5.0145254, 4.9803815 
4.2622498e+1, 1.5640026e+2, -1383076.5, -1436938.4, 271.3779, -0.0053284117, 0.0025410198, -1383075.1, 24205.385, 0.0, 5.0144486, 4.979386 
4.2622754e+1, 1.6137718e+2, -1342495.6, -1405461.6, 8.63886, -0.0066693844, 0.009329481, -1342495.6, 16014.031, 0.0, 5.0144157, 4.9735227 
4.2622843e+1, 1.6635092e+2, -1293112.9, -1356068.6, -80.92156, -0.006399196, 0.008444202, -1293112.8, 16656.006, 0.0, 5.0144753, 4.973586 
4.262293e+1, 1.7132466e+2, -1243811.8, -1306861.4, -79.833405, -0.006041882, 0.0075501064, -1243811.8, 17216.09, 0.0, 5.0145373, 4.9735866 
4.2623016e+1, 1.7629841e+2, -1195648.3, -1260059.5, -78.77465, -0.0056709405, 0.0070459857, -1195648.1, 16638.58, 0.0, 5.014599, 4.9727793 
4.262313e+1, 1.8126851e+2, -1155485.6, -1230125.3, -209.5679, -0.0045340033, 0.0145117175, -1155485.0, 8096.1016, 0.0, 5.014635, 4.96628 
4.262327e+1, 1.8623514e+2, -1106201.5, -1180583.9, -351.94632, -0.0016892387, 0.014277216, -1106199.9, 8708.411, 0.0, 5.014606, 4.9664106 
4.26234e+1, 1.9120176e+2, -1057105.5, -1131437.5, -446.2925, 0.0012493802, 0.013838574, -1057102.8, 9132.459, 0.0, 5.0145736, 4.9664116 
4.2623538e+1, 1.9616841e+2, -1008900.9, -1084207.1, -540.586, 0.0042185453, 0.013706842, -1008897.0, 8665.15, 0.0, 5.0145407, 4.965762 
4.2623532e+1, 2.0113121e+2, -969394.44, -1055862.5, -675.48505, 0.006198691, 0.020245757, -969389.2, -462.76422, 0.0, 5.0145335, 4.9586544 
4.2623147e+1, 2.0608981e+2, -919809.5, -1006198.06, -633.2398, 0.0054116216, 0.016006595, -919804.9, 525.82074, 0.0, 5.014594, 4.95876 
4.2622745e+1, 2.1104838e+2, -870359.25, -956846.9, -558.1182, 0.0044913567, 0.011224643, -870355.6, 1379.5524, 0.0, 5.0146575, 4.95876 
4.262234e+1, 2.1600698e+2, -821576.6, -908952.56, -482.49054, 0.0035975892, 0.0065760366, -821573.94, 1565.7168, 0.0, 5.014721, 4.9582605 
4.2621967e+1, 2.2096196e+2, -781856.75, -880870.56, -498.39783, 0.00328159, 0.011019546, -781854.25, -7274.8315, 0.0, 5.01477, 4.9509487 
4.2621765e+1, 2.2591317e+2, -732220.94, -830820.94, -636.32117, 0.005692317, 0.008109932, -732216.8, -6160.5654, 0.0, 5.014758, 4.951189 
4.2621577e+1, 2.3086436e+2, -682913.1, -781471.94, -741.7983, 0.00850728, 0.004740792, -682907.56, -5374.4194, 0.0, 5.01474, 4.951197 
4.2621386e+1, 2.3581555e+2, -634255.94, -733570.9, -846.7299, 0.011431988, 0.001174897, -634248.75, -5238.5986, 0.0, 5.0147214, 4.950704 
4.26213e+1, 2.4076307e+2, -594510.7, -705554.75, -1256.3059, 0.016447872, 0.0070758075, -594496.5, -13973.294, 0.0, 5.014713, 4.943274 
4.2621192e+1, 2.4570665e+2, -544125.4, -654640.06, -1583.4092, 0.02725144, 0.0022066273, -544102.7, -12027.858, 0.0, 5.014836, 4.943718 
4.2621037e+1, 2.5065023e+2, -494292.28, -605142.8, -1657.1526, 0.038538784, -0.0031028013, -494267.53, -10641.119, 0.0, 5.0149746, 4.9436893 
4.2620867e+1, 2.5559393e+2, -444710.47, -556216.44, -1723.9082, 0.04998017, -0.0072616218, -444683.8, -9506.703, 0.0, 5.015108, 4.9434624 
4.2620656e+1, 2.6053417e+2, -406340.28, -532922.1, -2455.0127, 0.06424807, 0.007884924, -406292.7, -19527.697, 0.0, 5.0153127, 4.9341087 
4.262127e+1, 2.6547247e+2, -354719.0, -479212.88, -2393.2866, 0.09096148, 0.026310578, -354673.0, -16286.92, 0.0, 5.0153804, 4.9352927 
4.262206e+1, 2.7041072e+2, -304372.94, -428607.44, -1943.9409, 0.12384525, 0.036428697, -304342.53, -14333.273, 0.0, 5.0153756, 4.9355674 
4.2622793e+1, 2.7534857e+2, -254039.66, -378196.16, -1438.8041, 0.16131559, 0.037283245, -254022.98, -12387.025, 0.0, 5.015348, 4.9357944 
4.262533e+1, 2.8028277e+2, -220789.97, -364681.4, -1109.9811, 0.23305619, 0.08245065, -220781.4, -27491.246, 0.0, 5.015654, 4.923047 
4.2629763e+1, 2.852101e+2, -166256.2, -293475.06, 4842.4614, 0.2207884, 0.06687406, -166072.16, -21101.14, 0.0, 5.014778, 4.9306917 
4.2633107e+1, 2.901346e+2, -120632.76, -246127.6, 5061.4937, 0.16734394, -0.0018268913, -120428.945, -23754.97, 0.0, 5.0133076, 4.9305096 
4.263633e+1, 2.9505825e+2, -74926.98, -198803.23, 5499.097, 0.11918433, -0.079621576, -74683.336, -26298.178, 0.0, 5.0117793, 4.930328 
4.2640063e+1, 2.9999903e+2, -23738.28, -105366.766, 3986.393, 0.09832501, -0.11026471, -23544.063, -23544.063, 0.0, 5.010255, 4.9555435 
4.2645347e+1, 3.0497405e+2, -24995.484, -93704.44, 5856.1133, 0.13635668, -0.0032055362, -24499.938, -24499.938, 0.0, 5.0076966, 4.9594646 
4.265044e+1, 3.099558e+2, -29844.107, -89392.15, 8009.2256, 0.1889642, 0.118632354, -28785.678, -28785.678, 0.0, 5.0047297, 4.9617367 
4.2655206e+1, 3.149413e+2, -34447.406, -85327.68, 9736.177, 0.25754553, 0.24858452, -32647.982, -32647.982, 0.0, 5.0016747, 4.964012 
4.7636268e+1, 1.2151625e+2, -1711075.1, -1748224.4, 1110.5728, 0.011388427, -0.010034998, -1711042.0, 38087.883, 0.0, 5.014285, 4.9900637 
4.7636336e+1, 1.2650232e+2, -1667528.6, -1710836.4, 216.09341, 0.0088117365, -0.01343051, -1667527.5, 32738.77, 0.0, 5.0144033, 4.9861984 
4.7636232e+1, 1.3148838e+2, -1618217.1, -1661688.6, 158.6786, 0.005610298, -0.015408481, -1618216.6, 33187.27, 0.0, 5.01451, 4.986197 
4.7636116e+1, 1.3647445e+2, -1571117.1, -1617080.6, 101.22761, 0.0023865048, -0.016108455, -1571116.9, 31424.791, 0.0, 5.014617, 4.9846916 
4.763614e+1, 1.414578e+2, -1528423.0, -1581383.1, 211.89648, -0.00032023343, -0.0021259196, -1528422.3, 25284.328, 0.0, 5.014673, 4.9801846 
4.7636443e+1, 1.4643851e+2, -1479305.0, -1531865.3, 230.7666, -0.0016246682, -0.0010815222, -1479304.0, 25594.559, 0.0, 5.014602, 4.980373 
4.763676e+1, 1.5141921e+2, -1430484.1, -1482928.6, 222.34622, -0.0028687464, -0.00067927485, -1430483.1, 25607.84, 0.0, 5.0145254, 4.9803724 
4.7637072e+1, 1.5639988e+2, -1383090.5, -1436967.3, 213.64226, -0.004108722, 0.00017409198, -1383089.6, 24193.91, 0.0, 5.0144486, 4.979377 
4.763733e+1, 1.6137676e+2, -1342488.0, -1405447.4, 31.549839, -0.005067235, 0.0065975166, -1342487.9, 16024.952, 0.0, 5.014416, 4.973528 
4.7637427e+1, 1.6635063e+2, -1293106.4, -1356057.1, -34.799023, -0.005345535, 0.0071168174, -1293106.4, 16664.412, 0.0, 5.0144753, 4.9735904 
4.7637516e+1, 1.7132452e+2, -1243805.8, -1306850.5, -32.660065, -0.005596789, 0.0077111376, -1243805.8, 17222.639, 0.0, 5.0145373, 4.9735904 
4.76376e+1, 1.7629842e+2, -1195642.8, -1260049.3, -30.558447, -0.0058498215, 0.008698646, -1195642.8, 16643.281, 0.0, 5.0145993, 4.972783 
4.7637698e+1, 1.8126857e+2, -1155603.0, -1230377.8, -215.80388, -0.0052806186, 0.017076941, -1155602.4, 7977.6772, 0.0, 5.0146356, 4.966195 
4.7637767e+1, 1.8623506e+2, -1106363.0, -1180931.1, -375.9879, -0.002813323, 0.016502805, -1106361.0, 8548.234, 0.0, 5.0146065, 4.966294 
4.7637832e+1, 1.9120154e+2, -1057266.5, -1131784.3, -468.94745, -0.0002586416, 0.01568928, -1057263.5, 8974.988, 0.0, 5.014574, 4.966295 
4.7637898e+1, 1.9616804e+2, -1009061.5, -1084553.3, -561.8506, 0.0023089037, 0.015187463, -1009057.3, 8510.339, 0.0, 5.014541, 4.965645 
4.7637832e+1, 2.011307e+2, -969332.4, -1055728.8, -649.1192, 0.0037452772, 0.021112917, -969327.5, -394.13553, 0.0, 5.0145335, 4.9587 
4.7637406e+1, 2.060893e+2, -919677.5, -1005911.5, -586.1228, 0.0019391859, 0.015993036, -919673.56, 663.2109, 0.0, 5.0145936, 4.958858 
4.763696e+1, 2.110479e+2, -870228.9, -956560.6, -509.02173, -0.00005839161, 0.010358608, -870225.9, 1514.3569, 0.0, 5.014657, 4.9588585 
4.7636512e+1, 2.1600649e+2, -821447.8, -908666.6, -431.41977, -0.0020510107, 0.004855328, -821445.7, 1697.9711, 0.0, 5.01472, 4.9583597 
4.7636163e+1, 2.209615e+2, -781912.9, -880978.75, -483.9191, -0.0026788076, 0.009031487, -781910.5, -7327.5415, 0.0, 5.0147676, 4.950913 
4.7636157e+1, 2.2591282e+2, -732401.06, -831193.1, -638.6856, 0.0017332298, 0.008316039, -732396.9, -6336.1597, 0.0, 5.0147533, 4.9510636 
4.763618e+1, 2.3086415e+2, -683097.7, -781847.0, -739.1197, 0.006662354, 0.0074357213, -683092.2, -5553.5835, 0.0, 5.014734, 4.9510717 
4.76362e+1, 2.3581548e+2, -634445.0, -733948.75, -839.0052, 0.011662574, 0.0064061424, -634437.94, -5421.387, 0.0, 5.0147133, 4.950578 
4.7636238e+1, 2.4076316e+2, -594755.56, -705994.0, -1185.3279, 0.017620414, 0.015429319, -594742.94, -14213.5625, 0.0, 5.0146904, 4.9431386 
4.7635922e+1, 2.4570666e+2, -544267.25, -654855.4, -1482.1896, 0.025274072, 0.010590175, -544247.4, -12167.054, 0.0, 5.014812, 4.943663 
4.7635517e+1, 2.506501e+2, -494412.13, -605330.8, -1546.5051, 0.03298619, 0.00428242, -494390.56, -10758.858, 0.0, 5.014957, 4.943639 
4.7635093e+1, 2.555936e+2, -444808.5, -556377.44, -1603.8362, 0.040801093, -0.0010843889, -444785.44, -9603.042, 0.0, 5.015097, 4.943416 
4.7634646e+1, 2.605335e+2, -406238.38, -532690.6, -2178.904, 0.050862543, 0.011065261, -406200.84, -19427.273, 0.0, 5.015297, 4.9341874 
4.7635025e+1, 2.6547197e+2, -354405.66, -478213.1, -1911.6702, 0.06968181, 0.023905123, -354376.16, -15977.804, 0.0, 5.015301, 4.9356427 
4.763552e+1, 2.704107e+2, -304334.8, -427804.22, -1316.0942, 0.09291553, 0.030930938, -304320.78, -14298.039, 0.0, 5.015229, 4.935894 
4.763591e+1, 2.7534917e+2, -254274.92, -377587.6, -664.73883, 0.11940079, 0.030956315, -254271.34, -12622.044, 0.0, 5.015135, 4.936098 
4.7637948e+1, 2.802857e+2, -222533.19, -371529.75, -1981.3387, 0.18574041, 0.11042372, -222506.84, -29221.986, 0.0, 5.0159936, 4.92063 
4.7641695e+1, 2.852134e+2, -162186.66, -290315.22, 3670.9072, 0.18275677, 0.09819561, -162081.58, -17126.92, 0.0, 5.0154824, 4.931708 
4.7644332e+1, 2.9013678e+2, -116972.68, -242848.8, 4094.3315, 0.1366572, 0.0010794274, -116839.65, -20178.986, 0.0, 5.013878, 4.931615 
4.7646818e+1, 2.9505947e+2, -71676.234, -195404.34, 4736.195, 0.09439627, -0.103824355, -71495.195, -23121.969, 0.0, 5.012215, 4.931522 
4.7649392e+1, 2.9999825e+2, -22589.576, -106493.836, 3299.7556, 0.07440758, -0.15994042, -22460.004, -22460.004, 0.0, 5.010657, 4.955103 
4.765081e+1, 3.049823e+2, -20304.246, -88228.51, 5638.0566, 0.086754724, -0.0012288762, -19839.441, -19839.441, 0.0, 5.008286, 4.9610324 
4.7651348e+1, 3.0997664e+2, -25133.85, -85530.73, 8529.573, 0.10360903, 0.19715863, -23952.37, -23952.37, 0.0, 5.005502, 4.9627924 
4.765135e+1, 3.149742e+2, -29719.424, -83079.98, 10996.978, 0.13051185, 0.40589178, -27541.934, -27541.934, 0.0, 5.0026298, 4.964556 
5.265e+1, 1.2151629e+2, -1710802.6, -1747667.3, 1252.1735, 0.00570215, -0.010808279, -1710760.1, 38368.09, 0.0, 5.014285, 4.9902463 
5.265101e+1, 1.2650214e+2, -1667639.5, -1711058.8, 296.16516, 0.01142605, -0.016022127, -1667637.5, 32629.523, 0.0, 5.014403, 4.986125 
5.265087e+1, 1.3148826e+2, -1618327.5, -1661910.1, 240.24603, 0.0068101855, -0.016592178, -1618326.1, 33078.1, 0.0, 5.01451, 4.986124 
5.265072e+1, 1.3647439e+2, -1571226.9, -1617301.5, 184.26617, 0.0021513982, -0.015881693, -1571226.1, 31315.61, 0.0, 5.0146165, 4.9846187 
5.265072e+1, 1.4145775e+2, -1528453.9, -1581444.0, 187.98439, -0.0013140523, -0.0012769063, -1528453.1, 25253.54, 0.0, 5.0146728, 4.9801645 
5.2651024e+1, 1.4643836e+2, -1479319.8, -1531893.9, 171.84692, -0.0019041117, -0.0012712566, -1479319.1, 25580.47, 0.0, 5.0146017, 4.980364 
5.2651334e+1, 1.5141891e+2, -1430498.5, -1482957.3, 164.08932, -0.0023934774, -0.0019618026, -1430498.0, 25595.033, 0.0, 5.0145254, 4.9803634 
5.265165e+1, 1.5639947e+2, -1383104.6, -1436996.0, 156.0603, -0.0028864283, -0.0022021078, -1383104.1, 24182.396, 0.0, 5.0144486, 4.9793673 
5.265191e+1, 1.6137631e+2, -1342484.4, -1405441.0, 54.987926, -0.003469834, 0.0038828524, -1342484.3, 16031.835, 0.0, 5.0144167, 4.97353 
5.2652013e+1, 1.6635032e+2, -1293100.1, -1356045.4, 11.451222, -0.0042956327, 0.0058044815, -1293100.1, 16672.563, 0.0, 5.014476, 4.973594 
5.2652097e+1, 1.7132439e+2, -1243800.1, -1306839.4, 14.640974, -0.0051516797, 0.007873414, -1243800.1, 17228.943, 0.0, 5.014538, 4.973594 
5.2652186e+1, 1.7629842e+2, -1195637.5, -1260038.8, 17.785458, -0.0060249097, 0.01033875, -1195637.5, 16647.744, 0.0, 5.0145993, 4.972787 
5.2652264e+1, 1.8126865e+2, -1155725.0, -1230639.3, -221.38348, -0.006028697, 0.019660942, -1155724.4, 7854.6655, 0.0, 5.014636, 4.966107 
5.265227e+1, 1.8623498e+2, -1106524.9, -1181278.3, -400.01205, -0.0039381823, 0.018743075, -1106522.8, 8387.636, 0.0, 5.014607, 4.9661765 
5.2652264e+1, 1.9120131e+2, -1057428.0, -1132130.6, -491.58487, -0.0017632169, 0.017534079, -1057424.8, 8817.104, 0.0, 5.014574, 4.966177 
5.265226e+1, 1.9616763e+2, -1009222.56, -1084899.1, -583.09753, 0.00040693028, 0.016641593, -1009218.06, 8355.12, 0.0, 5.014541, 4.9655275 
5.265213e+1, 2.0113018e+2, -969280.4, -1055615.8, -622.7875, 0.0012930332, 0.02202, -969275.9, -335.5593, 0.0, 5.0145335, 4.958739 
5.265167e+1, 2.0608881e+2, -919546.1, -1005624.56, -539.3489, -0.0015333737, 0.016023511, -919542.75, 800.07245, 0.0, 5.014593, 4.9589562 
5.265118e+1, 2.110474e+2, -870099.06, -956274.06, -460.2683, -0.0046057366, 0.009505553, -870096.6, 1648.6504, 0.0, 5.0146565, 4.958957 
5.2650684e+1, 2.16006e+2, -821319.6, -908380.3, -380.69214, -0.0076946816, 0.0031165495, -821317.94, 1829.7314, 0.0, 5.0147195, 4.9584584 
5.265035e+1, 2.2096105e+2, -781974.06, -881096.0, -470.1299, -0.008635504, 0.0070580207, -781971.8, -7385.3438, 0.0, 5.014765, 4.9508734 
5.265055e+1, 2.2591248e+2, -732582.44, -831564.44, -640.0634, -0.0022047535, 0.008470979, -732578.25, -6513.063, 0.0, 5.0147486, 4.9509373 
5.2650774e+1, 2.3086394e+2, -683283.56, -782221.06, -735.45435, 0.0048602857, 0.009970788, -683278.06, -5734.01, 0.0, 5.0147276, 4.9509454 
5.2651e+1, 2.3581539e+2, -634635.3, -734325.7, -830.2934, 0.011957774, 0.011368832, -634628.4, -5605.389, 0.0, 5.0147057, 4.9504514 
5.265115e+1, 2.4076326e+2, -595071.94, -706578.94, -1144.7354, 0.018881667, 0.02413298, -595060.2, -14524.873, 0.0, 5.0146675, 4.942951 
5.2650625e+1, 2.457067e+2, -544416.9, -655063.2, -1390.8447, 0.023364058, 0.019538479, -544399.4, -12313.975, 0.0, 5.0147877, 4.943607 
5.2649987e+1, 2.5065e+2, -494539.72, -605511.4, -1445.7308, 0.027472936, 0.01205564, -494520.88, -10884.191, 0.0, 5.0149393, 4.943587 
5.2649325e+1, 2.5559333e+2, -444914.25, -556530.94, -1493.6359, 0.03163333, 0.005304054, -444894.28, -9706.841, 0.0, 5.015086, 4.9433684 
5.26487e+1, 2.6053274e+2, -406218.38, -532574.1, -1883.3596, 0.037843913, 0.013852474, -406190.28, -19407.527, 0.0, 5.015281, 4.9342074 
5.2648824e+1, 2.6547128e+2, -354130.0, -477181.4, -1404.6569, 0.04988539, 0.018736547, -354113.97, -15701.771, 0.0, 5.0152216, 4.9359593 
5.2648985e+1, 2.704104e+2, -304333.97, -426968.78, -662.85126, 0.06459553, 0.020133847, -304330.38, -14291.775, 0.0, 5.015083, 4.9361877 
5.2649e+1, 2.7534947e+2, -254547.08, -376946.4, 134.7415, 0.081221834, 0.016794227, -254546.92, -12881.173, 0.0, 5.014921, 4.9363685 
5.2650946e+1, 2.8028876e+2, -225806.69, -381844.5, -1773.9802, 0.13927884, 0.14177133, -225786.53, -32509.217, 0.0, 5.016333, 4.916989 
5.2654165e+1, 2.8521734e+2, -158210.92, -287070.0, 2350.3687, 0.14230359, 0.14016727, -158168.06, -13235.796, 0.0, 5.0161877, 4.932691 
5.2655905e+1, 2.9013944e+2, -113405.95, -239484.19, 2977.7153, 0.103273, 0.010971907, -113335.664, -16692.996, 0.0, 5.014448, 4.9326873 
5.2657443e+1, 2.9506102e+2, -68518.414, -191919.16, 3823.365, 0.06663426, -0.124704175, -68400.07, -20042.084, 0.0, 5.0126514, 4.9326835 
5.265892e+1, 2.999971e+2, -22507.922, -109772.57, 2972.4404, 0.048434682, -0.2110942, -22406.791, -22406.791, 0.0, 5.0110593, 4.953814 
5.2657455e+1, 3.049892e+2, -15751.618, -82626.2, 6085.281, 0.04459023, -0.014219001, -15202.3955, -15202.3955, 0.0, 5.0088773, 4.962437 
5.2654487e+1, 3.0999556e+2, -20562.94, -81541.3, 9717.254, 0.0366929, 0.24480376, -19051.883, -19051.883, 0.0, 5.006277, 4.9636846 
5.265077e+1, 3.1500465e+2, -25131.643, -80703.12, 12927.827, 0.032892007, 0.5164273, -22271.402, -22271.402, 0.0, 5.0035877, 4.9649363 
5.7663727e+1, 1.2151631e+2, -1710611.9, -1747070.0, 1389.2183, -0.00003315369, -0.011744336, -1710559.0, 38567.938, 0.0, 5.0142407, 4.9904633 
5.766569e+1, 1.2650195e+2, -1667815.4, -1711312.4, 372.8636, 0.014048099, -0.018553793, -1667812.1, 32455.578, 0.0, 5.0143814, 4.9860516 
5.7665503e+1, 1.3148814e+2, -1618470.5, -1662147.0, 321.49347, 0.008011728, -0.017739207, -1618468.1, 32936.59, 0.0, 5.014499, 4.9860506 
5.766531e+1, 1.3647434e+2, -1571369.3, -1617537.6, 269.44095, 0.0019157239, -0.01564148, -1571367.6, 31174.176, 0.0, 5.0146055, 4.984545 
5.76653e+1, 1.414577e+2, -1528538.3, -1581538.4, 167.67729, -0.0023056644, -0.00041189822, -1528537.8, 25169.09, 0.0, 5.014656, 4.980141 
5.7665604e+1, 1.464382e+2, -1479381.5, -1531945.3, 115.88598, -0.002180442, -0.0014489662, -1479381.3, 25519.508, 0.0, 5.014586, 4.9803543 
5.7665914e+1, 1.5141864e+2, -1430562.8, -1483010.1, 107.82718, -0.0019139319, -0.003241695, -1430562.5, 25532.514, 0.0, 5.0145082, 4.980354 
5.766623e+1, 1.5639907e+2, -1383177.4, -1437053.1, 99.488464, -0.0016577942, -0.004584925, -1383177.1, 24112.379, 0.0, 5.014429, 4.9793577 
5.766649e+1, 1.6137588e+2, -1342547.5, -1405472.9, 79.62577, -0.0018728725, 0.0011888077, -1342547.4, 15972.035, 0.0, 5.0143957, 4.9735293 
5.7666594e+1, 1.6635004e+2, -1293147.0, -1356058.6, 59.240227, -0.003245839, 0.004508537, -1293146.9, 16627.797, 0.0, 5.014458, 4.973598 
5.766669e+1, 1.7132425e+2, -1243848.1, -1306853.6, 64.32027, -0.0047017485, 0.008035933, -1243848.1, 17181.549, 0.0, 5.0145197, 4.973598 
5.766677e+1, 1.7629844e+2, -1195698.3, -1260059.4, 69.496956, -0.0061883526, 0.0119626615, -1195698.3, 16586.303, 0.0, 5.014577, 4.9727907 
5.766683e+1, 1.8126872e+2, -1155924.0, -1230944.1, -220.77669, -0.0067679333, 0.022258425, -1155923.3, 7654.6187, 0.0, 5.0146117, 4.966016 
5.7666767e+1, 1.862349e+2, -1106738.5, -1181649.0, -414.93518, -0.005055385, 0.020994049, -1106736.1, 8175.2236, 0.0, 5.01459, 4.966059 
5.7666695e+1, 1.9120106e+2, -1057634.8, -1132497.8, -501.97968, -0.0032561792, 0.01937007, -1057631.4, 8613.688, 0.0, 5.014559, 4.9660597 
5.7666624e+1, 1.9616723e+2, -1009439.06, -1085270.4, -589.32, -0.0014776146, 0.018067017, -1009434.5, 8144.245, 0.0, 5.014522, 4.9654098 
5.766643e+1, 2.0112969e+2, -969308.3, -1055556.4, -578.9179, -0.0011470335, 0.02296502, -969304.44, -357.212, 0.0, 5.014509, 4.9587703 
5.7665926e+1, 2.060883e+2, -919487.25, -1005371.1, -475.20813, -0.0049970006, 0.016096538, -919484.6, 864.1943, 0.0, 5.014568, 4.959054 
5.766539e+1, 2.110469e+2, -870059.2, -956029.06, -395.09433, -0.009140604, 0.008664707, -870057.4, 1692.8784, 0.0, 5.014625, 4.959055 
5.766486e+1, 2.160055e+2, -821314.94, -908151.06, -315.28787, -0.013319112, 0.0013598023, -821313.8, 1837.8672, 0.0, 5.0146756, 4.9585567 
5.7664543e+1, 2.209606e+2, -782190.56, -881291.9, -444.4728, -0.01457086, 0.0050999406, -782188.56, -7598.611, 0.0, 5.01471, 4.9508305 
5.766493e+1, 2.2591214e+2, -732896.56, -831995.75, -634.9178, -0.006109078, 0.008576226, -732892.5, -6822.861, 0.0, 5.014698, 4.9508104 
5.7665366e+1, 2.3086372e+2, -683610.75, -782659.4, -739.7545, 0.003112858, 0.012349333, -683605.2, -6055.635, 0.0, 5.0146723, 4.9508176 
5.76658e+1, 2.3581529e+2, -635007.06, -734785.4, -851.5824, 0.012333687, 0.0160694, -634999.75, -5970.28, 0.0, 5.0146346, 4.950323 
5.7666034e+1, 2.4076338e+2, -595679.06, -707411.2, -1185.3386, 0.02025423, 0.033196054, -595666.5, -15125.514, 0.0, 5.0145674, 4.9427114 
5.7665306e+1, 2.4570678e+2, -544767.7, -655352.25, -1360.3464, 0.021546712, 0.029061826, -544750.94, -12660.771, 0.0, 5.0146947, 4.9435496 
5.766445e+1, 2.506499e+2, -494881.16, -605777.25, -1397.8071, 0.022031924, 0.020216094, -494863.53, -11222.143, 0.0, 5.0148478, 4.943534 
5.7663566e+1, 2.5559306e+2, -445291.63, -556794.06, -1419.7908, 0.022522675, 0.0118787475, -445273.53, -10081.247, 0.0, 5.01498, 4.9433203 
5.766281e+1, 2.6053196e+2, -406713.0, -532788.6, -1664.6162, 0.025261143, 0.016217638, -406691.03, -19898.395, 0.0, 5.015114, 4.9341607 
5.766267e+1, 2.6547045e+2, -354871.44, -476619.94, -1577.9901, 0.031709965, 0.010908793, -354851.0, -16423.223, 0.0, 5.0147996, 4.9362197 
5.7662463e+1, 2.7040985e+2, -306164.13, -426988.13, -1664.7185, 0.039137628, 0.0043020654, -306141.2, -16083.998, 0.0, 5.014303, 4.9364147 
5.766206e+1, 2.7534932e+2, -257710.97, -377645.7, -2025.5594, 0.047187593, -0.0047638635, -257676.77, -15990.709, 0.0, 5.0136933, 4.9365635 
5.766433e+1, 2.80292e+2, -234293.45, -397256.8, -4559.5933, 0.09420276, 0.1769809, -234165.98, -40897.35, 0.0, 5.0153484, 4.912122 
5.7667184e+1, 2.852218e+2, -156796.25, -284729.78, -2148.6233, 0.09980854, 0.19285811, -156760.17, -11855.181, 0.0, 5.01598, 4.933663 
5.7667816e+1, 2.9014245e+2, -111362.625, -236602.23, -398.63647, 0.06742988, 0.02769321, -111361.35, -14740.361, 0.0, 5.014484, 4.933739 
5.766822e+1, 2.9506284e+2, -66257.18, -188671.38, 1284.2579, 0.036052845, -0.14244281, -66243.7, -17903.53, 0.0, 5.0127835, 4.9338164 
5.766867e+1, 2.9999548e+2, -24129.766, -115564.77, 1654.1144, 0.020535896, -0.26368785, -24099.85, -24099.85, 0.0, 5.0112376, 4.9516373 
5.7665306e+1, 3.049947e+2, -12421.987, -77577.58, 4068.5522, 0.010102924, -0.042106677, -12168.915, -12168.915, 0.0, 5.009101, 4.963579 
5.765989e+1, 3.1001234e+2, -18270.342, -78582.766, 6070.5073, -0.011289646, 0.26074696, -17665.406, -17665.406, 0.0, 5.0063095, 4.964286 
5.7653505e+1, 3.1503204e+2, -24490.521, -80076.03, 7326.336, -0.034437526, 0.5776002, -23541.105, -23541.105, 0.0, 5.0032096, 4.9649944 
6.267787e+1, 1.2151614e+2, -1709365.8, -1746920.3, 973.27405, -0.0034838119, -0.012849759, -1709340.5, 39786.723, 0.0, 5.014754, 4.990259 
6.268046e+1, 1.2650175e+2, -1666904.0, -1710894.0, 183.5339, 0.016405009, -0.019635933, -1666903.3, 33365.594, 0.0, 5.0146904, 4.9860373 
6.2680185e+1, 1.3148797e+2, -1617937.5, -1661919.4, 205.46948, 0.008882366, -0.018590597, -1617936.5, 33469.56, 0.0, 5.0146832, 4.9860353 
6.267991e+1, 1.3647415e+2, -1571180.1, -1617482.5, 226.93602, 0.0014173392, -0.016264983, -1571179.0, 31364.428, 0.0, 5.014676, 4.9845295 
6.2679833e+1, 1.4145751e+2, -1528550.9, -1581578.9, 117.820755, -0.0034684394, -0.000956468, -1528550.6, 25158.063, 0.0, 5.014659, 4.980127 
6.268014e+1, 1.4643797e+2, -1479337.8, -1531964.1, 36.398895, -0.0027714751, -0.0021795956, -1479337.8, 25564.896, 0.0, 5.0146093, 4.9803376 
6.268045e+1, 1.5141839e+2, -1430443.4, -1482992.3, 16.330023, -0.0018782548, -0.0041589537, -1430443.4, 25653.803, 0.0, 5.0145574, 4.9803367 
6.268076e+1, 1.5639877e+2, -1382976.6, -1436996.3, -3.9008718, -0.0009738045, -0.0056838538, -1382976.6, 24315.148, 0.0, 5.014505, 4.9793406 
6.268104e+1, 1.6137557e+2, -1342324.4, -1405406.9, 29.784143, -0.0007545008, 0.00008115883, -1342324.4, 16197.245, 0.0, 5.0144796, 4.973511 
6.2681174e+1, 1.6634975e+2, -1293041.4, -1356050.1, -11.906084, -0.002214985, 0.0037932897, -1293041.4, 16735.355, 0.0, 5.0145025, 4.97358 
6.26813e+1, 1.7132396e+2, -1243854.0, -1306898.6, -47.11046, -0.0037371446, 0.007724849, -1243854.0, 17177.53, 0.0, 5.014526, 4.97358 
6.2681425e+1, 1.7629819e+2, -1195803.5, -1260151.6, -82.51359, -0.0052460944, 0.012050168, -1195803.5, 16482.754, 0.0, 5.0145493, 4.9727726 
6.268149e+1, 1.8126845e+2, -1156103.0, -1231146.0, -393.50555, -0.006081307, 0.022551054, -1156100.9, 7478.916, 0.0, 5.014575, 4.965965 
6.268135e+1, 1.8623456e+2, -1106778.9, -1181810.4, -527.5028, -0.005215195, 0.021019148, -1106775.3, 8139.285, 0.0, 5.0146055, 4.9659967 
6.268119e+1, 1.9120063e+2, -1057496.6, -1132575.1, -546.1335, -0.004242095, 0.019098688, -1057492.8, 8756.761, 0.0, 5.014636, 4.965997 
6.268104e+1, 1.9616671e+2, -1009107.3, -1085257.1, -564.86, -0.0032453737, 0.01749256, -1009103.06, 8481.275, 0.0, 5.014666, 4.965347 
6.268079e+1, 2.011291e+2, -968765.94, -1055217.5, -496.37436, -0.0035050986, 0.022166668, -968763.06, 190.41566, 0.0, 5.0146785, 4.958807 
6.268027e+1, 2.0608778e+2, -919238.6, -1005078.75, -423.15613, -0.0074382764, 0.015294677, -919236.56, 1117.425, 0.0, 5.0146165, 4.959132 
6.267973e+1, 2.1104646e+2, -870173.8, -955908.6, -377.55838, -0.01156373, 0.0078804735, -870172.1, 1582.0627, 0.0, 5.0145473, 4.9591327 
6.2679195e+1, 2.1600516e+2, -821774.25, -908192.44, -331.51468, -0.01565409, 0.00060160644, -821773.0, 1381.4219, 0.0, 5.014478, 4.958634 
6.2678874e+1, 2.2096033e+2, -783019.06, -881711.94, -468.29297, -0.016882624, 0.0046659107, -783016.9, -8424.996, 0.0, 5.014427, 4.9508176 
6.2679225e+1, 2.2591195e+2, -733715.3, -832553.1, -588.77435, -0.008949175, 0.009449398, -733711.8, -7639.6064, 0.0, 5.014445, 4.950737 
6.2679625e+1, 2.3086357e+2, -684284.3, -783165.1, -620.8165, -0.00023717822, 0.014664727, -684280.4, -6727.542, 0.0, 5.014469, 4.950738 
6.268002e+1, 2.358152e+2, -635505.6, -735225.44, -651.9782, 0.008556734, 0.01989079, -635501.4, -6467.8315, 0.0, 5.0144916, 4.9502378 
6.268016e+1, 2.407634e+2, -595718.44, -707510.44, -679.9343, 0.015459112, 0.038917825, -595714.3, -15169.323, 0.0, 5.0145464, 4.942699 
6.2679476e+1, 2.4570677e+2, -543808.1, -654609.2, -407.96228, 0.014259627, 0.0334572, -543806.6, -11713.26, 0.0, 5.0149417, 4.9437084 
6.2678695e+1, 2.506498e+2, -493078.03, -604605.44, -171.38829, 0.012311722, 0.022075156, -493077.78, -9433.427, 0.0, 5.015382, 4.9437065 
6.267788e+1, 2.5559285e+2, -442606.78, -555178.7, 66.64609, 0.010465225, 0.010742911, -442606.75, -7411.481, 0.0, 5.015813, 4.9435067 
6.267728e+1, 2.6053157e+2, -403572.5, -531626.3, 32.097866, 0.011604543, 0.012762026, -403572.47, -16775.76, 0.0, 5.01621, 4.934068 
6.2677133e+1, 2.6547036e+2, -352024.63, -476713.56, -335.74316, 0.017877871, 0.01223224, -352023.72, -13591.4795, 0.0, 5.015906, 4.9357014 
6.2676823e+1, 2.7040994e+2, -303294.78, -427754.94, -534.1198, 0.024559226, 0.0126716355, -303292.5, -13229.12, 0.0, 5.015452, 4.935665 
6.267629e+1, 2.7534938e+2, -254599.4, -378940.47, -651.276, 0.03134448, 0.011903436, -254595.98, -12900.231, 0.0, 5.014961, 4.9355817 
6.267878e+1, 2.802927e+2, -231949.23, -400241.22, 2304.1628, 0.0615883, 0.21885906, -231917.69, -38643.4, 0.0, 5.016675, 4.9102535 
6.268056e+1, 2.852225e+2, -153514.81, -280838.47, 1337.8794, 0.058998477, 0.2302318, -153500.77, -8592.253, 0.0, 5.0164294, 4.9344482 
6.267958e+1, 2.901426e+2, -110808.08, -234580.58, 230.63676, 0.03193607, 0.04492074, -110807.65, -14179.964, 0.0, 5.0140285, 4.934375 
6.2678355e+1, 2.950627e+2, -68037.6, -188302.2, -832.5883, 0.005672816, -0.14056626, -68031.836, -19684.436, 0.0, 5.0115533, 4.934302 
6.2677413e+1, 2.9999453e+2, -28599.152, -120113.87, -1233.6066, -0.008424803, -0.2737045, -28582.525, -28582.525, 0.0, 5.0096393, 4.9506373 
6.267339e+1, 3.049937e+2, -14888.758, -83233.42, -2962.8247, -0.019646185, -0.048607398, -14760.556, -14760.556, 0.0, 5.008315, 4.961721 
6.2667197e+1, 3.1001e+2, -17858.014, -84325.16, -4944.3013, -0.042630713, 0.24498121, -17492.234, -17492.234, 0.0, 5.006602, 4.961882 
6.2659943e+1, 3.15026e+2, -20726.336, -85521.79, -6399.838, -0.07019038, 0.5316359, -20100.273, -20100.273, 0.0, 5.0047855, 4.962044 
6.76924e+1, 1.2151579e+2, -1710224.5, -1748663.6, 499.09406, -0.0059596817, -0.014248959, -1710218.0, 38911.066, 0.0, 5.0147524, 4.989688 
6.769532e+1, 1.2650153e+2, -1666852.8, -1710789.9, 176.44412, 0.018014235, -0.019477732, -1666852.0, 33418.477, 0.0, 5.0146894, 4.9860725 
6.7694914e+1, 1.3148768e+2, -1617885.6, -1661815.4, 199.83511, 0.009251464, -0.019189682, -1617884.8, 33523.586, 0.0, 5.0146832, 4.9860706 
6.7694503e+1, 1.3647383e+2, -1571127.9, -1617378.8, 222.75961, 0.00052317383, -0.01762466, -1571126.9, 31419.635, 0.0, 5.014676, 4.9845643 
6.769434e+1, 1.4145719e+2, -1528559.9, -1581598.3, 87.87996, -0.0050455355, -0.0026955174, -1528559.8, 25152.217, 0.0, 5.014659, 4.980121 
6.769464e+1, 1.4643767e+2, -1479371.6, -1532034.5, -3.3524282, -0.0038715382, -0.003384438, -1479371.6, 25533.77, 0.0, 5.014609, 4.9803147 
6.7694944e+1, 1.5141812e+2, -1430477.1, -1483062.6, -22.62974, -0.0024794198, -0.004790495, -1430477.1, 25622.244, 0.0, 5.014557, 4.980314 
6.769526e+1, 1.5639855e+2, -1383010.3, -1437066.6, -42.060616, -0.0010835696, -0.0057411063, -1383010.3, 24283.143, 0.0, 5.014505, 4.979318 
6.769556e+1, 1.6137531e+2, -1342376.5, -1405516.6, 37.57416, -0.0004074089, 0.0002572485, -1342376.5, 16146.705, 0.0, 5.0144796, 4.9734745 
6.7695755e+1, 1.6634943e+2, -1293100.9, -1356176.5, 5.732894, -0.0014845675, 0.003534507, -1293100.9, 16678.174, 0.0, 5.0145025, 4.9735374 
6.769594e+1, 1.7132357e+2, -1243913.1, -1307024.8, -28.650131, -0.0026404008, 0.007015233, -1243913.1, 17121.498, 0.0, 5.0145264, 4.973538 
6.769613e+1, 1.762977e+2, -1195862.4, -1260277.4, -63.234913, -0.003797592, 0.010890011, -1195862.3, 16427.857, 0.0, 5.0145497, 4.97273 
6.769621e+1, 1.8126789e+2, -1156130.9, -1231207.8, -371.89285, -0.004726991, 0.020960683, -1156129.0, 7455.527, 0.0, 5.0145755, 4.9659443 
6.7695975e+1, 1.8623394e+2, -1106802.9, -1181865.1, -503.1837, -0.00503052, 0.019163549, -1106799.5, 8120.184, 0.0, 5.014606, 4.9659786 
6.769573e+1, 1.9119997e+2, -1057520.6, -1132629.8, -520.4912, -0.0052958196, 0.016998313, -1057517.0, 8738.075, 0.0, 5.0146365, 4.9659786 
6.7695487e+1, 1.96166e+2, -1009131.2, -1085311.8, -537.8977, -0.0055569434, 0.015149018, -1009127.44, 8463.003, 0.0, 5.0146666, 4.9653287 
6.769518e+1, 2.011284e+2, -968710.6, -1055097.4, -519.2442, -0.006520183, 0.019821139, -968707.5, 252.04922, 0.0, 5.0146785, 4.958848 
6.769469e+1, 2.0608722e+2, -919159.25, -1004903.7, -472.46875, -0.009525734, 0.013750655, -919156.7, 1202.0145, 0.0, 5.014616, 4.9591923 
6.769418e+1, 2.1104605e+2, -870095.94, -955733.8, -424.6652, -0.012653072, 0.007202397, -870093.8, 1663.667, 0.0, 5.0145464, 4.959193 
6.769368e+1, 2.1600488e+2, -821697.9, -908017.94, -376.40967, -0.015777005, 0.00079131353, -821696.2, 1460.057, 0.0, 5.014477, 4.9586945 
6.769332e+1, 2.2096016e+2, -783016.5, -881698.6, -468.5799, -0.016876161, 0.005655741, -783014.25, -8421.532, 0.0, 5.0144258, 4.950823 
6.769343e+1, 2.2591183e+2, -733753.2, -832627.56, -547.1759, -0.011604697, 0.011043259, -733750.1, -7676.888, 0.0, 5.014443, 4.950712 
6.7693573e+1, 2.3086348e+2, -684323.06, -783237.7, -573.66364, -0.0058710095, 0.016850105, -684319.75, -6765.535, 0.0, 5.014467, 4.950714 
6.7693704e+1, 2.3581515e+2, -635545.4, -735296.2, -599.2739, -0.00015391152, 0.022670338, -635541.75, -6506.554, 0.0, 5.0144887, 4.9502144 
6.769361e+1, 2.407633e+2, -595435.56, -706825.4, -521.438, 0.0034977107, 0.040815253, -595433.1, -14885.845, 0.0, 5.014538, 4.9429374 
6.7693144e+1, 2.457067e+2, -543399.9, -653601.94, -104.8842, 0.00035124944, 0.03223822, -543399.8, -11304.833, 0.0, 5.014927, 4.9440618 
6.7692655e+1, 2.506498e+2, -492684.3, -603602.75, 140.7672, -0.0033342696, 0.01796609, -492684.13, -9039.372, 0.0, 5.0153623, 4.944061 
6.769213e+1, 2.555929e+2, -442227.5, -554180.4, 387.86313, -0.007019431, 0.0038227786, -442226.16, -7031.7173, 0.0, 5.0157895, 4.943862 
6.769188e+1, 2.6053208e+2, -403379.1, -530836.2, 477.8392, -0.007217154, 0.005919841, -403377.28, -16585.771, 0.0, 5.0161552, 4.934375 
6.769183e+1, 2.654719e+2, -352457.97, -476927.13, 243.22937, -0.00092561793, 0.018083395, -352457.5, -14039.855, 0.0, 5.0157967, 4.9356947 
6.769148e+1, 2.7041256e+2, -303791.56, -427758.63, 151.40205, 0.0037956955, 0.03238882, -303791.4, -13752.443, 0.0, 5.0152993, 4.93573 
6.7690843e+1, 2.7535322e+2, -255160.25, -378734.78, 140.85054, 0.0065981774, 0.04531148, -255160.1, -13499.287, 0.0, 5.014765, 4.9357176 
6.7693186e+1, 2.8029633e+2, -230674.89, -396161.9, 4809.9873, 0.013052867, 0.24135989, -230535.2, -37292.582, 0.0, 5.016532, 4.911749 
6.769349e+1, 2.8522494e+2, -154773.84, -283117.84, 83.791306, 0.0047438103, 0.243459, -154773.8, -9883.298, 0.0, 5.016373, 4.933764 
6.7690676e+1, 2.9014465e+2, -111947.71, -236616.98, -867.6335, -0.011436235, 0.06583865, -111941.67, -15325.857, 0.0, 5.0139923, 4.933739 
6.7687577e+1, 2.9506424e+2, -69058.805, -190096.73, -1774.8209, -0.028853, -0.11335937, -69032.78, -20690.422, 0.0, 5.0115376, 4.933715 
6.768491e+1, 2.9999682e+2, -27051.588, -115042.875, -739.9905, -0.041108154, -0.24322796, -27045.365, -27045.365, 0.0, 5.009519, 4.952597 
6.7680055e+1, 3.049918e+2, -17720.79, -85441.94, -1384.2319, -0.05902789, -0.035884485, -17692.508, -17692.508, 0.0, 5.007796, 4.9615326 
6.767289e+1, 3.1000254e+2, -21559.162, -85719.06, -2916.024, -0.09346137, 0.2406826, -21426.904, -21426.904, 0.0, 5.0057015, 4.9620633 
6.766442e+1, 3.1501383e+2, -25298.371, -86100.484, -3920.756, -0.13926394, 0.51508677, -25046.588, -25046.588, 0.0, 5.0035048, 4.9625945 
7.270693e+1, 1.2151539e+2, -1711028.6, -1750295.0, 26.015446, -0.008332615, -0.015929107, -1711028.6, 38102.742, 0.0, 5.0147514, 4.989153 
7.271018e+1, 1.2650129e+2, -1666801.9, -1710685.3, 169.44463, 0.019630756, -0.019272663, -1666801.3, 33470.8, 0.0, 5.014689, 4.986108 
7.270964e+1, 1.3148743e+2, -1617834.5, -1661711.0, 194.29102, 0.009625672, -0.01975876, -1617833.6, 33577.063, 0.0, 5.014683, 4.9861054 
7.270909e+1, 1.3647352e+2, -1571076.3, -1617274.5, 218.67346, -0.00036806474, -0.018971195, -1571075.3, 31474.297, 0.0, 5.0146756, 4.9845996 
7.2708845e+1, 1.4145686e+2, -1528573.9, -1581627.0, 58.01728, -0.0066232155, -0.004410038, -1528573.8, 25141.547, 0.0, 5.014659, 4.980112 
7.2709143e+1, 1.4643738e+2, -1479405.9, -1532104.8, -43.046185, -0.0049721994, -0.004572074, -1479405.8, 25502.463, 0.0, 5.014609, 4.980292 
7.270945e+1, 1.5141785e+2, -1430511.1, -1483132.9, -61.53192, -0.003080355, -0.00541932, -1430511.1, 25590.508, 0.0, 5.014557, 4.980291 
7.270976e+1, 1.5639831e+2, -1383044.3, -1437136.8, -80.162766, -0.0011922776, -0.0058101327, -1383044.1, 24250.965, 0.0, 5.014505, 4.979295 
7.2710073e+1, 1.6137509e+2, -1342432.1, -1405633.4, 45.86012, -0.000063139014, 0.0004463311, -1342432.0, 16092.633, 0.0, 5.0144796, 4.973436 
7.2710335e+1, 1.6634911e+2, -1293160.8, -1356302.6, 23.407228, -0.00075690314, 0.003290953, -1293160.8, 16620.686, 0.0, 5.014503, 4.9734955 
7.271058e+1, 1.7132315e+2, -1243972.6, -1307150.5, -10.154431, -0.0015450062, 0.0063119917, -1243972.6, 17065.166, 0.0, 5.0145264, 4.9734955 
7.2710824e+1, 1.762972e+2, -1195921.5, -1260403.0, -43.92085, -0.0023490347, 0.009727376, -1195921.5, 16372.663, 0.0, 5.0145497, 4.9726877 
7.271092e+1, 1.812673e+2, -1156162.8, -1231277.4, -349.9479, -0.0033746224, 0.019388355, -1156161.1, 7428.068, 0.0, 5.014576, 4.9659204 
7.271061e+1, 1.8623331e+2, -1106827.3, -1181919.4, -478.83313, -0.004847498, 0.017320042, -1106824.1, 8100.622, 0.0, 5.0146065, 4.96596 
7.2710276e+1, 1.9119929e+2, -1057545.0, -1132684.1, -494.81754, -0.006349806, 0.014892728, -1057541.8, 8718.938, 0.0, 5.014637, 4.96596 
7.270993e+1, 1.9616528e+2, -1009155.6, -1085366.0, -510.90393, -0.007867384, 0.012782961, -1009152.2, 8444.29, 0.0, 5.014667, 4.96531 
7.270957e+1, 2.0112768e+2, -968661.7, -1054989.8, -542.75323, -0.009529535, 0.017504355, -968658.3, 307.2497, 0.0, 5.014678, 4.9588842 
7.270911e+1, 2.0608665e+2, -919080.75, -1004727.8, -522.21893, -0.011604163, 0.012238339, -919077.56, 1285.7911, 0.0, 5.014615, 4.959252 
7.270863e+1, 2.1104562e+2, -870018.94, -955558.3, -472.20963, -0.013730958, 0.006530929, -870016.3, 1744.4636, 0.0, 5.014546, 4.959253 
7.270816e+1, 2.1600461e+2, -821622.3, -907842.7, -421.74243, -0.015886035, 0.000962532, -821620.25, 1537.8895, 0.0, 5.014476, 4.9587545 
7.2707766e+1, 2.2096002e+2, -783024.94, -881704.75, -468.32965, -0.016895944, 0.006686086, -783022.7, -8429.178, 0.0, 5.0144243, 4.9508204 
7.2707635e+1, 2.2591169e+2, -733793.9, -832699.3, -506.52304, -0.014313349, 0.012673684, -733791.3, -7717.0024, 0.0, 5.014441, 4.950687 
7.270752e+1, 2.308634e+2, -684364.75, -783307.56, -527.456, -0.011566161, 0.01902473, -684361.94, -6806.329, 0.0, 5.0144644, 4.95069 
7.270739e+1, 2.358151e+2, -635587.94, -735364.25, -547.5145, -0.008934076, 0.025391815, -635584.94, -6548.046, 0.0, 5.014486, 4.9501905 
7.2707045e+1, 2.4076325e+2, -595177.5, -706170.6, -368.83197, -0.008491456, 0.042817622, -595176.3, -14626.877, 0.0, 5.0145297, 4.9431624 
7.27068e+1, 2.4570666e+2, -543004.5, -652582.25, 195.89021, -0.013556417, 0.031169755, -543004.1, -10907.758, 0.0, 5.014912, 4.944414 
7.2706604e+1, 2.506498e+2, -492303.44, -602587.56, 450.618, -0.018972155, 0.013932834, -492301.6, -8656.528, 0.0, 5.015343, 4.9444146 
7.270636e+1, 2.5559297e+2, -441861.03, -553169.56, 706.7745, -0.024488578, -0.0030962569, -441856.56, -6663.026, 0.0, 5.015766, 4.9442163 
7.270643e+1, 2.6053253e+2, -403268.03, -530118.56, 842.5598, -0.025947953, -0.001025461, -403262.44, -16475.9, 0.0, 5.0161004, 4.93464 
7.2706366e+1, 2.6547337e+2, -352949.2, -477084.63, 718.5767, -0.020433044, 0.02324758, -352945.03, -14541.46, 0.0, 5.015688, 4.935677 
7.270586e+1, 2.7041516e+2, -304346.13, -427706.13, 733.29266, -0.018613422, 0.050738886, -304341.75, -14326.514, 0.0, 5.015147, 4.935784 
7.270499e+1, 2.7535695e+2, -255778.73, -378472.8, 829.34076, -0.020735826, 0.076672055, -255773.13, -14146.354, 0.0, 5.0145693, 4.9358435 
7.270744e+1, 2.8029996e+2, -229834.78, -393010.44, 7205.226, -0.034663845, 0.2646069, -229517.23, -36306.605, 0.0, 5.0163903, 4.9129095 
7.270657e+1, 2.8522748e+2, -156148.78, -285284.03, -1276.5305, -0.04601401, 0.2588485, -156136.16, -11264.551, 0.0, 5.0163174, 4.933065 
7.270197e+1, 2.9014674e+2, -113203.31, -238539.61, -2072.187, -0.05194982, 0.087489516, -113169.06, -16565.273, 0.0, 5.013957, 4.9330893 
7.269704e+1, 2.950658e+2, -70196.05, -191776.9, -2823.401, -0.061157655, -0.086848244, -70130.516, -21792.635, 0.0, 5.011523, 4.933114 
7.2692686e+1, 2.999989e+2, -26156.258, -111067.85, -646.177, -0.070541136, -0.21325946, -26151.34, -26151.34, 0.0, 5.009399, 4.954096 
7.268628e+1, 3.0498955e+2, -20714.639, -87490.68, -321.70016, -0.09777985, -0.026951736, -20713.088, -20713.088, 0.0, 5.0072775, 4.961278 
7.2677225e+1, 3.0999443e+2, -25422.14, -86952.57, -1405.5546, -0.14858475, 0.22619207, -25390.05, -25390.05, 0.0, 5.004803, 4.962178 
7.266662e+1, 3.1500074e+2, -30032.24, -86518.17, -1961.208, -0.21754304, 0.4819334, -29964.229, -29964.229, 0.0, 5.0022264, 4.9630785 
7.7721477e+1, 1.2151497e+2, -1711994.4, -1751919.5, -412.03223, -0.010570514, -0.017890522, -1711990.1, 37143.813, 0.0, 5.014679, 4.988656 
7.7725047e+1, 1.2650108e+2, -1666881.3, -1710645.1, 187.25063, 0.021258008, -0.019021919, -1666880.4, 33393.12, 0.0, 5.0146456, 4.986142 
7.772437e+1, 1.3148716e+2, -1617860.4, -1661644.6, 203.01164, 0.010006281, -0.020297412, -1617859.4, 33553.523, 0.0, 5.014657, 4.9861403 
7.772369e+1, 1.3647322e+2, -1571076.3, -1617195.4, 219.9371, -0.0012511488, -0.020302532, -1571075.3, 31477.303, 0.0, 5.014659, 4.984634 
7.772335e+1, 1.4145654e+2, -1528638.4, -1581687.8, 28.385807, -0.008190658, -0.006097138, -1528638.4, 25080.262, 0.0, 5.0146437, 4.980099 
7.7723646e+1, 1.464371e+2, -1479476.5, -1532192.6, -82.91675, -0.0060635014, -0.005740511, -1479476.4, 25434.654, 0.0, 5.014597, 4.9802685 
7.7723956e+1, 1.5141758e+2, -1430575.6, -1483217.6, -100.622734, -0.0036710724, -0.006044608, -1430575.5, 25528.342, 0.0, 5.0145464, 4.9802675 
7.772426e+1, 1.5639809e+2, -1383106.4, -1437220.4, -118.16409, -0.0012887405, -0.005891514, -1383106.1, 24190.584, 0.0, 5.014495, 4.979272 
7.7724594e+1, 1.6137485e+2, -1342519.1, -1405770.4, 55.082867, 0.00028942394, 0.00064692093, -1342519.1, 16007.096, 0.0, 5.0144706, 4.9733944 
7.7724916e+1, 1.6634879e+2, -1293253.8, -1356444.3, 40.896065, -0.000024349174, 0.0030618252, -1293253.6, 16530.025, 0.0, 5.014492, 4.973453 
7.772522e+1, 1.7132273e+2, -1244083.8, -1307300.6, 7.781142, -0.00044413918, 0.0056144497, -1244083.8, 16957.191, 0.0, 5.014509, 4.973453 
7.7725524e+1, 1.7629671e+2, -1196064.4, -1260568.1, -25.13589, -0.00089158403, 0.008561065, -1196064.4, 16233.749, 0.0, 5.0145216, 4.9726453 
7.7725637e+1, 1.8126674e+2, -1156312.4, -1231408.5, -325.8952, -0.0020129834, 0.017831754, -1156311.0, 7282.887, 0.0, 5.0145373, 4.965894 
7.772524e+1, 1.862327e+2, -1106969.3, -1182028.5, -446.72766, -0.0046561277, 0.015485323, -1106966.6, 7963.368, 0.0, 5.0145664, 4.9659414 
7.772481e+1, 1.9119863e+2, -1057700.1, -1132799.0, -454.8562, -0.0073930915, 0.012777446, -1057697.4, 8568.958, 0.0, 5.014592, 4.965942 
7.772438e+1, 1.9616458e+2, -1009334.94, -1085492.1, -462.50253, -0.010162367, 0.010388501, -1009332.1, 8270.433, 0.0, 5.014614, 4.9652915 
7.772396e+1, 2.0112698e+2, -968792.0, -1054976.5, -542.11334, -0.01251618, 0.015209817, -968788.56, 182.96887, 0.0, 5.0146184, 4.958916 
7.7723527e+1, 2.0608608e+2, -919157.44, -1004624.9, -559.7896, -0.013658459, 0.010753422, -919153.8, 1214.2532, 0.0, 5.0145617, 4.959311 
7.7723086e+1, 2.110452e+2, -870094.6, -955454.4, -520.5055, -0.014779749, 0.0058622174, -870091.5, 1672.57, 0.0, 5.0144925, 4.959312 
7.772264e+1, 2.1600433e+2, -821716.06, -907746.6, -480.26596, -0.015956227, 0.0011098459, -821713.4, 1446.6179, 0.0, 5.014416, 4.9588137 
7.7722204e+1, 2.2095987e+2, -783236.2, -881819.06, -484.76968, -0.01690804, 0.0077468934, -783233.8, -8639.45, 0.0, 5.0143557, 4.9508114 
7.7721834e+1, 2.2591159e+2, -734059.3, -832869.94, -463.11462, -0.017033556, 0.014316108, -734057.1, -7981.8022, 0.0, 5.014361, 4.9506626 
7.772146e+1, 2.3086332e+2, -684707.94, -783511.4, -450.7643, -0.01726266, 0.021136127, -684705.9, -7148.928, 0.0, 5.0143566, 4.9506655 
7.772107e+1, 2.3581503e+2, -636055.06, -735622.25, -432.4242, -0.017694134, 0.027961623, -636053.2, -7014.53, 0.0, 5.0143337, 4.950167 
7.772048e+1, 2.4076319e+2, -595511.75, -705815.1, -141.18396, -0.020385813, 0.04479362, -595511.56, -14959.996, 0.0, 5.014322, 4.9433713 
7.772045e+1, 2.4570662e+2, -543319.56, -651885.1, 488.82672, -0.02732296, 0.030173225, -543317.4, -11219.625, 0.0, 5.0146527, 4.944761 
7.7720535e+1, 2.5064984e+2, -492811.3, -601976.5, 644.11096, -0.03442988, 0.01000563, -492807.53, -9162.236, 0.0, 5.015017, 4.9447613 
7.7720565e+1, 2.5559306e+2, -442611.63, -552666.4, 789.4002, -0.04172236, -0.009826899, -442605.97, -7413.4814, 0.0, 5.015355, 4.944564 
7.772092e+1, 2.6053295e+2, -404788.56, -530202.5, 750.7078, -0.044267632, -0.0077823084, -404784.06, -18002.357, 0.0, 5.0154996, 4.9348564 
7.7720755e+1, 2.6547477e+2, -356519.06, -478580.72, 653.5207, -0.039981704, 0.027521579, -356515.56, -18125.148, 0.0, 5.014503, 4.935642 
7.771999e+1, 2.704175e+2, -310201.38, -429986.97, 904.8338, -0.041481297, 0.06656633, -310194.53, -20201.012, 0.0, 5.013118, 4.935821 
7.7718806e+1, 2.7536032e+2, -264592.88, -381833.13, 1419.1039, -0.048784718, 0.10347397, -264575.7, -22979.62, 0.0, 5.011449, 4.935952 
7.7721626e+1, 2.803033e+2, -240244.03, -395533.6, 10104.499, -0.07908191, 0.2847802, -239589.31, -46407.566, 0.0, 5.0123906, 4.9137573 
7.7719873e+1, 2.852299e+2, -165404.97, -290619.84, -1830.7288, -0.09132735, 0.27381217, -165378.2, -20524.275, 0.0, 5.013497, 4.93237 
7.771353e+1, 2.9014874e+2, -119547.26, -242432.0, -2499.4602, -0.08812905, 0.10874778, -119496.445, -22904.203, 0.0, 5.0121684, 4.932427 
7.770681e+1, 2.9506728e+2, -74954.94, -194822.16, -3319.4558, -0.08998302, -0.060893703, -74863.086, -26529.627, 0.0, 5.01029, 4.932484 
7.770081e+1, 3.000009e+2, -29910.67, -109797.25, -426.3861, -0.095288076, -0.18298833, -29908.395, -29908.395, 0.0, 5.007856, 4.9551506 
7.76922e+1, 3.0498686e+2, -34974.117, -93777.484, 3278.1528, -0.13286346, -0.023176217, -34791.934, -34791.934, 0.0, 5.0026875, 4.9610877 
7.7680403e+1, 3.0998564e+2, -52296.836, -97291.3, 7743.8916, -0.2024074, 0.19701445, -51001.35, -51001.35, 0.0, 4.99552, 4.9624357 
7.7666825e+1, 3.1498677e+2, -73492.65, -102610.33, 15013.653, -0.29614827, 0.4241247, -67138.11, -67138.11, 0.0, 4.986831, 4.963791 
8.2736135e+1, 1.2151491e+2, -1712618.4, -1752016.3, -548.59436, -0.00932282, -0.0181373, -1712610.8, 36524.125, 0.0, 5.014422, 4.988754 
8.2739305e+1, 1.265011e+2, -1667424.9, -1710998.0, 442.89694, 0.018310206, -0.018229388, -1667420.4, 32853.2, 0.0, 5.01448, 4.9861107 
8.273884e+1, 1.314871e+2, -1618148.3, -1661865.3, 373.3851, 0.008577248, -0.019886363, -1618145.0, 33268.508, 0.0, 5.0145755, 4.98611 
8.2738364e+1, 1.364731e+2, -1571083.0, -1617272.3, 303.3576, -0.0010511563, -0.020277847, -1571081.0, 31472.838, 0.0, 5.0146704, 4.9846053 
8.273817e+1, 1.4145637e+2, -1528399.0, -1581639.9, 12.703762, -0.006904628, -0.006281523, -1528399.0, 25321.46, 0.0, 5.0147386, 4.98007 
8.273842e+1, 1.4643688e+2, -1479080.1, -1532067.0, -124.060646, -0.0050124982, -0.0057955678, -1479079.9, 25833.004, 0.0, 5.0147443, 4.9802394 
8.273868e+1, 1.5141737e+2, -1430021.1, -1483014.6, -153.31479, -0.002878659, -0.005965817, -1430020.6, 26084.969, 0.0, 5.0147476, 4.980239 
8.2738936e+1, 1.5639786e+2, -1382390.8, -1436939.1, -182.52881, -0.0007361858, -0.0056821504, -1382390.1, 24908.385, 0.0, 5.0147505, 4.9792433 
8.2739234e+1, 1.6137457e+2, -1341816.9, -1405544.1, -19.358042, 0.000702165, 0.0007405205, -1341816.9, 16711.521, 0.0, 5.014732, 4.973345 
8.273954e+1, 1.6634837e+2, -1292845.6, -1356374.0, -59.157955, 0.00047234911, 0.0025056473, -1292845.6, 16941.385, 0.0, 5.014657, 4.9733977 
8.2739824e+1, 1.7132223e+2, -1243955.3, -1307364.6, -116.01968, 0.00019226078, 0.0043811966, -1243955.1, 17090.17, 0.0, 5.0145793, 4.9733977 
8.274011e+1, 1.7629606e+2, -1196200.0, -1260757.9, -172.80084, -0.00006749484, 0.0066417884, -1196199.5, 16104.033, 0.0, 5.014501, 4.972591 
8.2740206e+1, 1.8126601e+2, -1156579.0, -1231527.5, -445.35812, -0.0011645112, 0.01548224, -1156576.4, 7023.5713, 0.0, 5.0144444, 4.9658976 
8.273977e+1, 1.8623202e+2, -1107304.3, -1182136.9, -514.5621, -0.004269032, 0.0133929895, -1107300.8, 7634.639, 0.0, 5.014441, 4.9659634 
8.2739305e+1, 1.9119799e+2, -1058110.4, -1132940.5, -481.5716, -0.007455567, 0.010977201, -1058107.4, 8163.6763, 0.0, 5.0144405, 4.9659643 
8.273884e+1, 1.96164e+2, -1009808.9, -1085661.0, -448.53152, -0.010638739, 0.008879493, -1009806.25, 7800.286, 0.0, 5.01444, 4.9653144 
8.2738394e+1, 2.0112646e+2, -969399.9, -1055306.3, -558.3688, -0.013162782, 0.01399824, -969396.2, -421.0625, 0.0, 5.0144196, 4.9588957 
8.273795e+1, 2.0608556e+2, -919842.06, -1005058.4, -724.4771, -0.013750694, 0.010054357, -919835.9, 536.3521, 0.0, 5.014349, 4.959261 
8.273751e+1, 2.1104468e+2, -870787.44, -955893.0, -831.08386, -0.014189031, 0.005670503, -870779.3, 989.5791, 0.0, 5.014276, 4.9592614 
8.273707e+1, 2.160038e+2, -822397.94, -908181.56, -937.7425, -0.014600545, 0.0013870904, -822387.7, 777.8751, 0.0, 5.014203, 4.9587626 
8.273658e+1, 2.2095934e+2, -783671.2, -881841.5, -949.5972, -0.015506127, 0.008141793, -783662.0, -9061.901, 0.0, 5.0141625, 4.9508967 
8.2736e+1, 2.259111e+2, -734334.94, -832640.7, -708.35425, -0.017892564, 0.013657639, -734329.9, -8250.134, 0.0, 5.014186, 4.950828 
8.273541e+1, 2.3086284e+2, -684901.25, -783236.0, -489.69705, -0.020367578, 0.019068042, -684898.8, -7338.7134, 0.0, 5.0142093, 4.9508348 
8.273481e+1, 2.3581457e+2, -636118.44, -735281.25, -267.5159, -0.022860654, 0.024207812, -636117.7, -7077.079, 0.0, 5.014232, 4.9503403 
8.273409e+1, 2.4076264e+2, -595455.7, -705206.0, 298.87808, -0.026850324, 0.037685238, -595454.9, -14901.196, 0.0, 5.014205, 4.943643 
8.2734185e+1, 2.4570623e+2, -544751.9, -652253.7, 946.10486, -0.0331307, 0.02283672, -544743.56, -12644.51, 0.0, 5.0140696, 4.9449134 
8.273443e+1, 2.5064978e+2, -495729.03, -603070.4, 1029.3431, -0.03918513, 0.0047319257, -495719.16, -12075.001, 0.0, 5.0139275, 4.944901 
8.273462e+1, 2.5559345e+2, -446952.53, -554452.1, 1105.7633, -0.045147922, -0.011851799, -446941.2, -11753.246, 0.0, 5.0137825, 4.9446907 
8.273501e+1, 2.605341e+2, -409387.8, -531627.25, 893.9047, -0.046899974, -0.005288596, -409381.28, -22611.395, 0.0, 5.01373, 4.935242 
8.273429e+1, 2.6547578e+2, -358025.16, -478785.38, 865.032, -0.04494617, 0.02915016, -358018.97, -19642.97, 0.0, 5.0138326, 4.9360247 
8.2732964e+1, 2.7041763e+2, -307283.13, -428030.0, 1147.1001, -0.046923906, 0.056919336, -307272.22, -17288.639, 0.0, 5.0139365, 4.936344 
8.273125e+1, 2.75359e+2, -256495.19, -377532.44, 1522.093, -0.052231066, 0.07267508, -256476.05, -14879.893, 0.0, 5.014032, 4.9366155 
8.273351e+1, 2.8029856e+2, -232106.36, -381632.66, 11810.963, -0.08177223, 0.18895768, -231179.17, -37966.313, 0.0, 5.014195, 4.917889 
8.2731456e+1, 2.852264e+2, -169104.56, -291607.6, -332.10895, -0.097523026, 0.18944998, -169103.66, -24224.326, 0.0, 5.0138044, 4.9317174 
8.27249e+1, 2.901483e+2, -120998.82, -243158.61, -2512.2598, -0.09307863, 0.07668862, -120947.18, -24351.725, 0.0, 5.0132694, 4.9314804 
8.271797e+1, 2.9506916e+2, -72794.78, -194778.45, -4597.86, -0.089599766, -0.047348134, -72621.73, -24299.979, 0.0, 5.012713, 4.931244 
8.271157e+1, 3.0000642e+2, -17645.793, -96176.25, -3425.4424, -0.08407088, -0.13097163, -17496.662, -17496.662, 0.0, 5.0121284, 4.9580207 
8.270196e+1, 3.0498847e+2, -10192.639, -72371.805, -3836.1143, -0.09623767, -0.019715449, -9956.865, -9956.865, 0.0, 5.0114336, 4.9651823 
8.2689303e+1, 3.099821e+2, -7708.1323, -61984.156, -5535.458, -0.12458034, 0.124659255, -7149.34, -7149.34, 0.0, 5.010712, 4.9687877 
8.267505e+1, 3.1498098e+2, -4592.953, -52235.72, -6723.743, -0.16189155, 0.27328786, -3662.225, -3662.225, 0.0, 5.009967, 4.9723973 
8.7750876e+1, 1.215151e+2, -1711704.3, -1750161.5, -805.5614, -0.0063081854, -0.016879274, -1711687.4, 37447.426, 0.0, 5.014422, 4.9893637 
8.775306e+1, 1.2650129e+2, -1667542.0, -1711243.3, 511.07483, 0.010984938, -0.016875658, -1667536.0, 32736.309, 0.0, 5.0144796, 4.9860315 
8.77531e+1, 1.3148722e+2, -1618263.8, -1662109.6, 443.6741, 0.005409862, -0.018613944, -1618259.4, 33153.62, 0.0, 5.0145755, 4.986031 
8.7753135e+1, 1.364731e+2, -1571197.0, -1617515.9, 375.7361, -0.00009624782, -0.019090576, -1571193.9, 31359.828, 0.0, 5.0146704, 4.984526 
8.775325e+1, 1.4145628e+2, -1528463.5, -1581776.9, 31.942402, -0.0034820456, -0.0052023013, -1528463.5, 25257.334, 0.0, 5.0147386, 4.9800253 
8.775343e+1, 1.4643677e+2, -1479131.4, -1532175.3, -121.247055, -0.0024433783, -0.00490997, -1479131.1, 25782.66, 0.0, 5.0147443, 4.9802036 
8.7753594e+1, 1.514172e+2, -1430072.4, -1483122.4, -149.75583, -0.0012662512, -0.0052795527, -1430071.9, 26035.213, 0.0, 5.0147476, 4.980203 
8.7753755e+1, 1.5639761e+2, -1382441.9, -1437046.4, -178.22472, -0.000087636894, -0.005194453, -1382441.4, 24859.197, 0.0, 5.0147505, 4.9792075 
8.7753975e+1, 1.6137426e+2, -1341901.3, -1405720.0, -63.324562, 0.0006719587, 0.0007842191, -1341901.3, 16629.947, 0.0, 5.0147314, 4.973286 
8.775419e+1, 1.663479e+2, -1292944.5, -1356579.5, -118.09034, 0.0003980265, 0.0016733574, -1292944.3, 16846.908, 0.0, 5.0146565, 4.973329 
8.775439e+1, 1.7132159e+2, -1244054.0, -1307569.1, -173.81859, 0.00007974474, 0.0026710033, -1244053.5, 16997.256, 0.0, 5.0145783, 4.9733295 
8.77546e+1, 1.7629525e+2, -1196298.6, -1260961.5, -229.45578, -0.00023594275, 0.004057168, -1196297.9, 16012.643, 0.0, 5.0145, 4.9725227 
8.7754637e+1, 1.8126513e+2, -1156548.5, -1231464.9, -460.12875, -0.0012983636, 0.0124839535, -1156545.6, 7061.7783, 0.0, 5.0144444, 4.9659185 
8.7754226e+1, 1.8623127e+2, -1107236.1, -1181997.0, -513.8057, -0.0041602915, 0.011192962, -1107232.6, 7708.625, 0.0, 5.014442, 4.9660106 
8.775379e+1, 1.9119738e+2, -1058042.9, -1132800.6, -479.50195, -0.0071141273, 0.00964164, -1058039.8, 8235.332, 0.0, 5.014441, 4.9660115 
8.775335e+1, 1.9616354e+2, -1009741.94, -1085521.0, -445.14804, -0.010081768, 0.00841007, -1009739.3, 7869.6235, 0.0, 5.0144405, 4.965362 
8.7752897e+1, 2.0112604e+2, -969484.06, -1055490.4, -604.1776, -0.012389467, 0.014053632, -969479.8, -502.89795, 0.0, 5.01442, 4.958833 
8.775242e+1, 2.0608504e+2, -920016.56, -1005437.75, -782.64734, -0.012698441, 0.010270927, -920009.4, 366.79855, 0.0, 5.0143495, 4.959132 
8.775193e+1, 2.1104406e+2, -870961.5, -956271.75, -887.2719, -0.012871717, 0.0060956087, -870952.3, 822.90454, 0.0, 5.014276, 4.9591327 
8.775144e+1, 2.1600305e+2, -822571.6, -908559.9, -991.9425, -0.01303843, 0.0020346146, -822560.2, 614.0233, 0.0, 5.0142026, 4.958634 
8.7750876e+1, 2.2095852e+2, -783467.3, -881384.4, -945.75446, -0.014280331, 0.008364716, -783458.2, -8848.404, 0.0, 5.014161, 4.951054 
8.775011e+1, 2.2591032e+2, -733953.3, -831772.06, -674.9967, -0.018827362, 0.011807057, -733948.6, -7862.014, 0.0, 5.014182, 4.9511285 
8.774932e+1, 2.3086214e+2, -684527.94, -782365.6, -449.2963, -0.023638412, 0.015083131, -684525.9, -6962.0327, 0.0, 5.0142035, 4.9511375 
8.774853e+1, 2.3581393e+2, -635753.44, -734408.8, -220.07077, -0.028504068, 0.018098794, -635752.94, -6711.716, 0.0, 5.014224, 4.9506445 
8.774774e+1, 2.4076201e+2, -595001.0, -704058.5, 267.58475, -0.033539426, 0.027872983, -595000.4, -14447.629, 0.0, 5.0141897, 4.9440374 
8.7747884e+1, 2.457059e+2, -544571.56, -651678.75, 818.05524, -0.037507493, 0.013529152, -544565.4, -12468.21, 0.0, 5.014049, 4.945111 
8.7748164e+1, 2.5064984e+2, -495557.4, -602514.44, 910.9536, -0.041180864, -0.0024413802, -495549.66, -11909.036, 0.0, 5.0139055, 4.9450946 
8.7748384e+1, 2.555939e+2, -446789.47, -553915.1, 997.0411, -0.04483263, -0.01676895, -446780.2, -11597.512, 0.0, 5.0137587, 4.9448795 
8.7748474e+1, 2.605353e+2, -408702.63, -529706.5, 928.4883, -0.048165314, -0.0066808383, -408695.5, -21937.99, 0.0, 5.013685, 4.9359517 
8.7746584e+1, 2.6547766e+2, -357365.88, -476460.7, 1288.9917, -0.06401034, 0.033361338, -357351.94, -19003.098, 0.0, 5.0137405, 4.9369516 
8.7744004e+1, 2.7042022e+2, -306662.88, -425406.13, 1793.9987, -0.08600337, 0.065911494, -306635.78, -16694.56, 0.0, 5.013801, 4.9373684 
8.774103e+1, 2.7536234e+2, -255915.19, -374610.44, 2391.8127, -0.11187742, 0.08593007, -255867.02, -14329.226, 0.0, 5.013853, 4.937738 
8.774161e+1, 2.803e+2, -227077.7, -369226.7, 9314.239, -0.14756033, 0.15324402, -226469.98, -33302.156, 0.0, 5.0140886, 4.9223185 
8.773981e+1, 2.8522605e+2, -171362.4, -296595.2, -1320.0043, -0.14594902, 0.1370043, -171348.48, -26486.63, 0.0, 5.0138164, 4.9301414 
8.773428e+1, 2.901482e+2, -123087.68, -247757.25, -3279.5134, -0.1294313, 0.053217612, -123001.47, -26414.117, 0.0, 5.01331, 4.929989 
8.772836e+1, 2.9506925e+2, -74716.43, -198990.56, -5144.153, -0.11464232, -0.043812606, -74503.86, -26179.96, 0.0, 5.0127826, 4.9298368 
8.772245e+1, 3.0000907e+2, -15370.599, -89727.75, -4971.6543, -0.0998413, -0.097001955, -15039.658, -15039.658, 0.0, 5.012103, 4.96047 
8.771206e+1, 3.0498847e+2, -11370.652, -70755.63, -4706.3706, -0.1175255, 0.0080363685, -10999.978, -10999.978, 0.0, 5.0109544, 4.966592 
8.7698627e+1, 3.0997685e+2, -10185.234, -60254.38, -5073.805, -0.15540183, 0.13903563, -9676.25, -9676.25, 0.0, 5.0097857, 4.9704003 
8.768354e+1, 3.149715e+2, -8368.08, -50390.926, -4931.1147, -0.20384656, 0.2831296, -7797.2007, -7797.2007, 0.0, 5.008592, 4.974213 
9.2765635e+1, 1.2151527e+2, -1710741.8, -1748206.1, -1065.2574, -0.0031533756, -0.015887367, -1710711.5, 38423.6, 0.0, 5.0144215, 4.9900064 
9.2766815e+1, 1.2650149e+2, -1667660.3, -1711487.5, 579.45465, 0.003684426, -0.015474494, -1667652.5, 32618.61, 0.0, 5.0144796, 4.9859524 
9.2767364e+1, 1.3148731e+2, -1618380.4, -1662353.0, 514.1651, 0.0022645877, -0.017312575, -1618374.4, 33037.95, 0.0, 5.0145755, 4.9859514 
9.2767906e+1, 1.3647312e+2, -1571312.0, -1617758.6, 448.31665, 0.0008781283, -0.017892843, -1571307.6, 31246.037, 0.0, 5.014671, 4.984447 
9.276834e+1, 1.4145622e+2, -1528533.6, -1581924.3, 51.131756, -0.000053681648, -0.004102269, -1528533.6, 25187.693, 0.0, 5.014739, 4.9799767 
9.276843e+1, 1.4643665e+2, -1479183.0, -1532283.4, -118.59607, 0.00012806723, -0.004008785, -1479182.8, 25732.025, 0.0, 5.0147448, 4.980168 
9.276851e+1, 1.5141702e+2, -1430123.9, -1483229.9, -146.35944, 0.00034800757, -0.004590278, -1430123.5, 25985.172, 0.0, 5.0147476, 4.9801674 
9.276858e+1, 1.5639739e+2, -1382493.4, -1437153.5, -174.08319, 0.00056228833, -0.004716322, -1382492.9, 24809.73, 0.0, 5.0147505, 4.9791718 
9.2768705e+1, 1.6137393e+2, -1341988.9, -1405901.8, -107.187744, 0.00063638925, 0.0008434264, -1341988.6, 16545.295, 0.0, 5.0147314, 4.9732256 
9.276884e+1, 1.6634743e+2, -1293043.6, -1356784.8, -177.32393, 0.00031555365, 0.00085422175, -1293043.1, 16752.156, 0.0, 5.014656, 4.9732604 
9.276897e+1, 1.7132095e+2, -1244153.1, -1307773.4, -231.9187, -0.00004159116, 0.0009600655, -1244152.3, 16904.074, 0.0, 5.014578, 4.9732614 
9.2769086e+1, 1.7629446e+2, -1196397.8, -1261164.8, -286.41193, -0.00041388, 0.0014579048, -1196396.4, 15920.982, 0.0, 5.0144997, 4.9724545 
9.276908e+1, 1.8126427e+2, -1156522.4, -1231411.0, -473.5405, -0.0014425172, 0.00950491, -1156519.4, 7095.475, 0.0, 5.014445, 4.965936 
9.2768687e+1, 1.8623053e+2, -1107168.4, -1181857.0, -513.2943, -0.0040668617, 0.0090091145, -1107164.9, 7782.2114, 0.0, 5.0144424, 4.9660573 
9.276827e+1, 1.9119678e+2, -1057975.8, -1132660.5, -477.67728, -0.006793225, 0.008301826, -1057972.6, 8306.597, 0.0, 5.0144415, 4.9660587 
9.276785e+1, 1.9616304e+2, -1009675.4, -1085380.8, -442.00952, -0.009550562, 0.007915961, -1009672.75, 7938.58, 0.0, 5.0144405, 4.9654093 
9.2767406e+1, 2.0112562e+2, -969580.94, -1055700.9, -650.2126, -0.011614342, 0.01415987, -969576.0, -597.33826, 0.0, 5.01442, 4.9587617 
9.276688e+1, 2.0608452e+2, -920191.56, -1005816.75, -840.9022, -0.01163646, 0.010540979, -920183.3, 196.8344, 0.0, 5.0143495, 4.9590034 
9.276635e+1, 2.1104342e+2, -871136.06, -956650.25, -943.5445, -0.011547071, 0.006537972, -871125.6, 655.82886, 0.0, 5.014276, 4.9590034 
9.2765814e+1, 2.160023e+2, -822745.7, -908937.9, -1046.2269, -0.011471379, 0.0026631712, -822733.0, 449.77957, 0.0, 5.0142026, 4.958504 
9.2765164e+1, 2.2095768e+2, -783269.3, -880938.3, -943.03345, -0.013066603, 0.008600712, -783260.25, -8640.78, 0.0, 5.0141597, 4.9512067 
9.276421e+1, 2.2590956e+2, -733573.0, -830902.75, -645.4537, -0.019802555, 0.009850855, -733568.7, -7475.165, 0.0, 5.0141783, 4.9514275 
9.276323e+1, 2.3086143e+2, -684156.0, -781494.44, -412.71072, -0.026968757, 0.010821896, -684154.25, -6586.555, 0.0, 5.0141973, 4.9514384 
9.276224e+1, 2.3581327e+2, -635389.75, -733535.6, -176.44167, -0.03422611, 0.011542755, -635389.44, -6347.4863, 0.0, 5.014216, 4.9509478 
9.276137e+1, 2.4076143e+2, -594633.7, -703096.7, 237.2871, -0.0403696, 0.018617857, -594633.2, -14081.916, 0.0, 5.0141745, 4.9443665 
9.2761564e+1, 2.4570565e+2, -544396.25, -651099.2, 696.17126, -0.04197688, 0.0051425775, -544391.75, -12297.24, 0.0, 5.014029, 4.9453073 
9.276188e+1, 2.5064993e+2, -495390.75, -601953.9, 798.7286, -0.043180767, -0.008954403, -495384.78, -11748.283, 0.0, 5.013883, 4.9452868 
9.276213e+1, 2.555944e+2, -446631.34, -553373.44, 894.4824, -0.044433072, -0.021286536, -446623.84, -11446.869, 0.0, 5.0137343, 4.945068 
9.2761904e+1, 2.6053628e+2, -408256.0, -528294.75, 876.69025, -0.049328443, -0.008972224, -408249.6, -21502.566, 0.0, 5.01364, 4.936456 
9.2758673e+1, 2.6547912e+2, -356725.7, -474130.3, 1576.2374, -0.08438685, 0.0316225, -356704.53, -18378.56, 0.0, 5.013648, 4.937806 
9.275469e+1, 2.7042222e+2, -306061.03, -422776.0, 2304.1345, -0.12800738, 0.06370339, -306015.56, -16110.83, 0.0, 5.0136657, 4.938321 
9.275028e+1, 2.7536494e+2, -255352.84, -371681.7, 3124.681, -0.17605975, 0.08273607, -255268.98, -13782.172, 0.0, 5.0136743, 4.9387884 
9.27496e+1, 2.803018e+2, -224964.64, -363544.7, 6622.021, -0.2121341, 0.12347725, -224648.94, -31530.082, 0.0, 5.0139837, 4.924384 
9.274851e+1, 2.8522697e+2, -173656.5, -301557.53, -2467.1182, -0.18893088, 0.10683637, -173608.92, -28777.209, 0.0, 5.0138283, 4.928512 
9.2744035e+1, 2.901492e+2, -125212.13, -252329.5, -4205.7266, -0.16178411, 0.04657108, -125073.13, -28504.656, 0.0, 5.013351, 4.9284434 
9.2739123e+1, 2.9507026e+2, -76673.04, -203175.2, -5849.1934, -0.13712963, -0.02890638, -76403.16, -28086.004, 0.0, 5.0128517, 4.9283757 
9.273377e+1, 3.000104e+2, -14955.452, -87536.05, -6801.5527, -0.11227513, -0.068127155, -14323.577, -14323.577, 0.0, 5.0120783, 4.961273 
9.2722076e+1, 3.049844e+2, -12584.447, -69113.664, -5895.6074, -0.1342097, -0.009200906, -11976.122, -11976.122, 0.0, 5.0104766, 4.9675927 
9.2707163e+1, 3.099662e+2, -12698.962, -58497.504, -4932.957, -0.18185006, 0.070227824, -12173.658, -12173.658, 0.0, 5.0088606, 4.971603 
9.269054e+1, 3.1495523e+2, -12182.395, -48516.297, -3461.3489, -0.24165508, 0.17157067, -11855.588, -11855.588, 0.0, 5.0072193, 4.975619 
9.77804e+1, 1.2151539e+2, -1709828.5, -1746202.0, -1328.2102, 0.00016134234, -0.015151941, -1709780.0, 39355.754, 0.0, 5.01439, 4.99068 
9.778058e+1, 1.2650168e+2, -1667837.0, -1711759.6, 643.5848, -0.0035808922, -0.014031263, -1667827.6, 32442.361, 0.0, 5.01446, 4.9858727 
9.7781634e+1, 1.3148741e+2, -1618554.3, -1662623.5, 583.0229, -0.00085314544, -0.015986279, -1618546.5, 32865.13, 0.0, 5.014557, 4.9858723 
9.778268e+1, 1.3647313e+2, -1571494.3, -1618033.1, 522.4776, 0.0018758981, -0.016687678, -1571488.4, 31065.133, 0.0, 5.014649, 4.9843674 
9.778342e+1, 1.4145616e+2, -1528687.9, -1582120.8, 73.273415, 0.003385118, -0.0029838742, -1528687.8, 25034.021, 0.0, 5.014713, 4.979924 
9.778344e+1, 1.4643653e+2, -1479311.9, -1532429.3, -117.39523, 0.0027065706, -0.003093996, -1479311.6, 25604.09, 0.0, 5.014719, 4.9801316 
9.7783417e+1, 1.5141684e+2, -1430256.5, -1483377.0, -148.8652, 0.0019704413, -0.0039000225, -1430256.1, 25853.967, 0.0, 5.0147204, 4.9801316 
9.77834e+1, 1.5639713e+2, -1382636.1, -1437304.8, -180.14471, 0.001223096, -0.004250373, -1382635.5, 24669.064, 0.0, 5.01472, 4.979136 
9.778344e+1, 1.6137362e+2, -1342170.3, -1406133.0, -162.68147, 0.00060629373, 0.00091548223, -1342169.9, 16366.878, 0.0, 5.014701, 4.973163 
9.7783494e+1, 1.6634694e+2, -1293205.3, -1357019.3, -246.42888, 0.00023257997, 0.000047985697, -1293204.3, 16595.137, 0.0, 5.0146346, 4.9731917 
9.778354e+1, 1.7132032e+2, -1244297.0, -1307998.4, -298.2851, -0.00016312936, -0.0007499597, -1244295.6, 16766.322, 0.0, 5.014562, 4.9731927 
9.7783583e+1, 1.7629367e+2, -1196536.1, -1261386.5, -350.61874, -0.0005873, -0.0011530617, -1196534.1, 15790.153, 0.0, 5.0144854, 4.972386 
9.7783524e+1, 1.8126342e+2, -1156543.9, -1231386.4, -491.54596, -0.0015771138, 0.0065482436, -1156540.6, 7081.628, 0.0, 5.0144305, 4.965951 
9.778315e+1, 1.8622978e+2, -1107158.5, -1181743.5, -517.9535, -0.003967005, 0.0068428223, -1107154.9, 7797.9907, 0.0, 5.0144234, 4.9661045 
9.7782755e+1, 1.9119617e+2, -1058003.0, -1132564.3, -479.36594, -0.006463241, 0.0069549335, -1058000.0, 8283.391, 0.0, 5.01441, 4.966106 
9.7782356e+1, 1.9616257e+2, -1009762.3, -1085312.0, -439.96118, -0.009001281, 0.0073877, -1009759.75, 7854.0356, 0.0, 5.0143886, 4.965457 
9.7781914e+1, 2.0112523e+2, -969898.4, -1056035.8, -693.44226, -0.01078269, 0.01430268, -969892.8, -912.35455, 0.0, 5.0143485, 4.958681 
9.778135e+1, 2.0608401e+2, -920574.6, -1006293.3, -893.56793, -0.0105197085, 0.010856759, -920565.3, -181.2755, 0.0, 5.0142775, 4.9588737 
9.778077e+1, 2.1104279e+2, -871532.06, -957132.3, -992.28735, -0.010176584, 0.0069957906, -871520.56, 267.1737, 0.0, 5.0141993, 4.9588737 
9.778019e+1, 2.1600157e+2, -823172.2, -909433.7, -1091.3925, -0.009863007, 0.0032755653, -823158.4, 32.980736, 0.0, 5.0141144, 4.9583745 
9.777946e+1, 2.2095688e+2, -783374.8, -880644.44, -935.52655, -0.011824994, 0.00885405, -783365.8, -8736.7, 0.0, 5.014055, 4.9513535 
9.7778314e+1, 2.2590879e+2, -733558.94, -830206.44, -637.4262, -0.020761404, 0.0077882027, -733554.75, -7454.2603, 0.0, 5.014047, 4.9517236 
9.777713e+1, 2.308607e+2, -684263.25, -780848.7, -426.70068, -0.030270929, 0.0062743854, -684261.3, -6689.716, 0.0, 5.0140243, 4.9517365 
9.777593e+1, 2.3581262e+2, -635663.7, -732960.7, -216.34164, -0.039894488, 0.004516867, -635663.2, -6620.2974, 0.0, 5.013984, 4.951247 
9.7774976e+1, 2.407609e+2, -595191.4, -702716.25, 84.92633, -0.04715449, 0.009893257, -595191.3, -14641.878, 0.0, 5.0138645, 4.944627 
9.777523e+1, 2.4570544e+2, -545314.1, -651026.94, 392.36035, -0.04629478, -0.0023125992, -545312.7, -13221.453, 0.0, 5.0136247, 4.9454994 
9.777557e+1, 2.5065008e+2, -496603.66, -602029.75, 438.13406, -0.044862933, -0.014773711, -496601.84, -12969.968, 0.0, 5.013375, 4.945474 
9.7775865e+1, 2.555949e+2, -448169.7, -553609.8, 476.8581, -0.043528523, -0.02536622, -448167.53, -12996.546, 0.0, 5.013111, 4.945251 
9.77753e+1, 2.6053706e+2, -410631.5, -528620.75, 269.69855, -0.049707286, -0.012124298, -410630.88, -23892.184, 0.0, 5.012684, 4.9367366 
9.777062e+1, 2.654801e+2, -362712.5, -474910.4, 667.3054, -0.1042869, 0.023991253, -362708.53, -24400.521, 0.0, 5.011209, 4.9385433 
9.7765124e+1, 2.7042347e+2, -318164.44, -426023.97, 701.57263, -0.16948919, 0.05033189, -318159.88, -28284.564, 0.0, 5.008997, 4.939139 
9.7759193e+1, 2.7536654e+2, -275386.5, -378179.6, 525.76404, -0.239199, 0.0630697, -275383.8, -33938.48, 0.0, 5.006111, 4.9396873 
9.775774e+1, 2.8030375e+2, -253073.77, -376805.22, -511.31558, -0.26809928, 0.09948821, -253071.66, -60002.79, 0.0, 5.004063, 4.9240675 
9.7757757e+1, 2.852289e+2, -196341.78, -315428.44, -7290.5713, -0.220709, 0.09862543, -195897.11, -51105.504, 0.0, 5.0064783, 4.9268513 
9.7754294e+1, 2.901511e+2, -140992.81, -262842.22, -8124.458, -0.18603481, 0.056385137, -140453.48, -43912.395, 0.0, 5.0084476, 4.9268517 
9.775039e+1, 2.9507196e+2, -87766.4, -211333.44, -9112.105, -0.1540988, -0.0029021115, -87098.07, -38794.668, 0.0, 5.009609, 4.9268527 
9.7745633e+1, 3.0001032e+2, -24312.748, -93256.05, -11358.837, -0.118771255, -0.044321198, -22489.523, -22489.523, 0.0, 5.0091715, 4.9603357 
9.773217e+1, 3.0497608e+2, -31306.854, -75547.04, -12049.119, -0.14144301, -0.07107594, -28238.064, -28238.064, 0.0, 5.0036287, 4.9679723 
9.771514e+1, 3.0994964e+2, -48815.92, -71876.81, -13073.697, -0.1951841, -0.08218926, -42914.42, -42914.42, 0.0, 4.9956737, 4.9721313 
9.7696406e+1, 3.149312e+2, -71145.76, -71121.35, -14446.889, -0.26143542, -0.06360944, -56686.66, -56686.66, 0.0, 4.985733, 4.9763017 
1.0279519e+2, 1.2151549e+2, -1709395.9, -1745661.0, -1291.362, 0.0037560347, -0.013415365, -1709350.0, 39785.98, 0.0, 5.0144596, 4.990825 
1.0279445e+2, 1.2650144e+2, -1667500.6, -1711637.9, 495.5299, -0.009935637, -0.01558766, -1667495.1, 32777.57, 0.0, 5.0145783, 4.985856 
1.02795914e+2, 1.3148725e+2, -1618399.5, -1662591.1, 521.2949, -0.0038249048, -0.01672215, -1618393.4, 33019.94, 0.0, 5.0146146, 4.9858556 
1.0279737e+2, 1.3647303e+2, -1571508.6, -1618083.5, 546.468, 0.002323429, -0.016611937, -1571502.3, 31051.934, 0.0, 5.0146503, 4.9843507 
1.02798365e+2, 1.4145607e+2, -1528928.6, -1582419.3, 99.76195, 0.005921799, -0.0023499448, -1528928.4, 24793.65, 0.0, 5.0146704, 4.9798465 
1.0279831e+2, 1.4643632e+2, -1479634.1, -1532789.9, -169.7714, 0.004651455, -0.0025574593, -1479633.6, 25283.598, 0.0, 5.014654, 4.9800434 
1.02798216e+2, 1.5141656e+2, -1430634.9, -1483763.8, -273.28238, 0.0032732321, -0.0035024951, -1430633.5, 25479.313, 0.0, 5.014636, 4.9800434 
1.0279813e+2, 1.5639675e+2, -1383064.1, -1437714.3, -377.11368, 0.0019053515, -0.004001082, -1383061.6, 24246.97, 0.0, 5.014618, 4.9790483 
1.0279812e+2, 1.6137311e+2, -1342528.0, -1406428.1, -410.3687, 0.000909201, 0.0009190076, -1342525.4, 16016.398, 0.0, 5.0146065, 4.973109 
1.02798164e+2, 1.6634636e+2, -1293336.5, -1357185.5, -473.76987, 0.0007154356, -0.00037754542, -1293333.0, 16472.146, 0.0, 5.0146127, 4.973146 
1.027982e+2, 1.7131962e+2, -1244194.1, -1308054.1, -499.0936, 0.00058197544, -0.001617156, -1244190.3, 16878.053, 0.0, 5.01462, 4.973146 
1.02798246e+2, 1.7629291e+2, -1196188.5, -1261327.3, -524.44604, 0.0004806736, -0.002469566, -1196184.3, 16147.166, 0.0, 5.014626, 4.9723387 
1.02798186e+2, 1.8126258e+2, -1155997.5, -1231055.3, -648.9926, -0.00011579113, 0.0049142167, -1155991.9, 7637.694, 0.0, 5.0146027, 4.965981 
1.02797806e+2, 1.8622902e+2, -1106844.1, -1181469.5, -680.05237, -0.0019999319, 0.005176374, -1106837.9, 8121.391, 0.0, 5.014505, 4.966158 
1.0279741e+2, 1.9119544e+2, -1057942.1, -1132409.6, -644.7973, -0.0038974367, 0.005233583, -1057936.5, 8352.377, 0.0, 5.0144043, 4.9661603 
1.0279701e+2, 1.9616188e+2, -1009930.44, -1085264.8, -609.13586, -0.0057466677, 0.005578291, -1009925.5, 7692.956, 0.0, 5.0143027, 4.965512 
1.0279654e+2, 2.0112458e+2, -970341.94, -1056322.4, -848.1273, -0.007115921, 0.012564517, -970333.56, -1348.8882, 0.0, 5.014209, 4.9586473 
1.0279584e+2, 2.0608336e+2, -921058.1, -1006689.25, -967.5059, -0.0075205173, 0.009815706, -921047.2, -658.23663, 0.0, 5.014141, 4.958801 
1.0279511e+2, 2.1104214e+2, -871976.44, -957512.06, -986.9469, -0.007866431, 0.0066868966, -871965.06, -171.68005, 0.0, 5.0140758, 4.9588 
1.0279439e+2, 2.1600091e+2, -823560.06, -909789.5, -1005.96906, -0.008186558, 0.0036868406, -823548.3, -350.56363, 0.0, 5.01401, 4.9582996 
1.0279355e+2, 2.2095619e+2, -783527.06, -880474.94, -773.2335, -0.010585046, 0.009142525, -783520.94, -8885.07, 0.0, 5.0139456, 4.9514627 
1.0279236e+2, 2.2590801e+2, -733856.6, -829916.44, -561.5454, -0.019419236, 0.005272887, -733853.4, -7746.8696, 0.0, 5.0138454, 4.9519176 
1.02791145e+2, 2.3085982e+2, -684799.06, -780680.06, -451.08865, -0.028594324, 0.00073191937, -684796.94, -7220.0264, 0.0, 5.0137386, 4.9519267 
1.02789916e+2, 2.3581162e+2, -636390.25, -732890.2, -338.25067, -0.03768264, -0.0040841117, -636389.06, -7341.591, 0.0, 5.013631, 4.951434 
1.0278896e+2, 2.4075997e+2, -596371.7, -703396.44, -306.97275, -0.043859284, 0.00083695573, -596370.75, -15818.332, 0.0, 5.013444, 4.9445944 
1.0278901e+2, 2.4570505e+2, -547117.2, -652281.25, -507.6848, -0.04093769, -0.004753279, -547114.75, -15023.831, 0.0, 5.0130243, 4.945351 
1.0278912e+2, 2.5065023e+2, -498916.16, -603523.44, -840.4386, -0.037135735, -0.010563488, -498909.4, -15280.724, 0.0, 5.012583, 4.945324 
1.0278919e+2, 2.555955e+2, -450955.84, -555325.06, -1171.0062, -0.03312746, -0.01485894, -450942.72, -15777.451, 0.0, 5.012137, 4.9450984 
1.02788255e+2, 2.605376e+2, -412781.53, -529410.25, -1651.3481, -0.036446583, -0.00089762703, -412758.16, -26024.56, 0.0, 5.011745, 4.9369044 
1.027831e+2, 2.6547918e+2, -361882.84, -473662.72, -97.54218, -0.08438999, 0.013598641, -361882.78, -23574.47, 0.0, 5.0110536, 4.939115 
1.027773e+2, 2.7042076e+2, -313492.16, -423840.03, 1640.3018, -0.13490127, 0.0161592, -313467.78, -23584.559, 0.0, 5.01026, 4.939457 
1.02771275e+2, 2.7536172e+2, -265066.56, -374230.1, 3495.477, -0.18192007, 0.005333474, -264954.75, -23490.984, 0.0, 5.009447, 4.9397516 
1.02769814e+2, 2.8029817e+2, -240132.84, -374448.88, 2930.6255, -0.17061123, 0.04176675, -240068.94, -46980.996, 0.0, 5.009031, 4.922551 
1.02770425e+2, 2.8522575e+2, -187051.31, -312190.4, -899.28424, -0.1315018, 0.069944605, -187044.84, -42248.797, 0.0, 5.0097036, 4.9262223 
1.0276776e+2, 2.9015e+2, -135310.67, -261974.05, -2302.6755, -0.11976279, 0.049701437, -135268.83, -38733.125, 0.0, 5.0103984, 4.9260364 
1.0276477e+2, 2.9507297e+2, -83501.37, -211850.73, -3408.2568, -0.10286419, 0.014648041, -83410.93, -35123.086, 0.0, 5.011037, 4.925851 
1.0276076e+2, 3.0001086e+2, -18592.863, -97768.91, -6443.601, -0.06798403, -0.018317215, -18071.89, -18071.89, 0.0, 5.01167, 4.957527 
1.0274674e+2, 3.0497104e+2, -9596.472, -73787.55, -5488.1484, -0.057811078, -0.0950118, -9130.632, -9130.632, 0.0, 5.0115056, 4.9650683 
1.02729484e+2, 3.099372e+2, -7245.555, -64640.92, -3857.5674, -0.055322103, -0.17135711, -6987.447, -6987.447, 0.0, 5.011018, 4.967993 
1.0271109e+2, 3.1490856e+2, -4542.944, -55846.28, -2560.5579, -0.042296287, -0.23258291, -4415.463, -4415.463, 0.0, 5.0104513, 4.970922 
1.07809976e+2, 1.2151551e+2, -1709798.6, -1746474.3, -655.5082, 0.0068239, -0.011018797, -1709787.0, 39349.11, 0.0, 5.0144587, 4.990558 
1.0780845e+2, 1.2650083e+2, -1667443.3, -1711519.6, 519.40283, -0.01590131, -0.019636288, -1667437.1, 32841.688, 0.0, 5.014578, 4.985895 
1.0781023e+2, 1.3148683e+2, -1618342.5, -1662474.8, 547.12616, -0.0069056163, -0.019163407, -1618335.8, 33081.258, 0.0, 5.0146146, 4.985894 
1.07811995e+2, 1.364728e+2, -1571452.1, -1617968.9, 574.25037, 0.0020962022, -0.01744046, -1571445.0, 31110.457, 0.0, 5.0146503, 4.984389 
1.0781319e+2, 1.4145595e+2, -1529071.6, -1582714.4, 95.14348, 0.0074561723, -0.0020582594, -1529071.4, 24650.822, 0.0, 5.0146704, 4.9797487 
1.0781309e+2, 1.4643608e+2, -1479823.9, -1533183.0, -182.89685, 0.005833796, -0.002285102, -1479823.3, 25095.885, 0.0, 5.014654, 4.979913 
1.0781293e+2, 1.5141615e+2, -1430823.1, -1484155.5, -285.73398, 0.004041101, -0.003292613, -1430821.6, 25294.916, 0.0, 5.014636, 4.979913 
1.07812785e+2, 1.5639623e+2, -1383251.0, -1438105.0, -388.88828, 0.0022522756, -0.0038526221, -1383248.3, 24065.81, 0.0, 5.014618, 4.978918 
1.07812755e+2, 1.6137248e+2, -1342599.1, -1406579.4, -409.76407, 0.0011237074, 0.00095798966, -1342596.5, 15952.151, 0.0, 5.014607, 4.9730587 
1.0781286e+2, 1.6634569e+2, -1293376.9, -1357272.9, -467.96143, 0.0014334797, -0.00044315288, -1293373.4, 16438.805, 0.0, 5.014613, 4.973117 
1.0781295e+2, 1.7131892e+2, -1244234.6, -1308141.3, -492.20425, 0.001808774, -0.0017728173, -1244230.9, 16844.625, 0.0, 5.01462, 4.973117 
1.0781305e+2, 1.7629215e+2, -1196229.1, -1261414.1, -516.47644, 0.0021988377, -0.0027109853, -1196225.0, 16113.638, 0.0, 5.014626, 4.9723096 
1.07813016e+2, 1.8126181e+2, -1155944.3, -1230942.1, -706.3125, 0.0021301596, 0.0043781134, -1155937.5, 7699.238, 0.0, 5.0146027, 4.9660196 
1.0781262e+2, 1.8622822e+2, -1106773.1, -1181315.9, -756.2663, 0.00094953144, 0.0039182594, -1106765.4, 8200.848, 0.0, 5.0145044, 4.966211 
1.07812196e+2, 1.9119461e+2, -1057873.6, -1132257.3, -719.1294, -0.0002557607, 0.0032579154, -1057866.8, 8428.938, 0.0, 5.014403, 4.9662127 
1.07811764e+2, 1.9616105e+2, -1009864.5, -1085113.6, -681.575, -0.0014372029, 0.0028998055, -1009858.3, 7766.623, 0.0, 5.014301, 4.9655643 
1.0781121e+2, 2.0112373e+2, -970341.06, -1056320.6, -911.41534, -0.0026672718, 0.009601545, -970331.4, -1340.5021, 0.0, 5.014209, 4.958648 
1.0781031e+2, 2.060826e+2, -921085.56, -1006752.6, -1020.4835, -0.004312651, 0.0078268275, -921073.4, -678.6793, 0.0, 5.0141416, 4.95878 
1.07809395e+2, 2.1104147e+2, -872004.6, -957575.06, -1037.6333, -0.0059981933, 0.0057630204, -871992.06, -193.48265, 0.0, 5.0140758, 4.9587793 
1.0780847e+2, 2.1600032e+2, -823589.1, -909852.1, -1054.3591, -0.00768109, 0.0038305575, -823576.2, -373.74393, 0.0, 5.0140095, 4.958279 
1.07807495e+2, 2.2095563e+2, -783399.56, -880179.94, -832.9758, -0.010689519, 0.009327018, -783392.4, -8752.107, 0.0, 5.013943, 4.951565 
1.0780639e+2, 2.2590728e+2, -733680.5, -829494.3, -630.68695, -0.01783985, 0.0023979982, -733676.4, -7565.084, 0.0, 5.0138397, 4.9520645 
1.0780527e+2, 2.3085894e+2, -684633.56, -780261.4, -514.20844, -0.025215356, -0.0053529204, -684630.8, -7048.696, 0.0, 5.0137296, 4.9520745 
1.0780413e+2, 2.3581058e+2, -636235.3, -732474.8, -395.33728, -0.032542706, -0.0133235995, -636233.75, -7180.673, 0.0, 5.013619, 4.951583 
1.0780317e+2, 2.40759e+2, -596741.5, -704023.25, -521.96967, -0.03733541, -0.007682423, -596738.94, -16182.369, 0.0, 5.01341, 4.944394 
1.07802756e+2, 2.457048e+2, -547665.9, -653305.44, -854.59155, -0.034575257, -0.003040695, -547658.94, -15568.798, 0.0, 5.0129876, 4.9450145 
1.0780233e+2, 2.5065067e+2, -499432.66, -604523.06, -1178.0995, -0.031181274, 0.0015608104, -499419.44, -15796.216, 0.0, 5.012556, 4.9449887 
1.0780186e+2, 2.5559667e+2, -451440.38, -556300.44, -1499.4023, -0.027655123, 0.0074731773, -451418.94, -16263.673, 0.0, 5.0121193, 4.9447646 
1.0780036e+2, 2.605387e+2, -411901.06, -527318.56, -1950.161, -0.032302056, 0.021944607, -411868.13, -25144.139, 0.0, 5.0117197, 4.9376316 
1.0779471e+2, 2.6547855e+2, -359831.63, -468326.3, -235.20905, -0.08374042, -0.000690117, -359831.1, -21525.643, 0.0, 5.010928, 4.940998 
1.07788436e+2, 2.7041858e+2, -311829.63, -418635.28, 1698.6898, -0.13881698, -0.036564786, -311802.6, -21917.957, 0.0, 5.0100274, 4.9413533 
1.0778188e+2, 2.7535823e+2, -263791.38, -369154.75, 3749.891, -0.1915029, -0.08319329, -263658.06, -22190.695, 0.0, 5.009108, 4.9416614 
1.07779816e+2, 2.802958e+2, -241367.22, -380275.88, 1301.3744, -0.17433529, -0.03847162, -241355.03, -48281.863, 0.0, 5.009392, 4.920513 
1.07781366e+2, 2.852267e+2, -184472.97, -313518.5, -743.1516, -0.12345929, 0.034245614, -184468.69, -39713.594, 0.0, 5.0105486, 4.925663 
1.0778003e+2, 2.9015353e+2, -133198.02, -263036.56, -1882.4991, -0.10860578, 0.039174855, -133170.72, -36691.664, 0.0, 5.0110803, 4.9256105 
1.0777831e+2, 2.9507926e+2, -81853.336, -212647.42, -2724.1062, -0.089971036, 0.030416235, -81796.625, -33582.94, 0.0, 5.011555, 4.9255586 
1.0777547e+2, 3.0001757e+2, -18324.71, -100830.81, -5821.4556, -0.05387312, 0.009087595, -17915.986, -17915.986, 0.0, 5.012091, 4.9564013 
1.0776192e+2, 3.0497912e+2, -5889.0938, -69616.91, -4305.4443, -0.046808477, -0.08219055, -5599.534, -5599.534, 0.0, 5.0120044, 4.9662976 
1.07744806e+2, 3.0994856e+2, -3830.4412, -62173.695, -1756.2535, -0.05366507, -0.16434446, -3777.622, -3777.622, 0.0, 5.011608, 4.968723 
1.0772637e+2, 3.149229e+2, -1420.7069, -55079.1, 459.43134, -0.055066325, -0.22667873, -1416.7734, -1416.7734, 0.0, 5.0111327, 4.971153 
1.12824745e+2, 1.2151551e+2, -1710152.9, -1747187.1, -17.937813, 0.009768353, -0.008842804, -1710152.9, 38983.668, 0.0, 5.0144577, 4.990324 
1.12822436e+2, 1.2650022e+2, -1667386.6, -1711400.5, 543.79224, -0.021891525, -0.023634555, -1667379.9, 32904.914, 0.0, 5.0145774, 4.9859343 
1.1282453e+2, 1.3148642e+2, -1618286.4, -1662357.5, 573.4739, -0.010004121, -0.021574639, -1618279.0, 33141.7, 0.0, 5.014614, 4.985933 
1.1282663e+2, 1.364726e+2, -1571396.5, -1617853.5, 602.54913, 0.0018579311, -0.018259296, -1571388.6, 31168.113, 0.0, 5.0146503, 4.984427 
1.1282801e+2, 1.4145583e+2, -1529218.8, -1583017.4, 90.66487, 0.008991584, -0.0017495161, -1529218.6, 24503.795, 0.0, 5.0146704, 4.9796486 
1.1282787e+2, 1.4643584e+2, -1480013.9, -1533576.0, -195.94293, 0.0070173354, -0.002000647, -1480013.1, 24907.88, 0.0, 5.014654, 4.979783 
1.1282765e+2, 1.5141577e+2, -1431011.8, -1484547.1, -298.10617, 0.0048082317, -0.0030820372, -1431010.0, 25110.232, 0.0, 5.0146365, 4.9797826 
1.1282744e+2, 1.563957e+2, -1383438.3, -1438495.4, -400.58337, 0.002596524, -0.003714873, -1383435.3, 23884.365, 0.0, 5.0146184, 4.9787874 
1.1282738e+2, 1.6137184e+2, -1342674.1, -1406737.9, -409.1378, 0.0013419987, 0.0010099784, -1342671.5, 15884.082, 0.0, 5.014607, 4.973006 
1.1282755e+2, 1.6634502e+2, -1293417.5, -1357359.9, -462.3073, 0.0021556485, -0.0004969957, -1293414.1, 16405.063, 0.0, 5.014613, 4.973088 
1.128277e+2, 1.713182e+2, -1244275.5, -1308228.0, -485.46924, 0.0030380248, -0.0019283928, -1244271.8, 16810.8, 0.0, 5.01462, 4.973088 
1.1282786e+2, 1.7629139e+2, -1196270.3, -1261500.8, -508.66116, 0.0039177816, -0.0029639974, -1196266.3, 16079.719, 0.0, 5.014626, 4.9722805 
1.1282786e+2, 1.8126102e+2, -1155895.0, -1230836.6, -763.27734, 0.0043750154, 0.0038636082, -1155887.3, 7756.8257, 0.0, 5.014602, 4.9660554 
1.1282743e+2, 1.862274e+2, -1106702.8, -1181161.9, -832.69824, 0.0039022984, 0.002669086, -1106693.4, 8279.897, 0.0, 5.0145035, 4.966263 
1.1282697e+2, 1.9119379e+2, -1057805.8, -1132104.6, -793.6797, 0.0033957295, 0.0012610247, -1057797.3, 8505.1, 0.0, 5.0144014, 4.966265 
1.1282652e+2, 1.9616018e+2, -1009799.1, -1084962.1, -754.2324, 0.0028885873, 0.00016993424, -1009791.56, 7839.894, 0.0, 5.014299, 4.9656167 
1.12825885e+2, 2.011229e+2, -970357.4, -1056355.3, -972.0792, 0.0017713789, 0.0066897254, -970346.4, -1349.3112, 0.0, 5.0142083, 4.9586368 
1.1282479e+2, 2.0608184e+2, -921113.44, -1006815.6, -1073.8605, -0.001122802, 0.005899797, -921100.0, -699.5984, 0.0, 5.014142, 4.9587584 
1.1282367e+2, 2.1104078e+2, -872033.4, -957637.7, -1088.7191, -0.0041440935, 0.00486051, -872019.56, -215.75018, 0.0, 5.0140758, 4.958758 
1.1282255e+2, 2.1599972e+2, -823618.7, -909914.4, -1103.1484, -0.007185881, 0.0039551593, -823604.56, -397.37808, 0.0, 5.014009, 4.958258 
1.1282145e+2, 2.2095507e+2, -783275.94, -879891.94, -893.10254, -0.010801873, 0.009525403, -783267.7, -8623.042, 0.0, 5.0139413, 4.9516635 
1.1282041e+2, 2.2590655e+2, -733505.7, -829071.3, -700.62573, -0.016257051, -0.00055091083, -733500.56, -7384.4863, 0.0, 5.013834, 4.9522104 
1.1281937e+2, 2.3085803e+2, -684469.4, -779841.8, -578.1264, -0.021818241, -0.011650198, -684465.9, -6878.511, 0.0, 5.013721, 4.9522214 
1.1281833e+2, 2.358095e+2, -636081.7, -732058.5, -453.22302, -0.027369887, -0.02291394, -636079.56, -7020.8584, 0.0, 5.0136075, 4.9517303 
1.1281735e+2, 2.4075809e+2, -597189.6, -704811.44, -773.30133, -0.030784208, -0.01576747, -597184.06, -16623.727, 0.0, 5.0133758, 4.944136 
1.1281646e+2, 2.457046e+2, -548222.06, -654322.56, -1207.3503, -0.028186599, -0.0005953747, -548208.4, -16119.517, 0.0, 5.0129514, 4.9446764 
1.1281553e+2, 2.5065118e+2, -499956.7, -605515.6, -1521.6082, -0.025191199, 0.014223862, -499934.75, -16317.439, 0.0, 5.012529, 4.9446526 
1.12814546e+2, 2.5559786e+2, -451932.44, -557268.75, -1833.6421, -0.022137798, 0.030150037, -451900.53, -16755.607, 0.0, 5.0121017, 4.94443 
1.1281253e+2, 2.6053965e+2, -411156.03, -525472.5, -2256.3496, -0.027561009, 0.04399544, -411111.5, -24395.838, 0.0, 5.011694, 4.938248 
1.12806335e+2, 2.6547763e+2, -357815.13, -462969.34, -403.5767, -0.081532344, -0.019749586, -357813.56, -19507.873, 0.0, 5.0108023, 4.9428263 
1.1279946e+2, 2.7041596e+2, -310201.06, -413409.13, 1726.1178, -0.1403377, -0.09812857, -310172.2, -20281.787, 0.0, 5.009795, 4.943195 
1.1279227e+2, 2.7535415e+2, -262549.4, -364057.06, 3973.1018, -0.19785435, -0.1846291, -262394.13, -20917.586, 0.0, 5.0087686, 4.9435163 
1.1279021e+2, 2.8029364e+2, -245076.48, -391733.88, 943.27844, -0.17672019, -0.11384991, -245070.42, -52014.844, 0.0, 5.0097523, 4.916494 
1.12793036e+2, 2.8522864e+2, -181983.36, -314763.25, -822.6471, -0.1167479, 0.015357044, -181978.27, -37273.02, 0.0, 5.011394, 4.9250517 
1.12792775e+2, 2.901578e+2, -131173.42, -264015.34, -1697.5785, -0.09944808, 0.040020745, -131151.73, -34736.31, 0.0, 5.0117617, 4.925133 
1.127921e+2, 2.9508606e+2, -80292.734, -213359.95, -2274.8757, -0.079746015, 0.052118648, -80253.86, -32119.463, 0.0, 5.0120735, 4.9252143 
1.1279046e+2, 3.0002376e+2, -19296.47, -106467.27, -4910.4424, -0.041390385, 0.034798473, -19020.732, -19020.732, 0.0, 5.012512, 4.9542627 
1.1277828e+2, 3.0498546e+2, -2308.8777, -65332.727, -2475.6582, -0.026866212, -0.09058223, -2211.7803, -2211.7803, 0.0, 5.012503, 4.9672995 
1.1276229e+2, 3.0995736e+2, -543.18054, -59594.367, 993.757, -0.030969009, -0.20127904, -526.4616, -526.4616, 0.0, 5.0121984, 4.9692245 
1.127448e+2, 3.1493384e+2, 1572.5009, -54201.684, 4130.764, -0.03471738, -0.28744286, 1876.7748, 1876.7748, 0.0, 5.011814, 4.971154 
1.1783949e+2, 1.21515475e+2, -1710628.4, -1747884.1, 598.4405, 0.012595585, -0.006885731, -1710618.8, 38518.434, 0.0, 5.0144005, 4.9901223 
1.17836416e+2, 1.2649961e+2, -1667437.0, -1711333.8, 542.00336, -0.02786677, -0.027568076, -1667430.4, 32860.586, 0.0, 5.0145416, 4.985973 
1.17838845e+2, 1.3148601e+2, -1618303.1, -1662275.5, 569.9383, -0.01310151, -0.023944963, -1618295.8, 33128.543, 0.0, 5.01459, 4.9859705 
1.1784126e+2, 1.364724e+2, -1571411.5, -1617772.0, 598.5784, 0.0016136473, -0.019062506, -1571403.8, 31154.25, 0.0, 5.014627, 4.9844646 
1.17842846e+2, 1.4145571e+2, -1529446.9, -1583365.0, 56.604305, 0.010528108, -0.0014230786, -1529446.9, 24275.748, 0.0, 5.0146446, 4.979546 
1.1784264e+2, 1.4643557e+2, -1480252.4, -1533991.5, -229.93144, 0.008204414, -0.001705756, -1480251.4, 24671.604, 0.0, 5.014638, 4.9796524 
1.1784237e+2, 1.514154e+2, -1431224.8, -1484949.6, -323.18057, 0.0055808765, -0.0028738456, -1431222.8, 24901.268, 0.0, 5.014628, 4.9796524 
1.178421e+2, 1.5639517e+2, -1383632.1, -1438888.1, -417.06717, 0.002949792, -0.0035915854, -1383628.9, 23696.277, 0.0, 5.014616, 4.9786572 
1.17842026e+2, 1.6137122e+2, -1342755.9, -1406904.5, -407.82233, 0.0015786057, 0.0010713275, -1342753.3, 15809.182, 0.0, 5.0146065, 4.97295 
1.1784224e+2, 1.6634433e+2, -1293482.4, -1357457.8, -455.8793, 0.0028929096, -0.00054140296, -1293479.1, 16347.095, 0.0, 5.014605, 4.9730587 
1.1784245e+2, 1.7131749e+2, -1244371.5, -1308340.5, -477.93756, 0.0042799846, -0.0020851458, -1244368.0, 16721.773, 0.0, 5.014601, 4.9730587 
1.1784267e+2, 1.7629065e+2, -1196407.0, -1261632.4, -500.0363, 0.005650181, -0.0032291687, -1196403.3, 15950.003, 0.0, 5.0145936, 4.9722514 
1.178427e+2, 1.8126024e+2, -1155971.1, -1230796.9, -819.7338, 0.0066324812, 0.0033708338, -1155962.1, 7689.0874, 0.0, 5.0145607, 4.966088 
1.1784224e+2, 1.8622659e+2, -1106729.5, -1181054.0, -914.72687, 0.006865073, 0.0014305456, -1106718.3, 8262.03, 0.0, 5.01447, 4.966315 
1.1784175e+2, 1.9119297e+2, -1057816.8, -1131989.4, -880.52783, 0.007059966, -0.0007557208, -1057806.4, 8502.83, 0.0, 5.014374, 4.9663167 
1.17841266e+2, 1.9615933e+2, -1009803.2, -1084843.8, -846.6973, 0.007233571, -0.002612327, -1009793.6, 7844.336, 0.0, 5.0142736, 4.965668 
1.1784055e+2, 2.0112205e+2, -970451.9, -1056454.9, -1053.8181, 0.006205376, 0.003824918, -970439.0, -1435.7153, 0.0, 5.0141873, 4.958613 
1.1783926e+2, 2.0608106e+2, -921187.2, -1006899.44, -1149.9703, 0.0020581123, 0.0040338323, -921171.8, -765.6769, 0.0, 5.0141263, 4.9587364 
1.1783795e+2, 2.110401e+2, -872105.1, -957719.5, -1160.9998, -0.0022853215, 0.0039829477, -872089.4, -280.34958, 0.0, 5.014061, 4.9587364 
1.17836624e+2, 2.1599913e+2, -823702.0, -910000.4, -1171.1461, -0.006666262, 0.004069004, -823686.1, -474.1845, 0.0, 5.0139904, 4.9582367 
1.178354e+2, 2.2095451e+2, -783235.3, -879648.56, -975.9145, -0.0108712185, 0.009751429, -783225.44, -8576.431, 0.0, 5.0139117, 4.9517584 
1.1783444e+2, 2.2590584e+2, -733461.75, -828712.4, -822.332, -0.01461058, -0.0035499772, -733454.7, -7333.7813, 0.0, 5.0137835, 4.9523535 
1.1783348e+2, 2.3085713e+2, -684522.44, -779528.9, -737.3271, -0.01832095, -0.018125324, -684516.7, -6924.0303, 0.0, 5.0136375, 4.952364 
1.1783252e+2, 2.3580845e+2, -636267.7, -731807.44, -663.8265, -0.02204708, -0.032809835, -636263.1, -7198.61, 0.0, 5.013478, 4.9518723 
1.1783148e+2, 2.407572e+2, -598171.1, -705980.1, -1264.1783, -0.02405041, -0.023374036, -598156.3, -17592.467, 0.0, 5.013181, 4.9438186 
1.17830135e+2, 2.4570446e+2, -549295.3, -655572.1, -1775.0781, -0.02159915, 0.0026026033, -549265.7, -17178.547, 0.0, 5.0127325, 4.9443374 
1.1782871e+2, 2.5065172e+2, -501100.34, -606782.2, -2070.8018, -0.018968016, 0.027384916, -501059.78, -17448.625, 0.0, 5.0122814, 4.9443164 
1.1782724e+2, 2.5559905e+2, -453198.22, -558575.3, -2349.5303, -0.01634337, 0.05303106, -453145.88, -18011.338, 0.0, 5.0118074, 4.944097 
1.1782478e+2, 2.6054043e+2, -411751.2, -524503.7, -2885.4204, -0.021889845, 0.06509795, -411677.4, -24968.32, 0.0, 5.01125, 4.93872 
1.17817976e+2, 2.6547632e+2, -358631.0, -459082.63, -2082.5322, -0.07699594, -0.043230854, -358587.84, -20278.041, 0.0, 5.0097065, 4.9445105 
1.1781041e+2, 2.7041274e+2, -313670.4, -410738.4, -1550.3203, -0.13806854, -0.16752881, -313645.66, -23743.682, 0.0, 5.007786, 4.9448605 
1.17802486e+2, 2.7534926e+2, -269276.34, -362847.47, -1453.5367, -0.19879875, -0.29721615, -269253.75, -27759.963, 0.0, 5.0056252, 4.9451632 
1.1780106e+2, 2.802914e+2, -261328.67, -413262.97, -5623.7773, -0.17501765, -0.1823647, -261120.8, -68081.86, 0.0, 5.0064955, 4.910497 
1.1780549e+2, 2.8523108e+2, -186185.19, -318517.6, -6605.575, -0.10940062, 0.013961891, -185856.28, -41206.12, 0.0, 5.009793, 4.9244747 
1.17806055e+2, 2.9016247e+2, -132822.16, -266292.1, -5500.511, -0.091021925, 0.05220534, -132595.86, -36248.117, 0.0, 5.0110927, 4.9246573 
1.17806174e+2, 2.950932e+2, -80465.67, -214631.33, -4654.0757, -0.07136205, 0.07971999, -80304.42, -32252.432, 0.0, 5.0119543, 4.924841 
1.1780576e+2, 3.0002943e+2, -22534.096, -115440.81, -6131.9033, -0.029852953, 0.05963294, -22131.135, -22131.135, 0.0, 5.012579, 4.9509854 
1.1779591e+2, 3.049898e+2, -1648.0205, -62892.29, -5571.028, 0.0033071449, -0.1189617, -1145.3823, -1145.3823, 0.0, 5.0120564, 4.9677596 
1.17782064e+2, 3.0996275e+2, -3725.0454, -60477.3, -5142.319, 0.015272654, -0.2834944, -3262.864, -3262.864, 0.0, 5.0105557, 4.9691143 
1.1776657e+2, 3.1493962e+2, -7157.834, -59075.504, -5415.2974, 0.022951778, -0.4216143, -6599.004, -6599.004, 0.0, 5.0083585, 4.970475 
1.22853704e+2, 1.2151519e+2, -1710279.9, -1748192.8, 794.2059, 0.009716595, -0.0043808324, -1710263.3, 38877.406, 0.0, 5.0146174, 4.9899135 
1.2285102e+2, 1.2649907e+2, -1667023.8, -1711084.5, 141.41374, -0.027841311, -0.027622567, -1667023.3, 33273.75, 0.0, 5.0146685, 4.9859915 
1.2285345e+2, 1.3148554e+2, -1618096.4, -1662126.4, 141.62604, -0.013197054, -0.023692181, -1618096.0, 33333.863, 0.0, 5.014648, 4.9859905 
1.22855864e+2, 1.3647196e+2, -1571378.3, -1617706.1, 140.92229, 0.0014600563, -0.018519625, -1571377.9, 31185.0, 0.0, 5.0146275, 4.984485 
1.22857474e+2, 1.414553e+2, -1529498.8, -1583439.8, -349.55212, 0.010573988, -0.00075120595, -1529496.5, 24230.643, 0.0, 5.014638, 4.9795237 
1.2285738e+2, 1.4643511e+2, -1480034.3, -1533961.3, -503.50006, 0.008818447, -0.0013233074, -1480029.6, 24898.342, 0.0, 5.0147276, 4.979619 
1.2285721e+2, 1.5141484e+2, -1430702.9, -1484773.0, -473.92917, 0.0067843655, -0.002794972, -1430698.6, 25430.781, 0.0, 5.01482, 4.9796185 
1.2285705e+2, 1.5639457e+2, -1382802.0, -1438563.9, -445.00195, 0.0047575487, -0.0038074262, -1382798.4, 24532.676, 0.0, 5.0149126, 4.978623 
1.2285701e+2, 1.6137055e+2, -1341866.1, -1406564.5, -429.74786, 0.0037734334, 0.0006812407, -1341863.3, 16705.494, 0.0, 5.014927, 4.97291 
1.2285714e+2, 1.6634364e+2, -1293049.3, -1357340.1, -514.9951, 0.0050016795, -0.0007706227, -1293045.1, 16787.73, 0.0, 5.0147724, 4.9730177 
1.22857265e+2, 1.7131679e+2, -1244399.5, -1308445.3, -558.292, 0.006318172, -0.0021359783, -1244394.6, 16701.969, 0.0, 5.0146117, 4.973018 
1.22857384e+2, 1.7628992e+2, -1196883.3, -1261951.9, -601.6948, 0.007649518, -0.0031046374, -1196877.8, 15482.528, 0.0, 5.014451, 4.972211 
1.2285733e+2, 1.812595e+2, -1156638.8, -1231148.0, -928.9599, 0.0086013805, 0.003495881, -1156627.3, 7031.302, 0.0, 5.0143404, 4.9660735 
1.2285683e+2, 1.8622579e+2, -1107106.8, -1181258.6, -1098.5626, 0.008775671, 0.0010992967, -1107090.4, 7897.534, 0.0, 5.0143466, 4.966304 
1.2285631e+2, 1.9119209e+2, -1057881.0, -1132047.5, -1150.0989, 0.008944283, -0.0015838487, -1057863.1, 8454.167, 0.0, 5.014357, 4.966305 
1.22855775e+2, 1.961584e+2, -1009547.75, -1084753.3, -1201.7278, 0.009125461, -0.0039557223, -1009528.56, 8118.0557, 0.0, 5.0143676, 4.9656553 
1.2285504e+2, 2.0112108e+2, -969934.0, -1056224.5, -1442.6421, 0.0081866365, 0.0023047687, -969909.9, -897.76855, 0.0, 5.014368, 4.958608 
1.2285373e+2, 2.0608017e+2, -920586.9, -1006597.25, -1504.3037, 0.004409783, 0.0031067943, -920560.56, -146.2306, 0.0, 5.014329, 4.9587464 
1.22852415e+2, 2.1103927e+2, -871438.1, -957383.2, -1479.3557, 0.0005262134, 0.003684565, -871412.7, 403.84293, 0.0, 5.0142865, 4.958747 
1.2285109e+2, 2.1599838e+2, -822955.44, -909624.0, -1454.2758, -0.003329032, 0.0044097234, -822931.0, 287.69647, 0.0, 5.0142436, 4.9582486 
1.2284986e+2, 2.2095379e+2, -782441.2, -879076.3, -1318.3745, -0.006661799, 0.010080849, -782423.25, -7767.956, 0.0, 5.0141473, 4.9518476 
1.2284889e+2, 2.2590502e+2, -733086.0, -828342.2, -1237.227, -0.008497765, -0.0051879655, -733069.94, -6942.4673, 0.0, 5.013868, 4.952445 
1.2284793e+2, 2.308562e+2, -684567.06, -779393.1, -1174.7148, -0.01010488, -0.021821849, -684552.56, -6952.7153, 0.0, 5.013574, 4.9524436 
1.2284696e+2, 2.3580736e+2, -636694.1, -731885.9, -1109.0435, -0.011597936, -0.03852393, -636681.2, -7608.891, 0.0, 5.0132785, 4.95194 
1.2284576e+2, 2.4075614e+2, -598911.7, -706751.0, -1666.111, -0.012374631, -0.028529191, -598886.0, -18314.875, 0.0, 5.012955, 4.943673 
1.2284393e+2, 2.4570376e+2, -549209.25, -655953.06, -1876.874, -0.011797531, 0.0024516184, -549176.25, -17084.658, 0.0, 5.012781, 4.944201 
1.2284201e+2, 2.5065133e+2, -500093.2, -606676.0, -1918.9507, -0.011168721, 0.031558104, -500058.66, -16445.334, 0.0, 5.012635, 4.9442 
1.2284e+2, 2.555989e+2, -451225.22, -557964.5, -1958.9205, -0.01048699, 0.060926873, -451189.28, -16054.515, 0.0, 5.01248, 4.9440002 
1.2283735e+2, 2.6054007e+2, -408798.1, -523697.75, -2478.0654, -0.014348258, 0.07233476, -408744.7, -22033.408, 0.0, 5.012271, 4.9385276 
1.2283109e+2, 2.6547447e+2, -355055.53, -458966.72, -3009.1921, -0.05265877, -0.05006146, -354968.47, -16646.154, 0.0, 5.0109773, 4.943992 
1.2282405e+2, 2.7040905e+2, -309190.2, -411332.6, -3254.1606, -0.09507118, -0.18700476, -309086.63, -19158.982, 0.0, 5.0094504, 4.943955 
1.2281662e+2, 2.7534345e+2, -263338.6, -363824.47, -3380.003, -0.13680719, -0.32660437, -263225.03, -21689.695, 0.0, 5.0078793, 4.94387 
1.2281612e+2, 2.8028524e+2, -255074.33, -416347.8, -536.0385, -0.11291161, -0.18813562, -255072.55, -61992.266, 0.0, 5.009412, 4.907697 
1.2282112e+2, 2.8522706e+2, -177224.7, -311284.22, -2568.3042, -0.065834105, 0.022683877, -177175.52, -32502.559, 0.0, 5.011939, 4.925415 
1.2282187e+2, 2.9016012e+2, -126518.59, -261667.64, -3686.6125, -0.056088474, 0.057775114, -126418.1, -30060.947, 0.0, 5.0124626, 4.9252596 
1.2282213e+2, 2.9509297e+2, -75794.08, -212090.28, -4657.3955, -0.043909, 0.09114056, -75635.12, -27591.406, 0.0, 5.0128846, 4.925104 
1.2282241e+2, 3.000296e+2, -20228.674, -122146.18, -6498.087, -0.007819177, 0.07666382, -19816.04, -19816.04, 0.0, 5.0140114, 4.9479475 
1.2281652e+2, 3.0498606e+2, 8118.5127, -70075.195, -9329.925, 0.045928437, -0.11778699, 9216.328, 9216.328, 0.0, 5.016437, 4.963108 
1.2280705e+2, 3.0995193e+2, 15795.55, -65576.16, -11640.441, 0.08525263, -0.32820708, 17427.996, 17427.996, 0.0, 5.018527, 4.9635625 
1.22795805e+2, 3.149178e+2, 23556.38, -61169.688, -13462.546, 0.120682895, -0.5469082, 25644.07, 25644.07, 0.0, 5.0204883, 4.9640174 
1.2786753e+2, 1.21514715e+2, -1710585.3, -1748797.9, 1305.9174, 0.0016196435, -0.0014371591, -1710540.6, 38605.652, 0.0, 5.014615, 4.9897156 
1.2786613e+2, 1.264986e+2, -1667018.5, -1711058.6, 121.05877, -0.023613377, -0.024658894, -1667018.1, 33284.996, 0.0, 5.014666, 4.9860005 
1.278683e+2, 1.3148499e+2, -1618091.3, -1662101.0, 123.40989, -0.011180649, -0.021416835, -1618090.9, 33345.805, 0.0, 5.014646, 4.985999 
1.2787047e+2, 1.3647135e+2, -1571373.1, -1617681.1, 124.85167, 0.0012276237, -0.016932335, -1571372.9, 31197.652, 0.0, 5.014625, 4.9844937 
1.2787199e+2, 1.4145465e+2, -1529444.3, -1583320.5, -301.65317, 0.009272105, 0.00023903468, -1529442.5, 24292.506, 0.0, 5.014637, 4.979563 
1.2787211e+2, 1.4643446e+2, -1479974.8, -1533835.5, -432.4157, 0.008831463, -0.00079651905, -1479971.3, 24963.965, 0.0, 5.014727, 4.9796605 
1.2787218e+2, 1.5141419e+2, -1430643.0, -1484648.0, -401.92255, 0.008166964, -0.0027345482, -1430640.0, 25496.146, 0.0, 5.01482, 4.97966 
1.2787224e+2, 1.563939e+2, -1382741.9, -1438439.8, -372.08713, 0.007499395, -0.0042158947, -1382739.4, 24597.842, 0.0, 5.0149126, 4.9786644 
1.278723e+2, 1.6136988e+2, -1341909.9, -1406658.9, -511.92938, 0.0072659575, 0.000007688289, -1341905.9, 16668.717, 0.0, 5.0149274, 4.9728785 
1.2787221e+2, 1.6634296e+2, -1293123.1, -1357497.8, -637.7057, 0.007982273, -0.0010813943, -1293116.8, 16722.21, 0.0, 5.014773, 4.9729652 
1.2787212e+2, 1.7131609e+2, -1244473.0, -1308602.1, -679.9821, 0.008733248, -0.0020457166, -1244465.8, 16637.277, 0.0, 5.014612, 4.9729652 
1.2787202e+2, 1.762892e+2, -1196956.5, -1262108.0, -722.3437, 0.009484635, -0.002614669, -1196948.5, 15418.594, 0.0, 5.0144515, 4.9721584 
1.2787181e+2, 1.8125872e+2, -1156715.1, -1231310.4, -952.0916, 0.009871121, 0.0041675097, -1156703.0, 6962.884, 0.0, 5.0143404, 4.966019 
1.2787126e+2, 1.8622495e+2, -1107192.0, -1181439.8, -1088.9991, 0.009499463, 0.0015293214, -1107176.0, 7820.2734, 0.0, 5.014346, 4.966243 
1.278707e+2, 1.9119117e+2, -1057966.1, -1132228.0, -1139.0425, 0.009100727, -0.0014019087, -1057948.8, 8377.925, 0.0, 5.0143566, 4.966244 
1.2787011e+2, 1.961574e+2, -1009632.8, -1084933.3, -1189.179, 0.0086951, -0.00401907, -1009614.06, 8042.8105, 0.0, 5.014367, 4.965595 
1.2786938e+2, 2.0112e+2, -969914.5, -1056180.9, -1460.1195, 0.007811163, 0.002048784, -969889.8, -866.8943, 0.0, 5.0143676, 4.9586234 
1.2786822e+2, 2.0607916e+2, -920538.44, -1006491.7, -1535.2593, 0.0057477527, 0.0030279397, -920511.0, -86.628265, 0.0, 5.0143285, 4.958783 
1.2786703e+2, 2.1103832e+2, -871390.0, -957277.56, -1508.3036, 0.0036364642, 0.0038277826, -871363.5, 462.30972, 0.0, 5.014286, 4.958784 
1.2786584e+2, 2.1599749e+2, -822907.56, -909518.25, -1481.2124, 0.0015290898, 0.0047744196, -822882.2, 345.0281, 0.0, 5.0142436, 4.9582853 
1.2786469e+2, 2.2095293e+2, -782328.4, -878811.7, -1470.8284, -0.00006745089, 0.010197194, -782306.0, -7642.765, 0.0, 5.014144, 4.95194 
1.2786365e+2, 2.2590412e+2, -732983.06, -828078.3, -1436.1453, -0.00007081297, -0.0061679683, -732961.4, -6825.964, 0.0, 5.0138617, 4.9525394 
1.2786259e+2, 2.3085529e+2, -684470.56, -779126.0, -1368.0708, 0.000091110574, -0.023871884, -684450.8, -6843.097, 0.0, 5.0135655, 4.95254 
1.2786151e+2, 2.3580642e+2, -636604.0, -731615.4, -1296.8132, 0.0002862032, -0.041623455, -636586.3, -7506.217, 0.0, 5.0132675, 4.9520383 
1.2786004e+2, 2.4075519e+2, -598888.75, -706534.56, -1877.7457, -0.00039027876, -0.032871917, -598856.0, -18277.09, 0.0, 5.0129304, 4.943754 
1.2785767e+2, 2.4570289e+2, -549260.56, -655843.75, -2031.4296, -0.0036186553, -0.0014036644, -549221.9, -17123.797, 0.0, 5.0127473, 4.944248 
1.2785521e+2, 2.506506e+2, -500152.06, -606565.25, -2064.5728, -0.0070554875, 0.028714819, -500112.03, -16494.082, 0.0, 5.0125985, 4.944248 
1.2785268e+2, 2.5559837e+2, -451291.66, -557852.25, -2095.604, -0.010533995, 0.05916573, -451250.47, -16112.96, 0.0, 5.01244, 4.94405 
1.2784995e+2, 2.6053977e+2, -408938.66, -523471.9, -2574.057, -0.013792017, 0.07175464, -408880.84, -22169.781, 0.0, 5.0121865, 4.9386373 
1.2784499e+2, 2.654741e+2, -355891.78, -459678.06, -3113.0579, -0.031404838, -0.048734356, -355798.5, -17476.254, 0.0, 5.010803, 4.943806 
1.2783924e+2, 2.7040872e+2, -310186.94, -411838.78, -3229.1975, -0.053404264, -0.18326424, -310084.47, -20156.725, 0.0, 5.009202, 4.943852 
1.27833e+2, 2.753432e+2, -264496.22, -364125.53, -3226.0276, -0.07728841, -0.3199681, -264391.88, -22857.629, 0.0, 5.007557, 4.9438496 
1.2783347e+2, 2.8028458e+2, -254440.03, -414712.25, 3241.284, -0.06543358, -0.18889241, -254374.5, -61291.617, 0.0, 5.0093884, 4.908332 
1.2783837e+2, 2.8522572e+2, -176725.19, -311968.53, -1412.7482, -0.0354903, 0.016497, -176710.44, -32029.945, 0.0, 5.012186, 4.9252505 
1.2783886e+2, 2.901585e+2, -125994.914, -261957.05, -2317.042, -0.026606988, 0.053024564, -125955.44, -29589.682, 0.0, 5.012693, 4.925199 
1.278388e+2, 2.95091e+2, -75248.04, -211986.69, -3073.888, -0.018260278, 0.0863383, -75178.97, -27125.24, 0.0, 5.0130987, 4.925147 
1.2783934e+2, 3.0002764e+2, -19870.688, -121398.58, -3276.6855, 0.009268779, 0.06968447, -19765.047, -19765.047, 0.0, 5.014108, 4.9482665 
1.2783751e+2, 3.0498257e+2, 4456.8066, -75668.73, -4861.09, 0.06631434, -0.110718824, 4750.644, 4750.644, 0.0, 5.016105, 4.9614778 
1.2783238e+2, 3.0994737e+2, 10940.502, -70946.73, -6689.71, 0.10651394, -0.2923053, 11483.413, 11483.413, 0.0, 5.017763, 4.962156 
1.278252e+2, 3.149131e+2, 17511.604, -66317.445, -8029.386, 0.13449936, -0.47407815, 18273.752, 18273.752, 0.0, 5.019293, 4.9628353 
1.3288134e+2, 1.21514216e+2, -1710838.8, -1749295.6, 1817.9374, -0.0066327266, 0.0012698899, -1710753.0, 38399.16, 0.0, 5.014613, 4.9895525 
1.3288122e+2, 1.264981e+2, -1667014.3, -1711031.8, 100.89866, -0.019386789, -0.021651857, -1667014.0, 33295.24, 0.0, 5.0146637, 4.9860096 
1.3288315e+2, 1.3148443e+2, -1618087.1, -1662074.6, 105.388565, -0.009164381, -0.01911546, -1618086.9, 33356.746, 0.0, 5.0146437, 4.986008 
1.3288507e+2, 1.3647075e+2, -1571369.0, -1617655.3, 108.97588, 0.0009962608, -0.015336347, -1571368.8, 31209.305, 0.0, 5.014623, 4.984503 
1.328865e+2, 1.4145401e+2, -1529394.9, -1583211.1, -252.25427, 0.007962547, 0.0012535435, -1529393.6, 24349.197, 0.0, 5.014636, 4.9795995 
1.3288684e+2, 1.464338e+2, -1479915.5, -1533709.5, -361.03036, 0.008836644, -0.00025267075, -1479913.0, 25029.438, 0.0, 5.0147266, 4.9797025 
1.3288714e+2, 1.5141353e+2, -1430583.5, -1484522.9, -329.61505, 0.009544099, -0.0026730166, -1430581.5, 25561.375, 0.0, 5.01482, 4.9797015 
1.3288744e+2, 1.5639324e+2, -1382682.0, -1438315.5, -298.87146, 0.010238149, -0.0046392074, -1382680.4, 24662.877, 0.0, 5.014913, 4.9787054 
1.3288759e+2, 1.613692e+2, -1341958.3, -1406762.0, -594.4937, 0.010761732, -0.0006473757, -1341952.8, 16627.645, 0.0, 5.0149274, 4.9728436 
1.328873e+2, 1.6634227e+2, -1293197.4, -1357655.1, -760.56287, 0.010968248, -0.0013730505, -1293188.4, 16656.787, 0.0, 5.014773, 4.9729123 
1.3288698e+2, 1.7131539e+2, -1244546.9, -1308758.6, -801.8187, 0.011154381, -0.0019500905, -1244536.9, 16572.684, 0.0, 5.014612, 4.972913 
1.3288668e+2, 1.7628849e+2, -1197030.1, -1262263.9, -843.13904, 0.011326482, -0.002133087, -1197019.3, 15354.749, 0.0, 5.0144515, 4.9721055 
1.3288629e+2, 1.8125798e+2, -1156796.4, -1231482.1, -975.1873, 0.011134107, 0.004861492, -1156783.6, 6889.6255, 0.0, 5.0143404, 4.965961 
1.3288568e+2, 1.8622412e+2, -1107277.9, -1181620.5, -1079.4491, 0.01021277, 0.001976717, -1107262.1, 7742.4736, 0.0, 5.014346, 4.9661818 
1.3288507e+2, 1.9119024e+2, -1058051.9, -1132408.3, -1127.9993, 0.009247623, -0.0012243777, -1058034.8, 8301.153, 0.0, 5.014356, 4.966183 
1.3288444e+2, 1.9615638e+2, -1009718.44, -1085112.9, -1176.6436, 0.00825613, -0.004108606, -1009700.06, 7967.0474, 0.0, 5.0143666, 4.9655337 
1.3288373e+2, 2.0111896e+2, -969904.9, -1056157.3, -1477.8005, 0.007448014, 0.0018383815, -969879.56, -845.9407, 0.0, 5.014367, 4.958632 
1.3288268e+2, 2.0607816e+2, -920490.75, -1006385.5, -1566.473, 0.0071037035, 0.0030033814, -920462.2, -27.72446, 0.0, 5.014328, 4.95882 
1.3288166e+2, 2.1103737e+2, -871342.56, -957171.3, -1537.5095, 0.00676316, 0.003996022, -871315.0, 520.08777, 0.0, 5.014286, 4.958821 
1.328806e+2, 2.1599658e+2, -822860.3, -909411.9, -1508.4072, 0.006402121, 0.0051348642, -822834.06, 401.68063, 0.0, 5.014243, 4.958322 
1.3287951e+2, 2.2095208e+2, -782227.94, -878569.7, -1627.1674, 0.006542016, 0.010343234, -782200.44, -7529.297, 0.0, 5.014141, 4.952024 
1.328784e+2, 2.2590324e+2, -732882.6, -827812.2, -1638.1366, 0.008352652, -0.0071476335, -732854.4, -6711.053, 0.0, 5.013855, 4.9526334 
1.3287723e+2, 2.3085439e+2, -684376.6, -778856.5, -1564.5009, 0.010265117, -0.025987012, -684350.75, -6735.092, 0.0, 5.013557, 4.9526353 
1.3287605e+2, 2.3580551e+2, -636516.5, -731342.5, -1487.6583, 0.012129856, -0.044853494, -636493.2, -7405.1816, 0.0, 5.013257, 4.9521356 
1.328743e+2, 2.4075425e+2, -598895.1, -706355.8, -2104.5566, 0.011544493, -0.0370895, -598853.94, -18267.299, 0.0, 5.012906, 4.943819 
1.3287139e+2, 2.4570206e+2, -549326.75, -655719.75, -2188.7568, 0.004527297, -0.0050275107, -549281.7, -17177.412, 0.0, 5.0127134, 4.944294 
1.328684e+2, 2.506499e+2, -500225.8, -606439.8, -2212.9675, -0.0029544681, 0.026036518, -500179.72, -16557.314, 0.0, 5.012562, 4.9442954 
1.3286531e+2, 2.555978e+2, -451372.94, -557725.3, -2235.0605, -0.010572514, 0.057503127, -451325.97, -16185.897, 0.0, 5.0124, 4.9440985 
1.3286252e+2, 2.6053944e+2, -409165.2, -523302.75, -2771.0996, -0.012915264, 0.07090062, -409097.94, -22386.68, 0.0, 5.012102, 4.9387083 
1.328587e+2, 2.654737e+2, -356798.0, -460321.44, -3338.2322, -0.010432432, -0.048508734, -356690.47, -18367.389, 0.0, 5.010629, 4.9436088 
1.3285404e+2, 2.7040824e+2, -311253.7, -412276.7, -3325.6362, -0.012878023, -0.18137704, -311144.3, -21215.348, 0.0, 5.008954, 4.943737 
1.3284884e+2, 2.753428e+2, -265723.84, -364358.06, -3193.5398, -0.019770332, -0.31593686, -265620.56, -24086.045, 0.0, 5.0072346, 4.9438176 
1.328508e+2, 2.8028396e+2, -254299.63, -414148.28, 7320.42, -0.016712097, -0.18854696, -253965.08, -60880.137, 0.0, 5.009369, 4.9085827 
1.3285609e+2, 2.8522456e+2, -176382.5, -312497.63, -462.2997, -0.0019614235, 0.013444767, -176380.94, -31694.547, 0.0, 5.0124335, 4.9250684 
1.328563e+2, 2.90157e+2, -125627.73, -262091.36, -1152.4908, 0.004834014, 0.049772203, -125618.0, -29244.533, 0.0, 5.012924, 4.925121 
1.3285586e+2, 2.9508907e+2, -74858.14, -211728.17, -1695.3276, 0.008123596, 0.081398666, -74837.15, -26773.55, 0.0, 5.0133133, 4.925173 
1.328568e+2, 3.0002555e+2, -20223.016, -121767.9, -349.93533, 0.028778542, 0.062746085, -20221.81, -20221.81, 0.0, 5.014206, 4.948106 
1.3285854e+2, 3.0497876e+2, 599.03735, -81074.14, -727.9831, 0.090495445, -0.10637212, 605.52563, 605.52563, 0.0, 5.0157747, 4.95979 
1.3285705e+2, 3.099422e+2, 5889.3193, -76129.414, -2073.13, 0.130587, -0.26510492, 5941.6865, 5941.6865, 0.0, 5.0170016, 4.960692 
1.328532e+2, 3.149075e+2, 11270.363, -71277.484, -2928.5984, 0.15015145, -0.41593704, 11374.132, 11374.132, 0.0, 5.0181003, 4.961595 
1.3789514e+2, 1.2151368e+2, -1711195.8, -1749762.5, 2339.1619, -0.014971122, 0.0037588784, -1711054.4, 38104.047, 0.0, 5.0145593, 4.9894247 
1.3789631e+2, 1.2649763e+2, -1667123.1, -1711063.1, 82.37982, -0.015136133, -0.01858527, -1667123.0, 33192.45, 0.0, 5.014625, 4.986017 
1.3789801e+2, 1.314839e+2, -1618137.8, -1662076.9, 76.96732, -0.0071373284, -0.016782604, -1618137.6, 33312.81, 0.0, 5.014624, 4.986016 
1.3789967e+2, 1.3647014e+2, -1571379.3, -1617637.1, 72.85662, 0.00077070587, -0.013733167, -1571379.1, 31206.578, 0.0, 5.0146165, 4.9845104 
1.3790101e+2, 1.4145337e+2, -1529350.4, -1583111.8, -227.3795, 0.0066496157, 0.00228823, -1529349.4, 24401.32, 0.0, 5.0146356, 4.979632 
1.3790156e+2, 1.4643316e+2, -1479872.8, -1533590.8, -314.6092, 0.008837602, 0.0003046495, -1479870.9, 25078.867, 0.0, 5.014721, 4.979744 
1.379021e+2, 1.5141287e+2, -1430563.6, -1484415.8, -279.44308, 0.010921928, -0.0026137074, -1430562.3, 25587.344, 0.0, 5.0148067, 4.979743 
1.3790263e+2, 1.5639259e+2, -1382690.9, -1438222.4, -243.01778, 0.012985875, -0.0050807856, -1382689.8, 24659.629, 0.0, 5.01489, 4.978747 
1.3790286e+2, 1.6136853e+2, -1342093.3, -1406913.6, -689.84894, 0.014277593, -0.0012874486, -1342086.0, 16500.27, 0.0, 5.0149, 4.972806 
1.3790238e+2, 1.6634159e+2, -1293328.5, -1357840.3, -898.07196, 0.013973939, -0.0016463675, -1293316.0, 16535.393, 0.0, 5.0147543, 4.972859 
1.3790184e+2, 1.7131469e+2, -1244660.0, -1308934.5, -941.3974, 0.013596698, -0.001846489, -1244646.3, 16469.883, 0.0, 5.0146, 4.9728594 
1.379013e+2, 1.7628777e+2, -1197135.3, -1262435.4, -985.12274, 0.013194693, -0.0016534376, -1197120.4, 15260.44, 0.0, 5.0144415, 4.972052 
1.3790075e+2, 1.8125723e+2, -1156914.8, -1231677.6, -1020.35333, 0.012413459, 0.0055848346, -1156900.8, 6779.866, 0.0, 5.0143294, 4.9659 
1.3790011e+2, 1.8622328e+2, -1107409.3, -1181820.8, -1087.0271, 0.010935085, 0.0024410055, -1107393.4, 7619.57, 0.0, 5.0143304, 4.966121 
1.3789944e+2, 1.9118933e+2, -1058212.5, -1132621.8, -1128.5782, 0.009406277, -0.0010621754, -1058195.4, 8149.8857, 0.0, 5.0143304, 4.966122 
1.3789879e+2, 1.9615538e+2, -1009924.25, -1085347.3, -1169.9537, 0.007837594, -0.0042485357, -1009906.1, 7771.272, 0.0, 5.0143247, 4.965473 
1.3789807e+2, 2.011179e+2, -970066.3, -1056229.1, -1494.1145, 0.0071321623, 0.0016402033, -970040.44, -996.0277, 0.0, 5.014311, 4.9586334 
1.3789716e+2, 2.0607714e+2, -920600.94, -1006352.94, -1594.8254, 0.00850592, 0.0030118423, -920571.3, -126.84476, 0.0, 5.0142736, 4.9588556 
1.3789627e+2, 2.1103643e+2, -871461.5, -957142.56, -1563.9532, 0.009933915, 0.0041791266, -871433.0, 411.3712, 0.0, 5.0142283, 4.9588566 
1.3789535e+2, 2.159957e+2, -823004.2, -909394.4, -1533.3574, 0.011323763, 0.005489407, -822977.0, 267.2361, 0.0, 5.0141773, 4.9583583 
1.3789435e+2, 2.2095121e+2, -782341.9, -878446.2, -1788.596, 0.013206546, 0.010519385, -782308.6, -7629.5347, 0.0, 5.014068, 4.9520993 
1.3789311e+2, 2.2590236e+2, -732934.75, -827616.6, -1859.5681, 0.016808901, -0.008142441, -732898.25, -6746.968, 0.0, 5.0137973, 4.9527254 
1.3789186e+2, 2.3085347e+2, -684401.94, -778643.0, -1797.6995, 0.020461438, -0.028214013, -684367.7, -6744.0073, 0.0, 5.0135083, 4.952729 
1.3789058e+2, 2.3580457e+2, -636538.0, -731121.6, -1734.107, 0.02399817, -0.04830696, -636506.2, -7410.1836, 0.0, 5.0132103, 4.9522314 
1.3788852e+2, 2.407533e+2, -599019.25, -706273.56, -2422.666, 0.023527673, -0.041321766, -598964.56, -18370.135, 0.0, 5.012852, 4.943863 
1.3788506e+2, 2.4570122e+2, -549501.0, -655652.6, -2503.7244, 0.012790042, -0.008482712, -549442.0, -17331.432, 0.0, 5.0126505, 4.944332 
1.3788155e+2, 2.506492e+2, -500489.8, -606410.5, -2614.8186, 0.0013805517, 0.023618698, -500425.28, -16798.477, 0.0, 5.0124693, 4.944334 
1.3787793e+2, 2.5559726e+2, -451796.0, -557764.8, -2733.1135, -0.0102139115, 0.056260474, -451725.56, -16583.033, 0.0, 5.0122538, 4.944138 
1.3787505e+2, 2.6053903e+2, -410184.5, -523604.16, -3635.9915, -0.011093146, 0.07025805, -410068.06, -23356.156, 0.0, 5.0117855, 4.9387093 
1.3787225e+2, 2.654731e+2, -359781.7, -461967.22, -4783.9673, 0.011521984, -0.049683403, -359558.2, -21232.176, 0.0, 5.0097647, 4.943344 
1.3786863e+2, 2.7040732e+2, -316442.53, -414663.78, -5116.3926, 0.028754266, -0.18335977, -316176.75, -26242.156, 0.0, 5.007284, 4.943546 
1.3786435e+2, 2.753417e+2, -273815.13, -367789.7, -5246.3574, 0.039289262, -0.31909811, -273523.16, -31980.938, 0.0, 5.004507, 4.9437003 
1.378683e+2, 2.8028256e+2, -264307.6, -418703.8, 9940.275, 0.03788109, -0.19445507, -263670.25, -70575.086, 0.0, 5.0059557, 4.9085093 
1.378744e+2, 2.8522298e+2, -182633.86, -315206.8, -381.19324, 0.038072385, 0.008261874, -182632.77, -37936.305, 0.0, 5.0104423, 4.924965 
1.3787426e+2, 2.901553e+2, -128731.66, -263149.97, -231.69626, 0.04042585, 0.0455369, -128731.26, -32348.496, 0.0, 5.0120397, 4.925079 
1.3787346e+2, 2.9508722e+2, -76404.414, -211848.3, -260.79745, 0.036877926, 0.07638127, -76403.914, -28330.92, 0.0, 5.0129733, 4.925194 
1.3787489e+2, 3.0002356e+2, -23599.861, -124002.28, 2758.5864, 0.052527178, 0.057573278, -23524.125, -23524.125, 0.0, 5.013531, 4.947495 
1.3787983e+2, 3.0497473e+2, -12038.233, -89351.04, 5847.5313, 0.12267165, -0.10658638, -11598.459, -11598.459, 0.0, 5.012301, 4.9582267 
1.3788135e+2, 3.099364e+2, -18562.19, -88406.83, 10054.367, 0.16572101, -0.2547278, -17143.64, -17143.64, 0.0, 5.009144, 4.95949 
1.3788024e+2, 3.149009e+2, -28808.158, -89212.72, 17358.68, 0.18128467, -0.3886669, -24175.09, -24175.09, 0.0, 5.004468, 4.9607553 
1.429095e+2, 1.21513024e+2, -1711164.9, -1749591.8, 2287.5847, -0.016829733, 0.0051186625, -1711029.3, 38136.707, 0.0, 5.014529, 4.989498 
1.4291146e+2, 1.2649715e+2, -1667300.0, -1711304.8, 58.57425, -0.009697124, -0.014940233, -1667300.0, 33021.246, 0.0, 5.014593, 4.985955 
1.4291294e+2, 1.3148324e+2, -1617927.6, -1662116.9, -21.748413, -0.0045363074, -0.014415776, -1617927.6, 33530.574, 0.0, 5.01472, 4.9859567 
1.429144e+2, 1.3646932e+2, -1570766.9, -1617469.4, -103.10797, 0.0006144051, -0.01259594, -1570766.6, 31828.664, 0.0, 5.0148463, 4.984454 
1.4291562e+2, 1.4145242e+2, -1528404.1, -1582605.8, -462.68753, 0.004908669, 0.0026184209, -1528400.3, 25361.191, 0.0, 5.0149417, 4.9796505 
1.4291632e+2, 1.4643224e+2, -1479071.4, -1533105.5, -558.97675, 0.007825326, 0.00047492117, -1479065.6, 25894.184, 0.0, 5.01497, 4.9797845 
1.4291698e+2, 1.5141198e+2, -1429942.5, -1484012.4, -534.0776, 0.0107416585, -0.0025988994, -1429937.3, 26221.652, 0.0, 5.0149956, 4.9797854 
1.4291765e+2, 1.5639172e+2, -1382242.8, -1437896.8, -509.74286, 0.0136716515, -0.0052236193, -1382238.0, 25119.994, 0.0, 5.015021, 4.978791 
1.4291796e+2, 1.6136768e+2, -1341780.4, -1406795.6, -1047.6166, 0.0155872, -0.0014332979, -1341763.5, 16830.887, 0.0, 5.0150146, 4.9727902 
1.4291735e+2, 1.6634075e+2, -1292842.9, -1357691.5, -1254.2662, 0.015278923, -0.0013378274, -1292818.6, 17040.936, 0.0, 5.0149384, 4.9728208 
1.4291671e+2, 1.7131385e+2, -1243955.0, -1308682.5, -1272.0929, 0.014901625, -0.00105104, -1243930.0, 17194.402, 0.0, 5.0148587, 4.9728208 
1.4291607e+2, 1.7628695e+2, -1196202.0, -1262076.8, -1290.4249, 0.014532035, -0.0003647721, -1196176.8, 16212.378, 0.0, 5.014779, 4.9720135 
1.4291543e+2, 1.8125641e+2, -1155890.0, -1231292.0, -1257.2361, 0.013792016, 0.0070774034, -1155869.0, 7820.31, 0.0, 5.0147023, 4.9658546 
1.4291473e+2, 1.8622236e+2, -1106583.1, -1181537.5, -1309.5255, 0.012334499, 0.0035706256, -1106560.3, 8462.367, 0.0, 5.014638, 4.9660726 
1.4291404e+2, 1.9118832e+2, -1057573.9, -1132428.3, -1355.6255, 0.010874188, -0.0003298441, -1057549.4, 8806.54, 0.0, 5.014574, 4.966074 
1.4291336e+2, 1.9615428e+2, -1009455.56, -1085234.8, -1401.0995, 0.009425498, -0.0039376905, -1009429.6, 8259.435, 0.0, 5.0145097, 4.9654255 
1.4291263e+2, 2.0111676e+2, -969638.94, -1055900.8, -1712.6711, 0.008988932, 0.001465642, -969604.94, -548.3418, 0.0, 5.0144343, 4.9586873 
1.4291172e+2, 2.0607606e+2, -920336.7, -1006050.7, -1758.8854, 0.01098721, 0.0025263361, -920300.6, 155.17673, 0.0, 5.014331, 4.9589324 
1.429108e+2, 2.1103536e+2, -871370.94, -956925.25, -1672.9954, 0.013120596, 0.0033979388, -871338.2, 516.5377, 0.0, 5.0142264, 4.958933 
1.4290988e+2, 2.1599467e+2, -823069.8, -909253.44, -1587.044, 0.015277138, 0.0043872525, -823040.6, 213.12946, 0.0, 5.0141215, 4.9584336 
1.4290886e+2, 2.2095025e+2, -782441.4, -878521.0, -1880.2574, 0.017862383, 0.009470363, -782404.6, -7716.742, 0.0, 5.014037, 4.9520926 
1.4290753e+2, 2.2590148e+2, -732418.7, -827502.8, -2141.8992, 0.021909516, -0.007706522, -732370.44, -6210.548, 0.0, 5.014, 4.9526806 
1.4290617e+2, 2.3085268e+2, -683171.06, -778205.7, -2272.6257, 0.026090598, -0.0263389, -683116.7, -5484.506, 0.0, 5.013964, 4.9526834 
1.4290482e+2, 2.3580384e+2, -634572.9, -730356.06, -2399.9836, 0.030258654, -0.045174967, -634512.8, -5408.091, 0.0, 5.013928, 4.9521847 
1.429027e+2, 2.4075244e+2, -595922.56, -704665.25, -3096.1367, 0.030612718, -0.039961826, -595834.44, -15229.712, 0.0, 5.013882, 4.943976 
1.4289922e+2, 2.4570003e+2, -545931.7, -653982.94, -2935.541, 0.020828588, -0.011367206, -545852.0, -13729.3, 0.0, 5.0138764, 4.9443936 
1.4289573e+2, 2.5064778e+2, -496476.1, -604581.1, -2833.8284, 0.010785652, 0.018028123, -496401.88, -12762.421, 0.0, 5.013874, 4.944386 
1.4289214e+2, 2.5559568e+2, -447270.22, -555747.4, -2737.0781, 0.0010251261, 0.04891581, -447201.22, -12046.369, 0.0, 5.013866, 4.94418 
1.4288947e+2, 2.6053774e+2, -405043.66, -522698.2, -3919.0566, 0.0049651335, 0.06572436, -404913.25, -18192.309, 0.0, 5.0138707, 4.9382086 
1.4288744e+2, 2.6547134e+2, -350627.88, -461633.4, -6350.794, 0.04369806, -0.041945964, -350265.72, -11921.13, 0.0, 5.0136523, 4.941942 
1.428847e+2, 2.7040413e+2, -300811.94, -411602.94, -7946.3022, 0.08023008, -0.17342067, -300244.9, -10272.068, 0.0, 5.013387, 4.9422007 
1.4288136e+2, 2.753363e+2, -250925.3, -361837.06, -9386.661, 0.11224079, -0.31829426, -250136.5, -8528.844, 0.0, 5.013106, 4.9424124 
1.4288583e+2, 2.802727e+2, -239009.5, -395520.1, 8869.264, 0.118596815, -0.25759032, -238508.5, -45299.902, 0.0, 5.013561, 4.913282 
1.4289178e+2, 2.8521386e+2, -173343.66, -304987.97, -380.2762, 0.09554681, -0.06631332, -173342.55, -28543.043, 0.0, 5.0146213, 4.926437 
1.428917e+2, 2.9014894e+2, -121657.164, -254923.83, -1318.4229, 0.08123511, 0.0010465977, -121644.125, -25189.613, 0.0, 5.0154138, 4.9261804 
1.4289095e+2, 2.9508293e+2, -69886.45, -204969.55, -2087.1382, 0.065521, 0.05570609, -69854.21, -21733.396, 0.0, 5.016162, 4.9259233 
1.4289275e+2, 3.0002365e+2, -13120.394, -110859.92, 1083.3475, 0.07571435, 0.06928757, -13108.387, -13108.387, 0.0, 5.017167, 4.9502993 
1.4289992e+2, 3.049763e+2, 5153.569, -75135.3, 325.9473, 0.1672939, -0.07644195, 5154.892, 5154.892, 0.0, 5.0190377, 4.960319 
1.4290413e+2, 3.0993828e+2, 14750.313, -61594.12, -2583.845, 0.24870673, -0.23079404, 14837.662, 14837.662, 0.0, 5.0209107, 4.9639125 
1.4290586e+2, 3.149054e+2, 24939.488, -48674.727, -4758.2534, 0.31593704, -0.3818354, 25245.775, 25245.775, 0.0, 5.0227404, 4.967511 
1.4792423e+2, 1.215122e+2, -1710797.5, -1748829.3, 1873.2405, -0.015018448, 0.005100435, -1710705.5, 38469.734, 0.0, 5.014527, 4.989749 
1.4792666e+2, 1.2649666e+2, -1667449.0, -1711598.5, 152.22028, -0.003892763, -0.01114412, -1667448.5, 32878.75, 0.0, 5.0145917, 4.985859 
1.4792795e+2, 1.314825e+2, -1618076.0, -1662410.8, 73.7559, -0.0017412836, -0.012124551, -1618075.9, 33390.87, 0.0, 5.014719, 4.98586 
1.4792924e+2, 1.364683e+2, -1570914.8, -1617763.8, -5.7722325, 0.00037250228, -0.011806867, -1570914.8, 31691.682, 0.0, 5.0148454, 4.9843574 
1.4793034e+2, 1.4145128e+2, -1528394.4, -1582582.1, -427.85886, 0.0026770239, 0.0024496366, -1528391.0, 25383.035, 0.0, 5.014941, 4.9796586 
1.4793108e+2, 1.4643113e+2, -1479021.5, -1533000.4, -539.1654, 0.0058362074, 0.0003993765, -1479016.1, 25955.674, 0.0, 5.0149693, 4.9798193 
1.4793181e+2, 1.5141092e+2, -1429893.0, -1483907.6, -513.56415, 0.00905812, -0.002555917, -1429888.0, 26282.107, 0.0, 5.014995, 4.9798207 
1.4793254e+2, 1.563907e+2, -1382193.5, -1437792.4, -488.53043, 0.012287795, -0.0050624884, -1382189.3, 25179.447, 0.0, 5.0150204, 4.9788265 
1.4793286e+2, 1.6136672e+2, -1341779.0, -1406792.1, -1092.4694, 0.014582179, -0.0011074416, -1341760.6, 16843.807, 0.0, 5.0150146, 4.972791 
1.4793223e+2, 1.6633981e+2, -1292867.5, -1357743.9, -1316.0443, 0.014757084, -0.0005238385, -1292840.8, 17028.572, 0.0, 5.0149384, 4.9728036 
1.4793156e+2, 1.7131294e+2, -1243979.1, -1308735.0, -1332.7498, 0.014846943, 0.00028167514, -1243951.6, 17182.258, 0.0, 5.014859, 4.972803 
1.4793088e+2, 1.7628607e+2, -1196225.8, -1262129.3, -1349.9502, 0.014930507, 0.0014857664, -1196198.1, 16200.396, 0.0, 5.0147796, 4.971996 
1.4793022e+2, 1.8125552e+2, -1155945.8, -1231415.3, -1310.6069, 0.014701608, 0.009106611, -1155923.0, 7775.77, 0.0, 5.0147033, 4.9658127 
1.4792953e+2, 1.8622139e+2, -1106655.1, -1181692.3, -1355.7946, 0.013836377, 0.0053000273, -1106630.6, 8402.387, 0.0, 5.014638, 4.9660206 
1.4792883e+2, 1.9118728e+2, -1057647.4, -1132581.9, -1399.9065, 0.012940732, 0.0011232289, -1057621.3, 8746.089, 0.0, 5.0145736, 4.9660225 
1.4792815e+2, 1.9615313e+2, -1009530.5, -1085387.1, -1443.3849, 0.012033163, -0.0027492032, -1009503.06, 8198.459, 0.0, 5.0145082, 4.965374 
1.4792737e+2, 2.0111556e+2, -969517.0, -1055634.0, -1787.6969, 0.011877704, 0.00202584, -969479.94, -410.405, 0.0, 5.014434, 4.9587784 
1.4792633e+2, 2.0607486e+2, -920180.1, -1005710.6, -1840.262, 0.013698392, 0.0020895526, -920140.56, 327.40692, 0.0, 5.014331, 4.9590487 
1.4792529e+2, 2.110342e+2, -871215.75, -956586.3, -1752.4899, 0.01562784, 0.0020198084, -871179.8, 686.2661, 0.0, 5.014226, 4.959049 
1.4792424e+2, 2.1599352e+2, -822916.06, -908915.44, -1664.6477, 0.017562117, 0.0020785888, -822883.9, 380.35403, 0.0, 5.014121, 4.95855 
1.479231e+2, 2.2094917e+2, -782535.4, -878718.94, -1920.7543, 0.019818127, 0.0073561072, -782497.06, -7799.4873, 0.0, 5.014036, 4.9520254 
1.4792168e+2, 2.2590066e+2, -732623.5, -827931.5, -2153.9314, 0.023234012, -0.005803866, -732574.9, -6406.1963, 0.0, 5.013997, 4.9525347 
1.4792024e+2, 2.3085213e+2, -683377.0, -778624.56, -2278.008, 0.026721817, -0.020134367, -683322.56, -5682.5605, 0.0, 5.01396, 4.9525404 
1.4791879e+2, 2.3580356e+2, -634780.06, -730765.3, -2398.7092, 0.030158214, -0.034693975, -634720.2, -5608.651, 0.0, 5.0139217, 4.9520445 
1.4791675e+2, 2.4075207e+2, -595675.44, -703929.44, -3074.3718, 0.03120587, -0.030527784, -595588.2, -14975.129, 0.0, 5.01386, 4.944229 
1.4791363e+2, 2.4569893e+2, -545714.25, -653226.3, -2954.0894, 0.025397101, -0.011824648, -545633.2, -13497.6, 0.0, 5.013842, 4.9446573 
1.4791049e+2, 2.50646e+2, -496274.22, -603841.6, -2841.5688, 0.019322207, 0.008181384, -496199.22, -12542.826, 0.0, 5.013835, 4.944647 
1.4790726e+2, 2.555932e+2, -447083.72, -555024.8, -2734.0088, 0.013425769, 0.029805968, -447014.53, -11838.781, 0.0, 5.0138226, 4.9444385 
1.4790477e+2, 2.6053545e+2, -405986.75, -524187.8, -3942.966, 0.019937014, 0.046772003, -405855.38, -19115.65, 0.0, 5.0137873, 4.937749 
1.4790295e+2, 2.6547062e+2, -353164.47, -465977.13, -6030.3105, 0.056749932, -0.024034332, -352843.03, -14486.333, 0.0, 5.013482, 4.940573 
1.4790045e+2, 2.704051e+2, -303415.72, -415461.0, -7361.6265, 0.09013197, -0.11575912, -302934.1, -12955.828, 0.0, 5.013138, 4.9409866 
1.478973e+2, 2.7533916e+2, -253597.38, -365211.63, -8537.268, 0.118021995, -0.22144006, -252948.14, -11343.243, 0.0, 5.0127783, 4.941353 
1.4790097e+2, 2.8027353e+2, -232658.52, -380030.72, 7154.5747, 0.12443181, -0.19917305, -232312.0, -39079.17, 0.0, 5.013452, 4.918815 
1.4790666e+2, 2.8521043e+2, -172738.39, -304208.47, -257.80426, 0.101875074, -0.06819806, -172737.89, -27876.727, 0.0, 5.0147667, 4.926957 
1.4790712e+2, 2.9014358e+2, -120879.2, -253567.11, -923.3889, 0.08276813, -0.012928931, -120872.77, -24343.441, 0.0, 5.0155826, 4.9268394 
1.4790685e+2, 2.9507548e+2, -68939.234, -203039.14, -1419.7947, 0.06079859, 0.026824502, -68924.21, -20714.305, 0.0, 5.016355, 4.926721 
1.479088e+2, 3.0001882e+2, -9595.439, -101282.484, 1301.3948, 0.060948472, 0.051440176, -9576.972, -9576.972, 0.0, 5.0171776, 4.953891 
1.4791654e+2, 3.04976e+2, 1068.6726, -78444.695, 1532.5759, 0.1338849, -0.015391455, 1098.2012, 1098.2012, 0.0, 5.0183578, 4.960061 
1.4792159e+2, 3.0994052e+2, 8797.806, -64729.008, -40.470913, 0.19411953, -0.081829436, 8797.828, 8797.828, 0.0, 5.0195785, 4.9639506 
1.4792405e+2, 3.1491166e+2, 17127.65, -51634.215, -879.26013, 0.23715128, -0.13172266, 17138.89, 17138.89, 0.0, 5.0207553, 4.9678464 
1.5293893e+2, 1.2151135e+2, -1710371.0, -1747945.0, 1465.3689, -0.013458801, 0.0048406883, -1710314.0, 38870.887, 0.0, 5.014525, 4.990039 
1.5294184e+2, 1.2649617e+2, -1667598.6, -1711891.8, 246.2607, 0.0018858344, -0.0072877486, -1667597.3, 32735.906, 0.0, 5.0145907, 4.985762 
1.5294294e+2, 1.3148175e+2, -1618225.0, -1662704.3, 169.65466, 0.0010363411, -0.009794598, -1618224.4, 33250.84, 0.0, 5.0147176, 4.985763 
1.5294406e+2, 1.3646732e+2, -1571063.3, -1618057.5, 91.95809, 0.00012156387, -0.011000595, -1571063.1, 31554.377, 0.0, 5.0148444, 4.98426 
1.5294507e+2, 1.4145014e+2, -1528389.3, -1582567.9, -392.3661, 0.00044904766, 0.002299197, -1528386.5, 25400.139, 0.0, 5.0149407, 4.9796634 
1.5294586e+2, 1.4643003e+2, -1478971.8, -1532895.1, -519.2977, 0.00385321, 0.00033397521, -1478966.8, 26016.965, 0.0, 5.0149693, 4.9798546 
1.5294665e+2, 1.5140986e+2, -1429843.6, -1483802.8, -492.99442, 0.007381237, -0.0025162052, -1429839.1, 26342.371, 0.0, 5.0149946, 4.9798555 
1.5294744e+2, 1.563897e+2, -1382144.5, -1437687.9, -467.26172, 0.010911129, -0.004918042, -1382140.5, 25238.713, 0.0, 5.0150204, 4.978862 
1.5294778e+2, 1.6136573e+2, -1341785.0, -1406803.3, -1136.8027, 0.013570915, -0.0007597884, -1341765.1, 16849.459, 0.0, 5.0150146, 4.9727874 
1.5294713e+2, 1.6633886e+2, -1292892.4, -1357796.0, -1377.6746, 0.0142263565, 0.00030988175, -1292863.1, 17015.98, 0.0, 5.0149384, 4.972786 
1.5294641e+2, 1.7131203e+2, -1244003.5, -1308787.1, -1393.2585, 0.014784679, 0.0016162144, -1243973.6, 17169.885, 0.0, 5.014859, 4.9727855 
1.5294571e+2, 1.762852e+2, -1196249.8, -1262181.4, -1409.3275, 0.0153227, 0.0033202223, -1196219.6, 16188.19, 0.0, 5.01478, 4.971978 
1.5294501e+2, 1.8125464e+2, -1156006.1, -1231547.0, -1363.7933, 0.015605941, 0.011162949, -1155981.5, 7726.82, 0.0, 5.0147038, 4.965768 
1.5294433e+2, 1.8622042e+2, -1106727.9, -1181846.5, -1402.8441, 0.0153287, 0.0070471363, -1106701.6, 8341.852, 0.0, 5.014638, 4.965968 
1.5294364e+2, 1.9118622e+2, -1057721.5, -1132735.0, -1444.968, 0.014993506, 0.0025624433, -1057693.6, 8685.093, 0.0, 5.0145726, 4.9659705 
1.5294293e+2, 1.96152e+2, -1009606.06, -1085539.1, -1486.451, 0.014622842, -0.0016061396, -1009576.94, 8136.9478, 0.0, 5.0145073, 4.9653225 
1.529421e+2, 2.0111439e+2, -969410.1, -1055398.8, -1861.6061, 0.014772994, 0.002646883, -969369.8, -287.44907, 0.0, 5.014433, 4.9588585 
1.5294094e+2, 2.0607369e+2, -920024.0, -1005370.4, -1921.879, 0.016417531, 0.0017290909, -919980.75, 499.32968, 0.0, 5.0143304, 4.959165 
1.5293977e+2, 2.1103303e+2, -871061.06, -956247.0, -1832.2249, 0.018135019, 0.00067938224, -871021.7, 855.6962, 0.0, 5.0142255, 4.9591656 
1.5293862e+2, 2.1599239e+2, -822762.75, -908577.06, -1742.4923, 0.01983901, -0.00023098648, -822727.4, 547.28796, 0.0, 5.0141206, 4.9586663 
1.5293734e+2, 2.209481e+2, -782640.25, -878938.9, -1963.3618, 0.02176532, 0.00524919, -782600.25, -7893.038, 0.0, 5.0140347, 4.95195 
1.5293582e+2, 2.2589985e+2, -732829.8, -828359.1, -2170.3428, 0.024522267, -0.004009096, -732780.5, -6603.0396, 0.0, 5.013994, 4.952388 
1.529343e+2, 2.3085155e+2, -683584.44, -779042.44, -2287.7686, 0.027286723, -0.014191579, -683529.6, -5881.7354, 0.0, 5.013955, 4.9523964 
1.5293275e+2, 2.3580323e+2, -634988.7, -731173.5, -2401.812, 0.029961387, -0.024628572, -634928.75, -5810.256, 0.0, 5.0139155, 4.951903 
1.5293078e+2, 2.4075174e+2, -595495.0, -703326.7, -3064.5112, 0.031663127, -0.020579841, -595408.0, -14787.132, 0.0, 5.013838, 4.944434 
1.5292802e+2, 2.4569789e+2, -545505.8, -652461.1, -2968.8643, 0.02993186, -0.011419302, -545423.5, -13275.791, 0.0, 5.013808, 4.94492 
1.5292522e+2, 2.5064427e+2, -496081.3, -603093.5, -2845.5376, 0.027951853, -0.0010299671, -496005.7, -12332.972, 0.0, 5.0137963, 4.944907 
1.5292233e+2, 2.5559077e+2, -446906.16, -554293.56, -2727.1692, 0.026046377, 0.011104057, -446836.97, -11640.777, 0.0, 5.013779, 4.9446955 
1.5292001e+2, 2.6053286e+2, -407252.97, -526352.44, -4113.318, 0.035244096, 0.026622387, -407111.1, -20350.012, 0.0, 5.013704, 4.9370184 
1.5291815e+2, 2.6546934e+2, -355732.94, -470306.7, -5925.7515, 0.06806213, -0.013114861, -355427.28, -17052.893, 0.0, 5.0133114, 4.939122 
1.5291561e+2, 2.7040535e+2, -306050.6, -419303.1, -6992.6646, 0.09586933, -0.070954435, -305620.47, -15629.464, 0.0, 5.012889, 4.93969 
1.5291241e+2, 2.7534103e+2, -256299.83, -368568.44, -7903.447, 0.117214076, -0.1433069, -255746.17, -14135.002, 0.0, 5.0124507, 4.940211 
1.5291603e+2, 2.8027472e+2, -229518.42, -371921.9, 5302.068, 0.1323429, -0.13496122, -229321.28, -36067.797, 0.0, 5.0133433, 4.9217625 
1.5292223e+2, 2.8520837e+2, -172204.33, -303363.16, -397.85284, 0.11675, -0.045867022, -172203.11, -27293.71, 0.0, 5.014912, 4.9274178 
1.529232e+2, 2.9013938e+2, -120171.625, -252144.66, -790.65704, 0.09072652, -0.008381096, -120166.89, -23574.201, 0.0, 5.015752, 4.9274387 
1.5292345e+2, 2.95069e+2, -68061.67, -201043.08, -1014.6142, 0.06038062, 0.010775074, -68053.93, -19764.455, 0.0, 5.0165477, 4.9274592 
1.5292563e+2, 3.0001253e+2, -8032.501, -96080.21, 1045.555, 0.052016288, 0.027923457, -8020.087, -8020.087, 0.0, 5.017187, 4.955788 
1.5293309e+2, 3.049713e+2, -3096.7168, -81693.54, 2286.6453, 0.10818709, -0.00056694174, -3030.2468, -3030.2468, 0.0, 5.0176773, 4.959414 
1.529379e+2, 3.099371e+2, 2763.96, -67804.125, 2051.2947, 0.14651917, -0.01602507, 2823.5374, 2823.5374, 0.0, 5.018246, 4.9635997 
1.5294005e+2, 3.149109e+2, 9231.616, -54533.31, 2548.8267, 0.16463254, -0.0017261289, 9333.336, 9333.336, 0.0, 5.018771, 4.9677916 
1.5795362e+2, 1.2151046e+2, -1709934.5, -1746968.4, 1034.3864, -0.012061988, 0.0043537053, -1709905.6, 39289.195, 0.0, 5.0145082, 4.990366 
1.5795702e+2, 1.2649566e+2, -1667734.1, -1712172.8, 315.57584, 0.0076279934, -0.003438332, -1667731.9, 32607.273, 0.0, 5.014594, 4.9856668 
1.5795794e+2, 1.31481e+2, -1618352.3, -1662982.8, 254.75887, 0.0037870726, -0.00745982, -1618350.9, 33132.918, 0.0, 5.014724, 4.9856668 
1.5795888e+2, 1.3646632e+2, -1571206.8, -1618345.5, 190.79944, -0.0001288474, -0.010180911, -1571205.9, 31422.617, 0.0, 5.014845, 4.9841633 
1.5795979e+2, 1.4144899e+2, -1528414.0, -1582575.8, -350.70886, -0.001744546, 0.002181335, -1528411.8, 25387.412, 0.0, 5.014932, 4.979665 
1.5796065e+2, 1.4642893e+2, -1478962.8, -1532811.4, -504.17804, 0.0019008713, 0.00029277566, -1478958.1, 26037.588, 0.0, 5.0149555, 4.9798884 
1.5796149e+2, 1.5140879e+2, -1429855.0, -1483729.5, -489.4297, 0.00572963, -0.0024653275, -1429850.5, 26342.18, 0.0, 5.0149746, 4.9798894 
1.579623e+2, 1.5638867e+2, -1382182.0, -1437627.9, -476.55905, 0.009555717, -0.004774392, -1382178.0, 25211.912, 0.0, 5.0149913, 4.978895 
1.5796271e+2, 1.6136475e+2, -1341895.5, -1406876.1, -1218.8046, 0.012563577, -0.00037576468, -1341872.8, 16751.889, 0.0, 5.0149817, 4.972779 
1.5796201e+2, 1.6633792e+2, -1292992.6, -1357882.9, -1471.5289, 0.013695356, 0.0011693313, -1292959.3, 16929.717, 0.0, 5.014913, 4.9727683 
1.5796128e+2, 1.7131111e+2, -1244092.1, -1308868.4, -1479.1791, 0.014728106, 0.0029487635, -1244058.4, 17094.682, 0.0, 5.0148377, 4.9727683 
1.5796052e+2, 1.7628431e+2, -1196339.3, -1262263.0, -1486.5149, 0.015732802, 0.0051239063, -1196305.8, 16111.427, 0.0, 5.0147576, 4.9719605 
1.579598e+2, 1.8125376e+2, -1156151.9, -1231725.4, -1428.0437, 0.01654132, 0.013224127, -1156124.9, 7592.9165, 0.0, 5.0146766, 4.96572 
1.5795912e+2, 1.8621945e+2, -1106913.6, -1182054.4, -1461.3313, 0.0168558, 0.008792946, -1106885.3, 8168.7456, 0.0, 5.0146, 4.965915 
1.5795842e+2, 1.9118516e+2, -1057956.3, -1132964.4, -1502.2628, 0.017093744, 0.003971538, -1057926.3, 8464.029, 0.0, 5.0145173, 4.965918 
1.579577e+2, 1.9615087e+2, -1009905.94, -1085797.5, -1543.5367, 0.017281938, -0.00052312756, -1009874.56, 7851.7856, 0.0, 5.014429, 4.96527 
1.5795685e+2, 2.011132e+2, -969589.75, -1055324.1, -1949.4535, 0.017780561, 0.0033161128, -969545.44, -450.18192, 0.0, 5.0143394, 4.958927 
1.5795557e+2, 2.0607252e+2, -920111.9, -1005145.7, -2024.9392, 0.019229505, 0.0014424232, -920063.6, 428.51822, 0.0, 5.0142465, 4.95928 
1.5795428e+2, 2.1103187e+2, -871131.0, -956014.0, -1940.6832, 0.02071021, -0.00061587774, -871086.6, 802.03125, 0.0, 5.014148, 4.9592805 
1.5795298e+2, 2.1599124e+2, -822828.25, -908342.06, -1856.6276, 0.022165671, -0.002524977, -822788.0, 497.1338, 0.0, 5.014045, 4.9587812 
1.5795158e+2, 2.2094703e+2, -782990.75, -879292.7, -2052.5232, 0.02376145, 0.0031666977, -782947.06, -8230.109, 0.0, 5.0139527, 4.9518657 
1.5794997e+2, 2.2589898e+2, -733356.44, -828938.7, -2250.8657, 0.0258556, -0.0023294312, -733303.5, -7117.0625, 0.0, 5.0138807, 4.952238 
1.5794834e+2, 2.3085095e+2, -684251.3, -779677.56, -2382.0334, 0.02791221, -0.00855093, -684191.9, -6535.839, 0.0, 5.013791, 4.952249 
1.579467e+2, 2.358029e+2, -635846.4, -731886.94, -2514.5098, 0.0298614, -0.015059822, -635780.56, -6654.769, 0.0, 5.013683, 4.951758 
1.579448e+2, 2.4075143e+2, -596233.44, -703270.4, -3212.9758, 0.03226443, -0.010223315, -596137.06, -15508.677, 0.0, 5.013518, 4.9445853 
1.579424e+2, 2.4569693e+2, -546313.3, -652181.94, -3212.8516, 0.034825563, -0.010181404, -546215.9, -14056.562, 0.0, 5.0134215, 4.945173 
1.5793994e+2, 2.5064254e+2, -497039.2, -602895.5, -3180.0715, 0.037202973, -0.009551571, -496943.75, -13255.015, 0.0, 5.0133595, 4.9451556 
1.5793741e+2, 2.5558835e+2, -447991.13, -554165.25, -3164.985, 0.039572597, -0.0070516067, -447896.84, -12680.395, 0.0, 5.013301, 4.9449406 
1.5793525e+2, 2.6053e+2, -410812.63, -530217.6, -5106.4185, 0.052005045, 0.005473404, -410594.66, -23809.191, 0.0, 5.0129437, 4.9359765 
1.5793315e+2, 2.6546735e+2, -364688.03, -477782.06, -7469.32, 0.08075454, -0.009188136, -364196.84, -25797.799, 0.0, 5.010913, 4.9374948 
1.5793042e+2, 2.7040455e+2, -321907.78, -429453.84, -9400.079, 0.1036126, -0.039501175, -321092.34, -31078.223, 0.0, 5.007968, 4.938184 
1.5792702e+2, 2.7534145e+2, -281227.47, -382327.25, -11525.988, 0.11994282, -0.08515439, -279930.1, -38298.234, 0.0, 5.004217, 4.9388275 
1.5793143e+2, 2.8027552e+2, -259683.7, -384559.66, -1821.7006, 0.15576372, -0.0670658, -259657.14, -66378.95, 0.0, 5.0024743, 4.922107 
1.5793878e+2, 2.8520703e+2, -193313.6, -311627.44, -4942.2793, 0.15007637, -0.001129738, -193107.5, -48156.87, 0.0, 5.007289, 4.927882 
1.5794024e+2, 2.9013583e+2, -132992.45, -256344.58, -4257.663, 0.1116284, 0.01342926, -132845.67, -36196.15, 0.0, 5.0110617, 4.928 
1.5794092e+2, 2.9506314e+2, -75652.61, -202552.69, -3698.787, 0.06856847, 0.006849406, -75544.89, -27181.564, 0.0, 5.0137086, 4.9281187 
1.5794337e+2, 3.000045e+2, -15981.79, -98795.87, -2468.996, 0.052609716, -0.0015671604, -15908.245, -15908.245, 0.0, 5.0144753, 4.955837 
1.5794985e+2, 3.0496168e+2, -26337.99, -93792.97, -1583.9102, 0.0981021, -0.034062985, -26300.818, -26300.818, 0.0, 5.010087, 4.958082 
1.5795352e+2, 3.0992675e+2, -41809.965, -88229.95, -2171.1677, 0.1213526, -0.039921377, -41708.633, -41708.633, 0.0, 5.00285, 4.962517 
1.579545e+2, 3.1490102e+2, -63506.34, -86159.766, -2169.7283, 0.12400457, -0.0052043144, -63300.4, -63300.4, 0.0, 4.9930944, 4.966962 
1.6296875e+2, 1.2150981e+2, -1708601.9, -1746744.8, 669.50195, -0.008629257, 0.008216124, -1708590.1, 40611.91, 0.0, 5.015048, 4.990172 
1.6297185e+2, 1.2649423e+2, -1666300.4, -1711474.8, 165.72491, 0.0074211643, -0.007071258, -1666299.8, 34054.367, 0.0, 5.015077, 4.9856567 
1.6297288e+2, 1.314798e+2, -1617235.6, -1662453.3, 191.52707, 0.0038369102, -0.008814095, -1617234.9, 34261.664, 0.0, 5.0151033, 4.9856544 
1.6297393e+2, 1.3646533e+2, -1570380.5, -1617970.3, 216.1704, 0.00035103306, -0.009287792, -1570379.5, 32259.607, 0.0, 5.015129, 4.984148 
1.629749e+2, 1.4144811e+2, -1527856.3, -1582393.6, -330.59875, -0.0010256135, 0.004520166, -1527854.3, 25954.19, 0.0, 5.015139, 4.9796243 
1.629757e+2, 1.4642796e+2, -1478546.3, -1532712.1, -583.99005, 0.0019967963, 0.0023525392, -1478540.0, 26465.951, 0.0, 5.015118, 4.9798427 
1.6297646e+2, 1.5140776e+2, -1429562.0, -1483695.6, -664.16364, 0.005168905, -0.00073613605, -1429553.9, 26650.006, 0.0, 5.0150957, 4.9798427 
1.6297722e+2, 1.5638755e+2, -1382006.0, -1437655.8, -745.18353, 0.008347689, -0.0033638421, -1381996.0, 25406.041, 0.0, 5.015074, 4.978847 
1.6297756e+2, 1.6136359e+2, -1341675.5, -1406770.4, -1556.1559, 0.011058254, 0.000756066, -1341638.4, 16999.01, 0.0, 5.0150557, 4.972779 
1.6297688e+2, 1.6633675e+2, -1292559.6, -1357636.8, -1783.0979, 0.012685061, 0.0020979452, -1292510.9, 17390.738, 0.0, 5.015052, 4.9727845 
1.6297616e+2, 1.7130993e+2, -1243448.0, -1308519.6, -1760.376, 0.014294744, 0.0036691867, -1243400.4, 17765.05, 0.0, 5.015048, 4.972785 
1.6297545e+2, 1.7628312e+2, -1195472.8, -1261807.0, -1738.086, 0.015930101, 0.0056267767, -1195427.3, 17002.117, 0.0, 5.0150447, 4.971978 
1.6297472e+2, 1.8125257e+2, -1155246.0, -1231329.6, -1693.2899, 0.01723918, 0.01367889, -1155208.3, 8521.575, 0.0, 5.0149937, 4.9657035 
1.6297391e+2, 1.8621828e+2, -1106265.5, -1181812.4, -1708.3998, 0.017649826, 0.009577839, -1106226.9, 8839.461, 0.0, 5.0148354, 4.9658856 
1.6297308e+2, 1.9118397e+2, -1057545.8, -1132839.4, -1718.8373, 0.018042542, 0.0050948816, -1057506.5, 8896.361, 0.0, 5.014672, 4.965888 
1.6297227e+2, 1.961497e+2, -1009715.06, -1085780.3, -1729.614, 0.018466895, 0.00093348563, -1009675.75, 8063.4927, 0.0, 5.0145087, 4.965239 
1.6297132e+2, 2.0111203e+2, -969357.9, -1055084.8, -2063.721, 0.019107614, 0.0048100143, -969308.25, -200.07648, 0.0, 5.0143924, 4.958983 
1.6296996e+2, 2.0607136e+2, -919551.1, -1004690.56, -2148.3618, 0.020084566, 0.0022238698, -919496.94, 1007.3852, 0.0, 5.0144014, 4.959363 
1.6296856e+2, 2.1103074e+2, -870244.56, -955409.5, -2098.6353, 0.02109019, -0.0005939101, -870192.9, 1707.1846, 0.0, 5.014417, 4.959363 
1.6296718e+2, 2.1599011e+2, -821604.9, -907583.9, -2049.2212, 0.02212273, -0.0032711935, -821556.06, 1739.7306, 0.0, 5.0144324, 4.9588633 
1.6296571e+2, 2.209459e+2, -781716.25, -878941.44, -2268.4539, 0.023451045, 0.0024147735, -781663.3, -6935.9556, 0.0, 5.0144424, 4.9517646 
1.6296405e+2, 2.2589794e+2, -732113.4, -828770.06, -2476.5283, 0.02557527, -0.00077461795, -732049.94, -5852.1445, 0.0, 5.0143914, 4.952068 
1.6296238e+2, 2.3084997e+2, -682929.75, -779485.25, -2610.687, 0.027849225, -0.0045844163, -682859.2, -5190.7026, 0.0, 5.014331, 4.9520755 
1.629607e+2, 2.3580195e+2, -634395.06, -731647.94, -2741.3933, 0.030200183, -0.008740965, -634317.9, -5178.3984, 0.0, 5.0142694, 4.951581 
1.6295888e+2, 2.4075049e+2, -594045.25, -702372.2, -3346.442, 0.0339262, -0.002861771, -593941.94, -13298.923, 0.0, 5.0142803, 4.9445686 
1.629569e+2, 2.456956e+2, -542933.94, -650677.56, -3472.767, 0.040251985, -0.0069199973, -542822.1, -10646.777, 0.0, 5.0145774, 4.9452024 
1.6295488e+2, 2.5064078e+2, -492603.3, -600968.8, -3542.4807, 0.04670811, -0.010959582, -492487.63, -8781.145, 0.0, 5.014897, 4.9451714 
1.629528e+2, 2.5558612e+2, -442527.7, -551833.94, -3609.5337, 0.05331865, -0.0131689, -442408.63, -7172.494, 0.0, 5.0152106, 4.944942 
1.6295092e+2, 2.6052722e+2, -404314.1, -529972.2, -5590.2153, 0.07041569, -0.0023288298, -404065.88, -17255.656, 0.0, 5.015638, 4.934942 
1.6294906e+2, 2.6546428e+2, -351982.4, -476365.0, -6246.616, 0.10931644, -0.0064573344, -351669.47, -13233.873, 0.0, 5.0159645, 4.935907 
1.6294678e+2, 2.7040085e+2, -300441.7, -425068.88, -5819.713, 0.15148509, -0.026499122, -300170.53, -10103.902, 0.0, 5.016205, 4.936308 
1.6294405e+2, 2.7533668e+2, -248850.06, -374045.5, -5199.876, 0.19616486, -0.06375954, -248634.47, -6929.398, 0.0, 5.0164237, 4.9366612 
1.6294886e+2, 2.8027004e+2, -220648.61, -368170.8, 5125.8228, 0.27830133, -0.033818934, -220470.73, -27105.217, 0.0, 5.0165796, 4.921497 
1.6295582e+2, 2.8520215e+2, -167861.13, -295538.3, 4943.7, 0.25218752, 0.024991015, -167669.98, -22642.344, 0.0, 5.015759, 4.9293537 
1.6295694e+2, 2.9013112e+2, -120862.19, -247132.9, 4436.221, 0.17598979, 0.02281274, -120706.52, -23987.363, 0.0, 5.0147347, 4.9292183 
1.6295744e+2, 2.9505837e+2, -73722.86, -198826.73, 4351.932, 0.10560769, -0.00078251294, -73571.66, -25144.068, 0.0, 5.0136395, 4.929083 
1.6295941e+2, 2.9999888e+2, -20826.826, -103968.055, 4441.415, 0.07830713, -0.025912963, -20590.238, -20578.402, 0.0, 5.012535, 4.954535 
1.6296329e+2, 3.0495813e+2, -23669.25, -98710.79, 7658.606, 0.14090446, -0.03882133, -22895.604, -22895.604, 0.0, 5.010746, 4.955765 
1.6296464e+2, 3.0992463e+2, -24882.098, -88913.29, 9810.374, 0.20823687, -0.03117407, -23412.744, -23412.744, 0.0, 5.0086284, 4.959482 
1.6296403e+2, 3.1489787e+2, -25654.404, -79554.6, 11698.94, 0.2835724, -0.0031263009, -23224.697, -23224.697, 0.0, 5.006416, 4.9632063 
1.6798417e+2, 1.2150937e+2, -1709451.3, -1748473.1, 685.6199, -0.005018647, 0.015392656, -1709439.3, 39767.66, 0.0, 5.0150476, 4.9896054 
1.6798644e+2, 1.2649217e+2, -1666239.9, -1711361.4, 183.50334, 0.0023616652, -0.0157478, -1666239.1, 34136.094, 0.0, 5.015078, 4.985695 
1.679878e+2, 1.3147826e+2, -1617175.0, -1662339.8, 210.95128, 0.0017684468, -0.012637591, -1617174.0, 34338.14, 0.0, 5.0151043, 4.9856925 
1.6798915e+2, 1.3646433e+2, -1570319.6, -1617856.4, 237.2405, 0.0012498195, -0.008257624, -1570318.5, 32330.857, 0.0, 5.01513, 4.984186 
1.6799031e+2, 1.4144741e+2, -1527959.9, -1582606.9, -343.8636, 0.0015362884, 0.008673965, -1527957.8, 25857.814, 0.0, 5.0151386, 4.9795537 
1.6799094e+2, 1.4642711e+2, -1478692.3, -1533011.6, -601.1099, 0.003324401, 0.0059340554, -1478685.6, 26329.348, 0.0, 5.0151176, 4.979744 
1.6799155e+2, 1.5140674e+2, -1429707.1, -1483994.6, -680.5339, 0.005145013, 0.0021515777, -1429698.6, 26516.484, 0.0, 5.0150957, 4.979743 
1.6799216e+2, 1.5638636e+2, -1382150.1, -1437954.3, -760.7993, 0.006963758, -0.001169234, -1382139.8, 25275.543, 0.0, 5.0150733, 4.978748 
1.679924e+2, 1.6136226e+2, -1341669.5, -1406755.8, -1564.8295, 0.008908087, 0.002249361, -1341631.9, 17020.23, 0.0, 5.015055, 4.972784 
1.6799177e+2, 1.6633539e+2, -1292512.8, -1357537.0, -1786.1884, 0.01108147, 0.0029744909, -1292463.8, 17452.393, 0.0, 5.0150514, 4.9728184 
1.6799112e+2, 1.7130856e+2, -1243401.5, -1308420.6, -1762.4866, 0.013271081, 0.003942651, -1243353.8, 17825.963, 0.0, 5.015048, 4.972819 
1.6799045e+2, 1.7628172e+2, -1195426.8, -1261708.6, -1739.2164, 0.015472202, 0.005297841, -1195381.1, 17062.305, 0.0, 5.015044, 4.9720116 
1.679897e+2, 1.8125115e+2, -1155240.1, -1231315.3, -1789.0638, 0.017038446, 0.013182335, -1155198.0, 8545.64, 0.0, 5.014993, 4.9657087 
1.6798869e+2, 1.8621695e+2, -1106276.8, -1181834.4, -1831.0518, 0.017006097, 0.009891268, -1106232.4, 8847.391, 0.0, 5.014835, 4.965879 
1.6798766e+2, 1.9118273e+2, -1057557.3, -1132861.8, -1840.0872, 0.016911728, 0.0062554325, -1057512.4, 8903.741, 0.0, 5.0146713, 4.965881 
1.6798663e+2, 1.9614853e+2, -1009726.9, -1085802.8, -1849.4441, 0.0168328, 0.002940954, -1009681.94, 8070.2456, 0.0, 5.0145082, 4.9652324 
1.6798551e+2, 2.0111091e+2, -969290.75, -1054930.5, -2093.2314, 0.017067086, 0.007193568, -969239.6, -118.88551, 0.0, 5.014391, 4.959036 
1.6798413e+2, 2.0607024e+2, -919464.56, -1004493.8, -2139.0022, 0.017711893, 0.0039375345, -919410.8, 1105.479, 0.0, 5.0144, 4.9594307 
1.6798273e+2, 2.1102962e+2, -870157.75, -955213.1, -2087.2754, 0.018345842, 0.00040322897, -870106.56, 1804.8218, 0.0, 5.014416, 4.9594307 
1.6798133e+2, 2.1598898e+2, -821517.75, -907387.8, -2035.8623, 0.018983215, -0.0030029565, -821469.5, 1836.9446, 0.0, 5.0144315, 4.958931 
1.6797984e+2, 2.2094475e+2, -781857.25, -879235.9, -2287.3894, 0.020092262, 0.0025079676, -781803.56, -7065.521, 0.0, 5.0144405, 4.9516635 
1.6797815e+2, 2.2589679e+2, -732349.06, -829251.06, -2509.258, 0.022434887, 0.0008148141, -732284.1, -6073.9463, 0.0, 5.014385, 4.9519033 
1.6797645e+2, 2.3084883e+2, -683174.06, -779963.6, -2636.0598, 0.024899999, -0.0013340407, -683102.3, -5419.676, 0.0, 5.0143213, 4.951913 
1.6797474e+2, 2.3580085e+2, -634647.94, -732123.8, -2759.401, 0.027396137, -0.0037793545, -634569.94, -5414.659, 0.0, 5.014256, 4.9514203 
1.6797306e+2, 2.4074942e+2, -594246.75, -702594.3, -3144.7144, 0.031399243, 0.0039080386, -594155.5, -13496.223, 0.0, 5.014242, 4.944508 
1.6797143e+2, 2.4569441e+2, -543039.6, -650674.94, -3225.0, 0.038951375, -0.0013141586, -542943.1, -10752.531, 0.0, 5.0145364, 4.945222 
1.6796981e+2, 2.5063944e+2, -492677.75, -600942.4, -3285.9575, 0.04669623, -0.0073118857, -492578.1, -8857.101, 0.0, 5.014866, 4.945193 
1.679681e+2, 2.5558457e+2, -442571.1, -551783.9, -3344.264, 0.054535795, -0.011668729, -442468.78, -7218.694, 0.0, 5.0151896, 4.9449654 
1.679664e+2, 2.6052532e+2, -404696.4, -530633.5, -5194.379, 0.07003868, -0.0026265793, -404482.5, -17655.11, 0.0, 5.0155997, 4.934708 
1.6796425e+2, 2.6546293e+2, -352290.72, -475912.9, -5520.049, 0.09597107, -0.0051448937, -352044.72, -13588.426, 0.0, 5.015778, 4.936091 
1.6796163e+2, 2.7040058e+2, -301246.78, -424639.0, -4828.5703, 0.122802116, -0.019975299, -301058.1, -10971.57, 0.0, 5.0158615, 4.936549 
1.6795848e+2, 2.753378e+2, -250149.58, -373635.7, -3944.1936, 0.15086734, -0.048827, -250023.72, -8302.555, 0.0, 5.015923, 4.9369597 
1.6796237e+2, 2.8027394e+2, -220920.0, -372417.44, 2165.062, 0.23385765, 0.016185267, -220889.06, -27527.492, 0.0, 5.0170264, 4.920005 
1.6796878e+2, 2.8520662e+2, -162219.33, -291869.94, 3405.7598, 0.22252727, 0.0754524, -162129.92, -17115.701, 0.0, 5.016873, 4.9305453 
1.6796973e+2, 2.901348e+2, -115866.586, -243073.06, 3257.6138, 0.14987823, 0.047668494, -115783.22, -19075.65, 0.0, 5.015622, 4.930608 
1.6797e+2, 2.9506153e+2, -69373.734, -194374.44, 3531.8594, 0.08114319, -0.000047499037, -69274.02, -20858.877, 0.0, 5.0143003, 4.93067 
1.6797118e+2, 3.0000162e+2, -18209.072, -101879.78, 3532.2224, 0.05085387, -0.041127663, -18060.223, -18059.975, 0.0, 5.0130134, 4.955328 
1.6797112e+2, 3.0497226e+2, -18756.574, -91242.81, 7403.1147, 0.0828814, 0.023734983, -18008.209, -18008.209, 0.0, 5.011185, 4.9583864 
1.6796777e+2, 3.099536e+2, -20637.326, -83406.305, 10685.924, 0.1086662, 0.13779643, -18868.006, -18868.006, 0.0, 5.0090604, 4.9615784 
1.6796227e+2, 3.149416e+2, -22079.508, -76004.51, 13707.026, 0.13653322, 0.28002438, -18795.371, -18795.371, 0.0, 5.00684, 4.964778 
1.7299964e+2, 1.2150889e+2, -1710244.6, -1750085.9, 707.1782, -0.0011393559, 0.02222669, -1710232.0, 38980.11, 0.0, 5.015047, 4.9890766 
1.7300102e+2, 1.2649013e+2, -1666180.0, -1711247.5, 201.1643, -0.0026702862, -0.024369504, -1666179.1, 34217.184, 0.0, 5.0150785, 4.985733 
1.730027e+2, 1.3147675e+2, -1617115.0, -1662225.6, 230.25792, -0.00027860134, -0.0164252, -1617113.8, 34413.98, 0.0, 5.015105, 4.9857306 
1.7300437e+2, 1.3646331e+2, -1570259.4, -1617742.1, 258.19293, 0.0021638898, -0.007210516, -1570258.0, 32401.479, 0.0, 5.015131, 4.9842243 
1.730057e+2, 1.4144671e+2, -1528068.4, -1582829.5, -357.96417, 0.004097302, 0.012853488, -1528066.0, 25756.617, 0.0, 5.0151386, 4.9794803 
1.7300619e+2, 1.4642628e+2, -1478838.5, -1533311.1, -618.0927, 0.0046500457, 0.00953575, -1478831.5, 26192.484, 0.0, 5.015117, 4.979645 
1.7300665e+2, 1.5140574e+2, -1429852.5, -1484293.5, -696.76685, 0.0051213275, 0.005047025, -1429843.5, 26382.709, 0.0, 5.015095, 4.979644 
1.730071e+2, 1.5638518e+2, -1382294.5, -1438252.6, -776.27783, 0.0055821994, 0.0010206632, -1382283.8, 25144.797, 0.0, 5.015073, 4.978648 
1.7300725e+2, 1.6136095e+2, -1341667.0, -1406748.1, -1573.2944, 0.0067575667, 0.003753472, -1341629.0, 17037.852, 0.0, 5.0150547, 4.9727864 
1.7300668e+2, 1.6633405e+2, -1292466.3, -1357437.0, -1789.1893, 0.009478853, 0.0038578834, -1292417.0, 17513.701, 0.0, 5.015051, 4.972852 
1.7300607e+2, 1.7130718e+2, -1243355.5, -1308321.3, -1764.5078, 0.012251073, 0.004210258, -1243307.6, 17886.535, 0.0, 5.0150476, 4.972852 
1.7300546e+2, 1.7628032e+2, -1195381.0, -1261610.0, -1740.2573, 0.015020635, 0.004950345, -1195335.4, 17122.156, 0.0, 5.0150437, 4.972045 
1.7300469e+2, 1.8124977e+2, -1155237.6, -1231307.6, -1884.7522, 0.016843047, 0.012708663, -1155191.0, 8566.463, 0.0, 5.014993, 4.965711 
1.7300346e+2, 1.8621564e+2, -1106288.5, -1181856.1, -1953.5933, 0.016370334, 0.01022454, -1106238.0, 8855.266, 0.0, 5.0148344, 4.965872 
1.7300223e+2, 1.9118148e+2, -1057569.3, -1132883.8, -1961.2266, 0.015792957, 0.007412443, -1057518.3, 8911.069, 0.0, 5.014671, 4.9658732 
1.7300099e+2, 1.9614737e+2, -1009739.1, -1085825.0, -1969.1637, 0.015214825, 0.0049215006, -1009688.2, 8076.945, 0.0, 5.0145073, 4.9652247 
1.7299971e+2, 2.011098e+2, -969237.44, -1054805.3, -2123.407, 0.015015568, 0.009630286, -969184.75, -51.49757, 0.0, 5.0143895, 4.959079 
1.7299831e+2, 2.0606914e+2, -919378.56, -1004296.7, -2129.621, 0.015324223, 0.0057107303, -919325.2, 1203.0077, 0.0, 5.0143986, 4.959498 
1.729969e+2, 2.1102849e+2, -870071.44, -955016.3, -2075.8938, 0.015593823, 0.0014244299, -870020.7, 1901.9102, 0.0, 5.014415, 4.959498 
1.7299545e+2, 2.1598786e+2, -821431.1, -907191.4, -2022.4819, 0.01584336, -0.0027461248, -821383.44, 1933.626, 0.0, 5.014431, 4.958998 
1.7299396e+2, 2.2094361e+2, -782005.44, -879543.7, -2307.9338, 0.016738025, 0.0026184367, -781950.9, -7202.1855, 0.0, 5.0144386, 4.951557 
1.7299224e+2, 2.2589566e+2, -732586.3, -829731.0, -2544.2397, 0.019299183, 0.0023020501, -732519.75, -6297.159, 0.0, 5.0143795, 4.9517374 
1.7299053e+2, 2.308477e+2, -683419.9, -780441.0, -2663.6838, 0.021955602, 0.0016469656, -683346.8, -5649.99, 0.0, 5.014312, 4.9517484 
1.7298879e+2, 2.3579973e+2, -634902.4, -732598.7, -2779.659, 0.024597067, 0.0007457277, -634823.4, -5652.19, 0.0, 5.014243, 4.9512577 
1.7298716e+2, 2.4074839e+2, -594529.56, -702983.0, -2983.4578, 0.028887436, 0.0111447945, -594447.56, -13772.392, 0.0, 5.014204, 4.944388 
1.7298594e+2, 2.456933e+2, -543153.75, -650664.2, -2984.0095, 0.03767337, 0.0051116827, -543071.0, -10865.829, 0.0, 5.014496, 4.94524 
1.729847e+2, 2.5063813e+2, -492760.56, -600907.75, -3036.21, 0.046711754, -0.0030556, -492675.38, -8940.382, 0.0, 5.014835, 4.945213 
1.7298341e+2, 2.5558308e+2, -442622.88, -551725.7, -3085.769, 0.05578512, -0.009771442, -442535.66, -7272.0054, 0.0, 5.015169, 4.944988 
1.7298198e+2, 2.6052326e+2, -405304.3, -531736.94, -4839.949, 0.07046684, -0.0039348793, -405119.28, -18272.754, 0.0, 5.015562, 4.9342856 
1.7297941e+2, 2.6546112e+2, -352637.3, -475435.78, -4892.451, 0.08418416, -0.010303372, -352442.7, -13961.233, 0.0, 5.015592, 4.9361963 
1.7297623e+2, 2.703997e+2, -302089.3, -424183.3, -3936.309, 0.096156456, -0.025567884, -301962.53, -11849.897, 0.0, 5.0155177, 4.936712 
1.7297247e+2, 2.753381e+2, -251485.86, -373199.22, -2787.2966, 0.108085446, -0.051653158, -251422.06, -9676.875, 0.0, 5.0154223, 4.9371796 
1.7297639e+2, 2.8027818e+2, -224590.16, -384477.53, 844.4926, 0.19112673, 0.07230493, -224585.69, -31230.908, 0.0, 5.017476, 4.9157605 
1.7298281e+2, 2.8521216e+2, -156697.14, -288097.13, 1530.4063, 0.19247946, 0.14835475, -156679.33, -11689.428, 0.0, 5.017987, 4.9316645 
1.7298323e+2, 2.9013935e+2, -110989.28, -238908.67, 1741.004, 0.12225527, 0.087947145, -110965.586, -14278.3, 0.0, 5.0165095, 4.9319243 
1.7298293e+2, 2.9506534e+2, -65141.676, -189817.33, 2373.1252, 0.054042675, 0.009093004, -65096.52, -16700.273, 0.0, 5.0149617, 4.9321837 
1.7298329e+2, 3.000038e+2, -16905.44, -102466.516, 2871.1833, 0.022111459, -0.05821062, -16809.2, -16809.2, 0.0, 5.013492, 4.9550443 
1.7298019e+2, 3.0498436e+2, -13993.727, -83649.14, 7824.4497, 0.035997577, 0.059975214, -13125.619, -13125.619, 0.0, 5.0116253, 4.9607224 
1.7297311e+2, 3.0997956e+2, -16544.371, -77770.914, 12240.467, 0.03422894, 0.25230286, -14187.938, -14187.938, 0.0, 5.0094934, 4.9633884 
1.7296363e+2, 3.1498122e+2, -18659.418, -72323.875, 16397.768, 0.028589135, 0.4806207, -14045.577, -14045.577, 0.0, 5.0072656, 4.9660616 
1.7801511e+2, 1.2150836e+2, -1711004.9, -1751591.5, 744.2378, 0.003011334, 0.028644081, -1710991.3, 38226.68, 0.0, 5.0150385, 4.9885874 
1.780156e+2, 1.264881e+2, -1666078.9, -1711114.4, 210.01187, -0.0076079937, -0.032846037, -1666077.9, 34339.383, 0.0, 5.0150943, 4.9857697 
1.780176e+2, 1.3147523e+2, -1616999.3, -1662084.9, 226.38132, -0.0022753878, -0.020130554, -1616998.1, 34545.16, 0.0, 5.015125, 4.985768 
1.7801961e+2, 1.3646232e+2, -1570161.0, -1617609.1, 244.26607, 0.0030926873, -0.006147016, -1570159.6, 32509.973, 0.0, 5.0151453, 4.984262 
1.780211e+2, 1.4144601e+2, -1528174.0, -1583057.4, -411.7866, 0.006643974, 0.01702667, -1528170.9, 25658.902, 0.0, 5.015141, 4.979404 
1.7802146e+2, 1.4642541e+2, -1478988.0, -1533611.4, -669.948, 0.0059705814, 0.013131312, -1478979.8, 26053.342, 0.0, 5.0151157, 4.9795456 
1.7802174e+2, 1.5140471e+2, -1430015.3, -1484600.3, -743.6631, 0.0051098694, 0.007927766, -1430005.1, 26232.25, 0.0, 5.0150886, 4.9795446 
1.7802204e+2, 1.5638399e+2, -1382475.5, -1438568.1, -817.8043, 0.0042343913, 0.0031839733, -1382463.6, 24978.31, 0.0, 5.0150604, 4.9785485 
1.780221e+2, 1.6135964e+2, -1341720.9, -1406772.8, -1603.783, 0.0046491274, 0.0052465717, -1341681.4, 17000.129, 0.0, 5.0150366, 4.972787 
1.7802158e+2, 1.6633269e+2, -1292477.5, -1357364.5, -1815.8829, 0.007906388, 0.004734582, -1292426.8, 17518.47, 0.0, 5.015031, 4.9728856 
1.7802103e+2, 1.713058e+2, -1243380.4, -1308255.6, -1791.8392, 0.011253718, 0.0044682003, -1243330.9, 17877.58, 0.0, 5.015023, 4.9728856 
1.7802046e+2, 1.7627892e+2, -1195428.9, -1261555.3, -1767.7651, 0.014588338, 0.00459116, -1195381.6, 17090.037, 0.0, 5.015012, 4.9720783 
1.7801967e+2, 1.8124838e+2, -1155345.6, -1231358.4, -2008.1605, 0.016662138, 0.012272814, -1155292.6, 8478.641, 0.0, 5.0149565, 4.965711 
1.7801824e+2, 1.8621433e+2, -1106387.5, -1181920.9, -2110.0725, 0.015748462, 0.010595562, -1106328.5, 8778.24, 0.0, 5.0148044, 4.965863 
1.780168e+2, 1.9118026e+2, -1057662.0, -1132946.0, -2124.4685, 0.014695222, 0.008584626, -1057602.1, 8840.34, 0.0, 5.014643, 4.965865 
1.7801535e+2, 1.9614619e+2, -1009841.75, -1085892.5, -2140.677, 0.013631441, 0.006892337, -1009781.56, 7996.5195, 0.0, 5.0144763, 4.965216 
1.780139e+2, 2.011087e+2, -969311.1, -1054763.0, -2212.0203, 0.012983402, 0.0121293245, -969253.9, -108.03571, 0.0, 5.014349, 4.9591117 
1.7801246e+2, 2.0606802e+2, -919446.94, -1004171.6, -2175.8323, 0.012962059, 0.0075423922, -919391.1, 1149.0159, 0.0, 5.0143437, 4.959565 
1.7801103e+2, 2.1102737e+2, -870197.0, -954918.0, -2117.6543, 0.012893684, 0.0024622981, -870144.1, 1789.8412, 0.0, 5.01434, 4.959565 
1.7800958e+2, 2.1598673e+2, -821629.56, -907126.8, -2059.3733, 0.012790792, -0.0025111109, -821580.0, 1747.7737, 0.0, 5.0143304, 4.9590654 
1.7800806e+2, 2.2094247e+2, -782516.7, -880034.2, -2378.0881, 0.013505146, 0.002732008, -782458.75, -7699.3135, 0.0, 5.0143123, 4.951444 
1.7800635e+2, 2.258945e+2, -733227.5, -830406.1, -2645.7278, 0.016303742, 0.0036689816, -733155.56, -6920.4375, 0.0, 5.0142336, 4.951567 
1.7800458e+2, 2.3084654e+2, -684149.7, -781152.8, -2788.1804, 0.019186083, 0.004349614, -684069.56, -6358.3643, 0.0, 5.0141344, 4.9515786 
1.780028e+2, 2.3579857e+2, -635757.44, -733363.25, -2939.8406, 0.022024449, 0.0048476118, -635669.0, -6481.5547, 0.0, 5.014021, 4.9510884 
1.7800124e+2, 2.407474e+2, -595626.0, -703894.56, -3047.2007, 0.026671112, 0.01888394, -595540.3, -14849.532, 0.0, 5.0139084, 4.944204 
1.780004e+2, 2.4569222e+2, -544190.3, -651083.44, -2974.6973, 0.036748294, 0.012420289, -544107.6, -11888.247, 0.0, 5.0141296, 4.9452543 
1.779996e+2, 2.5063685e+2, -494020.13, -601412.4, -3048.5127, 0.047160253, 0.0018375702, -493933.66, -10184.863, 0.0, 5.0143867, 4.945231 
1.7799872e+2, 2.555816e+2, -444168.78, -552343.3, -3107.6472, 0.057574846, -0.0075552245, -444079.6, -8802.286, 0.0, 5.0146146, 4.945009 
1.7799765e+2, 2.6052088e+2, -408378.7, -534480.3, -5016.47, 0.07247459, -0.006347741, -408179.44, -21311.102, 0.0, 5.0147495, 4.933607 
1.7799453e+2, 2.6545867e+2, -357863.72, -477598.97, -6353.544, 0.075844765, -0.021409906, -357527.53, -19014.668, 0.0, 5.013737, 4.9360447 
1.7799063e+2, 2.7039775e+2, -311499.44, -428171.0, -7465.0376, 0.075033605, -0.042033657, -311023.75, -20875.156, 0.0, 5.0121984, 4.936555 
1.7798612e+2, 2.7533695e+2, -266065.16, -379401.66, -9123.238, 0.07329787, -0.07023148, -265335.47, -23552.045, 0.0, 5.010278, 4.9370203 
1.7799103e+2, 2.8028175e+2, -248416.28, -411531.6, -8442.506, 0.15699326, 0.13643047, -247980.47, -54626.195, 0.0, 5.011892, 4.9088173 
1.7799802e+2, 2.8521806e+2, -162496.67, -288341.22, -7362.2134, 0.16684583, 0.24399607, -162067.44, -17105.1, 0.0, 5.0149245, 4.9329205 
1.7799756e+2, 2.9014426e+2, -112739.96, -237045.25, -4591.297, 0.096116066, 0.14375085, -112570.61, -15907.093, 0.0, 5.0149393, 4.9332843 
1.7799632e+2, 2.9506955e+2, -64816.047, -186689.55, -2308.2551, 0.026213415, 0.027778037, -64772.344, -16398.91, 0.0, 5.014177, 4.9336524 
1.7799583e+2, 3.0000544e+2, -20383.629, -107863.56, -885.64734, -0.0062815817, -0.073772766, -20374.662, -20374.662, 0.0, 5.01274, 4.953432 
1.7799065e+2, 3.0499402e+2, -16969.164, -80579.625, 1474.3861, 0.0036513717, 0.07290532, -16935.008, -16935.008, 0.0, 5.009414, 4.9622045 
1.7798088e+2, 3.100008e+2, -27633.615, -79985.22, 2248.9248, -0.008292969, 0.3087293, -27537.184, -27537.184, 0.0, 5.0045643, 4.964234 
1.7796855e+2, 3.150134e+2, -41042.42, -81083.16, 2540.4243, -0.028781636, 0.58259076, -40881.887, -40881.887, 0.0, 4.9984813, 4.966274 
1.8303056e+2, 1.21507004e+2, -1709587.6, -1751612.9, 690.35144, 0.0038452651, 0.02894142, -1709576.4, 39655.887, 0.0, 5.01566, 4.9882784 
1.830311e+2, 1.2648697e+2, -1664339.0, -1710254.0, -135.6621, -0.0067602107, -0.02984044, -1664338.6, 36091.035, 0.0, 5.0156693, 4.985774 
1.8303303e+2, 1.31474e+2, -1615528.1, -1661353.8, -152.33855, -0.0018965304, -0.01808105, -1615527.6, 36028.777, 0.0, 5.015612, 4.985774 
1.8303497e+2, 1.36461e+2, -1568924.6, -1616989.5, -170.29066, 0.0030592033, -0.00508026, -1568924.0, 33759.34, 0.0, 5.0155544, 4.9842696 
1.8303639e+2, 1.4144461e+2, -1527198.4, -1582689.8, -848.35187, 0.006276253, 0.017482327, -1527185.5, 26658.62, 0.0, 5.0154905, 4.979357 
1.8303667e+2, 1.4642397e+2, -1478150.5, -1533339.0, -1058.1023, 0.0053769853, 0.013747972, -1478130.3, 26917.56, 0.0, 5.015425, 4.9794865 
1.830369e+2, 1.5140323e+2, -1429292.5, -1484384.8, -1084.9882, 0.004325807, 0.008701212, -1429271.1, 26981.46, 0.0, 5.0153604, 4.979486 
1.8303713e+2, 1.5638246e+2, -1381861.8, -1438406.4, -1112.4077, 0.0032911892, 0.004088177, -1381839.9, 25617.75, 0.0, 5.015295, 4.9784904 
1.8303713e+2, 1.6135806e+2, -1341152.4, -1406490.3, -1861.9487, 0.003541455, 0.006042095, -1341099.4, 17598.303, 0.0, 5.0152264, 4.9727902 
1.8303654e+2, 1.6633108e+2, -1292060.8, -1357124.3, -2088.6072, 0.0065753832, 0.005076287, -1291993.9, 17967.627, 0.0, 5.0151634, 4.972903 
1.8303593e+2, 1.7130417e+2, -1243123.3, -1308091.4, -2090.1724, 0.009722938, 0.004368221, -1243056.1, 18168.637, 0.0, 5.0151014, 4.9729033 
1.8303531e+2, 1.7627725e+2, -1195320.9, -1261461.6, -2092.4304, 0.012884947, 0.0040625217, -1195254.8, 17233.172, 0.0, 5.0150394, 4.972096 
1.8303442e+2, 1.8124673e+2, -1155298.1, -1231318.1, -2389.9287, 0.014754011, 0.011718914, -1155223.0, 8564.325, 0.0, 5.014969, 4.9657183 
1.8303287e+2, 1.8621276e+2, -1106147.6, -1181812.0, -2485.492, 0.013551444, 0.010941624, -1106066.0, 9056.276, 0.0, 5.0148864, 4.9658613 
1.8303128e+2, 1.9117878e+2, -1057192.4, -1132733.1, -2480.5784, 0.0122489175, 0.009857987, -1057111.0, 9346.362, 0.0, 5.014804, 4.9658613 
1.830297e+2, 1.961448e+2, -1009127.8, -1085569.6, -2475.5154, 0.010979104, 0.009080476, -1009047.7, 8744.742, 0.0, 5.014721, 4.9652114 
1.8302812e+2, 2.0110735e+2, -968453.0, -1054272.6, -2500.7505, 0.010140487, 0.014643908, -968380.2, 779.7124, 0.0, 5.014621, 4.9591517 
1.830266e+2, 2.0606664e+2, -918989.06, -1003829.8, -2470.8108, 0.010140165, 0.009028866, -918917.1, 1637.227, 0.0, 5.0144687, 4.9596233 
1.8302509e+2, 2.1102594e+2, -870176.0, -954779.0, -2434.5417, 0.010192461, 0.0029004656, -870106.0, 1842.3408, 0.0, 5.0143127, 4.9596243 
1.8302356e+2, 2.1598525e+2, -822026.44, -907180.25, -2398.1357, 0.010277459, -0.00308686, -821959.0, 1383.2784, 0.0, 5.014157, 4.9591255 
1.8302199e+2, 2.2094102e+2, -783209.6, -880307.25, -2617.8606, 0.0111727, 0.0017741884, -783139.06, -8365.414, 0.0, 5.0140505, 4.951469 
1.830202e+2, 2.2589314e+2, -733801.25, -830700.44, -2626.54, 0.013929775, 0.003630492, -733730.1, -7481.288, 0.0, 5.0140233, 4.9515615 
1.830184e+2, 2.3084529e+2, -684523.0, -781382.44, -2494.0842, 0.01684431, 0.005410455, -684458.8, -6734.3667, 0.0, 5.013994, 4.9515634 
1.8301657e+2, 2.3579742e+2, -635895.9, -733511.56, -2360.0786, 0.019820414, 0.007166319, -635838.9, -6638.759, 0.0, 5.0139637, 4.9510636 
1.8301497e+2, 2.407464e+2, -595411.0, -704140.2, -1999.146, 0.024223492, 0.023395153, -595374.25, -14671.715, 0.0, 5.0139985, 4.9441004 
1.8301435e+2, 2.4569118e+2, -543056.56, -650728.3, -1748.9966, 0.032889232, 0.016783763, -543028.1, -10796.65, 0.0, 5.014486, 4.9452415 
1.8301378e+2, 2.5063562e+2, -492029.44, -600612.0, -1832.0459, 0.042008422, 0.004573579, -491998.53, -8236.188, 0.0, 5.015022, 4.945235 
1.8301313e+2, 2.5558013e+2, -441263.34, -551074.56, -1908.8712, 0.051314004, -0.0071804775, -441230.2, -5937.377, 0.0, 5.015546, 4.9450297 
1.8301247e+2, 2.6051897e+2, -404696.13, -534563.7, -3299.4436, 0.066516854, -0.007874946, -404612.34, -17723.348, 0.0, 5.016214, 4.932909 
1.8300988e+2, 2.6545638e+2, -351155.06, -478119.25, -3773.3677, 0.075649045, -0.019273072, -351043.03, -12501.647, 0.0, 5.016412, 4.9346986 
1.8300636e+2, 2.7039474e+2, -300758.6, -428370.56, -3278.0056, 0.0823701, -0.033330698, -300674.44, -10485.691, 0.0, 5.0164127, 4.9346986 
1.8300226e+2, 2.7533272e+2, -250390.06, -378793.63, -2585.7605, 0.08961594, -0.052683923, -250338.02, -8498.15, 0.0, 5.016361, 4.9346514 
1.8300763e+2, 2.8027797e+2, -230951.77, -410144.5, 5960.1553, 0.1653799, 0.19600697, -230753.75, -37343.49, 0.0, 5.0189486, 4.905608 
1.8301338e+2, 2.8521615e+2, -149593.84, -276473.5, 2418.5608, 0.16011982, 0.306801, -149547.77, -4546.958, 0.0, 5.0180144, 4.9348807 
1.8301117e+2, 2.9014328e+2, -111229.51, -232619.73, 161.40916, 0.08807253, 0.18452662, -111229.29, -14535.876, 0.0, 5.0141373, 4.934638 
1.830081e+2, 2.950698e+2, -72756.28, -188745.31, -1787.5703, 0.019780517, 0.056684256, -72728.734, -24336.729, 0.0, 5.0101204, 4.9343953 
1.830057e+2, 3.0000544e+2, -36339.19, -121087.87, -3084.865, -0.012400942, -0.053237278, -36227.05, -36212.453, 0.0, 5.0068207, 4.9512644 
1.8299876e+2, 3.049935e+2, -28504.395, -94775.336, -2916.4922, -0.0018584568, 0.09719937, -28376.291, -28376.291, 0.0, 5.0049763, 4.958857 
1.8298729e+2, 3.099966e+2, -31634.936, -93346.8, -2693.49, -0.006703458, 0.30482152, -31517.598, -31517.598, 0.0, 5.0027676, 4.9598503 
1.8297319e+2, 3.1500039e+2, -34626.453, -92059.38, -1943.4852, -0.015503719, 0.504078, -34560.76, -34560.76, 0.0, 5.000388, 4.960841 
1.8804604e+2, 1.2150504e+2, -1709843.1, -1752136.5, 1111.1943, 0.0019009819, 0.025353672, -1709813.9, 39438.86, 0.0, 5.01566, 4.988107 
1.8804722e+2, 1.2648645e+2, -1664350.0, -1710287.8, -183.73645, -0.0022906924, -0.01882293, -1664349.3, 36087.105, 0.0, 5.0156703, 4.9857635 
1.8804882e+2, 1.3147296e+2, -1615539.6, -1661387.8, -198.19287, -0.000058884085, -0.012032446, -1615538.8, 36029.07, 0.0, 5.015613, 4.9857635 
1.8805045e+2, 1.3645945e+2, -1568936.6, -1617023.8, -213.89839, 0.002223571, -0.0039938153, -1568935.6, 33763.863, 0.0, 5.015555, 4.984259 
1.8805163e+2, 1.4144273e+2, -1527237.3, -1582773.5, -900.9874, 0.0037006957, 0.015405543, -1527222.6, 26640.668, 0.0, 5.015491, 4.979329 
1.8805188e+2, 1.4642212e+2, -1478194.6, -1533431.9, -1108.0471, 0.0032390496, 0.012337716, -1478172.4, 26894.074, 0.0, 5.015425, 4.9794564 
1.8805209e+2, 1.5140143e+2, -1429337.1, -1484477.1, -1134.023, 0.0027006846, 0.008085663, -1429313.9, 26956.803, 0.0, 5.01536, 4.9794555 
1.8805233e+2, 1.5638071e+2, -1381906.9, -1438498.3, -1160.5194, 0.0021720375, 0.004269335, -1381883.0, 25591.86, 0.0, 5.015294, 4.9784603 
1.8805227e+2, 1.6135633e+2, -1341148.8, -1406481.6, -1915.6532, 0.0025713344, 0.0065990314, -1341092.6, 17621.957, 0.0, 5.015226, 4.9727936 
1.8805155e+2, 1.6632931e+2, -1292055.3, -1357113.1, -2136.4607, 0.004964958, 0.0052001183, -1291985.3, 17993.55, 0.0, 5.0151634, 4.9729066 
1.880508e+2, 1.7130235e+2, -1243117.9, -1308080.9, -2137.1025, 0.0074307034, 0.004044974, -1243047.6, 18194.79, 0.0, 5.0151014, 4.972907 
1.8805006e+2, 1.762754e+2, -1195315.6, -1261451.8, -2138.4294, 0.009898669, 0.003295588, -1195246.5, 17259.498, 0.0, 5.0150394, 4.9721 
1.8804906e+2, 1.8124488e+2, -1155275.9, -1231268.8, -2452.4648, 0.011243522, 0.010834958, -1155196.8, 8608.701, 0.0, 5.0149684, 4.9657354 
1.8804741e+2, 1.8621102e+2, -1106130.6, -1181771.3, -2545.9495, 0.009933284, 0.010990348, -1106045.0, 9094.474, 0.0, 5.0148854, 4.9658756 
1.8804573e+2, 1.9117714e+2, -1057176.4, -1132691.8, -2539.2754, 0.008515977, 0.010915918, -1057091.1, 9382.578, 0.0, 5.0148025, 4.9658766 
1.8804404e+2, 1.9614328e+2, -1009112.7, -1085527.4, -2532.4434, 0.007107607, 0.011150172, -1009028.8, 8778.923, 0.0, 5.0147195, 4.9652267 
1.8804236e+2, 2.0110588e+2, -968389.4, -1054128.0, -2599.5093, 0.0061301263, 0.016996343, -968310.6, 864.13586, 0.0, 5.0146194, 4.9592013 
1.880407e+2, 2.0606509e+2, -918926.1, -1003687.44, -2586.7344, 0.0063041626, 0.010233709, -918847.3, 1722.5476, 0.0, 5.0144677, 4.959673 
1.8803906e+2, 2.1102434e+2, -870114.06, -954636.7, -2548.676, 0.006556603, 0.002940703, -870037.3, 1927.1428, 0.0, 5.014312, 4.959674 
1.880374e+2, 2.1598358e+2, -821965.5, -907038.0, -2510.4678, 0.006821303, -0.0042093173, -821891.5, 1467.5104, 0.0, 5.0141554, 4.959175 
1.8803574e+2, 2.2093938e+2, -783021.8, -879861.06, -2641.0322, 0.007697955, 0.00012512806, -782949.8, -8159.851, 0.0, 5.0140452, 4.951623 
1.8803388e+2, 2.2589178e+2, -733587.5, -830178.1, -2623.0754, 0.009903945, 0.0027907344, -733516.3, -7254.022, 0.0, 5.014015, 4.951742 
1.8803199e+2, 2.308442e+2, -684314.75, -780861.06, -2485.838, 0.012169389, 0.0054222923, -684250.8, -6515.866, 0.0, 5.013985, 4.951745 
1.8803008e+2, 2.357966e+2, -635693.1, -732991.06, -2347.0496, 0.014429613, 0.008050035, -635636.56, -6428.9683, 0.0, 5.013953, 4.9512463 
1.8802838e+2, 2.4074574e+2, -595431.2, -703991.4, -1793.5719, 0.017184706, 0.024622064, -595401.56, -14693.233, 0.0, 5.013968, 4.9441605 
1.8802783e+2, 2.456905e+2, -543163.3, -650698.44, -1381.9377, 0.021487016, 0.017542725, -543145.56, -10906.797, 0.0, 5.014444, 4.945264 
1.8802735e+2, 2.5063494e+2, -492139.8, -600569.3, -1454.1346, 0.02595971, 0.0049197827, -492120.3, -8349.209, 0.0, 5.0149775, 4.945261 
1.8802682e+2, 2.555794e+2, -441377.38, -551019.06, -1520.1267, 0.030510917, -0.007239965, -441356.3, -6053.292, 0.0, 5.0154996, 4.9450603 
1.8802653e+2, 2.6051855e+2, -404470.44, -533402.2, -2361.0757, 0.041907497, -0.0070600826, -404427.22, -17529.588, 0.0, 5.0161147, 4.93334 
1.8802491e+2, 2.654571e+2, -351294.03, -476760.63, -2511.994, 0.05202739, -0.012139653, -351243.75, -12704.154, 0.0, 5.0161695, 4.9352365 
1.8802226e+2, 2.703969e+2, -301224.63, -426764.06, -1842.291, 0.057326753, -0.018086186, -301197.6, -11023.585, 0.0, 5.0160394, 4.9353547 
1.880189e+2, 2.753365e+2, -251182.88, -376938.97, -975.7228, 0.06003779, -0.027888728, -251175.31, -9365.618, 0.0, 5.015857, 4.9354253 
1.8802422e+2, 2.8028294e+2, -230404.02, -409942.13, 8716.598, 0.10332854, 0.22586182, -229981.81, -36612.184, 0.0, 5.0190816, 4.905742 
1.8802772e+2, 2.8521988e+2, -148440.2, -278889.6, 385.29868, 0.09819103, 0.33256203, -148439.06, -3461.7544, 0.0, 5.018675, 4.9340553 
1.8802316e+2, 2.9014558e+2, -110175.32, -234366.36, -1551.9348, 0.049988177, 0.20601365, -110155.94, -13466.686, 0.0, 5.0147223, 4.9340115 
1.8801764e+2, 2.9507065e+2, -71803.96, -189823.48, -3180.3474, 0.0012410387, 0.07220267, -71718.32, -23311.436, 0.0, 5.0106306, 4.933967 
1.8801259e+2, 3.0000454e+2, -34207.258, -117920.88, -3147.358, -0.024555571, -0.053804178, -34089.094, -34039.99, 0.0, 5.00718, 4.9523883 
1.8800285e+2, 3.0499226e+2, -27936.162, -91698.664, -1708.053, -0.038285136, 0.09330054, -27890.441, -27890.441, 0.0, 5.00483, 4.960307 
1.879882e+2, 3.099971e+2, -32775.55, -90575.11, -795.37463, -0.07918469, 0.32328326, -32764.607, -32764.607, 0.0, 5.0020785, 4.9614244 
1.8797055e+2, 3.1500384e+2, -37480.984, -89591.86, 644.99347, -0.13508281, 0.55766416, -37473.004, -37473.004, 0.0, 4.999156, 4.9625397 
1.9306155e+2, 1.2150301e+2, -1710049.4, -1752557.8, 1534.9799, 0.00015337273, 0.021269234, -1709994.0, 39279.93, 0.0, 5.0156603, 4.9879694 
1.9306333e+2, 1.2648591e+2, -1664362.0, -1710320.6, -231.8532, 0.0022014875, -0.0077579883, -1664360.9, 36082.22, 0.0, 5.0156713, 4.985753 
1.9306463e+2, 1.3147192e+2, -1615552.1, -1661420.9, -244.08972, 0.0018015566, -0.005953972, -1615550.9, 36028.402, 0.0, 5.0156136, 4.9857526 
1.9306591e+2, 1.364579e+2, -1568949.6, -1617057.0, -257.54877, 0.0014108702, -0.0028950667, -1568948.3, 33767.414, 0.0, 5.0155554, 4.9842486 
1.9306687e+2, 1.4144084e+2, -1527281.6, -1582867.8, -953.76544, 0.0011310838, 0.013345133, -1527265.3, 26617.285, 0.0, 5.0154915, 4.979298 
1.9306709e+2, 1.4642027e+2, -1478239.1, -1533524.4, -1158.2318, 0.0011036206, 0.010932546, -1478214.8, 26870.34, 0.0, 5.015425, 4.979426 
1.9306731e+2, 1.5139961e+2, -1429382.1, -1484569.1, -1183.2977, 0.0010787612, 0.0074578566, -1429356.8, 26931.9, 0.0, 5.0153594, 4.9794254 
1.930675e+2, 1.5637895e+2, -1381952.3, -1438589.9, -1208.8711, 0.0010567775, 0.004420892, -1381926.5, 25565.729, 0.0, 5.0152936, 4.97843 
1.930674e+2, 1.613546e+2, -1341150.9, -1406484.4, -1968.349, 0.0015979876, 0.007181108, -1341091.6, 17639.889, 0.0, 5.015226, 4.9727926 
1.9306655e+2, 1.6632755e+2, -1292050.1, -1357101.8, -2184.1191, 0.003351042, 0.0053559695, -1291976.9, 18019.201, 0.0, 5.0151634, 4.9729104 
1.9306569e+2, 1.7130055e+2, -1243112.8, -1308070.1, -2183.8376, 0.0051371623, 0.00373951, -1243039.4, 18220.672, 0.0, 5.0151014, 4.9729104 
1.9306482e+2, 1.7627354e+2, -1195310.6, -1261441.6, -2184.2334, 0.0069132675, 0.0025322002, -1195238.5, 17285.559, 0.0, 5.01504, 4.972103 
1.9306368e+2, 1.8124302e+2, -1155259.1, -1231230.1, -2515.6714, 0.0077369316, 0.009969959, -1155175.9, 8647.672, 0.0, 5.014968, 4.965749 
1.9306193e+2, 1.8620926e+2, -1106114.4, -1181730.1, -2606.9587, 0.006316064, 0.011045726, -1106024.5, 9132.19, 0.0, 5.0148845, 4.96589 
1.9306016e+2, 1.911755e+2, -1057161.0, -1132649.8, -2598.524, 0.004780237, 0.011956285, -1057071.6, 9418.319, 0.0, 5.0148015, 4.965891 
1.930584e+2, 1.9614175e+2, -1009098.1, -1085484.6, -2589.9229, 0.0032295687, 0.013178081, -1009010.44, 8812.632, 0.0, 5.0147176, 4.9652414 
1.9305661e+2, 2.0110442e+2, -968333.75, -1053999.6, -2698.1172, 0.0021346065, 0.01937884, -968248.9, 940.728, 0.0, 5.0146184, 4.959245 
1.9305483e+2, 2.0606357e+2, -918863.8, -1003544.75, -2703.024, 0.0024904737, 0.011479546, -918777.6, 1807.6602, 0.0, 5.0144663, 4.959722 
1.9305304e+2, 2.1102273e+2, -870052.7, -954494.0, -2663.176, 0.0029412585, 0.0029937597, -869968.8, 2011.7399, 0.0, 5.0143104, 4.959723 
1.9305125e+2, 2.1598192e+2, -821905.1, -906895.3, -2623.1655, 0.0033838598, -0.005347127, -821824.25, 1551.5371, 0.0, 5.014154, 4.9592247 
1.9304946e+2, 2.2093774e+2, -782844.94, -879435.2, -2667.322, 0.004201841, -0.0014827942, -782771.4, -7965.092, 0.0, 5.01404, 4.951769 
1.9304751e+2, 2.2589041e+2, -733376.06, -829653.6, -2620.6711, 0.005833509, 0.0019821606, -733304.75, -7029.102, 0.0, 5.0140076, 4.951923 
1.9304554e+2, 2.308431e+2, -684108.9, -780337.56, -2478.652, 0.0074456735, 0.005408837, -684045.06, -6299.692, 0.0, 5.0139756, 4.951926 
1.9304356e+2, 2.3579577e+2, -635492.75, -732468.44, -2335.081, 0.008985826, 0.008851988, -635436.56, -6221.4814, 0.0, 5.0139427, 4.951428 
1.9304174e+2, 2.407451e+2, -595482.5, -703877.6, -1614.8389, 0.010117246, 0.026018983, -595458.44, -14744.456, 0.0, 5.013938, 4.9442043 
1.9304128e+2, 2.4568984e+2, -543288.8, -650650.0, -1022.37933, 0.010094381, 0.018576942, -543279.1, -11033.325, 0.0, 5.014402, 4.9452853 
1.930409e+2, 2.5063425e+2, -492268.94, -600508.0, -1083.7174, 0.009951391, 0.005474653, -492258.1, -8478.424, 0.0, 5.0149336, 4.9452868 
1.9304045e+2, 2.555787e+2, -441510.13, -550944.94, -1138.8701, 0.009779024, -0.007157363, -441498.28, -6185.2236, 0.0, 5.0154533, 4.94509 
1.930406e+2, 2.6051804e+2, -404349.3, -532313.5, -1550.3237, 0.0179431, -0.006722263, -404330.53, -17423.6, 0.0, 5.0160155, 4.9337206 
1.930397e+2, 2.6545766e+2, -351514.53, -475324.22, -1427.8962, 0.02841188, -0.0069953715, -351498.06, -12958.797, 0.0, 5.015928, 4.935754 
1.9303766e+2, 2.703988e+2, -301771.9, -425079.75, -583.67004, 0.031264123, -0.0062216735, -301769.16, -11608.002, 0.0, 5.0156665, 4.93599 
1.9303478e+2, 2.7534008e+2, -252056.63, -375006.47, 457.42084, 0.028413683, -0.007863861, -252054.92, -10273.125, 0.0, 5.015353, 4.936178 
1.9304095e+2, 2.8028813e+2, -230742.6, -411699.53, 12309.445, 0.04305561, 0.2581638, -229909.1, -36581.68, 0.0, 5.0192184, 4.905179 
1.9304295e+2, 2.8522402e+2, -147506.16, -281090.13, -2017.9779, 0.039534543, 0.36514428, -147475.69, -2526.1304, 0.0, 5.019337, 4.9332004 
1.9303589e+2, 2.9014817e+2, -109341.41, -235895.94, -3636.3826, 0.012876888, 0.23163252, -109237.01, -12555.17, 0.0, 5.0153093, 4.933355 
1.9302778e+2, 2.9507172e+2, -71072.54, -190683.2, -4945.346, -0.018623421, 0.0891651, -70868.42, -22448.875, 0.0, 5.0111423, 4.933509 
1.9302028e+2, 3.0000353e+2, -33320.566, -116883.945, -3448.679, -0.035673358, -0.053528793, -33178.48, -33093.48, 0.0, 5.0075407, 4.9526343 
1.9300748e+2, 3.0499035e+2, -27638.523, -88352.26, -726.4097, -0.06826165, 0.08519619, -27629.832, -27629.832, 0.0, 5.004685, 4.9616694 
1.9298899e+2, 3.0999658e+2, -34187.156, -87531.73, 874.33984, -0.14257577, 0.32816827, -34172.83, -34172.83, 0.0, 5.0013914, 4.96291 
1.929671e+2, 3.150059e+2, -40607.727, -86850.73, 3003.9177, -0.24293344, 0.5882973, -40413.41, -40413.41, 0.0, 4.9979258, 4.96415 
1.9807707e+2, 1.2150094e+2, -1710208.5, -1752877.9, 1939.7819, -0.0013456357, 0.016691742, -1710120.5, 39175.14, 0.0, 5.01566, 4.9878645 
1.9807947e+2, 1.2648538e+2, -1664374.0, -1710352.5, -297.69495, 0.006725606, 0.0033053735, -1664372.0, 36077.83, 0.0, 5.0156727, 4.9857416 
1.9808044e+2, 1.3147089e+2, -1615522.1, -1661432.4, -312.64603, 0.0036865624, 0.000125299, -1615520.0, 36070.746, 0.0, 5.0156293, 4.9857416 
1.9808139e+2, 1.3645636e+2, -1568889.1, -1617053.8, -329.18323, 0.0006244542, -0.0017947715, -1568886.9, 33845.01, 0.0, 5.015581, 4.984237 
1.980821e+2, 1.4143896e+2, -1527247.9, -1582931.3, -1037.9476, -0.001422975, 0.01130075, -1527228.6, 26673.203, 0.0, 5.0155196, 4.979264 
1.9808233e+2, 1.4641842e+2, -1478220.1, -1533585.5, -1239.4293, -0.001020963, 0.009530669, -1478192.4, 26911.426, 0.0, 5.0154467, 4.979395 
1.980825e+2, 1.5139781e+2, -1429387.6, -1484641.5, -1263.2789, -0.0005315509, 0.006816043, -1429358.8, 26947.914, 0.0, 5.0153728, 4.979395 
1.980827e+2, 1.563772e+2, -1381985.6, -1438675.0, -1287.8474, -0.000044251854, 0.0045430255, -1381956.4, 25553.227, 0.0, 5.0152974, 4.9783998 
1.9808254e+2, 1.6135286e+2, -1341169.1, -1406503.8, -2051.5623, 0.0006334092, 0.007791704, -1341104.8, 17643.627, 0.0, 5.015222, 4.972788 
1.9808157e+2, 1.6632578e+2, -1292067.8, -1357101.5, -2267.255, 0.0017466341, 0.005551545, -1291988.8, 18024.498, 0.0, 5.015156, 4.9729137 
1.9808057e+2, 1.7129874e+2, -1243154.4, -1308082.1, -2270.3384, 0.0028629585, 0.0034608133, -1243075.0, 18202.688, 0.0, 5.015086, 4.9729137 
1.9807956e+2, 1.7627169e+2, -1195388.6, -1261471.8, -2274.0825, 0.0039638635, 0.0017792911, -1195310.5, 17231.705, 0.0, 5.015012, 4.9721065 
1.980783e+2, 1.8124117e+2, -1155363.5, -1231256.9, -2624.1956, 0.0042800284, 0.00912118, -1155272.9, 8568.837, 0.0, 5.014928, 4.9657583 
1.9807647e+2, 1.862075e+2, -1106223.9, -1181747.5, -2706.9219, 0.0027378835, 0.011084168, -1106127.0, 9047.005, 0.0, 5.0148406, 4.965904 
1.9807461e+2, 1.9117385e+2, -1057290.1, -1132675.4, -2690.722, 0.0010786165, 0.012932869, -1057194.1, 9312.098, 0.0, 5.0147505, 4.9659057 
1.9807273e+2, 1.9614023e+2, -1009256.6, -1085522.8, -2674.6602, -0.00061183306, 0.015093977, -1009162.94, 8675.555, 0.0, 5.014657, 4.965256 
1.9807087e+2, 2.0110296e+2, -968486.94, -1053984.0, -2819.6074, -0.0017970509, 0.021713652, -968394.06, 810.3985, 0.0, 5.014549, 4.959283 
1.9806895e+2, 2.0606205e+2, -919012.2, -1003503.75, -2853.0554, -0.0012593876, 0.012735923, -918915.94, 1684.7621, 0.0, 5.014394, 4.9597692 
1.9806701e+2, 2.1102114e+2, -870226.75, -954464.6, -2824.4358, -0.00060977094, 0.003079365, -870132.2, 1864.4459, 0.0, 5.0142283, 4.9597707 
1.9806509e+2, 2.1598025e+2, -822122.56, -906885.6, -2796.7585, 0.000022274746, -0.0064310697, -822030.44, 1362.1025, 0.0, 5.014057, 4.959272 
1.9806316e+2, 2.2093612e+2, -783001.5, -879183.3, -2772.1614, 0.0007586626, -0.0029606076, -782921.7, -8099.1855, 0.0, 5.013923, 4.9519067 
1.9806115e+2, 2.2588904e+2, -733516.8, -829295.06, -2708.2263, 0.0018032474, 0.0012215413, -733440.3, -7151.1953, 0.0, 5.0138774, 4.952101 
1.9805911e+2, 2.3084196e+2, -684316.4, -780009.56, -2575.1208, 0.0027860252, 0.0052728793, -684247.1, -6491.0874, 0.0, 5.0138226, 4.952105 
1.9805704e+2, 2.3579489e+2, -635802.8, -732187.0, -2441.3076, 0.0036486024, 0.009322937, -635741.0, -6518.058, 0.0, 5.013754, 4.951607 
1.980551e+2, 2.4074443e+2, -596201.4, -704119.25, -1595.3553, 0.0032524, 0.027195867, -596177.8, -15457.821, 0.0, 5.013684, 4.9442253 
1.980547e+2, 2.4568915e+2, -544359.4, -651053.25, -875.24536, -0.0009291076, 0.019687045, -544352.2, -12099.174, 0.0, 5.014035, 4.945294 
1.9805445e+2, 2.5063354e+2, -493688.38, -601057.8, -1019.9959, -0.005481921, 0.0063884063, -493678.7, -9890.407, 0.0, 5.014445, 4.9452977 
1.9805409e+2, 2.55578e+2, -443307.9, -551652.9, -1171.9315, -0.010128271, -0.0063130646, -443295.22, -7972.324, 0.0, 5.014832, 4.9451036 
1.9805466e+2, 2.6051745e+2, -406679.47, -532559.5, -1541.7821, -0.0042398716, -0.0058912057, -406660.6, -19743.775, 0.0, 5.015116, 4.9339814 
1.9805436e+2, 2.6545784e+2, -356284.78, -476229.7, -2087.2747, 0.0072455807, -0.0043033506, -356248.47, -17705.71, 0.0, 5.014144, 4.9361115 
1.9805275e+2, 2.7039987e+2, -309999.8, -427241.3, -2034.2079, 0.008605501, -0.0013815402, -309964.53, -19807.809, 0.0, 5.012631, 4.936434 
1.9805022e+2, 2.753421e+2, -264682.9, -378828.22, -1813.0754, 0.0017335897, -0.001018097, -264654.13, -22885.564, 0.0, 5.010724, 4.936709 
1.9805817e+2, 2.802916e+2, -248099.56, -422029.94, 13239.05, -0.006391274, 0.2790604, -247097.61, -53796.117, 0.0, 5.0136476, 4.9040604 
1.9805932e+2, 2.8522736e+2, -157712.38, -286692.56, -6214.313, -0.009708753, 0.39398494, -157413.66, -12483.746, 0.0, 5.016152, 4.9325747 
1.9804956e+2, 2.9015046e+2, -114166.125, -238685.45, -6229.307, -0.019691477, 0.25563502, -113855.27, -17178.195, 0.0, 5.014033, 4.9328394 
1.9803867e+2, 2.9507294e+2, -72837.15, -191697.73, -6469.625, -0.03766023, 0.106336504, -72486.04, -24055.693, 0.0, 5.010948, 4.9331045 
1.9802892e+2, 3.0000272e+2, -35589.727, -118323.87, -2888.725, -0.043664917, -0.05018942, -35488.99, -35370.566, 0.0, 5.0073137, 4.952051 
1.9801289e+2, 3.049881e+2, -35608.535, -87243.26, 3218.3313, -0.08602811, 0.07052828, -35408.71, -35408.71, 0.0, 5.0016546, 4.9631596 
1.9799013e+2, 3.09995e+2, -55411.996, -91066.875, 10589.809, -0.18444642, 0.30701882, -52503.918, -52503.918, 0.0, 4.993549, 4.9647436 
1.9796361e+2, 3.1500608e+2, -80179.9, -97168.59, 21514.736, -0.3175311, 0.56944233, -65543.37, -65543.37, 0.0, 4.983473, 4.9663415 
2.0309287e+2, 1.2149871e+2, -1709111.8, -1752647.1, 1663.484, -0.002150949, 0.011658111, -1709048.4, 40268.863, 0.0, 5.016087, 4.98773 
2.030957e+2, 1.2648422e+2, -1663345.1, -1709974.4, -478.15836, 0.010336369, 0.009477728, -1663340.3, 37121.203, 0.0, 5.016041, 4.985685 
2.0309643e+2, 1.3146935e+2, -1614299.3, -1660961.6, -549.77203, 0.0050534583, 0.0032920996, -1614292.8, 37313.105, 0.0, 5.016063, 4.9856844 
2.0309716e+2, 1.3645448e+2, -1567461.5, -1616485.5, -623.3837, -0.00020684909, -0.0016468045, -1567453.6, 35297.03, 0.0, 5.016085, 4.9841795 
2.0309769e+2, 1.4143685e+2, -1525719.9, -1582269.1, -1433.0948, -0.0035908134, 0.009549473, -1525683.6, 28239.27, 0.0, 5.0160484, 4.979226 
2.0309784e+2, 1.4641632e+2, -1476891.6, -1533000.9, -1644.6229, -0.0027133347, 0.008209364, -1476843.5, 28281.078, 0.0, 5.015906, 4.9793673 
2.0309797e+2, 1.5139574e+2, -1428276.0, -1484164.4, -1668.2257, -0.0016774798, 0.006007614, -1428226.3, 28100.725, 0.0, 5.015761, 4.9793673 
2.0309812e+2, 1.5637514e+2, -1381085.8, -1438302.0, -1693.0254, -0.00063530094, 0.004261789, -1381035.6, 26493.713, 0.0, 5.0156155, 4.978372 
2.0309784e+2, 1.6135082e+2, -1340460.4, -1406211.3, -2458.4553, 0.00018513761, 0.007887222, -1340368.5, 18399.457, 0.0, 5.0154734, 4.9727654 
2.0309672e+2, 1.6632372e+2, -1291509.9, -1356874.0, -2693.6018, 0.00054354616, 0.005576526, -1291399.1, 18634.104, 0.0, 5.015354, 4.9728956 
2.0309554e+2, 1.7129663e+2, -1242737.3, -1307923.5, -2723.5234, 0.00091395364, 0.003370174, -1242623.6, 18674.395, 0.0, 5.015237, 4.9728956 
2.0309436e+2, 1.7626956e+2, -1195098.5, -1261375.3, -2753.8389, 0.0013106642, 0.0015501985, -1194984.4, 17578.465, 0.0, 5.0151186, 4.972088 
2.0309295e+2, 1.81239e+2, -1155110.0, -1231045.4, -3118.1807, 0.0010606719, 0.008624561, -1154982.1, 8880.333, 0.0, 5.014994, 4.965798 
2.0309097e+2, 1.8620536e+2, -1106090.3, -1181553.9, -3154.1287, -0.0007180954, 0.010153217, -1105958.6, 9235.679, 0.0, 5.0148573, 4.965962 
2.0308897e+2, 1.9117172e+2, -1057295.0, -1132548.1, -3089.787, -0.0025512923, 0.011562276, -1057168.4, 9357.683, 0.0, 5.01472, 4.965963 
2.0308697e+2, 1.9613811e+2, -1009389.44, -1085456.6, -3025.471, -0.0043718996, 0.013275172, -1009269.3, 8588.428, 0.0, 5.0145826, 4.965314 
2.0308496e+2, 2.0110086e+2, -968806.2, -1054040.1, -3174.0496, -0.0055569275, 0.01967617, -968688.2, 535.0761, 0.0, 5.0144186, 4.9593253 
2.0308284e+2, 2.0606004e+2, -919609.1, -1003741.75, -3243.878, -0.0048925704, 0.01141642, -919484.25, 1134.9869, 0.0, 5.0141773, 4.9597893 
2.0308073e+2, 2.1101925e+2, -871055.1, -954814.1, -3239.7026, -0.0040616607, 0.002554061, -870930.0, 1084.8503, 0.0, 5.013931, 4.9597893 
2.0307863e+2, 2.1597844e+2, -823163.06, -907337.1, -3236.0393, -0.0031807078, -0.006167545, -823038.8, 371.6513, 0.0, 5.0136843, 4.95929 
2.0307654e+2, 2.2093444e+2, -784032.6, -879322.6, -3135.0754, -0.002478218, -0.0022609776, -783929.56, -9089.974, 0.0, 5.0134864, 4.9520636 
2.0307441e+2, 2.2588746e+2, -734559.25, -829340.8, -3001.052, -0.002014976, 0.0013923122, -734464.4, -8160.3706, 0.0, 5.013411, 4.9523053 
2.0307226e+2, 2.308405e+2, -685387.94, -780074.1, -2828.8525, -0.0015138175, 0.004565866, -685303.5, -7534.653, 0.0, 5.0133424, 4.952308 
2.030701e+2, 2.357935e+2, -636865.7, -732255.0, -2651.5117, -0.0010375674, 0.0074261706, -636792.0, -7558.0283, 0.0, 5.0132723, 4.9518094 
2.0306808e+2, 2.4074297e+2, -597202.4, -704108.56, -1542.7805, -0.0019244594, 0.02210885, -597180.1, -16448.79, 0.0, 5.013187, 4.9444623 
2.0306769e+2, 2.4568781e+2, -546690.25, -651983.0, -450.3376, -0.0069517153, 0.014402383, -546688.3, -14423.309, 0.0, 5.0131226, 4.945399 
2.0306748e+2, 2.5063252e+2, -497383.06, -602652.4, -279.50824, -0.012090024, 0.003287348, -497382.3, -13582.985, 0.0, 5.0130596, 4.9453907 
2.0306717e+2, 2.555774e+2, -448324.66, -553888.44, -113.815094, -0.017037842, -0.0060704504, -448324.53, -12992.542, 0.0, 5.01299, 4.945184 
2.030678e+2, 2.605178e+2, -411545.63, -533615.7, 163.66452, -0.011709441, -0.00043701712, -411545.4, -24628.145, 0.0, 5.0130687, 4.9346323 
2.0306751e+2, 2.654581e+2, -358218.03, -477440.97, 483.40454, 0.00038715245, 0.0024467239, -358216.1, -19677.275, 0.0, 5.013226, 4.9363346 
2.0306596e+2, 2.7039874e+2, -306967.13, -426782.38, 1469.9451, 0.005217317, -0.007376671, -306949.1, -16788.182, 0.0, 5.0133357, 4.9366198 
2.0306355e+2, 2.7533856e+2, -255616.88, -376437.28, 2711.0503, 0.0045918142, -0.033646412, -255556.08, -13764.832, 0.0, 5.0134215, 4.9368567 
2.0307092e+2, 2.8028315e+2, -241436.98, -404639.16, 22166.39, -0.0095622875, 0.16325127, -238479.89, -45112.117, 0.0, 5.0141306, 4.9098687 
2.0307067e+2, 2.8522068e+2, -169392.47, -285739.8, 1082.6991, -0.026482351, 0.27940542, -169382.39, -24402.31, 0.0, 5.0131354, 4.933704 
2.0305978e+2, 2.9014784e+2, -125025.766, -238757.44, -2110.5332, -0.036418065, 0.19139214, -124986.62, -28296.723, 0.0, 5.0112886, 4.9334626 
2.0304777e+2, 2.9507345e+2, -80505.836, -191853.98, -4994.0664, -0.048530955, 0.08569507, -80282.3, -31867.82, 0.0, 5.0093684, 4.933222 
2.0303681e+2, 3.0000824e+2, -33338.383, -107339.48, -2112.3594, -0.04519789, -0.026004832, -33278.133, -33224.66, 0.0, 5.0078454, 4.9552107 
2.0301971e+2, 3.0499223e+2, -18221.42, -68204.98, -1139.1421, -0.06945101, 0.06782198, -18195.47, -18195.47, 0.0, 5.007665, 4.96701 
2.0299602e+2, 3.0999535e+2, -13721.178, -55633.91, -3120.4128, -0.13326026, 0.23461483, -13490.136, -13490.136, 0.0, 5.00745, 4.9709997 
2.0296866e+2, 3.1500462e+2, -8624.864, -43669.684, -4197.507, -0.21674442, 0.40922657, -8129.119, -8129.119, 0.0, 5.007154, 4.9749937 
2.0810886e+2, 1.2149639e+2, -1709327.3, -1753076.8, 1116.1401, -0.0033370499, 0.00625565, -1709298.8, 40039.953, 0.0, 5.016086, 4.987589 
2.0811202e+2, 1.2648264e+2, -1663479.5, -1710244.8, -464.80807, 0.013024977, 0.012452868, -1663474.9, 37001.332, 0.0, 5.0160403, 4.9855967 
2.0811258e+2, 1.3146752e+2, -1614432.5, -1661232.1, -534.6496, 0.0059290356, 0.004548119, -1614426.4, 37197.17, 0.0, 5.0160627, 4.985595 
2.0811316e+2, 1.3645238e+2, -1567593.6, -1616756.4, -606.46735, -0.0011710966, -0.0021051674, -1567586.1, 35185.05, 0.0, 5.016085, 4.9840903 
2.0811354e+2, 1.4143455e+2, -1525780.9, -1582393.6, -1524.1283, -0.0056235557, 0.008048199, -1525739.9, 28205.484, 0.0, 5.0160484, 4.979185 
2.081136e+2, 1.4641403e+2, -1476931.9, -1533083.5, -1755.1881, -0.0042102197, 0.0069936155, -1476877.0, 28269.766, 0.0, 5.015906, 4.97934 
2.0811364e+2, 1.5139344e+2, -1428315.6, -1484247.1, -1778.0378, -0.0026019157, 0.0051134727, -1428259.1, 28089.693, 0.0, 5.015761, 4.9793396 
2.081137e+2, 1.5637286e+2, -1381124.9, -1438384.8, -1802.0554, -0.0009960345, 0.0036893638, -1381068.3, 26482.799, 0.0, 5.0156155, 4.9783444 
2.081133e+2, 1.6134854e+2, -1340509.1, -1406314.6, -2558.4485, -0.00004529729, 0.0075467485, -1340409.9, 18379.746, 0.0, 5.0154734, 4.972731 
2.0811196e+2, 1.6632141e+2, -1291557.5, -1356973.6, -2783.6128, -0.00054252404, 0.0053699957, -1291439.3, 18615.836, 0.0, 5.015354, 4.9728622 
2.0811059e+2, 1.7129432e+2, -1242784.8, -1308022.0, -2812.321, -0.0010862898, 0.0033037541, -1242663.8, 18656.414, 0.0, 5.0152364, 4.9728622 
2.081092e+2, 1.762672e+2, -1195146.3, -1261472.5, -2841.4082, -0.0016250116, 0.0016234795, -1195024.8, 17560.615, 0.0, 5.015118, 4.9720554 
2.0810759e+2, 1.8123664e+2, -1155025.8, -1230866.1, -3218.5247, -0.0026412474, 0.008416329, -1154889.4, 8995.802, 0.0, 5.014994, 4.9658585 
2.0810546e+2, 1.8620296e+2, -1105969.0, -1181296.0, -3256.9963, -0.0046374737, 0.00873608, -1105828.5, 9388.174, 0.0, 5.0148573, 4.966049 
2.081033e+2, 1.9116928e+2, -1057175.1, -1132290.3, -3191.3171, -0.00667098, 0.008902976, -1057039.9, 9508.178, 0.0, 5.01472, 4.9660506 
2.0810115e+2, 1.9613563e+2, -1009270.94, -1085198.5, -3125.6482, -0.008711017, 0.009372802, -1009142.5, 8736.831, 0.0, 5.014582, 4.965402 
2.0809895e+2, 2.010984e+2, -968747.4, -1053898.0, -3340.8005, -0.00989911, 0.0151976505, -968616.5, 627.90906, 0.0, 5.014416, 4.9593744 
2.0809664e+2, 2.0605777e+2, -919597.2, -1003699.3, -3431.195, -0.009042186, 0.008499561, -919457.44, 1182.2637, 0.0, 5.014175, 4.959805 
2.0809428e+2, 2.1101715e+2, -871041.94, -954771.1, -3424.5857, -0.008079675, 0.0013484017, -870902.06, 1132.5786, 0.0, 5.013929, 4.959805 
2.0809194e+2, 2.1597652e+2, -823148.56, -907293.5, -3418.4685, -0.00709667, -0.0056652236, -823009.94, 419.69073, 0.0, 5.013683, 4.9593053 
2.0808963e+2, 2.2093268e+2, -783796.1, -878788.5, -3221.7004, -0.006615047, -0.0009443278, -783687.0, -8829.365, 0.0, 5.013484, 4.952248 
2.0808738e+2, 2.2588585e+2, -734261.7, -828649.7, -3030.241, -0.0068803886, 0.002008671, -734164.5, -7845.249, 0.0, 5.0134063, 4.952546 
2.0808512e+2, 2.3083901e+2, -685097.0, -779373.56, -2849.6204, -0.007159897, 0.00449559, -685010.94, -7229.8057, 0.0, 5.0133348, 4.9525533 
2.0808282e+2, 2.3579217e+2, -636581.4, -731544.94, -2663.8513, -0.0075302883, 0.0066570733, -636506.7, -7263.419, 0.0, 5.0132623, 4.9520583 
2.0808075e+2, 2.4074163e+2, -596691.5, -702722.25, -1535.971, -0.0090433005, 0.017671099, -596669.25, -15929.3, 0.0, 5.0131564, 4.9449415 
2.0808026e+2, 2.4568662e+2, -546368.4, -650913.7, -508.44516, -0.013954216, 0.0073720315, -546365.94, -14091.332, 0.0, 5.013078, 4.9457726 
2.0807993e+2, 2.5063157e+2, -497078.13, -601602.75, -327.41214, -0.019011565, -0.004649287, -497077.1, -13268.202, 0.0, 5.013011, 4.945761 
2.0807952e+2, 2.5557673e+2, -448036.5, -552858.25, -151.51082, -0.023964409, -0.014686601, -448036.28, -12694.895, 0.0, 5.0129366, 4.945552 
2.0807971e+2, 2.605184e+2, -409935.2, -529082.44, 405.8071, -0.023013659, -0.005843946, -409933.8, -23019.072, 0.0, 5.0129514, 4.9362974 
2.0807844e+2, 2.6546115e+2, -357127.75, -472770.9, 1318.8107, -0.029995898, 0.014113248, -357112.7, -18609.002, 0.0, 5.0129533, 4.93819 
2.080759e+2, 2.7040437e+2, -306118.28, -421492.5, 2648.493, -0.046822503, 0.022313878, -306057.5, -15966.464, 0.0, 5.0129204, 4.938699 
2.0807242e+2, 2.7534702e+2, -255011.33, -370529.1, 4232.3286, -0.07057339, 0.014119826, -254856.47, -13172.664, 0.0, 5.012864, 4.939159 
2.0807755e+2, 2.8029007e+2, -233223.4, -385620.72, 19188.457, -0.09871433, 0.14845484, -230844.52, -37577.49, 0.0, 5.0141196, 4.916646 
2.080765e+2, 2.852237e+2, -170073.31, -290656.8, -865.95135, -0.094902866, 0.220603, -170067.1, -25150.13, 0.0, 5.0136557, 4.9322195 
2.0806602e+2, 2.9014975e+2, -125597.65, -242793.69, -3705.85, -0.08460518, 0.1506437, -125480.586, -28842.799, 0.0, 5.0117874, 4.9322085 
2.0805432e+2, 2.950742e+2, -80971.96, -195013.16, -6235.1465, -0.078907415, 0.059488095, -80632.07, -32257.81, 0.0, 5.0098457, 4.9321985 
2.0804308e+2, 3.0001196e+2, -28978.537, -96679.086, -3642.8137, -0.06619887, -0.02464612, -28783.09, -28783.09, 0.0, 5.008033, 4.9591866 
2.0802537e+2, 3.0499363e+2, -21159.516, -68089.63, -1581.2257, -0.10095142, 0.07015971, -21106.299, -21106.299, 0.0, 5.006947, 4.9680724 
2.0800127e+2, 3.0999106e+2, -19169.705, -55557.156, -2156.9517, -0.17977473, 0.23246026, -19042.293, -19042.293, 0.0, 5.0058928, 4.9723735 
2.0797333e+2, 3.1499642e+2, -16581.826, -43627.406, -1828.498, -0.2835211, 0.42072302, -16458.764, -16458.764, 0.0, 5.004757, 4.9766803 
2.1312483e+2, 1.2149402e+2, -1709492.3, -1753402.1, 565.6549, -0.004670196, 0.00055349385, -1709484.9, 39875.76, 0.0, 5.016085, 4.987482 
2.1312833e+2, 1.2648106e+2, -1663614.6, -1710514.5, -451.0451, 0.015698303, 0.015484257, -1663610.4, 36880.668, 0.0, 5.0160394, 4.9855075 
2.1312875e+2, 1.3146567e+2, -1614566.5, -1661502.1, -519.11444, 0.0067913937, 0.0058407034, -1614560.8, 37080.453, 0.0, 5.0160623, 4.985506 
2.1312915e+2, 1.3645028e+2, -1567726.5, -1617026.5, -589.1381, -0.002146498, -0.0025466494, -1567719.5, 35072.29, 0.0, 5.0160847, 4.9840007 
2.1312939e+2, 1.4143229e+2, -1525846.0, -1582525.9, -1614.9929, -0.0076621682, 0.0065683275, -1525800.0, 28167.725, 0.0, 5.0160484, 4.979141 
2.1312934e+2, 1.4641176e+2, -1476972.4, -1533165.9, -1865.5826, -0.005710592, 0.005794352, -1476910.5, 28258.506, 0.0, 5.015906, 4.9793124 
2.1312931e+2, 1.5139118e+2, -1428355.6, -1484329.5, -1887.6792, -0.0035284348, 0.0042249877, -1428292.1, 28078.715, 0.0, 5.015761, 4.979312 
2.1312927e+2, 1.563706e+2, -1381164.4, -1438467.3, -1910.9148, -0.0013574467, 0.003111769, -1381100.8, 26471.93, 0.0, 5.0156155, 4.978317 
2.1312876e+2, 1.6134626e+2, -1340561.1, -1406423.5, -2658.8818, -0.00027526307, 0.007215597, -1340454.0, 18357.195, 0.0, 5.015474, 4.9726944 
2.1312721e+2, 1.663191e+2, -1291605.6, -1357072.9, -2874.0752, -0.0016304109, 0.005169726, -1291479.6, 18597.336, 0.0, 5.015354, 4.972829 
2.1312563e+2, 1.7129199e+2, -1242832.9, -1308120.1, -2901.57, -0.0030909297, 0.0032326817, -1242704.3, 18638.203, 0.0, 5.015236, 4.9728293 
2.1312404e+2, 1.7626488e+2, -1195194.4, -1261569.4, -2929.4292, -0.0045676627, 0.001681196, -1195065.4, 17542.527, 0.0, 5.0151176, 4.9720225 
2.1312222e+2, 1.8123427e+2, -1154944.3, -1230692.1, -3318.5244, -0.006349763, 0.008212153, -1154799.3, 9108.599, 0.0, 5.014994, 4.9659166 
2.1311994e+2, 1.8620054e+2, -1105848.3, -1181037.9, -3360.3223, -0.0085661365, 0.0073159332, -1105698.4, 9540.564, 0.0, 5.0148573, 4.9661365 
2.1311763e+2, 1.9116683e+2, -1057055.8, -1132032.0, -3293.305, -0.010804119, 0.0062214253, -1056911.4, 9658.569, 0.0, 5.0147195, 4.9661384 
2.1311532e+2, 1.9613315e+2, -1009152.94, -1084940.1, -3226.284, -0.013067753, 0.00542894, -1009015.8, 8885.128, 0.0, 5.0145817, 4.96549 
2.1311297e+2, 2.0109595e+2, -968702.8, -1053785.8, -3509.8103, -0.014220834, 0.010791521, -968558.25, 707.26263, 0.0, 5.014414, 4.959413 
2.1311042e+2, 2.0605548e+2, -919585.94, -1003656.3, -3618.539, -0.013163379, 0.0056689223, -919430.5, 1229.6438, 0.0, 5.0141726, 4.9598203 
2.1310784e+2, 2.1101505e+2, -871029.4, -954727.56, -3609.4956, -0.012077373, 0.0001883696, -870874.0, 1180.4094, 0.0, 5.013927, 4.9598203 
2.1310526e+2, 2.1597461e+2, -823134.75, -907249.3, -3600.9248, -0.011000423, -0.005157864, -822980.9, 467.82446, 0.0, 5.013681, 4.9593205 
2.1310274e+2, 2.209309e+2, -783570.94, -878275.94, -3311.4136, -0.010754725, 0.00037132634, -783455.3, -8579.622, 0.0, 5.0134816, 4.952424 
2.1310034e+2, 2.2588421e+2, -733966.25, -827956.9, -3065.4907, -0.011812271, 0.0024804424, -733866.4, -7531.763, 0.0, 5.0134015, 4.9527855 
2.1309794e+2, 2.3083752e+2, -684808.2, -778671.4, -2876.4485, -0.01293564, 0.004102384, -684720.1, -6926.5566, 0.0, 5.013327, 4.9527965 
2.1309553e+2, 2.3579082e+2, -636299.1, -730833.3, -2682.2515, -0.014215865, 0.005386733, -636223.1, -6970.371, 0.0, 5.0132523, 4.952306 
2.1309337e+2, 2.4074036e+2, -596256.44, -701485.2, -1546.6815, -0.016286686, 0.01383691, -596233.75, -15485.759, 0.0, 5.0131264, 4.9453673 
2.130928e+2, 2.4568552e+2, -546057.25, -649834.06, -562.3413, -0.020961268, 0.0013762882, -546054.2, -13770.958, 0.0, 5.0130334, 4.9461455 
2.1309236e+2, 2.5063074e+2, -496783.94, -600542.75, -371.1072, -0.025861604, -0.011808795, -496782.6, -12964.849, 0.0, 5.012962, 4.946131 
2.130918e+2, 2.5557613e+2, -447759.06, -551817.7, -185.00017, -0.030743424, -0.022783117, -447758.75, -12408.499, 0.0, 5.012883, 4.9459186 
2.1309157e+2, 2.6051864e+2, -408753.16, -525439.06, 435.0076, -0.03356566, -0.012770825, -408751.53, -21835.936, 0.0, 5.0128345, 4.937608 
2.1308897e+2, 2.6546344e+2, -356082.9, -468077.7, 1836.2241, -0.06211494, 0.01696019, -356052.8, -17577.008, 0.0, 5.0126805, 4.939939 
2.1308501e+2, 2.70409e+2, -305313.7, -416179.3, 3508.9634, -0.10381727, 0.03584666, -305202.75, -15172.207, 0.0, 5.0125055, 4.9406714 
2.1308008e+2, 2.7535427e+2, -254448.86, -364597.47, 5435.333, -0.15391147, 0.038393397, -254181.3, -12593.432, 0.0, 5.0123067, 4.9413557 
2.130842e+2, 2.8029734e+2, -229005.02, -375792.53, 16491.94, -0.18474357, 0.13954952, -227174.92, -34011.832, 0.0, 5.014112, 4.9202104 
2.1308357e+2, 2.8522825e+2, -170869.72, -295471.5, -3238.8818, -0.1518511, 0.19034886, -170785.58, -25946.72, 0.0, 5.014177, 4.9306593 
2.1307343e+2, 2.90153e+2, -126284.766, -246725.39, -5725.4463, -0.12427618, 0.13206367, -126013.2, -29440.467, 0.0, 5.0122867, 4.930879 
2.13062e+2, 2.9507604e+2, -81553.016, -198065.77, -7900.6313, -0.10372489, 0.049069274, -81019.72, -32696.58, 0.0, 5.010324, 4.9311 
2.130506e+2, 3.0001408e+2, -26718.596, -90560.33, -5800.658, -0.078830026, -0.029062191, -26195.828, -26195.828, 0.0, 5.0082226, 4.9613867 
2.1303138e+2, 3.0499023e+2, -24221.938, -67859.64, -2519.7363, -0.11921451, 0.023621133, -24076.924, -24076.924, 0.0, 5.0062313, 4.9687476 
2.1300565e+2, 3.099806e+2, -24743.998, -55363.656, -1691.9427, -0.21210667, 0.14422274, -24650.79, -24650.79, 0.0, 5.004339, 4.973359 
2.1297586e+2, 3.1498072e+2, -24668.773, -43464.87, 40.05968, -0.33515915, 0.30887854, -24668.69, -24668.69, 0.0, 5.002365, 4.9779778 
2.181408e+2, 1.21491626e+2, -1709609.9, -1753629.5, -16.194756, -0.0060479837, -0.005371987, -1709609.9, 39773.027, 0.0, 5.016084, 4.9874067 
2.1814464e+2, 1.2647948e+2, -1663696.3, -1710756.1, -470.36578, 0.018309062, 0.018506555, -1663691.5, 36814.34, 0.0, 5.016057, 4.985419 
2.181449e+2, 1.3146383e+2, -1614655.8, -1661748.3, -534.31433, 0.007619866, 0.007137456, -1614649.8, 37009.254, 0.0, 5.016077, 4.985417 
2.1814515e+2, 1.3644816e+2, -1567857.6, -1617293.8, -598.73517, -0.003111863, -0.002971992, -1567850.4, 34961.95, 0.0, 5.016085, 4.9839115 
2.1814524e+2, 1.4143e+2, -1525959.5, -1582687.1, -1727.6368, -0.009653949, 0.0051272605, -1525907.0, 28083.197, 0.0, 5.016033, 4.9790945 
2.1814512e+2, 1.4640947e+2, -1477047.5, -1533264.6, -1997.7545, -0.007176589, 0.004619495, -1476976.6, 28214.611, 0.0, 5.0158944, 4.979285 
2.1814498e+2, 1.513889e+2, -1428423.4, -1484424.8, -2019.0809, -0.0044314386, 0.0033369497, -1428350.8, 28042.033, 0.0, 5.015752, 4.9792843 
2.1814486e+2, 1.5636832e+2, -1381230.8, -1438561.6, -2040.637, -0.0017019036, 0.0025078452, -1381158.1, 26436.184, 0.0, 5.015607, 4.978289 
2.1814421e+2, 1.6134396e+2, -1340639.9, -1406549.9, -2778.6016, -0.00049174106, 0.0068592313, -1340523.0, 18309.8, 0.0, 5.015466, 4.9726553 
2.1814245e+2, 1.6631679e+2, -1291667.5, -1357179.5, -2986.3694, -0.002706283, 0.004944342, -1291531.6, 18567.316, 0.0, 5.01535, 4.9727945 
2.1814068e+2, 1.7128965e+2, -1242895.5, -1308225.8, -3015.8901, -0.005075959, 0.003131267, -1242756.6, 18608.084, 0.0, 5.015231, 4.9727955 
2.1813887e+2, 1.7626253e+2, -1195269.5, -1261679.8, -3045.8022, -0.007473824, 0.0017048839, -1195130.1, 17500.352, 0.0, 5.0151086, 4.9719887 
2.1813688e+2, 1.812319e+2, -1154922.9, -1230552.5, -3450.532, -0.009998419, 0.008000272, -1154765.8, 9164.754, 0.0, 5.014975, 4.9659724 
2.1813443e+2, 1.8619815e+2, -1105845.1, -1180837.5, -3504.2312, -0.012419558, 0.0058849812, -1105681.8, 9579.582, 0.0, 5.014818, 4.9662223 
2.1813196e+2, 1.911644e+2, -1057139.0, -1131872.3, -3444.7007, -0.014836079, 0.003512377, -1056980.6, 9611.382, 0.0, 5.014651, 4.9662247 
2.181295e+2, 1.9613066e+2, -1009347.1, -1084832.0, -3386.0828, -0.017284637, 0.0014394466, -1009195.5, 8727.116, 0.0, 5.0144744, 4.9655766 
2.1812697e+2, 2.010935e+2, -969066.75, -1053891.5, -3746.6133, -0.018338112, 0.0064520678, -968901.56, 385.08896, 0.0, 5.0142765, 4.9594407 
2.181242e+2, 2.0605321e+2, -919932.0, -1003782.9, -3878.077, -0.017105164, 0.002919497, -919753.06, 927.5692, 0.0, 5.0140476, 4.959834 
2.1812138e+2, 2.1101294e+2, -871346.06, -954839.75, -3873.8516, -0.01592887, -0.00093222334, -871166.7, 907.5772, 0.0, 5.013812, 4.959834 
2.1811858e+2, 2.1597268e+2, -823438.6, -907354.94, -3869.6902, -0.014780399, -0.004655348, -823260.56, 207.36966, 0.0, 5.0135703, 4.9593344 
2.1811584e+2, 2.2092913e+2, -783695.5, -877948.94, -3499.6711, -0.014781754, 0.0016627541, -783565.75, -8671.851, 0.0, 5.0133624, 4.9525905 
2.181133e+2, 2.2588256e+2, -734133.5, -827486.44, -3222.7766, -0.016645802, 0.0027495092, -734022.4, -7672.1284, 0.0, 5.013237, 4.953021 
2.1811077e+2, 2.3083599e+2, -685172.8, -778280.2, -3050.024, -0.018581703, 0.0032852085, -685073.0, -7266.643, 0.0, 5.0130935, 4.953036 
2.1810822e+2, 2.3578942e+2, -636923.06, -730548.9, -2875.7188, -0.020696595, 0.0034639912, -636834.8, -7572.0903, 0.0, 5.012927, 4.9525485 
2.1810599e+2, 2.4073909e+2, -597136.25, -701008.94, -1806.2858, -0.023078872, 0.01044633, -597104.8, -16349.01, 0.0, 5.012666, 4.945726 
2.1810533e+2, 2.4568444e+2, -547515.8, -649621.5, -1011.01373, -0.027171653, -0.0035417904, -547505.8, -15214.381, 0.0, 5.0123787, 4.9464955 
2.1810476e+2, 2.5062987e+2, -498837.03, -600623.94, -1011.4847, -0.03154469, -0.017914167, -498827.0, -15000.691, 0.0, 5.0121, 4.946474 
2.181041e+2, 2.5557554e+2, -450442.63, -552206.2, -1047.7671, -0.03591693, -0.029837454, -450431.84, -15072.84, 0.0, 5.0118017, 4.9462543 
2.1810341e+2, 2.6051846e+2, -412455.34, -525005.56, -1032.3403, -0.04105805, -0.020526487, -412445.88, -25525.197, 0.0, 5.011181, 4.9384623 
2.1809924e+2, 2.6546466e+2, -365783.47, -468815.8, -586.86884, -0.09020335, 0.010980994, -365780.13, -27321.719, 0.0, 5.0086675, 4.9413705 
2.180936e+2, 2.7041194e+2, -324456.3, -420619.6, -436.6207, -0.15487668, 0.031610187, -324454.34, -34467.523, 0.0, 5.0050626, 4.942256 
2.1808699e+2, 2.7535906e+2, -285624.6, -373845.84, -523.2486, -0.22799465, 0.035147734, -285621.5, -44105.08, 0.0, 5.0004897, 4.9430947 
2.1809152e+2, 2.8030306e+2, -270752.34, -393654.4, 5666.817, -0.24509288, 0.12982778, -270491.6, -77417.414, 0.0, 4.9991307, 4.9205523 
2.1809237e+2, 2.8523284e+2, -200051.58, -311726.16, -12524.152, -0.18166712, 0.18336247, -198664.23, -53903.914, 0.0, 5.0045443, 4.9292026 
2.1808237e+2, 2.901565e+2, -142135.56, -256518.34, -13156.415, -0.14604755, 0.13240458, -140641.8, -44136.75, 0.0, 5.0073886, 4.929558 
2.1807107e+2, 2.950783e+2, -88854.805, -203555.0, -14024.277, -0.117410235, 0.05303943, -87164.96, -38896.87, 0.0, 5.0084667, 4.9299145 
2.1805964e+2, 3.000141e+2, -30659.613, -91114.625, -12384.001, -0.07831746, -0.03933497, -28221.148, -28221.148, 0.0, 5.0070205, 4.961559 
2.1803832e+2, 3.0498108e+2, -43513.85, -75363.18, -8803.388, -0.1124525, -0.07577204, -41242.51, -41242.51, 0.0, 4.999733, 4.9686084 
2.1801002e+2, 3.0996197e+2, -69276.88, -72749.77, -7359.7173, -0.20556915, -0.043941844, -63451.54, -63451.54, 0.0, 4.988697, 4.973487 
2.1797766e+2, 3.1495404e+2, -103996.99, -74736.805, -4639.088, -0.3293078, 0.044959437, -74018.914, -74018.914, 0.0, 4.97418, 4.978375 
2.2315754e+2, 1.2148945e+2, -1707770.5, -1753179.9, -621.9923, -0.0030206267, -0.0059473002, -1707761.9, 41641.57, 0.0, 5.016789, 4.9872084 
2.2316082e+2, 1.2647712e+2, -1661875.8, -1709978.1, -857.1918, 0.016078709, 0.016887795, -1661860.5, 38667.973, 0.0, 5.0166855, 4.9853663 
2.2316112e+2, 1.3146149e+2, -1613235.8, -1661167.0, -885.2389, 0.006507405, 0.006069134, -1613219.5, 38462.1, 0.0, 5.0165744, 4.985366 
2.2316143e+2, 1.3644584e+2, -1566800.9, -1616889.6, -914.8386, -0.0030275676, -0.0034991903, -1566784.3, 36050.69, 0.0, 5.0164623, 4.9838614 
2.2316149e+2, 1.4142765e+2, -1525107.4, -1582357.0, -2064.3425, -0.008920632, 0.004936897, -1525033.0, 28979.758, 0.0, 5.016337, 4.9790564 
2.2316116e+2, 1.4640705e+2, -1476135.4, -1532896.6, -2342.912, -0.007159043, 0.004145093, -1476038.8, 29175.383, 0.0, 5.0162168, 4.9792504 
2.2316085e+2, 1.5138641e+2, -1427439.3, -1484020.5, -2376.6313, -0.0051577743, 0.002522471, -1427339.5, 29076.564, 0.0, 5.016099, 4.979251 
2.231605e+2, 1.5636577e+2, -1380168.6, -1438118.5, -2411.1787, -0.0031464023, 0.0013348177, -1380068.4, 27549.736, 0.0, 5.015981, 4.978256 
2.2315969e+2, 1.6134135e+2, -1339548.5, -1406112.9, -3154.754, -0.0024525826, 0.005374546, -1339399.4, 19457.695, 0.0, 5.015854, 4.9726157 
2.231578e+2, 1.6631415e+2, -1290654.0, -1356797.5, -3368.9753, -0.0047197985, 0.0035044344, -1290482.9, 19640.756, 0.0, 5.015716, 4.972748 
2.2315589e+2, 1.7128697e+2, -1241944.0, -1307874.6, -3412.91, -0.007072627, 0.0017819366, -1241767.9, 19621.98, 0.0, 5.015578, 4.9727488 
2.2315396e+2, 1.7625982e+2, -1194367.6, -1261353.4, -3457.5981, -0.009402812, 0.00045946924, -1194189.6, 18466.383, 0.0, 5.01544, 4.9719424 
2.2315182e+2, 1.8122916e+2, -1154048.6, -1230050.8, -3932.7993, -0.011654698, 0.0066002565, -1153845.6, 10110.556, 0.0, 5.015258, 4.9660096 
2.2314921e+2, 1.8619537e+2, -1105283.3, -1180429.1, -4026.4707, -0.013446847, 0.0036898036, -1105068.1, 10218.654, 0.0, 5.0149817, 4.9662857 
2.2314659e+2, 1.911616e+2, -1056905.5, -1131623.6, -3991.8047, -0.015156209, 0.00048935815, -1056692.9, 9924.276, 0.0, 5.0147023, 4.966287 
2.2314397e+2, 1.9612783e+2, -1009414.8, -1084729.3, -3957.1897, -0.016825126, -0.002415884, -1009207.44, 8740.078, 0.0, 5.014422, 4.9656377 
2.2314124e+2, 2.010907e+2, -969448.8, -1054092.9, -4355.3584, -0.017424684, 0.0025258092, -969225.25, 85.880486, 0.0, 5.014148, 4.9594326 
2.2313815e+2, 2.0605054e+2, -920422.44, -1004073.75, -4524.968, -0.016910043, 0.000563673, -920178.4, 526.1742, 0.0, 5.0138893, 4.9598083 
2.2313502e+2, 2.1101043e+2, -871900.9, -955161.3, -4564.1084, -0.016475623, -0.001686252, -871651.44, 446.2826, 0.0, 5.013631, 4.9598083 
2.2313191e+2, 2.1597031e+2, -824041.0, -907699.4, -4603.7676, -0.016009575, -0.0038245353, -823788.44, -297.55243, 0.0, 5.0133724, 4.959309 
2.2312886e+2, 2.2092682e+2, -784129.5, -877800.6, -4203.959, -0.016678773, 0.0027238126, -783941.2, -9024.673, 0.0, 5.0131335, 4.952753 
2.2312607e+2, 2.2588018e+2, -734759.75, -827274.25, -3879.7332, -0.019313047, 0.0008652415, -734597.3, -8225.006, 0.0, 5.012907, 4.9532547 
2.2312331e+2, 2.3083353e+2, -686051.5, -778189.2, -3677.6584, -0.02176398, -0.0016701581, -685904.94, -8077.1406, 0.0, 5.0126753, 4.953267 
2.2312053e+2, 2.3578687e+2, -637989.6, -730548.44, -3472.997, -0.024111474, -0.004580227, -637859.5, -8575.901, 0.0, 5.012443, 4.9527783 
2.2311813e+2, 2.4073666e+2, -598591.06, -701595.3, -2565.209, -0.02558336, 0.0018637954, -598527.25, -17752.395, 0.0, 5.012108, 4.945796 
2.2311725e+2, 2.4568273e+2, -549882.75, -651002.56, -2154.4795, -0.026506023, -0.004989131, -549836.9, -17530.941, 0.0, 5.011539, 4.9464283 
2.2311644e+2, 2.5062886e+2, -502047.3, -602500.8, -2380.7725, -0.027259955, -0.011742347, -501990.9, -18154.275, 0.0, 5.0109534, 4.9463754 
2.2311555e+2, 2.5557515e+2, -454449.0, -554556.9, -2602.7969, -0.027596468, -0.016063733, -454381.38, -19015.932, 0.0, 5.010358, 4.946124 
2.231144e+2, 2.6051822e+2, -415702.72, -526362.4, -2948.2195, -0.028293688, -0.0042934665, -415624.22, -28698.545, 0.0, 5.009736, 4.9387364 
2.2310907e+2, 2.6546285e+2, -364929.8, -468075.94, -1000.5555, -0.070241444, 0.005159435, -364920.13, -26451.367, 0.0, 5.0083427, 4.941984 
2.231024e+2, 2.704077e+2, -317922.94, -418693.44, 1592.6246, -0.11838347, -0.0032256362, -317897.78, -27887.91, 0.0, 5.006774, 4.942478 
2.2309496e+2, 2.7535158e+2, -270780.38, -369601.75, 4495.938, -0.16511212, -0.0332875, -270576.25, -29016.023, 0.0, 5.005176, 4.942925 
2.2309864e+2, 2.8029308e+2, -255978.31, -386595.44, 12665.02, -0.13552205, 0.03716673, -254761.61, -61626.652, 0.0, 5.004263, 4.9203835 
2.2310029e+2, 2.8522572e+2, -198474.5, -308834.97, -2657.5134, -0.09182078, 0.11820657, -198410.55, -53610.992, 0.0, 5.005403, 4.9288926 
2.2309177e+2, 2.9015228e+2, -145264.77, -257338.16, -6731.442, -0.090636745, 0.097586915, -144861.89, -48337.92, 0.0, 5.006623, 4.9287777 
2.2308211e+2, 2.9507652e+2, -91930.84, -206019.22, -10145.069, -0.08134428, 0.047004223, -91035.74, -42764.43, 0.0, 5.007726, 4.9286647 
2.2307211e+2, 3.0001253e+2, -26585.346, -93495.55, -11608.117, -0.039616417, -0.033750933, -24628.695, -24628.695, 0.0, 5.008779, 4.9594464 
2.2305073e+2, 3.049733e+2, -16984.932, -68502.625, -8949.563, -0.02749812, -0.13701965, -15474.512, -15474.512, 0.0, 5.0089054, 4.9667377 
2.2302282e+2, 3.0994496e+2, -12449.957, -54270.008, -8437.482, -0.03880021, -0.20837106, -10811.807, -10811.807, 0.0, 5.008606, 4.971143 
2.2299157e+2, 3.149248e+2, -7431.404, -40523.242, -8119.782, -0.044850536, -0.2537149, -5546.417, -5546.417, 0.0, 5.0081744, 4.9755573 
2.2817487e+2, 1.21487394e+2, -1708152.9, -1753952.5, -690.7829, 0.0021096226, -0.0031889654, -1708142.5, 41280.848, 0.0, 5.016788, 4.9869556 
2.2817695e+2, 1.2647429e+2, -1661915.8, -1710059.5, -948.03253, 0.010582621, 0.012401715, -1661897.1, 38659.1, 0.0, 5.0166855, 4.98534 
2.2817746e+2, 1.3145882e+2, -1613275.5, -1661247.6, -973.4888, 0.0041084555, 0.0035265572, -1613255.9, 38451.62, 0.0, 5.0165744, 4.985339 
2.2817795e+2, 1.3644333e+2, -1566840.4, -1616969.3, -1000.4164, -0.0023805313, -0.004101465, -1566820.4, 36038.555, 0.0, 5.016462, 4.983835 
2.2817805e+2, 1.4142524e+2, -1525158.4, -1582462.8, -2165.4507, -0.0067080725, 0.005521218, -1525076.8, 28959.01, 0.0, 5.016337, 4.979021 
2.2817746e+2, 1.4640453e+2, -1476194.0, -1533018.4, -2432.7646, -0.0064574317, 0.0041211206, -1476090.0, 29147.883, 0.0, 5.016217, 4.97921 
2.2817685e+2, 1.5138379e+2, -1427497.6, -1484141.3, -2465.6807, -0.0060777133, 0.0018088596, -1427390.5, 29050.082, 0.0, 5.016099, 4.9792104 
2.2817625e+2, 1.5636304e+2, -1380226.9, -1438238.3, -2499.392, -0.005693988, -0.00007235892, -1380119.4, 27524.111, 0.0, 5.0159807, 4.978216 
2.281752e+2, 1.6133854e+2, -1339607.5, -1406236.4, -3260.0842, -0.0059709214, 0.003396013, -1339448.4, 19434.691, 0.0, 5.015854, 4.972574 
2.2817323e+2, 1.6631126e+2, -1290726.3, -1356949.9, -3474.362, -0.00766822, 0.0014827395, -1290544.5, 19605.795, 0.0, 5.015716, 4.972697 
2.2817123e+2, 1.7128405e+2, -1242016.1, -1308026.9, -3517.3723, -0.009402387, -0.00023676876, -1241829.3, 19587.742, 0.0, 5.015578, 4.9726977 
2.2816923e+2, 1.7625682e+2, -1194439.5, -1261505.4, -3561.1194, -0.011128287, -0.001552431, -1194251.0, 18432.648, 0.0, 5.0154395, 4.9718914 
2.28167e+2, 1.8122613e+2, -1154015.1, -1229969.9, -4123.3286, -0.01259545, 0.00442517, -1153792.0, 10192.181, 0.0, 5.0152564, 4.9660373 
2.2816421e+2, 1.8619235e+2, -1105218.8, -1180276.4, -4237.3164, -0.01329591, 0.0010046099, -1104980.4, 10334.021, 0.0, 5.0149794, 4.966338 
2.2816142e+2, 1.9115858e+2, -1056843.4, -1131471.9, -4201.0317, -0.013938843, -0.002705767, -1056607.6, 10036.748, 0.0, 5.0146995, 4.9663396 
2.2815862e+2, 1.9612482e+2, -1009354.94, -1084578.4, -4164.769, -0.014566939, -0.0061118035, -1009125.06, 8849.355, 0.0, 5.0144186, 4.9656906 
2.2815567e+2, 2.0108771e+2, -969490.2, -1054173.9, -4560.0044, -0.014798332, -0.0010118951, -969245.4, 92.25248, 0.0, 5.0141473, 4.9594054 
2.2815222e+2, 2.0604767e+2, -920481.9, -1004202.1, -4725.132, -0.015343621, -0.0014399227, -920216.0, 514.58496, 0.0, 5.0138893, 4.9597645 
2.2814873e+2, 2.1100765e+2, -871959.94, -955290.0, -4762.0317, -0.016035916, -0.0021188399, -871688.7, 434.6833, 0.0, 5.013631, 4.9597645 
2.2814523e+2, 2.1596766e+2, -824099.7, -907828.3, -4799.4297, -0.016720742, -0.002687649, -823825.5, -309.36862, 0.0, 5.0133724, 4.9592648 
2.2814183e+2, 2.2092423e+2, -783899.25, -877273.75, -4372.954, -0.01847496, 0.0038734376, -783694.94, -8753.275, 0.0, 5.0131307, 4.9529343 
2.281387e+2, 2.2587742e+2, -734437.7, -826514.94, -4035.2224, -0.022366505, -0.001981058, -734261.1, -7863.582, 0.0, 5.012899, 4.953519 
2.2813559e+2, 2.3083064e+2, -685744.4, -777435.9, -3825.4272, -0.02617905, -0.0086316, -685585.06, -7731.8804, 0.0, 5.0126634, 4.9535327 
2.2813247e+2, 2.3578383e+2, -637697.3, -729800.9, -3613.0232, -0.029937418, -0.015584884, -637555.75, -8246.8125, 0.0, 5.012427, 4.9530444 
2.2812979e+2, 2.4073385e+2, -598785.2, -701723.5, -2871.6028, -0.0317929, -0.008647941, -598705.1, -17907.486, 0.0, 5.012056, 4.9457755 
2.2812854e+2, 2.4568096e+2, -550208.94, -651399.06, -2578.193, -0.030296851, -0.003966656, -550143.25, -17822.69, 0.0, 5.0114827, 4.9463162 
2.2812732e+2, 2.5062814e+2, -502323.56, -602853.2, -2788.6353, -0.028644463, 0.0008461824, -502246.25, -18402.934, 0.0, 5.0109115, 4.9462676 
2.2812603e+2, 2.5557548e+2, -454675.75, -554865.44, -2994.7805, -0.026725605, 0.0076970663, -454586.3, -19221.781, 0.0, 5.0103307, 4.946021 
2.2812414e+2, 2.6051894e+2, -414484.22, -523268.16, -3543.8567, -0.027864337, 0.02220856, -414368.88, -27448.223, 0.0, 5.0096827, 4.9398184 
2.281171e+2, 2.6546285e+2, -362495.47, -460689.88, -1374.028, -0.082321, -0.00158303, -362476.22, -24015.826, 0.0, 5.0080647, 4.9446235 
2.2810856e+2, 2.7040738e+2, -316224.7, -411229.13, 1592.6038, -0.1461171, -0.043378994, -316198.0, -26205.287, 0.0, 5.006256, 4.9452395 
2.2809918e+2, 2.7535146e+2, -269817.53, -362055.75, 4869.186, -0.21031778, -0.102496065, -269561.2, -28031.592, 0.0, 5.004419, 4.945809 
2.2810058e+2, 2.802948e+2, -255810.34, -391842.13, 9167.646, -0.17846993, -0.024945002, -255195.28, -62117.0, 0.0, 5.004964, 4.9185143 
2.2810383e+2, 2.8522852e+2, -194451.1, -314006.84, -2842.9766, -0.11137712, 0.08772853, -194383.53, -49640.492, 0.0, 5.007135, 4.926901 
2.28098e+2, 2.9015532e+2, -142216.94, -261844.47, -6410.8564, -0.09973774, 0.08386562, -141874.36, -45396.36, 0.0, 5.0080023, 4.9270973 
2.2809099e+2, 2.950803e+2, -89855.51, -209860.81, -9318.591, -0.08352208, 0.052656803, -89136.22, -40904.89, 0.0, 5.0087533, 4.927295 
2.2808324e+2, 3.0001625e+2, -25043.316, -95578.125, -11072.008, -0.03830563, -0.014640603, -23346.154, -23346.154, 0.0, 5.0094695, 4.958783 
2.2806261e+2, 3.0497953e+2, -12755.698, -63238.934, -7959.0015, -0.029939188, -0.11277288, -11530.64, -11530.64, 0.0, 5.0094194, 4.9688 
2.2803494e+2, 3.0995542e+2, -9304.372, -51295.36, -6148.276, -0.054051023, -0.16584519, -8422.662, -8422.662, 0.0, 5.009013, 4.9726257 
2.2800365e+2, 3.1493965e+2, -5368.0894, -39830.465, -4532.3887, -0.08131011, -0.18134081, -4781.9717, -4781.9717, 0.0, 5.008473, 4.976461 
2.3319219e+2, 1.2148532e+2, -1708480.1, -1754609.9, -755.93695, 0.0071874824, -0.000516645, -1708467.8, 40975.676, 0.0, 5.016787, 4.9867396 
2.331931e+2, 1.2647146e+2, -1661956.9, -1710139.9, -1039.0698, 0.00509986, 0.007963343, -1661934.5, 38649.426, 0.0, 5.0166855, 4.985313 
2.331938e+2, 1.3145617e+2, -1613316.5, -1661327.4, -1061.9355, 0.0017247597, 0.0010133816, -1613293.0, 38440.324, 0.0, 5.016574, 4.9853125 
2.3319449e+2, 1.3644083e+2, -1566880.9, -1617048.0, -1086.1912, -0.0017163112, -0.004692646, -1566857.4, 36025.574, 0.0, 5.016462, 4.983809 
2.331946e+2, 1.4142282e+2, -1525213.6, -1582576.3, -2266.558, -0.004494127, 0.006119679, -1525124.3, 28934.486, 0.0, 5.0163374, 4.9789834 
2.3319376e+2, 1.4640203e+2, -1476252.8, -1533139.9, -2522.9119, -0.005756846, 0.0041010855, -1476141.1, 29120.434, 0.0, 5.016217, 4.979169 
2.3319288e+2, 1.5138116e+2, -1427556.4, -1484261.9, -2555.025, -0.0069977334, 0.001083012, -1427441.5, 29023.65, 0.0, 5.016099, 4.97917 
2.3319198e+2, 1.5636028e+2, -1380285.4, -1438358.0, -2587.9006, -0.00824071, -0.0015079443, -1380170.3, 27498.533, 0.0, 5.0159807, 4.9781756 
2.331907e+2, 1.613357e+2, -1339672.0, -1406370.5, -3365.194, -0.009486354, 0.001436839, -1339502.6, 19406.531, 0.0, 5.015854, 4.972529 
2.3318866e+2, 1.6630837e+2, -1290798.8, -1357102.1, -3579.736, -0.010612374, -0.00051315315, -1290606.0, 19570.807, 0.0, 5.015716, 4.9726458 
2.3318659e+2, 1.7128111e+2, -1242088.5, -1308178.9, -3621.8225, -0.011726687, -0.0022422147, -1241890.6, 19553.477, 0.0, 5.015578, 4.9726467 
2.3318452e+2, 1.7625384e+2, -1194511.9, -1261657.3, -3664.628, -0.01284711, -0.0035636134, -1194312.4, 18398.883, 0.0, 5.0154395, 4.9718404 
2.3318216e+2, 1.8122311e+2, -1153985.0, -1229894.8, -4315.136, -0.013537978, 0.0022644394, -1153740.5, 10271.672, 0.0, 5.015255, 4.966063 
2.3317921e+2, 1.8618932e+2, -1105155.0, -1180123.1, -4448.4463, -0.01314435, -0.0016754796, -1104892.0, 10450.027, 0.0, 5.014977, 4.9663906 
2.3317626e+2, 1.9115557e+2, -1056781.9, -1131319.5, -4410.5435, -0.012714465, -0.005915095, -1056521.9, 10149.8545, 0.0, 5.014696, 4.966392 
2.331733e+2, 1.961218e+2, -1009295.7, -1084427.0, -4372.6333, -0.01229535, -0.00984123, -1009042.06, 8959.249, 0.0, 5.0144153, 4.965743 
2.331701e+2, 2.0108473e+2, -969546.25, -1054285.6, -4761.2886, -0.012187134, -0.004508738, -969279.56, 84.521, 0.0, 5.014146, 4.9593673 
2.3316628e+2, 2.060448e+2, -920541.75, -1004330.25, -4925.244, -0.01379686, -0.003404465, -920253.25, 503.40543, 0.0, 5.0138893, 4.9597206 
2.3316242e+2, 2.1100491e+2, -872019.44, -955418.3, -4959.9033, -0.015606881, -0.0025540919, -871725.5, 423.49344, 0.0, 5.013631, 4.95972 
2.3315856e+2, 2.1596502e+2, -824158.9, -907956.9, -4995.04, -0.017433599, -0.0015951368, -823862.2, -320.7833, 0.0, 5.0133724, 4.95922 
2.331548e+2, 2.2092162e+2, -783674.9, -876757.1, -4543.4976, -0.020276772, 0.005065101, -783453.6, -8486.966, 0.0, 5.0131273, 4.9531116 
2.3315133e+2, 2.2587468e+2, -734117.5, -825754.25, -4191.275, -0.025413856, -0.0048788316, -733926.2, -7503.399, 0.0, 5.0128903, 4.953782 
2.3314787e+2, 2.3082775e+2, -685439.1, -776681.2, -3973.761, -0.030568304, -0.01581745, -685266.44, -7387.8477, 0.0, 5.0126514, 4.9537964 
2.331444e+2, 2.3578079e+2, -637406.9, -729052.0, -3753.616, -0.03571785, -0.026986856, -637253.4, -7918.941, 0.0, 5.0124106, 4.9533086 
2.3314138e+2, 2.4073108e+2, -599085.1, -702062.2, -3239.5164, -0.037966844, -0.018522985, -598983.3, -18163.326, 0.0, 5.0120044, 4.945679 
2.3313975e+2, 2.4567927e+2, -550549.94, -651781.3, -3015.3904, -0.034020383, -0.001911175, -550460.2, -18125.682, 0.0, 5.011426, 4.946202 
2.331382e+2, 2.506275e+2, -502614.63, -603191.25, -3209.976, -0.029914668, 0.014196365, -502512.28, -18662.854, 0.0, 5.0108695, 4.946158 
2.3313653e+2, 2.5557587e+2, -454917.25, -555159.7, -3400.237, -0.025693484, 0.031948086, -454802.03, -19438.92, 0.0, 5.010304, 4.945916 
2.3313402e+2, 2.6051942e+2, -413599.84, -520828.2, -4232.747, -0.026327813, 0.047596157, -413433.0, -26514.8, 0.0, 5.0096292, 4.9406233 
2.3312499e+2, 2.6546222e+2, -360116.16, -453275.97, -1947.8184, -0.0929071, -0.016926926, -360075.44, -21617.455, 0.0, 5.007787, 4.947151 
2.3311421e+2, 2.7040622e+2, -314580.06, -403735.53, 1391.3812, -0.17236385, -0.100183144, -314558.34, -24574.363, 0.0, 5.005739, 4.9478893 
2.3310256e+2, 2.753502e+2, -268906.97, -354478.97, 5040.336, -0.25404352, -0.19640058, -268611.1, -27101.256, 0.0, 5.003662, 4.9485807 
2.3310335e+2, 2.8029683e+2, -260466.16, -408106.94, 8184.3633, -0.21913595, -0.079494916, -260013.86, -66995.555, 0.0, 5.005667, 4.912786 
2.331092e+2, 2.8523278e+2, -190610.88, -319006.97, -3565.3694, -0.12995118, 0.08819057, -190511.95, -45839.777, 0.0, 5.0088677, 4.924811 
2.3310556e+2, 2.901596e+2, -139350.84, -266178.13, -6625.6484, -0.10984879, 0.092398524, -139005.64, -42585.418, 0.0, 5.0093827, 4.9253187 
2.331006e+2, 2.9508504e+2, -87960.59, -213528.72, -9026.031, -0.088703334, 0.07187628, -87315.1, -39132.977, 0.0, 5.009781, 4.925827 
2.3309498e+2, 3.000193e+2, -24892.678, -100293.21, -10369.696, -0.03779068, 0.002494078, -23492.55, -23492.55, 0.0, 5.01016, 4.9570208 
2.3307611e+2, 3.049831e+2, -8743.109, -57782.5, -6232.4595, -0.017428672, -0.12041686, -7963.417, -7963.417, 0.0, 5.009933, 4.97055 
2.3304968e+2, 3.099621e+2, -6377.882, -48129.2, -3120.2961, -0.03753801, -0.18639328, -6145.974, -6145.974, 0.0, 5.009418, 4.9737954 
2.3301934e+2, 3.1494948e+2, -3527.8298, -38948.492, -201.47151, -0.06922493, -0.20317943, -3526.684, -3526.684, 0.0, 5.008769, 4.9770494 
2.382095e+2, 1.21483214e+2, -1708868.5, -1755209.8, -895.7552, 0.012236553, 0.002028898, -1708851.1, 40612.523, 0.0, 5.0167484, 4.9865613 
2.3820928e+2, 1.2646864e+2, -1662030.0, -1710232.1, -1196.3687, -0.00022370652, 0.003814373, -1662000.4, 38611.066, 0.0, 5.016675, 4.9852867 
2.3821014e+2, 1.3145348e+2, -1613348.5, -1661398.6, -1202.354, -0.0005883517, -0.0013480618, -1613318.5, 38440.652, 0.0, 5.016577, 4.9852867 
2.3821102e+2, 1.3643833e+2, -1566896.5, -1617110.1, -1211.1086, -0.0010435521, -0.005257982, -1566867.3, 36039.76, 0.0, 5.01647, 4.9837832 
2.3821117e+2, 1.4142041e+2, -1525239.1, -1582679.9, -2396.2117, -0.00230592, 0.0066813463, -1525139.3, 28942.432, 0.0, 5.0163484, 4.978943 
2.3821005e+2, 1.4639951e+2, -1476258.6, -1533235.6, -2642.0024, -0.0050530927, 0.0040455507, -1476136.4, 29148.896, 0.0, 5.016235, 4.979128 
2.3820889e+2, 1.5137854e+2, -1427548.9, -1484350.3, -2674.4573, -0.007876909, 0.00032663599, -1427423.3, 29066.434, 0.0, 5.0161214, 4.979129 
2.3820771e+2, 1.5635756e+2, -1380270.9, -1438441.9, -2707.8804, -0.010704776, -0.0029621709, -1380145.1, 27549.012, 0.0, 5.0160055, 4.978135 
2.3820622e+2, 1.6133289e+2, -1339685.4, -1406487.9, -3503.1755, -0.012890059, -0.0004705677, -1339502.3, 19432.965, 0.0, 5.0158734, 4.9724803 
2.3820409e+2, 1.6630551e+2, -1290877.3, -1357257.4, -3720.632, -0.013451633, -0.0024531737, -1290669.4, 19534.002, 0.0, 5.0157146, 4.9725943 
2.3820193e+2, 1.7127818e+2, -1242241.6, -1308370.9, -3765.4329, -0.013946594, -0.0042118332, -1242027.9, 19443.303, 0.0, 5.015551, 4.9725947 
2.3819979e+2, 1.7625086e+2, -1194751.0, -1261891.1, -3812.2385, -0.014453955, -0.005563348, -1194535.3, 18203.752, 0.0, 5.0153832, 4.971788 
2.3819733e+2, 1.8122008e+2, -1154179.3, -1229935.4, -4558.16, -0.014375585, 0.000115883995, -1153906.0, 10134.143, 0.0, 5.0151787, 4.966085 
2.3819421e+2, 1.861863e+2, -1105273.1, -1180060.6, -4724.379, -0.01290754, -0.0043562837, -1104975.9, 10393.821, 0.0, 5.0149136, 4.9664407 
2.3819108e+2, 1.9115253e+2, -1056864.6, -1131239.9, -4700.6694, -0.011414197, -0.009151205, -1056568.8, 10130.32, 0.0, 5.0146446, 4.9664426 
2.3818795e+2, 1.9611877e+2, -1009349.7, -1084333.3, -4676.9473, -0.009949831, -0.013627671, -1009059.06, 8969.278, 0.0, 5.014374, 4.9657936 
2.3818453e+2, 2.0108172e+2, -969698.5, -1054466.5, -5062.02, -0.009523279, -0.007997241, -969397.3, -6.5886564, 0.0, 5.014117, 4.959319 
2.3818034e+2, 2.0604192e+2, -920652.25, -1004480.7, -5218.5625, -0.012167771, -0.005338835, -920328.6, 454.18402, 0.0, 5.013872, 4.9596763 
2.3817612e+2, 2.1100214e+2, -872115.2, -955561.75, -5241.209, -0.015039143, -0.002970175, -871787.3, 387.47003, 0.0, 5.013619, 4.959676 
2.381719e+2, 2.1596235e+2, -824257.6, -908101.44, -5263.934, -0.01793893, -0.0004904643, -823928.44, -361.6939, 0.0, 5.0133595, 4.9591756 
2.381678e+2, 2.2091903e+2, -783557.06, -876311.0, -4801.635, -0.021811621, 0.0063853837, -783309.1, -8317.426, 0.0, 5.0130935, 4.9532785 
2.3816398e+2, 2.2587192e+2, -734084.7, -825152.4, -4517.8022, -0.028125588, -0.007726606, -733861.1, -7412.9976, 0.0, 5.012789, 4.9540324 
2.3816016e+2, 2.3082481e+2, -685656.06, -776199.9, -4396.1177, -0.034522213, -0.023114972, -685443.1, -7538.8794, 0.0, 5.012463, 4.9540453 
2.3815633e+2, 2.357777e+2, -637920.7, -728711.0, -4288.7197, -0.040939033, -0.038665384, -637718.56, -8358.16, 0.0, 5.01212, 4.9535565 
2.3815289e+2, 2.407283e+2, -600535.8, -703133.9, -4167.638, -0.043473225, -0.027685871, -600366.8, -19524.354, 0.0, 5.0115867, 4.945497 
2.3815095e+2, 2.4567758e+2, -552171.8, -652772.3, -4007.0027, -0.036903974, 0.001188325, -552012.5, -19664.064, 0.0, 5.0109215, 4.946079 
2.3814908e+2, 2.5062683e+2, -504467.25, -604257.7, -4217.689, -0.030105768, 0.02821892, -504289.3, -20433.492, 0.0, 5.0102797, 4.946042 
2.381471e+2, 2.5557616e+2, -457036.72, -556316.6, -4414.8413, -0.023293847, 0.05644585, -456840.78, -21478.441, 0.0, 5.0096154, 4.945807 
2.3814407e+2, 2.6051947e+2, -415905.22, -520750.72, -6007.337, -0.021856457, 0.071710914, -415562.13, -28642.336, 0.0, 5.008628, 4.9409933 
2.381329e+2, 2.6546058e+2, -364627.66, -449954.38, -6328.234, -0.09750556, -0.040048942, -364160.88, -25695.123, 0.0, 5.005222, 4.949175 
2.3811966e+2, 2.7040327e+2, -325585.3, -403222.53, -6472.3364, -0.18891303, -0.17219032, -325049.44, -35056.633, 0.0, 5.0009103, 4.949908 
2.381055e+2, 2.7534625e+2, -288048.0, -357422.38, -7377.4424, -0.283537, -0.31336766, -287272.13, -45755.203, 0.0, 4.9959807, 4.9505982 
2.3810738e+2, 2.802969e+2, -296149.16, -446397.25, -6138.004, -0.24169487, -0.12661825, -295898.8, -102920.836, 0.0, 4.997048, 4.90333 
2.3811677e+2, 2.8523663e+2, -203878.8, -329400.84, -15653.1, -0.13699731, 0.11751631, -201956.25, -57350.83, 0.0, 5.00436, 4.9231014 
2.3811463e+2, 2.9016384e+2, -144917.38, -272755.75, -14302.493, -0.11508994, 0.12150846, -143336.77, -46973.97, 0.0, 5.007659, 4.92374 
2.3811108e+2, 2.9509005e+2, -88865.97, -217613.81, -13627.033, -0.09398816, 0.104926355, -87439.45, -39309.535, 0.0, 5.009773, 4.9243827 
2.3810747e+2, 3.0002153e+2, -26626.04, -108614.12, -13220.758, -0.03631932, 0.021498922, -24546.889, -24546.889, 0.0, 5.0107284, 4.953826 
2.380915e+2, 3.049835e+2, -9556.922, -55972.227, -11349.234, 0.014977442, -0.15693869, -6930.483, -6930.483, 0.0, 5.008927, 4.971207 
2.3806761e+2, 3.099627e+2, -17861.441, -52828.227, -11047.252, 0.022635825, -0.2783799, -14663.664, -14663.664, 0.0, 5.0047874, 4.9737544 
2.3803957e+2, 3.1494948e+2, -30995.67, -52289.516, -10649.379, 0.013309162, -0.34874, -26583.832, -26583.832, 0.0, 4.9985933, 4.976316 
2.4322638e+2, 1.2147995e+2, -1707809.9, -1755275.4, -1121.1796, 0.011083329, -0.0031432114, -1707783.4, 41712.99, 0.0, 5.017222, 4.9863067 
2.4322622e+2, 1.2646669e+2, -1660513.9, -1709451.8, -1645.9972, -0.00010448861, 0.011741686, -1660458.6, 40172.598, 0.0, 5.0171685, 4.9853 
2.4322698e+2, 1.3145116e+2, -1611859.9, -1660631.5, -1626.3153, -0.00063546957, 0.0025612784, -1611805.8, 39976.63, 0.0, 5.017064, 4.9853 
2.4322774e+2, 1.3643561e+2, -1565409.5, -1616343.4, -1608.4229, -0.001108427, -0.0052912734, -1565358.8, 37574.93, 0.0, 5.0169587, 4.9837966 
2.432278e+2, 1.4141743e+2, -1523750.4, -1582012.5, -2764.677, -0.0021737544, 0.0040837876, -1523619.5, 30491.021, 0.0, 5.0168595, 4.978915 
2.432266e+2, 1.4639652e+2, -1474717.1, -1532595.0, -3013.9465, -0.0045434325, 0.0016824224, -1474560.5, 30753.441, 0.0, 5.0167766, 4.979079 
2.432254e+2, 1.5137553e+2, -1425922.5, -1483670.0, -3062.101, -0.006969928, -0.0016714474, -1425760.5, 30757.605, 0.0, 5.016693, 4.97908 
2.4322419e+2, 1.5635455e+2, -1378553.4, -1437718.9, -3111.6775, -0.009380215, -0.004552917, -1378390.1, 29332.176, 0.0, 5.0166097, 4.9780865 
2.4322256e+2, 1.6132985e+2, -1338030.4, -1405800.6, -4001.97, -0.011312274, -0.0017283815, -1337794.9, 21168.51, 0.0, 5.0164595, 4.9724293 
2.4322018e+2, 1.6630243e+2, -1289604.6, -1356766.6, -4241.664, -0.012035907, -0.0037002626, -1289337.8, 20894.285, 0.0, 5.0161734, 4.97254 
2.432178e+2, 1.7127503e+2, -1241344.1, -1308067.8, -4287.8076, -0.012673717, -0.0054885284, -1241069.8, 20430.72, 0.0, 5.015883, 4.972539 
2.4321538e+2, 1.7624766e+2, -1194214.1, -1261767.6, -4334.373, -0.013284762, -0.006893791, -1193937.3, 18831.67, 0.0, 5.0155926, 4.971731 
2.4321266e+2, 1.812168e+2, -1153788.1, -1229812.6, -5094.246, -0.0133630475, -0.0013709717, -1153448.3, 10622.371, 0.0, 5.015322, 4.9660587 
2.4320929e+2, 1.86183e+2, -1104707.4, -1179843.8, -5321.4756, -0.012186914, -0.006027838, -1104332.3, 11068.341, 0.0, 5.015115, 4.9664197 
2.432059e+2, 1.9114919e+2, -1056113.6, -1130936.0, -5370.334, -0.010953419, -0.011002248, -1055730.1, 11000.325, 0.0, 5.0149107, 4.9664216 
2.4320251e+2, 1.9611539e+2, -1008408.06, -1083940.8, -5419.548, -0.0097164735, -0.015671514, -1008021.2, 10039.012, 0.0, 5.014706, 4.9657726 
2.4319887e+2, 2.0107834e+2, -968559.75, -1053940.4, -5814.5063, -0.009292664, -0.010008426, -968165.6, 1257.098, 0.0, 5.0145087, 4.959317 
2.4319455e+2, 2.0603858e+2, -919361.75, -1003828.44, -5902.612, -0.011109317, -0.0069820466, -918951.3, 1863.0854, 0.0, 5.014307, 4.9596996 
2.431902e+2, 2.1099888e+2, -870692.06, -954846.8, -5852.67, -0.013017224, -0.0042208103, -870287.0, 1918.7896, 0.0, 5.0141015, 4.9596996 
2.4318583e+2, 2.1595915e+2, -822684.94, -907316.5, -5802.8867, -0.014888472, -0.0013077278, -822288.94, 1308.2034, 0.0, 5.013896, 4.9592 
2.4318156e+2, 2.2091588e+2, -781953.75, -875369.5, -5416.3276, -0.01774322, 0.0056290724, -781640.75, -6619.147, 0.0, 5.0136137, 4.9533653 
2.4317738e+2, 2.2586875e+2, -733124.2, -824527.6, -5263.505, -0.023330905, -0.009716523, -732822.06, -6343.955, 0.0, 5.0130816, 4.9541187 
2.431732e+2, 2.308216e+2, -685339.7, -775919.06, -5218.6113, -0.028955424, -0.026400989, -685040.06, -7105.492, 0.0, 5.012531, 4.954118 
2.4316901e+2, 2.3577441e+2, -638196.7, -728746.9, -5170.5146, -0.034503438, -0.043217942, -637902.4, -8511.246, 0.0, 5.011978, 4.953615 
2.4316509e+2, 2.4072509e+2, -601086.25, -703735.94, -5110.836, -0.036493313, -0.03107289, -600832.4, -19960.19, 0.0, 5.011389, 4.945407 
2.4316254e+2, 2.4567485e+2, -552218.56, -653037.94, -4745.526, -0.029878274, 0.0028220513, -551995.7, -19621.734, 0.0, 5.010849, 4.946053 
2.4316007e+2, 2.5062454e+2, -504148.03, -604308.25, -4747.727, -0.022754436, 0.034167197, -503923.47, -20046.016, 0.0, 5.010313, 4.946032 
2.431575e+2, 2.555743e+2, -456318.0, -556137.4, -4743.0854, -0.015372488, 0.06619118, -456093.13, -20712.645, 0.0, 5.0097623, 4.945813 
2.4315415e+2, 2.6051745e+2, -414499.3, -521719.4, -6250.952, -0.009387644, 0.08234545, -414136.1, -27197.469, 0.0, 5.0092006, 4.940424 
2.4314311e+2, 2.6545614e+2, -359583.44, -451471.63, -7107.4233, -0.0608515, -0.047226787, -359036.94, -20534.426, 0.0, 5.007167, 4.9478965 
2.4312998e+2, 2.703952e+2, -315459.2, -404688.84, -6491.3813, -0.12328266, -0.20081194, -314989.4, -24930.883, 0.0, 5.004773, 4.9479017 
2.4311587e+2, 2.753336e+2, -271283.78, -358070.7, -5528.8154, -0.18620665, -0.3639434, -270932.97, -29311.8, 0.0, 5.002312, 4.9478583 
2.431178e+2, 2.8028166e+2, -279079.16, -444145.4, 7704.929, -0.14132564, -0.16320138, -278720.28, -85617.375, 0.0, 5.003853, 4.900271 
2.4312784e+2, 2.852259e+2, -191469.17, -315233.0, -2550.3582, -0.07291696, 0.10676585, -191416.64, -46727.492, 0.0, 5.0073705, 4.9253387 
2.4312651e+2, 2.9015738e+2, -139683.03, -265274.84, -5403.9585, -0.07094843, 0.11999742, -139450.94, -43042.35, 0.0, 5.0084205, 4.925075 
2.4312386e+2, 2.9508784e+2, -87842.23, -215417.95, -7731.627, -0.06427056, 0.122090615, -87375.37, -39237.223, 0.0, 5.0092697, 4.9248104 
2.4312147e+2, 3.0002132e+2, -27188.576, -116772.72, -8980.385, -0.01576377, 0.05437504, -26297.205, -26297.205, 0.0, 5.01086, 4.9507203 
2.4311022e+2, 3.049778e+2, 2233.9758, -65541.41, -11588.751, 0.06538197, -0.15146506, 4160.734, 4160.734, 0.0, 5.014011, 4.965357 
2.4309196e+2, 3.0994597e+2, 13355.328, -56067.63, -15089.515, 0.12270773, -0.35385698, 16493.291, 16493.291, 0.0, 5.0167103, 4.9670396 
2.4306968e+2, 3.14916e+2, 24663.0, -46790.91, -17987.717, 0.17373529, -0.56228137, 28935.71, 28935.71, 0.0, 5.019171, 4.968727 
2.4824297e+2, 1.2147591e+2, -1708248.9, -1756166.3, -849.923, 0.0047124764, -0.013973219, -1708233.9, 41303.203, 0.0, 5.017221, 4.9860153 
2.4824367e+2, 1.264652e+2, -1660463.0, -1709355.0, -1726.9978, 0.002585056, 0.026407115, -1660402.0, 40244.816, 0.0, 5.0171695, 4.9853325 
2.4824415e+2, 1.3144897e+2, -1611808.8, -1660534.6, -1705.5361, 0.00043540678, 0.0100162495, -1611749.1, 40055.246, 0.0, 5.0170646, 4.9853325 
2.4824464e+2, 1.3643274e+2, -1565357.9, -1616245.9, -1685.7332, -0.0016765628, -0.0050444324, -1565302.1, 37659.98, 0.0, 5.0169597, 4.983829 
2.4824454e+2, 1.414141e+2, -1523786.8, -1582087.0, -2834.345, -0.003357786, -0.00037202516, -1523649.3, 30493.688, 0.0, 5.016859, 4.978891 
2.4824342e+2, 1.4639322e+2, -1474800.3, -1532765.9, -3076.6282, -0.0042528855, -0.0020116484, -1474637.4, 30708.441, 0.0, 5.016776, 4.9790225 
2.4824227e+2, 1.5137227e+2, -1426004.6, -1483840.6, -3124.0024, -0.005153965, -0.0044120126, -1425836.4, 30712.965, 0.0, 5.016693, 4.9790235 
2.4824114e+2, 1.5635131e+2, -1378634.4, -1437889.1, -3172.7563, -0.0060456702, -0.0063408925, -1378465.0, 29287.818, 0.0, 5.01661, 4.97803 
2.4823944e+2, 1.6132663e+2, -1338111.8, -1405970.5, -4193.872, -0.007086646, -0.0028323724, -1337853.6, 21139.793, 0.0, 5.0164595, 4.972373 
2.4823673e+2, 1.6629915e+2, -1289684.3, -1356931.1, -4463.9165, -0.008438051, -0.0047459668, -1289389.3, 20873.287, 0.0, 5.016173, 4.972485 
2.4823396e+2, 1.7127171e+2, -1241423.6, -1308230.5, -4508.7383, -0.009787393, -0.0064985254, -1241120.8, 20410.744, 0.0, 5.0158825, 4.972485 
2.482312e+2, 1.7624427e+2, -1194293.4, -1261928.6, -4553.9463, -0.011126713, -0.007867495, -1193988.1, 18812.162, 0.0, 5.0155916, 4.9716773 
2.4822812e+2, 1.812134e+2, -1153858.9, -1229958.5, -5268.027, -0.012093922, -0.0023500964, -1153496.0, 10606.666, 0.0, 5.0153217, 4.9660096 
2.4822444e+2, 1.8617953e+2, -1104789.8, -1180014.5, -5475.3965, -0.012027465, -0.006879007, -1104393.4, 11040.034, 0.0, 5.015114, 4.966362 
2.4822073e+2, 1.9114569e+2, -1056196.6, -1131106.1, -5522.9395, -0.011913648, -0.011686867, -1055791.6, 10972.33, 0.0, 5.0149093, 4.966364 
2.4821705e+2, 1.9611184e+2, -1008491.56, -1084110.3, -5570.8164, -0.011813837, -0.01618069, -1008083.4, 10011.019, 0.0, 5.0147047, 4.965715 
2.4821317e+2, 2.0107476e+2, -968520.3, -1053852.6, -5965.7207, -0.011687863, -0.010566621, -968105.25, 1352.1766, 0.0, 5.0145082, 4.959348 
2.4820884e+2, 2.0603499e+2, -919268.1, -1003626.44, -6060.909, -0.011601984, -0.008294158, -918834.9, 2014.0469, 0.0, 5.0143065, 4.9597692 
2.4820447e+2, 2.1099527e+2, -870599.3, -954645.44, -6008.97, -0.011516092, -0.006328708, -870171.9, 2068.2656, 0.0, 5.0141015, 4.9597692 
2.482001e+2, 2.1595554e+2, -822593.1, -907115.6, -5957.174, -0.011416073, -0.0042050094, -822175.3, 1456.0027, 0.0, 5.013896, 4.95927 
2.4819572e+2, 2.209123e+2, -781853.9, -875120.4, -5743.047, -0.012393214, 0.0022961225, -781501.56, -6446.192, 0.0, 5.0136094, 4.9534526 
2.4819118e+2, 2.2586533e+2, -733045.5, -824295.25, -5650.526, -0.016421221, -0.012133657, -732696.94, -6186.2744, 0.0, 5.0130725, 4.9542017 
2.4818662e+2, 2.3081836e+2, -685268.5, -775682.75, -5599.415, -0.020622354, -0.027738944, -684923.06, -6957.3438, 0.0, 5.0125194, 4.954203 
2.4818204e+2, 2.3577137e+2, -638132.94, -728506.6, -5545.056, -0.024848659, -0.04344421, -637794.0, -8373.092, 0.0, 5.011964, 4.953703 
2.4817759e+2, 2.407222e+2, -601056.56, -703401.44, -5537.1147, -0.026890066, -0.030931197, -600757.9, -19857.006, 0.0, 5.0113487, 4.9455338 
2.4817416e+2, 2.4567212e+2, -552205.9, -652645.75, -5186.5776, -0.023699138, 0.003009092, -551938.75, -19538.258, 0.0, 5.0107946, 4.9462023 
2.4817082e+2, 2.50622e+2, -504136.28, -603898.56, -5176.7134, -0.020220319, 0.034660526, -503868.38, -19966.912, 0.0, 5.0102577, 4.9461856 
2.4816738e+2, 2.5557193e+2, -456307.28, -555710.2, -5159.987, -0.016575303, 0.0669812, -456040.16, -20638.207, 0.0, 5.0097055, 4.945971 
2.4816352e+2, 2.6051554e+2, -414258.3, -520239.56, -6491.863, -0.010974278, 0.08395768, -413862.13, -26907.47, 0.0, 5.0090623, 4.9409823 
2.4815331e+2, 2.6545432e+2, -360161.06, -450054.66, -7233.7256, -0.042922728, -0.049299665, -359582.7, -21068.102, 0.0, 5.006781, 4.9485097 
2.4814099e+2, 2.7039367e+2, -316609.38, -402807.9, -6340.3535, -0.08708269, -0.20596997, -316145.5, -26080.834, 0.0, 5.004153, 4.94873 
2.4812755e+2, 2.7533287e+2, -273007.53, -355724.84, -5099.95, -0.13605037, -0.36962724, -272694.28, -31077.404, 0.0, 5.0014577, 4.9489017 
2.4812888e+2, 2.80281e+2, -276907.9, -441381.16, 11444.284, -0.11828333, -0.18033317, -276115.4, -83020.81, 0.0, 5.004135, 4.9013057 
2.48139e+2, 2.8522468e+2, -188096.66, -316628.2, -991.5922, -0.06401804, 0.08788316, -188089.0, -43404.473, 0.0, 5.0085626, 4.9248853 
2.481387e+2, 2.901563e+2, -136672.73, -265697.5, -3367.5474, -0.050530925, 0.110502526, -136584.89, -40184.266, 0.0, 5.0094366, 4.924936 
2.4813692e+2, 2.9508707e+2, -85196.305, -214871.69, -5218.299, -0.038604625, 0.12044209, -84986.66, -36861.15, 0.0, 5.01011, 4.924985 
2.4813545e+2, 3.00021e+2, -25639.365, -115873.234, -5323.1567, 0.0029053432, 0.05575473, -25326.422, -25326.422, 0.0, 5.0113845, 4.9510636 
2.4812841e+2, 3.0497518e+2, -2093.3606, -73430.61, -6756.174, 0.07844539, -0.14031674, -1459.1387, -1459.1387, 0.0, 5.0138245, 4.9629445 
2.4811469e+2, 3.0994165e+2, 6741.212, -64782.348, -9284.57, 0.12238086, -0.31019932, 7926.8022, 7926.8022, 0.0, 5.0158334, 4.964656 
2.4809639e+2, 3.149114e+2, 15771.618, -56328.164, -11210.985, 0.14443474, -0.46853337, 17474.62, 17474.62, 0.0, 5.017603, 4.9663725 
2.5325957e+2, 1.2147182e+2, -1708630.1, -1756938.3, -569.13055, -0.0018694993, -0.025284855, -1708623.4, 40954.914, 0.0, 5.01722, 4.9857626 
2.5326112e+2, 1.2646373e+2, -1660412.5, -1709258.0, -1807.9788, 0.005284823, 0.0411726, -1660345.6, 40316.754, 0.0, 5.0171704, 4.9853644 
2.5326133e+2, 1.3144681e+2, -1611758.1, -1660437.6, -1784.7373, 0.0015117986, 0.01754501, -1611692.8, 40133.58, 0.0, 5.0170655, 4.985364 
2.5326157e+2, 1.3642988e+2, -1565306.8, -1616148.1, -1763.0239, -0.0022438886, -0.0047500664, -1565245.6, 37744.73, 0.0, 5.0169606, 4.9838614 
2.532613e+2, 1.4141078e+2, -1523828.5, -1582172.0, -2905.2004, -0.0045400434, -0.0047896784, -1523684.3, 30491.244, 0.0, 5.016859, 4.9788632 
2.5326023e+2, 1.463899e+2, -1474883.8, -1532936.5, -3139.0234, -0.0039587007, -0.0056781895, -1474714.5, 30663.256, 0.0, 5.0167756, 4.978966 
2.5325915e+2, 1.51369e+2, -1426087.0, -1484011.0, -3185.6172, -0.0033341756, -0.007139866, -1425912.3, 30668.14, 0.0, 5.016693, 4.978967 
2.5325808e+2, 1.5634808e+2, -1378715.5, -1438059.1, -3233.5483, -0.0027071103, -0.008130972, -1378539.9, 29243.281, 0.0, 5.01661, 4.9779735 
2.5325632e+2, 1.6132341e+2, -1338201.0, -1406155.6, -4386.6563, -0.0028454564, -0.0039213835, -1337919.0, 21104.455, 0.0, 5.016459, 4.9723115 
2.5325325e+2, 1.6629589e+2, -1289764.4, -1357095.4, -4686.8164, -0.004827676, -0.005785329, -1289439.8, 20853.336, 0.0, 5.0161724, 4.97243 
2.5325015e+2, 1.7126839e+2, -1241503.5, -1308393.0, -4730.317, -0.0068954714, -0.007521298, -1241170.6, 20391.818, 0.0, 5.015882, 4.97243 
2.5324702e+2, 1.762409e+2, -1194373.0, -1262089.4, -4774.1675, -0.008969985, -0.008873087, -1194038.1, 18793.68, 0.0, 5.0155907, 4.971623 
2.5324357e+2, 1.8120998e+2, -1153933.3, -1230111.0, -5441.175, -0.010839443, -0.0033194516, -1153546.5, 10588.112, 0.0, 5.0153213, 4.965958 
2.5323957e+2, 1.8617608e+2, -1104872.8, -1180184.9, -5629.541, -0.011888911, -0.0077180373, -1104454.3, 11011.877, 0.0, 5.0151134, 4.9663043 
2.5323558e+2, 1.9114219e+2, -1056280.0, -1131275.9, -5675.768, -0.012897637, -0.012379412, -1055852.9, 10944.487, 0.0, 5.0149083, 4.966306 
2.5323156e+2, 1.9610831e+2, -1008575.5, -1084279.4, -5722.308, -0.0139378235, -0.016717851, -1008145.44, 9983.172, 0.0, 5.0147033, 4.9656577 
2.5322747e+2, 2.010712e+2, -968494.06, -1053792.5, -6116.267, -0.014065989, -0.011061617, -968057.75, 1434.3701, 0.0, 5.014508, 4.959369 
2.5322312e+2, 2.0603141e+2, -919175.0, -1003424.1, -6219.54, -0.012063829, -0.009528509, -918718.4, 2165.1174, 0.0, 5.0143065, 4.959839 
2.5321874e+2, 2.1099167e+2, -870507.1, -954443.7, -6165.604, -0.00998734, -0.008392174, -870056.7, 2217.8523, 0.0, 5.0141015, 4.959839 
2.5321436e+2, 2.1595193e+2, -822501.8, -906914.44, -6111.795, -0.007919254, -0.00709118, -822061.6, 1603.9071, 0.0, 5.013896, 4.9593396 
2.532099e+2, 2.209087e+2, -781764.56, -874889.7, -6074.3066, -0.0070408606, -0.0010236775, -781370.06, -6280.903, 0.0, 5.0136046, 4.953532 
2.5320497e+2, 2.2586192e+2, -732970.0, -824059.9, -6040.9688, -0.009554184, -0.014579028, -732571.1, -6027.913, 0.0, 5.013064, 4.954284 
2.5320002e+2, 2.3081514e+2, -685200.5, -775443.44, -5983.6416, -0.012368028, -0.02917046, -684805.5, -6808.551, 0.0, 5.0125074, 4.954288 
2.5319505e+2, 2.3576835e+2, -638072.4, -728263.4, -5923.021, -0.0153087275, -0.043829355, -637685.06, -8234.362, 0.0, 5.0119495, 4.9537897 
2.5319e+2, 2.4071932e+2, -601065.5, -703110.5, -6001.9595, -0.017301517, -0.030593092, -600713.7, -19784.352, 0.0, 5.011309, 4.94564 
2.5318575e+2, 2.4566941e+2, -552216.44, -652230.6, -5639.685, -0.017456418, 0.003559557, -551899.44, -19472.684, 0.0, 5.0107403, 4.9463506 
2.5318155e+2, 2.5061947e+2, -504147.8, -603465.9, -5617.7573, -0.017600743, 0.035458177, -503831.06, -19905.824, 0.0, 5.010202, 4.946338 
2.531772e+2, 2.555696e+2, -456319.84, -555259.94, -5588.948, -0.017670808, 0.068016455, -456005.13, -20581.92, 0.0, 5.0096483, 4.946128 
2.5317287e+2, 2.6051348e+2, -414146.44, -518839.06, -6944.6494, -0.011754713, 0.0846941, -413687.78, -26715.854, 0.0, 5.008925, 4.9414735 
2.531631e+2, 2.6545224e+2, -360847.72, -448535.53, -7684.6494, -0.025630318, -0.055366304, -360179.38, -21650.063, 0.0, 5.006396, 4.949079 
2.5315112e+2, 2.7039182e+2, -317868.66, -400823.9, -6514.551, -0.053472795, -0.2180667, -317360.16, -27285.771, 0.0, 5.0035334, 4.949514 
2.5313786e+2, 2.7533162e+2, -274840.38, -353275.03, -4996.8906, -0.09044099, -0.38519305, -274523.3, -32906.266, 0.0, 5.0006037, 4.9499006 
2.5314027e+2, 2.8028056e+2, -276642.63, -442931.97, 16734.03, -0.09260565, -0.1937844, -274975.38, -81891.04, 0.0, 5.004427, 4.900831 
2.531518e+2, 2.852241e+2, -185037.23, -317714.28, -17.231537, -0.04844876, 0.082083255, -185037.23, -40364.08, 0.0, 5.0097556, 4.9243855 
2.5315228e+2, 2.9015577e+2, -133974.31, -265811.97, -1914.7875, -0.026604088, 0.110117935, -133946.5, -37559.207, 0.0, 5.010454, 4.92475 
2.5315106e+2, 2.9508668e+2, -82860.945, -214018.36, -3287.8967, -0.012587105, 0.12393235, -82778.57, -34669.707, 0.0, 5.010952, 4.925113 
2.5315067e+2, 3.000203e+2, -25432.172, -117035.85, -2042.9722, 0.025405666, 0.057078227, -25386.63, -25386.63, 0.0, 5.01191, 4.9505095 
2.5314766e+2, 3.0497128e+2, -6793.082, -80964.875, -2055.3972, 0.10532035, -0.14042433, -6736.168, -6736.168, 0.0, 5.0136395, 4.9604077 
2.531379e+2, 3.0993554e+2, -247.83614, -73145.67, -3607.2224, 0.14262971, -0.29115006, -69.77396, -69.77396, 0.0, 5.0149584, 4.9621477 
2.5312296e+2, 3.1490448e+2, 6501.069, -65517.98, -4556.675, 0.14248168, -0.41275454, 6788.2266, 6788.2266, 0.0, 5.0160375, 4.963893 
2.5827613e+2, 1.214677e+2, -1709158.3, -1757670.6, -128.53873, -0.00847208, -0.037043426, -1709158.0, 40461.95, 0.0, 5.017148, 4.9855576 
2.5827858e+2, 1.2646224e+2, -1660447.9, -1709207.5, -1759.2655, 0.007999411, 0.055784773, -1660384.5, 40293.496, 0.0, 5.017145, 4.985393 
2.5827855e+2, 1.3144463e+2, -1611650.4, -1660318.0, -1774.6401, 0.0025925518, 0.02501967, -1611585.8, 40262.434, 0.0, 5.017088, 4.9853926 
2.5827846e+2, 1.3642702e+2, -1565105.3, -1615983.6, -1791.9966, -0.0027927496, -0.0044189966, -1565042.3, 37976.4, 0.0, 5.017014, 4.98389 
2.5827804e+2, 1.4140747e+2, -1523694.6, -1582183.1, -2962.7737, -0.005681312, -0.009105931, -1523544.9, 30662.885, 0.0, 5.0169206, 4.9788294 
2.5827703e+2, 1.4638661e+2, -1474814.8, -1533036.9, -3204.1765, -0.0036369958, -0.00926086, -1474638.9, 30770.639, 0.0, 5.0168276, 4.978908 
2.5827605e+2, 1.5136574e+2, -1426051.8, -1484129.3, -3268.2134, -0.0015018226, -0.009812829, -1425868.4, 30743.121, 0.0, 5.0167336, 4.978908 
2.5827503e+2, 1.5634486e+2, -1378718.6, -1438196.9, -3334.9167, 0.0006306553, -0.009899789, -1378532.3, 29281.342, 0.0, 5.016638, 4.9779143 
2.582732e+2, 1.613202e+2, -1338231.0, -1406322.4, -4628.6685, 0.0013976624, -0.0049937232, -1337917.8, 21135.807, 0.0, 5.016481, 4.972245 
2.5826982e+2, 1.6629261e+2, -1289735.6, -1357203.8, -4947.8203, -0.0012107831, -0.006823369, -1289374.8, 20948.908, 0.0, 5.0162086, 4.9723763 
2.5826633e+2, 1.7126507e+2, -1241437.3, -1308481.6, -4979.5938, -0.0039889496, -0.008564042, -1241069.4, 20524.125, 0.0, 5.0159307, 4.972377 
2.5826284e+2, 1.7623752e+2, -1194275.6, -1262161.4, -5011.834, -0.006784181, -0.009916846, -1193907.6, 18955.621, 0.0, 5.0156503, 4.97157 
2.5825906e+2, 1.8120654e+2, -1153826.6, -1230182.0, -5625.9736, -0.009541409, -0.00427909, -1153414.3, 10752.313, 0.0, 5.015384, 4.9659038 
2.5825474e+2, 1.861726e+2, -1104813.1, -1180290.0, -5803.382, -0.011676526, -0.00853564, -1104369.6, 11129.292, 0.0, 5.0151625, 4.9662447 
2.5825042e+2, 1.9113867e+2, -1056281.4, -1131411.0, -5858.306, -0.013757864, -0.01306982, -1055827.4, 11003.604, 0.0, 5.014937, 4.9662466 
2.582461e+2, 1.9610476e+2, -1008655.6, -1084452.6, -5916.38, -0.01587158, -0.017280834, -1008196.6, 9966.269, 0.0, 5.0147047, 4.9655976 
2.5824177e+2, 2.0106763e+2, -968542.8, -1053789.9, -6314.602, -0.01616603, -0.011496927, -968077.6, 1449.1993, 0.0, 5.0144863, 4.95938 
2.582374e+2, 2.0602784e+2, -919125.9, -1003241.9, -6429.9443, -0.012282517, -0.010643857, -918637.2, 2280.8174, 0.0, 5.014292, 4.959908 
2.5823304e+2, 2.1098807e+2, -870446.0, -954255.94, -6379.111, -0.008262732, -0.010324488, -869963.25, 2345.6387, 0.0, 5.014091, 4.959908 
2.5822863e+2, 2.1594831e+2, -822442.4, -906727.44, -6328.034, -0.004264344, -0.009838689, -821969.94, 1729.7699, 0.0, 5.013885, 4.9594088 
2.5822407e+2, 2.2090514e+2, -781703.06, -874699.6, -6489.3657, -0.0015729727, -0.0041860817, -781252.44, -6129.503, 0.0, 5.0135965, 4.9536 
2.5821874e+2, 2.258585e+2, -732834.94, -823814.75, -6571.5044, -0.0026031237, -0.016975477, -732362.75, -5786.7637, 0.0, 5.01308, 4.9543576 
2.582134e+2, 2.3081188e+2, -685019.94, -775171.56, -6566.065, -0.004021475, -0.030745452, -684544.25, -6515.6636, 0.0, 5.0125403, 4.954364 
2.5820804e+2, 2.3576523e+2, -637878.2, -727979.3, -6556.094, -0.0056394646, -0.044605922, -637403.6, -7922.365, 0.0, 5.0119877, 4.9538674 
2.5820246e+2, 2.4071637e+2, -600903.56, -702811.7, -6803.9683, -0.007363137, -0.030484341, -600451.3, -19492.785, 0.0, 5.0113473, 4.945713 
2.5819737e+2, 2.4566664e+2, -551941.9, -651737.94, -6521.277, -0.010545333, 0.0043251286, -551517.56, -19064.014, 0.0, 5.010808, 4.9464707 
2.581923e+2, 2.506169e+2, -503827.44, -602956.56, -6664.3296, -0.013972647, 0.037014537, -503381.4, -19432.098, 0.0, 5.0102944, 4.946457 
2.5818714e+2, 2.5556728e+2, -455990.44, -554749.7, -6849.528, -0.017347114, 0.07062134, -455517.66, -20073.34, 0.0, 5.009755, 4.9462447 
2.5818238e+2, 2.605113e+2, -414305.6, -518124.4, -9096.105, -0.009654693, 0.086727105, -413514.66, -26524.18, 0.0, 5.008841, 4.941703 
2.5817275e+2, 2.6544937e+2, -364498.47, -449261.1, -12256.219, -0.003998824, -0.06498207, -362761.88, -24209.986, 0.0, 5.005155, 4.949229 
2.5816086e+2, 2.7038816e+2, -326618.2, -403348.38, -13417.627, -0.013144297, -0.24165033, -324339.56, -34237.94, 0.0, 5.0004587, 4.949806 
2.581476e+2, 2.7532732e+2, -290463.84, -358355.66, -14407.553, -0.03451838, -0.42322668, -287532.88, -45885.355, 0.0, 4.9950624, 4.950338 
2.5815284e+2, 2.8027654e+2, -299517.2, -457139.6, 13417.533, -0.045126088, -0.2259317, -298383.2, -105273.78, 0.0, 4.997318, 4.899113 
2.5816688e+2, 2.8522152e+2, -196075.53, -322119.88, -5963.805, -0.013955481, 0.07255424, -195793.98, -51111.883, 0.0, 5.0061545, 4.9243813 
2.5816754e+2, 2.9015425e+2, -136944.92, -266127.25, -4896.557, 0.006893241, 0.109701864, -136759.58, -40375.53, 0.0, 5.0096765, 4.924878 
2.5816646e+2, 2.950861e+2, -81312.484, -211822.14, -4079.1995, 0.016180005, 0.12972564, -81185.11, -33090.48, 0.0, 5.011762, 4.9253783 
2.5816727e+2, 3.000193e+2, -26048.557, -119354.22, -245.21387, 0.05312766, 0.0598828, -26047.912, -26047.912, 0.0, 5.012763, 4.949079 
2.581683e+2, 3.0496612e+2, -17718.186, -89445.48, 3927.8367, 0.15228203, -0.15580189, -17503.736, -17503.736, 0.0, 5.011346, 4.957967 
2.5816223e+2, 3.0992728e+2, -27180.22, -87489.086, 9525.259, 0.20038079, -0.31438723, -25711.555, -25711.555, 0.0, 5.0068655, 4.9600277 
2.5815067e+2, 3.1489444e+2, -43418.53, -88706.88, 19228.596, 0.2004223, -0.4325831, -36355.844, -36355.844, 0.0, 4.9996305, 4.9620967 
2.6329342e+2, 1.2146487e+2, -1706927.3, -1756108.8, 291.5689, -0.010187389, -0.042679626, -1706925.5, 42722.313, 0.0, 5.017791, 4.9857545 
2.6329607e+2, 1.2646024e+2, -1658842.5, -1708773.0, -1244.044, 0.0086417515, 0.05991862, -1658811.5, 41885.52, 0.0, 5.0177584, 4.985236 
2.63296e+2, 1.3144228e+2, -1609759.4, -1659751.5, -1466.9114, 0.0029570165, 0.027185611, -1609716.4, 42154.375, 0.0, 5.017798, 4.9852343 
2.6329595e+2, 1.3642429e+2, -1562881.0, -1615261.6, -1691.2394, -0.0025992128, -0.004275968, -1562826.5, 40218.27, 0.0, 5.017837, 4.9837303 
2.6329547e+2, 1.4140446e+2, -1521246.9, -1581310.9, -3104.7947, -0.0053859404, -0.0102228485, -1521086.8, 33149.934, 0.0, 5.01781, 4.9786873 
2.6329437e+2, 1.4638351e+2, -1472551.3, -1532266.9, -3453.6465, -0.0029649828, -0.0099440375, -1472352.3, 33087.5, 0.0, 5.0176587, 4.978762 
2.6329327e+2, 1.5136254e+2, -1423975.8, -1483457.8, -3609.2825, -0.00045066478, -0.010033991, -1423757.6, 32885.332, 0.0, 5.0175033, 4.978761 
2.6329216e+2, 1.5634155e+2, -1376823.5, -1437619.9, -3765.783, 0.0020645831, -0.009686025, -1376591.1, 31255.158, 0.0, 5.017348, 4.9777665 
2.6329023e+2, 1.6131675e+2, -1336300.0, -1405490.9, -5188.97, 0.0031731306, -0.0048232367, -1335913.0, 23174.34, 0.0, 5.017154, 4.972201 
2.632866e+2, 1.6628908e+2, -1287747.3, -1356281.9, -5498.495, 0.00091465766, -0.0074497024, -1287309.0, 23048.97, 0.0, 5.0168905, 4.97236 
2.6328287e+2, 1.7126144e+2, -1239421.0, -1307547.6, -5504.1416, -0.0014789802, -0.009972375, -1238979.1, 22648.992, 0.0, 5.0166245, 4.972361 
2.6327917e+2, 1.7623381e+2, -1192225.4, -1261212.3, -5510.863, -0.003862751, -0.012087834, -1191787.9, 21110.502, 0.0, 5.0163584, 4.9715548 
2.6327515e+2, 1.8120278e+2, -1151849.5, -1229314.0, -6099.749, -0.006374895, -0.0067328904, -1151372.1, 12829.791, 0.0, 5.016078, 4.9658694 
2.6327053e+2, 1.8616886e+2, -1103083.5, -1179567.1, -6244.897, -0.008724243, -0.010326646, -1102577.0, 12957.3, 0.0, 5.0157766, 4.9662023 
2.6326594e+2, 1.9113496e+2, -1054777.5, -1130808.1, -6266.68, -0.010969967, -0.014215434, -1054264.4, 12602.02, 0.0, 5.015475, 4.966201 
2.6326132e+2, 1.9610104e+2, -1007357.5, -1083959.6, -6288.278, -0.0131684495, -0.017825011, -1006844.75, 11353.892, 0.0, 5.0151725, 4.9655495 
2.6325676e+2, 2.0106393e+2, -967355.94, -1053173.4, -6612.1177, -0.013376913, -0.011646089, -966849.44, 2713.1956, 0.0, 5.0148807, 4.9594073 
2.632522e+2, 2.060242e+2, -918048.06, -1002631.44, -6729.2407, -0.009129405, -0.0105091715, -917516.0, 3437.2776, 0.0, 5.01464, 4.959955 
2.6324764e+2, 2.1098453e+2, -869469.4, -953695.5, -6709.254, -0.0046947836, -0.009900859, -868938.25, 3405.2988, 0.0, 5.0144043, 4.959955 
2.632431e+2, 2.1594484e+2, -821552.56, -906210.0, -6689.9395, -0.00024082656, -0.009147039, -821027.2, 2706.6333, 0.0, 5.0141683, 4.9594555 
2.6323828e+2, 2.2090171e+2, -780852.44, -874400.0, -7023.325, 0.0030455792, -0.0030906142, -780328.06, -5171.225, 0.0, 5.013901, 4.953566 
2.632327e+2, 2.2585511e+2, -731630.3, -823421.8, -7240.2964, 0.003048481, -0.014718227, -731062.75, -4452.2085, 0.0, 5.0135193, 4.954297 
2.6322702e+2, 2.3080851e+2, -683389.1, -774583.8, -7322.629, 0.0028196713, -0.027568124, -682804.9, -4740.848, 0.0, 5.0131283, 4.954304 
2.6322135e+2, 2.3576187e+2, -635790.5, -727186.3, -7400.374, 0.0025115495, -0.040857382, -635195.2, -5677.2456, 0.0, 5.0127363, 4.9538093 
2.6321548e+2, 2.4071284e+2, -597717.6, -700927.3, -7570.9707, 0.0022311031, -0.029194204, -597165.2, -16167.887, 0.0, 5.012351, 4.945914 
2.632101e+2, 2.4566302e+2, -548126.56, -649820.2, -7028.1226, 0.0004043866, 0.003108386, -547643.1, -15151.86, 0.0, 5.0120707, 4.94659 
2.6320478e+2, 2.506134e+2, -499422.7, -600953.6, -6864.263, -0.001336975, 0.03602113, -498960.7, -14976.765, 0.0, 5.011796, 4.9465294 
2.6319936e+2, 2.5556397e+2, -450960.2, -552651.5, -6711.9517, -0.0026383235, 0.07159465, -450519.1, -15044.525, 0.0, 5.0115123, 4.9462705 
2.631946e+2, 2.6050848e+2, -408352.6, -518400.9, -9016.341, 0.010615661, 0.09321897, -407618.78, -20603.246, 0.0, 5.0113716, 4.9406867 
2.631862e+2, 2.6544425e+2, -351116.72, -451173.16, -13089.347, 0.042549063, -0.049702168, -349432.72, -10827.874, 0.0, 5.0109696, 4.9464035 
2.6317576e+2, 2.703787e+2, -301042.75, -400910.47, -14737.515, 0.06697927, -0.23540948, -298913.3, -8710.355, 0.0, 5.010435, 4.9468365 
2.63164e+2, 2.7531195e+2, -250770.34, -351037.75, -15952.505, 0.08400425, -0.4455544, -248293.48, -6480.52, 0.0, 5.009864, 4.9472213 
2.6316932e+2, 2.80253e+2, -255369.5, -418157.8, 18212.912, 0.09162112, -0.3510952, -253356.7, -59997.84, 0.0, 5.0102787, 4.906882 
2.6318222e+2, 2.8520182e+2, -182763.33, -302311.6, 1591.2178, 0.07584071, -0.05749645, -182742.14, -37853.32, 0.0, 5.0113664, 4.9282565 
2.6318258e+2, 2.9014108e+2, -131224.55, -251659.27, -695.5715, 0.05839374, 0.032279506, -131220.53, -34700.33, 0.0, 5.012108, 4.928033 
2.631814e+2, 2.9507798e+2, -79498.32, -201226.23, -2385.1804, 0.039937686, 0.09261346, -79451.6, -31277.002, 0.0, 5.01275, 4.927807 
2.6318243e+2, 3.0001777e+2, -23477.498, -110469.96, -7.53833, 0.059620198, 0.07151299, -23477.498, -23477.498, 0.0, 5.013933, 4.9507904 
2.6318622e+2, 3.0496645e+2, -3156.918, -77657.07, -1808.9822, 0.17608342, -0.12098508, -3113.0188, -3113.0188, 0.0, 5.017434, 4.9586577 
2.6318392e+2, 3.0992767e+2, 12068.997, -58688.297, -5771.5015, 0.2709445, -0.2957752, 12536.673, 12536.673, 0.0, 5.021049, 4.9632115 
2.631767e+2, 3.1489667e+2, 27837.36, -40318.047, -8858.938, 0.34226102, -0.45176426, 28970.033, 28970.033, 0.0, 5.0245624, 4.967776 
2.683113e+2, 1.2146278e+2, -1706272.8, -1754772.6, -256.62686, -0.009914453, -0.04430593, -1706271.4, 43396.68, 0.0, 5.0177894, 4.986194 
2.683138e+2, 1.2645797e+2, -1659247.1, -1709606.3, -1217.2692, 0.0077002216, 0.05859328, -1659217.8, 41500.223, 0.0, 5.0177584, 4.984964 
2.6831383e+2, 1.314398e+2, -1610159.0, -1660580.4, -1437.2286, 0.002810351, 0.0265735, -1610118.1, 41775.83, 0.0, 5.0177984, 4.984962 
2.6831385e+2, 1.364216e+2, -1563275.4, -1616085.5, -1658.4655, -0.0020075762, -0.00419138, -1563223.3, 39846.79, 0.0, 5.017838, 4.9834585 
2.6831338e+2, 1.4140159e+2, -1521550.0, -1581940.3, -3196.4326, -0.00440362, -0.009560057, -1521381.3, 32882.875, 0.0, 5.0178103, 4.97848 
2.683121e+2, 1.4638048e+2, -1472836.1, -1532857.3, -3570.8599, -0.0022761808, -0.009010448, -1472624.4, 32844.97, 0.0, 5.0176587, 4.9785666 
2.6831082e+2, 1.5135933e+2, -1424258.6, -1484045.0, -3725.6335, -0.00008656768, -0.00885346, -1424027.4, 32647.418, 0.0, 5.0175033, 4.978566 
2.6830953e+2, 1.5633817e+2, -1377104.4, -1438203.8, -3881.191, 0.0020956409, -0.008264379, -1376858.8, 31021.646, 0.0, 5.017348, 4.977572 
2.6830742e+2, 1.613132e+2, -1336350.5, -1405599.6, -5377.7495, 0.0032146932, -0.0037648785, -1335935.4, 23187.906, 0.0, 5.0171547, 4.9721646 
2.683036e+2, 1.662854e+2, -1287747.0, -1356287.0, -5700.818, 0.0019641276, -0.0077238535, -1287276.1, 23118.441, 0.0, 5.016891, 4.9723587 
2.682997e+2, 1.7125763e+2, -1239420.3, -1307552.8, -5705.58, 0.0006230579, -0.011579392, -1238945.8, 22719.625, 0.0, 5.0166254, 4.972359 
2.6829582e+2, 1.7622986e+2, -1192224.1, -1261217.1, -5711.3843, -0.00071973866, -0.015025512, -1191754.5, 21181.713, 0.0, 5.0163593, 4.971553 
2.6829162e+2, 1.8119876e+2, -1151879.3, -1229377.9, -6326.5195, -0.0023803283, -0.010298838, -1151366.3, 12873.831, 0.0, 5.016078, 4.965849 
2.6828673e+2, 1.861649e+2, -1103115.0, -1179629.0, -6472.3696, -0.0046135043, -0.012945261, -1102571.4, 13000.551, 0.0, 5.0157757, 4.9661827 
2.6828182e+2, 1.9113107e+2, -1054810.1, -1130868.5, -6492.4224, -0.0068338094, -0.015820801, -1054259.9, 12643.72, 0.0, 5.015473, 4.966182 
2.6827693e+2, 1.9609724e+2, -1007391.25, -1084018.5, -6512.2583, -0.009031974, -0.018409569, -1006841.75, 11393.533, 0.0, 5.01517, 4.965531 
2.6827207e+2, 2.0106019e+2, -967305.25, -1053054.0, -6816.783, -0.009421099, -0.011543547, -966766.7, 2832.1, 0.0, 5.014879, 4.9594483 
2.6826724e+2, 2.0602056e+2, -918007.44, -1002536.94, -6912.2, -0.005506327, -0.009817137, -917445.94, 3542.9639, 0.0, 5.014639, 4.9599876 
2.6826242e+2, 2.1098098e+2, -869428.9, -953601.6, -6890.411, -0.0014030498, -0.008539794, -868868.56, 3510.045, 0.0, 5.0144033, 4.9599876 
2.682576e+2, 2.159414e+2, -821512.2, -906116.7, -6869.277, 0.0026999363, -0.0071155597, -820958.1, 2810.1821, 0.0, 5.014168, 4.9594884 
2.682525e+2, 2.2089835e+2, -780934.44, -874565.94, -7277.008, 0.0058413954, -0.00024393252, -780372.25, -5181.124, 0.0, 5.0138993, 4.95351 
2.6824662e+2, 2.2585185e+2, -731757.6, -823662.9, -7518.735, 0.0064186496, -0.009883995, -731146.56, -4501.2744, 0.0, 5.0135145, 4.9542165 
2.6824063e+2, 2.3080535e+2, -683521.9, -774813.94, -7593.248, 0.006785007, -0.02060506, -682894.6, -4795.367, 0.0, 5.01312, 4.9542274 
2.6823464e+2, 2.3575886e+2, -635928.7, -727405.6, -7663.1396, 0.007027951, -0.03177483, -635291.2, -5737.7095, 0.0, 5.012725, 4.953737 
2.6822862e+2, 2.4070972e+2, -597400.44, -699853.25, -7762.272, 0.007943034, -0.022157436, -596815.7, -15781.339, 0.0, 5.0123014, 4.946296 
2.682231e+2, 2.4565956e+2, -547830.9, -648686.25, -7246.4355, 0.008433781, 0.002856004, -547312.9, -14783.997, 0.0, 5.0120068, 4.9469967 
2.6821765e+2, 2.5060964e+2, -499108.34, -599825.0, -7066.1597, 0.008897961, 0.02921793, -498615.0, -14593.609, 0.0, 5.011739, 4.946931 
2.6821208e+2, 2.5555995e+2, -450627.2, -551528.2, -6897.4194, 0.009723117, 0.058271892, -450157.88, -14646.013, 0.0, 5.0114617, 4.9466667 
2.6820716e+2, 2.605049e+2, -409177.56, -519312.9, -8979.493, 0.024003401, 0.08018565, -408450.25, -21402.098, 0.0, 5.011247, 4.9404526 
2.6819947e+2, 2.654419e+2, -354569.03, -455892.34, -12322.286, 0.056141846, -0.025888063, -353092.03, -14456.332, 0.0, 5.0105734, 4.9450064 
2.6818985e+2, 2.7037805e+2, -304995.16, -404711.0, -13440.591, 0.07894669, -0.16849123, -303215.28, -12986.432, 0.0, 5.00977, 4.9457808 
2.681788e+2, 2.7531353e+2, -255223.23, -353922.5, -14124.058, 0.09201865, -0.33388674, -253241.83, -11413.523, 0.0, 5.00893, 4.946508 
2.6818267e+2, 2.8025272e+2, -244744.95, -394646.66, 14173.06, 0.10341661, -0.29106107, -243416.67, -50016.0, 0.0, 5.010405, 4.9152145 
2.6819447e+2, 2.851972e+2, -178899.72, -300771.5, 687.72845, 0.091523334, -0.06932086, -178895.84, -33929.887, 0.0, 5.0124044, 4.929086 
2.681953e+2, 2.9013515e+2, -127667.125, -248881.22, -1052.1505, 0.06726967, 0.01461379, -127657.99, -31056.94, 0.0, 5.0129676, 4.9292483 
2.6819453e+2, 2.9507086e+2, -76251.04, -197215.08, -2196.4597, 0.038670484, 0.06651881, -76211.17, -27953.27, 0.0, 5.013432, 4.929408 
2.6819542e+2, 3.0001423e+2, -20439.63, -102960.734, 900.3065, 0.038750354, 0.06903477, -20429.81, -20429.81, 0.0, 5.014165, 4.953672 
2.6819983e+2, 3.049672e+2, -8739.146, -83194.97, 834.90466, 0.12114667, -0.038398847, -8729.786, -8729.786, 0.0, 5.016672, 4.95766 
2.681985e+2, 3.099309e+2, 3666.1924, -64814.375, -1700.2141, 0.1771245, -0.11731057, 3708.379, 3708.379, 0.0, 5.01939, 4.9623847 
2.6819196e+2, 3.1490427e+2, 16631.416, -47025.535, -3362.8757, 0.2022039, -0.15621156, 16808.576, 16808.576, 0.0, 5.022005, 4.9671197 
2.7332914e+2, 1.21460624e+2, -1705539.9, -1753274.1, -800.57184, -0.009437266, -0.0463843, -1705526.5, 44162.4, 0.0, 5.017788, 4.986687 
2.7333146e+2, 1.2645571e+2, -1659653.3, -1710438.3, -1190.5767, 0.006818571, 0.057324696, -1659625.3, 41113.566, 0.0, 5.0177584, 4.984691 
2.733316e+2, 1.3143733e+2, -1610560.0, -1661408.0, -1407.6282, 0.0027151643, 0.025997363, -1610521.0, 41395.95, 0.0, 5.017799, 4.9846897 
2.7333176e+2, 1.3641892e+2, -1563670.9, -1616908.1, -1625.7732, -0.0013728561, -0.0040915976, -1563621.4, 39474.047, 0.0, 5.017839, 4.983187 
2.7333128e+2, 1.4139873e+2, -1521859.8, -1582582.0, -3289.4824, -0.003411775, -0.00888057, -1521682.0, 32609.596, 0.0, 5.017811, 4.9782677 
2.7332982e+2, 1.4637743e+2, -1473121.3, -1533447.6, -3688.4746, -0.0015890116, -0.008071258, -1472896.5, 32602.486, 0.0, 5.0176587, 4.9783707 
2.7332836e+2, 1.5135612e+2, -1424541.9, -1484632.1, -3842.3857, 0.0002707909, -0.0076849763, -1424297.3, 32409.557, 0.0, 5.0175033, 4.978371 
2.733269e+2, 1.5633477e+2, -1377385.5, -1438787.5, -3996.9998, 0.002114856, -0.0068724276, -1377126.4, 30788.184, 0.0, 5.0173473, 4.9773774 
2.7332458e+2, 1.6130966e+2, -1336406.0, -1405718.1, -5566.028, 0.0032623725, -0.0026782465, -1335961.9, 23197.393, 0.0, 5.017155, 4.972125 
2.733206e+2, 1.6628172e+2, -1287747.0, -1356292.1, -5903.045, 0.0030203331, -0.007962111, -1287242.4, 23188.768, 0.0, 5.016892, 4.972357 
2.7331656e+2, 1.712538e+2, -1239419.8, -1307557.6, -5906.9233, 0.0027255435, -0.0131661445, -1238911.5, 22791.117, 0.0, 5.0166264, 4.9723577 
2.7331254e+2, 1.7622589e+2, -1192223.1, -1261221.8, -5911.8105, 0.002417435, -0.017958554, -1191720.3, 21253.768, 0.0, 5.0163603, 4.9715514 
2.733081e+2, 1.8119472e+2, -1151916.5, -1229456.6, -6555.35, 0.001638538, -0.013859725, -1151366.3, 12911.903, 0.0, 5.016078, 4.965823 
2.7330294e+2, 1.8616094e+2, -1103147.1, -1179690.4, -6700.793, -0.00047548808, -0.015574405, -1102564.9, 13044.642, 0.0, 5.0157747, 4.9661627 
2.7329773e+2, 1.9112718e+2, -1054843.4, -1130928.4, -6719.115, -0.0026794244, -0.017459119, -1054254.5, 12686.262, 0.0, 5.0154715, 4.9661627 
2.7329254e+2, 1.9609343e+2, -1007425.56, -1084076.8, -6737.1895, -0.004886317, -0.019049494, -1006837.94, 11433.999, 0.0, 5.0151677, 4.9655123 
2.7328736e+2, 2.0105647e+2, -967265.0, -1052956.1, -7020.0474, -0.0054702335, -0.011390171, -966693.75, 2941.2122, 0.0, 5.014878, 4.959482 
2.7328226e+2, 2.0601694e+2, -917967.4, -1002442.06, -7095.1094, -0.0018904228, -0.0090541495, -917375.56, 3648.9048, 0.0, 5.014638, 4.9600205 
2.732772e+2, 2.1097745e+2, -869388.94, -953507.4, -7071.519, 0.0018838416, -0.0071388143, -868798.56, 3615.0466, 0.0, 5.014403, 4.96002 
2.732721e+2, 2.1593796e+2, -821472.3, -906023.0, -7048.5645, 0.005638188, -0.0050751967, -820888.75, 2913.9805, 0.0, 5.014167, 4.9595203 
2.7326673e+2, 2.2089498e+2, -781024.25, -874746.4, -7533.1465, 0.008622124, 0.002574693, -780422.6, -5197.1284, 0.0, 5.013898, 4.9534473 
2.732605e+2, 2.2584859e+2, -731886.56, -823902.8, -7802.464, 0.009722224, -0.005251813, -731229.7, -4549.4355, 0.0, 5.0135098, 4.954134 
2.7325425e+2, 2.308022e+2, -683656.25, -775042.94, -7869.1577, 0.0106343925, -0.0140383905, -682983.56, -4848.9507, 0.0, 5.013112, 4.9541492 
2.7324793e+2, 2.3575579e+2, -636068.5, -727623.75, -7931.1943, 0.011379051, -0.023282966, -635386.5, -5797.225, 0.0, 5.012714, 4.9536624 
2.732417e+2, 2.4070667e+2, -597207.8, -699033.44, -8007.606, 0.013674735, -0.0142419515, -596581.94, -15511.201, 0.0, 5.0122523, 4.946587 
2.732361e+2, 2.456562e+2, -547549.44, -647538.8, -7464.727, 0.016621206, 0.004050679, -546995.25, -14429.766, 0.0, 5.011943, 4.947401 
2.7323046e+2, 2.50606e+2, -498808.2, -598683.0, -7268.037, 0.019314984, 0.023508841, -498282.06, -14224.085, 0.0, 5.0116816, 4.94733 
2.7322477e+2, 2.55556e+2, -450308.38, -550391.44, -7082.8706, 0.022290697, 0.045690294, -449809.6, -14261.121, 0.0, 5.0114117, 4.9470606 
2.7321973e+2, 2.605009e+2, -410518.6, -521276.03, -9230.036, 0.038597204, 0.0656574, -409754.7, -22670.09, 0.0, 5.0111237, 4.939783 
2.732122e+2, 2.6543865e+2, -358090.8, -460574.06, -12052.204, 0.06735394, -0.014252309, -356692.53, -18017.27, 0.0, 5.010178, 4.943447 
2.7320266e+2, 2.703761e+2, -309016.1, -408469.9, -12640.137, 0.08381874, -0.12526521, -307434.72, -17167.717, 0.0, 5.0091057, 4.944564 
2.731917e+2, 2.7531347e+2, -259743.78, -356761.4, -12791.812, 0.08822392, -0.25741553, -258085.52, -16226.073, 0.0, 5.0079975, 4.945633 
2.7319622e+2, 2.802527e+2, -240728.1, -386384.66, 11141.359, 0.118725054, -0.22371064, -239880.81, -46440.715, 0.0, 5.0105405, 4.9182296 
2.732087e+2, 2.8519437e+2, -175203.88, -299076.47, -925.0196, 0.1220056, -0.040007874, -175196.97, -30171.488, 0.0, 5.013442, 4.9297953 
2.732097e+2, 2.9013073e+2, -124275.484, -245949.48, -2117.1626, 0.08654418, 0.028740538, -124238.66, -27571.791, 0.0, 5.013828, 4.9303427 
2.7320892e+2, 2.9506502e+2, -73167.53, -193051.67, -2715.61, 0.043401446, 0.06287175, -73106.055, -24777.328, 0.0, 5.0141134, 4.930888 
2.732097e+2, 3.000093e+2, -18582.65, -97678.23, 1130.0632, 0.026113318, 0.06144829, -18566.51, -18566.51, 0.0, 5.0143957, 4.9555945 
2.7321398e+2, 3.0496347e+2, -14507.254, -88580.016, 3138.341, 0.082959704, -0.005390412, -14374.525, -14374.525, 0.0, 5.015909, 4.956299 
2.732126e+2, 3.0992833e+2, -4925.5645, -70790.98, 2034.5778, 0.10549712, -0.024458673, -4862.7764, -4862.7764, 0.0, 5.0177307, 4.9611926 
2.7320582e+2, 3.1490472e+2, 5230.038, -53586.04, 1801.3169, 0.08979016, 0.017676853, 5285.154, 5285.154, 0.0, 5.019449, 4.9660983 
2.7834705e+2, 1.2145843e+2, -1704543.3, -1751551.5, -1348.9004, -0.008705056, -0.0487043, -1704504.6, 45205.38, 0.0, 5.017854, 4.987221 
2.7834913e+2, 1.2645343e+2, -1659783.9, -1711132.8, -1191.5247, 0.005969873, 0.056003265, -1659756.3, 41003.598, 0.0, 5.01785, 4.984419 
2.783494e+2, 1.3143484e+2, -1610686.4, -1662098.1, -1396.2369, 0.0026553134, 0.025393816, -1610648.5, 41291.67, 0.0, 5.017891, 4.984418 
2.7834967e+2, 1.3641624e+2, -1563801.8, -1617597.5, -1600.4985, -0.00068625004, -0.0039936085, -1563754.1, 39366.56, 0.0, 5.017928, 4.982916 
2.7834922e+2, 1.4139585e+2, -1521933.3, -1583114.9, -3378.4336, -0.002377854, -0.008175279, -1521747.3, 32571.879, 0.0, 5.017892, 4.9780526 
2.7834758e+2, 1.4637439e+2, -1473208.9, -1533938.9, -3789.7764, -0.0008741078, -0.0071297768, -1472973.3, 32555.416, 0.0, 5.0177245, 4.978176 
2.783459e+2, 1.513529e+2, -1424679.5, -1485145.4, -3931.5308, 0.00065441645, -0.006538877, -1424425.0, 32313.709, 0.0, 5.017552, 4.9781766 
2.7834427e+2, 1.5633139e+2, -1377579.5, -1439325.3, -4073.4556, 0.002167068, -0.00552085, -1377311.9, 30636.846, 0.0, 5.0173764, 4.977184 
2.7834174e+2, 1.6130613e+2, -1336410.1, -1405821.0, -5707.4526, 0.0033658014, -0.0015621671, -1335943.9, 23251.174, 0.0, 5.017175, 4.9720807 
2.7833763e+2, 1.6627803e+2, -1287641.8, -1356250.4, -6073.883, 0.00411014, -0.008132877, -1287108.1, 23359.457, 0.0, 5.0169296, 4.9723525 
2.783334e+2, 1.7124999e+2, -1239272.5, -1307496.4, -6094.8403, 0.0048416266, -0.014668136, -1238732.3, 23007.453, 0.0, 5.0166783, 4.9723535 
2.7832922e+2, 1.7622194e+2, -1192046.5, -1261147.3, -6118.218, 0.005558749, -0.020787774, -1191508.9, 21502.822, 0.0, 5.0164227, 4.9715466 
2.7832457e+2, 1.8119068e+2, -1151772.3, -1229461.4, -6806.4688, 0.0056942203, -0.017307736, -1151180.4, 13135.836, 0.0, 5.016143, 4.965791 
2.7831915e+2, 1.8615697e+2, -1103006.9, -1179669.3, -6952.461, 0.0037117428, -0.01815356, -1102381.5, 13265.735, 0.0, 5.015833, 4.9661427 
2.7831364e+2, 1.9112328e+2, -1054729.3, -1130917.8, -6970.4355, 0.001532809, -0.019120162, -1054096.8, 12881.299, 0.0, 5.015521, 4.9661436 
2.7830812e+2, 1.960896e+2, -1007344.2, -1084079.6, -6987.654, -0.0006671593, -0.019786607, -1006713.06, 11595.698, 0.0, 5.0152063, 4.9654937 
2.7830267e+2, 2.0105274e+2, -967144.25, -1052833.9, -7239.8335, -0.0014441522, -0.0112581, -966536.9, 3134.3354, 0.0, 5.014908, 4.9595094 
2.782973e+2, 2.060133e+2, -917860.5, -1002313.4, -7285.4106, 0.0017806613, -0.008243542, -917236.6, 3823.5083, 0.0, 5.0146613, 4.960053 
2.7829197e+2, 2.109739e+2, -869317.5, -953396.06, -7250.245, 0.005219398, -0.0056698555, -868696.9, 3751.7617, 0.0, 5.014414, 4.960053 
2.7828658e+2, 2.1593453e+2, -821446.94, -905933.8, -7215.2217, 0.008629547, -0.0029498518, -820835.2, 3001.892, 0.0, 5.0141625, 4.959553 
2.7828094e+2, 2.2089161e+2, -781147.4, -874961.7, -7778.248, 0.01147785, 0.00547279, -780506.8, -5247.016, 0.0, 5.0138903, 4.953377 
2.7827442e+2, 2.2584529e+2, -731990.5, -824148.44, -8121.919, 0.013173719, -0.0007552358, -731280.2, -4564.888, 0.0, 5.013519, 4.9540443 
2.7826786e+2, 2.3079897e+2, -683816.6, -775307.3, -8236.19, 0.014764175, -0.007903683, -683081.06, -4910.669, 0.0, 5.0131006, 4.9540615 
2.7826124e+2, 2.3575266e+2, -636394.9, -727956.94, -8354.009, 0.016196914, -0.015575672, -635638.94, -6013.0596, 0.0, 5.0126433, 4.9535766 
2.7825475e+2, 2.407036e+2, -597437.06, -698659.2, -8528.577, 0.02028903, -0.0058041727, -596723.5, -15616.295, 0.0, 5.0121017, 4.946773 
2.7824906e+2, 2.456529e+2, -547406.3, -646508.6, -8011.4873, 0.025945645, 0.006506211, -546762.9, -14161.092, 0.0, 5.011843, 4.9477844 
2.7824336e+2, 2.5060236e+2, -498390.06, -597541.25, -7904.025, 0.030982751, 0.018944213, -497763.94, -13669.519, 0.0, 5.011687, 4.947709 
2.7823758e+2, 2.5555202e+2, -449530.25, -549099.9, -7804.4526, 0.03619994, 0.03415883, -448922.22, -13337.215, 0.0, 5.0115542, 4.9474354 
2.7823249e+2, 2.604965e+2, -412392.47, -524773.1, -10715.48, 0.056241132, 0.05043864, -411379.88, -24254.313, 0.0, 5.01109, 4.938513 
2.782247e+2, 2.6543415e+2, -367357.1, -469009.88, -15403.48, 0.08329549, -0.013500122, -365074.25, -26346.74, 0.0, 5.007949, 4.9413047 
2.7821496e+2, 2.7037185e+2, -328400.7, -420755.84, -18768.564, 0.09714071, -0.10558832, -324732.25, -34404.156, 0.0, 5.0032277, 4.9426074 
2.782038e+2, 2.7530974e+2, -292916.13, -374430.34, -22727.91, 0.09928227, -0.2187884, -287007.4, -45080.445, 0.0, 4.9971547, 4.9438753 
2.7821136e+2, 2.8024977e+2, -284690.8, -410937.1, -4516.981, 0.1731045, -0.15574948, -284529.4, -91021.85, 0.0, 4.99604, 4.9160395 
2.7822596e+2, 2.85191e+2, -199131.7, -306955.38, -12638.094, 0.19112083, 0.025122164, -197670.19, -52579.87, 0.0, 5.004583, 4.9309125 
2.7822635e+2, 2.901264e+2, -134817.3, -247363.73, -10068.672, 0.12920608, 0.07212622, -133923.63, -37191.668, 0.0, 5.0096974, 4.9316134 
2.7822503e+2, 2.9505962e+2, -75735.73, -190387.89, -8025.2197, 0.060181852, 0.08184876, -75176.72, -26781.924, 0.0, 5.01281, 4.9323215 
2.7822542e+2, 3.000026e+2, -21422.672, -96684.305, -2700.1846, 0.025241345, 0.05108494, -21325.92, -21325.92, 0.0, 5.0134134, 4.95623 
2.7822924e+2, 3.0495435e+2, -36206.555, -101807.83, 929.1808, 0.07296388, -0.025207194, -36193.395, -36193.395, 0.0, 5.0094476, 4.9540396 
2.7822742e+2, 3.099176e+2, -53766.895, -95094.21, 1207.1641, 0.08537414, -0.03507187, -53731.664, -53731.664, 0.0, 5.001445, 4.9590726 
2.7822027e+2, 3.1489363e+2, -81779.7, -93620.164, 3100.9868, 0.060807586, 0.029571539, -81016.73, -81016.73, 0.0, 4.989363, 4.964114 
2.8336558e+2, 1.21456824e+2, -1701225.3, -1749881.9, -1464.971, -0.0076371543, -0.04324565, -1701181.1, 48544.49, 0.0, 5.018942, 4.987237 
2.833673e+2, 1.2645042e+2, -1656620.5, -1710103.0, -1421.9344, 0.0031205344, 0.04959051, -1656582.8, 44206.027, 0.0, 5.019011, 4.98419 
2.833678e+2, 1.3143192e+2, -1607634.1, -1661121.0, -1584.982, 0.0016096124, 0.021857673, -1607587.3, 44381.207, 0.0, 5.0190177, 4.984191 
2.8336826e+2, 1.3641338e+2, -1560848.9, -1616665.5, -1748.0692, 0.000117121606, -0.0046484815, -1560794.1, 42354.23, 0.0, 5.019024, 4.9826913 
2.8336787e+2, 1.4139298e+2, -1519042.6, -1582066.1, -3632.374, -0.00043243333, -0.006901788, -1518834.0, 35512.99, 0.0, 5.0189366, 4.9778934 
2.8336596e+2, 1.4637133e+2, -1470610.9, -1532999.6, -4026.199, 0.0005941467, -0.0061472147, -1470352.1, 35206.44, 0.0, 5.0186667, 4.978033 
2.8336403e+2, 1.5134966e+2, -1422394.5, -1484359.4, -4121.014, 0.0016227427, -0.0059029395, -1422121.6, 34648.88, 0.0, 5.018391, 4.9780345 
2.833621e+2, 1.56328e+2, -1375597.8, -1438686.4, -4216.895, 0.0026710453, -0.005194688, -1375317.1, 32665.342, 0.0, 5.018115, 4.9770427 
2.8335932e+2, 1.613026e+2, -1334516.4, -1405095.9, -5832.369, 0.0036376761, -0.0013152857, -1334037.6, 25192.56, 0.0, 5.017858, 4.971997 
2.8335497e+2, 1.6627446e+2, -1285587.1, -1355426.0, -6258.6963, 0.004564005, -0.007631366, -1285030.8, 25472.482, 0.0, 5.017663, 4.9722795 
2.833506e+2, 1.7124636e+2, -1237048.4, -1306597.3, -6350.38, 0.0055301166, -0.013906409, -1236473.3, 25302.346, 0.0, 5.0174713, 4.9722795 
2.833462e+2, 1.7621827e+2, -1189640.9, -1260168.1, -6443.144, 0.0065264334, -0.01975972, -1189057.1, 23990.928, 0.0, 5.0172796, 4.971472 
2.8334138e+2, 1.8118694e+2, -1149286.4, -1228406.3, -7273.8076, 0.0072804736, -0.016332269, -1148623.3, 15730.005, 0.0, 5.0170174, 4.9657354 
2.833357e+2, 1.8615313e+2, -1100819.4, -1178719.4, -7463.6533, 0.00663351, -0.01769531, -1100110.6, 15574.673, 0.0, 5.0165997, 4.966105 
2.8332996e+2, 1.9111936e+2, -1052874.8, -1130126.5, -7504.27, 0.005845421, -0.019162701, -1052152.5, 14864.606, 0.0, 5.0161753, 4.9661064 
2.8332424e+2, 1.9608559e+2, -1005813.4, -1083441.8, -7545.0054, 0.005060509, -0.020330617, -1005086.9, 13262.015, 0.0, 5.0157514, 4.9654574 
2.8331846e+2, 2.0104873e+2, -965770.94, -1051983.6, -7758.5234, 0.004853965, -0.011929226, -965078.3, 4633.024, 0.0, 5.0153413, 4.959599 
2.8331262e+2, 2.060095e+2, -916941.7, -1001660.5, -7728.58, 0.0066037453, -0.0077669965, -916242.4, 4855.552, 0.0, 5.0149355, 4.960151 
2.8330678e+2, 2.1097034e+2, -868869.6, -952966.4, -7624.3574, 0.008525854, -0.0039494163, -868183.94, 4300.148, 0.0, 5.014526, 4.960151 
2.8330094e+2, 2.1593116e+2, -821455.56, -905719.8, -7519.718, 0.010462719, 0.000009260401, -820789.75, 3080.4944, 0.0, 5.014116, 4.959651 
2.832949e+2, 2.2088836e+2, -781492.1, -875294.6, -7947.017, 0.012663854, 0.009214144, -780823.6, -5531.4497, 0.0, 5.0138016, 4.9533105 
2.832883e+2, 2.2584191e+2, -731607.44, -824264.9, -8224.921, 0.015567331, 0.0026316307, -730883.0, -4132.243, 0.0, 5.013702, 4.9539304 
2.8328168e+2, 2.3079541e+2, -682503.7, -775016.94, -8294.629, 0.01863401, -0.0051088845, -681765.9, -3556.4028, 0.0, 5.013608, 4.9539404 
2.83275e+2, 2.3574887e+2, -634046.7, -727216.94, -8353.411, 0.021776915, -0.013585822, -633303.7, -3634.944, 0.0, 5.0135117, 4.953449 
2.8326848e+2, 2.4069974e+2, -593440.94, -696767.75, -8406.973, 0.027585559, -0.0039594187, -592761.4, -11609.662, 0.0, 5.013432, 4.9468465 
2.8326282e+2, 2.4564926e+2, -542274.2, -643885.25, -7938.375, 0.034878254, 0.008874415, -541657.75, -9016.105, 0.0, 5.013515, 4.947976 
2.832572e+2, 2.5059897e+2, -492548.94, -594617.0, -7873.44, 0.041440956, 0.021625465, -491945.16, -7815.812, 0.0, 5.0136147, 4.9479027 
2.832514e+2, 2.5554886e+2, -443071.13, -545920.06, -7801.654, 0.048028223, 0.03714991, -442482.7, -6867.73, 0.0, 5.0137053, 4.9476304 
2.8324643e+2, 2.6049325e+2, -405390.16, -525246.44, -10346.954, 0.07167359, 0.055649173, -404503.5, -17346.904, 0.0, 5.014076, 4.937123 
2.8324002e+2, 2.6542968e+2, -351283.9, -470025.94, -12065.325, 0.11929788, 0.0036427001, -350070.38, -11287.554, 0.0, 5.0146594, 4.9382668 
2.8323224e+2, 2.703648e+2, -298147.8, -418034.53, -11205.508, 0.16928685, -0.08129058, -297109.47, -6686.2227, 0.0, 5.015132, 4.9387755 
2.8322342e+2, 2.7529848e+2, -244871.52, -366421.34, -9886.44, 0.22227092, -0.19433478, -244072.64, -1995.6406, 0.0, 5.015558, 4.9392366 
2.8323236e+2, 2.802352e+2, -228825.5, -387180.13, 11946.961, 0.36579326, -0.12236439, -227929.23, -34228.83, 0.0, 5.0162745, 4.9148645 
2.8324455e+2, 2.8518012e+2, -166548.03, -278916.44, 6381.3223, 0.3397189, 0.057728685, -166186.8, -20946.896, 0.0, 5.0146136, 4.9350615 
2.832426e+2, 2.9011878e+2, -123898.44, -232217.48, 4542.6553, 0.2123316, 0.08904848, -123708.26, -26868.375, 0.0, 5.0120993, 4.9348707 
2.8323945e+2, 2.9505447e+2, -80988.164, -185686.25, 3556.1167, 0.09631999, 0.08332663, -80867.516, -32398.967, 0.0, 5.0094376, 4.9346776 
2.8323805e+2, 2.999987e+2, -36151.594, -103456.19, 6353.7617, 0.036469083, 0.03606043, -35557.03, -35536.43, 0.0, 5.0070047, 4.9561934 
2.83239e+2, 3.049535e+2, -43722.668, -110650.45, 10838.41, 0.09386722, -0.02289614, -42011.242, -42011.242, 0.0, 5.0056643, 4.9522433 
2.8323576e+2, 3.0991772e+2, -42189.63, -96917.96, 11327.151, 0.16276403, -0.037696123, -39937.887, -39937.887, 0.0, 5.0042067, 4.956832 
2.8322905e+2, 3.148911e+2, -40207.36, -83636.164, 11443.194, 0.24496377, -0.018305939, -37376.66, -37376.66, 0.0, 5.002569, 4.9614305 
2.8838465e+2, 1.2145546e+2, -1701571.9, -1750579.1, -1025.9637, -0.0067284917, -0.03405224, -1701550.4, 48188.496, 0.0, 5.018941, 4.987008 
2.8838593e+2, 1.26447e+2, -1656921.0, -1710718.1, -1419.598, -0.0010319202, 0.04040877, -1656883.5, 43938.57, 0.0, 5.019011, 4.9839873 
2.8838664e+2, 1.314287e+2, -1607933.0, -1661733.9, -1580.8606, -0.00007490298, 0.016733512, -1607886.6, 44113.227, 0.0, 5.0190177, 4.9839883 
2.8838736e+2, 1.3641037e+2, -1561145.4, -1617274.6, -1741.8403, 0.0008752168, -0.005711098, -1561091.4, 42086.438, 0.0, 5.019024, 4.9824896 
2.8838703e+2, 1.4139006e+2, -1519237.8, -1582466.3, -3803.7644, 0.0018662394, -0.0052862787, -1519009.8, 35365.695, 0.0, 5.018936, 4.977761 
2.883848e+2, 1.4636825e+2, -1470782.9, -1533354.1, -4234.3164, 0.0023458658, -0.0050960747, -1470497.6, 35091.203, 0.0, 5.0186667, 4.9779153 
2.8838253e+2, 1.5134639e+2, -1422565.5, -1484713.5, -4328.1, 0.0027347174, -0.0055465214, -1422265.5, 34537.23, 0.0, 5.0183907, 4.9779167 
2.8838024e+2, 1.5632454e+2, -1375767.4, -1439039.6, -4422.802, 0.0031359305, -0.005530527, -1375459.8, 32556.94, 0.0, 5.018115, 4.976925 
2.8837717e+2, 1.61299e+2, -1334677.8, -1405431.1, -5999.052, 0.0036208632, -0.0017141324, -1334172.6, 25093.047, 0.0, 5.0178576, 4.9718857 
2.883726e+2, 1.6627087e+2, -1285743.4, -1355753.3, -6403.8315, 0.0043346435, -0.0069080326, -1285162.4, 25376.482, 0.0, 5.017663, 4.972171 
2.8836802e+2, 1.7124279e+2, -1237201.6, -1306921.9, -6494.003, 0.0050705513, -0.0120537095, -1236601.9, 25209.643, 0.0, 5.017472, 4.972171 
2.883634e+2, 1.7621471e+2, -1189791.3, -1260490.1, -6585.232, 0.0058178557, -0.016793514, -1189183.1, 23901.072, 0.0, 5.01728, 4.9713635 
2.8835836e+2, 1.8118331e+2, -1149379.9, -1228614.9, -7556.928, 0.006931221, -0.013048907, -1148665.6, 15724.582, 0.0, 5.0170193, 4.965665 
2.883525e+2, 1.8614933e+2, -1100884.8, -1178869.0, -7785.8354, 0.008412149, -0.015540533, -1100115.0, 15608.987, 0.0, 5.016601, 4.966054 
2.8834656e+2, 1.911154e+2, -1052940.3, -1130274.1, -7824.4517, 0.009847398, -0.018148491, -1052156.5, 14901.064, 0.0, 5.0161767, 4.9660563 
2.8834063e+2, 1.9608144e+2, -1005878.8, -1083587.3, -7863.141, 0.011269931, -0.020456215, -1005091.2, 13299.803, 0.0, 5.015752, 4.965408 
2.8833455e+2, 2.0104457e+2, -965615.9, -1051652.5, -8069.9746, 0.012100254, -0.012564124, -964865.44, 4888.204, 0.0, 5.0153413, 4.9597125 
2.8832805e+2, 2.0600559e+2, -916751.75, -1001252.75, -8044.676, 0.011716726, -0.0072870837, -915992.7, 5144.681, 0.0, 5.014936, 4.960292 
2.8832158e+2, 2.1096668e+2, -868680.2, -952557.4, -7936.882, 0.011308268, -0.0022608086, -867935.75, 4584.766, 0.0, 5.0145264, 4.960292 
2.883151e+2, 2.1592776e+2, -821266.56, -905309.44, -7828.639, 0.010891415, 0.00291695, -820543.56, 3360.0598, 0.0, 5.014117, 4.9597926 
2.8830862e+2, 2.208851e+2, -781554.2, -875432.25, -8076.452, 0.011786561, 0.012734428, -780864.44, -5540.0283, 0.0, 5.013802, 4.9532614 
2.88302e+2, 2.2583841e+2, -731737.94, -824494.44, -8266.681, 0.015260307, 0.00466961, -731007.0, -4220.108, 0.0, 5.013693, 4.953851 
2.882954e+2, 2.3079173e+2, -682663.0, -775241.94, -8321.929, 0.018747423, -0.004517351, -681920.94, -3671.4185, 0.0, 5.0135884, 4.9538665 
2.8828868e+2, 2.3574501e+2, -634234.8, -727437.3, -8366.241, 0.022176838, -0.014225311, -633489.75, -3777.3257, 0.0, 5.013482, 4.95338 
2.882822e+2, 2.4069597e+2, -593521.6, -696592.7, -8308.001, 0.027509086, -0.0034715924, -592856.25, -11660.658, 0.0, 5.0133724, 4.9469347 
2.8827652e+2, 2.4564607e+2, -542161.75, -643295.0, -7854.1733, 0.03441737, 0.013295719, -541555.4, -8877.913, 0.0, 5.0134563, 4.94821 
2.8827083e+2, 2.5059634e+2, -492390.72, -593986.6, -7775.0034, 0.04085083, 0.0294343, -491799.16, -7642.0884, 0.0, 5.0135713, 4.948139 
2.8826505e+2, 2.555468e+2, -442867.53, -545249.94, -7688.9873, 0.047284596, 0.048116136, -442293.3, -6658.526, 0.0, 5.013677, 4.9478703 
2.8826004e+2, 2.6049146e+2, -405544.34, -525103.06, -9679.102, 0.06839369, 0.06815236, -404765.8, -17591.393, 0.0, 5.0139995, 4.9371667 
2.8825432e+2, 2.6542887e+2, -352145.1, -469175.53, -10453.198, 0.10584043, 0.01925418, -351218.75, -12413.602, 0.0, 5.0142426, 4.9386344 
2.8824732e+2, 2.7036574e+2, -300059.88, -417026.75, -9098.966, 0.14219709, -0.055688735, -299356.28, -8913.364, 0.0, 5.014359, 4.9393215 
2.8823918e+2, 2.7530196e+2, -247829.52, -365252.34, -7285.317, 0.17859925, -0.15248546, -247379.25, -5291.9014, 0.0, 5.01443, 4.9399605 
2.882468e+2, 2.8024265e+2, -228521.73, -392985.2, 7430.9473, 0.3184326, -0.03308157, -228186.67, -34502.824, 0.0, 5.0170913, 4.9127846 
2.882567e+2, 2.851867e+2, -156454.25, -274096.4, 2989.443, 0.3107002, 0.13363667, -156378.33, -11154.417, 0.0, 5.01683, 4.936542 
2.8825358e+2, 2.9012308e+2, -115199.125, -226666.66, 1815.6958, 0.19238634, 0.1183705, -115169.555, -18333.088, 0.0, 5.013823, 4.9367447 
2.8824902e+2, 2.9505715e+2, -73685.24, -179401.17, 1491.338, 0.08088892, 0.07014708, -73664.21, -25192.846, 0.0, 5.010669, 4.9369454 
2.8824562e+2, 3.000008e+2, -30446.926, -97134.555, 4978.012, 0.015767787, -0.00603214, -30077.383, -30055.736, 0.0, 5.007797, 4.958684 
2.8824168e+2, 3.0496866e+2, -36857.355, -101244.734, 10833.603, 0.028301923, 0.030363984, -35083.406, -35083.406, 0.0, 5.006361, 4.9559646 
2.8823274e+2, 3.0994937e+2, -36231.434, -90228.94, 12678.321, 0.035262477, 0.14765212, -33402.81, -33402.81, 0.0, 5.0049024, 4.959829 
2.8822e+2, 3.1493893e+2, -35157.57, -79656.76, 14151.923, 0.044412572, 0.3087038, -31038.219, -31038.219, 0.0, 5.0032625, 4.963702 
2.9340369e+2, 1.2145403e+2, -1701833.6, -1751101.6, -582.5143, -0.005596561, -0.025323665, -1701826.6, 47926.113, 0.0, 5.01894, 4.986836 
2.9340455e+2, 1.2644361e+2, -1657222.3, -1711332.6, -1417.3428, -0.0051968475, 0.031280223, -1657185.1, 43670.31, 0.0, 5.0190115, 4.983785 
2.934055e+2, 1.3142549e+2, -1608232.6, -1662346.1, -1576.8202, -0.0017748515, 0.0116405655, -1608186.8, 43844.45, 0.0, 5.0190177, 4.983786 
2.934065e+2, 1.3640736e+2, -1561442.6, -1617883.1, -1735.6919, 0.0016149215, -0.006764473, -1561389.3, 41817.855, 0.0, 5.019024, 4.982288 
2.934062e+2, 1.4138715e+2, -1519439.8, -1582879.3, -3975.329, 0.0041616103, -0.00363477, -1519191.6, 35212.355, 0.0, 5.0189357, 4.977624 
2.9340366e+2, 1.4636518e+2, -1470955.4, -1533708.3, -4441.8726, 0.0041037374, -0.004014218, -1470642.5, 34976.656, 0.0, 5.0186663, 4.9777975 
2.9340103e+2, 1.5134312e+2, -1422736.9, -1485067.5, -4534.6245, 0.0038572287, -0.0051791184, -1422408.6, 34426.27, 0.0, 5.0183907, 4.9777985 
2.933984e+2, 1.5632108e+2, -1375937.4, -1439392.8, -4628.1465, 0.0036157372, -0.0058751088, -1375601.6, 32449.195, 0.0, 5.0181146, 4.976807 
2.93395e+2, 1.6129544e+2, -1334848.4, -1405785.0, -6166.533, 0.003617638, -0.0020794254, -1334316.4, 24984.805, 0.0, 5.017857, 4.971768 
2.9339024e+2, 1.662673e+2, -1285900.0, -1356080.3, -6549.2104, 0.0041127414, -0.006153973, -1285294.0, 25280.488, 0.0, 5.0176625, 4.9720616 
2.9338548e+2, 1.7123921e+2, -1237355.3, -1307246.1, -6637.869, 0.004612211, -0.010193907, -1236730.5, 25116.945, 0.0, 5.017472, 4.972062 
2.9338065e+2, 1.7621112e+2, -1189942.0, -1260811.9, -6727.563, 0.0051042708, -0.013843818, -1189309.0, 23811.217, 0.0, 5.0172806, 4.9712553 
2.9337537e+2, 1.8117966e+2, -1149479.6, -1228836.3, -7840.3286, 0.0065794303, -0.009732835, -1148712.4, 15714.679, 0.0, 5.0170207, 4.96559 
2.933693e+2, 1.8614551e+2, -1100950.5, -1179018.6, -8108.557, 0.01018017, -0.013369285, -1100117.3, 15645.44, 0.0, 5.0166025, 4.9660025 
2.9336315e+2, 1.9111142e+2, -1053006.0, -1130421.5, -8145.1724, 0.013826386, -0.017164532, -1052158.3, 14939.669, 0.0, 5.0161777, 4.9660053 
2.93357e+2, 1.9607733e+2, -1005944.6, -1083732.6, -8181.817, 0.017443994, -0.020658772, -1005093.4, 13339.719, 0.0, 5.015753, 4.965358 
2.9335064e+2, 2.010404e+2, -965488.6, -1051380.9, -8383.476, 0.019386826, -0.01308543, -964678.0, 5117.9434, 0.0, 5.0153418, 4.959806 
2.9334354e+2, 2.0600168e+2, -916562.44, -1000844.75, -8362.101, 0.01687404, -0.006672181, -915740.8, 5435.959, 0.0, 5.014936, 4.9604316 
2.933364e+2, 2.1096303e+2, -868491.3, -952148.06, -8250.735, 0.01410442, -0.0005177978, -867685.4, 4871.5313, 0.0, 5.014527, 4.9604325 
2.9332927e+2, 2.1592438e+2, -821078.2, -904898.7, -8138.8896, 0.011303265, 0.005798484, -820295.25, 3641.7432, 0.0, 5.0141172, 4.9599333 
2.9332232e+2, 2.2088182e+2, -781640.2, -875616.6, -8204.107, 0.010914062, 0.016321206, -780929.3, -5572.74, 0.0, 5.0138025, 4.953195 
2.933157e+2, 2.2583492e+2, -731872.25, -824721.06, -8316.122, 0.014905213, 0.0065996125, -731133.25, -4310.2534, 0.0, 5.013684, 4.9537697 
2.9330906e+2, 2.3078802e+2, -682826.06, -775463.94, -8356.905, 0.018746085, -0.0043232106, -682078.25, -3788.5933, 0.0, 5.0135694, 4.95379 
2.9330233e+2, 2.3574112e+2, -634426.56, -727654.6, -8386.746, 0.022395356, -0.015551519, -633678.1, -3921.7542, 0.0, 5.0134525, 4.953309 
2.932958e+2, 2.4069226e+2, -593757.44, -696736.06, -8265.836, 0.027411055, -0.0021392303, -593098.2, -11859.38, 0.0, 5.0133133, 4.9469085 
2.9329014e+2, 2.45643e+2, -542063.56, -642691.3, -7788.133, 0.033973265, 0.019207563, -541464.3, -8752.055, 0.0, 5.013398, 4.9484406 
2.9328445e+2, 2.5059384e+2, -492246.72, -593342.75, -7694.724, 0.04022378, 0.038361248, -491664.4, -7480.5024, 0.0, 5.0135283, 4.9483733 
2.9327866e+2, 2.555448e+2, -442678.13, -544566.25, -7594.474, 0.046450358, 0.05982805, -442115.16, -6461.265, 0.0, 5.0136495, 4.9481077 
2.932738e+2, 2.604893e+2, -406141.5, -525822.9, -9145.1045, 0.06667641, 0.079371795, -405446.75, -18251.29, 0.0, 5.0139227, 4.9368477 
2.9326847e+2, 2.6542723e+2, -353086.2, -468268.4, -9154.639, 0.09475535, 0.02421937, -352363.13, -13528.149, 0.0, 5.0138264, 4.938863 
2.9326168e+2, 2.7036566e+2, -302050.5, -415960.75, -7305.4194, 0.1175745, -0.05084217, -301583.9, -11110.652, 0.0, 5.0135875, 4.939728 
2.932537e+2, 2.7530408e+2, -250865.11, -364023.5, -4996.626, 0.1374884, -0.14148998, -250644.9, -8533.446, 0.0, 5.013303, 4.940545 
2.9326215e+2, 2.802504e+2, -234225.33, -412677.84, 6339.4834, 0.27333575, 0.065027125, -234000.4, -40336.234, 0.0, 5.017919, 4.9058466 
2.932712e+2, 2.8519505e+2, -146613.8, -269055.25, -1064.8295, 0.2816427, 0.2471662, -146604.53, -1413.1812, 0.0, 5.0190477, 4.937895 
2.9326606e+2, 2.9012877e+2, -106749.93, -220895.0, -1576.3448, 0.17057215, 0.17427135, -106728.164, -9908.517, 0.0, 5.015548, 4.938491 
2.932594e+2, 2.9506084e+2, -66629.54, -172895.3, -1241.3251, 0.061758313, 0.072504275, -66615.04, -18151.096, 0.0, 5.0119014, 4.939085 
2.9325366e+2, 3.000024e+2, -26058.162, -93057.34, 3800.285, -0.006640184, -0.049433183, -25843.293, -25815.617, 0.0, 5.0085897, 4.9602 
2.932462e+2, 3.049816e+2, -30282.42, -91590.03, 11775.046, -0.020707011, 0.05438529, -28098.633, -28098.633, 0.0, 5.007059, 4.9593987 
2.9323307e+2, 3.0997765e+2, -30565.203, -83286.11, 14978.196, -0.055138517, 0.27415222, -26607.018, -26607.018, 0.0, 5.0055985, 4.9625363 
2.9321566e+2, 3.1498227e+2, -30402.559, -75420.53, 17813.99, -0.09855888, 0.5473393, -24206.271, -24206.271, 0.0, 5.0039563, 4.965683 
2.9842278e+2, 1.2145254e+2, -1701632.1, -1751291.9, -226.03964, -0.0043206033, -0.017079046, -1701631.1, 48136.3, 0.0, 5.0190716, 4.986707 
2.9842317e+2, 1.2644021e+2, -1657178.5, -1711763.5, -1476.2897, -0.009171486, 0.022358421, -1657138.6, 43750.11, 0.0, 5.0191245, 4.983587 
2.9842436e+2, 1.314223e+2, -1608226.1, -1662796.0, -1600.4846, -0.0034081007, 0.006669349, -1608179.3, 43883.195, 0.0, 5.0191183, 4.9835877 
2.9842559e+2, 1.3640437e+2, -1561500.4, -1618363.8, -1725.87, 0.0023154335, -0.0077742427, -1561448.0, 41788.492, 0.0, 5.0191026, 4.98209 
2.9842535e+2, 1.4138424e+2, -1519466.1, -1583212.5, -4117.6245, 0.0063840225, -0.0019479205, -1519201.3, 35231.13, 0.0, 5.018996, 4.9774837 
2.984225e+2, 1.463621e+2, -1470929.5, -1533964.9, -4614.606, 0.0058376445, -0.0028989702, -1470593.4, 35055.93, 0.0, 5.0187325, 4.9776797 
2.9841956e+2, 1.5133986e+2, -1422693.1, -1485317.3, -4704.7954, 0.005003372, -0.004797375, -1422341.6, 34525.484, 0.0, 5.018463, 4.97768 
2.9841658e+2, 1.563176e+2, -1375879.0, -1439636.4, -4797.3867, 0.0041672694, -0.00622902, -1375520.0, 32564.84, 0.0, 5.018192, 4.976688 
2.984129e+2, 1.6129185e+2, -1334813.4, -1406052.5, -6299.2573, 0.0037090946, -0.0024300031, -1334260.8, 25075.904, 0.0, 5.017929, 4.9716444 
2.9840794e+2, 1.6626371e+2, -1285927.3, -1356343.4, -6658.4614, 0.0039692707, -0.005402109, -1285303.1, 25307.098, 0.0, 5.0177064, 4.971953 
2.984029e+2, 1.7123562e+2, -1237474.4, -1307552.3, -6745.17, 0.0042249635, -0.008366525, -1236831.1, 25052.225, 0.0, 5.0174837, 4.9719534 
2.9839787e+2, 1.7620753e+2, -1190159.6, -1261163.6, -6833.2, 0.004464329, -0.010951748, -1189508.0, 23648.387, 0.0, 5.017259, 4.971147 
2.983924e+2, 1.8117602e+2, -1149715.1, -1229132.3, -8081.855, 0.0063057705, -0.0064152465, -1148901.0, 15562.944, 0.0, 5.0169787, 4.96551 
2.9838607e+2, 1.8614171e+2, -1101134.5, -1179228.8, -8395.046, 0.01199379, -0.011177866, -1100242.3, 15559.025, 0.0, 5.0165653, 4.965949 
2.9837975e+2, 1.9110745e+2, -1053198.1, -1130635.0, -8442.176, 0.017830973, -0.01616581, -1052288.5, 14849.775, 0.0, 5.0161376, 4.965952 
2.983734e+2, 1.9607319e+2, -1006168.5, -1083960.3, -8494.577, 0.02364208, -0.020846697, -1005251.75, 13223.385, 0.0, 5.015702, 4.9653044 
2.9836673e+2, 2.0103626e+2, -965578.0, -1051254.8, -8701.365, 0.026779968, -0.013387555, -964703.2, 5134.982, 0.0, 5.015278, 4.959879 
2.98359e+2, 2.059978e+2, -916523.7, -1000502.0, -8674.765, 0.022119721, -0.005862846, -915637.0, 5579.0913, 0.0, 5.014885, 4.9605722 
2.9835123e+2, 2.1095936e+2, -868425.06, -951791.6, -8553.509, 0.016950596, 0.0012829864, -867556.5, 5036.777, 0.0, 5.0144854, 4.960573 
2.9834345e+2, 2.1592097e+2, -821003.2, -904537.06, -8432.399, 0.011742295, 0.008590881, -820160.5, 3809.9314, 0.0, 5.0140786, 4.960075 
2.9833606e+2, 2.2087854e+2, -781876.1, -875910.1, -8305.422, 0.010099734, 0.019885907, -781148.2, -5759.293, 0.0, 5.01376, 4.95311 
2.983294e+2, 2.2583142e+2, -732220.44, -825064.1, -8365.119, 0.014615629, 0.008433612, -731472.8, -4613.5728, 0.0, 5.0136046, 4.953679 
2.983227e+2, 2.307843e+2, -683358.56, -775884.3, -8428.044, 0.018887457, -0.0044744383, -682597.1, -4267.085, 0.0, 5.013427, 4.9537015 
2.9831594e+2, 2.3573719e+2, -635211.25, -728181.56, -8498.101, 0.022910919, -0.017542096, -634440.9, -4640.1367, 0.0, 5.0132227, 4.953222 
2.9830936e+2, 2.4068855e+2, -594922.06, -697605.0, -8406.588, 0.028023073, -0.00011333792, -594238.3, -12956.436, 0.0, 5.012983, 4.9467583 
2.9830372e+2, 2.4563995e+2, -542880.25, -642538.2, -7926.17, 0.034449726, 0.02641335, -542253.75, -9507.011, 0.0, 5.013022, 4.948662 
2.982981e+2, 2.505913e+2, -493221.47, -593216.44, -7856.2886, 0.040683128, 0.04816722, -492607.97, -8397.207, 0.0, 5.013095, 4.948606 
2.9829237e+2, 2.5554278e+2, -443874.3, -544493.9, -7743.1104, 0.0469284, 0.07194815, -443281.94, -7608.607, 0.0, 5.0131354, 4.9483514 
2.982878e+2, 2.6048675e+2, -409545.75, -528996.44, -9373.311, 0.068542846, 0.08938231, -408814.7, -21593.93, 0.0, 5.0130987, 4.9359703 
2.982826e+2, 2.6542443e+2, -360175.06, -471529.44, -11746.748, 0.090969056, 0.02065652, -358949.38, -20073.035, 0.0, 5.011467, 4.9384065 
2.9827574e+2, 2.7036333e+2, -315530.97, -421961.38, -13842.108, 0.104728706, -0.06385107, -313760.16, -23235.096, 0.0, 5.009025, 4.939256 
2.982676e+2, 2.7530256e+2, -272332.38, -373345.94, -16803.543, 0.113838606, -0.15910554, -269610.47, -27439.904, 0.0, 5.0059667, 4.940072 
2.9827905e+2, 2.802551e+2, -270867.34, -455927.72, -8669.572, 0.24921532, 0.1698324, -270462.1, -76788.32, 0.0, 5.0098596, 4.8943825 
2.9828838e+2, 2.8520247e+2, -154021.97, -268164.34, -16578.34, 0.26498023, 0.39427936, -151662.84, -6496.139, 0.0, 5.0148993, 4.939909 
2.9828033e+2, 2.901343e+2, -107747.77, -217051.64, -12009.65, 0.15384196, 0.25460446, -106443.78, -9640.075, 0.0, 5.013765, 4.940586 
2.9827076e+2, 2.95065e+2, -64207.57, -167312.5, -8388.405, 0.042441946, 0.09170621, -63529.566, -15077.573, 0.0, 5.0114236, 4.941276 
2.9826242e+2, 3.0000353e+2, -25972.55, -93349.98, -707.8169, -0.02864233, -0.0879592, -25965.115, -25927.184, 0.0, 5.0083313, 4.9603786 
2.982528e+2, 3.0499172e+2, -31256.654, -86657.48, 6627.1357, -0.048398457, 0.053623397, -30474.936, -30474.936, 0.0, 5.0052457, 4.961766 
2.9823712e+2, 3.1000018e+2, -41380.277, -84854.61, 8232.117, -0.09665627, 0.33229527, -39873.688, -39873.688, 0.0, 5.00051, 4.964093 
2.98217e+2, 3.1501597e+2, -55603.617, -85301.01, 10227.403, -0.16130087, 0.6627906, -52422.242, -52422.242, 0.0, 4.9939747, 4.9664326 
3.0344233e+2, 1.2145054e+2, -1697800.3, -1751009.6, -558.328, -0.008616603, -0.010260929, -1697794.4, 51993.406, 0.0, 5.020693, 4.986002 
3.034433e+2, 1.2643713e+2, -1653017.6, -1709849.3, -1841.909, -0.0064914892, 0.01962303, -1652958.0, 47962.38, 0.0, 5.020542, 4.9835196 
3.034443e+2, 1.3141932e+2, -1604469.3, -1661094.3, -1857.8314, -0.0023347486, 0.005460594, -1604408.4, 47684.777, 0.0, 5.0204062, 4.9835186 
3.0344525e+2, 1.3640146e+2, -1558114.3, -1616854.8, -1873.5568, 0.0018451572, -0.007425994, -1558054.5, 45211.527, 0.0, 5.0202703, 4.98202 
3.0344483e+2, 1.4138138e+2, -1516348.5, -1581894.6, -4292.0366, 0.0052555483, -0.000526886, -1516068.8, 38392.758, 0.0, 5.0200863, 4.9773903 
3.034418e+2, 1.4635909e+2, -1467838.5, -1532680.6, -4793.2725, 0.00568553, -0.0017639839, -1467486.0, 38193.348, 0.0, 5.0198193, 4.97758 
3.034387e+2, 1.5133671e+2, -1419612.5, -1484048.9, -4869.5713, 0.0058688438, -0.0040423023, -1419246.6, 37651.625, 0.0, 5.0195494, 4.977579 
3.0343553e+2, 1.5631433e+2, -1372804.0, -1438380.5, -4946.2593, 0.0060471445, -0.0058774706, -1372433.0, 35684.113, 0.0, 5.0192795, 4.9765854 
3.0343163e+2, 1.6128844e+2, -1331953.9, -1404966.4, -6487.548, 0.006089726, -0.0022983334, -1331381.9, 27988.19, 0.0, 5.0189576, 4.9715157 
3.0342624e+2, 1.6626023e+2, -1283701.1, -1355583.4, -6890.9272, 0.0058179246, -0.0047455416, -1283046.5, 27598.398, 0.0, 5.018527, 4.971817 
3.0342084e+2, 1.7123206e+2, -1235880.8, -1307097.9, -7018.2246, 0.0055480665, -0.007107229, -1235195.8, 26723.412, 0.0, 5.018092, 4.9718184 
3.0341542e+2, 1.762039e+2, -1189187.0, -1261007.4, -7146.254, 0.005298724, -0.009067615, -1188482.9, 24710.4, 0.0, 5.0176573, 4.971012 
3.0340955e+2, 1.8117233e+2, -1149020.1, -1228910.6, -8425.105, 0.0068247677, -0.004094492, -1148141.3, 16360.483, 0.0, 5.0172415, 4.965462 
3.0340287e+2, 1.8613797e+2, -1100365.6, -1178944.9, -8721.631, 0.012723949, -0.008946938, -1099409.3, 16430.307, 0.0, 5.0168476, 4.9659147 
3.0339614e+2, 1.9110367e+2, -1052342.9, -1130321.5, -8737.015, 0.018875716, -0.014027167, -1051376.0, 15801.018, 0.0, 5.016451, 4.9659142 
3.0338943e+2, 1.9606934e+2, -1005204.1, -1083606.5, -8753.01, 0.025070803, -0.018773248, -1004238.8, 14275.538, 0.0, 5.016054, 4.965263 
3.0338234e+2, 2.010324e+2, -964500.5, -1050579.1, -8960.15, 0.028384352, -0.011549934, -963577.7, 6299.896, 0.0, 5.0156155, 4.959953 
3.033741e+2, 2.0599394e+2, -915728.94, -999844.6, -8968.673, 0.023171738, -0.0050173975, -914783.3, 6471.4854, 0.0, 5.0151014, 4.960696 
3.0336583e+2, 2.1095555e+2, -867959.94, -951293.0, -8891.457, 0.017447533, 0.0010232951, -867021.8, 5609.5117, 0.0, 5.0145884, 4.960697 
3.033575e+2, 2.1591716e+2, -820847.3, -904186.25, -8814.01, 0.011728739, 0.00718232, -819925.4, 4082.48, 0.0, 5.014075, 4.960198 
3.0334973e+2, 2.2087486e+2, -782052.75, -875797.3, -8464.56, 0.009724699, 0.01865585, -781294.56, -5869.667, 0.0, 5.0136538, 4.953201 
3.0334288e+2, 2.2582808e+2, -732741.56, -825103.3, -8217.078, 0.014461502, 0.009410683, -732016.2, -5123.465, 0.0, 5.013367, 4.9537797 
3.03336e+2, 2.3078127e+2, -684211.4, -776123.4, -7992.545, 0.019279875, -0.0016309558, -683521.56, -5160.145, 0.0, 5.013074, 4.953788 
3.033291e+2, 2.3573442e+2, -636325.9, -728586.4, -7758.75, 0.024139078, -0.013070548, -635677.94, -5847.5864, 0.0, 5.012778, 4.953294 
3.0332237e+2, 2.4068598e+2, -595937.3, -698041.8, -7118.3696, 0.02974368, 0.0057662707, -595443.44, -14133.233, 0.0, 5.012543, 4.9468412 
3.0331665e+2, 2.4563737e+2, -543354.06, -642465.6, -6463.9453, 0.03448546, 0.030591106, -542934.25, -10158.983, 0.0, 5.012699, 4.9488754 
3.0331093e+2, 2.5058866e+2, -493298.53, -592854.0, -6407.5313, 0.03907271, 0.04957648, -492887.8, -8647.967, 0.0, 5.012887, 4.9488573 
3.0330512e+2, 2.555401e+2, -443495.88, -543815.6, -6364.4297, 0.043940533, 0.07018611, -443093.72, -7390.685, 0.0, 5.0130568, 4.948641 
3.0330068e+2, 2.6048398e+2, -408874.4, -530403.7, -7230.6406, 0.065672636, 0.08687977, -408445.72, -21193.367, 0.0, 5.0134478, 4.9353724 
3.0329633e+2, 2.6542187e+2, -355760.34, -475023.78, -7260.1846, 0.09737698, 0.03356805, -355320.0, -16408.879, 0.0, 5.0134416, 4.9365287 
3.0329043e+2, 2.7035975e+2, -305245.0, -425649.63, -5665.943, 0.12425785, -0.037190955, -304978.94, -14403.621, 0.0, 5.013205, 4.9364967 
3.0328336e+2, 2.7529648e+2, -254653.56, -376545.38, -3577.1409, 0.14957818, -0.12342701, -254548.69, -12297.862, 0.0, 5.0128946, 4.936416 
3.032946e+2, 2.8024715e+2, -253075.3, -448560.13, 18821.188, 0.2652044, 0.22408226, -251279.69, -57503.57, 0.0, 5.0160856, 4.893431 
3.033011e+2, 2.8519762e+2, -147973.47, -252489.5, 4079.1526, 0.2532398, 0.440756, -147814.5, -2579.1787, 0.0, 5.015072, 4.9439692 
3.0329055e+2, 2.901319e+2, -112991.305, -210684.13, -222.45956, 0.14389102, 0.27996823, -112990.805, -16147.319, 0.0, 5.0101995, 4.9434657 
3.0327845e+2, 2.9506454e+2, -77814.72, -168915.69, -3843.1553, 0.038477577, 0.103172064, -77652.88, -29185.031, 0.0, 5.0051074, 4.9429617 
3.0326748e+2, 3.0000344e+2, -44250.27, -102991.03, -1756.4199, -0.02835713, -0.09177742, -44197.797, -44152.29, 0.0, 5.0007415, 4.960183 
3.0325618e+2, 3.0499226e+2, -47131.133, -99432.875, 1718.8035, -0.04700683, 0.050978873, -47074.707, -47074.707, 0.0, 4.998629, 4.9599347 
3.0323946e+2, 3.0999836e+2, -49929.242, -95601.305, 925.58563, -0.084358305, 0.30054918, -49910.492, -49910.492, 0.0, 4.996249, 4.9616942 
3.0321857e+2, 3.1500697e+2, -52530.348, -91967.48, 659.01355, -0.12954749, 0.5511134, -52519.34, -52519.34, 0.0, 4.993612, 4.9634514 
3.0846226e+2, 1.21448286e+2, -1699291.3, -1754024.8, -794.25446, -0.016395254, -0.004326636, -1699279.6, 50531.54, 0.0, 5.02069, 4.985013 
3.0846444e+2, 1.264342e+2, -1653044.9, -1709889.0, -1947.3976, -0.00061850704, 0.020130446, -1652978.3, 47973.215, 0.0, 5.02054, 4.983507 
3.0846494e+2, 1.3141641e+2, -1604495.4, -1661135.0, -1961.6342, 0.00004721957, 0.0062422887, -1604427.5, 47696.15, 0.0, 5.020405, 4.9835057 
3.0846542e+2, 1.3639857e+2, -1558138.0, -1616893.8, -1975.1382, 0.0007159795, -0.0063730837, -1558071.6, 45224.473, 0.0, 5.020269, 4.9820075 
3.0846462e+2, 1.4137846e+2, -1516460.9, -1582122.3, -4482.51, 0.0022667528, 0.0007017287, -1516156.3, 38335.066, 0.0, 5.020086, 4.9773154 
3.084615e+2, 1.4635608e+2, -1467970.3, -1532953.1, -4998.065, 0.0044065565, -0.0006488268, -1467588.0, 38121.766, 0.0, 5.0198193, 4.97749 
3.0845827e+2, 1.513336e+2, -1419742.0, -1484319.9, -5073.428, 0.0064152735, -0.0030710672, -1419345.9, 37583.35, 0.0, 5.01955, 4.9774885 
3.0845508e+2, 1.5631111e+2, -1372930.8, -1438649.0, -5148.9595, 0.008409195, -0.005060473, -1372529.8, 35618.992, 0.0, 5.0192804, 4.9764957 
3.0845094e+2, 1.6128507e+2, -1332142.5, -1405371.6, -6795.036, 0.009465815, -0.001707083, -1331517.4, 27885.438, 0.0, 5.018959, 4.97138 
3.0844504e+2, 1.6625673e+2, -1283920.3, -1356056.0, -7222.6396, 0.008535772, -0.003922431, -1283204.3, 27475.166, 0.0, 5.018529, 4.971659 
3.084391e+2, 1.7122844e+2, -1236098.0, -1307568.3, -7349.0806, 0.007545506, -0.0059753107, -1235350.3, 26605.154, 0.0, 5.018094, 4.97166 
3.084332e+2, 1.7620015e+2, -1189402.6, -1261475.6, -7476.1973, 0.0065642498, -0.0076295463, -1188635.3, 24596.035, 0.0, 5.0176587, 4.9708543 
3.0842683e+2, 1.8116851e+2, -1149061.6, -1228996.9, -8726.009, 0.007275994, -0.0022958308, -1148120.1, 16420.645, 0.0, 5.017241, 4.965434 
3.0841964e+2, 1.8613419e+2, -1100381.3, -1178973.4, -9018.3545, 0.012260377, -0.0067261187, -1099359.8, 16518.521, 0.0, 5.0168467, 4.965906 
3.0841246e+2, 1.9109991e+2, -1052357.5, -1130348.9, -9031.835, 0.017465958, -0.011395256, -1051325.3, 15890.145, 0.0, 5.0164504, 4.965906 
3.0840528e+2, 1.9606565e+2, -1005217.7, -1083632.8, -9045.885, 0.022681395, -0.015735142, -1004187.7, 14364.751, 0.0, 5.0160537, 4.9652553 
3.0839768e+2, 2.0102866e+2, -964391.94, -1050357.8, -9342.504, 0.02534499, -0.00898258, -963388.3, 6527.448, 0.0, 5.0156174, 4.960028 
3.08389e+2, 2.0599008e+2, -915582.9, -999545.5, -9362.533, 0.020844497, -0.0046231346, -914551.5, 6742.2007, 0.0, 5.015104, 4.9607983 
3.0838025e+2, 2.1095158e+2, -867816.4, -950995.7, -9283.083, 0.015917875, -0.0007658051, -866792.94, 5877.967, 0.0, 5.0145903, 4.960799 
3.083715e+2, 2.1591307e+2, -820706.25, -903890.6, -9203.36, 0.01096689, 0.003228153, -819700.2, 4347.9043, 0.0, 5.014076, 4.9603 
3.0836335e+2, 2.2087091e+2, -781757.2, -875138.0, -8685.081, 0.009132134, 0.01466824, -780956.3, -5492.7803, 0.0, 5.0136523, 4.953426 
3.0835617e+2, 2.2582486e+2, -732385.44, -824253.25, -8389.555, 0.0133986855, 0.009686543, -731625.56, -4700.9907, 0.0, 5.0133576, 4.954073 
3.0834895e+2, 2.3077878e+2, -683880.5, -775271.9, -8154.7383, 0.017718507, 0.0030342091, -683158.56, -4772.309, 0.0, 5.0130563, 4.9540854 
3.0834177e+2, 2.3573269e+2, -636020.06, -727733.25, -7910.6353, 0.021971572, -0.0038897519, -635342.75, -5494.6724, 0.0, 5.0127525, 4.9535956 
3.0833474e+2, 2.4068472e+2, -595723.56, -697106.2, -7104.0938, 0.026217192, 0.016077619, -595228.2, -13904.183, 0.0, 5.012475, 4.9471884 
3.0832875e+2, 2.4563575e+2, -543247.7, -641701.56, -6368.612, 0.026710005, 0.034418244, -542837.44, -10043.483, 0.0, 5.01262, 4.949169 
3.0832273e+2, 2.5058663e+2, -493161.56, -592098.3, -6291.5176, 0.026594428, 0.046817526, -492763.1, -8499.188, 0.0, 5.0128193, 4.9491425 
3.083166e+2, 2.5553763e+2, -443328.34, -543068.4, -6227.7476, 0.026610512, 0.06088741, -442941.0, -7208.557, 0.0, 5.013001, 4.948918 
3.0831203e+2, 2.604818e+2, -407693.72, -526928.8, -6311.145, 0.042677738, 0.074334204, -407360.6, -20080.594, 0.0, 5.0133257, 4.9366403 
3.083081e+2, 2.654229e+2, -354962.1, -470041.1, -5465.7964, 0.06792242, 0.041061494, -354703.1, -15795.6, 0.0, 5.013002, 4.938453 
3.0830255e+2, 2.7036503e+2, -305204.53, -419905.78, -3461.6824, 0.083889306, -0.0029192285, -305100.16, -14569.396, 0.0, 5.012441, 4.9387517 
3.0829567e+2, 2.753066e+2, -255371.2, -370039.97, -963.3679, 0.093612835, -0.059218474, -255363.11, -13204.237, 0.0, 5.0118065, 4.9390016 
3.0830485e+2, 2.8025994e+2, -246590.36, -436260.47, 21119.639, 0.15320353, 0.2749058, -244267.16, -50609.086, 0.0, 5.016419, 4.897808 
3.083085e+2, 2.8520635e+2, -145007.14, -257203.02, 1091.959, 0.14795573, 0.45604068, -144996.52, 158.46463, 0.0, 5.016586, 4.942447 
3.0829638e+2, 2.901371e+2, -110376.44, -213947.39, -2591.0183, 0.08348298, 0.2857578, -110311.66, -13515.77, 0.0, 5.011494, 4.942396 
3.082825e+2, 2.9506642e+2, -75555.695, -170730.23, -5591.4478, 0.015767654, 0.09659715, -75228.33, -26777.033, 0.0, 5.0061827, 4.942345 
3.082694e+2, 3.000022e+2, -40316.934, -97751.54, -2754.838, -0.029196044, -0.123095654, -40185.1, -40128.51, 0.0, 5.001492, 4.962028 
3.082557e+2, 3.049903e+2, -46031.61, -96020.41, 1861.4852, -0.063057326, 0.012364426, -45962.387, -45962.387, 0.0, 4.998688, 4.9615583 
3.082361e+2, 3.0999836e+2, -51246.535, -93308.8, 2111.4636, -0.13383046, 0.29158756, -51140.81, -51140.81, 0.0, 4.995607, 4.9632773 
3.0821174e+2, 3.1501034e+2, -56272.875, -90793.31, 2888.9236, -0.22877827, 0.5906695, -56032.777, -56032.777, 0.0, 4.9922667, 4.9649944 
3.1348217e+2, 1.21445976e+2, -1700701.9, -1756874.9, -1033.8801, -0.024351727, 0.0012093197, -1700682.9, 49152.285, 0.0, 5.020687, 4.984079 
3.134856e+2, 1.264313e+2, -1653072.6, -1709928.3, -2052.1177, 0.0052701076, 0.02070708, -1652998.6, 47983.727, 0.0, 5.020538, 4.9834948 
3.134856e+2, 1.3141352e+2, -1604522.1, -1661175.3, -2064.6687, 0.0024494135, 0.0070703835, -1604447.0, 47707.188, 0.0, 5.020403, 4.9834924 
3.134856e+2, 1.363957e+2, -1558162.4, -1616932.3, -2075.9504, -0.0003883765, -0.005296589, -1558089.1, 45237.06, 0.0, 5.0202675, 4.9819946 
3.134844e+2, 1.4137556e+2, -1516580.9, -1582365.1, -4672.3164, -0.0007237102, 0.0019485164, -1516250.6, 38270.53, 0.0, 5.0200853, 4.9772353 
3.1348118e+2, 1.4635305e+2, -1468102.3, -1533225.5, -5202.814, 0.0031161683, 0.0004718234, -1467689.3, 38051.004, 0.0, 5.0198197, 4.9774 
3.134779e+2, 1.5133047e+2, -1419871.9, -1484590.9, -5277.241, 0.006947919, -0.0021118883, -1419444.4, 37515.9, 0.0, 5.0195503, 4.9773984 
3.134746e+2, 1.5630788e+2, -1373057.8, -1438917.3, -5351.615, 0.010755091, -0.004273074, -1372625.8, 35554.668, 0.0, 5.0192814, 4.9764056 
3.1347024e+2, 1.6128173e+2, -1332334.0, -1405782.6, -7103.105, 0.012851506, -0.0010946692, -1331653.4, 27782.037, 0.0, 5.0189605, 4.971243 
3.1346387e+2, 1.6625325e+2, -1284139.6, -1356528.5, -7554.4497, 0.011268005, -0.0030718956, -1283359.6, 27354.186, 0.0, 5.0185304, 4.971501 
3.1345743e+2, 1.7122482e+2, -1236315.5, -1308038.8, -7680.033, 0.009552916, -0.0048313434, -1235502.4, 26489.143, 0.0, 5.0180955, 4.9715023 
3.13451e+2, 1.7619641e+2, -1189618.4, -1261944.0, -7806.2383, 0.00783533, -0.0061947987, -1188785.4, 24483.887, 0.0, 5.0176606, 4.9706964 
3.134441e+2, 1.811647e+2, -1149111.3, -1229099.5, -9029.889, 0.007740258, -0.00047045317, -1148104.5, 16475.262, 0.0, 5.0172405, 4.9654 
3.1343645e+2, 1.8613042e+2, -1100397.6, -1179001.3, -9315.213, 0.011806375, -0.0044795517, -1099308.8, 16608.127, 0.0, 5.0168457, 4.9658976 
3.1342876e+2, 1.9109616e+2, -1052372.8, -1130375.8, -9326.789, 0.016057398, -0.008756576, -1051273.1, 15980.659, 0.0, 5.0164495, 4.9658976 
3.134211e+2, 1.9606192e+2, -1005231.94, -1083658.5, -9338.895, 0.020284815, -0.012709237, -1004135.2, 14455.322, 0.0, 5.016053, 4.965247 
3.13413e+2, 2.010249e+2, -964291.8, -1050153.8, -9722.736, 0.022300344, -0.006370095, -963204.6, 6749.329, 0.0, 5.0156193, 4.9600973 
3.134039e+2, 2.0598622e+2, -915437.25, -999246.0, -9756.755, 0.018510787, -0.004185947, -914316.4, 7016.241, 0.0, 5.0151067, 4.9609 
3.1339473e+2, 2.109476e+2, -867673.3, -950698.0, -9675.071, 0.014379599, -0.0025490208, -866560.75, 6149.7583, 0.0, 5.0145926, 4.9609003 
3.1338555e+2, 2.1590899e+2, -820565.7, -903594.7, -9593.075, 0.010194276, -0.0007571542, -819471.75, 4616.642, 0.0, 5.014078, 4.960401 
3.1337696e+2, 2.2086698e+2, -781474.0, -874500.6, -8906.61, 0.008518073, 0.010729163, -780628.94, -5126.865, 0.0, 5.013651, 4.9536424 
3.1336945e+2, 2.2582163e+2, -732033.1, -823399.94, -8568.637, 0.012268948, 0.009923626, -731236.5, -4280.1255, 0.0, 5.0133476, 4.954365 
3.1336194e+2, 2.307763e+2, -683553.44, -774417.2, -8323.536, 0.016060188, 0.00749018, -682797.25, -4386.1123, 0.0, 5.0130386, 4.9543815 
3.133544e+2, 2.3573096e+2, -635718.06, -726876.9, -8069.125, 0.019677076, 0.0049115154, -635009.3, -5143.449, 0.0, 5.012727, 4.953896 
3.13347e+2, 2.406835e+2, -595618.7, -696363.3, -7147.93, 0.022617986, 0.027068567, -595114.06, -13776.849, 0.0, 5.012407, 4.9474626 
3.1334072e+2, 2.4563418e+2, -543169.5, -640909.9, -6270.3315, 0.01896306, 0.03935137, -542768.9, -9957.069, 0.0, 5.0125403, 4.9494605 
3.1333447e+2, 2.5058463e+2, -493052.72, -591315.0, -6172.564, 0.014230425, 0.0448716, -492666.5, -8379.264, 0.0, 5.0127516, 4.949426 
3.1332803e+2, 2.5553524e+2, -443188.9, -542293.44, -6088.132, 0.009480462, 0.052108854, -442816.3, -7055.032, 0.0, 5.0129447, 4.949193 
3.133235e+2, 2.6047942e+2, -406953.94, -524215.9, -5653.259, 0.021659037, 0.061090786, -406682.03, -19372.063, 0.0, 5.0132046, 4.937589 
3.1331944e+2, 2.6542348e+2, -354285.7, -464954.75, -4167.8364, 0.038171273, 0.042324472, -354128.94, -15219.863, 0.0, 5.012563, 4.940294 
3.1331354e+2, 2.7036956e+2, -305284.6, -414058.72, -1753.6859, 0.03951832, 0.019134328, -305256.34, -14763.138, 0.0, 5.011678, 4.940923 
3.1330612e+2, 2.7531582e+2, -256208.11, -363431.72, 1154.2499, 0.029935576, -0.013212852, -256195.67, -14119.952, 0.0, 5.010719, 4.941503 
3.1331545e+2, 2.802731e+2, -243273.63, -431195.0, 25208.81, 0.045027032, 0.3316209, -239950.72, -46414.61, 0.0, 5.016762, 4.89967 
3.1331813e+2, 2.852165e+2, -142387.45, -261581.36, -2714.4412, 0.053208936, 0.49481368, -142325.67, 2734.8901, 0.0, 5.0181026, 4.940848 
3.1330395e+2, 2.9014355e+2, -108109.766, -216871.8, -5781.187, 0.028143276, 0.30815163, -107803.33, -11066.951, 0.0, 5.0127916, 4.94125 
3.1328785e+2, 2.9506925e+2, -73646.29, -172202.56, -8163.957, -0.007340642, 0.09974919, -72974.59, -24549.639, 0.0, 5.007261, 4.941651 
3.1327268e+2, 3.0000076e+2, -38428.137, -96065.02, -4119.411, -0.02890557, -0.15252618, -38135.207, -38066.09, 0.0, 5.002245, 4.9624214 
3.1325653e+2, 3.0498698e+2, -45337.793, -92200.9, 1968.4185, -0.0666319, -0.036736544, -45255.258, -45255.258, 0.0, 4.998751, 4.963059 
3.1323352e+2, 3.0999634e+2, -52970.637, -90604.06, 3259.3264, -0.16216004, 0.25741443, -52690.44, -52690.44, 0.0, 4.994968, 4.9647374 
3.1320518e+2, 3.1501114e+2, -60425.324, -89202.42, 5079.668, -0.29819402, 0.59027463, -59554.996, -59554.996, 0.0, 4.9909253, 4.9664145 
3.185021e+2, 1.2144362e+2, -1701338.9, -1759191.6, -1004.1827, -0.03217152, 0.006061626, -1701321.5, 48538.03, 0.0, 5.0209074, 4.9832106 
3.1850672e+2, 1.2642846e+2, -1652524.9, -1709703.9, -1924.29, 0.0109734535, 0.021621099, -1652460.3, 48552.508, 0.0, 5.0207305, 4.9834733 
3.185062e+2, 1.3141064e+2, -1604081.1, -1661005.5, -1990.8182, 0.0047906674, 0.008089117, -1604011.6, 48172.594, 0.0, 5.0205603, 4.9834714 
3.1850576e+2, 1.3639282e+2, -1557839.3, -1616820.0, -2054.093, -0.0014271706, -0.004182227, -1557767.9, 45588.11, 0.0, 5.0203853, 4.981974 
3.185042e+2, 1.4137265e+2, -1516454.1, -1582508.5, -4779.529, -0.0036083462, 0.0031373224, -1516110.1, 38440.965, 0.0, 5.0201716, 4.9771457 
3.1850088e+2, 1.4635006e+2, -1468008.5, -1533393.5, -5346.048, 0.0018655293, 0.001542065, -1467574.3, 38196.383, 0.0, 5.0198965, 4.977307 
3.184975e+2, 1.5132736e+2, -1419807.3, -1484770.9, -5437.923, 0.007466459, -0.0011925461, -1419355.3, 37636.094, 0.0, 5.0196176, 4.977306 
3.1849414e+2, 1.5630466e+2, -1373026.6, -1439110.4, -5527.103, 0.01304264, -0.0035119497, -1372567.6, 35644.46, 0.0, 5.019336, 4.9763145 
3.1848952e+2, 1.6127838e+2, -1332410.3, -1406140.5, -7390.3486, 0.01618968, -0.00043792426, -1331676.8, 27791.363, 0.0, 5.0190024, 4.971104 
3.1848267e+2, 1.6624977e+2, -1284298.3, -1356970.9, -7856.032, 0.013993144, -0.0021733614, -1283458.6, 27289.504, 0.0, 5.0185533, 4.971342 
3.1847575e+2, 1.7122123e+2, -1236540.1, -1308512.5, -7973.57, 0.01159671, -0.0036505554, -1235667.4, 26360.367, 0.0, 5.018096, 4.9713435 
3.1846878e+2, 1.7619267e+2, -1189918.3, -1262453.6, -8093.881, 0.009196632, -0.0047268323, -1189026.0, 24281.14, 0.0, 5.017635, 4.9705377 
3.1846142e+2, 1.811609e+2, -1149326.0, -1229294.9, -9291.281, 0.008343922, 0.0014145287, -1148260.6, 16358.009, 0.0, 5.017187, 4.96536 
3.1845328e+2, 1.8612663e+2, -1100618.3, -1179127.0, -9567.501, 0.0114715565, -0.0022357588, -1099469.1, 16486.467, 0.0, 5.016775, 4.965889 
3.184451e+2, 1.910924e+2, -1052647.3, -1130525.8, -9576.529, 0.014753804, -0.006215349, -1051486.9, 15805.306, 0.0, 5.01636, 4.965889 
3.1843692e+2, 1.9605818e+2, -1005570.25, -1083837.4, -9584.158, 0.017992988, -0.009887221, -1004413.75, 14215.03, 0.0, 5.015941, 4.9652386 
3.1842834e+2, 2.0102115e+2, -964564.8, -1050135.8, -10044.152, 0.019369481, -0.0039591007, -963401.7, 6590.649, 0.0, 5.015495, 4.9601617 
3.1841877e+2, 2.0598236e+2, -915638.56, -999106.7, -10102.057, 0.016267959, -0.0038164146, -914433.3, 6938.224, 0.0, 5.014989, 4.9610023 
3.1840917e+2, 2.1094364e+2, -867873.5, -950556.8, -10024.861, 0.012924628, -0.0042930343, -866675.44, 6074.6055, 0.0, 5.0144753, 4.9610033 
3.1839958e+2, 2.1590492e+2, -820783.06, -903459.9, -9942.888, 0.009516114, -0.0046086195, -819604.1, 4524.306, 0.0, 5.0139556, 4.960504 
3.1839058e+2, 2.2086307e+2, -781646.56, -874112.44, -9107.921, 0.008015782, 0.007092886, -780757.94, -5217.5835, 0.0, 5.0135, 4.9538426 
3.183827e+2, 2.2581841e+2, -732323.5, -822893.2, -8837.283, 0.011270138, 0.010385406, -731469.25, -4481.2183, 0.0, 5.013124, 4.9546356 
3.1837487e+2, 2.3077376e+2, -684129.8, -774039.25, -8701.977, 0.014628238, 0.011839987, -683295.3, -4859.0396, 0.0, 5.012715, 4.9546533 
3.1836697e+2, 2.3572913e+2, -636656.5, -726660.8, -8566.341, 0.017763706, 0.013097837, -635848.44, -5963.902, 0.0, 5.012276, 4.954169 
3.1835923e+2, 2.4068217e+2, -597118.94, -696561.94, -7664.276, 0.019674301, 0.037985977, -596531.7, -15180.279, 0.0, 5.0118093, 4.94765 
3.1835267e+2, 2.4563254e+2, -544794.56, -640933.4, -6658.218, 0.0122190695, 0.0447029, -544335.6, -11505.206, 0.0, 5.011869, 4.949734 
3.183462e+2, 2.505826e+2, -494825.3, -591421.7, -6624.24, 0.0032358856, 0.04342505, -494373.16, -10061.909, 0.0, 5.0120354, 4.9496937 
3.1833953e+2, 2.555328e+2, -445077.03, -542467.25, -6596.8037, -0.0058853757, 0.04409552, -444632.22, -8841.66, 0.0, 5.012198, 4.9494543 
3.1833515e+2, 2.604767e+2, -409515.03, -524172.9, -6337.049, 0.0048694443, 0.04818722, -409165.84, -21822.736, 0.0, 5.012183, 4.937997 
3.1833065e+2, 2.6542282e+2, -360647.66, -464367.4, -6825.168, 0.014257403, 0.037318777, -360200.44, -21278.58, 0.0, 5.009874, 4.941525 
3.1832394e+2, 2.703717e+2, -318757.88, -416002.78, -7048.333, 0.0035746559, 0.023920074, -318249.7, -27770.92, 0.0, 5.0064225, 4.9423466 
3.1831568e+2, 2.7532098e+2, -279016.56, -368845.47, -7281.5767, -0.020686038, 0.0008185157, -278430.16, -36398.145, 0.0, 5.002098, 4.943125 
3.1832758e+2, 2.8028196e+2, -275593.38, -446466.47, 19592.46, -0.031818535, 0.36865306, -273375.66, -79919.97, 0.0, 5.0056834, 4.899346 
3.1833065e+2, 2.8522465e+2, -162442.56, -272014.03, -14039.583, -0.01351068, 0.5363522, -160672.25, -15686.46, 0.0, 5.011684, 4.940005 
3.183137e+2, 2.9014918e+2, -116337.16, -221237.77, -13314.625, -0.013796197, 0.33467636, -114673.56, -17989.227, 0.0, 5.010529, 4.9406304 
3.182947e+2, 2.950723e+2, -74292.21, -172390.61, -12872.595, -0.028002387, 0.10756718, -72631.18, -24234.63, 0.0, 5.0076613, 4.9412603 
3.182775e+2, 2.9999936e+2, -37482.934, -96179.72, -5691.517, -0.026488617, -0.1787048, -36936.152, -36855.0, 0.0, 5.0035253, 4.961553 
3.1825906e+2, 3.0498275e+2, -48842.027, -87724.586, 5051.928, -0.051303834, -0.09793746, -48196.36, -48196.36, 0.0, 4.9974747, 4.9648304 
3.182327e+2, 3.0999288e+2, -71932.93, -91752.414, 13669.431, -0.14958434, 0.18426356, -64959.063, -64959.063, 0.0, 4.9881887, 4.9668255 
3.1820074e+2, 3.150098e+2, -102818.81, -99293.125, 26245.502, -0.29769656, 0.51687664, -74751.336, -74751.336, 0.0, 4.9758563, 4.968843 
3.2352436e+2, 1.2144131e+2, -1695740.8, -1757395.9, -214.80789, -0.030121226, 0.00035646983, -1695740.0, 54142.836, 0.0, 5.0229692, 4.9827886 
3.2352835e+2, 1.2642735e+2, -1647251.9, -1707666.1, -1269.2054, 0.009824958, 0.03057827, -1647225.3, 53799.215, 0.0, 5.0226026, 4.9832287 
3.2352763e+2, 1.3140893e+2, -1599438.4, -1659285.4, -1545.3276, 0.004281531, 0.013235666, -1599398.5, 52803.457, 0.0, 5.022227, 4.983227 
3.2352695e+2, 1.3639048e+2, -1553806.4, -1615402.3, -1818.2164, -0.0013036128, -0.0028773479, -1553752.8, 49626.996, 0.0, 5.0218506, 4.9817314 
3.2352513e+2, 1.4136983e+2, -1512871.1, -1581245.3, -4741.473, -0.0031033033, 0.0019360086, -1512543.9, 42035.582, 0.0, 5.021474, 4.976934 
3.2352147e+2, 1.463471e+2, -1464678.6, -1532214.8, -5412.13, 0.0021998659, 0.0010509647, -1464247.8, 41552.71, 0.0, 5.0211096, 4.977113 
3.2351774e+2, 1.513243e+2, -1416739.5, -1483715.9, -5611.0815, 0.0076461937, -0.0008314088, -1416272.6, 40749.45, 0.0, 5.020745, 4.9771147 
3.2351404e+2, 1.563015e+2, -1370212.8, -1438172.8, -5809.262, 0.013102326, -0.002286522, -1369719.8, 38524.027, 0.0, 5.0203805, 4.9761267 
3.2350904e+2, 1.612751e+2, -1329761.5, -1405104.1, -7848.663, 0.016221914, 0.0011322072, -1328952.6, 30548.363, 0.0, 5.0199533, 4.970996 
3.2350165e+2, 1.6624632e+2, -1282002.4, -1356079.5, -8281.836, 0.014094529, -0.0013460048, -1281087.8, 29694.86, 0.0, 5.01938, 4.9712477 
3.234942e+2, 1.712176e+2, -1234612.1, -1307806.6, -8329.419, 0.011799626, -0.003562484, -1233676.3, 28387.305, 0.0, 5.0187993, 4.971247 
3.2348675e+2, 1.7618889e+2, -1188345.6, -1261926.1, -8377.625, 0.009536578, -0.005343759, -1187403.8, 25940.762, 0.0, 5.0182185, 4.9704404 
3.2347882e+2, 1.8115704e+2, -1148024.6, -1228722.5, -9501.903, 0.008551621, 0.0006564787, -1146920.9, 17735.775, 0.0, 5.0176396, 4.965342 
3.234701e+2, 1.8612286e+2, -1099751.6, -1178720.6, -9756.277, 0.010697678, -0.0020592895, -1098564.1, 17428.715, 0.0, 5.01707, 4.96589 
3.2346132e+2, 1.9108872e+2, -1052228.0, -1130330.1, -9755.618, 0.0129838865, -0.0051309946, -1051027.9, 16300.633, 0.0, 5.0165, 4.965892 
3.2345256e+2, 1.9605458e+2, -1005584.6, -1083845.3, -9754.552, 0.015265822, -0.007949267, -1004387.1, 14277.1, 0.0, 5.01593, 4.965243 
3.234434e+2, 2.0101753e+2, -964912.6, -1050206.5, -10265.609, 0.016243856, -0.0024815842, -963694.5, 6333.4316, 0.0, 5.015349, 4.9602084 
3.2343337e+2, 2.0597863e+2, -916405.75, -999430.94, -10443.959, 0.014214805, -0.003615658, -915112.1, 6296.378, 0.0, 5.014712, 4.961024 
3.234233e+2, 2.1093982e+2, -869008.2, -951041.2, -10490.789, 0.012077807, -0.0051015704, -867687.8, 5100.2085, 0.0, 5.0140696, 4.961028 
3.2341325e+2, 2.1590102e+2, -822263.4, -904095.56, -10536.456, 0.009931135, -0.0064155413, -820928.5, 3238.9983, 0.0, 5.0134273, 4.960532 
3.234037e+2, 2.2085927e+2, -783341.2, -874335.25, -9728.453, 0.008660226, 0.005064032, -782312.7, -6734.4614, 0.0, 5.012789, 4.954103 
3.233951e+2, 2.258151e+2, -734893.94, -823566.3, -9332.011, 0.010027858, 0.01119173, -733922.44, -6902.4614, 0.0, 5.0121017, 4.954886 
3.2338658e+2, 2.3077092e+2, -687490.3, -775108.2, -9068.529, 0.011620419, 0.015121585, -686561.56, -8098.917, 0.0, 5.0114055, 4.954895 
3.2337797e+2, 2.3572665e+2, -640719.5, -728090.56, -8786.45, 0.013157512, 0.018104903, -639844.6, -9938.547, 0.0, 5.0107074, 4.9544015 
3.2336956e+2, 2.4067965e+2, -601345.94, -697566.9, -7405.799, 0.013633868, 0.038902763, -600779.25, -19406.375, 0.0, 5.010038, 4.94811 
3.2336283e+2, 2.4562971e+2, -550534.06, -643108.94, -6147.6733, 0.0065659177, 0.03931027, -550127.6, -17270.463, 0.0, 5.009645, 4.9499936 
3.233562e+2, 2.5057968e+2, -502072.88, -594302.4, -6009.222, -0.0016509352, 0.034703847, -501683.0, -17341.709, 0.0, 5.0092874, 4.9499493 
3.2334942e+2, 2.555299e+2, -453852.38, -546058.2, -5886.288, -0.009964241, 0.03331526, -453478.1, -17655.408, 0.0, 5.0089192, 4.949707 
3.233447e+2, 2.6047483e+2, -418296.2, -526927.25, -5021.0356, 0.00041325533, 0.041574877, -418064.6, -30698.658, 0.0, 5.008648, 4.938773 
3.233393e+2, 2.654218e+2, -365501.6, -467909.75, -3507.4644, 0.010194428, 0.043360304, -365381.6, -26453.313, 0.0, 5.00777, 4.9416766 
3.233319e+2, 2.703695e+2, -316508.97, -418329.75, -1086.953, 0.007840021, 0.024232939, -316497.34, -26009.436, 0.0, 5.0066924, 4.9421 
3.2332316e+2, 2.753157e+2, -267250.84, -369190.63, 1859.9761, 0.00035480587, -0.024323361, -267216.9, -25154.258, 0.0, 5.0055785, 4.942474 
3.233336e+2, 2.8027022e+2, -268101.63, -422232.28, 35633.367, 0.0017389117, 0.23652355, -260262.28, -66719.445, 0.0, 5.0052156, 4.907968 
3.233351e+2, 2.8521478e+2, -184920.06, -271926.5, 1208.3037, -0.0065148217, 0.39173457, -184903.28, -39844.926, 0.0, 5.0048575, 4.9420843 
3.233176e+2, 2.9014373e+2, -137646.9, -222726.86, -4760.7505, -0.02446246, 0.2423716, -137381.34, -40662.645, 0.0, 5.0040636, 4.9419584 
3.232983e+2, 2.9507008e+2, -90156.45, -173712.39, -10079.328, -0.042865675, 0.058848005, -88957.78, -40553.246, 0.0, 5.0031657, 4.941836 
3.2328087e+2, 3.000022e+2, -40984.957, -88693.445, -7126.812, -0.03396021, -0.17543419, -39943.09, -39901.297, 0.0, 5.0024943, 4.963703 
3.2326207e+2, 3.049868e+2, -33119.53, -67065.71, -4140.2505, -0.031264756, -0.10267703, -32621.86, -32621.86, 0.0, 5.0027056, 4.969034 
3.232361e+2, 3.0999625e+2, -28094.66, -53063.246, -7146.286, -0.07004246, 0.12453131, -26193.996, -26193.996, 0.0, 5.002828, 4.973302 
3.2320556e+2, 3.150141e+2, -22617.293, -39524.72, -9592.706, -0.12733224, 0.3825245, -18284.87, -18284.87, 0.0, 5.0028453, 4.977576 
3.2854798e+2, 1.21438965e+2, -1696010.3, -1757924.8, -454.30276, -0.023699593, -0.01089858, -1696006.9, 53899.508, 0.0, 5.0229664, 4.9826155 
3.2855052e+2, 1.2642708e+2, -1647776.1, -1708727.6, -1555.9991, 0.0052341316, 0.043293156, -1647736.5, 53291.094, 0.0, 5.0226016, 4.982879 
3.2854968e+2, 1.3140775e+2, -1599958.4, -1660344.3, -1830.5308, 0.0023048283, 0.02026687, -1599902.9, 52311.168, 0.0, 5.022226, 4.9828773 
3.2854885e+2, 1.3638836e+2, -1554320.5, -1616455.3, -2101.0288, -0.0006928008, -0.0015390449, -1554249.5, 49151.44, 0.0, 5.02185, 4.981383 
3.2854682e+2, 1.4136703e+2, -1513270.1, -1582073.9, -5027.996, -0.0009999402, -0.00040840742, -1512904.6, 41702.914, 0.0, 5.0214744, 4.97666 
3.2854268e+2, 1.4634416e+2, -1465039.4, -1532969.6, -5689.8374, 0.0032779758, -0.00015164375, -1464566.1, 41263.875, 0.0, 5.0211105, 4.976863 
3.2853848e+2, 1.5132125e+2, -1417097.9, -1484468.5, -5888.198, 0.0075957323, -0.00068887754, -1416587.1, 40465.914, 0.0, 5.0207458, 4.976865 
3.285343e+2, 1.5629832e+2, -1370568.1, -1438921.6, -6085.4434, 0.011918129, -0.0007987531, -1370030.5, 38245.582, 0.0, 5.0203815, 4.9758773 
3.2852882e+2, 1.6127181e+2, -1329897.3, -1405396.9, -8258.165, 0.014379028, 0.003178286, -1329004.5, 30530.078, 0.0, 5.019954, 4.970898 
3.2852086e+2, 1.6624282e+2, -1282075.5, -1356243.5, -8726.238, 0.012554413, -0.000674266, -1281062.6, 29755.074, 0.0, 5.0193815, 4.9711924 
3.2851288e+2, 1.7121391e+2, -1234683.1, -1307968.5, -8772.206, 0.010572178, -0.0043602176, -1233647.8, 28452.379, 0.0, 5.018801, 4.971193 
3.285049e+2, 1.76185e+2, -1188414.4, -1262085.8, -8818.719, 0.008603676, -0.0076208836, -1187373.5, 26009.104, 0.0, 5.0182204, 4.970386 
3.284964e+2, 1.8115306e+2, -1148023.0, -1228732.3, -9941.944, 0.0076217, -0.002120317, -1146816.4, 17878.873, 0.0, 5.0176415, 4.9653387 
3.28487e+2, 1.8611905e+2, -1099734.3, -1178695.9, -10188.006, 0.008864143, -0.0031358837, -1098440.9, 17588.672, 0.0, 5.0170717, 4.965899 
3.2847756e+2, 1.9108509e+2, -1052210.0, -1130302.1, -10184.014, 0.010162281, -0.0044393004, -1050903.8, 16459.852, 0.0, 5.016502, 4.965902 
3.2846814e+2, 1.9605114e+2, -1005565.8, -1083814.1, -10179.557, 0.011430275, -0.0054958807, -1004263.2, 14434.233, 0.0, 5.015932, 4.965254 
3.2845837e+2, 2.0101413e+2, -964903.94, -1050206.1, -10748.705, 0.012192047, 0.00016389032, -963570.3, 6490.605, 0.0, 5.015352, 4.9602094 
3.2844785e+2, 2.0597503e+2, -916453.6, -999554.75, -10940.854, 0.011613457, -0.0025751728, -915037.3, 6406.7095, 0.0, 5.0147147, 4.9609838 
3.284373e+2, 2.1093602e+2, -869056.06, -951161.8, -10980.802, 0.010928432, -0.005437262, -867612.8, 5213.157, 0.0, 5.0140724, 4.9609885 
3.284267e+2, 2.1589704e+2, -822311.2, -904213.06, -11019.538, 0.010199932, -0.008084064, -820854.44, 3353.3584, 0.0, 5.013429, 4.9604936 
3.284165e+2, 2.2085527e+2, -782894.1, -873388.94, -10247.64, 0.009065003, 0.0023483823, -781748.25, -6129.723, 0.0, 5.0127935, 4.954429 
3.2840693e+2, 2.2581163e+2, -734414.2, -822474.5, -9819.875, 0.0070342356, 0.010267702, -733332.44, -6279.023, 0.0, 5.0120974, 4.9552684 
3.2839733e+2, 2.3076801e+2, -687043.0, -773993.44, -9532.598, 0.004869451, 0.016626576, -686010.2, -7521.636, 0.0, 5.0113893, 4.955289 
3.2838774e+2, 2.3572434e+2, -640304.44, -726952.75, -9226.666, 0.0025052975, 0.02220083, -639332.9, -9408.685, 0.0, 5.0106783, 4.9548073 
3.283785e+2, 2.4067758e+2, -600689.0, -695594.9, -7673.976, -0.00036032705, 0.039536, -600072.5, -18684.586, 0.0, 5.009972, 4.9488044 
3.2837147e+2, 2.4562743e+2, -550296.2, -641966.7, -6436.436, -0.005980351, 0.03307797, -549846.44, -16969.693, 0.0, 5.009565, 4.9504066 
3.2836452e+2, 2.5057733e+2, -501832.13, -593192.06, -6278.671, -0.012173098, 0.024057617, -501402.66, -17038.14, 0.0, 5.0092106, 4.950351 
3.2835746e+2, 2.5552753e+2, -453608.63, -544979.56, -6136.4087, -0.018585194, 0.018634574, -453198.34, -17349.05, 0.0, 5.0088463, 4.950098 
3.2835177e+2, 2.6047376e+2, -415757.84, -520024.22, -5265.942, -0.0129368305, 0.028764443, -415492.56, -28113.16, 0.0, 5.00849, 4.941288 
3.2834405e+2, 2.6542464e+2, -363088.88, -458652.6, -3041.6057, -0.02967395, 0.04952586, -362992.16, -24100.975, 0.0, 5.0072722, 4.945241 
3.283341e+2, 2.703769e+2, -314880.9, -408225.1, 1.5085444, -0.062514044, 0.052610632, -314880.9, -24487.668, 0.0, 5.005856, 4.9460235 
3.2832283e+2, 2.7532822e+2, -266409.47, -358237.4, 3570.0447, -0.102671795, 0.028964164, -266270.88, -24366.762, 0.0, 5.004403, 4.946757 
3.2832906e+2, 2.8028288e+2, -256928.27, -398972.38, 29770.676, -0.112595975, 0.22361302, -250941.06, -57568.348, 0.0, 5.005526, 4.916148 
3.283307e+2, 2.852216e+2, -184116.27, -281994.63, -1084.2405, -0.08655125, 0.32417992, -184104.25, -39152.41, 0.0, 5.0064507, 4.9386744 
3.2831556e+2, 2.901476e+2, -137289.69, -231556.06, -6483.8433, -0.07842582, 0.1936652, -136845.8, -40196.063, 0.0, 5.005425, 4.93895 
3.2829854e+2, 2.9507118e+2, -90247.28, -181307.75, -11231.228, -0.07426084, 0.027167564, -88882.5, -40511.35, 0.0, 5.0042953, 4.939228 
3.282826e+2, 3.0000526e+2, -37489.74, -83953.664, -8553.984, -0.052197874, -0.16706532, -35964.992, -35964.992, 0.0, 5.0031705, 4.9655337 
3.282635e+2, 3.049883e+2, -33942.824, -66817.63, -5072.0176, -0.0557097, -0.08440952, -33178.086, -33178.086, 0.0, 5.0025973, 4.970021 
3.282372e+2, 3.0999252e+2, -31189.625, -53761.31, -6878.4277, -0.10626816, 0.13768701, -29258.697, -29258.697, 0.0, 5.0020556, 4.9742846 
3.282061e+2, 3.1500652e+2, -27981.168, -41163.38, -8127.1396, -0.181888, 0.40788636, -24108.38, -24108.38, 0.0, 5.001407, 4.9785557 
3.3357155e+2, 1.2143655e+2, -1696196.3, -1758281.9, -688.32996, -0.017621653, -0.022664139, -1696188.6, 53742.008, 0.0, 5.022964, 4.982498 
3.3357266e+2, 1.264268e+2, -1648301.0, -1709788.6, -1842.2555, 0.00059937366, 0.05605959, -1648245.9, 52784.76, 0.0, 5.0226, 4.98253 
3.335717e+2, 1.3140656e+2, -1600478.9, -1661402.9, -2115.1965, 0.0002931412, 0.027331006, -1600405.6, 51820.617, 0.0, 5.0222254, 4.9825277 
3.3357078e+2, 1.3638628e+2, -1554835.1, -1617508.0, -2383.3025, -0.00010802345, -0.00018642818, -1554744.6, 48677.48, 0.0, 5.02185, 4.9810343 
3.335685e+2, 1.4136425e+2, -1513671.8, -1582907.9, -5314.104, 0.0010993718, -0.0027421464, -1513266.3, 41369.27, 0.0, 5.0214753, 4.976384 
3.335639e+2, 1.4634123e+2, -1465400.4, -1533724.5, -5967.4033, 0.004358629, -0.0013526302, -1464883.1, 40976.516, 0.0, 5.0211115, 4.9766126 
3.3355924e+2, 1.5131819e+2, -1417456.5, -1485221.3, -6165.174, 0.007549098, -0.00055726094, -1416900.1, 40183.836, 0.0, 5.0207467, 4.9766145 
3.3355457e+2, 1.5629515e+2, -1370923.6, -1439670.5, -6361.4824, 0.010739044, 0.0006655686, -1370339.9, 37968.55, 0.0, 5.0203824, 4.975628 
3.3354858e+2, 1.6126849e+2, -1330043.3, -1405710.8, -8668.361, 0.0125639895, 0.005281127, -1329063.0, 30505.236, 0.0, 5.0199556, 4.9707937 
3.3354014e+2, 1.6623934e+2, -1282148.9, -1356407.4, -9170.93, 0.011040511, 0.000059301907, -1281033.1, 29819.64, 0.0, 5.019383, 4.971137 
3.3353156e+2, 1.712102e+2, -1234754.5, -1308130.3, -9215.281, 0.009360988, -0.0051236786, -1233614.9, 28521.822, 0.0, 5.018803, 4.9711375 
3.33523e+2, 1.761811e+2, -1188483.6, -1262245.3, -9260.1, 0.007677082, -0.009891278, -1187338.9, 26081.768, 0.0, 5.018223, 4.970331 
3.3351395e+2, 1.8114908e+2, -1148029.6, -1228759.3, -10383.367, 0.0066966126, -0.004865105, -1146715.5, 18018.207, 0.0, 5.017644, 4.96533 
3.3350387e+2, 1.8611524e+2, -1099717.5, -1178670.9, -10620.7295, 0.00701324, -0.004230338, -1098313.8, 17752.688, 0.0, 5.0170736, 4.965907 
3.334938e+2, 1.9108146e+2, -1052192.4, -1130273.9, -10613.405, 0.0072960965, -0.003844628, -1050775.5, 16623.143, 0.0, 5.016504, 4.965911 
3.334837e+2, 1.9604768e+2, -1005547.5, -1083782.8, -10605.557, 0.007522953, -0.00321864, -1004135.3, 14595.407, 0.0, 5.015934, 4.9652643 
3.3347335e+2, 2.0101073e+2, -964941.9, -1050306.0, -11233.026, 0.008183538, 0.0030702052, -963488.5, 6605.3027, 0.0, 5.015354, 4.960176 
3.334623e+2, 2.0597142e+2, -916502.2, -999678.4, -11439.332, 0.009055531, -0.001222402, -914957.56, 6521.7437, 0.0, 5.014718, 4.9609423 
3.3345124e+2, 2.1093222e+2, -869104.5, -951282.3, -11472.399, 0.009766119, -0.0056380527, -867533.0, 5330.7925, 0.0, 5.014075, 4.9609475 
3.3344015e+2, 2.1589303e+2, -822359.6, -904330.4, -11504.205, 0.010399457, -0.009794982, -820775.7, 3472.348, 0.0, 5.0134315, 4.9604535 
3.334293e+2, 2.2085129e+2, -782517.56, -872591.6, -10766.081, 0.009535903, -0.00015243495, -781248.6, -5589.915, 0.0, 5.0127983, 4.954702 
3.3341873e+2, 2.2580816e+2, -733938.94, -821379.94, -10326.055, 0.003991876, 0.00928223, -732736.06, -5649.135, 0.0, 5.012093, 4.955646 
3.3340812e+2, 2.3076509e+2, -686600.06, -772876.0, -10014.983, -0.0021290896, 0.01751868, -685452.8, -6938.0874, 0.0, 5.0113726, 4.955678 
3.3339742e+2, 2.35722e+2, -639893.75, -725812.2, -9685.205, -0.00859324, 0.025132753, -638815.56, -8872.852, 0.0, 5.01065, 4.955208 
3.3338732e+2, 2.4067561e+2, -600245.9, -694068.75, -7980.6396, -0.014683357, 0.041387733, -599571.9, -18170.018, 0.0, 5.009906, 4.9493403 
3.3337998e+2, 2.4562533e+2, -550073.75, -640809.6, -6716.2466, -0.018686535, 0.029136982, -549579.3, -16684.777, 0.0, 5.009485, 4.950817 
3.3337277e+2, 2.5057513e+2, -501606.88, -592066.9, -6539.1733, -0.022784386, 0.015128118, -501136.63, -16750.383, 0.0, 5.009134, 4.9507513 
3.333654e+2, 2.5552523e+2, -453380.34, -543886.0, -6377.589, -0.027224496, 0.005096177, -452933.13, -17058.45, 0.0, 5.0087733, 4.9504867 
3.333589e+2, 2.6047212e+2, -414023.44, -514816.97, -5818.081, -0.024449408, 0.01376317, -413688.72, -26290.166, 0.0, 5.0083327, 4.943134 
3.3334827e+2, 2.6542625e+2, -360751.8, -449367.63, -3133.4358, -0.07011309, 0.040139865, -360641.16, -21774.406, 0.0, 5.006775, 4.948607 
3.333351e+2, 2.703825e+2, -313326.22, -398092.56, 531.11084, -0.13737388, 0.051518366, -313322.9, -23007.459, 0.0, 5.00502, 4.949749 
3.3332056e+2, 2.7533856e+2, -265639.3, -347255.97, 4719.7793, -0.21413745, 0.038880344, -265367.28, -23600.637, 0.0, 5.003229, 4.9508424 
3.33325e+2, 2.8029567e+2, -253252.47, -393005.56, 25880.713, -0.22290325, 0.21673831, -248613.63, -55412.438, 0.0, 5.0058513, 4.918305 
3.3332872e+2, 2.8523052e+2, -183474.34, -291926.28, -4096.053, -0.15347482, 0.30316353, -183319.86, -38495.125, 0.0, 5.008045, 4.9351315 
3.3331555e+2, 2.901533e+2, -137093.84, -240244.58, -8925.0625, -0.12327156, 0.18132709, -136327.31, -39764.38, 0.0, 5.0067883, 4.935808 
3.3330044e+2, 2.9507387e+2, -90498.99, -188758.38, -13100.358, -0.10053491, 0.021684673, -88782.38, -40459.73, 0.0, 5.005427, 4.936487 
3.3328593e+2, 3.0000693e+2, -35279.246, -81693.95, -10564.736, -0.062257085, -0.16249341, -32987.68, -32987.68, 0.0, 5.003849, 4.9663243 
3.332664e+2, 3.0498517e+2, -34932.98, -66411.62, -6065.145, -0.060892414, -0.112485856, -33804.813, -33804.813, 0.0, 5.0024905, 4.970713 
3.332393e+2, 3.0998304e+2, -34452.184, -54299.87, -6672.9116, -0.11550864, 0.07394169, -32417.33, -32417.33, 0.0, 5.0012846, 4.9749727 
3.3320707e+2, 3.1499198e+2, -33515.85, -42640.75, -6724.111, -0.20171988, 0.32574862, -29952.44, -29952.44, 0.0, 4.9999714, 4.9792395 
3.3859512e+2, 1.2143415e+2, -1695806.1, -1758210.8, -779.45294, -0.011892052, -0.034399573, -1695796.4, 54158.355, 0.0, 5.0231204, 4.9824433 
3.3859485e+2, 1.264265e+2, -1648267.4, -1710581.0, -2007.7734, -0.003735432, 0.06847232, -1648202.8, 52831.055, 0.0, 5.0227857, 4.982178 
3.3859378e+2, 1.3140535e+2, -1600439.3, -1662191.0, -2291.9294, -0.0016108594, 0.034203097, -1600354.4, 51884.035, 0.0, 5.0224123, 4.982176 
3.385927e+2, 1.3638417e+2, -1554829.8, -1618309.0, -2569.2532, 0.00045044115, 0.0011545287, -1554725.9, 48717.234, 0.0, 5.022024, 4.980684 
3.385902e+2, 1.4136146e+2, -1513645.3, -1583536.5, -5510.411, 0.0031402255, -0.0049553383, -1513213.5, 41449.85, 0.0, 5.0216208, 4.9761066 
3.3858514e+2, 1.4633831e+2, -1465446.9, -1534326.9, -6154.7236, 0.005423871, -0.0024810873, -1464901.3, 40987.727, 0.0, 5.0212183, 4.976362 
3.3857998e+2, 1.5131515e+2, -1417623.8, -1485883.1, -6353.028, 0.007534723, -0.00040416743, -1417037.5, 40077.29, 0.0, 5.020813, 4.9763637 
3.3857486e+2, 1.5629199e+2, -1371218.5, -1440393.4, -6551.283, 0.009647441, 0.0021077644, -1370603.5, 37737.13, 0.0, 5.0204043, 4.975377 
3.385684e+2, 1.612652e+2, -1330224.9, -1406057.0, -8989.88, 0.01087791, 0.007420543, -1329173.6, 30428.063, 0.0, 5.0199485, 4.9706817 
3.3855936e+2, 1.6623583e+2, -1282218.8, -1356568.3, -9528.509, 0.009593338, 0.00083952304, -1281017.0, 29870.607, 0.0, 5.019386, 4.9710817 
3.3855027e+2, 1.7120653e+2, -1234800.0, -1308278.8, -9575.993, 0.008154061, -0.0058637345, -1233572.5, 28600.662, 0.0, 5.018814, 4.971082 
3.3854115e+2, 1.7617722e+2, -1188517.4, -1262387.3, -9624.411, 0.006702702, -0.012164951, -1187284.0, 26174.639, 0.0, 5.0182376, 4.9702764 
3.385315e+2, 1.8114512e+2, -1148030.1, -1228799.1, -10756.31, 0.0057095797, -0.0075917174, -1146622.3, 18149.9, 0.0, 5.0176516, 4.9653134 
3.385208e+2, 1.8611144e+2, -1099778.3, -1178690.6, -11005.158, 0.0051541873, -0.0053326287, -1098272.1, 17830.99, 0.0, 5.017051, 4.965912 
3.3851004e+2, 1.9107783e+2, -1052383.1, -1130354.6, -11021.301, 0.004511353, -0.003303789, -1050855.1, 16578.492, 0.0, 5.016437, 4.9659157 
3.384993e+2, 1.9604422e+2, -1005906.25, -1083941.5, -11042.413, 0.003821498, -0.0010361895, -1004373.8, 14390.282, 0.0, 5.015809, 4.965269 
3.3848834e+2, 2.0100735e+2, -965540.0, -1050740.1, -11743.044, 0.0045862375, 0.0063348003, -963951.1, 6175.3877, 0.0, 5.01518, 4.96011 
3.384768e+2, 2.0596784e+2, -917071.5, -1000036.1, -11950.761, 0.006808705, 0.000499849, -915384.3, 6130.098, 0.0, 5.0145397, 4.9609027 
3.384652e+2, 2.1092844e+2, -869708.25, -951655.25, -11968.701, 0.008786543, -0.0057249772, -867995.94, 4905.4907, 0.0, 5.0138836, 4.9609084 
3.3845362e+2, 2.1588905e+2, -823032.94, -904734.0, -11988.596, 0.010690015, -0.011682962, -821310.06, 2978.182, 0.0, 5.013215, 4.9604144 
3.3844215e+2, 2.208473e+2, -782908.75, -872273.7, -11277.764, 0.010201193, -0.0026675987, -781507.5, -5808.442, 0.0, 5.0125604, 4.9549193 
3.3843055e+2, 2.2580464e+2, -734108.6, -820611.3, -10883.691, 0.001013557, 0.008115239, -732760.3, -5639.6094, 0.0, 5.011868, 4.9560075 
3.384188e+2, 2.307621e+2, -686816.0, -772105.1, -10616.937, -0.009130811, 0.017744208, -685514.25, -6972.9453, 0.0, 5.0111322, 4.9560466 
3.384071e+2, 2.3571958e+2, -640250.4, -725080.1, -10353.457, -0.019616798, 0.026849411, -639005.06, -9043.032, 0.0, 5.0103617, 4.9555836 
3.3839616e+2, 2.4067368e+2, -600943.9, -693519.4, -8648.271, -0.02841007, 0.04433694, -600142.9, -18727.553, 0.0, 5.009523, 4.9496894 
3.3838853e+2, 2.4562332e+2, -551147.8, -640357.06, -7545.75, -0.030109238, 0.027477734, -550514.06, -17602.662, 0.0, 5.0089664, 4.9511905 
3.383811e+2, 2.5057295e+2, -503153.28, -591856.44, -7584.81, -0.031306826, 0.007920332, -502509.4, -18101.703, 0.0, 5.008457, 4.9511156 
3.383735e+2, 2.5552288e+2, -455479.9, -543952.0, -7631.763, -0.032750353, -0.007420128, -454826.4, -18925.785, 0.0, 5.0079103, 4.9508424 
3.383664e+2, 2.6046962e+2, -417077.13, -513877.3, -8324.091, -0.029218357, -0.0033165037, -416366.53, -28940.676, 0.0, 5.0069003, 4.9440303 
3.383525e+2, 2.654257e+2, -369327.72, -446903.78, -8715.842, -0.09997966, 0.016396664, -368360.53, -29498.059, 0.0, 5.0027094, 4.9510655 
3.3833575e+2, 2.7038467e+2, -332916.06, -400031.94, -9407.097, -0.19667444, 0.021551566, -331622.47, -41350.707, 0.0, 4.997043, 4.9523225 
3.3831757e+2, 2.7534357e+2, -299380.4, -354851.2, -11064.04, -0.30289888, 0.0037035116, -297255.03, -55573.563, 0.0, 4.99022, 4.9535437 
3.3832273e+2, 2.8030398e+2, -304437.28, -424143.22, 3131.4656, -0.29035917, 0.20928785, -304355.4, -111281.9, 0.0, 4.989464, 4.9145846 
3.3833018e+2, 2.852379e+2, -213872.75, -311487.53, -22194.287, -0.18261094, 0.32164752, -209063.47, -64350.992, 0.0, 4.9984865, 4.932337 
3.3831823e+2, 2.9015845e+2, -151123.69, -252183.6, -21229.957, -0.14666596, 0.20036116, -146845.0, -50363.61, 0.0, 5.003027, 4.9331245 
3.383044e+2, 2.9507676e+2, -94242.88, -195775.06, -21043.006, -0.11680473, 0.04004775, -90054.41, -41782.402, 0.0, 5.005329, 4.9339204 
3.3829126e+2, 3.000067e+2, -33566.434, -81515.57, -16463.816, -0.06163651, -0.1610079, -28457.723, -28457.723, 0.0, 5.00488, 4.9658585 
3.382714e+2, 3.049767e+2, -43388.14, -69694.18, -10115.266, -0.03652861, -0.19084254, -39948.375, -39948.375, 0.0, 4.999766, 4.970641 
3.382436e+2, 3.099658e+2, -64679.086, -66872.17, -8469.191, -0.06983777, -0.08642154, -57235.742, -57235.742, 0.0, 4.9907446, 4.974865 
3.382108e+2, 3.149665e+2, -96209.02, -68985.93, -5547.1577, -0.13266914, 0.09095789, -67899.0, -67899.0, 0.0, 4.977789, 4.979099 
3.4361944e+2, 1.2143354e+2, -1689134.8, -1754618.3, -209.63354, -0.011546743, -0.03373129, -1689134.1, 60827.375, 0.0, 5.025269, 4.982568 
3.4361905e+2, 1.2642552e+2, -1642672.6, -1708745.5, -1843.3895, -0.00069374725, 0.06876342, -1642621.1, 58422.227, 0.0, 5.024844, 4.9817758 
3.436174e+2, 1.31404e+2, -1595244.5, -1660555.0, -2183.1416, -0.0000009538088, 0.034661092, -1595171.6, 57080.324, 0.0, 5.0243425, 4.9817753 
3.4361574e+2, 1.3638243e+2, -1549986.4, -1616843.5, -2516.2244, 0.0008163402, 0.0018406583, -1549891.9, 53568.805, 0.0, 5.0238404, 4.9802866 
3.436127e+2, 1.4135939e+2, -1509037.9, -1581928.4, -5534.2954, 0.0027313156, -0.0041433084, -1508620.0, 46064.242, 0.0, 5.023304, 4.9758234 
3.436071e+2, 1.4633599e+2, -1461336.9, -1532886.9, -6176.773, 0.004629068, -0.001728649, -1460807.5, 45105.0, 0.0, 5.022721, 4.9761157 
3.4360138e+2, 1.5131257e+2, -1414055.4, -1484718.6, -6374.954, 0.0063650897, 0.00031754072, -1413484.9, 43655.9, 0.0, 5.022136, 4.9761157 
3.435957e+2, 1.5628916e+2, -1368178.3, -1439494.3, -6570.92, 0.008125437, 0.002827309, -1367577.9, 40791.273, 0.0, 5.021552, 4.975128 
3.4358865e+2, 1.6126214e+2, -1327493.9, -1405053.1, -9084.769, 0.00911189, 0.008025256, -1326444.0, 33188.273, 0.0, 5.020939, 4.9705434 
3.4357902e+2, 1.6623262e+2, -1279769.1, -1355615.4, -9694.168, 0.007902324, 0.00080818293, -1278549.6, 32369.816, 0.0, 5.0202656, 4.970982 
3.435693e+2, 1.7120314e+2, -1232665.1, -1307482.5, -9802.256, 0.0065797525, -0.0065850616, -1231402.3, 30804.035, 0.0, 5.019589, 4.970982 
3.4355956e+2, 1.7617366e+2, -1186682.6, -1261739.4, -9910.192, 0.005266775, -0.013591196, -1185396.1, 28096.875, 0.0, 5.0189123, 4.9701757 
3.4354925e+2, 1.8114145e+2, -1146525.5, -1228214.0, -11147.267, 0.0042243665, -0.009329694, -1145031.6, 19775.75, 0.0, 5.018194, 4.9652567 
3.435378e+2, 1.861078e+2, -1098908.5, -1178407.1, -11462.608, 0.0033282763, -0.006280831, -1097288.8, 18849.291, 0.0, 5.0173755, 4.965858 
3.435263e+2, 1.9107422e+2, -1052127.4, -1130374.0, -11529.622, 0.0024603386, -0.0033671327, -1050463.9, 17004.285, 0.0, 5.0165515, 4.9658585 
3.435148e+2, 1.9604065e+2, -1006222.6, -1084241.5, -11595.486, 0.0016624042, -0.0001723269, -1004535.7, 14262.512, 0.0, 5.0157275, 4.9652085 
3.4350315e+2, 2.0100379e+2, -966345.56, -1051278.1, -12301.27, 0.0024910495, 0.008092596, -964599.75, 5560.8184, 0.0, 5.014933, 4.960042 
3.434909e+2, 2.059642e+2, -918176.8, -1000651.56, -12539.239, 0.004760576, 0.0017217462, -916312.56, 5237.2705, 0.0, 5.014173, 4.960861 
3.4347862e+2, 2.1092467e+2, -871114.9, -952420.8, -12598.256, 0.0068571153, -0.005387461, -869207.5, 3730.915, 0.0, 5.01341, 4.960864 
3.434663e+2, 2.1588513e+2, -824705.0, -905630.94, -12657.669, 0.008991233, -0.012369065, -822771.44, 1555.588, 0.0, 5.012647, 4.960367 
3.4345406e+2, 2.2084327e+2, -784680.3, -872619.56, -12022.925, 0.008621789, -0.0046597174, -783066.2, -7327.816, 0.0, 5.011835, 4.955132 
3.4344155e+2, 2.2580074e+2, -736538.7, -821054.0, -11640.77, -0.0015629508, 0.0039672726, -734964.7, -7807.706, 0.0, 5.0108604, 4.956319 
3.43429e+2, 2.3075828e+2, -689967.44, -772938.6, -11366.61, -0.012313808, 0.011201287, -688438.44, -9863.888, 0.0, 5.0098734, 4.9563403 
3.4341642e+2, 2.3571579e+2, -644026.56, -726255.8, -11085.699, -0.022826407, 0.017760323, -642558.25, -12565.745, 0.0, 5.008885, 4.9558597 
3.434047e+2, 2.4067007e+2, -605848.06, -696116.06, -9431.399, -0.030353334, 0.035427496, -604873.2, -23430.248, 0.0, 5.0077825, 4.949618 
3.4339637e+2, 2.4562022e+2, -557913.2, -644125.3, -8771.362, -0.029427242, 0.025140759, -557029.9, -24093.11, 0.0, 5.006591, 4.9510045 
3.4338826e+2, 2.5057027e+2, -511731.56, -596436.0, -9193.522, -0.02719858, 0.011439205, -510745.22, -26313.316, 0.0, 5.005412, 4.950934 
3.4338e+2, 2.5552055e+2, -465775.75, -549295.6, -9609.292, -0.024216652, 0.0011136916, -464684.44, -28760.008, 0.0, 5.004217, 4.950665 
3.4337217e+2, 2.604673e+2, -427281.84, -519443.56, -10472.491, -0.014685839, 0.0077201584, -426106.8, -38657.24, 0.0, 5.0031123, 4.9438844 
3.4335724e+2, 2.6542127e+2, -372829.22, -451472.53, -9061.528, -0.07087166, 0.008064025, -371798.63, -32904.625, 0.0, 5.0011473, 4.950511 
3.4333956e+2, 2.7037612e+2, -327241.63, -403939.7, -6129.0356, -0.14310335, -0.01563494, -326754.94, -36426.582, 0.0, 4.9989066, 4.9507165 
3.433206e+2, 2.7532923e+2, -281437.3, -356745.6, -2638.9963, -0.2151933, -0.068227366, -281344.94, -39564.527, 0.0, 4.996616, 4.950873 
3.433233e+2, 2.8028443e+2, -287392.4, -415470.66, 18754.375, -0.16482905, 0.1098345, -284702.72, -91489.35, 0.0, 4.9952936, 4.9141665 
3.433302e+2, 2.8522334e+2, -216632.77, -302540.34, -2886.59, -0.096997626, 0.2464291, -216535.88, -71722.41, 0.0, 4.9968834, 4.9341946 
3.4331992e+2, 2.901496e+2, -162752.31, -251013.53, -8389.136, -0.10462928, 0.15682073, -161962.02, -65423.15, 0.0, 4.9985266, 4.9339447 
3.4330806e+2, 2.950731e+2, -108726.28, -199703.95, -12941.096, -0.09994534, 0.03278507, -106921.29, -58629.97, 0.0, 4.9999747, 4.933696 
3.4329695e+2, 3.0000675e+2, -41910.723, -87163.805, -13135.965, -0.04940987, -0.13742925, -38374.047, -38374.047, 0.0, 5.001554, 4.964572 
3.4327906e+2, 3.0497256e+2, -30549.664, -67816.33, -11045.308, 0.015951313, -0.22063413, -27521.975, -27521.975, 0.0, 5.0033884, 4.9693036 
3.4325442e+2, 3.099523e+2, -21711.49, -53474.883, -13508.228, 0.06602527, -0.22613287, -16743.715, -16743.715, 0.0, 5.004881, 4.973061 
3.4322605e+2, 3.1493956e+2, -12540.66, -39477.313, -16316.764, 0.12687564, -0.20270857, -4851.6567, -4851.6567, 0.0, 5.006168, 4.976827 
3.486444e+2, 1.2143373e+2, -1688817.6, -1753945.1, -87.03835, -0.014693698, -0.027865367, -1688817.5, 61143.01, 0.0, 5.0252643, 4.982791 
3.486445e+2, 1.2642424e+2, -1643311.5, -1710047.8, -2227.6497, 0.0053075347, 0.06341162, -1643237.1, 57818.598, 0.0, 5.0248423, 4.98135 
3.4864205e+2, 1.3140255e+2, -1595877.4, -1661853.1, -2565.692, 0.0031513968, 0.03219144, -1595777.8, 56488.133, 0.0, 5.024341, 4.981349 
3.4863964e+2, 1.3638088e+2, -1550611.4, -1618133.3, -2896.0608, 0.001094503, 0.002244381, -1550487.4, 52988.984, 0.0, 5.0238395, 4.9798617 
3.4863582e+2, 1.4135763e+2, -1509463.4, -1582811.4, -5978.6064, 0.0010386258, -0.0019601472, -1508979.3, 45722.914, 0.0, 5.0233045, 4.9755325 
3.486296e+2, 1.463339e+2, -1461692.9, -1533630.8, -6621.179, 0.0027297928, -0.00013134838, -1461088.5, 44844.82, 0.0, 5.0227213, 4.975869 
3.4862334e+2, 1.5131018e+2, -1414408.3, -1485460.4, -6818.6724, 0.0042945673, 0.0012391736, -1413759.9, 43404.793, 0.0, 5.022137, 4.975869 
3.4861705e+2, 1.5628645e+2, -1368526.8, -1440231.5, -7013.4346, 0.0058731334, 0.0030706716, -1367847.3, 40548.703, 0.0, 5.021553, 4.9748826 
3.4860936e+2, 1.6125919e+2, -1327711.6, -1405528.0, -9590.022, 0.0067128437, 0.0077200215, -1326547.1, 33114.473, 0.0, 5.0209417, 4.9703846 
3.4859905e+2, 1.6622949e+2, -1279946.4, -1356009.5, -10210.199, 0.0057964353, 0.00030726515, -1278599.6, 32350.416, 0.0, 5.0202684, 4.97085 
3.485887e+2, 1.7119986e+2, -1232841.8, -1307875.8, -10317.372, 0.0047988133, -0.007258675, -1231448.9, 30789.137, 0.0, 5.019592, 4.97085 
3.4857833e+2, 1.7617023e+2, -1186858.4, -1262131.4, -10424.287, 0.0037937607, -0.0144345695, -1185441.5, 28084.533, 0.0, 5.018915, 4.9700437 
3.485673e+2, 1.8113789e+2, -1146626.6, -1228446.4, -11749.717, 0.0027584373, -0.010353621, -1144972.8, 19868.611, 0.0, 5.0181966, 4.9651785 
3.48555e+2, 1.861042e+2, -1099008.8, -1178632.1, -12085.465, 0.0014555881, -0.0071721883, -1097214.8, 18957.74, 0.0, 5.017377, 4.9657826 
3.4854263e+2, 1.9107056e+2, -1052230.3, -1130598.4, -12149.954, 0.00014826072, -0.0040561096, -1050389.9, 17113.236, 0.0, 5.016552, 4.9657836 
3.4853026e+2, 1.9603693e+2, -1006328.25, -1084465.4, -12213.209, -0.0011375365, -0.000636246, -1004463.75, 14369.827, 0.0, 5.0157266, 4.965134 
3.4851772e+2, 2.0100006e+2, -966448.56, -1051513.3, -12891.135, -0.00096413377, 0.008197723, -964537.9, 5658.2935, 0.0, 5.014935, 4.9599624 
3.485047e+2, 2.0596044e+2, -918253.8, -1000840.3, -13126.198, 0.0010518769, 0.002187093, -916217.75, 5368.19, 0.0, 5.0141764, 4.960797 
3.4849164e+2, 2.1092087e+2, -871194.1, -952613.44, -13181.724, 0.0029501894, -0.00467333, -869113.2, 3862.0347, 0.0, 5.013413, 4.9607987 
3.4847856e+2, 2.158813e+2, -824786.5, -905827.44, -13237.587, 0.0048399093, -0.011376168, -822679.06, 1685.4021, 0.0, 5.012649, 4.960301 
3.484655e+2, 2.2083938e+2, -784360.8, -871935.7, -12725.61, 0.004519744, -0.004843166, -782549.1, -6772.8647, 0.0, 5.011838, 4.9553676 
3.4845215e+2, 2.2579664e+2, -736086.3, -820038.94, -12358.239, -0.004638262, -0.0015330678, -734304.94, -7110.571, 0.0, 5.0108557, 4.9566736 
3.484387e+2, 2.3075402e+2, -689545.94, -771937.9, -12069.103, -0.0143932225, 0.00026140097, -687814.4, -9203.011, 0.0, 5.0098605, 4.9566956 
3.484253e+2, 2.3571135e+2, -643635.7, -725268.94, -11773.132, -0.02398638, 0.0015231741, -641971.7, -11943.059, 0.0, 5.0088644, 4.9562154 
3.4841272e+2, 2.4066582e+2, -606317.44, -696718.2, -10264.142, -0.03058606, 0.019518703, -605166.7, -23690.8, 0.0, 5.0077076, 4.9494514 
3.4840298e+2, 2.4561706e+2, -558591.75, -645107.44, -9689.957, -0.030760383, 0.022936959, -557519.75, -24558.133, 0.0, 5.006502, 4.9507074 
3.483934e+2, 2.505682e+2, -512350.63, -597358.2, -10085.957, -0.030353336, 0.02281492, -511170.34, -26721.307, 0.0, 5.005339, 4.950644 
3.4838372e+2, 2.5551957e+2, -466335.8, -550158.4, -10475.512, -0.029456535, 0.025574014, -465046.5, -29112.242, 0.0, 5.004161, 4.9503818 
3.4837434e+2, 2.6046687e+2, -426084.0, -515865.3, -11209.996, -0.023841409, 0.037053593, -424705.5, -37252.297, 0.0, 5.0029807, 4.9451833 
3.4835812e+2, 2.6541972e+2, -370866.34, -443362.72, -9286.721, -0.08583794, -0.00047616436, -369695.63, -30800.361, 0.0, 5.0006247, 4.9535074 
3.4833917e+2, 2.7037394e+2, -326360.44, -395291.56, -5817.9688, -0.16673537, -0.063222095, -325872.84, -35551.875, 0.0, 4.9979806, 4.954017 
3.4831882e+2, 2.7532715e+2, -281638.75, -347555.5, -1792.0052, -0.25092956, -0.14912795, -281590.06, -39833.695, 0.0, 4.9952874, 4.9544783 
3.4831744e+2, 2.8028336e+2, -284383.4, -416372.5, 14626.84, -0.21463351, 0.0150804585, -282781.9, -89612.96, 0.0, 4.9962726, 4.9137654 
3.4832466e+2, 2.8522286e+2, -209510.56, -308584.28, -3110.1074, -0.13016975, 0.177203, -209413.02, -64638.133, 0.0, 4.999577, 4.931848 
3.4831756e+2, 2.9015014e+2, -157139.25, -256153.66, -7901.6504, -0.11944961, 0.11737635, -156512.64, -60007.78, 0.0, 5.000681, 4.9320455 
3.4830877e+2, 2.9507545e+2, -104616.46, -203940.84, -11743.754, -0.10338551, 0.028095145, -103246.81, -54992.59, 0.0, 5.0015893, 4.932243 
3.4830007e+2, 3.0001122e+2, -38449.14, -88142.266, -11691.586, -0.05258135, -0.10702413, -35835.824, -35835.824, 0.0, 5.0026145, 4.964442 
3.4828463e+2, 3.0497763e+2, -26139.691, -65486.43, -9232.883, 0.008478564, -0.18658178, -24080.883, -24080.883, 0.0, 5.0042763, 4.970603 
3.4826243e+2, 3.099574e+2, -18155.318, -53653.57, -10493.321, 0.046473484, -0.18814471, -15285.49, -15285.49, 0.0, 5.0057607, 4.9736786 
3.48236e+2, 3.1494457e+2, -9835.038, -42157.184, -12101.631, 0.0820225, -0.15101649, -5806.268, -5806.268, 0.0, 5.007039, 4.9767623 
3.5366938e+2, 1.214339e+2, -1688426.1, -1753118.3, 48.471462, -0.018004082, -0.02206224, -1688426.0, 61533.62, 0.0, 5.025259, 4.9830647 
3.5366994e+2, 1.2642296e+2, -1643951.1, -1711349.5, -2611.3948, 0.011354112, 0.058110196, -1643850.1, 57217.992, 0.0, 5.024841, 4.9809237 
3.5366675e+2, 1.3140114e+2, -1596511.3, -1663150.8, -2947.727, 0.0063465987, 0.029753625, -1596381.1, 55898.883, 0.0, 5.02434, 4.9809227 
3.536635e+2, 1.363793e+2, -1551237.1, -1619422.5, -3275.3816, 0.0014130811, 0.0026614019, -1551080.1, 52411.9, 0.0, 5.023839, 4.9794374 
3.5365897e+2, 1.4135587e+2, -1509893.6, -1583703.5, -6422.221, -0.0006398737, 0.00024435078, -1509339.0, 45380.934, 0.0, 5.023305, 4.975238 
3.5365212e+2, 1.4633183e+2, -1462049.3, -1534374.6, -7065.3394, 0.0008365827, 0.0014847217, -1461365.5, 44588.7, 0.0, 5.0227222, 4.975623 
3.5364527e+2, 1.513078e+2, -1414761.5, -1486202.0, -7262.144, 0.0022288423, 0.0021700517, -1414030.8, 43157.74, 0.0, 5.0221386, 4.9756227 
3.5363838e+2, 1.5628375e+2, -1368875.8, -1440968.6, -7455.702, 0.0036243605, 0.0033137598, -1368112.8, 40310.1, 0.0, 5.0215545, 4.974637 
3.5363007e+2, 1.6125621e+2, -1327932.9, -1406010.5, -10094.213, 0.0043030535, 0.0074321865, -1326649.0, 33041.98, 0.0, 5.0209446, 4.9702234 
3.5361913e+2, 1.6622637e+2, -1280123.9, -1356403.6, -10726.347, 0.003676253, -0.00017950911, -1278644.3, 32336.506, 0.0, 5.020272, 4.9707174 
3.5360813e+2, 1.711966e+2, -1233018.5, -1308268.9, -10832.604, 0.003005262, -0.007931177, -1231490.1, 30779.746, 0.0, 5.019595, 4.970718 
3.535971e+2, 1.761668e+2, -1187034.4, -1262523.5, -10938.498, 0.0023098174, -0.015289855, -1185481.3, 28077.652, 0.0, 5.0189185, 4.9699116 
3.5358536e+2, 1.8113436e+2, -1146732.4, -1228687.5, -12353.006, 0.0012976576, -0.011359062, -1144910.9, 19964.424, 0.0, 5.0181994, 4.9650974 
3.5357216e+2, 1.8610059e+2, -1099109.8, -1178856.4, -12709.164, -0.00040698197, -0.008053034, -1097133.3, 19073.674, 0.0, 5.0173783, 4.965708 
3.5355896e+2, 1.910669e+2, -1052334.0, -1130822.1, -12771.131, -0.0021516471, -0.0047614686, -1050308.3, 17229.707, 0.0, 5.0165524, 4.9657087 
3.5354576e+2, 1.9603324e+2, -1006434.6, -1084688.5, -12831.776, -0.003923253, -0.001143426, -1004384.25, 14484.625, 0.0, 5.0157256, 4.9650598 
3.5353234e+2, 2.0099632e+2, -966569.06, -1051785.3, -13474.604, -0.004472845, 0.008410216, -964489.2, 5742.478, 0.0, 5.0149374, 4.95987 
3.5351852e+2, 2.0595668e+2, -918331.4, -1001028.8, -13712.358, -0.0027176328, 0.002776743, -916117.0, 5505.0146, 0.0, 5.0141797, 4.960732 
3.5350466e+2, 2.1091709e+2, -871273.94, -952805.7, -13764.394, -0.000989282, -0.0039015687, -869012.94, 3999.0483, 0.0, 5.013416, 4.9607325 
3.534908e+2, 2.1587747e+2, -824868.6, -906023.56, -13816.707, 0.00068428594, -0.01039227, -822580.8, 1821.0552, 0.0, 5.0126514, 4.9602337 
3.5347697e+2, 2.2083548e+2, -784067.0, -871305.6, -13423.232, 0.00039524338, -0.004959643, -782048.3, -6234.1885, 0.0, 5.0118403, 4.955583 
3.5346273e+2, 2.2579256e+2, -735636.8, -819022.25, -13076.936, -0.0076693767, -0.007194644, -733634.1, -6402.2866, 0.0, 5.010851, 4.957025 
3.5344845e+2, 2.3074973e+2, -689127.2, -770935.4, -12772.831, -0.01632702, -0.01118828, -687179.4, -8531.004, 0.0, 5.009848, 4.9570475 
3.5343415e+2, 2.3570688e+2, -643247.5, -724280.4, -12461.808, -0.024899373, -0.015572134, -641374.4, -11309.4, 0.0, 5.008844, 4.9565673 
3.5342056e+2, 2.4066165e+2, -606970.0, -697688.06, -11191.632, -0.03064193, 0.0046332064, -605609.75, -24101.73, 0.0, 5.0076337, 4.9491515 
3.5340953e+2, 2.4561407e+2, -559295.1, -646065.94, -10630.63, -0.03188656, 0.022669323, -558011.7, -25026.654, 0.0, 5.0064135, 4.9504075 
3.5339856e+2, 2.5056627e+2, -512994.5, -598256.7, -11000.449, -0.033179287, 0.035742857, -511598.1, -27133.146, 0.0, 5.005267, 4.9503508 
3.5338748e+2, 2.5551867e+2, -466920.63, -550997.4, -11363.769, -0.034245953, 0.051202714, -465411.78, -29468.73, 0.0, 5.0041046, 4.950095 
3.5337666e+2, 2.6046607e+2, -425439.88, -513361.8, -12207.193, -0.030853702, 0.06446146, -423776.5, -36315.344, 0.0, 5.0028505, 4.9460363 
3.5335863e+2, 2.6541716e+2, -368996.06, -435194.06, -9990.528, -0.0997769, -0.021611132, -367521.16, -28614.725, 0.0, 5.0001035, 4.9563527 
3.5333765e+2, 2.7037036e+2, -325569.88, -386583.53, -5987.184, -0.19155495, -0.13423538, -324987.9, -34661.016, 0.0, 4.9970565, 4.9571667 
3.5331514e+2, 2.753234e+2, -281929.1, -338304.25, -1427.0767, -0.29006803, -0.2642764, -281892.97, -40143.92, 0.0, 4.9939604, 4.9579325 
3.533127e+2, 2.8028238e+2, -287644.2, -431598.84, 14410.0, -0.26247114, -0.073692635, -286215.9, -93092.24, 0.0, 4.997257, 4.908375 
3.5332227e+2, 2.8522396e+2, -202697.7, -314331.7, -4104.6343, -0.15823314, 0.14540674, -202546.98, -57825.91, 0.0, 5.002273, 4.929385 
3.5331753e+2, 2.9015198e+2, -151832.89, -260997.13, -8182.628, -0.13196851, 0.10564424, -151222.95, -54764.53, 0.0, 5.002837, 4.930029 
3.5331088e+2, 2.9507878e+2, -100810.98, -207880.75, -11312.283, -0.107331835, 0.041398887, -99628.85, -51421.34, 0.0, 5.003206, 4.930673 
3.5330436e+2, 3.0001485e+2, -35682.664, -89724.13, -10258.635, -0.05335168, -0.08036162, -33800.81, -33800.81, 0.0, 5.0036755, 4.963927 
3.5329264e+2, 3.049799e+2, -22063.805, -62844.668, -6549.2397, 0.021918448, -0.18572663, -21037.834, -21037.834, 0.0, 5.0051622, 4.971685 
3.5327417e+2, 3.0995888e+2, -14933.03, -53525.145, -6605.4355, 0.06665081, -0.20646693, -13833.755, -13833.755, 0.0, 5.006639, 4.9740767 
3.5325098e+2, 3.14945e+2, -7463.86, -44536.547, -7010.189, 0.09567708, -0.1787274, -6182.5654, -6182.5654, 0.0, 5.007909, 4.976476 
3.5869434e+2, 1.21434085e+2, -1687495.1, -1751945.8, 327.76385, -0.021211281, -0.01624449, -1687493.4, 62465.305, 0.0, 5.0254164, 4.9833727 
3.5869542e+2, 1.2642168e+2, -1644123.5, -1712421.3, -2853.9268, 0.017234925, 0.052773178, -1644004.5, 57075.87, 0.0, 5.0249944, 4.980498 
3.586914e+2, 1.3139972e+2, -1596608.4, -1664184.1, -3185.6348, 0.009474947, 0.027293429, -1596458.5, 55835.277, 0.0, 5.024518, 4.980497 
3.586874e+2, 1.3637775e+2, -1551269.1, -1620419.3, -3506.437, 0.001764596, 0.0030758677, -1551091.9, 52415.73, 0.0, 5.024037, 4.9790134 
3.5868213e+2, 1.4135413e+2, -1509721.5, -1584306.0, -6713.7065, -0.002249888, 0.0024779905, -1509122.0, 45615.574, 0.0, 5.023508, 4.9749413 
3.5867468e+2, 1.4632978e+2, -1461876.0, -1534859.0, -7354.8447, -0.0010154138, 0.0031071675, -1461142.3, 44832.613, 0.0, 5.0229006, 4.975377 
3.586672e+2, 1.5130542e+2, -1414668.3, -1486725.8, -7546.9995, 0.00018678642, 0.0030709812, -1413886.3, 43325.88, 0.0, 5.0222898, 4.9753766 
3.5865968e+2, 1.5628105e+2, -1368863.3, -1441529.9, -7734.9194, 0.0013868128, 0.0034852214, -1368049.0, 40400.56, 0.0, 5.0216775, 4.9743915 
3.5865077e+2, 1.6125324e+2, -1327885.6, -1406372.3, -10435.934, 0.0018927226, 0.007076547, -1326521.8, 33198.47, 0.0, 5.0210404, 4.9700584 
3.5863918e+2, 1.6622327e+2, -1280115.6, -1356714.3, -11106.996, 0.0015729637, -0.0006764858, -1278537.6, 32473.56, 0.0, 5.0203395, 4.9705825 
3.5862753e+2, 1.7119335e+2, -1233101.1, -1308622.1, -11238.737, 0.0012640139, -0.008562942, -1231464.1, 30837.342, 0.0, 5.0196314, 4.970583 
3.5861588e+2, 1.761634e+2, -1187215.8, -1262922.5, -11368.578, 0.0009264979, -0.016055781, -1185545.5, 28046.291, 0.0, 5.018921, 4.969777 
3.5860342e+2, 1.8113083e+2, -1146932.4, -1228989.4, -12894.382, -0.000011229566, -0.012210078, -1144953.9, 19955.2, 0.0, 5.018173, 4.965009 
3.5858938e+2, 1.86097e+2, -1099338.9, -1179152.1, -13291.757, -0.002132678, -0.0088040335, -1097183.5, 19057.79, 0.0, 5.017338, 4.9656277 
3.5857528e+2, 1.9106326e+2, -1052615.8, -1131141.0, -13370.415, -0.00431439, -0.0054070605, -1050401.6, 17171.273, 0.0, 5.0164933, 4.965629 
3.585612e+2, 1.9602951e+2, -1006784.0, -1085037.4, -13445.973, -0.006549306, -0.0016876747, -1004538.06, 14366.235, 0.0, 5.0156436, 4.9649806 
3.5854694e+2, 2.0099258e+2, -967018.0, -1052226.1, -14037.983, -0.007859952, 0.008632179, -964764.9, 5502.4365, 0.0, 5.0148287, 4.9597716 
3.5853234e+2, 2.0595293e+2, -918773.7, -1001369.0, -14247.735, -0.006380489, 0.0033692787, -916385.0, 5273.079, 0.0, 5.0140524, 4.9606752 
3.585177e+2, 2.1091329e+2, -871782.06, -953176.0, -14257.354, -0.0047810334, -0.0032236725, -869356.94, 3691.7373, 0.0, 5.0132656, 4.9606757 
3.5850307e+2, 2.1587366e+2, -825459.8, -906431.25, -14260.558, -0.0032573566, -0.009623981, -823021.6, 1417.5616, 0.0, 5.0124726, 4.9601765 
3.584884e+2, 2.2083157e+2, -784403.06, -871017.7, -13961.077, -0.0034902634, -0.0052239792, -782208.4, -6356.391, 0.0, 5.0116367, 4.9557743 
3.5847333e+2, 2.2578847e+2, -735817.94, -818349.25, -13773.765, -0.010369862, -0.012891646, -733579.94, -6310.629, 0.0, 5.010638, 4.9573507 
3.5845816e+2, 2.3074543e+2, -689379.5, -770311.8, -13626.583, -0.017783325, -0.022685366, -687146.8, -8461.383, 0.0, 5.009614, 4.9573674 
3.58443e+2, 2.357024e+2, -643612.25, -723721.4, -13500.908, -0.025168732, -0.03277495, -641398.1, -11296.49, 0.0, 5.0085745, 4.956882 
3.584284e+2, 2.4065754e+2, -608394.75, -699349.0, -12677.284, -0.030083803, -0.008587235, -606660.8, -25121.143, 0.0, 5.007348, 4.9487123 
3.58416e+2, 2.456111e+2, -560217.1, -647144.4, -12035.332, -0.032345895, 0.024388961, -558581.6, -25573.637, 0.0, 5.006249, 4.9501038 
3.5840374e+2, 2.505643e+2, -513427.03, -599061.75, -12351.533, -0.035072174, 0.049688373, -511681.1, -27200.066, 0.0, 5.005276, 4.95006 
3.5839134e+2, 2.5551766e+2, -466763.88, -551484.06, -12641.51, -0.037722852, 0.07683305, -464917.8, -28965.117, 0.0, 5.0043273, 4.949817 
3.5837936e+2, 2.6046458e+2, -424506.38, -512230.78, -14236.699, -0.034025665, 0.089010455, -422253.75, -34778.098, 0.0, 5.003151, 4.946198 
3.5835925e+2, 2.6541296e+2, -369106.47, -429866.7, -15759.484, -0.106074676, -0.053251054, -365262.13, -26328.404, 0.0, 4.9992394, 4.9583073 
3.5833597e+2, 2.7036387e+2, -331915.75, -383765.2, -17003.898, -0.20337446, -0.22536816, -326836.84, -36474.98, 0.0, 4.9940653, 4.9591546 
3.5831112e+2, 2.7531487e+2, -296965.84, -338933.0, -19354.244, -0.30872807, -0.4112441, -289403.03, -47614.43, 0.0, 4.9879766, 4.959972 
3.583108e+2, 2.8027692e+2, -321206.75, -470217.75, -5022.0005, -0.2774413, -0.15948382, -321037.7, -127914.7, 0.0, 4.98989, 4.898311 
3.583242e+2, 2.8522316e+2, -213406.03, -323214.88, -21549.582, -0.16144781, 0.14741908, -209328.42, -64641.832, 0.0, 4.998705, 4.927794 
3.5832042e+2, 2.9015294e+2, -155386.4, -266366.56, -19217.46, -0.13252278, 0.1198763, -152152.89, -55731.805, 0.0, 5.0017962, 4.928577 
3.583147e+2, 2.9508194e+2, -100203.125, -210991.72, -17384.31, -0.108689666, 0.072307184, -97539.33, -49376.46, 0.0, 5.003667, 4.9293704 
3.583098e+2, 3.0001718e+2, -33717.14, -91922.37, -12251.731, -0.0519642, -0.056065336, -31243.387, -31243.387, 0.0, 5.0046988, 4.9628553 
3.583032e+2, 3.049788e+2, -18662.973, -60776.63, -6710.1924, 0.05736871, -0.21822564, -17619.648, -17619.648, 0.0, 5.0059943, 4.9720683 
3.5829026e+2, 3.0995512e+2, -17004.545, -55673.86, -4836.152, 0.13527994, -0.29319254, -16408.89, -16408.89, 0.0, 5.005792, 4.9737735 
3.5827246e+2, 3.1493762e+2, -19455.33, -52689.254, -2194.2576, 0.19002198, -0.3195961, -19311.08, -19311.08, 0.0, 5.0037827, 4.9754887 
3.6372125e+2, 1.21435136e+2, -1681004.9, -1748886.4, 501.89456, -0.018087814, -0.00833018, -1681001.3, 68947.555, 0.0, 5.027606, 4.983306 
3.6372158e+2, 1.2642086e+2, -1638464.0, -1710545.0, -2586.7822, 0.017968327, 0.045653794, -1638371.3, 62716.734, 0.0, 5.0270762, 4.9801 
3.6371708e+2, 1.3139886e+2, -1591015.9, -1662347.3, -2896.5222, 0.009906894, 0.023678416, -1590898.4, 61403.77, 0.0, 5.026582, 4.9800997 
3.6371258e+2, 1.3637684e+2, -1545726.6, -1618608.6, -3194.706, 0.0018783208, 0.002985717, -1545586.8, 57929.73, 0.0, 5.0260873, 4.9786186 
3.637067e+2, 1.4135307e+2, -1504175.1, -1582237.1, -6517.2617, -0.0026178993, 0.0045407615, -1503634.8, 51113.246, 0.0, 5.025507, 4.9746594 
3.6369848e+2, 1.463284e+2, -1456760.1, -1532913.5, -7190.877, -0.002082243, 0.0042758402, -1456087.1, 49901.17, 0.0, 5.0247393, 4.9751368 
3.6369023e+2, 1.513037e+2, -1410054.3, -1485033.0, -7386.393, -0.0015615459, 0.0032147225, -1409333.5, 47895.2, 0.0, 5.023963, 4.9751363 
3.6368194e+2, 1.56279e+2, -1364743.1, -1440081.5, -7576.4194, -0.0010333267, 0.0025875557, -1363988.8, 44480.53, 0.0, 5.0231867, 4.9741526 
3.6367223e+2, 1.612509e+2, -1324277.5, -1405193.3, -10369.062, -0.0008263689, 0.00567869, -1322969.9, 36772.844, 0.0, 5.022382, 4.9698133 
3.6365995e+2, 1.6622077e+2, -1277054.3, -1355842.5, -11177.668, -0.00044356156, -0.0009252214, -1275499.1, 35536.367, 0.0, 5.0215063, 4.970321 
3.6364755e+2, 1.711907e+2, -1230550.3, -1307998.0, -11443.3545, 0.000039688442, -0.0075554415, -1228894.8, 33432.875, 0.0, 5.020626, 4.9703226 
3.6363518e+2, 1.7616063e+2, -1185162.9, -1262538.8, -11708.793, 0.0005320545, -0.013790457, -1183429.9, 30189.781, 0.0, 5.0197463, 4.969518 
3.6362192e+2, 1.8112785e+2, -1145196.5, -1228472.3, -13416.546, 0.00021656715, -0.009763472, -1143088.3, 21850.742, 0.0, 5.018829, 4.964877 
3.6360693e+2, 1.8609372e+2, -1098108.0, -1178805.8, -13840.535, -0.0019928727, -0.008289678, -1095800.1, 20473.402, 0.0, 5.017805, 4.965528 
3.635919e+2, 1.9105968e+2, -1051922.9, -1131050.6, -13918.253, -0.004266086, -0.0069187405, -1049546.0, 18061.365, 0.0, 5.0167747, 4.965531 
3.6357686e+2, 1.9602564e+2, -1006609.44, -1085193.5, -13993.078, -0.006546166, -0.00529316, -1004192.1, 14749.097, 0.0, 5.015744, 4.9648833 
3.635617e+2, 2.0098855e+2, -967221.94, -1052267.4, -14495.289, -0.008230096, 0.0036817184, -964819.25, 5486.0654, 0.0, 5.0147367, 4.959806 
3.6354607e+2, 2.0594908e+2, -919509.7, -1001659.1, -14644.6875, -0.0076429723, 0.00027949133, -916977.06, 4717.059, 0.0, 5.0137787, 4.9607086 
3.635305e+2, 2.1090968e+2, -873000.75, -953672.6, -14624.976, -0.006846587, -0.004187343, -870431.25, 2651.2332, 0.0, 5.012822, 4.9607143 
3.635149e+2, 2.1587029e+2, -827139.9, -907125.0, -14604.966, -0.006049513, -0.008502594, -824556.5, -85.695305, 0.0, 5.0118656, 4.96022 
3.6349928e+2, 2.2082828e+2, -786394.7, -871721.0, -14403.677, -0.0065426663, -0.0041682487, -784028.8, -8146.161, 0.0, 5.0108967, 4.9558744 
3.634834e+2, 2.2578488e+2, -738044.1, -819422.7, -14498.866, -0.011350169, -0.014594178, -735538.06, -8236.026, 0.0, 5.009859, 4.9573455 
3.6346745e+2, 2.3074155e+2, -691658.5, -771472.0, -14614.249, -0.01643444, -0.026914304, -689066.75, -10346.319, 0.0, 5.008815, 4.957342 
3.6345154e+2, 2.3569816e+2, -645902.75, -724952.06, -14716.244, -0.021506589, -0.039601166, -643252.0, -13112.84, 0.0, 5.0077686, 4.9568357 
3.6343598e+2, 2.406531e+2, -610129.3, -700479.1, -13854.501, -0.025409695, -0.016900966, -608052.56, -26473.873, 0.0, 5.0067053, 4.94865 
3.6342236e+2, 2.4560703e+2, -562034.2, -648390.44, -12910.384, -0.02887198, 0.020558845, -560145.4, -27102.371, 0.0, 5.005568, 4.950032 
3.6340895e+2, 2.505607e+2, -515774.3, -600474.0, -12965.205, -0.0323467, 0.05073124, -513834.16, -29322.414, 0.0, 5.004404, 4.9500136 
3.633955e+2, 2.5551447e+2, -469743.4, -553105.75, -13025.453, -0.035360456, 0.08234697, -467755.56, -31776.367, 0.0, 5.0032253, 4.949796 
3.633828e+2, 2.6046142e+2, -427522.66, -515852.3, -14084.271, -0.029046766, 0.096343756, -425331.28, -37830.44, 0.0, 5.0023127, 4.94547 
3.63364e+2, 2.6540652e+2, -367527.72, -437448.78, -16615.254, -0.06969158, -0.053620014, -363780.3, -24792.59, 0.0, 5.0006766, 4.955507 
3.6334252e+2, 2.7035177e+2, -321782.22, -391155.78, -17469.174, -0.12453215, -0.24134126, -317631.56, -27164.9, 0.0, 4.9986877, 4.955286 
3.6331975e+2, 2.7529532e+2, -275840.03, -345177.9, -17696.455, -0.1804125, -0.4503112, -271584.7, -29621.836, 0.0, 4.9966245, 4.9550147 
3.6331898e+2, 2.8024998e+2, -299241.56, -457086.75, 9060.607, -0.13772857, -0.23307261, -298723.2, -105357.54, 0.0, 4.9968286, 4.899295 
3.6332947e+2, 2.8520173e+2, -209883.75, -307989.38, -5704.296, -0.07872569, 0.08750973, -209553.19, -64677.63, 0.0, 4.998506, 4.9316607 
3.6332446e+2, 2.901383e+2, -160118.98, -258168.53, -8904.024, -0.08517771, 0.08745202, -159316.95, -62772.78, 0.0, 4.9988513, 4.9315047 
3.63318e+2, 2.9507315e+2, -110202.59, -208522.55, -11312.7705, -0.08772594, 0.06558442, -108917.73, -60688.195, 0.0, 4.9990087, 4.931346 
3.6331302e+2, 3.0001312e+2, -45616.758, -97728.555, -9214.349, -0.052226353, -0.037663985, -44035.47, -44035.47, 0.0, 5.0000005, 4.9622784 
3.633106e+2, 3.0497333e+2, -23262.35, -68956.75, -9341.861, 0.061655514, -0.21451107, -21426.256, -21426.256, 0.0, 5.004407, 4.9693046 
3.6330372e+2, 3.0994397e+2, -8347.702, -58229.156, -13313.013, 0.16710423, -0.34942952, -5016.9565, -5016.9565, 0.0, 5.008862, 4.970867 
3.6329293e+2, 3.149177e+2, 6678.486, -47648.16, -17019.967, 0.2655189, -0.47378466, 11570.2, 11570.2, 0.0, 5.0130987, 4.972435 
3.6874947e+2, 1.2143659e+2, -1681342.4, -1749550.1, -232.04593, -0.01207803, 0.000274734, -1681341.5, 68593.13, 0.0, 5.027602, 4.9830894 
3.6874855e+2, 1.2642029e+2, -1639043.5, -1711727.6, -2965.6123, 0.016454509, 0.037824504, -1638922.6, 62170.504, 0.0, 5.0270753, 4.979712 
3.687436e+2, 1.3139829e+2, -1591590.1, -1663526.9, -3273.6606, 0.009155774, 0.019599129, -1591441.5, 60866.105, 0.0, 5.026582, 4.979711 
3.6873865e+2, 1.3637625e+2, -1546293.3, -1619780.0, -3569.1296, 0.001860916, 0.002653603, -1546120.4, 57401.8, 0.0, 5.0260873, 4.9782314 
3.687322e+2, 1.4135237e+2, -1504581.4, -1583089.0, -7063.2075, -0.0024823756, 0.0064564873, -1503951.0, 50803.77, 0.0, 5.025509, 4.974378 
3.6872315e+2, 1.4632735e+2, -1457107.9, -1533648.0, -7781.0435, -0.0028382186, 0.0052119605, -1456324.9, 49673.28, 0.0, 5.024741, 4.974893 
3.6871403e+2, 1.513023e+2, -1410400.0, -1485764.6, -7976.003, -0.0032317052, 0.0030526698, -1409565.1, 47676.637, 0.0, 5.023965, 4.974893 
3.687049e+2, 1.5627724e+2, -1365085.4, -1440807.3, -8164.792, -0.0036253417, 0.0013273816, -1364215.0, 44270.45, 0.0, 5.0231886, 4.973911 
3.6869434e+2, 1.6124886e+2, -1324689.6, -1406076.8, -11029.115, -0.0038031584, 0.0040512765, -1323221.5, 36540.203, 0.0, 5.0223846, 4.969519 
3.6868125e+2, 1.6621855e+2, -1277514.5, -1356834.1, -11849.683, -0.0025628475, -0.00087394856, -1275782.0, 35274.79, 0.0, 5.0215096, 4.9699907 
3.6866805e+2, 1.7118832e+2, -1231007.0, -1308987.3, -12113.979, -0.0011844893, -0.0057029948, -1229168.4, 33182.793, 0.0, 5.02063, 4.9699917 
3.686549e+2, 1.761581e+2, -1185616.1, -1263525.4, -12377.862, 0.0001908012, -0.010135097, -1183696.9, 29948.662, 0.0, 5.01975, 4.9691873 
3.686408e+2, 1.8112509e+2, -1145387.4, -1228911.3, -14172.563, 0.0006430982, -0.005888695, -1143048.1, 21919.479, 0.0, 5.018834, 4.964729 
3.686248e+2, 1.8609054e+2, -1098218.8, -1179068.0, -14619.589, -0.0013672872, -0.007581029, -1095656.3, 20648.98, 0.0, 5.0178094, 4.965439 
3.6860877e+2, 1.9105609e+2, -1052035.6, -1131307.8, -14693.086, -0.0035269447, -0.009454098, -1049400.0, 18242.334, 0.0, 5.0167775, 4.9654436 
3.685927e+2, 1.9602163e+2, -1006724.44, -1085445.8, -14763.585, -0.005722202, -0.011057317, -1004046.75, 14932.456, 0.0, 5.0157456, 4.9647975 
3.6857647e+2, 2.0098436e+2, -967129.2, -1052083.4, -15246.77, -0.0076302513, -0.0039560776, -964475.7, 5868.8047, 0.0, 5.0147395, 4.9598694 
3.685598e+2, 2.0594524e+2, -919440.6, -1001532.75, -15378.485, -0.00829611, -0.0043315724, -916654.3, 5075.578, 0.0, 5.013782, 4.9607544 
3.6854312e+2, 2.1090621e+2, -872933.25, -953547.9, -15352.479, -0.0088688275, -0.0053005586, -870108.5, 3006.0198, 0.0, 5.0128255, 4.9607596 
3.6852643e+2, 2.1586719e+2, -827073.9, -907001.8, -15326.1, -0.009471052, -0.00606602, -824235.9, 263.10324, 0.0, 5.0118685, 4.9602656 
3.6850977e+2, 2.2082531e+2, -786347.94, -871643.6, -15174.649, -0.01058078, -0.0010291887, -783728.7, -7819.1377, 0.0, 5.0108995, 4.955906 
3.6849314e+2, 2.2578152e+2, -738176.8, -819698.75, -15247.714, -0.012967943, -0.014384534, -735418.25, -8085.2485, 0.0, 5.0098567, 4.9572616 
3.6847645e+2, 2.3073778e+2, -691799.7, -771717.4, -15346.667, -0.015493659, -0.029210072, -688954.0, -10198.719, 0.0, 5.0088067, 4.957268 
3.6845976e+2, 2.3569402e+2, -646052.56, -725166.9, -15432.144, -0.018151099, -0.04441871, -643148.9, -12971.067, 0.0, 5.0077543, 4.956773 
3.6844334e+2, 2.4064855e+2, -609966.56, -699781.94, -14617.775, -0.020995986, -0.02621634, -607647.4, -26026.623, 0.0, 5.006657, 4.9489098 
3.684284e+2, 2.456028e+2, -562080.06, -648108.2, -13835.744, -0.025888316, 0.012577148, -559909.6, -26828.842, 0.0, 5.005509, 4.9501576 
3.6841363e+2, 2.505569e+2, -515802.63, -600192.44, -13872.933, -0.030802364, 0.046507657, -513580.56, -29037.137, 0.0, 5.004351, 4.950135 
3.683988e+2, 2.5551113e+2, -469754.22, -552824.94, -13915.509, -0.035334643, 0.08205558, -467485.16, -31480.482, 0.0, 5.0031786, 4.9499145 
3.6838502e+2, 2.6045874e+2, -427754.5, -515399.06, -14360.28, -0.029639529, 0.098375686, -425461.6, -37942.51, 0.0, 5.002155, 4.945747 
3.6836752e+2, 2.6540267e+2, -370501.16, -440133.0, -16133.156, -0.051965103, -0.04850454, -366944.84, -27926.398, 0.0, 5.000095, 4.954896 
3.683475e+2, 2.7034715e+2, -325675.5, -392782.03, -16435.799, -0.08948297, -0.2287849, -321866.25, -31359.258, 0.0, 4.9976883, 4.955113 
3.68326e+2, 2.752907e+2, -280654.28, -345746.44, -16109.56, -0.13308477, -0.42629215, -276885.56, -34881.367, 0.0, 4.995207, 4.9552794 
3.6832267e+2, 2.8024322e+2, -291063.1, -441366.53, 8631.11, -0.11836669, -0.25611877, -290569.06, -97140.89, 0.0, 4.9972177, 4.904802 
3.6833066e+2, 2.8519273e+2, -204091.83, -308917.78, -6098.92, -0.075133, 0.02757107, -203738.19, -58783.797, 0.0, 5.000335, 4.9314613 
3.6832592e+2, 2.9012975e+2, -155254.05, -257943.45, -8659.88, -0.07213731, 0.042845305, -154528.88, -57916.82, 0.0, 5.0003033, 4.931741 
3.683196e+2, 2.9506558e+2, -106264.516, -207146.2, -10431.683, -0.071662016, 0.037363697, -105197.12, -56915.24, 0.0, 5.000084, 4.9320173 
3.6831462e+2, 3.000087e+2, -43818.316, -96599.414, -6492.0703, -0.047744658, -0.032739066, -43031.52, -43031.52, 0.0, 5.0005407, 4.9628863 
3.6831483e+2, 3.0496866e+2, -26784.063, -75952.984, -4995.2085, 0.041754868, -0.1815344, -26281.717, -26281.717, 0.0, 5.00435, 4.967292 
3.6831096e+2, 3.0993718e+2, -13547.207, -66400.92, -8117.7983, 0.11348475, -0.29061916, -12328.496, -12328.496, 0.0, 5.008352, 4.9686913 
3.6830267e+2, 3.1490958e+2, -189.08357, -56991.027, -10978.786, 0.163399, -0.37615806, 1859.0652, 1859.0652, 0.0, 5.012135, 4.970095 
3.7377772e+2, 1.2143801e+2, -1681618.4, -1750087.3, -955.17816, -0.005808551, 0.008619608, -1681605.0, 68315.88, 0.0, 5.027598, 4.9829144 
3.7377545e+2, 1.2641974e+2, -1639623.8, -1712909.9, -3343.8782, 0.014944672, 0.030033646, -1639471.5, 61626.77, 0.0, 5.027075, 4.979324 
3.7377012e+2, 1.3139772e+2, -1592165.3, -1664705.9, -3650.2349, 0.008406832, 0.015540425, -1591982.0, 60330.875, 0.0, 5.0265813, 4.9793224 
3.7376475e+2, 1.3637567e+2, -1546860.9, -1620951.0, -3942.9932, 0.0018438909, 0.0023242396, -1546651.6, 56876.14, 0.0, 5.0260878, 4.9778447 
3.7375772e+2, 1.4135166e+2, -1504991.8, -1583948.6, -7608.883, -0.0023471913, 0.008378389, -1504265.3, 50496.3, 0.0, 5.0255103, 4.974094 
3.737478e+2, 1.4632629e+2, -1457455.8, -1534382.4, -8371.496, -0.0035966954, 0.0061478536, -1456555.3, 49452.73, 0.0, 5.024743, 4.9746494 
3.737378e+2, 1.5130089e+2, -1410745.9, -1486496.3, -8565.899, -0.0049073775, 0.0028782426, -1409789.4, 47465.44, 0.0, 5.023967, 4.9746494 
3.7372783e+2, 1.5627547e+2, -1365427.9, -1441533.0, -8753.45, -0.006225879, 0.000042693642, -1364434.0, 44067.645, 0.0, 5.02319, 4.9736686 
3.7371644e+2, 1.612468e+2, -1325108.6, -1406974.5, -11688.418, -0.006785311, 0.0024735124, -1323472.5, 36308.215, 0.0, 5.0223875, 4.9692206 
3.7370256e+2, 1.6621634e+2, -1277974.9, -1357826.1, -12521.452, -0.004684859, -0.00077128806, -1276057.5, 35020.69, 0.0, 5.021513, 4.9696593 
3.7368858e+2, 1.7118596e+2, -1231463.9, -1309976.8, -12784.357, -0.002409673, -0.0038288499, -1229434.6, 32940.13, 0.0, 5.0206337, 4.9696608 
3.7367463e+2, 1.7615558e+2, -1186069.6, -1264512.1, -13046.684, -0.00014973785, -0.0064877095, -1183956.5, 29714.836, 0.0, 5.019754, 4.968856 
3.7365967e+2, 1.8112233e+2, -1145590.6, -1229376.0, -14928.582, 0.0010735535, -0.0019424666, -1143010.3, 21985.8, 0.0, 5.0188394, 4.9645715 
3.7364268e+2, 1.8608737e+2, -1098330.0, -1179330.1, -15401.384, -0.0007619751, -0.0068478277, -1095500.4, 20836.598, 0.0, 5.017814, 4.9653487 
3.736256e+2, 1.9105251e+2, -1052149.0, -1131564.9, -15470.661, -0.002833558, -0.012066157, -1049241.8, 18435.422, 0.0, 5.016781, 4.965355 
3.7360856e+2, 1.9601764e+2, -1006840.0, -1085697.9, -15536.833, -0.004969453, -0.016999356, -1003889.25, 15127.917, 0.0, 5.0157475, 4.9647107 
3.7359127e+2, 2.0098017e+2, -967082.56, -1051998.5, -15995.604, -0.0070437607, -0.011334307, -964169.44, 6214.0986, 0.0, 5.0147424, 4.959899 
3.7357354e+2, 2.0594141e+2, -919372.1, -1001406.44, -16111.607, -0.008962104, -0.008612765, -916321.25, 5444.1343, 0.0, 5.013786, 4.9607987 
3.7355575e+2, 2.1090275e+2, -872866.3, -953423.1, -16079.307, -0.010933192, -0.006261395, -869775.44, 3370.8684, 0.0, 5.012829, 4.960804 
3.7353796e+2, 2.158641e+2, -827008.44, -906878.6, -16046.56, -0.012963962, -0.0036544243, -823905.1, 621.9177, 0.0, 5.0118713, 4.9603095 
3.7352026e+2, 2.2082236e+2, -786377.2, -871727.3, -15953.015, -0.014498063, 0.0022450315, -783492.8, -7556.3735, 0.0, 5.0109024, 4.9558806 
3.7350285e+2, 2.2577812e+2, -738313.6, -819971.6, -16011.283, -0.014517502, -0.014183419, -735286.44, -7922.341, 0.0, 5.0098543, 4.957175 
3.734854e+2, 2.3073398e+2, -691945.0, -771959.5, -16093.804, -0.014653434, -0.031844635, -688829.25, -10038.9, 0.0, 5.0087986, 4.957192 
3.734679e+2, 2.3568982e+2, -646206.4, -725378.44, -16162.761, -0.01506484, -0.049905073, -643033.94, -12817.094, 0.0, 5.0077405, 4.9567065 
3.7345064e+2, 2.4064407e+2, -609915.75, -699294.56, -15436.808, -0.016544316, -0.034935806, -607324.75, -25662.44, 0.0, 5.0066094, 4.949092 
3.7343436e+2, 2.4559863e+2, -562148.6, -647803.7, -14761.554, -0.022696584, 0.0057564583, -559676.06, -26558.402, 0.0, 5.0054493, 4.9502816 
3.7341824e+2, 2.505532e+2, -515853.66, -599888.7, -14781.101, -0.029109728, 0.043104578, -513329.6, -28755.213, 0.0, 5.004298, 4.9502554 
3.73402e+2, 2.555079e+2, -469787.72, -552521.94, -14805.999, -0.035220265, 0.082244486, -467217.88, -31188.29, 0.0, 5.0031323, 4.950031 
3.7338737e+2, 2.6045567e+2, -428635.3, -516182.88, -15017.363, -0.027566666, 0.099097885, -426130.97, -38589.766, 0.0, 5.001998, 4.945522 
3.733704e+2, 2.6539794e+2, -373605.34, -442709.94, -16311.555, -0.034475714, -0.053385425, -369948.66, -30890.783, 0.0, 4.999515, 4.9541507 
3.7335095e+2, 2.703413e+2, -329699.34, -394297.2, -16063.376, -0.059747156, -0.23555851, -325925.4, -35366.49, 0.0, 4.9966903, 4.9548054 
3.7332985e+2, 2.7528465e+2, -285598.97, -346200.0, -15184.236, -0.09615, -0.43092874, -282007.28, -39947.207, 0.0, 4.9937916, 4.95541 
3.733267e+2, 2.8023645e+2, -287986.9, -437353.5, 10702.263, -0.09675608, -0.27589592, -287223.97, -93732.6, 0.0, 4.997616, 4.906253 
3.7333447e+2, 2.8518483e+2, -198604.11, -309551.84, -7304.68, -0.059161156, -0.0037299746, -198125.25, -53102.723, 0.0, 5.002166, 4.9311666 
3.733294e+2, 2.901221e+2, -150691.1, -257425.33, -9225.686, -0.05060062, 0.018967263, -149899.53, -53227.945, 0.0, 5.0017567, 4.931882 
3.7332258e+2, 2.950586e+2, -102626.17, -205478.13, -10359.459, -0.05098143, 0.02196525, -101593.125, -53264.902, 0.0, 5.00116, 4.9325933 
3.733174e+2, 3.0000398e+2, -42454.68, -95456.055, -4259.199, -0.036484282, -0.028602617, -42114.59, -42114.59, 0.0, 5.001082, 4.963356 
3.7332043e+2, 3.0496266e+2, -30653.102, -82619.016, -514.9377, 0.04051168, -0.16352028, -30648.0, -30648.0, 0.0, 5.0042944, 4.965192 
3.7331957e+2, 3.0992857e+2, -19094.473, -74247.6, -2785.9646, 0.08867956, -0.2578299, -18954.102, -18954.102, 0.0, 5.007843, 4.966428 
3.7331384e+2, 3.1489915e+2, -7405.885, -66014.734, -4797.2134, 0.100261316, -0.31562245, -7015.8223, -7015.8223, 0.0, 5.011173, 4.9676676 
3.78806e+2, 1.214394e+2, -1680823.6, -1750049.5, -1475.6484, 0.0005346179, 0.016589828, -1680792.1, 69115.266, 0.0, 5.0279393, 4.982759 
3.7880242e+2, 1.264192e+2, -1639215.3, -1713596.6, -3563.3223, 0.013588502, 0.022282872, -1639044.9, 62058.316, 0.0, 5.027402, 4.9789376 
3.7879664e+2, 1.3139717e+2, -1591923.8, -1665474.4, -3848.9546, 0.007718034, 0.01149132, -1591722.9, 60595.16, 0.0, 5.0268526, 4.9789367 
3.7879083e+2, 1.363751e+2, -1546785.6, -1621796.3, -4118.51, 0.0018130285, 0.001970492, -1546560.1, 56972.91, 0.0, 5.026302, 4.977461 
3.7878326e+2, 1.4135098e+2, -1504905.8, -1584572.8, -7939.071, -0.0022456353, 0.010278618, -1504122.3, 50645.766, 0.0, 5.025681, 4.9738054 
3.787725e+2, 1.4632526e+2, -1457362.1, -1534911.4, -8766.596, -0.004321258, 0.0070895236, -1456383.5, 49634.21, 0.0, 5.024896, 4.974401 
3.7876162e+2, 1.512995e+2, -1410706.0, -1487052.6, -8985.926, -0.006468243, 0.0027346213, -1409662.6, 47605.082, 0.0, 5.0241017, 4.974401 
3.787508e+2, 1.5627372e+2, -1365443.9, -1442115.1, -9200.145, -0.00861954, -0.0011834619, -1364355.4, 44162.39, 0.0, 5.0233054, 4.9734206 
3.7873852e+2, 1.6124478e+2, -1325257.9, -1407748.1, -12220.602, -0.009511719, 0.0010218142, -1323485.5, 36314.156, 0.0, 5.022484, 4.968919 
3.7872386e+2, 1.6621414e+2, -1278190.9, -1358689.4, -13049.487, -0.0066389223, -0.00063903537, -1276128.3, 34971.098, 0.0, 5.0215983, 4.969332 
3.7870908e+2, 1.711836e+2, -1231716.6, -1310857.6, -13292.629, -0.0035496883, -0.0020597738, -1229543.6, 32854.65, 0.0, 5.020705, 4.969333 
3.7869433e+2, 1.7615305e+2, -1186367.9, -1265414.5, -13534.929, -0.00047548575, -0.0030852284, -1184114.6, 29582.672, 0.0, 5.0198092, 4.9685283 
3.7867853e+2, 1.8111956e+2, -1145671.1, -1229795.6, -15484.254, 0.0014531988, 0.0018071476, -1142911.6, 22112.873, 0.0, 5.0188904, 4.9644065 
3.7866056e+2, 1.8608421e+2, -1098230.4, -1179496.5, -15997.926, -0.00026871922, -0.0061720847, -1095194.4, 21174.064, 0.0, 5.017892, 4.9652557 
3.7864247e+2, 1.9104894e+2, -1051995.6, -1131706.8, -16087.436, -0.0022675795, -0.014660232, -1048871.3, 18840.518, 0.0, 5.016878, 4.9652615 
3.7862438e+2, 1.9601367e+2, -1006662.25, -1085828.3, -16181.559, -0.0043163486, -0.02286941, -1003482.44, 15572.493, 0.0, 5.015854, 4.9646173 
3.786061e+2, 2.0097606e+2, -966816.6, -1051899.3, -16649.086, -0.006418278, -0.018146649, -963674.75, 6747.359, 0.0, 5.014841, 4.9598894 
3.7858728e+2, 2.0593764e+2, -919120.7, -1001205.94, -16793.54, -0.009511891, -0.01233994, -915817.8, 5982.649, 0.0, 5.013857, 4.9608364 
3.7856838e+2, 2.1089932e+2, -872734.7, -953280.9, -16799.41, -0.012800536, -0.0069660107, -869371.3, 3806.6887, 0.0, 5.0128584, 4.9608417 
3.785495e+2, 2.1586102e+2, -827038.75, -906812.9, -16805.941, -0.016144855, -0.0013236739, -823642.8, 912.4637, 0.0, 5.011845, 4.960347 
3.7853083e+2, 2.2081935e+2, -786716.5, -872095.56, -16810.152, -0.017812943, 0.005483637, -783526.0, -7562.1714, 0.0, 5.0108256, 4.9557934 
3.7851256e+2, 2.2577469e+2, -738686.2, -820374.94, -16889.88, -0.0155883655, -0.014091482, -735331.75, -7936.0347, 0.0, 5.0097737, 4.9570756 
3.7849432e+2, 2.3073012e+2, -692391.1, -772368.5, -16994.676, -0.01350421, -0.034890413, -688929.7, -10103.463, 0.0, 5.00869, 4.9571013 
3.7847608e+2, 2.3568553e+2, -646807.3, -725829.25, -17092.023, -0.011758894, -0.05615293, -643268.9, -13012.034, 0.0, 5.0075755, 4.9566245 
3.7845787e+2, 2.4063957e+2, -610382.0, -699238.6, -16498.348, -0.011465013, -0.043305714, -607417.56, -25713.45, 0.0, 5.0064206, 4.949188 
3.7844038e+2, 2.4559449e+2, -562047.56, -647465.7, -15911.811, -0.018684955, -0.000098297, -559179.75, -26025.316, 0.0, 5.005469, 4.950383 
3.7842292e+2, 2.5054947e+2, -515028.66, -599252.56, -16005.84, -0.026611272, 0.040594433, -512089.47, -27484.11, 0.0, 5.0045867, 4.950348 
3.7840536e+2, 2.5550458e+2, -468142.78, -551545.44, -16139.355, -0.034286235, 0.08340206, -465128.56, -29073.97, 0.0, 5.0037284, 4.9501147 
3.7839004e+2, 2.604521e+2, -427996.66, -517937.06, -17076.865, -0.021622822, 0.09998218, -424863.44, -37295.582, 0.0, 5.002754, 4.9445496 
3.7837327e+2, 2.6539183e+2, -376588.56, -446800.6, -21120.115, -0.0117778415, -0.06591755, -370725.2, -31613.88, 0.0, 4.999312, 4.9526772 
3.7835383e+2, 2.703327e+2, -338207.3, -399939.13, -24385.184, -0.02252723, -0.26209706, -329736.94, -39098.664, 0.0, 4.994525, 4.953586 
3.7833267e+2, 2.7527392e+2, -302325.4, -354490.53, -27963.094, -0.046826363, -0.47104073, -290168.8, -48006.88, 0.0, 4.9887147, 4.954462 
3.7833273e+2, 2.802249e+2, -311995.2, -452955.9, -526.0718, -0.042171024, -0.30872774, -311993.22, -118391.26, 0.0, 4.990473, 4.9040556 
3.7834194e+2, 2.8517485e+2, -208568.08, -312603.13, -19154.004, -0.012029321, -0.016992562, -205153.67, -60041.645, 0.0, 4.998689, 4.9316907 
3.7833542e+2, 2.9011366e+2, -152353.42, -256362.13, -16279.339, -0.012383025, 0.012162223, -149864.94, -53125.277, 0.0, 5.0011306, 4.9325347 
3.7832716e+2, 2.950516e+2, -99862.37, -201964.72, -13699.306, -0.02372211, 0.019696925, -98056.25, -49680.965, 0.0, 5.002054, 4.93339 
3.7832138e+2, 2.999988e+2, -40793.875, -93314.195, -3504.6187, -0.018554702, -0.02404024, -40561.047, -40561.047, 0.0, 5.001922, 4.9636736 
3.7832764e+2, 3.049554e+2, -39764.336, -89917.03, 5596.1396, 0.062347326, -0.16462861, -39147.492, -39147.492, 0.0, 5.0024004, 4.9631763 
3.7833044e+2, 3.0991825e+2, -43364.188, -87666.49, 9816.267, 0.11057222, -0.2661525, -41286.582, -41286.582, 0.0, 5.0005474, 4.964512 
3.7832826e+2, 3.1488657e+2, -54233.063, -88732.41, 16840.748, 0.11593612, -0.32299733, -47375.434, -47375.434, 0.0, 4.995813, 4.9658504 
3.8383567e+2, 1.21441305e+2, -1672764.5, -1747287.4, -566.3527, 0.0015646439, 0.02075469, -1672760.1, 77126.96, 0.0, 5.0308847, 4.9822245 
3.8383144e+2, 1.2641956e+2, -1631341.8, -1710476.3, -3143.3418, 0.014497557, 0.014618099, -1631217.1, 69881.234, 0.0, 5.0301948, 4.978598 
3.8382488e+2, 1.3139755e+2, -1584848.4, -1662756.0, -3406.574, 0.007988224, 0.007378475, -1584699.6, 67613.55, 0.0, 5.029385, 4.9785986 
3.8381833e+2, 1.363755e+2, -1540495.5, -1619466.1, -3652.8694, 0.0014880077, 0.001405382, -1540326.9, 63201.445, 0.0, 5.028576, 4.9771256 
3.8380995e+2, 1.4135128e+2, -1499260.0, -1582532.5, -7565.9365, -0.0029085597, 0.012004892, -1498578.3, 56186.13, 0.0, 5.027733, 4.973487 
3.8379836e+2, 1.4632517e+2, -1452180.3, -1533135.8, -8486.149, -0.004662715, 0.008129237, -1451300.3, 54717.75, 0.0, 5.0268025, 4.9740715 
3.8378668e+2, 1.51299e+2, -1405960.5, -1485505.5, -8775.813, -0.0064206114, 0.0029662896, -1405003.9, 52268.24, 0.0, 5.025865, 4.974069 
3.83775e+2, 1.5627283e+2, -1361125.1, -1440787.6, -9056.903, -0.008154176, -0.0017463561, -1360108.4, 48417.91, 0.0, 5.024928, 4.9730883 
3.8376185e+2, 1.612435e+2, -1321301.6, -1406487.3, -12175.646, -0.008923437, -0.000022848923, -1319595.6, 40216.207, 0.0, 5.0239625, 4.968635 
3.8374612e+2, 1.6621265e+2, -1274612.8, -1357596.9, -12982.781, -0.006800171, -0.0012172718, -1272629.0, 38484.816, 0.0, 5.0229473, 4.969057 
3.8373035e+2, 1.7118187e+2, -1228508.8, -1309950.4, -13196.505, -0.004496198, -0.0021141227, -1226423.9, 35991.35, 0.0, 5.0219307, 4.9690576 
3.8371453e+2, 1.7615111e+2, -1183518.5, -1264684.8, -13408.58, -0.0021890108, -0.0026241231, -1181360.8, 32355.74, 0.0, 5.020914, 4.9682527 
3.836977e+2, 1.8111739e+2, -1143017.6, -1228959.8, -15382.986, -0.000816533, 0.0024331, -1140347.3, 24698.76, 0.0, 5.0198874, 4.9642186 
3.836787e+2, 1.860818e+2, -1095746.8, -1178715.1, -15993.406, -0.002289258, -0.006282443, -1092770.5, 23621.832, 0.0, 5.018825, 4.965084 
3.8365966e+2, 1.9104627e+2, -1049673.5, -1131028.0, -16172.307, -0.0038655098, -0.0155928675, -1046576.56, 21161.453, 0.0, 5.0177603, 4.9650836 
3.836406e+2, 1.9601072e+2, -1004471.8, -1085237.3, -16348.61, -0.0053703543, -0.024667565, -1001288.0, 17795.701, 0.0, 5.016695, 4.9644327 
3.8362134e+2, 2.0097296e+2, -964815.75, -1051220.0, -16940.412, -0.006579814, -0.019938258, -961613.1, 8839.214, 0.0, 5.015584, 4.959781 
3.8360146e+2, 2.0593463e+2, -917674.25, -1000702.06, -17176.29, -0.008826988, -0.012500702, -914261.2, 7568.5703, 0.0, 5.0143914, 4.9607663 
3.8358158e+2, 2.1089639e+2, -871846.44, -953048.2, -17277.781, -0.011279454, -0.0056276727, -868323.06, 4883.343, 0.0, 5.013199, 4.96077 
3.8356164e+2, 2.1585816e+2, -826663.9, -906827.3, -17379.705, -0.013699641, 0.0013890023, -823058.1, 1524.8408, 0.0, 5.0120053, 4.9602737 
3.8354197e+2, 2.208164e+2, -786896.3, -872588.2, -17431.438, -0.014186037, 0.008561997, -783486.1, -7493.8696, 0.0, 5.0108304, 4.9556255 
3.8352275e+2, 2.2577137e+2, -739147.3, -821015.94, -17531.076, -0.011198902, -0.012998444, -735551.2, -8122.933, 0.0, 5.0096774, 4.9569035 
3.835035e+2, 2.307264e+2, -693049.2, -773111.4, -17678.715, -0.0082754, -0.036073867, -689319.25, -10456.143, 0.0, 5.008522, 4.956928 
3.834842e+2, 2.3568141e+2, -647579.6, -726636.0, -17817.53, -0.005453256, -0.059816364, -643749.5, -13451.26, 0.0, 5.0073657, 4.95645 
3.8346517e+2, 2.4063508e+2, -610235.56, -698616.2, -16950.129, -0.003807776, -0.051068313, -607096.3, -25347.322, 0.0, 5.0063276, 4.949453 
3.8344687e+2, 2.4559017e+2, -561317.75, -646784.6, -16035.918, -0.010584927, -0.008531803, -558408.0, -25213.139, 0.0, 5.0056157, 4.950585 
3.834286e+2, 2.5054544e+2, -513885.44, -598556.6, -15799.823, -0.01822117, 0.033568084, -511033.22, -26393.357, 0.0, 5.0049086, 4.950507 
3.8341025e+2, 2.5550094e+2, -466679.03, -550893.0, -15582.368, -0.025534987, 0.07850341, -463888.25, -27805.467, 0.0, 5.004193, 4.950231 
3.833947e+2, 2.6044875e+2, -427024.22, -522536.72, -15942.564, -0.007811306, 0.10248206, -424433.44, -36841.133, 0.0, 5.003883, 4.942712 
3.8337958e+2, 2.6538604e+2, -368789.38, -454375.25, -19005.822, 0.027937166, -0.045478076, -364758.63, -25589.227, 0.0, 5.003621, 4.948709 
3.833622e+2, 2.7032226e+2, -318411.06, -404482.94, -20348.637, 0.053505108, -0.2375108, -313842.8, -23090.072, 0.0, 5.003125, 4.9490256 
3.8334355e+2, 2.752569e+2, -267775.9, -355037.6, -21074.152, 0.075167015, -0.458064, -262952.94, -20601.379, 0.0, 5.0025783, 4.949292 
3.8334352e+2, 2.8019983e+2, -272501.0, -417604.03, 13572.374, 0.11392275, -0.37323672, -271242.4, -77363.95, 0.0, 5.001902, 4.911099 
3.833492e+2, 2.8515488e+2, -200447.11, -292423.2, -1724.0719, 0.0940359, -0.08850154, -200414.8, -55081.254, 0.0, 5.001041, 4.9365435 
3.8334063e+2, 2.9010075e+2, -152837.48, -242837.6, -4099.4697, 0.047437176, -0.020275978, -152651.14, -55766.195, 0.0, 5.0003333, 4.9364834 
3.8333094e+2, 2.9504395e+2, -104947.23, -193508.6, -5720.0723, 0.0051240283, 0.012237943, -104579.305, -56116.715, 0.0, 4.9995356, 4.9364195 
3.833242e+2, 2.999959e+2, -47453.53, -90819.95, -665.767, -0.007608138, -0.008877619, -47443.313, -47443.313, 0.0, 4.999021, 4.964849 
3.8333026e+2, 3.049547e+2, -44296.367, -87344.625, 1698.8658, 0.070830144, -0.1422138, -44229.426, -44229.426, 0.0, 5.00034, 4.964041 
3.833343e+2, 3.0991954e+2, -37322.285, -76296.83, -1557.4003, 0.15079543, -0.25486556, -37260.152, -37260.152, 0.0, 5.0018315, 4.9668818 
3.8333502e+2, 3.148911e+2, -30095.422, -65512.742, -4700.9043, 0.22412792, -0.33392963, -29482.098, -29482.098, 0.0, 5.003222, 4.9697275 
3.8886645e+2, 1.2144355e+2, -1673762.5, -1749314.0, -412.63287, 0.00036338635, 0.022895098, -1673760.3, 76102.664, 0.0, 5.0308833, 4.9815598 
3.888618e+2, 1.2642047e+2, -1631831.1, -1711480.8, -3757.205, 0.016125308, 0.0070338123, -1631654.3, 69433.68, 0.0, 5.030195, 4.9782686 
3.8885432e+2, 1.3139847e+2, -1585334.9, -1663758.8, -4019.3022, 0.008582832, 0.003295636, -1585129.4, 67173.46, 0.0, 5.0293856, 4.9782686 
3.8884687e+2, 1.3637644e+2, -1540977.0, -1620462.8, -4263.675, 0.0010362461, 0.0008353519, -1540748.9, 62769.12, 0.0, 5.0285764, 4.976797 
3.8883758e+2, 1.4135212e+2, -1499753.1, -1583569.0, -8258.442, -0.003880903, 0.013761316, -1498947.1, 55808.11, 0.0, 5.027735, 4.973145 
3.8882515e+2, 1.4632557e+2, -1452700.4, -1534235.5, -9199.191, -0.0049110856, 0.009219757, -1451675.4, 54337.9, 0.0, 5.026805, 4.973707 
3.888126e+2, 1.5129897e+2, -1406476.9, -1486601.3, -9488.025, -0.005898985, 0.003249006, -1405368.8, 51903.297, 0.0, 5.0258684, 4.9737053 
3.8880005e+2, 1.5627234e+2, -1361636.0, -1441875.9, -9767.504, -0.006869779, -0.0022661027, -1360464.1, 48066.67, 0.0, 5.0249314, 4.9727254 
3.8878596e+2, 1.6124263e+2, -1321691.9, -1407335.9, -12948.586, -0.0074668904, -0.0011439604, -1319777.0, 40043.258, 0.0, 5.0239673, 4.9683514 
3.8876906e+2, 1.6621153e+2, -1274972.9, -1358387.9, -13757.411, -0.00664459, -0.0021154813, -1272762.5, 38362.19, 0.0, 5.022952, 4.9687924 
3.8875213e+2, 1.7118053e+2, -1228867.4, -1310740.4, -13970.246, -0.005740609, -0.0027018401, -1226549.3, 35878.973, 0.0, 5.0219355, 4.9687924 
3.8873518e+2, 1.7614952e+2, -1183875.3, -1265473.3, -14181.184, -0.0048588756, -0.0028840199, -1181481.0, 32250.68, 0.0, 5.020919, 4.9679875 
3.8871723e+2, 1.8111558e+2, -1143301.4, -1229597.8, -16191.468, -0.0044710394, 0.0023466926, -1140363.4, 24699.904, 0.0, 5.0198927, 4.964005 
3.8869724e+2, 1.8607977e+2, -1096030.3, -1179349.3, -16805.928, -0.0054291873, -0.0065193754, -1092768.1, 23644.115, 0.0, 5.0188293, 4.964872 
3.8867715e+2, 1.91044e+2, -1049959.3, -1131661.3, -16982.74, -0.0064179455, -0.015957516, -1046569.75, 21190.684, 0.0, 5.017763, 4.9648714 
3.8865706e+2, 1.9600824e+2, -1004759.6, -1085869.9, -17156.846, -0.007361534, -0.02513289, -1001279.8, 17828.793, 0.0, 5.016697, 4.9642205 
3.886368e+2, 2.009703e+2, -965007.1, -1051639.1, -17847.742, -0.007657801, -0.02011618, -961474.25, 9004.789, 0.0, 5.015586, 4.959639 
3.8861594e+2, 2.0593198e+2, -917824.94, -1001033.06, -18089.158, -0.008171639, -0.011554932, -914062.5, 7793.764, 0.0, 5.0143924, 4.9606533 
3.88595e+2, 2.1089375e+2, -871999.4, -953384.56, -18186.783, -0.008935506, -0.0035054437, -868120.1, 5112.5054, 0.0, 5.0131993, 4.9606557 
3.8857406e+2, 2.1585552e+2, -826819.0, -907169.1, -18284.746, -0.009733032, 0.0047174566, -822853.75, 1755.205, 0.0, 5.012006, 4.960158 
3.8855335e+2, 2.208137e+2, -787129.5, -873092.06, -18307.906, -0.00886655, 0.012473126, -783392.8, -7373.7524, 0.0, 5.010831, 4.955454 
3.88533e+2, 2.2576833e+2, -739384.7, -821493.44, -18382.787, -0.005713525, -0.010819723, -735457.0, -7997.8325, 0.0, 5.0096726, 4.9567423 
3.8851264e+2, 2.3072301e+2, -693299.9, -773579.3, -18515.945, -0.0028484366, -0.035798773, -689235.1, -10336.932, 0.0, 5.0085115, 4.956771 
3.884923e+2, 2.3567767e+2, -647843.7, -727094.5, -18640.184, -0.0001864474, -0.061392967, -643678.3, -13340.919, 0.0, 5.0073495, 4.9562974 
3.884723e+2, 2.4063107e+2, -610011.3, -697740.7, -17573.113, 0.0018865877, -0.055646177, -606622.2, -24831.54, 0.0, 5.0062723, 4.9497795 
3.8845322e+2, 2.455863e+2, -560955.9, -645602.9, -16618.486, -0.0037949183, -0.01606994, -557810.1, -24578.332, 0.0, 5.0055604, 4.9510164 
3.884342e+2, 2.5054178e+2, -513459.0, -597371.25, -16346.15, -0.010508723, 0.023548372, -510387.22, -25715.904, 0.0, 5.004876, 4.950928 
3.884151e+2, 2.5549743e+2, -466188.25, -549704.1, -16092.442, -0.016929932, 0.065929584, -463194.75, -27085.8, 0.0, 5.004184, 4.950641 
3.883991e+2, 2.6044598e+2, -428329.7, -525080.1, -15831.439, 0.002410738, 0.096327715, -425805.03, -38193.633, 0.0, 5.003828, 4.9418707 
3.8838482e+2, 2.6538414e+2, -372175.9, -458711.9, -17867.621, 0.039227095, -0.02109466, -368631.8, -29437.932, 0.0, 5.0031734, 4.947394 
3.8836828e+2, 2.7032185e+2, -322788.8, -407916.97, -18527.756, 0.061790533, -0.17773342, -318931.13, -28152.793, 0.0, 5.0022516, 4.948102 
3.8835025e+2, 2.752588e+2, -273142.16, -357569.84, -18568.902, 0.07706248, -0.3579989, -269238.63, -26868.887, 0.0, 5.0012794, 4.94876 
3.8834745e+2, 2.8020152e+2, -262156.7, -396377.97, 7710.0396, 0.112676255, -0.3064016, -261715.27, -67804.39, 0.0, 5.002234, 4.918501 
3.883507e+2, 2.8515333e+2, -193776.27, -290137.3, -4520.942, 0.102154866, -0.08298894, -193564.63, -48171.285, 0.0, 5.002702, 4.9374504 
3.8834235e+2, 2.9009825e+2, -147221.31, -239658.22, -6211.1353, 0.05992592, -0.021148246, -146805.84, -49858.7, 0.0, 5.0015965, 4.937774 
3.8833275e+2, 2.9504105e+2, -100386.08, -189435.3, -7148.9365, 0.018479193, 0.007969134, -99815.81, -51294.293, 0.0, 5.000401, 4.9380946 
3.8832548e+2, 2.9999515e+2, -45084.53, -87875.945, -1230.5449, -0.0031964707, 0.0047210264, -45049.17, -45049.17, 0.0, 4.9994273, 4.966115 
3.8832846e+2, 3.0495706e+2, -44575.16, -87840.86, 2129.8147, 0.03288946, -0.075187705, -44470.57, -44470.57, 0.0, 5.0003667, 4.96452 
3.8832897e+2, 3.0992442e+2, -38837.0, -78037.81, -305.04648, 0.05973766, -0.12747848, -38834.63, -38834.63, 0.0, 5.0015755, 4.967125 
3.8832587e+2, 3.14899e+2, -32842.605, -68494.87, -2629.0593, 0.07307251, -0.13681568, -32649.775, -32649.775, 0.0, 5.002682, 4.9697347 
3.9389727e+2, 1.2144575e+2, -1674702.0, -1751219.8, -260.907, -0.0005358808, 0.024723668, -1674701.1, 75137.98, 0.0, 5.030882, 4.980934 
3.9389217e+2, 1.2642138e+2, -1632320.8, -1712485.1, -4370.4834, 0.017741118, -0.00049383234, -1632083.3, 68994.34, 0.0, 5.0301957, 4.9779387 
3.938838e+2, 1.3139938e+2, -1585821.8, -1664761.6, -4631.446, 0.009163954, -0.0007515435, -1585550.9, 66741.625, 0.0, 5.029386, 4.977938 
3.938754e+2, 1.3637738e+2, -1541458.8, -1621459.4, -4873.9087, 0.0005694553, 0.00028000382, -1541162.9, 62344.813, 0.0, 5.028577, 4.9764686 
3.9386523e+2, 1.4135295e+2, -1500256.5, -1584627.0, -8950.081, -0.004836446, 0.015548161, -1499317.5, 55428.684, 0.0, 5.0277376, 4.9727955 
3.938519e+2, 1.4632598e+2, -1453220.8, -1535335.4, -9912.516, -0.0051413896, 0.010330103, -1452041.1, 53967.555, 0.0, 5.0268083, 4.973343 
3.938385e+2, 1.5129893e+2, -1406993.4, -1487697.3, -10200.519, -0.0053674756, 0.0035296269, -1405724.1, 51547.855, 0.0, 5.0258713, 4.9733405 
3.938251e+2, 1.5627185e+2, -1362147.0, -1442964.4, -10478.387, -0.005583675, -0.002809852, -1360810.5, 47724.797, 0.0, 5.0249343, 4.9723625 
3.9381006e+2, 1.6124175e+2, -1322085.6, -1408191.9, -13719.694, -0.0060402234, -0.0022474865, -1319952.4, 39876.31, 0.0, 5.023972, 4.9680657 
3.9379203e+2, 1.6621041e+2, -1275333.1, -1359178.9, -14531.74, -0.006532796, -0.0029847512, -1272886.0, 38249.45, 0.0, 5.0229573, 4.9685273 
3.937739e+2, 1.7117919e+2, -1229226.1, -1311530.4, -14743.686, -0.007033143, -0.003269442, -1226664.6, 35776.46, 0.0, 5.0219407, 4.9685273 
3.9375582e+2, 1.7614795e+2, -1184232.3, -1266261.8, -14953.485, -0.007581193, -0.003132621, -1181591.4, 32155.393, 0.0, 5.0209236, 4.967722 
3.9373675e+2, 1.8111378e+2, -1143592.5, -1230252.0, -17000.049, -0.008117369, 0.002275437, -1140376.9, 24703.826, 0.0, 5.019898, 4.963785 
3.9371574e+2, 1.8607773e+2, -1096314.0, -1179983.4, -17619.55, -0.008531752, -0.006771155, -1092755.0, 23677.16, 0.0, 5.018834, 4.9646587 
3.9369464e+2, 1.9104174e+2, -1050245.1, -1132294.6, -17794.275, -0.008921965, -0.016377326, -1046552.2, 21230.668, 0.0, 5.0177665, 4.9646583 
3.936736e+2, 1.9600573e+2, -1005047.7, -1086502.4, -17966.184, -0.009293253, -0.025693664, -1001261.0, 17872.576, 0.0, 5.0166993, 4.964008 
3.9365226e+2, 2.0096767e+2, -965214.25, -1052091.1, -18750.834, -0.00881868, -0.020204866, -961340.0, 9165.659, 0.0, 5.015588, 4.9594855 
3.9363033e+2, 2.0592934e+2, -917976.7, -1001363.25, -19000.172, -0.00762576, -0.010474628, -913851.5, 8031.2285, 0.0, 5.014394, 4.96054 
3.936084e+2, 2.1089113e+2, -872153.4, -953720.1, -19093.934, -0.006657258, -0.0013027801, -867904.94, 5353.887, 0.0, 5.0132003, 4.9605403 
3.9358646e+2, 2.1585292e+2, -826975.2, -907510.06, -19187.936, -0.005788387, 0.008072292, -822637.2, 1997.6749, 0.0, 5.012006, 4.960041 
3.935647e+2, 2.2081101e+2, -787380.1, -873630.1, -19183.758, -0.0036157717, 0.016373342, -783305.75, -7259.828, 0.0, 5.0108314, 4.955269 
3.9354324e+2, 2.2576526e+2, -739624.56, -821969.4, -19241.197, -0.00036886125, -0.008940307, -735350.4, -7860.226, 0.0, 5.009668, 4.9565783 
3.9352176e+2, 2.307196e+2, -693553.0, -774045.75, -19359.871, 0.002400723, -0.03616285, -689138.7, -10205.232, 0.0, 5.0085015, 4.956611 
3.9350024e+2, 2.3567389e+2, -648110.1, -727551.4, -19469.535, 0.004865497, -0.063948296, -643595.1, -13218.17, 0.0, 5.0073338, 4.956142 
3.9347932e+2, 2.4062715e+2, -610053.75, -697439.06, -18266.94, 0.0077257603, -0.0587024, -606388.94, -24557.564, 0.0, 5.006217, 4.9499035 
3.9345953e+2, 2.4558261e+2, -560607.8, -644409.5, -17203.295, 0.0032115984, -0.021235071, -557213.7, -23946.521, 0.0, 5.005505, 4.9514403 
3.934398e+2, 2.5053823e+2, -513046.28, -596174.25, -16894.72, -0.0027288033, 0.014986139, -509743.8, -25042.332, 0.0, 5.0048437, 4.9513407 
3.9341998e+2, 2.5549406e+2, -465711.06, -548503.56, -16604.764, -0.00840633, 0.05389837, -462504.97, -26370.877, 0.0, 5.004174, 4.9510427 
3.934037e+2, 2.6044294e+2, -430428.63, -529262.56, -15970.489, 0.0142529635, 0.09056685, -427912.06, -40279.164, 0.0, 5.003774, 4.9403806 
3.933896e+2, 2.6538152e+2, -375660.88, -462988.25, -17355.93, 0.049285725, -0.0076760827, -372337.9, -33112.395, 0.0, 5.002727, 4.9458838 
3.9337295e+2, 2.7032018e+2, -327264.06, -411286.53, -17332.318, 0.064521685, -0.14373015, -323829.13, -33013.332, 0.0, 5.00138, 4.946984 
3.9335477e+2, 2.7525905e+2, -278605.28, -360033.34, -16688.297, 0.06908282, -0.298494, -275317.8, -32913.316, 0.0, 4.9999824, 4.948034 
3.933516e+2, 2.8020334e+2, -260019.66, -394131.78, 4402.3154, 0.11148291, -0.23274875, -259875.31, -65933.09, 0.0, 5.0025806, 4.9192824 
3.933545e+2, 2.851534e+2, -187266.06, -287712.5, -8022.019, 0.118104264, -0.032962658, -186629.44, -41192.387, 0.0, 5.0043635, 4.938198 
3.9334565e+2, 2.9009697e+2, -141762.5, -236340.78, -9027.341, 0.076954514, 0.009175256, -140908.56, -43911.453, 0.0, 5.00286, 4.9389052 
3.9333552e+2, 2.95039e+2, -95979.18, -185224.58, -9282.912, 0.033083905, 0.021579001, -95023.836, -46451.754, 0.0, 5.001267, 4.939609 
3.933273e+2, 2.9999402e+2, -43092.387, -85312.195, -2046.9949, 0.0029289213, 0.017510878, -42993.37, -42972.434, 0.0, 4.999833, 4.967132 
3.933276e+2, 3.0495787e+2, -45017.645, -88181.01, 2811.9277, 0.007079982, -0.02905049, -44835.23, -44835.23, 0.0, 5.000393, 4.9648337 
3.9332488e+2, 3.0992702e+2, -40515.824, -79623.62, 1198.776, -0.008318052, -0.040415592, -40479.113, -40479.113, 0.0, 5.0013185, 4.9672027 
3.9331836e+2, 3.1490365e+2, -35755.215, -71323.2, -304.81845, -0.04411685, 0.0005436217, -35752.6, -35752.6, 0.0, 5.002142, 4.969576 
3.9892814e+2, 1.2144792e+2, -1674688.6, -1752562.8, 139.09949, -0.0010136307, 0.025909156, -1674688.4, 75127.38, 0.0, 5.031176, 4.98035 
3.9892253e+2, 1.2642236e+2, -1632064.4, -1713132.6, -4692.8086, 0.019237591, -0.007501287, -1631793.6, 69272.695, 0.0, 5.030446, 4.977605 
3.9891326e+2, 1.3140036e+2, -1585557.0, -1665402.9, -4965.6104, 0.009683759, -0.004536149, -1585249.4, 67032.25, 0.0, 5.029639, 4.977605 
3.9890397e+2, 1.3637835e+2, -1541196.5, -1622096.0, -5214.7515, 0.00010200323, -0.00028853034, -1540861.8, 62635.473, 0.0, 5.0288267, 4.9761376 
3.9889288e+2, 1.4135379e+2, -1500043.4, -1585343.5, -9366.736, -0.0057384344, 0.017161634, -1499027.0, 55710.07, 0.0, 5.0279827, 4.9724417 
3.988787e+2, 1.4632641e+2, -1453012.6, -1536073.0, -10340.535, -0.005384675, 0.011321854, -1451744.6, 54259.168, 0.0, 5.027055, 4.97298 
3.9886445e+2, 1.5129891e+2, -1406774.6, -1488428.5, -10617.675, -0.0049303183, 0.0037467473, -1405416.5, 51855.15, 0.0, 5.026121, 4.972978 
3.9885017e+2, 1.562714e+2, -1361914.9, -1443685.3, -10883.163, -0.004475603, -0.0033622314, -1360491.3, 48048.344, 0.0, 5.025188, 4.9720016 
3.9883417e+2, 1.6124094e+2, -1321736.4, -1408693.4, -14175.028, -0.0048438325, -0.0032728922, -1319484.0, 40352.777, 0.0, 5.02423, 4.9677773 
3.98815e+2, 1.6620935e+2, -1274972.0, -1359623.4, -14997.615, -0.0065352656, -0.0037949288, -1272393.4, 38752.375, 0.0, 5.0232086, 4.9682612 
3.9879575e+2, 1.7117788e+2, -1228914.4, -1311999.0, -15212.906, -0.008279241, -0.0038381997, -1226216.5, 36237.3, 0.0, 5.022175, 4.9682612 
3.9877653e+2, 1.7614639e+2, -1183995.5, -1266766.1, -15423.744, -0.010068181, -0.0034610112, -1181214.8, 32546.93, 0.0, 5.0211325, 4.9674563 
3.9875633e+2, 1.81112e+2, -1143415.0, -1230701.0, -17515.627, -0.011317985, 0.0020993422, -1140031.4, 25066.549, 0.0, 5.0200686, 4.9635572 
3.9873427e+2, 1.8607572e+2, -1096249.4, -1180463.6, -18171.875, -0.011189452, -0.0070312815, -1092495.5, 23956.31, 0.0, 5.018961, 4.9644403 
3.987122e+2, 1.9103949e+2, -1050313.0, -1132838.5, -18377.184, -0.011011283, -0.016723176, -1046405.7, 21399.414, 0.0, 5.0178475, 4.9644394 
3.986901e+2, 1.9600329e+2, -1005256.8, -1087113.5, -18580.152, -0.0108414935, -0.026111988, -1001236.8, 17921.479, 0.0, 5.0167313, 4.9637885 
3.9866772e+2, 2.0096506e+2, -965399.0, -1052558.0, -19461.227, -0.009838804, -0.019978674, -961251.06, 9280.887, 0.0, 5.0156016, 4.959322 
3.9864478e+2, 2.0592672e+2, -917942.1, -1001600.94, -19710.904, -0.0071949987, -0.009244662, -913530.7, 8378.282, 0.0, 5.014458, 4.9604287 
3.986218e+2, 2.108885e+2, -871982.7, -953896.2, -19788.867, -0.0046255765, 0.0007693404, -867452.6, 5832.401, 0.0, 5.0133123, 4.960428 
3.9859882e+2, 2.1585028e+2, -826683.2, -907631.6, -19861.494, -0.0021617524, 0.011000306, -822072.56, 2588.4, 0.0, 5.0121613, 4.9599285 
3.9857605e+2, 2.2080827e+2, -787074.7, -873950.7, -19816.592, 0.001299601, 0.019748354, -782767.94, -6694.8706, 0.0, 5.0110364, 4.9550643 
3.985535e+2, 2.2576219e+2, -739246.44, -822229.7, -19961.207, 0.00498862, -0.0073497216, -734694.56, -7173.172, 0.0, 5.009893, 4.956384 
3.9853093e+2, 2.3071615e+2, -693327.56, -774395.6, -20219.734, 0.00819231, -0.036717385, -688564.3, -9595.289, 0.0, 5.0086765, 4.9564114 
3.9850834e+2, 2.3567007e+2, -648231.25, -728074.94, -20515.691, 0.011104703, -0.06672796, -643268.25, -12851.297, 0.0, 5.0073915, 4.9559364 
3.984864e+2, 2.4062328e+2, -610426.0, -697767.75, -19376.313, 0.015600788, -0.059687674, -606320.44, -24448.572, 0.0, 5.0061355, 4.9498253 
3.9846596e+2, 2.4557896e+2, -559881.2, -642988.25, -18079.027, 0.011941901, -0.024283666, -556118.6, -22816.41, 0.0, 5.005573, 4.9518843 
3.984455e+2, 2.5053465e+2, -511572.94, -594398.8, -17612.9, 0.0060407477, 0.006717931, -507983.16, -23250.896, 0.0, 5.005179, 4.9517884 
3.9842498e+2, 2.5549054e+2, -463289.53, -546283.5, -17089.54, 0.00023166847, 0.04018221, -459908.34, -23747.568, 0.0, 5.004853, 4.9514933 
3.9840862e+2, 2.6043946e+2, -430681.13, -534218.9, -16245.687, 0.02735875, 0.08293046, -428191.94, -40532.887, 0.0, 5.004742, 4.938122 
3.9839435e+2, 2.6537785e+2, -378170.38, -468452.8, -19843.467, 0.061718035, -0.0029737025, -374001.4, -34734.34, 0.0, 5.0029497, 4.9435706 
3.983772e+2, 2.7031633e+2, -335362.25, -418738.84, -23703.578, 0.07323359, -0.13080281, -329094.6, -38220.055, 0.0, 4.999685, 4.944771 
3.9835858e+2, 2.7525532e+2, -295482.06, -370686.16, -28768.736, 0.073945716, -0.27506122, -285739.03, -43261.387, 0.0, 4.9952507, 4.945953 
3.9835805e+2, 2.802016e+2, -287450.4, -418594.5, -14339.046, 0.1422558, -0.15219049, -285900.9, -91892.81, 0.0, 4.995558, 4.9137425 
3.9836186e+2, 2.8515244e+2, -196764.86, -288144.7, -23780.543, 0.16300158, 0.060193997, -190946.69, -45455.844, 0.0, 5.0002627, 4.9397554 
3.9835125e+2, 2.900954e+2, -144668.42, -233852.7, -19166.623, 0.109475814, 0.070370026, -140723.78, -43673.9, 0.0, 5.0010643, 4.9405136 
3.9833948e+2, 2.9503715e+2, -94726.69, -180765.48, -15337.752, 0.053006187, 0.053985413, -92074.266, -43453.227, 0.0, 5.000946, 4.94129 
3.9832973e+2, 2.9999235e+2, -41978.582, -83429.66, -4752.5527, 0.011055701, 0.031777672, -41440.66, -41377.543, 0.0, 5.000019, 4.9677706 
3.983278e+2, 3.049569e+2, -49188.027, -90467.74, 2415.8206, -0.0044841445, -0.003496596, -49047.125, -49047.125, 0.0, 4.999082, 4.9646897 
3.9832276e+2, 3.0992636e+2, -54873.707, -86894.734, 2647.637, -0.04139155, -0.0016648874, -54656.26, -54656.26, 0.0, 4.9964375, 4.9668307 
3.9831412e+2, 3.149033e+2, -65846.766, -85932.87, 3562.7227, -0.09791656, 0.055852886, -65233.56, -65233.56, 0.0, 4.9916883, 4.968974 
4.0396115e+2, 1.2145085e+2, -1666359.3, -1749484.6, 857.713, 0.0008898595, 0.02031529, -1666350.4, 83435.2, 0.0, 5.0341754, 4.9798956 
4.0395445e+2, 1.2642556e+2, -1624299.5, -1710129.6, -3887.457, 0.018717617, -0.0065532243, -1624123.8, 76909.9, 0.0, 5.0332165, 4.977241 
4.0394428e+2, 1.314031e+2, -1578116.3, -1662564.9, -4189.1396, 0.009113966, -0.0044947146, -1577909.0, 74344.65, 0.0, 5.0323067, 4.9772434 
4.0393412e+2, 1.3638063e+2, -1534060.1, -1619408.3, -4469.6016, -0.0005240097, -0.0011966145, -1533826.8, 69647.0, 0.0, 5.0313964, 4.9757795 
4.039221e+2, 1.4135568e+2, -1493199.8, -1582752.8, -8715.134, -0.0063945735, 0.015663907, -1492359.5, 62358.188, 0.0, 5.030446, 4.972107 
4.0390694e+2, 1.4632797e+2, -1446525.8, -1533692.4, -9697.316, -0.006086117, 0.010114931, -1445460.0, 60527.785, 0.0, 5.02941, 4.972635 
4.0389168e+2, 1.5130016e+2, -1400621.5, -1486221.3, -9975.085, -0.0057028104, 0.0028621322, -1399474.4, 57784.367, 0.0, 5.0283685, 4.972633 
4.0387642e+2, 1.5627234e+2, -1356090.9, -1441644.5, -10240.272, -0.005336564, -0.003917986, -1354882.3, 53647.6, 0.0, 5.027328, 4.9716578 
4.0385938e+2, 1.6124158e+2, -1316197.4, -1406664.8, -13608.163, -0.0056951544, -0.0036976163, -1314194.8, 45635.484, 0.0, 5.026245, 4.967494 
4.0383914e+2, 1.6620968e+2, -1269911.9, -1357802.5, -14453.413, -0.0070336484, -0.0044994787, -1267596.0, 43546.027, 0.0, 5.0250583, 4.967993 
4.0381885e+2, 1.7117791e+2, -1224331.8, -1310414.6, -14676.283, -0.00834602, -0.0048693554, -1221898.4, 40554.523, 0.0, 5.023865, 4.9679933 
4.0379852e+2, 1.7614612e+2, -1179860.1, -1265401.4, -14894.693, -0.00963788, -0.0048587127, -1177340.9, 36422.85, 0.0, 5.022672, 4.96719 
4.037772e+2, 1.8111147e+2, -1139783.4, -1229639.3, -17071.156, -0.0103151, 0.00077300845, -1136649.5, 28453.156, 0.0, 5.02145, 4.963266 
4.0375403e+2, 1.8607503e+2, -1093141.3, -1179710.0, -17807.066, -0.009818855, -0.0067923246, -1089621.4, 26837.47, 0.0, 5.020175, 4.9641275 
4.0373075e+2, 1.9103865e+2, -1047680.25, -1132322.6, -18092.81, -0.009342193, -0.0148376515, -1043975.0, 23839.498, 0.0, 5.0188994, 4.9641256 
4.0370744e+2, 1.9600227e+2, -1003086.56, -1086828.4, -18376.945, -0.008909936, -0.022609748, -999231.3, 19938.785, 0.0, 5.017624, 4.9634733 
4.0368387e+2, 2.0096385e+2, -963324.8, -1051917.9, -19274.34, -0.008341422, -0.016013967, -959313.2, 11232.929, 0.0, 5.016375, 4.9591856 
4.036596e+2, 2.0592523e+2, -916079.3, -1000942.6, -19517.332, -0.0068694204, -0.0072109364, -911805.8, 10119.466, 0.0, 5.0151362, 4.9603453 
4.0363535e+2, 2.1088672e+2, -870409.9, -953366.56, -19592.092, -0.005251606, 0.0007882493, -866015.5, 7287.918, 0.0, 5.0138907, 4.960348 
4.0361112e+2, 2.1584822e+2, -825384.4, -907222.56, -19664.406, -0.003591469, 0.008964374, -820904.56, 3776.9197, 0.0, 5.0126452, 4.9598513 
4.035872e+2, 2.2080606e+2, -786052.6, -873873.4, -19500.467, -0.0000015992947, 0.017129697, -781917.25, -5822.328, 0.0, 5.0114703, 4.9548955 
4.0356392e+2, 2.2576016e+2, -738139.4, -822436.06, -19621.842, 0.0066750553, -0.005505111, -733795.8, -6252.5684, 0.0, 5.010408, 4.95609 
4.0354058e+2, 2.3071425e+2, -691803.44, -774538.6, -19837.436, 0.013372624, -0.03031862, -687292.94, -8301.445, 0.0, 5.0093427, 4.9560804 
4.0351722e+2, 2.3566823e+2, -646096.3, -728072.75, -20033.797, 0.020120798, -0.05611851, -641462.3, -11021.649, 0.0, 5.008274, 4.9555683 
4.0349445e+2, 2.4062122e+2, -607086.06, -696257.6, -18576.21, 0.02735423, -0.048815172, -603371.0, -21472.418, 0.0, 5.0072203, 4.949879 
4.0347326e+2, 2.4557623e+2, -557260.75, -641110.06, -17423.488, 0.024350483, -0.023153726, -553784.4, -20451.375, 0.0, 5.0062857, 4.9522266 
4.0345213e+2, 2.5053126e+2, -510433.22, -593025.1, -17360.11, 0.018531738, -0.0029602072, -506932.66, -22165.902, 0.0, 5.0053706, 4.9521894 
4.0343088e+2, 2.5548646e+2, -463831.38, -545496.25, -17306.064, 0.012016164, 0.019003442, -460315.3, -24116.283, 0.0, 5.0044527, 4.9519544 
4.0341368e+2, 2.6043573e+2, -433444.94, -536775.1, -15329.706, 0.0348675, 0.06226377, -431218.66, -43525.39, 0.0, 5.0039825, 4.937642 
4.0340033e+2, 2.653757e+2, -378286.94, -476401.38, -15617.9375, 0.07950687, 0.013816612, -375860.84, -36564.9, 0.0, 5.0039, 4.9407854 
4.033851e+2, 2.703134e+2, -327819.78, -427436.84, -14798.467, 0.11819187, -0.083055526, -325667.9, -34745.316, 0.0, 5.003642, 4.9407086 
4.0336898e+2, 2.752492e+2, -277197.34, -378813.72, -13443.746, 0.1600102, -0.20546348, -275448.84, -32880.953, 0.0, 5.003332, 4.9405813 
4.0336862e+2, 2.8019094e+2, -266970.56, -407119.94, 8877.551, 0.26906478, -0.08380112, -266410.44, -72258.46, 0.0, 5.0025344, 4.9141593 
4.0336823e+2, 2.8514403e+2, -191219.52, -270542.75, -249.85356, 0.25483584, 0.103714034, -191218.73, -45610.18, 0.0, 5.0005097, 4.944335 
4.0335476e+2, 2.9009e+2, -147573.64, -224105.06, -2823.3804, 0.16332862, 0.09452843, -147469.63, -50336.89, 0.0, 4.99848, 4.9440055 
4.0334073e+2, 2.9503396e+2, -103714.85, -177796.52, -4760.8184, 0.080016494, 0.061907414, -103410.16, -54733.47, 0.0, 4.9963427, 4.943674 
4.033289e+2, 2.9999122e+2, -55145.855, -88139.234, 666.46967, 0.019088069, 0.033632677, -55132.4, -55037.965, 0.0, 4.9941573, 4.9683886 
4.0332347e+2, 3.0495945e+2, -65758.44, -98991.54, 5942.833, -0.01010239, 0.019500773, -64727.695, -64727.695, 0.0, 4.991795, 4.9647 
4.0331674e+2, 3.099304e+2, -70585.93, -95639.93, 5032.5474, -0.029947732, 0.019772965, -69612.85, -69612.85, 0.0, 4.98922, 4.966581 
4.033084e+2, 3.1490624e+2, -75259.26, -92449.0, 3676.5886, -0.0364554, 0.048267934, -74505.914, -74505.914, 0.0, 4.986492, 4.9684644 
4.0899557e+2, 1.214543e+2, -1666918.8, -1750623.3, -229.3466, 0.003325088, 0.01210727, -1666918.1, 82832.36, 0.0, 5.034175, 4.979522 
4.0898755e+2, 1.2642983e+2, -1624854.6, -1711276.1, -4576.5874, 0.017379018, -0.0026871776, -1624613.0, 76377.625, 0.0, 5.033218, 4.9768643 
4.089765e+2, 1.3140675e+2, -1578668.6, -1663709.8, -4876.988, 0.008063863, -0.0030658208, -1578389.9, 73826.88, 0.0, 5.0323076, 4.9768662 
4.0896547e+2, 1.3638365e+2, -1534608.5, -1620548.9, -5156.176, -0.0013074346, -0.0021952377, -1534300.3, 69142.82, 0.0, 5.031398, 4.975403 
4.0895247e+2, 1.4135818e+2, -1493686.3, -1583790.4, -9495.746, -0.0070662536, 0.013154731, -1492696.4, 61995.78, 0.0, 5.0304503, 4.9717636 
4.0893626e+2, 1.4633021e+2, -1447017.6, -1534750.3, -10487.782, -0.006958025, 0.008185016, -1445781.3, 60183.902, 0.0, 5.029415, 4.972284 
4.0891993e+2, 1.5130211e+2, -1401111.0, -1487277.5, -10764.642, -0.006800004, 0.0015944033, -1399786.5, 57452.598, 0.0, 5.0283737, 4.9722815 
4.089036e+2, 1.56274e+2, -1356576.4, -1442695.8, -11028.211, -0.006668203, -0.0045161056, -1355186.6, 53326.53, 0.0, 5.027333, 4.9713073 
4.0888548e+2, 1.6124293e+2, -1316588.1, -1407523.0, -14494.505, -0.0069743386, -0.0039820042, -1314333.6, 45482.652, 0.0, 5.026251, 4.9672084 
4.0886414e+2, 1.6621073e+2, -1270283.0, -1358616.4, -15361.183, -0.0075440346, -0.005248361, -1267688.0, 43443.27, 0.0, 5.025063, 4.9677215 
4.088427e+2, 1.7117864e+2, -1224703.4, -1311226.5, -15582.889, -0.008083584, -0.0060946983, -1221982.4, 40462.586, 0.0, 5.023869, 4.9677224 
4.0882125e+2, 1.7614654e+2, -1180231.9, -1266210.5, -15799.757, -0.008631446, -0.00654448, -1177420.4, 36338.44, 0.0, 5.0226755, 4.9669194 
4.0879878e+2, 1.811116e+2, -1140227.0, -1230612.1, -18048.701, -0.008695764, -0.00071577705, -1136756.1, 28344.414, 0.0, 5.021455, 4.9629397 
4.0877435e+2, 1.8607502e+2, -1093610.0, -1180745.9, -18785.393, -0.007865289, -0.006260149, -1089732.6, 26726.664, 0.0, 5.0201807, 4.9637785 
4.0874985e+2, 1.9103852e+2, -1048144.6, -1133355.0, -19068.04, -0.007099928, -0.012180767, -1044072.25, 23745.063, 0.0, 5.0189056, 4.9637766 
4.0872535e+2, 1.9600199e+2, -1003546.6, -1087857.6, -19348.945, -0.0064152507, -0.017839717, -999318.2, 19857.13, 0.0, 5.01763, 4.9631243 
4.0870044e+2, 2.0096336e+2, -963467.56, -1052294.3, -20212.49, -0.0063027004, -0.010752373, -959084.5, 11469.443, 0.0, 5.016385, 4.9590583 
4.0867478e+2, 2.0592438e+2, -916152.5, -1001181.3, -20467.307, -0.0065355143, -0.004659733, -911482.3, 10453.517, 0.0, 5.0151477, 4.960265 
4.086491e+2, 2.1088551e+2, -870482.94, -953603.94, -20538.477, -0.006666181, 0.0006196838, -865685.0, 7631.568, 0.0, 5.013902, 4.9602685 
4.0862343e+2, 2.1584664e+2, -825457.44, -907458.7, -20607.104, -0.0068130563, 0.006100969, -820570.06, 4127.1265, 0.0, 5.0126567, 4.959772 
4.0859827e+2, 2.208043e+2, -786261.4, -874296.6, -20350.58, -0.0037979763, 0.013338159, -781784.7, -5672.3867, 0.0, 5.0114655, 4.9547567 
4.0857413e+2, 2.2575875e+2, -738497.75, -823058.75, -20412.082, 0.0050983345, -0.0037004484, -733828.4, -6268.862, 0.0, 5.0103855, 4.955888 
4.0855e+2, 2.3071323e+2, -692183.06, -775127.8, -20605.914, 0.013800226, -0.022146147, -687346.0, -8339.86, 0.0, 5.0093093, 4.95589 
4.085258e+2, 2.3566766e+2, -646497.25, -728628.56, -20780.434, 0.022278322, -0.04137857, -641538.9, -11085.399, 0.0, 5.0082297, 4.9553905 
4.0850213e+2, 2.4062072e+2, -607060.1, -695913.6, -19294.238, 0.029746713, -0.032881334, -603051.3, -21139.152, 0.0, 5.00718, 4.950013 
4.084802e+2, 2.455749e+2, -557196.94, -640813.94, -18187.451, 0.029219976, -0.016796645, -553412.3, -20059.959, 0.0, 5.006261, 4.952346 
4.0845832e+2, 2.5052917e+2, -510356.38, -592762.1, -18106.025, 0.026927898, -0.005339842, -506553.66, -21762.414, 0.0, 5.0053554, 4.952293 
4.0843636e+2, 2.554836e+2, -463741.34, -545266.25, -18033.918, 0.023970446, 0.008437222, -459930.28, -23701.912, 0.0, 5.004447, 4.952042 
4.0841797e+2, 2.6043326e+2, -431725.03, -532572.75, -15272.751, 0.041788694, 0.04813507, -429462.8, -41744.44, 0.0, 5.0039225, 4.9391627 
4.0840423e+2, 2.6537633e+2, -378063.97, -472996.66, -14454.263, 0.07656164, 0.021482, -375911.97, -36613.43, 0.0, 5.0034714, 4.942206 
4.0838903e+2, 2.7031797e+2, -328613.9, -423482.72, -13128.833, 0.10525996, -0.044917475, -326830.56, -35934.504, 0.0, 5.0028267, 4.942416 
4.0837285e+2, 2.7525845e+2, -279006.1, -374308.0, -11268.569, 0.13347182, -0.13135402, -277691.8, -35187.176, 0.0, 5.0021305, 4.9425764 
4.083688e+2, 2.802028e+2, -261952.56, -398781.25, 4550.313, 0.21899875, -0.007282984, -261801.4, -67731.26, 0.0, 5.0029364, 4.917064 
4.083655e+2, 2.8515193e+2, -185804.6, -271898.7, -2976.086, 0.21420053, 0.1350025, -185701.84, -40139.33, 0.0, 5.002174, 4.943829 
4.08352e+2, 2.9009452e+2, -143230.23, -224886.28, -5008.9146, 0.1435287, 0.09923379, -142924.13, -45809.316, 0.0, 4.9997582, 4.9437957 
4.0833783e+2, 2.950356e+2, -100442.68, -178001.3, -6406.007, 0.077364534, 0.04362345, -99917.13, -51235.53, 0.0, 4.997235, 4.9437604 
4.0832502e+2, 2.9999185e+2, -51500.582, -84617.34, -974.8453, 0.023888208, 0.0055462494, -51471.91, -51366.695, 0.0, 4.994714, 4.9698744 
4.0831572e+2, 3.0496618e+2, -60937.555, -93401.61, 4354.956, -0.024582468, 0.036899876, -60363.5, -60363.5, 0.0, 4.992416, 4.967027 
4.0830445e+2, 3.0994365e+2, -65771.2, -91645.555, 4212.4756, -0.075170726, 0.09141927, -65102.664, -65102.664, 0.0, 4.9900026, 4.9684114 
4.0829122e+2, 3.149253e+2, -70451.22, -90050.336, 3626.2573, -0.12267474, 0.17468978, -69801.8, -69801.8, 0.0, 4.9874363, 4.9697976 
4.1403e+2, 1.2145774e+2, -1667409.6, -1751621.4, -1315.2192, 0.005471313, 0.0039314055, -1667389.0, 82326.53, 0.0, 5.0341744, 4.9791946 
4.1402063e+2, 1.264341e+2, -1625410.1, -1712422.9, -5265.298, 0.015985414, 0.0012232239, -1625092.8, 75854.87, 0.0, 5.0332193, 4.976487 
4.140087e+2, 1.314104e+2, -1579221.4, -1664854.8, -5564.4165, 0.0069645527, -0.0016121602, -1578861.3, 73318.64, 0.0, 5.032309, 4.9764886 
4.1399676e+2, 1.3638668e+2, -1535157.1, -1621689.5, -5842.3555, -0.00213428, -0.0031886762, -1534764.5, 68647.95, 0.0, 5.0313993, 4.975026 
4.1398284e+2, 1.413607e+2, -1494184.1, -1584852.1, -10273.614, -0.0077760126, 0.01069313, -1493034.5, 61632.05, 0.0, 5.030455, 4.9714127 
4.1396558e+2, 1.4633243e+2, -1447509.4, -1535808.5, -11277.973, -0.007858656, 0.0062982407, -1446091.6, 59850.91, 0.0, 5.0294204, 4.9719324 
4.1394818e+2, 1.5130405e+2, -1401600.5, -1488334.3, -11553.923, -0.007914632, 0.00034636888, -1400087.8, 57131.715, 0.0, 5.0283794, 4.9719296 
4.1393077e+2, 1.5627566e+2, -1357061.9, -1443747.5, -11815.878, -0.008005995, -0.0051179584, -1355480.1, 53016.215, 0.0, 5.0273385, 4.970957 
4.1391158e+2, 1.612443e+2, -1316981.6, -1408387.5, -15381.179, -0.008260606, -0.0042513837, -1314462.8, 45339.664, 0.0, 5.0262566, 4.9669204 
4.1388914e+2, 1.6621178e+2, -1270654.4, -1359430.4, -16269.542, -0.008054347, -0.0059854793, -1267766.6, 43353.727, 0.0, 5.0250683, 4.96745 
4.1386658e+2, 1.7117935e+2, -1225075.1, -1312038.5, -16490.086, -0.0078084036, -0.0073264483, -1222053.3, 40383.89, 0.0, 5.0238733, 4.9674516 
4.1384402e+2, 1.7614694e+2, -1180603.6, -1267019.6, -16705.41, -0.0075996066, -0.008254812, -1177486.8, 36267.195, 0.0, 5.0226784, 4.966649 
4.138204e+2, 1.8111175e+2, -1140688.3, -1231622.9, -19023.266, -0.007128722, -0.0021635925, -1136869.0, 28229.51, 0.0, 5.0214596, 4.9626 
4.1379467e+2, 1.8607502e+2, -1094079.1, -1181782.0, -19763.582, -0.0059950473, -0.005709898, -1089831.3, 26628.531, 0.0, 5.020187, 4.9634285 
4.1376895e+2, 1.9103836e+2, -1048609.3, -1134387.6, -20043.13, -0.0049395915, -0.009566194, -1044157.06, 23663.135, 0.0, 5.018912, 4.9634266 
4.137432e+2, 1.9600171e+2, -1004007.0, -1088887.0, -20320.809, -0.0040010936, -0.013172323, -999392.9, 19787.775, 0.0, 5.0176373, 4.9627743 
4.13717e+2, 2.0096289e+2, -963621.5, -1052695.0, -21148.219, -0.004245232, -0.0053828214, -958855.44, 11706.304, 0.0, 5.016395, 4.9589224 
4.136899e+2, 2.0592356e+2, -916226.06, -1001419.9, -21417.822, -0.0061723324, -0.0019501073, -911144.7, 10801.544, 0.0, 5.0151596, 4.960185 
4.1366282e+2, 2.108843e+2, -870556.44, -953841.1, -21485.402, -0.008083505, 0.0005379609, -865340.4, 7989.207, 0.0, 5.0139136, 4.9601884 
4.136357e+2, 2.158451e+2, -825530.8, -907694.56, -21550.342, -0.010069375, 0.0032528983, -820221.56, 4491.2817, 0.0, 5.012668, 4.959692 
4.1360933e+2, 2.2080252e+2, -786530.5, -874846.9, -21226.85, -0.0073471684, 0.009483127, -781693.5, -5563.6523, 0.0, 5.011461, 4.9545727 
4.1358435e+2, 2.2575726e+2, -738861.6, -823677.1, -21221.473, 0.0036394915, -0.0022823932, -733848.2, -6271.927, 0.0, 5.0103636, 4.9556823 
4.1355935e+2, 2.3071216e+2, -692568.1, -775712.6, -21393.535, 0.014060326, -0.014720889, -687386.4, -8364.908, 0.0, 5.009276, 4.955697 
4.1353428e+2, 2.35667e+2, -646903.6, -729180.0, -21546.205, 0.023983283, -0.027746115, -641602.7, -11135.725, 0.0, 5.008186, 4.9552097 
4.135097e+2, 2.4062029e+2, -607228.8, -695990.6, -20010.62, 0.03183421, -0.015751073, -602926.2, -21001.164, 0.0, 5.00714, 4.9499993 
4.13487e+2, 2.4557373e+2, -557137.8, -640514.5, -18948.3, 0.033708557, -0.008268767, -553033.6, -19663.375, 0.0, 5.006236, 4.95246 
4.1346446e+2, 2.505272e+2, -510284.13, -592495.8, -18848.83, 0.034717016, -0.006178831, -506168.63, -21354.184, 0.0, 5.00534, 4.952391 
4.1344178e+2, 2.5548086e+2, -463655.8, -545032.94, -18758.666, 0.035091802, -0.0012180057, -459539.84, -23283.242, 0.0, 5.0044413, 4.952124 
4.1342244e+2, 2.6043049e+2, -430659.56, -529721.7, -15397.082, 0.050841425, 0.033524167, -428321.6, -40575.14, 0.0, 5.003863, 4.9401593 
4.1340792e+2, 2.6537624e+2, -377934.06, -469523.03, -13787.788, 0.075375155, 0.020129545, -375903.47, -36594.867, 0.0, 5.0030437, 4.9434967 
4.133921e+2, 2.7032143e+2, -329499.25, -419459.28, -11956.21, 0.091719404, -0.025711516, -327937.3, -37057.08, 0.0, 5.0020127, 4.9439945 
4.133751e+2, 2.7526626e+2, -280904.34, -369732.34, -9590.324, 0.10395828, -0.08607833, -279880.72, -37425.383, 0.0, 5.000931, 4.944442 
4.1336933e+2, 2.8021467e+2, -262295.47, -402747.75, 2965.3994, 0.16909105, 0.07355369, -262232.9, -68244.52, 0.0, 5.0033402, 4.9156647 
4.133646e+2, 2.851609e+2, -180567.02, -273089.4, -6239.088, 0.17617734, 0.1959331, -180148.19, -34642.734, 0.0, 5.0038395, 4.943218 
4.1335046e+2, 2.900998e+2, -139062.83, -225501.2, -7732.071, 0.1246984, 0.123679556, -138376.63, -41287.51, 0.0, 5.0010376, 4.9434805 
4.1333556e+2, 2.9503775e+2, -97345.336, -178038.53, -8589.7705, 0.074039295, 0.035181366, -96441.09, -47759.13, 0.0, 4.998128, 4.943741 
4.1332152e+2, 2.9999235e+2, -48218.2, -81281.86, -2589.3936, 0.028891843, -0.023351751, -48016.637, -47898.977, 0.0, 4.9952717, 4.971203 
4.133094e+2, 3.049721e+2, -56357.348, -87585.04, 3432.1653, -0.02699655, 0.041626114, -55984.574, -55984.574, 0.0, 4.9930387, 4.969252 
4.1329485e+2, 3.099555e+2, -61197.754, -87420.45, 4058.6719, -0.09508369, 0.13705523, -60583.934, -60583.934, 0.0, 4.9907866, 4.9701395 
4.13278e+2, 3.1494248e+2, -65885.02, -87417.54, 4243.8164, -0.17035875, 0.26177377, -65078.805, -65078.805, 0.0, 4.9883814, 4.9710283 
4.190644e+2, 1.2146133e+2, -1666945.5, -1752062.0, -1820.4027, 0.007494722, -0.0035312378, -1666906.6, 82772.62, 0.0, 5.0344768, 4.9789023 
4.1905373e+2, 1.2643841e+2, -1624958.9, -1713073.3, -5445.692, 0.014690165, 0.004668747, -1624623.6, 76280.72, 0.0, 5.0335584, 4.976109 
4.1904092e+2, 1.3141412e+2, -1578811.8, -1665529.1, -5757.831, 0.005874567, -0.00036658952, -1578431.1, 73711.49, 0.0, 5.0326343, 4.9761095 
4.190281e+2, 1.3638978e+2, -1534811.5, -1622396.5, -6047.313, -0.0029571825, -0.0041614687, -1534395.9, 68985.23, 0.0, 5.0317016, 4.9746475 
4.1901323e+2, 1.413633e+2, -1493887.8, -1585538.6, -10571.453, -0.008418043, 0.008418075, -1492684.3, 61956.08, 0.0, 5.0307293, 4.971055 
4.189949e+2, 1.4633472e+2, -1447268.6, -1536502.4, -11588.818, -0.008623696, 0.004534323, -1445788.1, 60131.105, 0.0, 5.029671, 4.971583 
4.189765e+2, 1.5130605e+2, -1401433.3, -1489061.8, -11860.216, -0.008807967, -0.0008751661, -1399856.5, 57342.695, 0.0, 5.028605, 4.971581 
4.18958e+2, 1.5627737e+2, -1356974.6, -1444508.5, -12113.1, -0.009018693, -0.0058015184, -1355329.3, 53149.77, 0.0, 5.027536, 4.9706097 
4.189377e+2, 1.6124575e+2, -1316863.3, -1409009.6, -15769.255, -0.009202601, -0.004622036, -1314239.3, 45548.742, 0.0, 5.0264378, 4.9666295 
4.189141e+2, 1.6621289e+2, -1270473.0, -1359985.3, -16697.63, -0.008393272, -0.0067297556, -1267459.6, 43649.254, 0.0, 5.0252624, 4.967175 
4.1889045e+2, 1.7118016e+2, -1224861.9, -1312577.4, -16937.424, -0.0075021065, -0.00850345, -1221705.0, 40723.734, 0.0, 5.024078, 4.9671764 
4.1886678e+2, 1.7614742e+2, -1180371.4, -1267547.9, -17170.494, -0.0066402094, -0.009873215, -1177111.4, 36637.125, 0.0, 5.0228896, 4.9663744 
4.1884196e+2, 1.8111195e+2, -1140512.5, -1232357.0, -19555.021, -0.005765685, -0.00345145, -1136522.4, 28573.602, 0.0, 5.021687, 4.9622493 
4.1881505e+2, 1.8607506e+2, -1093796.1, -1182457.3, -20294.727, -0.0043338537, -0.0050834506, -1089371.4, 27088.24, 0.0, 5.020449, 4.96308 
4.1878805e+2, 1.9103825e+2, -1048268.7, -1135034.0, -20563.523, -0.0029015085, -0.0070037288, -1043641.8, 24180.805, 0.0, 5.0191936, 4.963078 
4.1876107e+2, 1.9600147e+2, -1003656.2, -1089526.9, -20827.09, -0.001563869, -0.008691798, -998871.4, 20314.188, 0.0, 5.017922, 4.962426 
4.1873366e+2, 2.0096247e+2, -963067.0, -1052779.8, -21613.861, -0.0018902476, -0.000058329304, -958131.3, 12437.707, 0.0, 5.016655, 4.958778 
4.1870517e+2, 2.0592275e+2, -915746.9, -1001400.5, -21928.896, -0.0053606853, 0.0007682209, -910459.1, 11497.024, 0.0, 5.015364, 4.960102 
4.1867664e+2, 2.1088317e+2, -870291.25, -953919.75, -22019.072, -0.008936772, 0.00035972882, -864848.0, 8494.221, 0.0, 5.014044, 4.960107 
4.186481e+2, 2.1584357e+2, -825541.06, -907898.94, -22101.045, -0.012636413, 0.00015582127, -819985.0, 4743.225, 0.0, 5.012702, 4.9596114 
4.1862047e+2, 2.2080074e+2, -786962.6, -875586.2, -21731.637, -0.009985409, 0.0053603076, -781920.56, -5773.0596, 0.0, 5.011423, 4.9543376 
4.1859457e+2, 2.257558e+2, -739075.1, -824269.3, -21690.361, 0.002468781, -0.0009549535, -733870.75, -6277.8237, 0.0, 5.0103993, 4.9554563 
4.1856867e+2, 2.3071109e+2, -692623.56, -776210.1, -21903.078, 0.014086375, -0.0074378136, -687231.8, -8195.221, 0.0, 5.0093646, 4.955478 
4.1854268e+2, 2.3566635e+2, -646909.75, -729632.06, -22107.924, 0.025200242, -0.014521565, -641372.0, -10891.476, 0.0, 5.0082903, 4.9549975 
4.1851726e+2, 2.4061993e+2, -607167.94, -696316.44, -20537.586, 0.03385658, 0.00291127, -602664.1, -20727.244, 0.0, 5.0072384, 4.9498425 
4.1849387e+2, 2.4557267e+2, -556582.56, -639931.3, -19492.59, 0.038344, 0.0020933698, -552249.2, -18862.191, 0.0, 5.0063715, 4.9526014 
4.1847062e+2, 2.5052527e+2, -509551.94, -591796.0, -19238.908, 0.042719387, -0.006675252, -505274.0, -20436.662, 0.0, 5.005541, 4.952542 
4.1844726e+2, 2.5547808e+2, -462672.53, -544187.25, -18863.422, 0.0465224, -0.012282901, -458518.97, -22233.672, 0.0, 5.0047345, 4.952282 
4.184273e+2, 2.6042727e+2, -429316.22, -527959.5, -14945.814, 0.06334688, 0.015981106, -427101.44, -39322.773, 0.0, 5.004187, 4.94057 
4.184117e+2, 2.6537538e+2, -377228.78, -466915.6, -14820.66, 0.078237765, 0.012205637, -374843.16, -35516.96, 0.0, 5.0030546, 4.944224 
4.183947e+2, 2.7032343e+2, -330856.25, -417394.63, -15825.462, 0.082747295, -0.02000313, -328053.03, -37174.445, 0.0, 5.001356, 4.9447966 
4.1837665e+2, 2.7527145e+2, -285375.88, -368563.3, -17499.89, 0.08128034, -0.06379764, -281844.4, -39412.984, 0.0, 4.9992447, 4.945337 
4.1837123e+2, 2.802243e+2, -274757.97, -420806.06, -7995.961, 0.13314687, 0.16064401, -274321.53, -80393.85, 0.0, 5.0014277, 4.9102316 
4.1836622e+2, 2.851694e+2, -182388.81, -274474.84, -17404.74, 0.15001105, 0.2868184, -179209.03, -33756.684, 0.0, 5.0029545, 4.943183 
4.183505e+2, 2.9010502e+2, -139905.1, -226233.53, -14892.853, 0.11181467, 0.16845313, -137408.1, -40344.563, 0.0, 5.0004697, 4.9435368 
4.1833407e+2, 2.9504e+2, -97826.06, -178303.72, -12699.935, 0.0721939, 0.036961515, -95869.49, -47188.51, 0.0, 4.9976892, 4.9438987 
4.1831845e+2, 2.999926e+2, -47905.875, -79103.15, -4373.3945, 0.03461957, -0.0529767, -47304.387, -47172.164, 0.0, 4.9948473, 4.972352 
4.1830453e+2, 3.0497727e+2, -54298.375, -82519.08, 3333.9146, -0.016954977, 0.03353548, -53909.867, -53909.867, 0.0, 4.992848, 4.971264 
4.182882e+2, 3.0996606e+2, -59970.957, -83946.53, 6204.3486, -0.08581586, 0.1532145, -58460.563, -58460.563, 0.0, 4.990498, 4.9717174 
4.182696e+2, 3.1495756e+2, -66792.64, -86037.64, 9561.241, -0.16849439, 0.2993742, -62850.117, -62850.117, 0.0, 4.9875617, 4.9721756 
4.2410067e+2, 1.214683e+2, -1657541.3, -1748334.8, -2.534101, 0.0074153426, 0.00016363226, -1657541.3, 92069.35, 0.0, 5.0378246, 4.978489 
4.2408898e+2, 1.2644422e+2, -1615857.8, -1709475.6, -4057.3943, 0.014076817, 0.0009156629, -1615682.3, 85164.58, 0.0, 5.0368004, 4.975712 
4.2407516e+2, 1.3141964e+2, -1570321.1, -1662253.0, -4389.6104, 0.0054122633, -0.0026590317, -1570112.0, 81975.7, 0.0, 5.0356784, 4.9757113 
4.2406133e+2, 1.3639504e+2, -1526900.4, -1619422.5, -4699.245, -0.0031127501, -0.0050476333, -1526662.3, 76666.48, 0.0, 5.0345564, 4.9742484 
4.2404544e+2, 1.4136826e+2, -1486465.8, -1582700.5, -9306.152, -0.008158901, 0.008271014, -1485574.1, 69016.81, 0.0, 5.0333977, 4.970705 
4.2402598e+2, 1.4633931e+2, -1440336.4, -1533914.0, -10340.675, -0.008166914, 0.004207808, -1439207.4, 66666.305, 0.0, 5.032181, 4.971233 
4.2400637e+2, 1.5131025e+2, -1394966.1, -1486704.6, -10635.207, -0.008150212, -0.0013999634, -1393749.4, 63407.83, 0.0, 5.0309615, 4.971233 
4.2398682e+2, 1.562812e+2, -1350958.6, -1442370.5, -10913.058, -0.008118034, -0.006549252, -1349673.8, 58767.05, 0.0, 5.0297422, 4.970265 
4.2396533e+2, 1.6124922e+2, -1311213.8, -1407002.4, -14646.842, -0.008225046, -0.005478996, -1309024.3, 50729.08, 0.0, 5.028508, 4.9663115 
4.2394045e+2, 1.6621608e+2, -1265153.4, -1358155.8, -15611.037, -0.007865156, -0.0073543973, -1262602.9, 48474.426, 0.0, 5.0272255, 4.9668546 
4.2391554e+2, 1.7118305e+2, -1219852.5, -1310908.4, -15886.856, -0.0074029407, -0.008915604, -1217160.3, 45239.92, 0.0, 5.0259395, 4.9668555 
4.2389056e+2, 1.7615001e+2, -1175655.6, -1266029.4, -16155.786, -0.006913063, -0.010114772, -1172854.4, 40868.766, 0.0, 5.0246534, 4.9660535 
4.2386448e+2, 1.8111424e+2, -1136067.0, -1230969.0, -18569.371, -0.0061264955, -0.0032756454, -1132562.9, 32510.79, 0.0, 5.0233564, 4.961933 
4.2383632e+2, 1.8607715e+2, -1089616.6, -1181174.8, -19275.395, -0.0042509483, -0.0038819532, -1085724.1, 30715.822, 0.0, 5.022024, 4.9627767 
4.2380813e+2, 1.9104014e+2, -1044324.75, -1133864.8, -19513.436, -0.0022347588, -0.004757657, -1040257.0, 27548.41, 0.0, 5.0206895, 4.9627767 
4.237799e+2, 1.9600315e+2, -999899.06, -1088446.6, -19745.256, -0.0001697065, -0.005405069, -995695.6, 23475.197, 0.0, 5.0193543, 4.9621267 
4.2375124e+2, 2.0096391e+2, -959484.6, -1051513.0, -20585.094, 0.00022940908, 0.0033273993, -955089.94, 15466.979, 0.0, 5.0179725, 4.9585977 
4.2372137e+2, 2.0592383e+2, -912738.8, -1000377.5, -20997.244, -0.0027822696, 0.001957057, -907967.8, 13979.816, 0.0, 5.0164795, 4.9599366 
4.2369145e+2, 2.1088383e+2, -867793.6, -953134.56, -21182.71, -0.0059393593, -0.0008407263, -862825.06, 10512.3545, 0.0, 5.0149827, 4.9599433 
4.236615e+2, 2.1584381e+2, -823488.1, -907318.94, -21364.742, -0.009247227, -0.003539196, -818357.25, 6369.9316, 0.0, 5.013486, 4.9594502 
4.2363247e+2, 2.2080077e+2, -785411.75, -875416.25, -20915.674, -0.0066356426, 0.0016111431, -780788.75, -4640.1763, 0.0, 5.0120616, 4.954107 
4.2360523e+2, 2.2575635e+2, -738303.7, -824409.06, -20674.996, 0.0035138899, 0.0024238199, -733596.7, -6006.4497, 0.0, 5.0107393, 4.9552617 
4.2357802e+2, 2.3071215e+2, -692674.44, -776796.9, -20755.328, 0.013206752, 0.003036763, -687832.25, -8802.123, 0.0, 5.0094132, 4.955268 
4.235508e+2, 2.3566788e+2, -647664.44, -730616.94, -20814.146, 0.023157403, 0.002538453, -642734.8, -12264.002, 0.0, 5.0080853, 4.9547715 
4.2352426e+2, 2.4062157e+2, -608351.06, -696898.3, -18997.326, 0.03206744, 0.02165656, -604447.4, -22520.018, 0.0, 5.0067368, 4.949904 
4.2349988e+2, 2.4557331e+2, -559056.3, -640907.06, -18155.133, 0.038512073, 0.0109360935, -555210.06, -21822.494, 0.0, 5.005403, 4.9527307 
4.2347568e+2, 2.5052485e+2, -513357.22, -593075.8, -18285.105, 0.04502563, -0.009032678, -509363.25, -24514.787, 0.0, 5.0040784, 4.9527693 
4.2345142e+2, 2.5547665e+2, -467872.78, -545800.25, -18446.48, 0.051196404, -0.026897397, -463726.84, -27420.059, 0.0, 5.0027494, 4.9526095 
4.234303e+2, 2.604255e+2, -435197.3, -527962.25, -14579.34, 0.067916095, -0.009857742, -432959.9, -45156.72, 0.0, 5.0015516, 4.9418387 
4.2341384e+2, 2.6537633e+2, -384749.28, -471713.56, -12661.626, 0.07885219, 0.016553901, -382943.3, -43621.61, 0.0, 5.0002217, 4.944227 
4.2339653e+2, 2.7032626e+2, -337897.34, -424848.84, -10973.7705, 0.08495639, 0.016360069, -336533.78, -45680.004, 0.0, 4.99878, 4.944 
4.2337856e+2, 2.7527454e+2, -290805.9, -378361.22, -8806.874, 0.09117159, -0.0043141516, -289928.84, -47526.605, 0.0, 4.997303, 4.9437213 
4.2337164e+2, 2.8022557e+2, -284448.06, -417270.8, 8445.153, 0.14056379, 0.20237398, -283913.25, -89998.49, 0.0, 4.9961567, 4.913782 
4.2336348e+2, 2.851708e+2, -203564.17, -277163.0, -1616.0293, 0.1451613, 0.29983336, -203528.7, -58088.375, 0.0, 4.994674, 4.9451084 
4.233459e+2, 2.9010704e+2, -159543.95, -230264.14, -4773.2583, 0.106629476, 0.1735266, -159223.23, -62175.145, 0.0, 4.99283, 4.9448504 
4.2332792e+2, 2.9504195e+2, -115312.98, -183502.28, -7473.404, 0.0701511, 0.032366335, -114503.516, -65834.95, 0.0, 4.9909286, 4.944592 
4.2331097e+2, 2.999946e+2, -61285.08, -82520.51, -4246.3794, 0.036646385, -0.06495497, -60467.43, -60346.957, 0.0, 4.9892154, 4.973337 
4.232963e+2, 3.0498227e+2, -62737.434, -82625.91, -533.3525, -0.009958711, 0.025492571, -62723.14, -62723.14, 0.0, 4.9887457, 4.97271 
4.2328042e+2, 3.0997393e+2, -62927.953, -80843.555, -576.93085, -0.061468355, 0.14105712, -62909.395, -62909.395, 0.0, 4.988411, 4.9733505 
4.2326337e+2, 3.1496766e+2, -63069.207, -79112.05, -672.5294, -0.114004016, 0.27072945, -63041.063, -63041.063, 0.0, 4.9880066, 4.973991 
4.291383e+2, 1.2147674e+2, -1658173.1, -1749649.3, -203.4386, 0.005380703, 0.0071436283, -1658172.8, 91355.164, 0.0, 5.0378265, 4.9780583 
4.291257e+2, 1.2645093e+2, -1616458.3, -1710743.9, -4907.299, 0.013384302, -0.005144665, -1616203.6, 84577.18, 0.0, 5.036804, 4.9752965 
4.291108e+2, 1.314262e+2, -1570918.4, -1663518.8, -5237.874, 0.0051323106, -0.0061263056, -1570623.0, 81399.97, 0.0, 5.035682, 4.9752955 
4.290959e+2, 1.3640143e+2, -1527494.9, -1620686.8, -5547.256, -0.0030182437, -0.0059189163, -1527165.8, 76099.7, 0.0, 5.03456, 4.9738326 
4.2907885e+2, 1.4137441e+2, -1486973.5, -1583794.1, -10233.318, -0.007706153, 0.008868675, -1485903.6, 68626.25, 0.0, 5.0334034, 4.9703445 
4.2905816e+2, 1.4634505e+2, -1440849.1, -1535022.6, -11263.747, -0.0075318925, 0.0044331136, -1439520.6, 66296.04, 0.0, 5.0321865, 4.970866 
4.2903742e+2, 1.513156e+2, -1395475.9, -1487810.5, -11557.917, -0.00737909, -0.0015545005, -1394051.1, 63053.16, 0.0, 5.030967, 4.970866 
4.2901662e+2, 1.5628614e+2, -1351463.9, -1443470.6, -11835.037, -0.0072198543, -0.007079083, -1349965.9, 58426.027, 0.0, 5.029748, 4.9698997 
4.2899388e+2, 1.6125378e+2, -1311669.3, -1408017.3, -15624.662, -0.007373285, -0.0062054223, -1309198.8, 50509.35, 0.0, 5.0285163, 4.965973 
4.2896768e+2, 1.6622032e+2, -1265605.3, -1359169.5, -16588.82, -0.007467581, -0.007830218, -1262751.1, 48284.348, 0.0, 5.027234, 4.9665155 
4.289414e+2, 1.7118698e+2, -1220304.0, -1311921.6, -16863.307, -0.0075067994, -0.00910131, -1217298.6, 45063.016, 0.0, 5.0259476, 4.966516 
4.289151e+2, 1.7615363e+2, -1176106.1, -1267041.0, -17130.36, -0.0075441548, -0.009994391, -1172986.1, 40701.785, 0.0, 5.024661, 4.9657145 
4.288877e+2, 1.811176e+2, -1136467.4, -1231875.0, -19583.12, -0.006889678, -0.0026960794, -1132604.3, 32437.215, 0.0, 5.023364, 4.9616294 
4.2885828e+2, 1.8608029e+2, -1089999.6, -1182033.9, -20289.195, -0.004566818, -0.0025655476, -1085725.4, 30684.871, 0.0, 5.02203, 4.9624887 
4.2882878e+2, 1.9104308e+2, -1044711.0, -1134720.8, -20524.7, -0.002167979, -0.0026652976, -1040251.7, 27526.328, 0.0, 5.0206933, 4.9624896 
4.2879927e+2, 1.9600588e+2, -1000288.6, -1089299.8, -20753.844, 0.00023703022, -0.002501783, -995687.5, 23458.328, 0.0, 5.0193563, 4.9618406 
4.2876923e+2, 2.0096639e+2, -959747.5, -1052128.4, -21705.514, 0.0009118638, 0.0062549505, -954901.8, 15632.75, 0.0, 5.0179796, 4.9583898 
4.2873797e+2, 2.0592591e+2, -913000.0, -1000999.94, -22139.635, -0.0011977436, 0.0029461696, -907743.94, 14185.202, 0.0, 5.0164876, 4.9597254 
4.2870665e+2, 2.108855e+2, -868061.06, -953762.25, -22321.352, -0.0034025847, -0.0017783713, -862595.9, 10726.946, 0.0, 5.0149894, 4.9597306 
4.2867532e+2, 2.158451e+2, -823761.7, -907952.0, -22499.512, -0.00582864, -0.006298466, -818126.06, 6590.263, 0.0, 5.0134907, 4.9592366 
4.2864487e+2, 2.2080185e+2, -785677.4, -876108.0, -21979.9, -0.002939176, -0.00063934486, -780618.0, -4478.1553, 0.0, 5.0120773, 4.953868 
4.2861608e+2, 2.2575785e+2, -738393.4, -824664.9, -21691.299, 0.0050869854, 0.0055421623, -733246.56, -5668.434, 0.0, 5.0107465, 4.955175 
4.2858735e+2, 2.3071417e+2, -692813.8, -777054.44, -21743.553, 0.012253681, 0.011885568, -687532.6, -8518.663, 0.0, 5.009404, 4.955186 
4.285586e+2, 2.3567043e+2, -647853.4, -730876.06, -21774.209, 0.019537607, 0.017450236, -642489.25, -12039.001, 0.0, 5.008061, 4.9546947 
4.2853057e+2, 2.4062441e+2, -608397.7, -696733.94, -20019.537, 0.026435725, 0.039346, -604072.44, -22167.574, 0.0, 5.0066953, 4.9499903 
4.2850477e+2, 2.4557543e+2, -559262.2, -641206.9, -19222.832, 0.032292087, 0.02207948, -554976.94, -21602.982, 0.0, 5.005375, 4.952661 
4.284791e+2, 2.5052613e+2, -513518.94, -593428.6, -19311.668, 0.038086016, -0.004488178, -509096.66, -24252.02, 0.0, 5.00407, 4.9526744 
4.284533e+2, 2.5547707e+2, -467990.25, -546206.0, -19431.904, 0.04351294, -0.028617974, -463428.63, -27115.906, 0.0, 5.002761, 4.9524894 
4.2843053e+2, 2.6042542e+2, -432835.28, -522999.1, -15588.345, 0.05841075, -0.022368295, -430216.3, -42401.805, 0.0, 5.0015855, 4.9436293 
4.2841253e+2, 2.653785e+2, -382410.3, -464830.0, -12691.006, 0.061489288, 0.011791367, -380500.4, -41196.79, 0.0, 4.9999905, 4.946868 
4.2839372e+2, 2.7033204e+2, -336323.44, -417225.84, -10435.061, 0.05627774, 0.030383894, -334999.16, -44206.5, 0.0, 4.998223, 4.946961 
4.2837417e+2, 2.7528456e+2, -289998.2, -369997.44, -7701.3164, 0.0489028, 0.031932626, -289263.56, -46972.004, 0.0, 4.996422, 4.9470024 
4.2836356e+2, 2.802377e+2, -276203.94, -399334.97, 5382.797, 0.07706871, 0.20843922, -275969.06, -82191.32, 0.0, 4.9962716, 4.9200826 
4.283533e+2, 2.851797e+2, -202981.47, -283552.63, -4127.7134, 0.090195134, 0.27161872, -202770.55, -57431.04, 0.0, 4.9956393, 4.942987 
4.2833567e+2, 2.9011378e+2, -159492.47, -235941.03, -6819.6587, 0.07096633, 0.1544962, -158888.88, -61913.793, 0.0, 4.9935656, 4.9429917 
4.2831758e+2, 2.9504684e+2, -115792.66, -188467.97, -9053.986, 0.051628854, 0.023640389, -114681.68, -66061.63, 0.0, 4.9914355, 4.9429955 
4.2830044e+2, 2.9999864e+2, -59983.652, -81191.164, -5205.8, 0.03131404, -0.06327597, -58774.703, -58690.246, 0.0, 4.989479, 4.973928 
4.2828575e+2, 3.0498624e+2, -60819.504, -78992.445, -974.43, -0.010438514, 0.020967206, -60767.406, -60767.406, 0.0, 4.988885, 4.9742217 
4.2826974e+2, 3.099779e+2, -61364.98, -77743.86, -706.3881, -0.062310457, 0.13296136, -61334.57, -61334.57, 0.0, 4.9884777, 4.9747405 
4.2825234e+2, 3.1497163e+2, -61861.484, -76545.76, -490.20554, -0.11977366, 0.2616185, -61845.14, -61845.14, 0.0, 4.9880004, 4.9752593 
4.3417588e+2, 1.2148511e+2, -1658723.1, -1750794.3, -402.73898, 0.0027863374, 0.013521292, -1658721.4, 90724.42, 0.0, 5.037829, 4.977683 
4.3416244e+2, 1.2645763e+2, -1617059.3, -1712012.0, -5756.8086, 0.01268197, -0.0111719435, -1616711.5, 84003.16, 0.0, 5.036808, 4.9748807 
4.3414646e+2, 1.3143274e+2, -1571516.0, -1664784.4, -6085.743, 0.0048508495, -0.009578981, -1571120.6, 80837.66, 0.0, 5.035686, 4.9748793 
4.3413046e+2, 1.3640781e+2, -1528089.8, -1621951.0, -6394.9146, -0.0029169472, -0.006794044, -1527656.1, 75546.13, 0.0, 5.034564, 4.9734163 
4.3411228e+2, 1.4138053e+2, -1487486.4, -1584899.4, -11159.327, -0.007255773, 0.00949061, -1486224.4, 68244.555, 0.0, 5.0334086, 4.9699802 
4.340904e+2, 1.4635079e+2, -1441361.6, -1536131.8, -12186.731, -0.0069008796, 0.0046834513, -1439819.6, 65940.06, 0.0, 5.0321927, 4.9704995 
4.340684e+2, 1.5132092e+2, -1395985.4, -1488916.8, -12480.539, -0.0066074785, -0.0016967909, -1394338.5, 62712.832, 0.0, 5.030973, 4.9704995 
4.3404642e+2, 1.5629107e+2, -1351969.0, -1444571.3, -12756.94, -0.006316688, -0.007609441, -1350243.8, 58099.242, 0.0, 5.0297537, 4.969534 
4.3402243e+2, 1.6125832e+2, -1312131.6, -1409047.4, -16599.652, -0.0065579056, -0.006905729, -1309367.4, 50295.688, 0.0, 5.028525, 4.9656296 
4.339949e+2, 1.6622457e+2, -1266057.3, -1360183.4, -17566.348, -0.007105262, -0.008286889, -1262885.8, 48107.883, 0.0, 5.027243, 4.9661765 
4.339673e+2, 1.711909e+2, -1220755.5, -1312935.1, -17839.506, -0.0076271016, -0.009290037, -1217423.5, 44899.684, 0.0, 5.025956, 4.9661765 
4.3393967e+2, 1.7615725e+2, -1176556.6, -1268052.9, -18104.68, -0.008172892, -0.009899182, -1173104.5, 40548.242, 0.0, 5.024669, 4.9653745 
4.3391094e+2, 1.8112095e+2, -1136874.6, -1232795.5, -20597.434, -0.007641456, -0.0021075993, -1132638.6, 32370.59, 0.0, 5.0233717, 4.961321 
4.338802e+2, 1.8608342e+2, -1090383.1, -1182893.0, -21304.934, -0.0048739584, -0.0012542318, -1085712.4, 30668.082, 0.0, 5.0220356, 4.9622 
4.3384942e+2, 1.91046e+2, -1045097.6, -1135576.8, -21537.9, -0.0020875658, -0.00061588467, -1040232.3, 27518.379, 0.0, 5.020697, 4.962202 
4.3381864e+2, 1.960086e+2, -1000678.56, -1090152.8, -21764.37, 0.0006623078, 0.00032073414, -995665.4, 23455.506, 0.0, 5.0193586, 4.961554 
4.3378723e+2, 2.0096888e+2, -960024.6, -1052774.6, -22814.6, 0.0014559842, 0.009308094, -954716.5, 15795.619, 0.0, 5.0179873, 4.9581714 
4.3375453e+2, 2.0592801e+2, -913261.6, -1001622.3, -23281.459, 0.0001724104, 0.0041018394, -907502.7, 14407.735, 0.0, 5.0164967, 4.9595137 
4.3372184e+2, 2.108872e+2, -868328.8, -954389.94, -23459.426, -0.0010757294, -0.0026223091, -862349.44, 10958.571, 0.0, 5.014996, 4.959518 
4.336891e+2, 2.1584639e+2, -824035.7, -908585.0, -23633.719, -0.0026155096, -0.009036818, -817877.9, 6827.468, 0.0, 5.0134954, 4.9590225 
4.3365726e+2, 2.2080292e+2, -786040.56, -877010.44, -23027.385, 0.00082414923, -0.0026558957, -780543.75, -4412.414, 0.0, 5.012093, 4.953554 
4.3362698e+2, 2.2575933e+2, -738486.7, -824919.2, -22720.566, 0.006832824, 0.008474537, -732878.06, -5311.595, 0.0, 5.0107536, 4.955081 
4.3359667e+2, 2.3071612e+2, -692956.7, -777310.5, -22744.75, 0.011486957, 0.019890547, -687214.8, -8216.389, 0.0, 5.009396, 4.955097 
4.3356633e+2, 2.3567289e+2, -648045.7, -731133.7, -22747.25, 0.016117763, 0.030861039, -642225.75, -11795.272, 0.0, 5.0080366, 4.954611 
4.3353683e+2, 2.406274e+2, -608718.8, -697167.2, -21049.744, 0.02068046, 0.05869937, -603964.75, -22083.613, 0.0, 5.0066543, 4.9498672 
4.3350956e+2, 2.4557777e+2, -559474.75, -641502.25, -20269.258, 0.025731139, 0.036041755, -554739.5, -21381.574, 0.0, 5.005347, 4.9525824 
4.334824e+2, 2.505276e+2, -513687.22, -593776.94, -20316.955, 0.030844573, 0.0016287694, -508828.1, -23989.25, 0.0, 5.0040617, 4.95257 
4.334552e+2, 2.5547767e+2, -468114.2, -546607.2, -20396.055, 0.035566747, -0.030011177, -463130.75, -26813.613, 0.0, 5.0027723, 4.9523597 
4.3343106e+2, 2.6042512e+2, -431728.9, -520767.16, -16717.213, 0.051377058, -0.03255457, -428693.66, -40866.098, 0.0, 5.00162, 4.944406 
4.3341112e+2, 2.6538005e+2, -380144.1, -457911.16, -13229.881, 0.044903502, 0.0011925675, -377955.03, -38663.473, 0.0, 4.99976, 4.9493413 
4.3339008e+2, 2.7033675e+2, -334819.78, -409568.28, -10406.681, 0.024535848, 0.025554309, -333397.97, -42656.21, 0.0, 4.997668, 4.9497547 
4.3336827e+2, 2.7529308e+2, -289258.44, -361599.63, -7107.195, -0.00026578287, 0.03632428, -288566.8, -46371.49, 0.0, 4.9955416, 4.950116 
4.3335557e+2, 2.802498e+2, -273897.75, -394991.6, 3810.2112, 0.0145136295, 0.21723187, -273778.0, -80137.36, 0.0, 4.996386, 4.9216423 
4.3334457e+2, 2.8518987e+2, -202491.48, -289865.6, -7124.149, 0.042561166, 0.2744492, -201914.4, -56687.89, 0.0, 4.996606, 4.9407554 
4.3332645e+2, 2.901214e+2, -159532.88, -241539.14, -9350.211, 0.03970427, 0.1562262, -158480.3, -61587.016, 0.0, 4.9943027, 4.9410224 
4.3330783e+2, 2.9505226e+2, -116363.484, -193352.7, -11118.301, 0.034578387, 0.025399297, -114790.01, -66223.914, 0.0, 4.9919434, 4.9412885 
4.3329024e+2, 3.0000272e+2, -59018.92, -80327.25, -6347.3994, 0.026440008, -0.06050841, -57271.445, -57223.605, 0.0, 4.989743, 4.974296 
4.3327576e+2, 3.0498987e+2, -59011.99, -75252.41, -1264.216, -0.0057965745, 0.012529797, -58914.164, -58914.164, 0.0, 4.9890246, 4.9757023 
4.3325981e+2, 3.0998117e+2, -59912.246, -74536.42, -684.7627, -0.05315685, 0.11495669, -59880.254, -59880.254, 0.0, 4.9885445, 4.9760995 
4.3324244e+2, 3.1497464e+2, -60763.91, -73870.69, -156.92343, -0.11067162, 0.2366003, -60762.03, -60762.03, 0.0, 4.9879947, 4.9764967 
4.392135e+2, 1.2149342e+2, -1657985.8, -1751205.0, 49.33432, 0.00027051303, 0.01837337, -1657985.8, 91378.54, 0.0, 5.0382442, 4.977346 
4.3919918e+2, 1.2646453e+2, -1616585.9, -1712735.8, -5900.855, 0.011924406, -0.016333938, -1616225.1, 84421.58, 0.0, 5.0371723, 4.9744663 
4.391821e+2, 1.3143943e+2, -1571027.8, -1665503.1, -6235.6, 0.0045539774, -0.01260234, -1570618.0, 81274.19, 0.0, 5.0360556, 4.9744644 
4.3916503e+2, 1.364143e+2, -1527594.4, -1622669.0, -6552.247, -0.002788565, -0.0076428726, -1527144.9, 75993.05, 0.0, 5.034936, 4.9730005 
4.3914574e+2, 1.4138676e+2, -1486929.0, -1585483.6, -11402.413, -0.0067710853, 0.009947113, -1485627.0, 68780.22, 0.0, 5.033777, 4.9696116 
4.3912265e+2, 1.4635661e+2, -1440858.5, -1536742.3, -12439.093, -0.0062654917, 0.004851459, -1439271.0, 66430.86, 0.0, 5.0325418, 4.9701314 
4.3909946e+2, 1.5132634e+2, -1395542.4, -1489558.5, -12743.006, -0.005846112, -0.0018557053, -1393845.8, 63151.77, 0.0, 5.031302, 4.970131 
4.3907627e+2, 1.5629607e+2, -1351585.1, -1445241.1, -13028.552, -0.005426931, -0.008105952, -1349806.5, 58486.785, 0.0, 5.0300617, 4.9691663 
4.3905103e+2, 1.6126297e+2, -1311783.6, -1409687.9, -16926.37, -0.005772793, -0.007533053, -1308939.9, 50677.07, 0.0, 5.028809, 4.9652834 
4.3902215e+2, 1.6622889e+2, -1265795.3, -1360842.9, -17892.34, -0.0067068557, -0.008742005, -1262538.6, 48412.344, 0.0, 5.0274925, 4.9658403 
4.389932e+2, 1.7119491e+2, -1220611.6, -1313651.6, -18156.088, -0.007611523, -0.009574007, -1217194.1, 45089.793, 0.0, 5.0261645, 4.96584 
4.3896425e+2, 1.7616095e+2, -1176545.9, -1268832.3, -18409.152, -0.008549914, -0.010004876, -1173009.1, 40607.65, 0.0, 5.024832, 4.965039 
4.389342e+2, 1.8112437e+2, -1136908.5, -1233533.0, -20919.691, -0.00810874, -0.0017231985, -1132573.8, 32402.578, 0.0, 5.0235057, 4.9610133 
4.3890217e+2, 1.8608662e+2, -1090361.4, -1183548.0, -21617.148, -0.0050621596, -0.000079342055, -1085590.9, 30758.947, 0.0, 5.022177, 4.9619164 
4.3887007e+2, 1.9104901e+2, -1045068.25, -1136228.1, -21839.232, -0.0020052602, 0.0013135587, -1040106.25, 27616.195, 0.0, 5.020841, 4.9619174 
4.3883798e+2, 1.960114e+2, -1000657.56, -1090807.8, -22056.045, 0.0010220974, 0.003007342, -995550.7, 23544.275, 0.0, 5.0195, 4.961269 
4.388052e+2, 2.0097147e+2, -959921.9, -1053282.3, -23200.018, 0.0017776132, 0.012423886, -954474.5, 16014.108, 0.0, 5.0181336, 4.957936 
4.3877113e+2, 2.0593019e+2, -913031.5, -1002037.25, -23787.375, 0.001298381, 0.005485918, -907073.06, 14817.733, 0.0, 5.0166793, 4.959292 
4.38737e+2, 2.1088897e+2, -868048.2, -954778.0, -24030.045, 0.001146319, -0.0033340612, -861835.3, 11457.197, 0.0, 5.015195, 4.9592977 
4.3870288e+2, 2.1584773e+2, -823775.0, -908979.5, -24250.309, 0.00071844104, -0.01191742, -817356.56, 7337.4727, 0.0, 5.0136867, 4.9588037 
4.3866974e+2, 2.20804e+2, -786023.6, -877847.94, -23515.846, 0.0050843237, -0.0048321197, -780351.7, -4228.887, 0.0, 5.012264, 4.9531875 
4.386379e+2, 2.2576082e+2, -738190.25, -824969.7, -23169.102, 0.008940189, 0.011052225, -732391.8, -4837.2207, 0.0, 5.010892, 4.954992 
4.3860602e+2, 2.3071809e+2, -692823.7, -777436.94, -23151.303, 0.010941668, 0.027015893, -686903.44, -7920.799, 0.0, 5.009482, 4.955005 
4.385741e+2, 2.3567535e+2, -648119.4, -731349.44, -23134.084, 0.012870933, 0.042725936, -642121.44, -11710.752, 0.0, 5.0080566, 4.954517 
4.3854296e+2, 2.4063054e+2, -609355.94, -698238.1, -21493.443, 0.014793325, 0.07937521, -604431.25, -22575.6, 0.0, 5.0065994, 4.9495306 
4.3851426e+2, 2.4558039e+2, -559817.94, -641879.1, -20866.506, 0.018904762, 0.052622866, -554816.8, -21477.473, 0.0, 5.005277, 4.952488 
4.384857e+2, 2.5052923e+2, -513908.2, -594108.8, -20961.242, 0.023449263, 0.008790894, -508760.2, -23928.865, 0.0, 5.0040326, 4.952473 
4.384571e+2, 2.5547832e+2, -468083.16, -546834.44, -20956.965, 0.02756456, -0.03261233, -462853.47, -26532.365, 0.0, 5.0028334, 4.952258 
4.3843195e+2, 2.6042452e+2, -431429.7, -520905.28, -17334.58, 0.04682927, -0.042689614, -428188.75, -40345.156, 0.0, 5.001815, 4.944224 
4.3840975e+2, 2.6538104e+2, -377752.84, -451462.7, -14628.897, 0.030078033, -0.01448461, -374955.66, -35670.34, 0.0, 4.999724, 4.9514456 
4.38386e+2, 2.7034023e+2, -334694.28, -403565.1, -13568.2295, -0.0062012994, 0.0048328205, -332117.63, -41414.715, 0.0, 4.9968753, 4.951994 
4.3836153e+2, 2.7529943e+2, -292804.88, -356536.03, -13195.749, -0.047410067, 0.012680243, -290180.7, -48060.098, 0.0, 4.993508, 4.9525084 
4.3834847e+2, 2.8026053e+2, -286541.47, -407303.16, -5056.4136, -0.034156892, 0.2305387, -286330.1, -92812.94, 0.0, 4.9934564, 4.9186106 
4.383378e+2, 2.8520024e+2, -209555.0, -297483.22, -16038.299, 0.010274397, 0.3084099, -206720.92, -61609.473, 0.0, 4.9949207, 4.938846 
4.383185e+2, 2.901293e+2, -163834.81, -247586.94, -15310.628, 0.016554026, 0.17859906, -161123.66, -64315.414, 0.0, 4.993524, 4.9392424 
4.382987e+2, 2.9505795e+2, -119027.05, -198260.17, -14886.927, 0.020114524, 0.03738308, -116322.305, -67813.16, 0.0, 4.9917, 4.939644 
4.3828037e+2, 3.0000678e+2, -59382.39, -80131.65, -8087.8887, 0.022055775, -0.05692442, -56602.293, -56591.164, 0.0, 4.9896364, 4.9744554 
4.3826637e+2, 3.0499327e+2, -59128.99, -71871.75, -1120.847, 0.0053469837, 0.000009833037, -59031.15, -59031.15, 0.0, 4.988486, 4.977197 
4.3825117e+2, 3.0998418e+2, -63817.78, -72888.7, 1325.2539, -0.027139205, 0.08614165, -63628.125, -63628.125, 0.0, 4.9866858, 4.977558 
4.3823457e+2, 3.1497735e+2, -71071.81, -75073.79, 4399.9756, -0.07029467, 0.19316763, -68239.195, -68239.195, 0.0, 4.9838834, 4.9779205 
4.4425413e+2, 1.2150362e+2, -1647770.1, -1747321.4, 1783.2037, 0.003709038, 0.011764152, -1647738.3, 101525.555, 0.0, 5.041926, 4.97682 
4.4423804e+2, 1.2647545e+2, -1606973.1, -1708959.1, -3900.2212, 0.01018468, -0.011064415, -1606824.3, 93714.9, 0.0, 5.0406127, 4.9740286 
4.442199e+2, 1.3144961e+2, -1561855.9, -1661961.9, -4271.268, 0.0038701922, -0.010186339, -1561674.0, 90117.85, 0.0, 5.0393558, 4.974026 
4.442017e+2, 1.3642377e+2, -1518851.3, -1619356.5, -4622.894, -0.0024416451, -0.00800864, -1518639.0, 84405.66, 0.0, 5.0380983, 4.9725604 
4.4418123e+2, 1.4139561e+2, -1478545.4, -1582246.6, -9588.581, -0.005708635, 0.007772323, -1477666.3, 76653.69, 0.0, 5.036794, 4.9692235 
4.441568e+2, 1.4636512e+2, -1433004.6, -1533773.5, -10651.943, -0.0053629917, 0.00334052, -1431890.9, 73726.984, 0.0, 5.035384, 4.9697466 
4.4413227e+2, 1.5133455e+2, -1388225.9, -1486868.3, -10973.68, -0.0051509496, -0.002596234, -1387019.9, 69896.95, 0.0, 5.0339675, 4.969745 
4.441077e+2, 1.5630397e+2, -1344799.0, -1442821.8, -11275.136, -0.004924506, -0.008097749, -1343518.9, 64696.92, 0.0, 5.0325513, 4.9687805 
4.4408107e+2, 1.6127054e+2, -1305432.5, -1407325.4, -15230.062, -0.0053459774, -0.0071680793, -1303204.8, 56338.016, 0.0, 5.0311155, 4.96497 
4.4405082e+2, 1.662361e+2, -1259969.0, -1358715.3, -16181.016, -0.0060819658, -0.00890491, -1257385.1, 53495.27, 0.0, 5.0296183, 4.9655404 
4.4402045e+2, 1.7120177e+2, -1215306.3, -1311783.6, -16428.113, -0.006765828, -0.010306188, -1212585.6, 49631.355, 0.0, 5.028116, 4.9655404 
4.4399008e+2, 1.7616743e+2, -1171740.6, -1267210.3, -16664.717, -0.007469241, -0.011313075, -1168915.4, 44638.133, 0.0, 5.0266147, 4.9647403 
4.439586e+2, 1.8113057e+2, -1132449.1, -1231980.1, -19121.13, -0.0069821635, -0.0029186753, -1128902.1, 36013.703, 0.0, 5.0251484, 4.9607635 
4.439251e+2, 1.8609272e+2, -1086251.6, -1182130.5, -19780.283, -0.004761661, -0.0000332586, -1082331.1, 33959.367, 0.0, 5.0236936, 4.9616857 
4.4389156e+2, 1.9105496e+2, -1041331.9, -1135002.8, -19971.22, -0.0025583762, 0.0025482422, -1037251.6, 30412.623, 0.0, 5.0222325, 4.961685 
4.4385797e+2, 1.960172e+2, -997275.7, -1089765.0, -20153.502, -0.00031493648, 0.0053837397, -993075.0, 25962.992, 0.0, 5.020771, 4.9610343 
4.4382372e+2, 2.0097703e+2, -956996.4, -1052602.6, -21338.37, 0.0001710925, 0.01468775, -952450.06, 17984.393, 0.0, 5.0192776, 4.9576406 
4.437883e+2, 2.0593534e+2, -910400.9, -1001672.8, -22006.924, 0.0009367832, 0.0074308864, -905371.8, 16470.063, 0.0, 5.017758, 4.9589214 
4.4375286e+2, 2.1089368e+2, -865484.75, -954426.06, -22366.148, 0.0023211462, -0.0017244406, -860177.06, 13071.812, 0.0, 5.016245, 4.9589357 
4.4371742e+2, 2.15852e+2, -821206.6, -908607.7, -22717.682, 0.0036445863, -0.011079841, -815654.44, 9001.439, 0.0, 5.014732, 4.958451 
4.4368282e+2, 2.20808e+2, -783280.3, -876818.7, -21980.658, 0.008414432, -0.00384631, -778372.56, -2284.8218, 0.0, 5.0132523, 4.9530873 
4.436492e+2, 2.2576495e+2, -736163.25, -823922.4, -21623.959, 0.009652267, 0.012853126, -731124.4, -3607.6118, 0.0, 5.0115557, 4.955055 
4.4361544e+2, 2.3072231e+2, -691785.44, -776902.25, -21553.88, 0.009085206, 0.029178893, -686638.6, -7696.5654, 0.0, 5.0098076, 4.9550524 
4.435817e+2, 2.3567964e+2, -648021.4, -731305.5, -21459.092, 0.008548325, 0.045125227, -642817.4, -12449.711, 0.0, 5.008058, 4.9545474 
4.4354874e+2, 2.4063475e+2, -610344.0, -699084.2, -19622.012, 0.007785685, 0.08068221, -606198.9, -24386.299, 0.0, 5.0062747, 4.949418 
4.4351837e+2, 2.4558437e+2, -562660.75, -644314.0, -19227.203, 0.011647797, 0.056489762, -558359.8, -25057.912, 0.0, 5.004455, 4.9520445 
4.434883e+2, 2.505329e+2, -518279.44, -596988.3, -19785.025, 0.016472911, 0.014345942, -513585.97, -28785.004, 0.0, 5.002645, 4.9521112 
4.4345817e+2, 2.5548148e+2, -474110.13, -550204.8, -20353.955, 0.020768432, -0.027976044, -469007.9, -32708.654, 0.0, 5.000834, 4.9519796 
4.4343132e+2, 2.604272e+2, -438413.94, -522890.16, -17030.502, 0.038631096, -0.041489553, -435109.8, -47282.375, 0.0, 4.999172, 4.944716 
4.4340727e+2, 2.653841e+2, -385051.03, -453929.1, -15225.98, 0.021402145, -0.014012465, -381835.34, -42579.344, 0.0, 4.996845, 4.952101 
4.4338208e+2, 2.703427e+2, -341932.03, -408337.44, -14508.29, -0.008215779, 0.001966591, -338900.63, -48232.17, 0.0, 4.994265, 4.9519258 
4.433566e+2, 2.7530006e+2, -298633.22, -363020.94, -13408.341, -0.03527489, 0.0025213598, -295952.6, -53859.195, 0.0, 4.9916606, 4.9516997 
4.4334152e+2, 2.802585e+2, -298669.4, -408612.78, -1458.2572, -0.009736516, 0.19874354, -298650.06, -105142.31, 0.0, 4.988728, 4.920042 
4.4332817e+2, 2.851991e+2, -230893.14, -303596.8, -10385.993, 0.018357422, 0.2733111, -229438.56, -84340.73, 0.0, 4.9874983, 4.9391413 
4.4330737e+2, 2.9012948e+2, -182744.58, -254551.69, -12736.506, 0.011985714, 0.15442887, -180552.4, -83764.62, 0.0, 4.9869823, 4.9390554 
4.4328654e+2, 2.9505906e+2, -134496.8, -205582.11, -14859.121, 0.009354757, 0.024887362, -131515.78, -83029.69, 0.0, 4.986432, 4.938969 
4.432676e+2, 3.000086e+2, -68630.39, -83314.695, -10647.422, 0.012020305, -0.05923578, -63039.066, -63039.066, 0.0, 4.985977, 4.974703 
4.4325486e+2, 3.0499554e+2, -61101.38, -68715.23, -6538.4688, 0.012149594, -0.011986702, -57342.31, -57342.31, 0.0, 4.9867773, 4.978995 
4.4324234e+2, 3.0998686e+2, -57561.504, -65208.73, -7284.2314, 0.017059622, 0.057680424, -53158.33, -53158.33, 0.0, 4.9878216, 4.9797053 
4.4322976e+2, 3.1498054e+2, -53939.637, -61786.227, -8325.653, 0.031250924, 0.14436427, -48659.2, -48659.2, 0.0, 4.9888105, 4.980417 
4.492965e+2, 1.2151507e+2, -1648603.3, -1749041.4, 299.50708, 0.008430128, 0.0024809772, -1648602.4, 100548.65, 0.0, 5.0419254, 4.976257 
4.492784e+2, 1.2648821e+2, -1607638.9, -1710383.4, -4849.541, 0.008045534, -0.0026252912, -1607410.5, 93003.266, 0.0, 5.04062, 4.97356 
4.4925913e+2, 1.3146147e+2, -1562518.0, -1663382.0, -5219.196, 0.0030066697, -0.00605815, -1562248.6, 89426.62, 0.0, 5.039363, 4.9735575 
4.4923985e+2, 1.364347e+2, -1519512.4, -1620778.3, -5572.7515, -0.0020590862, -0.008183687, -1519206.6, 83730.336, 0.0, 5.0381055, 4.9720907 
4.492181e+2, 1.4140584e+2, -1479113.1, -1583489.8, -10646.524, -0.004447502, 0.004804114, -1478038.3, 76180.99, 0.0, 5.036803, 4.9688125 
4.4919223e+2, 1.4637505e+2, -1433557.0, -1534987.6, -11721.908, -0.0043274025, 0.0012962986, -1432220.0, 73300.45, 0.0, 5.0353923, 4.969344 
4.4916624e+2, 1.5134418e+2, -1388776.8, -1488079.5, -12042.951, -0.004428105, -0.0035397073, -1387337.0, 69485.266, 0.0, 5.0339756, 4.9693427 
4.4914025e+2, 1.563133e+2, -1345347.5, -1444028.8, -12344.067, -0.0045250594, -0.007930049, -1343826.9, 64297.44, 0.0, 5.032559, 4.968379 
4.4911215e+2, 1.6127957e+2, -1305850.0, -1408265.8, -16367.302, -0.005103494, -0.0064092726, -1303297.9, 56156.555, 0.0, 5.031124, 4.9646573 
4.490804e+2, 1.6624476e+2, -1260363.9, -1359611.1, -17320.781, -0.0055551296, -0.008837029, -1257427.9, 53367.73, 0.0, 5.029627, 4.965242 
4.4904855e+2, 1.7121007e+2, -1215699.9, -1312678.1, -17567.096, -0.005959694, -0.010971063, -1212615.8, 49520.086, 0.0, 5.028125, 4.965242 
4.4901672e+2, 1.7617537e+2, -1172132.3, -1268101.8, -17802.164, -0.00640995, -0.012694951, -1168936.4, 44539.566, 0.0, 5.026623, 4.9644423 
4.489838e+2, 1.8113823e+2, -1132757.3, -1232724.5, -20230.848, -0.0058885147, -0.004202767, -1128818.3, 36022.68, 0.0, 5.0251603, 4.9605145 
4.4894874e+2, 1.8610026e+2, -1086523.8, -1182799.3, -20885.678, -0.0045964285, -0.00009513182, -1082188.1, 34028.324, 0.0, 5.0237055, 4.961462 
4.4891357e+2, 1.910624e+2, -1041607.8, -1135668.8, -21072.947, -0.003465696, 0.0037032107, -1037102.5, 30488.574, 0.0, 5.0222425, 4.961462 
4.4887844e+2, 1.9602455e+2, -997555.4, -1090428.4, -21251.414, -0.0023409082, 0.007793341, -992923.56, 26042.064, 0.0, 5.0207796, 4.9608126 
4.4884267e+2, 2.009841e+2, -957393.6, -1053531.5, -22512.84, -0.002213925, 0.01680134, -952382.9, 17982.037, 0.0, 5.0192876, 4.9573264 
4.4880587e+2, 2.0594202e+2, -910949.5, -1002914.56, -23154.773, -0.00019762611, 0.009492978, -905448.7, 16329.171, 0.0, 5.017765, 4.9585013 
4.4876903e+2, 2.109e+2, -866044.3, -955668.9, -23506.926, 0.0023806614, 0.0009979298, -860253.06, 12936.8545, 0.0, 5.0162477, 4.958516 
4.4873223e+2, 2.1585797e+2, -821777.25, -909851.7, -23851.27, 0.0048220153, -0.0075302646, -815732.94, 8869.023, 0.0, 5.0147305, 4.9580317 
4.486961e+2, 2.208138e+2, -783329.75, -877079.7, -23194.72, 0.009216416, 0.0011787479, -777905.0, -1868.9288, 0.0, 5.0132732, 4.952999 
4.4866055e+2, 2.2577053e+2, -735958.2, -823628.56, -22939.844, 0.008483558, 0.015429007, -730318.56, -2854.2246, 0.0, 5.011577, 4.955158 
4.4862488e+2, 2.3072767e+2, -691620.7, -776595.8, -22843.076, 0.0059976564, 0.028669994, -685869.3, -6980.441, 0.0, 5.0098157, 4.955164 
4.485892e+2, 2.3568483e+2, -647896.8, -730986.3, -22721.48, 0.0033876398, 0.041846305, -642089.4, -11776.025, 0.0, 5.0080523, 4.954667 
4.4855422e+2, 2.4063955e+2, -610335.56, -699020.6, -20976.29, 0.00010321883, 0.071569175, -605624.44, -23863.86, 0.0, 5.0062685, 4.9494505 
4.4852203e+2, 2.4558921e+2, -563475.9, -646158.06, -20636.611, 0.0035919915, 0.05304501, -558611.4, -25357.895, 0.0, 5.0044565, 4.9514246 
4.4849014e+2, 2.5053805e+2, -519093.47, -598873.44, -21162.979, 0.008533172, 0.021483937, -513827.25, -29073.229, 0.0, 5.00265, 4.951476 
4.484582e+2, 2.5548702e+2, -474922.94, -552131.0, -21700.44, 0.01287369, -0.009496779, -469241.75, -32988.445, 0.0, 5.0008426, 4.951329 
4.4842914e+2, 2.60433e+2, -437698.3, -521897.2, -18590.98, 0.027748136, -0.017016077, -433776.16, -45994.977, 0.0, 4.999243, 4.945086 
4.4840297e+2, 2.6538846e+2, -384102.38, -451126.44, -16477.115, 0.010540638, -0.007301924, -380270.72, -41058.258, 0.0, 4.9967303, 4.9532275 
4.483758e+2, 2.7034596e+2, -341696.84, -405155.53, -15348.9, -0.01892363, -0.007854662, -338179.34, -47555.85, 0.0, 4.9938836, 4.953248 
4.4834825e+2, 2.753027e+2, -299111.44, -359457.88, -13838.711, -0.047760233, -0.020028092, -296089.28, -54047.31, 0.0, 4.9910126, 4.9532175 
4.483286e+2, 2.8025958e+2, -293976.53, -398646.34, -4811.3545, -0.037226178, 0.13454835, -293755.84, -100293.58, 0.0, 4.988828, 4.9235005 
4.4831288e+2, 2.8519875e+2, -230363.78, -308700.03, -11444.137, -0.013009326, 0.19635786, -228726.14, -83655.85, 0.0, 4.988253, 4.937331 
4.4829223e+2, 2.901292e+2, -182686.39, -259542.13, -13533.906, -0.012416324, 0.100641705, -180372.8, -83607.0, 0.0, 4.9875765, 4.93733 
4.482715e+2, 2.9505906e+2, -134907.72, -210458.75, -15395.952, -0.009501452, -0.003367264, -131890.78, -83423.63, 0.0, 4.9868655, 4.937328 
4.482528e+2, 3.0000928e+2, -67210.43, -83283.46, -10684.027, -0.0030579737, -0.06462643, -61877.8, -61877.8, 0.0, 4.9863243, 4.974789 
4.4824147e+2, 3.049954e+2, -57817.414, -65725.31, -6110.584, 0.002786415, -0.025706757, -54493.11, -54493.11, 0.0, 4.9872947, 4.9803004 
4.4823068e+2, 3.0998486e+2, -53911.105, -62793.125, -6497.7813, 0.0111407265, 0.027743308, -50481.68, -50481.68, 0.0, 4.988521, 4.9807863 
4.4821966e+2, 3.149761e+2, -49923.96, -59944.46, -7180.7056, 0.024529627, 0.09478711, -46178.348, -46178.348, 0.0, 4.9896927, 4.9812737 
4.5433888e+2, 1.2152661e+2, -1649346.1, -1750579.9, -1144.9503, 0.012595366, -0.0059758867, -1649333.3, 99704.35, 0.0, 5.041926, 4.9757533 
4.543188e+2, 1.2650095e+2, -1608304.9, -1711807.9, -5799.018, 0.0058588074, 0.0058472585, -1607981.0, 92307.39, 0.0, 5.040627, 4.973091 
4.5429838e+2, 1.3147332e+2, -1563180.4, -1664802.5, -6167.2803, 0.0020946506, -0.0019147194, -1562807.5, 88751.22, 0.0, 5.03937, 4.9730887 
4.5427796e+2, 1.3644564e+2, -1520173.8, -1622200.3, -6522.8223, -0.0017259527, -0.008361664, -1519758.5, 83070.71, 0.0, 5.0381126, 4.97162 
4.5425498e+2, 1.4141606e+2, -1479687.8, -1584747.8, -11704.498, -0.0032095446, 0.0018681478, -1478399.6, 75719.086, 0.0, 5.036812, 4.968396 
4.5422766e+2, 1.4638497e+2, -1434109.4, -1536202.4, -12792.075, -0.0033011013, -0.0007220635, -1432530.9, 72892.1, 0.0, 5.0354013, 4.968941 
4.5420024e+2, 1.5135379e+2, -1389327.4, -1489291.5, -13112.425, -0.0037046538, -0.0044795615, -1387636.0, 69091.86, 0.0, 5.0339837, 4.9689403 
4.541728e+2, 1.5632263e+2, -1345895.9, -1445236.4, -13413.219, -0.0041151205, -0.0077809473, -1344116.6, 63916.176, 0.0, 5.0325665, 4.967977 
4.5414323e+2, 1.612886e+2, -1306271.9, -1409217.3, -17502.89, -0.0048947213, -0.0056361267, -1303377.5, 55988.55, 0.0, 5.031133, 4.964341 
4.5411e+2, 1.6625343e+2, -1260758.5, -1360507.5, -18460.373, -0.005076029, -0.0087519, -1257451.8, 53259.1, 0.0, 5.029636, 4.964943 
4.5407668e+2, 1.7121835e+2, -1216093.3, -1313573.0, -18705.906, -0.005197529, -0.011633109, -1212626.9, 49427.78, 0.0, 5.0281334, 4.9649425 
4.5404336e+2, 1.7618328e+2, -1172523.6, -1268993.6, -18939.436, -0.005390861, -0.014088408, -1168938.6, 44459.883, 0.0, 5.0266314, 4.9641433 
4.5400897e+2, 1.8114589e+2, -1133076.0, -1233491.6, -21336.535, -0.0048115095, -0.0054130424, -1128730.5, 36035.563, 0.0, 5.0251727, 4.960258 
4.5397234e+2, 1.8610781e+2, -1086796.6, -1183467.9, -21993.447, -0.0044542146, -0.00010317517, -1082028.1, 34114.29, 0.0, 5.0237174, 4.9612374 
4.5393565e+2, 1.9106986e+2, -1041884.4, -1136334.6, -22177.053, -0.0044015935, 0.004850674, -1036936.4, 30581.549, 0.0, 5.022253, 4.9612384 
4.5389894e+2, 1.960319e+2, -997835.7, -1091091.5, -22351.703, -0.004401001, 0.01013417, -992755.1, 26138.1, 0.0, 5.020788, 4.9605894 
4.5386162e+2, 2.0099118e+2, -957810.25, -1054502.1, -23681.332, -0.0046589393, 0.019048383, -952321.9, 17973.395, 0.0, 5.019298, 4.9569974 
4.5382342e+2, 2.059487e+2, -911498.9, -1004156.44, -24304.205, -0.0014424135, 0.011654476, -905510.8, 16202.865, 0.0, 5.0177727, 4.95808 
4.537852e+2, 2.1090631e+2, -866604.6, -956911.75, -24649.287, 0.002304245, 0.0036427516, -860314.75, 12816.236, 0.0, 5.0162506, 4.958095 
4.53747e+2, 2.1586396e+2, -822348.56, -911095.8, -24986.441, 0.0058380105, -0.004235008, -815797.3, 8750.684, 0.0, 5.014729, 4.957611 
4.5370942e+2, 2.2081962e+2, -783512.75, -877631.2, -24378.104, 0.010116409, 0.006746534, -777573.25, -1589.0411, 0.0, 5.013294, 4.952809 
4.5367193e+2, 2.2577615e+2, -735756.6, -823333.2, -24273.998, 0.0073731397, 0.018486997, -729478.5, -2066.849, 0.0, 5.011599, 4.955256 
4.5363432e+2, 2.3073305e+2, -691459.3, -776287.8, -24150.549, 0.0028138587, 0.028034564, -685065.6, -6230.0, 0.0, 5.009824, 4.9552693 
4.5359665e+2, 2.3568998e+2, -647775.6, -730665.5, -24002.152, -0.0020236068, 0.03783293, -641327.06, -11067.839, 0.0, 5.0080476, 4.9547806 
4.5355973e+2, 2.4064444e+2, -610518.44, -699377.6, -22312.285, -0.0077214628, 0.06339838, -605230.56, -23522.826, 0.0, 5.0062623, 4.949336 
4.5352563e+2, 2.4559419e+2, -564293.06, -648002.2, -22032.918, -0.0047435407, 0.05091922, -558848.0, -25644.15, 0.0, 5.0044584, 4.950798 
4.5349193e+2, 2.5054333e+2, -519909.53, -600758.7, -22527.824, 0.00009501064, 0.028844753, -514056.16, -29349.85, 0.0, 5.0026555, 4.9508343 
4.534581e+2, 2.5549263e+2, -475737.7, -554057.25, -23033.809, 0.004262124, 0.008110465, -469465.72, -33258.75, 0.0, 5.000851, 4.9506726 
4.5342723e+2, 2.604386e+2, -438023.44, -523186.16, -20127.574, 0.01842638, 0.009303813, -433506.06, -45769.8, 0.0, 4.9993134, 4.9446206 
4.5339876e+2, 2.653924e+2, -383208.56, -448290.2, -18090.043, 0.0012431492, -0.003444995, -378518.28, -39345.445, 0.0, 4.996617, 4.9542365 
4.5336914e+2, 2.7034852e+2, -341515.13, -401939.22, -16552.059, -0.029635588, -0.029461073, -337278.1, -46692.832, 0.0, 4.9935036, 4.9544525 
4.5333907e+2, 2.7530438e+2, -299641.84, -355859.56, -14632.464, -0.06181578, -0.06328346, -296061.3, -54061.28, 0.0, 4.990366, 4.9546175 
4.5331565e+2, 2.8026056e+2, -292898.7, -396935.53, -6696.494, -0.066207044, 0.06995672, -292469.44, -99051.94, 0.0, 4.9889274, 4.9240723 
4.5329827e+2, 2.8519908e+2, -229892.77, -313753.38, -12674.704, -0.044956785, 0.13624372, -228018.98, -82982.516, 0.0, 4.9890084, 4.935467 
4.532776e+2, 2.9012933e+2, -182685.9, -264482.4, -14503.347, -0.037664693, 0.057736535, -180190.45, -83450.73, 0.0, 4.9881706, 4.9355497 
4.532568e+2, 2.9505923e+2, -135375.7, -215284.97, -16104.452, -0.029468887, -0.026692893, -132252.2, -83805.9, 0.0, 4.9872994, 4.935632 
4.532382e+2, 3.0000985e+2, -65877.445, -83225.03, -10647.328, -0.018637286, -0.070777915, -60818.055, -60818.055, 0.0, 4.9866714, 4.9748526 
4.5322895e+2, 3.0499485e+2, -54623.332, -62651.566, -5357.7524, -0.0021154787, -0.046369612, -51942.777, -51942.777, 0.0, 4.9878116, 4.9815526 
4.5322052e+2, 3.0998215e+2, -50350.387, -60293.684, -5387.128, 0.015178032, -0.01650698, -47991.387, -47991.387, 0.0, 4.989221, 4.9818144 
4.5321175e+2, 3.149706e+2, -45997.758, -58018.867, -5712.2476, 0.03325618, 0.02352767, -43716.355, -43716.355, 0.0, 4.990575, 4.982077 
4.5938113e+2, 1.2153848e+2, -1648433.1, -1751209.6, -1601.9977, 0.015679486, -0.012155558, -1648408.1, 100512.42, 0.0, 5.042463, 4.9752874 
4.5935926e+2, 1.2651367e+2, -1607419.3, -1712458.3, -5884.1577, 0.0040485663, 0.012909813, -1607090.6, 93072.41, 0.0, 5.0411544, 4.9726233 
4.5933768e+2, 1.3148521e+2, -1562520.1, -1665562.5, -6254.6587, 0.0013308979, 0.0015034002, -1562141.9, 89299.64, 0.0, 5.0398207, 4.9726214 
4.593161e+2, 1.3645671e+2, -1519773.3, -1623090.1, -6612.6563, -0.0014075765, -0.008639114, -1519351.8, 83368.52, 0.0, 5.038476, 4.971153 
4.5929188e+2, 1.4142644e+2, -1479420.4, -1585582.9, -11883.164, -0.0020483774, -0.00075707934, -1478106.5, 75909.93, 0.0, 5.0371027, 4.9679823 
4.5926312e+2, 1.4639501e+2, -1433887.1, -1537017.4, -12966.425, -0.0023097158, -0.0025183726, -1432281.9, 73042.18, 0.0, 5.035668, 4.968545 
4.5923427e+2, 1.5136357e+2, -1389176.4, -1490139.0, -13271.185, -0.0029641506, -0.0053188717, -1387461.0, 69170.945, 0.0, 5.034226, 4.9685445 
4.5920536e+2, 1.563321e+2, -1345820.3, -1446116.9, -13554.627, -0.0036308516, -0.007656832, -1344020.8, 63919.277, 0.0, 5.0327826, 4.9675827 
4.591743e+2, 1.6129777e+2, -1306125.8, -1409904.5, -17697.158, -0.004623766, -0.004908517, -1303190.9, 56085.36, 0.0, 5.0313373, 4.9640183 
4.5913962e+2, 1.6626224e+2, -1260560.1, -1361128.8, -18695.072, -0.0045890603, -0.008613225, -1257197.4, 53427.418, 0.0, 5.0298486, 4.9646378 
4.5910484e+2, 1.7122678e+2, -1215892.8, -1314191.4, -18974.53, -0.0044288225, -0.012184439, -1212357.3, 49615.06, 0.0, 5.028346, 4.9646387 
4.5907003e+2, 1.7619134e+2, -1172346.0, -1269619.9, -19236.83, -0.004324268, -0.015348757, -1168679.9, 44639.906, 0.0, 5.0268345, 4.9638405 
4.5903417e+2, 1.8115368e+2, -1132902.0, -1234025.9, -21608.44, -0.0036463868, -0.0064550512, -1128478.3, 36211.723, 0.0, 5.0253534, 4.9599977 
4.58996e+2, 1.8611547e+2, -1086689.9, -1183945.6, -22272.504, -0.0042200605, -0.000103362916, -1081831.9, 34235.484, 0.0, 5.0238566, 4.961015 
4.589577e+2, 1.9107738e+2, -1041925.3, -1136880.9, -22452.777, -0.0051953164, 0.0057678297, -1036883.9, 30559.959, 0.0, 5.0223413, 4.9610167 
4.5891944e+2, 1.960393e+2, -998049.56, -1091717.1, -22622.236, -0.0062335776, 0.011968005, -992872.1, 25948.082, 0.0, 5.020817, 4.960368 
4.5888057e+2, 2.0099834e+2, -958274.3, -1055519.1, -24007.53, -0.0068525877, 0.020893266, -952670.3, 17554.576, 0.0, 5.0192976, 4.9566565 
4.5884097e+2, 2.0595548e+2, -911960.75, -1005349.4, -24637.87, -0.002661732, 0.013644569, -905859.4, 15789.141, 0.0, 5.0178084, 4.9576607 
4.588014e+2, 2.1091272e+2, -867011.9, -958081.06, -24995.336, 0.0021352104, 0.006053987, -860602.56, 12468.456, 0.0, 5.016305, 4.957675 
4.5876178e+2, 2.1587e+2, -822759.0, -912267.94, -25342.781, 0.006748778, -0.0014075781, -816081.8, 8411.483, 0.0, 5.0147815, 4.95719 
4.5872274e+2, 2.2082552e+2, -783794.1, -878426.1, -24713.506, 0.011176618, 0.012468188, -777728.9, -1797.3303, 0.0, 5.0133233, 4.952528 
4.5868334e+2, 2.2578186e+2, -735504.25, -823032.5, -24865.96, 0.006304571, 0.02189413, -728933.3, -1575.2213, 0.0, 5.011644, 4.9553366 
4.586437e+2, 2.3073849e+2, -691219.75, -775967.7, -24804.914, -0.00043201025, 0.027201122, -684493.44, -5711.651, 0.0, 5.0098634, 4.9553576 
4.5860407e+2, 2.3569515e+2, -647643.56, -730366.1, -24704.322, -0.0074861194, 0.032794144, -640827.5, -10622.484, 0.0, 5.0080495, 4.9548764 
4.5856518e+2, 2.4064937e+2, -610954.5, -700190.06, -23072.768, -0.015272993, 0.05546928, -605341.9, -23687.506, 0.0, 5.0062327, 4.9490757 
4.5852926e+2, 2.4559928e+2, -565029.1, -649788.6, -22902.748, -0.012984721, 0.049643986, -559236.5, -26083.438, 0.0, 5.004485, 4.9501786 
4.5849368e+2, 2.5054863e+2, -520512.5, -602484.75, -23328.33, -0.008447552, 0.03575429, -514338.56, -29680.69, 0.0, 5.0027266, 4.950214 
4.58458e+2, 2.5549817e+2, -476253.3, -555747.44, -23665.467, -0.0045469454, 0.023375286, -469741.5, -33580.773, 0.0, 5.0009522, 4.9500494 
4.584256e+2, 2.60444e+2, -439203.9, -526581.8, -20667.814, 0.011163817, 0.035371546, -434561.88, -46868.633, 0.0, 4.9994507, 4.9433513 
4.5839468e+2, 2.6539603e+2, -382028.4, -445776.63, -20122.379, -0.0059369076, -0.0016834284, -376208.1, -37071.45, 0.0, 4.9967256, 4.954942 
4.5836222e+2, 2.703503e+2, -341013.84, -399312.5, -20165.752, -0.03885112, -0.059832577, -334718.28, -44163.75, 0.0, 4.993423, 4.955247 
4.5832935e+2, 2.7530468e+2, -300275.9, -353217.3, -20540.623, -0.07424719, -0.12313191, -293241.16, -51269.3, 0.0, 4.9899507, 4.9555135 
4.5830306e+2, 2.8026065e+2, -296936.47, -403508.78, -13670.298, -0.091818, 0.008021878, -295210.88, -101828.984, 0.0, 4.9885974, 4.9218636 
4.5828474e+2, 2.851995e+2, -231540.66, -318561.5, -18431.664, -0.073844224, 0.095734425, -227797.69, -82795.875, 0.0, 4.989051, 4.9337997 
4.5826364e+2, 2.901297e+2, -184375.27, -269303.78, -18357.334, -0.06135424, 0.02895725, -180577.17, -83865.586, 0.0, 4.9881763, 4.9339027 
4.582424e+2, 2.9505968e+2, -137269.66, -220145.95, -18361.24, -0.04899725, -0.041817702, -133383.9, -84960.69, 0.0, 4.9872236, 4.934009 
4.582238e+2, 3.000105e+2, -66082.13, -83628.77, -11171.936, -0.033775236, -0.074984685, -60650.41, -60650.41, 0.0, 4.9865017, 4.974892 
4.5821717e+2, 3.0499405e+2, -53942.367, -60480.266, -4787.6475, -0.0022659888, -0.07188863, -51414.11, -51414.11, 0.0, 4.9874887, 4.9826956 
4.5821184e+2, 3.099789e+2, -50697.254, -59175.383, -4039.0688, 0.029672869, -0.07326374, -49081.086, -49081.086, 0.0, 4.9885902, 4.982751 
4.582061e+2, 3.1496435e+2, -47758.4, -58112.047, -3413.2856, 0.05909885, -0.0677739, -46734.414, -46734.414, 0.0, 4.9895053, 4.9828067 
4.6442544e+2, 1.2155554e+2, -1636832.4, -1746722.8, 1066.8812, 0.011302257, -0.0028705955, -1636822.0, 111930.66, 0.0, 5.0466313, 4.9747257 
4.644027e+2, 1.2652853e+2, -1596415.4, -1707995.3, -3559.1626, 0.005911649, 0.0048933383, -1596302.0, 103714.86, 0.0, 5.0450664, 4.972185 
4.6437955e+2, 1.3149996e+2, -1552495.6, -1661598.0, -3918.6487, 0.0025066747, -0.0029906547, -1552355.0, 98941.43, 0.0, 5.043411, 4.9721847 
4.643564e+2, 1.3647135e+2, -1510689.6, -1619606.0, -4270.2744, -0.00083880784, -0.009699979, -1510522.4, 92053.96, 0.0, 5.041755, 4.970715 
4.6433052e+2, 1.4144087e+2, -1470983.8, -1582230.0, -9516.316, -0.0019197086, 0.0003078948, -1470175.6, 83699.15, 0.0, 5.040123, 4.967631 
4.6430027e+2, 1.4640908e+2, -1425955.4, -1533900.6, -10555.965, -0.002114628, -0.0016244168, -1424932.9, 80253.26, 0.0, 5.038518, 4.968204 
4.6426988e+2, 1.5137725e+2, -1381747.3, -1487278.5, -10838.261, -0.0026671707, -0.0046394505, -1380645.6, 75852.2, 0.0, 5.036911, 4.968204 
4.6423948e+2, 1.563454e+2, -1338883.5, -1443504.8, -11100.303, -0.0032273682, -0.00719092, -1337718.8, 70090.88, 0.0, 5.0353045, 4.967243 
4.6420687e+2, 1.613107e+2, -1299630.0, -1407506.3, -15244.766, -0.0039295494, -0.0045767734, -1297517.1, 61632.484, 0.0, 5.0337048, 4.9636874 
4.6417066e+2, 1.6627483e+2, -1254535.9, -1359000.1, -16253.984, -0.0034844999, -0.008060576, -1252065.4, 58436.24, 0.0, 5.032065, 4.9642944 
4.6413434e+2, 1.7123906e+2, -1210297.0, -1312276.9, -16552.299, -0.0028956358, -0.0114202285, -1207677.8, 54174.945, 0.0, 5.030419, 4.9642963 
4.6409804e+2, 1.7620328e+2, -1167148.8, -1267901.8, -16834.313, -0.0023130467, -0.014419928, -1164410.4, 48793.375, 0.0, 5.028773, 4.9635 
4.6406054e+2, 1.8116531e+2, -1127958.6, -1232087.5, -19201.545, -0.0018076964, -0.005591379, -1124530.8, 40046.04, 0.0, 5.027132, 4.9598107 
4.6402067e+2, 1.8612681e+2, -1082361.4, -1182272.0, -19840.73, -0.0031846126, -0.00032256971, -1078565.6, 37390.83, 0.0, 5.0254183, 4.960847 
4.6398067e+2, 1.9108841e+2, -1038210.5, -1135511.1, -19989.29, -0.004842334, 0.0043086363, -1034264.0, 33071.18, 0.0, 5.0236936, 4.9608474 
4.639407e+2, 1.9605e+2, -994918.44, -1090635.4, -20127.75, -0.006510069, 0.009205536, -990858.1, 27855.77, 0.0, 5.0219693, 4.9601984 
4.6390024e+2, 2.0100869e+2, -955775.56, -1055080.1, -21434.89, -0.0070578554, 0.017076638, -951346.4, 18775.38, 0.0, 5.0203032, 4.956339 
4.6385905e+2, 2.059657e+2, -909755.94, -1005151.7, -21969.326, -0.0033049737, 0.01233194, -904939.7, 16608.135, 0.0, 5.0187335, 4.9573016 
4.638179e+2, 2.1092284e+2, -864999.4, -957988.6, -22262.664, 0.0009138947, 0.007484284, -859944.25, 13028.294, 0.0, 5.017164, 4.9573126 
4.6377674e+2, 2.1587998e+2, -820879.44, -912253.94, -22544.502, 0.005145522, 0.0024388537, -815619.9, 8777.563, 0.0, 5.015594, 4.9568243 
4.6373603e+2, 2.2083543e+2, -782071.3, -877761.9, -21849.71, 0.008426, 0.017968526, -777318.3, -1481.47, 0.0, 5.0139437, 4.9524727 
4.6369475e+2, 2.2579129e+2, -734505.8, -822849.3, -22203.912, 0.0030348087, 0.023930227, -729239.2, -1972.7166, 0.0, 5.0120373, 4.9552236 
4.636533e+2, 2.3074725e+2, -690611.06, -775976.6, -22395.563, -0.0035288853, 0.024353016, -685092.4, -6397.857, 0.0, 5.0101113, 4.955248 
4.6361184e+2, 2.3570322e+2, -647326.1, -730525.1, -22572.467, -0.010131709, 0.02431045, -641596.6, -11474.056, 0.0, 5.008186, 4.95477 
4.6357125e+2, 2.4065652e+2, -610918.56, -700610.0, -21088.008, -0.016504167, 0.038654916, -606207.8, -24628.271, 0.0, 5.0062847, 4.948926 
4.6353346e+2, 2.4560668e+2, -565647.7, -651096.8, -20773.49, -0.015010958, 0.039655022, -560865.1, -27787.385, 0.0, 5.00444, 4.949765 
4.6349594e+2, 2.5055653e+2, -521330.34, -603721.5, -21108.402, -0.011807953, 0.035291433, -516237.25, -31657.205, 0.0, 5.002595, 4.9498525 
4.6345836e+2, 2.5550643e+2, -477214.2, -556898.56, -21452.246, -0.008880551, 0.03051216, -471805.97, -35724.46, 0.0, 5.00075, 4.9497414 
4.6342394e+2, 2.6045263e+2, -441365.7, -528906.6, -18212.244, 0.0053249546, 0.049214024, -437727.94, -50116.188, 0.0, 4.9989758, 4.9427905 
4.633911e+2, 2.654028e+2, -384785.78, -451326.0, -19653.678, -0.007255832, 0.012008843, -379414.38, -40344.05, 0.0, 4.9964724, 4.9533367 
4.633569e+2, 2.70354e+2, -342518.4, -405764.88, -21617.965, -0.03164165, -0.05143436, -335835.44, -45320.8, 0.0, 4.9937363, 4.953216 
4.6332252e+2, 2.753045e+2, -300120.8, -360428.2, -23383.049, -0.055866413, -0.12385422, -292116.78, -50150.43, 0.0, 4.990989, 4.9530463 
4.632937e+2, 2.8025597e+2, -295084.63, -396816.1, -13187.043, -0.07248314, -0.031051097, -293403.03, -99985.516, 0.0, 4.988093, 4.92452 
4.6327317e+2, 2.8519621e+2, -238381.55, -320297.66, -14757.642, -0.065089814, 0.05834395, -235803.98, -90779.31, 0.0, 4.9866314, 4.934066 
4.6325088e+2, 2.9012927e+2, -191462.7, -271816.2, -15917.716, -0.056287184, 0.023150822, -188424.34, -91715.73, 0.0, 4.985653, 4.933991 
4.6322858e+2, 2.950619e+2, -144415.92, -223422.83, -16902.504, -0.04682491, -0.016957065, -140951.75, -92555.07, 0.0, 4.9846616, 4.9339156 
4.6320894e+2, 3.0001357e+2, -73277.96, -86374.12, -11629.241, -0.03437465, -0.037975606, -66480.01, -66480.01, 0.0, 4.9836545, 4.975069 
4.6320197e+2, 3.0499554e+2, -65497.09, -63420.953, -6839.3994, -0.0049623176, -0.059885003, -57541.293, -57541.293, 0.0, 4.9827905, 4.9835734 
4.6319664e+2, 3.0997944e+2, -67822.78, -64260.52, -6403.037, 0.02809089, -0.08160597, -59395.5, -59395.5, 0.0, 4.9819527, 4.983609 
4.6319112e+2, 3.1496385e+2, -70099.86, -65150.406, -6130.547, 0.061645616, -0.09723774, -61013.938, -61013.938, 0.0, 4.981093, 4.983645 
4.6947154e+2, 1.21574484e+2, -1637643.6, -1748415.1, 361.20026, 0.0060823136, 0.0077833785, -1637642.4, 110923.52, 0.0, 5.0466337, 4.974171 
4.6944803e+2, 1.2654476e+2, -1597053.8, -1709358.5, -4806.427, 0.008619476, -0.0070535513, -1596848.5, 103008.5, 0.0, 5.0450716, 4.971739 
4.6942306e+2, 1.3151628e+2, -1553130.0, -1662958.3, -5164.7715, 0.0041933646, -0.009547946, -1552887.6, 98248.16, 0.0, 5.043416, 4.971738 
4.6939814e+2, 1.3648777e+2, -1511324.6, -1620973.1, -5520.6895, -0.00020847133, -0.010857464, -1511047.3, 91367.625, 0.0, 5.0417604, 4.970265 
4.6937057e+2, 1.4145721e+2, -1471467.9, -1583306.6, -10749.988, -0.0021383471, 0.0025760136, -1470444.0, 83270.055, 0.0, 5.0401316, 4.967276 
4.693387e+2, 1.4642504e+2, -1426421.9, -1534947.1, -11767.372, -0.002219915, 0.00017066364, -1425160.6, 79868.68, 0.0, 5.0385275, 4.9678583 
4.693067e+2, 1.5139279e+2, -1382211.1, -1488322.8, -12049.321, -0.0026018051, -0.0034089712, -1380860.1, 75485.05, 0.0, 5.0369205, 4.9678583 
4.6927473e+2, 1.5636055e+2, -1339345.0, -1444547.3, -12312.485, -0.0029955164, -0.0065197377, -1337923.3, 69737.81, 0.0, 5.035314, 4.9668975 
4.6924055e+2, 1.6132548e+2, -1300080.6, -1408539.4, -16489.67, -0.0032730147, -0.0042302487, -1297629.0, 61375.727, 0.0, 5.033716, 4.9633436 
4.6920273e+2, 1.662893e+2, -1255006.4, -1360075.9, -17497.924, -0.0022259315, -0.0073237913, -1252169.0, 58191.21, 0.0, 5.032076, 4.9639354 
4.6916482e+2, 1.7125322e+2, -1210768.0, -1313352.0, -17794.68, -0.0011036264, -0.010218437, -1207768.9, 53945.695, 0.0, 5.030429, 4.963937 
4.691269e+2, 1.7621715e+2, -1167619.4, -1268974.9, -18074.215, -0.000026681077, -0.012721682, -1164492.8, 48576.254, 0.0, 5.028782, 4.963141 
4.6908778e+2, 1.8117891e+2, -1128159.6, -1232612.5, -20489.205, 0.00011596138, -0.0039233407, -1124284.3, 40160.44, 0.0, 5.0271444, 4.9596376 
4.6904606e+2, 1.8614005e+2, -1082538.1, -1182746.4, -21148.203, -0.0020829157, -0.00047215002, -1078257.9, 37568.977, 0.0, 5.025431, 4.960691 
4.6900427e+2, 1.9110128e+2, -1038390.94, -1135985.1, -21293.746, -0.0044549843, 0.002268956, -1033947.25, 33260.863, 0.0, 5.023705, 4.9606915 
4.689625e+2, 1.9606255e+2, -995102.56, -1091109.0, -21429.014, -0.006864013, 0.005333151, -990536.6, 28052.625, 0.0, 5.0219793, 4.960043 
4.6892035e+2, 2.010209e+2, -956174.8, -1056062.8, -22663.982, -0.0073401183, 0.012165069, -951273.0, 18727.043, 0.0, 5.0203204, 4.956003 
4.6887752e+2, 2.0597786e+2, -910169.25, -1006152.06, -23156.057, -0.0042451886, 0.010355006, -904874.8, 16552.648, 0.0, 5.0187473, 4.9569592 
4.6883473e+2, 2.1093503e+2, -865432.25, -958994.5, -23439.805, -0.0011739731, 0.0090745315, -859888.44, 12964.57, 0.0, 5.0171714, 4.9569707 
4.6879187e+2, 2.1589221e+2, -821331.9, -913265.4, -23711.932, 0.0018115271, 0.0077920384, -815576.3, 8702.199, 0.0, 5.015595, 4.9564824 
4.6874928e+2, 2.2084771e+2, -782030.8, -877786.6, -23274.936, 0.003138506, 0.025246965, -776673.25, -955.3785, 0.0, 5.0139585, 4.952473 
4.6870625e+2, 2.2580284e+2, -734709.94, -823421.44, -23677.023, -0.0015213311, 0.025733314, -728786.1, -1633.0044, 0.0, 5.0120535, 4.955042 
4.68663e+2, 2.3075795e+2, -690840.75, -776556.06, -23842.611, -0.0067033363, 0.020313174, -684655.06, -6067.196, 0.0, 5.0101204, 4.9550657 
4.6861976e+2, 2.3571308e+2, -647581.4, -731111.9, -23993.32, -0.011986188, 0.014699032, -641180.06, -11157.628, 0.0, 5.0081873, 4.9545875 
4.6857747e+2, 2.4066538e+2, -611183.8, -701208.5, -22538.545, -0.016111096, 0.021158328, -605856.3, -24368.2, 0.0, 5.0062876, 4.948716 
4.6853775e+2, 2.4561583e+2, -566097.94, -652118.9, -22214.982, -0.015446238, 0.027936006, -560699.7, -27715.293, 0.0, 5.0044417, 4.94941 
4.684982e+2, 2.505664e+2, -521810.63, -604811.0, -22494.541, -0.014356046, 0.03435625, -516106.25, -31625.66, 0.0, 5.002593, 4.949479 
4.6845856e+2, 2.555171e+2, -477724.16, -558055.2, -22783.033, -0.013652691, 0.04119617, -471712.47, -35736.973, 0.0, 5.0007434, 4.9493504 
4.6842185e+2, 2.6046416e+2, -441816.2, -530419.4, -19877.543, -0.0029305283, 0.07055269, -437561.13, -50063.13, 0.0, 4.999032, 4.9423256 
4.6838716e+2, 2.6541167e+2, -387250.22, -456907.56, -21225.578, -0.009453952, 0.029897297, -381292.1, -42308.42, 0.0, 4.9964614, 4.9515533 
4.6835133e+2, 2.703597e+2, -345260.53, -410995.0, -22885.47, -0.02591686, -0.037635427, -338077.8, -47617.42, 0.0, 4.993594, 4.951567 
4.683153e+2, 2.7530727e+2, -303140.47, -365307.44, -24345.816, -0.043071214, -0.112443276, -294741.0, -52799.54, 0.0, 4.9907165, 4.9515324 
4.682835e+2, 2.8025475e+2, -289165.8, -383344.84, -15791.7295, -0.060401946, -0.07013504, -286588.4, -93155.695, 0.0, 4.9881005, 4.929264 
4.6826065e+2, 2.8519472e+2, -238397.61, -322168.25, -16203.872, -0.057891835, 0.0050224196, -235372.52, -90330.09, 0.0, 4.986851, 4.93357 
4.6823728e+2, 2.9012972e+2, -191767.77, -273469.28, -17091.22, -0.050202914, 0.0040568076, -188336.55, -91629.18, 0.0, 4.9857583, 4.933589 
4.6821386e+2, 2.9506445e+2, -145009.23, -224858.34, -17803.82, -0.042430233, -0.0006525369, -141219.42, -92844.86, 0.0, 4.984652, 4.9336066 
4.6819293e+2, 3.0001682e+2, -74221.22, -87828.05, -12427.849, -0.034438647, -0.00086124253, -66856.43, -66856.43, 0.0, 4.9835477, 4.974617 
4.68184e+2, 3.049974e+2, -64470.508, -60816.08, -7651.045, -0.015737467, -0.03857086, -54777.086, -54777.086, 0.0, 4.9827538, 4.9845977 
4.6817663e+2, 3.0998057e+2, -66503.73, -61797.684, -7020.25, 0.0053758277, -0.073851034, -56746.61, -56746.61, 0.0, 4.9820223, 4.9845567 
4.681691e+2, 3.1496394e+2, -68488.72, -62829.51, -6553.622, 0.025397385, -0.10564511, -58520.727, -58520.727, 0.0, 4.9812684, 4.984516 
4.745178e+2, 1.2159315e+2, -1638371.4, -1749936.0, -347.49405, 0.0022636317, 0.015552449, -1638370.3, 110011.85, 0.0, 5.0466366, 4.9736724 
4.7449332e+2, 1.26561e+2, -1597692.1, -1710722.1, -6053.296, 0.011315028, -0.018926466, -1597368.9, 102328.18, 0.0, 5.045077, 4.971292 
4.7446662e+2, 1.3153261e+2, -1553764.3, -1664319.0, -6410.5, 0.0058589224, -0.016050274, -1553393.9, 97581.266, 0.0, 5.0434217, 4.971291 
4.7443992e+2, 1.3650419e+2, -1511959.5, -1622340.9, -6770.7773, 0.00039187487, -0.01197898, -1511545.8, 90707.71, 0.0, 5.0417666, 4.969815 
4.744106e+2, 1.4147358e+2, -1471957.0, -1584395.8, -11981.181, -0.002375573, 0.00488398, -1470694.5, 82858.805, 0.0, 5.0401406, 4.9669175 
4.7437713e+2, 1.46441e+2, -1426888.0, -1535994.6, -12978.749, -0.0023349104, 0.0019895139, -1425365.4, 79507.266, 0.0, 5.038537, 4.967512 
4.7434354e+2, 1.5140836e+2, -1382674.5, -1489367.9, -13260.353, -0.0025407162, -0.0021771663, -1381051.1, 75141.29, 0.0, 5.0369306, 4.967512 
4.7430998e+2, 1.563757e+2, -1339806.0, -1445590.6, -13524.662, -0.002762516, -0.005869646, -1338104.3, 69408.2, 0.0, 5.0353236, 4.966551 
4.742742e+2, 1.6134027e+2, -1300539.3, -1409590.5, -17733.314, -0.0026604175, -0.0038419848, -1297728.0, 61131.9, 0.0, 5.0337276, 4.9629936 
4.742348e+2, 1.6630378e+2, -1255476.8, -1361152.0, -18741.87, -0.0010187348, -0.0065432764, -1252251.3, 57967.434, 0.0, 5.032087, 4.9635763 
4.741953e+2, 1.7126739e+2, -1211238.9, -1314427.6, -19037.068, 0.0006489867, -0.008999194, -1207838.8, 53737.73, 0.0, 5.030439, 4.9635773 
4.741558e+2, 1.76231e+2, -1168090.0, -1270048.4, -19314.121, 0.0022322575, -0.011032238, -1164553.9, 48380.305, 0.0, 5.0287914, 4.962782 
4.7411495e+2, 1.8119249e+2, -1128372.4, -1233164.9, -21772.338, 0.0020197548, -0.00218198, -1124028.9, 40283.797, 0.0, 5.027158, 4.959455 
4.7407147e+2, 1.8615331e+2, -1082714.6, -1183221.4, -22457.42, -0.0010159075, -0.0005821516, -1077925.0, 37772.176, 0.0, 5.025444, 4.960534 
4.740279e+2, 1.9111419e+2, -1038571.06, -1136459.6, -22599.947, -0.0041128714, 0.00018971006, -1033605.25, 33475.75, 0.0, 5.023717, 4.960535 
4.739843e+2, 1.9607507e+2, -995286.4, -1091583.1, -22732.021, -0.0072737224, 0.0013421508, -990189.94, 28274.703, 0.0, 5.02199, 4.959886 
4.739405e+2, 2.010331e+2, -956611.06, -1057124.1, -23878.764, -0.0077270144, 0.0074887844, -951226.6, 18651.547, 0.0, 5.020337, 4.9556403 
4.7389603e+2, 2.0599003e+2, -910584.2, -1007151.7, -24345.027, -0.0053271726, 0.00861004, -904793.9, 16513.045, 0.0, 5.0187616, 4.9566154 
4.7385153e+2, 2.1094723e+2, -865866.75, -959999.6, -24619.19, -0.003395522, 0.010688778, -859816.8, 12916.55, 0.0, 5.017179, 4.9566264 
4.73807e+2, 2.1590446e+2, -821785.94, -914276.0, -24881.611, -0.0016480515, 0.0129615, -815517.2, 8642.325, 0.0, 5.015596, 4.9561386 
4.737626e+2, 2.2086003e+2, -782115.0, -878086.1, -24673.438, -0.0021740303, 0.03297388, -776143.25, -544.45026, 0.0, 5.013973, 4.9523773 
4.737177e+2, 2.2581439e+2, -734914.94, -823994.9, -25156.752, -0.0060754856, 0.02773963, -728301.5, -1261.7236, 0.0, 5.01207, 4.9548535 
4.7367266e+2, 2.3076862e+2, -691071.25, -777136.9, -25296.281, -0.009867179, 0.015747804, -684186.9, -5705.4536, 0.0, 5.0101295, 4.954877 
4.7362766e+2, 2.3572288e+2, -647837.3, -731699.94, -25420.795, -0.01382143, 0.0038342865, -640733.4, -10810.676, 0.0, 5.0081897, 4.954398 
4.735837e+2, 2.4067433e+2, -611755.0, -702485.0, -23957.463, -0.015894346, 0.0051272376, -605817.56, -24421.848, 0.0, 5.0062914, 4.94827 
4.7354203e+2, 2.4562515e+2, -566551.06, -653141.9, -23637.557, -0.016240237, 0.018242987, -560518.75, -27629.45, 0.0, 5.0044446, 4.949042 
4.7350037e+2, 2.505764e+2, -522293.66, -605901.4, -23861.771, -0.017253121, 0.033808876, -515962.8, -31582.87, 0.0, 5.0025916, 4.949093 
4.7345868e+2, 2.5552782e+2, -478236.72, -559212.56, -24094.922, -0.018764073, 0.05063189, -471609.47, -35740.69, 0.0, 5.0007377, 4.948946 
4.734199e+2, 2.6047584e+2, -443208.9, -534029.1, -21479.98, -0.010071096, 0.094782464, -438384.9, -51001.664, 0.0, 4.999089, 4.9411054 
4.7338325e+2, 2.6542056e+2, -389743.72, -462480.84, -23027.41, -0.011473001, 0.048303373, -383066.56, -44169.625, 0.0, 4.996452, 4.9496827 
4.733455e+2, 2.7036512e+2, -348031.03, -416215.34, -24382.85, -0.02206018, -0.030962192, -340209.03, -49800.48, 0.0, 4.993453, 4.9498315 
4.7330752e+2, 2.7530953e+2, -306187.88, -370175.4, -25538.47, -0.034188107, -0.11579088, -297244.9, -55323.37, 0.0, 4.9904447, 4.9499307 
4.7327325e+2, 2.8025332e+2, -286623.13, -377606.0, -18025.605, -0.048830573, -0.10965536, -283182.03, -89732.28, 0.0, 4.98811, 4.9313025 
4.7324854e+2, 2.8519323e+2, -238441.4, -324018.97, -17833.215, -0.047997706, -0.038698506, -234873.92, -89813.49, 0.0, 4.9870706, 4.9330077 
4.7322387e+2, 2.9012984e+2, -192099.55, -275102.53, -18447.502, -0.042402145, -0.013105039, -188184.25, -91475.03, 0.0, 4.985863, 4.9331207 
4.7319916e+2, 2.9506642e+2, -145628.27, -226273.95, -18887.629, -0.03729715, 0.009925519, -141423.88, -93065.45, 0.0, 4.9846425, 4.9332323 
4.731766e+2, 3.0001992e+2, -76025.8, -91189.836, -13275.141, -0.035587087, 0.03490629, -68320.03, -68320.03, 0.0, 4.9834414, 4.973455 
4.731658e+2, 3.0499956e+2, -63477.53, -58179.293, -8325.812, -0.027247166, -0.012515833, -52091.31, -52091.31, 0.0, 4.9827175, 4.9855886 
4.731568e+2, 3.0998182e+2, -65218.156, -59303.324, -7500.7563, -0.016162906, -0.06615802, -54198.008, -54198.008, 0.0, 4.982092, 4.9854712 
4.731475e+2, 3.1496397e+2, -66910.98, -60477.453, -6840.1504, -0.0077675125, -0.118911766, -56135.434, -56135.434, 0.0, 4.981444, 4.985354 
4.7956422e+2, 1.2161149e+2, -1637833.6, -1750739.3, -110.760864, 0.00019161652, 0.018652901, -1637833.6, 110367.99, 0.0, 5.04705, 4.9732075 
4.7953853e+2, 1.2657762e+2, -1597225.0, -1711503.6, -6271.152, 0.013234855, -0.028658083, -1596881.9, 102651.7, 0.0, 5.0454516, 4.9708543 
4.7951013e+2, 1.3154922e+2, -1553299.4, -1665105.6, -6617.5767, 0.0071294825, -0.021394372, -1552909.1, 97902.68, 0.0, 5.0437956, 4.9708524 
4.7948173e+2, 1.365208e+2, -1511515.4, -1623148.9, -6972.7896, 0.0009886756, -0.012891864, -1511081.5, 91008.734, 0.0, 5.0421343, 4.9693723 
4.7945064e+2, 1.4149006e+2, -1471449.5, -1584969.4, -12148.643, -0.0023415228, 0.0068010585, -1470164.0, 83227.53, 0.0, 5.0404835, 4.9665656 
4.794156e+2, 1.4645709e+2, -1426480.8, -1536586.1, -13114.115, -0.0022132578, 0.0034858303, -1424940.4, 79774.26, 0.0, 5.0388384, 4.9671745 
4.793804e+2, 1.5142404e+2, -1382386.4, -1490021.5, -13383.237, -0.002277138, -0.001201304, -1380747.4, 75291.1, 0.0, 5.037191, 4.967173 
4.7934523e+2, 1.5639101e+2, -1339635.6, -1446305.1, -13636.898, -0.0023465755, -0.005431316, -1337919.8, 69442.484, 0.0, 5.035544, 4.9662113 
4.7930786e+2, 1.6135523e+2, -1300464.4, -1410376.3, -17860.596, -0.0019625656, -0.0035508475, -1297634.9, 61078.66, 0.0, 5.0339184, 4.9626446 
4.7926688e+2, 1.6631842e+2, -1255458.1, -1361973.8, -18863.352, 0.00017871113, -0.00581744, -1252216.1, 57859.426, 0.0, 5.0322595, 4.963223 
4.792258e+2, 1.7128173e+2, -1211294.3, -1315285.5, -19149.19, 0.002369706, -0.007863585, -1207880.1, 53556.656, 0.0, 5.0305862, 4.9632235 
4.7918472e+2, 1.7624502e+2, -1168241.3, -1270951.0, -19413.973, 0.004490272, -0.009499398, -1164694.1, 48103.715, 0.0, 5.0289054, 4.9624286 
4.7914216e+2, 1.8120624e+2, -1128414.8, -1233657.0, -21909.068, 0.0039941203, -0.00059212174, -1124036.0, 40143.04, 0.0, 5.0272346, 4.95926 
4.7909686e+2, 1.8616669e+2, -1082699.4, -1183625.0, -22693.623, 0.000095394134, -0.0007374402, -1077831.4, 37734.734, 0.0, 5.025527, 4.9603653 
4.7905147e+2, 1.911272e+2, -1038535.2, -1136853.1, -22907.307, -0.003722882, -0.0019124149, -1033459.94, 33492.676, 0.0, 5.023806, 4.9603667 
4.790061e+2, 1.9608772e+2, -995250.4, -1091975.6, -23105.848, -0.0075929887, -0.00272061, -990014.25, 28324.736, 0.0, 5.0220785, 4.959718 
4.7896063e+2, 2.0104542e+2, -956879.9, -1058148.6, -24184.674, -0.008066439, 0.0031202072, -951400.6, 18354.533, 0.0, 5.02042, 4.955257 
4.7891453e+2, 2.0600234e+2, -910914.5, -1008091.9, -24627.93, -0.0064027817, 0.0071141487, -905029.4, 16155.76, 0.0, 5.018799, 4.956278 
4.788683e+2, 2.1095954e+2, -866371.3, -961022.4, -24873.543, -0.005516734, 0.012081118, -860232.8, 12379.801, 0.0, 5.0171556, 4.9562883 
4.788221e+2, 2.1591675e+2, -822492.44, -915392.5, -25103.031, -0.0048406203, 0.017252732, -816143.1, 7896.793, 0.0, 5.0155025, 4.9557996 
4.7877592e+2, 2.2087234e+2, -782774.1, -878831.3, -25044.791, -0.0069817705, 0.039980814, -776636.44, -1157.0194, 0.0, 5.0138273, 4.952197 
4.787292e+2, 2.2582601e+2, -735405.56, -824718.2, -25742.924, -0.010272437, 0.029520342, -728516.94, -1591.0895, 0.0, 5.0119925, 4.9546485 
4.7868237e+2, 2.3077938e+2, -691379.75, -777785.8, -25992.664, -0.0128011815, 0.010889846, -684163.3, -5788.989, 0.0, 5.0101166, 4.954668 
4.7863555e+2, 2.3573278e+2, -648020.6, -732295.9, -26223.451, -0.015481518, -0.007670144, -640527.1, -10704.615, 0.0, 5.0082226, 4.9541855 
4.7858995e+2, 2.406835e+2, -612443.56, -704337.5, -24785.025, -0.015722135, -0.008771611, -606185.0, -24883.555, 0.0, 5.006357, 4.947594 
4.785463e+2, 2.456347e+2, -566787.7, -654051.4, -24508.871, -0.017166216, 0.010899909, -560375.3, -27583.365, 0.0, 5.0045185, 4.948671 
4.7850257e+2, 2.5058648e+2, -522558.3, -606855.3, -24656.875, -0.020118354, 0.033024896, -515875.9, -31597.473, 0.0, 5.002658, 4.948711 
4.7845873e+2, 2.5553843e+2, -478567.53, -560222.25, -24751.186, -0.023643466, 0.05662132, -471650.8, -35887.766, 0.0, 5.000786, 4.9485517 
4.784181e+2, 2.6048735e+2, -445417.5, -539349.2, -21975.15, -0.015628397, 0.11818598, -440530.7, -53260.73, 0.0, 4.999158, 4.9392385 
4.7837943e+2, 2.6542947e+2, -391217.8, -467551.84, -23884.209, -0.013375362, 0.06597798, -384360.66, -45550.613, 0.0, 4.9968333, 4.9477243 
4.7833943e+2, 2.7037048e+2, -348917.38, -420772.28, -25454.275, -0.019862343, -0.030089326, -340814.16, -50456.555, 0.0, 4.99405, 4.947933 
4.782993e+2, 2.753115e+2, -306950.4, -374357.47, -27306.621, -0.028035836, -0.13073002, -297276.75, -55371.688, 0.0, 4.9911036, 4.9481025 
4.7826317e+2, 2.802518e+2, -285554.75, -378411.22, -21065.807, -0.0354743, -0.14577852, -280999.2, -87531.086, 0.0, 4.9888506, 4.9306955 
4.78237e+2, 2.851918e+2, -237322.08, -324788.13, -19768.033, -0.033887602, -0.070314325, -233061.84, -87984.17, 0.0, 4.987709, 4.932522 
4.7821075e+2, 2.9012975e+2, -191828.75, -276127.03, -19279.316, -0.03193201, -0.027249482, -187628.75, -90915.65, 0.0, 4.9861727, 4.932677 
4.7818446e+2, 2.950678e+2, -146430.98, -227597.28, -18914.8, -0.030668247, 0.014137074, -142239.56, -93891.65, 0.0, 4.9845557, 4.932835 
4.7816e+2, 3.0002272e+2, -79992.7, -97042.16, -12663.732, -0.03690047, 0.06686268, -73251.74, -73251.74, 0.0, 4.982857, 4.9715734 
4.7814748e+2, 3.0500188e+2, -66387.664, -57339.168, -7696.617, -0.03796701, 0.015834114, -52935.55, -52935.55, 0.0, 4.981296, 4.9864764 
4.781371e+2, 3.0998313e+2, -71541.4, -60135.867, -7162.813, -0.033467345, -0.059401352, -56682.902, -56682.902, 0.0, 4.9794335, 4.9863048 
4.7812656e+2, 3.1496406e+2, -77741.18, -63446.94, -6715.104, -0.032301456, -0.13533287, -60787.23, -60787.23, 0.0, 4.9771605, 4.986132 
4.8461363e+2, 1.2163245e+2, -1626703.3, -1746422.4, 2465.703, 0.0019772963, 0.0057144323, -1626652.4, 121343.984, 0.0, 5.051065, 4.972661 
4.845854e+2, 1.2660035e+2, -1586611.8, -1707080.3, -3506.7441, 0.0077294754, -0.019700956, -1586509.8, 112801.586, 0.0, 5.049217, 4.97047 
4.8455554e+2, 1.3157114e+2, -1543258.5, -1660988.3, -3834.223, 0.0047621173, -0.016490143, -1543133.8, 107463.98, 0.0, 5.047376, 4.970466 
4.845257e+2, 1.3654189e+2, -1502031.0, -1619334.9, -4171.88, 0.0017167885, -0.011976622, -1501882.8, 100001.58, 0.0, 5.045535, 4.968981 
4.8449305e+2, 1.415105e+2, -1462360.0, -1581074.4, -9318.765, 0.00032026676, 0.0048224283, -1461632.9, 91559.0, 0.0, 5.043688, 4.966303 
4.8445618e+2, 1.4647727e+2, -1418027.3, -1533014.4, -10214.604, 0.00018286804, 0.0016634943, -1417126.9, 87390.47, 0.0, 5.0418315, 4.966915 
4.844192e+2, 1.5144397e+2, -1374566.3, -1486780.5, -10438.187, -0.00019508883, -0.0027169965, -1373603.5, 82239.76, 0.0, 5.0399747, 4.966912 
4.8438224e+2, 1.5641066e+2, -1332444.9, -1443391.9, -10645.5205, -0.0005602658, -0.0066636996, -1331432.8, 75736.65, 0.0, 5.038118, 4.965947 
4.8434305e+2, 1.6137464e+2, -1293831.6, -1407729.5, -14794.065, -0.0005654453, -0.0041857646, -1291941.4, 66581.13, 0.0, 5.0362973, 4.9623885 
4.8430026e+2, 1.6633767e+2, -1249323.6, -1359596.3, -15717.809, 0.0011916959, -0.005477974, -1247127.0, 62759.668, 0.0, 5.0344763, 4.9629602 
4.842574e+2, 1.7130077e+2, -1205620.8, -1313142.8, -15935.72, 0.0030723664, -0.00661513, -1203308.6, 57941.29, 0.0, 5.0326495, 4.9629602 
4.842145e+2, 1.7626385e+2, -1163001.4, -1269026.6, -16131.245, 0.0049504177, -0.0074023856, -1160601.4, 52011.676, 0.0, 5.0308228, 4.9621654 
4.8417017e+2, 1.8122476e+2, -1123625.6, -1231849.1, -18619.477, 0.0044495175, 0.00090778014, -1120511.9, 43485.438, 0.0, 5.028977, 4.959043 
4.8412314e+2, 1.8618472e+2, -1078489.4, -1182265.3, -19440.098, 0.0009972143, -0.0011885442, -1074967.3, 40421.953, 0.0, 5.027107, 4.960079 
4.8407602e+2, 1.9114473e+2, -1034751.94, -1135708.1, -19723.969, -0.0023298478, -0.004231236, -1031035.25, 35745.383, 0.0, 5.02524, 4.96008 
4.840289e+2, 1.9610474e+2, -991870.06, -1091033.8, -19995.398, -0.0056687505, -0.0069831964, -987990.0, 30181.885, 0.0, 5.023373, 4.959431 
4.8398167e+2, 2.0106216e+2, -953856.94, -1057234.8, -20999.742, -0.006079568, -0.00082927675, -949754.0, 19836.578, 0.0, 5.02156, 4.9550343 
4.839337e+2, 2.0601915e+2, -908448.75, -1007222.3, -21284.732, -0.005606045, 0.00571355, -904057.3, 16961.777, 0.0, 5.0196986, 4.956154 
4.838856e+2, 2.1097638e+2, -864590.1, -960485.06, -21346.283, -0.0058352323, 0.012541225, -860053.06, 12392.459, 0.0, 5.017816, 4.9561634 
4.8383752e+2, 2.1593359e+2, -821362.6, -915171.7, -21394.162, -0.006116269, 0.019138416, -816713.9, 7158.2827, 0.0, 5.0159335, 4.955673 
4.8378938e+2, 2.208889e+2, -782371.8, -878875.1, -21277.746, -0.00883131, 0.039367273, -777888.6, -2574.448, 0.0, 5.0140033, 4.9521003 
4.837409e+2, 2.2584191e+2, -735749.06, -826083.5, -22184.643, -0.011050837, 0.027414775, -730594.94, -3826.3801, 0.0, 5.012106, 4.9541335 
4.836924e+2, 2.3079461e+2, -691713.2, -779180.4, -22767.432, -0.012251775, 0.008432473, -686141.8, -7916.7793, 0.0, 5.010231, 4.954145 
4.8364392e+2, 2.357473e+2, -648287.3, -733700.2, -23331.746, -0.013503534, -0.010957813, -642329.5, -12647.971, 0.0, 5.008356, 4.953655 
4.835966e+2, 2.406974e+2, -612306.25, -705027.4, -21917.645, -0.012816184, -0.012633477, -607386.4, -26219.39, 0.0, 5.00652, 4.94729 
4.835509e+2, 2.4564856e+2, -566408.56, -653775.0, -21301.959, -0.015354997, 0.0070503564, -561491.44, -28836.33, 0.0, 5.0046, 4.9487247 
4.8350513e+2, 2.5060022e+2, -522387.97, -606573.9, -21100.97, -0.01960442, 0.027171995, -517395.2, -33255.566, 0.0, 5.002649, 4.9487967 
4.834593e+2, 2.5555187e+2, -478570.44, -559919.75, -20878.28, -0.02439606, 0.04650709, -473524.97, -37900.97, 0.0, 5.0006976, 4.94867 
4.8341626e+2, 2.605008e+2, -446554.4, -539249.25, -17222.146, -0.020435853, 0.10377905, -443458.06, -56328.832, 0.0, 4.998713, 4.9394293 
4.8337573e+2, 2.6544273e+2, -393290.53, -472400.2, -18735.05, -0.018332934, 0.06453065, -389077.97, -50400.555, 0.0, 4.9969287, 4.9460435 
4.833344e+2, 2.7038276e+2, -348348.47, -425425.7, -20187.219, -0.019882502, -0.016887506, -343381.34, -53139.867, 0.0, 4.995201, 4.9459376 
4.8329306e+2, 2.7532223e+2, -303339.44, -378641.66, -21512.205, -0.020044811, -0.104708955, -297627.2, -55816.33, 0.0, 4.9934683, 4.945783 
4.832556e+2, 2.8025967e+2, -279073.06, -374671.78, -14394.155, -0.015207138, -0.12810382, -276952.78, -83546.03, 0.0, 4.9911666, 4.930933 
4.8322695e+2, 2.8519934e+2, -234089.16, -320152.6, -11567.872, -0.014282779, -0.06677484, -232561.42, -87547.445, 0.0, 4.988476, 4.9336195 
4.831984e+2, 2.9013795e+2, -191049.67, -273454.34, -11081.586, -0.016296674, -0.026445538, -189585.47, -92949.6, 0.0, 4.9860697, 4.933551 
4.831699e+2, 2.9507622e+2, -147911.72, -226761.92, -10546.444, -0.01730794, 0.010126218, -146525.47, -98264.1, 0.0, 4.983658, 4.9334826 
4.8314336e+2, 3.0003154e+2, -84818.875, -99428.734, -3714.8555, -0.023161478, 0.061809674, -83928.55, -83928.55, 0.0, 4.9809437, 4.971549 
4.8312765e+2, 3.050106e+2, -78361.85, -63894.047, 770.02795, -0.023883913, 0.012891492, -63853.176, -63853.176, 0.0, 4.976992, 4.9859757 
4.8311406e+2, 3.0999166e+2, -89622.93, -68914.34, -31.697166, -0.015129818, -0.058480266, -68914.3, -68914.3, 0.0, 4.972901, 4.9859247 
4.831006e+2, 3.1497318e+2, -100871.98, -73978.38, -879.653, -0.0035042628, -0.12397191, -73949.64, -73949.64, 0.0, 4.968794, 4.985873 
4.8966482e+2, 1.2165544e+2, -1627490.8, -1748076.9, 767.9672, 0.0036736985, -0.00776201, -1627485.9, 120285.67, 0.0, 5.0510674, 4.9721184 
4.8963383e+2, 1.2662561e+2, -1587174.8, -1708311.5, -4892.6064, 0.00034367896, -0.006258215, -1586977.4, 112087.01, 0.0, 5.049225, 4.970065 
4.896025e+2, 1.315954e+2, -1543818.6, -1662217.3, -5217.948, 0.001466386, -0.009076287, -1543589.1, 106771.836, 0.0, 5.0473843, 4.9700613 
4.8957118e+2, 1.3656515e+2, -1502593.9, -1620574.0, -5560.818, 0.0024468969, -0.010570171, -1502332.4, 99325.19, 0.0, 5.0455437, 4.968572 
4.8953694e+2, 1.41533e+2, -1462705.8, -1581885.9, -10742.4795, 0.0036436822, 0.0019941132, -1461745.1, 91227.36, 0.0, 5.043699, 4.966037 
4.8949817e+2, 1.4649953e+2, -1418362.5, -1533810.3, -11613.931, 0.0031728444, -0.00091059797, -1417205.8, 87094.08, 0.0, 5.041843, 4.966654 
4.8945928e+2, 1.5146601e+2, -1374900.1, -1487576.6, -11836.838, 0.0023543676, -0.0048104445, -1373670.0, 81957.36, 0.0, 5.039986, 4.96665 
4.8942044e+2, 1.564325e+2, -1332778.6, -1444191.1, -12046.344, 0.0015392518, -0.008260347, -1331491.0, 75464.07, 0.0, 5.03813, 4.965684 
4.8937935e+2, 1.613963e+2, -1294137.3, -1408471.4, -16183.085, 0.00088651356, -0.004893332, -1291890.8, 66418.89, 0.0, 5.0363092, 4.9621434 
4.8933464e+2, 1.6635917e+2, -1249636.0, -1360349.3, -17093.84, 0.0019984304, -0.005018115, -1247056.9, 62618.223, 0.0, 5.0344872, 4.962711 
4.8928988e+2, 1.7132215e+2, -1205934.1, -1313896.3, -17310.5, 0.0032332279, -0.004992599, -1203226.4, 57813.223, 0.0, 5.03266, 4.962711 
4.8924512e+2, 1.7628513e+2, -1163315.1, -1269779.3, -17503.805, 0.0044355174, -0.0045890054, -1160511.1, 51893.08, 0.0, 5.030833, 4.961916 
4.8919892e+2, 1.8124574e+2, -1123907.1, -1232576.1, -20067.436, 0.0039051035, 0.0031051177, -1120319.9, 43471.387, 0.0, 5.028993, 4.9588003 
4.8915008e+2, 1.8620515e+2, -1078886.4, -1183245.4, -20859.492, 0.0015694498, -0.0014335447, -1074871.5, 40317.33, 0.0, 5.0271235, 4.9597507 
4.8910123e+2, 1.9116461e+2, -1035153.06, -1136690.1, -21139.514, -0.0006738357, -0.0066702277, -1030927.75, 35657.96, 0.0, 5.0252547, 4.959751 
4.8905233e+2, 1.9612409e+2, -992275.44, -1092017.9, -21406.906, -0.002959173, -0.0115379905, -987875.2, 30107.322, 0.0, 5.0233865, 4.9591017 
4.890033e+2, 2.010813e+2, -954033.3, -1057748.5, -22382.225, -0.0032866523, -0.0046593966, -949409.3, 19993.826, 0.0, 5.0215774, 4.954863 
4.8895332e+2, 2.0603845e+2, -908453.8, -1007348.5, -22701.67, -0.0043214587, 0.0043855244, -903491.56, 17336.984, 0.0, 5.0197134, 4.956114 
4.889032e+2, 2.1099587e+2, -864607.94, -960609.3, -22754.063, -0.0060833064, 0.013331959, -859487.9, 12764.106, 0.0, 5.0178266, 4.9561253 
4.888531e+2, 2.1595325e+2, -821393.1, -915294.06, -22792.64, -0.007935796, 0.022168433, -816153.06, 7522.3755, 0.0, 5.015939, 4.955637 
4.8880297e+2, 2.209083e+2, -782525.1, -879402.1, -22831.27, -0.011110216, 0.03957238, -777414.06, -2294.458, 0.0, 5.0140285, 4.951924 
4.8875278e+2, 2.2586046e+2, -736549.3, -828047.6, -23639.248, -0.011361907, 0.025355184, -730802.9, -4218.1133, 0.0, 5.012132, 4.953472 
4.887026e+2, 2.3081242e+2, -692540.25, -781146.5, -24193.9, -0.010680252, 0.006451639, -686364.5, -8313.296, 0.0, 5.010248, 4.953485 
4.8865244e+2, 2.357644e+2, -649141.06, -735668.6, -24729.953, -0.010135493, -0.012490454, -642571.9, -13054.432, 0.0, 5.0083637, 4.952996 
4.8860335e+2, 2.40714e+2, -612407.7, -705407.0, -23304.848, -0.008849164, -0.01344646, -606894.5, -25885.57, 0.0, 5.0065413, 4.9471564 
4.8855558e+2, 2.456651e+2, -565986.4, -652938.8, -22751.934, -0.013279066, 0.0036898993, -560392.94, -27899.969, 0.0, 5.0046163, 4.94901 
4.8850763e+2, 2.506168e+2, -522027.97, -605750.4, -22501.506, -0.0196722, 0.021537242, -516363.63, -32391.879, 0.0, 5.0026464, 4.9490848 
4.8845962e+2, 2.555686e+2, -478272.4, -559108.6, -22229.367, -0.026786711, 0.039457217, -472562.78, -37113.12, 0.0, 5.0006766, 4.948961 
4.8841396e+2, 2.6051766e+2, -445645.9, -537678.8, -18928.043, -0.02838028, 0.09046791, -441905.1, -54954.254, 0.0, 4.9987736, 4.939995 
4.8837176e+2, 2.6545918e+2, -395124.3, -476923.66, -19998.36, -0.024816187, 0.059750874, -390496.88, -51984.727, 0.0, 4.9969687, 4.944556 
4.883293e+2, 2.7039886e+2, -350449.6, -429883.4, -21252.928, -0.022192506, -0.0043331473, -345120.75, -55031.195, 0.0, 4.995147, 4.9444947 
4.882868e+2, 2.7533817e+2, -305706.75, -383033.1, -22380.379, -0.018724732, -0.072934, -299696.4, -58026.008, 0.0, 4.9933205, 4.944385 
4.882473e+2, 2.8027436e+2, -278052.13, -372233.53, -16972.28, -0.010467251, -0.09892213, -275086.94, -81801.53, 0.0, 4.9911594, 4.9317827 
4.8821613e+2, 2.8521308e+2, -232438.03, -317243.9, -13664.486, -0.007162799, -0.057427905, -230290.69, -85397.6, 0.0, 4.9885798, 4.9346313 
4.8818538e+2, 2.901519e+2, -189632.72, -270649.78, -13032.402, -0.0076021934, -0.023218848, -187587.94, -91085.59, 0.0, 4.986107, 4.934562 
4.8815465e+2, 2.9509044e+2, -146727.94, -224060.16, -12351.692, -0.0074198246, 0.008699769, -144803.02, -96688.875, 0.0, 4.9836287, 4.934493 
4.8812595e+2, 3.000466e+2, -83462.8, -95910.305, -6256.671, -0.009144891, 0.056774065, -80861.52, -80861.52, 0.0, 4.9808416, 4.972882 
4.8810607e+2, 3.050259e+2, -79334.055, -66039.4, -2442.714, -0.0119545935, 0.012619382, -65604.79, -65604.79, 0.0, 4.976927, 4.9852743 
4.8808765e+2, 3.1000644e+2, -90292.59, -70839.46, -3098.666, -0.011907263, -0.05398634, -70357.805, -70357.805, 0.0, 4.972914, 4.985261 
4.8806918e+2, 3.1498712e+2, -101238.13, -75683.07, -3800.8442, -0.010806939, -0.11806496, -75129.74, -75129.74, 0.0, 4.9688864, 4.9852476 
4.9471593e+2, 1.2167874e+2, -1628200.4, -1749571.4, -910.5603, 0.0044421046, -0.018102333, -1628193.5, 119350.18, 0.0, 5.05107, 4.971628 
4.9468222e+2, 1.2665088e+2, -1587738.0, -1709542.9, -6278.2285, -0.0070836013, 0.0071623405, -1587415.3, 111402.28, 0.0, 5.0492334, 4.9696603 
4.9464947e+2, 1.3161966e+2, -1544379.0, -1663446.3, -6601.4336, -0.0018809544, -0.0017011596, -1544014.1, 106109.96, 0.0, 5.047393, 4.969656 
4.9461672e+2, 1.3658841e+2, -1503157.1, -1621813.1, -6949.5933, 0.003115281, -0.009218969, -1502751.5, 98679.234, 0.0, 5.0455523, 4.968163 
4.9458084e+2, 1.4155552e+2, -1463058.8, -1582715.0, -12164.66, 0.006942936, -0.0007997314, -1461834.6, 90918.59, 0.0, 5.04371, 4.965765 
4.9454018e+2, 1.4652179e+2, -1418697.1, -1534607.1, -13012.418, 0.0061529013, -0.0034531676, -1417254.3, 86828.016, 0.0, 5.041855, 4.966392 
4.9449942e+2, 1.5148805e+2, -1375233.3, -1488373.8, -13234.651, 0.0049028513, -0.006904778, -1373705.8, 81705.73, 0.0, 5.039998, 4.9663877 
4.9445865e+2, 1.5645431e+2, -1333111.8, -1444991.4, -13446.356, 0.0036467323, -0.009890244, -1331518.4, 75222.516, 0.0, 5.0381417, 4.9654202 
4.944156e+2, 1.6141798e+2, -1294449.4, -1409229.6, -17570.72, 0.0022859357, -0.0055567953, -1291819.9, 66276.79, 0.0, 5.036322, 4.9618936 
4.9436906e+2, 1.6638072e+2, -1249948.0, -1361103.0, -18469.707, 0.0027445927, -0.0045153387, -1246959.4, 62504.01, 0.0, 5.0344996, 4.9624615 
4.943224e+2, 1.7134355e+2, -1206247.0, -1314650.5, -18685.113, 0.003344918, -0.003357405, -1203116.8, 57712.645, 0.0, 5.0326715, 4.9624605 
4.9427572e+2, 1.7630638e+2, -1163628.4, -1270532.5, -18876.193, 0.0038828352, -0.0017931765, -1160393.3, 51802.016, 0.0, 5.0308433, 4.961666 
4.9422762e+2, 1.8126674e+2, -1124212.5, -1233356.6, -21507.994, 0.0033433062, 0.005423375, -1120127.0, 43458.11, 0.0, 5.02901, 4.958539 
4.9417707e+2, 1.862256e+2, -1079283.1, -1184226.5, -22279.314, 0.0021238443, -0.00158491, -1074749.1, 40239.145, 0.0, 5.02714, 4.959421 
4.9412644e+2, 1.911845e+2, -1035553.9, -1137673.3, -22555.492, 0.00097190164, -0.009119701, -1030793.8, 35596.957, 0.0, 5.02527, 4.9594207 
4.940758e+2, 1.9614343e+2, -992680.44, -1093003.0, -22818.848, -0.0002523079, -0.016207246, -987734.06, 30059.027, 0.0, 5.0234003, 4.9587708 
4.9402493e+2, 2.0110045e+2, -954237.56, -1058324.3, -23756.639, -0.00052473566, -0.008269826, -949071.75, 20143.717, 0.0, 5.021595, 4.9546695 
4.9397293e+2, 2.0605779e+2, -908459.1, -1007475.3, -24123.28, -0.0031325258, 0.0031743897, -902894.7, 17743.123, 0.0, 5.0197287, 4.9560714 
4.9392077e+2, 2.1101534e+2, -864625.9, -960734.25, -24166.516, -0.0064707957, 0.013968082, -858891.3, 13166.949, 0.0, 5.0178375, 4.9560847 
4.9386862e+2, 2.1597292e+2, -821423.7, -915417.06, -24195.795, -0.009938428, 0.024772735, -815560.9, 7917.809, 0.0, 5.015946, 4.955599 
4.9381655e+2, 2.209277e+2, -782865.3, -880341.0, -24355.916, -0.013357957, 0.04044411, -777118.44, -2193.5781, 0.0, 5.0140543, 4.951605 
4.9376467e+2, 2.2587903e+2, -737351.25, -830013.3, -25100.385, -0.01163553, 0.023959078, -730988.9, -4588.144, 0.0, 5.0121593, 4.9528036 
4.937128e+2, 2.3083022e+2, -693368.8, -783114.2, -25626.896, -0.009140942, 0.0043742703, -686566.56, -8689.097, 0.0, 5.0102654, 4.9528174 
4.9366096e+2, 2.3578146e+2, -649996.3, -737638.56, -26134.688, -0.0068691997, -0.014878595, -642794.75, -13441.118, 0.0, 5.0083723, 4.9523296 
4.9361017e+2, 2.4073069e+2, -612719.06, -706253.6, -24648.623, -0.0049530063, -0.013194135, -606621.1, -25771.05, 0.0, 5.006563, 4.9468594 
4.9356025e+2, 2.4568176e+2, -565566.6, -652103.2, -24215.213, -0.011579587, 0.0015206529, -559251.44, -26921.945, 0.0, 5.0046325, 4.9492846 
4.9351007e+2, 2.5063348e+2, -521670.3, -604927.44, -23915.365, -0.02043372, 0.015635777, -515289.7, -31486.613, 0.0, 5.0026445, 4.9493628 
4.9345982e+2, 2.5558534e+2, -477976.56, -558298.0, -23593.797, -0.030187912, 0.030684752, -471558.84, -36283.832, 0.0, 5.000656, 4.949242 
4.9341172e+2, 2.6053458e+2, -445726.94, -538335.4, -20498.36, -0.03623577, 0.07935735, -441392.6, -54620.133, 0.0, 4.9988346, 4.939772 
4.9336794e+2, 2.654755e+2, -396975.3, -481445.4, -21371.164, -0.03064643, 0.056606162, -391876.16, -53528.453, 0.0, 4.997009, 4.9430127 
4.9332416e+2, 2.7041474e+2, -352567.47, -434338.94, -22427.992, -0.024055328, 0.004963299, -346819.97, -56879.992, 0.0, 4.995093, 4.9429955 
4.9328032e+2, 2.7535373e+2, -308090.3, -387421.84, -23357.773, -0.017162865, -0.0493024, -301723.94, -60190.137, 0.0, 4.9931726, 4.94293 
4.93239e+2, 2.8028914e+2, -278490.1, -373146.75, -19141.88, -0.006899963, -0.06884475, -274765.7, -81602.6, 0.0, 4.991155, 4.931453 
4.9320525e+2, 2.852273e+2, -230800.52, -314329.5, -15770.203, -0.0016777649, -0.04034282, -227922.3, -83154.734, 0.0, 4.9886847, 4.93561 
4.9317226e+2, 2.9016614e+2, -188228.78, -267839.25, -14992.507, 0.00015770683, -0.016404713, -185498.95, -89133.28, 0.0, 4.986145, 4.9355397 
4.9313933e+2, 2.951048e+2, -145556.66, -221352.1, -14166.408, 0.0022327672, 0.0067174584, -142995.45, -95030.195, 0.0, 4.9836, 4.93547 
4.9310818e+2, 3.0006158e+2, -82976.11, -94356.31, -8882.136, 0.003642631, 0.050528865, -78117.77, -78117.77, 0.0, 4.9807405, 4.9734917 
4.9308407e+2, 3.0504093e+2, -80328.35, -68160.12, -5665.45, -0.0032650272, 0.010882946, -65930.766, -65930.766, 0.0, 4.976865, 4.9845505 
4.930609e+2, 3.1002077e+2, -90984.32, -72739.78, -6175.3423, -0.012384113, -0.05389959, -70846.125, -70846.125, 0.0, 4.972931, 4.9845753 
4.9303764e+2, 3.1500056e+2, -101626.36, -77362.8, -6731.476, -0.02226701, -0.11950063, -75620.4, -75620.4, 0.0, 4.9689817, 4.9845996 
4.997669e+2, 1.2170286e+2, -1627863.6, -1750485.0, -976.5712, 0.0036450261, -0.023210315, -1627855.8, 119452.21, 0.0, 5.051415, 4.971162 
4.9973077e+2, 1.2667623e+2, -1587236.6, -1710246.9, -6120.689, -0.013007676, 0.018503098, -1586932.9, 111637.195, 0.0, 5.049602, 4.9692516 
4.996965e+2, 1.316441e+2, -1543882.5, -1664149.9, -6474.381, -0.0046219192, 0.0046734135, -1543535.0, 106350.586, 0.0, 5.0477586, 4.969249 
4.9966225e+2, 1.3661194e+2, -1502723.0, -1622554.3, -6855.5547, 0.003656552, -0.007882263, -1502332.0, 98869.33, 0.0, 5.045898, 4.967753 
4.996247e+2, 1.4157832e+2, -1462512.4, -1583114.3, -12132.948, 0.009806509, -0.0029460203, -1461303.9, 91226.8, 0.0, 5.0440307, 4.9654827 
4.9958217e+2, 1.4654432e+2, -1418231.6, -1535008.4, -13006.464, 0.008868836, -0.0055128643, -1416800.6, 87061.39, 0.0, 5.04214, 4.9661264 
4.9953952e+2, 1.5151036e+2, -1374876.4, -1488825.5, -13271.499, 0.007360437, -0.008724996, -1373351.1, 81842.125, 0.0, 5.040246, 4.966123 
4.9949685e+2, 1.5647636e+2, -1332864.4, -1445495.9, -13523.447, 0.0058293003, -0.011449291, -1331263.4, 75261.08, 0.0, 5.038353, 4.965156 
4.994519e+2, 1.6143984e+2, -1294282.8, -1409744.9, -17650.346, 0.0037976354, -0.0062436233, -1291644.9, 66236.91, 0.0, 5.0364976, 4.961643 
4.9940342e+2, 1.6640243e+2, -1249861.3, -1361650.6, -18552.3, 0.003529164, -0.0040831673, -1246862.8, 62387.203, 0.0, 5.034645, 4.962214 
4.9935487e+2, 1.7136513e+2, -1206253.8, -1315244.4, -18779.77, 0.003486161, -0.0018940162, -1203108.6, 57508.754, 0.0, 5.032784, 4.962213 
4.993063e+2, 1.7632781e+2, -1163739.4, -1271176.3, -18978.6, 0.0034070658, 0.00068787165, -1160485.4, 51499.4, 0.0, 5.030919, 4.9614186 
4.9925637e+2, 1.8128787e+2, -1124414.3, -1234113.9, -21682.252, 0.0029330193, 0.0075274683, -1120284.3, 43093.242, 0.0, 5.029066, 4.958263 
4.9920404e+2, 1.8624619e+2, -1079551.0, -1185127.5, -22468.213, 0.0027873453, -0.0017627701, -1074968.4, 39817.844, 0.0, 5.027197, 4.9590955 
4.9915165e+2, 1.9120456e+2, -1035837.2, -1138578.8, -22762.525, 0.002701143, -0.0115548065, -1031020.0, 35174.23, 0.0, 5.025321, 4.9590955 
4.9909928e+2, 1.9616295e+2, -992993.5, -1093919.4, -23037.877, 0.002531346, -0.020908702, -987983.44, 29618.643, 0.0, 5.0234413, 4.9584455 
4.9904656e+2, 2.0111977e+2, -954481.4, -1058926.0, -23915.018, 0.002250858, -0.0116856145, -949265.9, 19760.256, 0.0, 5.0216045, 4.954466 
4.9899253e+2, 2.0607728e+2, -908593.0, -1007682.3, -24400.979, -0.0019664334, 0.0020644465, -902910.1, 17535.406, 0.0, 5.019704, 4.9560156 
4.9893835e+2, 2.1103494e+2, -864875.4, -961007.9, -24524.055, -0.006815411, 0.014324367, -858980.6, 12882.896, 0.0, 5.0177717, 4.9560256 
4.9888417e+2, 2.1599261e+2, -821820.75, -915768.7, -24642.174, -0.011767631, 0.026548158, -815749.56, 7531.9556, 0.0, 5.0158286, 4.955537 
4.988302e+2, 2.2094715e+2, -783817.06, -881829.1, -24932.666, -0.015113269, 0.041324217, -777839.2, -3109.415, 0.0, 5.0139184, 4.951167 
4.9877658e+2, 2.2589767e+2, -738431.44, -832017.2, -25580.045, -0.011609582, 0.02286148, -731896.0, -5680.064, 0.0, 5.0120697, 4.9521656 
4.98723e+2, 2.3084812e+2, -694396.0, -785085.44, -25994.645, -0.007521332, 0.0019127282, -687473.5, -9770.662, 0.0, 5.010195, 4.95218 
4.9866942e+2, 2.3579861e+2, -651054.7, -739612.3, -26374.438, -0.003678065, -0.018631414, -643794.94, -14605.831, 0.0, 5.0082917, 4.951692 
4.9861693e+2, 2.4074756e+2, -613589.56, -707686.3, -24651.375, -0.0012020278, -0.012610482, -607522.56, -26833.27, 0.0, 5.0064635, 4.9464097 
4.985648e+2, 2.4569869e+2, -565351.1, -651455.5, -24646.088, -0.01036488, 0.0006406667, -558795.6, -26632.068, 0.0, 5.004598, 4.949508 
4.9851242e+2, 2.506503e+2, -521392.7, -604248.25, -24602.934, -0.021726511, 0.009722457, -514637.84, -31004.826, 0.0, 5.002629, 4.9495883 
4.9845994e+2, 2.556021e+2, -477817.78, -557662.1, -24505.4, -0.033910234, 0.019743772, -470896.66, -35795.934, 0.0, 5.0005975, 4.9494705 
4.9840966e+2, 2.6055127e+2, -447179.88, -541178.7, -21456.162, -0.04281601, 0.06880556, -442513.9, -55917.996, 0.0, 4.998723, 4.938844 
4.9836427e+2, 2.6549178e+2, -399188.44, -485904.8, -21924.783, -0.03518999, 0.05401565, -393960.3, -55775.977, 0.0, 4.9968867, 4.9415035 
4.98319e+2, 2.7043048e+2, -354901.5, -438714.38, -22479.596, -0.025321012, 0.0108217355, -349252.88, -59461.375, 0.0, 4.9949436, 4.941509 
4.982737e+2, 2.7536914e+2, -310586.88, -391695.2, -23034.969, -0.015534681, -0.033310093, -304501.47, -63102.625, 0.0, 4.9929886, 4.941468 
4.9823052e+2, 2.8030428e+2, -280536.28, -377348.97, -19265.791, -0.004842789, -0.03701187, -276843.25, -83805.99, 0.0, 4.99112, 4.9299607 
4.9819443e+2, 2.8524214e+2, -229352.45, -311545.1, -16471.377, 0.0018966714, -0.015353396, -226174.47, -81538.586, 0.0, 4.9887586, 4.9365096 
4.9815908e+2, 2.9018074e+2, -186975.3, -265133.78, -15911.53, 0.006786516, -0.0061240103, -183860.19, -87634.96, 0.0, 4.986152, 4.9364543 
4.9812385e+2, 2.9511935e+2, -144626.34, -218764.73, -15220.27, 0.011564114, 0.003783055, -141623.33, -93808.58, 0.0, 4.9835014, 4.936397 
4.9809006e+2, 3.0007648e+2, -83683.6, -94873.02, -10929.22, 0.015243667, 0.04243581, -77000.336, -77000.336, 0.0, 4.9805264, 4.9733872 
4.9806166e+2, 3.050556e+2, -82051.54, -70598.17, -8283.635, 0.0026970848, 0.0069971723, -66254.43, -66254.43, 0.0, 4.976561, 4.9837866 
4.9803382e+2, 3.1003466e+2, -93528.96, -75477.32, -8942.285, -0.015411608, -0.058548, -71797.63, -71797.63, 0.0, 4.9723067, 4.9838367 
4.980059e+2, 3.1501344e+2, -105706.234, -80698.72, -9830.586, -0.035956856, -0.12803543, -77296.99, -77296.99, 0.0, 4.967782, 4.9838886 
5.0481975e+2, 1.2173423e+2, -1616266.6, -1745755.9, 2475.7046, -0.0031404018, -0.01184763, -1616219.3, 130782.5, 0.0, 5.055559, 4.9706903 
5.0478286e+2, 1.2670559e+2, -1576265.3, -1705676.9, -2521.8345, -0.008457379, 0.013936092, -1576216.1, 122067.266, 0.0, 5.053501, 4.9688535 
5.047463e+2, 1.3167334e+2, -1533622.0, -1659944.9, -2874.6213, -0.0024938595, 0.003374603, -1533556.6, 116043.195, 0.0, 5.0514245, 4.9688516 
5.047099e+2, 1.3664106e+2, -1493119.3, -1618693.3, -3262.3623, 0.0035365568, -0.0060376045, -1493034.6, 107882.04, 0.0, 5.049348, 4.9673533 
5.046702e+2, 1.416072e+2, -1453344.5, -1579302.0, -8553.765, 0.008715568, 0.0005111375, -1452766.3, 99481.88, 0.0, 5.047295, 4.965162 
5.0462574e+2, 1.4657274e+2, -1409644.0, -1531470.8, -9439.527, 0.008687638, -0.003257717, -1408916.9, 94667.266, 0.0, 5.04521, 4.965816 
5.045812e+2, 1.5153828e+2, -1366883.1, -1485586.0, -9734.14, 0.008103377, -0.007717504, -1366090.3, 88829.88, 0.0, 5.043119, 4.9658146 
5.045366e+2, 1.5650384e+2, -1325462.4, -1442553.5, -10020.372, 0.0074818283, -0.011669091, -1324611.0, 81645.04, 0.0, 5.041029, 4.9648485 
5.044897e+2, 1.6146696e+2, -1287251.9, -1406637.5, -14108.881, 0.005863778, -0.007413183, -1285607.3, 72009.58, 0.0, 5.038968, 4.961497 
5.044392e+2, 1.6642936e+2, -1243476.8, -1358878.1, -14901.612, 0.004943398, -0.0052400203, -1241583.6, 67402.63, 0.0, 5.036899, 4.962065 
5.043886e+2, 1.7139183e+2, -1200496.5, -1312789.6, -15037.696, 0.0042692753, -0.0030029772, -1198517.6, 61837.336, 0.0, 5.0348263, 4.9620633 
5.04338e+2, 1.763543e+2, -1158592.0, -1269027.9, -15144.74, 0.003632055, -0.00041295192, -1156552.8, 55170.926, 0.0, 5.032754, 4.9612684 
5.042861e+2, 1.8131411e+2, -1119915.6, -1232517.5, -17767.533, 0.0033919353, 0.0061985403, -1117178.6, 45939.96, 0.0, 5.0307245, 4.9580092 
5.042319e+2, 1.862722e+2, -1075521.4, -1183868.9, -18508.65, 0.0041253944, -0.002239139, -1072446.8, 42083.688, 0.0, 5.02872, 4.9587946 
5.0417763e+2, 1.9123033e+2, -1032194.0, -1137502.8, -18782.979, 0.0048400983, -0.011101601, -1028944.1, 36997.625, 0.0, 5.0267124, 4.958797 
5.041234e+2, 1.9618848e+2, -989720.75, -1093016.4, -19041.324, 0.0054745837, -0.019666068, -986322.5, 31030.434, 0.0, 5.024706, 4.95815 
5.040687e+2, 2.0114514e+2, -951376.1, -1057393.6, -19854.459, 0.004773993, -0.010186304, -947779.9, 20998.695, 0.0, 5.0226717, 4.9544806 
5.040125e+2, 2.061023e+2, -906300.94, -1006668.6, -20265.455, -0.00042823912, 0.001027557, -902363.56, 17835.877, 0.0, 5.02051, 4.9559813 
5.0395626e+2, 2.1105954e+2, -863271.0, -960369.94, -20303.492, -0.005917988, 0.010261824, -859196.5, 12423.064, 0.0, 5.0183377, 4.9559784 
5.039e+2, 2.1601675e+2, -820865.7, -915491.75, -20324.178, -0.011377464, 0.019202542, -816685.06, 6354.934, 0.0, 5.0161657, 4.9554763 
5.03844e+2, 2.2097076e+2, -783642.2, -882399.4, -20427.963, -0.014259918, 0.030530391, -779583.44, -5090.746, 0.0, 5.014085, 4.950887 
5.0378853e+2, 2.2592139e+2, -738409.75, -832850.06, -20901.443, -0.010631856, 0.017282754, -733990.6, -8010.143, 0.0, 5.0122304, 4.9517965 
5.0373304e+2, 2.30872e+2, -694278.2, -785844.1, -21247.047, -0.0067662415, 0.0024566478, -689588.2, -12119.806, 0.0, 5.0103874, 4.9518204 
5.036776e+2, 2.3582265e+2, -650758.9, -740261.94, -21567.107, -0.003106768, -0.012690737, -645833.06, -16876.871, 0.0, 5.008544, 4.951342 
5.036231e+2, 2.4077171e+2, -613150.9, -707304.94, -19632.08, -0.0014768563, -0.0033808516, -609221.4, -28764.732, 0.0, 5.006593, 4.9464855 
5.0356907e+2, 2.4572219e+2, -566023.7, -651866.5, -19612.324, -0.010451486, 0.0049709347, -561755.1, -29820.82, 0.0, 5.004376, 4.949478 
5.0351477e+2, 2.5067276e+2, -522733.13, -605032.94, -19691.814, -0.020365212, 0.005927869, -518264.13, -34853.77, 0.0, 5.0021467, 4.9495435 
5.0346047e+2, 2.5562328e+2, -479633.38, -558747.7, -19753.277, -0.030152848, 0.0050474824, -474975.6, -40088.57, 0.0, 4.999917, 4.949411 
5.034082e+2, 2.6057112e+2, -449459.34, -541063.5, -16387.016, -0.036712267, 0.03858473, -446616.16, -60222.727, 0.0, 4.9976315, 4.9393587 
5.033606e+2, 2.6551282e+2, -402666.84, -487511.88, -15877.548, -0.030977389, 0.03533772, -399792.94, -61818.098, 0.0, 4.99564, 4.941512 
5.033133e+2, 2.7045316e+2, -358376.34, -440433.72, -15775.931, -0.02339728, 0.011732858, -355447.88, -65877.266, 0.0, 4.993737, 4.9414716 
5.03266e+2, 2.7539343e+2, -314057.5, -393505.4, -15629.627, -0.015661385, -0.012745736, -311093.3, -69926.19, 0.0, 4.991834, 4.941383 
5.0322056e+2, 2.803297e+2, -284275.8, -378777.94, -10308.537, -0.00806789, -0.0029711952, -283164.38, -90366.31, 0.0, 4.9897485, 4.9300876 
5.031819e+2, 2.8526622e+2, -234321.11, -313682.38, -7484.2056, -0.0016514817, 0.005586448, -233621.47, -89215.84, 0.0, 4.9869328, 4.9365697 
5.031439e+2, 2.9020336e+2, -192638.28, -267260.7, -7649.592, 0.0047346842, -0.0003996148, -191862.2, -95857.43, 0.0, 4.984034, 4.936624 
5.0310594e+2, 2.9514065e+2, -150875.67, -220817.19, -7784.061, 0.011208493, -0.0051084636, -150019.83, -102417.664, 0.0, 4.981136, 4.9366784 
5.0306964e+2, 3.0009708e+2, -89635.09, -96325.5, -4350.3716, 0.018288739, 0.022397703, -87492.484, -87492.484, 0.0, 4.9781966, 4.973837 
5.0303847e+2, 3.050769e+2, -87411.875, -74300.74, -1668.5973, 0.013862285, -0.0022006514, -74091.72, -74091.72, 0.0, 4.974881, 4.9831743 
5.0300765e+2, 3.1005648e+2, -96581.62, -78558.91, -2034.2301, 0.004079487, -0.05345589, -78332.16, -78332.16, 0.0, 4.971471, 4.9831204 
5.029765e+2, 3.1503558e+2, -105708.99, -82884.09, -2402.6812, -0.008029542, -0.1093437, -82633.914, -82633.914, 0.0, 4.9680505, 4.9830666 
5.0987464e+2, 1.2176804e+2, -1616874.3, -1747078.4, 798.0558, -0.009083224, -0.0012326778, -1616869.4, 129802.445, 0.0, 5.055565, 4.9702578 
5.0983685e+2, 1.2673715e+2, -1576847.6, -1706976.1, -4077.465, -0.0019680546, 0.006211902, -1576720.0, 121255.27, 0.0, 5.053511, 4.9684277 
5.09798e+2, 1.3170496e+2, -1534200.8, -1661241.5, -4429.7456, 0.0006205745, 0.0005758514, -1534046.5, 115244.22, 0.0, 5.0514345, 4.9684258 
5.0975907e+2, 1.3667275e+2, -1493700.1, -1619999.9, -4825.502, 0.00325276, -0.0039090496, -1493516.1, 107090.49, 0.0, 5.0493584, 4.9669237 
5.097171e+2, 1.4163877e+2, -1453812.8, -1580396.5, -10135.367, 0.0066906405, 0.0054443707, -1453006.4, 98932.766, 0.0, 5.047309, 4.9648013 
5.096707e+2, 1.4660382e+2, -1410096.6, -1532536.1, -11011.217, 0.0077551156, 0.00016731773, -1409114.3, 94166.05, 0.0, 5.045223, 4.965464 
5.096241e+2, 1.5156886e+2, -1367333.5, -1486648.8, -11305.445, 0.008310993, -0.005902644, -1366271.8, 88349.59, 0.0, 5.0431323, 4.9654627 
5.0957763e+2, 1.5653391e+2, -1325913.1, -1443619.3, -11595.548, 0.008824152, -0.011457337, -1324781.6, 81180.88, 0.0, 5.0410423, 4.9644947 
5.0952864e+2, 1.6149662e+2, -1287392.0, -1407065.9, -15690.406, 0.007883298, -0.008585526, -1285369.0, 71957.86, 0.0, 5.038984, 4.961359 
5.09476e+2, 1.6645885e+2, -1243607.0, -1359286.3, -16467.746, 0.0064689666, -0.006818108, -1241308.4, 67388.9, 0.0, 5.0369143, 4.961935 
5.0942326e+2, 1.7142116e+2, -1200628.9, -1313200.6, -16602.033, 0.0052238894, -0.0048876298, -1198231.5, 61835.35, 0.0, 5.034841, 4.961932 
5.0937057e+2, 1.7638347e+2, -1158726.1, -1269441.1, -16706.492, 0.0039963815, -0.0025781908, -1156260.1, 55176.266, 0.0, 5.032768, 4.961137 
5.0931656e+2, 1.8134308e+2, -1120229.4, -1233344.9, -19306.436, 0.0038777273, 0.004143356, -1117024.9, 45807.895, 0.0, 5.030744, 4.957732 
5.092605e+2, 1.8630105e+2, -1075890.9, -1184816.8, -20026.04, 0.005423898, -0.002357953, -1072325.8, 41921.01, 0.0, 5.028739, 4.958475 
5.0920427e+2, 1.912591e+2, -1032566.4, -1138449.9, -20297.64, 0.0068591423, -0.009055561, -1028808.75, 36851.223, 0.0, 5.0267305, 4.9584775 
5.091481e+2, 1.9621715e+2, -990096.06, -1093963.1, -20553.053, 0.008188659, -0.015395265, -986176.94, 30896.041, 0.0, 5.024722, 4.957831 
5.090913e+2, 2.0117371e+2, -951221.6, -1057229.1, -21484.73, 0.007055663, -0.00579887, -947032.8, 21467.043, 0.0, 5.022692, 4.9545426 
5.090329e+2, 2.0613034e+2, -906245.4, -1006697.2, -21908.744, 0.0011013359, 0.0000726726, -901675.0, 18248.848, 0.0, 5.0205274, 4.9559817 
5.089744e+2, 2.1108702e+2, -863231.06, -960396.75, -21934.314, -0.0049612797, 0.0039198278, -858509.06, 12838.33, 0.0, 5.0183496, 4.9559813 
5.089159e+2, 2.1604368e+2, -820841.3, -915516.7, -21942.37, -0.011042302, 0.007652874, -816003.06, 6767.9746, 0.0, 5.0161724, 4.9554815 
5.088579e+2, 2.2099724e+2, -783975.2, -883366.44, -21942.197, -0.013757865, 0.016043844, -779346.6, -5119.448, 0.0, 5.0141163, 4.9505525 
5.088005e+2, 2.2594833e+2, -738799.6, -833943.1, -22314.012, -0.010436113, 0.011263849, -733826.3, -8113.379, 0.0, 5.0122614, 4.951418 
5.087431e+2, 2.3089962e+2, -694708.94, -786942.6, -22631.62, -0.00735746, 0.006604711, -689455.0, -12257.664, 0.0, 5.010405, 4.9514437 
5.086857e+2, 2.3585092e+2, -651230.4, -741365.75, -22923.559, -0.0046086498, 0.0020617093, -645735.4, -17054.068, 0.0, 5.0085487, 4.950968 
5.0862914e+2, 2.4080037e+2, -612781.6, -706681.7, -21326.164, -0.004072117, 0.016055945, -608165.06, -27985.598, 0.0, 5.006619, 4.946709 
5.085731e+2, 2.4574962e+2, -565941.25, -651861.2, -21326.8, -0.010760823, 0.012201347, -560938.8, -29271.807, 0.0, 5.0043964, 4.949506 
5.085169e+2, 2.5069886e+2, -522731.75, -605081.1, -21345.256, -0.01796916, 0.0012113763, -517527.84, -34374.258, 0.0, 5.0021462, 4.949564 
5.0846076e+2, 2.556481e+2, -479712.66, -558848.8, -21345.686, -0.0252615, -0.010667666, -474322.2, -39682.066, 0.0, 4.9998956, 4.9494243 
5.084064e+2, 2.6059482e+2, -448245.88, -538626.2, -18194.738, -0.030132899, 0.007885959, -444720.53, -58564.336, 0.0, 4.9976664, 4.9402165 
5.083566e+2, 2.6553795e+2, -402046.7, -486499.84, -17299.438, -0.026191354, 0.015607323, -398640.44, -60915.066, 0.0, 4.9956875, 4.9419036 
5.0830704e+2, 2.7048042e+2, -357864.97, -439421.9, -17082.078, -0.021191359, 0.012624069, -354431.7, -65129.242, 0.0, 4.993752, 4.9418726 
5.082575e+2, 2.7542287e+2, -313654.47, -392493.34, -16820.219, -0.0161665, 0.009460756, -310215.88, -69336.195, 0.0, 4.9918156, 4.941794 
5.082098e+2, 2.8036076e+2, -282747.72, -375478.5, -12035.677, -0.012055698, 0.028400304, -281211.06, -88714.28, 0.0, 4.9897714, 4.9312477 
5.0816816e+2, 2.85296e+2, -234222.88, -313832.44, -9815.979, -0.007117657, 0.021154806, -233030.42, -88914.6, 0.0, 4.9869795, 4.9365377 
5.081272e+2, 2.902315e+2, -192622.98, -267394.56, -9907.702, -0.0012863643, 0.0017393616, -191332.42, -95603.445, 0.0, 4.9840508, 4.9366074 
5.0808626e+2, 2.9516724e+2, -150943.03, -220934.61, -9968.631, 0.004592737, -0.016322372, -149550.94, -102210.66, 0.0, 4.9811225, 4.9366765 
5.0804716e+2, 3.0012262e+2, -89167.46, -94671.08, -6743.3457, 0.013893589, -0.0010999404, -84636.055, -84636.055, 0.0, 4.9781065, 4.9744854 
5.0801414e+2, 3.0510408e+2, -88179.02, -75300.18, -4395.5933, 0.021904394, -0.008563215, -73942.98, -73942.98, 0.0, 4.9747686, 4.982868 
5.079814e+2, 3.1008545e+2, -97142.27, -79270.88, -4604.0513, 0.024188114, -0.036570508, -78154.516, -78154.516, 0.0, 4.9713945, 4.982886 
5.0794834e+2, 3.1506634e+2, -106062.56, -83308.52, -4815.46, 0.023011442, -0.07091796, -82331.39, -82331.39, 0.0, 4.9680104, 4.982903 
5.1492983e+2, 1.21801436e+2, -1617409.6, -1748253.3, -873.6811, -0.012335963, 0.005222995, -1617403.8, 128942.23, 0.0, 5.0555706, 4.9698744 
5.1489085e+2, 1.2676871e+2, -1577429.3, -1708276.6, -5632.7666, 0.004456087, -0.0014157459, -1577187.1, 120479.82, 0.0, 5.0535216, 4.9680023 
5.1484954e+2, 1.3173659e+2, -1534778.8, -1662539.3, -5984.5415, 0.0036690081, -0.002145041, -1534499.1, 114482.45, 0.0, 5.051445, 4.968 
5.148083e+2, 1.3670443e+2, -1494280.4, -1621307.6, -6388.397, 0.0029021392, -0.0017212809, -1493959.9, 106336.57, 0.0, 5.0493693, 4.9664936 
5.14764e+2, 1.4167033e+2, -1454286.9, -1581506.9, -11715.806, 0.004655219, 0.010439885, -1453217.0, 98413.09, 0.0, 5.0473228, 4.964435 
5.147156e+2, 1.4663489e+2, -1410548.3, -1533603.0, -12583.032, 0.006821876, 0.0036227982, -1409274.8, 93701.59, 0.0, 5.0452375, 4.9651113 
5.146671e+2, 1.5159942e+2, -1367783.0, -1487712.8, -12876.877, 0.00852031, -0.0040899557, -1366416.0, 87906.68, 0.0, 5.0431466, 4.9651103 
5.146186e+2, 1.5656397e+2, -1326362.8, -1444686.4, -13170.88, 0.01017059, -0.011280325, -1324914.5, 80754.52, 0.0, 5.0410566, 4.9641404 
5.1456755e+2, 1.6152631e+2, -1287543.4, -1407521.3, -17270.344, 0.00987032, -0.009707833, -1285106.9, 71930.18, 0.0, 5.0389996, 4.9612117 
5.1451284e+2, 1.6648835e+2, -1243736.4, -1359695.5, -18033.27, 0.007974953, -0.008372865, -1240996.8, 67411.555, 0.0, 5.0369306, 4.961804 
5.1445794e+2, 1.7145047e+2, -1200760.4, -1313613.0, -18165.76, 0.006186282, -0.0068114297, -1197908.4, 61870.31, 0.0, 5.0348563, 4.9618 
5.1440316e+2, 1.7641261e+2, -1158859.5, -1269855.8, -18267.621, 0.0043958053, -0.00484496, -1155930.3, 55218.8, 0.0, 5.0327826, 4.9610043 
5.1434714e+2, 1.8137208e+2, -1120565.9, -1234224.3, -20837.863, 0.004335381, 0.002256858, -1116866.0, 45680.914, 0.0, 5.030764, 4.9574375 
5.142891e+2, 1.8632993e+2, -1076259.8, -1185765.8, -21544.38, 0.006649982, -0.0022861434, -1072173.6, 41789.223, 0.0, 5.028759, 4.958155 
5.142309e+2, 1.9128788e+2, -1032938.25, -1139398.1, -21813.256, 0.008795165, -0.0069030947, -1028642.1, 36735.85, 0.0, 5.026749, 4.9581575 
5.141728e+2, 1.9624585e+2, -990470.9, -1094910.9, -22065.734, 0.010809135, -0.011102104, -986000.25, 30792.676, 0.0, 5.0247393, 4.957511 
5.141139e+2, 2.0120229e+2, -951115.44, -1057172.3, -23110.799, 0.009378755, -0.0012522567, -946298.2, 21922.887, 0.0, 5.022713, 4.954567 
5.140533e+2, 2.0615837e+2, -906189.94, -1006727.1, -23557.318, 0.0026534079, -0.0009659875, -900943.9, 18704.504, 0.0, 5.020545, 4.9559784 
5.1399255e+2, 2.1111447e+2, -863191.1, -960424.9, -23570.42, -0.004051767, -0.002861866, -857778.7, 13296.697, 0.0, 5.018362, 4.9559803 
5.139319e+2, 2.1607058e+2, -820816.9, -915542.94, -23565.85, -0.010823907, -0.004691857, -815278.06, 7224.3677, 0.0, 5.0161796, 4.955483 
5.138718e+2, 2.2102377e+2, -784469.25, -884688.44, -23414.063, -0.013384166, 0.0024677555, -779268.9, -5307.805, 0.0, 5.014148, 4.950094 
5.138125e+2, 2.2597538e+2, -739191.9, -835036.56, -23736.223, -0.010483262, 0.00635862, -733635.6, -8191.1494, 0.0, 5.0122924, 4.951033 
5.137531e+2, 2.3092726e+2, -695141.94, -788041.4, -24025.832, -0.008267916, 0.011141921, -689296.2, -12370.504, 0.0, 5.010423, 4.951061 
5.136938e+2, 2.3587923e+2, -651704.06, -742469.9, -24289.654, -0.0065059867, 0.016479988, -645612.75, -17206.738, 0.0, 5.008554, 4.9505873 
5.136352e+2, 2.4082908e+2, -612711.0, -706723.3, -22960.975, -0.006898097, 0.03650905, -607402.9, -27501.035, 0.0, 5.006645, 4.946699 
5.135772e+2, 2.4577707e+2, -565862.44, -651857.3, -23041.682, -0.011159499, 0.01998465, -560077.75, -28678.38, 0.0, 5.0044174, 4.9495187 
5.135191e+2, 2.507249e+2, -522733.9, -605130.6, -22999.133, -0.015549926, -0.004659666, -516748.94, -33851.883, 0.0, 5.0021462, 4.9495697 
5.13461e+2, 2.556728e+2, -479795.25, -558951.1, -22938.563, -0.020234598, -0.029242126, -473628.34, -39234.297, 0.0, 4.9998746, 4.9494224 
5.134046e+2, 2.6061863e+2, -447751.28, -537814.9, -19875.502, -0.023712786, -0.020525265, -443560.13, -57642.53, 0.0, 4.9977026, 4.9405026 
5.133525e+2, 2.655633e+2, -401431.94, -485489.53, -18760.379, -0.021835968, -0.00027577294, -397434.97, -59961.664, 0.0, 4.9957356, 4.9422626 
5.133008e+2, 2.7050784e+2, -357358.56, -438411.66, -18427.291, -0.019352164, 0.014193014, -353365.84, -64333.184, 0.0, 4.993767, 4.9422417 
5.1324904e+2, 2.7545244e+2, -313256.0, -391482.7, -18049.893, -0.01697458, 0.029181274, -309292.06, -68700.414, 0.0, 4.9917974, 4.942173 
5.131991e+2, 2.8039184e+2, -282152.2, -374322.4, -13668.888, -0.01639808, 0.060029153, -280167.8, -87972.92, 0.0, 4.9897957, 4.9316545 
5.1315457e+2, 2.8532574e+2, -234126.92, -313983.16, -12174.15, -0.012791058, 0.038795307, -232312.2, -88486.55, 0.0, 4.9870267, 4.9364862 
5.1311046e+2, 2.902596e+2, -192609.69, -267528.97, -12192.23, -0.007284929, 0.003451374, -190675.47, -95221.586, 0.0, 4.9840684, 4.9365706 
5.1306653e+2, 2.9519367e+2, -151012.14, -221052.47, -12179.639, -0.0017713094, -0.030457145, -148954.61, -101874.5, 0.0, 4.98111, 4.9366546 
5.1302457e+2, 3.0014786e+2, -89422.87, -94662.01, -9296.506, 0.009459132, -0.027209258, -82383.914, -82383.914, 0.0, 4.9780164, 4.974521 
5.129896e+2, 3.0513066e+2, -88959.43, -76281.68, -7179.0386, 0.02783652, -0.0186904, -73043.5, -73043.5, 0.0, 4.9746575, 4.982526 
5.1295483e+2, 3.101138e+2, -97716.05, -79964.85, -7230.0815, 0.04035814, -0.02670661, -77392.73, -77392.73, 0.0, 4.97132, 4.9826145 
5.1291966e+2, 3.1509638e+2, -106429.15, -83714.91, -7284.2314, 0.0482887, -0.042764295, -81579.65, -81579.65, 0.0, 4.9679728, 4.9827027 
5.199854e+2, 1.2183477e+2, -1616044.6, -1748523.9, -920.4437, -0.012356327, 0.008270347, -1616038.3, 129982.4, 0.0, 5.0562415, 4.969458 
5.1994485e+2, 1.2680067e+2, -1576368.3, -1708690.4, -5663.4253, 0.009863671, -0.007862657, -1576126.4, 121228.48, 0.0, 5.054084, 4.9675946 
5.199011e+2, 1.3176854e+2, -1534122.3, -1663160.1, -6003.602, 0.0061810287, -0.0044939388, -1533843.5, 114825.68, 0.0, 5.0518703, 4.9675913 
5.198574e+2, 1.3673638e+2, -1494022.6, -1622141.3, -6404.384, 0.0025324519, 0.000104065206, -1493703.3, 106280.664, 0.0, 5.049661, 4.9660797 
5.19811e+2, 1.4170212e+2, -1454181.8, -1582287.1, -11713.532, 0.0028803993, 0.014754385, -1453119.5, 98199.52, 0.0, 5.0475307, 4.96408 
5.1976055e+2, 1.466662e+2, -1410447.5, -1534361.0, -12581.463, 0.006009099, 0.0067245965, -1409183.0, 93487.15, 0.0, 5.045437, 4.964767 
5.1971e+2, 1.5163025e+2, -1367701.5, -1488483.4, -12889.251, 0.0087317815, -0.0023656453, -1366341.4, 87680.08, 0.0, 5.0433383, 4.964765 
5.196595e+2, 1.565943e+2, -1326304.0, -1445474.9, -13201.634, 0.011425428, -0.011007515, -1324859.1, 80513.8, 0.0, 5.0412407, 4.963793 
5.1960653e+2, 1.6155624e+2, -1287239.9, -1407750.9, -17331.832, 0.01170678, -0.010625745, -1284796.8, 71947.85, 0.0, 5.0391726, 4.9610596 
5.195496e+2, 1.6651808e+2, -1243489.5, -1359903.1, -18124.725, 0.009406026, -0.009845629, -1240732.9, 67384.13, 0.0, 5.037073, 4.961674 
5.194926e+2, 1.7148001e+2, -1200608.4, -1313869.0, -18295.863, 0.0071726204, -0.0088020535, -1197726.3, 61762.332, 0.0, 5.034967, 4.96167 
5.1943564e+2, 1.7644194e+2, -1158804.6, -1270160.0, -18432.582, 0.004927231, -0.007328337, -1155832.9, 55027.176, 0.0, 5.0328603, 4.9608736 
5.1937765e+2, 1.8140124e+2, -1120816.0, -1235066.0, -20976.416, 0.004869761, 0.0004238328, -1117086.5, 45172.574, 0.0, 5.0308166, 4.9571357 
5.193176e+2, 1.86359e+2, -1076581.5, -1186664.6, -21679.877, 0.007836525, -0.0020428149, -1072465.8, 41211.215, 0.0, 5.02879, 4.957842 
5.192575e+2, 1.9131684e+2, -1033345.0, -1140337.9, -21948.244, 0.010660089, -0.004715426, -1029017.56, 36076.56, 0.0, 5.026749, 4.9578443 
5.1919746e+2, 1.962747e+2, -990988.2, -1095902.4, -22197.541, 0.013377006, -0.007060044, -986484.94, 30026.246, 0.0, 5.0247, 4.957197 
5.191365e+2, 2.0123099e+2, -951335.75, -1057309.3, -23355.223, 0.011843287, 0.0028891247, -946416.9, 21524.146, 0.0, 5.022633, 4.954565 
5.190736e+2, 2.0618652e+2, -906325.8, -1006837.6, -23938.594, 0.0043307845, -0.0022827825, -900915.7, 18455.994, 0.0, 5.0204973, 4.955971 
5.1901066e+2, 2.1114203e+2, -863246.2, -960502.2, -24062.107, -0.0030363293, -0.009967965, -857618.6, 13183.765, 0.0, 5.018344, 4.9559712 
5.1894784e+2, 2.1609755e+2, -820831.0, -915602.6, -24169.13, -0.010467473, -0.017561434, -815023.2, 7209.8784, 0.0, 5.016178, 4.9554725 
5.188857e+2, 2.2105049e+2, -785184.4, -886307.25, -23839.113, -0.012886544, -0.009929553, -779846.25, -6152.765, 0.0, 5.0141497, 4.949543 
5.1882446e+2, 2.2600262e+2, -739802.4, -836177.9, -24108.629, -0.010548313, 0.0026626247, -734108.0, -8933.781, 0.0, 5.012239, 4.9506617 
5.187631e+2, 2.3095505e+2, -696026.1, -789304.3, -24321.984, -0.0091121355, 0.015549183, -690065.2, -13412.383, 0.0, 5.010271, 4.9506903 
5.187018e+2, 2.3590754e+2, -652973.5, -743899.2, -24496.168, -0.008103613, 0.028957158, -646794.0, -18663.44, 0.0, 5.0082655, 4.9502172 
5.1864123e+2, 2.4085772e+2, -614122.25, -707866.6, -23261.396, -0.009057282, 0.05546971, -608667.6, -29043.059, 0.0, 5.0062423, 4.946491 
5.185812e+2, 2.4580456e+2, -566722.44, -652265.06, -23618.307, -0.011238697, 0.027281623, -560634.7, -29503.47, 0.0, 5.0041094, 4.9495196 
5.1852125e+2, 2.5075105e+2, -523353.9, -605471.5, -23699.508, -0.013040808, -0.011506032, -517005.0, -34365.152, 0.0, 5.00193, 4.9495564 
5.1846117e+2, 2.556976e+2, -480251.9, -559248.4, -23749.887, -0.015155846, -0.049874086, -473661.47, -39513.863, 0.0, 4.999727, 4.949395 
5.1840276e+2, 2.606427e+2, -448309.8, -538723.0, -20683.646, -0.017522922, -0.04581695, -443802.75, -58126.22, 0.0, 4.99762, 4.9402313 
5.1834846e+2, 2.6558906e+2, -401303.75, -484694.66, -19584.313, -0.017929127, -0.012036655, -396933.44, -59715.355, 0.0, 4.995618, 4.9425855 
5.1829445e+2, 2.7053544e+2, -357470.1, -437668.06, -19231.275, -0.017817965, 0.016294189, -353096.94, -64335.76, 0.0, 4.993564, 4.9425793 
5.182404e+2, 2.7548194e+2, -313676.28, -390804.88, -18794.38, -0.01790118, 0.045695473, -309340.28, -69036.86, 0.0, 4.9914904, 4.9425244 
5.181883e+2, 2.8042293e+2, -283561.03, -375666.16, -14569.521, -0.020785503, 0.090862446, -281311.3, -89418.18, 0.0, 4.9894423, 4.9313407 
5.1814085e+2, 2.8535554e+2, -234890.19, -314467.16, -13879.354, -0.018473294, 0.057914015, -232538.9, -89003.56, 0.0, 4.986778, 4.936424 
5.1809376e+2, 2.902876e+2, -193166.38, -267904.78, -13911.799, -0.013168998, 0.0046088016, -190660.83, -95481.45, 0.0, 4.9838877, 4.936514 
5.1804674e+2, 2.952199e+2, -151456.52, -221347.56, -13941.647, -0.007846329, -0.047518104, -148778.11, -101956.52, 0.0, 4.980968, 4.936606 
5.180019e+2, 3.001727e+2, -90636.87, -96437.85, -11611.876, 0.004990929, -0.05610115, -81568.71, -81568.71, 0.0, 4.977842, 4.973931 
5.179646e+2, 3.0515662e+2, -90790.33, -77864.195, -9943.038, 0.032115918, -0.03321339, -72468.29, -72468.29, 0.0, 4.97419, 4.982089 
5.1792777e+2, 3.1014132e+2, -101524.8, -82269.09, -10704.157, 0.053998385, -0.024428109, -77499.914, -77499.914, 0.0, 4.9701147, 4.9822245 
5.178907e+2, 3.1512547e+2, -113523.07, -87275.1, -11954.396, 0.070456386, -0.025042482, -82646.72, -82646.72, 0.0, 4.9655595, 4.9823675 
5.25044e+2, 1.2187406e+2, -1604029.4, -1744016.3, 3060.2913, -0.0111425575, 0.012822354, -1603962.5, 141673.86, 0.0, 5.060645, 4.968784 
5.250009e+2, 1.268392e+2, -1564719.8, -1703539.8, -2087.0085, 0.008342137, -0.0068879323, -1564688.4, 132289.3, 0.0, 5.0581846, 4.9672856 
5.249548e+2, 1.318066e+2, -1523479.3, -1658531.8, -2372.0586, 0.0053666392, -0.004539965, -1523437.6, 124858.92, 0.0, 5.055639, 4.967281 
5.249088e+2, 1.3677397e+2, -1484390.1, -1618041.8, -2719.9878, 0.0024041112, -0.0008541443, -1484334.9, 115280.71, 0.0, 5.0530944, 4.965764 
5.248599e+2, 1.4173937e+2, -1445254.8, -1578395.0, -7804.5625, 0.0028252602, 0.013641344, -1444798.9, 106155.266, 0.0, 5.0506883, 4.9638343 
5.2480733e+2, 1.4670326e+2, -1402100.9, -1530839.3, -8591.087, 0.0058467025, 0.0070065893, -1401530.1, 100777.35, 0.0, 5.048416, 4.964492 
5.247546e+2, 1.5166712e+2, -1359883.4, -1485240.5, -8852.384, 0.008551484, -0.00070945633, -1359261.4, 94399.83, 0.0, 5.0461426, 4.964488 
5.247019e+2, 1.5663095e+2, -1319012.0, -1442512.9, -9119.989, 0.0112594385, -0.00808673, -1318342.1, 86672.91, 0.0, 5.04387, 4.9635115 
5.2464664e+2, 1.615926e+2, -1280231.6, -1404576.5, -13221.825, 0.0118098995, -0.007929165, -1278841.3, 77548.36, 0.0, 5.0416265, 4.960938 
5.245876e+2, 1.6655406e+2, -1237023.5, -1356983.8, -13971.271, 0.009971347, -0.00925025, -1235417.8, 72347.44, 0.0, 5.0393424, 4.9615617 
5.2452844e+2, 1.7151563e+2, -1194691.4, -1311226.0, -14113.158, 0.008179436, -0.010266886, -1193006.5, 66133.28, 0.0, 5.037052, 4.961557 
5.244694e+2, 1.7647718e+2, -1153429.4, -1267787.5, -14219.859, 0.006370678, -0.010817688, -1151687.8, 58826.566, 0.0, 5.034763, 4.9607606 
5.244091e+2, 1.814363e+2, -1115949.0, -1232916.4, -16599.422, 0.0062792213, -0.003133685, -1113638.9, 48275.813, 0.0, 5.0325375, 4.9570365 
5.2434695e+2, 1.8639417e+2, -1072218.6, -1184758.0, -17090.637, 0.008478658, -0.0027917484, -1069680.5, 43650.99, 0.0, 5.030337, 4.9577465 
5.242846e+2, 1.913521e+2, -1029461.06, -1138671.6, -17159.121, 0.010604292, -0.0028747122, -1026828.44, 37919.32, 0.0, 5.0281305, 4.957748 
5.242224e+2, 1.9631001e+2, -987553.9, -1094462.1, -17207.418, 0.012710523, -0.0028836988, -984852.5, 31311.729, 0.0, 5.0259256, 4.9571 
5.2415925e+2, 2.0126605e+2, -948362.25, -1055954.9, -18348.68, 0.011384012, 0.0054459637, -945319.1, 22277.36, 0.0, 5.023675, 4.9545245 
5.2409434e+2, 2.0622097e+2, -904001.06, -1006197.06, -19058.941, 0.0058914293, -0.003318914, -900562.4, 18471.184, 0.0, 5.0214014, 4.9557586 
5.2402943e+2, 2.1117586e+2, -861250.94, -960031.75, -19368.99, 0.00056090945, -0.014037916, -857588.8, 12881.633, 0.0, 5.0191364, 4.9557567 
5.239645e+2, 2.1613075e+2, -819123.06, -915285.75, -19653.793, -0.0048523624, -0.024780562, -815261.3, 6646.052, 0.0, 5.0168715, 4.9552555 
5.2390033e+2, 2.2108348e+2, -783720.06, -885464.6, -19108.365, -0.0069443034, -0.017115759, -780249.75, -6880.136, 0.0, 5.014637, 4.9495955 
5.2383673e+2, 2.2603606e+2, -739285.3, -835474.44, -18867.611, -0.0069135274, -0.000857682, -735716.8, -10872.136, 0.0, 5.0123267, 4.9508457 
5.237731e+2, 2.309888e+2, -696507.25, -789078.9, -18593.88, -0.0073759984, 0.014296783, -692912.1, -16593.412, 0.0, 5.0099964, 4.950872 
5.2370936e+2, 2.3594151e+2, -654335.44, -744098.2, -18295.527, -0.007843619, 0.028694993, -650749.6, -22956.543, 0.0, 5.0076666, 4.9503965 
5.236465e+2, 2.4089156e+2, -616546.9, -708630.06, -16718.04, -0.009231016, 0.051636055, -613605.56, -34317.387, 0.0, 5.0053105, 4.946629 
5.235845e+2, 2.4583803e+2, -569868.1, -654518.8, -17362.438, -0.010644536, 0.024312539, -566445.4, -35644.355, 0.0, 5.0031614, 4.9491644 
5.2352244e+2, 2.5078413e+2, -526293.75, -607700.7, -17990.855, -0.011452466, -0.012377193, -522495.06, -40178.918, 0.0, 5.0010567, 4.9491816 
5.2346045e+2, 2.557302e+2, -482911.4, -561432.25, -18593.191, -0.012189969, -0.049921755, -478731.22, -44899.863, 0.0, 4.998951, 4.949001 
5.234e+2, 2.6067486e+2, -450356.16, -538602.2, -15512.08, -0.013130314, -0.048072085, -447708.84, -62342.836, 0.0, 4.996687, 4.940684 
5.233434e+2, 2.656217e+2, -404504.7, -484504.75, -13843.305, -0.014206728, -0.01468611, -402176.97, -65277.094, 0.0, 4.9941664, 4.9432874 
5.23287e+2, 2.7056873e+2, -361905.7, -437967.97, -13157.332, -0.014914121, 0.014141091, -359694.03, -71260.234, 0.0, 4.9916573, 4.943304 
5.232306e+2, 2.755158e+2, -319297.72, -391544.06, -12471.434, -0.015564237, 0.043170717, -317205.44, -77238.16, 0.0, 4.9891486, 4.943273 
5.231761e+2, 2.8045732e+2, -291149.72, -377382.16, -7552.0537, -0.018200122, 0.08656271, -290493.34, -98943.51, 0.0, 4.9865108, 4.931997 
5.2312577e+2, 2.853901e+2, -243643.13, -318255.9, -6854.3716, -0.017454749, 0.05539003, -243018.67, -99825.34, 0.0, 4.983732, 4.9364085 
5.2307576e+2, 2.9032212e+2, -201477.66, -271690.8, -7135.133, -0.014347651, 0.0034315456, -200759.9, -105917.8, 0.0, 4.980978, 4.9364343 
5.230257e+2, 2.95254e+2, -159240.4, -225098.95, -7416.454, -0.010928885, -0.049894128, -158415.56, -111923.914, 0.0, 4.978224, 4.9364605 
5.2297795e+2, 3.0020627e+2, -96603.89, -99038.41, -4749.794, 0.0004657367, -0.06202299, -92917.86, -92917.86, 0.0, 4.9755583, 4.9739876 
5.2293843e+2, 3.0519077e+2, -93679.43, -80515.25, -1922.9025, 0.034737527, -0.032632295, -80240.12, -80240.12, 0.0, 4.9731326, 4.9816995 
5.2289975e+2, 3.101761e+2, -100193.84, -84220.32, -1341.3647, 0.071072616, -0.011250609, -84108.47, -84108.47, 0.0, 4.97069, 4.981488 
5.2286077e+2, 3.1516072e+2, -106665.13, -87983.586, -672.8969, 0.10789365, 0.0038957617, -87959.375, -87959.375, 0.0, 4.9682393, 4.9812756 
5.301045e+2, 1.21915966e+2, -1604893.1, -1745935.6, 1618.4729, -0.011931298, 0.017040238, -1604874.6, 140351.58, 0.0, 5.06066, 4.968153 
5.300585e+2, 1.2688059e+2, -1565160.9, -1704588.5, -3990.9944, 0.005459246, -0.0044334787, -1565046.8, 131525.69, 0.0, 5.0581975, 4.9669433 
5.3001004e+2, 1.3184744e+2, -1523917.9, -1659579.3, -4274.312, 0.0039173225, -0.004016214, -1523783.4, 124113.02, 0.0, 5.0556526, 4.966938 
5.299616e+2, 1.3681428e+2, -1484830.9, -1619098.8, -4629.1167, 0.002319127, -0.0022441654, -1484671.4, 114549.08, 0.0, 5.053108, 4.965418 
5.299103e+2, 1.4177932e+2, -1445575.0, -1579209.8, -9546.875, 0.0031238627, 0.011556414, -1444896.4, 105666.27, 0.0, 5.0507035, 4.9635687 
5.298555e+2, 1.467431e+2, -1402464.5, -1531749.5, -10297.245, 0.0058234045, 0.0068254, -1401649.5, 100267.945, 0.0, 5.0484324, 4.964194 
5.298004e+2, 1.5170686e+2, -1360242.9, -1486149.3, -10558.469, 0.008253559, 0.0011210913, -1359363.6, 93908.99, 0.0, 5.0461593, 4.9641895 
5.2974546e+2, 1.566706e+2, -1319371.0, -1443428.6, -10831.336, 0.010683908, -0.0042402125, -1318432.5, 86195.51, 0.0, 5.0438876, 4.96321 
5.2968794e+2, 1.6163205e+2, -1280377.8, -1405050.8, -14966.728, 0.011383971, -0.0038120598, -1278606.3, 77398.43, 0.0, 5.041645, 4.9607835 
5.2962667e+2, 1.665931e+2, -1237150.4, -1357416.9, -15699.824, 0.010265768, -0.007708526, -1235134.6, 72248.88, 0.0, 5.0393605, 4.9614205 
5.2956533e+2, 1.7155427e+2, -1194818.8, -1311660.6, -15840.029, 0.00917826, -0.011326994, -1192709.4, 66052.03, 0.0, 5.0370703, 4.9614153 
5.2950394e+2, 1.7651543e+2, -1153557.4, -1268224.0, -15944.786, 0.008061306, -0.01446287, -1151381.5, 58757.75, 0.0, 5.034781, 4.960618 
5.294415e+2, 1.8147442e+2, -1115951.4, -1233095.8, -18274.975, 0.007880132, -0.0070977877, -1113166.6, 48373.934, 0.0, 5.0325575, 4.956982 
5.2937686e+2, 1.8643253e+2, -1072200.1, -1184882.1, -18751.701, 0.008752456, -0.003877695, -1069161.5, 43793.113, 0.0, 5.0303555, 4.957711 
5.2931225e+2, 1.9139071e+2, -1029447.6, -1138795.5, -18816.615, 0.009517287, -0.0010233694, -1026300.25, 38068.05, 0.0, 5.028147, 4.957713 
5.292477e+2, 1.9634886e+2, -987545.6, -1094585.8, -18861.111, 0.010239583, 0.001977411, -984319.4, 31462.568, 0.0, 5.0259404, 4.9570656 
5.291823e+2, 2.0130475e+2, -948457.06, -1056426.9, -20130.701, 0.009189077, 0.00912004, -944825.9, 22389.943, 0.0, 5.0237074, 4.954366 
5.291155e+2, 2.0625898e+2, -904356.6, -1007220.4, -20778.959, 0.007068605, -0.0032055434, -900317.75, 18342.629, 0.0, 5.021431, 4.955415 
5.290486e+2, 2.1121326e+2, -861632.0, -961051.56, -21073.217, 0.00503248, -0.016577737, -857349.75, 12754.616, 0.0, 5.0191574, 4.955416 
5.289818e+2, 2.1616755e+2, -819529.6, -916302.25, -21342.063, 0.0028127646, -0.029704662, -815031.94, 6516.1113, 0.0, 5.0168834, 4.9549184 
5.289154e+2, 2.211202e+2, -783302.6, -884755.2, -20836.814, 0.0011881866, -0.021785209, -779189.75, -6178.529, 0.0, 5.014662, 4.9498415 
5.288492e+2, 2.2607324e+2, -738663.9, -834281.6, -20626.764, -0.0020890604, -0.004556774, -734404.0, -9925.213, 0.0, 5.0123463, 4.951261 
5.2878284e+2, 2.3102647e+2, -695931.94, -787907.3, -20326.412, -0.0058552893, 0.01153833, -691640.06, -15695.012, 0.0, 5.010004, 4.951287 
5.2871656e+2, 2.3597972e+2, -653805.94, -742947.3, -20001.275, -0.009748824, 0.027357254, -649523.8, -22112.457, 0.0, 5.007662, 4.9508104 
5.286511e+2, 2.4092981e+2, -616396.44, -708609.25, -18569.24, -0.0128436955, 0.047025092, -612797.5, -33892.605, 0.0, 5.005351, 4.9466376 
5.285871e+2, 2.4587585e+2, -570554.8, -656383.44, -19022.365, -0.012140567, 0.021487858, -566527.75, -36101.133, 0.0, 5.003203, 4.948535 
5.285232e+2, 2.508217e+2, -527064.6, -609603.56, -19592.354, -0.01104293, -0.009844984, -522650.06, -40700.613, 0.0, 5.001074, 4.9485493 
5.284593e+2, 2.5576758e+2, -483766.0, -563372.9, -20136.277, -0.010063221, -0.04130642, -478962.47, -45490.594, 0.0, 4.998944, 4.9483657 
5.283968e+2, 2.6071206e+2, -449281.44, -536273.7, -17417.473, -0.009622393, -0.039535556, -445923.72, -60912.547, 0.0, 4.9966927, 4.941509 
5.283376e+2, 2.656591e+2, -403171.9, -481673.56, -15791.23, -0.010587008, -0.01372602, -400114.47, -63576.445, 0.0, 4.9941854, 4.9443 
5.282787e+2, 2.7060643e+2, -360604.28, -435185.03, -15046.726, -0.011524502, 0.009562687, -357683.0, -69620.03, 0.0, 4.9916735, 4.9443054 
5.2821976e+2, 2.7555376e+2, -318027.47, -388809.0, -14302.381, -0.012458681, 0.033211887, -315246.75, -75659.1, 0.0, 4.989162, 4.9442635 
5.281627e+2, 2.804956e+2, -289722.38, -374336.25, -9778.396, -0.014063506, 0.06863433, -288607.03, -97443.766, 0.0, 4.9865336, 4.933068 
5.2810955e+2, 2.854291e+2, -243718.56, -318693.9, -9083.269, -0.014143284, 0.04291976, -242633.81, -99828.0, 0.0, 4.983759, 4.936281 
5.280565e+2, 2.9036182e+2, -201580.66, -272166.66, -9314.605, -0.013237626, 0.0018239474, -200372.19, -105918.26, 0.0, 4.9809995, 4.9363008 
5.280036e+2, 2.9529443e+2, -159370.78, -225612.42, -9546.605, -0.012099741, -0.040639807, -158022.39, -111919.48, 0.0, 4.97824, 4.9363203 
5.2795297e+2, 3.0024746e+2, -95731.08, -96783.305, -6568.3047, -0.0041928054, -0.046397675, -89667.85, -89667.85, 0.0, 4.975504, 4.974852 
5.279109e+2, 3.0523354e+2, -93217.13, -78588.48, -3694.4236, 0.027081989, -0.00914915, -77708.41, -77708.41, 0.0, 4.972993, 4.9824653 
5.2786964e+2, 3.1022078e+2, -99768.336, -82047.58, -2983.0671, 0.060354102, 0.023852495, -81558.89, -81558.89, 0.0, 4.9705143, 4.982338 
5.278281e+2, 3.152074e+2, -106276.25, -85564.836, -2185.0361, 0.093099125, 0.05087211, -85336.83, -85336.83, 0.0, 4.9680276, 4.9822087 
5.351648e+2, 1.2195776e+2, -1605628.4, -1747588.3, 110.53868, -0.013658538, 0.02003887, -1605628.4, 139188.9, 0.0, 5.0606747, 4.9676104 
5.351162e+2, 1.2692198e+2, -1565601.5, -1705638.0, -5894.3403, 0.0025214031, -0.0019612948, -1565353.9, 130813.33, 0.0, 5.058212, 4.966601 
5.350653e+2, 1.318883e+2, -1524356.0, -1660627.8, -6175.927, 0.0024091827, -0.0034956662, -1524076.8, 123419.52, 0.0, 5.055667, 4.966595 
5.3501445e+2, 1.368546e+2, -1485271.0, -1620156.8, -6537.7075, 0.0021714694, -0.0036582786, -1484954.9, 113870.59, 0.0, 5.053123, 4.965071 
5.349608e+2, 1.4181927e+2, -1445901.6, -1580042.1, -11287.269, 0.003406176, 0.009498932, -1444958.5, 105212.76, 0.0, 5.05072, 4.9632974 
5.349036e+2, 1.4678295e+2, -1402827.0, -1532661.4, -12002.487, 0.005794485, 0.0066504246, -1401726.8, 99800.8, 0.0, 5.048449, 4.9638953 
5.3484625e+2, 1.517466e+2, -1360601.3, -1487059.8, -12263.638, 0.007947681, 0.0029205342, -1359422.9, 93461.24, 0.0, 5.046177, 4.9638906 
5.34789e+2, 1.5671024e+2, -1319728.8, -1444346.0, -12541.804, 0.010098102, -0.0004620521, -1318479.1, 85761.84, 0.0, 5.0439057, 4.9629083 
5.347292e+2, 1.6167147e+2, -1280540.4, -1405563.8, -16712.203, 0.010931878, 0.00039222345, -1278344.9, 77274.766, 0.0, 5.0416646, 4.9606156 
5.3466564e+2, 1.6663216e+2, -1237276.1, -1357851.8, -17427.75, 0.010541534, -0.0061018993, -1234807.8, 72194.125, 0.0, 5.0393796, 4.9612784 
5.346021e+2, 1.7159292e+2, -1194944.9, -1312097.0, -17566.275, 0.010172742, -0.01238581, -1192367.6, 66015.35, 0.0, 5.0370893, 4.9612722 
5.3453857e+2, 1.765537e+2, -1153684.1, -1268662.1, -17669.06, 0.009761883, -0.018170265, -1151030.1, 58733.965, 0.0, 5.0347996, 4.960475 
5.3447384e+2, 1.8151255e+2, -1115963.6, -1233300.3, -19947.965, 0.009453321, -0.010948037, -1112665.1, 48501.09, 0.0, 5.032578, 4.956919 
5.3440684e+2, 1.8647088e+2, -1072180.8, -1185007.5, -20414.504, 0.008955556, -0.0049192905, -1068600.6, 43977.145, 0.0, 5.0303745, 4.9576755 
5.343399e+2, 1.914293e+2, -1029433.3, -1138920.6, -20475.85, 0.008328373, 0.00074778096, -1025729.3, 38259.39, 0.0, 5.028165, 4.957678 
5.34273e+2, 1.9638772e+2, -987536.5, -1094710.9, -20516.541, 0.007635581, 0.0066340035, -983743.25, 31656.445, 0.0, 5.025956, 4.957031 
5.342054e+2, 2.0134346e+2, -948644.44, -1057102.5, -21893.857, 0.007053825, 0.013223537, -944391.56, 22443.373, 0.0, 5.0237412, 4.954137 
5.341366e+2, 2.0629703e+2, -904713.44, -1008244.44, -22507.488, 0.008265349, -0.0027339507, -900032.0, 18255.041, 0.0, 5.021462, 4.955067 
5.340678e+2, 2.1125068e+2, -862014.25, -962072.1, -22785.96, 0.009446829, -0.01914329, -857069.6, 12668.556, 0.0, 5.019179, 4.955072 
5.33999e+2, 2.1620436e+2, -819937.4, -917319.4, -23038.85, 0.010344028, -0.035037793, -814761.8, 6426.9727, 0.0, 5.0168962, 4.954578 
5.339305e+2, 2.2115695e+2, -782988.8, -884276.1, -22533.385, 0.009124461, -0.025750536, -778202.0, -5549.697, 0.0, 5.0146875, 4.9500065 
5.338616e+2, 2.261105e+2, -738043.9, -833090.4, -22391.508, 0.0024878916, -0.0077609937, -733032.94, -8920.671, 0.0, 5.0123663, 4.9516706 
5.337926e+2, 2.310642e+2, -695358.0, -786737.2, -22064.553, -0.004608203, 0.008519678, -690309.2, -14738.14, 0.0, 5.010012, 4.951695 
5.3372365e+2, 2.3601794e+2, -653277.8, -741797.94, -21712.65, -0.011953737, 0.02500564, -648238.9, -21209.344, 0.0, 5.007658, 4.951218 
5.336557e+2, 2.4096812e+2, -616649.6, -709489.94, -20328.242, -0.016837649, 0.04383651, -612393.7, -33872.617, 0.0, 5.0053926, 4.946331 
5.335898e+2, 2.4591376e+2, -571246.44, -658249.3, -20688.67, -0.013914032, 0.020226596, -566577.4, -36525.766, 0.0, 5.003245, 4.947891 
5.335239e+2, 2.508593e+2, -527840.3, -611507.5, -21200.24, -0.010669306, -0.007310283, -522775.06, -41192.445, 0.0, 5.001091, 4.9479027 
5.3345805e+2, 2.5580493e+2, -484625.28, -565314.6, -21685.758, -0.0077313026, -0.034246508, -479166.4, -46053.668, 0.0, 4.9989367, 4.9477158 
5.333935e+2, 2.6074937e+2, -448650.0, -534950.7, -19256.977, -0.0064038085, -0.029843435, -444548.0, -59892.457, 0.0, 4.9967003, 4.9419813 
5.333318e+2, 2.656966e+2, -401839.8, -478847.25, -17734.578, -0.0073418445, -0.010845999, -397951.9, -61777.11, 0.0, 4.9942055, 4.9452972 
5.3327036e+2, 2.7064416e+2, -359303.3, -432406.84, -16931.586, -0.008153933, 0.0051683416, -355572.2, -67880.85, 0.0, 4.9916906, 4.9452906 
5.332089e+2, 2.7559176e+2, -316757.44, -386078.56, -16128.84, -0.00901738, 0.021704689, -313188.5, -73980.805, 0.0, 4.9891763, 4.9452367 
5.331493e+2, 2.805339e+2, -288829.25, -372517.03, -11961.614, -0.010171727, 0.05092154, -287153.16, -96376.664, 0.0, 4.9865575, 4.933707 
5.330933e+2, 2.85468e+2, -243795.95, -319132.84, -11296.822, -0.011322998, 0.031568117, -242138.45, -99720.1, 0.0, 4.983787, 4.936138 
5.3303736e+2, 2.9040146e+2, -201685.42, -272643.34, -11478.761, -0.012183758, -0.0002110147, -199874.72, -105808.29, 0.0, 4.9810224, 4.936151 
5.329815e+2, 2.9533476e+2, -159502.72, -226126.66, -11661.463, -0.012892722, -0.033355415, -157520.53, -111804.99, 0.0, 4.978257, 4.936164 
5.32928e+2, 3.0028832e+2, -95289.42, -95492.164, -8539.651, -0.007898044, -0.033545338, -86850.54, -86850.54, 0.0, 4.9754486, 4.9753485 
5.328831e+2, 3.0527583e+2, -92769.586, -76645.46, -5568.06, 0.018996982, 0.00958933, -74909.555, -74909.555, 0.0, 4.9728537, 4.9832 
5.328392e+2, 3.1026486e+2, -99357.48, -79858.9, -4726.7705, 0.047450136, 0.051732384, -78773.48, -78773.48, 0.0, 4.9703383, 4.983156 
5.3279483e+2, 3.152534e+2, -105901.91, -83130.48, -3799.0771, 0.07436732, 0.08815284, -82513.375, -82513.375, 0.0, 4.967816, 4.9831114 
5.402257e+2, 1.21999204e+2, -1605836.5, -1748592.1, 367.3311, -0.009429882, 0.01612866, -1605835.6, 138576.03, 0.0, 5.060799, 4.967219 
5.4017377e+2, 1.2696382e+2, -1565554.6, -1706417.5, -5897.2056, -0.0010308456, 0.0017069101, -1565308.1, 130449.336, 0.0, 5.0583973, 4.966254 
5.4012054e+2, 1.3192953e+2, -1524095.3, -1661301.3, -6241.6704, 0.00060363533, -0.002352604, -1523811.9, 123280.45, 0.0, 5.0559235, 4.966249 
5.400673e+2, 1.3689525e+2, -1484855.9, -1620762.8, -6672.1694, 0.0020576888, -0.0050028968, -1484529.1, 113898.25, 0.0, 5.0534334, 4.9647217 
5.400113e+2, 1.418595e+2, -1445355.4, -1580378.9, -11294.264, 0.003994267, 0.007196992, -1444417.1, 105360.19, 0.0, 5.0510283, 4.9630413 
5.3995174e+2, 1.4682308e+2, -1402461.3, -1533142.1, -11962.661, 0.0059785745, 0.0062576574, -1401375.3, 99759.7, 0.0, 5.0487065, 4.963617 
5.3989214e+2, 1.5178663e+2, -1360381.9, -1487622.8, -12215.524, 0.0077637318, 0.0045636566, -1359219.8, 93273.016, 0.0, 5.0463853, 4.963609 
5.3983253e+2, 1.5675016e+2, -1319655.1, -1444996.5, -12494.741, 0.009568151, 0.0032552502, -1318421.8, 85429.164, 0.0, 5.044067, 4.962621 
5.3977036e+2, 1.6171122e+2, -1280394.0, -1405922.8, -16709.848, 0.010484553, 0.0047794753, -1278207.8, 77023.875, 0.0, 5.041794, 4.9604397 
5.3970474e+2, 1.6667148e+2, -1237120.3, -1358131.4, -17483.299, 0.010858753, -0.0043201544, -1234644.9, 71972.47, 0.0, 5.039496, 4.961135 
5.3963894e+2, 1.7163183e+2, -1194828.9, -1312393.6, -17693.646, 0.011264427, -0.013348401, -1192223.6, 65778.59, 0.0, 5.037192, 4.96113 
5.3957313e+2, 1.7659217e+2, -1153613.3, -1268977.5, -17861.68, 0.01162466, -0.021899207, -1150911.0, 58476.02, 0.0, 5.0348864, 4.9603333 
5.395061e+2, 1.815509e+2, -1115864.6, -1233399.3, -20118.816, 0.011148674, -0.01481015, -1112516.3, 48273.81, 0.0, 5.032634, 4.956868 
5.394368e+2, 1.8650946e+2, -1072166.4, -1185091.8, -20595.793, 0.009164045, -0.006091268, -1068527.3, 43671.652, 0.0, 5.030387, 4.9576497 
5.3936756e+2, 1.9146807e+2, -1029553.25, -1139080.0, -20678.504, 0.0071116793, 0.002139519, -1025779.2, 37828.258, 0.0, 5.0281305, 4.957649 
5.392983e+2, 1.9642672e+2, -987805.75, -1094951.0, -20743.857, 0.0050416365, 0.010561452, -983929.9, 31086.143, 0.0, 5.0258694, 4.9569993 
5.3922844e+2, 2.013823e+2, -949266.1, -1058094.6, -22223.373, 0.0051296065, 0.017202562, -944902.94, 21549.773, 0.0, 5.0236487, 4.9538517 
5.391577e+2, 2.0633522e+2, -905293.94, -1009329.2, -22876.686, 0.009510628, -0.0020435352, -900485.7, 17426.375, 0.0, 5.021407, 4.9547296 
5.39087e+2, 2.1128823e+2, -862578.56, -963130.75, -23180.75, 0.013817442, -0.021782726, -857491.9, 11878.673, 0.0, 5.0191298, 4.954739 
5.3901625e+2, 2.1624126e+2, -820578.0, -918392.4, -23446.957, 0.017836012, -0.041083205, -815248.0, 5580.5586, 0.0, 5.0168214, 4.954249 
5.389455e+2, 2.2119385e+2, -783229.44, -884135.9, -22871.838, 0.017020177, -0.02977431, -778287.3, -5995.1606, 0.0, 5.014552, 4.95012 
5.38874e+2, 2.2614792e+2, -737821.1, -832079.8, -22969.072, 0.006868251, -0.010731633, -732521.9, -8777.691, 0.0, 5.0122566, 4.952069 
5.388023e+2, 2.3110203e+2, -695093.2, -785732.7, -22785.285, -0.0035262145, 0.0052048764, -689687.7, -14491.799, 0.0, 5.0099177, 4.952087 
5.3873074e+2, 2.360562e+2, -653048.75, -740827.5, -22567.852, -0.0141333565, 0.021385953, -647586.44, -20939.176, 0.0, 5.007554, 4.9516034 
5.3866035e+2, 2.4100648e+2, -617696.3, -711363.25, -21165.924, -0.020706166, 0.04148274, -613135.5, -34998.676, 0.0, 5.005285, 4.9457417 
5.3859246e+2, 2.4595176e+2, -572388.3, -660244.3, -21477.623, -0.015654314, 0.020175457, -567418.94, -37743.215, 0.0, 5.0031166, 4.9472623 
5.385247e+2, 2.5089696e+2, -529148.25, -613564.9, -21861.863, -0.01010998, -0.005052441, -523822.56, -42607.414, 0.0, 5.0009065, 4.9472747 
5.3845686e+2, 2.5584227e+2, -486184.44, -567466.7, -22178.428, -0.0049327873, -0.029300744, -480526.72, -47773.26, 0.0, 4.9986687, 4.9470873 
5.383901e+2, 2.6078674e+2, -449400.7, -535005.06, -19822.523, -0.0031359287, -0.019830754, -445033.4, -60734.68, 0.0, 4.9963775, 4.9421096 
5.383259e+2, 2.657343e+2, -401397.9, -476474.9, -18730.316, -0.0042574555, -0.0065063206, -396984.5, -61174.69, 0.0, 4.9939256, 4.94625 
5.38262e+2, 2.7068204e+2, -358779.22, -430021.47, -18159.848, -0.0047312044, 0.0010443669, -354417.28, -67098.836, 0.0, 4.9914436, 4.9462376 
5.381981e+2, 2.7562982e+2, -316185.9, -383687.66, -17539.24, -0.0052629714, 0.009124132, -311900.66, -73073.664, 0.0, 4.9889526, 4.9461775 
5.381359e+2, 2.805723e+2, -289109.2, -372146.16, -13777.425, -0.0066061304, 0.03410233, -286882.94, -96493.92, 0.0, 4.9863577, 4.9339266 
5.380769e+2, 2.8550702e+2, -244426.52, -319769.3, -13090.081, -0.008987958, 0.021529224, -242217.03, -100186.37, 0.0, 4.98362, 4.935989 
5.380181e+2, 2.9044104e+2, -202245.56, -273295.6, -13190.936, -0.011161465, -0.0026822106, -199875.63, -106196.09, 0.0, 4.980885, 4.93599 
5.379594e+2, 2.9537493e+2, -160000.36, -226788.47, -13330.954, -0.013284564, -0.028137386, -157437.81, -112108.33, 0.0, 4.978148, 4.9359922 
5.379029e+2, 3.0032885e+2, -95547.14, -95285.74, -10296.175, -0.010649598, -0.023558563, -85119.44, -85119.44, 0.0, 4.9752994, 4.975473 
5.3785515e+2, 3.0531752e+2, -92865.29, -74970.016, -7621.6943, 0.010612069, 0.023534514, -72163.91, -72163.91, 0.0, 4.97254, 4.9838805 
5.378083e+2, 3.1030828e+2, -100167.97, -78238.805, -7518.876, 0.03287124, 0.07255769, -75908.445, -75908.445, 0.0, 4.969753, 4.983913 
5.3776103e+2, 3.1529874e+2, -107790.625, -81705.59, -7702.2393, 0.05263531, 0.11616871, -79601.1, -79601.1, 0.0, 4.966824, 4.98395 
5.452909e+2, 1.2204559e+2, -1593624.5, -1741786.8, 4160.473, 0.014982658, -0.006352817, -1593507.8, 150450.19, 0.0, 5.064811, 4.967486 
5.4523313e+2, 1.2701292e+2, -1554913.3, -1701886.8, -1705.0598, -0.008629556, 0.010281831, -1554893.5, 140383.77, 0.0, 5.0621996, 4.9658804 
5.451778e+2, 1.3197775e+2, -1513981.8, -1657049.1, -2082.2678, -0.0029779726, 0.0018574016, -1513951.4, 132669.52, 0.0, 5.059553, 4.965875 
5.4512244e+2, 1.3694258e+2, -1475212.0, -1616764.3, -2549.1826, 0.0024648395, -0.005150337, -1475166.1, 122798.64, 0.0, 5.056909, 4.964345 
5.4506403e+2, 1.4190625e+2, -1435837.8, -1575891.4, -7077.1016, 0.006636974, 0.004464682, -1435481.1, 113839.29, 0.0, 5.0543356, 4.962918 
5.4500186e+2, 1.4686975e+2, -1393596.3, -1528993.5, -7612.9546, 0.007493768, 0.0049165734, -1393169.6, 107508.66, 0.0, 5.051798, 4.963494 
5.449397e+2, 1.5183325e+2, -1352171.0, -1483817.5, -7760.5674, 0.008106956, 0.0048135933, -1351715.1, 100321.08, 0.0, 5.04926, 4.9634833 
5.448776e+2, 1.5679674e+2, -1312100.1, -1441540.9, -7930.041, 0.008767591, 0.005167569, -1311616.1, 91778.3, 0.0, 5.0467243, 4.962489 
5.448129e+2, 1.6175768e+2, -1273415.5, -1402792.3, -12015.105, 0.009196839, 0.007702678, -1272309.1, 82467.05, 0.0, 5.044258, 4.9602933 
5.447449e+2, 1.6671763e+2, -1230660.1, -1355319.6, -12764.802, 0.010409339, -0.002046581, -1229366.5, 76799.17, 0.0, 5.0417995, 4.9609632 
5.4467684e+2, 1.7167766e+2, -1188840.0, -1309813.1, -12977.836, 0.011696495, -0.011843178, -1187463.5, 70090.9, 0.0, 5.039336, 4.960961 
5.446088e+2, 1.7663768e+2, -1148088.1, -1266622.4, -13150.897, 0.012946938, -0.021238087, -1146646.6, 62296.316, 0.0, 5.0368733, 4.960167 
5.4453933e+2, 1.8159619e+2, -1110500.4, -1230421.8, -15359.182, 0.01264716, -0.015332344, -1108564.5, 51783.414, 0.0, 5.034418, 4.9570136 
5.4446757e+2, 1.8655467e+2, -1067579.8, -1182505.1, -15663.691, 0.009831806, -0.007832807, -1065483.1, 46272.785, 0.0, 5.0319057, 4.957794 
5.443958e+2, 1.9151321e+2, -1025724.2, -1136881.6, -15583.232, 0.006994464, -0.0007664386, -1023580.9, 39582.688, 0.0, 5.02939, 4.9577875 
5.443241e+2, 1.9647174e+2, -984712.4, -1093130.9, -15476.485, 0.004203102, 0.006474732, -982546.44, 32024.934, 0.0, 5.026875, 4.957132 
5.44252e+2, 2.0142724e+2, -947066.06, -1057321.9, -16704.938, 0.0044424185, 0.012806271, -944590.7, 21418.043, 0.0, 5.0244727, 4.953709 
5.44179e+2, 2.0638022e+2, -903306.6, -1008766.0, -17209.314, 0.009454489, -0.0027840335, -900569.4, 16900.111, 0.0, 5.022183, 4.954539 
5.44106e+2, 2.1133326e+2, -860630.56, -962569.3, -17414.998, 0.014395793, -0.019130439, -857737.5, 11192.123, 0.0, 5.0198894, 4.9545555 
5.440331e+2, 2.162863e+2, -818577.7, -917790.8, -17594.328, 0.019192565, -0.03572076, -815549.94, 4839.839, 0.0, 5.017596, 4.9540725 
5.4396e+2, 2.2123882e+2, -780994.9, -882073.44, -16993.563, 0.018676724, -0.025588522, -778214.4, -6359.588, 0.0, 5.015155, 4.9505277 
5.4388607e+2, 2.2619252e+2, -736688.6, -830896.25, -17135.533, 0.009131737, -0.01133648, -733668.6, -10361.079, 0.0, 5.012545, 4.9523287 
5.438121e+2, 2.3114625e+2, -694697.44, -784948.44, -17086.541, -0.00032906566, -0.00026819354, -691570.9, -16810.564, 0.0, 5.009945, 4.9523335 
5.437381e+2, 2.3609994e+2, -653305.5, -740411.56, -17007.895, -0.009762515, 0.010377851, -650102.44, -23889.121, 0.0, 5.0073457, 4.9518366 
5.436654e+2, 2.4104989e+2, -619122.5, -711822.8, -15345.342, -0.01526999, 0.026331734, -616648.3, -38943.426, 0.0, 5.0047436, 4.9458117 
5.43595e+2, 2.4599576e+2, -574930.44, -661454.2, -15117.177, -0.011455229, 0.012800957, -572365.25, -43124.348, 0.0, 5.0022397, 4.947215 
5.4352474e+2, 2.509416e+2, -532445.9, -615041.9, -15110.059, -0.0070695546, -0.0041767256, -529768.44, -48991.094, 0.0, 4.99975, 4.947248 
5.4345447e+2, 2.5588748e+2, -490156.72, -569165.94, -15094.887, -0.0026058925, -0.021354336, -487371.0, -55057.543, 0.0, 4.9972615, 4.947083 
5.433853e+2, 2.608323e+2, -453636.44, -535800.0, -12305.263, -0.00088290573, -0.009457891, -451833.13, -67975.766, 0.0, 4.9946904, 4.942546 
5.433186e+2, 2.6577955e+2, -406210.88, -477796.3, -11654.841, -0.002485372, -0.0011207297, -404361.13, -68992.04, 0.0, 4.9920826, 4.9465814 
5.4325205e+2, 2.7072695e+2, -363870.16, -431434.5, -11728.685, -0.00357719, 0.0015176346, -361892.06, -75013.77, 0.0, 4.98949, 4.9465833 
5.431856e+2, 2.756744e+2, -321530.13, -385173.38, -11813.76, -0.004627811, 0.0044389376, -319407.97, -81020.86, 0.0, 4.9868975, 4.946538 
5.431207e+2, 2.806167e+2, -294623.66, -372993.34, -8437.72, -0.0058628176, 0.023774559, -293725.5, -103776.33, 0.0, 4.984143, 4.9345503 
5.4305893e+2, 2.855521e+2, -250681.63, -321358.66, -7132.14, -0.0077042044, 0.013736958, -249969.1, -108381.95, 0.0, 4.981221, 4.9364295 
5.429974e+2, 2.90487e+2, -208967.39, -275205.22, -6640.8125, -0.009700678, -0.004889962, -208308.16, -115077.14, 0.0, 4.9783273, 4.9363937 
5.4293597e+2, 2.954218e+2, -167193.61, -229007.14, -6139.1636, -0.01186119, -0.02389009, -166589.78, -121714.05, 0.0, 4.975434, 4.9363585 
5.428766e+2, 3.003765e+2, -102390.14, -96772.59, -2246.8333, -0.010622049, -0.014289492, -95984.5, -95984.5, 0.0, 4.9725437, 4.97614 
5.428256e+2, 3.0536565e+2, -100345.75, -76915.484, 1221.8136, 0.0062135034, 0.033253804, -76851.945, -76851.945, 0.0, 4.9695387, 4.984571 
5.427757e+2, 3.1035683e+2, -108629.664, -81123.44, 2171.1704, 0.027009629, 0.084959686, -80953.11, -80953.11, 0.0, 4.966486, 4.984424 
5.427257e+2, 3.1534755e+2, -116876.266, -85390.04, 3213.0854, 0.049024798, 0.13382675, -85065.49, -85065.49, 0.0, 4.9634237, 4.9842753 
5.503566e+2, 1.2209648e+2, -1593193.9, -1741008.9, 1785.0157, 0.026660945, -0.01395854, -1593172.4, 150287.78, 0.0, 5.064817, 4.967746 
5.502943e+2, 1.2706508e+2, -1555485.6, -1703237.8, -3676.819, -0.016919231, 0.01950696, -1555394.1, 139372.77, 0.0, 5.062216, 4.9654384 
5.502367e+2, 1.3202903e+2, -1514550.1, -1658397.0, -4053.9731, -0.0068266145, 0.006586693, -1514436.0, 131683.58, 0.0, 5.05957, 4.965433 
5.5017906e+2, 1.3699296e+2, -1475779.4, -1618116.3, -4528.5435, 0.0030326783, -0.0049083866, -1475635.4, 121836.99, 0.0, 5.0569263, 4.963901 
5.5011827e+2, 1.4195608e+2, -1435974.9, -1576369.6, -9011.577, 0.009723656, 0.0020912115, -1435398.8, 113434.74, 0.0, 5.0543556, 4.962765 
5.500535e+2, 1.4691953e+2, -1393718.5, -1529439.0, -9512.366, 0.009284906, 0.003699437, -1393055.0, 107136.13, 0.0, 5.0518174, 4.9633517 
5.499886e+2, 1.5188302e+2, -1352293.5, -1484261.8, -9659.221, 0.008522354, 0.0048750327, -1351590.3, 99958.49, 0.0, 5.049279, 4.9633417 
5.4992384e+2, 1.568465e+2, -1312227.4, -1441994.1, -9833.71, 0.0078006405, 0.006525498, -1311486.4, 91420.24, 0.0, 5.046743, 4.9623446 
5.498566e+2, 1.6180737e+2, -1273601.5, -1403380.5, -13885.8545, 0.0075839544, 0.010131668, -1272132.4, 82156.57, 0.0, 5.0442786, 4.960101 
5.497862e+2, 1.6676712e+2, -1230892.9, -1356008.4, -14617.627, 0.009596541, 0.00043354297, -1229207.8, 76473.48, 0.0, 5.04182, 4.9607368 
5.497157e+2, 1.7172693e+2, -1189071.3, -1310500.1, -14830.111, 0.011707225, -0.009338719, -1187286.3, 69786.64, 0.0, 5.0393567, 4.960735 
5.4964525e+2, 1.7668673e+2, -1148318.4, -1267308.8, -15003.225, 0.013771128, -0.018694265, -1146455.8, 62008.688, 0.0, 5.0368943, 4.9599404 
5.4957336e+2, 1.8164508e+2, -1110203.3, -1230018.5, -17273.154, 0.013771223, -0.013946375, -1107762.9, 52108.094, 0.0, 5.0344434, 4.9571557 
5.494991e+2, 1.8660344e+2, -1067274.3, -1182065.0, -17560.357, 0.010542314, -0.009353365, -1064648.0, 46630.38, 0.0, 5.0319285, 4.957951 
5.4942477e+2, 1.9156185e+2, -1025433.5, -1136448.1, -17472.676, 0.0072409026, -0.0050493237, -1022748.44, 39936.82, 0.0, 5.029409, 4.9579444 
5.4935044e+2, 1.9652027e+2, -984436.44, -1092703.5, -17358.45, 0.0039383275, -0.00043370764, -981721.44, 32370.732, 0.0, 5.0268903, 4.9572883 
5.492759e+2, 2.0147577e+2, -947175.1, -1057825.4, -18472.67, 0.003924182, 0.006130694, -944172.6, 21356.041, 0.0, 5.024504, 4.9535403 
5.4920053e+2, 2.0642917e+2, -903457.56, -1009335.2, -18940.963, 0.008426216, -0.003407003, -900171.1, 16816.666, 0.0, 5.022211, 4.954348 
5.4912525e+2, 2.1138267e+2, -860807.3, -963142.2, -19132.227, 0.012674591, -0.013246778, -857347.4, 11098.524, 0.0, 5.019909, 4.9543657 
5.4904985e+2, 2.1633619e+2, -818780.25, -918367.3, -19296.967, 0.016683431, -0.023057442, -815171.8, 4731.9873, 0.0, 5.0176077, 4.9538846 
5.489744e+2, 2.2128876e+2, -780389.2, -881056.8, -19031.297, 0.016255727, -0.013535269, -776911.44, -5542.267, 0.0, 5.015192, 4.9508805 
5.4889816e+2, 2.2624163e+2, -736363.1, -830467.8, -19127.568, 0.009977728, -0.009273826, -732623.9, -9796.485, 0.0, 5.0125766, 4.9524903 
5.48822e+2, 2.3119456e+2, -694430.25, -784549.4, -19047.752, 0.0037881865, -0.0071038366, -690569.7, -16284.522, 0.0, 5.009961, 4.952493 
5.4874575e+2, 2.361475e+2, -653096.4, -740041.5, -18938.102, -0.0025320067, -0.004830182, -649150.44, -23407.646, 0.0, 5.0073457, 4.9519944 
5.486706e+2, 2.4109714e+2, -618728.4, -711154.0, -17344.922, -0.006470199, 0.006581168, -615580.56, -38344.848, 0.0, 5.004765, 4.9460483 
5.485974e+2, 2.4604416e+2, -574652.94, -661075.4, -17060.254, -0.0052322857, 0.003027229, -571407.06, -42644.113, 0.0, 5.002266, 4.9473543 
5.485244e+2, 2.5099126e+2, -532204.06, -614704.6, -17015.018, -0.0038046443, -0.0022450348, -528832.6, -48543.066, 0.0, 4.9997697, 4.947378 
5.484513e+2, 2.5593838e+2, -489950.3, -568869.94, -16961.717, -0.0023813238, -0.007453268, -486459.25, -54643.43, 0.0, 4.997274, 4.947204 
5.483794e+2, 2.6088393e+2, -452965.34, -534429.2, -14328.014, -0.0022161824, 0.008484433, -450518.78, -67164.75, 0.0, 4.994701, 4.943039 
5.483101e+2, 2.6583046e+2, -406080.56, -477690.66, -13688.852, -0.0035958283, 0.008674391, -403553.03, -68680.96, 0.0, 4.9921, 4.9466467 
5.48241e+2, 2.7077705e+2, -363731.88, -431364.4, -13728.076, -0.004810647, 0.0041285297, -361051.56, -74663.336, 0.0, 4.989514, 4.946636 
5.4817194e+2, 2.757237e+2, -321383.78, -385138.75, -13778.59, -0.0060581304, -0.0002147743, -318533.4, -80629.12, 0.0, 4.9869285, 4.9465785 
5.4810435e+2, 2.8066534e+2, -293435.84, -370673.7, -10685.219, -0.0066319704, 0.010303858, -291984.9, -102513.04, 0.0, 4.9841866, 4.9353657 
5.4803985e+2, 2.8560188e+2, -249625.84, -319320.16, -9407.72, -0.007244476, 0.004046877, -248378.27, -107278.28, 0.0, 4.9812617, 4.9371567 
5.4797554e+2, 2.9053822e+2, -207950.06, -273169.94, -8900.419, -0.008314397, -0.007045399, -206757.27, -114025.836, 0.0, 4.978356, 4.937127 
5.479112e+2, 2.9547444e+2, -166214.67, -226974.94, -8382.842, -0.00954166, -0.018537132, -165079.34, -120715.67, 0.0, 4.975451, 4.9370975 
5.47849e+2, 3.0043054e+2, -100967.555, -93419.51, -4380.717, -0.008653278, -0.003693191, -91411.32, -91411.32, 0.0, 4.9725113, 4.977402 
5.477943e+2, 3.0542025e+2, -99118.266, -73549.03, -886.3164, -0.000024452076, 0.03876215, -73518.34, -73518.34, 0.0, 4.9694414, 4.985877 
5.477404e+2, 3.104118e+2, -107440.4, -77491.64, 198.12373, 0.009967689, 0.08366255, -77490.33, -77490.33, 0.0, 4.966349, 4.9858174 
5.4768646e+2, 3.1540307e+2, -115725.13, -81492.75, 1374.8285, 0.020111198, 0.12613389, -81437.62, -81437.62, 0.0, 4.963248, 4.9857564 
5.5542105e+2, 1.22148834e+2, -1593015.9, -1740764.0, -510.8541, 0.025545496, -0.006991046, -1593014.1, 149933.77, 0.0, 5.0648255, 4.96783 
5.5535537e+2, 1.2711723e+2, -1556056.5, -1704590.6, -5648.3047, -0.025195356, 0.028682955, -1555842.1, 138414.63, 0.0, 5.062233, 4.964996 
5.552955e+2, 1.3208029e+2, -1515117.3, -1659746.8, -6025.4043, -0.010663499, 0.011247957, -1514866.6, 130751.695, 0.0, 5.0595875, 4.96499 
5.5523574e+2, 1.3704334e+2, -1476345.4, -1619470.0, -6507.76, 0.0036104878, -0.004753307, -1476050.0, 120930.125, 0.0, 5.0569444, 4.963456 
5.5517256e+2, 1.4200589e+2, -1436117.1, -1576864.3, -10945.325, 0.012819121, -0.00017964924, -1435271.0, 113075.6, 0.0, 5.054376, 4.9626064 
5.551051e+2, 1.4696935e+2, -1393839.1, -1529886.4, -11411.877, 0.011063398, 0.0025649217, -1392888.6, 106815.43, 0.0, 5.0518374, 4.9632087 
5.5503756e+2, 1.519328e+2, -1352414.5, -1484707.9, -11557.975, 0.008915882, 0.004965138, -1351412.4, 99648.96, 0.0, 5.049299, 4.963199 
5.5497e+2, 1.5689623e+2, -1312353.0, -1442449.4, -11737.529, 0.0068026124, 0.007858234, -1311302.5, 91116.25, 0.0, 5.0467625, 4.962199 
5.549003e+2, 1.6185708e+2, -1273799.6, -1404000.0, -15754.954, 0.0059730816, 0.012640106, -1271920.3, 81881.266, 0.0, 5.0443, 4.959899 
5.5482745e+2, 1.6681662e+2, -1231124.1, -1356699.0, -16470.615, 0.00878226, 0.0029555056, -1228999.8, 76197.08, 0.0, 5.0418415, 4.96051 
5.5475456e+2, 1.717762e+2, -1189300.9, -1311188.9, -16682.549, 0.011706186, -0.0068450766, -1187058.8, 69532.64, 0.0, 5.039378, 4.960508 
5.546818e+2, 1.7673579e+2, -1148547.0, -1267996.9, -16855.66, 0.014573283, -0.016213818, -1146214.0, 61771.973, 0.0, 5.036916, 4.959713 
5.5460733e+2, 1.8169399e+2, -1109929.6, -1229669.8, -19183.14, 0.014878977, -0.012417129, -1106931.5, 52462.38, 0.0, 5.03447, 4.9572783 
5.5453056e+2, 1.8665221e+2, -1066968.1, -1181626.8, -19458.965, 0.011230408, -0.010865435, -1063755.8, 47044.926, 0.0, 5.031952, 4.9581056 
5.544537e+2, 1.9161047e+2, -1025142.3, -1136016.4, -19364.066, 0.007462247, -0.009523001, -1021857.75, 40349.164, 0.0, 5.029429, 4.958099 
5.5437684e+2, 1.9656877e+2, -984160.0, -1092278.0, -19242.363, 0.0036457842, -0.007731848, -980837.44, 32775.64, 0.0, 5.026906, 4.9574428 
5.5429983e+2, 2.0152436e+2, -947357.8, -1058492.0, -20214.307, 0.0032482918, 0.00010341529, -943795.25, 21252.932, 0.0, 5.0245366, 4.9533143 
5.5422217e+2, 2.064782e+2, -903609.4, -1009905.25, -20679.152, 0.007136816, -0.0034434919, -899728.1, 16777.434, 0.0, 5.0222397, 4.9541545 
5.541444e+2, 2.1143213e+2, -860984.94, -963715.94, -20855.998, 0.0106488075, -0.007151537, -856912.3, 11049.471, 0.0, 5.0199294, 4.954173 
5.540667e+2, 2.1638612e+2, -818983.6, -918944.75, -21006.154, 0.0138263395, -0.010556677, -814748.75, 4668.8154, 0.0, 5.01762, 4.9536934 
5.539887e+2, 2.2133873e+2, -779963.0, -880438.8, -21026.033, 0.0136495475, -0.00077343447, -775740.44, -4857.204, 0.0, 5.0152307, 4.9510946 
5.539102e+2, 2.2629078e+2, -736040.2, -830040.75, -21123.285, 0.010757278, -0.006813528, -731511.6, -9164.603, 0.0, 5.012609, 4.952645 
5.538318e+2, 2.3124285e+2, -694165.5, -784151.75, -21012.672, 0.007947977, -0.014376698, -689500.7, -15690.6, 0.0, 5.009978, 4.952646 
5.537533e+2, 2.36195e+2, -652889.56, -739672.75, -20872.043, 0.0048498223, -0.02130871, -648130.6, -22858.023, 0.0, 5.0073466, 4.952145 
5.536757e+2, 2.4114448e+2, -618621.25, -711129.8, -19280.125, 0.0019260412, -0.011864908, -614763.9, -37997.973, 0.0, 5.004788, 4.9460597 
5.535998e+2, 2.4609266e+2, -574376.4, -660699.56, -18997.893, 0.0005922006, -0.0051904335, -570380.3, -42096.395, 0.0, 5.002293, 4.947483 
5.535239e+2, 2.51041e+2, -531963.0, -614370.4, -18914.56, -0.0006446408, 0.000151641, -527829.06, -48027.973, 0.0, 4.99979, 4.947498 
5.5344814e+2, 2.5598934e+2, -489744.53, -568576.9, -18823.152, -0.0019687454, 0.005824061, -485480.7, -54162.88, 0.0, 4.9972878, 4.9473147 
5.5337346e+2, 2.6093563e+2, -452625.03, -533807.6, -16332.751, -0.0037948317, 0.027146766, -449462.34, -66612.086, 0.0, 4.994713, 4.94327 
5.5330163e+2, 2.6588142e+2, -405949.75, -477587.75, -15708.229, -0.0049791127, 0.019424666, -402656.72, -68282.08, 0.0, 4.9921184, 4.946702 
5.5323e+2, 2.7082714e+2, -363592.94, -431297.06, -15712.848, -0.005985832, 0.006645457, -360124.0, -74225.88, 0.0, 4.989539, 4.946679 
5.5315834e+2, 2.7577293e+2, -321236.6, -385106.84, -15728.81, -0.007099799, -0.006009381, -317573.3, -80151.54, 0.0, 4.98696, 4.946609 
5.5308807e+2, 2.8071398e+2, -292503.28, -368943.84, -12906.691, -0.0073384084, -0.0033388773, -290382.88, -101388.19, 0.0, 4.984232, 4.9359736 
5.530208e+2, 2.8565168e+2, -248570.58, -317283.38, -11687.552, -0.0069686854, -0.0052041346, -246637.02, -106024.086, 0.0, 4.9813037, 4.9378777 
5.529536e+2, 2.905894e+2, -206933.17, -271136.28, -11164.297, -0.007011862, -0.009369828, -205047.2, -112815.01, 0.0, 4.9783864, 4.937854 
5.5288655e+2, 2.9552698e+2, -165236.08, -224944.36, -10630.81, -0.0072059063, -0.013959849, -163399.78, -119547.52, 0.0, 4.9754696, 4.9378304 
5.528214e+2, 3.0048442e+2, -99760.07, -90528.23, -6634.8594, -0.0061264564, 0.0055037183, -87061.57, -87061.57, 0.0, 4.972478, 4.9784813 
5.5276275e+2, 3.0547452e+2, -97909.34, -70162.69, -3111.1167, -0.007315543, 0.040309712, -69818.13, -69818.13, 0.0, 4.9693446, 4.9871535 
5.5270463e+2, 3.1046638e+2, -106269.65, -73840.445, -1891.5756, -0.010112893, 0.07583349, -73730.48, -73730.48, 0.0, 4.966213, 4.9871817 
5.526465e+2, 3.154581e+2, -114592.484, -77576.54, -580.0795, -0.0138215255, 0.10934458, -77567.45, -77567.45, 0.0, 4.9630723, 4.987208 
5.604842e+2, 1.2220132e+2, -1593166.5, -1741865.0, -530.8579, 0.011418818, -0.0023148374, -1593164.6, 149269.45, 0.0, 5.064995, 4.9673896 
5.604165e+2, 1.271695e+2, -1555901.6, -1705461.1, -5693.1304, -0.031947643, 0.035547007, -1555685.3, 138060.08, 0.0, 5.062485, 4.9645925 
5.603544e+2, 1.3213181e+2, -1514931.4, -1660597.1, -6031.7026, -0.01388204, 0.0150060095, -1514682.0, 130432.5, 0.0, 5.059848, 4.964588 
5.6029236e+2, 1.3709411e+2, -1476158.6, -1620321.4, -6478.5728, 0.0041348636, -0.0042600436, -1475868.1, 120615.836, 0.0, 5.0572042, 4.9630537 
5.6022674e+2, 1.4205618e+2, -1435566.4, -1576951.0, -10856.936, 0.015586187, -0.0014944185, -1434737.5, 113117.59, 0.0, 5.0546308, 4.962461 
5.6015664e+2, 1.4701954e+2, -1393349.4, -1529954.1, -11326.1455, 0.012643351, 0.0018070097, -1392416.8, 106796.22, 0.0, 5.052062, 4.9630833 
5.600864e+2, 1.519829e+2, -1352008.1, -1484807.1, -11500.324, 0.009228567, 0.0048302254, -1351019.6, 99550.91, 0.0, 5.0494943, 4.9630766 
5.600162e+2, 1.5694627e+2, -1312028.9, -1442587.3, -11707.89, 0.0058103045, 0.008377855, -1310987.3, 90940.98, 0.0, 5.046931, 4.962076 
5.599439e+2, 1.6190703e+2, -1273599.1, -1404386.0, -15696.953, 0.004378109, 0.014236308, -1271741.6, 81570.11, 0.0, 5.0444603, 4.959699 
5.5986863e+2, 1.6686638e+2, -1230954.3, -1357161.6, -16452.988, 0.007878611, 0.0051330123, -1228844.6, 75864.98, 0.0, 5.042002, 4.960284 
5.597935e+2, 1.7182578e+2, -1189141.9, -1311660.5, -16721.574, 0.01153944, -0.004248876, -1186900.8, 69206.32, 0.0, 5.039534, 4.960282 
5.597182e+2, 1.7678516e+2, -1148413.8, -1268484.9, -16951.379, 0.015166557, -0.013314511, -1146066.4, 61438.07, 0.0, 5.037062, 4.9594865 
5.596414e+2, 1.8174316e+2, -1109391.9, -1229185.5, -19407.322, 0.015863152, -0.010336941, -1106326.3, 52587.688, 0.0, 5.0345936, 4.957391 
5.59562e+2, 1.867012e+2, -1066473.8, -1181065.6, -19801.871, 0.012018773, -0.012252127, -1063148.5, 47172.418, 0.0, 5.0320415, 4.9582615 
5.5948263e+2, 1.9165927e+2, -1024771.75, -1135513.8, -19817.412, 0.008024946, -0.014430834, -1021332.25, 40394.984, 0.0, 5.0294776, 4.9582553 
5.594032e+2, 1.9661736e+2, -983936.8, -1091842.5, -19795.008, 0.0039471267, -0.01611715, -980420.06, 32713.31, 0.0, 5.0269065, 4.9575996 
5.593237e+2, 2.0157309e+2, -947838.06, -1059293.5, -20590.957, 0.0029816832, -0.0061880844, -944155.6, 20411.127, 0.0, 5.024482, 4.953075 
5.592437e+2, 2.0652738e+2, -904067.75, -1010548.94, -21060.588, 0.0057989317, -0.0032784685, -900053.56, 15968.014, 0.0, 5.0221553, 4.9539795 
5.591635e+2, 2.1148176e+2, -861582.8, -964438.4, -21219.678, 0.008414056, -0.001105662, -857377.06, 10098.775, 0.0, 5.019794, 4.9539948 
5.590834e+2, 2.1643616e+2, -819799.5, -919777.3, -21352.973, 0.0108210575, 0.00118969, -815429.94, 3499.8613, 0.0, 5.017407, 4.9535108 
5.590031e+2, 2.2138877e+2, -780506.9, -880529.9, -21615.479, 0.0112042185, 0.011734743, -776035.5, -5639.3057, 0.0, 5.014986, 4.951185 
5.589223e+2, 2.2633998e+2, -736265.1, -829841.06, -21934.252, 0.011620331, -0.0042949505, -731378.9, -9513.263, 0.0, 5.0124497, 4.952797 
5.588415e+2, 2.3129123e+2, -694246.94, -783876.2, -21949.305, 0.012218855, -0.022077963, -689160.44, -15826.138, 0.0, 5.009872, 4.9528003 
5.587608e+2, 2.3624253e+2, -652932.1, -739366.1, -21892.793, 0.012494768, -0.03909462, -647703.25, -22900.94, 0.0, 5.00726, 4.9523005 
5.5868083e+2, 2.4119197e+2, -619129.7, -711805.25, -20200.662, 0.010110963, -0.029294293, -614917.94, -38622.957, 0.0, 5.0046945, 4.945873 
5.586021e+2, 2.4614134e+2, -574439.25, -660466.06, -20035.389, 0.0061228587, -0.012034046, -570001.94, -42198.477, 0.0, 5.002208, 4.947601 
5.585235e+2, 2.5109082e+2, -532023.2, -614159.7, -19987.172, 0.002458363, 0.00294522, -527417.7, -48106.27, 0.0, 4.9997063, 4.947609 
5.5844486e+2, 2.5604033e+2, -489833.88, -568396.44, -19905.424, -0.001299967, 0.018311268, -485078.3, -54259.242, 0.0, 4.9971967, 4.947418 
5.583675e+2, 2.6098737e+2, -452913.4, -534022.44, -17537.145, -0.005507274, 0.046205312, -449284.0, -66938.125, 0.0, 4.9946156, 4.943249 
5.582931e+2, 2.659324e+2, -406165.78, -477619.4, -17011.965, -0.0064957095, 0.03076018, -402322.25, -68445.55, 0.0, 4.9920135, 4.9467516 
5.582189e+2, 2.708773e+2, -363888.13, -431393.75, -17050.85, -0.0069600297, 0.008909246, -359825.8, -74418.05, 0.0, 4.9894085, 4.94672 
5.581447e+2, 2.7582213e+2, -321659.72, -385288.78, -17066.482, -0.0075855055, -0.012856364, -317371.22, -80432.06, 0.0, 4.986788, 4.9466405 
5.5807185e+2, 2.8076267e+2, -292501.3, -368085.66, -14508.515, -0.007841964, -0.016817411, -289812.06, -101294.96, 0.0, 4.9840407, 4.936374 
5.5800164e+2, 2.8570148e+2, -248055.81, -315490.3, -13492.202, -0.0067885974, -0.013922165, -245456.5, -105330.8, 0.0, 4.9811583, 4.938586 
5.579317e+2, 2.9064053e+2, -206331.14, -269284.88, -13069.072, -0.0057664504, -0.011871485, -203725.84, -111992.586, 0.0, 4.9782724, 4.938571 
5.5786175e+2, 2.955795e+2, -164582.4, -223049.78, -12616.267, -0.004862026, -0.010214185, -161976.2, -118634.72, 0.0, 4.975375, 4.9385557 
5.5779374e+2, 3.0053806e+2, -99061.42, -88218.94, -8842.71, -0.0030528153, 0.013217682, -83267.94, -83267.94, 0.0, 4.9723406, 4.979376 
5.57731e+2, 3.0552837e+2, -97368.54, -67055.26, -5589.034, -0.015643336, 0.03780888, -66057.61, -66057.61, 0.0, 4.96902, 4.98839 
5.576685e+2, 3.1052047e+2, -106499.695, -70778.71, -4724.6646, -0.033118576, 0.061360974, -70164.36, -70164.36, 0.0, 4.965585, 4.988507 
5.57606e+2, 3.1551263e+2, -115941.66, -74701.414, -3941.5085, -0.052668173, 0.083348274, -74328.086, -74328.086, 0.0, 4.9620132, 4.9886265 
5.655492e+2, 1.2225847e+2, -1583080.4, -1739460.9, 4730.1655, -0.0065927575, -0.019946262, -1582937.5, 158937.52, 0.0, 5.0690284, 4.966204 
5.654805e+2, 1.2722807e+2, -1544930.1, -1700336.8, -1384.9612, -0.03347998, 0.03542133, -1544917.8, 148254.92, 0.0, 5.066324, 4.964399 
5.654158e+2, 1.3219023e+2, -1504570.3, -1655788.9, -1611.098, -0.014684994, 0.016167909, -1504553.1, 139990.48, 0.0, 5.063485, 4.9643955 
5.65351e+2, 1.3715234e+2, -1466374.3, -1615812.9, -1950.2515, 0.004207646, -0.0019077129, -1466348.9, 129566.02, 0.0, 5.0606494, 4.9628606 
5.652827e+2, 1.4211416e+2, -1426109.5, -1572315.3, -6192.5894, 0.01612976, 0.0007577746, -1425847.8, 121440.45, 0.0, 5.0578976, 4.962402 
5.6520987e+2, 1.4707717e+2, -1384517.1, -1525629.3, -6598.7354, 0.012800631, 0.002254333, -1384209.1, 114439.47, 0.0, 5.055121, 4.963028 
5.651369e+2, 1.5204023e+2, -1343803.5, -1480791.4, -6730.045, 0.008988264, 0.0034803415, -1343473.6, 106535.266, 0.0, 5.052343, 4.963025 
5.65064e+2, 1.5700325e+2, -1304456.9, -1438888.1, -6900.7227, 0.0051265964, 0.005237826, -1304103.6, 97265.59, 0.0, 5.049567, 4.9620247 
5.64989e+2, 1.6196387e+2, -1266526.1, -1400906.8, -10702.29, 0.003147225, 0.010784661, -1265679.1, 87074.95, 0.0, 5.046912, 4.9596715 
5.649111e+2, 1.6692333e+2, -1224424.0, -1354084.0, -11298.542, 0.006196255, 0.0048477934, -1223446.9, 80704.695, 0.0, 5.044298, 4.960202 
5.648333e+2, 1.7188282e+2, -1183059.1, -1308813.1, -11424.966, 0.00943405, -0.001348546, -1182029.6, 73518.984, 0.0, 5.0416794, 4.960199 
5.6475556e+2, 1.768423e+2, -1142760.4, -1265859.9, -11508.805, 0.012675365, -0.0073357215, -1141693.8, 65252.145, 0.0, 5.039062, 4.9594016 
5.6467617e+2, 1.8180016e+2, -1103949.6, -1226301.9, -13960.964, 0.013843766, -0.004793188, -1102376.9, 55980.188, 0.0, 5.0364423, 4.9574647 
5.645943e+2, 1.867577e+2, -1061532.9, -1178502.8, -14415.4375, 0.01182135, -0.010812934, -1059782.5, 49985.805, 0.0, 5.0337386, 4.9583035 
5.645124e+2, 1.917153e+2, -1020252.44, -1133149.1, -14517.261, 0.009618178, -0.017054738, -1018415.56, 42763.19, 0.0, 5.031031, 4.958302 
5.6443053e+2, 1.9667293e+2, -979812.8, -1089662.1, -14588.27, 0.007293034, -0.022875546, -977908.5, 34680.55, 0.0, 5.0283246, 4.957651 
5.6434846e+2, 2.0162863e+2, -944189.06, -1056827.5, -15181.978, 0.006130792, -0.013677407, -942178.6, 21843.457, 0.0, 5.025639, 4.953349 
5.642656e+2, 2.0658347e+2, -901514.5, -1008668.1, -15255.335, 0.006555622, -0.0063133803, -899384.94, 16085.981, 0.0, 5.0229387, 4.9542313 
5.6418276e+2, 2.1153833e+2, -859997.7, -963055.5, -15049.53, 0.0071116, -0.00011942177, -857845.0, 9074.746, 0.0, 5.020237, 4.954236 
5.640999e+2, 2.1649314e+2, -819096.7, -918855.2, -14815.317, 0.007804456, 0.0055838553, -816942.94, 1426.049, 0.0, 5.017535, 4.953742 
5.6401706e+2, 2.2144568e+2, -780663.94, -880304.8, -14867.226, 0.008526825, 0.0143775465, -778492.94, -8656.583, 0.0, 5.014882, 4.9512806 
5.639339e+2, 2.2639644e+2, -736610.1, -830081.75, -15364.468, 0.010680482, -0.003774758, -734149.4, -12837.592, 0.0, 5.012368, 4.9527216 
5.638508e+2, 2.3134725e+2, -694374.2, -783957.2, -15687.777, 0.012998251, -0.023458425, -691706.4, -18920.137, 0.0, 5.009862, 4.9527445 
5.637677e+2, 2.3629808e+2, -652740.5, -739243.6, -15980.506, 0.015213434, -0.043156903, -649882.7, -25622.445, 0.0, 5.0073566, 4.9522657 
5.636853e+2, 2.4124742e+2, -618543.5, -710197.8, -14206.37, 0.01423244, -0.035057127, -616392.06, -40637.98, 0.0, 5.0046873, 4.946398 
5.636039e+2, 2.4619739e+2, -574865.6, -659432.25, -13569.639, 0.009912479, -0.015180503, -572741.56, -45486.79, 0.0, 5.001862, 4.948082 
5.635226e+2, 2.5114745e+2, -533309.8, -613526.2, -13142.033, 0.0059258817, 0.0025194155, -531211.6, -52456.453, 0.0, 4.999049, 4.948087 
5.634413e+2, 2.5609753e+2, -491951.28, -568144.2, -12712.165, 0.0019976844, 0.020202901, -489886.34, -59630.75, 0.0, 4.996237, 4.9478946 
5.633612e+2, 2.610448e+2, -456159.3, -534703.2, -9955.843, -0.0021328523, 0.04726124, -454917.03, -73137.88, 0.0, 4.993342, 4.9435353 
5.632839e+2, 2.6598954e+2, -410704.03, -479487.44, -9517.681, -0.0038912124, 0.030136447, -409411.34, -76097.1, 0.0, 4.990409, 4.9467673 
5.632069e+2, 2.7093422e+2, -369304.03, -433573.16, -9728.319, -0.0051913317, 0.0077560595, -367863.75, -83014.73, 0.0, 4.987487, 4.9467583 
5.631299e+2, 2.7587894e+2, -327907.2, -387747.75, -9948.025, -0.0064942874, -0.014205162, -326296.75, -89913.29, 0.0, 4.9845653, 4.9467015 
5.630541e+2, 2.808195e+2, -298876.6, -369654.97, -7396.1655, -0.0073395143, -0.01814539, -298111.97, -110149.8, 0.0, 4.9815936, 4.9368477 
5.62981e+2, 2.85759e+2, -254492.84, -316633.44, -6357.207, -0.006208088, -0.013726882, -253849.16, -114285.29, 0.0, 4.9785914, 4.939259 
5.629081e+2, 2.906988e+2, -213058.81, -270491.22, -5931.7573, -0.004861515, -0.009415484, -212452.56, -121289.33, 0.0, 4.9755926, 4.939261 
5.6283534e+2, 2.956386e+2, -171571.83, -224296.36, -5507.1875, -0.0035143853, -0.005118723, -171002.72, -128239.92, 0.0, 4.9725947, 4.939263 
5.627643e+2, 3.0059794e+2, -106160.12, -89649.46, -2070.2837, -0.0015689875, 0.020222967, -89393.82, -89393.82, 0.0, 4.969501, 4.980049 
5.626978e+2, 3.0558747e+2, -105575.73, -69770.78, 221.44981, -0.017141094, 0.033678763, -69769.414, -69769.414, 0.0, 4.9658566, 4.988798 
5.626316e+2, 3.105781e+2, -115604.414, -74250.6, 218.95264, -0.03674327, 0.04115273, -74249.445, -74249.445, 0.0, 4.962118, 4.9888177 
5.6256527e+2, 3.1556845e+2, -125608.445, -78804.2, 309.42426, -0.056925207, 0.044430315, -78802.164, -78802.164, 0.0, 4.9583726, 4.9888363 
5.706184e+2, 1.2232138e+2, -1584042.1, -1741728.3, 3197.9143, -0.0020877104, -0.010538212, -1583977.4, 157282.13, 0.0, 5.0690646, 4.965453 
5.7054627e+2, 1.2728979e+2, -1545178.9, -1701078.8, -3495.2053, -0.034411952, 0.035188578, -1545100.6, 147468.67, 0.0, 5.066345, 4.9641595 
5.7047874e+2, 1.3225183e+2, -1504816.1, -1656530.5, -3721.3489, -0.015089109, 0.017450266, -1504724.9, 139216.28, 0.0, 5.0635066, 4.964156 
5.7041126e+2, 1.3721387e+2, -1466617.9, -1616557.0, -4066.4658, 0.004304428, 0.00089291076, -1466507.6, 128805.8, 0.0, 5.060672, 4.96262 
5.703401e+2, 1.4217551e+2, -1426168.0, -1572675.5, -8276.82, 0.016294846, 0.003585159, -1425701.9, 120986.34, 0.0, 5.0579214, 4.962287 
5.702644e+2, 1.4713821e+2, -1384581.1, -1525996.9, -8669.292, 0.012671292, 0.0029897704, -1384051.6, 113999.555, 0.0, 5.0551443, 4.9629107 
5.701887e+2, 1.5210094e+2, -1343866.5, -1481156.4, -8800.486, 0.008606794, 0.0021244176, -1343304.6, 106109.28, 0.0, 5.0523663, 4.962908 
5.70113e+2, 1.5706365e+2, -1304523.6, -1439261.6, -8976.478, 0.0044800215, 0.0017968516, -1303928.3, 96848.484, 0.0, 5.0495906, 4.9619045 
5.7003516e+2, 1.6202416e+2, -1266502.3, -1401099.8, -12693.775, 0.0020722903, 0.0069906185, -1265315.5, 86847.08, 0.0, 5.046937, 4.959615 
5.6995463e+2, 1.6698384e+2, -1224458.9, -1354393.3, -13267.535, 0.004347958, 0.004392638, -1223118.0, 80440.4, 0.0, 5.0443215, 4.960108 
5.6987417e+2, 1.7194358e+2, -1183096.3, -1309120.4, -13391.025, 0.0067719077, 0.0016725346, -1181689.0, 73264.81, 0.0, 5.0417023, 4.960105 
5.6979364e+2, 1.7690329e+2, -1142800.3, -1266166.9, -13473.573, 0.009180559, -0.000791654, -1141345.9, 65003.438, 0.0, 5.0390835, 4.959308 
5.697116e+2, 1.8186112e+2, -1103874.3, -1226418.8, -16017.839, 0.010732366, 0.0018603151, -1101815.1, 55946.08, 0.0, 5.0364723, 4.957429 
5.6962734e+2, 1.8681821e+2, -1061517.0, -1178729.9, -16457.373, 0.010948367, -0.008069391, -1059250.1, 49926.47, 0.0, 5.033766, 4.9582314 
5.695429e+2, 1.9177538e+2, -1020250.44, -1133381.4, -16552.639, 0.010945551, -0.01802739, -1017878.3, 42712.91, 0.0, 5.0310545, 4.9582295 
5.6945854e+2, 1.967326e+2, -979824.5, -1089899.3, -16616.842, 0.0107665425, -0.027415827, -977370.7, 34634.81, 0.0, 5.028344, 4.957579 
5.693738e+2, 2.016883e+2, -943600.75, -1055836.4, -17249.047, 0.0095867915, -0.019277154, -941009.6, 22428.182, 0.0, 5.025669, 4.953694 
5.6928796e+2, 2.0664369e+2, -900947.75, -1007679.6, -17293.9, 0.007762935, -0.009828567, -898215.5, 16664.313, 0.0, 5.0229626, 4.954581 
5.692022e+2, 2.1159913e+2, -859467.1, -962086.5, -17071.201, 0.006019528, -0.0011972225, -856701.8, 9619.825, 0.0, 5.0202513, 4.954584 
5.691165e+2, 2.1655452e+2, -818602.2, -917905.4, -16819.902, 0.004309799, 0.007266027, -815830.56, 1933.0599, 0.0, 5.017541, 4.954088 
5.690309e+2, 2.2150718e+2, -780641.06, -880590.44, -16879.986, 0.004532544, 0.015435521, -777867.25, -8637.568, 0.0, 5.0149207, 4.951185 
5.6894535e+2, 2.2645766e+2, -736846.25, -830920.94, -17298.621, 0.0079673575, -0.0024075832, -733766.2, -13055.714, 0.0, 5.012404, 4.9524403 
5.688599e+2, 2.3140828e+2, -694654.4, -784819.4, -17595.174, 0.011282073, -0.020678358, -691342.44, -19152.629, 0.0, 5.009886, 4.952461 
5.687743e+2, 2.3635897e+2, -653064.56, -740128.75, -17860.979, 0.014378151, -0.03859707, -649542.9, -25874.484, 0.0, 5.0073676, 4.9519796 
5.6868935e+2, 2.4130839e+2, -617492.0, -708099.7, -16389.832, 0.014687563, -0.031588715, -614618.44, -39455.723, 0.0, 5.0047097, 4.947134 
5.686053e+2, 2.4625866e+2, -573907.75, -657576.0, -15758.7295, 0.012003769, -0.015130875, -571038.06, -44381.35, 0.0, 5.001889, 4.9487433 
5.685213e+2, 2.5120905e+2, -532372.0, -611712.4, -15307.168, 0.009459468, -0.00012851856, -529521.2, -51371.04, 0.0, 4.999075, 4.9487386 
5.684374e+2, 2.5615942e+2, -491033.28, -566372.5, -14853.292, 0.0068897507, 0.014975804, -488210.66, -58566.938, 0.0, 4.9962616, 4.948536 
5.6835455e+2, 2.6110685e+2, -455689.53, -533840.1, -12215.791, 0.0038432945, 0.038068347, -453824.6, -72660.98, 0.0, 4.9933553, 4.9438515 
5.6827426e+2, 2.660518e+2, -410796.53, -479910.72, -11807.253, 0.00046907747, 0.023729246, -408835.1, -76135.44, 0.0, 4.9904256, 4.9466376 
5.6819403e+2, 2.709967e+2, -369374.9, -434005.53, -11999.986, -0.0029012298, 0.0056002387, -367218.78, -82983.41, 0.0, 4.987511, 4.946623 
5.681138e+2, 2.7594164e+2, -327956.47, -388189.22, -12201.807, -0.0063431165, -0.012321201, -325578.53, -89807.49, 0.0, 4.9845977, 4.9465604 
5.68035e+2, 2.8088254e+2, -298128.72, -368282.97, -9665.361, -0.008494047, -0.01372688, -296821.47, -109472.73, 0.0, 4.981626, 4.937338 
5.679591e+2, 2.858227e+2, -253585.55, -314882.03, -8690.4375, -0.0067996704, -0.008360724, -252377.27, -113435.5, 0.0, 4.9786215, 4.9398913 
5.678832e+2, 2.9076326e+2, -212156.7, -268744.63, -8263.761, -0.0048949625, -0.0029158494, -210974.61, -120442.6, 0.0, 4.975622, 4.9398932 
5.678074e+2, 2.9570374e+2, -170674.89, -222554.58, -7837.971, -0.0030271222, 0.002476729, -169516.6, -127394.15, 0.0, 4.972624, 4.9398956 
5.6773335e+2, 3.006637e+2, -105476.86, -88171.54, -4614.116, -0.001357103, 0.027385266, -87018.15, -87018.15, 0.0, 4.969496, 4.9806256 
5.6766343e+2, 3.0565202e+2, -105564.52, -69500.39, -2493.7517, -0.016079364, 0.02836369, -69328.77, -69328.77, 0.0, 4.9658065, 4.988959 
5.6759375e+2, 3.106411e+2, -115603.4, -73821.2, -2378.5842, -0.034726158, 0.021615122, -73686.23, -73686.23, 0.0, 4.9620514, 4.989029 
5.675239e+2, 3.1563008e+2, -125600.18, -78208.34, -2206.7717, -0.0543737, 0.011362498, -78105.81, -78105.81, 0.0, 4.9582953, 4.9890976 
5.756884e+2, 1.2238511e+2, -1584307.9, -1742528.5, 870.0868, 0.011073172, 0.0070980317, -1584303.1, 156332.94, 0.0, 5.0690947, 4.965187 
5.7561207e+2, 1.273515e+2, -1545426.1, -1701822.6, -5604.4814, -0.03529953, 0.035022613, -1545225.5, 146740.28, 0.0, 5.0663676, 4.96392 
5.7554173e+2, 1.3231346e+2, -1505060.4, -1657274.0, -5830.6313, -0.01544876, 0.018778328, -1504837.3, 138501.4, 0.0, 5.0635295, 4.963916 
5.7547146e+2, 1.372754e+2, -1466859.8, -1617303.0, -6181.88, 0.0044457717, 0.00371822, -1466606.1, 128105.78, 0.0, 5.0606956, 4.9623785 
5.7539755e+2, 1.4223686e+2, -1426227.1, -1573042.9, -10361.638, 0.016433202, 0.0064218296, -1425499.5, 120588.74, 0.0, 5.057946, 4.9621696 
5.75319e+2, 1.4719924e+2, -1384643.4, -1526366.4, -10740.78, 0.012493159, 0.0037032191, -1383834.0, 113619.66, 0.0, 5.055169, 4.962792 
5.752405e+2, 1.5216166e+2, -1343927.8, -1481523.3, -10871.856, 0.008160124, 0.0007143459, -1343074.0, 105744.9, 0.0, 5.0523906, 4.96279 
5.75162e+2, 1.5712404e+2, -1304588.6, -1439637.0, -11053.235, 0.0037518758, -0.0017303663, -1303689.9, 96494.28, 0.0, 5.0496154, 4.9617834 
5.7508135e+2, 1.6208445e+2, -1266502.9, -1401350.0, -14685.762, 0.0010126295, 0.0033728268, -1264922.0, 86648.99, 0.0, 5.0469627, 4.9595394 
5.7499814e+2, 1.6704436e+2, -1224492.4, -1354704.5, -15237.749, 0.0024867204, 0.004039513, -1222733.0, 80232.24, 0.0, 5.0443463, 4.960012 
5.7491493e+2, 1.7200433e+2, -1183131.8, -1309429.5, -15358.305, 0.0040621595, 0.0046777823, -1181291.0, 73068.04, 0.0, 5.041726, 4.96001 
5.748318e+2, 1.769643e+2, -1142838.5, -1266475.8, -15439.477, 0.0056035547, 0.0056189536, -1140939.6, 64813.1, 0.0, 5.0391064, 4.9592137 
5.7474715e+2, 1.8192208e+2, -1103839.4, -1226628.1, -18066.55, 0.0075847227, 0.008774763, -1101236.4, 55928.906, 0.0, 5.036504, 4.9573607 
5.746603e+2, 1.8687873e+2, -1061500.5, -1178958.8, -18501.355, 0.010029166, -0.005167941, -1058655.3, 49929.633, 0.0, 5.033794, 4.9581575 
5.745734e+2, 1.9183546e+2, -1020247.75, -1133615.6, -18590.066, 0.012217391, -0.019028477, -1017277.2, 42726.43, 0.0, 5.031079, 4.9581556 
5.7448655e+2, 1.9679223e+2, -979835.44, -1090138.3, -18647.45, 0.014175228, -0.032170508, -976768.25, 34653.75, 0.0, 5.0283647, 4.9575047 
5.7439905e+2, 2.0174803e+2, -943069.8, -1054973.8, -19296.436, 0.012869713, -0.024357967, -939835.9, 23017.256, 0.0, 5.0257006, 4.9539924 
5.7431036e+2, 2.0670395e+2, -900381.7, -1006693.25, -19335.514, 0.008819295, -0.013117591, -896974.25, 17314.123, 0.0, 5.022987, 4.9549255 
5.742217e+2, 2.1165992e+2, -858937.25, -961119.7, -19095.936, 0.0048195072, -0.0025095197, -855485.2, 10238.058, 0.0, 5.0202665, 4.9549274 
5.74133e+2, 2.1661589e+2, -818108.25, -916957.75, -18827.568, 0.00075008825, 0.008254034, -814643.6, 2514.5571, 0.0, 5.017547, 4.95443 
5.7404476e+2, 2.2156872e+2, -780826.6, -881340.1, -18834.51, 0.00020893254, 0.017651467, -777413.25, -8790.928, 0.0, 5.0149612, 4.9509277 
5.739568e+2, 2.2651897e+2, -737084.4, -831761.94, -19235.434, 0.0049469112, 0.000035163237, -733325.56, -13217.038, 0.0, 5.01244, 4.9521523 
5.738688e+2, 2.314694e+2, -694936.44, -785683.4, -19505.242, 0.009413214, -0.017554216, -690921.56, -19328.678, 0.0, 5.0099096, 4.9521704 
5.737809e+2, 2.3641987e+2, -653390.44, -741015.7, -19744.137, 0.013544492, -0.034423035, -649147.1, -26070.727, 0.0, 5.0073795, 4.951687 
5.7369334e+2, 2.4136938e+2, -616639.56, -706451.44, -18534.977, 0.0148242, -0.027432201, -612964.75, -38393.9, 0.0, 5.0047336, 4.947714 
5.7360667e+2, 2.4631998e+2, -572949.94, -655723.25, -17936.602, 0.013902647, -0.014529739, -569230.3, -43172.082, 0.0, 5.001918, 4.949398 
5.7352006e+2, 2.5127062e+2, -531434.06, -609902.0, -17461.11, 0.013091874, -0.0029666084, -527724.0, -50178.977, 0.0, 4.999102, 4.9493833 
5.7343346e+2, 2.562213e+2, -490115.1, -564604.1, -16983.248, 0.012171237, 0.008818491, -486425.72, -57393.754, 0.0, 4.9962873, 4.9491706 
5.733479e+2, 2.611689e+2, -455456.16, -533512.75, -14480.771, 0.009714158, 0.029307423, -452856.34, -72308.35, 0.0, 4.9933696, 4.94398 
5.732645e+2, 2.6611406e+2, -410887.28, -480336.5, -14087.706, 0.004595411, 0.018097028, -408138.4, -76053.484, 0.0, 4.9904437, 4.9465017 
5.7318115e+2, 2.7105922e+2, -369443.94, -434440.34, -14262.529, -0.00069960963, 0.0036919047, -366451.94, -82830.18, 0.0, 4.987537, 4.946481 
5.730978e+2, 2.760043e+2, -328003.78, -388633.13, -14446.459, -0.0061352984, -0.010716112, -324737.53, -89578.73, 0.0, 4.984631, 4.9464135 
5.73016e+2, 2.8094554e+2, -297436.47, -367044.3, -11943.055, -0.009555289, -0.009424939, -295444.3, -108709.055, 0.0, 4.9816594, 4.937782 
5.72937e+2, 2.858864e+2, -252676.33, -313133.44, -11023.476, -0.0074007283, -0.0029765912, -250729.08, -112409.445, 0.0, 4.978653, 4.9405212 
5.728582e+2, 2.9082766e+2, -211252.64, -267000.8, -10595.571, -0.0050009014, 0.0034673112, -209306.75, -119405.94, 0.0, 4.9756527, 4.940523 
5.727795e+2, 2.957689e+2, -169776.0, -220815.58, -10168.561, -0.0026752278, 0.009821561, -167824.73, -126342.48, 0.0, 4.9726543, 4.9405255 
5.7270235e+2, 3.0072927e+2, -104922.22, -86979.02, -7238.997, -0.0008789534, 0.03301853, -84422.71, -84422.71, 0.0, 4.96949, 4.981081 
5.726289e+2, 3.0571616e+2, -105568.27, -69227.99, -5280.1357, -0.015750976, 0.018080814, -68476.35, -68476.35, 0.0, 4.965754, 4.989084 
5.725556e+2, 3.1070364e+2, -115646.97, -73402.484, -5040.501, -0.034726292, -0.0058588046, -72809.4, -72809.4, 0.0, 4.9619713, 4.9892044 
5.7248217e+2, 3.156911e+2, -125683.5, -77643.29, -4744.425, -0.055121206, -0.032603003, -77179.21, -77179.21, 0.0, 4.9581876, 4.989323 
5.807577e+2, 1.22447744e+2, -1583513.0, -1741384.0, -67.91821, 0.017491065, 0.008525725, -1583513.0, 156510.25, 0.0, 5.0692177, 4.965497 
5.806779e+2, 1.2741368e+2, -1545318.0, -1702225.3, -5327.432, -0.034984484, 0.03451451, -1545137.4, 146219.98, 0.0, 5.0665092, 4.9637165 
5.8060473e+2, 1.3237555e+2, -1504932.1, -1657690.4, -5562.6377, -0.015376827, 0.019747568, -1504729.8, 138001.56, 0.0, 5.0636797, 4.963706 
5.805316e+2, 1.3733737e+2, -1466720.9, -1617739.8, -5936.002, 0.004349475, 0.0062024267, -1466487.9, 127617.81, 0.0, 5.0608506, 4.962161 
5.8045477e+2, 1.4229865e+2, -1425911.4, -1573166.8, -10131.237, 0.015926689, 0.009131594, -1425217.6, 120266.016, 0.0, 5.058108, 4.962054 
5.803735e+2, 1.472607e+2, -1384295.8, -1526506.3, -10617.03, 0.011979538, 0.004464338, -1383507.5, 113344.52, 0.0, 5.055345, 4.962664 
5.802922e+2, 1.5222274e+2, -1343559.4, -1481662.1, -10870.329, 0.0077314666, -0.0006053959, -1342709.0, 105511.43, 0.0, 5.0525737, 4.9626603 
5.802109e+2, 1.5718476e+2, -1304231.3, -1439798.3, -11179.403, 0.003423601, -0.005239817, -1303315.5, 96273.375, 0.0, 5.049796, 4.9616485 
5.8012754e+2, 1.6214503e+2, -1266087.0, -1401279.9, -14773.598, 0.0005554984, -0.0001948748, -1264491.4, 86485.57, 0.0, 5.047122, 4.959496 
5.800417e+2, 1.6710518e+2, -1224206.3, -1354709.6, -15276.738, 0.00095741573, 0.003426146, -1222441.9, 79927.54, 0.0, 5.0444627, 4.9599643 
5.7995576e+2, 1.7206535e+2, -1182982.9, -1309510.9, -15372.709, 0.0014709719, 0.0070207193, -1181141.9, 72619.48, 0.0, 5.0417957, 4.959959 
5.798698e+2, 1.7702551e+2, -1142836.9, -1266637.6, -15434.183, 0.001990435, 0.0109077785, -1140941.6, 64211.895, 0.0, 5.0391264, 4.959159 
5.7978255e+2, 1.8198328e+2, -1103908.8, -1226938.9, -18153.447, 0.0042977817, 0.01505595, -1101286.1, 55280.383, 0.0, 5.036522, 4.9572544 
5.7969326e+2, 1.8693951e+2, -1061360.9, -1179142.6, -18767.393, 0.008838138, -0.0020899738, -1058442.8, 49547.613, 0.0, 5.033877, 4.9580626 
5.796038e+2, 1.918958e+2, -1019971.3, -1133724.0, -19014.021, 0.013211286, -0.019498818, -1016877.25, 42536.34, 0.0, 5.031207, 4.9580655 
5.795145e+2, 1.9685213e+2, -979488.1, -1090201.1, -19210.322, 0.017413378, -0.03642283, -976249.56, 34586.887, 0.0, 5.0285163, 4.957419 
5.794243e+2, 2.0180796e+2, -942313.8, -1053965.1, -19933.982, 0.016099859, -0.028737186, -938861.56, 23405.088, 0.0, 5.025819, 4.9542885 
5.793327e+2, 2.0676436e+2, -899635.44, -1005535.2, -20068.723, 0.009940901, -0.01633017, -895959.8, 17735.736, 0.0, 5.0230694, 4.9552917 
5.792411e+2, 2.1172081e+2, -858331.9, -960044.7, -19894.666, 0.0038981517, -0.004648752, -854579.0, 10545.193, 0.0, 5.0203032, 4.955289 
5.7914954e+2, 2.1667726e+2, -817685.1, -915979.8, -19681.063, -0.0022324882, 0.0073290146, -813890.94, 2661.8457, 0.0, 5.017525, 4.954787 
5.790585e+2, 2.2163033e+2, -781499.94, -882571.75, -19544.123, -0.0037984247, 0.01969185, -777852.4, -9837.846, 0.0, 5.0148997, 4.950543 
5.7896817e+2, 2.2658041e+2, -737603.44, -832683.8, -20025.27, 0.001879954, 0.0030718853, -733557.94, -14052.711, 0.0, 5.012378, 4.9518704 
5.7887775e+2, 2.3153062e+2, -695511.1, -786631.56, -20308.543, 0.0074503743, -0.014100381, -691189.75, -20195.178, 0.0, 5.009826, 4.951888 
5.787873e+2, 2.364809e+2, -654092.56, -742017.9, -20538.861, 0.012756181, -0.03066535, -649531.44, -27048.262, 0.0, 5.0072517, 4.951403 
5.786973e+2, 2.4143048e+2, -616458.6, -705418.06, -19549.064, 0.0147764115, -0.02291764, -612352.25, -38374.258, 0.0, 5.0045905, 4.9481473 
5.7860804e+2, 2.4638134e+2, -572371.6, -654034.9, -19193.322, 0.015696084, -0.013623489, -568085.56, -42626.61, 0.0, 5.001817, 4.950043 
5.785188e+2, 2.5133228e+2, -530800.94, -608210.44, -18855.799, 0.016863717, -0.0060163164, -526452.25, -49512.906, 0.0, 4.999025, 4.9500237 
5.7842964e+2, 2.562832e+2, -489485.03, -562934.1, -18473.705, 0.01787782, 0.0019037264, -485100.34, -56680.484, 0.0, 4.9962144, 4.949805 
5.783412e+2, 2.6123098e+2, -455693.22, -533796.06, -16154.525, 0.015493947, 0.021267232, -452483.75, -72551.9, 0.0, 4.993302, 4.9439273 
5.782546e+2, 2.6617637e+2, -411094.88, -480801.84, -15816.755, 0.008507652, 0.013267655, -407673.9, -76204.055, 0.0, 4.9904227, 4.946362 
5.781682e+2, 2.711217e+2, -369579.03, -434882.16, -16019.004, 0.0014446337, 0.0020134358, -365861.2, -82853.15, 0.0, 4.9875402, 4.9463396 
5.7808185e+2, 2.76067e+2, -328136.8, -389084.13, -16210.814, -0.0057930704, -0.009382291, -324093.3, -89546.74, 0.0, 4.984635, 4.9462686 
5.779969e+2, 2.8100857e+2, -296936.75, -365970.84, -13772.113, -0.010422045, -0.0051610796, -294290.7, -108169.086, 0.0, 4.981647, 4.9381843 
5.7791495e+2, 2.8595012e+2, -251881.27, -311421.75, -12966.299, -0.007942898, 0.0024206778, -249180.1, -111482.76, 0.0, 4.9786463, 4.9411507 
5.7783324e+2, 2.9089206e+2, -210444.73, -265290.38, -12612.512, -0.0051445095, 0.0096920235, -207683.36, -118413.69, 0.0, 4.9756517, 4.9411526 
5.7775146e+2, 2.9583398e+2, -168951.19, -219102.92, -12264.645, -0.0024476082, 0.016858108, -166112.53, -125270.3, 0.0, 4.97266, 4.9411545 
5.776713e+2, 3.0079463e+2, -104537.73, -86076.945, -9837.185, -0.00012491186, 0.036983017, -81817.695, -81817.695, 0.0, 4.96947, 4.9814177 
5.7759416e+2, 3.0577987e+2, -105900.94, -69088.56, -8400.818, -0.016189536, 0.0027345556, -67262.06, -67262.06, 0.0, 4.965588, 4.989172 
5.7751715e+2, 3.1076568e+2, -115887.08, -73051.445, -7706.578, -0.036792543, -0.041381452, -71707.14, -71707.14, 0.0, 4.9618235, 4.989346 
5.7743996e+2, 3.1575158e+2, -125940.12, -77136.92, -7253.074, -0.05921433, -0.0875769, -76081.79, -76081.79, 0.0, 4.9580207, 4.989515 
5.8582914e+2, 1.2251657e+2, -1572082.0, -1735818.6, 5667.2554, 0.023646211, -0.0068415673, -1571886.1, 167462.66, 0.0, 5.0731997, 4.9653654 
5.857467e+2, 1.2748308e+2, -1534455.5, -1696777.5, -564.72095, -0.026234118, 0.026902944, -1534453.5, 156223.69, 0.0, 5.0702615, 4.9636617 
5.8567005e+2, 1.3244522e+2, -1494742.5, -1652605.6, -723.0901, -0.011893145, 0.016737495, -1494739.1, 147309.36, 0.0, 5.0672107, 4.963647 
5.8559346e+2, 1.3740732e+2, -1457186.5, -1613008.0, -1007.5244, 0.002652708, 0.007779466, -1457180.0, 136240.31, 0.0, 5.0641646, 4.962097 
5.855134e+2, 1.4236867e+2, -1416951.0, -1568796.0, -5050.3115, 0.0111481575, 0.013244295, -1416783.3, 128014.48, 0.0, 5.061236, 4.961967 
5.8542943e+2, 1.473303e+2, -1375850.5, -1522534.8, -5497.3154, 0.008821927, 0.0071236235, -1375644.8, 120526.01, 0.0, 5.058329, 4.9625216 
5.853455e+2, 1.5229188e+2, -1335519.8, -1477910.9, -5732.9883, 0.006316301, 0.00047524268, -1335289.4, 112254.625, 0.0, 5.055423, 4.962516 
5.852616e+2, 1.5725347e+2, -1296570.5, -1436261.1, -6024.85, 0.0037687356, -0.005820213, -1296311.1, 102606.22, 0.0, 5.0525203, 4.9614983 
5.851754e+2, 1.6221349e+2, -1258443.0, -1397026.4, -9531.59, 0.0016884039, -0.002071435, -1257790.5, 92517.19, 0.0, 5.0496845, 4.959667 
5.850866e+2, 1.6717365e+2, -1217253.4, -1350777.6, -9880.031, 0.0008588453, 0.0015450688, -1216526.3, 85172.2, 0.0, 5.0467877, 4.9601464 
5.849977e+2, 1.721339e+2, -1176724.5, -1305929.9, -9839.104, 0.000103008475, 0.005212312, -1175979.5, 77109.27, 0.0, 5.0438867, 4.9601393 
5.849089e+2, 1.770941e+2, -1137258.9, -1263400.8, -9756.508, -0.00063243305, 0.009206604, -1136508.8, 67970.664, 0.0, 5.040987, 4.959337 
5.848188e+2, 1.820519e+2, -1099183.6, -1224624.6, -12265.709, 0.001013318, 0.01417127, -1097995.5, 57896.676, 0.0, 5.038193, 4.9572144 
5.847268e+2, 1.8700814e+2, -1057033.6, -1177167.0, -12780.807, 0.0057742773, -0.000070934184, -1055689.0, 51628.793, 0.0, 5.035443, 4.9579606 
5.846348e+2, 1.9196443e+2, -1015874.7, -1131851.8, -12975.787, 0.010504418, -0.014883733, -1014440.6, 44302.39, 0.0, 5.0326905, 4.9579687 
5.845428e+2, 1.969207e+2, -975554.56, -1088400.4, -13135.659, 0.015213937, -0.029661573, -974045.75, 36122.504, 0.0, 5.029939, 4.9573283 
5.844498e+2, 2.0187634e+2, -938062.7, -1050735.1, -13951.929, 0.015030337, -0.024433946, -936360.75, 25239.814, 0.0, 5.0270944, 4.9547544 
5.8435553e+2, 2.068325e+2, -896051.06, -1002792.9, -14063.2705, 0.0100982785, -0.016878607, -894229.3, 18800.229, 0.0, 5.0241523, 4.955688 
5.842612e+2, 2.117887e+2, -855256.6, -957554.8, -13922.794, 0.0052060927, -0.009763471, -853395.6, 11062.524, 0.0, 5.021213, 4.9556837 
5.841669e+2, 2.1674491e+2, -815074.8, -913723.3, -13752.161, 0.00024216968, -0.002415834, -813193.56, 2693.107, 0.0, 5.0182743, 4.955181 
5.8407307e+2, 2.216981e+2, -780040.56, -881358.44, -13263.77, -0.0013917184, 0.009776632, -778332.94, -10986.504, 0.0, 5.0153627, 4.9507084 
5.839798e+2, 2.2664882e+2, -737148.7, -832094.4, -13343.88, 0.0022616968, 0.00030354044, -735308.94, -16475.844, 0.0, 5.012518, 4.9519677 
5.8388656e+2, 2.3159958e+2, -695854.06, -786405.25, -13297.214, 0.006148075, -0.010493436, -693941.8, -23622.572, 0.0, 5.009676, 4.9519877 
5.8379334e+2, 2.365503e+2, -655161.5, -742118.3, -13224.195, 0.010190186, -0.021733837, -653194.9, -31389.44, 0.0, 5.0068355, 4.9515066 
5.837005e+2, 2.4149998e+2, -617579.1, -704581.4, -12012.829, 0.0124412235, -0.014866432, -615950.9, -42650.617, 0.0, 5.003971, 4.9486685 
5.836085e+2, 2.4645053e+2, -573725.06, -653545.4, -11885.352, 0.014157144, -0.010784763, -571992.9, -47210.418, 0.0, 5.001174, 4.9504566 
5.835166e+2, 2.5140122e+2, -532135.6, -607654.5, -11859.963, 0.016067538, -0.007613913, -530316.9, -54053.637, 0.0, 4.9983854, 4.9504557 
5.834247e+2, 2.5635195e+2, -490746.2, -562285.6, -11829.709, 0.017944949, -0.003892988, -488840.8, -61097.234, 0.0, 4.9955974, 4.950256 
5.833335e+2, 2.6129973e+2, -457140.78, -533576.6, -9536.321, 0.016564626, 0.013074092, -455968.97, -76714.33, 0.0, 4.9926805, 4.94423 
5.832441e+2, 2.6624545e+2, -413151.6, -481040.34, -8820.087, 0.010557631, 0.007881804, -412024.4, -81233.82, 0.0, 4.9896235, 4.9465814 
5.831548e+2, 2.7119118e+2, -372111.97, -435266.03, -8637.705, 0.004527019, 0.00014934734, -370951.88, -88625.57, 0.0, 4.986569, 4.946576 
5.8306557e+2, 2.7613696e+2, -331080.06, -389572.7, -8461.175, -0.0015626836, -0.007401211, -329880.72, -96018.71, 0.0, 4.983515, 4.946523 
5.829777e+2, 2.8107908e+2, -299829.0, -365623.22, -5693.472, -0.0053383, -0.00004253455, -299339.94, -113907.3, 0.0, 4.9804087, 4.938779 
5.8289266e+2, 2.86021e+2, -255094.06, -311125.5, -4975.8022, -0.004045911, 0.006676407, -254655.63, -117652.42, 0.0, 4.977273, 4.94179 
5.828076e+2, 2.9096326e+2, -214048.03, -265186.5, -4700.964, -0.0026573061, 0.012718953, -213619.47, -125048.84, 0.0, 4.9741387, 4.9417853 
5.827227e+2, 2.9590547e+2, -172961.92, -219196.08, -4423.6265, -0.001378314, 0.01863947, -172542.48, -132404.11, 0.0, 4.971002, 4.941781 
5.826392e+2, 3.0086613e+2, -109296.336, -87966.92, -2558.547, -0.00016858465, 0.03645424, -87664.31, -87664.31, 0.0, 4.9677925, 4.9814153 
5.8255905e+2, 3.0585018e+2, -109783.016, -72525.586, -1980.2063, -0.012079717, -0.002480425, -72420.64, -72420.64, 0.0, 4.964527, 4.9883995 
5.8247906e+2, 3.108342e+2, -119382.984, -76943.15, -3643.3838, -0.025508722, -0.053310055, -76632.65, -76632.65, 0.0, 4.9609704, 4.9883704 
5.823991e+2, 3.1581786e+2, -129281.055, -81507.83, -5158.4785, -0.03878102, -0.10862592, -80957.17, -80957.17, 0.0, 4.957296, 4.988352 
5.909006e+2, 1.2259035e+2, -1573580.9, -1739239.5, 4471.3115, 0.010069318, -0.006049317, -1573460.3, 165165.53, 0.0, 5.0732346, 4.96424 
5.908174e+2, 1.2755574e+2, -1534527.4, -1697217.8, -2826.5215, -0.016053556, 0.017930109, -1534478.3, 155486.84, 0.0, 5.070289, 4.963522 
5.9073704e+2, 1.3251828e+2, -1494815.1, -1653046.5, -2984.0442, -0.0078053735, 0.0132328905, -1494758.9, 146573.6, 0.0, 5.0672383, 4.963507 
5.906568e+2, 1.374808e+2, -1457258.5, -1613447.9, -3271.375, 0.0006186516, 0.009756639, -1457190.0, 135510.23, 0.0, 5.064192, 4.961958 
5.905734e+2, 1.4244229e+2, -1417089.3, -1569348.3, -7239.747, 0.0056673707, 0.01818811, -1416745.8, 127330.55, 0.0, 5.06126, 4.9617915 
5.9048676e+2, 1.4740354e+2, -1376066.5, -1523249.9, -7663.1704, 0.0051882025, 0.010535059, -1375668.5, 119785.19, 0.0, 5.0583534, 4.9622917 
5.904001e+2, 1.5236476e+2, -1335733.6, -1478625.0, -7899.5947, 0.0046040905, 0.00234088, -1335298.1, 111533.164, 0.0, 5.0554476, 4.9622855 
5.9031343e+2, 1.5732595e+2, -1296786.4, -1436984.1, -8196.519, 0.0039696526, -0.0054743956, -1296308.8, 101900.37, 0.0, 5.052545, 4.9612646 
5.9022444e+2, 1.6228577e+2, -1258161.0, -1396728.1, -11729.664, 0.0027928583, -0.0029178925, -1257175.0, 92426.02, 0.0, 5.049714, 4.9597735 
5.901326e+2, 1.6724601e+2, -1216955.3, -1350428.6, -12053.968, 0.0008556489, -0.000104352446, -1215875.4, 85114.445, 0.0, 5.0468154, 4.960271 
5.900407e+2, 1.722063e+2, -1176435.5, -1305584.1, -12008.831, -0.0010723916, 0.0028543852, -1175328.4, 77049.79, 0.0, 5.043912, 4.960264 
5.8994883e+2, 1.7716658e+2, -1136979.6, -1263060.3, -11924.802, -0.003009278, 0.0062265065, -1135861.6, 67904.92, 0.0, 5.0410094, 4.959461 
5.8985585e+2, 1.821245e+2, -1099211.1, -1224990.9, -14368.5625, -0.0022106064, 0.012287306, -1097590.6, 57587.535, 0.0, 5.0382247, 4.9570994 
5.89761e+2, 1.8708096e+2, -1057136.8, -1177671.5, -14854.307, 0.0022051104, 0.0019072952, -1055333.1, 51270.883, 0.0, 5.0354705, 4.957801 
5.8966625e+2, 1.9203748e+2, -1015992.0, -1132362.0, -15041.946, 0.0065470734, -0.008844736, -1014079.1, 43950.215, 0.0, 5.032714, 4.9578085 
5.895715e+2, 1.9699399e+2, -975686.06, -1088916.3, -15194.264, 0.01082051, -0.019410413, -973682.56, 35771.918, 0.0, 5.0299582, 4.9571676 
5.8947575e+2, 2.0194954e+2, -937452.1, -1049772.1, -16232.809, 0.01168569, -0.016120916, -935153.2, 25734.908, 0.0, 5.027133, 4.955087 
5.8937865e+2, 2.0690528e+2, -895549.1, -1002031.44, -16297.184, 0.009235457, -0.015500556, -893110.7, 19207.912, 0.0, 5.024185, 4.955957 
5.892816e+2, 2.118611e+2, -854789.56, -956817.5, -16141.055, 0.0066622016, -0.014804365, -852296.94, 11451.3955, 0.0, 5.0212374, 4.95595 
5.8918464e+2, 2.1681696e+2, -814642.5, -913009.9, -15954.572, 0.003910713, -0.013593835, -812119.5, 3058.3738, 0.0, 5.0182905, 4.955444 
5.8908796e+2, 2.2177036e+2, -779590.1, -880673.0, -15470.774, 0.0023603889, -0.0018842177, -777275.3, -10640.728, 0.0, 5.0153923, 4.950953 
5.889916e+2, 2.2672199e+2, -736800.7, -831616.5, -15514.836, 0.0036002507, -0.0038037542, -734326.56, -16212.674, 0.0, 5.0125446, 4.9521446 
5.888952e+2, 2.3167367e+2, -695532.7, -785954.5, -15450.88, 0.00500333, -0.0067311535, -692965.44, -23372.79, 0.0, 5.0096974, 4.95216 
5.8879894e+2, 2.3662534e+2, -654866.56, -741694.44, -15360.367, 0.00648474, -0.009901251, -652229.4, -31157.91, 0.0, 5.006851, 4.9516735 
5.887033e+2, 2.4157535e+2, -616983.56, -703551.8, -14219.9375, 0.0078708595, -0.0027890229, -614707.56, -42143.805, 0.0, 5.0039988, 4.9490366 
5.8860844e+2, 2.465254e+2, -573370.5, -653077.25, -14067.195, 0.009883544, -0.0052888156, -570960.7, -46910.95, 0.0, 5.0012054, 4.9506345 
5.8851373e+2, 2.514756e+2, -531787.8, -607209.7, -14025.695, 0.011879032, -0.008106123, -529264.0, -53729.832, 0.0, 4.998417, 4.9506273 
5.88419e+2, 2.564259e+2, -490405.0, -561864.0, -13979.278, 0.01378622, -0.010375485, -487767.63, -60749.35, 0.0, 4.9956293, 4.9504223 
5.8832514e+2, 2.6137358e+2, -456499.97, -532394.7, -11840.853, 0.013883294, 0.0027191415, -454695.5, -76165.484, 0.0, 4.9926996, 4.9446588 
5.88233e+2, 2.6632002e+2, -412607.34, -480096.2, -11195.53, 0.011099617, 0.0014617603, -410798.63, -80739.47, 0.0, 4.989645, 4.9469295 
5.881409e+2, 2.7126652e+2, -371550.03, -434325.94, -11005.883, 0.0080889845, -0.0018610152, -369676.38, -88088.445, 0.0, 4.9865975, 4.946921 
5.8804893e+2, 2.7621302e+2, -330500.47, -388636.72, -10822.072, 0.004888019, -0.0051946575, -328551.3, -95434.4, 0.0, 4.9835496, 4.9468656 
5.879583e+2, 2.811558e+2, -299026.47, -364172.97, -8098.5684, 0.002881221, 0.0045403326, -298034.8, -113353.81, 0.0, 4.9804435, 4.939298 
5.8786976e+2, 2.8609803e+2, -254391.61, -309894.66, -7422.282, 0.0020021459, 0.009600273, -253416.19, -117169.12, 0.0, 4.9773064, 4.9422364 
5.8778137e+2, 2.9104054e+2, -213347.89, -263958.44, -7149.417, 0.0008594511, 0.013846633, -212357.33, -124546.97, 0.0, 4.9741726, 4.942232 
5.8769304e+2, 2.9598305e+2, -172251.28, -217965.25, -6876.909, -0.0004126193, 0.01801157, -171239.17, -131865.27, 0.0, 4.9710402, 4.9422274 
5.876062e+2, 3.009438e+2, -109464.5, -88814.266, -5033.653, -0.0013138852, 0.034257255, -87652.625, -87652.625, 0.0, 4.9678407, 4.981121 
5.875235e+2, 3.0592734e+2, -110798.78, -75182.93, -4359.163, -0.0073418827, -0.000028455068, -74657.16, -74657.16, 0.0, 4.964562, 4.9874563 
5.874411e+2, 3.1091088e+2, -119599.38, -79164.58, -5084.509, -0.013957099, -0.044234574, -78535.02, -78535.02, 0.0, 4.9612927, 4.9874544 
5.873587e+2, 3.158942e+2, -128366.305, -83195.97, -5754.247, -0.020558497, -0.091981076, -82474.46, -82474.46, 0.0, 4.958023, 4.987452 
5.959722e+2, 1.2266555e+2, -1574746.0, -1741966.1, 2616.5881, -0.0012894777, 0.00923802, -1574705.0, 163183.69, 0.0, 5.073268, 4.963344 
5.958881e+2, 1.2762843e+2, -1534597.6, -1697660.1, -5088.0874, -0.006050478, 0.009154926, -1534439.0, 154813.83, 0.0, 5.0703187, 4.963382 
5.958041e+2, 1.3259137e+2, -1494886.0, -1653489.3, -5244.763, -0.0038966616, 0.00989009, -1494712.8, 145903.33, 0.0, 5.067267, 4.9633665 
5.957201e+2, 1.3755427e+2, -1457363.9, -1613963.5, -5557.644, -0.0016002299, 0.01186743, -1457166.9, 134812.95, 0.0, 5.0642204, 4.9617934 
5.956334e+2, 1.4251593e+2, -1417204.9, -1569859.5, -9405.718, 0.00021984748, 0.023099106, -1416627.6, 126727.34, 0.0, 5.061286, 4.96163 
5.95544e+2, 1.4747678e+2, -1376280.1, -1523967.5, -9828.557, 0.0015990017, 0.0138669545, -1375628.9, 119107.86, 0.0, 5.058379, 4.962061 
5.954546e+2, 1.5243761e+2, -1335945.1, -1479341.4, -10065.732, 0.002920902, 0.0040929103, -1335242.0, 110876.86, 0.0, 5.055474, 4.9620547 
5.953653e+2, 1.5739842e+2, -1296999.9, -1437709.6, -10367.811, 0.004184128, -0.005276195, -1296240.1, 101260.945, 0.0, 5.0525713, 4.9610305 
5.9527344e+2, 1.6235809e+2, -1257887.4, -1396454.1, -13925.399, 0.0038541013, -0.003530419, -1256501.8, 92392.49, 0.0, 5.0497456, 4.959871 
5.9517854e+2, 1.6731837e+2, -1216655.8, -1350082.1, -14229.482, 0.0007785253, -0.001647324, -1215155.1, 85125.96, 0.0, 5.0468435, 4.9603934 
5.9508365e+2, 1.7227872e+2, -1176145.0, -1305240.9, -14180.139, -0.0023388432, 0.0004645012, -1174605.9, 77061.484, 0.0, 5.043938, 4.960387 
5.9498876e+2, 1.7723906e+2, -1136698.8, -1262722.1, -14094.565, -0.005494263, 0.0030763533, -1135141.6, 67911.97, 0.0, 5.0410337, 4.9595838 
5.948928e+2, 1.8219712e+2, -1099292.9, -1225478.6, -16459.479, -0.005543177, 0.01087304, -1097181.3, 57282.676, 0.0, 5.0382576, 4.9569426 
5.947952e+2, 1.871538e+2, -1057238.9, -1178178.3, -16929.598, -0.001462472, 0.004170608, -1054913.8, 50976.234, 0.0, 5.0354996, 4.9576387 
5.9469765e+2, 1.9211054e+2, -1016108.44, -1132874.6, -17109.9, 0.0025061716, -0.0027620946, -1013652.94, 43662.56, 0.0, 5.0327387, 4.9576464 
5.946001e+2, 1.9706729e+2, -975816.6, -1089434.4, -17254.67, 0.0063583497, -0.009356491, -973254.0, 35486.723, 0.0, 5.0299788, 4.957005 
5.945017e+2, 2.0202276e+2, -936930.75, -1049009.0, -18487.1, 0.008155285, -0.0072698104, -933960.1, 26215.201, 0.0, 5.027173, 4.9553494 
5.9440184e+2, 2.0697808e+2, -895047.75, -1001272.5, -18531.451, 0.008258365, -0.013834458, -891907.7, 19699.625, 0.0, 5.024219, 4.956222 
5.9430206e+2, 2.1193352e+2, -854323.06, -956082.6, -18359.69, 0.008116641, -0.01998086, -851111.9, 11926.448, 0.0, 5.021263, 4.956212 
5.9420234e+2, 2.1688898e+2, -814210.7, -912298.9, -18157.375, 0.0076899375, -0.025330143, -810957.44, 3511.5952, 0.0, 5.0183077, 4.955703 
5.941028e+2, 2.2184268e+2, -779258.1, -880253.94, -17643.086, 0.0057728286, -0.012591111, -776264.75, -10342.726, 0.0, 5.0154233, 4.9511037 
5.940033e+2, 2.2679524e+2, -736452.7, -831141.56, -17682.531, 0.0046991734, -0.0072075133, -733258.3, -15864.32, 0.0, 5.0125723, 4.952317 
5.939039e+2, 2.3174784e+2, -695211.2, -785506.7, -17601.3, 0.0037977064, -0.0027913519, -691901.5, -23035.93, 0.0, 5.0097194, 4.9523273 
5.938045e+2, 2.3670043e+2, -654571.44, -741273.44, -17493.31, 0.0028967406, 0.0015840988, -651175.0, -30837.857, 0.0, 5.006868, 4.9518356 
5.937059e+2, 2.4165073e+2, -616581.44, -702959.7, -16396.217, 0.0029888675, 0.009830185, -613573.8, -41746.71, 0.0, 5.004028, 4.9492517 
5.9360826e+2, 2.4660031e+2, -573015.06, -652611.94, -16240.837, 0.005358444, 0.0006743757, -569828.8, -46511.94, 0.0, 5.001238, 4.9508076 
5.935108e+2, 2.5155002e+2, -531439.0, -606767.75, -16183.237, 0.0076499153, -0.0086284, -528109.44, -53304.29, 0.0, 4.9984493, 4.950794 
5.9341335e+2, 2.5649977e+2, -490062.75, -561445.25, -16120.669, 0.009797275, -0.01738424, -486590.97, -60297.79, 0.0, 4.995662, 4.950583 
5.9331673e+2, 2.614474e+2, -455941.56, -531400.06, -14162.787, 0.011254915, -0.0074476814, -453370.94, -75565.71, 0.0, 4.992719, 4.945022 
5.932218e+2, 2.663946e+2, -412061.97, -479153.03, -13565.295, 0.011662769, -0.0046017906, -409423.0, -80095.49, 0.0, 4.9896684, 4.947275 
5.931271e+2, 2.7134186e+2, -370986.97, -433386.8, -13368.376, 0.011728068, -0.0036835829, -368243.56, -87394.15, 0.0, 4.986627, 4.947264 
5.930323e+2, 2.762891e+2, -329919.78, -387701.66, -13177.277, 0.011471618, -0.002968667, -327056.56, -94684.84, 0.0, 4.9835863, 4.9472055 
5.929387e+2, 2.812325e+2, -298251.44, -362792.5, -10511.134, 0.011106418, 0.008988677, -296582.75, -112653.34, 0.0, 4.9804792, 4.9397936 
5.928469e+2, 2.8617504e+2, -253686.6, -308666.72, -9868.199, 0.007883347, 0.012344548, -251969.03, -116477.92, 0.0, 4.977341, 4.9426813 
5.9275514e+2, 2.911178e+2, -212645.17, -262733.28, -9597.306, 0.004118837, 0.014768966, -210869.22, -123818.914, 0.0, 4.9742074, 4.942677 
5.9266335e+2, 2.960606e+2, -171550.9, -216742.9, -9326.77, 0.00020540107, 0.017152684, -169701.7, -131091.98, 0.0, 4.9710755, 4.942673 
5.925732e+2, 3.010213e+2, -109859.38, -90045.0, -7531.144, -0.0019745706, 0.031550705, -87507.484, -87507.484, 0.0, 4.9678636, 4.9806848 
5.92488e+2, 3.0600426e+2, -111963.99, -77897.984, -6785.143, -0.002358916, -0.00018489023, -76596.28, -76596.28, 0.0, 4.9645457, 4.9864864 
5.92403e+2, 3.1098726e+2, -120859.8, -81813.92, -7414.0293, -0.002873604, -0.04010185, -80453.54, -80453.54, 0.0, 4.9612403, 4.9865165 
5.9231806e+2, 3.1597015e+2, -129721.84, -85779.695, -7987.4365, -0.003725403, -0.08260551, -84372.85, -84372.85, 0.0, 4.957935, 4.986546 
6.0104424e+2, 1.2274158e+2, -1575773.6, -1743404.9, 2879.8481, -0.0065577105, 0.02777576, -1575724.1, 161419.44, 0.0, 5.073111, 4.962948 
6.009586e+2, 1.2770157e+2, -1534962.5, -1698095.5, -4832.15, 0.003632284, 0.00009681016, -1534819.5, 153716.14, 0.0, 5.070244, 4.963274 
6.008709e+2, 1.3266486e+2, -1495033.3, -1653804.9, -5046.809, -0.00012104503, 0.0057643955, -1494873.0, 145022.5, 0.0, 5.0672665, 4.963262 
6.0078335e+2, 1.3762812e+2, -1457312.9, -1614123.6, -5413.225, -0.0037374375, 0.012833758, -1457126.3, 134129.34, 0.0, 5.0642776, 4.961713 
6.006933e+2, 1.425899e+2, -1417104.1, -1570219.8, -9220.311, -0.0048258547, 0.026787043, -1416550.9, 126078.875, 0.0, 5.061405, 4.9614563 
6.006012e+2, 1.4755043e+2, -1376064.9, -1524332.8, -9647.703, -0.0018913392, 0.016804613, -1375439.8, 118575.734, 0.0, 5.0585485, 4.961863 
6.0050917e+2, 1.5251094e+2, -1335599.5, -1479658.9, -9921.671, 0.0010821377, 0.0062542115, -1334919.4, 110482.09, 0.0, 5.0556884, 4.9618526 
6.0041714e+2, 1.5747142e+2, -1296537.8, -1437994.0, -10268.745, 0.0040498027, -0.00391276, -1295796.1, 100991.414, 0.0, 5.0528293, 4.9608207 
6.003224e+2, 1.6243091e+2, -1256985.1, -1395801.5, -13927.6, 0.004560367, -0.0027456637, -1255601.5, 92580.66, 0.0, 5.0499988, 4.9599724 
6.0022455e+2, 1.673911e+2, -1215847.5, -1349442.6, -14369.645, 0.00082972035, -0.0027101398, -1214319.4, 85249.1, 0.0, 5.0470567, 4.9605126 
6.001266e+2, 1.7235136e+2, -1175476.4, -1304672.4, -14465.043, -0.0029754576, -0.0024595484, -1173876.6, 77077.664, 0.0, 5.044103, 4.9605064 
6.000288e+2, 1.7731163e+2, -1136194.5, -1262235.1, -14519.667, -0.006845698, -0.0017097353, -1134543.5, 67796.6, 0.0, 5.0411434, 4.959703 
5.999299e+2, 1.8226987e+2, -1099296.8, -1225790.3, -16795.336, -0.007784574, 0.008058509, -1097104.6, 56644.418, 0.0, 5.0383105, 4.956823 
5.998295e+2, 1.8722683e+2, -1057292.5, -1178486.3, -17215.672, -0.0046021077, 0.0056614024, -1054894.5, 50279.68, 0.0, 5.0355253, 4.9575334 
5.9972906e+2, 1.9218384e+2, -1016259.7, -1133246.9, -17352.533, -0.0014005186, 0.0028071073, -1013740.06, 42859.01, 0.0, 5.032731, 4.957535 
5.996287e+2, 1.9714084e+2, -976088.6, -1089878.9, -17456.193, 0.00179154, 0.00011793279, -973470.94, 34552.992, 0.0, 5.02993, 4.956888 
5.995275e+2, 2.0209625e+2, -936733.94, -1048569.06, -18908.057, 0.004292778, 0.0018424818, -933623.6, 25835.824, 0.0, 5.0271482, 4.9555206 
5.9942496e+2, 2.0705111e+2, -894518.8, -1000542.44, -19255.38, 0.006951551, -0.011610215, -891130.06, 19763.648, 0.0, 5.024283, 4.956451 
5.993225e+2, 2.1200609e+2, -853622.3, -955249.56, -19327.428, 0.009408071, -0.024818076, -850070.75, 12256.197, 0.0, 5.021385, 4.95645 
5.992201e+2, 2.169611e+2, -813431.75, -911406.06, -19321.662, 0.011593984, -0.03731494, -809759.0, 4000.7148, 0.0, 5.018458, 4.955948 
5.991176e+2, 2.2191513e+2, -778759.9, -879786.25, -18769.283, 0.0091008525, -0.022601146, -775385.56, -10176.737, 0.0, 5.015541, 4.951219 
5.99015e+2, 2.268686e+2, -735936.44, -830482.25, -18835.094, 0.005785133, -0.010218894, -732322.4, -15649.08, 0.0, 5.012653, 4.952518 
5.9891254e+2, 2.3182209e+2, -694815.4, -784936.3, -18747.893, 0.0027548699, 0.0009549042, -691070.8, -22933.146, 0.0, 5.009761, 4.9525185 
5.9881014e+2, 2.3677556e+2, -654314.56, -740794.3, -18629.574, -0.0002916464, 0.012162151, -650472.1, -30869.977, 0.0, 5.006864, 4.9520173 
5.987085e+2, 2.4172615e+2, -616544.5, -702844.0, -17557.727, -0.0019221191, 0.022431012, -613109.06, -42019.164, 0.0, 5.0039988, 4.949321 
5.9860814e+2, 2.4667524e+2, -572861.06, -652223.75, -17573.584, 0.00076607766, 0.006803007, -569143.8, -46560.18, 0.0, 5.001204, 4.9509745 
5.985079e+2, 2.5162446e+2, -531326.75, -606402.1, -17624.76, 0.003502787, -0.0092051895, -527395.06, -53319.18, 0.0, 4.9984007, 4.9509616 
5.984076e+2, 2.5657368e+2, -490022.8, -561117.06, -17633.096, 0.0061034174, -0.024752256, -485889.7, -60321.73, 0.0, 4.9955893, 4.950749 
5.9830827e+2, 2.6152128e+2, -455729.66, -530678.4, -15918.48, 0.008769344, -0.017213471, -452488.84, -75408.94, 0.0, 4.9926467, 4.945326 
5.9821063e+2, 2.664692e+2, -411657.5, -478253.5, -15421.364, 0.012271724, -0.010302256, -408259.78, -79664.37, 0.0, 4.9896436, 4.947622 
5.981132e+2, 2.7141723e+2, -370546.03, -432482.16, -15291.8125, 0.015457019, -0.005355753, -366976.28, -86865.664, 0.0, 4.9866157, 4.947609 
5.9801567e+2, 2.763652e+2, -329544.78, -386838.25, -15163.974, 0.01823761, -0.0007358187, -325778.84, -94152.555, 0.0, 4.983552, 4.947548 
5.9791917e+2, 2.8130925e+2, -297796.25, -361594.28, -12630.394, 0.019393846, 0.013333927, -295386.75, -112208.95, 0.0, 4.980414, 4.940268 
5.978239e+2, 2.8625205e+2, -253183.72, -307517.2, -12080.179, 0.013625011, 0.014926608, -250618.95, -115883.664, 0.0, 4.977306, 4.943128 
5.977288e+2, 2.9119506e+2, -212055.1, -261549.52, -11880.527, 0.0071297493, 0.015482206, -209351.05, -123060.586, 0.0, 4.9742036, 4.943124 
5.976336e+2, 2.9613805e+2, -170903.11, -215537.84, -11651.801, 0.00047670852, 0.016049037, -168044.5, -130198.72, 0.0, 4.971093, 4.9431195 
5.975403e+2, 3.0109867e+2, -110480.67, -91638.95, -9980.869, -0.0021113977, 0.02826708, -87335.0, -87335.0, 0.0, 4.9678593, 4.9801116 
5.9745234e+2, 3.060809e+2, -113277.55, -80664.38, -9190.731, 0.0028390812, -0.0030594293, -78252.68, -78252.68, 0.0, 4.964479, 4.985491 
5.973648e+2, 3.1106332e+2, -122281.77, -84520.9, -9729.512, 0.007766136, -0.0409877, -82161.414, -82161.414, 0.0, 4.9611325, 4.9855533 
5.9727716e+2, 3.1604573e+2, -131256.83, -88429.34, -10212.578, 0.012007048, -0.08054288, -86118.73, -86118.73, 0.0, 4.957784, 4.9856143 
6.0611767e+2, 1.2282634e+2, -1564240.9, -1736393.9, 7601.9995, -0.016853629, 0.04807618, -1563905.8, 172406.61, 0.0, 5.076834, 4.9634166 
6.060306e+2, 1.2778346e+2, -1524762.4, -1692993.6, 377.94318, 0.010354289, -0.006592326, -1524761.5, 162970.64, 0.0, 5.073793, 4.9631987 
6.0593945e+2, 1.3274671e+2, -1485258.0, -1648917.0, 152.04619, 0.0025480497, 0.0008646547, -1485257.9, 153834.17, 0.0, 5.070676, 4.9631906 
6.0584843e+2, 1.3770993e+2, -1447874.9, -1609356.1, -224.77327, -0.005125081, 0.009807117, -1447874.6, 142577.5, 0.0, 5.0675645, 4.9616656 
6.057552e+2, 1.4267163e+2, -1407970.8, -1565589.8, -3922.353, -0.008069928, 0.024943858, -1407873.3, 133953.94, 0.0, 5.064578, 4.961429 
6.0566014e+2, 1.4763218e+2, -1367483.1, -1520007.6, -4247.2505, -0.0048648906, 0.017184036, -1367364.9, 125848.63, 0.0, 5.061543, 4.9618278 
6.055652e+2, 1.5259272e+2, -1327550.0, -1475612.1, -4415.698, -0.0015783946, 0.00895162, -1327418.5, 117181.664, 0.0, 5.0585055, 4.961816 
6.0547024e+2, 1.5755323e+2, -1289116.9, -1434454.3, -4690.041, 0.001732882, 0.0011295042, -1288965.8, 107021.21, 0.0, 5.055473, 4.960704 
6.053726e+2, 1.6251257e+2, -1249599.5, -1391524.5, -8252.411, 0.002805633, 0.001868113, -1249121.3, 98261.89, 0.0, 5.0524683, 4.960185 
6.052719e+2, 1.6747235e+2, -1209124.1, -1345776.6, -8700.755, 0.0004988507, -0.0015570673, -1208572.4, 90200.89, 0.0, 5.049361, 4.960604 
6.05171e+2, 1.7243217e+2, -1169211.4, -1301235.5, -8789.871, -0.0019111928, -0.004817433, -1168628.8, 81534.26, 0.0, 5.0462527, 4.9606004 
6.050703e+2, 1.7739199e+2, -1130361.0, -1259014.3, -8844.325, -0.0044052014, -0.007640244, -1129755.9, 71796.734, 0.0, 5.043145, 4.959799 
6.049683e+2, 1.8235019e+2, -1093716.9, -1222187.0, -10923.435, -0.0056918813, 0.0011594486, -1092794.8, 60167.016, 0.0, 5.04012, 4.957144 
6.048647e+2, 1.8730763e+2, -1052444.6, -1175350.4, -11079.637, -0.0047411635, 0.0027157012, -1051453.9, 52928.13, 0.0, 5.0371084, 4.957807 
6.0476124e+2, 1.922651e+2, -1012051.44, -1130437.5, -10981.697, -0.0036906626, 0.0037877604, -1011041.4, 44760.78, 0.0, 5.034096, 4.9578037 
6.046577e+2, 1.9722252e+2, -972490.94, -1087383.8, -10843.593, -0.0025471312, 0.0048775156, -971476.5, 35746.055, 0.0, 5.0310845, 4.957153 
6.045536e+2, 2.0217794e+2, -933864.1, -1046867.8, -12132.099, -0.0003006532, 0.006743389, -932576.3, 26082.045, 0.0, 5.0281425, 4.9555907 
6.044484e+2, 2.0713246e+2, -891911.7, -999114.4, -12550.67, 0.0035432978, -0.00791349, -890461.94, 19635.518, 0.0, 5.0252213, 4.9564533 
6.043431e+2, 2.1208706e+2, -851063.9, -953795.2, -12767.734, 0.007322557, -0.022691825, -849500.8, 12034.735, 0.0, 5.0222993, 4.956471 
6.042379e+2, 2.170417e+2, -810830.3, -909881.8, -12953.546, 0.011024458, -0.037315946, -809164.3, 3808.9744, 0.0, 5.019378, 4.9559894 
6.041326e+2, 2.2199565e+2, -775765.56, -876623.4, -12421.598, 0.009960994, -0.025484933, -774258.25, -9835.156, 0.0, 5.0163136, 4.9518948 
6.04027e+2, 2.2694951e+2, -733811.44, -828016.1, -12220.205, 0.0065878616, -0.012669529, -732252.06, -16370.33, 0.0, 5.0131817, 4.9530716 
6.039215e+2, 2.3190337e+2, -693366.3, -782811.5, -11915.392, 0.0034021088, -0.00065194553, -691806.25, -24466.004, 0.0, 5.0100555, 4.953064 
6.0381603e+2, 2.3685727e+2, -653520.0, -739002.06, -11580.677, 0.00023169492, 0.011407831, -651978.9, -33179.887, 0.0, 5.0069304, 4.9525547 
6.0371137e+2, 2.4180806e+2, -616934.9, -702276.0, -10165.969, -0.0017965474, 0.021695828, -615740.56, -45456.51, 0.0, 5.0037885, 4.9495583 
6.0360795e+2, 2.467571e+2, -574140.3, -652226.44, -10161.298, -0.00034454252, 0.006412859, -572839.7, -51060.17, 0.0, 5.000719, 4.951133 
6.0350466e+2, 2.5170627e+2, -533321.06, -606654.9, -10250.883, 0.0013284426, -0.009416075, -531915.1, -58641.56, 0.0, 4.9976554, 4.9511423 
6.0340136e+2, 2.5665548e+2, -492702.56, -561597.44, -10334.48, 0.003109636, -0.025079967, -491185.75, -66418.48, 0.0, 4.994593, 4.950954 
6.032991e+2, 2.616032e+2, -458233.78, -530309.1, -8500.118, 0.0059950445, -0.017872365, -457244.88, -80966.27, 0.0, 4.9915543, 4.9458723 
6.0319865e+2, 2.6655152e+2, -413988.84, -477802.94, -7864.7114, 0.010812709, -0.010773638, -413033.84, -85244.016, 0.0, 4.988613, 4.9481707 
6.0309833e+2, 2.7149993e+2, -372628.34, -431896.94, -7579.3813, 0.015606697, -0.005067657, -371674.44, -92374.11, 0.0, 4.985676, 4.9481616 
6.02998e+2, 2.7644837e+2, -331278.16, -386072.3, -7296.6665, 0.020339752, 0.0008231492, -330323.16, -99512.234, 0.0, 4.982739, 4.9481053 
6.0289854e+2, 2.813928e+2, -299128.44, -360358.63, -4600.3857, 0.02265896, 0.015234704, -298784.72, -116427.1, 0.0, 4.979699, 4.9409413 
6.028002e+2, 2.8633583e+2, -254647.11, -306386.13, -3930.2441, 0.016203938, 0.014327818, -254350.25, -120437.49, 0.0, 4.976557, 4.943779 
6.0270184e+2, 2.9127896e+2, -213659.27, -260457.16, -3574.66, 0.009048032, 0.012121042, -213387.78, -127921.89, 0.0, 4.973405, 4.9437814 
6.0260344e+2, 2.9622212e+2, -172627.33, -214474.9, -3245.723, 0.0017711133, 0.009714703, -172377.1, -135357.8, 0.0, 4.9702516, 4.9437833 
6.0250705e+2, 3.0118278e+2, -112948.28, -92767.47, -1591.7477, -0.0005138846, 0.021163668, -92642.69, -92642.69, 0.0, 4.9671097, 4.979952 
6.0241634e+2, 3.061652e+2, -115203.33, -82613.94, -711.32135, 0.007683689, -0.00016967606, -82598.414, -82598.414, 0.0, 4.964127, 4.9848843 
6.02326e+2, 3.1114772e+2, -123440.17, -86336.76, -1259.605, 0.016872918, -0.027674852, -86294.04, -86294.04, 0.0, 4.9611053, 4.9848666 
6.0223573e+2, 3.1613e+2, -131804.6, -90147.69, -1868.9247, 0.026158102, -0.057455275, -90064.01, -90064.01, 0.0, 4.9580293, 4.9848514 
6.111933e+2, 1.2291263e+2, -1563257.1, -1734734.3, 4626.553, -0.02251061, 0.047655605, -1563132.4, 172333.83, 0.0, 5.07687, 4.963966 
6.111042e+2, 1.2786913e+2, -1524909.3, -1693642.8, -1926.1572, 0.016415192, -0.01162529, -1524887.3, 162004.33, 0.0, 5.0738254, 4.9629903 
6.110096e+2, 1.3283227e+2, -1485403.1, -1649561.9, -2150.7527, 0.004896169, -0.003101905, -1485374.9, 152877.06, 0.0, 5.0707083, 4.962983 
6.1091506e+2, 1.377954e+2, -1448011.5, -1609985.5, -2525.5706, -0.0064845853, 0.0068703657, -1447972.1, 141640.31, 0.0, 5.0675974, 4.9614635 
6.108186e+2, 1.4275703e+2, -1407987.0, -1565978.0, -6180.869, -0.01100023, 0.022800626, -1407745.5, 133243.05, 0.0, 5.064613, 4.961308 
6.107205e+2, 1.477177e+2, -1367518.3, -1520422.3, -6503.614, -0.007691026, 0.017489722, -1367242.1, 125132.63, 0.0, 5.061575, 4.9616985 
6.106225e+2, 1.5267834e+2, -1327589.9, -1476024.8, -6670.7495, -0.004316101, 0.011833884, -1327290.8, 116470.234, 0.0, 5.058536, 4.961688 
6.1052454e+2, 1.57639e+2, -1289116.6, -1434772.5, -6934.4883, -0.00094510097, 0.006649951, -1288787.3, 106360.04, 0.0, 5.0555015, 4.9606075 
6.1042386e+2, 1.6259828e+2, -1249463.8, -1391562.8, -10608.959, 0.0006361489, 0.007079813, -1248676.1, 97868.16, 0.0, 5.0524983, 4.960181 
6.1032015e+2, 1.6755769e+2, -1209027.6, -1345881.3, -11026.789, -0.00009521966, 0.00021696881, -1208144.9, 89792.95, 0.0, 5.0493894, 4.9605794 
6.102164e+2, 1.7251717e+2, -1169122.5, -1301343.1, -11112.887, -0.0009771104, -0.0063947705, -1168195.0, 81135.79, 0.0, 5.046278, 4.9605756 
6.1011267e+2, 1.7747664e+2, -1130279.9, -1259125.5, -11167.884, -0.0019848677, -0.012459427, -1129319.1, 71404.6, 0.0, 5.0431685, 4.9597735 
6.100076e+2, 1.8243487e+2, -1093209.4, -1221460.9, -13226.378, -0.0035502876, -0.0044314167, -1091859.5, 60272.426, 0.0, 5.040156, 4.957398 
6.0990083e+2, 1.8739283e+2, -1051995.6, -1174717.5, -13348.433, -0.004671979, -0.00011754479, -1050560.5, 52986.01, 0.0, 5.037139, 4.958033 
6.097941e+2, 1.923508e+2, -1011622.94, -1129817.9, -13240.07, -0.0057442556, 0.0039343797, -1010157.94, 44802.99, 0.0, 5.0341215, 4.9580283 
6.096873e+2, 1.9730875e+2, -972082.7, -1086776.8, -13091.385, -0.006772577, 0.008182616, -970607.4, 35768.055, 0.0, 5.031105, 4.957376 
6.0958016e+2, 2.0226434e+2, -933853.1, -1047206.9, -14376.596, -0.0051401686, 0.0110561615, -932058.1, 25751.854, 0.0, 5.028179, 4.9554853 
6.0947204e+2, 2.072187e+2, -891985.4, -999608.2, -14770.043, -0.00054183695, -0.0035307035, -889995.2, 19257.771, 0.0, 5.025253, 4.956298 
6.09364e+2, 2.1217316e+2, -851158.75, -954305.1, -14974.39, 0.0039125327, -0.01801222, -849028.8, 11666.04, 0.0, 5.022325, 4.9563127 
6.092559e+2, 2.1712765e+2, -810946.44, -910408.2, -15147.312, 0.008225243, -0.03215536, -808690.75, 3445.4514, 0.0, 5.0193987, 4.955828 
6.0914767e+2, 2.2208156e+2, -774750.0, -874781.7, -14871.58, 0.008683646, -0.02355901, -772585.9, -8999.218, 0.0, 5.016351, 4.952538 
6.0903907e+2, 2.2703563e+2, -732982.2, -826566.06, -14621.873, 0.0064634886, -0.013661851, -730750.9, -15710.88, 0.0, 5.013216, 4.953586 
6.0893047e+2, 2.3198974e+2, -692565.25, -781390.5, -14302.572, 0.0042414595, -0.00403514, -690319.06, -23826.115, 0.0, 5.0100846, 4.9535737 
6.0882205e+2, 2.3694387e+2, -652746.75, -737609.7, -13953.144, 0.0019523411, 0.005804091, -650511.5, -32565.377, 0.0, 5.006954, 4.9530597 
6.087142e+2, 2.4189498e+2, -616621.0, -701889.6, -12549.854, -0.000050023093, 0.015695222, -614812.3, -45385.324, 0.0, 5.0038133, 4.949707 
6.086076e+2, 2.4684438e+2, -573987.94, -652223.25, -12533.187, -0.00021731589, 0.0035761532, -572029.2, -51107.676, 0.0, 5.000747, 4.9511485 
6.085011e+2, 2.5179386e+2, -533163.44, -606662.2, -12615.319, -0.00026101596, -0.009075495, -531058.4, -58643.527, 0.0, 4.9976864, 4.9511547 
6.0839456e+2, 2.5674337e+2, -492539.63, -561615.2, -12691.388, -0.0002458992, -0.02164324, -490281.63, -66373.55, 0.0, 4.9946265, 4.950962 
6.082892e+2, 2.6169145e+2, -457439.84, -528866.2, -10755.809, 0.0020469134, -0.013560534, -455855.3, -80437.98, 0.0, 4.991583, 4.94639 
6.081859e+2, 2.6664013e+2, -413214.75, -476420.56, -10144.01, 0.0074131098, -0.0075793336, -411626.63, -84703.2, 0.0, 4.988644, 4.948671 
6.080827e+2, 2.7158895e+2, -371846.38, -430521.7, -9855.206, 0.012621685, -0.0029296887, -370235.3, -91806.5, 0.0, 4.985711, 4.9486594 
6.079795e+2, 2.7653772e+2, -330488.34, -384704.2, -9568.994, 0.017662931, 0.0018151881, -328849.0, -98914.59, 0.0, 4.982778, 4.9486003 
6.078771e+2, 2.8148252e+2, -298198.63, -358689.72, -7004.269, 0.020195754, 0.014142401, -297398.2, -115921.33, 0.0, 4.97974, 4.94154 
6.077757e+2, 2.8642574e+2, -253766.92, -304826.7, -6384.642, 0.01507767, 0.010128695, -252980.69, -119951.17, 0.0, 4.9765964, 4.944343 
6.076743e+2, 2.913692e+2, -212756.45, -258892.23, -6035.793, 0.009362866, 0.0049602115, -211979.88, -127399.66, 0.0, 4.9734545, 4.9443445 
6.07573e+2, 2.963126e+2, -171693.73, -212899.73, -5687.8203, 0.003494724, -0.0002833154, -170923.05, -134791.95, 0.0, 4.9703135, 4.9443464 
6.0747355e+2, 3.0127376e+2, -112601.08, -92610.27, -3811.9338, 0.0017221401, 0.012413058, -91908.06, -91908.06, 0.0, 4.967183, 4.9800215 
6.0737985e+2, 3.062575e+2, -115086.414, -83039.95, -2579.8335, 0.009579142, 0.0070412816, -82833.59, -82833.59, 0.0, 4.9642215, 4.9847417 
6.072867e+2, 3.1124136e+2, -123053.234, -86564.445, -2752.7673, 0.01821311, -0.00285879, -86357.945, -86357.945, 0.0, 4.961291, 4.9847503 
6.0719347e+2, 3.162251e+2, -130992.35, -90131.41, -2881.9893, 0.026802935, -0.014508302, -89929.13, -89929.13, 0.0, 4.9583592, 4.984758 
6.162698e+2, 1.2299759e+2, -1562335.9, -1733214.8, 1605.7792, -0.019476695, 0.03371589, -1562320.8, 172312.36, 0.0, 5.0769076, 4.9644694 
6.1617774e+2, 1.2795484e+2, -1525054.3, -1694294.3, -4231.63, 0.022371292, -0.01642395, -1524948.5, 161102.3, 0.0, 5.0738597, 4.962781 
6.160796e+2, 1.3291788e+2, -1485546.1, -1650209.1, -4454.9204, 0.007125001, -0.0069000595, -1485425.8, 151985.88, 0.0, 5.070742, 4.9627748 
6.1598164e+2, 1.378809e+2, -1448171.3, -1610670.0, -4826.9233, -0.007960254, 0.0040287348, -1448028.0, 140744.72, 0.0, 5.0676312, 4.961242 
6.15882e+2, 1.4284246e+2, -1408001.1, -1566367.6, -8440.799, -0.013949595, 0.020898184, -1407552.5, 132597.42, 0.0, 5.0646486, 4.9611864 
6.1578083e+2, 1.4780322e+2, -1367551.6, -1520839.0, -8761.756, -0.010541897, 0.017974539, -1367052.5, 124483.29, 0.0, 5.061609, 4.9615684 
6.156798e+2, 1.52764e+2, -1327628.0, -1476439.6, -8927.579, -0.007091297, 0.014824814, -1327094.4, 115827.266, 0.0, 5.0585675, 4.961559 
6.155788e+2, 1.5772477e+2, -1289134.1, -1435134.5, -9178.277, -0.0036835596, 0.012220657, -1288559.4, 105748.13, 0.0, 5.0555315, 4.9604964 
6.154751e+2, 1.62684e+2, -1249328.6, -1391608.8, -12968.13, -0.001489757, 0.012339468, -1248156.3, 97549.125, 0.0, 5.05253, 4.9601746 
6.153684e+2, 1.6764304e+2, -1208929.3, -1345988.6, -13353.948, -0.00067838, 0.0019174829, -1207640.3, 89462.07, 0.0, 5.0494184, 4.960553 
6.152617e+2, 1.7260215e+2, -1169031.9, -1301453.3, -13437.029, -0.00006202375, -0.008166748, -1167682.1, 80816.58, 0.0, 5.046305, 4.9605494 
6.1515504e+2, 1.7756127e+2, -1130284.4, -1259427.0, -13469.245, 0.00038511617, -0.017581513, -1128894.5, 71000.34, 0.0, 5.043194, 4.959684 
6.150468e+2, 1.8251963e+2, -1092660.0, -1220652.1, -15540.637, -0.0015747765, -0.009450086, -1090800.1, 60501.563, 0.0, 5.0401926, 4.957678 
6.149368e+2, 1.8747805e+2, -1051545.9, -1174087.8, -15617.992, -0.0047378903, -0.002669072, -1049586.6, 53124.004, 0.0, 5.0371704, 4.958256 
6.1482686e+2, 1.9243652e+2, -1011193.6, -1129201.3, -15499.218, -0.0079005, 0.0040476886, -1009191.9, 44927.51, 0.0, 5.034148, 4.9582496 
6.147169e+2, 1.97395e+2, -971673.5, -1086172.6, -15339.94, -0.011068315, 0.011140139, -969653.94, 35874.22, 0.0, 5.0311275, 4.957596 
6.146066e+2, 2.0235081e+2, -933953.6, -1047794.3, -16596.66, -0.010252013, 0.016231725, -931583.4, 25377.805, 0.0, 5.028217, 4.9552927 
6.1449575e+2, 2.07305e+2, -892058.56, -1000105.1, -16989.055, -0.0047972673, 0.0013780983, -889450.2, 18957.86, 0.0, 5.0252852, 4.9561386 
6.143848e+2, 2.1225928e+2, -851253.0, -954818.1, -17180.695, 0.00045050232, -0.013210053, -848477.25, 11376.594, 0.0, 5.022352, 4.9561505 
6.142739e+2, 2.1721362e+2, -811061.94, -910937.7, -17340.736, 0.005492024, -0.027274689, -808136.9, 3162.193, 0.0, 5.0194206, 4.955663 
6.141627e+2, 2.2216749e+2, -773842.9, -873186.8, -17292.797, 0.0071454486, -0.021036696, -770918.75, -8169.023, 0.0, 5.016391, 4.953095 
6.1405104e+2, 2.2712179e+2, -732152.8, -825119.4, -17019.305, 0.0062052724, -0.014308172, -729135.06, -14937.2705, 0.0, 5.0132523, 4.954097 
6.139395e+2, 2.3207612e+2, -691763.94, -779972.94, -16685.537, 0.0051377364, -0.0075178244, -688713.25, -23067.822, 0.0, 5.0101147, 4.9540796 
6.13828e+2, 2.3703049e+2, -651973.25, -736220.75, -16321.414, 0.0039202194, -0.00034355477, -648921.8, -31828.707, 0.0, 5.006979, 4.9535604 
6.137171e+2, 2.4198194e+2, -616432.56, -701788.94, -14918.349, 0.0014639249, 0.010264313, -613900.3, -45330.676, 0.0, 5.0038395, 4.9497557 
6.136072e+2, 2.4693167e+2, -573833.4, -652222.9, -14899.265, -0.0002682263, 0.0012271224, -571097.0, -51033.74, 0.0, 5.0007772, 4.951162 
6.1349744e+2, 2.5188148e+2, -533003.56, -606672.3, -14973.947, -0.0019027159, -0.008505633, -530076.25, -58520.145, 0.0, 4.997719, 4.951164 
6.1338776e+2, 2.5683126e+2, -492374.44, -561635.8, -15042.488, -0.0035280979, -0.018235018, -489248.53, -66199.66, 0.0, 4.994662, 4.9509673 
6.132793e+2, 2.6177967e+2, -456675.0, -527491.25, -13016.179, -0.0019658552, -0.009245175, -454358.38, -79802.38, 0.0, 4.9916124, 4.946885 
6.1317307e+2, 2.6672876e+2, -412439.63, -475039.44, -12418.789, 0.0039187614, -0.004368867, -410065.94, -84009.01, 0.0, 4.9886765, 4.9491696 
6.1306703e+2, 2.7167794e+2, -371063.34, -429147.66, -12126.509, 0.009557341, -0.000840124, -368633.3, -91076.08, 0.0, 4.9857473, 4.949156 
6.1296093e+2, 2.7662706e+2, -329697.47, -383337.28, -11836.8, 0.014922126, 0.0026943854, -327201.56, -98143.7, 0.0, 4.9828186, 4.949095 
6.1285555e+2, 2.815722e+2, -297276.66, -357045.8, -9410.955, 0.017803708, 0.012865077, -295829.88, -115233.695, 0.0, 4.9797826, 4.94213 
6.127512e+2, 2.8651568e+2, -252884.78, -303270.13, -8838.23, 0.013973355, 0.0057010124, -251379.4, -119232.99, 0.0, 4.976638, 4.944906 
6.126468e+2, 2.9145938e+2, -211883.2, -257343.88, -8490.663, 0.009616701, -0.0024706076, -210349.17, -126654.43, 0.0, 4.9734936, 4.944907 
6.125424e+2, 2.9640308e+2, -170829.38, -211359.56, -8143.9736, 0.0050743558, -0.010592383, -169254.17, -134011.08, 0.0, 4.970351, 4.9449086 
6.1244005e+2, 3.0136478e+2, -112476.07, -92780.875, -6098.346, 0.004270951, 0.0041094464, -91045.516, -91045.516, 0.0, 4.967222, 4.979975 
6.123434e+2, 3.0634966e+2, -115193.61, -83549.55, -4739.726, 0.01123535, 0.013140581, -82854.87, -82854.87, 0.0, 4.9642367, 4.9845786 
6.1224717e+2, 3.1133488e+2, -123213.96, -86991.06, -4830.144, 0.018554026, 0.018740052, -86358.05, -86358.05, 0.0, 4.961281, 4.984619 
6.12151e+2, 3.1632003e+2, -131206.52, -90475.07, -4877.0254, 0.02558187, 0.023118999, -89899.26, -89899.26, 0.0, 4.958324, 4.9846587 
6.213463e+2, 1.2308309e+2, -1563453.9, -1732911.1, 1384.2188, -0.012963543, 0.018215302, -1563442.5, 170352.77, 0.0, 5.076344, 4.9648466 
6.21251e+2, 1.2804149e+2, -1526306.5, -1695346.0, -3805.0051, 0.026992237, -0.01785186, -1526220.9, 158980.28, 0.0, 5.0735283, 4.9625964 
6.2114954e+2, 1.3300423e+2, -1486156.5, -1650939.4, -4097.08, 0.00904764, -0.008879983, -1486054.6, 150509.77, 0.0, 5.070625, 4.962592 
6.210482e+2, 1.3796695e+2, -1448250.0, -1611189.3, -4524.5483, -0.008660214, 0.0013882705, -1448124.5, 139803.5, 0.0, 5.067703, 4.961039 
6.209454e+2, 1.429283e+2, -1407644.8, -1566323.4, -8145.7354, -0.01575145, 0.018314058, -1407227.6, 132079.44, 0.0, 5.064791, 4.961137 
6.208412e+2, 1.4788917e+2, -1367392.9, -1520912.5, -8458.088, -0.0125262495, 0.017255334, -1366928.3, 123764.42, 0.0, 5.0616894, 4.9615088 
6.207371e+2, 1.5285002e+2, -1327649.0, -1476592.9, -8613.632, -0.009253203, 0.016023457, -1327152.5, 114925.73, 0.0, 5.058586, 4.9615016 
6.20633e+2, 1.5781087e+2, -1289322.5, -1435342.9, -8838.25, -0.0060302215, 0.015361677, -1288789.5, 104674.414, 0.0, 5.0554886, 4.9604497 
6.2052625e+2, 1.6277002e+2, -1249379.0, -1391744.5, -12790.018, -0.0034269232, 0.015688404, -1248239.1, 96623.59, 0.0, 5.052527, 4.9601374 
6.204166e+2, 1.6772878e+2, -1208628.1, -1345996.3, -13367.761, -0.0015104169, 0.0033550968, -1207339.4, 88923.445, 0.0, 5.049543, 4.960499 
6.2030697e+2, 1.7268755e+2, -1168407.8, -1301300.8, -13660.057, 0.00031298932, -0.008986477, -1167018.1, 80644.305, 0.0, 5.046538, 4.960498 
6.2019736e+2, 1.7764635e+2, -1129457.9, -1259274.1, -13873.016, 0.0020514014, -0.020900829, -1127991.9, 71070.164, 0.0, 5.0435157, 4.959592 
6.20086e+2, 1.8260475e+2, -1091382.6, -1219441.9, -16057.714, -0.00010855536, -0.012504267, -1089399.8, 61068.043, 0.0, 5.0404963, 4.9579496 
6.199728e+2, 1.8756355e+2, -1050511.6, -1173047.3, -16200.255, -0.0047048954, -0.004738353, -1048405.94, 53466.586, 0.0, 5.0373993, 4.9585085 
6.1985964e+2, 1.9252238e+2, -1010398.0, -1128284.0, -16155.512, -0.009358197, 0.0030732453, -1008224.1, 45052.824, 0.0, 5.0342965, 4.958501 
6.197465e+2, 1.974812e+2, -971137.1, -1085382.9, -16059.941, -0.014080232, 0.011388793, -968922.44, 35758.758, 0.0, 5.0311885, 4.9578447 
6.1963326e+2, 2.0243728e+2, -934256.5, -1048473.25, -17226.584, -0.014345847, 0.01977833, -931714.9, 24397.438, 0.0, 5.0282097, 4.9550753 
6.195194e+2, 2.073914e+2, -892250.44, -1000539.0, -17687.385, -0.008588226, 0.005753078, -889434.7, 18127.246, 0.0, 5.0252705, 4.9560094 
6.1940557e+2, 2.123456e+2, -851491.06, -955287.06, -17910.602, -0.0028754622, -0.008358097, -848487.4, 10523.514, 0.0, 5.0223203, 4.956018 
6.192918e+2, 2.172998e+2, -811381.5, -911454.9, -18090.41, 0.0027675924, -0.022227298, -808211.7, 2247.9106, 0.0, 5.0193605, 4.9555264 
6.1917764e+2, 2.2225365e+2, -773254.6, -871917.0, -18323.688, 0.005246724, -0.017505389, -769961.5, -8050.9927, 0.0, 5.016368, 4.9535565 
6.19063e+2, 2.2720806e+2, -731318.5, -823666.0, -18294.914, 0.0057002557, -0.01435587, -727826.2, -14472.017, 0.0, 5.013302, 4.9545918 
6.1894846e+2, 2.3216258e+2, -690798.44, -778452.94, -18151.094, 0.0060002566, -0.01098489, -687188.44, -22391.316, 0.0, 5.0102115, 4.954578 
6.188339e+2, 2.3711711e+2, -650950.1, -734668.56, -17933.027, 0.0061200922, -0.007108241, -647270.5, -31030.477, 0.0, 5.007098, 4.954061 
6.187199e+2, 2.4206892e+2, -616117.75, -701762.9, -16553.572, 0.002838727, 0.005195905, -613029.6, -45317.492, 0.0, 5.003952, 4.949731 
6.186068e+2, 2.47019e+2, -573508.25, -652084.7, -16579.084, -0.00035000645, -0.0008182039, -570153.44, -50948.605, 0.0, 5.000867, 4.9511876 
6.1849385e+2, 2.5196913e+2, -532759.2, -606589.6, -16685.434, -0.0034234107, -0.0077748876, -529163.44, -58466.402, 0.0, 4.997781, 4.951185 
6.183809e+2, 2.569192e+2, -492226.97, -561614.44, -16783.139, -0.0065323096, -0.014818362, -488380.72, -66191.39, 0.0, 4.99469, 4.950984 
6.182694e+2, 2.618679e+2, -456019.9, -526194.3, -14737.679, -0.0059083304, -0.004847789, -453050.44, -79356.17, 0.0, 4.9916162, 4.94736 
6.181603e+2, 2.668174e+2, -411747.88, -473675.22, -14260.448, 0.0003774926, -0.0011468441, -408621.84, -83431.62, 0.0, 4.988682, 4.949671 
6.1805135e+2, 2.7176693e+2, -370411.84, -427812.03, -14063.823, 0.0064475564, 0.0011741321, -367151.25, -90465.69, 0.0, 4.985739, 4.9496555 
6.1794233e+2, 2.7671647e+2, -329131.06, -382051.56, -13853.978, 0.012188388, 0.0034393708, -325723.66, -97542.414, 0.0, 4.982781, 4.949592 
6.17834e+2, 2.8166187e+2, -296647.53, -355537.75, -11639.27, 0.015563208, 0.011401174, -294430.56, -114714.99, 0.0, 4.9797254, 4.9427156 
6.1772656e+2, 2.8660563e+2, -252209.94, -301797.03, -11165.722, 0.012917363, 0.0010487685, -249811.69, -118548.22, 0.0, 4.976606, 4.9454713 
6.176192e+2, 2.9154956e+2, -211163.42, -255857.27, -10838.938, 0.009812674, -0.01017437, -208673.53, -125864.08, 0.0, 4.9734793, 4.9454713 
6.1751187e+2, 2.9649353e+2, -170084.06, -209868.42, -10532.324, 0.006506702, -0.021214696, -167467.83, -133112.48, 0.0, 4.9703474, 4.9454713 
6.1740655e+2, 3.014557e+2, -112600.63, -93267.21, -8350.743, 0.007149205, -0.003760913, -90159.72, -90159.72, 0.0, 4.967215, 4.9798193 
6.173069e+2, 3.064418e+2, -115459.86, -84115.23, -6904.988, 0.01263793, 0.018045194, -82661.52, -82661.52, 0.0, 4.9641967, 4.9843946 
6.172076e+2, 3.1142828e+2, -123554.91, -87483.32, -6914.99, 0.017958773, 0.03712028, -86203.13, -86203.13, 0.0, 4.961208, 4.984467 
6.171083e+2, 3.164148e+2, -131617.47, -90891.98, -6882.1553, 0.022744093, 0.055508953, -89760.414, -89760.414, 0.0, 4.9582195, 4.984538 
6.26423e+2, 1.2317811e+2, -1552691.9, -1726582.6, 5933.3423, -0.018875416, 0.011020384, -1552489.6, 180376.08, 0.0, 5.079902, 4.9651666 
6.2632495e+2, 1.2813804e+2, -1516422.8, -1690175.1, 1639.7397, 0.024408713, -0.0077634184, -1516407.3, 167848.75, 0.0, 5.076952, 4.9625983 
6.262209e+2, 1.3309994e+2, -1476578.1, -1645937.8, 1466.2255, 0.008711629, -0.0051966603, -1476565.5, 159061.58, 0.0, 5.07395, 4.962593 
6.261168e+2, 1.3806182e+2, -1438902.6, -1606336.0, 1170.8705, -0.006808362, -0.0012829943, -1438894.4, 148103.9, 0.0, 5.070956, 4.961031 
6.2601095e+2, 1.4302278e+2, -1398360.8, -1561076.0, -2542.1023, -0.01339267, 0.012503765, -1398321.0, 140059.69, 0.0, 5.067928, 4.9613214 
6.2590337e+2, 1.4798369e+2, -1358807.8, -1516091.4, -2759.3132, -0.01145406, 0.012387523, -1358759.4, 131005.55, 0.0, 5.0646076, 4.961663 
6.257959e+2, 1.529446e+2, -1319710.6, -1472093.0, -2818.6594, -0.009469495, 0.012125432, -1319658.6, 121490.6, 0.0, 5.0612864, 4.961658 
6.256885e+2, 1.5790549e+2, -1281991.6, -1431090.5, -2945.8796, -0.007506369, 0.012338745, -1281933.5, 110600.11, 0.0, 5.057971, 4.960632 
6.255785e+2, 1.6286463e+2, -1242879.0, -1388449.9, -6702.8677, -0.005360097, 0.013660175, -1242571.0, 101362.19, 0.0, 5.0548363, 4.9600906 
6.254658e+2, 1.6782333e+2, -1202518.9, -1342946.5, -7189.3223, -0.003575969, 0.0039672498, -1202151.8, 93183.71, 0.0, 5.0517316, 4.9604306 
6.2535316e+2, 1.7278206e+2, -1162591.6, -1298395.0, -7435.4917, -0.0018364609, -0.0058857477, -1162185.8, 84551.66, 0.0, 5.048627, 4.9604325 
6.252405e+2, 1.777408e+2, -1123810.3, -1256346.5, -7627.793, -0.00012948962, -0.015467281, -1123372.6, 74766.57, 0.0, 5.0455236, 4.9595757 
6.251261e+2, 1.8269904e+2, -1085597.9, -1215528.8, -9853.246, -0.0015565831, -0.0088371, -1084854.9, 64691.797, 0.0, 5.04236, 4.9583335 
6.2500983e+2, 1.8765756e+2, -1045302.0, -1169466.4, -9926.433, -0.004712818, -0.0051265378, -1044513.44, 56438.79, 0.0, 5.0390787, 4.958871 
6.2489355e+2, 1.9261612e+2, -1005706.1, -1124952.9, -9841.51, -0.007973484, -0.0013365741, -1004899.4, 47458.11, 0.0, 5.0357985, 4.9588656 
6.247774e+2, 1.975747e+2, -967208.6, -1082866.1, -9647.014, -0.011349048, 0.0029862951, -966409.44, 37353.113, 0.0, 5.03252, 4.958017 
6.246609e+2, 2.0253094e+2, -930629.56, -1045483.9, -10654.275, -0.011921651, 0.011749414, -929649.6, 25542.5, 0.0, 5.029315, 4.955519 
6.245438e+2, 2.074856e+2, -889564.1, -998607.5, -10808.859, -0.008410193, 0.0039062686, -888503.06, 18135.107, 0.0, 5.0261745, 4.9561877 
6.244268e+2, 2.1244028e+2, -849348.1, -953620.75, -10835.915, -0.004745679, -0.004439006, -848233.94, 9850.025, 0.0, 5.023034, 4.9561944 
6.243098e+2, 2.1739493e+2, -809744.8, -910037.1, -10831.009, -0.0009215785, -0.013047293, -808588.5, 941.5156, 0.0, 5.0198946, 4.9557014 
6.241925e+2, 2.2234872e+2, -771698.2, -870077.3, -10968.328, 0.0016417707, -0.009310542, -770490.2, -9508.42, 0.0, 5.0167837, 4.953931 
6.2407494e+2, 2.2730277e+2, -729938.5, -822002.44, -11063.458, 0.0031292322, -0.010533686, -728627.7, -16199.58, 0.0, 5.013682, 4.954921 
6.239574e+2, 2.3225695e+2, -689437.9, -776737.4, -11091.321, 0.0045283986, -0.01147748, -688050.75, -24177.422, 0.0, 5.010579, 4.954928 
6.238399e+2, 2.3721115e+2, -649538.56, -732864.75, -11086.4375, 0.005853705, -0.011957722, -648088.75, -32770.664, 0.0, 5.007478, 4.954434 
6.237228e+2, 2.4216306e+2, -614837.6, -699835.1, -9631.668, 0.003827723, -0.0009797895, -613759.8, -46970.79, 0.0, 5.004251, 4.950188 
6.2360656e+2, 2.4711356e+2, -572863.2, -650618.0, -9384.29, 0.0009622893, -0.0040553394, -571746.6, -53468.727, 0.0, 5.0009775, 4.951572 
6.234904e+2, 2.520641e+2, -532637.3, -605362.3, -9220.609, -0.0018927404, -0.007883699, -531486.5, -61720.16, 0.0, 4.997708, 4.9515676 
6.2337434e+2, 2.5701466e+2, -492611.28, -560614.94, -9047.699, -0.004816311, -0.011720558, -491428.1, -70173.2, 0.0, 4.9944396, 4.951365 
6.2325966e+2, 2.619637e+2, -456898.16, -525091.2, -6753.9336, -0.0048870724, -0.00059071527, -456235.66, -83478.805, 0.0, 4.9911265, 4.9478855 
6.2314725e+2, 2.6691324e+2, -413613.56, -473060.38, -6396.1177, -0.00030553003, 0.0015182102, -412933.2, -88681.914, 0.0, 4.9878535, 4.9501753 
6.23035e+2, 2.718629e+2, -373176.8, -427558.22, -6314.3955, 0.004496515, 0.002385866, -372453.25, -96708.4, 0.0, 4.9845877, 4.950173 
6.2292284e+2, 2.7681255e+2, -332746.34, -382131.63, -6231.3135, 0.009462665, 0.00335569, -331972.22, -104733.77, 0.0, 4.9813232, 4.950123 
6.228114e+2, 2.8175825e+2, -300454.53, -355010.25, -3987.8057, 0.012768637, 0.00991513, -300164.6, -121394.72, 0.0, 4.9780765, 4.9435396 
6.22701e+2, 2.8670245e+2, -255964.23, -301208.47, -3352.4778, 0.01116525, -0.0016827718, -255717.17, -125403.164, 0.0, 4.974971, 4.946309 
6.225906e+2, 2.916468e+2, -214846.17, -255228.39, -2922.1702, 0.009263315, -0.01439515, -214635.81, -132779.28, 0.0, 4.9718714, 4.9463096 
6.224802e+2, 2.965912e+2, -173703.42, -209202.61, -2475.8618, 0.007254174, -0.027244335, -173531.58, -140132.33, 0.0, 4.968764, 4.94631 
6.2237203e+2, 3.0155396e+2, -116677.26, -93911.92, -63.13496, 0.008708059, -0.007566844, -93911.75, -93911.75, 0.0, 4.9656734, 4.9801717 
6.222692e+2, 3.065407e+2, -119561.55, -85106.305, 1577.2667, 0.012504361, 0.021478789, -85034.25, -85034.25, 0.0, 4.962695, 4.9846187 
6.2216675e+2, 3.115277e+2, -127796.03, -88677.65, 1686.0753, 0.016489627, 0.046629965, -88605.11, -88605.11, 0.0, 4.959675, 4.9846387 
6.2206435e+2, 3.1651458e+2, -136226.81, -92361.99, 1764.2385, 0.020426318, 0.07009746, -92291.15, -92291.15, 0.0, 4.956579, 4.984661 
6.3150173e+2, 1.2327708e+2, -1552641.6, -1726904.1, 2992.108, -0.02113974, 0.007008646, -1552590.3, 179307.03, 0.0, 5.079942, 4.965067 
6.314005e+2, 1.282384e+2, -1516422.5, -1690556.1, -580.6235, 0.020834345, 0.003434235, -1516420.6, 166853.02, 0.0, 5.0769873, 4.9624805 
6.312937e+2, 1.331995e+2, -1476576.9, -1646323.5, -752.14056, 0.008067327, -0.00091093493, -1476573.6, 158078.5, 0.0, 5.073986, 4.9624734 
6.3118696e+2, 1.3816057e+2, -1438914.6, -1606758.8, -1033.1234, -0.004605638, -0.003828199, -1438908.3, 147122.53, 0.0, 5.070994, 4.9608984 
6.31078e+2, 1.431212e+2, -1398098.4, -1560910.3, -5000.878, -0.010577377, 0.006925067, -1397945.0, 139470.67, 0.0, 5.0679626, 4.9613853 
6.3096696e+2, 1.4808223e+2, -1358603.1, -1516045.1, -5220.879, -0.010095106, 0.007704633, -1358430.1, 130367.54, 0.0, 5.0646424, 4.961687 
6.3085604e+2, 1.5304326e+2, -1319505.9, -1472047.3, -5280.0923, -0.009588205, 0.008391825, -1319323.3, 120856.484, 0.0, 5.0613217, 4.961682 
6.307451e+2, 1.5800427e+2, -1281799.5, -1431077.5, -5404.8677, -0.009081421, 0.0095025515, -1281604.1, 109957.97, 0.0, 5.058007, 4.9606447 
6.306319e+2, 1.6296345e+2, -1242946.5, -1388999.5, -9066.642, -0.0074716136, 0.012143729, -1242385.9, 100576.1, 0.0, 5.0548754, 4.959918 
6.3051605e+2, 1.6792223e+2, -1202636.0, -1343577.0, -9515.127, -0.00588538, 0.0050532715, -1201996.5, 92369.06, 0.0, 5.051767, 4.960232 
6.3040024e+2, 1.72881e+2, -1162720.0, -1299028.8, -9756.607, -0.004387413, -0.0020999522, -1162025.3, 83743.664, 0.0, 5.0486584, 4.960234 
6.302845e+2, 1.7783982e+2, -1123889.3, -1256858.3, -9961.437, -0.0029768688, -0.008863709, -1123147.1, 74024.91, 0.0, 5.0455523, 4.9594193 
6.3016695e+2, 1.8279797e+2, -1085095.5, -1214840.0, -12346.498, -0.003636776, -0.0039140703, -1083931.1, 64649.12, 0.0, 5.042395, 4.958577 
6.3004756e+2, 1.8775626e+2, -1044851.7, -1168863.5, -12394.385, -0.0050011803, -0.0048676697, -1043625.06, 56361.176, 0.0, 5.03911, 4.9590883 
6.299282e+2, 1.9271459e+2, -1005272.2, -1124362.0, -12303.435, -0.006524722, -0.0055786734, -1004014.4, 47377.508, 0.0, 5.035826, 4.9590816 
6.298089e+2, 1.9767295e+2, -966734.2, -1082165.1, -12122.482, -0.00822562, -0.0055590174, -965474.8, 37322.492, 0.0, 5.032543, 4.958273 
6.296891e+2, 2.0262945e+2, -930302.4, -1045167.94, -13059.927, -0.009082237, 0.0036514576, -928836.25, 25388.023, 0.0, 5.029351, 4.9556403 
6.295686e+2, 2.0758478e+2, -889286.94, -998383.1, -13194.349, -0.0077768527, 0.0017490145, -887713.9, 17951.258, 0.0, 5.0262074, 4.9562807 
6.2944824e+2, 2.1254015e+2, -849087.44, -953417.44, -13210.743, -0.006373427, -0.0005229505, -847440.6, 9665.156, 0.0, 5.0230637, 4.956283 
6.293279e+2, 2.1749547e+2, -809501.0, -909855.5, -13195.023, -0.004869613, -0.0029303366, -807795.06, 751.5705, 0.0, 5.0199213, 4.9557853 
6.2920743e+2, 2.2244938e+2, -771327.4, -869665.75, -13350.661, -0.0027408423, 0.00061938236, -769547.06, -9549.335, 0.0, 5.016821, 4.9540854 
6.290869e+2, 2.2740307e+2, -729640.2, -821737.9, -13441.505, -0.00027973627, -0.005137821, -727718.56, -16271.406, 0.0, 5.013716, 4.9550266 
6.289664e+2, 2.3235689e+2, -689152.0, -776488.5, -13461.317, 0.0020413913, -0.010537894, -687124.25, -24228.762, 0.0, 5.010612, 4.955031 
6.288458e+2, 2.3731075e+2, -649265.1, -732631.3, -13448.153, 0.004241086, -0.015415938, -647149.44, -32805.99, 0.0, 5.0075088, 4.9545336 
6.287257e+2, 2.4226272e+2, -614095.75, -698572.94, -12158.504, 0.003981942, -0.0065947343, -612380.7, -46567.414, 0.0, 5.0042825, 4.9506416 
6.286063e+2, 2.4721386e+2, -572263.75, -649687.3, -11910.644, 0.0023519876, -0.0070171547, -570472.9, -53177.01, 0.0, 5.0010114, 4.9519124 
6.2848705e+2, 2.5216502e+2, -532038.6, -604444.2, -11744.082, 0.0006098993, -0.0080789635, -530181.4, -61403.273, 0.0, 4.997743, 4.951905 
6.283678e+2, 2.5711614e+2, -492013.25, -559709.4, -11568.196, -0.0012609359, -0.009195238, -490091.0, -69830.42, 0.0, 4.994477, 4.951699 
6.2824976e+2, 2.620656e+2, -456346.34, -524255.25, -9264.132, -0.001658894, 0.002845326, -455105.22, -83347.19, 0.0, 4.9911585, 4.948195 
6.281339e+2, 2.6701528e+2, -413138.53, -472403.97, -8922.939, 0.00054892706, 0.0037018675, -411824.25, -88573.42, 0.0, 4.9878864, 4.9504232 
6.280182e+2, 2.7196506e+2, -372699.88, -426902.94, -8839.85, 0.0028618493, 0.0032836548, -371294.66, -96551.72, 0.0, 4.9846215, 4.950421 
6.2790245e+2, 2.7691483e+2, -332267.56, -381477.44, -8755.371, 0.0052489513, 0.00294168, -330756.25, -104521.16, 0.0, 4.9813576, 4.9503703 
6.277877e+2, 2.8186086e+2, -299360.3, -353018.03, -6414.225, 0.0072805467, 0.008447044, -298604.22, -120840.914, 0.0, 4.9781218, 4.944254 
6.2767434e+2, 2.8680584e+2, -254821.39, -299147.34, -5763.569, 0.0072676004, -0.002924166, -254084.23, -124783.02, 0.0, 4.975024, 4.947048 
6.2756103e+2, 2.91751e+2, -213685.84, -253165.28, -5292.809, 0.0069957147, -0.01521612, -212988.58, -132151.14, 0.0, 4.9719334, 4.947047 
6.274477e+2, 2.9669616e+2, -172498.63, -207125.86, -4823.198, 0.006576497, -0.02751674, -171839.36, -139465.58, 0.0, 4.9688444, 4.9470463 
6.273365e+2, 3.0165976e+2, -115369.57, -91803.69, -2103.3604, 0.007507212, -0.0068997135, -91617.43, -91617.43, 0.0, 4.9657936, 4.980934 
6.272305e+2, 3.06647e+2, -118080.945, -83069.4, -172.48848, 0.0077073677, 0.021399606, -83068.55, -83068.55, 0.0, 4.9629087, 4.985322 
6.2712497e+2, 3.116344e+2, -125836.0, -86407.57, 266.10632, 0.007994786, 0.045946117, -86405.77, -86405.77, 0.0, 4.960056, 4.9853516 
6.2701935e+2, 3.1662175e+2, -133566.23, -89783.69, 729.01294, 0.008231488, 0.069045685, -89771.555, -89771.555, 0.0, 4.9572034, 4.9853806 
6.3658094e+2, 1.2337693e+2, -1552901.4, -1727874.5, 136.3952, -0.018577943, 0.011598682, -1552901.3, 178019.08, 0.0, 5.079984, 4.9647536 
6.3647604e+2, 1.2833874e+2, -1516421.0, -1690939.0, -2798.6301, 0.017381841, 0.014450648, -1516376.1, 165915.14, 0.0, 5.0770245, 4.9623613 
6.363665e+2, 1.3329902e+2, -1476574.4, -1646711.1, -2968.1516, 0.007556946, 0.0031370854, -1476522.6, 157154.64, 0.0, 5.0740237, 4.9623528 
6.36257e+2, 1.3825929e+2, -1438936.5, -1607206.6, -3229.6672, -0.0022896575, -0.0066138767, -1438874.5, 146188.89, 0.0, 5.0710325, 4.9607577 
6.36145e+2, 1.4321963e+2, -1397831.3, -1560743.8, -7473.3247, -0.007852543, 0.0014818264, -1397489.1, 138961.14, 0.0, 5.0679994, 4.961449 
6.360305e+2, 1.481808e+2, -1358395.8, -1516001.8, -7683.0015, -0.008835615, 0.0031084905, -1358022.1, 129808.09, 0.0, 5.0646787, 4.96171 
6.359161e+2, 1.5314195e+2, -1319298.3, -1472004.4, -7742.0796, -0.009810415, 0.0046795397, -1318906.8, 120303.34, 0.0, 5.0613585, 4.9617047 
6.3580173e+2, 1.581031e+2, -1281659.0, -1431183.1, -7859.3955, -0.010750958, 0.0066491542, -1281247.0, 109343.414, 0.0, 5.058045, 4.9606185 
6.3568527e+2, 1.6306233e+2, -1243016.5, -1389560.0, -11431.331, -0.009653547, 0.011021724, -1242130.1, 99860.34, 0.0, 5.0549154, 4.9597406 
6.3556623e+2, 1.6802114e+2, -1202751.9, -1344210.4, -11842.525, -0.008258054, 0.0063746045, -1201767.3, 91628.33, 0.0, 5.051803, 4.960031 
6.354473e+2, 1.7297998e+2, -1162847.1, -1299665.1, -12079.319, -0.0069958717, 0.0017670344, -1161788.9, 83011.47, 0.0, 5.0486913, 4.9600334 
6.3532835e+2, 1.7793885e+2, -1123996.3, -1257438.3, -12287.023, -0.0058821887, -0.002305399, -1122874.4, 73330.445, 0.0, 5.0455823, 4.9592385 
6.352077e+2, 1.8289691e+2, -1084592.4, -1214156.5, -14840.941, -0.005754001, 0.0012179645, -1082914.1, 64699.348, 0.0, 5.0424323, 4.958818 
6.350852e+2, 1.8785495e+2, -1044399.8, -1168264.0, -14862.306, -0.005295173, -0.0046056877, -1042641.5, 56378.613, 0.0, 5.039143, 4.9593034 
6.349627e+2, 1.9281305e+2, -1004836.7, -1123774.4, -14765.336, -0.005050435, -0.010027145, -1003031.1, 47395.15, 0.0, 5.0358553, 4.9592953 
6.348403e+2, 1.9777119e+2, -966340.94, -1081648.9, -14579.424, -0.005063616, -0.014471961, -964526.06, 37305.945, 0.0, 5.032569, 4.958465 
6.347173e+2, 2.0272802e+2, -929975.06, -1044857.5, -15461.825, -0.006543089, -0.0036584625, -927930.5, 25325.38, 0.0, 5.0293884, 4.9557576 
6.345934e+2, 2.0768403e+2, -889008.7, -998162.3, -15575.957, -0.0073059266, 0.000041679912, -886829.5, 17862.176, 0.0, 5.0262413, 4.95637 
6.344697e+2, 2.1264003e+2, -848825.7, -953217.7, -15581.703, -0.00802648, 0.003503801, -846549.56, 9577.769, 0.0, 5.0230947, 4.956368 
6.3434595e+2, 2.1759604e+2, -809374.4, -909938.4, -15526.014, -0.008708774, 0.006950768, -807031.9, 531.24817, 0.0, 5.01995, 4.955776 
6.342224e+2, 2.2255006e+2, -770934.06, -869210.94, -15741.122, -0.007383318, 0.011085043, -768474.4, -9460.931, 0.0, 5.016859, 4.9542527 
6.340988e+2, 2.275034e+2, -729340.3, -821476.6, -15816.743, -0.0038136228, 0.0005375115, -726700.75, -16234.785, 0.0, 5.0137525, 4.95513 
6.339752e+2, 2.3245685e+2, -688864.56, -776242.94, -15828.515, -0.00042859305, -0.009599895, -686085.6, -24168.049, 0.0, 5.0106454, 4.955131 
6.3385177e+2, 2.3741032e+2, -648990.0, -732401.25, -15807.079, 0.0027870694, -0.019156095, -646094.94, -32726.176, 0.0, 5.00754, 4.9546304 
6.3372856e+2, 2.4236244e+2, -613408.2, -697439.8, -14678.109, 0.003980405, -0.011918153, -610918.1, -46080.9, 0.0, 5.004316, 4.9510508 
6.336061e+2, 2.4731417e+2, -571662.06, -648759.56, -14432.044, 0.0036440939, -0.00973118, -569049.0, -52735.46, 0.0, 5.0010467, 4.9522514 
6.334836e+2, 2.5226593e+2, -531437.6, -603529.1, -14262.606, 0.0031157047, -0.008146592, -528718.44, -60928.766, 0.0, 4.9977803, 4.9522405 
6.333612e+2, 2.5721765e+2, -491412.9, -558806.8, -14083.747, 0.002398096, -0.006662144, -488588.13, -69322.01, 0.0, 4.994515, 4.9520316 
6.3323987e+2, 2.621675e+2, -455816.6, -523473.94, -11778.443, 0.0014590862, 0.0062512644, -453824.72, -83065.516, 0.0, 4.9911914, 4.948486 
6.3312054e+2, 2.6711735e+2, -412661.56, -471749.44, -11448.736, 0.0012552777, 0.005846086, -410520.84, -88270.44, 0.0, 4.9879208, 4.9506702 
6.330012e+2, 2.720672e+2, -372221.06, -426249.47, -11364.274, 0.0010616691, 0.0041207992, -369928.03, -96186.984, 0.0, 4.984657, 4.950668 
6.32882e+2, 2.770171e+2, -331786.9, -380825.06, -11278.397, 0.00085233484, 0.0024458654, -329317.34, -104085.57, 0.0, 4.981394, 4.9506173 
6.32764e+2, 2.819635e+2, -298251.66, -351001.16, -8825.821, 0.001845806, 0.007007403, -296814.13, -120057.5, 0.0, 4.978168, 4.944977 
6.326477e+2, 2.8690928e+2, -253698.36, -297099.25, -8175.105, 0.0033982166, -0.0041652354, -252209.55, -123921.234, 0.0, 4.975071, 4.9477863 
6.325314e+2, 2.9185522e+2, -212574.47, -251130.48, -7704.4688, 0.0046991925, -0.016091753, -211091.92, -131273.64, 0.0, 4.9719787, 4.947784 
6.3241524e+2, 2.9680115e+2, -171398.86, -205104.3, -7234.984, 0.00580829, -0.02789622, -169911.48, -138563.23, 0.0, 4.9688883, 4.947781 
6.32301e+2, 3.0176556e+2, -114325.445, -89945.45, -4291.157, 0.006372163, -0.006245266, -89212.21, -89212.21, 0.0, 4.965844, 4.981624 
6.3219184e+2, 3.067532e+2, -117089.875, -81222.484, -2302.6897, 0.0025376796, 0.019504007, -81075.26, -81075.26, 0.0, 4.962945, 4.9860125 
6.3208306e+2, 3.1174102e+2, -124878.26, -84515.51, -1793.2985, -0.0014272907, 0.041641053, -84435.99, -84435.99, 0.0, 4.9600763, 4.9860597 
6.319742e+2, 3.1672883e+2, -132641.83, -87846.445, -1259.7811, -0.005575629, 0.06276491, -87811.05, -87811.05, 0.0, 4.9572077, 4.986106 
6.4166045e+2, 1.2347814e+2, -1553090.1, -1729033.4, 893.66833, -0.011993948, 0.019622, -1553085.6, 176843.05, 0.0, 5.08016, 4.964281 
6.415516e+2, 1.2843975e+2, -1516057.9, -1691002.9, -1639.8577, 0.015204265, 0.022893922, -1516042.5, 165259.1, 0.0, 5.077214, 4.9622426 
6.414394e+2, 1.3339934e+2, -1476177.4, -1646780.1, -1979.5173, 0.0075214165, 0.0066565997, -1476154.4, 156540.02, 0.0, 5.0742264, 4.9622283 
6.4132714e+2, 1.383589e+2, -1438520.0, -1607264.0, -2395.3481, -0.0002552104, -0.008024846, -1438486.0, 145601.36, 0.0, 5.0712385, 4.960638 
6.41212e+2, 1.4331892e+2, -1397228.6, -1560330.9, -7046.1973, -0.005484684, -0.002201403, -1396924.8, 138552.16, 0.0, 5.0681815, 4.9614987 
6.41094e+2, 1.4828001e+2, -1357802.9, -1515692.4, -7430.1616, -0.0073873415, -0.0007445601, -1357454.0, 129402.695, 0.0, 5.064873, 4.9617224 
6.4097625e+2, 1.532411e+2, -1318682.9, -1471705.1, -7677.736, -0.009284849, 0.00069125806, -1318298.6, 119937.84, 0.0, 5.0615597, 4.9617133 
6.408585e+2, 1.5820216e+2, -1281125.4, -1431079.3, -7971.799, -0.011106422, 0.002563625, -1280702.8, 108913.75, 0.0, 5.0582466, 4.960564 
6.4073867e+2, 1.6316147e+2, -1242651.0, -1389572.3, -11471.249, -0.010674036, 0.008835748, -1241760.8, 99255.98, 0.0, 5.0550704, 4.9596705 
6.406165e+2, 1.681204e+2, -1202660.5, -1344425.9, -11797.375, -0.009932136, 0.0067692813, -1201685.4, 90736.86, 0.0, 5.051877, 4.9599314 
6.4049435e+2, 1.7307931e+2, -1163016.1, -1300019.0, -11981.859, -0.009193948, 0.0045653316, -1161976.1, 81851.74, 0.0, 5.0486765, 4.9599295 
6.403723e+2, 1.7803824e+2, -1124440.8, -1257924.4, -12137.786, -0.008508562, 0.002817143, -1123346.1, 71887.17, 0.0, 5.0454717, 4.9591355 
6.402484e+2, 1.8299621e+2, -1084551.6, -1213778.6, -14959.207, -0.0077760164, 0.0056154756, -1082842.6, 63800.063, 0.0, 5.042357, 4.9589906 
6.4012283e+2, 1.8795401e+2, -1043980.5, -1167738.3, -15301.993, -0.005806554, -0.003957107, -1042116.56, 55933.88, 0.0, 5.0392036, 4.959463 
6.3999724e+2, 1.9291182e+2, -1004077.1, -1123069.1, -15513.821, -0.003960611, -0.013439095, -1002087.7, 47370.11, 0.0, 5.0360293, 4.9594636 
6.398717e+2, 1.978697e+2, -965383.5, -1080950.5, -15587.919, -0.0023494018, -0.022040764, -963317.9, 37546.824, 0.0, 5.032833, 4.9585905 
6.3974535e+2, 2.028268e+2, -928990.6, -1044051.7, -16507.947, -0.004420453, -0.009497165, -926669.06, 25616.818, 0.0, 5.029643, 4.9559255 
6.396182e+2, 2.0778339e+2, -888243.56, -997529.94, -16610.416, -0.0068057915, -0.0013568145, -885774.75, 17942.379, 0.0, 5.026431, 4.956512 
6.394911e+2, 2.1274e+2, -848265.0, -952702.2, -16608.453, -0.0092106685, 0.006732628, -845687.44, 9460.723, 0.0, 5.0232162, 4.956504 
6.3936406e+2, 2.1769659e+2, -809177.94, -909864.94, -16506.676, -0.011675436, 0.0150288455, -806540.9, 38.40408, 0.0, 5.0199995, 4.9557943 
6.392373e+2, 2.2265077e+2, -770709.5, -868869.56, -16786.791, -0.011529277, 0.02063483, -767918.06, -9889.578, 0.0, 5.016867, 4.954383 
6.3911074e+2, 2.276038e+2, -729135.1, -821213.9, -17039.77, -0.0070955595, 0.005948428, -726083.0, -16599.002, 0.0, 5.0137634, 4.9552336 
6.3898414e+2, 2.3255688e+2, -688672.94, -775990.2, -17196.785, -0.0027432195, -0.008581776, -685408.1, -24469.412, 0.0, 5.01065, 4.9552355 
6.388576e+2, 2.3751001e+2, -648846.6, -732182.06, -17298.95, 0.0015145348, -0.022733117, -645398.3, -33005.168, 0.0, 5.007529, 4.954731 
6.387313e+2, 2.4246223e+2, -612823.2, -696383.1, -16399.143, 0.0037954263, -0.016581338, -609720.0, -45859.71, 0.0, 5.00433, 4.9514337 
6.386057e+2, 2.4741454e+2, -571016.6, -647765.9, -16267.209, 0.0048093353, -0.012090862, -567711.06, -52380.367, 0.0, 5.001099, 4.9525986 
6.384801e+2, 2.5236687e+2, -530749.75, -602527.56, -16185.471, 0.0056175734, -0.008092338, -527268.9, -60467.96, 0.0, 4.997849, 4.9525857 
6.3835454e+2, 2.5731918e+2, -490743.53, -557826.44, -16080.297, 0.0062081916, -0.004159121, -487088.16, -68816.76, 0.0, 4.994579, 4.9523735 
6.382299e+2, 2.622694e+2, -455250.06, -522683.8, -13848.877, 0.0045069326, 0.009610301, -452516.72, -82756.42, 0.0, 4.9912477, 4.9487653 
6.3810706e+2, 2.6721936e+2, -412110.4, -471034.44, -13609.904, 0.0018314796, 0.007932601, -409118.78, -87868.836, 0.0, 4.9879827, 4.9509225 
6.379843e+2, 2.7216938e+2, -371700.53, -425555.5, -13605.1045, -0.0008855127, 0.004882507, -368458.7, -95719.51, 0.0, 4.9847083, 4.950919 
6.378615e+2, 2.7711937e+2, -331344.44, -380173.53, -13596.114, -0.0036935695, 0.0018560089, -327813.94, -103585.49, 0.0, 4.9814177, 4.9508677 
6.3774025e+2, 2.8206617e+2, -297238.22, -348994.5, -11090.574, -0.0035038334, 0.0055988813, -294961.78, -119211.945, 0.0, 4.978178, 4.945712 
6.37621e+2, 2.8701273e+2, -252678.13, -295089.4, -10488.204, -0.00044092283, -0.005409266, -250226.17, -122950.875, 0.0, 4.975082, 4.9485264 
6.375018e+2, 2.9195943e+2, -211575.42, -249140.9, -10046.326, 0.0023715969, -0.017024536, -209057.47, -130258.42, 0.0, 4.9719844, 4.9485216 
6.373826e+2, 2.9690617e+2, -170421.83, -203134.17, -9594.718, 0.0049527916, -0.02838759, -167815.33, -137492.66, 0.0, 4.9688883, 4.948517 
6.3726544e+2, 3.018713e+2, -113486.75, -88287.875, -6437.8486, 0.0053207595, -0.0056602214, -86738.4, -86738.4, 0.0, 4.9658446, 4.9822464 
6.371531e+2, 3.0685928e+2, -116267.5, -79441.02, -4423.024, -0.0029528793, 0.015715217, -78917.25, -78917.25, 0.0, 4.9629216, 4.9866834 
6.3704103e+2, 3.1184745e+2, -124120.93, -82703.14, -3846.3267, -0.01157878, 0.03360454, -82348.98, -82348.98, 0.0, 4.9600253, 4.986748 
6.3692904e+2, 3.1683567e+2, -131950.38, -86003.39, -3244.9404, -0.020519657, 0.050918873, -85775.36, -85775.36, 0.0, 4.9571295, 4.986812 
6.467424e+2, 1.2358785e+2, -1542499.9, -1724584.8, 6096.972, -0.002933016, 0.014421072, -1542296.0, 186555.23, 0.0, 5.084079, 4.9637966 
6.4662945e+2, 1.2854949e+2, -1505646.5, -1685622.4, 4183.2915, 0.014573197, 0.020872753, -1505549.3, 174675.52, 0.0, 5.0808597, 4.962197 
6.465142e+2, 1.3350902e+2, -1466540.5, -1641802.0, 3918.243, 0.0077151097, 0.0070213177, -1466452.9, 165165.97, 0.0, 5.0776153, 4.9621816 
6.463988e+2, 1.3846853e+2, -1429539.5, -1602472.1, 3570.9373, 0.0006468448, -0.0052840924, -1429465.8, 153547.4, 0.0, 5.074375, 4.960656 
6.462804e+2, 1.4342834e+2, -1388736.0, -1555634.8, -1170.1796, -0.0038728127, -0.00018906264, -1388727.8, 145677.05, 0.0, 5.0711164, 4.9615874 
6.461592e+2, 1.4838895e+2, -1349811.9, -1511354.3, -1472.6108, -0.0055623353, -0.001747548, -1349798.5, 135990.61, 0.0, 5.0676603, 4.9617686 
6.46038e+2, 1.5334953e+2, -1311113.5, -1467592.8, -1661.4646, -0.007248845, -0.003282363, -1311095.9, 126077.38, 0.0, 5.064205, 4.961758 
6.459169e+2, 1.583101e+2, -1273941.5, -1427144.4, -1903.2865, -0.008837155, -0.004295033, -1273917.8, 114639.98, 0.0, 5.0607567, 4.96062 
6.4579356e+2, 1.6326943e+2, -1235655.9, -1385243.6, -5235.8115, -0.0092039425, 0.0027136153, -1235472.9, 104484.86, 0.0, 5.0574145, 4.959937 
6.456679e+2, 1.6822864e+2, -1196285.5, -1340476.0, -5388.8936, -0.0098616155, 0.0037422378, -1196084.4, 95275.95, 0.0, 5.054027, 4.960168 
6.455424e+2, 1.7318784e+2, -1157191.5, -1296346.1, -5427.0483, -0.010471924, 0.004567623, -1156980.3, 85782.79, 0.0, 5.050641, 4.9601655 
6.4541686e+2, 1.7814703e+2, -1119095.3, -1254419.4, -5448.623, -0.011041387, 0.0056508402, -1118876.1, 75289.63, 0.0, 5.0472584, 4.959403 
6.452897e+2, 1.831049e+2, -1079955.5, -1211223.8, -8084.502, -0.010139337, 0.008484213, -1079459.5, 66117.46, 0.0, 5.0440073, 4.9590073 
6.4516103e+2, 1.8806237e+2, -1039672.56, -1165367.5, -8429.927, -0.007482846, -0.0013127471, -1039109.7, 57879.54, 0.0, 5.0407662, 4.9594603 
6.4503235e+2, 1.9301985e+2, -999946.75, -1120766.3, -8693.717, -0.0048861443, -0.011209357, -999324.4, 49076.754, 0.0, 5.0375276, 4.95947 
6.449037e+2, 1.979774e+2, -961234.1, -1078402.6, -8871.898, -0.0024325598, -0.020522889, -960566.2, 39246.35, 0.0, 5.034288, 4.9587026 
6.4477426e+2, 2.0293435e+2, -924644.4, -1040459.8, -9754.326, -0.0035076933, -0.010554958, -923828.56, 27406.06, 0.0, 5.030972, 4.9564524 
6.446437e+2, 2.0789106e+2, -884470.56, -994288.94, -9676.164, -0.0055964966, -0.0032871773, -883624.5, 19038.324, 0.0, 5.027581, 4.957005 
6.4451337e+2, 2.1284781e+2, -845004.3, -949702.4, -9508.378, -0.007738134, 0.0040930854, -844147.8, 9942.94, 0.0, 5.0241904, 4.9569974 
6.443831e+2, 2.1780457e+2, -806390.25, -907035.5, -9250.951, -0.0099795265, 0.011850339, -805547.0, -28.158293, 0.0, 5.0208, 4.9563117 
6.4425296e+2, 2.2275892e+2, -769002.2, -867355.06, -9227.419, -0.010273233, 0.018546527, -768143.94, -11177.588, 0.0, 5.0174594, 4.9545484 
6.4412296e+2, 2.2771202e+2, -727920.4, -819979.8, -9470.816, -0.0072073624, 0.006356366, -726956.2, -18533.29, 0.0, 5.0141945, 4.955376 
6.439931e+2, 2.3266517e+2, -687878.0, -774925.56, -9641.462, -0.004019592, -0.006140001, -686822.9, -26944.002, 0.0, 5.0109286, 4.9553876 
6.4386326e+2, 2.3761831e+2, -648436.94, -731264.2, -9796.222, -0.00069706055, -0.018730102, -647294.06, -35959.34, 0.0, 5.0076647, 4.9548965 
6.4373386e+2, 2.4257055e+2, -612097.8, -694397.75, -8822.604, 0.0019322067, -0.013573951, -611162.7, -48360.582, 0.0, 5.0043926, 4.952005 
6.436051e+2, 2.4752297e+2, -570486.7, -645986.2, -8652.972, 0.003917559, -0.010288404, -569507.6, -55237.254, 0.0, 5.001122, 4.9531155 
6.4347637e+2, 2.5247544e+2, -530271.9, -600738.6, -8516.569, 0.0058425874, -0.007114067, -529257.2, -63519.086, 0.0, 4.9978533, 4.953112 
6.4334774e+2, 2.5742793e+2, -490257.22, -555998.9, -8367.674, 0.0077098105, -0.0036292323, -489208.88, -72003.16, 0.0, 4.9945865, 4.9529104 
6.4321977e+2, 2.623784e+2, -454892.6, -520992.06, -6037.4814, 0.006343872, 0.009829609, -454345.66, -85653.66, 0.0, 4.9912257, 4.949272 
6.430935e+2, 2.6732847e+2, -412127.97, -469594.78, -5726.514, 0.0027148318, 0.007607543, -411562.88, -91382.6, 0.0, 4.9878464, 4.9513936 
6.4296734e+2, 2.7227858e+2, -372000.03, -424227.3, -5624.3735, -0.00090480957, 0.003959305, -371401.22, -99732.91, 0.0, 4.9844723, 4.951394 
6.4284116e+2, 2.7722862e+2, -331874.06, -378931.97, -5518.4063, -0.004518858, 0.00028841913, -331235.6, -108079.19, 0.0, 4.9811006, 4.951347 
6.427164e+2, 2.8217575e+2, -298558.38, -347641.28, -3186.3193, -0.004742688, 0.004220426, -298352.38, -123677.09, 0.0, 4.9775004, 4.9463863 
6.4259374e+2, 2.8712282e+2, -255922.98, -294622.13, -3108.4128, -0.0017407532, -0.0054830858, -255674.89, -129477.984, 0.0, 4.9737263, 4.9491844 
6.424712e+2, 2.9206997e+2, -216596.11, -249399.73, -3140.636, 0.0012281381, -0.016231718, -216298.13, -138581.1, 0.0, 4.969985, 4.9492 
6.4234865e+2, 2.970172e+2, -177162.48, -204091.67, -3153.6501, 0.0041799056, -0.027151221, -176798.1, -147560.92, 0.0, 4.966264, 4.949215 
6.4222836e+2, 3.0198282e+2, -120606.734, -89494.99, 117.07307, 0.004063683, -0.0039760363, -89494.555, -89494.555, 0.0, 4.9630804, 4.9829073 
6.421133e+2, 3.069708e+2, -121782.5, -80365.82, 1477.7329, -0.005692523, 0.014139337, -80313.164, -80313.164, 0.0, 4.960787, 4.987197 
6.419985e+2, 3.1195876e+2, -128183.41, -83214.79, 1325.1877, -0.015492402, 0.027598312, -83175.77, -83175.77, 0.0, 4.9584384, 4.9871893 
6.418837e+2, 3.1694666e+2, -134850.16, -86189.52, 1129.9847, -0.02535367, 0.03945541, -86163.3, -86163.3, 0.0, 4.9559894, 4.987186 
6.51826e+2, 1.23701826e+2, -1543253.1, -1726681.6, 3168.1443, 0.0050710454, 0.013853153, -1543198.4, 184533.31, 0.0, 5.0841317, 4.9631085 
6.517089e+2, 1.2866303e+2, -1505737.6, -1686274.4, 1783.7847, 0.01363705, 0.01837065, -1505720.0, 173390.25, 0.0, 5.0809045, 4.9619875 
6.5159047e+2, 1.3362268e+2, -1466639.8, -1642462.5, 1523.3225, 0.0076905764, 0.007543457, -1466626.5, 163877.84, 0.0, 5.0776577, 4.96197 
6.514719e+2, 1.3858229e+2, -1429558.4, -1602956.9, 1151.6653, 0.0014104757, -0.0016735733, -1429550.8, 152347.77, 0.0, 5.0744157, 4.9605045 
6.513502e+2, 1.4354198e+2, -1388661.1, -1555900.1, -3752.4849, -0.0022308684, 0.0028559382, -1388577.0, 144714.45, 0.0, 5.071152, 4.9615126 
6.5122557e+2, 1.4850213e+2, -1349801.0, -1511754.0, -4034.4375, -0.00369624, -0.0020314388, -1349700.5, 134979.23, 0.0, 5.067696, 4.961649 
6.5110093e+2, 1.5346226e+2, -1311102.5, -1467995.5, -4223.0205, -0.005174384, -0.0068600466, -1310989.0, 125079.09, 0.0, 5.0642414, 4.9616375 
6.5097636e+2, 1.584224e+2, -1273925.8, -1427540.1, -4478.4897, -0.006590736, -0.0109654255, -1273795.4, 113661.164, 0.0, 5.060793, 4.960501 
6.508495e+2, 1.6338183e+2, -1235320.6, -1384948.6, -7789.6143, -0.007928306, -0.0028942644, -1234916.1, 103938.82, 0.0, 5.0574503, 4.960048 
6.507204e+2, 1.6834144e+2, -1196006.1, -1340282.9, -7915.102, -0.009929934, 0.0011468469, -1195573.3, 94680.23, 0.0, 5.0540605, 4.9602466 
6.5059125e+2, 1.7330104e+2, -1156923.4, -1296162.5, -7949.175, -0.011924282, 0.005081262, -1156471.0, 85181.06, 0.0, 5.0506716, 4.9602427 
6.504622e+2, 1.7826062e+2, -1118842.3, -1254267.5, -7977.2534, -0.013876789, 0.009261832, -1118374.0, 74676.87, 0.0, 5.0472884, 4.9594707 
6.503318e+2, 1.8321848e+2, -1079998.1, -1211754.4, -10549.433, -0.012816055, 0.012331014, -1079158.8, 65304.26, 0.0, 5.0440464, 4.9588437 
6.5019995e+2, 1.881757e+2, -1039770.56, -1165996.1, -10870.917, -0.009413691, 0.0021242322, -1038841.1, 57038.332, 0.0, 5.040802, 4.9592648 
6.500681e+2, 1.9313294e+2, -1000056.5, -1121401.5, -11128.077, -0.0061091664, -0.008054339, -999044.44, 48251.016, 0.0, 5.03756, 4.959274 
6.4993626e+2, 1.9809023e+2, -961222.44, -1078761.6, -11326.243, -0.0029636505, -0.01762115, -960141.0, 38569.92, 0.0, 5.034318, 4.958601 
6.498035e+2, 2.0304714e+2, -923940.9, -1039366.44, -12345.265, -0.0030374543, -0.010128544, -922635.25, 27497.604, 0.0, 5.031009, 4.95684 
6.4966977e+2, 2.0800401e+2, -883830.7, -993319.3, -12249.412, -0.004477, -0.0047715344, -882476.94, 19080.094, 0.0, 5.0276155, 4.957353 
6.49536e+2, 2.1296093e+2, -844378.5, -948750.44, -12074.195, -0.00601642, 0.0007971853, -842999.94, 9981.141, 0.0, 5.024223, 4.957342 
6.494023e+2, 2.1791784e+2, -805756.56, -906053.0, -11824.86, -0.0077118874, 0.006879158, -804381.25, 23.846571, 0.0, 5.02083, 4.95667 
6.492689e+2, 2.2287251e+2, -768870.7, -867499.94, -11734.182, -0.008365917, 0.014771891, -767493.9, -11644.0, 0.0, 5.0174956, 4.954516 
6.491355e+2, 2.2782588e+2, -727835.56, -820232.9, -11973.8955, -0.0068300935, 0.0060912715, -726309.06, -19003.092, 0.0, 5.0142307, 4.9553075 
6.490022e+2, 2.327793e+2, -687797.0, -775191.8, -12138.855, -0.0052227257, -0.0028910213, -686142.3, -27380.604, 0.0, 5.010965, 4.9553156 
6.4886904e+2, 2.377327e+2, -648335.75, -731491.6, -12277.018, -0.0035220908, -0.01196802, -646561.06, -36343.707, 0.0, 5.0077014, 4.9548383 
6.4873636e+2, 2.426851e+2, -611434.1, -693362.94, -11332.23, -0.0010070399, -0.007245116, -609895.56, -48211.78, 0.0, 5.0044284, 4.9523816 
6.486044e+2, 2.4763758e+2, -569883.2, -645093.5, -11169.752, 0.0018281717, -0.0062909964, -568259.4, -55109.64, 0.0, 5.001159, 4.953444 
6.484724e+2, 2.5259015e+2, -529669.6, -599854.1, -11032.286, 0.004566073, -0.005442176, -527976.3, -63361.113, 0.0, 4.9978914, 4.953439 
6.483406e+2, 2.5754273e+2, -489669.84, -555153.4, -10897.743, 0.0072060702, -0.0043134647, -487903.84, -71823.22, 0.0, 4.9946256, 4.9532247 
6.4820945e+2, 2.6249337e+2, -454260.84, -520060.66, -8607.732, 0.0067579686, 0.007853228, -453153.47, -85589.35, 0.0, 4.991266, 4.9496155 
6.480798e+2, 2.6744375e+2, -411573.9, -468837.56, -8338.928, 0.003593834, 0.005582089, -410384.28, -91334.75, 0.0, 4.9878864, 4.951677 
6.479503e+2, 2.7239412e+2, -371450.0, -423473.2, -8236.173, 0.0003399814, 0.0018878811, -370177.22, -99642.46, 0.0, 4.9845114, 4.9516773 
6.4782083e+2, 2.7734452e+2, -331331.03, -378182.16, -8129.5527, -0.0029860444, -0.0018175489, -329960.5, -107940.43, 0.0, 4.981138, 4.9516306 
6.4769256e+2, 2.8229195e+2, -298127.84, -347184.5, -6104.633, -0.0035137397, 0.0029296207, -297379.6, -123843.45, 0.0, 4.977543, 4.946565 
6.4756596e+2, 2.8723934e+2, -255548.08, -294318.97, -6020.862, -0.0014171825, -0.004531686, -254634.6, -129579.68, 0.0, 4.973774, 4.949308 
6.4743954e+2, 2.921869e+2, -216281.05, -249120.5, -6046.5728, 0.00062531966, -0.012931453, -215203.1, -138630.84, 0.0, 4.9700117, 4.949324 
6.473131e+2, 2.9713443e+2, -176954.2, -203854.02, -6072.5737, 0.0026300238, -0.0214527, -175646.86, -147557.33, 0.0, 4.966252, 4.9493403 
6.471898e+2, 3.021003e+2, -119942.016, -88388.1, -1499.9048, 0.001246382, 0.0006099914, -88316.96, -88316.96, 0.0, 4.963101, 4.983347 
6.4707273e+2, 3.07088e+2, -120934.125, -79555.336, 123.267365, -0.007716276, 0.0139493365, -79554.97, -79554.97, 0.0, 4.9609485, 4.9874716 
6.4695597e+2, 3.1207564e+2, -126674.91, -82108.01, 218.04442, -0.016735349, 0.023114122, -82106.945, -82106.945, 0.0, 4.9588337, 4.9874697 
6.468392e+2, 3.1706327e+2, -132395.27, -84688.77, 341.03833, -0.025853958, 0.030913413, -84686.33, -84686.33, 0.0, 4.956718, 4.9874673 
6.5690947e+2, 1.2381611e+2, -1543981.9, -1728731.9, 295.91257, 0.010836262, 0.016505254, -1543981.5, 182627.9, 0.0, 5.0841866, 4.9624357 
6.567884e+2, 1.2877664e+2, -1505828.1, -1686928.9, -614.1348, 0.0124909, 0.016283182, -1505826.1, 172169.52, 0.0, 5.0809503, 4.961776 
6.566667e+2, 1.3373636e+2, -1466738.3, -1643125.6, -870.01605, 0.0075006946, 0.008372233, -1466734.0, 162655.72, 0.0, 5.077702, 4.9617567 
6.5654504e+2, 1.3869607e+2, -1429589.8, -1603472.8, -1255.753, 0.0020821323, 0.0021096214, -1429580.8, 151202.98, 0.0, 5.0744576, 4.960342 
6.5642e+2, 1.4365561e+2, -1388587.1, -1556179.0, -6353.698, -0.00057851203, 0.005872759, -1388346.6, 143831.55, 0.0, 5.07119, 4.961433 
6.5629184e+2, 1.486153e+2, -1349787.0, -1512157.5, -6594.8574, -0.0018116394, -0.0024302085, -1349519.6, 134050.94, 0.0, 5.067734, 4.9615283 
6.561639e+2, 1.5357499e+2, -1311088.5, -1468402.0, -6783.1704, -0.003068178, -0.010637757, -1310796.6, 124166.35, 0.0, 5.064279, 4.9615154 
6.560359e+2, 1.5853468e+2, -1273929.9, -1427987.8, -7048.3535, -0.0043509, -0.017752089, -1273608.0, 112747.234, 0.0, 5.060831, 4.9603653 
6.559055e+2, 1.634943e+2, -1234985.5, -1384661.8, -10344.305, -0.0068301302, -0.008077577, -1234274.0, 103477.87, 0.0, 5.0574875, 4.960156 
6.5577275e+2, 1.684543e+2, -1195725.0, -1340093.1, -10440.691, -0.010139195, -0.0011660086, -1194973.9, 94172.445, 0.0, 5.054095, 4.9603233 
6.556401e+2, 1.7341429e+2, -1156653.3, -1295982.5, -10470.6875, -0.01348254, 0.005733879, -1155870.8, 84670.04, 0.0, 5.050704, 4.9603176 
6.5550756e+2, 1.7837425e+2, -1118660.4, -1254279.4, -10491.642, -0.016780414, 0.012927085, -1117853.6, 74082.01, 0.0, 5.047321, 4.9594827 
6.553738e+2, 1.8333206e+2, -1080042.9, -1212296.4, -13012.787, -0.015557246, 0.016538197, -1078774.6, 64574.402, 0.0, 5.0440874, 4.958675 
6.5523875e+2, 1.8828902e+2, -1039866.94, -1166628.3, -13312.341, -0.011367461, 0.0056852014, -1038483.94, 56285.75, 0.0, 5.0408397, 4.959067 
6.551038e+2, 1.93246e+2, -1000164.7, -1122040.3, -13562.876, -0.007313676, -0.005012219, -998673.56, 47516.297, 0.0, 5.037594, 4.959075 
6.549688e+2, 1.9820304e+2, -961259.1, -1079236.1, -13775.284, -0.0034571022, -0.014995156, -959672.06, 37937.35, 0.0, 5.0343494, 4.958459 
6.548328e+2, 2.0315996e+2, -923239.6, -1038285.8, -14929.12, -0.0027451427, -0.009204914, -921333.94, 27696.672, 0.0, 5.031048, 4.9572215 
6.546957e+2, 2.0811701e+2, -883188.94, -992353.7, -14819.333, -0.0034296804, -0.006022999, -881212.94, 19237.945, 0.0, 5.027652, 4.9576983 
6.545586e+2, 2.1307407e+2, -843750.75, -947802.56, -14636.694, -0.00426129, -0.002534188, -841731.06, 10139.969, 0.0, 5.0242567, 4.957684 
6.544216e+2, 2.1803114e+2, -805207.2, -905264.2, -14385.337, -0.0053411485, 0.001705652, -803180.06, 111.10938, 0.0, 5.0208616, 4.95696 
6.542847e+2, 2.2298612e+2, -768739.1, -867652.56, -14235.416, -0.0067039565, 0.011523721, -766731.1, -11997.929, 0.0, 5.017534, 4.9544797 
6.541479e+2, 2.2793977e+2, -727748.6, -820489.44, -14472.449, -0.0065756305, 0.0061409078, -725542.6, -19353.625, 0.0, 5.014269, 4.9552364 
6.540113e+2, 2.3289345e+2, -687713.94, -775461.5, -14631.73, -0.006427077, 0.00046062112, -685338.44, -27693.9, 0.0, 5.011003, 4.9552407 
6.5387464e+2, 2.3784709e+2, -648256.0, -731773.44, -14753.05, -0.0062383222, -0.005329502, -645726.5, -36626.504, 0.0, 5.0077395, 4.9547606 
6.5373874e+2, 2.4279962e+2, -610767.9, -692332.06, -13836.972, -0.0040530195, -0.00076841254, -608484.44, -47919.18, 0.0, 5.004466, 4.9527564 
6.536035e+2, 2.4775223e+2, -569276.94, -644204.0, -13683.654, -0.00030978548, -0.0022159272, -566856.1, -54827.234, 0.0, 5.001198, 4.9537716 
6.5346843e+2, 2.527049e+2, -529064.6, -598972.9, -13545.126, 0.003297607, -0.0037715381, -526531.94, -63039.746, 0.0, 4.997931, 4.9537644 
6.5333337e+2, 2.5765753e+2, -489062.84, -554273.44, -13408.879, 0.006768781, -0.0050765947, -486413.3, -71457.84, 0.0, 4.994666, 4.953551 
6.53199e+2, 2.626084e+2, -453659.88, -519206.34, -11198.678, 0.007146556, 0.0058948915, -451799.38, -85363.24, 0.0, 4.9913073, 4.949932 
6.530661e+2, 2.6755905e+2, -411017.84, -468082.63, -10951.307, 0.0044328803, 0.003567825, -408988.34, -91069.66, 0.0, 4.987928, 4.95196 
6.5293324e+2, 2.725097e+2, -370898.0, -422721.28, -10847.937, 0.0015429464, -0.00018543289, -368718.88, -99317.73, 0.0, 4.9845524, 4.9519606 
6.5280044e+2, 2.774604e+2, -330783.06, -377433.3, -10740.673, -0.0014969449, -0.003938455, -328428.97, -107545.27, 0.0, 4.9811783, 4.9519134 
6.526686e+2, 2.8240815e+2, -297734.63, -346799.1, -9038.185, -0.0023200726, 0.0017866801, -296122.66, -123725.67, 0.0, 4.977582, 4.9467216 
6.525381e+2, 2.873559e+2, -255198.86, -294036.9, -8970.841, -0.0011740705, -0.0034957468, -253226.89, -129313.91, 0.0, 4.973813, 4.949429 
6.524078e+2, 2.923038e+2, -215935.66, -248841.64, -8997.404, -0.000103303864, -0.009616869, -213636.2, -138208.66, 0.0, 4.97005, 4.9494452 
6.522776e+2, 2.972517e+2, -176612.64, -203578.31, -9024.263, 0.0009008592, -0.015769431, -173871.3, -146929.3, 0.0, 4.966289, 4.9494615 
6.521512e+2, 3.0221775e+2, -119190.555, -87339.45, -3117.6687, -0.0013184736, 0.005090476, -87037.16, -87037.16, 0.0, 4.963171, 4.9837337 
6.5203214e+2, 3.0720505e+2, -120368.74, -78829.52, -1436.5205, -0.009883887, 0.012202226, -78779.9, -78779.9, 0.0, 4.9610057, 4.987744 
6.519134e+2, 3.1219244e+2, -126148.625, -81333.61, -1284.3508, -0.018683964, 0.015618309, -81296.836, -81296.836, 0.0, 4.9588733, 4.987762 
6.5179455e+2, 3.1717977e+2, -131908.06, -83865.78, -1104.069, -0.027758105, 0.018076874, -83840.42, -83840.42, 0.0, 4.95674, 4.9877796 
6.619928e+2, 1.2393082e+2, -1542656.6, -1729387.0, 926.5475, 0.01477068, 0.013950418, -1542652.0, 182829.34, 0.0, 5.0848927, 4.9618907 
6.61868e+2, 1.2889086e+2, -1504415.6, -1686645.1, 294.12177, 0.011837907, 0.011496219, -1504415.1, 172458.31, 0.0, 5.0815043, 4.961607 
6.61743e+2, 1.3385066e+2, -1465807.6, -1643034.0, -29.192604, 0.007058368, 0.00688713, -1465807.6, 162459.94, 0.0, 5.0780873, 4.961602 
6.6161805e+2, 1.3881047e+2, -1429151.3, -1603488.6, -489.8858, 0.0021283175, 0.0037577546, -1429149.9, 150511.77, 0.0, 5.074652, 4.9602413 
6.614896e+2, 1.4376986e+2, -1388274.3, -1556195.1, -5817.3794, 0.00048982096, 0.007632031, -1388072.9, 142984.94, 0.0, 5.0713315, 4.9613595 
6.613582e+2, 1.4872919e+2, -1349410.8, -1512213.8, -6197.731, -0.000589674, -0.0024419224, -1349175.1, 133278.98, 0.0, 5.0679145, 4.961424 
6.612267e+2, 1.5368849e+2, -1310606.5, -1468397.6, -6547.5576, -0.0017081848, -0.012510535, -1310335.3, 123515.125, 0.0, 5.064496, 4.9614162 
6.6109526e+2, 1.5864787e+2, -1273330.9, -1427871.4, -6962.046, -0.0029657069, -0.021238646, -1273017.9, 112228.375, 0.0, 5.061077, 4.960291 
6.6096133e+2, 1.6360754e+2, -1234140.0, -1383975.3, -10320.985, -0.006144903, -0.010664534, -1233432.5, 103209.38, 0.0, 5.057717, 4.960281 
6.6082513e+2, 1.6856769e+2, -1195008.3, -1339527.4, -10521.648, -0.009953885, -0.0026819552, -1194246.3, 93788.055, 0.0, 5.0542865, 4.9604278 
6.60689e+2, 1.7352784e+2, -1156060.5, -1295490.9, -10671.033, -0.013832169, 0.00538733, -1155248.6, 84178.05, 0.0, 5.050852, 4.9604197 
6.6055304e+2, 1.7848796e+2, -1118337.0, -1254121.6, -10779.386, -0.01768341, 0.01390291, -1117486.6, 73332.695, 0.0, 5.047416, 4.9594994 
6.6041595e+2, 1.8344577e+2, -1079967.1, -1212515.9, -13272.884, -0.016626239, 0.018579952, -1078651.1, 63582.63, 0.0, 5.0441523, 4.958581 
6.6027766e+2, 1.8840258e+2, -1039847.2, -1166960.9, -13590.234, -0.012382091, 0.008135339, -1038410.44, 55247.01, 0.0, 5.040899, 4.9589386 
6.6013944e+2, 1.9335939e+2, -1000188.2, -1122412.5, -13877.552, -0.008109393, -0.002454329, -998632.3, 46448.67, 0.0, 5.0376396, 4.9589405 
6.600013e+2, 1.9831623e+2, -961325.5, -1079604.8, -14126.678, -0.003920643, -0.012499053, -959661.7, 36842.44, 0.0, 5.0343738, 4.958337 
6.598619e+2, 2.0327313e+2, -922550.5, -1037254.9, -15603.114, -0.0027528158, -0.0076059154, -920465.94, 27458.738, 0.0, 5.0311184, 4.9575543 
6.597215e+2, 2.0823023e+2, -882308.56, -991287.25, -15794.01, -0.0026680576, -0.0066404757, -880065.75, 19276.5, 0.0, 5.027799, 4.9580097 
6.595812e+2, 2.1318737e+2, -842694.44, -946637.9, -15884.038, -0.0026961097, -0.0054405425, -840321.3, 10438.193, 0.0, 5.0244627, 4.958004 
6.594409e+2, 2.1814455e+2, -804158.0, -904303.06, -15855.054, -0.0030445918, -0.0032709758, -801707.75, 468.68088, 0.0, 5.021107, 4.9571943 
6.593006e+2, 2.2309981e+2, -768049.1, -867405.0, -15714.44, -0.0052286168, 0.008723124, -765622.94, -12006.736, 0.0, 5.0177627, 4.9544787 
6.591604e+2, 2.280537e+2, -727248.06, -820420.4, -15976.083, -0.0063005774, 0.006315824, -724584.8, -19513.201, 0.0, 5.0144453, 4.955201 
6.590203e+2, 2.3300762e+2, -687372.2, -775489.44, -16156.502, -0.0074011097, 0.003643386, -684503.25, -27976.373, 0.0, 5.0111256, 4.955199 
6.5888023e+2, 2.3796153e+2, -648097.8, -731939.3, -16284.249, -0.008547788, 0.00088505185, -645046.06, -37063.777, 0.0, 5.0078063, 4.9546976 
6.5874106e+2, 2.4291421e+2, -610118.44, -691277.8, -15489.737, -0.0069499053, 0.0056063393, -607262.6, -47816.484, 0.0, 5.004507, 4.9531302 
6.5860265e+2, 2.478669e+2, -568677.9, -643276.7, -15505.836, -0.002384842, 0.0018158561, -565583.25, -54675.617, 0.0, 5.0012393, 4.9541035 
6.5846443e+2, 2.5281963e+2, -528486.2, -598063.0, -15505.056, 0.0020839272, -0.0021365, -525187.3, -62818.457, 0.0, 4.997965, 4.9540963 
6.5832615e+2, 2.5777236e+2, -488531.16, -553402.1, -15483.565, 0.0064399173, -0.0059034387, -485025.0, -71194.94, 0.0, 4.9946847, 4.953878 
6.581886e+2, 2.6272345e+2, -453146.63, -518361.5, -13443.808, 0.007519083, 0.003978367, -450483.97, -85175.94, 0.0, 4.9913206, 4.9502535 
6.580523e+2, 2.676744e+2, -410556.78, -467342.1, -13293.093, 0.005237146, 0.0015660631, -407599.03, -90811.25, 0.0, 4.987937, 4.952249 
6.579161e+2, 2.726253e+2, -370482.97, -422009.34, -13260.369, 0.002716094, -0.002273849, -367270.66, -99003.19, 0.0, 4.9845457, 4.952248 
6.5778e+2, 2.7757627e+2, -330436.47, -376803.78, -13189.295, -0.000026186497, -0.006092048, -326947.28, -107200.06, 0.0, 4.981157, 4.95218 
6.576445e+2, 2.8252435e+2, -297509.94, -346498.1, -11860.683, -0.0011545022, 0.0007908669, -294789.38, -123531.56, 0.0, 4.977566, 4.946872 
6.575103e+2, 2.8747246e+2, -254954.13, -293795.22, -11837.234, -0.0010114722, -0.002377931, -251630.92, -128859.85, 0.0, 4.973816, 4.949552 
6.5737605e+2, 2.924207e+2, -215697.36, -248606.1, -11881.062, -0.0009541656, -0.0062952708, -211856.27, -137573.33, 0.0, 4.9700503, 4.9495673 
6.5724194e+2, 2.9736894e+2, -176390.81, -203353.28, -11924.384, -0.0009922481, -0.010153761, -171873.86, -146079.3, 0.0, 4.9662843, 4.9495826 
6.5711266e+2, 3.023351e+2, -118623.84, -86439.72, -4646.4883, -0.0035809611, 0.009358562, -85782.32, -85782.32, 0.0, 4.9631915, 4.984072 
6.5699166e+2, 3.0732203e+2, -119977.52, -78167.19, -2988.489, -0.012110428, 0.008869335, -77954.66, -77954.66, 0.0, 4.9610014, 4.988003 
6.568708e+2, 3.1230906e+2, -125827.266, -80636.336, -2781.5461, -0.02109184, 0.00514458, -80465.77, -80465.77, 0.0, 4.9588404, 4.988041 
6.567499e+2, 3.172961e+2, -131655.9, -83133.13, -2545.4055, -0.030521056, 0.0008729569, -82999.97, -82999.97, 0.0, 4.956679, 4.988078 
6.670788e+2, 1.2405463e+2, -1531514.0, -1723835.0, 6366.597, 0.019390363, 0.0032438627, -1531303.5, 192958.34, 0.0, 5.0888577, 4.9617357 
6.6695e+2, 1.2901457e+2, -1494005.8, -1680970.6, 6073.1133, 0.013137516, 0.0019513346, -1493808.6, 181847.02, 0.0, 5.0851192, 4.9616656 
6.6682124e+2, 1.3397452e+2, -1456349.4, -1637844.6, 5837.986, 0.0068145976, 0.00077236386, -1456161.8, 170887.64, 0.0, 5.0813813, 4.961662 
6.666925e+2, 1.3893445e+2, -1420524.4, -1598669.3, 5431.6523, 0.00059672643, 0.00083362183, -1420358.9, 158084.34, 0.0, 5.0776534, 4.9603243 
6.6656053e+2, 1.4389381e+2, -1380257.8, -1551824.5, 304.6666, -0.0006734583, 0.0064774808, -1380257.1, 149583.95, 0.0, 5.074154, 4.9613833 
6.664256e+2, 1.4885305e+2, -1341843.3, -1508144.9, 24.088905, -0.0015450048, -0.0015378055, -1341843.3, 139396.55, 0.0, 5.070604, 4.9614162 
6.6629064e+2, 1.5381226e+2, -1303423.4, -1464515.6, -252.21927, -0.002472759, -0.009547393, -1303422.9, 129215.56, 0.0, 5.067056, 4.961412 
6.6615576e+2, 1.5877153e+2, -1266337.6, -1423782.3, -612.89343, -0.0035658297, -0.016357474, -1266335.3, 117701.3, 0.0, 5.0635095, 4.9604206 
6.6601837e+2, 1.6373102e+2, -1227265.1, -1379451.3, -3864.4543, -0.005803969, -0.007833802, -1227167.1, 108266.42, 0.0, 5.060003, 4.9606285 
6.6587883e+2, 1.6869083e+2, -1188660.4, -1335362.9, -3905.9385, -0.008223522, -0.00319221, -1188556.5, 98271.29, 0.0, 5.0564156, 4.9607334 
6.6573936e+2, 1.7365065e+2, -1150155.9, -1291550.0, -3926.1702, -0.010736373, 0.0016043375, -1150047.0, 88174.945, 0.0, 5.05283, 4.9607253 
6.656e+2, 1.7861046e+2, -1112863.8, -1250411.0, -3910.9875, -0.013265013, 0.0069097634, -1112752.6, 76863.75, 0.0, 5.0492506, 4.9597983 
6.654594e+2, 1.8356833e+2, -1075063.1, -1209345.0, -6118.373, -0.013014643, 0.012721918, -1074784.9, 66245.82, 0.0, 5.0458474, 4.958764 
6.653176e+2, 1.8852538e+2, -1035374.94, -1164087.1, -6305.1743, -0.010795308, 0.006506293, -1035066.75, 57386.465, 0.0, 5.0424657, 4.959085 
6.6517586e+2, 1.9348241e+2, -996069.2, -1119715.4, -6475.694, -0.008455728, -0.0000404214, -995730.94, 48144.883, 0.0, 5.0390863, 4.959087 
6.650342e+2, 1.9843945e+2, -957481.1, -1076958.9, -6622.269, -0.0060475064, -0.006411797, -957115.2, 38183.117, 0.0, 5.0357084, 4.958521 
6.648915e+2, 2.0339617e+2, -918938.7, -1034658.0, -8014.606, -0.004797136, -0.0023285586, -918386.25, 28334.568, 0.0, 5.0323625, 4.957767 
6.6474783e+2, 2.0835283e+2, -878894.0, -988834.25, -8251.343, -0.003785263, -0.0040515386, -878278.2, 19864.076, 0.0, 5.0289893, 4.9581985 
6.6460425e+2, 2.1330954e+2, -839370.4, -944189.56, -8430.27, -0.002843004, -0.0055990024, -838696.7, 10866.48, 0.0, 5.0256166, 4.958208 
6.644607e+2, 2.1826632e+2, -800789.5, -901651.3, -8532.36, -0.0021286584, -0.0062837554, -800072.8, 910.70056, 0.0, 5.022242, 4.957478 
6.643171e+2, 2.2322156e+2, -764855.0, -864574.9, -8297.284, -0.0034387663, 0.004626725, -764169.3, -11745.838, 0.0, 5.018785, 4.9548798 
6.641735e+2, 2.2817568e+2, -724624.8, -817956.7, -8367.739, -0.004612341, 0.0042815255, -723880.5, -20003.855, 0.0, 5.0152907, 4.955559 
6.6402996e+2, 2.3312984e+2, -685257.06, -773264.3, -8353.575, -0.0058381124, 0.0037699668, -684471.2, -29141.422, 0.0, 5.011796, 4.955555 
6.638865e+2, 2.3808397e+2, -646484.0, -729939.7, -8275.877, -0.0071499553, 0.003254103, -645671.25, -38888.273, 0.0, 5.0083013, 4.955056 
6.6374385e+2, 2.4303676e+2, -608945.7, -689414.9, -7307.38, -0.0062626447, 0.008628477, -608287.5, -50041.652, 0.0, 5.0048375, 4.9535174 
6.63602e+2, 2.4798937e+2, -567924.7, -641690.5, -7435.2256, -0.0028043636, 0.004045738, -567182.7, -57474.664, 0.0, 5.0014415, 4.954454 
6.6346025e+2, 2.5294203e+2, -528066.06, -596595.7, -7552.568, 0.0007807191, -0.0007851647, -527243.56, -66073.75, 0.0, 4.9980454, 4.954459 
6.633187e+2, 2.578947e+2, -488425.9, -552054.25, -7668.696, 0.0045096325, -0.0055316887, -487514.7, -74883.2, 0.0, 4.9946523, 4.9542494 
6.631778e+2, 2.6284578e+2, -453241.7, -516709.56, -5739.719, 0.006098591, 0.0035210818, -452726.8, -88617.85, 0.0, 4.991143, 4.9507957 
6.6303813e+2, 2.6779684e+2, -411230.34, -466035.84, -5605.732, 0.0051307464, 0.00041721424, -410662.84, -95075.086, 0.0, 4.987573, 4.9527535 
6.628986e+2, 2.727479e+2, -371649.53, -420910.13, -5558.1943, 0.004014135, -0.0040818225, -371030.2, -103963.63, 0.0, 4.9840064, 4.952757 
6.6275907e+2, 2.7769893e+2, -332150.44, -375976.38, -5515.7725, 0.0027910655, -0.008527547, -331466.9, -112921.59, 0.0, 4.9804306, 4.9526744 
6.626202e+2, 2.8264752e+2, -297888.22, -344159.16, -3669.069, 0.0013675066, -0.00040637844, -297599.1, -127548.13, 0.0, 4.9771442, 4.947766 
6.624824e+2, 2.875964e+2, -253314.73, -290724.22, -3002.117, -0.00044405035, -0.000655276, -253075.34, -131519.38, 0.0, 4.974147, 4.950377 
6.623445e+2, 2.9254535e+2, -212032.63, -244698.83, -2457.5972, -0.0021360903, -0.0019187717, -211848.77, -138788.2, 0.0, 4.971119, 4.95037 
6.6220677e+2, 2.9749423e+2, -170849.81, -198682.0, -1949.0775, -0.0037184278, -0.003371918, -170713.98, -146148.3, 0.0, 4.968038, 4.9503636 
6.6207457e+2, 3.0245924e+2, -118041.805, -89791.18, 3771.4094, -0.0048224526, 0.013185163, -89296.375, -89296.375, 0.0, 4.964298, 4.982262 
6.6195107e+2, 3.0744314e+2, -124455.12, -84062.305, 830.0943, -0.008644054, 0.00476769, -84045.25, -84045.25, 0.0, 4.960331, 4.9860554 
6.6182774e+2, 3.1242737e+2, -135012.78, -88429.06, -3255.3013, -0.012954663, -0.006467227, -88202.68, -88202.68, 0.0, 4.95644, 4.9861684 
6.617044e+2, 3.1741184e+2, -145477.28, -92760.836, -7151.6514, -0.017755192, -0.017934524, -91807.85, -91807.85, 0.0, 4.952587, 4.986285 
6.7216647e+2, 1.24182425e+2, -1531617.3, -1724508.8, 3551.9485, 0.022793984, -0.007755552, -1531551.9, 191451.52, 0.0, 5.0888934, 4.9615264 
6.7203367e+2, 1.2914252e+2, -1494019.3, -1681452.5, 3321.9595, 0.01478897, -0.006142953, -1493960.4, 180436.2, 0.0, 5.0851545, 4.9615197 
6.71901e+2, 1.3410263e+2, -1456362.5, -1638333.6, 3090.0234, 0.0066803843, -0.004339582, -1456310.0, 169479.66, 0.0, 5.0814176, 4.9615135 
6.7176837e+2, 1.3906269e+2, -1420493.6, -1599095.0, 2668.3835, -0.001095549, -0.0015378726, -1420453.8, 156729.4, 0.0, 5.0776935, 4.9601965 
6.7163277e+2, 1.4402208e+2, -1380324.6, -1552459.9, -2339.092, -0.002169191, 0.00580948, -1380292.9, 148289.28, 0.0, 5.0741963, 4.961187 
6.7149425e+2, 1.489813e+2, -1341930.0, -1508816.3, -2603.794, -0.0027630518, -0.0000225493, -1341889.4, 138092.97, 0.0, 5.0706453, 4.9612074 
6.713558e+2, 1.5394054e+2, -1303511.3, -1465185.6, -2878.4443, -0.0034212493, -0.0058231093, -1303460.0, 127922.47, 0.0, 5.0670967, 4.9612036 
6.712174e+2, 1.5889983e+2, -1266232.1, -1424041.6, -3269.124, -0.0042547053, -0.010573227, -1266164.4, 116617.46, 0.0, 5.0635495, 4.9603496 
6.710764e+2, 1.6385919e+2, -1226856.8, -1379043.9, -6557.9224, -0.0054049557, -0.0042721815, -1226574.6, 107604.68, 0.0, 5.06004, 4.960782 
6.709335e+2, 1.6881876e+2, -1188313.6, -1335070.9, -6578.7847, -0.0063624065, -0.0033101628, -1188019.3, 97555.3, 0.0, 5.05645, 4.9608502 
6.707906e+2, 1.7377833e+2, -1149819.4, -1291266.5, -6596.551, -0.0074642515, -0.0021002758, -1149512.5, 87457.26, 0.0, 5.052862, 4.960841 
6.7064774e+2, 1.787379e+2, -1112579.5, -1250241.6, -6579.92, -0.00872046, -0.00014800025, -1112265.8, 76099.38, 0.0, 5.049283, 4.9598756 
6.7050356e+2, 1.8369596e+2, -1074894.3, -1209455.9, -8678.709, -0.009508241, 0.00726839, -1074336.8, 65441.09, 0.0, 5.0458875, 4.9587426 
6.703582e+2, 1.8865338e+2, -1035274.06, -1164330.9, -8850.671, -0.009385327, 0.005399857, -1034669.94, 56527.957, 0.0, 5.042503, 4.95902 
6.702128e+2, 1.9361079e+2, -995978.2, -1119968.1, -9016.88, -0.009182506, 0.0032984612, -995325.9, 47292.082, 0.0, 5.039121, 4.95902 
6.7006755e+2, 1.985682e+2, -957361.56, -1077146.1, -9171.998, -0.008892506, 0.0012973467, -956663.3, 37374.58, 0.0, 5.0357428, 4.958477 
6.699215e+2, 2.0352481e+2, -918791.4, -1034805.8, -10588.693, -0.0075368597, 0.004565111, -917832.8, 27628.816, 0.0, 5.0324006, 4.9577365 
6.697746e+2, 2.0848107e+2, -878801.4, -989095.6, -10809.103, -0.005393527, -0.00038826256, -877752.06, 19134.9, 0.0, 5.029026, 4.9581304 
6.696277e+2, 2.134374e+2, -839283.1, -944459.2, -10983.897, -0.003349158, -0.0051222066, -838148.3, 10163.499, 0.0, 5.0256524, 4.958138 
6.694809e+2, 2.1839377e+2, -800594.2, -901682.94, -11106.807, -0.0014995727, -0.0090413485, -799388.2, 347.93665, 0.0, 5.0222774, 4.957489 
6.69334e+2, 2.2334903e+2, -764356.2, -863966.44, -10970.991, -0.0017566126, 0.00052941137, -763162.2, -11986.701, 0.0, 5.018824, 4.9551086 
6.691869e+2, 2.2830352e+2, -724198.06, -817504.8, -11042.635, -0.0026587667, 0.002051268, -722909.0, -20284.56, 0.0, 5.0153294, 4.9557357 
6.6903985e+2, 2.3325804e+2, -684836.56, -772823.75, -11026.15, -0.0036512872, 0.0034501164, -683475.9, -29402.436, 0.0, 5.0118337, 4.9557295 
6.6889286e+2, 2.3821253e+2, -646061.5, -729490.4, -10946.434, -0.0047866316, 0.004861758, -644649.1, -39126.535, 0.0, 5.008338, 4.955235 
6.6874677e+2, 2.4316551e+2, -608655.1, -689277.2, -9905.837, -0.0046405545, 0.010859446, -607455.9, -50472.56, 0.0, 5.0048785, 4.953585 
6.686014e+2, 2.4811812e+2, -567697.94, -641701.8, -10048.469, -0.0028753334, 0.005919777, -566357.8, -57911.824, 0.0, 5.001483, 4.95447 
6.6845614e+2, 2.5307074e+2, -527839.25, -596611.06, -10166.122, -0.0010256541, 0.00072524126, -526367.94, -66459.58, 0.0, 4.9980874, 4.9544744 
6.6831094e+2, 2.5802338e+2, -488188.84, -552050.8, -10280.19, 0.0009454581, -0.004390947, -486574.78, -75204.18, 0.0, 4.9946947, 4.9542713 
6.6816664e+2, 2.6297462e+2, -452682.6, -515978.22, -8474.043, 0.0029952452, 0.0039051708, -451567.72, -88720.195, 0.0, 4.991184, 4.9510717 
6.6802365e+2, 2.679258e+2, -410727.06, -465433.22, -8365.342, 0.0041550696, -0.00015923468, -409476.5, -95151.305, 0.0, 4.987614, 4.9529862 
6.678807e+2, 2.7287698e+2, -371149.44, -420312.3, -8318.657, 0.005123405, -0.0055803023, -369780.03, -103977.13, 0.0, 4.9840474, 4.9529886 
6.6773784e+2, 2.778282e+2, -331588.34, -375300.44, -8253.934, 0.005937603, -0.010928971, -330081.72, -112801.13, 0.0, 4.980484, 4.952929 
6.675957e+2, 2.8277755e+2, -296219.38, -341136.94, -5898.8545, 0.004111243, -0.0017499091, -295457.63, -126679.945, 0.0, 4.977229, 4.948836 
6.674547e+2, 2.8772774e+2, -251619.88, -287825.72, -5217.825, 0.000059132337, 0.0011331202, -250882.9, -130615.14, 0.0, 4.974269, 4.9513917 
6.673137e+2, 2.92678e+2, -210144.78, -241720.58, -4575.1665, -0.0038987442, 0.0030673118, -209495.22, -137737.72, 0.0, 4.9713135, 4.951384 
6.6717273e+2, 2.976282e+2, -168870.72, -196134.5, -3881.028, -0.0077549075, 0.004906339, -168329.02, -145081.2, 0.0, 4.968359, 4.9511724 
6.6703755e+2, 3.0259037e+2, -123755.59, -105054.805, 825.7956, -0.0052380925, 0.016323, -105018.414, -105018.414, 0.0, 4.9646387, 4.976625 
6.6691107e+2, 3.075674e+2, -130560.14, -99850.13, -2548.0483, 0.0012067854, -0.0019328817, -99640.16, -99640.16, 0.0, 4.9606075, 4.9802485 
6.6678476e+2, 3.1254476e+2, -141394.34, -104270.64, -7207.7124, 0.0070208404, -0.022699693, -102920.35, -102920.35, 0.0, 4.9566083, 4.9803967 
6.6665715e+2, 3.1752244e+2, -169945.58, -149230.66, -4400.883, -0.0014878968, -0.042702287, -148334.45, -148334.45, 0.0, 4.9525843, 4.9659452 
6.7725396e+2, 1.2431027e+2, -1531628.6, -1724988.1, 800.24774, 0.025947072, -0.018184612, -1531625.4, 190119.13, 0.0, 5.08893, 4.9613805 
6.771172e+2, 1.2927052e+2, -1494030.0, -1681938.6, 573.5796, 0.01625859, -0.013714137, -1494028.3, 179108.73, 0.0, 5.0851917, 4.9613714 
6.769807e+2, 1.3423078e+2, -1456372.9, -1638826.8, 344.83334, 0.00640696, -0.009043062, -1456372.3, 168157.3, 0.0, 5.0814557, 4.961363 
6.768441e+2, 1.3919094e+2, -1420522.0, -1599659.5, -97.05986, -0.0028242213, -0.0036046514, -1420522.0, 155400.81, 0.0, 5.077736, 4.960022 
6.767049e+2, 1.4415036e+2, -1380367.5, -1553054.0, -4974.7446, -0.0036988333, 0.005515358, -1380224.3, 147098.64, 0.0, 5.0742407, 4.9610033 
6.7656285e+2, 1.4910959e+2, -1342013.9, -1509491.5, -5232.6733, -0.004009252, 0.0017566044, -1341850.5, 136874.2, 0.0, 5.0706882, 4.9609966 
6.764209e+2, 1.5406883e+2, -1303596.4, -1465859.4, -5505.6646, -0.0043945345, -0.0019475039, -1303409.8, 126716.664, 0.0, 5.067139, 4.9609933 
6.7627895e+2, 1.5902813e+2, -1266126.6, -1424312.5, -5929.769, -0.0049667833, -0.004744652, -1265904.6, 115622.49, 0.0, 5.063591, 4.960275 
6.7613447e+2, 1.6398737e+2, -1226465.0, -1378680.3, -9248.403, -0.004990956, -0.0007149427, -1225905.1, 107019.91, 0.0, 5.060079, 4.9609213 
6.759881e+2, 1.6894665e+2, -1187964.5, -1334782.5, -9250.918, -0.0044562444, -0.0035435706, -1187383.9, 96937.43, 0.0, 5.056486, 4.9609656 
6.7584175e+2, 1.7390598e+2, -1149480.6, -1290986.6, -9266.224, -0.004116905, -0.006031875, -1148876.4, 86841.055, 0.0, 5.052896, 4.9609556 
6.756954e+2, 1.7886533e+2, -1112348.3, -1250198.9, -9236.038, -0.0041562817, -0.007328882, -1111732.3, 75381.516, 0.0, 5.049318, 4.95991 
6.7554766e+2, 1.8382363e+2, -1074721.6, -1209566.4, -11233.814, -0.0061917347, 0.002291929, -1073792.3, 64732.53, 0.0, 5.045929, 4.95872 
6.753987e+2, 1.8878141e+2, -1035171.3, -1164578.3, -11395.089, -0.008121653, 0.004618278, -1034175.56, 55766.715, 0.0, 5.042542, 4.958953 
6.7524976e+2, 1.9373919e+2, -995885.2, -1120224.5, -11556.993, -0.010013325, 0.006808499, -994820.1, 46539.727, 0.0, 5.039158, 4.9589515 
6.7510086e+2, 1.9869696e+2, -957281.2, -1077428.6, -11713.016, -0.011808195, 0.009080228, -956149.94, 36627.406, 0.0, 5.0357785, 4.9584007 
6.749515e+2, 2.0365345e+2, -918651.6, -1034979.6, -13160.725, -0.0103303855, 0.011632841, -917181.3, 27021.14, 0.0, 5.0324407, 4.957696 
6.748013e+2, 2.0860931e+2, -878706.25, -989360.8, -13364.865, -0.006986448, 0.003262783, -877114.94, 18516.791, 0.0, 5.0290647, 4.9580593 
6.746512e+2, 2.1356522e+2, -839193.4, -944732.75, -13535.534, -0.003770561, -0.0048415675, -837485.06, 9575.481, 0.0, 5.02569, 4.958065 
6.745011e+2, 2.185212e+2, -800432.7, -901800.25, -13676.683, -0.00075916655, -0.012096027, -798619.8, -130.9421, 0.0, 5.0223145, 4.9574704 
6.743508e+2, 2.2347654e+2, -763859.6, -863372.4, -13640.691, -0.00023673655, -0.0031804962, -762023.7, -12096.581, 0.0, 5.0188646, 4.9553328 
6.742002e+2, 2.284314e+2, -723768.75, -817056.7, -13714.421, -0.0007856164, 0.00009938079, -721794.3, -20422.354, 0.0, 5.0153694, 4.955911 
6.7404974e+2, 2.3338626e+2, -684413.44, -772386.94, -13695.621, -0.0014631817, 0.0032914479, -682330.6, -29513.736, 0.0, 5.0118732, 4.9559026 
6.738993e+2, 2.383411e+2, -645662.94, -729104.1, -13607.251, -0.0023710115, 0.006529192, -643500.0, -39237.934, 0.0, 5.008377, 4.955392 
6.737496e+2, 2.4329428e+2, -608361.8, -689142.94, -12503.153, -0.0031707422, 0.013139467, -606470.8, -50750.03, 0.0, 5.0049214, 4.9536514 
6.7360073e+2, 2.4824686e+2, -567468.3, -641716.3, -12659.833, -0.003061496, 0.0078103505, -565369.06, -58185.094, 0.0, 5.0015264, 4.9544854 
6.7345184e+2, 2.5319946e+2, -527609.5, -596629.7, -12777.799, -0.0029107335, 0.0022180541, -525319.9, -66672.96, 0.0, 4.9981313, 4.9544888 
6.733031e+2, 2.5815207e+2, -487940.2, -552031.0, -12897.726, -0.0026512737, -0.0032991709, -485442.0, -75332.24, 0.0, 4.9947386, 4.9542994 
6.7315537e+2, 2.631034e+2, -452124.44, -515259.3, -11202.091, -0.000047185382, 0.0042842976, -450195.75, -88609.71, 0.0, 4.991227, 4.9513445 
6.730091e+2, 2.6805475e+2, -410220.63, -464834.13, -11123.965, 0.00324771, -0.00075302535, -408041.78, -94979.19, 0.0, 4.9876575, 4.953218 
6.7286277e+2, 2.7300608e+2, -370646.2, -419718.0, -11078.135, 0.006307532, -0.0071180537, -368261.2, -103721.945, 0.0, 4.9840903, 4.95322 
6.727166e+2, 2.7795744e+2, -331018.66, -374561.4, -10971.693, 0.009148808, -0.013389856, -328410.3, -112394.48, 0.0, 4.9805284, 4.953212 
6.7257124e+2, 2.8290763e+2, -294627.53, -338182.2, -8178.3345, 0.0067240708, -0.0028646332, -293142.53, -125638.74, 0.0, 4.9772925, 4.949893 
6.72427e+2, 2.8785914e+2, -250090.03, -285012.66, -7517.514, 0.0004101699, 0.0030192633, -248540.55, -129561.58, 0.0, 4.9743333, 4.9524035 
6.722828e+2, 2.928107e+2, -208624.7, -238920.7, -6872.4233, -0.005834145, 0.008025654, -207138.64, -136684.75, 0.0, 4.9713774, 4.9523945 
6.721387e+2, 2.9776224e+2, -167848.72, -194460.98, -6234.7383, -0.0119684925, 0.013055302, -166460.47, -144531.06, 0.0, 4.96842, 4.951785 
6.7200047e+2, 3.027211e+2, -130599.25, -121312.26, -2318.6917, -0.0048549855, 0.019223984, -120765.53, -120765.53, 0.0, 4.9646664, 4.9707727 
6.71871e+2, 3.0769113e+2, -137432.39, -116093.29, -5710.4297, 0.011430465, -0.010903665, -114661.26, -114661.26, 0.0, 4.9606333, 4.974392 
6.717418e+2, 3.1266156e+2, -148286.94, -120453.31, -10300.077, 0.026859239, -0.043341212, -117056.27, -117056.27, 0.0, 4.9566283, 4.974566 
6.7160153e+2, 3.1759012e+2, -55665.617, 113793.234, -2533.193, -0.070814535, -0.5216536, 113831.09, 113831.09, 0.0, 4.9523234, 5.063282 
6.82341e+2, 1.2443917e+2, -1531456.6, -1724979.9, 859.45996, 0.026027452, -0.025014251, -1531452.8, 189025.7, 0.0, 5.089009, 4.961358 
6.8220055e+2, 1.2939942e+2, -1493849.9, -1681920.3, 671.4071, 0.015764756, -0.0190482, -1493847.4, 178023.64, 0.0, 5.085269, 4.9613523 
6.820602e+2, 1.3435966e+2, -1456242.9, -1638828.1, 484.69632, 0.0055726226, -0.013011753, -1456241.6, 167022.05, 0.0, 5.0815105, 4.961346 
6.8191993e+2, 1.393198e+2, -1420509.4, -1599714.1, 91.04019, -0.0036202422, -0.006399561, -1420509.3, 154148.03, 0.0, 5.0777483, 4.9600053 
6.81777e+2, 1.4427927e+2, -1380473.5, -1553183.9, -4517.9272, -0.0042504417, 0.004287992, -1380355.4, 145702.44, 0.0, 5.0742188, 4.9609733 
6.816314e+2, 1.4923854e+2, -1342214.3, -1509700.0, -4682.9355, -0.0044446965, 0.002425841, -1342083.5, 135376.77, 0.0, 5.070639, 4.9609528 
6.814859e+2, 1.541978e+2, -1303879.8, -1466113.8, -4869.906, -0.004657796, 0.00046665623, -1303733.8, 125128.98, 0.0, 5.0670614, 4.960946 
6.813404e+2, 1.591571e+2, -1266352.5, -1424372.0, -5260.187, -0.0049851146, -0.00090797996, -1266177.6, 114086.89, 0.0, 5.0634956, 4.960303 
6.8119246e+2, 1.6411616e+2, -1226252.1, -1378426.9, -8759.7295, -0.0043091727, 0.0016213482, -1225749.5, 105914.28, 0.0, 5.060111, 4.9609976 
6.810426e+2, 1.6907516e+2, -1187305.1, -1334329.4, -9101.086, -0.002868961, -0.003734138, -1186743.9, 96318.15, 0.0, 5.0566745, 4.9610367 
6.808928e+2, 1.7403421e+2, -1148423.4, -1290326.6, -9430.659, -0.0014808486, -0.008993473, -1147799.4, 86660.83, 0.0, 5.0532184, 4.961035 
6.807431e+2, 1.7899328e+2, -1111073.5, -1249555.0, -9647.222, -0.00054053456, -0.0128345, -1110404.6, 75453.45, 0.0, 5.0497403, 4.9599385 
6.8059176e+2, 1.8395174e+2, -1073543.9, -1208948.9, -11660.09, -0.00347497, -0.0013988132, -1072547.1, 64720.73, 0.0, 5.0463114, 4.9587593 
6.804392e+2, 1.8890977e+2, -1034259.94, -1164187.8, -11839.129, -0.006847794, 0.0039290586, -1033190.0, 55493.69, 0.0, 5.0428486, 4.9589524 
6.802867e+2, 1.9386782e+2, -995203.7, -1119961.8, -12036.941, -0.010241404, 0.009247843, -994052.94, 46046.54, 0.0, 5.039386, 4.958946 
6.801343e+2, 1.9882584e+2, -956903.25, -1077427.9, -12231.142, -0.013578124, 0.014773066, -955674.5, 35840.754, 0.0, 5.035924, 4.9583473 
6.7998147e+2, 2.0378223e+2, -918267.9, -1034889.5, -13781.088, -0.0121438075, 0.017195093, -916661.5, 26280.178, 0.0, 5.0325694, 4.957683 
6.798279e+2, 2.0873772e+2, -878316.5, -989364.56, -14166.591, -0.007982431, 0.0063143875, -876537.75, 17836.945, 0.0, 5.0292115, 4.958009 
6.7967457e+2, 2.1369325e+2, -838774.5, -944734.1, -14503.698, -0.0038431827, -0.0045606564, -836825.06, 8982.34, 0.0, 5.0258465, 4.958013 
6.7952126e+2, 2.1864884e+2, -799960.3, -901716.94, -14799.899, 0.0001353921, -0.014718074, -797851.5, -611.8187, 0.0, 5.0224743, 4.9574475 
6.793675e+2, 2.2360425e+2, -762943.5, -862536.1, -15034.91, 0.001094392, -0.0060217716, -760723.3, -12046.391, 0.0, 5.0190663, 4.9555526 
6.792135e+2, 2.285594e+2, -722796.25, -816284.56, -15272.76, 0.000920693, -0.0013891715, -720364.44, -20246.17, 0.0, 5.015608, 4.9560947 
6.7905957e+2, 2.3351456e+2, -683389.3, -771594.6, -15402.187, 0.000646931, 0.003260758, -680777.1, -29217.555, 0.0, 5.0121293, 4.956087 
6.7890567e+2, 2.384697e+2, -644685.25, -728417.9, -15427.341, 0.00006234452, 0.008075859, -641933.3, -38932.293, 0.0, 5.0086327, 4.9555426 
6.787524e+2, 2.4342304e+2, -607555.2, -688704.4, -14381.27, -0.0018160872, 0.015284134, -605081.9, -50623.69, 0.0, 5.005148, 4.9537315 
6.7859995e+2, 2.4837561e+2, -566866.6, -641501.1, -14668.349, -0.0033161866, 0.009614722, -564087.3, -58165.406, 0.0, 5.0017037, 4.9545126 
6.7844754e+2, 2.5332817e+2, -527150.25, -596490.9, -14891.5625, -0.004810859, 0.0036467311, -524087.44, -66701.98, 0.0, 4.998258, 4.954514 
6.7829525e+2, 2.5828078e+2, -487595.75, -551903.75, -15111.623, -0.0061990675, -0.0022669085, -484221.72, -75372.79, 0.0, 4.994815, 4.9543447 
6.7814416e+2, 2.632322e+2, -451525.78, -514500.38, -13631.969, -0.0029884838, 0.004665916, -448701.56, -88377.06, 0.0, 4.991289, 4.951618 
6.7799443e+2, 2.6818368e+2, -409672.66, -464190.2, -13680.838, 0.0024160102, -0.001360131, -406432.16, -94632.18, 0.0, 4.987717, 4.953455 
6.778448e+2, 2.7313516e+2, -370140.84, -419102.97, -13694.093, 0.007568773, -0.008697305, -366571.03, -103295.48, 0.0, 4.9841356, 4.953455 
6.776953e+2, 2.7808663e+2, -330463.94, -373768.88, -13532.205, 0.012426936, -0.015888313, -326583.1, -111832.07, 0.0, 4.9805593, 4.9535174 
6.775466e+2, 2.8303775e+2, -293135.3, -335264.22, -10360.63, 0.009205859, -0.0037615898, -290725.22, -124495.98, 0.0, 4.977322, 4.9509516 
6.773992e+2, 2.879906e+2, -248659.94, -282234.06, -9727.742, 0.0006098842, 0.004992986, -246045.1, -128355.484, 0.0, 4.974363, 4.953418 
6.772519e+2, 2.9294345e+2, -207210.0, -236160.13, -9098.182, -0.007939815, 0.0129420515, -204588.14, -135438.42, 0.0, 4.9714046, 4.953407 
6.7710453e+2, 2.9789627e+2, -167592.13, -194319.3, -8605.368, -0.016286522, 0.021156058, -165061.13, -144450.42, 0.0, 4.968439, 4.951869 
6.7696345e+2, 3.0285144e+2, -137545.42, -137555.02, -5423.4077, -0.003669959, 0.021702193, -132126.81, -132126.81, 0.0, 4.9646497, 4.9649506 
6.76831e+2, 3.0781445e+2, -144481.53, -132435.4, -8861.126, 0.022049293, -0.022188263, -127744.13, -127744.13, 0.0, 4.9606037, 4.968529 
6.766987e+2, 3.1277794e+2, -155385.56, -136747.86, -13382.853, 0.046675496, -0.06824229, -129758.99, -129758.99, 0.0, 4.956583, 4.9687295 
6.765388e+2, 3.17765e+2, -79718.6, 60592.387, -13360.864, -0.20914377, 0.09359318, 61853.32, 61853.32, 0.0, 4.9519243, 5.043345 
6.874291e+2, 1.2457794e+2, -1520985.5, -1718471.4, 6322.2197, 0.017915178, -0.027162753, -1520783.4, 198336.17, 0.0, 5.0925045, 4.961734 
6.8728507e+2, 1.2953816e+2, -1484094.4, -1675797.1, 6301.7183, 0.010803447, -0.02211056, -1483887.5, 186624.11, 0.0, 5.0885267, 4.9617233 
6.871411e+2, 1.3449837e+2, -1447142.8, -1633056.5, 6275.4087, 0.00361261, -0.016952546, -1446931.1, 174972.55, 0.0, 5.084551, 4.9617133 
6.869972e+2, 1.3945848e+2, -1411903.4, -1594069.4, 6027.0015, -0.0029431644, -0.011040558, -1411704.1, 161592.8, 0.0, 5.0805945, 4.9604278 
6.8685055e+2, 1.4441815e+2, -1372423.3, -1547995.0, 1785.9883, -0.0034183043, 0.00091129827, -1372405.0, 152290.14, 0.0, 5.0769157, 4.961316 
6.8670124e+2, 1.4937767e+2, -1334600.4, -1504705.1, 1766.9935, -0.00400561, 0.0010837278, -1334582.0, 141513.25, 0.0, 5.073184, 4.9613085 
6.86552e+2, 1.5433714e+2, -1296716.1, -1461346.0, 1742.1848, -0.00458374, 0.0011081096, -1296697.8, 130797.88, 0.0, 5.069455, 4.961303 
6.864029e+2, 1.592966e+2, -1259668.4, -1419905.9, 1520.2561, -0.00507239, 0.0011728401, -1259653.9, 119241.9, 0.0, 5.06574, 4.9606333 
6.862514e+2, 1.6425541e+2, -1220257.3, -1374884.5, -1734.8602, -0.003999475, 0.002772793, -1220237.9, 110060.35, 0.0, 5.0622454, 4.961074 
6.860981e+2, 1.6921407e+2, -1181575.0, -1330954.0, -1982.3141, -0.0024313128, -0.0032563107, -1181548.8, 100152.24, 0.0, 5.0587296, 4.9610972 
6.859449e+2, 1.7417273e+2, -1142859.1, -1287021.9, -2260.36, -0.0008818228, -0.00919994, -1142823.8, 90279.8, 0.0, 5.0552173, 4.9611015 
6.857917e+2, 1.7913145e+2, -1105445.0, -1245898.4, -2496.988, 0.00031369357, -0.013787102, -1105400.6, 79105.11, 0.0, 5.0516973, 4.960146 
6.856368e+2, 1.8408984e+2, -1068003.6, -1204865.1, -4328.1934, -0.0019345835, -0.0031257868, -1067866.9, 68048.59, 0.0, 5.048143, 4.95917 
6.854808e+2, 1.8904786e+2, -1029180.44, -1160395.5, -4314.7334, -0.0047862036, 0.0017619721, -1029038.7, 58291.676, 0.0, 5.044538, 4.959335 
6.8532485e+2, 1.9400586e+2, -990532.4, -1116369.8, -4319.712, -0.0076929345, 0.0067136595, -990384.25, 48361.098, 0.0, 5.040936, 4.9593287 
6.851689e+2, 1.9896384e+2, -952659.75, -1074093.3, -4316.6406, -0.01054455, 0.011885091, -952506.5, 37653.953, 0.0, 5.0373387, 4.9587073 
6.850126e+2, 2.0392019e+2, -914641.44, -1032455.3, -5617.6597, -0.009646496, 0.015350379, -914374.2, 27214.027, 0.0, 5.0339003, 4.9577765 
6.848556e+2, 2.0887557e+2, -874872.7, -987094.7, -5974.5684, -0.006631107, 0.0067132334, -874555.56, 18468.35, 0.0, 5.030496, 4.95807 
6.846987e+2, 2.1383095e+2, -835437.44, -942509.4, -6303.0684, -0.003520929, -0.002157453, -835067.7, 9391.752, 0.0, 5.027093, 4.958079 
6.8454194e+2, 2.1878636e+2, -796637.7, -899381.2, -6603.8545, -0.00040548254, -0.010723307, -796214.94, -320.2848, 0.0, 5.023692, 4.957567 
6.8438476e+2, 2.2374156e+2, -759381.8, -859522.56, -6816.88, 0.00062971504, -0.0031403587, -758919.9, -11586.218, 0.0, 5.020258, 4.955919 
6.8422735e+2, 2.2869645e+2, -719339.7, -813431.75, -7039.8145, 0.0009928925, -0.00032856796, -718815.9, -20039.371, 0.0, 5.0167894, 4.9564114 
6.8407e+2, 2.3365138e+2, -679904.6, -768701.25, -7171.999, 0.0013409834, 0.0026629372, -679329.1, -29110.05, 0.0, 5.01332, 4.956415 
6.839127e+2, 2.3860632e+2, -641131.75, -725487.75, -7207.661, 0.0014735634, 0.005983072, -640520.3, -38858.9, 0.0, 5.00985, 4.9558725 
6.83756e+2, 2.4355957e+2, -604335.3, -686129.94, -6186.874, -0.00042986745, 0.013202016, -603870.0, -50750.668, 0.0, 5.0062895, 4.953978 
6.835999e+2, 2.4851206e+2, -564152.06, -639260.75, -6508.3623, -0.0027688628, 0.008607371, -563592.3, -59008.086, 0.0, 5.0026894, 4.9547157 
6.8344384e+2, 2.5346455e+2, -524871.0, -594435.06, -6760.6196, -0.0051259166, 0.0036337606, -524220.06, -68171.08, 0.0, 4.9990892, 4.954724 
6.832879e+2, 2.5841704e+2, -485757.94, -550052.9, -7014.6543, -0.0073536793, -0.0013714279, -485001.53, -77487.85, 0.0, 4.995493, 4.9545527 
6.8313336e+2, 2.633683e+2, -449718.2, -512574.88, -5712.3643, -0.003901353, 0.0055208826, -449203.28, -90212.23, 0.0, 4.9919443, 4.951864 
6.8298024e+2, 2.6831958e+2, -407711.3, -462277.53, -6167.922, 0.0023710516, -0.0011295071, -407022.8, -96553.83, 0.0, 4.988444, 4.9536686 
6.828272e+2, 2.7327085e+2, -367953.56, -417054.72, -6604.391, 0.008604543, -0.009167181, -367080.75, -105133.87, 0.0, 4.9849367, 4.9536858 
6.826741e+2, 2.7822217e+2, -328081.06, -371548.34, -6847.693, 0.014697168, -0.017110227, -327027.8, -113603.5, 0.0, 4.9814143, 4.9537897 
6.8252224e+2, 2.831734e+2, -290792.56, -332824.34, -4402.412, 0.010368606, -0.0036577717, -290336.4, -125436.03, 0.0, 4.9781213, 4.9513297 
6.8237156e+2, 2.881266e+2, -246617.66, -279922.6, -5355.842, -0.00021232624, 0.0075833136, -245777.56, -129421.41, 0.0, 4.9750547, 4.9538035 
6.8222094e+2, 2.930799e+2, -205419.88, -233835.14, -6160.4604, -0.010684341, 0.018080557, -204141.77, -136331.22, 0.0, 4.971984, 4.953851 
6.820704e+2, 2.9803324e+2, -166925.89, -193959.38, -7069.108, -0.020675724, 0.028916033, -165188.97, -145923.77, 0.0, 4.968902, 4.951666 
6.819263e+2, 3.029862e+2, -139331.5, -142515.5, -1251.7388, -0.0021408044, 0.0222668, -138898.34, -138898.34, 0.0, 4.9650407, 4.9628706 
6.817907e+2, 3.079454e+2, -146760.36, -138391.22, 988.15936, 0.032664813, -0.034576762, -138276.13, -138276.13, 0.0, 4.9609494, 4.9661226 
6.816553e+2, 3.129047e+2, -158248.47, -143593.31, 1779.1581, 0.066857204, -0.09244185, -143380.42, -143380.42, 0.0, 4.956828, 4.9660563 
6.815221e+2, 3.1787756e+2, -103189.086, 6355.308, -3108.398, 0.12223622, -0.027286252, 6443.44, 6443.44, 0.0, 4.952226, 5.022821 
6.925187e+2, 1.24720894e+2, -1520565.0, -1718072.3, 3391.4749, 0.009549387, -0.028496763, -1520506.9, 197212.8, 0.0, 5.0925374, 4.9618845 
6.92371e+2, 1.2968116e+2, -1483674.4, -1675416.8, 3376.3118, 0.005771184, -0.02447499, -1483615.0, 185495.45, 0.0, 5.088562, 4.961869 
6.9222337e+2, 1.346414e+2, -1446723.3, -1632694.9, 3355.3384, 0.0017597692, -0.020326577, -1446662.8, 173838.67, 0.0, 5.0845876, 4.9618535 
6.920758e+2, 1.3960156e+2, -1411422.9, -1593611.4, 3113.6553, -0.0021324742, -0.015115482, -1411369.6, 160523.69, 0.0, 5.0806365, 4.960598 
6.919253e+2, 1.4456156e+2, -1372014.0, -1547656.6, -965.5863, -0.0026375286, -0.0017571815, -1372008.6, 151279.67, 0.0, 5.0769567, 4.961447 
6.917722e+2, 1.495214e+2, -1334185.0, -1504366.1, -986.88556, -0.0036636228, 0.00039253975, -1334179.3, 140505.88, 0.0, 5.073227, 4.961439 
6.916193e+2, 1.544812e+2, -1296298.0, -1461012.6, -1010.94745, -0.0046832417, 0.0024031522, -1296291.9, 129790.44, 0.0, 5.0694995, 4.9614315 
6.914664e+2, 1.5944092e+2, -1259340.5, -1419775.8, -1255.0504, -0.0054410454, 0.004039256, -1259330.8, 118149.14, 0.0, 5.065787, 4.9606934 
6.913113e+2, 1.643996e+2, -1220277.6, -1375449.9, -4357.3916, -0.0039637852, 0.004843423, -1220155.4, 108728.914, 0.0, 5.0622883, 4.960902 
6.911545e+2, 1.6935797e+2, -1181618.4, -1331560.9, -4608.5825, -0.0021705844, -0.0020424093, -1181476.9, 98813.98, 0.0, 5.058771, 4.960912 
6.909978e+2, 1.7431636e+2, -1142909.0, -1287634.1, -4883.3804, -0.00043146792, -0.008787468, -1142744.4, 88952.625, 0.0, 5.055257, 4.9609156 
6.9084114e+2, 1.7927484e+2, -1105292.3, -1246074.8, -5190.819, 0.00094601617, -0.01408718, -1105101.1, 78001.36, 0.0, 5.0517354, 4.960107 
6.9068265e+2, 1.842333e+2, -1067548.1, -1204375.9, -7035.054, -0.00055776216, -0.004189178, -1067187.3, 67323.59, 0.0, 5.0481796, 4.959357 
6.905231e+2, 1.8919137e+2, -1028772.5, -1160001.0, -7019.344, -0.0026792395, -0.00008014162, -1028398.1, 57525.5, 0.0, 5.044573, 4.9594913 
6.903636e+2, 1.9414948e+2, -990132.44, -1115984.6, -7022.3735, -0.004898635, 0.004154599, -989741.8, 47594.566, 0.0, 5.0409694, 4.959483 
6.9020414e+2, 1.9910753e+2, -952356.44, -1073921.8, -7002.422, -0.0071317526, 0.008708426, -951954.4, 36795.08, 0.0, 5.0373735, 4.958789 
6.900442e+2, 2.0406394e+2, -914692.0, -1033089.9, -8224.553, -0.006955028, 0.01346035, -914123.4, 26054.113, 0.0, 5.033942, 4.95758 
6.898837e+2, 2.0901933e+2, -874986.1, -987867.56, -8560.865, -0.0052837683, 0.0075214836, -874340.56, 17274.148, 0.0, 5.0305376, 4.9578266 
6.897233e+2, 2.1397474e+2, -835551.44, -943288.56, -8886.055, -0.003539782, 0.0013880149, -834823.44, 8228.307, 0.0, 5.027135, 4.957834 
6.89563e+2, 2.1893017e+2, -796664.25, -899967.75, -9202.411, -0.0017588225, -0.0045840195, -795850.94, -1362.43, 0.0, 5.023733, 4.9573884 
6.894024e+2, 2.2388525e+2, -759086.94, -859395.1, -9454.477, -0.00063876057, 0.0018126561, -758203.6, -12275.339, 0.0, 5.0202975, 4.9559855 
6.892416e+2, 2.2883987e+2, -719120.0, -813475.8, -9684.859, 0.00045978374, 0.0018385986, -718136.2, -20763.656, 0.0, 5.01683, 4.956419 
6.8908083e+2, 2.3379453e+2, -679684.1, -768749.5, -9816.18, 0.0015190766, 0.0020363794, -678615.1, -29798.578, 0.0, 5.013361, 4.9564214 
6.889201e+2, 2.3874918e+2, -640925.3, -725570.44, -9853.354, 0.0023639812, 0.002565915, -639793.44, -39533.035, 0.0, 5.0098915, 4.955867 
6.887599e+2, 2.437024e+2, -604236.5, -686462.25, -8948.211, 0.0007037812, 0.0096744215, -603273.94, -51555.316, 0.0, 5.0063314, 4.953886 
6.886002e+2, 2.4865489e+2, -564112.9, -639730.0, -9278.69, -0.002041373, 0.006615785, -562990.94, -59807.285, 0.0, 5.002732, 4.954576 
6.884405e+2, 2.536074e+2, -524831.7, -594905.56, -9531.983, -0.0048413347, 0.0031681852, -523558.2, -68909.49, 0.0, 4.9991317, 4.9545836 
6.882809e+2, 2.585599e+2, -485767.0, -550638.3, -9768.928, -0.0074903304, -0.00033627028, -484327.84, -78214.125, 0.0, 4.995536, 4.954372 
6.881229e+2, 2.6351097e+2, -449831.84, -513443.88, -8398.848, -0.003761968, 0.006710452, -448741.6, -91148.17, 0.0, 4.991995, 4.951581 
6.879663e+2, 2.6846185e+2, -407892.7, -463303.94, -8884.161, 0.002783327, -0.00031125237, -406503.13, -97427.98, 0.0, 4.988494, 4.95333 
6.8780977e+2, 2.7341276e+2, -368112.8, -418068.03, -9307.911, 0.009255472, -0.008656322, -366434.88, -105877.99, 0.0, 4.984994, 4.953348 
6.8765324e+2, 2.7836367e+2, -328256.25, -372726.44, -9445.905, 0.015444314, -0.01682571, -326333.0, -114294.984, 0.0, 4.981497, 4.9533806 
6.8749803e+2, 2.8331426e+2, -291512.44, -335583.72, -6737.1104, 0.009592144, -0.0028007145, -290505.53, -126985.22, 0.0, 4.978268, 4.9503307 
6.8734425e+2, 2.8826654e+2, -247170.95, -282721.75, -7799.062, -0.002592387, 0.009701364, -245535.27, -130550.53, 0.0, 4.975282, 4.952751 
6.871905e+2, 2.9321897e+2, -205714.77, -236501.08, -8804.117, -0.014695472, 0.02149499, -203374.86, -136927.13, 0.0, 4.9723, 4.952805 
6.8703675e+2, 2.9817134e+2, -166667.94, -195837.83, -10056.053, -0.026046632, 0.033361387, -163537.22, -145626.0, 0.0, 4.9693103, 4.95086 
6.8688965e+2, 3.0312496e+2, -134130.34, -133014.13, -4543.3257, -0.002087273, 0.019631911, -128994.76, -128994.76, 0.0, 4.9654446, 4.9661703 
6.8675065e+2, 3.080862e+2, -141593.92, -129090.766, -1105.9015, 0.03998545, -0.04855536, -128993.7, -128993.7, 0.0, 4.9613695, 4.9693456 
6.866119e+2, 3.1304732e+2, -152914.5, -134340.48, 1388.6064, 0.08131038, -0.11777043, -134237.25, -134237.25, 0.0, 4.957322, 4.969228 
6.8646467e+2, 3.180293e+2, -68168.65, 82299.57, -669.0803, 0.03615533, -0.023967078, 82302.55, 82302.55, 0.0, 4.9530196, 5.0509505 
6.9760835e+2, 1.24863885e+2, -1520389.8, -1717800.6, 555.363, 0.0012051398, -0.029494818, -1520388.1, 195931.08, 0.0, 5.092489, 4.962032 
6.9745696e+2, 1.2982418e+2, -1483252.8, -1675040.4, 458.90567, 0.0008232804, -0.026636075, -1483251.8, 184457.22, 0.0, 5.088599, 4.962012 
6.973056e+2, 1.3478446e+2, -1446301.8, -1632337.1, 442.94495, 0.000076333235, -0.023613144, -1446300.8, 172798.0, 0.0, 5.084627, 4.961991 
6.9715434e+2, 1.3974465e+2, -1410972.6, -1593228.6, 212.07744, -0.001200127, -0.01906355, -1410972.4, 159517.08, 0.0, 5.0806813, 4.9607425 
6.9699997e+2, 1.4470498e+2, -1371597.8, -1547316.4, -3717.7766, -0.0019021939, -0.004167294, -1371519.1, 150361.95, 0.0, 5.0769997, 4.961577 
6.9684315e+2, 1.4966515e+2, -1333766.0, -1504031.5, -3738.3157, -0.0033611606, -0.00014860679, -1333684.0, 139590.72, 0.0, 5.0732718, 4.9615674 
6.966864e+2, 1.546253e+2, -1295876.3, -1460683.6, -3761.629, -0.0048163496, 0.0037401784, -1295790.4, 128878.16, 0.0, 5.0695457, 4.961558 
6.9652975e+2, 1.5958527e+2, -1259058.6, -1419756.3, -4032.8987, -0.005856572, 0.006966903, -1258957.5, 117106.22, 0.0, 5.065836, 4.960717 
6.963711e+2, 1.6454378e+2, -1220327.4, -1376083.5, -6972.696, -0.0040029082, 0.007144927, -1220015.9, 107454.64, 0.0, 5.0623326, 4.960706 
6.962108e+2, 1.6950186e+2, -1181659.4, -1332171.6, -7234.0894, -0.0019356095, -0.0007341832, -1181312.5, 97568.18, 0.0, 5.058814, 4.9607253 
6.960506e+2, 1.7446e+2, -1142956.6, -1288250.1, -7505.6426, 0.000042024512, -0.008417655, -1142569.9, 87720.77, 0.0, 5.055298, 4.960727 
6.958904e+2, 1.7941824e+2, -1105125.8, -1246236.0, -7894.875, 0.0015998246, -0.014423832, -1104685.4, 77013.91, 0.0, 5.051776, 4.9600735 
6.957285e+2, 1.8437678e+2, -1067111.0, -1203933.6, -9728.95, 0.00078476436, -0.005104121, -1066422.6, 66683.36, 0.0, 5.048218, 4.9595275 
6.955653e+2, 1.8933493e+2, -1028361.94, -1159610.5, -9722.227, -0.00056065444, -0.0018855145, -1027645.7, 56870.94, 0.0, 5.04461, 4.9596457 
6.9540226e+2, 1.942931e+2, -989729.94, -1115603.3, -9723.31, -0.0020468826, 0.0015213195, -988983.25, 46944.027, 0.0, 5.041005, 4.959636 
6.952393e+2, 1.9925122e+2, -952108.2, -1073884.9, -9696.032, -0.0037046596, 0.005531197, -951341.0, 35997.367, 0.0, 5.0374107, 4.9588246 
6.950758e+2, 2.0420769e+2, -914757.2, -1033762.94, -10805.69, -0.004400735, 0.0119279865, -913784.0, 24982.846, 0.0, 5.033985, 4.9573703 
6.949118e+2, 2.0916311e+2, -875096.8, -988644.25, -11144.115, -0.0040155323, 0.008538464, -874013.44, 16192.114, 0.0, 5.030581, 4.9575815 
6.947478e+2, 2.1411854e+2, -835662.75, -944071.6, -11465.998, -0.0035807183, 0.004990465, -834463.3, 7180.858, 0.0, 5.0271783, 4.9575863 
6.94584e+2, 2.19074e+2, -796699.8, -900581.7, -11791.022, -0.0031084062, 0.0015262563, -795378.3, -2295.923, 0.0, 5.0237756, 4.9571996 
6.9442e+2, 2.2402894e+2, -758796.06, -859288.3, -12100.705, -0.0019081065, 0.006821129, -757359.5, -12836.654, 0.0, 5.0203395, 4.9560447 
6.942557e+2, 2.289833e+2, -718897.0, -813523.6, -12327.823, -0.000032409134, 0.003973122, -717317.3, -21348.842, 0.0, 5.0168724, 4.956425 
6.940916e+2, 2.3393765e+2, -679460.3, -768801.4, -12458.279, 0.0017773268, 0.001287051, -677755.6, -30341.615, 0.0, 5.013404, 4.9564266 
6.9392747e+2, 2.3889205e+2, -640749.4, -725731.6, -12497.562, 0.0033292363, -0.0009964175, -638949.6, -40090.15, 0.0, 5.0099344, 4.9558344 
6.937638e+2, 2.4384521e+2, -604133.6, -686797.0, -11710.566, 0.0017401297, 0.006315486, -602506.6, -52188.723, 0.0, 5.006376, 4.953793 
6.936004e+2, 2.4879773e+2, -564070.25, -640202.9, -12048.048, -0.0013907803, 0.004764373, -562209.1, -60425.957, 0.0, 5.002776, 4.9544353 
6.934371e+2, 2.5375026e+2, -524788.9, -595379.7, -12302.378, -0.004611223, 0.0028128736, -522706.3, -69457.87, 0.0, 4.999176, 4.9544425 
6.9327384e+2, 2.5870275e+2, -485790.47, -551268.8, -12513.9795, -0.007640845, 0.00076807203, -483480.34, -78766.5, 0.0, 4.9955816, 4.9541755 
6.931124e+2, 2.636536e+2, -449948.44, -514329.56, -11084.362, -0.0035981291, 0.00791429, -448093.5, -91897.44, 0.0, 4.9920464, 4.9512925 
6.9295233e+2, 2.6860413e+2, -408070.97, -464333.75, -11600.6875, 0.003219276, 0.0005031338, -405772.94, -98091.336, 0.0, 4.988546, 4.9529905 
6.927923e+2, 2.7355462e+2, -368290.9, -419095.34, -12025.396, 0.009928539, -0.008174788, -365588.28, -106421.16, 0.0, 4.9850454, 4.953009 
6.926323e+2, 2.7850518e+2, -328594.38, -374118.44, -12061.976, 0.016168686, -0.016595291, -325595.94, -114943.84, 0.0, 4.9815483, 4.952912 
6.924739e+2, 2.8345507e+2, -292465.56, -338476.88, -9080.021, 0.008715906, -0.0019291037, -290738.5, -128597.48, 0.0, 4.978336, 4.949321 
6.923169e+2, 2.884064e+2, -248170.2, -285740.94, -10158.347, -0.0050742533, 0.011621787, -245599.48, -131985.31, 0.0, 4.9753523, 4.951692 
6.9215995e+2, 2.933579e+2, -206704.1, -239509.0, -11158.1, -0.018815435, 0.024471167, -203268.61, -138182.63, 0.0, 4.9723706, 4.951747 
6.920032e+2, 2.9830933e+2, -167348.7, -198115.28, -12547.91, -0.03143599, 0.037468344, -162880.14, -146321.7, 0.0, 4.969375, 4.9500647 
6.91853e+2, 3.032638e+2, -129850.76, -123764.09, -7592.243, -0.001590342, 0.01676242, -118627.94, -118627.94, 0.0, 4.9654856, 4.969536 
6.917107e+2, 3.082271e+2, -137323.16, -119916.68, -4112.4795, 0.047787722, -0.06585389, -118993.97, -118993.97, 0.0, 4.96142, 4.9726796 
6.915685e+2, 3.1319025e+2, -148617.66, -125128.92, -1494.9143, 0.09608, -0.14975469, -125034.164, -125034.164, 0.0, 4.9573774, 4.9725666 
6.914034e+2, 3.1821862e+2, -94371.47, 21665.14, -1024.5524, -0.08967625, 0.38754466, 21674.186, 21674.186, 0.0, 4.9531045, 5.02817 
7.0269775e+2, 1.2500913e+2, -1521491.1, -1718110.9, 2053.7969, -0.003976733, -0.024150781, -1521469.8, 193428.94, 0.0, 5.0920568, 4.962138 
7.025427e+2, 1.2996915e+2, -1484118.1, -1675221.9, 1798.0602, -0.0022525531, -0.023593962, -1484101.1, 182189.03, 0.0, 5.0882463, 4.9621205 
7.023878e+2, 1.3492917e+2, -1446516.3, -1632184.0, 1507.9138, -0.0008128721, -0.022707244, -1446504.0, 171177.69, 0.0, 5.0844965, 4.962104 
7.022328e+2, 1.398892e+2, -1410663.5, -1592667.9, 1023.5489, -0.00027486202, -0.019761687, -1410657.8, 158415.69, 0.0, 5.080705, 4.9609146 
7.020746e+2, 1.4484955e+2, -1371202.9, -1546698.8, -2902.851, -0.0010174953, -0.0051712207, -1371154.9, 149309.22, 0.0, 5.077051, 4.9617543 
7.019141e+2, 1.4980975e+2, -1333283.5, -1503407.8, -3089.6838, -0.0025345199, -0.0011201432, -1333227.5, 138629.16, 0.0, 5.073355, 4.9617357 
7.017536e+2, 1.5476996e+2, -1295315.6, -1460057.0, -3281.1758, -0.004075195, 0.0030313972, -1295250.4, 127998.94, 0.0, 5.0696583, 4.961718 
7.015932e+2, 1.5972999e+2, -1258601.9, -1419442.8, -3715.2102, -0.0051765926, 0.0067357826, -1258516.1, 116127.414, 0.0, 5.0659657, 4.960767 
7.014309e+2, 1.6468841e+2, -1220050.0, -1376103.4, -6532.646, -0.0033590868, 0.0074200663, -1219777.1, 106274.76, 0.0, 5.062455, 4.9606447 
7.0126706e+2, 1.6964635e+2, -1181415.0, -1332265.5, -6865.31, -0.0013547179, -0.00024161628, -1181103.1, 96361.6, 0.0, 5.058933, 4.960643 
7.011034e+2, 1.7460427e+2, -1142749.9, -1288383.6, -7199.488, 0.00067624537, -0.008015264, -1142394.9, 86482.875, 0.0, 5.0554047, 4.960639 
7.009397e+2, 1.7956232e+2, -1104813.4, -1246112.8, -7717.9487, 0.002335671, -0.014180542, -1104393.1, 75895.94, 0.0, 5.051873, 4.9600797 
7.0077413e+2, 1.8452084e+2, -1066300.9, -1203207.1, -9773.417, 0.0020534366, -0.005278273, -1065606.8, 66088.49, 0.0, 5.0484114, 4.959694 
7.006075e+2, 1.8947896e+2, -1027257.75, -1158806.9, -10050.998, 0.0013831918, -0.0030216295, -1026494.2, 56610.85, 0.0, 5.0449166, 4.9597883 
7.0044094e+2, 1.9443709e+2, -988351.44, -1114666.3, -10315.965, 0.00062285166, -0.0006207165, -987514.5, 47000.297, 0.0, 5.0414042, 4.959783 
7.0027447e+2, 1.9939521e+2, -950703.0, -1073218.9, -10479.355, -0.0004524959, 0.0026874659, -949813.1, 36111.94, 0.0, 5.0378766, 4.9588513 
7.001074e+2, 2.0435168e+2, -913651.1, -1033643.56, -11576.509, -0.0019797878, 0.010585552, -912544.44, 24809.773, 0.0, 5.034427, 4.9572234 
6.9993985e+2, 2.093071e+2, -874182.4, -988706.6, -11943.799, -0.0027146826, 0.009375, -872950.0, 15844.559, 0.0, 5.030971, 4.957399 
6.9977236e+2, 2.1426252e+2, -834904.8, -944231.06, -12309.805, -0.003427021, 0.008079017, -833535.9, 6698.8975, 0.0, 5.0275154, 4.957397 
6.996049e+2, 2.1921794e+2, -796039.56, -900702.0, -12691.183, -0.0041493475, 0.0069221, -794522.6, -2848.0579, 0.0, 5.0240593, 4.957051 
6.994375e+2, 2.2417274e+2, -757877.94, -858821.94, -13232.17, -0.0029532677, 0.0114063965, -756172.25, -13056.377, 0.0, 5.0206156, 4.9561043 
6.9926983e+2, 2.291268e+2, -718029.2, -813193.25, -13671.735, -0.0004012201, 0.0059197843, -716104.0, -21540.66, 0.0, 5.01715, 4.95644 
6.991023e+2, 2.3408087e+2, -678611.25, -768488.9, -14002.136, 0.0021220606, 0.00047867995, -676480.4, -30469.723, 0.0, 5.013674, 4.9564414 
6.989348e+2, 2.3903495e+2, -640004.25, -725581.44, -14238.081, 0.004337612, -0.004502739, -637697.56, -40239.652, 0.0, 5.0101876, 4.955803 
6.987676e+2, 2.439881e+2, -603493.2, -686838.6, -13665.662, 0.002681833, 0.0032352947, -601309.75, -52392.957, 0.0, 5.0066175, 4.9537034 
6.9860053e+2, 2.4894062e+2, -563531.4, -640380.7, -14141.735, -0.00078490085, 0.003074639, -561011.7, -60629.254, 0.0, 5.0029974, 4.9543095 
6.984336e+2, 2.5389314e+2, -524347.8, -595612.94, -14508.574, -0.0043741623, 0.0025396333, -521507.28, -69659.195, 0.0, 4.9993625, 4.9543147 
6.9826674e+2, 2.588456e+2, -485567.1, -551770.75, -14779.954, -0.007721876, 0.0018904634, -482417.34, -79103.38, 0.0, 4.995722, 4.953976 
6.981018e+2, 2.637962e+2, -449902.25, -515108.6, -13415.571, -0.0033770802, 0.009115715, -447250.0, -92451.11, 0.0, 4.992159, 4.95101 
6.979383e+2, 2.6874635e+2, -408199.03, -465310.84, -14050.615, 0.0036773414, 0.0013191075, -404929.5, -98641.26, 0.0, 4.988617, 4.952658 
6.9777477e+2, 2.7369648e+2, -368494.56, -420111.63, -14550.665, 0.010618831, -0.007713598, -364675.38, -106897.76, 0.0, 4.9850883, 4.9526753 
6.976114e+2, 2.7864668e+2, -329090.8, -375734.25, -14504.537, 0.01686628, -0.016402658, -324948.28, -115681.78, 0.0, 4.981578, 4.9523716 
6.974496e+2, 2.835958e+2, -293494.25, -341368.8, -11314.511, 0.0077464026, -0.0010593266, -290954.9, -130192.46, 0.0, 4.9783745, 4.948323 
6.972895e+2, 2.885462e+2, -249257.64, -288787.3, -12423.736, -0.007647231, 0.013349998, -245677.28, -133432.88, 0.0, 4.9753923, 4.950635 
6.971294e+2, 2.9349673e+2, -207790.25, -242550.22, -13433.328, -0.023022076, 0.027059648, -203203.94, -139478.83, 0.0, 4.972408, 4.9506907 
6.969695e+2, 2.9844725e+2, -168109.13, -200367.45, -15080.844, -0.03677607, 0.041558035, -162157.03, -146950.89, 0.0, 4.9694014, 4.949295 
6.9681627e+2, 3.0340278e+2, -125700.57, -114582.77, -10546.71, -0.0005390762, 0.013446829, -108219.66, -108219.66, 0.0, 4.965487, 4.9728885 
6.9667065e+2, 3.0836803e+2, -133204.02, -110810.05, -7075.578, 0.05632817, -0.086802915, -108761.8, -108761.8, 0.0, 4.96142, 4.9760065 
6.965252e+2, 3.1333318e+2, -144500.66, -115997.88, -4338.5903, 0.11176696, -0.18860425, -115352.11, -115352.11, 0.0, 4.957372, 4.975897 
6.963542e+2, 3.1838068e+2, -137391.0, -77871.9, -51.43319, -0.095212616, 0.5552555, -77871.86, -77871.86, 0.0, 4.953251, 4.9913917 
7.0778865e+2, 1.2516566e+2, -1512069.1, -1712236.6, 7947.945, -0.0080495095, -0.014884949, -1511754.0, 201615.23, 0.0, 5.0952535, 4.9624352 
7.0762986e+2, 1.3012539e+2, -1475186.8, -1669607.1, 7811.034, -0.0045112125, -0.016464222, -1474873.4, 189889.48, 0.0, 5.091281, 4.962417 
7.074712e+2, 1.3508514e+2, -1438243.0, -1626912.0, 7670.67, -0.0013399877, -0.017681303, -1437931.6, 178224.84, 0.0, 5.0873103, 4.962399 
7.0731246e+2, 1.400449e+2, -1402775.8, -1587304.4, 7271.029, 0.00052062946, -0.016864227, -1402489.8, 165060.52, 0.0, 5.0833273, 4.961336 
7.071504e+2, 1.4500505e+2, -1363739.3, -1541566.9, 3671.8965, 0.00019418918, -0.00500879, -1363663.5, 155277.98, 0.0, 5.079534, 4.962168 
7.069861e+2, 1.4996503e+2, -1326209.9, -1498471.8, 3649.4905, -0.00079354254, -0.0036271361, -1326132.6, 144202.38, 0.0, 5.0757084, 4.962151 
7.0682204e+2, 1.5492499e+2, -1288620.6, -1455312.5, 3626.1072, -0.0018231891, -0.0020603605, -1288541.8, 133186.8, 0.0, 5.0718856, 4.962134 
7.066579e+2, 1.5988481e+2, -1252291.5, -1414907.9, 3342.7932, -0.0025656626, -0.00037091988, -1252222.9, 120900.805, 0.0, 5.068069, 4.9611726 
7.064918e+2, 1.6484343e+2, -1214286.8, -1372209.8, 865.784, -0.0015783632, 0.0027153178, -1214282.0, 110248.945, 0.0, 5.064456, 4.9608827 
7.063244e+2, 1.6980153e+2, -1175900.6, -1328497.3, 683.67285, -0.0006692542, -0.0014733878, -1175897.6, 100045.65, 0.0, 5.0608516, 4.9608808 
7.0615697e+2, 1.747596e+2, -1137457.5, -1284723.0, 500.69263, 0.0003135324, -0.005884673, -1137455.8, 89899.875, 0.0, 5.0572495, 4.9608784 
7.059896e+2, 1.7971778e+2, -1099609.4, -1242319.3, 90.534966, 0.001208276, -0.009380669, -1099609.3, 79157.664, 0.0, 5.053653, 4.9603977 
7.058206e+2, 1.84676e+2, -1061346.5, -1199692.1, -1713.7744, 0.0017117643, -0.0020182081, -1061325.3, 68850.41, 0.0, 5.050147, 4.9599385 
7.056506e+2, 1.896337e+2, -1022360.06, -1155348.6, -1924.6357, 0.0020634308, -0.0019106345, -1022332.2, 59257.27, 0.0, 5.046642, 4.9600215 
7.0548064e+2, 1.9459142e+2, -983428.94, -1111184.5, -2135.512, 0.0023255404, -0.0016194659, -983393.25, 49609.758, 0.0, 5.0431395, 4.960023 
7.0531076e+2, 1.9954912e+2, -945603.5, -1069445.9, -2273.6633, 0.002239982, -0.00042331123, -945561.8, 38855.063, 0.0, 5.039633, 4.9591827 
7.051402e+2, 2.045055e+2, -908754.25, -1029993.56, -3122.7732, 0.0005996637, 0.007375712, -908673.9, 27172.754, 0.0, 5.0361257, 4.957539 
7.0496905e+2, 2.0946088e+2, -869545.1, -985242.25, -3283.6243, -0.0006821309, 0.0075148605, -869452.0, 17834.998, 0.0, 5.0325956, 4.9576883 
7.0479804e+2, 2.1441628e+2, -830487.0, -940874.8, -3431.2576, -0.0019512081, 0.007626193, -830380.44, 8346.948, 0.0, 5.029067, 4.9576855 
7.046271e+2, 2.1937166e+2, -791818.9, -897436.25, -3586.5059, -0.0031892909, 0.007812068, -791697.25, -1529.7175, 0.0, 5.025544, 4.9573417 
7.044561e+2, 2.2432624e+2, -753916.8, -856042.4, -4007.7197, -0.0023447026, 0.012511291, -753759.75, -12148.394, 0.0, 5.0220876, 4.9562354 
7.0428497e+2, 2.2927988e+2, -714065.8, -810477.6, -4500.1113, -0.00027807752, 0.006769628, -713856.25, -20792.992, 0.0, 5.018638, 4.9565454 
7.0411396e+2, 2.3423356e+2, -674569.94, -765723.0, -4894.739, 0.0018615865, 0.0009347975, -674307.9, -29792.998, 0.0, 5.0151877, 4.9565554 
7.0394295e+2, 2.3918724e+2, -635850.06, -722731.5, -5192.0825, 0.003832926, -0.0045808204, -635540.9, -39574.49, 0.0, 5.011736, 4.9559336 
7.037722e+2, 2.4414006e+2, -599197.6, -683749.56, -4685.1025, 0.0027774463, 0.0027600555, -598938.8, -51510.617, 0.0, 5.0081835, 4.953912 
7.036016e+2, 2.4909225e+2, -559288.44, -637418.56, -5112.0874, 0.000199093, 0.002455161, -558955.4, -60058.65, 0.0, 5.004567, 4.954476 
7.0343107e+2, 2.5404447e+2, -520059.75, -592627.06, -5433.6777, -0.002511238, 0.0019321904, -519655.13, -69289.98, 0.0, 5.0009494, 4.954485 
7.032607e+2, 2.5899664e+2, -481229.9, -548847.1, -5595.0923, -0.0050165663, 0.0013936738, -480770.06, -78936.28, 0.0, 4.997345, 4.9541125 
7.030923e+2, 2.6394692e+2, -445267.4, -512054.88, -3947.5103, -0.0018651176, 0.008912558, -445034.9, -91713.24, 0.0, 4.99389, 4.9511476 
7.0292497e+2, 2.6889673e+2, -403276.94, -462292.13, -4468.004, 0.003134481, 0.0016483535, -402940.56, -98126.09, 0.0, 4.990482, 4.95273 
7.0275784e+2, 2.738465e+2, -363354.38, -417024.94, -4865.0615, 0.008316305, -0.0069036023, -362916.94, -106609.39, 0.0, 4.9870353, 4.9527407 
7.025907e+2, 2.787963e+2, -324016.9, -372790.7, -4703.9746, 0.01309922, -0.015143616, -323567.38, -115767.086, 0.0, 4.9835205, 4.9523945 
7.024257e+2, 2.8374493e+2, -290785.94, -339594.97, -793.06366, 0.0055773132, 0.00025064824, -290773.06, -131472.14, 0.0, 4.979493, 4.948302 
7.0226234e+2, 2.8869474e+2, -249747.98, -288655.88, -1049.2046, -0.006719372, 0.014696857, -249719.72, -138930.97, 0.0, 4.9754057, 4.9505215 
7.020991e+2, 2.9364464e+2, -211257.0, -243848.11, -1240.1587, -0.019492121, 0.028738586, -211209.88, -148934.05, 0.0, 4.971373, 4.950527 
7.019358e+2, 2.9859442e+2, -174036.36, -202406.52, -2213.5361, -0.030928927, 0.04394618, -173864.69, -160100.86, 0.0, 4.9674134, 4.94928 
7.017789e+2, 3.0354998e+2, -127998.625, -110971.34, -201.66077, 0.002384799, 0.010572395, -110968.95, -110968.95, 0.0, 4.9640183, 4.9746833 
7.016291e+2, 3.0851611e+2, -132498.45, -105799.73, -745.7231, 0.05425339, -0.096951686, -105778.914, -105778.914, 0.0, 4.961013, 4.9778566 
7.014795e+2, 3.1348255e+2, -141327.69, -109688.54, -1699.761, 0.10744131, -0.20457846, -109597.484, -109597.484, 0.0, 4.9578094, 4.977852 
7.0131856e+2, 3.18472e+2, -123402.07, -49146.52, 3054.3674, 0.036683705, -0.07736003, -49021.098, -49021.098, 0.0, 4.954054, 5.001412 
7.128809e+2, 1.2532647e+2, -1511745.5, -1712163.3, 5016.827, -0.012430822, -0.0046983426, -1511620.0, 200177.67, 0.0, 5.095302, 4.9624743 
7.127184e+2, 1.3028602e+2, -1474865.4, -1669548.3, 4884.933, -0.0069714794, -0.008518638, -1474742.9, 188449.63, 0.0, 5.0913305, 4.962452 
7.1255594e+2, 1.3524558e+2, -1437923.9, -1626867.6, 4749.575, -0.0019846894, -0.011960462, -1437804.5, 176782.78, 0.0, 5.087361, 4.96243 
7.123933e+2, 1.4020516e+2, -1402284.0, -1586913.6, 4288.0513, 0.0012749669, -0.013401719, -1402184.5, 163797.69, 0.0, 5.0833793, 4.961484 
7.1222734e+2, 1.4516523e+2, -1363271.8, -1541168.1, 848.667, 0.0013744745, -0.0043109832, -1363267.8, 154105.28, 0.0, 5.079579, 4.9623213 
7.120593e+2, 1.5012507e+2, -1325744.9, -1498078.8, 827.63995, 0.0009299808, -0.005730093, -1325741.0, 143025.47, 0.0, 5.0757537, 4.962303 
7.118914e+2, 1.5508491e+2, -1288158.1, -1454925.4, 805.62335, 0.00042812843, -0.006918475, -1288154.3, 132005.63, 0.0, 5.0719304, 4.9622846 
7.117235e+2, 1.6004469e+2, -1251898.6, -1414665.9, 495.31323, -0.000026220952, -0.0070778807, -1251897.1, 119657.445, 0.0, 5.0681143, 4.961274 
7.1155363e+2, 1.650036e+2, -1214120.8, -1372405.3, -1823.637, 0.000038465205, -0.0011950721, -1214099.8, 108859.79, 0.0, 5.0644975, 4.960837 
7.1138245e+2, 1.69962e+2, -1175737.0, -1328697.6, -2004.1864, -0.00020600486, -0.0018259473, -1175710.8, 98659.125, 0.0, 5.060893, 4.9608335 
7.112114e+2, 1.749204e+2, -1137296.1, -1284928.3, -2185.6138, -0.00040224165, -0.0026569525, -1137263.8, 88516.52, 0.0, 5.0572906, 4.9608307 
7.1104026e+2, 1.7987882e+2, -1099344.3, -1242312.9, -2638.4136, -0.00043249768, -0.003252178, -1099295.6, 77894.29, 0.0, 5.053695, 4.9604216 
7.1086776e+2, 1.8483686e+2, -1061225.3, -1199968.5, -4345.6626, 0.0009391946, 0.0023132248, -1061089.3, 67511.1, 0.0, 5.0501866, 4.9598684 
7.106944e+2, 1.8979421e+2, -1022256.56, -1155661.8, -4556.6733, 0.0024898036, -0.00005575369, -1022101.1, 57916.1, 0.0, 5.0466814, 4.9599395 
7.1052104e+2, 1.947516e+2, -983328.5, -1111502.3, -4766.3438, 0.0039228015, -0.002205084, -983151.5, 48282.383, 0.0, 5.043178, 4.9599395 
7.103478e+2, 1.99709e+2, -945379.0, -1069503.3, -4942.1416, 0.0048821233, -0.003323704, -945182.5, 37668.082, 0.0, 5.0396724, 4.9591875 
7.1017367e+2, 2.0466547e+2, -908477.5, -1029942.8, -5794.995, 0.0031234648, 0.0044877175, -908201.7, 26077.588, 0.0, 5.036166, 4.9575806 
7.099989e+2, 2.0962095e+2, -869328.44, -985320.0, -5953.0225, 0.0013904647, 0.0058058514, -869023.7, 16694.3, 0.0, 5.0326357, 4.9576864 
7.0982426e+2, 2.1457645e+2, -830272.06, -940956.1, -6099.877, -0.00034754237, 0.0071209376, -829936.9, 7219.9014, 0.0, 5.029107, 4.9576826 
7.096498e+2, 2.1953192e+2, -791647.8, -897618.44, -6222.5117, -0.0020044446, 0.008367562, -791283.7, -2688.171, 0.0, 5.025585, 4.9573035 
7.094753e+2, 2.2448638e+2, -754036.2, -856903.4, -6666.396, -0.0015356921, 0.013425446, -753605.94, -13564.944, 0.0, 5.0221343, 4.9559617 
7.0930064e+2, 2.2943975e+2, -714228.7, -811433.25, -7134.269, -0.00020085687, 0.007871844, -713707.9, -22211.346, 0.0, 5.0186844, 4.9562383 
7.091261e+2, 2.343931e+2, -674730.94, -766679.5, -7528.674, 0.0011795049, 0.0022298866, -674118.6, -31166.824, 0.0, 5.015234, 4.956248 
7.089516e+2, 2.3934652e+2, -635957.25, -723563.4, -7838.8, 0.00246737, -0.0031246536, -635261.4, -40854.492, 0.0, 5.011781, 4.955669 
7.087774e+2, 2.4429908e+2, -599170.2, -684286.0, -7442.8105, 0.0023490456, 0.003546334, -598524.3, -52653.336, 0.0, 5.008228, 4.953751 
7.086033e+2, 2.4925101e+2, -559317.6, -638086.2, -7885.5405, 0.0012807521, 0.0025331096, -558535.94, -61194.215, 0.0, 5.004612, 4.9542694 
7.084294e+2, 2.5420293e+2, -520088.16, -593294.6, -8208.205, 0.000057288213, 0.0013295262, -519179.13, -70366.66, 0.0, 5.000994, 4.9542785 
7.0825547e+2, 2.5915486e+2, -481251.66, -549522.0, -8269.711, -0.0011468049, 0.00008229813, -480264.22, -79980.734, 0.0, 4.997393, 4.9539013 
7.0808345e+2, 2.64105e+2, -445203.44, -512627.5, -6566.4014, -0.00012290994, 0.007846132, -444569.88, -92797.21, 0.0, 4.9939513, 4.950968 
7.079124e+2, 2.6905462e+2, -403277.66, -463021.6, -7102.195, 0.0014060109, 0.0014469572, -402444.97, -99178.125, 0.0, 4.990545, 4.9524946 
7.077415e+2, 2.7400425e+2, -363246.97, -417700.3, -7465.8374, 0.003092343, -0.006186299, -362241.9, -107480.68, 0.0, 4.987136, 4.9525065 
7.075707e+2, 2.789539e+2, -323544.34, -372948.47, -7320.1025, 0.0046923663, -0.013396254, -322482.56, -116227.55, 0.0, 4.9836836, 4.9523144 
7.074023e+2, 2.8390273e+2, -289644.84, -338402.38, -3776.982, 0.0022247834, 0.0016732235, -289354.0, -131600.1, 0.0, 4.979688, 4.9486837 
7.0723563e+2, 2.8885275e+2, -248718.63, -287651.3, -3832.5586, -0.0015825006, 0.015123105, -248344.94, -139104.89, 0.0, 4.9755883, 4.9508443 
7.070691e+2, 2.9380283e+2, -210416.88, -242935.5, -3741.3452, -0.0059581855, 0.02822289, -209991.97, -149266.4, 0.0, 4.9714904, 4.9508467 
7.0690256e+2, 2.987527e+2, -173704.05, -202135.94, -4073.098, -0.009900486, 0.041415144, -173132.05, -160918.6, 0.0, 4.967429, 4.9494157 
7.0674074e+2, 3.0370742e+2, -129424.41, -115112.22, -1418.0972, 0.0051853578, 0.009220435, -114973.06, -114973.06, 0.0, 4.964102, 4.9732075 
7.0658505e+2, 3.0867264e+2, -133132.8, -109630.63, -2284.444, 0.026956283, -0.08874342, -109410.64, -109410.64, 0.0, 4.9613876, 4.976364 
7.0642954e+2, 3.1363824e+2, -140501.63, -112844.08, -3762.7075, 0.050490215, -0.18568113, -112341.31, -112341.31, 0.0, 4.958696, 4.9763837 
7.062644e+2, 3.186298e+2, -106217.01, -15147.797, -567.9053, -0.03349198, -0.05190774, -15144.255, -15144.255, 0.0, 4.9549713, 5.0136094 
7.1797323e+2, 1.2548736e+2, -1511743.3, -1712282.5, 2341.3245, -0.016826814, 0.005918181, -1511715.9, 198509.5, 0.0, 5.095247, 4.962501 
7.178069e+2, 1.304467e+2, -1474667.5, -1669569.9, 2105.183, -0.009536035, -0.0002754256, -1474644.8, 186976.97, 0.0, 5.091341, 4.96248 
7.176406e+2, 1.3540605e+2, -1437616.5, -1626839.0, 1894.1759, -0.0027093883, -0.0060812463, -1437597.5, 175420.45, 0.0, 5.0874095, 4.9624577 
7.1747404e+2, 1.4036544e+2, -1401800.0, -1586562.0, 1309.9779, 0.002043837, -0.009910239, -1401790.8, 162623.16, 0.0, 5.0834355, 4.9616175 
7.1730417e+2, 1.453254e+2, -1362800.9, -1540774.1, -1972.5028, 0.0025742566, -0.0036313455, -1362779.1, 153025.38, 0.0, 5.0796266, 4.962472 
7.1713245e+2, 1.5028512e+2, -1325276.5, -1497690.5, -1992.1522, 0.0026814407, -0.007967306, -1325253.5, 141944.23, 0.0, 5.075801, 4.962453 
7.169607e+2, 1.5524483e+2, -1287692.3, -1454542.8, -2012.8032, 0.0027157965, -0.012026588, -1287668.0, 130923.15, 0.0, 5.0719776, 4.9624333 
7.16789e+2, 1.6020454e+2, -1251561.6, -1414554.9, -2348.1868, 0.0024573111, -0.013701774, -1251527.8, 118457.555, 0.0, 5.068162, 4.961332 
7.166154e+2, 1.651638e+2, -1213951.9, -1372604.6, -4511.322, 0.001551988, -0.0047102985, -1213823.8, 107564.19, 0.0, 5.064541, 4.9607897 
7.1644044e+2, 1.7012252e+2, -1175570.4, -1328901.9, -4690.3105, 0.00018134646, -0.0018821253, -1175427.0, 97369.18, 0.0, 5.060936, 4.9607854 
7.162656e+2, 1.7508122e+2, -1137131.8, -1285137.4, -4870.1865, -0.001166588, 0.00076865044, -1136971.6, 87233.0, 0.0, 5.0573335, 4.960781 
7.1609086e+2, 1.8003987e+2, -1099171.6, -1242516.0, -5360.705, -0.0020810026, 0.002933913, -1098971.4, 76641.36, 0.0, 5.0537395, 4.9603753 
7.1591485e+2, 1.8499772e+2, -1061036.4, -1200109.8, -6979.2427, 0.00020623721, 0.006624924, -1060687.0, 66338.086, 0.0, 5.0502286, 4.9598436 
7.157381e+2, 1.8995474e+2, -1022150.3, -1155978.6, -7187.4297, 0.0029901208, 0.0016895011, -1021765.4, 56679.69, 0.0, 5.0467224, 4.9598556 
7.155614e+2, 1.9491178e+2, -983225.2, -1111823.8, -7395.896, 0.0056287968, -0.0029924363, -982801.25, 47063.605, 0.0, 5.043219, 4.959855 
7.153847e+2, 1.9986889e+2, -945154.94, -1069569.4, -7589.137, 0.0075686164, -0.006296017, -944693.75, 36590.61, 0.0, 5.0397134, 4.959189 
7.15207e+2, 2.0482543e+2, -908220.3, -1029949.6, -8484.328, 0.0055745547, 0.0018559801, -907631.8, 25079.87, 0.0, 5.036209, 4.9576025 
7.150287e+2, 2.0978104e+2, -869108.56, -985401.5, -8621.094, 0.0034099696, 0.0042652725, -868472.94, 15675.863, 0.0, 5.0326777, 4.957683 
7.148505e+2, 2.1473664e+2, -830053.94, -941041.2, -8767.169, 0.0012221299, 0.0066944114, -829365.6, 6220.3784, 0.0, 5.0291486, 4.957679 
7.1467245e+2, 2.1969219e+2, -791505.75, -897882.25, -8881.088, -0.0008536255, 0.008945781, -790769.4, -3745.9285, 0.0, 5.0256286, 4.9572377 
7.144944e+2, 2.246465e+2, -754171.56, -857803.9, -9293.667, -0.0007835647, 0.014445902, -753344.7, -14873.841, 0.0, 5.0221825, 4.955674 
7.1431625e+2, 2.2959958e+2, -714388.44, -812392.56, -9766.849, -0.0001593343, 0.009010294, -713424.56, -23494.566, 0.0, 5.0187325, 4.9559307 
7.1413815e+2, 2.3455265e+2, -674888.9, -767639.6, -10161.032, 0.0004844686, 0.0034936694, -673788.75, -32399.822, 0.0, 5.0152826, 4.9559393 
7.139602e+2, 2.3950577e+2, -636051.7, -724377.06, -10492.335, 0.0011217115, -0.0017273867, -634822.4, -41974.805, 0.0, 5.011828, 4.9554114 
7.1378255e+2, 2.4445811e+2, -599154.5, -684860.1, -10196.929, 0.0019887642, 0.004356703, -597958.06, -53644.273, 0.0, 5.008274, 4.9535775 
7.13605e+2, 2.4940975e+2, -559343.25, -638757.56, -10658.36, 0.0024427294, 0.002605806, -557937.6, -62150.76, 0.0, 5.0046587, 4.9540625 
7.1342754e+2, 2.543614e+2, -520113.0, -593966.0, -10982.101, 0.0027163406, 0.00068697205, -518514.53, -71254.66, 0.0, 5.001041, 4.954071 
7.132502e+2, 2.5931302e+2, -481286.6, -550241.44, -10923.217, 0.0027299519, -0.0012507885, -479597.6, -80864.33, 0.0, 4.997444, 4.9536753 
7.1307456e+2, 2.6426303e+2, -445138.06, -513206.06, -9186.548, 0.0013983106, 0.0069440114, -443920.03, -93696.305, 0.0, 4.9940143, 4.950786 
7.128998e+2, 2.692125e+2, -403281.16, -463756.7, -9738.538, -0.00055813923, 0.0013632026, -401751.63, -100032.375, 0.0, 4.9906077, 4.9522576 
7.127251e+2, 2.74162e+2, -363251.3, -418432.22, -10101.965, -0.0023846244, -0.0053976816, -361460.1, -108245.086, 0.0, 4.987198, 4.952271 
7.125505e+2, 2.7911156e+2, -323376.53, -373234.2, -10085.458, -0.0037402557, -0.011634892, -321413.7, -116703.91, 0.0, 4.983735, 4.9522395 
7.1237886e+2, 2.8406054e+2, -288951.16, -337450.78, -6960.399, -0.0005645793, 0.002876653, -287972.0, -131764.92, 0.0, 4.97973, 4.9490504 
7.12209e+2, 2.8901076e+2, -248077.0, -286831.72, -7026.0835, 0.004080694, 0.015009849, -246842.53, -139151.05, 0.0, 4.975632, 4.9511647 
7.120391e+2, 2.9396102e+2, -209774.22, -242117.14, -6926.1987, 0.00807755, 0.026827594, -208353.4, -149178.1, 0.0, 4.971535, 4.951167 
7.118693e+2, 2.9891098e+2, -173856.39, -203183.2, -6968.744, 0.011098128, 0.03866645, -172284.69, -161621.73, 0.0, 4.96748, 4.9490695 
7.1170235e+2, 3.038649e+2, -130875.16, -119320.664, -3574.3213, 0.0061458745, 0.008556571, -118304.36, -118304.36, 0.0, 4.9641857, 4.9716997 
7.115407e+2, 3.0882913e+2, -134619.16, -113940.195, -4321.124, -0.0030506074, -0.08479287, -113073.56, -113073.56, 0.0, 4.9614787, 4.974813 
7.1137935e+2, 3.1379372e+2, -141983.89, -117127.06, -5600.0103, -0.010828596, -0.17670435, -115923.695, -115923.695, 0.0, 4.9587893, 4.9748387 
7.1121174e+2, 3.188105e+2, -113052.98, -31101.611, -3820.387, -0.08904072, 0.23909539, -30923.898, -30923.898, 0.0, 4.9549437, 5.007759 
7.230663e+2, 1.2565e+2, -1510402.8, -1711796.8, 4510.4956, -0.013052159, 0.010458639, -1510301.8, 198330.3, 0.0, 5.0957212, 4.9624486 
7.2289586e+2, 1.3060902e+2, -1473559.0, -1669155.1, 4101.533, -0.0075911703, 0.003589621, -1473473.0, 186558.84, 0.0, 5.0917296, 4.9624434 
7.2272545e+2, 1.3556805e+2, -1436670.9, -1626455.3, 3690.653, -0.0019987372, -0.0030396353, -1436599.1, 174832.33, 0.0, 5.087734, 4.962439 
7.2255486e+2, 1.4052714e+2, -1400819.8, -1585902.9, 2825.5913, 0.002252039, -0.007884198, -1400776.6, 162053.69, 0.0, 5.0837264, 4.961702 
7.223811e+2, 1.4548694e+2, -1361762.5, -1540055.0, -628.62427, 0.0030274861, -0.0029031497, -1361760.3, 152462.28, 0.0, 5.079939, 4.962562 
7.222055e+2, 1.5044641e+2, -1324122.0, -1496869.5, -1023.03345, 0.0036612838, -0.008817019, -1324116.0, 141501.58, 0.0, 5.0761476, 4.962561 
7.2203004e+2, 1.5540591e+2, -1286441.0, -1453633.4, -1391.3953, 0.004231422, -0.014667001, -1286429.5, 130582.97, 0.0, 5.0723524, 4.9625587 
7.2185457e+2, 1.6036549e+2, -1250245.6, -1413583.1, -1985.3215, 0.0042769974, -0.017386036, -1250221.5, 118185.86, 0.0, 5.0685496, 4.961475 
7.2167706e+2, 1.6532493e+2, -1212809.8, -1371862.8, -4005.6167, 0.0029191277, -0.0066989963, -1212708.9, 107099.49, 0.0, 5.0648947, 4.960874 
7.214985e+2, 1.7028378e+2, -1174547.1, -1328253.0, -4210.8867, 0.00093446276, -0.0018511583, -1174431.9, 96783.61, 0.0, 5.0612507, 4.9608603 
7.2132e+2, 1.7524265e+2, -1136232.5, -1284581.8, -4425.7607, -0.0010808702, 0.0029931723, -1136100.6, 86522.02, 0.0, 5.057607, 4.9608464 
7.211415e+2, 1.8020141e+2, -1098361.4, -1242015.0, -4995.8667, -0.002530656, 0.0069670384, -1098187.8, 75842.24, 0.0, 5.0539813, 4.9604406 
7.20962e+2, 1.8515907e+2, -1060228.5, -1199838.9, -6688.6714, 0.00016836698, 0.009566019, -1059908.8, 65535.76, 0.0, 5.050517, 4.959811 
7.2078174e+2, 1.9011573e+2, -1021207.3, -1155686.1, -7109.589, 0.0036507028, 0.0029431048, -1020832.5, 56035.457, 0.0, 5.0470634, 4.959809 
7.206016e+2, 1.9507243e+2, -982169.3, -1111491.3, -7521.8403, 0.007132878, -0.0036432622, -981733.25, 46557.94, 0.0, 5.0435987, 4.959807 
7.2042155e+2, 2.0002922e+2, -943906.75, -1068974.0, -7946.042, 0.00979602, -0.008587461, -943403.94, 36309.71, 0.0, 5.0401206, 4.959221 
7.2024024e+2, 2.049858e+2, -906885.75, -1029300.56, -8996.749, 0.0076187183, -0.00011315032, -906228.06, 24912.262, 0.0, 5.0366426, 4.9576426 
7.200584e+2, 2.099414e+2, -867736.1, -984778.94, -9329.144, 0.0052013523, 0.0029861247, -866997.2, 15579.546, 0.0, 5.03313, 4.957709 
7.1987665e+2, 2.1489704e+2, -828662.9, -940421.2, -9652.376, 0.0027365626, 0.006177128, -827835.4, 6177.725, 0.0, 5.0296073, 4.9577036 
7.1969503e+2, 2.198526e+2, -790270.5, -897584.8, -9907.53, 0.00037382575, 0.009190322, -789363.5, -3913.524, 0.0, 5.026081, 4.957158 
7.195135e+2, 2.2480674e+2, -753240.3, -858014.94, -10427.224, 0.000032856773, 0.015272553, -752212.7, -15313.106, 0.0, 5.0225983, 4.9554377 
7.193318e+2, 2.297595e+2, -713638.9, -812786.0, -11024.897, -0.00004668793, 0.010041731, -712427.75, -24065.25, 0.0, 5.0191007, 4.9556556 
7.191501e+2, 2.347123e+2, -674286.25, -768121.1, -11547.776, -0.0001163832, 0.0046977876, -672886.06, -33060.79, 0.0, 5.0155993, 4.9556594 
7.1896863e+2, 2.396651e+2, -635515.5, -724763.06, -12013.338, -0.000099208584, -0.0003335873, -633926.7, -42639.137, 0.0, 5.012093, 4.9551897 
7.187876e+2, 2.446172e+2, -598559.06, -685123.2, -12014.304, 0.001732176, 0.0052184854, -596922.56, -54166.52, 0.0, 5.0085363, 4.9534035 
7.186066e+2, 2.4956852e+2, -558793.4, -639093.25, -12634.234, 0.0036720792, 0.0026763764, -556852.44, -62620.77, 0.0, 5.0049114, 4.95387 
7.1842563e+2, 2.5451988e+2, -519647.25, -594353.1, -13119.591, 0.0054502026, -0.000013168328, -517410.22, -71703.01, 0.0, 5.0012636, 4.953876 
7.1824485e+2, 2.594712e+2, -480993.53, -550773.44, -13087.648, 0.0066021685, -0.002616279, -478619.63, -81436.55, 0.0, 4.9976153, 4.9534545 
7.180656e+2, 2.6442105e+2, -445032.3, -513742.84, -11459.252, 0.0027169483, 0.0061996737, -443171.56, -94496.83, 0.0, 4.994097, 4.9506044 
7.178871e+2, 2.6937044e+2, -403418.7, -464518.06, -12150.578, -0.0027421152, 0.001397522, -401091.03, -100919.336, 0.0, 4.990624, 4.9520283 
7.1770865e+2, 2.7431974e+2, -363391.34, -419196.9, -12552.214, -0.008106857, -0.0045422437, -360697.97, -109029.164, 0.0, 4.987212, 4.952041 
7.175303e+2, 2.792692e+2, -323311.4, -373541.25, -12736.83, -0.0121529475, -0.009866257, -320266.3, -117101.72, 0.0, 4.9837503, 4.9521713 
7.1735543e+2, 2.8421834e+2, -288340.6, -336531.03, -10025.336, -0.0027819318, 0.00382942, -286338.2, -131677.73, 0.0, 4.9797454, 4.9494157 
7.171822e+2, 2.8916878e+2, -247513.92, -286032.97, -10110.333, 0.010270507, 0.014340338, -245021.47, -138878.27, 0.0, 4.9756494, 4.951488 
7.1700907e+2, 2.941192e+2, -209215.94, -241324.89, -10017.504, 0.02259576, 0.024573704, -206346.97, -148721.56, 0.0, 4.971551, 4.95149 
7.1683586e+2, 2.990692e+2, -174668.0, -205564.83, -9742.485, 0.03191822, 0.036222246, -171852.52, -162739.53, 0.0, 4.9674997, 4.948261 
7.1666384e+2, 3.040223e+2, -132449.53, -123591.17, -5680.106, 0.0053157746, 0.008115186, -120817.484, -120817.484, 0.0, 4.9642324, 4.9701724 
7.164962e+2, 3.0898547e+2, -136245.19, -118297.38, -6308.3335, -0.03506863, -0.0857265, -116301.96, -116301.96, 0.0, 4.961522, 4.9732523 
7.163289e+2, 3.1394905e+2, -143632.66, -121471.17, -7393.456, -0.07437835, -0.17773442, -119231.02, -119231.02, 0.0, 4.9588256, 4.9732842 
7.161676e+2, 3.189759e+2, -105215.18, -13160.677, -7639.274, -0.054157253, 0.35832438, -12531.028, -12531.028, 0.0, 4.9548593, 5.0143747 
7.2816116e+2, 1.258235e+2, -1502180.9, -1706578.3, 10451.964, -0.0068197, 0.00945847, -1501647.8, 205282.28, 0.0, 5.0985603, 4.9626904 
7.2798634e+2, 1.3078241e+2, -1465871.9, -1664209.4, 10221.121, -0.0036830257, 0.0033247084, -1465346.5, 192984.84, 0.0, 5.0943885, 4.9626865 
7.2781163e+2, 1.3574135e+2, -1429500.6, -1621772.0, 9985.114, -0.0004746055, -0.002614016, -1428983.5, 180749.11, 0.0, 5.0902195, 4.9626827 
7.276367e+2, 1.4070031e+2, -1394051.5, -1581266.9, 9248.976, 0.0018555621, -0.0070222793, -1393595.6, 167537.83, 0.0, 5.086043, 4.9620137 
7.274589e+2, 1.4565995e+2, -1355427.9, -1535788.3, 6244.859, 0.0025434913, -0.0021251112, -1355211.9, 157315.77, 0.0, 5.0821424, 4.9628057 
7.272796e+2, 1.5061927e+2, -1318049.8, -1492721.5, 6038.2144, 0.0035388719, -0.007988039, -1317841.3, 146083.89, 0.0, 5.0782633, 4.962809 
7.271003e+2, 1.5557857e+2, -1280611.4, -1449590.8, 5830.25, 0.0044748685, -0.01378454, -1280410.5, 134912.06, 0.0, 5.0743866, 4.962813 
7.26921e+2, 1.60538e+2, -1244263.9, -1408810.6, 5348.2944, 0.004965993, -0.016779887, -1244090.1, 122629.08, 0.0, 5.070502, 4.9620132 
7.267399e+2, 1.6549748e+2, -1207078.4, -1367201.3, 3713.361, 0.004193742, -0.006949933, -1206992.3, 111126.52, 0.0, 5.066769, 4.961412 
7.265576e+2, 1.7045635e+2, -1169002.1, -1323676.4, 3728.814, 0.0026456092, -0.0026177252, -1168912.4, 100612.3, 0.0, 5.063065, 4.9614005 
7.2637546e+2, 1.754152e+2, -1130868.0, -1280088.0, 3743.519, 0.0010473757, 0.0017661602, -1130774.1, 90156.44, 0.0, 5.0593634, 4.961389 
7.261934e+2, 1.8037397e+2, -1093252.4, -1237805.8, 3411.773, -0.0001026852, 0.0053238184, -1093171.9, 79165.445, 0.0, 5.0556884, 4.960911 
7.2601026e+2, 1.853315e+2, -1055532.5, -1196440.5, 2063.4382, 0.0017188299, 0.0086023295, -1055502.3, 68251.47, 0.0, 5.052219, 4.9600067 
7.2582656e+2, 1.9028796e+2, -1016455.3, -1152252.8, 1771.7374, 0.004126099, 0.0031010958, -1016432.2, 58747.926, 0.0, 5.0487866, 4.9600096 
7.2564286e+2, 1.9524445e+2, -977323.4, -1108005.3, 1478.0709, 0.0066175903, -0.0024771914, -977306.7, 49299.75, 0.0, 5.0453563, 4.960012 
7.254592e+2, 2.0020102e+2, -938768.4, -1065038.9, 1131.3655, 0.008571212, -0.0067490404, -938758.25, 39273.49, 0.0, 5.04192, 4.9595633 
7.252745e+2, 2.0515735e+2, -901725.56, -1025352.75, 250.4578, 0.0070809, 0.0007345534, -901725.06, 27735.086, 0.0, 5.0384603, 4.9579797 
7.2508925e+2, 2.1011262e+2, -862487.4, -980825.0, 32.95119, 0.0054770657, 0.0024330828, -862487.4, 18411.795, 0.0, 5.03499, 4.9580317 
7.249041e+2, 2.1506791e+2, -823263.75, -936390.5, -184.65047, 0.0038005079, 0.0043215114, -823263.44, 9074.627, 0.0, 5.0315223, 4.958031 
7.2471905e+2, 2.2002311e+2, -784724.6, -893518.7, -298.66248, 0.0021538103, 0.0061879526, -784723.8, -946.21277, 0.0, 5.0280576, 4.957473 
7.24534e+2, 2.2497702e+2, -747930.5, -854425.3, -718.0484, 0.0015269284, 0.012974913, -747925.6, -12695.783, 0.0, 5.024573, 4.9555893 
7.2434866e+2, 2.2992954e+2, -708436.8, -809298.25, -1151.1346, 0.00092277775, 0.009306289, -708423.7, -21727.771, 0.0, 5.0210495, 4.9557877 
7.2416353e+2, 2.3488201e+2, -669154.1, -764681.06, -1531.7004, 0.00034831397, 0.005465769, -669129.56, -30967.611, 0.0, 5.017527, 4.9557896 
7.239784e+2, 2.3983452e+2, -630354.7, -721237.06, -1824.4948, -0.000033461503, 0.0017059649, -630318.06, -40690.348, 0.0, 5.014017, 4.955356 
7.2379386e+2, 2.4478616e+2, -593150.8, -681518.7, -1732.4669, 0.0019607972, 0.00658514, -593116.9, -52016.22, 0.0, 5.010557, 4.953556 
7.236094e+2, 2.4973693e+2, -553080.75, -635437.75, -2319.9844, 0.0042446107, 0.0028831859, -553015.44, -60433.68, 0.0, 5.007057, 4.9539905 
7.2342485e+2, 2.5468773e+2, -513530.72, -590529.94, -2759.0454, 0.0065426603, -0.00096120726, -513431.97, -69369.22, 0.0, 5.003554, 4.953996 
7.2324055e+2, 2.5963852e+2, -474526.78, -546742.94, -2640.664, 0.008194156, -0.0044900784, -474430.34, -78886.49, 0.0, 5.0000196, 4.9536033 
7.2305757e+2, 2.6458815e+2, -439441.22, -509919.75, -1004.687, 0.003605476, 0.005623138, -439426.9, -92389.53, 0.0, 4.9961553, 4.95084 
7.228752e+2, 2.6953727e+2, -399349.9, -461515.03, -1612.1823, -0.0029142175, 0.002484178, -399308.13, -100771.99, 0.0, 4.992164, 4.9522133 
7.226928e+2, 2.7448636e+2, -361086.3, -417018.16, -2065.8052, -0.009531097, -0.0018842728, -361010.13, -110974.81, 0.0, 4.9881268, 4.9522185 
7.2251076e+2, 2.7943552e+2, -322442.38, -371913.6, -2316.8, -0.014553801, -0.0060250303, -322334.1, -120800.61, 0.0, 4.9841313, 4.952394 
7.2233224e+2, 2.843841e+2, -286268.3, -334129.16, -317.75568, -0.0034615153, 0.0042547705, -286266.2, -133230.67, 0.0, 4.980505, 4.949753 
7.2215545e+2, 2.8933385e+2, -243940.84, -283025.66, -1248.6716, 0.012536159, 0.010486056, -243901.0, -139375.89, 0.0, 4.9769545, 4.9518075 
7.219788e+2, 2.9428378e+2, -204304.02, -237685.97, -1929.44, 0.02880658, 0.016932124, -204192.88, -148179.84, 0.0, 4.973327, 4.9518347 
7.2180194e+2, 2.992333e+2, -169888.88, -203280.38, -2003.488, 0.041366577, 0.026537256, -169769.1, -162263.13, 0.0, 4.9694786, 4.9480367 
7.21625e+2, 3.0418673e+2, -132380.63, -123696.445, 2807.1658, 0.0032407104, 0.007874275, -122868.05, -122868.05, 0.0, 4.964579, 4.9698153 
7.214522e+2, 3.091503e+2, -142172.3, -121376.914, 2885.2512, -0.053132217, -0.07560141, -120984.02, -120984.02, 0.0, 4.9597692, 4.9727454 
7.2127944e+2, 3.14114e+2, -155504.36, -127331.64, 2500.6816, -0.10963075, -0.15956353, -127111.4, -127111.4, 0.0, 4.9549756, 4.9726954 
7.2113305e+2, 3.19112e+2, -75947.21, 81292.25, -3488.1191, 0.10475583, 0.017958565, 81369.586, 81369.586, 0.0, 4.949818, 5.0515714 
7.3325723e+2, 1.2600146e+2, -1501982.3, -1706806.9, 7374.3496, -0.00092652446, 0.009588528, -1501717.1, 203467.08, 0.0, 5.0986066, 4.9626374 
7.3307806e+2, 1.3096039e+2, -1465667.0, -1664445.5, 7147.4194, -0.000027580252, 0.0040692836, -1465410.4, 191175.86, 0.0, 5.0944376, 4.9626307 
7.3289895e+2, 1.3591932e+2, -1429289.4, -1622015.5, 6915.3135, 0.0008460454, -0.001298128, -1429041.6, 178946.53, 0.0, 5.090271, 4.962624 
7.327196e+2, 1.4087826e+2, -1393753.5, -1581358.1, 6139.2627, 0.0013744014, -0.0053254017, -1393552.8, 165837.06, 0.0, 5.086099, 4.962004 
7.325378e+2, 1.4583787e+2, -1355237.1, -1536021.4, 3374.7778, 0.0019390103, -0.00052079995, -1355174.1, 155610.69, 0.0, 5.08219, 4.9627495 
7.3235464e+2, 1.5079711e+2, -1317857.8, -1492956.9, 3169.924, 0.003293394, -0.0064351796, -1317800.4, 144383.17, 0.0, 5.0783114, 4.9627523 
7.3217154e+2, 1.5575637e+2, -1280418.1, -1449828.3, 2963.7356, 0.004577102, -0.01226296, -1280366.4, 133215.86, 0.0, 5.074435, 4.962755 
7.319884e+2, 1.607158e+2, -1243686.3, -1408230.0, 2429.9976, 0.0054863556, -0.015438175, -1243650.4, 121328.91, 0.0, 5.0705495, 4.9622307 
7.318034e+2, 1.6567548e+2, -1206541.1, -1366636.1, 957.99603, 0.0053808833, -0.0064091543, -1206535.4, 109840.484, 0.0, 5.0668097, 4.961627 
7.3161757e+2, 1.706345e+2, -1168468.5, -1323116.6, 974.4823, 0.0043489435, -0.0027420716, -1168462.4, 99316.66, 0.0, 5.063105, 4.9616146 
7.314318e+2, 1.755935e+2, -1130338.1, -1279533.8, 990.214, 0.0032354342, 0.0009932627, -1130331.5, 88850.99, 0.0, 5.059403, 4.961602 
7.3124605e+2, 1.8055235e+2, -1092875.9, -1237596.4, 669.2269, 0.0023044657, 0.004118379, -1092872.8, 77714.51, 0.0, 5.0557313, 4.9610057 
7.310592e+2, 1.8550992e+2, -1055533.8, -1197017.3, -515.8452, 0.0031054553, 0.008217378, -1055531.9, 66472.31, 0.0, 5.052261, 4.9598336 
7.308719e+2, 1.9046634e+2, -1016455.2, -1152833.6, -806.67035, 0.004336255, 0.003938067, -1016450.44, 56981.645, 0.0, 5.048829, 4.959835 
7.3068476e+2, 1.9542277e+2, -977321.94, -1108590.3, -1099.4675, 0.0056246333, -0.00041622762, -977312.75, 47547.223, 0.0, 5.045399, 4.959836 
7.3049754e+2, 2.003793e+2, -938620.75, -1065307.6, -1494.5858, 0.0066284933, -0.0037501128, -938603.06, 37683.45, 0.0, 5.041962, 4.959496 
7.3030937e+2, 2.0533551e+2, -901525.56, -1025495.06, -2376.7537, 0.006022366, 0.002636501, -901480.0, 26235.36, 0.0, 5.038501, 4.9579573 
7.301208e+2, 2.102905e+2, -862360.7, -981124.8, -2581.4382, 0.0054289834, 0.0025084098, -862304.6, 16851.506, 0.0, 5.0350304, 4.957956 
7.2993225e+2, 2.1524553e+2, -823136.6, -936691.7, -2798.5203, 0.004743258, 0.0025818534, -823067.7, 7528.998, 0.0, 5.031563, 4.957955 
7.2974384e+2, 2.202005e+2, -784605.5, -893840.94, -2897.1816, 0.0039365147, 0.0028639857, -784528.75, -2490.7559, 0.0, 5.0280986, 4.957388 
7.2955525e+2, 2.2515431e+2, -748029.94, -855270.44, -3418.409, 0.0030175513, 0.010386813, -747921.06, -14429.594, 0.0, 5.0246186, 4.955324 
7.293664e+2, 2.3010673e+2, -708548.75, -810168.44, -3825.1191, 0.0020080968, 0.008517822, -708404.94, -23445.97, 0.0, 5.021095, 4.9555135 
7.291776e+2, 2.3505911e+2, -669262.44, -765549.0, -4206.107, 0.0010142796, 0.0064805755, -669079.06, -32652.633, 0.0, 5.017573, 4.955516 
7.2898895e+2, 2.4001148e+2, -630411.6, -722005.94, -4461.69, 0.00029196488, 0.00422171, -630194.75, -42300.957, 0.0, 5.0140653, 4.9551153 
7.2880095e+2, 2.449628e+2, -593265.56, -682458.5, -4391.9355, 0.0022287234, 0.008296205, -593049.8, -53679.832, 0.0, 5.0106106, 4.953254 
7.286129e+2, 2.499131e+2, -553230.4, -636463.6, -4998.1104, 0.0043572555, 0.003260177, -552931.3, -62075.59, 0.0, 5.0071106, 4.953658 
7.2842497e+2, 2.5486344e+2, -513677.94, -591554.3, -5437.8184, 0.006469013, -0.0019022387, -513300.06, -70958.72, 0.0, 5.0036077, 4.9536643 
7.282371e+2, 2.5981382e+2, -474563.06, -547484.6, -5369.95, 0.007881428, -0.0063920785, -474169.75, -80343.2, 0.0, 5.000067, 4.9533715 
7.2805035e+2, 2.647634e+2, -439420.2, -510550.94, -4070.0671, 0.0038997328, 0.005322492, -439188.06, -93868.42, 0.0, 4.996201, 4.950649 
7.278641e+2, 2.6971257e+2, -399289.13, -462157.3, -4641.667, -0.001693694, 0.0042788894, -398948.28, -102130.555, 0.0, 4.99223, 4.9520097 
7.276779e+2, 2.7466166e+2, -360849.72, -417575.8, -4983.8735, -0.007418679, 0.0020730188, -360415.2, -112098.98, 0.0, 4.9882555, 4.9520164 
7.2749186e+2, 2.7961075e+2, -322164.6, -372657.63, -4912.757, -0.011730999, -0.0005766135, -321691.03, -121876.37, 0.0, 4.9843154, 4.9521008 
7.2730964e+2, 2.8455827e+2, -286102.25, -335348.0, -2658.5493, -0.00344436, 0.0033740592, -285959.16, -134631.4, 0.0, 4.980727, 4.949276 
7.27129e+2, 2.8950664e+2, -243625.77, -284281.4, -3496.0488, 0.0085629625, 0.001639219, -243327.33, -140495.64, 0.0, 4.97725, 4.9512844 
7.269484e+2, 2.9445523e+2, -203569.66, -238747.3, -4122.0444, 0.020859566, 0.00025650137, -203093.11, -148759.22, 0.0, 4.973771, 4.951315 
7.267676e+2, 2.9940358e+2, -167768.64, -201926.5, -4640.975, 0.029947797, 0.002368069, -167149.3, -161310.25, 0.0, 4.970071, 4.9483123 
7.2658676e+2, 3.043599e+2, -130393.41, -121256.234, -539.6191, 0.0011279109, 0.008921146, -121224.48, -121224.48, 0.0, 4.964899, 4.97062 
7.264099e+2, 3.093277e+2, -141297.36, -119561.13, 110.36064, -0.041369095, -0.03366645, -119560.57, -119560.57, 0.0, 4.9597106, 4.9734926 
7.262331e+2, 3.142955e+2, -155687.58, -126057.766, 405.1288, -0.08457843, -0.076729864, -126052.23, -126052.23, 0.0, 4.9545426, 4.973415 
7.260808e+2, 3.1929076e+2, -84349.41, 66663.92, -5818.4336, 0.12291606, 0.056519795, 66887.766, 66887.766, 0.0, 4.9488063, 5.046613 
7.3835325e+2, 1.2617944e+2, -1501490.0, -1706902.5, 4327.2563, 0.0048853224, 0.009975877, -1501398.9, 202039.28, 0.0, 5.098762, 4.962577 
7.3816967e+2, 1.3113837e+2, -1465258.8, -1664591.6, 4081.2139, 0.0034754726, 0.0050512413, -1465175.1, 189665.67, 0.0, 5.094562, 4.962569 
7.3798615e+2, 1.360973e+2, -1428959.9, -1622209.4, 3838.4478, 0.0020146302, 0.00019004756, -1428883.6, 177359.88, 0.0, 5.090367, 4.9625616 
7.3780245e+2, 1.4105621e+2, -1393433.5, -1581490.3, 3021.7876, 0.00089748943, -0.00345918, -1393385.0, 164261.1, 0.0, 5.086174, 4.9619737 
7.376166e+2, 1.4601581e+2, -1355035.8, -1536255.6, 506.0138, 0.0013318369, 0.0012553686, -1355034.4, 154007.63, 0.0, 5.0822425, 4.962691 
7.374295e+2, 1.5097499e+2, -1317662.1, -1493196.9, 303.0121, 0.0030450267, -0.0048330254, -1317661.6, 142780.36, 0.0, 5.0783615, 4.9626927 
7.3724264e+2, 1.5593417e+2, -1280221.3, -1450070.4, 98.60121, 0.0046762885, -0.010814959, -1280221.1, 131620.67, 0.0, 5.0744863, 4.962695 
7.3705554e+2, 1.6089363e+2, -1243123.9, -1407694.8, -490.3938, 0.006004512, -0.01407925, -1243122.4, 120116.6, 0.0, 5.0705996, 4.962434 
7.368669e+2, 1.6585349e+2, -1206000.9, -1366074.9, -1795.9332, 0.006600446, -0.0057787606, -1205980.8, 108651.98, 0.0, 5.066852, 4.96184 
7.3667735e+2, 1.7081264e+2, -1167931.9, -1322560.9, -1778.4136, 0.0061066267, -0.0028682004, -1167911.5, 98121.84, 0.0, 5.063147, 4.961827 
7.364879e+2, 1.7577177e+2, -1129805.0, -1278983.3, -1761.655, 0.0054997015, 0.00012744345, -1129784.3, 87649.91, 0.0, 5.059445, 4.9618134 
7.362985e+2, 1.8073075e+2, -1092554.5, -1237517.5, -2063.7903, 0.004657927, 0.0029763049, -1092525.1, 76311.94, 0.0, 5.0557766, 4.961056 
7.36108e+2, 1.8568836e+2, -1055532.1, -1197597.6, -3092.4512, 0.004383225, 0.008003773, -1055464.9, 64789.727, 0.0, 5.0523043, 4.9596596 
7.359172e+2, 1.9064473e+2, -1016452.3, -1153418.1, -3382.4014, 0.0044732173, 0.0048698112, -1016368.8, 55315.285, 0.0, 5.0488734, 4.959659 
7.357265e+2, 1.9560109e+2, -977317.7, -1109178.9, -3674.3298, 0.004594042, 0.0016631379, -977215.4, 45898.21, 0.0, 5.045444, 4.959659 
7.3553574e+2, 2.0055757e+2, -938433.6, -1065504.1, -4132.1426, 0.004707638, -0.00074823934, -938299.44, 36241.902, 0.0, 5.0420065, 4.9594545 
7.353442e+2, 2.0551367e+2, -901379.4, -1025761.6, -4993.334, 0.0050429637, 0.004528658, -901179.25, 24791.354, 0.0, 5.0385427, 4.9578924 
7.3515224e+2, 2.104684e+2, -862230.8, -981428.25, -5194.711, 0.0054692114, 0.0024982383, -862004.8, 15408.2, 0.0, 5.0350723, 4.957878 
7.349603e+2, 2.1542314e+2, -823006.3, -936996.44, -5411.273, 0.0057839323, 0.0006784582, -822750.0, 6105.336, 0.0, 5.031605, 4.9578767 
7.347685e+2, 2.2037786e+2, -784530.9, -894284.44, -5534.569, 0.0057381336, -0.00049663626, -784252.44, -3954.0422, 0.0, 5.0281425, 4.957262 
7.345764e+2, 2.253316e+2, -748118.56, -856091.3, -6078.842, 0.004484498, 0.008028513, -747777.44, -16024.309, 0.0, 5.024665, 4.955068 
7.34384e+2, 2.302839e+2, -708657.2, -811042.2, -6498.322, 0.0030715007, 0.007906977, -708246.4, -25024.342, 0.0, 5.021142, 4.9552383 
7.3419166e+2, 2.3523621e+2, -669367.4, -766420.56, -6879.7305, 0.0016584474, 0.0076168654, -668882.06, -34191.145, 0.0, 5.0176206, 4.9552407 
7.3399943e+2, 2.4018845e+2, -630473.6, -722789.06, -7059.5854, 0.00060187763, 0.006746342, -629936.9, -43776.887, 0.0, 5.0141144, 4.9548697 
7.3380804e+2, 2.4513942e+2, -593388.5, -683435.9, -7084.8496, 0.0024931151, 0.009964332, -592834.5, -55194.855, 0.0, 5.0106664, 4.95294 
7.336165e+2, 2.5008926e+2, -553376.8, -637493.0, -7675.434, 0.0044702184, 0.0035584266, -552682.2, -63552.188, 0.0, 5.0071664, 4.9533253 
7.334249e+2, 2.550391e+2, -513821.9, -592582.2, -8115.79, 0.006401353, -0.0029594311, -512994.3, -72374.125, 0.0, 5.0036635, 4.9533315 
7.332336e+2, 2.5998908e+2, -474631.34, -548315.25, -8150.907, 0.007595654, -0.0082848305, -473740.47, -81631.164, 0.0, 5.000117, 4.9531097 
7.330431e+2, 2.649387e+2, -439360.25, -511100.84, -7100.802, 0.0042514517, 0.005224542, -438664.16, -95062.39, 0.0, 4.996249, 4.9504867 
7.328529e+2, 2.6988786e+2, -399280.72, -462830.66, -7700.2456, -0.00042392412, 0.0062301117, -398361.0, -103261.82, 0.0, 4.9922786, 4.951804 
7.326628e+2, 2.74837e+2, -360841.9, -418247.7, -8042.7446, -0.005270296, 0.006128284, -359736.38, -113139.41, 0.0, 4.988303, 4.9518113 
7.32473e+2, 2.7978596e+2, -322318.3, -373717.63, -7725.055, -0.008988655, 0.004704291, -321182.4, -123086.23, 0.0, 4.984367, 4.9517565 
7.3228693e+2, 2.8473234e+2, -286389.47, -336841.03, -5391.763, -0.0036996887, 0.0017312897, -285819.7, -136198.67, 0.0, 4.9807987, 4.9487705 
7.3210233e+2, 2.8967935e+2, -243929.73, -285831.6, -6216.608, 0.0042485087, -0.008437569, -243026.89, -141887.64, 0.0, 4.977324, 4.950756 
7.3191786e+2, 2.946266e+2, -203865.64, -240289.05, -6826.4526, 0.012387758, -0.018191233, -202628.27, -149972.55, 0.0, 4.9738464, 4.950788 
7.317331e+2, 2.9957393e+2, -167664.86, -202377.13, -8004.5015, 0.018234605, -0.021095295, -165907.98, -161736.45, 0.0, 4.9701104, 4.9481907 
7.3154837e+2, 3.045335e+2, -129218.625, -119124.33, -4702.6904, 0.000015616899, 0.012578861, -117272.99, -117272.99, 0.0, 4.964913, 4.971442 
7.313676e+2, 3.0950555e+2, -140141.14, -117520.94, -3860.183, -0.028018488, 0.0054733064, -116880.336, -116880.336, 0.0, 4.959732, 4.974278 
7.311869e+2, 3.1447765e+2, -154525.2, -124020.36, -3316.1335, -0.05730526, -0.0014587531, -123664.03, -123664.03, 0.0, 4.954568, 4.9741955 
7.3102343e+2, 3.1947607e+2, -108627.72, 10420.359, -6772.054, 0.09145038, 0.20510872, 10804.35, 10804.35, 0.0, 4.9488373, 5.0256352 
7.4344957e+2, 1.2635842e+2, -1499129.3, -1705458.3, 5495.9033, 0.008197513, 0.004764929, -1498983.0, 202698.67, 0.0, 5.099529, 4.96269 
7.4326146e+2, 1.3131738e+2, -1463343.0, -1663387.8, 5223.8027, 0.0056721317, 0.001366611, -1463206.8, 189877.94, 0.0, 5.095176, 4.9626784 
7.430735e+2, 1.3627632e+2, -1427517.5, -1621257.1, 4945.3955, 0.0031736556, -0.002082168, -1427391.3, 177096.53, 0.0, 5.090818, 4.962667 
7.428854e+2, 1.4123529e+2, -1392318.3, -1580541.0, 4112.607, 0.0011820896, -0.004291333, -1392228.4, 163662.27, 0.0, 5.0864816, 4.9621434 
7.4269545e+2, 1.4619501e+2, -1354016.3, -1535439.8, 1854.3063, 0.001133011, 0.0018541852, -1353997.3, 153288.89, 0.0, 5.0825357, 4.9628215 
7.4250454e+2, 1.5115422e+2, -1316689.6, -1492443.0, 1625.2854, 0.002959996, -0.0031466587, -1316674.6, 142011.94, 0.0, 5.078641, 4.962812 
7.423137e+2, 1.561134e+2, -1279314.5, -1449385.4, 1383.7219, 0.004796499, -0.008377102, -1279303.1, 130783.89, 0.0, 5.074745, 4.9628024 
7.4212277e+2, 1.6107285e+2, -1241957.0, -1406506.0, 680.38934, 0.0065049017, -0.011485593, -1241954.3, 119530.53, 0.0, 5.070866, 4.9627104 
7.4193037e+2, 1.6603267e+2, -1204624.0, -1364883.1, -711.70776, 0.007586691, -0.0044122925, -1204620.9, 108256.99, 0.0, 5.0672174, 4.9620714 
7.417372e+2, 1.7099176e+2, -1166258.1, -1321228.9, -987.9743, 0.0074609676, -0.0027201963, -1166251.9, 98026.34, 0.0, 5.063614, 4.9620614 
7.4154407e+2, 1.7595087e+2, -1127888.8, -1277539.0, -1252.175, 0.007314386, -0.00084109616, -1127878.3, 87800.16, 0.0, 5.0599947, 4.9620504 
7.41351e+2, 1.8090983e+2, -1090684.0, -1236397.8, -1749.282, 0.0066003874, 0.0015496314, -1090663.0, 76417.91, 0.0, 5.05637, 4.9611673 
7.4115694e+2, 1.8586738e+2, -1054033.9, -1197074.1, -2707.6926, 0.0054671452, 0.0074740937, -1053982.6, 64516.703, 0.0, 5.052854, 4.9595885 
7.409625e+2, 1.9082367e+2, -1015094.5, -1152991.3, -3079.4946, 0.0046490314, 0.005418718, -1015025.75, 54904.8, 0.0, 5.0493755, 4.9595804 
7.4076825e+2, 1.9577993e+2, -976111.06, -1108852.0, -3460.269, 0.003837642, 0.0033132033, -976020.94, 45340.836, 0.0, 5.0458956, 4.9595723 
7.4057406e+2, 2.0073634e+2, -937175.9, -1064914.6, -4088.2534, 0.0032681506, 0.0018297059, -937045.2, 35745.684, 0.0, 5.0424232, 4.9594784 
7.40379e+2, 2.0569223e+2, -900117.44, -1025353.4, -5139.882, 0.0043804883, 0.0062424154, -899906.9, 24314.582, 0.0, 5.038997, 4.9578385 
7.4018365e+2, 2.1064664e+2, -860863.5, -980981.7, -5591.0063, 0.005646151, 0.0025096906, -860603.8, 15062.642, 0.0, 5.035561, 4.9578257 
7.399883e+2, 2.1560106e+2, -821584.44, -936540.94, -6046.518, 0.006858718, -0.0011022572, -821267.25, 5843.9883, 0.0, 5.032112, 4.957823 
7.397932e+2, 2.2055548e+2, -783177.06, -894005.75, -6403.9063, 0.0074583283, -0.003545955, -782808.3, -4251.602, 0.0, 5.0286503, 4.957151 
7.395975e+2, 2.2550908e+2, -746960.7, -856162.2, -7101.6367, 0.0058802254, 0.005983286, -746500.75, -16487.816, 0.0, 5.0251527, 4.9548483 
7.3940146e+2, 2.3046124e+2, -707602.75, -811207.8, -7671.4063, 0.004100872, 0.0073926733, -707037.8, -25554.125, 0.0, 5.021599, 4.955003 
7.392056e+2, 2.354134e+2, -668428.75, -766657.56, -8192.829, 0.0023094555, 0.008703742, -667750.1, -34795.746, 0.0, 5.0180364, 4.9550014 
7.390099e+2, 2.4036546e+2, -629647.4, -723033.7, -8425.651, 0.00095168594, 0.009094794, -628893.3, -44467.81, 0.0, 5.0144787, 4.9546533 
7.38815e+2, 2.4531606e+2, -592845.2, -684041.0, -8747.13, 0.0027689526, 0.011519518, -592013.8, -56104.938, 0.0, 5.0109677, 4.952631 
7.3861986e+2, 2.5026542e+2, -553039.6, -638214.0, -9492.317, 0.004575335, 0.0037995197, -551994.56, -64590.535, 0.0, 5.0073957, 4.95301 
7.3842484e+2, 2.552148e+2, -513681.0, -593406.94, -10114.767, 0.006329332, -0.004072968, -512417.75, -73518.75, 0.0, 5.0038223, 4.953014 
7.3822993e+2, 2.6016438e+2, -474571.7, -548993.56, -10439.957, 0.0073305652, -0.010100318, -473134.9, -82742.945, 0.0, 5.000208, 4.952875 
7.380357e+2, 2.6511404e+2, -439272.84, -511626.0, -9829.185, 0.004658895, 0.005335894, -437961.3, -96077.59, 0.0, 4.996315, 4.95032 
7.378416e+2, 2.7006316e+2, -399261.13, -463462.25, -10545.087, 0.00089660793, 0.008319805, -397573.44, -104192.93, 0.0, 4.9923325, 4.951607 
7.3764765e+2, 2.7501228e+2, -360894.53, -418916.28, -10922.451, -0.0030803375, 0.010271964, -358906.5, -114028.89, 0.0, 4.9883304, 4.9516134 
7.3745406e+2, 2.7996108e+2, -322613.53, -374939.66, -10386.749, -0.0063156113, 0.009797298, -320627.16, -124249.055, 0.0, 4.9843936, 4.9513636 
7.3726416e+2, 2.8490624e+2, -286775.75, -338387.22, -7949.1655, -0.0042259367, -0.00070491974, -285579.16, -137663.66, 0.0, 4.980844, 4.9482546 
7.370757e+2, 2.8985193e+2, -244310.13, -287393.94, -8811.342, -0.00037708195, -0.0197613, -242577.73, -143129.58, 0.0, 4.9773726, 4.9502325 
7.3688734e+2, 2.9479778e+2, -204240.39, -241847.58, -9423.392, 0.0035614474, -0.038334027, -202011.27, -151032.27, 0.0, 4.973895, 4.9502645 
7.3669857e+2, 2.997443e+2, -168143.72, -203991.83, -11423.972, 0.006782426, -0.042827126, -164812.69, -162309.16, 0.0, 4.9701195, 4.947666 
7.3650986e+2, 3.0470744e+2, -128143.95, -117024.2, -8771.901, -0.000025625786, 0.01826674, -112198.586, -112198.586, 0.0, 4.9648943, 4.9722548 
7.3632526e+2, 3.0968365e+2, -139114.36, -115530.02, -7760.95, -0.013766248, 0.040004276, -113205.266, -113205.266, 0.0, 4.959711, 4.975053 
7.3614067e+2, 3.1465995e+2, -153521.38, -122047.16, -6977.668, -0.0293117, 0.06257456, -120569.61, -120569.61, 0.0, 4.9545403, 4.9749646 
7.3596114e+2, 3.1964016e+2, -120838.51, -17189.15, -6652.7515, 0.012343291, 0.11611705, -16763.889, -16763.889, 0.0, 4.948673, 5.0154195 
7.4854666e+2, 1.265482e+2, -1491926.1, -1700057.1, 11304.942, 0.008210411, -0.0031512177, -1491313.9, 208504.98, 0.0, 5.1018996, 4.963207 
7.483542e+2, 1.3150738e+2, -1456648.0, -1658231.4, 11248.773, 0.0061628195, -0.0049435794, -1456022.3, 195198.11, 0.0, 5.0973754, 4.9631996 
7.481618e+2, 1.3646653e+2, -1421305.1, -1616331.6, 11187.666, 0.004036267, -0.006814222, -1420665.4, 181956.67, 0.0, 5.092854, 4.963193 
7.4796927e+2, 1.4142576e+2, -1386394.3, -1575490.8, 10649.109, 0.0018223121, -0.0072920066, -1385796.5, 168226.67, 0.0, 5.088368, 4.962782 
7.4777514e+2, 1.4638583e+2, -1348479.6, -1530722.6, 8959.6045, 0.0011264854, 0.0010030575, -1348040.3, 157375.66, 0.0, 5.0843306, 4.9633927 
7.4758035e+2, 1.5134536e+2, -1311304.3, -1487786.5, 8962.937, 0.002853037, -0.0016119938, -1310850.3, 145963.55, 0.0, 5.0803876, 4.963388 
7.4738556e+2, 1.5630484e+2, -1274068.9, -1444784.3, 8963.447, 0.0045901136, -0.0044506392, -1273599.5, 134612.53, 0.0, 5.076447, 4.963383 
7.471907e+2, 1.6126445e+2, -1236767.4, -1401775.4, 8512.743, 0.0064372155, -0.0066059586, -1236329.4, 123279.01, 0.0, 5.072525, 4.963355 
7.469947e+2, 1.662241e+2, -1199737.5, -1360626.5, 7587.9272, 0.007811728, -0.0017599238, -1199380.4, 111622.56, 0.0, 5.068857, 4.962561 
7.467979e+2, 1.711829e+2, -1161302.6, -1316917.0, 7502.7407, 0.007768977, -0.0023069521, -1160941.8, 101463.984, 0.0, 5.0652814, 4.9625583 
7.4660134e+2, 1.7614172e+2, -1122811.6, -1273146.4, 7416.575, 0.0077389446, -0.00259292, -1122446.6, 91361.68, 0.0, 5.0617075, 4.962556 
7.4640465e+2, 1.8110047e+2, -1085366.6, -1231691.5, 7078.9155, 0.007160396, -0.001713338, -1085025.0, 80187.5, 0.0, 5.0581317, 4.961756 
7.4620706e+2, 1.860581e+2, -1048905.0, -1192753.8, 6500.837, 0.0059848456, 0.005108045, -1048611.8, 68018.41, 0.0, 5.0546284, 4.9600368 
7.460092e+2, 1.9101438e+2, -1009897.6, -1148632.5, 6360.8896, 0.0050805174, 0.0043200813, -1009606.56, 58454.793, 0.0, 5.0511785, 4.960031 
7.458114e+2, 1.9597062e+2, -970835.7, -1104451.1, 6219.783, 0.0041653784, 0.0035064258, -970546.75, 48945.91, 0.0, 5.0477304, 4.9600253 
7.456137e+2, 2.0092694e+2, -931773.1, -1060456.5, 5818.5503, 0.0036208073, 0.0028347927, -931510.56, 39411.895, 0.0, 5.044308, 4.959931 
7.454153e+2, 2.0588252e+2, -894822.25, -1021455.9, 4997.9873, 0.0047641327, 0.0070249885, -894625.25, 27731.168, 0.0, 5.0409627, 4.958058 
7.4521655e+2, 2.1083649e+2, -855266.56, -976932.75, 4627.88, 0.0060065757, 0.0029492034, -855090.8, 18715.307, 0.0, 5.037633, 4.9580526 
7.450179e+2, 2.1579047e+2, -815647.0, -932333.75, 4245.741, 0.007262542, -0.0010802068, -815492.7, 9762.868, 0.0, 5.034305, 4.958053 
7.448193e+2, 2.2074446e+2, -776780.5, -889412.94, 3971.0093, 0.007894348, -0.0039554485, -776640.7, 64.668495, 0.0, 5.030972, 4.95746 
7.4462014e+2, 2.2569771e+2, -740355.4, -851498.44, 3396.8047, 0.0063405223, 0.0049880897, -740251.7, -12087.055, 0.0, 5.02756, 4.955142 
7.444206e+2, 2.3064944e+2, -700875.56, -806589.7, 2997.26, 0.0045813164, 0.006174173, -700790.7, -21151.697, 0.0, 5.024073, 4.955256 
7.442212e+2, 2.356012e+2, -661496.56, -761954.8, 2640.5464, 0.0028256488, 0.007426899, -661427.2, -30313.963, 0.0, 5.020588, 4.9552546 
7.4402195e+2, 2.4055284e+2, -622489.06, -718199.94, 2622.2153, 0.0015042683, 0.0078109307, -622417.3, -39829.2, 0.0, 5.017105, 4.954925 
7.4382347e+2, 2.4550304e+2, -585984.2, -679738.3, 2354.8337, 0.0027746228, 0.010882942, -585925.1, -51849.35, 0.0, 5.013563, 4.952739 
7.436246e+2, 2.5045192e+2, -546407.8, -634035.9, 1735.5327, 0.0039035897, 0.004001555, -546373.44, -60797.4, 0.0, 5.009914, 4.9531155 
7.434259e+2, 2.5540078e+2, -507275.06, -589347.7, 1234.5973, 0.005060206, -0.0032034134, -507256.5, -70180.09, 0.0, 5.006263, 4.9531183 
7.432273e+2, 2.603498e+2, -468208.56, -544800.7, 982.66455, 0.005672729, -0.00883351, -468195.97, -79621.27, 0.0, 5.002603, 4.9530525 
7.4302936e+2, 2.6529896e+2, -432583.6, -507362.66, 1464.4277, 0.003999695, 0.0059224376, -432554.94, -92483.31, 0.0, 4.9988375, 4.950472 
7.428314e+2, 2.7024746e+2, -392358.5, -459197.03, 521.39594, 0.0017152674, 0.008072575, -392354.44, -100780.22, 0.0, 4.994942, 4.9517317 
7.426336e+2, 2.75196e+2, -353761.2, -414587.5, -182.17947, -0.0006683198, 0.009463831, -353760.66, -110683.91, 0.0, 4.9910226, 4.9517345 
7.424362e+2, 2.8014416e+2, -315797.4, -370924.6, 257.9179, -0.0027241788, 0.008306541, -315796.2, -121213.164, 0.0, 4.9869995, 4.9514246 
7.422423e+2, 2.8508863e+2, -282126.8, -335441.66, 2548.4055, -0.0032553487, -0.0033119605, -282005.28, -135877.42, 0.0, 4.982693, 4.948282 
7.420495e+2, 2.9003352e+2, -242100.31, -285663.22, 1606.638, -0.0026101472, -0.02382274, -242041.13, -144372.22, 0.0, 4.9783654, 4.950214 
7.4185693e+2, 2.9497844e+2, -204377.58, -241220.5, 909.93463, -0.0016978158, -0.04493054, -204355.11, -155145.75, 0.0, 4.974051, 4.950226 
7.4166393e+2, 2.9992434e+2, -169402.56, -203123.11, -1339.5842, -0.0001045732, -0.048650283, -169349.42, -168609.06, 0.0, 4.9697294, 4.947946 
7.414714e+2, 3.0488908e+2, -125749.84, -113123.625, -126.86937, 0.0006565072, 0.02470276, -113122.35, -113122.35, 0.0, 4.965543, 4.973191 
7.412828e+2, 3.0986726e+2, -133951.55, -110421.52, -542.1387, -0.0019173153, 0.059380084, -110409.04, -110409.04, 0.0, 4.961347, 4.976008 
7.410944e+2, 3.1484586e+2, -146403.92, -116082.31, -986.4309, -0.004644309, 0.097064346, -116050.26, -116050.26, 0.0, 4.9568725, 4.9759297 
7.408982e+2, 3.1977913e+2, -91749.125, 35033.305, -2178.8125, -0.07539346, -0.3821375, 35070.74, 35070.74, 0.0, 4.951856, 5.0330844 
7.536448e+2, 1.267426e+2, -1491347.4, -1699566.9, 7973.921, 0.008146108, -0.010029252, -1491042.4, 206868.33, 0.0, 5.101948, 4.9633975 
7.5344795e+2, 1.3170214e+2, -1456063.8, -1657748.5, 7921.0493, 0.0065827356, -0.010268103, -1455753.1, 193556.47, 0.0, 5.0974264, 4.963388 
7.53251e+2, 1.3666162e+2, -1420715.4, -1615856.1, 7863.2354, 0.0048149573, -0.010627625, -1420399.0, 180309.75, 0.0, 5.092908, 4.9633784 
7.5305396e+2, 1.4162123e+2, -1385651.5, -1574711.5, 7402.1523, 0.0023086418, -0.009278086, -1385362.1, 166744.5, 0.0, 5.0884266, 4.9630666 
7.5285566e+2, 1.4658178e+2, -1347881.4, -1530123.1, 6047.2944, 0.00093993003, 0.001170783, -1347681.0, 155814.27, 0.0, 5.0843763, 4.9636188 
7.526569e+2, 1.5154177e+2, -1310705.1, -1487194.0, 6051.382, 0.0025582244, 0.0008507672, -1310497.9, 144391.6, 0.0, 5.0804343, 4.963612 
7.524582e+2, 1.5650171e+2, -1273468.8, -1444198.8, 6052.637, 0.004167695, 0.0003256568, -1273254.4, 133029.58, 0.0, 5.076495, 4.9636054 
7.522594e+2, 1.6146164e+2, -1236130.6, -1401107.1, 5603.3975, 0.006129054, -0.0009306112, -1235940.6, 121736.93, 0.0, 5.0725737, 4.9636054 
7.5205964e+2, 1.6642123e+2, -1199345.9, -1360396.1, 4923.585, 0.007846467, 0.0016585175, -1199195.5, 109876.6, 0.0, 5.068898, 4.9626637 
7.518593e+2, 1.713799e+2, -1160911.0, -1316688.6, 4839.5493, 0.007917199, -0.0012557331, -1160760.8, 99715.125, 0.0, 5.0653224, 4.962661 
7.516591e+2, 1.763386e+2, -1122419.9, -1272920.0, 4754.5283, 0.007971098, -0.0039117257, -1122269.8, 89609.68, 0.0, 5.061749, 4.962658 
7.5145894e+2, 1.8129732e+2, -1084872.6, -1231247.0, 4371.4565, 0.007402029, -0.0044888156, -1084742.3, 78541.55, 0.0, 5.058173, 4.9619327 
7.512577e+2, 1.8625516e+2, -1048642.0, -1192753.0, 3920.8118, 0.006277289, 0.0033934135, -1048535.4, 66163.68, 0.0, 5.054664, 4.960064 
7.510564e+2, 1.9121157e+2, -1009634.1, -1148634.3, 3780.9873, 0.0054378514, 0.003870027, -1009531.4, 56597.2, 0.0, 5.0512147, 4.9600577 
7.508552e+2, 1.9616798e+2, -970571.7, -1104455.3, 3640.0005, 0.0045599593, 0.0043095043, -970472.8, 47085.387, 0.0, 5.0477676, 4.9600515 
7.506541e+2, 2.0112436e+2, -931556.0, -1060597.3, 3231.144, 0.004127432, 0.004298088, -931475.2, 37511.934, 0.0, 5.04435, 4.9599085 
7.504523e+2, 2.0607974e+2, -894943.5, -1022325.56, 2496.3704, 0.005213695, 0.008220798, -894894.56, 25528.816, 0.0, 5.041005, 4.9577856 
7.5025016e+2, 2.110334e+2, -855379.44, -977793.4, 2124.3562, 0.0063227583, 0.003899027, -855342.56, 16533.883, 0.0, 5.0376763, 4.9577827 
7.500482e+2, 2.1598709e+2, -815755.9, -933193.6, 1743.1663, 0.0074183214, -0.000375356, -815730.0, 7599.3306, 0.0, 5.0343494, 4.957783 
7.498463e+2, 2.2094083e+2, -776676.75, -889795.75, 1462.4537, 0.007848495, -0.0034882305, -776657.8, -1875.8389, 0.0, 5.031014, 4.957354 
7.496437e+2, 2.2589386e+2, -740414.56, -852279.44, 730.41437, 0.0064466, 0.0046056686, -740409.8, -14167.015, 0.0, 5.027605, 4.9549017 
7.4944067e+2, 2.3084527e+2, -700925.3, -807340.1, 367.1202, 0.004823698, 0.00504389, -700924.06, -23204.545, 0.0, 5.024117, 4.9550257 
7.492378e+2, 2.357967e+2, -661542.75, -762702.56, 10.65718, 0.0031888192, 0.0055462415, -661542.75, -32346.594, 0.0, 5.0206323, 4.9550242 
7.490351e+2, 2.4074806e+2, -622577.44, -719054.9, -9.007241, 0.0019110943, 0.005323959, -622577.44, -41903.895, 0.0, 5.017151, 4.954657 
7.4883294e+2, 2.4569806e+2, -586150.8, -680809.94, -402.67612, 0.0024317813, 0.009487603, -586149.1, -53985.7, 0.0, 5.0136127, 4.9523945 
7.486304e+2, 2.506467e+2, -546633.06, -635248.0, -1037.778, 0.0026642927, 0.0042971717, -546620.9, -62954.434, 0.0, 5.009964, 4.952722 
7.484279e+2, 2.5559536e+2, -507497.25, -590556.56, -1539.0342, 0.0029068824, -0.0011930101, -507468.75, -72299.26, 0.0, 5.0063133, 4.9527254 
7.4822557e+2, 2.6054412e+2, -468325.53, -545773.94, -1778.0497, 0.0029142103, -0.005810938, -468284.72, -81613.81, 0.0, 5.002653, 4.952741 
7.4802405e+2, 2.6549265e+2, -432837.9, -508735.44, -1501.7191, 0.0025207268, 0.0066685444, -432808.2, -94634.72, 0.0, 4.998896, 4.950021 
7.4782246e+2, 2.7044043e+2, -392501.72, -460491.63, -2352.337, 0.0019198201, 0.005972255, -392420.44, -102737.41, 0.0, 4.995035, 4.951292 
7.4762094e+2, 2.753882e+2, -353756.13, -415807.6, -2910.5076, 0.0011817864, 0.004570198, -353619.9, -112427.375, 0.0, 4.991168, 4.9512963 
7.474197e+2, 2.8033578e+2, -315404.47, -371703.44, -2391.4338, 0.00029071263, 0.0015049529, -315303.06, -122598.195, 0.0, 4.9872327, 4.951101 
7.4722147e+2, 2.852805e+2, -281562.94, -336032.16, -244.99425, -0.0014589988, -0.00444428, -281561.8, -137314.1, 0.0, 4.982961, 4.948012 
7.4702424e+2, 2.9022577e+2, -241577.1, -286353.63, -999.34326, -0.0023655796, -0.017254896, -241554.8, -145769.3, 0.0, 4.9786344, 4.9499087 
7.468271e+2, 2.9517105e+2, -203899.47, -241934.7, -1473.7406, -0.0030682974, -0.030647628, -203842.45, -156519.61, 0.0, 4.9743037, 4.9499187 
7.466298e+2, 3.0011714e+2, -167595.39, -200816.81, -3207.849, -0.0029044684, -0.033104643, -167288.47, -167288.47, 0.0, 4.9699874, 4.9487147 
7.4643356e+2, 3.0508024e+2, -124039.88, -112291.266, -1892.1609, -0.00040901417, 0.027716203, -111994.04, -111994.04, 0.0, 4.966037, 4.9733586 
7.4624115e+2, 3.100565e+2, -131028.06, -109169.76, -2231.9473, -0.00040791472, 0.053593677, -108944.18, -108944.18, 0.0, 4.962295, 4.9761343 
7.4604887e+2, 3.1503332e+2, -141369.72, -113942.79, -2727.7634, -0.00021569699, 0.08382405, -113674.13, -113674.13, 0.0, 4.958569, 4.976058 
7.4584895e+2, 3.199731e+2, -96829.125, 11752.702, -6728.277, -0.0684491, -0.3166821, 12168.031, 12168.031, 0.0, 4.954034, 5.0237403 
7.587429e+2, 1.2693706e+2, -1491002.4, -1699195.1, 4489.0674, 0.008014574, -0.01616463, -1490905.6, 205096.78, 0.0, 5.1019177, 4.9635878 
7.585415e+2, 1.3189691e+2, -1455588.6, -1657323.0, 4488.373, 0.0069444967, -0.015140858, -1455488.8, 191909.9, 0.0, 5.097441, 4.9635754 
7.583401e+2, 1.3685672e+2, -1420160.9, -1615402.6, 4471.2363, 0.005571721, -0.014210747, -1420058.5, 178736.73, 0.0, 5.092951, 4.9635634 
7.5813854e+2, 1.4181674e+2, -1384932.9, -1573982.3, 4126.3125, 0.002778747, -0.010992036, -1384842.9, 165346.94, 0.0, 5.088485, 4.9633355 
7.5793606e+2, 1.4677778e+2, -1347286.6, -1529530.6, 3123.2222, 0.0007426504, 0.0016017903, -1347233.1, 154341.16, 0.0, 5.0844216, 4.963843 
7.577333e+2, 1.5173821e+2, -1310108.3, -1486609.3, 3141.6116, 0.002254164, 0.0034822067, -1310052.4, 142912.36, 0.0, 5.0804815, 4.963834 
7.575306e+2, 1.566986e+2, -1272869.1, -1443620.3, 3141.948, 0.0037367847, 0.0051738587, -1272811.4, 131544.23, 0.0, 5.0765443, 4.9638257 
7.57328e+2, 1.6165881e+2, -1235534.1, -1400535.9, 2697.618, 0.0058376323, 0.0047435397, -1235490.1, 120256.45, 0.0, 5.072624, 4.9638233 
7.571245e+2, 1.6661836e+2, -1198951.4, -1360169.1, 2260.4158, 0.007911394, 0.0050118323, -1198919.6, 108221.66, 0.0, 5.068941, 4.9627647 
7.5692064e+2, 1.7157689e+2, -1160516.3, -1316463.6, 2177.5334, 0.008101736, -0.00035493483, -1160485.9, 98060.22, 0.0, 5.065366, 4.9627614 
7.567169e+2, 1.7653543e+2, -1122025.0, -1272697.1, 2093.6597, 0.008245668, -0.005466015, -1121996.0, 87954.76, 0.0, 5.0617924, 4.9627585 
7.5651306e+2, 1.8149416e+2, -1084399.5, -1230857.4, 1663.0803, 0.007634443, -0.0071930834, -1084380.6, 76974.3, 0.0, 5.058216, 4.962091 
7.563084e+2, 1.8645224e+2, -1048376.06, -1192755.5, 1342.2865, 0.0065685953, 0.0018669427, -1048363.56, 64404.113, 0.0, 5.0547023, 4.96009 
7.561036e+2, 1.9140878e+2, -1009367.75, -1148639.1, 1202.5863, 0.005812194, 0.0035520634, -1009357.4, 54838.19, 0.0, 5.051253, 4.9600835 
7.55899e+2, 1.9636533e+2, -970304.8, -1104462.5, 1061.7211, 0.004989645, 0.0051887413, -970296.44, 45327.13, 0.0, 5.047806, 4.9600763 
7.5569445e+2, 2.0132177e+2, -931379.75, -1060837.9, 650.9028, 0.004650347, 0.0057830215, -931376.44, 35675.32, 0.0, 5.0443945, 4.9598527 
7.554892e+2, 2.0627695e+2, -895061.0, -1023196.06, -3.8122897, 0.0056701065, 0.0094690155, -895061.0, 23429.488, 0.0, 5.041049, 4.957513 
7.552838e+2, 2.1123032e+2, -855489.6, -978657.0, -377.558, 0.0066448827, 0.0048299204, -855488.44, 14458.559, 0.0, 5.037721, 4.957512 
7.5507843e+2, 2.161837e+2, -815862.06, -934056.56, -757.7979, 0.0075791483, 0.0002393742, -815857.2, 5546.0977, 0.0, 5.0343947, 4.957512 
7.548731e+2, 2.2113718e+2, -776609.56, -890269.1, -1053.3099, 0.007814078, -0.0030555762, -776599.8, -3741.1475, 0.0, 5.031058, 4.9572177 
7.546671e+2, 2.2609e+2, -740441.94, -853000.1, -1933.5332, 0.00658958, 0.0042704493, -740408.75, -16087.784, 0.0, 5.027652, 4.954682 
7.5446063e+2, 2.3104109e+2, -700971.75, -808093.94, -2262.3892, 0.005091057, 0.0038907256, -700923.94, -25123.879, 0.0, 5.024163, 4.954794 
7.542543e+2, 2.3599222e+2, -661585.56, -763453.7, -2618.599, 0.0035652912, 0.0035731674, -661518.3, -34239.195, 0.0, 5.0206785, 4.954793 
7.5404817e+2, 2.4094327e+2, -622666.06, -719924.44, -2650.4756, 0.002280126, 0.0028878415, -622593.9, -43834.926, 0.0, 5.0171986, 4.954384 
7.5384235e+2, 2.4589308e+2, -586340.0, -681940.56, -3151.1172, 0.0020132053, 0.008311285, -586236.2, -55985.117, 0.0, 5.0136642, 4.95203 
7.5363606e+2, 2.508415e+2, -546854.75, -636463.9, -3810.7068, 0.0013473091, 0.004762676, -546693.0, -64936.125, 0.0, 5.0100164, 4.9523277 
7.534299e+2, 2.557899e+2, -507715.94, -591769.2, -4312.2827, 0.0006734526, 0.00093127723, -507495.28, -74232.664, 0.0, 5.006366, 4.9523315 
7.5322384e+2, 2.6073837e+2, -468505.6, -546899.2, -4525.8906, 0.00020750839, -0.0028532012, -468245.16, -83477.85, 0.0, 5.0027046, 4.952377 
7.530187e+2, 2.6568627e+2, -433049.6, -510027.94, -4480.7676, 0.0011815125, 0.0072984598, -432789.66, -96513.98, 0.0, 4.9989576, 4.949598 
7.5281334e+2, 2.7063337e+2, -392737.72, -461837.13, -5312.5913, 0.002250711, 0.0036656396, -392331.66, -104539.46, 0.0, 4.9950957, 4.95085 
7.526082e+2, 2.755804e+2, -353990.56, -417149.47, -5869.199, 0.0031344346, -0.0006159562, -353449.78, -114141.12, 0.0, 4.991228, 4.950855 
7.524032e+2, 2.805274e+2, -315596.66, -372880.53, -5410.204, 0.0032597322, -0.00501243, -315090.16, -124263.59, 0.0, 4.9872804, 4.9507213 
7.522006e+2, 2.8547242e+2, -281606.53, -336935.44, -3615.8853, 0.00018504167, -0.0053479103, -281371.22, -139004.05, 0.0, 4.983013, 4.94773 
7.5199884e+2, 2.9041806e+2, -241651.38, -287337.6, -4333.439, -0.0022846526, -0.011207677, -241243.98, -147342.42, 0.0, 4.978688, 4.949598 
7.517972e+2, 2.9536372e+2, -203969.89, -242915.83, -4782.7476, -0.0046753297, -0.017567074, -203391.16, -157955.66, 0.0, 4.9743586, 4.949608 
7.515955e+2, 3.0031e+2, -167149.25, -200701.31, -6271.9346, -0.0059682704, -0.016391082, -166015.17, -166015.17, 0.0, 4.9700565, 4.9487906 
7.513956e+2, 3.0527145e+2, -123458.42, -112015.33, -4846.4688, -0.0014174134, 0.028816355, -110238.586, -110238.586, 0.0, 4.9661274, 4.973493 
7.511995e+2, 3.102456e+2, -130522.266, -109032.9, -4859.333, 0.00077274523, 0.036331028, -107985.16, -107985.16, 0.0, 4.9623795, 4.9762206 
7.510034e+2, 3.152203e+2, -140894.19, -113821.945, -5013.027, 0.0025644556, 0.04916121, -112923.49, -112923.49, 0.0, 4.9586453, 4.9761415 
7.508017e+2, 3.2018355e+2, -120448.2, -42385.426, -7855.5625, -0.045378525, -0.04546934, -41602.754, -41602.754, 0.0, 4.953935, 5.0039644 
7.638404e+2, 1.2713367e+2, -1491275.4, -1698246.5, 5885.156, 0.004434147, -0.016612133, -1491108.1, 202969.13, 0.0, 5.101596, 4.9640517 
7.636347e+2, 1.3209377e+2, -1455578.9, -1656265.5, 5838.628, 0.004929177, -0.0152791655, -1455409.3, 190061.56, 0.0, 5.0972233, 4.964027 
7.634291e+2, 1.3705385e+2, -1419866.0, -1614236.0, 5783.6646, 0.005122423, -0.013891646, -1419694.0, 177170.53, 0.0, 5.092838, 4.9640026 
7.6322305e+2, 1.420141e+2, -1384342.9, -1572496.8, 5474.586, 0.0029794725, -0.010392715, -1384183.8, 164072.66, 0.0, 5.08844, 4.9638486 
7.630164e+2, 1.4697538e+2, -1346559.3, -1528134.9, 4760.604, 0.00058423704, 0.0021232471, -1346434.5, 153203.48, 0.0, 5.084463, 4.9642854 
7.6280975e+2, 1.5193604e+2, -1309131.6, -1485133.9, 4720.185, 0.0022243552, 0.004288851, -1309005.1, 142020.78, 0.0, 5.080616, 4.964263 
7.626032e+2, 1.5689668e+2, -1271689.1, -1442090.5, 4680.333, 0.0038347943, 0.0066067264, -1271560.8, 130853.36, 0.0, 5.076756, 4.96424 
7.6239663e+2, 1.6185705e+2, -1234322.0, -1399233.8, 4164.9717, 0.0060553798, 0.0065096454, -1234216.9, 119586.64, 0.0, 5.072899, 4.964132 
7.621894e+2, 1.6681656e+2, -1197738.3, -1359203.1, 3719.951, 0.00804704, 0.0062356377, -1197652.6, 107546.445, 0.0, 5.069293, 4.9629207 
7.61982e+2, 1.7177497e+2, -1159092.4, -1315424.6, 3369.3188, 0.008071428, 0.000009092186, -1159019.9, 97585.695, 0.0, 5.06579, 4.9629126 
7.6177466e+2, 1.7673334e+2, -1120445.6, -1271610.9, 3021.2402, 0.00813766, -0.006273735, -1120385.3, 87626.664, 0.0, 5.0622706, 4.962905 
7.615672e+2, 1.81692e+2, -1082554.8, -1229449.0, 2340.3687, 0.0074894805, -0.008523839, -1082517.5, 76899.234, 0.0, 5.0587416, 4.9623294 
7.61359e+2, 1.8665014e+2, -1046515.56, -1191610.6, 2008.7339, 0.006632818, 0.0009986176, -1046487.75, 64340.53, 0.0, 5.0552945, 4.960208 
7.6115084e+2, 1.916067e+2, -1007332.75, -1147435.9, 1712.5902, 0.006140704, 0.003240797, -1007311.8, 54943.867, 0.0, 5.051908, 4.9601955 
7.6094276e+2, 1.9656326e+2, -968147.4, -1103226.0, 1413.7715, 0.005598212, 0.00557814, -968132.56, 45550.47, 0.0, 5.048506, 4.9601836 
7.607348e+2, 2.0151965e+2, -929315.9, -1059940.3, 845.0793, 0.0054528965, 0.006585178, -929310.44, 35801.14, 0.0, 5.0451155, 4.9598393 
7.605261e+2, 2.0647459e+2, -893332.1, -1022906.75, 98.09749, 0.006196962, 0.010360644, -893332.06, 23221.205, 0.0, 5.0417438, 4.957305 
7.603173e+2, 2.1142761e+2, -853867.7, -978439.4, -451.30728, 0.006885746, 0.0056126225, -853866.06, 14147.559, 0.0, 5.038378, 4.9572997 
7.6010865e+2, 2.1638064e+2, -814369.44, -933920.94, -1006.3586, 0.007581468, 0.00084665604, -814361.0, 5112.8657, 0.0, 5.0350065, 4.957295 
7.599e+2, 2.2133383e+2, -775118.1, -889906.75, -1507.6573, 0.007642552, -0.0024903754, -775098.3, -4166.02, 0.0, 5.0316195, 4.957105 
7.5969046e+2, 2.2628637e+2, -739092.2, -852856.94, -2714.225, 0.006678463, 0.0040474464, -739027.5, -16630.732, 0.0, 5.0281854, 4.954513 
7.594806e+2, 2.3123708e+2, -699762.2, -808094.75, -3232.4316, 0.0053545604, 0.0027352541, -699665.9, -25786.912, 0.0, 5.0246587, 4.9545956 
7.5927067e+2, 2.3618783e+2, -660508.3, -763536.4, -3802.125, 0.0039860248, 0.0014913575, -660368.2, -35007.273, 0.0, 5.0211267, 4.9545913 
7.590611e+2, 2.4113856e+2, -621820.8, -720242.1, -4022.1921, 0.0026705714, 0.0004953894, -621656.7, -44813.113, 0.0, 5.017586, 4.9541316 
7.588517e+2, 2.4608816e+2, -585806.2, -682646.7, -4857.8394, 0.0015772432, 0.007297271, -585563.06, -57224.855, 0.0, 5.013981, 4.951679 
7.586416e+2, 2.5103635e+2, -546563.0, -637332.06, -5692.1064, 0.000010010978, 0.0053227255, -546207.44, -66360.48, 0.0, 5.010253, 4.951958 
7.584317e+2, 2.5598451e+2, -507655.44, -592760.0, -6374.645, -0.0015783838, 0.0030952897, -507180.6, -75825.01, 0.0, 5.0065193, 4.951958 
7.58222e+2, 2.6093265e+2, -468702.4, -548119.44, -6754.217, -0.0023852915, -0.0000035411704, -468132.06, -85268.22, 0.0, 5.0027847, 4.951958 
7.580132e+2, 2.658799e+2, -433226.7, -511137.6, -7128.697, -0.000015675185, 0.0078084324, -432579.78, -98201.61, 0.0, 4.9990115, 4.9492354 
7.578042e+2, 2.7082622e+2, -393031.88, -463164.75, -8042.633, 0.0027070108, 0.0011537522, -392121.4, -106219.68, 0.0, 4.9951377, 4.950417 
7.575953e+2, 2.7577257e+2, -354300.94, -418488.6, -8644.941, 0.0051993453, -0.0061131786, -353157.0, -115731.836, 0.0, 4.9912634, 4.9504213 
7.5738657e+2, 2.80719e+2, -315878.88, -374092.4, -8322.393, 0.0062166937, -0.011217998, -314712.44, -125764.125, 0.0, 4.987302, 4.950338 
7.571796e+2, 2.8566432e+2, -281780.44, -337959.97, -6786.4395, 0.0017093396, -0.006135926, -280972.28, -140485.7, 0.0, 4.9830403, 4.9474125 
7.569733e+2, 2.906103e+2, -241800.92, -288330.03, -7524.829, -0.0023402597, -0.00580014, -240614.25, -148596.5, 0.0, 4.978717, 4.949291 
7.5676715e+2, 2.955564e+2, -204118.4, -243910.92, -7968.353, -0.006440059, -0.005879934, -202582.08, -159033.61, 0.0, 4.9743867, 4.9493003 
7.5656116e+2, 3.005028e+2, -167593.64, -202470.61, -9237.566, -0.009082392, 0.002075768, -165298.06, -165298.06, 0.0, 4.9700985, 4.9482026 
7.563576e+2, 3.0546257e+2, -123011.93, -111812.95, -7693.782, -0.0021776112, 0.027119124, -107896.74, -107896.74, 0.0, 4.9661803, 4.9736004 
7.5615764e+2, 3.1043437e+2, -130167.94, -108946.836, -7413.4307, 0.0023031863, 0.006670573, -106613.555, -106613.555, 0.0, 4.9624133, 4.9762945 
7.5595784e+2, 3.154068e+2, -140609.6, -113773.33, -7239.861, 0.005788805, -0.007469755, -111944.76, -111944.76, 0.0, 4.9586563, 4.976211 
7.5575626e+2, 3.2038316e+2, -127537.34, -57321.773, -6998.3823, -0.0034579695, 0.056595806, -56631.04, -56631.04, 0.0, 4.95359, 4.998573 
7.6893795e+2, 1.2734173e+2, -1485301.1, -1692469.8, 11775.677, -0.0013218954, -0.015489323, -1484633.9, 207407.44, 0.0, 5.1033697, 4.964962 
7.6872796e+2, 1.3230231e+2, -1450088.5, -1650712.0, 11965.507, 0.0014497198, -0.013503581, -1449377.4, 194052.47, 0.0, 5.098835, 4.9649434 
7.6851815e+2, 1.3726285e+2, -1414810.5, -1608880.1, 12151.831, 0.003880066, -0.011453561, -1414052.5, 180766.2, 0.0, 5.0943036, 4.964925 
7.6830775e+2, 1.4222348e+2, -1379519.5, -1567005.9, 12168.362, 0.0028662884, -0.008520926, -1378733.0, 167473.17, 0.0, 5.0897818, 4.9648767 
7.680971e+2, 1.4718504e+2, -1342122.5, -1522995.9, 12120.968, 0.0005209256, 0.0022734618, -1341313.8, 156270.14, 0.0, 5.085728, 4.96523 
7.6788664e+2, 1.521459e+2, -1304731.1, -1479985.0, 12360.159, 0.0024898136, 0.0028567852, -1303863.8, 145104.8, 0.0, 5.0818734, 4.965215 
7.6767635e+2, 1.5710676e+2, -1267279.9, -1436909.9, 12598.203, 0.004420123, 0.0036288786, -1266349.4, 134004.08, 0.0, 5.078021, 4.9652004 
7.674659e+2, 1.6206734e+2, -1230203.8, -1394699.6, 12383.139, 0.006610674, 0.0028528017, -1229276.8, 122463.805, 0.0, 5.0741835, 4.9648623 
7.6725507e+2, 1.67027e+2, -1193876.3, -1355222.5, 12466.206, 0.008084021, 0.0040734303, -1192918.8, 110217.21, 0.0, 5.0706058, 4.9634438 
7.670441e+2, 1.7198545e+2, -1155014.5, -1311317.5, 12346.902, 0.0075239353, -0.0005113266, -1154045.1, 100497.78, 0.0, 5.067181, 4.9634423 
7.6683325e+2, 1.769439e+2, -1116098.6, -1267353.9, 12226.614, 0.007013508, -0.0052218977, -1115116.6, 90833.4, 0.0, 5.063759, 4.963441 
7.666223e+2, 1.8190259e+2, -1077615.9, -1224413.4, 11754.798, 0.006190197, -0.0068538534, -1076680.5, 80674.36, 0.0, 5.060342, 4.963077 
7.6641077e+2, 1.8686065e+2, -1041498.8, -1186807.8, 11831.589, 0.005943368, 0.0014795407, -1040541.75, 68224.586, 0.0, 5.0570016, 4.9608207 
7.661994e+2, 1.9181702e+2, -1001914.75, -1142426.8, 11751.172, 0.0060581206, 0.0025141044, -1000938.75, 59255.723, 0.0, 5.0537605, 4.960814 
7.659881e+2, 1.967734e+2, -962278.75, -1097989.1, 11668.634, 0.0061442587, 0.0037263313, -961282.75, 50339.953, 0.0, 5.050521, 4.9608073 
7.6577693e+2, 2.0172961e+2, -923103.9, -1054756.6, 11296.123, 0.006295273, 0.004067894, -922141.7, 40910.867, 0.0, 5.047301, 4.9603696 
7.655648e+2, 2.0668434e+2, -887077.0, -1018195.56, 10836.176, 0.006302345, 0.008861092, -886187.5, 28309.25, 0.0, 5.044059, 4.9576087 
7.6535267e+2, 2.1163708e+2, -847256.44, -973552.0, 10479.14, 0.006276244, 0.0053849355, -846392.9, 19567.648, 0.0, 5.0408225, 4.957608 
7.651406e+2, 2.1658981e+2, -807383.75, -928852.0, 10121.277, 0.006308942, 0.0018275171, -806546.1, 10878.072, 0.0, 5.037587, 4.9576077 
7.649286e+2, 2.2154266e+2, -767613.5, -884391.75, 9765.1045, 0.0060876254, -0.0009739919, -766802.56, 2083.6782, 0.0, 5.0343456, 4.95751 
7.647157e+2, 2.2649467e+2, -731448.1, -847665.3, 8662.477, 0.0057387664, 0.004368666, -730806.0, -10450.52, 0.0, 5.031037, 4.954752 
7.645024e+2, 2.3144476e+2, -691822.2, -802797.56, 8246.454, 0.0050307065, 0.0018729214, -691212.75, -19369.174, 0.0, 5.0276227, 4.9548273 
7.642891e+2, 2.3639487e+2, -652234.06, -758100.25, 7782.563, 0.004278217, -0.000520926, -651665.0, -28333.592, 0.0, 5.0242133, 4.954823 
7.64076e+2, 2.4134503e+2, -613163.7, -714488.2, 7701.9185, 0.0032748259, -0.0019801578, -612581.6, -37762.188, 0.0, 5.0207825, 4.954431 
7.6386285e+2, 2.4629419e+2, -577285.1, -677353.06, 6820.9473, 0.0017194179, 0.0054975175, -576822.4, -50504.027, 0.0, 5.017199, 4.951817 
7.63649e+2, 2.5124183e+2, -538135.1, -632075.75, 6150.1533, -0.00025728068, 0.004577423, -537734.2, -59902.125, 0.0, 5.0134387, 4.9521055 
7.6343524e+2, 2.5618953e+2, -499318.78, -587566.0, 5600.9023, -0.0022173757, 0.003528397, -498964.75, -69619.016, 0.0, 5.0096765, 4.9521046 
7.632218e+2, 2.6113707e+2, -460375.56, -542959.9, 5397.958, -0.0030629598, 0.0010451147, -460024.25, -79164.42, 0.0, 5.0059423, 4.9521027 
7.630092e+2, 2.660836e+2, -425018.63, -506356.22, 5025.0244, -0.0005279142, 0.008388315, -424709.38, -92327.43, 0.0, 5.0021744, 4.9492574 
7.6279634e+2, 2.7102906e+2, -385112.5, -458548.8, 3914.8687, 0.002548302, 0.000636977, -384904.38, -100989.914, 0.0, 4.9981985, 4.950437 
7.625835e+2, 2.7597448e+2, -346752.28, -414069.75, 3072.1052, 0.0057066716, -0.008036282, -346612.38, -111165.35, 0.0, 4.9941916, 4.9504395 
7.623707e+2, 2.809202e+2, -308590.3, -369505.6, 3026.4895, 0.007174615, -0.013693396, -308440.3, -121462.54, 0.0, 4.9900765, 4.950493 
7.6215947e+2, 2.8586522e+2, -274841.94, -333365.8, 4221.4165, 0.0022001143, -0.0065547703, -274539.03, -136020.8, 0.0, 4.985645, 4.947658 
7.6194865e+2, 2.90811e+2, -235568.58, -284215.7, 3166.761, -0.0020917584, -0.0033332997, -235363.3, -145312.2, 0.0, 4.9810886, 4.9494834 
7.61738e+2, 2.9575688e+2, -198649.7, -240195.58, 2480.528, -0.0063928342, -0.00031970814, -198502.14, -156918.73, 0.0, 4.976488, 4.949479 
7.615276e+2, 3.0070293e+2, -163179.86, -199915.23, 1682.7915, -0.009064249, 0.012000383, -163102.94, -163102.94, 0.0, 4.971947, 4.948087 
7.613202e+2, 3.0566123e+2, -118853.67, -108556.27, 1835.2024, -0.0012805737, 0.023912208, -108238.984, -108238.984, 0.0, 4.9677906, 4.9738507 
7.611162e+2, 3.1063092e+2, -127101.38, -105972.0, 826.15576, 0.0051521948, -0.020005662, -105939.75, -105939.75, 0.0, 4.9635935, 4.976622 
7.609123e+2, 3.1560096e+2, -139201.47, -111369.734, -22.719149, 0.011638788, -0.062245227, -111369.72, -111369.72, 0.0, 4.959223, 4.976588 
7.6071125e+2, 3.2056934e+2, -99090.85, 6061.7754, -2160.5205, 0.04961055, -0.17774276, 6106.1475, 6106.1475, 0.0, 4.954313, 5.0211406 
7.740363e+2, 1.2755464e+2, -1484167.0, -1690925.6, 8440.803, -0.0070854467, -0.0132067045, -1483823.0, 206135.06, 0.0, 5.1034284, 4.9655037 
7.7382207e+2, 1.325158e+2, -1448954.3, -1649176.3, 8633.307, -0.0020115012, -0.010618911, -1448582.6, 192757.72, 0.0, 5.098895, 4.965483 
7.736079e+2, 1.3747694e+2, -1413676.0, -1607352.9, 8822.3, 0.002625008, -0.007988985, -1413275.0, 179448.17, 0.0, 5.094365, 4.9654627 
7.733931e+2, 1.4243807e+2, -1378254.3, -1565210.9, 8918.939, 0.0025371863, -0.0056644687, -1377829.8, 166275.03, 0.0, 5.0898466, 4.965503 
7.7317834e+2, 1.4740004e+2, -1341055.4, -1521438.6, 9275.506, 0.0002271162, 0.0033798905, -1340579.8, 154897.52, 0.0, 5.0857744, 4.965778 
7.729641e+2, 1.5236129e+2, -1303669.0, -1478435.5, 9516.686, 0.0025521026, 0.0022423244, -1303152.3, 143704.72, 0.0, 5.0819197, 4.965762 
7.7274996e+2, 1.573225e+2, -1266222.5, -1435368.3, 9756.706, 0.0048158932, 0.0013258917, -1265661.6, 132575.47, 0.0, 5.0780673, 4.965747 
7.7253556e+2, 1.6228345e+2, -1229560.3, -1394042.8, 9550.861, 0.0069196285, 0.00026165156, -1229007.5, 120612.96, 0.0, 5.0742326, 4.9651093 
7.7232116e+2, 1.672434e+2, -1193532.8, -1355097.0, 9911.374, 0.007941608, 0.0029190334, -1192927.0, 108087.13, 0.0, 5.0706444, 4.9635115 
7.7210677e+2, 1.7220208e+2, -1154670.6, -1311193.5, 9793.833, 0.006807481, -0.00013581479, -1154060.1, 98360.11, 0.0, 5.06722, 4.9635096 
7.718924e+2, 1.7716074e+2, -1115754.3, -1267231.4, 9675.304, 0.0056795194, -0.003322742, -1115138.8, 88687.7, 0.0, 5.0637984, 4.963508 
7.7167803e+2, 1.8211964e+2, -1076994.5, -1223695.1, 9164.685, 0.0046504657, -0.0043599466, -1076424.1, 78805.35, 0.0, 5.060381, 4.963348 
7.714632e+2, 1.8707778e+2, -1041135.3, -1186579.3, 9414.834, 0.0050845984, 0.0026973637, -1040528.44, 66110.88, 0.0, 5.0570345, 4.960925 
7.7124864e+2, 1.9203411e+2, -1001548.7, -1142200.9, 9335.523, 0.0058381404, 0.0023060383, -1000931.75, 57135.18, 0.0, 5.0537944, 4.9609175 
7.710342e+2, 1.9699043e+2, -961910.06, -1097765.9, 9254.088, 0.0065252674, 0.0020735166, -961282.6, 48212.027, 0.0, 5.050556, 4.9609103 
7.708197e+2, 2.0194662e+2, -922888.7, -1054887.0, 8840.089, 0.0067981826, 0.0017105134, -922299.3, 38625.125, 0.0, 5.0473385, 4.9603515 
7.706043e+2, 2.0690133e+2, -887175.8, -1018988.75, 8411.897, 0.0061027235, 0.0075805993, -886641.1, 25728.32, 0.0, 5.0440946, 4.957364 
7.703888e+2, 2.1185394e+2, -847351.06, -974339.94, 8055.411, 0.0053798114, 0.0054949834, -846842.1, 16992.78, 0.0, 5.0408583, 4.957365 
7.701735e+2, 2.1680656e+2, -807474.25, -929634.56, 7698.85, 0.004676394, 0.0033109323, -806991.0, 8309.303, 0.0, 5.037624, 4.9573655 
7.699582e+2, 2.2175924e+2, -767563.25, -884883.6, 7271.856, 0.004174107, 0.0009811923, -767114.25, -350.1065, 0.0, 5.034383, 4.9573684 
7.69742e+2, 2.2671087e+2, -731698.6, -848853.5, 6118.4688, 0.004550542, 0.005086395, -731379.94, -13143.019, 0.0, 5.0310774, 4.9543705 
7.6952535e+2, 2.3166046e+2, -692037.56, -803925.3, 5688.773, 0.0045398516, 0.0013148818, -691749.06, -22019.531, 0.0, 5.0276647, 4.954466 
7.693087e+2, 2.3661007e+2, -652442.6, -759223.2, 5225.5903, 0.0044534127, -0.0023667158, -652187.5, -30965.52, 0.0, 5.0242567, 4.954462 
7.690922e+2, 2.4155983e+2, -613274.1, -715366.2, 5133.273, 0.0037206032, -0.0043388614, -613016.7, -40302.887, 0.0, 5.0208216, 4.9541554 
7.688754e+2, 2.4650872e+2, -577552.94, -678688.7, 3941.355, 0.0019152004, 0.0036156776, -577399.56, -53184.44, 0.0, 5.017247, 4.951385 
7.686578e+2, 2.5145602e+2, -538414.5, -633427.56, 3311.8503, -0.00023088812, 0.0035464664, -538299.2, -62567.055, 0.0, 5.0134854, 4.951667 
7.6844025e+2, 2.5640333e+2, -499594.1, -588914.9, 2762.9324, -0.0023852314, 0.0033656398, -499508.72, -72259.61, 0.0, 5.0097237, 4.9516664 
7.682231e+2, 2.6135042e+2, -460658.1, -544347.4, 2634.3481, -0.0032947285, 0.0011983102, -460575.25, -81807.85, 0.0, 5.005993, 4.951648 
7.6800674e+2, 2.662965e+2, -425369.6, -508019.97, 2036.7166, -0.0010879167, 0.008822481, -425319.44, -95024.414, 0.0, 5.0022383, 4.9487047 
7.677898e+2, 2.712414e+2, -385364.66, -460178.16, 1044.4843, 0.0014140105, 0.0012866416, -385350.1, -103516.3, 0.0, 4.9983, 4.9498787 
7.6757294e+2, 2.7618632e+2, -346833.06, -415610.25, 366.4731, 0.0039312323, -0.007089356, -346831.1, -113458.516, 0.0, 4.9943533, 4.949884 
7.673562e+2, 2.8113154e+2, -308088.3, -370072.28, 370.51627, 0.004854117, -0.012808217, -308086.1, -123177.78, 0.0, 4.990309, 4.9502473 
7.671407e+2, 2.8607625e+2, -274130.66, -333832.6, 1461.6294, 0.0007665738, -0.006140631, -274094.9, -137644.34, 0.0, 4.985942, 4.947426 
7.6692545e+2, 2.9102167e+2, -234678.06, -284670.06, 597.04816, -0.002443575, -0.0028257414, -234670.94, -146685.44, 0.0, 4.9814634, 4.949222 
7.6671034e+2, 2.9596716e+2, -197445.52, -240512.34, 115.28781, -0.0057211677, 0.00039377622, -197445.2, -157925.27, 0.0, 4.976976, 4.9492173 
7.664957e+2, 3.0091265e+2, -161059.11, -198771.02, -159.40742, -0.007096654, 0.0067163906, -161058.44, -161058.44, 0.0, 4.972562, 4.948293 
7.662843e+2, 3.058702e+2, -117694.36, -109856.61, -57.22517, 0.00050456997, 0.023840869, -109856.195, -109856.195, 0.0, 4.968444, 4.973178 
7.6607615e+2, 3.1083927e+2, -125471.44, -107076.38, -1190.618, 0.006541036, -0.009366698, -106999.64, -106999.64, 0.0, 4.9644165, 4.975945 
7.658681e+2, 3.1580862e+2, -136497.84, -111971.42, -2396.7473, 0.013002553, -0.042056117, -111739.41, -111739.41, 0.0, 4.9604125, 4.9759355 
7.6566154e+2, 3.2078722e+2, -101516.086, -9652.338, -8137.412, 0.040092357, -0.027198477, -8937.084, -8937.084, 0.0, 4.9561615, 5.0148826 
7.7913463e+2, 1.2776767e+2, -1483643.0, -1689727.9, 5391.0283, -0.011954528, -0.010384419, -1483502.1, 204371.42, 0.0, 5.1032867, 4.9660287 
7.7891606e+2, 1.3272938e+2, -1448193.5, -1647860.4, 5467.716, -0.0050098626, -0.007494881, -1448043.9, 191206.16, 0.0, 5.098834, 4.9660106 
7.7869755e+2, 1.3769107e+2, -1412727.5, -1605942.4, 5590.176, 0.0016334617, -0.00450035, -1412565.9, 178061.0, 0.0, 5.0943675, 4.965992 
7.7847826e+2, 1.4265269e+2, -1377117.5, -1563541.8, 5707.3135, 0.0022823736, -0.002809499, -1376942.9, 165060.05, 0.0, 5.08988, 4.9661045 
7.7825946e+2, 1.4761508e+2, -1340030.0, -1519914.8, 6426.418, -0.00005174021, 0.0044559273, -1339800.6, 153569.53, 0.0, 5.0858088, 4.9663215 
7.7804136e+2, 1.5257667e+2, -1302615.3, -1476897.8, 6653.592, 0.0026229334, 0.0014776352, -1302361.5, 142383.64, 0.0, 5.0819645, 4.9663067 
7.7782345e+2, 1.5753826e+2, -1265236.6, -1433973.6, 6894.385, 0.0052214884, -0.0012502236, -1264955.4, 131165.06, 0.0, 5.0781126, 4.966244 
7.7760524e+2, 1.6249958e+2, -1228949.8, -1393448.3, 6738.1, 0.0071816747, -0.0020903025, -1228674.3, 118826.15, 0.0, 5.07428, 4.9653373 
7.773872e+2, 1.6745983e+2, -1193186.9, -1354974.4, 7357.6704, 0.007794239, 0.0019743838, -1192853.0, 106039.4, 0.0, 5.0706844, 4.9635777 
7.771693e+2, 1.7241873e+2, -1154324.3, -1311072.4, 7241.8945, 0.0060891816, 0.0003676868, -1153990.4, 96307.23, 0.0, 5.067261, 4.963576 
7.769515e+2, 1.7737761e+2, -1115407.4, -1267111.8, 7125.126, 0.004346778, -0.0013771416, -1115073.5, 86629.39, 0.0, 5.0638394, 4.963574 
7.7673364e+2, 1.8233673e+2, -1076372.3, -1222983.5, 6574.5317, 0.0031532352, -0.0018723373, -1076078.0, 77025.88, 0.0, 5.0604215, 4.9636164 
7.765155e+2, 1.8729492e+2, -1040769.4, -1186353.4, 7000.272, 0.004285695, 0.0038542969, -1040433.5, 64078.64, 0.0, 5.057069, 4.9610286 
7.7629775e+2, 1.9225119e+2, -1001180.1, -1141977.6, 6922.069, 0.0056859497, 0.0019704564, -1000840.6, 55098.668, 0.0, 5.05383, 4.9610205 
7.7608013e+2, 1.9720748e+2, -961538.9, -1097545.4, 6841.7393, 0.006981969, 0.00022671762, -961195.56, 46170.887, 0.0, 5.050593, 4.961012 
7.7586246e+2, 2.0216362e+2, -922723.25, -1055133.6, 6381.441, 0.007275457, -0.0005253133, -922416.44, 36379.8, 0.0, 5.047378, 4.960294 
7.756437e+2, 2.071183e+2, -887272.06, -1019784.5, 5986.73, 0.0058794636, 0.0065157018, -887002.1, 23240.031, 0.0, 5.0441318, 4.9571185 
7.7542484e+2, 2.1207082e+2, -847443.25, -975130.3, 5631.549, 0.0044374373, 0.0057553174, -847195.3, 14513.96, 0.0, 5.040896, 4.9571204 
7.7520615e+2, 2.1702331e+2, -807562.3, -930419.56, 5276.2915, 0.002975655, 0.0048794732, -807336.1, 5840.203, 0.0, 5.0376616, 4.9571223 
7.749877e+2, 2.2197582e+2, -767526.3, -885412.7, 4776.4736, 0.0023160838, 0.0028731988, -767333.06, -2690.9285, 0.0, 5.0344214, 4.9572144 
7.7476823e+2, 2.2692704e+2, -731951.6, -850059.44, 3570.6484, 0.0034804188, 0.0057732314, -731843.75, -15725.29, 0.0, 5.0311193, 4.9539833 
7.745482e+2, 2.3187615e+2, -692249.9, -805056.06, 3131.9912, 0.004148814, 0.00065837736, -692163.0, -24547.297, 0.0, 5.0277085, 4.9541035 
7.7432823e+2, 2.3682527e+2, -652648.1, -760349.1, 2669.5208, 0.0047100238, -0.004378166, -652582.0, -33469.22, 0.0, 5.024302, 4.9541 
7.7410835e+2, 2.4177465e+2, -613464.94, -716434.75, 2549.6448, 0.004149688, -0.006630307, -613401.9, -42793.777, 0.0, 5.020862, 4.953814 
7.738879e+2, 2.4672325e+2, -577758.75, -679896.06, 1066.1985, 0.0021119798, 0.0018921618, -577747.6, -55635.633, 0.0, 5.0172973, 4.950998 
7.7366644e+2, 2.5167018e+2, -538690.25, -634783.44, 474.55292, -0.00020453107, 0.0026117465, -538687.9, -65055.633, 0.0, 5.013534, 4.951227 
7.734451e+2, 2.5661713e+2, -499865.7, -590267.9, -74.03097, -0.0025563517, 0.0032246243, -499865.63, -74713.13, 0.0, 5.009773, 4.9512267 
7.7322423e+2, 2.615638e+2, -460889.28, -545638.0, -140.56628, -0.0035734684, 0.0013848436, -460889.06, -84213.84, 0.0, 5.0060463, 4.951228 
7.730041e+2, 2.665094e+2, -425806.97, -509871.06, -941.1228, -0.0017124066, 0.009388696, -425796.44, -97588.1, 0.0, 5.002301, 4.948088 
7.7278316e+2, 2.7145377e+2, -385726.44, -461868.9, -1957.7954, 0.00021572497, 0.0019512783, -385676.16, -105922.81, 0.0, 4.998363, 4.949318 
7.725623e+2, 2.7639812e+2, -347195.06, -417297.66, -2633.749, 0.002092185, -0.0062525887, -347096.25, -115797.914, 0.0, 4.994415, 4.9493237 
7.723415e+2, 2.813429e+2, -308163.3, -371062.2, -2738.466, 0.002539031, -0.0118937185, -308044.3, -125205.59, 0.0, 4.990362, 4.949935 
7.721218e+2, 2.8628725e+2, -274058.6, -334605.72, -2020.8744, -0.0005721065, -0.0061477097, -273991.22, -139608.53, 0.0, 4.9860044, 4.9471946 
7.7190214e+2, 2.9123235e+2, -234672.95, -285573.66, -2832.6245, -0.002700303, -0.0033400464, -234515.8, -148596.39, 0.0, 4.9815207, 4.9489474 
7.716826e+2, 2.961775e+2, -197454.89, -241427.44, -3290.1536, -0.0050315997, -0.00043486385, -197210.08, -159754.5, 0.0, 4.9770284, 4.9489408 
7.714638e+2, 3.0112255e+2, -161153.25, -200096.56, -3303.0793, -0.00557456, 0.0039759167, -160875.08, -160875.08, 0.0, 4.9726553, 4.947852 
7.712484e+2, 3.0607945e+2, -118075.51, -111903.08, -3173.4238, 0.002041072, 0.023825474, -110562.63, -110562.63, 0.0, 4.9685364, 4.9724813 
7.71036e+2, 3.1104785e+2, -126025.74, -109322.36, -4046.3027, 0.0076352484, -0.0045576603, -108393.79, -108393.79, 0.0, 4.96447, 4.9751935 
7.708237e+2, 3.1601664e+2, -137175.39, -114292.414, -4972.117, 0.013176992, -0.030865135, -113258.74, -113258.74, 0.0, 4.9604263, 4.975175 
7.706111e+2, 3.2100713e+2, -116475.99, -44467.92, -8700.684, 0.019225927, 0.17626731, -43431.54, -43431.54, 0.0, 4.9561462, 5.0023127 
7.8423303e+2, 1.2798396e+2, -1485278.3, -1689101.5, 7890.4688, -0.010643747, -0.0056178244, -1484973.3, 200783.4, 0.0, 5.1024246, 4.9666467 
7.8401e+2, 1.3294588e+2, -1449282.9, -1646982.5, 7882.6426, -0.004153737, -0.0034863753, -1448969.1, 188161.53, 0.0, 5.0981617, 4.966623 
7.837871e+2, 1.3790777e+2, -1413328.4, -1604848.0, 7818.2646, 0.002414254, -0.0011929576, -1413009.8, 175495.1, 0.0, 5.093866, 4.966598 
7.835633e+2, 1.4286955e+2, -1377243.5, -1562221.4, 7827.2373, 0.0024387431, -0.000729914, -1376912.9, 162965.84, 0.0, 5.0895467, 4.966704 
7.8334045e+2, 1.4783208e+2, -1339807.0, -1518537.4, 8590.435, -0.000518087, 0.005123502, -1339395.0, 151849.28, 0.0, 5.085639, 4.966855 
7.831186e+2, 1.5279378e+2, -1301842.1, -1475235.3, 8459.406, 0.0020637333, 0.00057777803, -1301430.4, 141187.5, 0.0, 5.08198, 4.966849 
7.828969e+2, 1.577555e+2, -1263971.1, -1432113.8, 8319.26, 0.0047084927, -0.0037914638, -1263560.5, 130430.71, 0.0, 5.0783076, 4.9667697 
7.8267485e+2, 1.6271704e+2, -1227431.4, -1391691.1, 8017.894, 0.0068205483, -0.0046550813, -1227041.0, 118327.88, 0.0, 5.0746064, 4.9657717 
7.8245324e+2, 1.6767757e+2, -1191717.3, -1353589.6, 8904.646, 0.007353832, 0.0009539269, -1191228.9, 105529.695, 0.0, 5.0710754, 4.963854 
7.8223187e+2, 1.7263666e+2, -1152683.9, -1309641.1, 8759.081, 0.005424867, 0.00094312086, -1152196.5, 95965.664, 0.0, 5.067716, 4.9638405 
7.820106e+2, 1.7759572e+2, -1113679.9, -1265722.0, 8601.2, 0.0034838757, 0.0008100748, -1113194.9, 86371.35, 0.0, 5.06434, 4.9638066 
7.817893e+2, 1.8255495e+2, -1074303.8, -1221164.8, 7880.309, 0.0023109496, 0.0006203216, -1073882.1, 77084.06, 0.0, 5.0609813, 4.9639726 
7.815679e+2, 1.8751301e+2, -1038777.44, -1185053.6, 8184.819, 0.003756024, 0.005021165, -1038320.94, 64054.246, 0.0, 5.057704, 4.9611735 
7.81347e+2, 1.924691e+2, -999023.3, -1140615.8, 7810.4663, 0.0055703754, 0.0016465897, -998593.8, 55209.867, 0.0, 5.054521, 4.9611645 
7.811261e+2, 1.9742519e+2, -959294.06, -1096157.8, 7446.0923, 0.007402509, -0.0016048065, -958890.1, 46341.902, 0.0, 5.051314, 4.9611554 
7.809052e+2, 2.0238122e+2, -920655.7, -1054131.1, 6750.3423, 0.0076957867, -0.00254368, -920315.2, 36347.586, 0.0, 5.0480943, 4.9603114 
7.8068304e+2, 2.0733579e+2, -885441.8, -1019267.6, 6294.57, 0.005614709, 0.0054369033, -885146.4, 22963.713, 0.0, 5.04484, 4.956975 
7.8046095e+2, 2.1228811e+2, -845684.2, -974680.75, 5813.1885, 0.0035299717, 0.005799555, -845422.75, 14156.572, 0.0, 5.041581, 4.9569683 
7.802389e+2, 2.1724045e+2, -805935.25, -930063.56, 5316.5654, 0.001459892, 0.006143582, -805707.94, 5340.5674, 0.0, 5.038303, 4.956962 
7.8001714e+2, 2.221927e+2, -765958.3, -885032.94, 4564.5107, 0.00085067685, 0.004466411, -765783.6, -3266.7705, 0.0, 5.035023, 4.957086 
7.7979445e+2, 2.2714348e+2, -730677.7, -850302.9, 3084.6096, 0.0026280887, 0.006431843, -730598.2, -16600.777, 0.0, 5.031707, 4.9536505 
7.79571e+2, 2.3209204e+2, -691037.2, -805316.9, 2402.1306, 0.0038311495, 0.00009038471, -690986.75, -25486.875, 0.0, 5.0282664, 4.9537816 
7.7934766e+2, 2.3704062e+2, -651561.75, -760687.6, 1706.7532, 0.0049803434, -0.0062379795, -651535.06, -34533.03, 0.0, 5.0248137, 4.9537754 
7.791244e+2, 2.4198958e+2, -612547.56, -716858.94, 1320.6666, 0.0045295544, -0.00856273, -612530.8, -44029.645, 0.0, 5.0213113, 4.9534907 
7.7890027e+2, 2.4693786e+2, -576975.6, -680484.6, -628.4088, 0.0023115177, 0.0003977191, -576971.8, -56963.72, 0.0, 5.0177026, 4.9506464 
7.78675e+2, 2.5188437e+2, -538166.06, -635641.06, -1413.7377, -0.00014537033, 0.0017138162, -538145.56, -66613.53, 0.0, 5.013872, 4.950815 
7.7844995e+2, 2.5683096e+2, -499572.2, -591254.1, -2183.8958, -0.0026664252, 0.0029825105, -499520.2, -76464.35, 0.0, 5.010027, 4.95081 
7.7822536e+2, 2.6177716e+2, -460963.16, -546981.94, -2398.1262, -0.0038496158, 0.0015427575, -460896.34, -86313.164, 0.0, 5.0062017, 4.9507337 
7.7800137e+2, 2.667223e+2, -426138.06, -511450.94, -3589.1555, -0.002385133, 0.010043812, -425987.34, -99865.52, 0.0, 5.002374, 4.9475536 
7.7777636e+2, 2.716661e+2, -386175.56, -463543.5, -4698.274, -0.0010405703, 0.0026211583, -385891.3, -108218.21, 0.0, 4.998397, 4.948769 
7.7755153e+2, 2.7660993e+2, -347648.44, -418981.53, -5421.1997, 0.00019272462, -0.0055165826, -347238.78, -118014.445, 0.0, 4.9944463, 4.9487734 
7.773267e+2, 2.8155425e+2, -308365.7, -372151.06, -5672.9, 0.00025640737, -0.010902091, -307865.06, -127095.85, 0.0, 4.9903874, 4.949595 
7.771027e+2, 2.8649822e+2, -274075.78, -335401.0, -5328.9814, -0.0017820896, -0.006687671, -273616.16, -141301.02, 0.0, 4.98604, 4.946963 
7.7687865e+2, 2.91443e+2, -234744.53, -286480.22, -6099.777, -0.002793477, -0.0051415297, -234035.1, -150181.27, 0.0, 4.981553, 4.948678 
7.766547e+2, 2.963878e+2, -197546.45, -242353.31, -6555.8687, -0.004138118, -0.0033056315, -196606.94, -161215.05, 0.0, 4.9770536, 4.9486685 
7.764318e+2, 3.013325e+2, -162055.11, -203085.81, -6226.376, -0.004290376, 0.004346614, -161131.08, -161131.08, 0.0, 4.9727182, 4.946824 
7.7621233e+2, 3.0628866e+2, -118607.11, -114020.414, -6220.903, 0.003484197, 0.022760848, -109683.6, -109683.6, 0.0, 4.968581, 4.971765 
7.7599573e+2, 3.112563e+2, -126783.11, -111645.34, -6825.4634, 0.008887879, -0.00901282, -109022.32, -109022.32, 0.0, 4.9644537, 4.97443 
7.7577925e+2, 3.1622434e+2, -138114.67, -116720.14, -7485.736, 0.013766969, -0.03712911, -114361.08, -114361.08, 0.0, 4.960349, 4.974403 
7.755611e+2, 3.2121077e+2, -116666.25, -44212.27, -7418.008, 0.0041445205, 0.14350492, -43460.594, -43460.594, 0.0, 4.9559083, 5.002448 
7.8933096e+2, 1.2821192e+2, -1481441.3, -1684022.0, 13826.924, -0.008464263, -0.00080372335, -1480501.9, 203023.48, 0.0, 5.103416, 4.9676924 
7.891035e+2, 1.3317423e+2, -1445878.6, -1642077.8, 14073.569, -0.0023710262, 0.000391899, -1444874.3, 190020.45, 0.0, 5.099007, 4.9676795 
7.8887624e+2, 1.381365e+2, -1410275.1, -1600106.6, 14291.274, 0.0036180571, 0.0016546668, -1409205.3, 177059.3, 0.0, 5.0946, 4.967652 
7.8864795e+2, 1.4309858e+2, -1374554.0, -1557686.6, 14694.167, 0.002366623, 0.0005540901, -1373382.5, 164252.78, 0.0, 5.0901785, 4.9677334 
7.884213e+2, 1.4806132e+2, -1337438.8, -1514325.8, 16214.542, -0.0013599287, 0.005096612, -1335964.8, 153033.95, 0.0, 5.0862355, 4.967781 
7.881957e+2, 1.5302321e+2, -1299327.4, -1470912.5, 16378.838, 0.00086284935, -0.00074277987, -1297777.9, 142592.55, 0.0, 5.082632, 4.9677854 
7.8797036e+2, 1.5798509e+2, -1261269.0, -1427670.6, 16528.447, 0.0031360225, -0.006381952, -1259643.1, 132099.13, 0.0, 5.07903, 4.9677114 
7.8774476e+2, 1.6294697e+2, -1224339.4, -1386719.6, 16527.24, 0.005575732, -0.007323378, -1222674.3, 120442.125, 0.0, 5.0754075, 4.9668517 
7.8751975e+2, 1.6790794e+2, -1188623.1, -1348936.6, 17985.28, 0.006543932, -0.00036724887, -1186630.1, 107871.16, 0.0, 5.0719795, 4.9647684 
7.8729516e+2, 1.728674e+2, -1149162.0, -1304739.9, 18121.842, 0.004812986, 0.0010893575, -1147079.1, 98821.95, 0.0, 5.068774, 4.964766 
7.870707e+2, 1.7782682e+2, -1109643.5, -1260474.4, 18254.05, 0.0030891062, 0.0024484093, -1107465.8, 89835.33, 0.0, 5.0655704, 4.9647684 
7.868461e+2, 1.8278618e+2, -1070024.3, -1216223.9, 17813.668, 0.0020399294, 0.002116721, -1067885.1, 80814.414, 0.0, 5.062398, 4.964742 
7.866215e+2, 1.877441e+2, -1034267.94, -1180373.9, 18554.775, 0.003368101, 0.005663486, -1031948.4, 68162.016, 0.0, 5.0593023, 4.9617615 
7.863975e+2, 1.9269991e+2, -993898.25, -1135615.6, 18395.428, 0.0050944756, 0.0013836591, -991549.4, 59992.406, 0.0, 5.056339, 4.9617615 
7.8617364e+2, 1.9765575e+2, -953498.3, -1090845.0, 18241.379, 0.0069017876, -0.0027795227, -951116.9, 51856.15, 0.0, 5.0533767, 4.9617476 
7.8594965e+2, 2.0261163e+2, -914009.44, -1048074.5, 17693.53, 0.007094265, -0.0040882844, -911713.6, 42691.727, 0.0, 5.0503955, 4.9610486 
7.857243e+2, 2.07566e+2, -878576.44, -1013570.7, 17566.406, 0.004940105, 0.0036430461, -876328.0, 29525.842, 0.0, 5.047323, 4.9575024 
7.8549904e+2, 2.1251805e+2, -838303.9, -968743.8, 17329.781, 0.002871803, 0.00415782, -836040.8, 21284.398, 0.0, 5.044255, 4.957496 
7.8527385e+2, 2.1747012e+2, -797981.1, -923863.4, 17092.41, 0.00091257866, 0.004837102, -795701.56, 13094.879, 0.0, 5.0411873, 4.95749 
7.8504896e+2, 2.2242205e+2, -757460.1, -878814.1, 16567.508, 0.00053033617, 0.0034211942, -755238.94, 5028.8716, 0.0, 5.038152, 4.9575143 
7.848228e+2, 2.273724e+2, -721880.2, -844480.1, 15219.17, 0.0018776461, 0.006252681, -720019.2, -8265.744, 0.0, 5.035045, 4.9538493 
7.84596e+2, 2.3232037e+2, -681769.3, -799290.44, 14669.689, 0.002870602, 0.00073657825, -679965.9, -16703.771, 0.0, 5.031779, 4.953979 
7.8436935e+2, 2.3726837e+2, -641775.3, -754426.56, 14114.916, 0.003963359, -0.0048010107, -640033.7, -25263.246, 0.0, 5.0285153, 4.953976 
7.841427e+2, 2.422167e+2, -602100.2, -710057.4, 13827.118, 0.0036890248, -0.0071415585, -600357.4, -34081.563, 0.0, 5.025205, 4.9537997 
7.839149e+2, 2.471642e+2, -566277.2, -673961.25, 11825.061, 0.002054076, 0.00016962773, -564993.94, -47203.992, 0.0, 5.0217476, 4.950803 
7.83686e+2, 2.5210986e+2, -527211.94, -629081.1, 11168.505, 0.000112472575, 0.00002104181, -526001.8, -56679.63, 0.0, 5.018024, 4.950947 
7.834571e+2, 2.5705552e+2, -488286.97, -584574.25, 10520.797, -0.0018530176, 0.000030767835, -487150.8, -66296.63, 0.0, 5.0143023, 4.950939 
7.832287e+2, 2.6200098e+2, -449572.47, -540403.9, 10492.441, -0.002980283, -0.0014757894, -448376.2, -75987.15, 0.0, 5.0105443, 4.9508085 
7.830006e+2, 2.6694554e+2, -415016.63, -504829.97, 9227.277, -0.0025616852, 0.00898423, -414078.44, -90144.94, 0.0, 5.0065713, 4.9477205 
7.8277135e+2, 2.718887e+2, -376054.34, -457678.94, 7975.103, -0.0020704512, 0.0034456393, -375282.44, -99790.92, 0.0, 5.002286, 4.948824 
7.825423e+2, 2.7683184e+2, -338618.9, -413684.2, 7075.1206, -0.0014241658, -0.0029852474, -337957.88, -110908.05, 0.0, 4.997948, 4.9488134 
7.823133e+2, 2.8177541e+2, -299953.78, -367124.84, 6437.449, -0.001245235, -0.0077439565, -299342.4, -120740.12, 0.0, 4.9936523, 4.9496646 
7.82085e+2, 2.8671843e+2, -265504.03, -330234.8, 5928.3086, -0.0023500628, -0.006181977, -264965.56, -134808.08, 0.0, 4.989331, 4.947082 
7.818565e+2, 2.916621e+2, -226416.61, -281494.34, 4458.4814, -0.0021606465, -0.008324819, -226058.03, -144352.14, 0.0, 4.9847593, 4.948784 
7.816281e+2, 2.9660589e+2, -189571.38, -237501.95, 3446.0522, -0.001991688, -0.010780665, -189324.89, -156071.53, 0.0, 4.9801226, 4.948796 
7.8140074e+2, 3.0154985e+2, -155906.06, -200045.9, 4234.382, -0.0018076259, -0.0004007086, -155503.53, -155503.53, 0.0, 4.975333, 4.946509 
7.811768e+2, 3.0650586e+2, -113925.875, -110944.11, 3549.3083, 0.0049098493, 0.020098295, -108585.27, -108585.27, 0.0, 4.9705243, 4.97178 
7.8095555e+2, 3.1147286e+2, -124168.67, -109447.78, 2921.5903, 0.010329914, -0.015731975, -108889.14, -108889.14, 0.0, 4.965636, 4.974454 
7.807345e+2, 3.1643993e+2, -137921.3, -115601.65, 2303.354, 0.016225435, -0.052207243, -115366.43, -115366.43, 0.0, 4.9606614, 4.9744086 
7.805122e+2, 3.2141006e+2, -91681.44, 15180.043, 456.0976, 0.0076660686, -0.14607929, 15181.99, 15181.99, 0.0, 4.9559193, 5.0237885 
7.9442936e+2, 1.2844485e+2, -1480110.4, -1682168.1, 10571.806, -0.006365219, 0.00524163, -1479558.8, 201686.33, 0.0, 5.103485, 4.9683394 
7.941975e+2, 1.334077e+2, -1444544.9, -1640228.4, 10824.143, -0.00072018924, 0.0053345924, -1443947.9, 188660.75, 0.0, 5.0990777, 4.9683256 
7.9396576e+2, 1.3837048e+2, -1408970.9, -1598331.8, 11027.912, 0.004629728, 0.0054447795, -1408330.9, 175641.83, 0.0, 5.094673, 4.9682736 
7.937329e+2, 1.43333e+2, -1373325.4, -1556034.0, 11549.42, 0.0019618177, 0.0029390503, -1372598.1, 162740.58, 0.0, 5.090249, 4.9683137 
7.935023e+2, 1.4829613e+2, -1336483.9, -1513013.5, 13537.022, -0.0025252418, 0.006118194, -1335451.9, 151246.56, 0.0, 5.086282, 4.9682474 
7.9327315e+2, 1.5325835e+2, -1298373.1, -1469606.8, 13703.041, -0.00067282846, -0.0011493786, -1297283.5, 140783.64, 0.0, 5.082679, 4.9682503 
7.930441e+2, 1.5822054e+2, -1260332.8, -1426406.8, 13841.979, 0.0011998918, -0.008163419, -1259187.0, 130248.87, 0.0, 5.079078, 4.9681635 
7.9281485e+2, 1.6318299e+2, -1223239.8, -1385081.6, 13842.403, 0.00401353, -0.008788306, -1222064.4, 118740.11, 0.0, 5.0754523, 4.967432 
7.9258657e+2, 1.6814455e+2, -1187855.9, -1347861.1, 15595.85, 0.0055025322, -0.00057545234, -1186349.9, 105833.13, 0.0, 5.07201, 4.96516 
7.923588e+2, 1.7310451e+2, -1148396.4, -1303668.6, 15734.218, 0.0040289913, 0.0022069307, -1146818.0, 96759.266, 0.0, 5.0688047, 4.9651566 
7.921312e+2, 1.7806444e+2, -1108880.5, -1259409.9, 15861.3955, 0.0025160925, 0.004853484, -1107227.4, 87744.57, 0.0, 5.0656013, 4.965158 
7.919034e+2, 1.8302408e+2, -1069512.8, -1215712.3, 15426.61, 0.0014510644, 0.004209557, -1067902.8, 78464.93, 0.0, 5.062432, 4.964943 
7.9167575e+2, 1.8798198e+2, -1034061.7, -1180444.0, 16342.069, 0.0027298555, 0.006808078, -1032259.44, 65519.574, 0.0, 5.059329, 4.961763 
7.914487e+2, 1.929377e+2, -993690.94, -1135686.8, 16184.641, 0.0043920637, 0.0015565562, -991869.6, 57342.14, 0.0, 5.0563664, 4.961763 
7.9122186e+2, 1.9789341e+2, -953302.44, -1090944.0, 16032.564, 0.006075921, -0.0035721576, -951459.6, 49184.74, 0.0, 5.0534043, 4.96174 
7.909948e+2, 2.0284933e+2, -913630.25, -1047769.7, 15380.42, 0.006110497, -0.0051813447, -911889.3, 40186.977, 0.0, 5.0504208, 4.961181 
7.907664e+2, 2.0780368e+2, -878503.1, -1013934.2, 15281.964, 0.004141207, 0.0022164574, -876800.2, 26724.248, 0.0, 5.0473485, 4.957407 
7.905381e+2, 2.1275562e+2, -838226.44, -969103.6, 15048.027, 0.002228365, 0.0026668848, -836518.56, 18477.637, 0.0, 5.044281, 4.9574013 
7.9030985e+2, 2.1770757e+2, -797888.2, -924195.5, 14809.228, 0.00037310238, 0.003264726, -796175.1, 10292.779, 0.0, 5.0412145, 4.957404 
7.900819e+2, 2.2265935e+2, -757612.06, -879719.9, 14272.469, -0.000021607682, 0.0019774965, -755966.0, 1974.767, 0.0, 5.038184, 4.957229 
7.8985256e+2, 2.2760944e+2, -722214.3, -845850.9, 12782.338, 0.0008179539, 0.006144376, -720906.6, -11477.144, 0.0, 5.0350823, 4.9534035 
7.896224e+2, 2.3255709e+2, -682140.06, -800750.9, 12231.449, 0.0015201282, 0.0020045026, -680891.9, -19949.682, 0.0, 5.031817, 4.953501 
7.893925e+2, 2.3750474e+2, -642140.5, -755880.1, 11679.457, 0.0022722185, -0.0021567845, -640953.56, -28498.879, 0.0, 5.028554, 4.9535 
7.891625e+2, 2.4245264e+2, -602324.44, -711186.3, 11272.332, 0.0021061809, -0.004788004, -601169.5, -37204.957, 0.0, 5.0252395, 4.9534373 
7.889313e+2, 2.4739948e+2, -566663.2, -675558.2, 9053.943, 0.0014840249, 0.000473275, -565915.56, -50431.027, 0.0, 5.0217915, 4.9502807 
7.886987e+2, 2.5234434e+2, -527619.06, -630745.94, 8380.825, 0.00034612475, -0.0018554846, -526942.4, -59918.5, 0.0, 5.0180697, 4.9504004 
7.884662e+2, 2.5728923e+2, -488687.22, -586232.2, 7735.012, -0.0008760884, -0.0040190956, -488077.66, -69514.67, 0.0, 5.014349, 4.9503937 
7.8823406e+2, 2.6223415e+2, -449871.7, -541830.6, 7643.8813, -0.0020792251, -0.0057271575, -449240.63, -79137.61, 0.0, 5.0105886, 4.950344 
7.8800184e+2, 2.6717848e+2, -415357.63, -506545.56, 6056.745, -0.0028439185, 0.007200943, -414957.1, -93307.15, 0.0, 5.0066366, 4.9471555 
7.8776824e+2, 2.7212134e+2, -376273.38, -459391.88, 4941.5684, -0.0034218493, 0.004741921, -375980.63, -102769.72, 0.0, 5.0024056, 4.948235 
7.875348e+2, 2.7706417e+2, -338577.94, -415268.88, 4213.5044, -0.0038955682, 0.001487361, -338347.13, -113574.94, 0.0, 4.9981604, 4.9482274 
7.873016e+2, 2.820071e+2, -299711.75, -368693.47, 3827.8735, -0.0035495383, -0.0032489921, -299500.0, -123168.78, 0.0, 4.9939537, 4.9490423 
7.870692e+2, 2.8694898e+2, -265281.8, -332248.6, 3271.4958, -0.0032743153, -0.0046405606, -265122.38, -137224.0, 0.0, 4.989702, 4.946276 
7.868364e+2, 2.918915e+2, -225855.63, -283275.72, 1917.9781, -0.001767208, -0.009655824, -225791.64, -146332.36, 0.0, 4.9852366, 4.9480124 
7.8660357e+2, 2.9683408e+2, -188567.33, -239063.83, 990.9056, -0.00032687042, -0.015103671, -188547.89, -157528.53, 0.0, 4.9807544, 4.948033 
7.8637165e+2, 3.0177718e+2, -153488.56, -198736.22, 1767.4738, 0.00040131152, -0.010758461, -153419.63, -153419.63, 0.0, 4.976042, 4.946737 
7.861427e+2, 3.0673376e+2, -111869.25, -110296.85, 982.2584, 0.0040681222, 0.020556502, -109824.9, -109824.9, 0.0, 4.9711795, 4.9718204 
7.8591627e+2, 3.1170157e+2, -122183.5, -109007.41, 533.94275, 0.006350293, -0.00080598186, -108985.805, -108985.805, 0.0, 4.9662952, 4.9744177 
7.8569007e+2, 3.1666926e+2, -135556.06, -115003.32, -70.602005, 0.009357628, -0.024737451, -115003.08, -115003.08, 0.0, 4.961443, 4.974379 
7.854635e+2, 3.2164803e+2, -94199.87, 1994.4408, -4643.2617, 0.0036155707, -0.002910261, 2218.0493, 2218.0493, 0.0, 4.9572144, 5.018677 
7.9952776e+2, 1.2867783e+2, -1478237.4, -1680062.4, 7625.1177, -0.0038515308, 0.01081157, -1477949.6, 201014.63, 0.0, 5.103751, 4.9689755 
7.992914e+2, 1.3364117e+2, -1442817.1, -1638199.8, 7757.916, 0.0010061499, 0.009807417, -1442509.5, 187812.64, 0.0, 5.0992923, 4.968963 
7.990551e+2, 1.3860448e+2, -1407509.5, -1596499.1, 7883.5986, 0.005644735, 0.008756796, -1407181.1, 174499.39, 0.0, 5.0948076, 4.9688864 
7.9881775e+2, 1.4356744e+2, -1372114.3, -1554467.5, 8465.446, 0.001547432, 0.0051478194, -1371722.1, 161319.88, 0.0, 5.090332, 4.9688606 
7.9858315e+2, 1.4853096e+2, -1335503.6, -1511698.6, 10884.152, -0.0037188532, 0.007056848, -1334833.9, 149564.17, 0.0, 5.0863395, 4.9687095 
7.9835033e+2, 1.534935e+2, -1297427.1, -1468315.0, 11028.495, -0.0022321688, -0.001664921, -1296718.3, 139045.31, 0.0, 5.0827255, 4.9687114 
7.981177e+2, 1.5845604e+2, -1259469.3, -1425226.1, 11143.732, -0.00075141166, -0.010051204, -1258723.5, 128405.71, 0.0, 5.0791106, 4.9685955 
7.978849e+2, 1.6341905e+2, -1222173.1, -1383469.8, 11150.253, 0.0025263703, -0.009994809, -1221406.0, 117085.99, 0.0, 5.075487, 4.9680095 
7.9765326e+2, 1.683812e+2, -1187104.6, -1346796.6, 13203.982, 0.004541952, -0.0005843355, -1186020.3, 103844.08, 0.0, 5.0720353, 4.96555 
7.9742235e+2, 1.7334168e+2, -1147628.6, -1302600.1, 13347.967, 0.0033304102, 0.003446862, -1146487.4, 94765.79, 0.0, 5.068837, 4.965546 
7.9719144e+2, 1.783021e+2, -1108145.9, -1258413.3, 13476.073, 0.002027609, 0.007284539, -1106946.9, 85695.56, 0.0, 5.0656343, 4.965524 
7.9696053e+2, 1.8326196e+2, -1069020.0, -1215247.9, 13035.571, 0.00085132034, 0.006283592, -1067867.1, 76168.74, 0.0, 5.0624676, 4.9651275 
7.967298e+2, 1.8821985e+2, -1033853.7, -1180516.1, 14130.678, 0.0020804787, 0.007900085, -1032504.6, 62943.047, 0.0, 5.0593576, 4.961764 
7.9649985e+2, 1.9317546e+2, -993482.0, -1135759.9, 13975.17, 0.003683948, 0.0016147885, -992122.25, 54759.523, 0.0, 5.056395, 4.961763 
7.9627e+2, 1.981311e+2, -953095.94, -1091024.8, 13819.85, 0.0052398397, -0.004501598, -951724.9, 46590.836, 0.0, 5.0534334, 4.961738 
7.9603994e+2, 2.0308705e+2, -913270.94, -1047515.75, 13066.396, 0.0051749214, -0.0062211035, -912011.0, 37736.063, 0.0, 5.0504475, 4.961297 
7.9580843e+2, 2.0804137e+2, -878427.8, -1014299.5, 12998.017, 0.003398921, 0.0008628741, -877195.56, 23999.23, 0.0, 5.0473757, 4.95731 
7.9557705e+2, 2.1299319e+2, -838146.94, -969465.25, 12766.771, 0.001616316, 0.0011647554, -836917.25, 15749.748, 0.0, 5.0443087, 4.9573054 
7.953458e+2, 2.1794504e+2, -797822.0, -924594.56, 12535.858, -0.00015042505, 0.0015812184, -796594.25, 7544.945, 0.0, 5.0412436, 4.9572945 
7.9511476e+2, 2.2289665e+2, -757806.3, -880724.6, 11966.731, -0.00060225185, 0.0007662527, -756652.1, -1038.4294, 0.0, 5.0382175, 4.9569097 
7.948821e+2, 2.278465e+2, -722541.94, -847215.56, 10343.869, -0.00024320708, 0.006312958, -721689.56, -14583.984, 0.0, 5.0351214, 4.95296 
7.946488e+2, 2.327938e+2, -682508.6, -802213.8, 9793.462, 0.00014114317, 0.0034549707, -681712.6, -23090.248, 0.0, 5.031857, 4.9530225 
7.9441553e+2, 2.377411e+2, -642494.25, -757315.94, 9244.19, 0.0005172099, 0.0005832183, -641754.75, -31615.799, 0.0, 5.028594, 4.953029 
7.9418224e+2, 2.4268854e+2, -602480.8, -712179.94, 8683.302, 0.0006388672, -0.0026095856, -601797.75, -40144.266, 0.0, 5.025276, 4.9531226 
7.939476e+2, 2.4763474e+2, -567138.75, -677359.44, 6300.952, 0.0010407034, 0.0006823911, -566779.75, -53600.36, 0.0, 5.0218368, 4.949688 
7.937113e+2, 2.5257882e+2, -528022.9, -632414.25, 5593.763, 0.00068036886, -0.0039210864, -527724.0, -62998.14, 0.0, 5.018118, 4.9498525 
7.9347515e+2, 2.5752294e+2, -489098.13, -587924.9, 4951.4106, 0.0001754888, -0.008350946, -488850.7, -72578.6, 0.0, 5.0143976, 4.949836 
7.9323924e+2, 2.6246735e+2, -450054.1, -543004.56, 4783.2627, -0.001280604, -0.009626477, -449808.6, -81991.76, 0.0, 5.0106344, 4.9499693 
7.9300284e+2, 2.674114e+2, -415857.34, -508603.34, 2863.414, -0.0032204648, 0.0057980283, -415769.0, -96402.78, 0.0, 5.0066986, 4.946473 
7.927649e+2, 2.7235398e+2, -376653.5, -461195.0, 1744.4143, -0.004865584, 0.0062496536, -376617.53, -105687.35, 0.0, 5.002468, 4.947642 
7.925271e+2, 2.7729654e+2, -338954.2, -417070.06, 1020.18866, -0.0064762044, 0.0060081063, -338940.84, -116446.49, 0.0, 4.9982233, 4.947634 
7.922898e+2, 2.8223878e+2, -300308.4, -371029.47, 691.499, -0.005785714, 0.0012197865, -300301.66, -126241.164, 0.0, 4.9940233, 4.948255 
7.920533e+2, 2.8717953e+2, -265816.75, -334522.66, -134.74652, -0.004097334, -0.0034524288, -265816.5, -140177.0, 0.0, 4.989774, 4.945516 
7.918161e+2, 2.9212087e+2, -226439.38, -285657.6, -1498.7708, -0.0012514358, -0.011763839, -226401.47, -149188.89, 0.0, 4.9853044, 4.9472156 
7.91579e+2, 2.9706234e+2, -189167.67, -241453.61, -2401.9788, 0.0013610981, -0.020275664, -189057.56, -160272.84, 0.0, 4.9808154, 4.947235 
7.913424e+2, 3.0200487e+2, -153152.22, -199196.5, -1871.1387, 0.0020423033, -0.01765897, -153076.31, -153076.31, 0.0, 4.9761415, 4.9466085 
7.911083e+2, 3.0696204e+2, -111326.63, -110352.27, -2852.7815, 0.0024987266, 0.021842314, -107945.375, -107945.375, 0.0, 4.9712696, 4.9718585 
7.908767e+2, 3.1193063e+2, -121950.25, -109498.22, -3067.1775, 0.001178498, 0.012028492, -108783.72, -108783.72, 0.0, 4.9663334, 4.974321 
7.9064524e+2, 3.1689927e+2, -135479.92, -115586.24, -3484.9114, -0.00016541094, 0.0013728404, -114993.44, -114993.44, 0.0, 4.96143, 4.974273 
7.9041475e+2, 3.2188112e+2, -107193.04, -27960.29, -4701.6997, -0.004205125, 0.12289479, -27682.264, -27682.264, 0.0, 4.957126, 5.0079217 
8.046261e+2, 1.2891339e+2, -1479391.5, -1678921.3, 9869.464, -0.0013000263, 0.01064421, -1478904.5, 197750.56, 0.0, 5.1029906, 4.9697156 
8.043851e+2, 1.3387705e+2, -1443710.3, -1636920.1, 9958.736, 0.0021879168, 0.008936741, -1443198.3, 184811.44, 0.0, 5.0986238, 4.9697056 
8.041442e+2, 1.388407e+2, -1408177.3, -1595169.1, 9928.942, 0.0058589703, 0.0073874136, -1407651.5, 171713.19, 0.0, 5.094232, 4.9696016 
8.039024e+2, 1.4380407e+2, -1372396.3, -1553020.4, 10639.89, 0.0007951002, 0.0043118056, -1371771.8, 158950.98, 0.0, 5.0899143, 4.9695377 
8.0366397e+2, 1.48768e+2, -1335609.0, -1510362.8, 13328.768, -0.0045033465, 0.0073505295, -1334598.3, 147477.36, 0.0, 5.0860486, 4.9692802 
8.0342764e+2, 1.5373087e+2, -1297104.3, -1466804.9, 13268.299, -0.00266114, -0.00053265336, -1296073.1, 137365.47, 0.0, 5.0825853, 4.9692736 
8.031914e+2, 1.5869373e+2, -1258733.5, -1423481.0, 13149.989, -0.0007854045, -0.008282761, -1257690.5, 127111.234, 0.0, 5.0791006, 4.9691796 
8.0295503e+2, 1.636571e+2, -1220879.9, -1381166.4, 13074.746, 0.0028665205, -0.008365006, -1219820.4, 116340.23, 0.0, 5.075611, 4.9687195 
8.0272007e+2, 1.6861951e+2, -1185642.5, -1344745.4, 15256.361, 0.0046798773, 0.00024972632, -1184192.9, 103336.71, 0.0, 5.072306, 4.9660997 
8.0248594e+2, 1.7358021e+2, -1145808.1, -1300406.3, 15240.976, 0.0032655313, 0.0038700115, -1144320.0, 94595.35, 0.0, 5.0692363, 4.9660883 
8.0225194e+2, 1.785409e+2, -1106091.8, -1256244.6, 15203.548, 0.001921186, 0.0076095923, -1104567.8, 85733.64, 0.0, 5.066141, 4.966012 
8.020177e+2, 1.8350089e+2, -1067006.3, -1213562.1, 14623.18, 0.00043765263, 0.0065581207, -1065561.4, 76132.164, 0.0, 5.06305, 4.9654207 
8.0178386e+2, 1.8845873e+2, -1031923.25, -1179266.8, 15716.826, 0.0013720439, 0.008179313, -1030265.4, 62841.04, 0.0, 5.0599995, 4.961878 
8.0155104e+2, 1.934142e+2, -991428.0, -1134475.1, 15382.174, 0.0027843001, 0.0016724389, -989792.6, 54749.734, 0.0, 5.0570817, 4.961872 
8.0131817e+2, 1.983697e+2, -950984.4, -1089737.0, 15053.808, 0.0041871285, -0.0047381558, -949369.9, 46608.188, 0.0, 5.0541425, 4.961842 
8.0108505e+2, 2.033256e+2, -910944.1, -1045917.0, 13995.413, 0.0042361626, -0.006535488, -909508.2, 37901.51, 0.0, 5.051184, 4.9614997 
8.0085045e+2, 2.0827974e+2, -876283.75, -1013298.8, 13769.112, 0.0027397124, -0.00009139341, -874913.75, 23944.76, 0.0, 5.0481462, 4.957296 
8.006161e+2, 2.1323133e+2, -835989.4, -968491.44, 13312.906, 0.0012161565, -0.00030270225, -834665.0, 15667.554, 0.0, 5.045084, 4.957284 
8.003817e+2, 2.1818292e+2, -795770.75, -923765.06, 12866.095, -0.00029548444, -0.0003893634, -794490.25, 7316.271, 0.0, 5.041994, 4.9572396 
8.0014765e+2, 2.2313431e+2, -756176.7, -880578.25, 12068.893, -0.000836294, -0.0004791001, -755016.7, -1733.2683, 0.0, 5.0389147, 4.9566474 
7.9991174e+2, 2.2808385e+2, -721106.94, -847402.06, 10161.845, -0.0011114783, 0.0064618695, -720294.56, -15515.6455, 0.0, 5.0357842, 4.9526043 
7.9967505e+2, 2.3303074e+2, -681294.75, -802642.94, 9419.075, -0.0011329829, 0.004798166, -680568.0, -24267.652, 0.0, 5.0324616, 4.9526134 
7.994385e+2, 2.3797764e+2, -641489.06, -757838.6, 8654.665, -0.0011391753, 0.0031076367, -640848.8, -33027.29, 0.0, 5.029117, 4.9526286 
7.992019e+2, 2.4292453e+2, -601564.1, -712587.7, 7708.558, -0.00059333997, -0.000730894, -601031.44, -41690.137, 0.0, 5.0257287, 4.952799 
7.989637e+2, 2.4787004e+2, -566581.94, -678481.44, 4889.775, 0.0007361925, 0.0008132208, -566368.6, -55495.145, 0.0, 5.022253, 4.949142 
7.987238e+2, 2.528133e+2, -527607.75, -633553.25, 3884.125, 0.0011003262, -0.0060726884, -527465.5, -65038.01, 0.0, 5.018465, 4.949336 
7.98484e+2, 2.5775665e+2, -488974.6, -589271.75, 2990.698, 0.0013000574, -0.01281375, -488885.5, -74904.39, 0.0, 5.0146484, 4.9492927 
7.982443e+2, 2.627006e+2, -450094.84, -544218.2, 2481.7222, -0.0005761027, -0.01306695, -450029.47, -84499.18, 0.0, 5.0107775, 4.9495234 
7.980038e+2, 2.6764438e+2, -416167.16, -510289.34, 22.298, -0.0036794315, 0.004732859, -416167.16, -99084.766, 0.0, 5.006791, 4.945898 
7.977615e+2, 2.7258664e+2, -377081.6, -462957.94, -1194.5659, -0.0063827913, 0.007932342, -377064.97, -108415.65, 0.0, 5.0025167, 4.9470615 
7.9751927e+2, 2.7752888e+2, -339455.63, -418967.9, -1939.0576, -0.009132711, 0.010556899, -339408.38, -119191.89, 0.0, 4.998262, 4.9470115 
7.9727787e+2, 2.8247035e+2, -301062.44, -373536.03, -2265.5977, -0.007866869, 0.00571391, -300991.7, -129201.266, 0.0, 4.994067, 4.9474134 
7.9703724e+2, 2.8741e+2, -266441.3, -336797.7, -3341.6282, -0.0047680177, -0.0026782465, -266282.97, -142901.58, 0.0, 4.989818, 4.9447618 
7.9679567e+2, 2.923502e+2, -227128.11, -288049.4, -4749.994, -0.0005535005, -0.014961192, -226759.98, -151793.17, 0.0, 4.985337, 4.946425 
7.965542e+2, 2.972905e+2, -189878.1, -243859.16, -5642.5386, 0.0032589792, -0.027212225, -189294.6, -162743.44, 0.0, 4.9808393, 4.9464426 
7.9631305e+2, 3.022327e+2, -153101.9, -200102.77, -5374.3623, 0.0032308619, -0.021295166, -152495.2, -152495.2, 0.0, 4.976207, 4.9463277 
7.9607385e+2, 3.0719042e+2, -111150.92, -110850.74, -6515.515, 0.00040840983, 0.022839854, -104483.586, -104483.586, 0.0, 4.9712934, 4.9717503 
7.9583687e+2, 3.1215972e+2, -121981.57, -110085.38, -6581.4673, -0.004376708, 0.019422201, -107162.43, -107162.43, 0.0, 4.966281, 4.9742165 
7.956001e+2, 3.1712916e+2, -135741.72, -116300.71, -6825.678, -0.009953051, 0.016897053, -114143.586, -114143.586, 0.0, 4.9613, 4.974159 
7.9536635e+2, 3.2210177e+2, -112445.05, -38357.855, -3934.1902, -0.006271726, 0.07196594, -38149.527, -38149.527, 0.0, 4.956721, 5.00428 
8.0972314e+2, 1.2916005e+2, -1478281.9, -1674706.4, 15600.743, -0.00008181812, 0.008238897, -1477050.5, 197185.66, 0.0, 5.102967, 4.9709463 
8.094777e+2, 1.3412431e+2, -1442901.1, -1632800.8, 15952.597, 0.0027573253, 0.0061070235, -1441570.4, 184014.67, 0.0, 5.0985, 4.970949 
8.092323e+2, 1.3908853e+2, -1407669.5, -1591283.3, 16252.291, 0.005443087, 0.004188797, -1406242.1, 170692.34, 0.0, 5.0940385, 4.9707966 
8.0898607e+2, 1.4405257e+2, -1371990.1, -1549015.1, 17487.223, -0.0003267184, 0.001995723, -1370279.3, 158007.56, 0.0, 5.0896726, 4.970789 
8.087441e+2, 1.4901717e+2, -1335436.3, -1506714.5, 21028.744, -0.0049535865, 0.006835965, -1332892.3, 146741.8, 0.0, 5.085838, 4.970379 
8.0850446e+2, 1.5398066e+2, -1296565.3, -1462923.6, 21283.693, -0.0023777056, 0.00087817706, -1293885.5, 137106.64, 0.0, 5.082505, 4.9703846 
8.08265e+2, 1.589441e+2, -1257706.5, -1419215.6, 21480.002, 0.00019053165, -0.004968889, -1254898.5, 127451.7, 0.0, 5.0791755, 4.9703436 
8.080252e+2, 1.6390799e+2, -1219189.9, -1376156.3, 21799.521, 0.0040434264, -0.005597898, -1216218.6, 117485.2, 0.0, 5.075849, 4.9700513 
8.077872e+2, 1.6887069e+2, -1183823.8, -1339993.5, 24591.33, 0.005487632, 0.0010949317, -1180043.0, 105025.82, 0.0, 5.072703, 4.967254 
8.075501e+2, 1.738316e+2, -1143344.8, -1295305.9, 24859.713, 0.00367409, 0.002882862, -1139381.3, 97070.2, 0.0, 5.0698643, 4.967252 
8.07313e+2, 1.7879248e+2, -1102999.3, -1250955.3, 25102.734, 0.0019412001, 0.0048178127, -1098856.3, 88978.234, 0.0, 5.067026, 4.9671187 
8.0707586e+2, 1.837527e+2, -1063350.9, -1208273.1, 24834.592, -0.00005213899, 0.0038147576, -1059213.3, 80011.3, 0.0, 5.064204, 4.9663997 
8.0683917e+2, 1.887107e+2, -1027894.4, -1174215.9, 26420.074, 0.00038477755, 0.0067203306, -1023270.06, 67366.33, 0.0, 5.0614014, 4.96265 
8.0660343e+2, 1.9366628e+2, -986635.1, -1129026.6, 26369.875, 0.0013397078, 0.0016454856, -981908.5, 60163.58, 0.0, 5.058758, 4.9626527 
8.063678e+2, 1.9862185e+2, -945328.2, -1083775.3, 26300.422, 0.0023432004, -0.0033587213, -940500.3, 53007.375, 0.0, 5.0561137, 4.9626627 
8.061319e+2, 2.0357771e+2, -904394.44, -1039447.8, 25490.488, 0.002749893, -0.0054174163, -899743.44, 45196.13, 0.0, 5.0534654, 4.962352 
8.0589455e+2, 2.085316e+2, -869163.56, -1007068.5, 25586.908, 0.0019340743, -0.00012549742, -864569.25, 31821.238, 0.0, 5.050737, 4.9579234 
8.0565727e+2, 2.1348278e+2, -827996.94, -961847.06, 25387.002, 0.0011308164, -0.0014733258, -823343.6, 24524.178, 0.0, 5.0479903, 4.957914 
8.054201e+2, 2.1843399e+2, -786872.1, -916774.3, 25218.352, 0.00036865385, -0.0026883755, -782148.2, 17196.96, 0.0, 5.045245, 4.957837 
8.0518305e+2, 2.2338505e+2, -746443.56, -873211.6, 24627.092, -0.00023954129, -0.0027233937, -741827.4, 8997.792, 0.0, 5.0424776, 4.9572344 
8.04944e+2, 2.283342e+2, -710998.9, -840388.4, 22959.236, -0.0011541981, 0.0049070274, -707045.7, -4720.9736, 0.0, 5.039578, 4.952972 
8.0470395e+2, 2.3328057e+2, -670669.94, -795447.4, 22496.094, -0.0016166703, 0.004114657, -666738.0, -12886.611, 0.0, 5.0364575, 4.95296 
8.044641e+2, 2.3822694e+2, -630263.4, -750393.4, 22018.32, -0.0019211817, 0.0032737223, -626354.9, -20976.81, 0.0, 5.0333385, 4.952969 
8.042243e+2, 2.4317314e+2, -589702.44, -705006.4, 21234.662, -0.0012811399, -0.00059190986, -585916.1, -29011.49, 0.0, 5.0302153, 4.9530754 
8.0398256e+2, 2.4811783e+2, -554309.94, -671187.3, 18426.703, 0.00013845565, 0.00107735, -551473.6, -43028.504, 0.0, 5.0269628, 4.9492292 
8.0373895e+2, 2.5306016e+2, -514853.25, -626065.4, 17522.205, 0.00077048014, -0.0061058933, -512157.8, -52148.984, 0.0, 5.023354, 4.9494205 
8.034954e+2, 2.580025e+2, -475674.7, -581556.3, 16751.96, 0.0014647152, -0.013322063, -473087.5, -61515.258, 0.0, 5.0197396, 4.949376 
8.0325204e+2, 2.6294556e+2, -436230.6, -536098.44, 16340.274, -0.0001548146, -0.013713277, -433625.0, -70495.11, 0.0, 5.0160465, 4.949681 
8.0300725e+2, 2.6788843e+2, -402017.94, -501992.2, 13698.857, -0.003419419, 0.003321779, -400174.84, -85484.44, 0.0, 5.0121293, 4.9461036 
8.0276054e+2, 2.7282977e+2, -363397.8, -455210.94, 12292.375, -0.006080369, 0.006968837, -361780.53, -95514.625, 0.0, 5.00775, 4.9471354 
8.02514e+2, 2.7777115e+2, -326410.4, -411677.78, 11257.724, -0.008674559, 0.010363112, -324949.1, -107107.81, 0.0, 5.003292, 4.947028 
8.0226827e+2, 2.8271163e+2, -289016.16, -366879.28, 10678.229, -0.0072469926, 0.00626664, -287578.28, -118153.11, 0.0, 4.9987626, 4.9473705 
8.02023e+2, 2.8765026e+2, -255837.47, -331075.28, 9110.833, -0.0045327577, -0.0019982057, -254749.92, -133722.72, 0.0, 4.9940166, 4.944626 
8.017766e+2, 2.925893e+2, -218258.86, -283221.16, 7260.788, 0.00005205193, -0.015226116, -217457.22, -144832.11, 0.0, 4.988913, 4.9462647 
8.015304e+2, 2.9752836e+2, -183153.2, -240567.81, 6065.998, 0.004861493, -0.02922549, -182519.31, -158296.73, 0.0, 4.9837413, 4.9460435 
8.012844e+2, 3.0247e+2, -146564.75, -195422.55, 6133.678, 0.0037789887, -0.01857724, -145806.48, -145806.48, 0.0, 4.9787416, 4.9465957 
8.010402e+2, 3.0742726e+2, -104072.18, -105724.7, 3589.6357, -0.00082530105, 0.023477623, -101214.94, -101214.94, 0.0, 4.9739513, 4.972173 
8.007978e+2, 3.123961e+2, -115439.2, -105083.984, 2748.6748, -0.006613084, 0.016613383, -104399.61, -104399.61, 0.0, 4.9687243, 4.9746833 
8.005556e+2, 3.1736523e+2, -130614.64, -111828.14, 1895.4584, -0.0127921, 0.011238466, -111638.81, -111638.81, 0.0, 4.9632277, 4.974647 
8.0031866e+2, 3.2232395e+2, -98117.83, -9298.874, 4888.5967, 0.005337491, -0.13983633, -9030.615, -9030.615, 0.0, 4.9579377, 5.0139217 
8.148202e+2, 1.294118e+2, -1476735.5, -1672419.9, 12275.733, 0.00068830274, 0.0069493963, -1475968.4, 195799.14, 0.0, 5.1030326, 4.9717417 
8.145701e+2, 1.343768e+2, -1441357.5, -1630523.5, 12640.442, 0.002903525, 0.0043927724, -1440516.5, 182592.61, 0.0, 5.098566, 4.9717436 
8.143202e+2, 1.3934176e+2, -1406186.3, -1589150.0, 12953.211, 0.0046231374, 0.0021933226, -1405273.8, 169177.5, 0.0, 5.0941076, 4.9715433 
8.140696e+2, 1.4430666e+2, -1370525.6, -1546910.0, 14480.622, -0.001851133, 0.0012854872, -1369344.6, 156451.5, 0.0, 5.0897465, 4.9715223 
8.138241e+2, 1.4927207e+2, -1334334.6, -1505055.8, 18536.42, -0.005734659, 0.007742324, -1332345.3, 144791.3, 0.0, 5.085878, 4.9709635 
8.1358117e+2, 1.542363e+2, -1295467.4, -1461271.5, 18794.252, -0.0023711408, 0.0035323696, -1293363.8, 135124.48, 0.0, 5.0825458, 4.9709682 
8.133384e+2, 1.5920052e+2, -1256558.5, -1417455.8, 18986.367, 0.00090023596, -0.0006067913, -1254348.4, 125491.445, 0.0, 5.079216, 4.9709654 
8.130954e+2, 1.6416503e+2, -1217859.4, -1373977.6, 19361.379, 0.004915674, -0.0019891975, -1215494.0, 115692.41, 0.0, 5.0758862, 4.9708166 
8.128543e+2, 1.6912818e+2, -1182861.3, -1338432.4, 22466.992, 0.006063707, 0.0026976024, -1179681.8, 102864.375, 0.0, 5.0727243, 4.9678097 
8.126143e+2, 1.7408943e+2, -1142383.3, -1293749.6, 22738.14, 0.0038786954, 0.0025353404, -1139041.4, 94882.82, 0.0, 5.0698867, 4.967807 
8.123745e+2, 1.7905064e+2, -1102156.4, -1249654.9, 22971.69, 0.0016970753, 0.002580954, -1098661.5, 86641.52, 0.0, 5.0670495, 4.967588 
8.121343e+2, 1.8401128e+2, -1062687.6, -1207343.9, 22704.492, -0.00087769516, 0.0018414932, -1059207.8, 77481.53, 0.0, 5.0642266, 4.9667435 
8.1189483e+2, 1.8896964e+2, -1027574.9, -1173940.1, 24444.318, -0.0008667475, 0.005941529, -1023600.4, 64498.137, 0.0, 5.0614147, 4.9627695 
8.116564e+2, 1.9392544e+2, -986315.44, -1128751.9, 24395.688, -0.00032185373, 0.002284956, -982253.0, 57279.426, 0.0, 5.0587716, 4.962773 
8.114182e+2, 1.9888127e+2, -944976.25, -1083428.9, 24310.447, 0.0002682456, -0.0013472937, -940831.7, 50134.42, 0.0, 5.056127, 4.9628077 
8.111796e+2, 2.0383726e+2, -904020.4, -1039057.8, 23432.904, 0.0010829099, -0.0038093722, -900069.7, 42326.85, 0.0, 5.0534787, 4.9625134 
8.109395e+2, 2.0879106e+2, -869090.5, -1007347.75, 23542.17, 0.0010255312, 0.00032953636, -865191.75, 28656.156, 0.0, 5.050751, 4.9578543 
8.106996e+2, 2.1374206e+2, -827919.8, -962123.25, 23346.193, 0.00094255916, -0.0022522763, -823974.44, 21352.258, 0.0, 5.048006, 4.9578457 
8.1045973e+2, 2.1869305e+2, -786838.1, -917150.1, 23183.193, 0.00077309995, -0.0046474338, -782836.56, 13969.011, 0.0, 5.0452614, 4.9577336 
8.102198e+2, 2.2364402e+2, -746409.6, -873585.25, 22461.61, -0.00006102892, -0.004630404, -742559.06, 5727.505, 0.0, 5.0424914, 4.9571347 
8.099777e+2, 2.2859298e+2, -711261.9, -841535.0, 20643.68, -0.0012966173, 0.0035828007, -708068.8, -8280.914, 0.0, 5.039603, 4.9526057 
8.0973464e+2, 2.3353903e+2, -670923.56, -796586.2, 20184.36, -0.002096545, 0.0035613447, -667761.06, -16443.582, 0.0, 5.0364847, 4.952595 
8.094916e+2, 2.384851e+2, -630518.06, -751551.1, 19693.543, -0.0027880159, 0.0033755547, -627394.3, -24547.26, 0.0, 5.033368, 4.9525957 
8.0924857e+2, 2.4343088e+2, -590186.3, -706703.0, 18821.805, -0.0022944089, -0.00033781352, -587221.4, -32843.22, 0.0, 5.0302463, 4.9525146 
8.090034e+2, 2.4837503e+2, -554844.2, -673154.44, 15750.725, -0.00090307294, 0.001940932, -552783.2, -46858.62, 0.0, 5.0270085, 4.9485784 
8.087562e+2, 2.5331667e+2, -515444.97, -628185.7, 14826.046, -0.00025238623, -0.0047648135, -513527.88, -56032.438, 0.0, 5.023402, 4.9487143 
8.0850905e+2, 2.5825837e+2, -476225.72, -583591.9, 14040.969, 0.00037496974, -0.011454324, -474419.84, -65353.953, 0.0, 5.019788, 4.948698 
8.08262e+2, 2.6320073e+2, -436801.25, -538157.6, 13520.831, -0.0008876058, -0.012556019, -435028.56, -74398.586, 0.0, 5.0160885, 4.9489956 
8.0801326e+2, 2.681428e+2, -402223.88, -503547.88, 10465.112, -0.0032419702, 0.0020805942, -401154.28, -88956.516, 0.0, 5.01221, 4.945594 
8.077623e+2, 2.7308327e+2, -363704.84, -457288.28, 9211.909, -0.004976146, 0.0044605657, -362806.7, -99025.57, 0.0, 5.0078893, 4.946415 
8.0751145e+2, 2.7802378e+2, -326384.56, -413570.2, 8376.86, -0.006691187, 0.006631541, -325587.0, -110222.6, 0.0, 5.003547, 4.9463186 
8.072613e+2, 2.8296357e+2, -288734.47, -368693.13, 7826.5654, -0.00557441, 0.003663017, -287975.6, -121020.34, 0.0, 4.9991193, 4.94664 
8.070112e+2, 2.879018e+2, -255358.78, -333031.78, 6180.5254, -0.004460266, -0.00019618159, -254870.06, -136307.78, 0.0, 4.9944754, 4.943806 
8.0675954e+2, 2.9284036e+2, -217470.78, -285053.28, 4478.8096, -0.0015727419, -0.008801458, -217175.25, -147009.5, 0.0, 4.9894834, 4.9454403 
8.065081e+2, 2.9777896e+2, -181816.25, -241866.47, 3470.9436, 0.0015949798, -0.018151328, -181616.3, -159847.4, 0.0, 4.984455, 4.945344 
8.0625725e+2, 3.027194e+2, -144592.33, -195788.14, 4215.8506, 0.00037319775, -0.013797431, -144247.48, -144247.48, 0.0, 4.9795547, 4.946194 
8.060087e+2, 3.076752e+2, -102177.95, -106692.09, 1397.7455, -0.0011155935, 0.023854678, -101780.2, -101780.2, 0.0, 4.9748316, 4.9715414 
8.057615e+2, 3.1264248e+2, -112528.805, -105416.77, 381.70526, -0.0042521385, 0.011531811, -105396.34, -105396.34, 0.0, 4.9699297, 4.974142 
8.055146e+2, 3.1761009e+2, -128392.3, -116906.516, -210.44829, -0.007228988, 0.0011166184, -116902.664, -116902.664, 0.0, 4.965034, 4.9721293 
8.052725e+2, 3.2257968e+2, -100147.92, -21244.348, -1083.0709, 0.014980626, -0.024924655, -21229.484, -21229.484, 0.0, 4.959092, 5.0093465 
8.199171e+2, 1.2966353e+2, -1475427.3, -1670229.8, 8965.299, 0.0015124322, 0.005881832, -1475015.5, 194283.7, 0.0, 5.103014, 4.972546 
8.1966245e+2, 1.3462928e+2, -1439743.9, -1628195.6, 9299.552, 0.0030149727, 0.0027040942, -1439286.1, 181347.28, 0.0, 5.0986547, 4.972544 
8.19408e+2, 1.39595e+2, -1404711.4, -1587096.1, 9622.8545, 0.0041438066, 0.0002394593, -1404205.1, 167763.1, 0.0, 5.0941916, 4.972258 
8.191531e+2, 1.4456077e+2, -1368998.4, -1544716.4, 11461.759, -0.0030535127, 0.00080509606, -1368254.0, 155051.39, 0.0, 5.0898304, 4.972281 
8.189039e+2, 1.49527e+2, -1333169.5, -1503347.1, 16041.542, -0.0064018555, 0.008835558, -1331670.6, 142968.02, 0.0, 5.085936, 4.971556 
8.186578e+2, 1.54492e+2, -1294306.3, -1459574.9, 16341.943, -0.002307195, 0.0062963935, -1292705.8, 133278.08, 0.0, 5.082606, 4.9715576 
8.1841177e+2, 1.5945697e+2, -1255362.0, -1415601.1, 16528.24, 0.0016577448, 0.0037958873, -1253674.9, 123654.07, 0.0, 5.0792594, 4.971619 
8.181654e+2, 1.6442212e+2, -1216578.1, -1371915.6, 16973.352, 0.005759025, 0.0015391643, -1214745.1, 113923.555, 0.0, 5.0759273, 4.9715414 
8.179213e+2, 1.6938569e+2, -1181894.8, -1336873.4, 20353.39, 0.0066384403, 0.0041411016, -1179266.3, 100756.82, 0.0, 5.072748, 4.9683633 
8.1767845e+2, 1.743473e+2, -1141423.9, -1292197.5, 20617.232, 0.00407603, 0.0019453254, -1138655.4, 92741.34, 0.0, 5.069909, 4.9683604 
8.174357e+2, 1.7930883e+2, -1101368.9, -1248476.9, 20857.668, 0.0014249699, 0.00017823407, -1098468.8, 84302.53, 0.0, 5.0670733, 4.9680157 
8.171926e+2, 1.8426989e+2, -1062023.5, -1206418.9, 20557.883, -0.0017194594, 0.00006579992, -1059153.8, 75000.07, 0.0, 5.06425, 4.967086 
8.169504e+2, 1.8922858e+2, -1027254.0, -1173665.9, 22469.5, -0.0021155318, 0.0053758766, -1023883.25, 61677.164, 0.0, 5.0614295, 4.962889 
8.167093e+2, 1.9418465e+2, -985994.44, -1128478.6, 22422.44, -0.0019806204, 0.0030844333, -982549.1, 54443.367, 0.0, 5.0587864, 4.962892 
8.164683e+2, 1.9914071e+2, -944619.3, -1083077.3, 22319.756, -0.0017828959, 0.00072114397, -941110.25, 47314.094, 0.0, 5.0561423, 4.9629545 
8.1622714e+2, 2.0409682e+2, -903673.2, -1038728.8, 21370.004, -0.0004650159, -0.0022474092, -900372.5, 39480.94, 0.0, 5.0534925, 4.962654 
8.1598437e+2, 2.0905052e+2, -869016.44, -1007627.8, 21498.295, 0.00021174975, 0.00071490236, -865758.6, 25546.66, 0.0, 5.0507674, 4.957784 
8.157418e+2, 2.1400131e+2, -827841.6, -962400.25, 21306.25, 0.0008305341, -0.003177051, -824548.56, 18237.084, 0.0, 5.0480227, 4.957776 
8.1549925e+2, 2.1895212e+2, -786809.0, -917538.94, 21157.578, 0.0011874189, -0.006757556, -783470.1, 10795.916, 0.0, 5.045279, 4.9576254 
8.1525654e+2, 2.2390299e+2, -746410.4, -874042.44, 20276.303, 0.00013429768, -0.0064015253, -743266.6, 2481.2092, 0.0, 5.042506, 4.9570055 
8.150114e+2, 2.2885175e+2, -711522.9, -842683.2, 18328.795, -0.0014089522, 0.0024532704, -709009.7, -11758.6875, 0.0, 5.03963, 4.9522386 
8.147651e+2, 2.3379752e+2, -671175.2, -797726.56, 17873.303, -0.0025788513, 0.0031075794, -668699.3, -19915.838, 0.0, 5.0365133, 4.9522295 
8.1451887e+2, 2.3874328e+2, -630806.1, -752791.44, 17388.006, -0.0036830609, 0.0034671666, -628376.0, -28059.943, 0.0, 5.0333996, 4.9521933 
8.1427276e+2, 2.4368861e+2, -590725.4, -708526.2, 16387.742, -0.0032747227, 0.00010345497, -588488.1, -36636.34, 0.0, 5.030278, 4.9519105 
8.140241e+2, 2.486322e+2, -555350.94, -675072.2, 13067.626, -0.0019173245, 0.0029759642, -553941.2, -50536.84, 0.0, 5.027056, 4.947944 
8.137733e+2, 2.5357318e+2, -516034.06, -630309.2, 12130.074, -0.0012824201, -0.00337463, -514760.66, -59778.324, 0.0, 5.0234523, 4.9480066 
8.135225e+2, 2.585142e+2, -476786.28, -585661.4, 11367.629, -0.0007613587, -0.009668225, -475612.06, -69052.18, 0.0, 5.0198383, 4.9480076 
8.1327176e+2, 2.634559e+2, -437248.84, -539966.4, 10607.691, -0.0015204847, -0.011566083, -436164.8, -78034.47, 0.0, 5.0161343, 4.9483995 
8.130191e+2, 2.6839715e+2, -402618.47, -505444.47, 7254.504, -0.002921121, 0.0008330864, -402109.2, -92403.88, 0.0, 5.0122747, 4.944971 
8.127639e+2, 2.7333674e+2, -364209.34, -459475.97, 5961.7104, -0.0037552295, 0.0018185012, -363837.72, -102541.22, 0.0, 5.0079584, 4.945689 
8.125088e+2, 2.7827635e+2, -326950.06, -415900.53, 5127.5903, -0.004680356, 0.0026860374, -326655.44, -113767.8, 0.0, 5.003616, 4.9455414 
8.122542e+2, 2.8321555e+2, -289321.13, -371042.34, 4375.828, -0.0041802237, 0.0016823702, -289087.47, -124602.47, 0.0, 4.999181, 4.9458575 
8.1199914e+2, 2.8815338e+2, -255927.45, -335519.16, 2424.445, -0.00464908, 0.0018426975, -255853.66, -139756.67, 0.0, 4.994552, 4.942977 
8.117423e+2, 2.9309154e+2, -218039.08, -287599.28, 658.9161, -0.0035577011, -0.002604884, -218032.84, -150327.05, 0.0, 4.989565, 4.944589 
8.1148565e+2, 2.980297e+2, -182276.88, -244188.36, -321.76407, -0.0023993433, -0.00774731, -182275.2, -162960.95, 0.0, 4.9845386, 4.944572 
8.1123024e+2, 3.0296895e+2, -144753.67, -197647.7, 690.826, -0.0030008785, -0.00863984, -144744.66, -144744.66, 0.0, 4.979675, 4.9455748 
8.1097716e+2, 3.079233e+2, -102427.54, -108856.66, -2242.846, -0.0011775624, 0.023016743, -101722.44, -101722.44, 0.0, 4.9749575, 4.9708114 
8.1072533e+2, 3.12889e+2, -112688.42, -107362.42, -3239.8096, -0.0020934348, 0.0034433594, -105831.625, -105831.625, 0.0, 4.970048, 4.973499 
8.104737e+2, 3.1785518e+2, -126990.09, -115148.02, -4070.8716, -0.0033867357, -0.0127639575, -113883.61, -113883.61, 0.0, 4.9651313, 4.9728384 
8.102247e+2, 3.2283407e+2, -102698.055, -26794.83, -5269.1543, 0.011274206, 0.092332356, -26430.795, -26430.795, 0.0, 4.9588685, 5.007644 
8.25013e+2, 1.2991755e+2, -1478161.4, -1669122.9, 10464.704, 0.00004883079, 0.0038648888, -1477589.6, 189219.6, 0.0, 5.1015525, 4.9736066 
8.2475424e+2, 1.3488403e+2, -1441968.3, -1626882.6, 10791.969, 0.0025155244, 0.00075226894, -1441340.5, 176796.02, 0.0, 5.097378, 4.973588 
8.244955e+2, 1.3985048e+2, -1406197.1, -1585393.1, 11085.289, 0.004958708, -0.0015869011, -1405514.0, 163950.61, 0.0, 5.093161, 4.973316 
8.2423633e+2, 1.4481707e+2, -1369814.5, -1542679.3, 13350.377, -0.0029847194, -0.00022957828, -1368789.5, 152004.22, 0.0, 5.0890408, 4.9733343 
8.2398367e+2, 1.4978406e+2, -1333546.4, -1501260.3, 18479.373, -0.0066156425, 0.008840816, -1331534.4, 140585.05, 0.0, 5.0853763, 4.972502 
8.2373434e+2, 1.5474978e+2, -1294033.8, -1457208.4, 18785.543, -0.002409074, 0.0074798716, -1291899.0, 131558.63, 0.0, 5.0822797, 4.97249 
8.2348496e+2, 1.5971544e+2, -1254497.0, -1413075.3, 18981.262, 0.00187889, 0.0060070157, -1252256.6, 122539.32, 0.0, 5.0791655, 4.9724975 
8.2323533e+2, 1.6468102e+2, -1215315.5, -1369389.3, 19326.877, 0.006084668, 0.0029326908, -1212928.1, 113203.31, 0.0, 5.0760145, 4.9723377 
8.229883e+2, 1.696448e+2, -1180578.0, -1334718.1, 22727.648, 0.006784624, 0.004342141, -1177296.8, 100186.766, 0.0, 5.072959, 4.968968 
8.227426e+2, 1.7460659e+2, -1139735.5, -1289874.8, 22711.846, 0.0039361645, 0.00086421164, -1136375.0, 92480.13, 0.0, 5.0702477, 4.9689655 
8.2249695e+2, 1.7956835e+2, -1099482.1, -1246223.6, 22681.65, 0.0009616328, -0.002095389, -1096056.3, 84171.37, 0.0, 5.0675125, 4.9685545 
8.22251e+2, 1.8452974e+2, -1059906.8, -1204046.5, 22316.006, -0.00244447, -0.0015841215, -1056530.8, 75076.125, 0.0, 5.0647655, 4.9676332 
8.2200605e+2, 1.8948866e+2, -1025312.6, -1171873.0, 24361.752, -0.0029381146, 0.0046662786, -1021369.25, 61642.023, 0.0, 5.0619946, 4.9632125 
8.217623e+2, 1.944449e+2, -983988.25, -1126689.9, 24267.15, -0.0028545544, 0.003486054, -979974.4, 54467.56, 0.0, 5.0593796, 4.9632053 
8.2151866e+2, 1.9940114e+2, -942641.8, -1081402.5, 24097.52, -0.0026491282, 0.0021387476, -938576.1, 47296.367, 0.0, 5.0567427, 4.963229 
8.2127476e+2, 2.0435724e+2, -901560.94, -1037099.1, 22875.258, -0.0010127394, -0.0010933194, -897804.3, 39497.16, 0.0, 5.0541553, 4.96289 
8.210293e+2, 2.0931073e+2, -866947.4, -1006545.7, 22799.65, -0.00016270293, 0.0010996291, -863318.0, 25437.227, 0.0, 5.0515146, 4.957797 
8.20784e+2, 2.1426123e+2, -825634.5, -961270.7, 22347.266, 0.0008243492, -0.003773031, -822047.44, 18190.756, 0.0, 5.0488176, 4.957787 
8.205388e+2, 2.1921176e+2, -784621.8, -916520.2, 21922.186, 0.0015646068, -0.008211883, -781073.7, 10647.377, 0.0, 5.0460835, 4.957598 
8.202932e+2, 2.2416244e+2, -744307.44, -873148.56, 20741.625, 0.00040510372, -0.0075638318, -741050.7, 2153.896, 0.0, 5.0432887, 4.956952 
8.20045e+2, 2.2911088e+2, -709706.44, -842492.6, 18434.914, -0.001420311, 0.0015381206, -707194.6, -12483.879, 0.0, 5.0404058, 4.9519553 
8.197955e+2, 2.3405626e+2, -669487.7, -797626.75, 17747.5, -0.0029003336, 0.0025133176, -667075.06, -20828.1, 0.0, 5.0372424, 4.9519396 
8.1954616e+2, 2.3900162e+2, -629428.1, -753041.2, 17020.32, -0.0043093367, 0.0032187812, -627127.44, -29344.025, 0.0, 5.0340533, 4.9518204 
8.192969e+2, 2.4394648e+2, -589761.44, -709362.9, 15698.742, -0.0039570606, 0.00055540225, -587735.1, -38410.94, 0.0, 5.030853, 4.951375 
8.190447e+2, 2.4888945e+2, -554585.5, -676206.75, 11883.734, -0.0027839534, 0.0040962826, -553435.2, -52551.89, 0.0, 5.027572, 4.947346 
8.1879026e+2, 2.5382972e+2, -515629.06, -631778.75, 10675.599, -0.0022519405, -0.0019665954, -514656.0, -62187.18, 0.0, 5.0238633, 4.9473433 
8.1853586e+2, 2.5877005e+2, -476715.13, -587268.75, 9640.71, -0.0018408328, -0.007976249, -475880.72, -71827.0, 0.0, 5.020118, 4.9473586 
8.182815e+2, 2.6371104e+2, -437356.28, -541407.3, 8323.4, -0.0020164812, -0.010679833, -436694.66, -81063.92, 0.0, 5.016287, 4.9478717 
8.180248e+2, 2.6865146e+2, -403072.63, -507427.75, 4452.9414, -0.0024461704, -0.00042974364, -402882.97, -95669.99, 0.0, 5.012353, 4.9443016 
8.1776536e+2, 2.7359018e+2, -364786.25, -461631.44, 2957.9065, -0.0024133525, -0.0009852152, -364695.97, -105883.88, 0.0, 5.008005, 4.944977 
8.17506e+2, 2.7852893e+2, -327605.44, -418256.63, 2007.289, -0.0025957022, -0.0014215616, -327561.03, -117149.89, 0.0, 5.0036635, 4.9447584 
8.172469e+2, 2.8346756e+2, -290076.53, -373544.56, 1202.0631, -0.0030446383, 0.0002851285, -290059.22, -128044.414, 0.0, 4.9992113, 4.945027 
8.169869e+2, 2.8840494e+2, -256590.89, -338019.4, -1157.8912, -0.005059113, 0.0040349644, -256574.42, -142942.44, 0.0, 4.994601, 4.942149 
8.167249e+2, 2.9334265e+2, -218685.98, -290136.3, -2979.3357, -0.005780634, 0.003227248, -218561.97, -153315.72, 0.0, 4.9896216, 4.943747 
8.1646305e+2, 2.9828036e+2, -183013.45, -246908.7, -3858.8127, -0.0065506194, 0.0019331872, -182781.25, -165921.13, 0.0, 4.9845877, 4.943668 
8.1620306e+2, 3.0321842e+2, -145274.38, -200045.75, -2688.4224, -0.0059245653, -0.0025575524, -145142.73, -145142.73, 0.0, 4.9797525, 4.9447713 
8.1594557e+2, 3.081713e+2, -102832.59, -110957.266, -5728.0, -0.0010147676, 0.02031773, -99872.64, -99872.64, 0.0, 4.975015, 4.970123 
8.15689e+2, 3.131354e+2, -113143.42, -109406.71, -6754.3535, 0.00012281368, -0.010178959, -104267.06, -104267.06, 0.0, 4.970064, 4.9728537 
8.1543255e+2, 3.1810012e+2, -128410.06, -119238.24, -7482.7314, 0.00013110667, -0.033828072, -115047.945, -115047.945, 0.0, 4.9651065, 4.9714794 
8.1517535e+2, 3.230782e+2, -102266.39, -23923.482, -8363.571, -0.0027448593, 0.059586056, -23040.57, -23040.57, 0.0, 4.958406, 5.0088816 
8.301067e+2, 1.3018206e+2, -1480431.6, -1665699.8, 15926.852, -0.0024008602, 0.0010526406, -1479072.5, 185144.19, 0.0, 5.100194, 4.975206 
8.298439e+2, 1.3514952e+2, -1444247.3, -1623397.3, 16541.496, 0.0020039345, -0.0017890997, -1442732.8, 172801.97, 0.0, 5.0960207, 4.975201 
8.2958114e+2, 1.4011694e+2, -1408311.4, -1581691.5, 17198.662, 0.0054546837, -0.0038040902, -1406621.8, 160231.73, 0.0, 5.091851, 4.9749722 
8.293179e+2, 1.4508463e+2, -1371684.1, -1538577.9, 20046.025, -0.0031904862, -0.0017510754, -1369310.1, 148861.47, 0.0, 5.087785, 4.9750905 
8.29062e+2, 1.5005268e+2, -1335465.8, -1497365.9, 26057.268, -0.0067475, 0.007972305, -1331375.3, 138111.33, 0.0, 5.084218, 4.974117 
8.288097e+2, 1.5501939e+2, -1295358.6, -1452961.9, 26686.412, -0.0024786438, 0.0074768336, -1290962.5, 129852.21, 0.0, 5.0813327, 4.9741178 
8.2855743e+2, 1.5998597e+2, -1255236.1, -1408594.6, 27138.377, 0.0018060211, 0.0064600618, -1250575.4, 121568.23, 0.0, 5.0784516, 4.974088 
8.283049e+2, 1.6495216e+2, -1215728.8, -1365282.3, 27953.379, 0.006134622, 0.0025626172, -1210674.8, 112798.625, 0.0, 5.0755544, 4.9736757 
8.2805496e+2, 1.6991638e+2, -1180563.0, -1330588.5, 31972.51, 0.0066830018, 0.003251442, -1174033.4, 100788.35, 0.0, 5.0727444, 4.9701767 
8.278068e+2, 1.7487851e+2, -1138902.5, -1285294.5, 32276.492, 0.0034520715, -0.00081715296, -1132102.1, 94088.41, 0.0, 5.070324, 4.9701867 
8.275585e+2, 1.7984061e+2, -1097715.4, -1241037.0, 32505.652, 0.00008827014, -0.004224406, -1090687.6, 86872.34, 0.0, 5.0678997, 4.9698324 
8.273101e+2, 1.8480255e+2, -1057182.4, -1198204.1, 32548.85, -0.0032653692, -0.0032677318, -1050032.4, 78901.305, 0.0, 5.0654655, 4.968986 
8.2706267e+2, 1.8976192e+2, -1021937.5, -1166067.4, 35082.145, -0.003313797, 0.003395131, -1013851.9, 66481.39, 0.0, 5.0630245, 4.964389 
8.268166e+2, 1.9471851e+2, -979630.56, -1120374.9, 35339.266, -0.0027017272, 0.002788819, -971255.6, 60504.34, 0.0, 5.0607643, 4.964391 
8.265706e+2, 1.9967505e+2, -937284.0, -1074669.9, 35526.6, -0.0018809623, 0.0018544482, -928640.9, 54546.09, 0.0, 5.0585093, 4.9643817 
8.263242e+2, 2.0463127e+2, -895392.4, -1030436.94, 34679.63, -0.00019020197, -0.0012284797, -887007.25, 47607.793, 0.0, 5.056316, 4.963838 
8.260762e+2, 2.0958468e+2, -860038.6, -1000006.1, 35015.36, 0.00017716274, 0.0012735516, -851767.6, 34302.492, 0.0, 5.054039, 4.9585347 
8.2582843e+2, 2.14535e+2, -817725.4, -954213.0, 34907.473, 0.0007328967, -0.003226851, -809315.75, 28239.752, 0.0, 5.0517063, 4.9585385 
8.255807e+2, 2.1948534e+2, -775604.75, -908849.25, 34796.35, 0.0011972741, -0.0072768955, -767065.1, 21975.656, 0.0, 5.0493655, 4.9583836 
8.253325e+2, 2.2443575e+2, -734192.1, -864878.7, 33870.79, 0.00019212918, -0.0074647833, -725935.3, 14591.44, 0.0, 5.046957, 4.9577723 
8.2508135e+2, 2.2938368e+2, -698858.2, -834508.1, 31862.451, -0.0014932461, 0.00038246927, -691746.9, 290.31854, 0.0, 5.044452, 4.9525127 
8.248289e+2, 2.3432845e+2, -657705.94, -789164.3, 31541.844, -0.0026768607, 0.00030858006, -650529.6, -6950.6016, 0.0, 5.0416327, 4.952511 
8.245767e+2, 2.3927319e+2, -616669.0, -744156.56, 31176.951, -0.0036161565, 0.00027135812, -609453.1, -14332.182, 0.0, 5.038817, 4.952375 
8.243242e+2, 2.4421756e+2, -576062.06, -700186.2, 30204.908, -0.0032230744, -0.0011409664, -569102.1, -22435.322, 0.0, 5.035993, 4.9518676 
8.2406867e+2, 2.4915984e+2, -540359.4, -667527.9, 26532.406, -0.0027200386, 0.0034401314, -535045.7, -36812.56, 0.0, 5.033024, 4.9475384 
8.2381046e+2, 2.540993e+2, -500782.53, -622763.8, 25645.816, -0.0026163768, -0.00089268317, -495609.97, -45783.18, 0.0, 5.0295377, 4.9475617 
8.235525e+2, 2.5903884e+2, -461188.84, -577892.56, 24918.56, -0.0022863229, -0.005206255, -456090.94, -54670.98, 0.0, 5.0260377, 4.947604 
8.232943e+2, 2.639788e+2, -421193.44, -531761.7, 23701.06, -0.0019470527, -0.008235784, -416327.13, -63320.227, 0.0, 5.0224457, 4.9481173 
8.230335e+2, 2.6891804e+2, -386807.1, -498218.3, 19659.986, -0.0017776504, 0.000075615935, -383439.63, -78838.54, 0.0, 5.018617, 4.9443593 
8.227696e+2, 2.7385536e+2, -348916.8, -452694.84, 17877.713, -0.001146151, -0.002495904, -345923.4, -89709.875, 0.0, 5.0141354, 4.945016 
8.2250583e+2, 2.7879277e+2, -312493.66, -409872.16, 16552.367, -0.00055849284, -0.0046155206, -309757.0, -101931.6, 0.0, 5.009553, 4.9447255 
8.222421e+2, 2.8373036e+2, -275125.28, -364827.16, 15427.938, -0.0015319323, -0.0017836876, -272545.97, -113106.7, 0.0, 5.004964, 4.945187 
8.2197714e+2, 2.8866693e+2, -242304.75, -329886.22, 12489.225, -0.004644493, 0.0041046804, -240558.58, -129493.83, 0.0, 5.0001254, 4.942226 
8.217097e+2, 2.9360378e+2, -205630.89, -282759.03, 10280.779, -0.006053369, 0.005771767, -204284.03, -141596.22, 0.0, 4.9947176, 4.943766 
8.214425e+2, 2.9854065e+2, -171517.39, -240718.45, 9327.727, -0.0071198014, 0.0072825216, -170282.14, -155971.66, 0.0, 4.9891987, 4.9434953 
8.211776e+2, 3.0347735e+2, -135677.6, -194765.55, 9970.515, -0.005452963, 0.0020556562, -134040.52, -134040.52, 0.0, 4.983686, 4.944579 
8.2091516e+2, 3.084285e+2, -94811.82, -105954.22, 5841.1255, 0.0005874527, 0.016867736, -92311.03, -92311.03, 0.0, 4.978285, 4.9701543 
8.206534e+2, 3.1339058e+2, -107650.39, -105545.74, 3964.7253, 0.0040564216, -0.026164439, -102496.06, -102496.06, 0.0, 4.972399, 4.9728823 
8.2039195e+2, 3.183538e+2, -129573.27, -124950.555, 3064.133, 0.008735363, -0.054083023, -123423.78, -123423.78, 0.0, 4.9663234, 4.968536 
8.201252e+2, 3.2332534e+2, -91192.83, -5572.1113, -1492.5184, -0.01805829, -0.0937758, -5546.102, -5546.102, 0.0, 4.960356, 5.014244 
8.351997e+2, 1.3045162e+2, -1478389.8, -1662371.3, 12790.589, -0.005313613, -0.00035060788, -1477504.9, 184069.7, 0.0, 5.1002584, 4.9763513 
8.3493286e+2, 1.3542022e+2, -1442208.6, -1620079.0, 13429.551, 0.001143901, -0.003093054, -1441200.4, 171681.53, 0.0, 5.096086, 4.9763455 
8.34666e+2, 1.4038882e+2, -1406216.3, -1578278.9, 14094.366, 0.0056331595, -0.0048092073, -1405069.4, 159120.25, 0.0, 5.0919204, 4.97615 
8.343989e+2, 1.453578e+2, -1369516.8, -1534976.5, 17362.484, -0.0038678602, -0.0018430933, -1367714.5, 147780.28, 0.0, 5.0878563, 4.976328 
8.3413976e+2, 1.5032704e+2, -1333734.0, -1494305.3, 23881.012, -0.0072376058, 0.008382795, -1330257.5, 136540.16, 0.0, 5.0842495, 4.9751744 
8.338846e+2, 1.5529487e+2, -1293634.6, -1449913.3, 24514.703, -0.0029206583, 0.0086421, -1289879.4, 128235.164, 0.0, 5.0813646, 4.975174 
8.3362937e+2, 1.602625e+2, -1253724.8, -1405992.3, 24961.107, 0.001326103, 0.007942466, -1249737.4, 119695.336, 0.0, 5.078484, 4.9749956 
8.3337396e+2, 1.6522938e+2, -1214413.8, -1363046.6, 25805.2, 0.0058057127, 0.00318087, -1210061.0, 110694.61, 0.0, 5.075582, 4.9744616 
8.3312154e+2, 1.7019416e+2, -1179643.4, -1328984.9, 30135.379, 0.006192374, 0.0029940677, -1173791.8, 98307.305, 0.0, 5.0727506, 4.970747 
8.3287084e+2, 1.7515679e+2, -1137985.6, -1283696.3, 30441.521, 0.0026554903, -0.0018114651, -1131881.5, 91581.99, 0.0, 5.0703306, 4.9707565 
8.326202e+2, 1.801194e+2, -1096763.1, -1239353.6, 30664.723, -0.0010222534, -0.0056434637, -1090448.3, 84380.07, 0.0, 5.0679054, 4.9704328 
8.3236927e+2, 1.8508205e+2, -1056115.5, -1196263.5, 30682.791, -0.004178381, -0.0041519036, -1049692.5, 76502.36, 0.0, 5.0654697, 4.9696765 
8.321196e+2, 1.90042e+2, -1021179.1, -1164707.8, 33377.566, -0.0037572589, 0.0028251973, -1013796.9, 63791.164, 0.0, 5.063021, 4.96488 
8.318713e+2, 1.9499913e+2, -978874.9, -1119020.0, 33637.934, -0.002659195, 0.002671374, -971219.25, 57789.86, 0.0, 5.060761, 4.964882 
8.31623e+2, 1.9995616e+2, -936665.0, -1073613.5, 33791.023, -0.0014050568, 0.0020038527, -928781.2, 51649.715, 0.0, 5.058508, 4.9647703 
8.3137447e+2, 2.049127e+2, -894950.56, -1029768.4, 32988.234, 0.00015896573, -0.000897242, -887311.6, 44544.62, 0.0, 5.056315, 4.964094 
8.311241e+2, 2.0986627e+2, -859893.8, -1000021.6, 33262.86, 0.0002983777, 0.0020294671, -852398.94, 30911.398, 0.0, 5.054042, 4.9585547 
8.3087397e+2, 2.1481664e+2, -817578.4, -954228.3, 33159.496, 0.00045377066, -0.0019935253, -809956.94, 24838.71, 0.0, 5.05171, 4.958558 
8.306238e+2, 2.1976705e+2, -775443.8, -908829.6, 32983.465, 0.0004317002, -0.0056728045, -767733.4, 18547.492, 0.0, 5.049368, 4.958416 
8.3037317e+2, 2.2471742e+2, -733978.56, -864743.8, 31977.744, -0.00054374395, -0.006819815, -726577.5, 11189.315, 0.0, 5.0469565, 4.957848 
8.301194e+2, 2.2966516e+2, -698926.6, -835160.7, 29760.082, -0.0019331936, -0.00022731363, -692709.3, -3430.4766, 0.0, 5.0444694, 4.9523177 
8.2986414e+2, 2.3460957e+2, -657770.06, -789812.06, 29445.246, -0.0027756356, -0.0016409605, -651501.44, -10677.9795, 0.0, 5.0416503, 4.952317 
8.296091e+2, 2.3955399e+2, -616839.8, -745053.1, 29127.545, -0.0034513648, -0.0027964085, -610532.9, -18164.656, 0.0, 5.038837, 4.952093 
8.293538e+2, 2.4449816e+2, -576163.94, -700920.5, 27938.445, -0.0031806773, -0.0031340865, -570193.06, -26276.969, 0.0, 5.036008, 4.9516454 
8.2909495e+2, 2.494401e+2, -540868.6, -669426.4, 23944.713, -0.0030465517, 0.0026720103, -536553.6, -41067.547, 0.0, 5.033063, 4.946914 
8.288332e+2, 2.543792e+2, -501254.1, -624599.75, 23052.309, -0.0032727257, 0.00082299294, -497086.63, -50002.746, 0.0, 5.029579, 4.9469576 
8.285717e+2, 2.5931832e+2, -461668.34, -579758.8, 22306.8, -0.0032962572, -0.0013090916, -457595.2, -58913.83, 0.0, 5.02608, 4.946988 
8.2830995e+2, 2.642576e+2, -421639.88, -533536.75, 20826.63, -0.0027846168, -0.005098365, -417889.28, -67613.67, 0.0, 5.0224805, 4.9475374 
8.2804507e+2, 2.6919585e+2, -387583.94, -501123.1, 16431.088, -0.0019755235, 0.0019848647, -385253.88, -83374.984, 0.0, 5.0186987, 4.943376 
8.277768e+2, 2.7413207e+2, -349306.13, -455278.28, 14748.817, -0.0009981119, -0.0022255285, -347291.75, -93789.43, 0.0, 5.0143247, 4.944098 
8.275086e+2, 2.7906835e+2, -312341.53, -412063.75, 13698.482, -0.00020382776, -0.005921212, -310494.03, -105368.87, 0.0, 5.009911, 4.9438677 
8.272404e+2, 2.840051e+2, -274385.06, -366287.9, 12670.103, -0.0009933094, -0.004319784, -272670.28, -115922.836, 0.0, 5.0054464, 4.9445305 
8.2697046e+2, 2.889409e+2, -241168.66, -331330.9, 9470.123, -0.004257908, 0.0017288815, -240184.72, -131805.1, 0.0, 5.0007534, 4.9415307 
8.2669777e+2, 2.9387698e+2, -204073.17, -284154.75, 7506.6377, -0.0056836624, 0.0044370643, -203375.6, -143365.83, 0.0, 4.995526, 4.9430084 
8.264253e+2, 2.98813e+2, -169165.58, -241383.56, 6765.374, -0.006612022, 0.006350936, -168537.25, -156897.31, 0.0, 4.9902225, 4.9429 
8.2615495e+2, 3.037488e+2, -134082.38, -197193.95, 7600.035, -0.00542326, 0.0017023613, -133180.06, -133180.06, 0.0, 4.9847145, 4.943356 
8.258871e+2, 3.0869886e+2, -93354.42, -108174.38, 3277.268, 0.0007148112, 0.021836428, -92662.03, -92662.03, 0.0, 4.9791975, 4.969055 
8.256194e+2, 3.136598e+2, -106180.35, -107886.26, 1069.2885, 0.004707322, -0.017277278, -105665.49, -105665.49, 0.0, 4.9733257, 4.97174 
8.2535195e+2, 3.1862167e+2, -124747.02, -120230.32, 122.00309, 0.00933017, -0.04588976, -120227.02, -120227.02, 0.0, 4.9673824, 4.96988 
8.2508075e+2, 3.23599e+2, -82829.95, -1609.5817, -6176.748, -0.012377852, -0.006527243, -1142.5304, -1142.5304, 0.0, 4.962985, 5.014943 
8.402925e+2, 1.3072133e+2, -1477598.6, -1659654.6, 9970.053, -0.0064471667, -0.0008366868, -1477054.3, 181876.95, 0.0, 5.0998917, 4.977501 
8.400217e+2, 1.3569106e+2, -1440882.8, -1617105.4, 10528.39, 0.00078338425, -0.0038173993, -1440256.0, 169972.02, 0.0, 5.0959063, 4.977493 
8.397508e+2, 1.406608e+2, -1404793.5, -1575287.8, 11192.751, 0.0062306426, -0.00530358, -1404061.9, 157462.75, 0.0, 5.0917783, 4.977289 
8.3947974e+2, 1.4563105e+2, -1367776.4, -1531538.9, 14758.492, -0.004380725, -0.0016576323, -1366457.0, 146360.03, 0.0, 5.087772, 4.977586 
8.392174e+2, 1.5060145e+2, -1332165.6, -1491325.1, 21765.434, -0.007729522, 0.008870057, -1329242.9, 134865.25, 0.0, 5.084226, 4.976231 
8.3895934e+2, 1.5557037e+2, -1291989.4, -1446905.0, 22333.676, -0.0033695323, 0.009719339, -1288833.9, 126579.73, 0.0, 5.0813704, 4.976229 
8.387013e+2, 1.6053903e+2, -1252304.3, -1403485.3, 22769.777, 0.0008780237, 0.009220562, -1248949.3, 117772.266, 0.0, 5.0784965, 4.975881 
8.38443e+2, 1.6550663e+2, -1213152.5, -1360911.0, 23629.592, 0.0055490625, 0.0037375444, -1209465.8, 108572.12, 0.0, 5.075607, 4.9752154 
8.3818793e+2, 1.7047198e+2, -1178736.4, -1327389.6, 28289.299, 0.00574876, 0.002693884, -1173534.8, 95841.38, 0.0, 5.072753, 4.9713163 
8.379348e+2, 1.7543508e+2, -1137081.0, -1282106.1, 28604.78, 0.0019012688, -0.0028927794, -1131643.0, 89093.47, 0.0, 5.070334, 4.9713254 
8.376817e+2, 1.8039823e+2, -1095786.3, -1237605.1, 28774.89, -0.0020565332, -0.0070536546, -1090170.3, 81926.12, 0.0, 5.0679083, 4.9710574 
8.374283e+2, 1.8536161e+2, -1055091.4, -1194415.5, 28863.72, -0.005040634, -0.004910727, -1049348.4, 74107.06, 0.0, 5.0654745, 4.9703355 
8.371763e+2, 1.9032216e+2, -1020420.25, -1163349.1, 31674.309, -0.004124353, 0.0023167727, -1013715.44, 61126.89, 0.0, 5.0630183, 4.96537 
8.3692586e+2, 1.952798e+2, -978118.7, -1117666.3, 31937.916, -0.0025327292, 0.002545087, -971156.5, 55101.305, 0.0, 5.0607586, 4.9653716 
8.366754e+2, 2.0023729e+2, -936058.6, -1072587.4, 32142.547, -0.00092689454, 0.0021219112, -928869.94, 48804.68, 0.0, 5.0585074, 4.965148 
8.3642447e+2, 2.0519413e+2, -894565.1, -1029222.6, 31216.525, 0.0005348338, -0.00037617705, -887680.44, 41416.88, 0.0, 5.056314, 4.9643083 
8.3617187e+2, 2.1014787e+2, -859748.7, -1000037.56, 31511.965, 0.00042800268, 0.0029426543, -852995.44, 27554.984, 0.0, 5.0540457, 4.958574 
8.359193e+2, 2.150983e+2, -817430.94, -954244.1, 31413.123, 0.00018629343, -0.00068562233, -810563.06, 21472.703, 0.0, 5.0517144, 4.958577 
8.3566684e+2, 2.2004877e+2, -775303.8, -908857.44, 31238.969, -0.00032376678, -0.0041290442, -768358.06, 15162.851, 0.0, 5.049371, 4.9584317 
8.354137e+2, 2.249991e+2, -733792.94, -864674.0, 30004.393, -0.0011823868, -0.0061700353, -727242.3, 7764.5854, 0.0, 5.046957, 4.957901 
8.351572e+2, 2.2994661e+2, -698993.94, -835814.25, 27658.846, -0.002348658, -0.00090331153, -693614.1, -7093.5884, 0.0, 5.044488, 4.9521217 
8.3489925e+2, 2.3489067e+2, -657833.1, -790460.8, 27349.781, -0.0028682756, -0.0037887837, -652414.6, -14346.588, 0.0, 5.041669, 4.952122 
8.3464134e+2, 2.3983474e+2, -616993.5, -745913.9, 27030.025, -0.0033010757, -0.005959159, -611555.6, -21940.064, 0.0, 5.0388575, 4.951823 
8.343832e+2, 2.4477878e+2, -576370.3, -701895.5, 25706.781, -0.003115432, -0.004826452, -571309.75, -30144.385, 0.0, 5.036024, 4.9513383 
8.341211e+2, 2.497204e+2, -541364.44, -671303.75, 21356.621, -0.0033116024, 0.002338581, -537944.3, -45205.38, 0.0, 5.033104, 4.9462967 
8.338558e+2, 2.5465912e+2, -501723.13, -626438.25, 20460.303, -0.0038964346, 0.0028309987, -498452.28, -54111.367, 0.0, 5.0296226, 4.946352 
8.335907e+2, 2.595978e+2, -462182.47, -581707.56, 19614.24, -0.0042353156, 0.002632978, -459046.03, -63103.098, 0.0, 5.0261235, 4.946343 
8.333253e+2, 2.645363e+2, -422193.16, -535562.3, 18014.326, -0.0035572418, -0.001892901, -419399.53, -71854.766, 0.0, 5.0225177, 4.9468684 
8.3305645e+2, 2.694736e+2, -388359.2, -503936.22, 13174.939, -0.002139292, 0.003786658, -386876.38, -87718.94, 0.0, 5.018762, 4.9424343 
8.327838e+2, 2.7440873e+2, -350031.66, -458034.63, 11443.462, -0.00084888906, -0.0022791312, -348832.47, -98040.67, 0.0, 5.014394, 4.9431744 
8.3251125e+2, 2.7934393e+2, -312969.84, -414628.16, 10347.068, 0.000121522324, -0.007635796, -311927.38, -109501.94, 0.0, 5.0099835, 4.943009 
8.322386e+2, 2.8427985e+2, -274838.13, -368462.97, 9293.303, -0.0005478128, -0.006563104, -273924.56, -119869.305, 0.0, 5.005518, 4.9438086 
8.319637e+2, 2.8921497e+2, -241528.17, -333614.22, 5506.864, -0.0038589193, -0.0005734722, -241200.02, -135506.22, 0.0, 5.000853, 4.9407806 
8.316857e+2, 2.9415026e+2, -204478.61, -286563.28, 3547.961, -0.005465139, 0.0026723763, -204325.53, -146994.81, 0.0, 4.995626, 4.9422145 
8.3140796e+2, 2.990855e+2, -169602.69, -243874.28, 2679.057, -0.0067143734, 0.004892208, -169506.17, -160538.27, 0.0, 4.990322, 4.9420767 
8.311323e+2, 3.040204e+2, -135079.53, -201051.52, 3487.1821, -0.006238655, 0.002612027, -134895.7, -134895.7, 0.0, 4.9848223, 4.9420424 
8.308588e+2, 3.0896956e+2, -94241.0, -111971.01, -1075.8676, 0.00043286424, 0.027337207, -94175.95, -94175.95, 0.0, 4.979318, 4.967753 
8.305852e+2, 3.1392953e+2, -107040.234, -111644.54, -3357.2883, 0.004246712, -0.0069869687, -105271.6, -105271.6, 0.0, 4.973439, 4.970463 
8.3031166e+2, 3.1889048e+2, -123292.88, -118995.43, -4746.455, 0.006535684, -0.033481564, -115933.984, -115933.984, 0.0, 4.967551, 4.9703918 
8.300371e+2, 3.2387015e+2, -84500.91, -5481.4136, -7207.7935, -0.0061375056, 0.06630658, -4829.333, -4829.333, 0.0, 4.9628043, 5.013832 
8.453844e+2, 1.3099405e+2, -1481787.5, -1658654.8, 11410.605, -0.0052750427, 0.0009472849, -1481054.4, 175205.69, 0.0, 5.097776, 4.978853 
8.451095e+2, 1.3596478e+2, -1444531.8, -1615831.3, 11945.604, 0.0012374955, -0.0019014627, -1443702.6, 163844.17, 0.0, 5.09398, 4.9788446 
8.448347e+2, 1.4093554e+2, -1407538.8, -1573389.6, 12803.203, 0.006753111, -0.0033924414, -1406556.1, 152277.22, 0.0, 5.0901327, 4.978712 
8.445598e+2, 1.4590675e+2, -1369553.8, -1529288.3, 16552.793, -0.004979306, -0.0008628795, -1367856.5, 142259.17, 0.0, 5.086504, 4.978942 
8.4429455e+2, 1.50878e+2, -1333553.9, -1489067.5, 24125.928, -0.008131901, 0.008360851, -1329897.0, 131500.63, 0.0, 5.083183, 4.9774637 
8.4403384e+2, 1.5584771e+2, -1292398.9, -1444168.6, 24698.746, -0.003392363, 0.008238654, -1288480.5, 124213.914, 0.0, 5.0806694, 4.9774613 
8.43773e+2, 1.6081713e+2, -1252058.3, -1400842.5, 24919.43, 0.0013278227, 0.007008, -1247995.5, 115998.78, 0.0, 5.0781107, 4.9769344 
8.4351194e+2, 1.6578549e+2, -1212562.0, -1358399.8, 25875.18, 0.005987716, 0.0023986762, -1208107.3, 107196.836, 0.0, 5.075405, 4.9761395 
8.432543e+2, 1.7075142e+2, -1177941.9, -1325108.5, 30679.03, 0.0057463674, 0.002158756, -1171802.5, 94834.83, 0.0, 5.0727196, 4.972071 
8.429988e+2, 1.7571506e+2, -1135855.6, -1279623.4, 30898.947, 0.0015738385, -0.002683883, -1129496.0, 88497.09, 0.0, 5.070454, 4.972079 
8.427432e+2, 1.8067873e+2, -1094121.1, -1234793.4, 31005.496, -0.0024797944, -0.006239239, -1087590.5, 81757.95, 0.0, 5.06816, 4.9718633 
8.424875e+2, 1.8564261e+2, -1052982.1, -1191373.5, 30938.37, -0.005198812, -0.004459637, -1046380.5, 74321.52, 0.0, 5.0658746, 4.9711556 
8.4223324e+2, 1.9060352e+2, -1018223.1, -1160657.9, 33805.406, -0.004013612, 0.0020703115, -1010607.0, 61477.688, 0.0, 5.0635395, 4.9660115 
8.419805e+2, 1.9556151e+2, -975657.94, -1114874.8, 33932.305, -0.0020162354, 0.0019273713, -967827.75, 55668.555, 0.0, 5.061376, 4.966007 
8.4172785e+2, 2.0051932e+2, -933681.25, -1070297.1, 33946.707, -0.0000780299, 0.0014026884, -925711.06, 49198.613, 0.0, 5.059188, 4.9655876 
8.4147465e+2, 2.0547639e+2, -892131.5, -1026938.7, 32997.027, 0.00094284804, -0.0005033852, -884488.1, 41842.375, 0.0, 5.0570154, 4.964742 
8.4121966e+2, 2.104302e+2, -857581.1, -998504.44, 33100.07, 0.00045633645, 0.003405096, -850193.8, 27589.488, 0.0, 5.054772, 4.958741 
8.4096473e+2, 2.1538064e+2, -815317.75, -952771.75, 32850.543, -0.00013451006, 0.0002695461, -807870.25, 21399.049, 0.0, 5.0524244, 4.958736 
8.4070987e+2, 2.2033106e+2, -773265.56, -907382.06, 32390.879, -0.0008674766, -0.0029044382, -765852.5, 14902.647, 0.0, 5.050041, 4.958615 
8.404542e+2, 2.2528127e+2, -731751.8, -863414.7, 30992.49, -0.0014752408, -0.0055217934, -724821.2, 7420.747, 0.0, 5.047669, 4.9579945 
8.401951e+2, 2.3022845e+2, -696936.6, -835067.75, 28169.035, -0.0025328863, -0.0015163455, -691413.0, -7654.712, 0.0, 5.0452814, 4.952015 
8.3993435e+2, 2.351721e+2, -655744.8, -789749.0, 27590.2, -0.002767162, -0.0058541712, -650286.56, -14977.125, 0.0, 5.0424743, 4.952005 
8.3967364e+2, 2.4011578e+2, -615128.56, -745515.06, 26983.537, -0.0029764778, -0.008855167, -609764.94, -22904.426, 0.0, 5.039616, 4.9516234 
8.394125e+2, 2.450596e+2, -574816.2, -701833.25, 25289.867, -0.0028505337, -0.0060306913, -569966.06, -31553.346, 0.0, 5.0367002, 4.951063 
8.391471e+2, 2.500008e+2, -540216.6, -672128.75, 20360.814, -0.003408251, 0.0023212107, -537145.44, -47154.773, 0.0, 5.033738, 4.9457517 
8.3887833e+2, 2.5493908e+2, -500885.44, -627454.1, 19182.383, -0.0043403413, 0.0048986706, -498042.1, -56444.754, 0.0, 5.0301433, 4.945796 
8.386097e+2, 2.598773e+2, -461833.38, -583105.6, 18030.068, -0.0049910108, 0.0064059803, -459209.53, -66005.04, 0.0, 5.02649, 4.9457273 
8.383406e+2, 2.6481494e+2, -422339.38, -537461.2, 15806.061, -0.0041104998, 0.0012754155, -420208.66, -75394.336, 0.0, 5.022747, 4.946142 
8.380677e+2, 2.697513e+2, -388932.03, -506478.94, 10342.388, -0.002254244, 0.005422567, -388029.0, -91592.39, 0.0, 5.0188875, 4.9415483 
8.3779067e+2, 2.746853e+2, -350763.94, -460724.66, 8389.181, -0.00068532955, -0.002700913, -350127.6, -102045.55, 0.0, 5.014464, 4.9422646 
8.375137e+2, 2.7961946e+2, -313788.7, -417485.94, 7373.5884, 0.0003851949, -0.009612847, -313267.0, -113540.76, 0.0, 5.0100436, 4.942045 
8.372366e+2, 2.845546e+2, -275185.13, -370168.97, 5910.9, -0.000024673494, -0.008655155, -274818.7, -123455.49, 0.0, 5.0055604, 4.9432583 
8.369568e+2, 2.8948897e+2, -242080.23, -336140.03, 1785.0162, -0.0033875646, -0.0028651347, -242046.38, -139038.3, 0.0, 5.0009317, 4.939945 
8.3667344e+2, 2.9442352e+2, -204982.1, -288955.13, -198.83788, -0.005201634, 0.0003696162, -204981.61, -150329.69, 0.0, 4.995695, 4.9414315 
8.363904e+2, 2.9935795e+2, -170686.11, -247538.75, -926.797, -0.0068190526, 0.0031856091, -170674.92, -164378.67, 0.0, 4.9903765, 4.9408474 
8.3610934e+2, 3.0429196e+2, -136072.89, -204507.52, -591.2056, -0.00723552, 0.004941957, -136067.8, -136067.8, 0.0, 4.9848757, 4.94088 
8.358304e+2, 3.0924013e+2, -95478.25, -116073.19, -5285.97, 0.00019912345, 0.031611107, -94200.77, -94200.77, 0.0, 4.9793553, 4.966362 
8.355508e+2, 3.1419912e+2, -108266.086, -115519.516, -7622.28, 0.0039305896, -0.0013140393, -103451.695, -103451.695, 0.0, 4.973427, 4.9691844 
8.3527124e+2, 3.191593e+2, -124226.76, -122527.016, -7892.7266, 0.003919863, -0.022726571, -115438.54, -115438.54, 0.0, 4.9675956, 4.969217 
8.349933e+2, 3.2413346e+2, -86120.336, -7353.152, -8429.302, 0.0020387634, 0.025736079, -6461.1875, -6461.1875, 0.0, 4.9623165, 5.0133805 
8.5047287e+2, 1.3127619e+2, -1488023.3, -1656496.9, 16137.289, -0.005362971, 0.0025592998, -1486491.4, 167005.33, 0.0, 5.094877, 4.980781 
8.501942e+2, 1.3624828e+2, -1450440.6, -1613424.5, 17025.033, 0.0016490307, 0.00006295305, -1448681.3, 156089.14, 0.0, 5.0911975, 4.980789 
8.499156e+2, 1.4122035e+2, -1412784.0, -1570394.9, 18361.154, 0.006525282, -0.0015312734, -1410673.3, 145370.56, 0.0, 5.087549, 4.9807477 
8.4963745e+2, 1.4619271e+2, -1374428.6, -1526150.9, 22824.723, -0.005995884, -0.00078250456, -1371069.3, 136244.36, 0.0, 5.084096, 4.980928 
8.493696e+2, 1.5116502e+2, -1338094.9, -1485900.4, 31256.098, -0.008377411, 0.006580526, -1331756.9, 126827.3, 0.0, 5.0810065, 4.9793186 
8.491065e+2, 1.5613575e+2, -1296139.1, -1440529.8, 32094.844, -0.0031808217, 0.0049524624, -1289326.6, 120543.664, 0.0, 5.0787745, 4.979333 
8.4884346e+2, 1.6110617e+2, -1255147.4, -1397155.0, 32630.37, 0.001813631, 0.0027971922, -1248008.5, 113151.35, 0.0, 5.0765233, 4.9786677 
8.485799e+2, 1.6607559e+2, -1214908.8, -1354608.6, 33813.242, 0.0065446175, -0.00015424215, -1207154.9, 105305.12, 0.0, 5.0741544, 4.977741 
8.4832e+2, 1.7104249e+2, -1179645.0, -1321098.6, 39353.457, 0.0058517414, 0.0011712296, -1169433.8, 94351.0, 0.0, 5.0717726, 4.9735813 
8.480624e+2, 1.7600702e+2, -1136623.4, -1275094.1, 39929.45, 0.0013840034, -0.0018315725, -1125934.4, 89198.17, 0.0, 5.069841, 4.9736037 
8.478047e+2, 1.8097156e+2, -1093767.9, -1229464.1, 40291.867, -0.0027883584, -0.0040744487, -1082706.0, 83773.914, 0.0, 5.0679045, 4.973488 
8.4754694e+2, 1.8593611e+2, -1051637.4, -1185565.0, 40784.855, -0.0052307425, -0.0033899883, -1040194.9, 77631.41, 0.0, 5.065991, 4.972766 
8.472907e+2, 1.9089757e+2, -1016105.2, -1154724.4, 44144.07, -0.0035922066, 0.0016867538, -1003241.06, 65962.0, 0.0, 5.0640125, 4.967487 
8.470361e+2, 1.9585599e+2, -972463.9, -1108360.4, 44691.34, -0.0013199096, 0.00017837468, -959083.9, 61525.75, 0.0, 5.0622387, 4.9674973 
8.4678155e+2, 2.0081423e+2, -929428.56, -1063322.6, 45161.676, 0.00070706476, -0.001366237, -915619.9, 56398.445, 0.0, 5.060459, 4.967044 
8.4652627e+2, 2.057718e+2, -887025.06, -1019896.75, 44528.72, 0.0011446123, -0.0025011422, -873482.6, 49952.07, 0.0, 5.0586777, 4.9660397 
8.462692e+2, 2.1072596e+2, -851533.5, -991310.2, 45229.406, -0.00011311296, 0.0022151114, -838174.75, 36709.68, 0.0, 5.056843, 4.959903 
8.46012e+2, 2.1567664e+2, -808145.8, -944980.5, 45490.895, -0.0011976276, 0.00021825574, -794402.6, 31965.65, 0.0, 5.0549088, 4.9599133 
8.457549e+2, 2.2062725e+2, -764847.56, -898920.4, 45657.223, -0.0019725834, -0.0021771544, -750776.25, 27076.227, 0.0, 5.052981, 4.959816 
8.4549725e+2, 2.2557747e+2, -722155.56, -854573.06, 44535.96, -0.0016935653, -0.0052407146, -708570.56, 20768.77, 0.0, 5.0510983, 4.959099 
8.452358e+2, 2.3052444e+2, -686265.4, -826238.3, 42225.535, -0.002106745, -0.0020397748, -674513.8, 6344.1523, 0.0, 5.0492015, 4.952895 
8.4497255e+2, 2.354677e+2, -643786.0, -780265.3, 42156.31, -0.0017472706, -0.0068166805, -631814.7, 598.04596, 0.0, 5.046872, 4.952899 
8.447093e+2, 2.4041104e+2, -601805.9, -735368.94, 42062.84, -0.0014828007, -0.009887933, -589663.0, -5695.7656, 0.0, 5.0445256, 4.952521 
8.4444535e+2, 2.4535452e+2, -560187.4, -690896.9, 40826.1, -0.0017361683, -0.0070565697, -548483.6, -12961.145, 0.0, 5.0420766, 4.952021 
8.441768e+2, 2.5029516e+2, -524744.5, -661640.8, 36160.965, -0.0026047514, 0.0009374536, -515779.7, -28673.912, 0.0, 5.0395713, 4.946352 
8.439046e+2, 2.5523272e+2, -484338.22, -616457.0, 35504.285, -0.0034546917, 0.004024697, -475401.63, -36682.492, 0.0, 5.0363812, 4.9464016 
8.4363246e+2, 2.6017013e+2, -444293.97, -572035.2, 34884.477, -0.0038342325, 0.0060274014, -435388.34, -45054.73, 0.0, 5.033184, 4.9461613 
8.433597e+2, 2.6510692e+2, -403459.56, -525569.1, 32926.277, -0.0033018726, 0.001173251, -395147.03, -53193.977, 0.0, 5.029904, 4.946663 
8.4308255e+2, 2.7004215e+2, -369511.63, -495179.7, 27371.469, -0.0021264977, 0.005661642, -363808.72, -70221.91, 0.0, 5.026372, 4.941723 
8.428009e+2, 2.7497482e+2, -331320.16, -449394.84, 25434.451, -0.0009373623, -0.002643873, -326074.38, -80828.984, 0.0, 5.0219564, 4.94246 
8.425194e+2, 2.799077e+2, -294690.4, -406219.28, 24128.555, 0.00025368092, -0.009728611, -289694.2, -92791.695, 0.0, 5.017391, 4.9422956 
8.422376e+2, 2.8484178e+2, -256711.81, -359068.2, 22314.795, 0.00017552321, -0.008498683, -252058.5, -103508.91, 0.0, 5.012645, 4.943589 
8.419526e+2, 2.8977492e+2, -224939.06, -326127.5, 17086.756, -0.0024861877, -0.003726082, -222131.66, -121925.766, 0.0, 5.007571, 4.940115 
8.4166384e+2, 2.9470813e+2, -189480.4, -279802.44, 14521.506, -0.0032904192, -0.0016917872, -187203.13, -135341.02, 0.0, 5.0017443, 4.9415765 
8.413752e+2, 2.9964122e+2, -157085.52, -239666.02, 13122.147, -0.0037634587, 0.00048319536, -155050.55, -151531.67, 0.0, 4.9958076, 4.940821 
8.410884e+2, 3.0457398e+2, -123805.5, -198534.28, 13788.681, -0.006023976, 0.006297939, -121342.445, -121342.445, 0.0, 4.9900556, 4.9403076 
8.408036e+2, 3.0952072e+2, -83805.07, -110258.3, 7328.104, 0.0007238905, 0.033175945, -81910.69, -81910.69, 0.0, 4.9842415, 4.965922 
8.4051764e+2, 3.1447837e+2, -98452.44, -110483.85, 4247.7637, 0.0047417646, 0.00010028779, -97103.89, -97103.89, 0.0, 4.977589, 4.9687824 
8.402321e+2, 3.1943798e+2, -118869.77, -123257.98, 4651.4805, 0.0048075276, -0.008091896, -115920.89, -115920.89, 0.0, 4.9708614, 4.967126 
8.3994895e+2, 3.244046e+2, -79024.92, 5787.074, 2532.879, 0.013682501, -0.079742745, 5862.6504, 5862.6504, 0.0, 4.9636517, 5.0170827 
8.555599e+2, 1.3156304e+2, -1485480.9, -1652105.0, 13321.759, -0.0063101454, 0.0053405412, -1484422.5, 166264.73, 0.0, 5.094941, 4.9822807 
8.552776e+2, 1.3653664e+2, -1447905.3, -1609052.9, 14244.771, 0.0012456474, 0.0030223378, -1446655.9, 155290.31, 0.0, 5.091264, 4.982285 
8.5499537e+2, 1.4151017e+2, -1410215.6, -1565988.9, 15741.4, 0.0056013814, 0.0012388623, -1408640.8, 144563.94, 0.0, 5.087623, 4.9822555 
8.547139e+2, 1.4648388e+2, -1371858.5, -1521661.5, 20598.709, -0.007536808, 0.00017790099, -1369077.6, 135382.9, 0.0, 5.0841684, 4.98246 
8.544436e+2, 1.514574e+2, -1336055.5, -1482106.4, 29531.35, -0.009060152, 0.005586992, -1330310.4, 125408.04, 0.0, 5.0810337, 4.9806194 
8.5417837e+2, 1.5642926e+2, -1294110.5, -1436747.5, 30375.45, -0.0033022808, 0.002293848, -1287911.4, 119081.07, 0.0, 5.078801, 4.9806337 
8.53913e+2, 1.6140078e+2, -1253483.8, -1394114.0, 30750.695, 0.002094198, -0.0005337162, -1247053.6, 111217.1, 0.0, 5.0765452, 4.979723 
8.536472e+2, 1.663714e+2, -1213304.8, -1351619.4, 32121.23, 0.0068367845, -0.0017357412, -1206209.1, 103350.89, 0.0, 5.0741677, 4.9787827 
8.5338515e+2, 1.7133941e+2, -1178344.4, -1318562.1, 37849.58, 0.005765206, 0.0010902606, -1168779.9, 92094.95, 0.0, 5.0717664, 4.974468 
8.531256e+2, 1.7630498e+2, -1135329.1, -1272566.8, 38429.3, 0.0009565922, -0.00010728629, -1125300.9, 86912.36, 0.0, 5.0698347, 4.97449 
8.52866e+2, 1.8127054e+2, -1092382.8, -1226735.3, 38821.074, -0.0035056018, -0.0012791386, -1081972.1, 81578.93, 0.0, 5.067899, 4.974445 
8.526062e+2, 1.8623592e+2, -1050265.5, -1182828.8, 39254.793, -0.0056017465, -0.0018541303, -1039513.44, 75375.37, 0.0, 5.065981, 4.973729 
8.5234827e+2, 1.9119811e+2, -1014968.1, -1152403.1, 42763.895, -0.0033463957, 0.00178162, -1002748.4, 63509.332, 0.0, 5.0639944, 4.968306 
8.5209197e+2, 1.961572e+2, -971331.0, -1106045.9, 43315.613, -0.00071636826, -0.0011246941, -958605.56, 59051.52, 0.0, 5.0622215, 4.9683166 
8.5183555e+2, 2.0111611e+2, -928519.9, -1061475.3, 43710.04, 0.0012821755, -0.0034451783, -915437.25, 53621.57, 0.0, 5.060439, 4.9677052 
8.5157835e+2, 2.0607442e+2, -886093.06, -1017979.94, 43110.805, 0.000982654, -0.003662129, -873251.5, 47216.71, 0.0, 5.0586543, 4.966729 
8.513193e+2, 2.1102922e+2, -850847.5, -990005.2, 43740.55, -0.0010528992, 0.0018562808, -838240.9, 33671.074, 0.0, 5.0568295, 4.9603806 
8.5106015e+2, 2.1598049e+2, -807457.9, -943682.4, 44008.813, -0.0027570724, 0.0010447167, -794477.25, 28913.19, 0.0, 5.0548973, 4.9603896 
8.5080117e+2, 2.2093159e+2, -764237.44, -897815.8, 44051.79, -0.003808343, -0.0006701145, -751018.2, 23851.678, 0.0, 5.052974, 4.960224 
8.505416e+2, 2.2588214e+2, -721574.6, -853466.4, 43119.656, -0.002973562, -0.004392121, -708728.6, 17624.963, 0.0, 5.051082, 4.959513 
8.502781e+2, 2.3082927e+2, -686000.6, -826028.06, 40466.004, -0.0021202022, -0.0017309961, -675147.7, 2723.1248, 0.0, 5.0492053, 4.952998 
8.500126e+2, 2.3577261e+2, -643510.5, -780052.1, 40406.137, -0.0008137503, -0.0066583343, -632449.4, -3024.2788, 0.0, 5.04688, 4.9530025 
8.49747e+2, 2.4071604e+2, -601434.7, -734953.8, 40212.848, -0.000048644037, -0.009782667, -590258.94, -9280.036, 0.0, 5.044534, 4.9526944 
8.494805e+2, 2.4565959e+2, -559999.44, -690862.56, 38876.445, -0.00068831595, -0.007179366, -549321.44, -16788.504, 0.0, 5.0420766, 4.9520674 
8.492091e+2, 2.5060004e+2, -524818.2, -662538.44, 33752.895, -0.0017484133, 0.00019063381, -516990.8, -32873.28, 0.0, 5.039605, 4.946077 
8.489336e+2, 2.555373e+2, -484413.47, -617362.7, 33110.37, -0.002745711, 0.0030988997, -476623.88, -40890.348, 0.0, 5.036416, 4.946122 
8.486582e+2, 2.6047432e+2, -444406.9, -573044.94, 32412.594, -0.0034970462, 0.004683554, -436701.53, -49350.13, 0.0, 5.0332217, 4.9458437 
8.48382e+2, 2.6541057e+2, -403924.22, -527374.6, 30280.008, -0.0034813369, 0.0001499867, -396897.1, -57921.047, 0.0, 5.0299354, 4.9460707 
8.4810084e+2, 2.7034515e+2, -370232.34, -498024.6, 24149.424, -0.0028789185, 0.0056849555, -365821.03, -75203.86, 0.0, 5.026451, 4.9407673 
8.478148e+2, 2.7527708e+2, -331554.2, -451791.16, 22336.75, -0.0024050702, -0.0015511175, -327538.75, -85254.586, 0.0, 5.0221667, 4.9416027 
8.475289e+2, 2.8020915e+2, -294108.3, -407732.84, 21203.332, -0.0018715218, -0.0078552095, -290280.53, -96330.97, 0.0, 5.0178022, 4.941656 
8.472424e+2, 2.8514248e+2, -255823.98, -360508.66, 19311.22, -0.0011535647, -0.0068776445, -252375.25, -106771.484, 0.0, 5.0131836, 4.9429193 
8.469523e+2, 2.9007468e+2, -223934.9, -328478.28, 13918.806, -0.0026518572, -0.0022814127, -222113.5, -124844.54, 0.0, 5.0083075, 4.9390564 
8.466579e+2, 2.9500675e+2, -187823.97, -281634.88, 11580.874, -0.0022422392, -0.00039702558, -186415.47, -137479.78, 0.0, 5.0026717, 4.940617 
8.4636366e+2, 2.9993865e+2, -154908.27, -241389.83, 10829.956, -0.0018678079, 0.0009112914, -153572.67, -152969.25, 0.0, 4.9969535, 4.9398 
8.4607136e+2, 3.0486992e+2, -121576.88, -200557.55, 11417.984, -0.0040294025, 0.0041276594, -119959.34, -119959.34, 0.0, 4.9912806, 4.9391556 
8.4578043e+2, 3.0981496e+2, -81476.01, -113022.125, 4623.7354, 0.0003628501, 0.032854244, -80812.27, -80812.27, 0.0, 4.9856033, 4.9644675 
8.4548765e+2, 3.147709e+2, -95389.48, -113145.81, 1477.473, 0.0019717421, 0.0025146208, -95267.375, -95267.375, 0.0, 4.979238, 4.9672503 
8.4519553e+2, 3.197285e+2, -113249.19, -121030.41, 1753.3177, 0.002852966, -0.011802621, -112872.36, -112872.36, 0.0, 4.972704, 4.9672837 
8.4490573e+2, 3.2470083e+2, -72172.71, 8283.897, -2697.4785, 0.010471219, -0.0055128937, 8374.234, 8374.234, 0.0, 4.965826, 5.0174403 
8.606468e+2, 1.3185011e+2, -1483944.4, -1648241.6, 11231.836, -0.0058686356, 0.007610829, -1483180.1, 164694.97, 0.0, 5.0946746, 4.9837627 
8.6036086e+2, 1.3682516e+2, -1445673.6, -1604845.1, 12029.659, 0.0013856766, 0.0055089267, -1444769.5, 154350.23, 0.0, 5.0912375, 4.983769 
8.60075e+2, 1.4180015e+2, -1407904.0, -1561751.8, 13498.374, 0.0054486766, 0.00355769, -1406728.8, 143635.34, 0.0, 5.087622, 4.9837427 
8.597903e+2, 1.4677516e+2, -1369499.8, -1517408.9, 18636.984, -0.008652799, 0.0009967407, -1367187.6, 134418.7, 0.0, 5.0842013, 4.983931 
8.595175e+2, 1.5174985e+2, -1334019.8, -1478357.4, 27883.205, -0.009664591, 0.004539196, -1328820.5, 124031.3, 0.0, 5.0810714, 4.9819 
8.5925007e+2, 1.5672283e+2, -1292147.5, -1433030.8, 28642.203, -0.0033988224, -0.00041546457, -1286547.0, 117567.1, 0.0, 5.0788145, 4.9819183 
8.589825e+2, 1.6169547e+2, -1252041.4, -1391316.0, 28820.182, 0.0023677188, -0.0035264378, -1246313.3, 109068.03, 0.0, 5.07652, 4.980718 
8.587143e+2, 1.6666727e+2, -1211750.5, -1348613.3, 30342.574, 0.0071190675, -0.0030085898, -1205325.1, 101334.53, 0.0, 5.074155, 4.979843 
8.584502e+2, 1.7163637e+2, -1177114.9, -1316052.6, 36336.91, 0.00566822, 0.0012487107, -1168185.4, 89779.164, 0.0, 5.0717344, 4.9753585 
8.5818857e+2, 1.7660299e+2, -1134093.1, -1270063.0, 36947.234, 0.0005221441, 0.001776887, -1124702.0, 84591.53, 0.0, 5.0698085, 4.975378 
8.579271e+2, 1.8156955e+2, -1090994.4, -1223932.9, 37314.914, -0.0041372357, 0.0014455592, -1081236.6, 79385.266, 0.0, 5.0678797, 4.9754343 
8.576654e+2, 1.8653573e+2, -1048963.0, -1180211.3, 37774.76, -0.005867423, -0.00043732414, -1038867.56, 73083.414, 0.0, 5.065966, 4.974654 
8.574058e+2, 1.9149867e+2, -1013831.75, -1150082.4, 41385.34, -0.0029784967, 0.0017384498, -1002246.3, 61065.684, 0.0, 5.063977, 4.9691253 
8.5714763e+2, 1.9645843e+2, -970198.7, -1103731.9, 41941.508, 0.000008301644, -0.0026258442, -958118.2, 56585.992, 0.0, 5.0622044, 4.9691353 
8.5688955e+2, 2.0141804e+2, -927579.0, -1059552.6, 42187.527, 0.0019017665, -0.005464414, -915245.7, 50853.25, 0.0, 5.060418, 4.9683933 
8.566304e+2, 2.0637709e+2, -885255.25, -1016267.2, 41766.637, 0.00067341374, -0.0045854067, -873072.8, 44428.523, 0.0, 5.0586324, 4.967347 
8.563693e+2, 2.1133251e+2, -850161.94, -988700.2, 42255.695, -0.0020684232, 0.001658384, -838290.7, 30648.51, 0.0, 5.0568166, 4.9608574 
8.561082e+2, 2.1628435e+2, -806770.4, -942384.2, 42530.727, -0.004363949, 0.0019358764, -794535.75, 25876.604, 0.0, 5.054887, 4.960865 
8.558473e+2, 2.2123596e+2, -763558.44, -896544.9, 42578.336, -0.0056130555, 0.0007154722, -751094.3, 20792.854, 0.0, 5.0529666, 4.96069 
8.5558575e+2, 2.2618684e+2, -721135.2, -852681.5, 41566.02, -0.0040445146, -0.0033472558, -709101.9, 14265.798, 0.0, 5.0510674, 4.9598145 
8.553203e+2, 2.3113412e+2, -685735.94, -825816.94, 38710.234, -0.0019407829, -0.00127596, -675750.5, -866.9073, 0.0, 5.0492105, 4.9530997 
8.550525e+2, 2.3607752e+2, -643234.94, -779838.1, 38659.734, 0.00030353756, -0.0065152254, -633052.9, -6615.527, 0.0, 5.0468884, 4.953104 
8.5478467e+2, 2.4102102e+2, -601206.56, -734845.75, 38472.76, 0.0014792763, -0.009766183, -590922.25, -12931.769, 0.0, 5.044542, 4.9527607 
8.5451555e+2, 2.4596465e+2, -559767.3, -690744.5, 36786.37, 0.00038100852, -0.007090768, -550142.75, -20599.336, 0.0, 5.0420785, 4.952141 
8.542411e+2, 2.5090492e+2, -524890.5, -663436.2, 31345.934, -0.00090927177, -0.000414552, -518128.5, -36999.113, 0.0, 5.039641, 4.9457994 
8.539625e+2, 2.5584182e+2, -484487.4, -618268.9, 30717.053, -0.0020982234, 0.0021246057, -477771.7, -45023.586, 0.0, 5.036453, 4.945841 
8.536838e+2, 2.6077852e+2, -444756.4, -574591.25, 30042.918, -0.0032720566, 0.0033336438, -438141.7, -53772.227, 0.0, 5.033261, 4.9453363 
8.5340416e+2, 2.6571426e+2, -404211.5, -528797.4, 27493.553, -0.0036074375, -0.0007210385, -398414.03, -62414.367, 0.0, 5.0299687, 4.945613 
8.5311896e+2, 2.7064815e+2, -371022.16, -500987.16, 20919.578, -0.0035493774, 0.0059875534, -367737.88, -80089.88, 0.0, 5.0265236, 4.9397736 
8.5282856e+2, 2.7557927e+2, -332164.5, -454376.3, 19089.031, -0.0038637116, -0.00043595617, -329252.28, -89928.81, 0.0, 5.0222416, 4.9407396 
8.5253817e+2, 2.8051063e+2, -294714.0, -410277.88, 17878.883, -0.003943431, -0.00586471, -292011.2, -101014.36, 0.0, 5.0178714, 4.940808 
8.522471e+2, 2.8544316e+2, -256074.23, -362188.34, 15479.942, -0.00234466, -0.00529873, -253862.14, -111203.875, 0.0, 5.0132346, 4.9423885 
8.5195184e+2, 2.9037443e+2, -224758.31, -331893.03, 9695.394, -0.002786304, -0.0009416616, -223887.97, -129556.08, 0.0, 5.008401, 4.9379163 
8.516518e+2, 2.9530543e+2, -188439.52, -284661.13, 7294.421, -0.0014463107, 0.00050080346, -187889.69, -141881.16, 0.0, 5.0027742, 4.9396124 
8.513519e+2, 3.0023623e+2, -155858.97, -245247.47, 6329.8843, -0.0007305914, 0.0012839399, -155412.95, -155412.95, 0.0, 4.9970593, 4.938501 
8.510542e+2, 3.0516604e+2, -122541.195, -204463.47, 7521.7173, -0.0025896628, 0.0024490983, -121856.31, -121856.31, 0.0, 4.991396, 4.9378314 
8.5075724e+2, 3.1010944e+2, -82395.25, -117458.24, -207.78925, 0.00008466639, 0.030981239, -82394.02, -82394.02, 0.0, 4.985779, 4.962941 
8.504577e+2, 3.1506366e+2, -96457.56, -117977.25, -3280.845, -0.0015341496, 0.0017226228, -95968.49, -95968.49, 0.0, 4.9794154, 4.965588 
8.501589e+2, 3.2001927e+2, -111378.16, -119070.68, -3811.59, -0.0019015272, -0.017862802, -109809.445, -109809.445, 0.0, 4.9728885, 4.9680715 
8.4986305e+2, 3.2499596e+2, -74721.914, 1178.1091, -5998.6885, 0.0023508172, 0.0613458, 1649.2849, 1649.2849, 0.0, 4.9657903, 5.0150886 
8.6573255e+2, 1.3213998e+2, -1488680.9, -1646961.6, 12539.877, -0.00362094, 0.0074479226, -1487693.6, 157339.73, 0.0, 5.092252, 4.985356 
8.654432e+2, 1.3711636e+2, -1449600.3, -1603140.8, 13277.165, 0.00359737, 0.0059186285, -1448460.6, 147804.64, 0.0, 5.0890937, 4.9853687 
8.6515397e+2, 1.4209259e+2, -1410724.8, -1559687.6, 14968.314, 0.0071276044, 0.0038153199, -1409235.6, 138261.89, 0.0, 5.0859113, 4.985251 
8.648662e+2, 1.4706874e+2, -1371688.9, -1515141.1, 20355.146, -0.008490524, 0.0011622949, -1368856.5, 129872.555, 0.0, 5.082749, 4.985381 
8.6459094e+2, 1.5204442e+2, -1336070.9, -1476328.3, 30023.154, -0.009807902, 0.0042043687, -1329914.5, 120050.805, 0.0, 5.079783, 4.983174 
8.6432135e+2, 1.5701832e+2, -1293427.4, -1430621.8, 30603.623, -0.0034907006, -0.0010177776, -1286910.3, 114308.26, 0.0, 5.077793, 4.9831953 
8.640516e+2, 1.6199197e+2, -1252513.5, -1388387.3, 30742.486, 0.0026630426, -0.0040193824, -1245881.5, 106594.64, 0.0, 5.075757, 4.982048 
8.6378115e+2, 1.6696484e+2, -1211725.0, -1345522.9, 32333.277, 0.007443383, -0.0029990776, -1204321.1, 99422.625, 0.0, 5.073582, 4.981137 
8.63515e+2, 1.7193493e+2, -1176720.9, -1312967.8, 38663.824, 0.0055844816, 0.0015665141, -1166513.6, 88524.99, 0.0, 5.0713596, 4.9765453 
8.632515e+2, 1.7690253e+2, -1133234.6, -1266786.4, 39309.19, 0.00019618224, 0.0028181775, -1122523.6, 83834.555, 0.0, 5.069605, 4.976553 
8.629881e+2, 1.8186994e+2, -1089852.0, -1220760.0, 39540.59, -0.0044013606, 0.0026161498, -1078835.9, 78842.02, 0.0, 5.0678263, 4.976507 
8.627246e+2, 1.8683681e+2, -1047414.8, -1176898.8, 40080.285, -0.0060245832, 0.00021941439, -1036012.5, 72987.805, 0.0, 5.066075, 4.9756994 
8.624631e+2, 1.9180037e+2, -1011954.1, -1146891.0, 43524.52, -0.0027435157, 0.0016439233, -999133.25, 61221.977, 0.0, 5.0642676, 4.9700394 
8.622034e+2, 1.9676071e+2, -967895.06, -1100340.6, 43881.938, 0.0006409099, -0.0035575817, -954675.5, 57066.133, 0.0, 5.062646, 4.9700522 
8.619435e+2, 2.0172092e+2, -925129.6, -1056271.9, 44120.086, 0.002711323, -0.006619089, -911668.1, 51462.39, 0.0, 5.0609508, 4.969235 
8.616824e+2, 2.0668058e+2, -882598.9, -1013020.56, 43310.95, 0.0012078683, -0.005260633, -869526.3, 45000.47, 0.0, 5.0592537, 4.9681444 
8.614195e+2, 2.1163653e+2, -847418.3, -985768.06, 43875.703, -0.0022586402, 0.001153835, -834677.1, 31282.438, 0.0, 5.0575366, 4.9615064 
8.611564e+2, 2.1658884e+2, -803907.25, -939430.75, 44060.504, -0.0049226843, 0.0021394596, -790842.1, 26585.96, 0.0, 5.055655, 4.9615045 
8.608935e+2, 2.2154087e+2, -760877.1, -894059.6, 44070.707, -0.0061753383, 0.0014323586, -747614.6, 21284.18, 0.0, 5.0537457, 4.961169 
8.6063e+2, 2.2649203e+2, -718390.56, -850165.3, 42639.547, -0.004337342, -0.0024480154, -705796.9, 14579.978, 0.0, 5.051853, 4.960311 
8.603624e+2, 2.3143941e+2, -683226.4, -824113.9, 39497.68, -0.0015087972, -0.0006504624, -672908.8, -1016.81464, 0.0, 5.0500326, 4.9533067 
8.600924e+2, 2.3638281e+2, -640793.9, -778191.75, 39259.242, 0.0014987385, -0.0061337175, -630367.4, -6921.401, 0.0, 5.047686, 4.953306 
8.598222e+2, 2.4132635e+2, -598958.75, -733422.94, 38734.758, 0.0031468924, -0.0094521, -588598.75, -13599.805, 0.0, 5.0452914, 4.952912 
8.595505e+2, 2.4626993e+2, -557624.25, -689502.44, 36760.26, 0.0016159689, -0.006693122, -548069.75, -21518.113, 0.0, 5.042806, 4.9522476 
8.592731e+2, 2.512099e+2, -523128.9, -663212.75, 30607.354, 0.000034498968, -0.0008976292, -516733.38, -38593.4, 0.0, 5.0403523, 4.945581 
8.5899115e+2, 2.5614643e+2, -483045.25, -618240.0, 29685.383, -0.0013825791, 0.0010369396, -476814.25, -47052.164, 0.0, 5.037049, 4.945611 
8.587093e+2, 2.6108265e+2, -444011.13, -575358.06, 28706.03, -0.0030236924, 0.0019430901, -438011.47, -56623.914, 0.0, 5.033689, 4.9449077 
8.5842615e+2, 2.6601788e+2, -403978.94, -530057.75, 25457.781, -0.0035206839, -0.0014020843, -399032.56, -66009.04, 0.0, 5.0302434, 4.945088 
8.5813695e+2, 2.7095112e+2, -371580.7, -503724.97, 18150.32, -0.0040917424, 0.006500402, -369133.03, -84453.7, 0.0, 5.026684, 4.9388075 
8.578421e+2, 2.7588144e+2, -332801.4, -456902.8, 16075.453, -0.0052730013, 0.00065973133, -330752.9, -94389.555, 0.0, 5.022311, 4.939892 
8.575473e+2, 2.80812e+2, -295206.88, -412344.4, 14466.563, -0.0057668705, -0.004071068, -293446.7, -105401.945, 0.0, 5.0179086, 4.9401383 
8.572516e+2, 2.8574377e+2, -256881.1, -364758.06, 11977.686, -0.0034383377, -0.0032786615, -255567.2, -115854.19, 0.0, 5.013228, 4.9415584 
8.569511e+2, 2.906741e+2, -225808.05, -335184.88, 5700.056, -0.002799301, 0.00017899656, -225511.8, -134116.25, 0.0, 5.00839, 4.936855 
8.566455e+2, 2.95604e+2, -189235.44, -287682.06, 3268.1948, -0.0005799053, 0.0006311974, -189127.06, -146044.84, 0.0, 5.0028167, 4.9386244 
8.5634e+2, 3.0053362e+2, -156873.8, -248848.36, 2370.996, 0.0002547185, 0.00091408094, -156812.7, -156812.7, 0.0, 4.99711, 4.9373055 
8.560368e+2, 3.05462e+2, -124055.414, -209230.94, 3651.0706, -0.0009902013, 0.0012561216, -123899.195, -123899.195, 0.0, 4.991453, 4.936209 
8.557339e+2, 3.1040367e+2, -83685.6, -122218.6, -4697.891, 0.0002808065, 0.026651029, -83121.12, -83121.12, 0.0, 4.9858775, 4.9613113 
8.554277e+2, 3.1535617e+2, -97968.75, -122942.016, -7824.4526, -0.0041951174, -0.0047861934, -95719.78, -95719.78, 0.0, 4.9794393, 4.963929 
8.551219e+2, 3.203111e+2, -113258.734, -124659.87, -8923.961, -0.0075179655, -0.013817223, -108369.984, -108369.984, 0.0, 4.9728837, 4.966192 
8.5482085e+2, 3.252846e+2, -75020.305, 1002.24524, -8817.452, -0.0005907195, 0.033127695, 2011.5353, 2011.5353, 0.0, 4.9654727, 5.0152316 
8.708139e+2, 1.3243763e+2, -1499534.9, -1646765.4, 16206.787, -0.0020185777, 0.006345718, -1497772.0, 144343.23, 0.0, 5.0876412, 4.987478 
8.7052166e+2, 1.3741566e+2, -1459537.3, -1602384.0, 17321.582, 0.0061504557, 0.005430846, -1457466.9, 135864.36, 0.0, 5.084801, 4.98751 
8.702294e+2, 1.4239344e+2, -1419876.0, -1558747.5, 19518.914, 0.008506003, 0.0035366397, -1417184.8, 127363.805, 0.0, 5.0819616, 4.987276 
8.6993897e+2, 1.47371e+2, -1379711.5, -1513600.6, 25414.645, -0.008277356, 0.00089602167, -1375049.6, 120717.28, 0.0, 5.079214, 4.987396 
8.696616e+2, 1.5234792e+2, -1343414.8, -1474743.8, 35921.72, -0.009696885, 0.0035114288, -1334231.4, 112760.0, 0.0, 5.0766253, 4.984995 
8.6939025e+2, 1.5732305e+2, -1299758.8, -1428465.8, 36813.965, -0.0035318108, -0.0015325393, -1289972.9, 108260.516, 0.0, 5.074989, 4.9850307 
8.691186e+2, 1.6229796e+2, -1257650.4, -1385341.1, 37127.066, 0.0027600895, -0.004217954, -1247640.1, 101838.67, 0.0, 5.0733223, 4.983998 
8.688463e+2, 1.672722e+2, -1215611.3, -1341530.4, 39155.594, 0.007629309, -0.0030026194, -1204428.6, 96303.61, 0.0, 5.0715384, 4.9832106 
8.685785e+2, 1.7224362e+2, -1179993.3, -1308784.5, 46090.65, 0.005518986, 0.0016535983, -1165198.4, 86815.01, 0.0, 5.0696087, 4.9785237 
8.683135e+2, 1.772125e+2, -1135589.6, -1262082.4, 47120.37, -0.00019275898, 0.0031022236, -1119966.3, 83353.27, 0.0, 5.068182, 4.978547 
8.680484e+2, 1.8218105e+2, -1091513.6, -1216190.4, 47809.05, -0.004972115, 0.0025459735, -1075291.4, 79336.45, 0.0, 5.066772, 4.978275 
8.6778337e+2, 1.8714891e+2, -1047990.8, -1171623.5, 48672.977, -0.0062389476, 0.000043598087, -1031128.56, 74812.58, 0.0, 5.0653844, 4.977533 
8.675206e+2, 1.921134e+2, -1011803.9, -1141435.6, 52792.293, -0.0030330918, 0.0010881224, -993024.75, 64262.79, 0.0, 5.063907, 4.97177 
8.6725944e+2, 1.9707464e+2, -966814.44, -1094338.8, 53636.19, 0.0007698131, -0.004067937, -947255.2, 61410.523, 0.0, 5.0626254, 4.9718056 
8.6699814e+2, 2.0203574e+2, -922967.8, -1049585.3, 54322.49, 0.003474422, -0.0071167103, -902856.4, 57189.69, 0.0, 5.0613103, 4.9710402 
8.667356e+2, 2.0699629e+2, -879233.9, -1005459.94, 54028.344, 0.002580707, -0.006310377, -859266.7, 52166.426, 0.0, 5.0600085, 4.970065 
8.664711e+2, 2.1195303e+2, -843192.8, -978034.25, 55279.18, -0.00074978545, -0.00076044933, -823427.8, 39429.914, 0.0, 5.0586863, 4.963294 
8.662064e+2, 2.1690607e+2, -798535.9, -930998.2, 56147.824, -0.00333142, -0.0001476135, -777938.8, 36379.88, 0.0, 5.0572295, 4.96333 
8.659419e+2, 2.218588e+2, -754358.94, -885124.7, 56689.766, -0.0044271895, -0.0007999099, -733204.8, 32577.479, 0.0, 5.0557833, 4.9629498 
8.656765e+2, 2.2681065e+2, -710774.8, -840890.44, 56233.258, -0.0033745202, -0.0032966484, -689840.2, 27413.73, 0.0, 5.054363, 4.9619904 
8.65407e+2, 2.3175856e+2, -674370.44, -814483.6, 53642.19, -0.0013213746, -0.00050705165, -656192.06, 12572.29, 0.0, 5.053065, 4.9548526 
8.651349e+2, 2.3670241e+2, -630486.5, -767694.44, 54205.7, 0.0014483767, -0.004467976, -611656.1, 8658.213, 0.0, 5.051257, 4.9549003 
8.648626e+2, 2.416463e+2, -587032.6, -721851.6, 54376.035, 0.0034947041, -0.0071316743, -567835.0, 4028.9878, 0.0, 5.049438, 4.9546094 
8.645887e+2, 2.4658999e+2, -544190.0, -677622.0, 53272.824, 0.0029114129, -0.0057794503, -525530.25, -2114.6528, 0.0, 5.0476317, 4.9537444 
8.6430866e+2, 2.5152966e+2, -507902.2, -651020.56, 47565.305, 0.0012820371, -0.0017894084, -493535.97, -18529.596, 0.0, 5.045935, 4.946837 
8.6402375e+2, 2.5646573e+2, -465928.8, -605041.56, 47488.684, -0.00008185385, -0.0015352071, -451263.66, -24631.01, 0.0, 5.043341, 4.9469 
8.637389e+2, 2.6140156e+2, -424855.38, -561061.4, 47390.277, -0.0013049697, -0.0013292904, -409989.38, -31727.291, 0.0, 5.0407395, 4.9462404 
8.634524e+2, 2.6633647e+2, -383204.13, -515471.28, 44847.37, -0.0019382056, -0.0030794828, -369431.88, -39530.434, 0.0, 5.038014, 4.946198 
8.631592e+2, 2.7126896e+2, -349844.78, -489571.38, 37878.32, -0.0028577086, 0.0061841896, -340237.03, -58672.6, 0.0, 5.034952, 4.9395413 
8.6285985e+2, 2.761984e+2, -310720.75, -442475.75, 36221.96, -0.003613361, 0.0020846159, -301419.3, -68162.0, 0.0, 5.0306997, 4.940684 
8.625606e+2, 2.81128e+2, -273612.16, -398586.8, 34549.03, -0.0030474328, -0.0012980204, -264697.1, -79748.62, 0.0, 5.0262203, 4.940738 
8.622598e+2, 2.8605855e+2, -235373.55, -350664.66, 31281.17, -0.000992986, -0.0011880343, -227433.11, -90804.22, 0.0, 5.021417, 4.9423523 
8.6195374e+2, 2.9098746e+2, -205680.06, -322622.2, 24184.068, -0.00014645429, 0.0005982643, -200876.05, -112551.15, 0.0, 5.016212, 4.9372687 
8.616421e+2, 2.95916e+2, -170669.31, -275868.75, 21211.922, 0.002413807, 0.00064136105, -166553.28, -126528.21, 0.0, 5.0100727, 4.939038 
8.613307e+2, 3.0084425e+2, -140386.7, -238999.38, 20473.76, 0.0036575925, 0.0020686458, -136304.94, -136304.94, 0.0, 5.0038047, 4.937272 
8.610218e+2, 3.0577096e+2, -108927.21, -199078.94, 21295.158, 0.0021695679, 0.0008687265, -104150.12, -104150.12, 0.0, 4.9974694, 4.936582 
8.607126e+2, 3.1071082e+2, -71159.19, -114626.086, 12131.366, 0.0023130057, 0.022833994, -68002.62, -68002.62, 0.0, 4.991186, 4.9611263 
8.6039954e+2, 3.1566125e+2, -87926.6, -116598.4, 8553.041, 0.000009837905, -0.012291139, -85569.01, -85569.01, 0.0, 4.9838324, 4.9636927 
8.6008686e+2, 3.2061565e+2, -106117.375, -121556.04, 7089.6226, -0.0025571776, -0.0020843144, -103355.734, -103355.734, 0.0, 4.9765635, 4.965093 
8.597799e+2, 3.2558608e+2, -67910.99, 14683.221, 5967.18, 0.011393101, -0.030736264, 15112.1045, 15112.1045, 0.0, 4.9670653, 5.0188465 
8.7589294e+2, 1.327392e+2, -1496666.9, -1641610.4, 13963.056, -0.0022089651, 0.0057314574, -1495334.0, 143824.81, 0.0, 5.087702, 4.98923 
8.75598e+2, 1.3771902e+2, -1456676.3, -1597244.8, 15115.497, 0.0074492358, 0.005483752, -1455069.3, 135287.9, 0.0, 5.084863, 4.989261 
8.75303e+2, 1.426985e+2, -1417257.9, -1554094.8, 17616.375, 0.009052215, 0.003813053, -1415026.4, 126531.96, 0.0, 5.0820246, 4.9888663 
8.750101e+2, 1.476776e+2, -1377145.1, -1508997.9, 23557.84, -0.008495978, 0.0011678658, -1373062.5, 119699.625, 0.0, 5.079277, 4.9889665 
8.747308e+2, 1.5265591e+2, -1341396.1, -1470854.6, 34595.22, -0.009953195, 0.0032513465, -1332731.1, 111242.414, 0.0, 5.0766397, 4.9863305 
8.7445784e+2, 1.5763237e+2, -1297764.0, -1424615.9, 35489.836, -0.0040217806, -0.001704701, -1288510.0, 106693.28, 0.0, 5.0750027, 4.986357 
8.741844e+2, 1.626087e+2, -1255486.8, -1381127.6, 35580.766, 0.0023703696, -0.003937554, -1246110.3, 100324.49, 0.0, 5.0733347, 4.985451 
8.739105e+2, 1.6758445e+2, -1213396.0, -1337065.6, 37947.38, 0.0072031845, -0.002496861, -1202680.5, 94992.32, 0.0, 5.0715346, 4.984756 
8.7364113e+2, 1.7255735e+2, -1177981.6, -1304597.6, 44919.395, 0.0050212196, 0.002235424, -1163664.5, 85274.125, 0.0, 5.0695887, 4.9799733 
8.7337464e+2, 1.7752768e+2, -1133594.5, -1257919.4, 45953.29, -0.00086951384, 0.0038524366, -1118453.3, 81776.67, 0.0, 5.068162, 4.979993 
8.7310815e+2, 1.8249752e+2, -1089837.1, -1212700.1, 46664.26, -0.0057459967, 0.0029930552, -1074123.4, 77401.86, 0.0, 5.0667534, 4.9794936 
8.728418e+2, 1.8746655e+2, -1046321.2, -1168154.8, 47515.305, -0.0066987723, 0.00046937517, -1029981.5, 72846.18, 0.0, 5.0653687, 4.978746 
8.725776e+2, 1.9243221e+2, -1010195.5, -1138041.9, 51713.707, -0.003502302, 0.00110205, -991896.56, 62266.734, 0.0, 5.063886, 4.972958 
8.723153e+2, 1.9739462e+2, -965215.6, -1090955.9, 52562.363, 0.00065610907, -0.0039428985, -946137.9, 59392.625, 0.0, 5.0626044, 4.972994 
8.7205267e+2, 2.0235693e+2, -921312.4, -1046057.9, 52984.625, 0.0037255974, -0.0069272737, -901845.5, 55053.79, 0.0, 5.061284, 4.972283 
8.7178874e+2, 2.0731868e+2, -877545.25, -1001759.06, 53067.15, 0.0031114838, -0.0066172113, -857961.4, 50312.72, 0.0, 5.0599732, 4.971373 
8.71523e+2, 2.1227658e+2, -841608.56, -974606.56, 54069.086, 0.0004921635, -0.0018483779, -822401.2, 37285.44, 0.0, 5.058656, 4.964507 
8.712569e+2, 2.1723077e+2, -796952.5, -927580.2, 54944.605, -0.0019004256, -0.001637264, -776915.25, 34220.52, 0.0, 5.0572023, 4.9645424 
8.709909e+2, 2.2218463e+2, -753021.5, -882228.4, 55515.996, -0.0032870779, -0.0020637412, -732444.94, 30143.172, 0.0, 5.055756, 4.963983 
8.707239e+2, 2.2713768e+2, -709369.1, -837825.9, 54895.742, -0.002913585, -0.0030218891, -689105.94, 24942.7, 0.0, 5.05433, 4.9630876 
8.7045264e+2, 2.3208664e+2, -673168.8, -812082.1, 52188.867, -0.0016583231, 0.0007853075, -655746.8, 9802.339, 0.0, 5.053058, 4.9557147 
8.7017864e+2, 2.370315e+2, -629278.1, -765303.56, 52764.113, 0.00051047275, -0.0015824336, -611210.75, 5878.953, 0.0, 5.0512557, 4.95576 
8.699045e+2, 2.4197626e+2, -585941.9, -719689.2, 53013.824, 0.0021189286, -0.0039951443, -567477.7, 1153.4342, 0.0, 5.049435, 4.9553905 
8.696287e+2, 2.4692053e+2, -543137.94, -675417.8, 51542.207, 0.0023002508, -0.004776197, -525426.25, -5249.686, 0.0, 5.0476074, 4.95455 
8.693465e+2, 2.518606e+2, -507248.06, -650053.7, 45532.74, 0.0013268405, -0.0022148518, -493965.63, -22201.945, 0.0, 5.045944, 4.947214 
8.69059e+2, 2.567968e+2, -465269.78, -604065.2, 45488.15, 0.00029746912, -0.003837213, -451690.3, -28302.213, 0.0, 5.043351, 4.9472804 
8.6877155e+2, 2.6173288e+2, -424276.9, -560320.2, 45314.92, -0.00076879957, -0.0044127568, -410564.9, -35550.125, 0.0, 5.0407577, 4.9465356 
8.684821e+2, 2.6666823e+2, -382718.75, -515028.3, 42415.582, -0.0016250268, -0.0042149466, -370288.94, -43639.36, 0.0, 5.0380316, 4.9463983 
8.681852e+2, 2.716008e+2, -349690.25, -490546.75, 34731.125, -0.0021059557, 0.0069580427, -341592.13, -63279.914, 0.0, 5.035037, 4.9392486 
8.678818e+2, 2.7653015e+2, -310142.06, -443254.34, 33249.945, -0.0025149246, 0.005152045, -302298.75, -72292.72, 0.0, 5.0309396, 4.940392 
8.675782e+2, 2.814594e+2, -272668.94, -399871.9, 31891.24, -0.0021481675, 0.0028106235, -265121.28, -83420.68, 0.0, 5.0267367, 4.9401407 
8.672726e+2, 2.8638893e+2, -233981.69, -351724.28, 27975.307, -0.00025844498, 0.00017848973, -227672.86, -94281.94, 0.0, 5.0220933, 4.9417653 
8.66961e+2, 2.913168e+2, -203990.11, -324247.72, 21005.496, 0.00084596896, 0.0001140603, -200426.66, -115328.664, 0.0, 5.0171084, 4.9364004 
8.666433e+2, 2.9624417e+2, -168163.6, -277212.75, 18441.424, 0.0024782692, -0.0003578935, -165129.38, -128319.484, 0.0, 5.0112925, 4.938122 
8.6632586e+2, 3.011714e+2, -136608.42, -238578.73, 17955.611, 0.0033028668, -0.000097499935, -133539.06, -133539.06, 0.0, 5.0052676, 4.936867 
8.660104e+2, 3.060977e+2, -105584.75, -198505.83, 19179.453, -0.00004189719, 0.0008953213, -101781.66, -101781.66, 0.0, 4.998723, 4.93632 
8.6569434e+2, 3.1103688e+2, -68656.96, -116183.58, 9857.752, -0.0006813565, 0.027645558, -66693.43, -66693.43, 0.0, 4.992401, 4.9601703 
8.6537427e+2, 3.1598622e+2, -85448.195, -118362.516, 6547.49, 0.0016655824, -0.003165461, -84193.555, -84193.555, 0.0, 4.985048, 4.9626765 
8.6505514e+2, 3.209384e+2, -99364.56, -113676.86, 6310.7373, 0.0074542286, -0.009410605, -96979.44, -96979.44, 0.0, 4.9778223, 4.9675527 
8.647384e+2, 3.259151e+2, -62266.863, 15773.729, -691.0912, 0.010926578, 0.039993342, 15779.848, 15779.848, 0.0, 4.9689927, 5.018768 
8.80972e+2, 1.3304079e+2, -1494552.6, -1636777.0, 11916.194, -0.0005591534, 0.004754321, -1493561.1, 142640.89, 0.0, 5.0874953, 4.9910035 
8.8067424e+2, 1.3802245e+2, -1454350.6, -1592365.1, 13006.377, 0.008542586, 0.0052074343, -1453135.6, 134247.03, 0.0, 5.0847416, 4.9910145 
8.803764e+2, 1.430036e+2, -1415017.1, -1549500.4, 15689.408, 0.009551634, 0.0038381508, -1413211.0, 125356.57, 0.0, 5.081928, 4.9905157 
8.800811e+2, 1.4798428e+2, -1374893.0, -1504701.9, 22017.469, -0.008809412, 0.0014618691, -1371260.3, 118496.34, 0.0, 5.0792723, 4.9904637 
8.7979996e+2, 1.52964e+2, -1339502.9, -1466997.4, 33394.56, -0.010182869, 0.003120504, -1331285.5, 109669.51, 0.0, 5.076607, 4.987677 
8.795253e+2, 1.5794177e+2, -1295758.0, -1420715.8, 34275.26, -0.004366324, -0.0017370402, -1286974.0, 105198.26, 0.0, 5.0750146, 4.9877014 
8.792502e+2, 1.6291954e+2, -1253278.4, -1376722.5, 34284.176, 0.002134502, -0.0034718837, -1244395.8, 98993.914, 0.0, 5.0733323, 4.986976 
8.789745e+2, 1.6789676e+2, -1211238.1, -1332850.3, 36590.18, 0.006915119, -0.0018808607, -1201077.9, 93534.63, 0.0, 5.0715547, 4.9862065 
8.787036e+2, 1.7287114e+2, -1175957.3, -1300412.3, 43724.83, 0.004590005, 0.0028074638, -1162131.4, 83731.92, 0.0, 5.069575, 4.98142 
8.784357e+2, 1.7784292e+2, -1131629.4, -1253807.3, 44758.367, -0.0015065084, 0.0045109782, -1116987.4, 80152.23, 0.0, 5.0681396, 4.981423 
8.781678e+2, 1.8281403e+2, -1088198.3, -1209273.0, 45424.992, -0.006405305, 0.0034518812, -1073050.8, 75371.664, 0.0, 5.06673, 4.980694 
8.7790006e+2, 1.8778422e+2, -1044703.94, -1164751.3, 46436.86, -0.007221942, 0.0009059131, -1028838.06, 70875.99, 0.0, 5.0653453, 4.97994 
8.7763464e+2, 1.9275104e+2, -1008604.4, -1134656.3, 50636.637, -0.003949916, 0.0011220815, -990782.7, 60256.13, 0.0, 5.0638595, 4.974146 
8.77371e+2, 1.9771464e+2, -963622.2, -1087581.3, 51481.5, 0.000563579, -0.0038638273, -945030.0, 57365.043, 0.0, 5.0625834, 4.974179 
8.7710714e+2, 2.0267816e+2, -919681.3, -1042544.8, 51907.465, 0.0039007291, -0.006773446, -900687.7, 53064.332, 0.0, 5.0612564, 4.9735203 
8.768419e+2, 2.0764111e+2, -875847.2, -998068.2, 51838.547, 0.003948824, -0.0069268662, -856822.0, 48292.49, 0.0, 5.05994, 4.9726787 
8.7657475e+2, 2.1260019e+2, -840025.75, -971179.25, 52862.49, 0.001916889, -0.0029335811, -821372.1, 35142.95, 0.0, 5.058626, 4.9657197 
8.7630725e+2, 2.1755551e+2, -795382.7, -924189.6, 53750.047, -0.000281245, -0.0032034067, -775900.06, 32052.426, 0.0, 5.0571756, 4.965745 
8.7603974e+2, 2.2251053e+2, -751658.5, -879256.4, 54381.414, -0.002162077, -0.003089042, -731626.4, 27767.191, 0.0, 5.0557275, 4.965043 
8.757711e+2, 2.2746475e+2, -708043.0, -834946.0, 53494.33, -0.0025529081, -0.0024350581, -688502.06, 22340.87, 0.0, 5.0542994, 4.9641185 
8.754982e+2, 2.3241477e+2, -671968.44, -809679.94, 50742.99, -0.002090582, 0.0022894049, -655290.8, 7042.835, 0.0, 5.053053, 4.9565754 
8.752223e+2, 2.3736064e+2, -628071.06, -762912.06, 51329.977, -0.00048266252, 0.0013519744, -610755.0, 3109.9155, 0.0, 5.051255, 4.956618 
8.749464e+2, 2.423062e+2, -584701.0, -717208.25, 51396.793, 0.00082730065, -0.0012100578, -567102.5, -1704.2086, 0.0, 5.0494328, 4.9562817 
8.7466866e+2, 2.472511e+2, -542326.44, -673715.2, 50019.324, 0.0017662459, -0.0036327415, -525451.56, -8514.113, 0.0, 5.047581, 4.9551783 
8.743842e+2, 2.5219148e+2, -506600.6, -649096.44, 43504.176, 0.0016084109, -0.002649251, -494368.7, -25847.69, 0.0, 5.045954, 4.947585 
8.740942e+2, 2.5712788e+2, -464612.7, -603087.0, 43491.723, 0.000903895, -0.006349416, -452086.06, -31942.42, 0.0, 5.0433626, 4.947659 
8.7380415e+2, 2.6206428e+2, -423526.44, -559201.94, 43223.332, -0.00021865858, -0.0072076772, -410926.53, -39159.36, 0.0, 5.0407786, 4.946961 
8.735117e+2, 2.6700008e+2, -382558.13, -515326.97, 39980.605, -0.0013685727, -0.004860784, -371448.44, -48050.813, 0.0, 5.03805, 4.9463353 
8.7321115e+2, 2.7193263e+2, -349503.75, -491437.97, 31578.219, -0.0013588065, 0.008041653, -342795.16, -67735.05, 0.0, 5.035121, 4.938985 
8.729035e+2, 2.7686188e+2, -309984.78, -444237.75, 30126.783, -0.0014652928, 0.008243095, -303534.2, -76779.234, 0.0, 5.031028, 4.940094 
8.725957e+2, 2.817907e+2, -272923.78, -401798.78, 28322.613, -0.0014589969, 0.006541922, -266974.03, -88520.42, 0.0, 5.0268216, 4.9395103 
8.722851e+2, 2.8671932e+2, -234568.38, -354183.0, 24123.453, 0.00037895836, 0.0015955414, -229886.5, -99732.92, 0.0, 5.022131, 4.9409695 
8.7196803e+2, 2.9164612e+2, -204518.06, -327039.22, 16504.549, 0.002106179, -0.0006339502, -202333.7, -120462.305, 0.0, 5.0171914, 4.935492 
8.716444e+2, 2.9657233e+2, -168768.3, -280202.8, 13992.416, 0.002454808, -0.002397732, -167038.19, -133443.36, 0.0, 5.011379, 4.937139 
8.713208e+2, 3.0149862e+2, -137088.25, -240953.39, 12952.912, 0.001997527, -0.0030551932, -135497.28, -135497.28, 0.0, 5.005295, 4.9361234 
8.709988e+2, 3.0642474e+2, -105345.28, -199420.61, 14508.802, -0.0041396995, 0.00068881526, -103158.484, -103158.484, 0.0, 4.9987845, 4.9360843 
8.706759e+2, 3.113635e+2, -68990.83, -119327.945, 4505.673, -0.004238945, 0.031065678, -68590.7, -68590.7, 0.0, 4.9925566, 4.9591403 
8.7034875e+2, 3.163119e+2, -85692.41, -121647.33, 1095.6288, 0.001603487, 0.003119513, -85659.05, -85659.05, 0.0, 4.985244, 4.961598 
8.7002265e+2, 3.2126287e+2, -97457.35, -111156.34, 1036.271, 0.011310974, -0.011304417, -97379.41, -97379.41, 0.0, 4.9779115, 4.968601 
8.6969626e+2, 3.262419e+2, -61252.25, 14608.592, -9318.557, 0.0014000178, 0.0818196, 15736.491, 15736.491, 0.0, 4.9691815, 5.0186315 
8.8605e+2, 1.3334405e+2, -1499583.4, -1634729.1, 12428.539, 0.00415596, 0.0022773715, -1498449.9, 134778.77, 0.0, 5.0847597, 4.993015 
8.85749e+2, 1.3832754e+2, -1458637.8, -1589989.8, 13667.021, 0.007808081, 0.0035114798, -1457230.8, 127160.49, 0.0, 5.0822806, 4.9930005 
8.854485e+2, 1.4331044e+2, -1418710.3, -1547199.3, 16616.5, 0.0075943437, 0.0032503582, -1416596.1, 118963.24, 0.0, 5.0797644, 4.992328 
8.8515115e+2, 1.4829275e+2, -1378018.0, -1502236.9, 23445.611, -0.0101738, 0.0019225054, -1373740.0, 112993.05, 0.0, 5.077353, 4.9922047 
8.8486844e+2, 1.5327388e+2, -1341886.0, -1464515.8, 35180.74, -0.010134007, 0.0038046122, -1332510.0, 105408.234, 0.0, 5.07506, 4.9892316 
8.845925e+2, 1.5825304e+2, -1297329.0, -1417808.5, 36085.207, -0.0029706056, -0.00042572123, -1287347.9, 101774.91, 0.0, 5.073745, 4.989268 
8.843158e+2, 1.6323209e+2, -1253921.9, -1373296.4, 36187.08, 0.0038514493, -0.002416447, -1243808.9, 96518.7, 0.0, 5.072378, 4.9885674 
8.8403845e+2, 1.6821052e+2, -1211395.8, -1329266.1, 38211.78, 0.008142605, -0.0016275193, -1200092.1, 91445.79, 0.0, 5.0707865, 4.9877687 
8.83766e+2, 1.7318614e+2, -1175566.0, -1296533.6, 45673.22, 0.0052576847, 0.0022502115, -1160258.4, 82517.62, 0.0, 5.0690207, 4.982971 
8.834967e+2, 1.7815913e+2, -1130706.8, -1249740.5, 46605.57, -0.0012711852, 0.0032832085, -1114630.4, 79409.41, 0.0, 5.067789, 4.9829454 
8.8322735e+2, 1.8313146e+2, -1087053.1, -1205411.8, 47218.508, -0.0063430015, 0.0023556207, -1070523.9, 74787.04, 0.0, 5.066529, 4.982078 
8.829583e+2, 1.8810287e+2, -1043157.5, -1160715.6, 48229.23, -0.0073485607, 0.0007200565, -1025903.44, 70687.67, 0.0, 5.065289, 4.9813204 
8.8269156e+2, 1.9307087e+2, -1006782.6, -1130510.8, 52470.043, -0.0042079627, 0.0013812175, -987527.8, 60376.816, 0.0, 5.063911, 4.975513 
8.8242674e+2, 1.9803569e+2, -961624.2, -1083379.9, 53262.367, 0.00060433045, -0.002854628, -941613.25, 57636.344, 0.0, 5.062704, 4.975538 
8.821615e+2, 2.0300032e+2, -917356.2, -1038186.1, 53611.285, 0.0042231907, -0.0057380092, -896999.0, 53596.57, 0.0, 5.061493, 4.974885 
8.8189495e+2, 2.0796435e+2, -873044.5, -993430.7, 53295.27, 0.0048379335, -0.006597078, -852841.1, 49106.016, 0.0, 5.0603366, 4.9740696 
8.816266e+2, 2.1292447e+2, -836835.8, -966504.0, 54209.555, 0.0032549934, -0.0035418265, -817158.75, 36178.176, 0.0, 5.059192, 4.9670467 
8.8135767e+2, 2.1788086e+2, -791970.25, -919479.3, 54963.19, 0.0014391745, -0.004277938, -771548.8, 33214.637, 0.0, 5.057836, 4.9670477 
8.810886e+2, 2.2283697e+2, -748378.6, -874951.1, 55213.496, -0.00047354517, -0.0033791615, -727678.7, 28515.047, 0.0, 5.056405, 4.9662046 
8.8081837e+2, 2.2779228e+2, -704568.44, -830531.2, 54705.965, -0.002062936, -0.0017395155, -684126.8, 23506.113, 0.0, 5.0550437, 4.965294 
8.8054377e+2, 2.3274325e+2, -668485.94, -805743.06, 51469.31, -0.0022613478, 0.0033472965, -651330.06, 7784.548, 0.0, 5.053874, 4.9575577 
8.8026613e+2, 2.3769005e+2, -624754.2, -759112.44, 51934.81, -0.0010022772, 0.003599983, -607020.06, 3617.052, 0.0, 5.052029, 4.957581 
8.7998825e+2, 2.426364e+2, -581816.6, -713891.94, 51593.27, 0.0002299618, 0.0010626175, -564051.94, -1888.9733, 0.0, 5.0501, 4.957134 
8.7970847e+2, 2.4758188e+2, -539625.4, -670696.1, 50202.195, 0.0017925303, -0.0022970217, -522606.84, -8910.633, 0.0, 5.048219, 4.955947 
8.7942183e+2, 2.5252253e+2, -504057.84, -646990.56, 42946.93, 0.002162343, -0.0029368012, -492146.25, -26869.34, 0.0, 5.0466585, 4.9480214 
8.7912923e+2, 2.57459e+2, -462278.34, -601091.56, 42764.75, 0.001800134, -0.008883894, -450161.3, -33263.055, 0.0, 5.043992, 4.9480934 
8.788366e+2, 2.6239574e+2, -421762.9, -557668.6, 42371.88, 0.000518584, -0.009394401, -409634.78, -41116.38, 0.0, 5.041235, 4.947316 
8.7854105e+2, 2.673319e+2, -381545.7, -515026.66, 38187.727, -0.000977761, -0.005150691, -371392.75, -51247.316, 0.0, 5.038378, 4.9463296 
8.7823683e+2, 2.7226445e+2, -348830.75, -491950.63, 28930.197, -0.0005308092, 0.009362348, -343204.03, -71395.95, 0.0, 5.0353813, 4.938761 
8.779251e+2, 2.7719358e+2, -309697.47, -445096.4, 27238.215, -0.00041829355, 0.011278366, -304423.38, -80919.305, 0.0, 5.0311685, 4.939807 
8.7761295e+2, 2.821219e+2, -273584.66, -404505.75, 24971.56, -0.0009980669, 0.009856049, -268983.34, -93775.36, 0.0, 5.0268917, 4.9386034 
8.7729746e+2, 2.870496e+2, -235050.9, -356219.9, 20089.783, 0.0013030635, 0.0031638423, -231806.88, -104889.62, 0.0, 5.0221367, 4.9403353 
8.769748e+2, 2.9197532e+2, -205259.2, -329957.94, 12066.645, 0.0038205127, -0.0016180148, -204102.3, -125456.22, 0.0, 5.0172153, 4.934559 
8.766451e+2, 2.9690036e+2, -169602.38, -283224.25, 9722.403, 0.002824405, -0.005226055, -168776.45, -138395.27, 0.0, 5.0113883, 4.936169 
8.763153e+2, 3.018258e+2, -137689.31, -242930.53, 8775.135, -0.00014357554, -0.0053180363, -136962.64, -136962.64, 0.0, 5.0052257, 4.9355426 
8.759867e+2, 3.0675167e+2, -105740.73, -201336.11, 9464.976, -0.008542202, 0.000104104714, -104812.6, -104812.6, 0.0, 4.998769, 4.9355116 
8.756572e+2, 3.1168994e+2, -69704.63, -122562.69, -484.6515, -0.0072081783, 0.03167698, -69700.19, -69700.19, 0.0, 4.992591, 4.958105 
8.7532306e+2, 3.166374e+2, -86245.25, -124973.67, -4048.1602, 0.0026612552, 0.003312336, -85826.63, -85826.63, 0.0, 4.985337, 4.960525 
8.749895e+2, 3.2158825e+2, -99018.375, -115812.055, -4362.08, 0.012692244, -0.0008596228, -97952.945, -97952.945, 0.0, 4.977877, 4.9670615 
8.7465495e+2, 3.265594e+2, -58711.914, 17355.504, -17578.346, -0.0025631343, 0.0045121354, 21221.213, 21221.213, 0.0, 4.969315, 5.0198374 
8.911228e+2, 1.3365293e+2, -1514215.5, -1636046.4, 14287.259, 0.009056528, -0.0006560986, -1512562.5, 117637.87, 0.0, 5.0786533, 4.9954176 
8.908189e+2, 1.3863856e+2, -1471958.0, -1590687.0, 15805.52, 0.006881056, 0.0018809178, -1469889.9, 111452.086, 0.0, 5.0766506, 4.9953647 
8.905162e+2, 1.4362341e+2, -1430463.1, -1547328.6, 19354.791, 0.004658285, 0.0024638483, -1427341.1, 105150.195, 0.0, 5.0747366, 4.99458 
8.9021736e+2, 1.4860755e+2, -1388266.1, -1501772.9, 26895.195, -0.012018712, 0.002040685, -1382215.9, 101431.67, 0.0, 5.0729146, 4.9943533 
8.8993365e+2, 1.5359043e+2, -1351296.9, -1463818.4, 39145.75, -0.009968822, 0.0045473212, -1339018.1, 95798.4, 0.0, 5.071007, 4.99125 
8.896567e+2, 1.5857124e+2, -1305545.4, -1416407.3, 40290.414, -0.0009973558, 0.0012975862, -1292449.6, 93555.5, 0.0, 5.0700974, 4.9913173 
8.893789e+2, 1.6355184e+2, -1261055.0, -1371239.4, 40694.305, 0.006168089, -0.0010136041, -1247655.0, 89539.57, 0.0, 5.0691037, 4.9906464 
8.891002e+2, 1.6853175e+2, -1217283.9, -1326563.9, 42757.188, 0.010002586, -0.0014224374, -1202543.0, 85847.18, 0.0, 5.0679464, 4.9898562 
8.8882655e+2, 1.7350884e+2, -1180624.3, -1293210.1, 50872.4, 0.006240356, 0.001005746, -1161043.0, 78570.29, 0.0, 5.066469, 4.985118 
8.8855606e+2, 1.7848334e+2, -1135131.3, -1246095.6, 52204.52, -0.00094894366, 0.0009566279, -1114432.1, 76429.766, 0.0, 5.065484, 4.9850745 
8.8828564e+2, 1.8345718e+2, -1090763.4, -1201382.5, 53237.027, -0.0063658445, 0.0004136086, -1069304.9, 72813.336, 0.0, 5.0644946, 4.9842 
8.880155e+2, 1.884302e+2, -1046197.3, -1156385.1, 54741.17, -0.007431774, 0.00005741202, -1023625.7, 69757.484, 0.0, 5.0635233, 4.983411 
8.877478e+2, 1.9339986e+2, -1008986.0, -1125451.5, 59557.086, -0.00420639, 0.0017182123, -983923.5, 60757.58, 0.0, 5.062411, 4.9777184 
8.874819e+2, 1.9836631e+2, -963083.6, -1077817.4, 60925.105, 0.0005251521, -0.0011094852, -936767.6, 59242.566, 0.0, 5.0614777, 4.9777775 
8.872157e+2, 2.0333242e+2, -918023.7, -1032093.94, 61703.203, 0.0043807407, -0.0040398384, -891033.3, 56308.348, 0.0, 5.0605555, 4.977161 
8.869481e+2, 2.0829783e+2, -873064.8, -986900.6, 62335.516, 0.0051507168, -0.005755012, -845570.8, 53108.69, 0.0, 5.0596557, 4.9763646 
8.8667864e+2, 2.1325938e+2, -835971.5, -959101.1, 63804.402, 0.0037782642, -0.003933756, -808872.75, 41182.375, 0.0, 5.0587926, 4.9694915 
8.864087e+2, 2.1821725e+2, -790177.8, -911456.1, 65333.94, 0.0025065225, -0.0052035605, -761678.7, 39788.17, 0.0, 5.057795, 4.969527 
8.861385e+2, 2.231749e+2, -745520.5, -866245.7, 66250.48, 0.00118499, -0.004087617, -716257.4, 36624.86, 0.0, 5.056769, 4.968719 
8.85867e+2, 2.2813168e+2, -700712.4, -820998.2, 66850.555, -0.00030453035, -0.00254585, -670932.2, 33374.457, 0.0, 5.055757, 4.967925 
8.85591e+2, 2.3308402e+2, -663648.1, -795541.75, 64398.26, -0.0011525061, 0.0018884992, -637420.56, 18353.955, 0.0, 5.054987, 4.9601974 
8.853117e+2, 2.3803224e+2, -618472.44, -747920.1, 65959.34, -0.0005527005, 0.0021935003, -590785.2, 16497.941, 0.0, 5.0536942, 4.9602947 
8.8503224e+2, 2.4297991e+2, -573926.5, -701939.56, 66882.02, 0.0007870726, 0.00011439069, -545358.5, 13437.49, 0.0, 5.0524297, 4.9598007 
8.847507e+2, 2.4792664e+2, -530063.6, -657875.75, 66490.12, 0.0024260888, -0.0025681218, -501747.56, 8570.129, 0.0, 5.051204, 4.9586024 
8.844621e+2, 2.5286832e+2, -492696.72, -633370.44, 60413.51, 0.002203803, -0.0029657085, -470313.22, -8424.743, 0.0, 5.0503864, 4.9505672 
8.841674e+2, 2.578058e+2, -448601.44, -586084.9, 61604.51, 0.0028383106, -0.00842102, -425036.38, -11535.492, 0.0, 5.048601, 4.95071 
8.8387245e+2, 2.6274347e+2, -405639.0, -540774.7, 62554.844, 0.003181983, -0.0088203885, -381127.94, -16016.388, 0.0, 5.0466986, 4.950191 
8.8357437e+2, 2.6768038e+2, -363059.66, -497565.34, 59863.59, 0.0029374717, -0.005272646, -340275.88, -23545.125, 0.0, 5.0449185, 4.948898 
8.832666e+2, 2.7261293e+2, -327801.6, -474107.7, 51598.656, 0.0019910787, 0.007483694, -311434.88, -43041.94, 0.0, 5.043026, 4.940941 
8.8295084e+2, 2.7754185e+2, -286775.13, -426531.72, 51005.12, 0.0018067484, 0.009524005, -270140.44, -50049.984, 0.0, 5.039604, 4.9418917 
8.826345e+2, 2.8246984e+2, -248723.84, -384924.88, 49691.61, 0.0015779278, 0.009018205, -232521.72, -60724.58, 0.0, 5.0360637, 4.940721 
8.8231397e+2, 2.8739712e+2, -210218.55, -338110.03, 44559.47, 0.0044132355, 0.004527915, -196224.53, -72713.016, 0.0, 5.031611, 4.9417925 
8.8198525e+2, 2.9232165e+2, -182202.94, -313464.94, 35937.223, 0.0065200315, -0.00086336146, -173008.06, -97755.59, 0.0, 5.026147, 4.9356656 
8.816492e+2, 2.972453e+2, -148572.23, -267831.6, 33117.92, 0.0057984563, -0.005405474, -139992.7, -112990.45, 0.0, 5.019592, 4.9372306 
8.8131267e+2, 3.0216932e+2, -118828.625, -228875.06, 30965.273, 0.0021703334, -0.004426257, -110713.88, -110713.88, 0.0, 5.012655, 4.9365044 
8.809771e+2, 3.0709383e+2, -89484.914, -187652.11, 30137.613, -0.007216643, -0.0019767324, -80970.984, -80970.984, 0.0, 5.0050526, 4.9368668 
8.806407e+2, 3.120312e+2, -56256.98, -110948.0, 19617.605, -0.0065289196, 0.028098654, -49947.96, -49947.96, 0.0, 4.9980836, 4.9590406 
8.8029945e+2, 3.169774e+2, -73223.8, -113507.65, 15620.785, 0.0059005246, -0.0016542207, -67876.39, -67876.39, 0.0, 4.9906754, 4.9614406 
8.7995833e+2, 3.2192808e+2, -85290.91, -104371.82, 15389.422, 0.01277496, 0.00975916, -76724.6, -76724.6, 0.0, 4.98348, 4.9678316 
8.796181e+2, 3.268917e+2, -33392.926, 39333.11, -1869.0841, 0.0060925963, -0.09785426, 39381.113, 39381.113, 0.0, 4.978002, 5.023276 
8.9619255e+2, 1.3396442e+2, -1510881.9, -1629673.9, 12623.599, 0.012106537, -0.0031245328, -1509555.3, 117590.95, 0.0, 5.078687, 4.997579 
8.958861e+2, 1.3895229e+2, -1468721.3, -1584502.9, 14299.116, 0.0043062293, 0.00042671076, -1466981.4, 111284.53, 0.0, 5.076684, 4.997469 
8.9558154e+2, 1.4393923e+2, -1427349.6, -1541473.8, 18170.598, 0.00097291975, 0.0017429226, -1424526.4, 104869.06, 0.0, 5.0747905, 4.9965677 
8.9528155e+2, 1.4892535e+2, -1385462.1, -1496499.4, 25754.025, -0.014129209, 0.0022996797, -1379779.5, 100753.41, 0.0, 5.0729685, 4.996143 
8.9499694e+2, 1.5391003e+2, -1348806.3, -1458848.4, 38322.707, -0.010101807, 0.005334888, -1336775.5, 94909.08, 0.0, 5.071019, 4.992945 
8.9471936e+2, 1.5889265e+2, -1303079.5, -1411456.3, 39415.773, 0.00076762, 0.0030563744, -1290260.5, 92595.8, 0.0, 5.0701075, 4.993012 
8.944405e+2, 1.638749e+2, -1258553.3, -1366186.3, 39613.902, 0.00829554, 0.000327903, -1245545.5, 88483.78, 0.0, 5.069108, 4.992383 
8.941606e+2, 1.6885637e+2, -1214869.5, -1321564.0, 41927.555, 0.01167019, -0.0011970206, -1200365.1, 84843.77, 0.0, 5.0679355, 4.9915833 
8.938859e+2, 1.7383513e+2, -1178117.4, -1287939.0, 49971.258, 0.007034512, -0.00019745625, -1158783.1, 77632.17, 0.0, 5.0664506, 4.986937 
8.9361435e+2, 1.7881133e+2, -1132711.5, -1240987.8, 51290.086, -0.0008903676, -0.0011862458, -1112273.4, 75373.57, 0.0, 5.0654645, 4.986844 
8.933429e+2, 1.8378694e+2, -1088456.5, -1196499.6, 52282.336, -0.006663345, -0.00093082315, -1067299.8, 71586.33, 0.0, 5.064474, 4.9858975 
8.9307183e+2, 1.8876179e+2, -1043864.6, -1151366.3, 53921.117, -0.007777594, 0.00005113159, -1021479.75, 68653.97, 0.0, 5.063496, 4.9851604 
8.9280325e+2, 1.9373338e+2, -1006499.94, -1120055.6, 58651.254, -0.004320158, 0.0028339557, -981646.4, 59766.63, 0.0, 5.062377, 4.9796004 
8.9253646e+2, 1.9870184e+2, -960618.6, -1072456.0, 60010.445, 0.00028130936, 0.0014322127, -934512.0, 58210.85, 0.0, 5.0614457, 4.9796524 
8.9226925e+2, 2.0366979e+2, -915647.3, -1026922.44, 60742.2, 0.004238866, -0.0016155998, -888912.8, 55123.46, 0.0, 5.060526, 4.9789743 
8.9200073e+2, 2.0863694e+2, -870529.6, -981380.7, 61441.28, 0.005201931, -0.0041595916, -843208.44, 52148.316, 0.0, 5.059625, 4.9783053 
8.9173037e+2, 2.1360037e+2, -833231.4, -953185.56, 62812.36, 0.0040040403, -0.0036012759, -806360.06, 40353.625, 0.0, 5.0587707, 4.971567 
8.9145935e+2, 2.1856023e+2, -787493.9, -905644.8, 64330.797, 0.002961392, -0.0056876326, -759228.9, 38877.02, 0.0, 5.0577736, 4.971573 
8.911881e+2, 2.2351985e+2, -742846.7, -860386.94, 65289.367, 0.0013759292, -0.004837527, -713772.5, 35729.168, 0.0, 5.0567408, 4.9707885 
8.909155e+2, 2.284787e+2, -698028.75, -815079.9, 65645.49, 0.00012372, -0.0031959845, -668607.9, 32297.703, 0.0, 5.055721, 4.9700265 
8.906383e+2, 2.3343319e+2, -660873.94, -789424.3, 63157.605, -0.0006313286, 0.0011626431, -635037.06, 17315.371, 0.0, 5.054951, 4.96237 
8.9035773e+2, 2.3838352e+2, -615748.8, -741916.7, 64723.01, -0.00070256996, 0.001448051, -588452.2, 15387.75, 0.0, 5.0536623, 4.962432 
8.900768e+2, 2.4333327e+2, -571341.3, -696224.44, 65574.49, 0.00042250621, -0.00044755026, -543234.75, 12098.029, 0.0, 5.052398, 4.9618416 
8.89794e+2, 2.4828207e+2, -527497.9, -652147.6, 65246.766, 0.0018179445, -0.002354068, -499592.28, 7242.209, 0.0, 5.0511694, 4.9606514 
8.8950384e+2, 2.5322583e+2, -490185.22, -628144.5, 58790.473, 0.0017544067, -0.0014615927, -468530.9, -10145.312, 0.0, 5.050393, 4.9524374 
8.8920736e+2, 2.5816524e+2, -446127.34, -580902.5, 60044.355, 0.002757466, -0.0053292597, -423257.44, -13278.204, 0.0, 5.048607, 4.9525685 
8.8891053e+2, 2.631049e+2, -402981.44, -535142.8, 60527.766, 0.00339717, -0.00618703, -379450.38, -17879.51, 0.0, 5.046698, 4.9522142 
8.886104e+2, 2.6804352e+2, -360788.47, -492697.16, 58257.77, 0.004254725, -0.0048893564, -338743.13, -25570.848, 0.0, 5.0449047, 4.9506626 
8.882998e+2, 2.72977e+2, -326036.7, -471302.97, 48950.13, 0.0028088072, 0.0045567336, -311081.66, -46257.266, 0.0, 5.0431027, 4.9419804 
8.879807e+2, 2.779066e+2, -284802.78, -423909.5, 48582.06, 0.0022648724, 0.004826158, -269515.78, -53001.387, 0.0, 5.0398192, 4.942807 
8.876609e+2, 2.8283575e+2, -245462.34, -381030.53, 47338.684, 0.0017556862, 0.0044751246, -230568.55, -62358.355, 0.0, 5.036623, 4.9419374 
8.873356e+2, 2.8776416e+2, -207254.0, -336270.53, 41534.703, 0.003036376, 0.005081748, -195039.08, -75124.81, 0.0, 5.032421, 4.942183 
8.870007e+2, 2.926887e+2, -179403.8, -313943.88, 32745.07, 0.0037619676, 0.0033592528, -171857.4, -100201.25, 0.0, 5.0272937, 4.935105 
8.8665825e+2, 2.9761177e+2, -144638.53, -267639.4, 30748.834, 0.0023188752, 0.00020581848, -137380.0, -113968.0, 0.0, 5.0211453, 4.936722 
8.863152e+2, 3.0253425e+2, -115185.99, -231241.6, 27870.895, 0.000059951228, -0.0017215841, -108839.79, -108839.79, 0.0, 5.014568, 4.9349346 
8.8597256e+2, 3.0745646e+2, -84567.38, -186601.75, 27446.201, -0.004612478, -0.0063743787, -77653.164, -77653.164, 0.0, 5.0069027, 4.9365454 
8.8562816e+2, 3.12393e+2, -52755.37, -111520.19, 17083.016, -0.0051393453, 0.024640126, -48150.203, -48150.203, 0.0, 4.9996414, 4.9582543 
8.852789e+2, 3.1733823e+2, -70094.05, -114269.76, 13229.233, 0.004411613, -0.00039430405, -66435.33, -66435.33, 0.0, 4.9921207, 4.960614 
8.849304e+2, 3.222873e+2, -80016.83, -98047.86, 14091.478, 0.009606941, -0.0037087991, -72303.65, -72303.65, 0.0, 4.984399, 4.969854 
8.845828e+2, 3.2726273e+2, -32998.47, 25627.613, -688.64703, -0.010824456, 0.046892434, 25635.701, 25635.701, 0.0, 4.980904, 5.0169363 
9.012618e+2, 1.342759e+2, -1509313.1, -1624035.0, 10700.179, 0.011806051, -0.0049073906, -1508323.6, 115769.64, 0.0, 5.0780888, 4.9997983 
9.009532e+2, 1.3926607e+2, -1466746.8, -1578903.4, 12514.201, 0.0026615271, -0.0007871493, -1465367.4, 109822.69, 0.0, 5.0762753, 4.999591 
9.00647e+2, 1.4425507e+2, -1425560.5, -1536402.8, 17175.926, -0.0009869256, 0.0009788288, -1422959.9, 103339.51, 0.0, 5.0744247, 4.9984913 
9.0034574e+2, 1.4924318e+2, -1383293.4, -1491341.3, 24489.943, -0.015326329, 0.0025576327, -1378001.6, 99416.266, 0.0, 5.072761, 4.998021 
9.0006024e+2, 1.5422969e+2, -1346739.3, -1454034.9, 37546.367, -0.010111466, 0.0060355826, -1334905.6, 93646.44, 0.0, 5.070877, 4.9946613 
8.997819e+2, 1.592141e+2, -1300897.5, -1406533.0, 38588.395, 0.0023377452, 0.0045398045, -1288302.9, 91403.83, 0.0, 5.069998, 4.994754 
8.99502e+2, 1.6419798e+2, -1256423.3, -1361507.5, 38431.86, 0.010200958, 0.0013789901, -1243868.0, 86995.34, 0.0, 5.069021, 4.994038 
8.9922094e+2, 1.6918106e+2, -1212532.5, -1316557.3, 41273.85, 0.013022354, -0.0011229203, -1198146.0, 83881.086, 0.0, 5.0678945, 4.9933257 
8.9894515e+2, 1.7416146e+2, -1175714.6, -1282730.0, 49023.656, 0.007758143, -0.0014528532, -1156652.4, 76564.46, 0.0, 5.066399, 4.9887524 
8.986726e+2, 1.7913938e+2, -1130404.9, -1235990.3, 50321.188, -0.000873426, -0.003280258, -1110264.1, 74167.32, 0.0, 5.0654173, 4.98859 
8.9840007e+2, 1.841168e+2, -1086310.5, -1191869.4, 51384.92, -0.0069942665, -0.0020039664, -1065428.0, 70225.4, 0.0, 5.0644383, 4.987516 
8.9812803e+2, 1.8909343e+2, -1041440.3, -1146148.4, 52972.523, -0.00797449, 0.00020625068, -1019315.94, 67567.69, 0.0, 5.0634656, 4.986982 
8.978585e+2, 1.9406697e+2, -1004021.4, -1114664.5, 57751.31, -0.0044115568, 0.0041502053, -979369.9, 58774.344, 0.0, 5.062342, 4.9814825 
8.975908e+2, 1.9903743e+2, -958162.6, -1067102.0, 59105.37, 0.00006975496, 0.0040728715, -932255.75, 57179.098, 0.0, 5.0614114, 4.9815273 
8.9732265e+2, 2.0400718e+2, -913261.7, -1021695.2, 59942.402, 0.004103718, 0.0007028293, -886654.25, 54076.34, 0.0, 5.0604944, 4.980808 
8.9705324e+2, 2.0897609e+2, -868027.25, -975963.6, 60377.297, 0.005274407, -0.002642263, -841014.06, 51019.484, 0.0, 5.0595975, 4.9802113 
8.967819e+2, 2.1394141e+2, -830494.7, -947273.3, 61822.938, 0.0042184056, -0.0034271171, -803846.44, 39525.48, 0.0, 5.0587497, 4.973643 
8.9651e+2, 2.1890323e+2, -784808.3, -899825.6, 63339.137, 0.003398125, -0.00635134, -756765.3, 37979.28, 0.0, 5.0577526, 4.973623 
8.962376e+2, 2.2386485e+2, -740216.7, -854611.8, 64260.06, 0.0016293173, -0.0055897236, -711385.6, 34734.86, 0.0, 5.0567093, 4.9728317 
8.9596397e+2, 2.288258e+2, -695351.4, -809180.44, 64468.54, 0.0006288756, -0.0037348156, -666269.06, 31234.816, 0.0, 5.0556874, 4.9721212 
8.9568555e+2, 2.3378238e+2, -658102.75, -783309.94, 61919.96, 0.000038134353, 0.00045034682, -632653.56, 16276.212, 0.0, 5.054916, 4.9645414 
8.954036e+2, 2.3873484e+2, -613059.0, -735985.3, 63465.92, -0.00069388037, 0.00057667453, -586172.6, 14223.592, 0.0, 5.053631, 4.964544 
8.9512146e+2, 2.4368666e+2, -568879.4, -690816.75, 64135.92, 0.0004218339, -0.0007136847, -541357.4, 10511.622, 0.0, 5.052371, 4.9637733 
8.9483714e+2, 2.486376e+2, -524845.94, -646198.94, 64142.426, 0.0011326139, -0.0017062471, -497228.13, 6122.472, 0.0, 5.051132, 4.96278 
8.945455e+2, 2.5358343e+2, -487694.16, -622937.6, 57196.758, 0.0013396094, 0.00036453886, -466748.56, -11866.58, 0.0, 5.0503983, 4.9542985 
8.9424723e+2, 2.585248e+2, -443651.8, -575697.8, 58443.8, 0.002664826, -0.0022492371, -421500.47, -15043.565, 0.0, 5.0486116, 4.9544334 
8.939485e+2, 2.6346633e+2, -400228.06, -529269.75, 58680.934, 0.0034998548, -0.004017751, -377534.28, -19504.791, 0.0, 5.0466995, 4.954321 
8.9364636e+2, 2.6840672e+2, -358703.9, -488279.2, 56458.492, 0.005830476, -0.004464566, -337555.53, -27942.393, 0.0, 5.0448914, 4.952268 
8.933329e+2, 2.733411e+2, -324311.2, -468574.8, 46330.703, 0.003885148, 0.0016227388, -310713.56, -49458.18, 0.0, 5.043181, 4.942989 
8.9301044e+2, 2.782714e+2, -283176.97, -421422.6, 46054.734, 0.002885871, -0.00025298717, -269239.56, -56301.55, 0.0, 5.0399027, 4.943732 
8.9268726e+2, 2.8320184e+2, -243440.77, -377719.25, 44464.023, 0.0019344238, 0.00049030234, -230052.2, -65430.516, 0.0, 5.0367208, 4.9431524 
8.923568e+2, 2.881313e+2, -206572.08, -336014.56, 37285.87, 0.0010657988, 0.0061522536, -196600.11, -80283.91, 0.0, 5.032469, 4.942354 
8.920158e+2, 2.9305583e+2, -179503.22, -316012.94, 27959.246, 0.0006789494, 0.007684434, -173998.7, -105939.79, 0.0, 5.0273867, 4.9344587 
8.916671e+2, 2.979785e+2, -144575.55, -269333.28, 26056.898, -0.0021107423, 0.005383058, -139352.02, -119532.16, 0.0, 5.021242, 4.936205 
8.913174e+2, 3.0289915e+2, -116923.67, -236459.67, 22518.605, -0.0033945949, -0.00014300412, -112822.26, -112822.26, 0.0, 5.0145493, 4.933208 
8.909677e+2, 3.0781943e+2, -85283.984, -189538.17, 20906.9, -0.0020073536, -0.0104729505, -81247.63, -81247.63, 0.0, 5.0068917, 4.9356337 
8.906154e+2, 3.1275523e+2, -53347.21, -114309.42, 11221.389, -0.0043788026, 0.018831396, -51347.285, -51347.285, 0.0, 4.999667, 4.95737 
8.9025813e+2, 3.1769907e+2, -70926.9, -117971.57, 7407.169, 0.000584633, -0.007996105, -69788.2, -69788.2, 0.0, 4.992204, 4.959383 
8.8990206e+2, 3.2264704e+2, -81957.02, -102781.75, 8916.329, 0.004883976, -0.018167814, -78661.06, -78661.06, 0.0, 4.984238, 4.9683356 
8.895501e+2, 3.2762542e+2, -38467.242, 8076.013, 1816.6364, -0.024632743, 0.10698349, 8146.811, 8146.811, 0.0, 4.9817605, 5.0100775 
9.063281e+2, 1.345884e+2, -1514548.8, -1620993.1, 10911.257, 0.00077390834, -0.005282606, -1513441.8, 107590.625, 0.0, 5.07507, 5.002272 
9.06019e+2, 1.3958089e+2, -1471757.3, -1576059.8, 12917.994, 0.005450828, -0.0008605097, -1470181.1, 101924.36, 0.0, 5.073393, 5.0019364 
9.057115e+2, 1.4457193e+2, -1429694.9, -1533742.4, 17920.379, 0.002096249, 0.00026146, -1426694.9, 96499.516, 0.0, 5.0719967, 5.000549 
9.05409e+2, 1.49562e+2, -1386525.6, -1487832.5, 25468.383, -0.014354812, 0.0019455492, -1380483.3, 93809.96, 0.0, 5.070589, 5.000229 
9.051225e+2, 1.5455036e+2, -1349801.1, -1450990.0, 38849.645, -0.010603419, 0.005630626, -1336606.1, 88802.82, 0.0, 5.068908, 4.9966087 
9.0484333e+2, 1.5953654e+2, -1303194.9, -1403272.4, 39858.44, 0.0013196318, 0.0043783537, -1289260.4, 87285.35, 0.0, 5.0683274, 4.996633 
9.0456253e+2, 1.6452205e+2, -1258239.1, -1358577.9, 39426.08, 0.010331814, 0.0013574049, -1244601.1, 83085.55, 0.0, 5.0676265, 4.99568 
9.042807e+2, 1.6950668e+2, -1213610.0, -1312768.4, 42543.49, 0.013441257, -0.0010267986, -1197858.9, 80976.8, 0.0, 5.0666466, 4.995197 
9.04004e+2, 1.7448872e+2, -1176112.4, -1278593.8, 50171.395, 0.008157272, -0.0016121899, -1155640.0, 74369.945, 0.0, 5.0653977, 4.9906197 
9.0373045e+2, 1.794683e+2, -1130203.4, -1231582.8, 51407.867, -0.00050792075, -0.003404923, -1108697.4, 72510.914, 0.0, 5.064634, 4.9904494 
9.0345705e+2, 1.8444741e+2, -1085481.9, -1187151.3, 52632.344, -0.00693571, -0.0019496087, -1063143.3, 69270.484, 0.0, 5.0638814, 4.989377 
9.031842e+2, 1.8942575e+2, -1039882.9, -1141054.3, 53881.387, -0.007411577, 0.0003813419, -1016562.44, 67064.57, 0.0, 5.0631514, 4.988865 
9.0291387e+2, 1.9440113e+2, -1001596.75, -1108794.1, 58806.773, -0.0039291456, 0.004415488, -975627.5, 59242.043, 0.0, 5.06227, 4.9835196 
9.0264535e+2, 1.993735e+2, -955226.25, -1061103.3, 60175.16, 0.00074897055, 0.004910596, -928017.8, 58123.49, 0.0, 5.0615497, 4.9835186 
9.0237623e+2, 2.0434502e+2, -910006.7, -1015601.4, 60894.453, 0.004970458, 0.0017089909, -882208.1, 55211.523, 0.0, 5.0607595, 4.982779 
9.0210575e+2, 2.093157e+2, -864449.75, -969899.5, 61152.535, 0.005438968, -0.001616837, -836430.94, 52274.57, 0.0, 5.0600085, 4.9821143 
9.018335e+2, 2.1428289e+2, -826317.3, -940388.0, 62481.246, 0.004134566, -0.0031186184, -798754.0, 41271.797, 0.0, 5.0592628, 4.975787 
9.015606e+2, 2.1924667e+2, -780534.94, -893003.44, 63873.797, 0.0032281112, -0.0063471673, -751668.3, 39710.93, 0.0, 5.058324, 4.9757285 
9.012872e+2, 2.2421025e+2, -735987.4, -848034.94, 64564.375, 0.0015206748, -0.0057295286, -706528.9, 36207.133, 0.0, 5.0573125, 4.974846 
9.0101236e+2, 2.2917317e+2, -690780.1, -801867.06, 64730.43, 0.0011738063, -0.0040822285, -661029.4, 33070.11, 0.0, 5.0563016, 4.974395 
9.007328e+2, 2.3413183e+2, -653451.2, -776030.44, 61978.953, 0.0010630726, -0.00023869648, -627575.4, 17929.521, 0.0, 5.0555706, 4.9667854 
9.004495e+2, 2.3908636e+2, -608675.4, -729073.7, 63451.098, 0.00009117657, -0.00035777572, -581410.4, 15540.278, 0.0, 5.054241, 4.966689 
9.0016603e+2, 2.4404027e+2, -564640.44, -684049.2, 64013.332, 0.0010818477, -0.00065285363, -536810.1, 11593.248, 0.0, 5.052958, 4.965878 
8.998803e+2, 2.4899335e+2, -520423.56, -639212.44, 64110.94, 0.0010619194, -0.00062392716, -492422.88, 7441.5664, 0.0, 5.0517635, 4.9649487 
8.995871e+2, 2.5394124e+2, -483524.88, -616699.2, 56822.473, 0.0013028038, 0.0023641805, -462575.53, -11199.157, 0.0, 5.051036, 4.956213 
8.992871e+2, 2.5888455e+2, -439975.06, -569726.3, 57801.816, 0.0029354466, 0.0007937582, -417960.53, -15027.684, 0.0, 5.0490713, 4.956345 
8.989863e+2, 2.6382795e+2, -396810.06, -523134.7, 57701.145, 0.0038606173, -0.0020169504, -374421.8, -19935.06, 0.0, 5.0469947, 4.956377 
8.986822e+2, 2.6876995e+2, -355954.38, -483506.16, 54975.74, 0.007790909, -0.0040253224, -335529.94, -29476.518, 0.0, 5.0451326, 4.953879 
8.9836586e+2, 2.7370524e+2, -321817.56, -465466.72, 44065.883, 0.00529725, -0.001384873, -309377.25, -51691.117, 0.0, 5.043558, 4.9439893 
8.9804006e+2, 2.786362e+2, -281127.9, -418571.47, 43635.5, 0.0037491256, -0.0056585325, -268444.9, -59083.445, 0.0, 5.0401173, 4.944722 
8.977134e+2, 2.8356805e+2, -241689.94, -375674.2, 41318.99, 0.0023185196, -0.0027092341, -229972.44, -68940.555, 0.0, 5.0369406, 4.9438634 
8.9737767e+2, 2.8849843e+2, -205400.34, -335128.22, 32955.91, -0.0012672796, 0.007586057, -197508.38, -84790.17, 0.0, 5.0326104, 4.9427104 
8.9703065e+2, 2.934229e+2, -179305.25, -317949.97, 23041.754, -0.0024605782, 0.011919782, -175576.17, -111113.83, 0.0, 5.027583, 4.9338183 
8.9667565e+2, 2.9834512e+2, -145113.19, -271939.3, 21075.129, -0.0066946982, 0.009946527, -141702.78, -125474.26, 0.0, 5.021237, 4.9354115 
8.963192e+2, 3.0326366e+2, -119261.836, -242285.02, 16866.725, -0.0065014097, 0.00076948863, -116991.28, -116991.28, 0.0, 5.0143766, 4.9313335 
8.959624e+2, 3.081822e+2, -86483.2, -192779.73, 14410.506, 0.001481524, -0.01466146, -84564.234, -84564.234, 0.0, 5.0067315, 4.934672 
8.956022e+2, 3.131173e+2, -54257.11, -117050.38, 5304.207, -0.0036390363, 0.011218485, -53812.21, -53812.21, 0.0, 4.9995413, 4.9565573 
8.9523685e+2, 3.1805968e+2, -72857.1, -122992.805, 1198.606, -0.0034787126, -0.020053942, -72828.46, -72828.46, 0.0, 4.992053, 4.957768 
8.9487284e+2, 3.2300705e+2, -86230.1, -111765.99, 3290.2668, -0.00027037447, -0.023699002, -85812.97, -85812.97, 0.0, 4.9838724, 4.9653134 
8.94522e+2, 3.2797623e+2, -43705.24, -8027.317, 5576.7705, -0.016567755, 0.027423719, -7175.9355, -7175.9355, 0.0, 4.982493, 5.003676 
9.113888e+2, 1.3490404e+2, -1531594.4, -1623419.5, 10272.648, -0.008506452, -0.004575031, -1530459.3, 87481.8, 0.0, 5.0679407, 5.004895 
9.110798e+2, 1.3989894e+2, -1486859.9, -1577656.3, 12683.116, 0.010641661, -0.000249241, -1485121.5, 83867.78, 0.0, 5.06697, 5.004479 
9.107714e+2, 1.4489225e+2, -1443181.3, -1535099.8, 18524.572, 0.0058052363, 0.0007276855, -1439588.4, 80467.16, 0.0, 5.066268, 5.0028186 
9.1046816e+2, 1.4988442e+2, -1397784.9, -1487912.6, 26315.92, -0.013642469, 0.0020435655, -1390663.6, 80469.6, 0.0, 5.065607, 5.002553 
9.1018105e+2, 1.5487474e+2, -1359840.9, -1450862.3, 40002.555, -0.011541528, 0.005385879, -1344759.3, 77469.79, 0.0, 5.064442, 4.9987483 
9.099014e+2, 1.5986288e+2, -1312431.0, -1402900.0, 41145.805, -0.00048587882, 0.0041771242, -1296517.1, 76829.27, 0.0, 5.064183, 4.998688 
9.0962005e+2, 1.6485016e+2, -1266844.1, -1358264.4, 41021.004, 0.009764564, 0.0013882401, -1251136.5, 73333.83, 0.0, 5.063796, 4.997552 
9.093377e+2, 1.6983658e+2, -1220746.8, -1311140.9, 44106.063, 0.013839293, -0.0007939088, -1202792.3, 72810.23, 0.0, 5.0631995, 4.9973283 
9.090603e+2, 1.7482053e+2, -1182594.6, -1276421.8, 52209.934, 0.008659364, -0.0012734866, -1159317.4, 67441.33, 0.0, 5.062157, 4.9928255 
9.087861e+2, 1.7980208e+2, -1136179.9, -1229046.6, 53818.51, -0.000039627426, -0.0027750796, -1111532.4, 66406.1, 0.0, 5.0615697, 4.992684 
9.0851206e+2, 1.8478309e+2, -1090824.5, -1184065.4, 55474.195, -0.006736447, -0.001656857, -1064982.3, 64142.61, 0.0, 5.0610137, 4.9916964 
9.0823865e+2, 1.8976337e+2, -1044779.5, -1137660.3, 57180.5, -0.0070284074, 0.00019197323, -1017556.4, 62762.273, 0.0, 5.060443, 4.991206 
9.079677e+2, 1.947408e+2, -1005880.06, -1104356.0, 62521.28, -0.0035525346, 0.0032173046, -975536.06, 56004.28, 0.0, 5.0596566, 4.986166 
9.0769863e+2, 1.9971535e+2, -959421.0, -1056619.6, 64351.824, 0.0016778596, 0.003186885, -927378.8, 55411.36, 0.0, 5.05901, 4.9861307 
9.0742886e+2, 2.04689e+2, -914137.25, -1011263.2, 65533.89, 0.0061221593, 0.00067195133, -881133.94, 52914.035, 0.0, 5.058321, 4.985278 
9.071576e+2, 2.0966186e+2, -868089.8, -964763.56, 66468.11, 0.005945492, -0.0017197273, -834241.2, 51072.117, 0.0, 5.0576787, 4.984824 
9.0688443e+2, 2.1463141e+2, -829429.25, -934066.4, 68307.55, 0.0039798943, -0.0023515543, -795706.25, 40904.477, 0.0, 5.0570006, 4.978849 
9.066106e+2, 2.195977e+2, -783316.2, -886270.56, 70479.19, 0.0018542358, -0.004683784, -747516.7, 40423.457, 0.0, 5.0561924, 4.978852 
9.0633625e+2, 2.245636e+2, -738306.5, -840644.56, 71900.05, 0.00016419493, -0.0049520647, -701226.56, 38047.496, 0.0, 5.0553255, 4.978108 
9.0606046e+2, 2.2952889e+2, -692837.25, -794012.25, 72710.49, 0.00052872964, -0.0046098693, -654847.6, 35766.44, 0.0, 5.0544105, 4.977751 
9.057799e+2, 2.3449017e+2, -654692.75, -766461.44, 70960.36, 0.0017566317, -0.0018692665, -620253.06, 21740.156, 0.0, 5.0538125, 4.970629 
9.0549564e+2, 2.3944755e+2, -609324.0, -718883.3, 73703.445, 0.0027623228, -0.0023752558, -572272.25, 21138.627, 0.0, 5.0527353, 4.970603 
9.0521103e+2, 2.444044e+2, -564365.1, -672598.4, 75618.84, 0.004486578, -0.0017831837, -525493.5, 19341.197, 0.0, 5.0517406, 4.9700613 
9.049242e+2, 2.4936056e+2, -519625.34, -626964.6, 76820.13, 0.0050632493, -0.00095437124, -479583.9, 16681.482, 0.0, 5.0507455, 4.969286 
9.046293e+2, 2.5431156e+2, -482075.1, -602974.75, 71351.18, 0.003529185, 0.0021053627, -449009.3, -1262.6151, 0.0, 5.0502076, 4.9608912 
9.0432745e+2, 2.5925806e+2, -437131.06, -554734.4, 74589.13, 0.003467737, 0.0015237296, -400952.88, -1680.7057, 0.0, 5.0488334, 4.9611382 
9.040247e+2, 2.6420435e+2, -392442.47, -507251.22, 76540.3, 0.00431696, -0.0012955675, -354172.0, -3374.138, 0.0, 5.047463, 4.961104 
9.037188e+2, 2.691492e+2, -348448.0, -464090.25, 76768.414, 0.007179041, -0.0049180435, -310161.53, -7824.5977, 0.0, 5.0465875, 4.959317 
9.0340036e+2, 2.7408743e+2, -310798.88, -443844.7, 68306.086, 0.004574477, -0.0038617873, -281974.94, -28034.072, 0.0, 5.0464296, 4.949444 
9.030718e+2, 2.79021e+2, -267574.84, -395228.63, 71225.68, 0.0055486728, -0.00847006, -235761.94, -30171.33, 0.0, 5.0441084, 4.9501953 
9.027421e+2, 2.8395554e+2, -226459.55, -350851.8, 70800.8, 0.005086134, -0.0031868077, -194416.03, -37180.273, 0.0, 5.041714, 4.9493904 
9.024013e+2, 2.8888842e+2, -188260.1, -307225.75, 64769.094, 0.0015292056, 0.006451346, -159804.06, -50905.79, 0.0, 5.0379405, 4.9489474 
9.020484e+2, 2.9381406e+2, -164575.48, -296162.97, 59017.99, 0.0016809836, 0.012779949, -141984.05, -81352.26, 0.0, 5.0333843, 4.937424 
9.0168816e+2, 2.9873618e+2, -124551.16, -249172.61, 58102.77, -0.00094831665, 0.016898477, -101664.71, -89265.336, 0.0, 5.0294843, 4.938343 
9.0132546e+2, 3.0365315e+2, -94930.39, -219094.67, 54764.563, 0.0020582024, 0.0090441145, -74227.58, -74227.58, 0.0, 5.0241756, 4.933742 
9.009625e+2, 3.0856913e+2, -57176.387, -174878.69, 52719.71, 0.009885556, -0.0020919982, -37015.984, -37015.984, 0.0, 5.0196743, 4.933908 
9.005969e+2, 3.1349847e+2, -12052.883, -101276.37, 34752.63, 0.0032691713, 0.022215575, -114.18114, -114.18114, 0.0, 5.017981, 4.9530535 
9.00226e+2, 3.1843388e+2, -20097.604, -107685.29, 21252.316, 0.0063436725, -0.013044727, -15213.302, -15213.302, 0.0, 5.0146427, 4.9526215 
8.998559e+2, 3.2337555e+2, -20384.559, -91626.36, 17454.45, 0.00849175, -0.014764671, -16338.012, -16338.012, 0.0, 5.010738, 4.960386 
8.995058e+2, 3.2832992e+2, -1652.2699, -1453.9414, 19167.514, -0.0044276454, -0.08568737, 17614.666, 17614.666, 0.0, 5.0009317, 4.997622 
9.1644627e+2, 1.3522038e+2, -1527779.0, -1615817.8, 9310.029, -0.017046122, -0.0044561266, -1526805.3, 88037.1, 0.0, 5.067961, 5.0074625 
9.161377e+2, 1.4021777e+2, -1483254.6, -1570519.6, 12160.924, 0.015461403, -0.00047285506, -1481591.6, 84273.88, 0.0, 5.0669956, 5.0068965 
9.1582876e+2, 1.4521338e+2, -1439678.3, -1528310.8, 17907.29, 0.00845992, 0.0003921224, -1436197.0, 80711.57, 0.0, 5.0663238, 5.0051107 
9.15525e+2, 1.5020774e+2, -1394676.3, -1481616.9, 26246.84, -0.013699834, 0.001618932, -1387367.0, 80597.3, 0.0, 5.065627, 5.0046873 
9.1523755e+2, 1.5520014e+2, -1356854.0, -1444751.8, 39655.32, -0.013020527, 0.0045986525, -1341607.9, 77431.49, 0.0, 5.0644503, 5.0008287 
9.1495746e+2, 1.6019031e+2, -1309651.8, -1397179.8, 40640.81, -0.0026754944, 0.0033974613, -1293691.8, 76444.414, 0.0, 5.0641866, 5.0006437 
9.146758e+2, 1.6517948e+2, -1264261.9, -1352837.8, 40751.324, 0.0087160785, 0.00090372417, -1248366.0, 72876.17, 0.0, 5.0637836, 4.9994187 
9.1439307e+2, 1.7016782e+2, -1217992.9, -1305448.4, 43289.87, 0.013911407, -0.000998291, -1200189.1, 72167.0, 0.0, 5.063197, 4.9992905 
9.1411513e+2, 1.7515387e+2, -1179614.0, -1270146.3, 51547.51, 0.0088535, -0.0012383873, -1156278.6, 67213.875, 0.0, 5.0621433, 4.994991 
9.138404e+2, 1.8013762e+2, -1133209.3, -1222781.0, 53149.984, 0.00013027474, -0.0023166807, -1108492.0, 66159.37, 0.0, 5.061558, 4.994851 
9.1356575e+2, 1.8512076e+2, -1087943.6, -1178020.0, 54690.25, -0.0067218663, -0.0014313284, -1062133.6, 63682.574, 0.0, 5.0610065, 4.9937935 
9.1329175e+2, 1.9010319e+2, -1041571.2, -1130804.5, 56712.477, -0.007243863, -0.00005004527, -1014028.7, 62959.586, 0.0, 5.0604277, 4.99359 
9.1302025e+2, 1.95083e+2, -1002363.4, -1096893.6, 61751.28, -0.0034101182, 0.0022144867, -971864.7, 56321.363, 0.0, 5.059646, 4.9887633 
9.1275054e+2, 2.000601e+2, -956054.3, -1049447.8, 63498.34, 0.0023154113, 0.0018836646, -923930.9, 55479.77, 0.0, 5.0589976, 4.988636 
9.1248e+2, 2.0503622e+2, -911039.6, -1004637.2, 64745.082, 0.006429853, 0.0003249538, -877950.6, 52693.84, 0.0, 5.0583076, 4.987601 
9.12208e+2, 2.1001163e+2, -864687.3, -957411.06, 65579.2, 0.0060313893, -0.0009711964, -830737.0, 51148.42, 0.0, 5.057657, 4.987411 
9.119341e+2, 2.1498406e+2, -825527.56, -925610.8, 67320.234, 0.0035835807, -0.0005259995, -791687.25, 41468.195, 0.0, 5.0569773, 4.981823 
9.1165936e+2, 2.199534e+2, -779417.3, -877771.6, 69428.664, 0.00048472334, -0.0019526691, -743513.75, 40941.793, 0.0, 5.0561657, 4.98185 
9.113841e+2, 2.2492215e+2, -734374.25, -832027.6, 70860.695, -0.0008843741, -0.0032184843, -697147.0, 38614.203, 0.0, 5.0552964, 4.9811573 
9.1110736e+2, 2.2989033e+2, -688859.6, -785356.6, 71456.23, -0.00007324504, -0.004132017, -650888.0, 36184.344, 0.0, 5.0543876, 4.980824 
9.1082585e+2, 2.3485494e+2, -649850.44, -755918.8, 69644.4, 0.002104683, -0.0029085714, -615346.25, 23072.49, 0.0, 5.053794, 4.9743686 
9.1054064e+2, 2.3981594e+2, -604500.6, -708365.9, 72407.62, 0.0040601455, -0.004303596, -567327.4, 22473.205, 0.0, 5.0527215, 4.9743423 
9.1025496e+2, 2.4477656e+2, -559636.44, -662248.1, 74411.375, 0.005291523, -0.0030499338, -520557.84, 20629.354, 0.0, 5.051725, 4.973756 
9.09967e+2, 2.4973671e+2, -514237.9, -615274.5, 75140.67, 0.005852863, -0.0014267564, -474212.2, 18366.588, 0.0, 5.050741, 4.973472 
9.0967053e+2, 2.5469214e+2, -476079.13, -589841.5, 69650.56, 0.003673805, 0.0019789143, -443034.4, 982.1509, 0.0, 5.0501914, 4.965595 
9.0936726e+2, 2.5964335e+2, -431344.0, -542076.1, 72898.88, 0.002254431, 0.0023563418, -395169.63, 325.99628, 0.0, 5.0488267, 4.965683 
9.0906304e+2, 2.6459396e+2, -386890.1, -494837.66, 74761.336, 0.0023710683, -0.0008054383, -348655.28, -1676.3267, 0.0, 5.0474257, 4.965578 
9.0875566e+2, 2.6954368e+2, -342097.63, -449689.25, 75472.64, 0.00261613, -0.004057689, -303210.6, -4739.3564, 0.0, 5.0465493, 4.9645057 
9.084357e+2, 2.7448723e+2, -303858.44, -429243.16, 65717.08, -0.000046967943, -0.0024368842, -275726.44, -25702.76, 0.0, 5.0465097, 4.9547048 
9.0810496e+2, 2.7942583e+2, -261266.97, -382102.28, 68691.18, 0.0015497678, -0.005741863, -230203.64, -28578.93, 0.0, 5.0442214, 4.9549184 
9.0777296e+2, 2.8436497e+2, -218569.31, -335964.75, 67938.836, 0.002152354, 0.0012099673, -187483.36, -34257.25, 0.0, 5.042189, 4.954605 
9.074283e+2, 2.8930357e+2, -178832.4, -289861.2, 60053.098, 0.006038492, 0.008248191, -152565.25, -47731.68, 0.0, 5.038563, 4.9550304 
9.070706e+2, 2.9423308e+2, -159600.81, -289418.94, 57810.824, 0.009078267, 0.013705731, -137588.77, -81058.984, 0.0, 5.0343523, 4.9393835 
9.0670675e+2, 2.9915732e+2, -117678.15, -240977.53, 57934.555, 0.005668588, 0.024345843, -94728.21, -86450.805, 0.0, 5.0311246, 4.940498 
9.063382e+2, 3.0407757e+2, -87451.38, -209994.95, 54711.52, 0.004847525, 0.019596856, -66579.5, -66579.5, 0.0, 5.026046, 4.9360394 
9.059696e+2, 3.0899164e+2, -61028.395, -192745.14, 59273.027, -0.00278163, 0.023093808, -38283.06, -38283.06, 0.0, 5.0218897, 4.926314 
9.0560305e+2, 3.1390914e+2, -19031.574, -133516.72, 40265.8, -0.003932342, 0.048629723, -6288.1006, -6288.1006, 0.0, 5.021408, 4.9397283 
9.0523106e+2, 3.1882963e+2, -20408.47, -133088.28, 27800.295, 0.010987604, 0.002419647, -13922.894, -13922.894, 0.0, 5.019722, 4.9410896 
9.048596e+2, 3.2375935e+2, -12184.109, -100444.38, 19785.824, 0.023184756, -0.017390596, -7951.5767, -7951.5767, 0.0, 5.01621, 4.954899 
9.0448993e+2, 3.2872084e+2, -7810.1074, 17562.3, 8365.845, 0.0144393295, 0.03504386, 20072.383, 20072.383, 0.0, 4.9939756, 5.008104 
9.2150414e+2, 1.3553697e+2, -1528307.5, -1610569.1, 8776.75, -0.015397641, -0.0032384924, -1527381.6, 84359.81, 0.0, 5.066531, 5.009946 
9.211953e+2, 1.4053671e+2, -1481483.6, -1564307.9, 11348.239, 0.019628346, -0.00067973026, -1479956.9, 82783.52, 0.0, 5.066393, 5.0093093 
9.208858e+2, 1.455346e+2, -1437439.6, -1522235.8, 17464.465, 0.009752944, 0.00010402137, -1433983.5, 79777.17, 0.0, 5.0659685, 5.0073605 
9.2058176e+2, 1.5053114e+2, -1392417.5, -1475904.0, 26045.605, -0.014343655, 0.0011877094, -1384958.4, 79836.24, 0.0, 5.0653877, 5.0067515 
9.20294e+2, 1.555256e+2, -1354586.0, -1438995.6, 39250.574, -0.014525639, 0.0037735861, -1339155.3, 76693.8, 0.0, 5.0642123, 5.0029073 
9.200136e+2, 1.605178e+2, -1307274.5, -1391629.8, 40075.207, -0.0043543465, 0.00256525, -1291271.6, 75654.01, 0.0, 5.0640454, 5.0026116 
9.197315e+2, 1.6550884e+2, -1262019.1, -1347671.5, 40185.656, 0.008192679, 0.0005101108, -1246117.4, 71896.36, 0.0, 5.0636663, 5.0012493 
9.194484e+2, 1.7049913e+2, -1215336.9, -1299805.3, 42625.04, 0.014091663, -0.0010831661, -1197565.9, 71543.32, 0.0, 5.0631685, 5.001247 
9.1916984e+2, 1.7548728e+2, -1176544.1, -1263828.9, 50847.67, 0.009051225, -0.0010926479, -1153178.0, 67047.734, 0.0, 5.062161, 4.9971576 
9.188946e+2, 1.8047322e+2, -1130083.9, -1216362.0, 52452.492, 0.00025517226, -0.0018035942, -1105309.5, 66053.88, 0.0, 5.061584, 4.997056 
9.1861933e+2, 1.8545851e+2, -1084986.3, -1171911.3, 53921.613, -0.0068101524, -0.0012181632, -1059191.8, 63315.133, 0.0, 5.0610228, 4.995902 
9.183448e+2, 1.9044311e+2, -1038406.3, -1124116.1, 56149.082, -0.0074975444, -0.00035100634, -1010626.56, 63030.504, 0.0, 5.0604253, 4.995913 
9.180728e+2, 1.954253e+2, -998860.3, -1089443.8, 60967.492, -0.0032265014, 0.001154654, -968202.2, 56628.773, 0.0, 5.0596323, 4.991361 
9.1780245e+2, 2.0040493e+2, -952792.2, -1042483.06, 62768.203, 0.0029183307, 0.0006362235, -920495.2, 55535.168, 0.0, 5.058982, 4.9910746 
9.1753113e+2, 2.0538352e+2, -907879.75, -997862.8, 63863.78, 0.006659785, 0.00014725854, -874750.75, 52489.66, 0.0, 5.0582933, 4.9899764 
9.1725844e+2, 2.103615e+2, -861322.6, -950138.9, 64646.117, 0.0062251217, -0.0000006357839, -827301.1, 51155.617, 0.0, 5.0576344, 4.9899726 
9.1698366e+2, 2.1533677e+2, -821631.9, -917163.2, 66332.6, 0.0030937055, 0.0014167479, -787656.6, 42042.9, 0.0, 5.0569544, 4.984798 
9.16708e+2, 2.2030914e+2, -775587.3, -869427.0, 68344.52, -0.00089066254, 0.0007387873, -739606.94, 41363.402, 0.0, 5.056141, 4.9847984 
9.164319e+2, 2.2528075e+2, -730493.25, -823519.44, 69691.27, -0.0016540132, -0.0016102071, -693218.9, 39028.883, 0.0, 5.0552645, 4.9841747 
9.1615415e+2, 2.3025185e+2, -684793.8, -776492.25, 70331.7, -0.0008673502, -0.00393752, -646686.5, 36843.563, 0.0, 5.054367, 4.9839725 
9.158717e+2, 2.3521976e+2, -645017.44, -745387.7, 68328.89, 0.0024344025, -0.0042027216, -610424.1, 24419.525, 0.0, 5.053776, 4.978109 
9.155856e+2, 2.4018438e+2, -599672.1, -697837.25, 71081.03, 0.0052221715, -0.006418684, -562374.06, 23815.477, 0.0, 5.052709, 4.9780912 
9.152987e+2, 2.4514882e+2, -554644.3, -651308.2, 73193.39, 0.005846554, -0.004222608, -515265.1, 22273.6, 0.0, 5.051711, 4.9776645 
9.150096e+2, 2.5011298e+2, -509171.47, -604290.1, 73465.81, 0.0072068796, -0.0015250901, -469214.4, 19676.303, 0.0, 5.050737, 4.9774146 
9.147117e+2, 2.550728e+2, -470098.16, -576725.1, 67956.664, 0.0041026417, 0.001990224, -437037.8, 3247.4434, 0.0, 5.0501766, 4.9703 
9.1440696e+2, 2.600287e+2, -425638.72, -529573.3, 71143.2, 0.0012476542, 0.0029945048, -389504.06, 2214.3638, 0.0, 5.048819, 4.970179 
9.141012e+2, 2.6498368e+2, -380929.22, -481467.47, 72993.05, 0.00040692833, -0.0006642277, -342570.06, 589.4926, 0.0, 5.047388, 4.9704013 
9.1379243e+2, 2.699383e+2, -336179.3, -436180.94, 74294.41, -0.0020938998, -0.002844256, -296627.13, -2022.9431, 0.0, 5.046505, 4.9693847 
9.13471e+2, 2.7488714e+2, -296978.53, -414821.4, 63039.117, -0.0041748914, -0.00094933715, -269611.72, -23506.559, 0.0, 5.046599, 4.9599085 
9.13138e+2, 2.7983078e+2, -255434.25, -369781.22, 66164.93, -0.0023849898, -0.0030349093, -225162.86, -27504.746, 0.0, 5.0442853, 4.9593806 
9.128038e+2, 2.8477454e+2, -211547.77, -321367.6, 64580.49, -0.0005489032, 0.0054332996, -181688.94, -32473.85, 0.0, 5.0423117, 4.9598837 
9.12455e+2, 2.8971893e+2, -170820.3, -272962.84, 54719.066, 0.01120179, 0.009087378, -147042.05, -46275.266, 0.0, 5.0385947, 4.961238 
9.120923e+2, 2.946525e+2, -157547.64, -284072.84, 55421.453, 0.015949687, 0.013682857, -136704.98, -84280.57, 0.0, 5.0342007, 4.9413495 
9.11725e+2, 2.9957902e+2, -114922.805, -233670.75, 54900.98, 0.010274361, 0.02979702, -93430.305, -89280.18, 0.0, 5.0309286, 4.943177 
9.113499e+2, 3.0450296e+2, -87773.43, -208548.17, 50529.863, 0.002339274, 0.028884932, -69421.34, -69421.34, 0.0, 5.025619, 4.9366875 
9.1097647e+2, 3.0941412e+2, -71828.68, -215848.4, 60054.52, -0.020041311, 0.043891333, -50073.055, -50073.055, 0.0, 5.021636, 4.9180737 
9.1060925e+2, 3.143194e+2, -35681.984, -172346.84, 40066.12, -0.015311121, 0.06369831, -24801.947, -24801.947, 0.0, 5.021396, 4.9257207 
9.102363e+2, 3.1922436e+2, -36357.195, -170177.27, 28030.309, 0.0053183055, -0.0027458663, -30723.1, -30723.1, 0.0, 5.0197144, 4.927694 
9.098635e+2, 3.241416e+2, -19094.738, -113872.49, 14028.125, 0.039126743, -0.046473447, -17062.021, -17062.021, 0.0, 5.015709, 4.950176 
9.094635e+2, 3.291183e+2, 8731.074, 61281.676, -15083.361, 0.0009386677, 0.09057064, 65303.227, 65303.227, 0.0, 4.9924703, 5.025209 
9.265604e+2, 1.3585415e+2, -1535558.6, -1608517.5, 9558.662, -0.004460724, -0.00087371754, -1534327.1, 74307.06, 0.0, 5.0628376, 5.0124264 
9.262503e+2, 1.40856e+2, -1486826.0, -1561331.1, 12112.872, 0.015689695, -0.0008345979, -1484906.3, 74705.766, 0.0, 5.063374, 5.0117626 
9.2594093e+2, 1.4585607e+2, -1441970.6, -1519088.8, 18314.994, 0.006021082, -0.0008367991, -1437842.0, 72768.73, 0.0, 5.063293, 5.0096974 
9.256372e+2, 1.5085474e+2, -1396628.3, -1473147.1, 26604.344, -0.016289737, 0.00020555563, -1388287.5, 73335.82, 0.0, 5.0629077, 5.0088754 
9.253495e+2, 1.5585119e+2, -1357863.6, -1435832.0, 39742.395, -0.014419785, 0.0022536106, -1341177.1, 71480.74, 0.0, 5.062058, 5.005017 
9.250692e+2, 1.6084534e+2, -1310398.4, -1388730.6, 40464.055, -0.0018109108, 0.000823644, -1293250.0, 70465.086, 0.0, 5.062016, 5.00457 
9.2478687e+2, 1.6583832e+2, -1263967.4, -1344102.0, 40364.953, 0.010576346, -0.00052221026, -1247160.0, 67624.57, 0.0, 5.062021, 5.003253 
9.2450327e+2, 1.7083065e+2, -1216610.6, -1295744.4, 43069.53, 0.014961389, -0.0012346184, -1197692.3, 68168.19, 0.0, 5.061761, 5.003293 
9.2422426e+2, 1.75821e+2, -1176627.6, -1258703.3, 51092.723, 0.008369508, -0.00014655021, -1152132.5, 64823.246, 0.0, 5.061054, 4.999433 
9.239484e+2, 1.8080921e+2, -1129356.0, -1210967.8, 52674.176, -0.0013914292, -0.000010870889, -1103530.9, 64540.582, 0.0, 5.060786, 4.999284 
9.2367274e+2, 1.8579654e+2, -1083683.4, -1166276.3, 54044.83, -0.007836969, -0.0001631981, -1056963.4, 62231.32, 0.0, 5.060432, 4.9981217 
9.233978e+2, 1.907832e+2, -1036551.25, -1118226.9, 56031.344, -0.007852067, -0.00035881167, -1008054.8, 62269.527, 0.0, 5.060017, 4.998147 
9.2312527e+2, 1.9576766e+2, -996133.94, -1082360.4, 60638.4, -0.002590274, -0.00005817013, -964844.44, 56631.184, 0.0, 5.059363, 4.9939494 
9.2285436e+2, 2.0074973e+2, -949935.4, -1035550.56, 62207.434, 0.0044012093, -0.0010538307, -917229.75, 55421.01, 0.0, 5.0588045, 4.993575 
9.2258227e+2, 2.0573081e+2, -904832.94, -991075.2, 63382.824, 0.0074580614, -0.0005680982, -871293.7, 52543.074, 0.0, 5.0582376, 4.9923778 
9.223088e+2, 2.1071137e+2, -857717.6, -942655.1, 64193.402, 0.006744751, 0.00050216145, -823216.3, 51811.574, 0.0, 5.057699, 4.9925656 
9.220332e+2, 2.156895e+2, -817127.2, -908301.1, 65699.96, 0.0031018057, 0.0027579768, -782747.56, 43495.574, 0.0, 5.0571394, 4.987822 
9.217567e+2, 2.206649e+2, -770896.5, -860456.3, 67785.914, -0.0013213088, 0.0024950004, -734435.0, 43049.613, 0.0, 5.056397, 4.9878383 
9.2147976e+2, 2.2563939e+2, -725561.06, -814689.44, 68733.06, -0.0016881492, -0.0004923414, -688209.44, 40524.324, 0.0, 5.055671, 4.9871016 
9.2120105e+2, 2.3061341e+2, -678999.06, -766690.25, 69564.02, -0.0013096313, -0.0038429953, -640615.75, 39371.395, 0.0, 5.0549736, 4.9871655 
9.2091763e+2, 2.3558465e+2, -638367.4, -733933.0, 67258.43, 0.002932474, -0.005243579, -603646.25, 27621.625, 0.0, 5.0544305, 4.981869 
9.206305e+2, 2.4055293e+2, -593335.1, -686795.6, 70098.914, 0.0064464123, -0.007988984, -555818.25, 26759.512, 0.0, 5.053313, 4.981744 
9.203425e+2, 2.4552116e+2, -548205.3, -639264.6, 71938.7, 0.006486526, -0.0052406923, -508599.03, 25290.605, 0.0, 5.0521636, 4.98175 
9.200523e+2, 2.5048938e+2, -503261.56, -593005.06, 72022.07, 0.009009461, -0.0011140066, -463276.66, 21925.008, 0.0, 5.0510917, 4.9812956 
9.197529e+2, 2.554536e+2, -462772.97, -562867.0, 66541.805, 0.0049405834, 0.0022403924, -429558.28, 6994.665, 0.0, 5.0506687, 4.9750366 
9.194467e+2, 2.6041412e+2, -418743.84, -516781.75, 69732.2, 0.0012387765, 0.0037515166, -382525.25, 5415.088, 0.0, 5.0493455, 4.9745326 
9.191393e+2, 2.6537353e+2, -373466.13, -467806.47, 71628.17, -0.000607864, -0.00014601547, -334871.38, 4467.277, 0.0, 5.0480223, 4.97503 
9.188292e+2, 2.703331e+2, -327887.28, -420475.06, 73663.27, -0.0061981617, -0.0015544066, -287178.84, 3556.7322, 0.0, 5.0471506, 4.9747467 
9.185063e+2, 2.7528727e+2, -289384.44, -400110.78, 60823.496, -0.007167019, 0.0006133658, -262500.56, -20315.506, 0.0, 5.047003, 4.9650736 
9.1817105e+2, 2.8023577e+2, -250199.88, -357985.3, 64122.7, -0.0057822624, -0.00044162688, -220330.16, -26638.9, 0.0, 5.044214, 4.9637103 
9.178345e+2, 2.851843e+2, -205285.66, -306762.78, 61107.19, -0.0029793566, 0.009474734, -176598.22, -31395.467, 0.0, 5.042101, 4.9653144 
9.174814e+2, 2.9013452e+2, -163449.61, -256084.03, 49050.98, 0.017698074, 0.008839748, -142303.64, -45605.367, 0.0, 5.038341, 4.9675817 
9.171137e+2, 2.9507217e+2, -156037.19, -278870.88, 53384.938, 0.022609474, 0.012593486, -136078.48, -87761.8, 0.0, 5.033893, 4.9432983 
9.167427e+2, 3.0000123e+2, -111360.055, -223889.9, 52049.547, 0.014090074, 0.034173124, -90977.1, -90959.27, 0.0, 5.030709, 4.9467087 
9.163605e+2, 3.0492857e+2, -90381.71, -209867.9, 48031.44, -0.0037065635, 0.03609997, -73468.06, -73468.06, 0.0, 5.024845, 4.9364104 
9.159829e+2, 3.0983597e+2, -88655.21, -243154.19, 61919.035, -0.03918249, 0.062233377, -66902.42, -66902.42, 0.0, 5.019667, 4.909015 
9.1561604e+2, 3.1472796e+2, -59032.52, -213730.64, 41875.195, -0.019728491, 0.06354407, -48424.72, -48424.72, 0.0, 5.0191016, 4.91176 
9.1524315e+2, 3.196167e+2, -60179.355, -217142.34, 30667.453, 0.013633143, -0.027638353, -54400.316, -54400.316, 0.0, 5.01824, 4.911422 
9.148681e+2, 3.2452047e+2, -25658.525, -121998.98, 4526.1294, 0.077407286, -0.111671604, -25446.354, -25446.354, 0.0, 5.014426, 4.947504 
9.144283e+2, 3.2951468e+2, 27169.135, 110066.305, -38377.176, -0.053824734, -0.004325835, 125104.83, 125104.83, 0.0, 4.9908285, 5.044161 
9.316109e+2, 1.3617158e+2, -1551681.1, -1611702.4, 7123.543, 0.004583413, 0.0022282314, -1550847.3, 54677.336, 0.0, 5.0561047, 5.0147166 
9.313001e+2, 1.4117561e+2, -1501534.9, -1564008.3, 10048.257, 0.010458195, 0.00004779958, -1499958.5, 56521.938, 0.0, 5.057165, 5.013952 
9.309915e+2, 1.4617793e+2, -1454644.8, -1520866.3, 15863.8545, 0.001390801, -0.0002736156, -1451040.6, 56416.008, 0.0, 5.057806, 5.0118246 
9.306885e+2, 1.5117875e+2, -1407217.8, -1474333.6, 24180.186, -0.01836957, 0.0003357804, -1399413.6, 59034.324, 0.0, 5.0581813, 5.0108438 
9.304013e+2, 1.561772e+2, -1367261.8, -1436597.5, 37507.03, -0.013957473, 0.0015795133, -1350854.8, 58607.652, 0.0, 5.057727, 5.006951 
9.3012136e+2, 1.6117334e+2, -1319199.4, -1389564.5, 38212.043, 0.0010079198, -0.000104098515, -1302439.9, 58060.156, 0.0, 5.057973, 5.00633 
9.298389e+2, 1.6616832e+2, -1272011.9, -1344180.3, 38101.746, 0.01256524, -0.0006683076, -1255619.4, 55931.0, 0.0, 5.0581546, 5.0051785 
9.295551e+2, 1.711628e+2, -1224191.8, -1295564.5, 41374.418, 0.015500001, -0.00024033748, -1205239.8, 57365.965, 0.0, 5.058079, 5.0052004 
9.2927575e+2, 1.7615546e+2, -1183341.1, -1257427.9, 49260.617, 0.0071059144, 0.0020450922, -1158749.9, 54928.813, 0.0, 5.057513, 5.00165 
9.2899954e+2, 1.8114603e+2, -1136006.8, -1209634.9, 51032.402, -0.0039408538, 0.0027886766, -1109895.5, 54875.926, 0.0, 5.05728, 5.0014896 
9.2872363e+2, 1.8613543e+2, -1090343.4, -1165075.0, 52753.91, -0.009468146, 0.0015050311, -1063062.6, 52811.516, 0.0, 5.0569735, 5.0002437 
9.2844856e+2, 1.9112417e+2, -1042865.56, -1116521.6, 54826.37, -0.008015463, -0.00016709877, -1013646.4, 53336.62, 0.0, 5.0566196, 5.0004067 
9.281758e+2, 1.96111e+2, -1001897.1, -1079413.4, 59678.3, -0.0012830672, -0.0011658232, -969495.6, 48615.242, 0.0, 5.055977, 4.9966235 
9.279044e+2, 2.0109563e+2, -955842.7, -1032806.25, 61626.39, 0.006436419, -0.0027183217, -921670.06, 47590.59, 0.0, 5.0554247, 4.996161 
9.276317e+2, 2.060793e+2, -910651.5, -987971.44, 62790.62, 0.008965545, -0.0017417321, -875573.75, 44847.59, 0.0, 5.054846, 4.99508 
9.273575e+2, 2.110626e+2, -863653.6, -939318.94, 64219.02, 0.0070413975, 0.00007290513, -826951.8, 44634.05, 0.0, 5.054248, 4.995359 
9.2708117e+2, 2.1604376e+2, -822527.94, -903267.1, 65750.46, 0.002835929, 0.0028454363, -785742.94, 37028.336, 0.0, 5.053613, 4.9912252 
9.2680395e+2, 2.2102244e+2, -776622.44, -855646.44, 68107.72, -0.0015280824, 0.0029309415, -737395.25, 36585.383, 0.0, 5.0528073, 4.9911733 
9.2652625e+2, 2.2600007e+2, -731403.4, -809671.75, 69507.555, -0.0012638408, 0.0000016988138, -690770.5, 34428.625, 0.0, 5.052027, 4.99052 
9.262468e+2, 2.3097737e+2, -684911.25, -761167.9, 70442.92, 0.0006611334, -0.0032673595, -642939.75, 33481.0, 0.0, 5.051228, 4.9907966 
9.2596227e+2, 2.3595233e+2, -643888.0, -726264.4, 68392.57, 0.004061567, -0.004843244, -605238.8, 22426.422, 0.0, 5.0504785, 4.9863257 
9.2567384e+2, 2.4092478e+2, -599285.75, -678952.06, 71635.68, 0.0062983236, -0.0072458717, -557153.4, 21781.328, 0.0, 5.0491877, 4.9863157 
9.2538434e+2, 2.4589707e+2, -555139.94, -631950.06, 74066.53, 0.005030441, -0.0050881724, -510113.6, 20092.68, 0.0, 5.0477533, 4.98624 
9.250925e+2, 2.5086957e+2, -510399.9, -584247.0, 74770.81, 0.0058697024, -0.0011168253, -463932.7, 17543.256, 0.0, 5.046361, 4.986409 
9.247918e+2, 2.55839e+2, -470083.88, -551251.25, 69810.484, 0.0039438293, 0.0025947723, -429917.72, 2857.904, 0.0, 5.0453863, 4.9813643 
9.244844e+2, 2.608053e+2, -427941.47, -505490.9, 74411.81, 0.00417752, 0.0045164023, -382807.9, 1298.5999, 0.0, 5.0434265, 4.9809637 
9.241759e+2, 2.657704e+2, -383577.28, -456733.66, 77731.68, 0.0060326206, 0.0018478283, -334247.5, 1201.4904, 0.0, 5.041847, 4.9814615 
9.238645e+2, 2.7073595e+2, -339969.16, -407144.22, 80368.09, 0.003433138, -0.0002579766, -286452.4, 335.1022, 0.0, 5.0397196, 4.9825015 
9.2353874e+2, 2.7569735e+2, -303650.38, -383001.5, 69615.625, 0.0021366915, 0.0000031934992, -263198.0, -25031.479, 0.0, 5.0381, 4.974699 
9.232004e+2, 2.8065398e+2, -265362.4, -339869.53, 78317.586, 0.0034478668, 0.0000950949, -215889.55, -26295.955, 0.0, 5.035265, 4.9734883 
9.2286134e+2, 2.8561047e+2, -219727.19, -283194.9, 80318.49, 0.008911752, 0.00915486, -165100.77, -24074.209, 0.0, 5.032984, 4.9768953 
9.2250526e+2, 2.9056922e+2, -164699.53, -224727.98, 71746.23, 0.03121021, 0.008198073, -116942.46, -24504.152, 0.0, 5.034281, 4.9794803 
9.221304e+2, 2.955182e+2, -155296.83, -232718.34, 78997.3, 0.02416196, 0.013273828, -106035.445, -62089.574, 0.0, 5.028618, 4.9606204 
9.217469e+2, 3.004595e+2, -148786.42, -183389.9, 88246.54, 0.0047422373, 0.027350085, -76161.516, -76161.516, 0.0, 5.011014, 4.9674163 
9.36658e+2, 1.3648741e+2, -1548090.8, -1604392.0, 7752.077, 0.01041336, 0.004550561, -1547042.9, 55387.63, 0.0, 5.056143, 5.017152 
9.363471e+2, 1.414936e+2, -1498077.8, -1556890.5, 10671.676, 0.0042342455, -0.00009883981, -1496201.3, 57163.18, 0.0, 5.0571795, 5.0163474 
9.3603945e+2, 1.4649817e+2, -1451555.4, -1514433.0, 16593.479, -0.0038906168, -0.0006890264, -1447445.0, 56873.473, 0.0, 5.0578165, 5.0139923 
9.357377e+2, 1.5150107e+2, -1404141.0, -1468041.0, 24377.557, -0.02062112, -0.000778992, -1395903.1, 59385.94, 0.0, 5.058203, 5.012973 
9.354512e+2, 1.565016e+2, -1364084.0, -1430139.8, 37525.16, -0.013650973, -0.00039192635, -1347122.1, 59160.652, 0.0, 5.057751, 5.0091443 
9.3517166e+2, 1.6149987e+2, -1316301.4, -1383650.6, 38134.71, 0.0033492306, -0.001952309, -1299101.3, 58198.246, 0.0, 5.0579944, 5.0083456 
9.3488914e+2, 1.6649702e+2, -1269000.4, -1338017.5, 37781.32, 0.014096207, -0.0013269463, -1252339.9, 55989.086, 0.0, 5.0581727, 5.007288 
9.346053e+2, 1.7149375e+2, -1221176.3, -1289252.0, 41296.453, 0.015581241, 0.00048069737, -1201698.0, 57664.508, 0.0, 5.0580807, 5.007372 
9.3432564e+2, 1.7648889e+2, -1179816.3, -1250132.6, 48858.605, 0.0054397755, 0.0039236913, -1154780.9, 55630.8, 0.0, 5.0575233, 5.0041647 
9.340491e+2, 1.8148199e+2, -1132701.5, -1202754.6, 50575.28, -0.006706043, 0.0050816494, -1106208.0, 55271.71, 0.0, 5.0572844, 5.003871 
9.33773e+2, 1.8647367e+2, -1086878.8, -1157816.6, 52207.137, -0.011273795, 0.0026509294, -1059231.6, 53328.145, 0.0, 5.0569744, 5.0027637 
9.3349767e+2, 1.9146474e+2, -1039563.3, -1109531.8, 54317.42, -0.0084768, -0.00016646634, -1009938.9, 53706.7, 0.0, 5.056615, 5.0028424 
9.332246e+2, 1.9645415e+2, -997919.75, -1071044.3, 58939.652, -0.00026838444, -0.002449219, -965122.94, 49624.863, 0.0, 5.0559783, 4.999544 
9.3295276e+2, 2.014416e+2, -952025.06, -1024770.56, 60742.645, 0.008110044, -0.004377462, -917597.8, 48271.992, 0.0, 5.0554285, 4.998973 
9.326793e+2, 2.0642814e+2, -906765.94, -979750.94, 61981.34, 0.010165722, -0.0028210902, -871332.2, 45670.355, 0.0, 5.0548463, 4.997967 
9.3240434e+2, 2.1141438e+2, -859776.4, -931119.75, 63384.395, 0.0072583742, -0.00042729688, -822715.3, 45422.93, 0.0, 5.0542507, 4.99825 
9.3212724e+2, 2.1639884e+2, -817750.2, -893178.6, 64674.1, 0.0022373246, 0.0028297368, -780597.2, 38694.26, 0.0, 5.053622, 4.994787 
9.318492e+2, 2.2138105e+2, -772030.6, -845939.44, 66840.8, -0.0027394348, 0.0033008256, -732608.8, 37857.152, 0.0, 5.0528173, 4.9946103 
9.3157053e+2, 2.2636211e+2, -726749.0, -799856.25, 68527.945, -0.0027622918, 0.00066228287, -685635.06, 36016.21, 0.0, 5.052046, 4.9940076 
9.312903e+2, 2.3134296e+2, -680086.56, -751016.1, 69117.98, 0.00022284198, -0.0023732332, -637865.8, 34972.676, 0.0, 5.05125, 4.9944153 
9.310045e+2, 2.3632205e+2, -637788.94, -713398.1, 66780.06, 0.003730712, -0.0039986707, -598855.25, 25187.576, 0.0, 5.050507, 4.9909196 
9.3071485e+2, 2.4129914e+2, -593276.7, -666170.06, 70092.48, 0.005607532, -0.0057822927, -550721.4, 24545.494, 0.0, 5.0492067, 4.990896 
9.3042386e+2, 2.4627595e+2, -549323.1, -619541.7, 71824.39, 0.0044886246, -0.004084962, -504486.13, 22007.74, 0.0, 5.047759, 4.990706 
9.3013024e+2, 2.512531e+2, -503737.56, -569929.5, 72993.625, 0.0034689545, -0.001088792, -456687.34, 21030.121, 0.0, 5.046375, 4.9915743 
9.2982775e+2, 2.5622836e+2, -461397.7, -532655.25, 67239.125, 0.0028428994, 0.0021456752, -420931.06, 8028.5635, 0.0, 5.045415, 4.9880805 
9.2951846e+2, 2.612012e+2, -419305.47, -487127.88, 71969.76, 0.0025466115, 0.0032027205, -373657.8, 6568.25, 0.0, 5.0434914, 4.9876003 
9.2920834e+2, 2.6617295e+2, -374642.25, -437608.28, 75333.49, 0.0048001492, 0.0014132281, -324477.75, 7026.31, 0.0, 5.041905, 4.9884033 
9.288949e+2, 2.711456e+2, -330547.53, -387236.63, 76614.055, 0.0051876474, -0.0000433456, -277202.88, 5570.1353, 0.0, 5.0397763, 4.9897795 
9.285658e+2, 2.7611637e+2, -289117.56, -351865.97, 65518.797, 0.005135265, -0.0012975021, -247848.45, -13788.198, 0.0, 5.0381985, 4.9860616 
9.2822486e+2, 2.8108463e+2, -250822.55, -308429.72, 74321.44, 0.007224777, 0.00058534206, -199918.4, -14545.132, 0.0, 5.0353317, 4.9849944 
9.2788297e+2, 2.86052e+2, -205138.19, -253812.86, 77087.516, 0.009420406, 0.0060695275, -148637.47, -11939.888, 0.0, 5.0335007, 4.987522 
9.275264e+2, 2.9102123e+2, -148275.8, -194491.22, 70973.35, 0.020522408, 0.0069719655, -96743.15, -8739.199, 0.0, 5.035561, 4.990169 
9.271447e+2, 2.9598758e+2, -117847.68, -169629.94, 61176.414, 0.0074912063, 0.018605525, -77309.12, -37969.74, 0.0, 5.0316057, 4.983168 
9.267442e+2, 3.009492e+2, -105462.31, -118807.21, 68868.97, -0.024944505, 0.02061619, -42943.316, -42943.316, 0.0, 5.0163445, 4.9895 
9.417049e+2, 1.3680346e+2, -1544734.3, -1597212.9, 8593.687, 0.013304429, 0.0056633065, -1543362.9, 55970.52, 0.0, 5.0560966, 5.0195904 
9.413943e+2, 1.4181194e+2, -1496616.5, -1551150.3, 11165.453, 0.0018013491, 0.000038415932, -1494419.0, 55825.863, 0.0, 5.0565944, 5.0185704 
9.4108766e+2, 1.4681862e+2, -1449850.4, -1508686.5, 17649.447, -0.007155413, -0.0008740086, -1444962.1, 56216.094, 0.0, 5.057358, 5.016155 
9.407871e+2, 1.5182357e+2, -1402081.3, -1462517.1, 24482.158, -0.021804169, -0.0013451353, -1393408.4, 58720.3, 0.0, 5.0579348, 5.014981 
9.405012e+2, 1.5682611e+2, -1361471.8, -1424102.8, 37324.906, -0.013020166, -0.0018603087, -1344065.5, 59036.848, 0.0, 5.057611, 5.011275 
9.4022197e+2, 1.6182649e+2, -1313848.9, -1377963.8, 37814.01, 0.0054711583, -0.0032600223, -1296332.4, 57766.215, 0.0, 5.0578628, 5.0103564 
9.3993944e+2, 1.668258e+2, -1266424.4, -1332013.4, 37494.69, 0.015499197, -0.0017701943, -1249405.9, 55701.16, 0.0, 5.0580344, 5.0094166 
9.3965554e+2, 1.7182481e+2, -1218322.9, -1283039.9, 40944.01, 0.015646396, 0.0012341969, -1198494.4, 57624.168, 0.0, 5.0580215, 5.0095434 
9.393755e+2, 1.7682241e+2, -1176469.1, -1242911.3, 48428.113, 0.0037911872, 0.005725423, -1150962.8, 56181.094, 0.0, 5.0574684, 5.006688 
9.390987e+2, 1.8181801e+2, -1129497.4, -1195860.5, 50098.902, -0.009260438, 0.007042745, -1102588.0, 55599.31, 0.0, 5.0572414, 5.006283 
9.388223e+2, 1.8681195e+2, -1083433.9, -1150577.6, 51554.68, -0.012814389, 0.0036176648, -1055483.8, 53761.105, 0.0, 5.0569677, 5.005285 
9.3854684e+2, 1.9180538e+2, -1036308.3, -1102707.5, 53856.965, -0.008850992, -0.00024091898, -1006240.3, 54067.15, 0.0, 5.0566278, 5.005214 
9.382734e+2, 1.9679736e+2, -993914.4, -1062671.4, 58172.89, 0.00079291145, -0.0038441666, -960720.94, 50663.125, 0.0, 5.055992, 5.0024643 
9.3800104e+2, 2.0178768e+2, -948302.5, -1016951.6, 59736.53, 0.009813154, -0.005936749, -913731.25, 48746.848, 0.0, 5.055434, 5.001711 
9.377269e+2, 2.0677705e+2, -902814.6, -971412.56, 61289.195, 0.011128029, -0.0038027242, -866879.8, 46703.195, 0.0, 5.054854, 5.0008965 
9.3745124e+2, 2.1176623e+2, -855899.4, -922919.3, 62537.63, 0.0074369465, -0.0008652474, -818459.56, 46230.3, 0.0, 5.0542536, 5.0011454 
9.371733e+2, 2.1675399e+2, -812980.56, -883101.9, 63598.03, 0.0015705387, 0.0028291726, -775419.2, 40391.62, 0.0, 5.05363, 4.998351 
9.3689436e+2, 2.2173974e+2, -767424.56, -836194.2, 66001.49, -0.0042500356, 0.003594712, -727388.25, 39562.57, 0.0, 5.0528297, 4.9980674 
9.366149e+2, 2.2672422e+2, -722145.3, -790175.75, 67031.22, -0.0037397027, 0.0014209638, -680992.6, 37110.195, 0.0, 5.0520635, 4.9974504 
9.363338e+2, 2.3170862e+2, -675288.6, -740893.5, 67858.0, -0.00022951927, -0.0014920591, -632720.56, 36534.895, 0.0, 5.051271, 4.998029 
9.360468e+2, 2.3669183e+2, -631703.75, -700552.3, 65168.066, 0.0032703476, -0.0032404165, -592426.5, 27993.209, 0.0, 5.0505357, 4.9955153 
9.357557e+2, 2.4167357e+2, -587309.1, -653470.2, 68016.8, 0.0049923304, -0.0045754886, -544754.94, 26843.408, 0.0, 5.049221, 4.9954557 
9.354632e+2, 2.4665487e+2, -543339.25, -606724.75, 70165.805, 0.0035490904, -0.0034104472, -498040.63, 24740.313, 0.0, 5.0477667, 4.9953294 
9.351679e+2, 2.5163674e+2, -497305.34, -556147.75, 71134.69, 0.0011672534, -0.0011207006, -449747.66, 24210.168, 0.0, 5.04639, 4.996559 
9.348636e+2, 2.566178e+2, -452739.03, -514105.1, 64671.344, 0.0019799103, 0.0013636299, -411841.1, 13301.667, 0.0, 5.0454445, 4.9948015 
9.3455243e+2, 2.6159722e+2, -410792.3, -469048.0, 69714.516, 0.0011127325, 0.00156442, -364365.25, 11979.38, 0.0, 5.0435615, 4.994156 
9.342407e+2, 2.665756e+2, -365893.34, -418889.5, 72690.69, 0.004074021, 0.0009507034, -315021.63, 12536.265, 0.0, 5.041958, 4.9952235 
9.3392515e+2, 2.7155542e+2, -321013.94, -367045.34, 72990.266, 0.0070304153, 0.00034871482, -267496.63, 11260.053, 0.0, 5.0398364, 4.9971848 
9.335927e+2, 2.7653557e+2, -274660.06, -320863.13, 61438.58, 0.006966163, -0.0025809614, -232123.34, -2171.1448, 0.0, 5.038299, 4.997441 
9.332489e+2, 2.8151545e+2, -236552.11, -277558.4, 70327.72, 0.0089461375, 0.00046701293, -183799.77, -2648.6833, 0.0, 5.0353985, 4.996359 
9.3290454e+2, 2.864935e+2, -191843.64, -226162.9, 74895.37, 0.0060724085, 0.0023671226, -132167.28, 201.06938, 0.0, 5.033812, 4.9976535 
9.325482e+2, 2.9147312e+2, -133528.03, -164397.78, 70134.87, 0.0090467315, 0.0036241878, -77149.71, 6421.0405, 0.0, 5.0360765, 5.001216 
9.321597e+2, 2.9645595e+2, -86018.02, -110010.77, 44648.63, -0.0023995808, 0.013382159, -51782.234, -17040.346, 0.0, 5.03281, 5.005502 
9.317429e+2, 3.0144042e+2, -75653.74, -63376.844, 52322.113, -0.043223925, 0.029748132, -16834.328, -16834.328, 0.0, 5.0174856, 5.010305 
9.467496e+2, 1.3711897e+2, -1551362.5, -1594782.8, 8122.0923, 0.008574864, 0.0029035362, -1549893.0, 46347.066, 0.0, 5.0526514, 5.0220594 
9.464405e+2, 1.4213012e+2, -1502618.6, -1549306.9, 11549.978, 0.0049368846, 0.0013493112, -1499917.6, 47208.02, 0.0, 5.0535736, 5.0206227 
9.46135e+2, 1.4713886e+2, -1454285.0, -1506035.0, 18171.28, -0.005901015, 0.0005357739, -1448541.8, 49497.836, 0.0, 5.0548687, 5.0182195 
9.458355e+2, 1.5214565e+2, -1406602.4, -1460507.5, 24854.736, -0.020715695, -0.00030479903, -1396891.6, 52080.934, 0.0, 5.055526, 5.0167985 
9.455502e+2, 1.5715005e+2, -1365382.6, -1421672.9, 37103.523, -0.012163563, -0.0013237704, -1346957.3, 52971.848, 0.0, 5.0553417, 5.013189 
9.452714e+2, 1.6215241e+2, -1316640.6, -1374433.8, 37094.582, 0.006600063, -0.002904609, -1298515.8, 52390.25, 0.0, 5.055852, 5.0125237 
9.4498897e+2, 1.6715388e+2, -1268347.1, -1327828.6, 37085.055, 0.016648421, -0.0018133575, -1250550.4, 51342.043, 0.0, 5.056285, 5.011683 
9.447051e+2, 1.721552e+2, -1219761.6, -1278743.6, 40064.016, 0.016553886, 0.0011454697, -1199504.9, 53375.76, 0.0, 5.056427, 5.011789 
9.4442505e+2, 1.7715529e+2, -1176716.5, -1237199.9, 47551.883, 0.0038169862, 0.0052335905, -1150604.5, 53276.523, 0.0, 5.0560937, 5.009325 
9.44148e+2, 1.8215343e+2, -1129459.0, -1190651.3, 49027.72, -0.009721449, 0.006377631, -1102263.8, 52635.586, 0.0, 5.0560985, 5.0086417 
9.4387144e+2, 1.871498e+2, -1082536.1, -1144953.5, 50542.03, -0.01389677, 0.003681015, -1054343.8, 51589.94, 0.0, 5.0561204, 5.0076566 
9.4359577e+2, 1.9214565e+2, -1034758.0, -1096926.9, 52736.535, -0.009791312, 0.00042973086, -1004626.56, 52346.395, 0.0, 5.0560503, 5.0075173 
9.4332206e+2, 1.9714034e+2, -990690.6, -1055017.1, 56573.984, 0.00060904643, -0.002956417, -957776.25, 50247.258, 0.0, 5.0557585, 5.0052714 
9.430493e+2, 2.0213354e+2, -944472.5, -1009123.06, 58104.48, 0.010276347, -0.004916288, -910306.75, 48782.863, 0.0, 5.055444, 5.004473 
9.4277465e+2, 2.0712571e+2, -898384.3, -963200.1, 59158.086, 0.011929823, -0.0033366587, -863338.9, 46827.88, 0.0, 5.05505, 5.0037165 
9.4249827e+2, 2.1211773e+2, -851078.4, -914448.9, 60664.156, 0.0076070437, -0.0010523357, -814323.2, 46922.0, 0.0, 5.054585, 5.0040045 
9.422195e+2, 2.1710874e+2, -807119.44, -872674.25, 61485.285, 0.0015275246, 0.0022153642, -770220.44, 42113.55, 0.0, 5.0540223, 5.0018826 
9.419397e+2, 2.2209805e+2, -761959.0, -826547.75, 63698.164, -0.0043764357, 0.0031723843, -722836.44, 40602.703, 0.0, 5.053209, 5.001341 
9.416594e+2, 2.2708601e+2, -716517.2, -779948.8, 64954.938, -0.00392916, 0.001778239, -675948.56, 38608.61, 0.0, 5.0523996, 5.000959 
9.413773e+2, 2.3207408e+2, -669670.25, -730585.4, 65697.45, -0.0006035126, -0.0005675617, -627713.56, 37960.773, 0.0, 5.051598, 5.0015817 
9.41089e+2, 2.3706147e+2, -624515.8, -687397.1, 62633.508, 0.002886611, -0.0019761783, -585874.56, 30923.266, 0.0, 5.0509753, 5.0000534 
9.407967e+2, 2.4204786e+2, -580117.4, -640686.94, 65290.176, 0.004995139, -0.0028718377, -538430.1, 29500.75, 0.0, 5.0497513, 4.9998336 
9.4050264e+2, 2.4703364e+2, -535204.5, -592794.75, 67486.5, 0.0035172417, -0.0024582583, -490626.66, 28442.598, 0.0, 5.0485015, 5.0000405 
9.402057e+2, 2.5202027e+2, -488672.84, -541825.75, 68144.63, -0.00006523755, -0.0012626487, -442105.63, 28093.889, 0.0, 5.047269, 5.001373 
9.398997e+2, 2.570071e+2, -442250.3, -494862.25, 61148.49, 0.0020517465, -0.00028825225, -401989.47, 19338.176, 0.0, 5.0461555, 5.0014973 
9.395865e+2, 2.6199314e+2, -401567.75, -450865.4, 66726.29, 0.00039103098, -0.0009326931, -355083.2, 17381.197, 0.0, 5.04393, 5.00064 
9.3927306e+2, 2.6697823e+2, -357966.3, -400929.38, 69237.125, 0.004229966, 0.00013355816, -306954.84, 16656.793, 0.0, 5.0417886, 5.0018854 
9.389552e+2, 2.7196532e+2, -312585.9, -346962.06, 68999.17, 0.009034227, 0.0001692394, -258666.22, 16073.188, 0.0, 5.0394297, 5.0047784 
9.386192e+2, 2.7695498e+2, -260262.83, -289950.38, 57182.67, 0.007539966, -0.0038064944, -216028.72, 9813.573, 0.0, 5.0384135, 5.0088415 
9.3827266e+2, 2.8194645e+2, -222286.22, -246949.14, 66286.27, 0.008576638, -0.000007847525, -167194.13, 9732.557, 0.0, 5.0355434, 5.00765 
9.379261e+2, 2.8693497e+2, -178944.75, -199052.66, 73869.984, -0.0010861384, -0.0021695185, -114447.67, 13591.362, 0.0, 5.0340996, 5.0076404 
9.3757075e+2, 2.919249e+2, -119778.61, -135170.73, 68579.22, -0.0010069624, -0.0023011267, -58464.973, 20673.139, 0.0, 5.03627, 5.0121603 
9.371753e+2, 2.969236e+2, -54202.902, -51171.492, 27756.996, -0.00505469, -0.002559724, -24888.85, 5262.569, 0.0, 5.0341787, 5.0277786 
9.367428e+2, 3.0193433e+2, -52800.35, -17572.135, 35156.688, -0.04763728, 0.062112715, 4136.1357, 4136.1357, 0.0, 5.0173054, 5.028325 
9.517894e+2, 1.3743217e+2, -1563804.8, -1597424.6, 2625.1455, 0.004723031, 0.0020306471, -1563601.0, 29568.184, 0.0, 5.0472717, 5.023973 
9.514823e+2, 1.424458e+2, -1513879.9, -1552149.1, 7188.954, 0.008114484, 0.0038700406, -1512573.9, 31457.271, 0.0, 5.0487556, 5.022184 
9.511786e+2, 1.4745647e+2, -1464420.6, -1508924.0, 12912.129, -0.0033347271, 0.003140178, -1460945.8, 33981.348, 0.0, 5.0505357, 5.019526 
9.508803e+2, 1.5246503e+2, -1414941.1, -1462682.8, 19471.184, -0.019341374, 0.0018409508, -1408007.0, 37836.285, 0.0, 5.05178, 5.018081 
9.50596e+2, 1.5747106e+2, -1372607.5, -1423570.3, 31240.684, -0.011027777, 0.00027210885, -1357774.1, 39010.363, 0.0, 5.0519195, 5.014459 
9.503174e+2, 1.6247521e+2, -1323666.6, -1375697.6, 31063.361, 0.008041037, -0.0016482007, -1309163.8, 38580.004, 0.0, 5.0523853, 5.0140204 
9.500353e+2, 1.674787e+2, -1274971.0, -1328034.6, 31405.19, 0.0179877, -0.001331613, -1260390.5, 38319.344, 0.0, 5.052782, 5.0135484 
9.4975185e+2, 1.7248215e+2, -1226147.3, -1279293.3, 33982.41, 0.018137617, 0.00084766914, -1209581.8, 40094.56, 0.0, 5.053052, 5.0134854 
9.4947183e+2, 1.7748454e+2, -1182273.6, -1236465.6, 41551.33, 0.0043395986, 0.0038479953, -1159764.1, 40889.004, 0.0, 5.0527825, 5.0114417 
9.491947e+2, 1.824851e+2, -1135366.1, -1190711.4, 43137.684, -0.0101351105, 0.004899197, -1111788.1, 39859.586, 0.0, 5.0528126, 5.01046 
9.489181e+2, 1.874838e+2, -1088562.4, -1145291.5, 44576.37, -0.0149076525, 0.003641228, -1064091.4, 38568.633, 0.0, 5.052846, 5.0093627 
9.486424e+2, 1.92482e+2, -1040717.9, -1096931.6, 46953.113, -0.01123159, 0.0017360136, -1014101.9, 39575.223, 0.0, 5.0527563, 5.009333 
9.483686e+2, 1.974793e+2, -996040.3, -1053700.3, 50576.305, -0.00069173856, -0.00035817604, -966654.0, 38048.957, 0.0, 5.0524597, 5.0075417 
9.480955e+2, 2.0247519e+2, -949694.75, -1007537.75, 52041.23, 0.009397972, -0.0020115778, -919078.5, 36664.086, 0.0, 5.052154, 5.0068216 
9.4782054e+2, 2.0746997e+2, -903509.4, -961598.2, 52856.977, 0.01221263, -0.0017285934, -872242.6, 34551.04, 0.0, 5.0518003, 5.0060453 
9.475438e+2, 2.1246469e+2, -856006.06, -912587.3, 54427.57, 0.008524672, -0.00085919205, -822955.7, 34889.59, 0.0, 5.051389, 5.0063834 
9.4726443e+2, 2.1745872e+2, -811003.2, -868902.0, 54817.063, 0.0022417346, 0.00092669344, -777960.8, 30942.85, 0.0, 5.0508814, 5.00491 
9.4698375e+2, 2.2245143e+2, -766070.8, -823544.06, 56477.51, -0.004021589, 0.0017905788, -731439.44, 28535.959, 0.0, 5.0501027, 5.0040827 
9.467024e+2, 2.2744282e+2, -720406.3, -776518.2, 57823.45, -0.0050780512, 0.0016077805, -684191.8, 26868.303, 0.0, 5.0492887, 5.0038586 
9.464192e+2, 2.3243442e+2, -673774.7, -727438.75, 58016.3, -0.002798095, 0.0012221154, -636686.06, 25456.758, 0.0, 5.0484295, 5.0044127 
9.461298e+2, 2.3742574e+2, -628077.94, -682373.5, 54066.523, 0.0019362868, 0.0012263037, -594726.2, 18501.777, 0.0, 5.0476007, 5.003679 
9.458365e+2, 2.424163e+2, -584411.3, -636404.75, 56381.31, 0.0063704797, 0.00038642326, -548321.94, 15998.336, 0.0, 5.04615, 5.0033174 
9.455414e+2, 2.4740596e+2, -540094.0, -589422.1, 57157.33, 0.0077383625, -0.00079926057, -502506.34, 12914.621, 0.0, 5.044746, 5.003285 
9.452431e+2, 2.5239643e+2, -493822.34, -538248.6, 56615.555, 0.0061228042, -0.0027084765, -455218.2, 11295.605, 0.0, 5.043268, 5.0048475 
9.4493467e+2, 2.5738797e+2, -445924.0, -488493.38, 47531.676, 0.0069360416, -0.0038644096, -415128.97, 2466.926, 0.0, 5.0420675, 5.0061297 
9.44619e+2, 2.6237968e+2, -405370.34, -445308.0, 50655.355, 0.0028165383, -0.0042656995, -370889.94, -2212.5989, 0.0, 5.039757, 5.0050964 
9.4430286e+2, 2.6737058e+2, -361723.66, -396052.13, 52038.707, 0.0040019522, -0.0025073162, -324091.53, -4324.199, 0.0, 5.037568, 5.006206 
9.439822e+2, 2.723635e+2, -314174.75, -341547.16, 48737.53, 0.0073175114, -0.0013766198, -277238.25, -6400.7324, 0.0, 5.035892, 5.009113 
9.4364387e+2, 2.7736047e+2, -257883.4, -280827.75, 32324.84, 0.0048212344, 0.0002313873, -235055.34, -13186.768, 0.0, 5.035493, 5.0145407 
9.432951e+2, 2.8236008e+2, -216948.78, -238389.72, 35793.08, 0.008290918, 0.005075869, -190305.19, -17432.723, 0.0, 5.033478, 5.013054 
9.42947e+2, 2.8735623e+2, -176143.83, -195040.55, 39775.77, 0.0020643647, -0.001234806, -144709.63, -20800.96, 0.0, 5.031183, 5.012029 
9.425918e+2, 2.9235336e+2, -122944.71, -135909.92, 30623.105, 0.008463842, -0.0073040393, -98125.58, -23190.07, 0.0, 5.0309343, 5.0162024 
9.421955e+2, 2.973607e+2, -22532.61, -39788.68, -19407.523, 0.0067921146, -0.009989022, -9921.648, 15940.808, 0.0, 5.0410786, 5.032278 
9.4176495e+2, 3.0237874e+2, 53288.25, 5335.0337, -25187.213, 0.016651956, 0.049200602, 64086.25, 64086.25, 0.0, 5.054145, 5.0256963 
9.568269e+2, 1.3774164e+2, -1560933.8, -1590978.5, 3202.421, 0.0024007696, 0.0010660916, -1560596.3, 29538.676, 0.0, 5.0472136, 5.026152 
9.565221e+2, 1.4275749e+2, -1511333.4, -1546699.6, 8849.191, 0.010598333, 0.005683933, -1509242.8, 31733.102, 0.0, 5.0487657, 5.024003 
9.562204e+2, 1.477699e+2, -1462164.3, -1504157.0, 13808.298, -0.0010467118, 0.0050290325, -1458030.6, 33824.676, 0.0, 5.050549, 5.0211253 
9.5592356e+2, 1.5278007e+2, -1412663.1, -1457580.6, 20602.898, -0.018616045, 0.003167338, -1404644.4, 38112.24, 0.0, 5.051757, 5.019807 
9.556402e+2, 1.577878e+2, -1369986.4, -1418195.9, 31436.217, -0.010230222, 0.0012093929, -1354477.0, 39204.773, 0.0, 5.051938, 5.016287 
9.55362e+2, 1.6279392e+2, -1320675.4, -1369487.9, 31094.77, 0.0091095595, -0.0009614588, -1305552.5, 39069.33, 0.0, 5.052396, 5.016143 
9.5508015e+2, 1.677995e+2, -1271771.8, -1321297.6, 31623.307, 0.018701263, -0.0013336553, -1256369.6, 39196.895, 0.0, 5.0527835, 5.0158606 
9.54797e+2, 1.7280515e+2, -1222879.0, -1272542.6, 33873.332, 0.019025808, -0.00005106776, -1205710.6, 40799.91, 0.0, 5.053069, 5.01581 
9.5451707e+2, 1.7781003e+2, -1178443.4, -1228595.4, 41333.14, 0.004026812, 0.00191376, -1155174.4, 42287.813, 0.0, 5.052808, 5.01416 
9.5423985e+2, 1.8281312e+2, -1132053.3, -1183912.1, 42995.008, -0.011317938, 0.0031656632, -1107774.0, 40657.855, 0.0, 5.05284, 5.012814 
9.5396334e+2, 1.8781425e+2, -1085330.8, -1138658.3, 44151.035, -0.016210143, 0.0031904075, -1060416.6, 39004.477, 0.0, 5.0528708, 5.011669 
9.536875e+2, 1.928149e+2, -1037452.94, -1090145.6, 46692.598, -0.012920165, 0.0024063052, -1010186.5, 40228.56, 0.0, 5.0527754, 5.0116997 
9.534135e+2, 1.9781487e+2, -992195.56, -1045765.0, 50063.723, -0.002149896, 0.0014286274, -962201.8, 39213.684, 0.0, 5.052488, 5.010318 
9.5314014e+2, 2.0281355e+2, -945988.25, -999844.8, 51225.08, 0.008361755, -0.00023977977, -915044.75, 37383.34, 0.0, 5.0521746, 5.009523 
9.5286477e+2, 2.0781094e+2, -899603.2, -953396.7, 52419.586, 0.011193227, -0.0014048305, -867582.6, 35870.18, 0.0, 5.0518184, 5.008933 
9.5258766e+2, 2.1280839e+2, -852150.2, -904529.75, 53647.215, 0.0080903685, -0.0018011711, -818641.3, 35835.992, 0.0, 5.0514073, 5.0092335 
9.523075e+2, 2.1780542e+2, -806429.9, -859418.3, 53865.223, 0.0018192676, -0.0013467392, -772895.7, 32610.016, 0.0, 5.0509152, 5.008273 
9.5202607e+2, 2.2280139e+2, -761618.3, -814279.56, 55698.695, -0.0046391566, -0.0003991395, -726340.1, 30205.025, 0.0, 5.0501375, 5.0073767 
9.5174384e+2, 2.2779606e+2, -716366.0, -768187.8, 56346.598, -0.0054871785, 0.0007581451, -680258.25, 27339.617, 0.0, 5.04932, 5.006835 
9.514596e+2, 2.3279099e+2, -669398.1, -718402.2, 56779.016, -0.0033945558, 0.0020003272, -632060.0, 26588.07, 0.0, 5.048469, 5.0076547 
9.511689e+2, 2.3778598e+2, -622847.3, -671663.6, 52428.06, 0.0015879044, 0.0032579112, -589424.1, 20273.576, 0.0, 5.0476604, 5.007534 
9.5087403e+2, 2.4278028e+2, -579581.7, -626580.7, 54561.523, 0.005684021, 0.0024112167, -543674.25, 17079.176, 0.0, 5.0462136, 5.006863 
9.505774e+2, 2.4777338e+2, -535256.8, -579597.0, 55616.08, 0.0067494335, -0.000050428618, -497554.84, 14265.863, 0.0, 5.0448184, 5.006844 
9.5027745e+2, 2.527672e+2, -488760.5, -528057.9, 54509.8, 0.006485178, -0.0036126364, -450466.22, 12414.408, 0.0, 5.04335, 5.0085597 
9.499669e+2, 2.5776258e+2, -440177.2, -477003.78, 45247.617, 0.0075684604, -0.00564791, -409739.72, 4185.8276, 0.0, 5.0421743, 5.010335 
9.49649e+2, 2.6275876e+2, -399270.53, -432849.22, 48394.41, 0.0038727324, -0.0048650284, -364835.88, 127.42724, 0.0, 5.0398436, 5.0096684 
9.493304e+2, 2.677541e+2, -356226.75, -385028.22, 49779.86, 0.003488066, -0.002413467, -318806.5, -2797.003, 0.0, 5.037675, 5.0102634 
9.4900733e+2, 2.727512e+2, -308814.6, -330969.63, 46390.793, 0.0049248035, 0.0004516752, -272197.06, -5158.556, 0.0, 5.0360217, 5.0130286 
9.486669e+2, 2.7775198e+2, -253026.02, -270873.84, 30051.223, 0.0031562832, 0.0034576487, -230601.7, -12569.795, 0.0, 5.0355554, 5.0182753 
9.483161e+2, 2.827552e+2, -211025.31, -225878.73, 33828.19, 0.0052864635, 0.0047384743, -183818.19, -14818.349, 0.0, 5.033532, 5.0177455 
9.4796634e+2, 2.8775612e+2, -168676.78, -180455.08, 37787.37, 0.0023157138, -0.0025820967, -136322.4, -16333.874, 0.0, 5.0315366, 5.0173764 
9.4760996e+2, 2.927581e+2, -116135.06, -123730.03, 28762.51, 0.012372631, -0.007813967, -90920.43, -19953.74, 0.0, 5.0313625, 5.020707 
9.4721824e+2, 2.9776654e+2, -28518.361, -46422.508, -9373.64, 0.010621136, -0.009399608, -24508.77, -2626.5322, 0.0, 5.040306, 5.029662 
9.468025e+2, 3.0277336e+2, 47194.33, -5839.772, -9533.803, 0.024346374, -0.029248139, 48856.125, 48856.125, 0.0, 5.0543194, 5.02089 
9.618638e+2, 1.380508e+2, -1561815.6, -1586727.9, 3968.402, -0.0021219442, 0.0021726321, -1561198.8, 25904.57, 0.0, 5.0459366, 5.028193 
9.6156234e+2, 1.4306861e+2, -1508254.5, -1541055.4, 9078.139, 0.015057922, 0.0058691413, -1505909.6, 32016.713, 0.0, 5.048961, 5.0258036 
9.6126246e+2, 1.4808299e+2, -1459420.5, -1498743.3, 13885.845, 0.0018120694, 0.0057986537, -1455011.4, 33775.758, 0.0, 5.0506396, 5.0229077 
9.60967e+2, 1.5309498e+2, -1410582.4, -1452472.9, 21097.99, -0.018141838, 0.004142694, -1401798.4, 37872.934, 0.0, 5.051638, 5.0215816 
9.6068436e+2, 1.5810454e+2, -1368041.8, -1412945.0, 31218.223, -0.009983373, 0.0021663832, -1352040.1, 38538.88, 0.0, 5.0516753, 5.0182095 
9.6040654e+2, 1.6311266e+2, -1318486.8, -1363533.1, 31010.55, 0.009686203, -0.000383274, -1302683.1, 38816.13, 0.0, 5.0520983, 5.018328 
9.60125e+2, 1.6812037e+2, -1269312.5, -1315287.4, 31616.436, 0.019163381, -0.0012160533, -1253210.0, 39212.152, 0.0, 5.0526032, 5.018013 
9.5984226e+2, 1.7312823e+2, -1219883.0, -1265794.0, 33632.25, 0.01966892, -0.0010027003, -1202118.9, 41224.895, 0.0, 5.052963, 5.018194 
9.595623e+2, 1.7813559e+2, -1174833.8, -1220928.0, 40960.35, 0.0035908497, -0.000053045536, -1150881.6, 43388.76, 0.0, 5.052774, 5.016841 
9.592851e+2, 1.8314123e+2, -1128864.9, -1177384.6, 42714.496, -0.012430218, 0.001720047, -1104001.8, 41213.566, 0.0, 5.0528674, 5.0150766 
9.5900846e+2, 1.8814479e+2, -1082008.8, -1131741.9, 43771.08, -0.01749521, 0.0027503427, -1056534.0, 39647.73, 0.0, 5.052878, 5.0140834 
9.587326e+2, 1.9314788e+2, -1034237.2, -1083449.8, 46415.91, -0.01447237, 0.003189615, -1006308.6, 40843.645, 0.0, 5.052791, 5.0140395 
9.584585e+2, 1.9815055e+2, -988443.56, -1037874.7, 49570.36, -0.0034407086, 0.003215003, -957768.9, 40358.387, 0.0, 5.052485, 5.0130954 
9.5818484e+2, 2.0315194e+2, -942359.06, -992197.0, 50600.47, 0.0074497825, 0.0012358397, -910874.44, 38238.535, 0.0, 5.0521736, 5.0122213 
9.579089e+2, 2.08152e+2, -895793.2, -945334.44, 51897.89, 0.010274925, -0.0011825768, -863057.5, 37053.67, 0.0, 5.051824, 5.01178 
9.576314e+2, 2.1315213e+2, -848239.75, -896360.8, 52793.816, 0.0076622204, -0.0029415493, -814282.2, 36826.434, 0.0, 5.0514255, 5.012127 
9.573507e+2, 2.1815218e+2, -801877.3, -849969.94, 52916.26, 0.0012589819, -0.003764274, -767800.0, 34307.004, 0.0, 5.0509486, 5.0116286 
9.570684e+2, 2.2315146e+2, -757412.6, -805549.3, 54814.574, -0.005397731, -0.0022791703, -721615.1, 31498.783, 0.0, 5.050171, 5.010486 
9.567852e+2, 2.2814938e+2, -712164.9, -759491.1, 54968.28, -0.0058141607, -0.000040474497, -675982.75, 28152.29, 0.0, 5.049353, 5.009945 
9.565e+2, 2.3314767e+2, -665014.8, -709348.9, 55528.5, -0.0040593366, 0.0030106255, -627392.25, 27760.219, 0.0, 5.04851, 5.0109067 
9.5620793e+2, 2.3814628e+2, -617647.4, -661011.25, 50799.254, 0.001175794, 0.0052849567, -584096.44, 22070.357, 0.0, 5.0477204, 5.0113745 
9.559115e+2, 2.4314426e+2, -574518.9, -616234.56, 52714.09, 0.005021438, 0.003907596, -538686.1, 18500.518, 0.0, 5.046279, 5.0106015 
9.556134e+2, 2.4814083e+2, -530696.3, -570386.2, 54118.195, 0.0058158105, 0.0008218251, -492899.25, 15320.939, 0.0, 5.044892, 5.010186 
9.5531183e+2, 2.5313804e+2, -483757.78, -517975.94, 52419.043, 0.0070390343, -0.0047691404, -445726.34, 13520.912, 0.0, 5.0434303, 5.012237 
9.54999e+2, 2.5813726e+2, -434438.8, -465513.03, 42929.4, 0.0077716867, -0.007623685, -404321.4, 5933.369, 0.0, 5.04228, 5.014547 
9.546788e+2, 2.63138e+2, -393370.1, -420820.66, 46327.668, 0.0038026513, -0.0051897946, -358777.3, 2470.2861, 0.0, 5.039932, 5.0140905 
9.5435786e+2, 2.681377e+2, -350547.75, -373645.84, 47226.8, 0.002606542, -0.0025266958, -313478.38, -1227.1791, 0.0, 5.0377865, 5.014458 
9.540324e+2, 2.7313903e+2, -303644.53, -320794.22, 44140.504, 0.0023049142, 0.0029716324, -267253.72, -4015.261, 0.0, 5.0361514, 5.0167994 
9.5369e+2, 2.7814353e+2, -248152.13, -260883.55, 27797.12, 0.0031077417, 0.005429045, -226001.14, -11805.957, 0.0, 5.03562, 5.022024 
9.5333725e+2, 2.831504e+2, -204657.72, -212363.52, 31689.781, 0.0049407016, 0.0024499951, -176587.47, -11461.407, 0.0, 5.0335894, 5.0228148 
9.529858e+2, 2.8815624e+2, -162425.83, -167349.84, 36318.598, 0.0037520663, -0.0048014014, -128485.89, -12420.103, 0.0, 5.031653, 5.022274 
9.526283e+2, 2.9316303e+2, -109903.55, -111805.67, 27117.018, 0.015146747, -0.0103641115, -83720.92, -16724.482, 0.0, 5.0316324, 5.025156 
9.5224047e+2, 2.9817322e+2, -34127.117, -52787.97, 803.3873, 0.0046531036, -0.005501179, -34092.594, -16198.484, 0.0, 5.0397315, 5.0270276 
9.5183915e+2, 3.0316964e+2, 40519.3, -15543.082, 7708.4517, 0.009250985, -0.09546743, 41559.88, 41559.88, 0.0, 5.0540075, 5.0168133 
9.668983e+2, 1.383571e+2, -1569115.4, -1585773.6, 5302.7593, -0.011964338, 0.0034297523, -1567570.6, 16529.158, 0.0, 5.042523, 5.030162 
9.666019e+2, 1.4337638e+2, -1513431.6, -1538956.0, 8570.53, 0.021041047, 0.0005499772, -1510820.9, 24089.502, 0.0, 5.0462637, 5.0277925 
9.6630377e+2, 1.4839303e+2, -1463633.3, -1495951.0, 13075.598, 0.0053811753, 0.001714087, -1459005.5, 26743.238, 0.0, 5.048237, 5.0249777 
9.6600944e+2, 1.5340735e+2, -1414457.6, -1449659.5, 20198.35, -0.01805223, 0.0020093708, -1405267.4, 31342.723, 0.0, 5.0493774, 5.023592 
9.6572727e+2, 1.5841928e+2, -1371189.5, -1409568.9, 29484.465, -0.0119275, 0.0017441566, -1355199.9, 32294.902, 0.0, 5.049538, 5.0203896 
9.654498e+2, 1.6342974e+2, -1321290.1, -1360236.9, 29285.563, 0.008003316, -0.00026076013, -1305594.5, 32797.402, 0.0, 5.0501146, 5.020416 
9.651688e+2, 1.684397e+2, -1271618.1, -1311694.4, 29966.355, 0.01790002, -0.001357278, -1255607.5, 33685.04, 0.0, 5.050767, 5.0201373 
9.6488667e+2, 1.7344984e+2, -1220914.8, -1261062.4, 31853.594, 0.019080566, -0.0021211212, -1203337.4, 36854.14, 0.0, 5.0514355, 5.0205746 
9.646071e+2, 1.7845975e+2, -1174808.9, -1215339.3, 38799.977, 0.0027853032, -0.0018473024, -1151300.6, 39792.41, 0.0, 5.0515122, 5.0194063 
9.6433e+2, 1.8346803e+2, -1128905.6, -1172447.9, 40414.31, -0.013113054, 0.00017093278, -1104771.4, 37240.855, 0.0, 5.051711, 5.017372 
9.6405345e+2, 1.8847413e+2, -1081175.4, -1125935.9, 41467.68, -0.017663293, 0.0014410616, -1056434.0, 36519.61, 0.0, 5.05193, 5.01659 
9.637777e+2, 1.9347987e+2, -1033177.7, -1077790.1, 44115.242, -0.014041669, 0.0025950677, -1006049.94, 37848.87, 0.0, 5.051977, 5.016435 
9.6350354e+2, 1.9848533e+2, -986286.56, -1030743.94, 47242.78, -0.0019344288, 0.0029542318, -956304.2, 38542.188, 0.0, 5.051847, 5.0159345 
9.6322954e+2, 2.034896e+2, -939937.1, -985324.1, 48552.445, 0.009057093, 0.0009523277, -909036.44, 36767.484, 0.0, 5.051718, 5.014891 
9.629533e+2, 2.0849252e+2, -892699.4, -938180.1, 49584.65, 0.011022372, -0.0012818597, -860889.2, 35884.92, 0.0, 5.051609, 5.0144463 
9.626753e+2, 2.1349548e+2, -844251.8, -888516.06, 50390.402, 0.0076930407, -0.003391362, -811347.4, 36396.316, 0.0, 5.0514627, 5.014936 
9.62394e+2, 2.1849865e+2, -796779.56, -840732.4, 50392.24, 0.0011711996, -0.0046877754, -763780.1, 34931.223, 0.0, 5.0511904, 5.0148535 
9.6211094e+2, 2.2350124e+2, -752306.7, -796740.7, 52036.223, -0.0050547426, -0.0031506086, -717943.06, 31742.928, 0.0, 5.050522, 5.0135093 
9.6182686e+2, 2.2850233e+2, -706370.25, -750153.8, 52654.387, -0.005913029, -0.00097265345, -671238.0, 29437.832, 0.0, 5.049922, 5.013069 
9.6154064e+2, 2.3350394e+2, -658810.44, -699818.8, 52936.996, -0.004153908, 0.0028393348, -622545.4, 29115.525, 0.0, 5.0492215, 5.014053 
9.612472e+2, 2.3850611e+2, -610409.44, -649608.7, 48039.17, 0.0013475522, 0.0048733526, -578125.44, 24514.873, 0.0, 5.0485067, 5.015184 
9.6094924e+2, 2.4350785e+2, -567718.9, -605487.94, 50371.203, 0.004322404, 0.0029651897, -532808.56, 20815.137, 0.0, 5.047022, 5.0142026 
9.6064955e+2, 2.48508e+2, -524098.03, -559991.75, 51343.574, 0.005127187, 0.0005644469, -487655.06, 16967.06, 0.0, 5.0456247, 5.0136733 
9.603463e+2, 2.5350884e+2, -476751.34, -507396.7, 49691.8, 0.0069103907, -0.005573589, -440073.44, 15540.611, 0.0, 5.0443077, 5.015749 
9.6003115e+2, 2.5851202e+2, -426245.4, -453119.97, 40041.93, 0.0070067067, -0.008372887, -397446.25, 9136.701, 0.0, 5.043307, 5.0186934 
9.597086e+2, 2.6351732e+2, -384921.6, -408055.34, 43025.965, 0.0033057474, -0.004688686, -351934.84, 5596.125, 0.0, 5.0410056, 5.018363 
9.593854e+2, 2.6852128e+2, -342504.53, -361537.44, 44114.977, 0.001397295, -0.0019463792, -306891.22, 1601.5812, 0.0, 5.0388236, 5.0185246 
9.590576e+2, 2.7352682e+2, -296529.3, -309981.25, 40953.824, 0.00009939228, 0.006218084, -261752.83, -2314.349, 0.0, 5.03703, 5.020486 
9.5871323e+2, 2.7853495e+2, -242174.55, -250485.23, 24904.219, 0.004902559, 0.0058637876, -221081.39, -10722.145, 0.0, 5.0361104, 5.025738 
9.583586e+2, 2.8354576e+2, -198456.45, -198715.9, 29351.848, 0.0066812546, -0.0017230046, -169234.05, -7983.4634, 0.0, 5.033561, 5.0279675 
9.5800555e+2, 2.8855658e+2, -157809.58, -155462.84, 35090.727, 0.006456312, -0.008485402, -121525.875, -9384.846, 0.0, 5.0312963, 5.0269094 
9.576466e+2, 2.9356807e+2, -105045.88, -100152.414, 25896.402, 0.01619349, -0.015286677, -76587.414, -13562.767, 0.0, 5.0313773, 5.0297017 
9.5726216e+2, 2.985807e+2, -40422.605, -61151.547, 11863.988, -0.011853383, 0.003392443, -35033.457, -21135.666, 0.0, 5.039281, 5.023571 
9.56876e+2, 3.035772e+2, 34713.87, -23680.1, 26092.7, -0.01980149, -0.060968686, 44674.168, 44674.168, 0.0, 5.05385, 5.013238 
9.7193e+2, 1.3865885e+2, -1572088.8, -1585438.3, 1717.4801, -0.018037844, 0.0051421006, -1571871.4, 9269.97, 0.0, 5.040676, 5.031398 
9.716383e+2, 1.4367944e+2, -1516966.4, -1538902.5, 2421.1406, 0.024749108, -0.0024832706, -1516702.3, 15237.992, 0.0, 5.044183, 5.0290613 
9.7134197e+2, 1.4869817e+2, -1467035.9, -1495912.8, 6345.4194, 0.005776926, 0.0006102383, -1465703.0, 17055.63, 0.0, 5.046182, 5.0262384 
9.71049e+2, 1.5371454e+2, -1417722.5, -1450162.3, 12375.597, -0.019478137, 0.0026898035, -1413540.4, 20059.58, 0.0, 5.0473857, 5.0246897 
9.7076744e+2, 1.5872845e+2, -1374124.6, -1409895.8, 20809.59, -0.0147791, 0.0038865483, -1364570.5, 19894.605, 0.0, 5.0475235, 5.0216236 
9.7049046e+2, 1.637408e+2, -1324786.0, -1361204.3, 20528.123, 0.00586122, 0.001978589, -1315554.8, 19788.684, 0.0, 5.047966, 5.0215006 
9.7021013e+2, 1.6875258e+2, -1275070.4, -1312200.5, 21125.855, 0.016934853, -0.00012015765, -1265511.4, 20714.742, 0.0, 5.048519, 5.021431 
9.699287e+2, 1.737647e+2, -1224513.3, -1261446.0, 22893.02, 0.01831821, -0.0012905496, -1213567.1, 23538.453, 0.0, 5.0490713, 5.021972 
9.696496e+2, 1.7877673e+2, -1178107.6, -1215416.6, 29176.31, 0.0019302054, -0.0011662435, -1162131.9, 25854.137, 0.0, 5.049159, 5.0209265 
9.6937275e+2, 1.8378717e+2, -1132199.6, -1172816.5, 30492.71, -0.013966325, 0.0010398666, -1115871.5, 23012.627, 0.0, 5.0494065, 5.0187683 
9.690964e+2, 1.887955e+2, -1084522.4, -1126425.0, 31446.209, -0.017863486, 0.0028031818, -1067687.1, 22116.605, 0.0, 5.049619, 5.017945 
9.688209e+2, 1.9380344e+2, -1036012.8, -1077677.6, 33432.355, -0.013042359, 0.003962139, -1017453.44, 23273.53, 0.0, 5.0497427, 5.0179634 
9.6854687e+2, 1.9881144e+2, -988309.0, -1029591.9, 36231.68, 0.000043992153, 0.004206594, -967251.5, 24398.355, 0.0, 5.0497284, 5.0177765 
9.682728e+2, 2.0381837e+2, -941669.7, -984337.8, 37260.24, 0.010955506, 0.0023958902, -920068.1, 22513.508, 0.0, 5.049744, 5.016613 
9.679964e+2, 2.0882387e+2, -894138.0, -937307.25, 37821.926, 0.012163473, 0.0005158162, -872175.06, 21351.572, 0.0, 5.0497603, 5.0160785 
9.6771806e+2, 2.1382953e+2, -845129.56, -887196.06, 38319.977, 0.0071201352, -0.0007756585, -822449.94, 22020.018, 0.0, 5.0497494, 5.0166698 
9.674363e+2, 2.1883568e+2, -796474.3, -837983.0, 37840.63, -0.000010798585, -0.001777664, -774070.2, 21338.557, 0.0, 5.0496664, 5.017026 
9.6715283e+2, 2.2384124e+2, -751579.56, -794291.94, 38992.14, -0.005933217, -0.0011037105, -728478.2, 17876.191, 0.0, 5.049229, 5.0154767 
9.668682e+2, 2.2884518e+2, -704926.56, -747392.6, 39420.996, -0.0060843597, -0.0006005608, -681383.94, 15932.085, 0.0, 5.0488653, 5.015056 
9.6658146e+2, 2.3384959e+2, -656476.1, -696787.3, 38943.094, -0.0027469744, 0.000722834, -632781.9, 15491.667, 0.0, 5.0484743, 5.016018 
9.66287e+2, 2.38855e+2, -605921.7, -644916.25, 33363.098, 0.002354867, 0.0014651093, -586776.5, 12444.358, 0.0, 5.048316, 5.017551 
9.659876e+2, 2.4386036e+2, -562084.9, -601466.6, 35030.418, 0.0034175257, 0.0013289293, -541590.44, 8578.3545, 0.0, 5.0474277, 5.0160904 
9.6568644e+2, 2.4886405e+2, -516262.16, -554202.8, 34813.46, 0.001719089, 0.0011917611, -495585.9, 5546.856, 0.0, 5.0466037, 5.015987 
9.6538174e+2, 2.538686e+2, -467780.4, -503140.25, 32520.441, 0.0011519551, 0.00025934342, -448444.66, 3643.7656, 0.0, 5.04604, 5.01723 
9.650653e+2, 2.5887522e+2, -413985.1, -447432.1, 21780.818, 0.0023196293, 0.00014803876, -403248.1, -224.23045, 0.0, 5.046133, 5.020317 
9.647415e+2, 2.638833e+2, -369294.2, -402136.47, 22658.502, 0.0024355466, 0.0018867786, -357732.1, -3787.0576, 0.0, 5.0451946, 5.0195475 
9.6441686e+2, 2.688898e+2, -324676.44, -356661.66, 22385.795, 0.0036495226, 0.004600046, -313157.44, -8275.963, 0.0, 5.0441604, 5.018887 
9.640874e+2, 2.7389762e+2, -275605.47, -303901.4, 16965.41, 0.003888929, 0.009648424, -267662.94, -11857.669, 0.0, 5.0433793, 5.020964 
9.637414e+2, 2.7890778e+2, -216353.11, -244825.4, -397.8799, 0.007989207, 0.0054052784, -216347.55, -9641.644, 0.0, 5.0446954, 5.0252175 
9.633857e+2, 2.8392032e+2, -164076.08, -191270.4, -151.9285, 0.008101206, -0.0057243994, -164075.23, -6496.5107, 0.0, 5.0454865, 5.0268116 
9.6303123e+2, 2.8893286e+2, -116767.27, -145597.52, 133.91309, 0.0051190057, -0.015872488, -116766.65, -8316.024, 0.0, 5.045609, 5.025738 
9.6267194e+2, 2.939467e+2, -59856.83, -90618.99, -12470.756, 0.013217579, -0.021229468, -55436.46, 3873.5002, 0.0, 5.0477676, 5.027626 
9.6229213e+2, 2.9896057e+2, -6434.1177, -61731.45, -20274.59, -0.023610447, 0.0021010588, 202.89503, 10373.145, 0.0, 5.053196, 5.0184517 
9.619202e+2, 3.0396956e+2, 47611.465, -28526.145, 346.00577, -0.018557621, 0.05340316, 47613.04, 47613.04, 0.0, 5.0593214, 5.009749 
9.7696227e+2, 1.3895528e+2, -1569640.4, -1580601.5, 5016.4707, -0.018479202, 0.0050342656, -1567691.1, 10544.093, 0.0, 5.0408087, 5.032931 
9.7667414e+2, 1.4397712e+2, -1514848.5, -1534089.6, 4227.95, 0.027901523, -0.005532323, -1513960.5, 15062.439, 0.0, 5.044161, 5.030673 
9.7637963e+2, 1.4899759e+2, -1464968.3, -1491098.4, 7844.5674, 0.005853847, -0.0005368462, -1462794.1, 17030.336, 0.0, 5.046141, 5.0278645 
9.7608787e+2, 1.5401569e+2, -1415659.3, -1445518.9, 13052.939, -0.021661812, 0.003052536, -1410757.8, 19890.984, 0.0, 5.0473504, 5.0262723 
9.758069e+2, 1.5903147e+2, -1371487.5, -1404451.8, 20868.275, -0.01830429, 0.005015881, -1361377.4, 20118.51, 0.0, 5.0475307, 5.023484 
9.755303e+2, 1.6404559e+2, -1322181.8, -1355909.3, 20699.934, 0.003754024, 0.0025083274, -1312345.8, 20010.563, 0.0, 5.047993, 5.023308 
9.7525066e+2, 1.6905917e+2, -1272347.1, -1306628.1, 21330.42, 0.016139941, -0.0007521715, -1262123.8, 21097.576, 0.0, 5.0485425, 5.0233426 
9.7496986e+2, 1.7407323e+2, -1221652.3, -1255414.0, 23348.623, 0.017460233, -0.0024337005, -1209721.3, 24360.393, 0.0, 5.0490804, 5.0240498 
9.746912e+2, 1.7908733e+2, -1175050.4, -1209174.4, 29191.203, 0.0010273735, -0.0025452124, -1158300.6, 26641.063, 0.0, 5.0491886, 5.0230865 
9.744145e+2, 1.8409987e+2, -1129238.3, -1166751.4, 30366.684, -0.0150847435, -0.00018508968, -1112302.5, 23516.77, 0.0, 5.049434, 5.020872 
9.7413844e+2, 1.8911032e+2, -1081809.0, -1120744.0, 31647.465, -0.018643036, 0.0020390975, -1064120.9, 22597.156, 0.0, 5.0496345, 5.019922 
9.7386324e+2, 1.9412039e+2, -1032808.25, -1071092.4, 33171.457, -0.01254355, 0.0030131927, -1013651.94, 23968.492, 0.0, 5.049774, 5.0202627 
9.7358936e+2, 1.9913077e+2, -984797.1, -1022360.0, 35955.92, 0.0016204353, 0.0030438716, -963012.94, 25506.975, 0.0, 5.049764, 5.0203104 
9.7331524e+2, 2.0414016e+2, -938377.56, -977568.25, 36864.707, 0.01279196, 0.001509706, -916223.9, 23203.68, 0.0, 5.049779, 5.0189924 
9.730387e+2, 2.0914805e+2, -890785.75, -930374.9, 37606.746, 0.013352099, -0.00032662228, -868082.1, 22267.057, 0.0, 5.049796, 5.0185227 
9.7276014e+2, 2.1415627e+2, -841664.56, -880037.06, 37944.15, 0.0071729706, -0.0009043144, -818331.75, 22936.213, 0.0, 5.0497866, 5.0192056 
9.7247803e+2, 2.1916522e+2, -792527.2, -829875.9, 37248.652, -0.0012434502, -0.0014457295, -769533.9, 22645.572, 0.0, 5.0497146, 5.0199113 
9.721939e+2, 2.2417352e+2, -747702.7, -786298.56, 38501.04, -0.008322578, -0.0013862682, -723933.94, 19164.248, 0.0, 5.0492806, 5.018325 
9.7190887e+2, 2.2918014e+2, -701221.8, -739720.1, 38538.383, -0.007929234, -0.0019222836, -677392.7, 16640.936, 0.0, 5.0489035, 5.0178065 
9.716216e+2, 2.3418711e+2, -652706.06, -689072.2, 38027.49, -0.0040864097, -0.0025923506, -628738.06, 16227.678, 0.0, 5.048528, 5.0187926 
9.7132635e+2, 2.3919539e+2, -601877.6, -636688.75, 32402.21, 0.0016168276, -0.0028102114, -582502.0, 13382.994, 0.0, 5.048385, 5.020522 
9.710261e+2, 2.4420379e+2, -558333.2, -593839.0, 33857.832, 0.0028713183, -0.00083615765, -537856.25, 8946.658, 0.0, 5.047491, 5.0188546 
9.707239e+2, 2.492104e+2, -512379.47, -546429.94, 33881.855, 0.000012102368, 0.0008413775, -491485.88, 6252.705, 0.0, 5.0467, 5.018802 
9.704182e+2, 2.542178e+2, -464524.97, -496726.9, 31384.191, -0.00089761737, 0.0031057363, -445352.6, 3313.8557, 0.0, 5.0461235, 5.0195765 
9.7010064e+2, 2.5922692e+2, -411137.9, -441766.47, 20991.729, -0.0013469912, 0.0047214986, -400467.97, -890.75385, 0.0, 5.0462017, 5.022405 
9.697758e+2, 2.642366e+2, -367222.6, -398057.16, 21592.418, -0.0024811183, 0.0054744403, -356108.28, -5625.4155, 0.0, 5.045245, 5.0210605 
9.694501e+2, 2.6924446e+2, -322765.56, -353118.0, 20952.063, 0.00020532316, 0.008389898, -312070.8, -10664.612, 0.0, 5.044233, 5.0202007 
9.691192e+2, 2.7425313e+2, -273950.97, -300909.44, 15539.264, -0.0001973497, 0.009367951, -266859.4, -14537.711, 0.0, 5.043444, 5.0220857 
9.687731e+2, 2.7926368e+2, -217498.7, -246408.08, 264.64816, 0.0054768235, 0.005436959, -217496.28, -14277.727, 0.0, 5.0445676, 5.024635 
9.684186e+2, 2.8427526e+2, -166837.98, -196362.02, -30.382677, 0.008167794, -0.0033673947, -166837.95, -12739.3125, 0.0, 5.0453196, 5.0249295 
9.6806437e+2, 2.8928563e+2, -118547.75, -150294.78, 995.85077, 0.00068402075, -0.015189799, -118516.54, -13526.963, 0.0, 5.045764, 5.023895 
9.677068e+2, 2.9429632e+2, -63223.832, -99908.336, -12017.689, 0.015082241, -0.022761602, -59637.496, -3759.594, 0.0, 5.0481167, 5.023977 
9.6733147e+2, 2.993061e+2, -7660.57, -63315.195, -16922.635, -0.026142716, -0.012565434, -2918.9565, 3857.918, 0.0, 5.053344, 5.01759 
9.6696925e+2, 3.0431208e+2, 46916.05, -24839.893, 1046.2391, -0.00087492156, 0.020110456, 46931.3, 46931.3, 0.0, 5.058692, 5.011233 
9.819965e+2, 1.3925087e+2, -1569061.0, -1576228.6, 5586.9023, -0.0011324674, 0.00039170316, -1566007.3, 9331.358, 0.0, 5.0401735, 5.0347 
9.8170894e+2, 1.4427489e+2, -1517241.9, -1531629.1, 5358.198, 0.025261877, -0.0057690884, -1515465.6, 10639.354, 0.0, 5.042618, 5.032234 
9.814168e+2, 1.4929701e+2, -1465643.3, -1487615.5, 8529.403, 0.0037214921, -0.0004854224, -1462720.9, 14168.921, 0.0, 5.0451527, 5.0295005 
9.811267e+2, 1.5431686e+2, -1415113.4, -1441544.9, 13085.067, -0.023754964, 0.0036619764, -1409731.4, 17965.713, 0.0, 5.046768, 5.0278955 
9.808465e+2, 1.5933445e+2, -1369742.6, -1399431.9, 20593.94, -0.019936666, 0.0056807613, -1359200.8, 19325.428, 0.0, 5.0472255, 5.025352 
9.8057044e+2, 1.6435038e+2, -1320172.8, -1350797.9, 20539.557, 0.0033647344, 0.002425549, -1309866.0, 19503.096, 0.0, 5.047791, 5.0251637 
9.802913e+2, 1.6936581e+2, -1270310.9, -1301564.3, 21227.592, 0.016077947, -0.0013133878, -1259578.5, 20637.406, 0.0, 5.0483646, 5.025177 
9.800111e+2, 1.7438182e+2, -1219407.9, -1249770.0, 23493.096, 0.016872244, -0.0032912202, -1206617.8, 24439.186, 0.0, 5.048891, 5.02609 
9.797329e+2, 1.7939802e+2, -1172586.4, -1203310.6, 28915.662, 0.0002111955, -0.0035441597, -1155205.4, 26691.078, 0.0, 5.0490294, 5.025207 
9.7945637e+2, 1.8441267e+2, -1126714.5, -1161080.8, 30059.422, -0.016170695, -0.00094100024, -1109273.5, 23479.748, 0.0, 5.049347, 5.022896 
9.791804e+2, 1.8942522e+2, -1079062.1, -1114939.8, 31758.756, -0.019395255, 0.0014349994, -1060526.0, 23105.348, 0.0, 5.0496383, 5.021949 
9.789055e+2, 1.9443744e+2, -1029539.4, -1064378.0, 32910.625, -0.011935005, 0.0022052901, -1009722.4, 24790.45, 0.0, 5.049809, 5.022608 
9.7863185e+2, 1.9945018e+2, -981242.3, -1015158.0, 35676.867, 0.0032964326, 0.0019491911, -958698.2, 26690.834, 0.0, 5.0498266, 5.0228233 
9.7835773e+2, 2.0446204e+2, -935073.9, -970835.6, 36449.13, 0.014632814, 0.0007102374, -912355.94, 23916.691, 0.0, 5.0498276, 5.0213556 
9.7808105e+2, 2.0947236e+2, -887446.8, -923472.06, 37453.09, 0.014428407, -0.0010477774, -863900.0, 23270.98, 0.0, 5.0498347, 5.0209575 
9.778022e+2, 2.1448308e+2, -838181.75, -872803.4, 37563.484, 0.007107536, -0.0010650565, -814132.2, 23933.082, 0.0, 5.049818, 5.021773 
9.775197e+2, 2.1949485e+2, -788665.2, -821915.9, 36645.094, -0.0026486362, -0.00122627, -765050.44, 23898.998, 0.0, 5.0497565, 5.02275 
9.77235e+2, 2.2450587e+2, -743842.25, -778351.25, 37918.844, -0.01071802, -0.0018504009, -719436.75, 20404.646, 0.0, 5.0493326, 5.0211606 
9.769495e+2, 2.2951514e+2, -697518.06, -732047.94, 37669.11, -0.009562995, -0.0034930205, -673345.8, 17404.979, 0.0, 5.0489426, 5.0205593 
9.766616e+2, 2.345247e+2, -648944.2, -681338.56, 37175.926, -0.005580207, -0.0060472996, -624590.2, 17067.096, 0.0, 5.0485816, 5.0215745 
9.763658e+2, 2.3953585e+2, -597845.94, -628469.0, 31399.412, 0.00061832485, -0.0070273597, -578223.75, 14324.512, 0.0, 5.0484543, 5.023493 
9.760646e+2, 2.4454731e+2, -554436.0, -585886.1, 32747.602, 0.0019175898, -0.003070716, -533833.6, 9602.894, 0.0, 5.0475574, 5.0217366 
9.757614e+2, 2.4955685e+2, -508844.97, -539371.9, 33046.836, -0.0018256805, 0.0012321778, -487706.94, 6636.383, 0.0, 5.0467916, 5.021359 
9.7545475e+2, 2.5456703e+2, -461235.7, -490271.38, 30111.654, -0.0024615533, 0.0062068105, -442324.8, 2919.2856, 0.0, 5.0462103, 5.0219393 
9.751361e+2, 2.5957865e+2, -408503.8, -436571.0, 20083.361, -0.004897512, 0.008917932, -398036.72, -1905.9269, 0.0, 5.0462704, 5.024319 
9.7481006e+2, 2.6458988e+2, -365457.94, -394673.78, 20689.996, -0.007551059, 0.009030176, -354738.66, -7717.3535, 0.0, 5.045298, 5.022315 
9.7448355e+2, 2.6959893e+2, -320500.84, -348751.47, 19411.465, -0.0023777336, 0.011245959, -310619.3, -12686.458, 0.0, 5.0443025, 5.0218167 
9.7415096e+2, 2.7460855e+2, -272476.25, -298286.44, 14123.767, -0.0051029054, 0.008720598, -266249.63, -17410.324, 0.0, 5.0435095, 5.0230618 
9.7380465e+2, 2.7961943e+2, -218895.2, -248496.9, 1099.9233, 0.0013781035, 0.0052889744, -218854.39, -19121.992, 0.0, 5.0444384, 5.023852 
9.734511e+2, 2.8462988e+2, -169456.4, -201024.33, -88.70304, 0.0052335337, -0.0019087333, -169456.16, -18834.543, 0.0, 5.0451465, 5.0231967 
9.7309744e+2, 2.896382e+2, -121301.17, -156525.78, 2262.646, -0.005376847, -0.014063642, -121156.43, -19625.705, 0.0, 5.0458007, 5.021512 
9.727424e+2, 2.9464558e+2, -67606.8, -110247.17, -11357.958, 0.022077704, -0.023244625, -64770.13, -12320.948, 0.0, 5.048207, 5.020039 
9.723713e+2, 2.9965112e+2, -10278.466, -65412.24, -12672.596, -0.02641261, -0.027464831, -7505.1494, -4117.022, 0.0, 5.0529733, 5.0167274 
9.720173e+2, 3.0465418e+2, 46499.15, -21577.617, 6081.533, 0.0041764462, -0.02117727, 47038.164, 47038.164, 0.0, 5.058294, 5.0124073 
9.8703027e+2, 1.3954265e+2, -1573289.6, -1574343.3, 3261.6611, 0.02418876, -0.0055881445, -1570512.5, 1967.868, 0.0, 5.0378866, 5.0364766 
9.867412e+2, 1.4456967e+2, -1521118.9, -1530009.3, 3921.5269, 0.012927451, 0.00077048776, -1519636.3, 3579.5574, 0.0, 5.0405493, 5.033804 
9.8645216e+2, 1.495934e+2, -1469724.6, -1485845.8, 6678.9966, -0.0028268958, 0.0042174775, -1467317.1, 6667.2813, 0.0, 5.042958, 5.031173 
9.861645e+2, 1.5461498e+2, -1418399.1, -1439338.4, 10393.343, -0.024688426, 0.0066477135, -1414116.3, 10657.715, 0.0, 5.044793, 5.029612 
9.85886e+2, 1.5963443e+2, -1371375.0, -1396150.4, 17143.727, -0.014661692, 0.0063227597, -1362611.8, 12972.728, 0.0, 5.0457206, 5.027224 
9.8561054e+2, 1.646523e+2, -1321672.3, -1347744.5, 16973.975, 0.0092847105, 0.001983448, -1313306.1, 13102.428, 0.0, 5.0463967, 5.0269046 
9.8533183e+2, 1.6966973e+2, -1271656.9, -1298638.8, 17922.602, 0.020815196, -0.0013529923, -1262715.1, 14521.347, 0.0, 5.047076, 5.026824 
9.85052e+2, 1.7468783e+2, -1220301.1, -1246320.3, 20028.59, 0.019001486, -0.0024130233, -1209427.9, 18630.037, 0.0, 5.047697, 5.0278788 
9.84774e+2, 1.7970622e+2, -1172969.9, -1199249.3, 25000.47, 0.000294047, -0.001956417, -1157866.4, 21010.105, 0.0, 5.0479045, 5.02719 
9.844978e+2, 1.8472315e+2, -1126839.4, -1156952.1, 26027.28, -0.01649082, 0.00050753343, -1111827.3, 17883.531, 0.0, 5.0483184, 5.0248604 
9.842222e+2, 1.8973802e+2, -1078989.8, -1110536.9, 28004.736, -0.019846132, 0.0023871367, -1062621.9, 17943.861, 0.0, 5.0486436, 5.0239944 
9.839476e+2, 1.9475265e+2, -1028487.56, -1058886.6, 28908.035, -0.011697887, 0.002849084, -1011026.7, 20396.38, 0.0, 5.0490127, 5.024953 
9.8367417e+2, 1.99768e+2, -979644.7, -1009176.06, 31832.066, 0.0040120645, 0.0021047725, -959320.4, 22952.936, 0.0, 5.049172, 5.0252814 
9.8340005e+2, 2.0478249e+2, -933158.6, -964751.7, 32700.668, 0.014928448, 0.00043165215, -912639.0, 20492.426, 0.0, 5.049302, 5.023792 
9.8312336e+2, 2.0979545e+2, -885465.7, -917583.06, 34117.824, 0.014504833, -0.0012848501, -863816.2, 20188.115, 0.0, 5.0493946, 5.023289 
9.8284435e+2, 2.1480884e+2, -835653.75, -866025.9, 34387.387, 0.006555304, -0.0015899284, -813248.5, 21624.297, 0.0, 5.049444, 5.024397 
9.825615e+2, 2.198236e+2, -785665.8, -814466.94, 33499.926, -0.0037888156, -0.0015969538, -763602.4, 22125.637, 0.0, 5.049446, 5.0256 
9.8227644e+2, 2.2483774e+2, -740975.25, -771447.94, 34820.99, -0.011227583, -0.00086543296, -718203.06, 18386.578, 0.0, 5.0490766, 5.0238013 
9.819904e+2, 2.2984996e+2, -693867.5, -724311.06, 35175.09, -0.009816702, -0.0015773457, -670761.9, 16708.125, 0.0, 5.048877, 5.023421 
9.81702e+2, 2.3486245e+2, -644786.06, -673483.25, 34814.867, -0.0060173026, -0.004345657, -621478.9, 16869.08, 0.0, 5.048738, 5.024383 
9.814055e+2, 2.398766e+2, -593109.4, -620293.25, 29143.115, 0.0011244268, -0.005818793, -574544.5, 14664.901, 0.0, 5.048808, 5.02635 
9.811035e+2, 2.448908e+2, -549554.3, -577419.44, 30590.357, 0.0029169729, -0.003418494, -529873.1, 10197.368, 0.0, 5.047938, 5.024691 
9.807994e+2, 2.4990316e+2, -504694.28, -532349.5, 31146.783, -0.0006330568, 0.0015947198, -484443.7, 6506.153, 0.0, 5.04715, 5.0238037 
9.8049176e+2, 2.5491595e+2, -457121.88, -483225.0, 28198.693, -0.00094847695, 0.0065670707, -439100.78, 2724.029, 0.0, 5.0465403, 5.024425 
9.8017186e+2, 2.5992993e+2, -405415.22, -431234.06, 19196.297, -0.006031274, 0.008481421, -395191.3, -2502.9585, 0.0, 5.046518, 5.0262156 
9.798446e+2, 2.6494288e+2, -362790.75, -390869.38, 19748.945, -0.010466208, 0.009206846, -352599.44, -9037.203, 0.0, 5.045683, 5.0235844 
9.7951704e+2, 2.6995328e+2, -316497.66, -343177.94, 18847.982, -0.0041419677, 0.011854788, -306746.53, -12285.601, 0.0, 5.0449715, 5.023604 
9.7918266e+2, 2.7496403e+2, -268946.3, -294924.66, 13461.518, -0.01084214, 0.008224786, -263229.06, -17872.678, 0.0, 5.0444126, 5.0239267 
9.7883606e+2, 2.7997515e+2, -219383.05, -250925.2, 2179.838, -0.003123172, 0.0057697776, -219233.11, -22986.975, 0.0, 5.044813, 5.022715 
9.784831e+2, 2.8498423e+2, -173613.55, -206263.47, 710.756, -0.00088358636, -0.0012034712, -173598.08, -26450.984, 0.0, 5.0443873, 5.0214977 
9.7813076e+2, 2.8999045e+2, -127453.555, -165208.52, 3305.6963, -0.010610873, -0.012546333, -127166.305, -29091.834, 0.0, 5.044745, 5.0186954 
9.777786e+2, 2.9499438e+2, -72778.33, -121323.984, -11361.687, 0.03462289, -0.02346263, -70250.82, -21226.498, 0.0, 5.0480776, 5.0159216 
9.7741115e+2, 2.9999614e+2, -13840.785, -68986.03, -6811.345, -0.028521905, -0.039364774, -13011.93, -13011.93, 0.0, 5.0525093, 5.015306 
9.770631e+2, 3.0499965e+2, 46847.344, -15795.73, 8642.994, -0.015179539, -0.043805975, 48017.957, 48017.957, 0.0, 5.0578027, 5.014493 
9.920613e+2, 1.3982905e+2, -1566481.0, -1569867.8, -2193.7393, 0.036454216, -0.01306272, -1565403.1, 4271.4805, 0.0, 5.039536, 5.037422 
9.9177235e+2, 1.4485802e+2, -1516155.9, -1527086.0, -836.13135, 0.0013610731, 0.0005617487, -1516092.3, 4297.61, 0.0, 5.041679, 5.0344963 
9.9148625e+2, 1.4988275e+2, -1466194.6, -1483575.8, 962.3769, -0.007622124, 0.0009955037, -1466141.5, 5006.3496, 0.0, 5.043546, 5.031924 
9.912012e+2, 1.5490551e+2, -1416019.0, -1437386.5, 3689.2766, -0.021852335, 0.0013485221, -1415400.0, 6525.1094, 0.0, 5.044883, 5.0305214 
9.909245e+2, 1.5992619e+2, -1369574.8, -1394888.5, 9107.067, -0.0062085087, -0.0008486549, -1366638.8, 6084.068, 0.0, 5.045604, 5.0280566 
9.906494e+2, 1.6494547e+2, -1320200.1, -1347475.1, 8192.865, 0.015455082, -0.004288609, -1317928.4, 5605.453, 0.0, 5.046292, 5.027422 
9.903711e+2, 1.6996422e+2, -1270237.5, -1298810.1, 8234.669, 0.024014853, -0.006262371, -1268034.3, 6315.6006, 0.0, 5.046982, 5.0272155 
9.900916e+2, 1.749835e+2, -1218780.6, -1246478.4, 9369.618, 0.0192381, -0.006806939, -1215908.8, 9251.582, 0.0, 5.047587, 5.0283203 
9.89814e+2, 1.800033e+2, -1171187.4, -1199003.0, 13221.08, -0.00042320395, -0.0054327995, -1165906.0, 10059.983, 0.0, 5.047761, 5.0278263 
9.895382e+2, 1.8502176e+2, -1125017.9, -1156806.6, 13396.164, -0.015799237, -0.002563527, -1120125.5, 6659.5625, 0.0, 5.0481424, 5.0255113 
9.892631e+2, 1.9003825e+2, -1077014.5, -1110495.3, 14670.598, -0.018053811, -0.00045739717, -1071495.9, 6127.5405, 0.0, 5.048494, 5.024626 
9.889888e+2, 1.9505481e+2, -1026061.2, -1058099.6, 14656.77, -0.009795411, 0.0006021253, -1020367.8, 8093.3687, 0.0, 5.0488358, 5.025896 
9.8871547e+2, 2.000724e+2, -976850.8, -1007764.75, 16760.525, 0.004282376, 0.0005240519, -969507.94, 9781.165, 0.0, 5.0489674, 5.02648 
9.884411e+2, 2.0508914e+2, -930570.1, -963649.6, 16957.695, 0.013321112, -0.001132843, -923421.75, 6703.544, 0.0, 5.049034, 5.0249267 
9.881644e+2, 2.1010451e+2, -882798.44, -916504.75, 17700.95, 0.012645073, -0.0019225988, -875210.75, 5764.1895, 0.0, 5.0491242, 5.0244355 
9.878855e+2, 2.1512042e+2, -832474.06, -864156.0, 17512.637, 0.0057178074, -0.0029254544, -824700.9, 7118.423, 0.0, 5.0492015, 5.0258265 
9.876026e+2, 2.2013815e+2, -781426.6, -811483.94, 16142.903, -0.004027123, -0.0025125365, -774399.56, 8246.265, 0.0, 5.049386, 5.027375 
9.8731744e+2, 2.2515568e+2, -736285.4, -768459.2, 17170.752, -0.008902699, 0.0010444393, -728843.06, 4631.4653, 0.0, 5.0492096, 5.025496 
9.8703134e+2, 2.301714e+2, -688557.8, -720531.7, 17973.996, -0.006957449, 0.0039857286, -680489.7, 3831.3152, 0.0, 5.0491266, 5.025355 
9.867426e+2, 2.3518763e+2, -639053.9, -669396.06, 17464.611, -0.0030625903, 0.0054759416, -631091.1, 4071.3254, 0.0, 5.0491133, 5.0263853 
9.864459e+2, 2.4020527e+2, -586321.06, -615767.5, 11871.082, 0.0050029624, 0.0042561917, -582131.44, 3858.5298, 0.0, 5.0495644, 5.028379 
9.8614335e+2, 2.4522221e+2, -541359.94, -572413.9, 14053.631, 0.0077037066, -0.00018702759, -535944.3, 879.3912, 0.0, 5.049277, 5.0266275 
9.858388e+2, 2.5023717e+2, -494551.56, -525666.56, 15063.946, 0.005203578, -0.0027480198, -488453.63, -776.6212, 0.0, 5.0490837, 5.026083 
9.855307e+2, 2.5525287e+2, -444685.28, -475108.53, 12593.377, 0.0066855177, -0.00451005, -440148.84, -1625.7314, 0.0, 5.049261, 5.02689 
9.8521054e+2, 2.6026985e+2, -391045.94, -424012.22, 5120.4727, 0.0023857702, -0.0066479025, -390268.9, -912.2902, 0.0, 5.0503125, 5.0279193 
9.8488307e+2, 2.6528597e+2, -343716.66, -381594.06, 5924.4585, -0.003853147, -0.0019288973, -342811.63, -2612.295, 0.0, 5.0512414, 5.025276 
9.8455507e+2, 2.7029923e+2, -293729.97, -333257.06, 7329.8535, -0.002724469, 0.0027919977, -292414.5, -1343.8463, 0.0, 5.052224, 5.0247784 
9.8422027e+2, 2.7531302e+2, -241318.89, -284061.28, 2715.3823, -0.013481669, 0.009483171, -241147.08, 789.252, 0.0, 5.053768, 5.0245657 
9.8387456e+2, 2.8032556e+2, -187790.63, -241736.6, -5961.2114, -0.0017576034, 0.012339958, -187139.75, 5672.706, 0.0, 5.0565305, 5.021656 
9.8352164e+2, 2.853329e+2, -141675.95, -198397.38, -5596.442, 0.008208351, -0.006972605, -141129.05, 2601.4504, 0.0, 5.0565624, 5.0197663 
9.831697e+2, 2.9033744e+2, -100781.7, -158263.14, -855.44995, 0.008143645, -0.023591233, -100768.98, -6094.7476, 0.0, 5.0550427, 5.0172834 
9.828175e+2, 2.9534024e+2, -57470.414, -118543.44, -11997.878, 0.049456164, -0.031772465, -55197.97, -9563.073, 0.0, 5.054402, 5.0145593 
9.824518e+2, 3.0034077e+2, -8857.519, -66965.4, -4132.08, -0.025315203, -0.03878195, -8565.155, -8565.155, 0.0, 5.054157, 5.015782 
9.8210603e+2, 3.053475e+2, 25077.56, -28002.875, 315.11288, -0.0039759516, -0.006017058, 25079.43, 25079.43, 0.0, 5.049228, 5.0144296 
9.970919e+2, 1.4011186e+2, -1565344.1, -1566737.5, -1761.6495, 0.030513909, -0.010157699, -1564146.4, 2757.3923, 0.0, 5.0394382, 5.0384917 
9.968041e+2, 1.4514215e+2, -1514586.9, -1523690.5, 1155.9419, -0.015664542, 0.006210814, -1514442.4, 3162.7104, 0.0, 5.041699, 5.0356126 
9.9652076e+2, 1.5016767e+2, -1464988.5, -1480815.8, 2246.2805, -0.015953237, 0.0036562425, -1464675.9, 3678.6467, 0.0, 5.0435333, 5.032848 
9.9623823e+2, 1.5519136e+2, -1414441.9, -1433894.0, 4646.2554, -0.020856047, 0.002178958, -1413389.1, 5733.034, 0.0, 5.0448728, 5.0317025 
9.9596304e+2, 1.602129e+2, -1368203.9, -1392096.3, 9548.963, -0.000030400743, -0.0011590045, -1364856.5, 5054.3213, 0.0, 5.0456243, 5.029 
9.956882e+2, 1.6523318e+2, -1319215.3, -1345435.8, 8658.412, 0.018517869, -0.0026677132, -1316614.1, 4098.487, 0.0, 5.046307, 5.028109 
9.9541014e+2, 1.7025279e+2, -1269411.5, -1297054.0, 8746.226, 0.023656784, -0.0030504514, -1266876.6, 4644.5034, 0.0, 5.0469923, 5.0278068 
9.9513096e+2, 1.7527278e+2, -1217715.4, -1244321.5, 9634.016, 0.015941503, -0.0033410788, -1214593.3, 7732.461, 0.0, 5.047607, 5.0290513 
9.948537e+2, 1.8029338e+2, -1169843.5, -1196295.3, 13449.252, -0.0037379502, -0.0022713845, -1164206.5, 8917.493, 0.0, 5.047784, 5.0287533 
9.945785e+2, 1.853127e+2, -1123404.1, -1153504.5, 13460.756, -0.017029712, -0.00089857844, -1118262.8, 5671.429, 0.0, 5.0481625, 5.0266485 
9.9430394e+2, 1.9033027e+2, -1075386.6, -1107119.6, 14855.456, -0.018053902, 0.0004335822, -1069517.6, 5243.89, 0.0, 5.048509, 5.025795 
9.940298e+2, 1.9534816e+2, -1023955.0, -1053781.1, 14905.785, -0.010274023, 0.0005836671, -1017782.94, 7802.6685, 0.0, 5.0488667, 5.027397 
9.937565e+2, 2.003675e+2, -973960.44, -1001990.94, 16499.117, 0.0016693723, -0.000114644965, -966327.44, 10068.525, 0.0, 5.04902, 5.028504 
9.934819e+2, 2.0538612e+2, -927821.7, -958154.4, 16934.557, 0.008016006, -0.0025189929, -920254.9, 6959.1094, 0.0, 5.0490875, 5.0268564 
9.93205e+2, 2.1040347e+2, -879773.0, -910512.7, 17413.602, 0.0056307954, -0.0036758985, -871916.44, 6128.391, 0.0, 5.0491934, 5.0265446 
9.9292606e+2, 2.1542156e+2, -829241.7, -857577.7, 17302.457, -0.0011625102, -0.005652905, -821046.6, 7821.6807, 0.0, 5.0492544, 5.0281587 
9.926433e+2, 2.2044207e+2, -777381.25, -803222.3, 15660.404, -0.01006728, -0.004731708, -769999.4, 9668.468, 0.0, 5.049446, 5.030325 
9.923581e+2, 2.2546293e+2, -732147.44, -759910.5, 16580.48, -0.012898485, 0.0013892533, -724404.7, 6059.882, 0.0, 5.0492635, 5.028555 
9.9207187e+2, 2.3048201e+2, -684432.2, -711803.94, 17538.697, -0.009698718, 0.0072898506, -675871.5, 5406.846, 0.0, 5.0491543, 5.028497 
9.9178296e+2, 2.3550206e+2, -634521.2, -659875.8, 16913.629, -0.0051235566, 0.013607453, -626061.2, 6021.5625, 0.0, 5.04916, 5.029824 
9.914861e+2, 2.4052338e+2, -581624.6, -605838.2, 11200.717, 0.0028655715, 0.013792731, -577238.06, 5636.184, 0.0, 5.049606, 5.0319896 
9.911831e+2, 2.4554361e+2, -536863.94, -562998.25, 13127.285, 0.004787056, 0.0057357284, -531408.8, 2266.4487, 0.0, 5.0493336, 5.0300555 
9.908781e+2, 2.5056148e+2, -489588.06, -515103.28, 14756.845, 0.0015523313, -0.0040599247, -482838.72, 1660.5955, 0.0, 5.0491433, 5.0299344 
9.905699e+2, 2.5558043e+2, -439792.7, -464446.97, 11897.395, 0.005000403, -0.011193447, -434987.78, 325.0122, 0.0, 5.0492835, 5.0308037 
9.902503e+2, 2.6060072e+2, -387190.88, -415345.16, 5443.4053, 0.00437435, -0.01577521, -386175.1, -61.459473, 0.0, 5.0503182, 5.0311 
9.8992383e+2, 2.656203e+2, -339684.28, -372780.06, 5964.0625, -0.0015803382, -0.0072026164, -338642.34, -1719.57, 0.0, 5.0512967, 5.0284996 
9.8959666e+2, 2.7063662e+2, -290197.38, -326135.4, 7741.9976, -0.0010854888, -0.0034152395, -288600.53, -836.52936, 0.0, 5.052363, 5.0273705 
9.892628e+2, 2.7565357e+2, -237499.45, -276388.88, 3109.798, -0.012106624, 0.0071126693, -237252.34, 1346.6526, 0.0, 5.053919, 5.027393 
9.889181e+2, 2.8066835e+2, -186619.36, -238534.67, -5293.464, -0.0068151453, 0.01317998, -186085.13, 3368.3115, 0.0, 5.0564785, 5.0228534 
9.885645e+2, 2.8567573e+2, -141090.48, -195891.69, -6569.8423, -0.0034919798, -0.014756612, -140313.86, 58.358067, 0.0, 5.056381, 5.0207677 
9.882109e+2, 2.9068094e+2, -99749.984, -155606.77, -2103.597, -0.0079840375, -0.033456136, -99670.875, -8359.228, 0.0, 5.05504, 5.018266 
9.878565e+2, 2.956837e+2, -55887.88, -116232.336, -12214.185, 0.03086934, -0.050017174, -53509.383, -11235.017, 0.0, 5.054732, 5.0152526 
9.87492e+2, 3.0068573e+2, -8620.962, -64329.395, -3489.6306, -0.029319169, -0.046299554, -8403.219, -8403.219, 0.0, 5.053916, 5.0167923 
9.871435e+2, 3.0569425e+2, 26404.887, -19361.256, -2841.4348, 0.023855671, 0.005670815, 26580.625, 26580.625, 0.0, 5.048296, 5.018064 
1.00212134e+3, 1.4039455e+2, -1564712.5, -1564257.5, -350.9027, 0.014451616, -0.008958854, -1564066.8, 67.47049, 0.0, 5.039282, 5.039371 
1.00183696e+3, 1.4542475e+2, -1514317.9, -1521591.6, 1404.4551, -0.02198473, -0.00013426127, -1514056.1, 779.45715, 0.0, 5.0414033, 5.036449 
1.0015556e+3, 1.5045144e+2, -1465083.0, -1479026.9, 2245.885, -0.020517165, -0.0028831172, -1464730.3, 842.80426, 0.0, 5.0431256, 5.0336413 
1.0012752e+3, 1.554763e+2, -1414380.6, -1431463.3, 4307.1685, -0.018992316, -0.0034476581, -1413356.1, 2971.9746, 0.0, 5.0443945, 5.032753 
1.0010012e+3, 1.6049896e+2, -1368052.6, -1390156.6, 8719.256, 0.0042257244, -0.0055516413, -1365027.3, 2078.1145, 0.0, 5.045263, 5.029839 
1.0007267e+3, 1.6552049e+2, -1319148.1, -1343817.6, 7815.3696, 0.019889494, -0.0033631558, -1316880.6, 1015.19165, 0.0, 5.0459847, 5.028817 
1.00044906e+3, 1.705411e+2, -1269998.9, -1296160.8, 8275.01, 0.022834748, -0.0012180648, -1267601.3, 1094.057, 0.0, 5.046544, 5.02832 
1.0001703e+3, 1.7556192e+2, -1217657.4, -1242698.0, 9102.792, 0.012952784, -0.0004007519, -1214698.1, 4794.291, 0.0, 5.0472813, 5.0297623 
9.998935e+2, 1.8058346e+2, -1169745.3, -1194337.4, 12863.218, -0.0059427912, 0.0010106161, -1164246.5, 6035.7163, 0.0, 5.0474005, 5.0296106 
9.996188e+2, 1.8560354e+2, -1122403.0, -1150487.3, 13487.064, -0.017629307, -0.00036702247, -1116975.1, 4109.051, 0.0, 5.047971, 5.027783 
9.9934477e+2, 1.9062215e+2, -1074175.8, -1103849.9, 14613.9375, -0.017548783, -0.000095973446, -1068187.3, 3713.5159, 0.0, 5.048353, 5.027008 
9.9907094e+2, 1.956414e+2, -1022234.06, -1049762.1, 14985.643, -0.010586343, -0.0009116283, -1015650.6, 7060.3345, 0.0, 5.04879, 5.0288415 
9.9879754e+2, 2.0066251e+2, -971538.8, -996496.25, 16240.496, -0.0008208945, -0.0017054254, -963536.5, 9967.093, 0.0, 5.0489206, 5.0305 
9.985227e+2, 2.0568317e+2, -925330.6, -952746.75, 16643.621, 0.0029306165, -0.0036499084, -917476.6, 6825.6313, 0.0, 5.049042, 5.0288014 
9.982457e+2, 2.107025e+2, -876989.25, -904638.25, 17081.057, -0.0013972459, -0.00509348, -868839.25, 6274.7964, 0.0, 5.0491796, 5.0286493 
9.979668e+2, 2.1572277e+2, -826330.5, -851276.0, 17047.49, -0.007904274, -0.007940819, -817680.1, 8236.392, 0.0, 5.049221, 5.0304313 
9.9768406e+2, 2.207461e+2, -773616.94, -795193.4, 15043.098, -0.015856529, -0.006404509, -765893.5, 10795.539, 0.0, 5.0494285, 5.033228 
9.9739873e+2, 2.2577025e+2, -728025.4, -751360.44, 16200.358, -0.01743407, 0.0023136602, -719728.4, 7725.2334, 0.0, 5.0493164, 5.031614 
9.9711245e+2, 2.3079267e+2, -680322.25, -703123.4, 16971.906, -0.0125374785, 0.010663324, -671277.3, 6957.772, 0.0, 5.0491834, 5.031624 
9.968234e+2, 2.3581657e+2, -629999.06, -650351.1, 16399.021, -0.0074855145, 0.02202041, -620875.4, 8126.691, 0.0, 5.0492067, 5.0332637 
9.9652624e+2, 2.408414e+2, -577020.06, -596088.75, 10548.756, 0.00030834964, 0.022057649, -572335.44, 7423.889, 0.0, 5.0496464, 5.0355363 
9.962229e+2, 2.4586496e+2, -532032.2, -552828.5, 12157.088, 0.0017930267, 0.010502291, -526432.94, 4094.1448, 0.0, 5.049391, 5.0337596 
9.959176e+2, 2.5088573e+2, -484963.84, -505263.6, 14486.738, -0.0016990767, -0.0067195194, -477425.16, 3896.9792, 0.0, 5.0492024, 5.0335193 
9.9560905e+2, 2.5590798e+2, -435057.88, -454121.8, 11131.792, 0.003774782, -0.019330906, -429934.63, 2168.0308, 0.0, 5.0493054, 5.0345936 
9.952901e+2, 2.6093176e+2, -383579.6, -407243.0, 5963.47, 0.005476857, -0.024109192, -382161.7, 707.14667, 0.0, 5.0503335, 5.0340643 
9.949645e+2, 2.659546e+2, -336189.78, -365175.63, 6052.2695, -0.0009710662, -0.0129249515, -334976.8, -1330.8018, 0.0, 5.051354, 5.0312724 
9.9463844e+2, 2.7097416e+2, -286540.28, -318801.16, 7967.0464, 0.0001805802, -0.008096046, -284680.03, -223.91426, 0.0, 5.05251, 5.0300393 
9.943056e+2, 2.759942e+2, -233549.39, -268281.22, 3632.8364, -0.010173053, 0.006303249, -233173.48, 2087.3616, 0.0, 5.05406, 5.0303707 
9.939619e+2, 2.810109e+2, -185732.11, -235839.39, -4835.315, -0.011476019, 0.01280304, -185269.77, 826.8969, 0.0, 5.056404, 5.0238566 
9.93607e+2, 2.8601828e+2, -140040.6, -192477.64, -8122.238, -0.015617256, -0.024546346, -138811.31, -1794.1078, 0.0, 5.0562243, 5.022089 
9.9325186e+2, 2.9102385e+2, -99323.79, -153462.08, -3063.107, -0.024263378, -0.048419658, -99151.03, -11196.5, 0.0, 5.0548706, 5.0191026 
9.9289507e+2, 2.9602695e+2, -55889.01, -115243.21, -12340.759, 0.009027668, -0.07410424, -53425.414, -14509.108, 0.0, 5.0545926, 5.015623 
9.925312e+2, 3.0103073e+2, -9355.315, -63467.402, -3274.0374, -0.039885737, -0.057287898, -9157.941, -9157.941, 0.0, 5.053561, 5.017145 
9.9217725e+2, 3.0604124e+2, 27993.738, -11680.176, -10041.999, 0.02856813, -0.0065739313, 30390.688, 30390.688, 0.0, 5.0475698, 5.021215 
1.0071531e+3, 1.4067777e+2, -1558658.6, -1562269.5, -338.5084, 0.01646894, 0.010193349, -1558627.3, 2732.624, 0.0, 5.0415506, 5.038914 
1.0068712e+3, 1.4570518e+2, -1512282.4, -1519743.9, -615.0437, -0.008741454, -0.009704606, -1512232.0, -143.95909, 0.0, 5.0418077, 5.036906 
1.0065906e+3, 1.5073323e+2, -1464480.1, -1479135.0, -205.51065, -0.016412685, -0.0047228993, -1464477.3, -1666.0734, 0.0, 5.0432453, 5.0336065 
1.00631036e+3, 1.5575853e+2, -1412994.8, -1430889.3, 672.3829, -0.02704687, -0.005995088, -1412969.5, 591.802, 0.0, 5.044677, 5.032904 
1.00603834e+3, 1.6078183e+2, -1366110.1, -1390152.5, 3075.8235, 0.002656968, -0.0060484884, -1365722.9, -1390.9934, 0.0, 5.0458055, 5.0297213 
1.0057656e+3, 1.6580352e+2, -1315482.3, -1342301.6, 510.99893, 0.028957015, -0.007466371, -1315472.5, -351.26587, 0.0, 5.0468984, 5.0290833 
1.00548886e+3, 1.7082477e+2, -1265917.8, -1295145.6, 174.1959, 0.03388561, -0.006762445, -1265916.8, -1.5722015, 0.0, 5.047714, 5.0283146 
1.0052102e+3, 1.7584725e+2, -1215005.6, -1241896.6, -157.03412, 0.020672916, 0.00046974223, -1215004.8, 1692.1732, 0.0, 5.047787, 5.0300345 
1.0049329e+3, 1.8087046e+2, -1167245.6, -1193190.4, 2904.3662, -0.0054862103, 0.008305548, -1166924.5, 546.07117, 0.0, 5.0476894, 5.0301356 
1.00465804e+3, 1.8589112e+2, -1121445.4, -1151279.0, 2891.7583, -0.023341708, 0.0009380844, -1121167.6, -2901.4517, 0.0, 5.0479207, 5.0278225 
1.00438446e+3, 1.9090915e+2, -1071866.5, -1102939.6, 2657.0293, -0.023504568, -0.01653822, -1071640.9, -2553.2593, 0.0, 5.048486, 5.027592 
1.0041117e+3, 1.959291e+2, -1019415.0, -1048899.8, 2868.882, -0.011276234, -0.025775844, -1019138.44, 752.09515, 0.0, 5.0491166, 5.02935 
1.0038402e+3, 2.009525e+2, -967459.4, -993778.2, 2767.74, 0.013758559, -0.022760801, -967171.44, 3488.9497, 0.0, 5.049334, 5.03167 
1.00356564e+3, 2.0597784e+2, -921943.7, -949484.7, 3470.6523, 0.022632504, -0.004117155, -921513.06, -98.98191, 0.0, 5.0489917, 5.0304065 
1.0032882e+3, 2.1100079e+2, -874704.6, -901204.3, 4278.9272, 0.013425738, 0.0040035257, -874030.8, -1839.5697, 0.0, 5.0485754, 5.0305896 
1.0030077e+3, 2.1602634e+2, -825052.1, -848709.5, 4542.5264, -0.0065902285, 0.026118249, -824209.9, -1267.0452, 0.0, 5.0483007, 5.0322385 
1.0027244e+3, 2.2105303e+2, -771853.4, -790733.5, 3031.9375, -0.020139001, 0.029624196, -771378.44, 2304.3284, 0.0, 5.048313, 5.035824 
1.0024389e+3, 2.2607684e+2, -726164.1, -747705.56, 4360.369, -0.023091799, 0.0014214857, -725315.0, -864.565, 0.0, 5.0484095, 5.0338345 
1.0021529e+3, 2.3109853e+2, -677296.2, -698673.3, 5638.4688, -0.0136536835, -0.031375915, -675900.1, -661.14026, 0.0, 5.0486474, 5.033968 
1.0018642e+3, 2.3612416e+2, -626026.06, -644848.3, 5215.5654, -0.0045213015, -0.03663694, -624677.5, 1311.3866, 0.0, 5.0488667, 5.0359216 
1.0015675e+3, 2.4115488e+2, -571988.6, -589165.06, -142.43216, 0.008480926, -0.015667485, -571987.44, 4701.0503, 0.0, 5.049545, 5.038603 
1.001264e+3, 2.4618757e+2, -527393.56, -545729.94, 2382.7332, 0.012641699, 0.02599243, -527089.0, 277.8429, 0.0, 5.049119, 5.036949 
1.0009592e+3, 2.5121585e+2, -480885.72, -499271.03, 6057.2983, 0.01730531, 0.046015386, -479069.47, -981.32104, 0.0, 5.0489573, 5.0362673 
1.0006497e+3, 2.5624692e+2, -429716.3, -446561.28, 3840.353, 0.017930305, 0.082611695, -428882.1, -100.26993, 0.0, 5.0493865, 5.0377564 
1.0003289e+3, 2.6127347e+2, -380487.56, -404551.8, -415.0357, -0.0014367773, 0.074258685, -380480.4, -959.6739, 0.0, 5.0505443, 5.0353017 
1.0000024e+3, 2.662826e+2, -332518.8, -360352.53, 305.49905, -0.024351625, -0.077641286, -332515.47, -2083.1904, 0.0, 5.051525, 5.033252 
9.996765e+2, 2.713031e+2, -284392.53, -314903.88, 3217.5005, -0.031166283, -0.09057003, -284056.94, -2824.3823, 0.0, 5.052218, 5.0318584 
9.993421e+2, 2.76329e+2, -231148.63, -262968.1, -775.3152, -0.065800115, -0.040852737, -231129.73, 850.19806, 0.0, 5.053679, 5.0327277 
9.990061e+2, 2.8135663e+2, -178874.28, -224737.52, -1977.7661, -0.0033376652, 0.045155138, -178789.16, 3918.3481, 0.0, 5.057068, 5.027845 
9.9866146e+2, 2.863818e+2, -125198.5, -177449.16, 13073.988, 0.09704927, 0.15364756, -122109.76, 11343.993, 0.0, 5.0598907, 5.02624 
9.982985e+2, 2.9137775e+2, -82377.96, -142870.16, 19303.92, 0.019854276, 0.031215446, -76742.76, 7745.151, 0.0, 5.0604963, 5.020728 
9.9793166e+2, 2.9637626e+2, -49859.973, -112657.08, -1905.7804, -0.028550046, -0.042855695, -49802.188, -14304.064, 0.0, 5.056751, 5.0156703 
9.975742e+2, 3.0138135e+2, -12191.764, -63470.2, -703.0291, -0.0065941135, -0.014566453, -12182.127, -12182.127, 0.0, 5.0522795, 5.017583 
9.9720424e+2, 3.0639216e+2, 28399.451, -7990.7734, -20575.494, -0.018273976, -0.0088710105, 37670.92, 37670.92, 0.0, 5.046951, 5.0228286 
