coord_x,coord_y,stress_xx,stress_yy,tau_xy,velocity_x,velocity_y,stress_1,eps,damage,lx,ly
2.5071844e+0, 1.2151422e+2, -1710177.6, -1747375.8, -508.62878, -0.0006115744, -0.011113971, -1710170.6, 38982.027, 0.0, 5.014475, 4.990258 
2.5069293e+0, 1.2650132e+2, -1667890.6, -1711541.3, -442.58563, -0.002621988, -0.0026397586, -1667886.3, 32393.012, 0.0, 5.014375, 4.9859915 
2.5070167e+0, 1.3148673e+2, -1619208.5, -1662696.9, -339.62915, -0.001216569, -0.009402616, -1619205.9, 32217.334, 0.0, 5.0142727, 4.985991 
2.507103e+0, 1.3647209e+2, -1572730.4, -1618388.0, -237.28705, 0.00015921236, -0.014911123, -1572729.1, 29838.33, 0.0, 5.01417, 4.9844866 
2.5071454e+0, 1.4145488e+2, -1530745.3, -1583427.3, -131.64333, 0.001004767, -0.0036776592, -1530745.0, 22992.639, 0.0, 5.014085, 4.9797945 
2.5071144e+0, 1.4643532e+2, -1481580.9, -1533810.9, -88.31565, 0.0010544955, -0.0018857692, -1481580.8, 23351.111, 0.0, 5.014014, 4.98001 
2.5070825e+0, 1.5141574e+2, -1432735.0, -1484854.9, -48.766605, 0.0010948717, -0.0007008815, -1432735.0, 23391.469, 0.0, 5.013942, 4.9800105 
2.5070503e+0, 1.5639615e+2, -1385315.9, -1438875.9, -9.081426, 0.001130762, 0.0009300983, -1385315.9, 22005.268, 0.0, 5.01387, 4.9790154 
2.5070068e+0, 1.6137284e+2, -1344491.0, -1406802.1, 29.509176, 0.0009540749, 0.008349306, -1344491.0, 14060.355, 0.0, 5.0138183, 4.9733586 
2.506941e+0, 1.663466e+2, -1295118.0, -1357111.3, -52.09596, 0.000342796, 0.007963453, -1295117.9, 14689.869, 0.0, 5.013809, 4.97355 
2.5068745e+0, 1.7132036e+2, -1246014.4, -1307995.9, -146.97157, -0.00028923043, 0.007378612, -1246014.0, 15050.004, 0.0, 5.013802, 4.97355 
2.5068074e+0, 1.7629413e+2, -1198045.9, -1261285.3, -241.6988, -0.0009288706, 0.007185816, -1198045.0, 14275.231, 0.0, 5.013795, 4.9727426 
2.5067726e+0, 1.8126398e+2, -1158759.0, -1233128.9, -236.64165, -0.001372856, 0.015020921, -1158758.3, 4857.635, 0.0, 5.013812, 4.9656553 
2.5068122e+0, 1.8622951e+2, -1109249.9, -1183584.4, -141.25969, -0.0012964739, 0.010353288, -1109249.5, 5706.298, 0.0, 5.0138774, 4.9657364 
2.5068548e+0, 1.91195e+2, -1059853.8, -1134290.0, -52.92889, -0.0012055383, 0.0048201275, -1059853.8, 6442.731, 0.0, 5.013944, 4.9657364 
2.506897e+0, 1.9616048e+2, -1011349.75, -1086914.3, 35.451443, -0.0011257131, -0.00038489187, -1011349.75, 6287.2925, 0.0, 5.0140114, 4.965086 
2.5069326e+0, 2.0112273e+2, -970060.9, -1054772.3, 14.471025, -0.0007720954, 0.0029222395, -970060.9, -1053.962, 0.0, 5.014011, 4.9592676 
2.506965e+0, 2.060823e+2, -920342.06, -1003636.94, -123.75077, 0.00045575018, -0.003312452, -920341.94, 54.259083, 0.0, 5.0138288, 4.959984 
2.506998e+0, 2.1104193e+2, -871627.0, -954630.94, -248.08339, 0.0017175167, -0.010420013, -871626.25, 158.43301, 0.0, 5.0136375, 4.9599843 
2.5070298e+0, 2.1600154e+2, -823571.8, -907075.8, -370.50406, 0.0029567576, -0.017397592, -823570.2, -396.91714, 0.0, 5.013447, 4.9594855 
2.5070083e+0, 2.2095771e+2, -785986.5, -882879.3, -285.18515, 0.00323966, -0.0080302255, -785985.7, -11385.993, 0.0, 5.013343, 4.9509096 
2.506907e+0, 2.2591011e+2, -736246.7, -833049.3, -86.35594, 0.001863245, 0.0018104626, -736246.56, -10171.304, 0.0, 5.0134196, 4.9510236 
2.5068086e+0, 2.3086244e+2, -686653.25, -783582.8, 77.43883, 0.00046264377, 0.01037513, -686653.2, -9100.946, 0.0, 5.013503, 4.9510245 
2.5067088e+0, 2.358148e+2, -637708.5, -735565.4, 242.77026, -0.0009693586, 0.018954242, -637707.9, -8678.63, 0.0, 5.013587, 4.950524 
2.5066453e+0, 2.407633e+2, -596196.56, -704164.6, 425.20212, -0.0020986209, 0.03378665, -596194.9, -15659.18, 0.0, 5.0136805, 4.9442496 
2.5068492e+0, 2.4570628e+2, -544010.4, -649785.9, 380.88092, -0.0013023395, 0.0021072607, -544009.0, -11938.817, 0.0, 5.0139203, 4.9458413 
2.5070873e+0, 2.5064883e+2, -493836.94, -600026.56, 270.16724, -0.00030531362, -0.03689235, -493836.25, -10230.115, 0.0, 5.0141835, 4.945844 
2.5073215e+0, 2.5559142e+2, -443912.22, -550839.75, 168.30219, 0.0006483331, -0.07583068, -443911.97, -8769.942, 0.0, 5.0144434, 4.945649 
2.5075904e+0, 2.6052922e+2, -413069.8, -546183.94, 928.36945, 0.0005897377, -0.07573357, -413063.34, -26325.125, 0.0, 5.014956, 4.9295845 
2.507804e+0, 2.6546532e+2, -358121.16, -487133.16, 1044.2544, -0.00041977302, -0.062047616, -358112.7, -19709.592, 0.0, 5.015445, 4.9322543 
2.5079745e+0, 2.7040225e+2, -307244.1, -437068.97, 811.2155, -0.0017691181, -0.056810286, -307239.03, -17173.426, 0.0, 5.0158195, 4.9322696 
2.508124e+0, 2.7533916e+2, -256323.81, -387184.13, 570.0615, -0.0037592514, -0.052490477, -256321.33, -14592.78, 0.0, 5.016192, 4.932237 
2.5081185e+0, 2.8027976e+2, -229451.89, -400433.2, 2919.1577, -0.014477267, 0.13701187, -229402.08, -36051.86, 0.0, 5.01812, 4.90988 
2.507525e+0, 2.852124e+2, -157466.27, -296125.2, 2044.8688, -0.016883088, 0.21894003, -157436.13, -12409.367, 0.0, 5.0177627, 4.928948 
2.5068706e+0, 2.9013735e+2, -113920.43, -249138.11, 995.8437, -0.011681805, 0.14558023, -113913.09, -17137.943, 0.0, 5.015672, 4.928946 
2.5061953e+0, 2.9506227e+2, -70177.89, -202089.14, -69.345, -0.0072740815, 0.07121991, -70177.86, -21653.535, 0.0, 5.0135818, 4.9289446 
2.5056177e+0, 3.0000263e+2, -17897.635, -104490.0, -485.14984, -0.0049623805, 0.034322895, -17894.916, -17771.55, 0.0, 5.011954, 4.9561515 
2.5056976e+0, 3.0497968e+2, -8214.882, -82383.734, -1335.4761, -0.005904677, 0.12814648, -8190.8433, -8190.8433, 0.0, 5.0119567, 4.963276 
2.5058284e+0, 3.0996296e+2, -7277.2583, -81883.7, -2268.8242, -0.008157644, 0.24045217, -7208.3257, -7208.3257, 0.0, 5.0120754, 4.9633737 
2.5059003e+0, 3.1494647e+2, -6117.2397, -81379.06, -2902.982, -0.012130007, 0.3541601, -6005.4326, -6005.4326, 0.0, 5.012198, 4.9634714 
7.521524e+0, 1.2151401e+2, -1710955.6, -1748953.1, -610.0891, -0.0021901012, -0.0072946516, -1710945.8, 38210.113, 0.0, 5.0144734, 4.9897404 
7.520782e+0, 1.2650065e+2, -1667684.4, -1711123.8, -524.70624, -0.007973308, -0.0041302363, -1667678.0, 32609.453, 0.0, 5.0143757, 4.986128 
7.521045e+0, 1.314864e+2, -1619001.3, -1662281.5, -420.94476, -0.0037394785, -0.008723344, -1618997.3, 32430.656, 0.0, 5.014274, 4.986127 
7.5213057e+0, 1.3647212e+2, -1572526.0, -1617976.4, -316.80804, 0.000405437, -0.01205624, -1572523.8, 30044.744, 0.0, 5.014172, 4.984622 
7.521436e+0, 1.4145511e+2, -1530617.4, -1583156.4, -192.96805, 0.003011519, -0.000075987984, -1530616.8, 23119.688, 0.0, 5.0140834, 4.9798856 
7.521344e+0, 1.4643542e+2, -1481502.4, -1533640.5, -144.52605, 0.0031649768, -0.000008075521, -1481501.9, 23429.252, 0.0, 5.0140123, 4.9800687 
7.5212467e+0, 1.5141572e+2, -1432655.1, -1484683.3, -101.814896, 0.0032746927, -0.00059035263, -1432655.0, 23471.371, 0.0, 5.0139403, 4.980069 
7.5211495e+0, 1.56396e+2, -1385235.1, -1438703.1, -59.36612, 0.003370951, -0.0007365069, -1385235.1, 22086.45, 0.0, 5.013869, 4.979075 
7.521021e+0, 1.6137256e+2, -1344545.1, -1406912.3, 10.552492, 0.0028528864, 0.0051789195, -1344545.1, 14007.524, 0.0, 5.0138173, 4.973323 
7.5208235e+0, 1.6634627e+2, -1295278.9, -1357446.3, -59.571632, 0.0010204838, 0.0054000174, -1295278.9, 14531.357, 0.0, 5.0138087, 4.973439 
7.520623e+0, 1.7131999e+2, -1246174.8, -1308329.3, -151.4054, -0.0008793722, 0.005627349, -1246174.4, 14893.036, 0.0, 5.013801, 4.9734397 
7.5204223e+0, 1.7629373e+2, -1198206.8, -1261617.8, -243.04567, -0.0028020693, 0.0062489375, -1198205.9, 14118.858, 0.0, 5.013793, 4.9726324 
7.520318e+0, 1.8126357e+2, -1158602.9, -1232790.1, -198.00787, -0.0041214186, 0.014224247, -1158602.4, 5018.335, 0.0, 5.0138106, 4.9657707 
7.520437e+0, 1.8622929e+2, -1109082.8, -1183222.8, -91.78572, -0.0038963293, 0.010271345, -1109082.6, 5875.6694, 0.0, 5.0138764, 4.965861 
7.5205636e+0, 1.9119498e+2, -1059688.3, -1133929.5, -0.13250618, -0.0036325222, 0.005701935, -1059688.3, 6608.0747, 0.0, 5.013943, 4.965861 
7.5206894e+0, 1.9616067e+2, -1011187.1, -1086555.4, 91.64814, -0.0034020464, 0.0014755798, -1011187.06, 6447.2925, 0.0, 5.0140095, 4.9652104 
7.520801e+0, 2.0112301e+2, -970109.6, -1054874.5, -72.1625, -0.0023054546, 0.0049789385, -970109.56, -1106.3712, 0.0, 5.0140095, 4.959234 
7.520897e+0, 2.0608248e+2, -920543.5, -1004068.8, -260.7498, 0.0013575148, -0.0011108387, -920542.7, -147.86229, 0.0, 5.013828, 4.9598384 
7.5209916e+0, 2.1104196e+2, -871829.7, -955057.6, -382.5893, 0.0051044645, -0.007842708, -871827.9, -42.118454, 0.0, 5.013635, 4.959841 
7.5210845e+0, 2.1600147e+2, -823778.5, -907498.6, -503.15994, 0.008783836, -0.014440079, -823775.44, -598.73883, 0.0, 5.0134416, 4.9593434 
7.5210255e+0, 2.2095749e+2, -785715.0, -882236.75, -273.6255, 0.009734746, -0.0066125505, -785714.2, -11109.35, 0.0, 5.0133333, 4.951135 
7.5207233e+0, 2.2590983e+2, -735953.56, -832366.1, -12.622496, 0.0056033134, 0.0006263312, -735953.56, -9874.702, 0.0, 5.0134125, 4.9512663 
7.520424e+0, 2.3086216e+2, -686354.06, -782892.8, 159.95758, 0.0013397252, 0.007028132, -686353.8, -8799.993, 0.0, 5.013498, 4.9512687 
7.5201225e+0, 2.3581447e+2, -637407.06, -734870.4, 332.5396, -0.0030180654, 0.013416139, -637405.94, -8377.182, 0.0, 5.0135827, 4.95077 
7.5199497e+0, 2.4076295e+2, -595977.8, -703674.3, 542.9808, -0.006305156, 0.02527469, -595975.06, -15440.433, 0.0, 5.0136795, 4.944419 
7.5205517e+0, 2.457062e+2, -544156.5, -650050.06, 560.1846, -0.0039293645, -0.0024071694, -544153.56, -12084.156, 0.0, 5.01391, 4.945757 
7.5212425e+0, 2.506492e+2, -494021.2, -600289.5, 460.48502, -0.0010323625, -0.035550006, -494019.2, -10414.342, 0.0, 5.0141573, 4.945766 
7.521923e+0, 2.5559223e+2, -444138.97, -551103.3, 367.4683, 0.0017345011, -0.06850642, -444137.72, -8997.722, 0.0, 5.0144005, 4.9455767 
7.522677e+0, 2.6053083e+2, -411323.6, -541664.0, 1528.7136, 0.0015730831, -0.06849041, -411305.7, -24575.914, 0.0, 5.0148625, 4.931241 
7.523296e+0, 2.6546746e+2, -357730.28, -485709.66, 1785.3696, -0.0022606356, -0.051356845, -357705.38, -19321.92, 0.0, 5.015353, 4.932937 
7.5238025e+0, 2.704046e+2, -306734.78, -435509.6, 1638.4843, -0.007340604, -0.04058346, -306713.94, -16677.277, 0.0, 5.0157404, 4.9329824 
7.524248e+0, 2.7534163e+2, -255749.13, -385513.13, 1440.8354, -0.014343042, -0.032562908, -255733.13, -14041.953, 0.0, 5.016106, 4.9329805 
7.524209e+0, 2.802798e+2, -225942.63, -389406.13, 3835.649, -0.043129057, 0.109824724, -225852.67, -32521.246, 0.0, 5.0176435, 4.9139304 
7.52249e+0, 2.8521127e+2, -160547.19, -299151.84, 287.2741, -0.047515586, 0.17594406, -160546.6, -15526.28, 0.0, 5.017181, 4.9281945 
7.520612e+0, 2.9013723e+2, -116392.83, -251892.8, -424.55743, -0.0324274, 0.12931998, -116391.5, -19630.3, 0.0, 5.015286, 4.92819 
7.518672e+0, 2.95063e+2, -72172.83, -204632.42, -1213.082, -0.01971997, 0.07969412, -72161.72, -23657.328, 0.0, 5.0133443, 4.9281855 
7.516975e+0, 3.000049e+2, -17695.494, -102016.02, -646.5842, -0.012947096, 0.06408418, -17690.535, -17601.416, 0.0, 5.0117354, 4.957117 
7.5168794e+0, 3.0497846e+2, -10570.345, -84043.05, -723.83716, -0.017332168, 0.13543318, -10563.214, -10563.214, 0.0, 5.0114617, 4.9630075 
7.516864e+0, 3.0995652e+2, -10450.088, -83262.57, -1447.1276, -0.026373152, 0.21710052, -10421.338, -10421.338, 0.0, 5.0112443, 4.9633 
7.516671e+0, 3.1493527e+2, -10266.614, -82546.414, -1894.1323, -0.04057082, 0.30297253, -10217.012, -10217.012, 0.0, 5.0109715, 4.963593 
1.2535822e+1, 1.2151378e+2, -1711671.0, -1750421.5, -713.6144, -0.0042411955, -0.003504727, -1711657.9, 37501.477, 0.0, 5.014477, 4.9892554 
1.2534626e+1, 1.265e+2, -1667473.3, -1710702.0, -610.08575, -0.01346775, -0.0055156066, -1667464.6, 32831.043, 0.0, 5.014378, 4.986264 
1.2535067e+1, 1.3148609e+2, -1618793.3, -1661863.8, -502.69833, -0.0063820826, -0.00797795, -1618787.4, 32645.12, 0.0, 5.0142765, 4.9862623 
1.2535505e+1, 1.3647215e+2, -1572320.8, -1617562.4, -394.91238, 0.0005553955, -0.009174225, -1572317.4, 30252.182, 0.0, 5.0141745, 4.9847565 
1.2535727e+1, 1.4145534e+2, -1530495.4, -1582903.1, -256.1894, 0.0050145593, 0.0036084072, -1530494.1, 23240.97, 0.0, 5.0140834, 4.9799695 
1.2535574e+1, 1.4643553e+2, -1481420.4, -1533468.3, -199.72281, 0.0052774465, 0.0019086198, -1481419.6, 23510.81, 0.0, 5.014012, 4.9801264 
1.253541e+1, 1.5141569e+2, -1432571.9, -1484509.6, -154.275, 0.0054412847, -0.00051162345, -1432571.5, 23554.736, 0.0, 5.013941, 4.9801273 
1.2535247e+1, 1.5639584e+2, -1385150.6, -1438528.1, -109.07646, 0.0055826935, -0.002505713, -1385150.4, 22171.64, 0.0, 5.0138693, 4.9791336 
1.2535034e+1, 1.613723e+2, -1344621.1, -1407075.1, -7.950359, 0.004739246, 0.002088045, -1344621.1, 13932.752, 0.0, 5.0138183, 4.9732685 
1.2534706e+1, 1.6634595e+2, -1295436.1, -1357779.0, -66.5559, 0.0016876308, 0.0029089877, -1295436.0, 14376.542, 0.0, 5.013809, 4.973328 
1.2534371e+1, 1.7131963e+2, -1246331.1, -1308660.4, -155.266, -0.0014850887, 0.003870339, -1246330.8, 14740.203, 0.0, 5.0138016, 4.9733286 
1.2534036e+1, 1.7629331e+2, -1198362.3, -1261947.1, -243.78024, -0.0046958765, 0.005228159, -1198361.4, 13967.938, 0.0, 5.0137935, 4.972522 
1.2533864e+1, 1.8126316e+2, -1158463.6, -1232497.4, -158.0191, -0.0068737837, 0.013503103, -1158463.3, 5162.232, 0.0, 5.013811, 4.965869 
1.2534063e+1, 1.8622908e+2, -1108910.9, -1182858.1, -41.76645, -0.006505393, 0.0102745555, -1108910.8, 6049.9585, 0.0, 5.013877, 4.965985 
1.2534273e+1, 1.9119498e+2, -1059518.0, -1133565.9, 52.99972, -0.0060807145, 0.006602472, -1059517.9, 6778.337, 0.0, 5.0139437, 4.965985 
1.253448e+1, 1.9616087e+2, -1011018.3, -1086192.8, 147.88759, -0.005711588, 0.003288359, -1011018.06, 6613.569, 0.0, 5.01401, 4.9653344 
1.2534672e+1, 2.0112331e+2, -970167.94, -1055009.8, -157.97397, -0.003824367, 0.0071219862, -970167.6, -1168.2678, 0.0, 5.0140114, 4.9591875 
1.2534831e+1, 2.0608264e+2, -920736.7, -1004495.3, -398.61295, 0.002246313, 0.0011829546, -920734.8, -341.4054, 0.0, 5.0138297, 4.959693 
1.2534983e+1, 2.11042e+2, -872020.6, -955477.4, -516.232, 0.00842731, -0.005249312, -872017.44, -230.66432, 0.0, 5.0136366, 4.959697 
1.2535132e+1, 2.1600138e+2, -823967.3, -907911.7, -632.5647, 0.014495675, -0.011542563, -823962.56, -782.4159, 0.0, 5.0134435, 4.959201 
1.2535045e+1, 2.2095728e+2, -785455.06, -881659.6, -261.00262, 0.016250841, -0.005028358, -785454.4, -10844.435, 0.0, 5.0133324, 4.951334 
1.2534542e+1, 2.2590958e+2, -735641.94, -831672.25, 64.01881, 0.009361472, -0.00040061792, -735641.94, -9559.572, 0.0, 5.0134125, 4.9515076 
1.2534039e+1, 2.3086187e+2, -686037.6, -782192.8, 244.27939, 0.0021525214, 0.003677677, -686037.0, -8481.721, 0.0, 5.0134993, 4.951512 
1.253353e+1, 2.3581417e+2, -637085.8, -734164.1, 424.53583, -0.0052134288, 0.007713943, -637083.94, -8055.7266, 0.0, 5.0135856, 4.9510145 
1.2533271e+1, 2.4076262e+2, -595791.44, -703291.56, 674.72577, -0.01052408, 0.017038163, -595787.2, -15253.797, 0.0, 5.013688, 4.9445443 
1.253426e+1, 2.4570617e+2, -544274.3, -650291.5, 740.64404, -0.006586146, -0.006672639, -544269.1, -12200.775, 0.0, 5.013912, 4.94567 
1.2535372e+1, 2.5064957e+2, -494164.03, -600523.75, 655.29517, -0.001914612, -0.034336023, -494160.0, -10556.532, 0.0, 5.0141487, 4.9456854 
1.2536469e+1, 2.55593e+2, -444306.78, -551330.3, 576.6239, 0.0025400266, -0.061687876, -444303.7, -9165.626, 0.0, 5.0143814, 4.9455028 
1.2537637e+1, 2.6053232e+2, -409863.78, -537905.1, 2064.7698, 0.0022951846, -0.061022416, -409830.5, -23108.2, 0.0, 5.014803, 4.932601 
1.2538633e+1, 2.6546937e+2, -357201.97, -484179.72, 2553.2854, -0.0054360824, -0.04210289, -357150.66, -18784.813, 0.0, 5.0153236, 4.933583 
1.2539469e+1, 2.7040666e+2, -305960.4, -433786.56, 2561.6074, -0.01562241, -0.028541042, -305909.1, -15898.5625, 0.0, 5.0157695, 4.933659 
1.2540203e+1, 2.7534378e+2, -254730.67, -383598.75, 2519.1448, -0.02901289, -0.019567505, -254681.44, -13023.998, 0.0, 5.016194, 4.933687 
1.2540105e+1, 2.8027987e+2, -222655.52, -380403.5, 4450.1396, -0.0713795, 0.08344651, -222530.08, -29218.076, 0.0, 5.0174665, 4.917142 
1.2537341e+1, 2.8521055e+2, -163054.3, -301818.53, -1078.2682, -0.0739676, 0.1393617, -163045.92, -18035.785, 0.0, 5.016836, 4.9274206 
1.2534352e+1, 2.9013738e+2, -118578.02, -254416.06, -1634.3241, -0.049680714, 0.11699198, -118558.37, -21813.844, 0.0, 5.015033, 4.927413 
1.2531261e+1, 2.9506388e+2, -74037.17, -207013.9, -2266.9773, -0.029361658, 0.0896197, -73998.53, -25515.781, 0.0, 5.013182, 4.927406 
1.2528495e+1, 3.000071e+2, -17855.49, -100496.88, -963.5043, -0.018345306, 0.093535244, -17844.26, -17788.43, 0.0, 5.0115857, 4.9576716 
1.2527779e+1, 3.0497688e+2, -12642.972, -85459.44, -323.38367, -0.028246867, 0.13901132, -12641.536, -12641.536, 0.0, 5.0111027, 4.962698 
1.2527072e+1, 3.0994943e+2, -13001.086, -84251.336, -770.07794, -0.047115356, 0.18498296, -12992.764, -12992.764, 0.0, 5.010675, 4.9631853 
1.2526068e+1, 3.1492326e+2, -13296.102, -83107.49, -940.2597, -0.0745748, 0.23795679, -13283.44, -13283.44, 0.0, 5.0101924, 4.963673 
1.7550083e+1, 1.2151354e+2, -1712602.5, -1751918.6, -782.3914, -0.006746262, 0.0002513932, -1712586.9, 36576.04, 0.0, 5.0143924, 4.988804 
1.7548461e+1, 1.2649933e+2, -1667365.4, -1710329.3, -680.1316, -0.019098636, -0.0067989687, -1667354.6, 32949.336, 0.0, 5.014347, 4.9863997 
1.7549084e+1, 1.3148578e+2, -1618610.9, -1661456.8, -578.6118, -0.009142895, -0.0071674744, -1618603.1, 32834.023, 0.0, 5.0142713, 4.9863973 
1.75497e+1, 1.3647218e+2, -1572137.5, -1617157.0, -472.58743, 0.0006104554, -0.0062644007, -1572132.5, 30438.082, 0.0, 5.01417, 4.9848905 
1.7550018e+1, 1.4145556e+2, -1530433.9, -1582694.4, -322.94785, 0.007017501, 0.0073767058, -1530431.9, 23301.963, 0.0, 5.0140667, 4.9800463 
1.7549802e+1, 1.4643565e+2, -1481370.0, -1533311.0, -252.40741, 0.0073941913, 0.0038643954, -1481368.8, 23560.98, 0.0, 5.0140014, 4.9801836 
1.7549574e+1, 1.5141568e+2, -1432511.8, -1484347.0, -203.89856, 0.0075962064, -0.0004652031, -1432511.0, 23615.064, 0.0, 5.013933, 4.980185 
1.7549343e+1, 1.5639569e+2, -1385094.0, -1438366.5, -157.64339, 0.007767586, -0.004378052, -1385093.5, 22228.938, 0.0, 5.01386, 4.9791913 
1.7549047e+1, 1.6137204e+2, -1344753.0, -1407306.9, -27.772537, 0.0066148164, -0.00092351343, -1344753.0, 13802.05, 0.0, 5.013809, 4.9731956 
1.7548588e+1, 1.6634564e+2, -1295607.9, -1358118.3, -74.734764, 0.0023453552, 0.0004902833, -1295607.8, 14207.148, 0.0, 5.0138054, 4.9732165 
1.754812e+1, 1.7131928e+2, -1246509.3, -1309001.4, -160.50961, -0.002104621, 0.0021074787, -1246508.8, 14565.62, 0.0, 5.013795, 4.973217 
1.7547649e+1, 1.7629293e+2, -1198570.1, -1262301.3, -246.57178, -0.0066066612, 0.004123246, -1198569.3, 13764.685, 0.0, 5.0137763, 4.97241 
1.7547412e+1, 1.8126279e+2, -1158423.1, -1232289.8, -119.49737, -0.009625132, 0.012857087, -1158423.0, 5207.29, 0.0, 5.0137863, 4.965951 
1.754769e+1, 1.8622889e+2, -1108789.4, -1182516.8, 7.2187014, -0.009120578, 0.010362698, -1108789.4, 6173.7104, 0.0, 5.0138607, 4.966108 
1.754798e+1, 1.9119498e+2, -1059399.4, -1133226.1, 105.711136, -0.008546893, 0.0075218775, -1059399.3, 6896.866, 0.0, 5.0139265, 4.9661083 
1.7548269e+1, 1.9616108e+2, -1010931.9, -1085868.4, 203.8551, -0.008048935, 0.005054128, -1010931.3, 6697.5654, 0.0, 5.0139823, 4.965458 
1.7548549e+1, 2.0112361e+2, -970349.06, -1055231.4, -243.8557, -0.005321472, 0.009352354, -970348.4, -1352.9077, 0.0, 5.013977, 4.9591284 
1.7548767e+1, 2.0608282e+2, -920999.1, -1004952.94, -539.7129, 0.003128432, 0.003568827, -920995.7, -603.8166, 0.0, 5.0138083, 4.9595466 
1.7548972e+1, 2.1104205e+2, -872285.8, -955930.25, -649.77295, 0.011694707, -0.002641676, -872280.75, -493.05753, 0.0, 5.013613, 4.959552 
1.7549175e+1, 2.160013e+2, -824281.2, -908381.44, -754.5826, 0.02010702, -0.008709246, -824274.44, -1090.9097, 0.0, 5.0134015, 4.959058 
1.7549066e+1, 2.2095707e+2, -785396.25, -881236.44, -241.08998, 0.022807319, -0.0032834893, -785395.6, -10780.692, 0.0, 5.013274, 4.951505 
1.7548364e+1, 2.2590934e+2, -735430.94, -831023.25, 137.40411, 0.013150402, -0.0012746549, -735430.75, -9345.032, 0.0, 5.013378, 4.951747 
1.754765e+1, 2.3086159e+2, -685823.56, -781538.1, 316.52225, 0.0029109556, 0.0003199535, -685822.5, -8265.806, 0.0, 5.013466, 4.951753 
1.7546932e+1, 2.3581386e+2, -636945.9, -733539.2, 503.43127, -0.007543422, 0.0018429362, -636943.25, -7915.555, 0.0, 5.0135255, 4.9512577 
1.7546612e+1, 2.407623e+2, -595940.9, -703156.0, 808.3549, -0.014738689, 0.009069767, -595934.8, -15402.883, 0.0, 5.0135994, 4.944627 
1.7547971e+1, 2.4570616e+2, -544599.75, -650618.2, 908.12146, -0.009254651, -0.010696982, -544592.0, -12524.889, 0.0, 5.013843, 4.9455814 
1.7549476e+1, 2.5064996e+2, -494426.0, -600802.6, 836.8668, -0.0029285653, -0.03325241, -494419.4, -10817.434, 0.0, 5.014101, 4.945603 
1.755096e+1, 2.5559378e+2, -444508.03, -551562.9, 773.4878, 0.0030985759, -0.05536482, -444502.44, -9366.253, 0.0, 5.0143533, 4.945426 
1.7552479e+1, 2.6053375e+2, -408859.88, -534984.06, 2501.2354, 0.0028086524, -0.05330903, -408810.28, -22094.465, 0.0, 5.0147185, 4.933664 
1.7553824e+1, 2.6547107e+2, -357779.47, -483104.2, 3350.9436, -0.009827099, -0.034312982, -357689.94, -19339.697, 0.0, 5.014911, 4.9341917 
1.755499e+1, 2.7040845e+2, -308205.9, -433375.4, 3808.7148, -0.026367424, -0.020815307, -308090.13, -18102.793, 0.0, 5.014724, 4.9342995 
1.7556015e+1, 2.753455e+2, -259502.2, -384231.06, 4447.5107, -0.047334835, -0.013793477, -259343.83, -17716.299, 0.0, 5.0142007, 4.93436 
1.7555834e+1, 2.8028e+2, -228580.13, -377443.47, 5730.2534, -0.09863555, 0.057442408, -228359.88, -35067.734, 0.0, 5.014343, 4.919518 
1.7552097e+1, 2.852102e+2, -170818.66, -306717.9, -1357.2687, -0.0958365, 0.108942755, -170805.1, -25808.76, 0.0, 5.014615, 4.926626 
1.7548105e+1, 2.9013786e+2, -123388.875, -257992.36, -2118.0225, -0.06321514, 0.10849897, -123355.555, -26630.424, 0.0, 5.0138555, 4.926616 
1.7543972e+1, 2.9506496e+2, -77042.664, -209785.3, -2829.9673, -0.036072437, 0.10098562, -76982.36, -28523.014, 0.0, 5.012635, 4.926606 
1.7540187e+1, 3.0000922e+2, -19466.77, -100383.15, -990.2171, -0.021047056, 0.12266917, -19454.652, -19431.215, 0.0, 5.0111065, 4.95782 
1.7538409e+1, 3.0497488e+2, -18264.016, -88246.625, 1256.298, -0.03838073, 0.13878128, -18241.47, -18241.47, 0.0, 5.009466, 4.962363 
1.7536479e+1, 3.099418e+2, -24018.791, -88725.41, 2787.4048, -0.06979241, 0.1439671, -23898.938, -23898.938, 0.0, 5.0070143, 4.9630523 
1.7534143e+1, 3.149105e+2, -31889.861, -90211.91, 5215.036, -0.11307535, 0.1590238, -31427.215, -31427.215, 0.0, 5.003708, 4.9637423 
2.256481e+1, 1.2151325e+2, -1713275.9, -1752527.4, -386.9813, -0.0024551116, 0.00110041, -1713272.1, 35894.21, 0.0, 5.014239, 4.9886775 
2.2562878e+1, 1.2649898e+2, -1667688.0, -1710399.8, -527.78705, -0.017814746, -0.0065195733, -1667681.5, 32626.688, 0.0, 5.0142303, 4.9864316 
2.2563322e+1, 1.3148548e+2, -1618849.9, -1661482.4, -588.87396, -0.009086026, -0.0066191796, -1618841.8, 32599.193, 0.0, 5.01418, 4.9864316 
2.2563778e+1, 1.3647194e+2, -1572220.9, -1617102.1, -650.155, -0.00017160052, -0.0054705874, -1572211.4, 30362.58, 0.0, 5.0141287, 4.984927 
2.2563988e+1, 1.4145537e+2, -1530209.3, -1582449.6, -567.9151, 0.0058327643, 0.00825862, -1530203.0, 23533.703, 0.0, 5.0141144, 4.9801035 
2.2563717e+1, 1.4643547e+2, -1480813.8, -1532908.6, -495.0106, 0.00575033, 0.004434134, -1480809.1, 24122.734, 0.0, 5.01416, 4.98024 
2.2563437e+1, 1.5141553e+2, -1431619.3, -1483784.6, -456.889, 0.005519724, -0.00018323604, -1431615.3, 24512.164, 0.0, 5.0142064, 4.9802403 
2.2563156e+1, 1.5639557e+2, -1383854.5, -1437639.0, -419.48672, 0.005315161, -0.0043358137, -1383851.3, 23471.83, 0.0, 5.0142527, 4.9792457 
2.2562866e+1, 1.6137192e+2, -1343466.0, -1406815.1, -283.95923, 0.004378585, -0.0010101865, -1343464.8, 15090.888, 0.0, 5.014272, 4.973138 
2.2562517e+1, 1.6634542e+2, -1294505.9, -1357770.6, -292.3452, 0.0014801065, 0.00012101391, -1294504.5, 15312.353, 0.0, 5.0142174, 4.973137 
2.2562163e+1, 1.7131893e+2, -1245553.9, -1308727.8, -334.65738, -0.0014799958, 0.0014138937, -1245552.1, 15525.788, 0.0, 5.0141582, 4.9731374 
2.2561808e+1, 1.7629246e+2, -1197737.5, -1262088.8, -376.85883, -0.0044047497, 0.0030947714, -1197735.4, 14603.61, 0.0, 5.014099, 4.97233 
2.2561626e+1, 1.8126227e+2, -1157583.9, -1231702.0, -187.69362, -0.0065592807, 0.01157349, -1157583.4, 6052.4937, 0.0, 5.0140347, 4.966032 
2.256181e+1, 1.8622851e+2, -1108300.1, -1181987.1, -50.14432, -0.0070466613, 0.009292646, -1108300.1, 6666.5444, 0.0, 5.0139685, 4.966237 
2.2562006e+1, 1.9119476e+2, -1059296.1, -1132881.1, 49.68715, -0.007400196, 0.0067184367, -1059296.1, 7001.205, 0.0, 5.0139027, 4.9662375 
2.2562206e+1, 1.9616102e+2, -1011182.8, -1085691.6, 149.04355, -0.007676309, 0.004526058, -1011182.56, 6445.3696, 0.0, 5.013836, 4.965587 
2.256243e+1, 2.0112367e+2, -971030.25, -1055799.3, -351.18387, -0.0052420176, 0.009439429, -971028.8, -2035.4099, 0.0, 5.013793, 4.959022 
2.256262e+1, 2.0608285e+2, -921336.75, -1005595.44, -766.3464, 0.0036606912, 0.0054956996, -921329.75, -938.041, 0.0, 5.013792, 4.9593363 
2.256281e+1, 2.1104206e+2, -872059.3, -956299.75, -989.86926, 0.012990068, 0.0011571082, -872047.7, -257.96576, 0.0, 5.0137916, 4.959345 
2.2563009e+1, 2.1600129e+2, -823447.06, -908461.6, -1215.885, 0.022474822, -0.003111118, -823429.7, -241.98895, 0.0, 5.0137906, 4.9588532 
2.2562899e+1, 2.2095697e+2, -783811.1, -880159.7, -744.9265, 0.026199553, 0.0020494575, -783805.4, -9184.687, 0.0, 5.0137625, 4.9516563 
2.2562054e+1, 2.2590902e+2, -734461.7, -830023.94, -319.76144, 0.015181101, 0.0000083530285, -734460.6, -8369.773, 0.0, 5.0136123, 4.9519897 
2.2561188e+1, 2.3086108e+2, -685563.7, -780854.1, -132.91946, 0.0036269922, -0.0025780387, -685563.5, -8002.566, 0.0, 5.013449, 4.952001 
2.2560328e+1, 2.3581314e+2, -637310.8, -733132.75, 49.89401, -0.007752542, -0.005358768, -637310.75, -8279.731, 0.0, 5.0132856, 4.9515104 
2.256001e+1, 2.4076149e+2, -597183.3, -703691.6, 429.02167, -0.014772004, -0.0010175428, -597181.56, -16646.518, 0.0, 5.0131564, 4.944635 
2.2561596e+1, 2.4570586e+2, -546754.25, -652008.4, 420.46823, -0.008197747, -0.014142333, -546752.56, -14683.133, 0.0, 5.0131693, 4.945395 
2.2563356e+1, 2.506503e+2, -497243.1, -602494.4, 197.50578, -0.00053707196, -0.02819154, -497242.72, -13640.202, 0.0, 5.013196, 4.945418 
2.2565131e+1, 2.5559485e+2, -447978.75, -553552.56, -26.635435, 0.0072168643, -0.041187033, -447978.72, -12844.465, 0.0, 5.0132217, 4.9452424 
2.2566862e+1, 2.6053566e+2, -411687.94, -533273.4, 1625.2777, 0.009129555, -0.035296854, -411666.22, -24958.936, 0.0, 5.0131726, 4.9349775 
2.2568376e+1, 2.6547286e+2, -361941.03, -481824.3, 3559.0303, -0.0021261673, -0.028419228, -361835.47, -23502.004, 0.0, 5.01285, 4.935613 
2.2569913e+1, 2.704097e+2, -312476.5, -431924.5, 4901.327, -0.013006852, -0.033051115, -312275.72, -22310.354, 0.0, 5.012511, 4.9358635 
2.2571495e+1, 2.7534598e+2, -262909.0, -382317.78, 6229.3667, -0.023220072, -0.04992901, -262584.9, -20982.357, 0.0, 5.012169, 4.9360676 
2.2571711e+1, 2.802785e+2, -232765.7, -373816.22, 6915.75, -0.054025594, -0.026446607, -232427.42, -39148.9, 0.0, 5.0119452, 4.922114 
2.2567257e+1, 2.8520936e+2, -179834.72, -312990.1, 1315.6553, -0.060018566, 0.03817957, -179821.72, -34841.547, 0.0, 5.0123916, 4.925631 
2.2562608e+1, 2.9013872e+2, -128463.76, -262100.86, 54.081074, -0.042798948, 0.075552985, -128463.74, -31766.383, 0.0, 5.0129676, 4.9256587 
2.2558014e+1, 2.9506704e+2, -77013.86, -211316.02, -1221.7898, -0.024767455, 0.099008426, -77002.75, -28578.004, 0.0, 5.013537, 4.9256864 
2.2553843e+1, 3.0001283e+2, -11562.335, -93270.164, 2.0087237, -0.01164824, 0.14272559, -11562.335, -11562.335, 0.0, 5.013961, 4.95905 
2.2551218e+1, 3.0497685e+2, -4971.2314, -76230.31, 2028.7489, -0.02347878, 0.13261385, -4913.5195, -4913.5195, 0.0, 5.014074, 4.964674 
2.2548838e+1, 3.0994233e+2, -3219.9407, -71443.5, 2416.8938, -0.037180834, 0.10812779, -3134.4268, -3134.4268, 0.0, 5.0142155, 4.9661837 
2.2546597e+1, 3.149114e+2, -1233.9272, -66893.055, 2770.91, -0.049069054, 0.10283805, -1117.1984, -1117.1984, 0.0, 5.0143504, 4.9676943 
2.75799e+1, 1.2151292e+2, -1712998.1, -1751967.0, -138.84207, 0.0057029957, -0.00009287962, -1712997.6, 36171.934, 0.0, 5.0142393, 4.988861 
2.7577817e+1, 1.2649895e+2, -1667793.5, -1710621.0, -574.0721, -0.01086565, -0.004209694, -1667785.9, 32522.605, 0.0, 5.0142307, 4.986359 
2.7577776e+1, 1.3148516e+2, -1618955.6, -1661703.6, -630.7563, -0.006429962, -0.006186343, -1618946.3, 32497.777, 0.0, 5.0141807, 4.9863586 
2.757774e+1, 1.3647138e+2, -1572326.8, -1617323.5, -687.6228, -0.0019220803, -0.0069141425, -1572316.3, 30263.695, 0.0, 5.014129, 4.984854 
2.757761e+1, 1.414547e+2, -1530165.6, -1582356.9, -546.8248, 0.0008364099, 0.00603896, -1530159.9, 23584.002, 0.0, 5.014114, 4.980134 
2.7577308e+1, 1.46435e+2, -1480738.9, -1532752.6, -460.43265, -0.000024002418, 0.0036162573, -1480734.8, 24202.06, 0.0, 5.01416, 4.980292 
2.7577e+1, 1.5141526e+2, -1431544.9, -1483631.3, -420.68057, -0.0009910444, 0.00045331052, -1431541.5, 24588.865, 0.0, 5.014207, 4.9802914 
2.7576694e+1, 1.563955e+2, -1383780.6, -1437488.3, -381.6549, -0.0019570496, -0.0022501121, -1383777.9, 23545.977, 0.0, 5.014253, 4.9792957 
2.757649e+1, 1.6137192e+2, -1343515.0, -1406919.9, -308.17615, -0.002196781, 0.0017798389, -1343513.5, 15041.962, 0.0, 5.0142727, 4.973103 
2.7576485e+1, 1.6634524e+2, -1294577.0, -1357921.3, -337.10242, -0.0011097438, 0.0017522319, -1294575.1, 15243.307, 0.0, 5.014218, 4.973087 
2.7576476e+1, 1.713186e+2, -1245623.9, -1308876.1, -376.9185, -0.0000027671467, 0.0018025509, -1245621.6, 15459.772, 0.0, 5.0141587, 4.9730873 
2.757647e+1, 1.7629196e+2, -1197806.5, -1262235.0, -416.6152, 0.0010976288, 0.002243716, -1197803.8, 14540.569, 0.0, 5.014099, 4.972281 
2.757646e+1, 1.8126167e+2, -1157472.8, -1231463.6, -244.3611, 0.0012927322, 0.009785842, -1157472.0, 6170.1016, 0.0, 5.0140343, 4.9661126 
2.7576396e+1, 1.86228e+2, -1108118.4, -1181601.9, -102.84644, -0.00095576554, 0.0071535488, -1108118.3, 6852.9004, 0.0, 5.0139685, 4.9663672 
2.7576324e+1, 1.9119436e+2, -1059111.8, -1132493.6, 1.4385792, -0.0033175857, 0.00421405, -1059111.8, 7188.292, 0.0, 5.0139036, 4.9663687 
2.7576256e+1, 1.9616069e+2, -1010995.7, -1085301.9, 105.25655, -0.005659797, 0.0016274551, -1010995.56, 6633.2407, 0.0, 5.0138383, 4.965719 
2.7576253e+1, 2.0112345e+2, -971248.7, -1056266.8, -367.85477, -0.005025279, 0.007301057, -971247.06, -2253.8552, 0.0, 5.0137925, 4.958864 
2.7576327e+1, 2.0608273e+2, -921712.0, -1006410.1, -766.7486, 0.002693708, 0.006989193, -921705.06, -1312.066, 0.0, 5.013792, 4.95906 
2.7576405e+1, 2.1104203e+2, -872428.3, -957115.5, -982.7515, 0.010809254, 0.0063635632, -872416.94, -624.27094, 0.0, 5.013793, 4.959067 
2.757649e+1, 2.1600135e+2, -823809.8, -909278.5, -1201.2456, 0.019027617, 0.005764048, -823792.94, -600.6614, 0.0, 5.0137935, 4.958574 
2.757632e+1, 2.20957e+2, -783657.6, -879828.4, -861.5465, 0.022655236, 0.012017879, -783649.94, -9023.192, 0.0, 5.0137634, 4.951769 
2.757545e+1, 2.2590873e+2, -734117.44, -829270.9, -460.3308, 0.012908965, 0.00428908, -734115.2, -8018.256, 0.0, 5.0136123, 4.9522495 
2.7574542e+1, 2.3086043e+2, -685226.25, -780120.0, -258.4993, 0.0024060702, -0.0043467144, -685225.5, -7658.4453, 0.0, 5.013449, 4.9522557 
2.757364e+1, 2.3581213e+2, -636980.0, -732417.4, -60.67901, -0.008010852, -0.013161219, -636979.94, -7942.6816, 0.0, 5.0132856, 4.951761 
2.7573356e+1, 2.4076034e+2, -597285.9, -703936.44, 433.7414, -0.013911404, -0.011594091, -597284.1, -16742.941, 0.0, 5.0131574, 4.944551 
2.7574965e+1, 2.4570541e+2, -547078.44, -652761.2, 448.07648, -0.006931846, -0.015293736, -547076.5, -15002.904, 0.0, 5.013173, 4.9451323 
2.7576715e+1, 2.506506e+2, -497556.6, -603243.3, 245.24316, 0.0008678908, -0.018875023, -497556.03, -13951.439, 0.0, 5.0132027, 4.9451537 
2.757848e+1, 2.5559595e+2, -448281.6, -554297.75, 41.233437, 0.00869893, -0.021526698, -448281.6, -13147.244, 0.0, 5.0132318, 4.944977 
2.7580038e+1, 2.605375e+2, -409928.56, -529411.1, 1112.1407, 0.011110626, -0.010947101, -409918.2, -23216.309, 0.0, 5.013192, 4.936328 
2.758119e+1, 2.6547477e+2, -359319.28, -476051.0, 3259.0205, -0.0041218502, -0.021561222, -359228.38, -20913.016, 0.0, 5.0128736, 4.9376698 
2.758238e+1, 2.7041146e+2, -309913.13, -426282.56, 4892.1865, -0.020347634, -0.04568444, -309707.8, -19773.133, 0.0, 5.0125346, 4.937892 
2.758361e+1, 2.7534762e+2, -260403.83, -376806.0, 6511.18, -0.036091574, -0.08161857, -260040.75, -18481.455, 0.0, 5.0121927, 4.9380674 
2.7583584e+1, 2.802795e+2, -231238.33, -370398.5, 4365.8564, -0.052973695, -0.08363651, -231101.48, -37869.97, 0.0, 5.0119596, 4.9233003 
2.7579707e+1, 2.852104e+2, -181335.25, -316474.94, 931.20776, -0.048106167, -0.012353279, -181328.84, -36390.156, 0.0, 5.0123825, 4.9244013 
2.757574e+1, 2.901405e+2, -130027.44, -265683.7, -114.29087, -0.035508934, 0.046318192, -130027.34, -33370.203, 0.0, 5.012941, 4.9244075 
2.7571815e+1, 2.950696e+2, -78639.59, -214996.27, -1174.2731, -0.022345662, 0.091892235, -78629.48, -30244.164, 0.0, 5.0134926, 4.9244146 
2.7568036e+1, 3.0001652e+2, -10871.068, -91544.12, -359.17004, -0.013657191, 0.15475073, -10869.47, -10869.47, 0.0, 5.0139103, 4.9597287 
2.7564436e+1, 3.0497983e+2, -3076.687, -72000.83, 1911.8875, -0.035481717, 0.1297867, -3023.6938, -3023.6938, 0.0, 5.0140715, 4.9663587 
2.756089e+1, 3.099438e+2, -1137.4829, -67117.06, 2837.1687, -0.061665222, 0.082405955, -1015.70734, -1015.70734, 0.0, 5.01427, 4.967876 
2.7557465e+1, 3.1491122e+2, 1035.8, -62469.33, 3727.8984, -0.086533144, 0.052709352, 1253.8875, 1253.8875, 0.0, 5.014461, 4.9693947 
3.2594997e+1, 1.21512525e+2, -1712674.0, -1751308.6, 109.9814, 0.013920294, -0.001732902, -1712673.8, 36499.496, 0.0, 5.01424, 4.9890766 
3.2592762e+1, 1.2649892e+2, -1667900.8, -1710840.6, -620.1981, -0.0038782873, -0.0018608103, -1667891.8, 32416.902, 0.0, 5.0142317, 4.986286 
3.2592237e+1, 1.3148488e+2, -1619063.0, -1661923.3, -672.47943, -0.0037238335, -0.005734165, -1619052.5, 32394.727, 0.0, 5.014181, 4.9862857 
3.259171e+1, 1.3647082e+2, -1572434.4, -1617543.4, -724.9311, -0.003610702, -0.00835802, -1572422.8, 30163.166, 0.0, 5.0141296, 4.9847813 
3.2591233e+1, 1.4145404e+2, -1530129.4, -1582278.5, -525.22473, -0.004177901, 0.0038538764, -1530124.0, 23626.928, 0.0, 5.014114, 4.9801598 
3.2590896e+1, 1.4643453e+2, -1480664.4, -1532596.3, -425.00333, -0.005816532, 0.002823749, -1480661.0, 24280.938, 0.0, 5.0141597, 4.9803433 
3.2590565e+1, 1.5141498e+2, -1431470.9, -1483477.6, -383.62085, -0.0075002387, 0.0010917035, -1431468.1, 24665.133, 0.0, 5.014207, 4.9803424 
3.2590228e+1, 1.5639542e+2, -1383707.1, -1437337.1, -342.9718, -0.0092079155, -0.00018608506, -1383704.9, 23619.701, 0.0, 5.0142536, 4.9793463 
3.2590118e+1, 1.6137192e+2, -1343570.6, -1407037.3, -332.88644, -0.008753069, 0.0046035885, -1343568.9, 14986.33, 0.0, 5.0142727, 4.973064 
3.259045e+1, 1.6634509e+2, -1294648.9, -1358071.4, -382.36957, -0.0037019132, 0.0034100644, -1294646.5, 15173.529, 0.0, 5.014218, 4.973036 
3.2590795e+1, 1.7131826e+2, -1245694.6, -1309024.0, -419.68948, 0.0014530108, 0.0021860388, -1245691.9, 15393.033, 0.0, 5.0141587, 4.9730372 
3.2591128e+1, 1.7629145e+2, -1197876.1, -1262380.6, -456.88147, 0.0065594246, 0.0013557076, -1197872.9, 14476.811, 0.0, 5.014099, 4.9722314 
3.2591298e+1, 1.8126108e+2, -1157378.4, -1231259.0, -303.21527, 0.009171911, 0.008091507, -1157377.1, 6271.1665, 0.0, 5.014034, 4.9661818 
3.2590988e+1, 1.8622752e+2, -1107937.8, -1181216.0, -155.71353, 0.0051653, 0.0050932597, -1107937.4, 7038.186, 0.0, 5.013969, 4.966497 
3.2590646e+1, 1.9119394e+2, -1058928.4, -1132105.5, -46.97523, 0.0007704687, 0.0017139944, -1058928.4, 7374.325, 0.0, 5.0139046, 4.966499 
3.2590306e+1, 1.9616038e+2, -1010809.6, -1084911.4, 61.30401, -0.003662565, -0.0013412928, -1010809.56, 6820.0757, 0.0, 5.01384, 4.96585 
3.2590073e+1, 2.0112325e+2, -971497.7, -1056798.8, -388.89844, -0.004829233, 0.0052947667, -971495.94, -2502.9133, 0.0, 5.013792, 4.9586835 
3.2590035e+1, 2.0608263e+2, -922088.4, -1007224.4, -764.7793, 0.0017579484, 0.008553839, -922081.5, -1687.3568, 0.0, 5.0137916, 4.958782 
3.2590008e+1, 2.11042e+2, -872798.44, -957930.75, -973.2611, 0.008707061, 0.011459776, -872787.3, -991.77124, 0.0, 5.0137944, 4.958787 
3.2589984e+1, 2.1600139e+2, -824173.75, -910094.94, -1184.2324, 0.015706431, 0.014347584, -824157.44, -960.4547, 0.0, 5.0137963, 4.958293 
3.2589734e+1, 2.2095703e+2, -783594.56, -879692.75, -974.7915, 0.018972458, 0.022265274, -783584.7, -8952.014, 0.0, 5.013765, 4.951813 
3.2588837e+1, 2.2590843e+2, -733775.25, -828516.8, -595.0972, 0.01049826, 0.008838842, -733771.5, -7668.5425, 0.0, 5.013612, 4.9525056 
3.2587898e+1, 2.3085977e+2, -684890.8, -779384.9, -378.278, 0.0011824208, -0.006206889, -684889.3, -7316.044, 0.0, 5.013449, 4.952508 
3.258696e+1, 2.3581111e+2, -636651.2, -731700.9, -165.4524, -0.008136054, -0.021415696, -636650.94, -7607.2583, 0.0, 5.0132856, 4.9520082 
3.2586697e+1, 2.4075925e+2, -597485.3, -704393.44, 440.7483, -0.013050054, -0.02164956, -597483.5, -16936.652, 0.0, 5.0131583, 4.9443927 
3.2588333e+1, 2.4570504e+2, -547404.56, -653512.94, 474.4229, -0.0056912964, -0.015897473, -547402.44, -15325.222, 0.0, 5.013177, 4.944866 
3.259009e+1, 2.5065097e+2, -497872.03, -603991.1, 291.7223, 0.0023346303, -0.009731049, -497871.22, -14264.831, 0.0, 5.01321, 4.944886 
3.2591859e+1, 2.5559705e+2, -448586.4, -555041.75, 107.84764, 0.010329903, -0.0027591197, -448586.28, -13451.77, 0.0, 5.0132413, 4.944708 
3.2593226e+1, 2.6053908e+2, -409017.16, -527459.7, 636.4294, 0.012808614, 0.01367755, -409013.72, -22314.36, 0.0, 5.013212, 4.9369807 
3.259403e+1, 2.6547608e+2, -356711.34, -470287.78, 2998.3562, -0.0061498326, -0.01952604, -356632.25, -18329.111, 0.0, 5.012898, 4.9396253 
3.2594916e+1, 2.7041242e+2, -307362.5, -420649.4, 4922.119, -0.027074967, -0.07054323, -307149.03, -17236.99, 0.0, 5.012559, 4.939819 
3.2595837e+1, 2.7534825e+2, -257910.5, -371301.63, 6831.812, -0.047704164, -0.13293372, -257500.36, -15974.045, 0.0, 5.0122166, 4.939966 
3.2595488e+1, 2.8028068e+2, -232771.83, -374043.28, 1950.5941, -0.05212848, -0.13723382, -232744.89, -39562.71, 0.0, 5.0119753, 4.921999 
3.2592094e+1, 2.8521267e+2, -182848.53, -319954.97, 588.88776, -0.037569966, -0.041737232, -182846.0, -37960.754, 0.0, 5.012373, 4.9231133 
3.2588786e+1, 2.9014328e+2, -131603.16, -269261.4, -240.4316, -0.02916079, 0.03200559, -131602.73, -34995.55, 0.0, 5.0129137, 4.923099 
3.2585517e+1, 2.9507297e+2, -80276.71, -218671.13, -1084.4077, -0.020431396, 0.093471475, -80268.21, -31929.852, 0.0, 5.0134487, 4.9230847 
3.258209e+1, 3.0001977e+2, -11344.729, -92518.71, -702.3094, -0.016164647, 0.16551808, -11338.652, -11338.652, 0.0, 5.0138593, 4.9593916 
3.257753e+1, 3.0498105e+2, -1194.8451, -67766.04, 1794.1978, -0.048745994, 0.10879238, -1146.5237, -1146.5237, 0.0, 5.0140686, 4.9678926 
3.2572865e+1, 3.0994278e+2, 932.1836, -62785.676, 3256.1384, -0.0880294, 0.021660898, 1098.148, 1098.148, 0.0, 5.0143237, 4.9694176 
3.2568315e+1, 3.1490794e+2, 3292.3977, -58040.77, 4683.057, -0.12649576, -0.04930115, 3647.909, 3647.909, 0.0, 5.0145717, 4.9709444 
3.7610105e+1, 1.2151209e+2, -1712499.6, -1750648.4, 344.12668, 0.022210648, -0.0038207325, -1712496.5, 36680.863, 0.0, 5.014176, 4.989324 
3.7607715e+1, 1.264989e+2, -1668086.6, -1711096.1, -668.18634, 0.003153202, 0.0005272883, -1668076.3, 32232.703, 0.0, 5.0142074, 4.986213 
3.7606698e+1, 1.3148458e+2, -1619192.4, -1662151.0, -706.2459, -0.00096610043, -0.0052616163, -1619180.8, 32269.455, 0.0, 5.014175, 4.9862123 
3.7605682e+1, 1.3647027e+2, -1572564.1, -1617771.5, -747.4352, -0.0052339784, -0.009800794, -1572551.9, 30040.018, 0.0, 5.014123, 4.984708 
3.7604854e+1, 1.4145337e+2, -1530151.0, -1582239.5, -487.78705, -0.009202224, 0.0017044066, -1530146.5, 23611.621, 0.0, 5.0140967, 4.9801803 
3.760448e+1, 1.4643405e+2, -1480640.5, -1532464.4, -380.22284, -0.011619923, 0.0020561418, -1480637.8, 24309.209, 0.0, 5.014143, 4.9803944 
3.7604126e+1, 1.514147e+2, -1431455.4, -1483351.9, -341.20782, -0.0139996195, 0.0017291534, -1431453.1, 24682.941, 0.0, 5.0141873, 4.980393 
3.7603772e+1, 1.5639535e+2, -1383709.9, -1437222.4, -299.71652, -0.016426537, 0.0018503366, -1383708.3, 23617.12, 0.0, 5.0142283, 4.979396 
3.7603748e+1, 1.6137193e+2, -1343713.5, -1407205.9, -350.90793, -0.015278407, 0.007453739, -1343711.5, 14843.489, 0.0, 5.014246, 4.9730206 
3.7604418e+1, 1.6634494e+2, -1294774.6, -1358246.5, -419.92444, -0.006287815, 0.0050921263, -1294771.8, 15049.86, 0.0, 5.0142, 4.972985 
3.7605107e+1, 1.7131795e+2, -1245818.0, -1309196.6, -459.17148, 0.0028968435, 0.002567415, -1245814.8, 15273.689, 0.0, 5.0141416, 4.9729867 
3.760579e+1, 1.7629096e+2, -1198025.0, -1262564.0, -503.54507, 0.0119955195, 0.0004394693, -1198021.1, 14333.997, 0.0, 5.014073, 4.972181 
3.7606135e+1, 1.812605e+2, -1157393.1, -1231132.1, -376.55612, 0.017096328, 0.00650105, -1157391.3, 6263.1636, 0.0, 5.014002, 4.966239 
3.760558e+1, 1.8622701e+2, -1107805.8, -1180851.6, -214.4379, 0.01132689, 0.0031161704, -1107805.1, 7174.797, 0.0, 5.0139527, 4.966626 
3.760497e+1, 1.9119352e+2, -1058784.9, -1131734.6, -98.9331, 0.0048710923, -0.00078249286, -1058784.8, 7520.5425, 0.0, 5.013892, 4.9666286 
3.760436e+1, 1.9616006e+2, -1010693.56, -1084552.4, 11.3724, -0.001675669, -0.0043847463, -1010693.56, 6936.886, 0.0, 5.0138183, 4.9659805 
3.7603894e+1, 2.0112304e+2, -971882.4, -1057444.1, -419.3821, -0.004641722, 0.0034135995, -971880.3, -2887.5938, 0.0, 5.013755, 4.9584804 
3.7603748e+1, 2.0608254e+2, -922551.7, -1008077.8, -751.6468, 0.0008627597, 0.010185027, -922545.06, -2149.7576, 0.0, 5.013762, 4.958503 
3.760362e+1, 2.1104199e+2, -873258.4, -958786.5, -942.998, 0.006692316, 0.016448677, -873247.94, -1449.5037, 0.0, 5.013765, 4.958506 
3.7603492e+1, 2.1600144e+2, -824656.25, -910965.06, -1141.613, 0.012522252, 0.022654967, -824641.1, -1439.4482, 0.0, 5.0137587, 4.95801 
3.7603137e+1, 2.2095707e+2, -783764.75, -879819.25, -1060.3175, 0.015165412, 0.03281507, -783753.06, -9114.572, 0.0, 5.013716, 4.95179 
3.760221e+1, 2.2590815e+2, -733547.1, -827813.7, -703.4197, 0.007964636, 0.013664992, -733541.9, -7432.9473, 0.0, 5.0135727, 4.9527593 
3.760125e+1, 2.3085912e+2, -684665.56, -778698.2, -472.5677, -0.000022885866, -0.008167803, -684663.2, -7083.69, 0.0, 5.0134115, 4.952757 
3.7600288e+1, 2.3581007e+2, -636460.2, -731044.6, -241.8168, -0.008097482, -0.030147046, -636459.56, -7409.338, 0.0, 5.013238, 4.952253 
3.7600037e+1, 2.4075818e+2, -597976.8, -705149.7, 486.76605, -0.012144728, -0.031215753, -597974.6, -17422.475, 0.0, 5.013091, 4.9441605 
3.7601712e+1, 2.4570471e+2, -547991.2, -654381.2, 552.0381, -0.0044175554, -0.015957875, -547988.3, -15908.05, 0.0, 5.0130897, 4.944597 
3.7603492e+1, 2.506514e+2, -498513.78, -604887.1, 372.82654, 0.0039470242, -0.000729532, -498512.47, -14904.522, 0.0, 5.013102, 4.944615 
3.7605283e+1, 2.5559816e+2, -449288.1, -555967.2, 159.48526, 0.012229154, 0.015184883, -449287.88, -14153.158, 0.0, 5.0131116, 4.944434 
3.7606445e+1, 2.6054037e+2, -409532.9, -527676.5, 157.04483, 0.014392243, 0.038661614, -409532.7, -22833.059, 0.0, 5.0130243, 4.9369364 
3.7606922e+1, 2.6547676e+2, -355807.0, -465283.13, 2767.1084, -0.007915728, -0.022248423, -355737.1, -17440.387, 0.0, 5.0123153, 4.941484 
3.7607545e+1, 2.7041256e+2, -308490.06, -416645.84, 4822.16, -0.032662246, -0.107434966, -308275.5, -18378.129, 0.0, 5.011266, 4.9416494 
3.7608203e+1, 2.753478e+2, -261862.95, -368637.75, 6661.756, -0.05719781, -0.2034002, -261448.94, -19945.633, 0.0, 5.0099244, 4.941767 
3.760748e+1, 2.8028217e+2, -246075.39, -388652.72, -1248.1547, -0.05034815, -0.18650849, -246064.45, -52934.43, 0.0, 5.008865, 4.9182034 
3.7604463e+1, 2.8521618e+2, -190131.81, -326014.28, -428.33252, -0.027607897, -0.04956258, -190130.45, -45310.8, 0.0, 5.01028, 4.9217553 
3.7601784e+1, 2.9014707e+2, -136387.22, -274274.6, -885.5805, -0.02325987, 0.03275444, -136381.53, -39834.027, 0.0, 5.0117254, 4.9217215 
3.7599143e+1, 2.9507703e+2, -83596.914, -223101.55, -1442.9294, -0.018720644, 0.1037538, -83581.99, -35297.977, 0.0, 5.012795, 4.921688 
3.759602e+1, 3.000226e+2, -14393.108, -96846.99, -1604.7579, -0.01891702, 0.17506143, -14361.888, -14361.888, 0.0, 5.013291, 4.9580245 
3.7590516e+1, 3.0498043e+2, -3445.1697, -65398.395, 106.61685, -0.06275953, 0.06981039, -3444.986, -3444.986, 0.0, 5.01255, 4.9692416 
3.7584805e+1, 3.099393e+2, -6113.2173, -62513.676, 303.7526, -0.11523194, -0.07394057, -6111.5815, -6111.5815, 0.0, 5.011019, 4.9707575 
3.7579197e+1, 3.1490138e+2, -10570.436, -60728.57, -248.69513, -0.16714342, -0.20318861, -10569.203, -10569.203, 0.0, 5.008734, 4.9722743 
4.2624083e+1, 1.2151177e+2, -1712129.5, -1749996.8, 697.03076, 0.020388763, -0.0056373514, -1712116.6, 37063.21, 0.0, 5.014197, 4.9895277 
4.2622304e+1, 1.2649873e+2, -1668010.0, -1711193.9, -477.55594, 0.006747498, 0.0005425741, -1668004.8, 32304.908, 0.0, 5.014262, 4.986153 
4.2621124e+1, 1.314843e+2, -1618834.1, -1662114.0, -529.1217, 0.0007432289, -0.0059738676, -1618827.6, 32624.697, 0.0, 5.0143247, 4.98615 
4.261995e+1, 1.3646986e+2, -1571868.4, -1617574.0, -579.4332, -0.0051525314, -0.011255623, -1571861.1, 30734.19, 0.0, 5.014387, 4.984643 
4.2619023e+1, 1.4145288e+2, -1529241.6, -1581904.6, -345.50003, -0.010076034, 0.000049824805, -1529239.3, 24523.148, 0.0, 5.0144234, 4.980133 
4.2618656e+1, 1.4643362e+2, -1480006.6, -1532257.9, -373.2238, -0.01242929, 0.001390946, -1480004.0, 24947.15, 0.0, 5.0143776, 4.9803505 
4.2618313e+1, 1.5141432e+2, -1431104.5, -1483274.9, -475.71112, -0.014646392, 0.0020625757, -1431100.3, 25039.914, 0.0, 5.014326, 4.9803514 
4.2617974e+1, 1.56395e+2, -1383629.5, -1437268.6, -578.9197, -0.016842544, 0.003150062, -1383623.3, 23705.918, 0.0, 5.0142746, 4.9793577 
4.2617965e+1, 1.6137165e+2, -1343669.5, -1407141.3, -674.6085, -0.015537021, 0.009139925, -1343662.4, 14896.405, 0.0, 5.014253, 4.9730387 
4.2618653e+1, 1.6634461e+2, -1294483.0, -1358068.8, -648.1353, -0.006370145, 0.0064303773, -1294476.4, 15348.9375, 0.0, 5.0142922, 4.973001 
4.2619365e+1, 1.713176e+2, -1245239.3, -1308891.9, -585.8196, 0.0031691492, 0.0035823665, -1245233.9, 15858.266, 0.0, 5.0143332, 4.972999 
4.2620084e+1, 1.7629059e+2, -1197132.1, -1262121.5, -522.1925, 0.0127883, 0.0011413841, -1197128.0, 15230.933, 0.0, 5.014374, 4.9721894 
4.262044e+1, 1.812601e+2, -1156267.4, -1230554.5, -379.10498, 0.018325027, 0.006806225, -1156265.4, 7392.783, 0.0, 5.014377, 4.9662566 
4.261983e+1, 1.8622658e+2, -1106867.0, -1180362.6, -419.71066, 0.01277311, 0.002856924, -1106864.6, 8119.29, 0.0, 5.0142655, 4.966644 
4.2619175e+1, 1.9119307e+2, -1058022.9, -1131333.9, -506.92783, 0.0067317933, -0.0015484474, -1058019.4, 8289.897, 0.0, 5.0141473, 4.9666443 
4.2618522e+1, 1.9615957e+2, -1010068.56, -1084219.6, -593.9283, 0.00079487276, -0.005594066, -1010063.8, 7570.8022, 0.0, 5.0140285, 4.965995 
4.261799e+1, 2.0112255e+2, -971345.75, -1057352.4, -985.12854, -0.002189151, 0.0023210885, -971334.5, -2337.4426, 0.0, 5.013975, 4.9584074 
4.261772e+1, 2.0608206e+2, -921803.8, -1007944.0, -1056.0275, 0.0015414364, 0.010127732, -921790.9, -1390.551, 0.0, 5.0140676, 4.9584045 
4.261747e+1, 2.1104157e+2, -872245.56, -958532.1, -1014.0739, 0.0056153405, 0.017654002, -872233.7, -429.66568, 0.0, 5.0141664, 4.958406 
4.261723e+1, 2.1600106e+2, -823355.8, -910578.4, -972.59033, 0.009780497, 0.025360886, -823345.0, -137.37318, 0.0, 5.014264, 4.957908 
4.2616767e+1, 2.2095676e+2, -782053.25, -879014.7, -771.3337, 0.011400633, 0.036958843, -782047.1, -7402.8613, 0.0, 5.0143137, 4.9517922 
4.261585e+1, 2.2590773e+2, -731687.2, -826597.7, -598.08405, 0.0057730963, 0.015465321, -731683.44, -5569.3086, 0.0, 5.0141516, 4.9529123 
4.2614922e+1, 2.3085861e+2, -682867.6, -777494.06, -560.2385, -0.0002404437, -0.009212477, -682864.3, -5280.1523, 0.0, 5.0139694, 4.952916 
4.2613998e+1, 2.3580948e+2, -634695.0, -729834.7, -523.7457, -0.0061899647, -0.03395913, -634692.1, -5637.9023, 0.0, 5.013787, 4.9524183 
4.26137e+1, 2.4075769e+2, -597113.8, -705056.25, 60.785522, -0.008681381, -0.03449023, -597113.8, -16559.2, 0.0, 5.0134754, 4.9440136 
4.2615128e+1, 2.4570464e+2, -548729.1, -655252.2, 88.61763, -0.00051160733, -0.013214509, -548729.0, -16647.111, 0.0, 5.0129437, 4.9443555 
4.2616695e+1, 2.506517e+2, -500776.28, -606538.2, -74.01292, 0.008717645, 0.0079157185, -500776.22, -17166.68, 0.0, 5.012412, 4.9443445 
4.261831e+1, 2.555988e+2, -453063.06, -558382.44, -230.21858, 0.018285666, 0.02984438, -453062.56, -17926.043, 0.0, 5.0118756, 4.944135 
4.26193e+1, 2.6054102e+2, -413913.03, -529548.94, -141.06375, 0.022763282, 0.057581376, -413912.88, -27209.791, 0.0, 5.011358, 4.9369926 
4.2619827e+1, 2.654773e+2, -360180.47, -463500.16, 1108.6533, 0.010112205, -0.021206463, -360168.56, -21874.715, 0.0, 5.0099654, 4.943037 
4.262073e+1, 2.704135e+2, -314643.06, -415465.9, 1707.3997, -0.00015986041, -0.12156259, -314614.16, -24732.047, 0.0, 5.0083613, 4.9431653 
4.2621857e+1, 2.753496e+2, -269111.16, -367567.53, 2248.57, -0.0062984326, -0.22508335, -269059.8, -27588.807, 0.0, 5.006729, 4.9432454 
4.262149e+1, 2.8028655e+2, -253315.31, -398217.7, -4041.693, 0.016572224, -0.1754954, -253202.67, -60136.855, 0.0, 5.0072775, 4.9152274 
4.2618454e+1, 2.8522038e+2, -191465.5, -329478.2, -317.50775, 0.023872169, -0.02866436, -191464.78, -46704.91, 0.0, 5.00961, 4.9206157 
4.2615986e+1, 2.9014987e+2, -138582.84, -278198.1, -362.323, 0.011918311, 0.039041203, -138581.9, -42076.62, 0.0, 5.010838, 4.9206386 
4.2613724e+1, 2.9507908e+2, -85695.25, -226979.11, -447.61057, 0.004501826, 0.10272195, -85693.83, -37440.406, 0.0, 5.012004, 4.920661 
4.2610985e+1, 3.0002293e+2, -14963.528, -100899.24, -368.43997, -0.0028301901, 0.163123, -14961.949, -14961.949, 0.0, 5.013198, 4.956735 
4.2605704e+1, 3.0497858e+2, 1888.4778, -65355.992, 1183.0938, -0.042270355, 0.032850333, 1909.2866, 1909.2866, 0.0, 5.0140853, 4.968727 
4.2600682e+1, 3.0993482e+2, 4723.464, -62143.965, 1813.6464, -0.0790376, -0.1396886, 4772.619, 4772.619, 0.0, 5.014762, 4.9694233 
4.259621e+1, 3.1489247e+2, 7632.934, -59008.69, 2279.0671, -0.10513635, -0.30606902, 7710.7847, 7710.7847, 0.0, 5.015372, 4.97012 
4.7636998e+1, 1.2151164e+2, -1711891.6, -1749532.4, 723.9127, 0.007284023, -0.0069815395, -1711877.6, 37302.26, 0.0, 5.0141997, 4.989681 
4.763655e+1, 1.2649846e+2, -1668093.1, -1711380.1, -436.74634, 0.0064491793, -0.0016565245, -1668088.8, 32221.861, 0.0, 5.014264, 4.9860926 
4.7635514e+1, 1.31484e+2, -1618917.6, -1662296.0, -484.72916, 0.0013101578, -0.007869816, -1618912.1, 32541.404, 0.0, 5.014326, 4.9860907 
4.7634482e+1, 1.3646951e+2, -1571952.4, -1617752.0, -531.4731, -0.0037768376, -0.012838572, -1571946.3, 30650.621, 0.0, 5.0143876, 4.984585 
4.7633684e+1, 1.4145252e+2, -1529386.3, -1582201.9, -363.25568, -0.007759798, -0.0012116417, -1529383.8, 24381.023, 0.0, 5.0144234, 4.980036 
4.7633365e+1, 1.464332e+2, -1480186.9, -1532631.8, -413.4908, -0.009169671, 0.0008663589, -1480183.6, 24771.166, 0.0, 5.0143776, 4.9802275 
4.7633067e+1, 1.5141383e+2, -1431282.9, -1483648.0, -513.3971, -0.01047689, 0.002316124, -1431277.8, 24867.375, 0.0, 5.0143266, 4.9802284 
4.7632766e+1, 1.5639447e+2, -1383806.0, -1437641.4, -614.01495, -0.01177326, 0.00417542, -1383799.0, 23536.725, 0.0, 5.0142756, 4.979234 
4.7632697e+1, 1.6137108e+2, -1343573.3, -1406952.4, -662.55963, -0.010849587, 0.010358511, -1343566.4, 14999.581, 0.0, 5.014254, 4.9731026 
4.7633106e+1, 1.6634415e+2, -1294350.6, -1357802.3, -617.731, -0.00482877, 0.007671647, -1294344.6, 15486.605, 0.0, 5.014293, 4.9730916 
4.763353e+1, 1.7131723e+2, -1245107.1, -1308621.1, -551.3455, 0.0014246252, 0.0049477816, -1245102.4, 15994.133, 0.0, 5.014334, 4.973091 
4.763396e+1, 1.7629032e+2, -1197000.3, -1261846.5, -483.65344, 0.0077130697, 0.0026414956, -1196996.6, 15365.016, 0.0, 5.0143743, 4.9722834 
4.7634143e+1, 1.8125984e+2, -1156303.5, -1230636.0, -429.20337, 0.011443056, 0.008030527, -1156301.0, 7359.469, 0.0, 5.0143776, 4.96623 
4.7633702e+1, 1.8622622e+2, -1107005.1, -1180664.9, -506.98148, 0.008714649, 0.0038858496, -1107001.6, 7986.0347, 0.0, 5.0142665, 4.9665427 
4.763323e+1, 1.9119258e+2, -1058158.4, -1131631.5, -590.9845, 0.0057249675, -0.0006004355, -1058153.6, 8161.0566, 0.0, 5.014148, 4.9665446 
4.7632763e+1, 1.9615896e+2, -1010201.44, -1084512.8, -674.75757, 0.0027870105, -0.004726163, -1010195.3, 7446.2715, 0.0, 5.0140295, 4.9658957 
4.7632313e+1, 2.0112182e+2, -971284.75, -1057226.6, -946.5813, 0.00118302, 0.0023961526, -971274.3, -2268.9941, 0.0, 5.013976, 4.9584503 
4.763192e+1, 2.0608124e+2, -921719.9, -1007773.2, -976.248, 0.0027429725, 0.008814513, -921708.8, -1299.8794, 0.0, 5.0140686, 4.9584637 
4.7631538e+1, 2.1104066e+2, -872160.4, -958361.06, -931.15906, 0.004478977, 0.015054288, -872150.3, -337.43246, 0.0, 5.014168, 4.9584656 
4.7631156e+1, 2.160001e+2, -823269.25, -910407.06, -886.54785, 0.0062675313, 0.021455735, -823260.25, -43.53742, 0.0, 5.0142665, 4.9579678 
4.7630593e+1, 2.209558e+2, -781956.9, -878813.94, -829.47565, 0.0063591497, 0.032605685, -781949.75, -7296.9307, 0.0, 5.0143147, 4.9518614 
4.7629693e+1, 2.2590707e+2, -731603.0, -826426.2, -730.9701, 0.002491005, 0.013468918, -731597.4, -5477.456, 0.0, 5.0141525, 4.9529724 
4.7628796e+1, 2.3085828e+2, -682782.56, -777325.0, -687.80237, -0.0015036671, -0.008619211, -682777.56, -5190.57, 0.0, 5.013971, 4.952976 
4.76279e+1, 2.3580945e+2, -634609.06, -729668.06, -645.9715, -0.0054687834, -0.030775204, -634604.7, -5550.5728, 0.0, 5.0137887, 4.9524775 
4.762744e+1, 2.4075788e+2, -597199.75, -705329.3, -296.31253, -0.0067571914, -0.029226486, -597198.94, -16646.107, 0.0, 5.0134816, 4.943924 
4.7628248e+1, 2.457047e+2, -548946.2, -655858.94, -346.03494, 0.00055721443, -0.0075069014, -548945.06, -16861.715, 0.0, 5.012953, 4.944152 
4.7629157e+1, 2.5065154e+2, -500984.22, -607123.4, -500.02792, 0.008740388, 0.013777022, -500981.88, -17367.088, 0.0, 5.012423, 4.9441457 
4.7630116e+1, 2.5559843e+2, -453262.0, -558946.2, -647.57196, 0.017176334, 0.035672322, -453258.03, -18112.354, 0.0, 5.011888, 4.943941 
4.763061e+1, 2.605405e+2, -413373.25, -528579.94, -594.7002, 0.02173254, 0.06265324, -413370.2, -26655.504, 0.0, 5.0113797, 4.937327 
4.7631177e+1, 2.6547736e+2, -358835.75, -461034.03, 484.62732, 0.01991743, -0.019503778, -358833.47, -20536.66, 0.0, 5.0100164, 4.943894 
4.7632113e+1, 2.7041417e+2, -313277.94, -413185.94, 1203.1783, 0.020653376, -0.123404324, -313263.47, -23388.156, 0.0, 5.0084414, 4.9439654 
4.7633216e+1, 2.7535087e+2, -267725.1, -365473.2, 1864.3455, 0.02364471, -0.23033686, -267689.56, -26234.492, 0.0, 5.0068383, 4.9439898 
4.7632724e+1, 2.8028873e+2, -253673.98, -399606.25, -2385.7827, 0.040100943, -0.17414318, -253635.0, -60596.59, 0.0, 5.0073423, 4.914728 
4.763042e+1, 2.852224e+2, -190987.83, -329050.13, 653.05005, 0.04008927, -0.02793244, -190984.73, -46251.426, 0.0, 5.00963, 4.9207706 
4.7628924e+1, 2.901512e+2, -138126.36, -277904.34, 786.9438, 0.028760849, 0.030127898, -138121.94, -41636.625, 0.0, 5.010862, 4.92076 
4.7627583e+1, 2.950797e+2, -85259.305, -226818.95, 880.2467, 0.019706326, 0.0845673, -85253.836, -37013.813, 0.0, 5.0120316, 4.9207497 
4.7625715e+1, 3.000221e+2, -14011.751, -99873.9, 859.8139, 0.007992411, 0.12840518, -14003.142, -14003.142, 0.0, 5.0132685, 4.9571238 
4.7621563e+1, 3.0497897e+2, 3813.5596, -63077.855, 2260.1306, -0.033449337, -0.005287544, 3889.838, 3889.838, 0.0, 5.0142884, 4.969447 
4.7617626e+1, 3.0993754e+2, 6940.25, -60113.953, 3209.7852, -0.074294694, -0.17139108, 7093.547, 7093.547, 0.0, 5.0150933, 4.9700274 
4.7614095e+1, 3.1489724e+2, 10140.879, -57226.54, 3994.3352, -0.10873917, -0.33275193, 10376.884, 10376.884, 0.0, 5.015831, 4.970608 
5.264993e+1, 1.2151148e+2, -1711601.8, -1748960.5, 750.46356, -0.0056219697, -0.008394888, -1711586.6, 37593.484, 0.0, 5.014202, 4.989868 
5.265081e+1, 1.2649819e+2, -1668177.1, -1711565.8, -397.6108, 0.00627351, -0.0037335325, -1668173.5, 32137.943, 0.0, 5.014266, 4.986031 
5.2649915e+1, 1.314837e+2, -1619002.1, -1662477.4, -442.01053, 0.0019777152, -0.009690694, -1618997.6, 32457.273, 0.0, 5.0143275, 4.9860306 
5.264903e+1, 1.3646919e+2, -1572037.4, -1617929.3, -485.18695, -0.0023225397, -0.014393473, -1572032.3, 30566.246, 0.0, 5.014388, 4.984526 
5.264835e+1, 1.4145213e+2, -1529540.1, -1582517.8, -380.85297, -0.0054368796, -0.002414648, -1529537.4, 24229.58, 0.0, 5.0144234, 4.9799314 
5.264808e+1, 1.4643277e+2, -1480367.5, -1533005.6, -453.34805, -0.005908351, 0.00035702522, -1480363.6, 24594.85, 0.0, 5.0143776, 4.9801035 
5.264782e+1, 1.5141337e+2, -1431461.5, -1484021.3, -550.6731, -0.006299995, 0.0025208243, -1431455.8, 24694.52, 0.0, 5.0143266, 4.9801044 
5.2647567e+1, 1.5639393e+2, -1383982.8, -1438014.1, -648.7001, -0.006690892, 0.005087829, -1383974.9, 23367.234, 0.0, 5.014276, 4.9791102 
5.2647436e+1, 1.6137053e+2, -1343505.1, -1406821.0, -652.25464, -0.006068605, 0.011677299, -1343498.4, 15074.637, 0.0, 5.0142555, 4.973147 
5.2647567e+1, 1.6634367e+2, -1294219.0, -1357535.3, -589.22406, -0.0032198932, 0.00901764, -1294213.5, 15623.448, 0.0, 5.0142946, 4.9731817 
5.26477e+1, 1.7131685e+2, -1244975.8, -1308350.0, -518.769, -0.00030361573, 0.0063427673, -1244971.5, 16129.21, 0.0, 5.014335, 4.9731827 
5.2647835e+1, 1.7629002e+2, -1196869.3, -1261571.0, -447.01215, 0.0026029057, 0.0040960247, -1196866.1, 15498.342, 0.0, 5.0143747, 4.9723763 
5.264785e+1, 1.812596e+2, -1156356.5, -1230752.6, -481.29477, 0.0046106623, 0.0093120225, -1156353.4, 7309.256, 0.0, 5.0143776, 4.9661913 
5.264758e+1, 1.8622583e+2, -1107144.1, -1180966.5, -595.149, 0.0047090463, 0.0049832882, -1107139.4, 7852.129, 0.0, 5.014267, 4.9664416 
5.2647287e+1, 1.9119209e+2, -1058294.6, -1131928.5, -675.9377, 0.0047336845, 0.0003701753, -1058288.5, 8031.572, 0.0, 5.014149, 4.9664445 
5.2647e+1, 1.9615835e+2, -1010335.06, -1084805.4, -756.4833, 0.0047573755, -0.0038815746, -1010327.4, 7321.1016, 0.0, 5.0140305, 4.9657965 
5.264664e+1, 2.0112109e+2, -971240.1, -1057135.3, -909.7734, 0.004564817, 0.0025385732, -971230.5, -2216.8977, 0.0, 5.0139766, 4.9584813 
5.2646124e+1, 2.0608042e+2, -921636.9, -1007601.75, -896.2706, 0.003979548, 0.0075751403, -921627.5, -1209.9727, 0.0, 5.01407, 4.958523 
5.2645606e+1, 2.1103978e+2, -872075.94, -958189.3, -848.0465, 0.0033778187, 0.01247848, -872067.6, -245.93001, 0.0, 5.014169, 4.958524 
5.2645093e+1, 2.1599913e+2, -823183.56, -910235.06, -800.3078, 0.0027899363, 0.01752455, -823176.2, 49.60053, 0.0, 5.0142684, 4.9580264 
5.2644426e+1, 2.2095487e+2, -781882.6, -878660.4, -889.1988, 0.0013327708, 0.028310422, -781874.5, -7213.0806, 0.0, 5.014316, 4.9519143 
5.264354e+1, 2.2590642e+2, -731519.9, -826254.06, -862.2349, -0.0007764807, 0.011489089, -731512.06, -5386.3057, 0.0, 5.014154, 4.953032 
5.264267e+1, 2.3085792e+2, -682698.56, -777155.3, -813.7451, -0.0027477941, -0.008124245, -682691.56, -5101.6685, 0.0, 5.0139728, 4.953035 
5.26418e+1, 2.3580942e+2, -634524.2, -729500.7, -766.576, -0.004724015, -0.027804447, -634518.0, -5463.9053, 0.0, 5.013791, 4.9525356 
5.2641195e+1, 2.4075812e+2, -597331.3, -705691.3, -656.5624, -0.0047221687, -0.023706827, -597327.4, -16776.49, 0.0, 5.0134873, 4.9438024 
5.264138e+1, 2.4570478e+2, -549171.06, -656458.4, -788.1339, 0.0017725707, -0.0013653431, -549165.25, -17080.791, 0.0, 5.0129623, 4.943947 
5.2641654e+1, 2.5065142e+2, -501199.9, -607701.2, -933.4904, 0.008895735, 0.019933108, -501191.72, -17572.002, 0.0, 5.012434, 4.943946 
5.264195e+1, 2.5559813e+2, -453468.66, -559502.5, -1072.374, 0.016185677, 0.041655876, -453457.8, -18303.217, 0.0, 5.0119004, 4.943746 
5.2641916e+1, 2.605399e+2, -412974.44, -527847.94, -1002.871, 0.020213356, 0.06750751, -412965.7, -26238.748, 0.0, 5.0114017, 4.937564 
5.2642566e+1, 2.6547727e+2, -357537.16, -458525.88, -52.88308, 0.029713135, -0.01922613, -357537.13, -19235.977, 0.0, 5.010068, 4.9447336 
5.2643645e+1, 2.704147e+2, -311958.84, -410863.5, 785.5016, 0.042442165, -0.1279453, -311952.63, -22082.318, 0.0, 5.008522, 4.9447484 
5.264482e+1, 2.7535194e+2, -266385.0, -363335.88, 1566.6968, 0.055548638, -0.23956378, -266359.7, -24918.371, 0.0, 5.006947, 4.944716 
5.2644026e+1, 2.8029093e+2, -254736.47, -402584.94, -667.4368, 0.06334852, -0.17174259, -254733.45, -61722.684, 0.0, 5.007408, 4.9136662 
5.264227e+1, 2.8522462e+2, -190606.89, -328527.44, 1690.1101, 0.054141603, -0.023293188, -190586.19, -45881.035, 0.0, 5.009651, 4.920905 
5.264177e+1, 2.9015258e+2, -137766.22, -277516.0, 2002.6472, 0.043986574, 0.022934806, -137737.53, -41272.875, 0.0, 5.010886, 4.9208612 
5.264136e+1, 2.9508033e+2, -84919.305, -226564.3, 2274.483, 0.03384148, 0.06594575, -84882.8, -36655.9, 0.0, 5.0120597, 4.9208174 
5.264043e+1, 3.0002117e+2, -13512.308, -99591.26, 2221.7185, 0.018217113, 0.093013406, -13455.002, -13455.002, 0.0, 5.013339, 4.957197 
5.263768e+1, 3.049791e+2, 5634.9717, -60698.113, 3499.0745, -0.02404482, -0.046413887, 5819.037, 5819.037, 0.0, 5.014492, 4.970119 
5.2635115e+1, 3.099398e+2, 9053.51, -57982.367, 4767.649, -0.06761257, -0.21144716, 9390.891, 9390.891, 0.0, 5.015425, 4.9705834 
5.2632815e+1, 3.1490138e+2, 12545.454, -55342.848, 5871.1396, -0.109052554, -0.37315583, 13049.462, 13049.462, 0.0, 5.0162907, 4.9710484 
5.7662886e+1, 1.21511295e+2, -1711431.9, -1748363.1, 726.1571, -0.01829364, -0.009872779, -1711417.6, 37763.04, 0.0, 5.0141478, 4.990091 
5.766508e+1, 1.2649794e+2, -1668348.0, -1711790.3, -393.67758, 0.0062353797, -0.0056859916, -1668344.5, 31967.9, 0.0, 5.01424, 4.98597 
5.766432e+1, 1.3148342e+2, -1619131.0, -1662677.6, -419.19232, 0.0027504247, -0.01143231, -1619127.0, 32329.164, 0.0, 5.014314, 4.9859705 
5.766357e+1, 1.3646886e+2, -1572164.9, -1618125.1, -447.31818, -0.0007885983, -0.015914425, -1572160.5, 30439.596, 0.0, 5.0143747, 4.984467 
5.7663006e+1, 1.4145176e+2, -1529761.3, -1582880.3, -397.67844, -0.0031050704, -0.003553979, -1529758.3, 24011.027, 0.0, 5.014404, 4.9798207 
5.766279e+1, 1.4643234e+2, -1480595.4, -1533402.5, -489.025, -0.0026431656, -0.00013507465, -1480590.9, 24371.236, 0.0, 5.014362, 4.979979 
5.7662576e+1, 1.5141289e+2, -1431685.9, -1484416.6, -582.3441, -0.0021115788, 0.0026785596, -1431679.4, 24475.908, 0.0, 5.014312, 4.9799795 
5.766236e+1, 1.5639341e+2, -1384214.3, -1438413.1, -677.9275, -0.0015872061, 0.005892349, -1384205.8, 23142.887, 0.0, 5.0142584, 4.9789853 
5.7662183e+1, 1.6136998e+2, -1343522.0, -1406774.0, -637.1186, -0.0011836939, 0.013103969, -1343515.6, 15064.479, 0.0, 5.0142374, 4.9731717 
5.7662034e+1, 1.6634321e+2, -1294129.3, -1357287.4, -552.608, -0.00153613, 0.0104723135, -1294124.5, 15718.226, 0.0, 5.0142817, 4.973271 
5.766187e+1, 1.7131647e+2, -1244893.9, -1308101.8, -478.38187, -0.0020068549, 0.007767237, -1244890.3, 16214.754, 0.0, 5.0143194, 4.9732733 
5.7661706e+1, 1.7628974e+2, -1196819.5, -1261334.0, -406.5203, -0.0025275445, 0.0055007664, -1196817.0, 15550.296, 0.0, 5.014348, 4.9724684 
5.766157e+1, 1.8125933e+2, -1156524.8, -1230950.8, -533.08984, -0.0021541098, 0.010644105, -1156520.9, 7143.8945, 0.0, 5.0143447, 4.9661403 
5.766146e+1, 1.8622546e+2, -1107331.8, -1181289.9, -679.46893, 0.0007657164, 0.0061447145, -1107325.5, 7669.5947, 0.0, 5.014251, 4.96634 
5.766135e+1, 1.911916e+2, -1058456.6, -1132236.4, -755.41315, 0.0037638154, 0.0013604687, -1058448.9, 7876.4063, 0.0, 5.014141, 4.9663434 
5.7661235e+1, 1.9615775e+2, -1010502.44, -1085112.5, -832.02203, 0.0067140823, -0.003062271, -1010493.1, 7162.199, 0.0, 5.0140204, 4.965697 
5.766097e+1, 2.0112038e+2, -971264.8, -1057102.8, -865.5957, 0.007968425, 0.0027465662, -971256.1, -2234.306, 0.0, 5.013959, 4.9585004 
5.766033e+1, 2.0607963e+2, -921605.06, -1007452.75, -801.7437, 0.0052621984, 0.0064117997, -921597.6, -1171.5508, 0.0, 5.0140533, 4.958581 
5.7659686e+1, 2.1103889e+2, -872062.06, -958048.5, -743.4481, 0.002326946, 0.0099378945, -872055.6, -225.20679, 0.0, 5.014147, 4.958583 
5.7659036e+1, 2.1599817e+2, -823211.0, -910113.2, -683.87286, -0.00062749063, 0.01359276, -823205.6, 29.16758, 0.0, 5.0142317, 4.9580855 
5.7658255e+1, 2.2095391e+2, -781979.1, -878622.3, -911.2321, -0.0036449118, 0.024106149, -781970.56, -7300.6387, 0.0, 5.014265, 4.9519506 
5.765739e+1, 2.2590578e+2, -731569.1, -826141.2, -958.9698, -0.0040019555, 0.00954057, -731559.4, -5427.8687, 0.0, 5.014109, 4.95309 
5.765655e+1, 2.3085758e+2, -682754.06, -777046.94, -911.1002, -0.0039475826, -0.0077315983, -682745.25, -5152.41, 0.0, 5.013926, 4.9530926 
5.7655704e+1, 2.3580939e+2, -634613.9, -729409.56, -861.6801, -0.0039273174, -0.025068752, -634606.06, -5551.8564, 0.0, 5.0137324, 4.9525933 
5.765496e+1, 2.4075834e+2, -597712.75, -706231.1, -986.7151, -0.002543818, -0.01796698, -597703.8, -17155.102, 0.0, 5.0134215, 4.943649 
5.765454e+1, 2.457049e+2, -549538.6, -657108.56, -1180.8186, 0.0031627167, 0.0052011046, -549525.7, -17440.477, 0.0, 5.012924, 4.943742 
5.765417e+1, 2.5065136e+2, -501479.5, -608295.1, -1304.7504, 0.009212353, 0.026437495, -501463.56, -17839.283, 0.0, 5.0124254, 4.9437447 
5.7653826e+1, 2.5559783e+2, -453660.2, -560040.3, -1433.1387, 0.015348261, 0.047943402, -453640.9, -18477.799, 0.0, 5.011922, 4.9435496 
5.765321e+1, 2.6053926e+2, -412679.5, -527328.06, -1290.753, 0.018268809, 0.07236414, -412664.97, -25925.361, 0.0, 5.011437, 4.937707 
5.765402e+1, 2.6547706e+2, -356711.6, -456132.44, -334.1003, 0.039703354, -0.020327508, -356710.47, -18403.67, 0.0, 5.009965, 4.9455667 
5.7655346e+1, 2.7041504e+2, -312050.84, -409043.88, 1023.8298, 0.06565767, -0.13545163, -312040.03, -22172.92, 0.0, 5.008109, 4.9455333 
5.765672e+1, 2.7535275e+2, -267841.13, -362282.06, 2644.922, 0.09020994, -0.2534606, -267767.1, -26337.158, 0.0, 5.006063, 4.9454527 
5.765546e+1, 2.8029308e+2, -260510.19, -408936.3, 3273.9893, 0.08741229, -0.16939642, -260438.0, -67454.87, 0.0, 5.0060496, 4.912047 
5.7654047e+1, 2.8522697e+2, -192972.66, -329150.63, 4350.0693, 0.06677344, -0.015467487, -192833.84, -48158.387, 0.0, 5.0087337, 4.921 
5.765454e+1, 2.9015404e+2, -138866.19, -277673.6, 4158.355, 0.057995327, 0.017113728, -138741.72, -42298.383, 0.0, 5.0104294, 4.92093 
5.765507e+1, 2.950809e+2, -85192.305, -226452.38, 4150.0127, 0.0470752, 0.04671918, -85070.49, -36856.473, 0.0, 5.011909, 4.9208593 
5.7655144e+1, 3.0002016e+2, -13572.202, -100065.53, 3892.5723, 0.027892105, 0.056863762, -13397.373, -13397.373, 0.0, 5.013378, 4.956962 
5.765405e+1, 3.04979e+2, 7066.6543, -58290.727, 4888.1685, -0.013965027, -0.090481475, 7430.2246, 7430.2246, 0.0, 5.014604, 4.970751 
5.7653165e+1, 3.0994165e+2, 9863.197, -56203.742, 6156.5664, -0.058637757, -0.25935084, 10432.011, 10432.011, 0.0, 5.0153365, 4.9710975 
5.765241e+1, 3.149049e+2, 11995.451, -54504.188, 7110.6323, -0.10524646, -0.42599335, 12747.272, 12747.272, 0.0, 5.015731, 4.971444 
6.267679e+1, 1.21511e+2, -1710566.9, -1748097.8, -269.1768, -0.02229588, -0.006822146, -1710565.0, 38619.363, 0.0, 5.0144734, 4.990011 
6.2679595e+1, 1.2649725e+2, -1667721.4, -1711266.3, -976.3464, 0.008148947, -0.007140325, -1667699.5, 32620.025, 0.0, 5.0144057, 4.9860554 
6.267879e+1, 1.3148296e+2, -1618721.9, -1662277.5, -839.69946, 0.0037131968, -0.011493805, -1618705.6, 32755.002, 0.0, 5.014411, 4.9860516 
6.2677985e+1, 1.3646863e+2, -1571931.8, -1617827.6, -701.3448, -0.0005881458, -0.014585177, -1571921.1, 30681.059, 0.0, 5.0144153, 4.984544 
6.267742e+1, 1.4145161e+2, -1529726.1, -1582931.9, -520.6526, -0.0030622247, -0.0017366218, -1529721.0, 24049.281, 0.0, 5.014429, 4.9797916 
6.267727e+1, 1.4643201e+2, -1480443.8, -1533462.6, -528.71674, -0.001809274, 0.00039982467, -1480438.5, 24526.51, 0.0, 5.0144405, 4.979922 
6.267712e+1, 1.5141237e+2, -1431359.9, -1484390.8, -528.5314, -0.00040838984, 0.0019611535, -1431354.6, 24805.523, 0.0, 5.01445, 4.9799223 
6.267698e+1, 1.5639271e+2, -1383704.8, -1438297.1, -529.41077, 0.001037681, 0.004005955, -1383699.6, 23655.756, 0.0, 5.0144596, 4.9789276 
6.267683e+1, 1.613692e+2, -1342775.5, -1406378.0, -384.8466, 0.0016524213, 0.010780104, -1342773.1, 15814.448, 0.0, 5.0144844, 4.973184 
6.267656e+1, 1.6634257e+2, -1293337.1, -1356816.4, -372.12674, -0.00028053456, 0.009010912, -1293335.0, 16513.846, 0.0, 5.0145326, 4.9733076 
6.2676287e+1, 1.7131595e+2, -1244077.5, -1307628.8, -386.76645, -0.0022986436, 0.0071944627, -1244075.1, 17034.68, 0.0, 5.0145807, 4.973307 
6.267602e+1, 1.7628933e+2, -1195955.0, -1260846.5, -401.7523, -0.004251455, 0.005808684, -1195952.5, 16418.186, 0.0, 5.014628, 4.9724994 
6.2675816e+1, 1.8125902e+2, -1155745.3, -1230701.0, -645.5701, -0.004520241, 0.011701194, -1155739.8, 7927.8896, 0.0, 5.01464, 4.9660845 
6.267572e+1, 1.8622512e+2, -1106546.1, -1181110.5, -809.36566, -0.0006785591, 0.0076498897, -1106537.4, 8461.567, 0.0, 5.0145636, 4.966253 
6.267563e+1, 1.911912e+2, -1057584.8, -1132021.3, -877.92365, 0.0034493774, 0.0032711239, -1057574.4, 8755.795, 0.0, 5.014483, 4.9662557 
6.2675554e+1, 1.9615729e+2, -1009513.8, -1084847.5, -948.0558, 0.007686266, -0.000776131, -1009501.9, 8159.5317, 0.0, 5.0144024, 4.965608 
6.267529e+1, 2.0111983e+2, -969963.3, -1056281.4, -832.42175, 0.00959204, 0.004388361, -969955.3, -926.61084, 0.0, 5.014364, 4.9585915 
6.2674576e+1, 2.0607898e+2, -920402.75, -1006559.94, -637.3258, 0.005375914, 0.005793542, -920398.06, 34.53171, 0.0, 5.014403, 4.958723 
6.267384e+1, 2.1103816e+2, -871011.75, -957215.3, -487.27066, 0.00093098, 0.007159384, -871009.0, 827.3374, 0.0, 5.0144434, 4.9587293 
6.267312e+1, 2.1599735e+2, -822286.4, -909329.2, -340.42294, -0.0033956226, 0.00874669, -822285.06, 954.86224, 0.0, 5.014483, 4.958236 
6.2672305e+1, 2.2095309e+2, -781258.94, -878293.44, -614.3349, -0.007009775, 0.017921817, -781255.0, -6580.493, 0.0, 5.014513, 4.9519515 
6.2671465e+1, 2.259052e+2, -731066.9, -826306.75, -1072.7278, -0.005621076, 0.007578678, -731054.8, -4919.052, 0.0, 5.0143647, 4.9529195 
6.267066e+1, 2.308573e+2, -682224.6, -777172.2, -1425.1003, -0.0035175753, -0.004714419, -682203.25, -4606.755, 0.0, 5.0141897, 4.952929 
6.2669855e+1, 2.358094e+2, -634025.5, -729486.25, -1782.0918, -0.0013331849, -0.017081518, -633992.25, -4935.038, 0.0, 5.0140133, 4.9524364 
6.2668973e+1, 2.4075845e+2, -596687.9, -705553.75, -2268.641, 0.0012921315, -0.008483843, -596640.6, -16088.224, 0.0, 5.013751, 4.9437227 
6.266793e+1, 2.4570455e+2, -548274.9, -656338.1, -2229.531, 0.005221429, 0.009681345, -548228.94, -16136.824, 0.0, 5.013344, 4.943811 
6.2666917e+1, 2.5065058e+2, -499961.2, -607435.25, -2024.9601, 0.009367839, 0.026848292, -499923.03, -16289.584, 0.0, 5.0129375, 4.9438095 
6.2665945e+1, 2.5559676e+2, -451886.34, -559096.25, -1810.249, 0.0136874365, 0.0452099, -451855.78, -16682.092, 0.0, 5.012526, 4.943609 
6.266482e+1, 2.6053825e+2, -410192.6, -524997.4, -1327.1003, 0.016272074, 0.066163175, -410177.25, -23427.455, 0.0, 5.0120916, 4.938255 
6.266559e+1, 2.654768e+2, -354047.38, -454721.3, -3072.2156, 0.048564963, -0.015960306, -353953.7, -15639.911, 0.0, 5.0108957, 4.9456744 
6.266702e+1, 2.7041578e+2, -307515.84, -406191.03, -5162.468, 0.08892204, -0.12083741, -307246.5, -17376.387, 0.0, 5.00954, 4.9459043 
6.26686e+1, 2.7535447e+2, -260880.61, -357916.63, -7362.618, 0.12985408, -0.23329479, -260325.16, -18896.467, 0.0, 5.0081673, 4.9460874 
6.266758e+1, 2.8029463e+2, -249637.08, -400049.8, -4735.7065, 0.1315741, -0.16834852, -249488.13, -56501.004, 0.0, 5.0088606, 4.9142723 
6.2666386e+1, 2.8522748e+2, -187246.58, -327240.3, -56.038086, 0.094495855, -0.02639686, -187246.56, -42563.2, 0.0, 5.0107503, 4.921311 
6.266727e+1, 2.9015398e+2, -135654.78, -275871.88, 1098.1073, 0.07530201, 0.005952666, -135646.19, -39196.23, 0.0, 5.0114746, 4.921452 
6.266832e+1, 2.9507998e+2, -84003.32, -224601.33, 2116.4292, 0.056148753, 0.029484378, -83971.47, -35749.656, 0.0, 5.012162, 4.9215937 
6.266927e+1, 3.0001885e+2, -14027.461, -97836.664, 2225.8696, 0.03193508, 0.03288854, -13968.387, -13968.387, 0.0, 5.0129757, 4.957951 
6.2670547e+1, 3.0497995e+2, 4968.9517, -58182.684, 92.77944, 0.0010407955, -0.09153162, 4969.088, 4969.088, 0.0, 5.013997, 4.9710655 
6.26725e+1, 3.0994612e+2, 8144.04, -55871.992, -1289.683, -0.025762742, -0.21982588, 8170.0117, 8170.0117, 0.0, 5.014933, 4.9714966 
6.267488e+1, 3.149141e+2, 11435.624, -53680.08, -2477.8801, -0.050548956, -0.33255184, 11529.78, 11529.78, 0.0, 5.015824, 4.9719276 
6.769146e+1, 1.2151067e+2, -1711102.0, -1749235.5, -867.1763, -0.020756839, 0.0002548027, -1711082.3, 38107.758, 0.0, 5.01448, 4.9896364 
6.769429e+1, 1.2649624e+2, -1667419.4, -1710698.8, -982.4865, 0.010819741, -0.0081946, -1667397.1, 32934.555, 0.0, 5.014412, 4.9862413 
6.7693293e+1, 1.3148236e+2, -1618426.6, -1661711.9, -841.68414, 0.004489147, -0.010209719, -1618410.3, 33057.926, 0.0, 5.0144157, 4.986238 
6.769229e+1, 1.3646844e+2, -1571643.0, -1617263.6, -699.1755, -0.0017828209, -0.010933448, -1571632.3, 30972.576, 0.0, 5.0144186, 4.9847307 
6.769163e+1, 1.4145164e+2, -1529656.3, -1582789.9, -511.91336, -0.0053918133, 0.002556447, -1529651.4, 24119.17, 0.0, 5.014429, 4.9798393 
6.769155e+1, 1.4643174e+2, -1480435.0, -1533445.9, -521.51624, -0.003459094, 0.001808813, -1480429.9, 24537.639, 0.0, 5.0144405, 4.9799285 
6.769148e+1, 1.514118e+2, -1431349.0, -1484373.9, -519.2103, -0.0013404881, 0.00036335114, -1431343.9, 24821.133, 0.0, 5.0144506, 4.9799285 
6.769142e+1, 1.5639184e+2, -1383691.6, -1438279.9, -517.96985, 0.0008040642, -0.00062077004, -1383686.8, 23675.863, 0.0, 5.0144606, 4.978934 
6.7691344e+1, 1.6136818e+2, -1342776.9, -1406383.4, -350.9199, 0.001869719, 0.004490374, -1342774.9, 15821.187, 0.0, 5.0144844, 4.9731827 
6.769114e+1, 1.6634172e+2, -1293357.4, -1356860.9, -336.4064, 0.000057957852, 0.0045633256, -1293355.6, 16500.287, 0.0, 5.0145326, 4.9732933 
6.769092e+1, 1.7131528e+2, -1244096.4, -1307672.1, -349.27692, -0.0018592725, 0.0047462513, -1244094.5, 17020.818, 0.0, 5.0145807, 4.9732933 
6.7690706e+1, 1.7628884e+2, -1195972.6, -1260888.8, -362.4995, -0.003737188, 0.0053512063, -1195970.6, 16404.018, 0.0, 5.0146284, 4.9724855 
6.7690516e+1, 1.8125866e+2, -1155827.3, -1230878.5, -684.1902, -0.003999949, 0.012862811, -1155821.0, 7849.729, 0.0, 5.01464, 4.9660254 
6.769031e+1, 1.8622476e+2, -1106652.9, -1181348.9, -869.1988, -0.0004318046, 0.009682764, -1106642.8, 8359.97, 0.0, 5.0145645, 4.966173 
6.7690116e+1, 1.9119084e+2, -1057688.0, -1132259.4, -934.54767, 0.0033658922, 0.006125146, -1057676.3, 8658.507, 0.0, 5.014485, 4.9661756 
6.7689925e+1, 1.9615693e+2, -1009613.56, -1085085.6, -1001.4612, 0.0072327894, 0.002868313, -1009600.25, 8066.521, 0.0, 5.0144053, 4.965527 
6.7689586e+1, 2.0111944e+2, -969771.1, -1055859.5, -826.9405, 0.008743896, 0.0074832104, -969763.2, -728.6318, 0.0, 5.0143623, 4.9587374 
6.768882e+1, 2.0607843e+2, -920119.1, -1005949.94, -600.95703, 0.0036712934, 0.0055837166, -920114.9, 322.7524, 0.0, 5.0144033, 4.958934 
6.768804e+1, 2.1103746e+2, -870715.6, -956600.25, -442.24734, -0.0017477955, 0.003443761, -870713.3, 1127.3173, 0.0, 5.0144477, 4.9589405 
6.7687273e+1, 2.1599649e+2, -821977.75, -908709.06, -286.74677, -0.00711421, 0.0013935649, -821976.8, 1266.7305, 0.0, 5.014491, 4.958448 
6.7686456e+1, 2.2095212e+2, -781387.75, -878573.7, -684.24994, -0.010908798, 0.00816268, -781382.94, -6704.584, 0.0, 5.014512, 4.9518576 
6.7685676e+1, 2.2590455e+2, -731607.5, -827492.2, -1203.3298, -0.0074236076, 0.0049437755, -731592.4, -5452.2173, 0.0, 5.0143633, 4.952517 
6.768493e+1, 2.3085703e+2, -682744.2, -778345.25, -1537.9487, -0.0031804703, 0.0009125108, -682719.44, -5118.1074, 0.0, 5.0141926, 4.9525275 
6.7684174e+1, 2.358095e+2, -634524.2, -730647.25, -1877.1691, 0.0010676716, -0.0032968782, -634487.56, -5425.008, 0.0, 5.014021, 4.9520364 
6.7683184e+1, 2.4075851e+2, -596403.94, -705051.06, -2512.4775, 0.004626869, 0.0068067447, -596345.9, -15785.452, 0.0, 5.0137687, 4.9438925 
6.768147e+1, 2.4570362e+2, -547848.25, -655503.25, -2538.7336, 0.0060871826, 0.013137869, -547788.44, -15682.936, 0.0, 5.0133586, 4.9441023 
6.767973e+1, 2.506487e+2, -499553.78, -606585.6, -2311.269, 0.007414267, 0.018480366, -499503.88, -15852.144, 0.0, 5.0129447, 4.9441085 
6.7678016e+1, 2.5559393e+2, -451498.16, -558231.94, -2073.6453, 0.008810168, 0.025032133, -451457.88, -16261.124, 0.0, 5.012526, 4.943917 
6.767624e+1, 2.6053518e+2, -409867.4, -524143.63, -1970.6873, 0.010204193, 0.03733862, -409833.44, -23059.629, 0.0, 5.0120697, 4.938608 
6.7676324e+1, 2.654754e+2, -355859.28, -459177.22, -3656.9153, 0.043138683, -0.011092783, -355730.0, -17396.492, 0.0, 5.0109353, 4.944249 
6.7676985e+1, 2.7041602e+2, -309049.84, -410642.75, -5453.3267, 0.08274739, -0.075397305, -308757.97, -18871.207, 0.0, 5.009665, 4.9444447 
6.767777e+1, 2.7535623e+2, -262136.95, -362365.78, -7359.5776, 0.121971704, -0.14877653, -261599.44, -20155.762, 0.0, 5.0083776, 4.9445934 
6.767663e+1, 2.802953e+2, -245324.63, -388711.94, -4597.1772, 0.12558787, -0.09930551, -245177.39, -52155.848, 0.0, 5.008681, 4.9182734 
6.767656e+1, 2.8522623e+2, -187115.14, -323218.44, -58.033764, 0.09217672, -0.00039319188, -187115.11, -42389.094, 0.0, 5.0102854, 4.9228945 
6.76784e+1, 2.9015225e+2, -135254.73, -271925.0, 1331.0459, 0.07308845, 0.018648587, -135241.78, -38757.336, 0.0, 5.011104, 4.922983 
6.768038e+1, 2.950776e+2, -83336.016, -220729.97, 2584.221, 0.052944753, 0.02761247, -83287.42, -35037.887, 0.0, 5.0118856, 4.923072 
6.768253e+1, 3.0001724e+2, -13292.364, -94267.98, 3273.797, 0.028884798, 0.025956204, -13160.222, -13160.222, 0.0, 5.0127497, 4.959289 
6.7686224e+1, 3.0498055e+2, 2537.825, -61329.887, 1698.9623, 0.01232439, -0.06258235, 2582.9875, 2582.9875, 0.0, 5.013674, 4.970109 
6.769068e+1, 3.0994853e+2, 5564.061, -58488.97, 703.6302, -0.00008678722, -0.14930712, 5571.7896, 5571.7896, 0.0, 5.014501, 4.970726 
6.7695457e+1, 3.1491867e+2, 8707.345, -55767.383, -97.00735, -0.013341514, -0.22004353, 8707.49, 8707.49, 0.0, 5.0152836, 4.971343 
7.270615e+1, 1.2151029e+2, -1711583.0, -1750261.0, -1462.2451, -0.019083155, 0.007137178, -1711527.9, 37668.18, 0.0, 5.014487, 4.9892983 
7.2709e+1, 1.2649523e+2, -1667119.0, -1710130.3, -990.26196, 0.013503377, -0.009140605, -1667096.1, 33247.73, 0.0, 5.014418, 4.9864264 
7.27078e+1, 1.3148175e+2, -1618132.8, -1661145.3, -845.30475, 0.0052837334, -0.008860147, -1618116.1, 33359.496, 0.0, 5.0144205, 4.9864235 
7.2706604e+1, 1.3646826e+2, -1571355.6, -1616698.6, -698.6427, -0.0029530656, -0.0072590173, -1571344.9, 31262.738, 0.0, 5.014422, 4.9849167 
7.2705823e+1, 1.4145166e+2, -1529592.5, -1582659.4, -505.48672, -0.0077186683, 0.0069039306, -1529587.6, 24183.09, 0.0, 5.014429, 4.979883 
7.2705835e+1, 1.4643149e+2, -1480426.6, -1533429.0, -513.72345, -0.005103516, 0.0032490143, -1480421.6, 24548.26, 0.0, 5.0144405, 4.979934 
7.270585e+1, 1.5141124e+2, -1431338.5, -1484356.8, -509.297, -0.0022622377, -0.0012435782, -1431333.6, 24836.25, 0.0, 5.0144515, 4.9799347 
7.270587e+1, 1.5639098e+2, -1383679.0, -1438262.5, -505.93658, 0.00058574614, -0.0052969614, -1383674.4, 23695.5, 0.0, 5.014462, 4.97894 
7.2705865e+1, 1.6136716e+2, -1342792.0, -1406416.8, -319.3583, 0.0021171751, -0.0017611211, -1342790.4, 15814.242, 0.0, 5.014485, 4.9731717 
7.270572e+1, 1.6634087e+2, -1293378.1, -1356905.1, -300.69318, 0.0004260613, 0.00016431621, -1293376.8, 16486.236, 0.0, 5.0145326, 4.9732785 
7.270556e+1, 1.7131461e+2, -1244115.9, -1307715.1, -311.79453, -0.0013958669, 0.0023206533, -1244114.3, 17006.482, 0.0, 5.0145807, 4.9732785 
7.27054e+1, 1.7628837e+2, -1195990.9, -1260930.6, -323.25385, -0.0032044626, 0.004890378, -1195989.3, 16389.39, 0.0, 5.014629, 4.972471 
7.2705215e+1, 1.8125832e+2, -1155916.8, -1231070.9, -723.0709, -0.0034690998, 0.014061305, -1155909.8, 7763.9873, 0.0, 5.0146403, 4.9659605 
7.270492e+1, 1.8622442e+2, -1106760.4, -1181586.6, -927.76324, -0.0001560431, 0.011726862, -1106748.9, 8257.542, 0.0, 5.0145655, 4.9660926 
7.2704613e+1, 1.911905e+2, -1057792.1, -1132497.0, -989.9029, 0.003327119, 0.00893766, -1057779.0, 8560.399, 0.0, 5.0144873, 4.9660945 
7.270431e+1, 1.9615659e+2, -1009714.2, -1085323.1, -1053.5975, 0.006839729, 0.0064185183, -1009699.5, 7972.7, 0.0, 5.014408, 4.965446 
7.270388e+1, 2.0111904e+2, -969611.6, -1055506.1, -830.1702, 0.007952349, 0.010762618, -969603.6, -563.3283, 0.0, 5.0143604, 4.958859 
7.270307e+1, 2.060779e+2, -919836.94, -1005339.1, -563.607, 0.002011628, 0.005500975, -919833.25, 609.38763, 0.0, 5.0144033, 4.9591427 
7.270225e+1, 2.1103674e+2, -870420.94, -955984.4, -396.24396, -0.004402243, -0.00034608878, -870419.1, 1425.8163, 0.0, 5.0144515, 4.95915 
7.2701436e+1, 2.1599561e+2, -821670.6, -908088.06, -232.09175, -0.010829094, -0.0062350836, -821670.0, 1577.2255, 0.0, 5.014499, 4.9586577 
7.270061e+1, 2.2095115e+2, -781616.44, -879069.56, -774.5056, -0.0147468485, -0.0012749305, -781610.3, -6928.2134, 0.0, 5.014511, 4.9516883 
7.269989e+1, 2.2590391e+2, -732150.7, -828676.5, -1332.034, -0.009184268, 0.0025668098, -732132.3, -5987.8174, 0.0, 5.014362, 4.9521112 
7.2699195e+1, 2.3085675e+2, -683266.3, -779517.2, -1648.8947, -0.0028704887, 0.006353239, -683238.06, -5631.817, 0.0, 5.014196, 4.9521227 
7.2698504e+1, 2.3580958e+2, -635025.44, -731807.1, -1970.3392, 0.0033724082, 0.00985742, -634985.3, -5917.2417, 0.0, 5.0140285, 4.951632 
7.2697425e+1, 2.4075863e+2, -596256.44, -704837.75, -2750.652, 0.0080639385, 0.022781288, -596186.75, -15618.939, 0.0, 5.013786, 4.9439597 
7.269503e+1, 2.4570282e+2, -547429.44, -654661.5, -2857.3313, 0.007044662, 0.01756169, -547353.3, -15235.285, 0.0, 5.0133734, 4.944391 
7.269254e+1, 2.506469e+2, -499154.13, -605729.2, -2606.9817, 0.0053878054, 0.0103986105, -499090.38, -15420.919, 0.0, 5.012952, 4.944405 
7.269007e+1, 2.5559112e+2, -451117.7, -557360.7, -2346.454, 0.0036954214, 0.0044595054, -451065.88, -15846.342, 0.0, 5.0125256, 4.944221 
7.2687554e+1, 2.6053193e+2, -410260.25, -524860.44, -2632.3345, 0.0035580166, 0.009046855, -410199.8, -23399.975, 0.0, 5.0120482, 4.9383793 
7.268702e+1, 2.654735e+2, -357705.13, -463617.56, -4172.4375, 0.036815383, -0.010342349, -357541.0, -19183.133, 0.0, 5.0109754, 4.9427323 
7.268701e+1, 2.7041554e+2, -310616.8, -415077.78, -5674.6597, 0.07541162, -0.040825754, -310309.47, -20399.39, 0.0, 5.0097904, 4.942894 
7.2687095e+1, 2.753571e+2, -263425.4, -366797.03, -7286.668, 0.11266408, -0.08187759, -262914.3, -21446.895, 0.0, 5.0085883, 4.9430084 
7.268547e+1, 2.802961e+2, -243908.69, -384013.6, -5241.871, 0.1193739, -0.028514251, -243712.84, -50657.633, 0.0, 5.008501, 4.9199476 
7.268631e+1, 2.852258e+2, -187042.61, -319144.53, 33.079865, 0.09091947, 0.042167906, -187042.6, -42281.785, 0.0, 5.009821, 4.9244285 
7.268927e+1, 2.9015112e+2, -134913.02, -267925.8, 1656.7292, 0.072145335, 0.042606413, -134892.38, -38379.48, 0.0, 5.0107336, 4.924464 
7.2692335e+1, 2.9507565e+2, -82726.5, -216805.94, 3144.3945, 0.051219877, 0.031707868, -82652.8, -34379.703, 0.0, 5.011609, 4.924501 
7.26957e+1, 3.0001542e+2, -13075.136, -91717.44, 4215.8857, 0.026999839, 0.018300692, -12849.774, -12849.774, 0.0, 5.012524, 4.9602227 
7.270143e+1, 3.0498034e+2, 36.090267, -64410.73, 3052.2449, 0.021343356, -0.043492433, 180.32384, 180.32384, 0.0, 5.01335, 4.969077 
7.2707933e+1, 3.0994976e+2, 2913.4465, -61039.133, 2444.232, 0.019373877, -0.09831096, 3006.7278, 3006.7278, 0.0, 5.014069, 4.96988 
7.271466e+1, 3.149216e+2, 5908.3403, -57787.395, 2031.2203, 0.013698383, -0.13672684, 5973.049, 5973.049, 0.0, 5.0147433, 4.970683 
7.772087e+1, 1.2150989e+2, -1712476.1, -1751399.1, -2051.7246, -0.017186834, 0.013792763, -1712368.3, 36834.2, 0.0, 5.01434, 4.9889975 
7.772372e+1, 1.2649421e+2, -1667059.6, -1709676.1, -994.80524, 0.016222807, -0.009985946, -1667036.4, 33319.703, 0.0, 5.0143456, 4.986612 
7.772232e+1, 1.3148116e+2, -1617949.3, -1660629.0, -848.1777, 0.0060999994, -0.0074487897, -1617932.4, 33550.758, 0.0, 5.0143895, 4.9866095 
7.772092e+1, 1.364681e+2, -1571123.0, -1616157.0, -701.77826, -0.0040952615, -0.0035637778, -1571112.0, 31498.328, 0.0, 5.0144076, 4.9851027 
7.7720034e+1, 1.4145167e+2, -1529582.1, -1582563.3, -506.45087, -0.010028499, 0.011303334, -1529577.3, 24193.633, 0.0, 5.0144134, 4.979923 
7.772012e+1, 1.4643122e+2, -1480442.9, -1533423.8, -509.24115, -0.0067318734, 0.0047187777, -1480438.0, 24534.377, 0.0, 5.0144324, 4.97994 
7.772021e+1, 1.5141067e+2, -1431337.5, -1484343.8, -501.30566, -0.0031651005, -0.0028569375, -1431332.8, 24841.852, 0.0, 5.014449, 4.97994 
7.772032e+1, 1.5639012e+2, -1383670.3, -1438246.4, -494.2355, 0.00039127283, -0.010012128, -1383665.8, 23711.295, 0.0, 5.014462, 4.9789453 
7.772039e+1, 1.6136613e+2, -1342825.9, -1406479.8, -288.69116, 0.0024035133, -0.007958365, -1342824.5, 15788.477, 0.0, 5.014483, 4.973151 
7.7720296e+1, 1.6634001e+2, -1293416.6, -1356957.0, -263.0216, 0.0008306679, -0.004174748, -1293415.5, 16454.414, 0.0, 5.014527, 4.9732637 
7.772019e+1, 1.7131396e+2, -1244180.3, -1307779.0, -273.09985, -0.00090073724, -0.000076158314, -1244179.0, 16947.219, 0.0, 5.014566, 4.973264 
7.7720094e+1, 1.7628789e+2, -1196095.9, -1261013.6, -284.5352, -0.0026420208, 0.0044269534, -1196094.6, 16287.884, 0.0, 5.0146003, 4.972457 
7.7719915e+1, 1.8125795e+2, -1156117.3, -1231326.5, -760.6638, -0.0029152413, 0.015291807, -1156109.5, 7567.29, 0.0, 5.0146055, 4.9658904 
7.771952e+1, 1.8622406e+2, -1106920.4, -1181847.1, -976.07574, 0.00015534938, 0.013776118, -1106907.6, 8102.5435, 0.0, 5.014549, 4.9660115 
7.771911e+1, 1.9119014e+2, -1057928.5, -1132747.8, -1031.2498, 0.0033401744, 0.011706742, -1057914.3, 8429.618, 0.0, 5.014478, 4.9660134 
7.7718705e+1, 1.9615622e+2, -1009862.56, -1085580.9, -1091.6793, 0.006521414, 0.009881845, -1009846.8, 7830.8003, 0.0, 5.0143948, 4.9653645 
7.771817e+1, 2.0111865e+2, -969548.75, -1055250.3, -827.39825, 0.0072374535, 0.014238064, -969540.75, -494.8564, 0.0, 5.014337, 4.9589567 
7.771733e+1, 2.0607737e+2, -919605.3, -1004750.7, -507.98553, 0.0004124368, 0.005548375, -919602.25, 845.2284, 0.0, 5.0143867, 4.9593496 
7.771647e+1, 2.1103604e+2, -870215.9, -955409.56, -338.64203, -0.007008598, -0.0042003603, -870214.5, 1634.642, 0.0, 5.0144258, 4.9593573 
7.7715623e+1, 2.1599472e+2, -821548.06, -907552.56, -181.4365, -0.0144947795, -0.014106739, -821547.7, 1703.2384, 0.0, 5.0144444, 4.958865 
7.7714777e+1, 2.209502e+2, -782202.25, -879900.0, -899.6666, -0.01846093, -0.010344896, -782194.0, -7508.3374, 0.0, 5.014421, 4.951444 
7.7714103e+1, 2.2590329e+2, -732868.44, -829937.4, -1454.7677, -0.010862302, 0.0004518038, -732846.7, -6697.9077, 0.0, 5.0143, 4.951702 
7.771347e+1, 2.3085646e+2, -683923.0, -780746.3, -1739.1198, -0.0025582532, 0.011581168, -683891.8, -6280.57, 0.0, 5.0141525, 4.9517145 
7.771283e+1, 2.3580962e+2, -635677.6, -733030.44, -2033.0889, 0.0056130528, 0.022340104, -635635.2, -6561.304, 0.0, 5.013984, 4.951225 
7.77117e+1, 2.407588e+2, -596420.6, -704987.5, -2937.9626, 0.011647212, 0.03939696, -596341.2, -15766.463, 0.0, 5.0137424, 4.9439263 
7.7708626e+1, 2.4570209e+2, -547062.44, -653829.06, -3111.817, 0.0081524, 0.02293276, -546971.8, -14842.086, 0.0, 5.013375, 4.944676 
7.770536e+1, 2.5064516e+2, -498636.53, -604807.94, -2834.0393, 0.0033812467, 0.0026320568, -498560.94, -14874.3955, 0.0, 5.0130067, 4.9446974 
7.770211e+1, 2.5558838e+2, -450427.06, -556340.6, -2569.8096, -0.0015097214, -0.016406015, -450364.75, -15122.844, 0.0, 5.012643, 4.94452 
7.769881e+1, 2.6052848e+2, -410987.6, -526944.3, -3228.3572, -0.0034252245, -0.018587522, -410897.78, -24070.072, 0.0, 5.012163, 4.93758 
7.76977e+1, 2.654712e+2, -360320.78, -468282.25, -4162.41, 0.030152397, -0.013770223, -360160.56, -21773.93, 0.0, 5.01075, 4.941154 
7.769716e+1, 2.704145e+2, -315145.97, -420667.25, -4754.5464, 0.0680752, -0.017259438, -314932.16, -24992.557, 0.0, 5.008864, 4.941294 
7.769668e+1, 2.7535716e+2, -270853.3, -373740.6, -5238.201, 0.10397012, -0.032672867, -270587.3, -29088.38, 0.0, 5.0066032, 4.941386 
7.769426e+1, 2.8029707e+2, -254092.42, -389822.13, -3880.1396, 0.11571199, 0.04408919, -253981.58, -60894.863, 0.0, 5.00521, 4.9192944 
7.769576e+1, 2.852263e+2, -192216.3, -317480.06, 2390.7756, 0.092553824, 0.10139442, -192170.69, -47384.137, 0.0, 5.007505, 4.9258657 
7.7699935e+1, 2.9015073e+2, -136880.77, -264997.78, 3449.8992, 0.073445834, 0.07801387, -136787.92, -40253.45, 0.0, 5.009566, 4.925857 
7.7704215e+1, 2.9507416e+2, -82836.71, -213219.17, 4473.6924, 0.051427547, 0.042055998, -82683.38, -34391.52, 0.0, 5.011111, 4.9258485 
7.7708834e+1, 3.0001345e+2, -13915.328, -90446.805, 5162.338, 0.026582377, 0.010265708, -13568.68, -13568.68, 0.0, 5.0121145, 4.9607444 
7.77162e+1, 3.0497926e+2, -5534.165, -68687.16, 4084.6848, 0.028909052, -0.034166843, -5271.0674, -5271.0674, 0.0, 5.011933, 4.9679847 
7.7724344e+1, 3.0994973e+2, -7639.583, -66846.266, 3919.7373, 0.03463116, -0.06686469, -7381.2075, -7381.2075, 0.0, 5.0107603, 4.9689827 
7.773265e+1, 3.149229e+2, -11863.772, -66093.97, 4129.6978, 0.034437343, -0.082577676, -11551.094, -11551.094, 0.0, 5.008717, 4.969981 
8.273575e+1, 1.21509016e+2, -1714498.1, -1752079.0, -1769.5715, -0.0077867573, 0.012465242, -1714415.0, 34797.402, 0.0, 5.013609, 4.98913 
8.2737786e+1, 1.2649365e+2, -1668425.8, -1710217.0, -494.6499, 0.015976952, -0.00877947, -1668419.9, 31942.758, 0.0, 5.013872, 4.9866624 
8.27365e+1, 1.314806e+2, -1618588.3, -1660817.4, -576.15295, 0.005152731, -0.006646775, -1618580.4, 32909.098, 0.0, 5.0141573, 4.986658 
8.273522e+1, 1.3646753e+2, -1570965.3, -1615961.4, -656.449, -0.005348841, -0.0032127446, -1570955.6, 31660.838, 0.0, 5.014441, 4.985149 
8.2734454e+1, 1.4145112e+2, -1528748.6, -1582048.5, -643.1788, -0.011211551, 0.011296072, -1528740.9, 25035.861, 0.0, 5.01467, 4.9799685 
8.27346e+1, 1.4643072e+2, -1479398.9, -1532808.4, -611.5826, -0.00776983, 0.0046737795, -1479391.9, 25585.441, 0.0, 5.01476, 4.979986 
8.273478e+1, 1.5141022e+2, -1430095.8, -1483631.4, -548.4263, -0.0040209866, -0.0028572036, -1430090.1, 26088.8, 0.0, 5.0148444, 4.9799867 
8.2734954e+1, 1.5638971e+2, -1382222.1, -1437433.6, -485.78796, -0.00024460888, -0.0098959785, -1382217.9, 25162.582, 0.0, 5.0149283, 4.9789925 
8.2735085e+1, 1.6136575e+2, -1341473.8, -1405855.3, -296.01028, 0.0021569845, -0.007893165, -1341472.4, 17143.625, 0.0, 5.014948, 4.973137 
8.2735026e+1, 1.6633955e+2, -1292626.6, -1356662.3, -326.9865, 0.0013641407, -0.0044776043, -1292625.0, 17248.65, 0.0, 5.014814, 4.9732246 
8.273495e+1, 1.7131342e+2, -1243921.8, -1307742.9, -380.48795, 0.00047762148, -0.00073370914, -1243919.5, 17211.277, 0.0, 5.0146737, 4.9732246 
8.2734877e+1, 1.7628728e+2, -1196350.4, -1261225.6, -433.9681, -0.0003711995, 0.0034242389, -1196347.4, 16040.509, 0.0, 5.014533, 4.972417 
8.2734686e+1, 1.812573e+2, -1156553.8, -1231581.0, -856.25287, -0.00048451827, 0.014098578, -1156543.9, 7138.8936, 0.0, 5.0144663, 4.965869 
8.273418e+1, 1.8622343e+2, -1106853.4, -1181852.5, -988.5227, 0.0010607064, 0.013000656, -1106840.4, 8175.877, 0.0, 5.0145817, 4.9659925 
8.273365e+1, 1.9118954e+2, -1057300.4, -1132486.0, -975.5938, 0.0027731382, 0.0115125, -1057287.8, 9062.137, 0.0, 5.0147057, 4.965993 
8.273313e+1, 1.9615567e+2, -1008641.9, -1085039.0, -962.84296, 0.0046048784, 0.010388298, -1008629.75, 9053.66, 0.0, 5.014828, 4.9653435 
8.273252e+1, 2.0111813e+2, -967881.25, -1054334.6, -709.1805, 0.0045873937, 0.015127655, -967875.44, 1175.7896, 0.0, 5.0148873, 4.9590077 
8.2731736e+1, 2.0607683e+2, -918530.75, -1004039.8, -580.4284, -0.0011039627, 0.0052157454, -918526.8, 1925.1821, 0.0, 5.014718, 4.959435 
8.2730967e+1, 2.1103549e+2, -869809.1, -955023.3, -595.0243, -0.006991524, -0.005595797, -869804.94, 2047.7205, 0.0, 5.014531, 4.959439 
8.2730204e+1, 2.1599418e+2, -821750.06, -907458.8, -610.7608, -0.012674462, -0.016245296, -821745.7, 1507.5721, 0.0, 5.0143437, 4.958943 
8.2729393e+1, 2.2094966e+2, -783037.9, -880769.2, -1385.8362, -0.015163154, -0.012123101, -783018.25, -8330.466, 0.0, 5.0142307, 4.9512315 
8.272858e+1, 2.2590263e+2, -733416.8, -830860.7, -1823.1956, -0.008709083, 0.00022578773, -733382.75, -7228.46, 0.0, 5.014247, 4.9514055 
8.2727784e+1, 2.3085573e+2, -684008.25, -781447.75, -2013.0416, -0.0015861376, 0.013143881, -683966.7, -6346.4775, 0.0, 5.0142636, 4.9514184 
8.2727e+1, 2.3580882e+2, -635249.6, -733485.3, -2209.3252, 0.0056694727, 0.026011147, -635199.94, -6113.877, 0.0, 5.014279, 4.95093 
8.2725763e+1, 2.4075793e+2, -594821.06, -704150.8, -2967.9868, 0.011211375, 0.0445535, -594740.56, -14151.986, 0.0, 5.014315, 4.943947 
8.272252e+1, 2.4570093e+2, -543352.44, -651462.3, -3186.0823, 0.0065783258, 0.02269521, -543258.6, -11116.315, 0.0, 5.014583, 4.944942 
8.27191e+1, 2.506437e+2, -493067.13, -601660.8, -2969.274, 0.00079798093, -0.00370549, -492986.0, -9288.27, 0.0, 5.014885, 4.944945 
8.2715744e+1, 2.555866e+2, -443035.72, -552434.9, -2750.1487, -0.004731273, -0.028462535, -442966.63, -7715.079, 0.0, 5.0151815, 4.94475 
8.2712317e+1, 2.6052648e+2, -402954.25, -525329.5, -3936.3052, -0.0054464554, -0.03109705, -402827.78, -15989.551, 0.0, 5.015462, 4.936655 
8.27108e+1, 2.6546952e+2, -349650.8, -465748.28, -5955.5703, 0.029709075, -0.01262364, -349346.1, -10939.815, 0.0, 5.015172, 4.9399734 
8.2710016e+1, 2.7041358e+2, -300267.4, -415440.75, -7884.233, 0.07341918, 0.0005031617, -299730.2, -9764.894, 0.0, 5.01477, 4.940343 
8.270954e+1, 2.7535746e+2, -250823.98, -365387.97, -9941.343, 0.12062848, 0.0042275446, -249967.72, -8441.546, 0.0, 5.0143466, 4.9406652 
8.2707286e+1, 2.8029874e+2, -226093.11, -378436.6, -9167.829, 0.15110293, 0.10167632, -225543.38, -32432.922, 0.0, 5.015498, 4.9187984 
8.2708436e+1, 2.8522724e+2, -168295.81, -306128.1, -20.399586, 0.11770166, 0.14826873, -168295.81, -23485.66, 0.0, 5.0156703, 4.926597 
8.271237e+1, 2.9015067e+2, -122299.61, -257526.92, 1679.1421, 0.08398701, 0.10628884, -122278.76, -25720.06, 0.0, 5.0144024, 4.926678 
8.271666e+1, 2.950732e+2, -76208.9, -208976.83, 3261.7493, 0.0539837, 0.052173935, -76128.81, -27813.166, 0.0, 5.0130887, 4.9267597 
8.272162e+1, 3.000125e+2, -14514.41, -90352.28, 3689.538, 0.030932942, 0.0112737445, -14335.336, -14335.336, 0.0, 5.011776, 4.9611783 
8.272991e+1, 3.0498064e+2, -9830.977, -72441.89, 1273.9114, 0.05407185, 0.0011119748, -9805.068, -9805.068, 0.0, 5.0108533, 4.967345 
8.2739556e+1, 3.0995408e+2, -10808.799, -69160.62, -380.79578, 0.093910344, 0.011387593, -10806.314, -10806.314, 0.0, 5.0099983, 4.968723 
8.275e+1, 3.14931e+2, -11566.193, -66102.39, -2136.5232, 0.14108326, 0.04195139, -11482.62, -11482.62, 0.0, 5.0090966, 4.9701014 
8.7750673e+1, 1.2150792e+2, -1713767.4, -1750654.3, -1760.4423, 0.0048531224, 0.0055330093, -1713683.5, 35540.285, 0.0, 5.013616, 4.9895983 
8.775129e+1, 1.2649354e+2, -1668536.3, -1710505.3, -287.9582, 0.01205774, -0.0052767205, -1668534.3, 31829.459, 0.0, 5.0138793, 4.9865685 
8.77504e+1, 1.3148008e+2, -1618697.9, -1661098.6, -364.1697, 0.0024967198, -0.006208327, -1618694.8, 32799.797, 0.0, 5.0141635, 4.9865656 
8.774953e+1, 1.3646661e+2, -1571074.1, -1616235.6, -439.2395, -0.006851287, -0.005844424, -1571069.9, 31555.705, 0.0, 5.0144467, 4.985059 
8.7749046e+1, 1.4145006e+2, -1528670.6, -1581894.0, -545.3419, -0.01203568, 0.0073614144, -1528665.0, 25122.404, 0.0, 5.0146704, 4.98002 
8.7749267e+1, 1.4642997e+2, -1479274.4, -1532551.0, -547.51074, -0.008775485, 0.0033287548, -1479268.8, 25715.912, 0.0, 5.01476, 4.980072 
8.7749505e+1, 1.5140983e+2, -1429971.0, -1483374.8, -482.23044, -0.00524148, -0.0014956518, -1429966.6, 26215.926, 0.0, 5.0148444, 4.9800725 
8.774975e+1, 1.563897e+2, -1382097.3, -1437177.6, -417.47992, -0.0016916702, -0.005848116, -1382094.1, 25286.467, 0.0, 5.014929, 4.9790783 
8.774992e+1, 1.6136588e+2, -1341496.8, -1405906.9, -362.08636, 0.0010126004, -0.0028135218, -1341494.6, 17119.865, 0.0, 5.0149484, 4.97312 
8.774987e+1, 1.663394e+2, -1292714.9, -1356851.0, -434.5778, 0.0016755367, -0.0015807323, -1292711.9, 17162.965, 0.0, 5.0148144, 4.973162 
8.774981e+1, 1.7131297e+2, -1244008.4, -1307928.9, -485.67093, 0.0022623911, -0.000092374066, -1244004.6, 17130.178, 0.0, 5.014674, 4.9731627 
8.7749743e+1, 1.7628655e+2, -1196435.3, -1261408.9, -536.7238, 0.00286252, 0.0018148604, -1196430.9, 15963.907, 0.0, 5.0145335, 4.9723554 
8.7749517e+1, 1.8125637e+2, -1156537.1, -1231556.0, -810.44604, 0.0030542142, 0.0108224945, -1156528.4, 7163.1787, 0.0, 5.0144672, 4.9658775 
8.7748885e+1, 1.8622254e+2, -1106812.1, -1181780.9, -890.92255, 0.0021902989, 0.009897898, -1106801.6, 8222.849, 0.0, 5.0145836, 4.966017 
8.7748224e+1, 1.911887e+2, -1057257.3, -1132411.8, -874.4852, 0.0013160256, 0.008706248, -1057247.0, 9110.361, 0.0, 5.0147076, 4.966018 
8.774757e+1, 1.9615488e+2, -1008596.75, -1084962.0, -858.2389, 0.00049529684, 0.007868357, -1008587.06, 9103.16, 0.0, 5.0148306, 4.965369 
8.77469e+1, 2.0111741e+2, -967855.1, -1054285.8, -768.7007, -0.00080309995, 0.012992783, -967848.3, 1208.9897, 0.0, 5.0148883, 4.959025 
8.774627e+1, 2.0607622e+2, -918541.56, -1004073.4, -722.18085, -0.0032349506, 0.0043301573, -918535.5, 1921.372, 0.0, 5.0147185, 4.959425 
8.774566e+1, 2.11035e+2, -869818.0, -955057.8, -733.162, -0.0055799126, -0.0051370896, -869811.7, 2044.577, 0.0, 5.0145326, 4.9594283 
8.7745064e+1, 2.159938e+2, -821757.06, -907494.25, -745.2685, -0.0077736485, -0.014468739, -821750.56, 1505.1033, 0.0, 5.0143456, 4.9589314 
8.7744325e+1, 2.209493e+2, -783262.06, -881250.4, -1405.6373, -0.008341378, -0.009433999, -783241.94, -8551.672, 0.0, 5.0142293, 4.951066 
8.774322e+1, 2.2590193e+2, -733711.0, -831512.06, -1794.5762, -0.004956285, 0.0014350353, -733678.06, -7516.6987, 0.0, 5.0142465, 4.95118 
8.7742114e+1, 2.3085463e+2, -684291.6, -782104.1, -1974.1522, -0.0013380499, 0.01255271, -684251.8, -6619.428, 0.0, 5.0142665, 4.95119 
8.7741005e+1, 2.3580733e+2, -635522.25, -734146.7, -2160.1667, 0.0023419925, 0.023570118, -635474.94, -6371.597, 0.0, 5.014285, 4.950699 
8.773958e+1, 2.4075617e+2, -594722.44, -704040.44, -2811.2979, 0.0050353324, 0.04097613, -594650.2, -14041.756, 0.0, 5.0143266, 4.943984 
8.773653e+1, 2.4569929e+2, -542961.5, -650747.1, -2959.4697, -0.0001028931, 0.018083699, -542880.3, -10723.327, 0.0, 5.0146027, 4.945184 
8.773333e+1, 2.5064215e+2, -492653.9, -600923.56, -2726.2192, -0.0063117757, -0.00996873, -492585.3, -8878.33, 0.0, 5.014911, 4.9451904 
8.7730193e+1, 2.5558513e+2, -442600.4, -551675.75, -2490.663, -0.012374914, -0.036753997, -442543.56, -7287.882, 0.0, 5.015215, 4.9449983 
8.7726843e+1, 2.6052502e+2, -404652.13, -529592.5, -3991.4265, -0.014155355, -0.03563985, -404524.75, -17683.398, 0.0, 5.0155177, 4.935135 
8.772458e+1, 2.654674e+2, -351858.34, -471799.88, -5875.418, 0.0107817305, -0.005097886, -351571.22, -13143.291, 0.0, 5.015295, 4.9377966 
8.772288e+1, 2.7041057e+2, -302367.13, -421827.3, -7541.096, 0.041313007, 0.018827233, -301892.97, -11883.379, 0.0, 5.0149593, 4.9380474 
8.772146e+1, 2.7535337e+2, -252814.4, -372108.97, -9335.63, 0.07405988, 0.033372536, -252088.25, -10493.661, 0.0, 5.0146027, 4.938251 
8.7718606e+1, 2.8029406e+2, -226741.19, -379631.72, -9962.908, 0.09801298, 0.14433612, -226094.7, -32899.582, 0.0, 5.0154634, 4.918343 
8.771987e+1, 2.8522316e+2, -166716.11, -300386.94, -1482.552, 0.07868902, 0.18088034, -166699.67, -21814.438, 0.0, 5.015362, 4.928609 
8.7723786e+1, 2.90147e+2, -120791.57, -252150.3, 459.97806, 0.056537874, 0.12130541, -120789.96, -24166.344, 0.0, 5.014097, 4.9286 
8.7728006e+1, 2.9507e+2, -74771.3, -203962.78, 2285.934, 0.03643735, 0.050895408, -74730.86, -26360.7, 0.0, 5.0127873, 4.9285913 
8.7732947e+1, 3.0001038e+2, -15037.982, -90453.82, 2508.3535, 0.024027372, 0.005691545, -14954.6455, -14954.6455, 0.0, 5.011523, 4.9612265 
8.774131e+1, 3.0498278e+2, -11305.583, -75892.05, 572.85077, 0.056834858, 0.050326653, -11300.503, -11300.503, 0.0, 5.010769, 4.966155 
8.775092e+1, 3.099608e+2, -11706.536, -72260.09, -487.84274, 0.10186287, 0.12028931, -11702.606, -11702.606, 0.0, 5.010075, 4.9675694 
8.776122e+1, 3.14942e+2, -11885.968, -68852.08, -1649.2897, 0.15144394, 0.2059807, -11838.258, -11838.258, 0.0, 5.0093346, 4.968985 
9.276565e+1, 1.21506795e+2, -1712989.1, -1749128.0, -1754.198, 0.017970817, -0.001481599, -1712904.1, 36331.324, 0.0, 5.013623, 4.9900985 
9.2764825e+1, 1.2649345e+2, -1668648.8, -1710791.8, -83.657074, 0.008292885, -0.0016457984, -1668648.5, 31716.133, 0.0, 5.0138865, 4.9864736 
9.276433e+1, 1.314796e+2, -1618809.6, -1661378.1, -154.57631, -0.000034554414, -0.005680726, -1618809.0, 32690.578, 0.0, 5.01417, 4.9864726 
9.276384e+1, 1.3646571e+2, -1571185.1, -1616508.3, -224.41962, -0.008258611, -0.008425967, -1571184.0, 31450.648, 0.0, 5.0144525, 4.9849677 
9.276364e+1, 1.4144899e+2, -1528603.1, -1581760.1, -452.59543, -0.0128511945, 0.00350835, -1528599.4, 25198.86, 0.0, 5.0146713, 4.980064 
9.2763937e+1, 1.4642924e+2, -1479150.3, -1532293.5, -483.20505, -0.009774724, 0.0020347955, -1479145.9, 25846.082, 0.0, 5.01476, 4.980157 
9.2764235e+1, 1.5140945e+2, -1429846.8, -1483118.0, -415.80087, -0.0064463965, -0.00013442182, -1429843.5, 26342.787, 0.0, 5.014845, 4.980158 
9.2764544e+1, 1.5638967e+2, -1381972.9, -1436921.6, -348.93823, -0.003113993, -0.0018519622, -1381970.6, 25410.115, 0.0, 5.0149293, 4.979163 
9.276477e+1, 1.6136602e+2, -1341537.9, -1405995.9, -429.3756, -0.00008501251, 0.0023340462, -1341535.1, 17078.0, 0.0, 5.0149484, 4.9730906 
9.2764723e+1, 1.6633926e+2, -1292803.5, -1357039.4, -542.7385, 0.0020156978, 0.0013867319, -1292799.0, 17077.1, 0.0, 5.014815, 4.973099 
9.2764664e+1, 1.7131253e+2, -1244095.4, -1308114.5, -591.4233, 0.0040503456, 0.00057210424, -1244089.9, 17048.906, 0.0, 5.014674, 4.9731 
9.2764604e+1, 1.762858e+2, -1196520.8, -1261591.9, -640.0489, 0.0060738446, 0.00018117708, -1196514.4, 15887.132, 0.0, 5.014534, 4.972294 
9.276436e+1, 1.8125543e+2, -1156532.9, -1231555.4, -765.64215, 0.0066333762, 0.0075963647, -1156525.1, 7175.106, 0.0, 5.0144687, 4.9658775 
9.2763597e+1, 1.8622163e+2, -1106772.1, -1181708.3, -793.84827, 0.0033633662, 0.006851163, -1106763.8, 8268.811, 0.0, 5.014585, 4.966041 
9.2762804e+1, 1.9118784e+2, -1057215.3, -1132336.4, -773.9026, -0.00012480827, 0.005920747, -1057207.3, 9157.608, 0.0, 5.0147095, 4.966043 
9.276201e+1, 1.9615409e+2, -1008552.75, -1084883.9, -754.1609, -0.0036252006, 0.0053338935, -1008545.3, 9151.712, 0.0, 5.014833, 4.9653945 
9.2761284e+1, 2.0111668e+2, -967842.44, -1054264.6, -832.4578, -0.0061535025, 0.010913917, -967834.4, 1228.8933, 0.0, 5.014889, 4.959032 
9.27608e+1, 2.0607561e+2, -918553.25, -1004106.3, -863.1116, -0.005271492, 0.0034902624, -918544.56, 1917.1084, 0.0, 5.0147195, 4.9594145 
9.2760366e+1, 2.1103452e+2, -869827.8, -955091.6, -870.47784, -0.004050153, -0.0046883714, -869818.94, 2040.9813, 0.0, 5.0145335, 4.9594173 
9.275993e+1, 2.1599343e+2, -821764.94, -907529.06, -878.9541, -0.0027309854, -0.012757852, -821755.94, 1502.1798, 0.0, 5.0143476, 4.95892 
9.2759246e+1, 2.2094896e+2, -783519.75, -881802.4, -1427.3818, -0.001538371, -0.0065809977, -783499.06, -8806.365, 0.0, 5.0142274, 4.9508753 
9.275787e+1, 2.2590123e+2, -734007.4, -832162.0, -1760.237, -0.001240896, 0.0027499339, -733975.8, -7807.4116, 0.0, 5.0142465, 4.9509525 
9.275644e+1, 2.3085353e+2, -684577.2, -782758.94, -1929.5422, -0.0010787423, 0.011854554, -684539.25, -6894.7676, 0.0, 5.0142694, 4.9509597 
9.275502e+1, 2.3580581e+2, -635797.06, -734806.56, -2105.2866, -0.0009256443, 0.020809477, -635752.3, -6631.6143, 0.0, 5.0142913, 4.950465 
9.2753404e+1, 2.4075446e+2, -594704.3, -704094.5, -2657.7622, -0.0010788251, 0.03797998, -594639.75, -14011.956, 0.0, 5.0143375, 4.943962 
9.2750573e+1, 2.456977e+2, -542578.4, -650024.75, -2740.6404, -0.0067223795, 0.014228479, -542508.5, -10337.558, 0.0, 5.0146217, 4.945424 
9.274761e+1, 2.5064066e+2, -492248.47, -600179.1, -2490.95, -0.01336402, -0.015947128, -492191.0, -8475.2705, 0.0, 5.014938, 4.9454336 
9.2744714e+1, 2.555837e+2, -442172.8, -550909.44, -2238.9653, -0.01996526, -0.045232024, -442126.75, -6867.2207, 0.0, 5.015249, 4.945245 
9.2741334e+1, 2.6052332e+2, -406988.78, -535236.3, -3943.4202, -0.024309566, -0.040128447, -406867.63, -20020.813, 0.0, 5.0155735, 4.9331036 
9.273843e+1, 2.6546478e+2, -354106.4, -477830.8, -5620.708, -0.008800829, -0.00172468, -353851.6, -15397.088, 0.0, 5.015418, 4.9355435 
9.2736036e+1, 2.7040687e+2, -304506.56, -428193.28, -7023.089, 0.010513686, 0.027445015, -304109.06, -14048.609, 0.0, 5.015149, 4.935676 
9.2733884e+1, 2.7534842e+2, -254843.75, -378809.47, -8554.677, 0.030759476, 0.04725855, -254256.19, -12584.968, 0.0, 5.0148587, 4.935761 
9.272987e+1, 2.8028962e+2, -229718.58, -386183.28, -10946.287, 0.0437471, 0.19027176, -228956.48, -35678.953, 0.0, 5.0154285, 4.9160028 
9.273074e+1, 2.852201e+2, -165208.73, -294584.63, -2781.3433, 0.03511595, 0.230618, -165148.97, -20198.852, 0.0, 5.0150537, 4.9305744 
9.273469e+1, 2.901442e+2, -119355.484, -246711.2, -596.0887, 0.026081163, 0.14845993, -119352.695, -22672.566, 0.0, 5.0137925, 4.9304748 
9.273889e+1, 2.950675e+2, -73405.31, -198885.0, 1472.998, 0.01743649, 0.05676694, -73388.02, -24969.94, 0.0, 5.012486, 4.9303756 
9.274376e+1, 3.000078e+2, -16879.611, -93419.97, 1422.7655, 0.0152758155, -0.0007744195, -16853.172, -16853.172, 0.0, 5.0112705, 4.9601793 
9.275219e+1, 3.0498323e+2, -12850.745, -79275.67, -153.25682, 0.054522373, 0.08345234, -12850.392, -12850.392, 0.0, 5.0106854, 4.964822 
9.276184e+1, 3.0996522e+2, -12674.729, -75292.1, -619.59064, 0.102375925, 0.19737935, -12668.599, -12668.599, 0.0, 5.0101523, 4.966273 
9.27721e+1, 3.149501e+2, -12276.439, -71533.21, -1186.5795, 0.15199906, 0.3224647, -12252.688, -12252.688, 0.0, 5.009573, 4.9677253 
9.778068e+1, 1.2150566e+2, -1712299.1, -1747563.6, -1754.5625, 0.03159286, -0.008589601, -1712212.1, 37035.19, 0.0, 5.013587, 4.9906316 
9.7778374e+1, 1.2649336e+2, -1668792.8, -1711085.8, 123.38767, 0.0046986598, 0.002080114, -1668792.4, 31573.209, 0.0, 5.0138845, 4.986379 
9.7778267e+1, 1.3147911e+2, -1618931.3, -1661656.3, 66.353615, -0.0024342588, -0.0050745173, -1618931.1, 32573.385, 0.0, 5.0141745, 4.98638 
9.777818e+1, 1.3646483e+2, -1571341.9, -1616798.8, 3.9405696, -0.009558644, -0.010948654, -1571341.9, 31301.877, 0.0, 5.014444, 4.9848766 
9.7778237e+1, 1.4144793e+2, -1528643.3, -1581695.0, -352.89862, -0.013635277, -0.00024714792, -1528640.9, 25167.928, 0.0, 5.01464, 4.9801 
9.77786e+1, 1.4642853e+2, -1479127.0, -1532086.1, -417.8621, -0.010748479, 0.0007975157, -1479123.6, 25875.574, 0.0, 5.0147266, 4.9802413 
9.777897e+1, 1.5140909e+2, -1429834.4, -1482916.8, -361.396, -0.0076187085, 0.001223466, -1429831.9, 26358.18, 0.0, 5.0148077, 4.980242 
9.7779334e+1, 1.5638964e+2, -1381980.5, -1436730.6, -306.83276, -0.004494285, 0.0020831039, -1381978.8, 25402.139, 0.0, 5.014886, 4.979247 
9.777962e+1, 1.6136615e+2, -1341725.0, -1406182.0, -528.86395, -0.0011219971, 0.007537942, -1341720.8, 16890.863, 0.0, 5.0149055, 4.973049 
9.7779584e+1, 1.6633911e+2, -1292963.1, -1357259.6, -668.23486, 0.0023875246, 0.0044179014, -1292956.3, 16921.027, 0.0, 5.014791, 4.9730363 
9.7779524e+1, 1.713121e+2, -1244218.6, -1308315.8, -703.7463, 0.0058400375, 0.001256854, -1244211.0, 16931.873, 0.0, 5.0146627, 4.9730377 
9.7779465e+1, 1.7628507e+2, -1196632.5, -1261785.9, -743.04285, 0.009263952, -0.0014767452, -1196624.0, 15784.337, 0.0, 5.0145254, 4.972232 
9.7779197e+1, 1.812545e+2, -1156568.0, -1231590.3, -714.4815, 0.010257863, 0.004420926, -1156561.1, 7147.626, 0.0, 5.0144606, 4.9658694 
9.7778314e+1, 1.8622075e+2, -1106758.3, -1181645.0, -683.51135, 0.0045869714, 0.0038601705, -1106752.0, 8288.588, 0.0, 5.0145783, 4.9660654 
9.7777385e+1, 1.9118701e+2, -1057233.3, -1132287.0, -657.2264, -0.001527354, 0.0031543158, -1057227.5, 9144.771, 0.0, 5.0146914, 4.966068 
9.777646e+1, 1.961533e+2, -1008639.56, -1084865.6, -634.4227, -0.007706731, 0.0027814554, -1008634.25, 9069.523, 0.0, 5.014791, 4.96542 
9.7775674e+1, 2.0111597e+2, -968041.56, -1054365.0, -885.8761, -0.01138928, 0.008887186, -968032.44, 1036.781, 0.0, 5.0148215, 4.9590297 
9.777536e+1, 2.0607501e+2, -918755.75, -1004228.1, -992.7771, -0.0071507455, 0.0027038692, -918744.2, 1722.1848, 0.0, 5.0146546, 4.959403 
9.7775084e+1, 2.1103404e+2, -870041.44, -955220.25, -1003.5501, -0.0023489718, -0.0042218706, -870029.6, 1833.838, 0.0, 5.014465, 4.959405 
9.777483e+1, 2.1599306e+2, -822016.7, -907676.9, -1017.8306, 0.0025017075, -0.011057304, -822004.6, 1255.8873, 0.0, 5.014265, 4.9589076 
9.777417e+1, 2.2094862e+2, -784066.4, -882540.56, -1452.9188, 0.005287052, -0.0035040693, -784044.94, -9350.004, 0.0, 5.014137, 4.9506607 
9.7772497e+1, 2.2590055e+2, -734465.44, -832879.0, -1689.8705, 0.0024629694, 0.0041658916, -734436.44, -8261.149, 0.0, 5.0141897, 4.950725 
9.7770774e+1, 2.3085243e+2, -684968.06, -783453.3, -1819.7932, -0.00078034407, 0.010988595, -684934.44, -7277.807, 0.0, 5.014236, 4.9507294 
9.776905e+1, 2.358043e+2, -636167.44, -735499.5, -1959.7119, -0.0040854802, 0.017624425, -636128.75, -6990.6587, 0.0, 5.014265, 4.950232 
9.776725e+1, 2.4075279e+2, -594873.1, -704349.9, -2386.3008, -0.007047433, 0.035436597, -594821.1, -14174.442, 0.0, 5.0143127, 4.9438834 
9.776466e+1, 2.4569622e+2, -542277.94, -649327.1, -2389.7817, -0.01313753, 0.011092257, -542224.56, -10040.459, 0.0, 5.014618, 4.9456606 
9.776197e+1, 2.5063926e+2, -491921.13, -599465.44, -2157.0508, -0.020126, -0.02151832, -491877.88, -8154.098, 0.0, 5.0149436, 4.945671 
9.7759324e+1, 2.5558236e+2, -441854.4, -550195.1, -1970.9417, -0.027149588, -0.053559594, -441818.56, -6555.837, 0.0, 5.0152526, 4.945483 
9.775584e+1, 2.605214e+2, -410194.53, -542322.5, -3745.0771, -0.035382174, -0.044148, -410088.47, -23234.252, 0.0, 5.015544, 4.930581 
9.775243e+1, 2.654617e+2, -357626.16, -484266.16, -4641.1514, -0.028132737, -0.0025539591, -357456.28, -18970.627, 0.0, 5.0150924, 4.9332614 
9.774959e+1, 2.7040252e+2, -309689.22, -435678.53, -5070.8027, -0.017461373, 0.02604497, -309485.47, -19368.16, 0.0, 5.0142574, 4.933291 
9.7746956e+1, 2.7534276e+2, -262373.75, -387628.1, -5446.1274, -0.0069213295, 0.045574386, -262137.4, -20382.486, 0.0, 5.0131545, 4.933273 
9.774126e+1, 2.802856e+2, -242343.1, -401335.6, -8988.875, -0.008648208, 0.2392168, -241836.5, -48480.434, 0.0, 5.012794, 4.911774 
9.774116e+1, 2.852182e+2, -168475.89, -291030.28, -1652.9729, -0.010775307, 0.2971452, -168453.6, -23449.865, 0.0, 5.013077, 4.932412 
9.774516e+1, 2.901423e+2, -120563.94, -242510.22, -247.22969, -0.005933456, 0.1875039, -120563.44, -23835.71, 0.0, 5.0125794, 4.932245 
9.774939e+1, 2.950656e+2, -73434.56, -194425.77, 1307.1376, -0.0021160222, 0.06962759, -73420.445, -24961.18, 0.0, 5.011722, 4.932077 
9.7754097e+1, 3.0000472e+2, -21198.822, -99776.95, 447.0108, 0.005318112, -0.008230784, -21196.28, -21151.773, 0.0, 5.010606, 4.9580297 
9.776257e+1, 3.0498192e+2, -18323.791, -84345.53, -1579.1375, 0.048236698, 0.100317664, -18286.043, -18286.043, 0.0, 5.0092096, 4.9633107 
9.777241e+1, 3.0996722e+2, -22555.146, -82216.9, -2845.179, 0.09773502, 0.24281892, -22419.771, -22419.771, 0.0, 5.007023, 4.9647703 
9.778278e+1, 3.149551e+2, -28612.13, -81172.24, -4897.8687, 0.14688508, 0.39231232, -28159.615, -28159.615, 0.0, 5.0040426, 4.9662323 
1.0279513e+2, 1.2150552e+2, -1709774.1, -1746212.5, -746.7795, 0.03605364, -0.009061452, -1709758.9, 39488.55, 0.0, 5.014411, 4.9906664 
1.02792084e+2, 1.2649293e+2, -1667026.8, -1710477.3, 657.16895, -0.00031894553, -0.00031912315, -1667016.9, 33351.984, 0.0, 5.0145364, 4.9862556 
1.0279245e+2, 1.3147861e+2, -1617956.1, -1661459.1, 501.6672, -0.004364208, -0.00687133, -1617950.4, 33558.324, 0.0, 5.014567, 4.98625 
1.0279283e+2, 1.3646425e+2, -1571094.9, -1616980.1, 348.62436, -0.008187129, -0.012192789, -1571092.3, 31556.746, 0.0, 5.0145965, 4.9847403 
1.0279319e+2, 1.414473e+2, -1528776.1, -1581911.9, -156.26396, -0.010324798, -0.000794095, -1528775.8, 25039.16, 0.0, 5.014629, 4.9800334 
1.027935e+2, 1.4642794e+2, -1479450.0, -1532341.4, -399.07907, -0.0084498245, 0.0010856927, -1479447.0, 25558.223, 0.0, 5.014639, 4.980199 
1.02793805e+2, 1.5140855e+2, -1430376.3, -1483279.5, -511.42548, -0.00637094, 0.0023593986, -1430371.3, 25824.666, 0.0, 5.0146465, 4.980199 
1.0279411e+2, 1.5638915e+2, -1382730.9, -1437195.1, -624.7281, -0.004263449, 0.004097893, -1382723.8, 24662.982, 0.0, 5.014654, 4.979203 
1.02794334e+2, 1.6136566e+2, -1342364.4, -1406418.3, -949.8232, -0.001707132, 0.009815593, -1342350.3, 16267.057, 0.0, 5.014676, 4.9730787 
1.0279426e+2, 1.6633855e+2, -1293065.5, -1357190.6, -977.754, 0.0015314438, 0.005463284, -1293050.6, 16832.473, 0.0, 5.014734, 4.973086 
1.0279415e+2, 1.7131145e+2, -1243773.1, -1307989.8, -882.59766, 0.0048380997, 0.000988174, -1243761.0, 17387.977, 0.0, 5.014793, 4.973085 
1.0279405e+2, 1.7628433e+2, -1195617.8, -1261194.8, -787.1881, 0.008214561, -0.0030818984, -1195608.3, 16806.46, 0.0, 5.014851, 4.9722767 
1.0279377e+2, 1.812537e+2, -1155331.8, -1230914.9, -612.44977, 0.009274812, 0.0019074942, -1155326.8, 8388.561, 0.0, 5.0148687, 4.965901 
1.0279295e+2, 1.8622e+2, -1106095.9, -1181267.3, -586.2721, 0.0039900276, 0.0015200401, -1106091.3, 8955.347, 0.0, 5.0147963, 4.966087 
1.0279209e+2, 1.9118632e+2, -1057127.8, -1132183.4, -582.04724, -0.0015155188, 0.0010255991, -1057123.3, 9254.536, 0.0, 5.01472, 4.966087 
1.0279125e+2, 1.9615263e+2, -1009050.3, -1085014.9, -577.6554, -0.0068864147, 0.000854486, -1009045.94, 8662.978, 0.0, 5.014643, 4.9654365 
1.0279052e+2, 2.0111534e+2, -968890.4, -1054855.0, -939.99414, -0.009593812, 0.007310064, -968880.06, 194.0525, 0.0, 5.0145483, 4.9589896 
1.02790125e+2, 2.0607446e+2, -919598.25, -1004778.9, -1164.3197, -0.0045659947, 0.00257313, -919582.3, 888.7396, 0.0, 5.014396, 4.959335 
1.0278976e+2, 2.1103358e+2, -870785.9, -955722.9, -1258.1941, 0.0010475694, -0.002666615, -870767.25, 1100.4899, 0.0, 5.0142403, 4.9593363 
1.0278941e+2, 2.1599272e+2, -822636.8, -908119.5, -1352.717, 0.0067651644, -0.007694194, -822615.44, 648.86847, 0.0, 5.014084, 4.9588385 
1.0278864e+2, 2.209483e+2, -784313.9, -882652.0, -1535.9757, 0.009323088, 0.0004216199, -784289.9, -9591.032, 0.0, 5.0140514, 4.950661 
1.027869e+2, 2.2589988e+2, -734188.7, -832706.56, -1469.0748, 0.0041197105, 0.004639932, -734166.8, -7984.8247, 0.0, 5.014283, 4.950741 
1.0278512e+2, 2.308514e+2, -684140.06, -783008.5, -1371.2002, -0.0012942309, 0.007885205, -684121.0, -6454.8594, 0.0, 5.014523, 4.95075 
1.0278335e+2, 2.3580293e+2, -634745.25, -734766.0, -1278.1445, -0.006529532, 0.011100944, -634728.94, -5578.5796, 0.0, 5.014761, 4.9502573 
1.0278157e+2, 2.407512e+2, -592856.94, -703059.7, -1404.3647, -0.0110665355, 0.026044773, -592839.0, -12178.6875, 0.0, 5.0149784, 4.944013 
1.02779455e+2, 2.4569504e+2, -540394.1, -648288.75, -1640.7544, -0.015340734, 0.0047965446, -540369.2, -8176.553, 0.0, 5.0152764, 4.945711 
1.0277735e+2, 2.506386e+2, -490103.0, -598582.3, -1717.521, -0.01946326, -0.022842882, -490075.8, -6349.8774, 0.0, 5.015596, 4.945681 
1.0277531e+2, 2.5558227e+2, -440064.56, -549451.3, -1786.6826, -0.023134753, -0.049011912, -440035.38, -4777.209, 0.0, 5.0159116, 4.9454527 
1.0277226e+2, 2.6052147e+2, -408206.97, -542845.0, -2645.4397, -0.031081432, -0.035057582, -408155.0, -21307.13, 0.0, 5.016527, 4.9299574 
1.0276887e+2, 2.6546055e+2, -352867.06, -482812.22, -3715.4287, -0.026329562, -0.0014583879, -352760.9, -14265.654, 0.0, 5.0170317, 4.9328356 
1.027662e+2, 2.7040052e+2, -301534.63, -431816.25, -5008.1665, -0.014480961, 0.020604536, -301342.38, -11203.172, 0.0, 5.0173755, 4.933123 
1.0276389e+2, 2.753405e+2, -250180.52, -381064.5, -6488.7095, 0.00016999044, 0.037144925, -249859.61, -8076.221, 0.0, 5.0176907, 4.933363 
1.0275802e+2, 2.8028378e+2, -222146.27, -393418.53, -7697.6475, -0.0048842286, 0.23540427, -221801.0, -28418.016, 0.0, 5.0200825, 4.9115086 
1.027564e+2, 2.8521636e+2, -149730.2, -284652.75, 699.706, -0.01598749, 0.29697517, -149726.58, -4696.5913, 0.0, 5.019693, 4.9322224 
1.0275905e+2, 2.9014036e+2, -107739.31, -237662.73, 1204.2523, -0.011801389, 0.1870373, -107728.15, -10974.427, 0.0, 5.0170093, 4.932366 
1.02762036e+2, 2.9506385e+2, -65631.016, -190702.14, 1493.7089, -0.0055990736, 0.068664156, -65613.18, -17130.889, 0.0, 5.014265, 4.93251 
1.0276548e+2, 3.000027e+2, -18919.707, -101377.57, -251.99605, 0.0052737496, -0.010592335, -18918.938, -18848.803, 0.0, 5.011788, 4.95704 
1.0277299e+2, 3.0497944e+2, -17035.387, -88176.875, -2544.7468, 0.05524833, 0.10847451, -16944.477, -16944.477, 0.0, 5.0102906, 4.9615803 
1.0278247e+2, 3.0996472e+2, -19883.203, -86778.43, -3528.8887, 0.1226644, 0.27184886, -19697.56, -19697.56, 0.0, 5.008773, 4.9625697 
1.0279296e+2, 3.1495255e+2, -22582.979, -85532.12, -4496.856, 0.19943191, 0.44968304, -22263.363, -22263.363, 0.0, 5.007184, 4.9635596 
1.0780907e+2, 1.2150643e+2, -1710353.9, -1747452.8, -17.73467, 0.03100876, -0.0029613825, -1710353.9, 38882.105, 0.0, 5.014419, 4.990258 
1.07805945e+2, 1.2649234e+2, -1667276.0, -1711047.4, 672.0959, -0.0072780726, -0.007020886, -1667265.8, 33107.023, 0.0, 5.0145445, 4.9860682 
1.0780685e+2, 1.3147813e+2, -1618207.6, -1662022.6, 521.266, -0.0061560557, -0.0104223825, -1618201.4, 33310.574, 0.0, 5.014573, 4.9860644 
1.0780776e+2, 1.3646391e+2, -1571348.5, -1617537.4, 372.89014, -0.0048920535, -0.012560732, -1571345.5, 31305.926, 0.0, 5.0146008, 4.9845567 
1.0780844e+2, 1.4144701e+2, -1528988.5, -1582351.1, -141.56569, -0.004179751, 0.0009887395, -1528988.1, 24829.354, 0.0, 5.014629, 4.979889 
1.07808605e+2, 1.4642748e+2, -1479653.5, -1532761.4, -392.93582, -0.0039081145, 0.0025535352, -1479650.6, 25359.59, 0.0, 5.014639, 4.98006 
1.0780874e+2, 1.5140788e+2, -1430576.6, -1483697.3, -503.58243, -0.0035710013, 0.0034015016, -1430571.9, 25631.586, 0.0, 5.014647, 4.98006 
1.0780887e+2, 1.563883e+2, -1382928.3, -1437610.8, -615.1855, -0.003219328, 0.004698229, -1382921.4, 24475.377, 0.0, 5.0146546, 4.979065 
1.07808955e+2, 1.613647e+2, -1342254.3, -1406194.1, -916.93665, -0.0023749894, 0.00983532, -1342241.1, 16387.479, 0.0, 5.0146766, 4.973154 
1.0780878e+2, 1.6633767e+2, -1292880.1, -1356809.6, -932.78564, -0.0005548822, 0.004937433, -1292866.5, 17026.275, 0.0, 5.0147347, 4.9732137 
1.07808605e+2, 1.7131062e+2, -1243586.1, -1307605.0, -834.33813, 0.0013157054, -0.00006229245, -1243575.3, 17581.596, 0.0, 5.014794, 4.973214 
1.0780842e+2, 1.762836e+2, -1195429.3, -1260806.3, -735.6442, 0.0032107297, -0.0046677236, -1195421.0, 16999.951, 0.0, 5.0148525, 4.972407 
1.0780812e+2, 1.8125303e+2, -1155250.9, -1230762.3, -645.10486, 0.0038974877, -0.000056921526, -1155245.4, 8474.649, 0.0, 5.014871, 4.9659524 
1.0780751e+2, 1.8621936e+2, -1106069.5, -1181234.5, -647.5869, 0.0014903408, -0.00025292687, -1106063.9, 8987.177, 0.0, 5.014799, 4.966099 
1.07806884e+2, 1.9118571e+2, -1057101.4, -1132149.6, -640.5669, -0.0009922119, -0.00051384995, -1057095.9, 9286.094, 0.0, 5.014723, 4.966099 
1.07806265e+2, 1.9615206e+2, -1009023.9, -1084980.1, -633.37164, -0.003391532, -0.00044869658, -1009018.56, 8694.242, 0.0, 5.014646, 4.965449 
1.0780563e+2, 2.0111477e+2, -968979.2, -1055051.0, -1042.3698, -0.004113946, 0.006264375, -968966.56, 111.69091, 0.0, 5.014549, 4.958924 
1.0780497e+2, 2.0607391e+2, -919746.2, -1005103.75, -1281.835, -0.00019115744, 0.0028178922, -919726.94, 749.072, 0.0, 5.0143967, 4.959225 
1.0780431e+2, 2.1103305e+2, -870928.7, -956043.0, -1372.2181, 0.0040605394, -0.0010155524, -870906.56, 966.95166, 0.0, 5.0142417, 4.9592276 
1.07803665e+2, 2.159922e+2, -822774.56, -908435.0, -1463.237, 0.008368279, -0.0046776426, -822749.56, 521.37787, 0.0, 5.0140862, 4.95873 
1.0780271e+2, 2.2094774e+2, -784117.4, -882226.3, -1415.2686, 0.009401673, 0.0030060934, -784096.94, -9390.731, 0.0, 5.014051, 4.95081 
1.0780109e+2, 2.2589916e+2, -733954.06, -832228.94, -1257.8475, 0.00301872, 0.0042732307, -733938.0, -7748.9946, 0.0, 5.014287, 4.9509106 
1.07799456e+2, 2.308505e+2, -683884.25, -782519.5, -1145.7412, -0.0036136147, 0.004549155, -683870.94, -6198.1523, 0.0, 5.014533, 4.950921 
1.0779783e+2, 2.3580186e+2, -634468.4, -734265.8, -1038.4735, -0.010219984, 0.004631224, -634457.56, -5300.9165, 0.0, 5.014777, 4.95043 
1.0779618e+2, 2.4074987e+2, -592503.56, -702444.8, -1188.1084, -0.016234701, 0.014617802, -592490.75, -11822.856, 0.0, 5.015002, 4.9442186 
1.0779453e+2, 2.4569401e+2, -540428.06, -648524.75, -1426.5396, -0.018527862, -0.002800838, -540409.2, -8210.755, 0.0, 5.0152965, 4.9456296 
1.0779295e+2, 2.5063804e+2, -490149.72, -598804.06, -1491.7416, -0.020035949, -0.024063922, -490129.25, -6400.622, 0.0, 5.0156093, 4.9456077 
1.0779144e+2, 2.5558218e+2, -440124.13, -549658.94, -1549.3464, -0.02116734, -0.043888558, -440102.22, -4844.5713, 0.0, 5.0159187, 4.945387 
1.0778881e+2, 2.6052183e+2, -407585.72, -541531.0, -1878.6157, -0.030629244, -0.02881198, -407559.38, -20715.79, 0.0, 5.0165257, 4.93046 
1.0778533e+2, 2.6545987e+2, -353143.53, -484474.03, -2689.8591, -0.037245583, 0.0025453612, -353088.47, -14591.308, 0.0, 5.0171485, 4.932354 
1.07782476e+2, 2.7039844e+2, -301403.06, -433576.4, -3746.3171, -0.03853253, 0.022457805, -301296.97, -11145.64, 0.0, 5.0176334, 4.932562 
1.0777992e+2, 2.753367e+2, -249642.48, -382924.3, -4990.748, -0.038761273, 0.03471014, -249455.86, -7647.6616, 0.0, 5.01809, 4.932723 
1.077739e+2, 2.8027704e+2, -218985.06, -385020.13, -7405.248, -0.059961747, 0.19590107, -218655.44, -25221.436, 0.0, 5.0199385, 4.914464 
1.07771434e+2, 2.8521004e+2, -150927.22, -283308.28, -1696.4172, -0.061727185, 0.24846195, -150905.48, -5826.85, 0.0, 5.0191355, 4.932875 
1.077729e+2, 2.9013604e+2, -108606.44, -236548.98, -930.444, -0.042859852, 0.15878132, -108599.67, -11814.724, 0.0, 5.0165763, 4.9329133 
1.0777466e+2, 2.9506138e+2, -66167.73, -189819.75, -379.2642, -0.023997955, 0.05963991, -66166.56, -17668.744, 0.0, 5.013957, 4.932951 
1.07776664e+2, 3.0000195e+2, -18901.84, -100206.26, -1416.2156, -0.0059379796, -0.004599414, -18877.18, -18806.178, 0.0, 5.0115933, 4.9574947 
1.077823e+2, 3.0497816e+2, -18563.225, -90994.57, -2982.7366, 0.037939742, 0.11502918, -18440.602, -18440.602, 0.0, 5.0101357, 4.9605985 
1.0778978e+2, 3.0996215e+2, -21267.615, -89370.71, -3475.7876, 0.094885394, 0.27708423, -21090.682, -21090.682, 0.0, 5.008644, 4.9616394 
1.07798114e+2, 3.1494865e+2, -23823.166, -87899.29, -3952.1563, 0.156828, 0.4524874, -23580.322, -23580.322, 0.0, 5.007082, 4.9626803 
1.1282303e+2, 1.2150732e+2, -1710887.4, -1748596.4, 714.946, 0.026086407, 0.003181502, -1710873.8, 38350.754, 0.0, 5.014427, 4.989881 
1.1281982e+2, 1.2649176e+2, -1667526.9, -1711616.3, 684.1532, -0.014127953, -0.013547603, -1667516.3, 32860.297, 0.0, 5.0145526, 4.98588 
1.1282126e+2, 1.3147768e+2, -1618460.5, -1662585.0, 537.9957, -0.007870344, -0.013849414, -1618454.0, 33061.105, 0.0, 5.0145793, 4.985878 
1.1282271e+2, 1.3646357e+2, -1571603.8, -1618093.5, 394.2868, -0.0015511076, -0.012855677, -1571600.4, 31053.436, 0.0, 5.014605, 4.984372 
1.12823695e+2, 1.4144671e+2, -1529206.5, -1582801.3, -130.19696, 0.001976251, 0.0028237253, -1529206.3, 24613.824, 0.0, 5.014629, 4.97974 
1.128237e+2, 1.46427e+2, -1479857.5, -1533181.3, -386.47025, 0.00064331945, 0.00404537, -1479854.6, 25160.543, 0.0, 5.0146384, 4.979921 
1.1282367e+2, 1.5140723e+2, -1430777.4, -1484114.9, -495.41696, -0.0007644228, 0.0044322936, -1430772.8, 25438.107, 0.0, 5.014647, 4.979921 
1.1282365e+2, 1.5638745e+2, -1383126.0, -1438026.4, -605.3203, -0.0021716498, 0.0052519515, -1383119.4, 24287.389, 0.0, 5.014655, 4.978926 
1.12823576e+2, 1.6136375e+2, -1342159.6, -1406000.8, -886.6881, -0.0029821845, 0.009913192, -1342147.3, 16492.559, 0.0, 5.014677, 4.9732184 
1.12823315e+2, 1.6633677e+2, -1292695.6, -1356428.0, -889.0603, -0.002601882, 0.0044616815, -1292683.1, 17219.23, 0.0, 5.014735, 4.9733415 
1.12823054e+2, 1.7130981e+2, -1243400.1, -1307219.6, -787.3218, -0.0022100008, -0.0011128227, -1243390.4, 17774.39, 0.0, 5.014795, 4.973343 
1.1282278e+2, 1.7628285e+2, -1195241.6, -1260417.0, -685.34393, -0.0018390499, -0.0063037737, -1195234.4, 17192.646, 0.0, 5.014854, 4.972537 
1.1282248e+2, 1.8125236e+2, -1155184.4, -1230638.3, -678.94965, -0.001439359, -0.002000443, -1155178.3, 8546.598, 0.0, 5.0148735, 4.9659934 
1.12822086e+2, 1.8621872e+2, -1106044.1, -1181201.1, -709.2622, -0.00094212155, -0.0019963938, -1106037.4, 9018.168, 0.0, 5.014802, 4.9661098 
1.1282168e+2, 1.911851e+2, -1057075.9, -1132115.1, -699.4471, -0.0004148575, -0.0020537018, -1057069.4, 9316.815, 0.0, 5.014725, 4.9661107 
1.1282129e+2, 1.961515e+2, -1008998.3, -1084944.6, -689.44855, 0.00014422124, -0.0017821837, -1008992.06, 8724.676, 0.0, 5.0146484, 4.965461 
1.1282075e+2, 2.0111421e+2, -969079.4, -1055270.4, -1148.2599, 0.0014024159, 0.005311128, -969064.1, 18.182589, 0.0, 5.0145493, 4.95885 
1.1281982e+2, 2.0607336e+2, -919895.0, -1005428.06, -1399.5197, 0.0042166566, 0.0031585756, -919872.06, 608.81476, 0.0, 5.014397, 4.959115 
1.1281888e+2, 2.1103252e+2, -871072.3, -956362.56, -1486.4115, 0.00709397, 0.00067270105, -871046.44, 832.83136, 0.0, 5.014243, 4.9591184 
1.1281793e+2, 2.159917e+2, -822913.06, -908749.94, -1573.9259, 0.00997934, -0.0016826283, -822884.25, 393.31082, 0.0, 5.0140886, 4.958622 
1.1281679e+2, 2.2094719e+2, -783954.44, -881870.1, -1304.1418, 0.009534153, 0.0056614424, -783937.06, -9223.492, 0.0, 5.0140505, 4.950934 
1.1281528e+2, 2.2589844e+2, -733723.0, -831748.56, -1045.6998, 0.0019369764, 0.003823337, -733711.8, -7515.7036, 0.0, 5.014291, 4.9510775 
1.128138e+2, 2.3084961e+2, -683631.94, -782027.9, -919.3647, -0.0059944694, 0.0008798278, -683623.3, -5943.7524, 0.0, 5.014543, 4.9510894 
1.1281232e+2, 2.3580077e+2, -634195.0, -733762.9, -797.8879, -0.014052624, -0.002421838, -634188.56, -5025.331, 0.0, 5.0147934, 4.9505997 
1.1281085e+2, 2.407486e+2, -592262.06, -702066.25, -967.8069, -0.021211604, 0.0038868836, -592253.56, -11578.657, 0.0, 5.0150256, 4.9443407 
1.1280967e+2, 2.4569307e+2, -540467.56, -648755.7, -1214.7888, -0.02139976, -0.009203098, -540453.94, -8250.567, 0.0, 5.015317, 4.945546 
1.1280859e+2, 2.5063753e+2, -490202.03, -599020.8, -1268.4231, -0.020407999, -0.024425635, -490187.25, -6456.7246, 0.0, 5.015623, 4.945532 
1.1280757e+2, 2.5558215e+2, -440189.22, -549861.44, -1314.468, -0.019113893, -0.038241707, -440173.47, -4917.039, 0.0, 5.0159264, 4.9453187 
1.1280526e+2, 2.60522e+2, -407319.13, -540946.6, -1097.5334, -0.03079032, -0.022936763, -407310.13, -20469.135, 0.0, 5.0165243, 4.9306803 
1.12801835e+2, 2.6545882e+2, -353468.1, -486098.66, -1519.1848, -0.048937533, 0.002172466, -353450.7, -14947.658, 0.0, 5.0172653, 4.931812 
1.12798974e+2, 2.7039582e+2, -301318.72, -435299.03, -2339.563, -0.063265026, 0.015486612, -301277.88, -11109.076, 0.0, 5.0178914, 4.931941 
1.1279638e+2, 2.7533224e+2, -249150.8, -384746.28, -3348.096, -0.078278616, 0.01900436, -249068.19, -7228.4473, 0.0, 5.0184894, 4.9320226 
1.1278961e+2, 2.8027046e+2, -218068.08, -381786.25, -8099.055, -0.11575668, 0.1593796, -217668.39, -24184.646, 0.0, 5.019796, 4.9156046 
1.1278587e+2, 2.8520447e+2, -152219.44, -281874.5, -3902.6206, -0.10765571, 0.2144671, -152102.08, -6982.022, 0.0, 5.0185785, 4.9334803 
1.1278635e+2, 2.9013228e+2, -109568.64, -235344.81, -2874.6282, -0.07336333, 0.14034367, -109502.98, -12692.394, 0.0, 5.0161443, 4.9334126 
1.12787075e+2, 2.9505926e+2, -66799.41, -188845.8, -2061.1353, -0.041098226, 0.055733163, -66764.6, -18255.205, 0.0, 5.01365, 4.933345 
1.1278775e+2, 3.0000097e+2, -19551.229, -100274.62, -2540.282, -0.015963996, 0.00042180208, -19471.367, -19397.273, 0.0, 5.0113993, 4.9574456 
1.12791374e+2, 3.0497596e+2, -20199.707, -93707.19, -3488.8816, 0.019692967, 0.11071956, -20034.486, -20034.486, 0.0, 5.009981, 4.9595203 
1.1279673e+2, 3.0995822e+2, -22761.127, -91856.82, -3490.5537, 0.06402873, 0.26080418, -22585.24, -22585.24, 0.0, 5.008516, 4.9606123 
1.128028e+2, 3.14943e+2, -25172.936, -90159.21, -3475.0762, 0.10900391, 0.42312416, -24987.639, -24987.639, 0.0, 5.0069804, 4.9617043 
1.1783701e+2, 1.2150819e+2, -1711480.1, -1749688.0, 1345.9594, 0.0213327, 0.0093222065, -1711432.8, 37780.688, 0.0, 5.0144014, 4.9895363 
1.17833726e+2, 1.2649117e+2, -1667823.5, -1712199.5, 611.85803, -0.020816805, -0.019897116, -1667815.1, 32565.309, 0.0, 5.014546, 4.985692 
1.17835686e+2, 1.3147722e+2, -1618731.9, -1663149.5, 491.41306, -0.009490311, -0.017144348, -1618726.5, 32791.734, 0.0, 5.01458, 4.985692 
1.1783765e+2, 1.3646324e+2, -1571899.3, -1618663.6, 371.49258, 0.0018298464, -0.013069017, -1571896.3, 30760.006, 0.0, 5.0145965, 4.984188 
1.1783894e+2, 1.4144641e+2, -1529502.6, -1583296.5, -146.31712, 0.008130157, 0.00471298, -1529502.3, 24320.383, 0.0, 5.0146046, 4.979588 
1.178388e+2, 1.4642653e+2, -1480113.9, -1533625.5, -392.34042, 0.0051954407, 0.005556248, -1480111.0, 24909.178, 0.0, 5.014621, 4.9797816 
1.17838606e+2, 1.5140657e+2, -1431019.0, -1484551.0, -489.42654, 0.002047945, 0.00544498, -1431014.5, 25203.902, 0.0, 5.0146337, 4.979782 
1.1783842e+2, 1.5638661e+2, -1383363.5, -1438459.5, -588.30536, -0.0011090301, 0.0057555796, -1383357.3, 24059.52, 0.0, 5.0146427, 4.978787 
1.17838204e+2, 1.6136281e+2, -1342120.5, -1405856.8, -845.5855, -0.0035094125, 0.010047892, -1342109.3, 16541.752, 0.0, 5.014664, 4.973273 
1.1783786e+2, 1.663359e+2, -1292555.6, -1356067.0, -837.5359, -0.004590944, 0.004034393, -1292544.5, 17367.447, 0.0, 5.0147214, 4.973468 
1.178375e+2, 1.7130901e+2, -1243286.1, -1306868.3, -740.98596, -0.0057098023, -0.0021568143, -1243277.5, 17895.172, 0.0, 5.014772, 4.9734707 
1.17837146e+2, 1.7628212e+2, -1195177.9, -1260086.6, -647.5997, -0.0068832077, -0.007966712, -1195171.5, 17261.754, 0.0, 5.014814, 4.972666 
1.17836855e+2, 1.8125169e+2, -1155301.0, -1230622.4, -732.3165, -0.0066686105, -0.0038862906, -1155293.9, 8435.649, 0.0, 5.0148187, 4.9660254 
1.1783667e+2, 1.862181e+2, -1106198.6, -1181250.9, -785.88403, -0.0032568036, -0.003682386, -1106190.4, 8869.555, 0.0, 5.0147433, 4.9661207 
1.1783649e+2, 1.9118449e+2, -1057277.4, -1132186.6, -772.4688, 0.00025936507, -0.0035761222, -1057269.5, 9120.923, 0.0, 5.0146503, 4.9661217 
1.1783631e+2, 1.9615091e+2, -1009286.0, -1085056.0, -761.86, 0.0037663875, -0.0031387697, -1009278.4, 8442.307, 0.0, 5.0145435, 4.965472 
1.1783588e+2, 2.0111366e+2, -969552.7, -1055681.8, -1270.044, 0.0070000123, 0.0044467575, -969534.0, -447.71213, 0.0, 5.0144243, 4.958768 
1.1783468e+2, 2.0607284e+2, -920298.9, -1005869.2, -1517.4293, 0.008677051, 0.0035853367, -920272.0, 213.68027, 0.0, 5.0143094, 4.9590054 
1.17833436e+2, 2.1103202e+2, -871398.44, -956764.7, -1592.7244, 0.010152183, 0.0023840084, -871368.7, 516.1995, 0.0, 5.014181, 4.9590087 
1.1783219e+2, 2.1599121e+2, -823205.1, -909133.75, -1672.3529, 0.011598638, 0.0012740345, -823172.6, 111.5112, 0.0, 5.0140376, 4.958513 
1.1783086e+2, 2.2094664e+2, -783963.94, -881643.06, -1181.892, 0.009722017, 0.008367885, -783949.6, -9228.687, 0.0, 5.0140014, 4.9510345 
1.17829494e+2, 2.258977e+2, -733610.2, -831312.1, -792.42566, 0.0008911284, 0.0032724866, -733603.75, -7400.4556, 0.0, 5.014254, 4.9512444 
1.1782815e+2, 2.308487e+2, -683592.94, -781623.25, -635.38617, -0.008353961, -0.003124619, -683588.8, -5902.341, 0.0, 5.014479, 4.9512577 
1.1782682e+2, 2.3579966e+2, -634353.6, -733446.4, -486.32623, -0.017826982, -0.010030312, -634351.25, -5181.2393, 0.0, 5.014659, 4.9507694 
1.1782559e+2, 2.4074738e+2, -592819.1, -702231.75, -660.85077, -0.025663622, -0.0060812416, -592815.1, -12133.941, 0.0, 5.014808, 4.9443803 
1.178249e+2, 2.4569224e+2, -541219.0, -649298.7, -910.7369, -0.023588212, -0.014268895, -541211.3, -9004.23, 0.0, 5.015089, 4.945461 
1.178243e+2, 2.506372e+2, -490966.75, -599548.7, -946.29407, -0.020178696, -0.023663713, -490958.5, -7227.245, 0.0, 5.015389, 4.945454 
1.1782375e+2, 2.5558227e+2, -440971.63, -550376.0, -979.9809, -0.016532486, -0.031637143, -440962.84, -5708.783, 0.0, 5.015684, 4.945249 
1.1782166e+2, 2.6052207e+2, -408301.44, -541409.1, -81.68655, -0.030992351, -0.016947769, -408301.4, -21461.95, 0.0, 5.016197, 4.9306526 
1.1781842e+2, 2.6545745e+2, -356263.03, -488538.6, 792.646, -0.060203824, -0.0026227995, -356258.28, -17746.15, 0.0, 5.0164976, 4.9312925 
1.1781583e+2, 2.7039278e+2, -306379.16, -438914.5, 1543.3385, -0.08633929, -0.00084207265, -306361.2, -16170.814, 0.0, 5.016298, 4.9313774 
1.1781346e+2, 2.7532732e+2, -257516.06, -389993.28, 2629.8923, -0.11442484, -0.010888278, -257463.88, -15588.149, 0.0, 5.01569, 4.931414 
1.1780542e+2, 2.802643e+2, -231072.13, -388950.97, -3674.669, -0.16691479, 0.12469239, -230986.64, -37457.727, 0.0, 5.015464, 4.914938 
1.1779991e+2, 2.8519988e+2, -161097.92, -284075.47, -1345.8823, -0.1499815, 0.19449107, -161083.2, -15931.726, 0.0, 5.0153513, 4.93392 
1.1779955e+2, 2.901293e+2, -114301.31, -235964.52, -1764.4569, -0.10109872, 0.13173993, -114275.73, -17447.139, 0.0, 5.0144114, 4.933778 
1.17799394e+2, 2.950577e+2, -68535.305, -188399.9, -1964.2365, -0.05581832, 0.057121176, -68503.125, -19987.383, 0.0, 5.013004, 4.933636 
1.1779879e+2, 2.999998e+2, -20439.473, -101359.52, -2809.9746, -0.024370605, 0.0044497005, -20342.014, -20263.207, 0.0, 5.011375, 4.9569087 
1.1780027e+2, 3.0497286e+2, -22304.186, -96342.805, -3504.6147, 0.0011563292, 0.095691666, -22138.664, -22138.664, 0.0, 5.0097165, 4.9583898 
1.17803454e+2, 3.0995312e+2, -27571.8, -95478.77, -3516.754, 0.031955358, 0.22470498, -27390.16, -27390.16, 0.0, 5.0072556, 4.9595323 
1.1780725e+2, 3.1493595e+2, -34634.348, -95598.71, -3849.472, 0.060012337, 0.36624524, -34392.242, -34392.242, 0.0, 5.004018, 4.960676 
1.2285143e+2, 1.2150791e+2, -1709698.9, -1749255.6, 554.73254, 0.01802504, 0.0137978755, -1709691.1, 39525.426, 0.0, 5.015098, 4.9893303 
1.2284869e+2, 1.2649037e+2, -1666461.8, -1711521.4, -435.1866, -0.019009652, -0.020474803, -1666457.6, 33931.406, 0.0, 5.015006, 4.9856844 
1.2285053e+2, 1.3147652e+2, -1617849.8, -1662719.8, -355.06076, -0.008373282, -0.01646182, -1617847.0, 33678.74, 0.0, 5.0148816, 4.9856825 
1.22852385e+2, 1.3646264e+2, -1571444.8, -1618454.5, -274.79712, 0.0023979917, -0.011198668, -1571443.1, 31219.512, 0.0, 5.0147567, 4.984176 
1.2285361e+2, 1.4144586e+2, -1529251.9, -1583181.5, -529.01556, 0.00843196, 0.0068994504, -1529246.8, 24581.96, 0.0, 5.0146904, 4.979584 
1.22853495e+2, 1.4642583e+2, -1479758.1, -1533457.6, -577.7882, 0.005413401, 0.0063329074, -1479751.9, 25275.451, 0.0, 5.014742, 4.979779 
1.2285333e+2, 1.5140572e+2, -1430540.8, -1484321.1, -497.16302, 0.0022220467, 0.004810566, -1430536.1, 25690.602, 0.0, 5.0147963, 4.9797797 
1.2285318e+2, 1.5638562e+2, -1382752.5, -1438163.5, -417.945, -0.0009303544, 0.0037699032, -1382749.3, 24676.793, 0.0, 5.0148506, 4.9787855 
1.2285299e+2, 1.6136175e+2, -1341479.3, -1405501.5, -603.22516, -0.00336995, 0.007420188, -1341473.6, 17187.203, 0.0, 5.014872, 4.97329 
1.2285262e+2, 1.6633497e+2, -1292267.9, -1355882.5, -750.4368, -0.0045997505, 0.0025594202, -1292259.0, 17661.516, 0.0, 5.014811, 4.973485 
1.2285225e+2, 1.7130825e+2, -1243344.0, -1306851.9, -811.79425, -0.005732285, -0.0022862845, -1243333.6, 17846.121, 0.0, 5.0147457, 4.973487 
1.22851886e+2, 1.7628153e+2, -1195555.0, -1260224.5, -874.17163, -0.0067788316, -0.006645552, -1195543.1, 16895.803, 0.0, 5.01468, 4.972681 
1.2285158e+2, 1.8125118e+2, -1155960.9, -1230868.5, -1115.0516, -0.006267462, -0.0017891381, -1155944.4, 7790.0703, 0.0, 5.014583, 4.9660516 
1.2285132e+2, 1.862175e+2, -1107133.0, -1181627.6, -1187.9722, -0.0023690278, -0.002679496, -1107114.0, 7951.3096, 0.0, 5.014413, 4.9661474 
1.2285106e+2, 1.911838e+2, -1058446.1, -1132679.8, -1167.9313, 0.0017603057, -0.0037518844, -1058427.8, 7968.596, 0.0, 5.0142393, 4.966146 
1.228508e+2, 1.9615012e+2, -1010647.94, -1085646.0, -1147.5579, 0.006003451, -0.004490837, -1010630.4, 7096.944, 0.0, 5.014065, 4.965494 
1.2285028e+2, 2.0111282e+2, -970921.6, -1056362.4, -1534.2308, 0.0094458265, 0.0024434475, -970894.06, -1800.6641, 0.0, 5.01396, 4.958752 
1.2284892e+2, 2.0607205e+2, -921146.2, -1006354.7, -1678.7638, 0.009687685, 0.0024281794, -921113.1, -620.25116, 0.0, 5.0140347, 4.9589663 
1.2284753e+2, 2.1103129e+2, -871635.7, -956967.3, -1685.7917, 0.009754024, 0.0021785724, -871602.4, 289.74625, 0.0, 5.014118, 4.958968 
1.2284614e+2, 2.1599051e+2, -822793.2, -909037.75, -1692.5697, 0.009916177, 0.0020365792, -822760.0, 531.41583, 0.0, 5.014201, 4.9584703 
1.2284473e+2, 2.2094594e+2, -783098.1, -880902.06, -1083.85, 0.0074955416, 0.0088907415, -783086.06, -8357.7705, 0.0, 5.014239, 4.9511757 
1.2284361e+2, 2.2589694e+2, -733667.75, -830843.75, -668.2624, -0.000018355851, 0.0013212137, -733663.2, -7453.515, 0.0, 5.0141406, 4.951452 
1.2284254e+2, 2.308479e+2, -684601.7, -781590.2, -525.71344, -0.0072083464, -0.007382506, -684598.8, -6907.26, 0.0, 5.014032, 4.951465 
1.2284152e+2, 2.3579885e+2, -636184.06, -733784.06, -386.30127, -0.013958771, -0.016414817, -636182.5, -7008.8765, 0.0, 5.0139217, 4.950977 
1.2284066e+2, 2.4074669e+2, -595688.4, -703628.2, -569.754, -0.018523855, -0.012446906, -595685.4, -15002.297, 0.0, 5.013823, 4.944334 
1.2284018e+2, 2.4569215e+2, -545056.1, -651486.5, -1036.8892, -0.015237737, -0.012587567, -545046.06, -12840.007, 0.0, 5.0138245, 4.945262 
1.2283978e+2, 2.506378e+2, -495583.06, -602075.44, -1301.7975, -0.010917199, -0.0126318885, -495567.16, -11840.627, 0.0, 5.0138354, 4.9452577 
1.2283942e+2, 2.5558364e+2, -446358.1, -553234.1, -1563.6208, -0.0062429407, -0.010693894, -446335.22, -11090.117, 0.0, 5.013842, 4.9450545 
1.22837655e+2, 2.605239e+2, -412485.44, -539854.3, -163.41888, -0.019331519, 0.0039412575, -412485.22, -25658.547, 0.0, 5.014055, 4.932129 
1.2283505e+2, 2.654585e+2, -360141.06, -485342.94, 1445.2043, -0.048083242, -0.0042228443, -360124.38, -21626.748, 0.0, 5.0143147, 4.933281 
1.2283338e+2, 2.7039343e+2, -308659.7, -433621.7, 2142.9644, -0.06846196, -0.024936264, -308622.97, -18454.21, 0.0, 5.0145016, 4.9338293 
1.2283228e+2, 2.7532825e+2, -257067.55, -382237.38, 2608.6343, -0.08447026, -0.057657328, -257013.2, -15172.038, 0.0, 5.014663, 4.934331 
1.2282525e+2, 2.80265e+2, -224647.45, -383958.0, -3865.9475, -0.1190561, 0.046518914, -224553.7, -31065.727, 0.0, 5.016951, 4.9163904 
1.2281803e+2, 2.852004e+2, -157130.4, -289456.25, 376.95755, -0.11536354, 0.13234614, -157129.33, -12012.923, 0.0, 5.017478, 4.9318366 
1.22815795e+2, 2.9013017e+2, -111662.13, -240286.6, -369.909, -0.08382367, 0.10011166, -111661.07, -14865.938, 0.0, 5.0159907, 4.9320884 
1.2281399e+2, 2.950588e+2, -66044.6, -191221.69, -1361.3597, -0.050254416, 0.05005156, -66029.8, -17544.746, 0.0, 5.0144563, 4.9323406 
1.2281187e+2, 3.0000094e+2, -15173.558, -97803.234, -2938.9543, -0.026013065, 0.0089906715, -15069.157, -15018.073, 0.0, 5.01314, 4.957573 
1.2281149e+2, 3.0497235e+2, -14078.517, -91233.055, -4085.0127, -0.006483747, 0.08494655, -13862.836, -13862.836, 0.0, 5.0127735, 4.959088 
1.2281335e+2, 3.099523e+2, -13681.107, -87641.984, -4197.6636, 0.028956836, 0.21707347, -13443.631, -13443.631, 0.0, 5.0124598, 4.96041 
1.22816555e+2, 3.1493673e+2, -13026.259, -84309.22, -4292.1953, 0.07371162, 0.38323373, -12768.741, -12768.741, 0.0, 5.012086, 4.9617333 
1.278662e+2, 1.2150691e+2, -1709848.8, -1749593.6, 681.0502, 0.014344628, 0.018094078, -1709837.0, 39392.19, 0.0, 5.0151024, 4.9892187 
1.2786448e+2, 1.2648946e+2, -1666279.0, -1711182.9, -537.0534, -0.01122738, -0.016040152, -1666272.5, 34127.953, 0.0, 5.015011, 4.985795 
1.2786572e+2, 1.3147567e+2, -1617669.5, -1662380.4, -453.14868, -0.00533216, -0.012525761, -1617664.9, 33871.363, 0.0, 5.014886, 4.9857936 
1.2786697e+2, 1.3646185e+2, -1571267.0, -1618114.0, -369.07486, 0.0006194424, -0.0077588465, -1571264.0, 31408.262, 0.0, 5.01476, 4.984288 
1.2786785e+2, 1.4144509e+2, -1529086.1, -1582838.8, -519.22266, 0.0038381878, 0.0093100425, -1529081.1, 24756.576, 0.0, 5.0146904, 4.9796977 
1.2786789e+2, 1.4642495e+2, -1479599.6, -1533129.3, -536.7697, 0.0019865215, 0.00662346, -1479594.3, 25442.074, 0.0, 5.0147414, 4.9798884 
1.2786792e+2, 1.5140472e+2, -1430380.5, -1483993.3, -453.5643, 0.000045422756, 0.0029160287, -1430376.6, 25859.027, 0.0, 5.0147967, 4.979889 
1.2786794e+2, 1.5638451e+2, -1382590.5, -1437836.3, -371.7732, -0.0018780706, -0.00034245502, -1382588.0, 24847.125, 0.0, 5.0148516, 4.9788947 
1.2786789e+2, 1.613606e+2, -1341506.8, -1405562.3, -628.90393, -0.0032083727, 0.0024069357, -1341500.6, 17168.984, 0.0, 5.014872, 4.9732704 
1.2786756e+2, 1.6633405e+2, -1292366.6, -1356097.4, -798.62305, -0.0033972387, 0.00023355978, -1292356.6, 17571.709, 0.0, 5.0148115, 4.973414 
1.2786722e+2, 1.713075e+2, -1243437.3, -1307062.5, -856.8143, -0.003513917, -0.0017746049, -1243425.8, 17760.88, 0.0, 5.0147476, 4.9734163 
1.278669e+2, 1.7628099e+2, -1195642.6, -1260431.0, -916.0159, -0.0035848997, -0.0033323504, -1195629.6, 16815.05, 0.0, 5.0146832, 4.9726114 
1.2786652e+2, 1.8125077e+2, -1155945.4, -1230843.0, -1231.0828, -0.002791925, 0.0028439441, -1155925.1, 7814.6694, 0.0, 5.014584, 4.966061 
1.2786597e+2, 1.862169e+2, -1107088.0, -1181534.3, -1323.5798, -0.00007754788, -0.000028198818, -1107064.5, 8007.488, 0.0, 5.0144124, 4.96618 
1.278654e+2, 1.9118303e+2, -1058400.3, -1132583.3, -1299.7876, 0.0027691922, -0.0032062447, -1058377.5, 8026.706, 0.0, 5.014239, 4.96618 
1.2786485e+2, 1.9614917e+2, -1010601.2, -1085546.3, -1275.6442, 0.005678613, -0.006051716, -1010579.44, 7156.905, 0.0, 5.0140643, 4.965529 
1.2786408e+2, 2.0111175e+2, -970893.06, -1056308.9, -1525.2845, 0.007771841, -0.0004716182, -970865.8, -1762.7297, 0.0, 5.0139604, 4.9587708 
1.278627e+2, 2.0607105e+2, -921139.1, -1006353.06, -1615.3513, 0.0069882693, 0.00014783382, -921108.5, -606.49567, 0.0, 5.0140357, 4.958967 
1.2786129e+2, 2.1103035e+2, -871627.44, -956963.1, -1617.6239, 0.006011756, 0.0006470331, -871596.8, 303.8848, 0.0, 5.0141196, 4.9589696 
1.2785988e+2, 2.1598966e+2, -822783.8, -909031.0, -1619.6525, 0.0050617466, 0.0012601494, -822753.4, 545.9347, 0.0, 5.0142026, 4.9584727 
1.2785853e+2, 2.2094513e+2, -782888.2, -880495.2, -1124.381, 0.0028038751, 0.007958922, -782875.25, -8139.5625, 0.0, 5.0142455, 4.9513144 
1.2785766e+2, 2.2589613e+2, -733375.6, -830282.3, -744.55035, -0.0013540915, -0.001414065, -733369.94, -7154.1787, 0.0, 5.0141487, 4.951646 
1.2785685e+2, 2.308471e+2, -684316.56, -781045.3, -591.11646, -0.005153601, -0.011865367, -684313.0, -6616.75, 0.0, 5.01404, 4.9516554 
1.2785609e+2, 2.3579805e+2, -635905.9, -733255.5, -440.80914, -0.008647625, -0.022604631, -635903.9, -6726.9844, 0.0, 5.0139294, 4.9511633 
1.2785546e+2, 2.4074607e+2, -595855.8, -704113.25, -559.11743, -0.010523874, -0.017621415, -595852.9, -15168.1875, 0.0, 5.013833, 4.944169 
1.2785487e+2, 2.456921e+2, -545431.75, -652457.2, -1011.40125, -0.007860453, -0.0089171855, -545422.2, -13215.766, 0.0, 5.013837, 4.944927 
1.278543e+2, 2.506383e+2, -495947.5, -603028.8, -1260.4381, -0.0046461904, 0.00006279419, -495932.66, -12206.56, 0.0, 5.0138497, 4.9449267 
1.2785378e+2, 2.5558466e+2, -446711.5, -554170.4, -1506.3844, -0.0011386372, 0.010676576, -446690.4, -11446.221, 0.0, 5.013858, 4.944728 
1.2785216e+2, 2.6052532e+2, -410414.84, -535468.56, 6.7026906, -0.013479904, 0.025101736, -410414.84, -23592.098, 0.0, 5.0140843, 4.9336877 
1.2784989e+2, 2.6545933e+2, -357373.1, -480483.13, 2116.2185, -0.048724506, -0.00397714, -357336.72, -18851.232, 0.0, 5.0144844, 4.9350433 
1.2784845e+2, 2.7039322e+2, -305532.0, -429077.22, 3204.77, -0.07944057, -0.047798462, -305448.94, -15297.951, 0.0, 5.0148253, 4.93546 
1.2784751e+2, 2.753267e+2, -253581.48, -378008.0, 4061.4448, -0.10729054, -0.10556247, -253449.06, -11628.252, 0.0, 5.0151405, 4.9358306 
1.2784114e+2, 2.8026134e+2, -223075.9, -379555.88, -4993.144, -0.13940373, -0.038696602, -222916.73, -29440.928, 0.0, 5.016851, 4.9179187 
1.278338e+2, 2.8519732e+2, -160325.95, -292759.94, -1737.351, -0.12429805, 0.057179485, -160303.16, -15200.265, 0.0, 5.016911, 4.9307556 
1.2783077e+2, 2.9012877e+2, -114593.22, -243939.89, -2123.5552, -0.09126859, 0.0556097, -114558.37, -17785.791, 0.0, 5.0155277, 4.9308767 
1.2782814e+2, 2.950589e+2, -68709.984, -195224.67, -2754.9, -0.05765526, 0.035918582, -68650.02, -20195.26, 0.0, 5.014098, 4.9309974 
1.2782522e+2, 3.0000237e+2, -15166.844, -96609.47, -3477.0835, -0.03421614, 0.016016932, -15018.664, -15006.469, 0.0, 5.0128922, 4.9580774 
1.2782307e+2, 3.0497152e+2, -13573.626, -89647.91, -3377.66, -0.027028546, 0.06600822, -13423.954, -13423.954, 0.0, 5.0126424, 4.9597282 
1.2782274e+2, 3.0994827e+2, -12615.335, -85249.85, -2754.3003, -0.011191513, 0.16357139, -12511.041, -12511.041, 0.0, 5.0124335, 4.961233 
1.2782362e+2, 3.1492943e+2, -11399.456, -81110.85, -2112.56, 0.010087846, 0.2906601, -11335.495, -11335.495, 0.0, 5.0121646, 4.96274 
1.3288096e+2, 1.2150587e+2, -1709943.6, -1749816.6, 810.47046, 0.010584656, 0.022279477, -1709927.1, 39314.96, 0.0, 5.015107, 4.9891443 
1.328803e+2, 1.2648855e+2, -1666097.5, -1710843.3, -640.0388, -0.003373863, -0.0115188155, -1666088.4, 34323.59, 0.0, 5.0150156, 4.985905 
1.3288094e+2, 1.3147482e+2, -1617490.6, -1662039.9, -552.3558, -0.0022213429, -0.008533139, -1617483.8, 34063.06, 0.0, 5.01489, 4.9859047 
1.3288158e+2, 1.3646108e+2, -1571090.5, -1617772.4, -464.4725, -0.0010909584, -0.004292587, -1571085.9, 31596.027, 0.0, 5.0147634, 4.9844003 
1.3288207e+2, 1.4144431e+2, -1528929.5, -1582514.3, -512.7238, -0.00075112376, 0.011785922, -1528924.6, 24921.951, 0.0, 5.01469, 4.979805 
1.328823e+2, 1.4642406e+2, -1479441.5, -1532800.8, -494.9089, -0.0014373484, 0.006946545, -1479436.9, 25608.22, 0.0, 5.0147414, 4.979997 
1.328825e+2, 1.5140373e+2, -1430220.6, -1483665.4, -409.1234, -0.0021201463, 0.0010003513, -1430217.5, 26027.008, 0.0, 5.014797, 4.979998 
1.3288271e+2, 1.563834e+2, -1382428.9, -1437508.9, -324.7594, -0.0028066866, -0.004529624, -1382427.0, 25017.047, 0.0, 5.014853, 4.9790034 
1.328828e+2, 1.6135949e+2, -1341552.1, -1405659.3, -658.7002, -0.002984026, -0.0025197982, -1341545.4, 17132.916, 0.0, 5.014872, 4.9732385 
1.328825e+2, 1.663331e+2, -1292466.1, -1356311.9, -846.8427, -0.002138634, -0.0019999489, -1292455.0, 17481.125, 0.0, 5.014812, 4.9733424 
1.3288222e+2, 1.7130679e+2, -1243531.3, -1307272.6, -901.86755, -0.0012628828, -0.0012285529, -1243518.4, 17674.875, 0.0, 5.014749, 4.9733453 
1.3288191e+2, 1.7628047e+2, -1195731.0, -1260637.0, -957.89343, -0.00038172762, -0.000042755637, -1195716.9, 16733.55, 0.0, 5.014686, 4.972541 
1.3288146e+2, 1.8125033e+2, -1155952.3, -1230863.5, -1352.5632, 0.00075751584, 0.007547189, -1155927.9, 7817.394, 0.0, 5.0145845, 4.966054 
1.3288063e+2, 1.862163e+2, -1107044.0, -1181440.1, -1459.9987, 0.0022842535, 0.0026849331, -1107015.4, 8063.196, 0.0, 5.0144124, 4.9662123 
1.3287976e+2, 1.9118226e+2, -1058355.4, -1132485.9, -1432.455, 0.0038135576, -0.0026593858, -1058327.8, 8084.345, 0.0, 5.0142384, 4.9662127 
1.3287888e+2, 1.9614819e+2, -1010555.4, -1085445.8, -1404.5417, 0.005354414, -0.007671987, -1010529.06, 7216.3877, 0.0, 5.0140643, 4.965563 
1.328779e+2, 2.011107e+2, -970881.6, -1056290.4, -1516.9167, 0.006117041, -0.0033089158, -970854.7, -1741.9633, 0.0, 5.0139613, 4.958777 
1.3287649e+2, 2.0607005e+2, -921133.4, -1006350.4, -1552.8596, 0.0042966376, -0.0020493676, -921105.06, -594.008, 0.0, 5.014037, 4.9589677 
1.3287504e+2, 2.1102944e+2, -871620.5, -956957.9, -1550.3767, 0.0022474083, -0.0008740684, -871592.4, 316.8025, 0.0, 5.014121, 4.958971 
1.3287361e+2, 2.1598881e+2, -822775.7, -909023.2, -1547.6559, 0.00015537298, 0.00042145533, -822747.94, 559.2792, 0.0, 5.014204, 4.958474 
1.3287233e+2, 2.209443e+2, -782711.0, -880155.06, -1156.3644, -0.0019133544, 0.0070584314, -782697.3, -7954.2314, 0.0, 5.014252, 4.951429 
1.3287172e+2, 2.2589533e+2, -733086.6, -829718.3, -815.717, -0.0025957534, -0.004217127, -733079.75, -6857.8433, 0.0, 5.0141573, 4.9518385 
1.328712e+2, 2.308463e+2, -684034.6, -780497.8, -651.3997, -0.0028990482, -0.016599866, -684030.25, -6329.182, 0.0, 5.014048, 4.951844 
1.328707e+2, 2.3579726e+2, -635630.8, -732724.3, -490.19864, -0.0030309341, -0.029229924, -635628.3, -6447.97, 0.0, 5.0139375, 4.9513483 
1.3287027e+2, 2.4074551e+2, -596103.2, -704762.8, -545.01697, -0.0024251507, -0.022104317, -596100.5, -15414.725, 0.0, 5.013843, 4.9439454 
1.328696e+2, 2.4569213e+2, -545814.6, -653421.3, -988.6371, -0.0003660186, -0.0043417714, -545805.5, -13599.524, 0.0, 5.0138493, 4.944591 
1.3286889e+2, 2.5063887e+2, -496319.16, -603975.6, -1221.7954, 0.0018946272, 0.013134872, -496305.3, -12580.1875, 0.0, 5.0138636, 4.944594 
1.3286822e+2, 2.5558573e+2, -447072.13, -555100.06, -1451.858, 0.004388121, 0.031896744, -447052.63, -11809.702, 0.0, 5.0138736, 4.944399 
1.3286658e+2, 2.6052645e+2, -409130.38, -532790.2, 254.89363, -0.008583815, 0.04637624, -409129.84, -22308.033, 0.0, 5.0141144, 4.934607 
1.3286485e+2, 2.6545945e+2, -354654.38, -475600.2, 3016.4265, -0.049839564, -0.0103985155, -354579.2, -16099.226, 0.0, 5.014654, 4.9366884 
1.3286392e+2, 2.7039206e+2, -302452.63, -424508.13, 4495.1626, -0.08948424, -0.08605761, -302287.3, -12144.815, 0.0, 5.0151486, 4.936974 
1.3286345e+2, 2.753239e+2, -250142.88, -373752.3, 5742.304, -0.12776719, -0.17758986, -249876.69, -8064.3433, 0.0, 5.0156174, 4.937213 
1.3285695e+2, 2.80258e+2, -225543.17, -384487.97, -6940.2314, -0.16041392, -0.1185672, -225240.7, -31780.027, 0.0, 5.0167546, 4.916166 
1.3284884e+2, 2.8519577e+2, -163601.2, -295996.13, -3601.621, -0.13562429, 0.009076722, -163503.3, -18428.398, 0.0, 5.0163436, 4.9295955 
1.3284522e+2, 2.9012856e+2, -117602.984, -247525.36, -3626.7144, -0.0995782, 0.030043218, -117501.83, -20763.664, 0.0, 5.015065, 4.9295855 
1.3284197e+2, 2.9505998e+2, -71453.08, -199159.45, -3897.4414, -0.064393885, 0.032593913, -71334.24, -22919.0, 0.0, 5.01374, 4.9295754 
1.328383e+2, 3.000035e+2, -16520.273, -98344.01, -4018.6052, -0.041972045, 0.022915104, -16323.382, -16323.382, 0.0, 5.0126452, 4.9574604 
1.328341e+2, 3.0496898e+2, -13160.092, -87975.66, -2884.721, -0.053040296, 0.02905627, -13049.028, -13049.028, 0.0, 5.0125117, 4.960202 
1.3283129e+2, 3.099418e+2, -11641.294, -82769.875, -1525.3799, -0.06316578, 0.07263768, -11608.597, -11608.597, 0.0, 5.012408, 4.9618907 
1.3282953e+2, 3.149189e+2, -9865.242, -77823.81, -147.67906, -0.071726054, 0.14122717, -9864.922, -9864.922, 0.0, 5.0122437, 4.9635806 
1.378957e+2, 1.2150482e+2, -1710334.6, -1750090.1, 918.3047, 0.0068185716, 0.026309947, -1710313.4, 38941.824, 0.0, 5.0149956, 4.9891086 
1.3789612e+2, 1.2648764e+2, -1666121.5, -1710599.3, -752.9362, 0.004545506, -0.0069126794, -1666108.8, 34314.633, 0.0, 5.014953, 4.9860153 
1.3789615e+2, 1.3147399e+2, -1617404.1, -1661740.4, -655.15784, 0.00095303974, -0.004490884, -1617394.4, 34162.96, 0.0, 5.014864, 4.9860153 
1.3789618e+2, 1.3646027e+2, -1570942.8, -1617441.9, -562.89655, -0.002720012, -0.00080852985, -1570936.0, 31755.5, 0.0, 5.014758, 4.9845114 
1.3789631e+2, 1.4144352e+2, -1528794.4, -1582215.3, -515.4694, -0.0053012143, 0.014318007, -1528789.4, 25066.086, 0.0, 5.014686, 4.979905 
1.3789672e+2, 1.4642318e+2, -1479315.5, -1532488.8, -465.76508, -0.004829934, 0.007296709, -1479311.4, 25742.635, 0.0, 5.014731, 4.980105 
1.3789709e+2, 1.5140273e+2, -1430129.0, -1483370.9, -384.64243, -0.0042469664, -0.0009292849, -1430126.3, 26127.217, 0.0, 5.0147758, 4.980106 
1.3789749e+2, 1.5638228e+2, -1382387.1, -1437238.9, -304.2811, -0.00368205, -0.008762862, -1382385.5, 25067.59, 0.0, 5.014815, 4.979111 
1.378977e+2, 1.6135836e+2, -1341768.9, -1405864.8, -719.4183, -0.0026602007, -0.0073213903, -1341760.9, 16926.094, 0.0, 5.01482, 4.9731946 
1.3789746e+2, 1.6633219e+2, -1292709.4, -1356593.9, -916.4536, -0.00080068276, -0.0041231555, -1292696.3, 17247.492, 0.0, 5.0147643, 4.9732704 
1.3789721e+2, 1.7130606e+2, -1243781.6, -1307557.3, -967.5938, 0.001038965, -0.0006427504, -1243766.9, 17433.045, 0.0, 5.0146985, 4.9732738 
1.3789693e+2, 1.7627995e+2, -1196013.9, -1260936.1, -1024.2231, 0.002852827, 0.0032250474, -1195997.8, 16458.428, 0.0, 5.0146236, 4.9724693 
1.3789642e+2, 1.812499e+2, -1156184.5, -1231025.6, -1502.4191, 0.004403453, 0.012320014, -1156154.4, 7596.306, 0.0, 5.014516, 4.966032 
1.378953e+2, 1.862157e+2, -1107125.4, -1181402.9, -1611.1527, 0.004721438, 0.005451102, -1107090.4, 7994.769, 0.0, 5.0143695, 4.966244 
1.3789412e+2, 1.9118145e+2, -1058379.4, -1132418.6, -1574.7076, 0.0048901006, -0.0021236963, -1058345.9, 8073.965, 0.0, 5.014215, 4.9662457 
1.3789295e+2, 1.9614723e+2, -1010547.6, -1085360.5, -1541.1449, 0.0050291256, -0.009363172, -1010515.9, 7238.632, 0.0, 5.0140514, 4.9655967 
1.3789171e+2, 2.0110965e+2, -970918.06, -1056319.1, -1513.22, 0.0044846074, -0.0060791727, -970891.25, -1768.9197, 0.0, 5.0139513, 4.958771 
1.3789026e+2, 2.0606907e+2, -921179.25, -1006368.7, -1491.1942, 0.0016199792, -0.004171432, -921153.2, -633.1074, 0.0, 5.014021, 4.958968 
1.378888e+2, 2.1102852e+2, -871714.6, -956997.2, -1483.8129, -0.0015087458, -0.0023807501, -871688.8, 228.77419, 0.0, 5.014088, 4.9589715 
1.3788734e+2, 2.1598798e+2, -822947.4, -909096.75, -1479.901, -0.0047301566, -0.0004547144, -822921.94, 393.10547, 0.0, 5.014144, 4.9584756 
1.3788614e+2, 2.209435e+2, -782838.3, -880004.0, -1182.5402, -0.006539162, 0.0062340144, -782823.94, -8073.4526, 0.0, 5.0141644, 4.951521 
1.3788581e+2, 2.258945e+2, -733169.94, -829318.6, -876.7878, -0.0036148627, -0.0070397183, -733161.94, -6933.7915, 0.0, 5.014037, 4.9520307 
1.3788556e+2, 2.3084548e+2, -684287.56, -780189.2, -699.26373, -0.0002934767, -0.02152663, -684282.5, -6576.55, 0.0, 5.0138707, 4.9520326 
1.3788533e+2, 2.3579644e+2, -636120.94, -732536.6, -529.7947, 0.0030790446, -0.03621115, -636118.0, -6934.095, 0.0, 5.013678, 4.951533 
1.3788511e+2, 2.4074502e+2, -597414.4, -706018.94, -508.24515, 0.0059922603, -0.025816804, -597412.0, -16725.865, 0.0, 5.0135074, 4.9436665 
1.3788433e+2, 2.4569227e+2, -547100.6, -654779.2, -894.4911, 0.0074202237, 0.0011661788, -547093.2, -14888.587, 0.0, 5.0135455, 4.9442554 
1.3788348e+2, 2.506395e+2, -497407.88, -605230.1, -1070.0781, 0.008804565, 0.026542285, -497397.25, -13673.769, 0.0, 5.0136266, 4.9442616 
1.378827e+2, 2.5558683e+2, -447894.44, -556219.9, -1256.3015, 0.010337223, 0.052835792, -447879.88, -12638.558, 0.0, 5.013729, 4.9440694 
1.3788092e+2, 2.6052725e+2, -408987.28, -531848.56, 886.1379, -0.004634864, 0.067464225, -408980.88, -22157.004, 0.0, 5.014001, 4.934935 
1.3787995e+2, 2.6545897e+2, -354264.06, -471408.2, 5213.8574, -0.05057691, -0.023725973, -354032.47, -15552.124, 0.0, 5.013987, 4.9383206 
1.378799e+2, 2.703902e+2, -305492.75, -422172.56, 8089.2134, -0.096112, -0.13893321, -304934.6, -14793.966, 0.0, 5.0132804, 4.938508 
1.3788031e+2, 2.7532047e+2, -258316.78, -373993.3, 10922.969, -0.14105982, -0.27097133, -257294.39, -15484.174, 0.0, 5.0119314, 4.93865 
1.3787298e+2, 2.8025576e+2, -247662.61, -405698.1, -5070.2993, -0.17524092, -0.18865204, -247500.1, -54065.63, 0.0, 5.011078, 4.911136 
1.3786341e+2, 2.8519624e+2, -176486.88, -303855.16, -1475.6691, -0.14476506, -0.009289901, -176469.78, -31442.828, 0.0, 5.01235, 4.928216 
1.3785933e+2, 2.901299e+2, -125221.08, -253397.69, -2316.5007, -0.10628684, 0.024513515, -125179.23, -28490.314, 0.0, 5.012976, 4.928116 
1.378556e+2, 2.950621e+2, -75618.86, -203843.95, -3130.3516, -0.06939494, 0.04019067, -75542.484, -27177.273, 0.0, 5.0129113, 4.9280167 
1.3785115e+2, 3.0000442e+2, -19396.615, -103089.484, -3567.4673, -0.048774067, 0.029517004, -19244.824, -19244.824, 0.0, 5.0123563, 4.955736 
1.3784465e+2, 3.049649e+2, -15729.367, -87503.52, -2436.28, -0.082893506, -0.025197567, -15646.766, -15646.766, 0.0, 5.0113654, 4.960508 
1.3783915e+2, 3.09933e+2, -20031.732, -84343.99, -1880.3273, -0.12252685, -0.053505152, -19976.803, -19976.803, 0.0, 5.0090547, 4.9623356 
1.3783468e+2, 3.1490532e+2, -27534.193, -82917.914, -2072.9287, -0.16284567, -0.06076686, -27456.717, -27456.717, 0.0, 5.0054207, 4.9641643 
1.4291038e+2, 1.2150293e+2, -1711276.4, -1750347.1, 930.4031, 0.005686107, 0.021542067, -1711254.3, 38020.332, 0.0, 5.0146427, 4.9891944 
1.4291117e+2, 1.2648666e+2, -1666751.9, -1710751.4, -658.9024, 0.0069174697, -0.0034247753, -1666742.0, 33691.875, 0.0, 5.0147147, 4.9860783 
1.4291106e+2, 1.314729e+2, -1617387.9, -1661582.6, -658.3359, 0.0016639617, -0.002556369, -1617378.1, 34190.445, 0.0, 5.014842, 4.986074 
1.4291097e+2, 1.3645913e+2, -1570234.6, -1616954.4, -657.90594, -0.0034498363, -0.00037672895, -1570225.4, 32478.072, 0.0, 5.0149693, 4.9845657 
1.4291105e+2, 1.4144233e+2, -1527657.0, -1581510.5, -692.501, -0.0066557582, 0.0137717435, -1527648.0, 26219.6, 0.0, 5.015035, 4.9799685 
1.4291148e+2, 1.4642203e+2, -1478545.8, -1531953.8, -691.16064, -0.005523448, 0.006654483, -1478536.9, 26528.314, 0.0, 5.0149555, 4.9801736 
1.4291193e+2, 1.5140165e+2, -1429748.6, -1483020.8, -660.9208, -0.0041739997, -0.0015590533, -1429740.4, 26522.975, 0.0, 5.01487, 4.980176 
1.4291237e+2, 1.5638128e+2, -1382377.8, -1437063.6, -632.7763, -0.002767866, -0.009283925, -1382370.4, 25091.215, 0.0, 5.014785, 4.979183 
1.429126e+2, 1.6135742e+2, -1342170.6, -1406102.3, -1098.053, -0.0010981857, -0.007666776, -1342151.8, 16543.09, 0.0, 5.014696, 4.973173 
1.429123e+2, 1.6633122e+2, -1293297.0, -1356998.5, -1293.0782, 0.0008381429, -0.004187521, -1293270.9, 16681.533, 0.0, 5.0145926, 4.9732156 
1.4291194e+2, 1.713051e+2, -1244485.6, -1308024.9, -1331.5756, 0.0028187833, -0.00031957217, -1244457.8, 16751.701, 0.0, 5.0144877, 4.9732156 
1.4291161e+2, 1.7627898e+2, -1196808.4, -1261454.0, -1370.7239, 0.004865757, 0.004034239, -1196779.3, 15687.056, 0.0, 5.014383, 4.972409 
1.42911e+2, 1.812489e+2, -1156735.4, -1231229.6, -1786.3123, 0.006221535, 0.013220993, -1156692.5, 7068.8706, 0.0, 5.014316, 4.966057 
1.4290966e+2, 1.8621466e+2, -1107183.6, -1181301.8, -1875.3606, 0.0052175396, 0.005559796, -1107136.3, 7959.3647, 0.0, 5.014324, 4.9662986 
1.429083e+2, 1.9118041e+2, -1057963.5, -1132093.3, -1835.4208, 0.0041107386, -0.0027749606, -1057918.0, 8511.879, 0.0, 5.0143332, 4.9662995 
1.4290695e+2, 1.9614616e+2, -1009635.1, -1084802.3, -1796.8508, 0.003068127, -0.010727491, -1009592.2, 8171.993, 0.0, 5.0143423, 4.9656496 
1.4290558e+2, 2.0110859e+2, -969902.06, -1055852.6, -1747.5375, 0.0018836384, -0.0075594475, -969866.56, -734.9994, 0.0, 5.0143065, 4.958763 
1.4290418e+2, 2.0606807e+2, -920878.44, -1006295.7, -1781.753, -0.00016260288, -0.004863534, -920841.25, -311.9476, 0.0, 5.014141, 4.958935 
1.4290276e+2, 2.1102759e+2, -872109.06, -957253.2, -1835.3569, -0.002187721, -0.0022027534, -872069.56, -142.66536, 0.0, 5.0139675, 4.958937 
1.4290135e+2, 2.159871e+2, -824002.7, -909663.75, -1889.9772, -0.004108899, 0.0006937742, -823961.0, -636.68335, 0.0, 5.0137935, 4.95844 
1.4290021e+2, 2.2094268e+2, -784370.94, -880463.1, -1699.9415, -0.0043360614, 0.007825795, -784340.9, -9581.473, 0.0, 5.0135818, 4.9516273 
1.4289981e+2, 2.258937e+2, -735233.3, -829813.06, -1489.4995, 0.00040217664, -0.007017414, -735209.8, -8974.176, 0.0, 5.0132256, 4.9522276 
1.4289947e+2, 2.3084472e+2, -686930.3, -780956.1, -1365.1327, 0.0056342697, -0.02308283, -686910.5, -9198.647, 0.0, 5.012856, 4.952226 
1.4289916e+2, 2.3579575e+2, -639272.06, -733540.1, -1241.1697, 0.011028709, -0.039188787, -639255.7, -10067.544, 0.0, 5.0124855, 4.9517236 
1.4289875e+2, 2.4074453e+2, -601377.25, -707880.3, -1037.8179, 0.014910276, -0.027782695, -601367.1, -20679.037, 0.0, 5.0121255, 4.9436502 
1.428977e+2, 2.4569215e+2, -551542.25, -656965.7, -1080.6528, 0.013826614, 0.0033100783, -551531.2, -19325.451, 0.0, 5.0120053, 4.9441876 
1.4289655e+2, 2.506397e+2, -502283.8, -607612.25, -975.9755, 0.012173431, 0.032182127, -502274.75, -18550.033, 0.0, 5.0119176, 4.9441867 
1.4289543e+2, 2.555873e+2, -453273.97, -558826.1, -875.50616, 0.0103440415, 0.061624613, -453266.72, -18023.512, 0.0, 5.0118213, 4.943987 
1.4289364e+2, 2.6052788e+2, -414059.84, -531270.25, 1370.6766, -0.0045518773, 0.07615564, -414043.8, -27219.055, 0.0, 5.011616, 4.936111 
1.4289378e+2, 2.6546076e+2, -361697.7, -467240.0, 4008.4805, -0.035024144, -0.032596007, -361545.66, -23085.508, 0.0, 5.0100293, 4.9412823 
1.4289525e+2, 2.7039438e+2, -316024.9, -418169.38, 4766.489, -0.05649866, -0.15768588, -315802.94, -25717.441, 0.0, 5.00819, 4.941768 
1.428975e+2, 2.7532828e+2, -270300.5, -369297.75, 5265.6274, -0.069596075, -0.28824627, -270021.22, -28313.002, 0.0, 5.006301, 4.9422073 
1.4289196e+2, 2.802682e+2, -255372.5, -414711.56, -7992.782, -0.078636386, -0.17271475, -254972.56, -61693.645, 0.0, 5.0088787, 4.908897 
1.4288121e+2, 2.8520682e+2, -177956.88, -313138.56, -1015.3477, -0.076612584, 0.013323527, -177949.25, -33052.426, 0.0, 5.012132, 4.925459 
1.4287564e+2, 2.9013768e+2, -128121.29, -261942.97, -1183.1431, -0.06521621, 0.037589584, -128110.83, -31515.639, 0.0, 5.012344, 4.925791 
1.4287072e+2, 2.9506803e+2, -78224.68, -210836.72, -1645.0608, -0.04785098, 0.051540423, -78204.27, -29906.086, 0.0, 5.012465, 4.9261227 
1.4286545e+2, 3.000087e+2, -18609.521, -104705.6, -2413.922, -0.038381577, 0.039447207, -18541.895, -18541.895, 0.0, 5.012803, 4.955339 
1.428585e+2, 3.0496714e+2, -6835.865, -81786.1, -2059.7188, -0.07390105, -0.041849513, -6779.3047, -6779.3047, 0.0, 5.014169, 4.9617586 
1.4285327e+2, 3.0993316e+2, -1485.2092, -75625.3, -1395.7037, -0.09925912, -0.097213015, -1458.9441, -1458.9441, 0.0, 5.015566, 4.9631896 
1.4284985e+2, 3.1490314e+2, 4092.0955, -69695.41, -925.5185, -0.10811109, -0.12837037, 4103.7026, 4103.7026, 0.0, 5.0168686, 4.9646225 
1.4792499e+2, 1.2150051e+2, -1711038.8, -1749881.9, 562.79694, 0.005080833, 0.010314195, -1711030.6, 38267.016, 0.0, 5.0146446, 4.989348 
1.4792566e+2, 1.2648565e+2, -1666730.0, -1710731.8, -567.0211, 0.0045706537, -0.00074705813, -1666722.6, 33720.47, 0.0, 5.0147176, 4.986085 
1.4792578e+2, 1.3147166e+2, -1617365.5, -1661558.8, -563.0834, 0.00037162847, -0.0021989576, -1617358.4, 34221.88, 0.0, 5.014845, 4.986082 
1.4792591e+2, 1.3645765e+2, -1570211.9, -1616926.4, -559.3086, -0.0037319742, -0.0023367868, -1570205.1, 32512.463, 0.0, 5.0149717, 4.9845753 
1.4792615e+2, 1.4144078e+2, -1527594.0, -1581377.0, -724.0245, -0.0060916273, 0.01078288, -1527584.3, 26298.396, 0.0, 5.0150347, 4.9800134 
1.4792652e+2, 1.4642069e+2, -1478478.0, -1531812.9, -754.92584, -0.004564839, 0.005295014, -1478467.4, 26610.61, 0.0, 5.0149555, 4.980221 
1.4792693e+2, 1.5140052e+2, -1429678.3, -1482881.6, -722.1554, -0.0028644917, -0.0012276123, -1429668.5, 26605.514, 0.0, 5.014871, 4.980222 
1.4792733e+2, 1.5638037e+2, -1382304.9, -1436926.1, -691.46497, -0.0011288816, -0.007286722, -1382296.1, 25174.018, 0.0, 5.0147862, 4.9792285 
1.4792748e+2, 1.6135658e+2, -1342189.9, -1406145.9, -1173.6294, 0.00062458415, -0.00506912, -1342168.3, 16534.166, 0.0, 5.014696, 4.9731593 
1.4792702e+2, 1.6633023e+2, -1293356.0, -1357125.3, -1373.3679, 0.0021489302, -0.0028699585, -1293326.4, 16635.594, 0.0, 5.0145926, 4.9731746 
1.4792652e+2, 1.7130391e+2, -1244541.1, -1308148.3, -1409.1947, 0.0036790422, -0.00033733295, -1244509.9, 16711.215, 0.0, 5.0144887, 4.9731755 
1.4792605e+2, 1.7627761e+2, -1196860.5, -1261574.3, -1445.6586, 0.005247802, 0.0026511976, -1196828.3, 15651.93, 0.0, 5.0143843, 4.9723687 
1.4792529e+2, 1.8124743e+2, -1156662.0, -1231074.6, -1796.4738, 0.005827257, 0.0107361125, -1156618.6, 7157.7485, 0.0, 5.0143156, 4.9661098 
1.4792386e+2, 1.8621328e+2, -1107097.0, -1181123.1, -1865.6283, 0.003814081, 0.00353837, -1107050.0, 8058.9395, 0.0, 5.0143247, 4.966359 
1.4792241e+2, 1.9117916e+2, -1057871.4, -1131910.8, -1821.5695, 0.0016869898, -0.004218129, -1057826.6, 8615.04, 0.0, 5.014335, 4.9663606 
1.4792097e+2, 1.9614501e+2, -1009537.56, -1084616.0, -1778.8805, -0.00042286754, -0.011637661, -1009495.44, 8278.763, 0.0, 5.0143456, 4.965712 
1.4791954e+2, 2.0110756e+2, -969931.75, -1055931.9, -1837.787, -0.0017582168, -0.0077134995, -969892.5, -752.1862, 0.0, 5.014308, 4.9587364 
1.479182e+2, 2.0606707e+2, -920958.6, -1006489.2, -1913.1068, -0.001425609, -0.0041189515, -920915.9, -377.11026, 0.0, 5.014143, 4.958869 
1.4791687e+2, 2.110266e+2, -872182.75, -957441.25, -1962.0669, -0.0009897746, -0.0006490311, -872137.6, -200.49686, 0.0, 5.013971, 4.9588723 
1.4791554e+2, 2.1598613e+2, -824069.8, -909846.5, -2012.0281, -0.00050564756, 0.0030139359, -824022.7, -687.2787, 0.0, 5.013798, 4.958376 
1.4791435e+2, 2.2094172e+2, -784231.6, -880192.1, -1920.489, 0.0009922077, 0.010453021, -784193.2, -9422.453, 0.0, 5.013586, 4.9517198 
1.479136e+2, 2.258928e+2, -734990.9, -829311.75, -1756.0948, 0.005716729, -0.005587449, -734958.2, -8712.526, 0.0, 5.0132294, 4.9524 
1.4791289e+2, 2.3084384e+2, -686689.7, -780455.94, -1626.1644, 0.010761452, -0.02296421, -686661.5, -8941.118, 0.0, 5.0128593, 4.9523993 
1.4791219e+2, 2.3579489e+2, -639033.2, -733040.94, -1496.608, 0.015889319, -0.04035753, -639009.4, -9814.161, 0.0, 5.0124884, 4.9518967 
1.4791137e+2, 2.4074373e+2, -601124.4, -707399.56, -1212.8356, 0.018849941, -0.030372016, -601110.56, -20416.236, 0.0, 5.0121355, 4.943813 
1.4790988e+2, 2.4569155e+2, -551351.8, -656667.44, -1176.7264, 0.014723487, 0.0015502984, -551338.7, -19126.756, 0.0, 5.0120206, 4.9442863 
1.4790832e+2, 2.5063935e+2, -502087.88, -607317.1, -1064.2291, 0.009806854, 0.03176687, -502077.13, -18346.416, 0.0, 5.0119348, 4.9442844 
1.4790675e+2, 2.5558716e+2, -453072.6, -558534.06, -955.9336, 0.0046454794, 0.06248969, -453063.9, -17814.889, 0.0, 5.0118403, 4.9440837 
1.4790496e+2, 2.605284e+2, -412445.6, -528304.8, 1064.0428, -0.008704931, 0.07975576, -412435.8, -25610.984, 0.0, 5.0116925, 4.937142 
1.4790578e+2, 2.6546267e+2, -358638.2, -462436.28, 3615.178, -0.024811797, -0.030860035, -358512.44, -20073.271, 0.0, 5.0102773, 4.942953 
1.479078e+2, 2.7039742e+2, -312652.6, -413882.0, 4641.9575, -0.034019895, -0.1606315, -312440.2, -22394.453, 0.0, 5.0085998, 4.9432464 
1.4791049e+2, 2.753321e+2, -266614.75, -365525.94, 5410.7466, -0.038030688, -0.2971168, -266319.66, -24666.637, 0.0, 5.006872, 4.943493 
1.4790615e+2, 2.8027242e+2, -254885.03, -412709.7, -5385.109, -0.052263267, -0.18895851, -254701.5, -61486.777, 0.0, 5.008766, 4.9095616 
1.4789607e+2, 2.8521144e+2, -180607.53, -314837.5, -1290.8898, -0.055751834, 0.0030199012, -180595.13, -35758.35, 0.0, 5.011481, 4.9249363 
1.4789034e+2, 2.9014271e+2, -130526.17, -264132.72, -1147.6178, -0.04432601, 0.03717241, -130516.32, -33974.73, 0.0, 5.0117993, 4.925101 
1.478852e+2, 2.950733e+2, -80382.63, -213515.83, -1299.1326, -0.03015547, 0.061153118, -80369.95, -32117.623, 0.0, 5.012027, 4.9252653 
1.4787981e+2, 3.0001408e+2, -18647.168, -104096.28, -1565.821, -0.02664795, 0.054835334, -18618.484, -18618.484, 0.0, 5.012548, 4.9556313 
1.478736e+2, 3.0497235e+2, -4102.4033, -76900.195, -276.1784, -0.07148477, -0.043496467, -4101.3555, -4101.3555, 0.0, 5.014223, 4.963511 
1.4786899e+2, 3.0993783e+2, 2202.5479, -70196.125, 1095.1492, -0.11211875, -0.1259282, 2219.1099, 2219.1099, 0.0, 5.01589, 4.964994 
1.4786598e+2, 3.1490672e+2, 8730.955, -63723.125, 2272.6326, -0.14226733, -0.19185859, 8802.17, 8802.17, 0.0, 5.0174623, 4.966479 
1.5293962e+2, 1.2149806e+2, -1710745.1, -1749301.0, 201.16803, 0.004775455, -0.0009357987, -1710744.1, 38576.742, 0.0, 5.0146465, 4.9895387 
1.5294017e+2, 1.2648465e+2, -1666709.0, -1710711.6, -476.53687, 0.002347366, 0.002106414, -1666703.9, 33748.49, 0.0, 5.014721, 4.986091 
1.5294053e+2, 1.3147043e+2, -1617344.1, -1661534.4, -469.22778, -0.00082547, -0.0017127761, -1617339.1, 34252.785, 0.0, 5.0148478, 4.9860897 
1.5294088e+2, 1.3645619e+2, -1570189.9, -1616897.9, -462.1085, -0.0039471714, -0.004215061, -1570185.3, 32546.344, 0.0, 5.014974, 4.9845843 
1.5294124e+2, 1.4143924e+2, -1527539.0, -1581259.0, -758.021, -0.0055157295, 0.007870998, -1527528.3, 26369.248, 0.0, 5.015034, 4.980052 
1.5294158e+2, 1.4641936e+2, -1478410.9, -1531671.9, -817.2903, -0.0035882376, 0.0039747627, -1478398.4, 26692.445, 0.0, 5.014955, 4.9802675 
1.5294194e+2, 1.5139942e+2, -1429608.5, -1482742.3, -781.98926, -0.0015259094, -0.00090841355, -1429597.0, 26687.605, 0.0, 5.0148716, 4.980268 
1.5294228e+2, 1.5637946e+2, -1382232.4, -1436788.5, -748.7528, 0.00055025856, -0.0053532184, -1382222.1, 25256.385, 0.0, 5.014788, 4.979274 
1.5294237e+2, 1.6135576e+2, -1342229.3, -1406230.9, -1253.2466, 0.0023962539, -0.0023751133, -1342204.8, 16505.32, 0.0, 5.014696, 4.9731317 
1.5294176e+2, 1.6632922e+2, -1293415.4, -1357251.6, -1453.9164, 0.003502651, -0.0014457301, -1293382.4, 16589.217, 0.0, 5.0145926, 4.973133 
1.5294112e+2, 1.7130274e+2, -1244597.3, -1308271.4, -1487.0726, 0.00457135, -0.00030139223, -1244562.5, 16670.299, 0.0, 5.014489, 4.9731345 
1.5294048e+2, 1.7627624e+2, -1196913.3, -1261694.3, -1520.8519, 0.0056510125, 0.0012688963, -1196877.6, 15616.381, 0.0, 5.0143857, 4.972328 
1.5293957e+2, 1.8124594e+2, -1156606.5, -1230956.1, -1810.8556, 0.0054651964, 0.008326078, -1156562.4, 7228.951, 0.0, 5.0143156, 4.9661493 
1.5293807e+2, 1.8621191e+2, -1107011.4, -1180943.9, -1855.7328, 0.0024272848, 0.0015669345, -1106964.9, 8157.5225, 0.0, 5.014325, 4.9664187 
1.529365e+2, 1.911779e+2, -1057780.3, -1131727.6, -1807.555, -0.0007487659, -0.005685483, -1057736.1, 8717.243, 0.0, 5.014337, 4.966421 
1.5293497e+2, 1.9614388e+2, -1009440.94, -1084429.0, -1760.7473, -0.0039545354, -0.012646187, -1009399.6, 8384.606, 0.0, 5.014349, 4.965773 
1.5293352e+2, 2.0110653e+2, -969985.75, -1056061.9, -1935.1498, -0.005341312, -0.0077441563, -969942.3, -793.27167, 0.0, 5.01431, 4.958692 
1.5293224e+2, 2.0606609e+2, -921039.94, -1006681.9, -2044.7819, -0.0026115375, -0.003213094, -920991.2, -443.15576, 0.0, 5.0141454, 4.9588027 
1.5293099e+2, 2.1102563e+2, -872257.5, -957628.5, -2089.0977, 0.00024957256, 0.0009833472, -872206.44, -259.20184, 0.0, 5.0139747, 4.9588065 
1.5292972e+2, 2.1598516e+2, -824138.1, -910028.4, -2134.3994, 0.0031033277, 0.0053301402, -824085.1, -738.7405, 0.0, 5.013803, 4.958311 
1.5292852e+2, 2.2094077e+2, -784122.7, -879983.94, -2143.3035, 0.0063663893, 0.013133675, -784074.8, -9292.7, 0.0, 5.0135903, 4.95179 
1.529274e+2, 2.2589187e+2, -734750.56, -828808.75, -2022.959, 0.011081933, -0.0041181403, -734707.06, -8451.381, 0.0, 5.0132327, 4.9525723 
1.5292631e+2, 2.3084296e+2, -686451.1, -779954.0, -1887.4655, 0.015912106, -0.02288595, -686413.06, -8684.116, 0.0, 5.0128627, 4.952572 
1.5292524e+2, 2.3579405e+2, -638796.4, -732540.0, -1752.3159, 0.020746218, -0.04164633, -638763.6, -9561.345, 0.0, 5.0124917, 4.9520693 
1.5292402e+2, 2.4074294e+2, -600898.0, -706955.5, -1373.6925, 0.022731835, -0.032824367, -600880.2, -20179.824, 0.0, 5.012145, 4.9439597 
1.529221e+2, 2.4569097e+2, -551174.5, -656356.3, -1268.9734, 0.015548705, 0.000019061901, -551159.2, -18941.268, 0.0, 5.0120354, 4.944384 
1.529201e+2, 2.50639e+2, -501905.06, -607009.1, -1148.6563, 0.007365375, 0.031495824, -501892.5, -18155.953, 0.0, 5.0119514, 4.944381 
1.529181e+2, 2.5558707e+2, -452884.28, -558229.2, -1032.5349, -0.0011312236, 0.06341465, -452874.16, -17619.367, 0.0, 5.0118594, 4.9441795 
1.5291625e+2, 2.605287e+2, -411101.06, -525803.9, 941.7768, -0.014236671, 0.082670175, -411093.3, -24266.668, 0.0, 5.011769, 4.937975 
1.5291803e+2, 2.6546425e+2, -355662.2, -457563.63, 3510.7258, -0.014445257, -0.033377033, -355541.38, -17119.586, 0.0, 5.0105247, 4.944568 
1.5292098e+2, 2.7039996e+2, -309363.6, -409523.88, 4806.343, -0.008854962, -0.17160161, -309133.5, -19122.807, 0.0, 5.0090094, 4.9446692 
1.5292451e+2, 2.7533528e+2, -263012.16, -361681.56, 5844.883, -0.0012474527, -0.31778353, -262667.13, -21063.428, 0.0, 5.007444, 4.944723 
1.5292032e+2, 2.802768e+2, -256484.61, -415511.16, -3597.497, -0.026561843, -0.20185381, -256403.27, -63254.227, 0.0, 5.008658, 4.908545 
1.5291e+2, 2.8521687e+2, -183404.17, -316395.78, -1250.9493, -0.039846104, 0.006872343, -183392.4, -38622.64, 0.0, 5.010829, 4.9243693 
1.5290433e+2, 2.9014832e+2, -133076.27, -266182.28, -796.8935, -0.026342649, 0.046711832, -133071.48, -36588.984, 0.0, 5.0112543, 4.9243665 
1.5289916e+2, 2.9507902e+2, -82685.016, -216055.25, -638.2435, -0.013319799, 0.07652459, -82681.96, -34479.473, 0.0, 5.0115886, 4.924363 
1.5289366e+2, 3.000189e+2, -19742.236, -105503.05, -539.09503, -0.016829416, 0.06895101, -19738.848, -19738.848, 0.0, 5.0122933, 4.955105 
1.5288815e+2, 3.0497602e+2, -1518.0797, -71875.78, 1486.9065, -0.07617968, -0.060790744, -1486.6702, -1486.6702, 0.0, 5.0142775, 4.9651184 
1.528843e+2, 3.0994037e+2, 5740.1094, -64630.086, 3563.7483, -0.13610145, -0.18568142, 5920.1274, 5920.1274, 0.0, 5.016214, 4.9666533 
1.5288186e+2, 3.1490755e+2, 13218.013, -57615.574, 5446.428, -0.19155686, -0.30177698, 13634.345, 13634.345, 0.0, 5.0180564, 4.9681907 
1.579543e+2, 1.2149561e+2, -1710505.3, -1748657.5, -114.452866, 0.004814462, -0.012163158, -1710505.0, 38839.24, 0.0, 5.0146146, 4.989765 
1.579547e+2, 1.2648363e+2, -1666700.3, -1710692.1, -362.8579, 0.00025746028, 0.005054908, -1666697.3, 33764.254, 0.0, 5.014721, 4.9860973 
1.5795527e+2, 1.3146919e+2, -1617313.8, -1661502.1, -359.86227, -0.0019246232, -0.0011280881, -1617310.8, 34292.66, 0.0, 5.0148544, 4.986097 
1.5795586e+2, 1.3645475e+2, -1570179.1, -1616872.6, -358.8211, -0.0040882183, -0.0059984354, -1570176.4, 32569.19, 0.0, 5.0149736, 4.9845924 
1.5795633e+2, 1.414377e+2, -1527531.9, -1581177.0, -796.104, -0.0049146884, 0.0050671925, -1527520.0, 26392.377, 0.0, 5.0150204, 4.980085 
1.5795664e+2, 1.4641802e+2, -1478374.5, -1531546.4, -890.88763, -0.0025895257, 0.0027071056, -1478359.5, 26743.984, 0.0, 5.014945, 4.980313 
1.5795696e+2, 1.5139829e+2, -1429568.5, -1482617.6, -864.70593, -0.00015965421, -0.0006013696, -1429554.5, 26740.766, 0.0, 5.014863, 4.980313 
1.5795726e+2, 1.5637854e+2, -1382198.5, -1436669.0, -840.78357, 0.0022669479, -0.0034911623, -1382185.5, 25301.465, 0.0, 5.014778, 4.9793177 
1.5795724e+2, 1.6135494e+2, -1342323.8, -1406372.4, -1375.8385, 0.0042143725, 0.0004029202, -1342294.3, 16423.309, 0.0, 5.0146847, 4.97309 
1.579565e+2, 1.6632825e+2, -1293485.4, -1357381.6, -1565.6959, 0.0048971907, 0.000079082725, -1293447.0, 16534.072, 0.0, 5.01459, 4.973091 
1.579557e+2, 1.7130156e+2, -1244655.9, -1308395.0, -1591.7051, 0.005501101, -0.00020600452, -1244616.1, 16628.242, 0.0, 5.0144897, 4.9730926 
1.5795493e+2, 1.7627487e+2, -1196978.8, -1261820.0, -1621.6938, 0.006095487, -0.0000905718, -1196938.1, 15569.573, 0.0, 5.0143833, 4.972287 
1.5795387e+2, 1.8124446e+2, -1156595.1, -1230884.9, -1852.1046, 0.005167833, 0.0060179234, -1156549.0, 7257.2935, 0.0, 5.0143065, 4.966177 
1.5795225e+2, 1.8621056e+2, -1106973.8, -1180784.5, -1864.8037, 0.0010925542, -0.0003453977, -1106926.6, 8209.139, 0.0, 5.0143094, 4.9664783 
1.5795062e+2, 1.9117664e+2, -1057788.0, -1131588.0, -1812.2565, -0.0031403864, -0.0071718837, -1057743.5, 8721.504, 0.0, 5.0143056, 4.9664817 
1.5794899e+2, 1.9614275e+2, -1009524.0, -1084322.9, -1763.9467, -0.0074314554, -0.0137371095, -1009482.44, 8311.795, 0.0, 5.0142913, 4.965834 
1.579475e+2, 2.0110554e+2, -970306.5, -1056353.6, -2056.8616, -0.008744131, -0.0076327207, -970257.4, -1099.792, 0.0, 5.014228, 4.958631 
1.5794629e+2, 2.060651e+2, -921350.9, -1006979.5, -2184.6694, -0.0036296807, -0.0021430345, -921295.2, -738.03906, 0.0, 5.0140686, 4.958736 
1.579451e+2, 2.1102466e+2, -872583.6, -957931.2, -2220.7195, 0.0016080732, 0.0027025426, -872525.9, -568.6894, 0.0, 5.0138917, 4.95874 
1.579439e+2, 2.1598423e+2, -824520.3, -910354.9, -2262.6, 0.0068036, 0.007675933, -824460.7, -1103.4843, 0.0, 5.0137, 4.9582453 
1.5794267e+2, 2.2093983e+2, -784401.8, -880002.4, -2369.3574, 0.011881012, 0.015926871, -784343.1, -9549.771, 0.0, 5.013471, 4.951839 
1.5794122e+2, 2.2589096e+2, -734804.25, -828437.0, -2290.476, 0.016564371, -0.0025742543, -734748.25, -8482.563, 0.0, 5.0131354, 4.9527445 
1.5793975e+2, 2.3084207e+2, -686473.06, -779566.5, -2149.1328, 0.021134933, -0.022863243, -686423.5, -8685.938, 0.0, 5.0127764, 4.952744 
1.5793827e+2, 2.3579319e+2, -638826.4, -732154.94, -2004.6453, 0.025642749, -0.04314586, -638783.4, -9573.875, 0.0, 5.012403, 4.952242 
1.5793665e+2, 2.4074215e+2, -601024.7, -706683.4, -1499.9069, 0.026612997, -0.035317793, -601003.4, -20296.877, 0.0, 5.012041, 4.944095 
1.5793431e+2, 2.4569042e+2, -551376.94, -656179.9, -1289.5923, 0.016427971, -0.0014081812, -551361.06, -19137.316, 0.0, 5.0119233, 4.9444857 
1.579319e+2, 2.506387e+2, -502105.7, -606834.6, -1108.4319, 0.0050973753, 0.031407647, -502093.94, -18351.861, 0.0, 5.011842, 4.9444823 
1.579295e+2, 2.55587e+2, -453058.03, -558044.94, -926.84973, -0.0065641957, 0.06469495, -453049.84, -17789.834, 0.0, 5.0117617, 4.9442806 
1.5792757e+2, 2.6052892e+2, -410606.9, -523902.53, 1334.6423, -0.020383019, 0.0853546, -410591.2, -23761.824, 0.0, 5.011637, 4.9386525 
1.5793064e+2, 2.6546553e+2, -355262.63, -453407.0, 4616.484, -0.002128479, -0.040195543, -355045.94, -16638.973, 0.0, 5.0098743, 4.9462333 
1.57935e+2, 2.7040225e+2, -311807.2, -407088.06, 7358.142, 0.022402331, -0.19114515, -311242.3, -21263.723, 0.0, 5.0073905, 4.946193 
1.5793985e+2, 2.7533826e+2, -269431.22, -361439.22, 10427.3125, 0.046308745, -0.3512107, -268264.28, -26707.248, 0.0, 5.0044513, 4.9461083 
1.5793478e+2, 2.8028178e+2, -273302.1, -428865.84, 3442.742, 0.0058727055, -0.21311365, -273225.94, -80148.414, 0.0, 5.003936, 4.905883 
1.5792322e+2, 2.8522325e+2, -194724.53, -322092.66, 3734.5613, -0.023756996, 0.023248842, -194615.13, -49922.176, 0.0, 5.0072675, 4.923584 
1.5791772e+2, 2.9015464e+2, -140082.06, -270395.6, 2652.4004, -0.008326718, 0.06500742, -140028.11, -43611.656, 0.0, 5.0092325, 4.9234643 
1.5791267e+2, 2.9508516e+2, -86743.18, -219387.36, 1755.8678, 0.0040978086, 0.09670238, -86719.94, -38571.742, 0.0, 5.010629, 4.923345 
1.5790705e+2, 3.0002326e+2, -22429.795, -109051.125, 1231.6116, -0.008141733, 0.080881074, -22412.287, -22412.287, 0.0, 5.011876, 4.9537983 
1.5790227e+2, 3.0497813e+2, -2514.766, -68034.984, 3145.031, -0.08607901, -0.09425364, -2364.148, -2364.148, 0.0, 5.0131288, 4.966625 
1.5789942e+2, 3.0994087e+2, -330.1533, -62894.71, 4593.2427, -0.16663219, -0.2743764, 5.266237, 5.266237, 0.0, 5.0131598, 4.9681726 
1.5789784e+2, 3.1490603e+2, -749.9934, -59175.395, 5032.383, -0.2472732, -0.45100677, -319.7058, -319.7058, 0.0, 5.012061, 4.969718 
1.6296913e+2, 1.2149458e+2, -1709373.3, -1748375.5, 489.94473, 0.0047303014, -0.012700456, -1709367.1, 39985.51, 0.0, 5.0150523, 4.9896407 
1.6296929e+2, 1.26482e+2, -1665501.8, -1710232.1, 20.005213, -0.003397687, -0.0008441736, -1665501.8, 34974.566, 0.0, 5.015152, 4.9860353 
1.6297014e+2, 1.3146773e+2, -1616403.4, -1661191.5, -89.57873, -0.0036204862, -0.0045969314, -1616403.1, 35213.594, 0.0, 5.015191, 4.9860334 
1.6297099e+2, 1.3645345e+2, -1569514.0, -1616689.5, -198.27376, -0.0037265064, -0.0071016024, -1569513.1, 33244.355, 0.0, 5.0152297, 4.9845276 
1.6297162e+2, 1.4143649e+2, -1527000.5, -1581078.1, -841.6106, -0.0032949464, 0.005675995, -1526987.4, 26936.166, 0.0, 5.0152326, 4.9800143 
1.629718e+2, 1.464168e+2, -1477885.8, -1531469.0, -1113.2131, -0.0014836126, 0.0037287306, -1477862.6, 27252.832, 0.0, 5.015144, 4.980242 
1.6297197e+2, 1.5139703e+2, -1429115.9, -1482554.3, -1241.966, 0.00041800612, 0.00083261443, -1429087.1, 27220.797, 0.0, 5.0150504, 4.9802427 
1.6297214e+2, 1.5637726e+2, -1381772.4, -1436614.4, -1371.8856, 0.0023524445, -0.0015974039, -1381738.1, 25762.256, 0.0, 5.0149565, 4.979249 
1.6297199e+2, 1.613536e+2, -1341735.1, -1406053.5, -1961.7788, 0.0038144174, 0.002190234, -1341675.3, 17056.285, 0.0, 5.0148783, 4.9731035 
1.6297112e+2, 1.6632682e+2, -1292741.1, -1356947.6, -2057.268, 0.004120534, 0.0006985965, -1292675.3, 17320.244, 0.0, 5.014828, 4.973122 
1.6297023e+2, 1.7130005e+2, -1243769.8, -1307897.6, -1991.3945, 0.0044227135, -0.00072576315, -1243708.0, 17551.318, 0.0, 5.014778, 4.9731226 
1.6296935e+2, 1.7627329e+2, -1195933.1, -1261251.8, -1926.2422, 0.0047759903, -0.0017065841, -1195876.4, 16646.625, 0.0, 5.0147276, 4.9723153 
1.6296823e+2, 1.8124285e+2, -1155522.5, -1230276.9, -2087.3845, 0.0039717886, 0.0037552682, -1155464.3, 8357.289, 0.0, 5.0146537, 4.9662175 
1.6296665e+2, 1.8620907e+2, -1106410.5, -1180456.8, -2174.8162, 0.001089093, -0.001679779, -1106346.8, 8803.239, 0.0, 5.014492, 4.966502 
1.6296507e+2, 1.911753e+2, -1057705.3, -1131484.3, -2201.057, -0.0017206784, -0.007326213, -1057639.6, 8838.4, 0.0, 5.014324, 4.966506 
1.629635e+2, 1.9614154e+2, -1009888.0, -1084426.3, -2229.1284, -0.0044201105, -0.012574618, -1009821.44, 7984.54, 0.0, 5.0141554, 4.96586 
1.6296197e+2, 2.0110442e+2, -971021.94, -1056687.6, -2587.4446, -0.004746824, -0.0057303417, -970943.9, -1775.2642, 0.0, 5.01398, 4.9586296 
1.6296051e+2, 2.060639e+2, -922203.94, -1007414.8, -2683.1875, -0.00052808184, -0.0010336614, -922119.5, -1550.2551, 0.0, 5.01378, 4.9587183 
1.6295904e+2, 2.1102338e+2, -873508.3, -958400.1, -2674.7017, 0.0038872245, 0.003140812, -873424.1, -1453.7579, 0.0, 5.0135794, 4.9587216 
1.6295758e+2, 2.1598287e+2, -825474.8, -910838.94, -2667.812, 0.008445074, 0.007632926, -825391.5, -2020.2019, 0.0, 5.0133777, 4.9582257 
1.6295607e+2, 2.209385e+2, -784999.0, -880071.1, -2689.1924, 0.012814684, 0.015879383, -784923.0, -10115.78, 0.0, 5.0132227, 4.951929 
1.6295433e+2, 2.2588986e+2, -734720.4, -828188.6, -2736.6511, 0.016565237, -0.0010425587, -734640.3, -8363.148, 0.0, 5.013128, 4.9528346 
1.6295256e+2, 2.308412e+2, -685651.2, -778969.5, -2759.338, 0.020314977, -0.019842343, -685569.6, -7822.9287, 0.0, 5.0130286, 4.952837 
1.6295078e+2, 2.3579252e+2, -637228.8, -731198.7, -2785.11, 0.024091294, -0.038917948, -637146.4, -7929.8135, 0.0, 5.0129285, 4.9523373 
1.6294885e+2, 2.407414e+2, -599210.8, -705336.7, -2566.701, 0.024971595, -0.03303701, -599148.8, -18434.738, 0.0, 5.012599, 4.944295 
1.6294631e+2, 2.456894e+2, -551276.7, -655641.3, -2426.8247, 0.017166246, -0.003834185, -551220.3, -18985.568, 0.0, 5.011898, 4.944662 
1.6294378e+2, 2.5063753e+2, -503742.94, -607065.2, -2258.845, 0.008922311, 0.0258323, -503693.56, -19938.396, 0.0, 5.0112042, 4.944666 
1.6294132e+2, 2.5558582e+2, -456446.6, -559045.0, -2088.8853, 0.0008322259, 0.056976635, -456404.1, -21129.934, 0.0, 5.0105014, 4.9444723 
1.6293943e+2, 2.6052865e+2, -415092.63, -523120.38, -268.56778, -0.006817579, 0.08071569, -415091.94, -28256.398, 0.0, 5.0096083, 4.9397874 
1.6294274e+2, 2.6546767e+2, -360794.13, -451544.6, -738.5144, 0.030720577, -0.03170695, -360788.13, -22398.504, 0.0, 5.007309, 4.947902 
1.6294748e+2, 2.7040726e+2, -316908.0, -403690.9, -2586.9346, 0.08021777, -0.17111258, -316830.94, -26897.205, 0.0, 5.0047936, 4.9483275 
1.6295293e+2, 2.753466e+2, -272895.94, -356083.9, -4751.983, 0.13336907, -0.32122695, -272625.38, -31145.547, 0.0, 5.0022435, 4.948706 
1.6294861e+2, 2.802913e+2, -268743.88, -420863.2, -8806.052, 0.10545087, -0.21040879, -268235.8, -75246.195, 0.0, 5.0041566, 4.9090195 
1.6293691e+2, 2.8522956e+2, -193852.78, -327927.06, -3065.6433, 0.044261258, 0.0049793157, -193782.72, -49145.938, 0.0, 5.0083437, 4.9219866 
1.629313e+2, 2.9015863e+2, -140032.13, -274580.5, -1754.3706, 0.035761293, 0.050241653, -140009.25, -43625.89, 0.0, 5.0099115, 4.9223557 
1.6292639e+2, 2.9508704e+2, -86143.01, -221392.17, -848.0691, 0.029698702, 0.08184942, -86137.695, -38001.113, 0.0, 5.011386, 4.9227247 
1.6292144e+2, 3.00024e+2, -18872.15, -104716.35, -621.4234, 0.0054966644, 0.06553407, -18867.652, -18867.652, 0.0, 5.0130157, 4.954979 
1.6291948e+2, 3.0497918e+2, 2607.7332, -61559.473, -2234.855, -0.057262182, -0.10839898, 2685.4758, 2685.4758, 0.0, 5.0146904, 4.968567 
1.6292042e+2, 3.0994368e+2, 8411.645, -55472.79, -3014.821, -0.105772495, -0.26532122, 8553.604, 8553.604, 0.0, 5.016146, 4.9700356 
1.6292316e+2, 3.1491253e+2, 14505.645, -49679.793, -3556.8438, -0.14250751, -0.39186564, 14702.1455, 14702.1455, 0.0, 5.017505, 4.9715056 
1.679841e+2, 1.2149462e+2, -1709923.3, -1749527.6, 948.76013, 0.0035660297, -0.0051828516, -1709900.5, 39449.082, 0.0, 5.0150566, 4.9892626 
1.6798392e+2, 1.2647994e+2, -1665674.6, -1710622.9, 44.116, -0.0086830575, -0.012685593, -1665674.5, 34820.016, 0.0, 5.0151567, 4.9859066 
1.679851e+2, 1.3146609e+2, -1616576.4, -1661576.8, -61.4621, -0.0059356247, -0.010921578, -1616576.4, 35054.813, 0.0, 5.0151954, 4.9859066 
1.6798629e+2, 1.3645224e+2, -1569687.4, -1617069.4, -166.15033, -0.003138883, -0.007898375, -1569686.8, 33081.207, 0.0, 5.0152326, 4.984402 
1.6798708e+2, 1.4143553e+2, -1527216.1, -1581528.8, -887.0646, -0.0011327143, 0.008560309, -1527201.8, 26730.59, 0.0, 5.0152335, 4.979866 
1.6798706e+2, 1.4641564e+2, -1478114.1, -1531948.0, -1183.3265, -0.00041458278, 0.0064194137, -1478088.1, 27038.645, 0.0, 5.015145, 4.9800835 
1.6798702e+2, 1.5139568e+2, -1429340.9, -1483030.4, -1310.3767, 0.00030224852, 0.0031868215, -1429309.0, 27013.02, 0.0, 5.0150514, 4.980085 
1.6798697e+2, 1.563757e+2, -1381994.1, -1437088.0, -1438.5763, 0.0010362361, 0.00039804238, -1381956.6, 25560.717, 0.0, 5.0149584, 4.979091 
1.6798665e+2, 1.613519e+2, -1341662.0, -1405905.0, -2010.9478, 0.001528128, 0.0033028477, -1341599.1, 17151.262, 0.0, 5.0148787, 4.973153 
1.6798571e+2, 1.6632508e+2, -1292609.0, -1356675.6, -2096.0654, 0.0014991944, 0.0006423374, -1292540.5, 17473.203, 0.0, 5.0148287, 4.9732137 
1.6798472e+2, 1.7129828e+2, -1243635.3, -1307622.6, -2026.9861, 0.0014760735, -0.0019009382, -1243571.1, 17705.715, 0.0, 5.014779, 4.9732146 
1.6798376e+2, 1.762715e+2, -1195796.1, -1260973.9, -1958.6206, 0.0014770228, -0.0040222476, -1195737.4, 16802.441, 0.0, 5.0147295, 4.9724083 
1.6798264e+2, 1.8124111e+2, -1155467.5, -1230167.9, -2182.273, 0.0013331316, 0.001004938, -1155403.9, 8433.601, 0.0, 5.014654, 4.966255 
1.679812e+2, 1.8620746e+2, -1106427.1, -1180510.3, -2295.9116, 0.0015216254, -0.0026790595, -1106356.0, 8808.928, 0.0, 5.014494, 4.9664855 
1.6797976e+2, 1.9117385e+2, -1057714.1, -1131532.6, -2316.8562, 0.0018331687, -0.006480665, -1057641.5, 8850.68, 0.0, 5.014328, 4.9664903 
1.6797833e+2, 1.9614026e+2, -1009889.25, -1084469.8, -2339.6123, 0.0022018352, -0.009937585, -1009815.94, 8003.29, 0.0, 5.014161, 4.9658446 
1.6797678e+2, 2.0110318e+2, -970985.3, -1056616.8, -2737.6604, 0.0031208037, -0.002703219, -970897.9, -1715.9689, 0.0, 5.0139804, 4.9586554 
1.679748e+2, 2.0606248e+2, -922169.4, -1007348.8, -2834.1482, 0.0042902855, 0.00011613487, -922075.2, -1491.2231, 0.0, 5.0137806, 4.958743 
1.6797279e+2, 2.1102178e+2, -873463.9, -958326.6, -2818.9395, 0.005410536, 0.0023676984, -873370.4, -1383.8331, 0.0, 5.013582, 4.9587474 
1.679708e+2, 2.1598108e+2, -825420.5, -910758.0, -2805.309, 0.006608781, 0.0048587746, -825328.4, -1939.4802, 0.0, 5.0133834, 4.9582524 
1.6796882e+2, 2.209367e+2, -784886.25, -879827.3, -2786.7861, 0.007922778, 0.012234415, -784804.56, -9979.594, 0.0, 5.013223, 4.9520135 
1.6796687e+2, 2.258885e+2, -734718.3, -828185.4, -2814.697, 0.010495139, -0.000296797, -734633.6, -8342.56, 0.0, 5.013128, 4.9528384 
1.6796492e+2, 2.308403e+2, -685639.44, -778962.7, -2826.044, 0.0132256225, -0.014184167, -685553.94, -7797.3535, 0.0, 5.013031, 4.952841 
1.6796297e+2, 2.3579209e+2, -637207.5, -731188.44, -2840.4678, 0.015923727, -0.028365012, -637121.7, -7899.3413, 0.0, 5.012934, 4.9523416 
1.6796084e+2, 2.4074103e+2, -598923.9, -704867.75, -2990.4365, 0.017328683, -0.022837749, -598839.56, -18119.598, 0.0, 5.0126224, 4.9444494 
1.6795813e+2, 2.4568811e+2, -550990.25, -655209.7, -3000.046, 0.015195828, -0.0041159815, -550904.0, -18654.768, 0.0, 5.0119247, 4.944804 
1.6795541e+2, 2.5063536e+2, -503475.53, -606636.3, -2816.7744, 0.012828453, 0.015176071, -503398.7, -19620.441, 0.0, 5.011224, 4.9448104 
1.6795278e+2, 2.5558272e+2, -456198.1, -558618.8, -2631.4922, 0.010432951, 0.035985976, -456130.53, -20824.832, 0.0, 5.0105143, 4.944618 
1.6795042e+2, 2.6052603e+2, -414512.94, -522152.38, -1374.8313, 0.007258867, 0.060001075, -414495.38, -27631.785, 0.0, 5.0096474, 4.940177 
1.679521e+2, 2.6546773e+2, -360854.88, -453582.1, -1893.9843, 0.042234335, -0.013327258, -360816.2, -22419.063, 0.0, 5.0075583, 4.947292 
1.6795501e+2, 2.7040952e+2, -316353.53, -405995.25, -3394.721, 0.086289436, -0.11350377, -316225.16, -26298.928, 0.0, 5.0052676, 4.9475603 
1.6795856e+2, 2.7535066e+2, -271726.2, -358656.88, -5211.8613, 0.13159037, -0.22767863, -271414.8, -29953.227, 0.0, 5.002942, 4.947781 
1.6795416e+2, 2.8029305e+2, -262399.72, -403284.9, -7773.349, 0.10140422, -0.15983213, -261972.13, -68974.24, 0.0, 5.0037704, 4.9151936 
1.6794506e+2, 2.8522843e+2, -196689.63, -325307.16, -2892.1836, 0.047820676, 0.00019174675, -196624.63, -51956.535, 0.0, 5.00716, 4.9232397 
1.6794139e+2, 2.901568e+2, -142168.78, -272263.75, -1167.0326, 0.0417051, 0.039086685, -142158.31, -45743.332, 0.0, 5.00897, 4.923439 
1.6793835e+2, 2.9508412e+2, -87582.35, -219379.53, 152.59416, 0.03456072, 0.06131132, -87582.17, -39409.895, 0.0, 5.0106864, 4.923639 
1.6793561e+2, 3.0002198e+2, -17916.334, -99093.02, 1247.7091, 0.009576807, 0.045300692, -17897.162, -17897.162, 0.0, 5.0125346, 4.9570704 
1.679372e+2, 3.049791e+2, 1691.462, -60431.38, 558.52704, -0.03641867, -0.10529448, 1696.4832, 1696.4832, 0.0, 5.0142136, 4.96924 
1.6794163e+2, 3.0994427e+2, 7693.143, -53201.004, 647.11224, -0.07068751, -0.24249882, 7700.019, 7700.019, 0.0, 5.0156155, 4.9710464 
1.6794764e+2, 3.149141e+2, 13984.483, -46265.453, 973.24084, -0.09979671, -0.35252213, 14000.201, 14000.201, 0.0, 5.01692, 4.9728546 
1.729991e+2, 1.2149463e+2, -1710413.8, -1750555.6, 1412.2015, 0.0027968967, 0.0021230497, -1710364.1, 38982.848, 0.0, 5.015061, 4.9889245 
1.7299856e+2, 1.264779e+2, -1665848.8, -1711012.6, 65.93855, -0.0138916895, -0.024407277, -1665848.8, 34664.06, 0.0, 5.015162, 4.985778 
1.7300008e+2, 1.3146448e+2, -1616750.9, -1661961.0, -35.63357, -0.008198618, -0.017167713, -1616750.9, 34894.664, 0.0, 5.015199, 4.985779 
1.7300159e+2, 1.3645104e+2, -1569862.1, -1617448.1, -136.31522, -0.0025237051, -0.008657861, -1569861.8, 32916.723, 0.0, 5.015236, 4.984276 
1.7300253e+2, 1.4143455e+2, -1527439.5, -1581994.6, -935.3152, 0.0010387464, 0.011488471, -1527423.5, 26517.441, 0.0, 5.0152345, 4.979712 
1.7300232e+2, 1.4641449e+2, -1478342.9, -1532427.0, -1253.3956, 0.00066849333, 0.009131118, -1478313.9, 26824.217, 0.0, 5.0151453, 4.979925 
1.7300206e+2, 1.5139432e+2, -1429566.3, -1483506.5, -1378.7428, 0.0002005681, 0.0055259583, -1429531.1, 26805.008, 0.0, 5.015053, 4.9799266 
1.7300181e+2, 1.5637414e+2, -1382216.1, -1437561.5, -1505.2223, -0.00026586337, 0.002342329, -1382175.3, 25358.945, 0.0, 5.0149603, 4.978933 
1.7300132e+2, 1.6135019e+2, -1341607.4, -1405794.3, -2063.5962, -0.00070667855, 0.0045131384, -1341541.1, 17227.996, 0.0, 5.014879, 4.97319 
1.7300028e+2, 1.6632333e+2, -1292477.6, -1356403.5, -2135.2854, -0.0010825783, 0.00067754753, -1292406.4, 17625.559, 0.0, 5.014829, 4.9733043 
1.7299922e+2, 1.712965e+2, -1243501.4, -1307347.5, -2063.0005, -0.0014589515, -0.0030496821, -1243434.8, 17859.527, 0.0, 5.0147805, 4.973306 
1.7299816e+2, 1.762697e+2, -1195659.8, -1260695.6, -1991.4222, -0.0018382792, -0.006376513, -1195598.9, 16957.69, 0.0, 5.014731, 4.972501 
1.7299704e+2, 1.8123935e+2, -1155434.0, -1230102.9, -2281.8394, -0.0012438488, -0.0016407343, -1155364.3, 8488.995, 0.0, 5.0146546, 4.9662776 
1.7299576e+2, 1.8620588e+2, -1106444.9, -1180563.1, -2416.6536, 0.002022695, -0.0035972868, -1106366.1, 8813.798, 0.0, 5.014496, 4.966468 
1.7299448e+2, 1.9117242e+2, -1057724.1, -1131580.5, -2432.302, 0.0054224585, -0.005657373, -1057644.1, 8862.15, 0.0, 5.014332, 4.9664736 
1.729932e+2, 1.9613898e+2, -1009891.56, -1084512.5, -2449.742, 0.008826128, -0.007426111, -1009811.25, 8021.2383, 0.0, 5.014167, 4.9658284 
1.7299157e+2, 2.0110194e+2, -970989.5, -1056632.3, -2900.5046, 0.011090508, 0.0005527152, -970891.4, -1696.3782, 0.0, 5.013981, 4.958651 
1.7298909e+2, 2.060611e+2, -922136.2, -1007282.0, -2985.5078, 0.009220116, 0.0015379624, -922031.6, -1433.1492, 0.0, 5.013781, 4.9587665 
1.7298655e+2, 2.110202e+2, -873420.75, -958252.3, -2963.5757, 0.0069948337, 0.00172049, -873317.4, -1314.8469, 0.0, 5.013585, 4.958772 
1.7298403e+2, 2.1597931e+2, -825367.56, -910676.2, -2943.2048, 0.004783006, 0.0020644178, -825266.1, -1859.681, 0.0, 5.0133886, 4.9582787 
1.7298159e+2, 2.2093491e+2, -784836.25, -879719.25, -2895.6846, 0.0030757138, 0.008690251, -784747.94, -9905.287, 0.0, 5.0132236, 4.9520507 
1.7297941e+2, 2.2588713e+2, -734717.8, -828181.3, -2891.275, 0.0044435766, 0.00041958457, -734628.44, -8323.348, 0.0, 5.0131273, 4.95284 
1.7297727e+2, 2.3083939e+2, -685629.25, -778955.1, -2891.282, 0.0060871183, -0.008825004, -685539.75, -7773.081, 0.0, 5.013034, 4.952842 
1.7297512e+2, 2.3579162e+2, -637187.6, -731177.4, -2894.3567, 0.007639328, -0.018380692, -637098.56, -7870.0913, 0.0, 5.0129395, 4.952343 
1.7297284e+2, 2.4074069e+2, -598702.9, -704525.56, -3391.7725, 0.009729832, -0.012128606, -598594.25, -17868.922, 0.0, 5.012646, 4.9445577 
1.7296995e+2, 2.456869e+2, -550717.56, -654764.75, -3576.6785, 0.013269637, -0.0034684115, -550594.75, -18331.912, 0.0, 5.0119514, 4.944946 
1.7296706e+2, 2.506332e+2, -503221.8, -606194.1, -3378.1204, 0.016655702, 0.0051577226, -503111.1, -19310.506, 0.0, 5.011244, 4.944954 
1.7296422e+2, 2.555797e+2, -455963.28, -558179.2, -3177.5208, 0.019831661, 0.015341754, -455864.6, -20527.842, 0.0, 5.010527, 4.9447637 
1.7296126e+2, 2.60523e+2, -414513.78, -522382.97, -2359.4985, 0.019333905, 0.0376189, -414462.2, -27566.504, 0.0, 5.0096874, 4.940102 
1.7296152e+2, 2.65467e+2, -360977.34, -455572.88, -2792.5845, 0.051589385, -0.0034264238, -360895.0, -22482.03, 0.0, 5.0078077, 4.946586 
1.72963e+2, 2.7041072e+2, -315860.0, -408251.6, -3944.9573, 0.091099754, -0.07111361, -315691.84, -25762.768, 0.0, 5.0057425, 4.9466963 
1.7296502e+2, 2.7535337e+2, -270616.63, -361180.4, -5413.52, 0.1294462, -0.15608665, -270294.16, -28838.344, 0.0, 5.003642, 4.9467597 
1.7295931e+2, 2.8029492e+2, -259663.17, -393980.38, -8662.079, 0.096918486, -0.10461749, -259106.86, -66101.65, 0.0, 5.003387, 4.918483 
1.72952e+2, 2.852284e+2, -199674.14, -322546.22, -2403.0837, 0.0515593, 0.019299123, -199627.16, -54938.848, 0.0, 5.005978, 4.924422 
1.729507e+2, 2.9015586e+2, -144451.69, -269806.03, -264.88495, 0.04908169, 0.04503913, -144451.13, -48013.44, 0.0, 5.0080295, 4.9244514 
1.7294994e+2, 2.9508188e+2, -89166.57, -217225.92, 1467.1975, 0.042108815, 0.05109045, -89149.766, -40948.555, 0.0, 5.0099874, 4.924482 
1.7294948e+2, 3.0001944e+2, -17705.973, -94753.37, 3022.865, 0.015141774, 0.022691457, -17587.555, -17587.555, 0.0, 5.0120535, 4.95861 
1.7295396e+2, 3.049771e+2, 623.9264, -59159.1, 2920.8333, -0.022334652, -0.12586837, 766.2912, 766.2912, 0.0, 5.013737, 4.9697256 
1.7296119e+2, 3.0994222e+2, 6823.3906, -50787.758, 3876.9973, -0.050919972, -0.2634311, 7083.1255, 7083.1255, 0.0, 5.0150843, 4.9718685 
1.7296977e+2, 3.149122e+2, 13311.906, -42712.64, 5069.839, -0.08096069, -0.37701496, 13766.995, 13766.995, 0.0, 5.016335, 4.9740143 
1.7801416e+2, 1.21494584e+2, -1710715.0, -1751386.5, 1726.4662, 0.0025292907, 0.009185542, -1710641.8, 38703.137, 0.0, 5.0151086, 4.9886284 
1.7801325e+2, 1.2647587e+2, -1665899.3, -1711330.0, -36.23182, -0.018895825, -0.035855573, -1665899.1, 34631.715, 0.0, 5.0152082, 4.9856505 
1.7801505e+2, 1.3146286e+2, -1616833.1, -1662290.5, -107.509605, -0.010360998, -0.023256818, -1616832.9, 34827.023, 0.0, 5.015234, 4.985653 
1.7801689e+2, 1.3644983e+2, -1570008.4, -1617805.4, -183.92593, -0.0018850865, -0.009373175, -1570007.6, 32781.395, 0.0, 5.0152483, 4.9841514 
1.7801797e+2, 1.4143358e+2, -1527693.0, -1582482.8, -1042.1873, 0.0031988893, 0.014418665, -1527673.1, 26276.568, 0.0, 5.0152273, 4.9795547 
1.7801757e+2, 1.4641333e+2, -1478575.0, -1532904.1, -1359.197, 0.0017597994, 0.011823876, -1478541.0, 26608.412, 0.0, 5.015145, 4.9797673 
1.7801712e+2, 1.5139297e+2, -1429785.4, -1483976.3, -1465.2065, 0.0001299775, 0.007824155, -1429745.8, 26604.457, 0.0, 5.015056, 4.979769 
1.7801666e+2, 1.5637259e+2, -1382434.5, -1438029.9, -1574.2946, -0.0015064918, 0.0042343973, -1382390.0, 25161.102, 0.0, 5.014963, 4.9787755 
1.7801599e+2, 1.6134848e+2, -1341573.8, -1405722.4, -2112.408, -0.0028251647, 0.0058392053, -1341504.3, 17283.475, 0.0, 5.014879, 4.9732137 
1.7801486e+2, 1.6632159e+2, -1292357.6, -1356138.3, -2176.8923, -0.0035766254, 0.0008205182, -1292283.4, 17766.553, 0.0, 5.014827, 4.973393 
1.7801371e+2, 1.7129475e+2, -1243407.8, -1307093.5, -2115.6929, -0.004340371, -0.004150055, -1243337.5, 17974.125, 0.0, 5.0147686, 4.973396 
1.7801258e+2, 1.762679e+2, -1195613.6, -1260462.6, -2059.1812, -0.0051222127, -0.008733738, -1195548.4, 17025.02, 0.0, 5.0147033, 4.972591 
1.7801145e+2, 1.8123761e+2, -1155532.1, -1230131.3, -2430.2842, -0.0037168586, -0.0041447664, -1155453.0, 8416.087, 0.0, 5.0146174, 4.9662857 
1.7801031e+2, 1.8620428e+2, -1106513.6, -1180635.4, -2573.8223, 0.002596061, -0.0044207056, -1106424.4, 8770.402, 0.0, 5.0144806, 4.9664507 
1.7800918e+2, 1.9117099e+2, -1057766.4, -1131639.4, -2583.3538, 0.009033335, -0.0048441314, -1057676.1, 8844.184, 0.0, 5.014325, 4.9664564 
1.7800803e+2, 1.961377e+2, -1009952.9, -1084579.3, -2601.6057, 0.015443665, -0.005006951, -1009862.3, 7983.434, 0.0, 5.0141535, 4.9658117 
1.7800638e+2, 2.0110075e+2, -971103.25, -1056762.4, -3115.3105, 0.01916637, 0.0040818625, -970990.1, -1782.1605, 0.0, 5.013958, 4.9586177 
1.7800339e+2, 2.0605972e+2, -922114.3, -1007217.06, -3161.4082, 0.014274322, 0.0032562637, -921997.0, -1384.3049, 0.0, 5.013779, 4.958789 
1.7800033e+2, 2.1101864e+2, -873369.1, -958171.5, -3125.1516, 0.008688006, 0.0012300496, -873254.1, -1235.8365, 0.0, 5.0135927, 4.9587955 
1.7799729e+2, 2.1597755e+2, -825325.75, -910597.7, -3097.2266, 0.0030765764, -0.0006868662, -825213.44, -1789.6776, 0.0, 5.013392, 4.9583025 
1.7799436e+2, 2.2093311e+2, -784887.7, -879763.3, -3031.2522, -0.0015627618, 0.0053283977, -784790.94, -9930.58, 0.0, 5.013211, 4.9520407 
1.7799197e+2, 2.2588575e+2, -734791.75, -828206.2, -2983.954, -0.0014412679, 0.0011217351, -734696.56, -8377.318, 0.0, 5.013102, 4.9528403 
1.7798963e+2, 2.3083845e+2, -685784.25, -779013.6, -2972.5833, -0.00094147405, -0.003800413, -685689.6, -7912.6104, 0.0, 5.012979, 4.952844 
1.779873e+2, 2.3579113e+2, -637478.1, -731293.8, -2960.3103, -0.0005594143, -0.009030564, -637384.8, -8149.834, 0.0, 5.012836, 4.9523463 
1.779849e+2, 2.407404e+2, -598983.56, -704479.25, -3760.8916, 0.0024274522, -0.000998804, -598849.7, -18119.486, 0.0, 5.012517, 4.9446263 
1.7798185e+2, 2.456858e+2, -550732.9, -654396.3, -4087.9226, 0.011687592, -0.0019064886, -550571.94, -18296.459, 0.0, 5.0118847, 4.945093 
1.7797875e+2, 2.506312e+2, -503015.2, -605718.2, -3815.2422, 0.020842284, -0.004020036, -502873.66, -19051.814, 0.0, 5.0112586, 4.945103 
1.7797571e+2, 2.555768e+2, -455487.25, -557574.56, -3541.274, 0.029696872, -0.004403557, -455364.56, -19998.102, 0.0, 5.0106425, 4.944915 
1.7797205e+2, 2.6051962e+2, -415004.63, -523555.03, -2827.7446, 0.030674305, 0.014388321, -414931.0, -28000.51, 0.0, 5.0097523, 4.93964 
1.7797126e+2, 2.654656e+2, -364577.84, -458498.3, -1945.9558, 0.062273312, -0.0016168357, -364537.53, -26102.695, 0.0, 5.0068107, 4.945971 
1.779718e+2, 2.7041128e+2, -324860.5, -413856.7, -782.0548, 0.10159569, -0.04390369, -324853.63, -34915.457, 0.0, 5.0028105, 4.9460015 
1.7797285e+2, 2.7535558e+2, -287270.94, -370445.38, 900.7386, 0.13847129, -0.10660676, -287261.2, -45805.82, 0.0, 4.9979644, 4.945985 
1.7796479e+2, 2.8029785e+2, -284681.25, -403711.4, -2102.5732, 0.1072316, -0.04513936, -284644.13, -91642.33, 0.0, 4.994437, 4.9189286 
1.7795824e+2, 2.852303e+2, -217693.28, -327136.16, 5925.413, 0.06571071, 0.061962508, -217373.4, -72683.56, 0.0, 4.9995503, 4.9253235 
1.7795952e+2, 2.9015636e+2, -153613.53, -270835.1, 6140.153, 0.06336635, 0.06786007, -153292.78, -56846.61, 0.0, 5.00473, 4.9252453 
1.779613e+2, 2.9508066e+2, -92433.99, -216025.23, 6469.0806, 0.054633737, 0.05091048, -92096.305, -43876.28, 0.0, 5.008788, 4.925168 
1.7796318e+2, 3.0001664e+2, -17929.36, -91518.805, 6801.706, 0.02309754, -0.0024911836, -17305.975, -17305.975, 0.0, 5.011727, 4.9596505 
1.7796995e+2, 3.0497363e+2, -4083.345, -58959.535, 6221.165, -0.01230929, -0.16800408, -3386.9067, -3386.9067, 0.0, 5.0120406, 4.9701443 
1.7797948e+2, 3.0993837e+2, -6013.409, -53003.39, 6978.4434, -0.039149966, -0.32074955, -4998.9473, -4998.9473, 0.0, 5.0103087, 4.9726253 
1.7799021e+2, 3.149084e+2, -11939.192, -49169.75, 7514.3545, -0.071394235, -0.44989005, -10479.757, -10479.757, 0.0, 5.0069065, 4.975111 
1.8302959e+2, 1.21493295e+2, -1707748.9, -1750688.8, 1130.1403, -0.00053527276, 0.011437082, -1707719.1, 41638.938, 0.0, 5.016254, 4.9882903 
1.8302919e+2, 1.2647486e+2, -1663381.8, -1710174.0, -875.3955, -0.016026013, -0.030192012, -1663365.4, 37176.227, 0.0, 5.016063, 4.985607 
1.8303075e+2, 1.3146155e+2, -1615052.4, -1661506.8, -890.6228, -0.00902351, -0.020141307, -1615035.4, 36637.973, 0.0, 5.015849, 4.985607 
1.8303233e+2, 1.3644823e+2, -1568926.8, -1617373.4, -905.3079, -0.0018745426, -0.00877496, -1568909.8, 33895.38, 0.0, 5.015634, 4.984103 
1.8303326e+2, 1.4143175e+2, -1527016.5, -1582237.6, -1634.7269, 0.0025248062, 0.0132624665, -1526968.3, 26999.646, 0.0, 5.015472, 4.979516 
1.8303281e+2, 1.4641143e+2, -1477778.0, -1532586.4, -1799.0298, 0.0012107396, 0.010396991, -1477719.0, 27449.041, 0.0, 5.015428, 4.979736 
1.830323e+2, 1.5139104e+2, -1428848.6, -1483591.3, -1760.8906, -0.00022869419, 0.0062505985, -1428792.0, 27577.12, 0.0, 5.015388, 4.979737 
1.8303181e+2, 1.5637062e+2, -1381346.4, -1437572.4, -1723.9069, -0.0016154695, 0.0026031195, -1381293.6, 26276.729, 0.0, 5.015348, 4.978743 
1.8303108e+2, 1.6134651e+2, -1340369.1, -1405111.6, -2190.224, -0.0027845926, 0.004394945, -1340295.1, 18511.814, 0.0, 5.015282, 4.973223 
1.8302985e+2, 1.6631971e+2, -1291378.1, -1355624.0, -2341.997, -0.0036727518, 0.000102437145, -1291292.9, 18775.285, 0.0, 5.0151515, 4.9734087 
1.830286e+2, 1.7129298e+2, -1242657.0, -1306694.0, -2371.1072, -0.0044955704, -0.0040514134, -1242569.4, 18759.547, 0.0, 5.015018, 4.97341 
1.8302734e+2, 1.7626624e+2, -1195069.1, -1260165.9, -2401.813, -0.0052461214, -0.0077582765, -1194980.6, 17608.879, 0.0, 5.0148835, 4.9726043 
1.8302612e+2, 1.8123603e+2, -1155227.3, -1230087.1, -2876.7803, -0.0036337804, -0.002276349, -1155116.9, 8767.821, 0.0, 5.0147448, 4.966238 
1.8302488e+2, 1.8620266e+2, -1106245.5, -1180652.9, -3125.5547, 0.0028351655, -0.0021485537, -1106114.5, 9096.899, 0.0, 5.0146055, 4.966384 
1.8302363e+2, 1.9116934e+2, -1057455.4, -1131642.5, -3233.2705, 0.00956538, -0.0020611268, -1057314.8, 9223.122, 0.0, 5.0144677, 4.9663873 
1.830224e+2, 1.9613604e+2, -1009554.4, -1084546.8, -3343.3147, 0.016448658, -0.0015285456, -1009405.6, 8458.469, 0.0, 5.0143294, 4.9657397 
1.830206e+2, 2.0109904e+2, -970205.75, -1056160.0, -3824.2295, 0.020371838, 0.007268016, -970035.94, -808.954, 0.0, 5.014236, 4.95869 
1.8301746e+2, 2.0605789e+2, -920778.7, -1006280.6, -3731.0847, 0.015018714, 0.003928482, -920616.2, 15.451231, 0.0, 5.014183, 4.958918 
1.8301427e+2, 2.1101671e+2, -871675.7, -957075.06, -3566.9617, 0.009170118, -0.0004737358, -871526.94, 509.88593, 0.0, 5.0141244, 4.958923 
1.830111e+2, 2.1597552e+2, -823237.3, -909325.25, -3405.5498, 0.0034947193, -0.0045792772, -823102.8, 338.96976, 0.0, 5.0140643, 4.958428 
1.83008e+2, 2.2093107e+2, -782775.6, -878872.4, -3312.775, -0.0012090324, 0.00064472074, -782661.56, -7783.742, 0.0, 5.0139627, 4.9520035 
1.830053e+2, 2.2588392e+2, -733466.8, -827887.94, -3488.32, -0.0018581492, -0.00034133065, -733338.1, -7001.7007, 0.0, 5.0136247, 4.9527106 
1.8300268e+2, 2.3083687e+2, -685144.0, -778976.56, -3711.218, -0.0019511186, -0.001572682, -684997.44, -7203.6904, 0.0, 5.0132594, 4.952724 
1.8300006e+2, 2.3578982e+2, -637461.7, -731510.4, -3942.821, -0.0018980987, -0.002946277, -637296.7, -8045.642, 0.0, 5.0128927, 4.9522357 
1.8299739e+2, 2.4073923e+2, -599069.56, -704253.1, -5060.397, 0.0014911429, 0.00704622, -598826.6, -18080.771, 0.0, 5.0124583, 4.9447055 
1.8299407e+2, 2.456843e+2, -549934.25, -653523.75, -5635.34, 0.012996409, 0.0012969831, -549628.56, -17336.285, 0.0, 5.0121, 4.9452643 
1.8299074e+2, 2.506294e+2, -501339.94, -604429.06, -5501.0947, 0.025216639, -0.0052931164, -501047.22, -17208.15, 0.0, 5.011779, 4.9452815 
1.8298757e+2, 2.5557482e+2, -452989.44, -555898.1, -5362.16, 0.03787178, -0.009098094, -452710.8, -17327.826, 0.0, 5.011448, 4.9451003 
1.8298343e+2, 2.6051772e+2, -411575.2, -521611.66, -5445.4766, 0.0424923, 0.009095553, -411306.34, -24359.955, 0.0, 5.010987, 4.9397006 
1.8298188e+2, 2.6546517e+2, -356000.78, -452686.63, -6999.8003, 0.083793685, 0.007442123, -355496.63, -17050.836, 0.0, 5.0098095, 4.946471 
1.8298209e+2, 2.704134e+2, -308108.97, -402473.25, -9182.211, 0.14379813, -0.017699346, -307223.78, -17288.486, 0.0, 5.008545, 4.9471273 
1.8298315e+2, 2.7536103e+2, -260057.16, -352593.03, -11599.679, 0.21161357, -0.062920086, -258625.27, -17194.67, 0.0, 5.007255, 4.9477367 
1.8297568e+2, 2.803061e+2, -242570.95, -382861.6, -17138.418, 0.22978182, 0.004530789, -240507.61, -47550.457, 0.0, 5.0087466, 4.920371 
1.8296944e+2, 2.852361e+2, -186154.02, -316692.22, -1529.5807, 0.16305006, 0.09113504, -186136.1, -41475.234, 0.0, 5.010568, 4.9252996 
1.8297112e+2, 2.9015946e+2, -136672.8, -265145.66, 1243.841, 0.11950281, 0.07714922, -136660.75, -40227.402, 0.0, 5.0104647, 4.9256845 
1.8297382e+2, 2.9508132e+2, -87081.79, -213723.38, 3747.3855, 0.083529666, 0.03912446, -86971.0, -38750.664, 0.0, 5.01029, 4.926071 
1.8297699e+2, 3.000166e+2, -21851.635, -90737.375, 4585.8433, 0.043205343, -0.023612829, -21547.69, -21547.69, 0.0, 5.009876, 4.961199 
1.8298554e+2, 3.0497968e+2, -11762.555, -60068.156, 1674.5403, 0.034942053, -0.123439565, -11704.575, -11704.575, 0.0, 5.0092826, 4.971349 
1.8299799e+2, 3.0995336e+2, -10467.352, -52440.83, 206.68973, 0.06028358, -0.17743038, -10466.334, -10466.334, 0.0, 5.0087957, 4.974073 
1.8301271e+2, 3.1493452e+2, -8755.336, -45233.184, -1553.085, 0.103361905, -0.18433765, -8689.331, -8689.331, 0.0, 5.0082383, 4.9768 
1.8804516e+2, 1.2149125e+2, -1708312.0, -1751887.9, 1107.3253, -0.0076371357, 0.010391233, -1708283.9, 41096.49, 0.0, 5.016261, 4.987896 
1.8804601e+2, 1.264746e+2, -1663377.6, -1710224.1, -1044.1665, -0.0087737385, -0.012792426, -1663354.4, 37192.27, 0.0, 5.0160713, 4.98559 
1.8804696e+2, 1.3146047e+2, -1615047.3, -1661547.9, -1054.5677, -0.005599394, -0.010648024, -1615023.4, 36662.418, 0.0, 5.0158563, 4.9855924 
1.8804793e+2, 1.3644636e+2, -1568920.5, -1617405.4, -1064.3552, -0.0023611723, -0.0071955007, -1568897.3, 33927.863, 0.0, 5.0156403, 4.9840913 
1.8804848e+2, 1.4142935e+2, -1526960.8, -1582132.3, -1697.3789, -0.00021340277, 0.009420673, -1526908.5, 27083.914, 0.0, 5.0154734, 4.979551 
1.8804806e+2, 1.4640905e+2, -1477699.1, -1532428.0, -1829.0741, -0.0006297467, 0.0062472653, -1477638.1, 27553.582, 0.0, 5.0154285, 4.9797883 
1.880476e+2, 1.5138867e+2, -1428769.0, -1483432.3, -1789.2792, -0.0011214691, 0.0019320231, -1428710.5, 27681.273, 0.0, 5.015389, 4.9797897 
1.8804717e+2, 1.5636829e+2, -1381265.9, -1437412.8, -1750.6283, -0.001574746, -0.0018975154, -1381211.3, 26380.494, 0.0, 5.015349, 4.9787965 
1.8804644e+2, 1.6134427e+2, -1340368.8, -1405110.4, -2273.229, -0.0020283351, 0.00036161268, -1340289.1, 18538.14, 0.0, 5.0152817, 4.9732237 
1.880451e+2, 1.6631769e+2, -1291417.5, -1355710.5, -2441.8833, -0.0025820169, -0.0015923723, -1291324.9, 18762.139, 0.0, 5.015152, 4.97338 
1.8804376e+2, 1.7129116e+2, -1242691.8, -1306777.5, -2468.2793, -0.003109194, -0.0033316228, -1242596.8, 18749.506, 0.0, 5.015019, 4.973382 
1.880424e+2, 1.7626463e+2, -1195099.3, -1260246.6, -2496.2534, -0.003598993, -0.0046548126, -1195003.8, 17601.781, 0.0, 5.014886, 4.972576 
1.8804102e+2, 1.8123452e+2, -1155373.4, -1230400.1, -2985.7874, -0.0022182376, 0.0025520308, -1155254.8, 8645.485, 0.0, 5.0147448, 4.966134 
1.880395e+2, 1.8620102e+2, -1106414.9, -1181023.3, -3226.6045, 0.0026964492, 0.0024579202, -1106275.5, 8953.613, 0.0, 5.014606, 4.9662604 
1.8803793e+2, 1.9116753e+2, -1057617.0, -1132009.1, -3330.4019, 0.0077526006, 0.0021504269, -1057468.1, 9089.918, 0.0, 5.01447, 4.966264 
1.880364e+2, 1.9613405e+2, -1009708.4, -1084909.8, -3436.5127, 0.01291027, 0.0022337837, -1009551.7, 8335.188, 0.0, 5.0143337, 4.9656167 
1.880344e+2, 2.0109686e+2, -970004.0, -1055724.3, -3866.1287, 0.01569097, 0.009310772, -969830.0, -578.29816, 0.0, 5.0142355, 4.95884 
1.8803136e+2, 2.0605566e+2, -920481.0, -1005642.5, -3771.1658, 0.011895658, 0.0032616572, -920314.3, 340.59946, 0.0, 5.0141835, 4.959138 
1.8802828e+2, 2.110144e+2, -871367.9, -956433.0, -3600.0483, 0.0077968007, -0.0037599683, -871215.75, 842.6069, 0.0, 5.0141277, 4.9591427 
1.8802522e+2, 2.1597315e+2, -822919.5, -908679.25, -3431.6367, 0.0037887213, -0.010601479, -822782.4, 679.3642, 0.0, 5.0140715, 4.958648 
1.8802214e+2, 2.2092871e+2, -782886.8, -879119.8, -3509.6702, 0.00041303446, -0.0064961216, -782758.94, -7862.295, 0.0, 5.0139627, 4.951919 
1.8801914e+2, 2.258817e+2, -733808.9, -828661.9, -3751.848, -0.00028462027, -0.0037850488, -733660.75, -7304.2197, 0.0, 5.0136256, 4.952444 
1.8801613e+2, 2.308348e+2, -685463.7, -779747.3, -3957.8655, -0.0006619357, -0.0011099335, -685297.8, -7482.41, 0.0, 5.0132666, 4.9524565 
1.8801314e+2, 2.3578785e+2, -637759.1, -732278.06, -4172.5557, -0.0009867647, 0.0013084053, -637575.3, -8300.9, 0.0, 5.012906, 4.9519663 
1.8801008e+2, 2.4073735e+2, -599019.56, -704436.3, -5272.15, 0.001572607, 0.014168893, -598756.5, -17986.799, 0.0, 5.0124884, 4.9446464 
1.8800622e+2, 2.4568225e+2, -549647.75, -653343.9, -5867.525, 0.01156428, 0.0064190957, -549316.8, -17002.379, 0.0, 5.01215, 4.945331 
1.8800232e+2, 2.5062713e+2, -501011.16, -604210.2, -5713.258, 0.022060111, -0.0032658866, -500695.8, -16836.002, 0.0, 5.0118413, 4.9453535 
1.8799855e+2, 2.5557223e+2, -452618.75, -555640.6, -5554.2876, 0.032758296, -0.010607289, -452320.16, -16917.41, 0.0, 5.0115237, 4.945178 
1.879934e+2, 2.605145e+2, -412496.47, -524835.56, -6241.212, 0.03261842, 0.004418885, -412150.78, -25178.898, 0.0, 5.0111275, 4.9385552 
1.879898e+2, 2.6546115e+2, -357363.6, -458153.2, -7562.7437, 0.054739602, 0.012038348, -356799.28, -18307.715, 0.0, 5.0100894, 4.9445453 
1.8798791e+2, 2.704085e+2, -309289.94, -408576.2, -9331.524, 0.0925793, -0.0008177648, -308420.5, -18417.117, 0.0, 5.0089498, 4.9449816 
1.879868e+2, 2.75355e+2, -261053.67, -359331.22, -11336.042, 0.13680194, -0.033322554, -259763.03, -18239.645, 0.0, 5.0077853, 4.9453707 
1.8797925e+2, 2.8029978e+2, -242617.7, -382140.78, -19435.254, 0.16612148, 0.050138887, -239961.02, -46898.41, 0.0, 5.0086393, 4.9205704 
1.8797567e+2, 2.85231e+2, -184715.52, -308998.03, -3002.4285, 0.13469304, 0.12379521, -184643.03, -39899.25, 0.0, 5.0099087, 4.927986 
1.8797919e+2, 2.901552e+2, -135238.13, -258131.56, 141.53273, 0.1048817, 0.08783459, -135237.95, -38743.156, 0.0, 5.009851, 4.928184 
1.8798366e+2, 2.9507792e+2, -85648.805, -207385.64, 3015.9387, 0.080139, 0.029596666, -85574.13, -37313.527, 0.0, 5.0097227, 4.9283834 
1.8798843e+2, 3.0001444e+2, -22117.988, -90209.31, 3874.1077, 0.052010376, -0.040781386, -21898.277, -21898.277, 0.0, 5.009521, 4.961475 
1.8799804e+2, 3.049848e+2, -11662.265, -61913.734, 2117.3499, 0.058295242, -0.06582165, -11573.207, -11573.207, 0.0, 5.0093937, 4.9705534 
1.8801138e+2, 3.0996668e+2, -9038.358, -53623.4, 1710.5812, 0.09331589, -0.03711064, -8972.825, -8972.825, 0.0, 5.009284, 4.973314 
1.8802685e+2, 3.1495517e+2, -5995.927, -45757.465, 1011.2572, 0.14179985, 0.027714832, -5970.224, -5970.224, 0.0, 5.0091047, 4.976077 
1.930608e+2, 1.21489175e+2, -1708825.1, -1752981.1, 1082.975, -0.01431216, 0.009050109, -1708798.5, 40604.63, 0.0, 5.0162683, 4.987536 
1.9306284e+2, 1.2647435e+2, -1663375.1, -1710273.3, -1216.1357, -0.0014015499, 0.004761706, -1663343.6, 37207.957, 0.0, 5.016079, 4.985572 
1.9306318e+2, 1.3145943e+2, -1615043.8, -1661587.8, -1221.7114, -0.002107202, -0.0010502466, -1615011.6, 36686.465, 0.0, 5.0158634, 4.985577 
1.9306354e+2, 1.364445e+2, -1568916.0, -1617436.1, -1226.6024, -0.0028315606, -0.0055615907, -1568885.0, 33959.855, 0.0, 5.015647, 4.984079 
1.9306368e+2, 1.4142694e+2, -1526918.0, -1582053.4, -1766.1125, -0.0029290651, 0.005650587, -1526861.5, 27155.424, 0.0, 5.015475, 4.9795766 
1.930633e+2, 1.4640667e+2, -1477620.8, -1532269.5, -1858.9658, -0.0024374726, 0.0021546066, -1477557.5, 27657.742, 0.0, 5.015429, 4.9798408 
1.9306293e+2, 1.5138632e+2, -1428689.6, -1483273.1, -1817.515, -0.0019873953, -0.0023632, -1428629.1, 27785.059, 0.0, 5.01539, 4.9798427 
1.9306253e+2, 1.5636596e+2, -1381185.6, -1437253.0, -1777.1971, -0.0015130847, -0.0064085117, -1381129.4, 26483.9, 0.0, 5.0153503, 4.9788494 
1.9306181e+2, 1.6134204e+2, -1340382.1, -1405136.9, -2358.9604, -0.001229641, -0.0036073276, -1340296.4, 18551.107, 0.0, 5.0152817, 4.973215 
1.9306038e+2, 1.6631566e+2, -1291457.5, -1355796.6, -2541.363, -0.0014544347, -0.0032322307, -1291357.3, 18748.553, 0.0, 5.015152, 4.973351 
1.9305892e+2, 1.7128934e+2, -1242727.0, -1306860.8, -2565.045, -0.0017037072, -0.0026022363, -1242624.6, 18739.03, 0.0, 5.0150204, 4.973353 
1.9305746e+2, 1.7626302e+2, -1195130.0, -1260326.9, -2590.2869, -0.0019504895, -0.0015871059, -1195027.3, 17594.248, 0.0, 5.0148883, 4.972548 
1.9305593e+2, 1.8123303e+2, -1155534.8, -1230744.1, -3100.8916, -0.00075000717, 0.0074729812, -1155407.1, 8508.568, 0.0, 5.0147443, 4.9660196 
1.930541e+2, 1.8619938e+2, -1106585.3, -1181392.9, -3326.7302, 0.002633225, 0.0071599786, -1106437.5, 8809.306, 0.0, 5.0146065, 4.966137 
1.9305225e+2, 1.9116573e+2, -1057779.6, -1132375.0, -3426.6086, 0.006009622, 0.006395054, -1057622.6, 8955.696, 0.0, 5.0144725, 4.96614 
1.930504e+2, 1.9613206e+2, -1009863.5, -1085272.0, -3528.7856, 0.009435995, 0.0059666834, -1009698.7, 8210.893, 0.0, 5.0143375, 4.9654927 
1.930482e+2, 2.010947e+2, -969831.3, -1055348.9, -3918.6606, 0.011085574, 0.011536284, -969652.1, -375.9311, 0.0, 5.0142345, 4.9589686 
1.9304524e+2, 2.060534e+2, -920184.94, -1005003.2, -3810.3958, 0.00885699, 0.0027689475, -920014.06, 663.928, 0.0, 5.0141835, 4.9593563 
1.930423e+2, 2.1101211e+2, -871061.75, -955789.8, -3632.2847, 0.0064968006, -0.0070039933, -870906.3, 1173.5486, 0.0, 5.0141315, 4.959362 
1.9303937e+2, 2.1597081e+2, -822603.25, -908032.06, -3456.8743, 0.0041449643, -0.016713368, -822463.6, 1018.02264, 0.0, 5.0140786, 4.958868 
1.930363e+2, 2.2092636e+2, -783065.44, -879511.94, -3721.981, 0.0020897, -0.013395798, -782922.0, -8006.5884, 0.0, 5.0139623, 4.9517837 
1.9303295e+2, 2.2587949e+2, -734153.9, -829434.1, -4008.5803, 0.0013479608, -0.007117388, -733985.56, -7608.979, 0.0, 5.013627, 4.9521747 
1.9302958e+2, 2.308327e+2, -685786.2, -780516.3, -4197.7134, 0.0006679002, -0.00092030666, -685600.56, -7763.425, 0.0, 5.0132737, 4.952185 
1.9302624e+2, 2.3578587e+2, -638059.4, -733044.06, -4395.487, -0.000053164833, 0.0049055293, -637856.44, -8558.5, 0.0, 5.0129194, 4.9516935 
1.9302283e+2, 2.4073558e+2, -599073.1, -704824.7, -5487.6763, 0.0019051798, 0.022058835, -598789.1, -17996.4, 0.0, 5.0125184, 4.944513 
1.9301844e+2, 2.4568035e+2, -549375.8, -653149.75, -6110.213, 0.010299072, 0.012783887, -549017.3, -16682.002, 0.0, 5.0121994, 4.945396 
1.9301398e+2, 2.5062492e+2, -500696.97, -603977.1, -5935.92, 0.018810296, -0.0005158017, -500356.94, -16477.23, 0.0, 5.0119042, 4.945424 
1.9300963e+2, 2.5556973e+2, -452262.6, -555368.94, -5756.9106, 0.02729129, -0.0119134635, -451942.16, -16520.217, 0.0, 5.0115995, 4.9452543 
1.9300346e+2, 2.605107e+2, -414318.0, -530005.4, -6822.245, 0.021442685, -0.002042116, -413917.06, -26914.19, 0.0, 5.0112686, 4.9366765 
1.9299813e+2, 2.65456e+2, -358776.25, -463596.9, -7809.529, 0.026742078, 0.006090771, -358197.63, -19649.232, 0.0, 5.0103693, 4.9424853 
1.9299449e+2, 2.704022e+2, -310519.44, -414656.0, -9164.235, 0.045715634, -0.003644135, -309719.13, -19633.895, 0.0, 5.0093546, 4.942702 
1.9299161e+2, 2.7534732e+2, -262097.5, -366046.0, -10755.196, 0.06964189, -0.03258987, -260996.36, -19363.732, 0.0, 5.0083156, 4.942871 
1.9298261e+2, 2.802936e+2, -246965.83, -391308.88, -22219.322, 0.09983296, 0.10018909, -243622.92, -50456.426, 0.0, 5.008536, 4.9172935 
1.9298059e+2, 2.852275e+2, -183389.38, -301207.9, -4143.9814, 0.096105605, 0.18687256, -183243.81, -38432.902, 0.0, 5.009249, 4.9305983 
1.9298612e+2, 2.9015234e+2, -133914.88, -251019.84, -630.1652, 0.08290848, 0.121952236, -133911.48, -37368.82, 0.0, 5.009238, 4.9306087 
1.9299252e+2, 2.9507565e+2, -84326.33, -200948.63, 2614.5032, 0.072274454, 0.036515824, -84267.74, -35978.273, 0.0, 5.0091553, 4.9306207 
1.9299892e+2, 3.000111e+2, -23655.648, -92314.805, 3456.5896, 0.055272583, -0.063155316, -23482.066, -23482.066, 0.0, 5.0091667, 4.9606977 
1.9300976e+2, 3.0498612e+2, -11669.211, -63657.035, 2548.2087, 0.07015214, -0.049421538, -11544.607, -11544.607, 0.0, 5.009505, 4.9694858 
1.9302432e+2, 3.0997512e+2, -7715.5225, -54701.45, 3204.2205, 0.11065145, 0.03366756, -7498.016, -7498.016, 0.0, 5.0097733, 4.9722824 
1.9304085e+2, 3.149699e+2, -3342.941, -46174.47, 3566.8462, 0.16032228, 0.14184307, -3047.9395, -3047.9395, 0.0, 5.009972, 4.975082 
1.9807649e+2, 1.2148703e+2, -1709649.0, -1754115.3, 935.37964, -0.020362936, 0.00734431, -1709629.4, 39797.125, 0.0, 5.016154, 4.9872193 
1.9807968e+2, 1.2647411e+2, -1663555.0, -1710389.3, -1446.9954, 0.00608367, 0.022344135, -1663510.3, 37046.266, 0.0, 5.0160265, 4.9855585 
1.9807942e+2, 1.3145837e+2, -1615070.5, -1661626.4, -1409.8368, 0.0014375935, 0.008567795, -1615027.9, 36682.688, 0.0, 5.0158606, 4.9855647 
1.9807917e+2, 1.3644265e+2, -1568850.1, -1617427.1, -1388.2892, -0.0032737933, -0.0039048516, -1568810.5, 34054.082, 0.0, 5.015674, 4.9840674 
1.980789e+2, 1.4142455e+2, -1526800.1, -1581957.6, -1831.9073, -0.005574712, 0.0019655025, -1526739.4, 27301.992, 0.0, 5.0155063, 4.9795923 
1.9807857e+2, 1.4640428e+2, -1477481.1, -1532083.5, -1890.4901, -0.004168612, -0.0018502019, -1477415.8, 27823.082, 0.0, 5.0154514, 4.9798913 
1.9807823e+2, 1.5138397e+2, -1428588.9, -1483107.3, -1862.4249, -0.0027838184, -0.0065827426, -1428525.3, 27911.361, 0.0, 5.015399, 4.9798927 
1.980779e+2, 1.5636367e+2, -1381134.9, -1437112.3, -1838.929, -0.001385408, -0.010851259, -1381074.5, 26560.03, 0.0, 5.0153427, 4.9788995 
1.9807717e+2, 1.6133982e+2, -1340453.5, -1405209.8, -2490.9382, -0.00035068128, -0.007433574, -1340357.9, 18509.744, 0.0, 5.015266, 4.9731975 
1.9807565e+2, 1.6631363e+2, -1291488.4, -1355873.9, -2676.2163, -0.00027729027, -0.004792535, -1291377.4, 18747.22, 0.0, 5.0151553, 4.973323 
1.980741e+2, 1.7128752e+2, -1242726.8, -1306922.9, -2694.0264, -0.00027676846, -0.0018804035, -1242613.9, 18767.102, 0.0, 5.0150337, 4.973325 
1.9807254e+2, 1.7626141e+2, -1195128.1, -1260388.0, -2717.8425, -0.00029320348, 0.0013995498, -1195015.1, 17622.36, 0.0, 5.014902, 4.97252 
1.9807082e+2, 1.8123156e+2, -1155679.4, -1231098.1, -3249.0647, 0.0007869993, 0.012424642, -1155539.6, 8391.467, 0.0, 5.014755, 4.9658957 
1.9806871e+2, 1.8619776e+2, -1106709.8, -1181734.8, -3430.322, 0.002666996, 0.0119108455, -1106553.3, 8711.24, 0.0, 5.014623, 4.9660134 
1.9806658e+2, 1.9116393e+2, -1057912.8, -1132721.9, -3509.0215, 0.0043781423, 0.010658061, -1057748.5, 8849.885, 0.0, 5.0144854, 4.9660163 
1.9806442e+2, 1.961301e+2, -1010035.44, -1085637.8, -3595.632, 0.0061017973, 0.009701317, -1009864.8, 8067.381, 0.0, 5.0143366, 4.965369 
1.9806199e+2, 2.0109254e+2, -969733.75, -1055055.0, -3948.021, 0.0066478658, 0.014001608, -969551.44, -250.94644, 0.0, 5.0142193, 4.959075 
1.9805916e+2, 2.060512e+2, -919914.9, -1004376.5, -3825.465, 0.0059522977, 0.0024921182, -919741.94, 958.9698, 0.0, 5.014177, 4.959572 
1.9805634e+2, 2.1100983e+2, -870812.25, -955173.44, -3659.8823, 0.00531415, -0.010135819, -870653.75, 1447.3809, 0.0, 5.0141177, 4.9595776 
1.9805352e+2, 2.1596846e+2, -822429.2, -907451.0, -3503.5571, 0.0046429345, -0.022771694, -822285.06, 1216.3328, 0.0, 5.014039, 4.959084 
1.9805045e+2, 2.2092403e+2, -783480.06, -880119.56, -3976.547, 0.003933203, -0.019882252, -783316.75, -8382.708, 0.0, 5.013903, 4.9516 
1.9804679e+2, 2.2587729e+2, -734523.4, -830200.75, -4253.8594, 0.0030974853, -0.010306327, -734334.6, -7938.0767, 0.0, 5.0136194, 4.9519067 
1.9804308e+2, 2.308306e+2, -686057.6, -781237.8, -4394.752, 0.0020877668, -0.0010485444, -685855.1, -7996.1953, 0.0, 5.0132995, 4.951917 
1.9803937e+2, 2.3578389e+2, -638311.0, -733755.75, -4543.624, 0.0009961063, 0.007796057, -638095.25, -8773.632, 0.0, 5.012951, 4.9514256 
1.9803561e+2, 2.4073389e+2, -599204.5, -705350.94, -5574.0103, 0.002654388, 0.030657161, -598912.6, -18097.832, 0.0, 5.012561, 4.944318 
1.9803073e+2, 2.4567857e+2, -548923.25, -652808.1, -6139.168, 0.009465328, 0.020348733, -548561.7, -16206.976, 0.0, 5.0123253, 4.9454665 
1.9802573e+2, 2.5062284e+2, -500063.84, -603550.0, -5895.9604, 0.015942845, 0.0030843401, -499729.0, -15830.818, 0.0, 5.012094, 4.945496 
1.9802085e+2, 2.555673e+2, -451518.03, -554887.4, -5686.6016, 0.022269279, -0.012583245, -451206.16, -15766.374, 0.0, 5.0118303, 4.9453273 
1.9801371e+2, 2.605065e+2, -416848.2, -536773.1, -6691.2363, 0.01032011, -0.009588838, -416476.0, -29437.96, 0.0, 5.01145, 4.9341707 
1.9800697e+2, 2.6544997e+2, -362546.16, -469419.63, -6290.1675, 0.0023518829, -0.009457483, -362177.22, -23563.809, 0.0, 5.0097804, 4.940512 
1.9800201e+2, 2.7039507e+2, -318003.25, -422535.75, -5857.593, 0.0075215185, -0.023827232, -317676.06, -27501.26, 0.0, 5.0075035, 4.9405785 
1.9799776e+2, 2.7533904e+2, -274441.84, -376444.63, -5263.302, 0.016759856, -0.05575406, -274170.97, -32423.512, 0.0, 5.004789, 4.9405966 
1.9798608e+2, 2.8028908e+2, -269390.88, -416457.03, -18639.398, 0.03922596, 0.16164687, -267065.25, -73811.24, 0.0, 5.0035176, 4.9105616 
1.9798444e+2, 2.8522673e+2, -188997.83, -297439.97, 551.54596, 0.052633736, 0.28519896, -188995.03, -44143.81, 0.0, 5.006156, 4.932829 
1.9799207e+2, 2.9015163e+2, -134778.9, -245673.22, 2470.3352, 0.056407034, 0.18261127, -134723.89, -38154.105, 0.0, 5.007898, 4.932708 
1.9800054e+2, 2.9507494e+2, -82856.21, -195085.19, 4362.8833, 0.061281607, 0.06169416, -82686.86, -34383.855, 0.0, 5.0087094, 4.9325867 
1.9800855e+2, 3.0000684e+2, -26615.613, -97595.56, 3598.611, 0.054109022, -0.08920889, -26433.635, -26433.635, 0.0, 5.008788, 4.958778 
1.9802082e+2, 3.0498374e+2, -17719.793, -68563.86, 198.90024, 0.07383778, -0.070049174, -17719.014, -17719.014, 0.0, 5.007575, 4.967935 
1.9803701e+2, 3.099787e+2, -22526.26, -63533.64, -3079.3848, 0.11992268, 0.043770056, -22296.307, -22296.307, 0.0, 5.0046287, 4.970615 
1.9805509e+2, 3.149785e+2, -30982.309, -60563.668, -8490.05, 0.17289156, 0.17340311, -28718.807, -28718.807, 0.0, 5.0001407, 4.973307 
2.0309283e+2, 1.214841e+2, -1709412.4, -1753957.6, 472.73688, -0.018805854, 0.00055216334, -1709407.4, 40048.8, 0.0, 5.016239, 4.987217 
2.0309609e+2, 1.264727e+2, -1663048.4, -1709956.8, -1581.1831, 0.009214362, 0.030027077, -1662995.1, 37575.855, 0.0, 5.0161715, 4.985618 
2.030956e+2, 1.3145658e+2, -1614043.4, -1660978.8, -1554.4581, 0.0028438368, 0.011786115, -1613992.0, 37736.246, 0.0, 5.016185, 4.9856114 
2.0309511e+2, 1.3644046e+2, -1567245.3, -1616537.8, -1527.754, -0.0033431, -0.005069854, -1567198.0, 35687.816, 0.0, 5.016198, 4.984101 
2.0309468e+2, 1.4142214e+2, -1524839.4, -1581000.9, -1965.6697, -0.00624121, -0.0016795673, -1524770.6, 29293.93, 0.0, 5.0161667, 4.9795866 
2.0309433e+2, 1.4640199e+2, -1475691.8, -1531222.9, -2069.345, -0.0043261135, -0.0042360304, -1475614.6, 29646.115, 0.0, 5.016056, 4.979883 
2.0309395e+2, 1.513818e+2, -1426984.0, -1482348.1, -2103.0166, -0.0024059522, -0.0075729643, -1426904.3, 29553.072, 0.0, 5.0159445, 4.9798822 
2.0309359e+2, 1.5636164e+2, -1379701.5, -1436447.6, -2138.2158, -0.00045033722, -0.010414156, -1379621.0, 28032.926, 0.0, 5.0158324, 4.978886 
2.030928e+2, 1.6133784e+2, -1339229.9, -1404723.0, -2869.8826, 0.0009912722, -0.006100549, -1339104.4, 19782.133, 0.0, 5.0157022, 4.9731503 
2.0309116e+2, 1.663116e+2, -1290447.5, -1355513.0, -3136.2163, 0.0011687408, -0.0035796615, -1290296.8, 19847.861, 0.0, 5.0155396, 4.9732594 
2.0308948e+2, 1.7128542e+2, -1241818.5, -1306631.3, -3228.5898, 0.0013640568, -0.00071410165, -1241658.0, 19744.154, 0.0, 5.015376, 4.97326 
2.0308779e+2, 1.7625923e+2, -1194322.1, -1260150.6, -3322.7058, 0.0016434931, 0.0026171186, -1194154.9, 18504.857, 0.0, 5.015212, 4.972453 
2.0308593e+2, 1.8122931e+2, -1154756.5, -1230637.0, -3823.5325, 0.0023906275, 0.013491388, -1154564.4, 9389.868, 0.0, 5.015069, 4.9659014 
2.0308352e+2, 1.861955e+2, -1105692.6, -1181185.9, -3832.6821, 0.0025864216, 0.012439489, -1105498.5, 9789.201, 0.0, 5.0149617, 4.966038 
2.0308109e+2, 1.9116163e+2, -1056816.1, -1132141.6, -3742.4602, 0.0026746832, 0.010759598, -1056630.6, 9991.029, 0.0, 5.0148535, 4.966039 
2.0307866e+2, 1.9612779e+2, -1008829.06, -1085012.8, -3653.465, 0.002864911, 0.009479334, -1008654.25, 9301.1455, 0.0, 5.014745, 4.9653897 
2.0307602e+2, 2.0109025e+2, -968351.75, -1054197.5, -3853.4482, 0.0024721127, 0.013302956, -968179.1, 1144.2786, 0.0, 5.014653, 4.9591618 
2.0307323e+2, 2.0604904e+2, -918848.94, -1003678.5, -3893.7666, 0.003118682, 0.0022477317, -918670.56, 2051.3743, 0.0, 5.014507, 4.959654 
2.0307048e+2, 2.1100786e+2, -870046.9, -954613.6, -3897.037, 0.004312254, -0.009406902, -869867.7, 2252.2117, 0.0, 5.014348, 4.9596605 
2.0306776e+2, 2.159667e+2, -821907.6, -907001.8, -3901.9863, 0.0057662986, -0.02074817, -821729.1, 1788.4945, 0.0, 5.0141883, 4.959167 
2.0306472e+2, 2.209224e+2, -783119.44, -880126.25, -4470.1274, 0.006800541, -0.016871288, -782913.9, -7964.8965, 0.0, 5.0140657, 4.951523 
2.0306079e+2, 2.2587533e+2, -733958.56, -830240.6, -4731.6733, 0.005468561, -0.009311786, -733726.6, -7310.702, 0.0, 5.013884, 4.951769 
2.0305683e+2, 2.3082834e+2, -685153.44, -781082.7, -4857.761, 0.0040941634, -0.0019168596, -684908.06, -7025.3096, 0.0, 5.0136843, 4.951789 
2.0305288e+2, 2.3578137e+2, -636992.0, -733373.9, -5000.0063, 0.0030001518, 0.0056015113, -636733.3, -7384.046, 0.0, 5.013481, 4.951307 
2.0304888e+2, 2.4073136e+2, -596989.9, -703949.2, -5761.4565, 0.0042670113, 0.028792063, -596680.44, -15837.49, 0.0, 5.013316, 4.944435 
2.0304386e+2, 2.4567643e+2, -544818.7, -650254.56, -6167.2754, 0.008688842, 0.02000804, -544459.2, -12083.7295, 0.0, 5.0136905, 4.9457107 
2.0303877e+2, 2.506211e+2, -494022.66, -600216.25, -5870.6045, 0.013343766, 0.0046681897, -493699.13, -9788.332, 0.0, 5.0141444, 4.9457135 
2.0303386e+2, 2.5556603e+2, -443484.9, -550757.25, -5560.8677, 0.018619899, -0.008305533, -443197.4, -7753.5884, 0.0, 5.014583, 4.9455175 
2.0302689e+2, 2.6050484e+2, -407447.94, -534196.3, -6105.6216, 0.00799752, -0.0056793047, -407154.5, -20110.49, 0.0, 5.0151095, 4.933379 
2.030199e+2, 2.654477e+2, -350047.25, -463457.22, -7858.769, 0.0041418183, -0.009576624, -349505.25, -10870.758, 0.0, 5.014423, 4.9402933 
2.0301461e+2, 2.703936e+2, -301857.22, -413155.75, -10491.655, 0.01571964, -0.017696196, -300876.84, -10679.22, 0.0, 5.0134125, 4.9408216 
2.0301013e+2, 2.7533963e+2, -253605.34, -363098.3, -13452.725, 0.03432064, -0.03342036, -251976.7, -10217.057, 0.0, 5.0123463, 4.9413033 
2.0299827e+2, 2.8029403e+2, -235996.64, -409339.78, -24540.701, 0.054660637, 0.24079965, -232589.31, -39358.51, 0.0, 5.0162253, 4.907512 
2.0299593e+2, 2.8523082e+2, -153799.55, -286226.22, -3017.4436, 0.0515955, 0.3630818, -153730.83, -8900.799, 0.0, 5.017537, 4.932648 
2.0300284e+2, 2.9015306e+2, -113270.516, -239762.8, -453.54718, 0.050713383, 0.22475149, -113268.89, -16702.611, 0.0, 5.014482, 4.9328136 
2.0301066e+2, 2.9507437e+2, -72629.8, -193314.95, 1828.0566, 0.05750552, 0.07313311, -72602.12, -24290.844, 0.0, 5.011297, 4.93298 
2.0301835e+2, 3.0000362e+2, -27461.201, -104612.016, 1170.8021, 0.060438715, -0.10540186, -27443.438, -27443.438, 0.0, 5.008473, 4.9573174 
2.0303108e+2, 3.04982e+2, -21873.486, -81465.84, -3283.139, 0.10395837, -0.040996492, -21693.154, -21693.154, 0.0, 5.0070457, 4.964417 
2.0304805e+2, 3.0997974e+2, -24143.514, -78581.92, -5859.223, 0.18605715, 0.14913721, -23520.025, -23520.025, 0.0, 5.005593, 4.9657974 
2.0306717e+2, 3.1498134e+2, -26213.988, -75904.45, -8605.933, 0.28761345, 0.36445528, -24765.729, -24765.729, 0.0, 5.004009, 4.967178 
2.0810957e+2, 1.21480905e+2, -1709189.1, -1753543.1, -161.7494, -0.014171558, -0.009023493, -1709188.5, 40299.07, 0.0, 5.0162444, 4.987353 
2.0811225e+2, 1.2647067e+2, -1662962.0, -1709823.4, -1575.6771, 0.008881621, 0.031607926, -1662909.1, 37681.316, 0.0, 5.0161767, 4.985662 
2.081118e+2, 1.3145436e+2, -1613958.1, -1660841.3, -1545.3695, 0.0027314753, 0.011101802, -1613907.3, 37841.977, 0.0, 5.0161896, 4.9856567 
2.0811132e+2, 1.3643804e+2, -1567160.8, -1616396.0, -1515.0466, -0.0032749788, -0.008022025, -1567114.3, 35793.957, 0.0, 5.016202, 4.984148 
2.0811088e+2, 1.4141966e+2, -1524861.5, -1581048.9, -2039.265, -0.005999685, -0.0054693595, -1524787.5, 29299.922, 0.0, 5.0161667, 4.9795704 
2.0811042e+2, 1.463997e+2, -1475744.5, -1531332.5, -2153.785, -0.003851381, -0.005741498, -1475661.1, 29621.053, 0.0, 5.016056, 4.9798465 
2.0810997e+2, 1.5137973e+2, -1427034.3, -1482456.4, -2185.669, -0.0017078217, -0.006700747, -1426948.3, 29529.014, 0.0, 5.015945, 4.9798455 
2.0810951e+2, 1.5635976e+2, -1379749.1, -1436554.6, -2219.0527, 0.0004553179, -0.0071813096, -1379662.6, 28009.725, 0.0, 5.0158334, 4.9788494 
2.0810863e+2, 1.6133603e+2, -1339350.0, -1404977.5, -2989.0757, 0.0021212834, -0.0017282114, -1339214.1, 19690.477, 0.0, 5.0157022, 4.9730663 
2.0810685e+2, 1.6630954e+2, -1290600.1, -1355841.6, -3261.0469, 0.0026133298, -0.00048033567, -1290437.5, 19727.979, 0.0, 5.01554, 4.973151 
2.0810503e+2, 1.7128311e+2, -1241965.6, -1306956.3, -3350.6226, 0.003093545, 0.0010210371, -1241793.4, 19632.516, 0.0, 5.0153775, 4.9731517 
2.0810321e+2, 1.7625667e+2, -1194464.1, -1260472.1, -3441.92, 0.0036145234, 0.0029544928, -1194285.1, 18401.186, 0.0, 5.0152144, 4.9723454 
2.0810114e+2, 1.8122655e+2, -1154634.9, -1230388.4, -3910.2217, 0.0037260377, 0.012180728, -1154433.5, 9549.191, 0.0, 5.01507, 4.965986 
2.0809844e+2, 1.8619275e+2, -1105512.5, -1180815.4, -3911.326, 0.0020451434, 0.0101828, -1105309.9, 10005.3125, 0.0, 5.014963, 4.966164 
2.080957e+2, 1.9115894e+2, -1056631.6, -1131767.3, -3817.1267, 0.0002430554, 0.007684968, -1056438.3, 10209.628, 0.0, 5.0148563, 4.966166 
2.0809299e+2, 1.9612512e+2, -1008640.25, -1084634.3, -3724.1428, -0.0015085626, 0.0055477107, -1008458.2, 9522.163, 0.0, 5.0147486, 4.9655175 
2.0809017e+2, 2.010877e+2, -968229.3, -1053955.0, -3929.4324, -0.0028951147, 0.009150984, -968049.6, 1297.239, 0.0, 5.0146556, 4.9592447 
2.0808741e+2, 2.0604682e+2, -918827.3, -1003665.56, -4010.7288, -0.00039442454, 0.0014198879, -918638.2, 2104.5166, 0.0, 5.0145106, 4.95966 
2.080847e+2, 2.11006e+2, -870016.0, -954593.44, -4007.994, 0.0027635768, -0.006602437, -869826.5, 2311.2864, 0.0, 5.014354, 4.9596677 
2.0808204e+2, 2.159652e+2, -821867.56, -906974.4, -4006.925, 0.0060947016, -0.014409515, -821679.4, 1853.4116, 0.0, 5.014197, 4.9591756 
2.0807898e+2, 2.2092105e+2, -783190.9, -880254.1, -4580.8125, 0.008563026, -0.008789392, -782975.2, -8012.0723, 0.0, 5.0140605, 4.9514794 
2.0807487e+2, 2.2587349e+2, -734098.3, -830558.56, -4841.322, 0.0072924024, -0.0053335754, -733855.94, -7420.537, 0.0, 5.013883, 4.95166 
2.0807073e+2, 2.308259e+2, -685258.94, -781407.44, -4947.8228, 0.0057156193, -0.0026790928, -685005.0, -7096.531, 0.0, 5.0136943, 4.951674 
2.0806657e+2, 2.3577832e+2, -637063.44, -733705.75, -5070.466, 0.0042666947, -0.00008903201, -636798.1, -7416.7173, 0.0, 5.0135026, 4.951186 
2.080624e+2, 2.4072792e+2, -596587.6, -703453.7, -5593.5405, 0.003909541, 0.019243462, -596295.6, -15417.18, 0.0, 5.0133624, 4.9446015 
2.080573e+2, 2.4567355e+2, -544219.1, -649426.94, -5818.0757, 0.003859308, 0.013995964, -543898.4, -11497.006, 0.0, 5.01375, 4.9459934 
2.0805217e+2, 2.506189e+2, -493408.2, -599346.94, -5496.5874, 0.0037251234, 0.0027492887, -493123.78, -9197.708, 0.0, 5.0142074, 4.946007 
2.080472e+2, 2.5556448e+2, -442855.78, -549846.5, -5162.0547, 0.003964453, -0.0066307536, -442607.28, -7158.486, 0.0, 5.0146494, 4.945822 
2.0804054e+2, 2.6050335e+2, -408332.2, -537055.1, -5652.969, -0.009037131, -0.0027044646, -408084.4, -21038.238, 0.0, 5.0152097, 4.9323564 
2.0803374e+2, 2.6544398e+2, -351774.22, -469842.25, -7373.7554, -0.014439131, -0.009572207, -351315.5, -12651.471, 0.0, 5.014715, 4.938009 
2.0802833e+2, 2.7038714e+2, -303117.6, -420082.1, -9680.035, -0.00855783, -0.022002723, -302321.9, -12060.653, 0.0, 5.0139084, 4.9383125 
2.0802362e+2, 2.7533e+2, -254398.1, -370566.28, -12315.218, 0.0011891796, -0.04337921, -253106.88, -11245.886, 0.0, 5.013046, 4.9385695 
2.0801213e+2, 2.80282e+2, -236666.78, -409915.38, -21631.752, -0.0038370132, 0.22854225, -234006.7, -40645.406, 0.0, 5.0160904, 4.9072404 
2.0800899e+2, 2.852202e+2, -153486.52, -279616.6, -5203.0645, -0.0015683355, 0.3451192, -153272.23, -8329.445, 0.0, 5.016664, 4.9350443 
2.080142e+2, 2.9014418e+2, -112940.336, -233841.08, -2269.6082, 0.01751358, 0.19813521, -112897.75, -16240.258, 0.0, 5.0136604, 4.935018 
2.0802024e+2, 2.9506722e+2, -72280.42, -188078.63, 382.5887, 0.040012565, 0.03976134, -72279.16, -23898.102, 0.0, 5.010527, 4.9349933 
2.0802644e+2, 2.9999825e+2, -29625.633, -106870.61, 129.67987, 0.05600217, -0.1357245, -29625.414, -29588.275, 0.0, 5.0078754, 4.956653 
2.0803834e+2, 3.0497906e+2, -24718.139, -87736.79, -3389.545, 0.10126709, -0.03002173, -24536.352, -24536.352, 0.0, 5.006795, 4.9621577 
2.0805404e+2, 3.0997875e+2, -25980.92, -84241.27, -5222.911, 0.17380552, 0.1973089, -25516.4, -25516.4, 0.0, 5.005625, 4.9635935 
2.0807162e+2, 3.1498173e+2, -27041.625, -80953.27, -7225.7764, 0.25820896, 0.44136718, -26089.953, -26089.953, 0.0, 5.0043235, 4.9650297 
2.1312633e+2, 1.2147771e+2, -1708917.9, -1753029.4, -797.27893, -0.0094908085, -0.018367259, -1708903.5, 40615.516, 0.0, 5.0162497, 4.98752 
2.1312843e+2, 1.2646864e+2, -1662876.6, -1709689.5, -1571.8721, 0.008641514, 0.03340217, -1662824.0, 37785.78, 0.0, 5.0161824, 4.985705 
2.1312797e+2, 1.3145214e+2, -1613873.8, -1660703.4, -1537.982, 0.00268951, 0.0105753355, -1613823.3, 37946.727, 0.0, 5.0161943, 4.985701 
2.1312755e+2, 1.3643566e+2, -1567077.3, -1616253.8, -1504.0409, -0.0031586976, -0.010871892, -1567031.3, 35899.133, 0.0, 5.016206, 4.984194 
2.1312708e+2, 1.4141719e+2, -1524893.3, -1581116.3, -2116.3223, -0.005730946, -0.009184802, -1524813.8, 29296.566, 0.0, 5.016167, 4.9795475 
2.1312654e+2, 1.4639743e+2, -1475797.6, -1531442.1, -2237.8206, -0.0033544975, -0.007201302, -1475707.9, 29595.78, 0.0, 5.016056, 4.9798093 
2.1312599e+2, 1.5137765e+2, -1427084.9, -1482564.8, -2267.9167, -0.0009949753, -0.005819866, -1426992.4, 29504.754, 0.0, 5.0159454, 4.9798083 
2.1312544e+2, 1.5635788e+2, -1379797.3, -1436661.5, -2299.4854, 0.0013682551, -0.0039767968, -1379704.4, 27986.322, 0.0, 5.015835, 4.9788127 
2.1312445e+2, 1.6133422e+2, -1339482.1, -1405255.6, -3111.3171, 0.0032810776, 0.0027015298, -1339335.3, 19587.521, 0.0, 5.0157022, 4.9729743 
2.1312253e+2, 1.663075e+2, -1290753.5, -1356169.6, -3385.5664, 0.004088371, 0.00267759, -1290578.8, 19607.564, 0.0, 5.015541, 4.973042 
2.131206e+2, 1.712808e+2, -1242113.8, -1307280.6, -3472.3442, 0.0048418255, 0.0027776682, -1241929.3, 19520.34, 0.0, 5.0153794, 4.9730434 
2.1311864e+2, 1.7625412e+2, -1194606.9, -1260793.0, -3560.823, 0.0055926875, 0.003276257, -1194415.9, 18296.965, 0.0, 5.0152173, 4.972237 
2.1311635e+2, 1.812238e+2, -1154527.8, -1230168.6, -4002.7825, 0.0051219338, 0.010947675, -1154316.5, 9694.713, 0.0, 5.015071, 4.9660597 
2.1311335e+2, 1.8619002e+2, -1105333.5, -1180444.0, -3990.4976, 0.0015593504, 0.00799597, -1105122.1, 10220.474, 0.0, 5.014964, 4.9662895 
2.1311034e+2, 1.9115624e+2, -1056448.4, -1131391.9, -3892.3213, -0.002167019, 0.0046213088, -1056246.8, 10427.281, 0.0, 5.0148587, 4.9662924 
2.1310733e+2, 1.9612247e+2, -1008452.6, -1084255.0, -3795.3489, -0.0058944086, 0.0015681768, -1008263.06, 9742.235, 0.0, 5.0147524, 4.965645 
2.1310432e+2, 2.0108515e+2, -968127.2, -1053754.3, -4012.2717, -0.008163203, 0.005134811, -967939.56, 1430.5898, 0.0, 5.014658, 4.9593134 
2.1310161e+2, 2.0604461e+2, -918807.1, -1003651.56, -4127.8564, -0.0037654666, 0.00073686324, -918606.8, 2156.4639, 0.0, 5.014515, 4.9596653 
2.1309896e+2, 2.1100415e+2, -869986.56, -954572.2, -4119.116, 0.0013333949, -0.0037528763, -869786.44, 2369.1768, 0.0, 5.0143604, 4.959674 
2.1309629e+2, 2.1596369e+2, -821828.9, -906945.94, -4112.0283, 0.006518028, -0.00812548, -821630.7, 1917.1534, 0.0, 5.014205, 4.959183 
2.1309324e+2, 2.2091973e+2, -783330.5, -880526.06, -4711.366, 0.010313917, -0.00036857746, -783102.7, -8125.6465, 0.0, 5.0140557, 4.951385 
2.1308896e+2, 2.2587164e+2, -734243.06, -830872.6, -4938.097, 0.009133348, -0.0011150904, -733991.4, -7536.5737, 0.0, 5.013882, 4.9515476 
2.1308464e+2, 2.3082347e+2, -685369.4, -781728.5, -5025.0093, 0.0073969983, -0.0035820445, -685108.06, -7173.9014, 0.0, 5.0137043, 4.9515553 
2.1308032e+2, 2.3577528e+2, -637139.7, -734033.8, -5128.047, 0.005635961, -0.0063012587, -636869.06, -7455.46, 0.0, 5.013524, 4.9510617 
2.1307597e+2, 2.4072456e+2, -596307.4, -703184.6, -5414.6826, 0.0038064755, 0.010441436, -596033.75, -15120.544, 0.0, 5.013408, 4.944684 
2.1307082e+2, 2.4567083e+2, -543643.06, -648576.4, -5485.837, -0.00076122535, 0.009166714, -543357.06, -10930.888, 0.0, 5.013809, 4.9462743 
2.1306565e+2, 2.5061682e+2, -492817.2, -598454.75, -5139.528, -0.005846342, 0.0015098517, -492567.72, -8627.249, 0.0, 5.0142703, 4.9462986 
2.1306062e+2, 2.5556293e+2, -442250.1, -548913.0, -4780.1973, -0.010805565, -0.004779839, -442036.28, -6583.1025, 0.0, 5.014716, 4.946124 
2.1305412e+2, 2.6050156e+2, -409886.97, -541251.2, -5028.815, -0.028367303, -0.00018690448, -409694.72, -22643.578, 0.0, 5.01531, 4.930826 
2.1304777e+2, 2.654397e+2, -353595.06, -476152.94, -6540.289, -0.034464564, -0.01445462, -353247.03, -14547.611, 0.0, 5.015007, 4.93565 
2.1304265e+2, 2.703799e+2, -304470.6, -426934.72, -8519.643, -0.03186404, -0.03632364, -303880.72, -13548.552, 0.0, 5.0144043, 4.9357295 
2.1303812e+2, 2.7531952e+2, -255282.2, -377961.16, -10828.546, -0.028555734, -0.06848062, -254333.73, -12362.6045, 0.0, 5.0137453, 4.9357615 
2.1302582e+2, 2.8027016e+2, -239330.98, -415045.16, -19732.164, -0.06508654, 0.21917568, -237142.38, -43653.227, 0.0, 5.0159607, 4.90537 
2.1302079e+2, 2.8521082e+2, -153374.86, -272817.0, -7035.517, -0.06145082, 0.34376732, -152961.88, -7917.895, 0.0, 5.015792, 4.9373965 
2.1302444e+2, 2.901363e+2, -112812.11, -227726.84, -3732.3628, -0.019628845, 0.18339904, -112691.01, -15952.158, 0.0, 5.01284, 4.937179 
2.1302882e+2, 2.950609e+2, -72133.54, -182647.33, -709.3527, 0.02135152, 0.01354183, -72128.984, -23686.271, 0.0, 5.009758, 4.936963 
2.1303347e+2, 2.999923e+2, -33969.074, -113582.84, -659.71466, 0.048613727, -0.16693081, -33963.61, -33869.652, 0.0, 5.007279, 4.954282 
2.130445e+2, 3.049739e+2, -27766.367, -93813.54, -3565.819, 0.08912083, -0.035042737, -27574.41, -27574.41, 0.0, 5.006546, 4.959768 
2.1305914e+2, 3.0997497e+2, -28021.871, -89704.22, -4656.2197, 0.14825022, 0.21477504, -27672.367, -27672.367, 0.0, 5.0056577, 4.961259 
2.1307543e+2, 3.149787e+2, -28073.377, -85803.45, -5915.338, 0.21165493, 0.4728539, -27473.492, -27473.492, 0.0, 5.004639, 4.9627504 
2.1814306e+2, 1.2147453e+2, -1708804.5, -1752510.8, -1348.2106, -0.0048004184, -0.027546715, -1708763.0, 40787.348, 0.0, 5.016189, 4.9877205 
2.1814463e+2, 1.2646662e+2, -1662836.6, -1709572.5, -1513.768, 0.00845686, 0.03528178, -1662787.6, 37841.363, 0.0, 5.016175, 4.985748 
2.181442e+2, 1.3144995e+2, -1613761.8, -1660549.8, -1496.5613, 0.002701897, 0.010158097, -1613713.9, 38076.766, 0.0, 5.0162096, 4.985745 
2.1814379e+2, 1.3643326e+2, -1566930.6, -1616081.4, -1481.3754, -0.002984441, -0.013606076, -1566886.0, 36066.633, 0.0, 5.016232, 4.984238 
2.1814328e+2, 1.4141473e+2, -1524856.3, -1581165.1, -2198.656, -0.005410927, -0.012789314, -1524770.5, 29362.584, 0.0, 5.016194, 4.979517 
2.1814266e+2, 1.4639516e+2, -1475773.3, -1531514.0, -2330.3682, -0.0028228243, -0.008601264, -1475676.0, 29648.996, 0.0, 5.016083, 4.979771 
2.1814202e+2, 1.5137558e+2, -1427067.9, -1482639.6, -2366.5703, -0.00026249775, -0.0049377712, -1426967.3, 29549.744, 0.0, 5.0159693, 4.9797707 
2.1814138e+2, 1.56356e+2, -1379794.6, -1436742.5, -2404.7131, 0.0022897597, -0.0008280819, -1379693.3, 28015.86, 0.0, 5.0158534, 4.978775 
2.1814027e+2, 1.6133241e+2, -1339569.1, -1405526.3, -3260.3862, 0.0044646766, 0.0071468367, -1339408.4, 19532.64, 0.0, 5.015722, 4.972875 
2.1813823e+2, 1.6630545e+2, -1290811.3, -1356446.9, -3515.465, 0.0055786325, 0.005864513, -1290623.5, 19583.66, 0.0, 5.015574, 4.972934 
2.1813616e+2, 1.712785e+2, -1242151.5, -1307547.3, -3582.813, 0.006601711, 0.004550583, -1241955.9, 19517.42, 0.0, 5.0154185, 4.9729357 
2.1813406e+2, 1.7625156e+2, -1194650.3, -1261061.1, -3653.6304, 0.007596114, 0.0036120901, -1194449.9, 18289.496, 0.0, 5.0152545, 4.9721293 
2.1813157e+2, 1.8122105e+2, -1154359.3, -1229939.4, -4064.1167, 0.006628274, 0.009848329, -1154141.4, 9898.144, 0.0, 5.0150986, 4.966123 
2.181283e+2, 1.861873e+2, -1105111.8, -1180051.0, -4038.955, 0.0012039256, 0.005928218, -1104894.8, 10475.191, 0.0, 5.0149817, 4.966413 
2.1812499e+2, 1.9115357e+2, -1056281.5, -1131024.1, -3948.2903, -0.004435002, 0.0016212232, -1056073.5, 10626.535, 0.0, 5.0148573, 4.966417 
2.1812169e+2, 1.9611983e+2, -1008368.25, -1083924.9, -3863.1934, -0.010104802, -0.0023911437, -1008171.25, 9858.904, 0.0, 5.014723, 4.96577 
2.1811852e+2, 2.0108263e+2, -968213.8, -1053670.6, -4104.3857, -0.013110445, 0.0013220555, -968017.1, 1376.2051, 0.0, 5.014603, 4.959368 
2.1811585e+2, 2.0604244e+2, -918935.4, -1003702.9, -4238.0767, -0.0068516806, 0.00022425246, -918724.0, 2059.6401, 0.0, 5.0144687, 4.95967 
2.1811321e+2, 2.110023e+2, -870157.75, -954644.2, -4227.88, 0.00012496529, -0.000840749, -869946.7, 2226.5474, 0.0, 5.0142984, 4.9596786 
2.1811059e+2, 2.1596219e+2, -822125.56, -907076.5, -4233.4106, 0.007146624, -0.0018499877, -821915.1, 1647.6669, 0.0, 5.014099, 4.959188 
2.1810746e+2, 2.2091842e+2, -783952.9, -881123.0, -4876.958, 0.012177659, 0.008428471, -783708.7, -8717.906, 0.0, 5.0139055, 4.951244 
2.1810304e+2, 2.2586983e+2, -734654.9, -831279.56, -4974.633, 0.011060118, 0.003255624, -734399.44, -7925.408, 0.0, 5.013787, 4.9514403 
2.1809857e+2, 2.3082104e+2, -685652.75, -782088.94, -4967.638, 0.00920205, -0.004794459, -685397.56, -7437.784, 0.0, 5.0136538, 4.951444 
2.180941e+2, 2.3577224e+2, -637361.8, -734377.8, -4966.779, 0.0072217295, -0.013237769, -637108.2, -7662.399, 0.0, 5.0134954, 4.9509463 
2.1808961e+2, 2.4072129e+2, -596322.6, -703155.9, -4907.1987, 0.0041722325, 0.0021205281, -596097.7, -15150.64, 0.0, 5.0133986, 4.944696 
2.1808447e+2, 2.4566823e+2, -543215.06, -647731.4, -4811.961, -0.0047616614, 0.005416642, -542994.0, -10544.508, 0.0, 5.01384, 4.946551 
2.180793e+2, 2.5061485e+2, -492315.38, -597573.9, -4490.765, -0.014653186, 0.0013492194, -492124.13, -8170.8823, 0.0, 5.014333, 4.946576 
2.1807423e+2, 2.5556162e+2, -441698.75, -548005.7, -4233.955, -0.024564615, -0.0015559383, -441530.38, -6074.7876, 0.0, 5.014804, 4.9464035 
2.180678e+2, 2.6049966e+2, -412215.97, -546583.3, -3924.0344, -0.048234906, 0.0035521118, -412101.47, -25044.523, 0.0, 5.0153604, 4.9288898 
2.1806219e+2, 2.65435e+2, -357291.78, -482521.84, -3797.6333, -0.052881937, -0.024327168, -357176.75, -18438.133, 0.0, 5.0146236, 4.9334564 
2.1805787e+2, 2.7037224e+2, -310493.53, -434743.47, -3343.8816, -0.049134165, -0.06274024, -310403.6, -19996.188, 0.0, 5.0132227, 4.933405 
2.1805409e+2, 2.7530858e+2, -264570.72, -387604.2, -2390.373, -0.047134753, -0.11273279, -264524.3, -22439.41, 0.0, 5.0114307, 4.9333053 
2.1803989e+2, 2.8025934e+2, -254802.83, -429438.94, -8806.474, -0.11889429, 0.20656908, -254359.86, -60752.355, 0.0, 5.0120845, 4.90194 
2.1803176e+2, 2.8520313e+2, -159655.83, -269747.34, -1304.5592, -0.12078667, 0.35541776, -159640.38, -14512.26, 0.0, 5.012919, 4.9393024 
2.180339e+2, 2.901298e+2, -115228.695, -223284.7, -928.6719, -0.056398243, 0.17942083, -115220.71, -18414.092, 0.0, 5.011358, 4.938996 
2.1803667e+2, 2.9505557e+2, -72028.305, -177433.42, -16.735022, 0.003767321, -0.005824785, -72028.3, -23533.535, 0.0, 5.0091934, 4.9386888 
2.1803956e+2, 2.999856e+2, -39259.29, -123905.33, -918.4056, 0.03948871, -0.20034187, -39249.324, -39091.887, 0.0, 5.0071607, 4.9503055 
2.1804966e+2, 3.049664e+2, -32421.12, -99819.67, -2981.2239, 0.069775686, -0.05912751, -32289.508, -32289.508, 0.0, 5.005817, 4.957419 
2.1806358e+2, 3.0996856e+2, -36939.67, -97373.43, -3183.3562, 0.11449131, 0.20122138, -36772.453, -36772.453, 0.0, 5.0033417, 4.9589567 
2.1807891e+2, 3.1497318e+2, -43574.02, -96107.04, -4073.4678, 0.15764293, 0.4663304, -43260.035, -43260.035, 0.0, 4.9999056, 4.9604917 
2.2315954e+2, 1.21471986e+2, -1707559.4, -1751692.9, -809.82416, -0.0039085587, -0.034506783, -1707544.5, 42028.813, 0.0, 5.0165696, 4.9878016 
2.2316067e+2, 1.2646429e+2, -1661421.8, -1709013.0, -1155.4502, 0.004713255, 0.031042341, -1661393.8, 39256.16, 0.0, 5.0166836, 4.9856825 
2.2316052e+2, 1.3144766e+2, -1612301.1, -1659984.3, -1286.0381, 0.0011853828, 0.007145924, -1612266.5, 39544.85, 0.0, 5.016735, 4.985676 
2.2316037e+2, 1.36431e+2, -1565387.0, -1615491.1, -1416.8192, -0.002257781, -0.0155048445, -1565347.0, 37626.082, 0.0, 5.0167856, 4.9841657 
2.2315997e+2, 1.414125e+2, -1523251.5, -1580599.1, -2348.4827, -0.0034207923, -0.013744341, -1523155.5, 30998.344, 0.0, 5.0167775, 4.9794216 
2.2315918e+2, 1.4639293e+2, -1474320.4, -1531062.8, -2600.9512, -0.0012419089, -0.008443385, -1474201.4, 31145.057, 0.0, 5.016626, 4.979658 
2.2315837e+2, 1.5137336e+2, -1425754.1, -1482253.8, -2736.6304, 0.00091144315, -0.0036249354, -1425621.9, 30917.27, 0.0, 5.016467, 4.9796586 
2.2315754e+2, 1.5635376e+2, -1378612.1, -1436417.3, -2873.7034, 0.0030786793, 0.0016465188, -1378469.6, 29262.46, 0.0, 5.016308, 4.978664 
2.2315626e+2, 1.6133013e+2, -1338271.8, -1404934.4, -3748.6445, 0.004752274, 0.009998003, -1338061.6, 20903.025, 0.0, 5.016169, 4.972858 
2.2315404e+2, 1.6630305e+2, -1289309.0, -1355704.3, -3872.9932, 0.0051710755, 0.007432384, -1289083.9, 21147.783, 0.0, 5.016082, 4.9729395 
2.2315177e+2, 1.7127599e+2, -1240450.8, -1306709.5, -3813.3794, 0.005597772, 0.0048469747, -1240232.0, 21266.451, 0.0, 5.015996, 4.9729414 
2.2314952e+2, 1.7624894e+2, -1192726.0, -1260117.5, -3755.831, 0.006097151, 0.0027015263, -1192517.4, 20247.883, 0.0, 5.0159097, 4.9721355 
2.2314689e+2, 1.8121837e+2, -1152235.9, -1228780.0, -4100.462, 0.0050030863, 0.0080624735, -1152016.9, 12048.846, 0.0, 5.0157967, 4.9661813 
2.2314352e+2, 1.8618469e+2, -1103237.5, -1179003.4, -4154.4775, 0.00046789812, 0.004268403, -1103010.4, 12384.748, 0.0, 5.015595, 4.966476 
2.2314015e+2, 1.9115104e+2, -1054663.1, -1130105.8, -4137.5254, -0.004082482, 0.00023989717, -1054436.9, 12287.317, 0.0, 5.015386, 4.966478 
2.231368e+2, 1.961174e+2, -1006976.5, -1083120.5, -4121.5835, -0.008531985, -0.0034131112, -1006754.06, 11299.204, 0.0, 5.0151772, 4.965829 
2.2313355e+2, 2.0108032e+2, -967268.8, -1053128.0, -4466.123, -0.01041257, 0.0009768759, -967037.1, 2378.2522, 0.0, 5.014914, 4.959406 
2.2313057e+2, 2.060403e+2, -918749.2, -1003589.8, -4650.481, -0.004523254, 0.0013825201, -918495.0, 2309.6858, 0.0, 5.0145316, 4.959679 
2.2312762e+2, 2.1100035e+2, -870608.0, -954854.94, -4653.9624, 0.0021826162, 0.0020921926, -870351.7, 1841.5914, 0.0, 5.0141444, 4.9596796 
2.2312471e+2, 2.1596041e+2, -823125.9, -907568.4, -4658.789, 0.009235252, 0.0030899965, -822869.6, 712.129, 0.0, 5.0137568, 4.9591804 
2.2312127e+2, 2.2091672e+2, -784935.7, -881412.56, -5043.886, 0.013746337, 0.014088713, -784672.7, -9663.452, 0.0, 5.013528, 4.951315 
2.231167e+2, 2.2586785e+2, -735038.5, -831086.0, -4920.4043, 0.011059804, 0.0048596165, -734787.1, -8293.092, 0.0, 5.013586, 4.9515905 
2.2311212e+2, 2.3081881e+2, -685477.0, -781583.75, -4782.6143, 0.008019452, -0.007436655, -685239.6, -7258.421, 0.0, 5.013647, 4.9516106 
2.2310756e+2, 2.3576975e+2, -636564.7, -733535.44, -4658.972, 0.00517419, -0.019923277, -636341.4, -6873.08, 0.0, 5.0137057, 4.951129 
2.2310309e+2, 2.4071857e+2, -595097.06, -701816.25, -4256.0815, 0.0015728233, -0.009285786, -594927.6, -13956.844, 0.0, 5.013752, 4.9449496 
2.2309853e+2, 2.45666e+2, -542365.94, -646932.0, -4293.765, -0.005681727, -0.002563024, -542189.94, -9721.812, 0.0, 5.014155, 4.946637 
2.2309405e+2, 2.5061342e+2, -491618.9, -597041.1, -4233.388, -0.012877096, 0.00085414737, -491449.2, -7485.3794, 0.0, 5.0146284, 4.9466033 
2.2308975e+2, 2.555611e+2, -441126.94, -547730.25, -4150.55, -0.019441446, 0.007620927, -440965.6, -5508.936, 0.0, 5.0150933, 4.9463706 
2.2308424e+2, 2.605003e+2, -410128.13, -543508.5, -2767.2358, -0.03928725, 0.019522216, -410070.72, -23024.68, 0.0, 5.0158253, 4.929774 
2.2307947e+2, 2.654347e+2, -353219.53, -478392.38, -3682.5403, -0.038163748, -0.020158945, -353111.28, -14376.523, 0.0, 5.015989, 4.9342422 
2.2307606e+2, 2.7037105e+2, -302170.3, -426772.88, -5708.1416, -0.025008883, -0.07531799, -301909.38, -11499.171, 0.0, 5.0159063, 4.9348507 
2.230734e+2, 2.7530712e+2, -250993.33, -375501.25, -8130.6523, -0.009825474, -0.14517348, -250464.63, -8376.161, 0.0, 5.015785, 4.9354124 
2.2305976e+2, 2.802559e+2, -230583.6, -412572.28, -12385.275, -0.08513275, 0.11862849, -229744.58, -36115.82, 0.0, 5.0197396, 4.905023 
2.23049e+2, 2.8519914e+2, -142051.48, -268909.2, -3178.7588, -0.11159383, 0.28112245, -141971.88, 3184.6663, 0.0, 5.020696, 4.9372125 
2.2304836e+2, 2.9012674e+2, -100484.63, -221280.33, -2690.16, -0.05883761, 0.14848459, -100424.76, -3596.5232, 0.0, 5.0178475, 4.9374833 
2.2304852e+2, 2.950527e+2, -58708.227, -173771.8, -2741.7563, -0.0060817706, -0.00835602, -58642.934, -10127.082, 0.0, 5.0148954, 4.9377546 
2.2304916e+2, 2.999836e+2, -24647.578, -114172.766, -3149.4058, 0.024617262, -0.188029, -24536.924, -24364.28, 0.0, 5.012406, 4.9514284 
2.2305815e+2, 3.0496156e+2, -20019.46, -94509.19, -7744.0513, 0.05856203, -0.05768813, -19222.896, -19222.896, 0.0, 5.0111384, 4.957216 
2.230715e+2, 3.0996233e+2, -21617.145, -89980.984, -11242.366, 0.11737591, 0.22037922, -19815.81, -19815.81, 0.0, 5.0096984, 4.9592657 
2.2308674e+2, 3.149695e+2, -22799.06, -85871.68, -14262.678, 0.18260822, 0.5435047, -19723.77, -19723.77, 0.0, 5.008136, 4.9613204 
2.2817594e+2, 1.2146996e+2, -1707554.9, -1751701.0, -333.3662, -0.0056877085, -0.038858823, -1707552.4, 42037.63, 0.0, 5.016571, 4.9877996 
2.2817676e+2, 1.264618e+2, -1661640.5, -1709484.5, -1119.5778, -0.0014647751, 0.023512784, -1661614.4, 39057.066, 0.0, 5.016687, 4.9855275 
2.28177e+2, 1.3144533e+2, -1612518.6, -1660451.1, -1246.8761, -0.0013889873, 0.002664714, -1612486.3, 39345.66, 0.0, 5.0167375, 4.985522 
2.2817726e+2, 1.3642882e+2, -1565603.3, -1615953.5, -1374.3031, -0.0012668144, -0.016940005, -1565565.8, 37426.934, 0.0, 5.0167875, 4.984013 
2.2817704e+2, 1.4141037e+2, -1523459.8, -1581035.4, -2429.49, -0.00046435566, -0.013087255, -1523357.4, 30816.018, 0.0, 5.0167785, 4.979278 
2.2817603e+2, 1.4639069e+2, -1474561.9, -1531571.3, -2721.3572, 0.00095846667, -0.007254516, -1474432.3, 30935.865, 0.0, 5.016627, 4.9794903 
2.2817497e+2, 1.5137097e+2, -1425992.1, -1482759.5, -2855.6338, 0.0023033256, -0.0019279013, -1425848.9, 30714.197, 0.0, 5.0164685, 4.9794908 
2.2817394e+2, 1.5635127e+2, -1378846.5, -1436920.4, -2991.2598, 0.0036433765, 0.003834277, -1378692.9, 29065.207, 0.0, 5.01631, 4.978496 
2.2817239e+2, 1.6132754e+2, -1338229.4, -1404846.3, -3835.569, 0.00431173, 0.0120260855, -1338009.3, 20982.842, 0.0, 5.0161686, 4.9728875 
2.2816995e+2, 1.6630039e+2, -1289193.9, -1355466.6, -3940.1226, 0.0034163974, 0.008065297, -1288960.5, 21298.354, 0.0, 5.016082, 4.973019 
2.2816746e+2, 1.7127326e+2, -1240331.3, -1306470.0, -3877.2065, 0.002488306, 0.0040281396, -1240104.8, 21420.623, 0.0, 5.0159974, 4.973021 
2.28165e+2, 1.7624614e+2, -1192602.0, -1259876.1, -3816.345, 0.0015921571, 0.00039425123, -1192386.3, 20405.555, 0.0, 5.0159125, 4.972215 
2.2816223e+2, 1.8121557e+2, -1152152.9, -1228628.9, -4223.816, 0.00026018964, 0.005002262, -1151920.3, 12171.369, 0.0, 5.0158, 4.966232 
2.2815894e+2, 1.8618204e+2, -1103185.6, -1178923.6, -4311.694, -0.0015331056, 0.0023179164, -1102940.9, 12479.085, 0.0, 5.015599, 4.9665027 
2.2815566e+2, 1.9114853e+2, -1054608.9, -1130024.5, -4291.888, -0.0032418815, -0.0005271754, -1054365.4, 12382.7705, 0.0, 5.015391, 4.966505 
2.2815236e+2, 1.9611503e+2, -1006919.7, -1083037.6, -4273.0713, -0.0048992825, -0.0030097615, -1006680.56, 11395.547, 0.0, 5.0151825, 4.9658566 
2.2814906e+2, 2.0107807e+2, -967254.2, -1053094.8, -4738.4766, -0.004659466, 0.0024388698, -966993.44, 2443.9883, 0.0, 5.0149136, 4.959419 
2.2814558e+2, 2.0603813e+2, -918748.94, -1003580.3, -4946.67, 0.00018271683, 0.0035124328, -918461.5, 2365.3572, 0.0, 5.014529, 4.959685 
2.2814211e+2, 2.1099824e+2, -870602.4, -954840.94, -4945.0522, 0.0054324386, 0.0047957017, -870313.06, 1902.5637, 0.0, 5.0141435, 4.9596863 
2.2813864e+2, 2.1595836e+2, -823114.8, -907549.94, -4944.7485, 0.010925855, 0.006297023, -822826.2, 778.10986, 0.0, 5.013757, 4.9591875 
2.2813477e+2, 2.2091465e+2, -784680.25, -880857.06, -5046.149, 0.013188687, 0.016449038, -784416.2, -9384.306, 0.0, 5.013528, 4.951508 
2.2813007e+2, 2.2586575e+2, -734680.7, -830386.4, -4830.905, 0.00842119, 0.0050565577, -734437.44, -7922.727, 0.0, 5.013597, 4.951834 
2.2812538e+2, 2.3081668e+2, -685082.0, -780882.8, -4673.5864, 0.0034297935, -0.009445079, -684854.5, -6854.7065, 0.0, 5.0136704, 4.9518504 
2.2812073e+2, 2.3576757e+2, -636132.56, -732833.25, -4530.421, -0.0015442393, -0.024410663, -635920.8, -6435.688, 0.0, 5.0137415, 4.9513655 
2.2811632e+2, 2.4071611e+2, -594574.6, -701110.75, -4012.0935, -0.006399444, -0.019367756, -594423.7, -13434.684, 0.0, 5.0138173, 4.94517 
2.2811249e+2, 2.456636e+2, -542189.0, -646965.06, -3965.8425, -0.009769321, -0.011692519, -542039.1, -9551.553, 0.0, 5.014216, 4.9466033 
2.281088e+2, 2.506113e+2, -491484.22, -597037.6, -3881.0762, -0.012601878, -0.0046714265, -491341.7, -7358.9497, 0.0, 5.0146704, 4.946588 
2.2810528e+2, 2.5555933e+2, -441034.44, -547690.25, -3773.8628, -0.014999539, 0.00559182, -440901.06, -5426.1094, 0.0, 5.015116, 4.946374 
2.2810057e+2, 2.604998e+2, -408449.72, -539690.4, -2177.5496, -0.032643944, 0.021736225, -408413.6, -21361.967, 0.0, 5.015816, 4.9311695 
2.2809596e+2, 2.654344e+2, -353145.44, -479941.25, -2708.021, -0.042559568, -0.0075837066, -353087.63, -14356.185, 0.0, 5.016214, 4.9338417 
2.2809246e+2, 2.7036968e+2, -301269.84, -428565.78, -4283.709, -0.04463918, -0.05595748, -301125.88, -10716.496, 0.0, 5.0164223, 4.9342756 
2.2808965e+2, 2.7530414e+2, -249269.36, -377540.78, -6256.5684, -0.04692831, -0.12343185, -248964.9, -6869.556, 0.0, 5.016592, 4.9346623 
2.2807622e+2, 2.8024703e+2, -225490.22, -397249.47, -12598.82, -0.13499464, 0.06337492, -224571.0, -30883.473, 0.0, 5.019297, 4.9103823 
2.280646e+2, 2.8518963e+2, -147083.84, -269552.63, -6286.9224, -0.15349425, 0.20511475, -146761.95, -1535.8518, 0.0, 5.0193124, 4.9372954 
2.2806242e+2, 2.9012072e+2, -104802.86, -222578.6, -5248.9243, -0.09397204, 0.12120931, -104569.4, -7699.6636, 0.0, 5.016738, 4.9372888 
2.2806098e+2, 2.9504982e+2, -62310.152, -175725.94, -4751.529, -0.037734732, 0.011366633, -62111.438, -13578.393, 0.0, 5.0140595, 4.937283 
2.2806007e+2, 2.999864e+2, -23351.672, -106353.8, -3932.1865, -0.006059331, -0.118026, -23165.803, -23027.47, 0.0, 5.011732, 4.9544053 
2.2806703e+2, 3.0496004e+2, -25273.986, -100918.03, -7070.5024, 0.021440629, -0.0034643533, -24618.775, -24618.775, 0.0, 5.0103307, 4.9553967 
2.2807784e+2, 3.099514e+2, -26691.467, -94460.266, -9357.368, 0.06531292, 0.23166917, -25423.158, -25423.158, 0.0, 5.008753, 4.9580197 
2.280903e+2, 3.1494945e+2, -27690.748, -88422.555, -11162.267, 0.10847407, 0.50761414, -25704.15, -25704.15, 0.0, 5.007053, 4.960647 
2.3319235e+2, 1.2146795e+2, -1707492.1, -1751588.6, 150.16544, -0.0073327417, -0.042961884, -1707491.6, 42114.992, 0.0, 5.016573, 4.9878364 
2.3319283e+2, 1.2645932e+2, -1661860.3, -1709955.5, -1084.9408, -0.007605416, 0.016123865, -1661835.8, 38857.137, 0.0, 5.01669, 4.985372 
2.3319349e+2, 1.31443e+2, -1612737.1, -1660917.6, -1208.9493, -0.0039403164, -0.0017288383, -1612706.8, 39145.676, 0.0, 5.01674, 4.9853673 
2.3319414e+2, 1.3642663e+2, -1565820.4, -1616415.4, -1333.0223, -0.0002671534, -0.018340481, -1565785.3, 37227.023, 0.0, 5.01679, 4.9838595 
2.3319414e+2, 1.4140823e+2, -1523676.4, -1581488.4, -2512.2097, 0.002504076, -0.012396528, -1523567.4, 30625.604, 0.0, 5.0167794, 4.9791284 
2.3319289e+2, 1.4638844e+2, -1474803.8, -1532079.5, -2841.5386, 0.003170435, -0.006044191, -1474663.1, 30726.69, 0.0, 5.0166283, 4.979322 
2.331916e+2, 1.5136862e+2, -1426230.4, -1483265.1, -2974.4124, 0.0037005106, -0.00023527634, -1426075.8, 30511.137, 0.0, 5.0164704, 4.9793224 
2.3319031e+2, 1.5634878e+2, -1379081.3, -1437423.3, -3108.591, 0.0042070886, 0.005991765, -1378916.0, 28867.957, 0.0, 5.016312, 4.978328 
2.3318854e+2, 1.6132495e+2, -1338199.4, -1404783.1, -3926.9514, 0.003911009, 0.0141191175, -1337968.6, 21050.84, 0.0, 5.0161686, 4.9729085 
2.3318587e+2, 1.6629773e+2, -1289079.6, -1355228.6, -4006.7737, 0.0017034977, 0.008752049, -1288837.8, 21448.14, 0.0, 5.0160823, 4.973098 
2.3318316e+2, 1.7127053e+2, -1240212.5, -1306230.0, -3940.5552, -0.00059615215, 0.0032106533, -1239978.1, 21574.018, 0.0, 5.015999, 4.9730997 
2.3318046e+2, 1.7624335e+2, -1192478.9, -1259634.3, -3876.3809, -0.0029045949, -0.0019641558, -1192255.9, 20562.455, 0.0, 5.0159154, 4.972295 
2.3317759e+2, 1.8121278e+2, -1152084.6, -1228507.3, -4349.3613, -0.0044320496, 0.00199466, -1151837.9, 12279.753, 0.0, 5.0158033, 4.9662714 
2.3317437e+2, 1.861794e+2, -1103134.6, -1178843.1, -4468.797, -0.0034822104, 0.0004397324, -1102871.8, 12573.092, 0.0, 5.0156026, 4.966529 
2.3317116e+2, 1.9114603e+2, -1054555.4, -1129942.5, -4446.1377, -0.0023717403, -0.0012570065, -1054294.0, 12477.889, 0.0, 5.0153956, 4.9665313 
2.3316793e+2, 1.9611268e+2, -1006863.75, -1082954.1, -4424.446, -0.0012593941, -0.0026042259, -1006607.3, 11491.541, 0.0, 5.0151877, 4.9658833 
2.3316458e+2, 2.0107585e+2, -967256.0, -1053095.3, -5020.815, 0.0011886028, 0.0040113754, -966963.3, 2496.0293, 0.0, 5.0149126, 4.9594197 
2.3316061e+2, 2.0603597e+2, -918750.2, -1003569.56, -5242.9023, 0.005040629, 0.005762996, -918427.4, 2421.5122, 0.0, 5.014527, 4.95969 
2.331566e+2, 2.1099612e+2, -870598.2, -954825.75, -5236.1846, 0.00884071, 0.0075667873, -870273.9, 1963.9863, 0.0, 5.0141425, 4.959692 
2.331526e+2, 2.159563e+2, -823105.2, -907530.25, -5230.75, 0.012781413, 0.009518561, -822782.3, 844.49005, 0.0, 5.013757, 4.959194 
2.3314823e+2, 2.2091256e+2, -784458.7, -880370.56, -5053.109, 0.012617436, 0.018840436, -784193.2, -9138.568, 0.0, 5.0135274, 4.9516754 
2.3314343e+2, 2.2586365e+2, -734327.7, -829683.1, -4732.9326, 0.005722092, 0.0049988893, -734093.4, -7557.698, 0.0, 5.013608, 4.9520745 
2.3313867e+2, 2.3081453e+2, -684691.75, -780178.25, -4556.091, -0.0012214776, -0.0120767085, -684474.8, -6456.0684, 0.0, 5.013694, 4.9520874 
2.3313394e+2, 2.3576535e+2, -635705.2, -732127.44, -4393.4077, -0.008325436, -0.029889805, -635505.44, -6003.092, 0.0, 5.0137773, 4.9515986 
2.3312968e+2, 2.4071378e+2, -594220.3, -700751.06, -3740.071, -0.014038777, -0.028088516, -594089.2, -13083.071, 0.0, 5.013882, 4.9452667 
2.3312655e+2, 2.4566142e+2, -542025.44, -646985.3, -3656.6135, -0.013515177, -0.018619256, -541898.25, -9393.168, 0.0, 5.014277, 4.946566 
2.3312362e+2, 2.5060937e+2, -491362.88, -597021.4, -3547.4426, -0.01226311, -0.008698261, -491243.9, -7243.8184, 0.0, 5.014713, 4.9465694 
2.331208e+2, 2.5555763e+2, -440955.25, -547637.44, -3415.8394, -0.010772251, 0.0043573948, -440846.0, -5354.009, 0.0, 5.01514, 4.946374 
2.3311661e+2, 2.604989e+2, -407695.34, -537850.2, -1552.9464, -0.028556034, 0.023266602, -407676.8, -20615.336, 0.0, 5.015807, 4.9318247 
2.3311237e+2, 2.6543313e+2, -353140.5, -481443.6, -1430.1523, -0.050160088, -0.0041071456, -353124.56, -14386.957, 0.0, 5.0164385, 4.933315 
2.3310924e+2, 2.7036703e+2, -300436.75, -430311.3, -2556.2834, -0.06687121, -0.055223983, -300386.47, -9965.576, 0.0, 5.016938, 4.9335732 
2.331067e+2, 2.7529958e+2, -247611.17, -379531.88, -4079.839, -0.086031124, -0.12984058, -247485.11, -5367.6387, 0.0, 5.017399, 4.933785 
2.3309214e+2, 2.8023854e+2, -225089.34, -392772.63, -14972.758, -0.18718252, 0.016083876, -223762.89, -30020.225, 0.0, 5.018863, 4.9119477 
2.3307878e+2, 2.8518197e+2, -152285.92, -270040.56, -8909.811, -0.19560187, 0.16233635, -151615.58, -6337.9873, 0.0, 5.0179286, 4.937273 
2.3307562e+2, 2.9011622e+2, -109289.93, -223720.08, -7320.891, -0.12636834, 0.11641966, -108823.46, -11926.967, 0.0, 5.015628, 4.9369893 
2.3307309e+2, 2.950481e+2, -66080.12, -177521.9, -6272.8726, -0.06370378, 0.04283085, -65728.14, -17189.324, 0.0, 5.0132236, 4.9367056 
2.330708e+2, 2.999888e+2, -24230.393, -103067.58, -5037.2764, -0.030262882, -0.049085807, -23909.842, -23801.432, 0.0, 5.011059, 4.955637 
2.3307468e+2, 3.0495623e+2, -30720.145, -107155.13, -7188.855, -0.020756587, 0.02420261, -30049.896, -30049.896, 0.0, 5.009525, 4.9533076 
2.3308182e+2, 3.0993694e+2, -31958.973, -98763.3, -8266.426, -0.0054399585, 0.18678357, -30951.277, -30951.277, 0.0, 5.0078087, 4.956503 
2.3309034e+2, 3.1492487e+2, -32777.68, -90793.23, -8859.38, 0.0020460028, 0.38593474, -31454.947, -31454.947, 0.0, 5.0059714, 4.959703 
2.382088e+2, 1.21465944e+2, -1707108.6, -1751243.8, 606.66815, -0.008829375, -0.04680212, -1707100.3, 42522.863, 0.0, 5.0166664, 4.9879036 
2.3820893e+2, 1.2645687e+2, -1661874.8, -1710325.5, -1093.2708, -0.013541091, 0.0090865, -1661850.1, 38864.066, 0.0, 5.016762, 4.9852157 
2.3821e+2, 1.3144067e+2, -1612802.4, -1661307.8, -1213.2368, -0.0063925376, -0.0059078997, -1612772.1, 39100.797, 0.0, 5.016794, 4.9852123 
2.3821105e+2, 1.3642444e+2, -1565959.4, -1616836.1, -1329.8942, 0.00074352184, -0.01966465, -1565924.6, 37107.285, 0.0, 5.016818, 4.9837065 
2.3821121e+2, 1.4140612e+2, -1523868.1, -1581938.5, -2622.0989, 0.005451343, -0.011695027, -1523750.0, 30462.717, 0.0, 5.016791, 4.9789743 
2.3820974e+2, 1.463862e+2, -1474958.0, -1532541.0, -2971.5054, 0.0053757536, -0.0048513305, -1474805.1, 30606.354, 0.0, 5.0166583, 4.9791546 
2.3820822e+2, 1.5136625e+2, -1426341.1, -1483703.8, -3087.876, 0.005117493, 0.0014116947, -1426175.4, 30435.29, 0.0, 5.0165143, 4.9791555 
2.382067e+2, 1.5634628e+2, -1379167.4, -1437848.1, -3205.281, 0.004834471, 0.008088239, -1378992.8, 28817.22, 0.0, 5.0163646, 4.9781623 
2.3820469e+2, 1.6132236e+2, -1338033.3, -1404673.9, -3992.8315, 0.0036486282, 0.016257204, -1337794.9, 21251.875, 0.0, 5.016219, 4.9729195 
2.3820178e+2, 1.6629508e+2, -1288859.3, -1354941.4, -4056.3408, 0.000108601, 0.009483667, -1288611.1, 21701.861, 0.0, 5.0161195, 4.973174 
2.3819886e+2, 1.7126782e+2, -1240056.4, -1305973.4, -4001.6812, -0.0035839595, 0.0024143495, -1239814.4, 21764.615, 0.0, 5.0160146, 4.973177 
2.3819596e+2, 1.7624055e+2, -1192412.4, -1259419.8, -3949.408, -0.0073060924, -0.004307835, -1192180.5, 20664.418, 0.0, 5.0159006, 4.972372 
2.3819293e+2, 1.8121003e+2, -1152171.0, -1228476.5, -4495.449, -0.008982068, -0.0008622143, -1151907.1, 12236.342, 0.0, 5.015759, 4.9663024 
2.3818979e+2, 1.8617678e+2, -1103251.5, -1178836.6, -4637.8184, -0.0053292084, -0.0012925887, -1102968.0, 12501.637, 0.0, 5.0155497, 4.966556 
2.3818666e+2, 1.9114354e+2, -1054737.3, -1129969.0, -4612.468, -0.0014391516, -0.0019029719, -1054455.5, 12340.113, 0.0, 5.0153203, 4.966558 
2.3818351e+2, 1.9611032e+2, -1007156.25, -1083034.8, -4594.065, 0.0024295184, -0.0021773162, -1006879.1, 11242.488, 0.0, 5.0150743, 4.9659095 
2.381801e+2, 2.0107363e+2, -967659.6, -1053307.4, -5326.3228, 0.0071751364, 0.005684717, -967329.6, 2151.6016, 0.0, 5.014779, 4.95941 
2.3817565e+2, 2.0603381e+2, -918952.2, -1003647.5, -5539.0356, 0.010059857, 0.008118696, -918591.5, 2279.355, 0.0, 5.014456, 4.959696 
2.381711e+2, 2.1099404e+2, -870654.94, -954834.44, -5520.906, 0.012397349, 0.010395069, -870294.4, 1965.6786, 0.0, 5.014121, 4.959698 
2.3816657e+2, 2.1595424e+2, -823071.7, -907495.5, -5508.9546, 0.014785568, 0.012757293, -822713.75, 935.5194, 0.0, 5.013767, 4.959201 
2.3816171e+2, 2.2091049e+2, -784217.7, -879913.7, -5042.5674, 0.012031006, 0.02125921, -783952.75, -8875.307, 0.0, 5.013545, 4.951822 
2.381568e+2, 2.258615e+2, -734001.56, -828959.6, -4560.227, 0.0030294103, 0.0046600783, -733783.06, -7226.383, 0.0, 5.01361, 4.952319 
2.3815203e+2, 2.3081236e+2, -684558.56, -779550.06, -4311.6836, -0.0056685056, -0.015299275, -684363.25, -6325.377, 0.0, 5.0136285, 4.9523306 
2.3814724e+2, 2.3576313e+2, -635918.44, -731663.44, -4068.5005, -0.014572383, -0.03618737, -635745.9, -6226.2256, 0.0, 5.0135903, 4.9518404 
2.3814322e+2, 2.4071163e+2, -595151.4, -701186.44, -3178.2297, -0.020361995, -0.035159722, -595056.2, -14034.891, 0.0, 5.0135603, 4.9452543 
2.3814084e+2, 2.4565952e+2, -543324.6, -647631.25, -3060.177, -0.015683733, -0.022963472, -543234.94, -10715.07, 0.0, 5.0138407, 4.9465246 
2.3813859e+2, 2.5060767e+2, -493090.7, -597840.3, -2976.1626, -0.010298179, -0.010551674, -493006.2, -8991.424, 0.0, 5.014125, 4.946535 
2.3813647e+2, 2.555562e+2, -443203.5, -548667.2, -2959.9014, -0.004778963, 0.005081847, -443120.5, -7614.078, 0.0, 5.0143695, 4.9463468 
2.3813249e+2, 2.6049772e+2, -411067.66, -539070.5, -650.0062, -0.024182532, 0.025313206, -411064.34, -23990.357, 0.0, 5.0146213, 4.9318876 
2.3812896e+2, 2.6543117e+2, -360754.75, -485260.56, 2371.866, -0.055222787, -0.0104927905, -360709.6, -21958.99, 0.0, 5.0138726, 4.93304 
2.3812684e+2, 2.7036375e+2, -314225.16, -437019.6, 4882.1665, -0.08105757, -0.07507652, -314031.34, -23592.572, 0.0, 5.012136, 4.9332643 
2.3812534e+2, 2.752947e+2, -269873.6, -390125.03, 8046.7275, -0.10969633, -0.16655588, -269337.53, -27194.459, 0.0, 5.0095263, 4.933442 
2.3810859e+2, 2.8023213e+2, -259726.55, -412606.97, -5224.369, -0.21841691, -0.025404744, -259548.23, -65771.21, 0.0, 5.007621, 4.909821 
2.3809244e+2, 2.8517747e+2, -176488.92, -280224.3, 199.52339, -0.2213015, 0.15097964, -176488.55, -31190.385, 0.0, 5.0099363, 4.936722 
2.3808856e+2, 2.9011405e+2, -122795.61, -229622.02, -1230.4722, -0.14605676, 0.13236095, -122781.44, -25881.043, 0.0, 5.011466, 4.936302 
2.3808528e+2, 2.950479e+2, -72163.5, -180591.86, -2171.3794, -0.07865448, 0.08351794, -72120.03, -23590.867, 0.0, 5.0117397, 4.9358854 
2.3808168e+2, 2.9999086e+2, -26483.91, -103483.8, -2777.7856, -0.04495242, 0.015135895, -26383.832, -26302.371, 0.0, 5.0107417, 4.955301 
2.3808144e+2, 3.0495065e+2, -40554.46, -114198.21, -4074.192, -0.062234648, 0.025135769, -40329.75, -40329.75, 0.0, 5.0072613, 4.95126 
2.3808405e+2, 3.0992046e+2, -52723.813, -108764.85, -4031.796, -0.0815373, 0.093855076, -52435.234, -52435.234, 0.0, 5.0014324, 4.954998 
2.38088e+2, 3.1489825e+2, -70020.27, -106120.95, -4379.8965, -0.111239925, 0.1992386, -69496.484, -69496.484, 0.0, 4.9934897, 4.958744 
2.4322568e+2, 1.2146382e+2, -1703688.0, -1750459.6, 303.87177, -0.01379936, -0.049137857, -1703686.0, 45957.402, 0.0, 5.0179887, 4.987515 
2.4322645e+2, 1.2645543e+2, -1658900.3, -1709179.1, -1520.8939, -0.0114865415, 0.015218134, -1658854.3, 41873.914, 0.0, 5.0178137, 4.9850802 
2.4322738e+2, 1.3143885e+2, -1610435.5, -1660450.0, -1620.2699, -0.00503291, -0.0021374028, -1610383.0, 41507.676, 0.0, 5.017646, 4.985081 
2.4322827e+2, 1.3642226e+2, -1564172.3, -1616250.9, -1720.1499, 0.0014987164, -0.018255807, -1564115.5, 38938.07, 0.0, 5.017477, 4.9835796 
2.4322832e+2, 1.4140365e+2, -1522344.4, -1581407.8, -2976.6594, 0.005747358, -0.012068911, -1522194.8, 32042.426, 0.0, 5.017347, 4.9788804 
2.4322674e+2, 1.4638355e+2, -1473124.0, -1531854.6, -3247.4424, 0.005278125, -0.005960801, -1472945.0, 32492.428, 0.0, 5.017319, 4.979063 
2.432251e+2, 1.5136345e+2, -1424156.1, -1482845.0, -3290.5105, 0.004711821, -0.00034756085, -1423972.3, 32665.768, 0.0, 5.017296, 4.979065 
2.4322347e+2, 1.5634334e+2, -1376614.1, -1436809.9, -3335.391, 0.0042195763, 0.0057511963, -1376429.9, 31408.768, 0.0, 5.017272, 4.978072 
2.4322134e+2, 1.6131933e+2, -1335232.0, -1403329.6, -4157.8003, 0.0029833226, 0.013861116, -1334979.1, 24096.87, 0.0, 5.01717, 4.972912 
2.4321826e+2, 1.6629219e+2, -1286595.5, -1353798.6, -4301.0166, -0.0004463112, 0.008179674, -1286321.4, 24019.613, 0.0, 5.016878, 4.973193 
2.4321514e+2, 1.7126508e+2, -1238376.8, -1305111.9, -4314.746, -0.0039295056, 0.0023393119, -1238098.9, 23506.752, 0.0, 5.0165777, 4.973197 
2.4321203e+2, 1.7623797e+2, -1191287.3, -1258823.1, -4330.8135, -0.007340456, -0.003061778, -1191010.6, 21859.574, 0.0, 5.016277, 4.9723926 
2.4320881e+2, 1.8120757e+2, -1151603.1, -1228173.5, -4969.1816, -0.0086696725, 0.0014638174, -1151282.0, 12885.727, 0.0, 5.015952, 4.966311 
2.4320541e+2, 1.861743e+2, -1103082.3, -1178715.5, -5164.061, -0.0047646817, 0.00084055983, -1102731.4, 12762.815, 0.0, 5.015604, 4.96657 
2.4320202e+2, 1.9114105e+2, -1054914.0, -1130027.5, -5175.851, -0.00049432926, -0.000072011644, -1054559.0, 12261.611, 0.0, 5.015257, 4.966567 
2.4319862e+2, 1.961078e+2, -1007630.44, -1083249.3, -5187.019, 0.0038986485, -0.0006508585, -1007276.3, 10870.73, 0.0, 5.0149093, 4.9659133 
2.4319492e+2, 2.0107113e+2, -968047.75, -1053361.4, -5864.3174, 0.008694255, 0.0069976454, -967646.5, 1860.3906, 0.0, 5.014618, 4.959466 
2.4319011e+2, 2.0603137e+2, -918869.6, -1003455.0, -5995.172, 0.010325477, 0.009427304, -918446.8, 2449.1733, 0.0, 5.0144525, 4.959762 
2.431852e+2, 2.1099165e+2, -870079.3, -954416.7, -5924.8784, 0.011413527, 0.011748812, -869665.1, 2619.5605, 0.0, 5.01429, 4.9597626 
2.4318032e+2, 2.1595193e+2, -821952.25, -906830.7, -5854.876, 0.0125996955, 0.014203371, -821550.25, 2123.1106, 0.0, 5.014127, 4.959263 
2.4317518e+2, 2.2090818e+2, -782704.56, -878567.4, -5208.862, 0.0091144685, 0.02139748, -782422.4, -7321.2476, 0.0, 5.0139437, 4.952097 
2.4317029e+2, 2.2585927e+2, -733557.3, -827866.06, -4673.4233, 0.0015188329, 0.0020571244, -733326.3, -6748.3813, 0.0, 5.013596, 4.9526935 
2.4316558e+2, 2.3081025e+2, -685220.1, -778919.3, -4398.1997, -0.004757851, -0.019967895, -685014.1, -6958.47, 0.0, 5.0132256, 4.9527183 
2.4316095e+2, 2.3576124e+2, -637525.56, -731416.2, -4133.3154, -0.010419026, -0.042438976, -637343.94, -7810.432, 0.0, 5.0128527, 4.9522414 
2.4315715e+2, 2.4071011e+2, -598236.7, -702160.94, -3130.774, -0.012220844, -0.040581558, -598142.44, -17111.717, 0.0, 5.012446, 4.9453807 
2.4315493e+2, 2.4565873e+2, -548319.1, -650038.8, -3257.0308, -0.004434737, -0.020935966, -548214.94, -15689.385, 0.0, 5.012146, 4.946409 
2.4315281e+2, 2.5060767e+2, -499653.38, -601172.56, -3356.0938, 0.004429756, 0.00041727695, -499542.53, -15525.793, 0.0, 5.0118766, 4.946348 
2.4315086e+2, 2.5555697e+2, -451228.66, -552870.56, -3444.0007, 0.014054874, 0.026037447, -451112.1, -15607.664, 0.0, 5.0116024, 4.946089 
2.4314715e+2, 2.604993e+2, -417066.13, -536940.4, -1003.2718, 0.00046833252, 0.048733436, -417057.72, -29992.998, 0.0, 5.011525, 4.933982 
2.4314448e+2, 2.6543298e+2, -363954.8, -477490.2, 1453.7483, -0.020980816, -0.014782436, -363936.22, -25208.6, 0.0, 5.0111933, 4.93675 
2.431439e+2, 2.7036694e+2, -313048.03, -424659.22, 2098.9731, -0.025345905, -0.10584735, -313008.56, -22619.03, 0.0, 5.0107517, 4.937825 
2.4314459e+2, 2.7530068e+2, -261938.95, -372253.47, 2291.6733, -0.019675223, -0.21931387, -261891.38, -19837.857, 0.0, 5.0102677, 4.9388537 
2.4312995e+2, 2.8024045e+2, -240314.47, -401580.72, -13119.818, -0.07420946, -0.10543726, -239254.08, -45598.914, 0.0, 5.0136204, 4.911624 
2.4311231e+2, 2.851838e+2, -164369.1, -286741.25, -268.79422, -0.10485884, 0.08375373, -164368.5, -19166.254, 0.0, 5.015574, 4.933285 
2.4310656e+2, 2.9011884e+2, -117615.3, -235831.48, -242.49782, -0.07616305, 0.092222005, -117614.8, -20786.855, 0.0, 5.014452, 4.933731 
2.4310176e+2, 2.9505157e+2, -70635.445, -185125.08, -611.98596, -0.042079784, 0.06517394, -70632.17, -22156.072, 0.0, 5.0132594, 4.934176 
2.4309653e+2, 2.9999453e+2, -22909.44, -98889.24, -3175.372, -0.026203874, 0.014312759, -22776.965, -22743.303, 0.0, 5.0120564, 4.956557 
2.4309294e+2, 3.0495507e+2, -27187.518, -101501.2, -4929.894, -0.046960462, 0.020335946, -26861.9, -26861.9, 0.0, 5.0118175, 4.9540286 
2.4309316e+2, 3.0992717e+2, -23910.602, -89539.91, -3730.6716, -0.04383524, 0.10155549, -23699.213, -23699.213, 0.0, 5.011821, 4.9578514 
2.430962e+2, 3.1490937e+2, -20130.238, -78082.19, -2872.6248, -0.021265706, 0.2452842, -19988.193, -19988.193, 0.0, 5.0117383, 4.9616833 
2.4824287e+2, 1.2146158e+2, -1704630.5, -1752391.6, 62.61846, -0.021820372, -0.05073512, -1704630.5, 45036.03, 0.0, 5.01799, 4.9868817 
2.4824491e+2, 1.2645456e+2, -1659063.9, -1709536.5, -1652.6072, -0.005156392, 0.029187966, -1659009.8, 41728.367, 0.0, 5.0178165, 4.984963 
2.4824536e+2, 1.3143732e+2, -1610598.3, -1660804.5, -1749.2145, -0.0015981145, 0.0063687353, -1610537.4, 41369.9, 0.0, 5.017648, 4.984965 
2.482458e+2, 1.3642006e+2, -1564333.9, -1616601.9, -1846.1472, 0.0020013528, -0.015206707, -1564268.8, 38807.88, 0.0, 5.0174794, 4.9834642 
2.4824552e+2, 1.4140093e+2, -1522439.4, -1581606.8, -3027.8237, 0.00434046, -0.013018345, -1522284.9, 31980.084, 0.0, 5.017347, 4.9788156 
2.4824388e+2, 1.4638065e+2, -1473198.0, -1532011.6, -3265.708, 0.0036122971, -0.008402784, -1473017.3, 32449.104, 0.0, 5.017319, 4.9790115 
2.4824221e+2, 1.5136033e+2, -1424227.6, -1483002.0, -3307.0823, 0.002771455, -0.0042663896, -1424042.1, 32625.885, 0.0, 5.0172963, 4.979013 
2.4824055e+2, 1.5634003e+2, -1376683.0, -1436966.5, -3350.226, 0.0019841697, 0.00033780083, -1376497.4, 31372.428, 0.0, 5.0172734, 4.97802 
2.4823831e+2, 1.6131596e+2, -1335257.6, -1403383.0, -4336.2373, 0.0009133606, 0.008192889, -1334982.8, 24124.557, 0.0, 5.01717, 4.972894 
2.4823508e+2, 1.662891e+2, -1286604.8, -1353823.5, -4528.0645, -0.0010616004, 0.0054087047, -1286301.1, 24069.242, 0.0, 5.0168786, 4.9731846 
2.4823181e+2, 1.7126228e+2, -1238382.0, -1305137.9, -4539.0884, -0.0030547888, 0.0025778026, -1238074.8, 23558.041, 0.0, 5.0165796, 4.9731874 
2.4822856e+2, 1.7623547e+2, -1191288.6, -1258850.3, -4552.4126, -0.005011365, 0.00015135785, -1190983.3, 21912.023, 0.0, 5.0162797, 4.9723825 
2.4822508e+2, 1.8120523e+2, -1151636.1, -1228259.3, -5237.3486, -0.0056739054, 0.006623492, -1151279.8, 12911.888, 0.0, 5.015954, 4.9662824 
2.4822122e+2, 1.8617186e+2, -1103092.0, -1178745.3, -5431.3447, -0.0029609483, 0.0050814776, -1102704.1, 12815.273, 0.0, 5.0156045, 4.966561 
2.4821733e+2, 1.9113849e+2, -1054923.3, -1130053.1, -5439.8804, -0.000007205981, 0.0030841345, -1054531.4, 12315.769, 0.0, 5.0152574, 4.9665594 
2.4821346e+2, 1.9610512e+2, -1007639.25, -1083270.9, -5447.7583, 0.0030232854, 0.0014191719, -1007248.8, 10926.051, 0.0, 5.0149093, 4.965907 
2.4820928e+2, 2.0106837e+2, -967915.7, -1053093.1, -6019.5415, 0.0060373056, 0.008073183, -967492.4, 2043.0177, 0.0, 5.01462, 4.9595575 
2.482042e+2, 2.0602867e+2, -918723.6, -1003165.3, -6118.6133, 0.0066129235, 0.010069383, -918282.56, 2641.1665, 0.0, 5.0144553, 4.959861 
2.4819905e+2, 2.1098901e+2, -869932.7, -954124.7, -6044.286, 0.0068184445, 0.012027482, -869500.94, 2810.6091, 0.0, 5.014293, 4.959862 
2.481939e+2, 2.1594937e+2, -821804.94, -906536.25, -5970.236, 0.007048165, 0.01411896, -821386.3, 2313.0522, 0.0, 5.01413, 4.9593635 
2.4818866e+2, 2.2090565e+2, -782225.6, -877609.94, -5398.258, 0.0041892678, 0.0196309, -781921.06, -6794.7007, 0.0, 5.013955, 4.9524274 
2.4818382e+2, 2.2585684e+2, -732971.4, -826749.0, -4933.9727, 0.00018684642, -0.0021398282, -732712.5, -6112.1387, 0.0, 5.013615, 4.953084 
2.4817915e+2, 2.3080797e+2, -684627.9, -777825.7, -4643.166, -0.002634457, -0.026316132, -684397.1, -6322.122, 0.0, 5.0132504, 4.9531016 
2.4817453e+2, 2.3575908e+2, -636926.9, -730345.7, -4362.6655, -0.005032158, -0.051003896, -636723.56, -7173.672, 0.0, 5.012882, 4.9526176 
2.4817067e+2, 2.4070828e+2, -598036.1, -702056.06, -3332.3784, -0.0047773393, -0.048311472, -597929.5, -16886.033, 0.0, 5.0124826, 4.94542 
2.4816798e+2, 2.456578e+2, -548377.6, -650550.06, -3473.5059, 0.0024235863, -0.018184604, -548259.7, -15725.946, 0.0, 5.0121875, 4.9462337 
2.4816537e+2, 2.5060764e+2, -499691.7, -601639.75, -3559.5134, 0.01060654, 0.013742695, -499567.56, -15546.556, 0.0, 5.011922, 4.946185 
2.481629e+2, 2.5555778e+2, -451247.1, -553294.0, -3634.3481, 0.019494131, 0.04921456, -451117.8, -15612.527, 0.0, 5.011651, 4.9459376 
2.4815898e+2, 2.6050082e+2, -414468.88, -532122.5, -1078.1182, 0.0062114974, 0.07382135, -414459.0, -27399.383, 0.0, 5.0116463, 4.93569 
2.481563e+2, 2.654341e+2, -359931.53, -471816.88, 2034.3037, -0.025836535, -0.012827281, -359894.56, -21181.885, 0.0, 5.011604, 4.9387794 
2.4815556e+2, 2.7036688e+2, -308420.5, -419772.0, 3263.8381, -0.04574805, -0.13113424, -308324.9, -17954.771, 0.0, 5.011448, 4.939552 
2.4815604e+2, 2.7529895e+2, -256708.61, -368150.4, 4041.5405, -0.058130838, -0.27421573, -256562.23, -14527.136, 0.0, 5.011249, 4.9402785 
2.4814245e+2, 2.8023696e+2, -238277.86, -397755.63, -15931.649, -0.0979368, -0.19081897, -236701.88, -43060.305, 0.0, 5.0137243, 4.912847 
2.4812591e+2, 2.8518185e+2, -166842.94, -288045.2, -3109.8425, -0.10307373, 0.0112995785, -166763.2, -21582.436, 0.0, 5.0148835, 4.9328246 
2.4812028e+2, 2.9011887e+2, -119896.45, -237952.77, -2537.2334, -0.07330959, 0.044378676, -119841.945, -23044.96, 0.0, 5.0138764, 4.93302 
2.4811555e+2, 2.950535e+2, -72720.68, -188061.6, -2361.9636, -0.040255267, 0.04375466, -72672.33, -24236.018, 0.0, 5.0127983, 4.933214 
2.4811001e+2, 2.9999715e+2, -22907.87, -99121.66, -4291.0957, -0.027015608, 0.008038684, -22667.027, -22667.027, 0.0, 5.011841, 4.9565268 
2.4810402e+2, 3.049585e+2, -22688.738, -94649.38, -4162.677, -0.06904497, -0.004490909, -22448.742, -22448.742, 0.0, 5.012102, 4.9562397 
2.4810138e+2, 3.0993193e+2, -17812.123, -81803.27, -1679.1805, -0.097224124, 0.05159906, -17768.09, -17768.09, 0.0, 5.012552, 4.960138 
2.4810138e+2, 3.1491476e+2, -12435.01, -69465.16, 461.57285, -0.11120195, 0.15889093, -12431.274, -12431.274, 0.0, 5.0129156, 4.9640455 
2.5326008e+2, 1.2145929e+2, -1705509.3, -1754191.9, -169.7865, -0.02990729, -0.052650493, -1705508.6, 44181.316, 0.0, 5.0179915, 4.9862914 
2.5326338e+2, 1.264537e+2, -1659228.4, -1709893.3, -1784.9774, 0.0012016306, 0.043261275, -1659165.5, 41582.617, 0.0, 5.0178194, 4.9848456 
2.5326335e+2, 1.314358e+2, -1610761.9, -1661158.4, -1878.816, 0.001850777, 0.014940549, -1610691.9, 41231.9, 0.0, 5.0176506, 4.984848 
2.5326335e+2, 1.3641787e+2, -1564496.4, -1616952.4, -1972.8015, 0.002504308, -0.012129727, -1564422.3, 38677.426, 0.0, 5.017482, 4.9833484 
2.5326273e+2, 1.4139824e+2, -1522543.9, -1581824.4, -3081.1907, 0.0029492218, -0.013919015, -1522384.3, 31908.44, 0.0, 5.017347, 4.978744 
2.5326106e+2, 1.4637774e+2, -1473272.5, -1532168.5, -3283.1003, 0.0019772972, -0.010805074, -1473090.0, 32405.168, 0.0, 5.0173197, 4.9789596 
2.5325933e+2, 1.5135723e+2, -1424299.6, -1483158.6, -3322.7808, 0.0008683816, -0.008172668, -1424112.6, 32585.398, 0.0, 5.0172973, 4.978961 
2.532576e+2, 1.5633671e+2, -1376752.3, -1437122.9, -3364.1877, -0.00020747918, -0.0050901826, -1376565.4, 31335.498, 0.0, 5.017275, 4.9779677 
2.532553e+2, 1.613126e+2, -1335295.4, -1403460.6, -4516.7773, -0.0011602939, 0.0025762015, -1334997.4, 24141.332, 0.0, 5.0171695, 4.9728675 
2.532519e+2, 1.66286e+2, -1286614.6, -1353847.9, -4753.665, -0.0016766615, 0.0026727354, -1286280.1, 24119.441, 0.0, 5.016879, 4.9731755 
2.5324848e+2, 1.712595e+2, -1238388.0, -1305163.5, -4761.984, -0.002163091, 0.002802632, -1238050.1, 23609.89, 0.0, 5.0165815, 4.9731774 
2.532451e+2, 1.7623295e+2, -1191290.8, -1258876.9, -4772.5645, -0.002648542, 0.0033021814, -1190955.4, 21965.002, 0.0, 5.016283, 4.9723716 
2.5324136e+2, 1.8120287e+2, -1151689.0, -1228385.9, -5510.6655, -0.0025879578, 0.011827624, -1151295.1, 12920.511, 0.0, 5.0159554, 4.9662404 
2.53237e+2, 1.861694e+2, -1103102.6, -1178774.4, -5700.044, -0.0010774841, 0.009373401, -1102675.8, 12868.852, 0.0, 5.015605, 4.966552 
2.5323266e+2, 1.9113591e+2, -1054933.4, -1130078.1, -5705.3247, 0.0005290312, 0.0062444774, -1054502.6, 12371.037, 0.0, 5.0152574, 4.9665513 
2.532283e+2, 1.9610243e+2, -1007648.9, -1083291.8, -5709.9126, 0.0021664274, 0.0034466004, -1007220.3, 10982.447, 0.0, 5.0149093, 4.9659004 
2.5322366e+2, 2.0106563e+2, -967794.75, -1052847.1, -6173.3804, 0.0033861764, 0.009209372, -967349.0, 2214.8713, 0.0, 5.014622, 4.9596405 
2.532183e+2, 2.0602599e+2, -918578.8, -1002874.56, -6242.766, 0.0028831796, 0.010786041, -918119.0, 2832.369, 0.0, 5.014458, 4.9599595 
2.532129e+2, 2.1098639e+2, -869787.25, -953831.6, -6164.405, 0.0021750473, 0.012333428, -869337.5, 3000.8655, 0.0, 5.014296, 4.9599614 
2.5320747e+2, 2.1594681e+2, -821658.9, -906240.8, -6086.307, 0.0014171943, 0.014014536, -821223.2, 2502.1965, 0.0, 5.014133, 4.9594636 
2.5320214e+2, 2.209031e+2, -781767.75, -876691.9, -5577.1567, -0.0007369722, 0.01781265, -781441.2, -6289.5474, 0.0, 5.013966, 4.952743 
2.531974e+2, 2.258544e+2, -732390.06, -825628.3, -5183.4175, -0.0009468025, -0.006606235, -732102.8, -5479.7925, 0.0, 5.0136347, 4.953472 
2.5319275e+2, 2.3080567e+2, -684040.25, -776728.4, -4877.032, -0.0001613247, -0.033184, -683784.3, -5689.714, 0.0, 5.0132747, 4.9534826 
2.531882e+2, 2.3575689e+2, -636332.75, -729271.5, -4580.919, 0.00085583003, -0.060338542, -636107.5, -6540.8877, 0.0, 5.012912, 4.9529915 
2.5318423e+2, 2.4070656e+2, -597978.1, -702250.94, -3533.5847, 0.002975249, -0.05480555, -597858.5, -16803.375, 0.0, 5.0125194, 4.9453526 
2.5318113e+2, 2.4565706e+2, -548444.1, -651054.1, -3698.6465, 0.009669218, -0.013422059, -548310.94, -15770.665, 0.0, 5.0122294, 4.9460554 
2.5317803e+2, 2.5060776e+2, -499737.94, -602099.7, -3771.5913, 0.017378109, 0.028570214, -499599.16, -15575.266, 0.0, 5.011967, 4.9460187 
2.5317508e+2, 2.555587e+2, -451273.4, -553710.1, -3833.3474, 0.02573561, 0.0733844, -451130.16, -15625.128, 0.0, 5.0117, 4.945784 
2.531708e+2, 2.6050183e+2, -412774.06, -529231.9, -916.7121, 0.010405059, 0.09757587, -412766.84, -25707.111, 0.0, 5.0117674, 4.936656 
2.5316852e+2, 2.65434e+2, -355990.22, -466100.53, 3102.868, -0.030371474, -0.023863418, -355902.88, -17193.533, 0.0, 5.0120144, 4.9406347 
2.5316826e+2, 2.7036527e+2, -303873.78, -414838.44, 4915.482, -0.062192872, -0.18213418, -303656.47, -13290.259, 0.0, 5.0121436, 4.941105 
2.5316912e+2, 2.752952e+2, -251558.06, -363997.6, 6277.2065, -0.0889942, -0.36753744, -251208.72, -9172.712, 0.0, 5.0122304, 4.9415298 
2.5315508e+2, 2.802338e+2, -242892.94, -409337.16, -19683.936, -0.123758346, -0.26801574, -240596.77, -46971.58, 0.0, 5.0138392, 4.9086804 
2.5313833e+2, 2.8518203e+2, -169438.48, -289241.03, -5472.3955, -0.110533796, -0.017328843, -169189.03, -24050.523, 0.0, 5.0141926, 4.932233 
2.5313303e+2, 2.901207e+2, -122297.17, -239966.27, -4353.259, -0.07677583, 0.028965926, -122136.336, -25387.797, 0.0, 5.0133, 4.932177 
2.531286e+2, 2.9505688e+2, -74923.46, -190890.64, -3632.8054, -0.04182573, 0.043371357, -74809.77, -26427.453, 0.0, 5.0123363, 4.9321203 
2.5312275e+2, 2.9999885e+2, -24420.59, -102501.74, -5101.5225, -0.032046773, -0.0010026739, -24088.688, -24088.688, 0.0, 5.011626, 4.9552393 
2.5311443e+2, 3.0495834e+2, -18329.018, -87681.516, -3438.328, -0.10355021, -0.07026547, -18158.97, -18158.97, 0.0, 5.0123873, 4.9581265 
2.531091e+2, 3.0993184e+2, -11853.821, -73949.914, 329.72574, -0.17057218, -0.07364828, -11852.07, -11852.07, 0.0, 5.0132837, 4.9621 
2.531062e+2, 3.1491396e+2, -4883.0254, -60730.035, 3753.1611, -0.22865418, -0.03718946, -4631.926, -4631.926, 0.0, 5.014095, 4.966084 
2.582773e+2, 1.2145696e+2, -1706237.6, -1755776.6, -402.21582, -0.0377879, -0.05485449, -1706234.3, 43479.52, 0.0, 5.018015, 4.9857597 
2.5828183e+2, 1.2645283e+2, -1659255.9, -1710176.1, -1906.3608, 0.0074969474, 0.057268392, -1659184.6, 41573.492, 0.0, 5.017869, 4.9847283 
2.5828138e+2, 1.3143425e+2, -1610710.4, -1661402.8, -2002.0164, 0.005254205, 0.023459343, -1610631.4, 41308.97, 0.0, 5.017726, 4.9847307 
2.5828087e+2, 1.3641565e+2, -1564384.1, -1617166.9, -2103.3435, 0.002996592, -0.009088471, -1564300.5, 38822.305, 0.0, 5.017577, 4.9832315 
2.5827998e+2, 1.4139554e+2, -1522378.5, -1581921.8, -3148.448, 0.0016045071, -0.014788146, -1522212.5, 32107.861, 0.0, 5.0174403, 4.9786663 
2.5827822e+2, 1.4637485e+2, -1473164.0, -1532233.1, -3304.0828, 0.00040772176, -0.013152053, -1472979.8, 32544.242, 0.0, 5.017381, 4.978908 
2.5827646e+2, 1.5135413e+2, -1424296.1, -1483276.0, -3334.2214, -0.00095778366, -0.012009618, -1424108.3, 32619.627, 0.0, 5.0173235, 4.978909 
2.5827467e+2, 1.5633342e+2, -1376861.8, -1437296.0, -3366.2786, -0.0023086937, -0.010426551, -1376674.8, 31257.06, 0.0, 5.017263, 4.977916 
2.5827226e+2, 1.6130923e+2, -1335454.4, -1403615.0, -4681.17, -0.0031911726, -0.0028703013, -1335134.4, 24035.543, 0.0, 5.0171328, 4.9728327 
2.5826874e+2, 1.6628292e+2, -1286696.5, -1353908.0, -4973.34, -0.0022697446, 0.000031238156, -1286330.5, 24098.35, 0.0, 5.016856, 4.973165 
2.5826517e+2, 1.7125668e+2, -1238442.5, -1305212.8, -4994.006, -0.0012456155, 0.0030285318, -1238071.1, 23616.09, 0.0, 5.0165677, 4.973166 
2.5826162e+2, 1.7623045e+2, -1191337.9, -1258924.6, -5015.83, -0.00024264652, 0.00637643, -1190967.6, 21977.92, 0.0, 5.0162725, 4.9723597 
2.5825766e+2, 1.8120055e+2, -1151788.9, -1228561.1, -5810.524, 0.00060215674, 0.01703359, -1151351.6, 12888.081, 0.0, 5.015948, 4.9661856 
2.5825283e+2, 1.8616696e+2, -1103099.4, -1178793.0, -5977.197, 0.00089798344, 0.013668276, -1102630.4, 12939.52, 0.0, 5.0156107, 4.9665427 
2.5824797e+2, 1.9113335e+2, -1054906.0, -1130081.8, -5968.4917, 0.0011359781, 0.0093629975, -1054435.0, 12465.227, 0.0, 5.015271, 4.966543 
2.5824317e+2, 1.9609973e+2, -1007615.6, -1083288.9, -5960.8906, 0.0013700904, 0.0053892336, -1007148.94, 11081.658, 0.0, 5.014925, 4.9658937 
2.5823805e+2, 2.0106289e+2, -967661.94, -1052608.6, -6305.4307, 0.00079879677, 0.01037085, -967196.44, 2395.784, 0.0, 5.014632, 4.9597163 
2.5823238e+2, 2.060233e+2, -918469.25, -1002594.5, -6345.51, -0.0008285735, 0.011550891, -917993.3, 2985.6438, 0.0, 5.0144496, 4.9600577 
2.5822675e+2, 2.1098378e+2, -869767.3, -953591.06, -6264.7495, -0.002470356, 0.012661546, -869301.7, 3063.452, 0.0, 5.0142565, 4.960061 
2.5822106e+2, 2.1594426e+2, -821762.3, -906054.9, -6186.7627, -0.004196717, 0.013920138, -821310.6, 2440.6423, 0.0, 5.0140505, 4.959564 
2.5821567e+2, 2.2090055e+2, -781732.6, -875986.1, -5730.0835, -0.005507563, 0.016024271, -781385.56, -6208.6157, 0.0, 5.013839, 4.9530454 
2.58211e+2, 2.2585195e+2, -732359.9, -824737.25, -5405.309, -0.0016785219, -0.011169472, -732044.6, -5399.028, 0.0, 5.0134654, 4.953861 
2.5820646e+2, 2.3080336e+2, -684254.56, -775971.2, -5083.745, 0.0029665946, -0.040251795, -683973.7, -5859.5166, 0.0, 5.0130224, 4.953866 
2.582019e+2, 2.357547e+2, -636911.0, -728701.1, -4771.7583, 0.0077056433, -0.06992059, -636663.6, -7080.4478, 0.0, 5.012535, 4.953368 
2.5819787e+2, 2.40705e+2, -599618.1, -703409.06, -3681.5369, 0.011664036, -0.05947662, -599487.7, -18422.566, 0.0, 5.012012, 4.9451933 
2.5819433e+2, 2.4565652e+2, -550002.6, -652184.7, -3778.3696, 0.017830843, -0.0063648587, -549863.1, -17318.39, 0.0, 5.0117493, 4.9458876 
2.5819084e+2, 2.5060806e+2, -501003.5, -603063.3, -3758.4568, 0.025032576, 0.044827037, -500865.28, -16840.184, 0.0, 5.0115833, 4.945861 
2.581874e+2, 2.5555974e+2, -452093.1, -554437.2, -3747.4746, 0.03271123, 0.09806985, -451956.06, -16452.375, 0.0, 5.0114675, 4.945636 
2.5818253e+2, 2.605023e+2, -412663.5, -528120.6, 53.890457, 0.013068668, 0.11908201, -412663.47, -25598.475, 0.0, 5.011577, 4.937054 
2.5818124e+2, 2.6543307e+2, -356763.56, -461334.75, 6550.5356, -0.0317208, -0.04770103, -356354.8, -17640.633, 0.0, 5.010678, 4.942684 
2.5818232e+2, 2.7036312e+2, -310958.06, -413410.03, 10843.741, -0.06679642, -0.25446442, -309822.94, -19455.6, 0.0, 5.0086327, 4.9429717 
2.581845e+2, 2.7529165e+2, -267533.78, -366962.75, 15160.44, -0.09738314, -0.4876902, -265273.56, -23238.297, 0.0, 5.0056176, 4.9432163 
2.5816885e+2, 2.8023395e+2, -280754.88, -448126.34, -14968.956, -0.13091864, -0.3200061, -279426.66, -85850.41, 0.0, 5.0044794, 4.8991766 
2.5815025e+2, 2.8518644e+2, -188118.44, -299178.7, 204.29022, -0.11308207, 0.008306609, -188118.06, -43062.664, 0.0, 5.0077834, 4.930997 
2.5814524e+2, 2.9012543e+2, -132896.52, -246797.66, -700.4887, -0.078689225, 0.050562326, -132892.2, -36220.438, 0.0, 5.0098243, 4.93084 
2.5814107e+2, 2.9506215e+2, -80145.61, -195784.73, -1358.0585, -0.043316245, 0.06400689, -80129.664, -31819.283, 0.0, 5.0108395, 4.930684 
2.5813493e+2, 2.9999968e+2, -28082.176, -109497.64, -3874.5874, -0.03996146, -0.014810026, -27898.2, -27898.2, 0.0, 5.01117, 4.952733 
2.5812438e+2, 3.049548e+2, -19552.861, -83821.484, -4054.3877, -0.14576414, -0.1730979, -19298.1, -19298.1, 0.0, 5.0108376, 4.9594574 
2.581169e+2, 3.099271e+2, -23064.467, -75027.336, -5326.8716, -0.24986257, -0.26056844, -22524.016, -22524.016, 0.0, 5.008115, 4.963151 
2.58112e+2, 3.14907e+2, -32535.988, -69396.32, -10224.018, -0.34446454, -0.316315, -29890.064, -29890.064, 0.0, 5.002961, 4.9668517 
2.6329616e+2, 1.2145484e+2, -1703300.8, -1753940.8, -665.34106, -0.034297254, -0.055404242, -1703292.0, 46444.223, 0.0, 5.018906, 4.9859214 
2.6330027e+2, 1.2645124e+2, -1656735.4, -1709374.5, -1926.6012, 0.008055418, 0.06346891, -1656664.9, 44109.867, 0.0, 5.018805, 4.98453 
2.632996e+2, 1.3143213e+2, -1607937.0, -1660489.4, -2136.921, 0.0052506723, 0.026455618, -1607850.3, 44111.793, 0.0, 5.0187507, 4.984529 
2.6329902e+2, 1.3641301e+2, -1561339.6, -1616132.6, -2347.0916, 0.0025078473, -0.0092693055, -1561239.3, 41910.227, 0.0, 5.0186963, 4.9830265 
2.6329795e+2, 1.4139254e+2, -1519130.9, -1580466.3, -3512.2498, 0.0010795515, -0.016834822, -1518930.4, 35419.77, 0.0, 5.018559, 4.9786043 
2.6329604e+2, 1.4637189e+2, -1470466.4, -1530923.1, -3624.3328, 0.0002656837, -0.014892128, -1470249.9, 35303.24, 0.0, 5.0182905, 4.978902 
2.6329416e+2, 1.5135121e+2, -1422236.9, -1482283.1, -3611.9106, -0.0007353322, -0.013387528, -1422020.4, 34735.64, 0.0, 5.018021, 4.9789023 
2.6329222e+2, 1.5633053e+2, -1375427.3, -1436611.4, -3600.916, -0.0017173612, -0.011402878, -1375216.0, 32743.076, 0.0, 5.017751, 4.977909 
2.6328963e+2, 1.6130635e+2, -1334572.1, -1403367.6, -4969.966, -0.0023284736, -0.0034233392, -1334214.9, 24981.916, 0.0, 5.0174694, 4.972755 
2.6328582e+2, 1.6628003e+2, -1285939.1, -1353796.1, -5395.192, -0.0013195421, 0.00042872917, -1285512.9, 24943.924, 0.0, 5.0171676, 4.9730554 
2.6328197e+2, 1.7125379e+2, -1237730.3, -1305119.9, -5542.291, -0.00015272523, 0.0045226114, -1237277.5, 24438.648, 0.0, 5.0168643, 4.9730573 
2.6327816e+2, 1.7622754e+2, -1190650.3, -1258841.6, -5690.561, 0.0010538378, 0.009049895, -1190178.6, 22796.715, 0.0, 5.0165615, 4.972252 
2.6327386e+2, 1.811976e+2, -1150807.3, -1227986.4, -6524.031, 0.0018083267, 0.019823313, -1150259.6, 14010.793, 0.0, 5.0162635, 4.9662304 
2.6326865e+2, 1.8616396e+2, -1101920.8, -1178033.5, -6577.8096, 0.0010900672, 0.014946486, -1101356.5, 14244.042, 0.0, 5.0159755, 4.966627 
2.632634e+2, 1.9113028e+2, -1053581.9, -1129255.6, -6468.704, 0.00030683313, 0.009194211, -1053032.9, 13897.898, 0.0, 5.0156875, 4.9666276 
2.6325816e+2, 1.9609661e+2, -1006127.9, -1082389.1, -6360.6816, -0.00043750522, 0.0037915832, -1005601.0, 12659.889, 0.0, 5.0153995, 4.965977 
2.6325265e+2, 2.0105983e+2, -966307.2, -1051793.8, -6645.4673, -0.001847006, 0.008509423, -965793.7, 3827.8875, 0.0, 5.0150657, 4.9597907 
2.6324666e+2, 2.0602043e+2, -917969.2, -1002202.9, -6757.495, -0.0036483894, 0.010765602, -917430.56, 3576.5437, 0.0, 5.014593, 4.9601235 
2.6324067e+2, 2.1098107e+2, -870101.7, -953590.3, -6736.176, -0.005203101, 0.012899281, -869561.7, 2830.5208, 0.0, 5.0141106, 4.960126 
2.6323465e+2, 2.1594171e+2, -822891.3, -906424.1, -6716.9644, -0.006645076, 0.015254144, -822354.6, 1422.6462, 0.0, 5.0136275, 4.959629 
2.6322898e+2, 2.2089815e+2, -783492.44, -876238.3, -6372.845, -0.0067472146, 0.017663525, -783056.6, -7854.8555, 0.0, 5.013119, 4.9532824 
2.632241e+2, 2.2584987e+2, -734661.5, -825066.44, -6253.697, -0.0002818385, -0.00938277, -734230.94, -7564.1196, 0.0, 5.0125256, 4.9541683 
2.632193e+2, 2.3080166e+2, -687004.6, -776493.0, -6104.0845, 0.007231307, -0.037689425, -686590.2, -8459.161, 0.0, 5.0119243, 4.954174 
2.6321453e+2, 2.357534e+2, -639988.06, -729356.06, -5959.03, 0.015103357, -0.06619993, -639592.44, -9997.056, 0.0, 5.011321, 4.9536786 
2.6321015e+2, 2.4070421e+2, -603349.5, -704771.44, -4924.8335, 0.021035725, -0.052982558, -603110.94, -22038.398, 0.0, 5.010647, 4.9453397 
2.632059e+2, 2.4565591e+2, -554698.94, -654057.94, -4805.446, 0.024641503, 0.0006808828, -554467.06, -21914.375, 0.0, 5.0100274, 4.946009 
2.632016e+2, 2.5060746e+2, -506821.63, -605450.7, -4579.6377, 0.028274817, 0.05082782, -506609.44, -22573.965, 0.0, 5.0094247, 4.9459734 
2.6319742e+2, 2.5555912e+2, -459182.2, -557402.4, -4349.0903, 0.031636175, 0.10241796, -458989.97, -23472.748, 0.0, 5.0088058, 4.9457393 
2.6319233e+2, 2.605017e+2, -419591.78, -526479.5, -542.2264, 0.013627334, 0.11812251, -419589.03, -32510.125, 0.0, 5.008067, 4.9390697 
2.631925e+2, 2.6543546e+2, -366691.63, -454995.44, 2697.6626, -0.0047079134, -0.057113346, -366609.28, -27918.604, 0.0, 5.0052133, 4.9469543 
2.6319554e+2, 2.7037096e+2, -324052.63, -406219.88, 2960.7563, -0.001277859, -0.25466344, -323946.1, -33664.875, 0.0, 5.001937, 4.947814 
2.6320028e+2, 2.753071e+2, -281294.3, -357677.94, 2717.0195, 0.017448246, -0.4600484, -281197.8, -39331.89, 0.0, 4.998571, 4.948628 
2.6318794e+2, 2.802575e+2, -283500.97, -457631.2, -22368.367, 0.019416833, -0.22993605, -280673.47, -87352.36, 0.0, 5.0037417, 4.8961554 
2.63168e+2, 2.8520527e+2, -183571.6, -311492.28, -2811.8943, -0.007152628, 0.08662254, -183509.81, -38654.32, 0.0, 5.0091352, 4.926967 
2.631605e+2, 2.9013816e+2, -136650.9, -260162.31, -2247.796, -0.013784215, 0.09265679, -136610.02, -40067.43, 0.0, 5.008397, 4.9276023 
2.631543e+2, 2.9507017e+2, -89594.08, -208978.4, -2321.8613, -0.009825484, 0.07961903, -89548.94, -41310.94, 0.0, 5.0074635, 4.928237 
2.63147e+2, 3.00004e+2, -36927.754, -115149.06, -4102.828, -0.026222013, -0.022761108, -36713.145, -36713.145, 0.0, 5.0071697, 4.9531593 
2.6313812e+2, 3.0495948e+2, -20745.516, -86065.555, -5065.952, -0.12230109, -0.18733601, -20354.957, -20354.957, 0.0, 5.0094156, 4.9602065 
2.6313406e+2, 3.0993155e+2, -12567.544, -78330.94, -4485.495, -0.1846446, -0.2618035, -12263.014, -12263.014, 0.0, 5.011667, 4.9617143 
2.6313433e+2, 3.1490937e+2, -4164.9653, -70814.81, -4149.2715, -0.20643485, -0.29107141, -3907.6467, -3907.6467, 0.0, 5.0136943, 4.9632277 
2.68316e+2, 1.2145287e+2, -1702454.3, -1752237.9, -1097.3931, -0.024769053, -0.05506142, -1702430.1, 47327.543, 0.0, 5.0189085, 4.9864798 
2.6831877e+2, 1.2644924e+2, -1657114.9, -1710179.4, -1969.5919, 0.00513751, 0.06551778, -1657041.8, 43753.156, 0.0, 5.018809, 4.9842644 
2.683182e+2, 1.3142967e+2, -1608313.5, -1661289.1, -2177.3254, 0.003232112, 0.026500627, -1608224.1, 43762.53, 0.0, 5.0187545, 4.9842644 
2.6831764e+2, 1.364101e+2, -1561712.8, -1616926.3, -2384.655, 0.0013546018, -0.011223498, -1561609.9, 41568.71, 0.0, 5.0187, 4.9827633 
2.683165e+2, 1.4138936e+2, -1519213.6, -1580643.6, -3703.3208, 0.00082399434, -0.01956346, -1518991.1, 35390.582, 0.0, 5.01856, 4.978544 
2.6831442e+2, 1.4636883e+2, -1470435.0, -1530863.9, -3829.2947, 0.00081980583, -0.016309079, -1470193.4, 35389.47, 0.0, 5.0182915, 4.97892 
2.683123e+2, 1.5134831e+2, -1422204.6, -1482225.1, -3814.826, 0.00059492124, -0.013486013, -1421963.1, 34820.652, 0.0, 5.018022, 4.97892 
2.6831022e+2, 1.5632778e+2, -1375393.8, -1436554.1, -3801.6672, 0.00037643625, -0.01019846, -1375158.4, 32826.55, 0.0, 5.017753, 4.9779263 
2.683074e+2, 1.6130368e+2, -1334732.6, -1403711.1, -5199.3755, 0.00017340109, -0.0014600401, -1334342.9, 24879.21, 0.0, 5.0174704, 4.9726415 
2.683032e+2, 1.6627719e+2, -1286186.6, -1354324.1, -5627.0435, 0.0005225256, 0.0025401814, -1285725.1, 24759.637, 0.0, 5.0171685, 4.9728813 
2.6829898e+2, 1.7125076e+2, -1237975.0, -1305646.4, -5771.359, 0.00095151004, 0.0067990795, -1237486.4, 24260.44, 0.0, 5.0168657, 4.9728827 
2.6829478e+2, 1.7622434e+2, -1190892.4, -1259366.6, -5916.8076, 0.0014005479, 0.011473362, -1190384.9, 22623.895, 0.0, 5.016563, 4.9720774 
2.682901e+2, 1.8119422e+2, -1150671.9, -1227707.5, -6749.922, 0.0013273546, 0.02118108, -1150084.9, 14221.033, 0.0, 5.0162644, 4.9663234 
2.682845e+2, 1.8616053e+2, -1101710.8, -1177596.0, -6798.157, -0.00023426354, 0.014432439, -1101106.5, 14528.698, 0.0, 5.015977, 4.9667735 
2.6827887e+2, 1.9112685e+2, -1053371.3, -1128818.6, -6684.822, -0.0018720924, 0.006981283, -1052783.6, 14180.772, 0.0, 5.0156894, 4.966774 
2.6827326e+2, 1.9609317e+2, -1005916.9, -1081952.4, -6572.5405, -0.003499885, -0.00013232348, -1005352.94, 12940.519, 0.0, 5.0154014, 4.966124 
2.6826742e+2, 2.0105651e+2, -966223.75, -1051628.0, -6963.8584, -0.0051500495, 0.0047183125, -965659.7, 3992.5151, 0.0, 5.0150666, 4.959849 
2.6826102e+2, 2.0601735e+2, -917913.7, -1002110.0, -7125.147, -0.0061490773, 0.009109204, -917315.0, 3721.2788, 0.0, 5.014596, 4.960157 
2.682546e+2, 2.1097821e+2, -870038.75, -953495.2, -7099.5093, -0.0069792415, 0.01310841, -869439.1, 2981.1633, 0.0, 5.014116, 4.9601593 
2.682482e+2, 2.1593907e+2, -822820.94, -906326.75, -7075.94, -0.007753559, 0.01728204, -822225.6, 1578.6669, 0.0, 5.0136347, 4.9596624 
2.682421e+2, 2.2089571e+2, -783244.1, -875783.56, -6785.95, -0.007046065, 0.020965656, -782749.1, -7521.538, 0.0, 5.0131307, 4.9534383 
2.6823676e+2, 2.2584778e+2, -734333.56, -824464.06, -6684.4214, 0.00045533635, -0.0045807217, -733840.5, -7151.1045, 0.0, 5.01254, 4.954376 
2.682315e+2, 2.3079993e+2, -686676.06, -775902.6, -6526.3003, 0.008871093, -0.031136574, -686201.25, -8051.268, 0.0, 5.0119405, 4.954379 
2.6822627e+2, 2.3575205e+2, -639658.75, -728777.6, -6372.69, 0.017514197, -0.05787415, -639205.4, -9594.647, 0.0, 5.0113387, 4.9538803 
2.6822126e+2, 2.4070306e+2, -602860.7, -704060.3, -5421.338, 0.0234398, -0.04476956, -602571.1, -21485.076, 0.0, 5.010692, 4.9455805 
2.6821607e+2, 2.4565452e+2, -554218.25, -653461.5, -5318.7266, 0.024053652, 0.004133337, -553934.0, -21363.922, 0.0, 5.010082, 4.9462147 
2.6821083e+2, 2.5060576e+2, -506358.6, -604855.4, -5078.1445, 0.024414673, 0.04924285, -506097.47, -22040.191, 0.0, 5.0094733, 4.946183 
2.6820567e+2, 2.5555715e+2, -458736.7, -556808.06, -4832.799, 0.024478571, 0.09564655, -458499.1, -22955.64, 0.0, 5.0088487, 4.945954 
2.6820043e+2, 2.6050022e+2, -417220.8, -522338.53, -1122.9893, 0.011503264, 0.10962229, -417208.8, -30107.998, 0.0, 5.008193, 4.940555 
2.6820117e+2, 2.654365e+2, -362789.94, -450137.28, 2173.7349, 0.011994666, -0.05536339, -362735.88, -24052.938, 0.0, 5.0056753, 4.9486985 
2.6820445e+2, 2.7037406e+2, -319412.3, -402190.34, 2905.17, 0.02851506, -0.24461205, -319310.47, -29062.223, 0.0, 5.0027328, 4.949218 
2.6820916e+2, 2.7531153e+2, -275914.38, -354477.13, 3131.7725, 0.054635998, -0.44509688, -275789.72, -33975.13, 0.0, 4.9997005, 4.9496913 
2.681989e+2, 2.802615e+2, -282129.16, -453297.8, -16946.232, 0.039937064, -0.23020579, -280467.53, -87195.914, 0.0, 5.0035853, 4.897537 
2.6818007e+2, 2.8520906e+2, -186947.14, -312074.56, -3967.8699, 0.0072340053, 0.0786029, -186821.44, -42003.348, 0.0, 5.0080113, 4.9268675 
2.6817182e+2, 2.901424e+2, -139515.86, -261902.9, -2789.876, 0.0068638874, 0.09200134, -139452.3, -42940.56, 0.0, 5.0075154, 4.9271226 
2.6816466e+2, 2.9507464e+2, -91946.305, -211873.7, -2251.9312, 0.010948111, 0.0870486, -91904.03, -43687.6, 0.0, 5.006824, 4.927377 
2.6815727e+2, 3.0001017e+2, -34752.527, -110564.51, -1720.5039, -0.008668948, -0.0014954199, -34713.504, -34713.504, 0.0, 5.0068474, 4.9549856 
2.6815143e+2, 3.049679e+2, -16181.62, -79443.72, -307.29474, -0.10395783, -0.16935915, -16180.127, -16180.127, 0.0, 5.0095778, 4.9626894 
2.681502e+2, 3.0993995e+2, -6316.038, -70463.74, 1290.8179, -0.17856383, -0.27161697, -6290.074, -6290.074, 0.0, 5.0122833, 4.9643745 
2.6815274e+2, 3.1491682e+2, 3765.4607, -61703.773, 2644.7368, -0.2269725, -0.34267867, 3872.1252, 3872.1252, 0.0, 5.014766, 4.9660654 
2.7333593e+2, 1.21450834e+2, -1701526.0, -1750367.0, -1524.096, -0.014939486, -0.055058114, -1701478.5, 48301.004, 0.0, 5.0189114, 4.987093 
2.733373e+2, 1.2644726e+2, -1657495.0, -1710984.0, -2013.5315, 0.0022453254, 0.06769477, -1657419.4, 43395.707, 0.0, 5.0188127, 4.983999 
2.7333677e+2, 1.3142723e+2, -1608690.8, -1662088.6, -2218.6787, 0.0012188858, 0.026637819, -1608598.8, 43412.547, 0.0, 5.018759, 4.9839993 
2.733362e+2, 1.3640717e+2, -1562086.5, -1617719.6, -2423.167, 0.00018630791, -0.013121429, -1561981.3, 41226.48, 0.0, 5.018704, 4.9824996 
2.73335e+2, 1.4138617e+2, -1519310.0, -1580848.5, -3897.2236, 0.0005457615, -0.022215221, -1519064.1, 35349.113, 0.0, 5.018561, 4.9784746 
2.7333277e+2, 1.4636578e+2, -1470404.1, -1530804.5, -4033.4373, 0.0013687521, -0.017678188, -1470136.0, 35476.582, 0.0, 5.018292, 4.978938 
2.7333048e+2, 1.5134543e+2, -1422172.8, -1482167.1, -4016.9219, 0.0019342413, -0.01358635, -1421905.0, 34906.55, 0.0, 5.0180235, 4.9789376 
2.7332819e+2, 1.5632506e+2, -1375360.6, -1436496.8, -4001.599, 0.0024935417, -0.009045577, -1375099.9, 32910.883, 0.0, 5.017755, 4.9779434 
2.733251e+2, 1.61301e+2, -1334910.1, -1404089.9, -5430.5757, 0.0026756183, 0.00058021134, -1334486.5, 24760.855, 0.0, 5.0174713, 4.9725165 
2.7332056e+2, 1.6627434e+2, -1286434.6, -1354851.9, -5858.748, 0.002371003, 0.004718464, -1285936.5, 24576.021, 0.0, 5.0171695, 4.9727063 
2.7331594e+2, 1.7124772e+2, -1238220.3, -1306172.6, -6000.28, 0.0020764023, 0.009075305, -1237694.5, 24082.89, 0.0, 5.016867, 4.9727077 
2.7331138e+2, 1.7622113e+2, -1191134.9, -1259891.6, -6142.9067, 0.0017821594, 0.013829532, -1190590.4, 22451.71, 0.0, 5.016565, 4.9719024 
2.733063e+2, 1.8119085e+2, -1150564.6, -1227487.1, -6976.735, 0.0008711703, 0.022637213, -1149936.9, 14404.444, 0.0, 5.016266, 4.966396 
2.7330035e+2, 1.8615712e+2, -1101501.5, -1177158.3, -7017.951, -0.0015476075, 0.014008573, -1100856.0, 14813.9, 0.0, 5.0159783, 4.966919 
2.7329436e+2, 1.9112341e+2, -1053161.6, -1128381.1, -6900.3867, -0.0040505943, 0.004764848, -1052533.8, 14464.187, 0.0, 5.0156913, 4.9669194 
2.7328837e+2, 1.9608971e+2, -1005706.6, -1081515.3, -6783.8457, -0.006572401, -0.004153397, -1005104.3, 13221.666, 0.0, 5.0154037, 4.9662695 
2.7328217e+2, 2.010532e+2, -966162.56, -1051508.3, -7286.73, -0.008387364, 0.0010157216, -965544.9, 4137.8423, 0.0, 5.015068, 4.9598913 
2.732754e+2, 2.0601429e+2, -917859.44, -1002016.2, -7492.018, -0.00856991, 0.0075868913, -917197.7, 3867.5933, 0.0, 5.014599, 4.96019 
2.7326858e+2, 2.1097538e+2, -869977.1, -953399.06, -7462.0615, -0.008701745, 0.013379567, -869314.9, 3133.3643, 0.0, 5.014121, 4.960192 
2.7326176e+2, 2.1593645e+2, -822751.94, -906228.4, -7434.1333, -0.008834619, 0.019299928, -822095.0, 1736.199, 0.0, 5.0136423, 4.959695 
2.7325526e+2, 2.2089328e+2, -783025.4, -875386.2, -7193.747, -0.007279993, 0.024251908, -782468.44, -7214.914, 0.0, 5.013142, 4.953573 
2.7324945e+2, 2.2584568e+2, -734009.56, -823858.2, -7110.1406, 0.0013207905, 0.00013355962, -733450.4, -6738.31, 0.0, 5.012554, 4.9545836 
2.7324373e+2, 2.3079818e+2, -686351.44, -775308.75, -6943.5103, 0.010678017, -0.024774645, -685812.75, -7643.6855, 0.0, 5.0119567, 4.954583 
2.73238e+2, 2.3575068e+2, -639333.4, -728195.56, -6781.343, 0.02013101, -0.049842414, -638818.9, -9192.67, 0.0, 5.011357, 4.9540806 
2.732324e+2, 2.4070194e+2, -602440.2, -703456.4, -5874.607, 0.025780108, -0.03609165, -602099.7, -21000.475, 0.0, 5.010737, 4.9457784 
2.732263e+2, 2.4565318e+2, -553762.75, -652840.5, -5829.1255, 0.023336468, 0.008325467, -553420.94, -20833.988, 0.0, 5.010136, 4.946418 
2.732201e+2, 2.5060415e+2, -505920.66, -604235.44, -5573.772, 0.020507263, 0.048193425, -505605.7, -21527.063, 0.0, 5.009522, 4.946391 
2.7321395e+2, 2.5555518e+2, -458316.3, -556189.1, -5313.63, 0.017355733, 0.089206636, -458028.66, -22459.316, 0.0, 5.0088916, 4.946166 
2.732085e+2, 2.6049846e+2, -415252.75, -518837.53, -1428.9922, 0.0075465953, 0.10045525, -415233.03, -28108.178, 0.0, 5.0083184, 4.9417577 
2.7321035e+2, 2.6543704e+2, -359038.53, -445149.78, 2167.2178, 0.029517952, -0.060291003, -358984.03, -20303.867, 0.0, 5.0061374, 4.950354 
2.7321455e+2, 2.7037644e+2, -314922.47, -398028.0, 3367.4502, 0.063297614, -0.24794948, -314786.25, -24563.924, 0.0, 5.003529, 4.9505324 
2.7322003e+2, 2.7531502e+2, -270685.2, -351140.0, 4064.9424, 0.10098258, -0.45024475, -270480.34, -28707.922, 0.0, 5.0008307, 4.9506655 
2.732098e+2, 2.8026578e+2, -284619.3, -457884.94, -13099.38, 0.05844903, -0.2240708, -283634.56, -90415.445, 0.0, 5.0034475, 4.8958297 
2.7319053e+2, 2.8521413e+2, -190635.97, -312350.47, -4390.24, 0.01255924, 0.09632782, -190477.81, -45709.83, 0.0, 5.0068865, 4.9266853 
2.7318195e+2, 2.9014772e+2, -142692.55, -263338.47, -2599.3342, 0.023247153, 0.10956765, -142636.58, -46166.14, 0.0, 5.0066333, 4.92656 
2.731744e+2, 2.9507998e+2, -94608.69, -214465.47, -1450.1316, 0.032246076, 0.10518418, -94591.14, -46404.46, 0.0, 5.0061836, 4.9264345 
2.7316695e+2, 3.0001602e+2, -33986.35, -108232.27, 858.4762, 0.009412402, 0.019951526, -33976.43, -33976.43, 0.0, 5.006525, 4.955852 
2.73164e+2, 3.049748e+2, -11969.297, -72490.08, 4283.3145, -0.095102206, -0.16648456, -11667.651, -11667.651, 0.0, 5.00974, 4.9650354 
2.731656e+2, 3.0994618e+2, -419.6144, -62271.06, 6893.471, -0.19139425, -0.31238806, 339.36383, 339.36383, 0.0, 5.012901, 4.9668975 
2.7317053e+2, 3.149215e+2, 11335.988, -52274.203, 9258.636, -0.27582973, -0.4410785, 12656.207, 12656.207, 0.0, 5.015839, 4.9687653 
2.7835587e+2, 1.2144877e+2, -1700835.9, -1748504.0, -1928.8752, -0.0048667574, -0.055398487, -1700758.0, 49043.88, 0.0, 5.018815, 4.9877515 
2.7835587e+2, 1.2644526e+2, -1657938.4, -1711802.5, -2039.6233, -0.0005025494, 0.069697954, -1657861.3, 42974.04, 0.0, 5.0187955, 4.9837375 
2.7835536e+2, 1.3142477e+2, -1609009.9, -1662845.4, -2214.0005, -0.0007205352, 0.02672029, -1608918.9, 43116.914, 0.0, 5.018781, 4.983738 
2.783548e+2, 1.3640426e+2, -1562328.6, -1618437.5, -2391.4824, -0.0009393793, -0.014962471, -1562226.9, 41009.67, 0.0, 5.018751, 4.982239 
2.7835357e+2, 1.4138299e+2, -1519254.1, -1581001.3, -4011.2612, 0.00030376593, -0.024710082, -1518994.6, 35449.926, 0.0, 5.018618, 4.978395 
2.783511e+2, 1.4636277e+2, -1470222.0, -1530677.1, -4183.323, 0.0019526118, -0.018943293, -1469933.9, 35708.15, 0.0, 5.0183454, 4.9789524 
2.7834862e+2, 1.5134254e+2, -1422012.9, -1482051.5, -4195.302, 0.0033110003, -0.013654473, -1421721.1, 35118.13, 0.0, 5.0180697, 4.9789515 
2.7834615e+2, 1.5632232e+2, -1375228.5, -1436394.8, -4207.402, 0.004656706, -0.0079297, -1374940.5, 33096.137, 0.0, 5.0177917, 4.9779577 
2.783428e+2, 1.6129832e+2, -1335010.6, -1404453.0, -5679.776, 0.0051936144, 0.0026847376, -1334549.1, 24723.434, 0.0, 5.017504, 4.9723806 
2.783379e+2, 1.662715e+2, -1286552.1, -1355310.8, -6083.772, 0.0042211735, 0.006925036, -1286018.0, 24522.396, 0.0, 5.0172143, 4.972533 
2.7833295e+2, 1.7124471e+2, -1238307.4, -1306617.4, -6200.1953, 0.0032048791, 0.01129447, -1237749.1, 24058.805, 0.0, 5.016922, 4.972534 
2.7832797e+2, 1.7621793e+2, -1191201.8, -1260326.9, -6318.3726, 0.0021776764, 0.016049467, -1190629.0, 22446.469, 0.0, 5.016626, 4.9717283 
2.7832255e+2, 1.8118745e+2, -1150318.8, -1227244.9, -7139.1694, 0.00042392086, 0.024126098, -1149661.8, 14715.006, 0.0, 5.0163245, 4.9664483 
2.783162e+2, 1.861537e+2, -1101204.6, -1176682.9, -7195.5273, -0.0028430494, 0.013656329, -1100524.9, 15179.637, 0.0, 5.0160117, 4.967061 
2.7830985e+2, 1.9112e+2, -1052960.3, -1127952.0, -7102.551, -0.0061821914, 0.0025799838, -1052293.5, 14738.038, 0.0, 5.015692, 4.9670615 
2.783035e+2, 1.9608629e+2, -1005616.7, -1081138.6, -7012.6533, -0.009553298, -0.0081788, -1004971.06, 13387.472, 0.0, 5.015367, 4.9664116 
2.7829698e+2, 2.0104991e+2, -966326.94, -1051527.8, -7652.3623, -0.011422614, -0.0025089362, -965645.1, 4068.0378, 0.0, 5.0150003, 4.9599166 
2.782898e+2, 2.0601127e+2, -917977.8, -1001997.94, -7897.812, -0.0107895555, 0.006217636, -917241.9, 3852.3757, 0.0, 5.0145435, 4.960222 
2.7828255e+2, 2.1097253e+2, -870075.06, -953372.25, -7865.859, -0.010238113, 0.013697043, -869338.75, 3137.4192, 0.0, 5.014073, 4.960224 
2.7827534e+2, 2.1593383e+2, -822859.1, -906206.4, -7836.5874, -0.009718115, 0.021287698, -822128.7, 1729.4446, 0.0, 5.013591, 4.959727 
2.7826843e+2, 2.2089083e+2, -783041.9, -875126.1, -7625.548, -0.00724538, 0.027521979, -782414.7, -7135.225, 0.0, 5.0130835, 4.9536915 
2.7826217e+2, 2.2584355e+2, -733947.2, -823351.44, -7545.264, 0.0024918884, 0.0047519677, -733314.9, -6580.04, 0.0, 5.012481, 4.9547935 
2.7825597e+2, 2.3079643e+2, -686383.8, -774852.7, -7352.5786, 0.012822588, -0.018667873, -685776.9, -7588.6436, 0.0, 5.011852, 4.954791 
2.782498e+2, 2.3574929e+2, -639506.5, -727810.75, -7154.14, 0.023140915, -0.04227049, -638930.6, -9288.747, 0.0, 5.0112042, 4.9542866 
2.782436e+2, 2.4070087e+2, -602789.4, -703220.2, -6196.053, 0.028303258, -0.027307104, -602408.56, -21296.35, 0.0, 5.0105395, 4.945949 
2.7823657e+2, 2.456519e+2, -553980.75, -652417.4, -6150.072, 0.022803556, 0.0129028745, -553598.0, -20994.709, 0.0, 5.00997, 4.9466352 
2.7822945e+2, 2.5060257e+2, -505934.0, -603706.3, -5792.146, 0.016927516, 0.047516428, -505592.06, -21492.924, 0.0, 5.0094333, 4.946613 
2.7822235e+2, 2.5555333e+2, -458016.3, -555504.25, -5435.0317, 0.010705065, 0.08326354, -457714.22, -22120.18, 0.0, 5.008921, 4.9463925 
2.7821654e+2, 2.6049668e+2, -413827.75, -515584.78, -893.5392, 0.0026275474, 0.090907715, -413819.9, -26670.398, 0.0, 5.008376, 4.9428253 
2.7822024e+2, 2.654374e+2, -358637.6, -440298.16, 4529.2256, 0.051162686, -0.07250627, -358387.16, -19708.037, 0.0, 5.005414, 4.9522862 
2.782263e+2, 2.703789e+2, -319100.03, -395738.0, 8724.248, 0.11049434, -0.2654326, -318119.44, -27923.52, 0.0, 5.001247, 4.9522943 
2.782335e+2, 2.7531913e+2, -281498.28, -352265.75, 13566.609, 0.16959205, -0.4754606, -278986.63, -37261.855, 0.0, 4.9962664, 4.95226 
2.7822155e+2, 2.802725e+2, -312187.66, -480404.75, 2427.294, 0.09336512, -0.21231152, -312152.66, -119009.48, 0.0, 4.9959927, 4.8912115 
2.7819988e+2, 2.852219e+2, -207939.67, -320053.94, 6319.9883, 0.0215293, 0.13781904, -207584.53, -62893.21, 0.0, 5.001337, 4.925864 
2.7819133e+2, 2.9015493e+2, -152708.05, -268520.72, 4898.1846, 0.042281296, 0.14294483, -152501.25, -56090.133, 0.0, 5.003661, 4.9255614 
2.7818367e+2, 2.9508635e+2, -99325.164, -217986.2, 4033.7808, 0.05693203, 0.13023421, -99188.195, -51041.715, 0.0, 5.005113, 4.925259 
2.7817622e+2, 3.0002144e+2, -33865.734, -106927.414, 6074.2725, 0.028962355, 0.035719175, -33364.168, -33364.168, 0.0, 5.006552, 4.9560614 
2.781761e+2, 3.049804e+2, -10635.831, -64809.31, 11505.652, -0.09209304, -0.18299343, -8293.479, -8293.479, 0.0, 5.0090733, 4.9677515 
2.781809e+2, 3.0995157e+2, -5169.5034, -56645.535, 15490.945, -0.21278213, -0.3783722, -867.299, -867.299, 0.0, 5.0099487, 4.9697886 
2.7818874e+2, 3.1492645e+2, -3519.4248, -50413.742, 18490.842, -0.33210942, -0.5618824, 2894.4358, 2894.4358, 0.0, 5.0091357, 4.971823 
2.8337514e+2, 1.21447004e+2, -1698645.1, -1747174.9, -1657.429, -0.003310279, -0.05254136, -1698588.5, 51229.98, 0.0, 5.0194936, 4.987852 
2.8337508e+2, 1.264422e+2, -1655663.9, -1710986.0, -2005.5885, -0.0004378264, 0.060706746, -1655591.3, 45272.934, 0.0, 5.0196233, 4.9835987 
2.8337464e+2, 1.3142192e+2, -1606562.9, -1661957.5, -2086.8853, -0.0002368885, 0.02122833, -1606484.4, 45578.41, 0.0, 5.0196695, 4.983596 
2.833742e+2, 1.3640161e+2, -1559661.6, -1617453.8, -2166.622, 0.0001191694, -0.016998256, -1559580.5, 43680.965, 0.0, 5.0197153, 4.9820943 
2.8337285e+2, 1.4138043e+2, -1516387.1, -1579939.9, -3938.1418, 0.0015737286, -0.024242392, -1516144.0, 38324.676, 0.0, 5.0196524, 4.978245 
2.8337008e+2, 1.4636014e+2, -1467530.8, -1529700.9, -4330.0493, 0.003160295, -0.017589986, -1467230.6, 38436.824, 0.0, 5.019323, 4.978804 
2.833673e+2, 1.5133986e+2, -1419526.8, -1481174.3, -4528.8047, 0.004541944, -0.011436963, -1419195.9, 37670.016, 0.0, 5.01898, 4.9788046 
2.8336453e+2, 1.5631957e+2, -1372939.5, -1435611.1, -4728.1514, 0.0059367735, -0.0048429905, -1372584.9, 35479.563, 0.0, 5.018637, 4.9778123 
2.8336084e+2, 1.6129546e+2, -1332754.8, -1403515.0, -6281.8857, 0.006237481, 0.0057575554, -1332201.4, 27100.46, 0.0, 5.0183015, 4.9723125 
2.8335553e+2, 1.6626838e+2, -1284311.9, -1354352.1, -6555.486, 0.004285354, 0.007957691, -1283703.5, 26868.012, 0.0, 5.0180016, 4.9724793 
2.833502e+2, 1.7124133e+2, -1236089.9, -1305673.4, -6546.7915, 0.0022834367, 0.010247312, -1235479.3, 26361.777, 0.0, 5.017704, 4.9724803 
2.8334484e+2, 1.7621428e+2, -1188996.6, -1259392.4, -6538.2466, 0.000299176, 0.012956862, -1188394.6, 24715.947, 0.0, 5.017406, 4.9716744 
2.8333902e+2, 1.811837e+2, -1148164.5, -1226154.4, -7354.684, -0.001982482, 0.019965852, -1147477.0, 16935.703, 0.0, 5.0170493, 4.966474 
2.8333235e+2, 1.8615018e+2, -1099715.1, -1175954.9, -7590.4175, -0.0043061706, 0.011638297, -1098966.8, 16771.615, 0.0, 5.01652, 4.9670687 
2.8332564e+2, 1.911167e+2, -1052120.6, -1127536.8, -7663.729, -0.0065309154, 0.0029422592, -1051349.8, 15713.626, 0.0, 5.015979, 4.967069 
2.8331897e+2, 1.9608323e+2, -1005406.3, -1081024.8, -7739.0, -0.008721551, -0.005425145, -1004622.44, 13765.898, 0.0, 5.0154376, 4.9664187 
2.8331205e+2, 2.01047e+2, -966705.7, -1051797.9, -8545.243, -0.009714671, 0.0016934309, -965856.06, 3885.99, 0.0, 5.014889, 4.959878 
2.833044e+2, 2.0600812e+2, -918417.25, -1002217.7, -8848.945, -0.009329795, 0.008294104, -917493.0, 3632.5996, 0.0, 5.014396, 4.9602156 
2.8329667e+2, 2.1096916e+2, -870543.44, -953600.8, -8882.799, -0.009001082, 0.013463786, -869604.06, 2906.1123, 0.0, 5.0139155, 4.960219 
2.8328893e+2, 2.1593022e+2, -823326.25, -906430.94, -8918.003, -0.00858461, 0.018888542, -822380.06, 1514.5917, 0.0, 5.0134344, 4.9597225 
2.832815e+2, 2.2088727e+2, -783241.9, -874703.75, -8761.041, -0.0062994724, 0.024479773, -782410.25, -7094.3506, 0.0, 5.012922, 4.95391 
2.8327453e+2, 2.2584066e+2, -734377.75, -823070.44, -8765.08, 0.00252108, 0.0063565383, -733519.9, -6754.6563, 0.0, 5.012252, 4.9549932 
2.8326762e+2, 2.307942e+2, -686979.44, -774635.25, -8669.199, 0.011934246, -0.012197465, -686130.25, -7917.878, 0.0, 5.0115643, 4.954995 
2.8326064e+2, 2.3574771e+2, -640217.2, -727636.8, -8580.802, 0.021413494, -0.031222735, -639382.9, -9722.843, 0.0, 5.0108757, 4.9544945 
2.8325373e+2, 2.406995e+2, -603874.4, -702670.1, -7793.2344, 0.026329743, -0.017300377, -603263.44, -22134.635, 0.0, 5.0100007, 4.9463577 
2.8324598e+2, 2.456499e+2, -556172.9, -652286.06, -7704.822, 0.021269316, 0.012517501, -555559.1, -22933.092, 0.0, 5.009049, 4.9470534 
2.8323814e+2, 2.5060007e+2, -509192.56, -604052.4, -7260.963, 0.015727572, 0.03792606, -508640.0, -24512.965, 0.0, 5.0081377, 4.9470286 
2.8323033e+2, 2.5555044e+2, -462445.63, -556371.1, -6827.19, 0.0097796805, 0.06543039, -461951.97, -26325.717, 0.0, 5.007211, 4.946806 
2.8322408e+2, 2.6049483e+2, -418961.78, -514171.88, -3401.104, 0.0063133826, 0.07517112, -418840.44, -31668.44, 0.0, 5.006015, 4.94428 
2.8322783e+2, 2.6543987e+2, -363586.66, -436248.25, -4112.4746, 0.07810236, -0.058852866, -363354.66, -24690.809, 0.0, 5.0029416, 4.9545813 
2.8323418e+2, 2.7038687e+2, -321020.63, -387664.78, -7325.057, 0.16909276, -0.22043191, -320225.0, -30093.477, 0.0, 4.999585, 4.9554977 
2.8324202e+2, 2.7533388e+2, -278256.84, -339391.9, -11057.84, 0.26685068, -0.39806938, -276318.22, -34719.445, 0.0, 4.9961705, 4.956368 
2.8323165e+2, 2.802902e+2, -292718.28, -457393.9, -17201.494, 0.20768765, -0.17686515, -290940.66, -97947.98, 0.0, 5.000163, 4.898042 
2.8321004e+2, 2.8523335e+2, -199760.64, -325257.56, -4570.3457, 0.096536, 0.12425373, -199594.42, -54995.582, 0.0, 5.0057645, 4.923627 
2.8320083e+2, 2.901617e+2, -148624.06, -271228.75, -1599.3175, 0.08899026, 0.12670162, -148603.2, -52242.508, 0.0, 5.00635, 4.9244175 
2.8319296e+2, 2.9508874e+2, -97307.305, -217450.83, 563.71466, 0.08197263, 0.10228435, -97304.664, -49169.34, 0.0, 5.0067677, 4.925211 
2.8318635e+2, 3.0002242e+2, -30458.607, -96318.414, 2159.657, 0.042876456, 0.001125192, -30387.865, -30387.865, 0.0, 5.0074606, 4.959361 
2.8319165e+2, 3.0498457e+2, -8668.318, -52646.336, -1726.7445, -0.04535791, -0.1883724, -8600.624, -8600.624, 0.0, 5.009508, 4.972149 
2.832035e+2, 3.099631e+2, 261.99185, -41675.24, -4908.573, -0.11149789, -0.3040759, 828.85693, 828.85693, 0.0, 5.011573, 4.975007 
2.8321928e+2, 3.1495082e+2, 9718.823, -31235.592, -7535.6587, -0.16183728, -0.35380363, 11061.382, 11061.382, 0.0, 5.0134506, 4.977873 
2.8839427e+2, 1.21445455e+2, -1698923.6, -1747764.4, -1048.4902, -0.0072770948, -0.047471352, -1698901.1, 50930.695, 0.0, 5.0194964, 4.9876585 
2.8839484e+2, 1.2643859e+2, -1655788.6, -1711276.8, -1974.583, 0.0007010964, 0.046254594, -1655718.5, 45179.117, 0.0, 5.0196276, 4.9835024 
2.8839448e+2, 1.3141882e+2, -1606684.9, -1662242.1, -2051.9492, 0.0014604002, 0.012914219, -1606609.1, 45481.9, 0.0, 5.0196743, 4.9835014 
2.883941e+2, 1.3639903e+2, -1559780.0, -1617730.1, -2127.3752, 0.002293538, -0.019191798, -1559702.0, 43582.81, 0.0, 5.01972, 4.9820023 
2.883927e+2, 1.4137815e+2, -1516669.8, -1580536.5, -4130.6787, 0.003423777, -0.022303931, -1516403.6, 38085.906, 0.0, 5.0196543, 4.9780474 
2.8838956e+2, 1.4635769e+2, -1467884.1, -1530443.5, -4592.4917, 0.004469019, -0.014818705, -1467548.8, 38142.305, 0.0, 5.0193243, 4.9785585 
2.8838637e+2, 1.5133724e+2, -1419877.3, -1481914.4, -4789.782, 0.005421484, -0.0078723235, -1419509.6, 37382.742, 0.0, 5.0189815, 4.978559 
2.8838322e+2, 1.5631677e+2, -1373286.9, -1436348.1, -4987.4785, 0.0063795797, -0.00049689034, -1372894.9, 35198.98, 0.0, 5.018639, 4.977567 
2.8837913e+2, 1.6129245e+2, -1332798.5, -1403623.0, -6527.5977, 0.0060932273, 0.0096248025, -1332201.9, 27131.855, 0.0, 5.018304, 4.9722757 
2.883734e+2, 1.6626503e+2, -1284282.4, -1354307.0, -6784.67, 0.0030840877, 0.008473033, -1283631.1, 26974.148, 0.0, 5.018004, 4.9724936 
2.883677e+2, 1.7123766e+2, -1236060.3, -1305626.3, -6773.4717, -0.000023479426, 0.007308368, -1235406.8, 26469.684, 0.0, 5.017706, 4.9724956 
2.883619e+2, 1.7621028e+2, -1188966.8, -1259343.1, -6762.3857, -0.0031336092, 0.0065632546, -1188322.8, 24824.883, 0.0, 5.017408, 4.9716897 
2.883557e+2, 1.811796e+2, -1148161.8, -1226153.8, -7713.28, -0.0057245437, 0.012233305, -1147406.3, 17043.826, 0.0, 5.0170503, 4.966475 
2.883487e+2, 1.8614647e+2, -1099809.9, -1176168.6, -7999.2603, -0.0059896805, 0.0085411025, -1098980.9, 16792.082, 0.0, 5.0165215, 4.966998 
2.8834167e+2, 1.9111341e+2, -1052209.0, -1127747.3, -8068.22, -0.0060477112, 0.0047919257, -1051356.9, 15738.188, 0.0, 5.015982, 4.966999 
2.883347e+2, 1.9608037e+2, -1005488.4, -1081232.0, -8139.0835, -0.0061007827, 0.0013407302, -1004623.6, 13793.472, 0.0, 5.015442, 4.966349 
2.8832734e+2, 2.0104425e+2, -966821.1, -1052068.6, -8954.743, -0.0058404566, 0.010778013, -965890.7, 3879.7192, 0.0, 5.014891, 4.959787 
2.8831908e+2, 2.0600487e+2, -918452.8, -1002321.6, -9214.047, -0.00631456, 0.012805901, -917452.44, 3706.5022, 0.0, 5.0143995, 4.9601808 
2.883108e+2, 2.1096538e+2, -870570.7, -953698.7, -9242.118, -0.0069871913, 0.0129601555, -869555.5, 2993.171, 0.0, 5.0139213, 4.9601846 
2.8830248e+2, 2.1592589e+2, -823345.2, -906522.9, -9271.501, -0.007623528, 0.013290371, -822324.25, 1614.1147, 0.0, 5.013442, 4.9596887 
2.882944e+2, 2.2088282e+2, -782926.75, -874059.9, -9231.282, -0.006775358, 0.016581723, -782001.1, -6640.101, 0.0, 5.012929, 4.954129 
2.8828657e+2, 2.2583707e+2, -734144.8, -822630.06, -9280.4375, -0.00021771523, 0.0055696843, -733181.94, -6379.577, 0.0, 5.0122623, 4.955145 
2.8827873e+2, 2.3079152e+2, -686736.75, -774206.56, -9172.461, 0.0068402803, -0.005153268, -685785.2, -7543.9346, 0.0, 5.0115795, 4.955142 
2.8827086e+2, 2.3574592e+2, -639964.7, -727219.7, -9071.914, 0.0138951335, -0.01634837, -639031.44, -9350.773, 0.0, 5.0108953, 4.954637 
2.8826314e+2, 2.4069794e+2, -603139.8, -701417.3, -8493.5625, 0.018089224, -0.0025005064, -602411.2, -21263.805, 0.0, 5.010057, 4.9467716 
2.8825465e+2, 2.4564731e+2, -555408.0, -651030.9, -8481.177, 0.015430014, 0.012542288, -554661.6, -22007.24, 0.0, 5.0091124, 4.9474688 
2.88246e+2, 2.5059646e+2, -508469.7, -602840.1, -8017.8926, 0.01202649, 0.023709416, -507793.3, -23628.615, 0.0, 5.008189, 4.9474387 
2.8823745e+2, 2.5554582e+2, -461764.3, -555201.3, -7564.649, 0.007997183, 0.037252035, -461155.84, -25482.852, 0.0, 5.00725, 4.9472103 
2.882302e+2, 2.604911e+2, -418609.7, -514354.34, -4642.324, 0.005909211, 0.05015601, -418385.13, -31172.998, 0.0, 5.006132, 4.944291 
2.882317e+2, 2.6543948e+2, -363998.97, -440932.66, -5217.3345, 0.07007466, -0.025496066, -363646.78, -24965.777, 0.0, 5.003434, 4.9530745 
2.8823557e+2, 2.7038887e+2, -320374.84, -392739.88, -7904.1704, 0.14877054, -0.13024533, -319521.56, -29386.139, 0.0, 5.0004573, 4.9537377 
2.8824076e+2, 2.753376e+2, -276552.3, -344861.4, -11111.131, 0.23044209, -0.25685477, -274790.44, -33193.65, 0.0, 4.9974227, 4.9543552 
2.8823078e+2, 2.8029e+2, -281247.56, -425221.9, -15998.995, 0.16770874, -0.11096759, -279491.13, -86455.2, 0.0, 4.999422, 4.9092603 
2.8821272e+2, 2.852301e+2, -204730.73, -319494.94, -6032.905, 0.07570592, 0.10857339, -204414.47, -59752.68, 0.0, 5.003594, 4.926212 
2.8820568e+2, 2.901588e+2, -152185.25, -266032.7, -2322.1794, 0.07838757, 0.11233429, -152137.9, -55730.22, 0.0, 5.0046597, 4.926671 
2.881998e+2, 2.950855e+2, -99465.64, -212822.94, 579.3162, 0.07597508, 0.08359297, -99462.68, -51289.34, 0.0, 5.0055585, 4.927133 
2.881958e+2, 3.0002117e+2, -31057.566, -92068.04, 4380.8516, 0.042420827, -0.0073484066, -30744.605, -30744.605, 0.0, 5.006697, 4.9609303 
2.8820637e+2, 3.049834e+2, -13003.047, -57226.953, 3050.0044, -0.01634796, -0.1584322, -12793.6875, -12793.6875, 0.0, 5.0087543, 4.970856 
2.8822336e+2, 3.0996025e+2, -3538.6523, -43405.848, 1448.4727, -0.059765786, -0.2430976, -3486.095, -3486.095, 0.0, 5.010683, 4.9745445 
2.8824383e+2, 3.149468e+2, 6452.4336, -30122.729, 403.97, -0.09948465, -0.26967272, 6456.895, 6456.895, 0.0, 5.0124264, 4.978242 
2.9341346e+2, 1.2144386e+2, -1699113.0, -1748169.1, -438.1767, -0.010856497, -0.04275081, -1699109.1, 50736.41, 0.0, 5.019499, 4.987525 
2.934146e+2, 1.2643498e+2, -1655914.9, -1711566.1, -1945.1328, 0.0019353731, 0.031881277, -1655846.9, 45083.95, 0.0, 5.0196323, 4.9834065 
2.934143e+2, 1.3141572e+2, -1606808.3, -1662525.4, -2018.5687, 0.0032273699, 0.0046502496, -1606735.3, 45384.055, 0.0, 5.0196786, 4.983407 
2.9341406e+2, 1.3639645e+2, -1559899.8, -1618005.3, -2089.6833, 0.004511928, -0.021363884, -1559824.6, 43483.344, 0.0, 5.0197244, 4.9819093 
2.9341254e+2, 1.4137585e+2, -1516962.0, -1581152.6, -4326.493, 0.0052733626, -0.020325875, -1516671.6, 37838.75, 0.0, 5.019656, 4.9778438 
2.9340902e+2, 1.4635523e+2, -1468237.6, -1531186.3, -4854.672, 0.0057784254, -0.01202944, -1467865.5, 37849.164, 0.0, 5.0193257, 4.9783125 
2.9340544e+2, 1.5133461e+2, -1420228.0, -1482654.6, -5050.4976, 0.0063074664, -0.0043265186, -1419822.1, 37096.824, 0.0, 5.0189834, 4.9783134 
2.934019e+2, 1.5631397e+2, -1373634.4, -1437085.3, -5246.543, 0.0068345875, 0.003793565, -1373203.5, 34919.71, 0.0, 5.0186405, 4.9773216 
2.9339743e+2, 1.6128944e+2, -1332856.5, -1403760.4, -6773.381, 0.00597148, 0.013567469, -1332215.3, 27150.37, 0.0, 5.018306, 4.9722295 
2.933913e+2, 1.662617e+2, -1284253.4, -1354261.6, -7014.5947, 0.0018913253, 0.009062514, -1283557.5, 27081.367, 0.0, 5.0180063, 4.9725075 
2.9338515e+2, 1.71234e+2, -1236031.0, -1305578.9, -7000.892, -0.0023407813, 0.004386932, -1235333.3, 26578.678, 0.0, 5.0177083, 4.97251 
2.9337898e+2, 1.762063e+2, -1188937.1, -1259293.8, -6987.265, -0.006595663, 0.00013054069, -1188250.0, 24934.883, 0.0, 5.0174103, 4.971705 
2.9337236e+2, 1.811755e+2, -1148183.4, -1226204.0, -8075.137, -0.009441224, 0.0045800186, -1147356.3, 17131.143, 0.0, 5.0170507, 4.966459 
2.9336506e+2, 1.8614277e+2, -1099905.4, -1176382.3, -8407.3955, -0.007645818, 0.005493935, -1098992.0, 16815.57, 0.0, 5.016523, 4.966927 
2.9335773e+2, 1.9111013e+2, -1052298.1, -1127957.5, -8472.004, -0.005561302, 0.0065935208, -1051361.0, 15765.745, 0.0, 5.015985, 4.9669275 
2.933504e+2, 1.960775e+2, -1005571.06, -1081439.1, -8538.459, -0.003500969, 0.007960467, -1004622.0, 13823.974, 0.0, 5.0154467, 4.966278 
2.9334262e+2, 2.0104153e+2, -966967.06, -1052403.9, -9371.83, -0.0019110321, 0.020041076, -965951.1, 3847.4688, 0.0, 5.014894, 4.9596734 
2.933338e+2, 2.0600164e+2, -918489.44, -1002424.9, -9579.628, -0.0032229493, 0.017543353, -917410.0, 3782.074, 0.0, 5.0144033, 4.9601445 
2.9332492e+2, 2.109616e+2, -870598.94, -953795.9, -9601.916, -0.0049204337, 0.012546666, -869505.1, 3081.8855, 0.0, 5.013927, 4.9601493 
2.9331604e+2, 2.1592157e+2, -823365.2, -906614.06, -9625.478, -0.0066330787, 0.007646881, -822266.75, 1715.2574, 0.0, 5.0134497, 4.9596543 
2.9330727e+2, 2.2087833e+2, -782679.94, -873561.94, -9701.783, -0.007280211, 0.008673296, -781655.8, -6249.52, 0.0, 5.012936, 4.9542975 
2.9329857e+2, 2.2583343e+2, -733914.3, -822188.1, -9788.822, -0.002984657, 0.004584697, -732841.8, -6001.9995, 0.0, 5.012273, 4.9552937 
2.9328987e+2, 2.3078878e+2, -686496.44, -773776.2, -9668.747, 0.0017385004, 0.0014094884, -685438.2, -7167.629, 0.0, 5.011595, 4.9552865 
2.9328114e+2, 2.3574407e+2, -639714.6, -726800.9, -9556.049, 0.0063892626, -0.0022386222, -638678.3, -8976.514, 0.0, 5.0109153, 4.9547772 
2.932726e+2, 2.4069646e+2, -602491.0, -700314.5, -9128.21, 0.009748471, 0.012924825, -601646.5, -20481.12, 0.0, 5.0101132, 4.947129 
2.9326335e+2, 2.4564484e+2, -554667.9, -649751.75, -9245.047, 0.009368144, 0.013838829, -553777.3, -21095.69, 0.0, 5.0091763, 4.9478827 
2.932539e+2, 2.5059295e+2, -507771.47, -601603.75, -8762.341, 0.008026871, 0.010532947, -506960.25, -22758.781, 0.0, 5.0082407, 4.9478474 
2.932445e+2, 2.555413e+2, -461107.66, -554007.44, -8289.63, 0.005840233, 0.009882336, -460373.78, -24654.754, 0.0, 5.007289, 4.9476137 
2.9323614e+2, 2.6048678e+2, -418810.34, -515591.78, -5654.4595, 0.003042545, 0.022619823, -418481.13, -31223.934, 0.0, 5.0062494, 4.9438624 
2.9323584e+2, 2.6543796e+2, -364512.28, -445540.5, -5915.2534, 0.059654634, -0.0051574116, -364082.72, -25373.934, 0.0, 5.003927, 4.951425 
2.9323786e+2, 2.7038953e+2, -319828.47, -397736.53, -8074.85, 0.12731345, -0.06325014, -319000.34, -28847.225, 0.0, 5.0013304, 4.9518356 
2.9324105e+2, 2.753396e+2, -274945.9, -350250.44, -10754.52, 0.19415313, -0.14900039, -273440.13, -31828.326, 0.0, 4.998676, 4.9522 
2.9322916e+2, 2.8028998e+2, -276222.63, -407876.8, -18288.229, 0.1269909, -0.036149833, -273729.4, -80651.42, 0.0, 4.9986935, 4.9153585 
2.9321316e+2, 2.852284e+2, -209968.47, -313480.22, -6895.781, 0.054567795, 0.13170582, -209511.1, -64801.457, 0.0, 5.001423, 4.928663 
2.9320905e+2, 2.9015714e+2, -156011.2, -260584.42, -2447.075, 0.06929039, 0.12489433, -155953.97, -59511.06, 0.0, 5.0029697, 4.92879 
2.9320592e+2, 2.950831e+2, -101886.22, -207942.45, 1191.0776, 0.07329462, 0.079939194, -101872.84, -53669.88, 0.0, 5.004349, 4.9289203 
2.932048e+2, 3.0001935e+2, -32500.28, -88909.54, 6317.062, 0.043310877, -0.019037373, -31801.512, -31801.512, 0.0, 5.0059342, 4.961929 
2.9321912e+2, 3.049799e+2, -17636.49, -61533.758, 6748.78, -0.0046195234, -0.16489957, -16622.36, -16622.36, 0.0, 5.0080004, 4.9692197 
2.9323956e+2, 3.0995363e+2, -7638.704, -44866.52, 6723.7837, -0.046456236, -0.2545672, -6461.5327, -6461.5327, 0.0, 5.0097933, 4.973737 
2.9326305e+2, 3.1493762e+2, 2885.201, -28745.744, 7255.7236, -0.09667821, -0.29404613, 4470.151, 4470.151, 0.0, 5.0114026, 4.9782643 
2.9843268e+2, 1.2144222e+2, -1698621.4, -1748122.9, 156.33946, -0.01392246, -0.038316276, -1698620.9, 51238.75, 0.0, 5.0197062, 4.9874377 
2.9843438e+2, 1.2643139e+2, -1655617.9, -1711634.5, -1907.2063, 0.0033490008, 0.017773049, -1655553.0, 45411.008, 0.0, 5.019778, 4.983312 
2.984342e+2, 1.3141266e+2, -1606635.6, -1662652.9, -1960.456, 0.0050729453, -0.0034345074, -1606567.1, 45580.34, 0.0, 5.019782, 4.9833136 
2.9843402e+2, 1.363939e+2, -1559877.1, -1618202.4, -2015.2756, 0.006748585, -0.023428328, -1559807.5, 43523.574, 0.0, 5.019777, 4.9818177 
2.9843238e+2, 1.4137357e+2, -1517217.8, -1581764.0, -4472.5703, 0.0071084956, -0.018265637, -1516909.4, 37621.84, 0.0, 5.019674, 4.9776335 
2.9842848e+2, 1.4635278e+2, -1468482.3, -1531876.1, -5063.0347, 0.007068989, -0.009238526, -1468080.5, 37657.77, 0.0, 5.0193644, 4.978066 
2.9842454e+2, 1.5133198e+2, -1420408.0, -1483311.3, -5258.863, 0.0071760938, -0.0008621254, -1419971.4, 36973.98, 0.0, 5.019043, 4.978067 
2.984206e+2, 1.5631115e+2, -1373757.8, -1437711.6, -5453.9063, 0.0072796894, 0.007932532, -1373296.0, 34856.742, 0.0, 5.0187187, 4.977076 
2.9841575e+2, 1.6128643e+2, -1332683.6, -1403805.3, -6968.3735, 0.005860721, 0.017478157, -1332007.3, 27390.164, 0.0, 5.0183916, 4.972173 
2.9840922e+2, 1.6625838e+2, -1284034.0, -1354125.0, -7202.512, 0.00073339674, 0.009678107, -1283301.5, 27370.945, 0.0, 5.0180745, 4.9725194 
2.9840264e+2, 1.7123035e+2, -1235884.8, -1305478.3, -7199.564, -0.00458209, 0.0015137651, -1235147.8, 26799.447, 0.0, 5.0177517, 4.972522 
2.9839605e+2, 1.7620231e+2, -1188881.8, -1259236.9, -7201.612, -0.009919841, -0.0062178127, -1188152.1, 25069.695, 0.0, 5.017423, 4.971717 
2.9838908e+2, 1.8117143e+2, -1148272.4, -1226327.5, -8444.783, -0.012918306, -0.0028277081, -1147369.3, 17155.453, 0.0, 5.0170374, 4.9664245 
2.9838145e+2, 1.8613908e+2, -1100040.9, -1176612.9, -8826.671, -0.009132962, 0.0025646423, -1099036.5, 16805.563, 0.0, 5.0165114, 4.966855 
2.983738e+2, 1.9110684e+2, -1052443.4, -1128190.3, -8894.146, -0.004983032, 0.008329498, -1051413.0, 15745.565, 0.0, 5.0159693, 4.9668565 
2.9836613e+2, 1.960746e+2, -1005750.5, -1081685.1, -8963.385, -0.00086007867, 0.014351318, -1004706.8, 13768.171, 0.0, 5.0154185, 4.9662075 
2.9835793e+2, 2.0103881e+2, -967210.44, -1052823.0, -9801.994, 0.0021072999, 0.029319044, -966102.5, 3724.2651, 0.0, 5.0148726, 4.959542 
2.9834855e+2, 2.059984e+2, -918475.1, -1002498.0, -9923.697, -0.000057537316, 0.022383232, -917318.94, 3906.052, 0.0, 5.014425, 4.9601088 
2.9833907e+2, 2.1095784e+2, -870495.2, -953824.56, -9918.911, -0.0027997259, 0.012224078, -869330.75, 3294.352, 0.0, 5.013979, 4.9601145 
2.9832965e+2, 2.1591729e+2, -823207.3, -906614.5, -9917.015, -0.005572131, 0.002141496, -822044.44, 1980.7836, 0.0, 5.0135207, 4.95962 
2.9832023e+2, 2.2087386e+2, -782305.8, -873116.1, -10100.642, -0.0076992754, 0.0010841644, -781195.9, -5744.668, 0.0, 5.013014, 4.9544153 
2.9831064e+2, 2.258298e+2, -733504.9, -821651.8, -10253.427, -0.0055893613, 0.0035402675, -732327.9, -5450.476, 0.0, 5.0123496, 4.9554415 
2.98301e+2, 2.30786e+2, -686155.6, -773274.9, -10138.756, -0.0030645304, 0.00735015, -684991.25, -6690.9424, 0.0, 5.011648, 4.955434 
2.9829144e+2, 2.3574215e+2, -639510.7, -726365.5, -10007.911, -0.0006372175, 0.010628868, -638372.44, -8648.638, 0.0, 5.0109215, 4.9549236 
2.982822e+2, 2.4069498e+2, -602185.7, -699381.75, -9626.446, 0.0019546805, 0.028173633, -601241.44, -20058.102, 0.0, 5.0100837, 4.9474506 
2.982722e+2, 2.4564245e+2, -554009.6, -648357.3, -9829.0, 0.004005307, 0.015916333, -552996.5, -20288.725, 0.0, 5.009235, 4.948317 
2.9826197e+2, 2.505896e+2, -506795.5, -600088.5, -9230.895, 0.005145807, -0.0015155299, -505890.9, -21654.41, 0.0, 5.0084243, 4.948276 
2.982518e+2, 2.5553703e+2, -459753.03, -552344.1, -8640.719, 0.005433439, -0.015835755, -458953.6, -23191.041, 0.0, 5.007624, 4.948036 
2.9824224e+2, 2.6048234e+2, -419337.88, -517142.3, -5721.162, 0.0015228842, -0.0061637512, -419004.34, -31700.215, 0.0, 5.0064316, 4.9432135 
2.982409e+2, 2.6543596e+2, -371930.63, -451575.44, -3353.2817, 0.056746937, 0.0022838365, -371789.7, -33048.4, 0.0, 5.0019274, 4.950151 
2.9824197e+2, 2.7038994e+2, -337781.9, -408651.63, -1354.3751, 0.12386158, -0.019626359, -337756.03, -47583.41, 0.0, 4.995568, 4.9505043 
2.9824424e+2, 2.7534205e+2, -307464.78, -367797.53, 1462.943, 0.18914881, -0.073919855, -307429.3, -65806.82, 0.0, 4.9877152, 4.950809 
2.982285e+2, 2.8029305e+2, -323105.66, -425398.13, -6564.206, 0.12634735, 0.04836962, -322686.16, -129596.695, 0.0, 4.98196, 4.9165397 
2.9821262e+2, 2.852305e+2, -242507.4, -321371.56, 7713.632, 0.060215812, 0.19224091, -241760.03, -97039.586, 0.0, 4.9898324, 4.930531 
2.982117e+2, 2.9015815e+2, -171343.53, -261354.23, 9046.014, 0.07586311, 0.16172004, -170443.42, -73991.8, 0.0, 4.997418, 4.930509 
2.982118e+2, 2.9508254e+2, -105748.08, -204157.1, 10490.02, 0.07971595, 0.0880778, -104642.305, -56427.766, 0.0, 5.0028696, 4.9304876 
2.9821375e+2, 3.0001777e+2, -32904.34, -85564.53, 13819.027, 0.04825717, -0.035819422, -29498.271, -29498.271, 0.0, 5.006005, 4.9626417 
2.9823053e+2, 3.0497584e+2, -32176.49, -68665.734, 13716.793, 0.00046686298, -0.19836466, -27595.324, -27595.324, 0.0, 5.0039754, 4.967677 
2.9825336e+2, 3.0994654e+2, -44523.64, -59167.902, 12611.762, -0.04314961, -0.3102272, -37262.56, -37262.56, 0.0, 4.997422, 4.9729285 
2.982792e+2, 3.149284e+2, -67037.31, -54702.547, 10485.366, -0.09791816, -0.373124, -48705.246, -48705.246, 0.0, 4.9868255, 4.9782 
3.0345318e+2, 1.2144077e+2, -1693521.1, -1747187.1, 122.510086, -0.017036902, -0.033716246, -1693520.8, 56351.633, 0.0, 5.0217414, 4.986743 
3.0345532e+2, 1.2642856e+2, -1650809.8, -1709451.8, -1888.1615, 0.00600863, 0.010058345, -1650749.0, 50241.984, 0.0, 5.0214205, 4.9832215 
3.034549e+2, 1.3141018e+2, -1602617.4, -1660870.5, -1972.6886, 0.0067858766, -0.006864102, -1602550.6, 49620.332, 0.0, 5.0211678, 4.9832215 
3.0345446e+2, 1.3639177e+2, -1556613.3, -1616797.8, -2054.1563, 0.0076704742, -0.022519447, -1556543.3, 46807.926, 0.0, 5.0209146, 4.981725 
3.034526e+2, 1.4137156e+2, -1514568.0, -1580911.1, -4596.9053, 0.0074852286, -0.01497419, -1514251.0, 40299.113, 0.0, 5.020657, 4.97744 
3.0344832e+2, 1.463504e+2, -1465829.0, -1531159.5, -5213.067, 0.0069029215, -0.007109993, -1465415.6, 40345.582, 0.0, 5.0203795, 4.9778147 
3.0344406e+2, 1.5132922e+2, -1417640.0, -1482538.6, -5419.2144, 0.006475312, 0.00010392281, -1417190.6, 39782.047, 0.0, 5.020099, 4.977817 
3.034398e+2, 1.5630803e+2, -1370865.9, -1436879.1, -5625.792, 0.0060676904, 0.007791896, -1370389.9, 37794.125, 0.0, 5.019819, 4.9768276 
3.0343458e+2, 1.6128302e+2, -1329595.4, -1402503.4, -7226.068, 0.004481247, 0.01644169, -1328886.1, 30545.498, 0.0, 5.01948, 4.972086 
3.034277e+2, 1.6625488e+2, -1281301.6, -1352898.0, -7543.8296, -0.00002243468, 0.008163051, -1280515.4, 30191.354, 0.0, 5.0190234, 4.972477 
3.034208e+2, 1.7122677e+2, -1233571.0, -1304465.5, -7609.125, -0.004603363, -0.00040504953, -1232763.5, 29217.945, 0.0, 5.018562, 4.9724765 
3.034139e+2, 1.7619868e+2, -1186965.6, -1258426.9, -7674.773, -0.00912403, -0.008481721, -1186150.6, 27105.48, 0.0, 5.0181003, 4.971669 
3.0340654e+2, 1.8116777e+2, -1146806.4, -1225883.8, -9093.095, -0.011442695, -0.004597349, -1145774.1, 18784.693, 0.0, 5.01759, 4.9663157 
3.0339828e+2, 1.8613544e+2, -1098893.3, -1176383.9, -9596.604, -0.008032157, 0.0023911395, -1097722.4, 18154.629, 0.0, 5.01697, 4.9667196 
3.0339003e+2, 1.911032e+2, -1051535.4, -1128068.3, -9758.447, -0.0042630048, 0.00976943, -1050310.8, 16883.713, 0.0, 5.016346, 4.9667234 
3.033817e+2, 1.96071e+2, -1005055.5, -1081658.1, -9924.163, -0.000414131, 0.01747069, -1003790.7, 14720.942, 0.0, 5.0157213, 4.966077 
3.0337295e+2, 2.010351e+2, -966226.06, -1052257.0, -10638.037, 0.0019001681, 0.032041036, -964930.1, 4934.772, 0.0, 5.015187, 4.9595876 
3.0336303e+2, 2.0599455e+2, -917276.1, -1001717.8, -10586.683, -0.0010846639, 0.02264658, -915969.06, 5294.3677, 0.0, 5.014792, 4.960204 
3.0335316e+2, 2.1095389e+2, -869167.75, -952977.6, -10457.324, -0.00438498, 0.010565925, -867882.6, 4780.5474, 0.0, 5.0143943, 4.9602113 
3.0334324e+2, 2.1591325e+2, -821717.06, -905686.2, -10329.028, -0.00755874, -0.0011822936, -820465.1, 3597.5486, 0.0, 5.013996, 4.9597187 
3.0333328e+2, 2.2086994e+2, -780831.4, -872430.9, -10623.718, -0.009808862, -0.0018521813, -779615.4, -4128.253, 0.0, 5.0135326, 4.9544144 
3.0332303e+2, 2.2582605e+2, -732246.9, -821292.0, -11139.095, -0.008011531, 0.0032110089, -730874.56, -3960.7712, 0.0, 5.0128436, 4.955338 
3.0331275e+2, 2.3078236e+2, -684893.25, -772861.44, -11398.1045, -0.0056999163, 0.009074638, -683440.4, -5102.419, 0.0, 5.0121374, 4.955347 
3.0330247e+2, 2.3573862e+2, -638171.8, -725870.44, -11666.533, -0.0032774652, 0.014073521, -636646.3, -6883.5083, 0.0, 5.0114303, 4.9548545 
3.032925e+2, 2.406914e+2, -600735.3, -697915.3, -11785.67, -0.000021216389, 0.030352315, -599326.44, -18102.262, 0.0, 5.0104985, 4.9477234 
3.0328193e+2, 2.4563898e+2, -552324.4, -646502.0, -12392.091, 0.005073851, 0.015900757, -550721.1, -17976.016, 0.0, 5.0097075, 4.9486804 
3.0327126e+2, 2.5058645e+2, -504726.84, -598052.2, -12153.372, 0.0104909595, -0.0018370288, -503170.13, -18902.037, 0.0, 5.0090313, 4.9486413 
3.032608e+2, 2.5553426e+2, -457365.9, -550158.8, -11904.36, 0.01614997, -0.015450633, -455863.06, -20075.61, 0.0, 5.0083413, 4.948404 
3.0325055e+2, 2.604803e+2, -416276.66, -514277.88, -10495.368, 0.017808039, -0.0022491007, -415165.25, -27843.58, 0.0, 5.007419, 4.943634 
3.0324763e+2, 2.6543587e+2, -361793.72, -443156.2, -11881.32, 0.08555181, 0.019194445, -360094.2, -21341.688, 0.0, 5.0053306, 4.9512715 
3.0324763e+2, 2.7039325e+2, -315335.22, -391890.2, -14758.688, 0.1815912, 0.014927873, -312588.5, -22424.33, 0.0, 5.0031075, 4.9525704 
3.0324918e+2, 2.7535027e+2, -268618.1, -341046.38, -18070.99, 0.29178548, -0.017844057, -264359.72, -22780.322, 0.0, 5.0008445, 4.9538226 
3.032343e+2, 2.8030553e+2, -258116.75, -389961.22, -29900.668, 0.31071642, 0.10463151, -251652.58, -58638.547, 0.0, 5.0033813, 4.9203315 
3.0321917e+2, 2.852394e+2, -194015.22, -304492.53, -4124.7793, 0.20761754, 0.20986497, -193861.44, -49190.633, 0.0, 5.006621, 4.9312067 
3.0321875e+2, 2.901636e+2, -144156.34, -250897.4, 159.41634, 0.155996, 0.15286566, -144156.11, -47732.3, 0.0, 5.0065613, 4.9319825 
3.032202e+2, 2.950856e+2, -94126.5, -197506.84, 3925.0735, 0.1172931, 0.056978103, -93977.69, -45779.395, 0.0, 5.0063825, 4.9327626 
3.0322385e+2, 3.0002108e+2, -34742.93, -83373.81, 5687.158, 0.07524673, -0.06259492, -34086.695, -34086.695, 0.0, 5.0054283, 4.9645424 
3.0324182e+2, 3.0498943e+2, -36259.934, -65654.41, 3344.668, 0.078930564, -0.10841553, -35884.16, -35884.16, 0.0, 5.0030036, 4.9699035 
3.0326775e+2, 3.099736e+2, -37992.18, -52720.492, 2490.3726, 0.14014265, -0.06319607, -37582.49, -37582.49, 0.0, 5.000735, 4.9748545 
3.0329874e+2, 3.1497073e+2, -39197.49, -40311.43, 935.9176, 0.24133974, 0.060004994, -38665.348, -38665.348, 0.0, 4.998346, 4.979815 
3.084745e+2, 1.2143942e+2, -1694991.5, -1750211.8, -590.8083, -0.021542141, -0.02942605, -1694985.3, 54899.13, 0.0, 5.0217457, 4.9857492 
3.08477e+2, 1.2642613e+2, -1650951.0, -1709777.0, -2081.0986, 0.008875238, 0.005518067, -1650877.4, 50137.402, 0.0, 5.0214257, 4.983114 
3.0847624e+2, 1.3140799e+2, -1602756.9, -1661191.8, -2163.494, 0.008331855, -0.007944335, -1602676.9, 49515.48, 0.0, 5.0211725, 4.9831147 
3.0847543e+2, 1.3638982e+2, -1556749.5, -1617112.0, -2242.192, 0.007858826, -0.020158896, -1556666.4, 46703.688, 0.0, 5.0209193, 4.981621 
3.084732e+2, 1.4136963e+2, -1514845.5, -1581496.4, -4813.3687, 0.006905162, -0.0110982135, -1514499.8, 40069.04, 0.0, 5.0206585, 4.977247 
3.0846864e+2, 1.4634801e+2, -1466196.9, -1531932.3, -5429.7495, 0.0058281845, -0.005295512, -1465751.4, 40033.09, 0.0, 5.020381, 4.97756 
3.08464e+2, 1.5132634e+2, -1418004.4, -1483310.5, -5633.309, 0.0048261643, -0.00021890468, -1417522.0, 39478.656, 0.0, 5.020101, 4.9775615 
3.0845937e+2, 1.5630467e+2, -1371226.4, -1437648.8, -5837.036, 0.003836489, 0.005326692, -1370717.3, 37499.66, 0.0, 5.019821, 4.9765725 
3.0845386e+2, 1.6127932e+2, -1329760.5, -1402865.1, -7551.2437, 0.0022980582, 0.012771559, -1328988.6, 30479.152, 0.0, 5.019482, 4.9719653 
3.0844668e+2, 1.6625124e+2, -1281398.9, -1353120.0, -7896.663, -0.0006862964, 0.0055634617, -1280539.8, 30202.438, 0.0, 5.019026, 4.972402 
3.084395e+2, 1.7122316e+2, -1233665.0, -1304683.5, -7959.3145, -0.0037129025, -0.0018587909, -1232784.0, 29232.137, 0.0, 5.0185647, 4.972402 
3.0843228e+2, 1.7619511e+2, -1187056.4, -1258640.8, -8022.258, -0.0067040646, -0.008811222, -1186168.4, 27121.535, 0.0, 5.0181036, 4.9715953 
3.0842447e+2, 1.8116423e+2, -1147032.4, -1226372.4, -9549.318, -0.008154237, -0.0036568884, -1145899.1, 18693.2, 0.0, 5.017591, 4.9661536 
3.0841544e+2, 1.8613173e+2, -1099144.0, -1176940.6, -10068.329, -0.006233473, 0.0036235657, -1097862.1, 18050.977, 0.0, 5.0169725, 4.9665346 
3.0840638e+2, 1.910993e+2, -1051774.9, -1128621.8, -10223.854, -0.0041827685, 0.0110387, -1050438.0, 16795.38, 0.0, 5.016351, 4.966538 
3.0839732e+2, 1.9606689e+2, -1005283.8, -1082208.5, -10383.185, -0.0020966898, 0.018708816, -1003906.94, 14646.507, 0.0, 5.0157294, 4.965891 
3.083878e+2, 2.0103073e+2, -966044.8, -1051894.3, -10965.71, -0.0017035686, 0.031405587, -964666.25, 5243.142, 0.0, 5.0151906, 4.959711 
3.0837744e+2, 2.0599024e+2, -917023.5, -1001194.8, -10889.783, -0.005176684, 0.020764433, -915637.44, 5668.28, 0.0, 5.0147953, 4.9603844 
3.0836713e+2, 2.1094967e+2, -868910.2, -952451.94, -10753.579, -0.008718323, 0.008016823, -867548.2, 5154.402, 0.0, 5.014399, 4.960392 
3.083568e+2, 2.1590914e+2, -821454.5, -905157.75, -10618.407, -0.012176936, -0.0044885227, -820128.5, 3970.7297, 0.0, 5.014003, 4.9599 
3.0834636e+2, 2.2086601e+2, -780981.6, -872791.4, -11121.593, -0.014230238, -0.0042248974, -779653.6, -4132.3887, 0.0, 5.013537, 4.9542904 
3.0833548e+2, 2.2582196e+2, -732618.94, -822173.4, -11672.114, -0.012050389, 0.0020361526, -731122.6, -4170.3535, 0.0, 5.012851, 4.955032 
3.0832455e+2, 2.3077804e+2, -685247.1, -773749.3, -11910.605, -0.009566932, 0.008506498, -683672.2, -5290.1797, 0.0, 5.012151, 4.955037 
3.0831364e+2, 2.3573408e+2, -638507.56, -726764.94, -12158.464, -0.0070366994, 0.014122639, -636863.2, -7050.7305, 0.0, 5.0114493, 4.95454 
3.08303e+2, 2.4068666e+2, -600478.75, -697958.25, -12369.589, -0.0035365275, 0.030524129, -598933.6, -17656.234, 0.0, 5.0105705, 4.9477057 
3.0829164e+2, 2.4563468e+2, -551783.2, -646209.25, -12926.459, 0.002384236, 0.019786337, -550045.56, -17254.89, 0.0, 5.0098133, 4.948783 
3.0828023e+2, 2.5058264e+2, -504168.2, -597733.8, -12663.413, 0.008356429, 0.0065334146, -502484.6, -18179.904, 0.0, 5.009144, 4.94875 
3.0826902e+2, 2.5553098e+2, -456790.03, -549814.94, -12390.046, 0.014256147, -0.0028057245, -455168.06, -19352.889, 0.0, 5.0084596, 4.9485183 
3.082572e+2, 2.6047695e+2, -416944.8, -517704.9, -11638.544, 0.010076799, 0.012846031, -415617.94, -28268.24, 0.0, 5.0076504, 4.9424186 
3.0825037e+2, 2.6543048e+2, -362738.3, -449587.88, -12699.536, 0.042555735, 0.0342818, -360919.4, -22105.44, 0.0, 5.005842, 4.9489975 
3.0824623e+2, 2.7038527e+2, -315833.66, -399355.03, -14964.829, 0.097904734, 0.030097403, -313233.3, -22966.957, 0.0, 5.0038743, 4.949918 
3.0824357e+2, 2.753392e+2, -268666.75, -349543.0, -17666.621, 0.1649548, -0.0029965814, -264976.06, -23248.676, 0.0, 5.0018673, 4.950792 
3.082282e+2, 2.8029296e+2, -256792.92, -386392.03, -33967.21, 0.20186445, 0.12582552, -248429.97, -55242.48, 0.0, 5.003301, 4.921462 
3.0821759e+2, 2.8523e+2, -192004.77, -293487.03, -6646.013, 0.1590219, 0.22424082, -191571.38, -46767.414, 0.0, 5.005593, 4.9350624 
3.0822024e+2, 2.9015693e+2, -141959.7, -241041.92, -1793.5162, 0.12872042, 0.15201248, -141927.25, -45408.656, 0.0, 5.005676, 4.935501 
3.082247e+2, 2.950816e+2, -91741.26, -188795.28, 2540.959, 0.10713461, 0.043325406, -91674.78, -43419.01, 0.0, 5.0056405, 4.935944 
3.0823037e+2, 3.0001828e+2, -35318.563, -85606.61, 3695.5515, 0.07973917, -0.08455665, -35048.434, -35048.434, 0.0, 5.0051656, 4.96375 
3.0824748e+2, 3.0499488e+2, -32519.518, -64551.28, 2510.278, 0.09245796, -0.05716336, -32323.984, -32323.984, 0.0, 5.0036726, 4.969896 
3.0827224e+2, 3.099895e+2, -31842.555, -51001.402, 3028.921, 0.15544276, 0.07122674, -31375.102, -31375.102, 0.0, 5.002141, 4.974735 
3.083018e+2, 3.149955e+2, -30634.814, -37986.43, 2845.0977, 0.25105935, 0.25926742, -29662.38, -29662.38, 0.0, 5.0004897, 4.979582 
3.134958e+2, 1.21438034e+2, -1696370.0, -1753048.4, -1305.3618, -0.026280006, -0.025431119, -1696340.0, 53556.637, 0.0, 5.0217505, 4.984817 
3.1349877e+2, 1.264237e+2, -1651092.8, -1710101.8, -2274.7822, 0.011792973, 0.0010460858, -1651005.1, 50033.44, 0.0, 5.021431, 4.983006 
3.1349757e+2, 1.3140579e+2, -1602896.9, -1661512.5, -2355.0461, 0.009926158, -0.008982155, -1602802.4, 49411.23, 0.0, 5.021178, 4.983008 
3.1349638e+2, 1.3638787e+2, -1556886.4, -1617425.9, -2430.9736, 0.008092706, -0.017781807, -1556789.0, 46599.992, 0.0, 5.0209246, 4.981516 
3.1349382e+2, 1.413677e+2, -1515137.8, -1582111.5, -5033.008, 0.006324267, -0.007126263, -1514761.6, 39825.664, 0.0, 5.0206604, 4.977044 
3.134889e+2, 1.4634562e+2, -1466565.3, -1532705.3, -5645.2993, 0.0047536753, -0.0034165739, -1466086.9, 39720.92, 0.0, 5.0203824, 4.9773045 
3.1348395e+2, 1.5132347e+2, -1418369.3, -1484082.4, -5846.271, 0.0031861148, -0.0005449565, -1417853.3, 39175.57, 0.0, 5.020103, 4.977306 
3.1347898e+2, 1.5630132e+2, -1371587.1, -1438418.4, -6047.1465, 0.0016232551, 0.0027906038, -1371044.4, 37205.47, 0.0, 5.019823, 4.9763165 
3.134731e+2, 1.6127566e+2, -1329948.6, -1403274.6, -7878.139, 0.00016820905, 0.009201129, -1329111.8, 30392.035, 0.0, 5.019484, 4.971828 
3.1346563e+2, 1.6624759e+2, -1281496.6, -1353341.9, -8250.106, -0.0013051886, 0.003081028, -1280561.5, 30216.113, 0.0, 5.0190277, 4.9723263 
3.1345814e+2, 1.7121957e+2, -1233759.5, -1304901.3, -8310.113, -0.0027987056, -0.0032545857, -1232801.8, 29248.922, 0.0, 5.0185676, 4.972327 
3.1345063e+2, 1.7619155e+2, -1187147.6, -1258854.5, -8370.353, -0.004281586, -0.009141961, -1186183.5, 27140.139, 0.0, 5.018107, 4.9715214 
3.1344238e+2, 1.8116069e+2, -1147282.8, -1226911.8, -10009.999, -0.0048725605, -0.0026334424, -1146043.6, 18582.201, 0.0, 5.0175924, 4.965974 
3.1343257e+2, 1.8612802e+2, -1099396.0, -1177497.1, -10537.757, -0.004438449, 0.004869003, -1097999.1, 17950.047, 0.0, 5.0169754, 4.966348 
3.1342274e+2, 1.910954e+2, -1052015.5, -1129174.8, -10686.959, -0.004110437, 0.012183205, -1050562.6, 16709.676, 0.0, 5.016357, 4.966351 
3.134129e+2, 1.9606276e+2, -1005513.2, -1082758.4, -10839.904, -0.0037913923, 0.019684466, -1004020.8, 14574.573, 0.0, 5.015738, 4.9657035 
3.1340265e+2, 2.010264e+2, -965912.75, -1051637.1, -11304.839, -0.0052704792, 0.031044893, -964447.0, 5506.721, 0.0, 5.015194, 4.959799 
3.1339183e+2, 2.0598595e+2, -916771.8, -1000671.44, -11193.002, -0.009196706, 0.019257063, -915304.25, 6043.503, 0.0, 5.014798, 4.960563 
3.133811e+2, 2.109455e+2, -868653.5, -951925.9, -11049.952, -0.012972652, 0.005658039, -867212.2, 5529.5625, 0.0, 5.014404, 4.960572 
3.1337035e+2, 2.1590504e+2, -821192.9, -904628.94, -10907.904, -0.016709108, -0.0077888146, -819790.4, 4345.189, 0.0, 5.014009, 4.96008 
3.1335947e+2, 2.2086206e+2, -781228.6, -873360.94, -11623.643, -0.018601812, -0.006513404, -779784.75, -4229.2446, 0.0, 5.0135407, 4.9540925 
3.1334797e+2, 2.2581784e+2, -732993.75, -823053.75, -12196.159, -0.016064335, 0.0005850127, -731371.4, -4380.141, 0.0, 5.012859, 4.9547215 
3.1333637e+2, 2.3077369e+2, -685603.7, -774636.0, -12414.129, -0.013426097, 0.0071234917, -683905.1, -5478.4355, 0.0, 5.012164, 4.954722 
3.1332484e+2, 2.3572943e+2, -638845.94, -727658.25, -12641.411, -0.010805132, 0.012818568, -637081.6, -7218.721, 0.0, 5.0114684, 4.954221 
3.1331357e+2, 2.4068204e+2, -600376.7, -698307.06, -12901.74, -0.0068248175, 0.031753186, -598705.5, -17375.902, 0.0, 5.010642, 4.9475775 
3.1330147e+2, 2.4563055e+2, -551264.25, -645894.75, -13468.23, -0.00023612744, 0.025891662, -549384.7, -16550.354, 0.0, 5.009919, 4.948884 
3.1328928e+2, 2.5057903e+2, -503631.8, -597393.6, -13180.852, 0.0059512146, 0.016670777, -501814.1, -17474.453, 0.0, 5.009256, 4.948857 
3.1327724e+2, 2.5552782e+2, -456236.38, -549449.4, -12883.122, 0.011751637, 0.011153347, -454488.56, -18646.96, 0.0, 5.008579, 4.9486313 
3.1326398e+2, 2.6047286e+2, -418462.84, -522905.5, -12419.59, 0.0008938643, 0.024555577, -417006.3, -29621.447, 0.0, 5.007881, 4.940502 
3.1325385e+2, 2.6542357e+2, -363761.22, -455979.44, -12983.354, 0.0023065766, 0.031888854, -361968.2, -23077.549, 0.0, 5.0063534, 4.9465275 
3.1324628e+2, 2.703753e+2, -316408.53, -406779.8, -14635.75, 0.02226665, 0.014321761, -314097.38, -23709.547, 0.0, 5.0046415, 4.94707 
3.132401e+2, 2.7532566e+2, -268789.94, -357999.7, -16725.861, 0.05146689, -0.032538522, -265757.13, -23858.48, 0.0, 5.00289, 4.9475656 
3.1322187e+2, 2.8028038e+2, -262735.97, -399558.97, -38998.875, 0.0884511, 0.15238327, -252400.75, -59039.926, 0.0, 5.003234, 4.916726 
3.1321374e+2, 2.8522265e+2, -190182.5, -282322.16, -8549.385, 0.09167956, 0.28491175, -189395.94, -44478.742, 0.0, 5.0045652, 4.938797 
3.132198e+2, 2.9015207e+2, -139949.56, -231024.19, -3130.0964, 0.08667, 0.18824583, -139842.11, -43246.19, 0.0, 5.0047917, 4.9388986 
3.1322747e+2, 2.9507908e+2, -89540.83, -179918.72, 1771.8903, 0.086171955, 0.05754811, -89506.1, -41207.895, 0.0, 5.0048995, 4.939004 
3.132354e+2, 3.0001357e+2, -36721.59, -89197.305, 2437.6697, 0.071376815, -0.115012504, -36608.594, -36608.594, 0.0, 5.0049047, 4.962312 
3.1325227e+2, 3.0499464e+2, -28961.014, -63275.508, 1903.5669, 0.085435845, -0.067147724, -28855.738, -28855.738, 0.0, 5.0043445, 4.969539 
3.1327674e+2, 3.0999845e+2, -25873.91, -49106.113, 3798.6233, 0.14549835, 0.10993482, -25268.582, -25268.582, 0.0, 5.0035524, 4.974265 
3.133057e+2, 3.15012e+2, -22254.982, -35480.81, 4988.6973, 0.2307991, 0.32823417, -20584.314, -20584.314, 0.0, 5.0026407, 4.9789977 
3.1851712e+2, 1.2143657e+2, -1697250.8, -1755452.4, -1965.6991, -0.030867614, -0.021969968, -1697184.5, 52725.2, 0.0, 5.0218835, 4.983963 
3.1852052e+2, 1.2642133e+2, -1650740.3, -1710174.5, -2435.6128, 0.014707731, -0.0029770406, -1650640.6, 50421.4, 0.0, 5.0216026, 4.982898 
3.185189e+2, 1.3140363e+2, -1602572.1, -1661601.1, -2532.5269, 0.011508467, -0.009810213, -1602463.6, 49771.13, 0.0, 5.0213404, 4.9828997 
3.1851736e+2, 1.363859e+2, -1556641.3, -1617553.0, -2630.7632, 0.008334483, -0.015413755, -1556527.8, 46880.09, 0.0, 5.0210595, 4.981408 
3.185144e+2, 1.4136577e+2, -1515154.8, -1582605.3, -5272.6436, 0.0057412703, -0.0031937563, -1514745.0, 39861.047, 0.0, 5.020758, 4.9768343 
3.185092e+2, 1.4634322e+2, -1466677.3, -1533340.4, -5839.5327, 0.0036960014, -0.0015843057, -1466169.5, 39661.49, 0.0, 5.0204678, 4.977053 
3.185039e+2, 1.5132059e+2, -1418515.3, -1484735.9, -6002.4204, 0.0015934034, -0.0009581044, -1417975.5, 39081.313, 0.0, 5.0201764, 4.9770536 
3.1849858e+2, 1.5629797e+2, -1371771.8, -1439090.8, -6167.404, -0.00050804607, 0.00012627142, -1371211.4, 37071.355, 0.0, 5.019883, 4.976064 
3.184924e+2, 1.6127199e+2, -1330026.4, -1403662.9, -8093.449, -0.0018418644, 0.0056849136, -1329147.4, 30392.398, 0.0, 5.0195313, 4.971676 
3.184846e+2, 1.6624396e+2, -1281502.5, -1353523.9, -8509.373, -0.0018418932, 0.00072742807, -1280510.8, 30301.986, 0.0, 5.019063, 4.9722476 
3.184768e+2, 1.7121598e+2, -1233814.9, -1305107.1, -8593.81, -0.0018359862, -0.00451029, -1232793.5, 29291.422, 0.0, 5.0185857, 4.972249 
3.18469e+2, 1.7618802e+2, -1187267.8, -1259090.9, -8683.482, -0.0018279783, -0.009316349, -1186232.9, 27124.277, 0.0, 5.0181026, 4.9714427 
3.184603e+2, 1.8115719e+2, -1147593.3, -1227518.8, -10455.481, -0.0015741454, -0.0013773862, -1146248.3, 18411.035, 0.0, 5.017581, 4.965777 
3.1844974e+2, 1.8612431e+2, -1099579.4, -1178014.0, -10974.95, -0.0026448574, 0.006144056, -1098072.6, 17912.578, 0.0, 5.017001, 4.966162 
3.1843913e+2, 1.9109148e+2, -1052105.3, -1129643.4, -11104.234, -0.004032775, 0.013136069, -1050546.3, 16765.021, 0.0, 5.016414, 4.966166 
3.184285e+2, 1.9605865e+2, -1005534.9, -1083190.4, -11233.708, -0.0054439306, 0.020295305, -1003942.44, 14694.953, 0.0, 5.015818, 4.9655194 
3.1841752e+2, 2.0102207e+2, -965605.7, -1051363.5, -11563.952, -0.008682934, 0.03083301, -964073.75, 5924.0156, 0.0, 5.015275, 4.9598536 
3.1840628e+2, 2.059817e+2, -916404.56, -1000095.5, -11408.259, -0.013004923, 0.018042319, -914877.3, 6511.9927, 0.0, 5.0148435, 4.960738 
3.183951e+2, 2.1094134e+2, -868419.4, -951416.44, -11277.211, -0.016975021, 0.0035327494, -866914.4, 5866.1206, 0.0, 5.0144033, 4.960746 
3.1838393e+2, 2.15901e+2, -821117.8, -904196.7, -11156.246, -0.020931244, -0.010845542, -819645.8, 4525.7324, 0.0, 5.013954, 4.9602537 
3.1837255e+2, 2.2085813e+2, -781822.4, -874247.6, -12097.227, -0.022676507, -0.008372775, -780265.25, -4675.5835, 0.0, 5.013456, 4.9538255 
3.1836045e+2, 2.2581369e+2, -733444.8, -823935.06, -12648.971, -0.01987896, -0.0009877688, -731709.94, -4679.623, 0.0, 5.0128365, 4.9544177 
3.1834823e+2, 2.3076926e+2, -685888.1, -775432.25, -12796.123, -0.017122705, 0.004965251, -684095.44, -5623.717, 0.0, 5.012199, 4.95442 
3.1833607e+2, 2.3572476e+2, -639002.0, -728386.4, -12930.752, -0.014389905, 0.010172333, -637168.94, -7255.2646, 0.0, 5.011548, 4.9539204 
3.1832424e+2, 2.4067757e+2, -600155.8, -698687.5, -13061.552, -0.009607632, 0.033949934, -598453.75, -17073.629, 0.0, 5.0108104, 4.9473763 
3.183115e+2, 2.4562672e+2, -550189.44, -645150.2, -13519.544, -0.0021869438, 0.034022734, -548302.1, -15426.823, 0.0, 5.0102377, 4.949014 
3.1829858e+2, 2.5057566e+2, -502315.7, -596538.8, -13065.56, 0.0044903434, 0.028316868, -500537.5, -16165.459, 0.0, 5.009664, 4.948988 
3.1828582e+2, 2.555249e+2, -454837.2, -548555.56, -12624.682, 0.01073294, 0.026098233, -453166.34, -17300.705, 0.0, 5.0090218, 4.948764 
3.1827122e+2, 2.6046827e+2, -420533.66, -529072.94, -11697.224, -0.006027102, 0.0327396, -419287.38, -31862.396, 0.0, 5.008154, 4.938136 
3.1825852e+2, 2.654158e+2, -369577.22, -463061.56, -10183.285, -0.027571851, 0.014468794, -368480.8, -29505.848, 0.0, 5.005107, 4.944328 
3.1824833e+2, 2.7036503e+2, -329414.53, -417740.03, -9411.39, -0.03246116, -0.024150135, -328422.88, -37910.88, 0.0, 5.000966, 4.9446006 
3.1823945e+2, 2.7531272e+2, -291153.5, -373701.13, -8772.01, -0.02940483, -0.089376636, -290231.63, -48167.35, 0.0, 4.996016, 4.9448237 
3.1821617e+2, 2.8027174e+2, -302531.66, -441379.94, -35273.17, -0.0058816075, 0.20766883, -294084.7, -100589.14, 0.0, 4.993749, 4.9061265 
3.1820834e+2, 2.8522012e+2, -201898.45, -279393.8, -2006.8519, 0.02070281, 0.40776363, -201846.52, -56863.7, 0.0, 4.9987545, 4.9417105 
3.1821784e+2, 2.9015067e+2, -142690.67, -224988.34, 1014.5181, 0.037712637, 0.2709528, -142678.17, -46039.367, 0.0, 5.002265, 4.9416184 
3.1822896e+2, 2.9507884e+2, -87504.37, -172617.4, 3964.8281, 0.05792435, 0.10370357, -87320.07, -39002.48, 0.0, 5.004166, 4.941527 
3.1823918e+2, 3.0000725e+2, -39005.773, -95264.65, 2250.013, 0.05282429, -0.15195358, -38915.93, -38914.79, 0.0, 5.004606, 4.9600697 
3.1825656e+2, 3.0498892e+2, -35456.855, -68078.266, -3028.38, 0.066232115, -0.12896173, -35178.098, -35178.098, 0.0, 5.001655, 4.968286 
3.1828183e+2, 3.1000036e+2, -47810.72, -61812.27, -8775.641, 0.1301133, 0.07553066, -43585.51, -43585.51, 0.0, 4.995351, 4.972464 
3.1831145e+2, 3.150198e+2, -67344.78, -59105.664, -18989.488, 0.21746866, 0.30833864, -43794.023, -43794.023, 0.0, 4.9861717, 4.976676 
3.2354063e+2, 1.2143466e+2, -1691746.9, -1753814.6, -1667.9087, -0.026003217, -0.025831526, -1691702.1, 58227.504, 0.0, 5.0239534, 4.9834805 
3.2354316e+2, 1.264205e+2, -1645120.6, -1707882.5, -2484.0608, 0.014469446, 0.0064319787, -1645022.5, 56049.223, 0.0, 5.0235868, 4.982678 
3.2354116e+2, 1.3140215e+2, -1597545.4, -1659625.5, -2725.584, 0.010835241, -0.0045968127, -1597425.9, 54824.9, 0.0, 5.0231338, 4.9826746 
3.235392e+2, 1.3638379e+2, -1552146.3, -1615858.4, -2962.766, 0.0073251575, -0.014326502, -1552008.9, 51421.277, 0.0, 5.0226803, 4.98118 
3.2353586e+2, 1.4136316e+2, -1510966.6, -1580862.8, -5651.7354, 0.0047690463, -0.0049010413, -1510512.6, 44120.06, 0.0, 5.022231, 4.976697 
3.235303e+2, 1.4634046e+2, -1462754.0, -1531667.1, -6081.233, 0.0027840752, -0.0038145399, -1462221.5, 43636.85, 0.0, 5.0218396, 4.9769454 
3.2352465e+2, 1.5131767e+2, -1414884.9, -1483215.9, -6121.028, 0.0007030968, -0.0036866567, -1414340.9, 42743.895, 0.0, 5.0214534, 4.9769444 
3.2351902e+2, 1.562949e+2, -1368425.5, -1437717.0, -6159.605, -0.0013675746, -0.0031088945, -1367882.3, 40429.066, 0.0, 5.021067, 4.975954 
3.2351243e+2, 1.612688e+2, -1327094.0, -1402633.5, -8141.374, -0.002574518, 0.0025681395, -1326226.5, 33342.508, 0.0, 5.020606, 4.9715066 
3.2350418e+2, 1.662408e+2, -1279090.5, -1352821.1, -8716.539, -0.0017800259, -0.00006736085, -1278074.0, 32768.39, 0.0, 5.0199795, 4.9720483 
3.234959e+2, 1.7121288e+2, -1231871.6, -1304638.9, -8938.36, -0.0008635717, -0.0028077166, -1230789.9, 31325.105, 0.0, 5.0193458, 4.9720473 
3.2348758e+2, 1.7618497e+2, -1185774.3, -1258847.0, -9159.825, 0.00010876224, -0.00509566, -1184643.6, 28743.838, 0.0, 5.0187116, 4.9712396 
3.2347837e+2, 1.8115401e+2, -1146292.3, -1227309.3, -10996.052, 0.000712053, 0.003768056, -1144826.4, 19864.615, 0.0, 5.0181084, 4.9656014 
3.2346717e+2, 1.8612064e+2, -1098108.3, -1177645.8, -11482.244, -0.0015132182, 0.007941267, -1096483.9, 19537.633, 0.0, 5.017575, 4.9660187 
3.2345587e+2, 1.9108732e+2, -1050471.9, -1129177.4, -11595.791, -0.0040042317, 0.011536112, -1048799.0, 18552.953, 0.0, 5.0170436, 4.9660287 
3.234446e+2, 1.9605401e+2, -1003715.1, -1082616.5, -11713.311, -0.0064065424, 0.015481784, -1002012.94, 16669.346, 0.0, 5.016512, 4.9653883 
3.2343304e+2, 2.0101722e+2, -963410.7, -1049971.4, -11988.048, -0.010116603, 0.023544634, -961781.06, 8263.532, 0.0, 5.0159636, 4.960004 
3.2342127e+2, 2.0597723e+2, -914997.2, -999089.06, -11869.43, -0.01402811, 0.01304844, -913353.94, 8077.5254, 0.0, 5.015261, 4.960887 
3.2340956e+2, 2.1093734e+2, -867836.56, -950812.94, -11763.101, -0.017502058, 0.0017226192, -866201.2, 6615.995, 0.0, 5.014539, 4.96089 
3.2339782e+2, 2.1589746e+2, -821326.9, -903979.5, -11657.406, -0.020893475, -0.009186631, -819714.1, 4488.4424, 0.0, 5.013816, 4.9603925 
3.2338586e+2, 2.2085488e+2, -782912.1, -875286.3, -12553.848, -0.02228915, -0.0037642245, -781236.44, -5618.621, 0.0, 5.0131707, 4.953601 
3.2337314e+2, 2.2580989e+2, -734219.9, -824856.3, -13147.269, -0.020353455, 0.00046794486, -732351.3, -5285.3745, 0.0, 5.0126724, 4.9541683 
3.2336038e+2, 2.307649e+2, -686238.25, -776069.9, -13423.85, -0.018382378, 0.0027277104, -684275.1, -5759.929, 0.0, 5.012177, 4.9541945 
3.2334763e+2, 2.3571986e+2, -638894.2, -728727.1, -13718.983, -0.01621285, 0.0046396023, -636845.8, -6881.2495, 0.0, 5.011678, 4.9537187 
3.233353e+2, 2.4067257e+2, -599167.6, -697750.3, -13797.222, -0.012257764, 0.028370293, -597273.06, -15840.059, 0.0, 5.0111136, 4.947525 
3.2332218e+2, 2.456226e+2, -547280.5, -642767.7, -14180.493, -0.0059723756, 0.03411253, -545219.06, -12302.892, 0.0, 5.011105, 4.9494033 
3.23309e+2, 2.505724e+2, -497400.13, -593266.1, -13776.799, 0.0008272884, 0.033539876, -495459.56, -11058.9375, 0.0, 5.0112185, 4.949372 
3.2329604e+2, 2.555225e+2, -447771.3, -544337.2, -13344.1045, 0.008457601, 0.03600715, -445961.28, -10078.754, 0.0, 5.011308, 4.9491415 
3.2328156e+2, 2.604656e+2, -411542.5, -525253.56, -12448.588, -0.003053348, 0.04083133, -410195.63, -22753.402, 0.0, 5.0113974, 4.937867 
3.2326862e+2, 2.6541293e+2, -355479.28, -454745.2, -13856.044, -0.012614733, 0.01690045, -353581.47, -14579.549, 0.0, 5.010103, 4.94465 
3.2325798e+2, 2.70364e+2, -308462.56, -404450.56, -16545.037, -0.0015937438, -0.0095434245, -305690.8, -15160.98, 0.0, 5.0084763, 4.9453588 
3.2324877e+2, 2.7531525e+2, -261378.94, -354391.25, -19609.771, 0.021827681, -0.04538014, -257413.67, -15357.931, 0.0, 5.006772, 4.946021 
3.2322544e+2, 2.8028032e+2, -252062.83, -431542.84, -40607.656, 0.047014438, 0.336154, -243302.83, -49869.367, 0.0, 5.0129395, 4.901116 
3.232162e+2, 2.8522688e+2, -150519.25, -264508.9, -4723.797, 0.03777216, 0.53044647, -150323.83, -5392.8267, 0.0, 5.0151887, 4.9409475 
3.23224e+2, 2.9015347e+2, -114771.914, -219255.95, -1128.124, 0.03604428, 0.34164757, -114759.734, -18144.244, 0.0, 5.010457, 4.9413342 
3.2323375e+2, 2.9507875e+2, -78881.484, -174011.64, 1967.4519, 0.04944417, 0.13143906, -78840.81, -30527.916, 0.0, 5.005482, 4.941724 
3.2324335e+2, 3.0000395e+2, -45832.188, -104969.5, 1365.3779, 0.052745666, -0.1651691, -45800.68, -45778.164, 0.0, 5.00098, 4.959567 
3.232611e+2, 3.049867e+2, -48083.117, -90104.33, -4456.6543, 0.10674239, -0.0941754, -47615.656, -47615.656, 0.0, 4.9976625, 4.9637566 
3.2328725e+2, 3.0999988e+2, -55605.31, -88531.086, -7688.939, 0.23494154, 0.20738228, -53898.26, -53898.26, 0.0, 4.9939947, 4.965432 
3.233185e+2, 3.1501922e+2, -62926.19, -87180.57, -11213.523, 0.40853548, 0.55750734, -58536.367, -58536.367, 0.0, 4.9900594, 4.9671073 
3.2856542e+2, 1.2143259e+2, -1692211.3, -1754752.3, -1417.1083, -0.017411446, -0.033235576, -1692179.1, 57773.195, 0.0, 5.0239515, 4.983175 
3.2856655e+2, 1.2642047e+2, -1645568.1, -1708807.6, -2829.0833, 0.01242279, 0.022547718, -1645441.9, 55632.508, 0.0, 5.0235877, 4.982375 
3.285641e+2, 1.3140103e+2, -1597987.5, -1660546.3, -3068.2146, 0.009034902, 0.0036696412, -1597837.4, 54426.78, 0.0, 5.023135, 4.982372 
3.285617e+2, 1.3638157e+2, -1552581.1, -1616771.3, -3302.133, 0.0057313144, -0.013931061, -1552411.8, 51042.324, 0.0, 5.022682, 4.980879 
3.2855794e+2, 1.4136021e+2, -1511129.4, -1581208.4, -5975.1895, 0.003541167, -0.009574573, -1510623.5, 44039.9, 0.0, 5.0222325, 4.9765825 
3.2855204e+2, 1.463375e+2, -1462814.1, -1531803.6, -6374.8545, 0.0018543901, -0.008101864, -1462230.0, 43657.867, 0.0, 5.0218415, 4.9768996 
3.2854605e+2, 1.513147e+2, -1414941.4, -1483350.1, -6412.7817, 0.000022765244, -0.007482056, -1414345.4, 42767.504, 0.0, 5.0214562, 4.9768987 
3.2854006e+2, 1.5629193e+2, -1368477.4, -1437846.9, -6449.0947, -0.0018119103, -0.006432595, -1367883.0, 40455.094, 0.0, 5.0210705, 4.975909 
3.2853302e+2, 1.6126582e+2, -1327358.5, -1403212.8, -8589.933, -0.0028576877, -0.000018071416, -1326397.9, 33197.43, 0.0, 5.0206094, 4.971314 
3.2852417e+2, 1.6623785e+2, -1279460.3, -1353624.4, -9199.295, -0.0015363152, 0.00012710804, -1278336.3, 32533.527, 0.0, 5.019983, 4.9717813 
3.285153e+2, 1.7120993e+2, -1232236.6, -1305434.0, -9418.391, -0.00006099659, 0.00036409474, -1231044.1, 31099.27, 0.0, 5.019349, 4.9717817 
3.2850644e+2, 1.7618203e+2, -1186134.3, -1259634.3, -9637.037, 0.0014409196, 0.0010331392, -1184891.8, 28525.22, 0.0, 5.018716, 4.970976 
3.284966e+2, 1.8115091e+2, -1146519.6, -1227807.5, -11422.639, 0.0020797735, 0.010563268, -1144945.0, 19777.893, 0.0, 5.0181103, 4.965435 
3.284848e+2, 1.8611695e+2, -1098275.6, -1178035.9, -11878.107, -0.00087982934, 0.010010244, -1096544.4, 19514.219, 0.0, 5.0175786, 4.9658875 
3.2847294e+2, 1.9108298e+2, -1050628.3, -1129566.6, -11985.53, -0.004122181, 0.008614652, -1048848.6, 18545.72, 0.0, 5.0170507, 4.9658966 
3.2846105e+2, 1.9604902e+2, -1003860.56, -1083004.8, -12096.871, -0.007308276, 0.007507179, -1002052.94, 16677.033, 0.0, 5.0165224, 4.9652553 
3.2844895e+2, 2.010119e+2, -963168.06, -1049482.9, -12478.361, -0.011116432, 0.012266747, -961400.3, 8694.331, 0.0, 5.0159683, 4.9601707 
3.2843652e+2, 2.0597252e+2, -914782.06, -998643.6, -12429.095, -0.014211066, 0.00614833, -912978.7, 8496.48, 0.0, 5.0152636, 4.9610415 
3.2842413e+2, 2.1093327e+2, -867618.9, -950365.94, -12315.531, -0.016947543, -0.00011874674, -865824.8, 7029.321, 0.0, 5.014542, 4.961045 
3.284118e+2, 2.1589404e+2, -821106.6, -903530.9, -12202.547, -0.0196264, -0.00604161, -819338.06, 4894.768, 0.0, 5.01382, 4.9605484 
3.2839918e+2, 2.2085176e+2, -783212.6, -875974.75, -12960.498, -0.020827342, 0.0027426444, -781435.9, -5790.9395, 0.0, 5.0131745, 4.953364 
3.283859e+2, 2.258061e+2, -734570.0, -825742.5, -13458.128, -0.019956762, 0.0028712319, -732624.9, -5523.415, 0.0, 5.012686, 4.953859 
3.2837257e+2, 2.307603e+2, -686552.75, -776972.8, -13713.533, -0.019209797, 0.000020967298, -684518.6, -5958.3447, 0.0, 5.0122027, 4.9538755 
3.2835925e+2, 2.3571447e+2, -639173.25, -729647.06, -13987.463, -0.01838309, -0.003306823, -637060.1, -7040.7515, 0.0, 5.0117173, 4.95339 
3.2834628e+2, 2.406667e+2, -598750.9, -697608.7, -13922.201, -0.017118387, 0.017842364, -596827.6, -15334.636, 0.0, 5.011206, 4.947571 
3.2833263e+2, 2.4561761e+2, -546437.2, -641876.6, -14109.589, -0.016154416, 0.030123422, -544395.0, -11430.727, 0.0, 5.0112176, 4.949716 
3.28319e+2, 2.5056836e+2, -496569.84, -592314.4, -13673.876, -0.014966053, 0.03631731, -494655.25, -10219.747, 0.0, 5.0113235, 4.949705 
3.2830557e+2, 2.555194e+2, -446954.2, -543324.94, -13209.183, -0.013272232, 0.045079894, -445176.44, -9271.984, 0.0, 5.011406, 4.949496 
3.282911e+2, 2.6046258e+2, -412143.1, -528024.4, -12051.672, -0.027273105, 0.051079035, -410902.97, -23441.932, 0.0, 5.0115533, 4.9368978 
3.2827827e+2, 2.654068e+2, -356759.63, -461061.7, -13190.945, -0.037249535, 0.014785204, -355117.25, -16061.65, 0.0, 5.010498, 4.9424105 
3.2826746e+2, 2.7035397e+2, -309218.75, -411412.8, -15497.779, -0.032172505, -0.026523056, -306920.2, -16293.664, 0.0, 5.009106, 4.942852 
3.2825786e+2, 2.7530083e+2, -261609.63, -361999.56, -18180.982, -0.019246988, -0.07890349, -258418.42, -16218.449, 0.0, 5.0076365, 4.943247 
3.2823583e+2, 2.8026235e+2, -253334.13, -432997.56, -35378.016, -0.02928794, 0.292596, -246618.75, -53002.86, 0.0, 5.01272, 4.9004917 
3.282257e+2, 2.852116e+2, -149908.61, -256549.55, -8116.964, -0.032194976, 0.48871323, -149294.33, -4214.934, 0.0, 5.0140905, 4.94386 
3.2823065e+2, 2.9014176e+2, -114110.97, -212551.89, -3933.5295, -0.0068384116, 0.3017903, -113954.04, -17233.871, 0.0, 5.0094643, 4.943889 
3.282373e+2, 2.950706e+2, -78167.016, -168558.89, -248.17911, 0.025691504, 0.09714411, -78166.336, -29792.2, 0.0, 5.004595, 4.9439216 
3.2824448e+2, 3.0000067e+2, -45730.016, -103113.445, 382.89612, 0.044881675, -0.17701347, -45727.46, -45696.887, 0.0, 5.000299, 4.9605813 
3.2826078e+2, 3.0498555e+2, -50227.027, -97086.68, -4001.606, 0.10688177, -0.07001715, -49887.766, -49887.766, 0.0, 4.997494, 4.9614267 
3.282845e+2, 3.0999756e+2, -55858.035, -94200.47, -6143.6406, 0.22342962, 0.24242187, -54897.688, -54897.688, 0.0, 4.99433, 4.963267 
3.2831275e+2, 3.1501466e+2, -61279.85, -91537.4, -8574.262, 0.36938745, 0.587312, -59019.035, -59019.035, 0.0, 4.9908996, 4.965107 
3.3359024e+2, 1.2143046e+2, -1692583.3, -1755499.6, -1154.8751, -0.009019859, -0.040955972, -1692562.0, 57413.453, 0.0, 5.023949, 4.9829307 
3.3358994e+2, 1.2642044e+2, -1646016.5, -1709732.1, -3173.7114, 0.010442925, 0.03874422, -1645858.8, 55218.21, 0.0, 5.0235887, 4.982072 
3.335871e+2, 1.313999e+2, -1598430.4, -1661466.6, -3410.4504, 0.007301958, 0.011992428, -1598246.4, 54031.02, 0.0, 5.0231366, 4.982069 
3.3358422e+2, 1.3637936e+2, -1553016.8, -1617683.6, -3641.1042, 0.0042054784, -0.0135037005, -1552812.4, 50665.56, 0.0, 5.0226846, 4.9805775 
3.3358008e+2, 1.4135726e+2, -1511303.8, -1581577.5, -6300.717, 0.0023400346, -0.014194666, -1510743.3, 43950.88, 0.0, 5.0222335, 4.97646 
3.335738e+2, 1.4633451e+2, -1462874.6, -1531940.0, -6668.4004, 0.00093194685, -0.01236316, -1462236.8, 43680.758, 0.0, 5.0218434, 4.976853 
3.3356744e+2, 1.5131176e+2, -1414998.3, -1483484.3, -6704.46, -0.0006629898, -0.011296402, -1414348.1, 42792.99, 0.0, 5.0214586, 4.976852 
3.335611e+2, 1.5628897e+2, -1368529.6, -1437976.6, -6738.5073, -0.0022743277, -0.009820196, -1367881.9, 40482.953, 0.0, 5.021074, 4.9758635 
3.335536e+2, 1.6126287e+2, -1327639.5, -1403826.6, -9041.933, -0.0030821343, -0.0025159107, -1326581.1, 33040.402, 0.0, 5.020613, 4.97111 
3.335442e+2, 1.6623488e+2, -1279830.5, -1354427.6, -9683.284, -0.0012361914, 0.00042413926, -1278594.1, 32303.012, 0.0, 5.0199866, 4.9715137 
3.3353472e+2, 1.71207e+2, -1232601.9, -1306229.3, -9899.652, 0.00076411304, 0.0035860722, -1231294.0, 30877.752, 0.0, 5.019353, 4.971516 
3.3352527e+2, 1.7617911e+2, -1186494.8, -1260421.6, -10115.48, 0.002761752, 0.007159734, -1185135.6, 28310.836, 0.0, 5.0187197, 4.970711 
3.3351487e+2, 1.8114781e+2, -1146765.3, -1228344.0, -11853.565, 0.0034552857, 0.017469794, -1145077.8, 19676.92, 0.0, 5.0181127, 4.9652553 
3.3350247e+2, 1.8611324e+2, -1098444.0, -1178425.9, -12271.103, -0.00021308877, 0.012125676, -1096603.6, 19491.842, 0.0, 5.017583, 4.9657555 
3.3348998e+2, 1.9107863e+2, -1050785.6, -1129955.4, -12372.402, -0.00420379, 0.0055928705, -1048897.1, 18539.46, 0.0, 5.017058, 4.965763 
3.3347753e+2, 1.9604404e+2, -1004007.0, -1083392.8, -12477.564, -0.008170681, -0.0007144379, -1002092.0, 16685.62, 0.0, 5.016533, 4.965121 
3.3346483e+2, 2.010066e+2, -962996.94, -1049148.3, -12980.31, -0.012104074, 0.001327729, -961083.7, 9060.671, 0.0, 5.015973, 4.960285 
3.3345178e+2, 2.0596783e+2, -914567.56, -998198.2, -12988.8545, -0.014368015, -0.0002955166, -912596.7, 8921.912, 0.0, 5.0152664, 4.961195 
3.3343875e+2, 2.1092923e+2, -867401.8, -949918.94, -12868.057, -0.016349364, -0.0017070173, -865441.7, 7449.116, 0.0, 5.014546, 4.961199 
3.3342573e+2, 2.1589065e+2, -820887.0, -903082.25, -12747.782, -0.018298017, -0.0028465511, -818955.3, 5307.4956, 0.0, 5.013825, 4.9607024 
3.3341247e+2, 2.2084866e+2, -783587.6, -876820.06, -13368.187, -0.019433765, 0.009407826, -781708.7, -6036.694, 0.0, 5.013178, 4.953071 
3.3339864e+2, 2.2580229e+2, -734925.06, -826625.2, -13751.768, -0.019598152, 0.005162528, -732907.2, -5770.052, 0.0, 5.0126996, 4.953545 
3.3338478e+2, 2.3075566e+2, -686872.25, -777872.2, -13985.997, -0.019981727, -0.0032767209, -684771.2, -6165.512, 0.0, 5.012229, 4.9535522 
3.3337095e+2, 2.35709e+2, -639457.25, -730563.44, -14238.722, -0.02040432, -0.012322946, -637283.8, -7209.096, 0.0, 5.011756, 4.9530573 
3.333574e+2, 2.4066092e+2, -598511.6, -697795.75, -14008.704, -0.02154811, 0.0081260875, -596572.9, -15020.7, 0.0, 5.011298, 4.9474955 
3.3334327e+2, 2.4561276e+2, -545630.3, -640949.9, -14069.256, -0.02597321, 0.027804108, -543597.06, -10586.169, 0.0, 5.01133, 4.950027 
3.333291e+2, 2.5056446e+2, -495775.88, -591326.94, -13601.505, -0.030637112, 0.040264804, -493877.44, -9408.226, 0.0, 5.011429, 4.950037 
3.3331516e+2, 2.5551638e+2, -446173.38, -542277.1, -13104.79, -0.035120614, 0.05482306, -444418.44, -8492.977, 0.0, 5.0115037, 4.949848 
3.3330056e+2, 2.6045933e+2, -413267.4, -531718.44, -11437.049, -0.053327788, 0.06025794, -412173.22, -24690.596, 0.0, 5.0117087, 4.935557 
3.3328834e+2, 2.6540002e+2, -358167.56, -467269.4, -12132.916, -0.061886046, 0.0062078517, -356834.6, -17719.16, 0.0, 5.0108914, 4.9400973 
3.3327785e+2, 2.7034312e+2, -310101.3, -418267.03, -14057.225, -0.059511796, -0.055338405, -308304.3, -17573.379, 0.0, 5.009735, 4.9402714 
3.3326846e+2, 2.752855e+2, -261965.56, -369500.63, -16358.449, -0.05384045, -0.1296366, -259532.16, -17178.678, 0.0, 5.0085006, 4.9403987 
3.332459e+2, 2.8024468e+2, -257200.9, -440379.63, -31312.863, -0.1099494, 0.25320598, -251996.11, -58200.875, 0.0, 5.0125175, 4.897798 
3.3323342e+2, 2.8519768e+2, -149676.28, -248225.95, -10869.591, -0.11298654, 0.46767858, -148491.66, -3276.9917, 0.0, 5.0129943, 4.9467177 
3.3323577e+2, 2.9013118e+2, -113829.93, -205478.9, -6097.883, -0.055530332, 0.27721864, -113425.984, -16612.527, 0.0, 5.008473, 4.9463887 
3.3323961e+2, 2.9506335e+2, -77833.99, -162732.94, -1822.0685, 0.0011363655, 0.07273012, -77794.91, -29369.178, 0.0, 5.0037084, 4.946064 
3.3324423e+2, 2.9999673e+2, -47832.293, -105115.3, -389.15054, 0.03485686, -0.19013828, -47829.65, -47784.7, 0.0, 4.99962, 4.960032 
3.332589e+2, 3.0498198e+2, -52788.68, -103658.45, -3725.3777, 0.09345015, -0.06561694, -52517.305, -52517.305, 0.0, 4.997329, 4.958958 
3.332804e+2, 3.099922e+2, -56530.78, -99454.16, -4777.8164, 0.18941726, 0.24186128, -56005.395, -56005.395, 0.0, 4.994668, 4.9609632 
3.3330587e+2, 3.1500638e+2, -60057.375, -95474.15, -6116.123, 0.2988288, 0.56568795, -59030.93, -59030.93, 0.0, 4.991741, 4.9629674 
3.38615e+2, 1.2142836e+2, -1692614.3, -1755905.9, -641.95966, -0.0011876937, -0.048614383, -1692607.8, 57390.64, 0.0, 5.024024, 4.982761 
3.3861336e+2, 1.264204e+2, -1646199.6, -1710534.5, -3274.7253, 0.008712748, 0.05445463, -1646033.4, 55046.332, 0.0, 5.0236797, 4.9817643 
3.3861008e+2, 1.3139878e+2, -1598479.1, -1662200.0, -3530.047, 0.0057452903, 0.020074308, -1598284.1, 54006.426, 0.0, 5.0232716, 4.981762 
3.3860677e+2, 1.3637717e+2, -1552934.6, -1618347.1, -3776.233, 0.0027831115, -0.013071863, -1552717.4, 50784.242, 0.0, 5.022861, 4.980273 
3.3860222e+2, 1.4135434e+2, -1510902.4, -1581691.3, -6448.8623, 0.0011558076, -0.01862065, -1510319.6, 44404.836, 0.0, 5.0224338, 4.976325 
3.3859554e+2, 1.4633158e+2, -1462435.6, -1531843.5, -6822.6533, 0.000051420404, -0.0164564, -1461771.4, 44175.375, 0.0, 5.022016, 4.976801 
3.3858886e+2, 1.5130882e+2, -1414653.9, -1483432.3, -6896.4023, -0.0012573618, -0.014969132, -1413969.1, 43199.88, 0.0, 5.0216, 4.9768004 
3.3858216e+2, 1.5628605e+2, -1368281.8, -1437967.8, -6967.46, -0.0025837335, -0.013073483, -1367591.9, 40799.52, 0.0, 5.0211825, 4.9758134 
3.3857426e+2, 1.6125992e+2, -1327705.1, -1404361.0, -9458.461, -0.003048807, -0.0047340426, -1326555.4, 33092.254, 0.0, 5.020696, 4.970894 
3.3856425e+2, 1.6623195e+2, -1280025.0, -1355146.3, -10123.193, -0.0007560369, 0.00090049603, -1278684.6, 32239.592, 0.0, 5.020051, 4.9712453 
3.385542e+2, 1.7120406e+2, -1232874.4, -1306982.1, -10335.79, 0.0016903483, 0.0068414058, -1231459.9, 30740.314, 0.0, 5.01939, 4.971248 
3.3854413e+2, 1.7617618e+2, -1186870.5, -1261220.0, -10554.37, 0.004138452, 0.013197704, -1185401.3, 28074.729, 0.0, 5.0187206, 4.970444 
3.385331e+2, 1.8114473e+2, -1147092.6, -1228925.0, -12228.388, 0.004892323, 0.02432643, -1145304.4, 19482.086, 0.0, 5.018089, 4.9650707 
3.385201e+2, 1.8610954e+2, -1098655.0, -1178806.0, -12542.808, 0.0004915096, 0.0141062, -1096738.0, 19394.424, 0.0, 5.0175686, 4.965633 
3.3850706e+2, 1.9107431e+2, -1050993.9, -1130337.5, -12585.063, -0.004256715, 0.0023482516, -1049045.5, 18433.203, 0.0, 5.0170445, 4.965639 
3.3849403e+2, 1.9603908e+2, -1004239.0, -1083788.1, -12636.621, -0.008977603, -0.009178931, -1002279.9, 16545.074, 0.0, 5.0165114, 4.9649954 
3.3848074e+2, 2.0100139e+2, -963042.06, -1049032.9, -13247.641, -0.01302513, -0.009169606, -961047.44, 9146.044, 0.0, 5.015931, 4.9603443 
3.3846706e+2, 2.0596321e+2, -914549.6, -997869.0, -13372.031, -0.01442601, -0.006185243, -912456.1, 9105.203, 0.0, 5.0152082, 4.961334 
3.384534e+2, 2.1092524e+2, -867438.06, -949620.56, -13332.523, -0.015597071, -0.0029256926, -865329.2, 7597.87, 0.0, 5.0144687, 4.961337 
3.3843973e+2, 2.1588725e+2, -820992.94, -902820.1, -13303.72, -0.016742194, 0.00055341236, -818884.3, 5408.4004, 0.0, 5.013724, 4.96084 
3.384258e+2, 2.2084557e+2, -784346.44, -877926.75, -13812.005, -0.017892156, 0.016295532, -782350.44, -6651.2373, 0.0, 5.013065, 4.9527407 
3.3841142e+2, 2.2579846e+2, -735586.5, -827564.2, -13911.3955, -0.019037817, 0.0071989866, -733528.5, -6355.5137, 0.0, 5.0125957, 4.953259 
3.3839706e+2, 2.3075104e+2, -687563.94, -778828.75, -13932.793, -0.020379303, -0.0074024266, -685484.3, -6833.208, 0.0, 5.012115, 4.9532638 
3.3838272e+2, 2.3570356e+2, -640235.5, -731562.06, -13938.898, -0.021824274, -0.022654407, -638155.4, -8025.707, 0.0, 5.0116124, 4.9527664 
3.3836865e+2, 2.4065529e+2, -599183.8, -698481.4, -13250.75, -0.024897462, -0.001211059, -597445.94, -15836.453, 0.0, 5.0111375, 4.947337 
3.3835405e+2, 2.4560815e+2, -545810.9, -640348.1, -13210.887, -0.034466505, 0.026724193, -543999.5, -10944.442, 0.0, 5.011136, 4.9503326 
3.3833945e+2, 2.5056082e+2, -496192.47, -590821.2, -12800.444, -0.04485419, 0.04539419, -494491.53, -9991.098, 0.0, 5.011158, 4.950347 
3.38325e+2, 2.5551367e+2, -446918.78, -541905.06, -12443.856, -0.055341084, 0.06600754, -445315.63, -9371.787, 0.0, 5.011126, 4.9501634 
3.383102e+2, 2.6045603e+2, -416883.38, -536637.56, -9853.105, -0.07872372, 0.06972106, -416078.1, -28573.908, 0.0, 5.011119, 4.9340754 
3.3829892e+2, 2.653932e+2, -364457.88, -474080.88, -8019.635, -0.08203554, -0.008782374, -363874.28, -24698.365, 0.0, 5.0094876, 4.938222 
3.382894e+2, 2.7033257e+2, -320274.22, -427081.5, -6488.627, -0.07609819, -0.09695384, -319881.47, -29048.873, 0.0, 5.006995, 4.9382915 
3.382808e+2, 2.75271e+2, -277353.4, -380880.97, -4299.977, -0.07045408, -0.1989723, -277175.13, -34676.66, 0.0, 5.0039535, 4.9383106 
3.3825615e+2, 2.802297e+2, -282438.72, -461868.53, -13147.749, -0.17971428, 0.21451639, -281480.44, -87532.08, 0.0, 5.005817, 4.8931594 
3.382398e+2, 2.8518683e+2, -160595.25, -246779.47, -1745.5997, -0.19392464, 0.46610385, -160559.9, -15240.548, 0.0, 5.0084286, 4.948711 
3.382398e+2, 2.901229e+2, -118015.39, -201484.78, -1280.226, -0.10379062, 0.26857457, -117995.76, -21111.213, 0.0, 5.0063252, 4.9482737 
3.382411e+2, 2.950575e+2, -77902.48, -157367.58, 104.58832, -0.020698678, 0.05726813, -77902.336, -29438.164, 0.0, 5.0030627, 4.947832 
3.3824298e+2, 2.9999194e+2, -50781.336, -109483.6, 327.0151, 0.025583921, -0.20984682, -50779.516, -50711.367, 0.0, 4.999467, 4.9582386 
3.3825588e+2, 3.04976e+2, -59717.887, -110012.85, -863.3652, 0.07297337, -0.08681765, -59703.07, -59703.07, 0.0, 4.995784, 4.9569097 
3.3827552e+2, 3.09985e+2, -72149.414, -108970.734, 726.1855, 0.14644632, 0.20940742, -72135.09, -72135.09, 0.0, 4.9899373, 4.9591007 
3.382986e+2, 3.149978e+2, -89102.73, -110181.914, 1572.3097, 0.22068119, 0.5162255, -88986.09, -88986.09, 0.0, 4.9821563, 4.961285 
3.4363973e+2, 1.2142829e+2, -1686978.3, -1752769.5, 251.17897, -0.003366459, -0.046778545, -1686977.4, 63022.71, 0.0, 5.0258203, 4.9829082 
3.4363827e+2, 1.2641981e+2, -1641378.8, -1709072.0, -2561.9, 0.011499434, 0.05450646, -1641281.9, 59803.688, 0.0, 5.0254803, 4.9813643 
3.4363446e+2, 1.3139781e+2, -1593461.0, -1660642.0, -2905.2805, 0.0069333166, 0.020125244, -1593335.6, 58964.72, 0.0, 5.0251417, 4.981364 
3.4363064e+2, 1.3637581e+2, -1547712.0, -1616685.9, -3239.775, 0.0023500219, -0.013029886, -1547560.1, 55955.28, 0.0, 5.024802, 4.979878 
3.4362558e+2, 1.4135262e+2, -1505483.4, -1579666.4, -6122.311, -0.00012429006, -0.018571183, -1504981.5, 49760.305, 0.0, 5.024384, 4.97605 
3.4361854e+2, 1.4632967e+2, -1457526.4, -1529967.0, -6690.769, 0.00010833787, -0.016102701, -1456913.6, 49052.22, 0.0, 5.0237784, 4.976573 
3.4361145e+2, 1.5130672e+2, -1410349.6, -1481850.1, -6942.316, 0.00029582516, -0.014227772, -1409681.8, 47507.96, 0.0, 5.023163, 4.976575 
3.4360436e+2, 1.5628377e+2, -1364573.4, -1436671.1, -7190.1963, 0.00050348486, -0.011881788, -1363863.4, 44550.395, 0.0, 5.0225477, 4.9755907 
3.4359595e+2, 1.6125745e+2, -1324481.3, -1403274.4, -9908.437, 0.0007287001, -0.0034508072, -1323254.3, 36417.45, 0.0, 5.021891, 4.970687 
3.4358507e+2, 1.6622919e+2, -1277218.9, -1354307.9, -10563.575, 0.0017295665, 0.0016719812, -1275797.6, 35153.65, 0.0, 5.021115, 4.9710217 
3.435742e+2, 1.7120104e+2, -1230441.4, -1306333.5, -10722.194, 0.0029128743, 0.0071803574, -1228955.5, 33274.406, 0.0, 5.02033, 4.9710226 
3.435633e+2, 1.7617288e+2, -1184782.0, -1260746.6, -10882.404, 0.0042054714, 0.01317496, -1183253.8, 30254.84, 0.0, 5.019545, 4.9702168 
3.4355146e+2, 1.8114115e+2, -1145004.5, -1227960.4, -12379.866, 0.003952243, 0.023224719, -1143196.4, 21625.002, 0.0, 5.01881, 4.9650555 
3.4353784e+2, 1.8610585e+2, -1096983.8, -1177922.0, -12591.555, -0.0004874582, 0.011401364, -1095070.1, 21097.414, 0.0, 5.0181255, 4.965669 
3.4352422e+2, 1.9107053e+2, -1049813.8, -1129685.5, -12546.43, -0.005037711, -0.0016298543, -1047889.3, 19624.463, 0.0, 5.0174365, 4.9656763 
3.435106e+2, 1.9603522e+2, -1003521.1, -1083353.1, -12504.344, -0.009452775, -0.01420987, -1001608.4, 17251.322, 0.0, 5.0167465, 4.9650326 
3.4349674e+2, 2.0099756e+2, -962891.2, -1049068.3, -13195.356, -0.01272342, -0.01406379, -960916.0, 9311.448, 0.0, 5.016009, 4.960296 
3.434824e+2, 2.0595953e+2, -915032.44, -998416.25, -13607.817, -0.012631173, -0.00823074, -912867.9, 8727.152, 0.0, 5.0151076, 4.9611955 
3.43468e+2, 2.109217e+2, -868421.3, -950415.06, -13818.817, -0.012264907, -0.0019035867, -866155.0, 6805.599, 0.0, 5.0141945, 4.961194 
3.4345368e+2, 2.1588388e+2, -822457.1, -903853.6, -14027.309, -0.011821985, 0.004721372, -820107.6, 4218.374, 0.0, 5.0132813, 4.9606924 
3.4343904e+2, 2.2084215e+2, -785684.7, -878230.5, -14302.47, -0.0126738865, 0.020445077, -783524.75, -7791.342, 0.0, 5.012519, 4.952892 
3.4342405e+2, 2.2579476e+2, -736984.94, -827604.1, -14027.342, -0.0153927095, 0.0064849257, -734863.25, -7655.2656, 0.0, 5.011983, 4.953526 
3.4340906e+2, 2.3074715e+2, -689120.9, -778820.1, -13797.4375, -0.01800779, -0.01249348, -687046.5, -8360.576, 0.0, 5.0114403, 4.953566 
3.4339413e+2, 2.3569952e+2, -641891.44, -731482.9, -13583.506, -0.020530429, -0.0318849, -639877.2, -9713.329, 0.0, 5.010895, 4.953104 
3.433796e+2, 2.4065115e+2, -601072.1, -698235.75, -12352.652, -0.024480144, -0.015556351, -599526.3, -17882.709, 0.0, 5.01035, 4.94771 
3.4336492e+2, 2.4560444e+2, -547964.1, -640797.5, -12384.825, -0.034648046, 0.014871769, -546340.3, -13254.494, 0.0, 5.010393, 4.950435 
3.4335026e+2, 2.505578e+2, -498075.34, -591371.0, -12262.316, -0.045508463, 0.03983647, -496490.56, -11964.966, 0.0, 5.010546, 4.950381 
3.433357e+2, 2.5551146e+2, -448434.44, -542518.3, -12117.964, -0.05636829, 0.06853039, -446898.72, -10936.459, 0.0, 5.0106864, 4.950128 
3.4332126e+2, 2.604553e+2, -415660.8, -532610.7, -8981.816, -0.07743444, 0.079903156, -414975.03, -27466.893, 0.0, 5.0110583, 4.9355454 
3.433106e+2, 2.6539287e+2, -359011.22, -467149.22, -9667.602, -0.07326505, -0.0009262745, -358153.72, -18982.643, 0.0, 5.0110555, 4.939975 
3.4330162e+2, 2.7033305e+2, -307818.56, -414523.2, -12253.13, -0.057510696, -0.09491124, -306429.6, -15614.513, 0.0, 5.0108542, 4.9409113 
3.4329364e+2, 2.7527323e+2, -256476.67, -362278.3, -15251.509, -0.039126594, -0.20440903, -254322.02, -11863.39, 0.0, 5.010606, 4.941802 
3.432697e+2, 2.8023025e+2, -247195.94, -433427.2, -19123.02, -0.15945813, 0.13152723, -245252.6, -51331.773, 0.0, 5.0161047, 4.8994584 
3.4325117e+2, 2.8518465e+2, -142379.2, -249804.86, -5505.7773, -0.20020631, 0.3785585, -142097.77, 3224.566, 0.0, 5.0170865, 4.945449 
3.4324813e+2, 2.901204e+2, -105451.26, -202787.95, -4823.303, -0.11633799, 0.23082432, -105212.836, -8317.797, 0.0, 5.0124955, 4.9460626 
3.4324637e+2, 2.9505396e+2, -68243.59, -155920.64, -4840.181, -0.034602687, 0.04789616, -67977.2, -19488.063, 0.0, 5.0077753, 4.946677 
3.432455e+2, 2.9998967e+2, -37920.863, -96227.125, -6597.007, 0.015327609, -0.19943243, -37183.77, -37099.324, 0.0, 5.0037694, 4.9610014 
3.432569e+2, 3.049722e+2, -42820.11, -98057.445, -13801.087, 0.07592521, -0.08216647, -39563.855, -39563.855, 0.0, 5.0027976, 4.9583683 
3.43275e+2, 3.0998164e+2, -41982.27, -89162.68, -17766.328, 0.17176902, 0.24416326, -36040.453, -36040.453, 0.0, 5.001977, 4.9615054 
3.4329656e+2, 3.1500086e+2, -40666.92, -80750.12, -21262.742, 0.27675474, 0.6382453, -31489.18, -31489.18, 0.0, 5.0009937, 4.9646497 
3.4866488e+2, 1.2142915e+2, -1686525.9, -1751839.1, -81.67706, -0.010263154, -0.04099473, -1686525.8, 63466.336, 0.0, 5.0258193, 4.983213 
3.4866422e+2, 1.2641902e+2, -1642029.3, -1710419.6, -2820.4119, 0.016115164, 0.04746556, -1641913.1, 59179.285, 0.0, 5.025483, 4.98092 
3.4865984e+2, 1.3139695e+2, -1594105.8, -1661985.6, -3161.339, 0.009251926, 0.016564984, -1593958.9, 58349.504, 0.0, 5.025145, 4.980919 
3.4865546e+2, 1.3637483e+2, -1548348.8, -1618021.3, -3492.4377, 0.0023182787, -0.013126722, -1548174.1, 55350.473, 0.0, 5.024806, 4.9794345 
3.4864983e+2, 1.4135149e+2, -1505974.4, -1580708.5, -6542.6323, -0.0014413045, -0.016404806, -1505405.9, 49347.043, 0.0, 5.024388, 4.975705 
3.4864238e+2, 1.4632823e+2, -1457972.4, -1530920.9, -7156.1733, 0.00056076446, -0.013640665, -1457277.0, 48703.082, 0.0, 5.0237823, 4.9762564 
3.4863487e+2, 1.5130499e+2, -1410791.3, -1482798.9, -7406.66, 0.0026763822, -0.011504252, -1410037.3, 47169.98, 0.0, 5.023167, 4.976259 
3.486274e+2, 1.5628174e+2, -1365009.4, -1437612.3, -7652.916, 0.004797036, -0.008912779, -1364211.5, 44222.957, 0.0, 5.022552, 4.9752765 
3.4861836e+2, 1.6125509e+2, -1324772.8, -1403897.6, -10478.792, 0.005798048, -0.00096216914, -1323408.5, 36287.227, 0.0, 5.0218925, 4.970481 
3.486065e+2, 1.6622646e+2, -1277487.3, -1354889.0, -11163.432, 0.0048309644, 0.002209912, -1275909.3, 35069.395, 0.0, 5.0211167, 4.970829 
3.485946e+2, 1.7119789e+2, -1230700.1, -1306907.5, -11318.41, 0.0038815525, 0.005685071, -1229054.6, 33206.363, 0.0, 5.0203342, 4.9708304 
3.485827e+2, 1.7616932e+2, -1185031.3, -1261313.3, -11474.85, 0.0029884218, 0.009590499, -1183342.5, 30200.668, 0.0, 5.019551, 4.970026 
3.4857e+2, 1.8113732e+2, -1144936.1, -1227846.4, -12898.995, 0.0011074434, 0.01779154, -1142975.6, 21882.531, 0.0, 5.018814, 4.9650946 
3.4855577e+2, 1.8610217e+2, -1096856.4, -1177703.6, -13104.85, -0.0025984726, 0.0067124506, -1094785.3, 21416.648, 0.0, 5.0181327, 4.9657435 
3.4854153e+2, 1.91067e+2, -1049672.3, -1129461.5, -13053.418, -0.0062686745, -0.0053420155, -1047591.06, 19954.299, 0.0, 5.0174475, 4.9657507 
3.485273e+2, 1.9603185e+2, -1003365.7, -1083123.3, -13004.954, -0.0098724, -0.017049648, -1001298.7, 17589.945, 0.0, 5.016762, 4.9651074 
3.4851286e+2, 2.0099433e+2, -963038.8, -1049444.6, -13859.937, -0.011899802, -0.01582975, -960870.06, 9384.889, 0.0, 5.016017, 4.960169 
3.4849778e+2, 2.0595622e+2, -915354.56, -999144.6, -14320.174, -0.0100139305, -0.008233662, -912974.8, 8650.463, 0.0, 5.0151124, 4.9609494 
3.4848267e+2, 2.1091829e+2, -868735.75, -951126.4, -14521.79, -0.007962305, -0.0001578847, -866251.1, 6742.703, 0.0, 5.0141993, 4.9609523 
3.4846756e+2, 2.1588038e+2, -822764.06, -904548.1, -14720.827, -0.005886509, 0.008162867, -820195.06, 4167.2256, 0.0, 5.013286, 4.960455 
3.4845218e+2, 2.2083849e+2, -785226.5, -877241.44, -14736.46, -0.0064943726, 0.02224299, -782924.0, -7152.0195, 0.0, 5.012519, 4.9532385 
3.4843647e+2, 2.2579111e+2, -736397.8, -826420.4, -14364.754, -0.011406292, 0.004890214, -734161.25, -6918.2593, 0.0, 5.011996, 4.9539456 
3.4842077e+2, 2.3074353e+2, -688488.2, -777636.2, -14107.312, -0.016272873, -0.016791651, -686309.06, -7592.5864, 0.0, 5.011469, 4.9539804 
3.4840512e+2, 2.3569594e+2, -641213.3, -730298.7, -13865.802, -0.021146467, -0.03913987, -639105.06, -8914.866, 0.0, 5.0109396, 4.953513 
3.4839004e+2, 2.4064729e+2, -600286.7, -697175.7, -12413.454, -0.027022976, -0.02953109, -598721.5, -17051.408, 0.0, 5.010452, 4.948042 
3.483754e+2, 2.4560057e+2, -547641.5, -640743.6, -12346.143, -0.037095755, -0.000010600481, -546032.1, -12916.275, 0.0, 5.01049, 4.950418 
3.4836072e+2, 2.5055414e+2, -497854.03, -591323.06, -12194.365, -0.047768842, 0.027309388, -496289.28, -11731.969, 0.0, 5.010606, 4.950378 
3.4834623e+2, 2.5550807e+2, -448314.0, -542475.9, -12020.747, -0.058579307, 0.058653288, -446803.63, -10808.335, 0.0, 5.0107093, 4.950139 
3.4833205e+2, 2.604536e+2, -414078.75, -529285.75, -8386.245, -0.07952244, 0.07822411, -413471.5, -25945.545, 0.0, 5.011076, 4.936823 
3.483216e+2, 2.6539165e+2, -358857.38, -469078.78, -8391.082, -0.08733458, 0.017854448, -358222.22, -19047.477, 0.0, 5.0113525, 4.93954 
3.4831253e+2, 2.7033082e+2, -306695.88, -416530.9, -10460.327, -0.08880316, -0.06167442, -305708.56, -14890.57, 0.0, 5.0114694, 4.9403315 
3.483044e+2, 2.7526942e+2, -254389.44, -364368.44, -12942.9375, -0.09034203, -0.1623852, -252886.77, -10420.166, 0.0, 5.011538, 4.941077 
3.4828144e+2, 2.802189e+2, -237120.19, -405208.25, -18952.607, -0.22256394, 0.05925439, -235009.7, -41014.543, 0.0, 5.0154796, 4.90932 
3.4826174e+2, 2.8517178e+2, -149298.47, -251731.14, -10287.285, -0.25111917, 0.26357704, -148275.53, -2854.5444, 0.0, 5.015318, 4.9452634 
3.4825608e+2, 2.901116e+2, -111336.33, -205420.7, -8934.245, -0.15857537, 0.18087502, -110495.45, -13530.295, 0.0, 5.0111046, 4.9455404 
3.4825152e+2, 2.950488e+2, -73091.31, -159262.55, -8282.034, -0.07199039, 0.060558204, -72302.53, -23767.262, 0.0, 5.006763, 4.9458184 
3.482483e+2, 2.999916e+2, -38473.684, -91871.09, -7897.3506, -0.018141389, -0.110049516, -37330.17, -37260.41, 0.0, 5.002994, 4.962757 
3.482573e+2, 3.0496812e+2, -49282.31, -106660.58, -12530.075, 0.03035203, -0.011405859, -46665.387, -46665.387, 0.0, 5.001932, 4.9557633 
3.482722e+2, 3.0996475e+2, -47916.53, -95311.68, -15083.201, 0.09900038, 0.24970768, -43523.574, -43523.574, 0.0, 5.001022, 4.9595866 
3.4829026e+2, 3.1497157e+2, -46069.996, -84448.914, -17162.771, 0.16737814, 0.5718312, -39514.63, -39514.63, 0.0, 4.99995, 4.9634175 
3.5369003e+2, 1.2142998e+2, -1685991.6, -1750739.4, -398.48282, -0.01727875, -0.035448104, -1685989.1, 63995.33, 0.0, 5.025818, 4.983573 
3.5369015e+2, 1.2641825e+2, -1642680.8, -1711766.6, -3078.3464, 0.020693623, 0.040450074, -1642543.8, 58555.37, 0.0, 5.025486, 4.980475 
3.536852e+2, 1.3139607e+2, -1594751.4, -1663328.6, -3416.8206, 0.011544153, 0.013009388, -1594581.6, 57734.703, 0.0, 5.0251484, 4.980474 
3.5368025e+2, 1.3637388e+2, -1548986.5, -1619356.0, -3744.525, 0.0022710504, -0.013239628, -1548787.8, 54745.96, 0.0, 5.02481, 4.9789915 
3.536741e+2, 1.4135034e+2, -1506469.9, -1581759.6, -6965.1523, -0.0027442807, -0.0142104225, -1505830.9, 48933.12, 0.0, 5.0243917, 4.975357 
3.536662e+2, 1.463268e+2, -1458418.8, -1531874.9, -7621.9014, 0.0010292118, -0.011151671, -1457636.3, 48358.234, 0.0, 5.0237865, 4.9759398 
3.536583e+2, 1.5130326e+2, -1411233.1, -1483747.8, -7871.328, 0.005064867, -0.008773971, -1410388.5, 46836.258, 0.0, 5.0231714, 4.975943 
3.5365036e+2, 1.5627973e+2, -1365445.6, -1438553.6, -8115.958, 0.009090427, -0.0059571913, -1364555.5, 43899.68, 0.0, 5.022557, 4.974962 
3.5364074e+2, 1.6125277e+2, -1325078.5, -1404550.3, -11054.663, 0.010931792, 0.0016106272, -1323569.4, 36150.23, 0.0, 5.0218945, 4.9702644 
3.5362792e+2, 1.6622372e+2, -1277756.3, -1355469.8, -11762.699, 0.0079977205, 0.0028223917, -1276014.9, 34991.26, 0.0, 5.0211196, 4.9706354 
3.5361505e+2, 1.7119475e+2, -1230959.6, -1307481.0, -11914.037, 0.0048856083, 0.0042093825, -1229147.6, 33144.383, 0.0, 5.020338, 4.9706383 
3.5360214e+2, 1.7616579e+2, -1185281.4, -1261879.6, -12066.702, 0.0017767976, 0.005970728, -1183425.4, 30152.434, 0.0, 5.0195565, 4.9698343 
3.535885e+2, 1.8113351e+2, -1144884.4, -1227766.6, -13426.119, -0.0016737216, 0.012473614, -1142763.8, 22131.04, 0.0, 5.018818, 4.9651217 
3.535737e+2, 1.860985e+2, -1096730.4, -1177484.4, -13616.769, -0.0046413667, 0.0021043418, -1094496.1, 21739.943, 0.0, 5.01814, 4.965817 
3.5355887e+2, 1.910635e+2, -1049532.3, -1129236.4, -13559.03, -0.0074725123, -0.00909874, -1047288.75, 20288.137, 0.0, 5.017459, 4.965824 
3.5354406e+2, 1.960285e+2, -1003211.56, -1082892.5, -13504.1875, -0.010305865, -0.020059269, -1000985.1, 17932.459, 0.0, 5.016777, 4.9651814 
3.53529e+2, 2.0099111e+2, -963262.2, -1049984.1, -14543.993, -0.010926711, -0.017259724, -960888.0, 9394.228, 0.0, 5.0160255, 4.9599853 
3.5351315e+2, 2.0595294e+2, -915677.6, -999873.0, -15036.183, -0.0072474116, -0.007848413, -913072.94, 8582.311, 0.0, 5.0151167, 4.9607015 
3.5349733e+2, 2.109149e+2, -869051.06, -951837.75, -15228.412, -0.0036124927, 0.0017359764, -866338.7, 6688.275, 0.0, 5.014204, 4.9607086 
3.5348144e+2, 2.1587689e+2, -823071.75, -905242.7, -15417.991, -0.0000058235664, 0.011512666, -820274.06, 4124.428, 0.0, 5.0132914, 4.9602156 
3.534653e+2, 2.2083484e+2, -784839.8, -876404.94, -15186.077, -0.00029890556, 0.024312332, -782386.9, -6576.392, 0.0, 5.0125194, 4.9535303 
3.534489e+2, 2.2578746e+2, -735815.3, -825234.3, -14693.646, -0.007376064, 0.0032562865, -733462.7, -6184.8154, 0.0, 5.0120087, 4.9543595 
3.5343254e+2, 2.3073992e+2, -687860.06, -776449.94, -14408.673, -0.01455306, -0.021821806, -685575.5, -6828.373, 0.0, 5.011498, 4.9543886 
3.5341617e+2, 2.356923e+2, -640539.7, -729112.2, -14139.592, -0.021836508, -0.047819164, -638337.25, -8120.3657, 0.0, 5.010985, 4.953916 
3.5340068e+2, 2.4064358e+2, -599791.75, -696721.56, -12395.009, -0.0296037, -0.0420875, -598231.8, -16536.496, 0.0, 5.010553, 4.9481587 
3.5338598e+2, 2.4559692e+2, -547338.7, -640670.44, -12320.152, -0.039583445, -0.012252132, -545739.8, -12596.08, 0.0, 5.0105867, 4.9503975 
3.5337126e+2, 2.5055066e+2, -497652.56, -591255.8, -12139.085, -0.050134536, 0.016588427, -496103.9, -11516.563, 0.0, 5.010666, 4.9503713 
3.533567e+2, 2.555048e+2, -448213.3, -542414.06, -11936.183, -0.06096091, 0.049747825, -446724.4, -10697.384, 0.0, 5.010732, 4.950146 
3.533426e+2, 2.6045144e+2, -413265.72, -527547.1, -7729.722, -0.0838794, 0.075004555, -412745.25, -25197.059, 0.0, 5.0110936, 4.937487 
3.5333252e+2, 2.653894e+2, -358786.9, -470951.4, -6860.291, -0.105112195, 0.024969207, -358368.88, -19180.4, 0.0, 5.0116496, 4.93896 
3.5332382e+2, 2.703272e+2, -305654.38, -418480.78, -8413.698, -0.124163166, -0.050880138, -305030.4, -14196.174, 0.0, 5.0120845, 4.939606 
3.5331595e+2, 2.7526385e+2, -252381.44, -366399.7, -10381.039, -0.14598554, -0.1535727, -251443.98, -8952.812, 0.0, 5.0124707, 4.940206 
3.532925e+2, 2.8020793e+2, -233077.16, -390967.0, -21677.68, -0.2872587, -0.0032344097, -230154.97, -36089.566, 0.0, 5.0148697, 4.914328 
3.5327074e+2, 2.85161e+2, -156432.2, -253464.55, -14497.417, -0.29896006, 0.18937677, -154312.48, -8813.448, 0.0, 5.01355, 4.944938 
3.53263e+2, 2.9010457e+2, -117434.21, -207859.31, -12470.876, -0.19564876, 0.15912464, -115745.83, -18727.549, 0.0, 5.0097146, 4.9448786 
3.5325623e+2, 2.95045e+2, -78150.33, -162408.89, -11146.548, -0.10212513, 0.08884234, -76700.695, -28132.668, 0.0, 5.0057507, 4.94482 
3.532509e+2, 2.9999316e+2, -41348.727, -92203.34, -9588.876, -0.044313, -0.02013752, -39600.78, -39541.906, 0.0, 5.0022206, 4.9626603 
3.5325623e+2, 3.0496162e+2, -56004.7, -115036.9, -12208.582, -0.02284834, 0.031795092, -53579.45, -53579.45, 0.0, 5.0010676, 4.9528484 
3.5326657e+2, 3.0994415e+2, -54113.055, -101229.2, -13352.435, 0.0004798383, 0.19425106, -50592.164, -50592.164, 0.0, 5.0000677, 4.9573565 
3.532797e+2, 3.1493726e+2, -51738.188, -87912.82, -14020.002, 0.014158883, 0.41100344, -46940.76, -46940.76, 0.0, 4.998907, 4.9618735 
3.587152e+2, 1.2143079e+2, -1684758.6, -1749216.6, -567.5354, -0.023695786, -0.029940879, -1684753.6, 65223.21, 0.0, 5.0260324, 4.9839664 
3.587161e+2, 1.2641746e+2, -1642615.8, -1712750.6, -3215.131, 0.025041271, 0.033338536, -1642468.6, 58637.33, 0.0, 5.025727, 4.980033 
3.587106e+2, 1.313952e+2, -1594713.3, -1664323.0, -3533.8086, 0.013689134, 0.009401351, -1594534.4, 57789.844, 0.0, 5.025379, 4.9800324 
3.587051e+2, 1.3637292e+2, -1549039.9, -1620389.0, -3839.226, 0.0022469691, -0.013339165, -1548833.9, 54708.74, 0.0, 5.0250087, 4.978552 
3.586984e+2, 1.4134924e+2, -1506533.4, -1582602.8, -7215.4688, -0.0038502726, -0.011901906, -1505855.0, 48919.863, 0.0, 5.024543, 4.975006 
3.5869005e+2, 1.463254e+2, -1458558.8, -1532684.5, -7922.98, 0.0016287527, -0.008577749, -1457721.4, 48287.098, 0.0, 5.0238957, 4.9756203 
3.586817e+2, 1.5130156e+2, -1411515.0, -1484626.4, -8187.1123, 0.007520769, -0.0059850523, -1410609.4, 46632.65, 0.0, 5.0232325, 4.975623 
3.5867336e+2, 1.5627772e+2, -1365889.4, -1439508.3, -8449.616, 0.013411297, -0.0029445556, -1364932.0, 43543.715, 0.0, 5.022562, 4.974643 
3.5866314e+2, 1.6125044e+2, -1325463.8, -1405256.3, -11499.533, 0.016115304, 0.004324403, -1323839.6, 35903.76, 0.0, 5.021873, 4.970041 
3.5864934e+2, 1.6622101e+2, -1277921.1, -1355988.3, -12200.728, 0.011142728, 0.003473343, -1276058.8, 34974.59, 0.0, 5.0211554, 4.9704456 
3.5863546e+2, 1.7119162e+2, -1230983.6, -1307930.0, -12331.725, 0.0058092573, 0.002660476, -1229055.6, 33267.25, 0.0, 5.0204215, 4.970449 
3.5862157e+2, 1.7616224e+2, -1185209.8, -1262280.5, -12468.369, 0.0004689723, 0.0022031814, -1183242.8, 30369.496, 0.0, 5.019672, 4.969646 
3.5860705e+2, 1.8112972e+2, -1144536.8, -1227565.6, -13770.893, -0.004431932, 0.007178176, -1142312.4, 22618.875, 0.0, 5.01893, 4.965137 
3.5859165e+2, 1.8609485e+2, -1096474.0, -1177199.9, -13957.453, -0.006544408, -0.0024138987, -1094128.9, 22141.096, 0.0, 5.0181937, 4.965888 
3.5857627e+2, 1.9106002e+2, -1049507.0, -1129063.9, -13920.6, -0.008399706, -0.012710515, -1047141.5, 20466.525, 0.0, 5.017434, 4.9658947 
3.585609e+2, 1.9602521e+2, -1003477.1, -1082858.4, -13893.849, -0.0102635715, -0.022797033, -1001115.6, 17830.412, 0.0, 5.0166526, 4.9652514 
3.5854515e+2, 2.0098798e+2, -964183.1, -1050972.9, -15140.58, -0.009182808, -0.017817615, -961617.7, 8691.183, 0.0, 5.015821, 4.959747 
3.5852858e+2, 2.0594971e+2, -916565.0, -1000871.9, -15634.359, -0.003916943, -0.0068357945, -913759.06, 7925.657, 0.0, 5.014929, 4.9604487 
3.5851195e+2, 2.1091153e+2, -869908.8, -952813.4, -15826.166, 0.0010500586, 0.0037935858, -866990.4, 6069.483, 0.0, 5.0140243, 4.9604583 
3.5849532e+2, 2.1587338e+2, -823945.2, -906214.94, -16034.005, 0.0060054674, 0.014641634, -820930.7, 3504.0557, 0.0, 5.0131044, 4.959968 
3.584784e+2, 2.2083117e+2, -785103.94, -875949.7, -15571.019, 0.0060787066, 0.026392719, -782509.2, -6660.1255, 0.0, 5.012312, 4.953783 
3.584613e+2, 2.257838e+2, -735920.9, -824282.3, -14827.047, -0.0031266878, 0.0012126358, -733499.25, -6186.494, 0.0, 5.011774, 4.954795 
3.5844427e+2, 2.307363e+2, -688114.3, -775562.0, -14376.573, -0.012567854, -0.02785155, -685811.44, -7033.7944, 0.0, 5.0112114, 4.9548254 
3.584273e+2, 2.3568873e+2, -641013.4, -728319.3, -13920.966, -0.02212048, -0.05788716, -638847.4, -8604.378, 0.0, 5.0106225, 4.9543533 
3.584114e+2, 2.4064013e+2, -601209.0, -697441.25, -11617.316, -0.03144862, -0.052994713, -599826.4, -18108.666, 0.0, 5.0100937, 4.9481006 
3.5839674e+2, 2.4559362e+2, -549140.8, -641467.1, -11610.106, -0.040854417, -0.021629112, -547703.2, -14535.232, 0.0, 5.009984, 4.950365 
3.5838196e+2, 2.505475e+2, -499915.1, -592306.3, -11551.816, -0.050688703, 0.008011989, -498492.66, -13878.411, 0.0, 5.009909, 4.950326 
3.5836732e+2, 2.5550178e+2, -450942.94, -543713.4, -11600.461, -0.060780156, 0.04233046, -449514.38, -13457.994, 0.0, 5.0098224, 4.9500895 
3.5835308e+2, 2.6044893e+2, -417239.97, -528768.06, -6824.6875, -0.085971, 0.070550375, -416823.88, -29250.004, 0.0, 5.009658, 4.937713 
3.583439e+2, 2.6538643e+2, -370452.66, -476750.28, -2943.2554, -0.11570269, 0.01933104, -370371.22, -31162.295, 0.0, 5.007697, 4.9387016 
3.5833627e+2, 2.7032316e+2, -328023.75, -429075.1, -915.31354, -0.1433148, -0.06365085, -328015.47, -37160.574, 0.0, 5.0042663, 4.9393497 
3.583295e+2, 2.752584e+2, -288811.28, -383254.28, 1566.5472, -0.17381446, -0.17763303, -288785.28, -46270.344, 0.0, 4.999571, 4.939948 
3.5830444e+2, 2.8019986e+2, -284190.3, -412587.9, -13398.942, -0.31168634, -0.054886434, -282806.97, -88699.875, 0.0, 4.996812, 4.9146123 
3.5827938e+2, 2.8515393e+2, -194047.69, -270209.28, -6798.973, -0.31509033, 0.15431038, -193445.5, -47905.3, 0.0, 5.0011086, 4.9439898 
3.5826975e+2, 2.9010004e+2, -137314.8, -217119.08, -7424.144, -0.21151988, 0.16115324, -136630.02, -39583.72, 0.0, 5.003595, 4.9438205 
3.5826117e+2, 2.9504272e+2, -85791.68, -166638.75, -7578.9873, -0.117237106, 0.12527023, -85087.33, -36501.71, 0.0, 5.0040245, 4.9436493 
3.5825375e+2, 2.9999423e+2, -44217.91, -95116.66, -6850.6836, -0.05877336, 0.060587283, -43311.973, -43259.117, 0.0, 5.0023627, 4.9611106 
3.5825443e+2, 3.049536e+2, -70737.48, -125211.26, -7362.1436, -0.07158529, 0.046194922, -69760.02, -69760.02, 0.0, 4.99751, 4.9501114 
3.5825947e+2, 3.099223e+2, -90183.72, -118840.11, -7677.403, -0.0934654, 0.09246866, -88256.46, -88256.46, 0.0, 4.988655, 4.955155 
3.582673e+2, 3.149022e+2, -119954.21, -117535.914, -9368.748, -0.124461904, 0.19227327, -109298.61, -109298.61, 0.0, 4.9758058, 4.9602146 
3.6374325e+2, 1.2143257e+2, -1676493.8, -1745377.6, 20.084503, -0.018778065, -0.02206737, -1676493.8, 73465.37, 0.0, 5.0288334, 4.9838543 
3.6374304e+2, 1.2641704e+2, -1635417.8, -1710111.9, -2819.813, 0.02310644, 0.02300956, -1635311.5, 65797.766, 0.0, 5.0283237, 4.9796295 
3.6373723e+2, 1.3139494e+2, -1588163.4, -1662005.5, -3137.52, 0.0128382705, 0.0045088665, -1588030.3, 64295.89, 0.0, 5.0277667, 4.9796314 
3.6373135e+2, 1.363728e+2, -1543062.0, -1618348.6, -3441.8394, 0.0027252538, -0.012720092, -1542905.0, 60638.42, 0.0, 5.027209, 4.978155 
3.6372414e+2, 1.413491e+2, -1501005.4, -1580702.3, -6973.384, -0.0024492852, -0.0077900626, -1500399.8, 54376.285, 0.0, 5.026574, 4.974651 
3.63715e+2, 1.4632483e+2, -1453530.6, -1531052.8, -7754.633, 0.0022499822, -0.0051963124, -1452762.5, 53251.836, 0.0, 5.0257654, 4.9752603 
3.637058e+2, 1.5130053e+2, -1406958.0, -1483240.0, -8057.422, 0.0073392885, -0.003388861, -1406116.1, 51136.54, 0.0, 5.0249486, 4.9752607 
3.6369663e+2, 1.5627626e+2, -1361775.9, -1438349.9, -8354.776, 0.012501206, -0.0010572696, -1360875.0, 47616.117, 0.0, 5.0241313, 4.9742794 
3.636856e+2, 1.612486e+2, -1321487.4, -1403781.1, -11419.661, 0.0147534, 0.0052608815, -1319932.1, 39830.574, 0.0, 5.0233145, 4.969845 
3.636711e+2, 1.6621883e+2, -1274186.4, -1354519.1, -12108.158, 0.009812671, 0.0027113655, -1272401.1, 38654.055, 0.0, 5.0224943, 4.9703007 
3.6365643e+2, 1.7118914e+2, -1227522.0, -1306602.0, -12228.487, 0.00463118, 0.0002610471, -1225674.3, 36672.67, 0.0, 5.0216722, 4.9703026 
3.636418e+2, 1.7615947e+2, -1181974.6, -1261069.5, -12349.49, -0.0004488296, -0.0017339444, -1180091.3, 33547.31, 0.0, 5.0208497, 4.9694977 
3.6362654e+2, 1.8112679e+2, -1141632.9, -1226327.8, -13760.172, -0.0045424756, 0.0027211078, -1139453.4, 25505.195, 0.0, 5.0199556, 4.9650702 
3.6361036e+2, 1.8609211e+2, -1094629.9, -1176460.3, -14146.893, -0.0049305707, -0.0044549513, -1092253.1, 24042.584, 0.0, 5.018858, 4.965826 
3.6359417e+2, 1.9105747e+2, -1048693.0, -1128820.4, -14273.871, -0.0048320326, -0.011919955, -1046226.2, 21405.646, 0.0, 5.017747, 4.965831 
3.6357802e+2, 1.960229e+2, -1003626.9, -1083075.9, -14402.7295, -0.0045198216, -0.018938273, -1001096.5, 17871.248, 0.0, 5.0166354, 4.9651856 
3.635615e+2, 2.0098573e+2, -965094.5, -1051783.0, -15690.842, -0.0020659189, -0.0120928725, -962341.8, 7988.363, 0.0, 5.015581, 4.9595833 
3.6354387e+2, 2.0594706e+2, -917716.94, -1001826.44, -16090.27, 0.0018184038, -0.0035899715, -914743.94, 6966.8457, 0.0, 5.01461, 4.960272 
3.6352617e+2, 2.1090844e+2, -871265.06, -953875.2, -16191.268, 0.0054789577, 0.004471433, -868205.0, 4885.851, 0.0, 5.013637, 4.9602757 
3.6350846e+2, 2.1586989e+2, -825459.75, -907363.4, -16293.956, 0.009370773, 0.0129853515, -822337.3, 2133.2627, 0.0, 5.012664, 4.9597793 
3.6349067e+2, 2.208274e+2, -786023.8, -875416.4, -15549.57, 0.008971117, 0.021594523, -783396.25, -7509.024, 0.0, 5.0117903, 4.9542055 
3.6347288e+2, 2.2578037e+2, -737509.2, -823671.6, -14873.084, -0.0001643672, -0.0056235306, -735014.06, -7669.3486, 0.0, 5.0109553, 4.9553757 
3.634552e+2, 2.3073332e+2, -690539.9, -775238.4, -14544.941, -0.009208922, -0.035479747, -688111.75, -9310.025, 0.0, 5.010096, 4.9554358 
3.634376e+2, 2.3568635e+2, -644199.06, -728246.94, -14239.728, -0.018006362, -0.06561144, -641852.06, -11593.725, 0.0, 5.009234, 4.9549937 
3.6342123e+2, 2.406382e+2, -606408.1, -699094.7, -11854.176, -0.025786322, -0.060897317, -604916.06, -23189.41, 0.0, 5.008241, 4.948301 
3.6340642e+2, 2.4559192e+2, -556526.9, -645181.25, -12120.1045, -0.030950876, -0.026081769, -554899.75, -21721.176, 0.0, 5.0075583, 4.9500923 
3.6339164e+2, 2.5054595e+2, -508706.03, -597022.44, -12333.304, -0.03549567, 0.008458065, -507016.03, -22388.508, 0.0, 5.006989, 4.949936 
3.63377e+2, 2.5550035e+2, -461114.03, -549426.56, -12508.45, -0.039504904, 0.04801419, -459376.56, -23303.457, 0.0, 5.00641, 4.9495807 
3.6336294e+2, 2.6044816e+2, -425068.7, -527488.3, -7838.1943, -0.055696007, 0.078564234, -424472.3, -36886.97, 0.0, 5.005875, 4.939837 
3.6335438e+2, 2.65387e+2, -373813.5, -469320.72, -4173.031, -0.06784542, 0.010766906, -373631.53, -34436.64, 0.0, 5.0049124, 4.9424467 
3.6334786e+2, 2.70326e+2, -324309.78, -416505.5, -3114.1252, -0.06435874, -0.08674016, -324204.72, -33400.434, 0.0, 5.0038443, 4.9437385 
3.633426e+2, 2.752648e+2, -274578.9, -364120.6, -2429.0925, -0.049500894, -0.20971254, -274513.06, -32097.773, 0.0, 5.0027404, 4.944986 
3.6332e+2, 2.8020847e+2, -255064.67, -394421.53, -18793.229, -0.10743397, -0.11774687, -252574.77, -58598.66, 0.0, 5.0057983, 4.917577 
3.632937e+2, 2.8515896e+2, -178531.89, -274842.38, -4535.2983, -0.14845826, 0.08180515, -178318.8, -32862.824, 0.0, 5.008058, 4.9405136 
3.6328164e+2, 2.9010248e+2, -130878.54, -222282.7, -5126.495, -0.11539589, 0.10540288, -130591.914, -33590.176, 0.0, 5.0071297, 4.9412723 
3.6327118e+2, 2.9504353e+2, -82979.61, -169968.03, -6213.6226, -0.07059343, 0.08632101, -82538.01, -33966.082, 0.0, 5.006091, 4.942031 
3.63262e+2, 2.9999536e+2, -38388.555, -89878.75, -8931.066, -0.036478426, 0.046542536, -36883.44, -36837.727, 0.0, 5.004739, 4.961992 
3.6325884e+2, 3.049574e+2, -52310.277, -108809.58, -10386.201, -0.04150254, 0.045012847, -50461.49, -50461.49, 0.0, 5.0035324, 4.9535246 
3.6326164e+2, 3.09929e+2, -51042.996, -95745.12, -9326.402, -0.0087263, 0.11221651, -49175.227, -49175.227, 0.0, 5.002542, 4.9579177 
3.6326942e+2, 3.1491265e+2, -49331.87, -83106.6, -9015.046, 0.0661002, 0.25506443, -47076.246, -47076.246, 0.0, 5.0014215, 4.962324 
3.6877304e+2, 1.214348e+2, -1676968.9, -1746334.4, -177.67395, -0.009833442, -0.014006777, -1676968.5, 72968.31, 0.0, 5.0288305, 4.983542 
3.687709e+2, 1.264169e+2, -1636006.5, -1711326.8, -3244.7507, 0.018229559, 0.011266926, -1635867.0, 65242.758, 0.0, 5.028324, 4.979232 
3.6876476e+2, 1.3139501e+2, -1588747.8, -1663217.6, -3560.6548, 0.010747693, -0.0008962222, -1588577.9, 63746.87, 0.0, 5.027767, 4.9792333 
3.6875865e+2, 1.3637312e+2, -1543639.6, -1619553.6, -3862.3167, 0.003387404, -0.011785892, -1543443.6, 60096.207, 0.0, 5.0272098, 4.9777584 
3.6875096e+2, 1.4134942e+2, -1501537.1, -1581814.0, -7556.129, -0.00033010475, -0.0029448243, -1500832.1, 53940.56, 0.0, 5.0265756, 4.9742846 
3.6874077e+2, 1.4632465e+2, -1454070.9, -1532190.0, -8375.024, 0.002348829, -0.0015644607, -1453183.1, 52833.23, 0.0, 5.025768, 4.9748845 
3.6873057e+2, 1.5129985e+2, -1407492.0, -1484373.3, -8676.611, 0.005221345, -0.0011546884, -1406524.9, 50735.33, 0.0, 5.0249515, 4.9748845 
3.6872032e+2, 1.5627505e+2, -1362302.1, -1439476.0, -8972.065, 0.008149784, -0.00023773468, -1361272.9, 47231.313, 0.0, 5.024135, 4.9739046 
3.6870837e+2, 1.6124696e+2, -1321755.6, -1404369.1, -12048.099, 0.009256999, 0.0047505265, -1320034.5, 39745.676, 0.0, 5.0233183, 4.969649 
3.6869317e+2, 1.6621694e+2, -1274372.4, -1354945.4, -12733.642, 0.0060447673, 0.0012119141, -1272407.9, 38666.33, 0.0, 5.022499, 4.970158 
3.6867788e+2, 1.7118701e+2, -1227702.8, -1307028.0, -12851.353, 0.002690407, -0.0022335115, -1225672.8, 36694.656, 0.0, 5.021678, 4.970159 
3.6866263e+2, 1.7615709e+2, -1182150.0, -1261494.9, -12969.554, -0.0006175401, -0.0052607935, -1180083.9, 33576.617, 0.0, 5.020857, 4.969354 
3.6864668e+2, 1.8112428e+2, -1141789.3, -1226702.6, -14540.667, -0.0027927738, -0.0007743959, -1139368.3, 25613.107, 0.0, 5.0199614, 4.9649463 
3.6862954e+2, 1.8608974e+2, -1094804.1, -1176887.0, -14984.41, -0.0014274097, -0.0049496526, -1092154.1, 24163.5, 0.0, 5.018865, 4.9656844 
3.6861247e+2, 1.9105528e+2, -1048856.6, -1129243.4, -15106.922, 0.00028926096, -0.009332398, -1046111.3, 21541.762, 0.0, 5.017757, 4.965689 
3.6859536e+2, 1.9602086e+2, -1003779.9, -1083495.3, -15231.2, 0.0021389711, -0.013360784, -1000968.8, 18019.549, 0.0, 5.0166483, 4.965043 
3.6857778e+2, 2.0098364e+2, -965260.75, -1052171.9, -16465.346, 0.0047677243, -0.005472761, -962245.94, 8105.7876, 0.0, 5.0155854, 4.9594517 
3.6855894e+2, 2.0594451e+2, -917861.6, -1002157.9, -16840.924, 0.0065178466, -0.0003271665, -914621.6, 7115.275, 0.0, 5.014612, 4.9601603 
3.6854005e+2, 2.1090543e+2, -871395.75, -954193.44, -16933.107, 0.008015075, 0.0040913504, -868066.6, 5054.9707, 0.0, 5.013642, 4.9601665 
3.6852115e+2, 2.1586637e+2, -825576.7, -907668.56, -17026.906, 0.009674775, 0.008811508, -822185.25, 2320.8315, 0.0, 5.0126715, 4.959673 
3.6850235e+2, 2.2082369e+2, -785450.6, -874191.1, -16145.156, 0.008274643, 0.013921899, -782604.5, -6680.1846, 0.0, 5.011792, 4.9546347 
3.6848396e+2, 2.257771e+2, -736812.7, -822293.25, -15467.416, 0.00069338945, -0.01312596, -734100.0, -6725.529, 0.0, 5.010973, 4.9558616 
3.684656e+2, 2.3073055e+2, -689786.75, -773867.56, -15108.12, -0.0068782107, -0.042531196, -687154.44, -8330.555, 0.0, 5.0101337, 4.955913 
3.6844733e+2, 2.35684e+2, -643389.4, -726883.6, -14771.682, -0.014340171, -0.0725405, -640853.0, -10579.784, 0.0, 5.0092916, 4.955463 
3.6843035e+2, 2.4063614e+2, -606116.5, -699267.75, -12448.287, -0.020564454, -0.067896515, -604481.6, -22744.26, 0.0, 5.0083437, 4.9482293 
3.684151e+2, 2.455901e+2, -556626.2, -646312.5, -12647.605, -0.022754127, -0.02745204, -554876.7, -21685.559, 0.0, 5.0076666, 4.9496956 
3.6839983e+2, 2.5054443e+2, -508842.22, -598100.0, -12824.788, -0.024318889, 0.013825407, -507036.06, -22394.25, 0.0, 5.007082, 4.9495616 
3.683848e+2, 2.5549912e+2, -461287.25, -550450.7, -12963.885, -0.025515774, 0.05997126, -459440.6, -23351.574, 0.0, 5.006487, 4.9492292 
3.6837026e+2, 2.604476e+2, -422241.75, -522180.53, -8285.794, -0.039716803, 0.09339531, -421559.44, -33963.85, 0.0, 5.005991, 4.941736 
3.683607e+2, 2.653868e+2, -369301.0, -462045.03, -3969.6675, -0.06802775, 0.0046274327, -369131.4, -29943.527, 0.0, 5.0052495, 4.945058 
3.6835292e+2, 2.7032542e+2, -319395.97, -410048.84, -2312.5098, -0.08620497, -0.11852924, -319337.0, -28551.715, 0.0, 5.0044093, 4.9460535 
3.6834636e+2, 2.7526337e+2, -269264.4, -358479.53, -1028.7584, -0.095150955, -0.2680668, -269252.53, -26863.78, 0.0, 5.003533, 4.947005 
3.6832494e+2, 2.8020602e+2, -253221.36, -391339.2, -22599.246, -0.12755539, -0.20238584, -249617.63, -55669.188, 0.0, 5.005928, 4.918472 
3.6830056e+2, 2.851576e+2, -180742.39, -278208.25, -7812.475, -0.13223727, 0.010330557, -180120.16, -34689.54, 0.0, 5.0075855, 4.939227 
3.6828882e+2, 2.901025e+2, -132972.7, -226902.69, -7755.151, -0.10132249, 0.059184063, -132336.72, -35357.805, 0.0, 5.006788, 4.9396176 
3.6827856e+2, 2.950449e+2, -84951.734, -175838.08, -8196.717, -0.062051956, 0.069479056, -84218.414, -35666.71, 0.0, 5.00588, 4.940008 
3.6826885e+2, 2.9999697e+2, -37255.27, -91637.61, -9780.197, -0.038097948, 0.04940303, -35549.863, -35516.44, 0.0, 5.0048804, 4.961421 
3.682619e+2, 3.0496e+2, -43828.28, -99411.87, -9218.592, -0.07591441, 0.027793283, -42339.258, -42339.258, 0.0, 5.0045033, 4.956667 
3.682602e+2, 3.099327e+2, -40129.22, -85844.63, -6951.5522, -0.08759062, 0.060631342, -39095.527, -39095.527, 0.0, 5.0042753, 4.9609146 
3.682632e+2, 3.149159e+2, -35990.324, -72709.88, -5433.4185, -0.06544563, 0.15215567, -35203.21, -35203.21, 0.0, 5.0039163, 4.9651747 
3.7380284e+2, 1.2143698e+2, -1677377.3, -1747153.0, -368.9146, -0.0005070013, -0.006410453, -1677375.3, 72539.58, 0.0, 5.028828, 4.983275 
3.7379876e+2, 1.2641676e+2, -1636596.0, -1712541.3, -3668.9497, 0.013415541, -0.000431584, -1636419.1, 64691.152, 0.0, 5.028324, 4.978834 
3.7379235e+2, 1.3139512e+2, -1589332.6, -1664429.5, -3983.051, 0.00871997, -0.0062760147, -1589122.0, 63201.184, 0.0, 5.0277677, 4.978835 
3.737859e+2, 1.3637346e+2, -1544217.9, -1620758.3, -4282.063, 0.004112405, -0.010845214, -1543979.1, 59557.137, 0.0, 5.0272107, 4.977362 
3.7377775e+2, 1.4134976e+2, -1502077.4, -1582942.5, -8138.782, 0.0018308866, 0.0019533131, -1501266.4, 53502.934, 0.0, 5.026577, 4.973913 
3.7376654e+2, 1.463245e+2, -1454611.4, -1533327.4, -8994.767, 0.0024811644, 0.0021191002, -1453596.6, 52421.594, 0.0, 5.0257697, 4.9745083 
3.7375528e+2, 1.5129916e+2, -1408026.3, -1485506.5, -9295.152, 0.00313347, 0.0011098952, -1406926.6, 50341.027, 0.0, 5.0249543, 4.9745083 
3.73744e+2, 1.5627383e+2, -1362828.8, -1440602.3, -9588.706, 0.0038250156, 0.0005909308, -1361664.0, 46853.25, 0.0, 5.024139, 4.9735293 
3.7373114e+2, 1.6124529e+2, -1322031.0, -1404971.4, -12678.301, 0.0037538193, 0.004268437, -1320136.3, 39661.316, 0.0, 5.0233216, 4.9694476 
3.737153e+2, 1.6621505e+2, -1274559.0, -1355371.1, -13357.409, 0.0022815154, -0.00026900697, -1272408.4, 38684.76, 0.0, 5.0225034, 4.9700155 
3.7369937e+2, 1.7118488e+2, -1227884.4, -1307453.4, -13472.502, 0.00077321415, -0.004735032, -1225665.1, 36722.75, 0.0, 5.0216837, 4.9700155 
3.7368345e+2, 1.761547e+2, -1182326.3, -1261919.6, -13587.9, -0.0007437474, -0.008820073, -1180070.5, 33611.926, 0.0, 5.020864, 4.96921 
3.736668e+2, 1.8112178e+2, -1141953.6, -1227093.5, -15327.284, -0.00096733205, -0.0041972487, -1139278.4, 25725.658, 0.0, 5.019967, 4.964816 
3.7364876e+2, 1.860874e+2, -1094979.4, -1177312.9, -15820.432, 0.0021844024, -0.0053765317, -1092044.1, 24295.406, 0.0, 5.0188723, 4.9655423 
3.7363073e+2, 1.910531e+2, -1049021.3, -1129665.6, -15938.478, 0.0055338256, -0.0067402823, -1045985.5, 21688.783, 0.0, 5.017767, 4.9655466 
3.736127e+2, 1.9601882e+2, -1003933.94, -1083913.9, -16058.172, 0.008935652, -0.007841945, -1000830.25, 18178.586, 0.0, 5.016661, 4.9649005 
3.7359408e+2, 2.0098157e+2, -965475.44, -1052665.8, -17256.102, 0.011699367, 0.0014044828, -962184.5, 8188.717, 0.0, 5.01559, 4.9592843 
3.7357405e+2, 2.0594198e+2, -918007.06, -1002489.4, -17591.168, 0.011295655, 0.003188048, -914490.56, 7272.2954, 0.0, 5.014615, 4.9600463 
3.7355393e+2, 2.1090242e+2, -871527.3, -954511.6, -17674.531, 0.010606739, 0.0037684387, -867919.7, 5232.567, 0.0, 5.013647, 4.9600554 
3.7353387e+2, 2.1586289e+2, -825694.4, -907973.7, -17759.438, 0.0100115305, 0.0044997586, -822024.8, 2516.7158, 0.0, 5.0126786, 4.9595647 
3.7351406e+2, 2.2082e+2, -784941.06, -873101.5, -16759.691, 0.007647721, 0.0066163447, -781862.44, -5901.3267, 0.0, 5.0117946, 4.955014 
3.73495e+2, 2.2577389e+2, -736121.44, -820912.3, -16045.201, 0.0016807497, -0.02055386, -733186.75, -5782.786, 0.0, 5.01099, 4.95634 
3.734761e+2, 2.3072776e+2, -689038.75, -772494.2, -15654.765, -0.0044352314, -0.050274145, -686198.8, -7352.8174, 0.0, 5.0101714, 4.9563837 
3.734572e+2, 2.3568164e+2, -642584.7, -725517.7, -15287.11, -0.010579018, -0.08092639, -639856.56, -9568.231, 0.0, 5.0093493, 4.955925 
3.7343964e+2, 2.4063423e+2, -606233.56, -700316.5, -13011.963, -0.015019314, -0.073019244, -604467.1, -22720.434, 0.0, 5.008446, 4.94785 
3.7342393e+2, 2.4558851e+2, -556741.6, -647429.25, -13199.662, -0.0142657235, -0.025389204, -554859.44, -21658.023, 0.0, 5.0077753, 4.9492927 
3.7340817e+2, 2.5054312e+2, -508994.47, -599163.0, -13340.802, -0.01307508, 0.021732807, -507062.06, -22407.932, 0.0, 5.0071745, 4.9491816 
3.733926e+2, 2.5549805e+2, -461476.47, -551460.2, -13443.824, -0.011684185, 0.0735758, -459510.84, -23407.504, 0.0, 5.006564, 4.9488716 
3.733776e+2, 2.6044667e+2, -420148.13, -518410.28, -8527.154, -0.024688033, 0.10706435, -419413.63, -31803.598, 0.0, 5.0061064, 4.9430294 
3.7336743e+2, 2.6538554e+2, -364861.47, -454740.84, -3346.6602, -0.066084854, -0.015168096, -364737.03, -25545.77, 0.0, 5.005586, 4.947485 
3.7335902e+2, 2.703233e+2, -314553.6, -403559.94, -1092.5941, -0.1019061, -0.17781308, -314540.2, -23759.193, 0.0, 5.004974, 4.948184 
3.7335178e+2, 2.7526e+2, -264020.0, -352802.34, 788.79694, -0.13064098, -0.36773163, -264013.0, -21631.791, 0.0, 5.004325, 4.948839 
3.7332985e+2, 2.8020364e+2, -259221.34, -406301.9, -26656.525, -0.15279265, -0.2804135, -254539.23, -60618.83, 0.0, 5.0060673, 4.9130483 
3.7330604e+2, 2.8515792e+2, -183138.44, -281402.78, -10412.745, -0.13235454, -0.016263476, -182047.16, -36658.66, 0.0, 5.0071115, 4.9377904 
3.7329483e+2, 2.9010388e+2, -135249.63, -231353.44, -9706.771, -0.099308856, 0.045800116, -134279.02, -37336.35, 0.0, 5.006445, 4.937813 
3.7328503e+2, 2.950473e+2, -87103.96, -181541.17, -9502.275, -0.06129445, 0.0734318, -86157.33, -37635.938, 0.0, 5.0056677, 4.9378343 
3.7327498e+2, 2.9999772e+2, -36528.992, -93726.69, -10030.208, -0.047248997, 0.048476316, -34821.09, -34791.52, 0.0, 5.0050216, 4.960588 
3.7326485e+2, 3.049597e+2, -35568.184, -89831.555, -7764.061, -0.124247596, -0.027050763, -34479.15, -34479.15, 0.0, 5.005475, 4.9595313 
3.7325945e+2, 3.0993235e+2, -29441.1, -75761.766, -4290.763, -0.18589105, -0.057211556, -29046.992, -29046.992, 0.0, 5.0060105, 4.963633 
3.7325847e+2, 3.1491393e+2, -22880.662, -62130.37, -1567.0878, -0.22195797, -0.045678448, -22818.193, -22818.193, 0.0, 5.006416, 4.9677467 
3.788326e+2, 1.21439084e+2, -1676948.1, -1747505.4, -498.9312, 0.008576911, 0.00065832597, -1676944.5, 72949.08, 0.0, 5.0290937, 4.9830294 
3.7882668e+2, 1.2641665e+2, -1636429.4, -1713365.8, -4024.616, 0.009039955, -0.01177961, -1636219.4, 64891.25, 0.0, 5.0285754, 4.978442 
3.7881994e+2, 1.3139524e+2, -1589201.6, -1665274.0, -4308.9976, 0.006910319, -0.011485114, -1588958.3, 63363.23, 0.0, 5.028006, 4.9784427 
3.7881324e+2, 1.3637377e+2, -1544119.3, -1621617.5, -4577.935, 0.0048285006, -0.009922225, -1543849.9, 59682.81, 0.0, 5.0274367, 4.97697 
3.7880453e+2, 1.4135009e+2, -1501972.4, -1583752.9, -8565.444, 0.0038241376, 0.006763504, -1501084.9, 53680.934, 0.0, 5.0267954, 4.9735413 
3.7879232e+2, 1.4632432e+2, -1454491.9, -1534128.0, -9423.63, 0.0025226255, 0.0057336097, -1453392.0, 52628.137, 0.0, 5.025992, 4.9741373 
3.7878007e+2, 1.512985e+2, -1407893.5, -1486301.5, -9689.971, 0.0010401695, 0.0033040664, -1406713.8, 50561.297, 0.0, 5.0251803, 4.9741373 
3.7876776e+2, 1.5627265e+2, -1362682.6, -1441388.9, -9949.437, -0.0004258141, 0.0013419568, -1361444.4, 47085.54, 0.0, 5.0243683, 4.9731593 
3.7875393e+2, 1.6124366e+2, -1321693.3, -1405287.9, -13043.398, -0.0016461588, 0.0037504374, -1319705.3, 40109.418, 0.0, 5.023536, 4.969241 
3.7873742e+2, 1.6621318e+2, -1274323.6, -1355596.4, -13740.666, -0.0013395569, -0.001715526, -1272063.4, 39048.41, 0.0, 5.022653, 4.9698696 
3.7872088e+2, 1.7118277e+2, -1227863.9, -1307782.4, -13879.207, -0.0009284894, -0.0071291067, -1225522.1, 36885.85, 0.0, 5.02176, 4.96987 
3.787043e+2, 1.7615238e+2, -1182538.5, -1262359.4, -14015.565, -0.00055248477, -0.012185227, -1180149.1, 33554.99, 0.0, 5.0208607, 4.9690647 
3.7868696e+2, 1.8111934e+2, -1142368.4, -1227619.9, -15946.024, 0.0012496524, -0.007270231, -1139483.4, 25542.928, 0.0, 5.0198927, 4.9646764 
3.78668e+2, 1.860851e+2, -1095505.8, -1177912.3, -16498.553, 0.0061459527, -0.005516739, -1092325.4, 24035.686, 0.0, 5.018763, 4.9653945 
3.7864906e+2, 1.9105095e+2, -1049675.6, -1130326.9, -16634.12, 0.011110619, -0.0039259484, -1046379.56, 21315.494, 0.0, 5.017613, 4.9653983 
3.7863007e+2, 1.960168e+2, -1004753.0, -1084653.6, -16774.732, 0.016091183, -0.0021087648, -1001374.1, 17654.893, 0.0, 5.01645, 4.9647512 
3.7861034e+2, 2.0097953e+2, -966409.2, -1053549.1, -17917.832, 0.018942658, 0.008761759, -962868.75, 7525.4907, 0.0, 5.015358, 4.9590936 
3.7858912e+2, 2.0593949e+2, -918581.56, -1002997.75, -18126.113, 0.016196232, 0.006913802, -914854.0, 6934.419, 0.0, 5.014464, 4.9599414 
3.7856784e+2, 2.1089943e+2, -871923.1, -954935.3, -18161.236, 0.013172279, 0.003300953, -868123.75, 5058.9736, 0.0, 5.013557, 4.9599504 
3.7854657e+2, 2.158594e+2, -825987.06, -908346.2, -18220.207, 0.010227181, -0.00021271505, -822136.25, 2440.6006, 0.0, 5.0126243, 4.9594603 
3.7852573e+2, 2.2081633e+2, -784706.75, -872206.6, -17131.531, 0.006910997, -0.0006077682, -781472.1, -5474.5444, 0.0, 5.011722, 4.9553523 
3.7850612e+2, 2.2577073e+2, -735871.4, -819684.6, -16363.061, 0.0027517402, -0.027994508, -732790.06, -5357.2397, 0.0, 5.010856, 4.9568195 
3.784866e+2, 2.307251e+2, -689087.8, -771437.6, -15974.5205, -0.0015803166, -0.058226958, -686097.56, -7230.281, 0.0, 5.0099354, 4.956854 
3.7846714e+2, 2.3567945e+2, -643070.75, -724689.06, -15631.498, -0.005892336, -0.08939565, -640179.44, -9877.268, 0.0, 5.008964, 4.956386 
3.7844914e+2, 2.4063271e+2, -608563.9, -702900.75, -13313.695, -0.007769155, -0.07434257, -606720.94, -24968.396, 0.0, 5.007912, 4.947215 
3.7843296e+2, 2.4558733e+2, -559012.25, -649365.2, -13291.329, -0.003889788, -0.01891597, -557097.6, -23889.936, 0.0, 5.007129, 4.9489245 
3.784167e+2, 2.5054204e+2, -511621.03, -601203.44, -13205.15, 0.000049153372, 0.031637616, -509715.03, -25051.174, 0.0, 5.006394, 4.948828 
3.7840062e+2, 2.5549707e+2, -464495.13, -553616.56, -13111.019, 0.004044934, 0.086236246, -462606.34, -26489.254, 0.0, 5.0056367, 4.9485335 
3.7838507e+2, 2.604451e+2, -422427.72, -517187.63, -7443.56, -0.00782042, 0.11523309, -421846.6, -34216.11, 0.0, 5.0048428, 4.9439454 
3.783749e+2, 2.6538366e+2, -368918.1, -449979.34, -97.877846, -0.055798527, -0.049127065, -368918.0, -29717.344, 0.0, 5.002836, 4.950131 
3.7836662e+2, 2.7032128e+2, -325242.2, -402305.13, 3946.7395, -0.100015834, -0.25656494, -325040.6, -34264.22, 0.0, 4.9999967, 4.9506035 
3.783594e+2, 2.7525777e+2, -283146.63, -355733.0, 7538.883, -0.1377918, -0.4881378, -282371.9, -40008.473, 0.0, 4.996481, 4.9510326 
3.7833568e+2, 2.802055e+2, -301560.22, -451804.94, -24127.55, -0.15975143, -0.3220152, -297780.7, -103929.2, 0.0, 4.996097, 4.9014144 
3.7831083e+2, 2.8516287e+2, -203277.13, -294047.06, -6154.6807, -0.13240653, 0.021113576, -202861.7, -57560.168, 0.0, 5.000294, 4.9357038 
3.7830022e+2, 2.9010826e+2, -147306.19, -241287.77, -6357.2, -0.09942004, 0.07458537, -146878.11, -50001.27, 0.0, 5.0025926, 4.935535 
3.7829098e+2, 2.9505146e+2, -93600.23, -189839.5, -6539.508, -0.0628902, 0.099765636, -93157.9, -44683.965, 0.0, 5.0039005, 4.9353633 
3.782807e+2, 2.999979e+2, -37951.8, -97156.02, -6879.9805, -0.060528297, 0.041814372, -37162.81, -37131.547, 0.0, 5.004484, 4.959585 
3.7826812e+2, 3.049573e+2, -34862.87, -84132.375, -6205.0317, -0.1786074, -0.111591406, -34093.42, -34093.42, 0.0, 5.003937, 4.961944 
3.7826025e+2, 3.0992913e+2, -38513.668, -75648.414, -7588.2817, -0.28484532, -0.2179683, -37022.89, -37022.89, 0.0, 5.000996, 4.9655275 
3.7825677e+2, 3.149083e+2, -47895.715, -70129.06, -12815.667, -0.36752135, -0.2952779, -42047.08, -42047.08, 0.0, 4.995692, 4.969117 
3.8386297e+2, 1.2144163e+2, -1669346.9, -1745273.9, -1.610694, 0.005707206, 0.006220149, -1669346.9, 80522.22, 0.0, 5.0319586, 4.982362 
3.8385698e+2, 1.2641785e+2, -1628688.1, -1710227.6, -3755.6384, 0.011677725, -0.016279873, -1628515.5, 72584.21, 0.0, 5.0313115, 4.978138 
3.8384944e+2, 1.3139634e+2, -1581844.1, -1662342.9, -3981.761, 0.007797042, -0.013711478, -1581647.6, 70663.67, 0.0, 5.030621, 4.978137 
3.8384193e+2, 1.363748e+2, -1537138.8, -1618884.3, -4190.127, 0.0039350004, -0.009898458, -1536924.6, 66598.6, 0.0, 5.0299306, 4.976665 
3.838324e+2, 1.4135097e+2, -1495311.5, -1581120.5, -8249.741, 0.0017784326, 0.008159621, -1494525.6, 60232.19, 0.0, 5.02917, 4.973264 
3.8381937e+2, 1.4632486e+2, -1448159.4, -1531663.5, -9071.127, 0.00064891647, 0.0066051884, -1447185.4, 58829.707, 0.0, 5.0282607, 4.973862 
3.838062e+2, 1.5129869e+2, -1401886.9, -1484008.1, -9268.745, -0.00064696383, 0.0035539847, -1400853.8, 56419.305, 0.0, 5.0273447, 4.973861 
3.837931e+2, 1.562725e+2, -1356995.6, -1439258.8, -9456.3125, -0.0019523038, 0.00094809703, -1355922.6, 52608.547, 0.0, 5.0264287, 4.9728837 
3.837784e+2, 1.6124323e+2, -1316457.0, -1403366.1, -12645.176, -0.0028027475, 0.0030522486, -1314654.5, 45164.188, 0.0, 5.025441, 4.9689755 
3.8376093e+2, 1.6621254e+2, -1269972.4, -1354115.4, -13501.216, -0.0014095481, -0.0016711964, -1267859.1, 43258.953, 0.0, 5.0242624, 4.9696016 
3.8374344e+2, 1.7118195e+2, -1224390.4, -1306724.0, -13775.8955, 0.0002103186, -0.0062411097, -1222146.5, 40269.832, 0.0, 5.0230727, 4.969604 
3.837259e+2, 1.7615137e+2, -1179917.4, -1261708.3, -14049.577, 0.0018781136, -0.0104145305, -1177571.4, 36143.21, 0.0, 5.0218825, 4.968801 
3.8370752e+2, 1.8111816e+2, -1140392.3, -1227150.8, -16180.234, 0.0045733145, -0.0048781573, -1137472.9, 27565.865, 0.0, 5.020665, 4.9644704 
3.8368735e+2, 1.8608373e+2, -1093980.1, -1177632.6, -16795.408, 0.009179898, -0.003072864, -1090734.0, 25641.672, 0.0, 5.0193763, 4.9652004 
3.836671e+2, 1.9104941e+2, -1048572.7, -1130251.5, -16960.39, 0.013921249, -0.0012639143, -1045190.94, 22520.676, 0.0, 5.018082, 4.9652033 
3.8364688e+2, 1.960151e+2, -1004033.06, -1084762.3, -17124.088, 0.01881173, 0.00096264627, -1000550.94, 18496.377, 0.0, 5.0167885, 4.9645557 
3.8362598e+2, 2.0097767e+2, -965564.8, -1053023.1, -18000.87, 0.0210052, 0.010981393, -962004.75, 8409.403, 0.0, 5.015615, 4.9591527 
3.836036e+2, 2.0593743e+2, -918129.06, -1002600.7, -18056.021, 0.016746208, 0.006421097, -914431.4, 7377.962, 0.0, 5.0145736, 4.9600296 
3.8358125e+2, 2.1089722e+2, -871917.2, -954773.6, -17973.957, 0.012417482, 0.0004868641, -868186.1, 5018.2417, 0.0, 5.013518, 4.9600286 
3.8355887e+2, 2.1585703e+2, -826350.94, -908384.44, -17897.895, 0.008307253, -0.0050703003, -822616.06, 1983.1627, 0.0, 5.012461, 4.9595284 
3.8353702e+2, 2.2081399e+2, -785622.75, -872200.7, -16894.316, 0.005175012, -0.006095315, -782442.9, -6423.837, 0.0, 5.0113144, 4.9555306 
3.8351667e+2, 2.2576895e+2, -738381.06, -820417.4, -16672.904, 0.004876597, -0.029629681, -735122.0, -7672.764, 0.0, 5.009898, 4.9569883 
3.8349646e+2, 2.3072404e+2, -693053.9, -772843.44, -16785.023, 0.005279282, -0.054426298, -689666.7, -10789.261, 0.0, 5.0084677, 4.9570184 
3.8347632e+2, 2.3567916e+2, -648353.4, -726693.0, -16910.484, 0.006381178, -0.07888489, -644858.94, -14553.941, 0.0, 5.007032, 4.9565463 
3.8345748e+2, 2.4063309e+2, -615064.6, -705303.8, -14586.771, 0.008544144, -0.058687136, -612765.3, -31015.787, 0.0, 5.005536, 4.94744 
3.8344023e+2, 2.4558736e+2, -566985.2, -652403.06, -14136.711, 0.012558615, -0.009150889, -564706.3, -31497.307, 0.0, 5.004195, 4.949158 
3.834229e+2, 2.5054133e+2, -521054.9, -604917.9, -13821.55, 0.016801735, 0.03176618, -518835.7, -34162.414, 0.0, 5.002895, 4.9490438 
3.8340577e+2, 2.5549528e+2, -475341.34, -557984.6, -13487.053, 0.021237073, 0.07387016, -473196.0, -37058.55, 0.0, 5.001581, 4.9487314 
3.833896e+2, 2.604426e+2, -432595.5, -516863.88, -8281.159, 0.014641693, 0.08897346, -431789.4, -44132.566, 0.0, 5.000165, 4.9459796 
3.8338012e+2, 2.653851e+2, -380155.0, -445742.34, -5153.0474, -0.0075139483, -0.07127361, -379752.6, -40570.38, 0.0, 4.9972153, 4.953807 
3.8337287e+2, 2.7032897e+2, -337946.47, -397363.38, -5388.8857, -0.018289011, -0.25217238, -337461.7, -46772.563, 0.0, 4.9939675, 4.9545436 
3.8336703e+2, 2.752736e+2, -295667.66, -349166.88, -5956.7573, -0.016651995, -0.4360661, -295012.44, -52823.645, 0.0, 4.9906473, 4.9552345 
3.833455e+2, 2.8022978e+2, -305163.13, -462011.56, -30097.195, -0.01893423, -0.19020371, -299586.16, -105997.625, 0.0, 4.995336, 4.8981934 
3.833201e+2, 2.8518203e+2, -200350.7, -304970.53, -7436.142, -0.031672146, 0.12773503, -199824.81, -54731.16, 0.0, 5.000569, 4.932561 
3.833079e+2, 2.9012072e+2, -152935.53, -254019.67, -6060.628, -0.031167014, 0.12784413, -152573.45, -55833.04, 0.0, 4.9999776, 4.9330716 
3.8329723e+2, 2.9505873e+2, -105423.69, -203176.78, -5252.4795, -0.021112343, 0.11224897, -105142.27, -56747.98, 0.0, 4.99917, 4.9335823 
3.8328612e+2, 3.0000132e+2, -50287.94, -104008.64, -4970.428, -0.037546, 0.022746937, -49831.93, -49831.93, 0.0, 4.998809, 4.9605665 
3.8327554e+2, 3.0496272e+2, -40652.11, -87572.914, -5771.7793, -0.1440364, -0.11737421, -39952.547, -39952.547, 0.0, 5.0005155, 4.9634514 
3.8327125e+2, 3.0993673e+2, -33465.07, -79608.91, -5423.993, -0.21226932, -0.18500958, -32836.08, -32836.08, 0.0, 5.002218, 4.965139 
3.8327265e+2, 3.149164e+2, -26071.95, -71843.9, -5413.92, -0.23413932, -0.2097487, -25440.305, -25440.305, 0.0, 5.0036526, 4.9668307 
3.888942e+2, 1.2144452e+2, -1670557.5, -1747752.1, -295.84293, -0.0016026638, 0.010953096, -1670556.4, 79285.08, 0.0, 5.0319595, 4.981548 
3.8888884e+2, 1.2641975e+2, -1629100.8, -1711091.5, -4278.9565, 0.016897773, -0.017936893, -1628878.0, 72204.24, 0.0, 5.031314, 4.977854 
3.8888025e+2, 1.3139802e+2, -1582253.9, -1663205.3, -4504.0234, 0.009620011, -0.014744463, -1582004.0, 70291.836, 0.0, 5.0306234, 4.9778523 
3.888717e+2, 1.3637626e+2, -1537544.0, -1619741.5, -4711.003, 0.002348622, -0.010304839, -1537274.9, 66234.87, 0.0, 5.0299335, 4.9763813 
3.8886118e+2, 1.4135219e+2, -1495662.9, -1581878.1, -8913.679, -0.0018432273, 0.00808944, -1494751.0, 59995.504, 0.0, 5.0291743, 4.973014 
3.8884735e+2, 1.4632583e+2, -1448502.1, -1532408.4, -9766.198, -0.0018848602, 0.0063218246, -1447380.5, 58625.36, 0.0, 5.0282655, 4.973615 
3.8883343e+2, 1.5129937e+2, -1402227.3, -1484750.5, -9963.533, -0.0019822796, 0.0030337025, -1401041.4, 56224.594, 0.0, 5.0273495, 4.973614 
3.8881952e+2, 1.5627292e+2, -1357332.0, -1439995.3, -10150.108, -0.0020967256, 0.00018694969, -1356104.0, 52422.297, 0.0, 5.0264335, 4.9726377 
3.888039e+2, 1.612434e+2, -1316871.9, -1404277.4, -13501.687, -0.0019017237, 0.0024887305, -1314833.8, 44982.418, 0.0, 5.025447, 4.9686728 
3.8878533e+2, 1.6621253e+2, -1270427.8, -1355123.5, -14403.507, 0.00007839231, -0.000794203, -1268045.3, 43072.875, 0.0, 5.0242696, 4.9692655 
3.887667e+2, 1.7118175e+2, -1224839.4, -1307729.1, -14676.49, 0.002224493, -0.0038686153, -1222317.4, 40101.613, 0.0, 5.023081, 4.9692674 
3.8874805e+2, 1.7615098e+2, -1180359.9, -1262709.9, -14948.165, 0.0043848874, -0.0065674214, -1177730.5, 35989.484, 0.0, 5.0218916, 4.9684644 
3.887284e+2, 1.8111752e+2, -1140688.5, -1227848.4, -17145.57, 0.007034542, -0.00044529646, -1137437.0, 27610.1, 0.0, 5.0206747, 4.9642363 
3.887068e+2, 1.8608274e+2, -1094221.4, -1178220.3, -17776.137, 0.010393186, -0.000092048096, -1090614.4, 25773.092, 0.0, 5.0193863, 4.965003 
3.8868517e+2, 1.9104806e+2, -1048808.1, -1130833.8, -17938.637, 0.013801782, 0.00014752183, -1045056.56, 22670.416, 0.0, 5.0180936, 4.9650064 
3.8866353e+2, 1.9601338e+2, -1004262.75, -1085339.3, -18099.713, 0.017306715, 0.00075563876, -1000405.6, 18660.688, 0.0, 5.016801, 4.9643598 
3.8864133e+2, 2.0097566e+2, -965367.75, -1052612.3, -18809.412, 0.018279716, 0.008506816, -961485.3, 8950.164, 0.0, 5.0156174, 4.9592953 
3.8861793e+2, 2.0593552e+2, -917922.94, -1002175.3, -18859.348, 0.014058695, 0.0033700024, -913894.06, 7934.608, 0.0, 5.0145755, 4.96018 
3.8859448e+2, 2.1089542e+2, -871694.56, -954345.44, -18768.373, 0.009852378, -0.0027392427, -867632.3, 5589.03, 0.0, 5.0135245, 4.960179 
3.8857105e+2, 2.1585533e+2, -826111.8, -907953.56, -18683.32, 0.005765326, -0.008587736, -822048.4, 2565.4492, 0.0, 5.0124726, 4.959678 
3.8854823e+2, 2.208125e+2, -785515.6, -872117.56, -17836.13, 0.0038847765, -0.0088156015, -781986.0, -5954.745, 0.0, 5.011332, 4.955565 
3.8852695e+2, 2.2576791e+2, -738378.9, -820696.06, -17666.426, 0.008193978, -0.02665154, -734747.6, -7288.6343, 0.0, 5.0099325, 4.956899 
3.8850582e+2, 2.3072346e+2, -692998.25, -773113.1, -17756.727, 0.013065106, -0.04555147, -689239.0, -10353.981, 0.0, 5.008519, 4.956925 
3.8848478e+2, 2.35679e+2, -648244.5, -726953.94, -17860.252, 0.018259265, -0.06451661, -644381.4, -14070.491, 0.0, 5.0071006, 4.956448 
3.8846463e+2, 2.4063294e+2, -614126.06, -703989.8, -15704.311, 0.021079125, -0.045405548, -611460.7, -29704.004, 0.0, 5.005639, 4.947875 
3.8844565e+2, 2.4558665e+2, -566194.6, -651413.7, -15224.918, 0.02122159, -0.0048391167, -563556.3, -30335.584, 0.0, 5.0042915, 4.949498 
3.8842672e+2, 2.5054014e+2, -520334.9, -603934.8, -14884.279, 0.02207395, 0.02862492, -517763.94, -33075.582, 0.0, 5.0029674, 4.949398 
3.8840792e+2, 2.5549367e+2, -474691.66, -557007.56, -14524.281, 0.023104224, 0.06354235, -472204.1, -36048.563, 0.0, 5.0016303, 4.949099 
3.8839072e+2, 2.604412e+2, -430754.6, -513736.75, -9033.35, 0.018469274, 0.073874146, -429782.63, -42111.133, 0.0, 5.0002522, 4.94715 
3.8838157e+2, 2.6538527e+2, -377765.1, -443344.63, -5610.4277, 0.01578122, -0.076478064, -377288.56, -38110.223, 0.0, 4.997539, 4.954762 
3.8837448e+2, 2.7033037e+2, -334943.47, -395313.4, -5503.7485, 0.021866621, -0.24808727, -334445.8, -43775.55, 0.0, 4.9945297, 4.9553165 
3.883687e+2, 2.7527574e+2, -292051.8, -347465.88, -5727.9565, 0.035960745, -0.42606378, -291465.9, -49306.08, 0.0, 4.991448, 4.9558253 
3.883491e+2, 2.8023127e+2, -302463.16, -454003.66, -24086.877, 0.016982565, -0.19989143, -298726.75, -105163.69, 0.0, 4.99509, 4.900863 
3.883246e+2, 2.8518343e+2, -202642.11, -304153.22, -7904.9146, -0.0076710335, 0.102255225, -202030.22, -56960.938, 0.0, 4.9995837, 4.933008 
3.8831148e+2, 2.901227e+2, -154764.48, -254239.33, -5990.9194, -0.0032359725, 0.105540305, -154404.98, -57693.9, 0.0, 4.9992146, 4.9331713 
3.8829973e+2, 2.95061e+2, -106788.66, -204429.55, -4645.516, 0.00435735, 0.09452429, -106568.13, -58206.242, 0.0, 4.998629, 4.9333353 
3.8828826e+2, 3.0000472e+2, -49153.445, -102283.28, -2294.3855, -0.01821817, 0.0148504805, -49054.55, -49054.55, 0.0, 4.998574, 4.961379 
3.8828084e+2, 3.0496672e+2, -36723.844, -83030.3, -725.45276, -0.122706406, -0.13311628, -36712.48, -36712.48, 0.0, 5.0007887, 4.9651513 
3.8827968e+2, 3.0993962e+2, -27700.703, -73759.484, 663.6742, -0.20234251, -0.22984073, -27691.14, -27691.14, 0.0, 5.0029664, 4.967016 
3.8828367e+2, 3.149174e+2, -18478.85, -64689.957, 1715.5095, -0.25262013, -0.2982518, -18415.252, -18415.252, 0.0, 5.004877, 4.968886 
3.939255e+2, 1.2144738e+2, -1671701.6, -1750093.4, -594.04425, -0.0085537415, 0.015376678, -1671697.1, 78117.055, 0.0, 5.0319605, 4.9807787 
3.9392066e+2, 1.2642166e+2, -1629513.6, -1711955.4, -4801.8853, 0.02210053, -0.019544277, -1629234.9, 71829.98, 0.0, 5.0313163, 4.9775696 
3.9391106e+2, 1.313997e+2, -1582663.9, -1664067.5, -5025.897, 0.011429222, -0.015746662, -1582354.8, 69925.695, 0.0, 5.0306263, 4.9775677 
3.9390147e+2, 1.3637772e+2, -1537949.5, -1620598.8, -5231.508, 0.00075201376, -0.010699278, -1537619.6, 65876.68, 0.0, 5.0299363, 4.976098 
3.9389e+2, 1.4135341e+2, -1496018.4, -1582644.9, -9577.314, -0.0054738317, 0.008028049, -1494972.3, 59762.88, 0.0, 5.029179, 4.97276 
3.9387536e+2, 1.4632677e+2, -1448844.9, -1533153.5, -10461.298, -0.0044260374, 0.006042004, -1447566.3, 58430.36, 0.0, 5.0282707, 4.9733677 
3.9386064e+2, 1.5130006e+2, -1402567.6, -1485493.1, -10658.35, -0.0033231915, 0.002508197, -1401219.6, 56039.277, 0.0, 5.0273542, 4.973367 
3.9384592e+2, 1.5627334e+2, -1357668.4, -1440731.9, -10843.937, -0.0022449393, -0.00058817904, -1356276.0, 52245.36, 0.0, 5.0264387, 4.972392 
3.938294e+2, 1.6124357e+2, -1317289.0, -1405193.6, -14358.9795, -0.0009877242, 0.0019425759, -1315003.0, 44810.508, 0.0, 5.0254526, 4.968368 
3.9380974e+2, 1.6621251e+2, -1270883.4, -1356131.6, -15304.872, 0.0015879581, 0.0000955788, -1268219.0, 42899.156, 0.0, 5.0242767, 4.9689293 
3.9378995e+2, 1.7118153e+2, -1225288.8, -1308734.1, -15576.159, 0.004261555, -0.001503601, -1222476.0, 39945.664, 0.0, 5.023089, 4.9689307 
3.9377016e+2, 1.7615058e+2, -1180802.8, -1263711.4, -15845.824, 0.0069158166, -0.0027480396, -1177877.4, 35847.844, 0.0, 5.0219007, 4.9681277 
3.9374933e+2, 1.8111688e+2, -1140992.3, -1228561.8, -18113.402, 0.009559252, 0.0040412345, -1137393.5, 27661.855, 0.0, 5.0206847, 4.963997 
3.9372635e+2, 1.8608174e+2, -1094463.0, -1178807.9, -18757.248, 0.011683404, 0.0029472846, -1090479.6, 25919.584, 0.0, 5.0193973, 4.964805 
3.9370328e+2, 1.9104668e+2, -1049043.9, -1131415.9, -18917.262, 0.013752917, 0.0015780228, -1044907.1, 22835.209, 0.0, 5.0181055, 4.9648094 
3.936802e+2, 1.9601166e+2, -1004492.75, -1085916.3, -19075.719, 0.015865985, 0.0005282878, -1000245.25, 18839.947, 0.0, 5.0168133, 4.964163 
3.9365667e+2, 2.0097367e+2, -965206.25, -1052277.9, -19631.71, 0.015607088, 0.006204419, -960984.7, 9472.084, 0.0, 5.0156193, 4.9594107 
3.936322e+2, 2.0593362e+2, -917718.6, -1001748.94, -19657.348, 0.0114122145, 0.00047033076, -913347.5, 8500.396, 0.0, 5.014578, 4.960328 
3.936077e+2, 2.1089363e+2, -871473.7, -953916.3, -19557.463, 0.0072986046, -0.005956163, -867069.44, 6168.7983, 0.0, 5.0135317, 4.960327 
3.935832e+2, 2.1585365e+2, -825874.44, -907521.6, -19463.418, 0.0032050656, -0.012238075, -821472.0, 3156.4888, 0.0, 5.012484, 4.959826 
3.9355943e+2, 2.2081105e+2, -785434.8, -872080.4, -18789.592, 0.002794543, -0.0113567505, -781535.7, -5492.456, 0.0, 5.0113497, 4.955581 
3.9353725e+2, 2.2576693e+2, -738385.56, -820966.5, -18652.143, 0.0118738795, -0.023489581, -734368.1, -6899.771, 0.0, 5.009967, 4.9568076 
3.9351526e+2, 2.3072289e+2, -692951.44, -773374.56, -18720.615, 0.02121197, -0.036765534, -688807.3, -9914.882, 0.0, 5.008571, 4.956829 
3.9349332e+2, 2.3567884e+2, -648144.44, -727206.7, -18802.191, 0.030496903, -0.050509717, -643900.8, -13584.192, 0.0, 5.0071697, 4.956348 
3.9347193e+2, 2.4063283e+2, -613432.94, -703171.5, -16775.104, 0.033836752, -0.031195046, -610399.6, -28636.154, 0.0, 5.005742, 4.9481316 
3.934512e+2, 2.45586e+2, -565425.2, -650405.06, -16308.411, 0.030013463, 0.0008278113, -562402.94, -29171.07, 0.0, 5.004388, 4.949832 
3.9343056e+2, 2.50539e+2, -519635.88, -602932.44, -15942.318, 0.027419928, 0.026268201, -516688.9, -31985.848, 0.0, 5.00304, 4.9497457 
3.934101e+2, 2.5549212e+2, -474062.88, -556011.25, -15556.843, 0.024990052, 0.053429127, -471209.0, -35035.65, 0.0, 5.0016794, 4.9494605 
3.9339182e+2, 2.6043978e+2, -429080.25, -510771.3, -9668.315, 0.02217758, 0.058761716, -427951.56, -40265.242, 0.0, 5.0003395, 4.948224 
3.9338335e+2, 2.6538536e+2, -375494.0, -440840.03, -5789.928, 0.040562123, -0.08522111, -374984.97, -35809.3, 0.0, 4.997863, 4.955657 
3.9337698e+2, 2.703315e+2, -332059.63, -393154.7, -5340.5034, 0.06520992, -0.2523011, -331596.3, -40942.18, 0.0, 4.995092, 4.95603 
3.9337167e+2, 2.752774e+2, -288555.47, -345654.22, -5220.81, 0.09346462, -0.4291189, -288082.03, -45946.938, 0.0, 4.992248, 4.956357 
3.933524e+2, 2.8023297e+2, -302711.75, -452768.7, -19449.273, 0.0496323, -0.20570311, -300231.88, -106696.22, 0.0, 4.994865, 4.9011846 
3.9332753e+2, 2.8518555e+2, -205276.14, -302996.47, -7743.2383, 0.0081903525, 0.09369369, -204666.38, -59628.555, 0.0, 4.9985976, 4.933396 
3.933139e+2, 2.901252e+2, -156934.73, -254120.58, -5291.9307, 0.019900328, 0.095064215, -156647.44, -59971.164, 0.0, 4.9984508, 4.9332113 
3.933015e+2, 2.9506373e+2, -108493.51, -205345.13, -3410.3308, 0.028366761, 0.08354566, -108373.57, -60047.945, 0.0, 4.9980874, 4.9330277 
3.9328966e+2, 3.0000776e+2, -48914.07, -101426.15, 603.7198, -0.0014485598, 0.0058796476, -48907.13, -48907.13, 0.0, 4.998338, 4.961714 
3.9328524e+2, 3.0496946e+2, -33216.06, -78083.63, 4156.8413, -0.11476422, -0.16248785, -32834.188, -32834.188, 0.0, 5.0010614, 4.966726 
3.932872e+2, 3.0994084e+2, -22360.137, -67511.93, 6581.862, -0.21623929, -0.3012123, -21420.25, -21420.25, 0.0, 5.003715, 4.968768 
3.9329377e+2, 3.1491616e+2, -11314.159, -57144.707, 8669.06, -0.30533868, -0.4261782, -9729.181, -9729.181, 0.0, 5.006102, 4.9708157 
3.989569e+2, 1.2145024e+2, -1671436.8, -1751622.6, -424.986, -0.014398215, 0.019315166, -1671434.5, 78352.32, 0.0, 5.032407, 4.9800587 
3.9895248e+2, 1.2642366e+2, -1628756.9, -1712257.5, -4876.446, 0.026798015, -0.020891573, -1628473.1, 72573.4, 0.0, 5.031713, 4.9772778 
3.9894187e+2, 1.3140146e+2, -1582037.8, -1664434.6, -5140.4644, 0.013004052, -0.016577275, -1581718.4, 70545.98, 0.0, 5.0309796, 4.977276 
3.9893126e+2, 1.3637924e+2, -1537465.5, -1621033.4, -5382.995, -0.00079176005, -0.011015242, -1537120.1, 66362.18, 0.0, 5.030241, 4.975807 
3.9891884e+2, 1.4135468e+2, -1495631.8, -1583063.8, -9901.107, -0.008864338, 0.007982183, -1494524.5, 60198.777, 0.0, 5.029436, 4.9724994 
3.9890337e+2, 1.4632776e+2, -1448566.6, -1533604.5, -10843.372, -0.0067876247, 0.005771994, -1447205.8, 58781.246, 0.0, 5.0284867, 4.973116 
3.9888784e+2, 1.5130079e+2, -1402417.1, -1486005.0, -11067.065, -0.0045386883, 0.0019956129, -1400976.6, 56274.99, 0.0, 5.0275273, 4.973116 
3.9887235e+2, 1.5627377e+2, -1357649.9, -1441303.9, -11277.848, -0.002305677, -0.0013383594, -1356156.1, 52360.09, 0.0, 5.0265656, 4.972142 
3.988549e+2, 1.6124378e+2, -1317446.5, -1405986.6, -14967.627, -0.000024669685, 0.001460543, -1314984.6, 44825.99, 0.0, 5.025548, 4.968061 
3.988341e+2, 1.6621251e+2, -1271060.0, -1356999.3, -15951.658, 0.0030581781, 0.0010162755, -1268194.6, 42923.25, 0.0, 5.024379, 4.968593 
3.988132e+2, 1.7118135e+2, -1225451.0, -1309594.1, -16216.743, 0.0061914674, 0.0008518433, -1222433.8, 39990.313, 0.0, 5.023195, 4.968595 
3.987923e+2, 1.7615019e+2, -1180965.3, -1264570.0, -16478.213, 0.009300016, 0.0010303963, -1177834.8, 35895.65, 0.0, 5.022006, 4.967792 
3.9877027e+2, 1.8111627e+2, -1140996.3, -1229133.9, -18802.445, 0.011969337, 0.008555009, -1137152.8, 27910.615, 0.0, 5.0207996, 4.963754 
3.9874583e+2, 1.860808e+2, -1094313.6, -1179206.6, -19455.139, 0.012920818, 0.006029549, -1090067.5, 26343.207, 0.0, 5.0195427, 4.9646063 
3.9872137e+2, 1.9104537e+2, -1048843.9, -1131794.0, -19619.855, 0.01371492, 0.0030494165, -1044437.3, 23319.924, 0.0, 5.0182686, 4.9646096 
3.9869693e+2, 1.9600998e+2, -1004283.2, -1086292.6, -19789.293, 0.01451647, 0.00036075618, -999757.7, 19346.082, 0.0, 5.01698, 4.9639626 
3.9867204e+2, 2.0097174e+2, -964728.44, -1051857.5, -20228.135, 0.013102039, 0.0042006876, -960261.25, 10216.348, 0.0, 5.0157456, 4.9594975 
3.986465e+2, 2.0593175e+2, -917358.6, -1001244.25, -20244.229, 0.008916298, -0.002208815, -912728.6, 9138.273, 0.0, 5.014635, 4.960474 
3.9862096e+2, 2.1089186e+2, -871318.9, -953507.56, -20167.668, 0.0048885695, -0.009137481, -866636.8, 6618.2266, 0.0, 5.013516, 4.960474 
3.9859542e+2, 2.1585198e+2, -825954.7, -907221.06, -20093.977, 0.0008207845, -0.016013546, -821257.7, 3385.449, 0.0, 5.012386, 4.959974 
3.9857066e+2, 2.2080961e+2, -785887.5, -872290.56, -19619.145, 0.0021006325, -0.013792728, -781641.3, -5586.3306, 0.0, 5.011189, 4.955584 
3.9854768e+2, 2.2576599e+2, -738954.1, -821434.4, -19442.348, 0.016061988, -0.020258049, -734600.94, -7123.5933, 0.0, 5.009806, 4.956723 
3.9852482e+2, 2.3072241e+2, -693684.25, -773925.2, -19421.113, 0.030067392, -0.02794627, -689230.8, -10331.85, 0.0, 5.008354, 4.9567423 
3.9850202e+2, 2.3567882e+2, -649219.8, -727920.5, -19406.15, 0.04387594, -0.036261704, -644694.75, -14373.806, 0.0, 5.0068355, 4.956259 
3.9847943e+2, 2.4063294e+2, -614595.25, -703472.9, -17320.309, 0.048188794, -0.015154039, -611339.2, -29571.104, 0.0, 5.005286, 4.9482427 
3.9845693e+2, 2.4558555e+2, -566475.44, -650135.8, -16830.93, 0.04041456, 0.008208929, -563216.3, -29975.28, 0.0, 5.003872, 4.950168 
3.9843458e+2, 2.50538e+2, -520949.75, -602766.06, -16456.068, 0.034234844, 0.024370257, -517763.94, -33047.32, 0.0, 5.0024376, 4.9500875 
3.984123e+2, 2.5549054e+2, -475705.6, -555971.6, -16113.99, 0.028097002, 0.042385783, -472591.4, -36400.297, 0.0, 5.000969, 4.949809 
3.983929e+2, 2.6043826e+2, -430440.25, -508706.53, -9747.968, 0.026966963, 0.041415174, -429244.4, -41542.277, 0.0, 4.999376, 4.94939 
3.983855e+2, 2.6538557e+2, -379548.47, -439687.44, -3885.327, 0.06959468, -0.10007886, -379298.5, -40126.734, 0.0, 4.9959035, 4.956942 
3.9838022e+2, 2.7033332e+2, -340649.44, -394128.72, -688.35693, 0.11730644, -0.2657204, -340640.6, -50008.87, 0.0, 4.99156, 4.95727 
3.9837596e+2, 2.752806e+2, -303168.34, -349387.94, 2942.834, 0.1652663, -0.4425858, -302981.72, -60885.78, 0.0, 4.9866214, 4.9575486 
3.983555e+2, 2.802377e+2, -328799.25, -468267.7, -4212.7793, 0.09222136, -0.20277408, -328672.13, -135192.77, 0.0, 4.9867353, 4.899333 
3.9832908e+2, 2.8519055e+2, -223202.03, -310250.1, 2379.38, 0.02526249, 0.10659363, -223137.05, -78158.28, 0.0, 4.9925947, 4.933116 
3.983153e+2, 2.9012963e+2, -167613.84, -258575.66, 1775.8455, 0.043879423, 0.0999394, -167579.19, -70956.414, 0.0, 4.9949827, 4.9328227 
3.9830258e+2, 2.9506743e+2, -114624.016, -208214.47, 1906.801, 0.054459106, 0.07939938, -114585.18, -66305.695, 0.0, 4.996237, 4.932524 
3.982905e+2, 3.0001053e+2, -52762.65, -101757.31, 6274.7085, 0.01637028, -0.008797884, -51971.816, -51971.816, 0.0, 4.9969616, 4.9619765 
3.9828905e+2, 3.0497175e+2, -41837.73, -75837.73, 12822.589, -0.11089512, -0.20714054, -37544.098, -37544.098, 0.0, 4.9971232, 4.968893 
3.9829433e+2, 3.0994272e+2, -45253.543, -70626.78, 17943.79, -0.23410502, -0.38723505, -35964.496, -35964.496, 0.0, 4.9945273, 4.971186 
3.9830372e+2, 3.1491765e+2, -55279.387, -68515.53, 22401.62, -0.3573436, -0.55792445, -38538.703, -38538.703, 0.0, 4.989218, 4.973483 
4.0399188e+2, 1.21454835e+2, -1661373.6, -1748031.3, 1102.1309, -0.009050337, 0.01923675, -1661359.6, 88382.27, 0.0, 5.036068, 4.9794464 
4.0398562e+2, 1.2642801e+2, -1619267.9, -1708525.1, -3552.931, 0.022651225, -0.018966395, -1619126.8, 81877.695, 0.0, 5.0350933, 4.9768553 
4.0397432e+2, 1.3140532e+2, -1573342.1, -1661107.0, -3933.4292, 0.010659769, -0.015154955, -1573166.3, 79060.72, 0.0, 5.0341015, 4.9768543 
4.03963e+2, 1.3638261e+2, -1529540.3, -1618093.4, -4293.6523, -0.0013016877, -0.01011352, -1529332.5, 74117.164, 0.0, 5.033109, 4.9753876 
4.0394974e+2, 1.413576e+2, -1488317.9, -1580271.4, -9025.725, -0.008106434, 0.008313564, -1487440.4, 67254.63, 0.0, 5.032067, 4.9721518 
4.0393323e+2, 1.4633033e+2, -1441881.4, -1531119.0, -10072.552, -0.0062050647, 0.0057504154, -1440758.6, 65203.656, 0.0, 5.030909, 4.9727745 
4.039166e+2, 1.5130296e+2, -1396353.5, -1483831.9, -10381.39, -0.004165252, 0.0016698771, -1395138.4, 62091.81, 0.0, 5.0297446, 4.972775 
4.0389997e+2, 1.5627559e+2, -1352194.5, -1439431.4, -10677.161, -0.0021028619, -0.0019436472, -1350906.8, 57591.59, 0.0, 5.02858, 4.971803 
4.038814e+2, 1.6124526e+2, -1312491.5, -1404322.1, -14512.705, -0.00014657225, 0.00089698064, -1310252.6, 49543.24, 0.0, 5.0273848, 4.96774 
4.038593e+2, 1.6621375e+2, -1266431.5, -1355507.6, -15515.565, 0.0021952868, 0.0012176521, -1263806.3, 47299.57, 0.0, 5.026109, 4.968269 
4.0383708e+2, 1.7118235e+2, -1221113.6, -1308248.4, -15780.171, 0.0046309023, 0.0018737973, -1218343.9, 44070.977, 0.0, 5.024829, 4.9682713 
4.0381488e+2, 1.7615095e+2, -1176901.3, -1263359.5, -16040.989, 0.0071080863, 0.0028976165, -1174021.1, 39702.805, 0.0, 5.0235486, 4.9674697 
4.0379155e+2, 1.8111679e+2, -1137033.9, -1227787.9, -18384.236, 0.009288759, 0.010871901, -1133451.3, 31608.338, 0.0, 5.022269, 4.9635143 
4.0376586e+2, 1.8608104e+2, -1090501.4, -1177910.5, -19082.309, 0.010217447, 0.007902303, -1086517.1, 29892.553, 0.0, 5.0209575, 4.9643807 
4.037401e+2, 1.9104536e+2, -1045172.5, -1130586.4, -19284.13, 0.011066529, 0.004504857, -1041020.5, 26738.545, 0.0, 5.0196404, 4.9643793 
4.0371436e+2, 1.9600971e+2, -1000710.75, -1085153.3, -19483.258, 0.011957943, 0.0014592443, -996432.2, 22676.178, 0.0, 5.018324, 4.9637275 
4.0368825e+2, 2.0097126e+2, -961370.4, -1050355.6, -20043.277, 0.011468493, 0.0049803783, -957064.2, 13419.922, 0.0, 5.016922, 4.9594655 
4.0366152e+2, 2.0593128e+2, -915438.06, -1000324.56, -20234.691, 0.009444283, -0.0014353578, -910861.44, 11011.752, 0.0, 5.0152936, 4.9604845 
4.036348e+2, 2.108914e+2, -870885.4, -953283.8, -20325.03, 0.007619818, -0.008267273, -866144.56, 7116.3936, 0.0, 5.0136538, 4.960486 
4.0360805e+2, 2.1585153e+2, -826969.2, -907669.6, -20421.6, 0.00583998, -0.014992267, -822095.7, 2553.0461, 0.0, 5.0120125, 4.959988 
4.03582e+2, 2.2080919e+2, -788343.9, -873666.7, -20194.572, 0.008468529, -0.01213845, -783805.5, -7745.089, 0.0, 5.0103583, 4.9554763 
4.0355733e+2, 2.2576581e+2, -742349.75, -823232.75, -20251.236, 0.020833638, -0.015056179, -737562.6, -10080.772, 0.0, 5.0086565, 4.9566073 
4.0353283e+2, 2.307226e+2, -697811.0, -775996.7, -20415.223, 0.0339133, -0.017995955, -692801.3, -13899.912, 0.0, 5.006951, 4.9566426 
4.0350845e+2, 2.3567948e+2, -653894.9, -730179.44, -20578.383, 0.047721572, -0.02068343, -648697.75, -18377.35, 0.0, 5.005244, 4.9561753 
4.0348437e+2, 2.4063374e+2, -618548.44, -703394.06, -18336.607, 0.05328658, -0.0013828193, -614755.2, -32988.23, 0.0, 5.00359, 4.94901 
4.0346047e+2, 2.4558571e+2, -570892.25, -650730.75, -17627.613, 0.04639228, 0.009705606, -567173.44, -33929.37, 0.0, 5.0021157, 4.9507327 
4.034366e+2, 2.5053748e+2, -525528.6, -603566.8, -17174.258, 0.040382553, 0.014852307, -521916.22, -37192.29, 0.0, 5.000643, 4.950602 
4.034128e+2, 2.5548926e+2, -480371.38, -556957.3, -16760.61, 0.033878714, 0.021355735, -476864.0, -40660.387, 0.0, 4.9991636, 4.950273 
4.0339205e+2, 2.6043716e+2, -434567.97, -507894.4, -11946.465, 0.03662853, 0.013939839, -432670.72, -44958.4, 0.0, 4.997505, 4.9505277 
4.0338358e+2, 2.653877e+2, -382987.66, -437057.94, -12186.424, 0.09692287, -0.09938021, -380368.0, -41212.46, 0.0, 4.9943485, 4.9585857 
4.0337712e+2, 2.7034044e+2, -341041.03, -387711.25, -15461.477, 0.1664716, -0.22612475, -336383.56, -45810.84, 0.0, 4.990961, 4.959748 
4.0337172e+2, 2.752943e+2, -298917.03, -338667.56, -18991.023, 0.23999333, -0.35840055, -291302.56, -49323.53, 0.0, 4.9875345, 4.9608645 
4.0335143e+2, 2.802542e+2, -310599.9, -441911.56, -20992.549, 0.1765442, -0.1597211, -307325.53, -113986.1, 0.0, 4.9898, 4.9081154 
4.0332624e+2, 2.8520125e+2, -224204.89, -319947.6, -7239.2266, 0.08272955, 0.095172375, -223660.61, -78770.52, 0.0, 4.993638, 4.93099 
4.03313e+2, 2.9013604e+2, -174329.69, -266493.63, -5385.1504, 0.08355094, 0.08866214, -174016.1, -77446.19, 0.0, 4.9935656, 4.931752 
4.0330073e+2, 2.9506928e+2, -124256.445, -213276.39, -4127.483, 0.08180277, 0.052586354, -124065.484, -75800.414, 0.0, 4.9934072, 4.932517 
4.0328962e+2, 3.0001098e+2, -59603.98, -94155.67, -719.2027, 0.04290616, -0.04622234, -59589.016, -59589.016, 0.0, 4.993557, 4.966135 
4.0329227e+2, 3.0497783e+2, -44618.535, -62333.21, -1275.3369, -0.0437153, -0.21107502, -44527.19, -44527.19, 0.0, 4.995323, 4.9746513 
4.0330213e+2, 3.0995893e+2, -36454.836, -49595.65, -2653.7861, -0.10422111, -0.30822042, -35939.14, -35939.14, 0.0, 4.9972734, 4.977916 
4.0331626e+2, 3.1494963e+2, -27897.602, -37256.89, -3975.2195, -0.14676827, -0.34128976, -26437.096, -26437.096, 0.0, 4.99911, 4.9811883 
4.0902874e+2, 1.2146035e+2, -1662189.0, -1749709.0, 419.06705, -0.0008931148, 0.01755691, -1662187.0, 87500.64, 0.0, 5.036069, 4.978896 
4.0901998e+2, 1.264335e+2, -1619967.6, -1709986.0, -4303.7476, 0.015192149, -0.015890334, -1619762.4, 81188.305, 0.0, 5.035096, 4.976375 
4.0900806e+2, 1.3141026e+2, -1574037.3, -1662564.4, -4683.324, 0.006873936, -0.012935622, -1573790.1, 78388.72, 0.0, 5.0341043, 4.976374 
4.0899613e+2, 1.3638698e+2, -1530230.5, -1619546.9, -5043.3438, -0.0014317185, -0.008755046, -1529946.6, 73460.73, 0.0, 5.0331125, 4.974908 
4.0898204e+2, 1.4136145e+2, -1488871.1, -1581451.1, -9888.691, -0.0058568367, 0.008847688, -1487826.8, 66831.086, 0.0, 5.032071, 4.9717627 
4.0896428e+2, 1.4633374e+2, -1442422.0, -1532279.8, -10953.633, -0.004595364, 0.005865694, -1441106.0, 64823.094, 0.0, 5.030914, 4.97239 
4.0894642e+2, 1.5130596e+2, -1396889.4, -1484989.4, -11261.978, -0.003340781, 0.001399838, -1395472.5, 61728.637, 0.0, 5.02975, 4.97239 
4.089285e+2, 1.5627815e+2, -1352724.1, -1440582.5, -11556.735, -0.0020734894, -0.0026014845, -1351229.4, 57243.86, 0.0, 5.028586, 4.97142 
4.0890867e+2, 1.6124745e+2, -1312939.5, -1405316.5, -15471.465, -0.0010291126, 0.00011085545, -1310417.3, 49357.125, 0.0, 5.0273924, 4.967409 
4.0888515e+2, 1.6621567e+2, -1266863.6, -1356478.0, -16487.078, 0.00019944392, 0.00092393754, -1263926.6, 47160.72, 0.0, 5.0261183, 4.9679446 
4.0886158e+2, 1.7118399e+2, -1221541.8, -1309217.4, -16750.967, 0.001505201, 0.0020982358, -1218450.4, 43948.88, 0.0, 5.0248384, 4.9679465 
4.0883797e+2, 1.7615232e+2, -1177324.9, -1264326.3, -17010.621, 0.0028381757, 0.0036372202, -1174117.3, 39593.96, 0.0, 5.0235586, 4.967145 
4.0881327e+2, 1.811179e+2, -1137363.8, -1228541.4, -19380.088, 0.004210944, 0.01194387, -1133415.5, 31634.174, 0.0, 5.0222764, 4.9632616 
4.0878633e+2, 1.8608193e+2, -1090817.5, -1178629.1, -20087.32, 0.0056009027, 0.009099686, -1086440.6, 29961.65, 0.0, 5.0209637, 4.964139 
4.087593e+2, 1.9104601e+2, -1045486.75, -1131302.6, -20288.58, 0.00699643, 0.0058435895, -1040931.9, 26822.273, 0.0, 5.019647, 4.9641376 
4.087323e+2, 1.9601013e+2, -1001023.06, -1085867.3, -20487.008, 0.008415858, 0.0029393248, -996335.1, 22770.734, 0.0, 5.0183306, 4.963486 
4.0870497e+2, 2.0097154e+2, -961468.3, -1050646.1, -21233.922, 0.009607063, 0.0067897346, -956670.5, 13812.798, 0.0, 5.0169334, 4.959367 
4.0867698e+2, 2.0593154e+2, -915483.1, -1000551.5, -21484.023, 0.011199327, 0.0010982815, -910365.25, 11507.328, 0.0, 5.0153112, 4.960407 
4.0864897e+2, 2.1089166e+2, -870919.6, -953523.0, -21566.977, 0.012876159, -0.005037408, -865627.7, 7632.984, 0.0, 5.0136757, 4.9604034 
4.0862098e+2, 2.1585177e+2, -826992.6, -907921.06, -21656.031, 0.014496506, -0.011099844, -821562.0, 3086.8135, 0.0, 5.0120387, 4.959901 
4.085934e+2, 2.208094e+2, -788511.44, -874254.7, -21434.182, 0.018256413, -0.007413085, -783451.9, -7390.4224, 0.0, 5.0103874, 4.9552765 
4.0856653e+2, 2.2576602e+2, -742485.06, -823784.75, -21511.75, 0.025097894, -0.0077967327, -737144.0, -9659.924, 0.0, 5.008691, 4.956421 
4.0853977e+2, 2.3072283e+2, -697923.1, -776530.0, -21662.488, 0.032117173, -0.008193234, -692348.7, -13443.889, 0.0, 5.0069914, 4.956458 
4.085131e+2, 2.3567967e+2, -653983.9, -730694.44, -21812.262, 0.03969075, -0.00864886, -648215.44, -17890.295, 0.0, 5.00529, 4.955993 
4.0848702e+2, 2.4063364e+2, -617294.5, -700871.7, -19566.781, 0.041782167, 0.004704369, -612940.44, -31165.254, 0.0, 5.003634, 4.9498663 
4.0846196e+2, 2.4558522e+2, -569944.06, -648883.4, -18787.248, 0.03804383, 0.0050276197, -565700.9, -32447.309, 0.0, 5.0021563, 4.9513707 
4.084369e+2, 2.5053677e+2, -524587.9, -601800.75, -18292.37, 0.035370745, 0.0025298442, -520473.47, -35740.695, 0.0, 5.0006843, 4.9512234 
4.084119e+2, 2.5548837e+2, -479437.72, -555272.06, -17837.143, 0.03221881, 0.001665768, -475451.72, -39240.074, 0.0, 4.9992065, 4.950878 
4.0839013e+2, 2.6043698e+2, -434902.1, -509590.34, -13237.847, 0.040557634, -0.0024307657, -432625.22, -44912.363, 0.0, 4.9976034, 4.950045 
4.0837932e+2, 2.6538897e+2, -384588.7, -443341.75, -13363.332, 0.09819052, -0.06841316, -381692.03, -42540.22, 0.0, 4.994685, 4.9565916 
4.0837005e+2, 2.7034265e+2, -341797.6, -393703.38, -16155.719, 0.16003674, -0.14759694, -337179.9, -46609.125, 0.0, 4.991533, 4.9577365 
4.0836182e+2, 2.75297e+2, -298830.9, -344373.8, -19202.64, 0.22337042, -0.237979, -291815.1, -49831.84, 0.0, 4.988341, 4.958836 
4.083413e+2, 2.8025237e+2, -297539.66, -408303.6, -20654.955, 0.16581976, -0.123122334, -293813.34, -100417.984, 0.0, 4.9893184, 4.9198155 
4.0831843e+2, 2.851959e+2, -227520.22, -316595.6, -8827.821, 0.08469029, 0.046868283, -226653.77, -81680.67, 0.0, 4.9922194, 4.932704 
4.0830612e+2, 2.9013082e+2, -176666.36, -263631.75, -6414.267, 0.0841963, 0.047888525, -176195.81, -79554.336, 0.0, 4.9924874, 4.9332094 
4.0829468e+2, 2.9506385e+2, -125617.8, -210905.39, -4598.5327, 0.078962475, 0.017035976, -125370.57, -77041.74, 0.0, 4.992669, 4.9337173 
4.082853e+2, 3.0000874e+2, -58655.125, -89099.0, 372.75525, 0.043150865, -0.052698586, -58650.563, -58650.563, 0.0, 4.993111, 4.968094 
4.0829155e+2, 3.0497822e+2, -45075.402, -61876.57, 1973.5017, -0.025538774, -0.17725417, -44846.703, -44846.703, 0.0, 4.995055, 4.9751325 
4.083047e+2, 3.0995902e+2, -35841.508, -47369.516, 1689.9198, -0.07704006, -0.25558734, -35598.887, -35598.887, 0.0, 4.997162, 4.9788227 
4.0832183e+2, 3.1494936e+2, -26217.467, -33267.125, 1462.0444, -0.118171796, -0.2790822, -25926.277, -25926.277, 0.0, 4.999156, 4.9825215 
4.1406554e+2, 1.2146587e+2, -1662927.9, -1751229.8, -262.50998, 0.0063747335, 0.015922956, -1662927.0, 86706.34, 0.0, 5.03607, 4.9783974 
4.1405433e+2, 1.26439e+2, -1620667.6, -1711447.1, -5054.184, 0.007719912, -0.0127776945, -1620387.0, 80509.88, 0.0, 5.0350995, 4.9758954 
4.140418e+2, 1.3141519e+2, -1574732.5, -1664021.9, -5432.839, 0.003082956, -0.010696232, -1574403.3, 77727.67, 0.0, 5.0341077, 4.975894 
4.140292e+2, 1.3639134e+2, -1530921.0, -1621000.6, -5792.686, -0.0015588963, -0.0073930304, -1530550.0, 72815.016, 0.0, 5.0331163, 4.9744277 
4.140143e+2, 1.4136527e+2, -1489428.0, -1582638.9, -10751.834, -0.003601224, 0.0093993405, -1488203.9, 66416.73, 0.0, 5.032076, 4.97137 
4.1399533e+2, 1.4633714e+2, -1442962.6, -1533440.9, -11834.299, -0.0029833645, 0.005997043, -1441440.4, 64455.652, 0.0, 5.030919, 4.9720054 
4.1397622e+2, 1.5130892e+2, -1397425.1, -1486147.1, -12142.15, -0.0025173402, 0.0011362018, -1395793.5, 61378.59, 0.0, 5.0297556, 4.9720054 
4.1395712e+2, 1.5628071e+2, -1353253.6, -1441733.9, -12435.901, -0.0020484703, -0.0032625762, -1351539.0, 56909.11, 0.0, 5.028592, 4.9710364 
4.1393593e+2, 1.6124965e+2, -1313389.6, -1406316.0, -16429.414, -0.0019123495, -0.0006727388, -1310570.5, 49182.426, 0.0, 5.0274005, 4.967076 
4.1391107e+2, 1.662176e+2, -1267295.8, -1357448.9, -17457.865, -0.0017907595, 0.000623123, -1264033.1, 47035.69, 0.0, 5.026127, 4.9676204 
4.1388607e+2, 1.7118564e+2, -1221969.9, -1310186.8, -17721.037, -0.0016099481, 0.0022995616, -1218543.1, 43840.555, 0.0, 5.024848, 4.9676213 
4.1386113e+2, 1.7615369e+2, -1177748.5, -1265293.4, -17979.523, -0.0014162712, 0.004337715, -1174199.8, 39498.74, 0.0, 5.0235686, 4.96682 
4.1383502e+2, 1.8111902e+2, -1137702.6, -1229315.3, -20379.217, -0.00084365194, 0.01303856, -1133373.9, 31665.898, 0.0, 5.0222845, 4.9630017 
4.138068e+2, 1.8608281e+2, -1091133.6, -1179348.0, -21092.338, 0.0010112863, 0.01034024, -1086349.8, 30045.098, 0.0, 5.020971, 4.963897 
4.137785e+2, 1.9104667e+2, -1045800.8, -1132019.1, -21293.033, 0.002955422, 0.0072167064, -1040828.9, 26920.322, 0.0, 5.019654, 4.963896 
4.137502e+2, 1.9601056e+2, -1001335.25, -1086581.5, -21490.764, 0.0049050283, 0.0044450117, -996223.9, 22879.527, 0.0, 5.018337, 4.9632444 
4.1372162e+2, 2.0097181e+2, -961585.56, -1050976.5, -22414.992, 0.0076246434, 0.008636519, -956279.8, 14202.7, 0.0, 5.0169454, 4.959254 
4.1369238e+2, 2.0593183e+2, -915530.0, -1000777.25, -22724.867, 0.012823388, 0.0035887293, -909850.5, 12021.608, 0.0, 5.0153294, 4.9603276 
4.1366315e+2, 2.1089192e+2, -870955.6, -953760.9, -22800.434, 0.01805627, -0.0019562088, -865092.7, 8167.832, 0.0, 5.013698, 4.9603195 
4.1363388e+2, 2.1585202e+2, -827017.8, -908171.2, -22881.975, 0.023131516, -0.0074614417, -821010.7, 3638.3152, 0.0, 5.012066, 4.9598117 
4.1360486e+2, 2.2080964e+2, -788689.8, -874861.75, -22682.57, 0.028281324, -0.002486574, -783083.94, -7021.692, 0.0, 5.010417, 4.9550686 
4.135758e+2, 2.2576627e+2, -742623.1, -824334.7, -22775.254, 0.029776782, -0.00028755196, -736703.8, -9217.982, 0.0, 5.0087256, 4.956232 
4.1354677e+2, 2.3072308e+2, -698037.9, -777061.3, -22912.734, 0.030783968, 0.0015793329, -691875.0, -12967.199, 0.0, 5.007032, 4.9562716 
4.1351786e+2, 2.356799e+2, -654075.56, -731207.3, -23049.115, 0.03217108, 0.0030759661, -647712.75, -17383.07, 0.0, 5.0053368, 4.955809 
4.1348976e+2, 2.4063358e+2, -616358.44, -699039.44, -20772.295, 0.030185698, 0.012182865, -611433.1, -29650.176, 0.0, 5.0036783, 4.950479 
4.134634e+2, 2.4558479e+2, -569006.9, -647028.5, -19894.541, 0.029429791, 0.0020413052, -564226.9, -30964.406, 0.0, 5.0021973, 4.951997 
4.134372e+2, 2.505361e+2, -523657.94, -600027.06, -19358.164, 0.030246038, -0.009143381, -519031.28, -34289.957, 0.0, 5.000726, 4.9518337 
4.13411e+2, 2.5548747e+2, -478514.78, -553579.1, -18861.387, 0.030598555, -0.018416502, -474042.0, -37822.35, 0.0, 4.999249, 4.9514723 
4.1338822e+2, 2.6043683e+2, -435505.97, -511784.5, -14517.6, 0.045056157, -0.018206758, -432836.38, -45123.29, 0.0, 4.9977026, 4.9493356 
4.133753e+2, 2.6539013e+2, -386261.78, -449582.03, -14469.779, 0.09884681, -0.043859947, -383111.88, -43962.746, 0.0, 4.9950233, 4.9544616 
4.1336346e+2, 2.7034438e+2, -342624.56, -399649.56, -16778.58, 0.15075457, -0.08610891, -338054.1, -47480.8, 0.0, 4.9921055, 4.9555893 
4.1335258e+2, 2.752989e+2, -298813.8, -350031.56, -19342.08, 0.20166637, -0.14521144, -292330.16, -50334.89, 0.0, 4.9891477, 4.956671 
4.133306e+2, 2.8025115e+2, -291053.06, -389773.06, -22922.12, 0.15383562, -0.076952755, -285990.34, -92544.77, 0.0, 4.988848, 4.926308 
4.133094e+2, 2.8519225e+2, -230974.58, -313118.44, -9953.888, 0.090559445, 0.036881685, -229785.61, -84746.65, 0.0, 4.990801, 4.93428 
4.132984e+2, 2.9012704e+2, -179139.4, -260644.64, -6982.0083, 0.08898911, 0.034003794, -178545.63, -81846.39, 0.0, 4.991409, 4.934528 
4.1328824e+2, 2.9505947e+2, -127113.1, -208408.94, -4609.315, 0.080507204, -0.0030490253, -126852.6, -78470.46, 0.0, 4.9919305, 4.934779 
4.1328058e+2, 3.000062e+2, -59110.707, -86813.07, 1326.9994, 0.04548127, -0.05824567, -59047.285, -59047.285, 0.0, 4.9926653, 4.968915 
4.1328973e+2, 3.0497682e+2, -45718.75, -61246.375, 4708.3306, -0.017813701, -0.1650182, -44402.633, -44402.633, 0.0, 4.9947867, 4.975358 
4.1330537e+2, 3.0995625e+2, -35416.55, -44976.2, 5517.04, -0.07456612, -0.25099066, -32896.754, -32896.754, 0.0, 4.9970503, 4.979473 
4.133247e+2, 3.1494516e+2, -24728.54, -29117.383, 6378.9937, -0.12852255, -0.29135218, -20177.07, -20177.07, 0.0, 4.9992013, 4.9835973 
4.1910225e+2, 1.2147143e+2, -1662454.8, -1752039.8, -389.7295, 0.012352935, 0.0140488995, -1662453.1, 87125.68, 0.0, 5.0364537, 4.977945 
4.1908878e+2, 1.264446e+2, -1620218.9, -1712336.0, -5262.5127, 0.0009795056, -0.009583492, -1619919.3, 80923.11, 0.0, 5.0354867, 4.9754157 
4.1907555e+2, 1.3142018e+2, -1574281.5, -1664911.0, -5643.463, -0.0003656069, -0.008477974, -1573931.5, 78150.62, 0.0, 5.034496, 4.975414 
4.1906235e+2, 1.3639577e+2, -1530480.3, -1621895.6, -6005.598, -0.0017047073, -0.0061411583, -1530087.4, 73234.68, 0.0, 5.0335, 4.973948 
4.190466e+2, 1.413692e+2, -1488887.9, -1583300.4, -11086.48, -0.0015885251, 0.009831581, -1487603.5, 66979.34, 0.0, 5.0324526, 4.970972 
4.190264e+2, 1.4634062e+2, -1442419.1, -1534081.8, -12213.961, -0.0015723646, 0.0060753403, -1440819.5, 65042.78, 0.0, 5.031293, 4.9716153 
4.1900605e+2, 1.5131198e+2, -1396892.5, -1486794.6, -12550.529, -0.0018388131, 0.0008764928, -1395173.4, 61969.04, 0.0, 5.030125, 4.9716153 
4.1898572e+2, 1.5628333e+2, -1352733.9, -1442386.4, -12871.954, -0.002109066, -0.0038682192, -1350922.4, 57500.152, 0.0, 5.0289564, 4.9706473 
4.1896325e+2, 1.6125189e+2, -1312823.4, -1406821.0, -16963.219, -0.0028085266, -0.001382124, -1309855.9, 49875.13, 0.0, 5.0277543, 4.966742 
4.18937e+2, 1.6621955e+2, -1266788.3, -1357955.9, -17999.607, -0.0037035798, 0.00031474838, -1263363.1, 47686.64, 0.0, 5.026455, 4.967298 
4.1891065e+2, 1.7118731e+2, -1221548.6, -1310738.1, -18255.64, -0.0045537753, 0.0024166338, -1217956.6, 44411.016, 0.0, 5.0251465, 4.9672985 
4.1888428e+2, 1.7615509e+2, -1177420.9, -1265891.1, -18506.646, -0.005401622, 0.0048910053, -1173705.5, 39979.902, 0.0, 5.0238357, 4.9664965 
4.188568e+2, 1.8112016e+2, -1137422.0, -1229809.4, -20941.232, -0.0055713737, 0.01403751, -1132897.0, 32132.453, 0.0, 5.0225096, 4.9627333 
4.188273e+2, 1.8608372e+2, -1090975.1, -1179848.4, -21682.12, -0.0033411745, 0.011563029, -1085967.6, 30419.436, 0.0, 5.0211425, 4.9636507 
4.1879773e+2, 1.9104737e+2, -1045782.94, -1132586.0, -21907.338, -0.0009458793, 0.008592072, -1040567.3, 27176.523, 0.0, 5.0197763, 4.9636497 
4.1876817e+2, 1.9601102e+2, -1001447.6, -1087209.5, -22127.758, 0.0014403749, 0.005939363, -996074.94, 23025.639, 0.0, 5.018413, 4.962999 
4.187383e+2, 2.0097211e+2, -961566.25, -1051269.9, -23236.348, 0.0054197945, 0.010436803, -955904.56, 14577.076, 0.0, 5.017011, 4.959125 
4.1870782e+2, 2.059321e+2, -915205.06, -1000806.75, -23630.135, 0.014101255, 0.0058905133, -909115.25, 12756.319, 0.0, 5.0154767, 4.9602504 
4.1867733e+2, 2.1089219e+2, -870419.56, -953696.25, -23710.576, 0.022926712, 0.00078964775, -864141.94, 9118.445, 0.0, 5.0139203, 4.9602404 
4.186468e+2, 2.1585226e+2, -826310.9, -908031.75, -23781.857, 0.031582993, -0.0042879456, -819893.94, 4755.33, 0.0, 5.01235, 4.959731 
4.1861635e+2, 2.208099e+2, -788032.4, -875043.3, -23588.54, 0.038583994, 0.0023911747, -782049.0, -5986.512, 0.0, 5.010749, 4.95486 
4.185852e+2, 2.257666e+2, -742020.8, -824537.2, -23673.129, 0.035428476, 0.007316959, -735711.6, -8224.846, 0.0, 5.0090346, 4.956031 
4.1855398e+2, 2.3072343e+2, -697744.8, -777437.06, -23834.215, 0.031058531, 0.011418792, -691160.5, -12250.658, 0.0, 5.007236, 4.9560623 
4.1852286e+2, 2.3568022e+2, -654313.8, -731852.6, -24046.799, 0.026924038, 0.014959714, -647461.8, -17128.648, 0.0, 5.0053587, 4.955592 
4.1849267e+2, 2.4063365e+2, -616472.3, -698236.5, -21835.723, 0.02070043, 0.021772282, -611006.4, -29217.021, 0.0, 5.0034785, 4.9508486 
4.18465e+2, 2.4558444e+2, -568665.7, -645314.44, -20836.842, 0.022221107, 0.00067958876, -563367.44, -30096.934, 0.0, 5.002034, 4.9526515 
4.1843754e+2, 2.505354e+2, -522992.84, -598155.56, -20148.854, 0.02600814, -0.021447407, -517932.28, -33182.105, 0.0, 5.000682, 4.9524937 
4.184101e+2, 2.554864e+2, -477421.9, -551505.9, -19395.63, 0.029326048, -0.041688025, -472651.25, -36422.055, 0.0, 4.9993634, 4.9521356 
4.1838634e+2, 2.6043653e+2, -436513.63, -514040.0, -14993.308, 0.05053454, -0.037575945, -433715.0, -46000.02, 0.0, 4.997762, 4.94853 
4.1837174e+2, 2.6539135e+2, -393855.88, -457867.7, -13916.503, 0.104941525, -0.027774105, -390961.25, -51815.7, 0.0, 4.993344, 4.952328 
4.1835788e+2, 2.703465e+2, -359385.6, -412131.28, -15181.809, 0.15364785, -0.038592637, -355327.97, -64755.688, 0.0, 4.987173, 4.9534135 
4.183449e+2, 2.7530155e+2, -328664.94, -368369.66, -17093.445, 0.20139055, -0.06948765, -322319.94, -80320.336, 0.0, 4.9795732, 4.9544554 
4.1832078e+2, 2.8025267e+2, -331851.53, -404685.88, -24848.246, 0.1762497, -0.004529295, -324181.9, -130712.71, 0.0, 4.9741597, 4.9274907 
4.183001e+2, 2.8519166e+2, -260831.11, -321945.34, -8112.1055, 0.12455926, 0.07423129, -259772.66, -114697.05, 0.0, 4.980118, 4.935532 
4.182905e+2, 2.9012507e+2, -195205.05, -263747.0, -5257.831, 0.11128007, 0.048487365, -194804.06, -98064.88, 0.0, 4.9855514, 4.935688 
4.1828173e+2, 2.9505607e+2, -133818.84, -207771.34, -2374.8281, 0.09244477, -0.012046376, -133742.66, -85316.27, 0.0, 4.989381, 4.93584 
4.1827577e+2, 3.0000305e+2, -63091.88, -87164.164, 4479.175, 0.052664183, -0.07068954, -62285.445, -62285.445, 0.0, 4.991421, 4.969005 
4.182872e+2, 3.0497414e+2, -60615.96, -65529.184, 9975.376, -0.010614759, -0.17574137, -52799.156, -52799.156, 0.0, 4.989456, 4.975706 
4.1830492e+2, 3.0995244e+2, -73995.45, -58527.95, 10903.848, -0.06994139, -0.28200227, -52893.65, -52893.65, 0.0, 4.982989, 4.980096 
4.1832644e+2, 3.149403e+2, -98849.04, -56920.65, 9917.726, -0.12499283, -0.34578305, -54693.06, -54693.06, 0.0, 4.9721365, 4.9845 
4.241406e+2, 1.2147908e+2, -1652133.1, -1748020.9, 1391.197, 0.010978459, 0.008389656, -1652113.0, 97390.15, 0.0, 5.040148, 4.977458 
4.2412654e+2, 1.2645267e+2, -1610360.5, -1708560.0, -3623.758, 0.004377518, -0.005925314, -1610227.0, 90535.555, 0.0, 5.039029, 4.97493 
4.2411202e+2, 1.3142757e+2, -1564921.8, -1661399.0, -4025.3757, 0.0010252701, -0.006829501, -1564754.1, 87254.95, 0.0, 5.0378785, 4.9749274 
4.2409754e+2, 1.3640246e+2, -1521600.4, -1618636.3, -4407.975, -0.0022692338, -0.0064751436, -1521400.5, 81855.27, 0.0, 5.036728, 4.9734607 
4.240805e+2, 1.4137526e+2, -1480430.9, -1580201.0, -9620.574, -0.0034173098, 0.008258698, -1479511.6, 75010.98, 0.0, 5.0355277, 4.970511 
4.240591e+2, 1.4634629e+2, -1434420.5, -1531253.5, -10829.468, -0.0032862185, 0.005155049, -1433224.1, 72582.26, 0.0, 5.034226, 4.9711404 
4.2403755e+2, 1.5131724e+2, -1389322.6, -1484191.5, -11239.194, -0.003399069, 0.00068651215, -1388009.3, 69081.63, 0.0, 5.0329194, 4.97114 
4.2401597e+2, 1.562882e+2, -1345583.4, -1439999.6, -11632.421, -0.0035140817, -0.0033404904, -1344171.4, 64204.152, 0.0, 5.031613, 4.970172 
4.2399222e+2, 1.6125634e+2, -1305943.0, -1404275.0, -15876.318, -0.0040780874, -0.00057702436, -1303443.3, 56244.754, 0.0, 5.030258, 4.966397 
4.2396456e+2, 1.6622362e+2, -1260416.1, -1355589.1, -16941.537, -0.0047875713, 0.0004234863, -1257490.4, 53519.965, 0.0, 5.028775, 4.966987 
4.239368e+2, 1.71191e+2, -1215724.4, -1308648.1, -17203.293, -0.005439414, 0.0018277875, -1212641.8, 49689.832, 0.0, 5.027285, 4.9669867 
4.239091e+2, 1.761584e+2, -1172131.5, -1264068.1, -17457.387, -0.0060843616, 0.0036438338, -1168928.1, 44724.62, 0.0, 5.025795, 4.966184 
4.2388016e+2, 1.8112315e+2, -1132695.6, -1228235.3, -19968.342, -0.0062316014, 0.012628324, -1128690.1, 36309.754, 0.0, 5.0242715, 4.962435 
4.2384908e+2, 1.8608652e+2, -1087027.8, -1178678.4, -20766.67, -0.0045856773, 0.011298339, -1082541.9, 33817.914, 0.0, 5.022643, 4.9633427 
4.2381793e+2, 1.9104996e+2, -1042616.06, -1131799.0, -21040.693, -0.0028349855, 0.009460367, -1037901.25, 29817.828, 0.0, 5.021008, 4.963341 
4.2378676e+2, 1.960134e+2, -999065.25, -1086805.8, -21312.541, -0.0011090371, 0.007840756, -994162.3, 24915.996, 0.0, 5.019373, 4.9626894 
4.2375535e+2, 2.0097429e+2, -959781.56, -1051111.8, -22522.023, 0.0021339948, 0.013270979, -954529.6, 15932.397, 0.0, 5.0177546, 4.958832 
4.2372334e+2, 2.0593408e+2, -913395.06, -1000560.94, -23136.055, 0.010445235, 0.009527433, -907634.8, 14219.915, 0.0, 5.01622, 4.959985 
4.236913e+2, 2.1089402e+2, -868518.9, -953370.75, -23463.314, 0.019231604, 0.0052776504, -862463.0, 10783.042, 0.0, 5.014694, 4.9599867 
4.2365932e+2, 2.1585393e+2, -824282.3, -907607.2, -23788.715, 0.028130006, 0.0011179792, -817969.1, 6668.1504, 0.0, 5.0131683, 4.9594893 
4.2362738e+2, 2.2081143e+2, -785644.94, -874136.1, -23778.498, 0.035440113, 0.008113265, -779660.1, -3607.5623, 0.0, 5.0116453, 4.9547396 
4.2359468e+2, 2.2576787e+2, -739220.5, -823488.3, -23839.34, 0.033467487, 0.011362357, -732943.9, -5464.739, 0.0, 5.010084, 4.9558997 
4.2356196e+2, 2.3072441e+2, -694355.5, -776260.3, -23878.049, 0.030679598, 0.01414283, -687902.6, -8997.981, 0.0, 5.008514, 4.9558873 
4.235292e+2, 2.3568095e+2, -650114.94, -730450.75, -23911.846, 0.028308563, 0.016926603, -643536.4, -13205.995, 0.0, 5.0069437, 4.9553723 
4.2349744e+2, 2.4063414e+2, -611725.75, -696445.5, -21859.135, 0.02441448, 0.023600638, -606418.25, -24629.799, 0.0, 5.0052114, 4.950708 
4.2346805e+2, 2.4558489e+2, -565206.2, -643540.1, -21801.244, 0.026273824, 0.0016759833, -559547.44, -26278.096, 0.0, 5.003236, 4.9527183 
4.234389e+2, 2.5053573e+2, -521198.56, -596768.56, -22236.49, 0.029487554, -0.022989206, -515141.03, -30391.99, 0.0, 5.001276, 4.9526634 
4.2340976e+2, 2.5548658e+2, -477401.63, -550532.6, -22684.39, 0.031916272, -0.047498804, -470936.72, -34707.79, 0.0, 4.99931, 4.9524107 
4.2338416e+2, 2.6043692e+2, -438460.06, -515143.66, -20015.64, 0.052719943, -0.04269484, -433550.06, -45836.64, 0.0, 4.9973555, 4.9481483 
4.2336756e+2, 2.6539278e+2, -390246.1, -457983.78, -20160.818, 0.1179438, -0.015905302, -384699.75, -45556.594, 0.0, 4.9953394, 4.95125 
4.2335215e+2, 2.7034938e+2, -344847.22, -407828.1, -21697.945, 0.19359222, 0.0012882402, -338095.66, -47530.55, 0.0, 4.993308, 4.952127 
4.2333803e+2, 2.7530667e+2, -299391.34, -357881.66, -23426.668, 0.28367305, 0.011054987, -291165.34, -49184.55, 0.0, 4.991246, 4.9529576 
4.2331466e+2, 2.8025913e+2, -280843.8, -382382.25, -28836.37, 0.33189708, 0.10445044, -273225.94, -79781.79, 0.0, 4.9922476, 4.9274893 
4.232941e+2, 2.851941e+2, -223262.78, -305042.4, -7234.0703, 0.252871, 0.13307264, -222627.8, -77546.2, 0.0, 4.9926696, 4.9363976 
4.2328352e+2, 2.901242e+2, -178464.66, -254017.88, -5125.4946, 0.18401454, 0.060171064, -178118.53, -81351.2, 0.0, 4.990643, 4.937231 
4.2327425e+2, 2.9505312e+2, -133505.64, -203108.97, -3455.9053, 0.12628332, -0.038319033, -133334.47, -84870.03, 0.0, 4.9885178, 4.938068 
4.232683e+2, 3.0000058e+2, -74890.78, -85619.45, 881.0548, 0.07198605, -0.11369532, -74818.91, -74818.91, 0.0, 4.9860682, 4.9719014 
4.2328018e+2, 3.049799e+2, -77420.45, -66844.8, 2080.041, 0.05553275, -0.15414645, -66450.4, -66450.4, 0.0, 4.9824104, 4.978507 
4.2329994e+2, 3.0996805e+2, -84552.75, -59804.45, 72.392296, 0.09584893, -0.16190498, -59804.234, -59804.234, 0.0, 4.9785843, 4.982033 
4.2332506e+2, 3.1496632e+2, -91353.73, -53096.37, -2855.0613, 0.18991536, -0.103390925, -52884.477, -52884.477, 0.0, 4.9746194, 4.9855647 
4.2918038e+2, 1.2148792e+2, -1652836.8, -1749470.0, 674.224, 0.007188984, 0.0017006806, -1652832.0, 96583.67, 0.0, 5.040148, 4.976983 
4.291662e+2, 1.2646206e+2, -1611092.3, -1710097.3, -4494.027, 0.010950502, -0.0021183959, -1610888.6, 89781.0, 0.0, 5.0390334, 4.9744244 
4.2915016e+2, 1.3143621e+2, -1565648.1, -1662931.8, -4894.588, 0.0039604153, -0.0053374637, -1565402.5, 86520.83, 0.0, 5.0378833, 4.974422 
4.291342e+2, 1.3641036e+2, -1522323.3, -1620168.1, -5278.516, -0.0029901036, -0.0073032044, -1522039.3, 81137.97, 0.0, 5.0367327, 4.9729543 
4.2911568e+2, 1.4138255e+2, -1481130.5, -1581699.0, -10599.986, -0.0065478105, 0.0060454863, -1480025.5, 74424.945, 0.0, 5.035534, 4.9700155 
4.2909297e+2, 1.4635316e+2, -1435140.5, -1532802.5, -11818.081, -0.006053904, 0.003928146, -1433730.8, 72008.016, 0.0, 5.034233, 4.970627 
4.290702e+2, 1.513237e+2, -1390037.5, -1485736.8, -12227.513, -0.005719937, 0.0005551079, -1388499.9, 68527.93, 0.0, 5.0329266, 4.970626 
4.2904738e+2, 1.5629426e+2, -1346292.3, -1441539.6, -12620.458, -0.0053951284, -0.0023744365, -1344648.4, 63668.53, 0.0, 5.0316205, 4.9696584 
4.2902228e+2, 1.61262e+2, -1306426.3, -1405358.4, -16983.695, -0.0055242535, 0.00085163704, -1303591.9, 56041.7, 0.0, 5.0302677, 4.966036 
4.2899323e+2, 1.6622883e+2, -1260837.1, -1356548.1, -18071.326, -0.00566496, 0.0007916665, -1257538.8, 53420.953, 0.0, 5.028785, 4.9666667 
4.2896402e+2, 1.711958e+2, -1216142.6, -1309604.8, -18333.0, -0.0057423157, 0.0010721426, -1212675.1, 49609.54, 0.0, 5.027295, 4.966666 
4.2893484e+2, 1.7616276e+2, -1172546.3, -1265021.4, -18586.375, -0.005823004, 0.0017678057, -1168950.4, 44659.188, 0.0, 5.0258055, 4.9658647 
4.289044e+2, 1.8112713e+2, -1133100.6, -1229179.8, -21192.875, -0.0057511153, 0.010249878, -1128633.6, 36326.316, 0.0, 5.0242834, 4.962117 
4.288716e+2, 1.8609034e+2, -1087443.9, -1179660.8, -22011.98, -0.0049086646, 0.010359748, -1082459.1, 33863.164, 0.0, 5.022657, 4.963011 
4.2883876e+2, 1.910536e+2, -1043025.9, -1132780.5, -22283.992, -0.004052311, 0.010097274, -1037797.8, 29885.947, 0.0, 5.021023, 4.9630084 
4.288059e+2, 1.9601688e+2, -999468.94, -1087786.8, -22553.658, -0.003244251, 0.010051776, -994042.8, 25002.49, 0.0, 5.019389, 4.9623556 
4.2877272e+2, 2.0097756e+2, -960227.0, -1052253.9, -23713.53, -0.0013427337, 0.017099569, -954475.94, 15955.641, 0.0, 5.01778, 4.9584417 
4.2873895e+2, 2.059371e+2, -913834.44, -1001727.5, -24292.48, 0.0047435565, 0.014725215, -907567.25, 14260.725, 0.0, 5.0162497, 4.959585 
4.287052e+2, 2.1089676e+2, -868954.06, -954538.9, -24616.813, 0.011217913, 0.011808622, -862378.7, 10844.297, 0.0, 5.014725, 4.9595857 
4.2867148e+2, 2.1585642e+2, -824713.44, -908777.06, -24939.164, 0.017730396, 0.008998041, -817871.6, 6746.4536, 0.0, 5.0132, 4.9590864 
4.2863786e+2, 2.2081356e+2, -785747.3, -874486.44, -24963.84, 0.023157114, 0.015491253, -779206.6, -3169.133, 0.0, 5.0116625, 4.954622 
4.286038e+2, 2.2576945e+2, -739233.56, -823578.7, -25056.035, 0.023184642, 0.013754814, -732351.75, -4883.141, 0.0, 5.010092, 4.955875 
4.285697e+2, 2.3072545e+2, -694373.9, -776348.8, -25090.684, 0.022877438, 0.011447016, -687303.94, -8405.41, 0.0, 5.0085196, 4.955864 
4.285356e+2, 2.3568146e+2, -650138.7, -730537.44, -25120.297, 0.02289502, 0.009186774, -642935.3, -12606.734, 0.0, 5.006947, 4.955351 
4.2850247e+2, 2.406344e+2, -612082.44, -697632.2, -23289.6, 0.022120686, 0.014845175, -606153.1, -24364.707, 0.0, 5.005263, 4.950295 
4.284714e+2, 2.4558574e+2, -565708.6, -645323.25, -23297.97, 0.026121208, 0.0043385993, -559392.0, -26128.553, 0.0, 5.0033174, 4.952099 
4.2844042e+2, 2.5053725e+2, -521702.72, -598589.9, -23713.762, 0.030761052, -0.007909927, -514977.16, -30240.383, 0.0, 5.0013585, 4.9520345 
4.284095e+2, 2.5548875e+2, -477907.38, -552392.2, -24142.156, 0.03445761, -0.019891959, -470766.9, -34556.645, 0.0, 4.999394, 4.951772 
4.283815e+2, 2.6043928e+2, -439268.2, -517947.06, -21223.086, 0.049598612, -0.0059345374, -433908.5, -46213.957, 0.0, 4.9974523, 4.947216 
4.2836124e+2, 2.653926e+2, -391164.66, -462047.03, -20978.111, 0.08979963, 0.008358464, -385421.4, -46263.734, 0.0, 4.9955378, 4.9498863 
4.2834213e+2, 2.7034602e+2, -345557.2, -412350.53, -22256.314, 0.13822442, 0.008770499, -338820.56, -48199.746, 0.0, 4.993624, 4.950589 
4.2832422e+2, 2.7529973e+2, -299891.47, -362862.44, -23726.596, 0.1987385, 0.00076745474, -291952.5, -49871.637, 0.0, 4.9916806, 4.9512463 
4.282998e+2, 2.8024936e+2, -280499.25, -382204.84, -30772.701, 0.24931994, 0.08209676, -271913.28, -78335.44, 0.0, 4.99231, 4.927463 
4.2828113e+2, 2.8518674e+2, -220568.48, -299057.34, -10278.899, 0.20575473, 0.11657172, -219244.69, -74061.36, 0.0, 4.992447, 4.9385204 
4.2827109e+2, 2.9011983e+2, -175583.2, -249020.28, -7731.1924, 0.15410988, 0.050850738, -174778.11, -77948.62, 0.0, 4.9905562, 4.9390645 
4.282623e+2, 2.9505163e+2, -130435.01, -199095.0, -5622.0073, 0.11048647, -0.038421728, -129977.71, -81489.65, 0.0, 4.988567, 4.9396124 
4.2825663e+2, 3.0000177e+2, -70824.914, -82517.72, -347.96054, 0.06915746, -0.104090236, -70814.57, -70814.57, 0.0, 4.9864597, 4.973184 
4.282672e+2, 3.0498672e+2, -70945.414, -64999.758, 2060.3413, 0.06517564, -0.09900335, -64355.582, -64355.582, 0.0, 4.9836903, 4.979155 
4.282851e+2, 3.0998003e+2, -75442.61, -57801.387, 1083.4716, 0.109802306, -0.06391215, -57735.09, -57735.09, 0.0, 4.9807153, 4.982412 
4.2830804e+2, 3.1498167e+2, -79602.55, -50940.62, -811.12085, 0.19834445, 0.018616, -50917.688, -50917.688, 0.0, 4.9776015, 4.985673 
4.3422017e+2, 1.2149679e+2, -1653451.1, -1750736.3, -27.349552, 0.003384747, -0.0046332353, -1653451.0, 95877.02, 0.0, 5.040148, 4.9765687 
4.3420586e+2, 1.2647143e+2, -1611824.1, -1711634.8, -5364.0713, 0.017493771, 0.0017185502, -1611536.6, 89040.11, 0.0, 5.0390377, 4.9739194 
4.3418837e+2, 1.3144486e+2, -1566374.6, -1664464.6, -5763.5767, 0.006870597, -0.003833747, -1566037.3, 85800.41, 0.0, 5.0378876, 4.973917 
4.3417084e+2, 1.3641825e+2, -1523046.3, -1621700.5, -6148.8784, -0.0037312014, -0.008137923, -1522664.5, 80434.18, 0.0, 5.0367374, 4.9724483 
4.3415087e+2, 1.413898e+2, -1481835.5, -1583209.1, -11579.12, -0.009687693, 0.0038456887, -1480529.8, 73848.41, 0.0, 5.0355406, 4.9695163 
4.341269e+2, 1.4636e+2, -1435860.5, -1534352.1, -12806.164, -0.008825845, 0.0027126663, -1434222.6, 71448.62, 0.0, 5.0342402, 4.9701123 
4.3410283e+2, 1.5133016e+2, -1390752.3, -1487282.8, -13215.3, -0.008041715, 0.0004229931, -1388975.8, 67989.02, 0.0, 5.032934, 4.970111 
4.3407872e+2, 1.563003e+2, -1347001.0, -1443080.4, -13607.979, -0.00727374, -0.0014212143, -1345110.8, 63147.527, 0.0, 5.0316286, 4.9691443 
4.3405235e+2, 1.6126765e+2, -1306911.6, -1406447.6, -18090.703, -0.0069692126, 0.0022912982, -1303725.6, 55853.582, 0.0, 5.0302777, 4.965673 
4.3402186e+2, 1.6623406e+2, -1261257.8, -1357507.9, -19200.91, -0.0065406146, 0.0011753268, -1257568.8, 53340.28, 0.0, 5.0287957, 4.9663463 
4.3399125e+2, 1.7120059e+2, -1216560.4, -1310562.3, -19462.502, -0.006041105, 0.00032510766, -1212690.1, 49547.61, 0.0, 5.027306, 4.966346 
4.3396062e+2, 1.7616712e+2, -1172960.6, -1265975.1, -19715.152, -0.005555156, -0.00010647624, -1168954.4, 44612.02, 0.0, 5.0258164, 4.965544 
4.3392867e+2, 1.8113114e+2, -1133515.6, -1230146.9, -22415.441, -0.0053145974, 0.007861831, -1128569.1, 36350.992, 0.0, 5.024296, 4.9617915 
4.3389416e+2, 1.8609414e+2, -1087860.0, -1180643.5, -23255.393, -0.0052982816, 0.009373722, -1082357.5, 33927.254, 0.0, 5.0226707, 4.9626784 
4.338596e+2, 1.9105724e+2, -1043435.75, -1133762.6, -23525.393, -0.0053396854, 0.010644957, -1037675.9, 29972.674, 0.0, 5.021038, 4.9626746 
4.3382502e+2, 1.9602033e+2, -999872.6, -1088768.3, -23792.879, -0.005452921, 0.012131838, -993905.06, 25107.303, 0.0, 5.019406, 4.9620214 
4.337901e+2, 2.0098086e+2, -960682.25, -1053416.0, -24894.313, -0.0048418734, 0.020910695, -954422.0, 15979.108, 0.0, 5.0178056, 4.958045 
4.3375462e+2, 2.0594013e+2, -914274.94, -1002893.44, -25446.877, -0.0009518648, 0.019948432, -907487.6, 14313.528, 0.0, 5.016279, 4.959185 
4.3371913e+2, 2.108995e+2, -869390.4, -955706.4, -25768.283, 0.0032181016, 0.01834179, -862282.9, 10917.138, 0.0, 5.014756, 4.9591837 
4.3368366e+2, 2.1585889e+2, -825145.6, -909946.3, -26087.588, 0.007352291, 0.016857088, -817762.94, 6835.9385, 0.0, 5.0132318, 4.958683 
4.3364832e+2, 2.2081567e+2, -785875.9, -874895.4, -26168.545, 0.011066043, 0.022895446, -778753.1, -2730.649, 0.0, 5.01168, 4.954484 
4.3361288e+2, 2.2577101e+2, -739246.94, -823669.0, -26274.006, 0.013180931, 0.016156545, -731737.8, -4279.6, 0.0, 5.0101, 4.9558496 
4.3357745e+2, 2.3072648e+2, -694392.6, -776437.25, -26304.596, 0.015362269, 0.008698281, -686683.4, -7790.842, 0.0, 5.0085254, 4.9558396 
4.3354204e+2, 2.3568195e+2, -650162.75, -730624.0, -26330.031, 0.017776342, 0.0013318864, -642312.44, -11985.472, 0.0, 5.0069504, 4.955328 
4.3350753e+2, 2.4063465e+2, -612502.06, -698946.9, -24644.818, 0.019461758, 0.0063708797, -605969.7, -24181.184, 0.0, 5.005315, 4.9498343 
4.334747e+2, 2.4558659e+2, -566220.9, -647098.1, -24769.867, 0.025397167, 0.007347229, -559237.7, -25980.121, 0.0, 5.0033994, 4.9514747 
4.3344197e+2, 2.5053877e+2, -522216.66, -600403.0, -25166.207, 0.031653713, 0.0072800145, -514816.66, -30092.094, 0.0, 5.001442, 4.951401 
4.3340924e+2, 2.554909e+2, -478422.88, -554243.5, -25575.094, 0.03680849, 0.0075904788, -470602.7, -34410.992, 0.0, 4.9994783, 4.9511294 
4.3337902e+2, 2.6044163e+2, -439964.84, -520419.75, -22355.717, 0.047728583, 0.029962547, -434170.25, -46494.426, 0.0, 4.9975495, 4.9463696 
4.3335548e+2, 2.6539233e+2, -392134.84, -466073.0, -21569.48, 0.066618174, 0.027503824, -386302.56, -47129.426, 0.0, 4.9957356, 4.948458 
4.3333307e+2, 2.7034235e+2, -346318.2, -416835.72, -22588.69, 0.09094822, 0.00622768, -339703.0, -49023.918, 0.0, 4.9939404, 4.9489875 
4.333118e+2, 2.752923e+2, -300442.03, -367806.0, -23800.406, 0.12502076, -0.024443043, -292881.63, -50696.57, 0.0, 4.992115, 4.949471 
4.3328506e+2, 2.802398e+2, -284149.78, -391132.13, -32787.23, 0.16509901, 0.065790154, -274900.97, -81190.82, 0.0, 4.9923744, 4.924237 
4.332672e+2, 2.8517997e+2, -218031.69, -292932.2, -12771.163, 0.14764622, 0.120422356, -215913.97, -70634.336, 0.0, 4.9922247, 4.940552 
4.33258e+2, 2.9011574e+2, -172858.45, -243880.25, -9784.968, 0.11671914, 0.054289635, -171535.0, -74646.38, 0.0, 4.9904695, 4.9408064 
4.3324998e+2, 2.950502e+2, -127520.3, -194936.33, -7236.645, 0.090706915, -0.033352215, -126752.24, -78241.26, 0.0, 4.9886155, 4.941065 
4.3324485e+2, 3.0000263e+2, -66924.336, -79221.72, -1069.7617, 0.06359718, -0.09755036, -66831.97, -66831.97, 0.0, 4.9868526, 4.9744096 
4.332551e+2, 3.0499265e+2, -64688.152, -62945.598, 2548.7673, 0.069707155, -0.06362243, -61123.3, -61123.3, 0.0, 4.9849725, 4.979579 
4.3327224e+2, 3.0999023e+2, -66553.81, -55587.133, 2604.189, 0.11580323, -0.007601559, -55000.15, -55000.15, 0.0, 4.9828506, 4.982566 
4.3329406e+2, 3.149943e+2, -68078.52, -48571.063, 1743.64, 0.1959604, 0.07698925, -48416.438, -48416.438, 0.0, 4.9805903, 4.985556 
4.3926004e+2, 1.2150585e+2, -1652448.0, -1751114.6, -116.40694, 0.00047576515, -0.009691102, -1652447.9, 96790.71, 0.0, 5.0406713, 4.9761896 
4.3924552e+2, 1.2648082e+2, -1611156.3, -1712456.9, -5617.4756, 0.023218699, 0.004834778, -1610845.8, 89638.05, 0.0, 5.039508, 4.9734216 
4.392265e+2, 1.3145356e+2, -1565860.6, -1665362.1, -5986.5117, 0.009406185, -0.0027390486, -1565501.8, 86249.66, 0.0, 5.0383053, 4.9734197 
4.3920752e+2, 1.3642624e+2, -1522689.5, -1622677.3, -6342.399, -0.004405035, -0.009081024, -1522288.8, 80730.62, 0.0, 5.037102, 4.97195 
4.3918613e+2, 1.4139718e+2, -1481598.0, -1584245.0, -11848.581, -0.012480465, 0.0017476963, -1480248.0, 74056.91, 0.0, 5.035863, 4.96902 
4.3916088e+2, 1.4636697e+2, -1435700.6, -1535452.8, -13060.824, -0.0113315275, 0.0015266646, -1434018.9, 71583.63, 0.0, 5.034541, 4.9696045 
4.3913552e+2, 1.5133671e+2, -1390652.8, -1488413.6, -13446.976, -0.010177535, 0.00022996284, -1388836.8, 68063.76, 0.0, 5.033214, 4.9696026 
4.3911016e+2, 1.5630646e+2, -1346960.5, -1444238.9, -13816.259, -0.009032081, -0.00061840133, -1345036.3, 63162.45, 0.0, 5.0318875, 4.968636 
4.3908244e+2, 1.6127339e+2, -1306691.5, -1407206.3, -18411.438, -0.008349315, 0.0035805653, -1303425.3, 56098.625, 0.0, 5.03053, 4.9653034 
4.390505e+2, 1.6623938e+2, -1260915.6, -1358114.3, -19590.354, -0.007401276, 0.0015181688, -1257115.8, 53741.67, 0.0, 5.0290694, 4.9660172 
4.3901846e+2, 1.7120546e+2, -1216159.4, -1311139.8, -19899.246, -0.0063638524, -0.0003779574, -1212158.8, 50031.12, 0.0, 5.0275993, 4.966017 
4.3898642e+2, 1.7617156e+2, -1172508.6, -1266526.6, -20196.344, -0.0053404635, -0.0018722609, -1168353.8, 45168.58, 0.0, 5.0261264, 4.9652166 
4.3895295e+2, 1.8113519e+2, -1133016.6, -1230690.0, -23020.43, -0.004988826, 0.0055722594, -1127862.9, 37016.71, 0.0, 5.0246253, 4.9614573 
4.3891674e+2, 1.86098e+2, -1087274.0, -1181134.9, -23893.986, -0.0057704793, 0.00830663, -1081541.4, 34705.348, 0.0, 5.023029, 4.962347 
4.3888047e+2, 1.9106092e+2, -1042781.1, -1134220.0, -24168.463, -0.006618259, 0.010931763, -1036786.2, 30826.756, 0.0, 5.0214195, 4.962344 
4.3884417e+2, 1.9602382e+2, -999166.56, -1089200.4, -24433.838, -0.0075210193, 0.013783005, -992963.06, 26016.043, 0.0, 5.019805, 4.961691 
4.3880758e+2, 2.0098417e+2, -960052.7, -1054039.8, -25454.049, -0.007988102, 0.02432044, -953601.9, 16768.408, 0.0, 5.018208, 4.957651 
4.3877035e+2, 2.059432e+2, -913779.0, -1003572.4, -25948.908, -0.006087955, 0.024849989, -906819.56, 14954.218, 0.0, 5.016633, 4.958796 
4.3873316e+2, 2.1090232e+2, -869101.8, -956486.3, -26221.627, -0.0039931764, 0.024562793, -861837.4, 11338.92, 0.0, 5.0150385, 4.9587936 
4.38696e+2, 2.1586145e+2, -825116.2, -910851.0, -26487.602, -0.0019689258, 0.024397267, -817593.06, 6985.7075, 0.0, 5.0134254, 4.958291 
4.3865892e+2, 2.2081786e+2, -785793.3, -875261.56, -26621.709, 0.000349544, 0.030112252, -778471.2, -2464.6272, 0.0, 5.011793, 4.954314 
4.386221e+2, 2.2577268e+2, -738887.1, -823634.7, -26851.322, 0.0042629726, 0.018744392, -731095.9, -3649.0662, 0.0, 5.0102553, 4.9557962 
4.385853e+2, 2.307276e+2, -693844.25, -776318.25, -27024.996, 0.008515931, 0.0064392015, -685777.7, -6892.062, 0.0, 5.008745, 4.955787 
4.3854854e+2, 2.3568253e+2, -649409.2, -730412.4, -27194.94, 0.012909635, -0.0057872226, -641126.1, -10801.622, 0.0, 5.0072412, 4.955276 
4.385126e+2, 2.4063498e+2, -611963.4, -699816.7, -25639.152, 0.016138658, -0.0010514949, -605028.3, -23240.605, 0.0, 5.0057073, 4.9493685 
4.384781e+2, 2.4558748e+2, -565536.2, -648034.75, -25589.184, 0.024246478, 0.010111918, -558243.6, -24992.293, 0.0, 5.0038695, 4.9509487 
4.3844363e+2, 2.5054023e+2, -521588.56, -601313.94, -25475.828, 0.033104073, 0.020410147, -514143.2, -29430.639, 0.0, 5.0018945, 4.9508886 
4.384092e+2, 2.55493e+2, -478094.44, -555245.0, -25258.82, 0.04097334, 0.031106573, -470560.5, -34386.652, 0.0, 4.9998283, 4.950627 
4.38377e+2, 2.6044393e+2, -440790.53, -522251.06, -21191.29, 0.05057898, 0.060486566, -435607.56, -47950.293, 0.0, 4.997563, 4.9457126 
4.3835062e+2, 2.6539257e+2, -397335.47, -471659.9, -19740.705, 0.054350495, 0.042794954, -392417.7, -53233.934, 0.0, 4.9945183, 4.946997 
4.383253e+2, 2.7033973e+2, -356794.3, -425357.8, -20907.451, 0.060394533, 0.0033469633, -350921.84, -60195.184, 0.0, 4.9909472, 4.947314 
4.3830097e+2, 2.752866e+2, -317555.38, -379788.06, -22743.764, 0.07387641, -0.04478661, -310129.47, -67857.32, 0.0, 4.9868617, 4.94759 
4.3827054e+2, 2.8023294e+2, -312197.47, -418100.47, -33810.97, 0.09199322, 0.081736654, -302323.47, -108508.78, 0.0, 4.985185, 4.9178905 
4.3825242e+2, 2.8517544e+2, -228574.0, -292792.8, -12483.691, 0.08699924, 0.15972187, -226232.63, -80879.28, 0.0, 4.9872146, 4.9424887 
4.3824428e+2, 2.9011294e+2, -177735.14, -242180.83, -8597.61, 0.076744065, 0.07602364, -176607.88, -79672.266, 0.0, 4.9875674, 4.942517 
4.3823725e+2, 2.9504922e+2, -129031.81, -192646.61, -5145.337, 0.06968401, -0.024131272, -128618.336, -80088.79, 0.0, 4.987022, 4.942547 
4.3823296e+2, 3.0000335e+2, -67429.41, -77401.46, 1913.8468, 0.057737432, -0.09734064, -67074.71, -67074.71, 0.0, 4.985679, 4.975773 
4.3824396e+2, 3.0499858e+2, -71067.71, -66099.8, 5017.3965, 0.07573803, -0.04196495, -62985.152, -62985.152, 0.0, 4.981899, 4.979822 
4.3826142e+2, 3.1000033e+2, -84405.766, -65009.504, 2516.9548, 0.12694539, 0.026882855, -64688.21, -64688.21, 0.0, 4.975699, 4.982327 
4.3828315e+2, 3.1500664e+2, -102893.27, -66495.07, -2925.6482, 0.20422728, 0.108443536, -66261.41, -66261.41, 0.0, 4.967417, 4.984838 
4.4430366e+2, 1.2151886e+2, -1640915.3, -1746658.1, 1893.0963, 0.0068366574, -0.003936187, -1640881.4, 108229.11, 0.0, 5.044814, 4.97563 
4.442867e+2, 1.2649223e+2, -1600233.1, -1707984.5, -3692.4063, 0.01933941, -0.00093000015, -1600106.8, 100264.42, 0.0, 5.0433803, 4.9730043 
4.4426656e+2, 1.314647e+2, -1555749.3, -1661306.9, -4023.1182, 0.0076020886, -0.0066488297, -1555596.1, 96044.836, 0.0, 5.041913, 4.9730024 
4.4424644e+2, 1.3643716e+2, -1513381.6, -1619035.1, -4342.4155, -0.004148052, -0.01115447, -1513203.5, 89707.58, 0.0, 5.040446, 4.971532 
4.4422376e+2, 1.4140779e+2, -1473011.3, -1580985.4, -9857.094, -0.0110524455, 0.0009339545, -1472118.8, 82080.69, 0.0, 5.038967, 4.968597 
4.4419703e+2, 1.4637715e+2, -1427718.5, -1532533.0, -11022.473, -0.010685189, 0.00084067316, -1426571.9, 78929.55, 0.0, 5.0374527, 4.969169 
4.4417015e+2, 1.5134646e+2, -1383251.5, -1485792.1, -11365.792, -0.010367832, -0.0003570555, -1382006.9, 74797.07, 0.0, 5.0359344, 4.9691668 
4.4414327e+2, 1.5631577e+2, -1340134.8, -1441909.4, -11690.594, -0.010031885, -0.0011023696, -1338809.1, 69297.33, 0.0, 5.034416, 4.9682 
4.44114e+2, 1.612823e+2, -1300326.0, -1405100.3, -16319.182, -0.009913112, 0.003277173, -1297843.1, 61592.863, 0.0, 5.0329003, 4.9648733 
4.440806e+2, 1.6624786e+2, -1254812.3, -1356170.0, -17573.174, -0.008965141, 0.0015240584, -1251851.9, 58921.95, 0.0, 5.03136, 4.9655766 
4.4404706e+2, 1.7121354e+2, -1210283.3, -1309315.0, -17965.69, -0.007894265, -0.00009955094, -1207124.8, 54985.98, 0.0, 5.029816, 4.9655766 
4.4401348e+2, 1.761792e+2, -1166848.0, -1264813.5, -18346.617, -0.0068268366, -0.0013628695, -1163524.9, 49922.66, 0.0, 5.028272, 4.9647775 
4.439785e+2, 1.8114239e+2, -1127506.3, -1228946.0, -21319.158, -0.006417903, 0.005967899, -1123207.9, 41601.42, 0.0, 5.026698, 4.9610662 
4.4394067e+2, 1.8610473e+2, -1081990.5, -1179451.5, -22259.623, -0.00701845, 0.007931505, -1077147.3, 39033.66, 0.0, 5.0250163, 4.9619794 
4.439028e+2, 1.9106722e+2, -1037734.94, -1132647.4, -22586.879, -0.007583293, 0.009804105, -1032634.0, 34917.438, 0.0, 5.0233274, 4.96198 
4.4386494e+2, 1.9602968e+2, -994339.06, -1087727.8, -22908.76, -0.008104392, 0.011943083, -989022.1, 29899.756, 0.0, 5.021639, 4.9613304 
4.4382665e+2, 2.0098968e+2, -955469.7, -1052585.0, -23951.22, -0.008688498, 0.022583786, -949883.94, 20432.533, 0.0, 5.0199394, 4.9573345 
4.437876e+2, 2.0594856e+2, -909596.2, -1002235.0, -24409.139, -0.008481534, 0.024589399, -903558.25, 18163.54, 0.0, 5.018215, 4.958512 
4.4374856e+2, 2.1090755e+2, -865301.6, -955326.8, -24644.898, -0.008025047, 0.025739895, -858996.5, 14129.496, 0.0, 5.0164905, 4.9585114 
4.4370952e+2, 2.1586652e+2, -821643.0, -909841.9, -24875.855, -0.00747071, 0.0269791, -815110.7, 9419.54, 0.0, 5.014766, 4.9580116 
4.4367075e+2, 2.2082269e+2, -782588.3, -874561.0, -24983.22, -0.0058660177, 0.033205494, -776240.1, -279.09045, 0.0, 5.0130777, 4.9539604 
4.4363245e+2, 2.2577713e+2, -735770.7, -823113.25, -25350.447, -0.001545653, 0.022178844, -728946.2, -1540.2327, 0.0, 5.0115314, 4.9553905 
4.435942e+2, 2.307317e+2, -690782.6, -775851.9, -25737.002, 0.0029486585, 0.010473811, -683602.2, -4752.955, 0.0, 5.0099998, 4.955375 
4.4355595e+2, 2.3568624e+2, -646417.06, -730011.25, -26115.393, 0.007410884, -0.0012126205, -638929.2, -8636.545, 0.0, 5.008468, 4.954858 
4.435185e+2, 2.406385e+2, -608885.0, -698912.6, -24766.148, 0.010339139, 0.0047778487, -602521.75, -20763.176, 0.0, 5.0068474, 4.949178 
4.434823e+2, 2.4559075e+2, -561554.25, -646011.75, -24962.549, 0.01791995, 0.014060713, -554727.94, -21504.209, 0.0, 5.005225, 4.9510303 
4.434462e+2, 2.505432e+2, -516453.78, -598335.06, -25134.91, 0.02771323, 0.020637134, -509353.8, -24667.021, 0.0, 5.0036254, 4.9510946 
4.4341022e+2, 2.554957e+2, -471575.66, -551200.1, -25335.174, 0.038097356, 0.026663724, -464198.0, -28048.305, 0.0, 5.002014, 4.950961 
4.433764e+2, 2.6044616e+2, -433077.72, -518704.8, -22252.951, 0.050531436, 0.04913018, -427639.9, -40002.23, 0.0, 5.000444, 4.945529 
4.433484e+2, 2.6539555e+2, -386285.9, -468539.0, -21919.516, 0.05964929, 0.04907213, -380809.28, -41649.9, 0.0, 4.9990697, 4.945977 
4.4332132e+2, 2.7034464e+2, -340050.4, -420079.03, -23409.896, 0.07214727, 0.045371786, -333705.6, -43019.133, 0.0, 4.997715, 4.946118 
4.4329488e+2, 2.752942e+2, -293816.47, -371773.7, -24936.482, 0.091772154, 0.045483723, -286522.4, -44313.664, 0.0, 4.9963255, 4.9462113 
4.4326288e+2, 2.8024313e+2, -273401.3, -403144.94, -27404.19, 0.09704721, 0.21726899, -267850.53, -74121.836, 0.0, 4.9985056, 4.9174447 
4.432433e+2, 2.851819e+2, -196351.25, -280999.1, -8902.618, 0.07647835, 0.24680343, -195425.08, -50121.246, 0.0, 4.9971433, 4.943022 
4.432332e+2, 2.901158e+2, -161378.03, -236460.55, -8953.167, 0.068857156, 0.11384662, -160325.19, -63404.51, 0.0, 4.992015, 4.943406 
4.432242e+2, 2.950501e+2, -126311.03, -191876.0, -9179.648, 0.069078736, -0.018865872, -125050.055, -76516.08, 0.0, 4.986769, 4.943791 
4.4321817e+2, 3.0000392e+2, -76434.875, -80855.51, -6455.6064, 0.07091874, -0.10394711, -71821.68, -71821.68, 0.0, 4.981622, 4.9771585 
4.4322786e+2, 3.050045e+2, -83987.48, -73942.18, -7308.135, 0.118385494, 0.0140015995, -70097.15, -70097.15, 0.0, 4.977239, 4.9799695 
4.4324344e+2, 3.1001243e+2, -93988.555, -74923.15, -9921.792, 0.2060835, 0.17401432, -70696.695, -70696.695, 0.0, 4.9729333, 4.981172 
4.432627e+2, 3.150238e+2, -103854.33, -76068.62, -12927.699, 0.32443336, 0.35815182, -70984.2, -70984.2, 0.0, 4.968484, 4.982374 
4.4934928e+2, 1.2153358e+2, -1641768.6, -1748422.1, 900.9567, 0.015085593, 0.003419949, -1641761.0, 107204.65, 0.0, 5.0448146, 4.975052 
4.493294e+2, 1.2650494e+2, -1600822.1, -1709246.4, -4797.315, 0.012649119, -0.009204287, -1600610.4, 99635.41, 0.0, 5.043386, 4.9725895 
4.4930816e+2, 1.3147731e+2, -1556334.0, -1662565.4, -5127.3896, 0.004535694, -0.011959955, -1556087.1, 95429.37, 0.0, 5.041919, 4.9725876 
4.492869e+2, 1.3644964e+2, -1513966.0, -1620298.5, -5450.4653, -0.0036070927, -0.013501378, -1513687.4, 89100.11, 0.0, 5.0404525, 4.9711146 
4.4926295e+2, 1.4142004e+2, -1473590.1, -1582255.5, -11010.411, -0.008383661, 0.00057125255, -1472485.8, 81592.11, 0.0, 5.0389757, 4.968177 
4.4923455e+2, 1.4638898e+2, -1428303.6, -1533823.4, -12168.269, -0.009122104, 0.00038794152, -1426918.5, 78465.54, 0.0, 5.037462, 4.968741 
4.4920605e+2, 1.5135784e+2, -1383832.9, -1487079.5, -12511.48, -0.010039677, -0.0009613329, -1382338.4, 74352.59, 0.0, 5.035944, 4.968738 
4.4917756e+2, 1.5632673e+2, -1340712.3, -1443193.6, -12837.112, -0.010944509, -0.0018536225, -1339128.8, 68869.17, 0.0, 5.034426, 4.967772 
4.4914666e+2, 1.6129282e+2, -1300940.1, -1406478.0, -17499.756, -0.011753744, 0.0026312722, -1298114.1, 61217.535, 0.0, 5.0329123, 4.964413 
4.4911167e+2, 1.6625796e+2, -1255454.1, -1357615.5, -18743.516, -0.010951681, 0.0015502488, -1252123.8, 58550.297, 0.0, 5.0313725, 4.9650927 
4.4907656e+2, 1.7122324e+2, -1210920.4, -1310757.6, -19135.688, -0.010003676, 0.0006270658, -1207378.3, 54637.13, 0.0, 5.0298285, 4.9650927 
4.490415e+2, 1.761885e+2, -1167479.8, -1266251.8, -19515.463, -0.009070035, 0.000071624396, -1163763.8, 49592.98, 0.0, 5.028285, 4.9642935 
4.490049e+2, 1.8115124e+2, -1128037.5, -1230208.3, -22578.213, -0.008591013, 0.0075194794, -1123270.5, 41452.59, 0.0, 5.0267158, 4.9606414 
4.4896546e+2, 1.8611303e+2, -1082478.9, -1180641.3, -23539.162, -0.008624211, 0.008083273, -1077126.1, 38973.688, 0.0, 5.025036, 4.961578 
4.4892594e+2, 1.9107497e+2, -1038220.06, -1133838.0, -23865.078, -0.008626086, 0.0084979, -1032594.6, 34880.9, 0.0, 5.023348, 4.961577 
4.4888642e+2, 1.960369e+2, -994821.0, -1088919.6, -24185.445, -0.008607941, 0.009197868, -988968.75, 29882.334, 0.0, 5.0216594, 4.960926 
4.4884643e+2, 2.0099649e+2, -955838.1, -1053539.4, -25261.324, -0.009472848, 0.019371912, -949693.1, 20556.563, 0.0, 5.019961, 4.9570117 
4.4880545e+2, 2.059552e+2, -909901.94, -1003056.5, -25724.273, -0.011650354, 0.022727078, -903270.4, 18386.086, 0.0, 5.0182366, 4.9582343 
4.487644e+2, 2.1091403e+2, -865606.1, -956148.06, -25958.924, -0.013709533, 0.025254125, -858691.56, 14370.487, 0.0, 5.0165124, 4.9582334 
4.487234e+2, 2.1587288e+2, -821946.3, -910663.0, -26188.639, -0.015688755, 0.02788447, -814792.44, 9675.244, 0.0, 5.0147877, 4.9577327 
4.486828e+2, 2.208288e+2, -783077.9, -875856.94, -26227.814, -0.015530252, 0.034903146, -776176.8, -275.42615, 0.0, 5.0131083, 4.953513 
4.4864306e+2, 2.257829e+2, -736315.7, -824550.25, -26534.146, -0.009998596, 0.025341729, -728951.0, -1599.7822, 0.0, 5.0115633, 4.9548926 
4.4860342e+2, 2.3073716e+2, -691334.5, -777286.0, -26913.713, -0.004226383, 0.015524814, -683602.6, -4803.4653, 0.0, 5.0100284, 4.954879 
4.4856378e+2, 2.3569144e+2, -646975.9, -731442.7, -27285.004, 0.0014890424, 0.0057797274, -638928.75, -8681.606, 0.0, 5.0084934, 4.9543633 
4.4852483e+2, 2.4064355e+2, -609064.4, -699644.75, -25986.895, 0.0049437173, 0.014228225, -602138.44, -20422.822, 0.0, 5.0068846, 4.9489455 
4.4848663e+2, 2.4559541e+2, -561597.25, -646662.25, -26172.137, 0.0075495667, 0.02235262, -554189.8, -21006.525, 0.0, 5.005283, 4.9508405 
4.4844848e+2, 2.5054738e+2, -516455.7, -599019.0, -26321.43, 0.0113384165, 0.026781844, -508778.25, -24128.516, 0.0, 5.0036983, 4.9508896 
4.4841042e+2, 2.5549936e+2, -471536.53, -551917.44, -26498.578, 0.015490458, 0.030679494, -463587.13, -27470.955, 0.0, 5.0021024, 4.950741 
4.4837463e+2, 2.6044855e+2, -433758.47, -521244.0, -22972.758, 0.021704245, 0.044719573, -428092.97, -40477.14, 0.0, 5.0005445, 4.9447117 
4.4834536e+2, 2.653959e+2, -387242.6, -472030.06, -22129.746, 0.027314924, 0.042082593, -381814.22, -42657.79, 0.0, 4.9992065, 4.9448805 
4.4831708e+2, 2.703434e+2, -340802.88, -423372.0, -23468.307, 0.035198342, 0.040166292, -334598.75, -43900.023, 0.0, 4.997891, 4.945055 
4.4828936e+2, 2.752913e+2, -294366.06, -374870.2, -24842.98, 0.04781969, 0.040440872, -287316.94, -45080.027, 0.0, 4.996541, 4.945182 
4.482578e+2, 2.8023854e+2, -269312.0, -392184.4, -24463.229, 0.033670735, 0.18364446, -264620.63, -70847.04, 0.0, 4.9982734, 4.921331 
4.4823655e+2, 2.8517783e+2, -198692.9, -283537.3, -12769.442, 0.022542177, 0.2099862, -196812.72, -51464.324, 0.0, 4.9966364, 4.9424567 
4.4822276e+2, 2.901128e+2, -163325.55, -238971.0, -12550.084, 0.03758818, 0.101268716, -161297.77, -64337.445, 0.0, 4.991622, 4.9427977 
4.4821e+2, 2.9504797e+2, -127864.516, -194360.17, -12506.243, 0.056133788, -0.008853742, -125590.18, -77020.12, 0.0, 4.98649, 4.9431396 
4.4820023e+2, 3.0000162e+2, -77966.79, -84954.414, -8584.942, 0.07005959, -0.08073605, -72191.945, -72186.04, 0.0, 4.9815516, 4.9757967 
4.4820577e+2, 3.0499974e+2, -83901.35, -77413.39, -7838.521, 0.10843141, 0.029885968, -72174.1, -72174.1, 0.0, 4.977579, 4.9787054 
4.4821692e+2, 3.1000522e+2, -92564.86, -77788.945, -9821.654, 0.17524433, 0.18065836, -72886.8, -72886.8, 0.0, 4.9736276, 4.9799366 
4.4823128e+2, 3.1501353e+2, -101087.586, -78329.19, -12195.333, 0.26253402, 0.34529668, -73028.69, -73028.69, 0.0, 4.9695325, 4.981168 
4.5439485e+2, 1.21548116e+2, -1642521.9, -1749982.6, -70.097206, 0.022480447, 0.009226089, -1642521.9, 106300.76, 0.0, 5.044815, 4.9745407 
4.543721e+2, 1.2651767e+2, -1601411.0, -1710508.9, -5901.901, 0.0059721125, -0.017429406, -1601092.6, 99027.66, 0.0, 5.0433927, 4.9721746 
4.5434973e+2, 1.314899e+2, -1556918.5, -1663824.5, -6231.338, 0.0014790824, -0.01724086, -1556556.5, 94835.414, 0.0, 5.041926, 4.9721727 
4.543274e+2, 1.364621e+2, -1514550.1, -1621562.5, -6558.2476, -0.0030598654, -0.015836997, -1514149.6, 88514.14, 0.0, 5.0404596, 4.9706974 
4.5430213e+2, 1.414323e+2, -1474176.4, -1583542.8, -12162.961, -0.005724556, 0.00022283696, -1472840.0, 81116.15, 0.0, 5.0389853, 4.9677515 
4.542721e+2, 1.4640081e+2, -1428888.3, -1535114.6, -13313.706, -0.007569528, -0.00005671654, -1427245.1, 78021.69, 0.0, 5.037472, 4.9683123 
4.5424193e+2, 1.5136923e+2, -1384413.9, -1488367.6, -13656.812, -0.009718577, -0.0015680111, -1382649.6, 73928.39, 0.0, 5.035954, 4.96831 
4.5421183e+2, 1.5633765e+2, -1341289.4, -1444478.8, -13983.291, -0.011860739, -0.0026177391, -1339428.1, 68461.24, 0.0, 5.034436, 4.9673433 
4.541793e+2, 1.6130333e+2, -1301558.8, -1407866.6, -18678.771, -0.013612574, 0.001993337, -1298372.4, 60855.098, 0.0, 5.032924, 4.96395 
4.5414272e+2, 1.6626808e+2, -1256095.6, -1359061.9, -19913.033, -0.012960892, 0.0015827947, -1252378.8, 58195.53, 0.0, 5.0313854, 4.9646087 
4.541061e+2, 1.7123292e+2, -1211557.3, -1312201.0, -20304.861, -0.012134219, 0.0013483178, -1207615.1, 54305.023, 0.0, 5.029842, 4.9646077 
4.5406944e+2, 1.7619778e+2, -1168111.4, -1267690.9, -20683.482, -0.011332828, 0.0014890463, -1163986.1, 49279.83, 0.0, 5.028299, 4.963809 
4.540313e+2, 1.8116008e+2, -1128574.4, -1231483.4, -23832.61, -0.010767864, 0.009052082, -1123322.9, 41314.066, 0.0, 5.026734, 4.9602118 
4.539902e+2, 1.8612134e+2, -1082967.4, -1181831.5, -24816.879, -0.01021539, 0.008195051, -1077087.5, 38931.38, 0.0, 5.0250564, 4.9611754 
4.5394906e+2, 1.9108273e+2, -1038705.2, -1135029.1, -25141.457, -0.009637618, 0.007124175, -1032537.94, 34861.76, 0.0, 5.0233684, 4.9611735 
4.5390797e+2, 1.9604412e+2, -995302.94, -1090112.0, -25460.313, -0.009063566, 0.006357632, -988898.4, 29882.012, 0.0, 5.021681, 4.960521 
4.5386624e+2, 2.0100328e+2, -956215.5, -1054514.3, -26569.54, -0.010237798, 0.016176507, -949493.56, 20689.313, 0.0, 5.019983, 4.9566817 
4.5382327e+2, 2.0596185e+2, -910207.44, -1003878.5, -27038.807, -0.014804135, 0.020906918, -902962.8, 18628.283, 0.0, 5.018259, 4.957956 
4.537803e+2, 2.1092053e+2, -865910.4, -956969.75, -27272.35, -0.019362181, 0.024775801, -858367.2, 14630.932, 0.0, 5.0165343, 4.9579544 
4.5373735e+2, 2.1587923e+2, -822249.4, -911484.56, -27500.822, -0.023858184, 0.028762618, -814454.94, 9950.178, 0.0, 5.01481, 4.9574537 
4.5369488e+2, 2.2083487e+2, -783627.25, -877283.06, -27458.236, -0.025225127, 0.03676802, -776170.7, -328.83972, 0.0, 5.0131392, 4.95302 
4.5365372e+2, 2.2578864e+2, -736862.0, -825987.1, -27718.459, -0.018508522, 0.028648898, -728944.7, -1647.9987, 0.0, 5.0115957, 4.9543924 
4.536127e+2, 2.3074262e+2, -691887.6, -778719.94, -28091.041, -0.011433897, 0.020556962, -683592.4, -4843.0254, 0.0, 5.0100574, 4.9543805 
4.5357162e+2, 2.356966e+2, -647535.94, -732874.06, -28455.232, -0.0044407872, 0.012590287, -638918.06, -8716.063, 0.0, 5.008519, 4.9538665 
4.5353118e+2, 2.4064857e+2, -609233.5, -700327.44, -27201.693, -0.00026320133, 0.023632528, -601729.0, -20056.316, 0.0, 5.006922, 4.948726 
4.5349103e+2, 2.4560012e+2, -561657.75, -647295.8, -27357.104, -0.0024983205, 0.030559259, -553664.56, -20521.947, 0.0, 5.005341, 4.950648 
4.5345083e+2, 2.5055158e+2, -516475.16, -599685.94, -27483.338, -0.0046849893, 0.03259866, -508217.3, -23604.748, 0.0, 5.0037713, 4.950682 
4.5341074e+2, 2.5550306e+2, -471514.97, -552617.8, -27637.383, -0.0067361076, 0.034125075, -462992.53, -26909.947, 0.0, 5.0021906, 4.9505186 
4.5337313e+2, 2.6045102e+2, -434578.25, -523986.9, -23733.734, -0.0051235566, 0.04139964, -428668.7, -41075.992, 0.0, 5.0006456, 4.9438043 
4.5334265e+2, 2.6539648e+2, -388253.75, -475472.16, -22375.906, -0.002924369, 0.036144935, -382848.22, -43696.695, 0.0, 4.999344, 4.9437585 
4.533131e+2, 2.703423e+2, -341609.56, -426615.66, -23562.613, -0.0010077541, 0.03424421, -335515.22, -44805.598, 0.0, 4.9980674, 4.943967 
4.5328408e+2, 2.7528843e+2, -294969.56, -377917.1, -24785.355, 0.0032611534, 0.032916028, -288127.84, -45863.52, 0.0, 4.996757, 4.9441276 
4.532525e+2, 2.8023395e+2, -266242.75, -383527.63, -22439.242, -0.029439518, 0.15042727, -262096.2, -68277.91, 0.0, 4.998047, 4.924411 
4.5322928e+2, 2.8517368e+2, -201217.78, -285896.16, -16566.6, -0.030258173, 0.17551199, -198092.05, -52698.42, 0.0, 4.9961333, 4.941869 
4.5321187e+2, 2.9010957e+2, -165456.8, -241300.78, -16076.744, 0.0064572254, 0.08907895, -162189.72, -65188.168, 0.0, 4.9912324, 4.9421663 
4.5319542e+2, 2.9504558e+2, -129602.25, -196662.39, -15762.044, 0.0423304, -0.00040493484, -126082.26, -77473.59, 0.0, 4.9862137, 4.942465 
4.531819e+2, 2.99999e+2, -79756.77, -89003.14, -10573.869, 0.06513696, -0.06059178, -72839.57, -72787.05, 0.0, 4.9814835, 4.9743395 
4.5318347e+2, 3.0499437e+2, -84043.94, -80660.52, -8330.115, 0.08877667, 0.036836997, -73852.07, -73852.07, 0.0, 4.9779205, 4.977338 
4.5319027e+2, 3.099972e+2, -91371.49, -80428.75, -9682.065, 0.1293483, 0.17004524, -74779.05, -74779.05, 0.0, 4.974323, 4.978598 
4.5319995e+2, 3.1500205e+2, -98553.375, -80362.06, -11423.25, 0.18023741, 0.30687615, -74855.61, -74855.61, 0.0, 4.9705815, 4.9798574 
4.5944017e+2, 1.21562555e+2, -1642076.9, -1750835.0, 18.938356, 0.02768982, 0.012200895, -1642076.9, 106603.82, 0.0, 5.0451946, 4.9740767 
4.594149e+2, 1.2653068e+2, -1600946.4, -1711256.9, -5971.907, 0.00018022294, -0.024320254, -1600624.0, 99367.98, 0.0, 5.0437565, 4.971753 
4.593914e+2, 1.3150273e+2, -1556442.0, -1664565.0, -6340.5723, -0.0011387649, -0.021754999, -1556071.4, 95193.734, 0.0, 5.0422935, 4.971752 
4.593679e+2, 1.3647474e+2, -1514069.0, -1622305.3, -6708.7036, -0.002480815, -0.017946525, -1513654.8, 88883.9, 0.0, 5.040829, 4.970275 
4.5934132e+2, 1.4144467e+2, -1473717.8, -1584312.8, -12380.489, -0.0032430545, -0.00024638456, -1472348.8, 81484.73, 0.0, 5.039348, 4.967324 
4.593097e+2, 1.4641273e+2, -1428505.0, -1535911.6, -13517.511, -0.0060131806, -0.0006452159, -1426830.0, 78318.35, 0.0, 5.0378065, 4.9678893 
4.5927793e+2, 1.5138073e+2, -1384113.1, -1489205.4, -13851.247, -0.009200382, -0.0023433268, -1382318.1, 74145.766, 0.0, 5.03626, 4.9678864 
4.5924616e+2, 1.563487e+2, -1341067.9, -1445354.8, -14168.234, -0.012390881, -0.003584922, -1339177.3, 68602.336, 0.0, 5.0347147, 4.9669204 
4.59212e+2, 1.6131397e+2, -1301456.8, -1408896.6, -18884.246, -0.015006468, 0.0011424626, -1298234.3, 60887.688, 0.0, 5.0331798, 4.9634876 
4.5917386e+2, 1.662783e+2, -1256083.6, -1360175.9, -20105.365, -0.014616361, 0.0013877508, -1252335.3, 58137.996, 0.0, 5.031618, 4.964128 
4.5913565e+2, 1.7124274e+2, -1211615.4, -1313348.0, -20491.074, -0.013999001, 0.0018091038, -1207643.1, 54180.477, 0.0, 5.03005, 4.9641275 
4.5909745e+2, 1.7620718e+2, -1168242.9, -1268870.9, -20860.865, -0.013392024, 0.0026023178, -1164089.6, 49084.297, 0.0, 5.02848, 4.9633293 
4.5905772e+2, 1.8116902e+2, -1128641.6, -1232519.0, -24078.82, -0.012768246, 0.010283365, -1123331.6, 41218.145, 0.0, 5.0269117, 4.9597836 
4.5901504e+2, 1.8612976e+2, -1082855.4, -1182707.1, -25091.89, -0.011640041, 0.008086111, -1076904.6, 39032.098, 0.0, 5.02528, 4.960779 
4.5897228e+2, 1.9109061e+2, -1038469.7, -1135844.6, -25416.385, -0.010472805, 0.005605116, -1032234.8, 35087.734, 0.0, 5.023635, 4.960777 
4.5892954e+2, 1.9605146e+2, -994960.3, -1090875.6, -25729.934, -0.009313041, 0.0034449843, -988494.06, 30214.273, 0.0, 5.0219846, 4.960125 
4.5888612e+2, 2.0101023e+2, -955738.75, -1055074.4, -26868.38, -0.010763071, 0.01304233, -948937.1, 21177.504, 0.0, 5.0203056, 4.956348 
4.588412e+2, 2.0596863e+2, -909741.25, -1004328.5, -27386.086, -0.017561998, 0.019125735, -902384.3, 19140.068, 0.0, 5.0185533, 4.9576726 
4.5879626e+2, 2.1092716e+2, -865543.44, -957470.94, -27662.527, -0.024441697, 0.024219206, -857861.3, 15071.658, 0.0, 5.0167933, 4.95767 
4.5875135e+2, 2.1588568e+2, -821993.0, -912041.56, -27931.586, -0.031284116, 0.029397948, -814032.75, 10308.787, 0.0, 5.01503, 4.9571686 
4.5870706e+2, 2.2084102e+2, -783755.0, -878564.75, -27795.63, -0.034197774, 0.038461138, -776207.0, -425.47116, 0.0, 5.0133314, 4.9524975 
4.5866445e+2, 2.2579445e+2, -736960.94, -827143.1, -27961.28, -0.026548252, 0.031669732, -728995.1, -1753.7224, 0.0, 5.011775, 4.9539137 
4.5862198e+2, 2.3074813e+2, -692030.8, -779881.25, -28251.844, -0.018361326, 0.025010167, -683729.7, -5030.9624, 0.0, 5.010221, 4.953905 
4.5857954e+2, 2.3570183e+2, -647725.8, -734041.7, -28520.914, -0.01024537, 0.018498903, -639153.25, -8997.224, 0.0, 5.008666, 4.953394 
4.585376e+2, 2.4065374e+2, -609215.8, -700780.9, -27232.676, -0.005159081, 0.03209825, -601728.7, -20100.074, 0.0, 5.0070205, 4.9485393 
4.5849553e+2, 2.4560493e+2, -562226.4, -648053.6, -27333.37, -0.011405263, 0.037992503, -554260.8, -21160.32, 0.0, 5.0052347, 4.9504623 
4.584533e+2, 2.5055593e+2, -517922.06, -600905.8, -27433.3, -0.018704994, 0.037667405, -509673.0, -25099.205, 0.0, 5.003362, 4.950479 
4.584112e+2, 2.555069e+2, -474090.84, -554407.9, -27566.629, -0.026057206, 0.036827963, -465539.75, -29492.48, 0.0, 5.0013895, 4.9502983 
4.5837188e+2, 2.6045385e+2, -439631.22, -528609.1, -23258.574, -0.026767762, 0.03941277, -433918.28, -46352.246, 0.0, 4.9993076, 4.942859 
4.583401e+2, 2.6539764e+2, -396430.22, -481780.22, -20791.77, -0.027908258, 0.032438915, -391634.7, -52494.184, 0.0, 4.996963, 4.942712 
4.5830914e+2, 2.7034196e+2, -353794.06, -434580.63, -21043.89, -0.033135246, 0.029665394, -348641.06, -57928.305, 0.0, 4.994238, 4.9429626 
4.5827857e+2, 2.752865e+2, -312160.56, -387979.2, -21206.732, -0.03818422, 0.025757063, -306632.1, -64349.727, 0.0, 4.991119, 4.943163 
4.5824632e+2, 2.8023037e+2, -284902.9, -386496.75, -16510.717, -0.088307634, 0.12081249, -282286.97, -88434.3, 0.0, 4.9905024, 4.9267235 
4.5822102e+2, 2.8517038e+2, -216851.88, -294259.13, -15744.843, -0.08007999, 0.14653227, -213771.89, -68341.59, 0.0, 4.9910336, 4.9411974 
4.582003e+2, 2.90107e+2, -173803.69, -246486.17, -15751.857, -0.023951171, 0.080442965, -170536.77, -73500.55, 0.0, 4.9886956, 4.9414697 
4.5818046e+2, 2.9504365e+2, -133702.72, -200033.7, -15860.699, 0.028383011, 0.009510954, -130105.3, -81462.586, 0.0, 4.985177, 4.9417415 
4.5816332e+2, 2.999967e+2, -84035.49, -93783.07, -9810.114, 0.058765266, -0.04007575, -77955.19, -77859.586, 0.0, 4.9806185, 4.9729266 
4.5816123e+2, 3.0498973e+2, -96283.72, -88159.91, -5952.5767, 0.06805999, 0.043041315, -85015.414, -85015.414, 0.0, 4.97404, 4.976149 
4.5816395e+2, 3.0999032e+2, -118961.555, -94354.93, -6573.5215, 0.085335046, 0.15933275, -92708.95, -92708.95, 0.0, 4.9649076, 4.9774594 
4.5816907e+2, 3.1499264e+2, -147885.25, -103438.88, -7766.671, 0.10463732, 0.27299774, -102120.805, -102120.805, 0.0, 4.9534087, 4.9787693 
4.6448675e+2, 1.2157998e+2, -1630794.4, -1746407.4, 2697.8115, 0.01955671, 0.0021573517, -1630731.4, 117777.73, 0.0, 5.0492444, 4.9735527 
4.644609e+2, 1.265492e+2, -1590267.9, -1707095.0, -3134.1958, 0.0026528463, -0.0180739, -1590183.9, 109626.0, 0.0, 5.047599, 4.971248 
4.6443576e+2, 1.3152044e+2, -1546286.6, -1660675.8, -3575.3235, 0.00042115853, -0.018536398, -1546175.0, 104916.39, 0.0, 5.045967, 4.9712477 
4.6441063e+2, 1.3649163e+2, -1504431.3, -1618690.4, -4019.6475, -0.0017820618, -0.017705027, -1504290.0, 98083.05, 0.0, 5.0443354, 4.9697685 
4.6438244e+2, 1.4146087e+2, -1464455.8, -1580664.1, -9794.204, -0.0027855127, -0.0021427681, -1463636.1, 90038.57, 0.0, 5.0426764, 4.966921 
4.6434924e+2, 1.4642848e+2, -1419820.8, -1532496.9, -10910.801, -0.0046528834, -0.0028575035, -1418773.9, 86219.26, 0.0, 5.040931, 4.9675145 
4.643159e+2, 1.5139605e+2, -1376050.4, -1486109.5, -11221.692, -0.0069240956, -0.004807963, -1374917.9, 81394.44, 0.0, 5.0391793, 4.967511 
4.6428257e+2, 1.5636364e+2, -1333624.6, -1442574.6, -11515.754, -0.009210414, -0.0063154176, -1332420.8, 75210.75, 0.0, 5.037428, 4.966545 
4.6424672e+2, 1.6132848e+2, -1294631.6, -1406482.6, -16207.511, -0.011618765, -0.0016843836, -1292330.5, 66647.05, 0.0, 5.0356927, 4.96309 
4.642068e+2, 1.6629241e+2, -1249864.0, -1358108.3, -17366.36, -0.012564965, -0.0010763282, -1247146.1, 63186.832, 0.0, 5.0339365, 4.9637127 
4.641668e+2, 1.7125645e+2, -1205969.4, -1311567.5, -17701.365, -0.013305366, -0.00028079984, -1203081.1, 58606.195, 0.0, 5.0321755, 4.9637117 
4.6412677e+2, 1.762205e+2, -1163161.3, -1267369.5, -18019.145, -0.014011302, 0.0008733045, -1160133.4, 52908.29, 0.0, 5.0304146, 4.962914 
4.6408528e+2, 1.8118198e+2, -1123957.4, -1231182.6, -21167.438, -0.014285897, 0.008967854, -1119929.9, 44491.516, 0.0, 5.0287023, 4.9593835 
4.64041e+2, 1.8614231e+2, -1078244.8, -1181392.6, -22183.46, -0.013186145, 0.0069143428, -1073676.3, 42136.277, 0.0, 5.0270457, 4.960387 
4.639966e+2, 1.9110276e+2, -1033906.4, -1134548.4, -22532.047, -0.0119884955, 0.0045258263, -1029092.1, 38110.348, 0.0, 5.025387, 4.960388 
4.6395224e+2, 1.9606322e+2, -990428.1, -1089589.0, -22872.047, -0.0107648615, 0.0024652465, -985406.8, 33185.42, 0.0, 5.023728, 4.9597397 
4.639071e+2, 2.0102157e+2, -951220.0, -1053635.6, -24111.588, -0.012176663, 0.011549437, -945827.4, 24175.336, 0.0, 5.0220146, 4.956033 
4.6386045e+2, 2.0597953e+2, -905603.1, -1003116.06, -24671.988, -0.018456386, 0.016796494, -899716.2, 21700.326, 0.0, 5.02014, 4.957342 
4.6381375e+2, 2.109376e+2, -861766.2, -956444.25, -24966.309, -0.024750136, 0.02111872, -855586.06, 17243.055, 0.0, 5.018255, 4.957338 
4.6376705e+2, 2.1589568e+2, -818561.6, -911193.44, -25254.18, -0.031034049, 0.025430469, -812124.0, 12117.896, 0.0, 5.016371, 4.956834 
4.63721e+2, 2.2085068e+2, -780803.75, -878147.25, -24976.012, -0.03408268, 0.035032187, -774769.56, 915.8397, 0.0, 5.01454, 4.9520764 
4.6367648e+2, 2.2580402e+2, -734511.4, -826800.1, -25136.56, -0.02899504, 0.031215489, -728109.1, -961.8749, 0.0, 5.0127807, 4.953559 
4.6363205e+2, 2.3075761e+2, -690179.44, -779767.25, -25471.885, -0.02353649, 0.027294096, -683443.6, -4837.0225, 0.0, 5.011014, 4.953564 
4.6358767e+2, 2.3571123e+2, -646469.4, -734149.7, -25798.77, -0.0180786, 0.023347627, -639441.7, -9375.787, 0.0, 5.009247, 4.953068 
4.6354386e+2, 2.4066295e+2, -608097.4, -700315.8, -24614.23, -0.014797253, 0.037198585, -601938.8, -20397.613, 0.0, 5.007454, 4.948463 
4.6350032e+2, 2.4561362e+2, -560374.75, -647415.1, -24715.99, -0.019207641, 0.039346144, -553846.06, -20827.91, 0.0, 5.005982, 4.950308 
4.6345672e+2, 2.5056407e+2, -514803.63, -599731.8, -24880.305, -0.023896279, 0.035648715, -508051.6, -23554.992, 0.0, 5.004584, 4.9503126 
4.6341318e+2, 2.555145e+2, -469457.4, -552590.1, -25043.357, -0.028209629, 0.031704, -462496.13, -26520.967, 0.0, 5.003183, 4.950119 
4.6337235e+2, 2.6046118e+2, -433053.44, -525675.4, -20628.37, -0.02562453, 0.03432834, -428666.94, -41171.51, 0.0, 5.001787, 4.9427886 
4.6333793e+2, 2.6540583e+2, -387611.03, -476287.94, -17682.17, -0.030504793, 0.035500914, -384215.22, -45158.258, 0.0, 5.0000286, 4.9433537 
4.633039e+2, 2.7035123e+2, -342680.16, -427824.9, -17485.373, -0.040429913, 0.03993515, -339229.22, -48615.566, 0.0, 4.9981704, 4.943729 
4.6326998e+2, 2.7529696e+2, -297688.94, -379560.66, -17290.871, -0.04945613, 0.041988358, -294187.0, -52020.04, 0.0, 4.996311, 4.9440565 
4.6323615e+2, 2.8024063e+2, -268149.5, -371980.6, -9867.495, -0.09502398, 0.10953179, -267220.1, -73484.72, 0.0, 4.9952927, 4.930271 
4.632102e+2, 2.8517893e+2, -212270.31, -296752.1, -9881.74, -0.089539684, 0.11903561, -211129.86, -65799.97, 0.0, 4.993389, 4.9401145 
4.6318763e+2, 2.9011455e+2, -170332.84, -249220.56, -10529.536, -0.03807674, 0.06440519, -168951.6, -72004.734, 0.0, 4.9905057, 4.940436 
4.6316558e+2, 2.9505e+2, -128322.11, -201670.98, -11282.287, 0.017081091, 0.003382603, -126625.92, -78060.086, 0.0, 4.9875984, 4.940758 
4.6314612e+2, 3.0000374e+2, -73904.56, -89461.16, -5660.264, 0.06088194, -0.022528488, -72063.06, -72049.46, 0.0, 4.9843545, 4.973382 
4.6314067e+2, 3.0499882e+2, -78561.54, -77373.12, -3227.601, 0.097774275, 0.095447265, -74685.484, -74685.484, 0.0, 4.980552, 4.9778705 
4.6313912e+2, 3.1000248e+2, -86935.8, -76592.22, -6097.4365, 0.15398434, 0.260277, -73768.625, -73768.625, 0.0, 4.976889, 4.9794683 
4.6313936e+2, 3.1501028e+2, -95118.78, -76013.05, -9255.468, 0.22473793, 0.4485895, -72264.76, -72264.76, 0.0, 4.9731984, 4.981068 
4.6953502e+2, 1.215993e+2, -1631536.3, -1747969.4, 1174.914, 0.010188596, -0.009692853, -1631524.4, 116794.67, 0.0, 5.0492473, 4.973041 
4.6950892e+2, 1.2657014e+2, -1591048.3, -1708782.9, -4360.9087, 0.007161625, -0.008328181, -1590887.0, 108717.45, 0.0, 5.0476084, 4.970693 
4.6948197e+2, 1.3154036e+2, -1547061.9, -1662359.0, -4801.1353, 0.003038031, -0.013214807, -1546862.3, 104033.664, 0.0, 5.045977, 4.9706926 
4.6945497e+2, 1.3651057e+2, -1505207.0, -1620381.0, -5251.0444, -0.0010769274, -0.016795948, -1504968.1, 97219.53, 0.0, 5.0443454, 4.96921 
4.6942502e+2, 1.4147897e+2, -1465022.8, -1581937.5, -11110.181, -0.002883092, -0.0043788464, -1463976.3, 89520.984, 0.0, 5.0426884, 4.9665003 
4.6939018e+2, 1.4644618e+2, -1420327.3, -1533650.4, -12229.971, -0.0033723903, -0.005463222, -1419022.4, 85796.81, 0.0, 5.0409436, 4.9671326 
4.6935526e+2, 1.5141335e+2, -1376553.6, -1487260.5, -12540.908, -0.004220995, -0.0076700873, -1375150.8, 80990.86, 0.0, 5.0391917, 4.967129 
4.6932033e+2, 1.563805e+2, -1334125.5, -1443725.3, -12837.212, -0.005091773, -0.009428281, -1332642.0, 74822.03, 0.0, 5.037441, 4.966162 
4.6928278e+2, 1.6134498e+2, -1295136.8, -1407659.9, -17549.094, -0.0070283953, -0.00490068, -1292463.3, 66350.12, 0.0, 5.0357075, 4.962697 
4.692409e+2, 1.6630854e+2, -1250383.4, -1359324.1, -18696.697, -0.0096010845, -0.0040401677, -1247263.9, 62908.652, 0.0, 5.033952, 4.9633055 
4.6919894e+2, 1.712722e+2, -1206485.3, -1312782.3, -19031.213, -0.012060552, -0.0029633306, -1203180.8, 58350.023, 0.0, 5.0321913, 4.963304 
4.69157e+2, 1.7623587e+2, -1163673.0, -1268581.8, -19347.582, -0.014497036, -0.001515565, -1160218.6, 52670.22, 0.0, 5.030431, 4.962507 
4.6911365e+2, 1.81197e+2, -1124457.0, -1232410.6, -22440.592, -0.016083522, 0.0072002513, -1119978.0, 44294.04, 0.0, 5.0287237, 4.958971 
4.6906766e+2, 1.8615699e+2, -1078743.1, -1182637.5, -23432.793, -0.015304796, 0.005821892, -1073702.6, 41964.277, 0.0, 5.0270696, 4.959967 
4.6902162e+2, 1.9111706e+2, -1034399.75, -1135790.6, -23780.307, -0.014416887, 0.00403841, -1029099.4, 37961.18, 0.0, 5.0254116, 4.959968 
4.6897554e+2, 1.9607717e+2, -990916.7, -1090828.9, -24119.063, -0.013529543, 0.0025836476, -985399.0, 33055.16, 0.0, 5.023753, 4.959319 
4.6892872e+2, 2.0103507e+2, -951585.56, -1054619.0, -25505.922, -0.014984208, 0.010891447, -945617.25, 24251.904, 0.0, 5.022041, 4.9556994 
4.688803e+2, 2.0599249e+2, -905989.06, -1004145.2, -26110.006, -0.019808846, 0.014161761, -899475.9, 21812.12, 0.0, 5.0201654, 4.956993 
4.688319e+2, 2.1095006e+2, -862152.6, -957475.0, -26401.777, -0.024516512, 0.01678997, -855328.56, 17376.768, 0.0, 5.01828, 4.956988 
4.687835e+2, 2.1590762e+2, -818948.6, -912225.94, -26686.953, -0.029233687, 0.01946235, -811853.1, 12269.678, 0.0, 5.0163946, 4.9564834 
4.687357e+2, 2.2086231e+2, -781262.0, -879403.1, -26303.686, -0.031939704, 0.030002482, -774656.7, 912.48456, 0.0, 5.014573, 4.9516463 
4.6868902e+2, 2.258157e+2, -734919.9, -827983.5, -26462.719, -0.030645166, 0.0308517, -727921.5, -890.0763, 0.0, 5.012819, 4.9531503 
4.686424e+2, 2.3076935e+2, -690584.0, -780943.94, -26793.805, -0.029374255, 0.031384, -683236.5, -4745.185, 0.0, 5.0110526, 4.9531565 
4.6859586e+2, 2.3572299e+2, -646870.2, -735319.8, -27116.309, -0.028150415, 0.031898014, -639218.94, -9267.736, 0.0, 5.0092854, 4.9526606 
4.6854997e+2, 2.4067444e+2, -608153.1, -700758.44, -25871.39, -0.028337192, 0.04575892, -601415.56, -19985.523, 0.0, 5.0074973, 4.94831 
4.685051e+2, 2.4562424e+2, -560514.44, -648039.44, -25781.305, -0.03163498, 0.041148443, -553484.94, -20569.129, 0.0, 5.0060205, 4.950097 
4.6846035e+2, 2.5057384e+2, -514967.84, -600373.56, -25934.695, -0.034763675, 0.031579725, -507709.3, -23306.8, 0.0, 5.0046144, 4.9500995 
4.6841562e+2, 2.5552347e+2, -469645.94, -553249.1, -26086.783, -0.0376983, 0.022077078, -462173.84, -26284.775, 0.0, 5.003205, 4.9499035 
4.6837342e+2, 2.6046988e+2, -432927.3, -525590.44, -21783.236, -0.035281245, 0.024480356, -428061.97, -40650.92, 0.0, 5.0018096, 4.9428368 
4.683368e+2, 2.6541534e+2, -386486.47, -473939.03, -18916.316, -0.046101432, 0.031023053, -382570.2, -43612.145, 0.0, 5.0000534, 4.9442267 
4.6830037e+2, 2.7036154e+2, -341562.5, -425493.78, -18567.832, -0.06252431, 0.0387945, -337638.28, -47138.52, 0.0, 4.998197, 4.944593 
4.682641e+2, 2.7530804e+2, -296578.13, -377247.1, -18221.895, -0.07814068, 0.04391547, -292653.06, -50614.453, 0.0, 4.99634, 4.944912 
4.682295e+2, 2.802508e+2, -265262.56, -363531.3, -11786.887, -0.110929675, 0.08186848, -263868.53, -70259.125, 0.0, 4.995045, 4.933268 
4.6820197e+2, 2.8518683e+2, -215240.89, -300439.78, -12725.142, -0.09497384, 0.066220604, -213380.89, -68157.08, 0.0, 4.992924, 4.938968 
4.6817622e+2, 2.9012105e+2, -173236.39, -253080.48, -13277.714, -0.04974759, 0.013501931, -171086.27, -74233.91, 0.0, 4.9900684, 4.939228 
4.6815103e+2, 2.9505512e+2, -131157.9, -205702.56, -13935.372, -0.0017487453, -0.04514218, -128638.016, -80154.984, 0.0, 4.9871874, 4.9394884 
4.6812817e+2, 3.000096e+2, -75547.42, -91873.39, -8720.411, 0.035847742, -0.050052334, -71765.54, -71765.54, 0.0, 4.984079, 4.97264 
4.681176e+2, 3.050026e+2, -78735.7, -78777.54, -5704.8843, 0.05457651, 0.06776339, -73051.695, -73051.695, 0.0, 4.980597, 4.9776587 
4.6811065e+2, 3.1000096e+2, -86285.08, -77935.65, -8106.864, 0.086490475, 0.20324837, -72991.734, -72991.734, 0.0, 4.9771986, 4.979167 
4.6810538e+2, 3.150027e+2, -93641.58, -77296.73, -10797.684, 0.13077597, 0.35488024, -71927.42, -71927.42, 0.0, 4.9737725, 4.9806767 
4.7458357e+2, 1.2161877e+2, -1632191.9, -1749356.8, -323.31744, 0.0030223483, -0.019981043, -1632191.0, 115936.59, 0.0, 5.0492506, 4.9725866 
4.7455692e+2, 1.2659107e+2, -1591828.5, -1710471.6, -5587.58, 0.011650471, 0.0014310487, -1591565.9, 107833.01, 0.0, 5.0476184, 4.970138 
4.7452813e+2, 1.3156028e+2, -1547837.0, -1664042.9, -6026.9053, 0.005626725, -0.007900196, -1547525.3, 103175.29, 0.0, 5.045987, 4.970138 
4.7449934e+2, 1.3652949e+2, -1505982.8, -1622072.4, -6482.465, -0.00040822304, -0.015914315, -1505621.9, 96380.4, 0.0, 5.044356, 4.968652 
4.7446758e+2, 1.4149708e+2, -1465596.3, -1583226.6, -12426.353, -0.0029834772, -0.006612956, -1464297.9, 89022.05, 0.0, 5.042701, 4.9660745 
4.7443116e+2, 1.4646387e+2, -1420833.3, -1534804.8, -13548.721, -0.0020826068, -0.008067713, -1419244.8, 85400.555, 0.0, 5.0409565, 4.96675 
4.7439462e+2, 1.5143064e+2, -1377056.3, -1488412.4, -13859.704, -0.001504973, -0.010542808, -1375357.1, 80613.76, 0.0, 5.039205, 4.966747 
4.7435805e+2, 1.5639739e+2, -1334625.9, -1444876.9, -14158.2705, -0.00095658115, -0.012563554, -1332836.8, 74459.91, 0.0, 5.0374537, 4.965779 
4.7431877e+2, 1.6136146e+2, -1295647.6, -1408851.4, -18888.719, -0.0024573505, -0.008109513, -1292579.1, 66070.17, 0.0, 5.0357227, 4.9623 
4.7427502e+2, 1.6632465e+2, -1250902.3, -1360541.0, -20025.918, -0.0066613494, -0.007001273, -1247359.0, 62653.242, 0.0, 5.0339684, 4.9628983 
4.7423115e+2, 1.7128795e+2, -1207000.8, -1313997.9, -20359.943, -0.010832431, -0.0056610513, -1203257.5, 58116.63, 0.0, 5.0322075, 4.9628963 
4.7418725e+2, 1.7625123e+2, -1164184.5, -1269794.8, -20674.9, -0.014992016, -0.003937526, -1160281.3, 52454.79, 0.0, 5.0304475, 4.962099 
4.7414201e+2, 1.8121204e+2, -1124961.0, -1233648.4, -23707.531, -0.017892227, 0.005463251, -1120014.9, 44107.867, 0.0, 5.0287457, 4.9585547 
4.7409436e+2, 1.8617167e+2, -1079241.9, -1183882.4, -24681.469, -0.017439568, 0.004768023, -1073712.5, 41808.74, 0.0, 5.027094, 4.9595466 
4.740466e+2, 1.911314e+2, -1034893.5, -1137032.9, -25027.91, -0.016862623, 0.0035716551, -1029090.44, 37828.28, 0.0, 5.0254364, 4.959547 
4.7399887e+2, 1.9609113e+2, -991405.56, -1092068.8, -25365.422, -0.016312784, 0.0027048176, -985375.2, 32940.93, 0.0, 5.023779, 4.958898 
4.7395033e+2, 2.0104855e+2, -951972.9, -1055650.3, -26899.578, -0.017784964, 0.010234445, -945409.2, 24326.533, 0.0, 5.022067, 4.9553485 
4.739002e+2, 2.0600544e+2, -906374.94, -1005174.9, -27546.174, -0.021138404, 0.011479063, -899213.94, 21945.662, 0.0, 5.020191, 4.9566426 
4.7385007e+2, 2.1096249e+2, -862539.0, -958506.3, -27835.398, -0.024251886, 0.012340152, -855049.8, 17531.926, 0.0, 5.0183053, 4.956637 
4.7379994e+2, 2.1591954e+2, -819335.5, -913259.0, -28117.88, -0.027394224, 0.013300142, -811561.4, 12442.558, 0.0, 5.0164194, 4.9561315 
4.7375035e+2, 2.2087398e+2, -781734.5, -880688.9, -27617.363, -0.029830914, 0.025082594, -774548.56, 904.29517, 0.0, 5.014607, 4.9512053 
4.7370157e+2, 2.2582741e+2, -735329.75, -829165.94, -27790.875, -0.03239951, 0.030689415, -727716.75, -801.34827, 0.0, 5.012857, 4.9527407 
4.736528e+2, 2.3078108e+2, -690990.0, -782119.6, -28117.72, -0.03534699, 0.035598736, -683012.7, -4636.778, 0.0, 5.011091, 4.952748 
4.7360405e+2, 2.3573478e+2, -647272.4, -736489.0, -28435.846, -0.038387895, 0.04049668, -638979.8, -9143.481, 0.0, 5.0093246, 4.952253 
4.7355613e+2, 2.4068591e+2, -608235.44, -701251.3, -27121.354, -0.04173363, 0.054335132, -600905.1, -19586.313, 0.0, 5.007541, 4.948138 
4.7350997e+2, 2.4563482e+2, -560659.8, -648658.7, -26844.283, -0.043795224, 0.04287071, -553117.3, -20303.842, 0.0, 5.0060596, 4.949885 
4.7346398e+2, 2.505836e+2, -515137.66, -601010.25, -26986.76, -0.04542238, 0.027267206, -507360.9, -23052.348, 0.0, 5.0046453, 4.9498854 
4.7341806e+2, 2.555324e+2, -469840.0, -553903.06, -27127.895, -0.04703652, 0.0120432405, -461845.84, -26042.574, 0.0, 5.0032277, 4.949687 
4.7337452e+2, 2.604786e+2, -432903.28, -525726.25, -22922.834, -0.044897206, 0.0150353685, -427551.06, -40224.484, 0.0, 5.0018325, 4.9427876 
4.7333565e+2, 2.6542482e+2, -385368.47, -471595.03, -20167.264, -0.061497252, 0.024451163, -380884.78, -42025.35, 0.0, 5.0000787, 4.9450407 
4.7329697e+2, 2.703717e+2, -340450.72, -423167.13, -19667.117, -0.08413653, 0.031804, -336012.7, -45625.34, 0.0, 4.9982247, 4.945398 
4.7325838e+2, 2.7531883e+2, -295472.5, -374937.5, -19169.77, -0.10606216, 0.036243495, -291089.78, -49176.957, 0.0, 4.9963694, 4.945708 
4.7322252e+2, 2.8026098e+2, -264229.9, -359302.88, -14123.977, -0.128053, 0.0536126, -262176.03, -68692.79, 0.0, 4.9947987, 4.934777 
4.73193e+2, 2.85195e+2, -218252.02, -304093.47, -15473.425, -0.1032702, 0.021601884, -215548.02, -70433.195, 0.0, 4.992461, 4.9378023 
4.731641e+2, 2.9012784e+2, -176180.38, -256906.27, -15930.719, -0.063764974, -0.0307552, -173150.28, -76394.75, 0.0, 4.9896317, 4.9379997 
4.7313583e+2, 2.9506043e+2, -134034.02, -209699.89, -16493.227, -0.022409787, -0.088568784, -130595.2, -82196.734, 0.0, 4.9867783, 4.9381986 
4.731094e+2, 3.000145e+2, -78084.41, -96240.84, -11533.179, 0.006102152, -0.081182115, -72485.15, -72485.15, 0.0, 4.9838057, 4.9711337 
4.73094e+2, 3.0500403e+2, -78952.516, -80141.07, -8051.334, 0.0040784366, 0.020236012, -71473.56, -71473.56, 0.0, 4.9806433, 4.977314 
4.7308213e+2, 3.0999663e+2, -85677.07, -79239.04, -9985.298, 0.011990068, 0.11443026, -71966.72, -71966.72, 0.0, 4.9775105, 4.978732 
4.730718e+2, 3.1499192e+2, -92207.47, -78541.055, -12208.752, 0.030103276, 0.21746798, -71383.33, -71383.33, 0.0, 4.974349, 4.980151 
4.7963235e+2, 1.2163878e+2, -1631273.0, -1749919.0, -571.7445, -0.0013740995, -0.026591623, -1631270.3, 116660.5, 0.0, 5.04978, 4.972144 
4.796049e+2, 1.2661198e+2, -1591139.6, -1711376.3, -5639.992, 0.015521906, 0.00916556, -1590875.6, 108317.93, 0.0, 5.048117, 4.9695997 
4.7957432e+2, 1.3158031e+2, -1547366.6, -1665059.3, -6043.6255, 0.007889258, -0.0035943177, -1547057.1, 103446.945, 0.0, 5.0464115, 4.9695983 
4.7954372e+2, 1.3654861e+2, -1505738.4, -1623212.6, -6470.5586, 0.00024366757, -0.015095266, -1505383.0, 96431.84, 0.0, 5.0447054, 4.9681077 
4.795102e+2, 1.4151545e+2, -1465342.4, -1584101.9, -12473.481, -0.0028997017, -0.008320649, -1464046.5, 89093.49, 0.0, 5.042994, 4.9656467 
4.7947213e+2, 1.464818e+2, -1420560.9, -1535569.3, -13624.993, -0.00073737535, -0.01025406, -1418968.8, 85500.28, 0.0, 5.0412335, 4.9663663 
4.7943398e+2, 1.5144812e+2, -1376824.0, -1489195.8, -13965.871, 0.0011386754, -0.013131735, -1375114.3, 80683.87, 0.0, 5.039468, 4.966363 
4.793958e+2, 1.5641445e+2, -1334433.3, -1445680.4, -14294.249, 0.0029950133, -0.015549146, -1332625.9, 74501.48, 0.0, 5.037703, 4.965395 
4.7935483e+2, 1.6137812e+2, -1295524.0, -1409716.5, -19055.043, 0.0019036668, -0.011252379, -1292428.3, 66055.336, 0.0, 5.0359516, 4.9619055 
4.7930914e+2, 1.6634093e+2, -1250906.0, -1361476.5, -20171.574, -0.0037055807, -0.009978575, -1247341.0, 62509.234, 0.0, 5.0341544, 4.9625 
4.7926334e+2, 1.7130385e+2, -1207132.1, -1314995.5, -20492.021, -0.009347632, -0.00847099, -1203370.1, 57845.813, 0.0, 5.0323496, 4.9624977 
4.7921753e+2, 1.7626677e+2, -1164443.5, -1270852.9, -20791.32, -0.014993594, -0.0065716757, -1160525.4, 52056.3, 0.0, 5.0305448, 4.9617004 
4.791705e+2, 1.8122724e+2, -1125356.4, -1234804.5, -23737.793, -0.01906593, 0.0035084232, -1120429.8, 43542.03, 0.0, 5.028801, 4.958144 
4.7912112e+2, 1.861865e+2, -1079754.5, -1185102.4, -24693.303, -0.018968033, 0.003524252, -1074253.6, 41120.18, 0.0, 5.027109, 4.9591327 
4.7907168e+2, 1.9114587e+2, -1035533.0, -1138313.1, -25034.705, -0.018703556, 0.002897117, -1029759.5, 37015.707, 0.0, 5.025407, 4.9591327 
4.7902223e+2, 1.9610524e+2, -992186.2, -1093415.9, -25365.05, -0.018464766, 0.0025702463, -986186.1, 31990.309, 0.0, 5.0236998, 4.958483 
4.78972e+2, 2.0106219e+2, -952731.2, -1056867.3, -27033.652, -0.019916201, 0.009304081, -946131.5, 23469.322, 0.0, 5.0219707, 4.9549856 
4.7892013e+2, 2.0601852e+2, -906915.44, -1006250.2, -27750.979, -0.021948878, 0.008513009, -899688.5, 21341.303, 0.0, 5.020163, 4.956295 
4.7886828e+2, 2.1097505e+2, -862882.75, -959485.56, -28068.555, -0.023623934, 0.0075612846, -855319.44, 17137.371, 0.0, 5.018345, 4.95629 
4.7881648e+2, 2.1593158e+2, -819494.9, -914148.94, -28373.92, -0.025324618, 0.0067519625, -811641.06, 12242.726, 0.0, 5.016523, 4.955785 
4.7876507e+2, 2.2088577e+2, -781934.8, -881798.7, -27729.186, -0.027611181, 0.02000353, -774751.9, 583.30194, 0.0, 5.014736, 4.9507713 
4.7871417e+2, 2.2583926e+2, -735635.06, -830234.25, -27876.264, -0.033836428, 0.030219026, -728031.7, -1233.6902, 0.0, 5.0129294, 4.9523444 
4.7866327e+2, 2.3079295e+2, -691500.06, -783283.1, -28147.45, -0.040691707, 0.039159484, -683555.6, -5296.4307, 0.0, 5.0110908, 4.952351 
4.7861236e+2, 2.3574662e+2, -648026.4, -737764.7, -28408.42, -0.047657095, 0.04806516, -639789.25, -10068.809, 0.0, 5.0092373, 4.951856 
4.785624e+2, 2.4069746e+2, -609025.8, -702105.56, -27016.416, -0.05354073, 0.061693445, -601752.6, -20545.785, 0.0, 5.0073524, 4.9479365 
4.785149e+2, 2.4564551e+2, -562147.5, -649905.5, -26702.791, -0.05419375, 0.043799184, -554661.1, -21950.813, 0.0, 5.0056424, 4.9496512 
4.784677e+2, 2.5059345e+2, -517441.34, -602629.0, -26963.51, -0.05431637, 0.022514392, -509624.2, -25410.566, 0.0, 5.0039434, 4.9496517 
4.784205e+2, 2.555415e+2, -473057.66, -555935.06, -27209.445, -0.054582424, 0.001842565, -464922.97, -29206.643, 0.0, 5.002205, 4.9494534 
4.7837555e+2, 2.6048744e+2, -437298.5, -528234.75, -23287.783, -0.05266319, 0.006639869, -431681.7, -44440.957, 0.0, 5.0003934, 4.942545 
4.7833452e+2, 2.654343e+2, -390807.25, -472681.72, -21678.734, -0.07433146, 0.017333232, -385421.44, -46660.5, 0.0, 4.9979005, 4.9455914 
4.7829345e+2, 2.7038157e+2, -348530.9, -425514.6, -22530.418, -0.10227204, 0.021578686, -342421.84, -52144.07, 0.0, 4.9951334, 4.9459047 
4.7825253e+2, 2.7532902e+2, -306626.75, -378671.25, -23800.486, -0.12957543, 0.022664372, -299474.2, -57681.1, 0.0, 4.992212, 4.94618 
4.7821498e+2, 2.8027073e+2, -279238.13, -365634.72, -22192.922, -0.14255035, 0.029439077, -273870.8, -80508.914, 0.0, 4.9895854, 4.93471 
4.781831e+2, 2.852031e+2, -231314.22, -311927.7, -22887.967, -0.11146761, -0.01059975, -225269.13, -80261.96, 0.0, 4.988421, 4.9366364 
4.7815135e+2, 2.901345e+2, -185711.17, -263518.9, -22744.682, -0.07766119, -0.06479967, -179550.3, -82890.266, 0.0, 4.9868574, 4.9367375 
4.7812003e+2, 2.9506558e+2, -141481.19, -215716.06, -22927.729, -0.04250094, -0.124137394, -134970.83, -86655.03, 0.0, 4.9847584, 4.936844 
4.7809002e+2, 3.0001804e+2, -85831.05, -104517.695, -17750.902, -0.02539193, -0.11420384, -75114.65, -75114.65, 0.0, 4.9819613, 4.9688587 
4.7807e+2, 3.0500287e+2, -88677.33, -85746.445, -13938.226, -0.04865819, -0.04476778, -73196.836, -73196.836, 0.0, 4.977281, 4.9768033 
4.7805363e+2, 3.0998945e+2, -102891.18, -88413.4, -16213.994, -0.061949883, -0.0011830019, -77895.74, -77895.74, 0.0, 4.971462, 4.9780955 
4.7803867e+2, 3.1497806e+2, -119464.93, -92346.625, -19427.104, -0.066906355, 0.045585863, -82214.79, -82214.79, 0.0, 4.96471, 4.9793944 
4.8468477e+2, 1.2166535e+2, -1619122.5, -1745370.6, 3008.2178, 0.00089410954, -0.015069837, -1619050.8, 128618.625, 0.0, 5.054206, 4.971474 
4.8465505e+2, 1.2663601e+2, -1579377.3, -1706483.6, -2470.394, 0.013735722, 0.00024756946, -1579329.3, 119628.04, 0.0, 5.052297, 4.969169 
4.846227e+2, 1.3160437e+2, -1536499.4, -1660632.0, -2825.2, 0.0073225806, -0.007670532, -1536435.1, 113832.58, 0.0, 5.0502987, 4.9691668 
4.8459032e+2, 1.3657269e+2, -1495760.3, -1619252.8, -3204.4683, 0.00089572713, -0.014423092, -1495677.1, 105901.33, 0.0, 5.0483, 4.9676714 
4.8455504e+2, 1.4153932e+2, -1456090.6, -1580465.4, -9159.646, -0.0013657771, -0.005091827, -1455419.8, 97485.85, 0.0, 5.0463305, 4.9652343 
4.8451507e+2, 1.465051e+2, -1411877.1, -1532218.4, -10305.304, 0.00073021505, -0.008308543, -1411001.0, 93239.24, 0.0, 5.0443807, 4.9659576 
4.8447505e+2, 1.5147085e+2, -1368703.3, -1486134.1, -10668.22, 0.0025138024, -0.012529293, -1367741.9, 87833.16, 0.0, 5.042429, 4.965955 
4.84435e+2, 1.5643662e+2, -1326873.4, -1442906.9, -11020.773, 0.004301349, -0.016286297, -1325835.9, 81074.016, 0.0, 5.0404773, 4.964986 
4.843921e+2, 1.6139978e+2, -1288400.9, -1406938.6, -15807.618, 0.003508337, -0.013075455, -1286329.0, 71941.914, 0.0, 5.0385265, 4.9615974 
4.843446e+2, 1.663622e+2, -1244450.0, -1358996.8, -16845.89, -0.0010231264, -0.012422652, -1242024.0, 67616.73, 0.0, 5.036497, 4.9622083 
4.84297e+2, 1.7132474e+2, -1201366.4, -1312861.0, -17088.266, -0.005578004, -0.011522804, -1198806.1, 62203.38, 0.0, 5.0344596, 4.9622054 
4.8424938e+2, 1.7628728e+2, -1159361.4, -1269056.5, -17306.807, -0.010154305, -0.010228615, -1156695.6, 55682.664, 0.0, 5.032422, 4.9614077 
4.8420048e+2, 1.8124743e+2, -1120927.8, -1233306.9, -20070.904, -0.013919215, -0.00026221256, -1117450.6, 46320.418, 0.0, 5.03045, 4.957861 
4.8414913e+2, 1.8620643e+2, -1075958.3, -1183992.0, -20917.232, -0.015085696, 0.00053728325, -1072049.8, 43126.035, 0.0, 5.0285587, 4.9588156 
4.8409778e+2, 1.911655e+2, -1032293.0, -1137477.6, -21180.855, -0.016073095, 0.00064930395, -1028188.06, 38391.727, 0.0, 5.0266657, 4.9588146 
4.8404643e+2, 1.961246e+2, -989484.0, -1092844.6, -21433.656, -0.017014872, 0.0009906837, -985215.6, 32768.23, 0.0, 5.0247726, 4.958164 
4.839943e+2, 2.0108116e+2, -950421.6, -1056572.0, -23026.78, -0.018876228, 0.007434838, -945641.75, 23770.38, 0.0, 5.0229254, 4.9546294 
4.8394072e+2, 2.0603696e+2, -904629.94, -1006005.56, -23759.715, -0.020479213, 0.005270258, -899337.56, 21509.072, 0.0, 5.02112, 4.9559216 
4.838871e+2, 2.1099295e+2, -860577.44, -959222.7, -24107.604, -0.021809043, 0.0030471212, -855001.1, 17277.953, 0.0, 5.0193095, 4.9559193 
4.8383352e+2, 2.1594895e+2, -817159.25, -913861.8, -24446.713, -0.023167733, 0.0009794518, -811330.4, 12381.062, 0.0, 5.017499, 4.9554176 
4.8378032e+2, 2.2090286e+2, -779597.9, -880989.25, -23755.244, -0.025830429, 0.014452567, -774308.2, 857.3388, 0.0, 5.0156155, 4.9506254 
4.8372743e+2, 2.2585623e+2, -733923.25, -829700.06, -23736.033, -0.03305583, 0.025230067, -728363.56, -1734.8577, 0.0, 5.0135856, 4.9522066 
4.8367447e+2, 2.3080973e+2, -690334.6, -783018.44, -23820.475, -0.04060468, 0.034148052, -684570.94, -6480.077, 0.0, 5.011551, 4.95221 
4.8362154e+2, 2.357632e+2, -647363.2, -737748.4, -23898.229, -0.04806968, 0.04285722, -641433.4, -11880.137, 0.0, 5.0095167, 4.951712 
4.835697e+2, 2.407136e+2, -608873.06, -702727.6, -22346.334, -0.053572964, 0.05411492, -603824.1, -22780.152, 0.0, 5.0075283, 4.9476137 
4.8352057e+2, 2.4566135e+2, -562569.56, -651110.3, -22149.537, -0.05269749, 0.038008694, -557337.75, -24785.197, 0.0, 5.005699, 4.9491825 
4.8347163e+2, 2.5060916e+2, -518243.9, -603970.44, -22560.426, -0.05125764, 0.020245722, -512669.25, -28609.512, 0.0, 5.003882, 4.949194 
4.834227e+2, 2.5555703e+2, -474132.75, -557369.25, -22962.992, -0.0498432, 0.0030270435, -468218.1, -32651.887, 0.0, 5.0020647, 4.949006 
4.8337582e+2, 2.6050305e+2, -438727.88, -529884.0, -19080.928, -0.046997875, 0.013788483, -434894.97, -47803.918, 0.0, 5.00017, 4.942065 
4.8333248e+2, 2.654494e+2, -392108.75, -474637.8, -16960.266, -0.06511595, 0.024134997, -388759.22, -50147.02, 0.0, 4.997751, 4.945025 
4.832891e+2, 2.7039564e+2, -349522.28, -428242.47, -16635.813, -0.08795386, 0.02633379, -346151.03, -56016.207, 0.0, 4.995243, 4.945014 
4.8324573e+2, 2.7534163e+2, -306944.72, -381941.84, -16298.882, -0.109723575, 0.026693758, -303555.7, -61896.445, 0.0, 4.9927335, 4.944956 
4.832055e+2, 2.8028202e+2, -278764.0, -367642.4, -12553.445, -0.116889425, 0.03517092, -277024.97, -83787.266, 0.0, 4.990155, 4.9336433 
4.8317164e+2, 2.8521484e+2, -231529.88, -313820.3, -12179.409, -0.09402738, 0.0031634092, -229765.11, -84884.45, 0.0, 4.988389, 4.9357543 
4.8313797e+2, 2.9014665e+2, -186049.06, -266495.44, -12588.734, -0.07029005, -0.042824894, -184125.11, -87592.79, 0.0, 4.9868145, 4.9356027 
4.8310462e+2, 2.9507786e+2, -140516.06, -219155.88, -12923.739, -0.042960133, -0.09422246, -138446.63, -90256.59, 0.0, 4.985213, 4.93545 
4.8307246e+2, 3.0002937e+2, -79768.38, -103430.2, -6815.412, -0.028161775, -0.08902411, -77945.71, -77945.71, 0.0, 4.9835954, 4.9688177 
4.830491e+2, 3.0501154e+2, -77492.8, -82360.81, -1300.8274, -0.043496214, -0.043023895, -77166.99, -77166.99, 0.0, 4.9807873, 4.9770904 
4.8302868e+2, 3.0999586e+2, -85358.29, -83102.516, -1984.0481, -0.04672988, -0.009457209, -81948.17, -81948.17, 0.0, 4.9775743, 4.977964 
4.8300922e+2, 3.1498238e+2, -93086.21, -83994.15, -3040.466, -0.039308365, 0.037159204, -83071.1, -83071.1, 0.0, 4.974323, 4.9788394 
4.8973927e+2, 1.2169421e+2, -1620065.4, -1747424.0, 2035.5554, 0.0040755253, -0.0038565106, -1620032.9, 127352.86, 0.0, 5.0542207, 4.9707975 
4.8970693e+2, 1.2666206e+2, -1579973.5, -1707832.5, -3969.8604, 0.010572997, -0.012160797, -1579850.3, 118851.09, 0.0, 5.052311, 4.968725 
4.8967278e+2, 1.3163063e+2, -1537092.4, -1661976.6, -4323.383, 0.0060860068, -0.01347252, -1536942.9, 113066.83, 0.0, 5.050312, 4.9687233 
4.896386e+2, 1.3659917e+2, -1496356.3, -1620606.8, -4709.368, 0.0015473163, -0.013615837, -1496178.0, 105140.46, 0.0, 5.0483136, 4.967224 
4.8960137e+2, 1.4156573e+2, -1456670.4, -1581795.4, -10655.565, 0.00050610397, -0.0005730112, -1455769.4, 96876.95, 0.0, 5.046345, 4.964795 
4.8955947e+2, 1.4653091e+2, -1412456.0, -1533552.4, -11772.482, 0.0022009122, -0.0052492777, -1411322.1, 92664.81, 0.0, 5.044396, 4.965516 
4.8951742e+2, 1.5149608e+2, -1369277.8, -1487465.1, -12135.617, 0.003512235, -0.011006205, -1368044.5, 87283.29, 0.0, 5.042444, 4.9655128 
4.894754e+2, 1.5646124e+2, -1327445.9, -1444240.0, -12492.002, 0.004822901, -0.016293507, -1326124.8, 80544.08, 0.0, 5.0404935, 4.9645424 
4.8943055e+2, 1.6142389e+2, -1288768.4, -1407855.8, -17343.584, 0.0042577544, -0.014326833, -1286293.9, 71740.77, 0.0, 5.038544, 4.961293 
4.8938116e+2, 1.6638598e+2, -1244779.3, -1359839.1, -18382.043, 0.0014722788, -0.014486185, -1241913.9, 67493.29, 0.0, 5.036515, 4.9619284 
4.893317e+2, 1.7134814e+2, -1201693.4, -1313703.6, -18624.244, -0.0013028564, -0.014385955, -1198677.9, 62100.73, 0.0, 5.034478, 4.961924 
4.8928222e+2, 1.7631033e+2, -1159685.8, -1269898.4, -18841.754, -0.0041151484, -0.013879269, -1156553.6, 55596.383, 0.0, 5.032441, 4.961127 
4.8923138e+2, 1.8127018e+2, -1121213.0, -1234084.5, -21530.51, -0.007248776, -0.004246644, -1117245.5, 46299.445, 0.0, 5.0304713, 4.957601 
4.89178e+2, 1.8622898e+2, -1076293.0, -1184887.1, -22348.244, -0.010137801, -0.0026824113, -1071873.6, 43078.01, 0.0, 5.0285816, 4.9585156 
4.8912457e+2, 1.9118783e+2, -1032623.5, -1138373.1, -22611.266, -0.012931404, -0.0017382568, -1027991.6, 38366.094, 0.0, 5.0266895, 4.9585137 
4.8907113e+2, 1.961467e+2, -989810.25, -1093740.6, -22863.27, -0.01568795, -0.0005547427, -985003.0, 32760.793, 0.0, 5.024798, 4.957862 
4.890171e+2, 2.0110296e+2, -950832.9, -1057709.0, -24406.62, -0.01840306, 0.006103875, -945523.1, 23672.096, 0.0, 5.0229583, 4.9542413 
4.8896173e+2, 2.0605825e+2, -905066.5, -1007219.9, -25129.92, -0.019630333, 0.0029115172, -899219.2, 21415.84, 0.0, 5.021155, 4.9555054 
4.8890635e+2, 2.1101373e+2, -861013.56, -960438.5, -25475.113, -0.020712221, -0.00031586897, -854866.25, 17206.564, 0.0, 5.0193443, 4.955502 
4.8885098e+2, 2.1596923e+2, -817594.9, -915079.4, -25811.387, -0.02186766, -0.0033471498, -811182.5, 12328.072, 0.0, 5.0175333, 4.9549994 
4.8879588e+2, 2.2092287e+2, -779563.7, -881172.9, -25259.414, -0.024997232, 0.009817591, -773630.8, 1336.5684, 0.0, 5.0156484, 4.950567 
4.8874086e+2, 2.2587608e+2, -733889.7, -829892.0, -25280.125, -0.03288916, 0.019679636, -727639.56, -1209.0669, 0.0, 5.0136194, 4.952147 
4.8868588e+2, 2.3082937e+2, -690297.5, -783215.6, -25360.164, -0.04094885, 0.027409662, -683826.56, -5933.475, 0.0, 5.0115867, 4.9521484 
4.8863092e+2, 2.3578265e+2, -647322.5, -737950.9, -25433.36, -0.048953786, 0.034949116, -640672.94, -11317.091, 0.0, 5.0095544, 4.951648 
4.8857713e+2, 2.4073265e+2, -609299.3, -703908.56, -23779.027, -0.05448664, 0.04442535, -603659.0, -22809.293, 0.0, 5.007557, 4.9472075 
4.885262e+2, 2.4568038e+2, -563157.1, -652607.0, -23560.395, -0.052984267, 0.03304179, -557331.0, -24969.416, 0.0, 5.0057216, 4.948666 
4.8847547e+2, 2.5062835e+2, -518831.53, -605452.75, -23957.373, -0.05103579, 0.021667592, -512647.03, -28776.234, 0.0, 5.003902, 4.9486804 
4.8842478e+2, 2.5557637e+2, -474720.47, -558837.3, -24345.99, -0.049145095, 0.0108639365, -468182.22, -32802.953, 0.0, 5.0020823, 4.948496 
4.8837593e+2, 2.605226e+2, -438474.22, -529507.25, -20711.299, -0.046662036, 0.027078241, -433983.63, -47079.703, 0.0, 5.0001926, 4.942204 
4.8833063e+2, 2.654685e+2, -391406.84, -473215.13, -18840.514, -0.060874198, 0.028316109, -387276.4, -48849.57, 0.0, 4.9977636, 4.9455376 
4.882853e+2, 2.704141e+2, -348870.3, -426831.2, -18492.04, -0.07860016, 0.01916001, -344706.47, -54754.195, 0.0, 4.9952407, 4.9455295 
4.8824e+2, 2.753596e+2, -306342.47, -380541.72, -18131.082, -0.09558506, 0.008687151, -302149.03, -60670.047, 0.0, 4.992716, 4.945474 
4.881972e+2, 2.802998e+2, -278435.97, -367295.13, -14375.217, -0.103040315, 0.011310415, -276168.28, -83111.21, 0.0, 4.9902, 4.933777 
4.8816064e+2, 2.8523394e+2, -231985.64, -315439.75, -13362.297, -0.08974362, -0.0034693142, -229898.33, -85205.94, 0.0, 4.988398, 4.9352584 
4.8812458e+2, 2.901673e+2, -186818.66, -268174.06, -13667.512, -0.07538416, -0.027816411, -184583.94, -88248.96, 0.0, 4.9867177, 4.935129 
4.8808882e+2, 2.951002e+2, -141597.72, -220892.14, -13898.433, -0.058515634, -0.0555985, -139232.22, -91250.54, 0.0, 4.9850106, 4.9349995 
4.8805457e+2, 3.0005294e+2, -78719.79, -99649.25, -8254.715, -0.05006266, -0.039968442, -75855.945, -75855.945, 0.0, 4.98331, 4.970381 
4.8802868e+2, 3.050341e+2, -75984.945, -79171.7, -3151.6704, -0.067284286, -0.014478101, -74046.77, -74046.77, 0.0, 4.9807315, 4.978467 
4.880052e+2, 3.1001657e+2, -82968.37, -80082.63, -3426.7786, -0.07770201, -0.004118662, -77807.34, -77807.34, 0.0, 4.977827, 4.9791756 
4.879825e+2, 3.1500047e+2, -89814.734, -81143.44, -4075.506, -0.080322966, 0.012597149, -79528.66, -79528.66, 0.0, 4.9748826, 4.979886 
4.947937e+2, 1.2172259e+2, -1620906.8, -1749264.3, 1022.7582, 0.0069201393, 0.0026889367, -1620898.6, 126208.03, 0.0, 5.054235, 4.9701905 
4.9475884e+2, 1.2668811e+2, -1580569.6, -1709181.8, -5469.721, 0.0074039674, -0.024446161, -1580337.5, 118108.016, 0.0, 5.0523257, 4.9682813 
4.9472287e+2, 1.3165689e+2, -1537685.4, -1663321.8, -5821.96, 0.0048353053, -0.01917219, -1537416.1, 112335.55, 0.0, 5.050327, 4.9682794 
4.946869e+2, 1.3662566e+2, -1496952.1, -1621961.3, -6214.7363, 0.0021769602, -0.012726918, -1496643.9, 104414.36, 0.0, 5.048328, 4.9667764 
4.9464777e+2, 1.4159212e+2, -1457257.6, -1583143.9, -12151.688, 0.0023643896, 0.0039548255, -1456095.4, 96291.71, 0.0, 5.0463605, 4.96435 
4.9460384e+2, 1.4655672e+2, -1413034.3, -1534887.4, -13239.012, 0.0036609382, -0.0022032172, -1411612.5, 92121.26, 0.0, 5.0444117, 4.9650745 
4.9455982e+2, 1.515213e+2, -1369851.8, -1488797.3, -13602.363, 0.004502348, -0.0095079, -1368316.0, 86764.664, 0.0, 5.0424604, 4.965071 
4.9451578e+2, 1.5648586e+2, -1328017.6, -1445574.3, -13962.604, 0.005338482, -0.016337063, -1326382.0, 80045.61, 0.0, 5.0405097, 4.964099 
4.9446896e+2, 1.6144802e+2, -1289139.5, -1408783.5, -18878.914, 0.005007066, -0.015569399, -1286231.3, 71567.055, 0.0, 5.038563, 4.9609847 
4.9441773e+2, 1.6640973e+2, -1245107.6, -1360682.4, -19917.072, 0.003975645, -0.016540032, -1241771.6, 67401.94, 0.0, 5.0365343, 4.9616475 
4.943664e+2, 1.7137155e+2, -1202019.6, -1314547.3, -20159.102, 0.0029886481, -0.017253213, -1198517.1, 62030.48, 0.0, 5.0344973, 4.9616427 
4.9431506e+2, 1.7633337e+2, -1160009.4, -1270741.1, -20375.572, 0.0019487516, -0.017547805, -1156379.1, 55542.586, 0.0, 5.0324607, 4.960845 
4.942623e+2, 1.8129294e+2, -1121502.1, -1234872.6, -22985.805, -0.000589738, -0.00824393, -1117019.0, 46299.805, 0.0, 5.0304933, 4.9573383 
4.9420685e+2, 1.862515e+2, -1076627.3, -1185783.1, -23777.662, -0.0052087395, -0.005935333, -1071672.5, 43055.03, 0.0, 5.028605, 4.958215 
4.9415132e+2, 1.9121017e+2, -1032953.44, -1139269.4, -24040.082, -0.009802602, -0.004188416, -1027770.25, 38365.496, 0.0, 5.026714, 4.958212 
4.9409586e+2, 1.9616881e+2, -990136.06, -1094637.5, -24291.29, -0.01436798, -0.0021920935, -984765.56, 32778.28, 0.0, 5.024823, 4.9575596 
4.9403986e+2, 2.0112474e+2, -951265.44, -1058891.6, -25774.69, -0.017999882, 0.0048409463, -945411.25, 23567.047, 0.0, 5.022991, 4.9538374 
4.9398273e+2, 2.0607954e+2, -905504.0, -1008433.75, -26498.371, -0.018876953, 0.000655274, -899082.75, 21340.65, 0.0, 5.0211906, 4.955088 
4.9392557e+2, 2.1103454e+2, -861450.5, -961653.94, -26840.875, -0.019702187, -0.0036152888, -854713.7, 17152.893, 0.0, 5.0193796, 4.9550843 
4.9386844e+2, 2.1598953e+2, -818031.4, -916296.6, -27174.316, -0.020645667, -0.0076490534, -811017.25, 12292.444, 0.0, 5.0175676, 4.954581 
4.9381143e+2, 2.2094287e+2, -779529.94, -881357.8, -26763.74, -0.024173135, 0.0051039294, -772924.06, 1845.1951, 0.0, 5.015682, 4.950507 
4.9375436e+2, 2.2589593e+2, -733856.0, -830084.4, -26821.55, -0.032680243, 0.01389268, -726885.06, -652.5349, 0.0, 5.0136538, 4.952086 
4.9369732e+2, 2.30849e+2, -690260.25, -783413.3, -26897.19, -0.041228123, 0.020300463, -683051.75, -5356.216, 0.0, 5.011623, 4.952085 
4.936403e+2, 2.3580207e+2, -647281.75, -738153.8, -26965.824, -0.04975039, 0.026536133, -639882.3, -10723.564, 0.0, 5.009592, 4.951583 
4.9358457e+2, 2.4075174e+2, -609829.7, -705321.56, -25228.627, -0.05529354, 0.035262983, -603574.2, -22918.943, 0.0, 5.0075865, 4.94672 
4.9353182e+2, 2.4569948e+2, -563745.4, -654104.3, -24978.594, -0.05322617, 0.028912118, -557300.06, -25129.982, 0.0, 5.0057445, 4.948146 
4.934793e+2, 2.5064754e+2, -519419.75, -606935.6, -25361.652, -0.05083039, 0.023537166, -512601.3, -28919.816, 0.0, 5.0039225, 4.948163 
4.9342683e+2, 2.555957e+2, -475308.78, -560305.9, -25736.313, -0.04852466, 0.018759606, -468123.47, -32931.414, 0.0, 5.002101, 4.947982 
4.9337614e+2, 2.605422e+2, -438307.5, -529323.44, -22327.53, -0.046282567, 0.04064026, -433125.3, -46408.734, 0.0, 5.000215, 4.9422746 
4.9332878e+2, 2.6548764e+2, -390709.25, -471789.7, -20729.477, -0.056614656, 0.032678865, -385716.84, -47475.527, 0.0, 4.9977775, 4.9460454 
4.9328145e+2, 2.7043262e+2, -348222.6, -425417.16, -20357.01, -0.069396034, 0.011705518, -343183.2, -53413.484, 0.0, 4.9952393, 4.9460406 
4.9323416e+2, 2.753775e+2, -305744.44, -379138.8, -19972.049, -0.08176313, -0.010061885, -300661.66, -59362.72, 0.0, 4.992699, 4.945988 
4.9318898e+2, 2.8031757e+2, -278342.94, -367468.3, -16070.45, -0.08917752, -0.012626871, -275533.78, -82656.914, 0.0, 4.9902463, 4.933722 
4.9314967e+2, 2.8525293e+2, -232488.27, -317017.03, -14581.288, -0.08481897, -0.011045677, -230043.67, -85538.33, 0.0, 4.9884067, 4.9347515 
4.9311104e+2, 2.9018775e+2, -187635.08, -269810.53, -14782.362, -0.07953318, -0.015634997, -185056.8, -88917.21, 0.0, 4.9866204, 4.9346447 
4.930727e+2, 2.9512236e+2, -142726.19, -222586.2, -14909.158, -0.07282298, -0.021680355, -140033.56, -92257.5, 0.0, 4.984808, 4.9345374 
4.9303597e+2, 3.0007637e+2, -79115.28, -99057.48, -9649.057, -0.07343828, 0.010238863, -75210.97, -75210.97, 0.0, 4.9830256, 4.970754 
4.930078e+2, 3.050563e+2, -74531.2, -75928.4, -4748.631, -0.09394651, 0.014796729, -70430.055, -70430.055, 0.0, 4.980679, 4.979746 
4.9298185e+2, 3.100366e+2, -80632.555, -77009.2, -4616.116, -0.10990835, -0.007368208, -73861.98, -73861.98, 0.0, 4.9780827, 4.980289 
4.929566e+2, 3.1501758e+2, -86597.6, -78239.72, -4857.6313, -0.120936796, -0.029845634, -76010.84, -76010.84, 0.0, 4.975446, 4.980834 
4.9984825e+2, 1.2175058e+2, -1619468.3, -1749898.1, 1236.5331, 0.009230218, 0.0030452097, -1619456.5, 127375.18, 0.0, 5.0550146, 4.9696007 
4.9981079e+2, 1.2671465e+2, -1579452.1, -1709619.9, -5590.1646, 0.004115861, -0.034018118, -1579212.5, 118972.27, 0.0, 5.052917, 4.9678493 
4.9977297e+2, 1.3168351e+2, -1536956.9, -1663957.4, -5939.3125, 0.003510009, -0.023623537, -1536679.6, 112810.734, 0.0, 5.050787, 4.967847 
4.997352e+2, 1.3665237e+2, -1496613.5, -1622804.0, -6337.698, 0.0028393078, -0.011950752, -1496296.0, 104500.234, 0.0, 5.0486584, 4.9663386 
4.9969414e+2, 1.4161867e+2, -1457217.1, -1584131.5, -12237.256, 0.0043648942, 0.0076118647, -1456048.0, 96078.75, 0.0, 5.046584, 4.963918 
4.996482e+2, 1.4658272e+2, -1413178.6, -1535951.3, -13263.5, 0.005303814, 0.00032659792, -1411762.1, 91716.8, 0.0, 5.0445676, 4.9646497 
4.996022e+2, 1.5154673e+2, -1370178.4, -1489954.5, -13601.289, 0.0057252487, -0.00817011, -1368653.4, 86178.04, 0.0, 5.042554, 4.9646444 
4.9955618e+2, 1.5651074e+2, -1328516.0, -1446822.5, -13941.357, 0.006144191, -0.016218355, -1326895.3, 79288.7, 0.0, 5.0405445, 4.96367 
4.995074e+2, 1.6147241e+2, -1289528.9, -1409702.9, -18904.71, 0.006050983, -0.016438255, -1286625.1, 70934.234, 0.0, 5.038573, 4.9606776 
4.994543e+2, 1.6643375e+2, -1245385.5, -1361484.5, -19975.299, 0.006682511, -0.018327376, -1242044.8, 66892.734, 0.0, 5.0365686, 4.9613676 
4.994011e+2, 1.7139518e+2, -1202234.5, -1315317.9, -20251.215, 0.007411971, -0.01999201, -1198717.4, 61597.16, 0.0, 5.0345526, 4.961363 
4.993479e+2, 1.7635663e+2, -1160173.4, -1271485.4, -20497.557, 0.008093157, -0.021236148, -1156518.9, 55172.652, 0.0, 5.032533, 4.9605656 
4.992932e+2, 1.8131588e+2, -1121679.5, -1235570.5, -23050.457, 0.006137511, -0.012403625, -1117191.1, 45899.9, 0.0, 5.030551, 4.957082 
4.9923572e+2, 1.8627423e+2, -1077027.8, -1186666.6, -23816.729, -0.000098451645, -0.009422311, -1072077.6, 42424.234, 0.0, 5.028601, 4.9579244 
4.9917814e+2, 1.9123265e+2, -1033523.94, -1140239.8, -24076.945, -0.0063645365, -0.006930555, -1028343.25, 37568.785, 0.0, 5.026651, 4.957919 
4.991206e+2, 1.9619107e+2, -990869.3, -1095690.6, -24327.754, -0.012607602, -0.004170885, -985498.4, 31823.902, 0.0, 5.024703, 4.9572644 
4.9906266e+2, 2.011467e+2, -952273.94, -1060328.3, -25724.295, -0.017138151, 0.0034247783, -946462.4, 22297.242, 0.0, 5.0228257, 4.953432 
4.990038e+2, 2.0610102e+2, -906580.06, -1009893.06, -26446.07, -0.017645666, -0.0017216526, -900203.9, 20006.156, 0.0, 5.0209985, 4.9546847 
4.9894485e+2, 2.1105549e+2, -862609.6, -963148.4, -26772.207, -0.018116856, -0.0071597635, -855925.0, 15733.696, 0.0, 5.019157, 4.9546804 
4.9888593e+2, 2.1600997e+2, -819287.25, -917832.9, -27081.77, -0.018712822, -0.012391037, -812335.2, 10772.041, 0.0, 5.0173106, 4.9541774 
4.9882704e+2, 2.20963e+2, -780439.06, -881947.25, -26806.738, -0.02240463, -0.00032311722, -773794.7, 775.1681, 0.0, 5.015389, 4.9504485 
4.987679e+2, 2.259159e+2, -734868.0, -830756.75, -26975.465, -0.031299762, 0.007563172, -727800.2, -1767.0044, 0.0, 5.013331, 4.9520144 
4.9870884e+2, 2.3086877e+2, -691385.94, -784154.25, -27137.283, -0.040139228, 0.01291536, -684030.7, -6534.184, 0.0, 5.0112615, 4.9520087 
4.9864978e+2, 2.3582163e+2, -648549.6, -738974.3, -27301.398, -0.04898674, 0.018108772, -640946.06, -11985.986, 0.0, 5.0091815, 4.951502 
4.9859208e+2, 2.4077103e+2, -611935.1, -707618.0, -25564.65, -0.05445488, 0.02731864, -605533.1, -25074.424, 0.0, 5.0071025, 4.946155 
4.985375e+2, 2.4571873e+2, -566185.2, -656426.3, -25283.729, -0.052114833, 0.02560107, -559584.06, -27607.086, 0.0, 5.005116, 4.947626 
4.9848315e+2, 2.5066683e+2, -522315.84, -609454.3, -25668.479, -0.04956511, 0.024944687, -515316.8, -31825.25, 0.0, 5.0031285, 4.9476447 
4.984288e+2, 2.5561503e+2, -478703.8, -563036.1, -26050.32, -0.04711682, 0.024819035, -471305.84, -36300.453, 0.0, 5.001126, 4.9474645 
4.983762e+2, 2.6056167e+2, -441462.16, -530808.3, -22853.256, -0.04528951, 0.051956274, -435956.0, -49425.605, 0.0, 4.9991, 4.9422626 
4.983268e+2, 2.6550674e+2, -392764.78, -471693.84, -21805.271, -0.052379567, 0.036158685, -387141.4, -49085.242, 0.0, 4.9968348, 4.9465046 
4.9827746e+2, 2.7045116e+2, -349647.0, -425048.72, -21775.77, -0.060892485, 0.0045049856, -343810.06, -54223.31, 0.0, 4.994522, 4.946497 
4.9822813e+2, 2.7539554e+2, -306508.22, -378479.13, -21788.467, -0.06919422, -0.02758933, -300426.0, -59308.113, 0.0, 4.9922204, 4.946443 
4.9818063e+2, 2.8033543e+2, -279301.06, -368561.97, -17982.473, -0.07624865, -0.034048654, -275814.5, -83118.74, 0.0, 4.989998, 4.933474 
4.9813864e+2, 2.8527176e+2, -234676.75, -319217.8, -16075.125, -0.07916273, -0.018992804, -231723.31, -87403.54, 0.0, 4.9878054, 4.934268 
4.980974e+2, 2.9020783e+2, -191590.3, -272670.5, -15931.292, -0.08159451, -0.0077982936, -188572.33, -92624.26, 0.0, 4.9853945, 4.934194 
4.9805632e+2, 2.9514384e+2, -148897.61, -226299.33, -15635.725, -0.08382024, 0.0041265283, -145858.4, -98281.97, 0.0, 4.9827986, 4.934117 
4.9801677e+2, 3.0009916e+2, -88570.516, -104790.72, -10256.151, -0.09548819, 0.057195794, -83605.36, -83605.36, 0.0, 4.979974, 4.969997 
4.979865e+2, 3.0507806e+2, -85980.234, -78087.91, -4993.5723, -0.119833864, 0.042403083, -75669.484, -75669.484, 0.0, 4.9759808, 4.98096 
4.979586e+2, 3.1005615e+2, -97868.21, -82221.6, -4244.637, -0.13908002, -0.018420849, -81144.29, -81144.29, 0.0, 4.971307, 4.981331 
4.979313e+2, 3.150342e+2, -110804.46, -86993.42, -3989.5728, -0.15639871, -0.08599794, -86342.75, -86342.75, 0.0, 4.966177, 4.9817057 
5.0490564e+2, 1.2178303e+2, -1606438.1, -1745069.8, 4224.928, 0.007282039, -0.007524691, -1606309.5, 140204.84, 0.0, 5.059793, 4.9688487 
5.0486547e+2, 1.267486e+2, -1567115.6, -1704331.4, -2103.8345, -0.0009899572, -0.024964428, -1567083.4, 130769.586, 0.0, 5.057287, 4.967454 
5.0482565e+2, 1.3171655e+2, -1525700.9, -1659227.3, -2453.7217, 0.0013993604, -0.01931128, -1525655.8, 123511.82, 0.0, 5.0547996, 4.9674506 
5.047858e+2, 1.366845e+2, -1486437.1, -1618636.4, -2854.0046, 0.0037533713, -0.012244426, -1486375.5, 114106.766, 0.0, 5.052313, 4.9659376 
5.0474256e+2, 1.4165014e+2, -1447841.1, -1580149.0, -8609.476, 0.0072579966, 0.004712977, -1447283.3, 104535.98, 0.0, 5.049915, 4.9636197 
5.0469446e+2, 1.4661403e+2, -1404609.0, -1532366.3, -9505.115, 0.008034593, -0.0010063439, -1403905.8, 99267.2, 0.0, 5.047626, 4.964358 
5.0464624e+2, 1.5157786e+2, -1362431.4, -1486792.8, -9756.633, 0.0082519045, -0.0078155445, -1361670.6, 92856.33, 0.0, 5.0453377, 4.9643507 
5.045981e+2, 1.565417e+2, -1321600.3, -1444090.1, -10008.725, 0.008473584, -0.014213407, -1320787.8, 85093.266, 0.0, 5.04305, 4.9633718 
5.0454706e+2, 1.6150312e+2, -1283188.6, -1407139.9, -14820.066, 0.008337384, -0.013685638, -1281441.3, 75817.27, 0.0, 5.0408525, 4.960435 
5.04492e+2, 1.6646403e+2, -1239410.8, -1359132.6, -15827.827, 0.009471295, -0.016867839, -1237353.6, 71286.945, 0.0, 5.0387316, 4.9611144 
5.044368e+2, 1.7142503e+2, -1196587.5, -1313133.0, -16073.725, 0.010764389, -0.019926155, -1194411.3, 65610.32, 0.0, 5.036607, 4.9611106 
5.043816e+2, 1.7638603e+2, -1154838.9, -1269458.1, -16289.554, 0.012042902, -0.022589006, -1152568.8, 58833.766, 0.0, 5.0344825, 4.960314 
5.0432485e+2, 1.8134488e+2, -1116662.3, -1233447.1, -18818.984, 0.010676732, -0.015370844, -1113704.6, 49101.0, 0.0, 5.032339, 4.95694 
5.0426525e+2, 1.8630293e+2, -1072831.3, -1184989.4, -19463.264, 0.004713276, -0.013234222, -1069549.6, 44668.727, 0.0, 5.030118, 4.957763 
5.0420564e+2, 1.9126108e+2, -1030129.1, -1138961.1, -19603.285, -0.0013316137, -0.01138896, -1026705.8, 38924.785, 0.0, 5.0278935, 4.9577546 
5.04146e+2, 1.9621922e+2, -988277.94, -1094808.8, -19728.363, -0.007365583, -0.009218677, -984741.9, 32300.879, 0.0, 5.0256696, 4.957096 
5.04086e+2, 2.0117469e+2, -950533.56, -1059953.5, -20849.531, -0.011847857, -0.0009390294, -946695.4, 21785.92, 0.0, 5.023518, 4.9532185 
5.0402516e+2, 2.0612884e+2, -905527.6, -1009919.5, -21428.24, -0.0125082545, -0.0047289473, -901300.25, 18633.578, 0.0, 5.021467, 4.954437 
5.039643e+2, 2.110831e+2, -862155.94, -963446.25, -21642.207, -0.01301808, -0.00924496, -857725.5, 13659.565, 0.0, 5.019414, 4.954437 
5.0390345e+2, 2.1603735e+2, -819415.25, -918391.7, -21845.611, -0.013527583, -0.013813617, -814808.06, 8028.36, 0.0, 5.0173607, 4.953937 
5.0384253e+2, 2.2099002e+2, -780816.7, -882107.56, -21609.004, -0.016840588, -0.0035602069, -776399.3, -2096.7183, 0.0, 5.0152535, 4.9504304 
5.037815e+2, 2.259425e+2, -735754.3, -831387.1, -21781.559, -0.024128383, 0.0017373315, -731026.94, -5258.01, 0.0, 5.0130663, 4.9518967 
5.0372046e+2, 2.3089501e+2, -692613.44, -784972.6, -21911.654, -0.031199494, 0.0053848033, -687678.7, -10443.892, 0.0, 5.0108814, 4.95188 
5.036594e+2, 2.3584752e+2, -650086.9, -739967.7, -22026.438, -0.038249936, 0.009142059, -644979.25, -16278.466, 0.0, 5.0086966, 4.951361 
5.035997e+2, 2.4079676e+2, -613909.25, -709077.56, -20045.69, -0.04275191, 0.019622618, -609859.3, -29658.877, 0.0, 5.0065227, 4.945891 
5.035428e+2, 2.4574448e+2, -568767.25, -657988.56, -19445.611, -0.042506766, 0.02063635, -564713.3, -32993.36, 0.0, 5.0042815, 4.9474363 
5.03486e+2, 2.506925e+2, -525660.9, -611393.06, -19492.305, -0.042331267, 0.021136051, -521437.13, -38199.918, 0.0, 5.002022, 4.9474435 
5.034292e+2, 2.5564045e+2, -482766.06, -565325.2, -19532.365, -0.042262156, 0.021158021, -478378.2, -43623.375, 0.0, 4.999763, 4.9472523 
5.0337404e+2, 2.605868e+2, -446116.8, -532599.6, -15994.455, -0.04346171, 0.046029024, -443253.53, -56969.55, 0.0, 4.9973936, 4.9423876 
5.033224e+2, 2.655319e+2, -398304.6, -474606.34, -15228.238, -0.04999999, 0.03273608, -395377.63, -57567.418, 0.0, 4.9949446, 4.9463396 
5.0327104e+2, 2.7047643e+2, -355467.3, -428221.44, -15573.912, -0.056892574, 0.00623326, -352273.72, -62933.688, 0.0, 4.9925256, 4.946298 
5.0321966e+2, 2.7542096e+2, -312624.5, -381948.28, -15887.241, -0.063626766, -0.020133305, -309157.0, -68287.01, 0.0, 4.990106, 4.946208 
5.031702e+2, 2.8036076e+2, -285330.84, -371001.3, -11947.617, -0.06935086, -0.024666892, -283695.84, -91246.71, 0.0, 4.98765, 4.93371 
5.03126e+2, 2.852969e+2, -241339.4, -321160.5, -9484.868, -0.06903822, -0.01611931, -240227.83, -96150.4, 0.0, 4.9850783, 4.9348025 
5.0308245e+2, 2.9023284e+2, -198710.39, -274373.2, -8782.367, -0.0674656, -0.01120264, -197704.38, -101995.67, 0.0, 4.9824815, 4.9348407 
5.030389e+2, 2.9516885e+2, -156029.44, -227545.86, -8096.3564, -0.06565629, -0.0063992715, -155124.31, -107784.52, 0.0, 4.9798822, 4.934879 
5.029965e+2, 3.0012432e+2, -95509.04, -106053.64, -2513.3462, -0.07395503, 0.043148816, -94940.61, -94940.61, 0.0, 4.977221, 4.970653 
5.029629e+2, 3.05105e+2, -89685.01, -75795.47, 2237.64, -0.090298496, 0.031205364, -75443.88, -75443.88, 0.0, 4.9740553, 4.9826055 
5.0293124e+2, 3.100857e+2, -98285.375, -78767.97, 2617.2446, -0.10011762, -0.020795895, -78423.09, -78423.09, 0.0, 4.970774, 4.9828753 
5.0289977e+2, 3.150669e+2, -106845.95, -81794.984, 2914.4958, -0.10857193, -0.072088376, -81460.375, -81460.375, 0.0, 4.9674883, 4.9831467 
5.099649e+2, 1.218185e+2, -1607469.0, -1747309.4, 1743.2823, 0.0025815207, -0.014657351, -1607447.4, 138720.5, 0.0, 5.059803, 4.9681144 
5.099221e+2, 1.267856e+2, -1567679.4, -1705666.1, -3966.1807, -0.0066170567, -0.01218469, -1567565.4, 129926.195, 0.0, 5.057307, 4.967014 
5.0988e+2, 1.3175246e+2, -1526262.0, -1660557.3, -4314.3027, -0.00089480187, -0.013136642, -1526123.5, 122693.56, 0.0, 5.054819, 4.9670115 
5.0983804e+2, 1.367193e+2, -1487001.1, -1619973.9, -4721.37, 0.004729667, -0.01266466, -1486833.8, 113308.93, 0.0, 5.052332, 4.965495 
5.097926e+2, 1.416842e+2, -1448212.8, -1581089.1, -10377.736, 0.0103271, 0.00060481834, -1447407.1, 104079.74, 0.0, 5.049934, 4.9633102 
5.097422e+2, 1.4664799e+2, -1404959.5, -1533263.4, -11222.634, 0.010955492, -0.0030054778, -1403985.3, 98855.89, 0.0, 5.047645, 4.964062 
5.0969166e+2, 1.5161178e+2, -1362779.5, -1487688.9, -11474.295, 0.010971052, -0.0075248494, -1361734.3, 92461.25, 0.0, 5.0453568, 4.9640546 
5.096412e+2, 1.5657555e+2, -1321949.4, -1444992.6, -11731.391, 0.010980647, -0.011625666, -1320840.9, 84709.13, 0.0, 5.0430694, 4.963073 
5.0958794e+2, 1.6153681e+2, -1283471.8, -1407904.1, -16457.852, 0.010643713, -0.009923146, -1281331.8, 75596.95, 0.0, 5.040872, 4.960183 
5.095307e+2, 1.6649732e+2, -1239717.1, -1359949.6, -17429.895, 0.011920043, -0.01437021, -1237241.4, 71073.02, 0.0, 5.0387516, 4.9608445 
5.094734e+2, 1.7145792e+2, -1196890.1, -1313949.3, -17675.943, 0.0133771505, -0.01876917, -1194279.3, 65419.844, 0.0, 5.036628, 4.96084 
5.094161e+2, 1.764185e+2, -1155137.8, -1270273.4, -17891.424, 0.014812867, -0.022768537, -1152421.6, 58662.184, 0.0, 5.034504, 4.9600434 
5.093572e+2, 1.8137698e+2, -1116753.8, -1233860.5, -20502.865, 0.013957429, -0.017289542, -1113267.9, 49222.26, 0.0, 5.032366, 4.956803 
5.092955e+2, 1.8633476e+2, -1072925.3, -1185422.6, -21146.201, 0.008878188, -0.016575724, -1069081.8, 44822.926, 0.0, 5.030146, 4.957619 
5.092337e+2, 1.9129263e+2, -1030222.8, -1139398.0, -21285.43, 0.0036676552, -0.015999775, -1026219.6, 39098.816, 0.0, 5.027922, 4.957609 
5.0917196e+2, 1.9625051e+2, -988371.25, -1095249.4, -21409.488, -0.0015552187, -0.015072877, -984242.06, 32490.174, 0.0, 5.0256987, 4.9569497 
5.0910985e+2, 2.0120592e+2, -950647.8, -1060460.6, -22420.904, -0.005793799, -0.0061463797, -946246.5, 21924.549, 0.0, 5.02355, 4.9530497 
5.090469e+2, 2.061601e+2, -905711.8, -1010595.1, -22978.465, -0.0071283025, -0.0073284344, -900898.44, 18725.227, 0.0, 5.0215015, 4.9542093 
5.089839e+2, 2.1111436e+2, -862334.1, -964121.7, -23190.766, -0.00833323, -0.0093972925, -857299.5, 13775.895, 0.0, 5.01945, 4.954208 
5.0892097e+2, 2.1606864e+2, -819587.56, -919067.1, -23392.344, -0.009559564, -0.0115204165, -814361.44, 8165.7544, 0.0, 5.017399, 4.9537077 
5.0885797e+2, 2.2102104e+2, -780755.3, -882287.0, -23281.162, -0.012984387, -0.0025985101, -775671.5, -1675.291, 0.0, 5.015293, 4.950371 
5.087949e+2, 2.2597292e+2, -735795.94, -831779.7, -23459.166, -0.01849422, -0.0020599912, -730369.1, -4901.619, 0.0, 5.0131035, 4.9517674 
5.087319e+2, 2.3092489e+2, -692663.3, -785365.25, -23584.37, -0.023707377, -0.0024586336, -687008.2, -10070.311, 0.0, 5.0109153, 4.951751 
5.0866884e+2, 2.3587686e+2, -650144.94, -740360.56, -23694.096, -0.028935814, -0.0026590787, -644300.56, -15892.35, 0.0, 5.008728, 4.951234 
5.0860703e+2, 2.4082598e+2, -613916.06, -709309.2, -21707.418, -0.032968197, 0.00800326, -609208.7, -29300.186, 0.0, 5.0065484, 4.9458146 
5.085476e+2, 2.4577421e+2, -568700.56, -658027.1, -21172.352, -0.035721783, 0.014355706, -563936.3, -32512.771, 0.0, 5.0043035, 4.9474254 
5.084882e+2, 2.507227e+2, -525603.25, -611437.9, -21213.344, -0.038761023, 0.019783523, -520646.72, -37709.99, 0.0, 5.002042, 4.9474316 
5.084288e+2, 2.5567117e+2, -482717.44, -565376.25, -21247.637, -0.04195268, 0.024873637, -477575.53, -43125.383, 0.0, 4.9997807, 4.9472394 
5.0837106e+2, 2.6061767e+2, -445729.53, -531995.2, -17885.04, -0.045964565, 0.049100947, -442168.53, -56189.535, 0.0, 4.997424, 4.9426174 
5.0831735e+2, 2.6556233e+2, -398622.84, -475527.13, -17041.734, -0.048771173, 0.034304075, -395015.66, -57503.855, 0.0, 4.9949646, 4.946067 
5.0826406e+2, 2.7050653e+2, -355835.34, -429093.03, -17347.152, -0.050909426, 0.009428401, -351935.25, -62888.07, 0.0, 4.9925237, 4.9460454 
5.082108e+2, 2.7545077e+2, -313042.25, -382770.72, -17620.244, -0.053044297, -0.0150916185, -308842.56, -68260.3, 0.0, 4.990082, 4.9459753 
5.081593e+2, 2.8039032e+2, -284621.72, -369138.13, -13766.502, -0.0553247, -0.02154277, -282435.9, -90269.875, 0.0, 4.98761, 4.934388 
5.081125e+2, 2.8532758e+2, -240232.05, -318431.34, -11518.606, -0.056267306, -0.011090807, -238570.67, -94787.16, 0.0, 4.985042, 4.9357924 
5.080662e+2, 2.9026508e+2, -197597.95, -271681.56, -10799.2295, -0.056606364, -0.0001802561, -196055.84, -100656.125, 0.0, 4.9824514, 4.935818 
5.080199e+2, 2.952026e+2, -154911.88, -224891.63, -10096.368, -0.056774464, 0.010636934, -153484.33, -106468.47, 0.0, 4.9798584, 4.935845 
5.079748e+2, 3.001592e+2, -93864.05, -102234.34, -4606.502, -0.066713974, 0.060323935, -91825.42, -91825.42, 0.0, 4.977203, 4.9720597 
5.0793797e+2, 3.0513963e+2, -87995.53, -72246.125, -84.43711, -0.08579673, 0.03323804, -72245.67, -72245.67, 0.0, 4.9740834, 4.9839334 
5.079029e+2, 3.1012014e+2, -96440.836, -75310.03, 387.59656, -0.09945653, -0.031889707, -75302.92, -75302.92, 0.0, 4.9708624, 4.984153 
5.07868e+2, 3.1510097e+2, -104846.47, -78428.35, 777.18744, -0.11213346, -0.0969601, -78405.51, -78405.51, 0.0, 4.967636, 4.9843736 
5.1502407e+2, 1.21854454e+2, -1608391.1, -1749329.1, -680.31714, -0.0033223925, -0.016706025, -1608387.9, 137428.6, 0.0, 5.059814, 4.9674525 
5.1497865e+2, 1.2682259e+2, -1568243.0, -1707001.4, -5829.308, -0.012256361, 0.0005546936, -1567998.5, 129131.81, 0.0, 5.0573273, 4.9665737 
5.149344e+2, 1.3178834e+2, -1526823.1, -1661887.6, -6175.666, -0.003206511, -0.007020928, -1526541.3, 121925.36, 0.0, 5.054839, 4.9665713 
5.148903e+2, 1.367541e+2, -1487565.1, -1621312.0, -6589.6055, 0.005683085, -0.0131623475, -1487241.3, 112561.79, 0.0, 5.052352, 4.965052 
5.1484257e+2, 1.4171825e+2, -1448592.1, -1582048.3, -12146.464, 0.013381481, -0.0034646003, -1447495.6, 103658.89, 0.0, 5.049954, 4.962994 
5.1478994e+2, 1.4668196e+2, -1405309.1, -1534161.6, -12939.312, 0.013867117, -0.0049528293, -1404022.5, 98486.766, 0.0, 5.047665, 4.9637656 
5.1473707e+2, 1.5164568e+2, -1363126.9, -1488586.1, -13191.117, 0.01368589, -0.007196943, -1361754.9, 92109.164, 0.0, 5.0453773, 4.963758 
5.146842e+2, 1.5660937e+2, -1322297.8, -1445896.4, -13453.244, 0.013488355, -0.009015261, -1320850.4, 84368.62, 0.0, 5.04309, 4.962774 
5.146287e+2, 1.6157049e+2, -1283758.6, -1408679.8, -18094.748, 0.012933446, -0.0061704884, -1281190.4, 75408.49, 0.0, 5.0408926, 4.959928 
5.145694e+2, 1.6653061e+2, -1240022.4, -1360768.0, -19030.83, 0.0143500455, -0.011904285, -1237094.0, 70894.2, 0.0, 5.0387726, 4.960574 
5.1451e+2, 1.714908e+2, -1197191.6, -1314766.8, -19277.033, 0.015972186, -0.0176611, -1194111.8, 65264.9, 0.0, 5.036649, 4.9605694 
5.1445055e+2, 1.7645097e+2, -1155435.6, -1271090.0, -19492.145, 0.017566128, -0.02301417, -1152238.9, 58526.316, 0.0, 5.034526, 4.959772 
5.143896e+2, 1.8140908e+2, -1116854.9, -1234298.1, -22181.424, 0.017233446, -0.019204726, -1112805.1, 49369.52, 0.0, 5.0323935, 4.9566574 
5.1432574e+2, 1.8636659e+2, -1073018.8, -1185856.8, -22827.146, 0.0130473515, -0.019904595, -1068575.8, 45015.242, 0.0, 5.0301757, 4.957474 
5.1426184e+2, 1.9132419e+2, -1030315.75, -1139836.0, -22965.586, 0.008682208, -0.020621946, -1025695.0, 39311.37, 0.0, 5.0279517, 4.957463 
5.1419795e+2, 1.962818e+2, -988463.8, -1095691.0, -23088.627, 0.0042814473, -0.02096238, -983703.6, 32718.21, 0.0, 5.0257287, 4.9568024 
5.1413375e+2, 2.0123714e+2, -950762.44, -1060970.3, -23985.51, 0.00024176762, -0.0113623245, -945768.56, 22092.234, 0.0, 5.023583, 4.952879 
5.1406866e+2, 2.0619135e+2, -905895.8, -1011271.3, -24527.117, -0.0017920391, -0.009985462, -900466.6, 18846.967, 0.0, 5.021537, 4.953981 
5.140035e+2, 2.1114562e+2, -862512.06, -964797.7, -24737.752, -0.0037017078, -0.0096595185, -856843.44, 13922.329, 0.0, 5.0194874, 4.9539785 
5.139385e+2, 2.160999e+2, -819759.56, -919743.0, -24937.5, -0.0056544943, -0.009389371, -813884.94, 8333.162, 0.0, 5.0174375, 4.9534774 
5.138734e+2, 2.2105205e+2, -780748.4, -882587.94, -24954.098, -0.009059598, -0.0015320657, -774962.56, -1272.6504, 0.0, 5.015333, 4.9502697 
5.138083e+2, 2.2600332e+2, -735837.3, -832173.06, -25138.002, -0.012756404, -0.0056923423, -729672.3, -4506.152, 0.0, 5.013141, 4.9516363 
5.137433e+2, 2.3095474e+2, -692712.94, -785758.75, -25258.318, -0.01612715, -0.010263916, -686298.5, -9657.477, 0.0, 5.0109506, 4.951621 
5.136783e+2, 2.3590617e+2, -650202.75, -740754.2, -25362.992, -0.019549098, -0.014548667, -643582.7, -15466.923, 0.0, 5.00876, 4.9511046 
5.1361436e+2, 2.4085519e+2, -613929.6, -709559.0, -23366.654, -0.023331963, -0.0034890962, -608525.44, -28909.014, 0.0, 5.006575, 4.945732 
5.135523e+2, 2.4580397e+2, -568633.1, -658066.94, -22899.537, -0.029225145, 0.008156124, -563110.7, -31983.607, 0.0, 5.0043263, 4.947413 
5.134904e+2, 2.5075296e+2, -525544.8, -611484.0, -22934.832, -0.035516165, 0.018342368, -519807.22, -37170.977, 0.0, 5.0020623, 4.947418 
5.1342833e+2, 2.5570193e+2, -482668.03, -565428.56, -22963.361, -0.04200557, 0.028331261, -476723.44, -42577.91, 0.0, 4.9997993, 4.9472246 
5.1336807e+2, 2.6064855e+2, -445526.2, -531807.5, -19768.12, -0.04835525, 0.052689232, -441212.72, -55538.64, 0.0, 4.997455, 4.9426975 
5.1331234e+2, 2.6559272e+2, -398945.0, -476446.63, -18890.361, -0.047288157, 0.03633783, -394585.84, -57372.25, 0.0, 4.994985, 4.9457808 
5.13257e+2, 2.705366e+2, -356207.13, -429963.25, -19155.506, -0.04483486, 0.012183589, -351528.9, -62774.113, 0.0, 4.9925222, 4.945779 
5.132018e+2, 2.7548054e+2, -313463.56, -383591.63, -19388.34, -0.042532902, -0.01139382, -308460.22, -68164.91, 0.0, 4.9900584, 4.945729 
5.1314825e+2, 2.8041986e+2, -284143.38, -367795.03, -15601.745, -0.04153522, -0.018531645, -281328.25, -89445.2, 0.0, 4.9875703, 4.934882 
5.1309896e+2, 2.853583e+2, -239128.75, -315700.44, -13540.366, -0.04369925, -0.005018695, -236804.9, -93315.78, 0.0, 4.9850073, 4.936776 
5.1304984e+2, 2.9029733e+2, -196489.53, -268988.1, -12804.125, -0.045865506, 0.0114387935, -194294.63, -99204.19, 0.0, 4.9824224, 4.9367905 
5.130009e+2, 2.9523635e+2, -153798.23, -222235.5, -12084.425, -0.04792677, 0.027823774, -151727.08, -105035.29, 0.0, 4.9798355, 4.9368052 
5.129531e+2, 3.0019397e+2, -92369.875, -98750.016, -6674.62, -0.05967344, 0.07773588, -88162.17, -88162.17, 0.0, 4.9771857, 4.973329 
5.129131e+2, 3.0517417e+2, -86312.33, -68693.59, -2341.242, -0.08146201, 0.03430398, -68387.79, -68387.79, 0.0, 4.9741135, 4.985227 
5.128747e+2, 3.1015438e+2, -94602.62, -71848.92, -1776.8678, -0.09866532, -0.046238374, -71711.0, -71711.0, 0.0, 4.9709525, 4.985396 
5.128364e+2, 3.1513485e+2, -102853.35, -75058.55, -1295.0178, -0.11526844, -0.12736827, -74998.336, -74998.336, 0.0, 4.9677863, 4.985566 
5.20083e+2, 1.2189108e+2, -1608033.6, -1750363.1, -964.28784, -0.010643209, -0.015768984, -1608027.0, 137431.88, 0.0, 5.0602045, 4.9669185 
5.200354e+2, 1.2685977e+2, -1567647.0, -1707734.1, -5777.363, -0.016395636, 0.011535641, -1567409.1, 129358.45, 0.0, 5.0577536, 4.9661226 
5.1998895e+2, 1.3182451e+2, -1526233.1, -1662627.1, -6215.4883, -0.004918572, -0.0014729048, -1525950.5, 122163.34, 0.0, 5.0552626, 4.9661207 
5.199426e+2, 1.3678925e+2, -1487012.4, -1622082.8, -6727.523, 0.0065065497, -0.013133072, -1486678.1, 112782.016, 0.0, 5.0527635, 4.964597 
5.1989263e+2, 1.417527e+2, -1447893.6, -1582424.1, -12235.56, 0.015999649, -0.0064279004, -1446789.9, 104028.664, 0.0, 5.050339, 4.9626865 
5.1983756e+2, 1.4671628e+2, -1404754.4, -1534552.0, -12979.067, 0.01656828, -0.0063206544, -1403469.3, 98705.07, 0.0, 5.0479884, 4.963484 
5.197825e+2, 1.5167987e+2, -1362749.4, -1489068.1, -13234.052, 0.016412314, -0.0068261623, -1361377.9, 92152.04, 0.0, 5.04564, 4.9634748 
5.1972735e+2, 1.5664347e+2, -1322089.8, -1446471.1, -13504.919, 0.016213328, -0.006864417, -1320640.4, 84245.22, 0.0, 5.0432963, 4.9624867 
5.1966953e+2, 1.6160439e+2, -1283660.1, -1409233.0, -18070.414, 0.015509455, -0.0031223013, -1281111.5, 75155.64, 0.0, 5.0410438, 4.9596777 
5.196081e+2, 1.665641e+2, -1240131.8, -1361455.3, -18998.035, 0.016928453, -0.009862036, -1237226.4, 70433.5, 0.0, 5.038858, 4.96031 
5.1954657e+2, 1.7152391e+2, -1197484.3, -1315544.9, -19272.115, 0.018606586, -0.016713202, -1194418.0, 64634.082, 0.0, 5.0366707, 4.9603043 
5.1948506e+2, 1.764837e+2, -1155905.1, -1271955.0, -19513.799, 0.02028286, -0.02319416, -1152711.8, 57732.47, 0.0, 5.0344863, 4.9595065 
5.1942194e+2, 1.8144143e+2, -1117285.5, -1234877.0, -22305.71, 0.020491552, -0.020854399, -1113196.5, 48660.38, 0.0, 5.0323086, 4.956509 
5.1935595e+2, 1.8639864e+2, -1073505.3, -1186438.3, -22996.488, 0.017369239, -0.023058126, -1069002.1, 44273.08, 0.0, 5.0300665, 4.9573355 
5.1929e+2, 1.9135596e+2, -1030881.4, -1140453.3, -23168.7, 0.014033469, -0.02520348, -1026183.8, 38508.64, 0.0, 5.0278153, 4.9573245 
5.192239e+2, 1.9631329e+2, -989117.56, -1096348.6, -23319.908, 0.010641425, -0.026948359, -984265.6, 31844.045, 0.0, 5.025562, 4.9566636 
5.191576e+2, 2.0126854e+2, -951601.0, -1061745.0, -24104.809, 0.006904338, -0.01679509, -946556.7, 20992.223, 0.0, 5.0233607, 4.9527273 
5.190904e+2, 2.0622277e+2, -907064.06, -1012344.7, -24619.77, 0.004240826, -0.012953278, -901591.25, 17410.6, 0.0, 5.0212274, 4.9537673 
5.190232e+2, 2.1117707e+2, -863939.8, -966003.06, -24820.783, 0.0017393494, -0.0103436755, -858223.8, 12230.772, 0.0, 5.019087, 4.953761 
5.18956e+2, 2.1613131e+2, -821460.94, -921085.5, -25017.06, -0.0007990936, -0.007823941, -815531.7, 6375.7925, 0.0, 5.016941, 4.9532566 
5.1888883e+2, 2.2108318e+2, -782502.06, -883756.06, -25170.242, -0.0039773374, -0.0007680027, -776590.3, -3208.1714, 0.0, 5.014776, 4.950137 
5.188217e+2, 2.260339e+2, -737499.4, -833259.7, -25398.191, -0.006066149, -0.009411872, -731180.1, -6316.8354, 0.0, 5.012609, 4.951519 
5.187547e+2, 2.3098478e+2, -694307.75, -786802.2, -25540.563, -0.007850076, -0.018178482, -687723.9, -11381.221, 0.0, 5.010441, 4.951506 
5.1868767e+2, 2.3593566e+2, -651746.7, -741762.8, -25654.076, -0.009699281, -0.026628615, -644948.8, -17126.89, 0.0, 5.008268, 4.9509916 
5.1862156e+2, 2.4088462e+2, -615481.7, -710512.3, -23649.254, -0.013581831, -0.014977034, -609921.7, -30598.826, 0.0, 5.0060735, 4.9456377 
5.18557e+2, 2.4583387e+2, -570161.7, -658881.8, -23402.121, -0.022577453, 0.0020183157, -564367.25, -33538.004, 0.0, 5.0038037, 4.947371 
5.1849246e+2, 2.507833e+2, -527125.94, -612330.44, -23606.09, -0.031899955, 0.016792351, -521022.97, -38688.17, 0.0, 5.0015173, 4.9473743 
5.184279e+2, 2.557327e+2, -484323.7, -566313.44, -23804.648, -0.041420355, 0.031374976, -477913.5, -44072.973, 0.0, 4.999224, 4.9471803 
5.18365e+2, 2.6067942e+2, -447336.8, -532840.8, -20906.924, -0.04937711, 0.05641777, -442498.53, -57129.31, 0.0, 4.996833, 4.942636 
5.183073e+2, 2.6562312e+2, -401572.63, -478341.2, -20021.057, -0.04443198, 0.038210817, -396664.9, -59749.258, 0.0, 4.9941773, 4.9455047 
5.1825e+2, 2.7056655e+2, -359512.5, -432084.2, -20203.342, -0.037651848, 0.013608195, -354267.16, -65804.03, 0.0, 4.991471, 4.945521 
5.1819277e+2, 2.7551013e+2, -317553.34, -385981.97, -20343.889, -0.031127466, -0.010246202, -311961.97, -71952.35, 0.0, 4.988725, 4.9454894 
5.1813716e+2, 2.8044933e+2, -288325.03, -368936.94, -16564.65, -0.02705083, -0.016970066, -285053.97, -93453.164, 0.0, 4.98597, 4.935182 
5.180851e+2, 2.85389e+2, -242553.72, -315020.06, -14944.789, -0.030519668, 0.0010161903, -239592.64, -96397.68, 0.0, 4.9833827, 4.937723 
5.1803344e+2, 2.9032952e+2, -199907.02, -268335.72, -14517.89, -0.034544088, 0.02288931, -196954.3, -102172.71, 0.0, 4.9807987, 4.937729 
5.1798177e+2, 2.9527003e+2, -157235.48, -221619.39, -14088.526, -0.038515452, 0.044646233, -154287.61, -107919.23, 0.0, 4.978204, 4.937735 
5.179313e+2, 3.0022871e+2, -95659.97, -97566.58, -8891.225, -0.052253563, 0.09513239, -87671.086, -87671.086, 0.0, 4.9754925, 4.974476 
5.178882e+2, 3.0520868e+2, -90365.71, -67535.71, -4468.183, -0.07634064, 0.034840588, -66692.37, -66692.37, 0.0, 4.972062, 4.986516 
5.1784664e+2, 3.1018865e+2, -100144.72, -71489.99, -3640.5842, -0.09638816, -0.06259482, -71034.69, -71034.69, 0.0, 4.9683743, 4.98663 
5.178051e+2, 3.151687e+2, -110272.55, -75661.734, -2983.9495, -0.116273746, -0.16135524, -75406.36, -75406.36, 0.0, 4.9645424, 4.986745 
5.251443e+2, 1.21934325e+2, -1595031.6, -1743861.5, 3336.483, -0.022476703, -0.018399848, -1594956.9, 150081.92, 0.0, 5.0646353, 4.9668803 
5.2509564e+2, 1.2690277e+2, -1556045.6, -1703174.3, -1568.3955, -0.012485074, 0.012652699, -1556029.0, 140320.16, 0.0, 5.0619764, 4.9655557 
5.250464e+2, 1.3186707e+2, -1515305.6, -1658422.1, -2088.516, -0.0031086141, 0.0012538637, -1515275.1, 132424.86, 0.0, 5.0592628, 4.965553 
5.249972e+2, 1.3683131e+2, -1476729.1, -1618222.8, -2686.529, 0.0063473126, -0.008898943, -1476678.3, 122373.0, 0.0, 5.0565505, 4.964026 
5.2494454e+2, 1.4179432e+2, -1437712.5, -1577856.9, -8136.1377, 0.0150998775, -0.0018069196, -1437241.8, 113171.87, 0.0, 5.05392, 4.9624577 
5.2488714e+2, 1.4675748e+2, -1395250.4, -1530249.3, -8789.872, 0.01691859, -0.003327139, -1394680.4, 107092.27, 0.0, 5.051326, 4.963293 
5.248296e+2, 1.5172066e+2, -1353989.4, -1485149.8, -8987.63, 0.018050624, -0.005450369, -1353376.4, 99755.13, 0.0, 5.0487294, 4.9632826 
5.2477217e+2, 1.5668382e+2, -1314082.0, -1442944.6, -9201.497, 0.019115929, -0.0070634414, -1313428.3, 91062.29, 0.0, 5.0461345, 4.9622903 
5.2471197e+2, 1.6164444e+2, -1276335.4, -1405960.3, -13609.796, 0.018970242, -0.004162987, -1274921.9, 80952.91, 0.0, 5.0436254, 4.959525 
5.246481e+2, 1.66604e+2, -1233649.0, -1358656.3, -14416.681, 0.019638877, -0.010033511, -1232007.9, 75261.31, 0.0, 5.0411663, 4.960135 
5.245841e+2, 1.7156363e+2, -1191815.0, -1313153.1, -14602.894, 0.020566873, -0.015981553, -1190082.4, 68580.66, 0.0, 5.038703, 4.960128 
5.245202e+2, 1.7652327e+2, -1151049.9, -1269967.9, -14753.234, 0.021535816, -0.021600205, -1149246.9, 60809.945, 0.0, 5.0362406, 4.959329 
5.244547e+2, 1.8148078e+2, -1113043.6, -1232994.9, -17469.723, 0.021877088, -0.019182086, -1110551.1, 50920.4, 0.0, 5.033809, 4.9564166 
5.243866e+2, 1.8643768e+2, -1069843.0, -1184814.9, -18094.535, 0.020461896, -0.022957923, -1067062.5, 45829.87, 0.0, 5.0313654, 4.9572525 
5.2431834e+2, 1.9139469e+2, -1027790.44, -1139098.4, -18212.418, 0.018887823, -0.0267431, -1024886.25, 39425.93, 0.0, 5.0289183, 4.957244 
5.242502e+2, 1.963517e+2, -986585.9, -1095253.5, -18310.467, 0.01727571, -0.03014216, -983583.5, 32148.502, 0.0, 5.0264716, 4.9565864 
5.241816e+2, 2.0130679e+2, -949530.3, -1060459.5, -18942.887, 0.014455427, -0.02104841, -946384.75, 20787.473, 0.0, 5.024031, 4.9528255 
5.2411205e+2, 2.0626105e+2, -905920.75, -1011661.7, -19224.258, 0.011221792, -0.016653204, -902534.1, 16090.139, 0.0, 5.0216093, 4.9537964 
5.240425e+2, 2.1121532e+2, -863601.94, -965721.0, -19197.02, 0.008224638, -0.013397964, -860112.44, 9963.891, 0.0, 5.019189, 4.953783 
5.23973e+2, 2.1616957e+2, -821908.3, -921193.6, -19154.8, 0.005298056, -0.010274843, -818341.0, 3187.7153, 0.0, 5.01677, 4.9532714 
5.2390355e+2, 2.2112127e+2, -783721.56, -884558.94, -19114.07, 0.002765795, -0.0034036504, -780220.0, -7215.325, 0.0, 5.0144, 4.9500065 
5.2383435e+2, 2.2607173e+2, -739026.3, -834179.75, -19375.9, 0.0018096651, -0.012460555, -735232.1, -10742.881, 0.0, 5.012127, 4.951394 
5.237652e+2, 2.3102237e+2, -696128.7, -787812.06, -19596.572, 0.0008965126, -0.021616941, -692115.7, -16143.885, 0.0, 5.009855, 4.951394 
5.2369606e+2, 2.35973e+2, -653845.4, -742853.0, -19796.438, -0.00015479935, -0.030622125, -649641.0, -22186.787, 0.0, 5.0075827, 4.9508924 
5.2362764e+2, 2.4092191e+2, -617779.94, -710893.56, -17801.422, -0.0042155897, -0.019390682, -614492.75, -35536.85, 0.0, 5.0051713, 4.945887 
5.235606e+2, 2.4587117e+2, -573771.75, -660172.4, -17167.918, -0.013254582, -0.0026738993, -570485.5, -40024.656, 0.0, 5.0024853, 4.9474945 
5.2349365e+2, 2.508205e+2, -531843.3, -614182.1, -16929.605, -0.022040809, 0.011582539, -528498.3, -46532.633, 0.0, 4.9997954, 4.9474807 
5.234267e+2, 2.5576976e+2, -490117.1, -568714.8, -16681.111, -0.030712076, 0.025312815, -486723.34, -53252.15, 0.0, 4.9971066, 4.947268 
5.233615e+2, 2.6071614e+2, -453944.97, -535561.75, -13515.973, -0.03680818, 0.046933223, -451764.9, -66762.27, 0.0, 4.994408, 4.9427443 
5.2330095e+2, 2.6565987e+2, -408413.88, -481393.72, -12581.826, -0.031446256, 0.030235548, -406305.66, -69754.26, 0.0, 4.991729, 4.9455066 
5.232409e+2, 2.706035e+2, -366292.84, -435037.75, -12718.402, -0.024570214, 0.0084885815, -364015.28, -75914.83, 0.0, 4.989053, 4.945534 
5.231809e+2, 2.7554718e+2, -324174.75, -388778.28, -12855.058, -0.017568033, -0.013402857, -321710.78, -82061.586, 0.0, 4.9863777, 4.945514 
5.231225e+2, 2.8048652e+2, -294972.94, -371049.38, -8894.879, -0.012580118, -0.018632635, -293946.78, -102705.42, 0.0, 4.9835525, 4.9354596 
5.2306783e+2, 2.854264e+2, -250387.72, -317388.56, -7329.3086, -0.01569319, -0.00014641289, -249595.31, -106762.61, 0.0, 4.9804974, 4.9381113 
5.230133e+2, 2.903672e+2, -209004.66, -271303.06, -7095.149, -0.019599847, 0.022124391, -208206.81, -113790.63, 0.0, 4.9774485, 4.9381113 
5.229589e+2, 2.9530802e+2, -167562.81, -225167.31, -6845.9375, -0.023484036, 0.044542026, -166760.39, -120760.93, 0.0, 4.974397, 4.9381113 
5.229058e+2, 3.002672e+2, -105167.21, -97466.75, -1726.1196, -0.034470122, 0.09118151, -97097.52, -97097.52, 0.0, 4.9712944, 4.9763255 
5.228602e+2, 3.0524912e+2, -101612.38, -69087.19, 1624.5094, -0.04800982, 0.03668917, -69006.25, -69006.25, 0.0, 4.9674015, 4.9880123 
5.22816e+2, 3.1023142e+2, -112525.16, -73541.95, 1247.2842, -0.05629621, -0.04642289, -73502.086, -73502.086, 0.0, 4.9633117, 4.9881053 
5.227719e+2, 3.152139e+2, -123412.61, -78053.39, 751.57184, -0.06303891, -0.12896045, -78040.945, -78040.945, 0.0, 4.9592085, 4.9881988 
5.3020793e+2, 1.21980876e+2, -1594972.1, -1743923.0, 1401.2715, -0.03026099, -0.018551191, -1594959.0, 149627.44, 0.0, 5.0646544, 4.9668593 
5.301579e+2, 1.2694871e+2, -1556900.6, -1705158.1, -3595.701, -0.0074518113, 0.012427065, -1556813.5, 139089.02, 0.0, 5.0620008, 4.9649024 
5.3010565e+2, 1.3191262e+2, -1516155.5, -1660399.9, -4114.7935, -0.0007732794, 0.003757836, -1516038.1, 131219.0, 0.0, 5.059287, 4.9649 
5.300535e+2, 1.3687648e+2, -1477577.8, -1620203.8, -4719.804, 0.0059378073, -0.0036669462, -1477421.8, 121190.41, 0.0, 5.056575, 4.9633713 
5.29998e+2, 1.4183912e+2, -1437997.3, -1578654.8, -10114.694, 0.013477926, 0.004431392, -1437273.6, 112704.22, 0.0, 5.053942, 4.962196 
5.299381e+2, 1.4680183e+2, -1395474.8, -1530920.8, -10734.383, 0.01670388, 0.00073999277, -1394629.4, 106711.02, 0.0, 5.051348, 4.963073 
5.298782e+2, 1.5176459e+2, -1354211.5, -1485820.8, -10932.697, 0.019302126, -0.0035922618, -1353309.5, 99393.23, 0.0, 5.0487523, 4.9630623 
5.2981824e+2, 1.5672731e+2, -1314305.8, -1443625.0, -11152.723, 0.021825654, -0.007406936, -1313351.0, 90714.15, 0.0, 5.046158, 4.962066 
5.2975553e+2, 1.6168761e+2, -1276478.5, -1406476.5, -15502.306, 0.022349909, -0.005650639, -1274655.5, 80796.39, 0.0, 5.043649, 4.9593573 
5.296891e+2, 1.666471e+2, -1233816.8, -1359227.8, -16275.531, 0.022150462, -0.010336437, -1231738.9, 75108.12, 0.0, 5.0411906, 4.959949 
5.296226e+2, 1.7160669e+2, -1191981.0, -1313725.8, -16461.705, 0.02215522, -0.015014162, -1189794.5, 68447.15, 0.0, 5.0387278, 4.9599414 
5.295561e+2, 1.7656626e+2, -1151214.6, -1270542.5, -16612.16, 0.022191104, -0.019355135, -1148945.1, 60691.094, 0.0, 5.036266, 4.9591413 
5.294882e+2, 1.8152367e+2, -1113088.0, -1233337.6, -19330.684, 0.022447413, -0.01638433, -1110056.9, 50994.977, 0.0, 5.033838, 4.9563055 
5.294178e+2, 1.8648034e+2, -1069876.1, -1185140.9, -19943.262, 0.022655707, -0.021533716, -1066523.0, 45951.55, 0.0, 5.031395, 4.9571466 
5.293473e+2, 1.9143711e+2, -1027822.25, -1139424.6, -20061.5, 0.022738595, -0.026773, -1024325.56, 39570.88, 0.0, 5.0289483, 4.957138 
5.292768e+2, 1.9639386e+2, -986616.4, -1095580.0, -20159.654, 0.022769747, -0.0316193, -983006.2, 32312.066, 0.0, 5.026502, 4.95648 
5.2920586e+2, 2.0134883e+2, -949222.1, -1060078.4, -20798.084, 0.020671286, -0.024001786, -945448.56, 21310.506, 0.0, 5.0240645, 4.9529605 
5.291338e+2, 2.0630315e+2, -905685.8, -1011446.06, -21061.898, 0.016487027, -0.019940283, -901645.7, 16563.86, 0.0, 5.021643, 4.953876 
5.2906173e+2, 2.1125747e+2, -863369.75, -965510.9, -21032.305, 0.0124788, -0.016773403, -859208.44, 10451.451, 0.0, 5.019223, 4.953862 
5.289897e+2, 2.162118e+2, -821678.8, -920988.8, -20987.547, 0.008521207, -0.013686333, -817425.56, 3684.9678, 0.0, 5.0168037, 4.953349 
5.2891797e+2, 2.211635e+2, -783842.9, -885186.56, -20870.11, 0.006186547, -0.0061573316, -779713.3, -7127.2896, 0.0, 5.0144444, 4.949791 
5.288466e+2, 2.2611389e+2, -739169.9, -834858.75, -21102.473, 0.006592776, -0.013654497, -734722.75, -10650.066, 0.0, 5.0121713, 4.9511585 
5.287753e+2, 2.3106448e+2, -696281.5, -788488.0, -21317.373, 0.006838894, -0.02120697, -691591.6, -16034.208, 0.0, 5.009896, 4.9511604 
5.28704e+2, 2.3601508e+2, -654007.5, -743525.94, -21511.29, 0.0068877502, -0.028517367, -649106.6, -22064.77, 0.0, 5.0076203, 4.9506607 
5.2863324e+2, 2.40964e+2, -617107.25, -709710.7, -19801.42, 0.0033096257, -0.018113956, -613050.8, -34506.68, 0.0, 5.005207, 4.946306 
5.285636e+2, 2.459131e+2, -573191.9, -659165.7, -19238.965, -0.0047332398, -0.006274052, -569083.06, -39035.09, 0.0, 5.0025163, 4.947863 
5.284941e+2, 2.5086227e+2, -531288.5, -613190.8, -18988.113, -0.012344935, 0.0035601996, -527100.44, -45548.86, 0.0, 4.99982, 4.947848 
5.284247e+2, 2.558114e+2, -489587.13, -567738.75, -18727.014, -0.019901566, 0.013087122, -485331.44, -52275.73, 0.0, 4.997125, 4.9476347 
5.283569e+2, 2.6075765e+2, -453709.78, -535233.8, -15626.199, -0.024765737, 0.031085964, -450817.25, -66230.4, 0.0, 4.994428, 4.9428654 
5.2829343e+2, 2.6570213e+2, -408370.75, -481506.6, -14683.515, -0.02173452, 0.021268634, -405532.84, -69400.984, 0.0, 4.9917502, 4.945471 
5.282304e+2, 2.706466e+2, -366261.47, -435174.3, -14797.416, -0.018057838, 0.008527852, -363218.44, -75542.57, 0.0, 4.9890733, 4.945492 
5.2816737e+2, 2.7559114e+2, -324155.0, -388938.4, -14911.428, -0.014297537, -0.004279543, -320887.6, -81667.96, 0.0, 4.9863973, 4.945465 
5.28106e+2, 2.805313e+2, -294426.5, -370087.34, -11167.655, -0.011502372, -0.0025626407, -292812.56, -102005.99, 0.0, 4.9835854, 4.935801 
5.280484e+2, 2.8547087e+2, -249867.63, -316409.3, -9670.778, -0.012741609, 0.009788461, -248490.63, -106090.48, 0.0, 4.9805183, 4.93847 
5.279911e+2, 2.9041114e+2, -208563.38, -270343.75, -9414.083, -0.014464308, 0.02418717, -207160.7, -113173.11, 0.0, 4.9774437, 4.9384747 
5.2793384e+2, 2.9535145e+2, -167199.98, -224227.6, -9142.365, -0.016261894, 0.039024625, -165770.17, -120195.62, 0.0, 4.9743667, 4.93848 
5.278783e+2, 3.003104e+2, -103244.28, -92646.52, -4242.1616, -0.022650901, 0.07302468, -91157.62, -91157.62, 0.0, 4.97122, 4.978132 
5.2783006e+2, 3.0529356e+2, -100943.3, -67613.13, -1273.3578, -0.026931599, 0.024394777, -67564.555, -67564.555, 0.0, 4.967385, 4.9886646 
5.2778304e+2, 3.1027707e+2, -111541.4, -72056.625, -1511.2386, -0.027743995, -0.046080172, -71998.875, -71998.875, 0.0, 4.9633956, 4.988725 
5.2773607e+2, 3.1526056e+2, -122113.68, -76556.66, -1867.6505, -0.028268613, -0.1182379, -76480.22, -76480.22, 0.0, 4.9593916, 4.988786 
5.3527224e+2, 1.2202763e+2, -1595024.4, -1744218.1, -540.02124, -0.032348614, -0.016641976, -1595022.5, 149109.42, 0.0, 5.064675, 4.966761 
5.3522015e+2, 1.2699462e+2, -1557755.1, -1707143.3, -5623.2764, -0.0025307185, 0.012288734, -1557543.8, 137912.03, 0.0, 5.0620255, 4.9642487 
5.351649e+2, 1.3195816e+2, -1517004.9, -1662378.9, -6141.3413, 0.0014499313, 0.006330542, -1516745.9, 130068.39, 0.0, 5.059312, 4.964247 
5.3510976e+2, 1.3692166e+2, -1478425.9, -1622186.0, -6753.4634, 0.0054162256, 0.0016152618, -1478109.4, 120063.68, 0.0, 5.0566, 4.962716 
5.350514e+2, 1.418839e+2, -1438282.0, -1579456.1, -12095.376, 0.011839739, 0.0106718335, -1437253.3, 112288.99, 0.0, 5.053966, 4.9619327 
5.349891e+2, 1.4684619e+2, -1395698.0, -1531593.6, -12677.731, 0.016490335, 0.004787783, -1394525.5, 106382.68, 0.0, 5.0513716, 4.962852 
5.349267e+2, 1.5180849e+2, -1354432.3, -1486493.4, -12876.604, 0.020557638, -0.0017662591, -1353188.4, 99085.47, 0.0, 5.0487766, 4.962841 
5.3486437e+2, 1.5677078e+2, -1314528.3, -1444306.9, -13102.824, 0.024542226, -0.007795275, -1313218.6, 90421.18, 0.0, 5.0461826, 4.961842 
5.3479916e+2, 1.617308e+2, -1276628.5, -1407011.8, -17394.188, 0.025707265, -0.0071147676, -1274347.9, 80681.06, 0.0, 5.0436745, 4.959183 
5.3473014e+2, 1.6669023e+2, -1233983.0, -1359800.9, -18133.05, 0.024642216, -0.010621083, -1231421.9, 75003.086, 0.0, 5.0412154, 4.959762 
5.3466105e+2, 1.7164974e+2, -1192145.6, -1314300.0, -18319.186, 0.023734298, -0.014053221, -1189457.5, 68362.695, 0.0, 5.0387535, 4.9597535 
5.3459203e+2, 1.7660925e+2, -1151377.9, -1271118.9, -18469.71, 0.022847665, -0.017141199, -1148593.8, 60621.875, 0.0, 5.036292, 4.9589524 
5.3452164e+2, 1.8156657e+2, -1113134.6, -1233690.0, -21188.332, 0.023040451, -0.013567154, -1109519.0, 51113.06, 0.0, 5.0338674, 4.9561915 
5.34449e+2, 1.8652299e+2, -1069907.9, -1185468.3, -21791.262, 0.024874771, -0.02009196, -1065935.3, 46121.508, 0.0, 5.0314255, 4.957041 
5.3437614e+2, 1.914795e+2, -1027852.75, -1139752.4, -21909.857, 0.02661463, -0.026799275, -1023715.75, 39764.938, 0.0, 5.0289793, 4.9570317 
5.343035e+2, 1.9643602e+2, -986645.6, -1095908.0, -22008.12, 0.02828906, -0.033106703, -982379.25, 32525.313, 0.0, 5.0265336, 4.956373 
5.342301e+2, 2.0139085e+2, -948924.2, -1059723.6, -22648.139, 0.026897434, -0.027021592, -944473.5, 21872.578, 0.0, 5.0240993, 4.953086 
5.341555e+2, 2.0634523e+2, -905449.94, -1011231.8, -22897.78, 0.021759234, -0.02336712, -900706.1, 17088.818, 0.0, 5.0216784, 4.9539547 
5.34081e+2, 2.1129963e+2, -863136.6, -965302.06, -22865.834, 0.01674071, -0.020370789, -858252.5, 10991.157, 0.0, 5.019258, 4.95394 
5.340065e+2, 2.16254e+2, -821448.4, -920785.44, -22818.54, 0.011752885, -0.017401805, -816457.5, 4235.0645, 0.0, 5.0168386, 4.9534254 
5.339324e+2, 2.2120577e+2, -783998.2, -885891.06, -22610.268, 0.009539227, -0.008576757, -779206.25, -7039.094, 0.0, 5.014489, 4.9495487 
5.3385884e+2, 2.2615612e+2, -739313.7, -835538.0, -22832.912, 0.011226671, -0.01440264, -734170.6, -10514.796, 0.0, 5.0122166, 4.950922 
5.3378534e+2, 2.3110662e+2, -696434.56, -789164.2, -23042.045, 0.012601644, -0.02048118, -691024.56, -15881.865, 0.0, 5.009938, 4.950926 
5.3371185e+2, 2.3605718e+2, -654169.9, -744199.1, -23230.01, 0.01372031, -0.026226513, -648529.25, -21900.03, 0.0, 5.007659, 4.9504275 
5.336388e+2, 2.4100605e+2, -616502.25, -708682.2, -21799.953, 0.010815418, -0.016769674, -611606.7, -33474.21, 0.0, 5.005244, 4.946671 
5.3356665e+2, 2.45955e+2, -572611.6, -658161.0, -21310.297, 0.003897702, -0.010106019, -567597.2, -37961.75, 0.0, 5.002548, 4.9482284 
5.3349465e+2, 2.50904e+2, -530733.2, -612201.56, -21046.918, -0.0024888436, -0.005084177, -525617.1, -44479.113, 0.0, 4.999846, 4.9482117 
5.3342265e+2, 2.5585297e+2, -489056.66, -566764.7, -20773.223, -0.0088803265, -0.00015004176, -483852.06, -51211.22, 0.0, 4.9971447, 4.947997 
5.333523e+2, 2.6079923e+2, -453633.0, -535268.94, -17716.016, -0.01295946, 0.015989533, -449954.2, -65783.46, 0.0, 4.994449, 4.9428577 
5.332859e+2, 2.6574442e+2, -408326.56, -481622.38, -16781.646, -0.012391267, 0.013660715, -404667.0, -68955.57, 0.0, 4.9917727, 4.945428 
5.332199e+2, 2.706898e+2, -366229.0, -435313.78, -16872.883, -0.011724873, 0.009313859, -362328.28, -75077.7, 0.0, 4.9890943, 4.9454417 
5.331538e+2, 2.7563512e+2, -324134.06, -389101.44, -16964.26, -0.011017809, 0.0049796402, -319971.13, -81181.586, 0.0, 4.9864173, 4.945408 
5.3308934e+2, 2.8057608e+2, -294026.75, -369461.8, -13399.949, -0.010529668, 0.013849049, -291717.16, -101345.734, 0.0, 4.98362, 4.9360228 
5.33029e+2, 2.855153e+2, -249353.31, -315426.63, -12019.147, -0.009870644, 0.01985223, -247234.88, -105267.32, 0.0, 4.9805403, 4.938824 
5.329689e+2, 2.90455e+2, -208127.78, -269381.0, -11739.949, -0.009185542, 0.025653694, -205954.77, -112395.47, 0.0, 4.97744, 4.938834 
5.329088e+2, 2.953948e+2, -166842.8, -223284.39, -11445.76, -0.008673229, 0.03218756, -164610.05, -119459.766, 0.0, 4.9743376, 4.9388437 
5.328505e+2, 3.003535e+2, -101812.88, -88919.98, -6798.067, -0.011298528, 0.054724697, -85997.836, -85997.836, 0.0, 4.971147, 4.9795322 
5.327998e+2, 3.0533773e+2, -100289.24, -66119.58, -4097.037, -0.0072035454, 0.011249997, -65635.195, -65635.195, 0.0, 4.9673724, 4.989284 
5.3275007e+2, 3.1032234e+2, -110572.766, -70551.83, -4195.4395, -0.00067118776, -0.04957311, -70116.74, -70116.74, 0.0, 4.963483, 4.9893126 
5.3270036e+2, 3.1530675e+2, -120829.99, -75040.46, -4412.425, 0.0048930445, -0.11432922, -74619.15, -74619.15, 0.0, 4.959579, 4.9893413 
5.4033595e+2, 1.2207518e+2, -1594706.0, -1744486.0, -1059.2186, -0.039858755, -0.0069234576, -1594698.5, 148970.77, 0.0, 5.0648847, 4.966564 
5.4028237e+2, 1.2704064e+2, -1557608.5, -1708310.0, -6358.445, 0.001980444, 0.011845896, -1557340.6, 137667.6, 0.0, 5.0623503, 4.9637036 
5.4022413e+2, 1.3200386e+2, -1516785.0, -1663522.8, -6652.3745, 0.003329728, 0.008485613, -1516484.0, 129885.695, 0.0, 5.0596623, 4.963697 
5.40166e+2, 1.3696706e+2, -1478152.6, -1623324.0, -7058.601, 0.004701281, 0.0064126803, -1477810.3, 119921.25, 0.0, 5.056971, 4.9621587 
5.4010487e+2, 1.4192897e+2, -1437546.4, -1579648.8, -12232.625, 0.010191499, 0.01643349, -1436501.0, 112602.664, 0.0, 5.0543327, 4.9616942 
5.400401e+2, 1.4689082e+2, -1395061.9, -1531776.9, -12815.662, 0.016182477, 0.008602396, -1393870.9, 106602.18, 0.0, 5.05169, 4.9626403 
5.399753e+2, 1.518527e+2, -1353922.1, -1486744.4, -13056.065, 0.021660637, 0.000027539216, -1352651.0, 99191.35, 0.0, 5.049052, 4.962628 
5.3991044e+2, 1.5681455e+2, -1314131.3, -1444626.1, -13328.534, 0.027086912, -0.00807541, -1312783.9, 90427.91, 0.0, 5.0464206, 4.9616246 
5.398427e+2, 1.6177425e+2, -1276235.5, -1407206.6, -17584.225, 0.028933529, -0.008409572, -1273915.8, 80687.766, 0.0, 5.043879, 4.959028 
5.397712e+2, 1.6673361e+2, -1233755.6, -1360093.5, -18272.742, 0.027198002, -0.010918261, -1231165.9, 74834.445, 0.0, 5.0413666, 4.9596 
5.396996e+2, 1.7169304e+2, -1192078.5, -1314676.3, -18443.914, 0.02557153, -0.0132843265, -1189363.9, 68032.555, 0.0, 5.0388503, 4.9595895 
5.3962797e+2, 1.7665248e+2, -1151468.1, -1271577.1, -18582.242, 0.02394501, -0.015278082, -1148659.0, 60133.652, 0.0, 5.0363355, 4.958786 
5.395552e+2, 1.8160969e+2, -1113259.4, -1234040.1, -21307.156, 0.024158109, -0.011061379, -1109610.9, 50599.234, 0.0, 5.0338726, 4.9560804 
5.3948015e+2, 1.8656589e+2, -1070084.4, -1185830.8, -21969.928, 0.027501324, -0.018784514, -1066054.5, 45582.266, 0.0, 5.0314097, 4.956935 
5.394051e+2, 1.9152214e+2, -1028096.3, -1140147.0, -22156.154, 0.03079292, -0.026863389, -1023874.4, 39188.504, 0.0, 5.0289397, 4.9569263 
5.3933007e+2, 1.964784e+2, -986966.0, -1096339.4, -22318.873, 0.034023672, -0.03460771, -982586.94, 31902.068, 0.0, 5.026467, 4.956268 
5.392543e+2, 2.0143306e+2, -949064.06, -1059529.9, -23024.06, 0.0332975, -0.030184995, -944457.3, 21474.246, 0.0, 5.0239854, 4.9532156 
5.3917724e+2, 2.0638746e+2, -905792.75, -1011214.94, -23302.03, 0.027259065, -0.027042681, -900871.9, 16507.11, 0.0, 5.0215106, 4.9540505 
5.391002e+2, 2.1134192e+2, -863628.5, -965361.7, -23304.54, 0.021313505, -0.024273619, -858544.1, 10281.862, 0.0, 5.019039, 4.954033 
5.390232e+2, 2.1629634e+2, -822086.6, -920919.2, -23291.494, 0.015401162, -0.021439288, -816872.6, 3400.5984, 0.0, 5.0165696, 4.9535165 
5.3894675e+2, 2.2124821e+2, -785254.5, -887104.44, -22989.8, 0.013320167, -0.01059895, -780305.6, -8559.194, 0.0, 5.0141635, 4.9492927 
5.388711e+2, 2.261985e+2, -740846.75, -836828.94, -23264.879, 0.016442375, -0.014723323, -735504.94, -12267.735, 0.0, 5.01178, 4.950686 
5.387954e+2, 2.3114891e+2, -698343.5, -790624.75, -23518.068, 0.01923422, -0.019730205, -692695.5, -17968.861, 0.0, 5.0093665, 4.9506907 
5.387197e+2, 2.3609935e+2, -656512.94, -745853.4, -23748.479, 0.021762483, -0.024495909, -650592.5, -24376.6, 0.0, 5.006933, 4.9501934 
5.3864443e+2, 2.4104808e+2, -618436.56, -708872.7, -22622.678, 0.019932108, -0.016455585, -613093.2, -35372.33, 0.0, 5.0044074, 4.947003 
5.385697e+2, 2.459969e+2, -574304.75, -658117.5, -22233.797, 0.013846439, -0.014835915, -568771.8, -39549.086, 0.0, 5.001774, 4.948616 
5.384951e+2, 2.5094578e+2, -532257.1, -612085.6, -21977.576, 0.00833889, -0.014590821, -526606.44, -45882.54, 0.0, 4.9991345, 4.948596 
5.3842056e+2, 2.5589463e+2, -490441.0, -566589.4, -21700.408, 0.0028309538, -0.014291586, -484691.1, -52465.773, 0.0, 4.996486, 4.9483776 
5.383476e+2, 2.60841e+2, -455594.63, -536532.6, -18692.148, -0.0011533578, 0.002025496, -451486.3, -67733.47, 0.0, 4.9938226, 4.942704 
5.382783e+2, 2.6578695e+2, -410199.72, -482680.22, -18036.36, -0.0031875414, 0.0077035115, -405959.53, -70670.305, 0.0, 4.9911385, 4.9453373 
5.3820914e+2, 2.707331e+2, -368127.16, -436393.72, -18389.193, -0.0053421115, 0.011089589, -363488.75, -76664.61, 0.0, 4.9884496, 4.9453483 
5.381401e+2, 2.7567923e+2, -326064.0, -390200.8, -18745.283, -0.007488125, 0.014530204, -320987.2, -82628.3, 0.0, 4.98576, 4.945312 
5.380728e+2, 2.8062087e+2, -295824.1, -370050.13, -15522.031, -0.009391909, 0.03067811, -292708.88, -102772.73, 0.0, 4.9829254, 4.936137 
5.380095e+2, 2.8555977e+2, -251422.69, -315513.56, -14183.942, -0.0066888034, 0.02998432, -248423.95, -106888.88, 0.0, 4.9796367, 4.939202 
5.379466e+2, 2.9049888e+2, -210833.25, -269736.75, -13717.193, -0.0032757078, 0.026338013, -207795.5, -114664.14, 0.0, 4.976312, 4.939213 
5.3788364e+2, 2.954381e+2, -170147.7, -223890.52, -13215.498, -0.00016099442, 0.023707995, -167073.8, -122347.1, 0.0, 4.972998, 4.939224 
5.3782254e+2, 3.003964e+2, -105136.445, -88076.266, -8660.711, 0.00012320721, 0.03597151, -84450.27, -84450.27, 0.0, 4.96953, 4.9805427 
5.3776926e+2, 3.0538172e+2, -105450.125, -67053.91, -5836.732, 0.011842611, -0.0030205494, -66186.26, -66186.26, 0.0, 4.965263, 4.9898877 
5.3771704e+2, 3.103674e+2, -117459.23, -72354.59, -5405.3994, 0.025604945, -0.057007086, -71715.85, -71715.85, 0.0, 4.9607406, 4.9898825 
5.376648e+2, 3.1535256e+2, -129564.16, -77773.04, -4968.5977, 0.03697267, -0.11724056, -77300.69, -77300.69, 0.0, 4.956161, 4.9898753 
5.453993e+2, 1.22130856e+2, -1582125.3, -1738194.1, 4562.163, -0.07574401, 0.027041398, -1581992.0, 161134.78, 0.0, 5.0691915, 4.966518 
5.453466e+2, 1.2709266e+2, -1545626.6, -1702506.1, -2422.3464, 0.0019895618, 0.011325964, -1545589.3, 148911.81, 0.0, 5.066495, 4.9635787 
5.452855e+2, 1.3205583e+2, -1505388.5, -1658034.0, -2553.1587, 0.0026097803, 0.009408746, -1505345.9, 140517.02, 0.0, 5.063617, 4.9635696 
5.452245e+2, 1.3701896e+2, -1467319.5, -1618141.3, -2785.5625, 0.003255041, 0.008841244, -1467268.0, 129956.836, 0.0, 5.060742, 4.9620266 
5.451606e+2, 1.4198072e+2, -1427260.8, -1574759.8, -7824.523, 0.008625216, 0.019316504, -1426846.9, 121751.68, 0.0, 5.057912, 4.961569 
5.45093e+2, 1.469423e+2, -1385560.9, -1527400.5, -8353.585, 0.014853148, 0.011206663, -1385070.6, 114900.34, 0.0, 5.0550303, 4.9624686 
5.4502547e+2, 1.5190388e+2, -1345153.8, -1482746.4, -8562.834, 0.02062386, 0.002367713, -1344622.9, 106720.41, 0.0, 5.052146, 4.9624553 
5.449579e+2, 1.5686543e+2, -1306110.8, -1441019.1, -8805.828, 0.026387686, -0.0060640606, -1305538.4, 97177.52, 0.0, 5.049264, 4.961447 
5.448874e+2, 1.6182493e+2, -1268614.5, -1403359.0, -12914.998, 0.028515179, -0.0066870432, -1267387.8, 86721.8, 0.0, 5.046487, 4.9590483 
5.448133e+2, 1.6678421e+2, -1226776.5, -1356536.5, -13432.085, 0.027082564, -0.009387372, -1225400.6, 80105.87, 0.0, 5.0437517, 4.9596353 
5.4473907e+2, 1.7174357e+2, -1185763.1, -1311454.9, -13456.903, 0.02574916, -0.011917829, -1184338.5, 72564.26, 0.0, 5.0410123, 4.959623 
5.446649e+2, 1.7670293e+2, -1145815.3, -1268688.8, -13442.138, 0.02440277, -0.014041721, -1144361.9, 63937.156, 0.0, 5.038274, 4.9588175 
5.4458946e+2, 1.816601e+2, -1108221.4, -1231520.5, -15957.415, 0.024941072, -0.009575376, -1106189.6, 53526.973, 0.0, 5.035613, 4.956084 
5.44512e+2, 1.866162e+2, -1065538.9, -1183640.0, -16500.121, 0.028698614, -0.016920185, -1063277.0, 47867.598, 0.0, 5.0330014, 4.956901 
5.4443437e+2, 1.9157232e+2, -1023973.1, -1138164.8, -16591.928, 0.032430016, -0.024762671, -1021611.2, 40960.89, 0.0, 5.0303874, 4.956892 
5.443569e+2, 1.9652845e+2, -983252.1, -1094557.8, -16660.072, 0.036128037, -0.03240481, -980811.94, 33187.688, 0.0, 5.027775, 4.956234 
5.442786e+2, 2.0148289e+2, -945697.0, -1057467.4, -17406.58, 0.03616689, -0.029659564, -943048.94, 22395.176, 0.0, 5.0250816, 4.9533777 
5.44199e+2, 2.0643713e+2, -903358.3, -1009592.6, -17635.496, 0.03131423, -0.02889738, -900507.25, 16384.904, 0.0, 5.0222874, 4.9542136 
5.4411936e+2, 2.1139142e+2, -862120.2, -964169.44, -17594.316, 0.026519211, -0.02809073, -859171.94, 9167.499, 0.0, 5.0194964, 4.954198 
5.4403985e+2, 2.1634571e+2, -821502.3, -920152.75, -17530.625, 0.021744322, -0.027010143, -818479.6, 1307.1227, 0.0, 5.016706, 4.953683 
5.4396087e+2, 2.2129774e+2, -785704.06, -886924.25, -16933.395, 0.01981809, -0.015086947, -782946.4, -11688.409, 0.0, 5.013965, 4.9494076 
5.4388255e+2, 2.2624826e+2, -742272.2, -837248.94, -16887.498, 0.022533042, -0.016203998, -739358.9, -16611.818, 0.0, 5.0112624, 4.9507375 
5.4380435e+2, 2.3119882e+2, -700588.0, -791438.5, -16816.385, 0.025389919, -0.019086743, -697575.2, -23339.215, 0.0, 5.0085545, 4.9507375 
5.437261e+2, 2.3614933e+2, -659513.06, -747029.6, -16725.225, 0.028355772, -0.022434581, -656425.6, -30700.305, 0.0, 5.005848, 4.950236 
5.436482e+2, 2.4109787e+2, -621659.9, -709580.2, -15516.942, 0.028138325, -0.016750963, -619001.7, -41769.105, 0.0, 5.003134, 4.947296 
5.4357105e+2, 2.460465e+2, -577533.6, -658808.6, -15394.689, 0.023410104, -0.018483778, -574715.4, -45979.867, 0.0, 5.0005097, 4.948914 
5.43494e+2, 2.5099525e+2, -535426.9, -612708.06, -15460.276, 0.018851293, -0.020695552, -532448.8, -52211.96, 0.0, 4.9978995, 4.948904 
5.4341686e+2, 2.5594404e+2, -493523.63, -567131.9, -15511.61, 0.014208969, -0.022717346, -490388.38, -58650.383, 0.0, 4.99529, 4.9486957 
5.433412e+2, 2.6089057e+2, -459244.34, -537808.0, -12560.465, 0.010141714, -0.0057484903, -457285.1, -74021.59, 0.0, 4.9925375, 4.9427934 
5.432689e+2, 2.6583686e+2, -414956.88, -484644.0, -11362.867, 0.0068233954, 0.004352904, -413150.9, -78353.95, 0.0, 4.9894805, 4.945345 
5.4319686e+2, 2.707833e+2, -373923.78, -438872.1, -11095.686, 0.0034988178, 0.011831514, -372080.5, -85750.87, 0.0, 4.9864125, 4.94534 
5.431248e+2, 2.7572975e+2, -332897.5, -393180.5, -10827.603, 0.00021220828, 0.019255435, -331011.72, -93149.234, 0.0, 4.9833465, 4.9452877 
5.4305446e+2, 2.806717e+2, -303011.38, -372146.03, -7179.134, -0.002062323, 0.038230743, -302273.72, -112836.09, 0.0, 4.9801984, 4.9365764 
5.4298806e+2, 2.856106e+2, -258604.69, -317163.72, -6238.901, 0.0028557424, 0.03318075, -257947.36, -116910.31, 0.0, 4.976844, 4.9398236 
5.429219e+2, 2.9054955e+2, -218160.17, -271367.75, -6143.5186, 0.009061221, 0.023304457, -217460.03, -124824.805, 0.0, 4.97347, 4.9398513 
5.4285586e+2, 2.9548857e+2, -177655.28, -225516.17, -6061.089, 0.015399786, 0.013486125, -176899.64, -132666.61, 0.0, 4.970097, 4.939879 
5.427915e+2, 3.0044687e+2, -112699.66, -89392.53, -2593.6943, 0.019225018, 0.01940943, -89107.38, -89107.38, 0.0, 4.966552, 4.981325 
5.427351e+2, 3.0543387e+2, -112432.58, -68413.18, -913.0799, 0.04124563, -0.008078997, -68394.24, -68394.24, 0.0, 4.962592, 4.990543 
5.426799e+2, 3.1042168e+2, -122993.11, -72823.375, -1446.1444, 0.06922887, -0.047046337, -72781.72, -72781.72, 0.0, 4.9585953, 4.9906573 
5.4262495e+2, 3.1540918e+2, -133924.97, -77476.086, -2027.8345, 0.09765642, -0.09215313, -77403.336, -77403.336, 0.0, 4.954448, 4.9907727 
5.5046767e+2, 1.2218827e+2, -1581998.4, -1738306.1, 3893.9626, -0.08226953, 0.047982335, -1581901.5, 160665.55, 0.0, 5.0692453, 4.9664664 
5.5041265e+2, 1.2714785e+2, -1545715.0, -1702973.4, -4562.8105, 0.00094132125, 0.011445257, -1545582.8, 148380.14, 0.0, 5.066527, 4.963424 
5.503487e+2, 1.3211098e+2, -1505476.5, -1658498.9, -4692.13, 0.0013081407, 0.010664934, -1505332.8, 139991.94, 0.0, 5.063649, 4.9634156 
5.5028474e+2, 1.3707408e+2, -1467408.1, -1618607.5, -4929.4546, 0.0016421414, 0.011240981, -1467247.6, 129439.15, 0.0, 5.0607734, 4.961872 
5.5021787e+2, 1.4203571e+2, -1427403.5, -1575323.6, -10004.039, 0.007124301, 0.021876208, -1426730.0, 121331.62, 0.0, 5.0579405, 4.9613857 
5.501475e+2, 1.4699705e+2, -1385768.9, -1528100.0, -10510.107, 0.0133211445, 0.013777224, -1384997.0, 114439.625, 0.0, 5.0550585, 4.9622407 
5.50077e+2, 1.5195842e+2, -1345359.6, -1483446.1, -10719.83, 0.019056017, 0.005048159, -1344532.4, 106279.17, 0.0, 5.052175, 4.962227 
5.5000657e+2, 1.5691975e+2, -1306319.3, -1441730.6, -10968.883, 0.024769112, -0.0032630914, -1305436.5, 96750.195, 0.0, 5.0492935, 4.9612145 
5.499333e+2, 1.6187912e+2, -1268499.9, -1403370.1, -15013.043, 0.026905641, -0.0038085685, -1266848.9, 86732.664, 0.0, 5.046514, 4.95905 
5.4985636e+2, 1.668384e+2, -1226634.1, -1356485.3, -15495.204, 0.025844648, -0.0069028046, -1224810.6, 80167.11, 0.0, 5.0437784, 4.9596586 
5.497795e+2, 1.7179774e+2, -1185621.0, -1311405.1, -15520.488, 0.02488334, -0.009850099, -1183734.1, 72639.22, 0.0, 5.041039, 4.9596457 
5.4970264e+2, 1.767571e+2, -1145674.0, -1268642.0, -15507.25, 0.023900729, -0.012384433, -1143748.5, 64020.57, 0.0, 5.038301, 4.9588394 
5.496245e+2, 1.817143e+2, -1108117.9, -1231575.9, -17956.822, 0.024680635, -0.007796535, -1105559.1, 53626.844, 0.0, 5.0356436, 4.956072 
5.495444e+2, 1.8667041e+2, -1065491.8, -1183823.1, -18475.578, 0.02849362, -0.014399038, -1062674.1, 47939.92, 0.0, 5.033033, 4.9568458 
5.494642e+2, 1.9162656e+2, -1023924.4, -1138349.5, -18567.23, 0.032269076, -0.021482557, -1020986.94, 41054.777, 0.0, 5.03042, 4.9568367 
5.493841e+2, 1.965827e+2, -983201.8, -1094744.1, -18634.965, 0.036001053, -0.028352063, -980170.94, 33298.61, 0.0, 5.027807, 4.956178 
5.4930323e+2, 2.0153704e+2, -945420.9, -1057233.3, -19530.293, 0.03689425, -0.026862264, -942107.7, 22807.293, 0.0, 5.0251226, 4.9534626 
5.49221e+2, 2.0649104e+2, -903068.44, -1009329.0, -19746.338, 0.034036048, -0.029217273, -899517.7, 16846.273, 0.0, 5.0223284, 4.95431 
5.491388e+2, 2.1144515e+2, -861839.6, -963907.4, -19702.303, 0.031160323, -0.031328876, -858168.5, 9643.398, 0.0, 5.0195346, 4.9542947 
5.490567e+2, 2.1639928e+2, -821231.0, -919892.1, -19635.541, 0.02824757, -0.033097416, -817466.75, 1793.0981, 0.0, 5.0167418, 4.9537807 
5.4897493e+2, 2.2135149e+2, -785275.56, -886286.5, -18980.852, 0.026051829, -0.021015832, -781826.7, -11098.108, 0.0, 5.0139976, 4.9496346 
5.4889375e+2, 2.2630255e+2, -741944.4, -836812.7, -18949.0, 0.026245467, -0.018376295, -738299.56, -16086.773, 0.0, 5.011292, 4.9508977 
5.488125e+2, 2.3125364e+2, -700269.0, -791010.3, -18874.217, 0.026685428, -0.01746476, -696499.75, -22802.723, 0.0, 5.0085826, 4.9508963 
5.487314e+2, 2.3620468e+2, -659202.94, -746609.3, -18779.176, 0.027203504, -0.016911313, -655339.06, -30157.371, 0.0, 5.0058737, 4.9503937 
5.4865074e+2, 2.4115334e+2, -621419.2, -709430.94, -17589.684, 0.026876684, -0.011238125, -618034.0, -41345.92, 0.0, 5.0031776, 4.947351 
5.485712e+2, 2.4610159e+2, -577357.56, -658814.0, -17411.783, 0.025136856, -0.01677733, -573791.8, -45597.137, 0.0, 5.000555, 4.948918 
5.484918e+2, 2.5105003e+2, -535275.3, -612724.2, -17465.27, 0.02330099, -0.022164907, -531519.0, -51819.848, 0.0, 4.997938, 4.9489074 
5.484124e+2, 2.559985e+2, -493396.5, -567158.56, -17504.44, 0.021300538, -0.027195191, -489453.3, -58249.945, 0.0, 4.9953218, 4.948698 
5.483342e+2, 2.6094502e+2, -458664.47, -536766.9, -14800.648, 0.018606517, -0.011604384, -455953.78, -73225.09, 0.0, 4.992563, 4.943168 
5.482588e+2, 2.6589185e+2, -414339.94, -483504.16, -13729.842, 0.015090461, -0.0003751215, -411714.13, -77457.7, 0.0, 4.9895034, 4.9457583 
5.481837e+2, 2.708388e+2, -373315.34, -437743.4, -13459.173, 0.011628847, 0.008367675, -370616.72, -84833.38, 0.0, 4.9864345, 4.9457517 
5.481085e+2, 2.7578577e+2, -332297.53, -392062.88, -13187.586, 0.008169736, 0.017085182, -329516.97, -92206.55, 0.0, 4.983367, 4.9456973 
5.480351e+2, 2.807282e+2, -302340.16, -370823.66, -9725.64, 0.006152423, 0.036064114, -300985.78, -112105.086, 0.0, 4.980213, 4.9370522 
5.479653e+2, 2.8566733e+2, -258233.8, -316574.7, -8908.547, 0.010599495, 0.030606676, -256903.8, -116424.836, 0.0, 4.9768643, 4.940047 
5.4789567e+2, 2.906065e+2, -217767.98, -270797.56, -8807.766, 0.015888931, 0.020882344, -216343.38, -124266.86, 0.0, 4.9735, 4.940066 
5.478262e+2, 2.9554573e+2, -177241.81, -224964.88, -8719.959, 0.021259459, 0.011105955, -175698.4, -132024.55, 0.0, 4.970136, 4.940085 
5.477582e+2, 3.0050427e+2, -112514.51, -89410.34, -5572.2017, 0.023430966, 0.018311182, -88136.67, -88136.67, 0.0, 4.9665947, 4.9813356 
5.476983e+2, 3.0549246e+2, -112357.59, -68966.414, -3978.9697, 0.04604958, 0.004938055, -68604.555, -68604.555, 0.0, 4.9626727, 4.99036 
5.476396e+2, 3.1048164e+2, -122735.92, -73401.38, -4437.758, 0.075084426, -0.017484525, -73005.375, -73005.375, 0.0, 4.958744, 4.990445 
5.47581e+2, 3.1547046e+2, -133072.5, -77901.57, -4952.096, 0.10435402, -0.04618397, -77460.6, -77460.6, 0.0, 4.9548144, 4.9905314 
5.5553865e+2, 1.2224414e+2, -1582025.0, -1738711.0, 2583.4822, -0.06309295, 0.05344137, -1581982.4, 160039.89, 0.0, 5.069296, 4.966319 
5.554787e+2, 1.2720306e+2, -1545802.9, -1703441.3, -6703.9053, -0.00019922521, 0.011670048, -1545518.4, 147906.2, 0.0, 5.0665603, 4.9632688 
5.554118e+2, 1.3216615e+2, -1505564.0, -1658964.4, -6831.7314, -0.00009765506, 0.012006309, -1505260.4, 139526.03, 0.0, 5.063682, 4.963261 
5.55345e+2, 1.3712922e+2, -1467496.4, -1619074.5, -7074.127, -0.00008673649, 0.013705646, -1467167.0, 128981.53, 0.0, 5.0608063, 4.9617167 
5.552752e+2, 1.4209068e+2, -1427564.9, -1575930.4, -12187.712, 0.005600728, 0.024432072, -1426570.3, 120954.52, 0.0, 5.0579705, 4.961189 
5.552019e+2, 1.4705183e+2, -1385975.5, -1528801.3, -12665.181, 0.011775833, 0.016332919, -1384861.0, 114041.31, 0.0, 5.0550885, 4.962012 
5.551285e+2, 1.5201296e+2, -1345564.0, -1484147.8, -12875.376, 0.017483935, 0.007694189, -1344377.9, 105901.91, 0.0, 5.0522056, 4.9619975 
5.5505526e+2, 1.5697406e+2, -1306526.3, -1442443.9, -13130.551, 0.02315535, -0.000516052, -1305269.4, 96388.12, 0.0, 5.0493245, 4.9609814 
5.5497915e+2, 1.6193332e+2, -1268386.8, -1403390.1, -17112.975, 0.025296135, -0.0008894543, -1266251.3, 86802.2, 0.0, 5.046542, 4.959049 
5.548995e+2, 1.6689259e+2, -1226489.9, -1356436.1, -17557.518, 0.024609575, -0.0043865982, -1224159.5, 80289.61, 0.0, 5.043806, 4.9596806 
5.548199e+2, 1.7185193e+2, -1185477.0, -1311357.6, -17583.268, 0.024022484, -0.0077701453, -1183067.0, 72777.02, 0.0, 5.041067, 4.9596677 
5.547403e+2, 1.7681125e+2, -1145530.8, -1268597.3, -17571.473, 0.02340577, -0.010734301, -1143071.1, 64168.066, 0.0, 5.038329, 4.958861 
5.5465955e+2, 1.8176849e+2, -1108019.4, -1231647.9, -19951.281, 0.024393788, -0.0060220286, -1104879.4, 53776.016, 0.0, 5.035675, 4.956054 
5.5457675e+2, 1.8672463e+2, -1065442.9, -1184008.0, -20449.598, 0.028252646, -0.0119167585, -1062015.0, 48068.63, 0.0, 5.0330653, 4.95679 
5.54494e+2, 1.916808e+2, -1023874.06, -1138536.1, -20541.1, 0.032068454, -0.018277958, -1020305.3, 41206.207, 0.0, 5.0304527, 4.95678 
5.5441123e+2, 1.9663695e+2, -983149.94, -1094932.3, -20608.422, 0.035830706, -0.02441141, -979471.56, 33467.92, 0.0, 5.027841, 4.956121 
5.5432785e+2, 2.015912e+2, -945162.5, -1057042.8, -21648.234, 0.037692897, -0.023962663, -941119.75, 23266.088, 0.0, 5.025165, 4.9535327 
5.54243e+2, 2.06545e+2, -902778.0, -1009066.44, -21859.031, 0.036831204, -0.029417042, -898458.06, 17377.564, 0.0, 5.0223703, 4.954405 
5.541582e+2, 2.1149892e+2, -861558.44, -963646.4, -21812.146, 0.035862464, -0.03451181, -857093.4, 10190.968, 0.0, 5.019574, 4.954391 
5.540735e+2, 2.1645285e+2, -820959.1, -919632.6, -21742.316, 0.034799565, -0.03919424, -816380.7, 2352.2212, 0.0, 5.0167785, 4.9538774 
5.53989e+2, 2.2140524e+2, -784854.3, -885669.4, -21024.877, 0.03224205, -0.026888698, -780645.4, -10446.257, 0.0, 5.014031, 4.949855 
5.5390483e+2, 2.2635686e+2, -741615.2, -836378.5, -21009.898, 0.029915465, -0.020621141, -737166.0, -15487.456, 0.0, 5.0113225, 4.9510565 
5.538207e+2, 2.3130846e+2, -699948.7, -790584.2, -20931.45, 0.027944777, -0.016058633, -695348.25, -22190.076, 0.0, 5.008611, 4.951054 
5.537366e+2, 2.3626003e+2, -658891.4, -746191.06, -20832.53, 0.026021322, -0.011746877, -654174.9, -29536.725, 0.0, 5.005901, 4.95055 
5.536533e+2, 2.4120884e+2, -621274.56, -709501.6, -19631.68, 0.025475457, -0.0052868878, -617103.44, -40960.055, 0.0, 5.0032234, 4.947328 
5.535714e+2, 2.4615672e+2, -577181.9, -658820.56, -19431.38, 0.02670921, -0.014510242, -572792.8, -45139.3, 0.0, 5.000601, 4.9489174 
5.534896e+2, 2.5110483e+2, -535124.1, -612741.56, -19472.777, 0.027678136, -0.023366138, -530512.75, -51351.46, 0.0, 4.9979773, 4.9489064 
5.5340785e+2, 2.5605297e+2, -493269.63, -567186.5, -19499.791, 0.028401213, -0.03169676, -488440.9, -57772.242, 0.0, 4.995354, 4.948697 
5.53327e+2, 2.609995e+2, -458123.72, -535820.8, -17039.568, 0.027007278, -0.017318668, -454551.1, -72357.35, 0.0, 4.9925895, 4.94351 
5.532486e+2, 2.6594687e+2, -413720.97, -482367.22, -16095.022, 0.023317931, -0.0049511218, -410134.63, -76418.91, 0.0, 4.989528, 4.94617 
5.531704e+2, 2.7089432e+2, -372704.8, -436617.6, -15820.87, 0.019786596, 0.004894777, -369002.97, -83766.02, 0.0, 4.9864583, 4.9461613 
5.530923e+2, 2.7584177e+2, -331695.4, -390948.1, -15545.783, 0.016222136, 0.01474516, -327864.47, -91106.13, 0.0, 4.9833894, 4.946105 
5.5301577e+2, 2.8078464e+2, -301750.38, -369692.75, -12278.1875, 0.014319935, 0.03379645, -299599.63, -111275.62, 0.0, 4.9802294, 4.937461 
5.529425e+2, 2.8572404e+2, -257861.44, -315987.47, -11567.73, 0.018189536, 0.027895458, -255643.94, -115722.555, 0.0, 4.9768867, 4.940265 
5.5286944e+2, 2.9066342e+2, -217374.31, -270229.22, -11461.545, 0.02258248, 0.01811567, -214995.9, -123477.47, 0.0, 4.9735317, 4.9402757 
5.527965e+2, 2.9560277e+2, -176826.8, -224415.38, -11368.353, 0.027004454, 0.008174247, -174250.5, -131135.0, 0.0, 4.970177, 4.940286 
5.5272496e+2, 3.0056146e+2, -112543.36, -89923.27, -8530.477, 0.027354073, 0.016113425, -87066.945, -87066.945, 0.0, 4.96664, 4.9811473 
5.526614e+2, 3.055507e+2, -112311.15, -69532.9, -6986.22, 0.050580002, 0.014330153, -68420.87, -68420.87, 0.0, 4.9627457, 4.9901366 
5.5259925e+2, 3.105411e+2, -122601.16, -74032.82, -7336.883, 0.08075257, 0.0057207714, -72948.69, -72948.69, 0.0, 4.958852, 4.9901934 
5.525371e+2, 3.155312e+2, -132849.33, -78598.0, -7743.3525, 0.11093965, -0.009288661, -77514.42, -77514.42, 0.0, 4.9549565, 4.9902506 
5.606092e+2, 1.2229758e+2, -1581343.4, -1740713.1, 1199.7875, -0.049020234, 0.027336147, -1581334.4, 160166.92, 0.0, 5.07004, 4.965292 
5.6054455e+2, 1.2725909e+2, -1544696.6, -1703316.0, -6171.966, -0.0043029613, 0.014047948, -1544456.9, 148421.1, 0.0, 5.0670285, 4.9630785 
5.604749e+2, 1.3222194e+2, -1504757.1, -1658977.5, -6470.2036, -0.0028864099, 0.014166029, -1504486.1, 139755.7, 0.0, 5.0640473, 4.963075 
5.604052e+2, 1.371848e+2, -1467007.4, -1619238.1, -6880.3623, -0.0016346241, 0.015779477, -1466697.0, 128908.805, 0.0, 5.0610633, 4.961534 
5.603326e+2, 1.42146e+2, -1427202.8, -1576188.4, -12092.73, 0.005024371, 0.02608589, -1426227.5, 120757.016, 0.0, 5.058183, 4.9610023 
5.602564e+2, 1.4710695e+2, -1385567.4, -1529082.5, -12573.079, 0.010903147, 0.018363424, -1384474.3, 113890.19, 0.0, 5.0553265, 4.9618063 
5.601802e+2, 1.5206788e+2, -1345085.5, -1484394.3, -12818.6, 0.016364887, 0.010158836, -1343915.8, 105828.4, 0.0, 5.052468, 4.9617925 
5.6010395e+2, 1.5702881e+2, -1305986.4, -1442669.3, -13110.904, 0.021821469, 0.0023697221, -1304740.0, 96384.1, 0.0, 5.04961, 4.9607725 
5.60025e+2, 1.6198793e+2, -1267483.5, -1402980.9, -17080.572, 0.023905925, 0.0023006701, -1265363.5, 87157.69, 0.0, 5.046847, 4.9590487 
5.5994266e+2, 1.6694713e+2, -1225597.3, -1355989.6, -17591.898, 0.023623105, -0.0018955652, -1223265.5, 80651.29, 0.0, 5.044098, 4.9596996 
5.5986035e+2, 1.719064e+2, -1184630.9, -1310932.6, -17719.146, 0.023448316, -0.006003527, -1182192.0, 73119.79, 0.0, 5.0413427, 4.959688 
5.597781e+2, 1.7686567e+2, -1144736.5, -1268197.1, -17804.59, 0.023246689, -0.009672253, -1142220.1, 64486.797, 0.0, 5.0385876, 4.958882 
5.596946e+2, 1.818229e+2, -1107380.4, -1231392.5, -20186.004, 0.024381619, -0.004929188, -1104177.4, 53945.5, 0.0, 5.035895, 4.9560466 
5.5960923e+2, 1.8677905e+2, -1065022.9, -1183943.3, -20706.578, 0.028161552, -0.009870146, -1061520.5, 48030.55, 0.0, 5.0332255, 4.9567475 
5.595239e+2, 1.9173524e+2, -1023632.3, -1138566.6, -20840.426, 0.031975936, -0.015310613, -1019970.1, 41009.016, 0.0, 5.0305514, 4.9567347 
5.5943847e+2, 1.9669141e+2, -983094.2, -1095060.6, -20952.258, 0.035799187, -0.02056613, -979301.8, 33105.51, 0.0, 5.027875, 4.9560733 
5.593524e+2, 2.0164554e+2, -945055.8, -1056910.1, -22200.705, 0.038865354, -0.020839063, -940810.56, 23043.967, 0.0, 5.025164, 4.953592 
5.592651e+2, 2.065991e+2, -902728.3, -1008861.7, -22519.867, 0.04020917, -0.029533055, -898147.6, 17158.006, 0.0, 5.022331, 4.954507 
5.591777e+2, 2.115528e+2, -861677.1, -963507.6, -22559.738, 0.041333463, -0.037933163, -856903.06, 9852.492, 0.0, 5.019478, 4.954497 
5.590903e+2, 2.165065e+2, -821295.44, -919583.0, -22561.152, 0.042289246, -0.04593422, -816364.1, 1841.1945, 0.0, 5.0166078, 4.9539876 
5.5900306e+2, 2.2145908e+2, -785298.9, -885378.25, -21805.615, 0.03931749, -0.033587907, -780754.2, -11084.986, 0.0, 5.0137687, 4.9500904 
5.589159e+2, 2.2641125e+2, -742176.9, -836295.56, -21842.74, 0.03415015, -0.02335919, -737354.75, -16211.311, 0.0, 5.0110474, 4.951227 
5.5882883e+2, 2.3136339e+2, -700519.5, -790526.2, -21812.982, 0.029512307, -0.014856571, -695511.75, -22893.621, 0.0, 5.008333, 4.9512186 
5.587418e+2, 2.363155e+2, -659468.25, -746153.75, -21773.424, 0.024968423, -0.0065835374, -654306.6, -30213.383, 0.0, 5.005621, 4.950709 
5.586558e+2, 2.4126448e+2, -622166.06, -710195.44, -20596.307, 0.02401951, 0.0016325607, -617585.5, -41988.402, 0.0, 5.002944, 4.9472313 
5.585716e+2, 2.4621198e+2, -578089.4, -659298.06, -20513.873, 0.0283935, -0.011499152, -573201.6, -46090.434, 0.0, 5.0002694, 4.948916 
5.584874e+2, 2.511597e+2, -536244.44, -613302.3, -20629.354, 0.032473728, -0.024508042, -531069.25, -52446.45, 0.0, 4.9975696, 4.948909 
5.584033e+2, 2.5610748e+2, -494656.78, -567855.1, -20701.53, 0.03624706, -0.03686857, -489207.72, -59073.805, 0.0, 4.9948525, 4.9487023 
5.583199e+2, 2.6105398e+2, -459340.25, -535716.44, -18505.451, 0.036217175, -0.02375853, -455092.72, -73433.79, 0.0, 4.9920115, 4.943824 
5.5823845e+2, 2.6600188e+2, -414796.47, -481982.97, -17782.168, 0.032185182, -0.009824428, -410380.38, -77205.47, 0.0, 4.988957, 4.94658 
5.5815715e+2, 2.709499e+2, -373794.06, -436243.06, -17596.225, 0.028465506, 0.0013648377, -369177.28, -84487.1, 0.0, 4.9858823, 4.94657 
5.580759e+2, 2.7589786e+2, -332843.56, -390603.9, -17394.143, 0.02471323, 0.0124960095, -328009.9, -91804.23, 0.0, 4.9827933, 4.9465127 
5.579963e+2, 2.808411e+2, -303105.2, -369574.94, -14395.378, 0.02267231, 0.03179729, -300121.5, -112354.42, 0.0, 4.9795914, 4.937798 
5.579196e+2, 2.8578067e+2, -259419.31, -316255.66, -13884.976, 0.02582973, 0.02516815, -256208.61, -116844.49, 0.0, 4.9762297, 4.940475 
5.578432e+2, 2.9072025e+2, -218935.78, -270523.5, -13893.719, 0.029301073, 0.014972835, -215431.89, -124470.836, 0.0, 4.9728727, 4.940478 
5.5776685e+2, 2.9565978e+2, -178318.61, -224701.92, -13928.784, 0.03274514, 0.004591772, -174457.28, -131899.2, 0.0, 4.9695425, 4.940481 
5.5769163e+2, 3.0061838e+2, -114779.26, -91774.16, -11555.73, 0.031083426, 0.012690084, -86972.0, -86972.0, 0.0, 4.9659686, 4.980763 
5.5762464e+2, 3.056085e+2, -115287.35, -71387.555, -10203.801, 0.054980855, 0.020063674, -69131.76, -69131.76, 0.0, 4.961731, 4.9898767 
5.5755895e+2, 3.1060013e+2, -124619.1, -75582.625, -10279.074, 0.086268574, 0.022482228, -73515.086, -73515.086, 0.0, 4.9581857, 4.989903 
5.574933e+2, 3.1559134e+2, -132788.98, -79358.86, -10386.144, 0.11742952, 0.018422807, -77410.945, -77410.945, 0.0, 4.955043, 4.9899306 
5.6568277e+2, 1.2235816e+2, -1571586.5, -1740824.9, -449.2674, -0.035046816, -0.014914194, -1571585.4, 169324.53, 0.0, 5.074498, 4.9630613 
5.656121e+2, 1.2732449e+2, -1532805.9, -1697979.0, -1194.0011, -0.017428203, 0.024476463, -1532797.3, 159442.25, 0.0, 5.071254, 4.96276 
5.6553984e+2, 1.322864e+2, -1493727.9, -1654075.6, -1540.5315, -0.0098174615, 0.019502632, -1493713.0, 149899.38, 0.0, 5.067984, 4.96276 
5.6546766e+2, 1.3724832e+2, -1456811.8, -1614754.4, -2003.9136, -0.0023964988, 0.0161054, -1456786.3, 138199.02, 0.0, 5.0647182, 4.961222 
5.6539226e+2, 1.42209e+2, -1417329.8, -1571419.8, -7075.1563, 0.007096626, 0.024154313, -1417005.6, 129363.68, 0.0, 5.061624, 4.960898 
5.65313e+2, 1.4716989e+2, -1376216.6, -1524648.8, -7472.0195, 0.011602922, 0.018485801, -1375841.4, 121908.39, 0.0, 5.0586095, 4.961674 
5.6523365e+2, 1.5213078e+2, -1336204.9, -1480198.8, -7674.4907, 0.015785124, 0.01235542, -1335797.0, 113333.25, 0.0, 5.0555944, 4.9616623 
5.6515443e+2, 1.5709166e+2, -1297571.9, -1438716.1, -7925.87, 0.019997215, 0.006627755, -1297128.1, 103382.78, 0.0, 5.0525823, 4.960641 
5.650725e+2, 1.620507e+2, -1259248.6, -1398742.9, -11784.439, 0.021592667, 0.0071665193, -1258260.0, 93648.88, 0.0, 5.0496683, 4.9590936 
5.649873e+2, 1.670096e+2, -1217925.3, -1352065.6, -12227.475, 0.02166203, 0.0012278036, -1216819.8, 86487.04, 0.0, 5.0467362, 4.9597325 
5.6490225e+2, 1.7196861e+2, -1177497.9, -1307274.9, -12311.382, 0.021833688, -0.004635295, -1176340.4, 78363.75, 0.0, 5.0437994, 4.959723 
5.6481713e+2, 1.769276e+2, -1138135.1, -1264800.5, -12355.506, 0.021994665, -0.010056488, -1136941.1, 69160.2, 0.0, 5.040864, 4.9589186 
5.6473076e+2, 1.8188472e+2, -1101237.5, -1227935.9, -14641.684, 0.022882795, -0.006258184, -1099567.5, 57950.76, 0.0, 5.0379524, 4.95621 
5.646424e+2, 1.8684104e+2, -1059687.3, -1180938.6, -14972.54, 0.025540791, -0.009798963, -1057865.8, 51079.12, 0.0, 5.0350184, 4.956887 
5.6455415e+2, 1.9179736e+2, -1019058.06, -1135940.3, -14931.397, 0.028328443, -0.0137388725, -1017180.75, 43190.586, 0.0, 5.0320835, 4.956871 
5.644659e+2, 1.9675367e+2, -979267.7, -1092803.8, -14859.443, 0.03124226, -0.017501919, -977355.1, 34442.895, 0.0, 5.0291495, 4.956207 
5.6437707e+2, 2.0170785e+2, -941761.5, -1055019.8, -15983.809, 0.03476133, -0.016773006, -939549.0, 23695.709, 0.0, 5.026276, 4.9536757 
5.64287e+2, 2.0666125e+2, -899551.44, -1006975.75, -16304.373, 0.038370095, -0.026694244, -897131.4, 17566.506, 0.0, 5.023398, 4.954612 
5.6419694e+2, 2.1161476e+2, -858586.6, -961635.3, -16355.297, 0.041773424, -0.036715165, -856053.06, 10096.926, 0.0, 5.0205154, 4.9546123 
5.64107e+2, 2.1656825e+2, -818241.4, -917698.9, -16382.557, 0.04501761, -0.04662623, -815612.3, 1989.8093, 0.0, 5.0176334, 4.954114 
5.640169e+2, 2.2152072e+2, -782281.2, -882757.44, -15636.693, 0.043454498, -0.037022118, -779903.94, -10837.152, 0.0, 5.0146375, 4.9505496 
5.639268e+2, 2.2647314e+2, -740250.0, -834388.44, -15460.535, 0.03776025, -0.026532952, -737775.9, -17238.807, 0.0, 5.011577, 4.951604 
5.638368e+2, 2.3142558e+2, -699562.0, -789103.4, -15237.391, 0.03244613, -0.017031606, -697040.06, -25032.596, 0.0, 5.008528, 4.951584 
5.637468e+2, 2.3637798e+2, -659477.4, -745214.2, -14986.445, 0.027199801, -0.0075463196, -656933.25, -33455.05, 0.0, 5.0054803, 4.951062 
5.6365794e+2, 2.4132723e+2, -623477.06, -710378.0, -13453.757, 0.02571572, 0.0025613694, -621441.9, -46462.844, 0.0, 5.0024543, 4.9473453 
5.635709e+2, 2.4627468e+2, -580210.8, -659838.1, -13230.174, 0.030507116, -0.0103784725, -578070.1, -51575.324, 0.0, 4.999491, 4.9490275 
5.63484e+2, 2.5122228e+2, -539069.7, -614098.7, -13243.844, 0.035472706, -0.024166247, -536800.56, -58791.74, 0.0, 4.9965305, 4.9490404 
5.633971e+2, 2.561699e+2, -498131.53, -568875.06, -13249.905, 0.040551994, -0.038006604, -495731.3, -66208.61, 0.0, 4.9935713, 4.948855 
5.63311e+2, 2.6111636e+2, -462829.94, -536029.2, -10991.62, 0.042142067, -0.027174344, -461215.06, -80166.1, 0.0, 4.990585, 4.9442987 
5.632266e+2, 2.6606452e+2, -418135.75, -482348.3, -10340.653, 0.038670976, -0.012933325, -416511.6, -83950.375, 0.0, 4.9876122, 4.947006 
5.631423e+2, 2.7101284e+2, -376843.88, -436451.97, -10212.285, 0.035312835, -0.00063578447, -375142.78, -91070.64, 0.0, 4.984644, 4.947003 
5.63058e+2, 2.759612e+2, -335557.25, -390640.4, -10087.234, 0.03191471, 0.011827255, -333768.13, -98185.12, 0.0, 4.981677, 4.946952 
5.629752e+2, 2.8090468e+2, -305691.34, -369409.66, -7225.8623, 0.03021491, 0.030626886, -304882.2, -117740.7, 0.0, 4.9785266, 4.938259 
5.628951e+2, 2.8584424e+2, -262217.13, -316375.25, -6459.505, 0.03283681, 0.021728154, -261457.36, -122718.16, 0.0, 4.9751315, 4.9408436 
5.6281525e+2, 2.9078385e+2, -221836.06, -270723.25, -6118.3594, 0.03549913, 0.010038385, -221081.97, -130745.414, 0.0, 4.9717407, 4.9408355 
5.6273544e+2, 2.9572344e+2, -181439.34, -225027.44, -5775.3677, 0.038009726, -0.0015622413, -180687.1, -138753.14, 0.0, 4.968334, 4.9408274 
5.626569e+2, 3.006822e+2, -118283.66, -93319.85, -3173.6335, 0.036746547, 0.008490311, -92922.7, -92922.7, 0.0, 4.9648275, 4.980627 
5.6258637e+2, 3.0567366e+2, -117898.21, -72494.94, -1866.3962, 0.06623457, 0.032709863, -72418.35, -72418.35, 0.0, 4.9609966, 4.9896846 
5.6251746e+2, 3.1066716e+2, -130265.16, -77627.695, -2662.205, 0.10662095, 0.058899026, -77493.39, -77493.39, 0.0, 4.956414, 4.989759 
5.6244886e+2, 3.156607e+2, -144204.17, -83462.37, -3548.4036, 0.15008007, 0.08345845, -83255.77, -83255.77, 0.0, 4.9512634, 4.989831 
5.707613e+2, 1.22427985e+2, -1571914.6, -1741458.0, -2216.6062, 0.011054878, 0.00046145206, -1571885.6, 168342.36, 0.0, 5.074451, 4.962894 
5.706815e+2, 1.2739347e+2, -1533250.5, -1699263.8, -3622.296, -0.030739054, 0.03563784, -1533171.5, 158394.34, 0.0, 5.071293, 4.9623375 
5.706067e+2, 1.3235444e+2, -1494169.6, -1655353.1, -3967.738, -0.016735347, 0.025224043, -1494072.0, 148875.95, 0.0, 5.0680227, 4.9623394 
5.7053185e+2, 1.3731538e+2, -1457249.6, -1616023.9, -4434.1, -0.0029789305, 0.016388828, -1457125.9, 137204.19, 0.0, 5.064757, 4.9608035 
5.7045346e+2, 1.4227556e+2, -1417442.4, -1571988.1, -9364.882, 0.00916661, 0.022273919, -1416877.0, 128842.07, 0.0, 5.06166, 4.9607134 
5.7037103e+2, 1.4723647e+2, -1376369.8, -1525295.4, -9720.054, 0.01218688, 0.01883427, -1375738.0, 121361.555, 0.0, 5.0586443, 4.9614635 
5.702886e+2, 1.5219739e+2, -1336357.5, -1480843.6, -9923.352, 0.014954069, 0.014934582, -1335679.1, 112800.984, 0.0, 5.055629, 4.961452 
5.7020617e+2, 1.5715829e+2, -1297728.5, -1439370.1, -10180.295, 0.01774328, 0.011440921, -1297000.5, 102860.375, 0.0, 5.0526166, 4.9604273 
5.7012117e+2, 1.6211724e+2, -1259142.5, -1398821.6, -14012.733, 0.018780373, 0.012550616, -1257750.5, 93508.805, 0.0, 5.0496993, 4.9590745 
5.700331e+2, 1.6707598e+2, -1217844.4, -1352194.4, -14435.574, 0.019106103, 0.0048094094, -1216310.9, 86348.12, 0.0, 5.0467668, 4.9596977 
5.699451e+2, 1.7203474e+2, -1177417.1, -1307403.9, -14520.341, 0.019498058, -0.0028476273, -1175814.9, 78243.15, 0.0, 5.0438304, 4.959688 
5.6985706e+2, 1.7699352e+2, -1138055.3, -1264932.3, -14567.508, 0.01986917, -0.010054269, -1136404.1, 69052.9, 0.0, 5.0408945, 4.9588823 
5.697677e+2, 1.819506e+2, -1100912.3, -1227571.0, -16880.727, 0.020319555, -0.0072812154, -1098701.0, 58173.03, 0.0, 5.0379868, 4.9563417 
5.6967634e+2, 1.8690714e+2, -1059384.0, -1180614.5, -17189.002, 0.021550199, -0.009657936, -1056993.9, 51304.184, 0.0, 5.035052, 4.957006 
5.6958497e+2, 1.9186373e+2, -1018761.44, -1135620.3, -17146.357, 0.022874067, -0.012300859, -1016297.56, 43424.31, 0.0, 5.0321155, 4.9569902 
5.6949365e+2, 1.9682029e+2, -978977.6, -1092487.8, -17072.65, 0.024299018, -0.014716196, -976465.4, 34680.426, 0.0, 5.02918, 4.9563255 
5.6940186e+2, 2.017747e+2, -941602.9, -1055016.5, -18157.912, 0.027454022, -0.012287699, -938766.7, 23823.69, 0.0, 5.026312, 4.9536853 
5.6930906e+2, 2.0672813e+2, -899389.06, -1006962.7, -18487.336, 0.03261915, -0.022122646, -896300.56, 17743.588, 0.0, 5.023434, 4.954624 
5.692163e+2, 2.1168163e+2, -858427.3, -961624.3, -18537.188, 0.037591, -0.03216353, -855198.5, 10298.468, 0.0, 5.0205503, 4.9546247 
5.691236e+2, 2.1663515e+2, -818085.2, -917690.06, -18563.158, 0.042381506, -0.04204535, -814738.06, 2211.7112, 0.0, 5.0176682, 4.954126 
5.690307e+2, 2.2158754e+2, -781568.2, -881619.5, -17996.719, 0.042762328, -0.035381693, -778429.5, -10014.385, 0.0, 5.0146832, 4.950948 
5.689377e+2, 2.2654001e+2, -739605.1, -833389.3, -17783.58, 0.038657103, -0.028052112, -736346.2, -16463.31, 0.0, 5.011621, 4.9519596 
5.6884485e+2, 2.3149252e+2, -698940.2, -788116.2, -17553.488, 0.034713045, -0.021069782, -695609.4, -24259.086, 0.0, 5.0085664, 4.9519396 
5.6875193e+2, 2.3644502e+2, -658878.4, -744238.6, -17295.357, 0.030757273, -0.013951782, -655507.2, -32689.332, 0.0, 5.0055127, 4.9514174 
5.686601e+2, 2.4139462e+2, -623148.4, -709967.3, -15719.024, 0.028892845, -0.0028804927, -620390.0, -46075.773, 0.0, 5.002485, 4.9474974 
5.6856984e+2, 2.463426e+2, -579967.9, -659614.6, -15504.76, 0.03126443, -0.011624837, -577056.06, -51229.324, 0.0, 4.9995217, 4.9491134 
5.684797e+2, 2.512907e+2, -538830.56, -613885.0, -15514.062, 0.03384428, -0.021406826, -535750.2, -58412.29, 0.0, 4.9965606, 4.949124 
5.6838965e+2, 2.562388e+2, -497896.16, -568671.0, -15515.672, 0.036513247, -0.0312252, -494644.16, -65795.19, 0.0, 4.9936013, 4.9489355 
5.683005e+2, 2.6118556e+2, -462210.3, -534942.6, -13294.559, 0.037491385, -0.02018619, -459856.44, -79482.805, 0.0, 4.990613, 4.944691 
5.682133e+2, 2.661336e+2, -417629.72, -481532.06, -12665.527, 0.035888176, -0.009744368, -415210.94, -83325.43, 0.0, 4.987643, 4.9473114 
5.6812614e+2, 2.7108184e+2, -376337.0, -435654.28, -12528.461, 0.03424415, -0.0007992988, -373799.4, -90403.47, 0.0, 4.984677, 4.9473023 
5.680391e+2, 2.7603006e+2, -335049.5, -389861.25, -12394.711, 0.032511104, 0.008281712, -332376.97, -97470.6, 0.0, 4.981713, 4.9472456 
5.679533e+2, 2.8097355e+2, -304925.25, -368063.06, -9813.417, 0.031972494, 0.023376856, -303435.16, -116970.9, 0.0, 4.9785657, 4.938737 
5.678698e+2, 2.8591365e+2, -261444.03, -315037.16, -9115.255, 0.03389671, 0.015031785, -259936.11, -121879.125, 0.0, 4.975172, 4.9413185 
5.6778646e+2, 2.908539e+2, -221068.63, -269400.72, -8772.513, 0.035685282, 0.0048890137, -219525.63, -129877.04, 0.0, 4.9717813, 4.9413075 
5.677032e+2, 2.9579413e+2, -180636.72, -223702.61, -8434.125, 0.037304074, -0.005124294, -179043.88, -137803.64, 0.0, 4.968389, 4.9412966 
5.6762123e+2, 3.0075353e+2, -117851.586, -93156.55, -5880.4243, 0.036000717, 0.008148801, -91827.78, -91827.78, 0.0, 4.9649234, 4.980672 
5.6754655e+2, 3.0574527e+2, -117764.74, -73641.48, -4598.7544, 0.05874029, 0.037991423, -73167.266, -73167.266, 0.0, 4.9611874, 4.9892306 
5.6747323e+2, 3.1073883e+2, -127887.664, -77904.32, -5022.491, 0.08938507, 0.069375105, -77404.64, -77404.64, 0.0, 4.957422, 4.989276 
5.674002e+2, 3.157324e+2, -138017.6, -82181.62, -5483.459, 0.12259869, 0.099589646, -81648.2, -81648.2, 0.0, 4.953644, 4.989322 
5.7583445e+2, 1.2249732e+2, -1570317.4, -1738441.4, 860.55255, 0.0024509265, 0.010881785, -1570313.0, 169238.02, 0.0, 5.074474, 4.963891 
5.7575095e+2, 1.2746245e+2, -1533694.0, -1700549.8, -6052.5044, -0.0439022, 0.046689473, -1533474.8, 157417.47, 0.0, 5.0713334, 4.9619145 
5.7567346e+2, 1.3242243e+2, -1494610.4, -1656632.0, -6396.8564, -0.023524629, 0.030811355, -1494358.3, 147925.4, 0.0, 5.0680633, 4.9619174 
5.7559603e+2, 1.3738245e+2, -1457686.6, -1617294.8, -6866.389, -0.0034517802, 0.016513888, -1457391.8, 136283.27, 0.0, 5.064797, 4.960384 
5.7551473e+2, 1.4234212e+2, -1417564.8, -1572581.6, -11656.615, 0.011176813, 0.020487111, -1416693.1, 128375.586, 0.0, 5.0616965, 4.9605207 
5.754291e+2, 1.4730306e+2, -1376521.3, -1525943.8, -11967.959, 0.012708753, 0.019282125, -1375568.8, 120880.53, 0.0, 5.05868, 4.961252 
5.7534343e+2, 1.52264e+2, -1336508.4, -1481490.5, -12172.083, 0.014063453, 0.017597683, -1335493.6, 112336.29, 0.0, 5.0556645, 4.961241 
5.7525796e+2, 1.572249e+2, -1297883.4, -1440026.0, -12434.682, 0.015432303, 0.016322603, -1296803.9, 102406.92, 0.0, 5.0526524, 4.960213 
5.751698e+2, 1.621838e+2, -1259038.1, -1398910.4, -16244.2, 0.01597242, 0.017915377, -1257176.4, 93433.47, 0.0, 5.0497317, 4.9590526 
5.7507885e+2, 1.671423e+2, -1217761.4, -1352325.4, -16643.275, 0.016554404, 0.008346246, -1215733.5, 86277.695, 0.0, 5.0467987, 4.959662 
5.749879e+2, 1.7210087e+2, -1177334.0, -1307535.3, -16728.9, 0.01716771, -0.0011226289, -1175219.0, 78192.914, 0.0, 5.0438623, 4.959652 
5.7489705e+2, 1.7705943e+2, -1137973.1, -1265066.4, -16778.994, 0.017750008, -0.010132584, -1135795.3, 69017.516, 0.0, 5.040927, 4.9588456 
5.7480466e+2, 1.8201646e+2, -1100594.9, -1227230.0, -19117.092, 0.017754328, -0.0082380995, -1097771.9, 58457.992, 0.0, 5.0380225, 4.956465 
5.747102e+2, 1.8697324e+2, -1059079.1, -1180292.6, -19405.363, 0.017561993, -0.009479542, -1056048.3, 51603.08, 0.0, 5.0350866, 4.9571238 
5.746158e+2, 1.9193007e+2, -1018463.2, -1135302.5, -19361.219, 0.017429948, -0.010888362, -1015338.44, 43733.93, 0.0, 5.032149, 4.9571075 
5.7452136e+2, 1.9688688e+2, -978685.94, -1092174.0, -19285.75, 0.017373886, -0.012018733, -975498.1, 34995.508, 0.0, 5.029212, 4.956443 
5.744267e+2, 2.0184155e+2, -941451.75, -1055036.5, -20323.25, 0.020095201, -0.007652648, -937924.9, 24011.025, 0.0, 5.026349, 4.953686 
5.7433116e+2, 2.06795e+2, -899224.75, -1006951.8, -20670.719, 0.026794346, -0.017457308, -895394.6, 17995.611, 0.0, 5.023471, 4.9546356 
5.742357e+2, 2.1174854e+2, -858266.1, -961615.56, -20719.496, 0.033326082, -0.027589, -854267.06, 10576.835, 0.0, 5.020587, 4.9546356 
5.741402e+2, 2.1670206e+2, -817927.1, -917683.44, -20744.18, 0.0396543, -0.037512258, -813785.4, 2512.0156, 0.0, 5.017704, 4.9541364 
5.740446e+2, 2.2165437e+2, -780900.6, -880588.2, -20343.213, 0.042058904, -0.03357564, -776909.0, -9145.64, 0.0, 5.0147314, 4.9513097 
5.739487e+2, 2.2660688e+2, -738960.0, -832391.94, -20107.76, 0.039576236, -0.029433548, -734816.4, -15587.753, 0.0, 5.0116663, 4.9523134 
5.7385284e+2, 2.3155949e+2, -698318.1, -787130.75, -19870.729, 0.037050616, -0.02515143, -694075.0, -23381.982, 0.0, 5.008606, 4.952293 
5.7375705e+2, 2.3651206e+2, -658279.1, -743264.8, -19605.424, 0.03443366, -0.020581493, -653974.4, -31816.85, 0.0, 5.005546, 4.9517703 
5.7366216e+2, 2.4146205e+2, -622856.4, -709644.9, -17973.164, 0.031948414, -0.00800706, -619281.56, -45632.344, 0.0, 5.0025163, 4.947618 
5.735687e+2, 2.4641055e+2, -579722.8, -659394.0, -17777.02, 0.03192098, -0.012599009, -575936.2, -50777.82, 0.0, 4.999553, 4.9491973 
5.734754e+2, 2.5135913e+2, -538589.3, -613674.1, -17781.955, 0.032192316, -0.018546958, -534591.0, -57924.215, 0.0, 4.9965925, 4.949205 
5.7338214e+2, 2.5630775e+2, -497658.63, -568469.8, -17779.12, 0.032527998, -0.024514684, -493445.38, -65270.258, 0.0, 4.993633, 4.949014 
5.7329e+2, 2.6125473e+2, -461670.28, -534041.94, -15594.635, 0.03273867, -0.01298598, -458452.97, -78754.77, 0.0, 4.990643, 4.9450183 
5.7319987e+2, 2.662027e+2, -417121.78, -480718.8, -14983.664, 0.03302001, -0.006350389, -413768.4, -82558.66, 0.0, 4.987674, 4.947613 
5.7311004e+2, 2.7115083e+2, -375828.2, -434859.6, -14837.907, 0.03321561, -0.0010260682, -372308.44, -89588.71, 0.0, 4.9847116, 4.947598 
5.730202e+2, 2.7609894e+2, -334539.78, -389085.06, -14695.466, 0.033272836, 0.004405273, -330832.53, -96602.664, 0.0, 4.98175, 4.947536 
5.729314e+2, 2.810424e+2, -304210.47, -366837.4, -12386.179, 0.033698395, 0.016123407, -301849.75, -116062.766, 0.0, 4.9786067, 4.9391713 
5.7284445e+2, 2.8598306e+2, -260672.53, -313698.34, -11764.021, 0.034819014, 0.00859926, -258179.81, -120805.195, 0.0, 4.975215, 4.9417915 
5.7275754e+2, 2.9092392e+2, -220303.56, -268077.8, -11420.185, 0.035749987, -0.000031809843, -217714.0, -128753.51, 0.0, 4.971823, 4.9417777 
5.726708e+2, 2.9586482e+2, -179878.06, -222395.58, -11080.706, 0.036492895, -0.008493036, -177163.56, -136617.19, 0.0, 4.968431, 4.9417644 
5.725855e+2, 3.0082485e+2, -117601.78, -93162.414, -8512.054, 0.03481991, 0.007819808, -90489.97, -90489.97, 0.0, 4.964979, 4.9806657 
5.725067e+2, 3.0581683e+2, -117953.57, -74900.44, -7284.288, 0.05071499, 0.042793166, -73701.38, -73701.38, 0.0, 4.961271, 4.9887695 
5.7242894e+2, 3.108104e+2, -128024.73, -79241.68, -7657.0273, 0.07180513, 0.078783, -78068.06, -78068.06, 0.0, 4.9575315, 4.9887843 
5.723516e+2, 3.158039e+2, -138102.9, -83597.38, -8066.9814, 0.09442878, 0.1134445, -82428.51, -82428.51, 0.0, 4.9537797, 4.9887996 
5.8090526e+2, 1.225671e+2, -1572253.5, -1742353.8, 1211.7887, -0.02915311, 0.025222411, -1572244.9, 166625.1, 0.0, 5.0744762, 4.962587 
5.808211e+2, 1.2753117e+2, -1533903.5, -1701214.4, -6750.728, -0.04982585, 0.05348622, -1533631.5, 156589.56, 0.0, 5.071404, 4.961649 
5.807406e+2, 1.3249055e+2, -1494661.9, -1657249.9, -6865.037, -0.026933188, 0.034353312, -1494372.6, 147245.8, 0.0, 5.068192, 4.9616413 
5.8066016e+2, 1.3744989e+2, -1457613.1, -1617881.5, -7127.8813, -0.0037139405, 0.016655652, -1457296.8, 135719.08, 0.0, 5.064972, 4.960098 
5.8057576e+2, 1.4240922e+2, -1417071.5, -1572646.3, -11633.287, 0.011895025, 0.019754868, -1416206.5, 128206.37, 0.0, 5.061934, 4.9603844 
5.80487e+2, 1.4737013e+2, -1375911.3, -1526007.9, -11885.707, 0.01231017, 0.02010955, -1374976.0, 120817.93, 0.0, 5.058968, 4.9610925 
5.803983e+2, 1.5233102e+2, -1335746.0, -1481492.3, -12076.933, 0.012617155, 0.02002171, -1334752.0, 112423.05, 0.0, 5.0560055, 4.961078 
5.803097e+2, 1.5729189e+2, -1296964.6, -1439972.3, -12335.241, 0.012916555, 0.020418284, -1295908.4, 102648.055, 0.0, 5.0530486, 4.9600434 
5.8021855e+2, 1.6225068e+2, -1257769.3, -1398388.9, -16184.183, 0.013233896, 0.022323288, -1255930.6, 94025.984, 0.0, 5.0501733, 4.959025 
5.801247e+2, 1.6720898e+2, -1216558.6, -1351881.1, -16695.943, 0.014255619, 0.011407663, -1214529.1, 86830.74, 0.0, 5.047227, 4.9596167 
5.8003086e+2, 1.7216732e+2, -1176191.1, -1307122.4, -16914.574, 0.015284105, 0.00052569783, -1174041.3, 78721.43, 0.0, 5.04427, 4.959608 
5.799371e+2, 1.7712566e+2, -1136907.3, -1264694.4, -17095.781, 0.016275471, -0.009977208, -1134659.6, 69505.89, 0.0, 5.041309, 4.9588017 
5.7984173e+2, 1.8208261e+2, -1099410.6, -1226377.8, -19559.045, 0.016013077, -0.008918126, -1096465.9, 59117.297, 0.0, 5.038357, 4.9566073 
5.7974416e+2, 1.8703958e+2, -1058116.5, -1179535.4, -19873.09, 0.014518027, -0.009629964, -1054946.6, 52055.92, 0.0, 5.035344, 4.9572716 
5.7964665e+2, 1.919966e+2, -1017727.7, -1134654.0, -19866.736, 0.013015684, -0.010383483, -1014444.4, 43976.996, 0.0, 5.0323296, 4.9572554 
5.7954913e+2, 1.9695361e+2, -978175.4, -1091631.8, -19825.23, 0.011531021, -0.010751343, -974810.94, 35029.375, 0.0, 5.0293174, 4.9565907 
5.7945156e+2, 2.0190854e+2, -941292.44, -1054991.6, -20826.814, 0.013511477, -0.0041719107, -937597.56, 23682.621, 0.0, 5.026403, 4.9536896 
5.793533e+2, 2.0686206e+2, -898984.7, -1006875.3, -21308.04, 0.021277161, -0.0131044425, -894928.94, 17805.768, 0.0, 5.023548, 4.95464 
5.79255e+2, 2.1181561e+2, -857984.1, -961536.0, -21477.197, 0.029098477, -0.02273298, -853706.3, 10482.501, 0.0, 5.020676, 4.9546366 
5.791568e+2, 2.1676916e+2, -817646.6, -917619.06, -21625.889, 0.036861993, -0.032349188, -813169.06, 2473.976, 0.0, 5.0177903, 4.9541345 
5.7905835e+2, 2.2172137e+2, -780165.44, -879552.3, -21511.623, 0.041493967, -0.030927623, -775709.2, -8599.22, 0.0, 5.0148177, 4.9516454 
5.789596e+2, 2.2667384e+2, -738325.94, -831316.7, -21372.127, 0.040952697, -0.03056508, -733649.2, -15075.854, 0.0, 5.011704, 4.9526873 
5.788608e+2, 2.3162647e+2, -697905.0, -786146.56, -21199.203, 0.040163595, -0.029711416, -693076.4, -23040.93, 0.0, 5.0085697, 4.95267 
5.7876223e+2, 2.365791e+2, -658147.2, -742400.25, -20969.244, 0.039178375, -0.028393703, -653216.8, -31719.41, 0.0, 5.005415, 4.9521503 
5.7866424e+2, 2.415295e+2, -623365.2, -709703.0, -19265.627, 0.035900302, -0.013929064, -619261.25, -46277.07, 0.0, 5.00229, 4.947718 
5.7856756e+2, 2.4647856e+2, -580329.94, -659552.06, -19185.65, 0.03321105, -0.013787764, -575928.2, -51438.516, 0.0, 4.9992986, 4.949275 
5.7847106e+2, 2.5142765e+2, -539250.56, -613872.44, -19294.877, 0.030993095, -0.015538061, -534556.75, -58561.785, 0.0, 4.996317, 4.9492784 
5.783746e+2, 2.5637674e+2, -498363.38, -568700.3, -19403.389, 0.028868342, -0.017444463, -493365.78, -65865.4, 0.0, 4.9933414, 4.9490843 
5.782794e+2, 2.61324e+2, -462124.97, -533722.3, -17358.826, 0.028003069, -0.005030495, -458138.3, -79116.266, 0.0, 4.9903545, 4.945281 
5.781865e+2, 2.6627183e+2, -417397.3, -480239.38, -16858.393, 0.030145006, -0.0025237943, -413160.44, -82626.89, 0.0, 4.9874315, 4.9479136 
5.780939e+2, 2.7121982e+2, -376003.9, -434351.38, -16785.502, 0.032283727, -0.0012942024, -371519.66, -89476.195, 0.0, 4.984505, 4.9478946 
5.780012e+2, 2.7616778e+2, -334650.06, -388564.8, -16699.557, 0.03425785, 0.00008924888, -329896.63, -96343.1, 0.0, 4.9815683, 4.9478273 
5.779094e+2, 2.8111124e+2, -304170.75, -365998.94, -14710.888, 0.03543829, 0.008760565, -300849.0, -115739.18, 0.0, 4.9784284, 4.939564 
5.7781905e+2, 2.860525e+2, -260636.22, -312671.22, -14244.476, 0.03566846, 0.0023446442, -256992.03, -120299.84, 0.0, 4.9749985, 4.942266 
5.7772875e+2, 2.90994e+2, -220404.73, -267121.4, -13949.992, 0.035761118, -0.0047674393, -216556.2, -128283.914, 0.0, 4.971559, 4.9422507 
5.7763857e+2, 2.9593548e+2, -180133.0, -221520.47, -13592.529, 0.035627715, -0.011684236, -176068.16, -136215.75, 0.0, 4.9681125, 4.9422336 
5.775498e+2, 3.0089617e+2, -118023.05, -93539.87, -10964.861, 0.033191923, 0.007482513, -89347.2, -89347.2, 0.0, 4.964818, 4.9806094 
5.7746685e+2, 3.058883e+2, -118288.04, -76192.31, -9859.84, 0.042180836, 0.047102034, -73997.35, -73997.35, 0.0, 4.96131, 4.9883013 
5.773848e+2, 3.1088185e+2, -128322.46, -80618.62, -10184.918, 0.054005895, 0.08726469, -78535.1, -78535.1, 0.0, 4.957592, 4.9882855 
5.7730305e+2, 3.158753e+2, -138366.36, -85060.57, -10549.061, 0.06632856, 0.12594098, -83048.86, -83048.86, 0.0, 4.9538608, 4.9882703 
5.8598113e+2, 1.2264478e+2, -1561351.1, -1738689.0, 6337.441, -0.03259564, 0.046403714, -1561124.9, 176986.66, 0.0, 5.0786395, 4.9617424 
5.8589566e+2, 1.276056e+2, -1522239.9, -1694964.3, -2004.3549, -0.033182956, 0.04209469, -1522216.6, 167277.5, 0.0, 5.0753565, 4.961757 
5.858109e+2, 1.325656e+2, -1483550.5, -1651294.6, -2020.4098, -0.019035405, 0.029617319, -1483526.1, 157358.48, 0.0, 5.0719647, 4.961747 
5.857263e+2, 1.3752556e+2, -1447285.4, -1612771.3, -2333.633, -0.0042709736, 0.018429203, -1447252.5, 145023.05, 0.0, 5.068578, 4.960012 
5.8563817e+2, 1.4248519e+2, -1406656.4, -1566731.1, -6185.4766, 0.006149254, 0.024723606, -1406417.8, 137251.6, 0.0, 5.0654, 4.9606414 
5.8554643e+2, 1.4744578e+2, -1366324.1, -1521044.5, -6500.66, 0.0066122627, 0.02327799, -1366051.5, 129001.54, 0.0, 5.06227, 4.9611206 
5.854547e+2, 1.5240636e+2, -1326665.0, -1476792.5, -6591.3423, 0.007036717, 0.021429142, -1326376.1, 120060.734, 0.0, 5.0591393, 4.9611053 
5.8536303e+2, 1.5736695e+2, -1288396.5, -1435543.6, -6741.805, 0.0074270163, 0.020142913, -1288088.3, 109732.63, 0.0, 5.056011, 4.9600673 
5.8526886e+2, 1.6232556e+2, -1249630.8, -1394210.0, -10484.226, 0.008006193, 0.021345345, -1248874.5, 100348.62, 0.0, 5.0529885, 4.9590445 
5.8517206e+2, 1.672838e+2, -1208902.6, -1348051.1, -10926.676, 0.009533849, 0.01188984, -1208049.9, 92577.984, 0.0, 5.0499024, 4.9595914 
5.8507526e+2, 1.7224209e+2, -1168932.1, -1303493.1, -11085.007, 0.011072096, 0.0024332367, -1168025.1, 84006.96, 0.0, 5.046812, 4.959584 
5.8497846e+2, 1.7720036e+2, -1130025.9, -1261256.0, -11207.46, 0.012597755, -0.006731657, -1129075.6, 74360.805, 0.0, 5.0437236, 4.9587784 
5.8488005e+2, 1.8215726e+2, -1092541.8, -1222297.9, -13672.17, 0.013007371, -0.0057473704, -1091116.9, 63737.957, 0.0, 5.040629, 4.956869 
5.847795e+2, 1.8711416e+2, -1051755.8, -1175662.4, -13892.242, 0.012073042, -0.00835826, -1050217.3, 56056.563, 0.0, 5.037439, 4.957552 
5.846789e+2, 1.9207112e+2, -1011894.4, -1131029.0, -13808.213, 0.011036947, -0.010967868, -1010314.9, 47377.492, 0.0, 5.034247, 4.95754 
5.8457834e+2, 1.9702807e+2, -972868.4, -1088250.4, -13689.069, 0.009923129, -0.013135598, -971266.5, 37844.45, 0.0, 5.031057, 4.956879 
5.844775e+2, 2.0198314e+2, -936736.9, -1052058.5, -14447.013, 0.0109596625, -0.0064262515, -934954.56, 25594.697, 0.0, 5.0279055, 4.953941 
5.843761e+2, 2.0693697e+2, -895189.75, -1004504.56, -14683.399, 0.016816061, -0.0121142585, -893251.75, 18749.674, 0.0, 5.024823, 4.954808 
5.842747e+2, 2.1189079e+2, -854784.5, -959478.75, -14635.071, 0.023003371, -0.018600497, -852777.2, 10676.408, 0.0, 5.021743, 4.954797 
5.841734e+2, 2.1684457e+2, -814994.56, -915854.3, -14557.507, 0.029426139, -0.025316423, -812935.44, 1970.6802, 0.0, 5.018664, 4.9542856 
5.84072e+2, 2.2179675e+2, -777594.9, -877517.8, -14417.172, 0.034650557, -0.024122579, -775556.3, -9182.8, 0.0, 5.0155997, 4.9519277 
5.839703e+2, 2.2674897e+2, -735696.4, -829091.8, -14422.525, 0.03650067, -0.027780766, -733519.9, -15681.037, 0.0, 5.0124855, 4.953036 
5.8386874e+2, 2.3170134e+2, -695227.3, -783835.06, -14404.118, 0.038131256, -0.03112023, -692944.6, -23641.832, 0.0, 5.009368, 4.953041 
5.837671e+2, 2.3665375e+2, -655361.75, -739971.4, -14357.363, 0.039638188, -0.034179527, -652991.9, -32225.424, 0.0, 5.006252, 4.9525447 
5.836661e+2, 2.4160425e+2, -620806.3, -707237.3, -12584.626, 0.03787201, -0.02152432, -619011.25, -46759.484, 0.0, 5.0030284, 4.948179 
5.8356625e+2, 2.4655387e+2, -578783.2, -657880.5, -12176.603, 0.034397222, -0.017323378, -576951.1, -53199.414, 0.0, 4.9997444, 4.9496 
5.834665e+2, 2.515035e+2, -538556.6, -612631.5, -11959.144, 0.031200953, -0.014693269, -536673.7, -61422.043, 0.0, 4.996467, 4.94959 
5.833668e+2, 2.564531e+2, -498528.9, -567892.0, -11731.788, 0.028025575, -0.012233094, -496598.38, -69846.45, 0.0, 4.9931917, 4.9493814 
5.8326834e+2, 2.614006e+2, -463055.88, -533100.5, -9307.038, 0.026295427, 0.001803845, -461840.3, -83569.45, 0.0, 4.989912, 4.945637 
5.831725e+2, 2.663483e+2, -418953.66, -479885.9, -8784.423, 0.028075714, 0.0011355885, -417712.53, -87928.51, 0.0, 4.986768, 4.94827 
5.830768e+2, 2.712961e+2, -378119.28, -434201.3, -8725.055, 0.030070033, -0.0008692653, -376793.22, -95497.734, 0.0, 4.9836373, 4.9482646 
5.8298117e+2, 2.7624393e+2, -337291.66, -388595.63, -8664.599, 0.032135766, -0.002691444, -335867.84, -103060.93, 0.0, 4.9805093, 4.948211 
5.828862e+2, 2.8118742e+2, -306749.94, -365580.34, -6705.559, 0.033335228, 0.003842068, -305995.3, -121632.68, 0.0, 4.977304, 4.9401426 
5.827924e+2, 2.8612915e+2, -262675.28, -311755.16, -6177.3, 0.03383362, -0.002221257, -261909.73, -125969.94, 0.0, 4.974029, 4.9429464 
5.826989e+2, 2.9107118e+2, -221996.67, -265867.3, -5767.9976, 0.03459885, -0.0087778615, -221250.98, -133736.88, 0.0, 4.9707456, 4.942971 
5.826053e+2, 2.9601327e+2, -181293.48, -219935.39, -5399.882, 0.03549855, -0.014999466, -180553.08, -141465.1, 0.0, 4.9674506, 4.9429955 
5.825133e+2, 3.0097482e+2, -120410.19, -92647.43, -2739.8582, 0.03360262, 0.00709499, -92379.625, -92379.625, 0.0, 4.9638, 4.9812603 
5.824262e+2, 3.059675e+2, -122328.08, -76404.08, -1372.8031, 0.037490927, 0.051111795, -76363.08, -76363.08, 0.0, 4.959838, 4.988712 
5.823398e+2, 3.1096157e+2, -132706.39, -80436.82, -1327.0059, 0.0434389, 0.09408478, -80403.15, -80403.15, 0.0, 4.955941, 4.9888825 
5.822538e+2, 3.159557e+2, -143433.64, -84675.695, -1078.3358, 0.04994734, 0.13474935, -84655.914, -84655.914, 0.0, 4.9519124, 4.9890456 
5.9105915e+2, 1.2272562e+2, -1561512.6, -1739565.5, 3741.3328, -0.03509396, 0.06341402, -1561434.0, 175888.38, 0.0, 5.0787015, 4.9614496 
5.909722e+2, 1.2768349e+2, -1521995.3, -1694964.5, -4519.7656, -0.014983172, 0.029155469, -1521877.3, 166855.98, 0.0, 5.075413, 4.9617577 
5.908831e+2, 1.3264427e+2, -1483307.6, -1651288.1, -4531.579, -0.010337309, 0.024476724, -1483185.5, 156929.88, 0.0, 5.07202, 4.96175 
5.9079415e+2, 1.3760503e+2, -1447034.5, -1612742.0, -4836.164, -0.005164567, 0.021056779, -1446893.5, 144604.53, 0.0, 5.0686316, 4.960023 
5.907021e+2, 1.42565e+2, -1406513.8, -1566863.4, -8532.909, -0.0005258901, 0.0309385, -1406060.9, 136826.94, 0.0, 5.065447, 4.960601 
5.906072e+2, 1.4752533e+2, -1366217.3, -1521243.1, -8825.82, 0.00008200087, 0.027196454, -1365716.4, 128557.54, 0.0, 5.062316, 4.961058 
5.905124e+2, 1.5248562e+2, -1326560.9, -1476989.6, -8916.409, 0.0006748006, 0.023065804, -1326034.1, 119626.04, 0.0, 5.0591836, 4.961044 
5.904176e+2, 1.5744592e+2, -1288296.3, -1435742.9, -9069.928, 0.0012031745, 0.019508252, -1287740.5, 109306.16, 0.0, 5.0560546, 4.9600058 
5.9032035e+2, 1.6240439e+2, -1249591.4, -1394459.0, -12820.261, 0.0020396044, 0.01986167, -1248465.5, 99985.05, 0.0, 5.053021, 4.958972 
5.902205e+2, 1.673627e+2, -1208921.9, -1348418.8, -13248.5, 0.0038547178, 0.012270103, -1207674.8, 92180.9, 0.0, 5.049934, 4.9594793 
5.901206e+2, 1.7232108e+2, -1168951.1, -1303859.3, -13407.227, 0.0056455065, 0.0047217654, -1167631.6, 83628.664, 0.0, 5.046843, 4.9594727 
5.900208e+2, 1.7727941e+2, -1130045.1, -1261622.5, -13533.164, 0.007410629, -0.002517811, -1128667.6, 73997.44, 0.0, 5.0437546, 4.958667 
5.899193e+2, 1.8223637e+2, -1092141.1, -1221804.9, -16086.562, 0.008452232, -0.0011311652, -1090175.1, 63907.766, 0.0, 5.040665, 4.9570446 
5.8981556e+2, 1.8719329e+2, -1051342.6, -1175138.8, -16294.949, 0.008476521, -0.0057543283, -1049233.6, 56267.227, 0.0, 5.0374746, 4.9577384 
5.8971184e+2, 1.9215024e+2, -1011485.25, -1130509.3, -16211.085, 0.0083834035, -0.0103649525, -1009316.75, 47601.67, 0.0, 5.034282, 4.957726 
5.896082e+2, 1.971072e+2, -972462.94, -1087733.6, -16091.8545, 0.008190805, -0.014501768, -970258.6, 38077.355, 0.0, 5.0310917, 4.9570646 
5.895041e+2, 2.0206244e+2, -936269.3, -1051439.9, -16820.271, 0.0085196, -0.008380374, -933863.06, 25909.186, 0.0, 5.0279446, 4.9541636 
5.893994e+2, 2.0701666e+2, -894831.44, -1004105.94, -17015.898, 0.011970201, -0.011586117, -892243.06, 18978.041, 0.0, 5.0248594, 4.954959 
5.8929473e+2, 2.1197088e+2, -854440.2, -959088.75, -16963.508, 0.015690677, -0.01536501, -851759.06, 10910.757, 0.0, 5.0217757, 4.9549465 
5.891901e+2, 2.169251e+2, -814664.25, -915473.0, -16881.672, 0.01959393, -0.01926294, -811912.3, 2206.5923, 0.0, 5.0186934, 4.954435 
5.8908564e+2, 2.2187749e+2, -777303.8, -877262.0, -16772.344, 0.023935026, -0.016897494, -774564.6, -8980.144, 0.0, 5.0156374, 4.952026 
5.88981e+2, 2.2682962e+2, -735351.5, -828712.1, -16804.336, 0.027160393, -0.022935657, -732418.94, -15368.194, 0.0, 5.012522, 4.9531775 
5.8887637e+2, 2.3178189e+2, -694890.6, -783462.25, -16782.473, 0.030155385, -0.028708287, -691817.3, -23301.658, 0.0, 5.009403, 4.9531813 
5.887717e+2, 2.3673418e+2, -655033.06, -739605.25, -16732.021, 0.033001572, -0.034148857, -651843.06, -31862.818, 0.0, 5.006285, 4.952684 
5.886677e+2, 2.4168476e+2, -620015.6, -705879.1, -15109.381, 0.033049673, -0.024099741, -617434.44, -45969.848, 0.0, 5.003066, 4.9486628 
5.885647e+2, 2.4663481e+2, -578134.44, -656842.25, -14705.105, 0.030922342, -0.019353254, -575476.8, -52517.51, 0.0, 4.999782, 4.949978 
5.884618e+2, 2.515849e+2, -537917.4, -611606.94, -14484.263, 0.028890606, -0.015714116, -535172.6, -60718.81, 0.0, 4.996504, 4.949965 
5.8835894e+2, 2.5653493e+2, -497899.2, -566880.94, -14253.427, 0.026834609, -0.012207106, -495070.1, -69121.4, 0.0, 4.993227, 4.9497538 
5.882573e+2, 2.6148283e+2, -462551.66, -532348.8, -11754.654, 0.025360739, 0.00237492, -460625.2, -83161.86, 0.0, 4.9899464, 4.9459114 
5.8815813e+2, 2.6643074e+2, -418536.9, -479336.5, -11213.686, 0.025596285, 0.0016756847, -416534.63, -87559.695, 0.0, 4.986803, 4.948473 
5.880591e+2, 2.713788e+2, -377701.28, -433653.8, -11152.832, 0.02595326, -0.00037099386, -375560.16, -95075.086, 0.0, 4.9836736, 4.9484673 
5.879602e+2, 2.763268e+2, -336872.44, -388050.03, -11090.876, 0.026360467, -0.0022699744, -334572.28, -102577.09, 0.0, 4.980546, 4.948414 
5.87862e+2, 2.8127062e+2, -305903.53, -364106.53, -9205.9795, 0.026568355, 0.004197596, -304482.13, -120934.336, 0.0, 4.9773464, 4.9406724 
5.8776504e+2, 2.8621286e+2, -261735.83, -310159.44, -8735.073, 0.027496234, -0.0026290845, -260208.3, -125089.55, 0.0, 4.9740834, 4.9435205 
5.8766824e+2, 2.9115537e+2, -221004.16, -264267.03, -8337.25, 0.02863527, -0.0100952415, -219453.1, -132766.06, 0.0, 4.9708204, 4.9435396 
5.875714e+2, 2.9609793e+2, -180218.19, -218315.86, -7948.107, 0.029840473, -0.01725295, -178626.52, -140371.58, 0.0, 4.967557, 4.943559 
5.8747596e+2, 3.0106008e+2, -118869.16, -91525.35, -5426.9277, 0.026196405, 0.005157326, -90487.65, -90487.65, 0.0, 4.9642053, 4.981552 
5.873849e+2, 3.060521e+2, -120171.375, -76556.69, -4598.156, 0.022305252, 0.047446024, -76077.195, -76077.195, 0.0, 4.9607406, 4.9883556 
5.872946e+2, 3.1104517e+2, -129273.0, -80071.516, -5238.1978, 0.019682227, 0.08689827, -79520.02, -79520.02, 0.0, 4.957287, 4.988524 
5.872044e+2, 3.1603825e+2, -138361.53, -83622.15, -5950.534, 0.017341796, 0.12329191, -82982.76, -82982.76, 0.0, 4.9538245, 4.9886937 
5.96138e+2, 1.2280529e+2, -1561006.3, -1739055.4, 831.04083, -0.028610922, 0.068568, -1561002.4, 175542.3, 0.0, 5.078764, 4.961612 
5.9604865e+2, 1.2776142e+2, -1521751.0, -1694964.4, -7038.5107, 0.0029469451, 0.016520323, -1521465.5, 166506.3, 0.0, 5.0754714, 4.9617567 
5.959552e+2, 1.3272299e+2, -1483065.4, -1651281.1, -7046.076, -0.001947131, 0.019607084, -1482770.8, 156575.0, 0.0, 5.072077, 4.961752 
5.9586185e+2, 1.3768452e+2, -1446796.5, -1612736.5, -7346.1353, -0.006407844, 0.023921905, -1446472.0, 144248.17, 0.0, 5.068687, 4.960025 
5.9576607e+2, 1.4264482e+2, -1406384.0, -1567026.1, -10880.56, -0.0072722733, 0.037173796, -1405650.4, 136455.84, 0.0, 5.065495, 4.96055 
5.95668e+2, 1.4760485e+2, -1366109.5, -1521442.9, -11151.906, -0.00649636, 0.031099403, -1365312.9, 128181.92, 0.0, 5.0623627, 4.960995 
5.955701e+2, 1.5256488e+2, -1326455.9, -1477187.9, -11242.401, -0.0057302504, 0.024671609, -1325621.9, 119261.65, 0.0, 5.05923, 4.960982 
5.9547216e+2, 1.5752488e+2, -1288225.1, -1436009.9, -11573.301, -0.0050596143, 0.018827137, -1287324.4, 108948.086, 0.0, 5.0561004, 4.9599214 
5.953719e+2, 1.6248322e+2, -1249542.4, -1394690.0, -15001.445, -0.0038779047, 0.018443272, -1248008.1, 99669.89, 0.0, 5.0530534, 4.958905 
5.952689e+2, 1.674416e+2, -1208938.6, -1348789.3, -15570.283, -0.0017929185, 0.012696995, -1207226.1, 91857.45, 0.0, 5.0499663, 4.9593663 
5.9516597e+2, 1.7240004e+2, -1168967.6, -1304228.3, -15729.405, 0.00023401543, 0.0070196986, -1167162.6, 83326.01, 0.0, 5.046876, 4.9593596 
5.9506303e+2, 1.7735846e+2, -1130061.8, -1261991.5, -15858.673, 0.002222244, 0.0016683011, -1128182.3, 73711.45, 0.0, 5.0437865, 4.9585543 
5.949585e+2, 1.823155e+2, -1091734.4, -1221308.3, -18497.748, 0.0038684527, 0.0035545768, -1089145.4, 64165.504, 0.0, 5.040703, 4.9572206 
5.948517e+2, 1.8727241e+2, -1050927.1, -1174618.0, -18697.523, 0.004843005, -0.0031179185, -1048162.5, 56565.316, 0.0, 5.037512, 4.957924 
5.947448e+2, 1.9222936e+2, -1011073.7, -1129992.1, -18613.824, 0.005689429, -0.009764631, -1008228.25, 47916.15, 0.0, 5.034319, 4.9579105 
5.9463805e+2, 1.971863e+2, -972055.1, -1087219.6, -18494.51, 0.0064146225, -0.01590552, -969157.94, 38403.0, 0.0, 5.031128, 4.957249 
5.9453076e+2, 2.0214173e+2, -935825.75, -1050879.9, -19186.168, 0.006026883, -0.010203389, -932710.7, 26284.498, 0.0, 5.0279856, 4.9543653 
5.9442276e+2, 2.0709634e+2, -894471.9, -1003709.7, -19348.342, 0.007106761, -0.01101351, -891146.1, 19294.596, 0.0, 5.0248976, 4.9551077 
5.9431475e+2, 2.1205099e+2, -854094.6, -958701.1, -19291.895, 0.008389804, -0.012211427, -850650.1, 11235.966, 0.0, 5.0218105, 4.955095 
5.9420687e+2, 2.170056e+2, -814332.6, -915094.0, -19205.793, 0.009802859, -0.01341741, -810796.0, 2535.7007, 0.0, 5.0187244, 4.954582 
5.9409916e+2, 2.2195823e+2, -777042.9, -877081.4, -19113.766, 0.013123388, -0.009341603, -773515.3, -8720.117, 0.0, 5.0156765, 4.952098 
5.939915e+2, 2.2691028e+2, -735004.5, -828335.44, -19186.396, 0.01773783, -0.01784436, -731214.2, -14951.822, 0.0, 5.0125604, 4.953317 
5.9388393e+2, 2.3186244e+2, -694551.7, -783092.44, -19161.078, 0.022141028, -0.026196761, -690582.94, -22854.623, 0.0, 5.0094395, 4.95332 
5.937763e+2, 2.3681463e+2, -654702.2, -739242.1, -19106.936, 0.026370157, -0.034164846, -650584.4, -31390.455, 0.0, 5.0063205, 4.9528213 
5.9366924e+2, 2.417653e+2, -619273.0, -704637.25, -17626.086, 0.028159963, -0.026537271, -615776.75, -45099.434, 0.0, 5.003105, 4.9491067 
5.9356314e+2, 2.4671577e+2, -577483.7, -655807.1, -17230.51, 0.02741942, -0.021258894, -573860.7, -51693.926, 0.0, 4.999821, 4.950353 
5.9345704e+2, 2.516663e+2, -537276.2, -610585.44, -17006.29, 0.026641011, -0.016757803, -533523.2, -59867.24, 0.0, 4.996542, 4.9503384 
5.9335107e+2, 2.566168e+2, -497267.4, -565872.94, -16771.979, 0.025792956, -0.012350654, -493386.7, -68241.234, 0.0, 4.993264, 4.9501247 
5.932462e+2, 2.6156506e+2, -462085.1, -531690.0, -14196.38, 0.02439438, 0.0030622007, -459301.03, -82645.24, 0.0, 4.9899817, 4.946153 
5.9314376e+2, 2.6651323e+2, -418117.5, -478789.88, -13641.722, 0.023045117, 0.0023450183, -415191.38, -87025.54, 0.0, 4.98684, 4.9486747 
5.930414e+2, 2.7146143e+2, -377280.63, -433109.1, -13579.383, 0.02177812, 0.00017500896, -374152.88, -94478.22, 0.0, 4.9837112, 4.948669 
5.929392e+2, 2.7640966e+2, -336450.53, -387507.22, -13515.924, 0.020540137, -0.0018820858, -333093.28, -101909.805, 0.0, 4.9805846, 4.948615 
5.928378e+2, 2.8135386e+2, -305054.4, -362630.38, -11701.788, 0.019827869, 0.004546165, -302767.0, -120034.164, 0.0, 4.977391, 4.9412017 
5.927376e+2, 2.8629658e+2, -260816.06, -308571.53, -11286.498, 0.02114676, -0.0030624124, -258282.98, -123985.34, 0.0, 4.974133, 4.944093 
5.9263754e+2, 2.9123956e+2, -220079.47, -262695.34, -10888.41, 0.022603948, -0.011459063, -217458.64, -131598.72, 0.0, 4.9708734, 4.944107 
5.925375e+2, 2.9618257e+2, -179288.53, -216760.42, -10499.005, 0.024057776, -0.019573372, -176547.4, -139125.47, 0.0, 4.967613, 4.944121 
5.924385e+2, 3.011452e+2, -118379.5, -91062.11, -7996.3647, 0.017861051, 0.0020581847, -88893.555, -88893.555, 0.0, 4.964275, 4.981738 
5.9234357e+2, 3.0613637e+2, -120204.08, -77679.38, -7144.5386, 0.005536584, 0.04064956, -76511.125, -76511.125, 0.0, 4.9608626, 4.9879622 
5.922493e+2, 3.1112832e+2, -129137.32, -81205.945, -7711.4927, -0.006183566, 0.074927166, -79995.83, -79995.83, 0.0, 4.9574633, 4.9881086 
5.9215516e+2, 3.1612018e+2, -138057.31, -84768.32, -8350.894, -0.018076159, 0.1053914, -83490.305, -83490.305, 0.0, 4.9540553, 4.988256 
6.0121685e+2, 1.22885056e+2, -1563336.0, -1738864.5, 1254.0759, -0.017084224, 0.066689126, -1563327.1, 172437.77, 0.0, 5.0777183, 4.9621572 
6.0112464e+2, 1.2784036e+2, -1523523.4, -1695714.5, -6222.277, 0.018725157, 0.0061763837, -1523298.8, 163900.94, 0.0, 5.074873, 4.961777 
6.01027e+2, 1.3280249e+2, -1483683.1, -1651499.3, -6438.147, 0.005260574, 0.015265031, -1483436.5, 155131.23, 0.0, 5.071875, 4.961761 
6.0092956e+2, 1.3776459e+2, -1446442.0, -1612519.8, -6951.953, -0.0076069194, 0.025874538, -1446151.5, 143784.58, 0.0, 5.0688205, 4.960022 
6.0083e+2, 1.4272508e+2, -1405550.3, -1566680.3, -10506.229, -0.012927477, 0.041755904, -1404868.1, 136451.98, 0.0, 5.065801, 4.9605145 
6.007289e+2, 1.4768481e+2, -1365378.1, -1521182.8, -10880.003, -0.011731596, 0.033718005, -1364622.0, 128089.26, 0.0, 5.062639, 4.9609475 
6.0062796e+2, 1.5264453e+2, -1325835.9, -1476993.8, -11087.442, -0.010485, 0.025260804, -1325026.9, 119075.9, 0.0, 5.059468, 4.9609323 
6.005269e+2, 1.5760423e+2, -1287738.9, -1435900.4, -11545.625, -0.0093066655, 0.017282614, -1286844.5, 108649.95, 0.0, 5.0562944, 4.9598675 
6.0042346e+2, 1.6256243e+2, -1249016.1, -1394577.5, -15003.234, -0.007883943, 0.016499529, -1247485.9, 99415.95, 0.0, 5.0532537, 4.9588575 
6.0031736e+2, 1.6752091e+2, -1208372.1, -1348705.4, -15570.281, -0.006346007, 0.012766606, -1206665.4, 91642.09, 0.0, 5.05019, 4.9592986 
6.002113e+2, 1.7247942e+2, -1168345.0, -1304125.1, -15752.199, -0.004793054, 0.009070655, -1166541.5, 83171.125, 0.0, 5.0471187, 4.95929 
6.001053e+2, 1.7743792e+2, -1129394.9, -1261875.9, -15909.817, -0.0031992947, 0.0056802095, -1127511.0, 73606.92, 0.0, 5.0440454, 4.9584813 
5.9999764e+2, 1.8239501e+2, -1090629.0, -1220469.5, -18730.197, -0.001152286, 0.008268265, -1087981.1, 64553.63, 0.0, 5.041004, 4.957372 
5.998877e+2, 1.8735184e+2, -1049625.4, -1173683.1, -19151.78, 0.0011246668, -0.00030972224, -1046736.0, 57215.59, 0.0, 5.0378795, 4.958079 
5.997779e+2, 1.9230871e+2, -1009635.4, -1128989.6, -19284.59, 0.00331454, -0.009004692, -1006596.8, 48771.3, 0.0, 5.0347323, 4.95807 
5.996681e+2, 1.972656e+2, -970541.56, -1086178.4, -19367.443, 0.0053989496, -0.017308593, -967384.06, 39400.52, 0.0, 5.0315657, 4.957412 
5.995576e+2, 2.0222113e+2, -934377.1, -1049721.0, -20150.713, 0.0046834485, -0.012264551, -930958.1, 27259.287, 0.0, 5.028371, 4.9545975 
5.994462e+2, 2.0717613e+2, -893449.6, -1002833.56, -20285.66, 0.0035176598, -0.011118105, -889808.75, 19850.982, 0.0, 5.0251546, 4.9553056 
5.9933484e+2, 2.1213114e+2, -853453.6, -958012.7, -20223.059, 0.0024414614, -0.010154704, -849678.56, 11423.205, 0.0, 5.0219393, 4.95529 
5.992236e+2, 2.1708615e+2, -814069.5, -914590.06, -20129.83, 0.0014092986, -0.009045369, -810188.25, 2355.6978, 0.0, 5.0187263, 4.954774 
5.991128e+2, 2.2203909e+2, -777181.1, -877104.6, -20054.521, 0.0032990414, -0.0024790415, -773306.44, -9301.62, 0.0, 5.015607, 4.9521394 
5.9900206e+2, 2.2699106e+2, -734909.1, -828076.75, -20363.969, 0.008823893, -0.012781886, -730652.56, -15179.75, 0.0, 5.0125313, 4.953438 
5.9889144e+2, 2.3194313e+2, -694351.1, -782791.06, -20520.455, 0.01432625, -0.023328193, -689821.75, -22881.984, 0.0, 5.0094438, 4.953441 
5.987809e+2, 2.368952e+2, -654428.0, -738910.94, -20639.906, 0.01976357, -0.033667687, -649655.1, -31248.506, 0.0, 5.006348, 4.952943 
5.986708e+2, 2.418459e+2, -618543.3, -703424.3, -19421.05, 0.023205707, -0.028350687, -614310.75, -44421.48, 0.0, 5.0031557, 4.949528 
5.9856147e+2, 2.4679679e+2, -576803.4, -654685.9, -19089.582, 0.024049798, -0.022920974, -572376.06, -51002.188, 0.0, 4.999868, 4.950749 
5.9845227e+2, 2.5174773e+2, -536670.2, -609512.0, -18899.676, 0.024740966, -0.017941404, -532058.4, -59200.535, 0.0, 4.9965653, 4.9507303 
5.9834313e+2, 2.5669864e+2, -496785.03, -564870.1, -18689.479, 0.02528942, -0.012922811, -491992.13, -67649.98, 0.0, 4.9932466, 4.9505124 
5.9823513e+2, 2.6164734e+2, -461977.94, -531250.44, -16077.681, 0.023775198, 0.0036343706, -458428.3, -82580.164, 0.0, 4.98991, 4.9463634 
5.9812933e+2, 2.6659566e+2, -418164.97, -478448.56, -15637.891, 0.02068989, 0.0030254666, -414349.88, -86993.195, 0.0, 4.986717, 4.948873 
5.980238e+2, 2.715441e+2, -377454.25, -432825.06, -15693.523, 0.017717717, 0.0007517729, -373315.63, -94451.445, 0.0, 4.983543, 4.948868 
5.979182e+2, 2.7649257e+2, -336734.5, -387273.7, -15740.875, 0.014779646, -0.0014836121, -332232.84, -101861.1, 0.0, 4.980376, 4.948815 
5.978136e+2, 2.8143707e+2, -304973.1, -361479.16, -14090.963, 0.013178897, 0.0049501224, -301654.2, -119736.44, 0.0, 4.977165, 4.9417343 
5.9771013e+2, 2.863803e+2, -260663.58, -307310.16, -13765.515, 0.0148255, -0.0034888983, -256904.31, -123427.86, 0.0, 4.9739127, 4.9446664 
5.9760684e+2, 2.9132375e+2, -219921.23, -261452.5, -13392.981, 0.016518766, -0.012859384, -215976.89, -130944.09, 0.0, 4.9706554, 4.944674 
5.975036e+2, 2.9626724e+2, -178469.14, -215247.27, -12991.03, 0.018150404, -0.02196152, -174343.23, -137754.3, 0.0, 4.9676323, 4.944682 
5.9740114e+2, 3.0123013e+2, -118115.41, -90881.24, -10490.292, 0.00856339, -0.0023155846, -87309.055, -87309.055, 0.0, 4.964306, 4.981824 
5.973022e+2, 3.0622035e+2, -120375.35, -78845.766, -9612.08, -0.012687831, 0.030674325, -76728.94, -76728.94, 0.0, 4.9609404, 4.987549 
5.972039e+2, 3.112111e+2, -129153.805, -82390.11, -10106.186, -0.033778787, 0.058191013, -80299.5, -80299.5, 0.0, 4.95759, 4.9876723 
5.971059e+2, 3.1620172e+2, -137926.11, -85973.45, -10673.972, -0.05549623, 0.08114393, -83865.914, -83865.914, 0.0, 4.954229, 4.9877973 
6.062952e+2, 1.2297606e+2, -1551334.0, -1731114.9, 6656.18, -0.022658145, 0.07406555, -1551087.9, 183784.27, 0.0, 5.0815187, 4.9628267 
6.0620093e+2, 1.2793075e+2, -1513213.9, -1690750.8, -92.64012, 0.02340352, 0.010755461, -1513213.9, 173099.03, 0.0, 5.0785275, 4.9615984 
6.061001e+2, 1.3289216e+2, -1473590.3, -1646653.8, -426.98553, 0.0075811567, 0.016499644, -1473589.3, 164098.38, 0.0, 5.0754614, 4.9615836 
6.0599935e+2, 1.378536e+2, -1436314.0, -1607572.1, -1015.701, -0.0076584714, 0.02400155, -1436308.0, 152754.5, 0.0, 5.072402, 4.9598875 
6.058966e+2, 1.4281362e+2, -1395373.5, -1561425.6, -4765.9644, -0.014336531, 0.03773754, -1395236.8, 145214.08, 0.0, 5.0693336, 4.9605136 
6.057922e+2, 1.477732e+2, -1355827.6, -1516288.6, -5123.7793, -0.012957415, 0.0300314, -1355664.3, 136179.86, 0.0, 5.06597, 4.9609313 
6.05688e+2, 1.5273274e+2, -1316867.3, -1472398.0, -5304.724, -0.01147154, 0.02192822, -1316686.5, 126551.01, 0.0, 5.062603, 4.9609165 
6.055837e+2, 1.5769225e+2, -1279335.8, -1431614.6, -5721.1978, -0.00997586, 0.014210887, -1279121.1, 115510.05, 0.0, 5.0592422, 4.959843 
6.05477e+2, 1.6265047e+2, -1240847.3, -1389965.3, -9057.793, -0.008921533, 0.0146030355, -1240299.1, 105739.62, 0.0, 5.0560207, 4.9590354 
6.0536754e+2, 1.6760907e+2, -1200841.3, -1344457.6, -9455.042, -0.009205082, 0.01248265, -1200221.5, 97221.7, 0.0, 5.0527515, 4.959457 
6.052581e+2, 1.7256771e+2, -1161406.3, -1300174.4, -9493.88, -0.009472569, 0.010387102, -1160759.6, 88087.68, 0.0, 5.049481, 4.9594474 
6.0514873e+2, 1.7752632e+2, -1123080.6, -1258314.1, -9473.25, -0.009690787, 0.008617205, -1122420.3, 77831.42, 0.0, 5.046212, 4.9586043 
6.0503787e+2, 1.8248342e+2, -1084645.3, -1216933.0, -12199.188, -0.0084045995, 0.011647833, -1083529.8, 68139.125, 0.0, 5.043028, 4.957558 
6.049249e+2, 1.8744008e+2, -1043930.1, -1170453.6, -12518.23, -0.005179283, 0.002366315, -1042703.44, 60384.816, 0.0, 5.039839, 4.9581947 
6.04812e+2, 1.9239676e+2, -1004060.4, -1125816.3, -12608.742, -0.0019179467, -0.007162361, -1002768.4, 51739.043, 0.0, 5.036649, 4.9581895 
6.0469913e+2, 1.9735342e+2, -965023.6, -1083030.0, -12658.821, 0.0013679087, -0.016475644, -963680.94, 42245.61, 0.0, 5.0334616, 4.957536 
6.045855e+2, 2.0230886e+2, -928609.1, -1045677.7, -13520.491, 0.0019469286, -0.013310785, -927067.94, 30292.469, 0.0, 5.030193, 4.955062 
6.044708e+2, 2.0726405e+2, -888190.75, -999054.56, -13522.806, 0.00084726384, -0.012561759, -886565.1, 22234.547, 0.0, 5.0268135, 4.9557605 
6.0435617e+2, 2.122193e+2, -848688.3, -954457.9, -13347.458, -0.00032513763, -0.011821284, -847029.94, 13208.565, 0.0, 5.023434, 4.9557486 
6.042415e+2, 2.1717453e+2, -809798.44, -911256.75, -13140.41, -0.0015782353, -0.010830974, -808124.2, 3553.3447, 0.0, 5.0200562, 4.955237 
6.0412735e+2, 2.221278e+2, -773942.25, -874806.7, -12758.257, -0.0008182872, -0.0023117526, -772353.5, -9218.343, 0.0, 5.0166965, 4.952361 
6.040133e+2, 2.2707991e+2, -732324.25, -826235.06, -12916.694, 0.0032789265, -0.010341663, -730580.06, -15977.131, 0.0, 5.0134177, 4.953598 
6.0389936e+2, 2.3203208e+2, -692293.3, -781207.6, -12947.175, 0.0075722854, -0.01899654, -690446.4, -24376.28, 0.0, 5.0101423, 4.953599 
6.037855e+2, 2.3698422e+2, -652864.6, -737568.7, -12946.967, 0.012029055, -0.027850758, -650929.9, -33392.45, 0.0, 5.0068684, 4.953099 
6.0367227e+2, 2.4193488e+2, -616744.44, -701111.1, -11703.588, 0.015875913, -0.023864148, -615151.0, -46130.223, 0.0, 5.00359, 4.9500585 
6.0355985e+2, 2.468858e+2, -574936.94, -652271.44, -11412.252, 0.018456988, -0.020978881, -573288.0, -52784.473, 0.0, 5.0003195, 4.9513087 
6.0344756e+2, 2.5183687e+2, -534715.25, -607027.75, -11247.033, 0.020946294, -0.018192967, -533006.4, -61021.07, 0.0, 4.9970503, 4.9513 
6.033353e+2, 2.567879e+2, -494692.75, -562293.25, -11069.838, 0.023369618, -0.015117164, -492926.2, -69459.15, 0.0, 4.993783, 4.951093 
6.03224e+2, 2.6173678e+2, -460297.0, -529243.2, -8353.16, 0.022904385, 0.0009129606, -459299.4, -84329.17, 0.0, 4.990379, 4.946778 
6.031148e+2, 2.6668534e+2, -417492.97, -477045.7, -7758.416, 0.019276127, 0.0010914112, -416498.8, -90021.555, 0.0, 4.986863, 4.9492235 
6.030058e+2, 2.7163395e+2, -377733.9, -431829.88, -7634.15, 0.015691034, -0.000398973, -376677.22, -98693.82, 0.0, 4.983354, 4.9492235 
6.0289687e+2, 2.7658257e+2, -337978.25, -386685.4, -7508.036, 0.012122413, -0.0018713122, -336847.2, -107357.61, 0.0, 4.979847, 4.949176 
6.0278887e+2, 2.8152746e+2, -306396.28, -359962.5, -5508.4766, 0.010241681, 0.0055552237, -305835.7, -124803.94, 0.0, 4.9764147, 4.9425106 
6.026822e+2, 2.864713e+2, -261641.33, -305519.16, -5110.697, 0.011580065, -0.0020327505, -261053.92, -128470.64, 0.0, 4.973317, 4.945475 
6.025756e+2, 2.9141536e+2, -220476.63, -259479.92, -4704.4746, 0.012887573, -0.010736122, -219917.2, -135784.5, 0.0, 4.97022, 4.945481 
6.024691e+2, 2.9635948e+2, -180052.48, -213733.03, -4346.6567, 0.014091966, -0.019360112, -179500.58, -143818.45, 0.0, 4.966839, 4.9454865 
6.0236317e+2, 3.013225e+2, -120551.44, -90943.97, -2128.1077, 0.0027901544, -0.001853817, -90791.79, -90791.79, 0.0, 4.9634705, 4.98209 
6.022609e+2, 3.063116e+2, -124189.625, -80564.164, -1392.8414, -0.018631855, 0.02485718, -80519.74, -80519.74, 0.0, 4.959839, 4.9873457 
6.021592e+2, 3.1130114e+2, -134431.58, -84829.266, -2018.7708, -0.037026946, 0.046351727, -84747.24, -84747.24, 0.0, 4.9560075, 4.9874296 
6.020579e+2, 3.162905e+2, -145332.86, -89409.06, -2710.419, -0.05354956, 0.06358407, -89278.01, -89278.01, 0.0, 4.9519324, 4.987515 
6.113759e+2, 1.23069905e+2, -1550575.8, -1730228.5, 3497.657, -0.023750965, 0.07035455, -1550507.8, 183443.63, 0.0, 5.081596, 4.963116 
6.112789e+2, 1.2802538e+2, -1513444.8, -1691850.1, -2364.4292, 0.02659992, 0.018336166, -1513413.5, 171970.86, 0.0, 5.0785975, 4.961236 
6.111748e+2, 1.3298596e+2, -1473823.6, -1647739.6, -2694.3274, 0.009266934, 0.019382136, -1473781.9, 162985.17, 0.0, 5.0755286, 4.9612255 
6.110708e+2, 1.3794655e+2, -1436492.6, -1608523.6, -3264.0693, -0.007585353, 0.022158807, -1436430.8, 151719.22, 0.0, 5.072466, 4.9595737 
6.109648e+2, 1.429061e+2, -1395343.3, -1561843.3, -7253.3745, -0.0152046, 0.03281944, -1395027.9, 144515.44, 0.0, 5.0693836, 4.9603815 
6.1085707e+2, 1.4786558e+2, -1355831.5, -1516770.8, -7622.2944, -0.013846778, 0.025802089, -1355471.4, 135466.28, 0.0, 5.066018, 4.960778 
6.107494e+2, 1.5282506e+2, -1316872.9, -1472878.6, -7804.349, -0.012408462, 0.018502153, -1316483.5, 125848.55, 0.0, 5.06265, 4.9607644 
6.1064184e+2, 1.5778449e+2, -1279353.5, -1432118.9, -8212.178, -0.010957287, 0.01161771, -1278913.4, 114813.38, 0.0, 5.0592885, 4.9596834 
6.105317e+2, 1.6274282e+2, -1240561.6, -1389774.0, -11538.202, -0.010540284, 0.01366892, -1239674.8, 105458.38, 0.0, 5.0560603, 4.959109 
6.104188e+2, 1.6770165e+2, -1200589.4, -1344328.1, -11901.288, -0.012510121, 0.012904193, -1199610.6, 96925.01, 0.0, 5.0527906, 4.95951 
6.103059e+2, 1.7266047e+2, -1161158.3, -1300047.1, -11940.249, -0.014484011, 0.012155371, -1160139.3, 87798.7, 0.0, 5.049519, 4.959501 
6.1019313e+2, 1.776193e+2, -1122807.1, -1258126.3, -11929.195, -0.016432336, 0.01176879, -1121763.5, 77576.79, 0.0, 5.0462494, 4.9586782 
6.100789e+2, 1.8257648e+2, -1084443.8, -1216904.4, -14623.826, -0.015980847, 0.014939142, -1082848.4, 67908.74, 0.0, 5.043066, 4.9575825 
6.0996276e+2, 1.8753305e+2, -1043769.2, -1170500.9, -14922.318, -0.012347911, 0.0050744, -1042035.9, 60142.44, 0.0, 5.0398755, 4.958194 
6.098467e+2, 1.9248967e+2, -1003904.94, -1125866.1, -15012.129, -0.00870779, -0.0049661887, -1002084.3, 51514.832, 0.0, 5.0366845, 4.9581885 
6.097308e+2, 1.9744627e+2, -964873.2, -1083081.4, -15061.3545, -0.0050698267, -0.014733247, -962984.4, 42035.555, 0.0, 5.033495, 4.9575357 
6.096139e+2, 2.0240174e+2, -927977.25, -1044734.6, -16098.605, -0.0035354614, -0.012924929, -925798.2, 30655.143, 0.0, 5.0302334, 4.9553943 
6.094959e+2, 2.0735723e+2, -887575.7, -998137.2, -16083.918, -0.004047146, -0.012819906, -885283.4, 22605.076, 0.0, 5.026852, 4.9560866 
6.0937786e+2, 2.1231274e+2, -848082.8, -953549.6, -15907.017, -0.0046760393, -0.012642057, -845735.9, 13587.341, 0.0, 5.0234714, 4.956073 
6.092599e+2, 2.1726826e+2, -809202.6, -910357.8, -15698.211, -0.005416778, -0.012161665, -806822.44, 3935.6118, 0.0, 5.020092, 4.9555597 
6.0914224e+2, 2.2222193e+2, -773560.75, -874398.75, -15280.244, -0.0052561034, -0.0023225911, -771296.1, -9084.476, 0.0, 5.0167356, 4.9525166 
6.090248e+2, 2.2717433e+2, -732050.06, -826064.06, -15413.478, -0.0024613508, -0.008253295, -729587.5, -15909.412, 0.0, 5.0134573, 4.9536734 
6.089075e+2, 2.3212679e+2, -692024.94, -781045.6, -15442.191, 0.0004862618, -0.014736043, -689422.3, -24278.25, 0.0, 5.0101805, 4.9536724 
6.087903e+2, 2.370792e+2, -652602.06, -737415.6, -15439.96, 0.0035579726, -0.021380315, -649878.75, -33268.56, 0.0, 5.0069056, 4.9531703 
6.0867375e+2, 2.4203e+2, -616137.0, -700197.06, -14203.946, 0.006958849, -0.017823156, -613801.8, -45709.285, 0.0, 5.0036297, 4.9503894 
6.085582e+2, 2.4698105e+2, -574301.7, -651293.25, -13933.485, 0.0103854425, -0.0173279, -571857.6, -52284.887, 0.0, 5.000359, 4.951664 
6.0844266e+2, 2.519322e+2, -534084.7, -606056.0, -13766.706, 0.01371705, -0.016878756, -531541.25, -60489.285, 0.0, 4.9970894, 4.9516544 
6.083272e+2, 2.5688335e+2, -494066.84, -561327.94, -13587.859, 0.016968837, -0.016148914, -491425.6, -68894.36, 0.0, 4.9938216, 4.9514465 
6.082127e+2, 2.6183248e+2, -459676.63, -528276.0, -11030.46, 0.017629, -0.0015626373, -457946.6, -83915.17, 0.0, 4.990414, 4.947133 
6.081001e+2, 2.667813e+2, -416964.16, -476291.75, -10489.945, 0.014976251, -0.0013464934, -415164.0, -89628.25, 0.0, 4.9868994, 4.949506 
6.079876e+2, 2.717302e+2, -377205.22, -431080.56, -10366.505, 0.012275263, -0.002748488, -375279.38, -98240.03, 0.0, 4.9833913, 4.949505 
6.078752e+2, 2.7667913e+2, -337449.66, -385940.7, -10241.19, 0.009544697, -0.004153128, -335375.47, -106832.48, 0.0, 4.979885, 4.949456 
6.077639e+2, 2.816246e+2, -305329.56, -358108.72, -7998.915, 0.008031963, 0.004090495, -304143.9, -124064.13, 0.0, 4.976472, 4.9431715 
6.0765404e+2, 2.8656933e+2, -260502.97, -303655.94, -7489.1006, 0.00815882, -0.001056457, -259240.2, -127618.695, 0.0, 4.973399, 4.9461336 
6.075443e+2, 2.915143e+2, -219231.94, -257584.75, -7044.4775, 0.008132307, -0.0072411182, -217978.97, -134817.77, 0.0, 4.9703426, 4.946136 
6.0743463e+2, 2.9645926e+2, -177909.98, -211457.45, -6606.655, 0.007991683, -0.013356379, -176655.8, -141954.83, 0.0, 4.9672856, 4.9461384 
6.073254e+2, 3.0142254e+2, -118597.06, -90321.18, -4338.6035, -0.0053835986, 0.0020859272, -89670.45, -89670.45, 0.0, 4.9641347, 4.9820724 
6.0721993e+2, 3.0641037e+2, -120994.05, -80428.63, -3381.8518, -0.029941348, 0.019108254, -80148.63, -80148.63, 0.0, 4.9611278, 4.986897 
6.0711515e+2, 3.1139848e+2, -128856.875, -83795.55, -3832.1384, -0.051482335, 0.031234788, -83471.98, -83471.98, 0.0, 4.958164, 4.986941 
6.070108e+2, 3.1638637e+2, -136705.5, -87185.984, -4325.617, -0.070793286, 0.039602507, -86810.98, -86810.98, 0.0, 4.9551945, 4.9869866 
6.1645746e+2, 1.23163484e+2, -1550198.8, -1730134.3, 398.7305, -0.017156577, 0.06374488, -1550197.9, 182835.44, 0.0, 5.081675, 4.963144 
6.1635685e+2, 1.2812e+2, -1513676.6, -1692948.9, -4641.924, 0.029826278, 0.02603382, -1513556.5, 170899.2, 0.0, 5.078669, 4.960872 
6.162495e+2, 1.3307977e+2, -1474057.9, -1648824.9, -4967.371, 0.010934287, 0.0223297, -1473916.8, 161929.63, 0.0, 5.075597, 4.960866 
6.161423e+2, 1.3803951e+2, -1436688.9, -1609507.1, -5526.939, -0.007584936, 0.02030948, -1436512.3, 150725.05, 0.0, 5.0725307, 4.959249 
6.1603296e+2, 1.4299856e+2, -1395306.0, -1562252.3, -9747.731, -0.016078882, 0.027911909, -1394738.8, 143896.97, 0.0, 5.0694346, 4.9602523 
6.1592185e+2, 1.4795797e+2, -1355833.6, -1517254.9, -10121.197, -0.014737614, 0.021584816, -1355201.5, 134829.66, 0.0, 5.066068, 4.9606247 
6.158109e+2, 1.5291736e+2, -1316876.9, -1473361.3, -10304.361, -0.013342274, 0.015068928, -1316201.3, 125225.336, 0.0, 5.0626993, 4.9606113 
6.156999e+2, 1.5787673e+2, -1279371.3, -1432627.4, -10707.667, -0.011927971, 0.00902239, -1278626.8, 114195.42, 0.0, 5.0593367, 4.9595227 
6.1558634e+2, 1.6283523e+2, -1240274.1, -1389586.6, -14018.679, -0.012278228, 0.012906033, -1238969.4, 105257.945, 0.0, 5.056102, 4.959181 
6.1547005e+2, 1.6779424e+2, -1200335.0, -1344201.5, -14347.7705, -0.015934234, 0.01346132, -1198918.1, 96709.766, 0.0, 5.0528307, 4.9595623 
6.153537e+2, 1.7275324e+2, -1160907.9, -1299922.6, -14386.855, -0.019613298, 0.014028827, -1159434.6, 87593.71, 0.0, 5.0495586, 4.959553 
6.152374e+2, 1.7771228e+2, -1122544.0, -1257968.8, -14384.286, -0.023294844, 0.01499142, -1121033.0, 77395.83, 0.0, 5.046288, 4.9587426 
6.151199e+2, 1.826695e+2, -1084244.3, -1216888.6, -17048.213, -0.02351327, 0.018232083, -1082088.1, 67757.36, 0.0, 5.043106, 4.957602 
6.1500067e+2, 1.8762603e+2, -1043605.94, -1170551.0, -17326.633, -0.01946593, 0.007718336, -1041283.5, 59984.9, 0.0, 5.0399137, 4.9581923 
6.1488146e+2, 1.9258258e+2, -1003747.1, -1125918.9, -17415.742, -0.015440425, -0.0029035576, -1001313.0, 51377.973, 0.0, 5.0367208, 4.958187 
6.147623e+2, 1.9753912e+2, -964697.7, -1083086.6, -17446.148, -0.011441041, -0.013199298, -962180.3, 41933.09, 0.0, 5.0335298, 4.957551 
6.1464226e+2, 2.0249467e+2, -927374.4, -1043865.3, -18684.598, -0.009112964, -0.01229635, -924450.8, 31095.21, 0.0, 5.030276, 4.9557014 
6.1452085e+2, 2.074504e+2, -886958.25, -997223.25, -18644.29, -0.009022157, -0.012892474, -883891.06, 23085.932, 0.0, 5.0268927, 4.956411 
6.1439955e+2, 2.1240622e+2, -847474.9, -952644.7, -18465.838, -0.009073973, -0.013363664, -844326.9, 14080.729, 0.0, 5.0235105, 4.956396 
6.142782e+2, 2.1736202e+2, -808604.4, -909462.3, -18255.277, -0.009268872, -0.013479377, -805401.9, 4436.431, 0.0, 5.020129, 4.955881 
6.1415714e+2, 2.2231606e+2, -773210.3, -874067.94, -17792.363, -0.009787948, -0.00215941, -770163.56, -8875.542, 0.0, 5.0167766, 4.9526453 
6.140364e+2, 2.2726876e+2, -731773.56, -825896.06, -17908.016, -0.008223705, -0.0061021317, -728481.5, -15728.218, 0.0, 5.013498, 4.9537473 
6.139157e+2, 2.3222148e+2, -691754.4, -780886.6, -17934.965, -0.006558282, -0.010510305, -688280.9, -24062.803, 0.0, 5.0102205, 4.953745 
6.1379504e+2, 2.371742e+2, -652337.3, -737265.5, -17930.715, -0.004808244, -0.015041926, -648706.8, -33023.793, 0.0, 5.0069447, 4.9532404 
6.1367524e+2, 2.4212514e+2, -615553.3, -699345.1, -16697.064, -0.0020079887, -0.011639732, -612348.7, -45184.535, 0.0, 5.003671, 4.950698 
6.1355644e+2, 2.4707629e+2, -573663.6, -650318.44, -16453.412, 0.0022896433, -0.013572588, -570281.25, -51639.4, 0.0, 5.0004, 4.9520173 
6.134378e+2, 2.5202757e+2, -533451.3, -605087.75, -16285.077, 0.0065046404, -0.015563038, -529923.06, -59804.453, 0.0, 4.9971304, 4.952007 
6.133191e+2, 2.5697884e+2, -493438.13, -560366.06, -16104.579, 0.010625871, -0.01728172, -489764.56, -68169.24, 0.0, 4.993862, 4.951798 
6.132014e+2, 2.619282e+2, -459073.25, -527356.6, -13713.617, 0.012386536, -0.004023038, -456422.03, -83329.47, 0.0, 4.9904513, 4.9474716 
6.130853e+2, 2.6687732e+2, -416432.38, -475540.94, -13219.949, 0.010705994, -0.0037571297, -413610.4, -89016.19, 0.0, 4.9869375, 4.949787 
6.129694e+2, 2.718265e+2, -376673.56, -430334.34, -13097.333, 0.008905829, -0.005089437, -373647.47, -97552.21, 0.0, 4.9834304, 4.949785 
6.128536e+2, 2.767757e+2, -336918.1, -385199.1, -12972.816, 0.00702998, -0.006445038, -333653.16, -106056.8, 0.0, 4.979925, 4.9497356 
6.1273897e+2, 2.8172168e+2, -304273.47, -356256.97, -10456.332, 0.005765802, 0.0026873031, -302249.03, -123121.39, 0.0, 4.9765253, 4.943834 
6.126259e+2, 2.8666735e+2, -259426.0, -301821.8, -9883.622, 0.0045947833, -0.0000072046523, -257235.08, -126575.5, 0.0, 4.9734616, 4.946791 
6.1251295e+2, 2.9161322e+2, -218146.56, -255763.97, -9439.1, 0.0031878639, -0.003687307, -215910.94, -133721.34, 0.0, 4.97041, 4.9467893 
6.124001e+2, 2.9655913e+2, -176816.23, -209650.05, -9001.38, 0.0016352772, -0.007313172, -174510.44, -140790.75, 0.0, 4.967358, 4.946788 
6.122876e+2, 3.0152243e+2, -118309.7, -90656.07, -6662.2324, -0.013934029, 0.005162019, -89134.72, -89134.72, 0.0, 4.964243, 4.981938 
6.121791e+2, 3.0650887e+2, -121000.09, -81686.664, -5600.4272, -0.041582443, 0.011237962, -80904.42, -80904.42, 0.0, 4.961262, 4.986427 
6.120713e+2, 3.114955e+2, -128843.82, -85179.71, -5996.5713, -0.066763975, 0.0126740225, -84371.15, -84371.15, 0.0, 4.958318, 4.9864297 
6.119638e+2, 3.1648198e+2, -136673.45, -88696.25, -6436.031, -0.090161875, 0.010665796, -87847.875, -87847.875, 0.0, 4.9553676, 4.9864345 
6.215392e+2, 1.2325742e+2, -1551793.9, -1730922.9, 326.64203, -0.004631822, 0.054646097, -1551793.3, 180317.0, 0.0, 5.081163, 4.963117 
6.214347e+2, 1.2821501e+2, -1514951.9, -1694025.9, -3888.5579, 0.034134753, 0.030631492, -1514867.5, 168654.86, 0.0, 5.078365, 4.9606485 
6.213242e+2, 1.3317412e+2, -1474817.6, -1649678.9, -4145.698, 0.012961758, 0.023504643, -1474719.4, 160200.25, 0.0, 5.075472, 4.960632 
6.212137e+2, 1.381332e+2, -1436988.8, -1610096.8, -4649.0586, -0.0076401643, 0.017923888, -1436864.0, 149453.23, 0.0, 5.0725503, 4.959036 
6.211011e+2, 1.4309178e+2, -1395062.5, -1562309.0, -9097.102, -0.016958425, 0.023188064, -1394569.1, 143151.27, 0.0, 5.06957, 4.960166 
6.2098664e+2, 1.4805107e+2, -1355347.5, -1517271.3, -9578.378, -0.015699625, 0.017746313, -1354782.9, 134334.36, 0.0, 5.0662994, 4.9605074 
6.208723e+2, 1.5301035e+2, -1316117.0, -1473258.6, -9869.687, -0.014356328, 0.012122683, -1315499.5, 125014.66, 0.0, 5.063023, 4.960491 
6.20758e+2, 1.5796962e+2, -1278346.8, -1432422.1, -10373.982, -0.012945383, 0.00698505, -1277651.5, 114259.85, 0.0, 5.0597515, 4.959396 
6.2064105e+2, 1.6292818e+2, -1238910.5, -1388732.0, -13806.73, -0.013819101, 0.012273367, -1237648.9, 105667.02, 0.0, 5.0565186, 4.959275 
6.205213e+2, 1.6788726e+2, -1199264.6, -1343544.1, -14221.707, -0.018415837, 0.013260064, -1197876.3, 96839.52, 0.0, 5.0531573, 4.959635 
6.204016e+2, 1.7284636e+2, -1160106.3, -1299403.3, -14379.777, -0.023089789, 0.014302901, -1158637.4, 87478.06, 0.0, 5.049793, 4.9596243 
6.20282e+2, 1.7780545e+2, -1122013.6, -1257582.4, -14501.47, -0.02783086, 0.01581132, -1120479.8, 77035.34, 0.0, 5.046429, 4.9588156 
6.20161e+2, 1.8276273e+2, -1083926.9, -1216690.9, -17233.287, -0.028685682, 0.019377152, -1081726.4, 67205.63, 0.0, 5.043191, 4.9576435 
6.2003857e+2, 1.8771926e+2, -1043395.8, -1170458.4, -17604.658, -0.024951836, 0.00934849, -1041001.75, 59354.06, 0.0, 5.039972, 4.958212 
6.199162e+2, 1.926758e+2, -1003618.06, -1125872.0, -17804.475, -0.021164577, -0.0009200603, -1001077.9, 50701.633, 0.0, 5.036752, 4.958205 
6.197939e+2, 1.9763233e+2, -964699.75, -1083187.9, -17933.867, -0.01732057, -0.010999198, -962044.8, 41158.363, 0.0, 5.0335326, 4.957533 
6.1967057e+2, 2.0258793e+2, -926820.06, -1042964.1, -19504.506, -0.01460225, -0.010351209, -923632.1, 31002.951, 0.0, 5.0303164, 4.9560065 
6.195458e+2, 2.0754384e+2, -886192.1, -996253.3, -19716.367, -0.013775941, -0.0121269645, -882766.75, 23296.48, 0.0, 5.027012, 4.956704 
6.194212e+2, 2.124998e+2, -846532.56, -951580.06, -19775.303, -0.013060521, -0.013806012, -842933.2, 14557.76, 0.0, 5.0236874, 4.956696 
6.192966e+2, 2.1745576e+2, -807547.56, -908333.6, -19776.371, -0.012476904, -0.015134222, -803805.94, 5112.648, 0.0, 5.0203443, 4.956187 
6.191721e+2, 2.2241017e+2, -772409.2, -873404.6, -19345.559, -0.013535368, -0.0026123903, -768830.4, -8465.326, 0.0, 5.016972, 4.9528046 
6.19048e+2, 2.2736317e+2, -731233.06, -825452.4, -19433.977, -0.013086867, -0.0045443517, -727382.0, -15553.351, 0.0, 5.013621, 4.953868 
6.1892384e+2, 2.3231621e+2, -691438.6, -780570.2, -19447.215, -0.012622907, -0.006813471, -687380.3, -24088.445, 0.0, 5.0102687, 4.953858 
6.187998e+2, 2.3726922e+2, -652250.9, -737076.56, -19433.795, -0.012133547, -0.009161976, -648010.5, -33255.23, 0.0, 5.006916, 4.9533467 
6.1867666e+2, 2.4222034e+2, -615368.3, -698710.7, -18254.807, -0.010264096, -0.0054298975, -611545.3, -45310.316, 0.0, 5.003596, 4.9509783 
6.185547e+2, 2.471716e+2, -573382.94, -649502.1, -18234.379, -0.005369331, -0.009739012, -569240.3, -51529.94, 0.0, 5.0003285, 4.9523606 
6.184328e+2, 2.5212297e+2, -533159.1, -604264.5, -18239.434, -0.0004580604, -0.014209425, -528753.5, -59568.63, 0.0, 4.997061, 4.952353 
6.183109e+2, 2.570743e+2, -493141.75, -559540.3, -18214.357, 0.0044193855, -0.018461194, -488473.4, -67814.12, 0.0, 4.993793, 4.952146 
6.1818993e+2, 2.620239e+2, -458761.25, -526565.1, -16094.752, 0.0071992096, -0.006427405, -455134.78, -82981.12, 0.0, 4.990394, 4.9478045 
6.180705e+2, 2.6697332e+2, -416116.66, -474856.53, -15691.302, 0.006512211, -0.006124188, -412187.78, -88535.15, 0.0, 4.9869003, 4.9500766 
6.1795115e+2, 2.7192283e+2, -376351.2, -429660.56, -15623.727, 0.005640947, -0.0074075568, -372109.72, -96958.6, 0.0, 4.983396, 4.9500713 
6.178319e+2, 2.7687228e+2, -336619.25, -384548.6, -15557.687, 0.0046359617, -0.008729836, -332012.13, -105362.42, 0.0, 4.979883, 4.9500184 
6.17714e+2, 2.818188e+2, -303523.25, -354527.6, -12782.713, 0.0034688036, 0.0013568061, -300498.97, -122323.65, 0.0, 4.976471, 4.9444985 
6.175977e+2, 2.8676537e+2, -258747.84, -300156.1, -12207.991, 0.00089737686, 0.001113091, -255416.67, -125719.18, 0.0, 4.9733834, 4.947449 
6.174816e+2, 2.9171216e+2, -217160.48, -253981.7, -11778.643, -0.0019463152, -0.00007252647, -213715.05, -132497.23, 0.0, 4.9704437, 4.9474425 
6.173655e+2, 2.9665893e+2, -175832.34, -207887.34, -11358.403, -0.0049558473, -0.0012216341, -172215.66, -139477.36, 0.0, 4.967393, 4.947437 
6.172499e+2, 3.0162215e+2, -118259.234, -91304.56, -8880.138, -0.022727467, 0.007330615, -88642.03, -88642.03, 0.0, 4.964311, 4.9816923 
6.171384e+2, 3.066072e+2, -121155.56, -82999.46, -7739.454, -0.052958872, 0.0013553158, -81489.38, -81489.38, 0.0, 4.9613476, 4.9859395 
6.170276e+2, 3.115923e+2, -129003.47, -86628.91, -8082.7905, -0.08124981, -0.008937904, -85139.49, -85139.49, 0.0, 4.9584146, 4.9859014 
6.169171e+2, 3.165772e+2, -136838.06, -90282.086, -8469.206, -0.10820497, -0.022358162, -88789.28, -88789.28, 0.0, 4.9554753, 4.985865 
6.2662214e+2, 1.2335965e+2, -1539937.5, -1724839.8, 5648.1196, 0.001722012, 0.033229828, -1539765.1, 191338.31, 0.0, 5.085282, 4.963083 
6.26514e+2, 1.2831886e+2, -1503780.6, -1688088.0, 2208.2402, 0.035249364, 0.027454527, -1503754.1, 178745.92, 0.0, 5.0822206, 4.9606905 
6.264004e+2, 1.332778e+2, -1464305.6, -1644070.5, 2051.1582, 0.013382714, 0.02045964, -1464282.3, 169617.16, 0.0, 5.079109, 4.960677 
6.262868e+2, 1.382367e+2, -1426961.8, -1604632.0, 1690.3126, -0.007935597, 0.01486458, -1426945.6, 158353.38, 0.0, 5.076005, 4.9591265 
6.26171e+2, 1.4319511e+2, -1385577.1, -1557293.8, -2895.716, -0.017186994, 0.019682048, -1385528.4, 151176.39, 0.0, 5.0728745, 4.9601874 
6.260532e+2, 1.4815423e+2, -1346400.8, -1512640.0, -3295.111, -0.016730571, 0.015204122, -1346335.5, 141768.56, 0.0, 5.0694475, 4.960482 
6.2593544e+2, 1.5311335e+2, -1307626.3, -1468860.8, -3514.1748, -0.016217934, 0.010578202, -1307549.8, 131953.69, 0.0, 5.066018, 4.960467 
6.258178e+2, 1.5807244e+2, -1270260.8, -1428170.3, -3930.9785, -0.01566846, 0.0064889197, -1270163.0, 120739.98, 0.0, 5.062596, 4.959399 
6.256973e+2, 1.630309e+2, -1230989.5, -1384063.0, -7395.2925, -0.016885493, 0.011629727, -1230633.0, 111675.68, 0.0, 5.0591993, 4.959498 
6.2557423e+2, 1.6798975e+2, -1191911.3, -1339230.4, -7684.4824, -0.02057231, 0.010894752, -1191511.5, 102198.734, 0.0, 5.055661, 4.959828 
6.254511e+2, 1.7294863e+2, -1153265.5, -1295346.8, -7753.1274, -0.024324449, 0.01021535, -1152843.8, 92267.83, 0.0, 5.052123, 4.9598184 
6.2532806e+2, 1.7790748e+2, -1115675.6, -1253777.6, -7793.6006, -0.028126797, 0.0099823, -1115237.3, 81275.79, 0.0, 5.048588, 4.95901 
6.252037e+2, 1.8286477e+2, -1078072.8, -1213174.8, -10322.444, -0.029149937, 0.014158844, -1077288.6, 70641.734, 0.0, 5.0451927, 4.957818 
6.2507784e+2, 1.8782155e+2, -1038041.25, -1167242.4, -10579.746, -0.027021924, 0.0077230465, -1037180.7, 62172.09, 0.0, 5.0418177, 4.958362 
6.2495196e+2, 1.9277833e+2, -998719.56, -1122878.5, -10685.084, -0.024828155, 0.0010151749, -997806.7, 52968.43, 0.0, 5.0384436, 4.9583564 
6.248262e+2, 1.977351e+2, -960261.06, -1080435.3, -10719.073, -0.022550618, -0.005556275, -959312.5, 42885.145, 0.0, 5.0350714, 4.957677 
6.2469953e+2, 2.0269075e+2, -922594.0, -1040045.25, -12205.39, -0.020139016, -0.0039162976, -921339.06, 32290.59, 0.0, 5.0317273, 4.9562697 
6.245716e+2, 2.076464e+2, -882236.75, -993508.4, -12365.436, -0.018155592, -0.00792616, -880879.1, 24181.203, 0.0, 5.0283384, 4.9569473 
6.244437e+2, 2.1260208e+2, -842749.25, -948895.0, -12406.495, -0.016189516, -0.011999496, -841318.44, 15172.2, 0.0, 5.0249496, 4.9569488 
6.243159e+2, 2.1755779e+2, -803938.9, -905816.44, -12398.398, -0.014258521, -0.015877813, -802451.7, 5469.0815, 0.0, 5.0215626, 4.956403 
6.241882e+2, 2.225121e+2, -768495.94, -869870.4, -11977.714, -0.014290992, -0.005816347, -767099.94, -7732.118, 0.0, 5.0181217, 4.953405 
6.240605e+2, 2.2746545e+2, -727847.06, -822450.7, -11907.518, -0.014253931, -0.006264557, -726371.3, -15543.581, 0.0, 5.014651, 4.9543433 
6.239329e+2, 2.3241885e+2, -688407.3, -777733.1, -11780.326, -0.014245471, -0.00682995, -686879.9, -24592.604, 0.0, 5.011181, 4.9543333 
6.238054e+2, 2.3737222e+2, -649566.6, -734400.3, -11616.947, -0.014237734, -0.007306839, -648004.6, -34257.68, 0.0, 5.0077133, 4.953822 
6.2367874e+2, 2.4232362e+2, -613347.6, -696584.7, -10189.524, -0.01324411, -0.0020383317, -612118.4, -46894.64, 0.0, 5.004212, 4.951349 
6.235533e+2, 2.4727489e+2, -571947.06, -647684.3, -10134.477, -0.00955007, -0.006928644, -570614.4, -53915.184, 0.0, 5.0007496, 4.9527125 
6.234279e+2, 2.5222623e+2, -532258.7, -602659.0, -10111.457, -0.0057374774, -0.012193055, -530835.2, -62661.344, 0.0, 4.9972906, 4.9527154 
6.2330264e+2, 2.571776e+2, -492768.88, -558138.25, -10075.547, -0.0018290958, -0.017429894, -491251.16, -71602.74, 0.0, 4.9938335, 4.95252 
6.2317824e+2, 2.6212722e+2, -458414.2, -524715.8, -7948.248, 0.0013219537, -0.006535831, -457474.66, -86332.805, 0.0, 4.9903417, 4.948377 
6.2305546e+2, 2.6707688e+2, -415754.28, -473075.06, -7520.859, 0.0024519, -0.006707401, -414783.94, -92145.45, 0.0, 4.9868684, 4.9506187 
6.2293285e+2, 2.7202654e+2, -375887.66, -427838.25, -7385.923, 0.00339151, -0.008300293, -374858.0, -100723.38, 0.0, 4.983402, 4.9506116 
6.228103e+2, 2.7697623e+2, -336041.63, -382681.94, -7249.4087, 0.0041845357, -0.009812195, -334940.8, -109309.92, 0.0, 4.9799314, 4.9505568 
6.226889e+2, 2.8192312e+2, -303208.88, -352184.1, -4345.6216, 0.0034730288, 0.00042747273, -302826.25, -125673.86, 0.0, 4.976322, 4.945286 
6.225692e+2, 2.8687027e+2, -259831.23, -298434.72, -3938.2378, -0.00015051609, 0.0009029573, -259433.56, -130765.09, 0.0, 4.972746, 4.9482327 
6.2244964e+2, 2.918176e+2, -220383.2, -253140.6, -3702.3335, -0.003710658, 0.00048684148, -219969.97, -139787.44, 0.0, 4.9690394, 4.9482474 
6.223302e+2, 2.9676494e+2, -180560.94, -207645.08, -3447.0073, -0.007141256, 0.00014654067, -180129.13, -148432.63, 0.0, 4.965446, 4.9482613 
6.2221164e+2, 3.0172828e+2, -124266.28, -92877.92, -629.84314, -0.024039637, 0.00696762, -92865.29, -92865.29, 0.0, 4.9621897, 4.9818997 
6.2209773e+2, 3.067129e+2, -126153.695, -83931.0, 720.274, -0.051200416, -0.0015915841, -83918.72, -83918.72, 0.0, 4.959655, 4.9861555 
6.219845e+2, 3.116979e+2, -133186.42, -86784.24, 626.864, -0.076101266, -0.011949677, -86775.77, -86775.77, 0.0, 4.9570384, 4.9862175 
6.2187153e+2, 3.16683e+2, -140589.38, -89827.21, 595.2521, -0.09928743, -0.023031045, -89820.234, -89820.234, 0.0, 4.9542823, 4.986273 
6.317074e+2, 1.2346638e+2, -1540098.9, -1725975.1, 2685.5767, 0.011328429, 0.017350215, -1540060.1, 189992.44, 0.0, 5.085374, 4.962704 
6.3159513e+2, 1.2842672e+2, -1503602.0, -1688432.5, -103.46186, 0.035328586, 0.024161698, -1503601.9, 177836.61, 0.0, 5.082302, 4.9605746 
6.3147825e+2, 1.333856e+2, -1464132.3, -1644400.4, -254.25487, 0.013260558, 0.017690217, -1464131.9, 168706.88, 0.0, 5.0791874, 4.960566 
6.3136154e+2, 1.3834444e+2, -1426747.0, -1604846.6, -601.17065, -0.0083086565, 0.012451354, -1426744.9, 157494.53, 0.0, 5.076079, 4.9590545 
6.312426e+2, 1.4330274e+2, -1385514.4, -1557756.8, -5450.105, -0.017189382, 0.017035471, -1385342.1, 150304.73, 0.0, 5.072937, 4.96004 
6.311212e+2, 1.4826177e+2, -1346405.6, -1513230.6, -5831.3276, -0.017680436, 0.013386352, -1346202.1, 140845.92, 0.0, 5.069507, 4.960293 
6.309999e+2, 1.5322077e+2, -1307636.3, -1469451.3, -6049.534, -0.018184906, 0.009631578, -1307410.4, 131038.836, 0.0, 5.066076, 4.9602785 
6.3087875e+2, 1.5817979e+2, -1270227.4, -1428647.6, -6474.915, -0.01875523, 0.006500325, -1269963.1, 119887.34, 0.0, 5.0626497, 4.95925 
6.307547e+2, 1.6313818e+2, -1230713.0, -1383901.6, -10067.298, -0.020462219, 0.011319178, -1230054.3, 111202.375, 0.0, 5.059236, 4.9595675 
6.306281e+2, 1.6809691e+2, -1191682.3, -1339164.9, -10325.705, -0.023278445, 0.008827176, -1190962.8, 101696.09, 0.0, 5.0556974, 4.9598656 
6.3050157e+2, 1.7305563e+2, -1153037.8, -1295282.9, -10396.035, -0.026167221, 0.0064070625, -1152282.0, 91779.03, 0.0, 5.052159, 4.959856 
6.3037515e+2, 1.7801437e+2, -1115472.9, -1253770.0, -10441.157, -0.029107666, 0.004440913, -1114689.0, 80774.24, 0.0, 5.0486245, 4.9590287 
6.3024724e+2, 1.8297178e+2, -1077849.8, -1213155.0, -12885.835, -0.03035705, 0.009521838, -1076633.5, 70246.305, 0.0, 5.0452347, 4.957838 
6.301178e+2, 1.8792892e+2, -1037865.8, -1167316.3, -13121.451, -0.029706411, 0.0065841298, -1036549.2, 61750.77, 0.0, 5.041858, 4.9583516 
6.2998843e+2, 1.9288605e+2, -998548.6, -1122956.8, -13225.605, -0.029007593, 0.0034252612, -997158.2, 52561.777, 0.0, 5.038483, 4.9583445 
6.2985915e+2, 1.9784316e+2, -960103.8, -1080537.9, -13262.93, -0.028242199, 0.00046871218, -958660.56, 42479.547, 0.0, 5.03511, 4.9576583 
6.297291e+2, 2.0279896e+2, -922253.56, -1039753.06, -14778.174, -0.026068356, 0.0030877648, -920423.4, 32147.732, 0.0, 5.0317664, 4.9563875 
6.2959784e+2, 2.0775446e+2, -881945.44, -993318.6, -14929.754, -0.022928564, -0.003148655, -879978.8, 24024.668, 0.0, 5.028377, 4.9570313 
6.294667e+2, 2.1271001e+2, -842462.3, -948711.94, -14969.955, -0.019829873, -0.009407739, -840393.44, 15041.9795, 0.0, 5.024987, 4.9570313 
6.2933564e+2, 2.1766555e+2, -803612.75, -905544.56, -14969.832, -0.0167943, -0.015416811, -801459.75, 5407.457, 0.0, 5.0215993, 4.9565167 
6.292045e+2, 2.2261988e+2, -767852.4, -868941.0, -14634.027, -0.01595767, -0.007906193, -765776.56, -7462.4355, 0.0, 5.0181646, 4.953741 
6.290734e+2, 2.2757363e+2, -727247.5, -821609.9, -14563.732, -0.016384363, -0.0073062293, -725050.9, -15281.727, 0.0, 5.014693, 4.954651 
6.289422e+2, 2.3252745e+2, -687815.2, -776899.56, -14434.971, -0.016848888, -0.006802003, -685534.56, -24310.709, 0.0, 5.011222, 4.9546404 
6.288112e+2, 2.3748124e+2, -648981.8, -733573.8, -14269.759, -0.017329084, -0.006183198, -646639.5, -33960.832, 0.0, 5.0077524, 4.954128 
6.28681e+2, 2.4243306e+2, -612865.5, -695996.1, -12845.227, -0.016939847, 0.00049783965, -610925.94, -46774.7, 0.0, 5.004253, 4.95157 
6.2855196e+2, 2.4738449e+2, -571532.9, -647256.44, -12795.386, -0.014348123, -0.004521731, -569429.25, -53803.574, 0.0, 5.000792, 4.952879 
6.2842304e+2, 2.52336e+2, -531843.6, -602234.3, -12773.198, -0.011679323, -0.009937097, -529597.5, -62498.074, 0.0, 4.997334, 4.952881 
6.282941e+2, 2.5728747e+2, -492353.0, -557716.7, -12738.015, -0.008935299, -0.015351011, -489958.34, -71385.19, 0.0, 4.993878, 4.952685 
6.281664e+2, 2.622373e+2, -457739.0, -523709.06, -10612.693, -0.005460396, -0.005387104, -456073.75, -86008.75, 0.0, 4.9903865, 4.948746 
6.2804043e+2, 2.6718724e+2, -415122.66, -472169.47, -10213.2, -0.002239811, -0.0062242816, -413349.3, -91791.01, 0.0, 4.986913, 4.9509544 
6.279145e+2, 2.7213717e+2, -375258.97, -426939.0, -10078.748, 0.0007767661, -0.008434955, -373362.94, -100311.766, 0.0, 4.983447, 4.9509463 
6.2778866e+2, 2.770871e+2, -335398.28, -381780.9, -9942.01, 0.0036250078, -0.010560358, -333357.06, -108812.88, 0.0, 4.979983, 4.9508905 
6.2766385e+2, 2.820344e+2, -302283.78, -350803.88, -7098.58, 0.0035573049, -0.0007575472, -301266.6, -125205.21, 0.0, 4.9763947, 4.945782 
6.275405e+2, 2.86982e+2, -258900.4, -297151.34, -6669.336, -0.0006446197, -0.00015273261, -257770.9, -130198.8, 0.0, 4.972835, 4.948693 
6.274174e+2, 2.919298e+2, -219022.06, -251675.11, -6399.4194, -0.004770633, -0.00040197695, -217812.69, -138731.69, 0.0, 4.9692836, 4.9487057 
6.272943e+2, 2.9687765e+2, -179086.66, -206134.23, -6134.0146, -0.00875895, -0.00060309115, -177760.56, -147170.77, 0.0, 4.9657316, 4.948719 
6.2717295e+2, 3.0184114e+2, -122972.695, -92747.61, -2204.5989, -0.0242435, 0.005967239, -92587.66, -92587.66, 0.0, 4.9626474, 4.981802 
6.270573e+2, 3.0682528e+2, -123937.56, -83644.92, -831.23016, -0.048584305, -0.0046617193, -83627.78, -83627.78, 0.0, 4.9604845, 4.9859595 
6.2694234e+2, 3.1180984e+2, -129576.664, -85845.54, -1141.9685, -0.0712308, -0.017084815, -85815.74, -85815.74, 0.0, 4.958361, 4.986039 
6.2682766e+2, 3.167945e+2, -135218.3, -88053.016, -1483.3835, -0.09241524, -0.029649032, -88006.414, -88006.414, 0.0, 4.9562254, 4.9861193 
6.3679296e+2, 1.23574e+2, -1540412.0, -1727424.0, -222.28731, 0.024058664, 0.010456294, -1540411.8, 188580.95, 0.0, 5.0854673, 4.9622216 
6.366762e+2, 1.2853459e+2, -1503424.9, -1688775.9, -2422.5835, 0.035395976, 0.02119868, -1503393.3, 176983.44, 0.0, 5.082385, 4.9604573 
6.365562e+2, 1.3349342e+2, -1463960.4, -1644729.1, -2567.0806, 0.013053548, 0.015172794, -1463923.9, 167853.89, 0.0, 5.0792665, 4.9604535 
6.364363e+2, 1.3845219e+2, -1426558.9, -1605112.1, -2909.2568, -0.0088043315, 0.010155418, -1426511.5, 156668.11, 0.0, 5.0761538, 4.958965 
6.3631403e+2, 1.4341037e+2, -1385460.6, -1558241.4, -8009.399, -0.017275404, 0.01447086, -1385090.1, 149498.83, 0.0, 5.073001, 4.9598846 
6.3618916e+2, 1.483693e+2, -1346410.0, -1513822.4, -8368.126, -0.018697355, 0.011627443, -1345992.9, 139999.2, 0.0, 5.069568, 4.960103 
6.360644e+2, 1.5332821e+2, -1307645.6, -1470042.9, -8585.478, -0.020194296, 0.008713253, -1307193.0, 130202.055, 0.0, 5.066135, 4.960089 
6.3593966e+2, 1.5828712e+2, -1270188.9, -1429113.5, -9033.664, -0.021875609, 0.0065198224, -1269677.0, 119121.055, 0.0, 5.0627046, 4.9591045 
6.35812e+2, 1.6324548e+2, -1230434.5, -1383747.4, -12741.673, -0.024004826, 0.010950096, -1229382.9, 110821.695, 0.0, 5.0592747, 4.9596353 
6.35682e+2, 1.6820405e+2, -1191449.8, -1339103.1, -12966.46, -0.02595263, 0.006678584, -1190319.8, 101287.78, 0.0, 5.0557356, 4.959903 
6.35552e+2, 1.7316265e+2, -1152806.6, -1295222.8, -13038.476, -0.027982092, 0.0024968332, -1151622.8, 91387.75, 0.0, 5.052197, 4.9598927 
6.3542205e+2, 1.7812124e+2, -1115288.3, -1253813.4, -13080.542, -0.030071357, -0.0011836434, -1114063.9, 80349.586, 0.0, 5.0486627, 4.95903 
6.352907e+2, 1.830788e+2, -1077626.5, -1213143.9, -15448.453, -0.031677026, 0.0052139014, -1075887.8, 69941.35, 0.0, 5.045278, 4.9578547 
6.351577e+2, 1.880363e+2, -1037687.7, -1167393.8, -15662.476, -0.032485805, 0.0056992657, -1035823.2, 61423.723, 0.0, 5.0419006, 4.9583387 
6.3502485e+2, 1.9299378e+2, -998375.1, -1123038.4, -15765.45, -0.033263646, 0.006011628, -996412.25, 52252.41, 0.0, 5.0385246, 4.9583316 
6.3489205e+2, 1.9795124e+2, -959954.7, -1080667.5, -15803.625, -0.033999234, 0.006621732, -957920.0, 42162.426, 0.0, 5.0351505, 4.9576297 
6.3475853e+2, 2.0290717e+2, -921912.06, -1039468.5, -17350.566, -0.031984873, 0.010111595, -919404.7, 32107.916, 0.0, 5.0318074, 4.9565024 
6.3462406e+2, 2.0786253e+2, -881651.25, -993132.56, -17492.6, -0.027649356, 0.0015551611, -878970.94, 23975.701, 0.0, 5.028417, 4.9571137 
6.3448966e+2, 2.1281792e+2, -842172.5, -948532.5, -17531.947, -0.023378616, -0.0069847354, -839357.1, 15023.106, 0.0, 5.025027, 4.9571123 
6.3435537e+2, 2.1777332e+2, -803313.75, -905343.25, -17534.207, -0.019184679, -0.015276339, -800384.5, 5429.2554, 0.0, 5.0216384, 4.956606 
6.3422084e+2, 2.2272767e+2, -767209.06, -868022.4, -17289.252, -0.01772758, -0.009625992, -764326.4, -7066.3726, 0.0, 5.01821, 4.9540734 
6.3408613e+2, 2.2768186e+2, -726644.94, -820772.9, -17218.979, -0.018583087, -0.008089894, -723593.94, -14883.692, 0.0, 5.0147367, 4.954957 
6.339515e+2, 2.3263606e+2, -687220.0, -776069.9, -17088.652, -0.019484915, -0.0066291583, -684046.7, -23886.518, 0.0, 5.0112643, 4.9549456 
6.338169e+2, 2.3759027e+2, -648530.7, -733051.25, -16883.809, -0.020426568, -0.0050026467, -645282.8, -33672.57, 0.0, 5.0077934, 4.9543285 
6.336832e+2, 2.4254248e+2, -612273.94, -695177.75, -15534.035, -0.020699546, 0.0031105734, -609458.8, -46380.207, 0.0, 5.004296, 4.951872 
6.335506e+2, 2.4749409e+2, -571115.44, -646831.94, -15454.958, -0.01919824, -0.0020992842, -568082.4, -53530.24, 0.0, 5.0008364, 4.9530444 
6.334181e+2, 2.5244573e+2, -531425.4, -601813.0, -15433.602, -0.017644916, -0.0077099614, -528190.0, -62164.98, 0.0, 4.997379, 4.953046 
6.3328564e+2, 2.5739738e+2, -491933.84, -557298.44, -15399.145, -0.016037012, -0.013345193, -488487.66, -70989.69, 0.0, 4.9939237, 4.9528484 
6.3315445e+2, 2.6234737e+2, -457071.25, -522729.0, -13274.424, -0.0121918395, -0.004217516, -454489.03, -85500.96, 0.0, 4.9904327, 4.9491057 
6.330253e+2, 2.6729757e+2, -414487.88, -471267.47, -12903.627, -0.00685954, -0.005730049, -411693.0, -91214.945, 0.0, 4.98696, 4.9512887 
6.328961e+2, 2.722478e+2, -374627.1, -426043.34, -12769.661, -0.0017492468, -0.008603872, -371630.3, -99662.61, 0.0, 4.983494, 4.9512796 
6.32767e+2, 2.77198e+2, -334769.34, -380891.56, -12633.387, 0.0031706276, -0.011388102, -331535.63, -108078.14, 0.0, 4.9800296, 4.9512234 
6.3263875e+2, 2.8214562e+2, -301409.94, -349464.66, -9866.657, 0.0036432277, -0.0019409136, -299463.0, -124492.72, 0.0, 4.9764533, 4.9462714 
6.3251185e+2, 2.8709376e+2, -258048.4, -295908.6, -9458.493, -0.001147481, -0.00120728, -255816.94, -129341.26, 0.0, 4.972898, 4.9491506 
6.323851e+2, 2.9204205e+2, -218169.13, -250444.69, -9188.914, -0.005871141, -0.0012886826, -215736.39, -137757.03, 0.0, 4.9693484, 4.9491606 
6.3225836e+2, 2.9699036e+2, -178232.8, -204916.1, -8923.853, -0.010495291, -0.001313632, -175523.44, -146040.44, 0.0, 4.965799, 4.9491706 
6.321343e+2, 3.0195394e+2, -122662.01, -93143.484, -3751.333, -0.024853002, 0.0048001884, -92674.21, -92674.21, 0.0, 4.96277, 4.981658 
6.32017e+2, 3.0693758e+2, -123637.055, -84301.88, -2276.8384, -0.046968903, -0.0087263705, -84170.53, -84170.53, 0.0, 4.9606385, 4.9857163 
6.3190025e+2, 3.1192148e+2, -129208.336, -86517.86, -2551.247, -0.06821955, -0.024620002, -86365.94, -86365.94, 0.0, 4.958538, 4.9857836 
6.3178384e+2, 3.169055e+2, -134782.17, -88740.695, -2856.3362, -0.08867795, -0.04091995, -88564.17, -88564.17, 0.0, 4.9564257, 4.9858513 
6.4187825e+2, 1.23682834e+2, -1540577.9, -1728314.1, 244.10158, 0.035596922, 0.007760569, -1540577.5, 187344.19, 0.0, 5.0856323, 4.961828 
6.4175713e+2, 1.2864318e+2, -1503253.3, -1688567.3, -1400.526, 0.034491234, 0.017005144, -1503242.8, 176065.48, 0.0, 5.0824556, 4.9604726 
6.41634e+2, 1.3360202e+2, -1464142.1, -1644761.0, -1556.9905, 0.012524325, 0.011759209, -1464128.6, 166580.86, 0.0, 5.079217, 4.960452 
6.415109e+2, 1.3856071e+2, -1427191.0, -1605451.3, -1935.3436, -0.008749832, 0.007033142, -1427170.0, 154942.23, 0.0, 5.075956, 4.958938 
6.4138544e+2, 1.4351879e+2, -1386282.6, -1558754.0, -7260.8193, -0.016642677, 0.0114521235, -1385977.5, 147545.86, 0.0, 5.0727468, 4.9598303 
6.4125705e+2, 1.484776e+2, -1347266.3, -1514420.6, -7612.2344, -0.019037537, 0.009328391, -1346920.4, 138007.7, 0.0, 5.069321, 4.9600153 
6.4112866e+2, 1.5343642e+2, -1308517.0, -1470632.5, -7838.7046, -0.021452788, 0.007149958, -1308138.9, 128193.99, 0.0, 5.0658827, 4.960006 
6.410004e+2, 1.5839525e+2, -1271045.8, -1429622.1, -8312.406, -0.024046633, 0.005739681, -1270611.1, 117126.2, 0.0, 5.0624413, 4.9590564 
6.408693e+2, 1.6335349e+2, -1230811.0, -1383901.6, -12214.792, -0.026308933, 0.010006613, -1229842.5, 109302.44, 0.0, 5.059134, 4.9596577 
6.4073586e+2, 1.683119e+2, -1191398.5, -1339114.6, -12692.352, -0.02746822, 0.0048164492, -1190315.8, 100233.8, 0.0, 5.0557528, 4.959899 
6.4060247e+2, 1.732703e+2, -1152325.0, -1295026.0, -13036.816, -0.028691212, -0.00040020453, -1151143.8, 90810.375, 0.0, 5.0523596, 4.9598923 
6.4046913e+2, 1.782287e+2, -1114468.1, -1253532.4, -13328.568, -0.029969782, -0.0051582824, -1113202.3, 80156.48, 0.0, 5.0489554, 4.9589987 
6.403343e+2, 1.8318631e+2, -1076716.9, -1212618.9, -15800.088, -0.03185269, 0.002242584, -1074904.1, 69870.016, 0.0, 5.0455556, 4.9579124 
6.4019775e+2, 1.8814398e+2, -1037099.3, -1167097.9, -16072.751, -0.03377163, 0.004818861, -1035141.56, 61049.293, 0.0, 5.042081, 4.9583664 
6.400613e+2, 1.9310167e+2, -998063.25, -1122883.0, -16256.408, -0.03571211, 0.0073694787, -995980.75, 51626.652, 0.0, 5.03861, 4.9583573 
6.39925e+2, 1.9805937e+2, -959934.06, -1080685.0, -16377.793, -0.037678156, 0.010442264, -957752.1, 41271.684, 0.0, 5.035142, 4.957642 
6.397881e+2, 2.0301543e+2, -921861.94, -1039217.6, -18045.787, -0.03607079, 0.0149328485, -919149.75, 31303.69, 0.0, 5.031758, 4.956629 
6.3965034e+2, 2.0797071e+2, -881613.25, -992964.56, -18353.762, -0.031172192, 0.0051532504, -878666.06, 23222.535, 0.0, 5.0283766, 4.9572105 
6.3951266e+2, 2.12926e+2, -842123.0, -948372.9, -18555.906, -0.026230078, -0.004801054, -838975.56, 14347.922, 0.0, 5.0249906, 4.9572067 
6.39375e+2, 2.1788129e+2, -803289.1, -905250.44, -18711.084, -0.021257902, -0.014735221, -799963.8, 4794.5957, 0.0, 5.0216026, 4.9566793 
6.392371e+2, 2.2283569e+2, -766794.44, -867183.56, -18723.207, -0.019477764, -0.010187559, -763416.1, -7212.187, 0.0, 5.0181923, 4.954395 
6.390989e+2, 2.277902e+2, -726224.1, -819988.0, -18846.557, -0.020581814, -0.008166501, -722577.75, -14927.664, 0.0, 5.014731, 4.9552565 
6.389607e+2, 2.3274475e+2, -686791.06, -775279.4, -18890.29, -0.021763515, -0.006178572, -682927.1, -23831.264, 0.0, 5.01126, 4.955248 
6.388226e+2, 2.3769931e+2, -648149.6, -732323.94, -18847.227, -0.023037108, -0.0038921998, -644122.25, -33580.64, 0.0, 5.00778, 4.9546137 
6.386854e+2, 2.426519e+2, -612043.94, -694655.0, -17575.94, -0.02400142, 0.005499522, -608460.0, -46453.746, 0.0, 5.0042553, 4.9521003 
6.3854927e+2, 2.4760367e+2, -571035.8, -646486.6, -17573.025, -0.02359464, 0.00015979544, -567143.7, -53664.984, 0.0, 5.000761, 4.953229 
6.3841313e+2, 2.525555e+2, -531444.1, -601529.5, -17615.588, -0.023170399, -0.005601608, -527265.6, -62314.96, 0.0, 4.9972696, 4.953226 
6.382772e+2, 2.5750726e+2, -492054.13, -557086.1, -17634.133, -0.022725722, -0.011428701, -487580.25, -71157.5, 0.0, 4.993781, 4.953021 
6.381426e+2, 2.624575e+2, -456943.3, -521974.75, -15599.667, -0.018614572, -0.0029907736, -453394.9, -85483.88, 0.0, 4.9902925, 4.949467 
6.380101e+2, 2.6740792e+2, -414283.84, -470540.34, -15340.67, -0.011305566, -0.005194226, -410372.5, -90974.81, 0.0, 4.986856, 4.951627 
6.378777e+2, 2.723584e+2, -374337.0, -425288.0, -15289.087, -0.0041627083, -0.00878184, -370101.28, -99217.125, 0.0, 4.983421, 4.9516153 
6.377453e+2, 2.7730888e+2, -334388.8, -380104.5, -15209.865, 0.0028202657, -0.012282423, -329790.88, -107420.14, 0.0, 4.9799895, 4.951557 
6.376136e+2, 2.822569e+2, -300743.7, -348221.16, -12546.689, 0.0037275956, -0.003110704, -297631.97, -123752.89, 0.0, 4.9764423, 4.946756 
6.374831e+2, 2.8720552e+2, -257287.13, -294698.4, -12187.258, -0.0016562782, -0.0022601236, -253667.22, -128288.05, 0.0, 4.972931, 4.9496093 
6.373527e+2, 2.9215425e+2, -217414.08, -249251.89, -11935.689, -0.0069893324, -0.0021909808, -213436.45, -136558.78, 0.0, 4.969381, 4.9496155 
6.372224e+2, 2.9710305e+2, -177486.25, -203740.94, -11682.038, -0.012261102, -0.0020569798, -173040.97, -144664.83, 0.0, 4.9658294, 4.9496217 
6.3709575e+2, 3.0206674e+2, -122504.04, -93635.92, -5172.6123, -0.025645293, 0.003378669, -92737.07, -92737.07, 0.0, 4.962854, 4.981487 
6.369768e+2, 3.0704978e+2, -123487.3, -84997.89, -3680.0132, -0.045726698, -0.013387524, -84649.195, -84649.195, 0.0, 4.960745, 4.98547 
6.3685834e+2, 3.1203306e+2, -129011.49, -87238.25, -3919.0425, -0.065726794, -0.03305258, -86873.76, -86873.76, 0.0, 4.95866, 4.9855247 
6.367401e+2, 3.1701636e+2, -134538.58, -89485.55, -4188.4204, -0.085604064, -0.05338839, -89099.47, -89099.47, 0.0, 4.9565635, 4.98558 
6.4696556e+2, 1.2380193e+2, -1528435.1, -1722559.1, 5917.233, 0.042482965, 0.0037332126, -1528255.0, 198495.81, 0.0, 5.0899916, 4.96156 
6.4684e+2, 1.2876174e+2, -1491681.0, -1682041.1, 4862.1333, 0.031496163, 0.00852657, -1491556.9, 186585.67, 0.0, 5.0864015, 4.960659 
6.4671355e+2, 1.3372067e+2, -1453663.0, -1638792.0, 4751.3037, 0.011573016, 0.0051643336, -1453541.1, 176001.66, 0.0, 5.0827947, 4.960639 
6.465872e+2, 1.3867946e+2, -1417718.5, -1600030.0, 4467.923, -0.0076678367, 0.0022824465, -1417609.0, 163335.56, 0.0, 5.0792, 4.9591084 
6.464582e+2, 1.4363761e+2, -1377418.9, -1553605.0, -809.69586, -0.0152554875, 0.008380332, -1377415.1, 154939.88, 0.0, 5.0757775, 4.9600134 
6.463262e+2, 1.4859636e+2, -1338893.0, -1509610.6, -1028.9785, -0.01901948, 0.0068009635, -1338886.8, 144874.0, 0.0, 5.0722094, 4.9601583 
6.461942e+2, 1.5355508e+2, -1300528.4, -1466003.0, -1167.7957, -0.022758808, 0.0051520728, -1300520.1, 134646.47, 0.0, 5.0686417, 4.9601545 
6.460623e+2, 1.5851383e+2, -1263374.0, -1425105.9, -1558.5139, -0.026493039, 0.004099983, -1263359.0, 123213.266, 0.0, 5.065085, 4.959227 
6.459278e+2, 1.6347185e+2, -1223673.6, -1379955.6, -5338.317, -0.02789581, 0.0078527555, -1223491.5, 114491.12, 0.0, 5.061654, 4.959705 
6.45791e+2, 1.6843e+2, -1184739.5, -1335481.1, -5695.2686, -0.027796159, 0.0030676932, -1184524.6, 104865.99, 0.0, 5.058128, 4.9599137 
6.456544e+2, 1.7338815e+2, -1146052.5, -1291581.6, -5953.5464, -0.027792785, -0.0017175082, -1145809.3, 94989.12, 0.0, 5.0546026, 4.9599094 
6.455177e+2, 1.783463e+2, -1108495.9, -1250155.6, -6183.2485, -0.02791392, -0.0059913266, -1108226.5, 83979.62, 0.0, 5.0510783, 4.9590516 
6.4537925e+2, 1.8330383e+2, -1070803.9, -1208632.5, -8589.825, -0.02946856, 0.001266518, -1070270.6, 73351.96, 0.0, 5.047524, 4.958244 
6.452392e+2, 1.8826142e+2, -1031763.7, -1163480.1, -8686.446, -0.031347856, 0.003088005, -1031193.3, 63846.145, 0.0, 5.0438704, 4.95866 
6.4509916e+2, 1.9321902e+2, -993252.9, -1119518.1, -8710.64, -0.033253256, 0.00488229, -992654.75, 53801.6, 0.0, 5.0402193, 4.958652 
6.449593e+2, 1.9817662e+2, -955626.0, -1077513.0, -8680.976, -0.035189345, 0.0071647535, -955010.8, 42862.426, 0.0, 5.0365696, 4.9579587 
6.448187e+2, 2.0313267e+2, -918166.56, -1036642.8, -10136.82, -0.034366947, 0.012258004, -917305.5, 31997.865, 0.0, 5.0330386, 4.956813 
6.4467734e+2, 2.0808803e+2, -878263.75, -990632.3, -10419.214, -0.031032125, 0.005007696, -877305.8, 23433.41, 0.0, 5.029556, 4.9573617 
6.445361e+2, 2.1304338e+2, -839053.5, -946170.1, -10612.909, -0.027581932, -0.0025087092, -838012.06, 14162.785, 0.0, 5.0260744, 4.957361 
6.443949e+2, 2.1799871e+2, -800515.7, -903242.1, -10755.722, -0.02401052, -0.010127267, -799401.56, 4209.087, 0.0, 5.0225964, 4.9568114 
6.4425355e+2, 2.229531e+2, -763936.44, -864470.6, -10754.077, -0.022201346, -0.0054572485, -762798.94, -7742.324, 0.0, 5.019084, 4.9548154 
6.4411193e+2, 2.2790748e+2, -723749.44, -817533.8, -10810.237, -0.022027893, -0.0051374477, -722519.5, -16016.415, 0.0, 5.0155063, 4.955642 
6.439704e+2, 2.3286192e+2, -684615.0, -772941.5, -10796.709, -0.021958856, -0.004838529, -683314.4, -25365.256, 0.0, 5.011928, 4.9556413 
6.438289e+2, 2.3781636e+2, -646214.7, -730021.7, -10718.777, -0.022008024, -0.0042007687, -644865.5, -35470.453, 0.0, 5.008351, 4.9550385 
6.4368814e+2, 2.4276905e+2, -610468.06, -692430.5, -9394.0625, -0.022189729, 0.004645552, -609405.2, -48546.37, 0.0, 5.0046887, 4.952562 
6.435484e+2, 2.4772099e+2, -569990.56, -644600.9, -9379.971, -0.021963106, 0.00032815474, -568829.4, -56499.58, 0.0, 5.001029, 4.95365 
6.434087e+2, 2.52673e+2, -530874.1, -599860.4, -9394.704, -0.021777444, -0.004401803, -529617.6, -65817.18, 0.0, 4.997372, 4.9536476 
6.4326906e+2, 2.5762498e+2, -491968.63, -555652.44, -9373.705, -0.021630753, -0.009195093, -490617.56, -75346.34, 0.0, 4.9937177, 4.953436 
6.4313084e+2, 2.6257536e+2, -457130.53, -520163.16, -7163.536, -0.018432617, -0.00071351277, -456326.66, -89569.02, 0.0, 4.990041, 4.950098 
6.4299476e+2, 2.6752597e+2, -415005.2, -469034.3, -6811.7314, -0.01231296, -0.0037790749, -414159.63, -95917.695, 0.0, 4.9864306, 4.952228 
6.428587e+2, 2.724766e+2, -375547.0, -423986.03, -6651.8545, -0.0060077305, -0.008244722, -374650.16, -104924.04, 0.0, 4.982822, 4.9522204 
6.427228e+2, 2.7742726e+2, -336123.63, -379024.63, -6509.9863, 0.0005186916, -0.012651355, -335157.53, -113947.09, 0.0, 4.979204, 4.9521646 
6.4258766e+2, 2.8237563e+2, -302460.78, -346505.94, -3697.2476, 0.0017567779, -0.0036702736, -302152.6, -129437.734, 0.0, 4.975564, 4.9476266 
6.4245373e+2, 2.873248e+2, -259111.11, -293114.97, -3283.8716, -0.002185114, -0.0020879596, -258796.89, -134587.28, 0.0, 4.9720325, 4.950446 
6.423199e+2, 2.9227412e+2, -219112.34, -247626.44, -2952.585, -0.006226624, -0.0011198987, -218809.81, -143107.05, 0.0, 4.968533, 4.950446 
6.421862e+2, 2.9722345e+2, -179121.44, -202102.7, -2636.4165, -0.01036311, 0.000046606034, -178822.86, -151627.05, 0.0, 4.9650106, 4.950446 
6.420567e+2, 3.0218694e+2, -127755.1, -96190.18, 3950.4033, -0.021523504, 0.004740994, -95703.29, -95703.29, 0.0, 4.9612713, 4.9811306 
6.419353e+2, 3.0716863e+2, -133313.8, -89474.89, 4049.964, -0.0378963, -0.01707121, -89103.88, -89103.88, 0.0, 4.957529, 4.985107 
6.4181453e+2, 3.1215066e+2, -143536.77, -93400.7, 2741.067, -0.053363048, -0.042899977, -93251.29, -93251.29, 0.0, 4.953714, 4.985289 
6.4169395e+2, 3.1713283e+2, -154070.44, -97499.1, 1611.5421, -0.06797959, -0.070198655, -97453.23, -97453.23, 0.0, 4.949785, 4.985465 
6.520543e+2, 1.2392518e+2, -1528712.3, -1723947.6, 2769.5515, 0.044109814, -0.0005053429, -1528672.9, 196866.3, 0.0, 5.0900784, 4.9611053 
6.519246e+2, 1.2888457e+2, -1491369.0, -1682118.5, 2193.2317, 0.028807607, 0.00056062895, -1491343.8, 185591.23, 0.0, 5.0864778, 4.960638 
6.517948e+2, 1.3384366e+2, -1453357.1, -1638865.9, 2085.487, 0.0108696595, -0.0009158311, -1453333.6, 174999.9, 0.0, 5.082868, 4.96062 
6.5166503e+2, 1.3880263e+2, -1417449.5, -1600159.3, 1819.6062, -0.0065024956, -0.0018459965, -1417431.4, 162302.23, 0.0, 5.0792704, 4.9590716 
6.515324e+2, 1.4376095e+2, -1377143.5, -1553658.5, -3471.9011, -0.014075428, 0.005962394, -1377075.3, 154067.3, 0.0, 5.0758405, 4.9600034 
6.513967e+2, 1.487197e+2, -1338690.1, -1509810.8, -3661.7603, -0.019244002, 0.0049210945, -1338611.8, 143936.8, 0.0, 5.072272, 4.9600997 
6.51261e+2, 1.5367842e+2, -1300325.0, -1466199.9, -3801.1597, -0.024394697, 0.00379482, -1300237.9, 133716.73, 0.0, 5.068704, 4.960097 
6.5112543e+2, 1.5863714e+2, -1263178.0, -1425312.4, -4207.965, -0.02935795, 0.0030736548, -1263068.9, 122291.85, 0.0, 5.065146, 4.959167 
6.5098745e+2, 1.6359504e+2, -1223637.0, -1380431.4, -7998.7646, -0.02980459, 0.006334878, -1223230.0, 113543.09, 0.0, 5.0617056, 4.95956 
6.508473e+2, 1.6855301e+2, -1184760.5, -1336062.0, -8328.267, -0.02837867, 0.0017801289, -1184303.5, 103880.12, 0.0, 5.0581765, 4.9597344 
6.507071e+2, 1.7351101e+2, -1146079.9, -1292162.1, -8585.407, -0.02708816, -0.002720948, -1145577.0, 94016.89, 0.0, 5.054649, 4.9597306 
6.505671e+2, 1.7846903e+2, -1108460.3, -1250583.0, -8839.261, -0.026026431, -0.0066046165, -1107912.6, 83091.41, 0.0, 5.0511217, 4.9589257 
6.5042514e+2, 1.8342659e+2, -1070397.1, -1208236.6, -11353.489, -0.027326116, 0.00055977446, -1069468.3, 72951.625, 0.0, 5.047563, 4.958397 
6.5028137e+2, 1.8838423e+2, -1031414.1, -1163202.9, -11430.03, -0.029205067, 0.0017267083, -1030430.2, 63405.285, 0.0, 5.043909, 4.958774 
6.501377e+2, 1.9334187e+2, -992905.5, -1119243.5, -11455.727, -0.031121166, 0.0028993306, -991875.2, 53375.88, 0.0, 5.040258, 4.9587655 
6.4999413e+2, 1.9829953e+2, -955281.75, -1077247.8, -11430.0, -0.03307922, 0.0045440756, -954219.8, 42446.813, 0.0, 5.036608, 4.9580693 
6.498499e+2, 2.032557e+2, -918026.56, -1036865.5, -12799.554, -0.03307584, 0.010312883, -916663.6, 31432.762, 0.0, 5.033085, 4.9567547 
6.497049e+2, 2.082112e+2, -878180.2, -990973.75, -13063.564, -0.03134766, 0.0055051004, -876686.94, 22845.314, 0.0, 5.0296016, 4.957263 
6.4956e+2, 2.131667e+2, -838973.2, -946517.06, -13255.926, -0.029535536, 0.0004617121, -837363.3, 13604.679, 0.0, 5.0261197, 4.9572616 
6.4941514e+2, 2.1812218e+2, -800452.2, -903623.2, -13392.133, -0.027638132, -0.0046288017, -798742.1, 3661.784, 0.0, 5.0226407, 4.9567003 
6.4927024e+2, 2.2307664e+2, -763437.1, -863877.2, -13476.515, -0.025800703, 0.0001856855, -761660.4, -7811.237, 0.0, 5.0191255, 4.9550395 
6.491252e+2, 2.2803101e+2, -723315.5, -817084.0, -13539.398, -0.024016116, -0.0015804358, -721399.7, -16104.677, 0.0, 5.0155478, 4.9558177 
6.4898026e+2, 2.329854e+2, -684184.2, -772497.1, -13526.663, -0.022357814, -0.0033259105, -682158.75, -25418.24, 0.0, 5.0119696, 4.9558163 
6.4883536e+2, 2.3793983e+2, -645761.2, -729525.7, -13464.219, -0.020826371, -0.004710215, -643650.2, -35464.25, 0.0, 5.0083914, 4.955232 
6.486912e+2, 2.4289265e+2, -609993.1, -691925.25, -12202.859, -0.019887898, 0.003329158, -608214.25, -48566.1, 0.0, 5.0047345, 4.952758 
6.485477e+2, 2.478449e+2, -569578.9, -644236.8, -12201.196, -0.019464446, 0.0003928572, -567635.44, -56518.82, 0.0, 5.0010753, 4.9537983 
6.4840436e+2, 2.527972e+2, -530465.06, -599499.75, -12217.5, -0.01910014, -0.00296808, -528366.6, -65781.76, 0.0, 4.997418, 4.9537954 
6.4826113e+2, 2.577494e+2, -491563.97, -555297.94, -12201.601, -0.018795151, -0.0064008133, -489307.9, -75254.63, 0.0, 4.993763, 4.9535823 
6.481192e+2, 2.627001e+2, -456355.88, -519001.75, -9926.681, -0.016562182, 0.002023653, -454820.53, -89283.9, 0.0, 4.990089, 4.9505258 
6.4797926e+2, 2.67651e+2, -414286.5, -467996.5, -9602.676, -0.012450781, -0.0022957972, -412621.3, -95603.67, 0.0, 4.9864783, 4.9526143 
6.478394e+2, 2.726019e+2, -374820.22, -422943.84, -9438.355, -0.008179397, -0.007975204, -373035.3, -104536.74, 0.0, 4.982874, 4.9526076 
6.476997e+2, 2.7755278e+2, -335355.4, -377957.22, -9190.513, -0.0037190877, -0.013577122, -333457.3, -113477.67, 0.0, 4.9792705, 4.952554 
6.47561e+2, 2.8250173e+2, -301220.3, -344574.84, -6417.5083, -0.002047984, -0.0044247024, -300290.3, -128811.77, 0.0, 4.975663, 4.948308 
6.47424e+2, 2.874517e+2, -257744.92, -291238.84, -5883.1333, -0.002882471, -0.0012745969, -256741.63, -133775.47, 0.0, 4.9721975, 4.951083 
6.47287e+2, 2.9240185e+2, -217644.38, -245707.28, -5498.947, -0.0038855455, 0.0013078441, -216605.31, -142153.03, 0.0, 4.968737, 4.951083 
6.4715016e+2, 2.9735196e+2, -177487.84, -200112.2, -5117.293, -0.005054018, 0.004129272, -176384.22, -150445.92, 0.0, 4.965276, 4.9510837 
6.4701754e+2, 3.0231473e+2, -128778.98, -101135.66, 1535.3319, -0.014194911, 0.006982035, -101050.65, -101050.65, 0.0, 4.9616876, 4.9792185 
6.4689296e+2, 3.0729344e+2, -133586.19, -94580.23, 1156.4542, -0.030470174, -0.022183584, -94545.97, -94545.97, 0.0, 4.9582906, 4.982995 
6.467689e+2, 3.1227246e+2, -142530.05, -97967.625, -778.8527, -0.045815103, -0.056057747, -97954.016, -97954.016, 0.0, 4.9549212, 4.983183 
6.466451e+2, 3.172516e+2, -151471.98, -101375.55, -2779.181, -0.06012334, -0.091998465, -101221.84, -101221.84, 0.0, 4.951544, 4.983373 
6.571427e+2, 1.2404812e+2, -1528826.0, -1724986.3, -237.35028, 0.041786954, -0.007731741, -1528825.8, 195504.89, 0.0, 5.0901656, 4.960766 
6.5700936e+2, 1.2900743e+2, -1491056.6, -1682196.6, -478.36334, 0.026272316, -0.0071746386, -1491055.4, 184671.69, 0.0, 5.086556, 4.960616 
6.56876e+2, 1.3396668e+2, -1453050.9, -1638940.4, -583.0209, 0.010301919, -0.00681343, -1453049.0, 174074.98, 0.0, 5.0829434, 4.9606004 
6.567428e+2, 1.389258e+2, -1417183.9, -1600297.1, -846.3538, -0.005255704, -0.0058193943, -1417179.9, 161342.44, 0.0, 5.0793424, 4.959032 
6.5660655e+2, 1.438843e+2, -1376872.6, -1553726.4, -6126.3306, -0.012976236, 0.0036160212, -1376660.8, 153269.28, 0.0, 5.0759053, 4.9599886 
6.564671e+2, 1.4884304e+2, -1338485.4, -1510012.6, -6296.167, -0.019546496, 0.0030836836, -1338254.5, 143081.69, 0.0, 5.072336, 4.96004 
6.563278e+2, 1.5380177e+2, -1300119.8, -1466398.6, -6436.1445, -0.026105078, 0.0024496478, -1299871.0, 132871.63, 0.0, 5.0687685, 4.960038 
6.561885e+2, 1.5876046e+2, -1263040.6, -1425647.5, -6870.195, -0.032240592, 0.0020463136, -1262750.9, 121398.35, 0.0, 5.0652084, 4.9590645 
6.56047e+2, 1.637182e+2, -1223582.4, -1380876.8, -10659.019, -0.031674784, 0.005002538, -1222863.4, 112700.25, 0.0, 5.0617595, 4.959425 
6.5590346e+2, 1.6867602e+2, -1184779.4, -1336646.0, -10962.67, -0.028914887, 0.0006170167, -1183992.1, 102984.586, 0.0, 5.0582275, 4.9595537 
6.5575993e+2, 1.7363386e+2, -1146105.1, -1292745.8, -11218.674, -0.02633046, -0.0036633175, -1145251.8, 93137.76, 0.0, 5.0546975, 4.959551 
6.556165e+2, 1.7859176e+2, -1108402.3, -1250971.5, -11504.064, -0.024103792, -0.007201148, -1107480.0, 82321.914, 0.0, 5.051167, 4.9588127 
6.554709e+2, 1.8354934e+2, -1069996.6, -1207865.6, -14114.729, -0.025185646, -0.00012939218, -1068566.4, 72650.63, 0.0, 5.047604, 4.9585423 
6.553235e+2, 1.8850704e+2, -1031060.94, -1162929.5, -14173.056, -0.027070342, 0.00034897425, -1029554.9, 63076.473, 0.0, 5.0439496, 4.9588866 
6.5517616e+2, 1.9346474e+2, -992554.56, -1118972.9, -14200.255, -0.02900431, 0.000865215, -990979.1, 53066.54, 0.0, 5.040298, 4.958878 
6.550289e+2, 1.9842245e+2, -954970.44, -1077067.8, -14177.917, -0.031003712, 0.0018699344, -953345.7, 42114.305, 0.0, 5.036649, 4.958151 
6.5488106e+2, 2.0337872e+2, -917888.5, -1037101.9, -15451.1045, -0.03190748, 0.008612925, -915918.44, 30970.879, 0.0, 5.0331326, 4.956691 
6.5473235e+2, 2.0833437e+2, -878093.7, -991318.94, -15706.258, -0.031750243, 0.0061587626, -875955.4, 22369.95, 0.0, 5.029649, 4.957163 
6.545838e+2, 2.1329002e+2, -838890.0, -946867.75, -15897.29, -0.031538785, 0.003499658, -836598.1, 13163.107, 0.0, 5.026166, 4.95716 
6.544353e+2, 2.1824566e+2, -800385.44, -904006.5, -16025.413, -0.031292833, 0.00088722334, -797963.6, 3233.5417, 0.0, 5.0226865, 4.9565883 
6.542869e+2, 2.2320022e+2, -762933.0, -863284.7, -16201.049, -0.029382722, 0.005843275, -760382.3, -7740.8037, 0.0, 5.019169, 4.9552636 
6.541385e+2, 2.2815454e+2, -722878.2, -816638.06, -16267.253, -0.025961792, 0.0019509285, -720136.06, -16049.194, 0.0, 5.015591, 4.9559927 
6.539901e+2, 2.3310892e+2, -683749.94, -772056.6, -16255.312, -0.022688432, -0.0018840316, -680852.75, -25320.871, 0.0, 5.0120125, 4.95599 
6.538418e+2, 2.380633e+2, -645320.2, -729070.44, -16206.35, -0.019547395, -0.0053495443, -642293.56, -35316.758, 0.0, 5.008435, 4.955412 
6.5369403e+2, 2.4301629e+2, -609520.06, -691436.25, -15009.852, -0.017625425, 0.002145077, -606856.4, -48418.93, 0.0, 5.0047827, 4.9529486 
6.53547e+2, 2.4796881e+2, -569163.56, -643876.7, -15021.597, -0.016988203, 0.0005626565, -566256.5, -56353.074, 0.0, 5.0011234, 4.953945 
6.5339994e+2, 2.5292137e+2, -530052.3, -599143.06, -15039.472, -0.016427139, -0.001457815, -526920.56, -65551.266, 0.0, 4.997466, 4.9539423 
6.532531e+2, 2.578739e+2, -491142.53, -554918.2, -15026.609, -0.015951183, -0.003561306, -487779.38, -74944.12, 0.0, 4.99381, 4.9537377 
6.5310746e+2, 2.6282486e+2, -455582.34, -517853.84, -12687.609, -0.014746837, 0.0047004917, -453096.5, -88780.94, 0.0, 4.990139, 4.9509487 
6.5296376e+2, 2.6777604e+2, -413564.56, -466962.28, -12394.135, -0.012658986, -0.0008855301, -410828.0, -95034.734, 0.0, 4.9865284, 4.9529996 
6.5282005e+2, 2.727272e+2, -374103.13, -421911.53, -12231.062, -0.010438733, -0.007797238, -371155.7, -103884.73, 0.0, 4.9829226, 4.9529934 
6.526766e+2, 2.7767834e+2, -334641.88, -376921.63, -11976.167, -0.008059948, -0.014603489, -331485.2, -112736.43, 0.0, 4.979318, 4.952943 
6.525344e+2, 2.826279e+2, -300074.0, -342696.66, -9108.859, -0.0056898384, -0.0050172815, -298208.94, -127967.0, 0.0, 4.9757304, 4.9489865 
6.5239424e+2, 2.8757867e+2, -256653.56, -289498.72, -8596.366, -0.003481047, -0.00031678384, -254539.73, -132817.27, 0.0, 4.9722667, 4.951716 
6.522541e+2, 2.925296e+2, -216556.75, -243978.02, -8211.115, -0.0015080719, 0.0038459734, -214286.03, -141084.42, 0.0, 4.9688067, 4.951714 
6.5211403e+2, 2.9748052e+2, -176403.97, -198393.8, -7828.3955, 0.0002204267, 0.008270891, -173901.78, -149221.16, 0.0, 4.9653463, 4.9517126 
6.519784e+2, 3.0244225e+2, -130931.33, -107053.445, -964.78735, -0.0073348912, 0.008187552, -107014.52, -107014.52, 0.0, 4.961784, 4.9770885 
6.5185064e+2, 3.074179e+2, -135649.4, -100664.19, -1393.5961, -0.023816241, -0.029683996, -100608.766, -100608.766, 0.0, 4.9584346, 4.980795 
6.517235e+2, 3.1239372e+2, -144482.64, -104120.164, -3269.8374, -0.039794926, -0.0727309, -103856.984, -103856.984, 0.0, 4.955109, 4.9809504 
6.5159655e+2, 3.1736967e+2, -153313.78, -107596.76, -5211.107, -0.055154096, -0.11821932, -107010.29, -107010.29, 0.0, 4.9517746, 4.981108 
6.622306e+2, 1.2417231e+2, -1529214.9, -1725130.9, 1363.7017, 0.03735341, -0.015280014, -1529205.5, 193904.48, 0.0, 5.0900927, 4.9607177 
6.620938e+2, 1.291316e+2, -1491084.3, -1681986.9, 1005.65924, 0.02335012, -0.013781328, -1491078.9, 183427.72, 0.0, 5.0865607, 4.9606543 
6.6195714e+2, 1.340909e+2, -1452926.1, -1638733.5, 661.10803, 0.009531969, -0.011978568, -1452923.8, 172979.64, 0.0, 5.083006, 4.960617 
6.6182053e+2, 1.3905005e+2, -1416938.1, -1600034.6, 158.78479, -0.0038280266, -0.009346424, -1416938.0, 160363.7, 0.0, 5.079434, 4.95906 
6.616807e+2, 1.4400859e+2, -1376695.1, -1553527.3, -5264.7783, -0.011194017, 0.0012377687, -1376538.5, 152170.36, 0.0, 5.0759654, 4.960016 
6.615376e+2, 1.4896722e+2, -1338439.6, -1509971.3, -5525.6636, -0.01835687, 0.00077593466, -1338261.8, 141854.34, 0.0, 5.072361, 4.9600353 
6.6139466e+2, 1.5392584e+2, -1300182.8, -1466457.8, -5797.5234, -0.025531033, 0.00023930629, -1299980.9, 131542.61, 0.0, 5.0687566, 4.9600215 
6.612517e+2, 1.588844e+2, -1263255.5, -1425922.0, -6394.94, -0.032131076, -0.0001167199, -1263004.5, 119926.95, 0.0, 5.0651636, 4.9589972 
6.6110665e+2, 1.63842e+2, -1223904.1, -1381233.4, -10259.785, -0.031152274, 0.0030036226, -1223237.9, 111110.17, 0.0, 5.0616784, 4.9593496 
6.609596e+2, 1.6879965e+2, -1185326.9, -1337191.9, -10616.482, -0.027850797, -0.0009842265, -1184588.3, 101175.28, 0.0, 5.058085, 4.959445 
6.608126e+2, 1.7375733e+2, -1146857.8, -1293399.1, -10952.156, -0.024542855, -0.0049845483, -1146043.8, 91135.27, 0.0, 5.054486, 4.9594398 
6.606657e+2, 1.7871502e+2, -1109311.0, -1251603.5, -11362.886, -0.02151904, -0.008258963, -1108409.3, 80184.67, 0.0, 5.0508814, 4.9587455 
6.6051644e+2, 1.8367262e+2, -1070490.1, -1207874.0, -14201.225, -0.022471933, -0.0010176027, -1069037.5, 70971.58, 0.0, 5.047372, 4.958664 
6.603654e+2, 1.886303e+2, -1031285.9, -1162898.0, -14538.635, -0.024391623, -0.00077873387, -1029699.0, 61724.004, 0.0, 5.043825, 4.958972 
6.602145e+2, 1.9358797e+2, -992496.3, -1118805.3, -14836.892, -0.026344087, -0.000588619, -990776.94, 52059.89, 0.0, 5.040268, 4.9589667 
6.600637e+2, 1.9854565e+2, -954735.1, -1076917.3, -15054.043, -0.028363893, 0.000020271716, -952907.6, 41343.066, 0.0, 5.036698, 4.958198 
6.599121e+2, 2.0350197e+2, -917764.25, -1037161.75, -16403.662, -0.029966159, 0.0075551383, -915551.6, 30128.734, 0.0, 5.033171, 4.9566717 
6.597598e+2, 2.0845771e+2, -878182.7, -991571.4, -16721.678, -0.031030241, 0.006781439, -875768.06, 21348.865, 0.0, 5.0296297, 4.9571056 
6.5960765e+2, 2.1341342e+2, -839146.9, -947209.94, -16992.744, -0.03211922, 0.0059159524, -836537.75, 12015.672, 0.0, 5.026089, 4.9570994 
6.5945554e+2, 2.1836916e+2, -800824.25, -904454.4, -17195.998, -0.033296958, 0.005326779, -798045.3, 1944.5464, 0.0, 5.0225496, 4.95652 
6.5930367e+2, 2.233238e+2, -763041.0, -862912.4, -17586.604, -0.03157242, 0.010682394, -760034.6, -8601.38, 0.0, 5.019012, 4.955489 
6.5915173e+2, 2.2827813e+2, -722990.4, -816380.56, -17862.799, -0.027011696, 0.005184192, -719690.4, -16812.322, 0.0, 5.0154524, 4.9561725 
6.589999e+2, 2.3323248e+2, -683824.8, -771789.06, -18037.664, -0.022481486, -0.00038001503, -680269.75, -25947.197, 0.0, 5.0118856, 4.95617 
6.5884817e+2, 2.3818685e+2, -645380.8, -728821.06, -18167.916, -0.017975457, -0.0057097645, -641596.6, -35829.64, 0.0, 5.008315, 4.9555845 
6.586969e+2, 2.4313995e+2, -609430.3, -691060.3, -17151.875, -0.015320134, 0.0013830368, -605972.9, -48746.6, 0.0, 5.0046997, 4.9531517 
6.5854615e+2, 2.4809276e+2, -569028.75, -643584.5, -17279.014, -0.014496613, 0.0009249488, -565218.8, -56528.863, 0.0, 5.0010743, 4.9541054 
6.583956e+2, 2.530456e+2, -529854.75, -598832.94, -17393.367, -0.01374233, 0.00009493015, -525717.06, -65563.52, 0.0, 4.9974394, 4.9541 
6.5824497e+2, 2.5799838e+2, -490901.2, -554572.2, -17468.28, -0.013088385, -0.00077056733, -486423.63, -74806.37, 0.0, 4.9937935, 4.953905 
6.580957e+2, 2.6294965e+2, -455025.34, -516768.25, -15179.004, -0.01295432, 0.007271205, -451495.53, -88401.055, 0.0, 4.9901133, 4.9513807 
6.5794814e+2, 2.6790106e+2, -413118.84, -466032.75, -15018.865, -0.012892999, 0.00045083655, -409153.16, -94584.29, 0.0, 4.986482, 4.953389 
6.578007e+2, 2.7285248e+2, -373663.25, -420989.16, -14908.755, -0.012749858, -0.0077021443, -369358.25, -103314.93, 0.0, 4.9828744, 4.9533825 
6.5765333e+2, 2.778039e+2, -334194.7, -375988.97, -14663.02, -0.012469307, -0.015717475, -329563.5, -112045.68, 0.0, 4.979271, 4.9533362 
6.5750784e+2, 2.8275406e+2, -299009.97, -340851.72, -11723.532, -0.009179323, -0.0054390403, -295949.1, -126943.98, 0.0, 4.9757724, 4.9496636 
6.573644e+2, 2.8770566e+2, -255647.2, -287788.2, -11254.391, -0.0039819274, 0.0007892461, -252098.27, -131619.73, 0.0, 4.9723077, 4.9523497 
6.5722114e+2, 2.9265738e+2, -215561.94, -242283.45, -10880.934, 0.00091329945, 0.006508823, -211691.78, -139741.06, 0.0, 4.9688454, 4.952346 
6.570779e+2, 2.976091e+2, -175541.17, -196985.66, -10371.058, 0.005484783, 0.012496934, -171346.13, -147923.34, 0.0, 4.9653826, 4.9522443 
6.569392e+2, 3.025695e+2, -133390.7, -113479.164, -3514.3962, -0.0008261456, 0.008342758, -112877.08, -112877.08, 0.0, 4.9618464, 4.974778 
6.568085e+2, 3.0754206e+2, -137844.77, -106798.46, -3865.1614, -0.017311078, -0.039596327, -106324.5, -106324.5, 0.0, 4.9585376, 4.9785805 
6.5667814e+2, 3.125147e+2, -146587.33, -110331.66, -5683.043, -0.033746686, -0.09312163, -109461.72, -109461.72, 0.0, 4.955248, 4.9787035 
6.565632e+2, 3.175538e+2, -40892.56, 149278.67, -5380.464, 0.10010666, 0.5020794, 149430.78, 149430.78, 0.0, 4.9517636, 5.076922 
6.673205e+2, 1.2430869e+2, -1517757.1, -1719189.1, 7854.3804, 0.031125816, -0.017009776, -1517451.4, 204318.44, 0.0, 5.094141, 4.96065 
6.671802e+2, 1.2926756e+2, -1480494.6, -1676410.0, 7499.022, 0.019740468, -0.016173208, -1480208.0, 192963.36, 0.0, 5.0903025, 4.960619 
6.6704005e+2, 1.3422644e+2, -1443172.3, -1633567.9, 7151.6147, 0.0084515065, -0.014908682, -1442904.0, 181668.86, 0.0, 5.086465, 4.9605875 
6.668999e+2, 1.3918522e+2, -1407790.0, -1594897.9, 6632.846, -0.0026565176, -0.012564352, -1407555.3, 168420.1, 0.0, 5.082631, 4.9591494 
6.667564e+2, 1.4414358e+2, -1367987.3, -1548351.9, 1365.1199, -0.008871266, -0.002405256, -1367977.0, 159407.06, 0.0, 5.07896, 4.9602146 
6.6660976e+2, 1.49102e+2, -1330273.5, -1505109.4, 1229.5526, -0.014982397, -0.0035536578, -1330264.8, 148528.11, 0.0, 5.0751815, 4.9602184 
6.664632e+2, 1.5406041e+2, -1292526.3, -1461858.1, 1084.0392, -0.021132836, -0.004756883, -1292519.3, 137682.73, 0.0, 5.0714054, 4.960204 
6.663166e+2, 1.5901875e+2, -1256119.4, -1421614.4, 606.564, -0.026820458, -0.0056174356, -1256117.1, 125494.59, 0.0, 5.067643, 4.9591656 
6.661678e+2, 1.6397633e+2, -1217178.9, -1377101.0, -3082.4734, -0.026819754, -0.0010544617, -1217119.5, 115909.22, 0.0, 5.0640173, 4.9595227 
6.6601694e+2, 1.6893399e+2, -1179004.5, -1333332.1, -3294.2095, -0.025146594, -0.0030464018, -1178934.3, 105510.85, 0.0, 5.0603037, 4.959587 
6.6586614e+2, 1.7389165e+2, -1140867.4, -1289703.5, -3502.2644, -0.023359, -0.0051519214, -1140785.0, 95076.41, 0.0, 5.0565934, 4.9595838 
6.657154e+2, 1.7884932e+2, -1103598.4, -1247989.1, -3814.0688, -0.021629216, -0.006793805, -1103497.6, 83779.766, 0.0, 5.052884, 4.958916 
6.655625e+2, 1.8380669e+2, -1065148.3, -1204420.1, -6466.458, -0.021937048, -0.00007624244, -1064848.6, 73846.34, 0.0, 5.049243, 4.9588456 
6.65408e+2, 1.8876402e+2, -1026389.5, -1159753.6, -6697.7275, -0.022630563, -0.00084735657, -1026053.94, 64058.438, 0.0, 5.0455637, 4.959114 
6.652536e+2, 1.9372135e+2, -987942.8, -1115821.9, -6914.797, -0.023389367, -0.0015984912, -987570.0, 53959.637, 0.0, 5.0418878, 4.959112 
6.650993e+2, 1.9867872e+2, -950457.1, -1074011.9, -7067.0483, -0.024237197, -0.0019170349, -950054.2, 42892.637, 0.0, 5.038212, 4.958368 
6.649442e+2, 2.0363492e+2, -913702.4, -1034027.25, -8277.699, -0.025325567, 0.005535778, -913135.56, 31242.115, 0.0, 5.0345426, 4.9569836 
6.6478825e+2, 2.0859063e+2, -874659.2, -988783.6, -8421.222, -0.026309503, 0.005594015, -874041.1, 21773.506, 0.0, 5.0308347, 4.9573774 
6.646324e+2, 2.1354632e+2, -836100.94, -944639.6, -8529.31, -0.027321495, 0.0055474686, -835434.75, 11816.769, 0.0, 5.0271287, 4.9573736 
6.644767e+2, 2.1850201e+2, -798232.7, -902040.44, -8582.261, -0.028418053, 0.0058201253, -797527.94, 1160.4806, 0.0, 5.023422, 4.9568186 
6.643211e+2, 2.2345667e+2, -760887.7, -860781.2, -8824.114, -0.027104676, 0.012097647, -760114.2, -9982.025, 0.0, 5.019751, 4.9557543 
6.6416544e+2, 2.2841088e+2, -721118.44, -814483.25, -9150.221, -0.023515746, 0.0073931315, -720230.1, -18651.586, 0.0, 5.0161166, 4.9563937 
6.6401e+2, 2.3336513e+2, -682145.25, -769963.06, -9381.9795, -0.01981958, 0.0024818184, -681154.1, -28129.467, 0.0, 5.0124817, 4.9564 
6.6385454e+2, 2.3831935e+2, -643872.9, -727059.75, -9572.301, -0.01598983, -0.0024260506, -642785.6, -38314.836, 0.0, 5.0088496, 4.955821 
6.636996e+2, 2.4327232e+2, -607858.94, -688770.4, -8586.41, -0.013468701, 0.003571675, -606957.75, -51026.426, 0.0, 5.0051613, 4.9536057 
6.635453e+2, 2.4822502e+2, -567782.25, -641537.4, -8676.841, -0.012362816, 0.0018628266, -566775.2, -59379.492, 0.0, 5.001443, 4.954518 
6.6339105e+2, 2.5317773e+2, -528838.5, -596874.7, -8746.213, -0.011293865, -0.000015813108, -527732.1, -68872.31, 0.0, 4.9977264, 4.954518 
6.632368e+2, 2.581305e+2, -490072.1, -552668.06, -8778.099, -0.010280679, -0.0016970265, -488864.4, -78540.58, 0.0, 4.9940114, 4.9543347 
6.6308385e+2, 2.6308194e+2, -454469.56, -514843.3, -6571.8315, -0.010129091, 0.0075479182, -453762.47, -91963.6, 0.0, 4.990211, 4.9518723 
6.629325e+2, 2.6803362e+2, -413122.66, -464442.56, -6684.22, -0.010645729, 0.0029306316, -412266.38, -98996.04, 0.0, 4.9863997, 4.953845 
6.6278124e+2, 2.729853e+2, -374270.7, -419637.7, -6889.075, -0.01124254, -0.003338283, -373247.66, -108505.66, 0.0, 4.9825735, 4.9538517 
6.626301e+2, 2.77937e+2, -335425.9, -374893.16, -6936.191, -0.0118510425, -0.009825943, -334242.38, -118028.62, 0.0, 4.978746, 4.9538136 
6.6248107e+2, 2.82887e+2, -300618.25, -339560.34, -4251.603, -0.008705331, -0.0025334677, -300159.47, -132457.23, 0.0, 4.9750605, 4.950289 
6.623343e+2, 2.878383e+2, -256996.53, -286445.0, -4465.823, -0.0028708894, -0.0020612965, -256334.19, -137154.88, 0.0, 4.971702, 4.952948 
6.621877e+2, 2.9278982e+2, -216693.9, -240788.42, -4703.4917, 0.0030911646, -0.0014284903, -215808.3, -145154.11, 0.0, 4.9683104, 4.9529696 
6.6204107e+2, 2.9774144e+2, -176957.44, -196254.39, -4789.7075, 0.009104736, 0.00013785476, -175834.0, -153706.03, 0.0, 4.9648767, 4.9525843 
6.618992e+2, 3.0270183e+2, -138395.23, -117567.555, 2342.3708, 0.0058788625, 0.0036860234, -117307.375, -117307.375, 0.0, 4.9607153, 4.9736524 
6.6176546e+2, 3.0767456e+2, -146040.53, -112544.31, 2816.4897, -0.0048450762, -0.027239485, -112309.14, -112309.14, 0.0, 4.9563513, 4.9773235 
6.6163206e+2, 3.1264713e+2, -158225.14, -117673.7, 1904.1093, -0.014738041, -0.06452176, -117584.49, -117584.49, 0.0, 4.951898, 4.9773855 
6.6150033e+2, 3.176313e+2, -180608.4, -145042.19, 2340.2048, -0.011527994, 0.01841, -144888.88, -144888.88, 0.0, 4.947228, 4.9695396 
6.724123e+2, 1.2444955e+2, -1517746.3, -1720084.3, 5004.706, 0.025393782, -0.01692558, -1517622.6, 202763.27, 0.0, 5.0942407, 4.960355 
6.722684e+2, 1.2940802e+2, -1480500.6, -1677299.6, 4656.802, 0.01651773, -0.017109405, -1480390.4, 191401.48, 0.0, 5.090396, 4.960327 
6.721245e+2, 1.3436651e+2, -1443194.9, -1634451.9, 4316.847, 0.0075701117, -0.016757432, -1443097.5, 180100.23, 0.0, 5.0865517, 4.9603 
6.7198074e+2, 1.3932495e+2, -1407671.6, -1595428.5, 3755.8591, -0.0015460697, -0.015170349, -1407596.5, 167007.75, 0.0, 5.0827084, 4.958982 
6.7183346e+2, 1.442832e+2, -1367710.3, -1548451.8, -1424.5002, -0.006674734, -0.005797283, -1367699.0, 158315.05, 0.0, 5.0790243, 4.9601946 
6.716832e+2, 1.492415e+2, -1330038.5, -1505293.3, -1554.5083, -0.011645895, -0.007630655, -1330024.8, 147398.86, 0.0, 5.075245, 4.960171 
6.71533e+2, 1.5419978e+2, -1292293.3, -1462042.4, -1700.3793, -0.016695125, -0.009509927, -1292276.3, 136557.11, 0.0, 5.071468, 4.960157 
6.713827e+2, 1.5915802e+2, -1255919.1, -1421831.5, -2219.7644, -0.02148862, -0.010772136, -1255889.4, 124354.24, 0.0, 5.0677004, 4.9591093 
6.7122996e+2, 1.6411574e+2, -1217056.0, -1377370.6, -5858.107, -0.02267457, -0.00444431, -1216842.3, 114817.64, 0.0, 5.06406, 4.9594502 
6.710752e+2, 1.6907354e+2, -1178915.9, -1333675.1, -6060.6816, -0.02283012, -0.0042538196, -1178678.9, 104396.81, 0.0, 5.060347, 4.959491 
6.7092055e+2, 1.7403132e+2, -1140779.0, -1290048.6, -6270.101, -0.022887675, -0.0041700783, -1140516.0, 93975.484, 0.0, 5.0566363, 4.959486 
6.707659e+2, 1.7898908e+2, -1103475.1, -1248270.6, -6625.228, -0.022846937, -0.003848038, -1103172.6, 82734.586, 0.0, 5.0529284, 4.958841 
6.706093e+2, 1.8394633e+2, -1065006.1, -1204668.9, -9240.157, -0.022386357, 0.002027352, -1064397.5, 72928.92, 0.0, 5.0492887, 4.9587836 
6.704513e+2, 1.8890338e+2, -1026311.25, -1160131.1, -9460.517, -0.021558471, -0.00030862674, -1025645.75, 63100.81, 0.0, 5.045608, 4.9590087 
6.702934e+2, 1.9386046e+2, -987868.8, -1116200.9, -9677.401, -0.020826837, -0.0025818376, -987143.2, 53023.45, 0.0, 5.0419307, 4.959007 
6.701355e+2, 1.9881755e+2, -950351.5, -1074317.6, -9860.532, -0.02023859, -0.0043500783, -949572.06, 42014.555, 0.0, 5.0382533, 4.9582872 
6.699768e+2, 2.0377383e+2, -913376.5, -1033857.0, -11079.851, -0.020875305, 0.0032705604, -912366.0, 30650.963, 0.0, 5.0345845, 4.957063 
6.6981715e+2, 2.0872967e+2, -874399.2, -988757.06, -11229.043, -0.021796636, 0.0045214617, -873307.0, 21145.172, 0.0, 5.030877, 4.957409 
6.696576e+2, 2.1368553e+2, -835841.7, -944615.75, -11338.552, -0.022752725, 0.005683899, -834672.3, 11215.078, 0.0, 5.027171, 4.9574046 
6.6949815e+2, 2.1864139e+2, -797959.3, -901989.3, -11389.241, -0.023761148, 0.0071747107, -796727.0, 595.4967, 0.0, 5.023464, 4.956859 
6.693389e+2, 2.2359613e+2, -760722.2, -861015.75, -11622.475, -0.022729188, 0.014237562, -759392.94, -10627.189, 0.0, 5.019801, 4.955696 
6.691795e+2, 2.2855031e+2, -721031.44, -814894.56, -11932.371, -0.020147033, 0.010203265, -719538.3, -19324.854, 0.0, 5.016167, 4.9562745 
6.6902024e+2, 2.3350449e+2, -682057.44, -770378.06, -12164.636, -0.017486162, 0.0059519676, -680412.56, -28751.607, 0.0, 5.012532, 4.9562793 
6.688611e+2, 2.3845865e+2, -643781.7, -727467.25, -12356.019, -0.014735491, 0.0016242021, -641995.44, -38886.836, 0.0, 5.0089, 4.9557033 
6.6870254e+2, 2.4341153e+2, -607420.6, -688389.2, -11425.845, -0.0124263195, 0.0063726255, -605839.1, -51269.277, 0.0, 5.005209, 4.953762 
6.685445e+2, 2.4836415e+2, -567408.25, -641303.1, -11535.885, -0.010786491, 0.0027813378, -565649.2, -59614.926, 0.0, 5.001491, 4.9546237 
6.683865e+2, 2.533168e+2, -528465.06, -596641.7, -11606.8, -0.009201637, -0.00096863095, -526543.25, -69044.74, 0.0, 4.997774, 4.9546237 
6.682287e+2, 2.5826946e+2, -489711.03, -552464.3, -11637.718, -0.0076681757, -0.0044470862, -487622.3, -78659.78, 0.0, 4.9940596, 4.954431 
6.6807204e+2, 2.632212e+2, -454175.56, -514817.44, -9496.999, -0.0070016356, 0.0068612536, -452723.03, -92288.516, 0.0, 4.9902625, 4.951905 
6.6791695e+2, 2.681733e+2, -412892.9, -464577.03, -9640.17, -0.0072860112, 0.006479573, -411153.34, -99251.305, 0.0, 4.9864535, 4.9538207 
6.677619e+2, 2.731254e+2, -373983.44, -419744.5, -9812.904, -0.0076784813, 0.0044692736, -371967.97, -108598.1, 0.0, 4.9826474, 4.9538283 
6.6760695e+2, 2.7807742e+2, -335106.6, -375040.0, -9786.957, -0.00810863, 0.0021051543, -332837.0, -117999.03, 0.0, 4.978843, 4.953765 
6.674544e+2, 2.8302667e+2, -300117.34, -339873.78, -6753.755, -0.0056455038, 0.0023218251, -299001.38, -132666.73, 0.0, 4.9752636, 4.9501357 
6.673042e+2, 2.879764e+2, -256466.06, -286870.0, -7047.3076, -0.0009815148, -0.010788911, -254912.0, -137084.66, 0.0, 4.9719405, 4.95274 
6.671541e+2, 2.9292637e+2, -215954.66, -241106.72, -7372.961, 0.003805345, -0.023711033, -213952.72, -144634.84, 0.0, 4.968622, 4.9527664 
6.6700405e+2, 2.9787645e+2, -176123.2, -196916.16, -7617.0645, 0.0086661, -0.03545709, -173631.45, -152824.38, 0.0, 4.965299, 4.952209 
6.668588e+2, 3.0283898e+2, -137779.47, -119133.42, -1095.9912, 0.008532567, -0.004230033, -119069.23, -119069.23, 0.0, 4.9611983, 4.9729285 
6.667215e+2, 3.078166e+2, -145121.61, -114089.42, -577.1818, 0.0045021297, 0.021110766, -114078.69, -114078.69, 0.0, 4.9569645, 4.976553 
6.665847e+2, 3.1279397e+2, -156645.95, -118963.5, -1293.8004, 0.0014222468, 0.040430505, -118919.13, -118919.13, 0.0, 4.9527574, 4.9766016 
6.6644734e+2, 3.177154e+2, -103947.25, 24654.885, 2678.644, -0.011723609, -0.5242876, 24710.652, 24710.652, 0.0, 4.9482555, 5.0312448 
6.7750406e+2, 1.2459044e+2, -1518257.1, -1721239.9, 2024.4886, 0.019746145, -0.016321043, -1518237.0, 200764.72, 0.0, 5.0941634, 4.960058 
6.773565e+2, 1.295485e+2, -1480507.5, -1678190.0, 1808.5454, 0.013355862, -0.017633304, -1480490.9, 189921.4, 0.0, 5.090491, 4.9600344 
6.7720896e+2, 1.3450663e+2, -1443218.6, -1635336.6, 1476.0421, 0.0067301607, -0.01829897, -1443207.3, 178615.36, 0.0, 5.08664, 4.9600105 
6.770615e+2, 1.3946469e+2, -1407508.5, -1595868.5, 850.7848, -0.0004124678, -0.017645342, -1407504.6, 165728.55, 0.0, 5.0827875, 4.958844 
6.7691046e+2, 1.444228e+2, -1367475.4, -1548643.5, -4199.721, -0.0044357753, -0.009219005, -1367378.0, 157265.95, 0.0, 5.07909, 4.960144 
6.767565e+2, 1.4938098e+2, -1329801.5, -1505479.6, -4338.595, -0.008247268, -0.011766451, -1329694.5, 146359.8, 0.0, 5.07531, 4.9601226 
6.7660266e+2, 1.5433913e+2, -1292058.4, -1462228.9, -4484.823, -0.01217511, -0.014353548, -1291940.3, 135524.55, 0.0, 5.0715327, 4.9601088 
6.7644876e+2, 1.592973e+2, -1255730.9, -1422076.3, -5057.955, -0.01614492, -0.015914913, -1255577.1, 123298.36, 0.0, 5.067759, 4.959044 
6.7629206e+2, 1.6425516e+2, -1216933.0, -1377653.3, -8635.201, -0.018647725, -0.007628918, -1216470.4, 113820.48, 0.0, 5.064106, 4.959374 
6.7613333e+2, 1.6921307e+2, -1178823.6, -1334022.1, -8826.14, -0.020620542, -0.0052823876, -1178323.3, 103382.91, 0.0, 5.060392, 4.9593925 
6.759748e+2, 1.7417099e+2, -1140686.9, -1290397.6, -9036.923, -0.022511877, -0.0030365284, -1140143.4, 92978.125, 0.0, 5.0566816, 4.959388 
6.758163e+2, 1.7912886e+2, -1103348.3, -1248558.4, -9434.018, -0.024096992, -0.0008275664, -1102738.0, 81798.97, 0.0, 5.0529747, 4.9587636 
6.756561e+2, 1.8408595e+2, -1064878.0, -1204958.1, -12013.21, -0.02276595, 0.004122821, -1063855.3, 72102.54, 0.0, 5.0493364, 4.958708 
6.7549455e+2, 1.8904275e+2, -1026229.94, -1160512.5, -12223.615, -0.020402621, 0.00016194792, -1025126.3, 62254.56, 0.0, 5.0456543, 4.9589024 
6.753331e+2, 1.9399956e+2, -987791.75, -1116583.6, -12440.316, -0.018166414, -0.0036927133, -986601.1, 52202.66, 0.0, 5.0419755, 4.9589005 
6.751717e+2, 1.9895639e+2, -950236.75, -1074614.6, -12642.8955, -0.016165085, -0.0068774675, -948964.6, 41261.836, 0.0, 5.038297, 4.95821 
6.750092e+2, 2.0391273e+2, -913059.6, -1033719.94, -13891.45, -0.016446656, 0.0011909393, -911481.0, 30175.072, 0.0, 5.0346293, 4.9571323 
6.748459e+2, 2.0886874e+2, -874135.4, -988734.6, -14035.738, -0.01728946, 0.0035984982, -872441.3, 20648.219, 0.0, 5.0309215, 4.957439 
6.746827e+2, 2.1382475e+2, -835578.56, -944595.9, -14146.668, -0.018175526, 0.0059327795, -833772.7, 10750.364, 0.0, 5.0272155, 4.957434 
6.7451954e+2, 2.1878076e+2, -797702.56, -901990.94, -14212.828, -0.019086685, 0.008595671, -795800.25, 156.25177, 0.0, 5.0235095, 4.956882 
6.743566e+2, 2.237356e+2, -760559.0, -861264.7, -14394.416, -0.018431293, 0.016413022, -758541.94, -11142.445, 0.0, 5.0198526, 4.955633 
6.741935e+2, 2.2868972e+2, -720940.94, -815309.75, -14712.403, -0.016820038, 0.012997927, -718700.44, -19851.902, 0.0, 5.016219, 4.9561543 
6.740305e+2, 2.3364383e+2, -681966.06, -770797.06, -14945.176, -0.015158982, 0.0093541015, -679519.06, -29221.553, 0.0, 5.0125847, 4.9561577 
6.738676e+2, 2.3859793e+2, -643683.06, -727867.5, -15133.624, -0.0134702325, 0.0055753835, -641045.2, -39298.52, 0.0, 5.008952, 4.9555883 
6.7370534e+2, 2.4355073e+2, -606986.6, -688031.4, -14272.854, -0.011354203, 0.009191637, -604546.5, -51338.125, 0.0, 5.0052586, 4.9539104 
6.7354363e+2, 2.4850328e+2, -567030.25, -641072.9, -14394.315, -0.009174875, 0.0036886937, -564330.4, -59657.49, 0.0, 5.001541, 4.9547286 
6.7338204e+2, 2.5345585e+2, -528087.7, -596412.8, -14466.772, -0.007067451, -0.001964538, -525150.8, -69013.61, 0.0, 4.997824, 4.954729 
6.732205e+2, 2.5840843e+2, -489359.47, -552295.94, -14496.479, -0.0050032893, -0.0072130845, -486180.94, -78579.71, 0.0, 4.99411, 4.954515 
6.730602e+2, 2.6336047e+2, -453880.2, -514800.9, -12420.327, -0.003869163, 0.0064219227, -451445.28, -92375.25, 0.0, 4.990316, 4.951935 
6.729013e+2, 2.68313e+2, -412664.38, -464717.88, -12598.051, -0.003911345, 0.010265003, -409775.7, -99242.03, 0.0, 4.9865074, 4.953796 
6.727424e+2, 2.7326548e+2, -373755.4, -419886.38, -12772.83, -0.004090895, 0.012496316, -370454.97, -108457.34, 0.0, 4.9827013, 4.9538035 
6.7258376e+2, 2.7821788e+2, -334936.84, -375320.34, -12672.373, -0.0043519456, 0.014072966, -331289.63, -117827.4, 0.0, 4.9788985, 4.9536905 
6.7242765e+2, 2.8316623e+2, -299982.28, -340371.44, -9344.711, -0.0026311276, 0.006405, -297925.0, -132956.89, 0.0, 4.9753385, 4.9499764 
6.72274e+2, 2.8811437e+2, -256395.02, -287526.38, -9665.535, 0.0008442308, -0.02032108, -253638.22, -137161.72, 0.0, 4.9720173, 4.9525237 
6.7212045e+2, 2.9306278e+2, -215881.42, -241760.6, -9991.519, 0.004426293, -0.046846576, -212472.81, -144490.02, 0.0, 4.968699, 4.9525504 
6.7196697e+2, 2.9801133e+2, -176366.61, -198285.16, -10317.067, 0.008080807, -0.07149334, -172274.39, -152787.13, 0.0, 4.965373, 4.951739 
6.718183e+2, 3.029763e+2, -138286.42, -121250.45, -4240.759, 0.0111992555, -0.009212015, -120253.18, -120253.18, 0.0, 4.9612775, 4.972184 
6.7167753e+2, 3.0795875e+2, -145643.66, -116365.664, -3773.6943, 0.013326367, 0.07171944, -115887.09, -115887.09, 0.0, 4.9570594, 4.9757495 
6.715372e+2, 3.1294098e+2, -157151.6, -121291.26, -4446.366, 0.015933644, 0.14667621, -120748.17, -120748.17, 0.0, 4.9528627, 4.975781 
6.713954e+2, 3.178591e+2, -91942.03, 52219.867, -1383.4288, -0.0013758045, -0.46208704, 52233.145, 52233.145, 0.0, 4.948114, 5.0416865 
6.825963e+2, 1.2473249e+2, -1516219.3, -1720610.8, 3863.25, 0.018450662, -0.01755015, -1516146.3, 201459.52, 0.0, 5.094991, 4.95985 
6.824449e+2, 1.2969024e+2, -1479458.1, -1678055.5, 3236.203, 0.012077144, -0.018514486, -1479405.4, 189615.02, 0.0, 5.0909724, 4.959829 
6.822936e+2, 1.3464801e+2, -1442299.4, -1635267.5, 2758.2117, 0.0060722507, -0.01916826, -1442259.9, 178174.97, 0.0, 5.087072, 4.9598074 
6.821423e+2, 1.3960573e+2, -1406687.3, -1595547.5, 1910.0753, 0.00014300394, -0.019013427, -1406667.9, 165181.89, 0.0, 5.0831156, 4.9587774 
6.8198746e+2, 1.445636e+2, -1366817.4, -1548305.1, -3184.521, -0.0026415174, -0.011592774, -1366761.6, 156501.36, 0.0, 5.0793376, 4.9601264 
6.8182975e+2, 1.4952157e+2, -1329359.5, -1505243.6, -3543.2556, -0.005257308, -0.014626392, -1329288.1, 145386.78, 0.0, 5.075482, 4.9601116 
6.816722e+2, 1.5447956e+2, -1291863.1, -1462127.4, -3895.2832, -0.007955955, -0.0174794, -1291774.0, 134312.81, 0.0, 5.0716205, 4.960097 
6.8151456e+2, 1.594376e+2, -1255759.5, -1422088.4, -4684.2007, -0.0109230755, -0.018814137, -1255627.8, 121870.86, 0.0, 5.0677614, 4.95904 
6.81354e+2, 1.6439547e+2, -1217149.0, -1377782.8, -8251.448, -0.014108692, -0.00936772, -1216726.3, 112187.79, 0.0, 5.064035, 4.9593678 
6.8119144e+2, 1.6935335e+2, -1179267.0, -1334339.4, -8533.668, -0.017205654, -0.005905446, -1178798.8, 101531.15, 0.0, 5.0602517, 4.9593577 
6.810291e+2, 1.7431124e+2, -1141312.5, -1290826.8, -8852.904, -0.02031043, -0.0024401322, -1140790.1, 90955.77, 0.0, 5.0564766, 4.959347 
6.808667e+2, 1.7926908e+2, -1104110.3, -1249051.9, -9401.909, -0.022994755, 0.0008592446, -1103503.0, 79659.195, 0.0, 5.0527163, 4.9587283 
6.807028e+2, 1.8422598e+2, -1065566.0, -1205403.0, -12072.772, -0.0211126, 0.0052151256, -1064531.4, 70053.76, 0.0, 5.0490985, 4.9586806 
6.805377e+2, 1.891825e+2, -1026859.75, -1161013.6, -12449.727, -0.017741922, 0.00016177249, -1025714.1, 60296.977, 0.0, 5.0454526, 4.9588413 
6.803727e+2, 1.9413905e+2, -988348.7, -1117060.0, -12831.404, -0.014394396, -0.0049095103, -987081.94, 50355.1, 0.0, 5.0418, 4.9588375 
6.802078e+2, 1.9909562e+2, -950730.7, -1075048.1, -13198.22, -0.01129011, -0.009198242, -949344.94, 39517.684, 0.0, 5.03814, 4.958155 
6.800416e+2, 2.0405199e+2, -913261.06, -1033743.7, -14681.905, -0.011437508, -0.00041748103, -911497.75, 28794.2, 0.0, 5.0345154, 4.957199 
6.798746e+2, 2.0900808e+2, -874256.94, -988813.3, -15035.5, -0.01227898, 0.003115604, -872316.4, 19408.008, 0.0, 5.030852, 4.9574676 
6.797077e+2, 2.139642e+2, -835591.9, -944624.2, -15360.908, -0.013148657, 0.0065861517, -833469.06, 9687.767, 0.0, 5.027181, 4.957465 
6.795409e+2, 2.1892029e+2, -797641.25, -902005.2, -15630.102, -0.014009532, 0.010337828, -795350.7, -761.52423, 0.0, 5.023503, 4.956907 
6.7937416e+2, 2.2387512e+2, -760547.44, -861469.6, -15916.433, -0.013819834, 0.018645188, -758096.75, -12064.284, 0.0, 5.019858, 4.95559 
6.792073e+2, 2.2882916e+2, -721007.4, -815674.06, -16369.726, -0.013153363, 0.015611248, -718256.6, -20773.395, 0.0, 5.016218, 4.956061 
6.790407e+2, 2.3378319e+2, -682060.56, -771190.3, -16730.17, -0.012463889, 0.012402998, -679023.7, -30089.814, 0.0, 5.012574, 4.9560604 
6.7887396e+2, 2.387372e+2, -643818.0, -728288.6, -17041.686, -0.011833536, 0.00910424, -640509.5, -40124.746, 0.0, 5.0089264, 4.955489 
6.787081e+2, 2.4368995e+2, -606776.06, -687696.75, -16380.942, -0.00997125, 0.011836591, -603585.8, -51739.027, 0.0, 5.0052323, 4.9540753 
6.785427e+2, 2.4864241e+2, -566861.8, -640877.25, -16660.555, -0.00733802, 0.0045547853, -563284.5, -59973.168, 0.0, 5.0015206, 4.9548454 
6.7837745e+2, 2.535949e+2, -527926.56, -596231.8, -16869.418, -0.004761397, -0.002941602, -523987.44, -69211.67, 0.0, 4.997801, 4.954844 
6.782122e+2, 2.5854743e+2, -489264.28, -552223.1, -17013.445, -0.0021998615, -0.009887224, -484960.84, -78721.086, 0.0, 4.994076, 4.954599 
6.780482e+2, 2.6349977e+2, -453846.28, -514883.6, -15122.599, -0.0006812173, 0.006274904, -450304.97, -92599.61, 0.0, 4.990281, 4.951966 
6.7788553e+2, 2.6845267e+2, -412655.28, -464936.22, -15395.482, -0.00050042244, 0.014296026, -408458.56, -99293.44, 0.0, 4.9864855, 4.953776 
6.77723e+2, 2.7340558e+2, -373700.1, -420090.53, -15625.417, -0.00047137545, 0.020747032, -368927.97, -108302.7, 0.0, 4.9826956, 4.953782 
6.775605e+2, 2.7835834e+2, -334881.6, -375683.7, -15431.37, -0.00057863485, 0.026052952, -329702.75, -117616.16, 0.0, 4.978922, 4.9535995 
6.7740095e+2, 2.8330567e+2, -299926.13, -340909.8, -11865.089, 0.0003463945, 0.009724197, -296738.94, -133136.27, 0.0, 4.97539, 4.949812 
6.772438e+2, 2.8825226e+2, -256399.1, -288208.53, -12225.619, 0.0026242281, -0.030649496, -252243.27, -137116.52, 0.0, 4.972068, 4.9523087 
6.770868e+2, 2.9319906e+2, -215889.28, -242444.72, -12564.165, 0.004994258, -0.07081412, -210887.06, -144238.23, 0.0, 4.9687476, 4.952336 
6.769299e+2, 2.9814616e+2, -176799.5, -199925.1, -13007.538, 0.007467909, -0.10771236, -170958.44, -152790.45, 0.0, 4.9654164, 4.951185 
6.7677784e+2, 3.0311388e+2, -138878.98, -123364.41, -7308.4365, 0.014234568, -0.011365582, -120463.89, -120463.89, 0.0, 4.9613256, 4.9714484 
6.7663366e+2, 3.0810118e+2, -146288.94, -118685.78, -6916.0894, 0.02266225, 0.12440238, -117049.875, -117049.875, 0.0, 4.9571147, 4.9749417 
6.764899e+2, 3.1308818e+2, -157799.66, -123671.56, -7546.6724, 0.031092217, 0.25420287, -122077.26, -122077.26, 0.0, 4.9529223, 4.9749556 
6.763466e+2, 3.1803584e+2, -124213.08, -22810.377, -5876.542, 0.039544623, -0.02308457, -22470.953, -22470.953, 0.0, 4.948225, 5.01379 
6.8769085e+2, 1.2488584e+2, -1505613.0, -1714922.4, 9987.048, 0.01593426, -0.021207958, -1505137.5, 210961.38, 0.0, 5.098753, 4.9598274 
6.875354e+2, 1.2984335e+2, -1469389.6, -1672628.5, 9606.626, 0.010290221, -0.020769047, -1468936.6, 198580.52, 0.0, 5.094552, 4.959812 
6.8738e+2, 1.3480087e+2, -1433104.0, -1630266.1, 9228.358, 0.004930929, -0.020025091, -1432673.0, 186262.16, 0.0, 5.090353, 4.9597974 
6.8722475e+2, 1.397583e+2, -1398004.4, -1590529.8, 8441.671, -0.000049303057, -0.018952927, -1397634.9, 172718.84, 0.0, 5.0861664, 4.9588857 
6.870659e+2, 1.447159e+2, -1358568.0, -1543447.1, 3646.971, -0.0017585609, -0.011914595, -1358496.1, 163273.66, 0.0, 5.082231, 4.9602566 
6.869044e+2, 1.4967361e+2, -1321542.5, -1500584.5, 3402.586, -0.0036455865, -0.015208346, -1321477.9, 151706.81, 0.0, 5.078229, 4.960249 
6.8674296e+2, 1.5463133e+2, -1284455.8, -1457655.4, 3161.9707, -0.0055987374, -0.018261714, -1284398.1, 140201.28, 0.0, 5.0742292, 4.960241 
6.865815e+2, 1.5958913e+2, -1248505.4, -1417271.8, 2419.8467, -0.0077887997, -0.019726908, -1248470.6, 127542.89, 0.0, 5.0702324, 4.9593673 
6.86417e+2, 1.6454692e+2, -1210458.4, -1373302.4, -837.65704, -0.010200382, -0.0108524915, -1210454.1, 116975.414, 0.0, 5.0663285, 4.959665 
6.862506e+2, 1.6950466e+2, -1173088.6, -1330084.1, -931.7525, -0.012696973, -0.007815969, -1173083.1, 105763.25, 0.0, 5.0623655, 4.9596677 
6.8608433e+2, 1.744624e+2, -1135673.9, -1286836.1, -1045.4185, -0.0152402045, -0.004764655, -1135666.6, 94596.71, 0.0, 5.058406, 4.959657 
6.859182e+2, 1.7942005e+2, -1099032.6, -1245392.4, -1391.8479, -0.017425701, -0.0018002582, -1099019.5, 82661.28, 0.0, 5.0544653, 4.959012 
6.857505e+2, 1.8437688e+2, -1060943.9, -1202253.1, -3749.3975, -0.01593861, 0.0035740861, -1060844.5, 72260.836, 0.0, 5.050756, 4.958833 
6.855817e+2, 1.8933325e+2, -1022426.25, -1158004.9, -4040.0278, -0.013301291, -0.000012101004, -1022305.94, 62227.945, 0.0, 5.0470586, 4.958973 
6.854129e+2, 1.9428961e+2, -984040.3, -1114103.4, -4338.373, -0.010602352, -0.0037340098, -983895.75, 52066.656, 0.0, 5.043364, 4.958974 
6.8524426e+2, 1.9924602e+2, -946448.44, -1071963.4, -4649.129, -0.00801654, -0.0068436186, -946276.5, 41114.145, 0.0, 5.0396686, 4.9583554 
6.850744e+2, 2.0420216e+2, -909080.4, -1030533.3, -5946.677, -0.007845669, 0.00148772, -908789.9, 30031.98, 0.0, 5.0359783, 4.9574733 
6.849038e+2, 2.0915794e+2, -870314.56, -985796.8, -6168.443, -0.008018921, 0.004166131, -869986.0, 20270.797, 0.0, 5.032252, 4.9577065 
6.847332e+2, 2.1411374e+2, -831806.56, -941672.5, -6368.8345, -0.008235708, 0.0069068912, -831438.56, 10253.032, 0.0, 5.0285273, 4.957709 
6.845628e+2, 2.1906954e+2, -793977.0, -899083.44, -6527.9297, -0.008442538, 0.00988332, -793573.1, -446.74503, 0.0, 5.0248036, 4.9571624 
6.843924e+2, 2.2402418e+2, -757209.7, -858738.56, -6717.2397, -0.008258719, 0.018054646, -756767.25, -12195.215, 0.0, 5.0210557, 4.9558268 
6.842218e+2, 2.2897798e+2, -718110.44, -813252.94, -7097.8296, -0.008004576, 0.015676543, -717583.9, -21558.467, 0.0, 5.0172853, 4.956252 
6.8405133e+2, 2.3393181e+2, -679526.06, -768928.4, -7382.1465, -0.0077375225, 0.013139905, -678920.6, -31441.912, 0.0, 5.013515, 4.9562554 
6.838809e+2, 2.3888561e+2, -641608.94, -726131.56, -7602.451, -0.007558678, 0.010565954, -640930.56, -41998.426, 0.0, 5.0097466, 4.9557037 
6.8371123e+2, 2.438382e+2, -604570.1, -685242.0, -6899.618, -0.006160481, 0.013493543, -603984.25, -53588.6, 0.0, 5.005997, 4.9544196 
6.8354213e+2, 2.4879047e+2, -564812.56, -638624.75, -7263.807, -0.0039378405, 0.0061633918, -564104.56, -62242.613, 0.0, 5.0022573, 4.955135 
6.8337303e+2, 2.5374272e+2, -525931.1, -593990.6, -7551.5366, -0.0016652568, -0.0014996437, -525103.3, -71775.17, 0.0, 4.998517, 4.9551406 
6.832041e+2, 2.5869507e+2, -487343.63, -550086.06, -7775.768, 0.0007227401, -0.008631957, -486394.3, -81600.49, 0.0, 4.99478, 4.954867 
6.830364e+2, 2.6364726e+2, -451970.8, -512774.8, -5984.481, 0.0023277996, 0.0079743955, -451387.4, -95126.56, 0.0, 4.9909735, 4.952231 
6.828699e+2, 2.6860002e+2, -410985.9, -463032.1, -6451.633, 0.0027406425, 0.016460797, -410198.1, -102475.55, 0.0, 4.987128, 4.953994 
6.827035e+2, 2.7355275e+2, -372231.6, -418261.13, -6842.979, 0.003074306, 0.023802185, -371235.84, -112051.695, 0.0, 4.9832644, 4.9540076 
6.8253726e+2, 2.7850538e+2, -333780.53, -374051.5, -6765.5396, 0.0033039572, 0.02998413, -332674.3, -122027.46, 0.0, 4.979368, 4.9538126 
6.8237406e+2, 2.8345224e+2, -299344.2, -339288.56, -2882.878, 0.0035643717, 0.010630655, -299137.2, -136969.69, 0.0, 4.9756083, 4.950134 
6.822134e+2, 2.883983e+2, -256563.28, -287108.44, -3178.9402, 0.0047521284, -0.033397224, -256235.95, -142539.02, 0.0, 4.972051, 4.952554 
6.8205285e+2, 2.9334435e+2, -216754.92, -241705.97, -3437.024, 0.006119629, -0.07834436, -216290.13, -151064.25, 0.0, 4.9684863, 4.9525633 
6.8189234e+2, 2.9829073e+2, -178756.89, -200311.73, -3922.7134, 0.007744399, -0.119631335, -178065.2, -161313.1, 0.0, 4.964887, 4.9511294 
6.8173647e+2, 3.0325958e+2, -143567.53, -124636.94, 1170.8895, 0.017775428, -0.0072139623, -124564.79, -124564.79, 0.0, 4.959796, 4.9715004 
6.8158793e+2, 3.0824897e+2, -155121.75, -121642.26, 1958.971, 0.0320238, 0.15311751, -121528.02, -121528.02, 0.0, 4.9541345, 4.9750032 
6.814399e+2, 3.1323886e+2, -170941.44, -128309.93, 1885.4976, 0.04668516, 0.3149529, -128226.695, -128226.695, 0.0, 4.9484253, 4.975063 
6.8129474e+2, 3.1815577e+2, -113125.7, 35607.93, 5233.3584, 0.07759389, -0.2839301, 35791.844, 35791.844, 0.0, 4.9422383, 5.0378823 
6.9278705e+2, 1.2504366e+2, -1505641.5, -1715836.5, 6891.7285, 0.013474916, -0.023926614, -1505415.8, 209132.48, 0.0, 5.098833, 4.959539 
6.9262743e+2, 1.3000101e+2, -1469417.6, -1673532.8, 6513.5503, 0.008622193, -0.02210706, -1469210.0, 196759.13, 0.0, 5.0946307, 4.959527 
6.924679e+2, 1.3495837e+2, -1433131.4, -1631160.4, 6137.5215, 0.0039758314, -0.020004185, -1432941.4, 184448.4, 0.0, 5.0904303, 4.959515 
6.9230855e+2, 1.3991563e+2, -1397873.1, -1591083.8, 5316.0137, -0.000061704566, -0.018095165, -1397727.0, 171084.28, 0.0, 5.0862427, 4.958716 
6.9214565e+2, 1.448731e+2, -1358441.6, -1543926.4, 696.0382, -0.000896544, -0.011412989, -1358439.0, 161790.05, 0.0, 5.082298, 4.9601135 
6.919802e+2, 1.4983061e+2, -1321421.6, -1501057.5, 452.28986, -0.0021044968, -0.015014639, -1321420.5, 150225.33, 0.0, 5.078293, 4.9601083 
6.9181484e+2, 1.5478817e+2, -1284340.5, -1458122.3, 212.30351, -0.0034004177, -0.018376224, -1284340.3, 138722.17, 0.0, 5.0742903, 4.960103 
6.916494e+2, 1.5974581e+2, -1248158.5, -1417215.0, -626.799, -0.0049160584, -0.020169236, -1248156.1, 126322.03, 0.0, 5.0702877, 4.9594073 
6.914809e+2, 1.6470362e+2, -1210153.9, -1373242.6, -3765.9797, -0.0065321974, -0.011954994, -1210067.0, 115826.47, 0.0, 5.0663733, 4.959709 
6.9131064e+2, 1.6966136e+2, -1172786.4, -1330031.0, -3877.7441, -0.008385806, -0.009399085, -1172690.8, 104619.14, 0.0, 5.06241, 4.95971 
6.9114053e+2, 1.7461908e+2, -1135374.0, -1286785.0, -3992.8604, -0.010311446, -0.0068101897, -1135268.8, 93457.68, 0.0, 5.0584497, 4.9596996 
6.909705e+2, 1.7957675e+2, -1098799.1, -1245489.8, -4338.2124, -0.011996281, -0.004105454, -1098670.9, 81472.48, 0.0, 5.054511, 4.959003 
6.907989e+2, 1.8453363e+2, -1060928.6, -1202805.5, -6523.309, -0.011088354, 0.0026159668, -1060629.3, 70938.89, 0.0, 5.0508018, 4.9586678 
6.9062626e+2, 1.8948999e+2, -1022442.94, -1158630.0, -6818.837, -0.009416555, 0.000789367, -1022102.4, 60895.48, 0.0, 5.047105, 4.958783 
6.904537e+2, 1.9444636e+2, -984056.3, -1114729.5, -7117.9033, -0.007700758, -0.0011565257, -983669.75, 50757.777, 0.0, 5.0434103, 4.9587836 
6.902813e+2, 1.9940273e+2, -946366.9, -1072382.5, -7460.349, -0.00602391, -0.0025968992, -945926.75, 39929.996, 0.0, 5.039715, 4.9582367 
6.901077e+2, 2.0435879e+2, -908854.25, -1030642.2, -8769.673, -0.0054166494, 0.0048411787, -908226.0, 29062.713, 0.0, 5.0360246, 4.9574623 
6.899335e+2, 2.0931432e+2, -870159.56, -986058.7, -8983.938, -0.0047160783, 0.0058780187, -869467.3, 19258.027, 0.0, 5.032298, 4.9576435 
6.8975925e+2, 2.1426988e+2, -831651.6, -941936.2, -9184.75, -0.00407804, 0.00699738, -830891.94, 9269.876, 0.0, 5.0285735, 4.957645 
6.895852e+2, 2.1922545e+2, -793833.3, -899374.6, -9340.985, -0.0034708136, 0.008284171, -793012.94, -1414.5319, 0.0, 5.02485, 4.9570885 
6.89411e+2, 2.2418001e+2, -757117.8, -859168.0, -9613.936, -0.0032135153, 0.016606774, -756220.0, -13175.122, 0.0, 5.021105, 4.9557037 
6.8923664e+2, 2.2913378e+2, -718072.44, -813799.5, -9978.605, -0.0031915177, 0.015373841, -717043.3, -22544.178, 0.0, 5.0173345, 4.956089 
6.8906236e+2, 2.3408756e+2, -679487.2, -769474.94, -10264.583, -0.0031696593, 0.013983364, -678331.25, -32377.898, 0.0, 5.0135636, 4.956092 
6.888882e+2, 2.390413e+2, -641516.7, -726567.1, -10480.628, -0.0032428252, 0.012530616, -640244.2, -42836.63, 0.0, 5.0097966, 4.955579 
6.8871474e+2, 2.4399386e+2, -604428.25, -685603.7, -9750.766, -0.0023220945, 0.0157217, -603273.44, -54401.82, 0.0, 5.006052, 4.95432 
6.8854177e+2, 2.48946e+2, -564738.7, -639141.8, -10142.881, -0.0007882346, 0.0086323805, -563380.75, -63041.65, 0.0, 5.002312, 4.954982 
6.883689e+2, 2.5389814e+2, -525857.06, -594506.3, -10432.523, 0.00077868457, 0.0012399427, -524306.6, -72500.086, 0.0, 4.9985714, 4.954988 
6.881962e+2, 2.5885034e+2, -487321.78, -550717.7, -10641.014, 0.0024742102, -0.0055523734, -485583.34, -82309.87, 0.0, 4.9948344, 4.9546733 
6.880247e+2, 2.6380226e+2, -451920.13, -513367.97, -8922.311, 0.0041998466, 0.01010566, -450650.8, -95907.56, 0.0, 4.99103, 4.9520483 
6.8785447e+2, 2.6875454e+2, -410949.28, -463771.2, -9391.794, 0.005152072, 0.016516788, -409329.13, -103119.734, 0.0, 4.9872065, 4.95375 
6.876843e+2, 2.7370685e+2, -372078.84, -418942.5, -9758.144, 0.0060072076, 0.021791978, -370128.16, -112452.7, 0.0, 4.9833837, 4.953766 
6.875143e+2, 2.7865902e+2, -333366.97, -374479.72, -9547.865, 0.006680994, 0.025708053, -331257.8, -122115.04, 0.0, 4.9795547, 4.953629 
6.873475e+2, 2.8360614e+2, -298432.1, -338918.44, -5463.949, 0.0062410133, 0.009259428, -297707.66, -137047.23, 0.0, 4.9758534, 4.950208 
6.8718314e+2, 2.8855297e+2, -255589.27, -286825.13, -5710.3086, 0.0061959303, -0.027118651, -254578.08, -142396.56, 0.0, 4.972342, 4.952579 
6.8701893e+2, 2.9349986e+2, -215622.47, -241348.0, -5871.421, 0.0063022613, -0.064545825, -214345.78, -150643.4, 0.0, 4.9688334, 4.9525895 
6.868548e+2, 2.9844698e+2, -177743.13, -200505.77, -6440.7114, 0.0067590387, -0.0977782, -176047.1, -160826.58, 0.0, 4.9652877, 4.950937 
6.8669415e+2, 3.0341458e+2, -142001.1, -123432.94, -2592.2563, 0.017378673, 0.0011149402, -123077.83, -123077.83, 0.0, 4.9601626, 4.9718466 
6.8654007e+2, 3.0840078e+2, -153391.33, -120500.055, -1671.5504, 0.03247682, 0.12612411, -120415.32, -120415.32, 0.0, 4.9545865, 4.9752855 
6.8638635e+2, 3.1338757e+2, -168743.34, -126895.9, -1611.9972, 0.04800803, 0.25381023, -126833.9, -126833.9, 0.0, 4.949034, 4.975369 
6.8623513e+2, 3.1830847e+2, -105566.125, 49963.22, 28.693167, 0.07468, -0.32018307, 49963.223, 49963.223, 0.0, 4.942728, 5.043069 
6.978833e+2, 1.2520148e+2, -1505804.1, -1716803.3, 3803.2332, 0.011446211, -0.026342073, -1505735.6, 207262.03, 0.0, 5.098872, 4.9592524 
6.9771945e+2, 1.301587e+2, -1469491.9, -1674456.0, 3426.3638, 0.0072661634, -0.023071768, -1469434.6, 194986.39, 0.0, 5.0946965, 4.959242 
6.9755584e+2, 1.3511592e+2, -1433161.8, -1632059.1, 3049.5112, 0.0032758336, -0.01963367, -1433115.0, 182729.25, 0.0, 5.0905085, 4.9592314 
6.973923e+2, 1.4007297e+2, -1397751.3, -1591666.9, 2185.549, 0.0001063787, -0.017010285, -1397726.6, 169542.11, 0.0, 5.086322, 4.958536 
6.9722533e+2, 1.4503027e+2, -1358312.9, -1544408.8, -2258.8496, -0.00002327159, -0.010708729, -1358285.4, 160402.9, 0.0, 5.082367, 4.959969 
6.9705594e+2, 1.4998762e+2, -1321298.4, -1501533.6, -2501.9575, -0.0005519022, -0.01468697, -1321263.6, 148843.34, 0.0, 5.078359, 4.9599667 
6.9688666e+2, 1.54945e+2, -1284222.9, -1458592.3, -2741.3108, -0.0011903452, -0.018425258, -1284179.8, 137345.78, 0.0, 5.0743537, 4.959964 
6.9671714e+2, 1.5990251e+2, -1247831.6, -1417205.1, -3672.849, -0.0020094712, -0.020620083, -1247752.1, 125190.66, 0.0, 5.070345, 4.959432 
6.9654477e+2, 1.6486035e+2, -1209830.1, -1373158.1, -6706.754, -0.0028055233, -0.013047881, -1209555.1, 114802.21, 0.0, 5.0664206, 4.959762 
6.963706e+2, 1.6981807e+2, -1172480.1, -1329982.1, -6823.277, -0.0040109367, -0.01100545, -1172185.1, 103588.23, 0.0, 5.0624566, 4.9597516 
6.961966e+2, 1.7477578e+2, -1135070.3, -1286738.0, -6939.843, -0.00531419, -0.008911922, -1134753.4, 92436.1, 0.0, 5.058496, 4.959741 
6.960226e+2, 1.7973344e+2, -1098607.1, -1245690.4, -7277.602, -0.006559173, -0.006371987, -1098247.9, 80358.19, 0.0, 5.0545588, 4.9589596 
6.9584715e+2, 1.8469039e+2, -1060892.9, -1203324.9, -9296.134, -0.0062981853, 0.0018370007, -1060288.8, 69742.37, 0.0, 5.05085, 4.9585137 
6.956708e+2, 1.8964674e+2, -1022456.06, -1159259.1, -9596.608, -0.005585416, 0.0017299374, -1021786.2, 59675.684, 0.0, 5.0471525, 4.958592 
6.954945e+2, 1.9460309e+2, -984068.7, -1115359.6, -9896.3955, -0.004846003, 0.0015176719, -983326.94, 49565.69, 0.0, 5.0434585, 4.958592 
6.9531816e+2, 1.9955947e+2, -946261.3, -1072764.8, -10279.529, -0.0040421057, 0.0016947067, -945431.5, 38891.34, 0.0, 5.039763, 4.958131 
6.9514096e+2, 2.0451538e+2, -908649.25, -1030806.94, -11584.6045, -0.0029285455, 0.008166162, -907560.3, 28195.307, 0.0, 5.0360727, 4.9574323 
6.9496304e+2, 2.0947069e+2, -870000.8, -986324.75, -11798.498, -0.0013453193, 0.007497672, -868816.2, 18377.74, 0.0, 5.0323462, 4.957579 
6.9478524e+2, 2.1442603e+2, -831493.0, -942203.94, -11999.729, 0.00015697478, 0.0069312425, -830207.25, 8424.833, 0.0, 5.0286217, 4.95758 
6.946075e+2, 2.1938135e+2, -793704.3, -899714.94, -12181.873, 0.0015510189, 0.0065647406, -792322.5, -2251.929, 0.0, 5.024899, 4.956998 
6.944296e+2, 2.2433585e+2, -757036.2, -859629.4, -12480.286, 0.0018006763, 0.01532409, -755539.8, -14022.028, 0.0, 5.0211563, 4.95557 
6.942514e+2, 2.2928958e+2, -718030.4, -814350.1, -12858.554, 0.0015988011, 0.015203683, -716343.4, -23370.455, 0.0, 5.0173855, 4.9559245 
6.940733e+2, 2.342433e+2, -679444.4, -770025.7, -13146.192, 0.001381649, 0.014928423, -677575.06, -33147.05, 0.0, 5.013615, 4.955928 
6.9389534e+2, 2.39197e+2, -641433.56, -727033.6, -13323.489, 0.0010625246, 0.014548741, -639407.7, -43524.625, 0.0, 5.009848, 4.9554434 
6.9371814e+2, 2.441495e+2, -604275.5, -685956.8, -12631.8545, 0.0014981811, 0.017977888, -602366.6, -55018.96, 0.0, 5.0061088, 4.954224 
6.935414e+2, 2.4910152e+2, -564660.94, -639662.75, -13021.92, 0.0023411277, 0.011117381, -562464.4, -63647.984, 0.0, 5.0023694, 4.9548273 
6.933647e+2, 2.5405353e+2, -525779.1, -595025.94, -13313.477, 0.003202894, 0.00397744, -523307.66, -73022.55, 0.0, 4.998628, 4.954834 
6.931882e+2, 2.5900558e+2, -487300.38, -551362.4, -13497.209, 0.0042199697, -0.0024972092, -484572.78, -82819.484, 0.0, 4.9948907, 4.9544754 
6.93013e+2, 2.639572e+2, -451875.34, -513988.3, -11868.201, 0.0061352444, 0.012128878, -449684.88, -96458.914, 0.0, 4.9910893, 4.951857 
6.9283897e+2, 2.6890907e+2, -410967.84, -464542.66, -12358.608, 0.0076208543, 0.016453318, -408254.38, -103557.84, 0.0, 4.987266, 4.953505 
6.9266504e+2, 2.7386093e+2, -372095.16, -419710.8, -12727.201, 0.00899109, 0.019653741, -368906.8, -112739.695, 0.0, 4.9834433, 4.9535217 
6.9249123e+2, 2.7881265e+2, -333320.6, -375103.9, -12427.6, 0.0100815995, 0.021378515, -329903.7, -122264.734, 0.0, 4.979614, 4.953435 
6.923209e+2, 2.837601e+2, -298008.3, -338791.2, -8196.84, 0.008826576, 0.008323296, -296422.5, -137269.47, 0.0, 4.975927, 4.950274 
6.921529e+2, 2.887077e+2, -255215.36, -286831.4, -8467.099, 0.007490348, -0.02060072, -253090.58, -142424.7, 0.0, 4.9724193, 4.9525967 
6.91985e+2, 2.9365537e+2, -215240.39, -241345.13, -8623.272, 0.006251187, -0.050658453, -212649.08, -150470.5, 0.0, 4.9689136, 4.95261 
6.9181716e+2, 2.9860324e+2, -177884.36, -201606.47, -9593.597, 0.005504937, -0.07562001, -174490.19, -160801.56, 0.0, 4.9653473, 4.9505744 
6.9165176e+2, 3.0356938e+2, -141371.08, -122704.836, -6886.0874, 0.01671444, 0.006902853, -120439.45, -120439.45, 0.0, 4.9601912, 4.972171 
6.9149214e+2, 3.085522e+2, -152624.84, -119933.42, -5939.3086, 0.032013472, 0.09211779, -118887.83, -118887.83, 0.0, 4.9546933, 4.975521 
6.913329e+2, 3.135355e+2, -167760.7, -126274.35, -5762.258, 0.04738816, 0.17904037, -125488.87, -125488.87, 0.0, 4.949214, 4.9755945 
6.9117546e+2, 3.1848544e+2, -115852.33, 25626.365, -5163.402, 0.07023271, -0.09810297, 25814.559, 25814.559, 0.0, 4.9427543, 5.033992 
7.0297986e+2, 1.2536013e+2, -1503102.8, -1715408.8, 4424.792, 0.010172213, -0.030970331, -1503010.6, 208430.5, 0.0, 5.0998583, 4.959233 
7.0281184e+2, 1.3031727e+2, -1467478.8, -1673459.8, 4088.5852, 0.0063059353, -0.025808051, -1467397.6, 195467.94, 0.0, 5.095446, 4.959209 
7.0264393e+2, 1.352744e+2, -1431796.5, -1631440.4, 3749.1255, 0.0028454445, -0.020704404, -1431726.0, 182564.23, 0.0, 5.0910344, 4.959185 
7.024761e+2, 1.4023131e+2, -1396869.3, -1591141.0, 2906.4006, 0.0004064023, -0.016906293, -1396825.8, 168890.72, 0.0, 5.0866365, 4.958561 
7.0230496e+2, 1.4518856e+2, -1357901.3, -1544131.1, -1354.4908, 0.00065964396, -0.010042043, -1357891.4, 159245.66, 0.0, 5.0825157, 4.9599876 
7.021315e+2, 1.5014577e+2, -1321322.9, -1501492.9, -1639.2253, 0.0008894217, -0.0139086405, -1321308.0, 147249.38, 0.0, 5.078354, 4.959979 
7.019582e+2, 1.5510297e+2, -1284687.9, -1458786.3, -1927.6687, 0.0011477376, -0.017896064, -1284666.6, 135311.17, 0.0, 5.074193, 4.959971 
7.017848e+2, 1.600603e+2, -1248441.8, -1417267.0, -2978.6965, 0.0014083062, -0.020709299, -1248389.1, 123007.81, 0.0, 5.0700793, 4.9595385 
7.016084e+2, 1.6501804e+2, -1210174.0, -1373183.3, -6065.46, 0.0014528831, -0.013803446, -1209948.6, 112863.63, 0.0, 5.066263, 4.959832 
7.0143044e+2, 1.6997564e+2, -1172472.6, -1329839.3, -6414.1787, 0.00081625424, -0.012224361, -1172211.6, 102017.32, 0.0, 5.062421, 4.959823 
7.012526e+2, 1.7493322e+2, -1134750.8, -1286448.5, -6755.9517, 0.00007663186, -0.010547167, -1134450.5, 91195.125, 0.0, 5.0585675, 4.9598136 
7.010747e+2, 1.7989083e+2, -1098119.3, -1245436.1, -7291.1304, -0.0007898179, -0.0080450075, -1097759.4, 79303.31, 0.0, 5.05471, 4.958986 
7.0089537e+2, 1.848477e+2, -1060709.1, -1203605.8, -9289.854, -0.0010370528, 0.0014616982, -1060107.6, 68380.94, 0.0, 5.0509734, 4.958372 
7.007152e+2, 1.8980397e+2, -1022390.06, -1159612.8, -9734.891, -0.0010727826, 0.002769293, -1021702.94, 58218.266, 0.0, 5.047233, 4.9584475 
7.005351e+2, 1.9476022e+2, -984127.9, -1115792.4, -10179.321, -0.0011048324, 0.004014445, -983345.56, 48008.176, 0.0, 5.0434947, 4.958443 
7.0035505e+2, 1.9971651e+2, -946298.5, -1072968.9, -10751.207, -0.0009892597, 0.0055513764, -945392.5, 37393.016, 0.0, 5.039759, 4.9580812 
7.001741e+2, 2.0467226e+2, -908571.4, -1030866.0, -12221.777, 0.0004303545, 0.011104489, -907361.94, 26857.791, 0.0, 5.036088, 4.957426 
6.9999254e+2, 2.0962729e+2, -869859.6, -986420.44, -12649.798, 0.0026165287, 0.008849611, -868502.6, 17157.588, 0.0, 5.032393, 4.957549 
6.998111e+2, 2.1458235e+2, -831291.06, -942289.1, -13052.449, 0.0047933753, 0.006638149, -829776.9, 7323.7173, 0.0, 5.02869, 4.957547 
6.996297e+2, 2.1953739e+2, -793524.1, -899931.25, -13408.786, 0.006812749, 0.0047293757, -791860.44, -3319.1768, 0.0, 5.024981, 4.9569154 
6.99448e+2, 2.2449182e+2, -756790.2, -859891.06, -13946.162, 0.0069255377, 0.014145822, -754937.06, -14947.558, 0.0, 5.021272, 4.955459 
6.992661e+2, 2.2944547e+2, -717746.25, -814667.75, -14458.966, 0.00646975, 0.0150769595, -715635.25, -24189.445, 0.0, 5.0175266, 4.955784 
6.9908416e+2, 2.3439912e+2, -679117.56, -770335.56, -14901.061, 0.0059988867, 0.015877588, -676745.1, -33843.094, 0.0, 5.01377, 4.9557853 
6.989024e+2, 2.3935275e+2, -641061.75, -727273.56, -15203.648, 0.0054385066, 0.016527193, -638459.1, -44100.977, 0.0, 5.010006, 4.9553266 
6.987214e+2, 2.4430518e+2, -603913.6, -686141.56, -14685.777, 0.0053939694, 0.02023359, -601369.44, -55545.977, 0.0, 5.0062456, 4.9541397 
6.9854087e+2, 2.4925704e+2, -564466.9, -640062.06, -15253.53, 0.0055570817, 0.013638524, -561505.06, -64211.504, 0.0, 5.0024705, 4.9546866 
6.983604e+2, 2.5420892e+2, -525695.0, -595486.4, -15704.565, 0.005713691, 0.00675746, -522323.94, -73560.31, 0.0, 4.9986897, 4.9546914 
6.981801e+2, 2.5916082e+2, -487401.25, -552035.2, -16024.86, 0.0060599116, 0.0005774698, -483646.28, -83413.09, 0.0, 4.9949093, 4.954279 
6.980012e+2, 2.6411214e+2, -452016.22, -514663.47, -14582.95, 0.008176541, 0.014062657, -448788.0, -97079.016, 0.0, 4.9910855, 4.9516706 
6.978234e+2, 2.6906356e+2, -411110.2, -465344.9, -15173.829, 0.0101675745, 0.016274113, -407153.5, -103969.484, 0.0, 4.987283, 4.953266 
6.9764566e+2, 2.7401495e+2, -372195.3, -420499.66, -15580.837, 0.012034562, 0.017382905, -367605.72, -112946.63, 0.0, 4.9834747, 4.9532814 
6.9746816e+2, 2.7896625e+2, -333353.28, -375772.88, -15169.423, 0.013511877, 0.01701295, -328486.9, -122351.6, 0.0, 4.9796505, 4.9532337 
6.972942e+2, 2.8391406e+2, -297646.03, -338675.78, -10866.375, 0.011335675, 0.007811059, -294945.88, -137300.48, 0.0, 4.9759793, 4.9503436 
6.971226e+2, 2.8886247e+2, -254906.97, -286856.44, -11156.26, 0.008669258, -0.013823627, -251396.98, -142247.0, 0.0, 4.972475, 4.952616 
6.9695103e+2, 2.9381084e+2, -214929.48, -241365.73, -11320.932, 0.006045389, -0.03667241, -210744.1, -150089.53, 0.0, 4.9689693, 4.952631 
6.967795e+2, 2.987595e+2, -178321.17, -203219.84, -12902.221, 0.004172607, -0.053192552, -172841.39, -160684.45, 0.0, 4.965376, 4.950044 
6.9660914e+2, 3.0372393e+2, -140818.1, -122001.555, -11089.145, 0.016155412, 0.009852278, -116867.31, -116867.31, 0.0, 4.9601965, 4.972488 
6.9644415e+2, 3.0870333e+2, -151958.81, -119407.62, -10147.004, 0.031494457, 0.052163884, -116503.62, -116503.62, 0.0, 4.954768, 4.9757476 
6.962795e+2, 3.136831e+2, -166898.66, -125703.03, -9855.516, 0.046549916, 0.095183805, -123466.63, -123466.63, 0.0, 4.949355, 4.975811 
6.9611573e+2, 3.186614e+2, -125588.086, 2283.3965, -9484.637, 0.06353918, 0.11484177, 2983.074, 2983.074, 0.0, 4.942832, 5.025263 
7.080783e+2, 1.2553018e+2, -1493335.9, -1709288.1, 10514.196, 0.0068371296, -0.033304777, -1492825.3, 216949.11, 0.0, 5.103192, 4.9595447 
7.079058e+2, 1.3048725e+2, -1458310.4, -1667634.9, 10342.177, 0.004384574, -0.027992003, -1457800.6, 203399.11, 0.0, 5.098577, 4.959525 
7.077335e+2, 1.3544425e+2, -1423219.4, -1625905.8, 10170.298, 0.002208154, -0.022699913, -1422710.4, 189915.13, 0.0, 5.093964, 4.959506 
7.075612e+2, 1.4040112e+2, -1388739.0, -1585605.5, 9498.3, 0.00054223224, -0.018461123, -1388281.9, 175770.42, 0.0, 5.0893717, 4.9589753 
7.073857e+2, 1.4535846e+2, -1350268.8, -1538961.9, 5642.329, 0.0007199577, -0.010346373, -1350100.3, 165371.8, 0.0, 5.0851107, 4.9603457 
7.072082e+2, 1.5031572e+2, -1314052.6, -1496497.9, 5531.6675, 0.0012901783, -0.012899116, -1313885.1, 153007.08, 0.0, 5.080827, 4.960341 
7.070307e+2, 1.5527296e+2, -1277774.1, -1453962.1, 5418.569, 0.0019026332, -0.015634133, -1277607.6, 140704.94, 0.0, 5.0765457, 4.960336 
7.0685315e+2, 1.6023026e+2, -1241836.9, -1412502.3, 4574.1357, 0.0028230492, -0.017768225, -1241714.4, 128018.0, 0.0, 5.0723133, 4.95994 
7.0667285e+2, 1.6518779e+2, -1204013.1, -1368845.0, 1895.6641, 0.004007582, -0.01202403, -1203991.4, 117158.195, 0.0, 5.0683994, 4.9601336 
7.064912e+2, 1.701451e+2, -1166514.8, -1325589.5, 1702.1671, 0.004364741, -0.011653183, -1166496.5, 106072.42, 0.0, 5.06449, 4.9601293 
7.0630944e+2, 1.751024e+2, -1128956.5, -1282267.4, 1509.3416, 0.004606163, -0.01109638, -1128941.6, 95046.59, 0.0, 5.060583, 4.960125 
7.061278e+2, 1.8005973e+2, -1092445.1, -1241251.0, 1097.2366, 0.0045438637, -0.009424297, -1092437.1, 82970.6, 0.0, 5.0566754, 4.959324 
7.0594466e+2, 1.8501651e+2, -1055331.6, -1199569.3, -568.70935, 0.0042352513, 0.00036451773, -1055329.4, 71505.25, 0.0, 5.052844, 4.958702 
7.057606e+2, 1.899726e+2, -1017339.5, -1155842.5, -772.86176, 0.003974425, 0.0023004995, -1017335.2, 60933.496, 0.0, 5.049017, 4.9587307 
7.055767e+2, 1.9492868e+2, -979334.44, -1112147.6, -975.48706, 0.0037358205, 0.0042168694, -979327.3, 50375.508, 0.0, 5.045192, 4.9587264 
7.053929e+2, 1.9988479e+2, -941704.9, -1069351.9, -1309.9916, 0.0036798546, 0.00627164, -941691.44, 39444.934, 0.0, 5.0413766, 4.958393 
7.052081e+2, 2.0484026e+2, -904233.94, -1027594.5, -2604.6948, 0.004710472, 0.01172196, -904179.0, 28394.48, 0.0, 5.03767, 4.9576354 
7.050228e+2, 2.0979492e+2, -865581.25, -983247.5, -2974.3223, 0.006388833, 0.009328373, -865506.1, 18511.951, 0.0, 5.0339723, 4.9577293 
7.0483756e+2, 2.1474959e+2, -826992.6, -939100.75, -3340.9297, 0.008143692, 0.0068906406, -826893.2, 8569.348, 0.0, 5.030277, 4.9577327 
7.046525e+2, 2.1970424e+2, -789139.3, -896617.0, -3649.6892, 0.009802382, 0.0047407807, -789015.5, -2108.2788, 0.0, 5.026583, 4.957141 
7.044671e+2, 2.2465837e+2, -752371.0, -856430.7, -4040.7722, 0.00989328, 0.013808412, -752214.3, -13856.161, 0.0, 5.022867, 4.9557366 
7.042814e+2, 2.2961167e+2, -713400.6, -811330.75, -4402.9185, 0.009616576, 0.014457061, -713203.06, -23385.58, 0.0, 5.019117, 4.956024 
7.040958e+2, 2.3456497e+2, -674758.94, -766991.6, -4696.7124, 0.009321387, 0.015085807, -674520.4, -33243.613, 0.0, 5.0153666, 4.9560275 
7.039103e+2, 2.3951828e+2, -636642.3, -723878.4, -4843.9556, 0.008992109, 0.015661322, -636374.2, -43638.28, 0.0, 5.0116205, 4.955581 
7.037256e+2, 2.4447049e+2, -599656.5, -682951.3, -4276.265, 0.008965467, 0.020415893, -599437.56, -55233.957, 0.0, 5.0078306, 4.9543405 
7.0354116e+2, 2.4942207e+2, -560431.0, -637076.5, -4834.8447, 0.008820243, 0.015267378, -560127.25, -64450.54, 0.0, 5.003998, 4.954846 
7.033568e+2, 2.5437367e+2, -521810.06, -592569.1, -5257.3364, 0.008647688, 0.009744518, -521421.6, -74271.77, 0.0, 5.0001636, 4.954854 
7.031726e+2, 2.593253e+2, -483671.75, -549195.0, -5490.294, 0.008629202, 0.0046243733, -483214.88, -84592.18, 0.0, 4.9963307, 4.9544406 
7.0298994e+2, 2.64276e+2, -448223.2, -511599.06, -3985.0625, 0.010399829, 0.015746392, -447973.56, -97869.46, 0.0, 4.9924955, 4.951918 
7.0280826e+2, 2.6922667e+2, -407640.72, -462585.44, -4587.1665, 0.0122695565, 0.01462787, -407260.4, -105674.33, 0.0, 4.9886084, 4.953451 
7.0262665e+2, 2.741774e+2, -368988.47, -417888.97, -5058.619, 0.014190526, 0.012676172, -368470.66, -115402.77, 0.0, 4.98471, 4.9534593 
7.0244527e+2, 2.7912802e+2, -330461.94, -373291.56, -4701.47, 0.015782995, 0.009887714, -329951.9, -125401.61, 0.0, 4.9807673, 4.953427 
7.022674e+2, 2.840762e+2, -296255.3, -336673.97, -749.3889, 0.012834878, 0.007032161, -296241.4, -140184.27, 0.0, 4.9765162, 4.950637 
7.020919e+2, 2.8902534e+2, -255621.4, -285897.84, -1476.5208, 0.009248884, -0.004427807, -255549.56, -147994.88, 0.0, 4.9722795, 4.9528656 
7.019164e+2, 2.939745e+2, -217600.6, -241257.83, -2037.9241, 0.0057098176, -0.016913015, -217426.31, -158374.55, 0.0, 4.968072, 4.952887 
7.0174086e+2, 2.989238e+2, -182798.84, -203974.02, -4318.74, 0.0032880176, -0.023457395, -181951.89, -171404.44, 0.0, 4.9638515, 4.950263 
7.015659e+2, 3.03886e+2, -142433.66, -119695.61, -2952.5076, 0.016892008, 0.013379967, -119318.484, -119318.484, 0.0, 4.9593496, 4.9735203 
7.0139605e+2, 3.08862e+2, -151033.05, -116393.61, -2207.382, 0.034401014, 0.014785323, -116253.516, -116253.516, 0.0, 4.954896, 4.9766273 
7.0122635e+2, 3.138387e+2, -164228.39, -122159.43, -2099.1792, 0.05247987, 0.020611543, -122054.945, -122054.945, 0.0, 4.950139, 4.976605 
7.0105684e+2, 3.1880927e+2, -115721.5, 19045.469, -705.2455, 0.067546494, -0.056447193, 19049.16, 19049.16, 0.0, 4.9441986, 5.0306826 
7.131783e+2, 1.2570487e+2, -1492947.5, -1709326.4, 7120.3984, 0.0037024752, -0.03485877, -1492713.4, 215348.77, 0.0, 5.103263, 4.959554 
7.130013e+2, 1.3066192e+2, -1457926.1, -1667675.5, 6951.138, 0.0026694932, -0.029438868, -1457696.0, 201791.64, 0.0, 5.0986466, 4.959535 
7.128245e+2, 1.3561895e+2, -1422839.1, -1625949.0, 6782.0215, 0.0017601382, -0.024006581, -1422613.0, 188300.31, 0.0, 5.0940323, 4.959516 
7.126476e+2, 1.4057587e+2, -1388241.6, -1585382.6, 6114.7637, 0.0007171406, -0.01932768, -1388052.1, 174287.47, 0.0, 5.089438, 4.959073 
7.1246773e+2, 1.4553343e+2, -1349886.9, -1538889.9, 2491.269, 0.00075054046, -0.009954305, -1349854.1, 163903.33, 0.0, 5.0851674, 4.960394 
7.122859e+2, 1.5049088e+2, -1313668.1, -1496430.0, 2379.478, 0.0016364991, -0.01120481, -1313637.1, 151539.02, 0.0, 5.080885, 4.9603877 
7.121042e+2, 1.554483e+2, -1277386.9, -1453898.1, 2265.244, 0.0025359562, -0.012644608, -1277357.8, 139237.34, 0.0, 5.076605, 4.9603815 
7.1192235e+2, 1.6040571e+2, -1241435.9, -1412391.5, 1444.2705, 0.003989321, -0.013962767, -1241423.6, 126590.38, 0.0, 5.072372, 4.96 
7.117382e+2, 1.6536316e+2, -1203790.0, -1369026.9, -1009.89246, 0.0062636575, -0.009293973, -1203783.8, 115648.07, 0.0, 5.06845, 4.960096 
7.115526e+2, 1.703203e+2, -1166294.3, -1325772.3, -1204.124, 0.007629699, -0.010220694, -1166285.3, 104567.55, 0.0, 5.06454, 4.9600916 
7.113672e+2, 1.7527744e+2, -1128738.8, -1282451.0, -1397.6886, 0.008857134, -0.010943893, -1128726.0, 93547.43, 0.0, 5.060632, 4.9600873 
7.111817e+2, 1.8023466e+2, -1092159.8, -1241286.3, -1863.3375, 0.009548695, -0.010266312, -1092136.4, 81557.664, 0.0, 5.056723, 4.959338 
7.1099454e+2, 1.8519147e+2, -1055109.4, -1199707.8, -3436.8044, 0.009128779, -0.00027113082, -1055027.8, 70092.67, 0.0, 5.0528884, 4.958683 
7.108067e+2, 1.9014755e+2, -1017162.7, -1156079.5, -3640.5103, 0.00864726, 0.0021841635, -1017067.4, 59486.926, 0.0, 5.049061, 4.9586782 
7.10619e+2, 1.9510362e+2, -979157.3, -1112385.0, -3844.7588, 0.008165073, 0.0046257335, -979046.44, 48941.79, 0.0, 5.045236, 4.9586735 
7.104313e+2, 2.0005971e+2, -941504.8, -1069559.3, -4190.8374, 0.007845654, 0.007001174, -941367.8, 38054.12, 0.0, 5.041424, 4.958349 
7.102427e+2, 2.0501506e+2, -904293.44, -1028374.94, -5405.58, 0.008393237, 0.012538458, -904058.4, 26802.072, 0.0, 5.0377192, 4.957395 
7.1005356e+2, 2.0996948e+2, -865656.0, -984064.1, -5772.189, 0.009406854, 0.010298861, -865375.3, 16932.54, 0.0, 5.034022, 4.957476 
7.098646e+2, 2.149239e+2, -827065.94, -939918.4, -6139.5557, 0.010475049, 0.008030526, -826732.9, 7022.207, 0.0, 5.0303264, 4.957479 
7.096758e+2, 2.1987835e+2, -789104.8, -897204.6, -6472.742, 0.011435565, 0.0061192396, -788718.56, -3516.2578, 0.0, 5.0266333, 4.956967 
7.094866e+2, 2.248323e+2, -752248.9, -856838.9, -6875.8813, 0.0115695065, 0.01435929, -751798.75, -15144.155, 0.0, 5.022918, 4.955624 
7.0929724e+2, 2.2978534e+2, -713332.2, -811861.4, -7252.594, 0.01163477, 0.014111617, -712801.2, -24685.38, 0.0, 5.0191684, 4.955869 
7.0910794e+2, 2.3473841e+2, -674689.06, -767521.7, -7548.243, 0.011666825, 0.013865576, -674079.3, -34502.4, 0.0, 5.0154185, 4.9558725 
7.089187e+2, 2.3969147e+2, -636559.2, -724385.8, -7656.9077, 0.011688213, 0.013665004, -635896.6, -44858.723, 0.0, 5.0116735, 4.955433 
7.087302e+2, 2.446436e+2, -599729.2, -683854.6, -7235.469, 0.011756369, 0.019724024, -599111.4, -56604.875, 0.0, 5.007889, 4.954054 
7.085419e+2, 2.4959508e+2, -560529.75, -638038.6, -7779.6655, 0.011347728, 0.016377725, -559756.6, -65775.32, 0.0, 5.004056, 4.9545383 
7.0835376e+2, 2.5454655e+2, -521906.4, -593529.06, -8204.079, 0.010878915, 0.012646812, -520978.66, -75522.586, 0.0, 5.0002217, 4.954547 
7.081657e+2, 2.59498e+2, -483715.84, -550039.9, -8404.1875, 0.010509358, 0.008842096, -482667.5, -85736.484, 0.0, 4.996389, 4.9541736 
7.079792e+2, 2.6444823e+2, -448111.22, -512158.47, -6910.5264, 0.011759372, 0.016708137, -447374.06, -98956.93, 0.0, 4.992563, 4.9517493 
7.0779365e+2, 2.693982e+2, -407427.8, -463209.44, -7482.513, 0.013151904, 0.011231885, -406441.56, -106536.45, 0.0, 4.9887333, 4.9532337 
7.0760816e+2, 2.7434826e+2, -368587.5, -418420.7, -7854.258, 0.01456766, 0.0049700206, -367378.9, -115985.96, 0.0, 4.984901, 4.9532437 
7.0742285e+2, 2.7929837e+2, -329903.2, -373800.1, -7374.238, 0.015575415, -0.0009864252, -328697.5, -125817.08, 0.0, 4.9810247, 4.9531884 
7.072409e+2, 2.8424722e+2, -295657.44, -337215.5, -3657.4456, 0.0120610595, 0.0054544597, -295338.0, -140956.72, 0.0, 4.9767933, 4.950377 
7.07061e+2, 2.891973e+2, -255167.64, -286641.66, -4266.154, 0.008066484, 0.0071792393, -254599.64, -148729.44, 0.0, 4.9725327, 4.9525437 
7.068812e+2, 2.9414743e+2, -217288.03, -242053.86, -4706.758, 0.004071494, 0.007917037, -216423.67, -159064.97, 0.0, 4.968273, 4.952568 
7.0670134e+2, 2.9909748e+2, -181687.52, -202574.08, -6827.775, 0.0014296419, 0.010877094, -179653.6, -170805.64, 0.0, 4.963982, 4.950758 
7.065225e+2, 3.0405763e+2, -139272.9, -115334.98, -5083.31, 0.016440269, 0.018277097, -114300.25, -114300.25, 0.0, 4.959798, 4.974968 
7.063487e+2, 3.0903065e+2, -145977.81, -111461.76, -3848.052, 0.035223812, -0.0179676, -111037.96, -111037.96, 0.0, 4.95606, 4.977977 
7.061751e+2, 3.140044e+2, -156305.22, -116123.43, -3164.492, 0.05472278, -0.047728237, -115875.74, -115875.74, 0.0, 4.9523373, 4.977905 
7.060011e+2, 3.1897572e+2, -108632.42, 17199.922, -1409.4032, 0.06686498, -0.14858125, 17215.707, 17215.707, 0.0, 4.947553, 5.0286326 
7.182781e+2, 1.2587956e+2, -1492851.6, -1709485.8, 3582.7646, 0.0006675223, -0.03610502, -1492792.4, 213557.58, 0.0, 5.1032352, 4.9595704 
7.180967e+2, 1.3083662e+2, -1457703.6, -1667780.9, 3478.1035, 0.0011317226, -0.030698821, -1457646.0, 200129.33, 0.0, 5.098663, 4.959549 
7.179154e+2, 1.3579367e+2, -1422540.5, -1626024.6, 3356.0474, 0.0015167688, -0.025221206, -1422485.1, 186715.8, 0.0, 5.0940747, 4.9595275 
7.177339e+2, 1.4075065e+2, -1387793.6, -1585201.1, 2728.2266, 0.0009739951, -0.020104203, -1387756.0, 172870.7, 0.0, 5.0894933, 4.959163 
7.1754956e+2, 1.4570843e+2, -1349514.8, -1538827.5, -637.3583, 0.00082544365, -0.009466595, -1349512.6, 162530.08, 0.0, 5.0852222, 4.960441 
7.1736354e+2, 1.5066604e+2, -1313279.8, -1496366.0, -770.2624, 0.002042367, -0.009464601, -1313276.6, 150183.44, 0.0, 5.080946, 4.960433 
7.1717757e+2, 1.5562364e+2, -1276995.9, -1453838.3, -885.62915, 0.0032435183, -0.009658232, -1276991.5, 137886.17, 0.0, 5.076667, 4.9604254 
7.169916e+2, 1.6058116e+2, -1241065.0, -1412354.1, -1683.5593, 0.0052150674, -0.010150392, -1241048.4, 125247.234, 0.0, 5.0724335, 4.9600363 
7.1680343e+2, 1.6553853e+2, -1203563.1, -1369212.9, -3915.6675, 0.008563671, -0.00651793, -1203470.6, 114243.49, 0.0, 5.068503, 4.960057 
7.1661407e+2, 1.704955e+2, -1166070.3, -1325959.1, -4110.6323, 0.010944637, -0.008786309, -1165964.6, 103171.91, 0.0, 5.064592, 4.960053 
7.164248e+2, 1.7545247e+2, -1128517.4, -1282638.8, -4304.9346, 0.013164102, -0.010833469, -1128397.3, 92161.484, 0.0, 5.0606833, 4.9600487 
7.1623546e+2, 1.8040957e+2, -1091835.1, -1241250.9, -4827.493, 0.014578677, -0.011112531, -1091679.3, 80301.15, 0.0, 5.0567727, 4.9593773 
7.160444e+2, 1.8536642e+2, -1054929.1, -1199948.3, -6302.2183, 0.014024502, -0.0008361545, -1054655.8, 68750.38, 0.0, 5.0529346, 4.958629 
7.1585274e+2, 1.903225e+2, -1016982.1, -1156320.4, -6507.5435, 0.013317054, 0.0021161574, -1016678.9, 58161.023, 0.0, 5.049107, 4.9586244 
7.1566105e+2, 1.9527858e+2, -978976.4, -1112626.3, -6713.413, 0.012586215, 0.005060536, -978640.0, 47633.668, 0.0, 5.0452824, 4.9586196 
7.1546954e+2, 2.0023462e+2, -941320.06, -1069814.3, -7067.1553, 0.011987442, 0.007731463, -940932.5, 36774.973, 0.0, 5.0414734, 4.958289 
7.1527714e+2, 2.0518985e+2, -904356.8, -1029175.4, -8202.424, 0.012037293, 0.0133946575, -903820.1, 25327.537, 0.0, 5.0377707, 4.957148 
7.150844e+2, 2.1014403e+2, -865727.25, -984884.7, -8568.566, 0.012393705, 0.011267592, -865114.25, 15483.556, 0.0, 5.0340734, 4.957222 
7.148916e+2, 2.1509822e+2, -827135.6, -940740.0, -8936.691, 0.012783754, 0.009128262, -826436.94, 5610.929, 0.0, 5.0303783, 4.9572244 
7.14699e+2, 2.2005245e+2, -789055.2, -897763.06, -9262.411, 0.013062891, 0.007468253, -788271.6, -4774.087, 0.0, 5.0266843, 4.956803 
7.145061e+2, 2.2500621e+2, -752130.94, -857277.7, -9743.516, 0.013286436, 0.014902715, -751235.7, -16284.551, 0.0, 5.0229726, 4.955501 
7.14313e+2, 2.2995901e+2, -713259.75, -812396.06, -10101.773, 0.013694521, 0.013740651, -712240.9, -25826.693, 0.0, 5.0192223, 4.9557133 
7.141199e+2, 2.3491183e+2, -674615.25, -768055.8, -10399.275, 0.014054735, 0.012594876, -673471.9, -35594.69, 0.0, 5.0154724, 4.9557166 
7.139271e+2, 2.3986465e+2, -636512.94, -724994.6, -10493.974, 0.014401327, 0.01166775, -635285.4, -45945.35, 0.0, 5.0117292, 4.95525 
7.137348e+2, 2.4481672e+2, -599780.75, -684718.9, -10167.866, 0.014510414, 0.019175809, -598580.56, -57770.96, 0.0, 5.0079484, 4.953781 
7.1354264e+2, 2.4976808e+2, -560624.5, -639004.9, -10724.028, 0.013835443, 0.01761166, -559183.75, -66897.74, 0.0, 5.0041165, 4.95423 
7.133506e+2, 2.5471944e+2, -521998.75, -594493.06, -11150.365, 0.013068784, 0.015654212, -520322.47, -76560.0, 0.0, 5.0002823, 4.954239 
7.1315867e+2, 2.5967067e+2, -483737.7, -550846.6, -11305.362, 0.012378718, 0.012998911, -481884.34, -86644.8, 0.0, 4.996449, 4.9539204 
7.1296847e+2, 2.6462036e+2, -448028.6, -512777.16, -9855.562, 0.013152831, 0.017422825, -446561.7, -99831.125, 0.0, 4.992628, 4.9515615 
7.127789e+2, 2.6956972e+2, -407381.38, -463917.4, -10449.196, 0.0140491, 0.0075654476, -405511.94, -107287.38, 0.0, 4.988799, 4.9530144 
7.125896e+2, 2.7451915e+2, -368539.03, -419123.88, -10821.923, 0.014938804, -0.0030359563, -366321.1, -116602.695, 0.0, 4.984967, 4.953026 
7.124004e+2, 2.7946872e+2, -329961.13, -374698.1, -10367.744, 0.015343814, -0.011748494, -327675.22, -126464.64, 0.0, 4.981082, 4.952904 
7.122143e+2, 2.8441828e+2, -295683.56, -338064.2, -7005.118, 0.011248502, 0.00442682, -294555.72, -141850.69, 0.0, 4.97685, 4.9501095 
7.120301e+2, 2.8936931e+2, -255251.0, -287648.25, -7607.2505, 0.0067947167, 0.018900603, -253553.66, -149368.42, 0.0, 4.972594, 4.952217 
7.1184593e+2, 2.943204e+2, -217357.89, -243047.25, -8035.1113, 0.0022775165, 0.032331787, -215051.7, -159386.56, 0.0, 4.9683375, 4.952244 
7.1166176e+2, 2.992711e+2, -181254.11, -202391.92, -10206.027, -0.0005824359, 0.044786856, -177130.67, -169982.23, 0.0, 4.96404, 4.9508576 
7.1147907e+2, 3.0422923e+2, -137047.38, -111339.055, -8019.469, 0.015776936, 0.02050038, -109042.59, -109042.59, 0.0, 4.959894, 4.9764366 
7.1130145e+2, 3.0919915e+2, -143712.8, -107676.23, -6586.2, 0.035288416, -0.06062584, -106510.23, -106510.23, 0.0, 4.956201, 4.979358 
7.11124e+2, 3.141698e+2, -153940.6, -112371.22, -5632.3936, 0.054911565, -0.1351088, -111621.58, -111621.58, 0.0, 4.9525185, 4.9792614 
7.1094483e+2, 3.1916893e+2, -134638.83, -43949.36, -2819.0046, 0.05355187, 0.075297356, -43861.816, -43861.816, 0.0, 4.9477377, 5.0060062 
7.233776e+2, 1.2605602e+2, -1492606.1, -1708741.5, 4864.6436, -0.004649224, -0.033129014, -1492496.8, 212126.81, 0.0, 5.1032205, 4.9598093 
7.231918e+2, 1.3101299e+2, -1457424.6, -1667057.8, 4639.189, -0.0017858766, -0.028845765, -1457322.0, 198727.1, 0.0, 5.098663, 4.959775 
7.230061e+2, 1.3596994e+2, -1422208.0, -1625313.8, 4415.961, 0.0008084683, -0.024368953, -1422112.0, 185362.9, 0.0, 5.0940986, 4.9597406 
7.2282016e+2, 1.4092688e+2, -1387390.4, -1584357.5, 3667.0793, 0.0016200372, -0.019850403, -1387322.1, 171578.38, 0.0, 5.089521, 4.959418 
7.226314e+2, 1.4588474e+2, -1349094.6, -1538124.5, 426.52237, 0.0016190422, -0.008867822, -1349093.8, 161221.89, 0.0, 5.0852876, 4.960632 
7.2244114e+2, 1.5084241e+2, -1312689.8, -1495637.6, 223.26382, 0.003270443, -0.0082591595, -1312689.4, 149042.95, 0.0, 5.081075, 4.960608 
7.22251e+2, 1.5580006e+2, -1276242.9, -1453088.4, -14.769916, 0.004825074, -0.0076100635, -1276242.9, 136906.45, 0.0, 5.076858, 4.9605846 
7.2206074e+2, 1.6075762e+2, -1240258.5, -1411665.5, -912.5881, 0.0071547255, -0.0072525325, -1240253.6, 124313.47, 0.0, 5.0726542, 4.960164 
7.218686e+2, 1.6571486e+2, -1202894.1, -1368798.1, -3093.0042, 0.011086631, -0.0039989376, -1202836.5, 113150.414, 0.0, 5.06872, 4.9600945 
7.216754e+2, 1.7067161e+2, -1165407.3, -1325571.0, -3488.5347, 0.014203318, -0.007085095, -1165331.4, 102080.15, 0.0, 5.064805, 4.9600863 
7.214823e+2, 1.7562838e+2, -1127901.3, -1282295.5, -3882.0632, 0.01736671, -0.010146185, -1127803.8, 91032.27, 0.0, 5.060879, 4.9600787 
7.2128904e+2, 1.8058525e+2, -1091137.8, -1240729.6, -4626.2456, 0.019607954, -0.011303342, -1090994.9, 79264.71, 0.0, 5.0569606, 4.9594765 
7.210942e+2, 1.8554206e+2, -1054207.4, -1199623.4, -6148.625, 0.018930182, -0.0010191626, -1053947.9, 67737.71, 0.0, 5.0531745, 4.9586396 
7.208986e+2, 1.9049802e+2, -1016112.9, -1155944.3, -6526.67, 0.018015018, 0.0021510166, -1015808.9, 57311.074, 0.0, 5.049399, 4.958631 
7.207031e+2, 1.9545402e+2, -977998.9, -1112218.0, -6906.0894, 0.017075839, 0.0053784912, -977644.44, 46909.934, 0.0, 5.0456123, 4.9586225 
7.205078e+2, 2.0040993e+2, -940346.5, -1069577.0, -7417.222, 0.016230201, 0.008197593, -939922.2, 36066.945, 0.0, 5.041832, 4.9582233 
7.203116e+2, 2.0536496e+2, -903448.2, -1029186.5, -8662.099, 0.015750932, 0.014031587, -902854.25, 24577.309, 0.0, 5.0381474, 4.9569917 
7.20115e+2, 2.1031885e+2, -864877.06, -985059.94, -9196.991, 0.015445125, 0.0120221, -864177.4, 14707.71, 0.0, 5.034453, 4.9570107 
7.199185e+2, 2.1527275e+2, -826303.3, -940943.4, -9745.25, 0.01516699, 0.0100075975, -825480.8, 4857.5576, 0.0, 5.0307517, 4.957009 
7.197221e+2, 2.2022672e+2, -788121.44, -897674.8, -10228.052, 0.014812806, 0.0086420905, -787174.7, -5383.8584, 0.0, 5.0270405, 4.956699 
7.195255e+2, 2.2518028e+2, -751221.06, -857221.7, -10998.969, 0.015157706, 0.01539133, -750091.8, -16845.746, 0.0, 5.0233183, 4.955395 
7.193287e+2, 2.3013282e+2, -712436.3, -812434.94, -11524.994, 0.015906569, 0.01339418, -711125.25, -26413.898, 0.0, 5.019545, 4.955588 
7.191319e+2, 2.3508535e+2, -673883.4, -768156.5, -12017.044, 0.016620796, 0.0113777, -672375.7, -36199.215, 0.0, 5.0157623, 4.9555874 
7.189353e+2, 2.4003792e+2, -635930.6, -725249.5, -12293.579, 0.017280508, 0.0097880745, -634269.5, -46628.047, 0.0, 5.011978, 4.955089 
7.1873933e+2, 2.4498989e+2, -599421.75, -685333.6, -12199.115, 0.017326014, 0.018781718, -597723.1, -58610.82, 0.0, 5.0081644, 4.9535127 
7.185433e+2, 2.4994108e+2, -560404.25, -639743.94, -12947.71, 0.016346088, 0.018917996, -558344.75, -67754.16, 0.0, 5.0042906, 4.9539394 
7.183474e+2, 2.548923e+2, -521926.2, -595314.8, -13546.578, 0.015269321, 0.018702548, -519505.5, -77436.64, 0.0, 5.0004034, 4.953945 
7.181516e+2, 2.5984335e+2, -483753.9, -551580.2, -13800.518, 0.014291932, 0.017044062, -481053.47, -87505.21, 0.0, 4.9965096, 4.9536867 
7.179575e+2, 2.6479247e+2, -448023.47, -513421.25, -12600.033, 0.014602424, 0.017910602, -445679.84, -100635.51, 0.0, 4.992673, 4.95137 
7.177642e+2, 2.697412e+2, -407384.75, -464620.13, -13250.428, 0.014968606, 0.0036488934, -404466.03, -107921.664, 0.0, 4.9888496, 4.952801 
7.175709e+2, 2.7468994e+2, -368548.34, -419831.0, -13663.408, 0.015304158, -0.011340074, -365135.13, -117090.91, 0.0, 4.985014, 4.9528127 
7.1737784e+2, 2.7963904e+2, -330105.3, -375657.38, -13278.093, 0.015105783, -0.022336734, -326517.44, -126976.62, 0.0, 4.9811172, 4.952606 
7.1718764e+2, 2.8458935e+2, -295799.13, -338997.75, -10238.635, 0.010429043, 0.003912559, -293495.28, -142466.67, 0.0, 4.9768887, 4.9498177 
7.16999e+2, 2.895414e+2, -255390.55, -288668.0, -10865.419, 0.005482073, 0.030721718, -252157.06, -149656.86, 0.0, 4.9726367, 4.951893 
7.168106e+2, 2.944934e+2, -217490.5, -244060.06, -11297.962, 0.0004110412, 0.05642784, -213335.97, -159364.39, 0.0, 4.968382, 4.9519205 
7.1662205e+2, 2.994447e+2, -181348.5, -203273.9, -13592.017, -0.0025875152, 0.07903984, -174849.14, -169399.6, 0.0, 4.9640713, 4.9505887 
7.164356e+2, 3.044006e+2, -134943.4, -107421.39, -10832.093, 0.0152654145, 0.01945649, -103669.555, -103669.555, 0.0, 4.9599614, 4.977878 
7.162543e+2, 3.093674e+2, -141568.64, -103930.48, -9242.663, 0.035616837, -0.11366758, -101783.28, -101783.28, 0.0, 4.956305, 4.98073 
7.160731e+2, 3.143348e+2, -151718.5, -108670.195, -8024.7646, 0.055467337, -0.23997316, -107222.94, -107222.94, 0.0, 4.952655, 4.9806075 
7.158867e+2, 3.193628e+2, -149901.92, -80544.86, -2762.1882, 0.020769974, 0.29182708, -80435.03, -80435.03, 0.0, 4.947929, 4.992482 
7.284781e+2, 1.2624449e+2, -1483717.6, -1702330.6, 11040.068, -0.011172756, -0.028485322, -1483161.5, 219619.3, 0.0, 5.106144, 4.960393 
7.282879e+2, 1.3120145e+2, -1449148.5, -1660947.1, 11016.982, -0.005645717, -0.025553955, -1448577.0, 205628.78, 0.0, 5.1013794, 4.960363 
7.2809786e+2, 1.3615838e+2, -1414511.8, -1619485.8, 10993.116, -0.00040362892, -0.022408962, -1413923.9, 191707.14, 0.0, 5.0966187, 4.9603324 
7.279074e+2, 1.4111528e+2, -1380169.3, -1578658.6, 10454.665, 0.0024298402, -0.019046135, -1379620.1, 177435.8, 0.0, 5.091861, 4.9600544 
7.277143e+2, 1.460732e+2, -1342352.3, -1532828.9, 7757.5166, 0.0030599847, -0.0084994305, -1342036.9, 166432.89, 0.0, 5.0875063, 4.9611917 
7.2751987e+2, 1.510309e+2, -1306201.3, -1490448.1, 7746.343, 0.0055778907, -0.008255198, -1305876.1, 154009.75, 0.0, 5.08321, 4.9611745 
7.2732556e+2, 1.5598857e+2, -1269986.8, -1447995.6, 7735.978, 0.007972523, -0.007945735, -1269651.3, 141651.08, 0.0, 5.0789165, 4.9611573 
7.271311e+2, 1.6094615e+2, -1234275.3, -1406777.8, 7071.382, 0.010695245, -0.0075259125, -1233985.9, 128733.734, 0.0, 5.0746427, 4.9607 
7.2693485e+2, 1.6590337e+2, -1197312.6, -1364467.4, 5367.0176, 0.0136940135, -0.0035385026, -1197140.5, 116999.56, 0.0, 5.070661, 4.960461 
7.267376e+2, 1.7086004e+2, -1159852.6, -1321240.1, 5163.8877, 0.015711388, -0.00581378, -1159687.5, 105878.69, 0.0, 5.0667396, 4.9604588 
7.265405e+2, 1.7581667e+2, -1122333.5, -1277945.9, 4959.157, 0.01787417, -0.008184454, -1122175.6, 94816.9, 0.0, 5.0628204, 4.9604564 
7.2634333e+2, 1.807734e+2, -1085364.4, -1235975.6, 4387.5063, 0.019521538, -0.009116465, -1085236.8, 83181.13, 0.0, 5.058914, 4.959986 
7.261446e+2, 1.8573003e+2, -1048616.1, -1195128.8, 3230.6792, 0.019401342, 0.000106516956, -1048544.94, 71300.055, 0.0, 5.0551167, 4.9590635 
7.2594535e+2, 1.9068572e+2, -1010498.44, -1151430.8, 3048.8928, 0.019193526, 0.0022628454, -1010432.5, 60848.95, 0.0, 5.0513535, 4.959059 
7.257462e+2, 1.956414e+2, -972322.25, -1107667.9, 2866.117, 0.018927664, 0.004538832, -972261.56, 50456.266, 0.0, 5.0475926, 4.9590545 
7.2554713e+2, 2.0059705e+2, -934627.75, -1065089.8, 2563.9448, 0.01863121, 0.006530248, -934577.44, 39577.36, 0.0, 5.043848, 4.95862 
7.253472e+2, 2.0555183e+2, -897898.0, -1025034.1, 1598.7424, 0.018076409, 0.012709149, -897877.9, 27721.918, 0.0, 5.0401673, 4.9572697 
7.251469e+2, 2.1050538e+2, -859360.4, -981013.1, 1267.8643, 0.017621404, 0.011311815, -859347.2, 17709.64, 0.0, 5.036484, 4.957251 
7.2494674e+2, 2.1545894e+2, -820736.75, -936873.75, 917.91437, 0.017178982, 0.009883471, -820729.5, 7784.289, 0.0, 5.032803, 4.9572506 
7.247466e+2, 2.2041255e+2, -782328.56, -893279.56, 621.23456, 0.01670197, 0.00902582, -782325.06, -2355.3523, 0.0, 5.02913, 4.957039 
7.2454625e+2, 2.2536579e+2, -745401.1, -853009.75, -22.401865, 0.016852684, 0.015619667, -745401.1, -13972.939, 0.0, 5.0254636, 4.9556465 
7.243456e+2, 2.3031785e+2, -706491.3, -808233.1, -492.07913, 0.017341316, 0.01346766, -706488.94, -23591.162, 0.0, 5.0217485, 4.9558144 
7.2414505e+2, 2.3526993e+2, -667748.1, -763874.1, -922.6091, 0.017912818, 0.011243677, -667739.25, -33371.977, 0.0, 5.018035, 4.9558167 
7.239448e+2, 2.4022202e+2, -629595.1, -720850.5, -1092.8346, 0.018454619, 0.009366149, -629582.06, -43745.34, 0.0, 5.014317, 4.9553337 
7.2374487e+2, 2.4517351e+2, -593119.8, -681033.4, -964.53046, 0.018220177, 0.017781846, -593109.25, -55797.02, 0.0, 5.0105076, 4.953725 
7.235449e+2, 2.5012416e+2, -554195.75, -635573.2, -1551.9266, 0.017051922, 0.017410371, -554166.2, -65370.25, 0.0, 5.006619, 4.9541187 
7.233451e+2, 2.5507483e+2, -515736.56, -591169.25, -1992.8177, 0.015888829, 0.01693732, -515683.94, -75404.414, 0.0, 5.0027285, 4.954123 
7.231454e+2, 2.6002535e+2, -477482.28, -547333.56, -2024.5931, 0.014892893, 0.015230642, -477423.63, -85659.6, 0.0, 4.998848, 4.953901 
7.229475e+2, 2.649742e+2, -441943.13, -509229.28, -802.8337, 0.014536021, 0.017574554, -441933.56, -98670.555, 0.0, 4.9949307, 4.9516106 
7.227501e+2, 2.6992258e+2, -401886.66, -460834.13, -1641.9563, 0.014232718, 0.004716071, -401840.97, -107074.375, 0.0, 4.990922, 4.9529915 
7.2255284e+2, 2.7487087e+2, -363571.78, -416323.97, -2260.3843, 0.014031033, -0.009589368, -363475.13, -117204.43, 0.0, 4.986903, 4.952995 
7.223557e+2, 2.7981952e+2, -325683.53, -372363.1, -2194.09, 0.013542862, -0.02029174, -325580.63, -127808.78, 0.0, 4.9827957, 4.952815 
7.221613e+2, 2.847693e+2, -292312.34, -335986.7, 542.90845, 0.009894546, 0.004386064, -292305.6, -143040.7, 0.0, 4.978208, 4.9500923 
7.219684e+2, 2.8972086e+2, -253055.72, -286322.88, -168.36629, 0.006355377, 0.030861372, -253054.86, -152313.98, 0.0, 4.9735675, 4.952111 
7.217756e+2, 2.9467267e+2, -216298.2, -242284.23, -680.50226, 0.0026769268, 0.05839528, -216280.39, -164065.56, 0.0, 4.9689097, 4.952119 
7.2158265e+2, 2.9962376e+2, -180897.47, -201445.34, -2765.351, 0.000657726, 0.08391087, -180531.81, -176836.77, 0.0, 4.9642634, 4.950947 
7.2139204e+2, 3.045792e+2, -132964.92, -103305.32, -1588.0022, 0.014960436, 0.0146589875, -103220.54, -103220.54, 0.0, 4.9604154, 4.978955 
7.212066e+2, 3.0954513e+2, -139107.6, -99416.82, -2409.635, 0.03224542, -0.1370985, -99271.06, -99271.06, 0.0, 4.9569116, 4.9818897 
7.2102135e+2, 3.1451133e+2, -149339.11, -103972.39, -3249.961, 0.050888896, -0.28828573, -103740.75, -103740.75, 0.0, 4.953206, 4.981857 
7.2082776e+2, 3.195384e+2, -122397.03, -19018.027, 1281.5371, -0.01894565, 0.16412395, -19002.143, -19002.143, 0.0, 4.948618, 5.0143538 
7.3358e+2, 1.2643775e+2, -1482974.1, -1701681.6, 7553.34, -0.017749455, -0.022914981, -1482713.6, 218177.42, 0.0, 5.106218, 4.960631 
7.333853e+2, 1.313948e+2, -1448409.0, -1660304.1, 7531.054, -0.009427259, -0.0213946, -1448141.6, 204172.48, 0.0, 5.101453, 4.9606 
7.331907e+2, 1.3635182e+2, -1413776.3, -1618849.0, 7507.9834, -0.0014744485, -0.019666627, -1413501.8, 190235.92, 0.0, 5.096691, 4.960569 
7.3299575e+2, 1.4130886e+2, -1379395.1, -1577931.3, 6973.3013, 0.0032371723, -0.01749612, -1379150.5, 176010.2, 0.0, 5.091933, 4.9603214 
7.3279816e+2, 1.4626698e+2, -1341730.4, -1532296.4, 4596.871, 0.0043786867, -0.007353026, -1341619.6, 164952.47, 0.0, 5.0875654, 4.9613953 
7.3259956e+2, 1.5122484e+2, -1305584.4, -1489918.4, 4584.752, 0.007784335, -0.0074957293, -1305470.4, 152515.67, 0.0, 5.0832677, 4.961378 
7.32401e+2, 1.5618268e+2, -1269374.9, -1447468.6, 4573.4365, 0.0110425735, -0.0075627654, -1269257.5, 140142.86, 0.0, 5.078973, 4.9613614 
7.322023e+2, 1.6114043e+2, -1233760.3, -1406435.8, 3898.2942, 0.014107689, -0.007013226, -1233672.4, 127143.41, 0.0, 5.0746975, 4.9608426 
7.3200184e+2, 1.660978e+2, -1197074.9, -1364636.0, 2455.2144, 0.016149795, -0.0023214177, -1197039.0, 115196.45, 0.0, 5.0707088, 4.9604316 
7.318006e+2, 1.7105448e+2, -1159612.3, -1321409.4, 2251.4214, 0.016936338, -0.0038070688, -1159580.9, 104080.84, 0.0, 5.0667877, 4.9604287 
7.3159945e+2, 1.7601117e+2, -1122090.4, -1278115.6, 2046.0272, 0.017823411, -0.0054014125, -1122063.5, 93024.56, 0.0, 5.0628695, 4.960426 
7.313982e+2, 1.8096796e+2, -1084942.4, -1235760.1, 1436.0458, 0.018557409, -0.005972723, -1084928.6, 81584.734, 0.0, 5.0589633, 4.9600873 
7.311957e+2, 1.8592453e+2, -1048372.6, -1195240.8, 418.2637, 0.019023078, 0.002130551, -1048371.44, 69568.805, 0.0, 5.0551596, 4.9590554 
7.309928e+2, 1.9088009e+2, -1010254.25, -1151544.5, 235.82767, 0.019612424, 0.0030759452, -1010253.9, 59123.375, 0.0, 5.0513964, 4.95905 
7.307899e+2, 1.9583565e+2, -972077.44, -1107783.5, 52.398827, 0.020119464, 0.0041431105, -972077.44, 48736.793, 0.0, 5.047636, 4.959045 
7.305872e+2, 2.0079117e+2, -934376.94, -1065220.4, -265.72354, 0.0204421, 0.005157328, -934376.4, 37875.45, 0.0, 5.0438952, 4.958605 
7.303835e+2, 2.0574586e+2, -897929.25, -1025769.0, -1169.9208, 0.019866504, 0.011714422, -897918.5, 25779.201, 0.0, 5.0402145, 4.9570475 
7.301795e+2, 2.1069926e+2, -859381.7, -981730.8, -1504.7379, 0.01936956, 0.01092621, -859363.2, 15793.345, 0.0, 5.036531, 4.957034 
7.2997564e+2, 2.1565264e+2, -820756.06, -937590.56, -1855.931, 0.018863402, 0.010107799, -820726.6, 5888.6187, 0.0, 5.0328507, 4.9570336 
7.2977185e+2, 2.2060612e+2, -782211.06, -893722.2, -2171.1584, 0.018309053, 0.009694439, -782168.8, -4096.1284, 0.0, 5.029181, 4.9569154 
7.2956777e+2, 2.2555916e+2, -745503.6, -853960.75, -2823.0427, 0.018137345, 0.01619108, -745430.2, -15897.277, 0.0, 5.0255175, 4.9553475 
7.293633e+2, 2.305109e+2, -706601.75, -809213.0, -3309.081, 0.018066281, 0.013956484, -706495.1, -25489.621, 0.0, 5.0218034, 4.9555054 
7.2915906e+2, 2.3546267e+2, -667854.7, -764852.8, -3740.468, 0.018049266, 0.011656545, -667710.7, -35232.652, 0.0, 5.0180902, 4.9555078 
7.28955e+2, 2.4041443e+2, -629593.44, -721576.8, -3868.8354, 0.017935587, 0.009570134, -629431.0, -45480.46, 0.0, 5.014371, 4.9551115 
7.287513e+2, 2.4536553e+2, -593210.8, -682038.5, -3969.2278, 0.017345134, 0.016403964, -593033.8, -57604.023, 0.0, 5.010568, 4.9534063 
7.2854745e+2, 2.503157e+2, -554276.25, -636544.25, -4518.9863, 0.016053459, 0.014305642, -554028.75, -67110.695, 0.0, 5.0066776, 4.9538116 
7.2834367e+2, 2.552659e+2, -515815.06, -592136.4, -4961.321, 0.014745656, 0.012138782, -515493.88, -77087.73, 0.0, 5.002787, 4.9538164 
7.281401e+2, 2.6021603e+2, -477510.16, -548197.4, -4920.204, 0.0135064395, 0.009490513, -477169.3, -87274.89, 0.0, 4.9989085, 4.9536295 
7.2793823e+2, 2.6516512e+2, -441852.22, -510017.75, -3786.7695, 0.012368574, 0.016607456, -441642.5, -100251.26, 0.0, 4.995023, 4.9513535 
7.2773683e+2, 2.7011377e+2, -401688.0, -461677.9, -4511.032, 0.011249147, 0.009653435, -401350.7, -108458.3, 0.0, 4.9910736, 4.952688 
7.2753555e+2, 2.7506235e+2, -363189.88, -417075.66, -4969.8857, 0.010196267, 0.0012913976, -362735.3, -118341.21, 0.0, 4.987119, 4.952694 
7.2733444e+2, 2.8001106e+2, -324928.34, -372566.5, -4879.7334, 0.009407535, -0.005796316, -324433.63, -128538.88, 0.0, 4.9830728, 4.952678 
7.2713584e+2, 2.8495926e+2, -291326.3, -335867.1, -2326.2053, 0.009232277, 0.004243208, -291205.16, -143803.08, 0.0, 4.9785213, 4.9500546 
7.269387e+2, 2.899089e+2, -251989.7, -286243.0, -2852.9475, 0.009811241, 0.012655495, -251753.7, -152857.72, 0.0, 4.9739237, 4.952041 
7.267417e+2, 2.9485872e+2, -215066.0, -242134.22, -3134.0771, 0.010140342, 0.022515966, -214707.86, -164320.16, 0.0, 4.9693255, 4.9520483 
7.2654444e+2, 2.9980838e+2, -178832.78, -199885.4, -4542.819, 0.009898615, 0.032823093, -177894.34, -176013.31, 0.0, 4.9647746, 4.9513364 
7.26349e+2, 3.0476734e+2, -132413.11, -106090.14, -3230.3586, 0.011114049, 0.011956496, -105699.51, -105699.51, 0.0, 4.961099, 4.977718 
7.261584e+2, 3.0973798e+2, -137793.33, -101832.516, -4602.2793, 0.01233584, -0.06835808, -101252.86, -101252.86, 0.0, 4.957869, 4.980663 
7.259681e+2, 3.147089e+2, -146598.13, -105650.984, -6278.2456, 0.015271309, -0.14888927, -104709.99, -104709.99, 0.0, 4.9546547, 4.9806824 
7.2577417e+2, 3.197248e+2, -120893.93, -23998.799, -5117.111, -0.021862138, 0.19063176, -23729.31, -23729.31, 0.0, 4.9501667, 5.0120645 
7.3868185e+2, 1.2663107e+2, -1482702.1, -1701293.3, 4115.902, -0.023601087, -0.017147237, -1482624.6, 216376.1, 0.0, 5.106136, 4.9608593 
7.3848265e+2, 1.3158819e+2, -1447860.4, -1659771.8, 4051.0747, -0.01284432, -0.017099015, -1447783.0, 202639.25, 0.0, 5.1014647, 4.960831 
7.382836e+2, 1.365453e+2, -1413079.5, -1618239.8, 4014.54, -0.0023211532, -0.016870704, -1413001.0, 188843.06, 0.0, 5.0967536, 4.960802 
7.380839e+2, 1.4150244e+2, -1378653.4, -1577257.6, 3478.9214, 0.0041323937, -0.015894316, -1378592.5, 174672.86, 0.0, 5.0920033, 4.9605727 
7.378819e+2, 1.4646079e+2, -1341128.6, -1531774.5, 1428.2393, 0.005720426, -0.0061341953, -1341117.9, 163556.27, 0.0, 5.0876193, 4.9615984 
7.3767906e+2, 1.5141879e+2, -1305018.4, -1489416.0, 1438.4042, 0.010035356, -0.006715434, -1305007.1, 151078.97, 0.0, 5.0833097, 4.961581 
7.374764e+2, 1.563768e+2, -1268775.8, -1446954.0, 1419.4655, 0.014158881, -0.0072111534, -1268764.5, 138733.84, 0.0, 5.0790267, 4.9615636 
7.3727334e+2, 1.6133474e+2, -1233272.1, -1406162.9, 727.7559, 0.017506521, -0.0064340364, -1233269.0, 125642.7, 0.0, 5.074754, 4.9609623 
7.370687e+2, 1.6629224e+2, -1196833.5, -1364808.5, -455.25208, 0.01859349, -0.0010137656, -1196832.3, 113498.49, 0.0, 5.070759, 4.960401 
7.368635e+2, 1.7124896e+2, -1159368.1, -1321582.4, -659.7046, 0.018145995, -0.0017403052, -1159365.4, 102391.81, 0.0, 5.0668387, 4.9603977 
7.366583e+2, 1.762057e+2, -1121843.5, -1278289.4, -865.759, 0.017754147, -0.002588749, -1121838.8, 91344.98, 0.0, 5.062921, 4.960395 
7.36453e+2, 1.811625e+2, -1084522.6, -1235561.4, -1517.0806, 0.017610094, -0.002837699, -1084507.4, 80101.55, 0.0, 5.0590143, 4.9601836 
7.362467e+2, 1.8611905e+2, -1048125.44, -1195356.6, -2392.8848, 0.01870704, 0.0041303346, -1048086.56, 67948.86, 0.0, 5.0552044, 4.9590454 
7.360401e+2, 1.9107446e+2, -1010006.44, -1151662.3, -2575.9683, 0.020098556, 0.003818942, -1009959.6, 57513.402, 0.0, 5.0514417, 4.95904 
7.358336e+2, 1.9602989e+2, -971828.94, -1107903.0, -2760.048, 0.021383494, 0.0036315583, -971773.0, 47137.56, 0.0, 5.047682, 4.9590344 
7.356271e+2, 2.0098528e+2, -934156.6, -1065430.8, -3090.4985, 0.022291644, 0.0037836211, -934083.9, 36265.016, 0.0, 5.043945, 4.958563 
7.3541975e+2, 2.059399e+2, -897954.7, -1026503.06, -3938.2925, 0.021686044, 0.0108382, -897834.2, 23961.496, 0.0, 5.0402637, 4.9568257 
7.35212e+2, 2.1089314e+2, -859399.3, -982452.25, -4276.6406, 0.021145, 0.0106279785, -859250.9, 14005.351, 0.0, 5.0365806, 4.956816 
7.350045e+2, 2.1584637e+2, -820771.75, -938311.2, -4629.075, 0.020572951, 0.0103884265, -820589.75, 4126.9365, 0.0, 5.0329003, 4.9568157 
7.34797e+2, 2.207997e+2, -782145.25, -894282.6, -4933.796, 0.0199139, 0.01036111, -781928.6, -5752.8613, 0.0, 5.029233, 4.956752 
7.3458916e+2, 2.2575252e+2, -745565.06, -854842.5, -5649.21, 0.01940142, 0.016762815, -745273.75, -17635.928, 0.0, 5.025574, 4.9550734 
7.3438096e+2, 2.3070395e+2, -706708.56, -810196.75, -6124.7705, 0.018762486, 0.014412147, -706347.3, -27233.9, 0.0, 5.02186, 4.9551954 
7.3417294e+2, 2.3565538e+2, -667957.7, -765835.3, -6557.013, 0.01815186, 0.012000318, -667520.4, -36931.42, 0.0, 5.0181475, 4.9551973 
7.3396504e+2, 2.4060683e+2, -629616.0, -722379.44, -6681.6025, 0.017390354, 0.009686527, -629137.2, -47072.668, 0.0, 5.014427, 4.9548635 
7.337575e+2, 2.4555752e+2, -593276.3, -682989.75, -6940.0205, 0.016464265, 0.014928855, -592742.6, -59195.04, 0.0, 5.0106297, 4.9531064 
7.3354983e+2, 2.505072e+2, -554352.6, -637519.44, -7486.453, 0.015037647, 0.011083501, -553684.1, -68643.73, 0.0, 5.006739, 4.953503 
7.333421e+2, 2.5545692e+2, -515889.5, -593107.5, -7930.23, 0.013568624, 0.007199512, -515083.5, -78550.484, 0.0, 5.002848, 4.953509 
7.331347e+2, 2.604067e+2, -477516.25, -549027.1, -7810.0254, 0.012087675, 0.0039525116, -476673.22, -88648.484, 0.0, 4.9989715, 4.9533706 
7.3292893e+2, 2.653561e+2, -441855.94, -510915.63, -6815.757, 0.0101900315, 0.016198952, -441189.7, -101670.54, 0.0, 4.995094, 4.9510694 
7.327235e+2, 2.7030498e+2, -401714.84, -462635.44, -7553.7686, 0.0082283495, 0.015088802, -400792.22, -109774.35, 0.0, 4.991145, 4.9523826 
7.3251814e+2, 2.7525383e+2, -363213.97, -418027.72, -8012.3706, 0.0062873363, 0.012598096, -362066.78, -119549.664, 0.0, 4.9871907, 4.9523892 
7.323129e+2, 2.8020257e+2, -324847.44, -373191.4, -8093.8716, 0.005385002, 0.008214838, -323528.34, -129510.35, 0.0, 4.983128, 4.952495 
7.321104e+2, 2.851491e+2, -291076.9, -336129.63, -5940.4224, 0.008890094, 0.0022163596, -290306.8, -144766.28, 0.0, 4.978574, 4.950002 
7.31909e+2, 2.9009676e+2, -251768.06, -286576.13, -6426.7295, 0.013536676, -0.008204782, -250619.38, -153567.06, 0.0, 4.9739776, 4.951963 
7.3170775e+2, 2.950447e+2, -214840.47, -242462.27, -6683.9844, 0.017781086, -0.017080812, -213308.08, -164746.27, 0.0, 4.96938, 4.951971 
7.3150617e+2, 2.9999316e+2, -178963.42, -201176.98, -7652.2715, 0.018459622, -0.017066142, -176582.52, -176516.72, 0.0, 4.9648557, 4.950904 
7.313058e+2, 3.0495602e+2, -133544.17, -109907.15, -5805.384, 0.0054929443, 0.014021362, -108558.28, -108558.28, 0.0, 4.9612203, 4.9763517 
7.3111e+2, 3.0993143e+2, -138968.13, -105733.85, -6871.4995, -0.010628691, -0.0006038274, -104369.14, -104369.14, 0.0, 4.9579854, 4.9792666 
7.309145e+2, 3.1490713e+2, -147803.23, -109573.35, -8181.285, -0.025905997, -0.014290389, -107896.12, -107896.12, 0.0, 4.9547615, 4.9792824 
7.307216e+2, 3.1991732e+2, -138017.86, -63594.848, -6590.07, -0.017754348, 0.3358113, -63015.813, -63015.813, 0.0, 4.950123, 4.997723 
7.43784e+2, 1.268268e+2, -1482538.9, -1700540.4, 6259.4673, -0.023762215, -0.010838172, -1482359.4, 214727.3, 0.0, 5.1060615, 4.9611416 
7.435801e+2, 1.3178381e+2, -1447587.8, -1658943.4, 5976.3423, -0.013289058, -0.0118777845, -1447418.9, 201089.81, 0.0, 5.1014233, 4.9611225 
7.433763e+2, 1.3674083e+2, -1412577.8, -1617274.0, 5683.035, -0.0025441234, -0.012800121, -1412420.0, 187510.77, 0.0, 5.0967865, 4.9611034 
7.43172e+2, 1.416979e+2, -1377829.0, -1576077.1, 4894.2407, 0.004277706, -0.012955352, -1377708.3, 173643.94, 0.0, 5.0921354, 4.9608984 
7.429656e+2, 1.466562e+2, -1340189.4, -1530615.0, 2906.8108, 0.006095429, -0.004111624, -1340145.0, 162615.88, 0.0, 5.0878158, 4.961884 
7.427585e+2, 1.516142e+2, -1303854.8, -1488119.8, 2630.2808, 0.011354648, -0.005582987, -1303817.3, 150355.5, 0.0, 5.08358, 4.961878 
7.4255157e+2, 1.5657221e+2, -1267575.0, -1445613.0, 2405.1777, 0.016631862, -0.0068269246, -1267542.5, 138041.9, 0.0, 5.079307, 4.961871 
7.423443e+2, 1.6153018e+2, -1231925.9, -1404908.1, 1609.8293, 0.020482184, -0.0062864586, -1231910.9, 125086.39, 0.0, 5.0751004, 4.9612184 
7.4213564e+2, 1.6648774e+2, -1195580.1, -1363953.0, 577.4727, 0.020779487, -0.00020982401, -1195578.1, 112837.83, 0.0, 5.0711474, 4.960504 
7.4192625e+2, 1.7144446e+2, -1158038.3, -1320727.1, 264.58267, 0.019281335, -0.00006360253, -1158037.8, 101804.93, 0.0, 5.067258, 4.9604907 
7.4171704e+2, 1.7640117e+2, -1120471.3, -1277450.0, -59.824467, 0.01780623, 0.00005574727, -1120471.3, 90798.34, 0.0, 5.0633593, 4.960478 
7.415078e+2, 1.8135794e+2, -1082930.9, -1234421.8, -877.7169, 0.01693541, 0.0003004901, -1082925.8, 79769.336, 0.0, 5.0594845, 4.9603577 
7.4129766e+2, 1.8631433e+2, -1046467.9, -1194487.8, -1842.1348, 0.01850847, 0.0060528354, -1046444.94, 67677.84, 0.0, 5.055759, 4.9590907 
7.410874e+2, 1.9126949e+2, -1008142.06, -1150720.3, -2279.8518, 0.020586092, 0.0043451455, -1008105.6, 57456.81, 0.0, 5.052068, 4.959081 
7.408772e+2, 1.9622466e+2, -969817.75, -1106915.8, -2713.1394, 0.022629224, 0.0027315486, -969764.06, 47237.82, 0.0, 5.04836, 4.9590716 
7.4066705e+2, 2.0117983e+2, -932114.2, -1064516.4, -3265.7654, 0.024117908, 0.002101552, -932033.7, 36408.242, 0.0, 5.0446467, 4.95857 
7.404559e+2, 2.0613433e+2, -896157.06, -1026065.06, -4208.231, 0.023493325, 0.009879886, -896020.9, 23868.973, 0.0, 5.040953, 4.9566765 
7.402445e+2, 2.1108738e+2, -857658.4, -982059.5, -4707.096, 0.022942359, 0.010337034, -857480.5, 13871.927, 0.0, 5.0372486, 4.956665 
7.4003327e+2, 2.160404e+2, -819125.94, -937988.5, -5220.764, 0.022359276, 0.0107501475, -818897.06, 3917.93, 0.0, 5.0335355, 4.9566593 
7.3982215e+2, 2.2099352e+2, -780532.7, -893828.1, -5665.336, 0.021613408, 0.011078782, -780250.1, -5974.0063, 0.0, 5.0298214, 4.956665 
7.3961055e+2, 2.2594605e+2, -744326.2, -855044.56, -6693.917, 0.020711636, 0.017325534, -743922.94, -18182.08, 0.0, 5.026119, 4.9547863 
7.393986e+2, 2.3089711e+2, -705608.8, -810454.1, -7353.4546, 0.019480715, 0.014798605, -705095.56, -27875.508, 0.0, 5.0223503, 4.954917 
7.3918676e+2, 2.3584819e+2, -667030.1, -766192.9, -8003.0225, 0.018268337, 0.012236915, -666388.44, -37689.36, 0.0, 5.018576, 4.9549155 
7.389751e+2, 2.4079925e+2, -628828.06, -722737.4, -8352.166, 0.016870858, 0.009713867, -628091.0, -47912.98, 0.0, 5.014789, 4.954615 
7.3876375e+2, 2.4574953e+2, -592607.94, -683425.5, -8932.129, 0.015626715, 0.01341508, -591737.8, -60072.68, 0.0, 5.010945, 4.952857 
7.3855203e+2, 2.5069875e+2, -553895.2, -638150.3, -9703.374, 0.014058471, 0.007842432, -552792.1, -69629.48, 0.0, 5.006994, 4.953216 
7.383405e+2, 2.5564796e+2, -515650.6, -593857.06, -10360.943, 0.012429929, 0.0022159326, -514301.22, -79641.31, 0.0, 5.003024, 4.9532185 
7.381292e+2, 2.6059738e+2, -477483.9, -549808.06, -10356.014, 0.010716803, -0.0012731443, -476030.25, -89875.42, 0.0, 4.999056, 4.9531126 
7.3791957e+2, 2.6554707e+2, -441916.72, -511793.78, -9629.725, 0.008043397, 0.016343962, -440613.94, -102967.25, 0.0, 4.9951463, 4.950796 
7.3771e+2, 2.7049628e+2, -401861.34, -463612.63, -10414.884, 0.0051893177, 0.021015657, -400152.1, -111009.13, 0.0, 4.991176, 4.9520845 
7.375006e+2, 2.754454e+2, -363310.63, -418982.72, -10899.727, 0.00231697, 0.024343207, -361252.72, -120612.91, 0.0, 4.9872384, 4.9520917 
7.3729146e+2, 2.80394e+2, -324883.63, -373944.28, -11244.996, 0.0015642162, 0.021665052, -322429.0, -130287.03, 0.0, 4.9831624, 4.9522743 
7.370848e+2, 2.8533876e+2, -290886.97, -336396.84, -9392.218, 0.008897099, -0.001769054, -289024.8, -145343.97, 0.0, 4.9786086, 4.949953 
7.3687917e+2, 2.9028445e+2, -251599.8, -286916.4, -9897.308, 0.017547866, -0.031707358, -249015.27, -153804.67, 0.0, 4.9740148, 4.9518876 
7.366737e+2, 2.952304e+2, -214675.48, -242805.64, -10153.786, 0.025643043, -0.060000077, -211393.34, -164655.33, 0.0, 4.9694147, 4.9518957 
7.364678e+2, 3.0017805e+2, -180110.75, -204646.22, -10622.708, 0.02640658, -0.06332048, -176150.75, -176150.75, 0.0, 4.9649124, 4.949703 
7.3626244e+2, 3.051451e+2, -134841.67, -113856.016, -8335.178, -0.0015920615, 0.019801768, -110948.3, -110948.3, 0.0, 4.961305, 4.9749393 
7.360614e+2, 3.101251e+2, -140295.52, -109679.305, -9091.191, -0.0353623, 0.06112822, -107183.26, -107183.26, 0.0, 4.958054, 4.977861 
7.3586065e+2, 3.1510547e+2, -149190.14, -113555.62, -10042.408, -0.069158874, 0.10456147, -110920.375, -110920.375, 0.0, 4.95481, 4.977872 
7.3566896e+2, 3.2008836e+2, -134527.02, -54643.855, -6709.8784, -0.012129124, 0.20617382, -54084.17, -54084.17, 0.0, 4.949824, 5.0010867 
7.4888694e+2, 1.2703484e+2, -1475370.1, -1694783.0, 12470.553, -0.023404624, -0.0045876536, -1474663.6, 220388.0, 0.0, 5.108385, 4.961786 
7.486783e+2, 1.3199188e+2, -1440914.8, -1653406.4, 12437.006, -0.013124374, -0.0065322765, -1440189.3, 206283.75, 0.0, 5.103578, 4.9617763 
7.484698e+2, 1.3694891e+2, -1406392.5, -1611951.5, 12401.475, -0.002693631, -0.008399779, -1405647.1, 192247.42, 0.0, 5.098775, 4.9617662 
7.482607e+2, 1.41906e+2, -1372064.3, -1570825.8, 11859.978, 0.003683652, -0.009579971, -1371359.0, 177956.4, 0.0, 5.09396, 4.961614 
7.480498e+2, 1.4686431e+2, -1334826.1, -1525684.6, 10499.279, 0.0053800642, -0.0020656188, -1334250.4, 166473.45, 0.0, 5.0895457, 4.9625344 
7.4783856e+2, 1.5182225e+2, -1298635.8, -1483229.8, 10495.748, 0.011042704, -0.0047271736, -1298040.9, 154095.03, 0.0, 5.0852633, 4.9625373 
7.4762744e+2, 1.5678021e+2, -1262382.6, -1440704.3, 10491.948, 0.016700026, -0.0071752095, -1261767.4, 141780.48, 0.0, 5.0809836, 4.96254 
7.4741596e+2, 1.6173819e+2, -1226650.5, -1399673.6, 9983.128, 0.020705914, -0.0076252003, -1226076.4, 128883.93, 0.0, 5.0767593, 4.9620028 
7.472033e+2, 1.6669588e+2, -1190554.4, -1359118.3, 9468.546, 0.021082114, -0.0010833681, -1190024.1, 116353.15, 0.0, 5.072802, 4.9611483 
7.4699e+2, 1.7165269e+2, -1152904.0, -1315811.5, 9430.862, 0.01950112, -0.00020508819, -1152359.9, 105443.0, 0.0, 5.0689554, 4.961143 
7.46777e+2, 1.7660949e+2, -1115195.4, -1272439.1, 9392.697, 0.017913485, 0.0007123054, -1114636.3, 94592.42, 0.0, 5.065111, 4.961138 
7.465639e+2, 1.8156628e+2, -1077484.1, -1229341.3, 8878.655, 0.016881842, 0.0014463797, -1076966.8, 83686.914, 0.0, 5.061308, 4.9610076 
7.4635005e+2, 1.8652247e+2, -1041068.8, -1189882.1, 8321.174, 0.018167228, 0.00672909, -1040604.94, 71478.305, 0.0, 5.0576773, 4.9595313 
7.461361e+2, 1.9147734e+2, -1002385.8, -1145925.8, 8075.266, 0.020025987, 0.004556609, -1001932.94, 61592.96, 0.0, 5.054115, 4.959529 
7.459223e+2, 1.964322e+2, -963647.1, -1101907.3, 7828.2017, 0.021922924, 0.0024310832, -963205.3, 51763.105, 0.0, 5.0505543, 4.9595265 
7.457085e+2, 2.0138714e+2, -925411.7, -1059028.0, 7427.0537, 0.02325479, 0.0015007273, -925000.1, 41410.836, 0.0, 5.0469866, 4.9591246 
7.4549365e+2, 2.063414e+2, -889434.4, -1020887.44, 6777.1577, 0.022603212, 0.009252728, -889085.94, 28774.834, 0.0, 5.043381, 4.957079 
7.452786e+2, 2.1129408e+2, -850651.5, -976738.6, 6477.7324, 0.021992771, 0.009601958, -850319.56, 19006.64, 0.0, 5.039779, 4.9570737 
7.450637e+2, 2.1624678e+2, -811806.44, -932519.9, 6169.474, 0.021402474, 0.009998962, -811491.94, 9299.73, 0.0, 5.03618, 4.957071 
7.4484897e+2, 2.2119953e+2, -772881.25, -888190.6, 5955.682, 0.020706464, 0.010096963, -772574.5, -318.38696, 0.0, 5.032584, 4.957086 
7.446336e+2, 2.2615162e+2, -736738.7, -849915.4, 5008.4453, 0.019754503, 0.016158301, -736517.44, -12792.053, 0.0, 5.0289536, 4.955004 
7.444179e+2, 2.311021e+2, -697885.0, -805283.56, 4544.703, 0.01839021, 0.013648666, -697693.0, -22482.813, 0.0, 5.025241, 4.955129 
7.4420226e+2, 2.3605262e+2, -659131.06, -760954.5, 4055.1223, 0.017045582, 0.01112473, -658969.9, -32274.975, 0.0, 5.0215335, 4.9551272 
7.4398685e+2, 2.4100314e+2, -620630.5, -717236.0, 3863.3706, 0.0155214425, 0.008663492, -620476.25, -42297.04, 0.0, 5.0178285, 4.954889 
7.437716e+2, 2.4595284e+2, -584150.6, -677889.56, 3378.6265, 0.014092933, 0.01198558, -584029.06, -54357.6, 0.0, 5.01409, 4.953102 
7.43556e+2, 2.509014e+2, -545312.7, -632721.5, 2664.7478, 0.012521589, 0.0062244274, -545231.5, -64056.54, 0.0, 5.0102124, 4.953402 
7.433405e+2, 2.5585e+2, -506829.3, -588354.6, 2098.4617, 0.011031711, 0.00028678938, -506775.34, -74096.875, 0.0, 5.0063314, 4.9534 
7.431253e+2, 2.607988e+2, -468414.63, -544046.1, 2283.9675, 0.009562789, -0.0031421825, -468345.7, -84166.375, 0.0, 5.002421, 4.9533687 
7.429116e+2, 2.6574805e+2, -433656.63, -506579.03, 2661.7998, 0.0069456026, 0.015499763, -433559.6, -97883.7, 0.0, 4.998242, 4.9509926 
7.426979e+2, 2.7069676e+2, -394632.38, -458938.1, 1659.4586, 0.004006348, 0.021300128, -394589.56, -107412.19, 0.0, 4.9939117, 4.952263 
7.424843e+2, 2.7564546e+2, -357296.34, -414905.72, 907.5045, 0.0010138389, 0.026432253, -357282.03, -118603.3, 0.0, 4.9895415, 4.952262 
7.4227095e+2, 2.8059348e+2, -319497.94, -370114.97, 233.8418, 0.00039630145, 0.023964673, -319496.84, -129310.22, 0.0, 4.9852295, 4.952469 
7.420599e+2, 2.8553718e+2, -284558.13, -332103.5, 1312.1599, 0.008238399, -0.0051395665, -284521.94, -142786.89, 0.0, 4.9809895, 4.9501905 
7.4184984e+2, 2.9048163e+2, -244631.3, -282470.63, 180.80981, 0.018113686, -0.042676378, -244630.44, -151354.36, 0.0, 4.9766417, 4.952087 
7.4164e+2, 2.9542616e+2, -207263.63, -238194.14, -678.579, 0.028257044, -0.080790564, -207248.73, -162432.23, 0.0, 4.9721994, 4.9520984 
7.414295e+2, 3.0037305e+2, -174090.75, -202504.73, -632.7678, 0.028834576, -0.08341402, -174076.67, -174076.67, 0.0, 4.9675703, 4.9490843 
7.412194e+2, 3.0534193e+2, -132176.95, -112870.875, 1369.0638, -0.00730745, 0.026587207, -112774.27, -112774.27, 0.0, 4.962723, 4.974451 
7.4101335e+2, 3.103238e+2, -142111.28, -110790.01, 498.9671, -0.049793623, 0.09349757, -110782.06, -110782.06, 0.0, 4.957888, 4.977303 
7.408075e+2, 3.1530625e+2, -155929.28, -116845.09, -449.35547, -0.09267137, 0.16358167, -116839.93, -116839.93, 0.0, 4.9528947, 4.9772925 
7.406148e+2, 3.202351e+2, -97385.63, 44438.03, -2189.427, 0.0008246515, -0.39907718, 44471.82, 44471.82, 0.0, 4.947522, 5.038313 
7.53991e+2, 1.2724784e+2, -1474558.8, -1694078.9, 8950.461, -0.02283795, 0.0024657606, -1474194.4, 218773.69, 0.0, 5.1084642, 4.9620485 
7.5377756e+2, 1.3220504e+2, -1440102.1, -1652703.4, 8918.027, -0.012793172, -0.00039063825, -1439728.6, 204658.81, 0.0, 5.1036577, 4.962039 
7.5356424e+2, 1.3716224e+2, -1405578.8, -1611249.8, 8883.614, -0.0027278864, -0.0032039422, -1405195.8, 190611.28, 0.0, 5.098855, 4.962029 
7.533502e+2, 1.4211948e+2, -1371200.4, -1569998.0, 8337.752, 0.0030351782, -0.0052939057, -1370851.3, 176374.67, 0.0, 5.094038, 4.9619184 
7.531348e+2, 1.4707795e+2, -1334136.8, -1525055.0, 7347.5205, 0.0045443173, 0.00082604925, -1333854.4, 164778.17, 0.0, 5.089606, 4.962774 
7.529193e+2, 1.52036e+2, -1297945.6, -1482598.6, 7344.271, 0.0105900625, -0.0030936578, -1297654.0, 152389.27, 0.0, 5.085324, 4.962777 
7.527039e+2, 1.5699406e+2, -1261692.0, -1440071.6, 7340.7495, 0.016586816, -0.006818801, -1261390.4, 140063.55, 0.0, 5.081044, 4.962781 
7.524882e+2, 1.6195224e+2, -1225855.3, -1398774.8, 6877.5605, 0.0206889, -0.0081036845, -1225582.1, 127282.266, 0.0, 5.076815, 4.962336 
7.5227153e+2, 1.6691025e+2, -1190016.4, -1358650.4, 6611.1216, 0.021164289, -0.0010198177, -1189757.6, 114520.25, 0.0, 5.072846, 4.961336 
7.520545e+2, 1.718673e+2, -1152366.9, -1315344.8, 6572.5444, 0.019530427, 0.0005123951, -1152102.3, 103598.484, 0.0, 5.0689993, 4.961331 
7.5183755e+2, 1.7682433e+2, -1114658.9, -1271973.4, 6533.4844, 0.017857138, 0.0020800654, -1114388.0, 92735.71, 0.0, 5.065155, 4.961326 
7.516206e+2, 1.8178132e+2, -1076993.3, -1228999.9, 6043.433, 0.016656172, 0.0030782486, -1076753.4, 81793.234, 0.0, 5.061357, 4.961152 
7.514031e+2, 1.8673751e+2, -1040906.5, -1190191.5, 5660.8223, 0.017620327, 0.007918799, -1040692.2, 69284.22, 0.0, 5.057721, 4.9594545 
7.5118554e+2, 1.9169225e+2, -1002221.7, -1146235.6, 5414.354, 0.019161247, 0.0053829923, -1002018.44, 59401.84, 0.0, 5.0541587, 4.959452 
7.5096816e+2, 1.96647e+2, -963481.25, -1102217.9, 5166.7275, 0.020712089, 0.002893865, -963289.1, 49574.984, 0.0, 5.0505986, 4.95945 
7.507507e+2, 2.0160185e+2, -925106.3, -1059049.6, 4689.935, 0.021634009, 0.0017789152, -924942.3, 39364.883, 0.0, 5.0470324, 4.9591475 
7.505322e+2, 2.0655607e+2, -889378.94, -1021426.0, 4086.1697, 0.02094651, 0.009307438, -889252.6, 26504.62, 0.0, 5.0434237, 4.9569254 
7.503136e+2, 2.1150854e+2, -850591.4, -977270.94, 3782.8503, 0.020195281, 0.009239115, -850478.5, 16745.613, 0.0, 5.0398216, 4.956922 
7.50095e+2, 2.1646105e+2, -811745.2, -933051.9, 3474.3643, 0.019444594, 0.00923454, -811645.75, 7045.225, 0.0, 5.036223, 4.9569197 
7.498766e+2, 2.2141355e+2, -772863.9, -888838.44, 3263.6697, 0.018677166, 0.008805865, -772772.1, -2614.9792, 0.0, 5.032629, 4.956894 
7.4965763e+2, 2.2636536e+2, -736883.94, -850989.9, 2186.1216, 0.017734716, 0.01468978, -736842.06, -15212.711, 0.0, 5.029006, 4.954665 
7.494382e+2, 2.3131548e+2, -698075.75, -806451.25, 1750.3124, 0.016367082, 0.012212682, -698047.5, -24929.51, 0.0, 5.0252924, 4.954757 
7.492189e+2, 2.3626561e+2, -659318.06, -762118.6, 1259.4513, 0.014997234, 0.009722807, -659302.6, -34696.164, 0.0, 5.021585, 4.954756 
7.489998e+2, 2.4121581e+2, -620672.06, -718094.56, 1095.9147, 0.013468724, 0.00730116, -620659.7, -44565.527, 0.0, 5.0178823, 4.9546223 
7.4878085e+2, 2.4616519e+2, -584349.7, -679187.6, 439.22687, 0.011890938, 0.010520873, -584347.7, -56758.355, 0.0, 5.014153, 4.9526834 
7.4856126e+2, 2.5111336e+2, -545531.4, -634072.2, -276.8601, 0.010260871, 0.005205992, -545530.5, -66434.07, 0.0, 5.010276, 4.9529643 
7.4834186e+2, 2.5606152e+2, -507043.78, -589703.56, -843.945, 0.008677863, -0.00026485889, -507035.16, -76431.59, 0.0, 5.0063953, 4.952962 
7.481228e+2, 2.6100996e+2, -468620.6, -545324.8, -676.2825, 0.0071833413, -0.0036183249, -468614.63, -86506.266, 0.0, 5.002476, 4.952956 
7.47905e+2, 2.6595858e+2, -433657.8, -507662.88, -519.3221, 0.0053973333, 0.013040719, -433654.2, -100043.42, 0.0, 4.9983425, 4.95063 
7.4768716e+2, 2.7090663e+2, -394584.1, -460148.4, -1359.2062, 0.0033354163, 0.016199445, -394555.94, -109436.484, 0.0, 4.9940605, 4.9518337 
7.4746937e+2, 2.7585462e+2, -357011.34, -415993.0, -1936.9895, 0.001182149, 0.01871311, -356947.78, -120319.72, 0.0, 4.989774, 4.9518366 
7.4725175e+2, 2.8080207e+2, -318867.1, -370833.56, -2255.499, 0.0005607011, 0.014907378, -318769.38, -130627.78, 0.0, 4.985544, 4.9521365 
7.470364e+2, 2.8574622e+2, -283769.13, -333212.3, -1056.0784, 0.0048853816, -0.004525542, -283746.56, -144061.03, 0.0, 4.9814425, 4.9496665 
7.468217e+2, 2.9069117e+2, -243246.4, -283276.72, -2024.0056, 0.0109282825, -0.030562073, -243144.34, -151922.9, 0.0, 4.9773, 4.95158 
7.466072e+2, 2.9563618e+2, -205051.33, -238635.1, -2725.2048, 0.017353361, -0.057388388, -204831.63, -162074.6, 0.0, 4.9731545, 4.951593 
7.463923e+2, 3.005829e+2, -169981.19, -199873.02, -2683.0457, 0.01598968, -0.060819298, -169742.27, -169742.27, 0.0, 4.9687824, 4.9495583 
7.461784e+2, 3.0554846e+2, -129361.18, -112342.4, -962.5973, -0.010053203, 0.025158448, -112288.125, -112288.125, 0.0, 4.9637666, 4.9742723 
7.459685e+2, 3.1052697e+2, -139636.94, -110571.586, -1603.6486, -0.04064644, 0.072586566, -110483.375, -110483.375, 0.0, 4.9588323, 4.977056 
7.4575865e+2, 3.155061e+2, -153182.05, -116556.625, -2473.7834, -0.07151104, 0.12384412, -116390.3, -116390.3, 0.0, 4.953928, 4.977038 
7.455592e+2, 3.204463e+2, -101780.16, 25168.316, -8550.497, 0.0010759336, -0.30929175, 25741.639, 25741.639, 0.0, 4.949199, 5.0307484 
7.590951e+2, 1.2746078e+2, -1473700.6, -1693312.3, 5405.6025, -0.021698754, 0.009002554, -1473567.6, 217317.22, 0.0, 5.108565, 4.962319 
7.588767e+2, 1.3241817e+2, -1439247.5, -1651951.3, 5371.173, -0.012079178, 0.0053575374, -1439112.0, 203190.11, 0.0, 5.1037564, 4.9623075 
7.586586e+2, 1.3737553e+2, -1404738.6, -1610515.5, 5348.3804, -0.0024584134, 0.0017054984, -1404599.8, 189119.78, 0.0, 5.098948, 4.962296 
7.584396e+2, 1.4233296e+2, -1370345.9, -1569183.6, 4815.714, 0.002512682, -0.0010757064, -1370229.3, 174906.97, 0.0, 5.094122, 4.9622145 
7.5821966e+2, 1.4729159e+2, -1333430.4, -1524412.6, 4206.187, 0.0037514481, 0.0037002875, -1333337.8, 163203.42, 0.0, 5.089675, 4.963013 
7.5799996e+2, 1.5224975e+2, -1297295.4, -1481991.3, 4201.921, 0.010166553, -0.001521328, -1297199.8, 150750.78, 0.0, 5.085373, 4.9630156 
7.577803e+2, 1.5720794e+2, -1261147.3, -1439518.3, 4186.4746, 0.016493397, -0.0065972544, -1261049.1, 138310.81, 0.0, 5.081056, 4.963019 
7.575604e+2, 1.6216631e+2, -1225309.4, -1398044.9, 3765.275, 0.020704625, -0.008500084, -1225227.4, 125540.84, 0.0, 5.076794, 4.9626503 
7.573397e+2, 1.6712463e+2, -1189474.8, -1358186.5, 3754.3127, 0.02129413, -0.0008080412, -1189391.3, 112786.914, 0.0, 5.072892, 4.9615226 
7.5711876e+2, 1.7208192e+2, -1151825.9, -1314881.9, 3714.845, 0.0195907, 0.0013394009, -1151741.4, 101856.89, 0.0, 5.0690455, 4.961518 
7.56898e+2, 1.770392e+2, -1114118.6, -1271511.5, 3674.8926, 0.01781509, 0.0035187502, -1114032.9, 90985.53, 0.0, 5.0652018, 4.961513 
7.5667727e+2, 1.8199636e+2, -1076528.6, -1228727.6, 3216.0952, 0.016432412, 0.00470176, -1076460.8, 79978.766, 0.0, 5.0614076, 4.9612737 
7.5645596e+2, 1.8695253e+2, -1040741.06, -1190504.3, 3001.7668, 0.017088296, 0.009106017, -1040680.94, 67188.664, 0.0, 5.057767, 4.9593773 
7.562349e+2, 1.9190715e+2, -1002054.4, -1146548.9, 2754.7402, 0.018306743, 0.006173908, -1002001.9, 57312.8, 0.0, 5.054205, 4.9593744 
7.560139e+2, 1.9686179e+2, -963312.1, -1102531.8, 2506.5542, 0.019506877, 0.003288284, -963267.0, 47492.766, 0.0, 5.0506454, 4.9593716 
7.557928e+2, 2.0181659e+2, -924811.06, -1059103.5, 1951.3171, 0.02002122, 0.0020638427, -924782.7, 37420.676, 0.0, 5.0470796, 4.95916 
7.5557065e+2, 2.067707e+2, -889318.25, -1021964.3, 1395.1204, 0.019301377, 0.009383258, -889303.56, 24350.117, 0.0, 5.043468, 4.9567723 
7.553484e+2, 2.1172298e+2, -850527.94, -977806.9, 1088.6595, 0.018399006, 0.008846364, -850518.6, 14603.381, 0.0, 5.0398664, 4.9567695 
7.5512624e+2, 2.166753e+2, -811680.6, -933587.44, 779.94714, 0.017477619, 0.008389298, -811675.6, 4914.655, 0.0, 5.0362673, 4.956767 
7.5490427e+2, 2.216276e+2, -772845.5, -889510.06, 545.0004, 0.016674925, 0.0075053014, -772842.94, -4784.655, 0.0, 5.0326777, 4.9566936 
7.546816e+2, 2.265791e+2, -737061.06, -852133.8, -606.72766, 0.015737284, 0.013282537, -737057.8, -17524.434, 0.0, 5.0290594, 4.9543023 
7.544584e+2, 2.3152885e+2, -698262.9, -807622.7, -1043.688, 0.014354981, 0.010811143, -698252.94, -27227.049, 0.0, 5.0253463, 4.9543843 
7.542354e+2, 2.3647861e+2, -659501.4, -763286.5, -1535.8282, 0.012947236, 0.008327345, -659478.6, -36960.49, 0.0, 5.021639, 4.9543834 
7.5401264e+2, 2.4142845e+2, -620713.3, -718956.0, -1644.3113, 0.011444746, 0.005946547, -620685.8, -46676.586, 0.0, 5.0179377, 4.954355 
7.5378984e+2, 2.4637751e+2, -584556.8, -680527.2, -2525.592, 0.009718133, 0.009110454, -584490.4, -58983.1, 0.0, 5.0142193, 4.9522505 
7.5356644e+2, 2.5132528e+2, -545746.44, -635426.8, -3217.091, 0.008029027, 0.004214616, -545631.2, -68613.13, 0.0, 5.0103416, 4.952525 
7.5334316e+2, 2.5627303e+2, -507254.56, -591056.5, -3784.9746, 0.006351032, -0.0008214169, -507083.94, -78555.18, 0.0, 5.0064616, 4.952523 
7.531202e+2, 2.6122105e+2, -468749.5, -546450.5, -3687.6257, 0.004842582, -0.0042176507, -468574.88, -88537.195, 0.0, 5.002535, 4.9525986 
7.5289845e+2, 2.6616913e+2, -433857.75, -508999.75, -3761.1904, 0.003892322, 0.010432606, -433669.97, -102123.99, 0.0, 4.998404, 4.9501987 
7.526763e+2, 2.7111644e+2, -394779.03, -461489.66, -4635.352, 0.0026909225, 0.010876154, -394458.47, -111396.66, 0.0, 4.9941235, 4.9514 
7.524543e+2, 2.7606374e+2, -357204.56, -417329.66, -5213.906, 0.0013513094, 0.01071511, -356755.78, -122178.195, 0.0, 4.989836, 4.951404 
7.5223255e+2, 2.8101075e+2, -319090.25, -372318.0, -5380.919, 0.0005303601, 0.0064331004, -318551.72, -132455.75, 0.0, 4.9856186, 4.9516473 
7.5201267e+2, 2.8595534e+2, -283906.28, -334598.06, -4200.4287, 0.0012169103, -0.003444987, -283560.6, -145925.52, 0.0, 4.9815283, 4.949212 
7.5179344e+2, 2.9090086e+2, -243454.1, -284837.0, -5203.5283, 0.0032921887, -0.018554335, -242809.83, -153644.44, 0.0, 4.9773855, 4.9510646 
7.515744e+2, 2.958464e+2, -205265.98, -240196.83, -5878.7017, 0.005630867, -0.03430307, -204303.16, -163607.75, 0.0, 4.9732366, 4.9510775 
7.513551e+2, 3.0079287e+2, -169728.94, -200342.25, -6217.4844, 0.0025408906, -0.036440834, -168514.38, -168514.38, 0.0, 4.9688635, 4.949429 
7.511375e+2, 3.0575502e+2, -129297.62, -113262.516, -4849.749, -0.012186099, 0.020095618, -111909.84, -111909.84, 0.0, 4.9638333, 4.973997 
7.509237e+2, 3.1072986e+2, -139651.17, -111580.195, -5152.915, -0.03031547, 0.038309064, -110664.18, -110664.18, 0.0, 4.9588757, 4.9767623 
7.5071007e+2, 3.1570542e+2, -153285.94, -117672.59, -5685.484, -0.049295586, 0.062304817, -116786.96, -116786.96, 0.0, 4.9539466, 4.9767203 
7.505019e+2, 3.2067102e+2, -124606.984, -27644.75, -8561.64, -0.021086521, -0.031537473, -26894.572, -26894.572, 0.0, 4.949159, 5.0114655 
7.641993e+2, 1.2767568e+2, -1473664.5, -1692115.4, 7694.8535, -0.017142093, 0.009914065, -1473393.9, 215386.25, 0.0, 5.108372, 4.962788 
7.639761e+2, 1.3263318e+2, -1438985.0, -1650675.3, 7521.639, -0.008867334, 0.0061082207, -1438718.1, 201478.03, 0.0, 5.103646, 4.962767 
7.63753e+2, 1.3759068e+2, -1404302.9, -1609127.0, 7344.4907, -0.00033249718, 0.0024653908, -1404039.8, 187572.52, 0.0, 5.098887, 4.962773 
7.63529e+2, 1.425483e+2, -1369720.4, -1567771.0, 6656.006, 0.0029250982, 0.00012663104, -1369497.0, 173530.39, 0.0, 5.094141, 4.9626627 
7.633046e+2, 1.4750709e+2, -1332414.1, -1522960.6, 6245.779, 0.0029579222, 0.0052952403, -1332209.6, 162221.31, 0.0, 5.0898614, 4.9633975 
7.6308054e+2, 1.5246536e+2, -1295709.1, -1480338.1, 6028.194, 0.009008414, 0.00028371988, -1295512.5, 150326.97, 0.0, 5.085762, 4.9633784 
7.6285666e+2, 1.574236e+2, -1258994.9, -1437671.4, 5807.9033, 0.015303206, -0.0048936666, -1258806.3, 138442.13, 0.0, 5.0816474, 4.9633594 
7.626325e+2, 1.6238205e+2, -1222571.0, -1395692.4, 5258.4536, 0.019864572, -0.0070622875, -1222411.5, 126244.305, 0.0, 5.0775433, 4.9630885 
7.624079e+2, 1.6734047e+2, -1187108.6, -1356259.4, 5311.993, 0.020855838, 0.00023680358, -1186942.0, 113122.16, 0.0, 5.073574, 4.9618464 
7.621832e+2, 1.722978e+2, -1149219.9, -1312881.6, 5076.5757, 0.019379936, 0.002119555, -1149062.6, 102420.64, 0.0, 5.0698137, 4.9618316 
7.6195854e+2, 1.7725514e+2, -1111353.5, -1269477.0, 4834.0425, 0.017857932, 0.0041541266, -1111205.9, 91696.586, 0.0, 5.0660276, 4.9618173 
7.6173395e+2, 1.8221232e+2, -1073865.6, -1227001.3, 4202.712, 0.016482862, 0.0052982373, -1073750.4, 80572.67, 0.0, 5.0622444, 4.961474 
7.61509e+2, 1.871684e+2, -1038401.56, -1189340.4, 3960.1155, 0.016627831, 0.009765818, -1038297.75, 67456.414, 0.0, 5.0585794, 4.959396 
7.6128423e+2, 1.9212285e+2, -999762.44, -1145437.0, 3514.758, 0.017360551, 0.006830072, -999677.7, 57523.54, 0.0, 5.0550017, 4.9593873 
7.610596e+2, 1.970773e+2, -961101.94, -1101487.3, 3066.5295, 0.018121308, 0.0038793604, -961034.94, 47613.29, 0.0, 5.051414, 4.9593787 
7.608349e+2, 2.0203197e+2, -922566.8, -1057892.8, 2235.2354, 0.018323965, 0.0026578654, -922529.9, 37563.152, 0.0, 5.0478244, 4.9592404 
7.6060915e+2, 2.0698589e+2, -887283.94, -1021245.1, 1515.9264, 0.017704787, 0.00956344, -887266.75, 24278.098, 0.0, 5.0442166, 4.956685 
7.6038325e+2, 2.1193786e+2, -848523.6, -977135.0, 979.11304, 0.0167968, 0.008362473, -848516.1, 14499.565, 0.0, 5.0406055, 4.956676 
7.6015747e+2, 2.1688986e+2, -809759.8, -932985.2, 438.35092, 0.01586469, 0.0072740936, -809758.25, 4728.126, 0.0, 5.0369782, 4.9566674 
7.5993186e+2, 2.2184187e+2, -771054.7, -889069.94, -34.97625, 0.0150962155, 0.006010221, -771054.7, -5097.7007, 0.0, 5.0333567, 4.9565587 
7.597055e+2, 2.2679307e+2, -735579.25, -852293.9, -1425.8024, 0.014077393, 0.0118574295, -735561.9, -18126.393, 0.0, 5.029714, 4.9539757 
7.594786e+2, 2.3174238e+2, -696883.3, -807835.0, -2082.7085, 0.012632375, 0.009456054, -696844.25, -27912.09, 0.0, 5.025959, 4.954063 
7.592519e+2, 2.3669173e+2, -658289.8, -763603.0, -2784.6206, 0.011168824, 0.0070116706, -658216.25, -37787.625, 0.0, 5.022192, 4.9540567 
7.590254e+2, 2.4164121e+2, -619586.9, -719126.06, -3044.2122, 0.009697019, 0.00468388, -619493.8, -47570.527, 0.0, 5.018417, 4.9541154 
7.5879884e+2, 2.4658988e+2, -583825.94, -681291.0, -4406.1113, 0.0077277888, 0.0077918363, -583627.1, -60202.38, 0.0, 5.014623, 4.9518485 
7.585715e+2, 2.5153723e+2, -545285.25, -636353.75, -5310.9355, 0.0059161377, 0.0032635364, -544976.6, -70037.164, 0.0, 5.010652, 4.952111 
7.583443e+2, 2.564846e+2, -507066.3, -592132.5, -6122.6694, 0.004096124, -0.0013807218, -506627.9, -80173.93, 0.0, 5.006674, 4.952104 
7.581175e+2, 2.6143214e+2, -468781.47, -547496.25, -6330.4814, 0.0025495943, -0.0049286955, -468275.6, -90308.4, 0.0, 5.002638, 4.95224 
7.5789165e+2, 2.663796e+2, -434035.25, -510261.53, -6772.1553, 0.0024445762, 0.0076802373, -433438.28, -103956.76, 0.0, 4.9984727, 4.9497848 
7.5766534e+2, 2.7132624e+2, -395049.94, -462823.8, -7717.63, 0.0020817232, 0.0053191436, -394182.22, -113177.664, 0.0, 4.9941607, 4.950976 
7.5743914e+2, 2.7627286e+2, -357476.78, -418665.3, -8313.145, 0.0015329128, 0.002410514, -356367.47, -123839.99, 0.0, 4.989872, 4.95098 
7.572132e+2, 2.812194e+2, -319398.9, -373817.5, -8272.565, 0.00033677794, -0.001413751, -318169.13, -134118.95, 0.0, 4.9856677, 4.9511595 
7.569889e+2, 2.8616452e+2, -284169.88, -336144.38, -7231.265, -0.0026977586, -0.0020348544, -283182.53, -147598.14, 0.0, 4.981596, 4.9487057 
7.5676507e+2, 2.9111055e+2, -243716.28, -286396.88, -8254.974, -0.00460068, -0.007014688, -242175.3, -155065.95, 0.0, 4.977453, 4.950554 
7.5654143e+2, 2.960566e+2, -205547.97, -241771.22, -8935.67, -0.0063574226, -0.012478663, -203463.63, -164829.7, 0.0, 4.973296, 4.950565 
7.563178e+2, 3.010027e+2, -170459.81, -202894.63, -9729.519, -0.010502621, -0.010551381, -167765.13, -167765.13, 0.0, 4.9689136, 4.948566 
7.560965e+2, 3.059613e+2, -129304.945, -114073.125, -8625.783, -0.01344798, 0.01079859, -110182.24, -110182.24, 0.0, 4.963854, 4.9737654 
7.558788e+2, 3.109323e+2, -139845.25, -112666.02, -8626.569, -0.019025074, -0.009936391, -110159.2, -110159.2, 0.0, 4.9588585, 4.9764514 
7.5566125e+2, 3.1590408e+2, -153609.31, -118885.945, -8830.551, -0.026036846, -0.022921111, -116769.266, -116769.266, 0.0, 4.9538903, 4.9763846 
7.554421e+2, 3.2088873e+2, -131148.67, -41442.31, -6991.3564, -0.063206986, 0.103612304, -40900.7, -40900.7, 0.0, 4.948789, 5.0064907 
7.6930386e+2, 1.2790284e+2, -1468213.0, -1686553.0, 13864.24, -0.012411429, 0.009173492, -1467336.1, 219218.33, 0.0, 5.1100106, 4.9636745 
7.6907563e+2, 1.3286063e+2, -1434079.0, -1645356.4, 13951.894, -0.0051830304, 0.005184131, -1433161.8, 204806.05, 0.0, 5.105099, 4.9636617 
7.688476e+2, 1.3781841e+2, -1399838.5, -1603994.6, 14039.245, 0.0021678, 0.0013604646, -1398877.5, 190503.7, 0.0, 5.100191, 4.963677 
7.686186e+2, 1.4277634e+2, -1365606.1, -1562696.3, 13784.293, 0.0033557008, -0.00060992624, -1364646.8, 176146.6, 0.0, 5.095312, 4.9636087 
7.683897e+2, 1.4773552e+2, -1328671.9, -1518219.5, 14109.288, 0.0019355947, 0.0056815725, -1327627.4, 164566.16, 0.0, 5.090966, 4.9642563 
7.681615e+2, 1.5269412e+2, -1291950.6, -1475552.1, 14203.503, 0.0068148384, 0.0018265112, -1290858.4, 152741.02, 0.0, 5.0868773, 4.9642467 
7.679335e+2, 1.5765266e+2, -1255159.0, -1432798.3, 14242.86, 0.011894304, -0.0021790506, -1254024.3, 140981.38, 0.0, 5.082791, 4.9642434 
7.677052e+2, 1.6261137e+2, -1218561.9, -1390528.3, 14143.522, 0.016192079, -0.004073908, -1217406.5, 129004.086, 0.0, 5.078724, 4.964047 
7.6747686e+2, 1.6756988e+2, -1182949.3, -1351243.8, 14726.341, 0.017970258, 0.0019596433, -1181670.4, 116147.055, 0.0, 5.074888, 4.9626813 
7.672485e+2, 1.725272e+2, -1144734.5, -1307681.6, 14757.717, 0.017175598, 0.0026869911, -1143408.8, 105827.22, 0.0, 5.071246, 4.9626737 
7.670203e+2, 1.7748451e+2, -1106463.4, -1264057.1, 14788.47, 0.016367206, 0.0035828364, -1105087.8, 95566.85, 0.0, 5.067606, 4.9626665 
7.66792e+2, 1.824417e+2, -1068658.9, -1221574.5, 14431.97, 0.015290239, 0.004125376, -1067308.6, 84766.26, 0.0, 5.0639753, 4.9622545 
7.665634e+2, 1.8739773e+2, -1033160.6, -1184248.8, 14662.994, 0.01520253, 0.009125071, -1031750.75, 71755.81, 0.0, 5.0604243, 4.9599996 
7.663351e+2, 1.9235204e+2, -994115.6, -1140126.5, 14478.757, 0.015635023, 0.0066440282, -992693.7, 62261.504, 0.0, 5.0569935, 4.9599986 
7.6610696e+2, 1.9730635e+2, -955016.5, -1095945.0, 14293.121, 0.016094154, 0.0041727214, -953581.5, 52822.35, 0.0, 5.0535645, 4.959998 
7.658788e+2, 2.0226082e+2, -915844.75, -1051859.4, 13697.709, 0.01619683, 0.002814687, -914479.0, 43371.254, 0.0, 5.0501676, 4.9599404 
7.656495e+2, 2.0721439e+2, -880263.56, -1015535.6, 13310.886, 0.015572569, 0.008697888, -878966.2, 30338.902, 0.0, 5.0467734, 4.957173 
7.654201e+2, 2.1216592e+2, -840859.3, -971123.1, 12990.177, 0.0147152245, 0.006652811, -839576.5, 21203.34, 0.0, 5.043395, 4.9571657 
7.6519084e+2, 2.1711746e+2, -801401.44, -926651.3, 12668.151, 0.013870627, 0.004692858, -800133.0, 12121.627, 0.0, 5.040018, 4.9571586 
7.649618e+2, 2.2206905e+2, -761934.9, -882275.9, 12411.297, 0.012914108, 0.0030997745, -760668.2, 3060.767, 0.0, 5.036649, 4.957098 
7.6473176e+2, 2.270198e+2, -726214.94, -846022.06, 11207.152, 0.011484187, 0.009273515, -725175.56, -9963.843, 0.0, 5.033221, 4.9542403 
7.6450115e+2, 2.3196858e+2, -686995.9, -801261.1, 10725.912, 0.009876894, 0.0073130205, -685997.8, -19283.975, 0.0, 5.0296416, 4.9543595 
7.6427066e+2, 2.3691736e+2, -647873.94, -756796.1, 10214.401, 0.008344092, 0.0053110123, -646924.3, -28708.527, 0.0, 5.0260673, 4.954355 
7.640405e+2, 2.4186626e+2, -608672.56, -712026.8, 10165.379, 0.0070494367, 0.0031591172, -607682.25, -37966.156, 0.0, 5.0224605, 4.9544487 
7.638101e+2, 2.4681431e+2, -572982.25, -674616.8, 8716.623, 0.0054963604, 0.006382327, -572240.06, -51016.215, 0.0, 5.018699, 4.952034 
7.6357883e+2, 2.517609e+2, -534533.4, -629817.56, 8003.0557, 0.003929362, 0.0020974493, -533865.9, -61119.914, 0.0, 5.014716, 4.952262 
7.633477e+2, 2.567075e+2, -496331.7, -585620.1, 7339.1616, 0.0023094597, -0.0023314962, -495732.47, -71464.5, 0.0, 5.0107346, 4.952256 
7.631168e+2, 2.6165423e+2, -457818.78, -540638.8, 7228.9136, 0.0007759396, -0.0060787266, -457192.56, -81403.664, 0.0, 5.006729, 4.9525113 
7.6288664e+2, 2.6660088e+2, -423364.84, -504004.06, 6458.807, 0.0005077763, 0.0054665557, -422850.78, -95539.266, 0.0, 5.002532, 4.9498773 
7.62656e+2, 2.7154657e+2, -384725.53, -456753.47, 5173.17, 0.0004398299, 0.0017513005, -384355.88, -105511.99, 0.0, 4.998087, 4.9510813 
7.6242536e+2, 2.7649224e+2, -347774.0, -412968.6, 4188.094, 0.00050980615, -0.0027504438, -347506.06, -117129.72, 0.0, 4.993577, 4.95107 
7.621951e+2, 2.8143802e+2, -310676.0, -368752.53, 4135.617, -0.00026570162, -0.0059322193, -310383.0, -128476.37, 0.0, 4.9890466, 4.951189 
7.619664e+2, 2.8638288e+2, -276701.53, -331509.66, 4591.212, -0.0045550824, -0.0013747404, -276319.6, -142876.17, 0.0, 4.984487, 4.9488096 
7.61738e+2, 2.9132867e+2, -237822.08, -282578.97, 3339.749, -0.008008694, -0.0012611197, -237574.23, -152603.33, 0.0, 4.979797, 4.9506187 
7.615097e+2, 2.9627454e+2, -201168.27, -238642.56, 2434.9912, -0.0114777945, -0.0017488102, -201010.7, -164512.95, 0.0, 4.975093, 4.950631 
7.6128155e+2, 3.0121988e+2, -167818.08, -201562.89, 1541.4548, -0.01578489, 0.0038938045, -167747.81, -167747.81, 0.0, 4.9702926, 4.948182 
7.610559e+2, 3.0617592e+2, -125428.086, -110717.266, 1451.3209, -0.011991088, 0.0016308967, -110575.445, -110575.445, 0.0, 4.965373, 4.974071 
7.6083386e+2, 3.1114343e+2, -136315.0, -109554.43, 814.4012, -0.008035681, -0.055384364, -109529.664, -109529.664, 0.0, 4.960258, 4.976718 
7.606121e+2, 3.161111e+2, -151254.38, -116250.945, 221.4757, -0.003342691, -0.11262338, -116249.55, -116249.55, 0.0, 4.954856, 4.9766593 
7.603806e+2, 3.210978e+2, -104197.15, 21722.248, 108.0746, -0.10662141, -0.07986055, 21722.342, 21722.342, 0.0, 4.948931, 5.0291324 
7.744091e+2, 1.2813514e+2, -1467109.1, -1685290.1, 10262.726, -0.007979376, 0.009518475, -1466627.4, 217650.92, 0.0, 5.1100903, 4.964127 
7.741758e+2, 1.3309336e+2, -1432974.4, -1644099.0, 10353.983, -0.001688955, 0.005344609, -1432467.8, 203219.77, 0.0, 5.1051803, 4.9641128 
7.739428e+2, 1.3805154e+2, -1398745.3, -1602767.5, 10426.356, 0.0044664834, 0.0012947771, -1398213.8, 188883.14, 0.0, 5.100273, 4.964119 
7.737087e+2, 1.4300998e+2, -1364462.5, -1561352.9, 10326.1875, 0.0034403885, -0.00016541437, -1363922.5, 174582.11, 0.0, 5.0953956, 4.9640884 
7.734753e+2, 1.4796971e+2, -1327767.1, -1517150.5, 11090.402, 0.0005572812, 0.0072483607, -1327119.9, 162779.89, 0.0, 5.0910254, 4.964645 
7.732429e+2, 1.529288e+2, -1291051.4, -1474489.9, 11184.708, 0.0042715278, 0.004478414, -1290371.9, 150929.42, 0.0, 5.0869355, 4.9646344 
7.730107e+2, 1.5788785e+2, -1254274.0, -1431766.5, 11226.911, 0.008122104, 0.0015947946, -1253566.8, 139136.45, 0.0, 5.0828495, 4.964622 
7.727783e+2, 1.6284697e+2, -1217583.4, -1389252.0, 11134.179, 0.012321114, -0.0001461835, -1216864.3, 127239.45, 0.0, 5.078778, 4.964508 
7.7254623e+2, 1.6780572e+2, -1182267.8, -1350466.5, 12023.923, 0.014950727, 0.0045448374, -1181412.6, 114094.914, 0.0, 5.0749288, 4.9629736 
7.7231425e+2, 1.727632e+2, -1144054.1, -1306906.5, 12055.48, 0.014832724, 0.0039985175, -1143166.5, 103757.21, 0.0, 5.071287, 4.9629664 
7.720825e+2, 1.7772068e+2, -1105789.3, -1263296.1, 12080.185, 0.014655264, 0.00361832, -1104868.1, 93471.9, 0.0, 5.0676475, 4.962955 
7.718506e+2, 1.8267804e+2, -1068114.4, -1221095.9, 11705.901, 0.013654762, 0.0036062566, -1067223.9, 82534.53, 0.0, 5.0640173, 4.962448 
7.716184e+2, 1.8763423e+2, -1032916.25, -1184335.3, 12108.484, 0.013443023, 0.009190012, -1031954.06, 69234.625, 0.0, 5.0604587, 4.960001 
7.713867e+2, 1.9258858e+2, -993868.44, -1140213.0, 11924.514, 0.0136824045, 0.0071167215, -992903.2, 59733.96, 0.0, 5.0570283, 4.96 
7.711551e+2, 1.9754292e+2, -954774.3, -1096047.8, 11738.312, 0.013915651, 0.005043331, -953805.6, 50279.96, 0.0, 5.0536, 4.959994 
7.7092344e+2, 2.024974e+2, -915481.6, -1051736.4, 11113.86, 0.014007902, 0.0033358946, -914581.06, 40950.75, 0.0, 5.0502086, 4.960013 
7.706907e+2, 2.0745078e+2, -880230.1, -1016117.06, 10789.723, 0.013297442, 0.008011411, -879378.75, 27609.291, 0.0, 5.0468135, 4.957004 
7.704579e+2, 2.1240205e+2, -840821.25, -971702.0, 10469.524, 0.012358679, 0.0050190934, -839989.06, 18475.947, 0.0, 5.0434356, 4.9569974 
7.702253e+2, 2.173533e+2, -801358.8, -927227.7, 10148.011, 0.0113880625, 0.0021038721, -800545.9, 9396.099, 0.0, 5.0400596, 4.9569907 
7.6999277e+2, 2.223047e+2, -761844.9, -882762.75, 9856.016, 0.009981349, 0.00026542245, -761046.75, 371.31732, 0.0, 5.036692, 4.956961 
7.6975924e+2, 2.272552e+2, -726464.9, -847307.1, 8546.052, 0.00800195, 0.006657638, -725863.5, -12960.246, 0.0, 5.0332675, 4.953828 
7.695251e+2, 2.3220362e+2, -687209.8, -802484.56, 8051.9443, 0.0061204717, 0.0050968467, -686650.06, -22241.34, 0.0, 5.0296907, 4.9539676 
7.6929104e+2, 2.3715204e+2, -648081.06, -758016.3, 7540.2593, 0.0042790966, 0.0034885537, -647566.3, -31652.127, 0.0, 5.0261173, 4.953963 
7.690573e+2, 2.4210057e+2, -608868.1, -713179.5, 7448.8633, 0.0030482996, 0.0014347249, -608338.9, -40920.793, 0.0, 5.0225034, 4.954081 
7.6882315e+2, 2.4704823e+2, -573312.6, -676204.25, 5688.797, 0.0024627447, 0.0050468575, -572999.06, -54069.227, 0.0, 5.018755, 4.951517 
7.685879e+2, 2.5199428e+2, -534907.0, -631494.9, 5006.879, 0.0014642421, 0.0009751944, -534648.1, -64190.836, 0.0, 5.0147705, 4.951713 
7.683528e+2, 2.5694034e+2, -496700.66, -587291.75, 4342.514, 0.00036502673, -0.0032404093, -496492.97, -74508.28, 0.0, 5.010789, 4.9517083 
7.681179e+2, 2.6188657e+2, -458062.78, -542060.0, 4210.1963, -0.0010772237, -0.0071672252, -457852.28, -84341.26, 0.0, 5.0067873, 4.9520497 
7.6788354e+2, 2.6683262e+2, -423605.53, -505766.34, 3274.7466, -0.0021881936, 0.0036607697, -423475.22, -98435.836, 0.0, 5.002645, 4.9492803 
7.676484e+2, 2.7177766e+2, -384776.9, -458439.7, 2161.576, -0.0029271091, -0.00028023164, -384713.53, -108135.63, 0.0, 4.9982705, 4.950478 
7.674133e+2, 2.7672267e+2, -347476.4, -414476.9, 1404.217, -0.0035631612, -0.004866843, -347447.0, -119330.484, 0.0, 4.993885, 4.9504714 
7.671788e+2, 2.8166783e+2, -309886.72, -369748.88, 1658.4678, -0.0036010202, -0.007960968, -309840.8, -130188.14, 0.0, 4.9894795, 4.9507117 
7.669459e+2, 2.8661215e+2, -275724.5, -332440.56, 2025.7959, -0.004938139, -0.0031390663, -275652.22, -144456.72, 0.0, 4.984981, 4.9483323 
7.6671314e+2, 2.915574e+2, -236756.1, -283510.7, 1003.73517, -0.005529439, -0.0024688535, -236734.56, -154005.14, 0.0, 4.9803324, 4.9501204 
7.6648045e+2, 2.9650268e+2, -199959.94, -239491.31, 289.484, -0.0062860735, -0.002505689, -199957.81, -165694.98, 0.0, 4.9756756, 4.9501395 
7.662476e+2, 3.0144736e+2, -165488.28, -200325.42, -377.4189, -0.010112567, -0.001591471, -165484.2, -165484.2, 0.0, 4.9709654, 4.948399 
7.660169e+2, 3.0640355e+2, -122513.84, -109956.9, -248.40137, -0.011869501, 0.0039532115, -109951.984, -109951.984, 0.0, 4.9663653, 4.974012 
7.657898e+2, 3.1137103e+2, -131844.13, -108235.28, -744.4409, -0.01342697, -0.04469923, -108211.836, -108211.836, 0.0, 4.9618263, 4.97661 
7.6556295e+2, 3.163383e+2, -144219.05, -113820.29, -1435.6158, -0.013061309, -0.09793035, -113752.64, -113752.64, 0.0, 4.9573236, 4.976562 
7.653273e+2, 3.213325e+2, -101864.41, 9660.157, -6165.291, -0.10225707, 0.039826974, 9999.951, 9999.951, 0.0, 4.952153, 5.0236044 
7.7951413e+2, 1.2836745e+2, -1466189.6, -1684097.1, 6621.341, -0.0039302045, 0.010052659, -1465988.6, 216013.67, 0.0, 5.110103, 4.9645886 
7.7927595e+2, 1.333261e+2, -1431772.8, -1642778.1, 6725.5205, 0.0014587828, 0.0055437577, -1431558.5, 201848.7, 0.0, 5.105293, 4.9645705 
7.7903783e+2, 1.3828471e+2, -1397587.9, -1601517.5, 6754.3066, 0.006625483, 0.0011959154, -1397364.5, 187448.02, 0.0, 5.10038, 4.9645576 
7.787986e+2, 1.4324366e+2, -1363302.5, -1560023.0, 6870.942, 0.003459811, 0.00039103604, -1363062.8, 173152.75, 0.0, 5.0954905, 4.964559 
7.785608e+2, 1.4820394e+2, -1326803.3, -1516044.6, 8079.314, -0.00088508683, 0.008925002, -1326458.9, 161146.89, 0.0, 5.091105, 4.965036 
7.783242e+2, 1.5316351e+2, -1290127.8, -1473409.4, 8193.903, 0.0016599441, 0.007211616, -1289762.1, 149240.73, 0.0, 5.087003, 4.965024 
7.7808774e+2, 1.5812305e+2, -1253452.8, -1430748.6, 8251.048, 0.0042666914, 0.0054474645, -1253069.6, 137330.67, 0.0, 5.0828843, 4.965008 
7.778513e+2, 1.630826e+2, -1216724.1, -1388073.1, 8180.9707, 0.008540273, 0.0037370664, -1216334.4, 125462.03, 0.0, 5.0787992, 4.964953 
7.776155e+2, 1.6804157e+2, -1181692.3, -1349745.0, 9355.815, 0.012051277, 0.007072104, -1181173.0, 112024.336, 0.0, 5.0749335, 4.9632654 
7.7737993e+2, 1.7299922e+2, -1143370.6, -1306134.8, 9353.779, 0.01259971, 0.005212929, -1142834.9, 101776.41, 0.0, 5.07133, 4.963258 
7.771446e+2, 1.7795686e+2, -1105138.6, -1262595.8, 9374.988, 0.0130362045, 0.0035214329, -1104582.4, 91442.94, 0.0, 5.0676904, 4.963223 
7.76909e+2, 1.8291439e+2, -1067571.3, -1220629.8, 8975.585, 0.012016334, 0.0031675226, -1067046.8, 80394.94, 0.0, 5.064061, 4.962638 
7.7667326e+2, 1.8787074e+2, -1032668.9, -1184424.8, 9555.291, 0.011678304, 0.009339333, -1032069.6, 66801.12, 0.0, 5.0604944, 4.9600015 
7.764381e+2, 1.9282512e+2, -993618.4, -1140302.4, 9371.591, 0.011713653, 0.0076273247, -993022.0, 57296.953, 0.0, 5.057065, 4.9600005 
7.7620304e+2, 1.9777949e+2, -954496.6, -1096082.0, 9181.152, 0.011724043, 0.0059215827, -953903.75, 47863.473, 0.0, 5.053637, 4.9600134 
7.75968e+2, 2.0273396e+2, -915174.8, -1051746.9, 8535.901, 0.011873723, 0.003758524, -914643.4, 38569.977, 0.0, 5.0502515, 4.96004 
7.757318e+2, 2.0768715e+2, -880193.94, -1016701.0, 8269.537, 0.011081463, 0.0072939526, -879694.8, 24976.152, 0.0, 5.046855, 4.9568343 
7.7549565e+2, 2.1263814e+2, -840780.5, -972283.44, 7949.8535, 0.010035039, 0.0033135903, -840301.6, 15848.5625, 0.0, 5.043478, 4.956828 
7.752596e+2, 2.1758914e+2, -801367.0, -927923.94, 7644.926, 0.008911682, -0.00059177476, -800906.9, 6722.5176, 0.0, 5.040103, 4.9567814 
7.7502376e+2, 2.2254035e+2, -761747.75, -883242.44, 7282.9575, 0.007051723, -0.0025023553, -761312.75, -2205.6057, 0.0, 5.036736, 4.9568267 
7.747866e+2, 2.2749057e+2, -726685.8, -848540.0, 5882.582, 0.004554012, 0.0041264435, -726402.5, -15807.72, 0.0, 5.0333166, 4.953434 
7.745488e+2, 2.3243864e+2, -687420.44, -803711.25, 5379.465, 0.0023813252, 0.0029246202, -687172.1, -25068.412, 0.0, 5.0297413, 4.9535747 
7.743112e+2, 2.373867e+2, -648284.94, -759239.75, 4867.6084, 0.00021428542, 0.0016684595, -648071.8, -34459.215, 0.0, 5.0261693, 4.95357 
7.7407384e+2, 2.4233487e+2, -609073.8, -714374.44, 4694.858, -0.0008933638, -0.00025083878, -608864.9, -43744.73, 0.0, 5.0225487, 4.9537 
7.7383596e+2, 2.4728213e+2, -573654.75, -677819.0, 2687.4631, -0.0005101923, 0.0038288424, -573585.44, -56949.508, 0.0, 5.0188117, 4.9509916 
7.735968e+2, 2.5222766e+2, -535276.6, -633176.56, 2010.923, -0.0009556648, -0.00008310011, -535235.3, -67066.52, 0.0, 5.0148277, 4.951163 
7.7335775e+2, 2.5717318e+2, -497065.63, -588967.8, 1346.0879, -0.001549781, -0.0041304543, -497045.9, -77344.33, 0.0, 5.010846, 4.9511595 
7.73119e+2, 2.6211885e+2, -458444.78, -543797.6, 1196.0537, -0.002949171, -0.008295727, -458428.03, -87194.65, 0.0, 5.0068464, 4.9514785 
7.728803e+2, 2.670643e+2, -423852.66, -507344.3, -40.6599, -0.0048816246, 0.0017953378, -423852.66, -101085.18, 0.0, 5.002717, 4.9487686 
7.726407e+2, 2.7200866e+2, -385141.03, -460293.34, -1159.0194, -0.006298988, -0.0024444745, -385123.16, -110811.07, 0.0, 4.998343, 4.9498696 
7.724012e+2, 2.7695307e+2, -347839.38, -416327.78, -1915.1611, -0.0076858373, -0.0072198915, -347785.88, -121929.12, 0.0, 4.9939566, 4.949863 
7.7216244e+2, 2.8189766e+2, -310150.94, -371386.72, -1667.7063, -0.006797543, -0.009781879, -310105.53, -132707.1, 0.0, 4.989553, 4.950175 
7.7192533e+2, 2.868415e+2, -275933.97, -334013.3, -1509.8528, -0.0051429146, -0.0051820865, -275894.75, -146947.56, 0.0, 4.985056, 4.9478207 
7.7168816e+2, 2.9178622e+2, -236987.25, -285133.66, -2558.4744, -0.0028394004, -0.004470097, -236851.69, -156364.58, 0.0, 4.9804034, 4.9495926 
7.714511e+2, 2.96731e+2, -200207.66, -241119.75, -3245.846, -0.00091492967, -0.0042797364, -199951.75, -167925.31, 0.0, 4.97574, 4.9496117 
7.712134e+2, 3.016752e+2, -165012.47, -200756.27, -3916.3057, -0.0052741347, -0.0041767475, -164588.4, -164588.4, 0.0, 4.9711065, 4.948265 
7.7097785e+2, 3.0663162e+2, -122024.63, -110456.64, -3834.3743, -0.013011919, 0.0070518847, -109301.11, -109301.11, 0.0, 4.9664907, 4.973881 
7.707455e+2, 3.1159946e+2, -131601.45, -108908.42, -4052.5957, -0.021743122, -0.0339016, -108206.414, -108206.414, 0.0, 4.961878, 4.976452 
7.705135e+2, 3.165672e+2, -144208.27, -114648.69, -4523.112, -0.029408053, -0.076942414, -113972.06, -113972.06, 0.0, 4.9573026, 4.976383 
7.7027625e+2, 3.2156372e+2, -118810.46, -29229.627, -7475.3804, -0.08515646, 0.16696882, -28610.104, -28610.104, 0.0, 4.951989, 5.009649 
7.846183e+2, 1.2860227e+2, -1467169.1, -1682856.1, 8852.817, -0.0049419324, 0.009623785, -1466806.4, 212895.73, 0.0, 5.109413, 4.9653206 
7.843753e+2, 1.3356128e+2, -1432406.5, -1641395.4, 8856.8, 0.00055750826, 0.00505981, -1432031.8, 199071.52, 0.0, 5.1047273, 4.9652925 
7.841324e+2, 1.3852026e+2, -1397587.6, -1599883.9, 8818.341, 0.005983944, 0.00058663124, -1397203.9, 185301.02, 0.0, 5.1000457, 4.9652543 
7.8388834e+2, 1.4347959e+2, -1362729.1, -1558041.1, 8983.753, 0.0025427933, 0.00015416624, -1362316.8, 171587.28, 0.0, 5.0953455, 4.9652824 
7.836462e+2, 1.4844026e+2, -1325987.8, -1514089.4, 10483.106, -0.0018880817, 0.009456438, -1325405.4, 159884.98, 0.0, 5.091101, 4.9656754 
7.8340566e+2, 1.5340023e+2, -1288814.4, -1471226.9, 10459.493, 0.0007982325, 0.008515892, -1288216.6, 148467.11, 0.0, 5.0871763, 4.965659 
7.831651e+2, 1.5836015e+2, -1251642.0, -1428364.8, 10380.972, 0.0033919176, 0.0076738475, -1251034.4, 137043.06, 0.0, 5.083239, 4.9656286 
7.8292453e+2, 1.6331995e+2, -1214594.0, -1385769.8, 10173.638, 0.007578737, 0.0059455605, -1213991.4, 125479.51, 0.0, 5.0793037, 4.9654827 
7.826849e+2, 1.6827899e+2, -1179390.1, -1347722.8, 11361.818, 0.010772109, 0.008424734, -1178626.8, 112244.4, 0.0, 5.0755816, 4.9636316 
7.824458e+2, 1.7323662e+2, -1140924.9, -1304057.5, 11124.559, 0.011052208, 0.0055904486, -1140169.8, 102115.24, 0.0, 5.0720253, 4.9636245 
7.822068e+2, 1.7819425e+2, -1102428.0, -1260452.8, 10854.899, 0.011426875, 0.0028056917, -1101685.8, 92013.16, 0.0, 5.068486, 4.9635696 
7.819675e+2, 1.8315187e+2, -1064626.9, -1218414.9, 10245.059, 0.010164713, 0.0022713167, -1063947.4, 81167.14, 0.0, 5.0649433, 4.962974 
7.8172827e+2, 1.8810825e+2, -1029796.56, -1182664.6, 10877.918, 0.009856563, 0.00897939, -1029026.4, 67516.59, 0.0, 5.061445, 4.9601507 
7.814897e+2, 1.9306257e+2, -990618.94, -1138521.6, 10545.675, 0.009950455, 0.0076555195, -989870.8, 58120.918, 0.0, 5.0580645, 4.9601398 
7.812512e+2, 1.9801691e+2, -951429.56, -1094285.9, 10197.776, 0.010085074, 0.006389767, -950705.3, 48735.12, 0.0, 5.0546594, 4.9601526 
7.810128e+2, 2.0297125e+2, -912147.25, -1050113.5, 9312.297, 0.010305667, 0.0039788606, -911521.56, 39365.85, 0.0, 5.0512786, 4.9601283 
7.8077304e+2, 2.0792416e+2, -877487.94, -1015675.3, 8853.381, 0.009253229, 0.0067634294, -876923.0, 25424.605, 0.0, 5.0478573, 4.9567285 
7.805335e+2, 2.1287479e+2, -838196.8, -971335.6, 8269.283, 0.007984041, 0.0020380642, -837685.1, 16144.932, 0.0, 5.0444365, 4.9567204 
7.8029406e+2, 2.1782544e+2, -798952.06, -927058.56, 7707.8687, 0.006665352, -0.0026562684, -798490.0, 6822.397, 0.0, 5.0409975, 4.956679 
7.8005475e+2, 2.2277637e+2, -759646.56, -882611.1, 7084.4263, 0.004448692, -0.0046583684, -759239.75, -2447.1206, 0.0, 5.0375333, 4.956693 
7.79814e+2, 2.2772624e+2, -725066.94, -848555.25, 5366.44, 0.001430164, 0.0019050466, -724834.2, -16550.537, 0.0, 5.034014, 4.9531307 
7.7957255e+2, 2.3267385e+2, -686121.1, -803956.7, 4625.765, -0.0010469868, 0.00078939437, -685939.8, -26143.01, 0.0, 5.0303335, 4.953244 
7.793313e+2, 2.376215e+2, -647304.4, -759666.8, 3876.017, -0.0035430791, -0.000315263, -647170.8, -35861.07, 0.0, 5.0266476, 4.953233 
7.790904e+2, 2.4256924e+2, -608394.4, -715053.9, 3343.406, -0.004512341, -0.0020045775, -608289.7, -45468.23, 0.0, 5.0229354, 4.9533205 
7.788487e+2, 2.475161e+2, -573204.94, -678840.25, 902.203, -0.003278095, 0.0026829145, -573197.2, -58855.645, 0.0, 5.019147, 4.9505253 
7.786056e+2, 2.5246105e+2, -535089.2, -634454.0, -50.435806, -0.0032327995, -0.0010741602, -535089.1, -69209.04, 0.0, 5.015088, 4.950645 
7.7836263e+2, 2.5740603e+2, -497149.72, -590396.0, -973.9769, -0.0033510935, -0.004981205, -497139.56, -79721.11, 0.0, 5.011008, 4.9506364 
7.7811986e+2, 2.623511e+2, -458768.13, -545352.56, -1415.1151, -0.004774592, -0.009443033, -458745.0, -89789.15, 0.0, 5.006916, 4.950957 
7.77877e+2, 2.6729596e+2, -424199.56, -509010.38, -3066.048, -0.0075451056, -0.00010424347, -424088.84, -103593.08, 0.0, 5.002778, 4.948223 
7.7763283e+2, 2.7223969e+2, -385570.7, -462125.44, -4275.7017, -0.009665174, -0.004732566, -385332.63, -113286.1, 0.0, 4.998395, 4.9492717 
7.773889e+2, 2.7718344e+2, -348289.63, -418171.25, -5034.769, -0.0118211815, -0.00979167, -347928.75, -124331.49, 0.0, 4.9939995, 4.949265 
7.7714586e+2, 2.8212753e+2, -310525.8, -373087.0, -4798.7334, -0.009733124, -0.011297658, -310159.88, -135015.47, 0.0, 4.989601, 4.9496207 
7.7690464e+2, 2.870708e+2, -276246.9, -335637.34, -4883.019, -0.005082974, -0.0075652823, -275848.1, -149148.81, 0.0, 4.985105, 4.947296 
7.7666306e+2, 2.92015e+2, -237291.86, -286755.7, -5970.4795, 0.0001061962, -0.007546702, -236581.4, -158336.0, 0.0, 4.9804516, 4.94907 
7.7642167e+2, 2.9695922e+2, -200533.53, -242757.64, -6663.299, 0.004698955, -0.007868491, -199506.97, -169716.14, 0.0, 4.975779, 4.9490867 
7.761793e+2, 3.0190316e+2, -165184.25, -202459.1, -7208.047, -0.0012105405, -0.0034606513, -163838.94, -163838.94, 0.0, 4.9712124, 4.947684 
7.759386e+2, 3.0685985e+2, -121663.445, -110880.01, -7348.198, -0.014646107, 0.009623609, -107157.63, -107157.63, 0.0, 4.966555, 4.9737916 
7.75701e+2, 3.1182787e+2, -131599.72, -109670.5, -7290.1787, -0.03017949, -0.02962386, -107468.13, -107468.13, 0.0, 4.961849, 4.976283 
7.7546364e+2, 3.1679592e+2, -144488.3, -115589.81, -7547.0903, -0.0455153, -0.06846983, -113737.55, -113737.55, 0.0, 4.957184, 4.976194 
7.7522624e+2, 3.2178047e+2, -127158.57, -46577.824, -7916.3936, -0.05304048, 0.09593985, -45807.47, -45807.47, 0.0, 4.9514847, 5.0035696 
7.897217e+2, 1.2884921e+2, -1463998.8, -1677548.8, 14950.396, -0.0075485357, 0.008705712, -1462957.1, 214325.72, 0.0, 5.1101055, 4.966564 
7.89474e+2, 1.3380884e+2, -1429594.5, -1636208.5, 15263.901, -0.0014643787, 0.004142068, -1428472.9, 200205.06, 0.0, 5.105299, 4.9665504 
7.8922635e+2, 1.3876842e+2, -1395196.1, -1594930.3, 15495.604, 0.0041549085, -0.00035914866, -1394001.1, 186072.5, 0.0, 5.1004925, 4.9664907 
7.889776e+2, 1.4372836e+2, -1360522.0, -1552918.8, 16172.049, 0.0007363804, -0.0005327824, -1359172.1, 172294.39, 0.0, 5.0956964, 4.966615 
7.887315e+2, 1.4868966e+2, -1324089.5, -1509285.5, 18508.11, -0.0028515267, 0.009149217, -1322258.0, 160588.61, 0.0, 5.0914335, 4.966894 
7.8848714e+2, 1.5365015e+2, -1286715.6, -1466265.6, 18815.324, 0.0010238508, 0.008581135, -1284765.1, 149469.36, 0.0, 5.0875826, 4.9668922 
7.882429e+2, 1.5861061e+2, -1249330.8, -1423298.3, 19071.137, 0.004740444, 0.0080863545, -1247264.6, 138358.03, 0.0, 5.0837355, 4.966852 
7.879985e+2, 1.6357078e+2, -1212156.5, -1380910.0, 19258.617, 0.0089752525, 0.0059978883, -1209986.6, 127026.086, 0.0, 5.0799165, 4.9665785 
7.877552e+2, 1.6852997e+2, -1176895.5, -1343158.8, 21103.943, 0.011052258, 0.008029736, -1174258.5, 114153.016, 0.0, 5.076324, 4.964553 
7.8751254e+2, 1.734877e+2, -1137771.8, -1299115.9, 21153.115, 0.009974598, 0.004819697, -1135044.6, 104780.266, 0.0, 5.073002, 4.9645615 
7.8727e+2, 1.784454e+2, -1098663.6, -1255165.3, 21185.666, 0.008953274, 0.0016374461, -1095846.5, 95391.83, 0.0, 5.0696816, 4.964519 
7.8702724e+2, 1.8340315e+2, -1060045.3, -1212429.0, 20891.94, 0.006671066, 0.00080661336, -1057232.9, 85419.39, 0.0, 5.0663786, 4.9640474 
7.867846e+2, 1.883596e+2, -1024818.94, -1176863.4, 22047.658, 0.006071921, 0.0072208233, -1021686.4, 72393.086, 0.0, 5.0631285, 4.9610357 
7.8654283e+2, 1.933139e+2, -984821.3, -1132295.3, 22028.25, 0.005968695, 0.00567855, -981601.25, 63926.64, 0.0, 5.0600414, 4.961034 
7.863011e+2, 1.982682e+2, -944736.0, -1087596.0, 22009.732, 0.005987378, 0.0042272997, -941421.94, 55554.355, 0.0, 5.0569563, 4.961059 
7.860594e+2, 2.0322248e+2, -904748.06, -1043351.7, 21382.844, 0.0063592237, 0.0019255461, -901524.25, 46899.53, 0.0, 5.0538855, 4.960919 
7.858165e+2, 2.0817518e+2, -869650.2, -1009233.56, 21304.64, 0.005583675, 0.005370037, -866470.9, 33415.35, 0.0, 5.0507374, 4.95728 
7.8557366e+2, 2.131255e+2, -829634.6, -964525.06, 20991.682, 0.004669331, 0.0014875911, -826443.4, 24928.63, 0.0, 5.0475783, 4.9572816 
7.8533095e+2, 2.1807584e+2, -789569.44, -919760.3, 20701.52, 0.0037593755, -0.0024008339, -786357.0, 16500.676, 0.0, 5.0444202, 4.957284 
7.850883e+2, 2.2302635e+2, -749612.7, -875084.0, 20229.424, 0.0020486566, -0.0047592134, -746431.75, 7910.039, 0.0, 5.041215, 4.957264 
7.848441e+2, 2.2797564e+2, -714689.2, -841248.3, 18707.826, -0.00037444854, 0.0007611629, -711981.75, -6143.203, 0.0, 5.0378847, 4.953546 
7.845991e+2, 2.3292251e+2, -675357.7, -796576.6, 18190.834, -0.0023168386, -0.0013389663, -672686.7, -15328.008, 0.0, 5.0343676, 4.9536195 
7.8435427e+2, 2.3786943e+2, -636079.3, -752089.06, 17671.367, -0.0042757923, -0.0033029448, -633447.25, -24568.574, 0.0, 5.0308533, 4.9536076 
7.841097e+2, 2.4281652e+2, -596532.75, -707108.8, 17326.512, -0.00522776, -0.0045510605, -593881.4, -33484.824, 0.0, 5.027357, 4.9537344 
7.838641e+2, 2.4776272e+2, -561208.06, -671526.75, 14945.819, -0.0046136747, 0.0012566824, -559219.06, -47295.72, 0.0, 5.0237417, 4.950651 
7.8361696e+2, 2.527069e+2, -522708.2, -626898.5, 14123.928, -0.0049951565, -0.0016181433, -520827.5, -57357.52, 0.0, 5.0198054, 4.950812 
7.833699e+2, 2.5765106e+2, -484359.5, -582632.3, 13346.549, -0.0051862514, -0.004638238, -482579.13, -67562.63, 0.0, 5.0158677, 4.950823 
7.8312314e+2, 2.625952e+2, -445516.9, -537226.25, 13111.06, -0.006357044, -0.009290059, -443679.3, -77116.266, 0.0, 5.0119085, 4.9512258 
7.828759e+2, 2.6753902e+2, -411334.2, -501771.2, 11085.977, -0.009190515, -0.0010125656, -409995.1, -91882.164, 0.0, 5.0077415, 4.948214 
7.826273e+2, 2.7248165e+2, -373152.5, -455030.44, 9555.043, -0.011321894, -0.0063000657, -372052.22, -102377.9, 0.0, 5.003175, 4.94931 
7.8237873e+2, 2.774243e+2, -336461.22, -411404.25, 8373.271, -0.013498698, -0.012003282, -335537.06, -114301.56, 0.0, 4.998568, 4.9492965 
7.821313e+2, 2.8236756e+2, -299562.94, -366643.84, 8265.505, -0.01087577, -0.012442713, -298559.5, -125768.195, 0.0, 4.993834, 4.9497004 
7.818854e+2, 2.8731003e+2, -266419.28, -329635.8, 7531.2754, -0.005311812, -0.008758632, -265534.44, -141179.72, 0.0, 4.9888854, 4.9474416 
7.8163904e+2, 2.9225335e+2, -229227.77, -281799.38, 5956.8115, 0.0017979029, -0.0088673895, -228561.25, -152651.52, 0.0, 4.9836273, 4.949132 
7.813928e+2, 2.9719672e+2, -194261.02, -238695.48, 4855.923, 0.009031349, -0.0096175885, -193736.55, -166272.16, 0.0, 4.978316, 4.9491262 
7.811457e+2, 3.0214e+2, -160193.08, -199211.11, 4666.2593, 0.0022383549, -0.00057702925, -159642.78, -159642.78, 0.0, 4.9733143, 4.947633 
7.809e+2, 3.0709645e+2, -116635.3, -106195.1, 3105.8748, -0.014129256, 0.011636811, -105341.0, -105341.0, 0.0, 4.968405, 4.9743905 
7.8065705e+2, 3.1206438e+2, -127931.16, -105465.38, 2644.1843, -0.03286584, -0.029999832, -105158.37, -105158.37, 0.0, 4.963211, 4.976909 
7.804143e+2, 3.1703258e+2, -142778.83, -112092.586, 2083.3306, -0.051489267, -0.06968692, -111951.8, -111951.8, 0.0, 4.9578404, 4.976858 
7.801763e+2, 3.219961e+2, -113126.266, -15655.125, 711.6276, -0.008851129, -0.18269588, -15649.93, -15649.93, 0.0, 4.952249, 5.0140486 
7.9482543e+2, 1.2910147e+2, -1462401.6, -1675302.9, 11407.31, -0.010132416, 0.009099969, -1461792.1, 213019.69, 0.0, 5.110188, 4.967346 
7.9457295e+2, 1.3406186e+2, -1427998.8, -1633969.5, 11731.196, -0.0035305016, 0.004478654, -1427332.8, 198866.45, 0.0, 5.1053824, 4.9673314 
7.943206e+2, 1.390222e+2, -1393661.8, -1592825.5, 11937.533, 0.0022423943, -0.00004558324, -1392948.8, 184638.47, 0.0, 5.100577, 4.967229 
7.94067e+2, 1.4398296e+2, -1358890.8, -1550566.8, 12818.359, -0.0012867256, 0.000185943, -1358037.4, 170934.63, 0.0, 5.0957785, 4.967435 
7.938168e+2, 1.4894499e+2, -1322797.1, -1507351.9, 15652.875, -0.003979636, 0.0101580685, -1321479.0, 158865.44, 0.0, 5.0914845, 4.967574 
7.9356873e+2, 1.5390621e+2, -1285429.3, -1464336.9, 15961.39, 0.001102237, 0.009859615, -1284016.4, 147708.78, 0.0, 5.087633, 4.967572 
7.9332066e+2, 1.5886736e+2, -1248123.0, -1421535.6, 16217.573, 0.005899928, 0.009583476, -1246619.4, 136486.9, 0.0, 5.083786, 4.967478 
7.9307246e+2, 1.6382803e+2, -1211093.9, -1379461.1, 16466.945, 0.009989044, 0.007026132, -1209498.5, 124992.83, 0.0, 5.07997, 4.967098 
7.9282564e+2, 1.6878758e+2, -1176205.6, -1342327.4, 18627.383, 0.010950124, 0.008555926, -1174142.5, 111744.53, 0.0, 5.0763597, 4.9648643 
7.9257953e+2, 1.7374556e+2, -1137082.5, -1298285.9, 18677.799, 0.008537031, 0.0048884326, -1134946.6, 102351.46, 0.0, 5.073038, 4.9648724 
7.923335e+2, 1.7870353e+2, -1097975.5, -1254336.1, 18703.28, 0.006109415, 0.001297353, -1095769.4, 92939.86, 0.0, 5.0697174, 4.9648314 
7.9208726e+2, 1.8366162e+2, -1059229.0, -1211317.8, 18397.658, 0.002892767, 0.00025262777, -1057035.1, 83084.4, 0.0, 5.066414, 4.9644575 
7.918415e+2, 1.886183e+2, -1024326.9, -1176357.6, 19751.19, 0.0019292696, 0.0061421837, -1021802.8, 69741.13, 0.0, 5.0631547, 4.961238 
7.9159653e+2, 1.9357276e+2, -984326.06, -1131787.1, 19734.32, 0.0014756883, 0.004095927, -981730.75, 61259.58, 0.0, 5.060069, 4.961237 
7.913517e+2, 1.9852719e+2, -944258.0, -1087129.1, 19710.111, 0.001110394, 0.0020960781, -941588.7, 52848.13, 0.0, 5.0569844, 4.9612484 
7.9110694e+2, 2.0348161e+2, -904418.2, -1043206.56, 19023.918, 0.0016809109, -0.000046111196, -901857.75, 44025.08, 0.0, 5.053912, 4.9610004 
7.9086083e+2, 2.0843433e+2, -869663.9, -1009836.4, 18954.08, 0.0013204308, 0.0041769654, -867146.1, 30199.275, 0.0, 5.050764, 4.957105 
7.906149e+2, 2.1338457e+2, -829643.56, -965123.25, 18642.613, 0.00092105265, 0.0013387721, -827125.06, 21707.148, 0.0, 5.047606, 4.9571075 
7.9036915e+2, 2.1833481e+2, -789540.4, -920278.06, 18346.32, 0.00047314708, -0.0015526863, -787014.7, 13304.251, 0.0, 5.044448, 4.9571366 
7.9012334e+2, 2.2328514e+2, -749681.2, -875825.56, 17742.191, -0.0005859243, -0.004363189, -747233.25, 4571.6875, 0.0, 5.041241, 4.9570413 
7.8987575e+2, 2.2823402e+2, -714878.9, -842349.3, 16089.351, -0.0019407945, 0.00015156987, -712879.44, -9574.122, 0.0, 5.03792, 4.953199 
7.896273e+2, 2.3318039e+2, -675621.5, -797849.6, 15573.774, -0.0031123802, -0.0030839527, -673668.4, -18837.996, 0.0, 5.034404, 4.953212 
7.89379e+2, 2.3812678e+2, -636344.7, -753375.06, 15066.582, -0.0043628495, -0.0060986658, -634436.1, -28080.94, 0.0, 5.0308905, 4.953194 
7.89131e+2, 2.4307352e+2, -596778.8, -708376.8, 14649.122, -0.005585884, -0.0068266746, -594887.94, -37011.09, 0.0, 5.027396, 4.9533267 
7.888815e+2, 2.480193e+2, -561729.9, -673558.8, 12042.256, -0.006084963, 0.00014565108, -560447.8, -51039.805, 0.0, 5.023795, 4.94998 
7.886303e+2, 2.5296292e+2, -523178.7, -628849.7, 11185.046, -0.0072920197, -0.0014781787, -522007.75, -61047.75, 0.0, 5.0198627, 4.950167 
7.8837925e+2, 2.5790656e+2, -484817.34, -584570.75, 10416.181, -0.0083639035, -0.003288226, -483741.3, -71229.36, 0.0, 5.0159264, 4.950181 
7.8812855e+2, 2.6285002e+2, -445882.03, -538957.0, 10143.455, -0.009524107, -0.008522433, -444789.4, -80723.9, 0.0, 5.0119667, 4.9506564 
7.878772e+2, 2.6779303e+2, -411688.56, -503978.47, 7856.1123, -0.01144926, -0.001917829, -411024.6, -95401.25, 0.0, 5.007879, 4.947454 
7.876241e+2, 2.7273473e+2, -373263.75, -457140.44, 6515.9785, -0.012769516, -0.008381031, -372760.56, -105566.766, 0.0, 5.003404, 4.9485407 
7.873712e+2, 2.776765e+2, -336307.8, -413460.72, 5581.3643, -0.014179925, -0.015087838, -335906.13, -117142.12, 0.0, 4.99891, 4.9484916 
7.871192e+2, 2.8261915e+2, -298752.66, -367727.6, 5596.0776, -0.011498844, -0.014220552, -298301.6, -127976.016, 0.0, 4.9942822, 4.94919 
7.868683e+2, 2.875613e+2, -265427.66, -330864.38, 4744.0405, -0.0070592975, -0.0069236946, -265085.53, -143193.31, 0.0, 4.9894285, 4.946846 
7.866166e+2, 2.9250428e+2, -227926.28, -282920.47, 3385.7776, -0.0008889154, -0.0034358932, -227718.61, -154267.42, 0.0, 4.9842877, 4.9485226 
7.8636515e+2, 2.9744723e+2, -192542.64, -239619.23, 2538.1775, 0.005613165, -0.0007791972, -192406.19, -167396.13, 0.0, 4.979124, 4.9485207 
7.861133e+2, 3.0238938e+2, -157804.75, -198922.9, 3161.6685, 0.0007291369, 0.0014713873, -157563.06, -157563.06, 0.0, 4.9741845, 4.9474354 
7.858635e+2, 3.073448e+2, -114606.97, -106910.2, 1084.3091, -0.009099825, 0.012982653, -106760.36, -106760.36, 0.0, 4.9692984, 4.973842 
7.856161e+2, 3.1231174e+2, -125161.95, -105558.375, 215.90254, -0.02166896, -0.028204584, -105556.0, -105556.0, 0.0, 4.964317, 4.976489 
7.853689e+2, 3.1727907e+2, -138744.63, -111470.87, -978.4438, -0.03399365, -0.06774752, -111435.805, -111435.805, 0.0, 4.959367, 4.976509 
7.8512526e+2, 3.2225183e+2, -105856.7, -13624.676, -5065.628, -0.0023515627, -0.08093435, -13347.292, -13347.292, 0.0, 4.9549165, 5.013914 
7.9992914e+2, 1.2935385e+2, -1461169.0, -1673251.5, 8165.59, -0.011072925, 0.009878902, -1460855.0, 211484.52, 0.0, 5.110154, 4.9681206 
7.996718e+2, 1.3431497e+2, -1426509.8, -1631793.0, 8395.939, -0.004799738, 0.005084127, -1426166.9, 197552.64, 0.0, 5.105437, 4.968107 
7.9941463e+2, 1.3927606e+2, -1392318.5, -1590766.1, 8514.196, 0.0010719401, 0.0005138098, -1391953.9, 183146.2, 0.0, 5.1005883, 4.967988 
7.9915625e+2, 1.4423761e+2, -1357448.1, -1548398.9, 9506.287, -0.0028658407, 0.0011358366, -1356976.0, 169500.83, 0.0, 5.095818, 4.968215 
7.98902e+2, 1.492004e+2, -1321503.4, -1505414.8, 12798.047, -0.0049310676, 0.011245453, -1320617.0, 157224.69, 0.0, 5.0915375, 4.968255 
7.9865015e+2, 1.5416229e+2, -1284067.8, -1462365.8, 13120.163, 0.0012677457, 0.011099422, -1283107.5, 146107.89, 0.0, 5.0877104, 4.968254 
7.9839844e+2, 1.5912414e+2, -1246835.8, -1419780.9, 13387.136, 0.0070882128, 0.010940406, -1245805.6, 134783.95, 0.0, 5.0838757, 4.9680834 
7.9814637e+2, 1.6408531e+2, -1209978.3, -1378022.8, 13706.763, 0.010949939, 0.007958621, -1208867.5, 123102.24, 0.0, 5.0800505, 4.9676023 
7.9789585e+2, 1.690452e+2, -1175507.8, -1341496.1, 16172.074, 0.010796339, 0.009043269, -1173946.8, 109415.6, 0.0, 5.0764, 4.9651737 
7.976463e+2, 1.7400344e+2, -1136464.1, -1297494.0, 16213.697, 0.0070229857, 0.004898777, -1134847.8, 99923.43, 0.0, 5.0730505, 4.9651823 
7.973969e+2, 1.7896166e+2, -1097301.6, -1253545.3, 16219.252, 0.0031920227, 0.0009152459, -1095635.8, 90544.26, 0.0, 5.0697556, 4.965131 
7.971473e+2, 1.8392012e+2, -1058405.6, -1210197.3, 15901.065, -0.00084433873, -0.0002595015, -1056757.8, 80828.695, 0.0, 5.06645, 4.964871 
7.968982e+2, 1.8887703e+2, -1023832.56, -1175853.8, 17455.299, -0.0021997471, 0.0050715, -1021854.06, 67154.03, 0.0, 5.063183, 4.9614387 
7.966502e+2, 1.9383162e+2, -983828.6, -1131280.8, 17440.975, -0.00304355, 0.002442399, -981793.75, 58658.83, 0.0, 5.060098, 4.9614387 
7.9640216e+2, 1.987862e+2, -943811.25, -1086737.3, 17412.986, -0.003799706, -0.00014329646, -941720.4, 50176.75, 0.0, 5.057014, 4.9614115 
7.961543e+2, 2.0374078e+2, -904105.1, -1043103.7, 16653.523, -0.0028246897, -0.0018142946, -902137.75, 41203.957, 0.0, 5.0539403, 4.961067 
7.959051e+2, 2.0869349e+2, -869675.06, -1010441.2, 16603.951, -0.00278413, 0.0032220967, -867743.06, 27061.266, 0.0, 5.0507917, 4.956929 
7.956561e+2, 2.1364364e+2, -829650.06, -965723.5, 16293.982, -0.0027056828, 0.0013621025, -827726.1, 18566.096, 0.0, 5.0476346, 4.956932 
7.954072e+2, 2.185938e+2, -789541.3, -920869.06, 15980.546, -0.0027173052, -0.00064304064, -787624.7, 10155.357, 0.0, 5.044477, 4.9569645 
7.951582e+2, 2.2354391e+2, -749700.4, -876465.25, 15255.527, -0.0030334312, -0.004012436, -747890.3, 1377.9026, 0.0, 5.041269, 4.956854 
7.949073e+2, 2.284924e+2, -715112.5, -843558.3, 13471.61, -0.0033424564, -0.00052321324, -713714.8, -12942.5625, 0.0, 5.037957, 4.9528146 
7.9465544e+2, 2.3343824e+2, -675882.4, -799125.6, 12957.464, -0.0037758453, -0.004944591, -674534.8, -22232.602, 0.0, 5.0344415, 4.952803 
7.944037e+2, 2.3838413e+2, -636619.94, -754692.56, 12471.231, -0.0043698247, -0.008989338, -635317.06, -31485.24, 0.0, 5.03093, 4.95277 
7.941521e+2, 2.433305e+2, -597096.2, -709811.06, 11964.884, -0.006005009, -0.008931409, -595840.06, -40482.965, 0.0, 5.0274367, 4.9528613 
7.9389876e+2, 2.4827583e+2, -562193.5, -675474.1, 9133.076, -0.0076351743, -0.00079606276, -561461.9, -54569.16, 0.0, 5.023851, 4.9493494 
7.9364353e+2, 2.5321895e+2, -523645.78, -630804.56, 8247.266, -0.009696392, -0.0012289057, -523014.75, -64564.598, 0.0, 5.019922, 4.9495215 
7.933885e+2, 2.5816205e+2, -485285.5, -586544.94, 7490.259, -0.011658557, -0.0019352335, -484734.44, -74726.86, 0.0, 5.015987, 4.9495273 
7.9313385e+2, 2.631048e+2, -446406.75, -541033.1, 7168.347, -0.012631895, -0.007860205, -445866.78, -84298.43, 0.0, 5.0120225, 4.949968 
7.928784e+2, 2.68047e+2, -412087.56, -505998.72, 4472.7305, -0.013652233, -0.0029038996, -411875.03, -98740.836, 0.0, 5.0079565, 4.946789 
7.926209e+2, 2.7298778e+2, -373795.06, -459477.56, 3135.8115, -0.01421898, -0.010632442, -373680.44, -108966.84, 0.0, 5.0034833, 4.947763 
7.923636e+2, 2.7792865e+2, -336801.66, -415715.94, 2182.6077, -0.0149304075, -0.018391535, -336741.34, -120448.76, 0.0, 4.9989886, 4.947742 
7.92107e+2, 2.8287086e+2, -299033.63, -369470.25, 2021.6083, -0.012177966, -0.015391368, -298975.66, -131116.7, 0.0, 4.994353, 4.948625 
7.918511e+2, 2.878127e+2, -265769.4, -332908.3, 868.09784, -0.008800545, -0.004760115, -265758.2, -146329.63, 0.0, 4.9895134, 4.9461765 
7.915941e+2, 2.9275537e+2, -228202.0, -284864.5, -538.26294, -0.0037624938, 0.002040748, -228196.89, -157206.02, 0.0, 4.9843774, 4.947887 
7.913374e+2, 2.97698e+2, -193633.81, -243459.44, -1433.3517, 0.0013895477, 0.008188627, -193592.61, -171039.45, 0.0, 4.9792175, 4.947209 
7.91081e+2, 3.02639e+2, -157251.98, -199145.6, -280.94205, -0.0012535289, 0.0045385812, -157250.1, -157250.1, 0.0, 4.9743004, 4.9474044 
7.9082716e+2, 3.0759323e+2, -114772.74, -109082.77, -2637.691, -0.003536466, 0.012722783, -108048.15, -108048.15, 0.0, 4.9694424, 4.9731107 
7.905754e+2, 3.1255898e+2, -125221.18, -107597.67, -3364.4094, -0.009449542, -0.031968143, -106977.234, -106977.234, 0.0, 4.964471, 4.9758058 
7.9032385e+2, 3.1752512e+2, -140715.58, -118002.2, -4388.406, -0.01596299, -0.074364804, -117183.81, -117183.81, 0.0, 4.9595304, 4.974202 
7.9007375e+2, 3.2250857e+2, -111235.94, -27269.777, -5902.3594, -0.009263601, 0.05321018, -26856.904, -26856.904, 0.0, 4.9549656, 5.0090876 
8.050326e+2, 1.2960958e+2, -1463217.5, -1672051.4, 10459.419, -0.008185566, 0.011535774, -1462695.0, 207139.56, 0.0, 5.108989, 4.9690657 
8.047705e+2, 1.3457124e+2, -1428329.0, -1630487.5, 10594.292, -0.002439962, 0.0066836937, -1427775.3, 193433.9, 0.0, 5.104354, 4.9690495 
8.045085e+2, 1.3953288e+2, -1393586.0, -1589303.5, 10626.796, 0.003548598, 0.0022910382, -1393010.8, 179573.36, 0.0, 5.099723, 4.9688807 
8.0424535e+2, 1.4449495e+2, -1357783.6, -1546207.8, 11899.549, -0.0022801417, 0.002342256, -1357035.1, 166920.4, 0.0, 5.0952263, 4.9692197 
8.039871e+2, 1.4945816e+2, -1321282.5, -1503229.9, 15548.306, -0.0055787526, 0.011468674, -1319963.4, 155352.45, 0.0, 5.091231, 4.969111 
8.037315e+2, 1.5442044e+2, -1282982.0, -1459791.3, 15625.007, 0.00015766647, 0.010376966, -1281611.9, 145073.31, 0.0, 5.0877066, 4.969102 
8.0347604e+2, 1.5938267e+2, -1245063.6, -1417083.1, 15670.959, 0.005939958, 0.0092899315, -1243647.6, 134407.58, 0.0, 5.084148, 4.968848 
8.0322015e+2, 1.6434425e+2, -1207714.8, -1375178.0, 15826.274, 0.009778377, 0.0064162426, -1206232.3, 123199.234, 0.0, 5.0805197, 4.968324 
8.029662e+2, 1.6930449e+2, -1173121.1, -1338998.9, 18521.996, 0.009076379, 0.008141381, -1171078.1, 109743.0, 0.0, 5.077021, 4.9656997 
8.027133e+2, 1.7426297e+2, -1133682.1, -1294856.0, 18456.104, 0.004775458, 0.0047140755, -1131595.8, 100631.875, 0.0, 5.0738177, 4.965694 
8.0246043e+2, 1.7922147e+2, -1094510.6, -1250885.3, 18367.322, 0.00057150115, 0.0015107393, -1092382.3, 91251.85, 0.0, 5.070519, 4.9656577 
8.0220747e+2, 1.8418013e+2, -1055545.3, -1207600.3, 17793.611, -0.0034661884, 0.00027721655, -1053490.8, 81547.53, 0.0, 5.067249, 4.965366 
8.0195516e+2, 1.8913706e+2, -1021171.9, -1173760.1, 19337.326, -0.0047238856, 0.0047888616, -1018759.44, 67699.836, 0.0, 5.064, 4.961752 
8.01704e+2, 1.940916e+2, -981181.25, -1129233.1, 19066.75, -0.005475908, 0.0013340903, -978765.2, 59138.547, 0.0, 5.060913, 4.961744 
8.0145293e+2, 1.9904615e+2, -941323.06, -1084913.4, 18809.977, -0.0061632707, -0.00199376, -938899.94, 50448.29, 0.0, 5.057799, 4.96166 
8.012019e+2, 2.0400073e+2, -901732.6, -1041462.8, 17755.434, -0.0052198633, -0.003308907, -899511.75, 41280.945, 0.0, 5.054708, 4.9612637 
8.009495e+2, 2.0895334e+2, -867628.2, -1009535.3, 17576.664, -0.005605694, 0.0021898535, -865483.56, 26773.174, 0.0, 5.0515556, 4.956879 
8.0069727e+2, 2.139033e+2, -827680.94, -964904.7, 17056.295, -0.005630877, 0.0010082346, -825592.7, 18154.16, 0.0, 5.0483727, 4.95687 
8.004452e+2, 2.1885324e+2, -787721.8, -920163.44, 16506.031, -0.005566516, -0.00034068536, -785695.7, 9541.123, 0.0, 5.045162, 4.956893 
8.001931e+2, 2.2380306e+2, -747951.1, -875918.44, 15413.916, -0.005224392, -0.0039675334, -746120.7, 607.1631, 0.0, 5.041944, 4.9567375 
7.999388e+2, 2.2875108e+2, -713544.9, -843635.75, 13262.466, -0.0047122985, -0.0011856375, -712206.56, -13970.361, 0.0, 5.038659, 4.952478 
7.9968345e+2, 2.3369634e+2, -674353.9, -799251.6, 12473.567, -0.004517327, -0.0066244, -673120.3, -23348.639, 0.0, 5.0351276, 4.9524617 
7.994283e+2, 2.3864166e+2, -635276.56, -754971.44, 11744.638, -0.004508229, -0.01154788, -634135.06, -32828.535, 0.0, 5.031556, 4.952407 
7.991732e+2, 2.4358761e+2, -596184.56, -710533.7, 10861.958, -0.006518304, -0.010639466, -595161.94, -42325.883, 0.0, 5.0279484, 4.952401 
7.989159e+2, 2.4853246e+2, -561580.0, -676612.56, 7538.353, -0.009216076, -0.0015136485, -561088.1, -56711.324, 0.0, 5.0242863, 4.9487934 
7.9865664e+2, 2.53475e+2, -523391.6, -632254.4, 6328.723, -0.012068338, -0.0008862299, -523024.9, -67084.87, 0.0, 5.020246, 4.9489126 
7.9839754e+2, 2.5841755e+2, -485422.34, -588249.9, 5291.8706, -0.014858465, -0.00062424934, -485150.72, -77647.445, 0.0, 5.0161767, 4.9488945 
7.9813904e+2, 2.6335952e+2, -447075.78, -543272.75, 4607.5967, -0.015544272, -0.007300395, -446855.6, -87784.08, 0.0, 5.0120707, 4.9492135 
7.978794e+2, 2.683009e+2, -412560.97, -507820.84, 1372.5244, -0.015742468, -0.0039730575, -412541.22, -101895.85, 0.0, 5.00798, 4.9462094 
7.976175e+2, 2.732408e+2, -374505.06, -461836.8, -27.011274, -0.015649293, -0.013069625, -374505.06, -112271.3, 0.0, 5.0035014, 4.946998 
7.973558e+2, 2.7818078e+2, -337423.56, -418047.47, -1042.8512, -0.015704393, -0.02185417, -337410.1, -123588.65, 0.0, 4.9990373, 4.946973 
7.970946e+2, 2.831226e+2, -299494.06, -371379.0, -1398.2511, -0.01281716, -0.015819121, -299466.88, -134074.94, 0.0, 4.994387, 4.9480124 
7.9683363e+2, 2.8806415e+2, -266161.06, -334834.63, -2820.2358, -0.01049957, -0.0023832673, -266045.44, -149080.63, 0.0, 4.9895654, 4.945557 
7.9657143e+2, 2.9300648e+2, -228558.97, -286801.44, -4285.2725, -0.006610027, 0.00720728, -228245.36, -159714.8, 0.0, 4.9844418, 4.94726 
7.963094e+2, 2.9794872e+2, -194228.89, -245954.02, -5104.94, -0.0028940237, 0.01639303, -193729.88, -173633.36, 0.0, 4.979281, 4.946385 
7.960486e+2, 3.028885e+2, -157733.06, -201454.61, -3715.0593, -0.0029303567, 0.008548952, -157419.63, -157419.63, 0.0, 4.97437, 4.94664 
7.957907e+2, 3.0784154e+2, -115131.03, -111284.195, -6220.9556, 0.002431958, 0.009856862, -106696.1, -106696.1, 0.0, 4.9695196, 4.972384 
7.955347e+2, 3.1280595e+2, -125543.83, -109726.35, -6848.429, 0.003364695, -0.042912193, -107173.3, -107173.3, 0.0, 4.9645367, 4.975116 
7.9527885e+2, 3.1777126e+2, -142737.23, -124081.586, -7768.4614, 0.0035453304, -0.08626116, -121270.33, -121270.33, 0.0, 4.9595923, 4.972104 
7.9502267e+2, 3.22757e+2, -108370.12, -20768.459, -6180.917, -0.0133790355, 0.050965108, -20334.502, -20334.502, 0.0, 4.954785, 5.011532 
8.101345e+2, 1.2987715e+2, -1463133.0, -1667669.0, 16337.439, -0.0063860803, 0.012590032, -1461836.3, 205377.3, 0.0, 5.108512, 4.9705477 
8.0986774e+2, 1.3483964e+2, -1428441.0, -1626133.1, 16795.95, 0.00017214227, 0.007959339, -1427024.1, 191555.86, 0.0, 5.103813, 4.9705477 
8.0960107e+2, 1.398021e+2, -1393836.3, -1584907.5, 17184.215, 0.0061666393, 0.0037679374, -1392303.0, 177643.84, 0.0, 5.09913, 4.970412 
8.093333e+2, 1.4476487e+2, -1358102.8, -1541716.5, 19116.566, -0.0018019369, 0.0029222236, -1356133.6, 165177.05, 0.0, 5.094611, 4.970786 
8.0907124e+2, 1.4972872e+2, -1321767.0, -1498934.9, 23629.781, -0.0063704783, 0.01057917, -1318669.5, 153994.86, 0.0, 5.0906534, 4.970571 
8.088121e+2, 1.5469158e+2, -1283026.5, -1455212.9, 24079.06, -0.0019260456, 0.008198141, -1279722.6, 144305.16, 0.0, 5.0872874, 4.9705772 
8.0855304e+2, 1.5965435e+2, -1244648.3, -1412340.0, 24449.686, 0.0025779058, 0.0058119213, -1241156.3, 134235.83, 0.0, 5.0839224, 4.9702826 
8.082937e+2, 1.6461654e+2, -1206841.4, -1370162.3, 25024.225, 0.006281038, 0.003260908, -1203093.3, 123668.98, 0.0, 5.080474, 4.969757 
8.080365e+2, 1.6957733e+2, -1172051.9, -1334166.0, 28366.164, 0.0054985117, 0.005853633, -1167231.9, 110914.56, 0.0, 5.077159, 4.9669647 
8.077805e+2, 1.7453632e+2, -1131899.5, -1289622.4, 28629.621, 0.0010482501, 0.0034240836, -1126863.4, 102684.875, 0.0, 5.0742116, 4.9669724 
8.075247e+2, 1.7949529e+2, -1091791.4, -1245220.4, 28857.846, -0.0031641792, 0.0012164612, -1086543.1, 94407.02, 0.0, 5.0712633, 4.966916 
8.072687e+2, 1.8445432e+2, -1051852.3, -1201325.1, 28690.502, -0.0061651873, -0.000067269386, -1046534.44, 85816.21, 0.0, 5.0683217, 4.9666753 
8.070136e+2, 1.8941139e+2, -1016983.75, -1167768.5, 30795.494, -0.0059810183, 0.003980808, -1010936.75, 72833.23, 0.0, 5.0653887, 4.9628053 
8.0675966e+2, 1.94366e+2, -976051.0, -1122740.5, 30875.525, -0.0052712373, 0.00025828576, -969817.1, 65396.473, 0.0, 5.0626407, 4.96281 
8.065058e+2, 1.993206e+2, -935237.94, -1078024.9, 30942.473, -0.0046181814, -0.0032986775, -928821.0, 57836.47, 0.0, 5.059893, 4.962692 
8.0625176e+2, 2.042752e+2, -894742.75, -1034108.2, 30218.098, -0.0043333005, -0.004724447, -888472.75, 49629.137, 0.0, 5.057134, 4.9622993 
8.0599624e+2, 2.0922767e+2, -860133.7, -1002529.44, 30427.816, -0.005732507, 0.00077399454, -853904.25, 35663.277, 0.0, 5.05429, 4.957652 
8.057409e+2, 2.1417736e+2, -819323.8, -957473.94, 30242.867, -0.006718138, -0.00033793523, -812993.3, 28067.074, 0.0, 5.051423, 4.957648 
8.054857e+2, 2.1912701e+2, -778429.8, -912303.56, 30038.873, -0.0074491333, -0.0015920058, -771998.56, 20554.74, 0.0, 5.048559, 4.957665 
8.052305e+2, 2.2407652e+2, -737596.8, -867592.8, 29296.598, -0.0074634943, -0.0049662446, -731299.44, 12747.88, 0.0, 5.0457363, 4.9574933 
8.049729e+2, 2.2902407e+2, -702537.4, -835651.75, 27411.209, -0.007330946, -0.0019431593, -697113.8, -1553.4828, 0.0, 5.042806, 4.9529586 
8.0471426e+2, 2.3396869e+2, -662440.0, -790819.7, 26937.383, -0.0072726887, -0.0073005, -657016.94, -9914.893, 0.0, 5.0396056, 4.952953 
8.0445564e+2, 2.3891336e+2, -622364.06, -746054.8, 26487.064, -0.007165309, -0.012145196, -616930.75, -18287.543, 0.0, 5.036398, 4.952908 
8.041971e+2, 2.4385858e+2, -582544.75, -701517.56, 25869.182, -0.008481385, -0.011554018, -577163.25, -26983.363, 0.0, 5.0331097, 4.952803 
8.039361e+2, 2.4880256e+2, -547302.0, -667609.56, 22630.79, -0.010669542, -0.0026980347, -543185.8, -41456.477, 0.0, 5.0297127, 4.949087 
8.036729e+2, 2.537441e+2, -508782.56, -623287.5, 21659.85, -0.012726008, -0.0018285541, -504822.3, -51519.977, 0.0, 5.025832, 4.949133 
8.034099e+2, 2.5868565e+2, -470359.2, -579122.5, 20874.477, -0.014657959, -0.0014086795, -466490.44, -61614.86, 0.0, 5.0219398, 4.9491014 
8.0314726e+2, 2.636266e+2, -431690.13, -533942.5, 20367.484, -0.015173895, -0.00801162, -427782.5, -71328.805, 0.0, 5.017946, 4.9494514 
8.0288327e+2, 2.6856697e+2, -397695.9, -498921.16, 16801.736, -0.015316091, -0.004663427, -394979.97, -86942.305, 0.0, 5.0136847, 4.946388 
8.0261666e+2, 2.7350572e+2, -360671.5, -453696.88, 15090.287, -0.015088359, -0.013650504, -358284.8, -98647.34, 0.0, 5.0088787, 4.9470773 
8.0235016e+2, 2.7844456e+2, -324804.9, -410597.13, 13739.933, -0.014580955, -0.02208885, -322658.13, -111421.78, 0.0, 5.0039916, 4.947015 
8.0208427e+2, 2.833854e+2, -287336.94, -364146.66, 12769.824, -0.011527191, -0.014175373, -285269.56, -122452.98, 0.0, 4.999158, 4.948078 
8.0181813e+2, 2.8832605e+2, -254599.63, -327854.44, 10462.73, -0.010383628, 0.0005403072, -253134.56, -138735.63, 0.0, 4.994073, 4.9456744 
8.015504e+2, 2.9326746e+2, -218355.75, -280684.2, 8234.004, -0.0073647965, 0.011694081, -217286.33, -151312.27, 0.0, 4.988486, 4.947296 
8.012828e+2, 2.9820886e+2, -185670.72, -241053.33, 7032.81, -0.0045686103, 0.023125613, -184791.61, -167242.75, 0.0, 4.982816, 4.946225 
8.010172e+2, 3.0314723e+2, -150517.47, -196832.73, 8568.485, -0.0026175608, 0.012210157, -148983.1, -148983.1, 0.0, 4.9773617, 4.946626 
8.0075485e+2, 3.0809864e+2, -109217.69, -107148.7, 5043.317, 0.008617235, 0.004822265, -103034.875, -103034.875, 0.0, 4.9719877, 4.972468 
8.004941e+2, 3.1306133e+2, -121873.66, -106560.766, 3851.4304, 0.016028363, -0.05893544, -105646.64, -105646.64, 0.0, 4.966175, 4.975217 
8.002337e+2, 3.1802595e+2, -146982.67, -134014.78, 2741.1423, 0.024194095, -0.098757714, -133459.16, -133459.16, 0.0, 4.960243, 4.967922 
7.9997224e+2, 3.2300884e+2, -102238.52, -970.94574, 3312.7107, -0.0009952436, -0.08576794, -862.6946, -862.6946, 0.0, 4.954266, 5.0184216 
8.1523603e+2, 1.3015005e+2, -1461248.4, -1664837.5, 12844.953, -0.005003921, 0.014887913, -1460441.1, 204099.23, 0.0, 5.1085916, 4.971531 
8.1496465e+2, 1.3511354e+2, -1426555.0, -1623309.9, 13322.333, 0.00248913, 0.010542117, -1425657.0, 190239.89, 0.0, 5.103895, 4.9715295 
8.146933e+2, 1.4007697e+2, -1391936.3, -1582096.0, 13759.386, 0.008385359, 0.0065744375, -1390945.8, 176308.23, 0.0, 5.099219, 4.9713893 
8.1442094e+2, 1.4504066e+2, -1356131.0, -1538728.0, 16070.347, -0.0019054513, 0.0047803326, -1354727.5, 163881.05, 0.0, 5.094704, 4.971818 
8.14155e+2, 1.5000528e+2, -1320201.4, -1496437.5, 21119.906, -0.0077187405, 0.010813943, -1317705.8, 152248.31, 0.0, 5.0907083, 4.971439 
8.138924e+2, 1.5496886e+2, -1281463.9, -1452720.4, 21572.41, -0.0045845467, 0.0069983625, -1278788.3, 142521.61, 0.0, 5.087343, 4.9714456 
8.1362987e+2, 1.5993233e+2, -1243182.0, -1410028.1, 21839.314, -0.0013009137, 0.0033163314, -1240370.8, 132296.16, 0.0, 5.0839744, 4.971094 
8.1336707e+2, 1.6489536e+2, -1205495.8, -1368014.6, 22548.15, 0.0023858328, 0.0012822313, -1202425.4, 121603.64, 0.0, 5.080514, 4.970518 
8.131068e+2, 1.6985688e+2, -1171051.4, -1332558.5, 26153.21, 0.0016488, 0.004670387, -1166922.0, 108484.28, 0.0, 5.077179, 4.967541 
8.128478e+2, 1.748165e+2, -1130899.9, -1288016.8, 26419.547, -0.0028774606, 0.0031225288, -1126576.4, 100225.61, 0.0, 5.0742326, 4.96755 
8.1258893e+2, 1.797761e+2, -1090784.3, -1243600.4, 26595.666, -0.0070977034, 0.0016351386, -1086287.9, 91909.76, 0.0, 5.0712843, 4.9674993 
8.1233007e+2, 1.8473566e+2, -1050913.0, -1199836.6, 26509.758, -0.009005539, 0.000046844296, -1046334.75, 83258.086, 0.0, 5.068342, 4.967215 
8.1207234e+2, 1.896931e+2, -1016397.7, -1166941.1, 28738.707, -0.0073444704, 0.0035393278, -1011098.0, 69910.5, 0.0, 5.0653996, 4.9631176 
8.118158e+2, 1.9464798e+2, -975464.25, -1121912.3, 28821.764, -0.00509416, -0.00042247525, -969996.1, 62453.094, 0.0, 5.0626516, 4.9631233 
8.115594e+2, 1.9960286e+2, -934725.7, -1077346.1, 28883.3, -0.003220926, -0.0041434043, -929098.3, 54791.953, 0.0, 5.059903, 4.962955 
8.113025e+2, 2.0455769e+2, -894312.7, -1033582.2, 28051.096, -0.0035793204, -0.0054704743, -888875.06, 46457.438, 0.0, 5.0571384, 4.9625144 
8.110439e+2, 2.0951024e+2, -860019.0, -1002715.75, 28288.74, -0.0058307624, 0.00006765398, -854615.5, 32181.99, 0.0, 5.0542974, 4.95762 
8.1078565e+2, 2.1445987e+2, -819200.1, -957652.7, 28107.846, -0.007841403, -0.0010803933, -813711.44, 24579.549, 0.0, 5.0514326, 4.9576178 
8.1052744e+2, 2.194095e+2, -778307.75, -912507.6, 27927.418, -0.00961151, -0.0024406048, -772728.0, 17056.47, 0.0, 5.0485725, 4.9576244 
8.1026936e+2, 2.2435895e+2, -737511.44, -867878.75, 27089.152, -0.010275735, -0.0057395617, -732106.6, 9172.277, 0.0, 5.0457478, 4.957427 
8.1000865e+2, 2.2930631e+2, -702764.4, -836774.9, 25034.006, -0.010703962, -0.0023863101, -698240.56, -5446.751, 0.0, 5.042833, 4.952603 
8.097467e+2, 2.3425059e+2, -662657.7, -791935.7, 24563.926, -0.010845059, -0.0073810522, -658147.7, -13808.949, 0.0, 5.039634, 4.952598 
8.094849e+2, 2.3919494e+2, -622629.75, -747293.6, 24117.188, -0.010939754, -0.011877756, -618126.75, -22243.604, 0.0, 5.036428, 4.9525094 
8.0922323e+2, 2.4413976e+2, -582851.6, -702850.5, 23300.883, -0.0112119485, -0.011605945, -578486.0, -31061.95, 0.0, 5.033137, 4.952374 
8.0895865e+2, 2.490831e+2, -547753.0, -669509.4, 19746.97, -0.012206994, -0.0034105214, -544630.44, -45650.99, 0.0, 5.0297637, 4.948464 
8.0869174e+2, 2.5402394e+2, -509308.03, -625367.75, 18766.863, -0.01309461, -0.0028052744, -506348.88, -55789.207, 0.0, 5.0258846, 4.9484453 
8.084249e+2, 2.5896472e+2, -470869.13, -581158.5, 18014.654, -0.014050454, -0.0027268503, -468001.22, -65861.11, 0.0, 5.0219903, 4.9484286 
8.0815834e+2, 2.6390508e+2, -432166.72, -535945.4, 17217.787, -0.014633533, -0.008815893, -429384.72, -75660.51, 0.0, 5.0179996, 4.94879 
8.078898e+2, 2.688448e+2, -398070.4, -501305.0, 13464.862, -0.014556791, -0.004365976, -396343.1, -91028.64, 0.0, 5.0138335, 4.945564 
8.0761856e+2, 2.7378282e+2, -360751.88, -456009.47, 11911.183, -0.014466788, -0.012156494, -359285.06, -102363.35, 0.0, 5.009145, 4.946225 
8.073473e+2, 2.787209e+2, -324424.5, -412677.63, 10911.194, -0.01411969, -0.019239403, -323095.53, -114567.516, 0.0, 5.0044236, 4.9461675 
8.070767e+2, 2.836607e+2, -286781.94, -366293.88, 9977.673, -0.010884801, -0.012182062, -285549.0, -125429.89, 0.0, 4.999687, 4.9471602 
8.068055e+2, 2.8860027e+2, -253645.02, -329897.6, 7587.7417, -0.009768813, 0.0017023212, -252897.31, -141183.97, 0.0, 4.9947443, 4.9447455 
8.0653226e+2, 2.9354048e+2, -216974.45, -282685.97, 5487.084, -0.006603331, 0.012579876, -216519.4, -153218.27, 0.0, 4.989339, 4.9463024 
8.062592e+2, 2.9848066e+2, -183139.25, -241527.78, 4573.628, -0.003863454, 0.023309885, -182783.17, -167894.36, 0.0, 4.9838896, 4.945675 
8.059884e+2, 3.0341813e+2, -147916.44, -197416.4, 6405.044, -0.0021227724, 0.009188639, -147101.1, -147101.1, 0.0, 4.978496, 4.9460135 
8.0572057e+2, 3.083688e+2, -106731.29, -107887.74, 2753.7366, 0.009642004, 0.007207381, -104495.73, -104495.73, 0.0, 4.973085, 4.9718256 
8.054541e+2, 3.1333077e+2, -119064.96, -107062.555, 1457.6647, 0.017279206, -0.05236462, -106888.06, -106888.06, 0.0, 4.9673567, 4.9746323 
8.05188e+2, 3.1829473e+2, -139086.73, -123983.5, 625.53143, 0.02584082, -0.08857489, -123957.63, -123957.63, 0.0, 4.9616365, 4.971048 
8.049219e+2, 3.232883e+2, -97741.13, 827.50903, -3537.2295, 0.0140964035, 0.045892194, 954.28284, 954.28284, 0.0, 4.955743, 5.0187845 
8.203375e+2, 1.3042305e+2, -1459904.5, -1662245.1, 9912.005, -0.0024842736, 0.016556675, -1459420.1, 202445.77, 0.0, 5.1084924, 4.9725175 
8.200614e+2, 1.3538751e+2, -1424611.6, -1620431.4, 10290.399, 0.0048755757, 0.0126106385, -1424072.4, 189140.34, 0.0, 5.1040044, 4.972514 
8.197854e+2, 1.4035192e+2, -1389924.1, -1579214.8, 10596.822, 0.010589052, 0.009024133, -1389332.8, 175227.34, 0.0, 5.0993547, 4.972366 
8.195084e+2, 1.4531651e+2, -1354090.1, -1535726.1, 13327.1045, -0.0021393334, 0.0063776732, -1353117.4, 162788.06, 0.0, 5.0948358, 4.972834 
8.1923866e+2, 1.502819e+2, -1318574.1, -1493910.4, 18731.938, -0.009146611, 0.010900675, -1316595.3, 150647.86, 0.0, 5.0907907, 4.972303 
8.189725e+2, 1.5524618e+2, -1279959.9, -1450269.1, 19089.674, -0.007225916, 0.0057026003, -1277846.4, 140745.05, 0.0, 5.087384, 4.972307 
8.187066e+2, 1.6021037e+2, -1241972.3, -1407954.9, 19313.379, -0.0049723596, 0.0009353068, -1239754.6, 130186.48, 0.0, 5.083964, 4.971855 
8.184403e+2, 1.6517425e+2, -1204288.6, -1365906.9, 20004.9, -0.0012049585, -0.00040878693, -1201849.3, 119446.016, 0.0, 5.0805, 4.971292 
8.181768e+2, 1.7013647e+2, -1170238.4, -1331041.0, 23966.469, -0.0019948941, 0.003673149, -1166742.4, 105923.26, 0.0, 5.0771346, 4.9681187 
8.179149e+2, 1.7509672e+2, -1130097.4, -1286507.3, 24229.883, -0.006689787, 0.0029133845, -1126429.9, 97625.2, 0.0, 5.074185, 4.968127 
8.176531e+2, 1.8005696e+2, -1089992.6, -1242127.3, 24405.977, -0.010891924, 0.0020492028, -1086173.3, 89271.555, 0.0, 5.0712395, 4.9680643 
8.1739146e+2, 1.8501703e+2, -1049982.0, -1198372.8, 24270.553, -0.011558514, 0.00017979449, -1046113.25, 80721.46, 0.0, 5.068364, 4.967746 
8.17131e+2, 1.8997483e+2, -1015810.1, -1166115.0, 26682.31, -0.008460149, 0.0031392062, -1011214.0, 67032.74, 0.0, 5.065411, 4.9634295 
8.168719e+2, 1.9492999e+2, -974876.1, -1121085.3, 26768.393, -0.0047155023, -0.001126183, -970129.44, 59555.2, 0.0, 5.062664, 4.9634356 
8.166128e+2, 1.9988513e+2, -934212.44, -1076671.0, 26787.309, -0.0017664068, -0.005019597, -929342.0, 51780.86, 0.0, 5.059914, 4.9632163 
8.16353e+2, 2.0484021e+2, -893937.0, -1033174.56, 25907.533, -0.0027570564, -0.0060782745, -889272.75, 43290.19, 0.0, 5.0571427, 4.962689 
8.1609154e+2, 2.0979282e+2, -859902.5, -1002902.44, 26150.201, -0.0059168274, -0.0005377104, -855270.5, 28756.953, 0.0, 5.0543065, 4.957588 
8.158303e+2, 2.147424e+2, -819074.7, -957831.9, 25973.367, -0.009021918, -0.0017946968, -814372.2, 21149.291, 0.0, 5.0514436, 4.957587 
8.1556916e+2, 2.1969199e+2, -778210.9, -912777.75, 25813.734, -0.011852057, -0.0032907818, -773429.0, 13586.518, 0.0, 5.0485883, 4.9575605 
8.1530803e+2, 2.2464138e+2, -737436.0, -868184.8, 24872.266, -0.013053726, -0.00642095, -732864.4, 5646.0527, 0.0, 5.0457587, 4.957354 
8.150442e+2, 2.2958854e+2, -702989.5, -837899.2, 22657.54, -0.014065144, -0.0027506023, -699285.94, -9258.54, 0.0, 5.042861, 4.952246 
8.147791e+2, 2.345325e+2, -662873.5, -793052.94, 22191.209, -0.014448034, -0.0074540004, -659194.56, -17619.148, 0.0, 5.0396643, 4.952242 
8.145141e+2, 2.3947652e+2, -622871.6, -748488.7, 21714.855, -0.014679645, -0.01165013, -619223.8, -26100.676, 0.0, 5.03646, 4.952126 
8.1424916e+2, 2.4442089e+2, -583120.4, -704101.94, 20748.313, -0.013765549, -0.011611476, -579661.0, -34992.594, 0.0, 5.033165, 4.9519734 
8.1398106e+2, 2.4936363e+2, -548318.94, -671679.06, 16862.896, -0.0135752885, -0.004033923, -546055.4, -49825.52, 0.0, 5.0298176, 4.9477468 
8.137104e+2, 2.5430372e+2, -509830.6, -627450.94, 15872.301, -0.013362434, -0.003786646, -507726.34, -59909.086, 0.0, 5.025939, 4.9477563 
8.134398e+2, 2.592438e+2, -471418.72, -583285.44, 15065.87, -0.013406365, -0.0041186674, -469425.22, -70020.32, 0.0, 5.022041, 4.9477243 
8.131692e+2, 2.6418355e+2, -432604.3, -537832.44, 14130.249, -0.014042277, -0.009380169, -430739.9, -79745.11, 0.0, 5.018048, 4.9481735 
8.128963e+2, 2.6912266e+2, -398701.56, -503913.7, 9991.572, -0.013732565, -0.0038465222, -397761.13, -95169.76, 0.0, 5.013909, 4.9446964 
8.1262016e+2, 2.7405986e+2, -361345.8, -458595.44, 8377.461, -0.0138512505, -0.010566285, -360629.44, -106423.4, 0.0, 5.0092263, 4.945364 
8.1234425e+2, 2.789972e+2, -324995.88, -415229.6, 7338.4355, -0.013748131, -0.0164633, -324402.94, -118583.26, 0.0, 5.0045066, 4.9453163 
8.12069e+2, 2.8393602e+2, -287533.25, -369229.3, 6409.5522, -0.010395498, -0.010147061, -287033.44, -129611.74, 0.0, 4.9997654, 4.946174 
8.117927e+2, 2.888745e+2, -254324.95, -332947.94, 3528.0237, -0.009132796, 0.0025021292, -254166.97, -145139.39, 0.0, 4.9948483, 4.9437265 
8.1151396e+2, 2.9381353e+2, -217648.69, -285799.94, 1381.932, -0.0058724824, 0.012317411, -217620.69, -156992.66, 0.0, 4.9894505, 4.945259 
8.112355e+2, 2.9875252e+2, -183504.84, -243953.48, 533.77325, -0.0033884842, 0.02163876, -183500.13, -171271.7, 0.0, 4.984006, 4.9448714 
8.1095946e+2, 3.036892e+2, -148217.9, -199800.13, 2415.0276, -0.0021381823, 0.007147967, -148105.08, -148105.08, 0.0, 4.9786234, 4.945222 
8.1068635e+2, 3.0863938e+2, -106839.98, -110103.01, -1404.9778, 0.009503868, 0.009619721, -106318.4, -106318.4, 0.0, 4.9732404, 4.971084 
8.1041396e+2, 3.1360093e+2, -119041.22, -109133.34, -2720.86, 0.015596028, -0.045244806, -108435.33, -108435.33, 0.0, 4.967526, 4.973947 
8.101419e+2, 3.1856444e+2, -136078.02, -119265.67, -3334.3071, 0.02166656, -0.07914252, -118628.54, -118628.54, 0.0, 4.96181, 4.9728174 
8.09872e+2, 3.2356292e+2, -99867.71, -6130.3145, -6060.6978, 0.025607418, 0.15196225, -5740.0776, -5740.0776, 0.0, 4.9559083, 5.0164304 
8.25438e+2, 1.3069922e+2, -1463070.3, -1661075.6, 12162.361, 0.0009887102, 0.01449261, -1462326.0, 196832.17, 0.0, 5.106835, 4.973689 
8.251574e+2, 1.3566454e+2, -1427078.9, -1618949.4, 12421.316, 0.0061069303, 0.011559417, -1426278.0, 184218.88, 0.0, 5.102595, 4.9736733 
8.248768e+2, 1.4062975e+2, -1391335.4, -1577186.3, 12788.543, 0.010337641, 0.00872076, -1390459.5, 171377.05, 0.0, 5.0983086, 4.9735336 
8.245954e+2, 1.4559507e+2, -1354815.8, -1533402.3, 15617.333, -0.0034927947, 0.00583885, -1353460.4, 159714.6, 0.0, 5.0940456, 4.9739776 
8.243221e+2, 1.505611e+2, -1318961.1, -1491613.8, 21548.283, -0.010174915, 0.00987522, -1316312.4, 148193.98, 0.0, 5.0902066, 4.973324 
8.2405275e+2, 1.5552595e+2, -1279631.8, -1447656.0, 21838.668, -0.00775446, 0.0042841574, -1276839.6, 139009.53, 0.0, 5.0870533, 4.973318 
8.237834e+2, 1.6049072e+2, -1240995.3, -1405063.8, 21843.629, -0.004906406, -0.0006904615, -1238136.9, 129056.4, 0.0, 5.083863, 4.9728546 
8.2351387e+2, 1.6545525e+2, -1202851.0, -1362901.1, 22487.441, -0.0009331869, -0.001570218, -1199751.5, 118789.336, 0.0, 5.080585, 4.9722476 
8.2324725e+2, 1.7041801e+2, -1168603.5, -1328254.6, 26619.79, -0.0018350873, 0.0028949152, -1164282.0, 105623.74, 0.0, 5.0773787, 4.968916 
8.229824e+2, 1.7537875e+2, -1128063.1, -1283566.9, 26768.25, -0.00676864, 0.0025014624, -1123584.3, 97706.27, 0.0, 5.074573, 4.968913 
8.2271767e+2, 1.8033941e+2, -1087691.5, -1239174.1, 26789.406, -0.011222901, 0.0017623125, -1083093.4, 89582.53, 0.0, 5.071742, 4.968806 
8.2245296e+2, 1.8529984e+2, -1047802.6, -1195668.6, 26540.438, -0.012453956, -0.00019711454, -1043183.2, 80879.19, 0.0, 5.0688643, 4.968406 
8.221897e+2, 1.9025786e+2, -1013646.75, -1163861.8, 28890.592, -0.009493833, 0.0025601513, -1008281.9, 67190.48, 0.0, 5.066006, 4.9638886 
8.219279e+2, 1.9521317e+2, -972520.56, -1118769.1, 28765.355, -0.0053879386, -0.0017655725, -967066.1, 59842.637, 0.0, 5.0633287, 4.963889 
8.216661e+2, 2.0016845e+2, -931812.3, -1074449.4, 28564.402, -0.0019534766, -0.005648644, -926304.7, 52040.887, 0.0, 5.0606146, 4.9636254 
8.2140344e+2, 2.0512365e+2, -891470.3, -1031147.5, 27444.479, -0.0029801999, -0.006515269, -886271.44, 43513.133, 0.0, 5.057904, 4.96301 
8.211391e+2, 2.1007617e+2, -857542.25, -1001430.9, 27545.396, -0.0064090686, -0.0011750534, -852449.3, 28800.451, 0.0, 5.055123, 4.9576964 
8.208749e+2, 2.150256e+2, -816664.5, -956380.1, 27153.053, -0.009958805, -0.0026863716, -811573.0, 21172.48, 0.0, 5.0522795, 4.957685 
8.206109e+2, 2.1997502e+2, -775907.6, -911476.94, 26750.232, -0.013169338, -0.0043321187, -770820.25, 13420.811, 0.0, 5.049399, 4.957624 
8.203469e+2, 2.2492427e+2, -735426.2, -867223.94, 25483.682, -0.01474638, -0.007150711, -730670.4, 5067.144, 0.0, 5.0464983, 4.9573393 
8.2007986e+2, 2.2987112e+2, -701383.75, -837754.94, 22833.146, -0.016388096, -0.0030846167, -697662.25, -10404.798, 0.0, 5.0435605, 4.9519787 
8.1981146e+2, 2.3481469e+2, -661483.1, -793048.06, 22076.646, -0.01699838, -0.007406808, -657877.44, -19067.955, 0.0, 5.040286, 4.9519663 
8.195433e+2, 2.397583e+2, -621815.8, -748819.56, 21251.959, -0.017226363, -0.011213382, -618354.0, -27992.836, 0.0, 5.0369883, 4.951782 
8.19275e+2, 2.4470218e+2, -582260.06, -704547.06, 19884.023, -0.015368908, -0.011273799, -579108.1, -37196.75, 0.0, 5.0336137, 4.9516315 
8.1900346e+2, 2.4964423e+2, -548025.44, -673196.5, 15348.852, -0.014293179, -0.0044046454, -546170.75, -52691.24, 0.0, 5.03019, 4.947086 
8.1872886e+2, 2.5458357e+2, -509881.28, -629121.0, 14023.6455, -0.013221961, -0.0046733296, -508254.2, -63179.58, 0.0, 5.0261745, 4.947108 
8.1845444e+2, 2.5952286e+2, -471930.4, -585185.7, 12853.26, -0.012562812, -0.0054891105, -470490.0, -73820.27, 0.0, 5.022104, 4.947077 
8.1817985e+2, 2.6446202e+2, -433378.84, -539793.25, 11409.374, -0.013234006, -0.009665913, -432169.3, -83903.92, 0.0, 5.0179873, 4.9475675 
8.1790257e+2, 2.6940045e+2, -399670.22, -506704.06, 6784.619, -0.012821599, -0.0031312904, -399241.88, -99373.43, 0.0, 5.0138893, 4.9437985 
8.176217e+2, 2.7433693e+2, -362156.28, -461217.72, 5030.272, -0.013235973, -0.008911074, -361901.5, -110410.95, 0.0, 5.009234, 4.944516 
8.173411e+2, 2.7927357e+2, -325936.84, -418381.6, 4110.545, -0.0134804975, -0.013501141, -325754.44, -122642.85, 0.0, 5.0045586, 4.94426 
8.1706107e+2, 2.8421128e+2, -288188.88, -371771.03, 2922.8923, -0.009766614, -0.008286923, -288086.78, -133361.6, 0.0, 4.999827, 4.9453254 
8.167797e+2, 2.891487e+2, -255053.06, -335943.63, -361.91623, -0.008346339, 0.0028927587, -255051.44, -148708.78, 0.0, 4.994933, 4.9427295 
8.1649554e+2, 2.940865e+2, -218444.28, -288912.1, -2516.2046, -0.0050416007, 0.011007753, -218354.55, -160398.61, 0.0, 4.9895225, 4.9442267 
8.1621164e+2, 2.9902428e+2, -184548.16, -247651.19, -3161.828, -0.00283561, 0.019374207, -184390.13, -174821.39, 0.0, 4.984082, 4.943626 
8.1593037e+2, 3.039603e+2, -148558.45, -201929.02, -1516.3267, -0.002373081, 0.006983414, -148515.4, -148515.4, 0.0, 4.9787, 4.944528 
8.1565183e+2, 3.089099e+2, -107209.27, -112449.12, -5434.333, 0.008930787, 0.010137742, -103796.29, -103796.29, 0.0, 4.973317, 4.9703145 
8.153736e+2, 3.1387088e+2, -119340.44, -111318.0, -6778.9326, 0.013240813, -0.044556063, -107452.43, -107452.43, 0.0, 4.967585, 4.9732547 
8.150959e+2, 3.188342e+2, -136761.88, -122259.734, -8075.9575, 0.019690093, -0.07234116, -118657.28, -118657.28, 0.0, 4.961837, 4.9718566 
8.1482244e+2, 3.238276e+2, -101682.49, -11305.423, -7435.057, 0.037883133, 0.11252062, -10697.847, -10697.847, 0.0, 4.955908, 5.0145164 
8.3053607e+2, 1.3098647e+2, -1466816.9, -1658018.1, 17630.77, 0.0036885806, 0.012016863, -1465204.8, 191137.05, 0.0, 5.1049123, 4.975423 
8.30251e+2, 1.3595289e+2, -1430724.1, -1615745.6, 18265.816, 0.006896107, 0.009906478, -1428938.1, 178731.7, 0.0, 5.1007113, 4.975428 
8.299659e+2, 1.4091918e+2, -1394813.0, -1573817.9, 19006.818, 0.008896981, 0.0075057624, -1392817.1, 166181.98, 0.0, 5.096491, 4.975302 
8.296805e+2, 1.458855e+2, -1358063.3, -1529775.8, 22471.314, -0.0055778576, 0.0043338067, -1355171.3, 155156.78, 0.0, 5.092314, 4.9757805 
8.29404e+2, 1.5085243e+2, -1322196.3, -1488145.3, 29310.9, -0.011107442, 0.00804272, -1317171.4, 144479.34, 0.0, 5.0886025, 4.974982 
8.291317e+2, 1.5581815e+2, -1282216.8, -1443788.3, 29897.453, -0.0075794994, 0.0023359796, -1276862.0, 136123.36, 0.0, 5.085679, 4.974994 
8.2885945e+2, 1.6078378e+2, -1242811.0, -1400709.1, 30173.854, -0.0037500446, -0.0024988365, -1237241.4, 127079.695, 0.0, 5.0827556, 4.9745603 
8.285869e+2, 1.6574922e+2, -1203911.0, -1358107.5, 31345.717, 0.000773098, -0.0030081267, -1197782.5, 117877.03, 0.0, 5.079758, 4.9739604 
8.283175e+2, 1.7071278e+2, -1169224.3, -1323430.3, 36154.05, -0.00007437503, 0.0016763723, -1161168.6, 105847.86, 0.0, 5.0768104, 4.9704933 
8.2805e+2, 1.7567424e+2, -1127815.0, -1278249.8, 36672.016, -0.0051437337, 0.0016732322, -1119351.5, 99042.57, 0.0, 5.0743155, 4.9705067 
8.277826e+2, 1.8063556e+2, -1086610.6, -1233544.4, 37079.957, -0.0099879885, 0.0010707737, -1077783.5, 91989.234, 0.0, 5.071818, 4.9703445 
8.275151e+2, 1.8559653e+2, -1045779.1, -1189681.1, 37149.727, -0.012449403, -0.00088548585, -1036754.5, 84399.6, 0.0, 5.069315, 4.969887 
8.272492e+2, 1.9055493e+2, -1010961.7, -1157864.9, 40141.56, -0.010453403, 0.0018157964, -1000708.56, 71851.83, 0.0, 5.0667925, 4.965204 
8.269849e+2, 1.9551058e+2, -968797.8, -1112214.5, 40434.797, -0.007298314, -0.002372836, -958183.25, 65810.62, 0.0, 5.064491, 4.9652185 
8.2672054e+2, 2.0046616e+2, -926989.06, -1067374.0, 40627.26, -0.0045987386, -0.006146573, -916079.44, 59348.48, 0.0, 5.0621877, 4.9649415 
8.2645535e+2, 2.0542157e+2, -885423.2, -1023428.6, 39955.793, -0.0052115014, -0.007602932, -874689.9, 52174.664, 0.0, 5.0599117, 4.9643474 
8.2618856e+2, 2.1037412e+2, -850652.3, -993857.25, 40609.203, -0.008160106, -0.0029313609, -839938.2, 38390.96, 0.0, 5.057557, 4.9587827 
8.2592183e+2, 2.1532346e+2, -808582.4, -948172.6, 40708.14, -0.011235616, -0.005084657, -797578.25, 32247.229, 0.0, 5.055149, 4.958789 
8.256552e+2, 2.2027276e+2, -766674.75, -902845.1, 40771.316, -0.013773305, -0.0071392613, -755400.7, 25921.266, 0.0, 5.0527287, 4.958663 
8.253885e+2, 2.252219e+2, -725069.06, -858084.75, 39892.043, -0.014630793, -0.0093323635, -714022.6, 18797.168, 0.0, 5.0502563, 4.9583597 
8.251186e+2, 2.3016846e+2, -690182.1, -828894.44, 37634.273, -0.01565918, -0.0042418567, -680629.4, 3713.551, 0.0, 5.047759, 4.952705 
8.248472e+2, 2.3511162e+2, -649233.9, -783625.2, 37350.555, -0.015454233, -0.007244428, -639550.94, -3651.59, 0.0, 5.044872, 4.952714 
8.2457596e+2, 2.4005479e+2, -608498.2, -738903.5, 37013.61, -0.014800157, -0.009794545, -598724.9, -11269.204, 0.0, 5.041985, 4.952518 
8.243045e+2, 2.4499802e+2, -567872.44, -694165.1, 35924.074, -0.012746931, -0.0099185025, -558368.94, -19356.701, 0.0, 5.039023, 4.9523454 
8.240293e+2, 2.4993911e+2, -533113.06, -663383.1, 31548.889, -0.011651118, -0.004256835, -525874.75, -35284.96, 0.0, 5.035936, 4.947454 
8.237508e+2, 2.5487733e+2, -494045.0, -618823.44, 30595.54, -0.010684781, -0.005265979, -486946.8, -44751.13, 0.0, 5.032259, 4.9475017 
8.234725e+2, 2.5981554e+2, -455125.34, -574506.4, 29890.475, -0.009741806, -0.0065532215, -448059.63, -54258.2, 0.0, 5.028567, 4.9474435 
8.231938e+2, 2.6475376e+2, -415482.2, -528226.25, 28476.834, -0.010658175, -0.010312326, -408697.78, -63291.086, 0.0, 5.0247846, 4.9481015 
8.229119e+2, 2.6969108e+2, -382043.66, -496139.7, 23590.91, -0.011306949, -0.0033431093, -377358.3, -80337.97, 0.0, 5.0207176, 4.9439845 
8.226262e+2, 2.7462634e+2, -345100.7, -450988.9, 21481.22, -0.012147162, -0.008634633, -340908.8, -92254.32, 0.0, 5.015851, 4.944699 
8.2234055e+2, 2.7956173e+2, -309745.94, -408690.9, 20117.094, -0.012465288, -0.012555253, -305812.22, -105524.58, 0.0, 5.0108705, 4.9444084 
8.2205564e+2, 2.844981e+2, -272740.06, -362728.63, 18640.639, -0.009087361, -0.007643778, -269031.56, -117116.74, 0.0, 5.005918, 4.94536 
8.2176894e+2, 2.894341e+2, -240265.53, -327357.94, 14367.192, -0.008043696, 0.0024890634, -237956.66, -134409.9, 0.0, 5.0007496, 4.942757 
8.2147914e+2, 2.9437047e+2, -205031.36, -281202.3, 11754.78, -0.0045218803, 0.009591176, -203258.61, -148083.44, 0.0, 4.9948626, 4.9441776 
8.211895e+2, 2.993068e+2, -172806.8, -240638.53, 10818.835, -0.0014575978, 0.01758512, -171123.05, -164319.97, 0.0, 4.98879, 4.943623 
8.209027e+2, 3.0424196e+2, -139168.53, -196609.48, 12164.413, -0.0016103932, 0.009858964, -136698.66, -136698.66, 0.0, 4.9826994, 4.9442368 
8.206184e+2, 3.0919042e+2, -98869.09, -106736.43, 6919.098, 0.009323193, 0.010820684, -94843.64, -94843.64, 0.0, 4.976754, 4.9704432 
8.20334e+2, 3.1415024e+2, -113366.36, -106694.93, 4547.342, 0.013910534, -0.047990806, -104391.02, -104391.02, 0.0, 4.970156, 4.9733663 
8.200506e+2, 3.191137e+2, -138551.56, -130223.4, 3269.841, 0.025356019, -0.05752564, -129093.01, -129093.01, 0.0, 4.9633884, 4.9678454 
8.19773e+2, 3.2409772e+2, -97984.555, -1646.9907, 1941.9891, 0.053471416, -0.032883085, -1607.8597, -1607.8597, 0.0, 4.956413, 5.017145 
8.3563304e+2, 1.3127884e+2, -1464561.1, -1654439.1, 14462.001, 0.0055599594, 0.010993364, -1463466.0, 190009.06, 0.0, 5.104999, 4.9766536 
8.353435e+2, 1.3624656e+2, -1428470.4, -1612173.0, 15119.514, 0.0068196338, 0.009633579, -1427234.4, 177556.13, 0.0, 5.100799, 4.9766583 
8.350541e+2, 1.4121412e+2, -1392531.4, -1570185.4, 15877.7705, 0.006912646, 0.007573791, -1391123.5, 164984.22, 0.0, 5.0965786, 4.9765563 
8.3476466e+2, 1.461816e+2, -1355902.9, -1526317.6, 19702.9, -0.007983411, 0.0041845054, -1353654.5, 153770.7, 0.0, 5.092397, 4.976974 
8.3448505e+2, 1.5114962e+2, -1320464.8, -1485167.3, 27088.838, -0.012251307, 0.007448222, -1316123.8, 142613.88, 0.0, 5.0886407, 4.9760156 
8.3421e+2, 1.5611634e+2, -1280492.8, -1440816.3, 27678.67, -0.0075837136, 0.0015246703, -1275848.8, 134213.9, 0.0, 5.0857167, 4.9760284 
8.3393484e+2, 1.6108301e+2, -1241096.6, -1397729.5, 28019.47, -0.0028106442, -0.0031261756, -1236235.3, 125153.22, 0.0, 5.082791, 4.9756002 
8.336593e+2, 1.660495e+2, -1202226.9, -1355144.0, 29015.82, 0.0023678346, -0.003296775, -1196906.3, 115810.06, 0.0, 5.0797873, 4.9749975 
8.3338726e+2, 1.7101401e+2, -1167892.0, -1320965.8, 34252.98, 0.0014386221, 0.0014521588, -1160576.9, 103486.95, 0.0, 5.076814, 4.9713597 
8.331173e+2, 1.7597635e+2, -1126488.0, -1275791.9, 34773.8, -0.0037744986, 0.0017275682, -1118786.3, 96646.27, 0.0, 5.0743194, 4.971373 
8.3284736e+2, 1.809385e+2, -1085369.6, -1231268.3, 35091.746, -0.009055587, 0.0011901727, -1077368.1, 89434.86, 0.0, 5.071822, 4.9711514 
8.325773e+2, 1.8590018e+2, -1044724.3, -1187765.3, 35295.594, -0.0127393985, -0.00072626135, -1036489.1, 81688.33, 0.0, 5.069314, 4.9705744 
8.323089e+2, 1.9085921e+2, -1010137.8, -1156347.8, 38380.758, -0.011698949, 0.001837814, -1000675.1, 68902.9, 0.0, 5.066782, 4.965753 
8.320421e+2, 1.9581538e+2, -967979.0, -1110699.8, 38678.445, -0.009586371, -0.0023170677, -958170.9, 62835.586, 0.0, 5.06448, 4.9657683 
8.3177537e+2, 2.0077148e+2, -926141.6, -1065812.9, 38886.926, -0.0077059963, -0.006198198, -916044.75, 56390.824, 0.0, 5.0621796, 4.9655085 
8.315079e+2, 2.0572734e+2, -884672.0, -1022102.9, 38110.59, -0.007881188, -0.008311052, -874811.2, 49056.273, 0.0, 5.059906, 4.9648347 
8.3123875e+2, 2.1068023e+2, -850142.06, -993093.6, 38785.15, -0.0103667835, -0.00428597, -840297.0, 35031.516, 0.0, 5.0575566, 4.959074 
8.309697e+2, 2.1562979e+2, -808069.25, -947405.2, 38890.957, -0.013058473, -0.0070747645, -797949.2, 28873.113, 0.0, 5.0551496, 4.9590816 
8.3070076e+2, 2.2057933e+2, -766251.9, -902243.2, 38972.473, -0.015218846, -0.009416257, -755874.94, 22441.305, 0.0, 5.052724, 4.958902 
8.304316e+2, 2.2552873e+2, -724846.2, -857910.06, 37841.066, -0.015089987, -0.010551766, -714837.6, 14974.221, 0.0, 5.050247, 4.958454 
8.3015907e+2, 2.3047537e+2, -690195.3, -829431.25, 35470.477, -0.015044594, -0.0043854895, -681680.0, -345.35635, 0.0, 5.047771, 4.9525547 
8.298848e+2, 2.3541847e+2, -649238.5, -784153.44, 35192.793, -0.013993332, -0.0061898576, -640610.2, -7718.313, 0.0, 5.0448856, 4.952565 
8.2961076e+2, 2.4036156e+2, -608563.06, -739550.4, 34830.93, -0.01279517, -0.007803173, -599877.1, -15427.626, 0.0, 5.041996, 4.952328 
8.293362e+2, 2.4530451e+2, -568029.6, -694983.7, 33546.695, -0.0109805325, -0.00845477, -559710.3, -23701.393, 0.0, 5.039024, 4.9521008 
8.2905763e+2, 2.5024503e+2, -533597.2, -665275.44, 28798.648, -0.009634497, -0.003923327, -527574.25, -39982.195, 0.0, 5.035972, 4.946837 
8.287754e+2, 2.5518256e+2, -494516.63, -620699.25, 27849.822, -0.008958905, -0.0054083914, -488643.25, -49438.637, 0.0, 5.032296, 4.9468884 
8.284933e+2, 2.6012012e+2, -455556.5, -576297.7, 27097.492, -0.008450022, -0.0072586318, -449753.97, -58936.93, 0.0, 5.028605, 4.946858 
8.282108e+2, 2.6505765e+2, -415998.75, -530234.9, 25526.895, -0.009915349, -0.011138979, -410554.1, -68125.484, 0.0, 5.0248203, 4.9474416 
8.279245e+2, 2.699942e+2, -382466.16, -498851.88, 20230.023, -0.011179273, -0.004083153, -379050.06, -85000.125, 0.0, 5.020899, 4.9430346 
8.27634e+2, 2.749285e+2, -345072.28, -453515.0, 18304.055, -0.012083957, -0.008979822, -342066.06, -96372.59, 0.0, 5.0162, 4.9437385 
8.2734364e+2, 2.798629e+2, -309010.06, -410723.53, 17243.777, -0.012617355, -0.012303337, -306166.2, -108830.09, 0.0, 5.011449, 4.9435153 
8.2705384e+2, 2.8479844e+2, -271626.0, -364624.4, 15958.698, -0.00985702, -0.006447417, -268963.7, -119991.414, 0.0, 5.006642, 4.9444513 
8.2676166e+2, 2.8973338e+2, -238927.6, -329654.72, 11304.625, -0.009614798, 0.004205903, -237540.25, -136925.23, 0.0, 5.001611, 4.941668 
8.264659e+2, 2.946686e+2, -203165.73, -283104.6, 8962.424, -0.007395464, 0.012153406, -202173.22, -149918.72, 0.0, 4.995884, 4.9431562 
8.261703e+2, 2.996038e+2, -170250.22, -242119.06, 8388.933, -0.0053735585, 0.01998329, -169284.0, -165390.2, 0.0, 4.9900455, 4.9426417 
8.2587767e+2, 3.0453742e+2, -136647.66, -198156.52, 9655.667, -0.004525073, 0.00908315, -135167.53, -135167.53, 0.0, 4.9839597, 4.943236 
8.2558763e+2, 3.094846e+2, -96634.12, -108984.4, 4130.9243, 0.008511318, 0.013579105, -95379.8, -95379.8, 0.0, 4.978015, 4.9691954 
8.2529706e+2, 3.1444284e+2, -110875.79, -109100.37, 1405.408, 0.016711688, -0.042037953, -108325.79, -108325.79, 0.0, 4.9715576, 4.9720016 
8.250075e+2, 3.1940466e+2, -132348.61, -125018.14, 325.71823, 0.0310883, -0.055239882, -125003.695, -125003.695, 0.0, 4.965003, 4.969097 
8.247228e+2, 3.2439575e+2, -91143.85, 3004.4048, -4687.2466, 0.05912699, 0.061759084, 3237.1875, 3237.1875, 0.0, 4.9582744, 5.018458 
8.4072983e+2, 1.315713e+2, -1462456.3, -1650897.1, 11658.032, 0.0073610856, 0.009334606, -1461737.8, 188869.66, 0.0, 5.105031, 4.977898 
8.40436e+2, 1.3654032e+2, -1426257.4, -1608591.1, 12302.473, 0.006752548, 0.008913982, -1425431.1, 176479.17, 0.0, 5.100872, 4.977899 
8.4014213e+2, 1.4150912e+2, -1390558.1, -1566785.1, 13018.107, 0.0057553696, 0.0073558786, -1389601.6, 163613.89, 0.0, 5.0965796, 4.977775 
8.3984876e+2, 1.464778e+2, -1353827.8, -1522831.1, 17193.111, -0.009775261, 0.003952755, -1352096.4, 152425.31, 0.0, 5.0924416, 4.978195 
8.39566e+2, 1.5144688e+2, -1318823.0, -1482210.0, 25057.074, -0.013131219, 0.006909834, -1315066.6, 140757.22, 0.0, 5.0886474, 4.977057 
8.392881e+2, 1.5641461e+2, -1278822.6, -1437852.8, 25593.0, -0.0074921646, 0.0008245852, -1274805.4, 132333.97, 0.0, 5.0857363, 4.977069 
8.390101e+2, 1.6138232e+2, -1239493.6, -1394807.1, 25700.54, -0.0017916133, -0.0035589577, -1235351.3, 123103.67, 0.0, 5.0827866, 4.9766407 
8.387317e+2, 1.6634987e+2, -1200683.4, -1352287.4, 26965.057, 0.0039080903, -0.0034450805, -1196030.0, 113742.36, 0.0, 5.07978, 4.9760156 
8.38457e+2, 1.713153e+2, -1166666.3, -1318556.4, 32393.584, 0.0029719728, 0.0012980552, -1160046.3, 101064.28, 0.0, 5.0767827, 4.9722247 
8.3818454e+2, 1.762785e+2, -1125273.0, -1273391.6, 32892.504, -0.0023804847, 0.0017907977, -1118297.3, 94173.29, 0.0, 5.074286, 4.972238 
8.3791196e+2, 1.8124147e+2, -1084334.4, -1229273.0, 33153.266, -0.008137294, 0.001321101, -1077110.9, 86721.914, 0.0, 5.071793, 4.9718785 
8.376392e+2, 1.8620387e+2, -1043694.44, -1185778.0, 33406.008, -0.013117757, -0.000501394, -1036232.1, 78968.48, 0.0, 5.069287, 4.9712987 
8.3736837e+2, 1.911635e+2, -1009314.06, -1154831.1, 36619.633, -0.0130559895, 0.0018910274, -1000618.3, 65977.19, 0.0, 5.066772, 4.9663014 
8.3709925e+2, 1.961202e+2, -967160.3, -1109185.6, 36921.77, -0.012012561, -0.0022917022, -958135.4, 59883.53, 0.0, 5.06447, 4.9663177 
8.3683014e+2, 2.0107685e+2, -925360.8, -1064410.0, 37037.336, -0.010706139, -0.00630843, -916110.8, 53332.19, 0.0, 5.0621724, 4.9660206 
8.3656037e+2, 2.0603314e+2, -883896.0, -1020716.0, 36375.605, -0.010405162, -0.009018273, -874826.25, 46043.973, 0.0, 5.0599008, 4.9653425 
8.3628887e+2, 2.1098636e+2, -849631.6, -992329.3, 36961.266, -0.012464163, -0.0056346357, -840626.25, 31701.443, 0.0, 5.057557, 4.9593644 
8.360174e+2, 2.1593612e+2, -807556.0, -946637.0, 37073.94, -0.01483437, -0.009144679, -798290.7, 25528.264, 0.0, 5.055151, 4.9593735 
8.357461e+2, 2.2088593e+2, -765942.3, -901901.25, 36967.402, -0.01648403, -0.011562844, -756540.94, 18769.38, 0.0, 5.05272, 4.95905 
8.354745e+2, 2.2583559e+2, -724574.44, -857616.56, 35981.043, -0.01529683, -0.011522007, -715466.94, 11336.906, 0.0, 5.0502386, 4.95859 
8.3519936e+2, 2.3078229e+2, -690206.8, -829968.56, 33307.168, -0.0142032625, -0.0043280288, -682675.1, -4348.7866, 0.0, 5.0477843, 4.952403 
8.349224e+2, 2.3572534e+2, -649241.4, -784682.06, 33035.523, -0.012376936, -0.005043377, -641613.25, -11728.762, 0.0, 5.0449004, 4.9524155 
8.346454e+2, 2.4066833e+2, -608679.4, -740314.06, 32611.049, -0.01077451, -0.0058224895, -601043.3, -19599.844, 0.0, 5.0420084, 4.952098 
8.343679e+2, 2.4561097e+2, -568214.1, -695863.25, 31183.541, -0.009091331, -0.0068915165, -561003.56, -27997.66, 0.0, 5.039026, 4.9518347 
8.3408576e+2, 2.5055093e+2, -534069.3, -667147.4, 26047.816, -0.007601712, -0.003477726, -529152.56, -44557.91, 0.0, 5.0360103, 4.9462256 
8.337998e+2, 2.5548777e+2, -494986.28, -622576.9, 25104.326, -0.00728845, -0.005564521, -490224.53, -54010.645, 0.0, 5.0323358, 4.946274 
8.33514e+2, 2.604246e+2, -456084.16, -578312.25, 24297.623, -0.00728858, -0.007927343, -451431.2, -63598.23, 0.0, 5.028644, 4.9461937 
8.332275e+2, 2.6536155e+2, -416471.75, -532133.3, 22550.297, -0.009196622, -0.011814564, -412230.7, -72779.766, 0.0, 5.0248547, 4.9468217 
8.329369e+2, 2.702973e+2, -383228.1, -501812.2, 16724.094, -0.011056, -0.0045795045, -380914.6, -89834.75, 0.0, 5.0209737, 4.942047 
8.3264154e+2, 2.7523062e+2, -345794.6, -456426.94, 14761.674, -0.01216279, -0.00926078, -343858.8, -101126.086, 0.0, 5.0162787, 4.9427667 
8.3234644e+2, 2.8016415e+2, -309824.75, -413875.25, 13736.774, -0.013140439, -0.011745389, -308041.78, -113657.39, 0.0, 5.0115314, 4.9424553 
8.320519e+2, 2.850988e+2, -272163.25, -367172.66, 12190.547, -0.010554765, -0.005318077, -270624.03, -124594.336, 0.0, 5.0067225, 4.9436088 
8.317542e+2, 2.9003266e+2, -239669.89, -333107.3, 6986.0728, -0.011211111, 0.0055582076, -239150.45, -141467.5, 0.0, 5.001732, 4.940512 
8.314524e+2, 2.9496685e+2, -203784.28, -286317.16, 4626.257, -0.010646813, 0.014002237, -203525.77, -154192.94, 0.0, 4.9960084, 4.942084 
8.3115107e+2, 2.9990095e+2, -170982.53, -245548.98, 4087.0813, -0.010419392, 0.021959893, -170759.19, -169776.4, 0.0, 4.990161, 4.941493 
8.308526e+2, 3.048332e+2, -137448.44, -201950.66, 5048.688, -0.008294996, 0.010079462, -137055.66, -137055.66, 0.0, 4.984101, 4.9419518 
8.3055687e+2, 3.0977902e+2, -97446.52, -113166.664, -718.5772, 0.0075448495, 0.01609137, -97413.75, -97413.75, 0.0, 4.9781904, 4.967759 
8.3026016e+2, 3.1473577e+2, -111794.02, -113652.37, -3437.1934, 0.018749677, -0.037680004, -109162.625, -109162.625, 0.0, 4.9717445, 4.9704356 
8.2996404e+2, 3.1969562e+2, -128235.695, -117813.83, -4274.738, 0.03147649, -0.060133606, -116284.79, -116284.79, 0.0, 4.96516, 4.971789 
8.296726e+2, 3.2469139e+2, -91612.45, -201.61646, -7785.8794, 0.05773898, 0.14666288, 456.80002, 456.80002, 0.0, 4.958412, 5.0175753 
8.458256e+2, 1.3186643e+2, -1465987.3, -1649207.3, 13259.197, 0.0071941954, 0.0039099827, -1465032.6, 182679.86, 0.0, 5.10308, 4.9793916 
8.455276e+2, 1.3683674e+2, -1429477.8, -1606779.3, 13797.282, 0.00767635, 0.0052728304, -1428410.5, 170593.03, 0.0, 5.0990343, 4.979381 
8.452297e+2, 1.4180672e+2, -1392996.9, -1564688.0, 14696.396, 0.0073053665, 0.0050207847, -1391748.0, 158549.31, 0.0, 5.095041, 4.9792075 
8.4493244e+2, 1.467766e+2, -1355479.9, -1520163.9, 19262.105, -0.009724974, 0.0026974324, -1353256.9, 148335.45, 0.0, 5.0911593, 4.979689 
8.446466e+2, 1.5174675e+2, -1320073.3, -1479694.0, 27647.73, -0.013040043, 0.006490608, -1315420.1, 137464.27, 0.0, 5.0876365, 4.978351 
8.4436584e+2, 1.5671548e+2, -1279390.1, -1435015.9, 28213.295, -0.0070313923, 0.0013914243, -1274433.3, 129757.2, 0.0, 5.084969, 4.978358 
8.440851e+2, 1.6168413e+2, -1239389.0, -1391858.1, 28265.127, -0.0006862431, -0.0024130282, -1234317.9, 121179.17, 0.0, 5.082301, 4.977835 
8.4380376e+2, 1.6665244e+2, -1199863.8, -1348902.9, 29561.982, 0.0049558626, -0.0030113808, -1194214.3, 112592.555, 0.0, 5.0795236, 4.977252 
8.4352636e+2, 1.7161852e+2, -1165650.3, -1315469.3, 35116.563, 0.0034512167, 0.00082389975, -1157827.6, 100310.75, 0.0, 5.076708, 4.9732623 
8.4325147e+2, 1.7658235e+2, -1123803.6, -1270097.4, 35503.08, -0.0020896704, 0.000717871, -1115642.9, 93849.164, 0.0, 5.074373, 4.9732738 
8.4297645e+2, 1.8154593e+2, -1082651.0, -1226041.8, 35711.18, -0.007805433, -0.00002979874, -1074249.5, 86598.69, 0.0, 5.071994, 4.9728417 
8.4270126e+2, 1.8650895e+2, -1041655.3, -1182562.0, 35764.26, -0.012851483, -0.0013690772, -1033097.5, 79112.445, 0.0, 5.0696445, 4.972192 
8.4242797e+2, 1.9146909e+2, -1007266.2, -1151943.3, 39088.06, -0.012970984, 0.0011918512, -997381.0, 66219.17, 0.0, 5.0672097, 4.9670424 
8.421565e+2, 1.9642623e+2, -964829.44, -1106204.4, 39241.31, -0.012098782, -0.0028482468, -954667.7, 60351.957, 0.0, 5.065011, 4.9670477 
8.4188515e+2, 2.0138325e+2, -922947.25, -1061487.8, 39162.883, -0.010731888, -0.0068629757, -912643.0, 53796.953, 0.0, 5.0627623, 4.9667115 
8.4161305e+2, 2.0633993e+2, -881472.06, -1017946.94, 38296.61, -0.010508619, -0.009570225, -871460.06, 46403.406, 0.0, 5.0605264, 4.965967 
8.413392e+2, 2.1129337e+2, -847324.94, -990072.6, 38653.664, -0.012525903, -0.006305793, -837530.25, 31788.117, 0.0, 5.058225, 4.9597983 
8.410653e+2, 2.162433e+2, -805317.25, -944455.0, 38522.04, -0.014550329, -0.010074772, -795364.0, 25443.914, 0.0, 5.0557985, 4.959798 
8.4079164e+2, 2.2119324e+2, -763905.56, -899894.75, 38182.527, -0.015609506, -0.012320227, -753918.3, 18379.453, 0.0, 5.0533066, 4.959448 
8.4051746e+2, 2.2614299e+2, -722929.1, -856510.6, 36768.94, -0.01381372, -0.011488076, -713477.1, 10313.435, 0.0, 5.050821, 4.9586835 
8.4023964e+2, 2.3108958e+2, -688643.06, -829313.25, 33736.266, -0.012399686, -0.003921762, -680970.75, -5656.387, 0.0, 5.0483885, 4.9523473 
8.399598e+2, 2.3603246e+2, -647840.56, -784163.8, 33160.54, -0.010144274, -0.003973081, -640202.3, -13327.621, 0.0, 5.045447, 4.9523454 
8.3967996e+2, 2.4097522e+2, -607612.8, -740086.4, 32437.793, -0.008314993, -0.004113807, -600096.44, -21660.389, 0.0, 5.0424514, 4.9519796 
8.393993e+2, 2.459175e+2, -567415.4, -696121.0, 30463.008, -0.0069385655, -0.005566085, -560569.3, -30567.229, 0.0, 5.039432, 4.9515686 
8.391138e+2, 2.5085685e+2, -533434.4, -668188.94, 24771.96, -0.0056077545, -0.0032326924, -529024.8, -47427.9, 0.0, 5.0364523, 4.9456935 
8.3882403e+2, 2.5579298e+2, -494537.22, -623789.44, 23527.582, -0.005776126, -0.0060055004, -490387.75, -57164.516, 0.0, 5.032714, 4.945716 
8.385344e+2, 2.6072913e+2, -456066.9, -579880.7, 22360.172, -0.0063099074, -0.008775038, -452152.53, -67303.39, 0.0, 5.028885, 4.945577 
8.382441e+2, 2.6566538e+2, -416837.03, -533891.5, 20031.287, -0.00850619, -0.012336031, -413504.03, -77030.45, 0.0, 5.024942, 4.9462123 
8.3794904e+2, 2.7060035e+2, -384106.44, -504851.0, 13502.997, -0.010924246, -0.0048287017, -382614.8, -94504.71, 0.0, 5.0210347, 4.9410286 
8.37649e+2, 2.7553272e+2, -346590.44, -459307.94, 11391.6045, -0.01236256, -0.009499842, -345450.7, -105678.31, 0.0, 5.0163355, 4.941808 
8.373491e+2, 2.804653e+2, -310512.44, -416624.78, 10448.918, -0.013940391, -0.011352646, -309493.3, -118059.91, 0.0, 5.011609, 4.941532 
8.3704966e+2, 2.8539905e+2, -272979.25, -370035.88, 8522.831, -0.010994777, -0.0038760847, -272236.53, -129148.984, 0.0, 5.006755, 4.9426694 
8.367465e+2, 2.903318e+2, -240709.53, -336843.75, 2903.6257, -0.012760359, 0.006334165, -240621.9, -145870.08, 0.0, 5.0017962, 4.93927 
8.3643883e+2, 2.95265e+2, -204534.38, -289511.06, 525.62854, -0.013949038, 0.014634817, -204531.13, -158118.84, 0.0, 4.996091, 4.941026 
8.361315e+2, 3.0019796e+2, -171961.56, -249249.55, 101.41093, -0.015441323, 0.02343697, -171961.42, -171961.42, 0.0, 4.990238, 4.940256 
8.3582735e+2, 3.0512893e+2, -138835.4, -206682.81, 654.1637, -0.012081861, 0.012795897, -138829.1, -138829.1, 0.0, 4.984187, 4.9403405 
8.355259e+2, 3.100734e+2, -98452.69, -117365.32, -5407.0557, 0.006905612, 0.017070303, -97015.97, -97015.97, 0.0, 4.9783, 4.9663315 
8.3522296e+2, 3.1502855e+2, -113039.63, -118305.695, -8134.1343, 0.021133136, -0.03863443, -107122.984, -107122.984, 0.0, 4.9718204, 4.9688687 
8.349204e+2, 3.1998742e+2, -130565.49, -124871.875, -9271.251, 0.03166586, -0.055796586, -118020.21, -118020.21, 0.0, 4.965213, 4.969362 
8.3462226e+2, 3.2497945e+2, -87578.83, 8165.155, -9682.515, 0.056299012, 0.11126853, 9134.525, 9134.525, 0.0, 4.958346, 5.0208216 
8.509176e+2, 1.3217123e+2, -1474088.5, -1647622.1, 17674.154, 0.006159816, -0.002042157, -1472306.8, 172416.06, 0.0, 5.099471, 4.981458 
8.5061586e+2, 1.3714309e+2, -1436978.9, -1604771.5, 18631.871, 0.008807217, 0.0009935574, -1434934.9, 161064.19, 0.0, 5.0956364, 4.981474 
8.5031414e+2, 1.4211464e+2, -1399916.8, -1562342.5, 20096.688, 0.008817556, 0.002128718, -1397467.3, 149811.1, 0.0, 5.0918617, 4.981296 
8.500134e+2, 1.47086e+2, -1361618.3, -1517237.9, 25358.354, -0.009450311, 0.00092026254, -1357590.3, 140968.72, 0.0, 5.0882516, 4.9818287 
8.497247e+2, 1.5205753e+2, -1325975.8, -1476866.9, 34630.203, -0.0126359295, 0.005477158, -1318407.5, 131430.44, 0.0, 5.0849533, 4.980316 
8.494416e+2, 1.5702759e+2, -1284357.4, -1431637.1, 35491.926, -0.0066483277, 0.0016502218, -1276250.6, 124880.7, 0.0, 5.0826154, 4.9803424 
8.4915835e+2, 1.6199747e+2, -1243492.0, -1388038.0, 35885.1, -0.00015497518, -0.0016907296, -1235073.5, 117352.57, 0.0, 5.0802712, 4.9798045 
8.488745e+2, 1.6696681e+2, -1203127.5, -1344773.3, 37413.84, 0.0055892467, -0.0030723722, -1193852.4, 109873.1, 0.0, 5.077832, 4.9791574 
8.4859484e+2, 1.7193384e+2, -1168291.0, -1311081.5, 43769.895, 0.0034880755, -0.00030254596, -1155942.1, 99105.5, 0.0, 5.075311, 4.9750915 
8.483177e+2, 1.7689854e+2, -1125502.5, -1265169.3, 44535.434, -0.002566034, -0.0012604959, -1112510.1, 93882.32, 0.0, 5.0733128, 4.9751215 
8.480405e+2, 1.8186301e+2, -1083365.6, -1220708.4, 45027.83, -0.00855824, -0.0024529651, -1069919.6, 87820.28, 0.0, 5.071317, 4.974641 
8.4776324e+2, 1.8682693e+2, -1041306.9, -1176633.3, 45729.168, -0.012989653, -0.003462217, -1027303.3, 81789.68, 0.0, 5.0693526, 4.9740095 
8.4748805e+2, 1.9178788e+2, -1006045.5, -1145783.4, 49635.496, -0.012621408, -0.0006264092, -990209.44, 70265.766, 0.0, 5.067306, 4.968745 
8.4721464e+2, 1.9674577e+2, -962520.2, -1099427.9, 50313.207, -0.0113048265, -0.004290014, -946019.06, 65868.41, 0.0, 5.0655026, 4.968772 
8.4694135e+2, 2.0170349e+2, -919578.0, -1054200.9, 50740.242, -0.009328219, -0.008059324, -902595.94, 60705.305, 0.0, 5.063662, 4.968415 
8.4666723e+2, 2.0666076e+2, -877212.75, -1010369.75, 50275.945, -0.008376849, -0.010323047, -860362.44, 54356.344, 0.0, 5.0617995, 4.9675922 
8.463913e+2, 2.1161473e+2, -842106.2, -982250.9, 51337.266, -0.009699959, -0.0066740764, -825312.9, 40856.047, 0.0, 5.0599155, 4.961308 
8.4611535e+2, 2.1656509e+2, -798872.8, -935929.2, 51820.258, -0.010755346, -0.009468825, -781485.6, 36168.637, 0.0, 5.0579414, 4.961338 
8.458395e+2, 2.2151539e+2, -756303.56, -891044.0, 52011.836, -0.011091542, -0.011027009, -738562.25, 30578.512, 0.0, 5.0559497, 4.9608655 
8.4556293e+2, 2.2646528e+2, -713933.75, -846659.25, 51333.875, -0.00991695, -0.010766251, -696396.6, 24235.516, 0.0, 5.053932, 4.960227 
8.4528255e+2, 2.3141176e+2, -678771.25, -819763.25, 48875.62, -0.009055853, -0.0043853414, -663485.44, 8671.712, 0.0, 5.0519814, 4.953558 
8.449999e+2, 2.3635435e+2, -636513.44, -773813.06, 49021.082, -0.00741347, -0.005189098, -620807.7, 2912.3804, 0.0, 5.049583, 4.953585 
8.447173e+2, 2.4129683e+2, -594721.75, -729093.1, 48878.016, -0.005911195, -0.0058811074, -578823.25, -3538.9888, 0.0, 5.047208, 4.9531584 
8.444338e+2, 2.462388e+2, -552690.25, -683940.75, 47906.152, -0.0056429873, -0.007762383, -537064.8, -10211.326, 0.0, 5.044839, 4.9528594 
8.44145e+2, 2.5117764e+2, -517311.2, -656299.56, 42408.2, -0.0054438086, -0.0052499594, -505393.47, -26940.059, 0.0, 5.042541, 4.9465747 
8.4385175e+2, 2.5611308e+2, -476790.03, -611120.1, 41782.184, -0.0059544854, -0.0074211834, -464854.56, -34767.867, 0.0, 5.039411, 4.9466014 
8.4355867e+2, 2.6104844e+2, -436627.22, -566585.75, 41192.086, -0.006217586, -0.009839204, -424670.84, -42950.527, 0.0, 5.036254, 4.946388 
8.432646e+2, 2.6598385e+2, -395811.97, -519628.03, 39219.71, -0.0071951523, -0.012267981, -384434.34, -51081.47, 0.0, 5.0328746, 4.947108 
8.429651e+2, 2.709177e+2, -363197.44, -492037.34, 32325.455, -0.008960522, -0.0038293435, -355541.97, -70541.4, 0.0, 5.029167, 4.9413295 
8.426603e+2, 2.758488e+2, -325904.28, -446335.94, 30068.748, -0.009465027, -0.0076144985, -318814.25, -82138.85, 0.0, 5.0243416, 4.9422345 
8.4235555e+2, 2.807802e+2, -290576.9, -404011.38, 28777.664, -0.009930608, -0.008057156, -283693.84, -95345.17, 0.0, 5.0193496, 4.9419613 
8.420509e+2, 2.8571272e+2, -253562.28, -357298.28, 26399.979, -0.0074930186, -0.00023907048, -247230.22, -107215.29, 0.0, 5.014249, 4.9432554 
8.41742e+2, 2.90644e+2, -222618.9, -325955.5, 20050.873, -0.010994187, 0.0077309706, -218864.73, -127170.72, 0.0, 5.008981, 4.9393673 
8.4142816e+2, 2.9557547e+2, -188117.67, -279459.97, 16856.197, -0.012505436, 0.01432804, -185106.31, -141735.55, 0.0, 5.00264, 4.9411416 
8.411148e+2, 3.0050686e+2, -158246.61, -242300.63, 15685.197, -0.013281907, 0.023681803, -155415.0, -155415.0, 0.0, 4.996139, 4.9395847 
8.408046e+2, 3.054359e+2, -125102.586, -198081.02, 16542.197, -0.009725184, 0.011238371, -121528.016, -121528.016, 0.0, 4.989753, 4.940416 
8.404967e+2, 3.1037894e+2, -87004.9, -110797.336, 8221.394, 0.008716999, 0.017063046, -84440.44, -84440.44, 0.0, 4.983132, 4.966085 
8.4018666e+2, 3.1533283e+2, -105181.79, -113396.53, 4870.5903, 0.023750972, -0.036083452, -102917.88, -102917.88, 0.0, 4.9753375, 4.968594 
8.398768e+2, 3.202912e+2, -127390.17, -123767.57, 4597.9644, 0.031314347, -0.03425359, -120637.0, -120637.0, 0.0, 4.967329, 4.968327 
8.395719e+2, 3.2527766e+2, -81193.695, 20320.879, 1155.5813, 0.058443293, 0.007566412, 20334.033, 20334.033, 0.0, 4.95975, 5.024009 
8.560078e+2, 1.324807e+2, -1471380.8, -1642955.8, 14738.973, 0.0043732533, -0.006638046, -1470123.8, 171563.8, 0.0, 5.099537, 4.9830594 
8.557024e+2, 1.3745432e+2, -1434283.8, -1600115.9, 15721.696, 0.009355505, -0.0020157946, -1432806.4, 160140.86, 0.0, 5.095701, 4.983075 
8.5539705e+2, 1.4242758e+2, -1397200.4, -1557687.1, 17512.094, 0.009543714, 0.00051211513, -1395311.8, 148898.33, 0.0, 5.091937, 4.9828954 
8.5509294e+2, 1.474006e+2, -1358986.5, -1512714.0, 22963.064, -0.009684185, 0.0004286659, -1355629.8, 139845.06, 0.0, 5.0883307, 4.9833794 
8.5480165e+2, 1.5237366e+2, -1323843.5, -1472918.6, 32809.918, -0.012741803, 0.00563567, -1316941.9, 129797.336, 0.0, 5.08498, 4.981677 
8.5451615e+2, 1.5734519e+2, -1282239.3, -1427699.5, 33675.33, -0.0067887497, 0.002960962, -1274821.4, 123197.3, 0.0, 5.0826406, 4.9817038 
8.542305e+2, 1.623164e+2, -1241543.6, -1384455.6, 33911.563, -0.000078677214, -0.00024354666, -1233905.0, 115395.41, 0.0, 5.080296, 4.9810486 
8.5394436e+2, 1.6728689e+2, -1201157.1, -1341031.0, 35681.094, 0.005607387, -0.0025106512, -1192580.9, 108007.45, 0.0, 5.0778437, 4.980462 
8.536625e+2, 1.7225501e+2, -1166616.9, -1307773.9, 42192.574, 0.0031262604, -0.0008119134, -1154966.8, 96932.72, 0.0, 5.0753016, 4.9762473 
8.533833e+2, 1.7722076e+2, -1123837.3, -1261873.4, 42962.25, -0.003422095, -0.0026371072, -1111558.0, 91675.766, 0.0, 5.0733037, 4.9762764 
8.531041e+2, 1.8218629e+2, -1081850.4, -1217739.3, 43446.773, -0.009826691, -0.004078614, -1069147.0, 85423.766, 0.0, 5.071311, 4.975686 
8.528248e+2, 1.8715133e+2, -1039698.94, -1173421.0, 44181.434, -0.013790449, -0.0048111463, -1026420.1, 79493.086, 0.0, 5.0693426, 4.9751406 
8.525479e+2, 1.9211335e+2, -1004653.2, -1142928.1, 48194.867, -0.012735973, -0.0017274927, -989512.94, 67772.12, 0.0, 5.0672846, 4.9697533 
8.5227275e+2, 1.9707228e+2, -961138.3, -1096581.5, 48878.527, -0.010906988, -0.0049916366, -945341.5, 63345.77, 0.0, 5.0654807, 4.96978 
8.519977e+2, 2.0203099e+2, -918469.2, -1051904.0, 49256.33, -0.00827042, -0.008264062, -902256.5, 57834.91, 0.0, 5.0636334, 4.9692388 
8.517217e+2, 2.069892e+2, -875906.5, -1007646.4, 48679.598, -0.006542813, -0.009985342, -859870.7, 51629.402, 0.0, 5.06177, 4.968566 
8.514438e+2, 2.11944e+2, -841058.1, -980117.75, 49776.863, -0.0071860775, -0.006136326, -825076.94, 37865.063, 0.0, 5.059891, 4.9620786 
8.5116607e+2, 2.168952e+2, -797828.8, -933800.0, 50269.164, -0.0075236256, -0.008103956, -781262.5, 33156.93, 0.0, 5.057918, 4.962109 
8.508882e+2, 2.2184621e+2, -755406.44, -889224.5, 50345.58, -0.007886114, -0.009298709, -738580.8, 27318.117, 0.0, 5.0559244, 4.9615316 
8.506094e+2, 2.2679666e+2, -713078.3, -844896.5, 49682.813, -0.0076826303, -0.0097191185, -696450.2, 20934.58, 0.0, 5.0538993, 4.9608808 
8.503267e+2, 2.3174351e+2, -678188.8, -818796.1, 47004.96, -0.0071685384, -0.004427161, -663922.56, 4983.45, 0.0, 5.0519705, 4.9539313 
8.500417e+2, 2.3668644e+2, -635924.0, -772831.75, 47161.527, -0.006130829, -0.0057440824, -621250.56, -784.7182, 0.0, 5.0495734, 4.953963 
8.497566e+2, 2.416292e+2, -594147.0, -728151.75, 47080.863, -0.005528252, -0.006878413, -579259.7, -7232.462, 0.0, 5.047202, 4.9535203 
8.494705e+2, 2.4657147e+2, -552383.44, -683582.0, 45902.15, -0.005843023, -0.008085935, -537918.5, -14325.145, 0.0, 5.044827, 4.953022 
8.491788e+2, 2.5151032e+2, -517292.63, -657015.25, 40014.367, -0.0068053314, -0.005202577, -506644.6, -31451.477, 0.0, 5.0425744, 4.9463634 
8.488824e+2, 2.5644562e+2, -476783.8, -611839.44, 39417.89, -0.007604676, -0.006572582, -466121.0, -39293.082, 0.0, 5.0394416, 4.946388 
8.485861e+2, 2.613808e+2, -436604.47, -567258.25, 38805.28, -0.007862833, -0.00836126, -425948.13, -47484.754, 0.0, 5.036281, 4.9461923 
8.482887e+2, 2.6631585e+2, -396184.0, -521231.66, 36324.875, -0.007140356, -0.01030129, -386397.9, -56298.113, 0.0, 5.0328965, 4.9465938 
8.4798527e+2, 2.71249e+2, -363636.28, -494884.06, 28971.05, -0.0068808454, -0.0012734599, -357525.8, -75770.836, 0.0, 5.029348, 4.940337 
8.476758e+2, 2.7617922e+2, -325532.88, -448468.5, 26966.27, -0.0062089837, -0.004728158, -319877.88, -86439.23, 0.0, 5.024752, 4.941389 
8.4736645e+2, 2.8110975e+2, -289499.1, -405888.1, 25797.195, -0.00583343, -0.0047315564, -284037.53, -98916.81, 0.0, 5.020041, 4.9410744 
8.4705657e+2, 2.8604126e+2, -251726.36, -358289.9, 23657.088, -0.005635223, 0.0018737214, -246710.58, -109913.5, 0.0, 5.0151105, 4.94261 
8.4674203e+2, 2.9097137e+2, -220770.16, -328342.3, 16925.56, -0.009446574, 0.009105703, -218169.92, -129682.69, 0.0, 5.0100765, 4.938151 
8.464221e+2, 2.959014e+2, -185525.11, -281662.5, 13978.307, -0.0100312745, 0.015632475, -183533.92, -143355.86, 0.0, 5.0040307, 4.9398613 
8.4610265e+2, 3.0083114e+2, -154202.39, -242567.81, 13332.702, -0.009672269, 0.02152578, -152234.55, -152234.55, 0.0, 4.9978166, 4.93886 
8.457865e+2, 3.0575868e+2, -122225.734, -200721.97, 14274.17, -0.0039768424, 0.007772458, -119710.625, -119710.625, 0.0, 4.9913735, 4.9388814 
8.454712e+2, 3.107004e+2, -84137.734, -113959.46, 5028.3022, 0.01050864, 0.023625022, -83312.73, -83312.73, 0.0, 4.984778, 4.9643917 
8.4515274e+2, 3.1565312e+2, -101371.695, -115677.125, 1460.9423, 0.020284621, -0.02001406, -101224.02, -101224.02, 0.0, 4.9772096, 4.9671364 
8.4483504e+2, 3.2061008e+2, -117606.695, -113884.336, 1801.0807, 0.026819794, -0.022408629, -113155.56, -113155.56, 0.0, 4.969479, 4.971155 
8.445214e+2, 3.255993e+2, -76998.0, 15085.468, -6053.686, 0.039407663, 0.08072309, 15481.739, 15481.739, 0.0, 4.962347, 5.021308 
8.610977e+2, 1.3279046e+2, -1470602.0, -1639161.4, 12256.658, 0.003960085, -0.010026357, -1469715.5, 168934.72, 0.0, 5.098922, 4.9846954 
8.607887e+2, 1.377658e+2, -1432819.0, -1595976.6, 13192.647, 0.009987064, -0.004290131, -1431759.1, 158134.11, 0.0, 5.095322, 4.984717 
8.6047965e+2, 1.4274073e+2, -1395423.9, -1553516.9, 15303.193, 0.010164462, -0.0007835152, -1393956.1, 147183.78, 0.0, 5.091694, 4.9844875 
8.6017233e+2, 1.4771537e+2, -1356880.3, -1508510.3, 20914.252, -0.009959443, 0.00011585623, -1354048.4, 138340.75, 0.0, 5.088246, 4.984901 
8.598784e+2, 1.526899e+2, -1321974.9, -1469086.1, 31257.418, -0.012892996, 0.0058135744, -1315608.9, 128030.56, 0.0, 5.084916, 4.9830422 
8.595906e+2, 1.5766285e+2, -1280066.0, -1423688.5, 32043.03, -0.0068493304, 0.0041025653, -1273241.3, 121663.86, 0.0, 5.082678, 4.983084 
8.5930264e+2, 1.6263534e+2, -1239694.6, -1380975.6, 32042.674, 0.00018660833, 0.0008543918, -1232767.0, 113407.32, 0.0, 5.0802994, 4.9822693 
8.59014e+2, 1.6760701e+2, -1199241.1, -1337371.1, 34011.492, 0.0057259374, -0.0021221489, -1191320.8, 106129.96, 0.0, 5.0778494, 4.981742 
8.5872996e+2, 1.7257622e+2, -1165015.4, -1304504.3, 40629.375, 0.0028634807, -0.0014076739, -1154044.1, 94706.836, 0.0, 5.0752687, 4.9774017 
8.584488e+2, 1.7754303e+2, -1122313.6, -1258665.1, 41412.344, -0.0042055473, -0.004091429, -1110721.5, 89353.13, 0.0, 5.073251, 4.977422 
8.581675e+2, 1.8250965e+2, -1080452.4, -1214786.0, 41971.598, -0.010960796, -0.0055521396, -1068416.9, 82984.195, 0.0, 5.0712576, 4.976747 
8.578864e+2, 1.8747577e+2, -1038249.8, -1170350.8, 42541.645, -0.014380822, -0.00603295, -1025735.3, 76997.64, 0.0, 5.0692897, 4.976243 
8.576076e+2, 1.9243887e+2, -1003372.94, -1140126.1, 46753.1, -0.012754025, -0.0027417098, -988917.1, 65177.32, 0.0, 5.067225, 4.9707603 
8.573308e+2, 1.9739881e+2, -959758.0, -1093735.5, 47444.156, -0.010443562, -0.0056667747, -944658.75, 60827.94, 0.0, 5.0654593, 4.9707875 
8.570539e+2, 2.023585e+2, -917233.8, -1049351.0, 47599.69, -0.0068589044, -0.008372804, -901870.9, 55010.46, 0.0, 5.0636063, 4.970151 
8.56776e+2, 2.0731764e+2, -874774.7, -1005278.3, 47247.7, -0.0046280166, -0.009474688, -859465.06, 48815.938, 0.0, 5.0617404, 4.9694166 
8.5649633e+2, 2.1227328e+2, -840011.56, -977983.6, 48217.406, -0.0045584696, -0.005470729, -824831.1, 34883.723, 0.0, 5.0598683, 4.9628477 
8.562166e+2, 2.1722531e+2, -796786.25, -931669.9, 48719.016, -0.0042251702, -0.0067058364, -781029.9, 30154.408, 0.0, 5.057895, 4.9628787 
8.559367e+2, 2.2217703e+2, -754540.94, -887446.5, 48766.88, -0.0046498524, -0.0075743934, -738566.94, 24090.094, 0.0, 5.055896, 4.9621844 
8.556558e+2, 2.2712806e+2, -712275.7, -843271.8, 47923.14, -0.0053438414, -0.008561306, -696615.75, 17521.666, 0.0, 5.0538697, 4.9614835 
8.553707e+2, 2.3207527e+2, -677606.4, -817826.7, 45132.254, -0.005346715, -0.0043842, -664335.75, 1319.1508, 0.0, 5.051961, 4.9543037 
8.550832e+2, 2.370185e+2, -635334.5, -771848.06, 45299.934, -0.0050485637, -0.006365395, -621670.1, -4458.3647, 0.0, 5.0495653, 4.9543395 
8.547957e+2, 2.4196157e+2, -593715.1, -727502.0, 45307.95, -0.00522554, -0.0077400934, -579815.4, -11045.242, 0.0, 5.0471926, 4.953781 
8.54507e+2, 2.4690415e+2, -551990.3, -683058.06, 43845.66, -0.0061182324, -0.0081699155, -538675.44, -18342.072, 0.0, 5.0448203, 4.953239 
8.542124e+2, 2.51843e+2, -517287.7, -657766.25, 37616.293, -0.0082190335, -0.004906023, -507849.22, -35916.297, 0.0, 5.042609, 4.946138 
8.539128e+2, 2.5677815e+2, -476775.84, -612558.25, 37049.426, -0.00948557, -0.0056747925, -467324.47, -43755.17, 0.0, 5.0394745, 4.9461727 
8.536134e+2, 2.6171318e+2, -436835.78, -568520.7, 36242.633, -0.009365085, -0.0066932887, -427520.03, -52313.418, 0.0, 5.0363097, 4.9457893 
8.533127e+2, 2.6664782e+2, -396461.0, -522626.53, 33558.137, -0.0066868584, -0.008058564, -388090.4, -61243.145, 0.0, 5.0329223, 4.946151 
8.5300523e+2, 2.7158022e+2, -364296.6, -497763.34, 25486.277, -0.0045216777, 0.0014257317, -359595.4, -81085.4, 0.0, 5.029434, 4.939376 
8.526912e+2, 2.7650958e+2, -326050.75, -451044.28, 23479.97, -0.0029701863, -0.0020303095, -321785.6, -91583.13, 0.0, 5.024841, 4.9405317 
8.523771e+2, 2.8143924e+2, -290180.5, -408753.78, 22255.275, -0.0023665712, -0.0019178917, -286140.97, -104247.44, 0.0, 5.0201163, 4.9401183 
8.5206205e+2, 2.8636986e+2, -252243.88, -360814.47, 19572.85, -0.0038850256, 0.0048224297, -248823.11, -115244.62, 0.0, 5.0151753, 4.9417863 
8.5174185e+2, 2.9129887e+2, -221515.13, -331989.97, 12444.083, -0.008211882, 0.010739781, -220130.75, -134851.23, 0.0, 5.010208, 4.936931 
8.5141575e+2, 2.962275e+2, -186336.0, -285623.44, 9433.342, -0.008572892, 0.016607346, -185447.69, -148463.97, 0.0, 5.0041823, 4.938524 
8.5109025e+2, 3.0115575e+2, -154586.52, -245473.89, 9179.351, -0.0087384535, 0.01939659, -153668.7, -153668.7, 0.0, 4.9979587, 4.937896 
8.507684e+2, 3.0608186e+2, -123580.37, -205936.58, 8891.212, 0.0015131388, 0.005560752, -122631.4, -122631.4, 0.0, 4.9915, 4.937122 
8.504457e+2, 3.1102213e+2, -85401.29, -119739.25, -511.34863, 0.012009021, 0.027861511, -85393.68, -85393.68, 0.0, 4.9849935, 4.9624066 
8.5011876e+2, 3.159734e+2, -102036.05, -120448.99, -4177.152, 0.015025921, -0.011654744, -101132.74, -101132.74, 0.0, 4.977472, 4.9655156 
8.49793e+2, 3.2092935e+2, -117675.59, -116756.625, -5127.526, 0.01743745, -0.013844748, -112068.04, -112068.04, 0.0, 4.9696703, 4.9702334 
8.494714e+2, 3.2591662e+2, -77495.76, 11137.389, -7527.471, 0.016365346, 0.1234892, 11772.139, 11772.139, 0.0, 4.962594, 5.0200615 
8.6618584e+2, 1.3310316e+2, -1475323.6, -1636997.6, 13210.702, 0.0020836776, -0.010115644, -1474251.3, 161334.69, 0.0, 5.096323, 4.9866614 
8.658732e+2, 1.3808013e+2, -1437046.6, -1593579.0, 14283.534, 0.008698878, -0.004092718, -1435753.9, 151058.52, 0.0, 5.092899, 4.9866776 
8.655609e+2, 1.4305653e+2, -1398873.6, -1550997.8, 16800.12, 0.009061371, -0.0013690753, -1397040.4, 141004.25, 0.0, 5.089607, 4.986327 
8.6525065e+2, 1.4803256e+2, -1359608.8, -1505875.8, 22821.51, -0.0111762965, -0.0007260653, -1356130.8, 133149.27, 0.0, 5.0864863, 4.986615 
8.6495453e+2, 1.5300837e+2, -1323767.4, -1466207.0, 33591.152, -0.013062263, 0.004618787, -1316243.1, 124274.484, 0.0, 5.0835776, 4.984622 
8.6466473e+2, 1.5798256e+2, -1281004.0, -1420427.8, 34422.438, -0.0058132415, 0.002875467, -1272968.6, 118802.66, 0.0, 5.081644, 4.984651 
8.643745e+2, 1.6295618e+2, -1239647.3, -1377400.9, 34366.418, 0.0017647812, -0.00027899392, -1231549.6, 111479.734, 0.0, 5.079653, 4.9837575 
8.6408365e+2, 1.6792895e+2, -1198845.9, -1333927.9, 36210.453, 0.007049581, -0.002657431, -1189751.4, 104543.59, 0.0, 5.0773883, 4.983097 
8.637974e+2, 1.7289922e+2, -1164165.5, -1300814.4, 43143.96, 0.0037268398, -0.0018657652, -1151683.9, 93901.43, 0.0, 5.0749946, 4.97874 
8.6351424e+2, 1.7786705e+2, -1120991.9, -1254767.8, 43797.613, -0.0036411043, -0.0044470183, -1107928.4, 88970.93, 0.0, 5.073147, 4.978756 
8.63231e+2, 1.8283463e+2, -1078881.3, -1210718.0, 44192.906, -0.010289983, -0.0059234193, -1065438.1, 82778.086, 0.0, 5.0712366, 4.978102 
8.629479e+2, 1.8780173e+2, -1036587.25, -1166535.8, 44961.563, -0.013469051, -0.0061913766, -1022547.56, 76990.85, 0.0, 5.06937, 4.977467 
8.626674e+2, 1.9276574e+2, -1001465.56, -1136212.0, 49135.613, -0.011076973, -0.0030498537, -985451.4, 65439.38, 0.0, 5.0674024, 4.971971 
8.6238885e+2, 1.9772658e+2, -957941.6, -1089930.3, 49721.965, -0.007802035, -0.006087497, -941307.1, 60967.207, 0.0, 5.0656166, 4.971976 
8.621102e+2, 2.0268711e+2, -915326.7, -1045766.7, 49717.78, -0.003439791, -0.008457223, -898537.5, 55123.195, 0.0, 5.0638556, 4.971224 
8.618303e+2, 2.0764706e+2, -872470.3, -1001675.2, 49232.715, -0.001808144, -0.00888016, -855848.8, 49203.918, 0.0, 5.0621567, 4.9704285 
8.615488e+2, 2.1260339e+2, -837394.6, -974487.9, 49977.355, -0.001990564, -0.004796106, -821109.8, 35370.133, 0.0, 5.060436, 4.96376 
8.612671e+2, 2.1755607e+2, -793984.8, -928189.6, 50242.965, -0.0014818776, -0.005578257, -777259.5, 30683.424, 0.0, 5.0585423, 4.9637566 
8.6098516e+2, 2.2250837e+2, -751687.7, -884156.5, 50179.11, -0.0018988074, -0.006332792, -734826.1, 24584.12, 0.0, 5.0566072, 4.9629707 
8.6070204e+2, 2.2745986e+2, -709083.1, -839937.06, 48863.805, -0.003322196, -0.007857959, -692850.06, 18035.727, 0.0, 5.054712, 4.9622345 
8.6041474e+2, 2.324074e+2, -674320.06, -815049.25, 45839.42, -0.0038507374, -0.0046215304, -660705.94, 1694.2024, 0.0, 5.052934, 4.9548106 
8.6012477e+2, 2.3735087e+2, -631944.94, -769082.06, 45782.383, -0.004112404, -0.007220831, -618065.5, -4110.876, 0.0, 5.050579, 4.954832 
8.598348e+2, 2.4229418e+2, -590589.2, -725123.44, 45524.758, -0.004595486, -0.008448457, -576632.1, -11121.5625, 0.0, 5.0481577, 4.9541664 
8.5954356e+2, 2.4723701e+2, -549254.56, -681265.75, 43710.684, -0.005946883, -0.0077598435, -536093.5, -19022.186, 0.0, 5.0457115, 4.9534607 
8.5924596e+2, 2.5217584e+2, -515255.25, -657318.25, 36728.4, -0.009078123, -0.004220287, -506321.47, -37649.906, 0.0, 5.0433955, 4.9459634 
8.5894316e+2, 2.5711074e+2, -475417.9, -612430.5, 35822.043, -0.010863412, -0.004648814, -466617.44, -46307.266, 0.0, 5.0400095, 4.946003 
8.5864055e+2, 2.620455e+2, -436349.28, -568925.3, 34582.715, -0.010271408, -0.00505724, -427870.56, -55920.418, 0.0, 5.036542, 4.9455748 
8.583365e+2, 2.6697975e+2, -397051.2, -524752.8, 31054.713, -0.005199655, -0.00524689, -389899.75, -66304.71, 0.0, 5.032984, 4.945418 
8.58025e+2, 2.7191138e+2, -365071.1, -500457.8, 22206.984, -0.0017284874, 0.004182409, -361521.63, -86255.83, 0.0, 5.0294557, 4.938497 
8.5770637e+2, 2.768399e+2, -326877.03, -453691.66, 20092.416, 0.00034258797, 0.00041107397, -323769.75, -96802.74, 0.0, 5.024822, 4.9396877 
8.573876e+2, 2.8176868e+2, -290761.78, -411197.4, 18742.371, 0.00088349165, 0.000886592, -287912.5, -109245.46, 0.0, 5.020167, 4.9393163 
8.570673e+2, 2.8669843e+2, -253492.98, -364348.03, 15708.566, -0.0019591271, 0.008428768, -251310.02, -120949.73, 0.0, 5.0151324, 4.94064 
8.5674137e+2, 2.916263e+2, -222433.42, -335546.5, 8249.875, -0.006994731, 0.012453499, -221834.89, -139762.69, 0.0, 5.0102725, 4.935757 
8.5640925e+2, 2.9655355e+2, -187292.9, -289536.4, 5183.834, -0.007469263, 0.016797783, -187030.75, -153240.73, 0.0, 5.004288, 4.9372077 
8.560776e+2, 3.014804e+2, -156322.45, -251043.38, 4660.6904, -0.008194052, 0.01900418, -156093.67, -156093.67, 0.0, 4.998031, 4.936004 
8.5574996e+2, 3.0640483e+2, -124557.37, -209609.16, 4522.844, 0.0074795713, 0.003151036, -124317.53, -124317.53, 0.0, 4.9915414, 4.93592 
8.5541993e+2, 3.1134367e+2, -87058.54, -125677.98, -5666.277, 0.013975573, 0.028765408, -86244.34, -86244.34, 0.0, 4.9850965, 4.9603887 
8.550846e+2, 3.1629333e+2, -103066.31, -125311.76, -9566.444, 0.010202002, -0.011414345, -99518.25, -99518.25, 0.0, 4.9776106, 4.963896 
8.547502e+2, 3.2124823e+2, -118674.86, -120891.195, -11188.749, 0.0031318527, -0.004148294, -108539.53, -108539.53, 0.0, 4.969731, 4.9688687 
8.544224e+2, 3.262298e+2, -79046.94, 5311.608, -8172.776, 0.0015360982, 0.082086876, 6096.1025, 6096.1025, 0.0, 4.962766, 5.017892 
8.7126917e+2, 1.3342372e+2, -1487448.0, -1636640.4, 16279.883, 0.000020716836, -0.010481784, -1485692.1, 146752.55, 0.0, 5.091078, 4.989147 
8.709535e+2, 1.3840267e+2, -1448099.8, -1592581.6, 17785.957, 0.0075390283, -0.0041107954, -1445942.5, 137709.13, 0.0, 5.0880284, 4.989181 
8.706382e+2, 1.4338082e+2, -1408893.3, -1549762.6, 20847.496, 0.0077120666, -0.001950602, -1405872.8, 128993.35, 0.0, 5.085179, 4.9886847 
8.7032557e+2, 1.4835851e+2, -1368471.4, -1504069.3, 27766.645, -0.012541523, -0.0018958857, -1363005.8, 123079.336, 0.0, 5.0825095, 4.9889293 
8.7002766e+2, 1.5333585e+2, -1332057.9, -1464314.6, 39222.32, -0.012958096, 0.002714894, -1321301.0, 116006.49, 0.0, 5.0799236, 4.986782 
8.6973625e+2, 1.5831152e+2, -1288152.1, -1417936.0, 40302.11, -0.004415007, 0.0007384898, -1276655.4, 111890.96, 0.0, 5.078398, 4.9868083 
8.6944425e+2, 1.6328658e+2, -1245961.3, -1374550.3, 40471.617, 0.0035452961, -0.0020969736, -1234283.8, 105506.79, 0.0, 5.0767345, 4.9858665 
8.6915135e+2, 1.6826077e+2, -1204188.6, -1330767.3, 42414.703, 0.008739262, -0.0036902362, -1191290.4, 99752.32, 0.0, 5.0748653, 4.985112 
8.688634e+2, 1.7323247e+2, -1168749.1, -1297013.0, 50078.293, 0.004916648, -0.0024454184, -1151513.1, 90806.2, 0.0, 5.0727415, 4.9808226 
8.685785e+2, 1.7820169e+2, -1124759.9, -1250474.4, 51150.49, -0.0029576528, -0.004363468, -1106577.6, 87042.516, 0.0, 5.0711865, 4.980858 
8.682936e+2, 1.831706e+2, -1081720.6, -1205933.4, 51858.605, -0.009429227, -0.0057963664, -1062916.5, 82007.72, 0.0, 5.06962, 4.9802012 
8.6800885e+2, 1.8813898e+2, -1038515.25, -1161118.8, 53288.3, -0.011742708, -0.0062194285, -1018591.7, 77641.89, 0.0, 5.0680637, 4.9796295 
8.677269e+2, 1.9310428e+2, -1002636.44, -1130359.9, 58028.523, -0.00838577, -0.0034789531, -980210.1, 67362.984, 0.0, 5.066392, 4.974133 
8.6744696e+2, 1.9806641e+2, -958208.7, -1083557.8, 59176.332, -0.0038858487, -0.0063768094, -934686.1, 64257.633, 0.0, 5.0649476, 4.9741488 
8.671667e+2, 2.0302813e+2, -914971.25, -1039398.94, 59838.164, 0.0004421117, -0.0083853435, -890864.94, 59453.68, 0.0, 5.0635157, 4.9732304 
8.668852e+2, 2.0798914e+2, -871042.8, -994386.6, 59779.082, 0.0015460432, -0.008581225, -846825.5, 54874.797, 0.0, 5.0621457, 4.972597 
8.6660194e+2, 2.129465e+2, -835093.8, -966823.3, 61435.563, -0.00006364973, -0.0047720163, -810889.2, 42228.723, 0.0, 5.060802, 4.965866 
8.6631846e+2, 2.1790016e+2, -790533.2, -919835.6, 62522.617, -0.00091560883, -0.005450893, -765246.4, 39325.254, 0.0, 5.0593476, 4.9658866 
8.6603487e+2, 2.2285329e+2, -747020.0, -875099.5, 63135.47, -0.0018388266, -0.00689311, -721131.0, 34899.824, 0.0, 5.0578814, 4.9651136 
8.6575e+2, 2.2780558e+2, -703228.56, -830077.06, 62796.98, -0.0027622709, -0.00907829, -677399.9, 30098.43, 0.0, 5.0564313, 4.9644365 
8.6546093e+2, 2.3275386e+2, -667071.6, -804599.6, 60577.03, -0.0027838417, -0.0063761887, -644194.6, 14810.532, 0.0, 5.0552316, 4.956922 
8.65169e+2, 2.37698e+2, -622974.75, -757555.25, 61556.88, -0.002267887, -0.00887031, -599066.2, 11486.567, 0.0, 5.053518, 4.957014 
8.648771e+2, 2.42642e+2, -580078.3, -712870.4, 62190.574, -0.0017460764, -0.009249769, -555501.3, 6600.668, 0.0, 5.051731, 4.9562955 
8.645836e+2, 2.4758549e+2, -537268.7, -668254.8, 61571.313, -0.002057377, -0.0070988582, -512870.9, 785.56726, 0.0, 5.049881, 4.9555683 
8.6428344e+2, 2.525245e+2, -501471.13, -644064.44, 55350.17, -0.004347483, -0.0031706681, -482507.84, -17252.85, 0.0, 5.048384, 4.947749 
8.6397773e+2, 2.574593e+2, -459089.0, -597688.75, 55715.035, -0.0052737794, -0.003721449, -439469.6, -22575.174, 0.0, 5.045947, 4.9478683 
8.6367214e+2, 2.6239386e+2, -417709.88, -553309.1, 55749.105, -0.003829879, -0.0044890805, -397732.78, -29196.06, 0.0, 5.0434585, 4.9472814 
8.633646e+2, 2.6732776e+2, -375620.06, -507601.25, 53130.707, 0.00012492883, -0.005101254, -356889.75, -36704.207, 0.0, 5.0409613, 4.947168 
8.630489e+2, 2.722586e+2, -342401.2, -483871.5, 44549.395, 0.002504912, 0.0040350244, -329541.4, -57677.22, 0.0, 5.0380936, 4.939737 
8.627256e+2, 2.771861e+2, -303789.6, -437180.53, 42539.18, 0.0054149306, 0.0009930045, -291378.38, -67802.61, 0.0, 5.0336657, 4.9408317 
8.62402e+2, 2.8211376e+2, -268189.38, -395891.4, 40889.918, 0.006766596, 0.0019179842, -256218.64, -80931.875, 0.0, 5.028998, 4.940058 
8.620762e+2, 2.870422e+2, -230055.78, -346949.1, 37551.316, 0.0020034232, 0.0070853885, -219032.2, -92039.84, 0.0, 5.023932, 4.9421573 
8.617443e+2, 2.9196897e+2, -202160.45, -321106.84, 28974.3, -0.0035590562, 0.011704707, -195477.98, -116763.234, 0.0, 5.018153, 4.936637 
8.614053e+2, 2.96895e+2, -169810.97, -276198.34, 25989.762, -0.0056483243, 0.01693642, -163801.31, -133357.17, 0.0, 5.011162, 4.9381304 
8.6106694e+2, 3.0182067e+2, -142175.83, -240237.84, 25356.285, -0.007516448, 0.022224609, -136007.38, -136007.38, 0.0, 5.003911, 4.936463 
8.6073273e+2, 3.0674407e+2, -110957.6, -197796.97, 26170.25, 0.008000305, 0.010289335, -103680.63, -103680.63, 0.0, 4.997049, 4.9368644 
8.603958e+2, 3.1168044e+2, -72714.34, -116042.76, 15351.527, 0.0129093, 0.026738198, -67826.58, -67826.58, 0.0, 4.991295, 4.960323 
8.600535e+2, 3.1662664e+2, -87435.41, -115905.86, 10205.353, 0.013469412, -0.027367206, -84155.18, -84155.18, 0.0, 4.984299, 4.963574 
8.59711e+2, 3.2157886e+2, -103915.55, -115240.32, 9368.022, 0.0025276921, -0.009727302, -98631.59, -98631.59, 0.0, 4.976633, 4.9670954 
8.5937685e+2, 3.2655472e+2, -73162.125, 5137.679, 9765.78, 0.0069363588, -0.028185228, 6337.3164, 6337.3164, 0.0, 4.9667387, 5.0151153 
8.7635e+2, 1.33748e+2, -1484096.0, -1630467.4, 13868.051, -0.0030001553, -0.010219422, -1482793.6, 146473.48, 0.0, 5.09113, 4.991252 
8.760313e+2, 1.3872905e+2, -1444791.4, -1586482.9, 15448.203, 0.0055634477, -0.0036004873, -1443126.6, 137326.27, 0.0, 5.0880785, 4.9912677 
8.757134e+2, 1.4370911e+2, -1405753.3, -1544120.5, 19014.324, 0.0055463957, -0.0019638205, -1403187.9, 128460.58, 0.0, 5.0852537, 4.9906106 
8.753986e+2, 1.4868861e+2, -1365515.0, -1498710.3, 26133.346, -0.014167713, -0.0024007051, -1360571.1, 122278.37, 0.0, 5.082583, 4.990755 
8.7509906e+2, 1.5366763e+2, -1329545.6, -1459488.8, 37965.13, -0.013030463, 0.0013980838, -1319266.6, 114788.67, 0.0, 5.0799513, 4.9884343 
8.7480634e+2, 1.586449e+2, -1285712.8, -1413237.0, 39002.645, -0.0031432442, -0.0008907279, -1274729.9, 110548.445, 0.0, 5.0784235, 4.988424 
8.7451255e+2, 1.636215e+2, -1243769.9, -1370298.0, 38954.664, 0.0052349884, -0.003239413, -1232738.6, 103768.87, 0.0, 5.0767465, 4.9873385 
8.742178e+2, 1.6859727e+2, -1201956.3, -1326318.0, 40983.19, 0.010244988, -0.004162443, -1189665.1, 98079.77, 0.0, 5.074862, 4.9866586 
8.7392825e+2, 1.7357054e+2, -1166609.8, -1292593.9, 48771.16, 0.0059320144, -0.0024402298, -1149936.1, 89070.27, 0.0, 5.072721, 4.9823585 
8.736417e+2, 1.7854135e+2, -1122632.1, -1246065.0, 49842.99, -0.0024418237, -0.0036944235, -1105018.6, 85273.44, 0.0, 5.0711656, 4.982395 
8.733552e+2, 1.8351176e+2, -1079625.1, -1201585.4, 50561.74, -0.008655693, -0.005006345, -1061389.9, 80191.34, 0.0, 5.0696006, 4.98172 
8.730691e+2, 1.8848163e+2, -1036390.9, -1156684.5, 51973.97, -0.00990772, -0.0055669956, -1017046.0, 75829.77, 0.0, 5.0680413, 4.981183 
8.7278575e+2, 1.9344847e+2, -1000476.56, -1125771.4, 56778.926, -0.005794447, -0.0032557412, -978574.9, 65624.93, 0.0, 5.066361, 4.975742 
8.725045e+2, 1.9841221e+2, -956128.4, -1079115.5, 57924.188, -0.00039140985, -0.0058787293, -933143.1, 62411.305, 0.0, 5.0649157, 4.975712 
8.722227e+2, 2.0337543e+2, -912972.0, -1035161.6, 58448.63, 0.0033286088, -0.007398767, -889516.1, 57398.645, 0.0, 5.0634885, 4.9747257 
8.7193966e+2, 2.083379e+2, -869179.3, -990347.9, 58638.332, 0.0034803462, -0.0073628007, -845449.25, 52833.32, 0.0, 5.062111, 4.9740276 
8.7165487e+2, 2.1329676e+2, -833102.44, -962509.1, 60138.445, 0.00077690947, -0.0038188184, -809470.3, 40215.54, 0.0, 5.0607667, 4.9673924 
8.713699e+2, 2.1825194e+2, -788599.9, -915630.75, 61223.02, -0.0014567461, -0.004190644, -763897.0, 37227.875, 0.0, 5.0593123, 4.967379 
8.7108463e+2, 2.2320646e+2, -745139.56, -871047.1, 61583.445, -0.0027884752, -0.006008248, -720026.9, 32543.56, 0.0, 5.0578485, 4.9665575 
8.7079835e+2, 2.2816013e+2, -701383.06, -826035.06, 61632.473, -0.0031999443, -0.008577595, -676055.8, 27968.477, 0.0, 5.056396, 4.9658794 
8.705078e+2, 2.3310976e+2, -665221.7, -800683.06, 59091.5, -0.002279824, -0.006769649, -643067.7, 12450.083, 0.0, 5.0552106, 4.9583187 
8.702142e+2, 2.3805521e+2, -621167.5, -753702.6, 60062.863, -0.0009689114, -0.0097282445, -597998.25, 9053.719, 0.0, 5.0534945, 4.958392 
8.6992055e+2, 2.430006e+2, -578395.56, -709197.94, 60604.75, 0.00026048376, -0.009785703, -554632.56, 3955.2532, 0.0, 5.051693, 4.95762 
8.696253e+2, 2.4794541e+2, -535725.8, -664947.7, 59862.523, 0.0010593659, -0.0069215503, -512256.72, -2127.4912, 0.0, 5.0498486, 4.9567695 
8.693231e+2, 2.5288552e+2, -500187.97, -641639.1, 53320.004, 0.00031586518, -0.0018948377, -482340.8, -20623.686, 0.0, 5.0483813, 4.9486427 
8.690149e+2, 2.578213e+2, -457843.75, -595280.94, 53717.33, -0.00013411658, -0.0016479831, -439339.66, -25992.508, 0.0, 5.0459375, 4.948757 
8.6870664e+2, 2.6275665e+2, -416692.0, -551403.1, 53678.414, 0.0005422667, -0.0021546606, -397918.9, -32937.168, 0.0, 5.0434504, 4.947993 
8.6839616e+2, 2.6769114e+2, -374862.03, -506475.75, 50703.16, 0.0024712214, -0.0034805941, -357594.5, -40969.082, 0.0, 5.040964, 4.9476166 
8.6807674e+2, 2.7262193e+2, -341889.2, -484642.1, 41442.18, 0.0033884486, 0.0048537883, -330730.47, -62425.523, 0.0, 5.038276, 4.939483 
8.677491e+2, 2.77549e+2, -302640.8, -437922.84, 39740.77, 0.0055844346, 0.0018868225, -291830.34, -71809.37, 0.0, 5.0341406, 4.9404554 
8.674212e+2, 2.824762e+2, -265448.34, -395295.28, 38368.71, 0.0055472073, 0.0015337925, -254958.19, -83221.74, 0.0, 5.029949, 4.939942 
8.670903e+2, 2.8740394e+2, -227566.55, -347051.3, 34448.4, 0.002155408, 0.003855181, -218346.3, -94898.73, 0.0, 5.0249147, 4.941784 
8.667521e+2, 2.923301e+2, -198998.14, -321306.5, 25482.97, -0.0015137225, 0.010367938, -193901.17, -118726.77, 0.0, 5.0193934, 4.936155 
8.6640596e+2, 2.9725546e+2, -165744.2, -275525.0, 23018.857, -0.0056912545, 0.015939599, -161112.97, -134204.19, 0.0, 5.0126557, 4.937839 
8.660603e+2, 3.021804e+2, -136351.53, -236258.36, 22787.512, -0.008610815, 0.017863996, -131399.44, -131399.44, 0.0, 5.005575, 4.937259 
8.6571807e+2, 3.0710438e+2, -107011.7, -197514.4, 25011.371, -0.006029882, 0.014522068, -100559.54, -100559.54, 0.0, 4.998624, 4.936375 
8.6537516e+2, 3.1203946e+2, -68790.39, -117565.01, 14647.666, -0.0012470533, 0.02979782, -64729.59, -64729.59, 0.0, 4.993154, 4.9591064 
8.6502755e+2, 3.1698334e+2, -82443.08, -118584.03, 9989.134, 0.012690961, -0.02195213, -79865.92, -79865.92, 0.0, 4.986842, 4.9616528 
8.6468005e+2, 3.2193285e+2, -94564.98, -113538.37, 11604.301, 0.018113868, -0.022060147, -89063.11, -89063.11, 0.0, 4.980202, 4.966385 
8.643344e+2, 3.2691774e+2, -65057.996, 14443.331, -2357.3918, 0.022080794, 0.08828534, 14513.172, 14513.172, 0.0, 4.9680576, 5.018529 
8.8143057e+2, 1.3407253e+2, -1483338.6, -1625590.8, 11960.642, -0.004194076, -0.009290417, -1482340.0, 143747.55, 0.0, 5.0902925, 4.993351 
8.81109e+2, 1.3905568e+2, -1442581.5, -1581042.0, 13384.942, 0.0045920736, -0.002462318, -1441299.5, 135952.61, 0.0, 5.0877743, 4.993305 
8.8078845e+2, 1.4403757e+2, -1403568.9, -1538972.3, 17526.852, 0.0044798753, -0.0017488189, -1401336.9, 127092.336, 0.0, 5.085013, 4.992518 
8.804716e+2, 1.4901885e+2, -1363292.3, -1493678.1, 24546.715, -0.015039834, -0.0027243816, -1358824.1, 120788.42, 0.0, 5.082397, 4.992595 
8.8017035e+2, 1.539995e+2, -1327610.6, -1454927.4, 36842.016, -0.0127814645, 0.00021245191, -1317718.1, 113083.9, 0.0, 5.079781, 4.9900913 
8.798762e+2, 1.5897836e+2, -1283953.4, -1408938.0, 37790.586, -0.0016292292, -0.0024050784, -1273415.4, 108593.86, 0.0, 5.078233, 4.990005 
8.7958074e+2, 1.6395652e+2, -1242149.5, -1366343.6, 37409.785, 0.007061482, -0.0041496456, -1231751.5, 101472.04, 0.0, 5.076563, 4.988804 
8.7928426e+2, 1.6893381e+2, -1200084.9, -1321988.9, 39763.742, 0.011687312, -0.004473782, -1188261.1, 96185.086, 0.0, 5.074728, 4.988225 
8.789929e+2, 1.7390868e+2, -1164734.1, -1288299.4, 47499.254, 0.006928648, -0.002325527, -1148585.6, 87107.17, 0.0, 5.0726094, 4.9838953 
8.787048e+2, 1.7888106e+2, -1120704.5, -1241758.6, 48536.29, -0.0019095356, -0.0029876288, -1103647.4, 83315.92, 0.0, 5.0710773, 4.983929 
8.7841684e+2, 1.83853e+2, -1077627.3, -1197206.6, 49301.844, -0.0077177086, -0.0041895118, -1059921.9, 78315.75, 0.0, 5.069531, 4.9832745 
8.7812924e+2, 1.8882434e+2, -1034422.5, -1152450.0, 50689.99, -0.007992449, -0.0048580556, -1015641.06, 73876.305, 0.0, 5.067992, 4.982681 
8.778446e+2, 1.9379275e+2, -998364.94, -1121205.6, 55532.64, -0.003097053, -0.003009237, -976982.3, 63843.703, 0.0, 5.066315, 4.97735 
8.7756187e+2, 1.9875807e+2, -954102.5, -1074729.9, 56660.844, 0.003129528, -0.005376146, -931662.4, 60502.254, 0.0, 5.0648723, 4.9772615 
8.7727857e+2, 2.0372277e+2, -911082.9, -1031168.75, 57057.71, 0.006263592, -0.006292758, -888296.25, 55214.29, 0.0, 5.063463, 4.976136 
8.7699395e+2, 2.086867e+2, -867256.94, -986166.1, 57522.242, 0.0052319486, -0.006058341, -843985.1, 50879.39, 0.0, 5.062075, 4.975508 
8.767076e+2, 2.1364704e+2, -831114.94, -958194.94, 58841.426, 0.001393945, -0.002753574, -808054.44, 38199.066, 0.0, 5.060732, 4.968919 
8.764211e+2, 2.1860376e+2, -786675.06, -911440.1, 59929.766, -0.002235155, -0.0029324878, -762552.4, 35125.543, 0.0, 5.0592775, 4.968867 
8.761344e+2, 2.2355965e+2, -743316.56, -867066.0, 60269.973, -0.0035930586, -0.00505565, -718814.5, 30295.379, 0.0, 5.0578127, 4.967977 
8.7584656e+2, 2.285147e+2, -699524.2, -822008.94, 60219.06, -0.0035109771, -0.008058826, -674877.3, 25672.805, 0.0, 5.056365, 4.9673157 
8.7555444e+2, 2.3346566e+2, -663374.8, -796765.0, 57603.72, -0.0018001188, -0.0072079613, -641942.56, 10087.691, 0.0, 5.0551906, 4.959715 
8.752593e+2, 2.3841245e+2, -619376.9, -749879.56, 58558.453, 0.00026147277, -0.010702936, -596953.6, 6597.439, 0.0, 5.053472, 4.959759 
8.749639e+2, 2.4335921e+2, -576653.6, -705392.94, 58997.188, 0.002395468, -0.010166675, -553707.06, 1366.3873, 0.0, 5.0516562, 4.9589906 
8.746667e+2, 2.4830538e+2, -534335.94, -661966.94, 58145.805, 0.004513435, -0.006351219, -511818.66, -5216.9043, 0.0, 5.0498147, 4.957855 
8.743624e+2, 2.5324655e+2, -498895.5, -639183.5, 51279.195, 0.005025091, -0.0003948154, -482150.28, -23971.172, 0.0, 5.048379, 4.9495425 
8.740519e+2, 2.581833e+2, -456635.3, -592942.1, 51694.42, 0.0047876947, 0.00037680747, -439248.1, -29448.223, 0.0, 5.0459285, 4.949618 
8.7374103e+2, 2.6311946e+2, -415629.78, -549447.0, 51496.855, 0.0043336106, 0.000013914147, -398106.84, -36679.79, 0.0, 5.043451, 4.9487166 
8.7342757e+2, 2.680545e+2, -374302.5, -505763.78, 48360.055, 0.0049296576, -0.0013807523, -358429.16, -45363.684, 0.0, 5.040964, 4.9479175 
8.7310433e+2, 2.7298525e+2, -341592.4, -485506.34, 38243.113, 0.0043597156, 0.006252686, -332061.1, -67315.35, 0.0, 5.0383806, 4.939228 
8.7277246e+2, 2.779119e+2, -302465.3, -439077.75, 36613.68, 0.0055034836, 0.002936891, -293271.22, -76805.016, 0.0, 5.0342484, 4.9400954 
8.7244016e+2, 2.828386e+2, -265177.84, -396127.66, 34778.496, 0.0038413282, 0.0008326041, -256514.33, -88328.37, 0.0, 5.0300426, 4.9397006 
8.7210405e+2, 2.8776568e+2, -227884.48, -348870.38, 30030.914, 0.0028899016, 0.0011139928, -220840.39, -100938.21, 0.0, 5.0249224, 4.941241 
8.7175965e+2, 2.9269123e+2, -198963.28, -323200.13, 20211.041, 0.001121174, 0.007887095, -195758.02, -124124.34, 0.0, 5.019492, 4.9355946 
8.714064e+2, 2.97616e+2, -165517.17, -276947.3, 17932.008, -0.005808706, 0.012385809, -162702.53, -139329.95, 0.0, 5.012754, 4.9374413 
8.710534e+2, 3.0254066e+2, -136148.84, -237512.94, 17105.035, -0.011522919, 0.014385556, -133340.22, -133340.22, 0.0, 5.005635, 4.936927 
8.707031e+2, 3.074652e+2, -106334.58, -197913.28, 20417.229, -0.022858962, 0.01901218, -101988.836, -101988.836, 0.0, 4.998733, 4.936328 
8.703544e+2, 3.123997e+2, -69189.98, -121292.54, 10134.021, -0.016845865, 0.035071325, -67288.305, -67288.305, 0.0, 4.9933634, 4.9578547 
8.7000155e+2, 3.17342e+2, -83616.31, -124354.26, 5560.254, 0.008344428, -0.012067769, -82871.04, -82871.04, 0.0, 4.987083, 4.9596624 
8.6964965e+2, 3.2228896e+2, -91796.24, -109971.87, 5141.765, 0.033661343, -0.033634134, -90442.5, -90442.5, 0.0, 4.980421, 4.967809 
8.692902e+2, 3.2727784e+2, -60769.91, 22137.217, -16772.682, 0.028023941, 0.15934888, 25401.89, 25401.89, 0.0, 4.9677773, 5.0221615 
8.865092e+2, 1.343992e+2, -1488545.8, -1623005.8, 12645.718, -0.0050184974, -0.007204922, -1487366.8, 135521.45, 0.0, 5.0873685, 4.995627 
8.8618535e+2, 1.3938442e+2, -1447101.5, -1578220.0, 14463.679, 0.005636849, 0.00022667178, -1445524.9, 128506.62, 0.0, 5.085119, 4.995528 
8.858624e+2, 1.4436805e+2, -1407211.0, -1536132.1, 18621.252, 0.004875363, -0.00030885724, -1404575.3, 120615.82, 0.0, 5.082772, 4.9945393 
8.855435e+2, 1.4935106e+2, -1366038.9, -1490320.8, 25745.602, -0.014957904, -0.0018075638, -1360916.6, 115440.69, 0.0, 5.0804586, 4.9946446 
8.852408e+2, 1.543332e+2, -1330372.8, -1451960.5, 38610.895, -0.012131233, -0.00025386582, -1319148.0, 108383.89, 0.0, 5.0779715, 4.991929 
8.8494533e+2, 1.5931354e+2, -1286080.9, -1405855.1, 39458.867, 0.00009246857, -0.0036481314, -1274250.0, 104474.336, 0.0, 5.07669, 4.991753 
8.8464826e+2, 1.6429317e+2, -1243414.3, -1362946.9, 38907.78, 0.0094504235, -0.0050964314, -1231865.5, 98058.695, 0.0, 5.075342, 4.990507 
8.8435006e+2, 1.6927193e+2, -1200778.9, -1318196.4, 41766.33, 0.013460303, -0.0048430394, -1187438.0, 93694.72, 0.0, 5.0736957, 4.9899764 
8.840571e+2, 1.742483e+2, -1164784.6, -1284178.8, 49497.145, 0.008057093, -0.0022139018, -1146933.6, 85431.08, 0.0, 5.071817, 4.98564 
8.837676e+2, 1.7922218e+2, -1120163.6, -1237461.9, 50558.668, -0.0011859676, -0.0022401013, -1101379.5, 82241.24, 0.0, 5.070519, 4.985628 
8.834781e+2, 1.8419553e+2, -1076424.0, -1192689.0, 51188.11, -0.006659613, -0.003304589, -1057099.4, 77781.875, 0.0, 5.0692277, 4.984932 
8.831892e+2, 1.8916823e+2, -1032381.2, -1147396.5, 52572.62, -0.006652199, -0.0040925383, -1011972.1, 74175.48, 0.0, 5.0679584, 4.9844007 
8.8290316e+2, 1.9413805e+2, -995698.0, -1115746.4, 57355.473, -0.0012798327, -0.0027678383, -972700.75, 64741.45, 0.0, 5.0664873, 4.979113 
8.8261914e+2, 1.9910486e+2, -951113.7, -1069395.9, 58349.66, 0.0057435813, -0.0052177003, -927174.44, 61591.945, 0.0, 5.065219, 4.978906 
8.823344e+2, 2.0407094e+2, -908008.75, -1025923.3, 58790.06, 0.008810102, -0.0058985804, -883706.0, 56392.836, 0.0, 5.063875, 4.9777246 
8.8204837e+2, 2.0903625e+2, -863617.6, -980388.25, 59044.016, 0.007134561, -0.005379327, -838966.56, 52472.734, 0.0, 5.0626273, 4.977224 
8.8176054e+2, 2.1399802e+2, -827168.25, -952295.06, 60338.215, 0.0026651325, -0.0022213934, -802812.9, 40001.582, 0.0, 5.061402, 4.970622 
8.8147247e+2, 2.1895619e+2, -782748.8, -905717.2, 61314.523, -0.0013806525, -0.0022258982, -757401.1, 36823.574, 0.0, 5.0599775, 4.970502 
8.811843e+2, 2.2391345e+2, -739535.5, -861619.0, 61721.402, -0.0023215597, -0.00423542, -713769.3, 31873.885, 0.0, 5.0585055, 4.9695272 
8.808949e+2, 2.2886981e+2, -695440.4, -816352.25, 61250.074, -0.0023583262, -0.0073137665, -669835.3, 27234.94, 0.0, 5.0571322, 4.968921 
8.8060117e+2, 2.3382203e+2, -659260.8, -791319.56, 58482.137, -0.00028375653, -0.007313335, -637085.6, 11452.346, 0.0, 5.056002, 4.9612308 
8.803044e+2, 2.387701e+2, -615565.56, -744769.5, 59191.69, 0.0025638235, -0.011371446, -592548.6, 7497.7935, 0.0, 5.0542116, 4.961199 
8.800072e+2, 2.4371812e+2, -573276.06, -700972.75, 59127.117, 0.0055804625, -0.010214825, -550103.56, 1452.7488, 0.0, 5.052331, 4.9602256 
8.797081e+2, 2.4866553e+2, -530825.6, -657209.0, 58388.484, 0.008461241, -0.005780471, -507980.1, -4907.6455, 0.0, 5.050489, 4.9592133 
8.7940174e+2, 2.5360772e+2, -495615.72, -635387.75, 50833.535, 0.009804061, 0.0010451075, -479083.56, -24443.85, 0.0, 5.0491, 4.950557 
8.790888e+2, 2.5854537e+2, -453819.3, -589676.5, 51008.57, 0.009637096, 0.0022537594, -436799.88, -30548.21, 0.0, 5.046541, 4.9505 
8.7877524e+2, 2.6348227e+2, -413357.13, -546867.2, 50372.094, 0.008054052, 0.0020890054, -396484.5, -38612.477, 0.0, 5.043936, 4.949424 
8.784588e+2, 2.6841787e+2, -372806.8, -504425.75, 46864.938, 0.007496978, 0.0012970989, -357825.16, -48319.875, 0.0, 5.0413136, 4.948264 
8.7813175e+2, 2.7334857e+2, -340863.66, -486123.4, 35450.992, 0.0054498124, 0.008209428, -332673.53, -71487.016, 0.0, 5.038661, 4.938968 
8.7779564e+2, 2.782748e+2, -302138.4, -440054.25, 33637.94, 0.0051976894, 0.0041916794, -294371.44, -81459.89, 0.0, 5.0344024, 4.939771 
8.7745893e+2, 2.83201e+2, -265297.28, -397689.75, 31028.654, 0.0023222696, 0.00054434134, -258385.92, -93750.53, 0.0, 5.0301075, 4.9392104 
8.771176e+2, 2.8812733e+2, -228211.98, -350634.9, 25418.39, 0.0045429505, -0.0017303049, -223144.2, -106786.43, 0.0, 5.0249124, 4.940725 
8.767669e+2, 2.930522e+2, -199094.97, -325149.44, 14903.671, 0.0045666154, 0.004217076, -197356.84, -129262.56, 0.0, 5.0195336, 4.9350343 
8.764065e+2, 2.9797634e+2, -165669.7, -278594.03, 12850.197, -0.0054722135, 0.006371883, -164225.88, -144387.81, 0.0, 5.0127397, 4.9370036 
8.7604594e+2, 3.029009e+2, -136701.9, -239892.39, 11919.577, -0.015652977, 0.012647563, -135342.97, -135342.97, 0.0, 5.00559, 4.9362254 
8.756877e+2, 3.078262e+2, -106252.96, -198893.61, 15627.387, -0.04093098, 0.025242262, -103687.836, -103687.836, 0.0, 4.998695, 4.93612 
8.753335e+2, 3.1276e+2, -70131.766, -125155.13, 5891.967, -0.031615634, 0.03910356, -69507.914, -69507.914, 0.0, 4.9933825, 4.956606 
8.749754e+2, 3.1770062e+2, -85939.42, -131138.06, 1336.2186, 0.005244705, -0.009029546, -85899.95, -85899.95, 0.0, 4.9870253, 4.9574094 
8.746193e+2, 3.226445e+2, -90164.16, -107359.95, -2173.5383, 0.05436442, -0.049131695, -89893.67, -89893.67, 0.0, 4.980328, 4.968962 
8.7424433e+2, 3.2762882e+2, -59913.91, 23267.807, -30401.451, 0.032322843, 0.0860572, 33194.4, 33194.4, 0.0, 4.9672337, 5.023214 
8.915823e+2, 1.3473137e+2, -1504149.3, -1624376.8, 14085.6875, -0.005178819, -0.0047327653, -1502521.0, 117113.81, 0.0, 5.0807896, 4.9982514 
8.912568e+2, 1.3971886e+2, -1461154.8, -1578986.3, 16010.375, 0.0075181876, 0.0030573048, -1459018.1, 111736.9, 0.0, 5.079123, 4.9980597 
8.9093196e+2, 1.4470449e+2, -1419815.1, -1536502.9, 21078.645, 0.0044635264, 0.0013221061, -1416124.3, 105770.484, 0.0, 5.077372, 4.9969 
8.906115e+2, 1.4968938e+2, -1376794.4, -1489444.0, 28510.025, -0.015232274, -0.0010414477, -1369990.0, 103052.16, 0.0, 5.0756583, 4.9971194 
8.903076e+2, 1.5467328e+2, -1340204.6, -1451036.3, 41889.117, -0.011515589, -0.00087542954, -1326153.8, 98045.375, 0.0, 5.0736346, 4.994175 
8.900112e+2, 1.5965533e+2, -1295008.1, -1404577.1, 42921.7, 0.0014874486, -0.005001973, -1280196.5, 95177.97, 0.0, 5.072705, 4.993937 
8.8971287e+2, 1.646367e+2, -1251572.1, -1361523.5, 42525.805, 0.011523862, -0.0059509156, -1237044.1, 89513.4, 0.0, 5.0716925, 4.992565 
8.894134e+2, 1.6961722e+2, -1207460.0, -1315425.9, 45717.973, 0.01521185, -0.0051402277, -1190702.0, 87047.01, 0.0, 5.070444, 4.9922986 
8.8911915e+2, 1.7459543e+2, -1170779.5, -1281002.4, 53878.926, 0.008951411, -0.00206191, -1148818.1, 80144.94, 0.0, 5.0688286, 4.987961 
8.888284e+2, 1.7957117e+2, -1125641.5, -1234067.3, 55281.477, -0.0010498277, -0.0014596083, -1102426.5, 77774.61, 0.0, 5.0677443, 4.9879117 
8.885377e+2, 1.8454622e+2, -1081373.3, -1189045.4, 56538.99, -0.0067713447, -0.0025372673, -1057139.0, 74305.94, 0.0, 5.066672, 4.987187 
8.882477e+2, 1.8952058e+2, -1036584.2, -1143033.1, 58126.008, -0.006076497, -0.003494138, -1010995.75, 71699.26, 0.0, 5.0656123, 4.986796 
8.879607e+2, 1.9449219e+2, -999226.4, -1110667.5, 63529.13, -0.00039069602, -0.0025858565, -970444.1, 63528.13, 0.0, 5.0643444, 4.981645 
8.8767564e+2, 1.9946083e+2, -954173.6, -1064074.6, 65055.29, 0.0069757784, -0.005152257, -923966.94, 61311.66, 0.0, 5.0632815, 4.9814124 
8.873897e+2, 2.044286e+2, -910515.4, -1020142.25, 66159.47, 0.010525624, -0.006341943, -879412.7, 57181.75, 0.0, 5.0621424, 4.980278 
8.871024e+2, 2.0939563e+2, -865713.7, -974219.0, 66746.37, 0.00938398, -0.006211347, -833952.2, 53965.656, 0.0, 5.061034, 4.979839 
8.868135e+2, 2.1435928e+2, -828640.2, -945026.3, 68932.51, 0.0054075015, -0.0034747361, -796621.7, 42652.734, 0.0, 5.0599422, 4.973529 
8.865243e+2, 2.1931945e+2, -783722.44, -898112.7, 70714.45, 0.0021283529, -0.0032819582, -749968.06, 40696.99, 0.0, 5.0587454, 4.9734 
8.862348e+2, 2.242787e+2, -739799.1, -853512.06, 71933.43, 0.0016895987, -0.0044332934, -704965.5, 37098.61, 0.0, 5.0575576, 4.9724503 
8.8594407e+2, 2.2923705e+2, -694974.44, -807410.0, 72507.01, 0.0020578352, -0.006346493, -659444.1, 34027.76, 0.0, 5.056414, 4.97202 
8.85649e+2, 2.3419124e+2, -657906.7, -781246.06, 70803.03, 0.004061063, -0.006079914, -625681.7, 19238.791, 0.0, 5.055563, 4.964549 
8.853507e+2, 2.3914129e+2, -613102.6, -734027.44, 72815.46, 0.0069863163, -0.01003801, -578919.4, 17490.234, 0.0, 5.054252, 4.964501 
8.850518e+2, 2.4409097e+2, -569287.0, -689053.6, 73988.055, 0.009521738, -0.01051731, -533985.0, 13917.952, 0.0, 5.0529385, 4.96365 
8.847509e+2, 2.4904002e+2, -525495.2, -643937.94, 74898.164, 0.011355289, -0.008330617, -489234.06, 10168.7295, 0.0, 5.051602, 4.9628325 
8.8444257e+2, 2.5398406e+2, -488252.88, -620570.3, 68824.89, 0.011517043, -0.0019052336, -458945.16, -7993.1406, 0.0, 5.050978, 4.9542937 
8.8412756e+2, 2.5892353e+2, -443893.22, -573344.4, 70960.53, 0.01178505, 0.0001868119, -412572.97, -10027.198, 0.0, 5.0494385, 4.954273 
8.8381195e+2, 2.6386216e+2, -400475.72, -528232.6, 72450.38, 0.011412593, 0.0005985292, -367764.78, -13615.674, 0.0, 5.047879, 4.953499 
8.834931e+2, 2.6879933e+2, -357474.8, -485388.4, 71323.38, 0.010978964, 0.00094509154, -325632.34, -19865.738, 0.0, 5.0464954, 4.9518476 
8.83163e+2, 2.737308e+2, -321043.8, -465335.88, 61759.223, 0.007665617, 0.0073314956, -298220.13, -40779.51, 0.0, 5.04569, 4.942243 
8.828231e+2, 2.786574e+2, -277896.2, -416890.3, 62248.156, 0.0071970886, 0.0041508297, -254094.39, -44932.473, 0.0, 5.043186, 4.9430604 
8.8248247e+2, 2.8358385e+2, -237721.7, -373268.13, 61102.12, 0.0051125037, 0.0022380948, -214244.28, -53361.195, 0.0, 5.0403337, 4.9422584 
8.8213617e+2, 2.8850985e+2, -196932.23, -325193.72, 55061.586, 0.008964537, 0.00011063235, -176537.64, -63929.754, 0.0, 5.036713, 4.9433975 
8.8177913e+2, 2.934327e+2, -168385.22, -304227.28, 43008.92, 0.009033971, 0.00014360307, -155913.25, -91549.95, 0.0, 5.031851, 4.935857 
8.814119e+2, 2.9835418e+2, -135651.58, -259863.22, 37620.24, 0.0025920828, -0.0013699767, -125146.0, -109013.62, 0.0, 5.024917, 4.9372463 
8.81044e+2, 3.0327663e+2, -108029.82, -220781.94, 33563.773, -0.0049923365, 0.006518199, -98795.0, -98795.0, 0.0, 5.0168476, 4.937109 
8.806779e+2, 3.0820033e+2, -84272.555, -184030.73, 34455.477, -0.033258606, 0.01940569, -73529.016, -73529.016, 0.0, 5.0075336, 4.9366307 
8.803159e+2, 3.1313467e+2, -54401.637, -109837.96, 23888.357, -0.031267166, 0.041784912, -45528.133, -45528.133, 0.0, 4.99931, 4.9585547 
8.7995e+2, 3.1807694e+2, -78536.35, -121116.375, 21880.867, 0.0005865717, 0.0073698102, -69297.086, -69297.086, 0.0, 4.990482, 4.958358 
8.795873e+2, 3.2302293e+2, -85357.03, -95422.69, 19781.553, 0.055522878, -0.009464375, -69978.12, -69978.12, 0.0, 4.9824986, 4.9709864 
8.791996e+2, 3.280005e+2, -24188.877, 54839.586, -15653.959, 0.04119026, -0.027993612, 57827.367, 57827.367, 0.0, 4.9792676, 5.0283175 
8.9665234e+2, 1.350658e+2, -1500427.4, -1617310.8, 12662.231, -0.0065234546, -0.0019418348, -1499071.4, 117287.81, 0.0, 5.080848, 5.0006394 
8.9632535e+2, 1.4005564e+2, -1457553.4, -1572154.8, 14844.24, 0.0079661915, 0.005787676, -1455661.9, 111793.516, 0.0, 5.079176, 5.000381 
8.959989e+2, 1.4504336e+2, -1416549.6, -1530447.1, 19636.965, 0.0035634402, 0.00288186, -1413259.1, 105315.27, 0.0, 5.0774393, 4.9989595 
8.956773e+2, 1.5003023e+2, -1373572.8, -1483185.1, 27707.633, -0.016014395, -0.0005481161, -1366966.9, 102735.12, 0.0, 5.0756984, 4.9992504 
8.953725e+2, 1.55016e+2, -1337362.1, -1445380.8, 41037.875, -0.011245046, -0.0016802077, -1323539.9, 97300.586, 0.0, 5.073652, 4.996108 
8.9507514e+2, 1.5999989e+2, -1292362.0, -1399300.4, 41931.33, 0.0025621064, -0.006292536, -1277881.3, 94116.33, 0.0, 5.072718, 4.995748 
8.947757e+2, 1.6498311e+2, -1249074.6, -1356426.3, 41732.805, 0.012915955, -0.0065141334, -1234759.9, 88402.75, 0.0, 5.071688, 4.994325 
8.944751e+2, 1.6996554e+2, -1204656.8, -1309766.3, 44519.02, 0.016385932, -0.005073405, -1188335.3, 86000.48, 0.0, 5.0704494, 4.9942536 
8.941797e+2, 1.7494573e+2, -1167989.1, -1275218.3, 52871.363, 0.00928189, -0.0015052707, -1146305.0, 79225.46, 0.0, 5.0688167, 4.9899626 
8.9388776e+2, 1.7992352e+2, -1122920.0, -1228410.9, 54240.3, -0.0014326483, -0.00024196554, -1100007.8, 76740.85, 0.0, 5.067732, 4.9898753 
8.93596e+2, 1.8490045e+2, -1078785.1, -1183679.8, 55579.96, -0.007387033, -0.0012769543, -1054813.5, 73160.28, 0.0, 5.066665, 4.9890537 
8.933051e+2, 1.8987674e+2, -1033861.0, -1137292.1, 57127.516, -0.006026915, -0.002303156, -1008517.8, 70687.49, 0.0, 5.0655937, 4.988801 
8.9301705e+2, 1.9485041e+2, -996247.25, -1104345.3, 62474.816, 0.00013291997, -0.0017405921, -967686.3, 62775.953, 0.0, 5.0643225, 4.983854 
8.9273095e+2, 1.9982123e+2, -951351.1, -1058052.1, 63926.74, 0.007859174, -0.0042191623, -921437.56, 60309.9, 0.0, 5.063256, 4.9835243 
8.924439e+2, 2.0479108e+2, -907664.9, -1014041.3, 65016.793, 0.011989982, -0.0056288852, -876852.06, 56190.805, 0.0, 5.062115, 4.9824233 
8.921555e+2, 2.0976019e+2, -862771.75, -967931.2, 65583.914, 0.01126804, -0.0058702477, -831292.7, 53052.957, 0.0, 5.0610113, 4.9820547 
8.9186555e+2, 2.147262e+2, -825259.94, -937761.75, 67705.06, 0.007962785, -0.0037109593, -793487.3, 42191.758, 0.0, 5.0599165, 4.9760876 
8.9157516e+2, 2.1968888e+2, -780496.2, -891148.94, 69469.6, 0.004822658, -0.0036149842, -747013.56, 40031.406, 0.0, 5.058718, 4.975861 
8.912844e+2, 2.2465064e+2, -736449.44, -846288.0, 70525.164, 0.004171599, -0.0039786086, -701982.4, 36437.14, 0.0, 5.057533, 4.9750094 
8.909925e+2, 2.2961159e+2, -691750.3, -800345.1, 71305.12, 0.00490792, -0.004784168, -656422.75, 33379.13, 0.0, 5.0563774, 4.974534 
8.9069617e+2, 2.3456863e+2, -654132.5, -772954.7, 69399.34, 0.0071890415, -0.0035574117, -622187.44, 19035.299, 0.0, 5.055524, 4.9674954 
8.903965e+2, 2.3952167e+2, -609481.44, -726035.94, 71370.414, 0.00969243, -0.0063667744, -575617.6, 17064.902, 0.0, 5.0542116, 4.9673495 
8.90096e+2, 2.4447405e+2, -565623.06, -680895.06, 72633.8, 0.010828666, -0.00778162, -530535.94, 13613.407, 0.0, 5.052892, 4.9665666 
8.897936e+2, 2.4942578e+2, -521877.2, -636045.06, 73195.51, 0.011186888, -0.007173803, -486137.84, 9485.032, 0.0, 5.051576, 4.965658 
8.894835e+2, 2.5437263e+2, -484233.38, -611788.44, 67191.52, 0.0099213645, -0.002849163, -455370.34, -8226.312, 0.0, 5.0509553, 4.957435 
8.8916695e+2, 2.593151e+2, -439973.34, -564734.25, 69320.98, 0.009557976, -0.0019366137, -409097.63, -10389.253, 0.0, 5.049413, 4.957363 
8.8884974e+2, 2.642569e+2, -396553.1, -519539.5, 70749.99, 0.009214447, -0.0016054115, -364307.44, -14027.176, 0.0, 5.0478497, 4.956626 
8.885293e+2, 2.691972e+2, -353666.3, -476976.0, 69644.664, 0.009409551, -0.0012769722, -322306.63, -20439.678, 0.0, 5.04647, 4.9548836 
8.881971e+2, 2.7413118e+2, -317732.38, -458804.2, 59548.21, 0.006460267, 0.005184383, -295957.38, -42441.453, 0.0, 5.0457544, 4.9446044 
8.8785505e+2, 2.790601e+2, -274213.1, -410671.3, 60352.133, 0.005719959, 0.0034689202, -251351.08, -46136.945, 0.0, 5.0435095, 4.9451942 
8.8751185e+2, 2.8398862e+2, -233066.45, -367186.8, 59202.254, 0.0045166155, 0.00286348, -210672.88, -53758.297, 0.0, 5.0411444, 4.944127 
8.871615e+2, 2.8891608e+2, -192692.97, -322323.47, 52721.88, 0.0068058283, 0.0034226004, -173958.16, -65332.824, 0.0, 5.037954, 4.943947 
8.867989e+2, 2.9383668e+2, -167097.53, -311917.44, 40347.58, 0.006678693, -0.0013359946, -156615.22, -96211.95, 0.0, 5.03373, 4.932409 
8.8642585e+2, 2.9875416e+2, -131935.5, -265897.66, 35359.305, 0.005620802, -0.00394726, -123175.266, -110963.62, 0.0, 5.0275736, 4.9340453 
8.8605094e+2, 3.0367213e+2, -102367.72, -226077.44, 29501.633, 0.0046396554, -0.0053955857, -95692.51, -95692.51, 0.0, 5.0202003, 4.9338794 
8.8567746e+2, 3.0859092e+2, -78826.55, -186810.14, 30632.168, -0.005585778, -0.00668685, -70742.234, -70742.234, 0.0, 5.010326, 4.9345207 
8.853042e+2, 3.135266e+2, -48057.91, -104916.71, 18330.813, -0.01708649, 0.037728216, -42660.555, -42660.555, 0.0, 5.000886, 4.959811 
8.849252e+2, 3.1847227e+2, -75138.67, -114163.13, 16253.412, -0.010381848, 0.022857644, -69256.01, -69256.01, 0.0, 4.9903173, 4.9610877 
8.845489e+2, 3.2342407e+2, -87579.31, -94039.93, 18520.393, 0.004514289, 0.037698824, -72009.625, -72009.625, 0.0, 4.9809117, 4.972376 
8.84163e+2, 3.283951e+2, -3012.0422, 44172.81, -6087.3877, -0.033564862, 0.012534307, 44945.496, 44945.496, 0.0, 4.9910913, 5.0192366 
9.0172255e+2, 1.3540037e+2, -1498625.8, -1611236.6, 11655.839, -0.0038164833, -0.00040607224, -1497432.0, 115649.6, 0.0, 5.080252, 5.003012 
9.013937e+2, 1.4039259e+2, -1456177.5, -1566680.5, 13635.584, 0.0092283245, 0.007382978, -1454519.8, 109633.97, 0.0, 5.0785155, 5.0025916 
9.0106565e+2, 1.4538237e+2, -1414598.9, -1524805.3, 18633.863, 0.0029316682, 0.0037930536, -1411533.5, 103719.04, 0.0, 5.0770087, 5.001119 
9.0074307e+2, 1.5037122e+2, -1371308.4, -1477658.1, 27101.549, -0.016758094, -0.00012642579, -1364800.3, 101560.43, 0.0, 5.075469, 5.0012627 
9.0043724e+2, 1.5535884e+2, -1334973.0, -1439971.6, 40284.57, -0.011012466, -0.0022979544, -1321298.1, 96182.65, 0.0, 5.0735207, 4.9980283 
9.0013903e+2, 1.6034457e+2, -1289893.0, -1394020.5, 41021.484, 0.0037060806, -0.007245256, -1275674.1, 92945.67, 0.0, 5.072655, 4.9975967 
8.998385e+2, 1.6532964e+2, -1246673.4, -1351341.0, 40963.867, 0.014248757, -0.0067583756, -1232547.8, 87218.99, 0.0, 5.071643, 4.996102 
8.995367e+2, 1.7031394e+2, -1201990.1, -1304331.8, 43357.9, 0.017548332, -0.004839128, -1186091.1, 84830.32, 0.0, 5.070442, 4.9961395 
8.992402e+2, 1.7529613e+2, -1165232.3, -1269443.4, 51892.035, 0.009586104, -0.0008840853, -1143800.3, 78296.68, 0.0, 5.0687923, 4.991968 
8.98947e+2, 1.8027595e+2, -1120318.8, -1222939.0, 53276.24, -0.0018402912, 0.0009853068, -1097662.1, 75633.14, 0.0, 5.067705, 4.991784 
8.986542e+2, 1.8525478e+2, -1076310.3, -1178485.5, 54470.33, -0.007837895, 0.0000054830653, -1052718.8, 71783.26, 0.0, 5.06664, 4.9908724 
8.983623e+2, 1.9023296e+2, -1031115.06, -1131369.9, 56266.19, -0.005988235, -0.0010914559, -1005885.7, 69829.24, 0.0, 5.065552, 4.99088 
8.980733e+2, 1.952087e+2, -993318.1, -1098049.4, 61429.426, 0.0006829844, -0.0008851807, -964963.6, 61988.098, 0.0, 5.0642843, 4.9860625 
8.977862e+2, 2.001817e+2, -948552.2, -1052032.8, 62815.766, 0.008814414, -0.003286488, -918911.44, 59304.332, 0.0, 5.063221, 4.985642 
8.974981e+2, 2.0515361e+2, -904957.0, -1008248.4, 63788.504, 0.013595259, -0.0048512816, -874528.0, 54962.76, 0.0, 5.0620866, 4.984464 
8.972085e+2, 2.1012482e+2, -859749.2, -961442.2, 64497.688, 0.013104963, -0.0055886577, -828465.8, 52307.1, 0.0, 5.060986, 4.984342 
8.9691746e+2, 2.1509315e+2, -821885.5, -930503.2, 66477.56, 0.010486366, -0.004022498, -790353.1, 41730.1, 0.0, 5.0598903, 4.9786463 
8.966259e+2, 2.2005835e+2, -777250.1, -884124.3, 68201.375, 0.007466525, -0.0039894073, -744044.56, 39379.848, 0.0, 5.058688, 4.978347 
8.963339e+2, 2.2502264e+2, -733202.44, -839247.44, 69327.695, 0.0067178067, -0.003301002, -698945.44, 35828.758, 0.0, 5.057507, 4.9775057 
8.9604074e+2, 2.2998622e+2, -688503.5, -793277.0, 69903.555, 0.007887435, -0.0028709942, -653535.4, 32595.654, 0.0, 5.0563445, 4.9770503 
8.9574313e+2, 2.3494609e+2, -650364.3, -764670.9, 67994.67, 0.01024121, -0.0008318983, -618693.2, 18830.992, 0.0, 5.055485, 4.970442 
8.9544207e+2, 2.3990211e+2, -605883.94, -718101.6, 69996.96, 0.012145526, -0.0027355677, -572283.4, 16671.574, 0.0, 5.054173, 4.970181 
8.9514005e+2, 2.4485719e+2, -562218.5, -673279.44, 71326.36, 0.0119273765, -0.004935877, -527354.94, 13040.288, 0.0, 5.052843, 4.969293 
8.94836e+2, 2.4981156e+2, -518073.63, -627761.25, 71380.03, 0.0107334815, -0.0062695686, -482901.03, 8941.586, 0.0, 5.0515537, 4.9686236 
8.9452434e+2, 2.5476128e+2, -480223.38, -603013.5, 65556.766, 0.008069093, -0.0038351545, -451801.72, -8466.282, 0.0, 5.050933, 4.9605756 
8.9420617e+2, 2.5970674e+2, -436040.97, -556094.8, 67750.94, 0.007108317, -0.004246957, -405550.38, -10680.081, 0.0, 5.049391, 4.960465 
8.938874e+2, 2.6465178e+2, -392676.78, -510965.56, 68927.49, 0.006957965, -0.0033191, -360996.84, -14586.716, 0.0, 5.0478234, 4.959711 
8.9356536e+2, 2.6959515e+2, -349942.6, -468726.4, 68009.59, 0.007886928, -0.0030039407, -319042.2, -21076.027, 0.0, 5.046442, 4.9578648 
8.932313e+2, 2.7453157e+2, -314521.66, -452357.1, 57343.668, 0.0054786946, 0.003281566, -293784.78, -44194.2, 0.0, 5.045794, 4.946944 
8.9288676e+2, 2.7946275e+2, -271587.97, -405350.4, 58175.684, 0.0043531046, 0.0026133081, -249826.61, -48560.5, 0.0, 5.043524, 4.9471436 
8.92541e+2, 2.8439343e+2, -230439.88, -362121.2, 56132.516, 0.004154794, 0.0033288107, -209759.72, -56813.754, 0.0, 5.041188, 4.9459834 
8.9218646e+2, 2.8932232e+2, -192300.23, -322110.47, 49296.816, 0.003766312, 0.0076917177, -175701.67, -71059.13, 0.0, 5.03792, 4.9441185 
8.918184e+2, 2.942407e+2, -170693.9, -321994.5, 35947.676, 0.004522363, -0.0011320745, -162587.39, -106145.25, 0.0, 5.0337996, 4.9289255 
8.914396e+2, 2.991544e+2, -135167.25, -275213.5, 30891.547, 0.007963567, -0.005704473, -128655.9, -120367.66, 0.0, 5.0276527, 4.9308214 
8.910577e+2, 3.0406803e+2, -106476.29, -236827.81, 23073.701, 0.01320541, -0.017102504, -102512.516, -102512.516, 0.0, 5.020154, 4.930194 
8.9067674e+2, 3.0898166e+2, -81135.04, -192931.55, 23390.018, 0.021118414, -0.03595643, -76438.68, -76438.68, 0.0, 5.010193, 4.932523 
8.9029205e+2, 3.1391868e+2, -46152.168, -102527.57, 9925.391, -0.002563511, 0.026686486, -44455.76, -44455.76, 0.0, 5.000867, 4.9609027 
8.8989997e+2, 3.1886712e+2, -70577.266, -105901.83, 8537.895, -0.018764464, 0.023273222, -68621.91, -68621.91, 0.0, 4.9903274, 4.96431 
8.895099e+2, 3.238245e+2, -85865.47, -93668.86, 16504.404, -0.04970294, 0.06867424, -72807.84, -72807.84, 0.0, 4.9812913, 4.9725647 
8.8913727e+2, 3.2878512e+2, -16200.505, 9367.394, 15820.048, -0.07470294, 0.040943738, 16923.14, 16923.14, 0.0, 4.9923964, 5.00551 
9.06791e+2, 1.3573623e+2, -1504322.0, -1608447.5, 11795.8125, -0.0001555055, -0.00069290504, -1503002.5, 106788.18, 0.0, 5.0770636, 5.005491 
9.064601e+2, 1.4073068e+2, -1461396.5, -1563791.6, 14178.993, 0.009647582, 0.0070290365, -1459469.4, 101370.78, 0.0, 5.075539, 5.0049934 
9.0613085e+2, 1.4572251e+2, -1419073.0, -1522027.6, 19803.32, 0.0015542721, 0.0036235065, -1415395.3, 96524.08, 0.0, 5.0744147, 5.0032897 
9.0580755e+2, 1.5071335e+2, -1375224.6, -1474952.8, 28140.963, -0.017605036, 0.000033712324, -1367831.9, 95176.484, 0.0, 5.0731616, 5.003263 
9.055011e+2, 1.5570281e+2, -1337881.8, -1436824.4, 41463.348, -0.011151734, -0.0017630755, -1322803.8, 91307.02, 0.0, 5.0715914, 4.999994 
9.0520227e+2, 1.606904e+2, -1291805.4, -1390472.8, 41987.2, 0.004553601, -0.006085322, -1276356.9, 88875.13, 0.0, 5.071084, 4.9995303 
9.049007e+2, 1.6567723e+2, -1247750.5, -1347240.9, 41755.34, 0.015726965, -0.005723073, -1232548.9, 83812.414, 0.0, 5.07032, 4.9981136 
9.0459794e+2, 1.7066333e+2, -1202467.8, -1299908.3, 44343.887, 0.018588101, -0.0040164487, -1185309.0, 82188.87, 0.0, 5.0693264, 4.998167 
9.043003e+2, 1.756474e+2, -1164953.9, -1264272.4, 52912.91, 0.010121803, -0.0005326993, -1142047.1, 76607.305, 0.0, 5.0678706, 4.9941573 
9.040062e+2, 1.8062916e+2, -1119630.0, -1217723.0, 54290.668, -0.0014306555, 0.0010748657, -1095512.0, 74321.59, 0.0, 5.0669684, 4.993904 
9.0371233e+2, 1.8560983e+2, -1075340.6, -1173590.0, 55454.715, -0.007486771, 0.00048665068, -1050381.1, 70641.48, 0.0, 5.0661006, 4.992795 
9.0341944e+2, 1.9058989e+2, -1029346.94, -1125710.4, 57316.11, -0.005439106, -0.00019108072, -1002651.4, 69566.15, 0.0, 5.06522, 4.992972 
9.031295e+2, 1.9556764e+2, -990755.2, -1091559.0, 62256.28, 0.0016947495, -0.000002546265, -961055.94, 62378.977, 0.0, 5.0641346, 4.988361 
9.0284145e+2, 2.0054273e+2, -945619.25, -1045480.6, 63525.324, 0.010310876, -0.0023070925, -914750.56, 59927.926, 0.0, 5.0632305, 4.987894 
9.025522e+2, 2.0551673e+2, -901551.8, -1001637.1, 64448.063, 0.015317607, -0.0039158734, -869999.0, 55934.18, 0.0, 5.0623055, 4.9866447 
9.022615e+2, 2.1049002e+2, -855555.6, -954035.0, 65107.82, 0.014679867, -0.0049730726, -823164.56, 54030.066, 0.0, 5.061393, 4.986726 
9.019693e+2, 2.1546064e+2, -816961.4, -922117.94, 66959.58, 0.012488237, -0.004125316, -784404.06, 44078.246, 0.0, 5.060425, 4.9813175 
9.016766e+2, 2.2042827e+2, -772275.56, -875988.44, 68672.59, 0.009602183, -0.0043723355, -738079.6, 41719.938, 0.0, 5.0593023, 4.980907 
9.0138334e+2, 2.2539504e+2, -728017.5, -830936.8, 69722.18, 0.00880879, -0.0027729622, -692821.06, 38304.047, 0.0, 5.0582004, 4.9800916 
9.0108895e+2, 2.3036121e+2, -682902.56, -784637.6, 70014.46, 0.010073309, -0.001285467, -647228.06, 35228.684, 0.0, 5.0571547, 4.9797106 
9.0079004e+2, 2.3532386e+2, -644115.1, -754823.4, 68160.516, 0.012614589, 0.0015317745, -611663.0, 22159.467, 0.0, 5.056351, 4.9735017 
9.0048766e+2, 2.4028285e+2, -599972.8, -708884.2, 70008.87, 0.01429944, 0.000498474, -565734.25, 19490.225, 0.0, 5.0550227, 4.9730363 
9.0018415e+2, 2.452406e+2, -556231.0, -663673.25, 71474.016, 0.013015743, -0.0023010327, -520540.16, 16098.235, 0.0, 5.0536556, 4.972311 
8.998785e+2, 2.5019762e+2, -512281.8, -618465.9, 71324.76, 0.010356211, -0.005359934, -476458.22, 11601.303, 0.0, 5.0523295, 4.971565 
8.995651e+2, 2.5515017e+2, -474325.56, -593086.06, 65316.125, 0.0064305095, -0.0047463635, -445432.3, -5907.846, 0.0, 5.051615, 4.963788 
8.9924544e+2, 2.6009855e+2, -430712.5, -546677.6, 67212.555, 0.005049022, -0.0065728663, -399928.5, -8898.059, 0.0, 5.0499167, 4.96358 
8.9892495e+2, 2.6504678e+2, -386945.03, -500238.7, 68109.61, 0.004809195, -0.004914786, -355004.16, -12465.863, 0.0, 5.0482626, 4.963347 
8.986013e+2, 2.6999322e+2, -345853.84, -461496.34, 67252.32, 0.006342402, -0.0039957473, -314983.66, -20919.635, 0.0, 5.0468326, 4.9602857 
8.9826524e+2, 2.7493203e+2, -310338.75, -445272.53, 55717.15, 0.0047346735, 0.0013525607, -290306.03, -44641.25, 0.0, 5.0461864, 4.9493437 
8.979184e+2, 2.798654e+2, -268369.38, -399794.16, 56146.01, 0.0032783407, 0.0013342141, -247649.75, -50331.324, 0.0, 5.043781, 4.9490614 
8.975701e+2, 2.847982e+2, -227597.0, -357303.44, 53219.79, 0.004014198, 0.0041127745, -208555.73, -59578.39, 0.0, 5.041382, 4.9476833 
8.972111e+2, 2.8972843e+2, -191873.7, -322570.13, 45589.395, 0.0009011614, 0.012304645, -177542.67, -76881.32, 0.0, 5.038027, 4.9439874 
8.968376e+2, 2.9464465e+2, -174504.52, -332193.5, 31503.049, 0.0032559845, 0.00028647244, -168443.78, -115961.375, 0.0, 5.0338044, 4.9254303 
8.9645314e+2, 2.995545e+2, -138562.34, -284138.94, 26468.582, 0.011386861, -0.007565757, -133899.22, -129533.01, 0.0, 5.0276027, 4.9277864 
8.96064e+2, 3.0446362e+2, -111881.9, -248856.84, 17083.58, 0.023238877, -0.028391413, -109783.375, -109783.375, 0.0, 5.0198393, 4.926142 
8.956752e+2, 3.0937204e+2, -84362.5, -198908.53, 16634.164, 0.04828189, -0.067068495, -81995.81, -81995.81, 0.0, 5.0097027, 4.930681 
8.95279e+2, 3.1431034e+2, -44576.86, -99884.0, 2372.7239, 0.011155547, 0.009391172, -44475.254, -44475.254, 0.0, 5.00074, 4.9620767 
8.9487404e+2, 3.192619e+2, -66677.84, -100430.1, 352.94315, -0.025536496, 0.016864067, -66674.15, -66674.15, 0.0, 4.990629, 4.9663672 
8.9447033e+2, 3.242252e+2, -83565.21, -93911.64, 16052.681, -0.113103, 0.10167868, -71872.76, -71872.76, 0.0, 4.9821057, 4.9722667 
8.941257e+2, 3.2916942e+2, -30150.85, -28326.44, 41915.684, -0.021618, -0.014690384, 12686.964, 12686.964, 0.0, 4.9940715, 4.9904895 
9.118535e+2, 1.3607477e+2, -1521435.1, -1611165.5, 10466.754, 0.0035155835, -0.00038405537, -1520230.4, 86242.695, 0.0, 5.0698986, 5.0080547 
9.115212e+2, 1.4107165e+2, -1476788.0, -1566071.1, 13737.02, 0.010001192, 0.0072737406, -1474722.3, 82776.01, 0.0, 5.0690646, 5.0073547 
9.111915e+2, 1.4606565e+2, -1432486.5, -1523426.1, 19746.594, 0.00080338604, 0.0040244227, -1428383.9, 80172.586, 0.0, 5.0686646, 5.0055766 
9.108679e+2, 1.5105863e+2, -1386787.3, -1475884.6, 28184.936, -0.018290028, 0.0008303402, -1378619.9, 81005.37, 0.0, 5.068145, 5.0053463 
9.105612e+2, 1.560501e+2, -1348245.6, -1437232.6, 41893.797, -0.0112284925, -0.00055146473, -1331626.5, 79082.17, 0.0, 5.0670147, 5.002034 
9.1026205e+2, 1.6103964e+2, -1301280.0, -1390343.8, 42347.51, 0.0054116347, -0.0041936603, -1284359.4, 77451.375, 0.0, 5.0668035, 5.0015965 
9.0995985e+2, 1.6602838e+2, -1256119.1, -1346305.6, 42114.766, 0.01708528, -0.0040854695, -1239511.0, 73409.97, 0.0, 5.0663643, 5.0002947 
9.096563e+2, 1.7101647e+2, -1210001.1, -1298470.4, 45301.29, 0.019706141, -0.0028866385, -1190919.8, 73118.0, 0.0, 5.065668, 5.000363 
9.0935785e+2, 1.7600264e+2, -1171566.0, -1261809.6, 53847.594, 0.01091384, -0.0001267064, -1146434.4, 68738.914, 0.0, 5.0644145, 4.9966035 
9.0906286e+2, 1.8098654e+2, -1126079.0, -1215397.5, 55524.89, -0.00096538494, 0.0010265642, -1099482.0, 66849.09, 0.0, 5.063639, 4.996231 
9.0876824e+2, 1.8596925e+2, -1081568.9, -1171170.0, 57040.344, -0.006843493, 0.0006814936, -1053838.8, 63661.68, 0.0, 5.062877, 4.9950914 
9.084747e+2, 1.9095138e+2, -1035327.25, -1123110.5, 59216.51, -0.0046124123, 0.00027750083, -1005509.5, 63166.11, 0.0, 5.062086, 4.995281 
9.0818393e+2, 1.9593138e+2, -996188.5, -1087790.9, 64443.984, 0.0030212295, 0.00062764983, -962927.8, 56943.527, 0.0, 5.0610304, 4.9910517 
9.078951e+2, 2.0090884e+2, -951094.9, -1041649.94, 66136.375, 0.01208635, -0.0012534185, -916222.06, 54869.75, 0.0, 5.0601296, 4.990591 
9.0760493e+2, 2.0588514e+2, -906960.2, -997634.9, 67367.875, 0.016794574, -0.0029729917, -871094.7, 51228.996, 0.0, 5.059233, 4.989373 
9.073132e+2, 2.1086086e+2, -860638.7, -949329.8, 68471.87, 0.015881905, -0.0040561827, -823406.5, 50154.65, 0.0, 5.058355, 4.989673 
9.070201e+2, 2.1583414e+2, -821431.6, -915923.94, 70745.945, 0.01285329, -0.0037262451, -783606.1, 41216.535, 0.0, 5.057412, 4.9847507 
9.067261e+2, 2.2080459e+2, -776851.6, -869923.0, 72953.664, 0.009161126, -0.0044551534, -736855.2, 39256.87, 0.0, 5.0563254, 4.9842567 
9.0643173e+2, 2.257741e+2, -732640.3, -824496.94, 74769.24, 0.0076966216, -0.0035463702, -690819.9, 36590.996, 0.0, 5.0551896, 4.9835653 
9.0613616e+2, 2.3074313e+2, -687381.6, -777257.5, 75494.9, 0.008967919, -0.002500624, -644462.3, 34252.09, 0.0, 5.0540776, 4.9835224 
9.0583605e+2, 2.3570922e+2, -648121.3, -745667.44, 74346.664, 0.012016952, 0.0009128583, -607977.4, 22069.365, 0.0, 5.053214, 4.9779263 
9.055324e+2, 2.4067186e+2, -604209.44, -699459.1, 77221.25, 0.014643675, 0.00097055396, -561108.06, 20304.607, 0.0, 5.0518236, 4.977552 
9.052276e+2, 2.4563327e+2, -560494.3, -653635.0, 79392.99, 0.014788936, -0.0012064334, -515020.94, 17769.764, 0.0, 5.0504107, 4.9770327 
9.049205e+2, 2.505941e+2, -516632.1, -607795.94, 80849.27, 0.01355885, -0.0033585094, -469400.7, 14773.521, 0.0, 5.0490117, 4.9765224 
9.046055e+2, 2.5555065e+2, -478400.97, -579788.2, 76487.12, 0.0100976685, -0.004511539, -437333.38, -1733.6062, 0.0, 5.048054, 4.969701 
9.0428394e+2, 2.605033e+2, -435282.94, -532794.6, 80959.33, 0.007965763, -0.008113091, -389531.94, -2468.1418, 0.0, 5.046251, 4.9696627 
9.0396154e+2, 2.654558e+2, -391587.97, -484965.22, 84019.24, 0.006752829, -0.007887132, -342156.56, -3626.9338, 0.0, 5.044533, 4.969864 
9.0363604e+2, 2.7040693e+2, -350283.53, -444025.88, 86485.77, 0.0059834034, -0.0069891782, -298784.5, -8774.964, 0.0, 5.0430837, 4.967479 
9.032978e+2, 2.7535135e+2, -313140.66, -422027.84, 79114.13, 0.0047032624, -0.0023091652, -271547.0, -29992.477, 0.0, 5.0424356, 4.958398 
9.029485e+2, 2.802905e+2, -273111.88, -376145.34, 85974.5, 0.00559673, -0.0017344707, -224400.92, -31249.744, 0.0, 5.0396676, 4.958188 
9.0259767e+2, 2.8522855e+2, -231751.33, -331356.9, 89171.125, 0.009436344, 0.0006174956, -179417.89, -34658.918, 0.0, 5.0376863, 4.957183 
9.0223455e+2, 2.9016364e+2, -195679.92, -291901.47, 86428.4, 0.010737125, 0.0027267516, -144873.98, -48478.44, 0.0, 5.034198, 4.9549103 
9.018543e+2, 2.9508588e+2, -181558.06, -297664.28, 84766.195, 0.011840658, -0.0027738765, -136871.36, -88713.625, 0.0, 5.0290284, 4.937433 
9.0146154e+2, 3.0000103e+2, -150387.63, -246935.75, 92822.38, 0.0115047125, -0.0038887826, -94036.74, -94036.74, 0.0, 5.0216084, 4.940653 
9.010612e+2, 3.0491486e+2, -134372.14, -215682.25, 94732.055, 0.008677298, -0.010930166, -71939.875, -71939.875, 0.0, 5.011288, 4.937961 
9.006635e+2, 3.0982298e+2, -105700.8, -183806.5, 98719.22, 0.028592696, -0.02756322, -38590.523, -38590.523, 0.0, 5.0057983, 4.933756 
9.00267e+2, 3.1474027e+2, -43392.656, -125309.586, 60766.65, 0.019211797, -0.0043447395, -11069.598, -11069.598, 0.0, 5.0128813, 4.9442143 
8.99865e+2, 3.196631e+2, -5430.748, -117236.08, 15307.034, 0.019574128, -0.04129462, -3372.9675, -3372.9675, 0.0, 5.0244913, 4.944136 
8.9946425e+2, 3.2460183e+2, 31296.885, -92748.83, -4008.8477, -0.05693909, 0.003878373, 31426.307, 31426.307, 0.0, 5.03358, 4.9507437 
8.991294e+2, 3.29547e+2, -28354.68, -53169.08, 39677.152, 0.025517577, 0.015224116, 809.9273, 809.9273, 0.0, 4.9991703, 4.9790583 
9.1691256e+2, 1.364136e+2, -1517753.6, -1603676.3, 9499.117, 0.0055963057, -0.0003830081, -1516716.0, 86436.38, 0.0, 5.0698943, 5.010596 
9.1657925e+2, 1.4141288e+2, -1473365.6, -1559305.8, 13472.541, 0.009134365, 0.0067940457, -1471303.0, 82850.52, 0.0, 5.069095, 5.009647 
9.1624945e+2, 1.4640917e+2, -1429279.9, -1517015.1, 19761.254, -0.0007527296, 0.0039912164, -1425034.3, 80155.92, 0.0, 5.068694, 5.007747 
9.15926e+2, 1.5140429e+2, -1383655.5, -1469733.8, 27771.04, -0.019376112, 0.0012119695, -1375473.5, 80764.79, 0.0, 5.0681906, 5.0074306 
9.1561925e+2, 1.5639783e+2, -1345307.5, -1431331.1, 41589.5, -0.011580948, 0.00026700445, -1328488.8, 78813.16, 0.0, 5.06704, 5.004044 
9.1531986e+2, 1.6138946e+2, -1298376.0, -1384423.5, 41776.953, 0.0060844696, -0.0027285125, -1281430.1, 76953.86, 0.0, 5.0668144, 5.003623 
9.150171e+2, 1.663802e+2, -1253048.9, -1340076.4, 41267.254, 0.01834436, -0.0029663974, -1236592.4, 72881.664, 0.0, 5.0663753, 5.002438 
9.14713e+2, 1.7137037e+2, -1207043.5, -1292253.6, 44875.414, 0.020800468, -0.0022077553, -1187769.6, 72800.22, 0.0, 5.0656557, 5.002512 
9.144138e+2, 1.763588e+2, -1168171.5, -1254775.3, 53034.086, 0.011718516, -0.000068914014, -1143006.9, 68675.94, 0.0, 5.0644116, 4.9990373 
9.1411805e+2, 1.8134506e+2, -1122905.5, -1208811.9, 54736.984, -0.00057504355, 0.0009399839, -1096280.6, 66536.85, 0.0, 5.0636373, 4.9985166 
9.1382265e+2, 1.8632999e+2, -1078594.3, -1164942.1, 56269.387, -0.006289233, 0.0011514892, -1050844.1, 63121.348, 0.0, 5.06287, 4.9972596 
9.135283e+2, 1.9131435e+2, -1032198.44, -1116590.1, 58303.734, -0.0037746537, 0.0010905846, -1002423.3, 62695.523, 0.0, 5.0620823, 4.9975586 
9.1323686e+2, 1.9629687e+2, -992554.56, -1080198.8, 63446.81, 0.0043036663, 0.0016866513, -959267.2, 57023.29, 0.0, 5.0610275, 4.9937067 
9.129471e+2, 2.01277e+2, -947626.3, -1034398.44, 65047.94, 0.01359558, 0.0002655042, -912822.94, 54662.27, 0.0, 5.0601287, 4.993133 
9.1265595e+2, 2.0625588e+2, -903219.06, -989803.4, 66318.77, 0.017635103, -0.0016198873, -867312.8, 51378.684, 0.0, 5.059236, 4.9921236 
9.123633e+2, 2.1123433e+2, -856909.0, -941456.25, 67458.22, 0.016204877, -0.0028386263, -819573.1, 50328.938, 0.0, 5.0583525, 4.9924493 
9.1206896e+2, 2.1621065e+2, -816927.6, -906406.0, 69496.41, 0.012241134, -0.0028145688, -779014.9, 42118.6, 0.0, 5.0574117, 4.9881096 
9.1177386e+2, 2.2118436e+2, -772424.9, -860535.1, 71692.83, 0.00765196, -0.0035999133, -732333.0, 40057.56, 0.0, 5.0563245, 4.9875784 
9.1147834e+2, 2.2615707e+2, -728454.1, -815634.2, 73252.73, 0.00623208, -0.002808121, -686803.0, 36855.043, 0.0, 5.0551867, 4.986714 
9.1118145e+2, 2.3112944e+2, -682688.0, -767257.44, 74141.67, 0.007425885, -0.0020618162, -639620.56, 35308.344, 0.0, 5.0540767, 4.987084 
9.108801e+2, 2.3609942e+2, -642421.06, -733528.5, 72685.8, 0.010503341, 0.0011431708, -602193.8, 24029.17, 0.0, 5.053218, 4.982253 
9.105751e+2, 2.4106635e+2, -598606.75, -687468.25, 75433.72, 0.013476451, 0.0011657438, -555491.3, 22055.855, 0.0, 5.051822, 4.981839 
9.102689e+2, 2.4603203e+2, -554714.75, -641265.6, 77494.43, 0.01467485, -0.0014023772, -509231.25, 19651.861, 0.0, 5.0504146, 4.981469 
9.0996045e+2, 2.5099748e+2, -510229.78, -593997.94, 78984.94, 0.015141135, -0.0036366356, -462710.84, 17510.549, 0.0, 5.049012, 4.981486 
9.0964377e+2, 2.5595954e+2, -470331.28, -562330.25, 74176.055, 0.013578107, -0.0056657065, -429049.38, 2543.3503, 0.0, 5.0480556, 4.9759793 
9.093204e+2, 2.6091847e+2, -427324.94, -515633.47, 78694.22, 0.011226456, -0.008634567, -381244.06, 1751.3468, 0.0, 5.0462728, 4.9758444 
9.089961e+2, 2.6587707e+2, -383658.34, -467576.2, 81802.195, 0.008881941, -0.008443895, -333681.7, 719.59186, 0.0, 5.044522, 4.9761553 
9.086685e+2, 2.7083522e+2, -340378.84, -422279.03, 84061.914, 0.005109899, -0.0056419275, -287823.25, -2011.7957, 0.0, 5.0430984, 4.975341 
9.0832794e+2, 2.7578905e+2, -299616.25, -393085.0, 75294.76, 0.0024529372, -0.00030047615, -257731.2, -20466.684, 0.0, 5.0425425, 4.9688697 
9.0797603e+2, 2.8073844e+2, -259772.05, -348000.16, 82480.51, 0.0037997735, -0.00005099679, -210349.56, -21588.44, 0.0, 5.0398874, 4.968342 
9.076236e+2, 2.8568584e+2, -216843.25, -301479.9, 86201.164, 0.009718948, -0.00044271752, -163133.03, -22856.121, 0.0, 5.0383034, 4.9678197 
9.0725744e+2, 2.9063213e+2, -175225.19, -252473.63, 80906.83, 0.021682642, -0.008609252, -124195.94, -32392.016, 0.0, 5.0353794, 4.9688053 
9.0687025e+2, 2.9557186e+2, -153951.55, -244984.84, 79205.32, 0.019915232, -0.00085851783, -108115.87, -64720.63, 0.0, 5.030882, 4.955682 
9.064686e+2, 3.0050594e+2, -121573.195, -195088.0, 88491.625, 0.00092023663, 0.014295464, -62508.5, -62508.5, 0.0, 5.024407, 4.9581456 
9.060524e+2, 3.054392e+2, -114310.55, -182375.17, 91410.17, -0.04276909, 0.041608132, -50803.035, -50803.035, 0.0, 5.0140224, 4.9486146 
9.0564585e+2, 3.1034988e+2, -121377.91, -249568.56, 111041.28, -0.10071308, 0.12872365, -57261.0, -57261.0, 0.0, 5.0120997, 4.9075084 
9.0526664e+2, 3.1521374e+2, -94516.86, -305772.34, 80396.086, -0.07344449, 0.10132016, -67401.43, -67401.43, 0.0, 5.025612, 4.874318 
9.0489274e+2, 3.2005832e+2, -31366.758, -285831.38, 21741.37, 0.001457642, -0.015501793, -29522.549, -29522.549, 0.0, 5.0454426, 4.8749466 
9.045309e+2, 3.2491744e+2, 64700.406, -121903.664, -25626.783, 0.21666531, -0.27601337, 68155.81, 68155.81, 0.0, 5.0535936, 4.93208 
9.040797e+2, 3.2993883e+2, -20361.576, 179661.1, -5230.629, -0.12028375, 0.019398844, 179797.8, 179797.8, 0.0, 4.9545016, 5.0868936 
9.2197114e+2, 1.3675262e+2, -1516029.9, -1597324.0, 9156.705, 0.005881459, -0.0014944308, -1515011.3, 84818.164, 0.0, 5.069245, 5.0130754 
9.2163765e+2, 1.4175425e+2, -1470309.6, -1552687.0, 13192.237, 0.011067547, 0.005586766, -1468248.5, 82558.984, 0.0, 5.068988, 5.0119615 
9.213076e+2, 1.4675279e+2, -1426691.8, -1511221.0, 19983.666, -0.001354533, 0.0036845172, -1422205.5, 79617.13, 0.0, 5.068581, 5.009779 
9.2098415e+2, 1.5175007e+2, -1380957.0, -1463824.8, 27280.088, -0.01990843, 0.0014633707, -1372782.8, 80067.35, 0.0, 5.0680904, 5.0095067 
9.206773e+2, 1.5674569e+2, -1342794.6, -1425663.3, 41272.426, -0.011906591, 0.00108452, -1325746.4, 78147.66, 0.0, 5.066924, 5.006044 
9.203776e+2, 1.6173936e+2, -1296074.5, -1378768.4, 41173.355, 0.006573321, -0.0012306815, -1279070.6, 75885.44, 0.0, 5.066611, 5.0056634 
9.2007434e+2, 1.6673213e+2, -1250467.5, -1334124.8, 40626.055, 0.019500244, -0.0018428022, -1233985.6, 72040.375, 0.0, 5.0662336, 5.004557 
9.197697e+2, 1.717244e+2, -1204194.0, -1286120.1, 44274.367, 0.02180526, -0.001569139, -1184839.6, 72261.375, 0.0, 5.065605, 5.0046544 
9.194697e+2, 1.7671508e+2, -1164838.4, -1247781.4, 52183.29, 0.012469947, -0.000089454596, -1139654.1, 68537.28, 0.0, 5.0643907, 5.001467 
9.191732e+2, 1.8170366e+2, -1119870.1, -1202550.3, 53820.09, -0.00012847291, 0.0009736668, -1093345.5, 65957.53, 0.0, 5.063641, 5.00069 
9.18877e+2, 1.866908e+2, -1075410.3, -1158341.5, 55480.89, -0.005812124, 0.001707429, -1047611.7, 62817.992, 0.0, 5.062876, 4.999553 
9.1858196e+2, 1.9167747e+2, -1029150.44, -1110233.5, 57488.59, -0.0029435277, 0.0019776202, -999346.0, 62215.3, 0.0, 5.062082, 4.999779 
9.182898e+2, 1.9666247e+2, -988933.2, -1072613.4, 62478.074, 0.0056539113, 0.002801227, -955579.5, 57129.363, 0.0, 5.0610223, 4.996363 
9.179991e+2, 2.0164524e+2, -944009.9, -1026814.1, 64091.066, 0.014953187, 0.0018455539, -909111.25, 54766.535, 0.0, 5.0601263, 4.9957952 
9.177069e+2, 2.0662671e+2, -899586.9, -982183.1, 65114.07, 0.018496342, -0.00011178704, -863778.75, 51279.613, 0.0, 5.0592318, 4.9948072 
9.1741323e+2, 2.1160787e+2, -853286.5, -933789.25, 66504.9, 0.016409941, -0.001582014, -815800.7, 50441.375, 0.0, 5.0583487, 4.9951563 
9.171178e+2, 2.1658723e+2, -812431.6, -896899.56, 68246.836, 0.011478542, -0.0019806547, -774407.6, 43035.797, 0.0, 5.0574117, 4.9914694 
9.1682154e+2, 2.2156423e+2, -768191.2, -851557.7, 70474.03, 0.006062605, -0.002658497, -727995.94, 40672.266, 0.0, 5.056322, 4.990762 
9.1652477e+2, 2.2654012e+2, -723998.2, -806203.8, 71642.164, 0.0048061553, -0.002124389, -682505.4, 37399.246, 0.0, 5.0551887, 4.990064 
9.162267e+2, 2.3151587e+2, -678136.94, -757556.25, 72819.39, 0.0058477083, -0.0015438938, -634903.75, 36238.7, 0.0, 5.054075, 4.990545 
9.15924e+2, 2.3648976e+2, -636731.8, -721407.44, 71026.414, 0.008936164, 0.001336653, -596382.0, 26016.318, 0.0, 5.053222, 4.986582 
9.156176e+2, 2.4146092e+2, -592982.2, -675463.7, 73761.56, 0.012312841, 0.001218853, -549715.1, 23965.602, 0.0, 5.051829, 4.9861374 
9.1531014e+2, 2.4643096e+2, -549062.7, -629089.56, 75592.375, 0.015136055, -0.0010471594, -503546.72, 21427.129, 0.0, 5.0504065, 4.9858484 
9.150003e+2, 2.51401e+2, -503769.3, -580114.44, 76970.53, 0.017425006, -0.003923936, -456025.6, 20241.314, 0.0, 5.049017, 4.98649 
9.14682e+2, 2.5636858e+2, -462283.9, -544912.2, 71879.64, 0.017473944, -0.0072055575, -420691.22, 6893.0483, 0.0, 5.048058, 4.9822607 
9.143568e+2, 2.6133373e+2, -419489.7, -498743.66, 76278.84, 0.014748336, -0.009695538, -373158.78, 5766.8315, 0.0, 5.046295, 4.981944 
9.140304e+2, 2.6629847e+2, -375617.72, -449923.5, 79585.5, 0.0107963225, -0.0090927845, -324940.13, 5331.1323, 0.0, 5.0445094, 4.98256 
9.137009e+2, 2.71264e+2, -330383.4, -400444.56, 81594.13, 0.0038453334, -0.0037772034, -276617.9, 4991.532, 0.0, 5.043128, 4.9832644 
9.133579e+2, 2.7622718e+2, -286376.78, -364624.06, 71672.7, 0.0003596046, 0.0025746298, -243844.84, -10874.546, 0.0, 5.042637, 4.979222 
9.130036e+2, 2.8118664e+2, -247357.89, -321419.34, 79142.27, 0.0022508414, 0.0018901895, -197011.42, -12643.644, 0.0, 5.0399995, 4.978031 
9.1264975e+2, 2.8614345e+2, -202616.55, -271323.3, 82552.914, 0.011620729, -0.0023470772, -147554.39, -11762.559, 0.0, 5.0385303, 4.9787965 
9.122801e+2, 2.9110134e+2, -157181.66, -213650.94, 74616.97, 0.033059865, -0.021035563, -105636.06, -18430.373, 0.0, 5.035517, 4.98308 
9.118859e+2, 2.9605842e+2, -131204.0, -195285.34, 71498.81, 0.027100429, -0.0048011835, -84894.914, -46267.684, 0.0, 5.0309544, 4.9738975 
9.114752e+2, 3.0101117e+2, -99381.234, -145267.86, 78311.84, -0.011443725, 0.021939619, -40720.996, -40720.996, 0.0, 5.0242586, 4.9764805 
9.2702734e+2, 1.370919e+2, -1522617.3, -1594970.6, 9584.741, 0.0025238446, -0.004635683, -1521369.0, 75134.016, 0.0, 5.065779, 5.0155454 
9.266949e+2, 1.4209586e+2, -1475651.0, -1550309.3, 13682.457, 0.016011624, 0.0030467766, -1473222.4, 74236.19, 0.0, 5.0660906, 5.0141554 
9.263648e+2, 1.4709663e+2, -1430843.9, -1507994.5, 20855.723, 0.00041061646, 0.0019317453, -1425567.0, 72885.43, 0.0, 5.066059, 5.0120683 
9.2604136e+2, 1.520961e+2, -1384851.0, -1461113.5, 27759.275, -0.018848347, 0.0012107565, -1375816.9, 73642.03, 0.0, 5.0657506, 5.0115533 
9.2573434e+2, 1.570937e+2, -1346589.4, -1422940.0, 41648.574, -0.011814269, 0.0014556121, -1328267.3, 72216.39, 0.0, 5.064621, 5.008079 
9.254344e+2, 1.6208942e+2, -1298898.9, -1375425.1, 41300.93, 0.0068478202, -0.00053223036, -1280860.8, 70665.41, 0.0, 5.0646124, 5.007762 
9.251307e+2, 1.6708417e+2, -1252429.0, -1330161.9, 40845.805, 0.020342814, -0.0014725642, -1234913.0, 67663.62, 0.0, 5.0645065, 5.006731 
9.248257e+2, 1.7207852e+2, -1205493.9, -1281871.1, 44155.414, 0.022257151, -0.001389088, -1185303.9, 68327.305, 0.0, 5.064118, 5.0068154 
9.2452514e+2, 1.7707148e+2, -1164678.5, -1242164.1, 52033.543, 0.011898154, 0.00018552081, -1138548.4, 66150.77, 0.0, 5.0632706, 5.003928 
9.2422783e+2, 1.8206239e+2, -1119055.6, -1197004.4, 53621.5, -0.0011582569, 0.0014469979, -1091740.8, 64047.27, 0.0, 5.06283, 5.002987 
9.239312e+2, 1.8705176e+2, -1073674.1, -1152217.4, 55104.08, -0.0065228734, 0.002309367, -1045279.56, 61613.535, 0.0, 5.0623484, 5.0019274 
9.236355e+2, 1.9204064e+2, -1026996.75, -1104286.8, 57246.453, -0.0033419104, 0.0025750543, -996572.3, 61430.58, 0.0, 5.061786, 5.00199 
9.233425e+2, 1.9702812e+2, -985465.75, -1064951.8, 61882.918, 0.006092005, 0.003200345, -951662.8, 57463.47, 0.0, 5.060946, 4.9990783 
9.23051e+2, 2.0201354e+2, -940271.9, -1019307.8, 63461.082, 0.015937913, 0.0022520465, -905030.4, 55239.055, 0.0, 5.0602093, 4.9983926 
9.2275786e+2, 2.069976e+2, -895164.06, -974013.2, 64324.0, 0.01899891, 0.0005982062, -859144.1, 52280.23, 0.0, 5.059492, 4.9975605 
9.2246324e+2, 2.119815e+2, -848528.5, -925489.94, 65858.26, 0.016394246, -0.00057486625, -810732.9, 51848.19, 0.0, 5.058749, 4.997897 
9.2216676e+2, 2.1696392e+2, -806495.9, -886697.5, 67208.16, 0.010958002, -0.001102636, -768334.25, 45418.28, 0.0, 5.057939, 4.9948325 
9.218694e+2, 2.2194418e+2, -762261.7, -841565.3, 69182.484, 0.0054872357, -0.0017018482, -722173.44, 42771.824, 0.0, 5.0568953, 4.9940414 
9.2157143e+2, 2.2692326e+2, -717905.6, -796044.2, 70418.93, 0.00444042, -0.0013311708, -676444.0, 39706.285, 0.0, 5.0558076, 4.9933944 
9.2127204e+2, 2.3190238e+2, -671985.9, -747217.0, 71543.16, 0.0051280083, -0.000913785, -628772.25, 38582.758, 0.0, 5.054688, 4.9939556 
9.2096794e+2, 2.3688014e+2, -629625.75, -708613.6, 69356.96, 0.008240699, 0.0014432877, -589306.44, 29266.527, 0.0, 5.0537543, 4.990915 
9.206602e+2, 2.4185558e+2, -586335.06, -663268.9, 71798.45, 0.012265824, 0.0012934366, -543348.2, 26465.445, 0.0, 5.0522847, 4.9903016 
9.203513e+2, 2.4683e+2, -542104.7, -616141.44, 73951.66, 0.01592353, -0.00036161757, -496423.56, 24640.111, 0.0, 5.0508657, 4.990291 
9.200401e+2, 2.5180468e+2, -496000.22, -565591.44, 74778.01, 0.019957734, -0.004257237, -448318.66, 23992.566, 0.0, 5.0495076, 4.9915085 
9.197201e+2, 2.5677776e+2, -452816.06, -526798.3, 69535.43, 0.021576019, -0.008842186, -411044.75, 12529.674, 0.0, 5.0486, 4.988557 
9.193932e+2, 2.617492e+2, -410867.4, -482057.38, 74122.19, 0.018829955, -0.010472348, -364236.47, 10617.495, 0.0, 5.046762, 4.987777 
9.190647e+2, 2.6672012e+2, -365891.16, -430427.78, 77285.195, 0.013159129, -0.009571473, -314408.38, 11730.38, 0.0, 5.0449324, 4.98944 
9.187332e+2, 2.7169317e+2, -320063.28, -378635.06, 79654.05, 0.0029773226, -0.0011188928, -264482.03, 12920.761, 0.0, 5.043369, 4.9910955 
9.183879e+2, 2.7666578e+2, -273712.66, -336395.88, 68443.4, -0.00079435954, 0.006385749, -229776.14, -1104.794, 0.0, 5.042556, 4.9896064 
9.1803116e+2, 2.816352e+2, -235592.11, -295378.97, 76665.6, 0.0010838442, 0.004050078, -183198.05, -3226.663, 0.0, 5.0399623, 4.987628 
9.176761e+2, 2.866015e+2, -188567.03, -241477.64, 78432.586, 0.015340915, -0.0043035354, -132248.22, -945.5469, 0.0, 5.03875, 4.989715 
9.1730255e+2, 2.9157126e+2, -138541.92, -173751.19, 68062.56, 0.04545443, -0.034784704, -85844.09, -3243.5444, 0.0, 5.0357003, 4.9978557 
9.169012e+2, 2.9654548e+2, -108222.32, -145543.03, 64064.758, 0.03347296, -0.015090009, -60155.605, -26301.256, 0.0, 5.0311527, 4.99226 
9.164808e+2, 3.015165e+2, -73171.55, -86930.84, 66180.53, -0.0227797, 0.014425014, -13514.047, -13514.047, 0.0, 5.0242333, 4.9980984 
9.320782e+2, 1.3743101e+2, -1538176.0, -1598264.3, 6465.0474, 0.0005054739, -0.0067133675, -1537488.3, 55690.082, 0.0, 5.0592356, 5.0177355 
9.317472e+2, 1.4243732e+2, -1489760.1, -1553333.0, 11080.237, 0.020246726, 0.0014587232, -1487884.3, 56227.1, 0.0, 5.0601463, 5.016126 
9.314176e+2, 1.4744039e+2, -1442959.9, -1509966.6, 17799.348, 0.0026052538, 0.0016724834, -1438525.3, 56557.92, 0.0, 5.060776, 5.0140634 
9.310946e+2, 1.5244204e+2, -1395142.9, -1462951.3, 24727.451, -0.017971598, 0.0021735278, -1387083.5, 58985.12, 0.0, 5.061218, 5.0132375 
9.307877e+2, 1.5744165e+2, -1355266.0, -1423923.8, 38594.4, -0.012031652, 0.0026300768, -1337942.3, 59131.973, 0.0, 5.060573, 5.009836 
9.3048763e+2, 1.6243939e+2, -1307104.3, -1376053.5, 38292.957, 0.0067373957, 0.00086533173, -1290053.6, 58043.195, 0.0, 5.0607047, 5.0095625 
9.301838e+2, 1.6743614e+2, -1259920.5, -1330059.5, 38118.313, 0.020245437, -0.00039563293, -1243193.5, 55934.25, 0.0, 5.060778, 5.0086827 
9.2987865e+2, 1.7243259e+2, -1212373.9, -1281615.1, 41069.95, 0.022134861, -0.00036065545, -1193279.3, 56882.574, 0.0, 5.0606136, 5.008714 
9.2957765e+2, 1.7742786e+2, -1170850.0, -1240823.4, 49183.523, 0.0105907535, 0.0013641077, -1145478.6, 55728.734, 0.0, 5.0598493, 5.0061574 
9.2928e+2, 1.824211e+2, -1125269.8, -1195910.4, 50864.883, -0.003130962, 0.0026419116, -1098664.6, 53608.97, 0.0, 5.059454, 5.0050983 
9.289828e+2, 1.8741266e+2, -1079664.4, -1150939.6, 52407.95, -0.008173996, 0.0033183065, -1051925.1, 51431.934, 0.0, 5.0590415, 5.0040617 
9.2868674e+2, 1.9240378e+2, -1032941.4, -1103078.6, 54973.13, -0.0045499536, 0.0034463494, -1002803.75, 51641.17, 0.0, 5.0585384, 5.0040603 
9.283933e+2, 1.9739372e+2, -990650.1, -1062259.4, 59417.34, 0.005349618, 0.0036787607, -957083.4, 48460.883, 0.0, 5.057726, 5.0016513 
9.281011e+2, 2.0238173e+2, -945602.9, -1016868.25, 60862.02, 0.015550022, 0.0022463244, -910709.9, 45951.86, 0.0, 5.05699, 5.000865 
9.278072e+2, 2.0736839e+2, -900481.1, -971226.0, 62081.242, 0.018533383, 0.0005868536, -864402.25, 43389.03, 0.0, 5.056222, 5.0001717 
9.2751175e+2, 2.1235499e+2, -854024.25, -922694.75, 63691.598, 0.015789207, -0.00033677177, -816002.56, 42919.063, 0.0, 5.0554223, 5.0005245 
9.2721444e+2, 2.1734044e+2, -811349.06, -882254.94, 64743.508, 0.010524955, -0.00039909317, -772987.2, 37075.91, 0.0, 5.05456, 4.99806 
9.26916e+2, 2.2232397e+2, -767514.56, -837658.0, 66479.766, 0.005531898, -0.00046381127, -727422.56, 33801.215, 0.0, 5.0534506, 4.9971046 
9.2661697e+2, 2.2730623e+2, -723221.5, -791900.06, 67801.805, 0.0050138477, -0.000017175076, -681558.94, 30838.61, 0.0, 5.0522885, 4.9965734 
9.263164e+2, 2.3228861e+2, -677414.1, -742777.5, 68719.09, 0.006551473, 0.00035605935, -634001.06, 29568.89, 0.0, 5.0510564, 4.99729 
9.260108e+2, 2.3727006e+2, -634634.25, -702226.4, 66072.73, 0.009842043, 0.0014162529, -594215.9, 20536.031, 0.0, 5.049892, 4.9950547 
9.257014e+2, 2.4224952e+2, -592163.2, -657663.7, 68401.67, 0.0130698085, 0.00038392533, -549075.7, 16877.334, 0.0, 5.0482078, 4.994257 
9.2539054e+2, 2.4722801e+2, -548421.8, -610107.7, 69996.38, 0.014397621, -0.0018235645, -502774.34, 14389.014, 0.0, 5.0464582, 4.9945493 
9.2507744e+2, 2.522071e+2, -503136.97, -559794.8, 70255.695, 0.01671265, -0.005275511, -455713.72, 12654.289, 0.0, 5.0447426, 4.995857 
9.247555e+2, 2.5718567e+2, -459461.9, -518018.7, 63798.633, 0.019451445, -0.0075258156, -418544.22, 1033.4459, 0.0, 5.043379, 4.9942174 
9.244267e+2, 2.6216328e+2, -418810.7, -473214.78, 67395.89, 0.019726407, -0.006699022, -373334.28, -2537.3823, 0.0, 5.0408773, 4.9937725 
9.2409647e+2, 2.6714036e+2, -375125.88, -423346.1, 69664.38, 0.017415456, -0.0049488437, -325517.44, -3496.2603, 0.0, 5.0386915, 4.9950027 
9.237628e+2, 2.7211994e+2, -331033.9, -371052.8, 69786.68, 0.010745495, 0.0029685479, -278444.72, -5223.8145, 0.0, 5.0360494, 4.9973803 
9.234143e+2, 2.7710027e+2, -284514.16, -325689.5, 55544.996, 0.0071571902, 0.008646652, -245864.19, -21450.37, 0.0, 5.034372, 4.9975686 
9.230545e+2, 2.8207868e+2, -248204.39, -286671.94, 62574.332, 0.0077497344, 0.007156706, -201974.55, -26349.059, 0.0, 5.0311694, 4.9952097 
9.2269707e+2, 2.8705454e+2, -203043.56, -231340.19, 63965.902, 0.020692049, 0.0004112868, -151679.95, -24816.918, 0.0, 5.028588, 4.9985633 
9.2232114e+2, 2.9203454e+2, -137085.61, -155836.86, 49107.43, 0.051776312, -0.030654453, -96466.81, -18406.502, 0.0, 5.0308084, 5.007547 
9.219156e+2, 2.970203e+2, -88784.445, -117045.26, 35641.355, 0.03929076, -0.024942197, -64574.605, -35373.47, 0.0, 5.0315785, 5.004009 
9.2148757e+2, 3.0200398e+2, -41833.285, -49473.04, 27823.309, -0.018884106, -0.018636731, -17568.861, -17568.861, 0.0, 5.027798, 5.0121455 
9.3712616e+2, 1.3776815e+2, -1534672.8, -1591028.6, 7020.6133, -0.0015255811, -0.009542329, -1533811.4, 56061.547, 0.0, 5.05925, 5.020164 
9.367967e+2, 1.4277671e+2, -1486464.1, -1546483.3, 11924.193, 0.022956328, -0.0010512184, -1484181.9, 56602.29, 0.0, 5.0601554, 5.018434 
9.3646806e+2, 1.4778207e+2, -1440139.3, -1504104.1, 18083.1, 0.004273794, 0.0008147009, -1435381.0, 56353.004, 0.0, 5.0607805, 5.0160494 
9.3614584e+2, 1.5278582e+2, -1392433.4, -1457205.6, 25207.068, -0.017721402, 0.001962007, -1383779.8, 58919.645, 0.0, 5.0612144, 5.015187 
9.358392e+2, 1.5778752e+2, -1352265.4, -1417832.3, 38487.938, -0.012731883, 0.002776482, -1334491.3, 59193.746, 0.0, 5.0605936, 5.0119133 
9.355391e+2, 1.627874e+2, -1304117.6, -1369960.9, 37963.836, 0.0062525594, 0.0014351908, -1286789.0, 57897.67, 0.0, 5.0607224, 5.011647 
9.3523526e+2, 1.6778629e+2, -1256753.1, -1323452.9, 38129.32, 0.019351305, 0.00007097749, -1239446.6, 56250.28, 0.0, 5.060783, 5.0109534 
9.3493e+2, 1.7278495e+2, -1209274.1, -1275319.0, 40581.61, 0.021091761, 0.00044814643, -1189976.9, 56732.36, 0.0, 5.060635, 5.0108857 
9.3462867e+2, 1.7778262e+2, -1167236.9, -1233479.4, 48646.824, 0.008667834, 0.0021560746, -1141506.4, 56224.996, 0.0, 5.059873, 5.008698 
9.343305e+2, 1.8277831e+2, -1121953.5, -1189148.9, 50294.414, -0.005594745, 0.0034894852, -1095067.1, 53706.58, 0.0, 5.0594745, 5.0074453 
9.34033e+2, 1.8777223e+2, -1076265.4, -1143985.0, 51761.707, -0.010439301, 0.00405037, -1048272.44, 51561.61, 0.0, 5.0590615, 5.0064826 
9.337365e+2, 1.9276573e+2, -1029613.8, -1096156.4, 54395.71, -0.0063252016, 0.004052742, -999120.9, 51777.71, 0.0, 5.0585456, 5.00648 
9.3344253e+2, 1.9775829e+2, -986747.8, -1054228.3, 58545.445, 0.004116465, 0.003959682, -952916.06, 49056.246, 0.0, 5.057746, 5.0044646 
9.331495e+2, 2.0274904e+2, -941840.6, -1009111.56, 59859.28, 0.01473724, 0.0024115366, -906814.06, 46248.664, 0.0, 5.057011, 5.003588 
9.328548e+2, 2.0773844e+2, -896705.8, -963398.25, 61088.61, 0.01807201, 0.0010711086, -860454.75, 43710.656, 0.0, 5.056236, 5.0029335 
9.325586e+2, 2.1272781e+2, -850209.8, -914779.1, 62726.984, 0.015360605, 0.0002560341, -811946.8, 43321.62, 0.0, 5.0554385, 5.0033274 
9.322603e+2, 2.1771635e+2, -806809.0, -872895.25, 63493.27, 0.010320015, 0.00031327622, -768275.3, 38104.305, 0.0, 5.0545883, 5.001382 
9.319607e+2, 2.2270314e+2, -763301.56, -828923.8, 65141.895, 0.0050386335, 0.00043937744, -723174.1, 34334.273, 0.0, 5.0534687, 5.000216 
9.3166035e+2, 2.2768852e+2, -718743.94, -782634.5, 66278.07, 0.0043199314, 0.00022916803, -677114.2, 31537.205, 0.0, 5.0523167, 4.9998794 
9.313585e+2, 2.3267418e+2, -672796.2, -733198.9, 67175.34, 0.0065839062, -0.000015895264, -629345.3, 30446.338, 0.0, 5.051083, 5.0007243 
9.310513e+2, 2.3765928e+2, -629070.6, -690711.56, 64194.867, 0.010543891, 0.000083062216, -588680.94, 22256.527, 0.0, 5.0499315, 4.9991913 
9.307401e+2, 2.4264282e+2, -586594.1, -646113.5, 66396.74, 0.01318387, -0.0009358364, -543592.8, 18505.783, 0.0, 5.048251, 4.9984145 
9.304273e+2, 2.4762538e+2, -543074.06, -599002.8, 67921.93, 0.013140684, -0.002130347, -497585.06, 15684.201, 0.0, 5.0464892, 4.9985723 
9.30112e+2, 2.5260875e+2, -497614.88, -548406.7, 68115.67, 0.013225461, -0.003876524, -450314.88, 14117.302, 0.0, 5.0447917, 4.9999933 
9.2978764e+2, 2.5759232e+2, -452343.6, -503398.78, 61148.25, 0.014750384, -0.0042892224, -411608.3, 3984.8828, 0.0, 5.043456, 4.9995437 
9.2945635e+2, 2.6257527e+2, -411607.78, -458412.78, 64436.027, 0.014119743, -0.0039429762, -366456.06, 303.97656, 0.0, 5.0409627, 4.9991713 
9.29124e+2, 2.6755762e+2, -367986.75, -408587.78, 67284.875, 0.012819346, -0.0037935793, -318006.66, -74.054955, 0.0, 5.0387697, 5.0004187 
9.2878777e+2, 2.7254248e+2, -323119.66, -354896.94, 65962.29, 0.009282833, 0.0006119021, -271159.4, -2078.4653, 0.0, 5.036136, 5.003355 
9.2843574e+2, 2.7752882e+2, -275629.44, -306756.16, 52140.55, 0.0070705563, 0.0033341367, -236779.06, -16564.352, 0.0, 5.0344005, 5.004596 
9.280733e+2, 2.82515e+2, -236546.27, -262749.2, 59614.336, 0.009773805, 0.00362852, -188610.7, -17260.396, 0.0, 5.031472, 5.0039644 
9.2771244e+2, 2.8749985e+2, -192114.94, -209429.34, 60913.72, 0.019867508, -0.0016055139, -139246.31, -16746.914, 0.0, 5.028979, 5.0065794 
9.273363e+2, 2.9248753e+2, -127981.31, -139217.39, 48801.16, 0.042504407, -0.022261439, -84475.875, -10855.07, 0.0, 5.031435, 5.0136056 
9.2692995e+2, 2.9747984e+2, -73021.414, -93545.555, 30108.818, 0.027541263, -0.02203571, -51473.875, -26776.852, 0.0, 5.0333567, 5.0124726 
9.264995e+2, 3.0247083e+2, -23662.66, -37525.84, 24622.9, -0.03433657, -0.014758699, -5014.293, -5014.293, 0.0, 5.0328555, 5.0150695 
9.421741e+2, 1.3810529e+2, -1533850.9, -1585031.8, 7078.398, -0.0020557125, -0.008143119, -1532890.0, 53678.414, 0.0, 5.058317, 5.022642 
9.418461e+2, 1.4311594e+2, -1484085.6, -1540112.9, 11657.404, 0.02272122, -0.0029091875, -1481756.9, 55702.89, 0.0, 5.0598497, 5.020735 
9.415183e+2, 1.4812365e+2, -1437967.6, -1498446.8, 17924.98, 0.0038299055, 0.0003880075, -1433054.1, 55332.35, 0.0, 5.0605397, 5.0180817 
9.4119704e+2, 1.5312956e+2, -1390448.0, -1451599.4, 25320.705, -0.018203158, 0.0018696227, -1381324.6, 58006.32, 0.0, 5.0609164, 5.0172305 
9.408907e+2, 1.581334e+2, -1350106.6, -1412044.9, 38046.49, -0.013133783, 0.003019452, -1332018.4, 58277.22, 0.0, 5.0602975, 5.0140395 
9.405907e+2, 1.6313545e+2, -1301851.5, -1364102.1, 37424.477, 0.0063079074, 0.0019007445, -1284300.6, 56975.527, 0.0, 5.060462, 5.0137873 
9.4028676e+2, 1.6813649e+2, -1254158.1, -1317260.4, 37925.914, 0.018937115, 0.00042300648, -1236375.1, 55890.297, 0.0, 5.0606112, 5.0131702 
9.3998134e+2, 1.7313741e+2, -1206711.9, -1269284.3, 40137.28, 0.020099038, 0.0012806586, -1187107.8, 56148.074, 0.0, 5.0604753, 5.0130525 
9.396796e+2, 1.7813748e+2, -1163902.8, -1226294.6, 48061.18, 0.0067983316, 0.0029234528, -1137800.8, 56453.676, 0.0, 5.0598063, 5.0112295 
9.39381e+2, 1.8313561e+2, -1118828.3, -1182572.0, 49752.195, -0.00804653, 0.0044221757, -1091614.6, 53658.22, 0.0, 5.059449, 5.009752 
9.3908304e+2, 1.881319e+2, -1072919.0, -1137069.4, 51166.07, -0.012702355, 0.004852684, -1044605.6, 51704.492, 0.0, 5.059071, 5.0088954 
9.387863e+2, 1.9312777e+2, -1026258.06, -1089163.3, 53739.492, -0.007926129, 0.004604091, -995443.5, 51907.84, 0.0, 5.058548, 5.0089316 
9.384917e+2, 1.9812292e+2, -982918.06, -1046251.0, 57701.152, 0.0029867063, 0.004139697, -948765.2, 49634.332, 0.0, 5.057746, 5.0072722 
9.38198e+2, 2.0311645e+2, -938238.5, -1001605.1, 58963.824, 0.014049423, 0.0028141234, -902984.8, 46477.895, 0.0, 5.0570145, 5.006235 
9.379024e+2, 2.0810857e+2, -892933.75, -955527.5, 60073.926, 0.017624572, 0.0017383533, -856493.06, 44045.51, 0.0, 5.056241, 5.0057163 
9.376054e+2, 2.1310073e+2, -846413.8, -906859.9, 61706.113, 0.0149922585, 0.00094194507, -807926.75, 43687.543, 0.0, 5.0554433, 5.00614 
9.3730605e+2, 2.1809238e+2, -802318.56, -863636.1, 62227.484, 0.010151492, 0.0011040425, -763607.2, 39087.98, 0.0, 5.0546165, 5.004672 
9.370052e+2, 2.2308238e+2, -759018.7, -820053.4, 63859.133, 0.0043423143, 0.0013297186, -718759.6, 35032.71, 0.0, 5.053492, 5.0033774 
9.367037e+2, 2.2807088e+2, -714289.4, -773394.5, 64687.973, 0.003794973, 0.00048327856, -672723.1, 32181.273, 0.0, 5.052339, 5.0031834 
9.364006e+2, 2.3305981e+2, -668260.56, -723795.8, 65642.46, 0.0067024357, -0.00040595702, -624754.25, 31258.277, 0.0, 5.05111, 5.0041 
9.360918e+2, 2.3804855e+2, -623542.2, -679268.7, 62308.848, 0.011211739, -0.0015943323, -583150.4, 23972.006, 0.0, 5.0499725, 5.0033097 
9.357788e+2, 2.4303623e+2, -581360.6, -635302.94, 64192.367, 0.013268919, -0.0019910142, -538703.44, 19539.74, 0.0, 5.0482903, 5.0023174 
9.3546396e+2, 2.4802285e+2, -537709.4, -587849.94, 66118.68, 0.011561794, -0.0021814138, -492067.56, 17306.768, 0.0, 5.046526, 5.0026164 
9.351465e+2, 2.5301054e+2, -491890.3, -536568.6, 65924.17, 0.009372655, -0.0022212716, -444623.2, 15872.003, 0.0, 5.0448403, 5.0043006 
9.348197e+2, 2.579991e+2, -445249.13, -488811.16, 58472.973, 0.00983265, -0.0007489133, -404632.22, 6975.225, 0.0, 5.043533, 5.0048704 
9.344859e+2, 2.629874e+2, -404419.34, -443620.38, 62005.0, 0.00817004, -0.0011727861, -358990.63, 3731.3499, 0.0, 5.041054, 5.0045795 
9.3415153e+2, 2.6797506e+2, -360865.72, -393887.56, 64343.426, 0.009227001, -0.002374412, -310948.6, 2894.073, 0.0, 5.0388455, 5.0058255 
9.338126e+2, 2.7296516e+2, -315236.2, -338806.84, 62120.547, 0.008854313, -0.001990308, -263792.94, 1146.5713, 0.0, 5.0362234, 5.009324 
9.3345696e+2, 2.779575e+2, -266694.7, -287693.72, 48781.777, 0.007263238, -0.0030496777, -227295.28, -11280.74, 0.0, 5.034432, 5.011693 
9.33092e+2, 2.8295177e+2, -225146.8, -237893.88, 56017.586, 0.012298904, -0.0008876773, -175141.33, -8071.1143, 0.0, 5.0314765, 5.0132246 
9.327276e+2, 2.8794563e+2, -182611.61, -189423.4, 59588.984, 0.015678905, -0.002800764, -126331.26, -8200.241, 0.0, 5.0291734, 5.0139804 
9.3235177e+2, 2.929408e+2, -120388.07, -124303.68, 49164.69, 0.031754646, -0.0132072205, -73142.22, -3963.7012, 0.0, 5.031794, 5.019116 
9.319448e+2, 2.979399e+2, -60744.89, -71709.35, 25783.406, 0.016314797, -0.014139738, -39867.324, -19679.707, 0.0, 5.0340295, 5.0207353 
9.315145e+2, 3.029388e+2, -16043.366, -31111.715, 27501.18, -0.04060261, 0.0075590485, 4936.9946, 4936.9946, 0.0, 5.0345154, 5.0171566 
9.472196e+2, 1.3844141e+2, -1540236.6, -1581983.0, 8042.3237, -0.006443332, -0.0022538507, -1538740.9, 44534.316, 0.0, 5.05486, 5.02532 
9.468933e+2, 1.4345406e+2, -1489950.6, -1537740.3, 11744.546, 0.016177462, -0.002350625, -1487220.3, 46927.285, 0.0, 5.0567813, 5.0229845 
9.465669e+2, 1.4846413e+2, -1442381.4, -1495021.5, 18039.781, -0.0015528713, 0.00088655786, -1436792.5, 48258.31, 0.0, 5.057892, 5.020483 
9.4624686e+2, 1.5347229e+2, -1394549.8, -1448486.4, 25085.26, -0.020164654, 0.0022078461, -1384686.6, 51286.305, 0.0, 5.058451, 5.019449 
9.4594127e+2, 1.5847833e+2, -1353615.6, -1408767.9, 37341.33, -0.011866433, 0.0032963124, -1334771.8, 52143.9, 0.0, 5.058011, 5.016256 
9.456414e+2, 1.6348259e+2, -1304855.9, -1360595.9, 36615.215, 0.008743645, 0.0020421592, -1286710.6, 51163.797, 0.0, 5.0583463, 5.016005 
9.4533753e+2, 1.6848588e+2, -1256580.6, -1313455.1, 36928.777, 0.02047858, 0.000942058, -1238408.8, 50432.887, 0.0, 5.0586834, 5.015407 
9.450321e+2, 1.7348915e+2, -1207877.3, -1264852.9, 39197.348, 0.020107927, 0.002081096, -1187909.0, 51900.098, 0.0, 5.0589676, 5.015309 
9.4473016e+2, 1.7849174e+2, -1164056.1, -1220700.5, 46822.105, 0.005483576, 0.0034839376, -1137656.6, 53126.63, 0.0, 5.0584774, 5.0138173 
9.4443125e+2, 1.8349242e+2, -1118407.1, -1177124.8, 48585.707, -0.009907779, 0.0047438946, -1090998.9, 50778.02, 0.0, 5.058411, 5.0121565 
9.4413304e+2, 1.8849114e+2, -1071719.3, -1131276.0, 49951.035, -0.0143125, 0.004938828, -1043343.94, 49446.023, 0.0, 5.058314, 5.0112944 
9.4383603e+2, 1.9348946e+2, -1024031.25, -1082804.4, 52312.305, -0.008709166, 0.0046612164, -993416.56, 50390.188, 0.0, 5.0581303, 5.0113792 
9.4354093e+2, 1.9848733e+2, -979296.9, -1038471.4, 56074.617, 0.0030473259, 0.0042382036, -945482.5, 49345.8, 0.0, 5.057648, 5.0100794 
9.432466e+2, 2.0348364e+2, -934317.25, -994265.0, 57297.484, 0.014313328, 0.0034369223, -899627.1, 46236.914, 0.0, 5.057146, 5.0087886 
9.429501e+2, 2.0847851e+2, -888241.75, -947596.9, 58254.242, 0.017255902, 0.0026973514, -852541.06, 44372.35, 0.0, 5.056593, 5.008388 
9.426523e+2, 2.134735e+2, -841194.0, -898503.8, 59706.13, 0.014126925, 0.0021169411, -803622.56, 44339.31, 0.0, 5.055948, 5.0089025 
9.4235194e+2, 2.1846825e+2, -796322.75, -853909.2, 60028.188, 0.009146976, 0.0025867724, -758539.44, 40472.96, 0.0, 5.0551867, 5.0079 
9.420499e+2, 2.2346145e+2, -752746.2, -810233.25, 61646.03, 0.0030317232, 0.0024059934, -713471.9, 36606.156, 0.0, 5.0541754, 5.006596 
9.417471e+2, 2.2845313e+2, -707704.4, -763504.56, 62404.195, 0.0026456683, 0.00076422223, -667247.3, 33911.72, 0.0, 5.053153, 5.006382 
9.414428e+2, 2.3344533e+2, -661256.9, -713658.25, 63259.305, 0.0061975946, -0.0008097393, -618987.0, 33247.754, 0.0, 5.052068, 5.0073366 
9.4113237e+2, 2.3843776e+2, -615123.1, -666742.8, 59595.383, 0.011455263, -0.0032288178, -575988.7, 27319.68, 0.0, 5.0510707, 5.0073595 
9.408176e+2, 2.4342959e+2, -573324.75, -623804.0, 61501.29, 0.013416498, -0.0025135274, -532085.44, 22302.96, 0.0, 5.0494323, 5.0059943 
9.405008e+2, 2.4842028e+2, -529175.06, -575557.6, 63338.816, 0.010410735, -0.0018509905, -484915.3, 20564.361, 0.0, 5.047739, 5.0065627 
9.401811e+2, 2.534123e+2, -482920.34, -523142.63, 62816.813, 0.0058951867, -0.0004381879, -437073.84, 19484.373, 0.0, 5.0460124, 5.0087013 
9.398519e+2, 2.5840586e+2, -435730.75, -473316.1, 54920.05, 0.005546377, 0.0026049085, -396477.1, 11144.648, 0.0, 5.044507, 5.0101504 
9.3951553e+2, 2.6339948e+2, -395258.66, -427647.7, 58598.29, 0.0028734393, 0.000913886, -350658.25, 8025.8906, 0.0, 5.041777, 5.010165 
9.3917906e+2, 2.6839247e+2, -353092.38, -379294.97, 60442.152, 0.0064146193, -0.00095294724, -304347.9, 5404.682, 0.0, 5.039209, 5.011092 
9.388373e+2, 2.733879e+2, -307371.8, -323405.5, 57528.645, 0.009446437, -0.0050102863, -257304.11, 3493.2366, 0.0, 5.0364237, 5.0150166 
9.384781e+2, 2.7838627e+2, -256800.89, -268005.94, 45066.06, 0.007698092, -0.010601899, -216990.45, -5177.1455, 0.0, 5.0347757, 5.01891 
9.381104e+2, 2.833892e+2, -213608.89, -214011.89, 52250.82, 0.014568377, -0.005404003, -161559.19, 1224.7678, 0.0, 5.031759, 5.022035 
9.377427e+2, 2.8839183e+2, -172512.39, -168590.67, 58848.566, 0.008998629, -0.004125415, -111670.305, 2088.0671, 0.0, 5.029501, 5.0216484 
9.373676e+2, 2.9339442e+2, -113062.45, -110763.22, 49859.06, 0.020191204, -0.0033263923, -62040.523, 2692.411, 0.0, 5.032324, 5.024039 
9.3696016e+2, 2.984006e+2, -48643.54, -50598.32, 21870.313, 0.0071485485, -0.00090265844, -27728.79, -12056.665, 0.0, 5.0347834, 5.0287 
9.365343e+2, 3.0340642e+2, -10111.4795, -25071.988, 33090.54, -0.02418467, 0.028560923, 16333.743, 16333.743, 0.0, 5.0354915, 5.019351 
9.522606e+2, 1.3877484e+2, -1550283.0, -1583387.5, 4154.8623, -0.0109227775, 0.0032591429, -1549769.5, 30239.016, 0.0, 5.050236, 5.0273027 
9.519363e+2, 1.4378941e+2, -1499326.6, -1539667.6, 6636.3735, 0.010120155, -0.00065726513, -1498263.0, 32599.246, 0.0, 5.0525427, 5.0246005 
9.516118e+2, 1.4880165e+2, -1450142.8, -1495762.5, 12686.98, -0.005932874, 0.0019910021, -1446851.9, 34892.035, 0.0, 5.0541005, 5.0222807 
9.512933e+2, 1.5381193e+2, -1401336.4, -1449532.3, 19495.46, -0.022147335, 0.0033792309, -1394437.9, 38207.17, 0.0, 5.0551033, 5.020947 
9.5098865e+2, 1.5881997e+2, -1359267.5, -1409399.8, 30949.121, -0.009985649, 0.0042938306, -1344507.0, 39060.766, 0.0, 5.05496, 5.017803 
9.506891e+2, 1.6382623e+2, -1310581.5, -1361622.6, 30246.684, 0.011678788, 0.002810525, -1296527.3, 37979.56, 0.0, 5.055342, 5.0173917 
9.503854e+2, 1.6883159e+2, -1261800.9, -1313712.5, 30730.633, 0.02239448, 0.00189302, -1247531.4, 37922.703, 0.0, 5.055742, 5.0170226 
9.5008016e+2, 1.7383699e+2, -1212875.5, -1264735.3, 32891.19, 0.021205809, 0.0025857126, -1196922.4, 39478.543, 0.0, 5.0560074, 5.0170693 
9.4977814e+2, 1.788419e+2, -1168400.0, -1220014.4, 40279.805, 0.004589608, 0.0037401342, -1146369.3, 40983.234, 0.0, 5.0556445, 5.0157285 
9.494791e+2, 1.8384492e+2, -1122852.0, -1176724.4, 41954.746, -0.011333735, 0.0047838986, -1099930.9, 38392.043, 0.0, 5.0556, 5.01395 
9.4918084e+2, 1.8884589e+2, -1076224.4, -1131044.5, 43448.28, -0.015424143, 0.004773646, -1052262.6, 37050.813, 0.0, 5.05552, 5.0130124 
9.488838e+2, 1.938465e+2, -1028291.56, -1082266.5, 45637.066, -0.009450376, 0.0043707243, -1002259.56, 38047.965, 0.0, 5.055382, 5.013177 
9.485886e+2, 1.9884683e+2, -982820.5, -1036915.9, 49128.91, 0.0035389715, 0.0036751872, -953785.9, 37518.492, 0.0, 5.055006, 5.0121813 
9.4829375e+2, 2.0384575e+2, -937575.06, -992770.25, 50263.367, 0.014740639, 0.0033436005, -907831.3, 34483.613, 0.0, 5.054633, 5.010807 
9.4799674e+2, 2.0884323e+2, -891304.56, -946440.8, 50976.16, 0.016991222, 0.003855413, -860919.5, 32419.727, 0.0, 5.054231, 5.0102158 
9.4769824e+2, 2.1384084e+2, -843552.5, -896632.2, 52012.215, 0.012713751, 0.004426408, -811700.25, 32662.139, 0.0, 5.0537453, 5.0109057 
9.4739693e+2, 2.1883845e+2, -797544.75, -850629.8, 51854.24, 0.0061048614, 0.005411088, -765834.6, 29550.656, 0.0, 5.0531797, 5.0103188 
9.47094e+2, 2.2383457e+2, -753624.25, -807204.94, 52885.42, -0.000011992395, 0.00410002, -721130.6, 25291.848, 0.0, 5.052346, 5.0088553 
9.4679016e+2, 2.2882907e+2, -707938.1, -760201.94, 53477.43, -0.00048288534, 0.0011828284, -674549.3, 22926.203, 0.0, 5.0515275, 5.0086646 
9.464848e+2, 2.3382418e+2, -660864.44, -710299.3, 53445.09, 0.0035658644, -0.0012537626, -626697.8, 21824.887, 0.0, 5.050666, 5.009563 
9.4617313e+2, 2.3881987e+2, -613253.9, -661940.1, 48803.684, 0.009853494, -0.0033776572, -583059.06, 16504.914, 0.0, 5.0499506, 5.010024 
9.45857e+2, 2.438152e+2, -570766.6, -619101.9, 50030.418, 0.0129874265, -0.0020176105, -539372.44, 11237.08, 0.0, 5.0485697, 5.008544 
9.4553876e+2, 2.4880934e+2, -525994.9, -571776.06, 50189.004, 0.011555585, -0.00009059124, -493722.84, 7944.01, 0.0, 5.0472474, 5.008661 
9.452174e+2, 2.538047e+2, -478428.44, -518835.38, 48450.273, 0.007849797, 0.0015963714, -446138.0, 6574.3066, 0.0, 5.045915, 5.0108705 
9.4488585e+2, 2.588018e+2, -428498.66, -467209.75, 38594.11, 0.0070299124, 0.0034742833, -404678.5, -937.4315, 0.0, 5.045123, 5.0127697 
9.4454694e+2, 2.6379907e+2, -386143.22, -422552.2, 39745.47, 0.0028473868, 0.0003760119, -360631.53, -5863.4614, 0.0, 5.04326, 5.012133 
9.4420785e+2, 2.6879552e+2, -342043.4, -373753.75, 39422.617, 0.004393175, -0.0032471428, -315407.06, -9604.087, 0.0, 5.0412955, 5.013061 
9.438633e+2, 2.7379462e+2, -292598.7, -318085.0, 33326.145, 0.006802968, -0.0075101657, -269662.44, -12850.179, 0.0, 5.0400734, 5.016358 
9.4350195e+2, 2.7879715e+2, -235656.45, -259751.84, 17296.117, 0.0061459113, -0.012330661, -226625.66, -18837.938, 0.0, 5.0405054, 5.0206184 
9.431325e+2, 2.8380513e+2, -186242.97, -204382.13, 17785.197, 0.014445234, -0.0046310127, -175348.31, -16638.633, 0.0, 5.039727, 5.0234637 
9.4276327e+2, 2.8881273e+2, -141396.17, -160682.42, 18575.473, 0.007823037, -0.0010472459, -130109.94, -20474.52, 0.0, 5.039151, 5.0219 
9.423887e+2, 2.9382017e+2, -87782.07, -108563.7, 8020.2837, 0.019473523, 0.0066936477, -85046.805, -24484.291, 0.0, 5.040357, 5.023001 
9.419833e+2, 2.988314e+2, -8955.882, -44322.074, -21414.057, 0.006942753, 0.018377641, 1132.4767, 12584.859, 0.0, 5.048489, 5.027164 
9.4157124e+2, 3.0383858e+2, 51194.125, -21335.986, -4713.6587, 0.03652643, 0.03430381, 51499.18, 51499.18, 0.0, 5.0591784, 5.0128946 
9.573e+2, 1.391042e+2, -1546873.1, -1576395.3, 6038.6934, -0.0149601465, 0.006861248, -1545685.8, 31095.887, 0.0, 5.050302, 5.0296125 
9.569776e+2, 1.4412063e+2, -1496511.3, -1533556.0, 8072.0264, 0.0032486, 0.00009416329, -1494828.8, 32788.63, 0.0, 5.052535, 5.0266542 
9.5665526e+2, 1.491349e+2, -1447370.0, -1489716.9, 13664.782, -0.009933641, 0.0026193755, -1443343.5, 35135.52, 0.0, 5.0540843, 5.024327 
9.563384e+2, 1.5414709e+2, -1398877.4, -1443952.8, 20359.994, -0.024212478, 0.0039517893, -1391042.8, 38318.06, 0.0, 5.0550613, 5.022847 
9.560348e+2, 1.5915717e+2, -1356291.3, -1403220.4, 30954.268, -0.008229466, 0.0046450747, -1340913.1, 39350.35, 0.0, 5.0549655, 5.019917 
9.5573545e+2, 1.641655e+2, -1307792.1, -1355853.1, 30234.373, 0.014219777, 0.0032122598, -1293201.6, 37980.56, 0.0, 5.0553555, 5.019368 
9.55432e+2, 1.69173e+2, -1258729.6, -1307365.9, 30798.75, 0.023844067, 0.0023584277, -1243805.8, 38302.832, 0.0, 5.055761, 5.019203 
9.55127e+2, 1.7418061e+2, -1209499.6, -1257701.9, 32958.953, 0.021804523, 0.0025840006, -1192770.0, 40263.992, 0.0, 5.05602, 5.0194983 
9.5482486e+2, 1.7918795e+2, -1164792.5, -1212696.9, 40014.277, 0.0031305384, 0.0036317548, -1142109.4, 41852.527, 0.0, 5.0556808, 5.0182624 
9.5452577e+2, 1.8419339e+2, -1119493.6, -1169908.5, 41531.613, -0.013072139, 0.004528732, -1096118.3, 38790.14, 0.0, 5.055635, 5.016316 
9.542275e+2, 1.8919668e+2, -1072978.5, -1124358.0, 43338.254, -0.016735869, 0.0042483103, -1048288.06, 37587.742, 0.0, 5.0555453, 5.015342 
9.539304e+2, 1.9419962e+2, -1024907.9, -1075367.1, 45231.195, -0.010136449, 0.0034862375, -998345.6, 38501.07, 0.0, 5.0554175, 5.015588 
9.536351e+2, 1.9920242e+2, -979143.6, -1029458.0, 48563.887, 0.0039650747, 0.0022680408, -949607.7, 38211.24, 0.0, 5.05505, 5.0147963 
9.533397e+2, 2.0420389e+2, -934140.94, -985775.06, 49580.414, 0.014663101, 0.0024830757, -904058.6, 34746.188, 0.0, 5.05467, 5.0132685 
9.530421e+2, 2.092039e+2, -887982.25, -939594.3, 50443.246, 0.0158259, 0.00399674, -857127.25, 32677.504, 0.0, 5.05426, 5.0126348 
9.5274293e+2, 2.1420409e+2, -840078.6, -889582.25, 51154.65, 0.010191408, 0.0056188772, -808002.2, 32801.047, 0.0, 5.053786, 5.0134077 
9.5244074e+2, 2.1920443e+2, -793668.2, -842802.6, 50883.33, 0.0019955682, 0.0072939564, -761731.8, 30068.23, 0.0, 5.0532327, 5.0131044 
9.521369e+2, 2.2420321e+2, -749960.4, -799725.9, 51875.797, -0.0038507218, 0.0054877014, -717308.4, 25502.53, 0.0, 5.0523868, 5.0115256 
9.5183223e+2, 2.292003e+2, -704341.9, -752849.3, 52428.832, -0.0035283577, 0.0018053942, -670828.56, 23009.791, 0.0, 5.0515666, 5.0113006 
9.515259e+2, 2.3419797e+2, -657167.06, -702894.2, 52144.203, 0.0014769781, -0.001453012, -623094.2, 21765.984, 0.0, 5.0507226, 5.012231 
9.51213e+2, 2.3919639e+2, -609239.25, -653932.44, 47350.56, 0.008179968, -0.0040380466, -579227.0, 16647.535, 0.0, 5.050017, 5.0129223 
9.5089537e+2, 2.4419452e+2, -566829.7, -611234.06, 48645.03, 0.010621467, -0.0027824463, -535559.7, 11332.715, 0.0, 5.048639, 5.011397 
9.5057577e+2, 2.491913e+2, -522202.1, -564227.44, 48501.21, 0.009366779, -0.0004337045, -490357.4, 7566.1914, 0.0, 5.0473146, 5.011412 
9.5025283e+2, 2.5418922e+2, -475226.8, -512709.1, 46667.9, 0.0064359205, 0.0013414703, -443677.56, 5266.207, 0.0, 5.0459924, 5.0131226 
9.499195e+2, 2.5918877e+2, -425092.84, -460502.03, 36851.504, 0.0060795136, 0.0027225069, -401913.63, -1965.7025, 0.0, 5.0451903, 5.0152454 
9.4957876e+2, 2.6418832e+2, -383492.78, -417345.0, 37698.94, 0.0027090146, 0.0002885432, -359094.53, -8141.583, 0.0, 5.0432925, 5.0140786 
9.4923735e+2, 2.6918668e+2, -339437.84, -368746.5, 37605.074, 0.0031262715, -0.004113171, -313732.66, -11762.515, 0.0, 5.0413523, 5.0149307 
9.488908e+2, 2.7418733e+2, -290759.47, -314851.97, 31709.4, 0.0041731647, -0.006787005, -268885.25, -15920.787, 0.0, 5.0401416, 5.0175805 
9.4852847e+2, 2.7919096e+2, -235026.6, -258484.64, 16438.719, 0.004258881, -0.009470216, -226561.52, -22631.92, 0.0, 5.0404863, 5.0211225 
9.481582e+2, 2.8419852e+2, -186447.83, -205689.48, 17256.133, 0.010141009, -0.0031503602, -176311.77, -21454.777, 0.0, 5.039831, 5.022964 
9.4778895e+2, 2.8920546e+2, -141369.4, -163238.58, 17380.07, 0.006436501, 0.0024591256, -131770.31, -25980.176, 0.0, 5.039592, 5.0208006 
9.474152e+2, 2.942123e+2, -86353.16, -109919.63, 6567.392, 0.018728271, 0.010853298, -84646.57, -27922.344, 0.0, 5.041219, 5.0221605 
9.470142e+2, 2.9922178e+2, -12726.496, -51652.63, -17006.049, 0.002524357, 0.02671494, -6343.545, 1289.1936, 0.0, 5.0487814, 5.023928 
9.466147e+2, 3.042234e+2, 46659.16, -21621.117, -271.69186, 0.048590157, 0.0007782462, 46660.242, 46660.242, 0.0, 5.0576963, 5.0131087 
9.6234155e+2, 1.394328e+2, -1547005.5, -1571620.5, 6033.6694, 0.005670267, 0.0056523588, -1545606.1, 27955.652, 0.0, 5.0492477, 5.0317216 
9.620189e+2, 1.4445177e+2, -1497116.5, -1528730.8, 9161.155, -0.00082038634, 0.0019521292, -1494653.6, 29719.85, 0.0, 5.051271, 5.0288806 
9.616988e+2, 1.4946811e+2, -1447442.1, -1485170.9, 13989.201, -0.011593297, 0.0037682545, -1442821.1, 32393.203, 0.0, 5.053112, 5.0263243 
9.6138346e+2, 1.5448225e+2, -1398204.3, -1439310.5, 20641.074, -0.025292281, 0.0042498787, -1389628.6, 36448.17, 0.0, 5.0544024, 5.0247297 
9.6108085e+2, 1.5949433e+2, -1354487.3, -1397657.8, 30698.91, -0.0066238013, 0.004134961, -1338544.5, 38414.676, 0.0, 5.0545697, 5.022016 
9.607819e+2, 1.645048e+2, -1305692.8, -1350217.1, 29990.0, 0.016243212, 0.0030007716, -1290605.1, 37251.844, 0.0, 5.0550823, 5.0214396 
9.604786e+2, 1.6951449e+2, -1256396.5, -1301552.3, 30691.643, 0.024708178, 0.0025707202, -1240872.6, 37889.39, 0.0, 5.0555553, 5.021311 
9.6017385e+2, 1.7452435e+2, -1206460.1, -1250816.9, 32978.58, 0.021692531, 0.002590508, -1188896.0, 40769.65, 0.0, 5.055914, 5.021934 
9.5987165e+2, 1.7953414e+2, -1161449.4, -1205584.4, 39591.543, 0.0012706056, 0.0037189126, -1138190.6, 42379.242, 0.0, 5.0556397, 5.0207653 
9.5957243e+2, 1.8454196e+2, -1116207.3, -1163244.8, 41159.47, -0.015033735, 0.004455669, -1092321.0, 39171.637, 0.0, 5.0556707, 5.0186315 
9.592741e+2, 1.8954757e+2, -1069675.8, -1117669.3, 43214.367, -0.018118132, 0.0037996797, -1044242.5, 38194.555, 0.0, 5.0555987, 5.0176606 
9.58977e+2, 1.9455282e+2, -1021439.9, -1068358.3, 44740.254, -0.010601542, 0.0026047665, -994381.5, 39003.336, 0.0, 5.0554667, 5.018034 
9.586815e+2, 1.9955811e+2, -975603.6, -1022186.94, 47965.24, 0.0044846744, 0.0009179353, -945573.94, 38758.707, 0.0, 5.055072, 5.0173583 
9.583857e+2, 2.0456211e+2, -930780.8, -978956.0, 48751.855, 0.014654105, 0.0019462958, -900490.5, 34803.293, 0.0, 5.0547085, 5.0156703 
9.5808744e+2, 2.0956469e+2, -884556.56, -932553.8, 49976.97, 0.014456828, 0.0043261596, -853114.8, 33154.613, 0.0, 5.054295, 5.015122 
9.577876e+2, 2.1456741e+2, -836610.5, -882540.3, 50355.523, 0.007512083, 0.0068794843, -804230.44, 33012.81, 0.0, 5.053829, 5.0159063 
9.574845e+2, 2.1957044e+2, -789829.44, -835040.8, 49812.004, -0.0021183207, 0.009127634, -757733.6, 30480.313, 0.0, 5.053283, 5.01587 
9.571798e+2, 2.2457191e+2, -746249.3, -792130.3, 51072.465, -0.007970718, 0.006875426, -713201.75, 25996.885, 0.0, 5.0524287, 5.0142393 
9.5687425e+2, 2.2957158e+2, -700756.7, -745518.5, 51261.605, -0.0063135535, 0.0024413445, -667203.2, 22997.385, 0.0, 5.051604, 5.0139318 
9.56567e+2, 2.3457184e+2, -653582.0, -695736.9, 50846.97, -0.00046231176, -0.0015149727, -619617.0, 21579.771, 0.0, 5.050781, 5.0148115 
9.562529e+2, 2.3957299e+2, -605329.94, -646141.1, 45879.76, 0.0065989513, -0.0046854066, -575522.56, 16661.824, 0.0, 5.0500827, 5.0157456 
9.559337e+2, 2.4457392e+2, -563128.56, -603925.0, 47028.11, 0.008387953, -0.003022658, -532265.44, 10908.974, 0.0, 5.048711, 5.01405 
9.556126e+2, 2.4957329e+2, -518240.72, -556237.44, 47145.73, 0.006842762, -0.0007283092, -486409.38, 7770.5464, 0.0, 5.0473795, 5.0143228 
9.552882e+2, 2.5457373e+2, -472048.3, -506645.53, 44828.59, 0.005197615, 0.0012730373, -441296.5, 3878.5105, 0.0, 5.046071, 5.015352 
9.549531e+2, 2.5957578e+2, -421838.6, -454130.2, 35125.56, 0.004850864, 0.0020256594, -399325.75, -3171.1707, 0.0, 5.0452585, 5.017598 
9.546103e+2, 2.6457754e+2, -380706.53, -411783.34, 35924.465, 0.0017120518, 0.00007206228, -357104.03, -9965.567, 0.0, 5.0433226, 5.016151 
9.542668e+2, 2.6957777e+2, -337154.47, -364450.78, 35581.316, 0.0016367276, -0.004457421, -312693.53, -14555.873, 0.0, 5.0414057, 5.016538 
9.539182e+2, 2.7457994e+2, -288972.9, -311786.5, 30010.205, 0.001224656, -0.005741069, -268274.75, -19157.262, 0.0, 5.0402164, 5.018737 
9.535548e+2, 2.795846e+2, -234816.22, -258163.5, 15492.707, 0.0025793558, -0.006696781, -227091.47, -27018.004, 0.0, 5.0404673, 5.02127 
9.5318395e+2, 2.8459162e+2, -187325.66, -208259.22, 16421.4, 0.006723679, -0.00074292254, -178318.97, -27311.803, 0.0, 5.0398726, 5.0220184 
9.5281476e+2, 2.8959787e+2, -141974.13, -165402.81, 17481.06, 0.004512168, 0.006524845, -132645.34, -30696.822, 0.0, 5.0397024, 5.019962 
9.524417e+2, 2.9460397e+2, -86918.44, -111810.914, 6924.635, 0.017787356, 0.014324135, -85121.805, -32230.83, 0.0, 5.0413036, 5.0214243 
9.5204526e+2, 2.9961166e+2, -17829.424, -57808.492, -8521.532, -0.005546303, 0.034108654, -16088.84, -12271.104, 0.0, 5.048243, 5.0214624 
9.516561e+2, 3.0460888e+2, 46001.35, -17413.236, 8856.889, 0.036269244, -0.025395557, 47215.13, 47215.13, 0.0, 5.057193, 5.0145564 
9.673824e+2, 1.3975854e+2, -1555472.8, -1571218.0, 5315.684, 0.039633352, 0.00050694786, -1553846.1, 16523.62, 0.0, 5.045439, 5.0336885 
9.67059e+2, 1.4478038e+2, -1503050.8, -1526604.6, 8627.669, 0.0022704583, 0.0034273944, -1500228.6, 20925.61, 0.0, 5.04822, 5.031055 
9.66741e+2, 1.4979874e+2, -1452083.3, -1482292.5, 13250.75, -0.009609991, 0.0025964351, -1447094.8, 24879.566, 0.0, 5.050489, 5.0285373 
9.664274e+2, 1.54815e+2, -1402389.5, -1436581.5, 19651.34, -0.02447112, 0.0015162146, -1393438.5, 29376.697, 0.0, 5.051987, 5.026803 
9.661257e+2, 1.5982929e+2, -1357598.5, -1394175.0, 28999.88, -0.0059257834, -0.00036810728, -1341601.9, 32073.596, 0.0, 5.052404, 5.0242577 
9.65827e+2, 1.6484213e+2, -1308392.3, -1346762.8, 28163.129, 0.015979955, -0.0006279218, -1293500.6, 31049.453, 0.0, 5.0530915, 5.0235944 
9.6552414e+2, 1.6985428e+2, -1258384.4, -1298012.8, 28956.797, 0.023039065, 0.0004685177, -1243111.6, 32319.766, 0.0, 5.053851, 5.0233636 
9.652198e+2, 1.7486663e+2, -1207388.8, -1246102.8, 31305.736, 0.018584326, 0.0017002971, -1189939.0, 36371.75, 0.0, 5.0544314, 5.0242925 
9.6491766e+2, 1.7987904e+2, -1161138.3, -1200127.9, 37433.426, -0.0034776009, 0.004142394, -1138427.5, 38761.777, 0.0, 5.0545154, 5.0232344 
9.6461856e+2, 1.8488936e+2, -1115848.8, -1158431.5, 38796.0, -0.019077824, 0.004827278, -1092885.6, 35202.137, 0.0, 5.054699, 5.020809 
9.643204e+2, 1.8989737e+2, -1068736.8, -1112470.5, 40897.65, -0.020836452, 0.0037925455, -1044227.2, 34781.44, 0.0, 5.054811, 5.0198894 
9.640234e+2, 1.9490507e+2, -1019473.2, -1062272.9, 42156.94, -0.011727727, 0.0020747997, -993595.56, 36336.98, 0.0, 5.054949, 5.0204554 
9.6372795e+2, 1.9991294e+2, -972730.7, -1015500.8, 45375.09, 0.0048455126, -0.000008638111, -943953.8, 36901.066, 0.0, 5.054836, 5.0198674 
9.634317e+2, 2.0491959e+2, -927526.44, -972262.25, 46155.06, 0.014894337, 0.00093112595, -898604.9, 33185.54, 0.0, 5.0546365, 5.0181184 
9.6313304e+2, 2.0992477e+2, -880880.56, -925651.8, 47762.65, 0.013576071, 0.0034805944, -850517.9, 32222.592, 0.0, 5.054384, 5.0175757 
9.6283245e+2, 2.1493019e+2, -832496.5, -875323.25, 48060.29, 0.0055713155, 0.006658096, -801295.0, 32393.29, 0.0, 5.054055, 5.018417 
9.625286e+2, 2.1993607e+2, -785067.56, -827179.4, 47517.52, -0.004924434, 0.00968522, -754149.75, 30481.639, 0.0, 5.053658, 5.0185595 
9.6222293e+2, 2.2494031e+2, -741090.0, -784207.75, 48770.324, -0.011034958, 0.007535291, -709326.0, 26262.732, 0.0, 5.0529723, 5.0168805 
9.6191657e+2, 2.2994268e+2, -695015.56, -737095.06, 49157.746, -0.008770647, 0.0027838273, -662584.25, 23980.072, 0.0, 5.052324, 5.016676 
9.6160835e+2, 2.349457e+2, -647846.9, -687967.8, 48605.77, -0.0022178036, -0.0009577292, -615324.6, 22208.8, 0.0, 5.0516357, 5.017273 
9.61293e+2, 2.3994963e+2, -598846.3, -637116.44, 43615.926, 0.0054875044, -0.0049220766, -570352.6, 18140.998, 0.0, 5.0510254, 5.018637 
9.6097237e+2, 2.4495338e+2, -556806.1, -595715.56, 45050.176, 0.0064885067, -0.003176809, -527189.44, 12266.412, 0.0, 5.049753, 5.0166183 
9.6064967e+2, 2.4995533e+2, -511590.38, -547563.3, 45733.246, 0.00404867, -0.0014762365, -480433.75, 10002.097, 0.0, 5.0485125, 5.0170193 
9.603237e+2, 2.5495827e+2, -465470.03, -498676.84, 42926.72, 0.0038673186, 0.00030662186, -436047.6, 5358.4575, 0.0, 5.0472984, 5.017773 
9.599866e+2, 2.599629e+2, -415686.75, -446913.3, 33590.715, 0.003309195, 0.0010169478, -394258.03, -1897.6573, 0.0, 5.0464716, 5.0197606 
9.596419e+2, 2.6496685e+2, -374348.7, -404224.75, 34374.188, 0.00037325607, -0.00011158941, -351807.0, -8483.956, 0.0, 5.044577, 5.0184216 
9.592963e+2, 2.6996896e+2, -331915.03, -359122.78, 33831.67, -0.000012007015, -0.0038840414, -309054.56, -14750.273, 0.0, 5.042605, 5.0180216 
9.5894563e+2, 2.7497265e+2, -285015.78, -308192.66, 28382.822, -0.0016131337, -0.0036698373, -265946.8, -20676.895, 0.0, 5.04117, 5.0197067 
9.5858115e+2, 2.7997807e+2, -233847.6, -258229.9, 14906.815, 0.0012866836, -0.0038584487, -226781.61, -30562.656, 0.0, 5.0408783, 5.021079 
9.5820975e+2, 2.8498447e+2, -188722.19, -211789.53, 16063.122, 0.0039197938, 0.002697714, -180480.89, -33320.906, 0.0, 5.0398836, 5.020715 
9.5784074e+2, 2.8998995e+2, -142957.61, -167046.64, 17895.361, 0.002389458, 0.010978078, -133430.98, -35321.113, 0.0, 5.039558, 5.019405 
9.574684e+2, 2.9499528e+2, -87971.3, -113742.98, 7479.1367, 0.016421547, 0.01656061, -85958.06, -36896.418, 0.0, 5.041202, 5.0207257 
9.570763e+2, 3.0000183e+2, -22473.94, -63415.746, 149.23245, -0.016994083, 0.04362594, -22473.396, -22473.225, 0.0, 5.0478406, 5.0191283 
9.566964e+2, 3.050007e+2, 46136.395, -11115.78, 18983.64, 0.00826428, -0.0007433311, 51858.984, 51858.984, 0.0, 5.0567155, 5.016724 
9.7241855e+2, 1.4008021e+2, -1556543.8, -1570014.3, -78.69613, 0.057633497, 0.0017926794, -1556543.4, 10674.868, 0.0, 5.0442214, 5.034927 
9.7209615e+2, 1.4510423e+2, -1504459.9, -1525423.4, 2793.7017, 0.0030897916, 0.0070768683, -1504094.0, 13887.405, 0.0, 5.0468225, 5.0323873 
9.717804e+2, 1.5012436e+2, -1453373.3, -1480951.6, 7040.0317, -0.010570142, 0.0037536104, -1451680.1, 17103.434, 0.0, 5.0490794, 5.0299397 
9.7146875e+2, 1.5514252e+2, -1403465.1, -1435599.8, 12098.978, -0.024414266, 0.0010485862, -1399419.1, 20185.773, 0.0, 5.050613, 5.028132 
9.711681e+2, 1.6015862e+2, -1358700.3, -1393540.0, 20546.514, -0.0058854995, -0.002547322, -1349183.0, 21263.824, 0.0, 5.0509744, 5.0255527 
9.708698e+2, 1.6517341e+2, -1310084.5, -1346762.9, 19717.125, 0.0153069915, -0.0020214303, -1301496.1, 19806.125, 0.0, 5.051512, 5.024753 
9.705674e+2, 1.7018762e+2, -1260627.9, -1298457.6, 20211.559, 0.021331744, 0.0003397849, -1251861.0, 20302.754, 0.0, 5.0520935, 5.0244617 
9.702635e+2, 1.7520212e+2, -1209472.6, -1246106.3, 22582.48, 0.014432629, 0.003157524, -1198712.4, 24309.9, 0.0, 5.0526357, 5.0255656 
9.699617e+2, 1.8021673e+2, -1162914.5, -1200063.5, 27962.707, -0.009265022, 0.0070292447, -1147919.3, 25960.16, 0.0, 5.0527782, 5.0245295 
9.6966296e+2, 1.8522908e+2, -1117219.6, -1158252.8, 29237.297, -0.024385562, 0.007768557, -1102018.6, 22739.453, 0.0, 5.053104, 5.0220814 
9.693652e+2, 1.9023912e+2, -1069874.9, -1112549.6, 30946.072, -0.024444431, 0.006467257, -1053623.1, 22035.992, 0.0, 5.0533586, 5.021007 
9.690685e+2, 1.9524889e+2, -1019873.7, -1061362.3, 31714.947, -0.013173334, 0.004077033, -1002721.25, 23841.625, 0.0, 5.053597, 5.021878 
9.687733e+2, 2.00259e+2, -972570.4, -1014068.56, 34517.15, 0.0047959937, 0.0014552162, -953045.94, 24417.395, 0.0, 5.0536, 5.0214243 
9.684769e+2, 2.05268e+2, -926989.3, -971046.25, 34908.99, 0.014935467, 0.0018908667, -907739.56, 20636.322, 0.0, 5.0535994, 5.019514 
9.68178e+2, 2.1027553e+2, -879554.3, -924015.06, 36141.758, 0.012825099, 0.0039036546, -859353.4, 19949.488, 0.0, 5.053588, 5.019021 
9.6787703e+2, 2.1528336e+2, -830189.1, -873075.3, 36143.945, 0.003434106, 0.006879889, -809606.1, 20620.76, 0.0, 5.0535583, 5.019948 
9.675727e+2, 2.2029187e+2, -781325.44, -823903.3, 35147.94, -0.00814856, 0.009669533, -761521.8, 19622.398, 0.0, 5.0535517, 5.020301 
9.6726656e+2, 2.2529891e+2, -736417.9, -781203.75, 35933.887, -0.014676674, 0.008416252, -716470.7, 15603.691, 0.0, 5.053309, 5.0183425 
9.669596e+2, 2.30304e+2, -688845.3, -733056.75, 36498.51, -0.012714814, 0.0048529175, -668280.1, 14743.168, 0.0, 5.0531116, 5.018319 
9.6665084e+2, 2.3530973e+2, -640479.7, -683929.25, 35221.477, -0.0062117535, 0.0022058573, -620821.9, 13144.159, 0.0, 5.052943, 5.0186996 
9.6633464e+2, 2.4031648e+2, -589285.44, -631796.2, 29931.902, 0.0019529641, -0.002065083, -573829.6, 11069.05, 0.0, 5.053015, 5.0202703 
9.6601313e+2, 2.453228e+2, -545192.9, -589833.6, 30422.057, 0.0037547993, -0.0028137793, -529781.3, 6054.5425, 0.0, 5.052515, 5.018146 
9.656895e+2, 2.503273e+2, -498268.3, -541931.94, 31097.074, 0.00003986552, -0.0025794837, -482104.66, 4686.335, 0.0, 5.052067, 5.018144 
9.653624e+2, 2.5533262e+2, -449048.88, -491885.63, 27455.596, -0.00077764265, -0.002109735, -435645.47, 2092.4194, 0.0, 5.0519543, 5.018905 
9.650243e+2, 2.6033962e+2, -396046.72, -440131.13, 17995.344, -0.0013231796, 0.00000997909, -389633.84, -965.28564, 0.0, 5.0525565, 5.0203342 
9.646787e+2, 2.653456e+2, -350445.9, -397122.9, 17834.262, -0.0021009324, 0.0014746772, -344411.88, -4800.327, 0.0, 5.052483, 5.0183706 
9.6433216e+2, 2.703493e+2, -303197.53, -350734.5, 17270.229, -0.0003733296, 0.0013841925, -297585.72, -7008.8184, 0.0, 5.0524416, 5.0176463 
9.639805e+2, 2.75354e+2, -252112.84, -299967.7, 11049.494, -0.00088533625, 0.0021740932, -249684.77, -8152.059, 0.0, 5.052903, 5.018515 
9.6361536e+2, 2.8035963e+2, -196474.73, -249839.89, -1384.476, 0.0023589134, -0.0013493631, -196438.84, -3958.9448, 0.0, 5.0547514, 5.0190396 
9.6324307e+2, 2.8536522e+2, -149206.05, -203349.55, -747.5986, 0.0023868561, 0.00077779096, -149195.72, -5767.3276, 0.0, 5.0546966, 5.0183573 
9.628734e+2, 2.903698e+2, -105505.81, -160222.27, 2129.9265, -0.00035696613, 0.0068957307, -105423.02, -11035.598, 0.0, 5.053652, 5.0168495 
9.625011e+2, 2.953738e+2, -55508.156, -110994.086, -8248.874, 0.015586139, 0.011274541, -54307.797, -8955.618, 0.0, 5.0537558, 5.017445 
9.621126e+2, 3.003786e+2, -1606.2849, -63942.137, -10463.726, -0.023425406, 0.037984237, 103.276184, 103.276184, 0.0, 5.0560474, 5.0163035 
9.617396e+2, 3.0538586e+2, 45471.754, -16851.414, 4650.5405, 0.0021545442, 0.06974618, 45816.867, 45816.867, 0.0, 5.0561833, 5.015461 
9.774537e+2, 1.4039706e+2, -1554556.9, -1565283.9, 1020.56055, 0.067338236, 0.005276871, -1554460.6, 9653.386, 0.0, 5.044167, 5.0365195 
9.77133e+2, 1.4542274e+2, -1502169.5, -1520220.9, 5242.694, 0.0018843128, 0.010050201, -1500757.3, 14103.499, 0.0, 5.0468082, 5.034126 
9.768197e+2, 1.5044439e+2, -1451108.3, -1475724.1, 8736.69, -0.011388746, 0.004450079, -1448322.8, 17324.518, 0.0, 5.0490484, 5.0317006 
9.7650975e+2, 1.5546413e+2, -1400903.1, -1429963.3, 12921.0, -0.02485362, -0.00028552863, -1395989.0, 20463.313, 0.0, 5.0505896, 5.030052 
9.7621006e+2, 1.6048193e+2, -1355998.0, -1388025.5, 20761.72, -0.0065257913, -0.0057025687, -1345791.8, 21485.256, 0.0, 5.050996, 5.0274367 
9.7591203e+2, 1.6549863e+2, -1307394.8, -1341276.0, 19946.69, 0.014342449, -0.0045921216, -1298165.6, 19948.47, 0.0, 5.051539, 5.02663 
9.7561014e+2, 1.705148e+2, -1258018.0, -1293124.6, 20418.129, 0.01920136, -0.0012751629, -1248645.1, 20311.363, 0.0, 5.0521207, 5.026293 
9.7530663e+2, 1.7553139e+2, -1206726.0, -1240364.6, 22947.17, 0.00983996, 0.0030058115, -1195094.3, 24700.447, 0.0, 5.0526505, 5.0275483 
9.750052e+2, 1.8054812e+2, -1160042.8, -1194231.6, 28002.879, -0.015239827, 0.0079223085, -1144329.0, 26302.477, 0.0, 5.052813, 5.0265512 
9.7470677e+2, 1.855624e+2, -1114370.0, -1152437.3, 29296.111, -0.029666977, 0.008600414, -1098467.4, 23023.596, 0.0, 5.0531363, 5.0241036 
9.744094e+2, 1.9057436e+2, -1067273.0, -1107253.1, 30996.836, -0.028329505, 0.0067729754, -1050379.4, 21993.957, 0.0, 5.053394, 5.022852 
9.7411317e+2, 1.9558607e+2, -1016866.25, -1055228.1, 31648.033, -0.014850838, 0.0037233962, -999040.3, 24217.715, 0.0, 5.0536375, 5.0240235 
9.738182e+2, 2.0059833e+2, -969472.06, -1007794.56, 34212.676, 0.004676809, 0.00074541586, -949420.3, 24717.482, 0.0, 5.053646, 5.0236273 
9.735216e+2, 2.056095e+2, -923834.7, -964528.75, 34834.04, 0.0145722665, 0.000760348, -903840.56, 21188.428, 0.0, 5.053633, 5.0218105 
9.732226e+2, 2.1061923e+2, -876569.3, -917898.6, 35687.836, 0.011879854, 0.002376886, -855995.0, 19939.426, 0.0, 5.0536237, 5.0211844 
9.729214e+2, 2.156293e+2, -826923.6, -866357.94, 35787.273, 0.0012104256, 0.0048309546, -805781.4, 21055.357, 0.0, 5.053599, 5.022333 
9.726167e+2, 2.2064018e+2, -777855.75, -816834.6, 34649.215, -0.011601993, 0.0070438245, -757590.9, 20139.602, 0.0, 5.053605, 5.0228195 
9.723102e+2, 2.2564979e+2, -733077.5, -774431.8, 35242.477, -0.018657008, 0.0068643265, -712894.2, 15741.242, 0.0, 5.053365, 5.020763 
9.72003e+2, 2.3065744e+2, -685565.1, -726353.1, 36173.11, -0.017013893, 0.004559338, -664433.1, 15126.596, 0.0, 5.0531645, 5.0207267 
9.7169375e+2, 2.3566559e+2, -637099.7, -677138.1, 34605.406, -0.010914638, 0.002624014, -617140.1, 13338.818, 0.0, 5.0530143, 5.021146 
9.713771e+2, 2.4067491e+2, -585950.94, -625141.3, 29138.5, -0.0022345565, -0.00055074535, -570431.7, 10954.889, 0.0, 5.0530944, 5.022677 
9.71055e+2, 2.4568339e+2, -542099.8, -583610.44, 29863.33, 0.00029907824, -0.0028829756, -526487.56, 5815.006, 0.0, 5.0525885, 5.020397 
9.707308e+2, 2.5069004e+2, -495361.8, -536051.9, 30604.672, -0.0034358127, -0.003402824, -478956.78, 4279.5957, 0.0, 5.052136, 5.020279 
9.7040313e+2, 2.556973e+2, -446184.9, -486226.66, 26597.953, -0.004505363, -0.0040841675, -432914.84, 1249.386, 0.0, 5.0520287, 5.0209823 
9.700646e+2, 2.6070592e+2, -394177.88, -436466.7, 17873.154, -0.006567923, -0.0030866659, -387635.9, -2556.4304, 0.0, 5.0526185, 5.0216804 
9.697188e+2, 2.6571304e+2, -349169.44, -394930.44, 16920.396, -0.007000088, -0.0007683033, -343592.66, -7581.6685, 0.0, 5.05256, 5.019179 
9.693723e+2, 2.7071768e+2, -301779.97, -348047.28, 17264.574, -0.0042523732, 0.0011043097, -296047.88, -9080.8125, 0.0, 5.05251, 5.018634 
9.6902037e+2, 2.7572286e+2, -251550.08, -299150.0, 10761.98, -0.00523586, 0.0019264601, -249229.97, -11312.357, 0.0, 5.052958, 5.018819 
9.6865606e+2, 2.8072873e+2, -196991.69, -249890.23, -808.122, 0.000014335542, -0.0006860548, -196979.34, -8117.491, 0.0, 5.0546117, 5.0190363 
9.6828383e+2, 2.8573367e+2, -150452.47, -205269.0, -808.0947, 0.0007997014, -0.00026524367, -150440.55, -10624.797, 0.0, 5.0545816, 5.017657 
9.6791345e+2, 2.907367e+2, -106336.62, -162665.27, 959.9832, -0.0034971219, 0.00079190894, -106320.26, -15531.94, 0.0, 5.0537944, 5.015869 
9.675409e+2, 2.9573923e+2, -57226.723, -116272.37, -8743.299, 0.015868973, 0.005691544, -55959.25, -14193.034, 0.0, 5.054093, 5.0153008 
9.671539e+2, 3.0074137e+2, -4364.991, -67210.336, -9159.376, -0.02700536, 0.02211178, -3057.2722, -3057.2722, 0.0, 5.055707, 5.0150714 
9.667823e+2, 3.0574638e+2, 41066.85, -18673.627, 2362.5474, 0.004799273, 0.044059552, 41160.137, 41160.137, 0.0, 5.0546947, 5.0153112 
9.8248106e+2, 1.4071442e+2, -1553785.6, -1560815.9, 1136.3796, -0.0013809102, 0.013942599, -1553606.5, 7396.7866, 0.0, 5.0435944, 5.0382857 
9.821705e+2, 1.4574079e+2, -1502390.0, -1516618.0, 7241.548, 0.008092395, 0.008459603, -1499352.8, 12390.628, 0.0, 5.045997, 5.0357113 
9.8185927e+2, 1.5076423e+2, -1451058.1, -1472137.1, 9622.306, -0.008083168, 0.003954274, -1447326.4, 15185.861, 0.0, 5.0483603, 5.0332255 
9.815507e+2, 1.5578571e+2, -1400235.8, -1425476.1, 12854.611, -0.025080234, -0.0007343276, -1394841.8, 18458.34, 0.0, 5.0499496, 5.0318804 
9.812517e+2, 1.6080533e+2, -1355299.3, -1383829.9, 20057.096, -0.008787662, -0.0063333777, -1344951.9, 19154.863, 0.0, 5.05039, 5.0291734 
9.809542e+2, 1.6582388e+2, -1306590.4, -1336575.5, 19481.28, 0.012934516, -0.0056713987, -1297000.5, 17925.219, 0.0, 5.0508804, 5.0285673 
9.8065275e+2, 1.7084195e+2, -1257203.8, -1288574.9, 20097.54, 0.017774371, -0.0024973743, -1247395.3, 18354.28, 0.0, 5.0515046, 5.028161 
9.8034984e+2, 1.7586063e+2, -1205621.0, -1235455.1, 22736.342, 0.006982913, 0.0025967362, -1193345.0, 23222.488, 0.0, 5.0520916, 5.0295215 
9.800488e+2, 1.8087941e+2, -1158675.9, -1189041.1, 27604.186, -0.019009871, 0.008071067, -1142354.5, 25029.557, 0.0, 5.0522985, 5.0286136 
9.7975075e+2, 1.8589573e+2, -1112891.8, -1147455.1, 28982.36, -0.033275623, 0.009054791, -1096429.8, 21794.229, 0.0, 5.0527225, 5.0260477 
9.7945374e+2, 1.9090961e+2, -1065453.4, -1102257.3, 30786.92, -0.03118898, 0.0068662264, -1047988.0, 21099.496, 0.0, 5.0531354, 5.0247316 
9.791579e+2, 1.9592336e+2, -1014601.25, -1049507.8, 31506.34, -0.015912808, 0.0034240105, -996036.94, 23915.56, 0.0, 5.053434, 5.0261364 
9.788631e+2, 2.0093773e+2, -966915.4, -1001762.5, 33887.902, 0.004805914, 0.00019190744, -946234.2, 24577.229, 0.0, 5.0534987, 5.0258365 
9.785664e+2, 2.059511e+2, -921032.4, -958056.4, 34586.52, 0.014219292, -0.00027346017, -900315.25, 21365.88, 0.0, 5.053517, 5.0241613 
9.782672e+2, 2.1096303e+2, -873988.6, -912165.9, 35169.19, 0.010820412, 0.0010046808, -853061.7, 19503.438, 0.0, 5.0535574, 5.02326 
9.779658e+2, 2.1597531e+2, -823847.5, -859720.3, 35413.684, -0.0011028097, 0.002738625, -802087.0, 21358.568, 0.0, 5.05357, 5.024724 
9.776607e+2, 2.209886e+2, -774560.8, -809931.2, 34092.01, -0.015233272, 0.004456264, -753839.9, 20475.84, 0.0, 5.053615, 5.025301 
9.773538e+2, 2.2600082e+2, -729733.5, -767616.6, 34817.934, -0.022799967, 0.0056316163, -709038.3, 16157.106, 0.0, 5.053421, 5.0232 
9.770464e+2, 2.3101099e+2, -682419.25, -719977.2, 35657.12, -0.020938246, 0.004644317, -660898.4, 15196.6045, 0.0, 5.05322, 5.0230184 
9.767366e+2, 2.3602152e+2, -633621.2, -670120.75, 33998.92, -0.015368309, 0.0029674207, -613283.6, 13707.293, 0.0, 5.0530868, 5.0236735 
9.7641957e+2, 2.4103342e+2, -582810.5, -618900.9, 28548.65, -0.006252958, 0.0011272791, -567082.1, 10791.414, 0.0, 5.053176, 5.024932 
9.760969e+2, 2.4604404e+2, -538927.0, -577193.1, 29025.111, -0.0032550334, -0.003022925, -523296.13, 5472.5034, 0.0, 5.052657, 5.0227213 
9.7577214e+2, 2.5105283e+2, -492366.3, -529949.06, 30225.576, -0.0073327925, -0.0045723617, -475566.94, 4114.558, 0.0, 5.052206, 5.0224915 
9.7544384e+2, 2.560621e+2, -443435.6, -480815.9, 25734.254, -0.007851835, -0.0059152516, -430320.5, 269.2298, 0.0, 5.0521026, 5.022969 
9.7510487e+2, 2.6107222e+2, -392474.6, -433173.16, 17529.209, -0.011415384, -0.0063543385, -385965.63, -4475.299, 0.0, 5.05268, 5.022889 
9.747589e+2, 2.660805e+2, -348058.34, -393068.66, 16447.467, -0.011866777, -0.0019908776, -342688.78, -10278.638, 0.0, 5.0526385, 5.019858 
9.744125e+2, 2.7108604e+2, -300462.5, -345673.3, 16938.004, -0.0073220385, 0.0016909715, -294820.78, -11463.649, 0.0, 5.052585, 5.0195045 
9.740603e+2, 2.760916e+2, -250909.14, -298040.78, 10634.301, -0.010283142, 0.0013358971, -248620.81, -14316.906, 0.0, 5.053005, 5.0192213 
9.7369653e+2, 2.8109777e+2, -197913.72, -250819.98, -492.2124, -0.0030578435, -0.0001643487, -197909.14, -12664.747, 0.0, 5.054468, 5.0186996 
9.733243e+2, 2.8610188e+2, -151990.58, -207588.39, -1292.1089, -0.0015819997, -0.0020975766, -151960.56, -15755.35, 0.0, 5.054402, 5.0168343 
9.729532e+2, 2.911033e+2, -107765.14, -164946.0, 700.51184, -0.007382254, -0.006696487, -107756.555, -20564.69, 0.0, 5.0536556, 5.015047 
9.725806e+2, 2.961044e+2, -60563.043, -122707.87, -9004.056, 0.017119257, -0.0000120011255, -59284.758, -21102.504, 0.0, 5.053919, 5.0129285 
9.721946e+2, 3.0110374e+2, -7515.2188, -70075.53, -8192.771, -0.03267603, 0.005780538, -6460.1055, -6460.1055, 0.0, 5.0551386, 5.0140595 
9.7182333e+2, 3.0610615e+2, 39007.664, -19187.75, 952.8083, -0.002164722, 0.010845586, 39023.258, 39023.258, 0.0, 5.054089, 5.0152435 
9.8750746e+2, 1.4102818e+2, -1557455.1, -1558688.9, -1081.8362, -0.06931913, 0.017218094, -1556826.6, 1098.9541, 0.0, 5.0414934, 5.0400515 
9.8720855e+2, 1.4605524e+2, -1506168.4, -1515816.3, 5015.427, 0.028817795, 0.0036006705, -1504033.5, 4625.9883, 0.0, 5.044124, 5.0369096 
9.868983e+2, 1.5108074e+2, -1455602.3, -1471791.1, 7595.7764, 0.0011978832, 0.0043821945, -1452596.5, 6812.333, 0.0, 5.0462413, 5.034378 
9.865905e+2, 1.5610434e+2, -1404040.9, -1424005.8, 10097.173, -0.02529409, 0.004099662, -1399824.6, 10352.108, 0.0, 5.047882, 5.0333943 
9.8629194e+2, 1.6112603e+2, -1357871.4, -1381233.8, 16342.307, -0.014175423, 0.0011828673, -1349464.8, 11498.91, 0.0, 5.0485787, 5.030971 
9.859952e+2, 1.6614641e+2, -1308409.3, -1333895.5, 15960.038, 0.010882413, -0.00066615647, -1300729.1, 11035.216, 0.0, 5.049392, 5.03024 
9.856948e+2, 1.7116621e+2, -1258610.1, -1285557.9, 16409.086, 0.020203386, -0.00072125107, -1250851.9, 11719.038, 0.0, 5.0501337, 5.0298963 
9.853928e+2, 1.7618676e+2, -1206821.4, -1232153.9, 18850.639, 0.012291439, 0.0019576983, -1196776.9, 16593.342, 0.0, 5.0507436, 5.0313544 
9.8509246e+2, 1.8120752e+2, -1159641.9, -1185717.6, 23713.947, -0.012188414, 0.0057760514, -1145618.0, 18549.066, 0.0, 5.051037, 5.0304227 
9.847946e+2, 1.8622607e+2, -1113447.5, -1143687.4, 24881.291, -0.028384412, 0.0075746235, -1099452.3, 15533.133, 0.0, 5.0515485, 5.0279717 
9.8449785e+2, 1.9124234e+2, -1065973.6, -1098615.6, 26526.334, -0.028552126, 0.0070793917, -1051149.4, 14676.723, 0.0, 5.0519896, 5.0266066 
9.842022e+2, 1.9625856e+2, -1014539.5, -1045251.5, 27536.846, -0.014949594, 0.0052848803, -998366.4, 18300.918, 0.0, 5.0524373, 5.0281534 
9.839075e+2, 2.0127544e+2, -966097.44, -996690.0, 29712.777, 0.004766433, 0.0027596888, -947974.8, 19527.143, 0.0, 5.0526557, 5.0280786 
9.8361087e+2, 2.0629129e+2, -919705.4, -952634.1, 30862.389, 0.013891236, 0.001727487, -901190.25, 17156.92, 0.0, 5.052831, 5.0264597 
9.8331165e+2, 2.1130559e+2, -872675.8, -907239.75, 31456.713, 0.010547735, 0.0021198813, -854066.4, 15141.256, 0.0, 5.0529737, 5.0253396 
9.830101e+2, 2.1632029e+2, -821881.06, -853818.1, 31941.229, -0.0012296839, 0.0023351877, -802139.1, 17925.074, 0.0, 5.0530896, 5.0271072 
9.8270494e+2, 2.2133623e+2, -772360.5, -803828.2, 30870.998, -0.015382575, 0.0035184207, -753445.06, 17463.316, 0.0, 5.0532074, 5.027731 
9.8239785e+2, 2.2635114e+2, -727716.4, -761369.9, 31974.586, -0.02221462, 0.0050719534, -708411.25, 13350.63, 0.0, 5.052916, 5.0257263 
9.8209023e+2, 2.3136407e+2, -680831.5, -714681.2, 32902.547, -0.019638713, 0.005515488, -660755.94, 11878.636, 0.0, 5.0527134, 5.0252132 
9.8178e+2, 2.3637718e+2, -631578.75, -663637.2, 31709.936, -0.014730785, 0.003630658, -612076.9, 11428.692, 0.0, 5.052564, 5.026306 
9.8146236e+2, 2.4139178e+2, -580967.44, -613022.7, 26553.918, -0.0056005754, 0.003188049, -565979.0, 8382.797, 0.0, 5.052698, 5.027336 
9.81139e+2, 2.464047e+2, -537082.44, -571932.4, 27214.717, -0.0037369204, -0.0016928836, -522192.22, 3042.0322, 0.0, 5.0523086, 5.024847 
9.808136e+2, 2.5141564e+2, -490340.84, -524342.9, 28884.908, -0.008743002, -0.0045305258, -473825.13, 2300.9866, 0.0, 5.0518875, 5.0247283 
9.804848e+2, 2.5642702e+2, -441719.1, -476056.84, 24279.313, -0.008241666, -0.0062030023, -429151.56, -2137.7778, 0.0, 5.051813, 5.024893 
9.801454e+2, 2.6143864e+2, -391594.94, -430497.16, 17549.176, -0.0137903495, -0.008986454, -384848.34, -6948.627, 0.0, 5.0524864, 5.0239906 
9.797993e+2, 2.6644817e+2, -346783.66, -390293.88, 16624.553, -0.014923008, -0.0023782745, -341158.84, -12351.705, 0.0, 5.052624, 5.0209107 
9.7945297e+2, 2.7145463e+2, -299450.03, -343938.63, 17451.28, -0.008709753, 0.003053811, -293421.44, -13676.642, 0.0, 5.0526595, 5.0201397 
9.791003e+2, 2.7646038e+2, -250223.28, -296390.3, 12035.657, -0.0153378965, 0.00029709798, -247274.02, -16584.64, 0.0, 5.053002, 5.0198307 
9.7873694e+2, 2.814669e+2, -199850.56, -252824.81, 722.97906, -0.0060509318, 0.0007093879, -199840.7, -18214.479, 0.0, 5.054092, 5.0180535 
9.783645e+2, 2.8646988e+2, -155012.48, -211065.47, -1767.2595, -0.0041759834, -0.004695133, -154956.83, -22360.576, 0.0, 5.0537615, 5.0157795 
9.779927e+2, 2.914697e+2, -110017.625, -166975.27, 996.26855, -0.011677854, -0.015488379, -110000.2, -26402.838, 0.0, 5.053116, 5.0144672 
9.7762024e+2, 2.964694e+2, -64739.027, -129647.91, -9319.426, 0.019477746, -0.0064600534, -63427.477, -28827.57, 0.0, 5.05347, 5.010472 
9.7723466e+2, 3.014657e+2, -10513.33, -71565.59, -7733.481, -0.04078271, -0.0133130355, -9548.964, -9548.964, 0.0, 5.054403, 5.013602 
9.768627e+2, 3.0646688e+2, 36382.58, -20247.875, 283.36606, -0.020435827, -0.017250173, 36383.996, 36383.996, 0.0, 5.053404, 5.0149393 
9.9254024e+2, 1.4133552e+2, -1549790.4, -1554521.0, -4303.562, -0.06340599, 0.0066035152, -1547244.9, 7666.1685, 0.0, 5.043628, 5.0406423 
9.922457e+2, 1.4636345e+2, -1500269.1, -1512914.3, -265.73413, 0.050893992, -0.007211073, -1500263.5, 5373.51, 0.0, 5.045683, 5.0373826 
9.9193627e+2, 1.5139033e+2, -1451246.4, -1469862.8, 2250.7058, 0.010926903, -0.0028020625, -1450978.1, 5395.4326, 0.0, 5.047284, 5.034785 
9.9162936e+2, 1.5641543e+2, -1400774.9, -1422348.4, 4026.4453, -0.023626754, 0.0010581709, -1400047.9, 7079.56, 0.0, 5.048462, 5.0339537 
9.913313e+2, 1.6143857e+2, -1354651.5, -1379447.9, 8798.919, -0.017228866, 0.0005140833, -1351846.5, 6054.186, 0.0, 5.048997, 5.031722 
9.910353e+2, 1.6646013e+2, -1305522.3, -1332604.0, 7689.836, 0.009524988, -0.003371421, -1303491.0, 5198.431, 0.0, 5.0497093, 5.0309057 
9.907358e+2, 1.71481e+2, -1255833.4, -1284739.0, 7787.3374, 0.021222705, -0.0056350296, -1253869.0, 5616.0835, 0.0, 5.0504622, 5.030419 
9.90435e+2, 1.7650256e+2, -1203833.0, -1231272.9, 9071.109, 0.017101413, -0.0060234764, -1201105.4, 9168.67, 0.0, 5.051092, 5.0319304 
9.9013543e+2, 1.8152453e+2, -1156694.9, -1185178.0, 12924.505, -0.004142874, -0.003482488, -1151704.6, 9354.205, 0.0, 5.051374, 5.0309243 
9.89838e+2, 1.8654466e+2, -1110435.4, -1143232.3, 13530.465, -0.020878667, -0.000058152822, -1105574.0, 6288.1694, 0.0, 5.0518684, 5.0284853 
9.8954165e+2, 1.9156268e+2, -1062506.0, -1097943.0, 13946.125, -0.022549313, 0.002483306, -1057675.9, 5010.3223, 0.0, 5.052381, 5.0272055 
9.89246e+2, 1.9658086e+2, -1010804.94, -1044263.6, 14613.168, -0.0127562815, 0.0029177847, -1005321.3, 8187.282, 0.0, 5.0528407, 5.0288806 
9.8895127e+2, 2.0159991e+2, -961653.0, -994718.2, 15797.631, 0.0035171902, 0.0021574877, -955318.8, 9003.464, 0.0, 5.053111, 5.0291553 
9.886547e+2, 2.0661797e+2, -915224.94, -950890.06, 16414.62, 0.012301499, 0.0012129016, -908820.4, 6325.2515, 0.0, 5.053314, 5.0274615 
9.8835564e+2, 2.1163449e+2, -867600.56, -904785.4, 16687.229, 0.00990125, 0.0015952616, -861210.2, 4773.7925, 0.0, 5.053542, 5.026574 
9.880545e+2, 2.1665165e+2, -816511.25, -851266.7, 16691.799, 0.001009749, 0.0011102144, -809793.25, 7022.9473, 0.0, 5.053733, 5.0283613 
9.8774964e+2, 2.2167028e+2, -766085.5, -800248.1, 15229.03, -0.010250966, 0.0019403907, -760282.44, 7351.176, 0.0, 5.0540137, 5.0293 
9.8744243e+2, 2.2668804e+2, -720700.56, -757174.9, 16592.684, -0.015136686, 0.0026735386, -714281.9, 4177.478, 0.0, 5.0539427, 5.0274158 
9.871347e+2, 2.3170394e+2, -673370.44, -710719.4, 17129.115, -0.011689192, 0.0032918355, -666704.4, 2599.0798, 0.0, 5.05398, 5.026724 
9.8682415e+2, 2.3672028e+2, -622713.6, -658117.2, 16080.821, -0.006987999, 0.002250953, -616500.0, 3642.8958, 0.0, 5.054158, 5.0282464 
9.8650616e+2, 2.4173798e+2, -571175.44, -607329.4, 11454.065, 0.0003604881, 0.0014365495, -567852.1, 3116.8562, 0.0, 5.054716, 5.0291657 
9.861824e+2, 2.4675445e+2, -525839.0, -565377.06, 13060.391, 0.0007426481, 0.0012709339, -521914.38, -107.85776, 0.0, 5.0548615, 5.0267453 
9.858569e+2, 2.517685e+2, -477972.94, -517458.22, 15298.237, -0.0046479865, -0.00077773124, -472739.44, -71.26602, 0.0, 5.0549436, 5.026511 
9.855278e+2, 2.5678307e+2, -427649.56, -467803.7, 11786.503, -0.002808585, -0.00093599554, -424445.53, -921.3462, 0.0, 5.055472, 5.026878 
9.851889e+2, 2.6179793e+2, -375671.1, -421115.88, 6887.3687, -0.007179638, -0.0036615906, -374650.22, -272.2053, 0.0, 5.0568275, 5.026094 
9.84843e+2, 2.6681036e+2, -328068.6, -378684.0, 7573.291, -0.009143853, -0.0016735648, -326959.75, -1703.162, 0.0, 5.0578723, 5.0234346 
9.8449713e+2, 2.718198e+2, -278795.94, -333093.6, 10427.057, -0.004701145, 0.0017854745, -276862.44, -697.8622, 0.0, 5.05901, 5.021912 
9.841445e+2, 2.7682838e+2, -226246.1, -283412.66, 8308.906, -0.01415495, 0.001079515, -225062.92, 2017.9551, 0.0, 5.0605493, 5.0218945 
9.837816e+2, 2.8183666e+2, -175278.92, -241840.72, -314.32794, -0.0038958145, 0.004908669, -175277.44, 2722.255, 0.0, 5.0625095, 5.0189424 
9.834085e+2, 2.868403e+2, -132601.67, -202523.19, -1406.9977, 0.0017432688, 0.0010124072, -132573.36, -3609.8503, 0.0, 5.061761, 5.0159254 
9.8303586e+2, 2.9184055e+2, -91943.95, -159312.66, 5980.697, -0.0024657962, -0.007006938, -91417.13, -11456.567, 0.0, 5.059472, 5.01494 
9.8266214e+2, 2.9683915e+2, -51782.316, -125444.65, -1687.9882, 0.030528795, -0.001581849, -51743.656, -20770.352, 0.0, 5.058289, 5.010305 
9.8227596e+2, 3.0183405e+2, -3782.888, -70334.75, 820.9362, -0.039288156, -0.00684185, -3772.763, -3772.763, 0.0, 5.0571103, 5.0132074 
9.819019e+2, 3.0683565e+2, 26578.943, -25906.58, 3589.462, -0.008732462, 0.010185246, 26823.287, 26823.287, 0.0, 5.0495887, 5.0148883 
9.975788e+2, 1.4163873e+2, -1549419.0, -1552709.6, -2383.6194, -0.01725696, -0.0016921222, -1548168.0, 3768.7234, 0.0, 5.0434723, 5.0412927 
9.9728334e+2, 1.4666791e+2, -1499344.3, -1510714.8, 719.8911, 0.064804085, -0.010566299, -1499298.9, 3352.3083, 0.0, 5.0456696, 5.0381107 
9.969747e+2, 1.516959e+2, -1450191.3, -1467449.9, 3242.3018, 0.0152839795, -0.00319872, -1449602.3, 3775.3499, 0.0, 5.0472746, 5.035591 
9.966684e+2, 1.5672228e+2, -1399814.6, -1419920.8, 5060.0664, -0.025523685, 0.005084428, -1398613.0, 5506.941, 0.0, 5.048428, 5.034773 
9.9637085e+2, 1.6174649e+2, -1353350.0, -1376786.3, 9187.752, -0.022642994, 0.006901984, -1350177.6, 4705.3135, 0.0, 5.0490184, 5.0326214 
9.960756e+2, 1.667688e+2, -1304167.0, -1329810.1, 8027.9897, 0.0061851554, 0.0008766924, -1301861.0, 3802.802, 0.0, 5.0497265, 5.031856 
9.95777e+2, 1.7179038e+2, -1254647.5, -1282217.3, 8428.218, 0.01974044, -0.003066462, -1252275.1, 4177.0186, 0.0, 5.050475, 5.031274 
9.9547726e+2, 1.7681248e+2, -1202619.8, -1228684.5, 9475.758, 0.019499049, -0.006794481, -1199539.0, 7696.2007, 0.0, 5.051099, 5.032816 
9.951785e+2, 1.8183517e+2, -1155262.6, -1182268.9, 13233.074, 0.0016265755, -0.006127635, -1149859.5, 8153.6123, 0.0, 5.0513988, 5.0319223 
9.948815e+2, 1.8685637e+2, -1109209.8, -1140787.8, 13910.006, -0.015471156, -0.0016460962, -1103956.4, 4850.086, 0.0, 5.051903, 5.029319 
9.9458545e+2, 1.9187555e+2, -1060787.3, -1094544.1, 14020.786, -0.018499224, 0.0022725759, -1055723.4, 3896.2063, 0.0, 5.052423, 5.028379 
9.9428993e+2, 1.9689514e+2, -1008832.3, -1040234.2, 15022.923, -0.013012472, 0.003593, -1002802.94, 7625.5576, 0.0, 5.052878, 5.0302787 
9.9399513e+2, 2.0191596e+2, -959010.6, -989425.56, 15857.687, -0.00015921159, 0.0036500066, -952246.94, 8978.047, 0.0, 5.053164, 5.031009 
9.9369854e+2, 2.0693584e+2, -912561.06, -945484.56, 16213.75, 0.008112893, 0.0012442933, -905917.06, 6113.1406, 0.0, 5.0533557, 5.0293665 
9.933998e+2, 2.1195424e+2, -864497.56, -898406.06, 16695.934, 0.006041481, 0.00031402378, -857656.8, 5193.1123, 0.0, 5.053586, 5.028828 
9.930989e+2, 2.169736e+2, -813311.3, -844826.44, 16521.799, -0.00066250697, -0.00064132526, -806237.56, 7422.583, 0.0, 5.0537996, 5.030644 
9.9279433e+2, 2.2199482e+2, -762347.6, -792597.8, 14664.128, -0.0095573235, -0.0002466095, -756406.0, 8046.3237, 0.0, 5.0540686, 5.032036 
9.924871e+2, 2.2701545e+2, -716771.75, -749053.75, 16495.582, -0.0135550015, 0.00014896011, -709833.9, 5416.207, 0.0, 5.054003, 5.0303226 
9.921792e+2, 2.3203415e+2, -669482.25, -702537.8, 16761.352, -0.010337859, 0.00002625653, -662470.5, 3596.4248, 0.0, 5.0540185, 5.0296707 
9.918686e+2, 2.3705383e+2, -618376.3, -649079.8, 15643.235, -0.005999045, 0.0006679499, -611810.3, 5063.64, 0.0, 5.054219, 5.0315127 
9.915504e+2, 2.4207479e+2, -566731.1, -597996.25, 11146.968, 0.0001562093, -0.00058590487, -563163.9, 4504.244, 0.0, 5.054776, 5.0325522 
9.9122655e+2, 2.4709532e+2, -521164.47, -555443.44, 12729.563, -0.0002940707, 0.0049878852, -516954.4, 1511.5244, 0.0, 5.054913, 5.030361 
9.9090105e+2, 2.5211287e+2, -473561.44, -508339.38, 14702.129, -0.005967558, 0.0035953461, -468179.2, 1113.797, 0.0, 5.055029, 5.029836 
9.905722e+2, 2.5713122e+2, -423082.88, -458012.6, 11583.03, -0.0029493205, 0.0052457503, -419590.9, 521.22394, 0.0, 5.055529, 5.030462 
9.902342e+2, 2.6215026e+2, -370607.53, -410023.72, 7199.299, -0.0049836356, 0.0070186746, -369333.78, 1590.9263, 0.0, 5.056888, 5.0301523 
9.8988914e+2, 2.6716608e+2, -322743.56, -366633.22, 8369.778, -0.006546154, 0.0013900524, -321201.63, 567.54816, 0.0, 5.0578985, 5.0278563 
9.8954433e+2, 2.7217945e+2, -273979.53, -322401.06, 10728.09, -0.002343424, 0.0003008193, -271709.1, 928.71844, 0.0, 5.059063, 5.025847 
9.891926e+2, 2.7719244e+2, -221290.19, -272283.13, 9104.767, -0.012525906, 0.0021917503, -219713.3, 3796.747, 0.0, 5.0606003, 5.0260077 
9.8883003e+2, 2.8220376e+2, -172389.3, -234250.19, -564.5371, -0.006282079, 0.0035323128, -172384.14, 2015.1067, 0.0, 5.062378, 5.021796 
9.8845553e+2, 2.872106e+2, -128528.51, -191970.16, -3004.4175, -0.002552201, -0.00053764856, -128386.54, -3053.9497, 0.0, 5.0615697, 5.0199347 
9.880815e+2, 2.922147e+2, -89036.945, -153042.67, 4503.914, -0.004904784, -0.00075049064, -88721.57, -12429.135, 0.0, 5.059609, 5.0172224 
9.877055e+2, 2.9721564e+2, -47662.508, -115735.83, -1133.9275, 0.027668498, -0.0019554188, -47643.625, -20360.143, 0.0, 5.058405, 5.013834 
9.8731834e+2, 3.0221453e+2, -3468.1853, -66065.15, 1866.6104, -0.031315945, 0.008687444, -3412.5732, -3412.5732, 0.0, 5.0566382, 5.0149236 
9.869375e+2, 3.0721593e+2, 24817.514, -21090.533, -394.41315, 0.015098601, 0.017174654, 24820.902, 24820.902, 0.0, 5.04793, 5.0173907 
1.00261405e+3, 1.4194022e+2, -1550848.9, -1549729.3, -1860.5005, 0.0009555658, -0.020981811, -1548346.3, 635.0411, 0.0, 5.0422635, 5.0428557 
1.00231834e+3, 1.4697167e+2, -1501572.6, -1510430.3, 969.9956, 0.05537185, -0.015234441, -1501467.6, -1794.102, 0.0, 5.044656, 5.0386715 
1.0020121e+3, 1.5200044e+2, -1450784.1, -1465901.8, 2591.1843, 0.010669719, -0.009246885, -1450352.3, 40.50452, 0.0, 5.046688, 5.036392 
1.0017077e+3, 1.5702784e+2, -1400081.6, -1418373.3, 4535.932, -0.025080942, 0.00075975386, -1399018.6, 2106.696, 0.0, 5.0480075, 5.035486 
1.001411e+3, 1.6205312e+2, -1352760.9, -1374605.1, 7876.173, -0.021487642, 0.0040481472, -1350217.3, 1660.7308, 0.0, 5.048799, 5.0334797 
1.0011161e+3, 1.670766e+2, -1303129.1, -1327499.8, 6972.646, 0.0048488188, -0.00036870636, -1301275.3, 1371.9808, 0.0, 5.0496907, 5.032669 
1.0008181e+3, 1.7209919e+2, -1253599.3, -1279854.4, 7315.5986, 0.016996088, -0.0033414753, -1251698.4, 1726.7819, 0.0, 5.050437, 5.0321074 
1.0005191e+3, 1.7712212e+2, -1202159.8, -1226697.0, 8448.585, 0.018379971, -0.008253484, -1199532.1, 4667.5713, 0.0, 5.0508857, 5.033599 
1.0002212e+3, 1.8214567e+2, -1153992.3, -1179546.3, 12466.125, 0.0027294636, -0.008529456, -1148918.4, 6050.6797, 0.0, 5.051384, 5.032874 
9.999247e+2, 1.8716793e+2, -1107760.0, -1138217.9, 13282.179, -0.013859168, -0.0038083098, -1102781.5, 2970.7424, 0.0, 5.052004, 5.0301647 
9.996291e+2, 1.9218825e+2, -1058369.1, -1090778.3, 13663.913, -0.01779947, 0.00046054483, -1053377.3, 3177.301, 0.0, 5.052708, 5.0295634 
9.993336e+2, 1.9720931e+2, -1006235.4, -1035928.8, 15175.514, -0.01601637, 0.002658188, -999851.9, 7497.4653, 0.0, 5.0531406, 5.0316663 
9.990389e+2, 2.0223196e+2, -955734.0, -983881.6, 15790.78, -0.0058513614, 0.004206761, -948655.5, 9472.543, 0.0, 5.053454, 5.0328393 
9.9874234e+2, 2.0725372e+2, -909320.3, -939876.0, 15900.463, 0.0020801935, 0.00084812, -902547.4, 6367.351, 0.0, 5.0536213, 5.0312357 
9.9844384e+2, 2.1227403e+2, -861083.25, -892058.5, 16507.91, 0.0010039744, -0.0012206302, -853935.1, 5780.2676, 0.0, 5.053779, 5.0310006 
9.981434e+2, 2.1729569e+2, -809749.3, -838094.44, 16196.167, -0.0031091422, -0.0021045997, -802400.3, 8102.6235, 0.0, 5.0539703, 5.0329823 
9.97839e+2, 2.223194e+2, -758340.0, -784793.56, 14103.493, -0.009412108, -0.0022291227, -752231.4, 9039.094, 0.0, 5.0542197, 5.034781 
9.9753183e+2, 2.2734302e+2, -712913.0, -741398.7, 16100.813, -0.011672421, -0.0017427992, -705659.44, 6379.8525, 0.0, 5.054123, 5.0330367 
9.972238e+2, 2.3236443e+2, -665381.25, -693861.56, 16508.465, -0.009073351, -0.0035874061, -657819.75, 5009.9233, 0.0, 5.054057, 5.0327954 
9.96913e+2, 2.3738748e+2, -614161.06, -640249.56, 15321.009, -0.0053211623, -0.0011153413, -607083.56, 6520.4883, 0.0, 5.0542755, 5.034705 
9.965947e+2, 2.4241172e+2, -562154.94, -588345.4, 10766.29, -0.00029971066, -0.0022167137, -558297.3, 6068.7744, 0.0, 5.0548334, 5.0360584 
9.962708e+2, 2.4743634e+2, -516764.44, -546102.1, 12550.3125, -0.0022770225, 0.009301909, -512128.22, 2995.6194, 0.0, 5.0549664, 5.0337596 
9.959454e+2, 2.524574e+2, -469141.25, -499184.97, 14082.168, -0.00737456, 0.008373087, -463572.72, 2343.6953, 0.0, 5.0551143, 5.033174 
9.956167e+2, 2.5747952e+2, -418510.84, -448228.56, 11322.314, -0.0024257419, 0.011237394, -414688.7, 2009.9487, 0.0, 5.0555897, 5.034044 
9.952796e+2, 2.6250297e+2, -365828.97, -399548.7, 7785.795, -0.0029757945, 0.018559579, -364118.06, 3349.6733, 0.0, 5.0569525, 5.0339813 
9.949355e+2, 2.67522e+2, -317096.72, -353856.97, 8810.453, -0.0036592477, 0.0030284869, -315094.2, 3185.5278, 0.0, 5.0579233, 5.032556 
9.9459153e+2, 2.7253938e+2, -269054.47, -311441.0, 11118.83, -0.00046782414, -0.0017594161, -266314.84, 2793.5327, 0.0, 5.0591183, 5.0298824 
9.942408e+2, 2.7755687e+2, -216809.28, -262141.69, 10027.52, -0.011742798, 0.00410093, -214690.25, 5245.492, 0.0, 5.060645, 5.029751 
9.9387825e+2, 2.8257096e+2, -169379.78, -226399.17, -1824.7552, -0.008534182, 0.002028285, -169321.45, 1476.3853, 0.0, 5.06224, 5.024751 
9.935021e+2, 2.8758118e+2, -124944.414, -182246.14, -3346.8474, -0.0086083915, -0.0015384299, -124749.59, -3050.8909, 0.0, 5.061358, 5.0236135 
9.931269e+2, 2.9258862e+2, -86904.94, -147030.86, 2043.2037, -0.005941141, 0.0008868287, -86835.586, -14208.691, 0.0, 5.0594106, 5.019548 
9.927484e+2, 2.9759178e+2, -44859.0, -106816.4, -1993.6654, 0.02374003, -0.0116838105, -44794.914, -21197.98, 0.0, 5.058065, 5.017239 
9.923596e+2, 3.0259448e+2, -3220.146, -61284.05, -297.97076, -0.026964385, 0.012391394, -3218.617, -3218.617, 0.0, 5.056019, 5.0168514 
9.919694e+2, 3.0759692e+2, 23990.34, -17867.213, -11626.936, 0.023050945, 0.008768159, 27003.145, 27003.145, 0.0, 5.04689, 5.0190496 
1.00764565e+3, 1.422427e+2, -1542767.1, -1543381.6, -1542.0625, -0.016828794, -0.011671409, -1541502.0, 4515.4355, 0.0, 5.044472, 5.0439262 
1.0073507e+3, 1.4727479e+2, -1497808.6, -1508095.1, 867.86127, 0.025943883, -0.0036852993, -1497735.9, -1031.9268, 0.0, 5.045745, 5.0389557 
1.0070481e+3, 1.5230368e+2, -1449571.0, -1465781.9, -273.4255, 0.0002661809, -0.00008282317, -1449566.4, -2144.364, 0.0, 5.047005, 5.0363574 
1.00674585e+3, 1.5733029e+2, -1397755.5, -1417931.0, 1037.1093, -0.029440975, -0.0015146539, -1397702.4, 460.0133, 0.0, 5.0487313, 5.035389 
1.00645185e+3, 1.623553e+2, -1348422.4, -1372864.3, 2062.5032, -0.01085978, -0.0047759637, -1348249.6, 667.782, 0.0, 5.0500255, 5.0336485 
1.0061578e+3, 1.6737954e+2, -1299380.4, -1326943.3, 147.12503, 0.0166986, -0.007898239, -1299379.5, 299.50546, 0.0, 5.0508494, 5.032493 
1.0058601e+3, 1.7240287e+2, -1248567.4, -1277445.6, -537.05206, 0.02381204, -0.012710319, -1248557.4, 1892.1987, 0.0, 5.051701, 5.032566 
1.00555986e+3, 1.7742774e+2, -1197750.4, -1225320.3, 289.60205, 0.007971586, -0.008729018, -1197747.3, 3457.959, 0.0, 5.0520587, 5.0337605 
1.0052612e+3, 1.8245305e+2, -1151156.9, -1180072.4, 3140.075, -0.021325197, -0.001305932, -1150819.9, 1137.0121, 0.0, 5.0521474, 5.0326133 
1.0049649e+3, 1.8747585e+2, -1103376.0, -1135870.5, 3123.751, -0.042385746, -0.0036664833, -1103078.4, -344.6654, 0.0, 5.0527987, 5.030924 
1.0046702e+3, 1.9249624e+2, -1054110.8, -1088524.0, 2766.7393, -0.044330288, -0.0120847495, -1053889.8, -355.46854, 0.0, 5.053426, 5.0303535 
1.0043767e+3, 1.9751906e+2, -1000846.75, -1033738.0, 3538.734, -0.031255793, -0.009507617, -1000470.3, 3841.0986, 0.0, 5.0543165, 5.0322595 
1.0040839e+3, 2.025437e+2, -949446.5, -979727.44, 2717.6206, -0.00495436, -0.0063331965, -949204.5, 5866.428, 0.0, 5.0545416, 5.034211 
1.00378715e+3, 2.0756832e+2, -904415.25, -937443.9, 3460.4937, -0.00016080982, -0.0060242536, -904056.56, 1774.4786, 0.0, 5.054435, 5.0321383 
1.0034871e+3, 2.1259044e+2, -856465.2, -888501.56, 4066.5435, -0.015146631, -0.014844316, -855957.06, 658.15204, 0.0, 5.054221, 5.0324883 
1.00318484e+3, 2.1761604e+2, -805199.44, -834311.7, 3763.0378, -0.038022976, -0.0011924709, -804720.9, 2644.0808, 0.0, 5.0542846, 5.0346494 
1.0028801e+3, 2.2264421e+2, -753052.7, -778757.8, 2399.5398, -0.046351504, 0.011617937, -752830.6, 5258.4204, 0.0, 5.0544143, 5.037323 
1.0025742e+3, 2.2767146e+2, -708267.56, -737213.1, 4046.4023, -0.034768566, 0.016892588, -707712.56, 1109.1649, 0.0, 5.054405, 5.034887 
1.0022675e+3, 2.326957e+2, -659162.75, -687614.94, 5878.1543, -0.017230164, 0.010678813, -657996.2, 1587.851, 0.0, 5.0546603, 5.035244 
1.0019582e+3, 2.3772278e+2, -608427.44, -634779.8, 4690.4805, 0.0015344206, 0.02148217, -607617.5, 2701.0745, 0.0, 5.054789, 5.03695 
1.0016401e+3, 2.427507e+2, -556616.9, -581670.25, 535.26746, 0.011923375, 0.020833986, -556605.5, 4437.531, 0.0, 5.0550466, 5.0388856 
1.00131534e+3, 2.4777249e+2, -512040.34, -538310.25, 4397.574, 0.0028220064, -0.03538948, -511323.75, 502.89758, 0.0, 5.0546613, 5.0371895 
1.0009898e+3, 2.527965e+2, -465942.34, -492313.47, 7286.0625, -0.0026736364, -0.04740404, -464063.2, -1474.0935, 0.0, 5.054329, 5.0364747 
1.00065924e+3, 2.5782427e+2, -415565.22, -441173.25, 6844.675, -0.015173376, -0.027754266, -413850.56, -535.2806, 0.0, 5.054735, 5.037416 
1.00032255e+3, 2.6285118e+2, -365871.97, -397415.2, 1872.3745, -0.018376697, -0.012431883, -365761.22, -1709.0873, 0.0, 5.055896, 5.0355444 
9.9998176e+2, 2.6787204e+2, -316813.47, -348145.3, 1086.846, 0.007974729, -0.04231433, -316775.8, -1927.8462, 0.0, 5.056388, 5.0356026 
9.996372e+2, 2.728985e+2, -269474.25, -306374.06, 2085.8901, -0.005713666, 0.008322732, -269356.72, -3768.5923, 0.0, 5.057427, 5.0327387 
9.992849e+2, 2.7792388e+2, -216895.63, -257926.45, -277.0672, -0.044887614, 0.056182664, -216893.75, -555.841, 0.0, 5.0593543, 5.032084 
9.989261e+2, 2.8293666e+2, -156416.03, -206463.78, -544.9732, -0.008222515, -0.015365397, -156410.1, 10800.396, 0.0, 5.0639577, 5.0316105 
9.985492e+2, 2.8794724e+2, -105506.79, -164169.47, 12806.0625, -0.0060713952, -0.06480014, -102833.086, 15274.013, 0.0, 5.0666103, 5.028218 
9.981687e+2, 2.9295456e+2, -67861.55, -132814.7, 14110.742, -0.03847793, -0.086865745, -64928.504, 4109.408, 0.0, 5.0652375, 5.0224876 
9.977876e+2, 2.9797152e+2, -36314.457, -96845.06, 58.532043, -0.0103731705, 0.010988821, -36314.4, -16439.713, 0.0, 5.060017, 5.020138 
9.973964e+2, 3.0297512e+2, -1806.868, -56749.7, -5368.682, -0.055517457, 0.021125466, -1287.1882, -1287.1882, 0.0, 5.0558233, 5.0185556 
9.969945e+2, 3.0797744e+2, 24240.648, -14693.837, -25302.691, -0.0144099, -0.02063959, 36698.313, 36698.313, 0.0, 5.0461874, 5.0206203 
