coord_x,coord_y,stress_xx,stress_yy,tau_xy,velocity_x,velocity_y,stress_1,eps,damage,lx,ly
2.5071338e+0, 1.21522926e+2, -1707323.1, -1739672.6, -373.5531, 0.00094369974, -0.009145442, -1707318.9, 41766.65, 0.0, 5.0140743, 4.992986 
2.5071198e+0, 1.2651253e+2, -1669091.0, -1712796.0, -319.947, 0.0005620544, 0.024637833, -1669088.6, 31092.342, 0.0, 5.014125, 4.985703 
2.5070935e+0, 1.314971e+2, -1619949.4, -1663724.3, -213.43623, 0.00007361926, 0.012577771, -1619948.4, 31385.275, 0.0, 5.0141716, 4.985703 
2.5070673e+0, 1.3648164e+2, -1573017.9, -1619192.0, -106.84391, -0.0004238902, 0.0017654509, -1573017.6, 29468.865, 0.0, 5.0142183, 4.984199 
2.5070423e+0, 1.4146401e+2, -1529615.0, -1581817.8, -43.712757, -0.0007873818, 0.008528967, -1529614.9, 24044.873, 0.0, 5.01424, 4.980253 
2.5070268e+0, 1.4644468e+2, -1480160.4, -1531757.4, -15.650702, -0.00075112295, 0.0067307944, -1480160.4, 24687.559, 0.0, 5.014202, 4.9806027 
2.5070128e+0, 1.514253e+2, -1431226.1, -1482762.6, 17.103216, -0.000696912, 0.004283144, -1431226.1, 24810.115, 0.0, 5.0141625, 4.9806027 
2.5069988e+0, 1.5640593e+2, -1383719.5, -1436743.9, 50.013428, -0.0006461696, 0.0022877068, -1383719.5, 23505.102, 0.0, 5.014123, 4.9796076 
2.50699e+0, 1.6138265e+2, -1343202.6, -1405303.4, 49.913467, -0.00047469093, 0.00486144, -1343202.5, 15248.313, 0.0, 5.0140715, 4.973738 
2.5069922e+0, 1.6635612e+2, -1294259.0, -1356137.6, 2.1669436, -0.000016708114, -0.0010057702, -1294259.0, 15449.397, 0.0, 5.013984, 4.9737945 
2.5069943e+0, 1.7132957e+2, -1245399.1, -1307142.1, -42.811214, 0.0004474854, -0.0069196504, -1245399.1, 15566.595, 0.0, 5.0138955, 4.973795 
2.5069958e+0, 1.7630304e+2, -1197673.8, -1260548.9, -87.49376, 0.00090633694, -0.012442174, -1197673.6, 14549.384, 0.0, 5.0138063, 4.972987 
2.5069767e+0, 1.8127288e+2, -1158336.6, -1231809.3, -107.427025, 0.0011171979, -0.008199919, -1158336.5, 5180.007, 0.0, 5.0137258, 4.9661417 
2.5069132e+0, 1.8623929e+2, -1109298.6, -1182630.6, -104.37038, 0.00081332505, -0.008342988, -1109298.5, 5546.637, 0.0, 5.0136585, 4.966165 
2.5068477e+0, 1.912057e+2, -1060290.9, -1133521.9, -102.58853, 0.00048453044, -0.008627365, -1060290.8, 5883.2744, 0.0, 5.0135922, 4.966165 
2.506782e+0, 1.961721e+2, -1012173.4, -1086328.5, -100.47406, 0.00014673287, -0.008589202, -1012173.25, 5329.476, 0.0, 5.013526, 4.9655147 
2.5067502e+0, 2.0113459e+2, -972931.2, -1058433.9, -51.42075, -0.0000189098, -0.002105477, -972931.2, -4060.945, 0.0, 5.0134935, 4.9582634 
2.506805e+0, 2.0609266e+2, -923435.9, -1008857.7, -22.350426, 0.00036116957, -0.007827685, -923435.9, -3154.2898, 0.0, 5.013529, 4.9583445 
2.506864e+0, 2.1105067e+2, -874049.0, -959528.2, -4.1131716, 0.0007657735, -0.01424921, -874049.0, -2355.6094, 0.0, 5.013566, 4.9583445 
2.5069228e+0, 2.1600868e+2, -825328.44, -911654.94, 14.515547, 0.001159097, -0.020541562, -825328.44, -2223.264, 0.0, 5.0136037, 4.957845 
2.5069493e+0, 2.2096343e+2, -784624.8, -881023.4, -67.28698, 0.0015593482, -0.017525697, -784624.75, -10077.275, 0.0, 5.013575, 4.951444 
2.50691e+0, 2.2591507e+2, -735066.8, -830192.06, -204.06796, 0.0021896528, -0.024436995, -735066.4, -9050.096, 0.0, 5.0133677, 4.9520426 
2.5068685e+0, 2.308667e+2, -686330.9, -781129.06, -321.63293, 0.0028302216, -0.032158334, -686329.8, -8845.022, 0.0, 5.013151, 4.952043 
2.5068265e+0, 2.3581833e+2, -638239.8, -733508.1, -437.77524, 0.0034453284, -0.03985329, -638237.75, -9284.473, 0.0, 5.0129347, 4.951542 
2.50674e+0, 2.4076672e+2, -600781.25, -709517.3, -448.88177, 0.0036737681, -0.028466746, -600779.4, -20322.404, 0.0, 5.0127063, 4.9428387 
2.5066206e+0, 2.4571224e+2, -551413.2, -659763.9, -243.64091, 0.0029641709, -0.00710705, -551412.6, -19411.748, 0.0, 5.0126004, 4.9429784 
2.506509e+0, 2.506577e+2, -502152.94, -610408.3, -76.28678, 0.002181138, 0.013181084, -502152.88, -18606.705, 0.0, 5.0125203, 4.942978 
2.506395e+0, 2.556032e+2, -453135.94, -561616.8, 89.80848, 0.0013642077, 0.03353124, -453135.84, -18044.441, 0.0, 5.0124383, 4.9427795 
2.506355e+0, 2.6054415e+2, -409672.66, -524917.56, -61.616558, 0.0016908117, 0.049060937, -409672.63, -23000.076, 0.0, 5.0122504, 4.9382625 
2.5065282e+0, 2.6547992e+2, -356615.16, -463231.94, -1105.3884, 0.0068853116, -0.035458416, -356603.7, -18331.223, 0.0, 5.011381, 4.942657 
2.5067008e+0, 2.704155e+2, -309517.97, -414808.34, -2107.5989, 0.012096408, -0.13232246, -309475.8, -19605.533, 0.0, 5.0104256, 4.9426827 
2.5068536e+0, 2.7535114e+2, -262396.94, -366502.63, -3053.3933, 0.016763335, -0.22959295, -262307.47, -20839.371, 0.0, 5.009468, 4.942661 
2.5072044e+0, 2.8028846e+2, -246027.8, -399351.44, -1280.1874, 0.013787605, -0.15515836, -246017.11, -52956.984, 0.0, 5.0105634, 4.913461 
2.507512e+0, 2.852233e+2, -179948.45, -321554.66, -1354.6876, 0.008368585, -0.009457792, -179935.5, -35206.977, 0.0, 5.01257, 4.9221616 
2.50767e+0, 2.9015335e+2, -128210.42, -270951.5, -1516.184, 0.0069966726, 0.040163577, -128194.32, -31744.113, 0.0, 5.0133667, 4.922158 
2.5078088e+0, 2.9508337e+2, -76349.76, -220330.72, -1691.4418, 0.0048734485, 0.08918322, -76329.89, -28157.516, 0.0, 5.014155, 4.922154 
2.5082713e+0, 3.000233e+2, -13268.246, -112060.65, -984.0871, 0.0032641308, 0.12455106, -13258.444, -13258.444, 0.0, 5.01529, 4.951592 
2.510309e+0, 3.0498105e+2, 12416.443, -58832.656, -3020.6038, 0.014059522, -0.05371596, 12544.272, 12544.272, 0.0, 5.0164337, 4.9687066 
2.512464e+0, 3.0994323e+2, 15920.344, -57074.883, -5668.482, 0.025404288, -0.2780778, 16357.91, 16357.91, 0.0, 5.017313, 4.9688845 
2.5145328e+0, 3.1490573e+2, 19725.13, -55342.94, -7844.693, 0.034324266, -0.50172937, 20536.146, 20536.146, 0.0, 5.018191, 4.9690633 
7.521395e+0, 1.2152217e+2, -1708508.8, -1742083.8, -368.17587, 0.002752748, -0.01187929, -1708504.6, 40588.082, 0.0, 5.0140743, 4.9921937 
7.5213575e+0, 1.2651259e+2, -1668882.6, -1712370.4, -284.68918, 0.0016713446, 0.029601494, -1668880.8, 31300.215, 0.0, 5.0141244, 4.985843 
7.52128e+0, 1.3149698e+2, -1619740.5, -1663298.8, -177.36818, 0.00020528324, 0.0143491635, -1619739.8, 31595.191, 0.0, 5.014172, 4.985843 
7.5212014e+0, 1.3648134e+2, -1572809.5, -1618766.9, -69.978325, -0.0012880007, 0.0003371967, -1572809.4, 29679.848, 0.0, 5.014219, 4.984339 
7.521127e+0, 1.4146362e+2, -1529508.6, -1581598.1, -61.33072, -0.0023658173, 0.005102373, -1529508.6, 24154.547, 0.0, 5.01424, 4.980326 
7.5210816e+0, 1.464444e+2, -1480097.8, -1531625.8, -46.97974, -0.0022551804, 0.004095046, -1480097.6, 24752.33, 0.0, 5.0142016, 4.980647 
7.5210387e+0, 1.5142517e+2, -1431164.5, -1482631.5, -13.249902, -0.0020941473, 0.0025511433, -1431164.5, 24872.42, 0.0, 5.014162, 4.980647 
7.520996e+0, 1.5640593e+2, -1383659.4, -1436613.4, 20.63115, -0.00194352, 0.0014617095, -1383659.4, 23564.518, 0.0, 5.014122, 4.979652 
7.5209713e+0, 1.6138275e+2, -1343243.3, -1405384.0, -7.4518323, -0.0014232496, 0.004786498, -1343243.3, 15206.061, 0.0, 5.0140705, 4.973712 
7.5209767e+0, 1.6635622e+2, -1294340.9, -1356306.3, -65.68054, -0.000053398762, -0.00040962346, -1294340.9, 15366.361, 0.0, 5.0139832, 4.9737387 
7.520982e+0, 1.7132968e+2, -1245480.3, -1307309.3, -109.74177, 0.0013329928, -0.005629169, -1245480.1, 15484.829, 0.0, 5.0138946, 4.973739 
7.520987e+0, 1.7630316e+2, -1197754.8, -1260714.9, -153.63712, 0.0027033584, -0.01045652, -1197754.4, 14468.189, 0.0, 5.0138054, 4.972932 
7.5209314e+0, 1.8127298e+2, -1158339.4, -1231811.1, -161.02005, 0.0033486413, -0.006165012, -1158339.0, 5177.5464, 0.0, 5.013725, 4.9661417 
7.5207394e+0, 1.8623929e+2, -1109294.5, -1182617.5, -153.8628, 0.0024337356, -0.0073753255, -1109294.3, 5551.7764, 0.0, 5.013658, 4.9661703 
7.520543e+0, 1.9120558e+2, -1060287.8, -1133508.4, -150.70352, 0.0014384452, -0.008728056, -1060287.4, 5888.0503, 0.0, 5.013591, 4.9661703 
7.520345e+0, 1.961719e+2, -1012172.4, -1086315.1, -147.32523, 0.00041614578, -0.009754551, -1012172.06, 5332.799, 0.0, 5.013524, 4.9655204 
7.52025e+0, 2.0113434e+2, -972881.44, -1058311.4, -39.334522, -0.000055077104, -0.0038586843, -972881.44, -4008.95, 0.0, 5.0134907, 4.958307 
7.520415e+0, 2.0609258e+2, -923404.94, -1008777.06, 7.3239255, 0.0010831625, -0.008148359, -923404.94, -3122.527, 0.0, 5.0135264, 4.958374 
7.5205916e+0, 2.1105078e+2, -874017.4, -959446.1, 27.74966, 0.0022828393, -0.01294313, -874017.4, -2324.6555, 0.0, 5.0135636, 4.9583745 
7.520767e+0, 2.1600898e+2, -825297.56, -911572.2, 48.250595, 0.0034486742, -0.017605834, -825297.5, -2194.5222, 0.0, 5.013601, 4.9578757 
7.52085e+0, 2.2096382e+2, -784721.5, -881228.7, -174.44295, 0.0046727946, -0.013682244, -784721.2, -10176.331, 0.0, 5.013573, 4.9513755 
7.520731e+0, 2.2591534e+2, -735254.75, -830598.56, -358.348, 0.0065537584, -0.02023165, -735253.4, -9237.917, 0.0, 5.0133657, 4.9519053 
7.5206053e+0, 2.3086688e+2, -686520.9, -781532.06, -472.87314, 0.008449233, -0.027435498, -686518.5, -9032.734, 0.0, 5.0131474, 4.9519067 
7.520477e+0, 2.358184e+2, -638434.75, -733909.06, -586.495, 0.010268319, -0.034617364, -638431.2, -9475.078, 0.0, 5.0129285, 4.9514065 
7.520227e+0, 2.4076661e+2, -600553.25, -708985.2, -597.10803, 0.010982511, -0.025007756, -600550.0, -20088.15, 0.0, 5.012701, 4.9430237 
7.519866e+0, 2.4571185e+2, -551148.06, -659117.94, -333.5786, 0.008869718, -0.008671824, -551147.06, -19140.338, 0.0, 5.01259, 4.9432063 
7.519524e+0, 2.5065705e+2, -501918.56, -609780.25, -160.2634, 0.0065139392, 0.007009131, -501918.3, -18365.807, 0.0, 5.0125003, 4.9432054 
7.519175e+0, 2.556023e+2, -452937.8, -561008.94, 11.70154, 0.0040564714, 0.02287877, -452937.8, -17839.668, 0.0, 5.012406, 4.943006 
7.519038e+0, 2.605433e+2, -410350.2, -526168.3, -302.0035, 0.0049859197, 0.03770456, -410349.4, -23671.023, 0.0, 5.012196, 4.9378695 
7.5195134e+0, 2.6547945e+2, -358227.3, -466343.63, -1424.5398, 0.019944383, -0.029801399, -358208.56, -19930.326, 0.0, 5.0112863, 4.94166 
7.519986e+0, 2.7041548e+2, -311212.4, -417787.3, -2415.6057, 0.034871615, -0.10825897, -311157.7, -21281.328, 0.0, 5.0102744, 4.941736 
7.5203997e+0, 2.7535152e+2, -264219.0, -369369.03, -3378.287, 0.04816603, -0.18793614, -264110.6, -22636.129, 0.0, 5.009245, 4.9417653 
7.521447e+0, 2.802875e+2, -244828.69, -393328.84, 609.7566, 0.041649174, -0.13204485, -244826.19, -51743.387, 0.0, 5.0100403, 4.915765 
7.522458e+0, 2.8522012e+2, -181834.53, -321934.97, -698.5067, 0.027674302, -0.015201352, -181831.05, -37062.4, 0.0, 5.011996, 4.9223013 
7.5230044e+0, 2.90149e+2, -129678.07, -271164.25, -618.70685, 0.023456015, 0.027664185, -129675.37, -33178.797, 0.0, 5.0129285, 4.922289 
7.523493e+0, 2.950778e+2, -77523.85, -220432.45, -597.8845, 0.016983982, 0.06872461, -77521.34, -29295.408, 0.0, 5.013808, 4.922277 
7.524847e+0, 3.0001867e+2, -12825.566, -107873.39, 836.4138, 0.012152537, 0.10543265, -12818.206, -12818.206, 0.0, 5.0148597, 4.9533157 
7.530419e+0, 3.0497658e+2, 7235.435, -65142.992, -785.5477, 0.040976483, -0.039821774, 7243.96, 7243.96, 0.0, 5.0156074, 4.9670568 
7.5362813e+0, 3.0993754e+2, 9815.614, -62676.37, -3245.914, 0.07037007, -0.22764778, 9960.664, 9960.664, 0.0, 5.0160527, 4.9675827 
7.541884e+0, 3.1489936e+2, 12503.732, -60319.105, -5317.8706, 0.092491515, -0.41334695, 12890.02, 12890.02, 0.0, 5.016424, 4.96811 
1.2535648e+1, 1.2152138e+2, -1709628.9, -1744366.4, -362.4792, 0.004457253, -0.014864177, -1709625.1, 39475.285, 0.0, 5.0140758, 4.991443 
1.2535594e+1, 1.2651266e+2, -1668673.1, -1711943.6, -250.50912, 0.0027608755, 0.034617938, -1668671.6, 31509.129, 0.0, 5.014125, 4.985983 
1.2535465e+1, 1.3149686e+2, -1619531.5, -1662872.5, -141.65793, 0.00031618026, 0.016150596, -1619531.1, 31805.191, 0.0, 5.0141726, 4.9859834 
1.2535335e+1, 1.3648105e+2, -1572600.9, -1618341.0, -32.749, -0.0021738855, -0.0010837602, -1572600.9, 29891.066, 0.0, 5.0142198, 4.9844794 
1.2535211e+1, 1.4146324e+2, -1529406.4, -1581388.5, -78.98899, -0.0039491495, 0.0017040911, -1529406.3, 24260.17, 0.0, 5.01424, 4.9803953 
1.2535135e+1, 1.4644414e+2, -1480033.6, -1531493.1, -77.43479, -0.0037616529, 0.0014823445, -1480033.5, 24818.47, 0.0, 5.014202, 4.980691 
1.2535064e+1, 1.5142503e+2, -1431101.0, -1482499.3, -42.869453, -0.0034959312, 0.00082571903, -1431101.0, 24936.611, 0.0, 5.014162, 4.980691 
1.2534992e+1, 1.5640593e+2, -1383596.5, -1436481.4, -8.146424, -0.0032475519, 0.000625817, -1383596.5, 23626.781, 0.0, 5.014122, 4.9796963 
1.2534954e+1, 1.6138284e+2, -1343285.1, -1405472.6, -64.15109, -0.00237071, 0.0047311503, -1343285.1, 15162.761, 0.0, 5.0140705, 4.9736824 
1.2534961e+1, 1.6635633e+2, -1294420.1, -1356473.1, -133.47388, -0.00009445441, 0.00020450407, -1294419.9, 15286.1875, 0.0, 5.0139837, 4.973683 
1.253497e+1, 1.713298e+2, -1245558.8, -1307474.8, -176.61745, 0.0022058832, -0.0043359753, -1245558.3, 15405.873, 0.0, 5.013895, 4.9736834 
1.2534977e+1, 1.7630328e+2, -1197832.5, -1260879.0, -219.58339, 0.0044795107, -0.008483423, -1197831.8, 14390.408, 0.0, 5.013806, 4.9728765 
1.2534887e+1, 1.8127309e+2, -1158343.8, -1231822.5, -213.90837, 0.0055761477, -0.0040969267, -1158343.1, 5173.5186, 0.0, 5.0137253, 4.9661374 
1.2534566e+1, 1.8623929e+2, -1109286.5, -1182602.0, -202.96707, 0.004045826, -0.00637658, -1109286.0, 5560.7554, 0.0, 5.0136585, 4.966175 
1.2534237e+1, 1.9120547e+2, -1060279.8, -1133491.9, -198.29465, 0.0023721645, -0.008821853, -1060279.1, 5897.748, 0.0, 5.0135913, 4.9661756 
1.2533905e+1, 1.9617169e+2, -1012164.3, -1086297.8, -193.39566, 0.0006534881, -0.010937195, -1012163.8, 5343.203, 0.0, 5.0135245, 4.965526 
1.2533751e+1, 2.0113412e+2, -972832.75, -1058205.5, -26.978935, -0.0000890407, -0.005562031, -972832.75, -3958.0142, 0.0, 5.0134907, 4.958343 
1.2534027e+1, 2.0609249e+2, -923366.9, -1008692.2, 37.616253, 0.0018046963, -0.008419915, -923366.8, -3083.5574, 0.0, 5.0135264, 4.958403 
1.2534317e+1, 2.1105088e+2, -873978.7, -959359.94, 60.33682, 0.0037805985, -0.011627047, -873978.7, -2286.6174, 0.0, 5.013564, 4.958404 
1.2534608e+1, 2.1600927e+2, -825258.3, -911484.7, 83.13021, 0.005700098, -0.014699219, -825258.25, -2157.4253, 0.0, 5.013601, 4.957906 
1.2534752e+1, 2.2096422e+2, -784820.25, -881455.2, -278.7628, 0.0077792443, -0.009768074, -784819.44, -10277.307, 0.0, 5.013575, 4.951297 
1.2534553e+1, 2.2591564e+2, -735431.44, -830997.9, -511.21283, 0.010897604, -0.015951648, -735428.7, -9414.132, 0.0, 5.013368, 4.951767 
1.2534341e+1, 2.3086706e+2, -686695.44, -781925.94, -621.50415, 0.014013006, -0.022703784, -686691.4, -9204.676, 0.0, 5.0131497, 4.95177 
1.2534124e+1, 2.3581849e+2, -638607.25, -734297.6, -730.87274, 0.017001092, -0.029438332, -638601.7, -9642.846, 0.0, 5.012931, 4.9512706 
1.2533723e+1, 2.4076653e+2, -600320.6, -708490.4, -727.38995, 0.018239532, -0.021417486, -600315.75, -19849.18, 0.0, 5.0127077, 4.9431887 
1.253312e+1, 2.4571148e+2, -550845.3, -658444.94, -413.17117, 0.014744865, -0.01005321, -550843.75, -18831.346, 0.0, 5.012595, 4.943434 
1.2532535e+1, 2.5065643e+2, -501630.66, -609117.94, -232.85925, 0.010807437, 0.0009291162, -501630.16, -18071.426, 0.0, 5.0125012, 4.943432 
1.2531939e+1, 2.556014e+2, -452664.66, -560357.1, -53.892803, 0.0067005316, 0.012226775, -452664.63, -17559.85, 0.0, 5.0124025, 4.9432316 
1.2531684e+1, 2.605424e+2, -410972.13, -527455.3, -565.8144, 0.0081656575, 0.02629078, -410969.38, -24284.979, 0.0, 5.012185, 4.9374347 
1.2532406e+1, 2.6547894e+2, -359652.22, -469331.84, -1757.7699, 0.03205457, -0.024943583, -359624.06, -21339.598, 0.0, 5.011269, 4.9406495 
1.2533118e+1, 2.7041537e+2, -312578.44, -420579.63, -2672.5588, 0.055756457, -0.085906364, -312512.34, -22629.178, 0.0, 5.010253, 4.940777 
1.253373e+1, 2.7535182e+2, -265527.0, -371966.44, -3558.829, 0.07673654, -0.14890228, -265408.13, -23926.3, 0.0, 5.009218, 4.9408565 
1.2535468e+1, 2.802866e+2, -243235.45, -387978.13, 2396.56, 0.0698914, -0.107969984, -243195.78, -50091.195, 0.0, 5.0098352, 4.917689 
1.2537302e+1, 2.8521717e+2, -183049.6, -321897.16, 265.8972, 0.0504048, -0.01775335, -183049.1, -38242.34, 0.0, 5.0116954, 4.922429 
1.2538332e+1, 2.9014483e+2, -130697.84, -271059.5, 468.20615, 0.04320331, 0.016927652, -130696.28, -34154.695, 0.0, 5.012684, 4.9224086 
1.2539266e+1, 2.950723e+2, -78349.51, -220261.67, 611.49695, 0.032246068, 0.048600644, -78346.875, -30068.023, 0.0, 5.013619, 4.9223886 
1.2541467e+1, 3.0001378e+2, -12613.901, -104867.65, 2402.1526, 0.024185121, 0.08551008, -12551.3955, -12551.3955, 0.0, 5.0146127, 4.954484 
1.2549852e+1, 3.0497143e+2, 2756.3271, -70995.15, 1212.0308, 0.06629227, -0.03197782, 2776.2402, 2776.2402, 0.0, 5.015085, 4.9653363 
1.2558618e+1, 3.0993086e+2, 4924.679, -67598.77, -844.1441, 0.107554704, -0.19047809, 4934.5034, 4934.5034, 0.0, 5.015288, 4.9662094 
1.256695e+1, 3.148917e+2, 7202.117, -64312.68, -2510.8184, 0.13670336, -0.34544307, 7290.161, 7290.161, 0.0, 5.0154166, 4.9670835 
1.7549892e+1, 1.21520564e+2, -1710720.9, -1746538.9, -350.99228, 0.0060607432, -0.018103255, -1710717.4, 38390.88, 0.0, 5.0140657, 4.9907336 
1.7549828e+1, 1.2651272e+2, -1668473.9, -1711521.0, -213.08624, 0.0038321086, 0.039686166, -1668472.8, 31707.854, 0.0, 5.014122, 4.9861226 
1.754965e+1, 1.3149676e+2, -1619325.0, -1662446.8, -103.49815, 0.0004068279, 0.01798155, -1619324.8, 32012.803, 0.0, 5.014172, 4.986123 
1.7549469e+1, 1.3648075e+2, -1572404.1, -1617920.1, 5.985423, -0.0030808388, -0.002497451, -1572404.1, 30090.635, 0.0, 5.014217, 4.984619 
1.7549296e+1, 1.4146285e+2, -1529334.3, -1581201.8, -96.88312, -0.0055360193, -0.0016655939, -1529334.1, 24335.646, 0.0, 5.014232, 4.9804606 
1.754919e+1, 1.4644387e+2, -1479993.0, -1531371.9, -107.893524, -0.0052692317, -0.0011071541, -1479992.9, 24861.178, 0.0, 5.0141945, 4.980735 
1.754909e+1, 1.5142491e+2, -1431068.3, -1482381.8, -73.7675, -0.0049005416, -0.0008932466, -1431068.1, 24970.041, 0.0, 5.014152, 4.9807353 
1.7548989e+1, 1.5640593e+2, -1383581.0, -1436372.1, -39.92555, -0.0045556263, -0.00022049014, -1383581.0, 23641.543, 0.0, 5.0141063, 4.97974 
1.7548935e+1, 1.6138293e+2, -1343384.1, -1405596.0, -124.7422, -0.0033140883, 0.004694579, -1343383.9, 15062.445, 0.0, 5.0140533, 4.97365 
1.7548947e+1, 1.6635643e+2, -1294523.1, -1356651.1, -205.31847, -0.00013819494, 0.0008359622, -1294522.5, 15182.4, 0.0, 5.013976, 4.9736266 
1.7548956e+1, 1.7132993e+2, -1245647.5, -1307644.9, -247.85869, 0.00306739, -0.0030405682, -1245646.5, 15316.764, 0.0, 5.0138917, 4.9736276 
1.7548965e+1, 1.7630342e+2, -1197924.0, -1261049.5, -290.89304, 0.0062365187, -0.0065232636, -1197922.6, 14299.113, 0.0, 5.0138016, 4.9728208 
1.7548841e+1, 1.8127319e+2, -1158371.9, -1231853.9, -272.87262, 0.0078020534, -0.0019959642, -1158370.9, 5145.8193, 0.0, 5.0137196, 4.9661293 
1.7548393e+1, 1.8623929e+2, -1109283.6, -1182588.3, -258.56458, 0.0056517017, -0.0053471243, -1109282.8, 5564.732, 0.0, 5.0136576, 4.96618 
1.754793e+1, 1.9120538e+2, -1060285.0, -1133481.3, -252.66101, 0.003288808, -0.008909469, -1060284.1, 5894.2427, 0.0, 5.0135875, 4.966181 
1.7547464e+1, 1.9617148e+2, -1012200.44, -1086300.8, -246.7778, 0.0008642109, -0.012138453, -1012199.6, 5309.473, 0.0, 5.0135098, 4.9655313 
1.7547253e+1, 2.0113386e+2, -972861.0, -1058152.3, -23.000874, -0.00011368379, -0.0072172713, -972861.0, -3984.0264, 0.0, 5.013468, 4.9583716 
1.7547637e+1, 2.0609243e+2, -923363.1, -1008622.7, 59.6314, 0.0025308519, -0.00864356, -923363.06, -3079.0027, 0.0, 5.013515, 4.958432 
1.7548044e+1, 2.11051e+2, -873968.3, -959286.25, 83.76538, 0.005263615, -0.010301744, -873968.25, -2276.883, 0.0, 5.0135546, 4.958433 
1.7548448e+1, 2.1600957e+2, -825271.9, -911421.06, 107.61586, 0.007919188, -0.011822254, -825271.75, -2173.1536, 0.0, 5.013583, 4.9579353 
1.7548656e+1, 2.2096461e+2, -785008.06, -881743.7, -394.0567, 0.01088603, -0.005783934, -785006.5, -10467.128, 0.0, 5.0135503, 4.951209 
1.7548378e+1, 2.2591592e+2, -735659.56, -831419.1, -677.822, 0.015227972, -0.011599467, -735654.75, -9641.216, 0.0, 5.0133533, 4.951628 
1.7548077e+1, 2.3086725e+2, -686944.75, -782352.44, -781.8788, 0.019530686, -0.017968632, -686938.4, -9450.815, 0.0, 5.013127, 4.951632 
1.754777e+1, 2.3581858e+2, -638931.8, -734754.3, -882.3562, 0.023658335, -0.024325786, -638923.7, -9962.151, 0.0, 5.0128803, 4.951134 
1.7547227e+1, 2.4076644e+2, -600366.0, -708163.8, -854.0503, 0.025466008, -0.017708577, -600359.25, -19888.082, 0.0, 5.012627, 4.943333 
1.754638e+1, 2.457111e+2, -550857.4, -657908.06, -531.8528, 0.020613708, -0.011256914, -550854.7, -18836.793, 0.0, 5.012492, 4.9436593 
1.7545544e+1, 2.506558e+2, -501798.06, -608655.8, -390.74728, 0.01509313, -0.0050521605, -501796.63, -18231.799, 0.0, 5.0123434, 4.943657 
1.7544691e+1, 2.5560054e+2, -453075.53, -560009.2, -260.4701, 0.009340279, 0.0015994053, -453074.88, -17963.545, 0.0, 5.012159, 4.9434557 
1.7544295e+1, 2.6054147e+2, -412826.4, -529364.3, -1057.4772, 0.011299656, 0.0148525955, -412816.8, -26126.266, 0.0, 5.011758, 4.9369574 
1.7545205e+1, 2.6547837e+2, -363911.75, -473557.4, -2211.764, 0.043366887, -0.02091844, -363867.16, -25575.955, 0.0, 5.0102468, 4.9396276 
1.75461e+1, 2.704152e+2, -319292.6, -425729.78, -2718.0227, 0.07502565, -0.06541756, -319223.25, -29332.406, 0.0, 5.0083184, 4.9398065 
1.7546856e+1, 2.75352e+2, -275491.3, -378388.53, -3008.385, 0.10291088, -0.11280983, -275403.44, -33913.02, 0.0, 5.0060806, 4.939938 
1.7549278e+1, 2.802858e+2, -253499.08, -388786.47, 5075.3276, 0.09909, -0.083399646, -253308.94, -60183.18, 0.0, 5.0055466, 4.9192348 
1.7552054e+1, 2.852144e+2, -192267.31, -325306.13, 2334.6206, 0.07699286, -0.01739734, -192226.36, -47383.414, 0.0, 5.00854, 4.9225426 
1.7553662e+1, 2.901408e+2, -136758.22, -273068.72, 2325.942, 0.066547096, 0.007837971, -136718.55, -40133.258, 0.0, 5.0106473, 4.922514 
1.7555137e+1, 2.9506686e+2, -82651.805, -221502.23, 2318.4692, 0.050913844, 0.028796662, -82613.1, -34282.03, 0.0, 5.0122013, 4.9224854 
1.7558146e+1, 3.0000862e+2, -16867.258, -104852.49, 4125.3584, 0.03965862, 0.06474922, -16674.256, -16674.256, 0.0, 5.0129905, 4.9551044 
1.7568634e+1, 3.0496562e+2, -11680.703, -80931.94, 5324.496, 0.09066117, -0.030563219, -11273.712, -11273.712, 0.0, 5.0109224, 4.963572 
1.7579514e+1, 3.099232e+2, -20174.344, -81026.11, 7359.861, 0.13818099, -0.16729818, -19296.842, -19296.842, 0.0, 5.0070925, 4.9648013 
1.7589793e+1, 3.1488287e+2, -32161.734, -82794.766, 11164.333, 0.16890576, -0.29904458, -29809.344, -29809.344, 0.0, 5.0018697, 4.9660306 
2.2564219e+1, 1.2152028e+2, -1709077.5, -1746463.6, 135.5085, 0.0051241233, -0.019347532, -1709077.0, 40033.273, 0.0, 5.01477, 4.990411 
2.2564106e+1, 1.2651262e+2, -1667046.0, -1710726.5, 160.9059, 0.0031170587, 0.040230986, -1667045.4, 33135.92, 0.0, 5.014578, 4.986159 
2.2563888e+1, 1.314966e+2, -1618660.1, -1662032.3, 108.54901, 0.000029756317, 0.017650167, -1618659.9, 32678.836, 0.0, 5.014376, 4.986159 
2.256367e+1, 1.3648054e+2, -1572480.5, -1617872.4, 56.108437, -0.003036058, -0.0037065872, -1572480.4, 30015.943, 0.0, 5.0141745, 4.984655 
2.2563457e+1, 1.4146262e+2, -1529938.6, -1581463.0, -149.81377, -0.0051879017, -0.0032987576, -1529938.3, 23733.342, 0.0, 5.0140233, 4.9804754 
2.2563294e+1, 1.4644371e+2, -1480649.8, -1531676.3, -212.21358, -0.0050506443, -0.002250446, -1480648.9, 24206.377, 0.0, 5.013971, 4.980742 
2.2563136e+1, 1.5142481e+2, -1431745.3, -1482697.0, -235.15277, -0.004794388, -0.0015326912, -1431744.1, 24294.805, 0.0, 5.0139213, 4.9807415 
2.2562975e+1, 1.5640588e+2, -1384268.9, -1436693.5, -258.26517, -0.004525258, -0.00036830883, -1384267.6, 22955.137, 0.0, 5.013871, 4.9797463 
2.2562881e+1, 1.6138291e+2, -1344003.6, -1405993.9, -343.8434, -0.0033884782, 0.0050318344, -1344001.6, 14444.6045, 0.0, 5.013865, 4.973607 
2.2562885e+1, 1.663564e+2, -1294660.4, -1356851.3, -424.3801, -0.000427934, 0.0016773739, -1294657.5, 15047.801, 0.0, 5.013959, 4.9735684 
2.256289e+1, 1.713299e+2, -1245250.9, -1307590.5, -475.5549, 0.0026261967, -0.00169815, -1245247.3, 15716.97, 0.0, 5.014056, 4.9735684 
2.2562893e+1, 1.7630337e+2, -1196980.1, -1260736.0, -526.9403, 0.005714479, -0.004684669, -1196975.8, 15247.455, 0.0, 5.014153, 4.9727607 
2.2562763e+1, 1.8127312e+2, -1156978.8, -1231182.0, -549.67285, 0.007421648, -0.000110407134, -1156974.6, 6544.1074, 0.0, 5.014196, 4.966131 
2.2562288e+1, 1.8623912e+2, -1107948.4, -1181903.0, -530.6359, 0.0057315864, -0.0045155017, -1107944.5, 6905.5566, 0.0, 5.0141068, 4.9662004 
2.2561797e+1, 1.9120513e+2, -1059028.8, -1132837.8, -504.939, 0.0039288676, -0.009205632, -1059025.4, 7156.2417, 0.0, 5.0140114, 4.966201 
2.2561307e+1, 1.9617113e+2, -1011000.0, -1085687.6, -479.45645, 0.002164265, -0.013586765, -1010996.94, 6516.111, 0.0, 5.013916, 4.965551 
2.2561082e+1, 2.011335e+2, -971694.75, -1057454.0, -152.98224, 0.0016780244, -0.009190925, -971694.5, -2813.657, 0.0, 5.0138435, 4.958434 
2.2561467e+1, 2.0609227e+2, -922332.44, -1007980.3, 13.041918, 0.0040280614, -0.009286521, -922332.44, -2046.36, 0.0, 5.0138435, 4.958499 
2.2561876e+1, 2.1105105e+2, -873042.0, -958698.1, 92.26168, 0.006539135, -0.009517678, -873041.9, -1350.4458, 0.0, 5.0138483, 4.9584994 
2.2562285e+1, 2.1600981e+2, -824418.44, -910872.2, 170.96494, 0.00910958, -0.009627793, -824418.06, -1321.2775, 0.0, 5.013853, 4.9580007 
2.2562505e+1, 2.2096498e+2, -784274.4, -881637.1, -358.84186, 0.012405088, -0.0023759995, -784273.06, -9736.311, 0.0, 5.0138535, 4.951109 
2.2562218e+1, 2.2591625e+2, -734574.5, -831290.94, -711.82275, 0.017761685, -0.0072978996, -734569.25, -8556.432, 0.0, 5.013809, 4.951468 
2.2561905e+1, 2.3086748e+2, -685367.25, -781991.8, -862.31934, 0.023329347, -0.012872687, -685359.56, -7870.609, 0.0, 5.013757, 4.951474 
2.2561593e+1, 2.3581873e+2, -636810.5, -734139.75, -1012.97943, 0.028969184, -0.018549614, -636799.94, -7834.8525, 0.0, 5.013705, 4.9509788 
2.256106e+1, 2.4076642e+2, -597235.9, -706512.9, -942.0498, 0.032109823, -0.01304601, -597227.75, -16750.941, 0.0, 5.0136914, 4.94343 
2.2560133e+1, 2.4571085e+2, -547064.56, -655874.06, -644.04785, 0.02701238, -0.010384847, -547060.75, -15037.141, 0.0, 5.0137806, 4.9438004 
2.2559209e+1, 2.5065535e+2, -497386.44, -606395.3, -543.99347, 0.021447737, -0.007407348, -497383.72, -13813.811, 0.0, 5.013873, 4.9437847 
2.2558275e+1, 2.5559992e+2, -447959.13, -557486.2, -446.08728, 0.01605128, -0.0035155234, -447957.3, -12841.854, 0.0, 5.013965, 4.9435706 
2.2557843e+1, 2.6054084e+2, -407006.72, -527949.6, -1567.3049, 0.020253306, 0.009675584, -406986.4, -20292.193, 0.0, 5.014103, 4.936476 
2.2558874e+1, 2.654776e+2, -354053.13, -471154.25, -3219.2312, 0.061160114, -0.016835978, -353964.7, -15662.631, 0.0, 5.014242, 4.9387927 
2.255991e+1, 2.7041414e+2, -303604.28, -420332.0, -4232.088, 0.1050714, -0.0553747, -303451.06, -13539.825, 0.0, 5.0143666, 4.9391384 
2.2560813e+1, 2.753505e+2, -253147.11, -369730.2, -5206.7617, 0.14817111, -0.10152359, -252915.03, -11393.233, 0.0, 5.014489, 4.9394374 
2.2563471e+1, 2.8028286e+2, -227065.81, -370669.97, 3197.6445, 0.1629352, -0.09900656, -226994.64, -33818.387, 0.0, 5.0144415, 4.9218125 
2.2566795e+1, 2.852112e+2, -177171.4, -316001.75, 3106.0027, 0.13002689, -0.0434073, -177101.95, -32212.7, 0.0, 5.0145507, 4.923224 
2.2568974e+1, 2.90138e+2, -126440.64, -265842.66, 3793.7278, 0.10451253, -0.012139194, -126337.48, -29717.666, 0.0, 5.01487, 4.9231663 
2.2571047e+1, 2.9506394e+2, -75645.836, -215758.6, 4525.602, 0.07924764, 0.008365817, -75499.81, -27140.932, 0.0, 5.015187, 4.9231086 
2.2574669e+1, 3.000068e+2, -9868.236, -95955.31, 5868.4917, 0.06822168, 0.044897053, -9470.028, -9470.028, 0.0, 5.0153794, 4.957123 
2.2585957e+1, 3.04966e+2, -631.3277, -70681.6, 4398.038, 0.1470214, -0.03040964, -356.2811, -356.2811, 0.0, 5.0152507, 4.9654016 
2.2597858e+1, 3.099274e+2, 2060.108, -62055.81, 2442.5562, 0.23934248, -0.1399602, 2153.025, 2153.025, 0.0, 5.015141, 4.968197 
2.2609328e+1, 3.1489354e+2, 5187.237, -53871.824, 582.6371, 0.32998535, -0.23843488, 5192.984, 5192.984, 0.0, 5.015027, 4.9709954 
2.7578595e+1, 1.21520504e+2, -1709015.0, -1746332.9, 37.57751, 0.0010741157, -0.018890845, -1709015.0, 40091.72, 0.0, 5.0147696, 4.9904537 
2.7578413e+1, 1.2651238e+2, -1667146.1, -1710929.0, 4.504811, 0.00038752018, 0.036523353, -1667146.1, 33036.5, 0.0, 5.014578, 4.986092 
2.7578175e+1, 1.3149641e+2, -1618760.1, -1662234.6, -46.39059, -0.0008899207, 0.015292344, -1618760.1, 32579.59, 0.0, 5.014376, 4.986092 
2.7577937e+1, 1.3648042e+2, -1572580.5, -1618074.6, -97.32243, -0.0021734773, -0.00471187, -1572580.3, 29916.814, 0.0, 5.014174, 4.9845877 
2.7577683e+1, 1.4146256e+2, -1529988.8, -1581565.1, -211.96468, -0.0031941684, -0.003299943, -1529987.9, 23684.2, 0.0, 5.0140233, 4.9804416 
2.7577433e+1, 1.4644365e+2, -1480690.0, -1531759.4, -250.57332, -0.0033847864, -0.0020187185, -1480688.8, 24167.074, 0.0, 5.013971, 4.9807143 
2.7577186e+1, 1.5142474e+2, -1431785.0, -1482780.0, -272.7442, -0.0035265044, -0.0010964362, -1431783.5, 24256.13, 0.0, 5.0139213, 4.9807143 
2.7576938e+1, 1.5640579e+2, -1384308.1, -1436776.5, -295.08063, -0.003668974, 0.000271686, -1384306.5, 22917.066, 0.0, 5.013871, 4.9797187 
2.7576777e+1, 1.6138281e+2, -1344079.3, -1406153.4, -297.26193, -0.0031637812, 0.0058911145, -1344077.9, 14369.595, 0.0, 5.0138655, 4.973554 
2.7576765e+1, 1.6635628e+2, -1294748.6, -1357038.3, -351.15714, -0.0012630946, 0.0028442775, -1294746.6, 14960.44, 0.0, 5.013959, 4.973506 
2.7576756e+1, 1.7132972e+2, -1245338.8, -1307777.5, -401.151, 0.0006958803, -0.0002156407, -1245336.1, 15630.587, 0.0, 5.014056, 4.973506 
2.7576748e+1, 1.7630318e+2, -1197067.5, -1260923.0, -451.36795, 0.0026655756, -0.0028858064, -1197064.4, 15162.049, 0.0, 5.014153, 4.972698 
2.7576628e+1, 1.8127288e+2, -1156962.9, -1231145.4, -587.7364, 0.004058211, 0.0016142398, -1156958.3, 6564.23, 0.0, 5.0141954, 4.9661436 
2.757622e+1, 1.8623881e+2, -1107900.8, -1181797.5, -603.61816, 0.003932183, -0.0038213478, -1107895.9, 6958.498, 0.0, 5.0141063, 4.9662366 
2.7575797e+1, 1.9120474e+2, -1058981.9, -1132733.4, -576.3887, 0.0037413267, -0.009583835, -1058977.4, 7208.99, 0.0, 5.014011, 4.9662366 
2.7575374e+1, 1.9617067e+2, -1010953.7, -1085584.3, -549.3634, 0.003561362, -0.015035783, -1010949.6, 6568.6714, 0.0, 5.0139155, 4.9655867 
2.7575162e+1, 2.0113306e+2, -971563.9, -1057171.1, -178.96785, 0.0039360006, -0.011149933, -971563.5, -2677.594, 0.0, 5.0138435, 4.9585304 
2.757545e+1, 2.0609204e+2, -922187.2, -1007669.1, 12.812083, 0.005347814, -0.0101160845, -922187.2, -1898.2278, 0.0, 5.0138435, 4.958606 
2.757576e+1, 2.1105105e+2, -872898.06, -958390.06, 94.61326, 0.0067976797, -0.0091131525, -872897.94, -1205.9215, 0.0, 5.013849, 4.9586053 
2.7576068e+1, 2.1601003e+2, -824275.8, -910567.2, 175.89754, 0.008270771, -0.007985932, -824275.44, -1180.3093, 0.0, 5.0138535, 4.958106 
2.7576235e+1, 2.2096537e+2, -784409.8, -881930.56, -377.02084, 0.011031038, 0.0006020281, -784408.4, -9874.497, 0.0, 5.013853, 4.951009 
2.7576e+1, 2.2591662e+2, -734813.2, -831810.06, -747.6178, 0.01731135, -0.002648528, -734807.4, -8795.672, 0.0, 5.0138083, 4.95129 
2.7575737e+1, 2.3086786e+2, -685604.3, -782509.44, -893.67017, 0.023827275, -0.0065340283, -685596.06, -8106.3096, 0.0, 5.0137563, 4.9512963 
2.7575475e+1, 2.3581907e+2, -637046.06, -734656.06, -1039.8798, 0.03037088, -0.010531517, -637034.94, -8067.078, 0.0, 5.013704, 4.9508004 
2.7575043e+1, 2.4076669e+2, -597146.1, -706268.6, -879.2355, 0.03437282, -0.005110491, -597139.06, -16657.848, 0.0, 5.013685, 4.943516 
2.7574208e+1, 2.4571088e+2, -546881.7, -655412.8, -577.0304, 0.029626671, -0.006281076, -546878.6, -14851.067, 0.0, 5.013773, 4.9439626 
2.7573356e+1, 2.5065514e+2, -497200.22, -605936.4, -470.21027, 0.024257265, -0.007218987, -497198.2, -13625.089, 0.0, 5.0138674, 4.943946 
2.757249e+1, 2.5559947e+2, -447769.6, -557029.44, -365.54068, 0.01899401, -0.007277674, -447768.38, -12650.424, 0.0, 5.013961, 4.943731 
2.7572075e+1, 2.6054022e+2, -407719.16, -529477.94, -1498.288, 0.022654016, 0.004866649, -407700.72, -21003.484, 0.0, 5.014093, 4.9359565 
2.757307e+1, 2.6547718e+2, -355495.78, -474163.97, -3019.8462, 0.05911749, -0.008438679, -355419.0, -17107.088, 0.0, 5.0142093, 4.9377847 
2.7574062e+1, 2.704139e+2, -305083.06, -423258.47, -3894.155, 0.09798702, -0.03192313, -304954.9, -15026.793, 0.0, 5.0143104, 4.9381585 
2.7574918e+1, 2.7535054e+2, -254662.0, -372573.75, -4730.2515, 0.1359228, -0.062891886, -254472.53, -12927.2705, 0.0, 5.0144105, 4.938485 
2.7577308e+1, 2.802823e+2, -224375.56, -364456.56, 1171.38, 0.15915605, -0.06912767, -224365.77, -31154.107, 0.0, 5.0144405, 4.924016 
2.758071e+1, 2.8520986e+2, -175288.25, -312179.8, 2747.3923, 0.1320005, -0.03753362, -175233.14, -30309.96, 0.0, 5.0146255, 4.9246316 
2.758316e+1, 2.9013658e+2, -124580.5, -261943.55, 3583.1287, 0.101091005, -0.017379282, -124487.1, -27843.158, 0.0, 5.014938, 4.9246 
2.7585506e+1, 2.9506236e+2, -73809.24, -211782.6, 4462.8857, 0.07026349, -0.008173702, -73665.03, -25291.88, 0.0, 5.015247, 4.9245687 
2.7589142e+1, 3.000066e+2, -8152.8003, -91964.06, 5061.061, 0.054588452, 0.027228674, -7848.2876, -7848.2876, 0.0, 5.015409, 4.9586387 
2.7599385e+1, 3.049705e+2, -1794.5273, -72760.445, 3966.088, 0.121540755, 0.014813786, -1573.5618, -1573.5618, 0.0, 5.015184, 4.964999 
2.7610126e+1, 3.0993685e+2, 591.9464, -64215.926, 2898.9968, 0.19915898, -0.017355617, 721.3664, 721.3664, 0.0, 5.0149803, 4.9678073 
2.7620426e+1, 3.1490815e+2, 3415.722, -56113.945, 1926.3408, 0.27476752, -0.036081236, 3477.992, 3477.992, 0.0, 5.0147734, 4.9706187 
3.2592973e+1, 1.2152066e+2, -1708892.4, -1746078.8, -61.383595, -0.0030035637, -0.019057613, -1708892.3, 40211.445, 0.0, 5.014769, 4.9905367 
3.2592723e+1, 1.2651213e+2, -1667246.8, -1711131.0, -151.79077, -0.0023478123, 0.032851424, -1667246.3, 32937.67, 0.0, 5.014578, 4.986025 
3.259246e+1, 1.3149624e+2, -1618860.6, -1662436.5, -201.22464, -0.0018127151, 0.012955623, -1618859.8, 32480.924, 0.0, 5.014376, 4.986025 
3.25922e+1, 1.3648032e+2, -1572680.9, -1618276.5, -250.64766, -0.0013113387, -0.0057106535, -1572679.5, 29818.195, 0.0, 5.014174, 4.984521 
3.2591906e+1, 1.4146249e+2, -1530042.0, -1581673.3, -273.7262, -0.0012039099, -0.003289742, -1530040.6, 23631.902, 0.0, 5.014023, 4.980406 
3.2591572e+1, 1.4644358e+2, -1480730.6, -1531842.4, -288.80917, -0.0017231402, -0.0017792311, -1480729.0, 24127.537, 0.0, 5.013971, 4.9806867 
3.2591236e+1, 1.5142465e+2, -1431825.1, -1482862.8, -310.2117, -0.0022624268, -0.00066053605, -1431823.3, 24217.225, 0.0, 5.0139213, 4.9806867 
3.2590902e+1, 1.5640572e+2, -1384347.8, -1436859.3, -331.7722, -0.0028160901, 0.00090321107, -1384345.8, 22878.764, 0.0, 5.013871, 4.9796906 
3.2590672e+1, 1.6138272e+2, -1344158.1, -1406318.8, -250.72208, -0.002940414, 0.006763772, -1344157.1, 14291.512, 0.0, 5.0138655, 4.973499 
3.2590646e+1, 1.6635615e+2, -1294837.4, -1357225.0, -277.75232, -0.0020952108, 0.004023493, -1294836.1, 14872.818, 0.0, 5.013959, 4.973444 
3.2590625e+1, 1.7132956e+2, -1245427.0, -1307964.3, -326.56522, -0.0012272822, 0.0012690641, -1245425.3, 15543.952, 0.0, 5.014056, 4.9734435 
3.2590604e+1, 1.76303e+2, -1197155.4, -1261109.8, -375.61368, -0.00037206398, -0.0010948643, -1197153.1, 15076.396, 0.0, 5.014153, 4.9726357 
3.2590497e+1, 1.8127264e+2, -1156950.8, -1231115.6, -626.0499, 0.0006918803, 0.003352619, -1156945.5, 6580.736, 0.0, 5.014195, 4.9661536 
3.2590154e+1, 1.8623851e+2, -1107853.8, -1181691.8, -676.41425, 0.0021295054, -0.0031195004, -1107847.5, 7011.088, 0.0, 5.0141053, 4.9662724 
3.2589793e+1, 1.9120435e+2, -1058935.5, -1132628.6, -647.65216, 0.0035558634, -0.009972388, -1058929.8, 7261.3896, 0.0, 5.01401, 4.9662724 
3.2589436e+1, 1.9617023e+2, -1010907.9, -1085480.5, -619.0842, 0.0049658893, -0.016513193, -1010902.75, 6620.885, 0.0, 5.0139146, 4.965622 
3.2589242e+1, 2.0113261e+2, -971444.3, -1056911.8, -203.51852, 0.006181406, -0.013070538, -971443.8, -2552.8997, 0.0, 5.013843, 4.9586186 
3.2589436e+1, 2.0609182e+2, -922042.6, -1007357.44, 13.281818, 0.0066576777, -0.01090795, -922042.6, -1750.7958, 0.0, 5.013844, 4.9587116 
3.258964e+1, 2.1105106e+2, -872754.8, -958081.5, 97.66426, 0.0070588263, -0.008706017, -872754.75, -1062.0812, 0.0, 5.013849, 4.958711 
3.2589853e+1, 2.1601027e+2, -824133.9, -910261.7, 181.52945, 0.007447054, -0.006376549, -824133.5, -1040.0084, 0.0, 5.0138535, 4.958211 
3.2589963e+1, 2.2096577e+2, -784550.0, -882233.0, -395.5774, 0.009650681, 0.0036114042, -784548.4, -10017.426, 0.0, 5.0138526, 4.950905 
3.2589778e+1, 2.2591703e+2, -735052.75, -832328.56, -783.3297, 0.016851217, 0.0019946967, -735046.44, -9035.855, 0.0, 5.013807, 4.9511113 
3.258957e+1, 2.3086824e+2, -685842.3, -783026.5, -924.93756, 0.02432528, -0.00029399383, -685833.5, -8342.918, 0.0, 5.0137553, 4.951117 
3.2589358e+1, 2.3581944e+2, -637282.5, -735171.8, -1066.6962, 0.031782523, -0.00270452, -637270.9, -8300.174, 0.0, 5.013703, 4.9506216 
3.2589018e+1, 2.4076699e+2, -597106.4, -706133.4, -822.27185, 0.03662163, 0.0030899027, -597100.2, -16614.76, 0.0, 5.013679, 4.943563 
3.2588276e+1, 2.4571094e+2, -546700.4, -654950.4, -508.8122, 0.032240313, -0.001792616, -546698.0, -14666.773, 0.0, 5.013766, 4.9441233 
3.2587498e+1, 2.5065497e+2, -497015.6, -605476.1, -395.22726, 0.027096396, -0.0068205274, -497014.16, -13438.033, 0.0, 5.0138617, 4.9441056 
3.258671e+1, 2.5559902e+2, -447581.66, -556571.4, -283.79507, 0.021996595, -0.011004325, -447580.9, -12460.541, 0.0, 5.013957, 4.9438896 
3.2586312e+1, 2.605396e+2, -408541.03, -531248.44, -1454.1108, 0.025139038, -0.0002684292, -408523.8, -21822.809, 0.0, 5.0140834, 4.9353356 
3.2587212e+1, 2.6547652e+2, -356944.97, -477177.25, -2861.1892, 0.056853805, -0.0033758457, -356876.9, -18553.29, 0.0, 5.0141764, 4.9367285 
3.2588112e+1, 2.7041337e+2, -306567.9, -426187.94, -3596.875, 0.0903327, -0.01527379, -306459.84, -16511.977, 0.0, 5.0142546, 4.9371305 
3.2588866e+1, 2.7535015e+2, -256182.48, -375419.66, -4294.326, 0.12275578, -0.03452951, -256028.02, -14455.361, 0.0, 5.0143313, 4.9374847 
3.2591143e+1, 2.8028196e+2, -223729.06, -362963.78, -775.9646, 0.15562408, -0.035191245, -223724.75, -30480.238, 0.0, 5.0144405, 4.9245543 
3.2594767e+1, 2.8520927e+2, -173412.64, -308357.7, 2338.6792, 0.1349523, -0.017710254, -173372.11, -28422.252, 0.0, 5.0147004, 4.925996 
3.259747e+1, 2.901357e+2, -122727.375, -258044.03, 3322.3525, 0.09823242, -0.01293623, -122645.85, -25983.441, 0.0, 5.0150056, 4.925991 
3.260006e+1, 2.950613e+2, -71979.16, -207805.92, 4349.909, 0.061426993, -0.019296348, -71839.99, -23456.652, 0.0, 5.0153074, 4.925986 
3.260373e+1, 3.0000567e+2, -7660.6196, -90830.62, 4212.911, 0.04141274, 0.0069186166, -7447.7627, -7447.7627, 0.0, 5.0154386, 4.9590473 
3.2612866e+1, 3.0497277e+2, -2964.4253, -74840.17, 3504.8733, 0.097488455, 0.033657636, -2793.9219, -2793.9219, 0.0, 5.015117, 4.9643135 
3.2622346e+1, 3.0994308e+2, -883.31323, -66377.2, 3326.546, 0.16106473, 0.052140757, -714.786, -714.786, 0.0, 5.01482, 4.967134 
3.2631373e+1, 3.1491852e+2, 1636.0392, -58356.883, 3241.5479, 0.22229989, 0.08643549, 1810.6787, 1810.6787, 0.0, 5.014519, 4.9699583 
3.7607342e+1, 1.2152074e+2, -1708835.4, -1745762.8, -166.76947, -0.007101358, -0.019843219, -1708834.6, 40266.89, 0.0, 5.014727, 4.99066 
3.7607032e+1, 1.2651187e+2, -1667413.0, -1711364.5, -309.58496, -0.0050854, 0.029215133, -1667410.9, 32774.305, 0.0, 5.0145564, 4.985958 
3.7606752e+1, 1.3149604e+2, -1618985.6, -1662649.5, -356.20627, -0.0027374518, 0.010640341, -1618982.6, 32358.967, 0.0, 5.014368, 4.9859576 
3.7606466e+1, 1.3648021e+2, -1572784.0, -1618478.9, -403.97458, -0.00044919972, -0.006702034, -1572780.4, 29717.98, 0.0, 5.014173, 4.9844537 
3.7606132e+1, 1.4146243e+2, -1530093.0, -1581784.6, -335.524, 0.0007836161, -0.0032670284, -1530090.8, 23582.201, 0.0, 5.0140247, 4.980368 
3.7605712e+1, 1.4644352e+2, -1480758.5, -1531918.8, -327.18942, -0.00006460413, -0.0015315796, -1480756.4, 24100.71, 0.0, 5.013975, 4.980659 
3.760529e+1, 1.5142457e+2, -1431853.9, -1482939.8, -347.83002, -0.00099954, -0.00022536803, -1431851.5, 24189.719, 0.0, 5.013925, 4.9806585 
3.7604865e+1, 1.5640563e+2, -1384386.1, -1436940.9, -368.7707, -0.0019612939, 0.0015250714, -1384383.5, 22841.836, 0.0, 5.013872, 4.979663 
3.7604564e+1, 1.6138262e+2, -1344248.4, -1406493.9, -204.10039, -0.0027111138, 0.0076480648, -1344247.6, 14202.151, 0.0, 5.0138626, 4.973442 
3.7604526e+1, 1.66356e+2, -1294934.8, -1357415.3, -201.95062, -0.002918021, 0.005213529, -1294934.0, 14776.712, 0.0, 5.013956, 4.9733815 
3.7604496e+1, 1.713294e+2, -1245534.5, -1308159.5, -247.10963, -0.003136613, 0.002754761, -1245533.5, 15438.248, 0.0, 5.01405, 4.973381 
3.7604463e+1, 1.7630279e+2, -1197284.0, -1261315.4, -292.14227, -0.0033897846, 0.00068723626, -1197282.8, 14950.004, 0.0, 5.0141397, 4.972573 
3.760436e+1, 1.812724e+2, -1156995.3, -1231118.3, -655.7316, -0.002667309, 0.0051043476, -1156989.5, 6540.512, 0.0, 5.0141764, 4.9661613 
3.7604085e+1, 1.862382e+2, -1107838.3, -1181600.4, -743.86914, 0.00033163748, -0.0024092135, -1107830.8, 7032.2173, 0.0, 5.014094, 4.9663076 
3.7603796e+1, 1.9120398e+2, -1058913.6, -1132535.0, -716.8708, 0.0033805764, -0.010369707, -1058906.6, 7289.2983, 0.0, 5.0140014, 4.9663076 
3.7603503e+1, 1.9616976e+2, -1010896.6, -1085392.5, -689.312, 0.0063881353, -0.01801692, -1010890.25, 6638.681, 0.0, 5.013902, 4.965657 
3.760332e+1, 2.0113218e+2, -971377.8, -1056695.5, -228.12776, 0.008426471, -0.014950708, -971377.2, -2481.2166, 0.0, 5.0138288, 4.9586983 
3.7603417e+1, 2.060916e+2, -921915.06, -1007052.9, 13.734031, 0.00796765, -0.01166049, -921915.06, -1620.3937, 0.0, 5.0138383, 4.9588175 
3.7603527e+1, 2.1105106e+2, -872620.06, -957775.94, 101.73514, 0.007332606, -0.008295136, -872619.94, -926.6961, 0.0, 5.0138464, 4.958816 
3.7603638e+1, 2.160105e+2, -824010.7, -909963.94, 189.54324, 0.0066510756, -0.0047990913, -824010.3, -918.47736, 0.0, 5.013848, 4.9583154 
3.760369e+1, 2.2096618e+2, -784731.44, -882561.3, -411.47177, 0.008280854, 0.006652671, -784729.7, -10201.688, 0.0, 5.0138397, 4.9507976 
3.7603557e+1, 2.2591741e+2, -735348.1, -832872.0, -819.5956, 0.016402625, 0.00663515, -735341.2, -9331.827, 0.0, 5.0137873, 4.9509315 
3.7603402e+1, 2.3086862e+2, -686197.7, -783597.2, -965.2623, 0.024853135, 0.005854755, -686188.1, -8696.696, 0.0, 5.0137134, 4.9509373 
3.760324e+1, 2.358198e+2, -637742.75, -735790.2, -1115.588, 0.033246413, 0.0049436213, -637730.06, -8756.568, 0.0, 5.013623, 4.9504414 
3.7602988e+1, 2.407673e+2, -597461.6, -706266.7, -807.4356, 0.03891181, 0.011570684, -597455.6, -16966.248, 0.0, 5.013551, 4.943572 
3.760234e+1, 2.4571104e+2, -546931.7, -654675.6, -480.17383, 0.034914985, 0.0030894252, -546929.56, -14894.963, 0.0, 5.0136127, 4.944283 
3.7601644e+1, 2.506548e+2, -497342.44, -605247.5, -361.57626, 0.030036803, -0.0062148026, -497341.22, -13762.257, 0.0, 5.0136747, 4.9442644 
3.7600935e+1, 2.555986e+2, -448043.34, -556406.4, -243.13585, 0.025145417, -0.014714659, -448042.78, -12920.094, 0.0, 5.013722, 4.944048 
3.7600547e+1, 2.6053882e+2, -410586.63, -533780.3, -1542.5254, 0.027843246, -0.0057515684, -410567.3, -23861.746, 0.0, 5.013678, 4.9346085 
3.760132e+1, 2.654757e+2, -361667.94, -481710.4, -3341.4602, 0.054722846, -0.0015841605, -361575.0, -23237.701, 0.0, 5.0129776, 4.935609 
3.760207e+1, 2.7041253e+2, -314632.47, -432133.6, -4772.003, 0.082790785, -0.0052405535, -314439.0, -24468.246, 0.0, 5.0118413, 4.936033 
3.7602684e+1, 2.7534938e+2, -268618.25, -383221.3, -6481.5, 0.10977496, -0.016098537, -268252.84, -26648.502, 0.0, 5.0103245, 4.9364104 
3.7605014e+1, 2.8028184e+2, -239646.23, -372674.06, -6271.401, 0.1538036, 0.0032470028, -239351.23, -46075.875, 0.0, 5.0092006, 4.9234276 
3.7608993e+1, 2.8520936e+2, -182205.72, -309219.84, -996.8554, 0.14001271, 0.01625009, -182197.9, -37227.98, 0.0, 5.010897, 4.927332 
3.761192e+1, 2.9013538e+2, -128082.88, -257299.39, 881.5221, 0.096753724, 0.0011979532, -128076.87, -31401.09, 0.0, 5.012441, 4.927347 
3.7614727e+1, 2.9506055e+2, -75318.23, -206090.02, 2587.7188, 0.05336416, -0.025057668, -75267.04, -26877.123, 0.0, 5.013473, 4.927364 
3.7618443e+1, 3.00004e+2, -13639.418, -94896.32, 1810.5947, 0.029324692, -0.015983978, -13599.094, -13599.094, 0.0, 5.0135326, 4.9583244 
3.7626427e+1, 3.0497274e+2, -16475.266, -82449.78, -590.4912, 0.076156355, 0.026509676, -16469.98, -16469.98, 0.0, 5.0105104, 4.963273 
3.763456e+1, 3.0994594e+2, -26313.863, -79128.37, -3341.9326, 0.12742497, 0.069003634, -26103.236, -26103.236, 0.0, 5.005839, 4.966086 
3.7642238e+1, 3.1492445e+2, -39550.344, -77860.98, -7117.9507, 0.17632273, 0.12935904, -38270.605, -38270.605, 0.0, 4.9997625, 4.9689097 
4.26215e+1, 1.2152126e+2, -1710451.4, -1745718.6, -38.101536, -0.009095011, -0.01726405, -1710451.4, 38644.605, 0.0, 5.0140123, 4.991026 
4.2621213e+1, 1.2651162e+2, -1668853.9, -1712287.9, -197.74934, -0.006628208, 0.024485731, -1668853.0, 31333.979, 0.0, 5.0141253, 4.985865 
4.262096e+1, 1.3149594e+2, -1619512.4, -1663123.5, -294.4946, -0.0036622337, 0.008445922, -1619510.4, 31831.74, 0.0, 5.01424, 4.9858637 
4.2620704e+1, 1.3648026e+2, -1572383.0, -1618500.0, -391.1804, -0.0006999979, -0.0063520637, -1572379.8, 30117.908, 0.0, 5.0143538, 4.984358 
4.2620397e+1, 1.4146255e+2, -1528942.6, -1581338.3, -345.82526, 0.0010666578, -0.0014082054, -1528940.4, 24731.373, 0.0, 5.0144343, 4.9803166 
4.2619962e+1, 1.4644353e+2, -1479447.4, -1531375.0, -359.70303, 0.000324329, -0.00032597056, -1479444.9, 25412.047, 0.0, 5.0144353, 4.980617 
4.2619526e+1, 1.5142447e+2, -1430404.3, -1482330.8, -404.88806, -0.0004806326, 0.00026109975, -1430401.1, 25641.086, 0.0, 5.0144334, 4.980616 
4.261909e+1, 1.564054e+2, -1382789.8, -1436263.1, -450.13672, -0.0012684272, 0.0012928777, -1382785.9, 24441.664, 0.0, 5.0144315, 4.9796205 
4.2618766e+1, 1.6138232e+2, -1342670.6, -1405764.8, -257.1739, -0.0020454351, 0.006980983, -1342669.5, 15783.313, 0.0, 5.0144033, 4.973427 
4.261868e+1, 1.6635574e+2, -1293877.5, -1356923.8, -173.14392, -0.0027717582, 0.0048125256, -1293877.0, 15836.62, 0.0, 5.014319, 4.9733734 
4.26186e+1, 1.7132914e+2, -1245010.4, -1307924.9, -142.49496, -0.0034752814, 0.0026571313, -1245010.0, 15964.297, 0.0, 5.014232, 4.9733734 
4.2618522e+1, 1.7630257e+2, -1197278.4, -1261328.9, -111.68839, -0.0041593704, 0.0008987302, -1197278.1, 14956.946, 0.0, 5.0141454, 4.9725657 
4.2618394e+1, 1.8127221e+2, -1157261.0, -1231295.3, -451.04483, -0.003625957, 0.0056023705, -1157258.3, 6274.051, 0.0, 5.014096, 4.9661403 
4.2618135e+1, 1.86238e+2, -1107765.8, -1181629.5, -627.9414, -0.00027404298, -0.001611624, -1107760.4, 7105.2803, 0.0, 5.0141315, 4.9662805 
4.2617863e+1, 1.9120379e+2, -1058455.6, -1132378.6, -694.17126, 0.0032288397, -0.009267652, -1058449.1, 7750.026, 0.0, 5.014171, 4.9662814 
4.2617595e+1, 1.9616957e+2, -1010038.56, -1085045.4, -760.32007, 0.0067676865, -0.016614743, -1010030.9, 7501.701, 0.0, 5.01421, 4.9656315 
4.2617416e+1, 2.0113201e+2, -970146.0, -1055973.4, -360.43362, 0.009142107, -0.013308714, -970144.5, -1244.9283, 0.0, 5.0142245, 4.9587603 
4.2617476e+1, 2.0609154e+2, -920822.1, -1006328.3, -143.36253, 0.008505416, -0.009876651, -920821.9, -524.8639, 0.0, 5.014173, 4.95891 
4.2617556e+1, 2.110511e+2, -871713.8, -957139.25, -84.79625, 0.0077643185, -0.0063591003, -871713.75, -19.518427, 0.0, 5.0141177, 4.958909 
4.2617637e+1, 2.1601066e+2, -823271.1, -909404.94, -25.75998, 0.0070668054, -0.0027010294, -823271.1, -179.65207, 0.0, 5.014062, 4.958409 
4.261768e+1, 2.2096643e+2, -784129.2, -882392.44, -546.4741, 0.008576266, 0.009197639, -784126.1, -9599.206, 0.0, 5.0140753, 4.950746 
4.261757e+1, 2.2591768e+2, -734097.44, -832562.8, -840.99115, 0.016158475, 0.010295445, -734090.25, -8080.6733, 0.0, 5.014283, 4.95081 
4.2617443e+1, 2.3086886e+2, -684120.06, -782917.8, -891.63354, 0.024186097, 0.010721418, -684112.0, -6618.926, 0.0, 5.0145025, 4.9508123 
4.2617312e+1, 2.3582006e+2, -634798.5, -734724.94, -941.13416, 0.032302905, 0.01108821, -634789.6, -5813.01, 0.0, 5.014721, 4.950313 
4.2617157e+1, 2.4076757e+2, -593502.5, -704422.44, -492.13556, 0.038130708, 0.018706676, -593500.3, -13007.28, 0.0, 5.014938, 4.943589 
4.2616776e+1, 2.4571116e+2, -542287.94, -652228.75, -181.92899, 0.03553922, 0.0077100596, -542287.6, -10250.404, 0.0, 5.015181, 4.9444327 
4.261635e+1, 2.5065476e+2, -492177.66, -602553.5, -87.20231, 0.032326918, -0.004898193, -492177.6, -8596.82, 0.0, 5.0154247, 4.94442 
4.2615914e+1, 2.5559837e+2, -442321.34, -553450.7, 10.558705, 0.029261013, -0.016953947, -442321.34, -7197.4146, 0.0, 5.0156646, 4.9442086 
4.261576e+1, 2.6053834e+2, -404773.38, -532589.56, -1155.2455, 0.034044098, -0.009452027, -404762.94, -18054.117, 0.0, 5.015979, 4.9339886 
4.2616656e+1, 2.654751e+2, -353622.84, -481066.9, -1923.6238, 0.064791024, 0.0022841292, -353593.8, -15245.327, 0.0, 5.0162816, 4.934379 
4.261757e+1, 2.7041173e+2, -302903.38, -430621.13, -1868.9608, 0.10048189, 0.009073593, -302876.03, -12884.218, 0.0, 5.0165396, 4.9345307 
4.2618385e+1, 2.753482e+2, -252222.92, -380348.1, -1766.1628, 0.1388951, 0.010769997, -252198.58, -10561.48, 0.0, 5.016781, 4.934634 
4.2620835e+1, 2.8028107e+2, -218222.64, -367685.84, -424.1568, 0.20102082, 0.05969614, -218221.44, -24912.037, 0.0, 5.017376, 4.9214225 
4.2624512e+1, 2.8520852e+2, -163001.64, -297264.3, 4639.2583, 0.18006091, 0.061187565, -162841.53, -17844.148, 0.0, 5.0165873, 4.928815 
4.26271e+1, 2.901339e+2, -117412.4, -249789.45, 4680.361, 0.12408442, 0.016752388, -117247.125, -20546.262, 0.0, 5.015126, 4.9287014 
4.26296e+1, 2.9505873e+2, -71762.22, -202319.16, 4871.2817, 0.07262008, -0.03334715, -71580.72, -23171.209, 0.0, 5.013615, 4.9285874 
4.263272e+1, 3.0000126e+2, -17359.53, -101359.27, 2843.9019, 0.046879306, -0.04021955, -17263.357, -17263.357, 0.0, 5.0121584, 4.9566193 
4.263825e+1, 3.049728e+2, -17569.514, -91802.97, 2774.5435, 0.1002339, 0.04070661, -17465.957, -17465.957, 0.0, 5.0103607, 4.959921 
4.2643845e+1, 3.099479e+2, -20966.08, -89224.25, 3853.2417, 0.17109902, 0.123530984, -20749.25, -20749.25, 0.0, 5.008335, 4.9613323 
4.2649218e+1, 3.149253e+2, -24222.326, -86787.76, 4637.493, 0.25414813, 0.2113219, -23880.453, -23880.453, 0.0, 5.0062375, 4.9627447 
4.763545e+1, 1.2152217e+2, -1709570.8, -1743923.4, 4.8639956, -0.009765169, -0.011513097, -1709570.8, 39516.344, 0.0, 5.0140114, 4.991616 
4.763527e+1, 1.2651134e+2, -1669038.9, -1712659.5, -111.835236, -0.0073569827, 0.018729938, -1669038.5, 31150.738, 0.0, 5.0141244, 4.985743 
4.7635096e+1, 1.3149591e+2, -1619696.0, -1663494.0, -207.09915, -0.00469792, 0.0063489885, -1619695.0, 31647.273, 0.0, 5.014239, 4.9857416 
4.7634926e+1, 1.3648045e+2, -1572565.4, -1618869.8, -302.33008, -0.002059596, -0.004790765, -1572563.4, 29932.184, 0.0, 5.0143533, 4.984236 
4.7634688e+1, 1.4146286e+2, -1529038.0, -1581534.3, -328.42697, -0.00035126007, 0.0021254201, -1529035.9, 24632.895, 0.0, 5.014434, 4.9802523 
4.7634307e+1, 1.4644362e+2, -1479528.4, -1531542.9, -361.6959, -0.00060392707, 0.0017730976, -1479525.9, 25330.266, 0.0, 5.0144353, 4.9805617 
4.763392e+1, 1.5142436e+2, -1430484.8, -1482498.3, -405.9204, -0.0009136949, 0.0008291277, -1430481.6, 25561.922, 0.0, 5.0144334, 4.980561 
4.7633535e+1, 1.5640509e+2, -1382869.8, -1436430.4, -450.2081, -0.0012160001, 0.00033081876, -1382865.9, 24365.084, 0.0, 5.0144315, 4.979565 
4.7633216e+1, 1.6138189e+2, -1342636.5, -1405696.3, -311.53436, -0.0016244057, 0.0049763992, -1342635.0, 15822.506, 0.0, 5.014404, 4.97345 
4.7633052e+1, 1.6635534e+2, -1293816.8, -1356799.1, -239.99835, -0.002264887, 0.0030200277, -1293815.9, 15901.509, 0.0, 5.014319, 4.973416 
4.7632894e+1, 1.7132883e+2, -1244950.5, -1307800.5, -208.13844, -0.0029114166, 0.0011396165, -1244949.8, 16027.343, 0.0, 5.014232, 4.973416 
4.7632733e+1, 1.7630231e+2, -1197219.1, -1261204.6, -176.1095, -0.0035552222, -0.000342679, -1197218.6, 15018.161, 0.0, 5.0141454, 4.972608 
4.7632542e+1, 1.81272e+2, -1157322.6, -1231430.3, -445.10754, -0.0031783765, 0.0049124453, -1157320.0, 6213.596, 0.0, 5.0140963, 4.966095 
4.7632253e+1, 1.8623789e+2, -1107874.9, -1181867.5, -598.55505, -0.00045011163, -0.0007995385, -1107870.0, 6997.219, 0.0, 5.014132, 4.966201 
4.7631958e+1, 1.9120373e+2, -1058564.4, -1132615.9, -663.06036, 0.00238776, -0.0068799285, -1058558.5, 7642.579, 0.0, 5.0141716, 4.9662013 
4.7631663e+1, 1.961696e+2, -1010146.94, -1085282.0, -727.48846, 0.005240926, -0.012649433, -1010139.94, 7394.8457, 0.0, 5.01421, 4.9655514 
4.763147e+1, 2.0113209e+2, -970084.94, -1055846.8, -384.89627, 0.0073335906, -0.0085094385, -970083.2, -1181.2451, 0.0, 5.014225, 4.9588037 
4.7631553e+1, 2.0609161e+2, -920715.2, -1006102.5, -186.4429, 0.0074378834, -0.0058147144, -920714.8, -415.8038, 0.0, 5.0141735, 4.9589877 
4.7631657e+1, 2.1105118e+2, -871608.1, -956913.1, -125.60722, 0.007459335, -0.003073605, -871607.94, 87.80996, 0.0, 5.0141177, 4.958987 
4.7631755e+1, 2.1601075e+2, -823166.56, -909178.44, -64.29683, 0.007498169, -0.00019313209, -823166.5, -74.036385, 0.0, 5.014062, 4.9584875 
4.763181e+1, 2.2096649e+2, -784133.5, -882394.8, -439.7939, 0.008967046, 0.011153892, -784131.56, -9603.706, 0.0, 5.0140743, 4.950746 
4.763168e+1, 2.2591776e+2, -734178.7, -832725.2, -667.9038, 0.014254774, 0.012709111, -734174.2, -8162.688, 0.0, 5.01428, 4.950756 
4.7631532e+1, 2.3086894e+2, -684204.7, -783079.9, -714.67737, 0.019798437, 0.01372758, -684199.56, -6703.57, 0.0, 5.0144978, 4.950759 
4.7631377e+1, 2.3582014e+2, -634886.56, -734886.6, -760.3265, 0.025386358, 0.0147134885, -634880.8, -5900.287, 0.0, 5.014715, 4.95026 
4.7631305e+1, 2.407677e+2, -593485.06, -704289.7, -307.58484, 0.029637577, 0.023050198, -593484.2, -12987.238, 0.0, 5.0149207, 4.943645 
4.7631347e+1, 2.4571136e+2, -542149.56, -651824.75, -4.929961, 0.028945781, 0.011171447, -542149.56, -10110.585, 0.0, 5.015162, 4.944585 
4.763137e+1, 2.5065497e+2, -492026.56, -602136.0, 97.07967, 0.027886664, -0.002760474, -492026.47, -8446.015, 0.0, 5.01541, 4.9445744 
4.7631377e+1, 2.5559857e+2, -442157.56, -553019.75, 202.11507, 0.026916672, -0.016258573, -442157.22, -7035.616, 0.0, 5.015654, 4.944365 
4.7631595e+1, 2.6053855e+2, -404828.63, -532639.2, -773.4961, 0.03226382, -0.009655247, -404823.97, -18117.648, 0.0, 5.015959, 4.9339685 
4.7632527e+1, 2.6547575e+2, -353855.38, -481257.56, -1363.6715, 0.057417136, 0.0040122163, -353840.78, -15492.811, 0.0, 5.016211, 4.9343104 
4.7633398e+1, 2.7041295e+2, -303319.88, -430907.06, -1218.869, 0.08591091, 0.014481517, -303308.25, -13315.936, 0.0, 5.01642, 4.934456 
4.7634128e+1, 2.753501e+2, -252822.22, -380728.16, -1025.943, 0.1160805, 0.021317752, -252813.98, -11176.414, 0.0, 5.0166116, 4.9345546 
4.7636342e+1, 2.8028455e+2, -219471.45, -372416.38, -575.6614, 0.17045757, 0.09531814, -219469.28, -26169.93, 0.0, 5.0175967, 4.919755 
4.7639367e+1, 2.8521183e+2, -160209.66, -295170.28, 3605.5364, 0.15578876, 0.09480315, -160113.4, -15130.054, 0.0, 5.0170703, 4.9295044 
4.764124e+1, 2.90136e+2, -114893.74, -247610.7, 3795.7437, 0.10790645, 0.027827436, -114785.266, -18094.035, 0.0, 5.0155196, 4.929452 
4.764299e+1, 2.9505977e+2, -69516.81, -200054.97, 4135.74, 0.06314527, -0.043863695, -69385.914, -20982.818, 0.0, 5.0139194, 4.929399 
4.7644904e+1, 3.0000073e+2, -16277.169, -101523.19, 2319.6465, 0.037961736, -0.07143099, -16214.095, -16214.095, 0.0, 5.012436, 4.956554 
4.7646493e+1, 3.049784e+2, -14578.024, -88634.44, 2700.1907, 0.060664974, 0.047147878, -14479.702, -14479.702, 0.0, 5.0107656, 4.960843 
4.7647503e+1, 3.09962e+2, -17954.746, -87169.77, 4251.6367, 0.09135082, 0.18663049, -17694.56, -17694.56, 0.0, 5.0088687, 4.9619007 
4.764813e+1, 3.149476e+2, -21191.629, -85847.15, 5509.4863, 0.1294244, 0.33257833, -20725.51, -20725.51, 0.0, 5.0069, 4.96296 
5.26494e+1, 1.2152305e+2, -1708616.0, -1741977.0, 47.68283, -0.010470473, -0.00608672, -1708615.9, 40462.605, 0.0, 5.014011, 4.9922557 
5.2649325e+1, 1.2651105e+2, -1669224.1, -1713030.9, -25.81345, -0.008089812, 0.013036232, -1669224.0, 30967.492, 0.0, 5.014124, 4.985621 
5.2649236e+1, 1.3149586e+2, -1619879.9, -1663864.5, -119.595955, -0.0057361936, 0.004289001, -1619879.5, 31462.822, 0.0, 5.0142384, 4.985619 
5.2649146e+1, 1.3648066e+2, -1572748.0, -1619239.4, -213.37198, -0.003420314, -0.00321766, -1572747.0, 29746.475, 0.0, 5.014353, 4.9841137 
5.2648985e+1, 1.4146316e+2, -1529139.4, -1581742.3, -310.6417, -0.0017700794, 0.005685021, -1529137.5, 24528.436, 0.0, 5.014434, 4.9801836 
5.264865e+1, 1.4644371e+2, -1479609.5, -1531710.8, -363.6575, -0.0015329444, 0.0038904457, -1479607.0, 25248.252, 0.0, 5.0144353, 4.980506 
5.264832e+1, 1.5142424e+2, -1430565.4, -1482665.8, -406.9215, -0.0013470438, 0.0013977308, -1430562.3, 25482.531, 0.0, 5.0144334, 4.9805055 
5.264798e+1, 1.5640476e+2, -1382949.9, -1436597.6, -450.24817, -0.0011633848, -0.00064836995, -1382946.1, 24288.285, 0.0, 5.0144315, 4.9795094 
5.264767e+1, 1.6138142e+2, -1342607.6, -1405638.3, -365.6577, -0.0012039556, 0.002997533, -1342605.5, 15856.548, 0.0, 5.0144043, 4.9734697 
5.2647424e+1, 1.6635495e+2, -1293756.4, -1356674.4, -307.07724, -0.0017593696, 0.0012538978, -1293754.9, 15966.175, 0.0, 5.0143194, 4.973458 
5.2647185e+1, 1.713285e+2, -1244890.9, -1307675.8, -274.00644, -0.0023492076, -0.00036888392, -1244889.6, 16090.169, 0.0, 5.0142326, 4.973458 
5.264694e+1, 1.7630205e+2, -1197160.4, -1261080.1, -240.7552, -0.0029530327, -0.0015924275, -1197159.4, 15079.155, 0.0, 5.0141454, 4.9726505 
5.2646685e+1, 1.812718e+2, -1157391.6, -1231580.4, -438.5332, -0.0027341605, 0.004255416, -1157389.0, 6145.7373, 0.0, 5.0140967, 4.9660444 
5.264637e+1, 1.8623777e+2, -1107984.4, -1182105.1, -569.22833, -0.000628869, 0.000038326503, -1107980.0, 6888.735, 0.0, 5.014133, 4.9661202 
5.264605e+1, 1.9120368e+2, -1058673.5, -1132852.9, -632.0091, 0.0015454567, -0.004495317, -1058668.1, 7534.7246, 0.0, 5.014172, 4.966121 
5.264573e+1, 1.9616963e+2, -1010255.8, -1085518.3, -694.7164, 0.003714408, -0.008716126, -1010249.4, 7287.5977, 0.0, 5.0142107, 4.9654713 
5.264553e+1, 2.0113218e+2, -970035.3, -1055744.0, -409.35648, 0.0055349525, -0.003661904, -970033.4, -1129.0787, 0.0, 5.014226, 4.9588385 
5.264563e+1, 2.060917e+2, -920608.9, -1005876.25, -230.10191, 0.006380238, -0.0016972275, -920608.25, -307.34323, 0.0, 5.014174, 4.959065 
5.2645755e+1, 2.1105126e+2, -871503.0, -956686.56, -166.99695, 0.007160704, 0.00023132261, -871502.7, 194.54875, 0.0, 5.014118, 4.959065 
5.2645874e+1, 2.1601081e+2, -823062.6, -908951.5, -103.412575, 0.007932349, 0.002298079, -823062.5, 30.99951, 0.0, 5.014062, 4.958565 
5.2645934e+1, 2.2096656e+2, -784147.7, -882417.1, -334.30917, 0.0093679745, 0.013144287, -784146.56, -9617.829, 0.0, 5.014073, 4.950739 
5.2645785e+1, 2.2591783e+2, -734261.1, -832886.7, -495.38022, 0.012365926, 0.015135609, -734258.6, -8245.246, 0.0, 5.014277, 4.950701 
5.264561e+1, 2.3086904e+2, -684290.5, -783241.0, -538.2845, 0.015426746, 0.016678827, -684287.56, -6788.7, 0.0, 5.0144935, 4.9507046 
5.264543e+1, 2.3582023e+2, -634975.8, -735047.44, -580.0817, 0.018486895, 0.018216103, -634972.44, -5987.999, 0.0, 5.0147095, 4.9502063 
5.264543e+1, 2.4076784e+2, -593505.56, -704231.2, -143.91747, 0.021191359, 0.027563142, -593505.4, -13004.613, 0.0, 5.014903, 4.9436736 
5.26459e+1, 2.4571154e+2, -542017.25, -651415.0, 167.02077, 0.022396455, 0.014887692, -542017.0, -9976.402, 0.0, 5.0151424, 4.9447365 
5.264638e+1, 2.5065514e+2, -491881.44, -601712.75, 276.3128, 0.023469744, -0.00047791263, -491880.75, -8300.754, 0.0, 5.015395, 4.9447274 
5.2646846e+1, 2.555988e+2, -441999.8, -552583.1, 388.62186, 0.024574881, -0.015528382, -441998.44, -6879.2725, 0.0, 5.0156436, 4.9445205 
5.264746e+1, 2.6053873e+2, -404925.72, -532732.4, -393.6205, 0.030701002, -0.010022251, -404924.5, -18220.521, 0.0, 5.0159388, 4.933922 
5.264839e+1, 2.654763e+2, -354115.22, -481424.03, -802.8135, 0.050845638, 0.004399037, -354110.16, -15762.1, 0.0, 5.0161405, 4.934223 
5.2649176e+1, 2.7041405e+2, -303763.53, -431168.66, -567.83234, 0.072726116, 0.017197449, -303761.0, -13767.16, 0.0, 5.0163, 4.9343634 
5.264979e+1, 2.7535188e+2, -253448.44, -381083.75, -284.7322, 0.09523571, 0.027823059, -253447.8, -11808.324, 0.0, 5.016443, 4.9344563 
5.2652097e+1, 2.8028813e+2, -221558.05, -379031.66, 10.821297, 0.14038135, 0.13279253, -221558.05, -28270.0, 0.0, 5.0178175, 4.9174185 
5.2654624e+1, 2.852154e+2, -157498.25, -293000.06, 2469.555, 0.13013367, 0.13376732, -157453.27, -12486.886, 0.0, 5.0175533, 4.930174 
5.2655625e+1, 2.901383e+2, -112455.45, -245355.42, 2808.5652, 0.09002538, 0.04193384, -112396.125, -15716.505, 0.0, 5.0159135, 4.930182 
5.2656484e+1, 2.9506096e+2, -67351.586, -197713.94, 3297.3394, 0.051646855, -0.053665657, -67268.234, -18872.574, 0.0, 5.014223, 4.93019 
5.2657235e+1, 3.0e+2, -15882.909, -103003.61, 2042.1187, 0.027545374, -0.10357651, -15835.068, -15835.068, 0.0, 5.0127144, 4.95596 
5.265555e+1, 3.0498332e+2, -11698.777, -85358.984, 3087.4822, 0.026118055, 0.046061154, -11569.592, -11569.592, 0.0, 5.0111713, 4.9616733 
5.26527e+1, 3.0997512e+2, -15055.895, -85007.76, 5112.589, 0.024196777, 0.23290677, -14684.204, -14684.204, 0.0, 5.009403, 4.9623766 
5.264929e+1, 3.149685e+2, -18273.66, -84798.63, 6845.195, 0.024851156, 0.4277269, -17576.615, -17576.615, 0.0, 5.007563, 4.963081 
5.766335e+1, 1.2152389e+2, -1707626.5, -1739901.3, 74.66631, -0.011198888, -0.0009760809, -1707626.4, 41444.133, 0.0, 5.013998, 4.992944 
5.766338e+1, 1.2651077e+2, -1669421.6, -1713408.0, 44.184677, -0.008821355, 0.007410556, -1669421.5, 30772.266, 0.0, 5.014119, 4.985499 
5.7663375e+1, 1.3149582e+2, -1620071.3, -1664238.1, -42.637066, -0.0067749214, 0.0022679593, -1620071.3, 31271.248, 0.0, 5.0142355, 4.985497 
5.766337e+1, 1.3648085e+2, -1572951.3, -1619618.5, -128.44588, -0.0047799526, -0.0016341836, -1572950.9, 29540.506, 0.0, 5.014345, 4.983991 
5.766328e+1, 1.4146346e+2, -1529285.3, -1581980.8, -291.1662, -0.0031860252, 0.00926746, -1529283.8, 24379.355, 0.0, 5.014421, 4.980111 
5.7663e+1, 1.4644381e+2, -1479728.6, -1531896.8, -363.8164, -0.002459298, 0.006024456, -1479726.1, 25128.293, 0.0, 5.014423, 4.9804506 
5.766271e+1, 1.5142414e+2, -1430686.3, -1482852.4, -405.70264, -0.0017766403, 0.001967255, -1430683.1, 25362.922, 0.0, 5.01442, 4.9804497 
5.7662416e+1, 1.5640444e+2, -1383076.8, -1436786.9, -447.4485, -0.0011048605, -0.001642045, -1383073.0, 24164.854, 0.0, 5.0144157, 4.979454 
5.7662123e+1, 1.6138098e+2, -1342629.1, -1405612.3, -416.47534, -0.0007776546, 0.0010487023, -1342626.4, 15840.317, 0.0, 5.0143895, 4.9734855 
5.76618e+1, 1.6635457e+2, -1293721.4, -1356561.4, -373.50455, -0.0012507862, -0.0004819309, -1293719.1, 16005.6, 0.0, 5.0143113, 4.9734993 
5.7661474e+1, 1.7132819e+2, -1244845.8, -1307557.8, -341.79605, -0.0017840471, -0.001865406, -1244844.0, 16138.6, 0.0, 5.014228, 4.9735 
5.766115e+1, 1.7630179e+2, -1197115.3, -1260961.9, -310.11084, -0.0023456565, -0.0028490564, -1197113.8, 15126.524, 0.0, 5.0141406, 4.9726925 
5.766083e+1, 1.8127163e+2, -1157482.3, -1231751.6, -435.62515, -0.0022838353, 0.0036313292, -1157479.6, 6056.2505, 0.0, 5.0140924, 4.965989 
5.766049e+1, 1.8623763e+2, -1108099.6, -1182344.5, -538.2635, -0.00080239977, 0.00090244954, -1108095.8, 6774.4277, 0.0, 5.0141315, 4.96604 
5.7660145e+1, 1.9120365e+2, -1058789.8, -1133092.3, -594.36926, 0.0007103527, -0.0021124226, -1058785.0, 7419.6943, 0.0, 5.01417, 4.9660406 
5.76598e+1, 1.9616966e+2, -1010383.8, -1085762.8, -651.64655, 0.0021993632, -0.0048121274, -1010378.2, 7161.002, 0.0, 5.0142045, 4.965391 
5.7659584e+1, 2.0113227e+2, -970023.9, -1055677.4, -419.78378, 0.0037593252, 0.0012370236, -970021.8, -1115.2278, 0.0, 5.014217, 4.958865 
5.765971e+1, 2.0609178e+2, -920509.75, -1005652.1, -256.59277, 0.0053416123, 0.002476764, -920509.0, -206.1659, 0.0, 5.014172, 4.959142 
5.765985e+1, 2.1105133e+2, -871395.1, -956457.5, -188.45049, 0.006875954, 0.0035543893, -871394.75, 303.92575, 0.0, 5.0141196, 4.9591427 
5.765999e+1, 2.1601088e+2, -822958.0, -908722.9, -120.62105, 0.008378072, 0.004769098, -822957.8, 136.68365, 0.0, 5.0140624, 4.9586434 
5.766007e+1, 2.2096664e+2, -784175.25, -882460.44, -206.00111, 0.009789395, 0.015165829, -784174.8, -9645.232, 0.0, 5.0140705, 4.9507246 
5.7659894e+1, 2.259179e+2, -734340.4, -833045.44, -299.93985, 0.0105004925, 0.017580604, -734339.44, -8324.249, 0.0, 5.0142756, 4.950646 
5.76597e+1, 2.3086911e+2, -684380.06, -783403.0, -343.84567, 0.011081761, 0.019589158, -684378.9, -6877.0957, 0.0, 5.014488, 4.9506497 
5.765949e+1, 2.3582031e+2, -635091.7, -735219.94, -391.10278, 0.011621761, 0.021617414, -635090.1, -6101.789, 0.0, 5.0146947, 4.9501514 
5.7659537e+1, 2.40768e+2, -593611.0, -704269.75, -2.1113522, 0.012816546, 0.03226819, -593611.0, -13106.612, 0.0, 5.0148687, 4.9436746 
5.7660437e+1, 2.4571174e+2, -541931.4, -651019.0, 324.34454, 0.015915994, 0.01887038, -541930.44, -9888.4, 0.0, 5.0151086, 4.944886 
5.7661384e+1, 2.5065538e+2, -491804.63, -601312.5, 434.00867, 0.019105785, 0.0019497717, -491802.9, -8223.474, 0.0, 5.0153575, 4.94488 
5.7662314e+1, 2.5559902e+2, -441963.3, -552192.6, 549.26794, 0.022275668, -0.014774117, -441960.56, -6843.8813, 0.0, 5.0155916, 4.944675 
5.766335e+1, 2.6053888e+2, -405281.2, -532986.1, -108.63118, 0.029412514, -0.010552937, -405281.1, -18579.178, 0.0, 5.0158443, 4.9338408 
5.766425e+1, 2.6547676e+2, -354851.4, -481821.66, -787.382, 0.045175355, 0.0035177383, -354846.53, -16497.582, 0.0, 5.015916, 4.9340982 
5.766492e+1, 2.7041504e+2, -305072.44, -431854.2, -1149.952, 0.06110262, 0.01732194, -305062.0, -15065.234, 0.0, 5.015888, 4.934225 
5.766537e+1, 2.753534e+2, -255484.97, -382120.3, -1673.888, 0.07664498, 0.030359797, -255462.86, -13819.241, 0.0, 5.0157866, 4.934305 
5.7668114e+1, 2.802917e+2, -226344.73, -388342.5, -1510.5944, 0.11116318, 0.17207293, -226330.64, -33053.95, 0.0, 5.017369, 4.914412 
5.7670283e+1, 2.8521916e+2, -156134.42, -291224.34, -859.55695, 0.103353485, 0.17788517, -156128.95, -11181.432, 0.0, 5.017568, 4.9308414 
5.7670283e+1, 2.9014075e+2, -110834.03, -243288.42, 295.61, 0.0705952, 0.05886275, -110833.37, -14166.544, 0.0, 5.016032, 4.9309034 
5.767009e+1, 2.9506218e+2, -65702.695, -195453.61, 1396.2874, 0.03821833, -0.0628735, -65687.67, -17299.953, 0.0, 5.014364, 4.930966 
5.766971e+1, 2.99999e+2, -16542.283, -105999.2, 1199.9148, 0.015706351, -0.13658483, -16526.191, -16526.191, 0.0, 5.0128655, 4.954814 
5.7665426e+1, 3.0498752e+2, -9418.642, -82293.4, 2287.4224, -0.0032753341, 0.037424624, -9346.914, -9346.914, 0.0, 5.011417, 4.962356 
5.765944e+1, 3.0998704e+2, -13197.328, -83238.54, 3850.0652, -0.030076224, 0.26157913, -12986.332, -12986.332, 0.0, 5.009623, 4.9626946 
5.765274e+1, 3.1498772e+2, -17184.217, -84458.375, 5176.194, -0.059035514, 0.49460378, -16788.281, -16788.281, 0.0, 5.007634, 4.9630346 
6.2677616e+1, 1.2152407e+2, -1706876.1, -1740044.3, -535.6497, -0.010327839, 0.0019732367, -1706867.5, 42200.79, 0.0, 5.0143538, 4.9927225 
6.267766e+1, 1.2651037e+2, -1668710.6, -1712963.4, -457.84604, -0.008318138, 0.004256593, -1668706.0, 31491.75, 0.0, 5.0143323, 4.985541 
6.2677634e+1, 1.3149562e+2, -1619788.1, -1664000.9, -309.35458, -0.0069416394, 0.00078165345, -1619785.9, 31558.21, 0.0, 5.0143065, 4.985541 
6.2677604e+1, 1.3648087e+2, -1573075.3, -1619577.1, -160.97565, -0.0055361628, -0.0014385164, -1573074.8, 29416.072, 0.0, 5.0142813, 4.9840364 
6.2677515e+1, 1.4146358e+2, -1529791.5, -1582325.9, -178.55612, -0.004289462, 0.0104305595, -1529790.9, 23870.477, 0.0, 5.014272, 4.9800687 
6.2677246e+1, 1.4644383e+2, -1480201.1, -1532278.5, -268.5605, -0.0035515379, 0.0067301807, -1480199.8, 24654.275, 0.0, 5.0142965, 4.980385 
6.267697e+1, 1.5142402e+2, -1431074.1, -1483190.6, -330.61432, -0.0028259205, 0.0021877869, -1431072.0, 24975.002, 0.0, 5.014322, 4.9803843 
6.26767e+1, 1.5640423e+2, -1383376.4, -1437080.3, -392.6993, -0.002087161, -0.0018958815, -1383373.5, 23866.568, 0.0, 5.014347, 4.979389 
6.267641e+1, 1.613807e+2, -1342709.8, -1405678.6, -413.0837, -0.0015953385, 0.00050124945, -1342707.0, 15762.739, 0.0, 5.0143685, 4.9734735 
6.2676096e+1, 1.6635428e+2, -1293521.4, -1356458.3, -433.1714, -0.0017025328, -0.000981836, -1293518.4, 16209.358, 0.0, 5.0143776, 4.973502 
6.2675786e+1, 1.7132789e+2, -1244375.4, -1307325.9, -459.10977, -0.0018078381, -0.0023209893, -1244372.0, 16613.404, 0.0, 5.0143867, 4.973502 
6.267547e+1, 1.7630151e+2, -1196366.1, -1260597.8, -485.07025, -0.0018854553, -0.0032732345, -1196362.5, 15880.638, 0.0, 5.0143948, 4.972695 
6.2675166e+1, 1.8127137e+2, -1156543.1, -1231324.6, -570.311, -0.0015546946, 0.003500411, -1156538.8, 6999.7344, 0.0, 5.0144176, 4.9659786 
6.267484e+1, 1.8623748e+2, -1107130.9, -1181917.0, -582.3823, -0.0003646891, 0.0017854894, -1107126.4, 7746.1797, 0.0, 5.0144706, 4.9660244 
6.2674516e+1, 1.9120358e+2, -1057780.5, -1132649.4, -559.44806, 0.0008849955, -0.00016548534, -1057776.4, 8430.327, 0.0, 5.0145245, 4.9660244 
6.2674195e+1, 1.9616967e+2, -1009323.56, -1085299.5, -536.5737, 0.0021615692, -0.0017876535, -1009319.75, 8221.028, 0.0, 5.014578, 4.965374 
6.267398e+1, 2.0113234e+2, -968837.75, -1055022.3, -291.55392, 0.0035487213, 0.004792799, -968836.8, 71.20291, 0.0, 5.0146065, 4.958906 
6.267404e+1, 2.060918e+2, -919297.2, -1004928.3, -173.98964, 0.0049340758, 0.0049927966, -919296.9, 1007.46704, 0.0, 5.01456, 4.959209 
6.2674123e+1, 2.1105132e+2, -870183.75, -955736.4, -138.08127, 0.0063242144, 0.0049394188, -870183.5, 1516.8041, 0.0, 5.014509, 4.959209 
6.26742e+1, 2.1601082e+2, -821735.9, -907998.7, -102.03627, 0.007742628, 0.005025307, -821735.75, 1360.553, 0.0, 5.014457, 4.9587097 
6.267424e+1, 2.2096659e+2, -782942.2, -881701.06, -31.68523, 0.008740302, 0.014795098, -782942.2, -8411.053, 0.0, 5.014462, 4.950806 
6.267412e+1, 2.2591802e+2, -733231.06, -832356.06, 119.73434, 0.00800949, 0.018234955, -733230.94, -7215.8843, 0.0, 5.014625, 4.950725 
6.2673974e+1, 2.3086943e+2, -683388.44, -782780.44, 278.53198, 0.0071675642, 0.021390647, -683387.7, -5887.7944, 0.0, 5.014797, 4.9507256 
6.267383e+1, 2.3582081e+2, -634200.8, -734655.9, 438.7294, 0.0063651446, 0.024559956, -634198.9, -5214.1133, 0.0, 5.0149684, 4.9502244 
6.267396e+1, 2.4076864e+2, -592848.25, -703851.25, 992.4213, 0.00666268, 0.036091883, -592839.4, -12339.779, 0.0, 5.0151067, 4.9437175 
6.267513e+1, 2.4571232e+2, -541332.6, -650621.3, 1261.0852, 0.010298546, 0.021463763, -541318.1, -9280.006, 0.0, 5.0152726, 4.9449563 
6.2676376e+1, 2.5065586e+2, -491389.25, -600984.1, 1229.4391, 0.01426411, 0.002976287, -491375.47, -7798.884, 0.0, 5.015451, 4.944955 
6.26776e+1, 2.5559944e+2, -441699.3, -551917.75, 1195.7001, 0.018321464, -0.015333448, -441686.3, -6571.415, 0.0, 5.015624, 4.944755 
6.267894e+1, 2.6053932e+2, -404972.44, -532942.9, 711.61456, 0.025435861, -0.011246653, -404968.5, -18268.295, 0.0, 5.0159187, 4.933828 
6.2679964e+1, 2.6547763e+2, -353639.3, -482201.4, 491.47684, 0.03750481, 0.008806616, -353637.44, -15292.843, 0.0, 5.0163827, 4.9337916 
6.2680703e+1, 2.704161e+2, -302557.94, -432154.44, 768.5327, 0.049058925, 0.02832312, -302553.38, -12561.315, 0.0, 5.016823, 4.9337683 
6.268122e+1, 2.7535442e+2, -251519.05, -382277.78, 1136.5212, 0.05990489, 0.046007425, -251509.17, -9868.064, 0.0, 5.0172405, 4.933697 
6.268419e+1, 2.8029263e+2, -222458.17, -387503.2, 5279.7856, 0.079837665, 0.19428386, -222289.44, -29013.385, 0.0, 5.01879, 4.913967 
6.2685525e+1, 2.8522e+2, -153664.9, -288248.78, 3172.9963, 0.06963418, 0.19431655, -153590.13, -8643.412, 0.0, 5.0181108, 4.931407 
6.2684333e+1, 2.9014134e+2, -110116.77, -241572.66, 2194.2498, 0.04486449, 0.06561343, -110080.16, -13413.332, 0.0, 5.015983, 4.93134 
6.2682945e+1, 2.950626e+2, -66504.6, -194884.0, 1254.963, 0.02014903, -0.06391542, -66492.33, -18104.38, 0.0, 5.0138044, 4.9312735 
6.2681407e+1, 2.9999918e+2, -18513.232, -107287.8, 758.2846, 0.0007396101, -0.14314882, -18506.756, -18506.756, 0.0, 5.012051, 4.954631 
6.267577e+1, 3.0498803e+2, -10081.749, -84167.9, -242.25066, -0.028289892, 0.033836234, -10080.957, -10080.957, 0.0, 5.011151, 4.9616685 
6.266826e+1, 3.0998722e+2, -11720.658, -84411.85, -1147.7859, -0.06790043, 0.2523372, -11702.539, -11702.539, 0.0, 5.010084, 4.961903 
6.2659955e+1, 3.1498638e+2, -13273.601, -84743.6, -1654.1393, -0.1119223, 0.46690226, -13235.337, -13235.337, 0.0, 5.0089474, 4.962137 
6.7692155e+1, 1.2152364e+2, -1708392.1, -1743123.8, -560.6992, -0.008644362, 0.0027219711, -1708383.1, 40688.6, 0.0, 5.0143533, 4.9917107 
6.769213e+1, 1.2650982e+2, -1668421.4, -1712370.5, -478.7214, -0.0069669737, 0.0030687116, -1668416.3, 31787.082, 0.0, 5.0143313, 4.9857364 
6.7691994e+1, 1.3149528e+2, -1619500.6, -1663410.3, -328.8694, -0.0064161024, -0.0003224642, -1619498.1, 31849.168, 0.0, 5.014306, 4.985736 
6.769186e+1, 1.3648073e+2, -1572789.4, -1618988.3, -179.1237, -0.0058548637, -0.0024590106, -1572788.8, 29702.83, 0.0, 5.0142803, 4.984232 
6.769169e+1, 1.4146356e+2, -1529815.5, -1582376.9, -168.3084, -0.0053147213, 0.009515151, -1529814.9, 23845.768, 0.0, 5.0142727, 4.9800525 
6.76914e+1, 1.4644377e+2, -1480313.3, -1532513.0, -249.11775, -0.0049964134, 0.0061979285, -1480312.1, 24541.887, 0.0, 5.014297, 4.9803076 
6.769111e+1, 1.5142393e+2, -1431185.4, -1483424.3, -310.38843, -0.0046922714, 0.002067393, -1431183.5, 24864.133, 0.0, 5.0143223, 4.980307 
6.769082e+1, 1.564041e+2, -1383486.9, -1437313.0, -371.69382, -0.0043823617, -0.0016040014, -1383484.3, 23757.178, 0.0, 5.014347, 4.979312 
6.769055e+1, 1.6138051e+2, -1342764.8, -1405794.9, -403.3434, -0.0039562215, 0.0010116365, -1342762.1, 15709.681, 0.0, 5.0143685, 4.973435 
6.7690325e+1, 1.6635406e+2, -1293566.6, -1356554.3, -426.8543, -0.003310282, -0.00055482105, -1293563.8, 16166.638, 0.0, 5.014378, 4.97347 
6.769009e+1, 1.7132765e+2, -1244420.6, -1307421.6, -451.7971, -0.0026477554, -0.0019740753, -1244417.4, 16571.305, 0.0, 5.0143867, 4.97347 
6.7689866e+1, 1.7630123e+2, -1196411.3, -1260693.5, -476.76294, -0.0019732874, -0.0030042885, -1196407.8, 15839.1455, 0.0, 5.0143948, 4.972663 
6.7689633e+1, 1.8127108e+2, -1156510.4, -1231256.8, -535.9037, -0.0011076012, 0.0038195727, -1156506.5, 7035.938, 0.0, 5.0144176, 4.966002 
6.768938e+1, 1.8623728e+2, -1107083.9, -1181819.9, -539.8497, 0.00019059473, 0.002658056, -1107080.0, 7795.6816, 0.0, 5.014471, 4.966058 
6.768911e+1, 1.9120346e+2, -1057733.5, -1132552.3, -515.58325, 0.0015171799, 0.0012992714, -1057730.0, 8479.038, 0.0, 5.0145245, 4.966058 
6.768885e+1, 1.9616964e+2, -1009276.5, -1085202.3, -491.38208, 0.0028516222, 0.00026662977, -1009273.3, 8268.966, 0.0, 5.0145783, 4.9654074 
6.768865e+1, 2.0113234e+2, -968774.3, -1054886.9, -305.7503, 0.004035856, 0.0068950765, -968773.2, 135.81956, 0.0, 5.014607, 4.9589524 
6.7688584e+1, 2.0609175e+2, -919233.44, -1004791.44, -211.99146, 0.0045811897, 0.005884942, -919232.94, 1073.0345, 0.0, 5.01456, 4.959256 
6.768851e+1, 2.1105118e+2, -870120.06, -955599.06, -174.18236, 0.005075537, 0.0045695873, -870119.7, 1582.9087, 0.0, 5.014509, 4.9592566 
6.7688453e+1, 2.1601059e+2, -821672.25, -907860.9, -136.23212, 0.005572493, 0.00338974, -821672.06, 1427.204, 0.0, 5.014457, 4.9587574 
6.768842e+1, 2.2096637e+2, -782722.56, -881219.2, 56.503033, 0.0056958655, 0.012348863, -782722.5, -8188.8174, 0.0, 5.0144615, 4.950972 
6.7688406e+1, 2.2591811e+2, -732959.8, -831753.4, 265.5594, 0.0044226735, 0.01691868, -732959.1, -6945.24, 0.0, 5.0146236, 4.9509335 
6.7688394e+1, 2.3086986e+2, -683120.8, -782176.94, 428.35944, 0.0030262906, 0.021400664, -683118.94, -5624.2466, 0.0, 5.0147953, 4.950935 
6.768837e+1, 2.3582157e+2, -633936.7, -734051.44, 592.5451, 0.0016133821, 0.025897507, -633933.2, -4957.6147, 0.0, 5.0149655, 4.950435 
6.7688584e+1, 2.4076962e+2, -592745.7, -703554.94, 1091.7908, 0.0011890319, 0.037769184, -592734.94, -12246.763, 0.0, 5.0150976, 4.9438214 
6.768986e+1, 2.4571322e+2, -541373.4, -650616.9, 1379.5376, 0.004114485, 0.022091296, -541355.94, -9326.397, 0.0, 5.0152593, 4.94496 
6.769121e+1, 2.5065666e+2, -491433.03, -600984.0, 1354.2069, 0.00734638, 0.0027326874, -491416.28, -7845.1763, 0.0, 5.015436, 4.9449577 
6.769255e+1, 2.5560015e+2, -441746.1, -551921.9, 1326.7777, 0.010609211, -0.016385473, -441730.13, -6617.6367, 0.0, 5.0156083, 4.9447565 
6.769402e+1, 2.6054025e+2, -404577.03, -531783.1, 1262.3125, 0.0157683, -0.011909481, -404564.5, -17867.664, 0.0, 5.01588, 4.9342585 
6.7695177e+1, 2.654796e+2, -353365.7, -480864.1, 1400.683, 0.021774644, 0.016184002, -353350.3, -15021.523, 0.0, 5.0162873, 4.9343257 
6.7695993e+1, 2.7041918e+2, -302367.13, -430588.6, 1769.6691, 0.025634736, 0.044748288, -302342.72, -12380.715, 0.0, 5.0166764, 4.9343834 
6.7696536e+1, 2.7535874e+2, -251411.69, -380484.03, 2229.516, 0.027490577, 0.07137754, -251373.19, -9777.305, 0.0, 5.0170436, 4.9343934 
6.7699426e+1, 2.802969e+2, -220652.14, -382186.6, 6560.625, 0.029053953, 0.20458633, -220386.13, -27156.719, 0.0, 5.0186434, 4.915905 
6.7699814e+1, 2.852231e+2, -154922.28, -290506.78, 1864.9624, 0.02120985, 0.19388485, -154896.63, -9982.504, 0.0, 5.018054, 4.9307394 
6.76975e+1, 2.90144e+2, -111253.16, -243595.55, 1016.73663, 0.009450731, 0.07202976, -111245.34, -14603.291, 0.0, 5.0159473, 4.9307194 
6.769497e+1, 2.950647e+2, -67520.984, -196672.89, 208.14894, -0.0037262316, -0.051973812, -67520.65, -19149.008, 0.0, 5.01379, 4.9306993 
6.7692274e+1, 3.000018e+2, -17306.688, -103080.79, 753.26227, -0.017594278, -0.12730941, -17300.072, -17300.072, 0.0, 5.011943, 4.9562526 
6.768548e+1, 3.04988e+2, -11967.964, -84725.45, 655.8434, -0.05651886, 0.03623862, -11962.053, -11962.053, 0.0, 5.01071, 4.9619064 
6.7676634e+1, 3.099835e+2, -14331.416, -84422.67, 94.88554, -0.11119968, 0.24188411, -14331.288, -14331.288, 0.0, 5.0093384, 4.962407 
6.766682e+1, 3.149797e+2, -16609.91, -84207.37, -66.4491, -0.17495884, 0.447919, -16609.846, -16609.846, 0.0, 5.0078964, 4.962907 
7.270669e+1, 1.2152318e+2, -1709850.4, -1746084.9, -585.9077, -0.0069713653, 0.003164562, -1709840.9, 39234.637, 0.0, 5.014353, 4.9907384 
7.2706604e+1, 1.2650926e+2, -1668132.6, -1711777.5, -499.51538, -0.0056164754, 0.001928705, -1668126.9, 32082.016, 0.0, 5.014331, 4.985932 
7.270636e+1, 1.3149494e+2, -1619213.5, -1662819.3, -348.30292, -0.0058906698, -0.0013985909, -1619210.8, 32139.729, 0.0, 5.0143056, 4.9859314 
7.2706115e+1, 1.3648058e+2, -1572503.9, -1618399.3, -197.19069, -0.006173106, -0.0034713966, -1572503.0, 29989.19, 0.0, 5.01428, 4.984427 
7.2705865e+1, 1.4146355e+2, -1529843.9, -1582436.6, -157.5403, -0.006335798, 0.0086256685, -1529843.5, 23816.498, 0.0, 5.0142727, 4.980033 
7.270556e+1, 1.4644372e+2, -1480425.6, -1532747.4, -229.72665, -0.0064382097, 0.005686885, -1480424.6, 24429.28, 0.0, 5.014297, 4.9802303 
7.2705245e+1, 1.5142384e+2, -1431296.9, -1483657.6, -290.2141, -0.0065572546, 0.001954028, -1431295.3, 24753.049, 0.0, 5.0143223, 4.98023 
7.270494e+1, 1.5640396e+2, -1383597.5, -1437545.8, -350.73987, -0.0066779056, -0.0013192726, -1383595.3, 23647.582, 0.0, 5.0143476, 4.9792347 
7.270469e+1, 1.6138034e+2, -1342824.3, -1405920.0, -393.6861, -0.0063165873, 0.0015389607, -1342821.9, 15652.089, 0.0, 5.0143685, 4.973393 
7.270454e+1, 1.6635385e+2, -1293612.3, -1356649.9, -420.52997, -0.00491648, -0.000112182206, -1293609.5, 16123.574, 0.0, 5.014378, 4.9734383 
7.27044e+1, 1.713274e+2, -1244466.1, -1307517.1, -444.47714, -0.0034854596, -0.0016241289, -1244463.0, 16528.865, 0.0, 5.0143867, 4.9734383 
7.2704256e+1, 1.7630093e+2, -1196456.8, -1260788.9, -468.4483, -0.0020582445, -0.0027449017, -1196453.4, 15797.321, 0.0, 5.0143948, 4.9726305 
7.27041e+1, 1.8127076e+2, -1156482.3, -1231197.9, -501.40967, -0.0006560255, 0.004159561, -1156478.9, 7067.528, 0.0, 5.0144176, 4.966022 
7.270391e+1, 1.8623707e+2, -1107037.4, -1181722.5, -497.39825, 0.000748383, 0.003549077, -1107034.1, 7844.7554, 0.0, 5.014471, 4.9660907 
7.2703713e+1, 1.9120334e+2, -1057687.0, -1132454.8, -471.79974, 0.0021492091, 0.0027648418, -1057684.0, 8527.331, 0.0, 5.014525, 4.966091 
7.2703505e+1, 1.9616961e+2, -1009229.9, -1085104.6, -446.27173, 0.00353886, 0.002304087, -1009227.25, 8316.496, 0.0, 5.014579, 4.9654408 
7.2703314e+1, 2.0113236e+2, -968717.56, -1054764.9, -320.88373, 0.004527845, 0.009026666, -968716.4, 193.66295, 0.0, 5.014607, 4.958994 
7.270312e+1, 2.0609169e+2, -919170.4, -1004653.94, -250.30397, 0.0042329207, 0.0068079657, -919169.6, 1137.9344, 0.0, 5.01456, 4.959303 
7.270291e+1, 2.1105103e+2, -870057.06, -955461.1, -210.5942, 0.0038271612, 0.004206134, -870056.5, 1648.3528, 0.0, 5.014509, 4.9593034 
7.2702706e+1, 2.1601036e+2, -821609.3, -907722.5, -170.73878, 0.0033983446, 0.0017360515, -821609.0, 1493.2017, 0.0, 5.0144577, 4.9588046 
7.270259e+1, 2.2096616e+2, -782512.75, -880756.1, 143.43332, 0.0026527883, 0.009949157, -782512.56, -7976.296, 0.0, 5.0144615, 4.951131 
7.270269e+1, 2.2591823e+2, -732690.25, -831149.3, 409.9498, 0.00082481647, 0.015642544, -732688.5, -6675.836, 0.0, 5.014622, 4.9511414 
7.270281e+1, 2.3087029e+2, -682854.75, -781572.06, 576.752, -0.001143975, 0.021398187, -682851.4, -5361.8926, 0.0, 5.014793, 4.951144 
7.27029e+1, 2.3582233e+2, -633674.2, -733445.6, 744.9258, -0.003185324, 0.027169926, -633668.6, -4702.2686, 0.0, 5.0149627, 4.9506454 
7.27032e+1, 2.4077061e+2, -592668.0, -703300.1, 1184.4159, -0.004299947, 0.03957165, -592655.3, -12178.688, 0.0, 5.015088, 4.943909 
7.270458e+1, 2.4571413e+2, -541421.56, -650605.06, 1498.4196, -0.0020534252, 0.022907903, -541401.0, -9380.214, 0.0, 5.015246, 4.9449635 
7.270605e+1, 2.506575e+2, -491484.34, -600976.44, 1479.4042, 0.00045618575, 0.0026077407, -491464.34, -7898.828, 0.0, 5.0154214, 4.9449596 
7.2707486e+1, 2.5560087e+2, -441800.44, -551918.56, 1458.2848, 0.0029358822, -0.01738927, -441781.13, -6671.1514, 0.0, 5.0155926, 4.9447575 
7.2709084e+1, 2.6054117e+2, -404264.3, -530743.06, 1738.2073, 0.0062600933, -0.012703897, -404240.44, -17546.602, 0.0, 5.0158415, 4.9346347 
7.271023e+1, 2.6548144e+2, -353127.22, -479494.78, 2194.8293, 0.005288643, 0.022460083, -353089.13, -14775.342, 0.0, 5.0161924, 4.9348435 
7.2710973e+1, 2.704222e+2, -302211.28, -428990.75, 2655.7898, 0.0003388874, 0.058984414, -302155.7, -12222.588, 0.0, 5.0165305, 4.9349823 
7.271141e+1, 2.753629e+2, -251339.05, -378658.28, 3207.5361, -0.007911317, 0.093470745, -251258.3, -9706.152, 0.0, 5.0168467, 4.935074 
7.27145e+1, 2.8030124e+2, -219457.38, -378230.0, 7717.6216, -0.020812402, 0.21573405, -219083.11, -25900.793, 0.0, 5.0184975, 4.917358 
7.271427e+1, 2.8522635e+2, -156259.94, -292687.53, 456.37445, -0.023213001, 0.19673438, -156258.42, -11378.36, 0.0, 5.0179973, 4.9300547 
7.2710884e+1, 2.9014668e+2, -112469.78, -245540.63, -261.36536, -0.022732439, 0.07996755, -112469.266, -15852.602, 0.0, 5.015912, 4.9300814 
7.2707224e+1, 2.9506677e+2, -68617.57, -198383.45, -939.3017, -0.02514147, -0.040270004, -68610.766, -20255.203, 0.0, 5.013776, 4.9301085 
7.270339e+1, 3.000042e+2, -16682.42, -99944.34, 423.6269, -0.032831393, -0.11201062, -16680.264, -16680.264, 0.0, 5.011835, 4.9574375 
7.2694886e+1, 3.0498752e+2, -13962.622, -85175.32, 1178.3815, -0.083344676, 0.035043612, -13943.128, -13943.128, 0.0, 5.010269, 4.962089 
7.268399e+1, 3.0997908e+2, -17050.525, -84325.695, 961.1142, -0.15654714, 0.22194372, -17036.797, -17036.797, 0.0, 5.008593, 4.962855 
7.267196e+1, 3.1497207e+2, -20054.514, -83563.19, 1143.9108, -0.24349067, 0.4135514, -20033.916, -20033.916, 0.0, 5.0068474, 4.9636207 
7.7721214e+1, 1.21522665e+2, -1711343.1, -1748970.9, -582.78046, -0.00529395, 0.003299207, -1711334.1, 37745.586, 0.0, 5.0143213, 4.9898057 
7.772108e+1, 1.2650873e+2, -1667892.4, -1711208.5, -499.72073, -0.0042614485, 0.00083443965, -1667886.6, 32327.836, 0.0, 5.014314, 4.986127 
7.7720726e+1, 1.314946e+2, -1618950.5, -1662240.3, -358.19003, -0.0053640986, -0.002447869, -1618947.5, 32406.043, 0.0, 5.014297, 4.9861264 
7.772037e+1, 1.3648045e+2, -1572236.1, -1617818.8, -215.6472, -0.006488864, -0.0044757146, -1572235.1, 30257.764, 0.0, 5.0142736, 4.9846215 
7.772004e+1, 1.4146352e+2, -1529899.6, -1582516.3, -151.65385, -0.0073473766, 0.0077628368, -1529899.1, 23760.047, 0.0, 5.014265, 4.9800105 
7.771971e+1, 1.4644367e+2, -1480563.0, -1532993.4, -212.82036, -0.007870637, 0.0051977155, -1480562.1, 24291.732, 0.0, 5.014289, 4.9801526 
7.771939e+1, 1.5142375e+2, -1431440.4, -1483906.3, -269.23288, -0.00841252, 0.001848037, -1431439.0, 24610.014, 0.0, 5.014312, 4.9801526 
7.771906e+1, 1.5640382e+2, -1383752.3, -1437799.3, -325.53802, -0.008962175, -0.0010419247, -1383750.4, 23493.9, 0.0, 5.014333, 4.979157 
7.7718824e+1, 1.6138017e+2, -1342938.1, -1406078.0, -376.99588, -0.008663806, 0.0020822966, -1342935.9, 15540.019, 0.0, 5.014352, 4.973348 
7.7718765e+1, 1.6635364e+2, -1293698.4, -1356764.6, -407.40118, -0.0065133423, 0.00034507105, -1293695.8, 16039.895, 0.0, 5.0143642, 4.973406 
7.7718705e+1, 1.7132713e+2, -1244553.0, -1307632.1, -430.8101, -0.0043159598, -0.0012721037, -1244550.1, 16444.977, 0.0, 5.0143723, 4.973406 
7.7718645e+1, 1.7630063e+2, -1196555.6, -1260909.4, -454.15335, -0.002135816, -0.0024958851, -1196552.5, 15702.022, 0.0, 5.0143766, 4.9725986 
7.7718574e+1, 1.8127048e+2, -1156521.9, -1231177.9, -459.91922, -0.0001955056, 0.0045195706, -1156519.1, 7031.299, 0.0, 5.014396, 4.9660387 
7.771844e+1, 1.8623684e+2, -1107041.9, -1181648.5, -445.6811, 0.0013108362, 0.0044574114, -1107039.3, 7842.7407, 0.0, 5.014454, 4.9661236 
7.7718306e+1, 1.9120322e+2, -1057687.5, -1132378.6, -416.2914, 0.002783521, 0.004229453, -1057685.3, 8528.399, 0.0, 5.014509, 4.966124 
7.771817e+1, 1.9616958e+2, -1009236.5, -1085031.1, -386.89108, 0.0042287675, 0.004321988, -1009234.5, 8310.676, 0.0, 5.0145607, 4.9654737 
7.771799e+1, 2.0113237e+2, -968726.06, -1054683.8, -320.12198, 0.0050332234, 0.01118375, -968724.9, 186.1595, 0.0, 5.014587, 4.9590306 
7.771765e+1, 2.0609163e+2, -919160.6, -1004540.75, -273.67667, 0.0038980758, 0.00775827, -919159.75, 1149.4124, 0.0, 5.014542, 4.959349 
7.771731e+1, 2.1105088e+2, -870062.1, -955354.5, -234.70866, 0.0025931927, 0.0038452407, -870061.5, 1645.6563, 0.0, 5.014486, 4.95935 
7.7716964e+1, 2.1601015e+2, -821650.94, -907632.44, -196.17168, 0.001244897, 0.00005953729, -821650.5, 1454.6102, 0.0, 5.0144215, 4.9588513 
7.771677e+1, 2.2096594e+2, -782448.1, -880374.94, 236.63248, -0.00035600166, 0.007590826, -782447.56, -7908.8413, 0.0, 5.014414, 4.9512825 
7.771698e+1, 2.2591832e+2, -732544.0, -830600.9, 560.32227, -0.0027584669, 0.014399808, -732540.8, -6529.3687, 0.0, 5.014579, 4.951349 
7.771721e+1, 2.3087071e+2, -682735.06, -781033.6, 730.59076, -0.0053167758, 0.021365872, -682729.6, -5245.3223, 0.0, 5.0147405, 4.9513526 
7.7717435e+1, 2.3582311e+2, -633621.0, -732935.44, 901.90326, -0.007994099, 0.028339928, -633612.8, -4655.669, 0.0, 5.014887, 4.950855 
7.771781e+1, 2.407716e+2, -592901.4, -703224.44, 1267.8273, -0.009752813, 0.04144116, -592886.8, -12421.766, 0.0, 5.014979, 4.9439793 
7.771928e+1, 2.4571505e+2, -541820.1, -650752.94, 1562.6869, -0.008147491, 0.023880143, -541797.75, -9785.733, 0.0, 5.0151124, 4.944963 
7.772086e+1, 2.506583e+2, -491980.66, -601172.4, 1485.3527, -0.0063329455, 0.002620417, -491960.47, -8400.631, 0.0, 5.0152535, 4.9449577 
7.772241e+1, 2.556016e+2, -442434.03, -552180.0, 1398.5753, -0.0045982245, -0.018249765, -442416.2, -7308.85, 0.0, 5.015376, 4.944754 
7.7724123e+1, 2.6054204e+2, -404934.84, -530256.75, 1843.0684, -0.002920333, -0.013478595, -404907.75, -18216.553, 0.0, 5.0154867, 4.934948 
7.772514e+1, 2.6548317e+2, -355152.78, -479144.5, 2412.488, -0.011497233, 0.027534721, -355105.88, -16805.943, 0.0, 5.0153055, 4.935332 
7.772569e+1, 2.7042493e+2, -306434.88, -429372.3, 2837.7837, -0.025901338, 0.07037882, -306369.4, -16463.146, 0.0, 5.0148296, 4.935549 
7.7725893e+1, 2.7536675e+2, -258475.61, -380084.84, 3392.5774, -0.044734884, 0.11080469, -258381.03, -16869.39, 0.0, 5.0140686, 4.935718 
7.772949e+1, 2.8030533e+2, -228627.38, -379949.34, 8174.617, -0.06764083, 0.2254278, -228187.05, -35049.69, 0.0, 5.0148525, 4.918334 
7.772896e+1, 2.852296e+2, -164470.83, -297684.0, -1327.2484, -0.06209013, 0.20130615, -164457.61, -19611.42, 0.0, 5.015506, 4.92937 
7.772451e+1, 2.9014936e+2, -117777.82, -249087.9, -1774.382, -0.05064973, 0.08873032, -117753.84, -21162.438, 0.0, 5.0144496, 4.9294324 
7.771976e+1, 2.9506883e+2, -72196.37, -201010.84, -2306.9487, -0.043314587, -0.028776808, -72155.07, -23815.318, 0.0, 5.0129223, 4.929495 
7.7714807e+1, 3.0000645e+2, -19049.97, -98833.67, -296.10568, -0.04408056, -0.09688769, -19048.873, -19048.873, 0.0, 5.01087, 4.9581966 
7.770408e+1, 3.049866e+2, -23474.79, -88459.914, 2920.6228, -0.106594495, 0.029204948, -23343.793, -23343.793, 0.0, 5.007106, 4.9622965 
7.769048e+1, 3.0997398e+2, -35961.258, -90672.67, 6368.5547, -0.19964235, 0.18944125, -35229.723, -35229.723, 0.0, 5.0019307, 4.9633822 
7.767562e+1, 3.1496352e+2, -51556.31, -94347.266, 11697.155, -0.3104048, 0.35837153, -48567.57, -48567.57, 0.0, 4.995532, 4.9644713 
8.273546e+1, 1.21522434e+2, -1711742.5, -1749844.8, -209.64198, -0.0061354027, 0.0031853323, -1711741.4, 37340.35, 0.0, 5.0143332, 4.989514 
8.273534e+1, 1.2650844e+2, -1667761.4, -1710974.6, -205.39386, -0.0047119837, 0.0000011215782, -1667760.4, 32456.793, 0.0, 5.014321, 4.986202 
8.273499e+1, 1.3149439e+2, -1618832.3, -1662010.0, -227.58272, -0.005645017, -0.003268682, -1618831.1, 32524.254, 0.0, 5.0143, 4.986202 
8.2734644e+1, 1.3648032e+2, -1572112.6, -1617583.1, -250.27682, -0.00651896, -0.0052836607, -1572111.3, 30382.496, 0.0, 5.0142784, 4.9846983 
8.273433e+1, 1.4146344e+2, -1529890.1, -1582523.0, -247.04094, -0.0070940726, 0.0070072375, -1529888.9, 23770.592, 0.0, 5.014271, 4.980006 
8.2734036e+1, 1.4644358e+2, -1480614.5, -1533082.4, -239.53252, -0.007429443, 0.0046646832, -1480613.4, 24240.793, 0.0, 5.014285, 4.9801254 
8.2733756e+1, 1.5142366e+2, -1431516.5, -1484006.8, -229.25626, -0.007770222, 0.0015449304, -1431515.5, 24533.992, 0.0, 5.0142994, 4.980125 
8.2733464e+1, 1.5640374e+2, -1383847.9, -1437908.6, -218.98438, -0.008098537, -0.0011207429, -1383846.9, 23397.936, 0.0, 5.0143137, 4.97913 
8.2733244e+1, 1.6138007e+2, -1343078.5, -1406243.9, -231.07864, -0.007786887, 0.0021988312, -1343077.6, 15399.23, 0.0, 5.014324, 4.973306 
8.273315e+1, 1.663535e+2, -1293896.3, -1356968.5, -286.35464, -0.006089477, 0.000625136, -1293894.9, 15842.259, 0.0, 5.0143194, 4.973359 
8.273304e+1, 1.7132697e+2, -1244793.0, -1307855.1, -334.71954, -0.0043233177, -0.00082371995, -1244791.3, 16205.987, 0.0, 5.014313, 4.9733596 
8.273294e+1, 1.7630044e+2, -1196826.4, -1261146.0, -383.2671, -0.0025356663, -0.0018751329, -1196824.0, 15433.16, 0.0, 5.0143065, 4.9725523 
8.273286e+1, 1.8127027e+2, -1156696.9, -1231190.1, -355.31052, -0.0008474781, 0.0052626375, -1156695.1, 6858.1104, 0.0, 5.014322, 4.9660697 
8.2732797e+1, 1.862367e+2, -1107144.9, -1181574.6, -306.67148, 0.000643157, 0.0052190074, -1107143.6, 7740.4863, 0.0, 5.0143933, 4.966177 
8.2732725e+1, 1.912031e+2, -1057735.6, -1132278.4, -256.28333, 0.0021510252, 0.0050030113, -1057734.8, 8480.249, 0.0, 5.0144677, 4.9661775 
8.2732666e+1, 1.9616954e+2, -1009219.94, -1084900.3, -205.78595, 0.0036775519, 0.005103098, -1009219.4, 8326.419, 0.0, 5.014541, 4.9655275 
8.273253e+1, 2.0113236e+2, -968672.56, -1054576.9, -177.21034, 0.0045505175, 0.011720257, -968672.2, 239.09557, 0.0, 5.0145893, 4.959066 
8.273217e+1, 2.0609157e+2, -919085.2, -1004463.44, -191.80731, 0.0035188596, 0.007670893, -919084.75, 1225.1841, 0.0, 5.01456, 4.9593673 
8.2731795e+1, 2.1105078e+2, -869922.56, -955250.56, -198.84224, 0.0024239002, 0.0031317587, -869922.06, 1786.4294, 0.0, 5.014527, 4.9593678 
8.273143e+1, 2.1600999e+2, -821425.56, -907492.4, -205.89937, 0.0013821914, -0.0012903295, -821425.06, 1682.0055, 0.0, 5.0144925, 4.958868 
8.273122e+1, 2.209658e+2, -782029.94, -879829.3, 294.53436, -0.00023026364, 0.0057506384, -782029.0, -7488.682, 0.0, 5.014486, 4.9514403 
8.273142e+1, 2.259184e+2, -732365.44, -830025.8, 659.5913, -0.0037978964, 0.0126190735, -732361.0, -6351.253, 0.0, 5.0145373, 4.9515715 
8.273166e+1, 2.30871e+2, -682870.5, -780610.0, 829.946, -0.007451732, 0.019526934, -682863.5, -5384.252, 0.0, 5.01459, 4.9515743 
8.273189e+1, 2.3582359e+2, -634027.2, -732643.44, 1003.4953, -0.01106392, 0.026260873, -634017.0, -5068.0923, 0.0, 5.0146413, 4.9510756 
8.273226e+1, 2.4077219e+2, -593751.94, -703580.8, 1351.9987, -0.013506729, 0.038526647, -593735.3, -13279.956, 0.0, 5.014653, 4.944013 
8.273369e+1, 2.4571563e+2, -543584.44, -651981.9, 1545.689, -0.012263397, 0.022269225, -543562.4, -11557.686, 0.0, 5.014551, 4.944806 
8.273523e+1, 2.5065896e+2, -494486.5, -602771.75, 1359.0968, -0.010630158, 0.0034154824, -494469.47, -10914.862, 0.0, 5.0144396, 4.944792 
8.273674e+1, 2.5560236e+2, -445635.38, -554127.0, 1168.8143, -0.008891655, -0.014495117, -445622.78, -10519.075, 0.0, 5.0143256, 4.944579 
8.273831e+1, 2.6054302e+2, -407820.9, -530834.5, 1656.3883, -0.008058205, -0.0077344524, -407798.6, -21112.38, 0.0, 5.014287, 4.9353523 
8.273891e+1, 2.654841e+2, -356857.88, -478645.38, 2711.9526, -0.02087333, 0.028429149, -356797.53, -18508.336, 0.0, 5.014366, 4.9360466 
8.273907e+1, 2.7042532e+2, -306478.72, -428206.6, 3613.1726, -0.037265956, 0.059953086, -306371.56, -16478.098, 0.0, 5.0144405, 4.936289 
8.27389e+1, 2.7536622e+2, -256085.25, -377989.06, 4614.213, -0.05526774, 0.08283962, -255910.84, -14409.761, 0.0, 5.0145087, 4.936484 
8.2742196e+1, 2.8030282e+2, -228045.53, -373742.1, 10109.123, -0.07273357, 0.15752251, -227347.45, -34206.355, 0.0, 5.0144076, 4.920709 
8.27415e+1, 2.8522798e+2, -171630.45, -300763.03, 420.37753, -0.068719916, 0.14365019, -171629.1, -26781.668, 0.0, 5.0139933, 4.9287267 
8.273691e+1, 2.9014957e+2, -122892.14, -251732.3, -1386.9224, -0.058600813, 0.06384816, -122877.21, -26294.3, 0.0, 5.0136547, 4.9286065 
8.273207e+1, 2.9507038e+2, -74079.97, -202757.67, -3090.8945, -0.048174463, -0.025235917, -74005.766, -25679.598, 0.0, 5.013303, 4.928487 
8.272696e+1, 3.0000985e+2, -13104.425, -91308.445, -2576.452, -0.03994704, -0.07220811, -13019.635, -13019.635, 0.0, 5.0129056, 4.959846 
8.2715625e+1, 3.049874e+2, -7561.91, -73655.76, -1659.987, -0.08191008, 0.015067293, -7520.2446, -7520.2446, 0.0, 5.0124383, 4.9653497 
8.270163e+1, 3.0997178e+2, -5925.6836, -66344.516, -1905.9286, -0.14076781, 0.12013376, -5865.62, -5865.62, 0.0, 5.011979, 4.9678454 
8.2686645e+1, 3.1496012e+2, -3898.1367, -59429.098, -1947.4462, -0.20336789, 0.23186168, -3829.9243, -3829.9243, 0.0, 5.011505, 4.9703426 
8.774942e+1, 1.2152239e+2, -1711365.0, -1749074.0, -193.38174, -0.00992498, 0.0029156674, -1711364.0, 37717.934, 0.0, 5.0143323, 4.989768 
8.7749445e+1, 1.2650838e+2, -1667798.5, -1711049.5, -224.90633, -0.0070365714, -0.0005093704, -1667797.4, 32420.104, 0.0, 5.0143204, 4.986178 
8.774919e+1, 1.314943e+2, -1618868.5, -1662085.3, -245.20056, -0.0067179324, -0.00383249, -1618867.1, 32488.879, 0.0, 5.0142994, 4.986178 
8.774894e+1, 1.364802e+2, -1572147.9, -1617658.8, -265.99503, -0.006370355, -0.005905011, -1572146.4, 30348.41, 0.0, 5.014278, 4.984674 
8.774872e+1, 1.4146331e+2, -1529875.8, -1582494.9, -239.87407, -0.00591068, 0.0063230013, -1529874.6, 23785.96, 0.0, 5.014271, 4.9800158 
8.774852e+1, 1.4644347e+2, -1480592.8, -1533038.4, -228.44269, -0.0055427817, 0.0040625557, -1480591.8, 24263.273, 0.0, 5.014285, 4.98014 
8.774831e+1, 1.5142357e+2, -1431494.9, -1483963.0, -217.48581, -0.005197293, 0.0010410824, -1431493.9, 24555.988, 0.0, 5.0142994, 4.98014 
8.7748116e+1, 1.5640366e+2, -1383826.3, -1437865.1, -206.53546, -0.0048467624, -0.0015271237, -1383825.5, 23419.457, 0.0, 5.0143137, 4.9791446 
8.774791e+1, 1.6138001e+2, -1343137.5, -1406366.5, -230.42677, -0.004497975, 0.0019531653, -1343136.6, 15340.27, 0.0, 5.014324, 4.973265 
8.774766e+1, 1.6635342e+2, -1293982.3, -1357148.9, -291.1359, -0.0041509424, 0.0007807914, -1293980.9, 15756.832, 0.0, 5.0143194, 4.973299 
8.774741e+1, 1.7132688e+2, -1244878.1, -1308034.8, -338.485, -0.0037981707, -0.00025212718, -1244876.3, 16122.118, 0.0, 5.0143127, 4.9732995 
8.774716e+1, 1.763003e+2, -1196910.5, -1261325.0, -386.01556, -0.0034395177, -0.0008912779, -1196908.3, 15350.823, 0.0, 5.0143065, 4.9724917 
8.7747e+1, 1.8127014e+2, -1156640.8, -1231073.9, -314.73505, -0.0027337244, 0.0063856766, -1156639.5, 6915.894, 0.0, 5.0143223, 4.966109 
8.7747e+1, 1.8623659e+2, -1107050.0, -1181376.1, -248.72012, -0.0012664138, 0.0058924905, -1107049.3, 7836.359, 0.0, 5.014394, 4.966244 
8.774701e+1, 1.9120301e+2, -1057641.3, -1132079.9, -196.76099, 0.00023129302, 0.0052047814, -1057640.8, 8575.055, 0.0, 5.0144677, 4.966245 
8.774702e+1, 1.9616947e+2, -1009126.06, -1084701.8, -144.69966, 0.0017297973, 0.004830311, -1009125.75, 8420.185, 0.0, 5.0145416, 4.9655952 
8.774695e+1, 2.0113228e+2, -968633.94, -1054493.6, -181.36896, 0.0027874338, 0.010920282, -968633.56, 277.53333, 0.0, 5.014589, 4.9590945 
8.7746656e+1, 2.060915e+2, -919091.3, -1004476.6, -218.48347, 0.0027201897, 0.006786878, -919090.75, 1219.4886, 0.0, 5.01456, 4.959364 
8.774635e+1, 2.1105069e+2, -869928.44, -955263.7, -223.22859, 0.002626018, 0.0022511815, -869927.8, 1781.3953, 0.0, 5.0145264, 4.959364 
8.7746054e+1, 2.1600989e+2, -821431.25, -907505.44, -227.99292, 0.0025604116, -0.0021622402, -821430.6, 1677.6252, 0.0, 5.0144925, 4.958864 
8.7745863e+1, 2.2096574e+2, -781820.5, -879368.0, 318.26245, 0.0013457219, 0.0046030576, -781819.5, -7278.345, 0.0, 5.0144854, 4.951599 
8.7745994e+1, 2.2591844e+2, -732067.4, -829354.4, 709.43115, -0.0036342004, 0.010600819, -732062.2, -6054.5625, 0.0, 5.014535, 4.951804 
8.7746125e+1, 2.3087119e+2, -682579.75, -779936.44, 885.68207, -0.008881501, 0.016650783, -682571.7, -5097.724, 0.0, 5.014585, 4.9518085 
8.774626e+1, 2.3582393e+2, -633743.7, -731967.56, 1065.1259, -0.014130718, 0.022544414, -633732.1, -4791.668, 0.0, 5.0146346, 4.9513116 
8.774655e+1, 2.4077262e+2, -593737.6, -703439.0, 1336.4594, -0.017886356, 0.03370971, -593721.4, -13276.003, 0.0, 5.014639, 4.9440637 
8.774781e+1, 2.4571617e+2, -543864.0, -652481.56, 1457.9641, -0.016949762, 0.019917494, -543844.4, -11847.919, 0.0, 5.0145345, 4.9446344 
8.774917e+1, 2.5065964e+2, -494759.78, -603273.06, 1278.855, -0.015624909, 0.0043839975, -494744.72, -11196.532, 0.0, 5.0144243, 4.944618 
8.7750494e+1, 2.556032e+2, -445902.38, -554630.0, 1096.0598, -0.014256538, -0.010184092, -445891.3, -10792.242, 0.0, 5.0143123, 4.944404 
8.77517e+1, 2.6054403e+2, -407015.75, -528780.94, 1692.7883, -0.016176784, -0.0022901483, -406992.22, -20312.193, 0.0, 5.014258, 4.936087 
8.775147e+1, 2.6548544e+2, -355542.56, -474930.6, 3007.2048, -0.041283548, 0.027804796, -355466.84, -17196.262, 0.0, 5.014276, 4.937413 
8.7750757e+1, 2.7042705e+2, -305308.66, -424326.28, 4062.5818, -0.07128099, 0.053004757, -305170.13, -15309.87, 0.0, 5.0142884, 4.9377265 
8.774971e+1, 2.7536848e+2, -255060.73, -373943.28, 5217.6387, -0.10324451, 0.06995425, -254832.19, -13380.051, 0.0, 5.014295, 4.937993 
8.7751806e+1, 2.8030446e+2, -225449.56, -367638.03, 8083.169, -0.122992836, 0.11726977, -224991.53, -31900.74, 0.0, 5.0143895, 4.9228954 
8.775123e+1, 2.852289e+2, -172947.8, -305039.22, -339.78943, -0.10688124, 0.10189405, -172946.92, -28132.926, 0.0, 5.0141616, 4.927297 
8.7747276e+1, 2.9015067e+2, -124204.76, -255761.31, -1988.6183, -0.08999855, 0.04299513, -124174.7, -27614.814, 0.0, 5.013808, 4.9272423 
8.7743074e+1, 2.9507163e+2, -75388.63, -206540.7, -3533.9302, -0.0732627, -0.025824873, -75293.48, -26979.938, 0.0, 5.013441, 4.927188 
8.7738365e+1, 3.0001208e+2, -11526.668, -87683.01, -3626.647, -0.058914747, -0.055905636, -11354.353, -11354.353, 0.0, 5.0129724, 4.961231 
8.772703e+1, 3.049878e+2, -6681.344, -70073.6, -2316.1501, -0.09892404, 0.016730579, -6596.8325, -6596.8325, 0.0, 5.0122795, 4.967118 
8.7713087e+1, 3.0996937e+2, -5761.7036, -62986.93, -1737.9303, -0.1576307, 0.10528178, -5708.9717, -5708.9717, 0.0, 5.011604, 4.9696355 
8.7698126e+1, 3.1495532e+2, -4450.7676, -56294.707, -955.9478, -0.22102769, 0.20574984, -4433.1465, -4433.1465, 0.0, 5.0109143, 4.9721556 
9.276339e+1, 1.21522315e+2, -1710931.0, -1748186.6, -177.63069, -0.013730529, 0.0023389293, -1710930.1, 38152.42, 0.0, 5.014332, 4.99006 
9.276354e+1, 1.2650833e+2, -1667836.5, -1711123.8, -243.9805, -0.009358115, -0.00096683414, -1667835.1, 32382.672, 0.0, 5.0143194, 4.986154 
9.276338e+1, 1.3149422e+2, -1618905.5, -1662159.8, -262.3801, -0.0077848034, -0.004364221, -1618903.9, 32452.762, 0.0, 5.014299, 4.9861536 
9.276324e+1, 1.3648008e+2, -1572183.9, -1617733.8, -281.2748, -0.0062127057, -0.006515236, -1572182.1, 30313.584, 0.0, 5.014278, 4.984649 
9.2763114e+1, 1.4146316e+2, -1529865.9, -1582475.4, -232.62625, -0.0047256397, 0.0056581344, -1529864.9, 23796.861, 0.0, 5.014271, 4.980022 
9.2763e+1, 1.4644334e+2, -1480571.1, -1532994.4, -217.32378, -0.0036560576, 0.0034752148, -1480570.3, 24285.506, 0.0, 5.014285, 4.980155 
9.2762876e+1, 1.5142348e+2, -1431473.4, -1483919.1, -205.68631, -0.0026233576, 0.0005404291, -1431472.6, 24577.74, 0.0, 5.0142994, 4.9801545 
9.2762756e+1, 1.564036e+2, -1383805.0, -1437821.5, -194.0575, -0.0015930363, -0.001941902, -1383804.3, 23440.742, 0.0, 5.0143137, 4.9791594 
9.2762566e+1, 1.6137995e+2, -1343200.1, -1406496.3, -230.03133, -0.0012098439, 0.0017228314, -1343199.3, 15277.635, 0.0, 5.014324, 4.9732223 
9.276218e+1, 1.6635334e+2, -1294068.6, -1357328.9, -295.84665, -0.002213112, 0.00094945094, -1294067.3, 15671.073, 0.0, 5.014319, 4.973239 
9.276178e+1, 1.7132677e+2, -1244963.5, -1308214.1, -342.1799, -0.0032729139, 0.00031941387, -1244961.6, 16037.925, 0.0, 5.0143127, 4.973239 
9.2761385e+1, 1.763002e+2, -1196995.0, -1261503.8, -388.69345, -0.004342445, 0.00007946936, -1196992.6, 15268.165, 0.0, 5.0143065, 4.9724317 
9.276114e+1, 1.8127002e+2, -1156589.5, -1230967.0, -274.0984, -0.004620919, 0.007534871, -1156588.5, 6968.919, 0.0, 5.0143228, 4.9661446 
9.276121e+1, 1.8623649e+2, -1106955.6, -1181177.4, -190.97696, -0.003181074, 0.0065844865, -1106955.1, 7931.881, 0.0, 5.0143943, 4.9663115 
9.276129e+1, 1.9120292e+2, -1057547.3, -1131881.1, -137.44685, -0.0016976923, 0.0053979764, -1057547.0, 8669.525, 0.0, 5.014468, 4.966312 
9.2761374e+1, 1.961694e+2, -1009032.56, -1084503.0, -83.821655, -0.00023137433, 0.0045218607, -1009032.44, 8513.631, 0.0, 5.014542, 4.9656625 
9.2761374e+1, 2.0113222e+2, -968608.75, -1054438.4, -186.51888, 0.0010389799, 0.010171184, -968608.3, 302.58255, 0.0, 5.014589, 4.9591136 
9.276115e+1, 2.0609142e+2, -919097.9, -1004489.44, -245.2273, 0.001940558, 0.005957956, -919097.2, 1213.2626, 0.0, 5.0145597, 4.95936 
9.276091e+1, 2.1105061e+2, -869934.8, -955276.44, -247.68259, 0.002840342, 0.001385037, -869934.06, 1775.8446, 0.0, 5.014526, 4.95936 
9.2760676e+1, 2.160098e+2, -821437.4, -907518.2, -250.15411, 0.0037440066, -0.0030603781, -821436.6, 1672.7426, 0.0, 5.014492, 4.9588604 
9.276052e+1, 2.2096567e+2, -781622.0, -878928.75, 341.47012, 0.0029192118, 0.003508151, -781620.75, -7078.9004, 0.0, 5.014485, 4.9517493 
9.276055e+1, 2.259185e+2, -731770.56, -828682.0, 756.1241, -0.003500438, 0.008574954, -731764.7, -5759.2085, 0.0, 5.014532, 4.952035 
9.2760587e+1, 2.3087138e+2, -682290.3, -779262.0, 938.2707, -0.010366714, 0.013638604, -682281.2, -4812.473, 0.0, 5.0145802, 4.9520416 
9.276061e+1, 2.3582424e+2, -633461.44, -731290.9, 1123.6082, -0.017278472, 0.018563516, -633448.56, -4516.4585, 0.0, 5.014628, 4.9515467 
9.2760813e+1, 2.4077305e+2, -593783.25, -703424.1, 1313.5458, -0.022331484, 0.02921505, -593767.56, -13332.448, 0.0, 5.014624, 4.9440694 
9.2761916e+1, 2.4571674e+2, -544147.0, -652978.2, 1371.9692, -0.021660494, 0.018085003, -544129.7, -12141.831, 0.0, 5.014518, 4.944462 
9.276311e+1, 2.5066033e+2, -495036.5, -603771.2, 1200.3446, -0.020613423, 0.005691062, -495023.25, -11481.812, 0.0, 5.014409, 4.9444437 
9.276425e+1, 2.5560403e+2, -446172.8, -555129.8, 1025.0382, -0.019584581, -0.005715208, -446163.16, -11068.949, 0.0, 5.0142984, 4.9442277 
9.276509e+1, 2.60545e+2, -406349.44, -527020.94, 1669.8695, -0.024079537, 0.002656914, -406326.34, -19651.434, 0.0, 5.0142293, 4.9367003 
9.2763907e+1, 2.654865e+2, -354240.88, -471213.34, 3196.3743, -0.062131613, 0.023334552, -354153.6, -15899.131, 0.0, 5.014186, 4.9387293 
9.2762184e+1, 2.7042842e+2, -304151.66, -420443.22, 4405.818, -0.10656766, 0.038553152, -303984.97, -14154.367, 0.0, 5.0141363, 4.939114 
9.276012e+1, 2.7537024e+2, -254048.78, -369894.4, 5714.782, -0.15332653, 0.045908965, -253767.55, -12359.717, 0.0, 5.014081, 4.939451 
9.2761403e+1, 2.8030637e+2, -224961.88, -366396.4, 6253.4043, -0.17249675, 0.080930226, -224685.92, -31647.816, 0.0, 5.014373, 4.923368 
9.2761284e+1, 2.852306e+2, -174286.31, -309301.8, -1224.0751, -0.14241506, 0.074726716, -174275.22, -29502.225, 0.0, 5.0143294, 4.925826 
9.275793e+1, 2.9015237e+2, -125538.13, -259776.0, -2714.278, -0.11972976, 0.032620516, -125483.27, -28952.5, 0.0, 5.013961, 4.9258366 
9.2754316e+1, 2.9507333e+2, -76717.66, -210308.69, -4100.799, -0.09764552, -0.020046, -76591.89, -28295.586, 0.0, 5.0135794, 4.9258475 
9.275003e+1, 3.0001357e+2, -11046.8, -86572.234, -4779.596, -0.07655543, -0.042746283, -10745.527, -10745.527, 0.0, 5.0130396, 4.9616365 
9.273859e+1, 3.049859e+2, -5822.8022, -66477.234, -3028.5977, -0.11209443, -0.008300121, -5671.953, -5671.953, 0.0, 5.0121207, 4.968633 
9.272451e+1, 3.0996373e+2, -5619.912, -59614.477, -1626.9724, -0.16875555, 0.0395743, -5570.9326, -5570.9326, 0.0, 5.0112295, 4.971173 
9.2709374e+1, 3.1494644e+2, -5026.4365, -53144.31, -22.159163, -0.23105362, 0.104615174, -5026.4263, -5026.4263, 0.0, 5.010324, 4.9737153 
9.777735e+1, 1.215222e+2, -1710599.1, -1747261.5, -138.5725, -0.017524764, 0.0014586094, -1710598.6, 38484.914, 0.0, 5.0142784, 4.9903893 
9.777763e+1, 1.2650827e+2, -1667978.0, -1711248.6, -244.02127, -0.011663584, -0.0013735956, -1667976.6, 32241.434, 0.0, 5.014285, 4.9861298 
9.777758e+1, 1.3149412e+2, -1619001.3, -1662262.9, -265.61414, -0.008840628, -0.0048644585, -1618999.6, 32357.627, 0.0, 5.0142794, 4.986129 
9.7777534e+1, 1.3647994e+2, -1572246.5, -1617821.4, -287.35147, -0.006044826, -0.0071136653, -1572244.6, 30252.047, 0.0, 5.0142694, 4.9846244 
9.7777504e+1, 1.4146303e+2, -1529872.3, -1582470.0, -220.0112, -0.0035383166, 0.005013774, -1529871.3, 23791.598, 0.0, 5.0142674, 4.980026 
9.7777474e+1, 1.4644322e+2, -1480565.5, -1532957.9, -202.8275, -0.0017689725, 0.0029037006, -1480564.8, 24291.822, 0.0, 5.0142803, 4.9801693 
9.7777444e+1, 1.5142336e+2, -1431476.5, -1483887.1, -192.44896, -0.00004724166, 0.000043924454, -1431475.9, 24574.941, 0.0, 5.0142913, 4.9801693 
9.77774e+1, 1.5640351e+2, -1383821.1, -1437795.9, -182.09229, 0.0016659546, -0.0023641963, -1383820.5, 23424.533, 0.0, 5.0143013, 4.9791737 
9.777723e+1, 1.6137989e+2, -1343308.5, -1406653.1, -230.10446, 0.0020820396, 0.0015080775, -1343307.6, 15169.183, 0.0, 5.01431, 4.9731765 
9.7776693e+1, 1.6635326e+2, -1294182.1, -1357521.3, -296.986, -0.00027286104, 0.0011301062, -1294180.8, 15558.204, 0.0, 5.01431, 4.9731784 
9.777615e+1, 1.7132668e+2, -1245069.9, -1308402.8, -338.45316, -0.0027427478, 0.00088868046, -1245068.1, 15932.69, 0.0, 5.0143056, 4.973179 
9.77756e+1, 1.7630008e+2, -1197104.5, -1261693.6, -379.93777, -0.005234716, 0.0010336839, -1197102.4, 15160.325, 0.0, 5.014298, 4.9723716 
9.7775286e+1, 1.812699e+2, -1156577.9, -1230886.3, -219.22823, -0.006494973, 0.008705777, -1156577.3, 6982.173, 0.0, 5.0143113, 4.966177 
9.7775424e+1, 1.8623637e+2, -1106908.8, -1181001.1, -121.69373, -0.005087378, 0.0072912015, -1106908.6, 7979.8184, 0.0, 5.0143785, 4.9663777 
9.777558e+1, 1.9120285e+2, -1057526.4, -1131716.9, -69.98118, -0.0036189568, 0.0055801226, -1057526.3, 8691.049, 0.0, 5.014444, 4.9663787 
9.7775733e+1, 1.9616933e+2, -1009050.8, -1084356.9, -18.835463, -0.002180966, 0.004177113, -1009050.8, 8495.416, 0.0, 5.0145044, 4.965729 
9.7775805e+1, 2.0113216e+2, -968735.94, -1054477.3, -192.17026, -0.000663716, 0.009474123, -968735.56, 175.16011, 0.0, 5.0145407, 4.9591227 
9.7775644e+1, 2.0609134e+2, -919221.0, -1004557.0, -276.75848, 0.0012041563, 0.0051875515, -919220.1, 1090.5522, 0.0, 5.0145197, 4.9593554 
9.777548e+1, 2.1105053e+2, -870045.7, -955338.06, -282.4498, 0.0030870885, 0.0005394757, -870044.75, 1665.8739, 0.0, 5.01449, 4.9593554 
9.7775304e+1, 2.160097e+2, -821550.2, -907580.44, -288.11154, 0.0049530296, -0.0039755735, -821549.2, 1561.3291, 0.0, 5.0144553, 4.9588556 
9.777518e+1, 2.2096561e+2, -781557.8, -878570.06, 342.49774, 0.0045128646, 0.0024751166, -781556.6, -7014.052, 0.0, 5.014442, 4.951891 
9.777511e+1, 2.2591856e+2, -731641.94, -828088.6, 764.83044, -0.003366645, 0.0065416587, -731635.9, -5632.57, 0.0, 5.014472, 4.9522643 
9.777504e+1, 2.3087157e+2, -682245.44, -778702.4, 934.58044, -0.011859327, 0.010478971, -682236.4, -4772.84, 0.0, 5.014491, 4.9522724 
9.777496e+1, 2.3582456e+2, -633532.94, -730779.6, 1103.039, -0.02043024, 0.014292881, -633520.44, -4596.592, 0.0, 5.0144978, 4.9517794 
9.777506e+1, 2.4077353e+2, -594358.6, -703760.06, 1179.8849, -0.02673092, 0.025009101, -594345.9, -13921.265, 0.0, 5.0144444, 4.9440274 
9.7776014e+1, 2.4571735e+2, -544994.06, -653738.0, 1150.637, -0.026254248, 0.01675932, -544981.9, -13002.93, 0.0, 5.0143037, 4.9442854 
9.777703e+1, 2.5066108e+2, -496001.2, -604587.8, 953.1745, -0.025409129, 0.007343931, -495992.84, -12458.339, 0.0, 5.0141525, 4.944266 
9.777801e+1, 2.5560486e+2, -447289.1, -556017.94, 753.1119, -0.0246277, -0.0010662642, -447283.88, -12194.661, 0.0, 5.013987, 4.9440484 
9.777849e+1, 2.605458e+2, -407188.44, -526234.0, 1250.7183, -0.03136042, 0.0071628573, -407175.28, -20504.352, 0.0, 5.013724, 4.93717 
9.777626e+1, 2.6548728e+2, -356708.34, -469339.53, 2219.4878, -0.08236738, 0.01516989, -356664.63, -18423.297, 0.0, 5.012771, 4.9399414 
9.7773415e+1, 2.7042928e+2, -310371.78, -420075.8, 2449.7144, -0.14111148, 0.016791632, -310317.1, -20511.32, 0.0, 5.011364, 4.940376 
9.7770226e+1, 2.7537128e+2, -265103.16, -371496.5, 2406.3494, -0.20225567, 0.010879148, -265048.78, -23678.328, 0.0, 5.009553, 4.9407625 
9.777111e+1, 2.8030816e+2, -242629.7, -377206.84, -393.83148, -0.21694143, 0.04853852, -242628.56, -49642.195, 0.0, 5.0085816, 4.9221087 
9.7771764e+1, 2.8523278e+2, -187573.86, -318702.5, -6270.8413, -0.17199828, 0.06196317, -187274.66, -42547.32, 0.0, 5.0101657, 4.9243507 
9.776895e+1, 2.9015446e+2, -134895.64, -267231.16, -6667.7266, -0.14542651, 0.03253355, -134560.53, -38062.68, 0.0, 5.0111957, 4.9244094 
9.776587e+1, 2.9507536e+2, -83510.18, -216433.89, -7261.2085, -0.119580366, -0.007881664, -83114.695, -34838.598, 0.0, 5.0117273, 4.9244685 
9.7762036e+1, 3.0001417e+2, -16576.06, -90306.9, -8383.691, -0.091272004, -0.03226463, -15634.794, -15634.794, 0.0, 5.011317, 4.960982 
9.7750413e+1, 3.0498144e+2, -15804.881, -68013.35, -7982.608, -0.11840925, -0.059392318, -14611.623, -14611.623, 0.0, 5.008016, 4.9697137 
9.7736025e+1, 3.099544e+2, -26245.588, -65753.97, -8407.593, -0.16865705, -0.07733958, -24530.832, -24530.832, 0.0, 5.0032597, 4.9722323 
9.772058e+1, 3.1493253e+2, -39668.766, -65305.51, -9202.113, -0.2246521, -0.07395477, -36707.734, -36707.734, 0.0, 4.997261, 4.974756 
1.0279139e+2, 1.215224e+2, -1711683.8, -1747097.8, 170.53467, -0.01722175, 0.0015649432, -1711682.9, 37398.414, 0.0, 5.013768, 4.9906945 
1.02791704e+2, 1.2650836e+2, -1669145.3, -1711974.0, 38.520424, -0.0118618505, -0.0021615042, -1669145.3, 31071.646, 0.0, 5.013929, 4.9860663 
1.0279174e+2, 1.3149416e+2, -1619650.0, -1662731.0, -34.113087, -0.009019425, -0.0053472794, -1619650.0, 31706.605, 0.0, 5.0140944, 4.986066 
1.02791786e+2, 1.3647996e+2, -1572367.9, -1618029.6, -106.804405, -0.0061527463, -0.00730014, -1572367.6, 30128.83, 0.0, 5.0142593, 4.984561 
1.0279183e+2, 1.4146301e+2, -1529590.4, -1582381.1, -126.64143, -0.003489064, 0.005021588, -1529590.0, 24072.908, 0.0, 5.014372, 4.9800043 
1.0279184e+2, 1.464432e+2, -1480309.0, -1532855.5, -155.84792, -0.0013900048, 0.002931032, -1480308.5, 24548.244, 0.0, 5.0143714, 4.9801593 
1.0279184e+2, 1.5142334e+2, -1431267.5, -1483808.1, -180.04662, 0.0006877295, 0.0000879508, -1431266.9, 24784.164, 0.0, 5.014367, 4.9801593 
1.02791846e+2, 1.5640347e+2, -1383654.9, -1437737.8, -204.24265, 0.0027732612, -0.002302217, -1383654.1, 23591.307, 0.0, 5.014363, 4.9791636 
1.0279169e+2, 1.6137983e+2, -1343186.6, -1406617.3, -256.24023, 0.0034011665, 0.0015204983, -1343185.6, 15291.798, 0.0, 5.0143566, 4.973166 
1.0279114e+2, 1.6635318e+2, -1294091.6, -1357505.5, -265.88528, 0.0008993358, 0.0009874539, -1294090.5, 15649.239, 0.0, 5.014347, 4.973166 
1.0279058e+2, 1.7132655e+2, -1244994.9, -1308394.1, -247.76534, -0.0016863697, 0.00059343805, -1244994.0, 16007.883, 0.0, 5.0143375, 4.9731665 
1.0279002e+2, 1.7629994e+2, -1197034.9, -1261687.1, -229.7074, -0.004248877, 0.00058854866, -1197034.0, 15229.948, 0.0, 5.014328, 4.972359 
1.0278968e+2, 1.8126976e+2, -1156525.4, -1230790.9, -12.519667, -0.0056584836, 0.008158358, -1156525.4, 7035.263, 0.0, 5.014314, 4.966207 
1.027898e+2, 1.8623626e+2, -1107120.5, -1181003.0, 60.90328, -0.0046480214, 0.006689353, -1107120.5, 7768.5093, 0.0, 5.0142856, 4.9664207 
1.0278993e+2, 1.9120277e+2, -1058016.1, -1131851.1, 80.23916, -0.0035265316, 0.0049320967, -1058016.0, 8201.174, 0.0, 5.0142555, 4.966421 
1.0279007e+2, 1.961693e+2, -1009803.5, -1084615.4, 99.690544, -0.0023719193, 0.003495442, -1009803.4, 7742.0317, 0.0, 5.014225, 4.9657717 
1.0279015e+2, 2.0113216e+2, -969729.6, -1055024.5, -112.84691, -0.00083903247, 0.008886468, -969729.44, -819.9139, 0.0, 5.0142136, 4.9590893 
1.0279006e+2, 2.0609133e+2, -920090.4, -1005107.75, -270.69418, 0.0015964798, 0.005084381, -920089.56, 220.5559, 0.0, 5.014247, 4.9592943 
1.0278995e+2, 2.1105051e+2, -870725.75, -955797.8, -353.9825, 0.004111851, 0.0009604269, -870724.25, 986.3989, 0.0, 5.014282, 4.9592943 
1.0278985e+2, 2.1600968e+2, -822028.2, -907943.9, -437.4539, 0.00665848, -0.003019728, -822025.94, 1085.22, 0.0, 5.0143175, 4.958795 
1.0278975e+2, 2.2096556e+2, -781798.2, -878475.3, 103.97273, 0.006600768, 0.0032389108, -781798.06, -7254.6367, 0.0, 5.0143156, 4.9519815 
1.0278958e+2, 2.2591838e+2, -732256.25, -828014.5, 435.3072, -0.0018429406, 0.004522011, -732254.25, -6250.632, 0.0, 5.014181, 4.952423 
1.0278939e+2, 2.3087125e+2, -683327.5, -778854.94, 528.6376, -0.010812977, 0.005451496, -683324.56, -5861.195, 0.0, 5.0140357, 4.9524283 
1.027892e+2, 2.358241e+2, -635047.0, -731140.1, 623.5162, -0.019708361, 0.00624586, -635042.94, -6119.6987, 0.0, 5.0138893, 4.9519315 
1.0278921e+2, 2.4077305e+2, -596467.5, -705014.3, 624.6577, -0.026118932, 0.016180258, -596463.9, -16040.706, 0.0, 5.013736, 4.943923 
1.0278997e+2, 2.4571721e+2, -547304.4, -655358.75, 548.4578, -0.025590215, 0.013245327, -547301.56, -15325.313, 0.0, 5.0135684, 4.9440675 
1.0279079e+2, 2.5066128e+2, -498356.84, -606222.25, 366.31747, -0.024491094, 0.00935266, -498355.6, -14824.861, 0.0, 5.0133953, 4.94405 
1.0279157e+2, 2.5560543e+2, -449655.2, -557650.5, 184.15747, -0.02322582, 0.006345568, -449654.88, -14570.394, 0.0, 5.0132184, 4.943834 
1.02791786e+2, 2.6054627e+2, -409030.28, -526951.2, 505.56638, -0.02864657, 0.015725438, -409028.1, -22361.203, 0.0, 5.0129585, 4.9372883 
1.02789074e+2, 2.6548657e+2, -358202.4, -469721.28, 1736.84, -0.07439327, 0.0072479537, -358175.34, -19934.842, 0.0, 5.0119476, 4.940253 
1.0278579e+2, 2.7042696e+2, -311314.84, -421153.88, 2817.173, -0.12367372, -0.009591134, -311242.63, -21431.041, 0.0, 5.010799, 4.940378 
1.0278222e+2, 2.7536693e+2, -264422.7, -372747.1, 4011.628, -0.17127551, -0.034077358, -264274.3, -22887.516, 0.0, 5.0096335, 4.940456 
1.02782734e+2, 2.8030282e+2, -242410.31, -380748.16, 2835.302, -0.1667917, 0.0051531913, -242352.22, -49345.92, 0.0, 5.0090837, 4.920454 
1.02783784e+2, 2.8522933e+2, -187805.78, -319291.44, -1762.6936, -0.12876196, 0.04097372, -187782.16, -43044.484, 0.0, 5.009945, 4.923837 
1.0278162e+2, 2.901527e+2, -135909.52, -269111.22, -3183.6042, -0.114135996, 0.028092448, -135833.47, -39331.53, 0.0, 5.0107474, 4.9236693 
1.0277926e+2, 2.9507542e+2, -83980.97, -218992.13, -4398.262, -0.0957221, 0.007845131, -83837.836, -35564.785, 0.0, 5.0115027, 4.9235015 
1.02776185e+2, 3.0001417e+2, -14557.522, -94877.664, -6347.6143, -0.065777935, -0.0069560218, -14058.972, -14058.972, 0.0, 5.0122867, 4.9589047 
1.02765195e+2, 3.0497703e+2, -3169.1746, -68000.63, -5218.1074, -0.06546598, -0.07482948, -2751.8696, -2751.8696, 0.0, 5.0123982, 4.967821 
1.02751724e+2, 3.0994368e+2, -1493.6061, -62793.2, -3956.0527, -0.073406056, -0.15119219, -1239.3513, -1239.3513, 0.0, 5.012204, 4.96942 
1.0273749e+2, 3.1491295e+2, 366.31485, -57770.43, -2880.813, -0.07391655, -0.22174269, 508.71713, 508.71713, 0.0, 5.0119457, 4.9710207 
1.07805476e+2, 1.21522814e+2, -1711231.3, -1746175.9, 226.98323, -0.014169464, 0.0022999372, -1711229.9, 37847.047, 0.0, 5.0137677, 4.990998 
1.07805766e+2, 1.2650853e+2, -1669282.0, -1712251.0, 162.14668, -0.010598037, -0.0032362668, -1669281.4, 30933.326, 0.0, 5.0139284, 4.9859753 
1.07805885e+2, 1.3149433e+2, -1619785.4, -1663007.3, 90.8693, -0.008582221, -0.005804349, -1619785.3, 31569.598, 0.0, 5.014094, 4.985975 
1.07806005e+2, 1.364801e+2, -1572502.1, -1618305.4, 19.49565, -0.0065593813, -0.0071407193, -1572502.1, 29993.068, 0.0, 5.0142593, 4.98447 
1.0780611e+2, 1.414631e+2, -1529650.0, -1582504.3, -104.175514, -0.004490693, 0.005583625, -1529649.8, 24012.354, 0.0, 5.014372, 4.979964 
1.0780612e+2, 1.4644325e+2, -1480352.4, -1532945.5, -159.0104, -0.0023826486, 0.0034654103, -1480351.9, 24504.563, 0.0, 5.0143714, 4.9801292 
1.0780612e+2, 1.5142336e+2, -1431310.5, -1483897.8, -182.50336, -0.00027868943, 0.0005824371, -1431309.9, 24741.287, 0.0, 5.014367, 4.9801292 
1.0780612e+2, 1.5640345e+2, -1383697.6, -1437827.1, -205.99275, 0.001827287, -0.0018476157, -1383696.9, 23549.217, 0.0, 5.014363, 4.979134 
1.0780598e+2, 1.6137977e+2, -1343161.6, -1406566.3, -263.71408, 0.0027877854, 0.0017195503, -1343160.6, 15317.776, 0.0, 5.0143566, 4.973183 
1.0780553e+2, 1.6635309e+2, -1294054.6, -1357430.1, -273.3534, 0.0012714536, 0.00058486726, -1294053.4, 15687.2705, 0.0, 5.014347, 4.9731913 
1.0780506e+2, 1.7132643e+2, -1244958.3, -1308319.5, -254.23868, -0.00032187608, -0.0004110461, -1244957.3, 16045.619, 0.0, 5.0143375, 4.9731917 
1.0780459e+2, 1.7629978e+2, -1196998.4, -1261613.1, -235.1846, -0.0019056554, -0.0010169913, -1196997.6, 15267.404, 0.0, 5.014328, 4.9723845 
1.0780428e+2, 1.8126959e+2, -1156483.9, -1230703.0, -30.1857, -0.002861976, 0.0061908886, -1156483.9, 7077.609, 0.0, 5.014314, 4.966237 
1.078043e+2, 1.8623616e+2, -1107083.8, -1180924.1, 38.19236, -0.0025479256, 0.005026886, -1107083.8, 7805.2295, 0.0, 5.014285, 4.966448 
1.0780433e+2, 1.9120273e+2, -1057980.1, -1131772.9, 58.7881, -0.0021803633, 0.0036161952, -1057980.0, 8236.426, 0.0, 5.014255, 4.9664483 
1.0780436e+2, 1.9616932e+2, -1009768.06, -1084537.5, 79.50288, -0.0017956784, 0.002528175, -1009768.0, 7775.828, 0.0, 5.0142245, 4.9657984 
1.0780438e+2, 2.0113221e+2, -969818.94, -1055215.0, -101.023224, -0.0006872545, 0.008352654, -969818.8, -911.1694, 0.0, 5.014213, 4.959025 
1.07804365e+2, 2.0609137e+2, -920231.7, -1005413.5, -245.14366, 0.0021828131, 0.0054678144, -920231.0, 77.85733, 0.0, 5.014247, 4.959191 
1.0780434e+2, 2.1105054e+2, -870865.75, -956102.8, -326.41736, 0.0051502874, 0.002313371, -870864.5, 845.62225, 0.0, 5.014282, 4.959191 
1.0780433e+2, 2.160097e+2, -822167.0, -908248.25, -407.87683, 0.008127689, -0.0007011082, -822165.06, 946.33905, 0.0, 5.0143175, 4.958691 
1.0780425e+2, 2.209655e+2, -781722.3, -878297.75, 42.40847, 0.008366197, 0.0052629374, -781722.3, -7177.8594, 0.0, 5.0143137, 4.952043 
1.07803956e+2, 2.2591804e+2, -732106.2, -827658.5, 331.5959, -0.00003138468, 0.0024682316, -732105.0, -6099.315, 0.0, 5.014177, 4.952547 
1.0780363e+2, 2.308706e+2, -683184.1, -778500.7, 429.44443, -0.008990375, -0.00090599316, -683182.2, -5715.67, 0.0, 5.0140295, 4.952553 
1.078033e+2, 2.3582317e+2, -634910.25, -730787.56, 528.85516, -0.017908046, -0.004387464, -634907.3, -5979.922, 0.0, 5.013881, 4.952057 
1.07803166e+2, 2.4077204e+2, -596679.7, -705324.3, 515.7751, -0.024486635, 0.0042904723, -596677.25, -16250.266, 0.0, 5.013709, 4.943827 
1.0780368e+2, 2.457167e+2, -547626.8, -655901.06, 399.4311, -0.02462891, 0.008191107, -547625.3, -15648.99, 0.0, 5.0135384, 4.9438925 
1.0780422e+2, 2.506613e+2, -498656.72, -606749.3, 225.3133, -0.024301626, 0.011443581, -498656.25, -15129.201, 0.0, 5.013372, 4.943875 
1.0780471e+2, 2.55606e+2, -449932.72, -558162.5, 51.18339, -0.023863737, 0.015457088, -449932.7, -14855.488, 0.0, 5.0132017, 4.9436593 
1.0780461e+2, 2.6054695e+2, -408464.75, -525483.2, 112.6125, -0.029511672, 0.026084037, -408464.63, -21806.371, 0.0, 5.0129256, 4.9378023 
1.07801445e+2, 2.654863e+2, -357053.72, -466334.84, 1246.6193, -0.072837986, -0.004243642, -357039.5, -18805.766, 0.0, 5.0118237, 4.941458 
1.0779765e+2, 2.7042592e+2, -310456.9, -417763.13, 2446.9375, -0.12041916, -0.04368344, -310401.13, -20596.355, 0.0, 5.0105824, 4.9416237 
1.0779354e+2, 2.7536523e+2, -263854.9, -369350.88, 3761.374, -0.16737609, -0.0889762, -263720.97, -22342.824, 0.0, 5.009325, 4.941742 
1.0779324e+2, 2.8030178e+2, -243342.92, -384392.88, 2460.4436, -0.16376036, -0.04623576, -243300.02, -50314.125, 0.0, 5.009261, 4.9192 
1.0779484e+2, 2.8522998e+2, -186942.55, -321891.1, -1178.4775, -0.12335586, 0.017851193, -186932.27, -42224.05, 0.0, 5.0104766, 4.922896 
1.07793756e+2, 2.9015464e+2, -135320.52, -271476.06, -2420.2737, -0.10615036, 0.024085462, -135277.5, -38807.92, 0.0, 5.011176, 4.9228263 
1.0779243e+2, 2.950787e+2, -83665.74, -221122.38, -3455.7532, -0.086466394, 0.023564437, -83578.914, -35342.375, 0.0, 5.011829, 4.922757 
1.0779039e+2, 3.0001745e+2, -14513.088, -96868.695, -5479.5176, -0.055816926, 0.018134167, -14150.108, -14150.108, 0.0, 5.0125327, 4.958187 
1.0778063e+2, 3.049804e+2, -644.39453, -64419.152, -4202.6025, -0.051520575, -0.06762097, -368.64548, -368.64548, 0.0, 5.012653, 4.9690056 
1.07768245e+2, 3.0994815e+2, 748.7533, -60330.387, -2398.679, -0.05860911, -0.15806273, 842.80853, 842.80853, 0.0, 5.0124874, 4.970287 
1.07754946e+2, 3.1491837e+2, 2325.8474, -56424.703, -781.33673, -0.06252231, -0.2390201, 2336.2368, 2336.2368, 0.0, 5.012257, 4.97157 
1.1281955e+2, 1.2152319e+2, -1710710.4, -1745113.5, 283.22318, -0.011174547, 0.0026278656, -1710708.0, 38364.91, 0.0, 5.0137672, 4.991347 
1.1281981e+2, 1.2650873e+2, -1669419.1, -1712527.6, 285.9526, -0.009336372, -0.0042664036, -1669417.1, 30795.209, 0.0, 5.013928, 4.9858847 
1.1282002e+2, 1.3149448e+2, -1619921.3, -1663283.1, 216.03136, -0.00814671, -0.0062357523, -1619920.3, 31432.81, 0.0, 5.014094, 4.9858837 
1.1282023e+2, 1.3648021e+2, -1572636.9, -1618580.6, 145.9754, -0.0069672526, -0.0069745914, -1572636.4, 29857.51, 0.0, 5.014259, 4.984379 
1.1282038e+2, 1.4146318e+2, -1529713.9, -1582635.4, -81.688194, -0.00549181, 0.006166056, -1529713.8, 23947.662, 0.0, 5.014372, 4.9799204 
1.1282039e+2, 1.464433e+2, -1480396.0, -1533035.5, -162.17464, -0.003375109, 0.004015004, -1480395.5, 24460.643, 0.0, 5.0143714, 4.980099 
1.1282039e+2, 1.5142338e+2, -1431353.9, -1483987.4, -184.96184, -0.0012455498, 0.0010788717, -1431353.1, 24698.178, 0.0, 5.014367, 4.980099 
1.1282039e+2, 1.5640344e+2, -1383740.6, -1437916.5, -207.74458, 0.0008802471, -0.0014043333, -1383739.8, 23506.9, 0.0, 5.014363, 4.979104 
1.1282028e+2, 1.6137972e+2, -1343141.1, -1406524.0, -271.09058, 0.0021710717, 0.0019364934, -1343140.0, 15339.308, 0.0, 5.0143566, 4.9731975 
1.1281992e+2, 1.6635302e+2, -1294017.9, -1357354.6, -280.6537, 0.0016417247, 0.00019895984, -1294016.6, 15724.99, 0.0, 5.014347, 4.973217 
1.12819545e+2, 1.7132631e+2, -1244921.9, -1308244.6, -260.54416, 0.001042947, -0.0014126969, -1244920.8, 16083.049, 0.0, 5.014338, 4.973217 
1.1281916e+2, 1.7629962e+2, -1196962.3, -1261539.0, -240.49397, 0.00044007192, -0.002633544, -1196961.4, 15304.56, 0.0, 5.0143285, 4.9724092 
1.1281889e+2, 1.8126942e+2, -1156446.9, -1230624.3, -48.150925, -0.00006142442, 0.004244087, -1156446.8, 7115.439, 0.0, 5.014314, 4.966264 
1.128188e+2, 1.8623604e+2, -1107047.4, -1180845.1, 15.467483, -0.00044091864, 0.0033812074, -1107047.4, 7841.5933, 0.0, 5.014285, 4.9664745 
1.12818725e+2, 1.9120269e+2, -1057944.4, -1131694.3, 37.323067, -0.00082389545, 0.002296563, -1057944.4, 8271.329, 0.0, 5.0142546, 4.966475 
1.1281865e+2, 1.9616932e+2, -1009733.0, -1084459.4, 59.301216, -0.0012057492, 0.0015366578, -1009732.94, 7809.283, 0.0, 5.014224, 4.9658256 
1.1281862e+2, 2.0113225e+2, -969919.2, -1055428.5, -88.868, -0.00054108765, 0.007868144, -969919.06, -1013.4168, 0.0, 5.0142126, 4.958953 
1.1281868e+2, 2.0609142e+2, -920373.56, -1005718.94, -219.40285, 0.0027600385, 0.00590528, -920373.0, -65.381325, 0.0, 5.0142465, 4.959087 
1.1281874e+2, 2.1105057e+2, -871006.4, -956407.5, -298.66177, 0.006183991, 0.0036869696, -871005.3, 704.32196, 0.0, 5.014282, 4.9590864 
1.128188e+2, 2.1600974e+2, -822306.4, -908552.25, -378.1092, 0.009596541, 0.0016047894, -822304.7, 806.95105, 0.0, 5.014317, 4.9585867 
1.12818755e+2, 2.2096546e+2, -781652.56, -878132.06, -20.767168, 0.010134445, 0.007309456, -781652.56, -7107.131, 0.0, 5.014312, 4.9521 
1.1281833e+2, 2.2591771e+2, -731957.1, -827301.75, 227.21472, 0.0017893494, 0.00038104976, -731956.6, -5948.854, 0.0, 5.0141726, 4.95267 
1.1281786e+2, 2.3086996e+2, -683041.75, -778145.7, 329.58078, -0.0071511567, -0.007396249, -683040.6, -5570.978, 0.0, 5.0140233, 4.952677 
1.128174e+2, 2.3582222e+2, -634774.5, -730434.2, 433.52298, -0.016083675, -0.015252919, -634772.56, -5840.9556, 0.0, 5.013873, 4.9521813 
1.128171e+2, 2.4077103e+2, -596951.5, -705756.7, 376.7285, -0.02280971, -0.0073055928, -596950.2, -16519.643, 0.0, 5.0136824, 4.943688 
1.12817355e+2, 2.4571623e+2, -547955.44, -656437.5, 246.40498, -0.023623515, 0.0036164664, -547954.9, -15978.792, 0.0, 5.0135083, 4.943716 
1.1281762e+2, 2.506614e+2, -498962.8, -607270.44, 80.31161, -0.02407813, 0.01386651, -498962.75, -15439.623, 0.0, 5.0133486, 4.9436994 
1.12817846e+2, 2.556066e+2, -450216.4, -558668.56, -85.78651, -0.024477694, 0.02475304, -450216.34, -15146.624, 0.0, 5.0131845, 4.943484 
1.1281747e+2, 2.6054758e+2, -407978.9, -524142.7, -314.3338, -0.029967107, 0.036104728, -407978.06, -21327.842, 0.0, 5.0128927, 4.9382567 
1.1281375e+2, 2.654859e+2, -355933.75, -462926.34, 688.87683, -0.0706602, -0.018092137, -355929.3, -17700.93, 0.0, 5.0116997, 4.942635 
1.1280931e+2, 2.704246e+2, -309627.34, -414349.94, 2008.9867, -0.11647914, -0.0822847, -309588.84, -19788.748, 0.0, 5.0103664, 4.942841 
1.1280452e+2, 2.7536324e+2, -263315.22, -365931.8, 3443.215, -0.16272824, -0.15053613, -263199.8, -21827.535, 0.0, 5.0090165, 4.9429994 
1.1280394e+2, 2.803009e+2, -245576.02, -390987.9, 2903.5037, -0.15977724, -0.09519699, -245518.06, -52553.953, 0.0, 5.0094385, 4.916905 
1.1280644e+2, 2.8523108e+2, -186152.56, -324421.2, -775.0044, -0.11768479, 0.002730716, -186148.22, -41473.52, 0.0, 5.0110087, 4.9219246 
1.12806246e+2, 2.9015684e+2, -134804.4, -273771.0, -1837.3973, -0.09873572, 0.024676984, -134780.13, -38345.633, 0.0, 5.0116057, 4.921953 
1.1280577e+2, 2.9508215e+2, -83423.125, -223182.36, -2693.4243, -0.078617975, 0.04047834, -83371.234, -35172.59, 0.0, 5.012155, 4.9219823 
1.1280479e+2, 3.0002055e+2, -15213.721, -100336.125, -4459.698, -0.046688337, 0.042105712, -14980.708, -14980.708, 0.0, 5.012779, 4.956883 
1.127968e+2, 3.0498302e+2, 1779.2715, -60742.73, -2783.7688, -0.03131612, -0.070014276, 1902.973, 1902.973, 0.0, 5.0129075, 4.970071 
1.127861e+2, 3.0995142e+2, 2889.9285, -57772.598, -437.56976, -0.029605791, -0.18679665, 2893.0845, 2893.0845, 0.0, 5.0127707, 4.9710345 
1.1277434e+2, 3.1492212e+2, 4183.954, -54984.254, 1722.6313, -0.028981946, -0.2904204, 4234.065, 4234.065, 0.0, 5.012569, 4.972 
1.1783362e+2, 1.215235e+2, -1710135.3, -1743925.0, 300.69327, -0.008228429, 0.0025720976, -1710132.5, 38936.88, 0.0, 5.013764, 4.9917383 
1.17833875e+2, 1.265089e+2, -1669565.8, -1712806.5, 378.26532, -0.008071821, -0.005259049, -1669562.5, 30647.646, 0.0, 5.0139246, 4.985794 
1.17834166e+2, 1.3149463e+2, -1620079.8, -1663567.6, 325.80563, -0.0077091525, -0.0066458317, -1620077.3, 31273.98, 0.0, 5.014086, 4.985793 
1.1783445e+2, 1.3648033e+2, -1572818.0, -1618876.1, 273.7181, -0.0073710266, -0.006801822, -1572816.4, 29676.219, 0.0, 5.014243, 4.9842887 
1.1783466e+2, 1.4146326e+2, -1529846.9, -1582805.8, -45.46055, -0.006485238, 0.006772042, -1529846.9, 23813.715, 0.0, 5.01435, 4.979874 
1.17834665e+2, 1.4644338e+2, -1480494.3, -1533151.9, -150.86917, -0.004362094, 0.0045817536, -1480493.9, 24361.918, 0.0, 5.0143533, 4.980069 
1.17834665e+2, 1.514234e+2, -1431443.8, -1484099.4, -172.93867, -0.002208256, 0.001577497, -1431443.1, 24608.367, 0.0, 5.014352, 4.980069 
1.17834665e+2, 1.5640342e+2, -1383825.9, -1438026.0, -195.18314, -0.00006261441, -0.0009742134, -1383825.1, 23422.152, 0.0, 5.0143485, 4.979074 
1.1783459e+2, 1.6137968e+2, -1343162.4, -1406508.5, -264.6449, 0.0015565478, 0.0021677096, -1343161.3, 15318.951, 0.0, 5.014344, 4.9732084 
1.1783431e+2, 1.6635293e+2, -1294011.0, -1357293.0, -276.0557, 0.0020146023, -0.0001732919, -1294009.9, 15732.793, 0.0, 5.0143375, 4.973242 
1.1783402e+2, 1.7132619e+2, -1244915.5, -1308183.8, -256.60358, 0.002414508, -0.0024136652, -1244914.4, 16090.38, 0.0, 5.014328, 4.973242 
1.1783373e+2, 1.7629947e+2, -1196964.6, -1261482.6, -236.74017, 0.0027998094, -0.004262277, -1196963.8, 15303.171, 0.0, 5.0143156, 4.9724345 
1.1783349e+2, 1.8126926e+2, -1156463.6, -1230578.1, -58.523136, 0.0027591672, 0.0023184558, -1156463.6, 7099.4106, 0.0, 5.0142975, 4.966287 
1.1783331e+2, 1.8623593e+2, -1107066.1, -1180792.3, -3.0265863, 0.0016873934, 0.0017569552, -1107066.1, 7822.8823, 0.0, 5.014266, 4.966501 
1.1783313e+2, 1.9120264e+2, -1057977.4, -1131648.5, 15.783971, 0.00055854727, 0.0009813028, -1057977.4, 8237.415, 0.0, 5.014231, 4.9665017 
1.17832944e+2, 1.9616933e+2, -1009789.4, -1084424.9, 34.29672, -0.00058192125, 0.000531521, -1009789.3, 7751.28, 0.0, 5.0141926, 4.965852 
1.17832854e+2, 2.0113231e+2, -970133.4, -1055712.8, -81.67483, -0.00037802782, 0.007441786, -970133.3, -1229.6293, 0.0, 5.014177, 4.958873 
1.1783299e+2, 2.0609146e+2, -920593.3, -1006059.3, -192.2179, 0.0033424296, 0.0063969996, -920592.9, -286.5882, 0.0, 5.0142193, 4.9589825 
1.1783313e+2, 2.1105061e+2, -871210.06, -956739.8, -262.45966, 0.0072234394, 0.0050728302, -871209.25, 499.84424, 0.0, 5.01426, 4.9589825 
1.1783327e+2, 2.1600975e+2, -822506.7, -908882.5, -332.29114, 0.0110769, 0.0038810933, -822505.44, 606.4385, 0.0, 5.014296, 4.9584827 
1.1783326e+2, 2.2096542e+2, -781651.4, -878008.06, -68.30302, 0.01192265, 0.009362278, -781651.3, -7104.9033, 0.0, 5.014289, 4.952152 
1.17832705e+2, 2.2591737e+2, -731865.06, -826974.44, 113.798386, 0.0036453998, -0.0017253445, -731864.94, -5855.1694, 0.0, 5.0141497, 4.9527907 
1.178321e+2, 2.3086932e+2, -682976.1, -777831.1, 184.33485, -0.0052509746, -0.01397487, -682975.75, -5502.953, 0.0, 5.0139914, 4.9527974 
1.1783149e+2, 2.3582126e+2, -634763.5, -730145.0, 247.08398, -0.01416336, -0.026278576, -634762.9, -5827.0156, 0.0, 5.0138226, 4.9523015 
1.1783101e+2, 2.4077006e+2, -597454.3, -706397.5, 77.88122, -0.02098769, -0.018530242, -597454.25, -17020.303, 0.0, 5.013595, 4.9435034 
1.1783101e+2, 2.4571581e+2, -548483.94, -657061.8, -46.285137, -0.022461941, -0.0004391967, -548483.9, -16508.324, 0.0, 5.013408, 4.9435387 
1.1783102e+2, 2.5066146e+2, -499515.8, -607897.25, -199.241, -0.02369173, 0.016609317, -499515.47, -15996.409, 0.0, 5.013238, 4.9435234 
1.1783099e+2, 2.556072e+2, -450817.4, -559308.1, -340.9754, -0.024915334, 0.034156386, -450816.34, -15754.156, 0.0, 5.0130553, 4.94331 
1.1783038e+2, 2.605481e+2, -408074.03, -523222.03, -988.7213, -0.029800665, 0.045717303, -408065.56, -21422.58, 0.0, 5.012691, 4.938627 
1.1782602e+2, 2.6548532e+2, -355997.22, -460197.94, -951.4509, -0.067363665, -0.034086514, -355988.53, -17763.496, 0.0, 5.0111856, 4.943716 
1.1782082e+2, 2.7042297e+2, -310990.34, -412134.94, -710.4446, -0.11089996, -0.12500252, -310985.34, -21186.518, 0.0, 5.0094037, 4.9439373 
1.1781524e+2, 2.753607e+2, -266319.5, -364370.34, -698.8921, -0.15576684, -0.2183163, -266314.53, -24942.846, 0.0, 5.007481, 4.944111 
1.1781493e+2, 2.8029975e+2, -253825.0, -402590.2, -800.1314, -0.15277997, -0.14157115, -253820.69, -60875.98, 0.0, 5.0079246, 4.9135695 
1.1781863e+2, 2.8523225e+2, -188717.05, -328065.4, -4232.239, -0.1102311, -0.0046076933, -188588.63, -43948.305, 0.0, 5.010329, 4.9209914 
1.1781914e+2, 2.9015908e+2, -136209.53, -276627.0, -3975.3635, -0.09090535, 0.029636936, -136097.08, -39698.145, 0.0, 5.011341, 4.921096 
1.1781934e+2, 2.950856e+2, -84118.09, -225446.58, -3837.3882, -0.07156819, 0.05862735, -84013.98, -35853.316, 0.0, 5.012149, 4.9212008 
1.17819406e+2, 3.0002332e+2, -17088.9, -105607.51, -4755.1436, -0.038002092, 0.06556605, -16834.191, -16834.191, 0.0, 5.012885, 4.954922 
1.1781376e+2, 3.0498475e+2, 3244.5845, -57700.637, -3926.118, -0.004311266, -0.08153034, 3496.4658, 3496.4658, 0.0, 5.0128956, 4.9708495 
1.1780538e+2, 3.0995297e+2, 2935.291, -56324.563, -2595.0159, 0.014698661, -0.23891245, 3048.711, 3048.711, 0.0, 5.012376, 4.971478 
1.177958e+2, 3.1492323e+2, 2091.295, -55402.53, -1239.8787, 0.0287096, -0.38125905, 2118.021, 2118.021, 0.0, 5.0115347, 4.9721084 
1.2284777e+2, 1.2152385e+2, -1709967.4, -1744745.8, -173.99036, -0.0056984713, 0.0069322637, -1709966.5, 39099.773, 0.0, 5.014013, 4.991346 
1.2284801e+2, 1.2650856e+2, -1669009.0, -1712332.8, 30.615849, -0.0066438075, -0.008120824, -1669009.0, 31205.064, 0.0, 5.0140657, 4.9858804 
1.2284835e+2, 1.3149452e+2, -1619865.8, -1663261.5, 201.66518, -0.006817276, -0.008006907, -1619864.9, 31487.729, 0.0, 5.014114, 4.98588 
1.2284869e+2, 1.3648047e+2, -1572933.8, -1618730.1, 372.4772, -0.006990709, -0.0066419626, -1572930.6, 29560.654, 0.0, 5.014162, 4.984376 
1.2284892e+2, 1.4146356e+2, -1530279.3, -1583028.3, 164.48466, -0.0065312255, 0.007914249, -1530278.8, 23378.885, 0.0, 5.014208, 4.979869 
1.2284893e+2, 1.464436e+2, -1480849.8, -1533394.1, 51.635822, -0.004640827, 0.005488444, -1480849.8, 24003.764, 0.0, 5.0142484, 4.980039 
1.2284893e+2, 1.5142359e+2, -1431674.1, -1484280.9, 27.448532, -0.0026967193, 0.0022005786, -1431674.1, 24375.834, 0.0, 5.0142884, 4.9800386 
1.2284893e+2, 1.5640356e+2, -1383928.4, -1438145.8, 3.317239, -0.0007468569, -0.00063993444, -1383928.4, 23318.139, 0.0, 5.0143285, 4.9790435 
1.2284887e+2, 1.6137974e+2, -1343141.3, -1406535.0, -92.133995, 0.00092058786, 0.002253024, -1343141.1, 15338.861, 0.0, 5.0143585, 4.9731927 
1.22848645e+2, 1.6635297e+2, -1293942.1, -1357285.3, -157.6012, 0.0019550396, -0.00021014127, -1293941.8, 15800.647, 0.0, 5.014366, 4.9732313 
1.2284843e+2, 1.7132622e+2, -1244799.9, -1308151.5, -191.78589, 0.002983011, -0.0025619771, -1244799.3, 16205.365, 0.0, 5.014373, 4.9732313 
1.228482e+2, 1.7629947e+2, -1196794.5, -1261422.5, -225.90929, 0.0040301015, -0.004518214, -1196793.6, 15473.218, 0.0, 5.014379, 4.9724245 
1.2284798e+2, 1.8126924e+2, -1156291.9, -1230484.9, -126.75458, 0.0044862535, 0.0018949279, -1156291.6, 7271.3184, 0.0, 5.0143547, 4.966292 
1.2284775e+2, 1.862359e+2, -1107095.3, -1180793.0, -108.42544, 0.0035272746, 0.0011131839, -1107095.1, 7793.7417, 0.0, 5.0142536, 4.9665074 
1.22847505e+2, 1.9120258e+2, -1058208.1, -1131746.5, -113.99104, 0.0025321296, 0.00011710512, -1058208.0, 8006.693, 0.0, 5.014149, 4.9665074 
1.2284727e+2, 1.9616927e+2, -1010211.25, -1084614.6, -119.38636, 0.0015581307, -0.00056087534, -1010211.06, 7329.2935, 0.0, 5.0140443, 4.965857 
1.2284714e+2, 2.0113224e+2, -970749.3, -1056118.9, -156.65697, 0.0017523924, 0.0063747833, -970749.0, -1845.5739, 0.0, 5.013986, 4.958824 
1.22847274e+2, 2.0609139e+2, -921210.0, -1006507.7, -209.74533, 0.0050133914, 0.006032656, -921209.5, -903.1962, 0.0, 5.014036, 4.958915 
1.2284743e+2, 2.1105054e+2, -871783.5, -957163.06, -250.24326, 0.0084698405, 0.005452342, -871782.75, -73.46294, 0.0, 5.014091, 4.9589157 
1.2284758e+2, 2.1600969e+2, -823024.9, -909275.0, -290.7761, 0.011954652, 0.005010276, -823023.9, 88.39104, 0.0, 5.0141454, 4.958417 
1.2284757e+2, 2.209653e+2, -782031.1, -878191.3, -134.33342, 0.012866823, 0.010370476, -782030.94, -7483.619, 0.0, 5.014156, 4.952151 
1.2284703e+2, 2.2591703e+2, -732201.1, -827132.8, -119.699585, 0.006016559, -0.003146452, -732201.0, -6188.8926, 0.0, 5.0140257, 4.952796 
1.22846454e+2, 2.3086871e+2, -683259.94, -777989.4, -171.15746, -0.0012688724, -0.017952971, -683259.6, -5782.8735, 0.0, 5.0138855, 4.9527946 
1.2284586e+2, 2.3582038e+2, -634967.0, -730290.56, -219.35127, -0.00848737, -0.03282173, -634966.5, -6025.0044, 0.0, 5.013744, 4.952291 
1.2284529e+2, 2.4076904e+2, -597621.6, -706757.94, -440.3032, -0.014298982, -0.025813282, -597619.9, -17179.66, 0.0, 5.0135555, 4.943409 
1.22844994e+2, 2.4571508e+2, -548752.44, -657424.6, -415.22687, -0.016623877, -0.0038796158, -548750.8, -16771.6, 0.0, 5.013316, 4.9434657 
1.228447e+2, 2.5066108e+2, -499942.94, -608283.7, -447.5686, -0.018738655, 0.017023105, -499941.1, -16421.139, 0.0, 5.0130777, 4.943465 
1.22844376e+2, 2.556071e+2, -451379.25, -559706.4, -480.76257, -0.02080053, 0.03823172, -451377.13, -16316.714, 0.0, 5.0128345, 4.943266 
1.228436e+2, 2.6054806e+2, -408626.84, -524093.56, -1415.2631, -0.024091935, 0.05096986, -408609.5, -21968.713, 0.0, 5.012537, 4.938395 
1.22839466e+2, 2.65484e+2, -355343.1, -461773.44, -2585.0266, -0.049121425, -0.03683833, -355280.34, -17047.428, 0.0, 5.0115695, 4.9430466 
1.2283455e+2, 2.704199e+2, -308498.13, -413723.75, -3110.7034, -0.07815678, -0.13771889, -308406.25, -18584.682, 0.0, 5.01047, 4.9430113 
1.2282929e+2, 2.7535546e+2, -261660.44, -365819.25, -3512.534, -0.10770777, -0.2421403, -261542.11, -20128.97, 0.0, 5.0093474, 4.942929 
1.228295e+2, 2.80293e+2, -248980.16, -402073.0, 687.6506, -0.101436324, -0.16656904, -248977.06, -55978.402, 0.0, 5.0097804, 4.9127564 
1.2283352e+2, 2.8522736e+2, -184519.27, -323775.22, -2401.6052, -0.07236241, -0.016877837, -184477.86, -39800.09, 0.0, 5.011391, 4.9216404 
1.2283419e+2, 2.9015625e+2, -132732.16, -273501.38, -2878.0295, -0.061349858, 0.02833232, -132673.34, -36254.78, 0.0, 5.0122104, 4.9215245 
1.2283458e+2, 2.9508483e+2, -80925.15, -223279.27, -3247.2603, -0.04975001, 0.071017854, -80851.12, -32689.102, 0.0, 5.012981, 4.921408 
1.2283525e+2, 3.000237e+2, -14600.081, -107970.9, -3889.6626, -0.02220088, 0.08988052, -14438.325, -14438.325, 0.0, 5.0141315, 4.9534464 
1.2283253e+2, 3.0498222e+2, 9996.322, -60395.22, -5888.1426, 0.02528639, -0.07320578, 10485.458, 10485.458, 0.0, 5.0159154, 4.9684 
1.2282747e+2, 3.099456e+2, 15612.401, -56741.188, -7680.086, 0.06331394, -0.26756272, 16418.633, 16418.633, 0.0, 5.017502, 4.9688764 
1.2282129e+2, 3.149094e+2, 21312.889, -53176.152, -9136.804, 0.09696945, -0.4656471, 22417.234, 22417.234, 0.0, 5.0190253, 4.9693546 
1.2786199e+2, 1.215242e+2, -1711451.3, -1747756.0, -133.43913, -0.0038228214, 0.0145816505, -1711450.8, 37612.703, 0.0, 5.014012, 4.9903574 
1.2786223e+2, 1.2650783e+2, -1668679.6, -1711654.0, 64.693924, -0.005231921, -0.012430062, -1668679.5, 31543.227, 0.0, 5.014065, 4.986103 
1.2786259e+2, 1.3149424e+2, -1619538.3, -1662585.6, 237.2616, -0.005643084, -0.010083617, -1619537.0, 31819.232, 0.0, 5.0141134, 4.986103 
1.2786295e+2, 1.3648061e+2, -1572608.0, -1618056.6, 409.581, -0.0060759014, -0.0064877314, -1572604.3, 29885.676, 0.0, 5.014161, 4.984598 
1.2786318e+2, 1.4146401e+2, -1530243.1, -1582952.3, 195.68259, -0.0059443098, 0.009442699, -1530242.4, 23410.656, 0.0, 5.014208, 4.979894 
1.278632e+2, 1.4644398e+2, -1480893.8, -1533484.6, 82.27715, -0.0044472073, 0.0066384943, -1480893.6, 23956.041, 0.0, 5.0142484, 4.980009 
1.278632e+2, 1.5142389e+2, -1431717.6, -1484371.1, 58.689354, -0.0029022912, 0.0029197307, -1431717.6, 24329.404, 0.0, 5.0142884, 4.9800086 
1.278632e+2, 1.5640378e+2, -1383971.5, -1438235.9, 35.151443, -0.0013584219, -0.00035200783, -1383971.5, 23272.986, 0.0, 5.0143285, 4.9790134 
1.2786315e+2, 1.6137992e+2, -1343194.3, -1406648.3, -82.618935, 0.00010617943, 0.0022957595, -1343194.3, 15284.426, 0.0, 5.014359, 4.973155 
1.2786296e+2, 1.6635312e+2, -1294000.9, -1357411.5, -152.98856, 0.001391255, 0.000121678626, -1294000.5, 15740.798, 0.0, 5.0143666, 4.973189 
1.2786277e+2, 1.7132635e+2, -1244858.1, -1308277.4, -186.28867, 0.002673435, -0.0019114062, -1244857.5, 16146.125, 0.0, 5.014373, 4.9731894 
1.2786257e+2, 1.762996e+2, -1196852.3, -1261547.9, -219.52817, 0.0039612446, -0.00355009, -1196851.5, 15414.568, 0.0, 5.0143795, 4.9723825 
1.2786238e+2, 1.8126933e+2, -1156305.1, -1230514.3, -186.58157, 0.0048244777, 0.0027697282, -1156304.6, 7257.7715, 0.0, 5.0143547, 4.9662824 
1.2786213e+2, 1.8623592e+2, -1107103.5, -1180810.8, -188.11307, 0.0047243447, 0.0012062583, -1107103.0, 7785.8335, 0.0, 5.0142536, 4.9665017 
1.2786187e+2, 1.912025e+2, -1058216.6, -1131763.9, -192.32802, 0.004595672, -0.00057249074, -1058216.1, 7999.161, 0.0, 5.0141487, 4.966502 
1.278616e+2, 1.961691e+2, -1010219.94, -1084631.5, -196.3614, 0.004472285, -0.0020329633, -1010219.4, 7322.1274, 0.0, 5.014044, 4.965852 
1.2786146e+2, 2.01132e+2, -970788.0, -1056200.5, -143.75056, 0.0050100954, 0.0044831857, -970787.75, -1882.8368, 0.0, 5.0139856, 4.958797 
1.2786154e+2, 2.0609118e+2, -921275.44, -1006649.5, -166.42528, 0.007264799, 0.004899739, -921275.1, -967.64185, 0.0, 5.014036, 4.9588675 
1.2786163e+2, 2.1105039e+2, -871847.56, -957303.9, -205.04012, 0.009616478, 0.005161098, -871847.06, -136.91579, 0.0, 5.014091, 4.958868 
1.2786174e+2, 2.1600957e+2, -823087.56, -909414.9, -243.69402, 0.011972807, 0.0055563957, -823086.9, 25.9161, 0.0, 5.0141454, 4.9583693 
1.2786172e+2, 2.2096512e+2, -782088.3, -878310.9, -192.46634, 0.012609174, 0.010882126, -782087.94, -7539.686, 0.0, 5.0141544, 4.952111 
1.2786129e+2, 2.2591662e+2, -732286.94, -827298.44, -212.46681, 0.008134504, -0.0043109995, -732286.5, -6271.4263, 0.0, 5.014022, 4.952741 
1.2786083e+2, 2.3086807e+2, -683349.6, -778148.2, -258.44974, 0.0033404895, -0.020779638, -683348.9, -5867.171, 0.0, 5.0138793, 4.9527426 
1.2786035e+2, 2.3581953e+2, -635060.56, -730442.6, -301.15616, -0.0014556304, -0.037295233, -635059.6, -6111.153, 0.0, 5.013736, 4.952242 
1.2785976e+2, 2.4076802e+2, -597635.2, -706661.25, -615.704, -0.0059839636, -0.031749133, -597631.75, -17183.242, 0.0, 5.013538, 4.943446 
1.2785909e+2, 2.4571429e+2, -548799.7, -657367.06, -621.642, -0.009566064, -0.007881217, -548796.1, -16811.201, 0.0, 5.0132923, 4.943491 
1.2785843e+2, 2.5066057e+2, -499993.28, -608228.06, -647.586, -0.013071424, 0.015663028, -499989.4, -16466.945, 0.0, 5.013053, 4.94349 
1.2785771e+2, 2.5560686e+2, -451432.63, -559652.56, -674.3732, -0.016585099, 0.03959539, -451428.44, -16368.787, 0.0, 5.012809, 4.9432907 
1.2785676e+2, 2.6054806e+2, -409033.06, -524610.6, -1677.6161, -0.018827967, 0.054193836, -409008.7, -22370.945, 0.0, 5.0124774, 4.938243 
1.2785329e+2, 2.6548338e+2, -356574.6, -463528.06, -2832.8179, -0.030430734, -0.032863263, -356499.63, -18262.227, 0.0, 5.0114245, 4.9425006 
1.278491e+2, 2.704186e+2, -309884.53, -415244.0, -3255.5686, -0.04577755, -0.13250542, -309784.03, -19950.143, 0.0, 5.010248, 4.942556 
1.2784451e+2, 2.753537e+2, -263202.13, -367105.34, -3554.2715, -0.06293914, -0.23528698, -263080.7, -21648.775, 0.0, 5.009049, 4.942563 
1.2784506e+2, 2.8029025e+2, -247664.56, -398441.56, 2213.625, -0.05923441, -0.17332284, -247632.08, -54604.11, 0.0, 5.0097013, 4.9140973 
1.2784912e+2, 2.8522462e+2, -184030.22, -323525.53, -1472.6587, -0.040861405, -0.027698869, -184014.67, -39310.61, 0.0, 5.011524, 4.9218273 
1.2784997e+2, 2.9015422e+2, -132206.1, -272942.3, -1804.0217, -0.033995662, 0.02645301, -132182.97, -35748.746, 0.0, 5.0123367, 4.9217896 
1.2785049e+2, 2.950835e+2, -80363.59, -222412.42, -2028.316, -0.027914835, 0.07690311, -80334.64, -32167.303, 0.0, 5.0131006, 4.9217525 
1.2785162e+2, 3.0002335e+2, -14326.875, -106873.83, -1925.5636, -0.0076088663, 0.10188584, -14286.828, -14286.828, 0.0, 5.0141535, 4.9538937 
1.2785168e+2, 3.0497998e+2, 6565.7896, -65645.14, -3300.002, 0.043493677, -0.055890463, 6716.284, 6716.284, 0.0, 5.015614, 4.966794 
1.2784967e+2, 3.0994123e+2, 11323.653, -61875.758, -4758.487, 0.08494512, -0.23760411, 11631.692, 11631.692, 0.0, 5.0168934, 4.967418 
1.2784638e+2, 3.1490347e+2, 16168.044, -58195.56, -5881.2183, 0.11791131, -0.41709864, 16630.3, 16630.3, 0.0, 5.01811, 4.968043 
1.3287619e+2, 1.2152451e+2, -1712871.4, -1750635.6, -92.81922, -0.0020532487, 0.021877417, -1712871.1, 36189.914, 0.0, 5.014011, 4.989412 
1.3287644e+2, 1.2650709e+2, -1668350.9, -1710974.9, 99.109695, -0.0038395792, -0.016687255, -1668350.6, 31880.896, 0.0, 5.014064, 4.986326 
1.3287681e+2, 1.3149394e+2, -1619211.4, -1661909.3, 273.19553, -0.0044844327, -0.012128802, -1619209.6, 32150.262, 0.0, 5.0141125, 4.9863257 
1.328772e+2, 1.3648078e+2, -1572282.8, -1617382.8, 447.02216, -0.0051726312, -0.006322495, -1572278.3, 30210.234, 0.0, 5.0141606, 4.984821 
1.3287745e+2, 1.4146443e+2, -1530211.1, -1582884.3, 227.07713, -0.00536114, 0.010984083, -1530210.1, 23438.375, 0.0, 5.014208, 4.9799166 
1.3287747e+2, 1.4644435e+2, -1480938.0, -1533575.0, 112.96903, -0.0042556617, 0.007796276, -1480937.8, 23908.162, 0.0, 5.0142484, 4.979979 
1.3287747e+2, 1.5142418e+2, -1431761.4, -1484461.4, 89.98072, -0.0031095424, 0.0036364642, -1431761.3, 24282.824, 0.0, 5.0142884, 4.9799786 
1.3287747e+2, 1.56404e+2, -1384014.9, -1438325.9, 67.03621, -0.0019712718, -0.00007664988, -1384014.8, 23227.69, 0.0, 5.0143285, 4.978983 
1.3287744e+2, 1.6138008e+2, -1343250.4, -1406767.4, -73.04745, -0.00070710096, 0.0023529984, -1343250.3, 15226.985, 0.0, 5.014359, 4.973115 
1.3287728e+2, 1.6635329e+2, -1294059.9, -1357537.5, -148.39157, 0.0008298915, 0.00046788764, -1294059.5, 15680.643, 0.0, 5.0143666, 4.973147 
1.3287713e+2, 1.713265e+2, -1244916.6, -1308402.9, -180.80705, 0.0023669696, -0.0012577315, -1244916.0, 16086.583, 0.0, 5.0143733, 4.9731474 
1.3287695e+2, 1.7629972e+2, -1196910.3, -1261673.0, -213.16266, 0.0038961885, -0.0025901473, -1196909.5, 15355.622, 0.0, 5.01438, 4.97234 
1.3287677e+2, 1.8126942e+2, -1156323.6, -1230554.3, -246.84471, 0.005165674, 0.0036718417, -1156322.8, 7239.0, 0.0, 5.014355, 4.9662685 
1.328765e+2, 1.8623592e+2, -1107112.1, -1180828.4, -267.94836, 0.0059228064, 0.0013215028, -1107111.1, 7777.709, 0.0, 5.0142536, 4.966496 
1.3287622e+2, 1.9120242e+2, -1058225.4, -1131781.0, -270.81268, 0.006659152, -0.0012623345, -1058224.4, 7991.417, 0.0, 5.0141487, 4.9664965 
1.3287596e+2, 1.9616893e+2, -1010228.94, -1084648.3, -273.48416, 0.0073849247, -0.003527717, -1010227.94, 7314.7515, 0.0, 5.0140433, 4.965846 
1.3287579e+2, 2.0113179e+2, -970834.6, -1056298.4, -131.25319, 0.008277867, 0.0026285888, -970834.44, -1928.0626, 0.0, 5.013985, 4.9587636 
1.3287582e+2, 2.06091e+2, -921341.44, -1006790.94, -123.2102, 0.009526459, 0.0038077412, -921341.25, -1032.6582, 0.0, 5.014036, 4.9588194 
1.3287586e+2, 2.1105023e+2, -871912.2, -957444.25, -159.9419, 0.01076856, 0.004882062, -871911.9, -200.92235, 0.0, 5.014091, 4.9588203 
1.328759e+2, 2.1600944e+2, -823150.9, -909554.3, -196.71683, 0.0119916, 0.0060860096, -823150.44, -37.095905, 0.0, 5.014146, 4.9583216 
1.3287586e+2, 2.2096495e+2, -782159.1, -878457.06, -254.13518, 0.012372466, 0.011435694, -782158.44, -7609.2866, 0.0, 5.0141535, 4.952061 
1.3287553e+2, 2.259162e+2, -732374.75, -827462.4, -308.77792, 0.01024762, -0.0054655364, -732373.75, -6355.728, 0.0, 5.014018, 4.952686 
1.3287519e+2, 2.3086745e+2, -683441.25, -778305.3, -349.28616, 0.007907449, -0.023675846, -683439.94, -5953.22, 0.0, 5.0138736, 4.9526896 
1.3287483e+2, 2.3581867e+2, -635156.1, -730593.06, -386.5056, 0.00549613, -0.041917834, -635154.56, -6199.038, 0.0, 5.0137277, 4.9521914 
1.3287419e+2, 2.4076703e+2, -597679.1, -706616.6, -801.9798, 0.0022969355, -0.037516035, -597673.25, -17216.668, 0.0, 5.01352, 4.9434633 
1.3287316e+2, 2.4571352e+2, -548854.9, -657301.8, -828.3701, -0.002510155, -0.011593106, -548848.56, -16858.203, 0.0, 5.013269, 4.943516 
1.3287212e+2, 2.5066006e+2, -500051.53, -608164.7, -847.9167, -0.007406817, 0.014500539, -500044.9, -16520.143, 0.0, 5.0130286, 4.9435143 
1.3287102e+2, 2.5560665e+2, -451493.9, -559591.0, -868.2976, -0.0123730125, 0.041064538, -451486.94, -16428.246, 0.0, 5.0127826, 4.9433146 
1.328699e+2, 2.60548e+2, -409550.88, -525308.6, -2033.0924, -0.013167081, 0.05711771, -409515.2, -22879.832, 0.0, 5.012418, 4.9380126 
1.3286696e+2, 2.654826e+2, -357843.8, -465248.84, -3213.82, -0.0120198745, -0.030504106, -357747.75, -19504.51, 0.0, 5.0112796, 4.9419355 
1.3286331e+2, 2.7041718e+2, -311308.56, -416729.97, -3533.7346, -0.01469603, -0.13024282, -311190.25, -21342.277, 0.0, 5.0100265, 4.9420805 
1.328592e+2, 2.753517e+2, -264781.4, -368356.7, -3729.401, -0.020486448, -0.23271942, -264647.3, -23194.418, 0.0, 5.0087504, 4.942178 
1.3286056e+2, 2.8028756e+2, -247119.1, -396541.2, 3906.8225, -0.01588148, -0.17877272, -247017.02, -53960.313, 0.0, 5.009623, 4.914825 
1.3286507e+2, 2.8522208e+2, -183616.81, -323202.4, -703.53973, -0.0059019085, -0.033884417, -183613.27, -38885.12, 0.0, 5.0116577, 4.9219923 
1.3286604e+2, 2.901523e+2, -131755.34, -272309.88, -889.76636, -0.0043295654, 0.026961334, -131749.7, -35301.07, 0.0, 5.012463, 4.9220333 
1.3286667e+2, 2.950822e+2, -79877.03, -221472.27, -969.0653, -0.004913846, 0.08292846, -79870.4, -31698.025, 0.0, 5.013221, 4.9220743 
1.3286833e+2, 3.0002287e+2, -14658.854, -106930.2, -187.4088, 0.009002104, 0.113530524, -14658.473, -14658.473, 0.0, 5.0141754, 4.9538784 
1.3287082e+2, 3.049774e+2, 3036.4143, -70803.54, -933.91724, 0.06469049, -0.04203973, 3048.2246, 3048.2246, 0.0, 5.015313, 4.965132 
1.3287133e+2, 3.0993617e+2, 6935.5947, -66918.73, -2058.0508, 0.10902172, -0.21736203, 6992.9004, 6992.9004, 0.0, 5.016286, 4.9659033 
1.328704e+2, 3.1489664e+2, 10923.25, -63123.215, -2845.8528, 0.14075677, -0.38452357, 11032.465, 11032.465, 0.0, 5.0171957, 4.9666753 
1.3789038e+2, 1.2152478e+2, -1714216.1, -1753371.6, -15.853438, -0.00035911985, 0.028781977, -1714216.1, 34843.08, 0.0, 5.014013, 4.9885125 
1.3789064e+2, 1.2650637e+2, -1668004.8, -1710289.4, 158.87259, -0.0024507856, -0.020832261, -1668004.1, 32235.9, 0.0, 5.0140696, 4.986548 
1.3789105e+2, 1.3149367e+2, -1618884.0, -1661234.8, 315.2625, -0.0033362766, -0.014112281, -1618881.6, 32481.863, 0.0, 5.0141125, 4.986547 
1.3789144e+2, 1.3648093e+2, -1571995.3, -1616729.3, 471.8508, -0.004279633, -0.0061451662, -1571990.4, 30496.791, 0.0, 5.014148, 4.985042 
1.3789172e+2, 1.4146487e+2, -1530257.3, -1582860.5, 235.12617, -0.004778502, 0.012521397, -1530256.1, 23387.773, 0.0, 5.0141826, 4.979936 
1.3789174e+2, 1.4644472e+2, -1481058.5, -1533702.0, 123.2449, -0.0040605445, 0.008949795, -1481058.3, 23783.863, 0.0, 5.0142226, 4.979949 
1.3789174e+2, 1.5142448e+2, -1431887.6, -1484590.9, 104.34846, -0.00330823, 0.0043456787, -1431887.4, 24153.781, 0.0, 5.014261, 4.9799485 
1.3789174e+2, 1.5640423e+2, -1384151.9, -1438460.4, 85.71855, -0.002568281, 0.00018905221, -1384151.8, 23088.754, 0.0, 5.014297, 4.978953 
1.3789172e+2, 1.6138025e+2, -1343409.4, -1406939.8, -71.57369, -0.0014987896, 0.0024330965, -1343409.3, 15066.69, 0.0, 5.0143256, 4.9730735 
1.3789159e+2, 1.6635343e+2, -1294210.4, -1357706.5, -146.60458, 0.0002848784, 0.00083542813, -1294210.0, 15528.928, 0.0, 5.014336, 4.9731045 
1.3789147e+2, 1.7132665e+2, -1245065.8, -1308571.0, -173.27232, 0.002074264, -0.00059563725, -1245065.3, 15936.307, 0.0, 5.014343, 4.973105 
1.3789132e+2, 1.7629987e+2, -1197066.5, -1261844.3, -200.21231, 0.0038459944, -0.0016347318, -1197065.9, 15198.317, 0.0, 5.0143466, 4.972298 
1.3789116e+2, 1.8126951e+2, -1156446.0, -1230651.6, -297.32382, 0.0055208155, 0.0046032625, -1156444.8, 7116.4443, 0.0, 5.0143213, 4.9662514 
1.3789089e+2, 1.8623593e+2, -1107192.5, -1180879.5, -338.5026, 0.00712693, 0.0014606104, -1107191.0, 7697.844, 0.0, 5.014229, 4.96649 
1.3789058e+2, 1.9120234e+2, -1058288.9, -1131823.4, -341.3895, 0.008723757, -0.0019506327, -1058287.4, 7929.0444, 0.0, 5.0141296, 4.9664903 
1.378903e+2, 1.9616877e+2, -1010286.94, -1084687.4, -344.26282, 0.0102982065, -0.0050430084, -1010285.3, 7258.4727, 0.0, 5.0140266, 4.9658403 
1.378901e+2, 2.0113158e+2, -970939.1, -1056434.6, -110.155464, 0.011560051, 0.0008112434, -970939.0, -2031.2197, 0.0, 5.0139675, 4.9587255 
1.3789009e+2, 2.0609082e+2, -921458.56, -1006954.06, -61.000664, 0.011803407, 0.0027509031, -921458.5, -1148.8092, 0.0, 5.0140185, 4.9587717 
1.3789007e+2, 2.1105008e+2, -872043.4, -957613.44, -85.1615, 0.011938331, 0.0046025505, -872043.3, -331.51324, 0.0, 5.0140686, 4.9587727 
1.3789006e+2, 2.1600932e+2, -823311.75, -909736.75, -108.78551, 0.012037227, 0.006578536, -823311.56, -197.7525, 0.0, 5.0141125, 4.958274 
1.3789e+2, 2.2096479e+2, -782357.44, -878683.8, -271.20807, 0.012192147, 0.0120101, -782356.7, -7806.6626, 0.0, 5.0141125, 4.9520016 
1.3788979e+2, 2.2591583e+2, -732540.94, -827663.2, -374.14935, 0.012378909, -0.006613136, -732539.44, -6518.519, 0.0, 5.0139875, 4.952629 
1.3788953e+2, 2.308668e+2, -683606.25, -778498.0, -426.17416, 0.012457041, -0.026639717, -683604.3, -6112.5503, 0.0, 5.013843, 4.952635 
1.378893e+2, 2.3581779e+2, -635355.8, -730794.0, -476.6499, 0.012411482, -0.046697672, -635353.44, -6390.822, 0.0, 5.0136843, 4.952139 
1.3788863e+2, 2.4076603e+2, -597878.1, -706695.44, -1019.9077, 0.01061336, -0.043149408, -597868.56, -17404.012, 0.0, 5.013459, 4.9434566 
1.3788722e+2, 2.4571277e+2, -549008.2, -657290.5, -1109.1477, 0.0046274443, -0.015039781, -548996.8, -17001.19, 0.0, 5.0132155, 4.9435344 
1.3788581e+2, 2.5065958e+2, -500224.97, -608163.3, -1184.065, -0.0016214794, 0.013565394, -500211.97, -16685.059, 0.0, 5.012969, 4.9435325 
1.3788432e+2, 2.5560647e+2, -451741.13, -559623.6, -1262.7249, -0.007972229, 0.04276075, -451726.34, -16668.695, 0.0, 5.0126987, 4.9433327 
1.3788304e+2, 2.6054785e+2, -410572.06, -526436.7, -2822.9568, -0.0067901937, 0.059967045, -410503.34, -23869.668, 0.0, 5.0122313, 4.9376817 
1.3788049e+2, 2.6548162e+2, -360398.5, -467651.0, -4535.4526, 0.006849904, -0.029789738, -360207.03, -21955.842, 0.0, 5.010709, 4.941301 
1.3787724e+2, 2.7041534e+2, -315504.0, -419612.72, -5324.4644, 0.016529035, -0.13175201, -315232.4, -25366.527, 0.0, 5.008849, 4.9415207 
1.378735e+2, 2.753491e+2, -271217.25, -371981.22, -6073.758, 0.02205591, -0.23656651, -270852.47, -29372.531, 0.0, 5.0067496, 4.9416933 
1.3787606e+2, 2.8028437e+2, -254276.3, -399327.25, 3435.8882, 0.031839233, -0.18653806, -254194.95, -61104.39, 0.0, 5.0070863, 4.9149685 
1.3788143e+2, 2.852194e+2, -187807.23, -324463.44, -1529.1871, 0.03478522, -0.038076803, -187790.13, -43036.168, 0.0, 5.010191, 4.9222064 
1.378825e+2, 2.9015034e+2, -133635.53, -272349.75, -945.9239, 0.02912276, 0.028647244, -133629.08, -37165.336, 0.0, 5.0118113, 4.922295 
1.378832e+2, 2.950809e+2, -80607.17, -220809.38, -535.1703, 0.02035281, 0.08929465, -80605.125, -32427.795, 0.0, 5.012973, 4.922384 
1.3788544e+2, 3.0002227e+2, -17087.926, -108689.26, 1012.198, 0.028881509, 0.12601538, -17076.742, -17076.742, 0.0, 5.0136976, 4.953399 
1.3789007e+2, 3.0497438e+2, -6260.5083, -78046.46, 1861.5946, 0.091764726, -0.032509044, -6212.2646, -6212.2646, 0.0, 5.01294, 4.963483 
1.3789265e+2, 3.099303e+2, -10353.0625, -76930.484, 3506.9485, 0.14129436, -0.2116282, -10168.845, -10168.845, 0.0, 5.010949, 4.964476 
1.3789369e+2, 3.1488857e+2, -16959.043, -77043.94, 6913.018, 0.17516024, -0.37806576, -16173.93, -16173.93, 0.0, 5.0079393, 4.9654675 
1.4290483e+2, 1.2152439e+2, -1713010.4, -1753352.1, 421.17004, 0.0013770361, 0.025962906, -1713006.0, 36057.875, 0.0, 5.0145335, 4.9882636 
1.4290509e+2, 1.2650688e+2, -1666867.1, -1709610.1, 406.12787, -0.0005669923, -0.014989382, -1666863.3, 33372.78, 0.0, 5.0144196, 4.9866 
1.4290538e+2, 1.3149394e+2, -1618282.6, -1660819.3, 349.42487, -0.0020324497, -0.0110322265, -1618279.8, 33081.543, 0.0, 5.0142856, 4.9866 
1.4290568e+2, 1.3648099e+2, -1571905.1, -1616563.3, 292.34113, -0.0034878352, -0.0058173486, -1571903.3, 30583.547, 0.0, 5.014151, 4.9850955 
1.4290589e+2, 1.414648e+2, -1530560.6, -1582981.8, -13.314307, -0.0043458277, 0.01113168, -1530560.6, 23084.139, 0.0, 5.0140753, 4.979948 
1.4290592e+2, 1.4644471e+2, -1481368.3, -1533853.4, -77.02729, -0.0038405221, 0.008052013, -1481368.1, 23474.389, 0.0, 5.0141187, 4.979949 
1.4290595e+2, 1.5142451e+2, -1432169.3, -1484726.6, -61.27212, -0.0032812716, 0.0040273415, -1432169.1, 23871.979, 0.0, 5.0141664, 4.979949 
1.4290598e+2, 1.5640433e+2, -1384400.4, -1438578.5, -45.597683, -0.002712204, 0.00046394384, -1384400.4, 22839.537, 0.0, 5.0142136, 4.978954 
1.4290597e+2, 1.613804e+2, -1343632.6, -1407044.1, -177.67407, -0.001786557, 0.0031893814, -1343632.1, 14842.811, 0.0, 5.01425, 4.973075 
1.4290583e+2, 1.6635361e+2, -1294431.6, -1357812.0, -208.10762, -0.00011423269, 0.0018112547, -1294430.9, 15306.867, 0.0, 5.0142612, 4.973105 
1.4290571e+2, 1.7132683e+2, -1245276.8, -1308672.4, -185.59349, 0.001598775, 0.0005921016, -1245276.1, 15724.132, 0.0, 5.0142713, 4.973105 
1.4290558e+2, 1.7630006e+2, -1197258.8, -1261937.5, -162.98183, 0.0033292202, -0.00023411596, -1197258.4, 15004.373, 0.0, 5.0142813, 4.9722977 
1.4290541e+2, 1.8126972e+2, -1156603.3, -1230788.4, -271.7554, 0.005142501, 0.005934629, -1156602.3, 6957.6763, 0.0, 5.01428, 4.966225 
1.4290512e+2, 1.8623602e+2, -1107184.6, -1180955.9, -367.50546, 0.0072582015, 0.0021381858, -1107182.8, 7705.608, 0.0, 5.014248, 4.9664555 
1.4290482e+2, 1.9120233e+2, -1058090.3, -1131808.1, -416.50397, 0.009414617, -0.0019355658, -1058087.9, 8128.8794, 0.0, 5.0142145, 4.966456 
1.4290452e+2, 1.9616866e+2, -1009887.56, -1084576.4, -465.22928, 0.011584898, -0.0056820954, -1009884.7, 7660.455, 0.0, 5.0141807, 4.9658065 
1.4290431e+2, 2.011314e+2, -970347.3, -1056098.5, -168.7149, 0.013074172, -0.00031908936, -970347.0, -1437.5288, 0.0, 5.0141616, 4.9587493 
1.4290425e+2, 2.0609069e+2, -920935.94, -1006615.7, 3.100778, 0.012487592, 0.0015233346, -920935.94, -625.3564, 0.0, 5.0141816, 4.9588113 
1.4290419e+2, 2.1104996e+2, -871600.9, -957313.25, 81.15565, 0.011796263, 0.0032889168, -871600.8, 110.952866, 0.0, 5.0142045, 4.958812 
1.4290413e+2, 2.1600924e+2, -822933.06, -909466.8, 159.06516, 0.011134787, 0.00517093, -822932.8, 180.1954, 0.0, 5.0142274, 4.958314 
1.4290409e+2, 2.209647e+2, -782166.3, -878920.3, -30.985321, 0.011300973, 0.010757871, -782166.3, -7617.1816, 0.0, 5.014241, 4.951865 
1.42904e+2, 2.2591566e+2, -732221.9, -828017.06, -358.85162, 0.013542253, -0.006661581, -732220.56, -6198.457, 0.0, 5.014193, 4.9524198 
1.429039e+2, 2.3086655e+2, -683035.2, -778741.9, -626.3385, 0.015936602, -0.025529506, -683031.06, -5535.866, 0.0, 5.014137, 4.952424 
1.4290379e+2, 2.3581742e+2, -634497.56, -730913.9, -890.14545, 0.018356493, -0.044590037, -634489.3, -5520.893, 0.0, 5.01408, 4.9519267 
1.4290321e+2, 2.4076547e+2, -596306.7, -706018.94, -1551.872, 0.018716568, -0.041757386, -596284.75, -15811.887, 0.0, 5.0139947, 4.943464 
1.4290166e+2, 2.4571203e+2, -547139.06, -656473.9, -1549.1427, 0.013080332, -0.015626632, -547117.1, -15113.169, 0.0, 5.013852, 4.9435544 
1.4290005e+2, 2.5065872e+2, -498106.63, -607253.4, -1514.3727, 0.0072467234, 0.0118549485, -498085.63, -14551.232, 0.0, 5.0137043, 4.943549 
1.428984e+2, 2.5560555e+2, -449321.06, -558598.1, -1486.1, 0.0015926553, 0.040444396, -449300.88, -14237.048, 0.0, 5.0135527, 4.943345 
1.428971e+2, 2.6054692e+2, -407838.1, -526965.9, -3139.5002, 0.005610209, 0.05916907, -407755.44, -21116.1, 0.0, 5.0135007, 4.937005 
1.4289513e+2, 2.6547992e+2, -353856.22, -468363.7, -5193.9487, 0.029971112, -0.023848703, -353621.13, -15351.483, 0.0, 5.0136175, 4.939905 
1.4289255e+2, 2.704122e+2, -303394.9, -418209.34, -6202.1445, 0.053044856, -0.1242408, -303060.84, -13156.858, 0.0, 5.013725, 4.940057 
1.4288953e+2, 2.7534398e+2, -252916.75, -368276.1, -7070.0938, 0.0740431, -0.23359686, -252485.06, -10942.066, 0.0, 5.013821, 4.9401617 
1.4289255e+2, 2.8027624e+2, -232553.13, -383945.2, 4265.3125, 0.09484444, -0.21509922, -232433.05, -39247.113, 0.0, 5.014133, 4.917213 
1.4289796e+2, 2.852119e+2, -175375.27, -314173.66, 233.37811, 0.08367162, -0.076028414, -175374.88, -30539.11, 0.0, 5.014718, 4.9235835 
1.4289923e+2, 2.9014456e+2, -124292.56, -264322.8, -25.540787, 0.06441267, 0.0013702768, -124292.56, -27772.553, 0.0, 5.0152745, 4.923395 
1.4290012e+2, 2.950765e+2, -73153.86, -214544.72, -143.99396, 0.045689348, 0.07068345, -73153.71, -24941.967, 0.0, 5.015807, 4.9232063 
1.4290272e+2, 3.000202e+2, -9372.5, -101842.195, 1101.402, 0.05001147, 0.12068064, -9359.384, -9359.384, 0.0, 5.0164294, 4.954573 
1.429085e+2, 3.049729e+2, 4054.1504, -73084.21, -67.78657, 0.12680542, -0.021971544, 4054.21, 4054.21, 0.0, 5.0173044, 4.9634066 
1.4291252e+2, 3.0992866e+2, 8960.636, -65263.566, -2129.4646, 0.2022596, -0.19747676, 9021.68, 9021.68, 0.0, 5.0181546, 4.9655566 
1.429152e+2, 3.1488755e+2, 14211.123, -57793.98, -3899.5159, 0.27245298, -0.37007156, 14421.689, 14421.689, 0.0, 5.01898, 4.967709 
1.4791949e+2, 1.21523485e+2, -1712649.3, -1752611.9, 444.15933, 0.0025128073, 0.015590014, -1712644.4, 36429.28, 0.0, 5.0145326, 4.988507 
1.4791971e+2, 1.2650827e+2, -1666973.0, -1709820.0, 302.45917, 0.0014033846, -0.0018816309, -1666970.9, 33251.996, 0.0, 5.0144186, 4.9865317 
1.4791982e+2, 1.3149464e+2, -1618387.4, -1661028.6, 246.95659, -0.0006987903, -0.004260217, -1618386.0, 32969.008, 0.0, 5.0142846, 4.9865313 
1.4791991e+2, 1.3648099e+2, -1572008.9, -1616772.3, 191.1049, -0.0028069522, -0.005382692, -1572008.1, 30479.262, 0.0, 5.0141506, 4.985027 
1.4792e+2, 1.4146435e+2, -1530552.4, -1582963.4, -7.091926, -0.0041142693, 0.00760704, -1530552.4, 23097.191, 0.0, 5.014075, 4.9799547 
1.4792006e+2, 1.464444e+2, -1481336.9, -1533788.1, -41.17588, -0.003725165, 0.005662082, -1481336.8, 23509.205, 0.0, 5.0141187, 4.979971 
1.4792012e+2, 1.5142436e+2, -1432137.9, -1484661.8, -24.811712, -0.0032867729, 0.002942036, -1432137.9, 23905.314, 0.0, 5.014166, 4.979971 
1.4792018e+2, 1.5640432e+2, -1384369.1, -1438513.8, -8.535461, -0.0028439714, 0.00068269856, -1384369.1, 22871.404, 0.0, 5.0142136, 4.978976 
1.4792018e+2, 1.6138051e+2, -1343588.9, -1406954.0, -163.60129, -0.0020911715, 0.00434014, -1343588.5, 14885.938, 0.0, 5.0142503, 4.973105 
1.4792004e+2, 1.6635376e+2, -1294388.3, -1357722.6, -200.36592, -0.0006948851, 0.003153409, -1294387.5, 15349.255, 0.0, 5.0142612, 4.973135 
1.479199e+2, 1.7132704e+2, -1245233.5, -1308583.0, -177.05267, 0.00072766177, 0.0021051688, -1245233.0, 15765.903, 0.0, 5.0142717, 4.973135 
1.4791976e+2, 1.7630032e+2, -1197215.8, -1261848.3, -153.64285, 0.0021570192, 0.0014485238, -1197215.4, 15045.542, 0.0, 5.0142817, 4.9723277 
1.4791957e+2, 1.8126996e+2, -1156654.9, -1230899.4, -288.4438, 0.0038744567, 0.0075532603, -1156653.8, 6904.376, 0.0, 5.0142803, 4.966188 
1.4791928e+2, 1.8623616e+2, -1107269.0, -1181135.9, -392.08624, 0.006357109, 0.0032404845, -1107266.9, 7620.8545, 0.0, 5.014248, 4.9663944 
1.4791898e+2, 1.9120236e+2, -1058174.6, -1131987.3, -439.785, 0.008881408, -0.0013563695, -1058172.0, 8045.367, 0.0, 5.014214, 4.966396 
1.4791869e+2, 1.9616857e+2, -1009971.8, -1084754.6, -487.20654, 0.011404241, -0.005623557, -1009968.6, 7578.154, 0.0, 5.01418, 4.965746 
1.4791848e+2, 2.0113125e+2, -970258.25, -1055905.1, -165.3522, 0.012947784, -0.0008764027, -970257.94, -1346.3501, 0.0, 5.014161, 4.9588156 
1.4791834e+2, 2.0609054e+2, -920797.3, -1006316.4, 19.344887, 0.011675433, 0.0002659698, -920797.3, -485.7826, 0.0, 5.0141816, 4.958914 
1.4791824e+2, 2.1104987e+2, -871463.25, -957015.6, 99.08586, 0.010244452, 0.0013489758, -871463.2, 248.2412, 0.0, 5.0142045, 4.9589148 
1.4791813e+2, 2.1600917e+2, -822796.44, -909170.8, 178.6799, 0.008825274, 0.0025529545, -822796.06, 315.23175, 0.0, 5.0142274, 4.958416 
1.4791809e+2, 2.2096466e+2, -782436.1, -879504.3, -46.246685, 0.008977058, 0.008381193, -782436.1, -7889.035, 0.0, 5.0142403, 4.951665 
1.4791818e+2, 2.2591563e+2, -732665.4, -828964.94, -388.33435, 0.013328465, -0.0057600965, -732663.8, -6641.535, 0.0, 5.0141892, 4.952095 
1.4791825e+2, 2.3086652e+2, -683482.1, -779681.8, -649.4784, 0.017925292, -0.021101004, -683477.75, -5980.0444, 0.0, 5.01413, 4.9521017 
1.4791833e+2, 2.3581742e+2, -634948.06, -731846.1, -906.9325, 0.022512516, -0.03662095, -634939.56, -5966.3584, 0.0, 5.0140705, 4.9516068 
1.4791794e+2, 2.4076533e+2, -596299.75, -705826.94, -1613.7656, 0.025072759, -0.03341837, -596276.0, -15795.755, 0.0, 5.013971, 4.943534 
1.4791635e+2, 2.4571146e+2, -547056.44, -656081.75, -1668.1752, 0.020871092, -0.0128862765, -547030.9, -15018.066, 0.0, 5.0138235, 4.9436955 
1.4791468e+2, 2.5065774e+2, -498019.1, -606871.9, -1623.859, 0.01622285, 0.009129559, -497994.88, -14450.454, 0.0, 5.013678, 4.943686 
1.4791295e+2, 2.5560415e+2, -449228.6, -558227.2, -1586.0323, 0.011671825, 0.03229478, -449205.53, -14130.549, 0.0, 5.013529, 4.9434786 
1.4791164e+2, 2.605454e+2, -408759.16, -528692.9, -3058.46, 0.016675271, 0.050296117, -408681.22, -22030.352, 0.0, 5.0134525, 4.9364276 
1.4791022e+2, 2.6547882e+2, -355765.34, -471652.38, -4777.092, 0.04157327, -0.0145094525, -355568.75, -17284.469, 0.0, 5.0134826, 4.9388275 
1.4790824e+2, 2.704117e+2, -305463.28, -421214.78, -5617.8184, 0.06452421, -0.09439708, -305191.28, -15270.314, 0.0, 5.0135055, 4.939084 
1.4790581e+2, 2.753443e+2, -255144.64, -370999.0, -6318.0317, 0.08476511, -0.1828348, -254801.11, -13240.36, 0.0, 5.013517, 4.939293 
1.479086e+2, 2.8027564e+2, -229550.81, -376978.16, 3236.2393, 0.10678062, -0.1790306, -229479.81, -36261.96, 0.0, 5.014124, 4.9197135 
1.4791377e+2, 2.8520864e+2, -173675.0, -312254.88, 390.7289, 0.09506193, -0.077810355, -173673.9, -28790.977, 0.0, 5.01499, 4.9243627 
1.479153e+2, 2.901396e+2, -122585.5, -262067.34, 310.0751, 0.07181631, -0.019523311, -122584.805, -26013.344, 0.0, 5.0155334, 4.924268 
1.4791645e+2, 2.9506975e+2, -71441.69, -211954.23, 369.6587, 0.048256032, 0.02961099, -71440.71, -23173.14, 0.0, 5.0160522, 4.924173 
1.4791907e+2, 3.0001393e+2, -7126.315, -97004.516, 1116.3767, 0.046164006, 0.07204345, -7112.4507, -7112.4507, 0.0, 5.0165668, 4.9563813 
1.4792477e+2, 3.0497053e+2, 1707.88, -76698.35, 339.04858, 0.1105187, -0.009778703, 1709.3461, 1709.3461, 0.0, 5.017114, 4.962571 
1.4792876e+2, 3.0993015e+2, 5647.517, -69118.06, -950.0613, 0.17117734, -0.10753233, 5659.5874, 5659.5874, 0.0, 5.0176625, 4.964771 
1.4793135e+2, 3.1489357e+2, 9934.278, -61888.754, -1947.9872, 0.22491203, -0.19486062, 9987.072, 9987.072, 0.0, 5.0181856, 4.9669733 
1.5293416e+2, 1.2152253e+2, -1712229.3, -1751750.9, 466.3282, 0.003604059, 0.0047850744, -1712223.8, 36860.184, 0.0, 5.0145316, 4.9887896 
1.5293434e+2, 1.2650968e+2, -1667079.1, -1710029.5, 199.00046, 0.003375766, 0.011268918, -1667078.1, 33131.35, 0.0, 5.014417, 4.986463 
1.5293424e+2, 1.3149533e+2, -1618492.5, -1661237.8, 144.6984, 0.0006379003, 0.0025384251, -1618492.0, 32856.6, 0.0, 5.0142837, 4.9864626 
1.5293413e+2, 1.3648097e+2, -1572113.0, -1616981.1, 90.07887, -0.002122011, -0.004937569, -1572112.8, 30375.074, 0.0, 5.0141497, 4.984958 
1.529341e+2, 1.414639e+2, -1530548.4, -1582953.5, -0.47763124, -0.0038809753, 0.0041049463, -1530548.4, 23105.938, 0.0, 5.0140743, 4.979958 
1.529342e+2, 1.4644408e+2, -1481305.6, -1533722.8, -5.270949, -0.0036089038, 0.0032902742, -1481305.6, 23543.902, 0.0, 5.0141187, 4.979993 
1.5293428e+2, 1.514242e+2, -1432106.8, -1484596.6, 11.702206, -0.003291355, 0.0018633137, -1432106.8, 23938.54, 0.0, 5.014166, 4.9799924 
1.5293439e+2, 1.5640432e+2, -1384337.9, -1438449.0, 28.580265, -0.0029748033, 0.0008964976, -1384337.9, 22903.168, 0.0, 5.0142136, 4.978997 
1.5293442e+2, 1.6138062e+2, -1343548.3, -1406869.8, -149.52626, -0.0023932948, 0.005502869, -1343547.9, 14926.054, 0.0, 5.0142503, 4.973133 
1.5293425e+2, 1.6635393e+2, -1294345.0, -1357633.0, -192.68979, -0.0012733779, 0.0045039165, -1294344.4, 15391.411, 0.0, 5.0142617, 4.973165 
1.5293409e+2, 1.7132725e+2, -1245190.5, -1308493.5, -168.57742, -0.00014210815, 0.0036144224, -1245190.1, 15807.449, 0.0, 5.0142717, 4.973165 
1.5293391e+2, 1.7630059e+2, -1197173.0, -1261758.8, -144.36946, 0.0009853451, 0.0031151841, -1197172.6, 15086.492, 0.0, 5.0142817, 4.9723577 
1.5293373e+2, 1.8127021e+2, -1156711.3, -1231019.5, -305.26242, 0.0026032364, 0.009200099, -1156710.0, 6846.396, 0.0, 5.0142803, 4.9661474 
1.5293345e+2, 1.862363e+2, -1107353.8, -1181315.6, -416.8955, 0.005450588, 0.0043700864, -1107351.4, 7535.7236, 0.0, 5.014248, 4.966334 
1.5293315e+2, 1.9120239e+2, -1058259.3, -1132166.0, -463.29446, 0.008341475, -0.0007708135, -1058256.4, 7961.486, 0.0, 5.014214, 4.966335 
1.5293287e+2, 1.9616848e+2, -1010056.44, -1084932.6, -509.41226, 0.011215568, -0.0055796024, -1010052.94, 7495.4907, 0.0, 5.0141797, 4.9656854 
1.5293261e+2, 2.0113109e+2, -970178.25, -1055730.9, -161.54105, 0.012821823, -0.0013980995, -970178.0, -1264.2653, 0.0, 5.0141606, 4.9588747 
1.5293247e+2, 2.0609042e+2, -920659.06, -1006016.8, 35.754574, 0.010867494, -0.0009575856, -920659.06, -346.6386, 0.0, 5.0141816, 4.959016 
1.5293232e+2, 2.1104977e+2, -871326.06, -956717.7, 117.18156, 0.008697779, -0.0005877477, -871325.9, 385.115, 0.0, 5.0142045, 4.9590163 
1.5293214e+2, 2.1600911e+2, -822660.2, -908874.56, 198.46002, 0.006521818, -0.00009239568, -822659.75, 449.86887, 0.0, 5.0142274, 4.9585176 
1.529321e+2, 2.2096461e+2, -782715.7, -880107.9, -63.072586, 0.0066542593, 0.006048929, -782715.7, -8170.625, 0.0, 5.0142393, 4.9514575 
1.5293236e+2, 2.2591557e+2, -733110.2, -829912.1, -421.43552, 0.013097733, -0.004898187, -733108.3, -7085.8647, 0.0, 5.0141854, 4.951769 
1.5293261e+2, 2.308665e+2, -683930.3, -780621.06, -676.23566, 0.019882439, -0.016860059, -683925.6, -6425.401, 0.0, 5.014124, 4.9517775 
1.5293287e+2, 2.3581742e+2, -635399.8, -732777.6, -927.33606, 0.026622394, -0.028987395, -635391.0, -6412.9272, 0.0, 5.0140615, 4.951285 
1.5293261e+2, 2.4076524e+2, -596362.4, -705779.06, -1689.3531, 0.031341635, -0.024652747, -596336.3, -15849.101, 0.0, 5.013947, 4.9435525 
1.5293102e+2, 2.4571095e+2, -546979.9, -655683.9, -1782.296, 0.028623817, -0.009451653, -546950.6, -14929.497, 0.0, 5.013795, 4.9438353 
1.5292928e+2, 2.506568e+2, -497937.63, -606484.56, -1728.4337, 0.025236426, 0.0068808286, -497910.1, -14356.126, 0.0, 5.013652, 4.9438224 
1.5292749e+2, 2.5560278e+2, -449142.2, -557850.4, -1681.0532, 0.021863934, 0.024404181, -449116.2, -14030.416, 0.0, 5.013505, 4.943611 
1.5292619e+2, 2.6054373e+2, -409900.13, -530879.2, -3069.7842, 0.028212631, 0.040879235, -409822.28, -23158.44, 0.0, 5.0134044, 4.935669 
1.5292513e+2, 2.6547742e+2, -357695.9, -474930.66, -4513.7427, 0.052692547, -0.009190663, -357522.38, -19220.266, 0.0, 5.013348, 4.9376993 
1.5292355e+2, 2.7041084e+2, -307552.72, -424208.9, -5186.8716, 0.074231885, -0.07227909, -307322.53, -17380.316, 0.0, 5.013286, 4.93806 
1.5292151e+2, 2.7534404e+2, -257393.13, -373709.66, -5719.2476, 0.092426635, -0.14350341, -257112.6, -15528.722, 0.0, 5.013213, 4.9383726 
1.5292467e+2, 2.8027526e+2, -228499.33, -374503.47, 2485.7288, 0.11987765, -0.13927327, -228457.03, -35209.766, 0.0, 5.014116, 4.9206333 
1.5293011e+2, 2.8520623e+2, -172015.03, -310300.6, 372.9842, 0.110370345, -0.0650917, -172014.03, -27092.281, 0.0, 5.015262, 4.9251018 
1.5293184e+2, 2.9013532e+2, -120918.25, -259776.45, 470.6577, 0.08165395, -0.030057149, -120916.65, -24300.527, 0.0, 5.015792, 4.925101 
1.5293317e+2, 2.9506359e+2, -69768.87, -209328.38, 708.305, 0.051772755, -0.0052418034, -69765.27, -21447.127, 0.0, 5.016298, 4.9251 
1.5293589e+2, 3.000069e+2, -6240.5645, -95237.77, 952.32837, 0.04439855, 0.02067964, -6230.375, -6230.375, 0.0, 5.016704, 4.957014 
1.5294129e+2, 3.0496585e+2, -680.6519, -80279.62, 652.39294, 0.09951027, -0.02174554, -675.3053, -675.3053, 0.0, 5.016923, 4.961512 
1.529449e+2, 3.099285e+2, 2291.2214, -72940.21, 136.57343, 0.1471564, -0.063643545, 2291.4692, 2291.4692, 0.0, 5.01717, 4.963762 
1.5294704e+2, 3.1489566e+2, 5612.6245, -65951.305, -88.411255, 0.18621501, -0.08759788, 5612.734, 5612.734, 0.0, 5.017391, 4.9660144 
1.579488e+2, 1.21521525e+2, -1711886.9, -1750835.3, 532.3542, 0.004692907, -0.006440698, -1711879.6, 37215.113, 0.0, 5.014485, 4.989113 
1.5794896e+2, 1.2651108e+2, -1667255.0, -1710274.9, 129.65637, 0.0053649335, 0.024424832, -1667254.6, 32941.668, 0.0, 5.014394, 4.9863935 
1.5794866e+2, 1.3149603e+2, -1618620.6, -1661459.5, 62.902153, 0.0019803431, 0.009342147, -1618620.5, 32721.684, 0.0, 5.0142756, 4.986393 
1.5794834e+2, 1.3648097e+2, -1572212.9, -1617189.3, -4.206638, -0.0014323192, -0.004486191, -1572212.9, 30275.51, 0.0, 5.014151, 4.9848886 
1.579482e+2, 1.4146347e+2, -1530541.8, -1582948.9, 4.068133, -0.003641416, 0.0006333931, -1530541.8, 23117.309, 0.0, 5.0140767, 4.9799585 
1.5794832e+2, 1.4644377e+2, -1481288.1, -1533663.9, 28.721634, -0.0034869309, 0.00094383804, -1481288.1, 23564.865, 0.0, 5.014114, 4.9800143 
1.5794845e+2, 1.5142404e+2, -1432114.9, -1484550.4, 47.365276, -0.0032879314, 0.00079649483, -1432114.8, 23932.465, 0.0, 5.0141525, 4.9800143 
1.579486e+2, 1.564043e+2, -1384376.1, -1438417.3, 66.24252, -0.003093134, 0.0011078812, -1384376.0, 22865.666, 0.0, 5.01419, 4.9790187 
1.5794864e+2, 1.6138074e+2, -1343597.5, -1406833.3, -133.13585, -0.0026789492, 0.0066769454, -1343597.1, 14876.181, 0.0, 5.014221, 4.973159 
1.5794845e+2, 1.6635408e+2, -1294375.0, -1357578.6, -183.94116, -0.0018396833, 0.005861085, -1294374.5, 15360.347, 0.0, 5.014237, 4.9731946 
1.5794827e+2, 1.7132746e+2, -1245213.3, -1308435.6, -160.9348, -0.0010012056, 0.005117334, -1245212.9, 15783.227, 0.0, 5.01425, 4.9731946 
1.5794809e+2, 1.7630082e+2, -1197196.5, -1261701.1, -138.21333, -0.0001736234, 0.0047625345, -1197196.3, 15061.143, 0.0, 5.0142593, 4.972388 
1.579479e+2, 1.8127048e+2, -1156839.0, -1231180.4, -325.2648, 0.0013431809, 0.010871067, -1156837.6, 6717.0303, 0.0, 5.0142574, 4.9661036 
1.579476e+2, 1.8623646e+2, -1107498.9, -1181522.9, -440.79364, 0.0045495527, 0.0055223857, -1107496.3, 7390.181, 0.0, 5.0142274, 4.966273 
1.5794732e+2, 1.9120242e+2, -1058408.4, -1132374.3, -481.0824, 0.0078075533, -0.00018676017, -1058405.3, 7813.004, 0.0, 5.0141916, 4.9662743 
1.5794702e+2, 1.9616841e+2, -1010220.94, -1085147.0, -520.44244, 0.011039083, -0.0055643413, -1010217.3, 7332.758, 0.0, 5.0141516, 4.9656253 
1.5794678e+2, 2.0113094e+2, -970212.4, -1055625.3, -142.572, 0.012724375, -0.0019012417, -970212.2, -1296.3575, 0.0, 5.0141244, 4.958927 
1.5794657e+2, 2.0609029e+2, -920656.56, -1005781.94, 59.34217, 0.010092096, -0.0021474694, -920656.56, -343.25452, 0.0, 5.0141354, 4.959117 
1.5794636e+2, 2.1104966e+2, -871367.25, -956504.44, 133.44508, 0.0071903616, -0.0025032402, -871367.06, 343.56836, 0.0, 5.014143, 4.9591174 
1.5794615e+2, 2.1600904e+2, -822757.94, -908688.6, 206.93547, 0.0042704623, -0.0027292802, -822757.44, 350.44504, 0.0, 5.0141463, 4.958618 
1.5794612e+2, 2.2096457e+2, -783279.75, -880858.4, -95.48162, 0.0043861317, 0.0038020695, -783279.7, -8736.737, 0.0, 5.0141425, 4.951243 
1.5794653e+2, 2.2591554e+2, -733818.6, -830982.6, -468.73386, 0.012892976, -0.0040645064, -733816.3, -7793.724, 0.0, 5.01409, 4.951441 
1.5794694e+2, 2.3086648e+2, -684658.56, -781693.94, -724.0737, 0.021855682, -0.012831294, -684653.2, -7150.3706, 0.0, 5.01402, 4.951451 
1.5794738e+2, 2.3581739e+2, -636180.7, -733867.7, -985.79614, 0.030755581, -0.021754595, -636170.75, -7187.683, 0.0, 5.013938, 4.950959 
1.5794727e+2, 2.4076517e+2, -596866.5, -706062.7, -1840.5754, 0.037630618, -0.015551544, -596835.5, -16341.567, 0.0, 5.013793, 4.9435163 
1.5794563e+2, 2.4571049e+2, -547278.5, -655469.56, -1997.3778, 0.03650233, -0.005366832, -547241.6, -15212.601, 0.0, 5.0136375, 4.94397 
1.5794386e+2, 2.506559e+2, -498245.63, -606286.3, -1977.941, 0.034529667, 0.005086871, -498209.4, -14646.142, 0.0, 5.013493, 4.9439535 
1.5794203e+2, 2.556014e+2, -449474.4, -557674.6, -1963.3197, 0.032511182, 0.016737217, -449438.8, -14342.314, 0.0, 5.0133395, 4.943739 
1.5794076e+2, 2.6054186e+2, -412021.2, -533975.3, -3491.7192, 0.040795512, 0.030856965, -411921.3, -25242.662, 0.0, 5.0131044, 4.9346933 
1.5793994e+2, 2.6547557e+2, -362515.13, -479769.7, -5418.693, 0.0648924, -0.008001481, -362265.25, -23940.955, 0.0, 5.012227, 4.936426 
1.5793861e+2, 2.704092e+2, -315853.94, -430363.72, -7058.4136, 0.08527649, -0.058207516, -315420.5, -25450.14, 0.0, 5.0108986, 4.9368534 
1.579368e+2, 2.753428e+2, -270270.16, -381644.75, -8958.941, 0.10217309, -0.11629972, -269554.1, -27937.12, 0.0, 5.0091605, 4.937235 
1.5794095e+2, 2.8027448e+2, -244018.48, -383003.22, -2936.487, 0.14099023, -0.097103514, -243956.47, -50675.61, 0.0, 5.0088816, 4.9199553 
1.5794714e+2, 2.852041e+2, -181280.44, -312746.16, -3716.1455, 0.13476554, -0.03932368, -181175.48, -36217.418, 0.0, 5.011596, 4.925882 
1.5794897e+2, 2.9013127e+2, -126534.89, -260368.19, -2469.1982, 0.09748669, -0.03143353, -126489.34, -29830.84, 0.0, 5.0134215, 4.925944 
1.5795039e+2, 2.9505762e+2, -73118.086, -208681.56, -1341.9418, 0.05874398, -0.03456319, -73104.805, -24738.105, 0.0, 5.0147324, 4.9260073 
1.5795325e+2, 2.999989e+2, -11421.633, -98747.28, -1302.5292, 0.04692462, -0.033419292, -11402.209, -11402.209, 0.0, 5.0151443, 4.95637 
1.5795818e+2, 3.049584e+2, -13579.38, -88875.17, -2041.226, 0.098140895, -0.058905926, -13524.084, -13524.084, 0.0, 5.0129337, 4.9600015 
1.5796112e+2, 3.0992284e+2, -21121.938, -85972.89, -3004.5579, 0.1384109, -0.070278935, -20983.033, -20983.033, 0.0, 5.0093565, 4.962268 
1.5796259e+2, 3.1489223e+2, -31488.357, -84757.54, -3723.534, 0.16979715, -0.058391005, -31229.34, -31229.34, 0.0, 5.004596, 4.964538 
1.6296336e+2, 1.21521056e+2, -1711182.5, -1749498.9, 878.90063, 0.0054655243, -0.015214438, -1711162.4, 37936.727, 0.0, 5.0145035, 4.9895434 
1.629635e+2, 1.2651221e+2, -1667321.5, -1710677.6, 314.40143, 0.006621891, 0.032659296, -1667319.1, 32865.31, 0.0, 5.014449, 4.9862356 
1.6296306e+2, 1.314966e+2, -1618521.9, -1661780.1, 139.95152, 0.002726812, 0.013413025, -1618521.4, 32815.207, 0.0, 5.014386, 4.9862347 
1.6296263e+2, 1.3648094e+2, -1571930.8, -1617419.5, -35.01804, -0.0011117, -0.004568154, -1571930.6, 30558.262, 0.0, 5.0143228, 4.9847302 
1.6296238e+2, 1.414631e+2, -1529967.4, -1582686.8, -33.426105, -0.0035908984, -0.0019466336, -1529967.4, 23696.01, 0.0, 5.014272, 4.979951 
1.629625e+2, 1.4644353e+2, -1480845.0, -1533377.0, 15.25423, -0.003548599, -0.00064558885, -1480845.0, 24010.963, 0.0, 5.0142474, 4.980046 
1.6296262e+2, 1.5142393e+2, -1431861.3, -1484355.4, 43.245827, -0.0034431734, 0.00030389268, -1431861.3, 24187.418, 0.0, 5.0142226, 4.980046 
1.6296275e+2, 1.5640435e+2, -1384306.4, -1438310.8, 71.12362, -0.0033244945, 0.0017043373, -1384306.3, 22935.26, 0.0, 5.014198, 4.979051 
1.629628e+2, 1.6138087e+2, -1343643.9, -1406808.6, -105.57228, -0.003073127, 0.007977798, -1343643.8, 14828.401, 0.0, 5.014195, 4.9731793 
1.6296262e+2, 1.6635424e+2, -1294338.5, -1357525.4, -169.84459, -0.0025865498, 0.0070876973, -1294338.1, 15395.579, 0.0, 5.0142417, 4.97321 
1.6296244e+2, 1.713276e+2, -1245072.8, -1308333.5, -166.90149, -0.0020786305, 0.0062480085, -1245072.4, 15922.631, 0.0, 5.0142894, 4.97321 
1.6296224e+2, 1.7630097e+2, -1196944.8, -1261547.0, -163.80832, -0.0015534338, 0.005798791, -1196944.4, 15311.957, 0.0, 5.0143375, 4.9724026 
1.6296203e+2, 1.8127063e+2, -1156521.6, -1231072.3, -373.2148, -0.00020646046, 0.011819848, -1156519.8, 7033.9214, 0.0, 5.014374, 4.9660854 
1.6296177e+2, 1.8623656e+2, -1107094.1, -1181396.0, -463.37628, 0.0030858894, 0.0062872944, -1107091.3, 7794.898, 0.0, 5.014378, 4.9662447 
1.6296147e+2, 1.9120249e+2, -1057892.6, -1132193.9, -470.7946, 0.0064822733, 0.00035704498, -1057889.6, 8329.04, 0.0, 5.014381, 4.9662466 
1.6296117e+2, 1.9616841e+2, -1009583.3, -1084908.6, -478.0913, 0.00989759, -0.0052663633, -1009580.25, 7970.7915, 0.0, 5.014383, 4.965598 
1.629609e+2, 2.0113091e+2, -969507.25, -1055226.5, -111.51582, 0.011718574, -0.0018828368, -969507.06, -590.0104, 0.0, 5.0143533, 4.958956 
1.6296063e+2, 2.060903e+2, -920297.94, -1005505.9, 21.921392, 0.009040214, -0.002272999, -920297.9, 15.757417, 0.0, 5.014236, 4.959164 
1.6296038e+2, 2.1104969e+2, -871385.4, -956407.75, 30.586561, 0.0061292984, -0.0027420449, -871385.4, 324.6499, 0.0, 5.014114, 4.959164 
1.629601e+2, 2.1600911e+2, -823137.25, -908762.6, 39.318443, 0.0032465002, -0.0030753603, -823137.25, -30.890406, 0.0, 5.0139914, 4.9586644 
1.6296002e+2, 2.2096466e+2, -784078.4, -881554.0, -208.5504, 0.0034342944, 0.003923664, -784077.94, -9536.834, 0.0, 5.013928, 4.9511027 
1.6296048e+2, 2.2591563e+2, -734346.4, -831763.0, -435.4696, 0.0121690575, -0.0020328371, -734344.44, -8321.67, 0.0, 5.0140095, 4.9512115 
1.6296095e+2, 2.308665e+2, -684743.2, -782296.0, -551.43933, 0.021513559, -0.008839359, -684740.06, -7234.8145, 0.0, 5.0140967, 4.951213 
1.6296142e+2, 2.3581737e+2, -635792.8, -734278.94, -664.3959, 0.030934852, -0.015822884, -635788.3, -6800.473, 0.0, 5.0141835, 4.950713 
1.6296145e+2, 2.4076506e+2, -595460.8, -705666.56, -1342.3574, 0.038748022, -0.008644189, -595444.44, -14943.767, 0.0, 5.0143113, 4.9434385 
1.6296008e+2, 2.4571005e+2, -544386.56, -654150.44, -1532.2222, 0.039637424, -0.0021019378, -544365.2, -12328.307, 0.0, 5.0146265, 4.944009 
1.6295859e+2, 2.5065506e+2, -494028.1, -604365.7, -1561.1879, 0.039906528, 0.0038402444, -494006.03, -10433.46, 0.0, 5.0149565, 4.943993 
1.6295704e+2, 2.5560012e+2, -443925.53, -555155.1, -1588.5238, 0.04028165, 0.010625734, -443902.84, -8795.274, 0.0, 5.015282, 4.943779 
1.6295606e+2, 2.6054016e+2, -405658.1, -533390.8, -2791.106, 0.05129103, 0.023248449, -405597.13, -18903.588, 0.0, 5.015736, 4.933775 
1.6295575e+2, 2.654736e+2, -352761.8, -479514.6, -3506.542, 0.08118434, -0.005538015, -352664.88, -14315.346, 0.0, 5.0162787, 4.9348435 
1.6295505e+2, 2.7040657e+2, -301225.97, -428952.47, -3535.0874, 0.11167879, -0.045676056, -301128.22, -11117.648, 0.0, 5.0167704, 4.9349556 
1.6295394e+2, 2.7533907e+2, -249703.94, -378596.2, -3418.5898, 0.14288054, -0.09465968, -249613.33, -7936.758, 0.0, 5.017246, 4.935021 
1.6295855e+2, 2.8026986e+2, -219738.6, -373340.78, 4241.3613, 0.20083395, -0.064673066, -219621.56, -26266.7, 0.0, 5.017752, 4.9193187 
1.6296437e+2, 2.8519943e+2, -163896.1, -300085.38, 4023.4358, 0.18419996, -0.021862356, -163777.33, -18753.428, 0.0, 5.017108, 4.927516 
1.6296586e+2, 2.9012635e+2, -116987.98, -251946.05, 3984.133, 0.13093309, -0.0362896, -116870.46, -20154.33, 0.0, 5.01613, 4.9273977 
1.62967e+2, 2.950525e+2, -70002.85, -203844.36, 4178.455, 0.08042092, -0.059458543, -69872.52, -21456.832, 0.0, 5.0151057, 4.927279 
1.6296935e+2, 2.9999337e+2, -14097.168, -102445.46, 3521.1743, 0.062377017, -0.071309075, -13957.052, -13957.052, 0.0, 5.014203, 4.9552503 
1.629725e+2, 3.04955e+2, -13030.388, -94436.45, 4457.271, 0.11604227, -0.06849283, -12787.063, -12787.063, 0.0, 5.0132785, 4.9576597 
1.6297373e+2, 3.099208e+2, -13599.97, -89826.7, 5466.374, 0.1702622, -0.058856376, -13209.96, -13209.96, 0.0, 5.0121613, 4.9594483 
1.6297378e+2, 3.148894e+2, -13936.515, -85448.734, 6408.5835, 0.22784412, -0.04378356, -13366.747, -13366.747, 0.0, 5.0109844, 4.9612393 
1.6797785e+2, 1.2152095e+2, -1710405.5, -1747913.8, 870.866, 0.0052114795, -0.022326402, -1710385.4, 38713.734, 0.0, 5.014502, 4.9900646 
1.67978e+2, 1.2651314e+2, -1667651.8, -1711348.1, 263.4495, 0.006999169, 0.037453413, -1667650.1, 32523.695, 0.0, 5.014448, 4.9860163 
1.6797748e+2, 1.3149704e+2, -1618848.6, -1662448.5, 90.68153, 0.0029263513, 0.015587526, -1618848.5, 32483.146, 0.0, 5.0143857, 4.9860153 
1.6797695e+2, 1.3648091e+2, -1572254.3, -1618086.1, -82.59074, -0.0011133766, -0.005020389, -1572254.1, 30235.545, 0.0, 5.0143223, 4.9845104 
1.6797663e+2, 1.4146279e+2, -1529986.6, -1582727.0, -58.615955, -0.0037879134, -0.003924672, -1529986.5, 23680.928, 0.0, 5.014272, 4.979938 
1.6797672e+2, 1.4644332e+2, -1480790.0, -1533264.0, -3.5488162, -0.0038605882, -0.0017336479, -1480790.0, 24068.473, 0.0, 5.014247, 4.9800835 
1.6797681e+2, 1.5142387e+2, -1431806.6, -1484242.9, 25.077858, -0.0038721878, 0.00019052111, -1431806.6, 24243.03, 0.0, 5.0142226, 4.9800835 
1.679769e+2, 1.564044e+2, -1384251.9, -1438198.6, 53.594746, -0.0038776675, 0.0025658687, -1384251.9, 22988.994, 0.0, 5.014198, 4.979089 
1.6797692e+2, 1.61381e+2, -1343623.4, -1406765.5, -82.05048, -0.0038289065, 0.009387438, -1343623.3, 14847.283, 0.0, 5.014195, 4.973194 
1.6797675e+2, 1.6635436e+2, -1294331.8, -1357510.6, -133.42674, -0.0036770992, 0.008230968, -1294331.4, 15400.975, 0.0, 5.014241, 4.973215 
1.6797657e+2, 1.7132771e+2, -1245066.0, -1308318.6, -129.69681, -0.003516915, 0.0071063885, -1245065.8, 15928.335, 0.0, 5.0142894, 4.973215 
1.6797641e+2, 1.7630108e+2, -1196938.1, -1261531.9, -125.822845, -0.003350885, 0.0063716383, -1196937.9, 15317.975, 0.0, 5.0143375, 4.972408 
1.6797622e+2, 1.8127069e+2, -1156524.8, -1231076.9, -362.55014, -0.0022745624, 0.0122239925, -1156522.9, 7030.6157, 0.0, 5.014374, 4.966084 
1.6797592e+2, 1.8623663e+2, -1107105.5, -1181417.9, -460.78482, 0.0009415122, 0.0067999787, -1107102.6, 7783.5615, 0.0, 5.0143776, 4.9662375 
1.6797563e+2, 1.9120257e+2, -1057904.1, -1132215.9, -466.80798, 0.0042526815, 0.0009930505, -1057901.1, 8317.681, 0.0, 5.01438, 4.9662395 
1.6797532e+2, 1.9616848e+2, -1009595.0, -1084930.8, -472.70926, 0.007567627, -0.004504729, -1009592.0, 7959.4067, 0.0, 5.0143824, 4.965591 
1.6797504e+2, 2.0113099e+2, -969491.3, -1055194.8, -179.31116, 0.009424392, -0.0011197063, -969490.94, -573.3949, 0.0, 5.0143538, 4.9589667 
1.679747e+2, 2.0609039e+2, -920277.06, -1005466.2, -71.64625, 0.007223586, -0.0014890131, -920277.0, 36.63723, 0.0, 5.014237, 4.959178 
1.6797435e+2, 2.1104982e+2, -871364.75, -956368.25, -61.30927, 0.0047978843, -0.0018935378, -871364.75, 344.76544, 0.0, 5.0141144, 4.959178 
1.6797401e+2, 2.1600924e+2, -823116.9, -908723.3, -50.89556, 0.002378909, -0.002157931, -823116.9, -11.537996, 0.0, 5.013992, 4.9586782 
1.6797388e+2, 2.2096482e+2, -784196.5, -881797.4, -185.4179, 0.002586959, 0.005233195, -784196.1, -9656.165, 0.0, 5.013926, 4.9510202 
1.6797431e+2, 2.2591579e+2, -734549.4, -832171.3, -360.62592, 0.010229668, 0.0007618338, -734548.06, -8525.216, 0.0, 5.0140038, 4.951073 
1.6797476e+2, 2.308667e+2, -684951.94, -782701.06, -471.71616, 0.018381283, -0.004433445, -684949.7, -7443.083, 0.0, 5.0140886, 4.951076 
1.679752e+2, 2.358176e+2, -636007.4, -734680.9, -579.7983, 0.026567217, -0.009771227, -636004.0, -7013.533, 0.0, 5.0141726, 4.9505777 
1.679753e+2, 2.4076524e+2, -595598.6, -705790.9, -1142.92, 0.033630468, -0.0019447717, -595586.8, -15082.3545, 0.0, 5.0142837, 4.943405 
1.6797438e+2, 2.4570991e+2, -544445.1, -654063.9, -1297.1978, 0.03589021, 0.0012510738, -544429.75, -12388.018, 0.0, 5.014593, 4.94405 
1.6797334e+2, 2.5065458e+2, -494076.1, -604268.06, -1319.6111, 0.037680577, 0.0034090516, -494060.3, -10481.729, 0.0, 5.0149264, 4.944035 
1.6797224e+2, 2.5559932e+2, -443963.06, -555046.5, -1340.4054, 0.039509263, 0.006342991, -443946.9, -8832.126, 0.0, 5.0152555, 4.9438224 
1.6797164e+2, 2.605392e+2, -406063.03, -533951.8, -2259.1436, 0.049994152, 0.018275142, -406023.13, -19321.332, 0.0, 5.0156813, 4.93359 
1.6797167e+2, 2.6547363e+2, -353512.9, -480114.97, -2708.962, 0.07414746, -0.00016639158, -353454.97, -15098.453, 0.0, 5.0161138, 4.93467 
1.6797127e+2, 2.7040786e+2, -302276.66, -429453.0, -2599.8547, 0.09775765, -0.027546462, -302223.53, -12209.443, 0.0, 5.0164967, 4.9348507 
1.6797046e+2, 2.7534184e+2, -251053.23, -378996.1, -2345.6685, 0.121113226, -0.062104177, -251010.23, -9335.615, 0.0, 5.0168633, 4.934984 
1.679747e+2, 2.8027424e+2, -219528.92, -374282.7, 3231.6377, 0.17411697, -0.012761647, -219461.47, -26118.6, 0.0, 5.0179253, 4.919022 
1.6797984e+2, 2.8520307e+2, -160623.88, -297372.9, 3052.5325, 0.16348477, 0.016793136, -160555.77, -15544.063, 0.0, 5.0176997, 4.928463 
1.6798094e+2, 2.901286e+2, -114003.5, -248951.23, 3208.076, 0.11547194, -0.022321986, -113927.28, -17219.482, 0.0, 5.016616, 4.9284616 
1.6798164e+2, 2.9505357e+2, -67306.77, -200567.1, 3596.956, 0.06886531, -0.06977603, -67209.76, -18799.752, 0.0, 5.0154862, 4.9284606 
1.679831e+2, 2.999938e+2, -12626.945, -100930.414, 3147.7864, 0.048385292, -0.0964297, -12514.877, -12514.877, 0.0, 5.014463, 4.955823 
1.6798328e+2, 3.0496266e+2, -11294.012, -91670.8, 4549.458, 0.07582444, -0.03596198, -11037.324, -11037.324, 0.0, 5.0134287, 4.9586754 
1.679812e+2, 3.0993763e+2, -12443.862, -88144.18, 6178.9663, 0.09776538, 0.050297152, -11942.826, -11942.826, 0.0, 5.0122356, 4.960199 
1.6797781e+2, 3.1491557e+2, -13361.231, -84848.24, 7742.015, 0.11921716, 0.14787911, -12532.384, -12532.384, 0.0, 5.0109825, 4.9617248 
1.7299233e+2, 1.21520795e+2, -1709563.6, -1746194.8, 862.2875, 0.0049545234, -0.02977409, -1709543.3, 39556.25, 0.0, 5.014501, 4.99063 
1.729925e+2, 1.2651408e+2, -1667982.8, -1712018.3, 212.79387, 0.0073907035, 0.042301353, -1667981.6, 32181.535, 0.0, 5.014447, 4.9857965 
1.7299189e+2, 1.314975e+2, -1619176.1, -1663116.4, 41.70811, 0.0031387592, 0.017794676, -1619176.1, 32150.53, 0.0, 5.0143847, 4.985796 
1.7299128e+2, 1.3648088e+2, -1572578.5, -1618752.3, -129.86661, -0.0011035713, -0.0054611443, -1572578.1, 29912.254, 0.0, 5.0143223, 4.984291 
1.7299089e+2, 1.4146245e+2, -1530009.9, -1582774.8, -83.802414, -0.003982137, -0.0058870553, -1530009.8, 23661.854, 0.0, 5.0142717, 4.9799223 
1.7299093e+2, 1.4644313e+2, -1480735.4, -1533150.9, -22.27574, -0.0041724606, -0.00281054, -1480735.4, 24125.75, 0.0, 5.014247, 4.980121 
1.7299098e+2, 1.514238e+2, -1431752.3, -1484130.1, 6.9859996, -0.0043016775, 0.00007830028, -1431752.3, 24298.412, 0.0, 5.0142226, 4.980121 
1.7299104e+2, 1.5640447e+2, -1384197.8, -1438086.4, 36.141983, -0.0044319076, 0.0034185345, -1384197.8, 23042.504, 0.0, 5.014198, 4.9791265 
1.7299104e+2, 1.6138117e+2, -1343606.0, -1406728.8, -58.681564, -0.004582836, 0.010807868, -1343605.9, 14862.949, 0.0, 5.014195, 4.973206 
1.7299089e+2, 1.6635449e+2, -1294325.1, -1357495.9, -97.11989, -0.0047657895, 0.009383419, -1294324.9, 15406.163, 0.0, 5.014241, 4.9732203 
1.7299072e+2, 1.7132781e+2, -1245059.5, -1308303.5, -92.603134, -0.0049541774, 0.007963429, -1245059.4, 15933.838, 0.0, 5.0142894, 4.9732203 
1.7299058e+2, 1.7630115e+2, -1196931.6, -1261516.6, -87.94838, -0.0051481505, 0.006932629, -1196931.5, 15323.796, 0.0, 5.014337, 4.972413 
1.7299038e+2, 1.8127075e+2, -1156531.1, -1231088.0, -351.8949, -0.0043464554, 0.012649876, -1156529.5, 7023.893, 0.0, 5.0143733, 4.96608 
1.729901e+2, 1.862367e+2, -1107117.1, -1181439.6, -458.18658, -0.0012071512, 0.007326673, -1107114.3, 7771.8545, 0.0, 5.0143776, 4.9662304 
1.7298979e+2, 1.9120263e+2, -1057916.0, -1132237.8, -462.81458, 0.0020194966, 0.0016187248, -1057913.0, 8305.962, 0.0, 5.0143795, 4.9662323 
1.7298949e+2, 1.9616856e+2, -1009607.06, -1084952.6, -467.3204, 0.005234765, -0.0037777664, -1009604.1, 7947.6733, 0.0, 5.014382, 4.9655833 
1.7298917e+2, 2.0113108e+2, -969486.3, -1055186.0, -246.1752, 0.0071341973, -0.00031042524, -969485.6, -567.68884, 0.0, 5.0143538, 4.9589696 
1.7298877e+2, 2.0609048e+2, -920256.7, -1005426.1, -165.25665, 0.005410242, -0.0006459167, -920256.4, 57.239883, 0.0, 5.0142374, 4.9591913 
1.7298834e+2, 2.1104993e+2, -871344.6, -956328.4, -153.24786, 0.003466599, -0.0010136578, -871344.3, 364.6095, 0.0, 5.014115, 4.9591913 
1.7298792e+2, 2.1600936e+2, -823096.94, -908683.6, -141.15234, 0.0015082909, -0.0012368655, -823096.7, 7.5468483, 0.0, 5.0139923, 4.9586916 
1.7298773e+2, 2.2096497e+2, -784322.6, -882056.6, -165.59843, 0.0017531688, 0.00654825, -784322.3, -9783.516, 0.0, 5.0139236, 4.9509315 
1.7298813e+2, 2.2591595e+2, -734753.75, -832578.6, -288.11752, 0.008304952, 0.003492371, -734752.9, -8729.909, 0.0, 5.0139976, 4.950934 
1.7298855e+2, 2.3086688e+2, -685162.06, -783105.2, -394.3275, 0.015258651, -0.00018534756, -685160.44, -7652.4385, 0.0, 5.01408, 4.950938 
1.7298898e+2, 2.3581779e+2, -636223.3, -735081.9, -497.53464, 0.022204196, -0.0039710673, -636220.8, -7227.619, 0.0, 5.0141616, 4.9504414 
1.7298914e+2, 2.4076544e+2, -595780.1, -706000.3, -967.4234, 0.028495414, 0.0050102705, -595771.6, -15263.683, 0.0, 5.0142555, 4.9433403 
1.7298865e+2, 2.457098e+2, -544510.25, -653970.9, -1066.3213, 0.032134768, 0.0050694905, -544499.9, -12453.65, 0.0, 5.0145597, 4.9440894 
1.7298807e+2, 2.5065413e+2, -494130.7, -604164.06, -1082.182, 0.03546934, 0.003340478, -494120.06, -10535.799, 0.0, 5.014896, 4.9440765 
1.7298743e+2, 2.5559855e+2, -444007.22, -554931.56, -1096.4344, 0.03877453, 0.0023200617, -443996.38, -8874.661, 0.0, 5.0152283, 4.9438653 
1.7298722e+2, 2.6053822e+2, -406555.75, -534659.56, -1794.439, 0.049215868, 0.012588255, -406530.63, -19819.527, 0.0, 5.015627, 4.933335 
1.7298745e+2, 2.6547343e+2, -354291.63, -480694.2, -2018.2087, 0.067601204, 0.0017373554, -354259.4, -15893.618, 0.0, 5.0159483, 4.9344597 
1.729872e+2, 2.704088e+2, -303354.66, -429931.9, -1771.3176, 0.08405486, -0.015531968, -303329.88, -13309.102, 0.0, 5.016223, 4.9347086 
1.7298649e+2, 2.7534413e+2, -252429.52, -379374.0, -1379.3157, 0.09929183, -0.03831015, -252414.53, -10737.875, 0.0, 5.0164814, 4.9349103 
1.7299105e+2, 2.802787e+2, -220959.14, -378985.8, 3081.9998, 0.14876367, 0.041932873, -220899.06, -27569.4, 0.0, 5.0181, 4.9173956 
1.7299598e+2, 2.8520715e+2, -157427.02, -294591.9, 1870.737, 0.14437848, 0.06574623, -157401.52, -12406.783, 0.0, 5.0182915, 4.9293747 
1.7299652e+2, 2.901312e+2, -111093.914, -245887.77, 2220.7996, 0.10054748, -0.001721228, -111057.336, -14361.301, 0.0, 5.017102, 4.929491 
1.7299663e+2, 2.9505482e+2, -64685.113, -197221.08, 2803.888, 0.05677391, -0.07712449, -64625.824, -16223.593, 0.0, 5.0158663, 4.929607 
1.7299716e+2, 2.9999387e+2, -11787.681, -100635.555, 2843.3206, 0.034962457, -0.12365714, -11696.781, -11696.781, 0.0, 5.014723, 4.9558945 
1.7299482e+2, 3.0496925e+2, -9650.801, -88817.945, 4969.6533, 0.04354825, -0.018321216, -9340.055, -9340.055, 0.0, 5.0135784, 4.9595413 
1.7298983e+2, 3.099528e+2, -11381.713, -86373.914, 7220.266, 0.04077898, 0.12974955, -10692.871, -10692.871, 0.0, 5.01231, 4.9607997 
1.729834e+2, 3.1493944e+2, -12881.089, -84159.695, 9405.276, 0.033657826, 0.29505092, -11660.941, -11660.941, 0.0, 5.010981, 4.96206 
1.7800684e+2, 1.21520616e+2, -1708915.9, -1744475.8, 812.3379, 0.004713907, -0.037417904, -1708897.3, 40202.996, 0.0, 5.0144153, 4.9912367 
1.7800698e+2, 1.26515e+2, -1668475.0, -1712765.4, 128.76518, 0.007807903, 0.04706078, -1668474.6, 31678.11, 0.0, 5.0143924, 4.9855776 
1.7800629e+2, 1.3149793e+2, -1619575.0, -1663816.9, -28.461332, 0.0033679497, 0.019965064, -1619574.9, 31746.822, 0.0, 5.0143604, 4.9855766 
1.780056e+2, 1.3648085e+2, -1572896.3, -1619412.5, -185.37602, -0.0010795558, -0.005886609, -1572895.5, 29595.494, 0.0, 5.0143237, 4.9840717 
1.7800514e+2, 1.4146215e+2, -1529987.5, -1582805.6, -109.3827, -0.0041682404, -0.007786139, -1529987.3, 23688.291, 0.0, 5.0142884, 4.979904 
1.7800516e+2, 1.4644292e+2, -1480638.6, -1533017.4, -44.15279, -0.0044779363, -0.003846282, -1480638.5, 24225.174, 0.0, 5.0142612, 4.980159 
1.7800517e+2, 1.5142374e+2, -1431668.0, -1484003.3, -17.467384, -0.0047223647, -0.00002231267, -1431668.0, 24383.643, 0.0, 5.0142326, 4.980159 
1.7800519e+2, 1.5640453e+2, -1384130.4, -1437967.9, 9.028597, -0.0049727657, 0.0042532985, -1384130.4, 23109.28, 0.0, 5.0142026, 4.9791636 
1.7800517e+2, 1.6138132e+2, -1343600.0, -1406701.8, -45.964817, -0.005317598, 0.012217074, -1343599.9, 14867.343, 0.0, 5.014192, 4.9732165 
1.7800504e+2, 1.6635461e+2, -1294358.0, -1357499.0, -67.49355, -0.0058389846, 0.010525893, -1294357.9, 15371.932, 0.0, 5.014228, 4.9732256 
1.7800488e+2, 1.7132792e+2, -1245131.4, -1308325.3, -58.475925, -0.0063762707, 0.008804015, -1245131.4, 15861.024, 0.0, 5.014262, 4.9732256 
1.7800473e+2, 1.7630123e+2, -1197049.9, -1261560.3, -49.660973, -0.006926034, 0.007471202, -1197049.9, 15205.012, 0.0, 5.014294, 4.9724183 
1.7800456e+2, 1.8127082e+2, -1156693.0, -1231177.9, -337.0756, -0.006400104, 0.013091208, -1156691.5, 6861.661, 0.0, 5.014321, 4.966074 
1.7800425e+2, 1.8623677e+2, -1107254.8, -1181521.3, -452.4388, -0.0033454816, 0.007867079, -1107252.0, 7634.0957, 0.0, 5.0143337, 4.966223 
1.7800395e+2, 1.9120272e+2, -1058038.1, -1132312.4, -458.89102, -0.00020435239, 0.0022394334, -1058035.4, 8183.8633, 0.0, 5.0143414, 4.966224 
1.7800365e+2, 1.9616865e+2, -1009727.5, -1085026.6, -466.83093, 0.0029165521, -0.0030752365, -1009724.6, 7827.5664, 0.0, 5.014344, 4.965575 
1.7800331e+2, 2.0113117e+2, -969599.44, -1055251.4, -320.99673, 0.004869847, 0.00055648934, -969598.2, -679.88495, 0.0, 5.0143175, 4.9589643 
1.7800282e+2, 2.0609058e+2, -920321.2, -1005426.1, -273.22363, 0.003616085, 0.00026605852, -920320.3, -6.750746, 0.0, 5.014209, 4.9592047 
1.7800233e+2, 2.1105005e+2, -871399.94, -956323.9, -265.49838, 0.002152545, -0.00009481034, -871399.1, 309.25366, 0.0, 5.0140896, 4.959204 
1.7800185e+2, 2.1600951e+2, -823158.44, -908681.7, -257.42752, 0.00066089036, -0.0003076007, -823157.6, -54.446854, 0.0, 5.0139647, 4.958705 
1.7800157e+2, 2.2096512e+2, -784552.75, -882376.44, -176.01952, 0.0009683051, 0.007867305, -784552.44, -10014.719, 0.0, 5.013888, 4.9508367 
1.7800194e+2, 2.2591612e+2, -735072.8, -833040.5, -238.9182, 0.006426559, 0.006147952, -735072.25, -9049.107, 0.0, 5.0139523, 4.950793 
1.7800233e+2, 2.3086704e+2, -685523.56, -783582.94, -340.68958, 0.012185021, 0.0038835, -685522.4, -8012.842, 0.0, 5.014019, 4.950798 
1.7800273e+2, 2.35818e+2, -636646.5, -735583.94, -446.47235, 0.017905606, 0.0015439226, -636644.44, -7648.4243, 0.0, 5.0140786, 4.9503016 
1.7800294e+2, 2.4076565e+2, -596254.06, -706425.9, -859.3732, 0.023433764, 0.012177897, -596247.4, -15735.978, 0.0, 5.01414, 4.9432406 
1.7800288e+2, 2.4570975e+2, -544854.25, -654016.75, -926.74896, 0.02850882, 0.009361769, -544846.4, -12795.93, 0.0, 5.0144305, 4.944124 
1.7800277e+2, 2.5065374e+2, -494525.13, -604223.0, -978.9054, 0.03349381, 0.0036915094, -494516.38, -10926.61, 0.0, 5.014748, 4.9441133 
1.7800261e+2, 2.5559777e+2, -444485.53, -555018.3, -1023.6706, 0.03841903, -0.0013523959, -444476.03, -9347.481, 0.0, 5.01505, 4.9439044 
1.7800285e+2, 2.6053706e+2, -407902.25, -535989.06, -1725.4667, 0.049531482, 0.0063502328, -407879.03, -21157.344, 0.0, 5.01532, 4.9329634 
1.7800316e+2, 2.6547283e+2, -357252.0, -482563.78, -2694.6206, 0.06289252, 0.00049587246, -357194.1, -18815.49, 0.0, 5.015059, 4.934091 
1.7800291e+2, 2.7040914e+2, -308663.88, -432746.22, -3737.1692, 0.07304889, -0.009371604, -308551.44, -18517.879, 0.0, 5.0145006, 4.934363 
1.780022e+2, 2.753455e+2, -260695.22, -383380.8, -5079.1514, 0.08134065, -0.02331645, -260485.3, -18797.252, 0.0, 5.013704, 4.9345884 
1.780078e+2, 2.8028253e+2, -233257.23, -391408.25, -2129.1787, 0.12976414, 0.098614536, -233228.58, -39905.39, 0.0, 5.0149574, 4.914457 
1.7801292e+2, 2.852111e+2, -160964.55, -294141.94, -3851.0498, 0.130387, 0.124134995, -160853.28, -15873.998, 0.0, 5.016425, 4.9303784 
1.7801267e+2, 2.9013377e+2, -112385.93, -244226.39, -2051.1223, 0.08830891, 0.025270134, -112354.03, -15669.037, 0.0, 5.016051, 4.930559 
1.7801195e+2, 2.9505607e+2, -64636.77, -194739.13, -460.3162, 0.045386594, -0.080792524, -64635.14, -16240.594, 0.0, 5.0153103, 4.9307413 
1.7801161e+2, 2.9999346e+2, -13537.711, -102695.78, 447.12656, 0.022939336, -0.15111445, -13535.469, -13535.469, 0.0, 5.0142937, 4.9553227 
1.780072e+2, 3.049743e+2, -11468.501, -87973.42, 1780.2499, 0.020801656, -0.014767934, -11427.098, -11427.098, 0.0, 5.012568, 4.959963 
1.7799976e+2, 3.099653e+2, -16653.883, -87808.695, 2956.7976, 0.0026262472, 0.17565708, -16531.227, -16531.227, 0.0, 5.0101743, 4.9609327 
1.7799078e+2, 3.1495917e+2, -23006.129, -88424.57, 4379.813, -0.022939632, 0.38590625, -22714.2, -22714.2, 0.0, 5.0072217, 4.9619045 
1.8302092e+2, 1.215217e+2, -1709628.3, -1744032.8, 295.18347, 0.003770857, -0.028503118, -1709625.8, 39463.297, 0.0, 5.014006, 4.991584 
1.8302128e+2, 1.26514e+2, -1669327.1, -1713429.1, -203.53017, 0.008177757, 0.03583868, -1669326.3, 30835.17, 0.0, 5.01416, 4.9854746 
1.8302067e+2, 1.314974e+2, -1619805.6, -1664171.5, -223.60509, 0.003572279, 0.014362397, -1619804.5, 31521.902, 0.0, 5.0143337, 4.9854736 
1.8302004e+2, 1.3648078e+2, -1572497.6, -1619456.5, -244.08887, -0.0010063319, -0.005869928, -1572496.4, 29995.271, 0.0, 5.0145063, 4.983969 
1.830196e+2, 1.4146234e+2, -1529041.6, -1582358.3, -151.1387, -0.0042185676, -0.0043361047, -1529041.3, 24632.563, 0.0, 5.0146074, 4.9798975 
1.8301956e+2, 1.4644302e+2, -1479717.1, -1532528.1, -123.26129, -0.004581199, -0.0015356824, -1479716.9, 25145.992, 0.0, 5.0145617, 4.980176 
1.8301955e+2, 1.5142372e+2, -1430815.0, -1483549.3, -121.228035, -0.0048538866, 0.0010067592, -1430814.8, 25237.012, 0.0, 5.014511, 4.980176 
1.8301952e+2, 1.564044e+2, -1383340.8, -1437546.5, -119.320984, -0.0051184404, 0.004002449, -1383340.5, 23900.152, 0.0, 5.0144606, 4.979181 
1.8301944e+2, 1.6138113e+2, -1342940.5, -1406306.0, -171.37997, -0.0055460245, 0.011067714, -1342940.0, 15528.92, 0.0, 5.0143986, 4.97325 
1.8301925e+2, 1.6635446e+2, -1294047.8, -1357262.6, -154.83159, -0.006314199, 0.0093522975, -1294047.4, 15683.674, 0.0, 5.014314, 4.9732633 
1.8301904e+2, 1.713278e+2, -1245174.6, -1308260.1, -109.18493, -0.0070734415, 0.00764569, -1245174.4, 15818.651, 0.0, 5.0142293, 4.9732633 
1.8301885e+2, 1.7630115e+2, -1197436.6, -1261660.6, -63.481735, -0.007813323, 0.0063331285, -1197436.6, 14818.472, 0.0, 5.014144, 4.972456 
1.8301862e+2, 1.8127081e+2, -1157319.0, -1231469.6, -274.6973, -0.007633077, 0.012277176, -1157318.0, 6234.785, 0.0, 5.014105, 4.9660773 
1.8301831e+2, 1.8623684e+2, -1107724.1, -1181776.8, -381.28894, -0.0052753543, 0.008156697, -1107722.3, 7163.116, 0.0, 5.0141783, 4.9662094 
1.8301798e+2, 1.9120288e+2, -1058299.9, -1132473.0, -396.02213, -0.0027993617, 0.0036708498, -1058297.8, 7920.213, 0.0, 5.014257, 4.9662094 
1.8301766e+2, 1.9616891e+2, -1009769.44, -1085087.4, -410.33975, -0.00030051213, -0.0005042119, -1009767.2, 7783.361, 0.0, 5.014335, 4.965559 
1.830173e+2, 2.0113146e+2, -969479.0, -1055267.3, -346.58734, 0.0014006995, 0.0037182607, -969477.6, -560.9091, 0.0, 5.014371, 4.958934 
1.830168e+2, 2.0609078e+2, -920122.94, -1005411.2, -384.89368, 0.0008305474, 0.0026119973, -920121.25, 191.85013, 0.0, 5.014291, 4.959171 
1.8301629e+2, 2.1105012e+2, -871107.75, -956263.4, -440.28897, 0.00015698069, 0.0013627709, -871105.5, 603.6139, 0.0, 5.0142045, 4.9591713 
1.8301576e+2, 2.1600947e+2, -822757.6, -908569.2, -495.82178, -0.00048821722, 0.00025881384, -822754.75, 350.34833, 0.0, 5.0141172, 4.958672 
1.8301545e+2, 2.2096501e+2, -783999.06, -882070.06, -313.8287, 0.00005411486, 0.00796824, -783998.06, -9457.864, 0.0, 5.0140667, 4.95086 
1.8301572e+2, 2.2591615e+2, -734566.0, -832748.9, -114.06203, 0.0038587821, 0.00730755, -734565.9, -8541.449, 0.0, 5.0141096, 4.9508233 
1.83016e+2, 2.3086724e+2, -685073.3, -783335.7, 25.828497, 0.007918283, 0.006238241, -685073.25, -7563.7896, 0.0, 5.014157, 4.9508233 
1.8301629e+2, 2.358183e+2, -636233.0, -735371.56, 168.49431, 0.012019247, 0.005099383, -636232.7, -7238.037, 0.0, 5.0142035, 4.9503217 
1.8301651e+2, 2.4076602e+2, -595720.0, -706333.7, 151.95479, 0.016417671, 0.016402317, -595719.8, -15210.288, 0.0, 5.0143228, 4.943205 
1.8301688e+2, 2.457099e+2, -543852.06, -653725.56, 185.00304, 0.022168912, 0.011791737, -543851.75, -11800.877, 0.0, 5.0147715, 4.944091 
1.8301725e+2, 2.5065365e+2, -493054.0, -603692.6, 102.00028, 0.028275184, 0.003941904, -493053.9, -9461.209, 0.0, 5.015249, 4.944089 
1.8301761e+2, 2.555974e+2, -442515.56, -554236.9, 18.31738, 0.034600496, -0.0034013796, -442515.53, -7381.489, 0.0, 5.01572, 4.9438887 
1.8301839e+2, 2.6053652e+2, -405365.47, -535645.06, -338.51874, 0.046985388, 0.00374777, -405364.6, -18635.246, 0.0, 5.016284, 4.9326825 
1.8301916e+2, 2.6547253e+2, -353254.84, -483204.75, -310.50555, 0.062410902, 0.0063326294, -353254.1, -14866.068, 0.0, 5.016704, 4.9332337 
1.8301938e+2, 2.704086e+2, -302279.34, -433332.56, 120.26511, 0.076083265, 0.0048769847, -302279.25, -12230.081, 0.0, 5.017038, 4.933193 
1.8301913e+2, 2.753442e+2, -251328.66, -383644.22, 714.2813, 0.08921395, -0.0019905106, -251324.8, -9610.154, 0.0, 5.0173445, 4.9331045 
1.8302493e+2, 2.8028074e+2, -223470.31, -387644.97, 7899.125, 0.13421512, 0.12985748, -223091.13, -29733.242, 0.0, 5.018431, 4.9140058 
1.8302894e+2, 2.8521013e+2, -156349.2, -287657.97, 3897.2751, 0.12574416, 0.15049608, -156233.64, -11229.984, 0.0, 5.017339, 4.931745 
1.8302742e+2, 2.9013345e+2, -113145.99, -241345.3, 2763.9734, 0.08164971, 0.04117026, -113086.43, -16386.137, 0.0, 5.015089, 4.9315968 
1.8302551e+2, 2.9505628e+2, -69855.234, -195036.44, 1812.1652, 0.038834948, -0.07341684, -69829.01, -21427.02, 0.0, 5.0127864, 4.931448 
1.8302388e+2, 2.9999378e+2, -22093.531, -107994.71, 1255.6815, 0.014862853, -0.14983858, -22075.18, -22075.18, 0.0, 5.010957, 4.9547243 
1.8301785e+2, 3.0497524e+2, -17231.912, -93765.42, 1901.8965, 0.003967181, -0.0061053582, -17184.678, -17184.678, 0.0, 5.010282, 4.9586496 
1.8300886e+2, 3.0996567e+2, -17744.43, -91816.04, 2730.7588, -0.020061864, 0.1764739, -17643.893, -17643.893, 0.0, 5.009476, 4.959454 
1.8299842e+2, 3.14957e+2, -18136.443, -89987.47, 3869.2542, -0.04846503, 0.35657495, -17928.68, -17928.68, 0.0, 5.0086007, 4.9602575 
1.8803476e+2, 1.215236e+2, -1709364.0, -1743488.6, 240.71652, 0.0018939952, -0.008443345, -1709362.3, 39707.586, 0.0, 5.014005, 4.9917636 
1.8803544e+2, 1.265117e+2, -1669363.6, -1713496.0, -75.26637, 0.008307707, 0.013738985, -1669363.5, 30819.719, 0.0, 5.0141587, 4.985453 
1.88035e+2, 1.3149619e+2, -1619841.1, -1664238.5, -93.71117, 0.003676676, 0.0034714558, -1619841.0, 31496.732, 0.0, 5.0143323, 4.985452 
1.8803455e+2, 1.3648066e+2, -1572532.3, -1619523.6, -112.60385, -0.00095184107, -0.0055554397, -1572531.9, 29960.416, 0.0, 5.014506, 4.9839473 
1.880342e+2, 1.4146288e+2, -1529040.5, -1582355.0, -156.58983, -0.004251581, 0.0027514207, -1529040.0, 24628.068, 0.0, 5.0146074, 4.979899 
1.8803412e+2, 1.464433e+2, -1479711.3, -1532515.9, -161.63745, -0.0046276636, 0.0030485247, -1479710.8, 25148.86, 0.0, 5.0145617, 4.9801803 
1.8803404e+2, 1.5142374e+2, -1430809.1, -1483537.3, -159.03432, -0.0049077496, 0.0027963948, -1430808.6, 25242.627, 0.0, 5.014511, 4.9801803 
1.8803397e+2, 1.5640414e+2, -1383334.9, -1437534.6, -156.54918, -0.0051860227, 0.0029985567, -1383334.5, 23908.514, 0.0, 5.01446, 4.979185 
1.8803385e+2, 1.6138071e+2, -1342872.1, -1406162.8, -231.18625, -0.005651408, 0.008164823, -1342871.3, 15601.55, 0.0, 5.0143986, 4.973298 
1.8803355e+2, 1.6635409e+2, -1293963.0, -1357084.9, -219.57204, -0.006526956, 0.006582259, -1293962.3, 15771.702, 0.0, 5.014314, 4.9733233 
1.8803325e+2, 1.7132753e+2, -1245090.1, -1308082.6, -173.09006, -0.007409573, 0.0050866297, -1245089.8, 15905.169, 0.0, 5.0142293, 4.9733233 
1.8803295e+2, 1.7630094e+2, -1197352.5, -1261483.3, -126.54046, -0.008284552, 0.003983605, -1197352.3, 14903.501, 0.0, 5.014144, 4.9725156 
1.8803266e+2, 1.8127072e+2, -1157308.3, -1231446.5, -246.336, -0.008545301, 0.01053427, -1157307.4, 6245.1123, 0.0, 5.0141044, 4.9660854 
1.880323e+2, 1.8623693e+2, -1107747.8, -1181825.9, -320.1428, -0.007264439, 0.008245268, -1107746.4, 7137.662, 0.0, 5.014178, 4.966193 
1.8803194e+2, 1.9120315e+2, -1058323.9, -1132521.5, -333.5224, -0.0059025595, 0.005672761, -1058322.4, 7893.388, 0.0, 5.014256, 4.9661937 
1.8803158e+2, 1.9616935e+2, -1009793.75, -1085135.4, -346.4943, -0.0045350012, 0.003413193, -1009792.2, 7755.164, 0.0, 5.014334, 4.9655437 
1.8803121e+2, 2.0113195e+2, -969546.7, -1055406.1, -378.39944, -0.0034113715, 0.008555179, -969545.06, -631.5698, 0.0, 5.01437, 4.958887 
1.8803072e+2, 2.0609106e+2, -920216.8, -1005608.44, -451.63678, -0.0030317823, 0.005967147, -920214.44, 97.7331, 0.0, 5.01429, 4.9591045 
1.8803021e+2, 2.1105017e+2, -871200.4, -956459.8, -505.44382, -0.002688671, 0.00313226, -871197.4, 513.26733, 0.0, 5.0142035, 4.9591045 
1.880297e+2, 2.1600927e+2, -822849.0, -908764.8, -559.3813, -0.0023355242, 0.00044087862, -822845.4, 263.74225, 0.0, 5.014117, 4.9586053 
1.880294e+2, 2.2096471e+2, -783849.1, -881731.56, -303.86752, -0.0015734565, 0.007092015, -783848.2, -9303.0205, 0.0, 5.0140653, 4.950977 
1.8802948e+2, 2.2591612e+2, -734338.6, -832225.6, -67.817375, 0.00019385404, 0.0074083223, -734338.56, -8312.563, 0.0, 5.014106, 4.9510055 
1.880296e+2, 2.308675e+2, -684851.7, -782810.2, 76.16694, 0.0020325305, 0.0075066583, -684851.6, -7344.2446, 0.0, 5.0141516, 4.951007 
1.8802972e+2, 2.3581886e+2, -636017.1, -734843.75, 222.92267, 0.0038741701, 0.0075393436, -636016.6, -7027.786, 0.0, 5.0141964, 4.950507 
1.880299e+2, 2.4076673e+2, -595694.4, -706118.75, 390.05618, 0.006414808, 0.018854946, -595693.0, -15191.235, 0.0, 5.0142994, 4.9432864 
1.8803066e+2, 2.4571045e+2, -543973.1, -653794.3, 521.5346, 0.011557625, 0.012568177, -543970.6, -11924.412, 0.0, 5.0147405, 4.9440775 
1.8803145e+2, 2.50654e+2, -493172.5, -603760.75, 445.86823, 0.017087854, 0.0032153393, -493170.7, -9579.358, 0.0, 5.0152183, 4.9440746 
1.8803221e+2, 2.5559762e+2, -442631.5, -554304.3, 369.5053, 0.022777539, -0.0055899676, -442630.28, -7494.3257, 0.0, 5.0156903, 4.943874 
1.880334e+2, 2.6053694e+2, -405008.84, -534377.9, 281.95966, 0.033580426, 0.0016015932, -405008.22, -18277.48, 0.0, 5.0162144, 4.9331555 
1.8803456e+2, 2.654742e+2, -353172.6, -481719.53, 563.4236, 0.044968635, 0.013491715, -353170.13, -14792.858, 0.0, 5.0165224, 4.9338307 
1.880351e+2, 2.7041188e+2, -302429.84, -431573.84, 1126.7411, 0.052919436, 0.023407599, -302420.03, -12396.502, 0.0, 5.0167522, 4.9339037 
1.880351e+2, 2.7534926e+2, -251712.06, -381612.16, 1853.2164, 0.058700033, 0.028719077, -251685.63, -10013.495, 0.0, 5.0169544, 4.933929 
1.8804032e+2, 2.802867e+2, -221885.08, -383903.7, 8227.025, 0.08577945, 0.15768042, -221468.4, -28161.5, 0.0, 5.018418, 4.915384 
1.8804282e+2, 2.8521484e+2, -155853.64, -288869.84, 2433.811, 0.07991016, 0.16562892, -155809.13, -10842.298, 0.0, 5.017654, 4.931394 
1.8804015e+2, 2.9013702e+2, -112698.48, -242154.23, 1482.9237, 0.049276043, 0.051472474, -112681.49, -16005.311, 0.0, 5.0153637, 4.931361 
1.8803704e+2, 2.9505873e+2, -69457.266, -195443.39, 713.7293, 0.01826646, -0.06882541, -69453.22, -21062.887, 0.0, 5.01302, 4.931329 
1.8803401e+2, 2.9999563e+2, -20638.717, -104770.664, 1032.7372, -0.0016766059, -0.15179013, -20626.041, -20626.041, 0.0, 5.011071, 4.9559193 
1.8802604e+2, 3.0497813e+2, -16869.588, -90667.9, 2553.5376, -0.031374082, -0.0011593142, -16781.338, -16781.338, 0.0, 5.0100584, 4.9600325 
1.8801491e+2, 3.0997053e+2, -18424.57, -88952.9, 3804.9583, -0.08035142, 0.20138305, -18219.889, -18219.889, 0.0, 5.008926, 4.9608965 
1.8800212e+2, 3.149645e+2, -19860.389, -87358.1, 5366.3145, -0.13838132, 0.40945062, -19436.41, -19436.41, 0.0, 5.007724, 4.96176 
1.9304858e+2, 1.2152545e+2, -1709044.1, -1742829.6, 184.8425, -0.000026486076, 0.011208431, -1709043.1, 40008.11, 0.0, 5.014004, 4.99198 
1.9304964e+2, 1.2650937e+2, -1669400.9, -1713562.3, 53.27144, 0.008432359, -0.0083246445, -1669400.9, 30804.262, 0.0, 5.014158, 4.9854317 
1.9304934e+2, 1.3149497e+2, -1619877.4, -1664304.9, 36.45671, 0.0037770018, -0.007399162, -1619877.4, 31471.572, 0.0, 5.0143313, 4.9854302 
1.9304906e+2, 1.3648053e+2, -1572567.5, -1619590.1, 19.155148, -0.0009001961, -0.005236368, -1572567.5, 29925.55, 0.0, 5.014505, 4.9839253 
1.9304882e+2, 1.4146343e+2, -1529043.0, -1582358.5, -161.67252, -0.0042847404, 0.009854424, -1529042.5, 24619.854, 0.0, 5.014607, 4.979898 
1.9304867e+2, 1.4644362e+2, -1479705.6, -1532503.5, -199.93634, -0.0046740416, 0.00764544, -1479704.9, 25151.518, 0.0, 5.0145617, 4.9801846 
1.9304855e+2, 1.5142377e+2, -1430803.5, -1483525.0, -196.76334, -0.004961607, 0.0045895367, -1430802.8, 25248.035, 0.0, 5.014511, 4.980184 
1.9304843e+2, 1.564039e+2, -1383329.4, -1437522.5, -193.70012, -0.0052536796, 0.001988969, -1383328.6, 23916.666, 0.0, 5.01446, 4.979189 
1.9304824e+2, 1.6138028e+2, -1342806.9, -1406025.4, -291.21188, -0.0057536974, 0.005274956, -1342805.5, 15671.237, 0.0, 5.0143986, 4.973344 
1.9304784e+2, 1.6635375e+2, -1293878.5, -1356906.8, -284.36966, -0.0067374934, 0.0038226, -1293877.3, 15859.573, 0.0, 5.014314, 4.973383 
1.9304745e+2, 1.7132725e+2, -1245006.0, -1307904.9, -237.05241, -0.007745443, 0.0025267964, -1245005.1, 15991.532, 0.0, 5.014229, 4.973383 
1.9304706e+2, 1.7630075e+2, -1197268.8, -1261305.8, -189.65645, -0.008757479, 0.0016221565, -1197268.1, 14988.374, 0.0, 5.014144, 4.9725757 
1.9304667e+2, 1.8127063e+2, -1157301.8, -1231431.9, -218.37137, -0.009452685, 0.008811146, -1157301.0, 6251.1855, 0.0, 5.0141044, 4.9660907 
1.9304629e+2, 1.86237e+2, -1107771.9, -1181874.8, -259.25186, -0.0092480555, 0.008348682, -1107771.0, 7111.8853, 0.0, 5.0141773, 4.966177 
1.930459e+2, 1.9120339e+2, -1058348.3, -1132569.8, -271.27783, -0.009002113, 0.0076688663, -1058347.3, 7866.254, 0.0, 5.0142555, 4.9661775 
1.930455e+2, 1.9616976e+2, -1009818.56, -1085183.0, -282.90396, -0.008767669, 0.007304145, -1009817.5, 7726.6694, 0.0, 5.0143337, 4.9655275 
1.9304511e+2, 2.0113245e+2, -969622.75, -1055562.4, -410.53464, -0.008221088, 0.013432277, -969620.8, -710.5793, 0.0, 5.0143685, 4.9588346 
1.9304463e+2, 2.0609134e+2, -920311.1, -1005805.4, -518.28735, -0.0068919356, 0.009370353, -920308.0, 3.2270713, 0.0, 5.014289, 4.9590373 
1.9304414e+2, 2.1105021e+2, -871293.44, -956655.9, -570.50604, -0.005533035, 0.0049228473, -871289.6, 422.53897, 0.0, 5.0142026, 4.959038 
1.9304366e+2, 2.1600911e+2, -822940.8, -908960.1, -622.8481, -0.004182433, 0.0006170843, -822936.3, 176.76077, 0.0, 5.0141163, 4.9585385 
1.930433e+2, 2.2096445e+2, -783709.56, -881413.5, -296.2573, -0.0031914779, 0.006233649, -783708.6, -9158.494, 0.0, 5.0140634, 4.9510865 
1.9304325e+2, 2.259161e+2, -734112.56, -831701.3, -24.080866, -0.0034708823, 0.0074853436, -734112.56, -8084.9717, 0.0, 5.014102, 4.9511867 
1.930432e+2, 2.3086777e+2, -684631.44, -782283.6, 123.99711, -0.0038676036, 0.008679283, -684631.25, -7125.9604, 0.0, 5.014146, 4.9511905 
1.9304314e+2, 2.3581943e+2, -635802.56, -734314.8, 274.8425, -0.0042998604, 0.009811471, -635801.8, -6818.7637, 0.0, 5.0141892, 4.950692 
1.9304326e+2, 2.407675e+2, -595700.1, -705957.4, 607.5521, -0.0035730572, 0.021517199, -595696.75, -15202.922, 0.0, 5.014276, 4.9433475 
1.9304441e+2, 2.4571103e+2, -544103.3, -653854.2, 857.96497, 0.0010050178, 0.013696264, -544096.6, -12055.353, 0.0, 5.0147095, 4.9440627 
1.9304563e+2, 2.5065443e+2, -493300.13, -603819.9, 789.63525, 0.005978532, 0.0027413436, -493294.5, -9704.773, 0.0, 5.015188, 4.94406 
1.9304678e+2, 2.5559783e+2, -442756.56, -554362.8, 720.59247, 0.011051913, -0.007625068, -442751.9, -7614.2925, 0.0, 5.015661, 4.943859 
1.9304843e+2, 2.6053724e+2, -404797.7, -533355.94, 788.5771, 0.020874837, -0.0009757819, -404792.84, -18059.8, 0.0, 5.016145, 4.9335256 
1.9304976e+2, 2.6547572e+2, -353134.34, -480195.2, 1269.843, 0.027399983, 0.018393595, -353121.63, -14753.15, 0.0, 5.0163403, 4.9344015 
1.9305037e+2, 2.704149e+2, -302623.97, -429775.9, 1965.797, 0.028324112, 0.03787059, -302593.56, -12593.174, 0.0, 5.016466, 4.9345884 
1.9305041e+2, 2.7535403e+2, -252138.7, -379540.84, 2824.8176, 0.025449239, 0.053550754, -252076.1, -10443.421, 0.0, 5.016565, 4.9347277 
1.9305566e+2, 2.8029278e+2, -221343.3, -382535.66, 8969.492, 0.038508687, 0.18744566, -220845.72, -27590.623, 0.0, 5.0184054, 4.915922 
1.9305722e+2, 2.8521985e+2, -155441.73, -290001.47, 744.8584, 0.037580654, 0.18743992, -155437.61, -10510.933, 0.0, 5.0179696, 4.9310136 
1.9305329e+2, 2.901408e+2, -112334.58, -242882.23, -23.979177, 0.018779635, 0.06548611, -112334.57, -15684.614, 0.0, 5.0156384, 4.9310966 
1.9304888e+2, 2.950613e+2, -69142.84, -195768.75, -610.9482, -0.0020520578, -0.0634888, -69139.89, -20762.135, 0.0, 5.0132546, 4.9311795 
1.9304453e+2, 2.9999736e+2, -19914.14, -102957.21, 641.7057, -0.016878596, -0.15411568, -19909.182, -19909.182, 0.0, 5.011186, 4.9565525 
1.9303444e+2, 3.0498052e+2, -16616.152, -87463.59, 3084.1804, -0.062151268, -0.0013202431, -16482.143, -16482.143, 0.0, 5.0098352, 4.961338 
1.9302075e+2, 3.099745e+2, -19213.58, -85982.2, 4757.644, -0.1342875, 0.21269548, -18876.275, -18876.275, 0.0, 5.0083766, 4.962262 
1.9300525e+2, 3.149708e+2, -21693.555, -84620.41, 6741.463, -0.22015695, 0.44023746, -20979.436, -20979.436, 0.0, 5.0068474, 4.963186 
1.980624e+2, 1.2152725e+2, -1708682.8, -1742075.6, 83.4926, -0.0019437006, 0.030334929, -1708682.5, 40350.65, 0.0, 5.014001, 4.992229 
1.980638e+2, 1.2650707e+2, -1669455.9, -1713635.8, 141.20831, 0.008558066, -0.030214712, -1669455.4, 30771.477, 0.0, 5.01415, 4.98541 
1.9806369e+2, 1.3149375e+2, -1619958.3, -1664391.1, 138.58849, 0.0038735438, -0.018188737, -1619957.8, 31402.348, 0.0, 5.014315, 4.9854093 
1.9806357e+2, 1.364804e+2, -1572687.3, -1619695.3, 136.90468, -0.00085194653, -0.00492632, -1572686.9, 29806.846, 0.0, 5.014476, 4.9839044 
1.9806342e+2, 1.4146397e+2, -1529168.4, -1582427.1, -170.38388, -0.0043167947, 0.016916541, -1529167.9, 24488.896, 0.0, 5.014567, 4.979894 
1.9806324e+2, 1.464439e+2, -1479818.0, -1532549.0, -245.45012, -0.0047200993, 0.012218031, -1479816.9, 25036.334, 0.0, 5.014522, 4.9801884 
1.9806306e+2, 1.5142378e+2, -1430916.5, -1483570.8, -245.55562, -0.00501445, 0.0063698334, -1430915.4, 25135.01, 0.0, 5.014471, 4.980188 
1.9806288e+2, 1.5640365e+2, -1383446.9, -1437570.4, -245.59552, -0.0053176326, 0.0009773476, -1383445.8, 23801.885, 0.0, 5.014419, 4.9791927 
1.9806263e+2, 1.6137986e+2, -1342863.3, -1405951.8, -369.0053, -0.005846753, 0.0024142547, -1342861.1, 15619.545, 0.0, 5.0143585, 4.9733877 
1.9806214e+2, 1.6635339e+2, -1293885.5, -1356773.3, -371.05127, -0.0069386894, 0.00108833, -1293883.3, 15856.438, 0.0, 5.014283, 4.973442 
1.9806165e+2, 1.7132698e+2, -1244992.0, -1307761.4, -327.71725, -0.008068928, -0.000020032154, -1244990.4, 16008.191, 0.0, 5.0142055, 4.973442 
1.9806115e+2, 1.7630057e+2, -1197241.0, -1261155.6, -284.5196, -0.009210882, -0.0007384139, -1197239.8, 15017.476, 0.0, 5.014125, 4.972635 
1.980607e+2, 1.8127054e+2, -1157351.5, -1231449.4, -224.62128, -0.010326899, 0.007114942, -1157350.9, 6201.118, 0.0, 5.0140867, 4.966093 
1.9806027e+2, 1.862371e+2, -1107863.8, -1181954.1, -227.10991, -0.011200211, 0.008458894, -1107863.1, 7018.508, 0.0, 5.014154, 4.966161 
1.9805986e+2, 1.9120362e+2, -1058466.4, -1132660.8, -232.34831, -0.012067929, 0.009634977, -1058465.6, 7745.6753, 0.0, 5.014223, 4.9661617 
1.9805944e+2, 1.961702e+2, -1009972.3, -1085290.0, -237.46599, -0.012957246, 0.011127502, -1009971.56, 7569.4546, 0.0, 5.0142884, 4.9655123 
1.9805901e+2, 2.0113295e+2, -969853.9, -1055803.5, -452.87848, -0.012980202, 0.01829732, -969851.5, -944.5783, 0.0, 5.014317, 4.9587765 
1.9805855e+2, 2.0609163e+2, -920510.2, -1006050.0, -587.64594, -0.010717726, 0.012781766, -920506.2, -195.94067, 0.0, 5.0142517, 4.9589705 
1.9805807e+2, 2.1105027e+2, -871455.56, -956882.75, -632.12256, -0.008354031, 0.0067079985, -871450.94, 262.71252, 0.0, 5.014178, 4.958971 
1.9805762e+2, 2.1600893e+2, -823076.7, -909174.3, -676.69653, -0.0060094963, 0.00077316817, -823071.4, 45.625183, 0.0, 5.0141006, 4.958472 
1.9805722e+2, 2.2096418e+2, -783616.8, -881133.7, -278.5752, -0.0047758473, 0.0053850836, -783616.0, -9060.888, 0.0, 5.014049, 4.9511886 
1.98057e+2, 2.2591609e+2, -733965.8, -831216.25, 19.423613, -0.0070967134, 0.0075178943, -733965.8, -7936.578, 0.0, 5.014071, 4.9513664 
1.9805677e+2, 2.3086803e+2, -684565.3, -781833.0, 156.32233, -0.009715911, 0.009710231, -684565.06, -7061.763, 0.0, 5.014087, 4.951371 
1.9805655e+2, 2.3581998e+2, -635847.8, -733912.2, 291.2979, -0.012396365, 0.01183277, -635846.94, -6869.491, 0.0, 5.0140915, 4.950874 
1.9805661e+2, 2.4076824e+2, -596109.25, -706040.75, 748.684, -0.01339945, 0.024270186, -596104.2, -15618.274, 0.0, 5.014121, 4.9433827 
1.9805811e+2, 2.4571164e+2, -544757.4, -654170.44, 1089.7178, -0.0093281055, 0.015129969, -544746.5, -12710.319, 0.0, 5.0144973, 4.9440403 
1.9805977e+2, 2.5065482e+2, -494100.03, -604203.8, 971.4661, -0.004869873, 0.00258141, -494091.47, -10503.4795, 0.0, 5.0149245, 4.944037 
1.9806135e+2, 2.555981e+2, -443696.06, -554810.7, 848.10297, -0.00036162257, -0.009318501, -443689.6, -8550.375, 0.0, 5.0153484, 4.943835 
1.9806345e+2, 2.6053742e+2, -405842.13, -533209.44, 805.03143, 0.009213688, -0.0036783707, -405837.03, -19100.543, 0.0, 5.0156965, 4.93375 
1.9806482e+2, 2.6547688e+2, -355552.75, -480011.44, 846.29297, 0.010914216, 0.020921588, -355547.0, -17184.023, 0.0, 5.015327, 4.934851 
1.9806534e+2, 2.7041727e+2, -307410.9, -430380.5, 881.69763, 0.0049867663, 0.04692633, -307404.6, -17421.29, 0.0, 5.0145884, 4.9351187 
1.9806527e+2, 2.7535775e+2, -260064.75, -381267.44, 897.04395, -0.005812115, 0.0691795, -260058.11, -18455.156, 0.0, 5.0135417, 4.935339 
1.9807124e+2, 2.802979e+2, -232403.39, -388033.25, 6891.3384, -0.0011570627, 0.21348597, -232098.83, -38886.58, 0.0, 5.014626, 4.9156613 
1.9807233e+2, 2.852245e+2, -162659.95, -293797.2, -3282.1782, 0.003276405, 0.21173933, -162577.86, -17687.596, 0.0, 5.0155845, 4.9307275 
1.9806698e+2, 2.901444e+2, -116282.23, -244974.56, -3133.837, -0.007100711, 0.08131113, -116205.95, -19580.6, 0.0, 5.014417, 4.930874 
1.9806112e+2, 2.9506385e+2, -71012.414, -196691.06, -3148.4006, -0.020488601, -0.057016786, -70933.59, -22568.43, 0.0, 5.0127754, 4.9310203 
1.980555e+2, 2.99999e+2, -21407.34, -103137.125, -814.8168, -0.029397864, -0.15469427, -21399.217, -21399.217, 0.0, 5.010816, 4.956587 
1.9804317e+2, 3.049823e+2, -21157.791, -85984.69, 3040.717, -0.084925875, -0.0076028476, -21015.477, -21015.477, 0.0, 5.0079255, 4.9625797 
1.980267e+2, 3.0997714e+2, -30943.146, -87091.74, 7008.611, -0.1743031, 0.20274219, -30081.535, -30081.535, 0.0, 5.003854, 4.963666 
1.9800831e+2, 3.1497493e+2, -43265.152, -89451.234, 12739.156, -0.28036013, 0.4318173, -39984.445, -39984.445, 0.0, 4.998757, 4.964755 
2.0307665e+2, 1.2152729e+2, -1708060.0, -1742226.3, -461.2142, -0.0011808573, 0.035716157, -1708053.8, 40977.95, 0.0, 5.0143013, 4.9920325 
2.0307805e+2, 1.2650567e+2, -1668765.3, -1713104.9, -161.96066, 0.008483049, -0.03984406, -1668764.6, 31475.057, 0.0, 5.0143347, 4.985495 
2.0307802e+2, 1.3149287e+2, -1619608.8, -1664024.4, -38.78378, 0.003681175, -0.02346601, -1619608.8, 31758.936, 0.0, 5.014387, 4.985495 
2.0307799e+2, 1.3648006e+2, -1572663.5, -1619484.0, 83.78526, -0.0011437867, -0.0058325855, -1572663.4, 29832.47, 0.0, 5.014439, 4.9839916 
2.0307788e+2, 1.4146395e+2, -1529486.8, -1582585.5, -234.17819, -0.0046969107, 0.018811371, -1529485.8, 24169.861, 0.0, 5.0144606, 4.979893 
2.0307766e+2, 1.4644381e+2, -1480153.8, -1532766.3, -358.2395, -0.0051373662, 0.01347376, -1480151.4, 24701.854, 0.0, 5.0144205, 4.980165 
2.0307742e+2, 1.5142359e+2, -1431225.4, -1483773.5, -391.1118, -0.005452526, 0.0068643056, -1431222.5, 24829.225, 0.0, 5.014378, 4.980165 
2.0307721e+2, 1.5640333e+2, -1383725.3, -1437757.0, -424.03812, -0.00576633, 0.00070663204, -1383722.0, 23528.398, 0.0, 5.0143356, 4.97917 
2.0307688e+2, 1.6137949e+2, -1343026.8, -1405994.0, -582.4535, -0.006244207, 0.0015799861, -1343021.3, 15462.901, 0.0, 5.014295, 4.9734035 
2.0307639e+2, 1.6635306e+2, -1293910.5, -1356723.0, -621.8077, -0.007125949, 0.00013568542, -1293904.4, 15838.653, 0.0, 5.0142617, 4.9734693 
2.0307587e+2, 1.7132665e+2, -1244886.3, -1307648.3, -617.378, -0.008013992, -0.0010728833, -1244880.1, 16121.265, 0.0, 5.0142283, 4.9734693 
2.0307535e+2, 1.7630024e+2, -1196998.0, -1260977.3, -612.9962, -0.0088892095, -0.0018889147, -1196992.1, 15267.607, 0.0, 5.014195, 4.972662 
2.0307484e+2, 1.8127026e+2, -1157065.4, -1231264.6, -518.36993, -0.010086161, 0.006022836, -1157061.8, 6492.3496, 0.0, 5.0141745, 4.9661145 
2.0307435e+2, 1.8623687e+2, -1107754.1, -1181862.8, -471.71765, -0.011928543, 0.007950139, -1107751.0, 7132.044, 0.0, 5.0141835, 4.9661784 
2.0307389e+2, 1.912035e+2, -1058528.4, -1132651.5, -444.16962, -0.013764305, 0.009745818, -1058525.8, 7686.4956, 0.0, 5.0141935, 4.9661794 
2.0307341e+2, 1.9617014e+2, -1010195.3, -1085357.3, -416.29077, -0.015577633, 0.011856615, -1010193.0, 7348.296, 0.0, 5.0142035, 4.9655294 
2.0307295e+2, 2.0113294e+2, -970135.3, -1055939.8, -606.6349, -0.01619346, 0.01930838, -970131.0, -1223.9482, 0.0, 5.01422, 4.9587755 
2.0307249e+2, 2.0609155e+2, -920521.06, -1006092.4, -688.835, -0.013725358, 0.013275251, -920515.5, -204.1639, 0.0, 5.0142555, 4.9589553 
2.0307206e+2, 2.1105012e+2, -871149.94, -956776.9, -675.2382, -0.011069868, 0.006643306, -871144.6, 571.1824, 0.0, 5.0142913, 4.958956 
2.030716e+2, 2.1600871e+2, -822446.3, -908917.44, -661.6586, -0.008387993, 0.00014371976, -822441.25, 679.0102, 0.0, 5.014327, 4.9584565 
2.0307119e+2, 2.2096394e+2, -782663.75, -880457.56, -240.3844, -0.0070278216, 0.0044297385, -782663.1, -8104.6694, 0.0, 5.0143304, 4.9512944 
2.0307086e+2, 2.2591606e+2, -733328.25, -830578.06, 29.437012, -0.010006193, 0.007079907, -733328.25, -7298.362, 0.0, 5.014217, 4.9515243 
2.0307052e+2, 2.308682e+2, -684325.06, -781391.94, 145.70822, -0.013287382, 0.009779963, -684324.9, -6823.7676, 0.0, 5.0140934, 4.9515257 
2.0307018e+2, 2.3582034e+2, -635970.6, -733651.56, 265.72028, -0.016570337, 0.012324986, -635969.94, -6997.439, 0.0, 5.0139685, 4.9510255 
2.0307016e+2, 2.4076869e+2, -596635.6, -706167.06, 902.2444, -0.018204674, 0.024361216, -596628.2, -16148.546, 0.0, 5.013876, 4.9434614 
2.0307176e+2, 2.4571209e+2, -546335.0, -655039.75, 1428.8883, -0.015004028, 0.015068831, -546316.25, -14284.446, 0.0, 5.0139184, 4.944016 
2.0307352e+2, 2.5065526e+2, -496732.53, -605573.8, 1422.3955, -0.011407361, 0.0029122776, -496713.94, -13128.587, 0.0, 5.0139704, 4.944007 
2.0307522e+2, 2.5559855e+2, -447380.8, -556676.7, 1412.5073, -0.0077326824, -0.008384101, -447362.56, -12224.394, 0.0, 5.014018, 4.9437995 
2.0307738e+2, 2.6053813e+2, -409621.06, -534405.0, 1627.0017, 0.00065648486, -0.0014017381, -409599.88, -22866.121, 0.0, 5.0141387, 4.9340887 
2.030786e+2, 2.6547787e+2, -357962.47, -480886.16, 2490.1392, 0.0002844166, 0.024158973, -357912.06, -19558.488, 0.0, 5.0141687, 4.9352 
2.0307904e+2, 2.7041796e+2, -307739.7, -430899.44, 3601.1174, -0.0050665713, 0.045537584, -307634.5, -17661.975, 0.0, 5.014139, 4.935336 
2.0307897e+2, 2.7535754e+2, -257495.27, -381134.47, 4889.4995, -0.012209384, 0.05740088, -257302.2, -15705.605, 0.0, 5.014094, 4.9354253 
2.030846e+2, 2.8029588e+2, -231614.47, -382891.5, 12777.762, -0.004918968, 0.17142917, -230542.78, -37321.285, 0.0, 5.0141993, 4.9175477 
2.0308486e+2, 2.8522325e+2, -169834.42, -295432.2, 1288.806, -0.0058901994, 0.1738117, -169821.19, -24923.547, 0.0, 5.013529, 4.930664 
2.0307885e+2, 2.901447e+2, -122955.54, -247362.61, -1073.3345, -0.018121652, 0.066198654, -122946.28, -26321.9, 0.0, 5.0125747, 4.930506 
2.0307241e+2, 2.9506537e+2, -75986.445, -199341.77, -3238.659, -0.029625766, -0.050963204, -75901.48, -27542.125, 0.0, 5.0115867, 4.930349 
2.030662e+2, 3.0000228e+2, -20760.934, -99290.09, -2315.1748, -0.03374412, -0.13041086, -20692.736, -20692.736, 0.0, 5.010724, 4.957855 
2.0305279e+2, 3.0498418e+2, -13494.212, -77217.59, -413.60608, -0.080871455, -0.008668918, -13491.528, -13491.528, 0.0, 5.010034, 4.9647894 
2.0303549e+2, 3.0997637e+2, -13045.521, -71476.89, 71.26741, -0.15120417, 0.1529185, -13045.435, -13045.435, 0.0, 5.0092406, 4.96687 
2.0301662e+2, 3.149718e+2, -12273.2295, -66061.59, 849.0279, -0.22709876, 0.31942484, -12259.831, -12259.831, 0.0, 5.008411, 4.9689507 
2.0809118e+2, 1.2152615e+2, -1708773.4, -1743662.9, -600.8067, 0.0009468662, 0.031950735, -1708763.0, 40278.465, 0.0, 5.0143, 4.9915605 
2.0809235e+2, 1.2650485e+2, -1668530.1, -1712610.1, -126.465294, 0.0081322985, -0.041528538, -1668529.9, 31717.063, 0.0, 5.014333, 4.9856577 
2.0809236e+2, 1.3149221e+2, -1619375.3, -1663532.4, -1.6381105, 0.0032323964, -0.025154943, -1619375.3, 31997.53, 0.0, 5.0143857, 4.9856577 
2.0809238e+2, 1.3647956e+2, -1572431.5, -1618994.5, 122.57197, -0.0017178262, -0.00752405, -1572431.1, 30067.805, 0.0, 5.0144377, 4.9841537 
2.0809227e+2, 1.4146356e+2, -1529488.3, -1582583.5, -253.51527, -0.0053867334, 0.017342404, -1529487.0, 24170.318, 0.0, 5.01446, 4.979894 
2.0809199e+2, 1.4644346e+2, -1480215.1, -1532889.6, -390.09872, -0.0058679013, 0.012581023, -1480212.3, 24643.111, 0.0, 5.01442, 4.980124 
2.0809174e+2, 1.5142323e+2, -1431286.5, -1483896.4, -422.40765, -0.0062263138, 0.0065495935, -1431283.1, 24771.291, 0.0, 5.0143776, 4.980124 
2.0809147e+2, 1.5640302e+2, -1383786.0, -1437879.4, -454.7633, -0.0065899147, 0.0009699403, -1383782.3, 23471.238, 0.0, 5.014335, 4.9791293 
2.0809112e+2, 1.6137916e+2, -1343030.3, -1406001.9, -610.6781, -0.0069802026, 0.002137763, -1343024.3, 15463.3125, 0.0, 5.014295, 4.973401 
2.0809062e+2, 1.663527e+2, -1293900.3, -1356703.1, -647.32495, -0.0074055917, 0.0003971378, -1293893.6, 15852.956, 0.0, 5.0142617, 4.973476 
2.0809011e+2, 1.7132628e+2, -1244876.1, -1307628.4, -642.19727, -0.007829721, -0.001125326, -1244869.5, 16135.552, 0.0, 5.0142283, 4.9734764 
2.0808962e+2, 1.7629986e+2, -1196988.0, -1260957.3, -637.1132, -0.008252228, -0.002255029, -1196981.6, 15281.869, 0.0, 5.0141954, 4.9726686 
2.080891e+2, 1.8126984e+2, -1157021.6, -1231172.4, -518.9387, -0.00936898, 0.0053139427, -1157018.0, 6539.847, 0.0, 5.0141745, 4.9661455 
2.0808853e+2, 1.8623649e+2, -1107703.3, -1181753.8, -462.861, -0.012055897, 0.0070511363, -1107700.4, 7186.1377, 0.0, 5.014183, 4.9662156 
2.0808798e+2, 1.9120313e+2, -1058478.8, -1132542.6, -433.99713, -0.014795315, 0.008686211, -1058476.3, 7739.02, 0.0, 5.014193, 4.9662166 
2.0808741e+2, 1.9616978e+2, -1010146.9, -1085248.5, -404.80298, -0.01752654, 0.010637728, -1010144.7, 7399.266, 0.0, 5.0142026, 4.965567 
2.0808691e+2, 2.011326e+2, -970091.0, -1055836.1, -585.4392, -0.01884624, 0.017919986, -970087.0, -1177.5469, 0.0, 5.0142193, 4.9588113 
2.0808649e+2, 2.0609123e+2, -920498.1, -1006035.3, -661.21625, -0.016520305, 0.011965401, -920493.0, -179.13196, 0.0, 5.014254, 4.9589753 
2.0808606e+2, 2.1104985e+2, -871126.7, -956719.6, -645.9687, -0.013998746, 0.0054513616, -871121.8, 596.7183, 0.0, 5.0142903, 4.9589753 
2.0808563e+2, 2.1600847e+2, -822422.7, -908860.0, -630.74115, -0.0114710415, -0.0009333862, -822418.06, 705.0587, 0.0, 5.014326, 4.9584765 
2.0808522e+2, 2.2096376e+2, -782524.5, -880141.06, -290.54263, -0.010153013, 0.0034942168, -782523.6, -7962.761, 0.0, 5.014329, 4.951403 
2.080848e+2, 2.2591604e+2, -733141.25, -830137.56, -51.33269, -0.012892137, 0.0065116268, -733141.2, -7111.512, 0.0, 5.0142126, 4.9516773 
2.0808439e+2, 2.3086838e+2, -684144.4, -780946.4, 70.28392, -0.015973095, 0.009619867, -684144.3, -6646.1787, 0.0, 5.0140867, 4.951681 
2.0808396e+2, 2.358207e+2, -635796.25, -733200.94, 195.65251, -0.019106515, 0.012584233, -635795.9, -6829.0996, 0.0, 5.01396, 4.9511833 
2.0808387e+2, 2.4076918e+2, -596499.4, -705699.4, 921.18085, -0.021018587, 0.024032352, -596491.6, -16019.154, 0.0, 5.0138535, 4.943627 
2.0808536e+2, 2.4571265e+2, -546329.2, -654826.5, 1463.5339, -0.019137098, 0.014653685, -546309.5, -14283.928, 0.0, 5.0138907, 4.944095 
2.08087e+2, 2.5065595e+2, -496724.16, -605365.6, 1464.0059, -0.016962832, 0.0030026375, -496704.44, -13124.483, 0.0, 5.0139437, 4.9440837 
2.0808856e+2, 2.5559938e+2, -447369.84, -556473.5, 1461.0813, -0.014765514, -0.007709754, -447350.28, -12216.747, 0.0, 5.013993, 4.9438744 
2.0809045e+2, 2.6053944e+2, -408687.66, -531861.7, 1794.5123, -0.009940071, 0.00056042377, -408661.53, -21936.84, 0.0, 5.0140805, 4.9350047 
2.08091e+2, 2.6548034e+2, -356791.06, -476893.84, 2923.337, -0.021505894, 0.027839238, -356719.97, -18393.885, 0.0, 5.013994, 4.9366846 
2.0809071e+2, 2.7042183e+2, -306836.94, -426634.6, 4215.795, -0.03969043, 0.051367234, -306688.78, -16764.889, 0.0, 5.013852, 4.9369392 
2.0808989e+2, 2.75363e+2, -256861.45, -376596.97, 5685.441, -0.06058116, 0.06627497, -256592.1, -15067.352, 0.0, 5.013694, 4.9371467 
2.0809412e+2, 2.8030136e+2, -229098.34, -377277.6, 11195.959, -0.06254014, 0.1583095, -228257.19, -35112.633, 0.0, 5.014219, 4.9195766 
2.08094e+2, 2.85227e+2, -170723.05, -300455.7, 290.9212, -0.05200666, 0.15191983, -170722.4, -25875.484, 0.0, 5.0139217, 4.928971 
2.0808834e+2, 2.9014754e+2, -123891.38, -251960.5, -1867.4497, -0.052053392, 0.057158384, -123864.16, -27270.748, 0.0, 5.0129247, 4.928935 
2.0808221e+2, 2.9506728e+2, -76970.76, -203515.73, -3828.5662, -0.052470148, -0.048094712, -76855.03, -28507.127, 0.0, 5.0118947, 4.9289 
2.0807597e+2, 3.0000466e+2, -18175.004, -93860.055, -3281.3958, -0.04882475, -0.11732841, -18033.002, -18033.002, 0.0, 5.010895, 4.9598837 
2.080619e+2, 3.0498576e+2, -12307.594, -72544.01, -1043.8889, -0.09865287, -0.0062671825, -12289.509, -12289.509, 0.0, 5.009849, 4.9669766 
2.0804387e+2, 3.099763e+2, -12951.049, -67186.95, 191.64297, -0.17472953, 0.14705034, -12950.372, -12950.372, 0.0, 5.0087295, 4.9690804 
2.0802417e+2, 3.1497085e+2, -13271.922, -62153.586, 1720.134, -0.25868696, 0.31376442, -13211.465, -13211.465, 0.0, 5.007573, 4.971185 
2.131057e+2, 1.21525e+2, -1709436.3, -1744995.3, -742.06006, 0.0029096617, 0.027970282, -1709420.8, 39630.707, 0.0, 5.014298, 4.9911222 
2.1310666e+2, 1.2650403e+2, -1668295.9, -1712114.8, -90.459045, 0.0077563007, -0.04317162, -1668295.8, 31958.365, 0.0, 5.014331, 4.98582 
2.131067e+2, 1.3149154e+2, -1619142.5, -1663039.8, 36.018234, 0.0027639768, -0.026818931, -1619142.5, 32235.436, 0.0, 5.014384, 4.9858193 
2.1310675e+2, 1.3647905e+2, -1572200.1, -1618504.3, 161.86923, -0.002305901, -0.009207018, -1572199.5, 30302.463, 0.0, 5.0144362, 4.9843154 
2.1310666e+2, 1.4146318e+2, -1529493.1, -1582587.5, -272.08594, -0.006082324, 0.015887454, -1529491.6, 24167.457, 0.0, 5.014459, 4.9798927 
2.1310635e+2, 1.4644308e+2, -1480276.8, -1533012.9, -422.01013, -0.0066035865, 0.011698833, -1480273.4, 24584.154, 0.0, 5.0144196, 4.980083 
2.1310604e+2, 1.514229e+2, -1431347.8, -1484019.0, -453.75565, -0.007005787, 0.0062369374, -1431343.9, 24713.146, 0.0, 5.014377, 4.980083 
2.1310571e+2, 1.5640269e+2, -1383847.0, -1438001.5, -485.54068, -0.0074197194, 0.0012268133, -1383842.6, 23413.871, 0.0, 5.0143347, 4.9790883 
2.1310535e+2, 1.6137885e+2, -1343036.5, -1406015.1, -638.4757, -0.0077152215, 0.0027047673, -1343030.1, 15460.951, 0.0, 5.014295, 4.973397 
2.1310486e+2, 1.6635236e+2, -1293890.3, -1356683.1, -672.8898, -0.0076820464, 0.0006661356, -1293883.0, 15867.04, 0.0, 5.0142617, 4.9734826 
2.1310437e+2, 1.7132589e+2, -1244866.1, -1307608.3, -667.06415, -0.007642151, -0.0011791866, -1244859.1, 16149.621, 0.0, 5.014229, 4.973483 
2.1310388e+2, 1.7629945e+2, -1196978.3, -1260937.1, -661.27783, -0.007611833, -0.0026315248, -1196971.4, 15295.918, 0.0, 5.0141954, 4.9726753 
2.1310335e+2, 1.8126942e+2, -1156981.4, -1231087.1, -519.62805, -0.008653035, 0.0046260227, -1156977.8, 6583.842, 0.0, 5.0141745, 4.966174 
2.1310271e+2, 1.8623608e+2, -1107652.9, -1181644.5, -454.29538, -0.012184837, 0.0061663995, -1107650.1, 7239.838, 0.0, 5.014183, 4.966253 
2.1310209e+2, 1.9120274e+2, -1058429.6, -1132433.4, -424.11566, -0.015826834, 0.007619333, -1058427.1, 7791.16, 0.0, 5.0141926, 4.9662538 
2.1310145e+2, 1.9616942e+2, -1010098.8, -1085139.4, -393.60623, -0.019474879, 0.009390034, -1010096.75, 7449.862, 0.0, 5.014202, 4.9656043 
2.1310088e+2, 2.0113227e+2, -970055.9, -1055751.6, -564.5971, -0.021494241, 0.016565306, -970052.2, -1140.3726, 0.0, 5.014218, 4.9588404 
2.1310046e+2, 2.0609093e+2, -920475.7, -1005977.9, -633.63696, -0.019310122, 0.01069514, -920471.0, -154.60739, 0.0, 5.014253, 4.958995 
2.1310006e+2, 2.1104957e+2, -871103.9, -956662.0, -616.7387, -0.016923543, 0.0042722314, -871099.44, 621.7613, 0.0, 5.0142894, 4.9589953 
2.1309967e+2, 2.1600822e+2, -822399.5, -908802.25, -599.8632, -0.014551059, -0.0020244552, -822395.4, 730.62854, 0.0, 5.0143256, 4.958496 
2.1309926e+2, 2.2096357e+2, -782393.6, -879840.44, -342.8674, -0.01327945, 0.0025787437, -782392.44, -7829.188, 0.0, 5.014327, 4.951506 
2.1309875e+2, 2.2591603e+2, -732955.75, -829695.8, -135.84981, -0.015815953, 0.0059006, -732955.56, -6926.057, 0.0, 5.014209, 4.951829 
2.1309824e+2, 2.3086855e+2, -683965.25, -780499.6, -8.88852, -0.018733947, 0.00931625, -683965.25, -6469.9697, 0.0, 5.0140805, 4.9518356 
2.130977e+2, 2.3582105e+2, -635623.4, -732749.06, 121.83567, -0.021755096, 0.012599184, -635623.2, -6662.1255, 0.0, 5.0139513, 4.9513407 
2.1309751e+2, 2.407697e+2, -596411.94, -705327.8, 924.5719, -0.023897722, 0.024038292, -596404.1, -15939.108, 0.0, 5.013831, 4.9437575 
2.1309891e+2, 2.4571328e+2, -546330.0, -654606.94, 1499.5679, -0.023283616, 0.014781553, -546309.25, -14290.3545, 0.0, 5.013863, 4.9441733 
2.1310043e+2, 2.506567e+2, -496722.34, -605151.06, 1507.0039, -0.022509487, 0.0034826442, -496701.4, -13127.219, 0.0, 5.0139174, 4.94416 
2.1310188e+2, 2.556002e+2, -447365.44, -556263.94, 1511.0427, -0.021767274, -0.006799134, -447344.47, -12215.835, 0.0, 5.0139675, 4.9439483 
2.1310352e+2, 2.6054054e+2, -407955.06, -529721.25, 1854.2657, -0.019982066, 0.0018828441, -407926.8, -21209.748, 0.0, 5.0140224, 4.935756 
2.131032e+2, 2.654825e+2, -355648.75, -472884.34, 3175.0425, -0.04361364, 0.02726631, -355562.8, -17261.0, 0.0, 5.01382, 4.938116 
2.1310195e+2, 2.7042526e+2, -305962.6, -422352.34, 4648.883, -0.075916514, 0.049161103, -305777.22, -15897.606, 0.0, 5.013565, 4.9384894 
2.1310015e+2, 2.7536792e+2, -256255.39, -372041.88, 6299.671, -0.11183987, 0.063331544, -255913.64, -14455.279, 0.0, 5.0132937, 4.938815 
2.1310367e+2, 2.8030705e+2, -228688.61, -376508.2, 10106.929, -0.11881132, 0.14895242, -228000.77, -34935.277, 0.0, 5.0142393, 4.9199 
2.1310376e+2, 2.852315e+2, -171665.16, -305434.78, -933.91205, -0.09416827, 0.14462852, -171658.64, -26870.166, 0.0, 5.014314, 4.927233 
2.1309835e+2, 2.9015097e+2, -124880.38, -256512.81, -2888.4202, -0.08366299, 0.058229383, -124817.03, -28260.682, 0.0, 5.013275, 4.927319 
2.1309243e+2, 2.9506966e+2, -78007.94, -207642.95, -4645.2783, -0.07462537, -0.039604463, -77841.695, -29509.69, 0.0, 5.0122027, 4.9274054 
2.1308626e+2, 3.000064e+2, -16823.906, -91156.73, -4422.772, -0.061948124, -0.10660916, -16561.678, -16561.678, 0.0, 5.0110664, 4.960858 
2.1307133e+2, 3.0498526e+2, -11177.424, -67821.29, -1733.848, -0.110245936, -0.025566744, -11124.4, -11124.4, 0.0, 5.009665, 4.9689565 
2.1305223e+2, 3.0997345e+2, -12913.163, -62846.3, 251.34724, -0.18918774, 0.09861091, -12911.897, -12911.897, 0.0, 5.008219, 4.971083 
2.1303138e+2, 3.1496632e+2, -14328.1, -58192.992, 2529.7542, -0.27832824, 0.24465418, -14182.687, -14182.687, 0.0, 5.006736, 4.973212 
2.1812019e+2, 1.2152381e+2, -1709996.4, -1746201.6, -882.79785, 0.00476995, 0.023806997, -1709974.9, 39086.78, 0.0, 5.014315, 4.9907165 
2.1812096e+2, 1.2650321e+2, -1668028.4, -1711603.6, -61.924004, 0.007360682, -0.044706687, -1668028.4, 32232.81, 0.0, 5.014341, 4.9859815 
2.1812105e+2, 1.314909e+2, -1618945.8, -1662565.9, 57.609253, 0.0022774828, -0.028416116, -1618945.8, 32437.28, 0.0, 5.014371, 4.9859805 
2.1812114e+2, 1.3647856e+2, -1572096.5, -1618078.1, 175.45657, -0.0028940132, -0.010862303, -1572095.8, 30409.303, 0.0, 5.014393, 4.984476 
2.1812105e+2, 1.414628e+2, -1529693.9, -1582691.5, -318.3928, -0.0067522405, 0.01444801, -1529692.0, 23968.967, 0.0, 5.0143943, 4.9798894 
2.181207e+2, 1.4644274e+2, -1480510.4, -1533218.5, -473.99393, -0.0073124184, 0.010818956, -1480506.1, 24353.635, 0.0, 5.014361, 4.9800425 
2.1812034e+2, 1.5142255e+2, -1431563.4, -1484215.1, -496.79492, -0.007755306, 0.0059078955, -1431558.8, 24500.89, 0.0, 5.014324, 4.980043 
2.1811998e+2, 1.5640236e+2, -1384051.0, -1438191.3, -519.4869, -0.008212558, 0.0014477232, -1384046.0, 23213.627, 0.0, 5.0142856, 4.979048 
2.1811958e+2, 1.6137852e+2, -1343175.5, -1406097.3, -664.0843, -0.008402088, 0.0032471048, -1343168.5, 15325.893, 0.0, 5.0142517, 4.97339 
2.181191e+2, 1.66352e+2, -1293983.0, -1356713.6, -703.9477, -0.007916871, 0.0009237282, -1293975.1, 15778.528, 0.0, 5.014228, 4.973489 
2.1811862e+2, 1.7132553e+2, -1244939.8, -1307629.3, -705.2197, -0.0074174344, -0.0012376155, -1244931.8, 16080.54, 0.0, 5.014201, 4.973489 
2.1811815e+2, 1.7629905e+2, -1197042.0, -1260953.0, -706.35736, -0.0069340314, -0.0030058527, -1197034.1, 15236.902, 0.0, 5.014171, 4.9726815 
2.181176e+2, 1.8126902e+2, -1157023.9, -1231046.4, -545.5958, -0.007901497, 0.003977263, -1157019.9, 6545.5273, 0.0, 5.0141478, 4.9662004 
2.181169e+2, 1.8623568e+2, -1107714.6, -1181588.3, -469.3743, -0.012276013, 0.005297398, -1107711.6, 7181.667, 0.0, 5.0141444, 4.9662895 
2.1811616e+2, 1.9120236e+2, -1058535.1, -1132397.5, -436.28543, -0.016812334, 0.006528143, -1058532.6, 7688.769, 0.0, 5.014139, 4.966291 
2.1811545e+2, 1.9616905e+2, -1010257.1, -1085127.8, -403.25897, -0.021364143, 0.008076946, -1010254.94, 7294.332, 0.0, 5.01413, 4.9656415 
2.1811484e+2, 2.0113191e+2, -970277.6, -1055803.1, -562.34106, -0.02406685, 0.015197832, -970273.94, -1359.72, 0.0, 5.0141315, 4.9588623 
2.1811445e+2, 2.0609063e+2, -920707.0, -1006039.44, -623.86865, -0.022016317, 0.009443424, -920702.44, -383.5232, 0.0, 5.0141644, 4.9590144 
2.1811408e+2, 2.110493e+2, -871353.06, -956731.44, -605.22736, -0.01974888, 0.0031134125, -871348.8, 375.05374, 0.0, 5.0141945, 4.959015 
2.181137e+2, 2.1600796e+2, -822681.5, -908886.25, -586.3727, -0.017506322, -0.0030929933, -822677.5, 451.3316, 0.0, 5.0142193, 4.9585156 
2.181133e+2, 2.2096337e+2, -782612.0, -879717.7, -416.51633, -0.016263803, 0.0017256847, -782610.2, -8044.639, 0.0, 5.0142074, 4.951602 
2.181127e+2, 2.2591601e+2, -733148.0, -829435.56, -265.41772, -0.018632563, 0.005223254, -733147.25, -7117.8726, 0.0, 5.014074, 4.9519777 
2.1811208e+2, 2.308687e+2, -684239.25, -780271.25, -162.48792, -0.021395508, 0.0087627545, -684239.0, -6746.436, 0.0, 5.013917, 4.9519863 
2.1811144e+2, 2.3582138e+2, -636020.06, -732570.8, -60.941402, -0.024282401, 0.012167623, -636020.0, -7064.187, 0.0, 5.013745, 4.9514933 
2.1811116e+2, 2.407702e+2, -597097.2, -705410.94, 768.7234, -0.026531963, 0.02411435, -597091.75, -16634.139, 0.0, 5.0135555, 4.9438467 
2.1811244e+2, 2.457139e+2, -547322.0, -654865.3, 1342.5911, -0.027067622, 0.015326181, -547305.25, -15293.129, 0.0, 5.0134897, 4.9442425 
2.1811384e+2, 2.5065744e+2, -498012.97, -605549.5, 1306.0481, -0.027578143, 0.0043754308, -497997.13, -14428.798, 0.0, 5.013439, 4.9442277 
2.181152e+2, 2.5560105e+2, -448979.13, -556812.1, 1267.2765, -0.028145349, -0.0054925242, -448964.22, -13840.603, 0.0, 5.013375, 4.944014 
2.181166e+2, 2.6054153e+2, -409749.47, -529211.6, 1336.6808, -0.028557917, 0.0028339082, -409734.53, -23023.29, 0.0, 5.013164, 4.936284 
2.1811529e+2, 2.6548412e+2, -359488.44, -471534.75, 1857.0303, -0.06365436, 0.022480972, -359457.7, -21175.115, 0.0, 5.0119333, 4.9393425 
2.1811289e+2, 2.7042776e+2, -313915.03, -422622.34, 2117.7341, -0.109098315, 0.038224656, -313873.78, -24029.625, 0.0, 5.0101986, 4.939775 
2.1810992e+2, 2.7537143e+2, -269409.47, -374390.34, 2127.6138, -0.15838993, 0.046660088, -269366.38, -27960.64, 0.0, 5.008051, 4.94016 
2.1811348e+2, 2.803118e+2, -248567.94, -388566.75, 3581.272, -0.1637743, 0.13980886, -248476.39, -55480.164, 0.0, 5.00776, 4.9185185 
2.1811438e+2, 2.8523585e+2, -185848.0, -315542.72, -6758.4854, -0.12500978, 0.14879322, -185496.77, -40764.9, 0.0, 5.009935, 4.9256034 
2.1810906e+2, 2.901544e+2, -134023.39, -264133.25, -7226.1167, -0.10798961, 0.067551814, -133623.28, -37103.71, 0.0, 5.010691, 4.925751 
2.1810324e+2, 2.9507214e+2, -83757.58, -213513.95, -7909.842, -0.09267748, -0.025689706, -83277.18, -34962.105, 0.0, 5.0108314, 4.9259 
2.1809717e+2, 3.000073e+2, -20193.135, -92965.82, -7723.435, -0.07011843, -0.09671726, -19382.469, -19382.469, 0.0, 5.0100293, 4.960617 
2.1808133e+2, 3.049823e+2, -18471.816, -67369.37, -5825.2407, -0.10959888, -0.06687077, -17787.426, -17787.426, 0.0, 5.0065036, 4.970405 
2.18061e+2, 3.0996656e+2, -30133.313, -66604.27, -4358.014, -0.18304922, 0.0011396954, -29619.791, -29619.791, 0.0, 5.0014725, 4.972534 
2.180389e+2, 3.149558e+2, -44901.473, -67597.805, -2291.9536, -0.2670645, 0.095631175, -44672.336, -44672.336, 0.0, 4.995166, 4.9746647 
2.2313492e+2, 1.2152272e+2, -1708945.9, -1746994.3, -861.4729, 0.0054996274, 0.020333912, -1708926.4, 40144.83, 0.0, 5.0149446, 4.9901457 
2.2313525e+2, 1.2650281e+2, -1666645.4, -1710692.5, -190.93524, 0.0047922623, -0.041814562, -1666644.5, 33620.45, 0.0, 5.0147505, 4.986079 
2.2313538e+2, 1.3149044e+2, -1618327.3, -1662036.5, -150.23982, 0.0011030588, -0.02712773, -1618326.6, 33060.645, 0.0, 5.014528, 4.986078 
2.231355e+2, 1.3647802e+2, -1572214.4, -1617914.5, -110.641426, -0.0025742264, -0.011165843, -1572214.1, 30295.785, 0.0, 5.0143056, 4.984572 
2.2313544e+2, 1.4146224e+2, -1530340.5, -1582940.5, -563.45984, -0.005416169, 0.013073711, -1530334.5, 23331.516, 0.0, 5.014163, 4.979919 
2.2313505e+2, 1.4644217e+2, -1481005.9, -1533428.5, -641.4955, -0.006219851, 0.009334359, -1480998.1, 23866.465, 0.0, 5.0141873, 4.980057 
2.2313467e+2, 1.5142198e+2, -1431860.3, -1484327.0, -605.1919, -0.006932329, 0.0043287748, -1431853.3, 24210.965, 0.0, 5.0142174, 4.9800572 
2.2313428e+2, 1.564018e+2, -1384144.3, -1438203.4, -569.02563, -0.007636388, -0.00023164439, -1384138.3, 23125.71, 0.0, 5.014247, 4.9790626 
2.2313388e+2, 1.6137798e+2, -1343140.3, -1406154.5, -679.49347, -0.007895431, 0.001700621, -1343132.9, 15365.793, 0.0, 5.0142784, 4.973358 
2.2313344e+2, 1.6635148e+2, -1293791.3, -1356727.8, -775.03925, -0.007130394, 0.00011057319, -1293781.8, 15976.272, 0.0, 5.0143147, 4.973443 
2.23133e+2, 1.7132504e+2, -1244563.5, -1307553.9, -839.11926, -0.006315208, -0.0012879863, -1244552.4, 16464.46, 0.0, 5.014351, 4.9734435 
2.2313255e+2, 1.762986e+2, -1196473.3, -1260785.0, -903.3499, -0.0054910225, -0.00229266, -1196460.5, 15815.1455, 0.0, 5.0143867, 4.972636 
2.2313201e+2, 1.8126856e+2, -1156285.0, -1230611.4, -812.84937, -0.006287335, 0.004868115, -1156276.1, 7293.92, 0.0, 5.014383, 4.966236 
2.2313122e+2, 1.8623517e+2, -1107227.4, -1181216.5, -722.0014, -0.010930102, 0.004985282, -1107220.4, 7677.768, 0.0, 5.014282, 4.966351 
2.2313042e+2, 1.9120178e+2, -1058340.1, -1132166.8, -660.87775, -0.015731154, 0.0049524656, -1058334.1, 7892.0273, 0.0, 5.014177, 4.966352 
2.2312962e+2, 1.961684e+2, -1010343.1, -1085031.6, -599.6819, -0.020524226, 0.005234068, -1010338.3, 7215.8955, 0.0, 5.0140715, 4.9657025 
2.2312893e+2, 2.0113127e+2, -970603.7, -1055892.5, -681.9446, -0.0234635, 0.01183967, -970598.2, -1679.3424, 0.0, 5.014004, 4.958892 
2.2312856e+2, 2.0609015e+2, -921066.56, -1006178.0, -730.8514, -0.021663321, 0.007680395, -921060.25, -737.95166, 0.0, 5.0140324, 4.959029 
2.2312818e+2, 2.11049e+2, -871703.4, -956863.9, -723.0638, -0.019597476, 0.0030787704, -871697.25, 28.697899, 0.0, 5.0140657, 4.9590297 
2.2312783e+2, 2.1600787e+2, -823007.7, -909005.9, -715.22955, -0.017505005, -0.0013910102, -823001.75, 127.84089, 0.0, 5.0140986, 4.958531 
2.231274e+2, 2.2096339e+2, -782868.44, -879762.56, -647.0172, -0.016396949, 0.004235848, -782864.1, -8298.573, 0.0, 5.0140996, 4.9516397 
2.2312666e+2, 2.2591585e+2, -733381.8, -829462.8, -646.1971, -0.018892555, 0.005553138, -733377.5, -7346.8804, 0.0, 5.013969, 4.9520216 
2.231259e+2, 2.3086832e+2, -684433.9, -780293.75, -660.13934, -0.0216204, 0.0066325823, -684429.3, -6934.11, 0.0, 5.0138264, 4.9520264 
2.2312512e+2, 2.358208e+2, -636134.1, -732570.0, -670.75397, -0.02430392, 0.007511244, -636129.5, -7169.4966, 0.0, 5.013683, 4.9515295 
2.231247e+2, 2.4076955e+2, -597150.75, -705315.4, 89.78185, -0.026339537, 0.018157888, -597150.7, -16688.477, 0.0, 5.013483, 4.9439282 
2.2312567e+2, 2.457137e+2, -548167.9, -655133.7, 740.2187, -0.027253347, 0.012986867, -548162.75, -16149.809, 0.0, 5.013127, 4.9443336 
2.2312675e+2, 2.5065774e+2, -499755.4, -606229.6, 834.4799, -0.02806889, 0.0060688993, -499748.84, -16183.829, 0.0, 5.012756, 4.9443183 
2.2312777e+2, 2.5560185e+2, -451585.6, -557886.4, 926.35376, -0.02877991, 0.00016434763, -451577.53, -16461.246, 0.0, 5.0123796, 4.944105 
2.2312875e+2, 2.605426e+2, -412498.66, -530015.3, 1041.3761, -0.029257128, 0.010120709, -412489.44, -25789.123, 0.0, 5.0119905, 4.9365754 
2.231267e+2, 2.6548433e+2, -361103.88, -472197.47, 1930.5768, -0.06191237, 0.017118856, -361070.3, -22797.006, 0.0, 5.0110536, 4.939631 
2.2312362e+2, 2.7042645e+2, -313772.25, -423552.84, 3117.0796, -0.10098963, 0.015847383, -313683.84, -23841.154, 0.0, 5.0099907, 4.939746 
2.2312008e+2, 2.7536795e+2, -266413.38, -375094.75, 4486.259, -0.14012839, 0.0047771973, -266228.5, -24810.813, 0.0, 5.0089087, 4.939813 
2.2312297e+2, 2.8030655e+2, -246481.42, -387901.94, 8406.887, -0.13243851, 0.08410984, -245983.42, -52962.484, 0.0, 5.008491, 4.9182405 
2.2312431e+2, 2.8523263e+2, -187952.66, -315147.22, -744.1063, -0.09970753, 0.11162334, -187948.31, -43204.445, 0.0, 5.009224, 4.925558 
2.2311983e+2, 2.9015356e+2, -136786.72, -265163.1, -2447.2866, -0.09023876, 0.053705446, -136740.08, -40223.313, 0.0, 5.0098023, 4.925402 
2.2311486e+2, 2.9507363e+2, -85568.43, -215251.88, -3872.2861, -0.07812941, -0.014217955, -85452.91, -37154.582, 0.0, 5.0103245, 4.9252467 
2.2310954e+2, 3.000099e+2, -18139.826, -94532.7, -4753.3213, -0.051660933, -0.06918957, -17845.201, -17845.201, 0.0, 5.0108924, 4.959557 
2.2309428e+2, 3.049802e+2, -5513.806, -64770.727, -4021.009, -0.06602439, -0.084331036, -5242.197, -5242.197, 0.0, 5.0110464, 4.9693136 
2.2307473e+2, 3.0995727e+2, -3224.708, -58624.664, -3718.6545, -0.10113226, -0.0888737, -2976.2126, -2976.2126, 0.0, 5.0109463, 4.971217 
2.2305362e+2, 3.1493738e+2, -676.7714, -52736.684, -3399.3027, -0.13549924, -0.087830834, -455.74896, -455.74896, 0.0, 5.010779, 4.9731226 
2.2814979e+2, 1.21521674e+2, -1709948.4, -1749020.8, -828.7364, 0.0045314133, 0.016982738, -1709930.8, 39149.598, 0.0, 5.014943, 4.989481 
2.2814958e+2, 1.2650263e+2, -1666566.5, -1710519.4, -362.11642, 0.00045939756, -0.0362391, -1666563.6, 33703.31, 0.0, 5.0147486, 4.986137 
2.2814976e+2, 1.3149007e+2, -1618247.9, -1661864.8, -320.16754, -0.0006261481, -0.02407129, -1618245.5, 33145.684, 0.0, 5.014527, 4.986135 
2.281499e+2, 1.3647746e+2, -1572134.5, -1617743.9, -279.257, -0.0017124359, -0.010632837, -1572132.8, 30383.004, 0.0, 5.0143046, 4.9846287 
2.2814986e+2, 1.4146154e+2, -1530268.8, -1582788.0, -582.2851, -0.0028943338, 0.01173919, -1530262.3, 23410.766, 0.0, 5.014162, 4.9799695 
2.2814946e+2, 1.4644147e+2, -1480937.1, -1533281.8, -618.73553, -0.0041080737, 0.0074771517, -1480929.9, 23941.152, 0.0, 5.014187, 4.980106 
2.2814904e+2, 1.5142128e+2, -1431792.0, -1484180.9, -581.85535, -0.0053128563, 0.0019890869, -1431785.5, 24284.488, 0.0, 5.0142164, 4.980106 
2.2814865e+2, 1.5640111e+2, -1384076.5, -1438057.8, -545.1156, -0.0065148156, -0.0030532863, -1384071.0, 23198.113, 0.0, 5.014246, 4.979111 
2.2814824e+2, 1.613773e+2, -1343212.5, -1406303.3, -654.1758, -0.0070383702, -0.0010723647, -1343205.8, 15297.764, 0.0, 5.014278, 4.9733086 
2.2814788e+2, 1.6635086e+2, -1293906.1, -1356967.3, -748.005, -0.0060207928, -0.0013101095, -1293897.3, 15865.685, 0.0, 5.0143147, 4.973363 
2.2814749e+2, 1.7132448e+2, -1244677.6, -1307792.6, -811.33185, -0.0049450714, -0.0012970718, -1244667.3, 16354.714, 0.0, 5.0143504, 4.9733634 
2.281471e+2, 1.762981e+2, -1196586.6, -1261022.9, -874.81396, -0.003871357, -0.00089044956, -1196574.8, 15706.217, 0.0, 5.014386, 4.972556 
2.281466e+2, 1.8126807e+2, -1156226.5, -1230486.1, -866.6123, -0.0044528274, 0.0067348615, -1156216.5, 7359.049, 0.0, 5.014383, 4.9662786 
2.281457e+2, 1.8623458e+2, -1107117.5, -1180981.0, -801.4918, -0.008940439, 0.0050849663, -1107108.8, 7795.029, 0.0, 5.0142817, 4.966431 
2.2814482e+2, 1.9120108e+2, -1058231.3, -1131931.8, -739.1901, -0.013601011, 0.0031932434, -1058223.8, 8008.332, 0.0, 5.0141764, 4.966432 
2.2814392e+2, 1.9616759e+2, -1010235.3, -1084797.1, -676.8048, -0.01826703, 0.001617232, -1010229.1, 7331.252, 0.0, 5.014071, 4.9657826 
2.2814317e+2, 2.0113045e+2, -970558.75, -1055792.9, -684.5944, -0.021234216, 0.0074778157, -970553.25, -1628.4863, 0.0, 5.0140038, 4.958926 
2.2814278e+2, 2.060896e+2, -921051.44, -1006143.56, -705.56506, -0.019864466, 0.0057734484, -921045.56, -719.406, 0.0, 5.0140324, 4.959041 
2.281424e+2, 2.1104874e+2, -871688.4, -956829.44, -696.2003, -0.018269885, 0.0038300243, -871682.7, 45.03484, 0.0, 5.0140653, 4.959042 
2.2814201e+2, 2.1600787e+2, -822992.75, -908971.5, -686.7913, -0.016667496, 0.0020220056, -822987.25, 141.97336, 0.0, 5.014098, 4.9585433 
2.2814155e+2, 2.2096354e+2, -782877.3, -879762.4, -703.49506, -0.016037269, 0.008843331, -782872.2, -8307.924, 0.0, 5.0140967, 4.95164 
2.2814064e+2, 2.2591564e+2, -733418.94, -829501.1, -742.2186, -0.018882254, 0.0069208, -733413.25, -7380.948, 0.0, 5.0139627, 4.9520106 
2.2813971e+2, 2.3086777e+2, -684478.7, -780330.0, -750.84216, -0.02198786, 0.004496892, -684472.8, -6972.681, 0.0, 5.0138173, 4.952017 
2.2813877e+2, 2.3581988e+2, -636186.56, -732604.2, -756.12384, -0.025092121, 0.0019124396, -636180.7, -7212.627, 0.0, 5.0136704, 4.9515214 
2.2813813e+2, 2.4076848e+2, -597077.4, -704933.56, -111.3155, -0.027593916, 0.010776299, -597077.25, -16605.887, 0.0, 5.0134506, 4.9440703 
2.2813869e+2, 2.457133e+2, -548025.94, -654562.25, 446.64932, -0.029059576, 0.0100849625, -548024.06, -16008.378, 0.0, 5.013089, 4.9445434 
2.281393e+2, 2.5065804e+2, -499599.97, -605654.9, 548.55066, -0.030508062, 0.008215836, -499597.13, -16036.339, 0.0, 5.012723, 4.944527 
2.2813985e+2, 2.5560287e+2, -451416.72, -557308.44, 648.07965, -0.031921875, 0.0073176078, -451412.75, -16307.653, 0.0, 5.012352, 4.9443126 
2.2814022e+2, 2.6054415e+2, -411657.66, -527729.7, 675.325, -0.03431581, 0.018831722, -411653.72, -24971.17, 0.0, 5.0119343, 4.937388 
2.2813731e+2, 2.6548558e+2, -360042.0, -468478.72, 1629.5144, -0.07044529, 0.01048564, -360017.53, -21765.787, 0.0, 5.010867, 4.940987 
2.2813337e+2, 2.704275e+2, -313067.97, -419672.97, 2981.606, -0.11390226, -0.0066945422, -312984.63, -23169.092, 0.0, 5.009674, 4.941198 
2.2812888e+2, 2.7536908e+2, -266066.5, -371052.78, 4516.3193, -0.15858936, -0.031865716, -265872.56, -24490.063, 0.0, 5.008462, 4.9413614 
2.2813049e+2, 2.803081e+2, -245639.08, -387462.66, 7602.7676, -0.15589954, 0.040320136, -245232.69, -52256.207, 0.0, 5.0086727, 4.918435 
2.2813246e+2, 2.8523517e+2, -186572.95, -317387.75, -445.6039, -0.11574718, 0.08446858, -186571.44, -41875.41, 0.0, 5.009894, 4.9247727 
2.2812934e+2, 2.9015723e+2, -135669.63, -266980.2, -1919.4069, -0.0981504, 0.045848697, -135641.58, -39176.008, 0.0, 5.010363, 4.9247665 
2.281257e+2, 2.9507855e+2, -84714.43, -216646.72, -3115.0198, -0.07962921, -0.0027198016, -84640.92, -36398.41, 0.0, 5.0107756, 4.924761 
2.2812152e+2, 3.0001533e+2, -17187.117, -94439.34, -4302.8276, -0.04909064, -0.047314115, -16948.195, -16948.195, 0.0, 5.0112114, 4.959596 
2.2810751e+2, 3.0498427e+2, -4539.6924, -63462.633, -3402.4202, -0.057513043, -0.08070818, -4343.875, -4343.875, 0.0, 5.0111823, 4.969896 
2.2808926e+2, 3.0996042e+2, -3090.8867, -58424.63, -2407.247, -0.088985, -0.09759473, -2986.359, -2986.359, 0.0, 5.0109205, 4.9715576 
2.2806928e+2, 3.1493992e+2, -1382.5975, -53643.027, -1395.1409, -0.1240297, -0.10100358, -1345.3794, -1345.3794, 0.0, 5.0105915, 4.973221 
2.3316462e+2, 1.215206e+2, -1710897.3, -1750937.6, -796.9385, 0.003380528, 0.013430068, -1710881.4, 38208.41, 0.0, 5.014941, 4.988852 
2.3316391e+2, 1.2650247e+2, -1666488.1, -1710346.1, -532.7167, -0.0038791755, -0.030599553, -1666481.6, 33787.12, 0.0, 5.0147467, 4.986194 
2.331641e+2, 1.314897e+2, -1618168.9, -1661692.8, -489.51422, -0.002357728, -0.020972343, -1618163.4, 33231.68, 0.0, 5.0145254, 4.9861917 
2.331643e+2, 1.364769e+2, -1572055.0, -1617573.0, -447.29126, -0.00084968284, -0.010078904, -1572050.6, 30471.11, 0.0, 5.0143037, 4.9846854 
2.3316428e+2, 1.4146085e+2, -1530200.1, -1582641.6, -601.0668, -0.00037099345, 0.010419404, -1530193.3, 23486.838, 0.0, 5.0141616, 4.980018 
2.3316386e+2, 1.4644076e+2, -1480868.6, -1533135.0, -595.9355, -0.001994789, 0.0056273197, -1480861.9, 24015.674, 0.0, 5.0141864, 4.9801545 
2.3316343e+2, 1.514206e+2, -1431724.0, -1484034.6, -558.4787, -0.0036914174, -0.00035349565, -1431718.0, 24357.848, 0.0, 5.014216, 4.980155 
2.3316301e+2, 1.5640041e+2, -1384009.0, -1437912.1, -521.1655, -0.005390818, -0.0058880937, -1384004.0, 23270.36, 0.0, 5.0142455, 4.9791603 
2.3316261e+2, 1.613766e+2, -1343288.1, -1406458.5, -628.3812, -0.0061866823, -0.0038325125, -1343281.9, 15226.392, 0.0, 5.014278, 4.9732566 
2.331623e+2, 1.6635023e+2, -1294021.3, -1357206.6, -720.98114, -0.0049180817, -0.0027173928, -1294013.0, 15754.863, 0.0, 5.014314, 4.9732823 
2.3316199e+2, 1.7132391e+2, -1244792.0, -1308031.1, -783.55475, -0.0035809665, -0.0013028968, -1244782.3, 16244.737, 0.0, 5.0143504, 4.973283 
2.3316167e+2, 1.7629759e+2, -1196700.1, -1261260.8, -846.28827, -0.002256865, 0.00050488283, -1196689.1, 15597.066, 0.0, 5.014386, 4.972476 
2.3316117e+2, 1.8126757e+2, -1156171.5, -1230367.6, -920.3674, -0.002622536, 0.008620816, -1156160.1, 7420.811, 0.0, 5.0143824, 4.9663186 
2.331602e+2, 1.8623398e+2, -1107007.9, -1180745.1, -881.12585, -0.006955674, 0.0051975613, -1106997.4, 7912.136, 0.0, 5.0142817, 4.9665103 
2.3315921e+2, 1.9120038e+2, -1058122.6, -1131696.5, -817.6462, -0.011476599, 0.0014271749, -1058113.6, 8124.487, 0.0, 5.014176, 4.9665117 
2.3315822e+2, 1.961668e+2, -1010127.75, -1084562.4, -754.07153, -0.016016398, -0.0020262068, -1010120.1, 7446.46, 0.0, 5.0140705, 4.9658623 
2.3315741e+2, 2.0112965e+2, -970522.2, -1055710.6, -687.2838, -0.018996812, 0.0031495644, -970516.6, -1586.067, 0.0, 5.0140033, 4.9589543 
2.33157e+2, 2.0608903e+2, -921036.75, -1006108.75, -680.3431, -0.018056165, 0.0039059126, -921031.3, -701.30444, 0.0, 5.014032, 4.959053 
2.331566e+2, 2.1104845e+2, -871673.75, -956794.7, -669.4011, -0.016937222, 0.0045947065, -871668.5, 60.941647, 0.0, 5.014065, 4.959054 
2.331562e+2, 2.1600787e+2, -822978.2, -908936.8, -658.4173, -0.015829293, 0.005422468, -822973.1, 155.68951, 0.0, 5.0140977, 4.958555 
2.3315567e+2, 2.2096366e+2, -782893.1, -879775.5, -762.5359, -0.015678013, 0.01346212, -782887.1, -8324.154, 0.0, 5.014094, 4.951636 
2.3315464e+2, 2.2591543e+2, -733457.44, -829538.44, -840.74, -0.018884046, 0.008229597, -733450.1, -7416.1255, 0.0, 5.0139565, 4.951998 
2.3315352e+2, 2.3086719e+2, -684524.8, -780365.2, -844.04517, -0.022376854, 0.0021966922, -684517.4, -7012.3374, 0.0, 5.013808, 4.952006 
2.331524e+2, 2.3581894e+2, -636240.4, -732637.3, -843.9945, -0.025911301, -0.0039565144, -636233.0, -7256.818, 0.0, 5.0136585, 4.951512 
2.3315154e+2, 2.4076743e+2, -597061.06, -704665.44, -340.372, -0.028891873, 0.003756326, -597060.0, -16579.854, 0.0, 5.013418, 4.9441714 
2.3315166e+2, 2.4571292e+2, -547891.44, -653983.7, 151.98949, -0.030885775, 0.0077941385, -547891.2, -15873.262, 0.0, 5.013051, 4.944752 
2.3315181e+2, 2.506584e+2, -499451.94, -605073.06, 261.53082, -0.03293294, 0.010829934, -499451.28, -15895.161, 0.0, 5.01269, 4.944735 
2.331519e+2, 2.556039e+2, -451255.22, -556723.4, 368.71472, -0.035015285, 0.014794122, -451253.94, -16160.376, 0.0, 5.012324, 4.944519 
2.3315172e+2, 2.6054555e+2, -410970.34, -525730.56, 225.55573, -0.03867452, 0.026867328, -410969.9, -24303.846, 0.0, 5.011878, 4.938079 
2.3314779e+2, 2.6548654e+2, -359013.47, -464736.13, 1177.8031, -0.07857629, -0.000010004866, -359000.34, -20767.342, 0.0, 5.010681, 4.9422994 
2.3314272e+2, 2.7042815e+2, -312396.5, -415768.88, 2695.192, -0.12710002, -0.036281317, -312326.28, -22534.035, 0.0, 5.009358, 4.9426064 
2.3313709e+2, 2.7536973e+2, -265752.0, -366986.2, 4395.135, -0.17802264, -0.07873527, -265561.53, -24209.408, 0.0, 5.0080156, 4.9428663 
2.3313822e+2, 2.803099e+2, -246635.0, -391215.94, 7734.997, -0.17780237, -0.00012682012, -246222.36, -53292.156, 0.0, 5.008855, 4.917153 
2.3314142e+2, 2.852384e+2, -185281.5, -319544.4, -421.80655, -0.1293905, 0.0697479, -185280.17, -40638.508, 0.0, 5.0105643, 4.9239473 
2.3313947e+2, 2.901614e+2, -134640.3, -268713.0, -1665.9015, -0.10534287, 0.046234854, -134619.61, -38210.258, 0.0, 5.010924, 4.924091 
2.3313694e+2, 2.950838e+2, -83947.73, -217956.88, -2631.8364, -0.08208733, 0.012829232, -83896.06, -35712.863, 0.0, 5.011227, 4.924235 
2.3313393e+2, 3.000203e+2, -17242.89, -96402.26, -3811.3428, -0.046261583, -0.027246773, -17059.807, -17059.807, 0.0, 5.01153, 4.958822 
2.3312157e+2, 3.0498692e+2, -3671.5496, -62053.36, -2496.4187, -0.040676042, -0.09344351, -3564.9966, -3564.9966, 0.0, 5.0113177, 4.9703116 
2.3310488e+2, 3.0996153e+2, -3063.9604, -58123.785, -807.6318, -0.060636804, -0.1394473, -3052.1165, -3052.1165, 0.0, 5.0108943, 4.971731 
2.330863e+2, 3.1493974e+2, -2196.8486, -54449.18, 898.51227, -0.0884871, -0.16407834, -2181.4028, -2181.4028, 0.0, 5.0104036, 4.973152 
2.3817945e+2, 1.2151949e+2, -1712234.5, -1752940.4, -737.2108, 0.0021161374, 0.009680025, -1712221.1, 36878.44, 0.0, 5.014788, 4.98827 
2.3817824e+2, 1.265023e+2, -1666689.6, -1710316.1, -681.5894, -0.008146634, -0.024929915, -1666679.0, 33591.563, 0.0, 5.014653, 4.9862494 
2.3817846e+2, 1.3148934e+2, -1618227.8, -1661592.8, -655.15094, -0.004062938, -0.017853705, -1618217.9, 33181.03, 0.0, 5.0144787, 4.986247 
2.381787e+2, 1.3647635e+2, -1571997.6, -1617416.3, -627.74347, 0.000008475889, -0.009512233, -1571989.0, 30538.604, 0.0, 5.014296, 4.9847407 
2.381787e+2, 1.4146015e+2, -1530096.8, -1582483.8, -644.3541, 0.002136047, 0.009120958, -1530088.9, 23598.314, 0.0, 5.014174, 4.980064 
2.3817827e+2, 1.4644006e+2, -1480777.3, -1532978.0, -601.28467, 0.00011433029, 0.0038022646, -1480770.3, 24113.676, 0.0, 5.0141935, 4.9802027 
2.381778e+2, 1.514199e+2, -1431653.1, -1483888.4, -567.15607, -0.0020580648, -0.0026709642, -1431647.0, 24434.76, 0.0, 5.0142164, 4.980203 
2.3817737e+2, 1.563997e+2, -1383961.5, -1437777.8, -533.8617, -0.0042359945, -0.008697682, -1383956.3, 23323.285, 0.0, 5.0142384, 4.979208 
2.3817699e+2, 1.6137592e+2, -1343413.9, -1406642.4, -639.77545, -0.0052989586, -0.0065407553, -1343407.4, 15105.764, 0.0, 5.0142617, 4.973203 
2.3817673e+2, 1.663496e+2, -1294220.5, -1357485.1, -724.91864, -0.0037817925, -0.0040899124, -1294212.3, 15560.595, 0.0, 5.014285, 4.9732027 
2.3817647e+2, 1.7132334e+2, -1245037.4, -1308331.3, -779.8437, -0.0021767316, -0.0013026929, -1245027.9, 16004.306, 0.0, 5.014305, 4.973203 
2.3817623e+2, 1.7629708e+2, -1197001.3, -1261586.9, -834.8503, -0.0005882948, 0.0018770276, -1196990.4, 15301.019, 0.0, 5.014322, 4.9723964 
2.3817573e+2, 1.8126708e+2, -1156341.8, -1230363.1, -987.1087, -0.00072494295, 0.01049746, -1156328.6, 7257.726, 0.0, 5.0143065, 4.9663553 
2.3817468e+2, 1.8623339e+2, -1107083.4, -1180599.6, -984.05725, -0.004904284, 0.0053021, -1107070.3, 7844.9077, 0.0, 5.0142183, 4.966589 
2.3817362e+2, 1.9119968e+2, -1058169.1, -1131537.0, -931.11127, -0.009278872, -0.00035976482, -1058157.3, 8086.751, 0.0, 5.014123, 4.9665904 
2.3817253e+2, 1.9616596e+2, -1010156.06, -1084394.1, -878.36005, -0.013677447, -0.005705171, -1010145.6, 7427.199, 0.0, 5.014024, 4.965941 
2.3817165e+2, 2.0112881e+2, -970626.75, -1055710.4, -745.7118, -0.016643746, -0.001151176, -970620.2, -1683.7228, 0.0, 5.0139575, 4.9589753 
2.3817122e+2, 2.0608848e+2, -921177.7, -1006148.9, -714.3738, -0.01613801, 0.0020797502, -921171.7, -837.8017, 0.0, 5.013978, 4.959064 
2.381708e+2, 2.1104817e+2, -871849.94, -956851.25, -705.6393, -0.015498535, 0.0053825104, -871844.06, -112.90136, 0.0, 5.013999, 4.9590645 
2.3817042e+2, 2.1600786e+2, -823201.56, -909015.1, -697.0756, -0.014880036, 0.008826407, -823195.94, -67.457184, 0.0, 5.014015, 4.9585657 
2.3816982e+2, 2.2096378e+2, -783197.2, -879934.8, -893.53174, -0.015193507, 0.018101739, -783188.94, -8627.16, 0.0, 5.0139933, 4.9516253 
2.381686e+2, 2.2591521e+2, -733802.25, -829722.8, -1019.13654, -0.018746171, 0.009452568, -733791.44, -7755.6177, 0.0, 5.013844, 4.951983 
2.3816733e+2, 2.3086658e+2, -684930.5, -780575.6, -1033.903, -0.022583777, -0.0003460099, -684919.4, -7409.1284, 0.0, 5.0136743, 4.951991 
2.3816603e+2, 2.3581795e+2, -636738.44, -732887.75, -1053.5541, -0.026480062, -0.010239023, -636726.9, -7742.2065, 0.0, 5.0134926, 4.9514976 
2.3816492e+2, 2.407664e+2, -597647.06, -704792.7, -754.62195, -0.02985371, -0.003100221, -597641.75, -17152.662, 0.0, 5.013195, 4.944224 
2.381646e+2, 2.4571255e+2, -548476.56, -653762.2, -382.10355, -0.032235548, 0.006028904, -548475.2, -16455.008, 0.0, 5.012764, 4.944951 
2.3816434e+2, 2.5065872e+2, -500218.38, -604930.2, -341.83548, -0.034690488, 0.01394398, -500217.25, -16665.787, 0.0, 5.012339, 4.944934 
2.38164e+2, 2.5560495e+2, -452217.0, -556664.4, -294.02206, -0.037210025, 0.022723958, -452216.16, -17134.09, 0.0, 5.0119047, 4.944719 
2.3816329e+2, 2.6054677e+2, -412085.5, -525002.44, -932.3692, -0.041083213, 0.03448988, -412077.78, -25426.361, 0.0, 5.0112767, 4.938559 
2.3815824e+2, 2.6548693e+2, -361523.75, -463148.88, -1355.8492, -0.08354962, -0.014031414, -361505.66, -23286.055, 0.0, 5.009328, 4.9433494 
2.3815191e+2, 2.7042785e+2, -317929.13, -415417.13, -1545.1459, -0.13564564, -0.07305801, -317904.63, -28126.088, 0.0, 5.006938, 4.943681 
2.38145e+2, 2.7536884e+2, -275071.4, -368182.3, -2031.534, -0.19073626, -0.13702445, -275027.1, -33690.16, 0.0, 5.004253, 4.9439654 
2.3814653e+2, 2.803103e+2, -262231.47, -404595.97, 987.9168, -0.18841176, -0.040323257, -262224.63, -69327.55, 0.0, 5.004492, 4.914427 
2.3815149e+2, 2.8524104e+2, -192978.13, -324614.28, -6457.71, -0.13367674, 0.06451216, -192662.08, -48069.31, 0.0, 5.00799, 4.9233084 
2.3815039e+2, 2.9016525e+2, -138497.69, -271817.13, -5832.5728, -0.10745573, 0.053186413, -138243.02, -41886.8, 0.0, 5.009716, 4.9235244 
2.3814872e+2, 2.9508895e+2, -85189.61, -219636.89, -5417.804, -0.08296385, 0.03241563, -84971.64, -36846.72, 0.0, 5.010959, 4.9237413 
2.3814692e+2, 3.0002463e+2, -18843.889, -100946.81, -5876.5303, -0.041601434, -0.0070422976, -18425.408, -18425.408, 0.0, 5.0117073, 4.9570594 
2.3813662e+2, 3.0498767e+2, -4690.262, -62096.707, -5573.391, -0.012814731, -0.12185319, -4154.1675, -4154.1675, 0.0, 5.0109105, 4.9701734 
2.381219e+2, 3.099592e+2, -8161.461, -60541.516, -4546.1074, -0.010472577, -0.2203523, -7769.8286, -7769.8286, 0.0, 5.0091257, 4.9713526 
2.3810521e+2, 3.1493425e+2, -13312.646, -60008.96, -2862.436, -0.018827908, -0.2945529, -13137.836, -13137.836, 0.0, 5.0065775, 4.972534 
2.4319385e+2, 1.2151849e+2, -1713258.5, -1753118.3, -538.64764, 0.0008265412, 0.0066522122, -1713251.3, 35858.563, 0.0, 5.014375, 4.988416 
2.4319263e+2, 1.26502e+2, -1667351.4, -1710683.5, -722.5434, -0.009428357, -0.020933596, -1667339.4, 32934.637, 0.0, 5.014439, 4.986236 
2.4319285e+2, 1.3148883e+2, -1618290.4, -1661658.6, -765.1879, -0.004648811, -0.015744088, -1618276.9, 33127.523, 0.0, 5.014463, 4.986235 
2.431931e+2, 1.3647565e+2, -1571439.1, -1617171.6, -808.81665, 0.00018971595, -0.009271272, -1571424.9, 31110.115, 0.0, 5.014487, 4.9847302 
2.4319313e+2, 1.4145932e+2, -1529083.8, -1581931.9, -833.0169, 0.00302342, 0.008161173, -1529070.6, 24625.06, 0.0, 5.0145, 4.980089 
2.4319273e+2, 1.464393e+2, -1479831.3, -1532440.8, -793.22546, 0.0013925225, 0.0030349789, -1479819.3, 25072.32, 0.0, 5.014494, 4.980236 
2.4319233e+2, 1.5141918e+2, -1430798.9, -1483399.8, -775.2102, -0.0003913825, -0.0031998258, -1430787.4, 25301.021, 0.0, 5.0144873, 4.9802356 
2.4319194e+2, 1.5639904e+2, -1383195.1, -1437335.5, -757.47675, -0.0021669108, -0.008988883, -1383184.5, 24100.82, 0.0, 5.0144806, 4.9792404 
2.4319157e+2, 1.613753e+2, -1342853.6, -1406419.6, -870.6376, -0.0029285026, -0.0066436143, -1342841.6, 15676.822, 0.0, 5.0144596, 4.973183 
2.4319132e+2, 1.6634896e+2, -1293894.9, -1357412.0, -912.4753, -0.0013543878, -0.004068286, -1293881.8, 15896.842, 0.0, 5.014412, 4.9731674 
2.4319103e+2, 1.7132267e+2, -1244914.4, -1308356.0, -921.12, 0.00033438494, -0.0011550734, -1244901.0, 16137.33, 0.0, 5.014363, 4.973168 
2.4319078e+2, 1.7629638e+2, -1197069.9, -1261703.5, -929.9683, 0.0020444111, 0.0021500164, -1197056.5, 15241.643, 0.0, 5.0143137, 4.9723606 
2.4319029e+2, 1.8126635e+2, -1156400.5, -1230380.9, -1070.535, 0.002097176, 0.010632932, -1156385.0, 7208.5146, 0.0, 5.0142827, 4.9663606 
2.4318925e+2, 1.862326e+2, -1106830.5, -1180442.3, -1134.4276, -0.0017742966, 0.004625354, -1106813.0, 8109.679, 0.0, 5.014295, 4.966606 
2.4318816e+2, 1.9119883e+2, -1057597.0, -1131229.5, -1152.1508, -0.0057945736, -0.0018887913, -1057579.0, 8672.975, 0.0, 5.01431, 4.9666066 
2.4318708e+2, 1.9616504e+2, -1009256.0, -1083933.3, -1169.9493, -0.009796948, -0.008093168, -1009237.7, 8343.417, 0.0, 5.014324, 4.965957 
2.4318619e+2, 2.0112787e+2, -969549.25, -1055153.8, -1071.9347, -0.012525581, -0.0038608348, -969535.8, -591.1602, 0.0, 5.0143166, 4.9589972 
2.4318571e+2, 2.0608768e+2, -920362.4, -1005710.4, -1015.8477, -0.012277364, 0.00053307903, -920350.25, -9.465184, 0.0, 5.014246, 4.9590893 
2.4318524e+2, 2.1104752e+2, -871311.25, -956545.0, -981.9909, -0.011883817, 0.0050823065, -871299.94, 436.8191, 0.0, 5.0141716, 4.9590898 
2.4318479e+2, 2.1600735e+2, -822925.5, -908833.6, -948.11487, -0.011470465, 0.009771479, -822915.06, 217.64644, 0.0, 5.0140967, 4.9585905 
2.4318413e+2, 2.2096333e+2, -783035.9, -879746.5, -1139.7347, -0.011945838, 0.01935866, -783022.44, -8457.135, 0.0, 5.0140214, 4.9516783 
2.431828e+2, 2.2591458e+2, -733490.2, -829486.8, -1195.3163, -0.015439181, 0.008379485, -733475.3, -7434.5483, 0.0, 5.0139256, 4.9520297 
2.4318141e+2, 2.3086573e+2, -684420.06, -780270.94, -1111.5425, -0.019073004, -0.003960944, -684407.2, -6890.3813, 0.0, 5.013826, 4.952031 
2.4318002e+2, 2.358169e+2, -635999.3, -732501.0, -1024.3116, -0.022643168, -0.016452787, -635988.44, -6995.369, 0.0, 5.0137258, 4.951531 
2.4317871e+2, 2.4076524e+2, -596693.75, -704520.9, -821.11536, -0.025603907, -0.010193804, -596687.5, -16189.482, 0.0, 5.013525, 4.9441843 
2.4317801e+2, 2.4571182e+2, -547544.56, -653523.44, -701.5025, -0.027245428, 0.0035807253, -547539.9, -15514.701, 0.0, 5.0130816, 4.9449096 
2.4317735e+2, 2.5065845e+2, -499366.25, -604697.0, -866.3951, -0.028705247, 0.016442126, -499359.13, -15806.886, 0.0, 5.0126224, 4.9449034 
2.4317664e+2, 2.5560516e+2, -451429.66, -556429.3, -1033.2126, -0.030020935, 0.030057589, -451419.47, -16340.861, 0.0, 5.0121574, 4.944699 
2.4317561e+2, 2.6054707e+2, -411019.84, -525121.2, -1979.3424, -0.031269457, 0.04319173, -410985.5, -24339.053, 0.0, 5.011672, 4.938378 
2.4317038e+2, 2.6548538e+2, -358453.4, -464036.34, -2680.8748, -0.062172882, -0.018381864, -358385.38, -20156.498, 0.0, 5.010572, 4.9426107 
2.4316399e+2, 2.7042362e+2, -311716.94, -416045.88, -2543.6858, -0.09942319, -0.09452963, -311654.97, -21845.252, 0.0, 5.009334, 4.942605 
2.4315706e+2, 2.753613e+2, -264955.56, -368229.0, -2208.2874, -0.13747361, -0.17834163, -264908.38, -23512.361, 0.0, 5.008071, 4.9425516 
2.4315856e+2, 2.8030014e+2, -251609.31, -399569.75, 5423.945, -0.12704445, -0.09569008, -251410.75, -58432.39, 0.0, 5.0081677, 4.9143324 
2.43164e+2, 2.8523394e+2, -186824.4, -317766.2, -1636.4012, -0.08848094, 0.029112564, -186803.97, -42157.45, 0.0, 5.009802, 4.924342 
2.431636e+2, 2.901617e+2, -134287.55, -267112.9, -2897.538, -0.07493932, 0.04211758, -134224.38, -37846.203, 0.0, 5.0108967, 4.9242096 
2.4316266e+2, 2.9508877e+2, -81712.61, -216541.58, -3913.5244, -0.060275674, 0.04698964, -81599.12, -33482.293, 0.0, 5.0119314, 4.9240766 
2.4316187e+2, 3.0002648e+2, -15491.245, -103021.984, -5020.6123, -0.024454912, 0.027134385, -15204.213, -15204.213, 0.0, 5.0133286, 4.955407 
2.4315456e+2, 3.049851e+2, 5653.342, -64037.01, -6625.3003, 0.023404496, -0.115275465, 6277.602, 6277.602, 0.0, 5.015352, 4.967283 
2.4314333e+2, 3.0994976e+2, 12546.971, -57760.28, -7922.0894, 0.05483766, -0.26927885, 13428.5625, 13428.5625, 0.0, 5.017168, 4.9685025 
2.4313031e+2, 3.149162e+2, 19602.7, -51652.43, -8923.773, 0.08068634, -0.42219093, 20703.287, 20703.287, 0.0, 5.018912, 4.9697237 
2.4820803e+2, 1.2151751e+2, -1712359.0, -1751279.6, -233.23112, -0.0011459802, 0.004025145, -1712357.6, 36763.21, 0.0, 5.0143733, 4.989021 
2.4820709e+2, 1.2650162e+2, -1667427.1, -1710831.0, -707.0627, -0.009235042, -0.017860238, -1667415.6, 32862.94, 0.0, 5.014437, 4.986189 
2.4820732e+2, 1.3148823e+2, -1618364.1, -1661805.4, -748.1732, -0.0046765436, -0.014164878, -1618351.3, 33059.6, 0.0, 5.0144615, 4.986188 
2.4820757e+2, 1.3647485e+2, -1571511.0, -1617317.9, -790.25854, -0.00008208123, -0.009193313, -1571497.4, 31046.002, 0.0, 5.014486, 4.984683 
2.4820761e+2, 1.4145842e+2, -1529069.4, -1581899.9, -834.75964, 0.0028564818, 0.0073886947, -1529056.1, 24648.916, 0.0, 5.0144997, 4.9801 
2.482073e+2, 1.4643848e+2, -1479796.1, -1532365.4, -798.13434, 0.0020879803, 0.0028877854, -1479784.0, 25116.014, 0.0, 5.0144935, 4.980262 
2.4820699e+2, 1.5141846e+2, -1430764.0, -1483324.6, -779.598, 0.0011854573, -0.002667323, -1430752.4, 25343.318, 0.0, 5.014487, 4.9802613 
2.4820666e+2, 1.5639842e+2, -1383160.5, -1437260.5, -761.3392, 0.00028631603, -0.007777666, -1383149.9, 24141.746, 0.0, 5.0144796, 4.9792657 
2.4820635e+2, 1.613747e+2, -1342854.8, -1406416.8, -903.1474, 0.00012359422, -0.0051818816, -1342842.0, 15682.204, 0.0, 5.014459, 4.973184 
2.4820602e+2, 1.6634831e+2, -1293910.9, -1357439.8, -949.64154, 0.0016245581, -0.0032141085, -1293896.6, 15888.222, 0.0, 5.014411, 4.9731584 
2.482057e+2, 1.7132194e+2, -1244930.5, -1308383.9, -957.52747, 0.0031986984, -0.0009301567, -1244916.1, 16129.259, 0.0, 5.014362, 4.973159 
2.4820536e+2, 1.7629558e+2, -1197086.1, -1261731.5, -965.61084, 0.0047817817, 0.0017466366, -1197071.6, 15234.095, 0.0, 5.0143127, 4.972352 
2.4820484e+2, 1.8126549e+2, -1156424.6, -1230426.9, -1071.549, 0.004855513, 0.009731757, -1156409.1, 7192.496, 0.0, 5.0142817, 4.9663453 
2.4820386e+2, 1.8623169e+2, -1106862.3, -1180504.8, -1121.9807, 0.0014147573, 0.0035673236, -1106845.1, 8086.017, 0.0, 5.014294, 4.966585 
2.4820285e+2, 1.9119787e+2, -1057629.0, -1131292.0, -1138.6313, -0.0021669033, -0.0030819487, -1057611.4, 8649.338, 0.0, 5.014309, 4.966586 
2.4820183e+2, 1.9616407e+2, -1009288.3, -1083996.0, -1155.3586, -0.005744654, -0.009417032, -1009270.44, 8319.803, 0.0, 5.0143228, 4.965936 
2.4820095e+2, 2.0112689e+2, -969512.0, -1055070.5, -1109.0464, -0.0081969965, -0.0052891974, -969497.6, -543.7386, 0.0, 5.014316, 4.959026 
2.4820039e+2, 2.0608674e+2, -920301.6, -1005577.94, -1072.1497, -0.007997664, -0.0008084864, -920288.2, 61.20234, 0.0, 5.014246, 4.959135 
2.4819985e+2, 2.1104665e+2, -871250.94, -956412.94, -1036.7524, -0.0076850927, 0.003855242, -871238.3, 506.2863, 0.0, 5.014171, 4.959135 
2.481993e+2, 2.1600653e+2, -822865.6, -908701.8, -1001.32996, -0.007371583, 0.008662766, -822853.94, 285.9114, 0.0, 5.0140963, 4.9586363 
2.4819857e+2, 2.2096254e+2, -782906.75, -879447.06, -1204.1589, -0.007944736, 0.017919488, -782891.7, -8319.837, 0.0, 5.014019, 4.9517817 
2.4819715e+2, 2.259138e+2, -733359.94, -829162.5, -1258.1194, -0.011336523, 0.005825765, -733343.4, -7296.519, 0.0, 5.01392, 4.952144 
2.481957e+2, 2.3086496e+2, -684297.8, -779944.75, -1169.3008, -0.014890386, -0.0075860964, -684283.5, -6761.0884, 0.0, 5.013818, 4.9521475 
2.4819422e+2, 2.3581612e+2, -635884.94, -732172.9, -1077.0161, -0.018430036, -0.021116298, -635872.9, -6874.8193, 0.0, 5.013715, 4.9516487 
2.4819276e+2, 2.407645e+2, -596814.7, -704597.75, -1081.1462, -0.021355687, -0.015308068, -596803.9, -16301.409, 0.0, 5.0134964, 4.944167 
2.4819165e+2, 2.4571128e+2, -547810.4, -653884.25, -1075.5894, -0.022591064, 0.0016012604, -547799.44, -15771.556, 0.0, 5.0130467, 4.9447956 
2.4819055e+2, 2.5065815e+2, -499624.6, -605055.7, -1233.643, -0.023638673, 0.018138357, -499610.16, -16057.219, 0.0, 5.0125895, 4.9447885 
2.4818939e+2, 2.556051e+2, -451680.53, -556786.06, -1393.6055, -0.024598937, 0.03546538, -451662.06, -16584.775, 0.0, 5.0121264, 4.944583 
2.4818796e+2, 2.605472e+2, -411009.56, -524618.9, -2383.9946, -0.024993807, 0.049610943, -410959.53, -24316.03, 0.0, 5.011601, 4.938587 
2.4818273e+2, 2.6548472e+2, -358993.5, -463778.78, -2991.818, -0.049376912, -0.019201325, -358908.16, -20677.133, 0.0, 5.0103645, 4.94279 
2.4817632e+2, 2.7042228e+2, -312559.28, -415486.0, -2691.27, -0.08057186, -0.102126166, -312488.94, -22673.01, 0.0, 5.0089965, 4.942915 
2.4816933e+2, 2.7535957e+2, -266100.5, -367366.7, -2192.3213, -0.11410693, -0.19152415, -266053.06, -24649.232, 0.0, 5.0076027, 4.942992 
2.4817026e+2, 2.802978e+2, -250080.61, -396407.94, 5915.281, -0.1089835, -0.12344708, -249841.88, -56851.71, 0.0, 5.00821, 4.915508 
2.4817613e+2, 2.8523207e+2, -185718.36, -318730.9, -718.61206, -0.074091606, 0.006277678, -185714.47, -41060.9, 0.0, 5.0102687, 4.9240675 
2.481768e+2, 2.90161e+2, -133312.45, -267593.4, -1759.9103, -0.059257828, 0.03633558, -133289.39, -36915.35, 0.0, 5.0112915, 4.924083 
2.4817686e+2, 2.9508933e+2, -80869.836, -216539.83, -2556.267, -0.0451436, 0.057423484, -80821.69, -32720.752, 0.0, 5.0122547, 4.924099 
2.4817722e+2, 3.0002832e+2, -15316.429, -103103.41, -3162.2554, -0.012954657, 0.051739063, -15202.665, -15202.665, 0.0, 5.013495, 4.955406 
2.4817295e+2, 3.0498523e+2, 2904.304, -68367.34, -4184.125, 0.03980024, -0.088504806, 3149.0994, 3149.0994, 0.0, 5.0151505, 4.965967 
2.481651e+2, 3.09948e+2, 8637.585, -62556.945, -4958.0654, 0.07561958, -0.2338153, 8981.212, 8981.212, 0.0, 5.0166216, 4.967188 
2.481552e+2, 3.1491327e+2, 14536.391, -56914.426, -5436.9146, 0.10105272, -0.36883333, 14947.734, 14947.734, 0.0, 5.01802, 4.9684105 
2.5322223e+2, 1.21516496e+2, -1711403.6, -1749325.9, 72.888, -0.003127042, 0.0011716901, -1711403.5, 37728.67, 0.0, 5.0143714, 4.989663 
2.5322157e+2, 1.2650122e+2, -1667503.4, -1710977.9, -691.3087, -0.009018153, -0.014735811, -1667492.5, 32790.582, 0.0, 5.0144353, 4.9861417 
2.5322178e+2, 1.3148765e+2, -1618438.5, -1661951.6, -730.8853, -0.0046833707, -0.012551625, -1618426.3, 32991.023, 0.0, 5.0144606, 4.9861407 
2.5322202e+2, 1.3647406e+2, -1571583.5, -1617463.5, -771.4272, -0.0003356408, -0.009098336, -1571570.5, 30981.236, 0.0, 5.014485, 4.9846354 
2.5322208e+2, 1.4145751e+2, -1529058.9, -1581875.1, -836.45056, 0.0026934647, 0.0066275857, -1529045.6, 24668.893, 0.0, 5.014499, 4.9801087 
2.5322187e+2, 1.4643767e+2, -1479761.3, -1532289.9, -803.06836, 0.0027843742, 0.002745481, -1479748.9, 25159.492, 0.0, 5.014493, 4.980287 
2.5322163e+2, 1.5141772e+2, -1430729.4, -1483249.3, -784.011, 0.00276344, -0.0021388065, -1430717.6, 25385.404, 0.0, 5.0144863, 4.980287 
2.532214e+2, 1.5639777e+2, -1383126.3, -1437185.3, -765.22675, 0.0027408923, -0.006579311, -1383115.4, 24182.465, 0.0, 5.014479, 4.9792914 
2.5322112e+2, 1.6137412e+2, -1342858.0, -1406417.6, -935.64655, 0.0031749178, -0.0037098404, -1342844.3, 15685.642, 0.0, 5.014458, 4.973184 
2.5322074e+2, 1.6634765e+2, -1293927.1, -1357467.4, -986.7617, 0.0046037007, -0.0023487036, -1293911.9, 15879.341, 0.0, 5.01441, 4.9731493 
2.5322035e+2, 1.7132121e+2, -1244946.9, -1308411.5, -993.88885, 0.0060650026, -0.00070262863, -1244931.4, 16120.928, 0.0, 5.014361, 4.97315 
2.5321996e+2, 1.7629479e+2, -1197102.6, -1261759.4, -1001.2072, 0.007522937, 0.0013372521, -1197087.1, 15226.29, 0.0, 5.014312, 4.972343 
2.5321943e+2, 1.8126464e+2, -1156451.9, -1230478.6, -1072.117, 0.0076084295, 0.008844799, -1156436.4, 7173.407, 0.0, 5.014281, 4.966328 
2.5321847e+2, 1.8623081e+2, -1106894.4, -1180567.0, -1109.4989, 0.0045953677, 0.002518629, -1106877.6, 8062.0083, 0.0, 5.014293, 4.966564 
2.5321752e+2, 1.9119695e+2, -1057661.4, -1131354.4, -1125.0769, 0.0014529811, -0.0042813197, -1057644.1, 8625.362, 0.0, 5.0143075, 4.966565 
2.5321656e+2, 1.9616312e+2, -1009320.9, -1084058.4, -1140.7328, -0.0016994888, -0.010762657, -1009303.5, 8295.856, 0.0, 5.014322, 4.965915 
2.532157e+2, 2.0112592e+2, -969482.75, -1055003.9, -1145.4869, -0.0038601507, -0.006673866, -969467.4, -504.33884, 0.0, 5.0143156, 4.9590487 
2.5321507e+2, 2.0608582e+2, -920241.4, -1005445.2, -1128.5704, -0.0037080015, -0.0020989676, -920226.4, 131.48067, 0.0, 5.0142455, 4.9591804 
2.5321445e+2, 2.1104576e+2, -871191.06, -956280.5, -1091.6329, -0.0034797927, 0.002653664, -871177.06, 575.3717, 0.0, 5.014171, 4.959181 
2.5321382e+2, 2.1600573e+2, -822806.2, -908569.7, -1054.6638, -0.0032695103, 0.007553942, -822793.2, 353.80145, 0.0, 5.0140963, 4.9586816 
2.53213e+2, 2.2096176e+2, -782787.3, -879166.56, -1271.2119, -0.0039374875, 0.01649451, -782770.56, -8192.086, 0.0, 5.0140166, 4.9518785 
2.532115e+2, 2.2591299e+2, -733231.2, -828836.9, -1323.5903, -0.0072448007, 0.0032263065, -733212.9, -7159.8706, 0.0, 5.0139136, 4.9522576 
2.5320995e+2, 2.3086417e+2, -684177.06, -779617.25, -1229.7273, -0.010736221, -0.011345374, -684161.25, -6633.1587, 0.0, 5.013809, 4.9522624 
2.532084e+2, 2.3581532e+2, -635772.2, -731843.44, -1132.3893, -0.014262877, -0.026002314, -635758.8, -6755.6143, 0.0, 5.013704, 4.951766 
2.5320676e+2, 2.4076378e+2, -596976.1, -704748.2, -1364.0476, -0.017116014, -0.020135373, -596958.9, -16452.244, 0.0, 5.0134683, 4.944122 
2.5320524e+2, 2.4571079e+2, -548085.06, -654236.3, -1450.0029, -0.017905572, 0.0001181291, -548065.25, -16035.074, 0.0, 5.0130115, 4.944681 
2.5320372e+2, 2.506579e+2, -499891.78, -605405.75, -1601.216, -0.018519701, 0.020220166, -499867.5, -16314.227, 0.0, 5.012556, 4.944673 
2.5320214e+2, 2.556051e+2, -451940.28, -557134.1, -1754.3215, -0.01910327, 0.041148003, -451911.03, -16835.385, 0.0, 5.0120955, 4.944466 
2.5320032e+2, 2.6054716e+2, -411190.53, -524468.8, -2911.523, -0.017896207, 0.05542643, -411115.75, -24473.807, 0.0, 5.01153, 4.938651 
2.5319487e+2, 2.6548377e+2, -359576.16, -463484.88, -3497.996, -0.03656109, -0.023362441, -359458.53, -21222.46, 0.0, 5.0101576, 4.9429307 
2.5318816e+2, 2.7042055e+2, -313443.88, -414889.2, -3034.3086, -0.063060485, -0.11576326, -313353.22, -23527.326, 0.0, 5.008659, 4.9431863 
2.5318086e+2, 2.7535734e+2, -267287.5, -366466.8, -2372.0405, -0.0934404, -0.21344534, -267230.78, -25814.604, 0.0, 5.007135, 4.943394 
2.53182e+2, 2.802955e+2, -250079.28, -396727.25, 7026.076, -0.089320995, -0.14874148, -249743.42, -56742.41, 0.0, 5.008254, 4.9154572 
2.5318897e+2, 2.852307e+2, -184706.27, -319605.22, -85.01127, -0.055545513, -0.0067036417, -184706.22, -40050.36, 0.0, 5.0107355, 4.923755 
2.5319058e+2, 2.901607e+2, -132430.73, -267983.53, -906.1272, -0.041227903, 0.03675327, -132424.67, -36058.176, 0.0, 5.011687, 4.923919 
2.531915e+2, 2.9509005e+2, -80119.86, -216447.72, -1482.5458, -0.029471135, 0.07040268, -80103.74, -32020.707, 0.0, 5.0125785, 4.9240837 
2.5319305e+2, 3.0002987e+2, -15938.793, -104733.984, -1474.6029, 0.00039847923, 0.07534345, -15914.312, -15914.312, 0.0, 5.013662, 4.954784 
2.5319174e+2, 3.0498448e+2, 41.397247, -72591.03, -1787.6273, 0.06285271, -0.07137796, 85.36767, 85.36767, 0.0, 5.0149493, 4.9645452 
2.531869e+2, 3.0994493e+2, 4613.2603, -67248.12, -2037.4457, 0.10653345, -0.2193996, 4670.9805, 4670.9805, 0.0, 5.0160756, 4.965767 
2.5317988e+2, 3.1490856e+2, 9353.529, -62072.137, -1992.0027, 0.13502878, -0.3479329, 9409.041, 9409.041, 0.0, 5.0171294, 4.9669905 
2.582364e+2, 1.2151547e+2, -1710771.8, -1747471.4, 416.1548, -0.00507997, -0.001850443, -1710767.0, 38376.605, 0.0, 5.014249, 4.9903326 
2.5823602e+2, 1.2650083e+2, -1667835.1, -1711252.6, -645.6235, -0.008741864, -0.01158759, -1667825.5, 32461.988, 0.0, 5.014349, 4.986094 
2.5823626e+2, 1.3148706e+2, -1618656.4, -1662169.4, -680.553, -0.0046517695, -0.010920394, -1618645.8, 32777.938, 0.0, 5.0144114, 4.986093 
2.5823647e+2, 1.3647327e+2, -1571703.1, -1617632.1, -714.64886, -0.00056475116, -0.00899107, -1571692.0, 30868.125, 0.0, 5.014468, 4.984588 
2.582366e+2, 1.4145662e+2, -1529043.3, -1581857.3, -802.26544, 0.0025355674, 0.0058808685, -1529031.1, 24692.79, 0.0, 5.014502, 4.9801135 
2.5823644e+2, 1.4643684e+2, -1479715.4, -1532213.6, -790.9509, 0.0034803606, 0.0026125424, -1479703.5, 25213.361, 0.0, 5.014497, 4.980311 
2.582363e+2, 1.51417e+2, -1430687.3, -1483174.6, -790.1735, 0.004341702, -0.0016070209, -1430675.4, 25435.031, 0.0, 5.014489, 4.9803104 
2.5823614e+2, 1.5639715e+2, -1383092.9, -1437114.5, -789.20325, 0.0051995027, -0.0053822696, -1383081.4, 24222.74, 0.0, 5.014479, 4.9793153 
2.5823587e+2, 1.6137354e+2, -1342864.4, -1406422.1, -997.5591, 0.0062290234, -0.0022133784, -1342848.8, 15686.832, 0.0, 5.0144567, 4.973183 
2.5823545e+2, 1.66347e+2, -1293928.5, -1357486.1, -1046.3368, 0.0075796586, -0.001459718, -1293911.3, 15886.253, 0.0, 5.014414, 4.9731407 
2.58235e+2, 1.7132048e+2, -1244937.5, -1308425.6, -1045.7885, 0.008928461, -0.00046312387, -1244920.4, 16138.916, 0.0, 5.0143685, 4.973141 
2.5823456e+2, 1.7629397e+2, -1197088.5, -1261771.5, -1045.8121, 0.010267456, 0.00092688296, -1197071.6, 15249.395, 0.0, 5.0143213, 4.972334 
2.5823396e+2, 1.8126376e+2, -1156456.4, -1230524.4, -1078.1478, 0.010366057, 0.007973922, -1156440.6, 7177.2466, 0.0, 5.014289, 4.9663086 
2.582331e+2, 1.862299e+2, -1106917.9, -1180626.0, -1108.4045, 0.007793123, 0.0014869039, -1106901.3, 8046.863, 0.0, 5.0142956, 4.9665427 
2.582322e+2, 1.9119601e+2, -1057713.4, -1131426.9, -1128.6866, 0.0051129, -0.005476663, -1057696.1, 8582.292, 0.0, 5.0143003, 4.9665437 
2.582313e+2, 1.9616213e+2, -1009413.0, -1084149.8, -1148.8083, 0.0024155925, -0.012121431, -1009395.4, 8213.156, 0.0, 5.0143003, 4.9658937 
2.582305e+2, 2.0112494e+2, -969550.94, -1054996.9, -1206.2599, 0.00057880866, -0.008008903, -969533.9, -561.6486, 0.0, 5.0142846, 4.9590654 
2.5822976e+2, 2.060849e+2, -920249.1, -1005345.8, -1216.8231, 0.0006620893, -0.0033178239, -920231.75, 134.64787, 0.0, 5.0142226, 4.9592247 
2.5822908e+2, 2.110449e+2, -871184.94, -956174.6, -1186.2842, 0.0007873909, 0.0015107275, -871168.4, 591.9333, 0.0, 5.0141525, 4.9592247 
2.5822833e+2, 2.160049e+2, -822797.8, -908462.75, -1155.3589, 0.0008863759, 0.006486426, -822782.25, 371.93347, 0.0, 5.0140786, 4.958726 
2.582274e+2, 2.2096097e+2, -782731.0, -878936.56, -1400.9753, 0.00013490528, 0.015125051, -782710.6, -8125.5137, 0.0, 5.0139966, 4.951966 
2.5822586e+2, 2.259122e+2, -733157.4, -828547.44, -1484.5585, -0.0030735284, 0.00060444535, -733134.25, -7074.958, 0.0, 5.0138907, 4.952366 
2.5822422e+2, 2.3086335e+2, -684133.06, -779339.3, -1424.3124, -0.006465414, -0.015255631, -684111.75, -6577.738, 0.0, 5.0137763, 4.9523716 
2.582226e+2, 2.3581448e+2, -635780.75, -731587.0, -1365.6185, -0.009919293, -0.031190446, -635761.3, -6752.545, 0.0, 5.013653, 4.951875 
2.5822076e+2, 2.4076304e+2, -597294.3, -705057.4, -1884.1763, -0.012572323, -0.024830215, -597261.4, -16750.39, 0.0, 5.0133996, 4.9440417 
2.5821885e+2, 2.4571028e+2, -548400.06, -654636.06, -2095.7354, -0.012788316, -0.00093946396, -548358.75, -16326.217, 0.0, 5.0129676, 4.944556 
2.582169e+2, 2.5065762e+2, -500126.5, -605768.8, -2300.711, -0.012825974, 0.022747124, -500076.4, -16522.707, 0.0, 5.0125422, 4.9445477 
2.582149e+2, 2.5560504e+2, -452099.22, -557462.56, -2506.2021, -0.01285394, 0.047314793, -452039.63, -16965.508, 0.0, 5.0121107, 4.9443407 
2.582128e+2, 2.605469e+2, -411647.88, -524963.2, -4197.8115, -0.008933436, 0.061070316, -411492.6, -24850.346, 0.0, 5.011471, 4.9384794 
2.5820693e+2, 2.6548228e+2, -361694.66, -464411.0, -5995.5767, -0.021082608, -0.030553006, -361345.88, -23099.361, 0.0, 5.0094986, 4.942827 
2.5819984e+2, 2.7041787e+2, -318200.97, -416742.84, -6905.1475, -0.04180429, -0.1362918, -317719.47, -27873.764, 0.0, 5.00705, 4.943154 
2.5819203e+2, 2.7535352e+2, -275576.06, -369627.16, -7924.9873, -0.06721491, -0.2471532, -274912.97, -33468.56, 0.0, 5.004255, 4.9434342 
2.5819427e+2, 2.8029168e+2, -262104.5, -404785.0, 2492.571, -0.05740093, -0.17771429, -262060.97, -69033.67, 0.0, 5.004584, 4.914262 
2.5820288e+2, 2.8522855e+2, -190496.56, -322259.9, -4115.5083, -0.025650477, -0.014648656, -190368.16, -45702.492, 0.0, 5.0088024, 4.923651 
2.5820515e+2, 2.901599e+2, -134332.95, -268700.0, -3365.7107, -0.016747352, 0.041017365, -134248.7, -37885.723, 0.0, 5.011133, 4.9238696 
2.5820673e+2, 2.9509065e+2, -79810.42, -215968.8, -2853.438, -0.011085169, 0.08603234, -79750.65, -31684.205, 0.0, 5.0128164, 4.9240885 
2.582095e+2, 3.0003107e+2, -17313.793, -107894.25, -1805.813, 0.017117387, 0.10001482, -17277.807, -17277.807, 0.0, 5.0139194, 4.9534535 
2.5821105e+2, 3.049825e+2, -6420.226, -78213.51, -1334.4099, 0.096455164, -0.06507082, -6395.432, -6395.432, 0.0, 5.013525, 4.9629226 
2.582091e+2, 3.0993956e+2, -9917.29, -75949.95, 246.7524, 0.15673378, -0.23567483, -9916.368, -9916.368, 0.0, 5.011719, 4.9642606 
2.582049e+2, 3.149004e+2, -16402.838, -75207.64, 3567.9011, 0.19957429, -0.38220865, -16187.151, -16187.151, 0.0, 5.0086894, 4.9655976 
2.6325038e+2, 1.2151478e+2, -1711478.0, -1747588.9, 650.2493, -0.0064115487, -0.002253556, -1711466.3, 37684.973, 0.0, 5.0139594, 4.9904385 
2.6325044e+2, 1.2650031e+2, -1668329.4, -1711507.9, -474.10007, -0.007084667, -0.010559421, -1668324.1, 31968.97, 0.0, 5.0141826, 4.9860945 
2.6325074e+2, 1.3148648e+2, -1618648.1, -1662171.5, -450.00323, -0.0038644196, -0.010511433, -1618643.5, 32786.15, 0.0, 5.014411, 4.9860945 
2.6325104e+2, 1.3647263e+2, -1571180.8, -1617377.0, -426.9183, -0.0006281918, -0.009203399, -1571176.8, 31389.678, 0.0, 5.014639, 4.984591 
2.632512e+2, 1.4145593e+2, -1528250.4, -1581605.0, -598.95416, 0.0021128934, 0.0054378742, -1528243.8, 25486.87, 0.0, 5.014794, 4.9800563 
2.6325113e+2, 1.4643615e+2, -1478925.9, -1531998.8, -706.97626, 0.0037746835, 0.0028213, -1478916.5, 26007.52, 0.0, 5.0147963, 4.9802384 
2.6325104e+2, 1.514163e+2, -1429883.4, -1482952.1, -808.31476, 0.0054066833, -0.0007045557, -1429871.0, 26247.027, 0.0, 5.014794, 4.9802384 
2.6325095e+2, 1.5639645e+2, -1382269.3, -1436882.0, -910.1377, 0.007048771, -0.0037768877, -1382254.0, 25058.14, 0.0, 5.014791, 4.9792438 
2.6325074e+2, 1.6137281e+2, -1341889.4, -1405911.1, -1193.9988, 0.008521185, -0.00036812603, -1341867.0, 16676.82, 0.0, 5.0147777, 4.9732003 
2.6325023e+2, 1.6634624e+2, -1292894.3, -1356894.5, -1195.5602, 0.009531547, -0.00039976966, -1292871.9, 16933.805, 0.0, 5.0147443, 4.9731817 
2.6324973e+2, 1.713197e+2, -1243872.8, -1307823.1, -1140.4524, 0.010534865, -0.00022771605, -1243852.5, 17214.908, 0.0, 5.0147104, 4.9731812 
2.6324922e+2, 1.7629313e+2, -1195987.3, -1261155.4, -1085.3086, 0.011554003, 0.00033305868, -1195969.1, 16359.852, 0.0, 5.0146766, 4.9723735 
2.632486e+2, 1.8126291e+2, -1155441.1, -1230086.0, -1064.5232, 0.011748673, 0.006956979, -1155426.0, 8199.881, 0.0, 5.0146437, 4.9662895 
2.632478e+2, 1.8622907e+2, -1106015.3, -1180293.6, -1105.39, 0.01023479, 0.001143115, -1105998.8, 8957.332, 0.0, 5.014623, 4.966501 
2.6324704e+2, 1.911952e+2, -1056880.5, -1131129.0, -1148.2917, 0.008680849, -0.0051010675, -1056862.8, 9423.573, 0.0, 5.014604, 4.966502 
2.6324624e+2, 1.9616136e+2, -1008637.56, -1083880.5, -1190.8845, 0.0071366234, -0.01104119, -1008618.75, 8997.827, 0.0, 5.0145845, 4.9658527 
2.6324546e+2, 2.0112416e+2, -968757.2, -1054609.8, -1289.7635, 0.0060082767, -0.0066334303, -968737.8, 242.5945, 0.0, 5.014553, 4.9590716 
2.6324463e+2, 2.0608407e+2, -919452.44, -1004932.7, -1334.9819, 0.00564106, -0.0025922426, -919431.56, 943.2185, 0.0, 5.0144877, 4.959242 
2.632438e+2, 2.1104403e+2, -870384.0, -955761.06, -1333.543, 0.005305138, 0.0015304885, -870363.2, 1405.7932, 0.0, 5.01442, 4.9592423 
2.63243e+2, 2.1600397e+2, -821980.75, -908043.44, -1332.1885, 0.0049911193, 0.005782931, -821960.1, 1202.9489, 0.0, 5.0143523, 4.958743 
2.63242e+2, 2.2095999e+2, -781816.06, -878437.0, -1613.659, 0.004165967, 0.013725916, -781789.1, -7194.8555, 0.0, 5.014294, 4.9520025 
2.6324046e+2, 2.2591124e+2, -732067.2, -827976.5, -1740.9224, 0.0017894678, -0.0009277955, -732035.56, -5967.28, 0.0, 5.0142484, 4.952403 
2.6323882e+2, 2.308624e+2, -682851.5, -778695.9, -1723.3417, -0.0006279421, -0.01692617, -682820.5, -5277.677, 0.0, 5.0142016, 4.952405 
2.6323724e+2, 2.3581354e+2, -634285.56, -730862.1, -1701.6576, -0.0030166728, -0.033101596, -634255.56, -5238.038, 0.0, 5.0141535, 4.951905 
2.6323542e+2, 2.4076204e+2, -595318.06, -704299.4, -2273.8962, -0.004624629, -0.027295759, -595270.7, -14750.707, 0.0, 5.014084, 4.9440093 
2.6323327e+2, 2.4570927e+2, -545559.9, -653710.3, -2417.0823, -0.0042611402, -0.0025460874, -545505.9, -13465.011, 0.0, 5.013991, 4.9444385 
2.6323113e+2, 2.5065663e+2, -496361.84, -604429.94, -2508.7097, -0.003634023, 0.022519635, -496303.63, -12742.591, 0.0, 5.013895, 4.9444304 
2.6322895e+2, 2.556041e+2, -447411.78, -555715.56, -2605.7908, -0.002841459, 0.048622705, -447349.13, -12268.821, 0.0, 5.0137935, 4.944224 
2.6322684e+2, 2.6054576e+2, -406127.53, -524717.94, -4383.3145, 0.004439163, 0.06373589, -405965.72, -19315.723, 0.0, 5.013763, 4.93761 
2.632217e+2, 2.6547948e+2, -351993.16, -464584.78, -6424.449, 0.00710923, -0.027787378, -351627.78, -13354.569, 0.0, 5.013571, 4.9411187 
2.6321548e+2, 2.7041256e+2, -302384.2, -414988.78, -7200.2383, 0.0050654984, -0.13843533, -301925.66, -12026.239, 0.0, 5.013302, 4.941238 
2.6320863e+2, 2.753451e+2, -252738.16, -365618.53, -7757.48, 0.0011712441, -0.25963277, -252207.53, -10675.893, 0.0, 5.0130124, 4.94131 
2.6321125e+2, 2.8027982e+2, -236000.17, -389092.1, 5484.2964, 0.025217578, -0.2172015, -235803.95, -42654.344, 0.0, 5.013328, 4.9157205 
2.6321962e+2, 2.8521827e+2, -174872.39, -309741.7, -233.35863, 0.03565944, -0.055043936, -174871.98, -30104.932, 0.0, 5.0141735, 4.9252 
2.6322198e+2, 2.9015207e+2, -123703.875, -259747.14, -1241.7662, 0.02430973, 0.01408298, -123692.54, -27258.225, 0.0, 5.014786, 4.9250274 
2.6322377e+2, 2.9508483e+2, -72462.055, -209847.08, -1971.9983, 0.014494886, 0.07107482, -72433.75, -24321.791, 0.0, 5.01535, 4.9248548 
2.6322684e+2, 3.0002743e+2, -11277.471, -104700.64, -1670.234, 0.03307401, 0.09874548, -11247.62, -11247.62, 0.0, 5.0161715, 4.9534435 
2.6322982e+2, 3.049785e+2, 3350.9338, -76965.84, -3283.303, 0.12182178, -0.055755086, 3484.93, 3484.93, 0.0, 5.0177345, 4.961425 
2.6322976e+2, 3.099339e+2, 10030.565, -68216.37, -5229.9307, 0.2053042, -0.23334092, 10378.58, 10378.58, 0.0, 5.019236, 4.963581 
2.6322773e+2, 3.1489277e+2, 17010.371, -59775.75, -6903.2344, 0.28285682, -0.4044885, 17626.049, 17626.049, 0.0, 5.0206876, 4.9657407 
2.682642e+2, 1.2151426e+2, -1711789.4, -1748199.1, 747.7012, -0.007714353, -0.0013429878, -1711774.0, 37383.285, 0.0, 5.013956, 4.990239 
2.6826483e+2, 1.2649967e+2, -1668284.4, -1711394.6, -304.04385, -0.0047709057, -0.010843952, -1668282.3, 32017.486, 0.0, 5.0141788, 4.9861326 
2.6826525e+2, 1.3148588e+2, -1618602.6, -1662060.1, -278.2062, -0.0027014918, -0.010857657, -1618600.8, 32834.805, 0.0, 5.014408, 4.9861326 
2.682657e+2, 1.3647206e+2, -1571134.4, -1617267.1, -253.40158, -0.0006437399, -0.009611489, -1571133.0, 31438.717, 0.0, 5.0146365, 4.984628 
2.6826593e+2, 1.4145537e+2, -1528389.6, -1581883.9, -566.1487, 0.0014678555, 0.0052003725, -1528383.6, 25352.115, 0.0, 5.0147924, 4.9799647 
2.6826593e+2, 1.4643553e+2, -1479114.5, -1532382.6, -708.1609, 0.003769414, 0.0032490953, -1479105.1, 25825.438, 0.0, 5.0147953, 4.9801116 
2.682659e+2, 1.5141562e+2, -1430070.5, -1483335.0, -808.841, 0.0060828025, 0.00040608502, -1430058.1, 26067.713, 0.0, 5.014793, 4.9801116 
2.682659e+2, 1.563957e+2, -1382454.9, -1437263.9, -909.99756, 0.008400635, -0.0019830873, -1382439.8, 24881.563, 0.0, 5.01479, 4.9791164 
2.682657e+2, 1.6137202e+2, -1341851.0, -1405828.8, -1215.4557, 0.010198092, 0.0016028255, -1341827.9, 16725.973, 0.0, 5.014777, 4.973228 
2.682651e+2, 1.6634543e+2, -1292793.3, -1356680.5, -1220.5104, 0.010746845, 0.00067192, -1292769.9, 17045.22, 0.0, 5.014744, 4.9732537 
2.682645e+2, 1.7131884e+2, -1243772.9, -1307609.6, -1164.6168, 0.01124917, -0.00008697857, -1243751.6, 17324.592, 0.0, 5.01471, 4.9732533 
2.682639e+2, 1.7629229e+2, -1195888.4, -1260942.3, -1108.6831, 0.011757893, -0.0004548679, -1195869.4, 16467.814, 0.0, 5.014676, 4.972446 
2.6826328e+2, 1.8126205e+2, -1155469.5, -1230142.4, -1084.6356, 0.012009666, 0.0058181677, -1155453.8, 8179.954, 0.0, 5.014643, 4.9662704 
2.682626e+2, 1.8622829e+2, -1106091.1, -1180449.6, -1118.015, 0.011870827, 0.0012426532, -1106074.4, 8889.259, 0.0, 5.014622, 4.9664493 
2.6826197e+2, 1.911945e+2, -1056957.4, -1131284.5, -1159.483, 0.011726901, -0.00366332, -1056939.3, 9354.381, 0.0, 5.0146027, 4.96645 
2.6826128e+2, 1.9616073e+2, -1008715.2, -1084035.4, -1200.6398, 0.0115753645, -0.008255727, -1008696.06, 8927.485, 0.0, 5.0145826, 4.965801 
2.6826057e+2, 2.0112357e+2, -968762.4, -1054613.9, -1332.6871, 0.011282211, -0.0032940956, -968741.7, 245.71188, 0.0, 5.014552, 4.95907 
2.682596e+2, 2.0608334e+2, -919446.9, -1004916.7, -1387.212, 0.010404487, -0.0005990939, -919424.4, 958.37256, 0.0, 5.0144873, 4.9592476 
2.6825866e+2, 2.1104315e+2, -870378.56, -955745.2, -1383.917, 0.009479376, 0.002103809, -870356.1, 1421.8053, 0.0, 5.0144196, 4.959248 
2.682577e+2, 2.1600296e+2, -821975.44, -908027.75, -1380.701, 0.008559447, 0.0049412022, -821953.3, 1219.8033, 0.0, 5.014352, 4.958749 
2.6825666e+2, 2.209589e+2, -781792.6, -878381.0, -1648.7654, 0.0075824335, 0.011920396, -781764.5, -7159.5596, 0.0, 5.0142937, 4.952022 
2.6825514e+2, 2.2591025e+2, -732045.3, -827905.25, -1762.1128, 0.0063052657, -0.0018854553, -732012.94, -5934.738, 0.0, 5.014245, 4.9524293 
2.6825365e+2, 2.3086153e+2, -682837.75, -778620.3, -1738.8158, 0.0050135017, -0.016835187, -682806.2, -5254.3794, 0.0, 5.014195, 4.9524336 
2.6825213e+2, 2.358128e+2, -634279.94, -730782.2, -1711.4098, 0.0037086625, -0.031935893, -634249.56, -5224.016, 0.0, 5.014144, 4.9519362 
2.6825038e+2, 2.4076132e+2, -595326.9, -704129.44, -2310.0994, 0.0029309387, -0.02650634, -595277.9, -14750.268, 0.0, 5.0140567, 4.944075 
2.682481e+2, 2.4570838e+2, -545680.56, -653761.75, -2496.8716, 0.003075628, -0.0036775598, -545622.94, -13574.112, 0.0, 5.013959, 4.944429 
2.6824582e+2, 2.5065556e+2, -496470.16, -604484.0, -2579.432, 0.003296772, 0.019794628, -496408.6, -12839.436, 0.0, 5.0138674, 4.944418 
2.6824346e+2, 2.556028e+2, -447507.72, -555772.44, -2667.4424, 0.0036103171, 0.044334333, -447442.03, -12353.477, 0.0, 5.01377, 4.9442086 
2.6824135e+2, 2.6054433e+2, -407105.66, -526546.25, -4328.5806, 0.0115171755, 0.059920367, -406948.97, -20289.725, 0.0, 5.0137086, 4.936997 
2.682371e+2, 2.6547778e+2, -353993.1, -467675.28, -6073.9146, 0.020222269, -0.021924483, -353669.5, -15379.019, 0.0, 5.0133753, 4.9401174 
2.6823187e+2, 2.7041087e+2, -304702.2, -417734.84, -6640.6284, 0.023686247, -0.12069573, -304313.38, -14390.174, 0.0, 5.012964, 4.9403796 
2.6822597e+2, 2.7534357e+2, -255374.06, -368020.5, -6988.344, 0.024083132, -0.22870512, -254942.17, -13382.929, 0.0, 5.0125318, 4.9405947 
2.6822838e+2, 2.8027743e+2, -233589.47, -384303.75, 4616.2686, 0.048886042, -0.19827421, -233448.2, -40258.945, 0.0, 5.0134215, 4.9174533 
2.6823634e+2, 2.8521368e+2, -172611.6, -308957.6, -46.311302, 0.056166362, -0.06386884, -172611.58, -27791.967, 0.0, 5.014747, 4.9255433 
2.682389e+2, 2.9014608e+2, -121618.14, -258458.23, -801.2584, 0.040625364, -0.008240676, -121613.445, -25122.297, 0.0, 5.0152755, 4.9255342 
2.6824084e+2, 2.9507747e+2, -70552.93, -208055.17, -1278.3962, 0.02501016, 0.034597512, -70541.05, -22368.795, 0.0, 5.015756, 4.9255247 
2.6824394e+2, 3.0002034e+2, -9496.067, -101626.72, -983.3, 0.034281228, 0.057411555, -9485.573, -9485.573, 0.0, 5.0164084, 4.954607 
2.6824716e+2, 3.0497473e+2, 975.24493, -81038.94, -1992.541, 0.10707134, -0.04228012, 1023.6253, 1023.6253, 0.0, 5.0176015, 4.9603724 
2.682474e+2, 3.0993396e+2, 6452.988, -72915.46, -3186.896, 0.17149162, -0.14522023, 6580.746, 6580.746, 0.0, 5.018762, 4.962487 
2.6824555e+2, 3.1489736e+2, 12235.2295, -65099.785, -4108.501, 0.22669716, -0.2318104, 12452.886, 12452.886, 0.0, 5.0198727, 4.964605 
2.7327806e+2, 1.21513695e+2, -1712045.3, -1748694.8, 844.5224, -0.009075221, -0.0006895393, -1712025.9, 37137.813, 0.0, 5.0139523, 4.9900775 
2.7327928e+2, 1.2649904e+2, -1668240.3, -1711280.8, -133.16599, -0.0024617594, -0.011081536, -1668239.9, 32066.465, 0.0, 5.0141754, 4.9861712 
2.732798e+2, 1.3148527e+2, -1618557.9, -1661947.9, -105.587845, -0.0015395532, -0.011175383, -1618557.6, 32883.945, 0.0, 5.0144053, 4.9861703 
2.732803e+2, 1.364715e+2, -1571088.9, -1617156.4, -79.06367, -0.00065665, -0.010009533, -1571088.8, 31488.197, 0.0, 5.014634, 4.9846654 
2.7328065e+2, 1.414548e+2, -1528533.1, -1582170.6, -532.24646, 0.0008235468, 0.0049819034, -1528527.9, 25213.086, 0.0, 5.014791, 4.9798703 
2.732807e+2, 1.464349e+2, -1479303.4, -1532766.4, -709.2245, 0.003763582, 0.0036910062, -1479294.0, 25643.021, 0.0, 5.0147943, 4.9799843 
2.7328077e+2, 1.5141493e+2, -1430257.9, -1483717.8, -809.2461, 0.006758281, 0.0015192863, -1430245.6, 25888.072, 0.0, 5.014792, 4.9799843 
2.7328083e+2, 1.5639496e+2, -1382640.9, -1437645.6, -909.7362, 0.009751779, -0.00019828147, -1382625.9, 24704.66, 0.0, 5.0147896, 4.9789896 
2.7328065e+2, 1.6137123e+2, -1341816.4, -1405753.5, -1236.5441, 0.011878163, 0.0035875337, -1341792.4, 16771.373, 0.0, 5.0147767, 4.9732533 
2.7327996e+2, 1.663446e+2, -1292692.5, -1356466.3, -1245.6881, 0.011965249, 0.0017558398, -1292668.1, 17156.387, 0.0, 5.0147433, 4.9733253 
2.732793e+2, 1.7131801e+2, -1243673.3, -1307395.9, -1189.009, 0.011965571, 0.000054116746, -1243651.0, 17434.027, 0.0, 5.0147095, 4.9733253 
2.7327862e+2, 1.762914e+2, -1195789.8, -1260729.0, -1132.2853, 0.011962872, -0.0012543086, -1195770.0, 16575.533, 0.0, 5.014675, 4.972518 
2.7327797e+2, 1.8126118e+2, -1155501.9, -1230206.6, -1104.3721, 0.012263144, 0.00470065, -1155485.5, 8155.923, 0.0, 5.0146427, 4.966249 
2.732774e+2, 1.862275e+2, -1106167.6, -1180605.4, -1130.9933, 0.013493972, 0.0013570541, -1106150.4, 8820.739, 0.0, 5.0146213, 4.9663963 
2.7327687e+2, 1.911938e+2, -1057034.5, -1131439.5, -1171.0275, 0.014758025, -0.002233871, -1057016.1, 9284.752, 0.0, 5.014601, 4.966398 
2.7327633e+2, 1.9616011e+2, -1008793.2, -1084189.9, -1210.748, 0.015997142, -0.0055017225, -1008773.75, 8856.715, 0.0, 5.0145807, 4.9657483 
2.7327567e+2, 2.0112297e+2, -968779.3, -1054642.6, -1374.3613, 0.01655061, 0.00010171887, -968757.3, 237.02989, 0.0, 5.014551, 4.9590607 
2.732746e+2, 2.0608263e+2, -919441.8, -1004900.44, -1439.533, 0.015164914, 0.0014578258, -919417.56, 973.11365, 0.0, 5.0144863, 4.959253 
2.7327353e+2, 2.1104228e+2, -870373.56, -955729.06, -1434.382, 0.013649554, 0.0027032124, -870349.5, 1437.4163, 0.0, 5.014419, 4.9592533 
2.7327245e+2, 2.1600196e+2, -821970.56, -908011.75, -1429.3046, 0.012122656, 0.004087869, -821946.8, 1236.2682, 0.0, 5.014351, 4.958754 
2.732713e+2, 2.2095782e+2, -781782.06, -878350.9, -1684.4043, 0.010999206, 0.010148185, -781752.7, -7137.135, 0.0, 5.0142927, 4.952032 
2.732699e+2, 2.2590926e+2, -732025.0, -827832.8, -1786.9705, 0.010802831, -0.002880147, -731991.7, -5903.555, 0.0, 5.014241, 4.952455 
2.7326846e+2, 2.3086065e+2, -682825.5, -778543.56, -1757.9569, 0.010616025, -0.016901368, -682793.25, -5232.397, 0.0, 5.0141883, 4.9524617 
2.73267e+2, 2.3581205e+2, -634275.75, -730701.1, -1724.8292, 0.0103743905, -0.031047473, -634244.94, -5211.266, 0.0, 5.0141344, 4.9519663 
2.732653e+2, 2.4076064e+2, -595390.9, -704066.6, -2367.6975, 0.010445124, -0.025349963, -595339.3, -14804.377, 0.0, 5.0140295, 4.9441023 
2.7326292e+2, 2.457075e+2, -545809.9, -653804.8, -2574.3894, 0.010420416, -0.004221276, -545748.56, -13692.256, 0.0, 5.0139275, 4.944419 
2.7326047e+2, 2.506545e+2, -496587.03, -604529.8, -2647.882, 0.010276651, 0.01746822, -496522.13, -12945.24, 0.0, 5.0138397, 4.9444046 
2.7325797e+2, 2.5560156e+2, -447612.2, -555820.94, -2726.8208, 0.010152234, 0.040255394, -447543.53, -12447.006, 0.0, 5.0137467, 4.9441924 
2.7325588e+2, 2.6054278e+2, -408347.8, -528905.2, -4393.1846, 0.019419763, 0.055551153, -408187.94, -21517.816, 0.0, 5.013654, 4.936171 
2.7325234e+2, 2.6547575e+2, -356029.72, -470741.13, -5939.908, 0.03319049, -0.020487927, -355722.97, -17411.658, 0.0, 5.0131803, 4.9390574 
2.7324778e+2, 2.704086e+2, -307056.5, -420455.1, -6297.4316, 0.040632553, -0.11158528, -306707.88, -16756.021, 0.0, 5.012626, 4.9394627 
2.7324253e+2, 2.7534142e+2, -258045.97, -370395.44, -6435.535, 0.043790884, -0.21060838, -257678.53, -16085.565, 0.0, 5.0120516, 4.9398203 
2.732457e+2, 2.8027523e+2, -233481.69, -384816.9, 4481.2773, 0.07409233, -0.1754869, -233349.11, -40122.14, 0.0, 5.013517, 4.9173207 
2.7325392e+2, 2.8520992e+2, -170429.08, -308100.72, -160.02629, 0.080970995, -0.05718929, -170428.89, -25564.6, 0.0, 5.0153203, 4.9258356 
2.732565e+2, 2.9014072e+2, -119609.97, -257096.66, -661.3269, 0.059174135, -0.02002369, -119606.79, -23064.947, 0.0, 5.015765, 4.9259896 
2.7325842e+2, 2.950706e+2, -68720.67, -206190.7, -885.24, 0.035694197, 0.003697447, -68714.98, -20486.83, 0.0, 5.0161624, 4.9261436 
2.7326158e+2, 3.000127e+2, -8909.671, -101113.25, -443.93326, 0.03698042, 0.014367891, -8907.533, -8907.533, 0.0, 5.0166454, 4.9547706 
2.7326497e+2, 3.0496925e+2, -1482.0847, -85040.5, -683.9917, 0.099607974, -0.047934853, -1476.4861, -1476.4861, 0.0, 5.017469, 4.959125 
2.732653e+2, 3.0993152e+2, 2792.1768, -77544.55, -1124.6957, 0.1495323, -0.09620038, 2807.9192, 2807.9192, 0.0, 5.018288, 4.961198 
2.7326337e+2, 3.1489867e+2, 7374.409, -70355.23, -1292.8981, 0.18695453, -0.11819421, 7395.9087, 7395.9087, 0.0, 5.0190578, 4.9632735 
2.7829188e+2, 1.2151311e+2, -1712123.9, -1749018.1, 982.7574, -0.010431446, -0.00011576807, -1712097.8, 37072.355, 0.0, 5.0139894, 4.989952 
2.7829367e+2, 1.2649842e+2, -1668112.6, -1711131.8, 61.19619, -0.0001780043, -0.011316608, -1668112.5, 32200.438, 0.0, 5.014201, 4.9862065 
2.7829432e+2, 1.3148469e+2, -1618489.1, -1661829.4, 70.492645, -0.0003895387, -0.0114718955, -1618489.0, 32958.39, 0.0, 5.0144114, 4.9862056 
2.7829495e+2, 1.3647091e+2, -1571098.6, -1617077.4, 80.54305, -0.0006531345, -0.010369698, -1571098.5, 31483.69, 0.0, 5.014614, 4.9847007 
2.7829537e+2, 1.4145423e+2, -1528791.8, -1582517.6, -516.4699, 0.00021642819, 0.00482501, -1528786.8, 24959.44, 0.0, 5.0147524, 4.979774 
2.782955e+2, 1.4643428e+2, -1479583.5, -1533191.3, -713.42816, 0.0037858456, 0.0041657086, -1479574.0, 25369.518, 0.0, 5.014762, 4.979859 
2.7829564e+2, 1.5141426e+2, -1430517.9, -1484132.3, -796.9317, 0.0074552554, 0.0026288813, -1430506.0, 25635.512, 0.0, 5.0147657, 4.979859 
2.7829576e+2, 1.5639421e+2, -1382884.6, -1438051.8, -880.84845, 0.011120379, 0.0015467184, -1382870.5, 24469.176, 0.0, 5.0147686, 4.9788637 
2.782956e+2, 1.6137044e+2, -1341826.1, -1405709.0, -1223.1401, 0.013576881, 0.0055452464, -1341802.8, 16770.963, 0.0, 5.0147634, 4.9732747 
2.7829486e+2, 1.663438e+2, -1292593.4, -1356258.4, -1259.0654, 0.013201812, 0.0028378281, -1292568.5, 17265.492, 0.0, 5.014744, 4.973395 
2.782941e+2, 1.7131718e+2, -1243539.5, -1307171.3, -1224.9855, 0.012703728, 0.000208721, -1243516.0, 17577.92, 0.0, 5.014722, 4.973395 
2.7829334e+2, 1.7629056e+2, -1195627.8, -1260490.8, -1190.7622, 0.012198142, -0.0020258457, -1195605.9, 16747.863, 0.0, 5.0146976, 4.9725876 
2.7829263e+2, 1.8126033e+2, -1155464.0, -1230242.9, -1173.3195, 0.012540759, 0.0036518353, -1155445.6, 8203.682, 0.0, 5.0146675, 4.9662247 
2.782922e+2, 1.8622671e+2, -1106212.4, -1180744.0, -1186.7483, 0.015116851, 0.0015014078, -1106193.5, 8785.145, 0.0, 5.0146313, 4.9663444 
2.782918e+2, 1.911931e+2, -1057136.4, -1131604.6, -1217.1548, 0.01777753, -0.00083656335, -1057116.5, 9191.704, 0.0, 5.014591, 4.966346 
2.7829134e+2, 1.9615948e+2, -1008962.3, -1084386.0, -1247.4639, 0.02040697, -0.0028473365, -1008941.7, 8695.823, 0.0, 5.014548, 4.965697 
2.7829075e+2, 2.0112237e+2, -968945.25, -1054758.3, -1428.5819, 0.02182465, 0.0034587507, -968921.5, 79.90564, 0.0, 5.0145025, 4.9590435 
2.782896e+2, 2.060819e+2, -919543.9, -1004932.4, -1495.4884, 0.019932894, 0.0035286318, -919517.7, 880.9778, 0.0, 5.014449, 4.959259 
2.782884e+2, 2.1104142e+2, -870452.44, -955750.1, -1479.505, 0.017835516, 0.003326465, -870426.75, 1369.0763, 0.0, 5.0143895, 4.959259 
2.7828717e+2, 2.1600096e+2, -822039.5, -908028.0, -1463.171, 0.015720585, 0.0032649408, -822014.6, 1178.4292, 0.0, 5.014325, 4.9587603 
2.7828595e+2, 2.2095674e+2, -781861.44, -878389.44, -1706.2385, 0.014479577, 0.008475859, -781831.25, -7205.11, 0.0, 5.014267, 4.9520307 
2.782846e+2, 2.2590826e+2, -732103.9, -827820.06, -1841.7405, 0.015365506, -0.0038764582, -732068.5, -5970.3647, 0.0, 5.0142064, 4.952474 
2.7828327e+2, 2.3085977e+2, -682962.5, -778552.9, -1855.7318, 0.016306503, -0.017144013, -682926.5, -5356.3975, 0.0, 5.0141335, 4.9524817 
2.782819e+2, 2.3581126e+2, -634500.8, -730745.8, -1870.9348, 0.017175684, -0.030531306, -634464.44, -5422.3013, 0.0, 5.0140486, 4.951988 
2.7828017e+2, 2.4075994e+2, -595759.94, -704258.2, -2620.9622, 0.018199842, -0.024003752, -595696.7, -15154.212, 0.0, 5.0139165, 4.9440827 
2.7827767e+2, 2.4570665e+2, -546096.7, -653948.6, -2859.8323, 0.018161476, -0.004284721, -546020.94, -13957.121, 0.0, 5.0138464, 4.944399 
2.782751e+2, 2.5065342e+2, -496774.34, -604635.44, -2959.059, 0.017835015, 0.015512329, -496693.25, -13108.527, 0.0, 5.013797, 4.944382 
2.7827248e+2, 2.556003e+2, -447708.0, -555892.0, -3061.1333, 0.01748889, 0.03641902, -447621.44, -12516.741, 0.0, 5.01374, 4.9441676 
2.7827054e+2, 2.60541e+2, -410112.9, -532161.7, -5023.988, 0.029265136, 0.05079537, -409906.44, -23223.154, 0.0, 5.0135517, 4.935048 
2.782675e+2, 2.654731e+2, -360492.38, -475520.13, -7537.4453, 0.04913042, -0.023304544, -360000.56, -21662.275, 0.0, 5.0122237, 4.937713 
2.7826345e+2, 2.7040523e+2, -315278.7, -426684.47, -9305.783, 0.06213999, -0.11177359, -314506.72, -24515.055, 0.0, 5.0103216, 4.938176 
2.782587e+2, 2.7533746e+2, -271244.78, -378582.44, -11341.983, 0.07062419, -0.20770562, -270059.4, -28414.793, 0.0, 5.0079594, 4.9385943 
2.7826354e+2, 2.8027147e+2, -250840.05, -396970.75, -1517.818, 0.11433042, -0.1538938, -250824.28, -57544.145, 0.0, 5.008224, 4.915391 
2.7827266e+2, 2.8520563e+2, -179169.39, -310759.44, -5094.6587, 0.11953744, -0.039517216, -178972.45, -34057.68, 0.0, 5.011968, 4.9263535 
2.7827498e+2, 2.9013512e+2, -124053.11, -257649.05, -3809.248, 0.08578539, -0.023715997, -123944.586, -27349.375, 0.0, 5.013945, 4.926565 
2.7827665e+2, 2.9506373e+2, -70713.12, -205444.86, -2785.4387, 0.05004328, -0.021496592, -70655.555, -22371.496, 0.0, 5.015221, 4.926779 
2.782798e+2, 3.000045e+2, -12961.843, -104881.97, -1744.8745, 0.043839056, -0.02758917, -12928.732, -12928.732, 0.0, 5.0156903, 4.95377 
2.7828345e+2, 3.0496162e+2, -12621.18, -93366.36, -1914.2769, 0.10534857, -0.072571896, -12575.822, -12575.822, 0.0, 5.014264, 4.9573507 
2.7828372e+2, 3.099252e+2, -18689.346, -90376.96, -1982.6731, 0.15202041, -0.09528908, -18634.553, -18634.553, 0.0, 5.0113473, 4.959385 
2.782818e+2, 3.14894e+2, -28025.744, -89199.766, -1155.5035, 0.18581018, -0.087697975, -28003.926, -28003.926, 0.0, 5.0070806, 4.9614205 
2.8330615e+2, 1.215135e+2, -1710178.0, -1748286.3, 1125.0972, -0.011354884, 0.008623786, -1710144.9, 39023.15, 0.0, 5.0146785, 4.9898553 
2.8330818e+2, 1.2649764e+2, -1666602.3, -1710490.0, 211.10683, -0.000047593378, -0.0138167, -1666601.3, 33720.69, 0.0, 5.014721, 4.986164 
2.8330892e+2, 1.3148405e+2, -1617467.8, -1661426.9, 144.79356, -0.00010150038, -0.012234027, -1617467.3, 33987.64, 0.0, 5.0147696, 4.986164 
2.8330973e+2, 1.364704e+2, -1570542.8, -1616900.9, 77.52721, -0.000162532, -0.009403192, -1570542.6, 32045.441, 0.0, 5.014818, 4.9846606 
2.8331023e+2, 1.414538e+2, -1528517.1, -1582477.6, -593.4167, 0.00089061615, 0.0068490785, -1528510.5, 25240.643, 0.0, 5.014863, 4.979734 
2.833104e+2, 1.4643374e+2, -1479206.9, -1533099.3, -714.2509, 0.004558297, 0.0056988546, -1479197.5, 25751.938, 0.0, 5.0149064, 4.97982 
2.833106e+2, 1.5141362e+2, -1430023.9, -1483983.9, -708.6289, 0.008334153, 0.0036109427, -1430014.5, 26133.941, 0.0, 5.0149503, 4.97982 
2.8331074e+2, 1.563935e+2, -1382270.0, -1437845.9, -703.34644, 0.012113639, 0.0019790344, -1382261.1, 25086.518, 0.0, 5.0149937, 4.9788246 
2.833106e+2, 1.6136965e+2, -1341097.1, -1405464.3, -1027.3745, 0.014608449, 0.0056924676, -1341080.8, 17501.637, 0.0, 5.0150313, 4.9732285 
2.8330985e+2, 1.6634299e+2, -1291727.6, -1355950.0, -1180.1014, 0.014130634, 0.0033142355, -1291706.0, 18136.822, 0.0, 5.0150595, 4.973348 
2.8330907e+2, 1.7131634e+2, -1242529.8, -1306794.6, -1267.6757, 0.013545793, 0.0010358819, -1242504.8, 18598.11, 0.0, 5.0150876, 4.973348 
2.8330833e+2, 1.7628972e+2, -1194468.5, -1260043.6, -1355.5629, 0.012972246, -0.0008523611, -1194440.5, 17922.31, 0.0, 5.0151153, 4.972541 
2.833076e+2, 1.812595e+2, -1154206.0, -1229667.4, -1459.7527, 0.013330653, 0.005042058, -1154177.8, 9480.735, 0.0, 5.015102, 4.966214 
2.8330714e+2, 1.8622586e+2, -1105156.9, -1180241.3, -1438.1841, 0.016070897, 0.002842818, -1105129.3, 9858.738, 0.0, 5.0149918, 4.966346 
2.8330663e+2, 1.9119224e+2, -1056301.5, -1131210.0, -1413.894, 0.018941624, 0.00043032743, -1056274.9, 10042.818, 0.0, 5.0148773, 4.966347 
2.8330615e+2, 1.9615862e+2, -1008336.06, -1084092.9, -1389.5405, 0.02182561, -0.0016749471, -1008310.56, 9336.611, 0.0, 5.0147624, 4.965698 
2.8330547e+2, 2.0112151e+2, -968387.7, -1054384.8, -1477.6779, 0.023374619, 0.00447722, -968362.3, 648.6263, 0.0, 5.014672, 4.959092 
2.8330427e+2, 2.0608106e+2, -918886.1, -1004487.2, -1473.4149, 0.021218695, 0.00431687, -918860.75, 1546.6576, 0.0, 5.014649, 4.9593186 
2.8330302e+2, 2.1104065e+2, -869681.1, -955253.8, -1402.8142, 0.01887922, 0.003873628, -869658.1, 2145.6504, 0.0, 5.01463, 4.959319 
2.8330174e+2, 2.1600021e+2, -821142.25, -907475.1, -1332.5385, 0.016566347, 0.003559551, -821121.7, 2078.4458, 0.0, 5.0146103, 4.9588194 
2.8330052e+2, 2.2095601e+2, -780989.2, -878150.44, -1544.0709, 0.015523585, 0.008917806, -780964.7, -6331.7207, 0.0, 5.0146027, 4.951962 
2.8329927e+2, 2.2590753e+2, -731158.6, -827667.0, -1793.3309, 0.017514542, -0.002351757, -731125.3, -5019.3076, 0.0, 5.014589, 4.9523573 
2.83298e+2, 2.3085903e+2, -681864.3, -778344.56, -1928.0679, 0.019685972, -0.014579598, -681825.8, -4246.5264, 0.0, 5.01457, 4.952361 
2.832967e+2, 2.3581049e+2, -633220.25, -730469.44, -2059.3318, 0.021879377, -0.027008677, -633176.6, -4123.923, 0.0, 5.0145507, 4.951864 
2.8329512e+2, 2.4075906e+2, -593711.56, -703340.56, -2714.4531, 0.02407842, -0.020807974, -593644.4, -13089.979, 0.0, 5.0146112, 4.944102 
2.8329286e+2, 2.457055e+2, -542745.44, -652347.75, -2733.8967, 0.024543876, -0.0045372187, -542677.3, -10601.013, 0.0, 5.0149765, 4.944468 
2.832905e+2, 2.50652e+2, -492207.4, -602489.8, -2635.3938, 0.024791066, 0.011616252, -492144.47, -8546.846, 0.0, 5.0153627, 4.9444513 
2.8328806e+2, 2.5559857e+2, -441926.3, -553207.25, -2539.1545, 0.025150508, 0.028798392, -441868.4, -6750.2827, 0.0, 5.0157437, 4.9442368 
2.832865e+2, 2.6053903e+2, -403651.6, -531810.7, -4026.4526, 0.03951867, 0.04368674, -403525.22, -16826.676, 0.0, 5.0162544, 4.934026 
2.8328457e+2, 2.6547065e+2, -349960.88, -475812.28, -5478.8037, 0.07173259, -0.01880774, -349722.8, -11356.846, 0.0, 5.0166683, 4.9357934 
2.8328174e+2, 2.704016e+2, -298669.22, -425413.53, -5684.6963, 0.101739444, -0.09843122, -298414.75, -8375.257, 0.0, 5.016986, 4.935919 
2.832783e+2, 2.7533194e+2, -247361.33, -375244.56, -5665.724, 0.131052, -0.18901399, -247110.81, -5391.505, 0.0, 5.01728, 4.9359965 
2.8328365e+2, 2.8026393e+2, -223175.23, -383905.8, 7126.422, 0.19155505, -0.13704124, -222859.89, -29478.498, 0.0, 5.018015, 4.9154663 
2.8329164e+2, 2.851988e+2, -161744.44, -296962.0, 3588.9949, 0.17669351, -0.032909036, -161649.25, -16642.977, 0.0, 5.0175624, 4.928255 
2.8329298e+2, 2.901294e+2, -115345.08, -249115.4, 2660.3567, 0.121735185, -0.025396997, -115292.19, -18619.525, 0.0, 5.0164795, 4.9280915 
2.832937e+2, 2.9505897e+2, -68846.47, -201324.56, 2066.283, 0.06947128, -0.029509105, -68814.25, -20465.275, 0.0, 5.0153275, 4.927928 
2.832958e+2, 3.000008e+2, -15772.131, -106512.39, 2214.2644, 0.0511864, -0.0355541, -15718.13, -15718.13, 0.0, 5.014432, 4.9535885 
2.832981e+2, 3.0496013e+2, -12370.741, -97189.72, 2908.7925, 0.109241255, -0.05358686, -12271.1045, -12271.1045, 0.0, 5.014371, 4.9558134 
2.8329733e+2, 3.099244e+2, -10075.596, -90774.086, 3351.0366, 0.16479191, -0.06532812, -9936.682, -9936.682, 0.0, 5.0142374, 4.9577966 
2.8329465e+2, 3.148919e+2, -7515.047, -84624.17, 3867.984, 0.21951994, -0.070360176, -7321.505, -7321.505, 0.0, 5.0140247, 4.9597816 
2.8832075e+2, 1.2151438e+2, -1710274.5, -1748457.3, 1084.4204, -0.0125157125, 0.021667292, -1710243.8, 38917.836, 0.0, 5.0146747, 4.9897995 
2.8832278e+2, 1.2649676e+2, -1666732.0, -1710728.1, 243.5163, -0.0013131369, -0.017590407, -1666730.6, 33601.93, 0.0, 5.014717, 4.9860864 
2.883237e+2, 1.3148335e+2, -1617596.0, -1661665.6, 179.21454, -0.0003584321, -0.013272958, -1617595.3, 33868.06, 0.0, 5.014766, 4.986086 
2.8832462e+2, 1.3646993e+2, -1570669.4, -1617140.0, 114.01414, 0.0005544272, -0.007706951, -1570669.1, 31925.123, 0.0, 5.0148153, 4.984582 
2.8832522e+2, 1.4145342e+2, -1528536.3, -1582505.6, -562.07916, 0.0021751397, 0.010103361, -1528530.4, 25225.77, 0.0, 5.014861, 4.979725 
2.8832543e+2, 1.4643326e+2, -1479196.9, -1533069.9, -680.13586, 0.0056245197, 0.007846894, -1479188.4, 25766.693, 0.0, 5.0149055, 4.97983 
2.8832558e+2, 1.5141302e+2, -1430013.8, -1483954.9, -673.85724, 0.009152041, 0.0045520705, -1430005.4, 26149.488, 0.0, 5.0149493, 4.9798293 
2.883258e+2, 1.563928e+2, -1382259.9, -1437817.1, -667.90857, 0.01267567, 0.0017126154, -1382251.8, 25102.96, 0.0, 5.0149927, 4.9788346 
2.883257e+2, 1.6136885e+2, -1341218.0, -1405714.1, -1005.0627, 0.015015877, 0.0048642997, -1341202.4, 17387.865, 0.0, 5.015031, 4.973145 
2.8832498e+2, 1.6634218e+2, -1291886.0, -1356281.0, -1158.9929, 0.014701153, 0.003468331, -1291865.1, 17986.016, 0.0, 5.015059, 4.973237 
2.8832424e+2, 1.7131555e+2, -1242687.0, -1307124.6, -1245.8942, 0.01428872, 0.0022387588, -1242663.0, 18448.805, 0.0, 5.015087, 4.9732375 
2.8832355e+2, 1.762889e+2, -1194624.9, -1260372.8, -1333.1125, 0.013877986, 0.0013988683, -1194597.9, 17774.48, 0.0, 5.015115, 4.97243 
2.883228e+2, 1.8125865e+2, -1154211.6, -1229674.1, -1520.1566, 0.014207954, 0.0078062722, -1154181.0, 9487.412, 0.0, 5.0151014, 4.9662123 
2.8832218e+2, 1.86225e+2, -1105116.0, -1180146.1, -1522.9658, 0.016426751, 0.004925991, -1105085.1, 9913.179, 0.0, 5.014991, 4.9663787 
2.883215e+2, 1.9119133e+2, -1056262.1, -1131115.8, -1497.5143, 0.01873491, 0.0017961381, -1056232.3, 10095.919, 0.0, 5.014876, 4.9663796 
2.8832087e+2, 1.9615766e+2, -1008298.2, -1083999.4, -1471.9869, 0.021041833, -0.0010197792, -1008269.56, 9388.338, 0.0, 5.0147605, 4.96573 
2.8832006e+2, 2.0112056e+2, -968275.44, -1054132.9, -1516.0642, 0.022131704, 0.0045973076, -968248.7, 772.7724, 0.0, 5.0146704, 4.9591784 
2.8831878e+2, 2.0608023e+2, -918763.4, -1004214.6, -1489.8444, 0.019894404, 0.004601059, -918737.44, 1678.8916, 0.0, 5.014648, 4.959412 
2.883175e+2, 2.1103992e+2, -869559.2, -954983.1, -1417.5936, 0.017481277, 0.004389576, -869535.7, 2275.3474, 0.0, 5.014629, 4.959412 
2.8831622e+2, 2.159996e+2, -821021.1, -907206.3, -1345.6665, 0.015078113, 0.004310522, -821000.1, 2205.6357, 0.0, 5.01461, 4.9589124 
2.88315e+2, 2.2095549e+2, -781123.44, -878429.4, -1544.7579, 0.01423992, 0.010337884, -781098.94, -6461.29, 0.0, 5.0146008, 4.951866 
2.8831384e+2, 2.2590701e+2, -731402.7, -828166.6, -1789.7635, 0.01719365, 0.0006997116, -731369.56, -5257.4194, 0.0, 5.0145836, 4.952186 
2.8831264e+2, 2.308585e+2, -682114.7, -778839.9, -1918.878, 0.020317776, -0.009834094, -682076.6, -4489.573, 0.0, 5.014562, 4.9521923 
2.8831145e+2, 2.3580998e+2, -633476.94, -730960.5, -2044.5153, 0.023420125, -0.020531695, -633434.06, -4372.003, 0.0, 5.0145392, 4.9516964 
2.8831005e+2, 2.4075843e+2, -593687.3, -703067.56, -2494.251, 0.026241181, -0.014597783, -593630.5, -13065.072, 0.0, 5.014579, 4.9442053 
2.8830814e+2, 2.4570455e+2, -542593.2, -651748.1, -2444.8704, 0.026692357, -0.0037967707, -542538.5, -10450.332, 0.0, 5.0149384, 4.944686 
2.8830612e+2, 2.5065067e+2, -492042.8, -601887.5, -2338.5173, 0.02684606, 0.006670411, -491993.03, -8382.89, 0.0, 5.0153294, 4.9446683 
2.8830406e+2, 2.555969e+2, -441749.38, -552602.2, -2234.44, 0.027056623, 0.018153066, -441704.38, -6573.034, 0.0, 5.015715, 4.944453 
2.883029e+2, 2.6053745e+2, -404156.1, -532503.1, -3452.388, 0.040771298, 0.032994486, -404063.3, -17352.826, 0.0, 5.01619, 4.9337997 
2.8830194e+2, 2.654704e+2, -351268.78, -477199.1, -4579.584, 0.07329989, -0.011390382, -351102.47, -12728.855, 0.0, 5.016446, 4.9353685 
2.883001e+2, 2.704031e+2, -300371.7, -426542.72, -4582.4883, 0.10265141, -0.069870025, -300205.5, -10165.063, 0.0, 5.016607, 4.935621 
2.882976e+2, 2.753354e+2, -249457.5, -376115.75, -4360.3047, 0.12984774, -0.13729943, -249307.56, -7597.095, 0.0, 5.0167437, 4.935826 
2.8830278e+2, 2.802687e+2, -221845.84, -382532.7, 6215.3604, 0.18460941, -0.072772786, -221605.8, -28237.998, 0.0, 5.018224, 4.9159923 
2.883092e+2, 2.85202e+2, -158419.6, -295572.84, 2558.9678, 0.1695949, 0.011394143, -158371.88, -13362.238, 0.0, 5.0183554, 4.9287615 
2.8830945e+2, 2.901309e+2, -112336.61, -247214.48, 1906.9869, 0.115644425, -0.00134724, -112309.66, -15617.446, 0.0, 5.017142, 4.928783 
2.88309e+2, 2.9505897e+2, -66155.82, -198912.6, 1589.2303, 0.062195722, -0.02578012, -66136.8, -17753.563, 0.0, 5.015859, 4.928804 
2.8830957e+2, 3.000005e+2, -12957.761, -102166.734, 1984.0494, 0.035731014, -0.044501718, -12913.657, -12913.657, 0.0, 5.0147853, 4.955188 
2.8830937e+2, 3.0496618e+2, -10897.734, -94285.086, 3426.0781, 0.06521535, -0.008686504, -10757.206, -10757.206, 0.0, 5.014466, 4.957081 
2.8830603e+2, 3.0993834e+2, -9632.581, -89013.54, 4606.137, 0.08594725, 0.05577444, -9366.2, -9366.2, 0.0, 5.01411, 4.9588394 
2.8830057e+2, 3.1491423e+2, -8101.72, -84005.58, 5861.0615, 0.10081739, 0.13622582, -7651.8135, -7651.8135, 0.0, 5.0136747, 4.9605994 
2.933353e+2, 1.2151522e+2, -1710312.1, -1748506.0, 1040.7526, -0.013738206, 0.034398735, -1710283.9, 38871.742, 0.0, 5.0146713, 4.989784 
2.9333737e+2, 1.2649588e+2, -1666862.6, -1710965.4, 276.6937, -0.0025875843, -0.021321954, -1666860.9, 33482.2, 0.0, 5.0147133, 4.986009 
2.9333845e+2, 1.3148268e+2, -1617725.3, -1661903.4, 214.40338, -0.00061968766, -0.014285547, -1617724.1, 33747.51, 0.0, 5.0147634, 4.9860077 
2.9333952e+2, 1.3646944e+2, -1570797.1, -1617378.1, 151.26906, 0.0012716452, -0.0060001854, -1570796.6, 31803.848, 0.0, 5.0148125, 4.9845037 
2.9334024e+2, 1.4145303e+2, -1528559.9, -1582541.9, -529.4095, 0.0034534666, 0.013375705, -1528554.6, 25206.395, 0.0, 5.0148597, 4.979713 
2.9334044e+2, 1.4643279e+2, -1479187.3, -1533040.3, -645.86774, 0.0066841897, 0.010008717, -1479179.5, 25781.164, 0.0, 5.014904, 4.97984 
2.9334062e+2, 1.5141243e+2, -1430004.0, -1483925.6, -638.93256, 0.009965585, 0.0054968363, -1429996.5, 26164.76, 0.0, 5.014948, 4.9798393 
2.9334086e+2, 1.5639207e+2, -1382250.0, -1437788.1, -632.3177, 0.013235566, 0.0014396873, -1382242.8, 25119.133, 0.0, 5.0149918, 4.978844 
2.9334077e+2, 1.6136806e+2, -1341341.8, -1405969.4, -982.1838, 0.015419655, 0.004045739, -1341326.8, 17271.326, 0.0, 5.0150304, 4.97306 
2.933401e+2, 1.6634138e+2, -1292044.6, -1356611.9, -1137.8727, 0.015268488, 0.0036303743, -1292024.6, 17834.984, 0.0, 5.015059, 4.9731264 
2.9333943e+2, 1.7131475e+2, -1242844.6, -1307454.5, -1224.101, 0.015029917, 0.003440087, -1242821.5, 18299.281, 0.0, 5.0150867, 4.9731264 
2.9333875e+2, 1.762881e+2, -1194781.4, -1260701.6, -1310.6505, 0.014783452, 0.0036390524, -1194755.4, 17626.44, 0.0, 5.015115, 4.9723196 
2.93338e+2, 1.8125783e+2, -1154219.9, -1229685.8, -1580.8801, 0.015078888, 0.010585121, -1154186.9, 9491.551, 0.0, 5.0151005, 4.9662085 
2.933372e+2, 1.8622412e+2, -1105075.5, -1180050.8, -1607.8035, 0.01677756, 0.0070192497, -1105041.0, 9967.434, 0.0, 5.0149894, 4.966411 
2.933364e+2, 1.9119042e+2, -1056223.3, -1131021.1, -1581.1906, 0.018527428, 0.0031542575, -1056189.8, 10148.835, 0.0, 5.0148745, 4.966412 
2.9333556e+2, 1.9615671e+2, -1008260.7, -1083905.6, -1554.4893, 0.020261565, -0.0003900787, -1008228.75, 9439.882, 0.0, 5.014759, 4.9657626 
2.9333463e+2, 2.0111962e+2, -968174.25, -1053904.1, -1553.3403, 0.02088898, 0.00476289, -968146.06, 885.79614, 0.0, 5.014669, 4.9592566 
2.9333335e+2, 2.060794e+2, -918641.06, -1003941.8, -1505.9413, 0.018571774, 0.004935867, -918614.5, 1810.6821, 0.0, 5.0146465, 4.959505 
2.93332e+2, 2.1103919e+2, -869437.7, -954712.2, -1432.0408, 0.01608987, 0.0049253046, -869413.7, 2404.6135, 0.0, 5.014628, 4.9595046 
2.933307e+2, 2.1599899e+2, -820900.4, -906937.1, -1358.4624, 0.013601297, 0.005050438, -820878.94, 2332.4067, 0.0, 5.014609, 4.959005 
2.933295e+2, 2.2095497e+2, -781264.25, -878720.56, -1546.3912, 0.0129480325, 0.011780826, -781239.75, -6597.4424, 0.0, 5.014599, 4.951766 
2.933284e+2, 2.2590649e+2, -731648.2, -828665.2, -1788.9945, 0.016838823, 0.0037005218, -731615.2, -5496.8813, 0.0, 5.0145783, 4.9520144 
2.9332733e+2, 2.3085798e+2, -682366.5, -779334.06, -1912.4857, 0.02090154, -0.00525525, -682328.8, -4733.912, 0.0, 5.0145535, 4.952022 
2.9332623e+2, 2.3580945e+2, -633735.06, -731450.44, -2032.4955, 0.024898736, -0.014337366, -633692.8, -4621.316, 0.0, 5.0145283, 4.951528 
2.9332498e+2, 2.4075785e+2, -593724.8, -702916.75, -2302.7612, 0.02837465, -0.008017836, -593676.25, -13100.147, 0.0, 5.014547, 4.9442644 
2.933234e+2, 2.4570362e+2, -542449.44, -651140.3, -2157.429, 0.028846381, -0.0024341373, -542406.6, -10307.07, 0.0, 5.0149, 4.9449034 
2.9332176e+2, 2.5064942e+2, -491886.63, -601277.0, -2043.2283, 0.028927155, 0.0021881438, -491848.47, -8226.183, 0.0, 5.015296, 4.9448843 
2.9332003e+2, 2.5559527e+2, -441580.84, -551989.0, -1931.3153, 0.029009385, 0.007812679, -441547.1, -6402.866, 0.0, 5.0156865, 4.9446673 
2.9331934e+2, 2.6053575e+2, -404845.5, -533540.06, -2987.1853, 0.042787652, 0.021615287, -404776.2, -18052.332, 0.0, 5.016125, 4.9334273 
2.9331914e+2, 2.6546982e+2, -352617.06, -478555.22, -3877.572, 0.07501975, -0.008379345, -352497.78, -14113.342, 0.0, 5.016224, 4.9348903 
2.93318e+2, 2.7040404e+2, -302114.16, -427640.47, -3677.267, 0.1026436, -0.04955845, -302006.53, -11960.786, 0.0, 5.0162277, 4.9352694 
2.9331613e+2, 2.753383e+2, -251593.23, -376954.7, -3251.6716, 0.12665118, -0.09767645, -251508.95, -9801.746, 0.0, 5.0162077, 4.935601 
2.933221e+2, 2.8027368e+2, -222699.28, -386179.56, 6375.585, 0.17944247, -0.0048356038, -222451.02, -29098.717, 0.0, 5.018436, 4.914748 
2.9332778e+2, 2.852059e+2, -155207.78, -294077.47, 1195.972, 0.16599616, 0.07016269, -155197.48, -10191.825, 0.0, 5.0191483, 4.9292207 
2.9332668e+2, 2.90133e+2, -109440.66, -245207.23, 820.2654, 0.111040846, 0.032410447, -109435.7, -12729.586, 0.0, 5.017804, 4.929427 
2.9332486e+2, 2.9505938e+2, -63577.17, -196394.17, 778.3886, 0.05439483, -0.017099964, -63572.61, -15159.05, 0.0, 5.0163903, 4.929633 
2.9332384e+2, 2.999997e+2, -11183.337, -99886.47, 1728.4918, 0.021163665, -0.055305988, -11149.668, -11149.668, 0.0, 5.0151386, 4.955963 
2.9332152e+2, 3.049707e+2, -9549.073, -91263.02, 4205.8003, 0.030678453, 0.018990148, -9333.172, -9333.172, 0.0, 5.014561, 4.9581785 
2.9331577e+2, 3.0995014e+2, -9314.666, -87134.79, 6124.185, 0.024694523, 0.14230469, -8835.661, -8835.661, 0.0, 5.013983, 4.9597125 
2.9330775e+2, 3.149337e+2, -8815.018, -83268.305, 8118.1235, 0.0077987644, 0.29091227, -7940.127, -7940.127, 0.0, 5.0133247, 4.961248 
2.983499e+2, 1.21516e+2, -1710341.9, -1748475.3, 965.61566, -0.014831623, 0.046598658, -1710317.5, 38832.684, 0.0, 5.014654, 4.989801 
2.9835197e+2, 1.2649502e+2, -1666991.5, -1711204.8, 277.95816, -0.0037590072, -0.024847316, -1666989.9, 33363.7, 0.0, 5.0147104, 4.9859304 
2.9835317e+2, 1.3148199e+2, -1617846.5, -1662138.6, 222.27226, -0.00083743804, -0.015191216, -1617845.4, 33634.582, 0.0, 5.0147624, 4.9859295 
2.9835436e+2, 1.3646895e+2, -1570929.0, -1617618.0, 168.0445, 0.0019944434, -0.0042822957, -1570928.5, 31678.291, 0.0, 5.0148077, 4.984425 
2.9835522e+2, 1.4145264e+2, -1528612.1, -1582599.9, -510.66083, 0.004713169, 0.016618973, -1528607.4, 25158.71, 0.0, 5.01485, 4.979698 
2.9835543e+2, 1.464323e+2, -1479206.5, -1533026.1, -629.8895, 0.007722132, 0.012155108, -1479199.1, 25767.236, 0.0, 5.014893, 4.979849 
2.9835567e+2, 1.5141183e+2, -1430031.1, -1483914.9, -624.74506, 0.010762604, 0.00643454, -1430023.9, 26143.836, 0.0, 5.0149345, 4.979849 
2.983559e+2, 1.5639137e+2, -1382289.6, -1437782.8, -618.4521, 0.0137899155, 0.0011661308, -1382282.8, 25086.406, 0.0, 5.014974, 4.9788537 
2.9835585e+2, 1.6136728e+2, -1341536.4, -1406261.4, -976.0895, 0.015824303, 0.0032465353, -1341521.8, 17084.27, 0.0, 5.0150065, 4.972974 
2.9835522e+2, 1.6634057e+2, -1292302.4, -1356988.9, -1124.2736, 0.015833523, 0.0037951756, -1292282.9, 17585.14, 0.0, 5.015025, 4.9730163 
2.983546e+2, 1.7131394e+2, -1243139.8, -1307849.1, -1200.423, 0.015772283, 0.0046213986, -1243117.5, 18012.133, 0.0, 5.01504, 4.9730163 
2.9835394e+2, 1.7628728e+2, -1195122.0, -1261117.5, -1277.1394, 0.015700016, 0.0058384063, -1195097.3, 17294.055, 0.0, 5.015052, 4.972209 
2.9835322e+2, 1.81257e+2, -1154446.8, -1229809.3, -1627.1622, 0.015965687, 0.013342894, -1154411.6, 9276.659, 0.0, 5.015027, 4.9662013 
2.9835224e+2, 1.8622325e+2, -1105232.3, -1180054.4, -1693.6392, 0.017153548, 0.009092854, -1105193.9, 9824.786, 0.0, 5.014922, 4.966441 
2.9835126e+2, 1.911895e+2, -1056369.1, -1131019.5, -1682.6207, 0.018366091, 0.0044762986, -1056331.1, 10017.9795, 0.0, 5.0148106, 4.966442 
2.9835024e+2, 1.9615574e+2, -1008405.6, -1083903.3, -1671.1724, 0.019557534, 0.0001812611, -1008368.7, 9310.801, 0.0, 5.0146956, 4.9657927 
2.9834917e+2, 2.0111865e+2, -968278.75, -1053792.3, -1634.6233, 0.019741729, 0.0049344, -968247.5, 794.9249, 0.0, 5.014601, 4.959326 
2.9834786e+2, 2.0607854e+2, -918751.6, -1003779.25, -1570.8884, 0.0173438, 0.0053028516, -918722.6, 1711.4938, 0.0, 5.014566, 4.9595976 
2.9834652e+2, 2.1103846e+2, -869595.9, -954572.56, -1498.7112, 0.014802686, 0.005485356, -869569.44, 2256.1414, 0.0, 5.0145307, 4.959597 
2.9834518e+2, 2.1599837e+2, -821114.25, -906823.9, -1425.7789, 0.012246946, 0.0058049373, -821090.56, 2126.4314, 0.0, 5.0144925, 4.959097 
2.9834396e+2, 2.2095445e+2, -781797.4, -879206.2, -1601.6642, 0.011775549, 0.013273111, -781771.06, -7124.075, 0.0, 5.0144634, 4.95166 
2.9834297e+2, 2.2590597e+2, -732319.1, -829370.1, -1847.7219, 0.016603958, 0.0066281436, -732283.94, -6159.3286, 0.0, 5.0144267, 4.951838 
2.98342e+2, 2.3085742e+2, -683113.5, -780071.2, -1978.2626, 0.02164943, -0.0009396164, -683073.2, -5470.1904, 0.0, 5.0143747, 4.951846 
2.9834095e+2, 2.3580888e+2, -634592.44, -732234.75, -2112.7754, 0.026617786, -0.008620648, -634546.75, -5465.3555, 0.0, 5.0143104, 4.951352 
2.9833984e+2, 2.4075724e+2, -594525.06, -703249.56, -2259.6177, 0.030901302, -0.0013481273, -594478.1, -13891.115, 0.0, 5.014271, 4.9442697 
2.9833862e+2, 2.4570271e+2, -543159.1, -650962.1, -2068.6484, 0.03158392, -0.0005280895, -543119.44, -11008.506, 0.0, 5.014569, 4.9451075 
2.9833734e+2, 2.5064814e+2, -492757.13, -601168.2, -2022.1649, 0.031810787, -0.001670956, -492719.44, -9084.969, 0.0, 5.0149093, 4.945089 
2.9833603e+2, 2.5559366e+2, -442625.88, -551954.6, -1970.1271, 0.03202574, -0.0018322379, -442590.38, -7433.213, 0.0, 5.01524, 4.944872 
2.9833585e+2, 2.605338e+2, -407503.25, -536036.9, -3199.2227, 0.04707479, 0.010189298, -407423.66, -20684.453, 0.0, 5.0154824, 4.9327974 
2.983362e+2, 2.6546863e+2, -358004.97, -482499.7, -5222.684, 0.080484055, -0.009270834, -357786.25, -19384.67, 0.0, 5.014691, 4.9340715 
2.983356e+2, 2.704038e+2, -311151.88, -433083.47, -6711.4414, 0.108447865, -0.038211685, -310783.6, -20720.25, 0.0, 5.013398, 4.9344764 
2.9833427e+2, 2.7533907e+2, -265275.25, -384299.6, -8508.215, 0.13223764, -0.073160104, -264670.16, -22945.848, 0.0, 5.011722, 4.934837 
2.983421e+2, 2.8027666e+2, -241554.36, -401353.22, -17.70879, 0.18981189, 0.06014951, -241554.34, -48197.74, 0.0, 5.013011, 4.911835 
2.9834768e+2, 2.8520882e+2, -163741.94, -296140.28, -5694.4165, 0.1754294, 0.13780524, -163497.47, -18486.47, 0.0, 5.0157027, 4.929976 
2.983449e+2, 2.9013458e+2, -113678.24, -245169.7, -4098.3306, 0.11363713, 0.07305614, -113550.625, -16825.936, 0.0, 5.0158935, 4.930241 
2.9834136e+2, 2.9505968e+2, -65165.5, -194971.98, -2758.417, 0.049256835, -0.0032759148, -65106.91, -16662.1, 0.0, 5.0154343, 4.9305086 
2.983388e+2, 2.9999834e+2, -13473.199, -101251.46, -668.93604, 0.009497205, -0.06490315, -13468.102, -13425.775, 0.0, 5.014446, 4.9557133 
2.983347e+2, 3.0497316e+2, -13821.514, -91226.87, 1883.4805, 0.009490513, 0.029399302, -13775.711, -13775.711, 0.0, 5.0127397, 4.958711 
2.983269e+2, 3.099581e+2, -19779.984, -90210.4, 4061.0144, -0.010389738, 0.18381865, -19546.6, -19546.6, 0.0, 5.010014, 4.9600616 
2.9831675e+2, 3.1494707e+2, -28029.818, -90492.39, 7259.7246, -0.043731824, 0.366276, -27197.154, -27197.154, 0.0, 5.0062957, 4.961414 
3.0336505e+2, 1.21515386e+2, -1709326.0, -1748433.1, 823.0908, -0.012064398, 0.047103323, -1709308.8, 39848.598, 0.0, 5.0150833, 4.989606 
3.0336708e+2, 1.2649459e+2, -1665812.0, -1710716.9, 84.05523, -0.0020368958, -0.022135653, -1665811.9, 34547.37, 0.0, 5.015116, 4.9858937 
3.0336827e+2, 1.3148147e+2, -1616792.1, -1661706.6, 77.94983, 0.00035523024, -0.013067128, -1616792.0, 34694.58, 0.0, 5.015127, 4.9858947 
3.0336943e+2, 1.3646834e+2, -1569980.0, -1617231.4, 71.13602, 0.0027422623, -0.0027283244, -1569979.9, 32634.266, 0.0, 5.0151377, 4.9843926 
3.0337027e+2, 1.4145197e+2, -1527707.3, -1582189.5, -567.1001, 0.0050584553, 0.017770702, -1527701.4, 26072.688, 0.0, 5.015157, 4.9796853 
3.0337048e+2, 1.464316e+2, -1478318.5, -1532602.8, -693.9666, 0.007584249, 0.013114622, -1478309.6, 26664.572, 0.0, 5.0151916, 4.9798455 
3.0337068e+2, 1.5141112e+2, -1429165.8, -1483499.5, -703.65106, 0.010158565, 0.0071925176, -1429156.6, 27018.725, 0.0, 5.015226, 4.979847 
3.0337092e+2, 1.5639062e+2, -1381441.5, -1437372.6, -713.50806, 0.0127428, 0.0017152063, -1381432.4, 25944.236, 0.0, 5.01526, 4.978853 
3.0337083e+2, 1.613665e+2, -1340800.5, -1405983.3, -1089.462, 0.01452214, 0.0036227272, -1340782.4, 17831.26, 0.0, 5.0152717, 4.97294 
3.033702e+2, 1.6633977e+2, -1291760.6, -1356839.5, -1180.3363, 0.014649269, 0.004188555, -1291739.1, 18137.037, 0.0, 5.0152316, 4.972968 
3.033696e+2, 1.7131306e+2, -1242766.6, -1307782.9, -1190.0542, 0.014741297, 0.0050600357, -1242744.9, 18393.563, 0.0, 5.0151896, 4.972968 
3.0336896e+2, 1.7628637e+2, -1194908.1, -1261129.5, -1200.0023, 0.0148461005, 0.0063345265, -1194886.4, 17514.203, 0.0, 5.0151477, 4.9721603 
3.0336815e+2, 1.8125606e+2, -1154282.1, -1229815.6, -1550.2346, 0.015145051, 0.013929711, -1154250.3, 9447.753, 0.0, 5.015099, 4.966166 
3.0336708e+2, 1.862223e+2, -1104934.9, -1179992.8, -1682.5405, 0.015974618, 0.009892382, -1104897.1, 10131.627, 0.0, 5.0150385, 4.9664083 
3.0336598e+2, 1.9118854e+2, -1055925.5, -1130888.6, -1732.8843, 0.016840825, 0.005484791, -1055885.5, 10474.088, 0.0, 5.0149775, 4.9664097 
3.0336487e+2, 1.9615477e+2, -1007806.94, -1083699.6, -1783.0452, 0.017717909, 0.0013804401, -1007765.06, 9925.248, 0.0, 5.014916, 4.96576 
3.0336368e+2, 2.0111766e+2, -967527.5, -1053331.9, -1795.1597, 0.0177, 0.005995587, -967489.94, 1563.5239, 0.0, 5.0148363, 4.959374 
3.0336228e+2, 2.0607756e+2, -918249.56, -1003384.4, -1756.7645, 0.0154039515, 0.0057599703, -918213.3, 2231.3066, 0.0, 5.0147057, 4.959669 
3.0336088e+2, 2.1103749e+2, -869380.6, -954310.3, -1712.5273, 0.013013938, 0.0053550918, -869346.1, 2489.3142, 0.0, 5.014571, 4.959669 
3.0335948e+2, 2.1599743e+2, -821175.5, -906688.7, -1668.2877, 0.010638259, 0.0050886385, -821143.0, 2083.257, 0.0, 5.0144367, 4.95917 
3.033582e+2, 2.2095357e+2, -782121.6, -879362.25, -1756.0476, 0.010177042, 0.012709712, -782089.94, -7434.507, 0.0, 5.014349, 4.951661 
3.0335715e+2, 2.2590524e+2, -732560.06, -829617.75, -1820.4147, 0.014719505, 0.008152756, -732525.94, -6393.6343, 0.0, 5.014364, 4.9517856 
3.033561e+2, 2.3085685e+2, -683155.7, -780246.3, -1776.895, 0.01959424, 0.0026866382, -683123.2, -5513.108, 0.0, 5.014381, 4.951788 
3.0335507e+2, 2.3580845e+2, -634402.6, -732323.1, -1729.8552, 0.02450987, -0.0029843322, -634372.06, -5283.993, 0.0, 5.014398, 4.951288 
3.0335402e+2, 2.4075681e+2, -593869.75, -703013.06, -1531.7826, 0.029033795, 0.00465618, -593848.25, -13253.839, 0.0, 5.014479, 4.944273 
3.0335325e+2, 2.4570194e+2, -542192.4, -650495.75, -1310.531, 0.030810727, 0.0017036095, -542176.5, -10055.187, 0.0, 5.014861, 4.945158 
3.0335245e+2, 2.50647e+2, -491595.3, -600595.4, -1352.742, 0.03236459, -0.0034200344, -491578.53, -7930.725, 0.0, 5.015269, 4.945147 
3.0335155e+2, 2.5559217e+2, -441256.1, -551270.44, -1397.6262, 0.034065966, -0.007574701, -441238.34, -6064.9, 0.0, 5.015671, 4.944937 
3.0335188e+2, 2.6053238e+2, -405619.88, -536009.94, -2142.443, 0.050284524, 0.0045219893, -405584.7, -18828.725, 0.0, 5.0162163, 4.9325323 
3.0335286e+2, 2.6546767e+2, -353001.1, -483340.84, -2430.466, 0.08822691, -0.0013666892, -352955.78, -14537.189, 0.0, 5.0167637, 4.933019 
3.03353e+2, 2.7040258e+2, -301292.1, -433017.4, -1627.8132, 0.12407559, -0.019598382, -301271.97, -11183.595, 0.0, 5.017232, 4.9330626 
3.0335248e+2, 2.7533683e+2, -249568.69, -382926.44, -584.3959, 0.15852535, -0.048154302, -249566.13, -7801.2183, 0.0, 5.0176725, 4.933058 
3.0336043e+2, 2.80273e+2, -224535.77, -391623.7, 12430.564, 0.21951501, 0.08160714, -223616.06, -30200.422, 0.0, 5.0187397, 4.912504 
3.033645e+2, 2.852064e+2, -157343.2, -287404.22, 5077.918, 0.1903587, 0.1544533, -157145.25, -12087.189, 0.0, 5.017484, 4.931675 
3.0336022e+2, 2.901336e+2, -114396.22, -241045.47, 3395.4849, 0.11876617, 0.088403806, -114305.25, -17548.113, 0.0, 5.0151486, 4.931525 
3.0335522e+2, 2.9505977e+2, -71327.16, -194722.38, 2036.6031, 0.048312705, 0.010659976, -71293.555, -22827.494, 0.0, 5.0127435, 4.931375 
3.033511e+2, 2.9999933e+2, -22622.928, -104649.58, 2488.9175, 0.003091566, -0.050812524, -22547.477, -22493.355, 0.0, 5.010728, 4.955834 
3.0334505e+2, 3.049753e+2, -20277.105, -94274.52, 4430.8833, -0.005302437, 0.048924915, -20012.732, -20012.732, 0.0, 5.0098405, 4.9585567 
3.0333558e+2, 3.0996025e+2, -20659.617, -90146.96, 5517.7666, -0.026532328, 0.19038641, -20224.197, -20224.197, 0.0, 5.0088525, 4.960124 
3.0332395e+2, 3.1494772e+2, -20834.559, -86227.734, 6876.4775, -0.053947266, 0.33728018, -20119.28, -20119.28, 0.0, 5.007781, 4.961692 
3.083805e+2, 1.2151398e+2, -1709758.9, -1749297.1, 981.4771, -0.0081545375, 0.040912572, -1709734.6, 39437.234, 0.0, 5.0150814, 4.9893227 
3.0838248e+2, 1.2649436e+2, -1665823.6, -1710722.5, 90.09141, 0.00086185156, -0.01624436, -1665823.4, 34539.402, 0.0, 5.015114, 4.9858923 
3.0838358e+2, 1.3148102e+2, -1616803.1, -1661713.4, 85.34621, 0.0021709637, -0.009403333, -1616802.9, 34689.555, 0.0, 5.015125, 4.985893 
3.0838466e+2, 1.3646767e+2, -1569990.0, -1617238.5, 80.01842, 0.0034578552, -0.0012928514, -1569989.9, 32632.5, 0.0, 5.015136, 4.9843907 
3.083854e+2, 1.4145114e+2, -1527726.1, -1582220.4, -545.7193, 0.0048419074, 0.017802045, -1527720.6, 26062.883, 0.0, 5.015156, 4.9796753 
3.0838558e+2, 1.4643079e+2, -1478336.4, -1532632.5, -667.38824, 0.006722367, 0.0134526, -1478328.3, 26654.943, 0.0, 5.0151906, 4.9798365 
3.0838576e+2, 1.5141034e+2, -1429183.9, -1483529.1, -676.39056, 0.008647896, 0.007891301, -1429175.5, 27008.268, 0.0, 5.0152245, 4.9798374 
3.0838597e+2, 1.5638986e+2, -1381459.8, -1437401.9, -685.5361, 0.010577965, 0.002775628, -1381451.4, 25933.102, 0.0, 5.015259, 4.9788437 
3.0838588e+2, 1.6136573e+2, -1340812.5, -1406002.1, -1109.81, 0.011964597, 0.004750595, -1340793.6, 17827.516, 0.0, 5.0152707, 4.972934 
3.083852e+2, 1.6633895e+2, -1291777.6, -1356870.4, -1213.2688, 0.01221085, 0.004786685, -1291755.0, 18129.205, 0.0, 5.015231, 4.972958 
3.0838454e+2, 1.7131218e+2, -1242783.5, -1307813.5, -1222.1335, 0.012425243, 0.0051129377, -1242760.5, 18386.428, 0.0, 5.0151887, 4.972958 
3.0838388e+2, 1.7628543e+2, -1194924.8, -1261160.0, -1231.2244, 0.012642921, 0.0058419458, -1194901.9, 17507.74, 0.0, 5.0151467, 4.9721503 
3.0838305e+2, 1.8125507e+2, -1154350.5, -1229954.1, -1593.5928, 0.012936196, 0.013249105, -1154317.0, 9390.697, 0.0, 5.015098, 4.96612 
3.0838186e+2, 1.8622133e+2, -1105026.0, -1180178.0, -1727.1322, 0.013458404, 0.010018718, -1104986.4, 10052.246, 0.0, 5.015037, 4.9663463 
3.0838066e+2, 1.9118759e+2, -1056017.0, -1131073.1, -1776.0988, 0.013986846, 0.006482932, -1055975.0, 10394.575, 0.0, 5.0149755, 4.9663477 
3.0837947e+2, 1.9615385e+2, -1007898.8, -1083883.4, -1824.8757, 0.01451071, 0.0032572593, -1007855.0, 9845.549, 0.0, 5.014914, 4.9656982 
3.083782e+2, 2.0111673e+2, -967481.8, -1053229.5, -1883.0448, 0.014303838, 0.008011212, -967440.44, 1623.5325, 0.0, 5.014836, 4.959409 
3.0837667e+2, 2.0607655e+2, -918168.7, -1003210.0, -1859.712, 0.012253947, 0.006452766, -918128.0, 2327.4587, 0.0, 5.0147057, 4.959729 
3.0837515e+2, 2.110364e+2, -869300.3, -954136.3, -1813.6942, 0.010114214, 0.004708891, -869261.56, 2585.0474, 0.0, 5.014571, 4.959729 
3.0837363e+2, 2.1599625e+2, -821095.75, -906515.06, -1767.6628, 0.007972892, 0.003109337, -821059.2, 2178.5442, 0.0, 5.014437, 4.95923 
3.0837226e+2, 2.2095244e+2, -782027.56, -879138.75, -1766.4724, 0.007282366, 0.010441121, -781995.44, -7329.165, 0.0, 5.0143466, 4.9517384 
3.0837113e+2, 2.2590446e+2, -732501.75, -829448.4, -1789.6293, 0.010481099, 0.008825176, -732468.75, -6328.5723, 0.0, 5.0143576, 4.951846 
3.0836996e+2, 2.3085646e+2, -683104.9, -780073.9, -1740.8334, 0.013917253, 0.006556391, -683073.6, -5458.733, 0.0, 5.0143723, 4.9518504 
3.0836883e+2, 2.3580843e+2, -634359.2, -732147.5, -1688.5175, 0.01734841, 0.004114029, -634330.06, -5240.3076, 0.0, 5.0143867, 4.951353 
3.0836782e+2, 2.4075694e+2, -593874.25, -702807.56, -1311.9437, 0.020797504, 0.012576544, -593858.44, -13263.282, 0.0, 5.014448, 4.944353 
3.0836743e+2, 2.4570166e+2, -542257.94, -650381.25, -1013.7355, 0.02311269, 0.0049885167, -542248.4, -10121.407, 0.0, 5.014823, 4.9452085 
3.0836707e+2, 2.506463e+2, -491651.22, -600479.8, -1048.1154, 0.02529066, -0.0048515266, -491641.13, -7982.539, 0.0, 5.015234, 4.945196 
3.0836663e+2, 2.5559103e+2, -441302.38, -551153.8, -1085.1825, 0.02755346, -0.013697213, -441291.66, -6102.3584, 0.0, 5.0156393, 4.944985 
3.0836722e+2, 2.6053149e+2, -404896.06, -533847.4, -1479.9576, 0.041401062, -0.0025677567, -404879.1, -18108.44, 0.0, 5.016141, 4.933319 
3.0836838e+2, 2.654691e+2, -352644.7, -480789.84, -1336.6498, 0.07008631, 0.007853775, -352630.72, -14217.2295, 0.0, 5.016525, 4.934011 
3.0836865e+2, 2.704068e+2, -301317.34, -430115.97, -322.1314, 0.09489656, 0.0093858335, -301316.53, -11257.096, 0.0, 5.0168333, 4.934211 
3.083682e+2, 2.753441e+2, -249975.42, -379674.44, 932.9774, 0.11660186, 0.0021951394, -249968.72, -8259.711, 0.0, 5.0171137, 4.934363 
3.083752e+2, 2.8028205e+2, -221980.39, -386560.0, 11611.308, 0.16098046, 0.13270289, -221165.23, -27820.674, 0.0, 5.018843, 4.914349 
3.0837774e+2, 2.8521362e+2, -155834.64, -288764.0, 3208.6492, 0.14034353, 0.18658112, -155757.23, -10752.343, 0.0, 5.018127, 4.9312615 
3.0837256e+2, 2.9013914e+2, -113098.11, -241795.44, 1807.1504, 0.08392089, 0.111442745, -113072.734, -16353.319, 0.0, 5.015684, 4.9313073 
3.0836657e+2, 2.9506376e+2, -70241.5, -194863.5, 729.41534, 0.026348226, 0.023801124, -70237.234, -21794.459, 0.0, 5.013171, 4.931353 
3.0836102e+2, 3.000028e+2, -20394.111, -100327.3, 1742.7761, -0.014384645, -0.04409027, -20356.13, -20321.994, 0.0, 5.0109644, 4.9574275 
3.0835256e+2, 3.049814e+2, -18984.697, -89423.78, 4519.345, -0.04248177, 0.07287845, -18695.922, -18695.922, 0.0, 5.0096884, 4.9606123 
3.0834043e+2, 3.099699e+2, -20672.965, -86028.664, 6244.5693, -0.09031189, 0.24583404, -20081.662, -20081.662, 0.0, 5.008339, 4.962118 
3.0832595e+2, 3.1496176e+2, -22155.799, -82840.195, 8242.186, -0.14972578, 0.43479684, -21056.264, -21056.264, 0.0, 5.0069056, 4.9636245 
3.13396e+2, 1.21512525e+2, -1710136.4, -1750047.5, 1136.9224, -0.004419449, 0.034409255, -1710104.0, 39082.656, 0.0, 5.015079, 4.989076 
3.1339788e+2, 1.2649414e+2, -1665835.6, -1710727.8, 96.76131, 0.003751028, -0.01029965, -1665835.4, 34530.92, 0.0, 5.0151114, 4.985891 
3.133989e+2, 1.3148057e+2, -1616814.5, -1661719.6, 93.37624, 0.0039819875, -0.005704889, -1616814.3, 34684.023, 0.0, 5.015123, 4.985891 
3.1339988e+2, 1.3646698e+2, -1570000.4, -1617245.1, 89.53461, 0.0041735987, 0.00015850412, -1570000.3, 32630.232, 0.0, 5.0151343, 4.984389 
3.1340054e+2, 1.4145032e+2, -1527749.0, -1582258.8, -523.9305, 0.0046254876, 0.017850868, -1527744.0, 26049.148, 0.0, 5.015155, 4.979663 
3.134007e+2, 1.4642997e+2, -1478354.6, -1532662.0, -640.8051, 0.0058606933, 0.013799617, -1478347.0, 26645.115, 0.0, 5.015189, 4.9798265 
3.1340083e+2, 1.5140955e+2, -1429202.3, -1483558.8, -649.1253, 0.007138142, 0.008585848, -1429194.5, 26997.613, 0.0, 5.0152235, 4.979828 
3.13401e+2, 1.5638912e+2, -1381478.1, -1437431.1, -657.5593, 0.008414749, 0.0038185373, -1381470.5, 25921.78, 0.0, 5.0152574, 4.9788346 
3.1340086e+2, 1.6136499e+2, -1340830.8, -1406033.9, -1129.6544, 0.009405726, 0.0058997544, -1340811.1, 17817.41, 0.0, 5.0152698, 4.9729238 
3.134002e+2, 1.6633812e+2, -1291794.9, -1356901.1, -1246.2527, 0.009770039, 0.005407344, -1291771.1, 18121.152, 0.0, 5.01523, 4.972948 
3.133995e+2, 1.7131129e+2, -1242800.6, -1307844.0, -1254.2643, 0.01010683, 0.005173867, -1242776.5, 18379.076, 0.0, 5.015188, 4.9729476 
3.1339884e+2, 1.7628446e+2, -1194941.8, -1261190.4, -1262.4978, 0.010437418, 0.0053428933, -1194917.8, 17501.066, 0.0, 5.0151463, 4.9721403 
3.1339794e+2, 1.8125407e+2, -1154422.3, -1230098.9, -1637.1235, 0.0107202865, 0.012586424, -1154386.9, 9330.377, 0.0, 5.015097, 4.966071 
3.1339666e+2, 1.8622035e+2, -1105117.6, -1180363.0, -1771.9971, 0.01093144, 0.010154244, -1105075.9, 9972.54, 0.0, 5.015036, 4.966284 
3.1339538e+2, 1.9118664e+2, -1056109.0, -1131257.4, -1819.5863, 0.011120286, 0.007466682, -1056064.9, 10314.746, 0.0, 5.014974, 4.966285 
3.133941e+2, 1.9615293e+2, -1007991.0, -1084066.9, -1866.9792, 0.011289096, 0.005096111, -1007945.25, 9765.54, 0.0, 5.014912, 4.9656363 
3.1339273e+2, 2.011158e+2, -967448.06, -1053152.5, -1969.396, 0.010914417, 0.010086811, -967402.9, 1671.646, 0.0, 5.0148354, 4.959436 
3.1339112e+2, 2.0607555e+2, -918088.2, -1003035.4, -1962.8103, 0.009112167, 0.0072182585, -918042.9, 2423.4421, 0.0, 5.0147057, 4.959789 
3.1338948e+2, 2.1103531e+2, -869220.4, -953962.1, -1915.0118, 0.0072163586, 0.0040988578, -869177.1, 2680.6194, 0.0, 5.014571, 4.959789 
3.133878e+2, 2.1599509e+2, -821016.3, -906341.2, -1867.1888, 0.0053030383, 0.0011296776, -820975.44, 2273.676, 0.0, 5.014437, 4.9592896 
3.1338632e+2, 2.209513e+2, -781944.75, -878937.94, -1780.0768, 0.0043927776, 0.008177027, -781912.1, -7235.0156, 0.0, 5.0143437, 4.9518075 
3.1338507e+2, 2.259037e+2, -732444.94, -829277.9, -1761.8049, 0.006228962, 0.009428356, -732412.94, -6264.8057, 0.0, 5.0143514, 4.951906 
3.1338382e+2, 2.3085605e+2, -683055.44, -779900.25, -1707.7322, 0.008203335, 0.010254862, -683025.4, -5405.608, 0.0, 5.014364, 4.9519124 
3.1338257e+2, 2.358084e+2, -634317.2, -731970.75, -1650.14, 0.010126815, 0.010939077, -634289.3, -5197.8257, 0.0, 5.014375, 4.9514165 
3.1338152e+2, 2.4075711e+2, -593927.4, -702693.44, -1118.4172, 0.012540557, 0.020849418, -593915.9, -13320.266, 0.0, 5.0144167, 4.9443994 
3.1338158e+2, 2.4570143e+2, -542332.8, -650257.5, -717.3495, 0.015442101, 0.008870312, -542328.06, -10195.898, 0.0, 5.014785, 4.9452586 
3.1338167e+2, 2.5064564e+2, -491716.47, -600355.0, -743.8994, 0.018272003, -0.005830974, -491711.38, -8042.4526, 0.0, 5.0151997, 4.9452443 
3.1338167e+2, 2.5558993e+2, -441358.06, -551028.0, -773.15027, 0.021124044, -0.019512536, -441352.6, -6147.749, 0.0, 5.015608, 4.9450316 
3.1338263e+2, 2.605304e+2, -404414.5, -532147.3, -955.654, 0.03342968, -0.010383889, -404407.34, -17620.27, 0.0, 5.016066, 4.933917 
3.1338367e+2, 2.6547018e+2, -352335.03, -478202.44, -477.24426, 0.0518148, 0.012605593, -352333.22, -13921.093, 0.0, 5.0162864, 4.9349484 
3.1338373e+2, 2.7041048e+2, -301388.66, -427177.9, 749.2873, 0.06391912, 0.030089837, -301384.2, -11348.829, 0.0, 5.0164347, 4.9353056 
3.1338298e+2, 2.7535078e+2, -250427.53, -376385.63, 2216.2112, 0.07121208, 0.040454157, -250388.55, -8729.437, 0.0, 5.0165553, 4.9356146 
3.133901e+2, 2.8029126e+2, -221563.19, -386403.2, 11620.885, 0.10444182, 0.18719566, -220747.98, -27475.906, 0.0, 5.0189495, 4.9144664 
3.1339198e+2, 2.852215e+2, -154437.7, -290018.22, 976.53156, 0.0954954, 0.23265705, -154430.67, -9485.78, 0.0, 5.01877, 4.9307976 
3.1338567e+2, 2.9014516e+2, -111911.47, -242438.81, -144.69254, 0.05191947, 0.14368808, -111911.305, -15234.778, 0.0, 5.0162196, 4.9310393 
3.1337845e+2, 2.9506806e+2, -69267.164, -194897.1, -941.99774, 0.0049041915, 0.041407272, -69260.1, -20844.11, 0.0, 5.013599, 4.931281 
3.133715e+2, 3.000059e+2, -19112.584, -97843.15, 836.6013, -0.030215587, -0.038398236, -19103.693, -19086.32, 0.0, 5.0112014, 4.9582844 
3.133606e+2, 3.0498636e+2, -17822.775, -84448.23, 4640.2993, -0.07162946, 0.084070176, -17501.143, -17501.143, 0.0, 5.009537, 4.962536 
3.133456e+2, 3.0997792e+2, -20816.828, -81783.25, 7003.114, -0.14069985, 0.27419832, -20022.736, -20022.736, 0.0, 5.0078263, 4.9639797 
3.1332806e+2, 3.149735e+2, -23608.36, -79323.37, 9639.187, -0.22675547, 0.49090615, -21987.832, -21987.832, 0.0, 5.006031, 4.9654245 
3.1841144e+2, 1.2151106e+2, -1710495.9, -1750704.3, 1340.0531, -0.0007719439, 0.027750809, -1710451.3, 38750.39, 0.0, 5.0150657, 4.988866 
3.184133e+2, 1.264939e+2, -1665857.3, -1710738.8, 149.56706, 0.0066909576, -0.0044979695, -1665856.8, 34513.164, 0.0, 5.0151067, 4.985888 
3.1841418e+2, 1.3148011e+2, -1616827.4, -1661728.5, 139.1748, 0.0057975664, -0.0020803704, -1616827.0, 34677.11, 0.0, 5.015121, 4.985888 
3.1841508e+2, 1.3646631e+2, -1570028.6, -1617263.1, 127.47932, 0.0048700273, 0.0016094485, -1570028.3, 32610.281, 0.0, 5.015127, 4.984385 
3.1841567e+2, 1.414495e+2, -1527827.3, -1582334.5, -484.39124, 0.0043877927, 0.017957525, -1527822.9, 25979.64, 0.0, 5.015137, 4.9796457 
3.184158e+2, 1.4642917e+2, -1478452.4, -1532736.4, -613.4958, 0.004991467, 0.014171803, -1478445.5, 26555.635, 0.0, 5.0151625, 4.9798145 
3.184159e+2, 1.5140876e+2, -1429332.4, -1483649.4, -639.5272, 0.005638265, 0.009265155, -1429324.9, 26875.654, 0.0, 5.015186, 4.9798155 
3.1841606e+2, 1.5638836e+2, -1381646.0, -1437540.3, -666.87585, 0.006281913, 0.0048052617, -1381638.0, 25762.035, 0.0, 5.0152073, 4.978822 
3.1841588e+2, 1.6136423e+2, -1341038.8, -1406167.1, -1196.8138, 0.0068852035, 0.0070139584, -1341016.8, 17619.432, 0.0, 5.015207, 4.972909 
3.184152e+2, 1.663373e+2, -1292024.4, -1357031.9, -1320.1605, 0.0073578195, 0.006009524, -1291997.5, 17902.762, 0.0, 5.015157, 4.9729385 
3.1841445e+2, 1.7131041e+2, -1243064.9, -1307991.0, -1320.1039, 0.00781491, 0.00521838, -1243038.0, 18126.113, 0.0, 5.015103, 4.9729385 
3.1841376e+2, 1.7628352e+2, -1195247.1, -1261356.3, -1320.1111, 0.008263608, 0.004828753, -1195220.9, 17207.13, 0.0, 5.0150466, 4.972131 
3.184128e+2, 1.8125308e+2, -1154823.5, -1230407.3, -1701.5541, 0.008543024, 0.011942238, -1154785.3, 8941.546, 0.0, 5.014985, 4.9660196 
3.1841147e+2, 1.8621938e+2, -1105553.6, -1180715.1, -1841.6671, 0.008460473, 0.010295556, -1105508.6, 9549.707, 0.0, 5.0149174, 4.9662204 
3.1841007e+2, 1.9118568e+2, -1056572.8, -1131621.9, -1893.2452, 0.00834221, 0.0084226085, -1056525.0, 9864.665, 0.0, 5.0148454, 4.966222 
3.184087e+2, 1.9615199e+2, -1008494.1, -1084449.1, -1945.4749, 0.008201606, 0.0068674847, -1008444.4, 9276.745, 0.0, 5.0147696, 4.9655724 
3.1840724e+2, 2.0111485e+2, -967871.4, -1053313.9, -2095.5544, 0.0077132923, 0.012181859, -967820.0, 1265.0356, 0.0, 5.014682, 4.959452 
3.184055e+2, 2.0607452e+2, -918442.56, -1003068.4, -2120.6843, 0.006134408, 0.008048507, -918389.5, 2087.695, 0.0, 5.014556, 4.9598465 
3.1840375e+2, 2.1103422e+2, -869572.4, -953993.06, -2085.5396, 0.0044604056, 0.0035501826, -869520.94, 2347.9922, 0.0, 5.0144224, 4.959847 
3.1840202e+2, 2.1599391e+2, -821378.4, -906375.75, -2049.594, 0.0027664711, -0.000795726, -821329.0, 1931.6082, 0.0, 5.014284, 4.9593477 
3.1840038e+2, 2.2095019e+2, -782351.25, -878991.5, -1895.9998, 0.0016636483, 0.0059741945, -782314.06, -7626.0327, 0.0, 5.0141764, 4.951865 
3.18399e+2, 2.259029e+2, -732964.25, -829390.9, -1861.5756, 0.0021768305, 0.009952412, -732928.3, -6772.0215, 0.0, 5.0141463, 4.9519587 
3.1839764e+2, 2.3085558e+2, -683715.9, -780075.75, -1833.5085, 0.0027554417, 0.013672353, -683681.0, -6055.9497, 0.0, 5.0141087, 4.9519653 
3.1839627e+2, 2.3580828e+2, -635153.7, -732223.94, -1808.143, 0.0032667366, 0.017249664, -635120.0, -6026.071, 0.0, 5.014058, 4.9514704 
3.1839523e+2, 2.4075723e+2, -595077.06, -703193.9, -1183.6295, 0.004811226, 0.029115582, -595064.1, -14467.655, 0.0, 5.0140166, 4.944402 
3.183957e+2, 2.457012e+2, -543726.5, -650778.06, -718.82965, 0.0084556965, 0.013210035, -543721.7, -11584.182, 0.0, 5.0142856, 4.9452953 
3.1839627e+2, 2.5064495e+2, -493383.63, -600998.0, -802.6996, 0.012121778, -0.006196129, -493377.63, -9698.193, 0.0, 5.014604, 4.945281 
3.1839675e+2, 2.5558883e+2, -443294.6, -551790.1, -885.44055, 0.015798146, -0.024525564, -443287.38, -8066.93, 0.0, 5.014918, 4.945068 
3.1839806e+2, 2.6052913e+2, -406748.88, -532424.0, -1252.1438, 0.027932549, -0.018061608, -406736.4, -19930.771, 0.0, 5.0151315, 4.934203 
3.1839883e+2, 2.6547053e+2, -357235.16, -478757.88, -1815.6165, 0.037580788, 0.013423627, -357208.03, -18790.404, 0.0, 5.014317, 4.935536 
3.1839854e+2, 2.7041277e+2, -310502.28, -429386.22, -2144.3975, 0.039298635, 0.041225407, -310463.6, -20438.965, 0.0, 5.012953, 4.935954 
3.1839743e+2, 2.753551e+2, -264924.75, -380737.84, -2656.092, 0.03569364, 0.062048964, -264863.84, -23232.57, 0.0, 5.0111356, 4.936326 
3.1840572e+2, 2.8029814e+2, -242500.02, -399057.44, 5412.2114, 0.06708699, 0.235825, -242313.14, -49091.457, 0.0, 5.012193, 4.9129944 
3.184076e+2, 2.8522825e+2, -166840.22, -295569.25, -6186.5303, 0.067302115, 0.2851893, -166543.58, -21648.06, 0.0, 5.0144515, 4.930669 
3.1839973e+2, 2.9015067e+2, -118342.01, -245135.98, -5386.228, 0.029149966, 0.18122672, -118113.61, -21474.92, 0.0, 5.014032, 4.930963 
3.18391e+2, 2.9507223e+2, -71834.875, -195674.72, -4879.3936, -0.012868194, 0.06314434, -71642.92, -23252.984, 0.0, 5.0128, 4.9312587 
3.1838265e+2, 3.0000865e+2, -20547.947, -98012.88, -1857.9734, -0.04250989, -0.031117734, -20503.41, -20499.55, 0.0, 5.010863, 4.958273 
3.183694e+2, 3.0498973e+2, -21492.648, -81529.016, 2786.4023, -0.08777134, 0.08101442, -21363.604, -21363.604, 0.0, 5.007728, 4.964145 
3.183516e+2, 3.099829e+2, -32583.918, -82048.58, 6775.879, -0.16546625, 0.26275915, -31672.523, -31672.523, 0.0, 5.0031185, 4.9656644 
3.1833124e+2, 3.149806e+2, -47126.664, -84305.234, 12493.572, -0.26183888, 0.47536695, -43318.387, -43318.387, 0.0, 4.9971194, 4.967187 
3.234271e+2, 1.2151047e+2, -1709282.6, -1750762.1, 1600.7506, 0.0025269773, 0.027404279, -1709221.0, 39985.53, 0.0, 5.0156097, 4.988579 
3.2342902e+2, 1.2649311e+2, -1664531.1, -1710174.8, 339.37985, 0.010426456, -0.0062012807, -1664528.6, 35848.734, 0.0, 5.015566, 4.985848 
3.2342967e+2, 1.3147941e+2, -1615675.3, -1661256.8, 285.3028, 0.0075408327, -0.0025314954, -1615673.5, 35837.42, 0.0, 5.0155244, 4.9858465 
3.2343036e+2, 1.364657e+2, -1569024.3, -1616869.3, 231.03883, 0.0047072065, 0.0024260439, -1569023.3, 33621.508, 0.0, 5.0154824, 4.984343 
3.234308e+2, 1.414489e+2, -1526999.5, -1582102.0, -409.70706, 0.0029716806, 0.019477291, -1526996.4, 26812.244, 0.0, 5.01545, 4.9795713 
3.2343093e+2, 1.4642844e+2, -1477754.8, -1532583.8, -597.45483, 0.0033614058, 0.015122904, -1477748.3, 27260.318, 0.0, 5.015435, 4.979734 
3.2343104e+2, 1.5140788e+2, -1428749.5, -1483557.4, -688.3623, 0.0038204428, 0.00960264, -1428740.9, 27468.469, 0.0, 5.0154204, 4.979734 
3.2343113e+2, 1.5638733e+2, -1381171.1, -1437505.1, -779.5058, 0.0042846636, 0.0045277276, -1381160.4, 26249.842, 0.0, 5.0154057, 4.9787393 
3.2343093e+2, 1.613631e+2, -1340585.9, -1405961.6, -1393.7875, 0.004685728, 0.0062613375, -1340556.1, 18091.086, 0.0, 5.015361, 4.9729047 
3.2343012e+2, 1.6633618e+2, -1291725.6, -1356847.1, -1509.4337, 0.004918763, 0.0051259818, -1291690.8, 18220.34, 0.0, 5.0152483, 4.9729576 
3.234293e+2, 1.7130929e+2, -1242946.3, -1307892.6, -1487.3217, 0.005160395, 0.0042182677, -1242912.3, 18262.258, 0.0, 5.0151334, 4.9729576 
3.2342845e+2, 1.762824e+2, -1195301.1, -1261340.0, -1465.5245, 0.005418611, 0.003710167, -1195268.6, 17169.371, 0.0, 5.015018, 4.9721503 
3.2342744e+2, 1.81252e+2, -1155089.4, -1230614.5, -1818.4585, 0.005500227, 0.010985387, -1155045.6, 8690.931, 0.0, 5.014909, 4.9659863 
3.2342598e+2, 1.8621832e+2, -1105914.8, -1181018.9, -1938.2859, 0.005216543, 0.01017296, -1105864.8, 9203.298, 0.0, 5.014818, 4.966165 
3.234245e+2, 1.9118464e+2, -1056985.4, -1131952.4, -1973.061, 0.0049474738, 0.00914408, -1056933.5, 9466.002, 0.0, 5.014728, 4.9661655 
3.23423e+2, 1.9615099e+2, -1008946.6, -1084800.6, -2007.8477, 0.0047035622, 0.008411972, -1008893.5, 8837.485, 0.0, 5.0146375, 4.9655156 
3.2342145e+2, 2.0111383e+2, -968337.06, -1053574.1, -2188.8616, 0.0042962744, 0.013918459, -968280.9, 814.4986, 0.0, 5.0145264, 4.959436 
3.2341963e+2, 2.0607334e+2, -919000.0, -1003338.94, -2284.266, 0.0030598522, 0.008436431, -918938.2, 1550.5554, 0.0, 5.0143623, 4.9598436 
3.2341775e+2, 2.110329e+2, -870223.1, -954305.44, -2314.3098, 0.0017734693, 0.0025043667, -870159.44, 1722.2805, 0.0, 5.0141945, 4.9598446 
3.234159e+2, 2.1599245e+2, -822109.5, -906723.75, -2344.703, 0.00051525753, -0.0032869547, -822044.56, 1230.1725, 0.0, 5.014027, 4.959346 
3.2341415e+2, 2.2094867e+2, -783065.7, -879146.06, -2166.5276, -0.00051334203, 0.0026887623, -783016.9, -8314.428, 0.0, 5.013883, 4.951948 
3.2341263e+2, 2.2590163e+2, -733812.5, -829567.6, -2006.8518, -0.0010555121, 0.008172956, -733770.44, -7602.522, 0.0, 5.0137925, 4.952063 
3.2341108e+2, 2.3085459e+2, -684703.2, -780330.8, -1864.9802, -0.0015232356, 0.013492997, -684666.8, -7033.01, 0.0, 5.0137033, 4.9520655 
3.2340956e+2, 2.3580751e+2, -636243.0, -732540.6, -1718.049, -0.0019711908, 0.018563358, -636212.4, -7112.4155, 0.0, 5.0136137, 4.9515657 
3.234084e+2, 2.407566e+2, -596325.4, -703726.75, -876.56635, -0.001216927, 0.030973302, -596318.2, -15716.926, 0.0, 5.0135183, 4.9444547 
3.2340887e+2, 2.4570051e+2, -545933.3, -651945.25, -344.95477, 0.0021202613, 0.0147343585, -545932.2, -13787.4, 0.0, 5.0134697, 4.945275 
3.234095e+2, 2.5064427e+2, -496589.88, -602616.75, -408.4505, 0.005700443, -0.004678653, -496588.3, -12899.157, 0.0, 5.0134244, 4.9452624 
3.2341006e+2, 2.555881e+2, -447495.16, -553855.5, -478.14722, 0.00947501, -0.022845276, -447493.0, -12260.554, 0.0, 5.013373, 4.945052 
3.2341135e+2, 2.6052862e+2, -410731.6, -533581.8, -495.2286, 0.020784141, -0.015791137, -410729.63, -23912.943, 0.0, 5.0134325, 4.9346166 
3.2341182e+2, 2.6547045e+2, -358866.7, -479657.94, 531.83704, 0.029043859, 0.01852709, -358864.34, -20443.602, 0.0, 5.013396, 4.9357967 
3.2341138e+2, 2.7041247e+2, -308598.2, -429724.63, 2308.7458, 0.03307933, 0.04448402, -308554.2, -18527.959, 0.0, 5.0132756, 4.9359393 
3.2341024e+2, 2.753538e+2, -258279.67, -380039.66, 4354.183, 0.03564544, 0.05777454, -258124.16, -16485.277, 0.0, 5.0131297, 4.936034 
3.2341787e+2, 2.8029513e+2, -236734.28, -391492.78, 15703.288, 0.07214291, 0.20811157, -235156.94, -41914.254, 0.0, 5.0134053, 4.914844 
3.2341883e+2, 2.8522632e+2, -171948.02, -293472.4, 3097.5159, 0.06365127, 0.2552951, -171869.11, -26963.617, 0.0, 5.0125594, 4.9315777 
3.234105e+2, 2.9015023e+2, -126454.83, -245941.16, 504.23074, 0.021100454, 0.1614361, -126452.7, -29818.4, 0.0, 5.0111294, 4.931407 
3.234015e+2, 2.9507285e+2, -80838.086, -198475.4, -1736.0438, -0.019250082, 0.05214347, -80812.48, -32436.54, 0.0, 5.0096374, 4.931237 
3.2339275e+2, 3.0001026e+2, -26223.174, -98308.87, -828.3113, -0.043210167, -0.035626143, -26213.658, -26213.658, 0.0, 5.0083814, 4.95899 
3.233783e+2, 3.049907e+2, -19436.633, -77106.65, 1510.1086, -0.0804138, 0.058273375, -19397.117, -19397.117, 0.0, 5.007663, 4.965564 
3.2335958e+2, 3.0998215e+2, -19157.332, -70887.62, 2007.6016, -0.1377167, 0.19997767, -19079.537, -19079.537, 0.0, 5.0068073, 4.967768 
3.233387e+2, 3.149776e+2, -18597.209, -64950.03, 2705.0745, -0.20073758, 0.35370237, -18439.879, -18439.879, 0.0, 5.0058856, 4.9699736 
3.28443e+2, 1.2151034e+2, -1709766.1, -1751731.9, 1527.4753, 0.004895782, 0.03033901, -1709710.6, 39495.56, 0.0, 5.0156074, 4.9882617 
3.2844502e+2, 1.2649205e+2, -1664631.5, -1710367.0, 305.92526, 0.014299707, -0.011734045, -1664629.5, 35757.305, 0.0, 5.0155635, 4.9857864 
3.284454e+2, 1.314786e+2, -1615773.6, -1661448.6, 253.18553, 0.009177752, -0.005050066, -1615772.3, 35745.996, 0.0, 5.0155225, 4.9857845 
3.284458e+2, 1.3646512e+2, -1569120.0, -1617059.5, 200.50708, 0.004090331, 0.0029145435, -1569119.1, 33530.71, 0.0, 5.015481, 4.984281 
3.284461e+2, 1.4144841e+2, -1527156.0, -1582416.4, -426.56628, 0.00087726174, 0.021694036, -1527152.8, 26660.387, 0.0, 5.0154486, 4.9794683 
3.2844618e+2, 1.4642775e+2, -1477924.0, -1532925.0, -608.26184, 0.0012459585, 0.01636087, -1477917.4, 27097.873, 0.0, 5.015434, 4.9796214 
3.2844627e+2, 1.5140697e+2, -1428917.8, -1483897.6, -698.5258, 0.0017081724, 0.009774476, -1428908.9, 27309.43, 0.0, 5.015419, 4.979621 
3.2844636e+2, 1.5638618e+2, -1381338.0, -1437843.9, -788.955, 0.00216798, 0.0036329527, -1381327.0, 26094.406, 0.0, 5.015404, 4.9786267 
3.284461e+2, 1.6136181e+2, -1340589.5, -1405963.3, -1466.1426, 0.002425361, 0.004602842, -1340556.6, 18103.191, 0.0, 5.01536, 4.972904 
3.284451e+2, 1.6633493e+2, -1291685.6, -1356758.5, -1597.3776, 0.00224428, 0.0034988618, -1291646.5, 18276.508, 0.0, 5.0152473, 4.9729877 
3.2844412e+2, 1.7130807e+2, -1242906.5, -1307804.1, -1574.485, 0.002053725, 0.002663261, -1242868.3, 18317.414, 0.0, 5.0151324, 4.9729877 
3.2844314e+2, 1.7628123e+2, -1195261.5, -1261251.8, -1551.8944, 0.0018690006, 0.0022270707, -1195225.0, 17223.459, 0.0, 5.015017, 4.9721804 
3.2844195e+2, 1.8125086e+2, -1155122.1, -1230677.9, -1892.1084, 0.0015384721, 0.009798751, -1155074.8, 8671.681, 0.0, 5.014908, 4.9659653 
3.2844037e+2, 1.8621723e+2, -1105978.3, -1181146.6, -2005.1028, 0.0009820057, 0.009883149, -1105924.8, 9152.839, 0.0, 5.0148168, 4.966122 
3.284388e+2, 1.9118361e+2, -1057049.3, -1132079.9, -2038.7048, 0.00043755813, 0.00978729, -1056993.9, 9415.02, 0.0, 5.0147266, 4.966123 
3.284372e+2, 1.9614999e+2, -1009010.75, -1084927.9, -2072.3088, -0.00009626086, 0.009992248, -1008954.25, 8785.914, 0.0, 5.014636, 4.965473 
3.284355e+2, 2.0111282e+2, -968385.7, -1053670.5, -2304.5923, -0.0005341081, 0.015710212, -968323.44, 781.4673, 0.0, 5.0145254, 4.9594035 
3.2843357e+2, 2.0607215e+2, -919048.8, -1003439.25, -2413.6575, -0.0011680534, 0.008597377, -918979.9, 1520.3506, 0.0, 5.0143614, 4.95981 
3.284316e+2, 2.110315e+2, -870271.1, -954405.9, -2441.76, -0.0018436961, 0.0009468422, -870200.3, 1694.916, 0.0, 5.014194, 4.9598103 
3.2842964e+2, 2.1599083e+2, -822156.7, -906824.4, -2470.1987, -0.0025084403, -0.006561034, -822084.7, 1205.5735, 0.0, 5.0140266, 4.9593115 
3.2842776e+2, 2.2094697e+2, -782908.5, -878794.4, -2245.9968, -0.0034109105, -0.0017257644, -782855.9, -8137.257, 0.0, 5.013882, 4.952069 
3.2842603e+2, 2.2590019e+2, -733588.75, -829042.4, -2054.5989, -0.0052404995, 0.0048628873, -733544.56, -7363.956, 0.0, 5.0137877, 4.952245 
3.2842427e+2, 2.3085347e+2, -684491.06, -779801.7, -1906.0785, -0.0071494323, 0.011542185, -684453.0, -6810.3887, 0.0, 5.013695, 4.952251 
3.2842252e+2, 2.3580672e+2, -636042.5, -732007.5, -1752.4904, -0.00909292, 0.018018723, -636010.5, -6905.736, 0.0, 5.013601, 4.9517546 
3.284212e+2, 2.4075608e+2, -596255.3, -703347.9, -887.49994, -0.009917536, 0.031164879, -596247.94, -15644.491, 0.0, 5.0134854, 4.9445963 
3.284214e+2, 2.4570009e+2, -546006.1, -651869.6, -375.409, -0.00835328, 0.015596248, -546004.8, -13856.451, 0.0, 5.013434, 4.9453125 
3.2842177e+2, 2.5064394e+2, -496641.72, -602541.44, -428.71588, -0.0066207144, -0.0028583999, -496639.97, -12945.562, 0.0, 5.0133963, 4.945297 
3.2842207e+2, 2.5558794e+2, -447526.03, -553780.5, -488.2212, -0.0047534173, -0.02005894, -447523.78, -12284.384, 0.0, 5.013352, 4.9450827 
3.2842287e+2, 2.6052886e+2, -409313.88, -529984.94, -294.31238, 0.0018091046, -0.013022591, -409313.16, -22492.846, 0.0, 5.013377, 4.9358983 
3.284225e+2, 2.6547232e+2, -357085.44, -473905.78, 1147.3079, -0.004492724, 0.021172855, -357074.2, -18672.63, 0.0, 5.013164, 4.9379086 
3.284211e+2, 2.7041647e+2, -307275.8, -423635.25, 3178.0515, -0.017391603, 0.049241308, -307189.1, -17210.266, 0.0, 5.0128636, 4.938215 
3.284189e+2, 2.7536023e+2, -257416.22, -373612.28, 5476.889, -0.033309203, 0.06660536, -257158.64, -15598.784, 0.0, 5.0125375, 4.9384737 
3.2842466e+2, 2.8030276e+2, -233708.22, -385832.4, 13875.758, -0.011793076, 0.20265104, -232452.92, -39307.4, 0.0, 5.0135674, 4.9168744 
3.284254e+2, 2.8523168e+2, -170948.36, -297239.06, 1627.2059, -0.0012921321, 0.23294252, -170927.39, -26096.719, 0.0, 5.0133333, 4.930282 
3.2841802e+2, 2.9015365e+2, -125738.875, -249112.1, -663.3104, -0.02095294, 0.13590446, -125735.31, -29155.764, 0.0, 5.0117736, 4.930312 
3.2840982e+2, 2.9507446e+2, -80407.266, -201051.89, -2600.3394, -0.0404633, 0.023112286, -80351.24, -32011.395, 0.0, 5.0101523, 4.930343 
3.284015e+2, 3.0001113e+2, -23693.281, -94086.43, -1736.5916, -0.049378272, -0.06811925, -23650.467, -23650.467, 0.0, 5.008693, 4.960568 
3.2838628e+2, 3.0499208e+2, -17751.154, -72405.23, 1043.6482, -0.08867047, 0.024599154, -17731.232, -17731.232, 0.0, 5.0076256, 4.9676604 
3.2836664e+2, 3.099843e+2, -18676.82, -67058.59, 2288.1152, -0.15359859, 0.17544426, -18568.848, -18568.848, 0.0, 5.0064583, 4.969748 
3.283446e+2, 3.1498113e+2, -19322.852, -61991.47, 3732.9727, -0.22844975, 0.34843132, -18998.725, -18998.725, 0.0, 5.005224, 4.9718366 
3.3345884e+2, 1.215102e+2, -1710192.3, -1752584.1, 1452.2393, 0.007114066, 0.033135027, -1710142.6, 39063.363, 0.0, 5.015605, 4.987983 
3.3346096e+2, 1.26491e+2, -1664732.4, -1710558.9, 272.9037, 0.018193562, -0.017215658, -1664730.8, 35665.38, 0.0, 5.015561, 4.9857244 
3.3346108e+2, 1.3147779e+2, -1615872.5, -1661640.1, 221.50127, 0.010835507, -0.0075345533, -1615871.4, 35654.07, 0.0, 5.0155206, 4.9857225 
3.3346123e+2, 1.3646454e+2, -1569216.3, -1617249.4, 170.40884, 0.0034945244, 0.0034200586, -1569215.6, 33439.418, 0.0, 5.0154796, 4.984219 
3.334613e+2, 1.4144792e+2, -1527316.4, -1582738.0, -443.43546, -0.0012157952, 0.023925487, -1527312.9, 26504.693, 0.0, 5.015447, 4.9793625 
3.334614e+2, 1.4642705e+2, -1478093.6, -1533266.1, -619.0487, -0.00087324216, 0.01760646, -1478086.6, 26935.16, 0.0, 5.0154324, 4.9795084 
3.3346146e+2, 1.5140605e+2, -1429086.1, -1484237.8, -708.6692, -0.0004079585, 0.009943322, -1429077.0, 27150.129, 0.0, 5.0154176, 4.9795084 
3.3346155e+2, 1.5638505e+2, -1381505.1, -1438182.4, -798.38403, 0.000047329355, 0.0027245705, -1381493.9, 25938.713, 0.0, 5.015403, 4.978514 
3.3346123e+2, 1.6136053e+2, -1340596.6, -1405971.8, -1538.0311, 0.00016666474, 0.002961949, -1340560.5, 18111.893, 0.0, 5.015359, 4.972902 
3.334601e+2, 1.6633368e+2, -1291645.9, -1356669.5, -1685.3206, -0.00042723233, 0.0018910177, -1291602.3, 18332.635, 0.0, 5.015247, 4.973017 
3.3345896e+2, 1.7130686e+2, -1242866.9, -1307715.5, -1661.6476, -0.0010502266, 0.0011166156, -1242824.4, 18372.531, 0.0, 5.015132, 4.973017 
3.334578e+2, 1.7628007e+2, -1195222.0, -1261163.4, -1638.2637, -0.001678144, 0.00074142206, -1195181.4, 17277.506, 0.0, 5.0150166, 4.97221 
3.334565e+2, 1.8124972e+2, -1155158.1, -1230747.8, -1966.0404, -0.0024207924, 0.008619915, -1155107.0, 8649.192, 0.0, 5.014907, 4.965942 
3.334548e+2, 1.8621615e+2, -1106042.1, -1181274.1, -2072.007, -0.0032496226, 0.009591319, -1105985.1, 9102.118, 0.0, 5.014816, 4.9660797 
3.3345306e+2, 1.9118257e+2, -1057113.5, -1132207.1, -2104.436, -0.004068916, 0.0104101645, -1057054.5, 9363.777, 0.0, 5.014725, 4.96608 
3.3345136e+2, 1.96149e+2, -1009075.3, -1085054.9, -2136.8572, -0.00489211, 0.01153387, -1009015.25, 8734.087, 0.0, 5.014634, 4.9654303 
3.3344957e+2, 2.0111182e+2, -968445.56, -1053790.6, -2419.5112, -0.005365635, 0.017562917, -968377.0, 737.36926, 0.0, 5.014524, 4.959363 
3.3344755e+2, 2.0607096e+2, -919098.06, -1003539.3, -2542.939, -0.0053983727, 0.00882893, -919021.56, 1490.0349, 0.0, 5.0143604, 4.9597754 
3.3344546e+2, 2.110301e+2, -870319.56, -954506.0, -2569.1003, -0.0054617077, -0.0005783965, -870241.25, 1667.4457, 0.0, 5.0141935, 4.959776 
3.334434e+2, 2.1598923e+2, -822204.3, -906924.6, -2595.5845, -0.0055314177, -0.009841145, -822124.9, 1180.8704, 0.0, 5.014026, 4.9592767 
3.3344138e+2, 2.2094525e+2, -782763.8, -878467.4, -2326.518, -0.006302129, -0.006108669, -782707.3, -7972.4536, 0.0, 5.0138807, 4.9521804 
3.334394e+2, 2.2589876e+2, -733366.8, -828515.8, -2106.7043, -0.009457372, 0.001494898, -733320.2, -7126.8945, 0.0, 5.0137825, 4.952427 
3.3343747e+2, 2.3085234e+2, -684280.75, -779271.2, -1951.5358, -0.012848387, 0.009394639, -684240.7, -6589.241, 0.0, 5.013686, 4.9524355 
3.3343548e+2, 2.3580591e+2, -635843.7, -731472.94, -1791.2913, -0.016328275, 0.017138554, -635810.1, -6700.499, 0.0, 5.0135884, 4.951942 
3.3343393e+2, 2.4075557e+2, -596253.06, -703102.25, -925.9113, -0.018648038, 0.031804748, -596245.06, -15639.827, 0.0, 5.0134525, 4.9446893 
3.3343393e+2, 2.4569973e+2, -546088.75, -651784.6, -403.89606, -0.01879201, 0.017175406, -546087.2, -13935.79, 0.0, 5.0133977, 4.9453497 
3.3343405e+2, 2.506437e+2, -496703.25, -602456.6, -447.0138, -0.018891001, -0.0005518747, -496701.38, -13002.132, 0.0, 5.0133677, 4.94533 
3.3343408e+2, 2.555878e+2, -447566.6, -553696.0, -496.3273, -0.018914932, -0.017017316, -447564.28, -12318.256, 0.0, 5.013331, 4.945112 
3.3343452e+2, 2.6052892e+2, -408212.6, -527021.8, -226.49858, -0.01615208, -0.010850787, -408212.16, -21386.299, 0.0, 5.0133214, 4.936927 
3.3343294e+2, 2.6547378e+2, -355350.44, -468125.13, 1510.6199, -0.037910108, 0.018597493, -355330.22, -16943.691, 0.0, 5.012933, 4.9399505 
3.334302e+2, 2.704199e+2, -305998.7, -417517.34, 3795.0132, -0.06931135, 0.04370055, -305869.7, -15932.553, 0.0, 5.012452, 4.9404206 
3.3342665e+2, 2.7536595e+2, -256596.95, -367156.3, 6347.0347, -0.10528066, 0.06006312, -256233.77, -14745.714, 0.0, 5.0119457, 4.940843 
3.3343157e+2, 2.8031063e+2, -233466.38, -386569.16, 13114.574, -0.09401734, 0.2014749, -232351.13, -39304.805, 0.0, 5.013732, 4.9166565 
3.3343306e+2, 2.8523797e+2, -170045.14, -300917.84, -208.69707, -0.06193626, 0.22873484, -170044.8, -25297.93, 0.0, 5.0141077, 4.9289255 
3.334263e+2, 2.901578e+2, -125119.11, -252193.67, -2196.6724, -0.060978804, 0.122786775, -125081.15, -28563.41, 0.0, 5.0124187, 4.929157 
3.334187e+2, 2.9507664e+2, -80072.375, -203537.6, -3830.7485, -0.061921697, 0.0007638351, -79953.63, -31655.002, 0.0, 5.010668, 4.9293885 
3.3341083e+2, 3.0001158e+2, -22318.56, -92255.08, -2764.3015, -0.054498266, -0.101934396, -22209.469, -22209.469, 0.0, 5.009005, 4.961203 
3.3339497e+2, 3.0499175e+2, -16169.642, -67607.3, 695.9122, -0.08858645, -0.027197981, -16160.228, -16160.228, 0.0, 5.007589, 4.969578 
3.333743e+2, 3.0998403e+2, -18300.8, -63130.734, 2686.9514, -0.15476029, 0.11368781, -18140.328, -18140.328, 0.0, 5.006109, 4.971548 
3.3335108e+2, 3.1498158e+2, -20154.385, -58931.848, 4879.2354, -0.23506284, 0.28683513, -19549.871, -19549.871, 0.0, 5.004563, 4.97352 
3.3847466e+2, 1.2151002e+2, -1710507.8, -1753288.8, 1366.4333, 0.009201968, 0.03569118, -1710464.1, 38741.95, 0.0, 5.015619, 4.9877453 
3.384769e+2, 1.2648997e+2, -1664778.6, -1710731.1, 218.0237, 0.022020526, -0.022469612, -1664777.6, 35627.824, 0.0, 5.0155783, 4.98566 
3.3847678e+2, 1.3147697e+2, -1615932.0, -1661818.6, 152.44325, 0.012465073, -0.00991677, -1615931.5, 35601.2, 0.0, 5.0155325, 4.985658 
3.3847666e+2, 1.3646396e+2, -1569311.6, -1617444.1, 89.57401, 0.0029197943, 0.0039003429, -1569311.4, 33348.86, 0.0, 5.015479, 4.984155 
3.3847654e+2, 1.4144742e+2, -1527538.4, -1583093.6, -513.767, -0.0032689092, 0.026062615, -1527533.6, 26288.592, 0.0, 5.0154257, 4.979255 
3.384766e+2, 1.4642633e+2, -1478395.6, -1533669.1, -669.74146, -0.0029539617, 0.018783592, -1478387.5, 26641.076, 0.0, 5.0153856, 4.9793973 
3.3847666e+2, 1.5140514e+2, -1429466.4, -1484678.0, -744.878, -0.002476173, 0.010068246, -1429456.3, 26779.875, 0.0, 5.015344, 4.979397 
3.3847672e+2, 1.5638392e+2, -1381967.6, -1438661.3, -819.8605, -0.0020088751, 0.0017953201, -1381955.8, 25488.154, 0.0, 5.015301, 4.978403 
3.3847636e+2, 1.6135925e+2, -1340966.1, -1406165.1, -1614.5878, -0.0020055205, 0.0013540318, -1340926.1, 17758.836, 0.0, 5.0152373, 4.972895 
3.3847508e+2, 1.6633242e+2, -1291959.0, -1356757.5, -1798.8862, -0.0030038955, 0.00032721873, -1291909.1, 18037.676, 0.0, 5.015128, 4.9730444 
3.384738e+2, 1.7130564e+2, -1243175.8, -1307800.9, -1796.8701, -0.004045584, -0.00038685626, -1243125.9, 18082.287, 0.0, 5.015014, 4.9730444 
3.384725e+2, 1.7627887e+2, -1195533.1, -1261249.1, -1795.051, -0.0050954483, -0.0007015101, -1195484.1, 16985.213, 0.0, 5.014898, 4.972237 
3.3847097e+2, 1.8124858e+2, -1155559.0, -1230998.0, -2125.0906, -0.006235606, 0.0074861133, -1155499.1, 8267.053, 0.0, 5.014783, 4.965916 
3.3846918e+2, 1.8621504e+2, -1106503.5, -1181590.6, -2218.9814, -0.007351922, 0.009287159, -1106438.0, 8658.988, 0.0, 5.0146785, 4.966037 
3.3846736e+2, 1.9118153e+2, -1057623.3, -1132545.8, -2244.8354, -0.008454022, 0.010952108, -1057556.1, 8871.809, 0.0, 5.01457, 4.9660378 
3.3846554e+2, 1.96148e+2, -1009644.1, -1085420.5, -2271.081, -0.00956562, 0.012924234, -1009576.1, 8182.5767, 0.0, 5.0144587, 4.965388 
3.3846363e+2, 2.011108e+2, -969055.4, -1054187.0, -2594.8125, -0.0100830775, 0.01933929, -968976.4, 147.68361, 0.0, 5.0143366, 4.9593153 
3.384615e+2, 2.0606975e+2, -919638.94, -1003869.9, -2735.2654, -0.009538227, 0.00907328, -919550.2, 972.9073, 0.0, 5.0141892, 4.959741 
3.3845928e+2, 2.1102867e+2, -870818.25, -954816.5, -2763.5432, -0.009000158, -0.0020442023, -870727.44, 1194.7621, 0.0, 5.0140367, 4.9597416 
3.3845714e+2, 2.1598761e+2, -822672.75, -907220.6, -2791.576, -0.00847491, -0.0130183995, -822580.7, 740.5148, 0.0, 5.0138793, 4.959242 
3.38455e+2, 2.2094354e+2, -783065.9, -878382.0, -2493.9043, -0.009080308, -0.01030806, -783000.7, -8249.666, 0.0, 5.013731, 4.9522777 
3.3845282e+2, 2.2589731e+2, -733703.8, -828275.7, -2301.5732, -0.013482557, -0.0018458078, -733647.8, -7441.647, 0.0, 5.0135875, 4.9525967 
3.3845064e+2, 2.3085116e+2, -684799.1, -779110.7, -2202.0452, -0.018231606, 0.0070287217, -684747.75, -7087.022, 0.0, 5.0134273, 4.952606 
3.3844846e+2, 2.3580502e+2, -636586.0, -731410.5, -2105.9067, -0.023080377, 0.015758893, -636539.25, -7423.986, 0.0, 5.0132513, 4.952114 
3.3844665e+2, 2.4075502e+2, -597472.0, -703570.4, -1333.7062, -0.02659947, 0.032575022, -597455.25, -16847.719, 0.0, 5.0130153, 4.944721 
3.3844644e+2, 2.4569935e+2, -547616.5, -652407.7, -844.13434, -0.028245736, 0.019275779, -547609.7, -15454.96, 0.0, 5.0128565, 4.9453716 
3.3844632e+2, 2.506434e+2, -498526.5, -603219.3, -944.5234, -0.0299992, 0.0021868208, -498517.97, -14813.533, 0.0, 5.0127225, 4.9453497 
3.3844614e+2, 2.5558758e+2, -449696.28, -554601.56, -1045.9572, -0.031712145, -0.013663517, -449685.84, -14432.69, 0.0, 5.012578, 4.9451294 
3.3844623e+2, 2.6052865e+2, -410348.13, -526422.75, -1116.0565, -0.031268895, -0.00899301, -410337.4, -23503.023, 0.0, 5.0122895, 4.937557 
3.3844334e+2, 2.654744e+2, -359678.5, -466054.2, -761.10913, -0.06649469, 0.011161831, -359673.06, -21293.297, 0.0, 5.0106874, 4.94156 
3.3843905e+2, 2.7042165e+2, -315260.34, -417461.78, -447.70007, -0.11360282, 0.027031843, -315258.38, -25347.424, 0.0, 5.008455, 4.942071 
3.3843398e+2, 2.7536902e+2, -272076.72, -369642.56, -439.70956, -0.16557902, 0.03485762, -272074.75, -30633.227, 0.0, 5.005732, 4.942536 
3.384393e+2, 2.8031597e+2, -257929.55, -402801.38, 4351.7573, -0.15574989, 0.19705215, -257798.95, -64827.55, 0.0, 5.0060763, 4.9143147 
3.384422e+2, 2.852431e+2, -184790.95, -309591.47, -8700.944, -0.10540439, 0.23595583, -184187.25, -39512.617, 0.0, 5.009234, 4.92793 
3.384357e+2, 2.9016137e+2, -133120.75, -257716.44, -8472.018, -0.09137974, 0.118564844, -132547.33, -36085.37, 0.0, 5.0099583, 4.9282064 
3.3842835e+2, 2.9507867e+2, -83506.99, -206873.23, -8594.554, -0.079463534, -0.01457852, -82911.11, -34652.324, 0.0, 5.0098567, 4.9284835 
3.3842087e+2, 3.0001146e+2, -23531.979, -93708.16, -6778.368, -0.055834193, -0.13283996, -22883.248, -22883.248, 0.0, 5.0088797, 4.960687 
3.384046e+2, 3.0498928e+2, -19199.066, -65437.34, -3570.5625, -0.07383309, -0.096371755, -18924.97, -18924.97, 0.0, 5.0060096, 4.970906 
3.3838314e+2, 3.0997965e+2, -29837.186, -64753.5, -1244.7786, -0.12675403, 0.0032497884, -29792.865, -29792.865, 0.0, 5.0014925, 4.972802 
3.3835912e+2, 3.1497535e+2, -44177.832, -65998.266, 2212.5754, -0.19409576, 0.13741447, -43955.74, -43955.74, 0.0, 4.995477, 4.9747005 
3.4349078e+2, 1.2150938e+2, -1708573.5, -1752564.4, 1089.4203, 0.010535068, 0.034794852, -1708546.5, 40665.008, 0.0, 5.0163035, 4.9876494 
3.4349284e+2, 1.2648942e+2, -1663132.1, -1710148.4, 4.874924, 0.022165697, -0.021512497, -1663132.1, 37278.008, 0.0, 5.016169, 4.985565 
3.4349257e+2, 1.3147622e+2, -1614537.6, -1661357.9, -82.4944, 0.012198608, -0.009932639, -1614537.5, 37001.832, 0.0, 5.016041, 4.9855647 
3.4349227e+2, 1.3646302e+2, -1568143.4, -1617090.4, -168.93927, 0.0022624324, 0.0028972276, -1568142.8, 34526.023, 0.0, 5.015912, 4.984064 
3.4349203e+2, 1.4144635e+2, -1526561.5, -1582746.1, -766.95154, -0.004217318, 0.02443349, -1526551.0, 27280.967, 0.0, 5.015778, 4.9792004 
3.43492e+2, 1.4642523e+2, -1477730.1, -1533452.8, -859.63135, -0.004012714, 0.017385077, -1477716.9, 27321.717, 0.0, 5.0156302, 4.979352 
3.4349194e+2, 1.5140401e+2, -1429122.3, -1484618.8, -872.0529, -0.0036144564, 0.008931057, -1429108.6, 27137.703, 0.0, 5.015481, 4.979352 
3.4349188e+2, 1.5638277e+2, -1381937.8, -1438754.3, -884.2371, -0.00320325, 0.00091450766, -1381924.0, 25530.05, 0.0, 5.0153313, 4.9783583 
3.434914e+2, 1.6135809e+2, -1341192.3, -1406407.1, -1666.5706, -0.0032460166, 0.00062987005, -1341149.8, 17545.764, 0.0, 5.0151873, 4.9728384 
3.4349e+2, 1.6633119e+2, -1292257.3, -1357053.0, -1935.3822, -0.0043094363, -0.0003916286, -1292199.5, 17758.55, 0.0, 5.0150576, 4.972979 
3.4348857e+2, 1.7130435e+2, -1243518.3, -1308116.5, -2023.2775, -0.0053955377, -0.0010966947, -1243455.0, 17765.055, 0.0, 5.014928, 4.9729795 
3.4348714e+2, 1.7627752e+2, -1195913.3, -1261581.8, -2111.7551, -0.006466558, -0.0013992499, -1195845.5, 16636.566, 0.0, 5.0147986, 4.9721723 
3.434855e+2, 1.8124714e+2, -1155936.8, -1231197.5, -2500.8838, -0.00779167, 0.006611822, -1155853.8, 7925.573, 0.0, 5.014656, 4.965909 
3.4348348e+2, 1.8621358e+2, -1107044.6, -1181829.9, -2543.2783, -0.009601021, 0.007903298, -1106958.3, 8151.871, 0.0, 5.014487, 4.966047 
3.4348145e+2, 1.9118e+2, -1058344.3, -1132870.4, -2511.3801, -0.011402379, 0.009057655, -1058259.6, 8181.2207, 0.0, 5.014316, 4.9660473 
3.4347942e+2, 1.9614644e+2, -1010533.0, -1085824.5, -2479.4524, -0.013189306, 0.010519055, -1010451.44, 7320.236, 0.0, 5.014145, 4.965397 
3.4347734e+2, 2.0110922e+2, -970138.5, -1054804.4, -2763.784, -0.014145624, 0.016763628, -970048.4, -911.3025, 0.0, 5.0139804, 4.9592705 
3.4347504e+2, 2.0606817e+2, -920769.6, -1004568.3, -2945.7449, -0.013344808, 0.007261633, -920666.25, -129.5646, 0.0, 5.0138283, 4.95967 
3.4347275e+2, 2.1102712e+2, -871942.9, -955509.7, -3024.8901, -0.0124723185, -0.0030429387, -871833.5, 102.76431, 0.0, 5.013676, 4.9596705 
3.4347045e+2, 2.1598606e+2, -823779.75, -907903.6, -3104.324, -0.011580718, -0.013211351, -823665.4, -329.48965, 0.0, 5.0135236, 4.9591713 
3.434682e+2, 2.2094198e+2, -784049.25, -878709.9, -2864.3064, -0.011842392, -0.010401585, -783962.6, -9196.627, 0.0, 5.013355, 4.9523406 
3.4346586e+2, 2.2589566e+2, -734944.8, -828615.56, -2685.8032, -0.016004, -0.0038450076, -734867.9, -8647.105, 0.0, 5.0130925, 4.9527097 
3.434635e+2, 2.3084942e+2, -686355.25, -779614.75, -2577.37, -0.0204008, 0.0029063437, -686284.06, -8609.137, 0.0, 5.01282, 4.9527135 
3.4346113e+2, 2.3580314e+2, -638411.5, -732057.06, -2463.9614, -0.024766255, 0.009408925, -638346.75, -9217.384, 0.0, 5.012546, 4.9522157 
3.4345913e+2, 2.4075311e+2, -599700.6, -704687.0, -1734.9724, -0.02801921, 0.025293646, -599672.0, -19050.791, 0.0, 5.012199, 4.9447174 
3.4345844e+2, 2.4569781e+2, -550795.4, -654133.4, -1297.5382, -0.030529978, 0.01615368, -550779.06, -18612.363, 0.0, 5.0117197, 4.9453015 
3.4345785e+2, 2.5064227e+2, -502662.88, -605375.0, -1413.2432, -0.03320748, 0.0035654884, -502643.44, -18928.74, 0.0, 5.0112343, 4.9452815 
3.434572e+2, 2.555868e+2, -454771.0, -557175.6, -1532.1166, -0.03579351, -0.007922823, -454748.1, -19486.293, 0.0, 5.0107417, 4.9450636 
3.4345672e+2, 2.6052815e+2, -415351.97, -528314.06, -1534.8622, -0.036278777, -0.0012913175, -415331.13, -28490.463, 0.0, 5.010268, 4.9378476 
3.4345293e+2, 2.6547295e+2, -362953.22, -467673.63, -655.4244, -0.06975644, 0.006428821, -362949.13, -24562.75, 0.0, 5.009136, 4.941836 
3.434478e+2, 2.7041847e+2, -315977.56, -419200.34, 850.81476, -0.11136487, 0.0040100394, -315970.56, -26045.03, 0.0, 5.0078325, 4.9419794 
3.4344196e+2, 2.7536324e+2, -268940.5, -370941.22, 2625.6152, -0.15419759, -0.010546457, -268872.97, -27401.387, 0.0, 5.0065002, 4.9420757 
3.434461e+2, 2.803077e+2, -256102.02, -400476.0, 11389.003, -0.13889317, 0.12851892, -255209.11, -62189.754, 0.0, 5.00638, 4.914695 
3.4344932e+2, 2.852371e+2, -189935.38, -309349.7, -2002.0702, -0.09794508, 0.18448763, -189901.83, -45193.855, 0.0, 5.0074315, 4.9281187 
3.4344387e+2, 2.9015824e+2, -139223.66, -259580.63, -5227.4653, -0.08844146, 0.09456318, -138997.03, -42520.383, 0.0, 5.007929, 4.9279275 
3.434376e+2, 2.950782e+2, -88435.62, -209904.94, -8048.7715, -0.07605627, -0.009132861, -87904.62, -39647.56, 0.0, 5.008339, 4.9277377 
3.4343123e+2, 3.000127e+2, -23495.15, -95073.734, -8546.87, -0.046296936, -0.10516117, -22488.758, -22488.758, 0.0, 5.0088944, 4.9600425 
3.4341645e+2, 3.0498648e+2, -8537.701, -62440.246, -7834.1206, -0.039527144, -0.10939291, -7422.187, -7422.187, 0.0, 5.0095825, 4.970361 
3.433968e+2, 3.0997002e+2, -4668.8145, -55240.914, -8447.752, -0.052955978, -0.08325704, -3294.9912, -3294.9912, 0.0, 5.010052, 4.9723763 
3.4337497e+2, 3.149571e+2, -549.44806, -48293.285, -8969.306, -0.06855745, -0.0472033, 1079.9459, 1079.9459, 0.0, 5.010429, 4.974393 
3.4850717e+2, 1.2150849e+2, -1708582.4, -1752561.8, 909.3913, 0.011136857, 0.03205622, -1708563.6, 40656.38, 0.0, 5.0163, 4.9876513 
3.485088e+2, 1.264891e+2, -1663294.6, -1710460.5, -96.79201, 0.020359863, -0.01747381, -1663294.5, 37118.242, 0.0, 5.0161657, 4.985464 
3.4850848e+2, 1.3147552e+2, -1614698.0, -1661669.0, -182.27155, 0.010953057, -0.008782282, -1614697.3, 36848.305, 0.0, 5.016038, 4.985463 
3.4850812e+2, 1.3646191e+2, -1568300.5, -1617398.3, -266.38107, 0.0015436476, 0.0011517082, -1568299.0, 34379.715, 0.0, 5.0159097, 4.9839635 
3.485078e+2, 1.4144501e+2, -1526608.9, -1582834.6, -877.2711, -0.004670642, 0.020943725, -1526595.1, 27249.12, 0.0, 5.0157766, 4.9791718 
3.4850758e+2, 1.4642397e+2, -1477752.3, -1533490.1, -972.5497, -0.0046517546, 0.014720862, -1477735.3, 27314.717, 0.0, 5.015629, 4.97934 
3.4850734e+2, 1.5140282e+2, -1429144.6, -1484656.0, -984.2768, -0.0044523505, 0.007187247, -1429127.3, 27129.578, 0.0, 5.0154796, 4.97934 
3.4850714e+2, 1.5638165e+2, -1381960.0, -1438790.5, -995.61395, -0.004246295, 0.0000907548, -1381942.5, 25521.152, 0.0, 5.01533, 4.978347 
3.4850648e+2, 1.61357e+2, -1341313.3, -1406653.9, -1771.779, -0.004392315, 0.00040488178, -1341265.3, 17439.56, 0.0, 5.0151863, 4.972757 
3.4850496e+2, 1.6632998e+2, -1292415.8, -1357382.0, -2034.7057, -0.0053335736, -0.00068854436, -1292352.1, 17616.63, 0.0, 5.0150566, 4.9728694 
3.485034e+2, 1.7130302e+2, -1243675.3, -1308444.4, -2121.704, -0.006300357, -0.0014867157, -1243605.9, 17626.402, 0.0, 5.0149274, 4.9728694 
3.4850186e+2, 1.7627606e+2, -1196068.8, -1261908.6, -2209.271, -0.0072624995, -0.0018839531, -1195994.6, 16501.025, 0.0, 5.014798, 4.972062 
3.485001e+2, 1.812456e+2, -1155930.6, -1231179.8, -2624.031, -0.008725858, 0.005684459, -1155839.3, 7954.772, 0.0, 5.0146556, 4.965915 
3.484978e+2, 1.8621194e+2, -1106988.6, -1181703.6, -2671.0989, -0.011402067, 0.0058643506, -1106893.3, 8231.452, 0.0, 5.0144854, 4.9660897 
3.484955e+2, 1.9117829e+2, -1058289.0, -1132744.0, -2637.7432, -0.01413354, 0.0058980207, -1058195.8, 8259.621, 0.0, 5.0143147, 4.96609 
3.4849322e+2, 1.9614467e+2, -1010478.56, -1085698.0, -2604.3403, -0.016869469, 0.006241263, -1010388.5, 7397.3457, 0.0, 5.0141435, 4.9654403 
3.484909e+2, 2.0110743e+2, -970210.1, -1054951.3, -2885.7363, -0.018498465, 0.012124862, -970111.94, -960.8035, 0.0, 5.0139794, 4.959221 
3.484885e+2, 2.0606647e+2, -920902.9, -1004851.75, -3063.4841, -0.017511314, 0.0044463724, -920791.2, -240.43773, 0.0, 5.0138273, 4.9595737 
3.4848607e+2, 2.110255e+2, -872074.56, -955792.2, -3140.5603, -0.016413044, -0.0038929621, -871956.94, -6.4889407, 0.0, 5.0136757, 4.959574 
3.4848365e+2, 2.1598455e+2, -823910.0, -908185.2, -3217.913, -0.015312962, -0.012093471, -823787.3, -437.23364, 0.0, 5.013523, 4.9590745 
3.4848124e+2, 2.2094049e+2, -783961.8, -878503.6, -3025.0415, -0.01530248, -0.0086783385, -783865.06, -9084.71, 0.0, 5.0133524, 4.952411 
3.484787e+2, 2.2589396e+2, -734780.6, -828208.9, -2866.0325, -0.018942675, -0.005475539, -734692.75, -8457.098, 0.0, 5.0130863, 4.952852 
3.4847614e+2, 2.3084751e+2, -686204.0, -779205.94, -2750.712, -0.022860788, -0.0022756145, -686122.75, -8432.389, 0.0, 5.0128093, 4.952858 
3.4847358e+2, 2.3580103e+2, -638273.2, -731646.06, -2630.3909, -0.026806701, 0.0007351582, -638199.1, -9053.988, 0.0, 5.012531, 4.9523625 
3.4847125e+2, 2.4075092e+2, -599771.6, -704587.3, -2031.1049, -0.03018593, 0.014825425, -599732.3, -19095.566, 0.0, 5.0121617, 4.9447618 
3.4846994e+2, 2.4569616e+2, -550987.7, -654259.94, -1668.1829, -0.03404607, 0.011008394, -550960.75, -18782.07, 0.0, 5.0116763, 4.945267 
3.484687e+2, 2.5064117e+2, -502839.34, -605496.6, -1774.7106, -0.03819495, 0.004518208, -502808.66, -19085.871, 0.0, 5.011196, 4.9452453 
3.4846735e+2, 2.555863e+2, -454931.63, -557292.4, -1884.388, -0.042324692, -0.00087766076, -454896.94, -19630.941, 0.0, 5.010709, 4.9450254 
3.4846607e+2, 2.6052815e+2, -414361.75, -525529.3, -1868.0597, -0.04604928, 0.008076907, -414330.38, -27491.166, 0.0, 5.010192, 4.9388423 
3.4846115e+2, 2.6547277e+2, -361738.47, -463017.34, -796.1481, -0.08599632, -0.00015263427, -361732.22, -23355.018, 0.0, 5.008875, 4.9435534 
3.484548e+2, 2.7041832e+2, -315238.4, -414229.28, 951.6006, -0.1357545, -0.018976033, -315229.28, -25323.416, 0.0, 5.0073867, 4.9438553 
3.4844765e+2, 2.7536348e+2, -268677.28, -365654.34, 2967.8213, -0.18852635, -0.04772306, -268586.53, -27148.7, 0.0, 5.0058703, 4.9441094 
3.4844992e+2, 2.80308e+2, -254525.84, -398846.8, 10729.652, -0.18652584, 0.074076205, -253732.5, -60754.22, 0.0, 5.006627, 4.9153104 
3.4845385e+2, 2.8523743e+2, -189194.28, -315018.16, -1888.4381, -0.13541524, 0.14587538, -189165.95, -44488.227, 0.0, 5.008361, 4.926135 
3.4845024e+2, 2.9015926e+2, -138847.16, -264587.25, -4785.0024, -0.110534675, 0.08454524, -138665.33, -42211.895, 0.0, 5.0086956, 4.9261727 
3.4844577e+2, 2.9508e+2, -88424.21, -214251.94, -7277.0566, -0.08560834, 0.009322765, -88004.75, -39765.72, 0.0, 5.008943, 4.9262114 
3.4844095e+2, 3.0001533e+2, -22189.068, -94437.65, -7954.39, -0.047315773, -0.06687153, -21323.674, -21323.674, 0.0, 5.009284, 4.9603086 
3.484283e+2, 3.049865e+2, -8039.2876, -61764.777, -6999.0483, -0.029115321, -0.09400837, -7142.462, -7142.462, 0.0, 5.009683, 4.9708967 
3.4841102e+2, 3.099671e+2, -5279.004, -55726.926, -6869.152, -0.03378928, -0.08759039, -4360.405, -4360.405, 0.0, 5.0099034, 4.972689 
3.4839126e+2, 3.1495172e+2, -2266.734, -49938.668, -6647.4634, -0.046411857, -0.061378565, -1357.1539, -1357.1539, 0.0, 5.0100307, 4.974484 
3.5352352e+2, 1.2150754e+2, -1708529.0, -1752430.1, 729.8648, 0.011618177, 0.029041933, -1708516.9, 40711.91, 0.0, 5.0162964, 4.9876957 
3.535248e+2, 1.2648879e+2, -1663458.1, -1710771.6, -198.15137, 0.018567605, -0.013394608, -1663457.4, 36957.926, 0.0, 5.0161624, 4.985363 
3.535244e+2, 1.3147481e+2, -1614859.4, -1661979.1, -281.74106, 0.009722293, -0.0076067303, -1614857.6, 36694.207, 0.0, 5.016035, 4.985362 
3.5352397e+2, 1.3646081e+2, -1568458.6, -1617705.4, -363.51407, 0.00084086315, -0.0005839353, -1568455.9, 34232.805, 0.0, 5.0159073, 4.9838624 
3.5352352e+2, 1.4144367e+2, -1526660.4, -1582930.6, -986.82587, -0.0051205307, 0.01746554, -1526643.0, 27213.457, 0.0, 5.015775, 4.9791408 
3.5352314e+2, 1.4642268e+2, -1477774.8, -1533527.3, -1085.5427, -0.005289346, 0.012060673, -1477753.6, 27307.842, 0.0, 5.0156274, 4.9793286 
3.5352275e+2, 1.5140161e+2, -1429167.4, -1484693.0, -1096.5754, -0.005287609, 0.0054353974, -1429145.8, 27121.576, 0.0, 5.015478, 4.979328 
3.5352236e+2, 1.5638053e+2, -1381982.5, -1438826.4, -1107.0654, -0.0052855187, -0.0007531024, -1381960.9, 25512.37, 0.0, 5.0153284, 4.978336 
3.535216e+2, 1.613559e+2, -1341439.1, -1406910.4, -1876.2134, -0.0055345716, 0.00020517518, -1341385.4, 17328.713, 0.0, 5.0151854, 4.9726715 
3.5351992e+2, 1.6632879e+2, -1292574.6, -1357710.9, -2133.9302, -0.0063544954, -0.0009571862, -1292504.8, 17474.678, 0.0, 5.015056, 4.9727592 
3.5351828e+2, 1.713017e+2, -1243832.5, -1308772.3, -2220.0317, -0.007202711, -0.0018630337, -1243756.8, 17487.715, 0.0, 5.014927, 4.9727597 
3.535166e+2, 1.7627461e+2, -1196224.4, -1262235.5, -2306.6875, -0.008056725, -0.0023695228, -1196143.9, 16365.445, 0.0, 5.0147977, 4.9719524 
3.5351464e+2, 1.8124403e+2, -1155929.0, -1231170.9, -2747.8147, -0.009660349, 0.004775261, -1155828.9, 7979.9004, 0.0, 5.0146546, 4.9659185 
3.535121e+2, 1.862103e+2, -1106933.0, -1181577.0, -2799.2007, -0.013209184, 0.0038328196, -1106828.3, 8311.063, 0.0, 5.0144844, 4.9661326 
3.5350958e+2, 1.911766e+2, -1058234.3, -1132617.4, -2764.388, -0.016876496, 0.0027217532, -1058131.6, 8338.055, 0.0, 5.014313, 4.9661336 
3.53507e+2, 1.961429e+2, -1010424.6, -1085571.1, -2729.5098, -0.020567149, 0.0019227895, -1010325.6, 7474.4844, 0.0, 5.014142, 4.9654837 
3.5350448e+2, 2.0110562e+2, -970294.3, -1055124.8, -3007.511, -0.02284693, 0.0075450055, -970187.8, -1022.6279, 0.0, 5.013978, 4.959162 
3.5350192e+2, 2.0606478e+2, -921036.5, -1005134.94, -3181.2964, -0.0216691, 0.0016986841, -920916.3, -351.47745, 0.0, 5.013827, 4.959477 
3.5349935e+2, 2.1102391e+2, -872206.7, -956074.4, -3256.3035, -0.02034965, -0.0047173803, -872080.5, -115.90224, 0.0, 5.0136747, 4.9594774 
3.534968e+2, 2.1598305e+2, -824040.7, -908466.5, -3331.5747, -0.019045686, -0.010991949, -823909.44, -545.13336, 0.0, 5.013523, 4.9589777 
3.5349426e+2, 2.2093901e+2, -783885.7, -878319.25, -3187.6465, -0.018771257, -0.0069188504, -783778.2, -8983.468, 0.0, 5.0133505, 4.9524736 
3.5349151e+2, 2.2589228e+2, -734618.4, -827800.6, -3050.3728, -0.021915464, -0.007147319, -734518.6, -8268.038, 0.0, 5.0130796, 4.9529924 
3.5348874e+2, 2.308456e+2, -686054.75, -778795.56, -2928.166, -0.025375046, -0.0076347427, -685962.4, -8256.589, 0.0, 5.0127983, 4.953001 
3.5348597e+2, 2.3579891e+2, -638136.8, -731233.44, -2800.934, -0.028921565, -0.008251681, -638052.6, -8891.549, 0.0, 5.012516, 4.952508 
3.5348335e+2, 2.407488e+2, -599911.0, -704619.5, -2356.4197, -0.032418735, 0.0047506983, -599858.0, -19206.082, 0.0, 5.0121245, 4.944758 
3.534814e+2, 2.4569453e+2, -551190.94, -654375.94, -2040.9011, -0.03759005, 0.006533866, -551150.56, -18960.363, 0.0, 5.0116334, 4.945232 
3.534795e+2, 2.5064012e+2, -503026.63, -605607.7, -2138.2493, -0.043171827, 0.0059685577, -502982.06, -19251.596, 0.0, 5.011158, 4.945208 
3.534775e+2, 2.5558582e+2, -455103.06, -557398.56, -2238.728, -0.0488068, 0.0064920443, -455054.1, -19784.2, 0.0, 5.0106754, 4.944986 
3.5347545e+2, 2.6052803e+2, -413579.63, -523122.28, -2336.4995, -0.0550095, 0.016673021, -413529.8, -26690.457, 0.0, 5.0101156, 4.939674 
3.5346907e+2, 2.6547226e+2, -360574.0, -458324.63, -1181.5941, -0.10232958, -0.011860912, -360559.72, -22188.053, 0.0, 5.008614, 4.945208 
3.5346118e+2, 2.7041763e+2, -314548.88, -409221.38, 807.1646, -0.16165805, -0.05162747, -314542.0, -24650.771, 0.0, 5.0069413, 4.9456677 
3.534524e+2, 2.7536303e+2, -268463.03, -360330.16, 3064.2703, -0.22578996, -0.09910216, -268360.94, -26950.396, 0.0, 5.005241, 4.94608 
3.5345405e+2, 2.803085e+2, -255565.38, -403194.13, 11327.192, -0.23202524, 0.02367147, -254701.33, -61766.17, 0.0, 5.0068765, 4.9138284 
3.534597e+2, 2.8523862e+2, -188589.95, -320559.06, -2186.1646, -0.16814543, 0.12399, -188553.75, -43914.547, 0.0, 5.0092907, 4.9240966 
3.5345757e+2, 2.9016086e+2, -138606.92, -269465.13, -4753.1406, -0.1303515, 0.085837245, -138434.52, -42010.688, 0.0, 5.009463, 4.924363 
3.5345453e+2, 2.950823e+2, -88548.586, -218469.08, -6915.2603, -0.095347725, 0.03366994, -88181.55, -39965.047, 0.0, 5.0095477, 4.92463 
3.5345125e+2, 3.0001748e+2, -21936.016, -95815.46, -7425.962, -0.04736528, -0.030159755, -21196.99, -21196.99, 0.0, 5.0096736, 4.9597597 
3.5344112e+2, 3.0498505e+2, -7686.4604, -60947.887, -5903.4775, -0.008871045, -0.09532474, -7039.9683, -7039.9683, 0.0, 5.009783, 4.971271 
3.534263e+2, 3.09962e+2, -6035.665, -56071.7, -5029.2935, 0.003594163, -0.12568752, -5535.1597, -5535.1597, 0.0, 5.009754, 4.9728413 
3.534088e+2, 3.1494352e+2, -4132.1943, -51443.324, -4063.0693, 0.0023373195, -0.12638898, -3785.795, -3785.795, 0.0, 5.0096326, 4.9744134 
3.5853988e+2, 1.2150657e+2, -1708459.8, -1752220.9, 490.65604, 0.012068806, 0.025904559, -1708454.3, 40783.586, 0.0, 5.016283, 4.9877706 
3.585408e+2, 1.2648845e+2, -1663647.3, -1711093.6, -354.47272, 0.016867504, -0.00944852, -1663644.6, 36773.47, 0.0, 5.0161495, 4.985263 
3.5854033e+2, 1.314741e+2, -1615074.3, -1662312.4, -415.70447, 0.008549613, -0.0065002968, -1615070.5, 36487.73, 0.0, 5.016013, 4.9852624 
3.585398e+2, 1.3645972e+2, -1568709.9, -1618053.3, -473.41333, 0.000180529, -0.0023156898, -1568705.4, 33993.35, 0.0, 5.015872, 4.983764 
3.5853925e+2, 1.4144233e+2, -1526855.1, -1583106.4, -1095.7638, -0.005541153, 0.014054323, -1526833.8, 27034.904, 0.0, 5.0157275, 4.9791055 
3.585387e+2, 1.464214e+2, -1477958.4, -1533650.0, -1214.8573, -0.0059014685, 0.009450755, -1477931.9, 27141.021, 0.0, 5.015573, 4.979314 
3.5853815e+2, 1.5140042e+2, -1429373.0, -1484826.0, -1243.2194, -0.0060945777, 0.0037160134, -1429345.1, 26932.72, 0.0, 5.015416, 4.979314 
3.5853758e+2, 1.5637942e+2, -1382213.0, -1438970.0, -1271.2177, -0.00628951, -0.001576369, -1382184.6, 25298.34, 0.0, 5.015258, 4.9783216 
3.5853666e+2, 1.613548e+2, -1341786.5, -1407282.3, -2043.289, -0.006641266, 0.00006642064, -1341722.8, 17000.744, 0.0, 5.0151114, 4.9725823 
3.5853487e+2, 1.6632757e+2, -1292927.8, -1358132.6, -2295.3047, -0.007355893, -0.0011780374, -1292847.1, 17143.15, 0.0, 5.01499, 4.9726496 
3.585331e+2, 1.7130035e+2, -1244169.5, -1309185.5, -2379.3125, -0.008094088, -0.0022221971, -1244082.5, 17174.195, 0.0, 5.014866, 4.9726496 
3.585313e+2, 1.7627315e+2, -1196553.8, -1262644.4, -2463.8208, -0.008840428, -0.0028690647, -1196462.0, 16061.038, 0.0, 5.0147386, 4.9718423 
3.5852924e+2, 1.8124247e+2, -1156121.0, -1231263.3, -2932.9954, -0.010565985, 0.0038580135, -1156006.6, 7816.861, 0.0, 5.0145903, 4.9659176 
3.5852647e+2, 1.8620867e+2, -1107127.1, -1181573.9, -2997.0012, -0.0149278175, 0.0017819853, -1107006.6, 8147.36, 0.0, 5.014399, 4.966173 
3.5852364e+2, 1.9117488e+2, -1058504.4, -1132650.4, -2971.2693, -0.019453762, -0.0004993135, -1058385.5, 8098.839, 0.0, 5.014202, 4.966174 
3.585208e+2, 1.961411e+2, -1010784.4, -1085646.3, -2947.0994, -0.02400643, -0.0024679368, -1010668.56, 7146.0303, 0.0, 5.014, 4.965524 
3.5851806e+2, 2.0110382e+2, -970867.75, -1055547.1, -3223.8083, -0.026848482, 0.002987851, -970745.2, -1565.7472, 0.0, 5.013813, 4.9590955 
3.5851535e+2, 2.0606306e+2, -921627.6, -1005629.1, -3386.1338, -0.025514517, -0.0009836451, -921491.4, -912.3033, 0.0, 5.0136676, 4.9593816 
3.5851267e+2, 2.1102229e+2, -872785.5, -956561.8, -3452.5186, -0.024008295, -0.0054813228, -872643.44, -664.68335, 0.0, 5.0135193, 4.9593816 
3.5851e+2, 2.1598154e+2, -824621.06, -908953.56, -3518.8816, -0.022520034, -0.00983779, -824474.5, -1095.9779, 0.0, 5.013366, 4.9588823 
3.585073e+2, 2.2093754e+2, -784287.6, -878391.1, -3433.4802, -0.021992115, -0.0050306367, -784162.5, -9353.46, 0.0, 5.01319, 4.952522 
3.5850433e+2, 2.2589056e+2, -734928.2, -827643.9, -3383.5217, -0.024641713, -0.0087621175, -734804.9, -8539.247, 0.0, 5.012915, 4.953119 
3.5850137e+2, 2.3084365e+2, -686411.5, -778657.5, -3328.5078, -0.027596831, -0.013112121, -686291.56, -8569.918, 0.0, 5.012618, 4.9531283 
3.5849836e+2, 2.357967e+2, -638578.7, -731130.94, -3275.3582, -0.03065646, -0.017580662, -638462.94, -9285.224, 0.0, 5.0123067, 4.952636 
3.5849538e+2, 2.4074659e+2, -600734.9, -705117.75, -3077.1213, -0.0340972, -0.0051261396, -600644.25, -19976.533, 0.0, 5.0118732, 4.944694 
3.5849285e+2, 2.4569286e+2, -552140.56, -654877.25, -2835.8513, -0.040252727, 0.0025813505, -552062.3, -19860.154, 0.0, 5.0113344, 4.9451838 
3.5849035e+2, 2.5063905e+2, -504146.66, -606179.9, -2970.4304, -0.046856884, 0.007916333, -504060.25, -20321.62, 0.0, 5.010802, 4.945161 
3.5848776e+2, 2.5558528e+2, -456428.5, -558056.2, -3098.764, -0.053510033, 0.014382007, -456334.1, -21059.9, 0.0, 5.010251, 4.94494 
3.5848504e+2, 2.6052758e+2, -414921.5, -522467.28, -3770.832, -0.06055392, 0.025100116, -414789.44, -27947.406, 0.0, 5.009455, 4.940153 
3.5847712e+2, 2.6547086e+2, -364136.47, -456982.25, -4627.343, -0.11271469, -0.027838975, -363906.4, -25531.797, 0.0, 5.0068774, 4.9463353 
3.5846743e+2, 2.7041522e+2, -322622.72, -409787.0, -5113.065, -0.17805015, -0.094561435, -322323.8, -32430.03, 0.0, 5.003616, 4.9468126 
3.5845694e+2, 2.7535966e+2, -282324.63, -363324.2, -5924.338, -0.24868481, -0.1685416, -281893.63, -40481.44, 0.0, 4.9998693, 4.947244 
3.5845932e+2, 2.803059e+2, -278804.63, -421369.66, 2442.225, -0.2536177, -0.03218788, -278762.8, -85839.94, 0.0, 5.0001893, 4.9104486 
3.5846737e+2, 2.8523806e+2, -201728.77, -329694.78, -10137.051, -0.18128549, 0.110560656, -200930.7, -56313.152, 0.0, 5.0052905, 4.92258 
3.584663e+2, 2.9016155e+2, -145130.6, -275479.72, -9870.617, -0.13934715, 0.093811736, -144387.39, -47983.965, 0.0, 5.007801, 4.9228964 
3.5846427e+2, 2.9508427e+2, -90575.164, -222299.0, -9922.319, -0.10101314, 0.06298496, -89831.945, -41634.87, 0.0, 5.0094914, 4.9232144 
3.584624e+2, 3.0001903e+2, -22036.37, -99006.88, -9165.195, -0.04444267, 0.0076550134, -20960.082, -20960.082, 0.0, 5.010399, 4.958224 
3.5845515e+2, 3.0498156e+2, -7884.2026, -60767.324, -7866.5073, 0.025025181, -0.112842076, -6738.8447, -6738.8447, 0.0, 5.0098596, 4.9710894 
3.584432e+2, 3.0995327e+2, -11614.878, -58462.688, -6380.291, 0.06899381, -0.20777854, -10761.4795, -10761.4795, 0.0, 5.007963, 4.972536 
3.584286e+2, 3.1492952e+2, -18276.791, -57707.984, -3578.1604, 0.09719396, -0.27113727, -17954.725, -17954.725, 0.0, 5.004827, 4.9739842 
3.635566e+2, 1.2150565e+2, -1707184.9, -1752130.4, 229.59514, 0.013222068, 0.025644416, -1707183.8, 42062.137, 0.0, 5.0168157, 4.98754 
3.635572e+2, 1.264873e+2, -1662176.0, -1710395.3, -648.7386, 0.01673269, -0.011679514, -1662167.3, 38261.035, 0.0, 5.0166388, 4.9852543 
3.635565e+2, 1.3147296e+2, -1613805.9, -1661710.9, -622.39, 0.008445997, -0.008584702, -1613797.8, 37770.48, 0.0, 5.016436, 4.9852552 
3.6355585e+2, 1.364586e+2, -1567629.3, -1617538.3, -593.496, 0.00015375236, -0.0042172563, -1567622.3, 35086.094, 0.0, 5.016233, 4.9837594 
3.635551e+2, 1.4144121e+2, -1526015.9, -1582835.6, -1165.6527, -0.0055950796, 0.012449585, -1525992.0, 27886.143, 0.0, 5.016036, 4.979046 
3.6355436e+2, 1.4642026e+2, -1477262.1, -1533496.5, -1338.8744, -0.0063098036, 0.008301375, -1477230.3, 27852.477, 0.0, 5.015845, 4.9792337 
3.6355358e+2, 1.5139922e+2, -1428784.0, -1484726.0, -1426.3542, -0.0068570725, 0.0030482137, -1428747.6, 27540.479, 0.0, 5.0156527, 4.9792337 
3.6355284e+2, 1.5637821e+2, -1381726.4, -1438919.8, -1513.4552, -0.0073958077, -0.00174022, -1381686.3, 25807.303, 0.0, 5.01546, 4.978242 
3.6355168e+2, 1.6135353e+2, -1341407.3, -1407330.4, -2293.9258, -0.008016808, 0.00016880283, -1341327.5, 17407.35, 0.0, 5.015288, 4.9724827 
3.635498e+2, 1.6632615e+2, -1292582.6, -1358212.9, -2539.4683, -0.008830298, -0.0013879997, -1292484.5, 17518.627, 0.0, 5.015158, 4.972543 
3.635479e+2, 1.7129882e+2, -1243837.1, -1309272.0, -2625.3328, -0.009638042, -0.0027672108, -1243732.0, 17538.97, 0.0, 5.01503, 4.972543 
3.6354595e+2, 1.7627147e+2, -1196225.9, -1262733.1, -2711.653, -0.0104313195, -0.003749796, -1196115.5, 16423.393, 0.0, 5.014901, 4.971736 
3.6354372e+2, 1.8124065e+2, -1155726.1, -1231085.6, -3250.4775, -0.011981451, 0.0023696611, -1155586.3, 8254.223, 0.0, 5.0147266, 4.9659133 
3.6354077e+2, 1.8620674e+2, -1106980.0, -1181444.6, -3343.3599, -0.01566747, -0.0009556171, -1106830.1, 8341.009, 0.0, 5.014436, 4.9662004 
3.635378e+2, 1.9117285e+2, -1058646.8, -1132662.5, -3323.4592, -0.019453596, -0.0045160996, -1058497.8, 8003.9263, 0.0, 5.0141397, 4.9662004 
3.6353478e+2, 1.9613898e+2, -1011200.4, -1085791.5, -3303.4539, -0.023222713, -0.0077675665, -1011054.3, 6777.8623, 0.0, 5.013843, 4.9655495 
3.6353183e+2, 2.0110166e+2, -971604.6, -1056012.4, -3521.315, -0.02557247, -0.0026543003, -971457.94, -2260.8762, 0.0, 5.0135803, 4.959046 
3.6352897e+2, 2.0606107e+2, -922498.2, -1006240.25, -3665.5315, -0.024551382, -0.004169464, -922338.06, -1742.1251, 0.0, 5.013406, 4.9592953 
3.6352608e+2, 2.1102048e+2, -873715.75, -957199.0, -3740.1548, -0.023357276, -0.006032317, -873548.56, -1553.6619, 0.0, 5.0132356, 4.9592953 
3.635232e+2, 2.159799e+2, -825597.0, -909610.3, -3815.0476, -0.02213922, -0.007758201, -825424.1, -2030.313, 0.0, 5.0130653, 4.958796 
3.635203e+2, 2.2093594e+2, -785171.6, -878814.9, -3788.9326, -0.021784764, -0.0018871017, -785018.56, -10194.295, 0.0, 5.012879, 4.9525213 
3.635171e+2, 2.2588864e+2, -735721.44, -827984.1, -3804.1853, -0.024237482, -0.009182943, -735564.9, -9281.618, 0.0, 5.012623, 4.95314 
3.6351392e+2, 2.3084132e+2, -687104.6, -778966.5, -3789.9963, -0.026851125, -0.017540524, -686948.5, -9206.519, 0.0, 5.0123596, 4.9531446 
3.6351067e+2, 2.35794e+2, -639133.5, -731392.6, -3770.6064, -0.029456394, -0.026166689, -638979.6, -9778.668, 0.0, 5.012096, 4.9526477 
3.6350745e+2, 2.407436e+2, -601040.56, -705385.0, -3683.722, -0.032166507, -0.016391134, -600910.7, -20217.87, 0.0, 5.011748, 4.9446745 
3.6350456e+2, 2.456904e+2, -552480.75, -655269.4, -3478.784, -0.036564402, -0.0032309003, -552363.2, -20140.465, 0.0, 5.011209, 4.945126 
3.6350164e+2, 2.5063717e+2, -504537.1, -606570.7, -3569.6213, -0.041050516, 0.008774315, -504412.34, -20658.795, 0.0, 5.0106573, 4.9451118 
3.634987e+2, 2.5558406e+2, -456833.38, -558429.6, -3664.1533, -0.045330178, 0.022139477, -456701.4, -21418.146, 0.0, 5.010098, 4.944899 
3.6349556e+2, 2.6052675e+2, -414857.34, -523254.56, -4433.7856, -0.04901203, 0.036431253, -414676.28, -27829.19, 0.0, 5.0095315, 4.9399114 
3.6348742e+2, 2.6546758e+2, -361006.63, -459061.2, -5482.9, -0.087755635, -0.029922612, -360700.97, -22302.646, 0.0, 5.0083094, 4.9451756 
3.6347777e+2, 2.704083e+2, -314216.3, -410927.38, -5470.944, -0.13498735, -0.117610484, -313907.8, -23959.637, 0.0, 5.006932, 4.945264 
3.6346728e+2, 2.753482e+2, -267345.8, -363020.75, -5168.787, -0.18423581, -0.21851368, -267067.38, -25561.14, 0.0, 5.0055246, 4.945304 
3.6346915e+2, 2.802899e+2, -261818.7, -410291.16, 8459.458, -0.17803292, -0.1190085, -261338.27, -68281.055, 0.0, 5.0055943, 4.9117346 
3.6347747e+2, 2.8522572e+2, -194975.94, -321093.5, -2514.0522, -0.12785512, 0.0437689, -194925.84, -50206.477, 0.0, 5.0074363, 4.924039 
3.6347735e+2, 2.9015398e+2, -142024.98, -270137.78, -4405.9214, -0.10389553, 0.064875, -141873.64, -45411.766, 0.0, 5.008722, 4.923875 
3.6347628e+2, 2.9508102e+2, -89002.18, -219307.33, -5894.103, -0.07870489, 0.0708166, -88736.12, -40519.19, 0.0, 5.009924, 4.9237103 
3.6347556e+2, 3.000191e+2, -19720.48, -99406.99, -6143.4097, -0.030309914, 0.045583386, -19249.637, -19249.637, 0.0, 5.0114546, 4.95737 
3.6347088e+2, 3.0497786e+2, 1898.8141, -61333.598, -7656.3696, 0.051330198, -0.097456515, 2812.663, 2812.663, 0.0, 5.0140543, 4.968811 
3.6346215e+2, 3.0994326e+2, 11063.697, -52380.97, -9989.6875, 0.12041965, -0.24353607, 12599.45, 12599.45, 0.0, 5.0165734, 4.9706373 
3.6345103e+2, 3.1491205e+2, 20442.53, -43656.023, -12109.717, 0.18294188, -0.3791822, 22654.04, 22654.04, 0.0, 5.0190015, 4.9724684 
3.685735e+2, 1.2150472e+2, -1707727.4, -1753203.4, 226.4412, 0.014266095, 0.026268486, -1707726.3, 41527.367, 0.0, 5.0168114, 4.987189 
3.6857387e+2, 1.2648578e+2, -1662129.5, -1710270.6, -806.3242, 0.01714793, -0.016970402, -1662116.0, 38326.06, 0.0, 5.0166345, 4.9852962 
3.68573e+2, 1.3147165e+2, -1613758.9, -1661588.3, -778.45215, 0.008774602, -0.012220578, -1613746.3, 37833.48, 0.0, 5.0164323, 4.9852962 
3.6857212e+2, 1.3645749e+2, -1567580.1, -1617413.9, -747.31274, 0.00037319216, -0.0061960313, -1567568.9, 35148.66, 0.0, 5.0162296, 4.9838014 
3.6857116e+2, 1.4144021e+2, -1526127.6, -1583051.6, -1313.0477, -0.005566536, 0.011718786, -1526097.4, 27788.637, 0.0, 5.016034, 4.978975 
3.6857015e+2, 1.464192e+2, -1477425.8, -1533824.0, -1484.8143, -0.0067294324, 0.007854615, -1477386.8, 27704.88, 0.0, 5.015843, 4.979126 
3.6856917e+2, 1.5139809e+2, -1428946.0, -1485052.6, -1571.6335, -0.0077450476, 0.002846427, -1428902.0, 27396.11, 0.0, 5.015651, 4.9791255 
3.6856815e+2, 1.5637697e+2, -1381885.9, -1439244.1, -1657.8135, -0.008759103, -0.0016994611, -1381838.0, 25666.656, 0.0, 5.015459, 4.978134 
3.685668e+2, 1.6135219e+2, -1341562.6, -1407650.5, -2402.9595, -0.009761303, 0.0002263211, -1341475.4, 17271.748, 0.0, 5.015287, 4.972376 
3.6856475e+2, 1.6632468e+2, -1292737.9, -1358535.0, -2637.7346, -0.01071806, -0.0017040661, -1292632.3, 17384.48, 0.0, 5.0151577, 4.972435 
3.6856273e+2, 1.7129718e+2, -1243991.4, -1309593.0, -2722.8135, -0.01166953, -0.003462917, -1243878.5, 17407.621, 0.0, 5.0150294, 4.9724355 
3.6856067e+2, 1.762697e+2, -1196378.9, -1263053.0, -2808.3335, -0.012618151, -0.0048264493, -1196260.8, 16294.68, 0.0, 5.0149007, 4.971628 
3.6855826e+2, 1.8123874e+2, -1155733.3, -1231094.9, -3442.52, -0.013913305, 0.0006383513, -1155576.4, 8281.762, 0.0, 5.0147257, 4.9659104 
3.6855516e+2, 1.8620473e+2, -1106944.5, -1181361.3, -3566.5532, -0.016308673, -0.0039991625, -1106773.9, 8415.254, 0.0, 5.014435, 4.9662294 
3.68552e+2, 1.9117074e+2, -1058612.0, -1132578.6, -3545.2554, -0.018773627, -0.008898881, -1058442.5, 8077.6187, 0.0, 5.014138, 4.9662294 
3.6854887e+2, 1.9613674e+2, -1011166.4, -1085707.3, -3523.8218, -0.021241441, -0.013488026, -1011000.2, 6850.72, 0.0, 5.0138416, 4.965579 
3.685457e+2, 2.010994e+2, -971672.9, -1056151.5, -3680.6897, -0.022786768, -0.008765502, -971512.8, -2297.0188, 0.0, 5.0135794, 4.958999 
3.685426e+2, 2.06059e+2, -922623.3, -1006505.9, -3797.5007, -0.022168556, -0.0076390165, -922451.75, -1837.992, 0.0, 5.013405, 4.9592056 
3.685395e+2, 2.1101859e+2, -873839.5, -957463.6, -3869.9583, -0.021456795, -0.0066367704, -873660.8, -1649.1595, 0.0, 5.013235, 4.9592056 
3.685364e+2, 2.1597819e+2, -825719.44, -909874.0, -3942.6719, -0.020742815, -0.0054932605, -825535.1, -2125.5818, 0.0, 5.013065, 4.958706 
3.6853325e+2, 2.2093432e+2, -785177.5, -878809.5, -3957.7048, -0.020836322, 0.001521558, -785010.5, -10170.551, 0.0, 5.0128765, 4.9525237 
3.6852986e+2, 2.2588666e+2, -735711.06, -827911.9, -3980.6436, -0.023428923, -0.00942034, -735539.56, -9237.908, 0.0, 5.012616, 4.9531665 
3.685264e+2, 2.3083897e+2, -687104.25, -778887.9, -3958.9973, -0.02620553, -0.021666812, -686933.8, -9170.579, 0.0, 5.012349, 4.9531746 
3.685229e+2, 2.3579128e+2, -639143.1, -731307.7, -3932.1252, -0.029028652, -0.034142423, -638975.7, -9750.697, 0.0, 5.012081, 4.952681 
3.685194e+2, 2.4074067e+2, -601102.94, -705225.94, -3997.0933, -0.03148284, -0.027035417, -600949.75, -20231.535, 0.0, 5.0117054, 4.9447403 
3.6851612e+2, 2.4568799e+2, -552639.44, -655261.3, -3907.6704, -0.0339836, -0.008930692, -552490.9, -20248.023, 0.0, 5.011157, 4.9451423 
3.685128e+2, 2.5063536e+2, -504681.88, -606560.56, -3989.2722, -0.03650764, 0.009143725, -504525.9, -20758.361, 0.0, 5.0106096, 4.9451265 
3.6850947e+2, 2.5558287e+2, -456964.3, -558417.44, -4074.5476, -0.038890578, 0.028605375, -456800.94, -21509.885, 0.0, 5.0100555, 4.944912 
3.6850587e+2, 2.6052597e+2, -414839.16, -522511.16, -4880.1763, -0.041205797, 0.045169763, -414618.4, -27768.445, 0.0, 5.009432, 4.940215 
3.6849767e+2, 2.654657e+2, -362030.13, -459201.84, -5673.6797, -0.075168565, -0.030130383, -361699.97, -23290.102, 0.0, 5.008011, 4.9452558 
3.6848795e+2, 2.7040535e+2, -315681.34, -410623.66, -5390.232, -0.1184403, -0.12581208, -315376.3, -25409.043, 0.0, 5.0064425, 4.945535 
3.6847734e+2, 2.7534455e+2, -269252.88, -362272.47, -4816.128, -0.16565895, -0.23280235, -269004.2, -27475.084, 0.0, 5.0048437, 4.945767 
3.6847824e+2, 2.8028506e+2, -258660.7, -404492.3, 7976.028, -0.16412817, -0.1580938, -258225.75, -65136.133, 0.0, 5.005778, 4.9138246 
3.6848697e+2, 2.8522104e+2, -192477.75, -321975.84, -1860.2645, -0.11399221, 0.0042876126, -192451.03, -47701.953, 0.0, 5.0083055, 4.923794 
3.6848825e+2, 2.9015076e+2, -139847.3, -270295.44, -3408.3696, -0.08763924, 0.046451636, -139758.3, -43281.31, 0.0, 5.009441, 4.923871 
3.6848852e+2, 2.9507935e+2, -87146.32, -218742.88, -4553.339, -0.062812015, 0.072807774, -86988.96, -38773.094, 0.0, 5.0104923, 4.923948 
3.6848897e+2, 3.000193e+2, -18817.104, -98900.125, -4440.8276, -0.019995088, 0.066614956, -18571.6, -18571.6, 0.0, 5.0117884, 4.9575815 
3.6848632e+2, 3.0497652e+2, -926.1246, -66889.71, -5238.26, 0.05359473, -0.06860428, -512.73773, -512.73773, 0.0, 5.0140023, 4.9670987 
3.6847985e+2, 3.0993995e+2, 6942.9956, -58881.94, -6874.548, 0.11107028, -0.19887412, 7653.287, 7653.287, 0.0, 5.01618, 4.968792 
3.684707e+2, 3.1490734e+2, 15031.529, -51099.543, -8298.62, 0.15604943, -0.30785757, 16057.001, 16057.001, 0.0, 5.0182667, 4.9704885 
3.735904e+2, 1.2150375e+2, -1708208.3, -1754148.9, 224.10965, 0.01521542, 0.026612386, -1708207.1, 41054.727, 0.0, 5.016807, 4.9868793 
3.7359056e+2, 1.2648426e+2, -1662083.8, -1710145.3, -962.9551, 0.01754848, -0.022213597, -1662064.5, 38391.34, 0.0, 5.01663, 4.985338 
3.735895e+2, 1.3147032e+2, -1613712.8, -1661465.0, -933.5596, 0.009093262, -0.015825147, -1613694.5, 37896.727, 0.0, 5.0164285, 4.9853377 
3.7358838e+2, 1.3645637e+2, -1567531.6, -1617288.9, -900.1725, 0.00058743794, -0.008159886, -1567515.4, 35211.406, 0.0, 5.0162263, 4.9838433 
3.735872e+2, 1.4143923e+2, -1526244.3, -1583276.5, -1459.3245, -0.0055393353, 0.011009135, -1526207.0, 27686.941, 0.0, 5.016032, 4.978901 
3.7358597e+2, 1.4641814e+2, -1477589.8, -1534151.1, -1630.4911, -0.007149601, 0.0074244435, -1477542.8, 27557.645, 0.0, 5.0158415, 4.9790177 
3.7358472e+2, 1.5139695e+2, -1429108.3, -1485379.1, -1716.6494, -0.008632937, 0.0026509315, -1429055.9, 27252.098, 0.0, 5.01565, 4.9790173 
3.735835e+2, 1.5637574e+2, -1382045.8, -1439568.4, -1801.9078, -0.010121688, -0.0016627063, -1381989.3, 25526.35, 0.0, 5.0154576, 4.978026 
3.7358192e+2, 1.6135086e+2, -1341721.0, -1407976.5, -2511.818, -0.011505853, 0.00029870842, -1341625.9, 17133.457, 0.0, 5.0152864, 4.972267 
3.7357974e+2, 1.663232e+2, -1292893.4, -1358857.0, -2736.0254, -0.012606445, -0.0020065922, -1292780.1, 17250.3, 0.0, 5.015157, 4.9723277 
3.7357754e+2, 1.7129555e+2, -1244145.8, -1309913.9, -2820.3188, -0.013701926, -0.0041555515, -1244025.0, 17276.24, 0.0, 5.015029, 4.9723277 
3.7357536e+2, 1.762679e+2, -1196532.1, -1263372.6, -2905.0386, -0.0148061775, -0.0059104986, -1196406.1, 16165.933, 0.0, 5.0149, 4.971521 
3.7357283e+2, 1.8123683e+2, -1155744.6, -1231112.3, -3635.2397, -0.015843762, -0.0010812, -1155569.6, 8306.124, 0.0, 5.0147247, 4.965905 
3.7356952e+2, 1.8620272e+2, -1106909.4, -1181277.6, -3790.1697, -0.016951917, -0.007039558, -1106716.8, 8490.463, 0.0, 5.014434, 4.966258 
3.735662e+2, 1.911686e+2, -1058577.8, -1132494.5, -3767.4749, -0.018100362, -0.013299032, -1058386.1, 8152.2754, 0.0, 5.014137, 4.966258 
3.7356293e+2, 1.9613452e+2, -1011132.8, -1085622.6, -3744.6133, -0.01927154, -0.01924637, -1010945.06, 6924.5244, 0.0, 5.0138397, 4.965608 
3.735596e+2, 2.0109713e+2, -971752.9, -1056315.3, -3839.6387, -0.01999622, -0.0148137715, -971578.9, -2344.4182, 0.0, 5.0135784, 4.958944 
3.735563e+2, 2.060569e+2, -922748.9, -1006771.1, -3929.562, -0.01977996, -0.011037098, -922565.5, -1934.013, 0.0, 5.0134044, 4.959115 
3.7355295e+2, 2.1101671e+2, -873963.75, -957727.94, -3999.8538, -0.01955653, -0.0072111897, -873773.2, -1744.8064, 0.0, 5.0132346, 4.959115 
3.7354964e+2, 2.159765e+2, -825842.4, -910137.4, -4070.388, -0.01935261, -0.0032397152, -825646.25, -2220.9976, 0.0, 5.0130644, 4.9586153 
3.7354627e+2, 2.2093266e+2, -785195.44, -878828.06, -4129.3096, -0.0198882, 0.004953291, -785013.7, -10158.092, 0.0, 5.012874, 4.9525166 
3.7354258e+2, 2.2588466e+2, -735702.5, -827838.25, -4161.876, -0.022653647, -0.009738917, -735514.9, -9194.851, 0.0, 5.012609, 4.9531918 
3.7353885e+2, 2.3083661e+2, -687105.7, -778807.94, -4132.7725, -0.025630074, -0.026031416, -686919.8, -9135.276, 0.0, 5.012338, 4.9532037 
3.735351e+2, 2.3578854e+2, -639154.56, -731221.3, -4098.419, -0.028707901, -0.042513587, -638972.44, -9723.3545, 0.0, 5.0120664, 4.952713 
3.735313e+2, 2.4073781e+2, -601237.25, -705207.1, -4347.4634, -0.030817457, -0.03717975, -601055.8, -20312.617, 0.0, 5.0116634, 4.9447556 
3.7352765e+2, 2.4568564e+2, -552809.06, -655242.6, -4336.747, -0.031344794, -0.013755454, -552625.75, -20363.512, 0.0, 5.0111055, 4.945158 
3.7352398e+2, 2.5063363e+2, -504837.56, -606539.75, -4409.111, -0.031881783, 0.010195569, -504646.78, -20865.865, 0.0, 5.0105624, 4.9451404 
3.735202e+2, 2.5558174e+2, -457106.2, -558394.6, -4485.127, -0.032343008, 0.035561156, -456907.97, -21609.58, 0.0, 5.0100126, 4.944924 
3.735162e+2, 2.6052496e+2, -415124.3, -522356.8, -5503.656, -0.032295533, 0.05282151, -414842.6, -27987.373, 0.0, 5.0093327, 4.940277 
3.735076e+2, 2.6546326e+2, -363106.34, -459301.47, -6151.831, -0.06280043, -0.036590617, -362714.5, -24287.99, 0.0, 5.0077133, 4.945263 
3.734974e+2, 2.7040175e+2, -317198.7, -410277.63, -5597.2095, -0.104208186, -0.14539915, -316863.3, -26870.285, 0.0, 5.0059533, 4.9457335 
3.734863e+2, 2.753401e+2, -271211.88, -361480.7, -4751.5166, -0.15149349, -0.2636068, -270962.44, -29402.266, 0.0, 5.0041633, 4.946157 
3.7348753e+2, 2.8028038e+2, -258366.67, -405257.88, 8605.5625, -0.14798795, -0.19316195, -257864.23, -64743.89, 0.0, 5.0059648, 4.913616 
3.7349778e+2, 2.8521731e+2, -190113.3, -322730.25, -1651.0929, -0.09384128, -0.016484229, -190092.75, -45323.14, 0.0, 5.009176, 4.9234877 
3.735001e+2, 2.9014826e+2, -137802.28, -270325.38, -2854.725, -0.067859255, 0.04106594, -137740.81, -41255.992, 0.0, 5.0101604, 4.923806 
3.735014e+2, 2.9507822e+2, -85422.05, -218051.0, -3655.8508, -0.046159472, 0.0821633, -85321.35, -37111.934, 0.0, 5.0110617, 4.9241242 
3.73503e+2, 3.000191e+2, -18897.018, -100259.74, -2908.2134, -0.00782323, 0.08641311, -18793.2, -18793.2, 0.0, 5.012122, 4.9570374 
3.7350255e+2, 3.0497372e+2, -3896.8694, -72312.39, -2690.8372, 0.06564868, -0.055924524, -3791.1997, -3791.1997, 0.0, 5.0139503, 4.965243 
3.7349823e+2, 3.0993447e+2, 2675.0625, -65252.45, -3628.3882, 0.11851624, -0.18608002, 2868.3252, 2868.3252, 0.0, 5.015787, 4.966802 
3.73491e+2, 3.1489992e+2, 9471.033, -58415.84, -4354.391, 0.15296042, -0.2841045, 9749.191, 9749.191, 0.0, 5.0175323, 4.968365 
3.7860733e+2, 1.2150274e+2, -1708712.8, -1755003.6, 285.33496, 0.016104236, 0.026580395, -1708710.9, 40559.375, 0.0, 5.016772, 4.9866157 
3.7860724e+2, 1.2648275e+2, -1662083.8, -1710059.8, -1085.2992, 0.017963871, -0.027244383, -1662059.3, 38410.082, 0.0, 5.0166135, 4.9853735 
3.7860593e+2, 1.3146903e+2, -1613667.4, -1661358.3, -1094.3436, 0.009395379, -0.019292435, -1613642.4, 37960.207, 0.0, 5.016427, 4.9853725 
3.7860462e+2, 1.3645527e+2, -1567462.6, -1617168.8, -1097.5684, 0.00077574287, -0.010056367, -1567438.4, 35297.594, 0.0, 5.0162325, 4.983879 
3.7860325e+2, 1.4143823e+2, -1526342.8, -1583502.6, -1674.7931, -0.005524799, 0.01033036, -1526293.8, 27608.133, 0.0, 5.016038, 4.9788227 
3.786018e+2, 1.4641707e+2, -1477741.8, -1534473.1, -1845.4215, -0.007557845, 0.006994076, -1477681.8, 27427.703, 0.0, 5.015844, 4.978909 
3.7860027e+2, 1.5139578e+2, -1429272.6, -1485707.4, -1929.5922, -0.009480206, 0.0024143935, -1429206.8, 27111.383, 0.0, 5.0156474, 4.9789085 
3.785988e+2, 1.5637448e+2, -1382224.9, -1439902.8, -2012.5759, -0.011410921, -0.0017129481, -1382154.8, 25372.186, 0.0, 5.01545, 4.9779177 
3.7859705e+2, 1.613495e+2, -1341920.5, -1408321.1, -2678.5261, -0.01315464, 0.00027886365, -1341812.6, 16959.145, 0.0, 5.0152717, 4.9721594 
3.7859473e+2, 1.663217e+2, -1293114.4, -1359204.0, -2872.6724, -0.014397854, -0.0023767091, -1292989.8, 17054.492, 0.0, 5.0151334, 4.9722223 
3.7859237e+2, 1.7129391e+2, -1244398.0, -1310275.4, -2937.0193, -0.015627878, -0.0048953663, -1244267.3, 17049.16, 0.0, 5.014994, 4.972223 
3.7859005e+2, 1.7626615e+2, -1196821.1, -1263751.1, -3002.1055, -0.01686946, -0.0070195557, -1196686.8, 15901.887, 0.0, 5.0148525, 4.9714155 
3.7858737e+2, 1.8123493e+2, -1155917.5, -1231222.3, -3822.9895, -0.017629575, -0.0027631917, -1155724.0, 8169.4736, 0.0, 5.0146723, 4.965893 
3.7858394e+2, 1.862007e+2, -1106989.6, -1181263.8, -4044.0146, -0.017448615, -0.009982049, -1106770.1, 8455.14, 0.0, 5.0143967, 4.96628 
3.7858045e+2, 1.9116649e+2, -1058626.0, -1132465.3, -4058.7344, -0.0172649, -0.017558126, -1058403.6, 8153.2256, 0.0, 5.0141106, 4.9662805 
3.78577e+2, 1.9613229e+2, -1011165.2, -1085585.3, -4074.0166, -0.01710789, -0.0248278, -1010942.8, 6945.5386, 0.0, 5.013819, 4.96563 
3.7857348e+2, 2.0109488e+2, -971892.6, -1056522.0, -4126.2153, -0.016969914, -0.020581955, -971691.9, -2438.645, 0.0, 5.0135603, 4.9588823 
3.7856996e+2, 2.0605482e+2, -922911.5, -1007043.4, -4169.021, -0.017180609, -0.014231215, -922705.44, -2056.1116, 0.0, 5.0133896, 4.959029 
3.785664e+2, 2.1101482e+2, -874130.1, -958000.94, -4214.766, -0.017463287, -0.007707733, -873918.9, -1873.638, 0.0, 5.0132184, 4.959029 
3.7856287e+2, 2.159748e+2, -826026.8, -910417.6, -4259.7676, -0.01776994, -0.0010337213, -825812.3, -2371.2024, 0.0, 5.0130415, 4.9585295 
3.7855926e+2, 2.2093101e+2, -785320.3, -878932.5, -4361.6787, -0.018706895, 0.0083426675, -785117.56, -10246.182, 0.0, 5.012843, 4.952494 
3.7855533e+2, 2.2588266e+2, -735815.56, -827861.5, -4475.0723, -0.021566326, -0.01006595, -735598.5, -9259.861, 0.0, 5.0125685, 4.9532003 
3.7855133e+2, 2.3083422e+2, -687299.94, -778866.3, -4522.325, -0.02461031, -0.030460147, -687077.1, -9270.89, 0.0, 5.0122695, 4.9532123 
3.7854734e+2, 2.3578577e+2, -639484.56, -731338.94, -4574.5264, -0.027756784, -0.051057372, -639257.3, -9983.392, 0.0, 5.0119505, 4.9527225 
3.7854326e+2, 2.407349e+2, -601766.4, -705539.25, -5112.5444, -0.029200077, -0.04668456, -601515.06, -20746.617, 0.0, 5.011511, 4.9447055 
3.7853923e+2, 2.4568328e+2, -553078.56, -655330.94, -5202.0586, -0.02750307, -0.01761327, -552814.56, -20532.646, 0.0, 5.0110273, 4.9451575 
3.785352e+2, 2.5063184e+2, -504871.6, -606525.9, -5330.259, -0.025803244, 0.012040389, -504592.84, -20798.082, 0.0, 5.010573, 4.9451375 
3.785311e+2, 2.555805e+2, -456906.1, -558279.56, -5464.605, -0.024038017, 0.043162376, -456612.38, -21305.982, 0.0, 5.010113, 4.944919 
3.7852678e+2, 2.6052356e+2, -415608.78, -523322.1, -7252.415, -0.019873213, 0.05995852, -415122.66, -28258.344, 0.0, 5.009372, 4.9398913 
3.785176e+2, 2.654598e+2, -366363.75, -461673.13, -9806.848, -0.044389922, -0.047982965, -365365.13, -26911.613, 0.0, 5.006857, 4.944719 
3.7850684e+2, 2.7039617e+2, -324644.25, -414308.88, -11608.093, -0.08014823, -0.17609058, -323165.84, -33127.973, 0.0, 5.003615, 4.94524 
3.7849516e+2, 2.7533257e+2, -284344.34, -367791.13, -13695.848, -0.121977404, -0.3135389, -282153.97, -40531.76, 0.0, 4.999809, 4.9457173 
3.7849823e+2, 2.802726e+2, -277996.8, -419124.38, -137.03746, -0.10432086, -0.23226917, -277996.7, -84814.234, 0.0, 5.000141, 4.911341 
3.7851062e+2, 2.8521204e+2, -199182.0, -325785.75, -8846.192, -0.050792523, -0.025519213, -198566.88, -53760.906, 0.0, 5.0059624, 4.92374 
3.785135e+2, 2.9014495e+2, -140547.0, -270436.0, -7238.086, -0.03571302, 0.04489705, -140144.89, -43644.0, 0.0, 5.009173, 4.924099 
3.7851533e+2, 2.9507685e+2, -84426.016, -216352.63, -5942.836, -0.024972, 0.09794409, -84158.85, -35953.27, 0.0, 5.011402, 4.924461 
3.785179e+2, 3.000182e+2, -19233.137, -103081.9, -3484.4758, 0.0075571253, 0.10654269, -19088.582, -19088.582, 0.0, 5.0127773, 4.95562 
3.7851974e+2, 3.0496895e+2, -9092.988, -78609.484, -2117.8997, 0.09113089, -0.060607295, -9028.523, -9028.523, 0.0, 5.0131874, 4.963033 
3.7851772e+2, 3.0992582e+2, -10844.228, -74972.16, -1152.1683, 0.15420277, -0.21705876, -10823.533, -10823.533, 0.0, 5.012045, 4.9646077 
3.785129e+2, 3.1488764e+2, -16488.463, -73298.32, 1434.7996, 0.19808196, -0.33806702, -16452.248, -16452.248, 0.0, 5.009318, 4.9661813 
3.8362435e+2, 1.2150166e+2, -1706972.9, -1754422.8, 402.8903, 0.01553514, 0.023118166, -1706969.4, 42309.297, 0.0, 5.0174036, 4.9864974 
3.8362417e+2, 1.2648185e+2, -1660439.0, -1709486.8, -1066.5641, 0.018202692, -0.028044844, -1660415.9, 40060.77, 0.0, 5.0172067, 4.985273 
3.8362265e+2, 1.3146801e+2, -1612054.4, -1660801.1, -1194.5759, 0.00921278, -0.019958898, -1612025.1, 39585.82, 0.0, 5.017011, 4.985273 
3.836211e+2, 1.3645418e+2, -1565855.1, -1616610.9, -1317.3325, 0.00022637713, -0.010571786, -1565820.9, 36924.535, 0.0, 5.016815, 4.9837813 
3.8361952e+2, 1.4143705e+2, -1524758.8, -1582949.5, -1979.926, -0.006247059, 0.009815796, -1524691.5, 29221.043, 0.0, 5.0166135, 4.9787273 
3.8361782e+2, 1.4641574e+2, -1476247.9, -1533973.4, -2147.4468, -0.008217676, 0.0060829944, -1476168.0, 28953.39, 0.0, 5.016392, 4.9788103 
3.8361615e+2, 1.5139432e+2, -1427860.6, -1485250.4, -2223.7185, -0.010063141, 0.0010735423, -1427774.6, 28556.814, 0.0, 5.0161695, 4.9788094 
3.8361448e+2, 1.5637287e+2, -1380889.9, -1439484.3, -2298.242, -0.011907323, -0.0035021445, -1380799.9, 26741.768, 0.0, 5.015947, 4.9778194 
3.836125e+2, 1.6134778e+2, -1340629.0, -1407792.3, -2917.7236, -0.013566947, -0.001870137, -1340502.5, 18285.041, 0.0, 5.0157275, 4.972118 
3.8361e+2, 1.6631995e+2, -1292039.1, -1358760.3, -3043.2722, -0.014677778, -0.004408881, -1291900.5, 18159.498, 0.0, 5.0155134, 4.9721904 
3.836075e+2, 1.7129216e+2, -1243547.9, -1309942.5, -3045.5447, -0.015745174, -0.006762087, -1243408.4, 17923.822, 0.0, 5.015299, 4.9721904 
3.83605e+2, 1.7626438e+2, -1196188.8, -1263524.9, -3048.199, -0.016800068, -0.00871181, -1196051.1, 16553.316, 0.0, 5.0150843, 4.971383 
3.8360217e+2, 1.8123312e+2, -1155461.9, -1231181.6, -3885.117, -0.017115379, -0.0042039473, -1155263.1, 8646.394, 0.0, 5.0148644, 4.965817 
3.8359857e+2, 1.8619885e+2, -1106446.5, -1181225.8, -4210.0176, -0.01591037, -0.01104802, -1106210.3, 9032.017, 0.0, 5.0146275, 4.9661856 
3.8359496e+2, 1.9116458e+2, -1057945.5, -1132364.5, -4320.7944, -0.014637012, -0.018266056, -1057695.5, 8879.316, 0.0, 5.014389, 4.9661856 
3.8359138e+2, 1.961303e+2, -1010332.25, -1085415.5, -4431.3525, -0.013348311, -0.02519897, -1010071.6, 7835.7554, 0.0, 5.0141506, 4.965535 
3.8358772e+2, 2.0109285e+2, -970899.4, -1056147.5, -4500.4644, -0.012457578, -0.020774208, -970662.44, -1389.4353, 0.0, 5.013921, 4.958843 
3.8358393e+2, 2.060528e+2, -922043.0, -1006710.8, -4502.528, -0.013016547, -0.014141804, -921804.25, -1135.3123, 0.0, 5.013705, 4.9589977 
3.8358018e+2, 2.1101278e+2, -873392.7, -957729.0, -4521.844, -0.013664003, -0.0072689136, -873150.94, -1086.3296, 0.0, 5.013489, 4.9589987 
3.835764e+2, 2.1597278e+2, -825405.1, -910199.06, -4541.8926, -0.0142875165, -0.00023339434, -825162.5, -1702.2457, 0.0, 5.0132723, 4.9585 
3.8357258e+2, 2.2092894e+2, -784787.4, -878806.0, -4658.6416, -0.015184967, 0.009005676, -784557.06, -9666.131, 0.0, 5.01305, 4.952446 
3.835685e+2, 2.2588037e+2, -735263.44, -827812.7, -4792.183, -0.01699551, -0.010704234, -735015.94, -8655.169, 0.0, 5.012794, 4.95312 
3.8356435e+2, 2.308317e+2, -686637.75, -778793.0, -4843.084, -0.018783461, -0.032574616, -686383.94, -8552.719, 0.0, 5.0125337, 4.953125 
3.835602e+2, 2.35783e+2, -638657.6, -731217.3, -4888.1597, -0.020525305, -0.05480107, -638400.2, -9098.21, 0.0, 5.012272, 4.952628 
3.8355604e+2, 2.4073198e+2, -600244.56, -704929.75, -5360.5913, -0.02029108, -0.051310327, -599970.75, -19172.703, 0.0, 5.0120153, 4.944708 
3.8355196e+2, 2.4568072e+2, -550508.1, -654260.5, -5345.914, -0.016541766, -0.018833978, -550233.44, -17926.639, 0.0, 5.011891, 4.9451694 
3.835478e+2, 2.5062966e+2, -501329.6, -605035.56, -5357.6714, -0.012646855, 0.014796467, -501053.56, -17239.256, 0.0, 5.011781, 4.945146 
3.8354364e+2, 2.5557873e+2, -452398.44, -556377.06, -5374.57, -0.00853576, 0.049971774, -452121.38, -16800.846, 0.0, 5.011664, 4.944925 
3.835394e+2, 2.6052174e+2, -410475.22, -523969.53, -7128.5396, 0.0006935182, 0.0693487, -410029.25, -23150.521, 0.0, 5.0116205, 4.938752 
3.8353136e+2, 2.6545563e+2, -356146.16, -463360.47, -9126.228, -0.004042549, -0.040071093, -355374.84, -16879.87, 0.0, 5.0113235, 4.942368 
3.83522e+2, 2.7038863e+2, -306516.47, -413780.56, -9698.384, -0.013891791, -0.174736, -305646.63, -15529.671, 0.0, 5.0109205, 4.9425244 
3.8351184e+2, 2.7532074e+2, -256811.31, -364461.9, -9957.087, -0.025068352, -0.32431695, -255898.08, -14150.688, 0.0, 5.0104876, 4.9426336 
3.835154e+2, 2.802567e+2, -245531.4, -400130.03, 7721.224, 0.015815796, -0.26890755, -245146.73, -51796.78, 0.0, 5.0109696, 4.912948 
3.8352683e+2, 2.851987e+2, -180789.14, -308635.22, 376.19376, 0.03873212, -0.064861886, -180788.03, -35848.406, 0.0, 5.011725, 4.926543 
3.8352925e+2, 2.9013488e+2, -130748.25, -258812.4, -727.9574, 0.022395832, 0.013629074, -130744.11, -34151.844, 0.0, 5.0119443, 4.926411 
3.8353077e+2, 2.9506952e+2, -80587.836, -209118.33, -1383.2544, 0.008888896, 0.072954364, -80572.95, -32312.844, 0.0, 5.012087, 4.926278 
3.8353315e+2, 3.0001315e+2, -19474.617, -102992.0, -221.71448, 0.02354771, 0.088669814, -19474.027, -19474.027, 0.0, 5.0126085, 4.955421 
3.8353533e+2, 3.0496424e+2, -6467.744, -81381.82, -699.1974, 0.09971252, -0.063877985, -6461.2188, -6461.2188, 0.0, 5.0146456, 4.9610963 
3.8353422e+2, 3.0992037e+2, 1467.0568, -71982.64, -2854.2048, 0.17020455, -0.2197475, 1577.8022, 1577.8022, 0.0, 5.016704, 4.9632225 
3.8353074e+2, 3.148808e+2, 9635.447, -62827.832, -4910.895, 0.23609807, -0.35857195, 9966.748, 9966.748, 0.0, 5.018684, 4.965353 
3.8864163e+2, 1.2150053e+2, -1707028.6, -1754506.4, 191.57141, 0.0138873765, 0.0177942, -1707027.8, 42259.48, 0.0, 5.0174, 4.986471 
3.886414e+2, 1.264812e+2, -1660685.5, -1709961.0, -1217.8451, 0.018173058, -0.026978217, -1660655.5, 39825.54, 0.0, 5.017203, 4.985118 
3.8863963e+2, 1.3146718e+2, -1612297.9, -1661275.5, -1344.1581, 0.008756148, -0.019373374, -1612261.0, 39356.77, 0.0, 5.017008, 4.9851174 
3.886378e+2, 1.3645312e+2, -1566093.1, -1617080.1, -1464.1578, -0.00068229355, -0.010471004, -1566051.1, 36703.73, 0.0, 5.0168123, 4.9836273 
3.88636e+2, 1.414358e+2, -1524917.9, -1583267.0, -2144.7024, -0.0073872358, 0.009352224, -1524839.1, 29084.912, 0.0, 5.016612, 4.9786224 
3.8863412e+2, 1.4641434e+2, -1476389.6, -1534258.1, -2316.7395, -0.009110555, 0.0049414677, -1476297.0, 28837.41, 0.0, 5.0163913, 4.9787164 
3.8863227e+2, 1.5139274e+2, -1428001.5, -1485534.0, -2392.4336, -0.010695251, -0.0007468903, -1427902.1, 28443.762, 0.0, 5.0161686, 4.9787154 
3.886304e+2, 1.5637115e+2, -1381028.5, -1439764.3, -2465.9597, -0.012283584, -0.006003577, -1380925.1, 26632.424, 0.0, 5.015946, 4.977726 
3.8862824e+2, 1.6134594e+2, -1340651.4, -1407836.0, -3085.3232, -0.013691858, -0.004826291, -1340510.0, 18294.287, 0.0, 5.015727, 4.9721036 
3.8862556e+2, 1.6631815e+2, -1292041.5, -1358764.3, -3207.6243, -0.014501387, -0.00707278, -1291887.6, 18188.756, 0.0, 5.015513, 4.9721894 
3.8862285e+2, 1.7129037e+2, -1243550.1, -1309946.6, -3209.109, -0.01526953, -0.009082956, -1243395.4, 17952.68, 0.0, 5.015299, 4.9721894 
3.8862017e+2, 1.7626262e+2, -1196190.9, -1263529.0, -3210.9436, -0.016034149, -0.010688915, -1196038.1, 16581.549, 0.0, 5.0150843, 4.971382 
3.8861716e+2, 1.812314e+2, -1155605.3, -1231478.6, -4062.1833, -0.0158943, -0.0056275344, -1155388.4, 8536.1875, 0.0, 5.0148635, 4.9657173 
3.8861343e+2, 1.861971e+2, -1106642.8, -1181632.0, -4389.974, -0.013859493, -0.011408394, -1106386.6, 8871.8545, 0.0, 5.014626, 4.9660487 
3.8860965e+2, 1.911628e+2, -1058141.1, -1132768.5, -4498.999, -0.01175987, -0.017535824, -1057870.9, 8721.34, 0.0, 5.014387, 4.966049 
3.886059e+2, 1.961285e+2, -1010527.3, -1085817.4, -4607.7793, -0.009664154, -0.023375595, -1010246.3, 7679.6313, 0.0, 5.014148, 4.9653993 
3.8860205e+2, 2.01091e+2, -970959.8, -1056264.6, -4671.063, -0.008234204, -0.01846716, -970704.75, -1412.2134, 0.0, 5.013919, 4.958804 
3.8859805e+2, 2.0605084e+2, -922073.8, -1006769.4, -4669.473, -0.008948649, -0.012572759, -921817.1, -1128.3136, 0.0, 5.013704, 4.958979 
3.8859406e+2, 2.1101072e+2, -873422.75, -957788.5, -4686.4556, -0.009809294, -0.006455282, -873163.2, -1078.3926, 0.0, 5.013488, 4.958979 
3.8859004e+2, 2.159706e+2, -825434.4, -910259.5, -4704.153, -0.010664469, -0.00016998679, -825174.3, -1693.5353, 0.0, 5.013272, 4.95848 
3.8858598e+2, 2.2092669e+2, -784843.1, -878906.8, -4839.573, -0.0114316605, 0.008211877, -784594.75, -9682.524, 0.0, 5.013047, 4.952412 
3.8858178e+2, 2.25878e+2, -735362.0, -827971.1, -4964.608, -0.012051854, -0.012000774, -735096.6, -8712.459, 0.0, 5.0127854, 4.953068 
3.8857755e+2, 2.3082924e+2, -686748.25, -778945.2, -5007.013, -0.012646841, -0.034219753, -686477.1, -8620.518, 0.0, 5.0125203, 4.9530764 
3.885733e+2, 2.3578045e+2, -638780.0, -731363.2, -5043.569, -0.013258485, -0.05674296, -638506.0, -9176.776, 0.0, 5.0122538, 4.952583 
3.8856903e+2, 2.4072947e+2, -600278.5, -704695.06, -5456.445, -0.011972611, -0.053160146, -599994.1, -19168.484, 0.0, 5.0119696, 4.9448037 
3.8856488e+2, 2.4567854e+2, -550528.06, -653957.4, -5427.6553, -0.007249718, -0.018389074, -550244.06, -17914.76, 0.0, 5.0118394, 4.9452906 
3.885607e+2, 2.5062785e+2, -501323.63, -604725.9, -5427.6846, -0.0024621505, 0.017781232, -501039.5, -17208.223, 0.0, 5.011739, 4.945265 
3.8855645e+2, 2.555773e+2, -452366.7, -556060.94, -5432.85, 0.0024636774, 0.05543631, -452082.8, -16750.73, 0.0, 5.0116305, 4.945041 
3.885523e+2, 2.6052037e+2, -411452.75, -525626.8, -7024.5977, 0.013513613, 0.07656606, -411022.16, -24132.992, 0.0, 5.0115414, 4.938201 
3.8854542e+2, 2.654536e+2, -358286.3, -466102.28, -8571.438, 0.016181616, -0.029005488, -357609.13, -19090.17, 0.0, 5.01103, 4.9415073 
3.8853726e+2, 2.7038628e+2, -309183.5, -416125.38, -8846.536, 0.012670582, -0.15674709, -308456.63, -18304.904, 0.0, 5.0104113, 4.941849 
3.8852826e+2, 2.753185e+2, -260004.38, -366409.47, -8807.536, 0.0059883324, -0.29688513, -259280.27, -17491.414, 0.0, 5.0097623, 4.9421434 
3.885315e+2, 2.802541e+2, -242689.16, -395619.16, 6292.8525, 0.047260482, -0.24823362, -242430.64, -49031.66, 0.0, 5.0112267, 4.914559 
3.8854203e+2, 2.8519443e+2, -176242.3, -306159.84, -105.51656, 0.06822143, -0.07131862, -176242.2, -31249.152, 0.0, 5.012743, 4.9274163 
3.8854435e+2, 2.9012936e+2, -126700.3, -255690.92, -830.7245, 0.048582833, -0.011684154, -126694.95, -30051.453, 0.0, 5.012763, 4.927531 
3.8854572e+2, 2.9506302e+2, -77039.86, -205351.61, -1108.12, 0.02915897, 0.029202176, -77030.29, -28723.58, 0.0, 5.012706, 4.9276447 
3.8854772e+2, 3.0000684e+2, -17620.436, -100876.08, 641.77057, 0.031816006, 0.03652655, -17615.488, -17615.488, 0.0, 5.012974, 4.956245 
3.8854924e+2, 3.0496135e+2, -7936.499, -84996.87, 1069.8934, 0.079900905, -0.06448847, -7921.6475, -7921.6475, 0.0, 5.0147147, 4.9601164 
3.885473e+2, 3.099217e+2, -1053.4911, -76654.19, -379.33826, 0.11612424, -0.14940147, -1051.5878, -1051.5878, 0.0, 5.016528, 4.9620466 
3.8854283e+2, 3.1488684e+2, 6067.3623, -68553.89, -1731.4995, 0.14266771, -0.20795502, 6107.518, 6107.518, 0.0, 5.018263, 4.96398 
3.9365888e+2, 1.2149935e+2, -1707019.9, -1754457.1, -23.492079, 0.012244811, 0.012135936, -1707019.9, 42276.39, 0.0, 5.0173955, 4.986488 
3.936586e+2, 1.2648056e+2, -1660932.8, -1710434.8, -1368.0488, 0.018145677, -0.025851812, -1660894.9, 39590.36, 0.0, 5.0171986, 4.9849634 
3.9365658e+2, 1.3146634e+2, -1612542.1, -1661749.4, -1492.663, 0.008307793, -0.018747197, -1612496.9, 39127.75, 0.0, 5.0170045, 4.984962 
3.9365456e+2, 1.364521e+2, -1566331.9, -1617548.9, -1609.902, -0.0015766599, -0.010348689, -1566281.3, 36482.89, 0.0, 5.0168095, 4.983473 
3.936525e+2, 1.4143457e+2, -1525082.4, -1583594.8, -2308.5066, -0.008525492, 0.00889824, -1524991.4, 28944.236, 0.0, 5.0166106, 4.9785147 
3.936504e+2, 1.4641294e+2, -1476531.6, -1534542.8, -2486.1135, -0.010006286, 0.003799021, -1476425.4, 28722.148, 0.0, 5.01639, 4.9786224 
3.936484e+2, 1.5139118e+2, -1428142.5, -1485817.5, -2561.2297, -0.0113310935, -0.002580107, -1428029.0, 28331.43, 0.0, 5.016167, 4.9786215 
3.936463e+2, 1.5636942e+2, -1381167.3, -1440044.1, -2633.757, -0.012664459, -0.008529656, -1381049.8, 26523.777, 0.0, 5.0159445, 4.977633 
3.9364395e+2, 1.6134411e+2, -1340678.4, -1407888.9, -3252.4595, -0.013815706, -0.0077562644, -1340521.4, 18299.771, 0.0, 5.015727, 4.9720864 
3.9364108e+2, 1.6631635e+2, -1292044.0, -1358768.1, -3371.9424, -0.014322445, -0.009704323, -1291874.1, 18218.584, 0.0, 5.015513, 4.9721885 
3.9363822e+2, 1.7128861e+2, -1243552.5, -1309950.6, -3372.639, -0.0147914905, -0.011384454, -1243381.6, 17982.105, 0.0, 5.0152984, 4.972188 
3.9363533e+2, 1.7626087e+2, -1196193.1, -1263533.1, -3373.6538, -0.01526599, -0.012659631, -1196024.5, 16610.34, 0.0, 5.0150843, 4.9713807 
3.9363214e+2, 1.8122968e+2, -1155753.9, -1231785.8, -4240.4785, -0.014671576, -0.007035873, -1155518.0, 8421.733, 0.0, 5.0148625, 4.965614 
3.9362827e+2, 1.8619534e+2, -1106839.5, -1182038.1, -4570.4907, -0.011813236, -0.011774365, -1106562.8, 8712.037, 0.0, 5.014624, 4.965912 
3.9362437e+2, 1.91161e+2, -1058337.3, -1133172.3, -4677.7627, -0.008893536, -0.016843125, -1058046.0, 8563.709, 0.0, 5.014385, 4.9659123 
3.9362043e+2, 1.961267e+2, -1010722.8, -1086219.0, -4784.7656, -0.00599699, -0.021621682, -1010420.75, 7523.8467, 0.0, 5.014146, 4.965263 
3.9361644e+2, 2.0108914e+2, -971035.1, -1056413.3, -4840.723, -0.004018492, -0.016073702, -970761.5, -1449.4447, 0.0, 5.013917, 4.958754 
3.9361218e+2, 2.0604889e+2, -922105.06, -1006827.56, -4835.9536, -0.0048819846, -0.0108920485, -921829.94, -1121.2803, 0.0, 5.0137024, 4.9589596 
3.9360794e+2, 2.1100868e+2, -873453.25, -957847.7, -4850.602, -0.005953135, -0.0055806893, -873175.4, -1070.4161, 0.0, 5.013487, 4.958959 
3.936037e+2, 2.1596847e+2, -825464.06, -910319.7, -4865.948, -0.00703729, -0.000096310556, -825185.94, -1684.7855, 0.0, 5.0132713, 4.9584594 
3.9359942e+2, 2.209244e+2, -784915.8, -879041.4, -5023.979, -0.007664297, 0.0074330787, -784648.4, -9714.844, 0.0, 5.0130444, 4.9523654 
3.935951e+2, 2.2587565e+2, -735462.75, -828127.9, -5142.024, -0.007121449, -0.013416792, -735178.25, -8770.718, 0.0, 5.012777, 4.9530144 
3.9359072e+2, 2.3082677e+2, -686860.9, -779095.6, -5175.9336, -0.006553963, -0.036162794, -686571.3, -8689.256, 0.0, 5.012507, 4.9530263 
3.9358637e+2, 2.357779e+2, -638904.5, -731507.4, -5203.9697, -0.0060658944, -0.059161145, -638613.0, -9256.26, 0.0, 5.0122356, 4.952536 
3.9358196e+2, 2.4072699e+2, -600400.7, -704634.3, -5591.9604, -0.003668572, -0.054460686, -600101.5, -19248.729, 0.0, 5.011924, 4.9448366 
3.9357775e+2, 2.4567644e+2, -550560.06, -653642.56, -5510.2725, 0.0020916632, -0.016985938, -550266.3, -17915.313, 0.0, 5.011788, 4.9454107 
3.9357355e+2, 2.506261e+2, -501329.7, -604404.5, -5498.5737, 0.0078019546, 0.021481425, -501037.2, -17189.527, 0.0, 5.0116963, 4.9453826 
3.9356923e+2, 2.555759e+2, -452346.94, -555733.1, -5492.006, 0.013572572, 0.061373487, -452056.0, -16712.852, 0.0, 5.011597, 4.9451566 
3.9356524e+2, 2.6051876e+2, -412754.53, -527918.75, -7079.679, 0.027492156, 0.0828542, -412320.94, -25419.023, 0.0, 5.011462, 4.93739 
3.935592e+2, 2.6545104e+2, -360480.22, -468805.94, -8303.93, 0.036634494, -0.024523258, -359847.34, -21299.336, 0.0, 5.010737, 4.940565 
3.9355183e+2, 2.703832e+2, -311903.84, -418430.47, -8281.793, 0.037804775, -0.1512593, -311263.84, -21070.41, 0.0, 5.0099025, 4.941092 
3.9354357e+2, 2.7531537e+2, -263250.34, -368315.72, -7944.9517, 0.03396017, -0.28786927, -262652.94, -20813.893, 0.0, 5.009038, 4.941571 
3.935479e+2, 2.802517e+2, -243223.52, -398893.38, 6317.3706, 0.08057604, -0.22279909, -242967.56, -49521.266, 0.0, 5.0114884, 4.9134398 
3.9355853e+2, 2.8519112e+2, -171823.7, -303567.34, -1029.7664, 0.10226563, -0.056541335, -171815.66, -26778.863, 0.0, 5.0137606, 4.9282155 
3.9356044e+2, 2.9012462e+2, -122779.3, -252452.84, -1376.024, 0.07689703, -0.02251085, -122764.695, -26077.48, 0.0, 5.0135813, 4.9285765 
3.9356127e+2, 2.9505706e+2, -73617.516, -201468.81, -1275.5907, 0.04912876, -0.006811, -73604.79, -25256.807, 0.0, 5.0133247, 4.9289365 
3.9356282e+2, 3.000002e+2, -16731.969, -100626.7, 1401.4744, 0.04071173, -0.016511764, -16708.563, -16708.563, 0.0, 5.0133386, 4.9563136 
3.935639e+2, 3.0495718e+2, -9531.742, -88494.5, 3068.7808, 0.06890084, -0.08091263, -9412.657, -9412.657, 0.0, 5.014784, 4.958982 
3.9356133e+2, 3.0992106e+2, -3701.879, -81211.24, 2326.8472, 0.07871339, -0.11196059, -3632.0894, -3632.0894, 0.0, 5.0163527, 4.960716 
3.93556e+2, 3.1489018e+2, 2369.383, -74168.67, 1681.2316, 0.07375702, -0.10732073, 2406.2952, 2406.2952, 0.0, 5.017842, 4.962453 
3.9867616e+2, 1.2149814e+2, -1707000.9, -1754346.0, -329.17734, 0.01068034, 0.00631133, -1706998.6, 42307.086, 0.0, 5.017381, 4.9865313 
3.9867577e+2, 1.2647992e+2, -1661136.1, -1710886.1, -1599.404, 0.018026099, -0.02474847, -1661084.8, 39405.008, 0.0, 5.0172076, 4.98481 
3.9867356e+2, 1.3146548e+2, -1612696.6, -1662176.3, -1701.0603, 0.007808763, -0.01813048, -1612638.3, 38993.316, 0.0, 5.017029, 4.9848084 
3.9867127e+2, 1.3645102e+2, -1566444.5, -1617950.8, -1791.4575, -0.0024551137, -0.01022941, -1566382.3, 36391.375, 0.0, 5.0168467, 4.983321 
3.98669e+2, 1.4143331e+2, -1525108.9, -1583860.6, -2486.3772, -0.009597789, 0.008444935, -1525003.9, 28943.322, 0.0, 5.016656, 4.9784045 
3.9866674e+2, 1.4641151e+2, -1476529.5, -1534756.8, -2664.407, -0.01082312, 0.00266226, -1476407.9, 28752.719, 0.0, 5.0164366, 4.9785285 
3.986645e+2, 1.513896e+2, -1428139.8, -1486030.5, -2733.8457, -0.011866569, -0.004398284, -1428010.9, 28364.049, 0.0, 5.0162144, 4.978528 
3.9866224e+2, 1.5636769e+2, -1381166.0, -1440255.3, -2800.2754, -0.01291636, -0.011026044, -1381033.6, 26555.84, 0.0, 5.0159907, 4.9775405 
3.986597e+2, 1.6134228e+2, -1340592.6, -1407896.5, -3418.29, -0.013783752, -0.010584021, -1340419.4, 18418.441, 0.0, 5.015767, 4.972065 
3.9865664e+2, 1.6631454e+2, -1291981.0, -1358744.0, -3547.7056, -0.013994315, -0.012219492, -1291793.0, 18315.955, 0.0, 5.0155363, 4.9721856 
3.986536e+2, 1.7128684e+2, -1243548.3, -1309955.1, -3560.3179, -0.014164944, -0.013576228, -1243357.9, 18021.635, 0.0, 5.015302, 4.972185 
3.9865053e+2, 1.7625915e+2, -1196255.8, -1263569.6, -3573.2468, -0.014340894, -0.014529093, -1196066.6, 16583.557, 0.0, 5.0150647, 4.971378 
3.9864716e+2, 1.8122795e+2, -1155991.9, -1232145.1, -4460.818, -0.013299166, -0.008338099, -1155731.5, 8223.464, 0.0, 5.014833, 4.9655066 
3.986431e+2, 1.8619359e+2, -1107045.1, -1182451.1, -4794.2515, -0.0096719, -0.012064861, -1106741.5, 8549.642, 0.0, 5.0146203, 4.9657736 
3.9863902e+2, 1.9115922e+2, -1058476.0, -1133552.5, -4904.541, -0.0059699905, -0.01611706, -1058157.0, 8470.3125, 0.0, 5.014404, 4.965774 
3.9863497e+2, 1.9612488e+2, -1010809.06, -1086573.3, -5015.979, -0.0022918521, -0.019877875, -1010478.44, 7484.984, 0.0, 5.0141826, 4.9651246 
3.986308e+2, 2.010873e+2, -970971.2, -1056511.8, -5057.5337, 0.0002449794, -0.013564361, -970673.2, -1341.5603, 0.0, 5.0139675, 4.9586973 
3.9862636e+2, 2.0604695e+2, -921945.25, -1006784.2, -5019.7246, -0.00075527566, -0.009102143, -921649.3, -920.8203, 0.0, 5.013766, 4.958945 
3.9862186e+2, 2.1100664e+2, -873268.5, -957794.3, -5001.0547, -0.0020122086, -0.004679487, -872973.6, -848.5626, 0.0, 5.0135593, 4.958944 
3.9861736e+2, 2.1596633e+2, -825268.1, -910262.5, -4982.5337, -0.003284387, -0.000083199106, -824977.0, -1455.3893, 0.0, 5.013348, 4.958444 
3.9861292e+2, 2.2092214e+2, -784786.6, -879128.7, -5159.2524, -0.0037085249, 0.006628476, -784505.3, -9550.416, 0.0, 5.0131216, 4.9522986 
3.9860842e+2, 2.2587326e+2, -735369.6, -828240.9, -5350.251, -0.0019410491, -0.014750717, -735062.44, -8631.362, 0.0, 5.012845, 4.9529414 
3.9860395e+2, 2.3082429e+2, -686840.06, -779240.44, -5470.9873, -0.000106621206, -0.037984703, -686517.25, -8609.504, 0.0, 5.0125504, 4.9529533 
3.9859942e+2, 2.3577532e+2, -638998.7, -731702.4, -5598.0947, 0.0016299238, -0.06146202, -638661.9, -9277.286, 0.0, 5.01224, 4.9524636 
3.9859492e+2, 2.4072453e+2, -600516.8, -704763.7, -6066.3125, 0.0053657573, -0.05470881, -600165.0, -19285.053, 0.0, 5.0119114, 4.944794 
3.9859068e+2, 2.4567433e+2, -550191.5, -653196.25, -5917.5625, 0.012300456, -0.014532113, -549852.7, -17479.725, 0.0, 5.011883, 4.9455185 
3.9858648e+2, 2.5062427e+2, -500638.4, -603813.5, -5919.4116, 0.019087808, 0.025626888, -500299.9, -16435.154, 0.0, 5.011911, 4.94549 
3.985822e+2, 2.5557435e+2, -451335.34, -554998.94, -5923.399, 0.025914265, 0.067171246, -450998.0, -15642.52, 0.0, 5.011933, 4.945263 
3.985785e+2, 2.6051676e+2, -413476.88, -530966.2, -7930.639, 0.044350132, 0.087903485, -412943.97, -26025.064, 0.0, 5.0117955, 4.936135 
3.9857307e+2, 2.654475e+2, -363876.47, -473391.63, -10774.998, 0.06262205, -0.025198825, -362826.38, -24239.459, 0.0, 5.010237, 4.9390535 
3.9856637e+2, 2.7037832e+2, -319384.63, -424709.9, -13120.597, 0.0723909, -0.15666446, -317774.78, -27521.545, 0.0, 5.0079784, 4.9395943 
3.9855874e+2, 2.753092e+2, -276299.0, -376880.88, -15893.368, 0.07698827, -0.2971874, -273847.38, -31928.268, 0.0, 5.0051613, 4.940093 
3.9856562e+2, 2.802463e+2, -262742.9, -415528.66, -2540.3481, 0.13897529, -0.19753535, -262700.7, -69177.016, 0.0, 5.0062203, 4.9098945 
3.9857706e+2, 2.8518644e+2, -178380.8, -302766.75, -8774.231, 0.15570812, -0.02593951, -177764.9, -32669.719, 0.0, 5.0107985, 4.929639 
3.9857787e+2, 2.9011923e+2, -124137.46, -249386.83, -6128.4575, 0.11493073, -0.021590075, -123838.305, -27099.975, 0.0, 5.012477, 4.930009 
3.985777e+2, 2.9505107e+2, -72121.21, -197133.9, -3934.4226, 0.07174526, -0.03454167, -71997.51, -23606.47, 0.0, 5.0132575, 4.930383 
3.9857852e+2, 2.9999325e+2, -17854.988, -102705.945, 609.1857, 0.05111195, -0.06618673, -17850.615, -17850.615, 0.0, 5.013357, 4.9554973 
3.9857945e+2, 3.0495146e+2, -16278.39, -94452.336, 3439.1382, 0.07059259, -0.11139932, -16127.382, -16127.382, 0.0, 5.01305, 4.957406 
3.9857662e+2, 3.0991724e+2, -19666.615, -91384.29, 4097.304, 0.07041197, -0.11782886, -19433.293, -19433.293, 0.0, 5.0113163, 4.9590263 
3.985711e+2, 3.1488812e+2, -26786.305, -90222.05, 5947.1475, 0.055425, -0.08829075, -26233.572, -26233.572, 0.0, 5.008065, 4.9606466 
4.0369365e+2, 1.2149698e+2, -1705304.6, -1754184.3, -680.0005, 0.008205375, 0.0039712307, -1705295.1, 44020.613, 0.0, 5.018082, 4.9862432 
4.0369302e+2, 1.2647879e+2, -1659052.8, -1709997.0, -1895.303, 0.014500593, -0.025925431, -1658982.3, 41517.656, 0.0, 5.017924, 4.9847536 
4.0369073e+2, 1.3146435e+2, -1610579.5, -1661267.6, -1904.4114, 0.0055431817, -0.018957257, -1610508.0, 41133.984, 0.0, 5.017758, 4.984754 
4.036884e+2, 1.3644986e+2, -1564280.5, -1617011.4, -1903.4241, -0.003393019, -0.010729803, -1564211.9, 38572.414, 0.0, 5.017592, 4.9832706 
4.036861e+2, 1.414321e+2, -1522952.1, -1582948.8, -2559.6926, -0.009365611, 0.007984083, -1522843.1, 31115.217, 0.0, 5.017406, 4.978343 
4.0368366e+2, 1.464102e+2, -1474453.9, -1533908.1, -2724.689, -0.00999715, 0.0018415019, -1474329.3, 30843.51, 0.0, 5.017167, 4.978458 
4.0368125e+2, 1.5138818e+2, -1426129.3, -1485216.4, -2774.3794, -0.010454846, -0.005560825, -1425999.3, 30388.834, 0.0, 5.016925, 4.9784575 
4.036788e+2, 1.5636617e+2, -1379215.1, -1439470.1, -2820.5774, -0.010900177, -0.012512564, -1379083.4, 28520.285, 0.0, 5.0166826, 4.9774714 
4.0367606e+2, 1.613407e+2, -1338737.0, -1407115.3, -3466.2026, -0.011287826, -0.012072821, -1338561.8, 20290.904, 0.0, 5.0164194, 4.972014 
4.0367272e+2, 1.6631298e+2, -1290370.5, -1358079.1, -3644.4343, -0.011378352, -0.013067605, -1290174.9, 19948.72, 0.0, 5.0161066, 4.9721365 
4.0366942e+2, 1.7128527e+2, -1242178.4, -1309408.6, -3701.2139, -0.01142786, -0.013768096, -1241975.3, 19418.844, 0.0, 5.0157914, 4.972136 
4.0366608e+2, 1.762576e+2, -1195116.1, -1263135.5, -3758.1748, -0.011461717, -0.014069944, -1194909.1, 17755.47, 0.0, 5.0154767, 4.971329 
4.0366244e+2, 1.8122639e+2, -1155057.9, -1231952.9, -4612.131, -0.01041013, -0.0073745553, -1154782.3, 9187.7, 0.0, 5.015204, 4.965397 
4.036582e+2, 1.8619193e+2, -1106044.1, -1182294.4, -4924.5, -0.00706549, -0.0108269155, -1105727.4, 9580.404, 0.0, 5.015028, 4.965636 
4.0365392e+2, 1.9115746e+2, -1057349.4, -1133340.1, -5032.41, -0.0036080074, -0.014601555, -1057017.6, 9628.218, 0.0, 5.014856, 4.965636 
4.0364966e+2, 1.9612299e+2, -1009543.56, -1086299.5, -5140.001, -0.0001267282, -0.018082935, -1009200.9, 8782.809, 0.0, 5.0146837, 4.9649854 
4.0364528e+2, 2.0108533e+2, -969373.94, -1055677.0, -5156.882, 0.0023620785, -0.01185089, -969066.9, 286.1351, 0.0, 5.014501, 4.958734 
4.0364063e+2, 2.0604496e+2, -920289.75, -1005780.7, -5027.6143, 0.0015710794, -0.008506162, -919995.1, 754.05994, 0.0, 5.014292, 4.9590445 
4.0363595e+2, 2.1100463e+2, -871628.56, -956801.7, -4915.473, 0.0005715251, -0.0052707396, -871345.8, 799.1744, 0.0, 5.0140815, 4.959044 
4.036313e+2, 2.1596429e+2, -823629.94, -909274.25, -4803.7446, -0.0004013945, -0.0018696585, -823361.4, 179.4397, 0.0, 5.0138707, 4.958544 
4.0362668e+2, 2.2092013e+2, -783390.25, -878727.56, -4944.9565, -0.00004720642, 0.0047091222, -783134.44, -8160.6997, 0.0, 5.0136533, 4.9521956 
4.0362218e+2, 2.2587141e+2, -734098.44, -828154.4, -5199.1733, 0.0039367676, -0.013079331, -733811.9, -7361.3823, 0.0, 5.0133786, 4.952733 
4.0361768e+2, 2.3082262e+2, -685534.0, -779166.06, -5369.372, 0.008178426, -0.032494307, -685227.1, -7299.0957, 0.0, 5.0130973, 4.9527373 
4.0361315e+2, 2.3577379e+2, -637614.75, -731621.06, -5532.9526, 0.012415955, -0.052252773, -637290.25, -7884.447, 0.0, 5.012814, 4.95224 
4.0360862e+2, 2.4072304e+2, -598237.56, -703647.25, -5701.1934, 0.017758604, -0.04401321, -597930.06, -17027.828, 0.0, 5.012647, 4.944867 
4.0360442e+2, 2.4567248e+2, -546782.25, -651282.1, -5271.8203, 0.023473665, -0.009292141, -546517.0, -14120.706, 0.0, 5.01295, 4.9457297 
4.0360028e+2, 2.5062206e+2, -496358.56, -601509.2, -5102.0225, 0.028999522, 0.024914833, -496111.56, -12222.542, 0.0, 5.0132895, 4.945703 
4.0359604e+2, 2.5557175e+2, -446190.63, -552311.2, -4937.778, 0.034717306, 0.060546566, -445961.38, -10580.719, 0.0, 5.0136213, 4.9454784 
4.035927e+2, 2.60514e+2, -407939.63, -531191.8, -6272.515, 0.054977234, 0.08126944, -407621.22, -20675.725, 0.0, 5.01415, 4.9350896 
4.0358907e+2, 2.6544476e+2, -353669.97, -474761.88, -7544.726, 0.090357326, -0.011696355, -353201.7, -14578.657, 0.0, 5.01463, 4.9368463 
4.035844e+2, 2.7037475e+2, -301993.0, -424405.53, -7602.1973, 0.12253207, -0.12532167, -301522.7, -11214.623, 0.0, 5.014985, 4.9369397 
4.0357885e+2, 2.753039e+2, -250272.5, -374308.5, -7341.6367, 0.1534284, -0.25246096, -249839.45, -7837.99, 0.0, 5.0153036, 4.936985 
4.0358603e+2, 2.8023875e+2, -232366.42, -398258.94, 11002.3125, 0.22707324, -0.15637116, -231639.9, -38004.023, 0.0, 5.016402, 4.911139 
4.0359497e+2, 2.8518024e+2, -161415.33, -285680.22, 3810.7222, 0.2131774, -0.0033826528, -161298.58, -16108.61, 0.0, 5.0157666, 4.9327626 
4.035939e+2, 2.9011485e+2, -116843.96, -238618.42, 2361.6313, 0.14782159, -0.011214365, -116798.18, -19988.81, 0.0, 5.0141068, 4.932569 
4.0359196e+2, 2.9504812e+2, -72136.97, -191628.83, 1368.3411, 0.08584593, -0.034514274, -72121.305, -23679.527, 0.0, 5.012351, 4.932375 
4.0359104e+2, 2.999923e+2, -23027.494, -103388.3, 3730.4006, 0.04963814, -0.06614523, -22854.697, -22854.697, 0.0, 5.010911, 4.956137 
4.0359047e+2, 3.0495358e+2, -22190.5, -99047.086, 5579.83, 0.059169617, -0.080751576, -21787.514, -21787.514, 0.0, 5.010679, 4.9566216 
4.0358675e+2, 3.0992082e+2, -20682.248, -93253.29, 4755.6455, 0.0624641, -0.07461581, -20371.934, -20371.934, 0.0, 5.0103917, 4.958452 
4.0358067e+2, 3.1489155e+2, -18972.58, -87661.95, 3989.8052, 0.063397564, -0.055979647, -18741.611, -18741.611, 0.0, 5.0099998, 4.960284 
4.0871137e+2, 1.2149586e+2, -1705899.6, -1755381.5, -783.16693, 0.004685324, 0.0028528224, -1705887.3, 43438.875, 0.0, 5.0180798, 4.9858513 
4.0871045e+2, 1.2647751e+2, -1659069.0, -1710015.0, -2023.0487, 0.0092856595, -0.028121157, -1658988.8, 41523.383, 0.0, 5.0179214, 4.984749 
4.0870818e+2, 1.3146313e+2, -1610595.0, -1661286.6, -2031.0872, 0.0024436435, -0.02044069, -1610513.8, 41139.754, 0.0, 5.017756, 4.984749 
4.0870592e+2, 1.364487e+2, -1564291.6, -1617024.0, -2027.6139, -0.004388929, -0.011501661, -1564213.9, 38581.227, 0.0, 5.01759, 4.9832673 
4.087036e+2, 1.4143097e+2, -1523016.3, -1583073.5, -2732.133, -0.008634604, 0.0075609866, -1522892.3, 31076.639, 0.0, 5.017405, 4.9783025 
4.08701e+2, 1.4640898e+2, -1474545.3, -1534090.6, -2909.161, -0.008543151, 0.001189505, -1474403.4, 30780.639, 0.0, 5.0171657, 4.9783983 
4.0869835e+2, 1.5138689e+2, -1426220.0, -1485398.4, -2958.3396, -0.008330739, -0.00644403, -1426072.5, 30327.832, 0.0, 5.016924, 4.9783974 
4.0869576e+2, 1.5636478e+2, -1379303.4, -1439648.0, -3003.39, -0.008111989, -0.013626516, -1379154.3, 28462.383, 0.0, 5.0166817, 4.9774127 
4.086928e+2, 1.6133927e+2, -1338834.3, -1407314.4, -3696.9663, -0.00800057, -0.013086165, -1338635.3, 20230.918, 0.0, 5.0164185, 4.9719477 
4.0868917e+2, 1.6631153e+2, -1290473.3, -1358291.4, -3885.6196, -0.008042034, -0.013274222, -1290251.4, 19885.836, 0.0, 5.016106, 4.972066 
4.0868554e+2, 1.7128386e+2, -1242280.4, -1309619.6, -3941.5347, -0.008080801, -0.013146582, -1242050.4, 19357.412, 0.0, 5.015791, 4.9720654 
4.0868193e+2, 1.762562e+2, -1195217.0, -1263345.3, -3997.5696, -0.008117254, -0.012622921, -1194983.3, 17695.096, 0.0, 5.015476, 4.9712586 
4.0867797e+2, 1.8122496e+2, -1155214.6, -1232280.1, -4768.977, -0.007294853, -0.005438012, -1154920.6, 9063.619, 0.0, 5.015203, 4.965287 
4.086735e+2, 1.8619034e+2, -1106234.1, -1182690.9, -5053.3613, -0.004652748, -0.009024937, -1105901.6, 9422.666, 0.0, 5.0150266, 4.9655023 
4.0866894e+2, 1.9115573e+2, -1057539.1, -1133734.6, -5159.817, -0.0019298228, -0.012940408, -1057191.3, 9473.037, 0.0, 5.0148544, 4.9655027 
4.0866444e+2, 1.9612111e+2, -1009733.06, -1086692.3, -5265.935, 0.00080026337, -0.016559247, -1009374.4, 8629.927, 0.0, 5.014682, 4.964853 
4.0865985e+2, 2.0108335e+2, -969280.7, -1055462.6, -5314.45, 0.0028520094, -0.010755415, -968954.2, 420.6428, 0.0, 5.014499, 4.958808 
4.0865502e+2, 2.06043e+2, -920095.75, -1005351.1, -5190.5693, 0.0024537516, -0.008612812, -919780.94, 988.90656, 0.0, 5.0142903, 4.959192 
4.086502e+2, 2.110027e+2, -871435.06, -956373.75, -5076.31, 0.0018701969, -0.006616533, -871132.75, 1031.591, 0.0, 5.0140805, 4.9591913 
4.0864536e+2, 2.1596237e+2, -823436.94, -908847.9, -4962.447, 0.0012950277, -0.0044525624, -823149.56, 409.2887, 0.0, 5.0138702, 4.9586906 
4.0864062e+2, 2.2091828e+2, -783521.75, -878985.0, -5125.1294, 0.0025215663, 0.0022555848, -783247.4, -8256.537, 0.0, 5.013649, 4.952108 
4.0863606e+2, 2.2586988e+2, -734404.2, -828753.94, -5380.7446, 0.008891277, -0.010562057, -734098.3, -7630.865, 0.0, 5.0133686, 4.952529 
4.0863156e+2, 2.3082142e+2, -685849.25, -779754.3, -5542.7573, 0.015561136, -0.02454576, -685523.25, -7578.533, 0.0, 5.0130825, 4.952538 
4.08627e+2, 2.3577294e+2, -637939.56, -732198.1, -5698.125, 0.022157928, -0.038827993, -637596.3, -8174.203, 0.0, 5.0127945, 4.952045 
4.086225e+2, 2.4072231e+2, -598171.25, -703145.56, -5569.5454, 0.028503891, -0.028602172, -597876.56, -16957.57, 0.0, 5.0125966, 4.945055 
4.0861827e+2, 2.4567124e+2, -546541.5, -650333.5, -5018.67, 0.031124478, -0.0023229255, -546299.4, -13883.908, 0.0, 5.012891, 4.9460754 
4.0861407e+2, 2.5062025e+2, -496097.47, -600558.2, -4837.8486, 0.033211265, 0.022765746, -495873.88, -11963.111, 0.0, 5.013238, 4.9460464 
4.0860978e+2, 2.5556937e+2, -445909.3, -551357.9, -4662.591, 0.03543598, 0.049262933, -445703.53, -10298.574, 0.0, 5.0135775, 4.945819 
4.0860668e+2, 2.605117e+2, -408284.84, -531266.7, -5507.5405, 0.053089444, 0.06821999, -408038.7, -21069.996, 0.0, 5.0140495, 4.935099 
4.086046e+2, 2.654447e+2, -354967.53, -475377.3, -6247.5205, 0.091924295, 0.0017884634, -354644.25, -16009.491, 0.0, 5.014308, 4.9367437 
4.0860143e+2, 2.7037758e+2, -303809.84, -424584.88, -6019.979, 0.12618719, -0.080411196, -303510.53, -13206.733, 0.0, 5.0144463, 4.9370337 
4.0859744e+2, 2.7530998e+2, -252607.75, -374051.63, -5474.1104, 0.15686554, -0.1736715, -252361.5, -10384.533, 0.0, 5.014548, 4.9372754 
4.08604e+2, 2.8024668e+2, -228993.2, -392634.06, 9950.693, 0.2175148, -0.06986948, -228390.34, -34787.32, 0.0, 5.0166736, 4.9131417 
4.0861046e+2, 2.851859e+2, -157229.86, -284434.34, 2149.8542, 0.20068957, 0.052775986, -157193.53, -12015.036, 0.0, 5.0168347, 4.9332266 
4.086079e+2, 2.901187e+2, -113144.02, -236688.8, 1073.3403, 0.13995604, 0.02514976, -113134.695, -16321.073, 0.0, 5.0149736, 4.933289 
4.0860438e+2, 2.9505038e+2, -68924.39, -189015.89, 452.058, 0.07932075, -0.017643418, -68922.69, -20463.383, 0.0, 5.013017, 4.933351 
4.0860146e+2, 2.999947e+2, -19725.129, -98237.32, 3121.61, 0.03648196, -0.057918742, -19601.21, -19601.21, 0.0, 5.011318, 4.9580626 
4.085987e+2, 3.0496088e+2, -21199.193, -97386.3, 5564.2515, 0.023806777, -0.025418274, -20794.959, -20794.959, 0.0, 5.0108027, 4.9575505 
4.0859267e+2, 3.0993357e+2, -20712.824, -92742.69, 5423.2417, -0.0011577876, 0.044467837, -20306.79, -20306.79, 0.0, 5.0102935, 4.9591537 
4.085841e+2, 3.1491014e+2, -20024.994, -88300.12, 5340.626, -0.035082117, 0.13586408, -19609.764, -19609.764, 0.0, 5.009679, 4.960758 
4.137291e+2, 1.2149469e+2, -1706425.3, -1756436.6, -891.3078, 0.0010216912, 0.001440129, -1706409.4, 42927.51, 0.0, 5.018078, 4.985506 
4.1372785e+2, 1.2647623e+2, -1659085.6, -1710032.6, -2150.1736, 0.004064008, -0.030269323, -1658995.0, 41529.313, 0.0, 5.017919, 4.9847436 
4.1372564e+2, 1.314619e+2, -1610610.9, -1661305.4, -2157.142, -0.00065887766, -0.021892939, -1610519.3, 41145.723, 0.0, 5.0177536, 4.984743 
4.137234e+2, 1.3644755e+2, -1564303.3, -1617036.4, -2151.179, -0.0053840843, -0.012258705, -1564215.6, 38590.2, 0.0, 5.017588, 4.983264 
4.1372102e+2, 1.4142984e+2, -1523084.5, -1583206.0, -2904.1477, -0.007901461, 0.007151561, -1522944.5, 31034.91, 0.0, 5.0174036, 4.9782596 
4.1371828e+2, 1.4640775e+2, -1474636.8, -1534272.9, -3093.5608, -0.0070875674, 0.00054675125, -1474476.8, 30718.623, 0.0, 5.0171647, 4.9783382 
4.137155e+2, 1.5138558e+2, -1426310.9, -1485580.3, -3142.2278, -0.006205218, -0.007325793, -1426144.8, 30267.684, 0.0, 5.016923, 4.978338 
4.1371274e+2, 1.5636338e+2, -1379391.8, -1439825.8, -3186.1274, -0.005322557, -0.014746828, -1379224.3, 28405.31, 0.0, 5.0166807, 4.9773536 
4.1370955e+2, 1.6133782e+2, -1338935.3, -1407520.9, -3927.5242, -0.004712263, -0.0140809575, -1338711.0, 20168.664, 0.0, 5.016418, 4.971879 
4.1370562e+2, 1.663101e+2, -1290576.4, -1358503.4, -4126.954, -0.0047067674, -0.0134623675, -1290326.6, 19824.285, 0.0, 5.0161057, 4.971995 
4.1370168e+2, 1.7128246e+2, -1242382.5, -1309830.6, -4182.0044, -0.0047370093, -0.012517271, -1242124.1, 19297.318, 0.0, 5.0157905, 4.971995 
4.1369772e+2, 1.762548e+2, -1195318.1, -1263554.9, -4237.113, -0.004778272, -0.011178772, -1195056.0, 17636.03, 0.0, 5.0154757, 4.971188 
4.1369352e+2, 1.8122351e+2, -1155374.9, -1232613.9, -4926.514, -0.004176806, -0.0034913095, -1155061.9, 8936.755, 0.0, 5.015202, 4.9651747 
4.1368875e+2, 1.8618877e+2, -1106424.6, -1183087.0, -5182.729, -0.002235569, -0.0072263624, -1106075.8, 9264.891, 0.0, 5.0150256, 4.9653687 
4.1368398e+2, 1.9115399e+2, -1057729.3, -1134128.9, -5287.7295, -0.0002489001, -0.011307226, -1057365.0, 9317.824, 0.0, 5.0148525, 4.965369 
4.1367924e+2, 1.9611923e+2, -1009923.0, -1087084.6, -5392.375, 0.001728295, -0.01508808, -1009547.94, 8477.013, 0.0, 5.0146794, 4.96472 
4.136744e+2, 2.0108138e+2, -969201.6, -1055278.0, -5471.6836, 0.003348014, -0.009580958, -968855.2, 541.42883, 0.0, 5.0144973, 4.9588714 
4.136694e+2, 2.0604104e+2, -919902.3, -1004921.25, -5353.436, 0.003340844, -0.008618058, -919566.5, 1223.8987, 0.0, 5.014289, 4.959339 
4.136644e+2, 2.1100074e+2, -871242.06, -955945.5, -5237.0586, 0.0031693089, -0.007902722, -870919.5, 1264.1536, 0.0, 5.014079, 4.9593377 
4.136594e+2, 2.1596044e+2, -823244.4, -908421.2, -5121.0615, 0.002987911, -0.007017652, -822937.6, 639.2774, 0.0, 5.0138693, 4.9588375 
4.1365454e+2, 2.2091646e+2, -783663.44, -879261.0, -5310.657, 0.005099039, -0.0001985121, -783369.4, -8361.337, 0.0, 5.0136447, 4.952013 
4.1365e+2, 2.2586833e+2, -734712.4, -829351.7, -5568.574, 0.013807479, -0.008177283, -734385.8, -7901.3467, 0.0, 5.013359, 4.9523234 
4.1364545e+2, 2.3082021e+2, -686166.9, -780340.7, -5722.4, 0.02284992, -0.016893407, -685820.44, -7858.926, 0.0, 5.0130677, 4.952337 
4.1364086e+2, 2.3577206e+2, -638266.7, -732773.3, -5869.5527, 0.031750362, -0.025863072, -637903.5, -8464.879, 0.0, 5.012775, 4.951848 
4.1363633e+2, 2.4072164e+2, -598197.4, -702826.1, -5482.9873, 0.03923606, -0.012637009, -597910.8, -16975.51, 0.0, 5.0125456, 4.945177 
4.1363204e+2, 2.4567008e+2, -546313.44, -649372.7, -4766.948, 0.038847305, 0.0056250347, -546093.4, -13659.425, 0.0, 5.012831, 4.94642 
4.136278e+2, 2.506185e+2, -495849.03, -599594.94, -4575.1094, 0.037494384, 0.021376384, -495647.66, -11715.772, 0.0, 5.0131865, 4.9463882 
4.1362348e+2, 2.5556704e+2, -445640.6, -550392.25, -4388.8433, 0.03622538, 0.03852, -445457.03, -10028.298, 0.0, 5.0135336, 4.946158 
4.136207e+2, 2.6050916e+2, -408891.63, -531818.7, -4920.7485, 0.05231894, 0.05420961, -408694.94, -21701.033, 0.0, 5.013949, 4.9349055 
4.1361976e+2, 2.6544422e+2, -356327.22, -475943.13, -5255.091, 0.093404844, 0.009230033, -356096.78, -17445.748, 0.0, 5.0139866, 4.93657 
4.1361776e+2, 2.7037972e+2, -305688.16, -424713.7, -4742.1846, 0.1277748, -0.046691578, -305499.53, -15193.8545, 0.0, 5.013908, 4.9370565 
4.1361484e+2, 2.7531528e+2, -255003.89, -373743.16, -3910.7065, 0.15625352, -0.111218445, -254875.22, -12915.014, 0.0, 5.0137925, 4.937495 
4.1362226e+2, 2.8025475e+2, -228553.38, -393774.63, 10363.84, 0.20985346, 0.020630058, -227905.81, -34337.18, 0.0, 5.0169506, 4.9127693 
4.1362745e+2, 2.8519243e+2, -153200.19, -283041.6, 33.648247, 0.1936274, 0.12748201, -153200.19, -8041.7427, 0.0, 5.0179033, 4.933628 
4.1362298e+2, 2.901232e+2, -109599.164, -234612.17, -671.00757, 0.13494167, 0.07429096, -109595.56, -12784.36, 0.0, 5.015841, 4.9339466 
4.136175e+2, 2.950531e+2, -65866.195, -186255.84, -921.083, 0.07307275, 0.0062348535, -65859.15, -17387.057, 0.0, 5.0136833, 4.934264 
4.1361254e+2, 2.9999676e+2, -17274.186, -94570.8, 2400.5437, 0.024676394, -0.050950278, -17199.705, -17189.305, 0.0, 5.0117254, 4.9593678 
4.1360787e+2, 3.049669e+2, -20371.367, -95565.91, 5817.103, -0.0012859448, 0.0150901675, -19924.014, -19924.014, 0.0, 5.010927, 4.9583507 
4.135998e+2, 3.0994445e+2, -20907.404, -92071.23, 6359.5396, -0.04606738, 0.13435651, -20343.555, -20343.555, 0.0, 5.0101953, 4.9597263 
4.135889e+2, 3.1492636e+2, -21242.602, -88776.555, 6960.8867, -0.10641056, 0.28415036, -20532.592, -20532.592, 0.0, 5.0093575, 4.9611034 
4.1874683e+2, 1.2149351e+2, -1706858.9, -1757314.0, -909.8898, -0.0026233878, -0.00019056787, -1706842.4, 42505.44, 0.0, 5.018078, 4.985218 
4.1874528e+2, 1.2647496e+2, -1659054.3, -1710039.0, -2203.9827, -0.0009548757, -0.03224802, -1658959.1, 41577.137, 0.0, 5.017935, 4.984734 
4.187431e+2, 1.314607e+2, -1610556.9, -1661300.8, -2238.7507, -0.0036447137, -0.023250574, -1610458.3, 41217.996, 0.0, 5.017777, 4.9847336 
4.1874093e+2, 1.364464e+2, -1564241.5, -1617022.6, -2256.877, -0.0063282573, -0.012996818, -1564145.3, 38671.3, 0.0, 5.017613, 4.9832563 
4.187385e+2, 1.414287e+2, -1523087.8, -1583316.5, -3075.1262, -0.0071571902, 0.0067310147, -1522931.1, 31058.877, 0.0, 5.017426, 4.978212 
4.187356e+2, 1.4640655e+2, -1474650.5, -1534421.0, -3283.8398, -0.0056358906, -0.00007337585, -1474470.6, 30736.104, 0.0, 5.0171905, 4.9782767 
4.1873267e+2, 1.5138428e+2, -1426316.5, -1485725.3, -3339.6704, -0.0040927506, -0.008151382, -1426129.4, 30295.281, 0.0, 5.016951, 4.978276 
4.187297e+2, 1.56362e+2, -1379390.6, -1439965.3, -3390.83, -0.002550435, -0.015776493, -1379201.4, 28441.273, 0.0, 5.0167108, 4.977293 
4.1872633e+2, 1.6133639e+2, -1338919.9, -1407673.1, -4179.5767, -0.0014518311, -0.014955132, -1338666.8, 20226.494, 0.0, 5.0164576, 4.9718094 
4.1872206e+2, 1.6630869e+2, -1290481.0, -1358614.6, -4381.085, -0.001423044, -0.013591, -1290200.5, 19964.043, 0.0, 5.0161715, 4.971926 
4.187178e+2, 1.7128102e+2, -1242213.8, -1309906.4, -4427.212, -0.0014576529, -0.011899203, -1241925.4, 19509.828, 0.0, 5.0158815, 4.971926 
4.1871354e+2, 1.7625338e+2, -1195083.9, -1263598.9, -4473.5723, -0.0015056906, -0.009814854, -1194793.0, 17912.898, 0.0, 5.015589, 4.9711194 
4.1870904e+2, 1.8122208e+2, -1155167.8, -1232768.8, -5069.747, -0.0010930339, -0.0016303723, -1154838.0, 9175.127, 0.0, 5.015327, 4.9650636 
4.1870403e+2, 1.8618718e+2, -1106285.1, -1183319.0, -5272.988, 0.00021433568, -0.005449792, -1105925.9, 9431.182, 0.0, 5.0151362, 4.965238 
4.1869903e+2, 1.9115227e+2, -1057645.1, -1134388.0, -5353.2065, 0.0015419113, -0.009642102, -1057273.5, 9427.788, 0.0, 5.0149446, 4.9652386 
4.1869402e+2, 1.9611737e+2, -1009905.5, -1087376.0, -5435.635, 0.002855324, -0.013534789, -1009526.0, 8519.429, 0.0, 5.0147486, 4.964588 
4.1868898e+2, 2.0107943e+2, -969014.8, -1055067.1, -5532.113, 0.0041098865, -0.008174011, -968660.6, 757.5096, 0.0, 5.014538, 4.9589243 
4.1868383e+2, 2.060391e+2, -919703.1, -1004493.7, -5438.8784, 0.004467081, -0.008415738, -919355.6, 1455.1458, 0.0, 5.014291, 4.9594836 
4.1867864e+2, 2.1099882e+2, -871168.5, -955576.94, -5341.0483, 0.004687562, -0.009067733, -870831.9, 1371.0017, 0.0, 5.0140376, 4.9594827 
4.1867346e+2, 2.1595854e+2, -823307.1, -908115.9, -5242.089, 0.004892985, -0.00954953, -822984.3, 610.57715, 0.0, 5.0137806, 4.9589825 
4.1866845e+2, 2.2091462e+2, -784120.25, -879708.56, -5468.8267, 0.007870212, -0.002634397, -783808.4, -8783.123, 0.0, 5.013536, 4.9519076 
4.186639e+2, 2.258668e+2, -735153.7, -830040.25, -5744.3594, 0.018778346, -0.0057826554, -734807.2, -8305.637, 0.0, 5.0133066, 4.952107 
4.186593e+2, 2.3081899e+2, -686489.6, -780972.0, -5922.749, 0.030115824, -0.009320678, -686119.8, -8141.393, 0.0, 5.013057, 4.9521203 
4.1865468e+2, 2.3577116e+2, -638532.06, -733375.06, -6109.797, 0.041317813, -0.013125135, -638140.1, -8684.741, 0.0, 5.0127854, 4.951632 
4.186501e+2, 2.4072097e+2, -598149.7, -702680.0, -5546.903, 0.05021044, 0.0039152256, -597856.1, -16904.6, 0.0, 5.012555, 4.9452186 
4.1864583e+2, 2.456689e+2, -545904.4, -648399.1, -4705.893, 0.047166623, 0.014416388, -545688.75, -13236.247, 0.0, 5.012846, 4.9467444 
4.1864163e+2, 2.5061673e+2, -495409.22, -598608.44, -4589.6064, 0.0426997, 0.020563569, -495205.53, -11252.052, 0.0, 5.013219, 4.946712 
4.186373e+2, 2.5556463e+2, -445149.47, -549382.8, -4472.996, 0.038304195, 0.02813435, -444957.88, -9504.522, 0.0, 5.0135927, 4.9464817 
4.1863492e+2, 2.6050633e+2, -409885.22, -533449.4, -5151.895, 0.054536197, 0.03953251, -409670.78, -22648.154, 0.0, 5.0139017, 4.9343204 
4.1863498e+2, 2.6544273e+2, -360090.44, -479002.7, -6917.0063, 0.10006565, 0.011789701, -359689.44, -21012.75, 0.0, 5.0130415, 4.935813 
4.1863394e+2, 2.7037996e+2, -313590.0, -429516.2, -8622.456, 0.13814792, -0.02446813, -312952.2, -22625.904, 0.0, 5.011512, 4.9363136 
4.18632e+2, 2.7531722e+2, -268448.28, -380856.28, -10698.796, 0.16993938, -0.06928908, -267439.06, -25463.453, 0.0, 5.0094447, 4.9367704 
4.186419e+2, 2.802592e+2, -248511.08, -408169.94, 2599.731, 0.22807418, 0.1035722, -248468.75, -54899.227, 0.0, 5.0110545, 4.9103174 
4.1864648e+2, 2.8519696e+2, -162635.36, -284451.75, -8477.075, 0.20761804, 0.21062264, -162048.28, -16890.912, 0.0, 5.014154, 4.9346647 
4.1863948e+2, 2.901266e+2, -113503.125, -233505.19, -6510.1343, 0.14088841, 0.13043755, -113150.98, -16332.318, 0.0, 5.014044, 4.935013 
4.186315e+2, 2.950554e+2, -66242.75, -183493.45, -4833.875, 0.070326686, 0.035205368, -66043.8, -17555.773, 0.0, 5.0131416, 4.935364 
4.1862434e+2, 2.9999813e+2, -17124.027, -92840.37, 57.829887, 0.015050209, -0.043939732, -17123.982, -17090.207, 0.0, 5.011641, 4.959941 
4.1861814e+2, 3.049711e+2, -22920.54, -94997.95, 4792.147, -0.013348715, 0.038815442, -22603.322, -22603.322, 0.0, 5.0099006, 4.958824 
4.1860855e+2, 3.099523e+2, -29678.602, -94344.81, 7382.5093, -0.062085364, 0.18149593, -28846.496, -28846.496, 0.0, 5.0069904, 4.960115 
4.1859618e+2, 3.149378e+2, -39545.95, -95262.516, 11320.752, -0.12782045, 0.35608554, -37333.594, -37333.594, 0.0, 5.0027966, 4.9614086 
4.237652e+2, 1.214929e+2, -1704318.4, -1756077.9, -533.51404, -0.004232758, -0.00032445745, -1704312.9, 45041.406, 0.0, 5.0189233, 4.98521 
4.237635e+2, 1.2647437e+2, -1656725.1, -1709103.0, -1941.8698, -0.0019286894, -0.031382345, -1656653.3, 43888.992, 0.0, 5.0187526, 4.984643 
4.2376122e+2, 1.3145992e+2, -1608323.0, -1660412.5, -2043.3933, -0.004115186, -0.023146927, -1608243.0, 43440.656, 0.0, 5.018565, 4.9846435 
4.2375895e+2, 1.3644545e+2, -1562079.3, -1616163.5, -2128.7444, -0.006249189, -0.013660271, -1561995.6, 40829.707, 0.0, 5.0183773, 4.98317 
4.2375642e+2, 1.4142762e+2, -1520971.9, -1582452.6, -3037.5134, -0.006546749, 0.0056978795, -1520822.3, 33177.668, 0.0, 5.018171, 4.9781375 
4.2375326e+2, 1.4640546e+2, -1472589.0, -1533601.9, -3271.028, -0.004798015, -0.0004955755, -1472414.1, 32802.992, 0.0, 5.017922, 4.9781957 
4.237501e+2, 1.5138318e+2, -1424294.8, -1484931.3, -3342.6047, -0.0030398087, -0.007920973, -1424111.0, 32324.396, 0.0, 5.0176716, 4.978194 
4.237469e+2, 1.5636088e+2, -1377402.6, -1439190.0, -3407.8994, -0.0012724332, -0.014892849, -1377215.3, 30438.592, 0.0, 5.017421, 4.977212 
4.2374328e+2, 1.6133523e+2, -1336899.6, -1406824.4, -4215.8037, -0.00009911548, -0.013780525, -1336646.4, 22258.795, 0.0, 5.0171676, 4.971753 
4.2373878e+2, 1.6630743e+2, -1288387.8, -1357727.8, -4416.4717, -0.00027311762, -0.012795801, -1288107.6, 22069.717, 0.0, 5.0169077, 4.9718723 
4.2373422e+2, 1.712797e+2, -1240040.4, -1308984.9, -4460.5, -0.0004904518, -0.011489049, -1239753.0, 21696.006, 0.0, 5.0166473, 4.971872 
4.237297e+2, 1.7625193e+2, -1192822.9, -1262638.9, -4504.4185, -0.00069507124, -0.009782702, -1192533.5, 20187.285, 0.0, 5.0163875, 4.9710655 
4.2372492e+2, 1.8122059e+2, -1152851.1, -1231697.8, -5045.1367, -0.00016417209, -0.0016765575, -1152529.6, 11498.834, 0.0, 5.016127, 4.9650474 
4.2371976e+2, 1.8618576e+2, -1104196.4, -1182360.0, -5139.3486, 0.0018497002, -0.004788621, -1103859.9, 11512.187, 0.0, 5.0158596, 4.9652233 
4.237146e+2, 1.911509e+2, -1055785.4, -1133547.6, -5111.824, 0.0039295773, -0.00823927, -1055450.9, 11265.012, 0.0, 5.015591, 4.965222 
4.2370945e+2, 1.9611606e+2, -1008261.2, -1086647.4, -5083.795, 0.006018889, -0.011400002, -1007932.9, 10126.741, 0.0, 5.0153227, 4.96457 
4.237042e+2, 2.0107815e+2, -967570.75, -1054310.0, -5172.7383, 0.007865844, -0.0058921077, -967263.3, 2168.8784, 0.0, 5.0150166, 4.95896 
4.2369866e+2, 2.0603776e+2, -918742.9, -1003937.9, -5194.26, 0.008446801, -0.007060272, -918427.4, 2397.9622, 0.0, 5.0145984, 4.959532 
4.2369318e+2, 2.1099743e+2, -870706.9, -955251.8, -5199.3467, 0.008915009, -0.008644916, -870388.3, 1829.4401, 0.0, 5.014173, 4.9595323 
4.2368767e+2, 2.159571e+2, -823329.56, -908012.8, -5204.846, 0.009395993, -0.010057751, -823010.9, 599.3298, 0.0, 5.0137477, 4.9590335 
4.2368233e+2, 2.2091326e+2, -784483.2, -879963.06, -5326.296, 0.012229867, -0.0027403263, -784187.0, -9146.865, 0.0, 5.013421, 4.951875 
4.2367753e+2, 2.258658e+2, -735139.2, -830303.0, -5400.151, 0.021848796, -0.0013151447, -734833.75, -8319.494, 0.0, 5.0133533, 4.952001 
4.2367274e+2, 2.3081833e+2, -685919.7, -781014.2, -5412.8857, 0.032001518, -0.00013206748, -685612.56, -7623.486, 0.0, 5.0133, 4.952004 
4.236679e+2, 2.3577082e+2, -637349.44, -733173.75, -5419.065, 0.04220309, 0.00062047923, -637043.94, -7579.694, 0.0, 5.0132446, 4.951505 
4.2366317e+2, 2.4072067e+2, -596028.2, -701579.8, -4474.873, 0.05033623, 0.018314395, -595838.8, -14877.631, 0.0, 5.013228, 4.945313 
4.2365915e+2, 2.456679e+2, -543933.6, -647222.0, -3586.7903, 0.0472597, 0.020248368, -543809.25, -11341.025, 0.0, 5.0134306, 4.946914 
4.2365518e+2, 2.5061503e+2, -493875.1, -597629.9, -3545.0525, 0.042958777, 0.017669821, -493754.1, -9778.924, 0.0, 5.0136533, 4.946886 
4.2365113e+2, 2.5556225e+2, -444069.4, -548610.1, -3510.0417, 0.038834896, 0.016695648, -443951.7, -8470.822, 0.0, 5.0138693, 4.9466596 
4.2364904e+2, 2.6050407e+2, -408694.16, -533183.1, -3548.255, 0.05503926, 0.027149955, -408593.1, -21543.904, 0.0, 5.014256, 4.9343534 
4.2364988e+2, 2.65442e+2, -356154.4, -480087.72, -3125.1252, 0.10537887, 0.023092711, -356075.63, -17382.748, 0.0, 5.01459, 4.9350257 
4.2364982e+2, 2.7037978e+2, -304776.1, -430034.2, -1957.0182, 0.15327728, 0.006055235, -304745.53, -14403.517, 0.0, 5.0148125, 4.935095 
4.2364898e+2, 2.753166e+2, -253323.83, -380264.78, -471.48608, 0.1993188, -0.026526643, -253322.08, -11320.9795, 0.0, 5.0150046, 4.935116 
4.236585e+2, 2.8025645e+2, -232383.7, -393764.72, 17403.648, 0.26419702, 0.12377239, -230528.2, -36908.89, 0.0, 5.015533, 4.9132543 
4.236606e+2, 2.8519458e+2, -161368.14, -276789.16, 5216.411, 0.22448164, 0.20935148, -161132.86, -15933.811, 0.0, 5.0141945, 4.936734 
4.236519e+2, 2.9012534e+2, -117747.234, -229866.77, 2753.8027, 0.1439628, 0.12631045, -117679.64, -20835.693, 0.0, 5.012134, 4.9365983 
4.2364237e+2, 2.9505464e+2, -73965.29, -183027.73, 738.12585, 0.06519278, 0.025855616, -73960.29, -25457.666, 0.0, 5.009997, 4.9364624 
4.2363364e+2, 2.9999846e+2, -25249.395, -93258.21, 2472.5635, 0.004510731, -0.053500883, -25159.62, -25126.582, 0.0, 5.00807, 4.9609966 
4.2362574e+2, 3.0497408e+2, -28727.64, -94742.625, 5070.084, -0.026672509, 0.04206797, -28340.518, -28340.518, 0.0, 5.0069966, 4.959856 
4.2361504e+2, 3.0995703e+2, -29710.217, -90384.42, 5120.439, -0.06604526, 0.18266459, -29281.125, -29281.125, 0.0, 5.0058775, 4.961576 
4.2360207e+2, 3.149436e+2, -30505.61, -86216.07, 5268.561, -0.1105715, 0.33888888, -30011.736, -30011.736, 0.0, 5.00467, 4.963297 
4.2878398e+2, 1.2149257e+2, -1704121.3, -1755663.4, -575.32074, -0.0055171456, 0.000018249328, -1704114.8, 45243.613, 0.0, 5.018921, 4.9853473 
4.2878234e+2, 1.2647411e+2, -1656914.6, -1709476.3, -2087.1572, -0.0013642936, -0.02931791, -1656831.9, 43713.105, 0.0, 5.01875, 4.984522 
4.2877987e+2, 1.314594e+2, -1608510.8, -1660785.5, -2187.3015, -0.0035771108, -0.022433357, -1608419.5, 43269.258, 0.0, 5.018563, 4.984522 
4.2877737e+2, 1.3644467e+2, -1562261.0, -1616527.6, -2269.5837, -0.0057572727, -0.0143008325, -1562166.3, 40666.37, 0.0, 5.0183754, 4.9830513 
4.2877463e+2, 1.4142668e+2, -1521106.9, -1582723.5, -3221.358, -0.0060575507, 0.0044058748, -1520938.9, 33069.844, 0.0, 5.0181694, 4.9780483 
4.2877123e+2, 1.464045e+2, -1472721.8, -1533870.3, -3461.9004, -0.004313018, -0.00085258426, -1472526.4, 32699.887, 0.0, 5.017921, 4.978107 
4.2876783e+2, 1.5138224e+2, -1424426.1, -1485198.5, -3532.8364, -0.0025720536, -0.0072913873, -1424221.5, 32223.404, 0.0, 5.0176706, 4.9781055 
4.2876437e+2, 1.5635996e+2, -1377530.4, -1439451.0, -3596.597, -0.00082813716, -0.013281662, -1377322.1, 30341.447, 0.0, 5.01742, 4.977125 
4.287605e+2, 1.6133428e+2, -1336981.3, -1406993.1, -4415.1543, 0.00021258512, -0.0118028, -1336704.0, 22211.527, 0.0, 5.017167, 4.9716973 
4.2875567e+2, 1.6630633e+2, -1288466.1, -1357891.1, -4615.414, -0.00020457552, -0.01161093, -1288160.8, 22028.4, 0.0, 5.016907, 4.971818 
4.2875084e+2, 1.7127846e+2, -1240118.5, -1309148.1, -4658.818, -0.00066687993, -0.011121045, -1239805.4, 21656.752, 0.0, 5.0166473, 4.9718175 
4.28746e+2, 1.7625056e+2, -1192900.3, -1262801.5, -4702.015, -0.0011249627, -0.010231, -1192585.4, 20149.84, 0.0, 5.016387, 4.971011 
4.2874104e+2, 1.8121916e+2, -1152823.9, -1231631.6, -5247.865, -0.00040349024, -0.0024692586, -1152476.0, 11567.541, 0.0, 5.016126, 4.9650702 
4.287357e+2, 1.8618445e+2, -1104146.1, -1182241.3, -5341.868, 0.0028466927, -0.0047301073, -1103782.5, 11603.432, 0.0, 5.015858, 4.9652643 
4.2873043e+2, 1.9114973e+2, -1055735.5, -1133427.8, -5312.5063, 0.006188729, -0.0072742985, -1055374.0, 11354.434, 0.0, 5.0155897, 4.9652634 
4.2872512e+2, 1.96115e+2, -1008211.56, -1086526.1, -5282.6113, 0.009521385, -0.009534329, -1007856.8, 10213.99, 0.0, 5.015321, 4.964612 
4.2871967e+2, 2.0107715e+2, -967542.4, -1054238.6, -5461.702, 0.012268887, -0.0037236356, -967199.7, 2243.137, 0.0, 5.0150156, 4.958985 
4.2871377e+2, 2.0603673e+2, -918748.9, -1003945.0, -5520.43, 0.013099574, -0.0054226597, -918392.7, 2444.1084, 0.0, 5.014598, 4.95953 
4.2870787e+2, 2.1099634e+2, -870712.4, -955259.75, -5523.87, 0.0137884375, -0.0074967304, -870353.0, 1877.1257, 0.0, 5.0141726, 4.9595304 
4.2870194e+2, 2.1595596e+2, -823334.56, -908021.56, -5527.6885, 0.014471028, -0.009393611, -822975.25, 648.17816, 0.0, 5.013747, 4.959031 
4.2869622e+2, 2.2091217e+2, -784482.06, -879910.9, -5440.9063, 0.016698288, -0.0015697841, -784172.8, -9119.615, 0.0, 5.013414, 4.9518957 
4.2869103e+2, 2.258651e+2, -735180.75, -830296.06, -5410.691, 0.023306794, 0.0036488413, -734873.94, -8349.556, 0.0, 5.0133395, 4.9520087 
4.286859e+2, 2.3081802e+2, -685970.8, -780997.6, -5414.49, 0.030210584, 0.0089090485, -685663.3, -7667.2656, 0.0, 5.013282, 4.952016 
4.2868072e+2, 2.3577094e+2, -637410.2, -733147.5, -5411.728, 0.037090663, 0.013769654, -637105.25, -7637.2705, 0.0, 5.013222, 4.9515214 
4.2867577e+2, 2.4072088e+2, -595975.7, -701109.75, -4348.7476, 0.0425163, 0.03173323, -595796.1, -14831.648, 0.0, 5.013178, 4.9454904 
4.2867196e+2, 2.4566749e+2, -543906.7, -646754.06, -3431.9077, 0.039750427, 0.025521182, -543792.3, -11314.461, 0.0, 5.0133724, 4.9470935 
4.286682e+2, 2.5061393e+2, -493831.28, -597163.8, -3379.3826, 0.036046367, 0.014726619, -493720.88, -9729.554, 0.0, 5.0136013, 4.9470615 
4.2866436e+2, 2.5556052e+2, -444008.75, -548145.94, -3333.5918, 0.032465667, 0.0055725323, -443902.16, -8398.655, 0.0, 5.0138235, 4.946831 
4.2866233e+2, 2.605027e+2, -407560.47, -529861.2, -3020.922, 0.04585219, 0.013884026, -407485.9, -20417.014, 0.0, 5.0141497, 4.935566 
4.2866296e+2, 2.6544386e+2, -355292.34, -475731.06, -2060.161, 0.08438958, 0.031124156, -355257.13, -16574.027, 0.0, 5.014263, 4.936705 
4.2866272e+2, 2.703854e+2, -304417.75, -425202.0, -573.85095, 0.11820044, 0.039450116, -304415.03, -14117.635, 0.0, 5.014273, 4.936984 
4.286616e+2, 2.7532643e+2, -253469.13, -374956.75, 1229.4617, 0.14825243, 0.034373034, -253456.69, -11539.245, 0.0, 5.014253, 4.937215 
4.2866927e+2, 2.8026816e+2, -227550.16, -384303.1, 14940.064, 0.1978513, 0.17383118, -226138.94, -32621.156, 0.0, 5.0157456, 4.9166174 
4.2866987e+2, 2.8520256e+2, -159327.94, -279540.53, 2914.121, 0.1713655, 0.22125988, -159257.34, -14129.387, 0.0, 5.015159, 4.9358344 
4.286608e+2, 2.9013026e+2, -116155.48, -231897.98, 828.7997, 0.1078055, 0.12226575, -116149.54, -19353.52, 0.0, 5.012902, 4.9359574 
4.2865083e+2, 2.9505676e+2, -72823.71, -184339.56, -809.28125, 0.043362282, 0.005925285, -72817.836, -24342.275, 0.0, 5.0105677, 4.93608 
4.2864117e+2, 2.9999954e+2, -22767.74, -89071.17, 1227.863, -0.010013725, -0.08082638, -22745.01, -22735.166, 0.0, 5.008377, 4.962587 
4.2863137e+2, 3.0497792e+2, -27051.484, -90323.07, 4379.089, -0.05049347, 0.03577385, -26749.842, -26749.842, 0.0, 5.0069985, 4.9617963 
4.2861858e+2, 3.0996403e+2, -29062.736, -86946.75, 5051.4634, -0.10500586, 0.20772466, -28625.209, -28625.209, 0.0, 5.0056353, 4.9633417 
4.2860332e+2, 3.149542e+2, -30888.621, -83758.89, 5822.0576, -0.17018956, 0.40396205, -30255.09, -30255.09, 0.0, 5.0041842, 4.9648876 
4.3380275e+2, 1.214922e+2, -1703847.5, -1755091.6, -617.78314, -0.007090791, 0.00012236975, -1703840.1, 45522.777, 0.0, 5.0189185, 4.985536 
4.3380114e+2, 1.2647384e+2, -1657104.8, -1709848.9, -2231.8489, -0.00079169206, -0.027216882, -1657010.5, 43537.3, 0.0, 5.018748, 4.9844007 
4.337985e+2, 1.3145888e+2, -1608699.1, -1661158.1, -2330.6143, -0.00302337, -0.02169897, -1608595.8, 43097.926, 0.0, 5.0185604, 4.9844003 
4.337958e+2, 1.364439e+2, -1562443.4, -1616891.3, -2409.8276, -0.0052422322, -0.014936357, -1562336.9, 40503.043, 0.0, 5.0183735, 4.982932 
4.3379286e+2, 1.4142571e+2, -1521247.6, -1583005.6, -3404.6877, -0.005560931, 0.0031282725, -1521060.5, 32957.098, 0.0, 5.0181684, 4.977956 
4.3378922e+2, 1.4640357e+2, -1472854.8, -1534138.5, -3652.8835, -0.0038267986, -0.001200331, -1472637.9, 32597.64, 0.0, 5.01792, 4.9780183 
4.3378553e+2, 1.513813e+2, -1424557.9, -1485465.5, -3723.179, -0.002104028, -0.006664201, -1424331.1, 32123.271, 0.0, 5.0176697, 4.978017 
4.3378186e+2, 1.5635902e+2, -1377658.4, -1439711.9, -3785.4014, -0.0003845222, -0.011684534, -1377428.3, 30245.137, 0.0, 5.017419, 4.9770384 
4.337777e+2, 1.6133331e+2, -1337065.6, -1407167.0, -4614.3784, 0.0005238454, -0.009808148, -1336763.3, 22162.686, 0.0, 5.0171666, 4.9716396 
4.3377262e+2, 1.6630524e+2, -1288544.8, -1358054.5, -4814.286, -0.00013366617, -0.010405349, -1288212.9, 21987.93, 0.0, 5.016907, 4.9717636 
4.337675e+2, 1.7127723e+2, -1240196.6, -1309311.3, -4857.065, -0.0008380502, -0.010741435, -1239857.0, 21618.348, 0.0, 5.0166473, 4.971763 
4.3376237e+2, 1.7624919e+2, -1192977.9, -1262964.1, -4899.5405, -0.001546706, -0.010676793, -1192636.5, 20113.227, 0.0, 5.016387, 4.970957 
4.337571e+2, 1.8121773e+2, -1152802.6, -1231577.4, -5452.1143, -0.0006350663, -0.0032478583, -1152427.1, 11631.551, 0.0, 5.0161247, 4.9650893 
4.3375167e+2, 1.8618314e+2, -1104096.5, -1182122.3, -5545.0757, 0.0038446079, -0.004678351, -1103704.4, 11695.364, 0.0, 5.0158563, 4.965305 
4.3374625e+2, 1.9114855e+2, -1055686.1, -1133307.5, -5513.876, 0.008442102, -0.006347772, -1055296.4, 11444.543, 0.0, 5.015588, 4.9653044 
4.3374082e+2, 1.9611396e+2, -1008162.44, -1086404.8, -5482.1157, 0.013011402, -0.0077387816, -1007780.2, 10301.913, 0.0, 5.015319, 4.9646535 
4.3373513e+2, 2.0107616e+2, -967524.75, -1054189.6, -5750.2056, 0.016667824, -0.0014848022, -967144.9, 2308.4897, 0.0, 5.015014, 4.959002 
4.3372884e+2, 2.060357e+2, -918755.25, -1003951.8, -5846.093, 0.01775094, -0.0036811095, -918356.0, 2492.1626, 0.0, 5.014597, 4.959528 
4.3372253e+2, 2.1099527e+2, -870718.25, -955267.4, -5847.8853, 0.018658059, -0.006279154, -870315.7, 1926.7262, 0.0, 5.014172, 4.959528 
4.3371618e+2, 2.1595484e+2, -823339.9, -908030.06, -5850.0234, 0.019539852, -0.008694615, -822937.7, 698.92706, 0.0, 5.0137467, 4.9590282 
4.3371007e+2, 2.2091109e+2, -784496.06, -879888.3, -5565.765, 0.021207253, -0.00044975005, -784172.44, -9106.002, 0.0, 5.0134068, 4.951905 
4.3370456e+2, 2.2586437e+2, -735224.8, -830287.2, -5427.461, 0.024775004, 0.008384074, -734915.94, -8381.186, 0.0, 5.0133257, 4.952015 
4.3369907e+2, 2.308177e+2, -686024.44, -780979.06, -5422.3223, 0.028375652, 0.017547423, -685715.8, -7712.5435, 0.0, 5.0132637, 4.9520264 
4.336935e+2, 2.3577102e+2, -637473.4, -733119.25, -5410.6167, 0.031880036, 0.026342146, -637168.25, -7696.2793, 0.0, 5.0132003, 4.9515357 
4.336883e+2, 2.4072115e+2, -596018.25, -700831.06, -4262.4316, 0.03470111, 0.045818586, -595845.2, -14877.922, 0.0, 5.0131283, 4.9455986 
4.336847e+2, 2.4566716e+2, -543890.25, -646276.0, -3276.5657, 0.03231388, 0.031988345, -543785.5, -11298.901, 0.0, 5.0133147, 4.947272 
4.336812e+2, 2.5061294e+2, -493797.9, -596687.6, -3213.2568, 0.029209387, 0.012732138, -493697.66, -9690.984, 0.0, 5.01355, 4.947236 
4.3367755e+2, 2.5555888e+2, -443958.53, -547671.7, -3156.6897, 0.02617458, -0.004847484, -443862.56, -8337.084, 0.0, 5.0137777, 4.947002 
4.3367562e+2, 2.60501e+2, -406800.56, -527290.06, -2686.6516, 0.03793363, -0.0005361692, -406740.7, -19649.363, 0.0, 5.014043, 4.936476 
4.3367574e+2, 2.6544502e+2, -354484.72, -471338.4, -1316.5259, 0.06324472, 0.03161287, -354469.9, -15790.407, 0.0, 5.013937, 4.9382954 
4.3367484e+2, 2.703902e+2, -304112.6, -420333.72, 488.01743, 0.080613516, 0.058827534, -304110.56, -13849.593, 0.0, 5.0137343, 4.9387846 
4.33673e+2, 2.753352e+2, -253666.44, -369612.5, 2609.0803, 0.09232152, 0.07478451, -253607.77, -11763.783, 0.0, 5.0135016, 4.9392257 
4.3368033e+2, 2.8027996e+2, -226369.92, -383264.16, 13777.691, 0.13347514, 0.22811703, -225169.22, -31753.828, 0.0, 5.0159626, 4.917024 
4.336805e+2, 2.8521153e+2, -157409.67, -282179.1, 146.79047, 0.12468751, 0.25536203, -157409.5, -12362.024, 0.0, 5.0161242, 4.934857 
4.3367073e+2, 2.9013592e+2, -114685.27, -233814.9, -1561.9268, 0.07547482, 0.13365349, -114664.8, -17923.928, 0.0, 5.01367, 4.9352384 
4.336599e+2, 2.950594e+2, -71803.31, -185535.6, -2823.1816, 0.022746196, -0.005334036, -71733.28, -23289.861, 0.0, 5.011139, 4.93562 
4.336493e+2, 3.000003e+2, -20881.328, -85865.09, -178.02454, -0.022698307, -0.10933748, -20880.84, -20880.84, 0.0, 5.008684, 4.9637475 
4.336378e+2, 3.0498055e+2, -25511.865, -85772.48, 3882.8262, -0.06474604, 0.014403205, -25262.709, -25262.709, 0.0, 5.0070004, 4.9636173 
4.3362302e+2, 3.0996922e+2, -28551.781, -83375.09, 5176.6206, -0.1269998, 0.20372985, -28067.268, -28067.268, 0.0, 5.005394, 4.9649873 
4.3360558e+2, 3.1496236e+2, -31408.727, -81165.086, 6569.437, -0.20544015, 0.4259979, -30555.965, -30555.965, 0.0, 5.003699, 4.966358 
4.3882152e+2, 1.2149182e+2, -1703134.1, -1754248.1, -580.5987, -0.008875406, 0.000046726793, -1703127.6, 46239.85, 0.0, 5.0190496, 4.985749 
4.3881997e+2, 1.264736e+2, -1656958.4, -1710061.6, -2312.405, -0.00027373966, -0.02504876, -1656857.9, 43692.52, 0.0, 5.0188575, 4.9842777 
4.388171e+2, 1.3145837e+2, -1608594.9, -1661391.4, -2414.4688, -0.002483988, -0.020922855, -1608484.6, 43213.996, 0.0, 5.0186563, 4.9842772 
4.3881425e+2, 1.3644311e+2, -1562379.5, -1617137.4, -2493.2166, -0.004693264, -0.015553571, -1562266.3, 40580.906, 0.0, 5.0184536, 4.9828124 
4.388111e+2, 1.4142478e+2, -1521184.0, -1583197.0, -3528.6838, -0.0050155637, 0.0018663579, -1520983.9, 33042.664, 0.0, 5.018237, 4.977859 
4.388072e+2, 1.4640261e+2, -1472787.6, -1534310.0, -3786.1023, -0.0032989758, -0.0015463046, -1472555.5, 32689.098, 0.0, 5.0179863, 4.9779296 
4.3880326e+2, 1.5138036e+2, -1424498.6, -1485639.9, -3857.1533, -0.001591699, -0.0060495813, -1424256.3, 32207.545, 0.0, 5.017733, 4.977928 
4.3879935e+2, 1.563581e+2, -1377606.0, -1439884.6, -3918.6113, 0.00011180839, -0.010109394, -1377360.4, 30322.73, 0.0, 5.0174794, 4.9769516 
4.387949e+2, 1.6133235e+2, -1336994.1, -1407266.4, -4756.3955, 0.0009041759, -0.0077952933, -1336673.6, 22262.531, 0.0, 5.01722, 4.971581 
4.3878952e+2, 1.6630416e+2, -1288518.0, -1358164.0, -4949.324, 0.000027152511, -0.009157027, -1288168.0, 22044.455, 0.0, 5.0169425, 4.97171 
4.3878412e+2, 1.71276e+2, -1240229.5, -1309449.8, -4984.2886, -0.00089123787, -0.0103084585, -1239872.4, 21615.94, 0.0, 5.016662, 4.9717097 
4.3877873e+2, 1.7624784e+2, -1193076.0, -1263133.8, -5018.7876, -0.0018145673, -0.011060629, -1192718.4, 20045.82, 0.0, 5.0163794, 4.970903 
4.387732e+2, 1.8121631e+2, -1152858.0, -1231570.3, -5572.43, -0.0007165937, -0.003939498, -1152465.4, 11608.216, 0.0, 5.0160995, 4.965103 
4.3876764e+2, 1.8618184e+2, -1104124.3, -1182044.3, -5668.4307, 0.0048911977, -0.004544272, -1103714.1, 11699.43, 0.0, 5.0158286, 4.9653435 
4.3876207e+2, 1.9114737e+2, -1055727.9, -1133235.5, -5642.2466, 0.010658034, -0.0053532626, -1055319.4, 11434.084, 0.0, 5.0155554, 4.9653435 
4.3875647e+2, 1.9611292e+2, -1008228.1, -1086343.0, -5616.084, 0.016397148, -0.005889565, -1007826.44, 10266.83, 0.0, 5.0152783, 4.9646926 
4.3875057e+2, 2.0107523e+2, -967635.1, -1054225.8, -5979.054, 0.020943347, 0.000939782, -967224.25, 2239.4958, 0.0, 5.0149736, 4.9590087 
4.387439e+2, 2.060347e+2, -918808.8, -1003990.25, -6137.4087, 0.022299252, -0.0017514656, -918368.9, 2490.5383, 0.0, 5.014582, 4.9595222 
4.3873718e+2, 2.1099418e+2, -870709.2, -955276.56, -6165.183, 0.023459887, -0.0049323686, -870262.1, 1992.5464, 0.0, 5.0141788, 4.9595222 
4.3873048e+2, 2.159537e+2, -823283.4, -908017.0, -6192.5063, 0.024595082, -0.007921572, -822833.2, 816.664, 0.0, 5.0137706, 4.9590225 
4.3872398e+2, 2.2090997e+2, -784442.7, -879864.8, -5740.561, 0.025807248, 0.00064348517, -784098.56, -9018.773, 0.0, 5.0134296, 4.951902 
4.3871808e+2, 2.258636e+2, -735298.3, -830311.44, -5480.829, 0.026367268, 0.01287199, -734983.2, -8437.812, 0.0, 5.0133038, 4.9520144 
4.3871218e+2, 2.3081732e+2, -686281.3, -781087.4, -5465.0444, 0.026741158, 0.025668433, -685967.3, -7956.4517, 0.0, 5.0131774, 4.952026 
4.387063e+2, 2.35771e+2, -637963.5, -733333.1, -5456.2266, 0.027013894, 0.038075004, -637652.4, -8175.716, 0.0, 5.0130324, 4.951535 
4.3870085e+2, 2.4072136e+2, -596756.94, -701079.3, -4262.8438, 0.027557634, 0.060039144, -596583.06, -15612.927, 0.0, 5.012863, 4.9456286 
4.3869743e+2, 2.456668e+2, -544750.75, -646261.3, -3236.9006, 0.025814276, 0.03919597, -544647.6, -12152.439, 0.0, 5.0129504, 4.9474344 
4.3869418e+2, 2.5061193e+2, -494878.1, -596765.44, -3229.0579, 0.023537507, 0.011420597, -494775.88, -10753.815, 0.0, 5.013112, 4.9474006 
4.3869084e+2, 2.5555718e+2, -445184.44, -547806.9, -3212.8787, 0.021303026, -0.014636526, -445083.94, -9536.37, 0.0, 5.0132947, 4.9471684 
4.3868908e+2, 2.60499e+2, -408214.8, -526817.4, -3051.8953, 0.033233196, -0.015517557, -408136.34, -21019.045, 0.0, 5.013393, 4.936898 
4.3868855e+2, 2.654452e+2, -358107.94, -470395.88, -3216.5938, 0.047849786, 0.026631799, -358015.84, -19330.127, 0.0, 5.012272, 4.9392705 
4.3868685e+2, 2.7039298e+2, -312398.3, -421362.34, -3799.313, 0.052958596, 0.065898985, -312266.0, -22022.379, 0.0, 5.010437, 4.939771 
4.3868425e+2, 2.753406e+2, -268178.75, -373245.4, -4849.074, 0.052742597, 0.09410228, -267955.44, -26152.625, 0.0, 5.008012, 4.940227 
4.3869284e+2, 2.802883e+2, -249909.13, -398744.3, 3486.364, 0.0986919, 0.28036436, -249827.5, -56481.527, 0.0, 5.008693, 4.914754 
4.3869328e+2, 2.852188e+2, -171253.16, -288647.84, -9644.827, 0.102251776, 0.30586565, -170466.05, -25483.184, 0.0, 5.0113664, 4.9345255 
4.3868208e+2, 2.9014078e+2, -121795.86, -237286.56, -8441.005, 0.056093257, 0.1578184, -121182.18, -24488.611, 0.0, 5.0112967, 4.934922 
4.3866992e+2, 2.9506183e+2, -74326.43, -186939.84, -7637.1436, 0.006846301, -0.007589589, -73810.86, -25397.348, 0.0, 5.010408, 4.9353213 
4.3865806e+2, 3.0000055e+2, -20249.105, -83952.86, -3532.1467, -0.032759026, -0.13606781, -20053.857, -20053.857, 0.0, 5.0087643, 4.9643364 
4.3864515e+2, 3.0498162e+2, -25563.238, -81957.15, 1527.3496, -0.0666097, -0.021823311, -25521.902, -25521.902, 0.0, 5.006483, 4.965088 
4.3862897e+2, 3.0997163e+2, -34239.242, -82035.72, 4371.754, -0.12077783, 0.16042754, -33842.668, -33842.668, 0.0, 5.0029125, 4.966402 
4.3861026e+2, 3.1496614e+2, -46447.445, -83846.24, 8371.192, -0.19048735, 0.37692884, -44659.18, -44659.18, 0.0, 4.99793, 4.967719 
4.4384113e+2, 1.2149198e+2, -1699919.6, -1753331.1, -304.25278, -0.010010579, 0.0007058673, -1699917.9, 49448.652, 0.0, 5.0202584, 4.9854584 
4.438393e+2, 1.2647378e+2, -1653750.3, -1708767.0, -2038.8286, -0.0013671692, -0.022695046, -1653674.9, 46874.31, 0.0, 5.0199823, 4.9841547 
4.438363e+2, 1.3145828e+2, -1605603.8, -1660204.3, -2134.5432, -0.0027019517, -0.019930411, -1605520.4, 46179.406, 0.0, 5.0197115, 4.984156 
4.438333e+2, 1.3644277e+2, -1559595.4, -1616044.8, -2206.5706, -0.0040282723, -0.015915086, -1559509.3, 43341.445, 0.0, 5.01944, 4.9826956 
4.4382992e+2, 1.4142425e+2, -1518556.9, -1582132.5, -3259.3157, -0.0037885713, 0.0007415136, -1518390.1, 35641.63, 0.0, 5.019163, 4.9777627 
4.4382578e+2, 1.4640208e+2, -1470303.1, -1533324.3, -3529.989, -0.002134258, -0.0019749645, -1470106.0, 35144.438, 0.0, 5.0188684, 4.9778304 
4.4382155e+2, 1.513798e+2, -1422147.9, -1484721.1, -3613.5327, -0.0004909733, -0.005706862, -1421939.9, 34530.203, 0.0, 5.018573, 4.97783 
4.4381735e+2, 1.563575e+2, -1375383.4, -1439025.4, -3686.803, 0.0011614132, -0.008981879, -1375170.5, 32519.215, 0.0, 5.018277, 4.9768558 
4.438126e+2, 1.6133173e+2, -1334858.1, -1406317.4, -4559.632, 0.0019695424, -0.0062385853, -1334568.3, 24374.887, 0.0, 5.0179615, 4.9715433 
4.4380695e+2, 1.6630347e+2, -1286627.5, -1357311.3, -4740.624, 0.0012204548, -0.0079658665, -1286311.0, 23909.209, 0.0, 5.017597, 4.9716835 
4.438012e+2, 1.7127524e+2, -1238596.5, -1308724.8, -4754.8813, 0.00044602485, -0.009514303, -1238275.6, 23221.096, 0.0, 5.0172305, 4.971683 
4.437955e+2, 1.7624703e+2, -1191692.1, -1262530.9, -4768.2896, -0.00031789578, -0.010667218, -1191372.6, 21400.627, 0.0, 5.0168643, 4.9708767 
4.4378966e+2, 1.8121548e+2, -1151639.8, -1230965.6, -5290.3013, 0.00076596276, -0.0035454691, -1151288.5, 12794.414, 0.0, 5.0165095, 4.9651136 
4.4378376e+2, 1.8618114e+2, -1103073.5, -1181503.9, -5397.3247, 0.0059617115, -0.0030998283, -1102703.9, 12717.769, 0.0, 5.0161786, 4.965362 
4.4377783e+2, 1.9114679e+2, -1054846.3, -1132778.4, -5389.69, 0.011346309, -0.0028033012, -1054475.3, 12285.047, 0.0, 5.015848, 4.9653616 
4.437719e+2, 1.9611247e+2, -1007504.3, -1085963.3, -5380.989, 0.016748704, -0.0022334273, -1007137.0, 10961.89, 0.0, 5.0155177, 4.9647107 
4.437657e+2, 2.0107482e+2, -967097.25, -1054108.6, -5803.883, 0.021215843, 0.0051688016, -966711.8, 2757.189, 0.0, 5.015185, 4.9589515 
4.437587e+2, 2.0603414e+2, -918232.0, -1003956.3, -6062.698, 0.02298977, 0.0017123121, -917805.4, 3061.6733, 0.0, 5.0148287, 4.959421 
4.4375163e+2, 2.1099344e+2, -870008.6, -955183.6, -6179.276, 0.0246313, -0.0022775847, -869562.7, 2702.1033, 0.0, 5.0144696, 4.9594216 
4.437446e+2, 2.1595275e+2, -822444.94, -907859.3, -6296.276, 0.026295727, -0.0060531693, -821983.3, 1679.1191, 0.0, 5.01411, 4.958923 
4.4373775e+2, 2.2090895e+2, -783282.2, -879069.56, -5771.0894, 0.027368251, 0.0017837804, -782935.75, -7842.335, 0.0, 5.0137777, 4.9520197 
4.437314e+2, 2.2586274e+2, -734435.1, -829448.1, -5233.496, 0.0253675, 0.013776668, -734147.75, -7592.1963, 0.0, 5.013499, 4.9522305 
4.4372508e+2, 2.3081663e+2, -685851.9, -780458.06, -4955.114, 0.023111867, 0.026324334, -685593.06, -7575.6343, 0.0, 5.0132213, 4.9522333 
4.4371873e+2, 2.3577048e+2, -637913.0, -732912.56, -4667.987, 0.020899452, 0.03837134, -637684.2, -8204.48, 0.0, 5.012942, 4.951734 
4.4371295e+2, 2.4072093e+2, -597181.6, -701101.4, -3210.1519, 0.019921193, 0.0592142, -597082.56, -16111.107, 0.0, 5.012621, 4.9457507 
4.4370943e+2, 2.4566638e+2, -546900.2, -647398.2, -2309.6404, 0.020296182, 0.03826269, -546847.2, -14348.2705, 0.0, 5.0121546, 4.947425 
4.4370615e+2, 2.506115e+2, -498847.13, -598698.75, -2432.204, 0.020588303, 0.010913135, -498787.94, -14759.756, 0.0, 5.0116673, 4.9474025 
4.4370282e+2, 2.5555682e+2, -451032.72, -550559.25, -2564.8862, 0.020987311, -0.014695895, -450966.66, -15410.688, 0.0, 5.0111732, 4.947182 
4.4370082e+2, 2.6049894e+2, -414666.03, -528961.56, -2159.9219, 0.033047944, -0.013909858, -414625.22, -27501.658, 0.0, 5.010809, 4.9373875 
4.4369954e+2, 2.6544583e+2, -362993.53, -472902.8, -709.35614, 0.044255424, 0.03304192, -362988.94, -24308.854, 0.0, 5.010185, 4.9395676 
4.436973e+2, 2.7039343e+2, -314413.53, -424188.4, 1165.7334, 0.050931238, 0.07314478, -314401.16, -24167.313, 0.0, 5.00942, 4.9396033 
4.4369438e+2, 2.7533993e+2, -265744.66, -375732.44, 3377.7783, 0.057641897, 0.09762735, -265641.03, -23843.006, 0.0, 5.008622, 4.9395914 
4.4370145e+2, 2.802857e+2, -248743.48, -393641.88, 15528.268, 0.10994009, 0.2635328, -247098.06, -53742.2, 0.0, 5.00825, 4.916451 
4.437006e+2, 2.852171e+2, -180495.44, -288329.47, 2118.869, 0.102358885, 0.2830506, -180453.81, -35466.242, 0.0, 5.0078564, 4.935399 
4.436894e+2, 2.901404e+2, -133030.98, -239783.75, -1098.6389, 0.04966573, 0.14148279, -133019.67, -36329.086, 0.0, 5.0071692, 4.935242 
4.4367748e+2, 2.9506218e+2, -85433.79, -191340.66, -3879.6343, 0.0009107323, -0.017831393, -85291.86, -36883.984, 0.0, 5.0064096, 4.935086 
4.436659e+2, 3.0000147e+2, -27002.932, -85559.7, -3170.3396, -0.033370532, -0.14301333, -26831.785, -26831.785, 0.0, 5.005771, 4.96484 
4.4365257e+2, 3.0498272e+2, -25112.168, -78947.81, -785.9817, -0.059017953, -0.04320693, -25100.695, -25100.695, 0.0, 5.0056167, 4.966394 
4.4363657e+2, 3.09972e+2, -23991.729, -73952.35, -781.7163, -0.090719216, 0.10818946, -23979.5, -23979.5, 0.0, 5.0053916, 4.9679847 
4.4361874e+2, 3.1496483e+2, -22712.969, -69116.97, -831.8905, -0.122850806, 0.277233, -22698.06, -22698.06, 0.0, 5.0050845, 4.9695764 
4.488613e+2, 1.214924e+2, -1700602.1, -1754707.4, -586.8138, -0.011163548, 0.0012647697, -1700595.8, 48767.18, 0.0, 5.020256, 4.9850082 
4.4885913e+2, 1.2647422e+2, -1653931.6, -1709125.6, -2246.8474, -0.0031898795, -0.020347029, -1653840.3, 46705.14, 0.0, 5.0199804, 4.984038 
4.4885597e+2, 1.3145848e+2, -1605783.6, -1660562.4, -2341.4016, -0.0032719714, -0.018888593, -1605683.8, 46014.773, 0.0, 5.0197096, 4.9840384 
4.488528e+2, 1.364427e+2, -1559769.3, -1616393.0, -2410.6016, -0.0033608621, -0.016179219, -1559666.9, 43184.934, 0.0, 5.0194387, 4.9825807 
4.4884923e+2, 1.4142402e+2, -1518705.0, -1582433.9, -3483.2595, -0.0023366872, -0.00030509435, -1518515.1, 35519.457, 0.0, 5.019162, 4.9776635 
4.4884476e+2, 1.4640178e+2, -1470458.3, -1533642.8, -3755.808, -0.0007631148, -0.0024174547, -1470235.8, 35018.027, 0.0, 5.018868, 4.977725 
4.4884026e+2, 1.5137945e+2, -1422301.9, -1485038.8, -3838.9663, 0.00077343994, -0.0054813046, -1422067.8, 34406.133, 0.0, 5.0185723, 4.9777246 
4.4883576e+2, 1.5635714e+2, -1375533.3, -1439335.9, -3910.7083, 0.0023158882, -0.00808891, -1375294.5, 32399.654, 0.0, 5.0182767, 4.9767523 
4.4883072e+2, 1.6133133e+2, -1334906.1, -1406415.3, -4829.1406, 0.0031465688, -0.0049574557, -1334581.5, 24366.533, 0.0, 5.017961, 4.971511 
4.4882467e+2, 1.6630302e+2, -1286653.1, -1357362.0, -5020.7666, 0.0026596375, -0.0068945014, -1286298.4, 23927.076, 0.0, 5.0175967, 4.9716673 
4.488186e+2, 1.7127477e+2, -1238622.0, -1308775.4, -5034.3857, 0.002140241, -0.008673743, -1238262.6, 23239.797, 0.0, 5.01723, 4.9716663 
4.4881257e+2, 1.762465e+2, -1191717.3, -1262580.5, -5046.9604, 0.0016214976, -0.010058121, -1191359.6, 21419.838, 0.0, 5.016864, 4.9708605 
4.4880638e+2, 1.8121496e+2, -1151630.5, -1230941.1, -5548.125, 0.002583064, -0.002811019, -1151244.3, 12844.704, 0.0, 5.016509, 4.965122 
4.4880003e+2, 1.8618074e+2, -1103061.6, -1181471.0, -5647.6484, 0.0068387785, -0.0012504805, -1102657.0, 12769.68, 0.0, 5.016177, 4.9653735 
4.4879368e+2, 1.9114652e+2, -1054835.3, -1132744.6, -5638.5825, 0.01124065, 0.00021608271, -1054429.3, 12334.82, 0.0, 5.0158467, 4.9653735 
4.4878733e+2, 1.9611233e+2, -1007494.3, -1085928.6, -5628.416, 0.01564789, 0.001953944, -1007092.5, 11009.064, 0.0, 5.015516, 4.964723 
4.4878075e+2, 2.0107475e+2, -967230.8, -1054377.3, -6070.8003, 0.019563293, 0.010050934, -966809.94, 2661.5542, 0.0, 5.0151825, 4.9588614 
4.487734e+2, 2.0603384e+2, -918435.0, -1004377.9, -6339.323, 0.02177473, 0.005822755, -917969.9, 2902.4504, 0.0, 5.0148263, 4.959279 
4.4876605e+2, 2.1099292e+2, -870209.1, -955604.7, -6453.994, 0.023873216, 0.00096015865, -869724.06, 2549.0405, 0.0, 5.0144672, 4.959279 
4.4875866e+2, 2.1595201e+2, -822642.94, -908279.9, -6569.059, 0.025980327, -0.0036849298, -822142.0, 1531.8257, 0.0, 5.0141087, 4.9587793 
4.4875148e+2, 2.2090802e+2, -783048.3, -878521.75, -5993.0293, 0.026865164, 0.0028143958, -782673.6, -7567.222, 0.0, 5.0137725, 4.95221 
4.487446e+2, 2.2586192e+2, -733991.06, -828388.7, -5417.2554, 0.022286763, 0.012503819, -733681.2, -7116.4233, 0.0, 5.013487, 4.9525995 
4.4873777e+2, 2.3081595e+2, -685425.06, -779391.25, -5128.1284, 0.017162133, 0.022799768, -685146.0, -7123.6963, 0.0, 5.0132036, 4.9526076 
4.4873086e+2, 2.3576993e+2, -637503.4, -731838.1, -4830.2354, 0.012003554, 0.03265368, -637256.7, -7776.4937, 0.0, 5.012919, 4.9521136 
4.4872463e+2, 2.4072058e+2, -597111.44, -700622.6, -3470.0894, 0.009008555, 0.05207997, -596995.25, -16026.767, 0.0, 5.0125732, 4.9459352 
4.487208e+2, 2.4566643e+2, -547123.9, -647579.6, -2698.163, 0.01149289, 0.035076916, -547051.44, -14556.074, 0.0, 5.012106, 4.9473834 
4.4871724e+2, 2.50612e+2, -499036.13, -598879.9, -2807.3447, 0.014309858, 0.01250366, -498957.25, -14932.959, 0.0, 5.01163, 4.947355 
4.4871357e+2, 2.5555772e+2, -451187.16, -550740.1, -2926.629, 0.017207958, -0.008329572, -451101.2, -15549.406, 0.0, 5.0111485, 4.947128 
4.4871092e+2, 2.605004e+2, -413307.53, -525465.4, -2324.3906, 0.027234552, -0.0051047676, -413259.38, -26144.197, 0.0, 5.0107436, 4.938642 
4.4870794e+2, 2.6544842e+2, -361139.56, -466609.22, -436.93674, 0.021467373, 0.034942374, -361137.75, -22485.488, 0.0, 5.00989, 4.9418902 
4.4870389e+2, 2.7039763e+2, -313171.03, -417509.97, 1757.5796, 0.007919901, 0.06972806, -313141.44, -22960.627, 0.0, 5.00889, 4.9421215 
4.4869906e+2, 2.7534622e+2, -265113.66, -368667.7, 4288.5747, -0.007663405, 0.09178714, -264936.34, -23221.078, 0.0, 5.0078573, 4.942305 
4.4870293e+2, 2.8029323e+2, -245855.98, -388989.7, 13154.682, 0.0233606, 0.2427668, -244657.05, -51402.305, 0.0, 5.0084987, 4.9180946 
4.4870228e+2, 2.8522268e+2, -179295.27, -293909.84, 881.84784, 0.035190836, 0.25435168, -179288.48, -34375.188, 0.0, 5.0088873, 4.933422 
4.4869292e+2, 2.9014438e+2, -132393.03, -244803.34, -1968.205, 0.008798775, 0.119137615, -132358.58, -35716.9, 0.0, 5.0079784, 4.9334903 
4.486829e+2, 2.9506487e+2, -85357.77, -195800.13, -4381.1646, -0.016154855, -0.03254598, -85184.25, -36802.86, 0.0, 5.006997, 4.933559 
4.486727e+2, 3.000035e+2, -25122.887, -83680.56, -3596.1733, -0.032523856, -0.15199642, -24902.863, -24902.863, 0.0, 5.006122, 4.9656057 
4.4865945e+2, 3.0498493e+2, -22468.684, -74220.87, -938.129, -0.05608331, -0.05913783, -22451.682, -22451.682, 0.0, 5.0058126, 4.968385 
4.4864324e+2, 3.0997452e+2, -21975.176, -70242.516, -379.7223, -0.091998145, 0.09016532, -21972.188, -21972.188, 0.0, 5.0054836, 4.9697375 
4.4862506e+2, 3.1496784e+2, -21323.816, -66423.06, 124.57136, -0.13357969, 0.26276824, -21323.473, -21323.473, 0.0, 5.005072, 4.9710903 
4.538814e+2, 1.21492766e+2, -1701198.5, -1755907.4, -865.24146, -0.012518519, 0.001405118, -1701184.9, 48174.95, 0.0, 5.0202537, 4.9846153 
4.5387894e+2, 1.2647466e+2, -1654113.4, -1709483.9, -2454.4941, -0.0050269742, -0.0179641, -1654004.8, 46536.97, 0.0, 5.0199785, 4.9839206 
4.5387563e+2, 1.3145867e+2, -1605963.9, -1660920.3, -2547.8875, -0.0038537343, -0.01782822, -1605846.0, 45851.12, 0.0, 5.019708, 4.983921 
4.5387232e+2, 1.3644265e+2, -1559943.6, -1616741.0, -2614.273, -0.0027025607, -0.016441155, -1559823.5, 43029.3, 0.0, 5.019437, 4.982466 
4.5386857e+2, 1.4142376e+2, -1518858.0, -1582745.1, -3706.6245, -0.0008856955, -0.0013395186, -1518643.8, 35393.754, 0.0, 5.0191617, 4.977561 
4.5386377e+2, 1.464015e+2, -1470613.5, -1533961.3, -3981.6072, 0.0006094891, -0.0028488385, -1470364.3, 34892.92, 0.0, 5.0188675, 4.9776196 
4.5385894e+2, 1.5137914e+2, -1422456.0, -1485356.4, -4064.38, 0.0020403154, -0.0052520735, -1422194.4, 34283.37, 0.0, 5.018572, 4.977619 
4.538541e+2, 1.5635677e+2, -1375683.3, -1439646.4, -4134.59, 0.0034738267, -0.0071996967, -1375417.1, 32281.37, 0.0, 5.018276, 4.9766493 
4.5384878e+2, 1.6133094e+2, -1334956.6, -1406518.0, -5098.765, 0.004320773, -0.003663505, -1334595.3, 24357.617, 0.0, 5.0179605, 4.9714766 
4.538424e+2, 1.6630258e+2, -1286678.9, -1357412.6, -5300.9517, 0.0040953783, -0.005810207, -1286283.8, 23946.87, 0.0, 5.0175962, 4.97165 
4.5383602e+2, 1.7127427e+2, -1238647.8, -1308825.8, -5313.932, 0.003832575, -0.007827592, -1238247.8, 23260.432, 0.0, 5.0172296, 4.9716496 
4.5382962e+2, 1.7624597e+2, -1191742.5, -1262630.0, -5325.671, 0.0035605684, -0.009450767, -1191344.6, 21440.955, 0.0, 5.0168633, 4.970844 
4.5382306e+2, 1.8121447e+2, -1151624.0, -1230921.6, -5806.4277, 0.0044003245, -0.00207696, -1151201.1, 12894.043, 0.0, 5.016508, 4.9651284 
4.538163e+2, 1.8618034e+2, -1103050.1, -1181437.9, -5898.638, 0.0077147046, 0.00057678454, -1102608.8, 12822.932, 0.0, 5.016176, 4.9653845 
4.538095e+2, 1.9114627e+2, -1054824.8, -1132710.6, -5888.1416, 0.011132561, 0.0031853477, -1054382.1, 12385.94, 0.0, 5.0158453, 4.965385 
4.5380273e+2, 1.961122e+2, -1007484.7, -1085893.9, -5876.5103, 0.014543357, 0.0060631693, -1007046.7, 11057.572, 0.0, 5.015514, 4.964735 
4.5379573e+2, 2.0107467e+2, -967379.44, -1054677.6, -6338.712, 0.017912833, 0.015039762, -966921.6, 2552.3018, 0.0, 5.0151796, 4.9587603 
4.537881e+2, 2.0603356e+2, -918638.4, -1004799.2, -6615.374, 0.020564742, 0.0100832945, -918133.44, 2744.1353, 0.0, 5.0148234, 4.9591365 
4.537804e+2, 2.109924e+2, -870410.0, -956025.44, -6728.138, 0.023120536, 0.004304667, -869884.5, 2396.8804, 0.0, 5.0144653, 4.959136 
4.5377275e+2, 2.1595125e+2, -822841.44, -908700.1, -6841.268, 0.025670676, -0.0012532441, -822299.7, 1385.4191, 0.0, 5.0141068, 4.958636 
4.5376518e+2, 2.2090708e+2, -782834.94, -878014.94, -6221.384, 0.02642155, 0.003822994, -782430.0, -7310.5938, 0.0, 5.0137677, 4.9523845 
4.5375782e+2, 2.2586107e+2, -733549.6, -827327.44, -5608.626, 0.019224213, 0.010990429, -733215.4, -6641.1724, 0.0, 5.0134754, 4.9529667 
4.537504e+2, 2.3081522e+2, -685000.9, -778322.56, -5308.755, 0.011161214, 0.01880552, -684699.9, -6672.3193, 0.0, 5.0131865, 4.9529796 
4.5374298e+2, 2.3576935e+2, -637096.4, -730761.8, -5000.0986, 0.002987122, 0.02623727, -636830.2, -7349.124, 0.0, 5.012896, 4.952491 
4.5373628e+2, 2.4072029e+2, -597162.3, -700394.9, -3770.5923, -0.0018945811, 0.045732714, -597024.8, -16059.845, 0.0, 5.0125256, 4.9460306 
4.537322e+2, 2.4566658e+2, -547357.25, -647751.94, -3084.3123, 0.0027562426, 0.033271257, -547262.56, -14771.764, 0.0, 5.012057, 4.9473395 
4.5372826e+2, 2.5061256e+2, -499234.8, -599051.75, -3180.1074, 0.008068354, 0.015112333, -499133.6, -15114.075, 0.0, 5.0115933, 4.9473047 
4.5372432e+2, 2.5555867e+2, -451351.25, -550911.75, -3285.989, 0.013435859, -0.001306953, -451242.9, -15696.069, 0.0, 5.0111237, 4.9470716 
4.5372114e+2, 2.605016e+2, -412395.8, -522878.9, -2645.9314, 0.022934942, 0.002996741, -412332.47, -25223.18, 0.0, 5.0106783, 4.939541 
4.5371613e+2, 2.6545045e+2, -359345.34, -460276.9, -477.10788, -0.0005283505, 0.030204384, -359343.1, -20712.861, 0.0, 5.009596, 4.944128 
4.5370978e+2, 2.7040106e+2, -311986.97, -410792.66, 2036.3462, -0.03606266, 0.05326428, -311945.0, -21809.457, 0.0, 5.008361, 4.944555 
4.5370263e+2, 2.7535152e+2, -264539.8, -361563.88, 4885.755, -0.075703315, 0.06649452, -264294.4, -22652.123, 0.0, 5.0070925, 4.944934 
4.537047e+2, 2.803008e+2, -246458.92, -392352.8, 12390.676, -0.06209836, 0.2259903, -245414.08, -52261.2, 0.0, 5.00875, 4.9169264 
4.537052e+2, 2.8522915e+2, -178208.42, -299388.16, -763.05597, -0.028512867, 0.24645762, -178203.63, -33373.33, 0.0, 5.0099187, 4.931369 
4.5369738e+2, 2.90149e+2, -131868.0, -249719.2, -3245.4097, -0.030543398, 0.11069961, -131778.69, -35192.39, 0.0, 5.008788, 4.931662 
4.5368877e+2, 2.95068e+2, -85394.336, -200154.17, -5290.1597, -0.033636045, -0.040251616, -85150.984, -36800.266, 0.0, 5.007585, 4.9319563 
4.5367992e+2, 3.0000538e+2, -23865.484, -82872.12, -4072.7295, -0.031433374, -0.16164972, -23585.705, -23585.705, 0.0, 5.006473, 4.965916 
4.5366716e+2, 3.0498624e+2, -19955.488, -69371.54, -796.0958, -0.04520345, -0.086270064, -19942.666, -19942.666, 0.0, 5.0060086, 4.970276 
4.5365116e+2, 3.0997562e+2, -20088.877, -66408.484, 316.46143, -0.07747511, 0.04852046, -20086.715, -20086.715, 0.0, 5.005575, 4.97139 
4.5363292e+2, 3.1496885e+2, -20065.186, -63603.5, 1375.5643, -0.12065071, 0.21226011, -20021.768, -20021.768, 0.0, 5.0050592, 4.9725037 
4.5890155e+2, 1.2149311e+2, -1701389.0, -1756740.3, -978.40906, -0.013946212, 0.0011835202, -1701371.6, 47985.297, 0.0, 5.02035, 4.9842954 
4.5889875e+2, 1.2647513e+2, -1653979.9, -1709698.3, -2525.0945, -0.0067969556, -0.01560918, -1653865.6, 46672.18, 0.0, 5.020084, 4.9837985 
4.588953e+2, 1.3145888e+2, -1605838.9, -1661139.4, -2643.797, -0.0044207773, -0.016759753, -1605712.8, 45982.918, 0.0, 5.01981, 4.9837985 
4.588918e+2, 1.364426e+2, -1559830.9, -1616959.6, -2733.8127, -0.0020610755, -0.016659863, -1559700.4, 43153.363, 0.0, 5.0195336, 4.982347 
4.5888788e+2, 1.4142352e+2, -1518751.3, -1582933.3, -3857.8508, 0.0005485856, -0.002293239, -1518520.1, 35520.035, 0.0, 5.019249, 4.9774566 
4.5888278e+2, 1.4640121e+2, -1470536.1, -1534160.8, -4122.8926, 0.0019772155, -0.0032159577, -1470270.1, 34990.32, 0.0, 5.0189443, 4.9775167 
4.5887765e+2, 1.5137881e+2, -1422411.0, -1485572.0, -4192.3857, 0.0033155375, -0.0049806577, -1422134.0, 34347.574, 0.0, 5.0186377, 4.9775157 
4.5887253e+2, 1.5635641e+2, -1375668.8, -1439872.3, -4248.4087, 0.004655963, -0.006288719, -1375388.9, 32313.818, 0.0, 5.0183306, 4.9765477 
4.588669e+2, 1.6133054e+2, -1334884.5, -1406567.4, -5252.3755, 0.0055184825, -0.002341496, -1334501.8, 24455.783, 0.0, 5.018003, 4.97144 
4.5886016e+2, 1.6630216e+2, -1286613.6, -1357423.8, -5477.852, 0.00553959, -0.0046950663, -1286192.4, 24043.414, 0.0, 5.0176277, 4.9716315 
4.5885342e+2, 1.712738e+2, -1238617.8, -1308853.8, -5503.6294, 0.0055281874, -0.006954842, -1238189.1, 23324.643, 0.0, 5.0172496, 4.971631 
4.588467e+2, 1.7624547e+2, -1191750.5, -1262675.3, -5527.5547, 0.0055061085, -0.008822173, -1191322.3, 21469.357, 0.0, 5.0168695, 4.9708257 
4.5883974e+2, 1.8121395e+2, -1151644.6, -1230917.4, -5994.6797, 0.006226109, -0.0013340384, -1151193.9, 12907.461, 0.0, 5.016499, 4.965134 
4.5883256e+2, 1.8617997e+2, -1103131.5, -1181449.8, -6078.068, 0.008590439, 0.002351027, -1102662.6, 12774.141, 0.0, 5.016144, 4.9653955 
4.5882535e+2, 1.9114602e+2, -1054990.3, -1132764.3, -6067.9087, 0.0110318875, 0.00603865, -1054519.8, 12252.183, 0.0, 5.015784, 4.9653955 
4.5881814e+2, 1.9611207e+2, -1007748.1, -1085995.0, -6060.338, 0.01347109, 0.009999404, -1007281.5, 10825.517, 0.0, 5.0154195, 4.9647446 
4.5881075e+2, 2.010746e+2, -967872.0, -1055161.9, -6537.548, 0.016314575, 0.020006202, -967385.06, 2091.181, 0.0, 5.015063, 4.9586506 
4.5880282e+2, 2.0603327e+2, -919102.06, -1005337.0, -6804.5986, 0.019376088, 0.014383668, -918568.4, 2314.184, 0.0, 5.0147295, 4.9589963 
4.5879483e+2, 2.109919e+2, -870805.44, -956530.44, -6900.0747, 0.022358136, 0.0076507954, -870253.56, 2035.8978, 0.0, 5.0143943, 4.958996 
4.5878685e+2, 2.1595052e+2, -823180.1, -909177.8, -6994.441, 0.025323387, 0.0011146483, -822615.0, 1081.2977, 0.0, 5.0140543, 4.958496 
4.5877892e+2, 2.2090612e+2, -782789.9, -877635.5, -6335.2095, 0.025982445, 0.0047009606, -782368.56, -7236.1514, 0.0, 5.013713, 4.952538 
4.58771e+2, 2.258602e+2, -733481.94, -826493.3, -5764.132, 0.016274918, 0.009312785, -733126.1, -6542.3755, 0.0, 5.013341, 4.953312 
4.5876306e+2, 2.3081447e+2, -685233.5, -777629.9, -5557.273, 0.0054607694, 0.014589955, -684900.44, -6867.4385, 0.0, 5.012949, 4.953324 
4.587551e+2, 2.3576872e+2, -637676.2, -730229.2, -5363.996, -0.005451123, 0.019520435, -637366.4, -7883.9043, 0.0, 5.012539, 4.952834 
4.587479e+2, 2.4072002e+2, -598549.3, -701044.75, -4394.3945, -0.011781607, 0.040439684, -598361.25, -17399.951, 0.0, 5.01205, 4.946021 
4.587435e+2, 2.4566674e+2, -548910.5, -648579.1, -3816.054, -0.004935962, 0.03277073, -548764.6, -16278.458, 0.0, 5.011544, 4.947283 
4.5873934e+2, 2.5061306e+2, -500810.8, -599884.56, -3952.7888, 0.0027962348, 0.018253636, -500653.34, -16638.09, 0.0, 5.0110726, 4.9472485 
4.587351e+2, 2.5555947e+2, -452892.75, -551723.25, -4078.3096, 0.010568538, 0.0053269374, -452724.72, -17181.615, 0.0, 5.010617, 4.947016 
4.587315e+2, 2.6050228e+2, -413540.1, -522444.0, -3787.1294, 0.021280956, 0.009496986, -413408.56, -26300.463, 0.0, 5.0101247, 4.9399023 
4.5872444e+2, 2.6545137e+2, -360695.97, -456844.4, -3474.2947, -0.017342208, 0.020599453, -360570.6, -21952.275, 0.0, 5.008426, 4.945731 
4.5871568e+2, 2.7040255e+2, -316523.28, -408693.38, -3597.3164, -0.07116725, 0.026796259, -316383.1, -26274.365, 0.0, 5.006114, 4.946153 
4.5870614e+2, 2.7535367e+2, -273447.03, -361253.7, -4193.122, -0.12932232, 0.024376463, -273247.25, -31647.443, 0.0, 5.003353, 4.9465303 
4.5870796e+2, 2.8030518e+2, -264956.63, -408739.72, 1714.3131, -0.12399641, 0.21103, -264936.2, -71854.08, 0.0, 5.0038953, 4.9132648 
4.5871016e+2, 2.85234e+2, -188383.67, -306755.94, -10309.033, -0.07406744, 0.25584728, -187492.56, -42729.563, 0.0, 5.006846, 4.929964 
4.587032e+2, 2.9015276e+2, -137462.55, -255122.25, -9715.889, -0.060586575, 0.11454835, -136665.64, -40126.22, 0.0, 5.007332, 4.930259 
4.5869544e+2, 2.950708e+2, -87785.28, -204168.44, -9498.832, -0.04842326, -0.040356252, -87015.11, -38691.895, 0.0, 5.00728, 4.9305573 
4.5868763e+2, 3.000068e+2, -23228.29, -83143.484, -6788.132, -0.029595597, -0.16881515, -22468.85, -22468.85, 0.0, 5.006834, 4.9656487 
4.5867583e+2, 3.049864e+2, -17535.904, -64736.324, -3090.7903, -0.02495034, -0.12290369, -17334.371, -17334.371, 0.0, 5.006252, 4.971795 
4.5866078e+2, 3.0997446e+2, -20822.207, -63458.305, -955.2126, -0.039583527, -0.02377845, -20800.816, -20800.816, 0.0, 5.004758, 4.972764 
4.586436e+2, 3.1496602e+2, -26560.824, -63403.832, 2033.4723, -0.06532308, 0.10294936, -26448.932, -26448.932, 0.0, 5.00225, 4.9737344 
4.6392253e+2, 1.21494286e+2, -1697741.1, -1754990.1, -333.92896, -0.014350439, 0.0016372168, -1697739.3, 51606.82, 0.0, 5.02157, 4.984271 
4.639194e+2, 1.2647618e+2, -1650719.1, -1708555.4, -1996.6478, -0.0075286054, -0.014335642, -1650650.3, 49877.57, 0.0, 5.0212674, 4.9835954 
4.6391568e+2, 1.314597e+2, -1602743.8, -1660083.1, -2182.0012, -0.0046068947, -0.015852267, -1602660.9, 49027.453, 0.0, 5.0209417, 4.983596 
4.6391198e+2, 1.3644318e+2, -1556886.3, -1615975.0, -2336.854, -0.001659556, -0.016117182, -1556794.0, 46054.883, 0.0, 5.020616, 4.982147 
4.6390775e+2, 1.4142394e+2, -1515805.4, -1581681.0, -3517.5918, 0.0013680678, -0.0019980029, -1515618.0, 38419.207, 0.0, 5.0202765, 4.9773726 
4.6390235e+2, 1.4640158e+2, -1467742.6, -1532935.9, -3755.1135, 0.0027835378, -0.0027108407, -1467527.1, 37730.73, 0.0, 5.0199127, 4.977455 
4.6389684e+2, 1.5137914e+2, -1419798.8, -1484441.1, -3793.93, 0.0040960303, -0.0042348057, -1419576.9, 36902.313, 0.0, 5.019548, 4.977454 
4.638914e+2, 1.563567e+2, -1373231.5, -1438826.4, -3817.4668, 0.005414895, -0.005298355, -1373010.1, 34690.547, 0.0, 5.0191827, 4.976488 
4.6388537e+2, 1.6133077e+2, -1332652.9, -1405632.6, -4861.8667, 0.0063763685, -0.0011528562, -1332330.4, 26625.357, 0.0, 5.0187893, 4.971376 
4.6387827e+2, 1.6630235e+2, -1284639.1, -1356628.6, -5143.74, 0.0067936727, -0.0033505948, -1284273.5, 25961.383, 0.0, 5.018331, 4.9715624 
4.6387115e+2, 1.7127395e+2, -1236889.0, -1308179.8, -5216.134, 0.0072060507, -0.0054525943, -1236509.4, 25004.191, 0.0, 5.017871, 4.971562 
4.6386406e+2, 1.7624554e+2, -1190261.8, -1262117.8, -5286.475, 0.0076238727, -0.0071639656, -1189874.9, 22917.371, 0.0, 5.0174108, 4.970757 
4.638567e+2, 1.8121399e+2, -1150309.3, -1230258.4, -5774.731, 0.008231984, 0.0002494447, -1149894.3, 14208.01, 0.0, 5.016952, 4.9651427 
4.6384892e+2, 1.8617998e+2, -1102094.1, -1180906.3, -5853.9746, 0.009115873, 0.003426403, -1101661.6, 13775.956, 0.0, 5.016489, 4.965418 
4.6384117e+2, 1.9114599e+2, -1054259.6, -1132376.6, -5835.918, 0.010047738, 0.006616083, -1053826.0, 12946.53, 0.0, 5.0160255, 4.965415 
4.6383336e+2, 1.96112e+2, -1007308.06, -1085754.8, -5816.27, 0.011014056, 0.010098065, -1006879.2, 11228.332, 0.0, 5.0155616, 4.964762 
4.6382546e+2, 2.0107454e+2, -967710.9, -1055214.5, -6201.6963, 0.012735008, 0.020018572, -967273.5, 2203.1697, 0.0, 5.0151415, 4.958598 
4.638172e+2, 2.0603321e+2, -918902.3, -1005440.8, -6397.4893, 0.015798472, 0.01525611, -918431.94, 2451.6182, 0.0, 5.0148363, 4.958913 
4.6380892e+2, 2.1099183e+2, -870496.94, -956580.5, -6451.2925, 0.018864965, 0.009371128, -870016.1, 2274.873, 0.0, 5.0145383, 4.9589133 
4.6380064e+2, 2.1595046e+2, -822752.7, -909169.75, -6504.7207, 0.021906802, 0.0036207072, -822265.8, 1432.6826, 0.0, 5.01424, 4.9584146 
4.6379235e+2, 2.2090603e+2, -782209.44, -877136.5, -5942.796, 0.022660226, 0.0069783456, -781838.8, -6703.8613, 0.0, 5.013864, 4.952642 
4.6378395e+2, 2.2585995e+2, -733738.1, -826232.3, -5548.9873, 0.013471427, 0.008560553, -733406.4, -6821.041, 0.0, 5.013161, 4.9534907 
4.6377552e+2, 2.3081408e+2, -686473.56, -777872.5, -5441.0513, 0.0034130148, 0.01061399, -686150.8, -8117.0347, 0.0, 5.0124264, 4.9534883 
4.6376702e+2, 2.3576815e+2, -639846.0, -730947.25, -5325.3936, -0.0065451316, 0.012306749, -639535.75, -10053.211, 0.0, 5.01169, 4.9529843 
4.6375927e+2, 2.4071936e+2, -601758.5, -702720.8, -4443.1396, -0.012270928, 0.031331714, -601563.4, -20602.352, 0.0, 5.01091, 4.945977 
4.6375406e+2, 2.4566638e+2, -553361.25, -651175.8, -3993.7078, -0.0064101736, 0.028271057, -553198.5, -20713.28, 0.0, 5.010026, 4.947087 
4.6374902e+2, 2.50613e+2, -506432.16, -602974.5, -4238.398, 0.00022743175, 0.018737016, -506246.44, -22232.615, 0.0, 5.00913, 4.947065 
4.6374395e+2, 2.555597e+2, -459734.4, -555326.06, -4495.667, 0.0069201905, 0.0103451265, -459523.44, -23981.908, 0.0, 5.008228, 4.946844 
4.6373945e+2, 2.6050273e+2, -420823.0, -525942.1, -4044.2566, 0.01576038, 0.017479608, -420667.66, -33562.883, 0.0, 5.0074434, 4.939951 
4.6373147e+2, 2.6545072e+2, -366856.3, -461100.72, -3625.8865, -0.02180749, 0.020737631, -366717.03, -28100.33, 0.0, 5.0061374, 4.9454885 
4.63722e+2, 2.703998e+2, -320568.47, -413525.66, -2953.8083, -0.07050593, 0.01382382, -320474.72, -30357.13, 0.0, 5.004635, 4.945469 
4.6371186e+2, 2.7534798e+2, -274197.34, -366173.9, -1983.824, -0.119871065, -0.005335108, -274154.56, -32527.344, 0.0, 5.0031, 4.945401 
4.6371195e+2, 2.8029627e+2, -266532.44, -405489.38, 8507.498, -0.11588372, 0.15147656, -266013.5, -72878.984, 0.0, 5.0025244, 4.914784 
4.637137e+2, 2.8522736e+2, -197626.89, -307574.56, -2902.5835, -0.07719045, 0.20625317, -197550.31, -52747.94, 0.0, 5.0034204, 4.930521 
4.6370775e+2, 2.901494e+2, -146636.3, -257608.33, -5602.127, -0.06462668, 0.09406529, -146354.2, -49796.004, 0.0, 5.00403, 4.9303374 
4.637012e+2, 2.9507032e+2, -95557.94, -207751.6, -7923.1035, -0.04925657, -0.030565323, -95001.17, -46676.594, 0.0, 5.0045695, 4.9301543 
4.6369472e+2, 3.0000865e+2, -27298.203, -85803.875, -7834.808, -0.024621759, -0.13265985, -26267.17, -26267.17, 0.0, 5.0052667, 4.965215 
4.6368465e+2, 3.0498585e+2, -15299.808, -63871.305, -7612.883, -0.00814629, -0.11370634, -14134.554, -14134.554, 0.0, 5.006631, 4.97185 
4.6367195e+2, 3.0996954e+2, -10361.519, -58503.914, -8920.14, 0.00049067324, -0.0665625, -8761.888, -8761.888, 0.0, 5.007957, 4.973001 
4.6365777e+2, 3.149558e+2, -5311.439, -53253.543, -10248.063, 0.008729457, -0.007482778, -3212.697, -3212.697, 0.0, 5.009204, 4.974153 
4.689441e+2, 1.2149588e+2, -1697572.1, -1754633.9, -450.37567, -0.014475951, 0.0019339414, -1697568.6, 51762.457, 0.0, 5.0215683, 4.984389 
4.6894062e+2, 1.2647763e+2, -1651071.9, -1709268.1, -2246.0908, -0.007968872, -0.013439597, -1650985.4, 49528.727, 0.0, 5.021266, 4.9833617 
4.6893662e+2, 1.314609e+2, -1603093.9, -1660794.3, -2430.3928, -0.004675929, -0.014986792, -1602991.6, 48685.527, 0.0, 5.020941, 4.9833617 
4.6893266e+2, 1.3644415e+2, -1557229.8, -1616676.6, -2583.135, -0.001368919, -0.015280327, -1557117.8, 45722.69, 0.0, 5.020615, 4.981916 
4.6892807e+2, 1.4142473e+2, -1515925.3, -1581925.1, -3794.555, 0.001889404, -0.0012268648, -1515707.8, 38322.85, 0.0, 5.020276, 4.9772925 
4.6892232e+2, 1.4640231e+2, -1467814.1, -1533081.5, -4033.6563, 0.0032867265, -0.0018903194, -1467565.8, 37685.734, 0.0, 5.0199122, 4.9774075 
4.6891648e+2, 1.5137985e+2, -1419869.3, -1484586.4, -4072.0107, 0.0045652674, -0.0033526237, -1419614.1, 36859.023, 0.0, 5.0195475, 4.977406 
4.689106e+2, 1.5635736e+2, -1373297.6, -1438963.9, -4093.818, 0.0058462243, -0.004356493, -1373043.4, 34651.355, 0.0, 5.0191827, 4.9764423 
4.689042e+2, 1.613314e+2, -1332763.3, -1405865.6, -5198.9053, 0.006929614, -0.00009419123, -1332395.4, 26554.96, 0.0, 5.0187893, 4.971298 
4.6889672e+2, 1.6630292e+2, -1284768.5, -1356903.3, -5494.78, 0.007883379, -0.0019359081, -1284352.4, 25877.928, 0.0, 5.0183315, 4.9714704 
4.6888918e+2, 1.7127445e+2, -1237017.6, -1308454.0, -5566.781, 0.008843789, -0.0036644198, -1236586.5, 24923.35, 0.0, 5.0178714, 4.97147 
4.6888167e+2, 1.76246e+2, -1190389.1, -1262390.4, -5636.369, 0.009802676, -0.0050021247, -1189950.5, 22838.783, 0.0, 5.017411, 4.9706655 
4.6887383e+2, 1.8121439e+2, -1150309.1, -1230249.8, -6128.022, 0.010306115, 0.002286541, -1149842.1, 14257.982, 0.0, 5.0169506, 4.9651465 
4.6886545e+2, 1.8618025e+2, -1102064.9, -1180829.5, -6206.1753, 0.009429874, 0.004219164, -1101578.9, 13856.757, 0.0, 5.0164866, 4.965445 
4.6885702e+2, 1.9114617e+2, -1054231.1, -1132298.3, -6186.566, 0.008499524, 0.0061236653, -1053743.9, 13027.047, 0.0, 5.016023, 4.965443 
4.6884862e+2, 1.961121e+2, -1007280.25, -1085674.9, -6165.3174, 0.00758524, 0.00832031, -1006798.4, 11307.852, 0.0, 5.0155587, 4.9647903 
4.6884012e+2, 2.0107457e+2, -967756.2, -1055299.0, -6466.1353, 0.0077468227, 0.017654965, -967281.2, 2194.289, 0.0, 5.0151396, 4.9585695 
4.6883154e+2, 2.0603335e+2, -918993.1, -1005627.44, -6625.379, 0.01069323, 0.014577629, -918489.4, 2392.3757, 0.0, 5.014835, 4.9588494 
4.6882296e+2, 2.109921e+2, -870588.06, -956767.9, -6677.6353, 0.013756504, 0.0105664795, -870073.75, 2214.8088, 0.0, 5.0145364, 4.95885 
4.6881437e+2, 2.1595083e+2, -822844.2, -909357.94, -6729.4937, 0.016769439, 0.0067127896, -822323.9, 1371.4678, 0.0, 5.014238, 4.95835 
4.6880576e+2, 2.2090647e+2, -782106.1, -876875.1, -6369.822, 0.017850826, 0.010482374, -781679.9, -6548.4536, 0.0, 5.013859, 4.952735 
4.6879682e+2, 2.2586012e+2, -733567.44, -825782.06, -6085.2964, 0.010398716, 0.0079861125, -733167.56, -6585.101, 0.0, 5.01315, 4.953652 
4.6878785e+2, 2.3081395e+2, -686315.7, -777414.56, -5968.9653, 0.0021187393, 0.0056982967, -685926.25, -7894.6563, 0.0, 5.012411, 4.953654 
4.6877885e+2, 2.3576775e+2, -639700.8, -730481.56, -5844.8525, -0.006138695, 0.0030950895, -639326.06, -9845.105, 0.0, 5.01167, 4.953154 
4.6877038e+2, 2.4071877e+2, -601935.4, -702816.4, -5083.2734, -0.011388073, 0.019163089, -601679.9, -20720.025, 0.0, 5.010868, 4.9459586 
4.6876395e+2, 2.4566622e+2, -553816.1, -651871.5, -4720.415, -0.008341339, 0.022081237, -553589.4, -21107.615, 0.0, 5.0099797, 4.9468603 
4.687577e+2, 2.5061333e+2, -506864.44, -603680.4, -4953.0474, -0.0047617652, 0.019921912, -506611.72, -22604.213, 0.0, 5.0090914, 4.9468303 
4.6875134e+2, 2.5556058e+2, -460144.2, -556042.2, -5198.23, -0.0011720435, 0.018987102, -459863.22, -24330.904, 0.0, 5.008197, 4.946602 
4.687456e+2, 2.6050404e+2, -420343.2, -524380.1, -4562.429, 0.0032951622, 0.030038156, -420143.47, -33052.53, 0.0, 5.0073714, 4.9405384 
4.6873644e+2, 2.6545098e+2, -366565.5, -458495.16, -3862.1248, -0.03794816, 0.017577736, -366403.53, -27799.855, 0.0, 5.0058665, 4.946529 
4.6872577e+2, 2.7039912e+2, -320749.84, -410468.03, -2906.8591, -0.09161106, -0.006156472, -320655.75, -30552.043, 0.0, 5.004163, 4.946706 
4.6871442e+2, 2.7534673e+2, -274851.6, -362663.7, -1653.6165, -0.14800164, -0.040069398, -274820.47, -33211.895, 0.0, 5.0024266, 4.946834 
4.68712e+2, 2.802938e+2, -263154.38, -399037.25, 7415.7837, -0.16039672, 0.082873665, -262750.88, -69629.96, 0.0, 5.002686, 4.9170732 
4.687142e+2, 2.8522506e+2, -196932.45, -312485.53, -2961.8496, -0.114366286, 0.14657475, -196856.58, -52059.84, 0.0, 5.004233, 4.928861 
4.687103e+2, 2.9014862e+2, -146364.9, -261948.61, -5335.9717, -0.08458862, 0.07140537, -146119.08, -49569.875, 0.0, 5.0046635, 4.928887 
4.687058e+2, 2.9507136e+2, -95709.3, -211522.67, -7331.3594, -0.05444739, -0.015599357, -95247.05, -46937.137, 0.0, 5.005024, 4.928913 
4.6870118e+2, 3.0001158e+2, -26966.385, -86588.69, -7082.906, -0.019467298, -0.08472935, -26136.512, -26136.512, 0.0, 5.0055127, 4.96501 
4.6869314e+2, 3.0498573e+2, -15303.3545, -64332.633, -6624.9546, 0.0031468924, -0.086834356, -14423.948, -14423.948, 0.0, 5.006713, 4.9719434 
4.686825e+2, 3.0996525e+2, -10951.881, -59785.64, -7477.8467, 0.014227605, -0.06752709, -9832.469, -9832.469, 0.0, 5.0079246, 4.972911 
4.6867016e+2, 3.1494746e+2, -6487.446, -55354.59, -8351.865, 0.019854853, -0.031292, -5099.4556, -5099.4556, 0.0, 5.009057, 4.9738793 
4.7396567e+2, 1.2149741e+2, -1697315.3, -1754097.8, -566.29065, -0.014480045, 0.0016699136, -1697309.6, 52007.105, 0.0, 5.0215664, 4.9845657 
4.7396186e+2, 1.2647907e+2, -1651425.0, -1709980.8, -2495.142, -0.008404323, -0.012500431, -1651318.9, 49181.406, 0.0, 5.0212646, 4.983128 
4.7395754e+2, 1.3146211e+2, -1603444.3, -1661505.4, -2678.393, -0.004740786, -0.014095947, -1603320.9, 48345.11, 0.0, 5.0209394, 4.983128 
4.7395328e+2, 1.3644513e+2, -1557573.6, -1617378.0, -2829.061, -0.0010747594, -0.0144358585, -1557440.1, 45391.87, 0.0, 5.020614, 4.9816847 
4.739484e+2, 1.4142552e+2, -1516050.3, -1582179.5, -4071.2378, 0.0024137096, -0.00044060848, -1515800.5, 38223.51, 0.0, 5.020275, 4.9772086 
4.7394225e+2, 1.4640306e+2, -1467885.8, -1533227.3, -4312.1406, 0.003791906, -0.0010574566, -1467602.4, 37642.86, 0.0, 5.019912, 4.9773593 
4.7393605e+2, 1.5138055e+2, -1419939.9, -1484731.5, -4350.033, 0.005035646, -0.0024669124, -1419649.1, 36817.863, 0.0, 5.0195475, 4.977358 
4.7392985e+2, 1.5635802e+2, -1373364.0, -1439101.4, -4370.1123, 0.0062778457, -0.0034199094, -1373074.8, 34614.246, 0.0, 5.0191827, 4.9763966 
4.7392306e+2, 1.6133201e+2, -1332875.3, -1406102.0, -5535.839, 0.007477811, 0.0009703146, -1332459.1, 26485.768, 0.0, 5.01879, 4.9712195 
4.7391516e+2, 1.6630349e+2, -1284897.9, -1357177.9, -5845.6997, 0.008969857, -0.00051531737, -1284428.3, 25797.45, 0.0, 5.018332, 4.971379 
4.7390723e+2, 1.7127496e+2, -1237146.4, -1308728.3, -5917.3086, 0.010481821, -0.0018762628, -1236660.5, 24845.502, 0.0, 5.017872, 4.971378 
4.738993e+2, 1.7624646e+2, -1190516.6, -1262662.9, -5986.139, 0.011985294, -0.0028462212, -1190023.3, 22763.158, 0.0, 5.0174117, 4.970574 
4.73891e+2, 1.8121476e+2, -1150314.4, -1230252.0, -6483.883, 0.012400253, 0.0043284786, -1149791.9, 14305.979, 0.0, 5.0169497, 4.9651465 
4.7388196e+2, 1.8618055e+2, -1102036.3, -1180752.5, -6559.38, 0.009760018, 0.005002257, -1101493.4, 13940.404, 0.0, 5.0164847, 4.965472 
4.738729e+2, 1.9114634e+2, -1054203.1, -1132219.6, -6538.2183, 0.006958813, 0.0055992724, -1053659.0, 13110.422, 0.0, 5.016021, 4.965471 
4.7386384e+2, 1.9611217e+2, -1007252.9, -1085594.6, -6515.369, 0.0041552926, 0.006488282, -1006714.75, 11390.202, 0.0, 5.0155563, 4.9648185 
4.7385478e+2, 2.010746e+2, -967807.75, -1055396.3, -6728.3037, 0.0027269358, 0.015345058, -967293.94, 2180.255, 0.0, 5.015138, 4.9585366 
4.738459e+2, 2.0603351e+2, -919084.4, -1005813.7, -6852.8594, 0.0055377963, 0.013979705, -918546.2, 2333.6301, 0.0, 5.0148335, 4.958786 
4.73837e+2, 2.1099237e+2, -870679.7, -956954.94, -6903.57, 0.00858971, 0.0118172215, -870130.75, 2155.2407, 0.0, 5.014535, 4.958786 
4.738281e+2, 2.1595125e+2, -822936.2, -909545.8, -6953.8584, 0.011565604, 0.009835102, -822381.4, 1310.7407, 0.0, 5.014236, 4.9582863 
4.7381917e+2, 2.2090687e+2, -782022.1, -876653.06, -6804.4653, 0.013111119, 0.0139395995, -781535.4, -6407.383, 0.0, 5.0138535, 4.9528136 
4.738097e+2, 2.2586024e+2, -733399.1, -825329.8, -6628.583, 0.00740993, 0.0072028586, -732923.7, -6343.8354, 0.0, 5.0131392, 4.953812 
4.7380018e+2, 2.3081379e+2, -686160.1, -776954.7, -6503.86, 0.0008590717, 0.00041714674, -685696.6, -7666.98, 0.0, 5.0123954, 4.953818 
4.7379062e+2, 2.357673e+2, -639558.0, -730013.94, -6371.2954, -0.00574695, -0.00663861, -639111.44, -9631.8, 0.0, 5.01165, 4.953322 
4.7378144e+2, 2.4071822e+2, -602207.25, -703105.25, -5754.46, -0.0105308145, 0.0076166866, -601880.1, -20921.813, 0.0, 5.010826, 4.94587 
4.737738e+2, 2.4566612e+2, -554280.3, -652558.56, -5442.2354, -0.010286787, 0.016965754, -553979.8, -21502.281, 0.0, 5.009934, 4.9466314 
4.737663e+2, 2.5061375e+2, -507306.1, -604377.6, -5662.8003, -0.00975315, 0.021908743, -506976.88, -22976.344, 0.0, 5.0090528, 4.9465933 
4.7375873e+2, 2.5556147e+2, -460563.28, -556749.6, -5895.8877, -0.009254388, 0.028158747, -460203.25, -24680.676, 0.0, 5.008166, 4.946357 
4.7375175e+2, 2.6050514e+2, -420206.0, -523492.7, -5238.946, -0.007893992, 0.042120133, -419940.94, -32861.934, 0.0, 5.0072994, 4.940856 
4.7374114e+2, 2.654508e+2, -366332.2, -455844.8, -4406.9043, -0.054066, 0.00901622, -366115.75, -27520.705, 0.0, 5.005596, 4.9474974 
4.7372892e+2, 2.7039775e+2, -320988.1, -407365.0, -3168.9622, -0.1149163, -0.036986418, -320872.0, -30775.963, 0.0, 5.003691, 4.9478703 
4.7371587e+2, 2.7534467e+2, -275562.13, -359107.4, -1633.0334, -0.18055521, -0.09109886, -275530.2, -33932.37, 0.0, 5.0017533, 4.948195 
4.737122e+2, 2.8029135e+2, -262779.75, -399468.3, 7502.3047, -0.20367362, 0.017359305, -262369.22, -69262.37, 0.0, 5.002849, 4.9169517 
4.737158e+2, 2.8522345e+2, -196349.56, -317293.78, -3406.0457, -0.14633735, 0.1039474, -196253.72, -51469.305, 0.0, 5.0050454, 4.927139 
4.737137e+2, 2.9014838e+2, -146204.34, -266185.28, -5453.9033, -0.10145863, 0.06002584, -145956.94, -49421.484, 0.0, 5.005297, 4.927374 
4.737109e+2, 2.950727e+2, -95970.805, -215189.28, -7122.9316, -0.058659256, 0.0048755016, -95546.74, -47254.324, 0.0, 5.005479, 4.9276085 
4.73708e+2, 3.000143e+2, -27042.082, -87950.34, -6423.5093, -0.013259498, -0.037511367, -26372.018, -26372.018, 0.0, 5.0057592, 4.9645367 
4.737023e+2, 3.0498493e+2, -15430.926, -64671.688, -5415.2236, 0.021707825, -0.06849566, -14842.424, -14842.424, 0.0, 5.006795, 4.9719634 
4.7369397e+2, 3.0995986e+2, -11666.29, -60945.504, -5813.5234, 0.041622005, -0.08626716, -10989.75, -10989.75, 0.0, 5.007892, 4.9727473 
4.7368377e+2, 3.1493765e+2, -7787.7656, -57334.406, -6233.1978, 0.051031385, -0.082129605, -7015.6333, -7015.6333, 0.0, 5.0089097, 4.973532 
4.7898728e+2, 1.2149889e+2, -1696639.1, -1753291.5, -550.5387, -0.014269515, 0.0009439874, -1696633.8, 52669.05, 0.0, 5.02169, 4.9847693 
4.789831e+2, 1.2648055e+2, -1651451.0, -1710521.5, -2596.4111, -0.008710373, -0.01153122, -1651337.0, 49149.313, 0.0, 5.02137, 4.982899 
4.789785e+2, 1.3146335e+2, -1603501.0, -1662061.4, -2754.584, -0.0047304, -0.013171461, -1603371.6, 48282.973, 0.0, 5.021034, 4.9828987 
4.7897393e+2, 1.3644612e+2, -1557656.6, -1617941.0, -2878.3542, -0.00074890075, -0.013563503, -1557519.5, 45303.652, 0.0, 5.020698, 4.9814577 
4.7896874e+2, 1.4142634e+2, -1515966.8, -1582342.4, -4137.739, 0.0029372873, 0.0003746803, -1515709.9, 38307.285, 0.0, 5.0203466, 4.9771204 
4.789622e+2, 1.4640383e+2, -1467795.3, -1533301.1, -4397.0522, 0.0042740204, -0.00021654248, -1467501.4, 37737.25, 0.0, 5.0199676, 4.977308 
4.7895566e+2, 1.5138127e+2, -1419895.4, -1484827.5, -4451.6396, 0.005464514, -0.001599583, -1419591.6, 36869.125, 0.0, 5.0195875, 4.9773064 
4.7894907e+2, 1.563587e+2, -1373360.8, -1439211.5, -4486.519, 0.006652773, -0.0025281732, -1373056.5, 34626.535, 0.0, 5.0192075, 4.976348 
4.789419e+2, 1.6133265e+2, -1332939.1, -1406318.5, -5722.267, 0.007949501, 0.0019921807, -1332495.6, 26443.768, 0.0, 5.0188074, 4.971139 
4.789336e+2, 1.6630407e+2, -1284954.0, -1357416.8, -6047.1973, 0.009960439, 0.00087683264, -1284452.9, 25768.082, 0.0, 5.0183578, 4.971287 
4.7892526e+2, 1.712755e+2, -1237183.0, -1308957.5, -6119.382, 0.012012807, -0.00010868262, -1236665.0, 24837.088, 0.0, 5.017904, 4.971286 
4.789169e+2, 1.7624693e+2, -1190539.3, -1262884.3, -6188.0615, 0.014056987, -0.0007047041, -1190013.9, 22769.549, 0.0, 5.017448, 4.9704823 
4.7890818e+2, 1.8121517e+2, -1150231.9, -1230226.1, -6699.998, 0.014417651, 0.006375198, -1149674.6, 14420.906, 0.0, 5.016981, 4.9651403 
4.7889847e+2, 1.8618083e+2, -1101979.9, -1180671.6, -6789.4907, 0.010089475, 0.005780682, -1101398.4, 14033.397, 0.0, 5.016494, 4.965495 
4.7888875e+2, 1.9114652e+2, -1054219.3, -1132172.8, -6785.623, 0.00550287, 0.0050508315, -1053633.0, 13134.754, 0.0, 5.0160046, 4.965494 
4.7887906e+2, 1.9611225e+2, -1007345.94, -1085583.3, -6780.567, 0.00090629235, 0.0046105036, -1006762.6, 11341.02, 0.0, 5.015514, 4.9648423 
4.7886944e+2, 2.0107464e+2, -968077.7, -1055603.9, -6911.1973, -0.0020633405, 0.013061694, -967535.3, 1937.5504, 0.0, 5.015062, 4.958502 
4.788602e+2, 2.0603366e+2, -919546.4, -1006165.56, -6984.62, 0.00056747365, 0.0133744925, -918986.75, 1891.097, 0.0, 5.0147014, 4.958727 
4.7885102e+2, 2.1099265e+2, -871317.7, -957386.2, -7010.716, 0.0035971038, 0.012957672, -870750.4, 1533.018, 0.0, 5.014341, 4.958728 
4.788418e+2, 2.1595164e+2, -823762.7, -910061.7, -7032.613, 0.006557968, 0.012719386, -823193.4, 495.49164, 0.0, 5.0139756, 4.9582286 
4.788325e+2, 2.2090727e+2, -782842.2, -876914.56, -7094.2896, 0.008724375, 0.017100466, -782310.2, -7185.568, 0.0, 5.0135465, 4.9528646 
4.7882253e+2, 2.2586037e+2, -734030.75, -825325.44, -7150.3877, 0.004766585, 0.006345842, -733474.1, -6896.804, 0.0, 5.0128627, 4.9539394 
4.7881246e+2, 2.308136e+2, -686718.2, -776919.8, -7170.059, -0.00006795951, -0.0047596353, -686151.75, -8123.795, 0.0, 5.012145, 4.9539437 
4.7880238e+2, 2.3576681e+2, -640075.94, -729963.5, -7196.8926, -0.004976553, -0.016161615, -639503.3, -10024.427, 0.0, 5.0114145, 4.9534464 
4.787925e+2, 2.4071766e+2, -603016.94, -703833.06, -6848.9604, -0.009195022, -0.0027853148, -602553.75, -21596.715, 0.0, 5.0106215, 4.945708 
4.7878367e+2, 2.4566598e+2, -554772.1, -653250.7, -6534.032, -0.011714283, 0.012690482, -554340.5, -21866.617, 0.0, 5.009871, 4.9464116 
4.78775e+2, 2.5061402e+2, -507285.3, -604824.25, -6695.2847, -0.01419878, 0.023729982, -506827.88, -22833.244, 0.0, 5.009175, 4.946377 
4.7876623e+2, 2.555622e+2, -459940.56, -556911.1, -6833.0713, -0.016770748, 0.036110237, -459461.44, -23947.05, 0.0, 5.0085087, 4.946143 
4.7875822e+2, 2.6050583e+2, -418980.28, -523024.5, -6390.0313, -0.01707018, 0.052107092, -418589.28, -31518.377, 0.0, 5.0078244, 4.940758 
4.787461e+2, 2.6544982e+2, -365222.9, -454204.8, -7397.349, -0.066385716, -0.003204166, -364612.13, -26017.879, 0.0, 5.0058966, 4.947868 
4.787322e+2, 2.703949e+2, -321844.7, -406558.22, -8626.446, -0.1312404, -0.0753506, -320975.2, -30871.443, 0.0, 5.0033393, 4.948236 
4.787176e+2, 2.753399e+2, -279574.5, -359606.84, -10293.209, -0.20092188, -0.15578474, -278271.88, -36657.62, 0.0, 5.0003347, 4.9485607 
4.7871417e+2, 2.8028595e+2, -273212.94, -409054.72, -1730.3188, -0.22332062, -0.047562774, -273190.9, -80068.03, 0.0, 5.0003157, 4.9147167 
4.787196e+2, 2.8522018e+2, -202422.89, -322095.75, -11114.819, -0.15832452, 0.074937955, -201399.34, -56610.746, 0.0, 5.0034676, 4.926074 
4.787185e+2, 2.9014713e+2, -149315.36, -269666.47, -10308.65, -0.10753851, 0.057968333, -148438.77, -51907.45, 0.0, 5.0047197, 4.9263234 
4.7871676e+2, 2.9507345e+2, -97162.62, -217780.7, -9762.273, -0.05911434, 0.029885093, -96377.61, -48097.77, 0.0, 5.005559, 4.926575 
4.7871527e+2, 3.0001646e+2, -27128.58, -89445.39, -7378.933, -0.0061949785, 0.0087847505, -26266.76, -26266.76, 0.0, 5.0061393, 4.9637794 
4.7871217e+2, 3.049833e+2, -15302.214, -64658.996, -5485.079, 0.04726554, -0.05895465, -14699.998, -14699.998, 0.0, 5.0070252, 4.971795 
4.7870666e+2, 3.0995318e+2, -13950.698, -62082.242, -4463.3364, 0.08721861, -0.12729973, -13540.303, -13540.303, 0.0, 5.007315, 4.972518 
4.786995e+2, 3.149259e+2, -14418.913, -60420.508, -2602.9788, 0.11648922, -0.17328694, -14272.093, -14272.093, 0.0, 5.00684, 4.973242 
4.8400977e+2, 1.21501304e+2, -1693032.0, -1752040.9, -4.40034, -0.0132379625, 0.0015842246, -1693032.0, 56248.016, 0.0, 5.023001, 4.984537 
4.8400524e+2, 1.2648284e+2, -1647977.3, -1709139.8, -2011.2167, -0.0074042683, -0.010491785, -1647911.1, 52553.46, 0.0, 5.0225973, 4.9827533 
4.8400027e+2, 1.314655e+2, -1600225.4, -1660782.8, -2103.326, -0.0037328952, -0.012066092, -1600152.4, 51482.0, 0.0, 5.022198, 4.9827533 
4.839953e+2, 1.3644812e+2, -1554574.1, -1616757.0, -2160.4583, -0.000043632856, -0.012414679, -1554499.1, 48305.19, 0.0, 5.021799, 4.981314 
4.8398966e+2, 1.4142819e+2, -1513052.4, -1581166.5, -3422.5684, 0.0033099118, 0.0013875619, -1512880.9, 41118.824, 0.0, 5.021377, 4.9770103 
4.8398268e+2, 1.4640556e+2, -1465126.6, -1532242.3, -3728.3843, 0.0042995415, 0.0005525885, -1464920.1, 40302.32, 0.0, 5.0209165, 4.9772005 
4.8397565e+2, 1.5138288e+2, -1417476.5, -1483893.5, -3828.9355, 0.005149284, -0.0010653968, -1417256.5, 39189.234, 0.0, 5.020455, 4.9772 
4.8396862e+2, 1.5636016e+2, -1371187.1, -1438393.4, -3908.4075, 0.006002588, -0.0022287758, -1370960.5, 36708.64, 0.0, 5.019993, 4.976244 
4.83961e+2, 1.6133401e+2, -1330940.9, -1405566.5, -5196.0684, 0.0070415284, 0.0022880826, -1330580.8, 28345.684, 0.0, 5.01953, 4.9710445 
4.8395222e+2, 1.6630538e+2, -1283003.8, -1356694.0, -5529.9795, 0.008968596, 0.0017241058, -1282591.1, 27617.49, 0.0, 5.0190663, 4.971191 
4.8394343e+2, 1.7127678e+2, -1235266.8, -1308253.6, -5608.772, 0.010955364, 0.0013106393, -1234838.3, 26652.162, 0.0, 5.018603, 4.9711905 
4.839346e+2, 1.7624816e+2, -1188649.5, -1262194.4, -5683.3916, 0.012947741, 0.0012849288, -1188212.9, 24559.26, 0.0, 5.0181394, 4.9703875 
4.8392537e+2, 1.8121634e+2, -1148367.3, -1229439.6, -6264.7354, 0.013377821, 0.00832231, -1147886.0, 16199.016, 0.0, 5.0176406, 4.965095 
4.8391515e+2, 1.8618181e+2, -1100404.1, -1179995.6, -6413.8584, 0.009352568, 0.006179183, -1099890.6, 15532.042, 0.0, 5.0170484, 4.965464 
4.8390493e+2, 1.9114733e+2, -1052959.0, -1131651.6, -6454.4263, 0.0050895084, 0.00382806, -1052433.1, 14326.742, 0.0, 5.0164523, 4.965462 
4.838947e+2, 1.9611283e+2, -1006394.06, -1085212.8, -6492.9194, 0.00083303195, 0.0017633787, -1005862.75, 12234.308, 0.0, 5.0158563, 4.96481 
4.8388454e+2, 2.0107512e+2, -967447.6, -1055276.6, -6593.4253, -0.002165481, 0.009220766, -966955.4, 2511.4688, 0.0, 5.0152693, 4.958519 
4.8387477e+2, 2.060343e+2, -919537.94, -1006129.2, -6597.7744, -0.00044457795, 0.010974323, -919038.06, 1831.9996, 0.0, 5.014694, 4.9587455 
4.83865e+2, 2.1099345e+2, -871924.8, -957630.44, -6567.359, 0.0017145365, 0.012171399, -871424.5, 849.1792, 0.0, 5.014119, 4.9587483 
4.838552e+2, 2.1595262e+2, -824968.0, -910576.3, -6536.1187, 0.0038833006, 0.01350287, -824471.9, -794.5746, 0.0, 5.0135436, 4.9582515 
4.8384535e+2, 2.2090833e+2, -784676.7, -878047.4, -6696.82, 0.0058912635, 0.018756824, -784198.8, -9086.567, 0.0, 5.01296, 4.952746 
4.8383483e+2, 2.2586104e+2, -735901.9, -826670.5, -7005.8745, 0.0030116788, 0.0062683164, -735364.3, -8795.9795, 0.0, 5.012294, 4.953741 
4.8382425e+2, 2.3081385e+2, -688463.5, -778244.75, -7235.3306, -0.0006244134, -0.0069685094, -687884.1, -9861.131, 0.0, 5.011617, 4.953735 
4.8381364e+2, 2.357666e+2, -641660.56, -731257.3, -7455.315, -0.004228477, -0.020659143, -641044.5, -11566.319, 0.0, 5.0109396, 4.953227 
4.8380306e+2, 2.4071693e+2, -604114.56, -704659.44, -7204.3955, -0.00812079, -0.010928545, -603600.94, -22640.053, 0.0, 5.0102477, 4.945605 
4.8379335e+2, 2.456652e+2, -555881.75, -654256.6, -6929.053, -0.012785494, 0.0056596035, -555396.06, -22918.627, 0.0, 5.0095353, 4.946229 
4.837837e+2, 2.506133e+2, -508459.34, -605782.75, -7135.1475, -0.017517744, 0.019422818, -507939.0, -23942.545, 0.0, 5.0088215, 4.946218 
4.8377398e+2, 2.5556156e+2, -461271.22, -557865.56, -7352.218, -0.022371251, 0.03455204, -460714.8, -25200.549, 0.0, 5.0081053, 4.946008 
4.837651e+2, 2.6050538e+2, -420549.94, -524750.1, -6940.789, -0.024092931, 0.052647658, -420089.66, -33021.7, 0.0, 5.0074406, 4.9404025 
4.8375326e+2, 2.6544744e+2, -366062.66, -459342.47, -8244.906, -0.06062017, -0.0048188795, -365339.5, -26731.928, 0.0, 5.006269, 4.946169 
4.8374e+2, 2.703893e+2, -319347.88, -411796.7, -9183.01, -0.1061538, -0.084889315, -318444.53, -28298.52, 0.0, 5.0049467, 4.9461045 
4.8372623e+2, 2.7533007e+2, -272523.44, -364503.34, -9849.162, -0.15210356, -0.17890462, -271480.63, -29785.76, 0.0, 5.003601, 4.945992 
4.8372227e+2, 2.8027108e+2, -263895.1, -399215.03, 1770.2313, -0.15796651, -0.11310161, -263871.94, -70621.195, 0.0, 5.002547, 4.917153 
4.837262e+2, 2.852074e+2, -202877.23, -317399.56, -5477.317, -0.114029825, 0.010425679, -202615.86, -57718.52, 0.0, 5.003017, 4.9274926 
4.8372465e+2, 2.9013807e+2, -151341.34, -266997.06, -6793.928, -0.08309318, 0.022641359, -150943.61, -54338.117, 0.0, 5.0037413, 4.9273458 
4.8372275e+2, 2.9506767e+2, -99708.94, -216717.73, -7827.1797, -0.050068438, 0.022217298, -99187.67, -50863.668, 0.0, 5.004427, 4.9271984 
4.8372138e+2, 3.0001333e+2, -29365.926, -90548.35, -6987.907, -0.008144105, 0.02533152, -28577.955, -28577.955, 0.0, 5.005265, 4.9635797 
4.8371977e+2, 3.0497876e+2, -15663.099, -66528.21, -7577.061, 0.047470644, -0.050981782, -14558.383, -14558.383, 0.0, 5.0070224, 4.9709764 
4.8371673e+2, 3.09946e+2, -9638.802, -61102.31, -9522.499, 0.10229022, -0.14233588, -7933.3335, -7933.3335, 0.0, 5.008875, 4.9719887 
4.8371273e+2, 3.1491578e+2, -3514.9727, -55782.594, -11525.143, 0.1575408, -0.21989344, -1086.4834, -1086.4834, 0.0, 5.010681, 4.973003 
4.890329e+2, 1.2150419e+2, -1693548.3, -1753091.4, -375.9384, -0.012061505, 0.00235268, -1693545.9, 55706.902, 0.0, 5.023001, 4.984193 
4.89028e+2, 1.2648563e+2, -1648151.8, -1709495.9, -2316.1526, -0.0056362674, -0.009347245, -1648064.4, 52373.797, 0.0, 5.022597, 4.9826365 
4.8902258e+2, 1.3146816e+2, -1600398.6, -1661138.4, -2407.3723, -0.00244104, -0.010874758, -1600303.4, 51305.63, 0.0, 5.022198, 4.982636 
4.890172e+2, 1.3645066e+2, -1554743.9, -1617107.5, -2463.97, 0.0007625534, -0.011174412, -1554646.8, 48133.29, 0.0, 5.021799, 4.981199 
4.8901108e+2, 1.4143062e+2, -1513228.3, -1581532.9, -3769.562, 0.003595937, 0.0024697247, -1513020.8, 40955.78, 0.0, 5.021377, 4.976889 
4.8900357e+2, 1.4640783e+2, -1465312.8, -1532631.6, -4080.463, 0.004142945, 0.0013016417, -1465066.3, 40134.57, 0.0, 5.020917, 4.9770713 
4.8899603e+2, 1.5138496e+2, -1417661.5, -1484281.6, -4180.7515, 0.0045530456, -0.0006405253, -1417400.1, 39025.555, 0.0, 5.0204554, 4.977071 
4.889885e+2, 1.563621e+2, -1371367.5, -1438773.3, -4258.859, 0.0049645966, -0.0021275654, -1371099.5, 36551.242, 0.0, 5.0199933, 4.976117 
4.8898038e+2, 1.6133583e+2, -1331087.5, -1405875.4, -5553.4917, 0.005595233, 0.0023476325, -1330677.4, 28231.756, 0.0, 5.01953, 4.9709415 
4.889711e+2, 1.6630717e+2, -1283145.6, -1356992.8, -5883.6924, 0.0071717678, 0.0023927526, -1282679.8, 27512.059, 0.0, 5.0190663, 4.9710913 
4.889618e+2, 1.7127852e+2, -1235407.8, -1308551.5, -5962.157, 0.008801207, 0.0026142201, -1234925.0, 26549.063, 0.0, 5.018603, 4.971091 
4.889525e+2, 1.7624988e+2, -1188789.0, -1262489.5, -6035.844, 0.010430348, 0.0032249626, -1188298.0, 24458.318, 0.0, 5.018139, 4.9702883 
4.8894277e+2, 1.8121795e+2, -1148456.5, -1229628.6, -6695.604, 0.010929754, 0.010222711, -1147908.0, 16162.028, 0.0, 5.01764, 4.965032 
4.889321e+2, 1.861832e+2, -1100477.0, -1180147.9, -6868.6797, 0.008049375, 0.0063457387, -1099889.1, 15520.101, 0.0, 5.017048, 4.9654136 
4.8892137e+2, 1.9114847e+2, -1053032.4, -1131802.6, -6907.971, 0.0049716374, 0.0021812203, -1052431.1, 14317.051, 0.0, 5.0164514, 4.965412 
4.8891068e+2, 1.9611375e+2, -1006467.94, -1085362.5, -6945.1265, 0.0018932056, -0.0016951488, -1005861.25, 12225.874, 0.0, 5.015855, 4.9647603 
4.889e+2, 2.0107593e+2, -967405.06, -1055175.8, -7033.76, -0.00056217785, 0.00464082, -966844.94, 2612.6067, 0.0, 5.0152683, 4.9585543 
4.888895e+2, 2.0603529e+2, -919484.9, -1006005.2, -7036.058, -0.00006746615, 0.007934125, -918916.44, 1941.9777, 0.0, 5.014693, 4.958789 
4.88879e+2, 2.1099468e+2, -871873.75, -957508.94, -7003.9824, 0.00074767217, 0.010924917, -871304.7, 954.66644, 0.0, 5.0141172, 4.9587913 
4.888685e+2, 2.1595407e+2, -824918.9, -910457.3, -6971.0366, 0.0015583392, 0.014073473, -824354.5, -694.2045, 0.0, 5.013541, 4.9582944 
4.8885804e+2, 2.2090983e+2, -784946.8, -878618.1, -7195.42, 0.0029166776, 0.020539168, -784397.3, -9303.079, 0.0, 5.0129566, 4.9525533 
4.8884693e+2, 2.2586207e+2, -736290.4, -827466.56, -7518.0283, 0.00077416183, 0.0060845013, -735674.6, -9119.208, 0.0, 5.012286, 4.953471 
4.8883572e+2, 2.3081438e+2, -688858.6, -779021.75, -7734.1113, -0.002175986, -0.009461828, -688200.06, -10184.399, 0.0, 5.011605, 4.953471 
4.8882452e+2, 2.3576663e+2, -642062.44, -732015.5, -7940.6665, -0.005157866, -0.02542906, -641366.9, -11890.695, 0.0, 5.010923, 4.9529696 
4.8881334e+2, 2.4071644e+2, -604347.6, -704958.1, -7711.62, -0.009278251, -0.019249376, -603760.0, -22795.994, 0.0, 5.0102177, 4.945511 
4.8880264e+2, 2.4566466e+2, -556254.75, -654878.06, -7506.6685, -0.015880998, -0.001205528, -555686.7, -23207.729, 0.0, 5.009505, 4.9460273 
4.8879203e+2, 2.5061285e+2, -508819.44, -606422.1, -7700.7305, -0.022574266, 0.015908904, -508215.6, -24220.734, 0.0, 5.0087957, 4.9460077 
4.8878133e+2, 2.5556123e+2, -461618.34, -558522.8, -7905.7495, -0.029392302, 0.034631412, -460977.6, -25468.186, 0.0, 5.008085, 4.94579 
4.887715e+2, 2.605051e+2, -420963.28, -525337.2, -7624.905, -0.03228925, 0.053867776, -420409.2, -33348.324, 0.0, 5.0073853, 4.940247 
4.8875985e+2, 2.6544538e+2, -367938.1, -461931.13, -8652.808, -0.05926005, -0.009923091, -367148.2, -28530.293, 0.0, 5.006036, 4.945405 
4.8874697e+2, 2.703854e+2, -321623.06, -413937.22, -9281.03, -0.09468367, -0.09510129, -320699.22, -30525.1, 0.0, 5.004533, 4.9455223 
4.8873356e+2, 2.7532476e+2, -275198.47, -366196.0, -9636.737, -0.13203077, -0.192411, -274189.13, -32452.03, 0.0, 5.003007, 4.9455914 
4.8872828e+2, 2.8026348e+2, -260305.58, -391683.5, -444.0606, -0.13463545, -0.15887688, -260304.08, -66988.81, 0.0, 5.0026364, 4.9198174 
4.8873112e+2, 2.8519922e+2, -201087.6, -318426.22, -5705.9956, -0.09644222, -0.04658971, -200810.78, -55845.043, 0.0, 5.0036573, 4.9272118 
4.8872972e+2, 2.9013085e+2, -149896.92, -267631.66, -6728.6333, -0.07215687, -0.01632087, -149513.63, -52851.332, 0.0, 5.0042434, 4.927215 
4.8872793e+2, 2.950616e+2, -98609.625, -216960.88, -7468.2505, -0.047161262, 0.0020415075, -98140.22, -49772.906, 0.0, 5.0047913, 4.927218 
4.8872665e+2, 3.0000874e+2, -28871.748, -90819.195, -6192.995, -0.014750073, 0.024351172, -28258.69, -28258.69, 0.0, 5.005477, 4.963549 
4.887262e+2, 3.0497319e+2, -16723.668, -69820.375, -6258.719, 0.035274856, -0.04624604, -15995.902, -15995.902, 0.0, 5.007141, 4.9699864 
4.887245e+2, 3.099387e+2, -11050.547, -65042.563, -7837.125, 0.08316258, -0.13184363, -9935.97, -9935.97, 0.0, 5.0089397, 4.9708385 
4.887217e+2, 3.1490672e+2, -5276.668, -60370.242, -9473.479, 0.12833634, -0.2006966, -3693.191, -3693.191, 0.0, 5.0106926, 4.971692 
4.9405602e+2, 1.2150701e+2, -1693975.3, -1753959.8, -752.3972, -0.010818136, 0.002552131, -1693965.8, 55260.273, 0.0, 5.0230007, 4.983908 
4.9405077e+2, 1.264884e+2, -1648326.4, -1709852.0, -2620.8223, -0.0038756786, -0.008164578, -1648214.9, 52196.785, 0.0, 5.022597, 4.9825196 
4.9404493e+2, 1.3147083e+2, -1600572.0, -1661494.0, -2711.1528, -0.001155982, -0.009661882, -1600451.6, 51131.914, 0.0, 5.022198, 4.982519 
4.9403906e+2, 1.3645323e+2, -1554914.0, -1617458.1, -2767.2883, 0.001562526, -0.0099292, -1554791.8, 47963.895, 0.0, 5.021799, 4.981083 
4.9403247e+2, 1.4143305e+2, -1513407.8, -1581907.1, -4116.313, 0.0038794188, 0.0035597202, -1513161.4, 40792.15, 0.0, 5.0213776, 4.976765 
4.940245e+2, 1.4641008e+2, -1465498.9, -1533021.1, -4432.5933, 0.003985288, 0.0020565386, -1465209.1, 39970.156, 0.0, 5.0209174, 4.976942 
4.9401644e+2, 1.5138707e+2, -1417846.5, -1484670.0, -4532.619, 0.003956631, -0.00021595029, -1417540.5, 38865.223, 0.0, 5.020456, 4.9769416 
4.940084e+2, 1.5636402e+2, -1371547.9, -1439153.1, -4609.3755, 0.003927313, -0.0020327873, -1371235.1, 36397.133, 0.0, 5.019994, 4.9759903 
4.9399975e+2, 1.6133764e+2, -1331236.0, -1406188.0, -5911.1772, 0.0041457782, 0.0024126237, -1330772.6, 28119.17, 0.0, 5.0195303, 4.9708376 
4.9399e+2, 1.6630892e+2, -1283287.4, -1357291.6, -6237.431, 0.0053709815, 0.00306725, -1282765.4, 27409.596, 0.0, 5.0190663, 4.9709916 
4.9398017e+2, 1.7128026e+2, -1235548.9, -1308849.4, -6315.5684, 0.00664383, 0.0039187055, -1235008.8, 26448.947, 0.0, 5.018603, 4.970991 
4.9397036e+2, 1.7625159e+2, -1188928.6, -1262784.8, -6388.314, 0.007910475, 0.0051609566, -1188380.1, 24360.334, 0.0, 5.018139, 4.9701896 
4.9396014e+2, 1.8121958e+2, -1148550.6, -1229827.9, -7126.977, 0.008483608, 0.012127321, -1147930.5, 16124.489, 0.0, 5.01764, 4.9649653 
4.93949e+2, 1.8618459e+2, -1100550.0, -1180300.1, -7324.2295, 0.0067484477, 0.00649603, -1099882.9, 15512.975, 0.0, 5.017048, 4.9653625 
4.9393785e+2, 1.9114962e+2, -1053105.9, -1131953.6, -7362.2446, 0.0048558307, 0.0004905003, -1052424.4, 14312.209, 0.0, 5.016451, 4.965361 
4.9392664e+2, 1.9611467e+2, -1006542.0, -1085512.3, -7398.062, 0.0029552449, -0.00522516, -1005854.9, 12222.269, 0.0, 5.015854, 4.9647098 
4.9391544e+2, 2.0107673e+2, -967369.06, -1055088.6, -7473.148, 0.0010260429, 0.00013995453, -966736.94, 2711.2283, 0.0, 5.015267, 4.958585 
4.939042e+2, 2.0603631e+2, -919432.1, -1005881.0, -7473.764, 0.0002876592, 0.005002683, -918790.75, 2055.8452, 0.0, 5.0146914, 4.9588323 
4.93893e+2, 2.1099591e+2, -871823.0, -957387.25, -7440.0293, -0.0002399845, 0.0097433925, -871180.9, 1064.0732, 0.0, 5.0141153, 4.958834 
4.9388182e+2, 2.1595553e+2, -824870.06, -910338.06, -7405.3774, -0.0007862202, 0.014665252, -824233.2, -589.923, 0.0, 5.0135393, 4.958337 
4.938707e+2, 2.2091135e+2, -785269.8, -879302.1, -7699.324, 0.000051224346, 0.022383818, -784643.56, -9567.164, 0.0, 5.0129533, 4.95232 
4.9385902e+2, 2.258631e+2, -736680.9, -828261.75, -8039.847, -0.0013900722, 0.005724685, -735980.44, -9437.593, 0.0, 5.0122786, 4.953198 
4.9384722e+2, 2.3081486e+2, -689255.75, -779797.9, -8242.556, -0.0037523105, -0.0124484645, -688511.5, -10502.845, 0.0, 5.011593, 4.953204 
4.9383542e+2, 2.357666e+2, -642466.25, -732772.75, -8435.682, -0.0062099965, -0.031009473, -641685.0, -12210.312, 0.0, 5.0109057, 4.9527082 
4.938236e+2, 2.4071601e+2, -604701.1, -705517.1, -8237.628, -0.0104972515, -0.026765004, -604032.44, -23066.002, 0.0, 5.010188, 4.945326 
4.938119e+2, 2.4566422e+2, -556631.8, -655496.2, -8076.7603, -0.019051488, -0.0066007366, -555976.4, -23497.086, 0.0, 5.0094743, 4.945823 
4.9380028e+2, 2.5061253e+2, -509183.53, -607058.1, -8258.786, -0.02778002, 0.0134561835, -508491.53, -24499.303, 0.0, 5.0087705, 4.9457946 
4.937886e+2, 2.55561e+2, -461969.44, -559176.7, -8451.75, -0.03663682, 0.03536339, -461240.06, -25736.342, 0.0, 5.0080647, 4.9455686 
4.93778e+2, 2.6050454e+2, -421938.84, -527131.6, -8452.968, -0.03898333, 0.05477805, -421263.9, -34207.53, 0.0, 5.00733, 4.939634 
4.937663e+2, 2.654427e+2, -369857.78, -464492.0, -9352.435, -0.057289775, -0.021194385, -368942.38, -30308.094, 0.0, 5.005803, 4.944551 
4.937534e+2, 2.703807e+2, -323941.9, -416048.3, -9670.879, -0.084791146, -0.11818579, -322937.44, -32727.031, 0.0, 5.0041194, 4.9448504 
4.9373996e+2, 2.753184e+2, -277916.63, -367857.56, -9716.308, -0.11572252, -0.22549072, -276878.94, -35089.258, 0.0, 5.002413, 4.9451017 
4.9373433e+2, 2.8025585e+2, -260073.56, -391874.53, -1689.9886, -0.110889845, -0.20205168, -260051.89, -66671.92, 0.0, 5.002727, 4.919775 
4.9373686e+2, 2.851918e+2, -199362.16, -319395.47, -6220.121, -0.075151004, -0.084613085, -199040.69, -54013.984, 0.0, 5.0042973, 4.9268627 
4.9373537e+2, 2.9012415e+2, -148515.69, -268208.66, -6948.403, -0.05908587, -0.042748615, -148113.67, -51399.793, 0.0, 5.004746, 4.9270163 
4.9373347e+2, 2.9505584e+2, -97572.52, -217146.17, -7394.0513, -0.043688152, -0.0120573435, -97117.04, -48709.395, 0.0, 5.0051565, 4.92717 
4.9373224e+2, 3.0000404e+2, -28683.176, -91591.3, -5455.8345, -0.02066975, 0.022715956, -28213.514, -28213.514, 0.0, 5.0056887, 4.9632993 
4.937332e+2, 3.0496702e+2, -17857.69, -73043.29, -4742.865, 0.028836887, -0.04985342, -17453.037, -17453.037, 0.0, 5.00726, 4.9689293 
4.937331e+2, 3.0993035e+2, -12535.875, -68915.055, -5953.993, 0.07502203, -0.13871263, -11913.956, -11913.956, 0.0, 5.009005, 4.9696207 
4.9373177e+2, 3.1489623e+2, -7112.1816, -64891.74, -7223.6865, 0.11534902, -0.2078816, -6222.757, -6222.757, 0.0, 5.010704, 4.9703135 
4.990792e+2, 1.2150981e+2, -1693938.9, -1754435.3, -823.89655, -0.0094314935, 0.002198917, -1693927.6, 55271.91, 0.0, 5.0231194, 4.983694 
4.9907357e+2, 1.2649125e+2, -1648151.9, -1710050.3, -2642.2942, -0.0022016787, -0.0068754866, -1648039.3, 52345.47, 0.0, 5.0227156, 4.9823966 
4.9906725e+2, 1.3147354e+2, -1600416.0, -1661700.8, -2761.7776, 0.000058985363, -0.008418382, -1600291.8, 51265.945, 0.0, 5.0223107, 4.982396 
4.9906093e+2, 1.364558e+2, -1554779.9, -1617671.4, -2845.57, 0.0023202081, -0.008729678, -1554651.4, 48079.69, 0.0, 5.0219035, 4.9809623 
4.990539e+2, 1.4143549e+2, -1513318.9, -1582156.8, -4254.6343, 0.00415797, 0.0045713396, -1513056.9, 40873.24, 0.0, 5.0214696, 4.9766383 
4.9904537e+2, 1.4641236e+2, -1465465.0, -1533301.5, -4575.305, 0.0038510426, 0.0027565365, -1465157.8, 39999.715, 0.0, 5.0209913, 4.976814 
4.9903685e+2, 1.513892e+2, -1417865.8, -1484975.5, -4673.1255, 0.0034134483, 0.0001768314, -1417541.9, 38843.496, 0.0, 5.0205116, 4.976813 
4.990283e+2, 1.5636599e+2, -1371617.3, -1439476.8, -4746.241, 0.0029757316, -0.0019456432, -1371286.9, 36326.547, 0.0, 5.0200315, 4.9758644 
4.9901915e+2, 1.6133949e+2, -1331329.6, -1406474.8, -6051.695, 0.0027954618, 0.002493021, -1330845.4, 28028.82, 0.0, 5.0195494, 4.9707327 
4.9900886e+2, 1.6631074e+2, -1283431.6, -1357589.9, -6370.536, 0.003651535, 0.0037290892, -1282888.4, 27269.51, 0.0, 5.0190654, 4.9708924 
4.9899855e+2, 1.7128202e+2, -1235752.6, -1309175.5, -6444.6475, 0.0045560976, 0.005172484, -1235191.3, 26249.854, 0.0, 5.018581, 4.970892 
4.9898824e+2, 1.762533e+2, -1189192.0, -1263137.0, -6512.157, 0.0054545286, 0.007004314, -1188622.9, 24101.479, 0.0, 5.018096, 4.9700913 
4.9897754e+2, 1.812212e+2, -1148813.3, -1230120.8, -7328.8315, 0.006091954, 0.013944785, -1148157.9, 15881.731, 0.0, 5.0175853, 4.964893 
4.9896592e+2, 1.86186e+2, -1100770.8, -1180533.6, -7576.685, 0.005469868, 0.006636212, -1100057.4, 15324.855, 0.0, 5.016999, 4.9653068 
4.9895427e+2, 1.911508e+2, -1053314.0, -1132180.5, -7643.205, 0.0047419667, -0.0011317485, -1052580.0, 14144.616, 0.0, 5.016406, 4.9653053 
4.9894258e+2, 1.9611561e+2, -1006744.5, -1085735.6, -7708.551, 0.004011916, -0.008604592, -1005999.3, 12067.722, 0.0, 5.015811, 4.964654 
4.9893084e+2, 2.0107758e+2, -967489.25, -1055095.6, -7800.236, 0.0026111125, -0.004030661, -966800.1, 2638.3733, 0.0, 5.015217, 4.9586062 
4.9891895e+2, 2.0603734e+2, -919588.2, -1005864.75, -7828.1787, 0.0006906199, 0.0022934773, -918883.7, 1950.9169, 0.0, 5.01462, 4.9588714 
4.9890703e+2, 2.1099713e+2, -872051.25, -957406.56, -7819.9136, -0.00111553, 0.008547078, -871340.75, 889.80865, 0.0, 5.0140185, 4.958873 
4.9889514e+2, 2.1595694e+2, -825183.5, -910398.44, -7809.2217, -0.0029500518, 0.014948504, -824473.75, -847.25726, 0.0, 5.0134125, 4.958375 
4.9888337e+2, 2.2091278e+2, -785990.44, -880246.7, -8163.6826, -0.0025291496, 0.023810936, -785288.56, -10229.348, 0.0, 5.012827, 4.9520526 
4.988711e+2, 2.2586405e+2, -737157.0, -829109.44, -8523.321, -0.0034041603, 0.0050678416, -736373.6, -9842.906, 0.0, 5.0122423, 4.9529185 
4.988587e+2, 2.3081532e+2, -689503.1, -780536.4, -8741.709, -0.0052685, -0.015667967, -688671.3, -10669.358, 0.0, 5.011637, 4.9529247 
4.9884632e+2, 2.3576656e+2, -642532.2, -733422.6, -8969.6045, -0.0071951575, -0.036779027, -641655.44, -12182.056, 0.0, 5.011016, 4.952429 
4.9883384e+2, 2.4071565e+2, -604598.8, -706099.4, -8845.487, -0.011372199, -0.032810483, -603833.7, -22865.61, 0.0, 5.010359, 4.94505 
4.9882126e+2, 2.4566391e+2, -556098.44, -655687.56, -8688.335, -0.021589996, -0.01039268, -555346.1, -22867.367, 0.0, 5.0097594, 4.9456306 
4.988087e+2, 2.506122e+2, -508232.63, -607040.7, -8795.9795, -0.03213785, 0.011332154, -507455.72, -23466.074, 0.0, 5.0092044, 4.945608 
4.9879608e+2, 2.5556064e+2, -460525.75, -558917.2, -8861.779, -0.04282879, 0.034773562, -459733.97, -24234.842, 0.0, 5.0086756, 4.945387 
4.9878484e+2, 2.6050353e+2, -421143.0, -529192.4, -9172.435, -0.042820465, 0.052990098, -420369.88, -33313.324, 0.0, 5.008137, 4.9385266 
4.9877304e+2, 2.6543936e+2, -368997.6, -466708.28, -11098.178, -0.051989548, -0.036740534, -367752.9, -29095.355, 0.0, 5.006732, 4.9432817 
4.9876007e+2, 2.70375e+2, -323703.7, -418453.5, -12995.194, -0.07027836, -0.14840633, -321953.7, -31696.168, 0.0, 5.0048814, 4.9435797 
4.9874654e+2, 2.7531037e+2, -279199.3, -370785.88, -15364.695, -0.09158063, -0.2695878, -276690.44, -34830.34, 0.0, 5.002702, 4.9438357 
4.9874184e+2, 2.802469e+2, -264412.94, -399296.0, -8982.963, -0.07078539, -0.23519091, -263817.3, -70358.35, 0.0, 5.002459, 4.91726 
4.9874446e+2, 2.8518417e+2, -199275.16, -318865.8, -11202.026, -0.039570704, -0.09956781, -198234.9, -53144.14, 0.0, 5.0043063, 4.926983 
4.987422e+2, 2.901175e+2, -147801.86, -267484.47, -9538.14, -0.038055584, -0.054105945, -147046.48, -50280.363, 0.0, 5.0049434, 4.927137 
4.9873963e+2, 2.950502e+2, -96847.08, -216451.08, -8120.6226, -0.037042636, -0.01878924, -96298.24, -47850.883, 0.0, 5.005342, 4.927294 
4.9873817e+2, 2.9999918e+2, -29356.684, -93006.5, -4556.2344, -0.025281154, 0.021072906, -29032.19, -29032.19, 0.0, 5.0056634, 4.962804 
4.987407e+2, 3.049604e+2, -20682.162, -77014.01, -2788.9197, 0.02809517, -0.06051971, -20544.424, -20544.424, 0.0, 5.0067744, 4.9676814 
4.9874264e+2, 3.0992118e+2, -17879.4, -74199.46, -3016.8325, 0.0809565, -0.16397427, -17718.262, -17718.262, 0.0, 5.007663, 4.9682717 
4.987436e+2, 3.148843e+2, -16139.047, -71967.62, -2830.1252, 0.12881416, -0.24843298, -15995.945, -15995.945, 0.0, 5.0080957, 4.968861 
5.0410324e+2, 1.2151395e+2, -1689800.3, -1752350.3, 200.13712, -0.0075095748, 0.0018200509, -1689799.6, 59360.332, 0.0, 5.024486, 4.9837084 
5.0409704e+2, 1.2649547e+2, -1644494.9, -1708700.1, -1694.545, -0.001919427, -0.004565462, -1644450.3, 55893.54, 0.0, 5.0240307, 4.982198 
5.0409025e+2, 1.3147746e+2, -1596958.5, -1660451.8, -1868.6078, 0.00028136218, -0.0070088576, -1596903.6, 54616.035, 0.0, 5.023562, 4.9821987 
5.040835e+2, 1.3645944e+2, -1551512.3, -1616515.3, -2009.6056, 0.0024980777, -0.008226332, -1551450.3, 51245.555, 0.0, 5.023093, 4.9807663 
5.0407594e+2, 1.4143887e+2, -1510170.4, -1580918.4, -3506.3179, 0.0042668143, 0.0043729404, -1509997.0, 43900.21, 0.0, 5.02259, 4.976505 
5.0406694e+2, 1.4641564e+2, -1462543.5, -1532153.3, -3833.3574, 0.003910271, 0.002579224, -1462333.1, 42792.656, 0.0, 5.0220337, 4.9766912 
5.040579e+2, 1.5139236e+2, -1415185.6, -1483948.8, -3929.199, 0.003424341, 0.00006244593, -1414961.9, 41392.97, 0.0, 5.021475, 4.976691 
5.0404876e+2, 1.5636903e+2, -1369172.4, -1438562.3, -3999.1719, 0.0029421404, -0.0019942324, -1368942.6, 38641.35, 0.0, 5.0209165, 4.9757447 
5.0403905e+2, 1.6134244e+2, -1329082.5, -1405590.0, -5304.696, 0.002584165, 0.0025353665, -1328716.5, 30129.146, 0.0, 5.020353, 4.9706435 
5.040282e+2, 1.6631362e+2, -1281437.5, -1356818.1, -5609.3433, 0.0029659886, 0.0039229766, -1281022.4, 29107.38, 0.0, 5.0197825, 4.970809 
5.0401735e+2, 1.7128484e+2, -1234017.8, -1308531.0, -5671.703, 0.0033934978, 0.005513123, -1233588.5, 27824.982, 0.0, 5.0192113, 4.970809 
5.0400645e+2, 1.7625605e+2, -1187712.0, -1262615.1, -5726.5225, 0.003824531, 0.0074849203, -1187276.8, 25420.527, 0.0, 5.0186405, 4.970009 
5.039951e+2, 1.8122384e+2, -1147603.0, -1229838.3, -6588.5703, 0.0043314407, 0.01448841, -1147078.4, 16935.05, 0.0, 5.01806, 4.964764 
5.03983e+2, 1.8618847e+2, -1099689.6, -1180353.6, -6925.5903, 0.004408357, 0.006952703, -1099099.4, 16258.611, 0.0, 5.0174384, 4.9651613 
5.039708e+2, 1.9115311e+2, -1052330.0, -1132050.0, -7069.139, 0.0044357027, -0.0010547286, -1051708.0, 14994.18, 0.0, 5.0168138, 4.96516 
5.0395864e+2, 1.9611776e+2, -1005850.25, -1085650.9, -7209.608, 0.004482565, -0.00875237, -1005204.1, 12842.3545, 0.0, 5.0161886, 4.964508 
5.039463e+2, 2.0107955e+2, -966605.3, -1054783.3, -7390.5547, 0.0034557732, -0.004741945, -965990.2, 3429.275, 0.0, 5.0155435, 4.9585614 
5.0393367e+2, 2.0603922e+2, -918928.06, -1005608.94, -7471.2026, 0.00078171777, 0.0009461979, -918288.8, 2526.547, 0.0, 5.0148587, 4.958849 
5.0392103e+2, 2.1099892e+2, -871627.8, -957262.94, -7512.7144, -0.0018513299, 0.0065530073, -870973.7, 1237.4242, 0.0, 5.014175, 4.958851 
5.039084e+2, 2.1595863e+2, -824981.8, -910359.5, -7551.915, -0.0045206617, 0.012194855, -824318.94, -711.9821, 0.0, 5.01349, 4.958353 
5.038959e+2, 2.2091433e+2, -786139.44, -880854.8, -7838.158, -0.0048301728, 0.02082955, -785495.2, -10454.881, 0.0, 5.01288, 4.951819 
5.038832e+2, 2.2586533e+2, -737159.8, -829846.9, -8203.954, -0.0051997397, 0.0022394734, -736439.25, -9923.794, 0.0, 5.012382, 4.952603 
5.0387037e+2, 2.3081629e+2, -689221.4, -781181.5, -8455.718, -0.006203043, -0.018468851, -688450.4, -10459.593, 0.0, 5.011881, 4.9525976 
5.038576e+2, 2.3576722e+2, -641922.75, -733957.25, -8697.816, -0.0070721777, -0.03952127, -641107.94, -11641.547, 0.0, 5.0113792, 4.9520903 
5.0384474e+2, 2.40716e+2, -603337.8, -705950.4, -8533.463, -0.0100013465, -0.03599928, -602633.0, -21668.533, 0.0, 5.010855, 4.9449005 
5.038317e+2, 2.4566406e+2, -554601.1, -655225.75, -8307.22, -0.019390361, -0.01417297, -553919.94, -21445.344, 0.0, 5.010301, 4.945571 
5.0381863e+2, 2.5061217e+2, -506712.9, -606464.3, -8364.693, -0.02926616, 0.0063055675, -506016.34, -22031.36, 0.0, 5.009747, 4.9455824 
5.038055e+2, 2.5556034e+2, -459063.06, -558262.1, -8431.79, -0.039325695, 0.027537266, -458351.47, -22856.945, 0.0, 5.0091906, 4.9453955 
5.0379384e+2, 2.605029e+2, -420549.9, -531155.7, -8606.303, -0.037774038, 0.044734586, -419884.25, -32829.48, 0.0, 5.0087566, 4.9376016 
5.037828e+2, 2.654379e+2, -366952.6, -471124.8, -10088.25, -0.03547662, -0.033955686, -365984.6, -27313.955, 0.0, 5.008313, 4.9412103 
5.03771e+2, 2.7037212e+2, -318217.34, -422690.66, -11058.364, -0.03678259, -0.13405062, -317059.66, -26767.393, 0.0, 5.0077987, 4.941099 
5.0375897e+2, 2.7530545e+2, -269417.5, -374491.6, -11798.041, -0.036728054, -0.24510168, -268109.06, -26186.521, 0.0, 5.0072656, 4.940941 
5.0375426e+2, 2.802398e+2, -251375.8, -391451.13, -3308.946, 0.0005180037, -0.21319722, -251297.67, -57749.242, 0.0, 5.0066776, 4.918055 
5.037544e+2, 2.8517798e+2, -192042.69, -309750.78, -4102.17, 0.012661248, -0.09019394, -191899.89, -46736.855, 0.0, 5.0059814, 4.929058 
5.037504e+2, 2.9011282e+2, -144400.95, -261204.6, -3941.0212, -0.0060279802, -0.05055249, -144268.13, -47453.86, 0.0, 5.005312, 4.928919 
5.037462e+2, 2.950469e+2, -96659.4, -212728.58, -3560.4841, -0.022174906, -0.019408287, -96550.28, -48077.48, 0.0, 5.004612, 4.9287786 
5.037434e+2, 2.9999703e+2, -32625.822, -94087.016, -920.8383, -0.024935918, 0.018220156, -32612.03, -32612.03, 0.0, 5.0040784, 4.963067 
5.037455e+2, 3.0495918e+2, -26908.652, -82381.51, 116.40616, 0.017894719, -0.0507086, -26908.408, -26908.408, 0.0, 5.00455, 4.966685 
5.0374776e+2, 3.099205e+2, -24681.555, -79562.414, -1010.49524, 0.06911594, -0.14393324, -24662.955, -24662.955, 0.0, 5.0051384, 4.9673347 
5.037497e+2, 3.1488353e+2, -22383.854, -76814.92, -2295.6348, 0.12469225, -0.22698434, -22287.207, -22287.207, 0.0, 5.005689, 4.9679856 
5.091279e+2, 1.2151875e+2, -1689615.9, -1751975.6, -81.60346, -0.005837578, 0.0011985687, -1689615.8, 59497.98, 0.0, 5.024486, 4.9838314 
5.09121e+2, 1.2650041e+2, -1644827.0, -1709379.9, -2052.7947, -0.002167361, -0.0018912163, -1644761.8, 55533.87, 0.0, 5.02403, 4.981975 
5.091138e+2, 1.3148206e+2, -1597288.1, -1661129.9, -2225.9956, 0.00014594072, -0.005527075, -1597210.6, 54264.273, 0.0, 5.023562, 4.981975 
5.091066e+2, 1.364637e+2, -1551838.9, -1617190.9, -2368.883, 0.0024651166, -0.007940137, -1551753.1, 50901.285, 0.0, 5.023093, 4.9805436 
5.0909853e+2, 1.4144285e+2, -1510371.8, -1581339.6, -3923.158, 0.0042833863, 0.003800371, -1510155.6, 43702.91, 0.0, 5.022591, 4.976366 
5.0908893e+2, 1.4641951e+2, -1462720.1, -1532524.5, -4258.966, 0.003989358, 0.0021310633, -1462461.1, 42626.918, 0.0, 5.022034, 4.976568 
5.0907934e+2, 1.513961e+2, -1415361.0, -1484318.8, -4354.5576, 0.0035600523, -0.00021500964, -1415087.1, 41231.11, 0.0, 5.021476, 4.9765677 
5.090697e+2, 1.563727e+2, -1369343.4, -1438924.5, -4423.8086, 0.00313157, -0.0021013995, -1369063.3, 38485.047, 0.0, 5.020917, 4.975624 
5.090594e+2, 1.61346e+2, -1329203.1, -1405847.4, -5740.9824, 0.0026592736, 0.002537877, -1328775.5, 30035.406, 0.0, 5.020354, 4.9705577 
5.090479e+2, 1.663171e+2, -1281548.1, -1357055.3, -6044.138, 0.002560847, 0.0039284853, -1281067.4, 29028.19, 0.0, 5.019783, 4.97073 
5.090364e+2, 1.7128824e+2, -1234127.9, -1308767.4, -6106.1655, 0.0024899237, 0.0055206716, -1233631.6, 27748.15, 0.0, 5.019212, 4.97073 
5.090249e+2, 1.7625938e+2, -1187820.5, -1262848.4, -6159.701, 0.002418472, 0.0074969037, -1187318.3, 25345.861, 0.0, 5.018641, 4.9699306 
5.0901306e+2, 1.8122709e+2, -1147820.1, -1230306.1, -7052.774, 0.0027434912, 0.014649585, -1147221.5, 16759.646, 0.0, 5.0180607, 4.9646077 
5.0900036e+2, 1.8619156e+2, -1099941.0, -1180894.3, -7401.206, 0.0033958901, 0.0073782606, -1099270.0, 16057.581, 0.0, 5.017439, 4.96498 
5.089876e+2, 1.9115603e+2, -1052581.0, -1132587.6, -7543.52, 0.0040149763, -0.00037803504, -1051876.0, 14797.894, 0.0, 5.0168138, 4.964979 
5.0897485e+2, 1.9612052e+2, -1006100.7, -1086185.6, -7682.689, 0.0046410584, -0.007818512, -1005370.4, 12649.708, 0.0, 5.016188, 4.9643273 
5.0896186e+2, 2.0108213e+2, -966701.3, -1054987.0, -7905.5747, 0.0038216156, -0.0043485886, -965999.0, 3395.8809, 0.0, 5.015543, 4.9584928 
5.089485e+2, 2.060416e+2, -918994.44, -1005744.56, -7990.015, 0.00040958743, -0.000019831376, -918264.7, 2526.6514, 0.0, 5.014858, 4.9588037 
5.089351e+2, 2.1100114e+2, -871697.06, -957398.44, -8029.7593, -0.0030372483, 0.0043694335, -870951.2, 1236.204, 0.0, 5.0141726, 4.958806 
5.089217e+2, 2.1596068e+2, -825053.94, -910494.94, -8067.1387, -0.0065463595, 0.008839234, -824298.94, -715.40894, 0.0, 5.013487, 4.9583087 
5.089085e+2, 2.2091624e+2, -786466.44, -881594.8, -8253.503, -0.0075959475, 0.017105974, -785755.6, -10737.948, 0.0, 5.0128827, 4.9515653 
5.088954e+2, 2.2586694e+2, -737583.5, -830790.1, -8586.866, -0.0071065733, -0.0013503365, -736799.0, -10302.132, 0.0, 5.012383, 4.9522796 
5.088822e+2, 2.3081759e+2, -689659.94, -782118.6, -8827.782, -0.00706712, -0.021995444, -688824.6, -10848.067, 0.0, 5.0118756, 4.9522767 
5.08869e+2, 2.357682e+2, -642376.1, -734888.3, -9058.995, -0.0069548436, -0.042871676, -641497.4, -12040.97, 0.0, 5.0113683, 4.9517727 
5.0885576e+2, 2.4071671e+2, -603518.7, -706227.25, -8932.33, -0.0089551965, -0.039782394, -602747.6, -21789.984, 0.0, 5.010836, 4.944816 
5.0884223e+2, 2.4566472e+2, -554706.2, -655363.4, -8753.755, -0.017299445, -0.018198187, -553950.56, -21484.416, 0.0, 5.0102844, 4.9455366 
5.088287e+2, 2.5061277e+2, -506805.22, -606619.9, -8800.602, -0.026160216, 0.0025207382, -506035.22, -22060.88, 0.0, 5.009736, 4.94554 
5.088151e+2, 2.5556093e+2, -459142.6, -558435.56, -8857.055, -0.03523892, 0.024148393, -458358.72, -22877.127, 0.0, 5.009186, 4.945345 
5.08803e+2, 2.6050332e+2, -421585.44, -533571.5, -8938.982, -0.032489408, 0.042569704, -420876.4, -33833.0, 0.0, 5.0087576, 4.9367776 
5.087925e+2, 2.6543772e+2, -368988.97, -474850.75, -10013.954, -0.022612324, -0.028549256, -368050.03, -29375.227, 0.0, 5.008176, 4.939978 
5.0878155e+2, 2.7037162e+2, -320655.72, -426138.63, -10740.434, -0.016236648, -0.11811173, -319573.22, -29262.928, 0.0, 5.0074983, 4.9399967 
5.087702e+2, 2.7530494e+2, -272256.97, -377661.38, -11236.125, -0.009682481, -0.21662559, -271072.5, -29121.076, 0.0, 5.006802, 4.939967 
5.0876456e+2, 2.8023916e+2, -249422.6, -387854.8, -5062.0166, 0.02626091, -0.1839426, -249237.75, -55652.32, 0.0, 5.0067906, 4.9193172 
5.0876266e+2, 2.8517696e+2, -188760.25, -306921.44, -5129.939, 0.031453427, -0.07618924, -188537.95, -43343.88, 0.0, 5.0065527, 4.9300528 
5.087574e+2, 2.9011178e+2, -141486.48, -258179.38, -4731.5923, 0.008016705, -0.04517457, -141294.95, -44461.387, 0.0, 5.0057545, 4.9300156 
5.0875205e+2, 2.9504606e+2, -94112.734, -209506.8, -4114.232, -0.014083669, -0.021258947, -93966.23, -45487.855, 0.0, 5.0049257, 4.9299784 
5.08748e+2, 2.9999658e+2, -31235.621, -92643.16, -1035.6927, -0.025279487, 0.011775389, -31218.158, -31218.158, 0.0, 5.004287, 4.963651 
5.08749e+2, 3.0496046e+2, -26659.717, -83930.945, 457.60696, 0.0022590098, -0.034292873, -26656.06, -26656.06, 0.0, 5.004795, 4.966227 
5.0875026e+2, 3.0992383e+2, -24389.617, -81606.85, -397.0043, 0.035059243, -0.0960888, -24386.863, -24386.863, 0.0, 5.0054474, 4.9667177 
5.087511e+2, 3.1488872e+2, -22048.738, -79354.36, -1410.1782, 0.06971977, -0.147681, -22014.057, -22014.057, 0.0, 5.006062, 4.9672093 
5.141525e+2, 1.21523514e+2, -1689351.1, -1751436.5, -368.85565, -0.0044726077, 0.00018933196, -1689348.9, 59719.125, 0.0, 5.0244865, 4.984009 
5.14145e+2, 1.2650536e+2, -1645159.3, -1710059.5, -2410.7249, -0.002423431, 0.000815527, -1645069.9, 55177.71, 0.0, 5.02403, 4.981752 
5.141373e+2, 1.3148668e+2, -1597617.9, -1661808.1, -2583.0645, 0.0000065340264, -0.0040292367, -1597514.1, 53916.01, 0.0, 5.023562, 4.981752 
5.1412964e+2, 1.3646796e+2, -1552165.6, -1617866.6, -2727.9656, 0.002432272, -0.0076543377, -1552052.6, 50560.36, 0.0, 5.0230937, 4.9803205 
5.141212e+2, 1.4144684e+2, -1510576.3, -1581767.3, -4339.8774, 0.0043002754, 0.0032375078, -1510312.8, 43507.047, 0.0, 5.0225916, 4.976225 
5.1411104e+2, 1.4642338e+2, -1462896.6, -1532895.9, -4684.6577, 0.004068009, 0.0016929947, -1462584.5, 42465.96, 0.0, 5.0220346, 4.976445 
5.1410085e+2, 1.5139987e+2, -1415536.3, -1484688.9, -4779.9995, 0.0036954132, -0.00048792124, -1415207.5, 41074.074, 0.0, 5.0214763, 4.9764447 
5.1409066e+2, 1.5637636e+2, -1369514.5, -1439286.9, -4848.5625, 0.0033207336, -0.0022095644, -1369179.3, 38333.504, 0.0, 5.0209174, 4.9755034 
5.1407975e+2, 1.6134958e+2, -1329325.1, -1406108.0, -6177.3384, 0.002730996, 0.0025438615, -1328831.3, 29944.813, 0.0, 5.0203543, 4.970471 
5.140677e+2, 1.6632059e+2, -1281658.8, -1357292.4, -6478.9634, 0.0021513551, 0.0039328067, -1281107.8, 28953.592, 0.0, 5.0197835, 4.97065 
5.1405555e+2, 1.7129165e+2, -1234238.0, -1309003.9, -6540.658, 0.001582171, 0.005518963, -1233670.1, 27675.951, 0.0, 5.0192127, 4.9706507 
5.140434e+2, 1.762627e+2, -1187929.0, -1263081.8, -6592.8965, 0.0010084063, 0.007491561, -1187355.0, 25275.791, 0.0, 5.0186415, 4.9698524 
5.1403093e+2, 1.8123034e+2, -1148044.0, -1230787.9, -7517.4795, 0.0011702188, 0.014832784, -1147366.5, 16582.186, 0.0, 5.0180616, 4.964446 
5.1401764e+2, 1.8619464e+2, -1100192.8, -1181434.6, -7877.8135, 0.002398214, 0.00782204, -1099435.9, 15861.224, 0.0, 5.0174394, 4.9647985 
5.1400435e+2, 1.9115895e+2, -1052832.1, -1133125.1, -8018.892, 0.0036037248, 0.0002961873, -1052039.1, 14606.297, 0.0, 5.0168138, 4.964798 
5.13991e+2, 1.9612327e+2, -1006351.44, -1086720.4, -8156.7617, 0.004803713, -0.006907807, -1005531.94, 12461.715, 0.0, 5.0161877, 4.9641466 
5.139774e+2, 2.010847e+2, -966799.4, -1055194.8, -8419.3125, 0.0041627423, -0.0039297165, -966004.6, 3365.7026, 0.0, 5.015543, 4.9584227 
5.139633e+2, 2.06044e+2, -919061.2, -1005879.9, -8509.311, -0.00001923145, -0.0009694738, -918235.0, 2532.2576, 0.0, 5.014857, 4.958758 
5.1394916e+2, 2.1100338e+2, -871766.6, -957533.75, -8547.288, -0.0043003946, 0.0021611874, -870923.1, 1240.5325, 0.0, 5.01417, 4.9587607 
5.139349e+2, 2.1596274e+2, -825126.4, -910630.2, -8582.845, -0.008669813, 0.005417897, -824273.3, -713.2883, 0.0, 5.0134835, 4.958264 
5.1392114e+2, 2.2091813e+2, -786845.2, -882446.56, -8662.379, -0.010285868, 0.013460462, -786066.6, -11071.454, 0.0, 5.0128856, 4.9512725 
5.139076e+2, 2.2586852e+2, -738009.0, -831732.56, -8976.4, -0.008882361, -0.004990766, -737157.06, -10678.51, 0.0, 5.0123835, 4.9519534 
5.13894e+2, 2.3081885e+2, -690100.25, -783054.9, -9206.468, -0.007820009, -0.02580803, -689197.2, -11234.579, 0.0, 5.011871, 4.951954 
5.1388043e+2, 2.3576915e+2, -642831.25, -735818.5, -9426.793, -0.00674616, -0.046743356, -641885.25, -12438.445, 0.0, 5.0113573, 4.9514523 
5.138668e+2, 2.4071747e+2, -603769.06, -706651.56, -9337.859, -0.007994795, -0.043042064, -602928.44, -21978.033, 0.0, 5.010817, 4.9446793 
5.138527e+2, 2.4566543e+2, -554814.8, -655497.94, -9193.177, -0.015384001, -0.021326879, -553982.25, -21525.32, 0.0, 5.010268, 4.9455004 
5.138387e+2, 2.5061345e+2, -506901.06, -606772.4, -9229.397, -0.023209687, -0.00070974306, -506055.3, -22092.28, 0.0, 5.0097256, 4.9454956 
5.1382464e+2, 2.5556156e+2, -459225.66, -558605.9, -9275.207, -0.03128751, 0.020971846, -458367.4, -22899.24, 0.0, 5.009181, 4.945292 
5.1381224e+2, 2.6050353e+2, -423138.8, -537106.06, -9327.58, -0.025926314, 0.040670212, -422380.44, -35346.688, 0.0, 5.008758, 4.935536 
5.138023e+2, 2.654371e+2, -371061.7, -478555.63, -10158.311, -0.008631323, -0.026964337, -370110.16, -31427.04, 0.0, 5.0080385, 4.938676 
5.1379174e+2, 2.7037048e+2, -323129.94, -429564.5, -10641.002, 0.0043528816, -0.11130251, -322076.5, -31742.328, 0.0, 5.007198, 4.938824 
5.137809e+2, 2.7530363e+2, -275131.8, -380807.9, -10892.593, 0.016334351, -0.2025848, -274020.75, -32032.877, 0.0, 5.0063386, 4.9389243 
5.13775e+2, 2.8023857e+2, -249957.55, -389985.44, -5824.8823, 0.052303944, -0.15254733, -249715.66, -56093.375, 0.0, 5.006904, 4.918568 
5.1377153e+2, 2.8517658e+2, -185531.13, -304047.28, -6345.286, 0.051429022, -0.048064146, -185192.38, -39973.113, 0.0, 5.0071244, 4.930995 
5.137649e+2, 2.9011115e+2, -138624.5, -255109.22, -5709.891, 0.022344856, -0.031010564, -138345.28, -41496.348, 0.0, 5.0061975, 4.9310603 
5.1375806e+2, 2.9504538e+2, -91617.73, -206239.94, -4855.886, -0.0066087306, -0.019656368, -91412.375, -42930.453, 0.0, 5.005239, 4.9311256 
5.137527e+2, 2.9999608e+2, -30239.76, -91948.65, -1127.7616, -0.026386853, 0.0051501733, -30219.156, -30219.156, 0.0, 5.0044947, 4.9639354 
5.13753e+2, 3.0496138e+2, -26468.738, -85424.12, 1019.17676, -0.010664544, -0.022009881, -26451.125, -26451.125, 0.0, 5.0050406, 4.9657235 
5.1375353e+2, 3.0992654e+2, -24155.617, -83595.7, 436.99713, 0.0077060224, -0.058967315, -24152.404, -24152.404, 0.0, 5.0057564, 4.9660544 
5.1375365e+2, 3.1489298e+2, -21771.547, -81838.945, -303.99615, 0.025440402, -0.08568988, -21770.008, -21770.008, 0.0, 5.006435, 4.9663863 
5.1917714e+2, 1.2152829e+2, -1688624.6, -1750641.6, -398.28378, -0.0033011318, -0.00096867577, -1688622.1, 60400.023, 0.0, 5.024635, 4.9841967 
5.191691e+2, 1.2651032e+2, -1645114.1, -1710541.9, -2498.0586, -0.0025486785, 0.0033372864, -1645018.9, 55180.43, 0.0, 5.0241537, 4.9815335 
5.1916087e+2, 1.314913e+2, -1597631.0, -1662319.3, -2650.589, -0.00008422007, -0.0026284608, -1597522.6, 53862.496, 0.0, 5.0236654, 4.981533 
5.1915276e+2, 1.3647225e+2, -1552240.5, -1618407.6, -2778.2166, 0.0023775839, -0.0073669376, -1552124.1, 50447.01, 0.0, 5.023176, 4.980102 
5.1914376e+2, 1.4145088e+2, -1510589.8, -1582104.0, -4432.477, 0.004254313, 0.0027602415, -1510316.0, 43464.48, 0.0, 5.022657, 4.976082 
5.1913303e+2, 1.464273e+2, -1462898.4, -1533183.5, -4791.655, 0.00409486, 0.0013237268, -1462573.1, 42439.133, 0.0, 5.0220947, 4.976321 
5.191223e+2, 1.5140368e+2, -1415553.0, -1484983.0, -4893.1885, 0.0037940815, -0.0007170838, -1415209.9, 41034.586, 0.0, 5.0215306, 4.9763207 
5.191116e+2, 1.5638007e+2, -1369544.0, -1439581.5, -4967.1104, 0.0034898673, -0.0022997314, -1369193.5, 38283.19, 0.0, 5.0209665, 4.975382 
5.191001e+2, 1.6135319e+2, -1329330.6, -1406315.3, -6312.456, 0.0028003866, 0.0025485088, -1328816.4, 29924.508, 0.0, 5.0203953, 4.9703827 
5.190874e+2, 1.6632411e+2, -1281695.9, -1357495.0, -6616.8984, 0.0017669108, 0.0039032814, -1281122.6, 28904.041, 0.0, 5.0198092, 4.9705706 
5.190746e+2, 1.7129509e+2, -1234322.9, -1309229.0, -6682.2046, 0.0007326871, 0.005444932, -1233731.5, 27580.523, 0.0, 5.019222, 4.9705706 
5.190619e+2, 1.7626607e+2, -1188063.4, -1263328.1, -6736.7334, -0.00030553335, 0.007372534, -1187465.1, 25132.246, 0.0, 5.0186334, 4.969774 
5.190488e+2, 1.812336e+2, -1148326.8, -1231303.6, -7688.157, -0.0002837525, 0.014925515, -1147620.5, 16295.595, 0.0, 5.0180435, 4.964282 
5.19035e+2, 1.8619776e+2, -1100471.1, -1181984.1, -8057.2236, 0.0014621415, 0.008224536, -1099682.3, 15584.06, 0.0, 5.01743, 4.964618 
5.190211e+2, 1.9116193e+2, -1053085.6, -1133660.1, -8194.977, 0.0031992707, 0.0009601556, -1052260.6, 14356.053, 0.0, 5.016812, 4.9646177 
5.190072e+2, 1.9612609e+2, -1006585.0, -1087243.1, -8329.014, 0.004927559, -0.005983168, -1005733.9, 12232.983, 0.0, 5.0161924, 4.9639673 
5.1899296e+2, 2.0108733e+2, -966856.1, -1055394.4, -8634.065, 0.0044355616, -0.0034251679, -966022.0, 3323.2, 0.0, 5.01556, 4.9583473 
5.1897806e+2, 2.0604645e+2, -919022.25, -1005977.75, -8764.957, -0.0004778172, -0.0018629895, -918147.56, 2595.3218, 0.0, 5.0148954, 4.9587073 
5.189632e+2, 2.1100561e+2, -871684.5, -957611.0, -8834.376, -0.005505359, -0.000115568764, -870785.6, 1354.1844, 0.0, 5.0142236, 4.95871 
5.1894826e+2, 2.159648e+2, -825020.94, -910696.2, -8899.225, -0.010608061, 0.001738262, -824106.3, -569.6186, 0.0, 5.013545, 4.9582133 
5.189338e+2, 2.2092e+2, -787103.8, -883301.9, -8855.792, -0.012527231, 0.0095971385, -786295.4, -11322.388, 0.0, 5.0129437, 4.9509525 
5.189199e+2, 2.2587013e+2, -738297.2, -832598.3, -9136.833, -0.010238962, -0.008600286, -737420.1, -10959.948, 0.0, 5.0124307, 4.951631 
5.189059e+2, 2.3082016e+2, -690430.8, -783933.0, -9345.594, -0.008235232, -0.029436518, -689505.9, -11557.592, 0.0, 5.0119033, 4.951632 
5.188919e+2, 2.3577018e+2, -643218.0, -736713.56, -9549.3, -0.0062541985, -0.050322603, -642252.7, -12816.176, 0.0, 5.011371, 4.9511313 
5.1887774e+2, 2.4071838e+2, -603993.0, -707183.9, -9475.489, -0.006933222, -0.045011654, -603130.1, -22188.441, 0.0, 5.010828, 4.9444947 
5.188632e+2, 2.456663e+2, -554695.25, -655527.3, -9371.745, -0.013465894, -0.023325915, -553831.6, -21384.992, 0.0, 5.01033, 4.9454675 
5.188488e+2, 2.5061417e+2, -506575.03, -606689.6, -9381.026, -0.020215454, -0.0039996444, -505703.6, -21752.008, 0.0, 5.0098596, 4.9454684 
5.1883423e+2, 2.5556213e+2, -458640.13, -558387.0, -9344.695, -0.02721115, 0.01614535, -457772.25, -22316.459, 0.0, 5.009407, 4.9452705 
5.188218e+2, 2.6050347e+2, -424080.97, -541031.1, -9156.159, -0.018016728, 0.03643631, -423368.44, -36340.98, 0.0, 5.009134, 4.9339714 
5.188121e+2, 2.654362e+2, -371413.22, -481794.38, -10195.785, 0.0067831613, -0.028361998, -370479.34, -31784.818, 0.0, 5.0085926, 4.9372063 
5.188019e+2, 2.7036893e+2, -323597.44, -432779.3, -11431.24, 0.026767427, -0.10934675, -322413.44, -32051.092, 0.0, 5.007771, 4.937343 
5.1879144e+2, 2.7530152e+2, -276208.94, -384153.94, -13025.265, 0.04565645, -0.19585559, -274659.47, -32627.475, 0.0, 5.0067706, 4.9374366 
5.187861e+2, 2.802375e+2, -252687.13, -396756.1, -8636.887, 0.084981486, -0.113088496, -252171.19, -58507.957, 0.0, 5.0071664, 4.916046 
5.187814e+2, 2.8517637e+2, -183066.06, -300214.25, -9088.591, 0.07654053, -0.0033841992, -182365.14, -37122.72, 0.0, 5.0074415, 4.9321566 
5.18773e+2, 2.9011068e+2, -136285.53, -251376.5, -7372.1978, 0.039138153, -0.006986478, -135815.22, -38952.418, 0.0, 5.0064483, 4.9322414 
5.1876444e+2, 2.950448e+2, -89742.05, -202701.31, -5776.539, 0.0015152504, -0.014738728, -89447.414, -40962.137, 0.0, 5.0053215, 4.9323277 
5.187575e+2, 2.9999542e+2, -30713.367, -92321.41, -1167.4706, -0.027303578, -0.0025188327, -30691.252, -30691.252, 0.0, 5.004297, 4.9639354 
5.1875734e+2, 3.0496216e+2, -28765.34, -87821.875, 1839.3885, -0.020059241, -0.013602441, -28708.105, -28708.105, 0.0, 5.004399, 4.965156 
5.1875764e+2, 3.099289e+2, -28267.73, -87118.61, 1993.3387, -0.010542294, -0.032468677, -28200.291, -28200.291, 0.0, 5.0045056, 4.96536 
5.187576e+2, 3.1489655e+2, -28178.457, -86667.09, 2261.281, -0.0023041782, -0.04292048, -28091.162, -28091.162, 0.0, 5.0044155, 4.9655643 
5.2420276e+2, 1.2153469e+2, -1684679.4, -1749378.9, 528.75836, -0.0016290494, 0.00080285274, -1684675.0, 64284.664, 0.0, 5.0260963, 4.983894 
5.241941e+2, 1.2651633e+2, -1641258.3, -1708991.3, -1529.8921, -0.0010570119, 0.002902206, -1641223.8, 58916.9, 0.0, 5.0255146, 4.9813776 
5.241853e+2, 1.3149719e+2, -1594059.4, -1660914.1, -1637.3164, 0.00045484494, -0.002678354, -1594019.3, 57308.355, 0.0, 5.0249352, 4.981377 
5.2417654e+2, 1.3647802e+2, -1548947.3, -1617145.4, -1722.9512, 0.0019777606, -0.0070086885, -1548903.8, 53611.14, 0.0, 5.024356, 4.9799457 
5.241669e+2, 1.4145651e+2, -1507508.0, -1580899.0, -3373.43, 0.003247299, 0.0032789533, -1507353.3, 46372.344, 0.0, 5.0237565, 4.975948 
5.2415556e+2, 1.4643279e+2, -1459986.5, -1532072.9, -3743.5408, 0.003309599, 0.001752233, -1459792.6, 45166.23, 0.0, 5.0231414, 4.976184 
5.241443e+2, 1.5140903e+2, -1412801.8, -1483954.9, -3856.093, 0.0032571931, -0.0003680511, -1412593.4, 43599.098, 0.0, 5.022526, 4.976184 
5.2413297e+2, 1.5638526e+2, -1366948.3, -1438628.5, -3940.6604, 0.0032027026, -0.0020313442, -1366732.3, 40693.83, 0.0, 5.02191, 4.975247 
5.24121e+2, 1.6135824e+2, -1326845.4, -1405322.0, -5312.2007, 0.00266729, 0.0025951397, -1326487.4, 32204.193, 0.0, 5.0212817, 4.97029 
5.241076e+2, 1.6632903e+2, -1279406.5, -1356578.0, -5620.9526, 0.0015705341, 0.0034230528, -1278999.3, 30979.092, 0.0, 5.0206265, 4.9704876 
5.240942e+2, 1.7129986e+2, -1232241.0, -1308415.4, -5688.096, 0.00047019366, 0.0044245147, -1231818.6, 29446.084, 0.0, 5.0199704, 4.970488 
5.240809e+2, 1.7627071e+2, -1186182.9, -1262612.0, -5742.7363, -0.0006272377, 0.0058102696, -1185753.8, 26797.209, 0.0, 5.0193143, 4.9696918 
5.2406716e+2, 1.8123813e+2, -1146695.5, -1230863.3, -6678.723, -0.00072037335, 0.013394306, -1146168.9, 17701.781, 0.0, 5.0186715, 4.9641337 
5.240527e+2, 1.8620223e+2, -1098933.3, -1181649.6, -7047.6016, 0.00094041915, 0.007859941, -1098337.0, 16884.908, 0.0, 5.0180397, 4.9644446 
5.2403814e+2, 1.9116634e+2, -1051596.6, -1133350.3, -7187.688, 0.0026168248, 0.0017750544, -1050969.5, 15603.838, 0.0, 5.0174065, 4.964445 
5.240236e+2, 1.9613045e+2, -1005139.6, -1086955.3, -7324.137, 0.0042944793, -0.0039999573, -1004489.1, 13435.433, 0.0, 5.0167727, 4.9637947 
5.240088e+2, 2.0109151e+2, -965383.3, -1055002.6, -7665.989, 0.003953486, -0.0015516048, -964732.3, 4572.4805, 0.0, 5.016132, 4.958215 
5.2399325e+2, 2.0605026e+2, -917546.1, -1005562.25, -7849.1304, -0.00072908547, -0.002273682, -916851.6, 3853.4524, 0.0, 5.0154643, 4.958586 
5.239777e+2, 2.1100909e+2, -870201.44, -957194.2, -7968.1704, -0.0055078845, -0.0028959266, -869477.6, 2627.1335, 0.0, 5.0147953, 4.9585896 
5.2396214e+2, 2.1596788e+2, -823510.6, -910269.4, -8083.5576, -0.010289804, -0.0035213612, -822763.9, 740.5311, 0.0, 5.014126, 4.958093 
5.2394706e+2, 2.2092289e+2, -785774.4, -883128.94, -7952.452, -0.011947448, 0.0035949154, -785129.06, -10186.645, 0.0, 5.013495, 4.95076 
5.239327e+2, 2.2587313e+2, -737328.3, -832775.7, -8200.106, -0.008836117, -0.010674392, -736628.94, -10199.398, 0.0, 5.0128927, 4.9513617 
5.239182e+2, 2.308233e+2, -689698.2, -784226.25, -8408.845, -0.005862711, -0.027385905, -688956.0, -11038.346, 0.0, 5.0122833, 4.9513617 
5.239037e+2, 2.3577344e+2, -642706.1, -737116.56, -8609.39, -0.0028960214, -0.044184092, -641927.44, -12521.568, 0.0, 5.0116735, 4.95086 
5.238891e+2, 2.4072148e+2, -603213.2, -706897.06, -8418.128, -0.0029016843, -0.0388068, -602534.2, -21620.938, 0.0, 5.011095, 4.944489 
5.2387416e+2, 2.4566868e+2, -553971.75, -655226.94, -8266.045, -0.009254136, -0.023757903, -553301.44, -20877.783, 0.0, 5.010573, 4.9454813 
5.238592e+2, 2.5061584e+2, -505988.8, -606351.6, -8281.086, -0.015708001, -0.0115244435, -505310.13, -21375.906, 0.0, 5.010046, 4.945514 
5.2384424e+2, 2.5556302e+2, -458243.66, -558037.6, -8305.941, -0.022309596, 0.0006303802, -457557.06, -22112.566, 0.0, 5.0095177, 4.945349 
5.238314e+2, 2.6050407e+2, -423981.75, -541513.25, -7437.452, -0.013766062, 0.017755229, -423512.97, -36493.855, 0.0, 5.0092735, 4.933774 
5.2382207e+2, 2.6543817e+2, -370390.38, -483761.66, -7731.3057, 0.013240903, -0.023294903, -369865.6, -31186.19, 0.0, 5.009346, 4.9363403 
5.2381235e+2, 2.7037212e+2, -320530.16, -434738.06, -8058.476, 0.038039293, -0.07744778, -319964.34, -29621.51, 0.0, 5.00934, 4.936206 
5.238026e+2, 2.753055e+2, -270639.5, -385935.72, -8199.163, 0.06355067, -0.13760582, -270059.34, -28047.445, 0.0, 5.009316, 4.9360237 
5.237965e+2, 2.8024116e+2, -245144.98, -389862.66, -1155.3342, 0.09911487, -0.05259329, -245135.77, -51483.727, 0.0, 5.0091214, 4.9176073 
5.237898e+2, 2.8517872e+2, -181179.98, -297056.66, -2342.8308, 0.08297167, 0.030432554, -181132.64, -35893.4, 0.0, 5.0077286, 4.9329944 
5.237801e+2, 2.9011205e+2, -136198.2, -249559.63, -3187.4685, 0.046573058, 0.010401863, -136108.64, -39245.535, 0.0, 5.0061207, 4.932943 
5.237704e+2, 2.9504517e+2, -91140.15, -202078.45, -3910.9463, 0.0112005165, -0.012885016, -91002.445, -42512.723, 0.0, 5.0044923, 4.9328904 
5.237622e+2, 2.9999512e+2, -33586.145, -92915.16, -1385.5038, -0.017002523, -0.0116967745, -33553.805, -33553.805, 0.0, 5.0029535, 4.96432 
5.2376056e+2, 3.0496395e+2, -34704.344, -90050.016, 1189.954, -0.018240666, -0.005161352, -34678.77, -34678.77, 0.0, 5.0019493, 4.9654455 
5.237596e+2, 3.09933e+2, -37057.83, -90509.0, 1351.7434, -0.015036458, -0.0038711294, -37023.664, -37023.664, 0.0, 5.000997, 4.965652 
5.237586e+2, 3.149027e+2, -39378.438, -91002.45, 1414.5895, -0.009941585, 0.0014532442, -39339.703, -39339.703, 0.0, 5.0000186, 4.9658585 
5.29229e+2, 1.2154188e+2, -1685292.5, -1750632.4, 31.037844, -0.00017134647, 0.0030248542, -1685292.5, 63596.777, 0.0, 5.026096, 4.983483 
5.292198e+2, 1.2652299e+2, -1641461.0, -1709411.0, -1972.1029, 0.0008673596, 0.0015512987, -1641403.8, 58671.688, 0.0, 5.025515, 4.98124 
5.2921027e+2, 1.315038e+2, -1594260.6, -1661332.6, -2078.666, 0.0011535088, -0.0031485984, -1594196.4, 57066.754, 0.0, 5.0249357, 4.98124 
5.292008e+2, 1.364846e+2, -1549149.8, -1617568.1, -2169.0935, 0.0014396416, -0.006601629, -1549081.1, 53369.797, 0.0, 5.0243564, 4.979806 
5.291904e+2, 1.4146298e+2, -1507702.5, -1581308.0, -3841.7368, 0.0019004837, 0.004122557, -1507502.5, 46160.0, 0.0, 5.023757, 4.975813 
5.2917856e+2, 1.464391e+2, -1460192.4, -1532507.1, -4212.098, 0.002229466, 0.0024480685, -1459947.9, 44949.402, 0.0, 5.023142, 4.9760404 
5.2916676e+2, 1.5141517e+2, -1413006.4, -1484387.6, -4324.4917, 0.0024743478, 0.00018516529, -1412745.3, 43387.15, 0.0, 5.0225267, 4.9760404 
5.2915484e+2, 1.5639125e+2, -1367149.4, -1439055.1, -4409.6494, 0.002714852, -0.0016197613, -1366880.0, 40487.7, 0.0, 5.021911, 4.975105 
5.291422e+2, 1.6136408e+2, -1326980.0, -1405611.3, -5807.8276, 0.002407216, 0.0026926438, -1326553.4, 32081.166, 0.0, 5.021282, 4.970194 
5.291282e+2, 1.6633472e+2, -1279524.9, -1356833.1, -6120.1294, 0.0013731228, 0.0028161644, -1279043.4, 30879.092, 0.0, 5.0206275, 4.9704027 
5.291142e+2, 1.713054e+2, -1232359.0, -1308669.8, -6186.9346, 0.0003230146, 0.0031019878, -1231860.6, 29349.21, 0.0, 5.019971, 4.9704027 
5.291002e+2, 1.7627607e+2, -1186299.4, -1262863.1, -6239.881, -0.00072877685, 0.0037770807, -1185794.1, 26703.156, 0.0, 5.019315, 4.969608 
5.2908576e+2, 1.8124339e+2, -1146899.4, -1231306.0, -7163.1455, -0.0009451996, 0.011366782, -1146295.8, 17521.95, 0.0, 5.018673, 4.963986 
5.290706e+2, 1.8620747e+2, -1099174.3, -1182173.3, -7529.4883, 0.0004736177, 0.0073001804, -1098496.6, 16673.133, 0.0, 5.0180407, 4.964269 
5.290554e+2, 1.9117156e+2, -1051836.9, -1133871.9, -7668.674, 0.001919531, 0.0027256224, -1051126.1, 15395.788, 0.0, 5.017407, 4.964269 
5.290403e+2, 1.9613564e+2, -1005379.25, -1087475.1, -7804.1567, 0.0033592829, -0.001532389, -1004644.0, 13230.024, 0.0, 5.0167737, 4.963619 
5.2902484e+2, 2.0109652e+2, -965593.6, -1055461.6, -8170.527, 0.0031777755, 0.00093184854, -964856.9, 4399.165, 0.0, 5.0161324, 4.9580593 
5.290087e+2, 2.0605487e+2, -917744.7, -1005988.25, -8356.581, -0.00097422226, -0.00252377, -916960.25, 3699.519, 0.0, 5.0154634, 4.9584417 
5.289925e+2, 2.1101326e+2, -870404.44, -957620.4, -8472.79, -0.005302331, -0.0058397986, -869588.94, 2473.7947, 0.0, 5.0147924, 4.9584455 
5.289764e+2, 2.1597166e+2, -823718.1, -910695.75, -8585.293, -0.009656122, -0.009101813, -822878.8, 586.8949, 0.0, 5.0141215, 4.9579496 
5.289607e+2, 2.2092646e+2, -786017.2, -883676.56, -8425.18, -0.011022542, -0.002438008, -785295.6, -10390.339, 0.0, 5.013497, 4.9505744 
5.2894574e+2, 2.2587693e+2, -737671.6, -833547.2, -8663.334, -0.006898892, -0.011968814, -736895.06, -10503.51, 0.0, 5.0128946, 4.9511 
5.289308e+2, 2.308273e+2, -690046.56, -784986.8, -8861.577, -0.0027844287, -0.023681497, -689226.5, -11347.653, 0.0, 5.0122824, 4.9511027 
5.289158e+2, 2.3577766e+2, -643059.56, -737866.3, -9051.58, 0.0012894738, -0.035436176, -642203.1, -12836.969, 0.0, 5.0116696, 4.9506044 
5.289007e+2, 2.4072556e+2, -603179.44, -706759.25, -8816.68, 0.0021326381, -0.030432433, -602434.3, -21558.48, 0.0, 5.0110865, 4.944541 
5.2888525e+2, 2.4567194e+2, -553969.6, -655188.2, -8680.868, -0.0044141095, -0.023964647, -553230.5, -20837.12, 0.0, 5.0105658, 4.945504 
5.2886975e+2, 2.506183e+2, -505980.94, -606336.9, -8680.647, -0.011199588, -0.019395417, -505235.63, -21325.15, 0.0, 5.010043, 4.945529 
5.288542e+2, 2.5556472e+2, -458229.97, -558046.75, -8690.227, -0.018151697, -0.014610812, -457479.03, -22052.008, 0.0, 5.0095186, 4.945356 
5.2884084e+2, 2.605057e+2, -423845.56, -541437.5, -7401.2715, -0.011529525, 0.0011439805, -423381.56, -36379.074, 0.0, 5.009294, 4.933835 
5.288314e+2, 2.654415e+2, -370902.66, -484502.8, -7287.702, 0.01330662, -0.017199697, -370437.06, -31785.164, 0.0, 5.009277, 4.936184 
5.2882177e+2, 2.7037746e+2, -321305.03, -435162.72, -7412.023, 0.035416555, -0.04479071, -320824.56, -30522.865, 0.0, 5.009151, 4.9361753 
5.2881193e+2, 2.7531314e+2, -271676.88, -386044.16, -7349.934, 0.057088297, -0.07717213, -271206.47, -29251.84, 0.0, 5.0090075, 4.936118 
5.288044e+2, 2.8024936e+2, -241796.02, -382282.44, -2083.3086, 0.07888001, 0.0005472754, -241765.14, -48171.215, 0.0, 5.0091367, 4.9202757 
5.287962e+2, 2.8518423e+2, -180775.66, -298551.1, -3757.6743, 0.06492521, 0.052106384, -180655.89, -35451.1, 0.0, 5.0080247, 4.932534 
5.2878594e+2, 2.9011554e+2, -135950.0, -250887.45, -4458.197, 0.040858857, 0.021168, -135777.34, -38932.29, 0.0, 5.006353, 4.9325466 
5.2877563e+2, 2.950467e+2, -91048.24, -203239.69, -5037.5435, 0.016944606, -0.012371361, -90822.5, -42335.563, 0.0, 5.0046606, 4.9325585 
5.287666e+2, 2.999954e+2, -32717.54, -91803.93, -2399.0203, -0.004127918, -0.01828859, -32620.293, -32620.293, 0.0, 5.0030737, 4.9647455 
5.2876323e+2, 3.0496597e+2, -33400.234, -88131.08, 257.81348, -0.0127846645, 0.0023259632, -33399.02, -33399.02, 0.0, 5.002093, 4.9662127 
5.2876043e+2, 3.0993718e+2, -35738.25, -88887.14, 577.656, -0.020008663, 0.023135586, -35731.973, -35731.973, 0.0, 5.001173, 4.966325 
5.2875745e+2, 3.1490877e+2, -38043.375, -89677.73, 798.7011, -0.02724042, 0.047872648, -38031.023, -38031.023, 0.0, 5.000227, 4.966437 
5.342552e+2, 1.21548995e+2, -1685813.9, -1751698.4, -463.3429, 0.0009660219, 0.0046790456, -1685810.6, 63008.973, 0.0, 5.026096, 4.9831333 
5.342455e+2, 1.2652966e+2, -1641663.9, -1709830.6, -2414.219, 0.0027783734, 0.00023810504, -1641578.5, 58431.87, 0.0, 5.0255156, 4.981102 
5.342353e+2, 1.3151042e+2, -1594462.1, -1661751.1, -2519.921, 0.0018420615, -0.0035973385, -1594367.9, 56830.582, 0.0, 5.024936, 4.981102 
5.342251e+2, 1.3649116e+2, -1549352.6, -1617991.3, -2615.2915, 0.00089459895, -0.0061892774, -1549253.1, 53133.793, 0.0, 5.024357, 4.979666 
5.342141e+2, 1.4146945e+2, -1507899.8, -1581722.6, -4309.953, 0.0005522842, 0.004973129, -1507649.0, 45950.523, 0.0, 5.023758, 4.975676 
5.342017e+2, 1.4644542e+2, -1460398.4, -1532941.5, -4680.7173, 0.0011486695, 0.0031498969, -1460097.6, 44738.223, 0.0, 5.023143, 4.975897 
5.3418916e+2, 1.5142132e+2, -1413211.0, -1484820.5, -4792.9526, 0.001690819, 0.0007398458, -1412891.6, 43180.9, 0.0, 5.022527, 4.9758964 
5.341767e+2, 1.5639725e+2, -1367349.8, -1439480.4, -4878.818, 0.0022262977, -0.0012112416, -1367021.3, 40288.004, 0.0, 5.0219116, 4.974963 
5.341635e+2, 1.6136992e+2, -1327116.1, -1405903.6, -6303.4766, 0.0021456345, 0.0027946818, -1326615.0, 31962.453, 0.0, 5.021283, 4.970096 
5.341488e+2, 1.663404e+2, -1279643.1, -1357088.3, -6619.3735, 0.0011732312, 0.0022095323, -1279081.4, 30785.064, 0.0, 5.020628, 4.9703174 
5.341341e+2, 1.7131093e+2, -1232477.0, -1308924.3, -6685.8403, 0.00017308095, 0.0017714943, -1231896.6, 29258.37, 0.0, 5.019972, 4.9703174 
5.341194e+2, 1.7628147e+2, -1186415.8, -1263114.3, -6737.0664, -0.00083334465, 0.0017277047, -1185828.5, 26615.047, 0.0, 5.0193152, 4.9695234 
5.341044e+2, 1.8124868e+2, -1147108.1, -1231759.0, -7646.8813, -0.0011730803, 0.009366792, -1146422.9, 17342.0, 0.0, 5.018674, 4.9638343 
5.340886e+2, 1.8621272e+2, -1099415.4, -1182696.8, -8011.924, 0.0000016265328, 0.006767071, -1098651.6, 16466.086, 0.0, 5.018042, 4.9640927 
5.3407276e+2, 1.9117676e+2, -1052077.3, -1134393.6, -8150.209, 0.0012158216, 0.0036840576, -1051278.1, 15192.486, 0.0, 5.017408, 4.964093 
5.3405696e+2, 1.9614083e+2, -1005619.0, -1087995.0, -8284.726, 0.0024164466, 0.00092427246, -1004794.06, 13029.334, 0.0, 5.016774, 4.9634433 
5.340408e+2, 2.0110154e+2, -965810.3, -1055933.9, -8673.875, 0.0023909844, 0.0034478444, -964983.06, 4224.146, 0.0, 5.0161333, 4.9578986 
5.340241e+2, 2.0605947e+2, -917943.56, -1006414.1, -8864.651, -0.0012416873, -0.0027798496, -917064.1, 3550.357, 0.0, 5.0154624, 4.958297 
5.340073e+2, 2.1101746e+2, -870607.9, -958046.44, -8978.029, -0.0051247017, -0.0088620195, -869695.56, 2325.2458, 0.0, 5.01479, 4.9583006 
5.3399056e+2, 2.1597545e+2, -823926.06, -911122.0, -9087.647, -0.0090559535, -0.014832944, -822989.0, 438.02924, 0.0, 5.0141172, 4.957805 
5.3397423e+2, 2.2093007e+2, -786318.1, -884350.5, -8890.872, -0.010036451, -0.008245613, -785518.3, -10650.144, 0.0, 5.0134983, 4.950345 
5.339588e+2, 2.2588073e+2, -738016.1, -834318.44, -9133.038, -0.004916844, -0.0130722085, -737157.6, -10804.081, 0.0, 5.012897, 4.950835 
5.3394336e+2, 2.3083131e+2, -690396.06, -785747.06, -9320.783, 0.0002813169, -0.02004575, -689493.5, -11653.43, 0.0, 5.012282, 4.9508414 
5.339279e+2, 2.357819e+2, -643414.2, -738615.7, -9500.242, 0.0054051043, -0.027016489, -642475.4, -13148.876, 0.0, 5.011666, 4.950346 
5.3391236e+2, 2.4072966e+2, -603221.6, -706786.0, -9217.336, 0.0071445713, -0.021634262, -602407.6, -21569.53, 0.0, 5.011078, 4.944535 
5.338963e+2, 2.4567524e+2, -553969.94, -655147.6, -9084.686, 0.00035315097, -0.023647241, -553160.7, -20798.086, 0.0, 5.010559, 4.945524 
5.3388023e+2, 2.506208e+2, -505975.53, -606320.25, -9069.209, -0.0068517094, -0.027247563, -505162.44, -21276.068, 0.0, 5.0100403, 4.945541 
5.3386414e+2, 2.5556645e+2, -458218.72, -558054.06, -9063.516, -0.014242046, -0.03033832, -457402.56, -21993.166, 0.0, 5.00952, 4.9453597 
5.3385043e+2, 2.605073e+2, -424220.84, -542472.44, -7400.573, -0.008075802, -0.014482782, -423759.5, -36773.004, 0.0, 5.009315, 4.93349 
5.3384084e+2, 2.6544464e+2, -371447.78, -485220.78, -7049.331, 0.014021219, -0.0123144295, -371012.7, -32386.492, 0.0, 5.0092077, 4.9359736 
5.3383094e+2, 2.703825e+2, -322112.13, -435563.84, -6970.62, 0.031770002, -0.017547203, -321685.44, -31421.773, 0.0, 5.0089626, 4.93609 
5.338208e+2, 2.7532032e+2, -272745.8, -386128.72, -6705.6045, 0.047930446, -0.026353745, -272350.63, -30448.799, 0.0, 5.0087, 4.9361577 
5.3381234e+2, 2.8025752e+2, -240083.48, -378470.47, -2535.7036, 0.05831426, 0.053905264, -240037.03, -46501.246, 0.0, 5.0091524, 4.921621 
5.33803e+2, 2.8519008e+2, -180404.16, -300015.8, -5297.839, 0.048664078, 0.08158007, -180169.97, -35002.9, 0.0, 5.008321, 4.932045 
5.337921e+2, 2.901192e+2, -135734.39, -252185.19, -5854.316, 0.036004614, 0.036375325, -135440.81, -38615.742, 0.0, 5.006585, 4.9321213 
5.3378105e+2, 2.9504827e+2, -90988.66, -204370.42, -6289.612, 0.022623852, -0.010773439, -90640.82, -42157.242, 0.0, 5.00483, 4.932197 
5.3377116e+2, 2.999957e+2, -32090.797, -91141.65, -3402.495, 0.008357186, -0.025174892, -31895.393, -31895.393, 0.0, 5.0031943, 4.9649925 
5.3376615e+2, 3.0496794e+2, -32137.385, -86172.414, -545.0399, -0.0054905214, 0.008297048, -32131.889, -32131.889, 0.0, 5.002237, 4.9669585 
5.3376174e+2, 3.0994105e+2, -34459.973, -87225.16, -67.11423, -0.02066143, 0.045235816, -34459.887, -34459.887, 0.0, 5.0013494, 4.9669757 
5.337571e+2, 3.149145e+2, -36749.66, -88312.5, 312.18024, -0.037738945, 0.085996464, -36747.77, -36747.77, 0.0, 5.0004354, 4.9669933 
5.3928137e+2, 1.21556096e+2, -1685836.1, -1752329.0, -497.8368, 0.0018830951, 0.005556313, -1685832.4, 62917.645, 0.0, 5.0262227, 4.9828644 
5.392712e+2, 1.2653641e+2, -1641528.9, -1710091.5, -2411.9524, 0.004509303, -0.00087760144, -1641444.3, 58500.066, 0.0, 5.025631, 4.98096 
5.3926027e+2, 1.3151711e+2, -1594371.5, -1662034.3, -2540.1416, 0.0024481069, -0.0039603305, -1594276.3, 56856.867, 0.0, 5.025037, 4.9809594 
5.3924936e+2, 1.3649777e+2, -1549314.8, -1618305.0, -2663.9243, 0.00037163575, -0.005795871, -1549212.0, 53110.273, 0.0, 5.024441, 4.979522 
5.392377e+2, 1.4147598e+2, -1507897.5, -1582041.0, -4392.263, -0.0007043638, 0.0057565477, -1507638.1, 45897.76, 0.0, 5.023826, 4.975538 
5.392247e+2, 1.4645179e+2, -1460432.1, -1533286.8, -4758.889, 0.00013570911, 0.0038120043, -1460122.6, 44651.137, 0.0, 5.0232005, 4.9757547 
5.3921163e+2, 1.5142754e+2, -1413276.3, -1485180.8, -4866.094, 0.0009515796, 0.0012792886, -1412948.5, 43063.46, 0.0, 5.0225744, 4.9757547 
5.391985e+2, 1.5640329e+2, -1367445.4, -1439850.1, -4947.6455, 0.0017622643, -0.00079625717, -1367108.9, 40141.37, 0.0, 5.0219474, 4.9748235 
5.391847e+2, 1.613758e+2, -1327178.4, -1406165.3, -6396.6978, 0.0018983003, 0.0029294034, -1326663.8, 31856.096, 0.0, 5.0213103, 4.9699965 
5.391694e+2, 1.6634615e+2, -1279694.1, -1357316.3, -6729.8105, 0.000997651, 0.0016375297, -1279114.9, 30695.037, 0.0, 5.020653, 4.9702296 
5.3915405e+2, 1.7131652e+2, -1232536.6, -1309156.0, -6810.146, 0.00006294542, 0.00046767952, -1231936.0, 29163.703, 0.0, 5.0199933, 4.9702296 
5.3913873e+2, 1.7628688e+2, -1186485.8, -1263348.4, -6873.3994, -0.0008786427, -0.00030889644, -1185876.0, 26513.398, 0.0, 5.0193324, 4.9694366 
5.3912306e+2, 1.8125398e+2, -1147284.4, -1232191.9, -7766.533, -0.0013321564, 0.0073814667, -1146579.8, 17131.84, 0.0, 5.0186853, 4.9636836 
5.3910655e+2, 1.8621802e+2, -1099627.4, -1183193.8, -8110.009, -0.000421835, 0.0062040947, -1098847.6, 16217.494, 0.0, 5.0180507, 4.963922 
5.390901e+2, 1.9118202e+2, -1052298.8, -1134894.0, -8226.854, 0.0005485546, 0.0045464975, -1051487.3, 14931.465, 0.0, 5.017413, 4.9639225 
5.390736e+2, 1.9614606e+2, -1005854.5, -1088501.0, -8339.471, 0.0015067516, 0.0032074412, -1005021.44, 12750.901, 0.0, 5.0167737, 4.9632726 
5.390569e+2, 2.0110661e+2, -966037.2, -1056421.9, -8738.571, 0.0016289962, 0.0058479477, -965200.06, 3957.8486, 0.0, 5.0161333, 4.9577327 
5.3903955e+2, 2.0606413e+2, -918126.4, -1006839.8, -8960.255, -0.0014953827, -0.0030443303, -917230.4, 3338.1667, 0.0, 5.015469, 4.958148 
5.390221e+2, 2.1102169e+2, -870784.44, -958470.0, -9097.456, -0.004912815, -0.011877197, -869850.5, 2127.8103, 0.0, 5.0147986, 4.958152 
5.390047e+2, 2.1597928e+2, -824107.9, -911548.5, -9231.62, -0.008376185, -0.020602278, -823143.9, 244.14989, 0.0, 5.014124, 4.9576554 
5.389879e+2, 2.2093372e+2, -786657.8, -885097.44, -8962.46, -0.008884301, -0.013815929, -785848.5, -11017.817, 0.0, 5.0134997, 4.950089 
5.389719e+2, 2.258846e+2, -738302.7, -835034.8, -9163.793, -0.0029251387, -0.013926102, -737442.2, -11127.23, 0.0, 5.012915, 4.950579 
5.389559e+2, 2.308354e+2, -690647.9, -786442.7, -9302.352, 0.0031983526, -0.01640803, -689752.9, -11952.269, 0.0, 5.012311, 4.9505863 
5.3893995e+2, 2.3578618e+2, -643662.0, -739303.06, -9436.661, 0.009254169, -0.018937062, -642739.8, -13453.557, 0.0, 5.0116963, 4.950092 
5.3892386e+2, 2.4073386e+2, -603277.06, -706967.1, -9101.067, 0.011958799, -0.012562248, -602484.25, -21684.9, 0.0, 5.011095, 4.9444647 
5.3890735e+2, 2.4567863e+2, -553963.8, -655129.8, -9075.198, 0.005062348, -0.022757504, -553156.1, -20825.326, 0.0, 5.010562, 4.9455304 
5.3889066e+2, 2.5062335e+2, -506001.72, -606324.9, -9139.828, -0.00243313, -0.035092786, -505175.84, -21314.086, 0.0, 5.010031, 4.9455457 
5.3887403e+2, 2.5556815e+2, -458280.28, -558081.6, -9180.17, -0.010114695, -0.046978127, -457442.88, -22050.813, 0.0, 5.009499, 4.9453626 
5.388601e+2, 2.6050875e+2, -425294.06, -544486.44, -7010.721, -0.0030690783, -0.030106457, -424883.13, -37911.516, 0.0, 5.0092397, 4.932826 
5.3885025e+2, 2.6544765e+2, -372569.06, -486346.28, -6603.8975, 0.0155896135, -0.00858353, -372187.03, -33585.496, 0.0, 5.008971, 4.935664 
5.388398e+2, 2.7038717e+2, -324117.1, -436932.66, -6811.0747, 0.028279465, 0.004755399, -323707.38, -33478.73, 0.0, 5.008432, 4.9358106 
5.3882927e+2, 2.753267e+2, -276056.94, -387883.0, -7193.2456, 0.039234348, 0.014732921, -275596.16, -33740.17, 0.0, 5.007736, 4.935911 
5.3882045e+2, 2.8026494e+2, -244233.23, -379837.2, -3833.3953, 0.042662106, 0.10499921, -244124.95, -50641.035, 0.0, 5.0077267, 4.921755 
5.388103e+2, 2.8519574e+2, -183872.34, -302363.63, -7404.254, 0.037590276, 0.11717657, -183411.47, -38281.38, 0.0, 5.007305, 4.9316826 
5.387985e+2, 2.9012287e+2, -137775.25, -253852.69, -7468.6978, 0.033641305, 0.05602686, -137296.66, -40492.07, 0.0, 5.0060463, 4.9317794 
5.3878665e+2, 2.9504994e+2, -91968.77, -205505.95, -7534.0913, 0.02880197, -0.007188657, -91471.01, -42991.5, 0.0, 5.0046506, 4.9318767 
5.3877574e+2, 2.9999602e+2, -32027.516, -90823.26, -4286.1416, 0.020633612, -0.031738874, -31716.703, -31716.703, 0.0, 5.003211, 4.9650826 
5.387695e+2, 3.0496988e+2, -31842.791, -84270.05, -1019.94934, 0.0042364984, 0.012769011, -31822.957, -31822.957, 0.0, 5.0020647, 4.9677105 
5.3876364e+2, 3.09945e+2, -35534.8, -86013.69, 81.068665, -0.014491719, 0.062853925, -35534.67, -35534.67, 0.0, 5.0007133, 4.967685 
5.387577e+2, 3.1492037e+2, -39920.13, -88097.195, 1302.655, -0.035456553, 0.117309555, -39884.93, -39884.93, 0.0, 4.999084, 4.9676604 
5.443085e+2, 1.21564895e+2, -1681419.9, -1750059.5, 835.9348, 0.0028955177, 0.004034246, -1681409.6, 67254.15, 0.0, 5.027677, 4.982895 
5.4429746e+2, 1.2654525e+2, -1637704.3, -1708636.8, -1058.0477, 0.0041123237, -0.00016035873, -1637688.4, 62168.918, 0.0, 5.027003, 4.9807663 
5.4428595e+2, 1.3152573e+2, -1590808.6, -1660716.1, -1223.977, 0.0021263827, -0.003525621, -1590787.1, 60261.438, 0.0, 5.0263247, 4.9807653 
5.4427445e+2, 1.3650617e+2, -1546009.3, -1617126.8, -1391.0759, 0.00013188858, -0.005632059, -1545982.1, 56258.027, 0.0, 5.025646, 4.979325 
5.442621e+2, 1.4148416e+2, -1504717.1, -1580767.4, -3139.7139, -0.0009348271, 0.0056895297, -1504587.8, 48868.004, 0.0, 5.024956, 4.9754114 
5.442484e+2, 1.4645986e+2, -1457430.8, -1532087.1, -3488.667, -0.00011582271, 0.0039708545, -1457268.0, 47426.56, 0.0, 5.024269, 4.9756365 
5.442347e+2, 1.5143552e+2, -1410462.1, -1484077.5, -3579.2375, 0.0006808344, 0.0017003816, -1410288.5, 45645.242, 0.0, 5.023582, 4.9756365 
5.442209e+2, 1.564112e+2, -1364812.8, -1438836.3, -3645.008, 0.0014778611, -0.00011722457, -1364633.8, 42539.195, 0.0, 5.022895, 4.9747066 
5.4420644e+2, 1.6138358e+2, -1324702.5, -1405218.3, -5092.0786, 0.0016924482, 0.0035842713, -1324381.8, 34061.914, 0.0, 5.022203, 4.969885 
5.4419047e+2, 1.6635373e+2, -1277354.1, -1356441.9, -5440.027, 0.001067518, 0.0015758403, -1276981.6, 32753.902, 0.0, 5.021502, 4.970117 
5.441745e+2, 1.7132391e+2, -1230326.3, -1308347.9, -5535.895, 0.00041601996, -0.00034636896, -1229935.4, 31091.613, 0.0, 5.0208006, 4.970117 
5.441585e+2, 1.7629409e+2, -1184399.5, -1262601.3, -5612.454, -0.00024121543, -0.0018808559, -1183998.8, 28319.623, 0.0, 5.0200987, 4.969325 
5.441421e+2, 1.8126105e+2, -1145288.3, -1231420.8, -6473.229, -0.00071948685, 0.0053705485, -1144804.5, 18837.361, 0.0, 5.0194073, 4.9636025 
5.4412496e+2, 1.8622506e+2, -1097766.9, -1182528.5, -6754.0503, -0.00031664222, 0.0049883714, -1097232.1, 17763.408, 0.0, 5.0187354, 4.9638243 
5.441078e+2, 1.9118905e+2, -1050540.5, -1134281.5, -6817.1636, 0.0001574533, 0.004204894, -1049989.1, 16360.125, 0.0, 5.018064, 4.9638243 
5.4409057e+2, 1.9615306e+2, -1004192.8, -1087938.3, -6875.914, 0.0006317133, 0.003722138, -1003632.06, 14070.912, 0.0, 5.0173926, 4.9631743 
5.4407316e+2, 2.0111352e+2, -964562.0, -1056145.3, -7247.053, 0.00073047954, 0.0067799883, -963992.06, 5097.4653, 0.0, 5.016729, 4.9575496 
5.440552e+2, 2.0607072e+2, -916730.1, -1006615.2, -7502.803, -0.0016592778, -0.0031661426, -916108.2, 4395.314, 0.0, 5.016041, 4.95796 
5.440372e+2, 2.1102798e+2, -869456.56, -958282.44, -7664.5264, -0.0043276013, -0.013242656, -868800.06, 3116.675, 0.0, 5.0153475, 4.9579625 
5.440192e+2, 2.1598522e+2, -822836.4, -911392.6, -7820.8936, -0.007013896, -0.023298047, -822150.94, 1179.0143, 0.0, 5.014654, 4.9574656 
5.440017e+2, 2.2093953e+2, -785323.8, -884548.44, -7430.2583, -0.0074597634, -0.01693616, -784770.5, -9996.149, 0.0, 5.013982, 4.950056 
5.439851e+2, 2.2589068e+2, -737142.25, -834733.7, -7501.1294, -0.00217932, -0.013252955, -736569.06, -10312.888, 0.0, 5.0133696, 4.9504776 
5.439685e+2, 2.3084174e+2, -689500.44, -786164.75, -7559.085, 0.0034198232, -0.011661404, -688912.94, -11173.555, 0.0, 5.0127616, 4.9504814 
5.4395187e+2, 2.3579279e+2, -642497.06, -739035.56, -7610.28, 0.009013334, -0.010291702, -641900.8, -12678.142, 0.0, 5.0121536, 4.9499836 
5.4393524e+2, 2.4074033e+2, -602275.94, -706988.75, -7269.482, 0.012365131, -0.0039050104, -601773.7, -21036.14, 0.0, 5.0115347, 4.944262 
5.439183e+2, 2.456842e+2, -553441.56, -655521.3, -7462.5776, 0.008264074, -0.02021786, -552898.9, -20620.41, 0.0, 5.0108685, 4.9452577 
5.4390144e+2, 2.5062802e+2, -505867.34, -606849.3, -7775.7026, 0.0035275188, -0.03887898, -505272.13, -21452.97, 0.0, 5.010197, 4.945287 
5.438844e+2, 2.5557187e+2, -458526.47, -558737.3, -8087.1787, -0.0014089773, -0.057694152, -457878.0, -22518.494, 0.0, 5.0095253, 4.945119 
5.4386985e+2, 2.6051238e+2, -425404.78, -543175.4, -5545.1196, 0.0051537487, -0.043026917, -425144.28, -38204.195, 0.0, 5.008949, 4.933437 
5.438589e+2, 2.654528e+2, -374026.28, -486398.28, -4387.934, 0.016632926, -0.008125698, -373855.2, -35302.91, 0.0, 5.008274, 4.936084 
5.438475e+2, 2.7039343e+2, -326297.72, -437981.38, -3834.547, 0.023945013, 0.0175189, -326166.22, -36000.793, 0.0, 5.0075197, 4.936045 
5.43836e+2, 2.7533364e+2, -278535.97, -389761.44, -3176.3845, 0.03160879, 0.03761287, -278445.34, -36662.594, 0.0, 5.0067596, 4.935959 
5.43826e+2, 2.8027105e+2, -247843.39, -377471.84, 1330.3723, 0.03443238, 0.110988855, -247829.75, -54412.176, 0.0, 5.0056863, 4.923547 
5.438151e+2, 2.8520027e+2, -192063.31, -307312.06, -2106.9524, 0.0306091, 0.10815732, -192024.81, -46941.492, 0.0, 5.00483, 4.930955 
5.438029e+2, 2.9012638e+2, -143976.55, -258172.81, -3744.033, 0.029064769, 0.0489793, -143853.94, -47080.977, 0.0, 5.004259, 4.930974 
5.437907e+2, 2.9505223e+2, -95824.36, -209077.3, -5326.261, 0.02811851, -0.01385649, -95574.42, -47109.55, 0.0, 5.003684, 4.930994 
5.437795e+2, 2.9999697e+2, -32541.559, -90825.08, -3934.4636, 0.02486245, -0.04272827, -32277.16, -32277.16, 0.0, 5.0029716, 4.9651213 
5.437722e+2, 3.0497167e+2, -31496.336, -81460.32, -1775.7971, 0.01207983, 0.0034835343, -31433.3, -31433.3, 0.0, 5.0016913, 4.968852 
5.437654e+2, 3.0994865e+2, -35120.25, -82801.875, -1289.116, -0.00020256208, 0.06276858, -35085.42, -35085.42, 0.0, 5.000348, 4.968935 
5.437587e+2, 3.1492618e+2, -38711.51, -84179.09, -877.237, -0.011109231, 0.1280986, -38694.59, -38694.59, 0.0, 4.9989977, 4.969018 
5.4933625e+2, 1.2157457e+2, -1681204.6, -1749619.0, 296.5518, 0.0036925133, 0.0016218874, -1681203.4, 67365.61, 0.0, 5.0276766, 4.9830403 
5.4932433e+2, 1.2655511e+2, -1638018.6, -1709285.3, -1574.9119, 0.0030405207, 0.0010976336, -1637983.9, 61776.453, 0.0, 5.027003, 4.980553 
5.493122e+2, 1.315353e+2, -1591120.6, -1661362.8, -1740.0322, 0.0015011979, -0.0028321138, -1591077.6, 59876.832, 0.0, 5.0263247, 4.9805527 
5.493001e+2, 1.3651548e+2, -1546324.5, -1617783.1, -1914.8046, -0.000056983197, -0.0055040224, -1546273.3, 55875.426, 0.0, 5.0256467, 4.9791083 
5.49287e+2, 1.4149328e+2, -1504898.8, -1581151.0, -3664.9463, -0.00090330356, 0.0054080915, -1504723.0, 48643.684, 0.0, 5.0249567, 4.975285 
5.4927266e+2, 1.464689e+2, -1457592.5, -1532431.4, -4011.6997, -0.00017596106, 0.0040159663, -1457378.1, 47228.16, 0.0, 5.02427, 4.9755225 
5.492582e+2, 1.5144448e+2, -1410623.0, -1484420.9, -4102.1104, 0.00051498116, 0.0021237796, -1410395.6, 45450.508, 0.0, 5.023583, 4.9755225 
5.4924375e+2, 1.5642005e+2, -1364971.5, -1439176.3, -4170.3057, 0.0012039727, 0.00068657304, -1364737.9, 42348.258, 0.0, 5.022896, 4.9745936 
5.4922855e+2, 1.6139235e+2, -1324865.6, -1405569.9, -5625.4946, 0.0014507339, 0.004456227, -1324475.5, 33882.453, 0.0, 5.022204, 4.969768 
5.49212e+2, 1.6636229e+2, -1277522.8, -1356805.1, -5973.306, 0.0011718648, 0.001710528, -1277075.3, 32576.354, 0.0, 5.021503, 4.9699955 
5.491953e+2, 1.7133227e+2, -1230494.5, -1308710.0, -6068.709, 0.00087143946, -0.0009799664, -1230026.4, 30918.469, 0.0, 5.020801, 4.9699965 
5.4917866e+2, 1.7630225e+2, -1184566.3, -1262959.8, -6143.14, 0.00055885286, -0.0032762259, -1184087.8, 28150.363, 0.0, 5.020099, 4.969205 
5.491616e+2, 1.8126908e+2, -1145374.1, -1231611.9, -6994.819, 0.00007822332, 0.0034223695, -1144810.5, 18752.373, 0.0, 5.019408, 4.9635386 
5.491437e+2, 1.8623306e+2, -1097868.8, -1182755.5, -7266.0454, -0.00010983638, 0.003625446, -1097251.4, 17665.104, 0.0, 5.0187364, 4.9637485 
5.491258e+2, 1.9119705e+2, -1050641.9, -1134508.1, -7328.112, -0.00023943411, 0.0035442808, -1050006.4, 16263.594, 0.0, 5.0180655, 4.9637485 
5.4910785e+2, 1.9616106e+2, -1004293.9, -1088164.5, -7385.7466, -0.0003745947, 0.0037732094, -1003648.44, 13975.087, 0.0, 5.017394, 4.9630985 
5.490898e+2, 2.0112145e+2, -964822.4, -1056724.0, -7761.5986, -0.00037149483, 0.007435321, -964171.44, 4839.3833, 0.0, 5.016731, 4.9573526 
5.4907125e+2, 2.0607838e+2, -917000.06, -1007208.0, -8026.8696, -0.0019253445, -0.0031333484, -916291.44, 4136.613, 0.0, 5.0160418, 4.9577575 
5.490526e+2, 2.1103537e+2, -869730.44, -958872.7, -8185.467, -0.0037830223, -0.013941715, -868985.0, 2859.5408, 0.0, 5.0153465, 4.9577613 
5.49034e+2, 2.1599236e+2, -823114.25, -911980.4, -8338.653, -0.0056856726, -0.024677072, -822338.56, 922.55316, 0.0, 5.014651, 4.9572654 
5.490158e+2, 2.2094654e+2, -785301.6, -884510.44, -7932.283, -0.0062164934, -0.01865572, -784671.44, -9964.285, 0.0, 5.013983, 4.950073 
5.489985e+2, 2.2589794e+2, -737217.2, -834910.5, -7967.2725, -0.0020231353, -0.011876592, -736571.7, -10385.275, 0.0, 5.013371, 4.9504232 
5.4898113e+2, 2.3084928e+2, -689582.0, -786339.9, -8015.63, 0.0025510995, -0.00658197, -688922.44, -11255.75, 0.0, 5.0127606, 4.950428 
5.489638e+2, 2.358006e+2, -642585.2, -739208.94, -8057.1807, 0.007093098, -0.0014203571, -641917.94, -12770.88, 0.0, 5.0121503, 4.949931 
5.489467e+2, 2.4074802e+2, -602655.56, -707831.1, -7765.6025, 0.010831253, 0.005442769, -602085.25, -21422.082, 0.0, 5.0115356, 4.943967 
5.4892945e+2, 2.45691e+2, -553949.25, -656646.4, -7973.3965, 0.010436401, -0.016501747, -553333.94, -21119.457, 0.0, 5.0108676, 4.944862 
5.4891217e+2, 2.5063396e+2, -506392.47, -607992.06, -8266.588, 0.009389934, -0.040258456, -505724.28, -21959.05, 0.0, 5.0101914, 4.9448876 
5.488949e+2, 2.5557694e+2, -459068.88, -559897.7, -8558.116, 0.008066134, -0.06377774, -458347.66, -23032.254, 0.0, 5.0095143, 4.944715 
5.4887956e+2, 2.6051748e+2, -424273.6, -540753.0, -6075.081, 0.013864654, -0.050319068, -423957.63, -37061.754, 0.0, 5.0089636, 4.93431 
5.4886705e+2, 2.654591e+2, -372961.56, -483802.84, -4766.7275, 0.016325176, -0.0099748755, -372756.94, -34266.35, 0.0, 5.008245, 4.9370775 
5.488542e+2, 2.7040088e+2, -325423.5, -435270.56, -4053.103, 0.014437087, 0.021827804, -325274.16, -35188.4, 0.0, 5.007419, 4.937095 
5.488412e+2, 2.753424e+2, -277852.1, -386934.8, -3234.8848, 0.012512139, 0.049101457, -277756.22, -36072.56, 0.0, 5.006588, 4.937065 
5.488293e+2, 2.8027955e+2, -245845.9, -372793.34, -276.4614, 0.009903506, 0.104632206, -245845.31, -52528.375, 0.0, 5.0056763, 4.9251957 
5.48818e+2, 2.8520632e+2, -193630.31, -311939.38, -3008.0918, 0.012189514, 0.0848226, -193553.88, -48540.62, 0.0, 5.0049505, 4.929359 
5.488059e+2, 2.901307e+2, -145674.7, -262788.03, -4508.512, 0.016553212, 0.028050834, -145501.39, -48773.145, 0.0, 5.0043335, 4.929394 
5.487939e+2, 2.9505494e+2, -97652.83, -213680.0, -5954.147, 0.021259883, -0.03146947, -97348.08, -48903.402, 0.0, 5.003711, 4.929429 
5.487826e+2, 2.999982e+2, -32874.34, -91707.21, -4747.002, 0.023539705, -0.059240505, -32493.785, -32493.785, 0.0, 5.0029655, 4.964835 
5.487745e+2, 3.0497327e+2, -30028.463, -78484.12, -2770.0986, 0.015642684, -0.012904499, -29870.617, -29870.617, 0.0, 5.0017314, 4.9700217 
5.4876673e+2, 3.09951e+2, -33490.33, -79879.05, -2166.1028, 0.0074249245, 0.048468933, -33389.402, -33389.402, 0.0, 5.0004473, 4.970069 
5.48759e+2, 3.1492913e+2, -36919.535, -81309.555, -1636.9005, -0.0001017149, 0.11424851, -36859.258, -36859.258, 0.0, 4.9991555, 4.9701166 
5.5436397e+2, 1.215842e+2, -1680915.9, -1749028.8, -236.98442, 0.004309818, -0.0012013918, -1680915.0, 67559.48, 0.0, 5.0276756, 4.9832344 
5.543513e+2, 1.26565e+2, -1638333.3, -1709933.8, -2091.6257, 0.0019660273, 0.0023934944, -1638272.1, 61391.12, 0.0, 5.0270033, 4.9803405 
5.5433846e+2, 1.315449e+2, -1591432.8, -1662009.4, -2255.937, 0.0008731306, -0.0021176096, -1591360.8, 59499.414, 0.0, 5.026325, 4.9803395 
5.543257e+2, 1.3652481e+2, -1546640.0, -1618439.9, -2438.5405, -0.00024898158, -0.005371851, -1546557.3, 55499.98, 0.0, 5.025647, 4.9788914 
5.5431193e+2, 1.4150238e+2, -1505082.5, -1581539.4, -4190.092, -0.0008742571, 0.005134153, -1504853.5, 48424.004, 0.0, 5.0249577, 4.975157 
5.5429685e+2, 1.4647791e+2, -1457754.3, -1532775.9, -4534.714, -0.0002383646, 0.0040675965, -1457481.3, 47036.74, 0.0, 5.024271, 4.975409 
5.542817e+2, 1.5145342e+2, -1410783.8, -1484764.4, -4624.9644, 0.00034718882, 0.0025483903, -1410495.8, 45262.82, 0.0, 5.023584, 4.975409 
5.542667e+2, 1.5642892e+2, -1365130.3, -1439516.5, -4695.674, 0.0009284727, 0.0014862757, -1364835.0, 42164.324, 0.0, 5.022897, 4.9744806 
5.542507e+2, 1.6140111e+2, -1325030.8, -1405925.8, -6158.6313, 0.0012066489, 0.0053369063, -1324564.6, 33707.496, 0.0, 5.0222054, 4.96965 
5.5423343e+2, 1.6637087e+2, -1277691.4, -1357168.5, -6506.7905, 0.0012716749, 0.0018489348, -1277162.3, 32405.385, 0.0, 5.021504, 4.9698744 
5.5421615e+2, 1.7134064e+2, -1230662.8, -1309072.3, -6601.728, 0.0013209413, -0.0016202829, -1230110.8, 30751.965, 0.0, 5.020802, 4.969875 
5.541988e+2, 1.7631042e+2, -1184733.0, -1263318.4, -6674.0244, 0.0013516216, -0.00468875, -1184170.3, 27987.678, 0.0, 5.0200996, 4.9690847 
5.541811e+2, 1.812771e+2, -1145465.9, -1231815.5, -7515.7344, 0.00087153935, 0.0015038317, -1144816.5, 18667.313, 0.0, 5.019409, 4.963471 
5.5416244e+2, 1.8624108e+2, -1097970.8, -1182982.6, -7778.191, 0.000089677764, 0.0022863233, -1097264.9, 17572.43, 0.0, 5.018738, 4.9636726 
5.541437e+2, 1.9120507e+2, -1050743.5, -1134734.8, -7839.211, -0.00064667, 0.0028802422, -1050018.0, 16172.735, 0.0, 5.0180664, 4.9636726 
5.5412513e+2, 1.9616905e+2, -1004395.0, -1088390.9, -7895.7295, -0.0013943058, 0.0037936412, -1003659.25, 13884.914, 0.0, 5.017395, 4.963022 
5.5410635e+2, 2.0112938e+2, -965093.56, -1057325.5, -8274.421, -0.0014764026, 0.008151502, -964357.1, 4574.9707, 0.0, 5.016733, 4.9571476 
5.540872e+2, 2.0608605e+2, -917270.56, -1007800.56, -8552.64, -0.0022137125, -0.0030643116, -916469.7, 3882.8489, 0.0, 5.0160427, 4.957555 
5.5406797e+2, 2.1104278e+2, -870004.9, -959462.7, -8708.111, -0.003281413, -0.014678587, -869165.06, 2607.359, 0.0, 5.0153456, 4.957559 
5.540488e+2, 2.1599948e+2, -823392.6, -912567.94, -8858.116, -0.0044210735, -0.026167931, -822521.25, 671.0206, 0.0, 5.014648, 4.957064 
5.540299e+2, 2.2095355e+2, -785328.5, -884579.75, -8428.054, -0.004945122, -0.020214345, -784617.94, -9978.045, 0.0, 5.0139837, 4.9500513 
5.540118e+2, 2.259052e+2, -737292.8, -835087.4, -8436.934, -0.0018400613, -0.0104146255, -736570.25, -10453.647, 0.0, 5.0133724, 4.9503665 
5.5399376e+2, 2.3085679e+2, -689664.2, -786515.0, -8475.693, 0.0016676424, -0.0016706195, -688928.06, -11333.945, 0.0, 5.01276, 4.950372 
5.5397576e+2, 2.358084e+2, -642674.0, -739382.4, -8507.6, 0.0051165307, 0.0070293513, -641931.25, -12859.668, 0.0, 5.0121474, 4.949876 
5.53958e+2, 2.4075577e+2, -603130.0, -708882.75, -8247.589, 0.00923969, 0.015289606, -602490.6, -21902.162, 0.0, 5.011536, 4.9435987 
5.539405e+2, 2.4569784e+2, -554458.6, -657771.1, -8481.182, 0.012470326, -0.012186002, -553767.0, -21617.123, 0.0, 5.0108666, 4.9444623 
5.539229e+2, 2.506399e+2, -506919.22, -609134.5, -8754.439, 0.015041132, -0.04161878, -506174.84, -22463.883, 0.0, 5.0101852, 4.9444838 
5.539053e+2, 2.5558203e+2, -459612.88, -561057.6, -9026.02, 0.01725728, -0.07042245, -458816.03, -23544.887, 0.0, 5.0095034, 4.9443073 
5.5388933e+2, 2.6052254e+2, -423584.94, -539320.0, -6577.059, 0.022972938, -0.056477502, -423212.38, -36360.63, 0.0, 5.0089784, 4.9348245 
5.5387527e+2, 2.6546523e+2, -371910.6, -481203.56, -5253.576, 0.016218914, -0.012556134, -371658.66, -33228.816, 0.0, 5.008216, 4.938023 
5.538607e+2, 2.7040812e+2, -324562.4, -432555.7, -4379.7964, 0.0044890004, 0.021410799, -324385.1, -34376.773, 0.0, 5.0073185, 4.938097 
5.5384606e+2, 2.753508e+2, -277180.72, -384103.84, -3401.6187, -0.007665835, 0.0518729, -277072.63, -35484.5, 0.0, 5.006416, 4.9381227 
5.5383265e+2, 2.8028795e+2, -245608.31, -372165.66, -1572.9274, -0.015306427, 0.0985519, -245588.77, -52371.773, 0.0, 5.005667, 4.925419 
5.53821e+2, 2.8521252e+2, -195207.31, -316564.3, -3947.3398, -0.006240964, 0.06786044, -195079.05, -50136.93, 0.0, 5.0050716, 4.9277287 
5.5380905e+2, 2.90135e+2, -147382.5, -267400.66, -5310.9653, 0.0040664063, 0.009526584, -147147.94, -50464.016, 0.0, 5.0044074, 4.9277787 
5.53797e+2, 2.9505745e+2, -99490.6, -218279.84, -6619.8735, 0.014461741, -0.050644502, -99122.83, -50696.516, 0.0, 5.0037384, 4.9278293 
5.537856e+2, 2.9999945e+2, -33524.195, -93302.375, -5561.3315, 0.022019096, -0.0759952, -33011.21, -33011.21, 0.0, 5.0029597, 4.964285 
5.537768e+2, 3.0497506e+2, -28572.533, -75498.54, -3701.6438, 0.019440293, -0.027751122, -28282.332, -28282.332, 0.0, 5.0017715, 4.9711695 
5.537683e+2, 3.0995342e+2, -31872.395, -76946.76, -2980.3823, 0.01623497, 0.03220918, -31676.182, -31676.182, 0.0, 5.000546, 4.971181 
5.5375963e+2, 3.1493202e+2, -35139.605, -78430.46, -2333.901, 0.0130352685, 0.09493951, -35014.145, -35014.145, 0.0, 4.999314, 4.971193 
5.5939174e+2, 1.2159386e+2, -1680342.4, -1748328.1, -343.53973, 0.004771862, -0.004143449, -1680340.6, 68039.02, 0.0, 5.0277767, 4.9834156 
5.5937815e+2, 1.265749e+2, -1638351.0, -1710413.8, -2173.566, 0.0010422936, 0.003545648, -1638285.5, 61280.332, 0.0, 5.027098, 4.980137 
5.5936474e+2, 1.3155456e+2, -1591474.4, -1662500.3, -2302.4563, 0.0003346119, -0.0014940711, -1591399.9, 59365.55, 0.0, 5.026412, 4.980136 
5.593513e+2, 1.3653421e+2, -1546716.9, -1618956.5, -2457.1946, -0.0004027461, -0.005288849, -1546633.4, 55331.742, 0.0, 5.0257235, 4.978684 
5.593369e+2, 1.4151154e+2, -1505078.8, -1581834.1, -4186.047, -0.0008447435, 0.0048448886, -1504851.1, 48336.395, 0.0, 5.0250216, 4.975029 
5.593211e+2, 1.46487e+2, -1457773.9, -1533050.3, -4533.384, -0.00032391865, 0.004084178, -1457501.8, 46927.023, 0.0, 5.0243196, 4.975295 
5.593053e+2, 1.5146244e+2, -1410848.0, -1485060.4, -4628.961, 0.00013690292, 0.002910803, -1410560.5, 45109.848, 0.0, 5.0236173, 4.9752946 
5.592895e+2, 1.5643786e+2, -1365239.3, -1439832.4, -4707.482, 0.0005947691, 0.0021954954, -1364943.4, 41968.496, 0.0, 5.0229144, 4.9743676 
5.592729e+2, 1.6140994e+2, -1325174.6, -1406275.4, -6179.5186, 0.00088716653, 0.006145297, -1324706.5, 33479.195, 0.0, 5.0222144, 4.969529 
5.5925494e+2, 1.663795e+2, -1277818.4, -1357514.6, -6538.5566, 0.0012808787, 0.0019890328, -1277285.5, 32197.383, 0.0, 5.0215197, 4.969752 
5.5923694e+2, 1.713491e+2, -1230773.4, -1309409.9, -6644.1855, 0.0016754197, -0.0022000512, -1230216.0, 30563.963, 0.0, 5.020823, 4.9697523 
5.5921894e+2, 1.7631868e+2, -1184831.4, -1263647.6, -6725.1216, 0.0020545647, -0.005995671, -1184261.6, 27815.273, 0.0, 5.020124, 4.9689627 
5.592005e+2, 1.8128522e+2, -1145494.9, -1231995.8, -7562.144, 0.0016113704, -0.00026463243, -1144838.8, 18565.459, 0.0, 5.019433, 4.9633994 
5.5918115e+2, 1.8624917e+2, -1098011.8, -1183176.6, -7817.1567, 0.00029191104, 0.0010266078, -1097300.1, 17457.5, 0.0, 5.0187593, 4.9635973 
5.591617e+2, 1.9121312e+2, -1050795.1, -1134933.8, -7877.131, -0.0009902663, 0.0021982857, -1050064.0, 16046.916, 0.0, 5.018084, 4.9635973 
5.591424e+2, 1.961771e+2, -1004462.7, -1088597.4, -7931.6646, -0.002283259, 0.0036905743, -1003721.5, 13742.78, 0.0, 5.017407, 4.9629474 
5.59123e+2, 2.0113736e+2, -965362.6, -1057932.9, -8300.549, -0.002411614, 0.008816317, -964624.25, 4228.5806, 0.0, 5.0167384, 4.956939 
5.591032e+2, 2.060938e+2, -917558.5, -1008400.94, -8596.238, -0.0023626396, -0.0029350359, -916752.25, 3524.1443, 0.0, 5.016037, 4.9573517 
5.590834e+2, 2.1105023e+2, -870333.5, -960081.3, -8754.574, -0.0026376338, -0.015352223, -869487.5, 2212.1604, 0.0, 5.015325, 4.957356 
5.5906355e+2, 2.1600667e+2, -823774.06, -913209.8, -8908.5, -0.0029810132, -0.027662927, -822895.4, 227.49808, 0.0, 5.014609, 4.956861 
5.59044e+2, 2.2096062e+2, -785575.7, -884801.7, -8426.544, -0.003382748, -0.021658164, -784865.2, -10293.037, 0.0, 5.01392, 4.9500065 
5.590252e+2, 2.2591251e+2, -737576.75, -835331.7, -8373.461, -0.0015068705, -0.009028556, -736864.7, -10818.405, 0.0, 5.0132957, 4.95032 
5.5900645e+2, 2.3086435e+2, -689995.44, -786784.2, -8365.597, 0.0007795048, 0.0027675948, -689277.7, -11756.632, 0.0, 5.0126667, 4.950324 
5.589877e+2, 2.3581621e+2, -643075.44, -739685.25, -8353.236, 0.0030217085, 0.014533257, -642358.5, -13362.703, 0.0, 5.0120296, 4.9498262 
5.589694e+2, 2.4076356e+2, -604050.75, -710301.2, -8071.8525, 0.0074600675, 0.025007617, -603441.0, -22928.074, 0.0, 5.0114107, 4.943162 
5.5895156e+2, 2.457048e+2, -555213.9, -659025.1, -8403.179, 0.014219035, -0.007317603, -554538.06, -22454.047, 0.0, 5.0107803, 4.944055 
5.589336e+2, 2.5064594e+2, -507579.16, -610333.6, -8701.758, 0.020392654, -0.04283482, -506847.44, -23191.809, 0.0, 5.0101304, 4.944079 
5.589157e+2, 2.5558716e+2, -460207.66, -562213.4, -8962.451, 0.026197135, -0.077860415, -459426.2, -24199.695, 0.0, 5.009471, 4.9439044 
5.5889916e+2, 2.605276e+2, -423531.2, -538734.44, -6391.527, 0.03252615, -0.06270125, -423177.66, -36369.625, 0.0, 5.0089025, 4.935058 
5.588835e+2, 2.654714e+2, -371359.63, -478873.25, -5315.159, 0.016536733, -0.01602106, -371097.5, -32728.14, 0.0, 5.008041, 4.938897 
5.588673e+2, 2.704152e+2, -324458.22, -430404.84, -4783.7383, -0.004897568, 0.017547622, -324242.7, -34310.43, 0.0, 5.0070148, 4.938961 
5.588509e+2, 2.7535886e+2, -277697.72, -382163.5, -4427.179, -0.02661214, 0.04839553, -277510.44, -36014.355, 0.0, 5.0059314, 4.938979 
5.5883616e+2, 2.8029618e+2, -248852.69, -375942.94, -3759.3655, -0.037775375, 0.09539988, -248741.58, -55622.543, 0.0, 5.0050607, 4.9243174 
5.5882436e+2, 2.8521883e+2, -198516.44, -321386.47, -5263.5537, -0.0222132, 0.059516065, -198291.36, -53421.734, 0.0, 5.0045433, 4.926223 
5.5881226e+2, 2.9013947e+2, -150586.81, -272268.84, -5835.869, -0.006783764, -0.00446396, -150307.56, -53669.438, 0.0, 5.0039063, 4.9262576 
5.5880016e+2, 2.9506004e+2, -102716.05, -223214.9, -6474.724, 0.008714768, -0.06964454, -102369.14, -53962.164, 0.0, 5.0032287, 4.926293 
5.587886e+2, 3.0000097e+2, -35857.6, -96080.56, -5114.057, 0.020948758, -0.0922964, -35426.41, -35426.41, 0.0, 5.002433, 4.963517 
5.5877906e+2, 3.0497727e+2, -28584.004, -73284.375, -3408.4822, 0.023858005, -0.04087406, -28325.594, -28325.594, 0.0, 5.001314, 4.9722176 
5.587699e+2, 3.099561e+2, -31903.39, -74812.3, -2819.9202, 0.026763408, 0.014666762, -31718.861, -31718.861, 0.0, 5.000084, 4.9722075 
5.587607e+2, 3.1493506e+2, -35468.82, -76491.164, -2262.8298, 0.029546218, 0.07181459, -35344.38, -35344.38, 0.0, 4.9987473, 4.9721975 
5.644202e+2, 1.216058e+2, -1676581.4, -1747229.9, 950.9593, 0.0050274283, -0.0035316364, -1676568.6, 71694.35, 0.0, 5.029195, 4.9830813 
5.64406e+2, 1.2658659e+2, -1634465.3, -1708698.5, -802.01953, 0.0015484159, 0.003086115, -1634456.6, 64994.68, 0.0, 5.02844, 4.980045 
5.6439185e+2, 1.3156617e+2, -1587811.8, -1660899.4, -852.49335, 0.00069862214, -0.00190879, -1587801.9, 62849.805, 0.0, 5.027683, 4.9800444 
5.6437767e+2, 1.3654572e+2, -1543275.8, -1617478.8, -937.5827, -0.00017320589, -0.005680374, -1543263.9, 58588.32, 0.0, 5.0269246, 4.978588 
5.6436247e+2, 1.4152294e+2, -1501857.8, -1580484.1, -2608.1553, -0.00086755166, 0.0044262595, -1501771.3, 51304.27, 0.0, 5.026154, 4.974926 
5.6434596e+2, 1.464983e+2, -1454777.4, -1531835.6, -2948.7786, -0.0007294906, 0.0037670138, -1454664.8, 49653.12, 0.0, 5.025384, 4.975183 
5.643293e+2, 1.5147361e+2, -1408061.3, -1483953.1, -3039.797, -0.00065151, 0.0027100358, -1407939.6, 47620.723, 0.0, 5.024614, 4.9751825 
5.6431276e+2, 1.5644895e+2, -1362659.0, -1438830.1, -3116.2554, -0.00057302025, 0.002112202, -1362531.6, 44271.258, 0.0, 5.0238433, 4.974255 
5.6429535e+2, 1.6142091e+2, -1322772.0, -1405378.4, -4551.951, -0.0004922692, 0.0062077492, -1322521.9, 35555.945, 0.0, 5.0230865, 4.969411 
5.6427675e+2, 1.6639034e+2, -1275510.5, -1356688.6, -4901.6577, 0.00011111514, 0.0021969518, -1275215.6, 34160.918, 0.0, 5.022366, 4.969624 
5.6425804e+2, 1.7135982e+2, -1228538.6, -1308623.8, -5006.9287, 0.00074803806, -0.001869906, -1228226.8, 32448.275, 0.0, 5.0216465, 4.9696245 
5.642394e+2, 1.7632927e+2, -1182662.6, -1262896.1, -5085.0547, 0.0013839051, -0.0055644982, -1182341.6, 29631.85, 0.0, 5.0209265, 4.968836 
5.6422025e+2, 1.8129566e+2, -1143316.5, -1231077.5, -5911.0967, 0.0012780001, -0.00015324913, -1142920.3, 20381.994, 0.0, 5.0202055, 4.963343 
5.642003e+2, 1.8625952e+2, -1095953.1, -1182312.0, -6135.2373, 0.00031877673, 0.0006860045, -1095519.5, 19136.814, 0.0, 5.019491, 4.963544 
5.6418025e+2, 1.9122338e+2, -1048852.9, -1134128.1, -6174.1323, -0.00061501696, 0.0014756348, -1048408.1, 17602.11, 0.0, 5.018778, 4.963544 
5.6416017e+2, 1.9618726e+2, -1002630.56, -1087847.6, -6207.268, -0.0015542927, 0.002583356, -1002180.8, 15183.357, 0.0, 5.018064, 4.9628935 
5.6414014e+2, 2.011475e+2, -963780.06, -1057510.5, -6539.3784, -0.0013527283, 0.008218028, -963326.0, 5427.084, 0.0, 5.0173526, 4.9567957 
5.641197e+2, 2.0610385e+2, -916175.8, -1008143.25, -6819.681, -0.0006408829, -0.0023815827, -915672.8, 4505.2583, 0.0, 5.0165963, 4.9571795 
5.640992e+2, 2.110602e+2, -869100.4, -959901.3, -6950.1045, -0.00015789851, -0.013889831, -868571.5, 3031.6409, 0.0, 5.015833, 4.957183 
5.640787e+2, 2.1601653e+2, -822677.06, -913101.25, -7074.642, 0.00030210824, -0.02541002, -822126.9, 901.32983, 0.0, 5.0150695, 4.9566865 
5.640584e+2, 2.2097032e+2, -784348.6, -883999.44, -6518.65, -0.000036989597, -0.020421805, -783924.0, -9444.647, 0.0, 5.0143013, 4.9501066 
5.640387e+2, 2.2592215e+2, -736649.25, -834669.7, -6328.8394, -0.0003831745, -0.0091639245, -736242.3, -10289.552, 0.0, 5.013573, 4.9504237 
5.64019e+2, 2.3087397e+2, -689327.8, -786257.94, -6224.5596, -0.00043626226, 0.0017091002, -688929.75, -11503.461, 0.0, 5.0128536, 4.950424 
5.6399935e+2, 2.358258e+2, -642642.4, -739284.25, -6111.8906, -0.0004799298, 0.012489601, -642257.4, -13357.454, 0.0, 5.012134, 4.9499235 
5.639803e+2, 2.4077314e+2, -604263.3, -711151.25, -5645.701, 0.0027325973, 0.023594446, -603965.94, -23549.162, 0.0, 5.011473, 4.9428453 
5.6396204e+2, 2.4571438e+2, -555488.4, -660198.2, -5998.1875, 0.011641328, -0.0040933555, -555145.9, -23155.016, 0.0, 5.0108824, 4.9436026 
5.639438e+2, 2.5065547e+2, -507679.78, -611365.7, -6370.21, 0.02028517, -0.035722658, -507289.88, -23723.45, 0.0, 5.010284, 4.943646 
5.639255e+2, 2.5559655e+2, -460104.66, -563096.9, -6733.963, 0.028640134, -0.06791203, -459666.25, -24524.352, 0.0, 5.0096855, 4.9434915 
5.639082e+2, 2.6053685e+2, -422652.38, -536747.75, -4479.5767, 0.035044968, -0.05509699, -422476.78, -35750.387, 0.0, 5.0089293, 4.9357305 
5.6389135e+2, 2.6548034e+2, -372083.63, -478210.25, -3876.7913, 0.018173033, -0.015728971, -371942.2, -33657.895, 0.0, 5.007604, 4.939367 
5.6387407e+2, 2.7042365e+2, -326318.4, -430664.1, -3690.7727, -0.0022576822, 0.011961143, -326188.03, -36343.33, 0.0, 5.0062284, 4.939296 
5.638569e+2, 2.753667e+2, -280546.88, -383263.7, -3435.3855, -0.0219877, 0.037214067, -280432.13, -39024.516, 0.0, 5.004848, 4.939177 
5.63841e+2, 2.8030306e+2, -253290.81, -377844.03, -2171.5767, -0.031573124, 0.075767785, -253252.97, -60217.836, 0.0, 5.0034723, 4.9243207 
5.6382805e+2, 2.8522602e+2, -203967.44, -324711.1, -2609.5334, -0.01895195, 0.045381732, -203911.06, -59121.656, 0.0, 5.0027695, 4.9257464 
5.638152e+2, 2.901473e+2, -155755.52, -275717.56, -3110.1343, -0.0065129604, -0.0069739493, -155674.94, -59115.97, 0.0, 5.0022435, 4.9257216 
5.638023e+2, 2.950685e+2, -107503.13, -226742.55, -3557.1409, 0.0063401973, -0.060425792, -107397.12, -59067.58, 0.0, 5.001712, 4.9256964 
5.6378996e+2, 3.0001014e+2, -38810.336, -96591.37, -2006.8148, 0.0176678, -0.07393561, -38740.72, -38740.72, 0.0, 5.0011163, 4.9639263 
5.637796e+2, 3.0498645e+2, -30136.814, -72699.586, -261.6496, 0.021357995, -0.028260812, -30135.207, -30135.207, 0.0, 5.0004263, 4.972855 
5.637695e+2, 3.0996495e+2, -31908.99, -73437.04, 184.05525, 0.024730278, 0.018595014, -31908.174, -31908.174, 0.0, 4.999755, 4.972869 
5.6375945e+2, 3.1494355e+2, -33651.258, -74206.41, 571.0567, 0.028605046, 0.066630594, -33643.215, -33643.215, 0.0, 4.9990726, 4.9728827 
5.694495e+2, 1.2161877e+2, -1677197.3, -1748489.6, 337.62793, 0.0053709433, -0.0024128277, -1677195.8, 70940.44, 0.0, 5.0291944, 4.9826684 
5.694345e+2, 1.2659928e+2, -1634556.5, -1708892.4, -1379.3126, 0.0023684744, 0.0022962121, -1634531.0, 64796.24, 0.0, 5.0284405, 4.9799814 
5.6941956e+2, 1.315788e+2, -1587902.0, -1661093.0, -1429.0315, 0.0012604357, -0.0025434738, -1587874.1, 62653.668, 0.0, 5.0276833, 4.979981 
5.694046e+2, 1.3655831e+2, -1543372.6, -1617688.0, -1523.8921, 0.00012127551, -0.0061581144, -1543341.4, 58387.277, 0.0, 5.0269256, 4.9785194 
5.693886e+2, 1.4153546e+2, -1502000.5, -1580790.4, -3195.1187, -0.0009424818, 0.0040297327, -1501871.1, 51081.402, 0.0, 5.026155, 4.974825 
5.693712e+2, 1.4651069e+2, -1454938.5, -1532180.9, -3535.234, -0.0012642815, 0.0034156698, -1454777.0, 49418.85, 0.0, 5.025385, 4.975069 
5.693538e+2, 1.5148592e+2, -1408221.4, -1484297.5, -3626.0889, -0.0016501523, 0.0024106512, -1408049.0, 47390.42, 0.0, 5.024615, 4.9750686 
5.693364e+2, 1.5646112e+2, -1362819.4, -1439176.1, -3706.9177, -0.0020386, 0.0018675855, -1362639.9, 44043.137, 0.0, 5.0238442, 4.9741406 
5.6931823e+2, 1.61433e+2, -1322939.8, -1405741.0, -5110.435, -0.0022383109, 0.006125034, -1322625.5, 35333.44, 0.0, 5.023088, 4.9692907 
5.6929886e+2, 1.6640234e+2, -1275691.5, -1357078.9, -5449.6753, -0.001454792, 0.0024696246, -1275328.1, 33930.78, 0.0, 5.022367, 4.969495 
5.6927955e+2, 1.713717e+2, -1228719.0, -1309012.8, -5554.4663, -0.0006224029, -0.0012313192, -1228336.5, 32222.19, 0.0, 5.021647, 4.9694953 
5.692602e+2, 1.7634109e+2, -1182842.0, -1263282.8, -5630.5493, 0.0002035031, -0.0045539937, -1182449.8, 29408.771, 0.0, 5.020927, 4.9687066 
5.6924033e+2, 1.8130736e+2, -1143389.0, -1231244.1, -6465.2964, 0.00049247604, 0.00065108726, -1142915.8, 20272.678, 0.0, 5.020207, 4.963287 
5.692197e+2, 1.8627109e+2, -1096014.0, -1182455.3, -6679.5, 0.00019245458, 0.00071986817, -1095501.0, 19042.434, 0.0, 5.0194926, 4.9634957 
5.6919897e+2, 1.9123483e+2, -1048914.5, -1134272.1, -6717.375, -0.00010405135, 0.0008073104, -1048389.1, 17508.95, 0.0, 5.018779, 4.9634953 
5.691783e+2, 1.961986e+2, -1002693.25, -1087992.9, -6749.4053, -0.00041411724, 0.0012291026, -1002162.5, 15090.172, 0.0, 5.018065, 4.962845 
5.691576e+2, 2.0115878e+2, -963947.44, -1057885.3, -7099.8228, 0.00023231709, 0.0073191733, -963413.9, 5228.065, 0.0, 5.017354, 4.9566693 
5.6913644e+2, 2.0611516e+2, -916390.44, -1008615.1, -7397.308, 0.0015591542, -0.0016451016, -915800.9, 4266.89, 0.0, 5.016597, 4.95702 
5.691152e+2, 2.110715e+2, -869317.06, -960370.6, -7524.7197, 0.0027094092, -0.0115974415, -868699.44, 2794.3547, 0.0, 5.0158324, 4.957024 
5.6909406e+2, 2.1602783e+2, -822895.9, -913568.06, -7646.1855, 0.0038198468, -0.021526122, -822255.6, 664.25104, 0.0, 5.0150676, 4.9565287 
5.690731e+2, 2.209815e+2, -784182.6, -883669.56, -7115.296, 0.003469017, -0.01742078, -783676.3, -9303.803, 0.0, 5.0143056, 4.9502206 
5.6905234e+2, 2.2593312e+2, -736444.3, -834254.2, -6884.2627, 0.00074729556, -0.009452907, -735962.2, -10116.08, 0.0, 5.0135775, 4.9505706 
5.6903166e+2, 2.3088479e+2, -689135.75, -785845.8, -6769.4917, -0.0019310111, -0.0013597464, -688664.2, -11344.906, 0.0, 5.0128546, 4.9505715 
5.6901103e+2, 2.3583649e+2, -642463.0, -738875.3, -6646.277, -0.004634378, 0.0067724446, -642006.94, -13214.533, 0.0, 5.0121317, 4.9500713 
5.689911e+2, 2.4078384e+2, -604643.2, -712016.94, -6099.8003, -0.0032211093, 0.01838214, -604297.75, -23989.309, 0.0, 5.011476, 4.9425454 
5.6897247e+2, 2.4572544e+2, -556088.3, -661545.06, -6439.2524, 0.007019622, -0.0013760014, -555696.56, -23813.824, 0.0, 5.010884, 4.9431334 
5.6895375e+2, 2.506669e+2, -508293.7, -612709.94, -6788.4907, 0.017193796, -0.02446148, -507854.2, -24395.69, 0.0, 5.01028, 4.943178 
5.68935e+2, 2.5560838e+2, -460732.47, -564438.4, -7129.448, 0.027011594, -0.047779635, -460244.66, -25210.797, 0.0, 5.0096755, 4.943025 
5.689169e+2, 2.6054868e+2, -421904.16, -535321.3, -5412.1763, 0.033403378, -0.034704655, -421646.47, -35026.39, 0.0, 5.0089626, 4.9362316 
5.6889904e+2, 2.654908e+2, -371620.66, -477353.97, -4855.1196, 0.019732596, -0.0117032565, -371398.2, -33213.137, 0.0, 5.007624, 4.939704 
5.688809e+2, 2.7043277e+2, -325997.94, -429759.63, -4577.375, 0.0035534294, 0.0013927163, -325796.38, -36045.043, 0.0, 5.0061984, 4.9396634 
5.688628e+2, 2.753746e+2, -280368.66, -382310.63, -4230.2793, -0.012292014, 0.013025007, -280193.4, -38874.36, 0.0, 5.004768, 4.9395747 
5.688456e+2, 2.8030995e+2, -252883.03, -376985.88, -3078.462, -0.021482674, 0.03796178, -252806.72, -59854.633, 0.0, 5.003485, 4.9246135 
5.688315e+2, 2.8523383e+2, -204290.8, -326020.1, -3108.8757, -0.013899995, 0.02002037, -204211.44, -59508.465, 0.0, 5.0028377, 4.9252763 
5.6881756e+2, 2.9015672e+2, -156240.56, -277032.9, -3522.2722, -0.0060161683, -0.011306421, -156137.94, -59673.09, 0.0, 5.0022564, 4.925268 
5.688036e+2, 2.9507956e+2, -108149.04, -228063.53, -3882.132, 0.0019976047, -0.04277142, -108023.484, -59796.703, 0.0, 5.00167, 4.9252605 
5.6879026e+2, 3.000227e+2, -38442.547, -95183.85, -2562.4795, 0.009712114, -0.03925886, -38327.06, -38327.06, 0.0, 5.001021, 4.964478 
5.687791e+2, 3.049988e+2, -29491.723, -70889.555, -898.6751, 0.011476046, -0.0026976357, -29472.225, -29472.225, 0.0, 5.0003686, 4.973551 
5.6876814e+2, 3.099765e+2, -31041.861, -71535.92, -342.58255, 0.0112786, 0.030118309, -31038.963, -31038.963, 0.0, 4.999761, 4.9735684 
5.687571e+2, 3.149541e+2, -32562.25, -72214.19, 154.70438, 0.010592204, 0.061907902, -32561.646, -32561.646, 0.0, 4.999142, 4.973586 
5.744787e+2, 1.21631645e+2, -1677718.6, -1749556.6, -274.40384, 0.0059192996, -0.002067712, -1677717.6, 70292.53, 0.0, 5.0291944, 4.982319 
5.74463e+2, 1.2661196e+2, -1634647.9, -1709086.3, -1956.4099, 0.003185996, 0.0015411022, -1634596.5, 64606.613, 0.0, 5.028441, 4.979918 
5.744473e+2, 1.3159144e+2, -1587992.4, -1661286.6, -2005.3739, 0.0018179757, -0.0031599023, -1587937.5, 62466.46, 0.0, 5.0276837, 4.9799175 
5.7443154e+2, 1.3657089e+2, -1543468.9, -1617896.0, -2110.1511, 0.00040972308, -0.0066341124, -1543409.1, 58195.93, 0.0, 5.0269265, 4.9784513 
5.7441473e+2, 1.4154798e+2, -1502146.6, -1581103.8, -3782.0361, -0.0010231906, 0.0036420561, -1501965.9, 50863.703, 0.0, 5.0261564, 4.974722 
5.7439655e+2, 1.465231e+2, -1455099.5, -1532526.3, -4121.6577, -0.0018044347, 0.0030725563, -1454880.8, 49193.184, 0.0, 5.0253863, 4.9749546 
5.743783e+2, 1.5149821e+2, -1408381.5, -1484642.1, -4212.349, -0.002653802, 0.0021147206, -1408149.6, 47168.836, 0.0, 5.024616, 4.9749546 
5.743601e+2, 1.5647331e+2, -1362979.9, -1439522.4, -4297.6475, -0.0035088274, 0.0016216434, -1362739.4, 43823.73, 0.0, 5.023845, 4.9740252 
5.743411e+2, 1.614451e+2, -1323109.5, -1406108.1, -5668.638, -0.0039859735, 0.0060519604, -1322724.1, 35115.934, 0.0, 5.023089, 4.969169 
5.743211e+2, 1.6641434e+2, -1275872.4, -1357469.3, -5997.897, -0.003022425, 0.0027446507, -1275433.9, 33707.523, 0.0, 5.022368, 4.969365 
5.74301e+2, 1.713836e+2, -1228899.4, -1309402.0, -6102.209, -0.0019949048, -0.00060270197, -1228439.4, 32003.041, 0.0, 5.021648, 4.9693656 
5.742809e+2, 1.7635287e+2, -1183021.3, -1263669.5, -6176.2563, -0.0009792997, -0.0035657755, -1182551.0, 29192.559, 0.0, 5.0209274, 4.968578 
5.742604e+2, 1.8131904e+2, -1143468.0, -1231424.9, -7018.0605, -0.00029887588, 0.0014879111, -1142911.5, 20163.229, 0.0, 5.0202084, 4.9632263 
5.7423913e+2, 1.8628265e+2, -1096075.0, -1182598.8, -7223.7046, 0.000058027803, 0.0007851533, -1095476.0, 18954.455, 0.0, 5.019494, 4.963447 
5.742178e+2, 1.9124629e+2, -1048976.3, -1134416.3, -7260.5596, 0.0003998596, 0.00014557356, -1048363.7, 17422.246, 0.0, 5.01878, 4.9634466 
5.7419646e+2, 1.9620994e+2, -1002756.06, -1088138.3, -7291.481, 0.0007200539, -0.0001433854, -1002137.8, 15003.434, 0.0, 5.018066, 4.9627957 
5.7417506e+2, 2.011701e+2, -964123.7, -1058279.1, -7659.2173, 0.0018168538, 0.006467183, -963504.7, 5025.999, 0.0, 5.0173554, 4.9565363 
5.741532e+2, 2.0612647e+2, -916605.3, -1009087.0, -7976.489, 0.0037412122, -0.0009081987, -915922.44, 4034.9658, 0.0, 5.0165977, 4.9568596 
5.7413137e+2, 2.110828e+2, -869534.06, -960839.9, -8100.889, 0.0055405837, -0.009386327, -868820.94, 2563.5483, 0.0, 5.015832, 4.9568644 
5.7410944e+2, 2.1603912e+2, -823114.94, -914034.94, -8219.283, 0.0072833095, -0.017805152, -822377.9, 433.63647, 0.0, 5.015066, 4.95637 
5.740876e+2, 2.2099265e+2, -784073.25, -883463.56, -7703.005, 0.006990866, -0.014193621, -783479.75, -9214.164, 0.0, 5.01431, 4.9502916 
5.74066e+2, 2.2594409e+2, -736240.25, -833838.8, -7442.3726, 0.0018811091, -0.009550867, -735676.0, -9936.626, 0.0, 5.0135818, 4.9507146 
5.7404435e+2, 2.3089561e+2, -688944.44, -785433.75, -7317.112, -0.003459164, -0.0045078695, -688392.7, -11180.409, 0.0, 5.0128555, 4.9507165 
5.740227e+2, 2.3584715e+2, -642284.4, -738466.5, -7183.3525, -0.008858956, 0.0007058448, -641750.8, -13065.769, 0.0, 5.0121293, 4.950217 
5.74002e+2, 2.4079458e+2, -605111.7, -713079.25, -6539.275, -0.009185742, 0.013657585, -604717.06, -24517.252, 0.0, 5.011479, 4.942177 
5.7398283e+2, 2.4573652e+2, -556689.6, -662892.3, -6885.6323, 0.0022611595, 0.0017933898, -556245.06, -24470.863, 0.0, 5.0108857, 4.9426594 
5.739637e+2, 2.5067833e+2, -508908.88, -614054.4, -7212.08, 0.013809949, -0.013418354, -508416.5, -25066.17, 0.0, 5.010276, 4.9427056 
5.739445e+2, 2.556202e+2, -461361.53, -565780.1, -7530.237, 0.024934968, -0.028534984, -460821.25, -25895.475, 0.0, 5.0096655, 4.9425535 
5.7392573e+2, 2.6056054e+2, -421577.1, -534842.56, -6284.9717, 0.03195164, -0.013135046, -421229.4, -34715.914, 0.0, 5.0089965, 4.936397 
5.739068e+2, 2.6550132e+2, -371167.03, -476492.97, -5895.641, 0.021572234, -0.0066305357, -370838.06, -32752.479, 0.0, 5.0076447, 4.940017 
5.738877e+2, 2.7044186e+2, -325686.53, -428850.25, -5526.242, 0.009296648, -0.01032799, -325391.34, -35732.867, 0.0, 5.0061684, 4.940007 
5.738686e+2, 2.7538243e+2, -280199.25, -381352.4, -5087.5146, -0.0030119154, -0.014514529, -279944.03, -38712.33, 0.0, 5.0046883, 4.939949 
5.7385033e+2, 2.803168e+2, -253194.55, -377783.25, -3760.6704, -0.011897192, 0.0007844766, -253081.13, -60212.523, 0.0, 5.003499, 4.924324 
5.7383496e+2, 2.852418e+2, -204624.98, -327321.1, -3642.178, -0.009124756, -0.0023680453, -204516.97, -59901.83, 0.0, 5.0029054, 4.9247875 
5.738199e+2, 2.9016614e+2, -156736.25, -278340.2, -3968.3325, -0.0056557213, -0.015069825, -156606.89, -60236.68, 0.0, 5.0022693, 4.924797 
5.738048e+2, 2.950906e+2, -108805.39, -229376.36, -4241.0093, -0.0023411352, -0.026949614, -108656.41, -60531.992, 0.0, 5.0016274, 4.924806 
5.737904e+2, 3.0003518e+2, -38737.953, -95282.375, -3158.39, 0.00085317687, -0.0055333683, -38562.082, -38562.082, 0.0, 5.000926, 4.964475 
5.7377833e+2, 3.050109e+2, -28863.723, -69062.46, -1516.5037, -0.00031856235, 0.022447545, -28806.594, -28806.594, 0.0, 5.000311, 4.9742265 
5.737665e+2, 3.0998772e+2, -30191.813, -69617.9, -850.05615, -0.0040726275, 0.038899034, -30173.494, -30173.494, 0.0, 4.9997673, 4.974248 
5.737548e+2, 3.149643e+2, -31490.338, -70205.23, -242.52324, -0.009307004, 0.052121073, -31488.818, -31488.818, 0.0, 4.9992123, 4.974269 
5.79508e+2, 1.21644616e+2, -1677658.3, -1750169.4, -194.34343, 0.0065120226, -0.002010353, -1677657.8, 70225.586, 0.0, 5.0293527, 4.98204 
5.794915e+2, 1.2662478e+2, -1634366.4, -1709117.8, -1875.1038, 0.003939652, 0.00085678743, -1634319.4, 64758.42, 0.0, 5.028571, 4.979844 
5.79475e+2, 1.3160418e+2, -1587801.0, -1661362.9, -1969.0483, 0.002309291, -0.0037173019, -1587748.4, 62530.72, 0.0, 5.027784, 4.9798436 
5.794585e+2, 1.3658357e+2, -1543377.8, -1618032.8, -2128.7778, 0.00063794403, -0.0070532816, -1543317.1, 58163.48, 0.0, 5.026995, 4.9783726 
5.7944083e+2, 1.4156058e+2, -1502166.6, -1581353.8, -3823.2603, -0.0011309906, 0.0033165892, -1501982.4, 50723.313, 0.0, 5.0262, 4.9746184 
5.794219e+2, 1.465356e+2, -1455164.0, -1532814.1, -4152.341, -0.0022927942, 0.0027359563, -1454942.5, 49008.58, 0.0, 5.0254183, 4.9748445 
5.7940274e+2, 1.515106e+2, -1408480.4, -1484946.6, -4232.923, -0.0035236457, 0.0017603678, -1408246.8, 46949.895, 0.0, 5.024636, 4.974844 
5.7938373e+2, 1.5648559e+2, -1363115.4, -1439846.8, -4312.7524, -0.0047618183, 0.0012487498, -1362873.8, 43568.598, 0.0, 5.023853, 4.9739137 
5.79364e+2, 1.6145726e+2, -1323301.1, -1406481.9, -5642.141, -0.0054757055, 0.0058314223, -1322920.1, 34800.242, 0.0, 5.0230823, 4.9690485 
5.7934326e+2, 1.6642642e+2, -1276128.1, -1357891.3, -5961.605, -0.004393324, 0.0029350945, -1275695.8, 33327.164, 0.0, 5.0223427, 4.969237 
5.793225e+2, 1.7139558e+2, -1229211.6, -1309850.9, -6065.7095, -0.003224734, -0.0000063981443, -1228757.9, 31567.424, 0.0, 5.0216026, 4.9692373 
5.793017e+2, 1.7636476e+2, -1183392.6, -1264145.3, -6137.822, -0.0020623757, -0.0025691998, -1182928.8, 28698.86, 0.0, 5.020861, 4.9684496 
5.792805e+2, 1.8133083e+2, -1143778.8, -1231729.0, -6984.249, -0.0010464516, 0.0024188221, -1143227.5, 19732.545, 0.0, 5.020133, 4.9631596 
5.7925856e+2, 1.862943e+2, -1096319.3, -1182830.6, -7195.427, -0.00012204123, 0.00092097645, -1095724.9, 18591.871, 0.0, 5.0194325, 4.9633975 
5.7923657e+2, 1.9125782e+2, -1049182.1, -1134628.0, -7243.127, 0.00078067306, -0.000512773, -1048572.5, 17100.479, 0.0, 5.0187316, 4.9633975 
5.792145e+2, 1.9622132e+2, -1002930.2, -1088333.3, -7282.47, 0.00166404, -0.0015971179, -1002313.7, 14715.54, 0.0, 5.0180287, 4.9627466 
5.791925e+2, 2.0118147e+2, -964372.6, -1058701.3, -7652.9395, 0.0031634255, 0.0055323467, -963755.75, 4663.1563, 0.0, 5.0173326, 4.9564037 
5.7917e+2, 2.0613787e+2, -916771.44, -1009532.4, -7987.781, 0.0056760535, -0.0001477746, -916088.6, 3757.6821, 0.0, 5.016615, 4.9567 
5.791474e+2, 2.1109417e+2, -869591.75, -961239.4, -8115.226, 0.008148518, -0.0071114497, -868878.75, 2395.6174, 0.0, 5.015887, 4.9567027 
5.791248e+2, 2.1605049e+2, -823082.44, -914396.8, -8240.433, 0.010576544, -0.014045653, -822344.75, 357.64612, 0.0, 5.0151525, 4.9562063 
5.791023e+2, 2.2100392e+2, -783757.2, -883255.06, -7749.21, 0.010519464, -0.010583008, -783157.25, -8999.356, 0.0, 5.0144053, 4.9503207 
5.790797e+2, 2.2595514e+2, -735950.25, -833379.2, -7513.833, 0.0031929533, -0.009429252, -735374.2, -9742.115, 0.0, 5.013615, 4.950858 
5.790571e+2, 2.3090646e+2, -688872.7, -785069.25, -7413.074, -0.0046455497, -0.007959641, -688304.75, -11199.693, 0.0, 5.0128136, 4.9508615 
5.7903445e+2, 2.358578e+2, -642455.0, -738205.2, -7294.644, -0.012568392, -0.0063273893, -641902.44, -13324.488, 0.0, 5.012003, 4.9503636 
5.790129e+2, 2.4080533e+2, -606230.0, -714494.0, -6465.7744, -0.0145506635, 0.008399799, -605845.2, -25754.002, 0.0, 5.0112724, 4.941778 
5.789932e+2, 2.4574772e+2, -557884.94, -664475.06, -6741.806, -0.0023276943, 0.004982145, -557460.2, -25795.49, 0.0, 5.0106726, 4.9421973 
5.789736e+2, 2.506899e+2, -510169.8, -615691.1, -6991.263, 0.010327149, -0.002790172, -509708.63, -26467.48, 0.0, 5.0100365, 4.9422355 
5.789539e+2, 2.5563207e+2, -462783.1, -567509.06, -7242.2886, 0.02269264, -0.010702848, -462284.63, -27467.438, 0.0, 5.009367, 4.9420757 
5.789345e+2, 2.6057237e+2, -422693.94, -535652.25, -6291.4595, 0.031086162, 0.008244397, -422344.6, -35937.926, 0.0, 5.0086427, 4.936276 
5.789146e+2, 2.6551184e+2, -371403.3, -475901.56, -6282.14, 0.02370244, -0.0010471162, -371027.0, -33041.53, 0.0, 5.007417, 4.940322 
5.7889444e+2, 2.70451e+2, -325589.16, -428023.88, -6037.745, 0.014720797, -0.022777982, -325234.53, -35669.207, 0.0, 5.0060678, 4.940332 
5.7887423e+2, 2.753902e+2, -279862.66, -380313.94, -5757.8467, 0.005516797, -0.044411138, -279533.7, -38388.93, 0.0, 5.0046887, 4.9402947 
5.78855e+2, 2.803239e+2, -253973.39, -379915.3, -3963.4324, -0.0030468598, -0.03508679, -253848.78, -61064.48, 0.0, 5.003605, 4.923524 
5.788385e+2, 2.8525004e+2, -204967.03, -328559.8, -3739.013, -0.0048212814, -0.021402104, -204854.02, -60328.66, 0.0, 5.0029907, 4.9242954 
5.788222e+2, 2.9017568e+2, -157395.1, -279649.1, -3902.9219, -0.0054635676, -0.01825684, -157270.63, -60995.996, 0.0, 5.0022264, 4.9243293 
5.78806e+2, 2.951015e+2, -109971.5, -230819.53, -3979.9028, -0.00635663, -0.013993996, -109840.57, -61817.996, 0.0, 5.001395, 4.924363 
5.7879025e+2, 3.0004737e+2, -40670.363, -97178.97, -2904.1646, -0.00798279, 0.02436306, -40521.504, -40521.504, 0.0, 5.0004497, 4.9639673 
5.7877725e+2, 3.050226e+2, -30784.002, -68518.01, -1329.3468, -0.012027686, 0.043874096, -30737.229, -30737.229, 0.0, 4.999353, 4.9748025 
5.7876486e+2, 3.0999848e+2, -34299.43, -70105.16, -986.3397, -0.01773647, 0.043163817, -34272.277, -34272.277, 0.0, 4.998011, 4.974799 
5.7875234e+2, 3.1497404e+2, -38583.305, -72054.86, -848.94257, -0.02533347, 0.03835577, -38561.785, -38561.785, 0.0, 4.996373, 4.9747963 
5.8453804e+2, 1.2166062e+2, -1673279.4, -1748123.9, 1569.2684, 0.005765319, 0.0018070299, -1673246.5, 74479.94, 0.0, 5.0308414, 4.98198 
5.8452076e+2, 1.2664019e+2, -1630462.5, -1707544.9, -121.020546, 0.003931738, 0.0004301604, -1630462.4, 68464.26, 0.0, 5.0299544, 4.9796834 
5.845034e+2, 1.3161947e+2, -1584215.1, -1659952.9, -266.70767, 0.002128453, -0.0038676478, -1584214.1, 65915.24, 0.0, 5.029064, 4.979683 
5.84486e+2, 1.365987e+2, -1540109.9, -1616795.9, -487.3793, 0.0002901852, -0.0069006914, -1540106.9, 61225.613, 0.0, 5.0281744, 4.978207 
5.8446753e+2, 1.4157559e+2, -1499035.0, -1579983.8, -2168.671, -0.0015058027, 0.0035552117, -1498977.0, 53581.867, 0.0, 5.027291, 4.9745417 
5.8444774e+2, 1.4655048e+2, -1452203.6, -1531503.3, -2456.1763, -0.0023158102, 0.0024790484, -1452127.6, 51677.613, 0.0, 5.026448, 4.9747806 
5.844279e+2, 1.5152535e+2, -1405705.6, -1483732.0, -2501.4988, -0.0031775958, 0.000982291, -1405625.5, 49426.21, 0.0, 5.0256057, 4.9747796 
5.844081e+2, 1.5650022e+2, -1360525.9, -1438731.4, -2549.9917, -0.0040458054, -0.000054859574, -1360442.8, 45855.613, 0.0, 5.024763, 4.973848 
5.843876e+2, 1.614718e+2, -1320928.5, -1405512.8, -3814.7495, -0.004601277, 0.0043769963, -1320756.8, 36820.543, 0.0, 5.0239277, 4.9689665 
5.84366e+2, 1.6644093e+2, -1273992.6, -1357075.6, -4096.588, -0.0038502782, 0.0023590012, -1273791.1, 35089.19, 0.0, 5.023117, 4.9691396 
5.8434445e+2, 1.714101e+2, -1227287.4, -1309141.9, -4172.0283, -0.0030181198, 0.0003346909, -1227075.4, 33107.844, 0.0, 5.0223064, 4.9691396 
5.843228e+2, 1.7637925e+2, -1181674.4, -1263539.4, -4213.122, -0.0021779945, -0.0013238142, -1181458.1, 30027.836, 0.0, 5.0214963, 4.968352 
5.843008e+2, 1.8134524e+2, -1142163.8, -1231100.4, -4987.2026, -0.0014600634, 0.0040267548, -1141885.0, 20934.309, 0.0, 5.0207167, 4.9630938 
5.8427817e+2, 1.8630858e+2, -1094717.1, -1182175.3, -5172.6963, -0.0009551853, 0.0017009686, -1094412.3, 19765.014, 0.0, 5.0200067, 4.9633465 
5.842554e+2, 1.9127195e+2, -1047602.56, -1133982.3, -5216.239, -0.0004847186, -0.0006206842, -1047288.7, 18246.19, 0.0, 5.019299, 4.963348 
5.842327e+2, 1.962353e+2, -1001367.0, -1087694.5, -5252.1846, -0.000022331382, -0.0026146893, -1001048.6, 15843.816, 0.0, 5.0185914, 4.962698 
5.8420986e+2, 2.0119539e+2, -962802.7, -1058030.9, -5568.077, 0.0011153527, 0.004353119, -962478.2, 5804.531, 0.0, 5.0178943, 4.956368 
5.8418673e+2, 2.0615192e+2, -915181.9, -1009018.4, -5839.1064, 0.0042504882, 0.0010693475, -914819.94, 4889.646, 0.0, 5.017216, 4.9565954 
5.841635e+2, 2.1110836e+2, -867859.6, -960675.3, -5909.8774, 0.007506577, -0.0033829897, -867484.9, 3652.294, 0.0, 5.0165386, 4.9565945 
5.8414036e+2, 2.160648e+2, -821190.06, -913776.5, -5973.079, 0.010759457, -0.007896245, -820806.3, 1758.5442, 0.0, 5.015861, 4.9560943 
5.841172e+2, 2.2101809e+2, -781742.7, -882384.2, -5576.227, 0.011861285, -0.004381753, -781434.6, -7413.0483, 0.0, 5.015118, 4.950292 
5.840938e+2, 2.2596885e+2, -734355.3, -832551.3, -5491.217, 0.005718802, -0.008053572, -734049.2, -8549.764, 0.0, 5.0141544, 4.9508953 
5.840704e+2, 2.3091969e+2, -687786.06, -784461.75, -5514.368, -0.0010859052, -0.011690346, -687472.5, -10496.434, 0.0, 5.013174, 4.9509053 
5.840469e+2, 2.3587053e+2, -641848.56, -737804.6, -5525.518, -0.008026556, -0.015345772, -641531.44, -13078.768, 0.0, 5.012193, 4.950413 
5.840244e+2, 2.4081795e+2, -606041.5, -713971.8, -4501.4434, -0.010594633, -0.0030668103, -605854.06, -25887.658, 0.0, 5.011264, 4.941964 
5.840038e+2, 2.4576119e+2, -558334.5, -664569.1, -4252.676, -0.0017636849, 0.0019730825, -558164.56, -26632.355, 0.0, 5.010495, 4.942254 
5.839832e+2, 2.5070417e+2, -510943.75, -616004.2, -4061.0515, 0.007832651, 0.002851745, -510787.0, -27685.697, 0.0, 5.009739, 4.9422727 
5.839625e+2, 2.556471e+2, -463780.06, -568002.8, -3854.7693, 0.017519273, 0.0026172774, -463637.7, -28966.605, 0.0, 5.0089817, 4.942093 
5.839421e+2, 2.6058745e+2, -423855.94, -535929.6, -2760.6157, 0.024636522, 0.021233361, -423787.97, -37527.43, 0.0, 5.0081534, 4.9364 
5.8392143e+2, 2.6552585e+2, -372366.9, -477038.4, -3412.5945, 0.0203521, 0.0040012025, -372255.78, -34405.664, 0.0, 5.0072026, 4.9400387 
5.839006e+2, 2.7046388e+2, -325436.66, -428671.3, -4034.5422, 0.015012503, -0.024026182, -325279.22, -35838.703, 0.0, 5.0062604, 4.940048 
5.8387965e+2, 2.75402e+2, -278518.88, -380449.22, -4625.5273, 0.009624401, -0.052425493, -278309.4, -37278.61, 0.0, 5.005317, 4.94001 
5.838596e+2, 2.8033486e+2, -251525.4, -377905.0, -2827.1963, 0.0037897103, -0.05033411, -251462.19, -58784.1, 0.0, 5.004319, 4.9239573 
5.83842e+2, 2.85262e+2, -204406.17, -327549.78, -1615.2322, 0.00021143068, -0.030142989, -204384.98, -59976.07, 0.0, 5.003063, 4.924657 
5.8382446e+2, 2.9018882e+2, -158218.88, -279134.03, -1054.4182, -0.00228682, -0.017696746, -158209.67, -62063.754, 0.0, 5.001771, 4.9247227 
5.8380693e+2, 2.9511568e+2, -111985.56, -230717.4, -480.1925, -0.0046172747, -0.0056044515, -111983.625, -64101.098, 0.0, 5.000478, 4.924789 
5.8379e+2, 3.0006227e+2, -43270.09, -96802.85, 1298.0991, -0.0073239724, 0.034737404, -43238.63, -43238.63, 0.0, 4.9991765, 4.964627 
5.837755e+2, 3.050368e+2, -34815.117, -69942.89, 2865.5266, -0.013591795, 0.042807363, -34582.9, -34582.9, 0.0, 4.9977365, 4.9749722 
5.837613e+2, 3.1001195e+2, -38792.195, -71963.39, 3066.845, -0.02112038, 0.033266805, -38511.035, -38511.035, 0.0, 4.996252, 4.9748907 
5.837469e+2, 3.1498694e+2, -42756.14, -74002.086, 3277.3066, -0.029545143, 0.022525387, -42416.094, -42416.094, 0.0, 4.994762, 4.9748087 
5.8956873e+2, 1.2167788e+2, -1673230.1, -1748030.6, 864.16675, 0.0046706647, 0.005814604, -1673220.1, 74337.03, 0.0, 5.0308414, 4.9820113 
5.895507e+2, 1.2665685e+2, -1630733.9, -1708109.3, -798.37695, 0.0036520106, 0.000052652125, -1630725.6, 68037.66, 0.0, 5.029955, 4.9794984 
5.8953243e+2, 1.3163596e+2, -1584484.4, -1660516.4, -943.2591, 0.001724891, -0.0038894394, -1584472.6, 65495.066, 0.0, 5.029065, 4.979498 
5.895141e+2, 1.3661505e+2, -1540384.8, -1617374.6, -1174.0643, -0.00024610222, -0.0065642814, -1540366.9, 60805.586, 0.0, 5.028175, 4.9780164 
5.8949476e+2, 1.4159182e+2, -1499137.8, -1580209.4, -2818.6667, -0.0019799934, 0.0039840764, -1499039.9, 53360.33, 0.0, 5.0272923, 4.9744673 
5.894742e+2, 1.4656658e+2, -1452278.4, -1531671.9, -3096.5771, -0.002260972, 0.0022964901, -1452157.9, 51489.56, 0.0, 5.0264487, 4.9747252 
5.894536e+2, 1.5154134e+2, -1405780.0, -1483900.3, -3141.7754, -0.0025770795, 0.00016393122, -1405653.9, 49240.945, 0.0, 5.0256066, 4.9747243 
5.894329e+2, 1.5651609e+2, -1360603.3, -1438906.6, -3196.2593, -0.002902389, -0.0015070175, -1360473.0, 45669.348, 0.0, 5.024764, 4.9737897 
5.894116e+2, 1.6148758e+2, -1321031.3, -1405743.0, -4441.4263, -0.003203615, 0.002722816, -1320799.1, 36622.9, 0.0, 5.023929, 4.9688907 
5.8938915e+2, 1.6645673e+2, -1274115.3, -1357347.8, -4714.933, -0.0028670616, 0.0016532294, -1273849.0, 34876.23, 0.0, 5.023118, 4.96905 
5.893667e+2, 1.714259e+2, -1227409.9, -1309413.6, -4789.7124, -0.0024792284, 0.0006383337, -1227131.1, 32897.176, 0.0, 5.0223074, 4.96905 
5.893443e+2, 1.7639504e+2, -1181797.1, -1263811.5, -4829.2744, -0.0020889118, -0.0000034057236, -1181513.8, 29817.541, 0.0, 5.021497, 4.9682617 
5.893215e+2, 1.81361e+2, -1142250.8, -1231303.0, -5547.6426, -0.00186026, 0.0058728894, -1141906.5, 20758.588, 0.0, 5.0207186, 4.963026 
5.8929795e+2, 1.8632422e+2, -1094782.6, -1182332.9, -5710.808, -0.0020628541, 0.0027581295, -1094411.8, 19612.613, 0.0, 5.0200086, 4.9632936 
5.8927447e+2, 1.9128744e+2, -1047668.44, -1134139.4, -5753.4487, -0.0023316867, -0.00040397613, -1047287.3, 18095.969, 0.0, 5.019301, 4.963295 
5.892509e+2, 1.9625068e+2, -1001433.7, -1087852.0, -5788.351, -0.0026164025, -0.0032266027, -1001047.7, 15694.4375, 0.0, 5.018593, 4.9626446 
5.892274e+2, 2.0121072e+2, -962819.44, -1058086.4, -6098.3735, -0.0020460216, 0.00346739, -962430.7, 5702.3823, 0.0, 5.017896, 4.9563503 
5.892036e+2, 2.0616738e+2, -915289.9, -1009263.8, -6355.096, 0.0016979133, 0.0025031609, -914862.06, 4696.9204, 0.0, 5.017217, 4.9565144 
5.891799e+2, 2.11124e+2, -867971.2, -960918.44, -6421.434, 0.0056640864, 0.00067101227, -867529.6, 3455.943, 0.0, 5.016538, 4.9565144 
5.891561e+2, 2.160806e+2, -821305.1, -914017.4, -6480.1504, 0.009608756, -0.0011726414, -820854.4, 1557.8566, 0.0, 5.015859, 4.9560156 
5.8913225e+2, 2.2103389e+2, -781825.3, -882613.1, -6256.9053, 0.012056273, 0.002930468, -781438.4, -7568.768, 0.0, 5.0151243, 4.950212 
5.8910817e+2, 2.2598408e+2, -734366.5, -832619.5, -6235.649, 0.008275776, -0.0058786725, -733972.3, -8620.33, 0.0, 5.01416, 4.95087 
5.8908397e+2, 2.3093438e+2, -687812.4, -784528.94, -6247.862, 0.0037401533, -0.014821871, -687410.44, -10577.167, 0.0, 5.0131745, 4.9508815 
5.8905977e+2, 2.358847e+2, -641889.94, -737870.8, -6247.9937, -0.0009908781, -0.023615733, -641484.94, -13170.691, 0.0, 5.012189, 4.9503913 
5.8903635e+2, 2.4083194e+2, -605602.6, -713049.5, -5171.094, -0.003516769, -0.0143886255, -605354.4, -25525.441, 0.0, 5.0112715, 4.9422846 
5.890145e+2, 2.4577607e+2, -557966.7, -663774.9, -4823.649, 0.00059242244, -0.0028606309, -557747.25, -26361.68, 0.0, 5.010498, 4.94254 
5.889926e+2, 2.5072008e+2, -510622.9, -615226.0, -4601.997, 0.005195323, 0.006125661, -510420.84, -27476.463, 0.0, 5.0097284, 4.9425597 
5.889708e+2, 2.5566405e+2, -463506.0, -567240.4, -4365.6763, 0.009767619, 0.014481126, -463322.6, -28819.125, 0.0, 5.0089583, 4.9423804 
5.889492e+2, 2.6060483e+2, -423853.2, -536014.2, -3547.5317, 0.01355809, 0.034856174, -423741.1, -37651.973, 0.0, 5.0081644, 4.936371 
5.889279e+2, 2.65542e+2, -373169.13, -478993.66, -4116.6665, 0.013517453, 0.011621441, -373009.22, -35316.35, 0.0, 5.00722, 4.9393673 
5.889065e+2, 2.7047887e+2, -326305.3, -430618.66, -4673.038, 0.013012454, -0.01995194, -326096.38, -36799.1, 0.0, 5.0062547, 4.939384 
5.888852e+2, 2.7541587e+2, -279453.7, -382388.44, -5198.4585, 0.012346009, -0.051395267, -279191.8, -38290.65, 0.0, 5.0052886, 4.939353 
5.8886456e+2, 2.8034794e+2, -250635.05, -375828.28, -3700.3503, 0.010204428, -0.054924134, -250525.77, -57968.05, 0.0, 5.0043154, 4.924685 
5.888457e+2, 2.8527603e+2, -203342.72, -325187.25, -2682.5764, 0.0062672924, -0.03318719, -203283.69, -59007.965, 0.0, 5.0030756, 4.9255004 
5.888267e+2, 2.9020414e+2, -157222.02, -276803.72, -2066.5393, 0.0028413138, -0.014760765, -157186.31, -61190.074, 0.0, 5.001766, 4.9255657 
5.888079e+2, 2.9513234e+2, -111055.0, -228418.98, -1437.1411, -0.0004769074, 0.0035362153, -111037.41, -63321.2, 0.0, 5.000456, 4.9256315 
5.887895e+2, 3.0007982e+2, -42228.445, -93916.125, 308.2692, -0.0045606736, 0.044241246, -42226.605, -42226.605, 0.0, 4.999107, 4.965699 
5.88773e+2, 3.0505383e+2, -34813.848, -69281.49, 1689.3789, -0.017642612, 0.041460518, -34731.242, -34731.242, 0.0, 4.997642, 4.975239 
5.887565e+2, 3.1002825e+2, -38718.883, -71177.46, 1945.2362, -0.033958264, 0.02235054, -38602.723, -38602.723, 0.0, 4.996169, 4.975189 
5.887398e+2, 3.150025e+2, -42610.71, -73091.59, 2210.2107, -0.051812023, 0.001178603, -42451.277, -42451.277, 0.0, 4.9946904, 4.9751396 
5.945995e+2, 1.2169506e+2, -1673120.0, -1747812.8, 154.57492, 0.003682488, 0.009026878, -1673119.8, 74268.96, 0.0, 5.030842, 4.9820833 
5.945806e+2, 1.266735e+2, -1631005.1, -1708673.8, -1475.3231, 0.003361089, -0.00028319538, -1630977.1, 67622.75, 0.0, 5.0299554, 4.9793134 
5.945614e+2, 1.3165246e+2, -1584753.6, -1661080.0, -1619.4003, 0.0013128902, -0.003887521, -1584719.3, 65086.74, 0.0, 5.0290656, 4.9793124 
5.9454215e+2, 1.3663141e+2, -1540659.8, -1617953.8, -1860.4302, -0.000788053, -0.0062220767, -1540615.0, 60397.48, 0.0, 5.028176, 4.9778256 
5.94522e+2, 1.4160803e+2, -1499241.8, -1580438.0, -3468.4817, -0.002453951, 0.0044172085, -1499093.9, 53147.68, 0.0, 5.027293, 4.9743924 
5.945006e+2, 1.465827e+2, -1452353.1, -1531840.8, -3736.9844, -0.0022049572, 0.0021143204, -1452177.9, 51311.73, 0.0, 5.02645, 4.9746695 
5.944792e+2, 1.5155731e+2, -1405854.3, -1484068.6, -3782.058, -0.0019754693, -0.0006596468, -1405671.9, 49066.063, 0.0, 5.025608, 4.974669 
5.9445775e+2, 1.5653193e+2, -1360680.6, -1439082.4, -3842.627, -0.0017579529, -0.0029699977, -1360492.8, 45493.53, 0.0, 5.0247655, 4.973732 
5.9443563e+2, 1.6150336e+2, -1321138.4, -1405982.5, -5067.7607, -0.001810564, 0.0010898609, -1320836.8, 36429.926, 0.0, 5.0239305, 4.9688115 
5.944123e+2, 1.6647251e+2, -1274237.8, -1357620.0, -5333.3237, -0.0018895402, 0.00096320553, -1273898.0, 34672.086, 0.0, 5.0231194, 4.9689593 
5.94389e+2, 1.7144167e+2, -1227532.3, -1309685.6, -5407.4414, -0.0019447834, 0.00094114157, -1227177.9, 32695.42, 0.0, 5.022309, 4.9689593 
5.943657e+2, 1.7641085e+2, -1181919.8, -1264083.8, -5445.5034, -0.002003036, 0.0012995931, -1181560.5, 29616.092, 0.0, 5.0214977, 4.968171 
5.943421e+2, 1.8137679e+2, -1142341.6, -1231514.4, -6106.393, -0.002269946, 0.007749061, -1141925.5, 20585.363, 0.0, 5.0207205, 4.9629555 
5.943178e+2, 1.8633986e+2, -1094848.3, -1182490.6, -6249.2456, -0.0031902327, 0.0038400213, -1094404.9, 19466.49, 0.0, 5.020011, 4.9632406 
5.9429353e+2, 1.9130296e+2, -1047734.4, -1134296.5, -6290.985, -0.004204968, -0.00018632862, -1047279.56, 17952.086, 0.0, 5.0193024, 4.9632416 
5.942692e+2, 1.9626606e+2, -1001500.4, -1088009.5, -6324.829, -0.0052433857, -0.0038613558, -1001040.4, 15551.401, 0.0, 5.0185943, 4.9625916 
5.9424496e+2, 2.0122604e+2, -962855.6, -1058183.5, -6628.2144, -0.005180087, 0.0026463885, -962396.94, 5586.4097, 0.0, 5.017898, 4.9563184 
5.942205e+2, 2.0618287e+2, -915398.3, -1009509.3, -6872.9688, -0.00083528104, 0.00393785, -914899.0, 4509.457, 0.0, 5.017218, 4.9564323 
5.9419614e+2, 2.1113965e+2, -868083.06, -961161.7, -6934.8735, 0.0038120532, 0.004609678, -867569.25, 3264.8716, 0.0, 5.0165377, 4.9564333 
5.9417176e+2, 2.1609642e+2, -821420.56, -914258.3, -6989.1045, 0.008419607, 0.005319482, -820897.3, 1362.4221, 0.0, 5.0158567, 4.9559355 
5.941474e+2, 2.210497e+2, -781956.06, -882947.2, -6926.3574, 0.012242988, 0.01053459, -781483.25, -7765.7485, 0.0, 5.0151305, 4.9500947 
5.9412247e+2, 2.2599936e+2, -734378.8, -832687.5, -6985.1904, 0.010760682, -0.0034057212, -733884.94, -8680.604, 0.0, 5.014166, 4.9508424 
5.9409755e+2, 2.3094907e+2, -687839.75, -784595.9, -6986.467, 0.008423612, -0.017926468, -687337.9, -10647.62, 0.0, 5.0131755, 4.9508557 
5.940726e+2, 2.3589887e+2, -641932.4, -737936.7, -6975.583, 0.005831717, -0.032129735, -641428.2, -13252.439, 0.0, 5.012185, 4.9503675 
5.940482e+2, 2.4084596e+2, -605294.94, -712417.8, -5812.9917, 0.0034991559, -0.025194589, -604980.44, -25289.248, 0.0, 5.011279, 4.942503 
5.9402514e+2, 2.4579099e+2, -557601.44, -662980.25, -5400.8813, 0.0028915245, -0.007366787, -557325.3, -26086.639, 0.0, 5.0105004, 4.942819 
5.94002e+2, 2.5073597e+2, -510304.6, -614447.3, -5149.212, 0.0024412912, 0.008929216, -510050.6, -27263.098, 0.0, 5.009718, 4.9428396 
5.9397894e+2, 2.5568098e+2, -463234.34, -566477.4, -4882.861, 0.001839572, 0.025077254, -463003.9, -28667.76, 0.0, 5.008935, 4.942662 
5.939563e+2, 2.6062226e+2, -424214.8, -536924.2, -4261.3535, 0.0023063498, 0.049680904, -424053.94, -38136.83, 0.0, 5.008176, 4.936051 
5.939345e+2, 2.6555827e+2, -373975.22, -480949.28, -4846.299, 0.0064836526, 0.020920953, -373756.1, -36221.516, 0.0, 5.007237, 4.9386783 
5.939126e+2, 2.7049392e+2, -327177.7, -432566.2, -5337.077, 0.010833006, -0.015944816, -326908.1, -37754.53, 0.0, 5.006249, 4.9387016 
5.9389067e+2, 2.7542973e+2, -280392.03, -384327.7, -5796.916, 0.014907989, -0.052177303, -280069.72, -39298.13, 0.0, 5.00526, 4.9386783 
5.9386945e+2, 2.803611e+2, -250289.36, -375005.72, -4493.324, 0.01621305, -0.05898388, -250127.69, -57690.934, 0.0, 5.0043125, 4.9249716 
5.9384924e+2, 2.8529015e+2, -202282.16, -322825.1, -3752.8452, 0.011970594, -0.034274273, -202165.42, -58023.867, 0.0, 5.0030885, 4.926329 
5.93829e+2, 2.9021952e+2, -156227.81, -274473.66, -3081.625, 0.0079443045, -0.011546198, -156147.56, -60301.37, 0.0, 5.0017614, 4.9263945 
5.938087e+2, 2.9514894e+2, -110126.914, -226120.66, -2397.0938, 0.0039654244, 0.011278514, -110077.4, -62527.234, 0.0, 5.000434, 4.92646 
5.937889e+2, 3.0009726e+2, -41580.04, -91930.31, -766.0022, -0.0017908263, 0.052382953, -41568.387, -41568.387, 0.0, 4.9990373, 4.966438 
5.9377027e+2, 3.0507064e+2, -34820.965, -68610.73, 484.14227, -0.022710994, 0.039083414, -34814.03, -34814.03, 0.0, 4.9975476, 4.975495 
5.9375155e+2, 3.1004438e+2, -38653.96, -70382.21, 794.5695, -0.048357006, 0.009501334, -38634.08, -38634.08, 0.0, 4.996086, 4.9754777 
5.9373254e+2, 3.150178e+2, -42473.68, -72171.81, 1114.0846, -0.07618231, -0.023002617, -42431.945, -42431.945, 0.0, 4.9946194, 4.9754605 
5.9963024e+2, 1.2171209e+2, -1673100.0, -1747648.5, 62.805256, 0.0030962117, 0.009870272, -1673100.0, 74121.5, 0.0, 5.030816, 4.982149 
5.9961045e+2, 1.2669031e+2, -1631296.3, -1709224.9, -1506.2618, 0.0031211094, -0.0001305901, -1631267.3, 67167.76, 0.0, 5.0299454, 4.979137 
5.995904e+2, 1.3166912e+2, -1584987.3, -1661602.5, -1626.812, 0.00093519076, -0.0036795551, -1584952.6, 64690.336, 0.0, 5.0290747, 4.9791355 
5.9957033e+2, 1.3664788e+2, -1540852.5, -1618468.9, -1854.7467, -0.0013002752, -0.005946334, -1540808.1, 60043.13, 0.0, 5.028201, 4.9776435 
5.995492e+2, 1.4162435e+2, -1499246.1, -1580618.0, -3415.4976, -0.002912187, 0.0046450803, -1499103.0, 52978.9, 0.0, 5.027329, 4.9743156 
5.99527e+2, 1.4659889e+2, -1452317.4, -1531961.8, -3695.8455, -0.0021910577, 0.0018332539, -1452146.3, 51184.6, 0.0, 5.0264907, 4.9746103 
5.995048e+2, 1.515734e+2, -1405806.9, -1484184.5, -3763.0454, -0.0014680553, -0.0014763658, -1405626.6, 48953.418, 0.0, 5.0256524, 4.9746094 
5.994826e+2, 1.5654792e+2, -1360627.9, -1439202.5, -3851.7937, -0.000751964, -0.0043283664, -1360439.5, 45389.73, 0.0, 5.024813, 4.9736695 
5.9945965e+2, 1.6151926e+2, -1321099.6, -1406147.3, -5065.78, -0.0005625381, -0.0003742926, -1320798.9, 36311.37, 0.0, 5.023981, 4.968733 
5.994355e+2, 1.6648841e+2, -1274197.3, -1357799.0, -5312.874, -0.0009850562, 0.00034414756, -1273861.0, 34553.06, 0.0, 5.023174, 4.9688745 
5.9941137e+2, 1.7145757e+2, -1227484.5, -1309861.4, -5375.1797, -0.0014050124, 0.0012037975, -1227135.3, 32582.295, 0.0, 5.0223656, 4.968874 
5.993872e+2, 1.7642675e+2, -1181868.8, -1264258.9, -5400.662, -0.0018312504, 0.0024515241, -1181516.3, 29504.674, 0.0, 5.021556, 4.968086 
5.993628e+2, 1.8139265e+2, -1142323.5, -1231681.4, -6004.368, -0.0025274684, 0.009481509, -1141921.9, 20433.88, 0.0, 5.0207624, 4.9628797 
5.993377e+2, 1.8635559e+2, -1094970.3, -1182685.1, -6157.757, -0.0040975446, 0.0048458655, -1094540.0, 19177.568, 0.0, 5.0199957, 4.963182 
5.993126e+2, 1.9131853e+2, -1048027.75, -1134572.0, -6226.326, -0.005778402, -0.00003225657, -1047582.1, 17497.156, 0.0, 5.019228, 4.9631834 
5.992875e+2, 1.962815e+2, -1001968.5, -1088367.5, -6285.223, -0.007483981, -0.004589743, -1001513.7, 14927.175, 0.0, 5.018459, 4.962533 
5.992625e+2, 2.0124142e+2, -963433.8, -1058534.9, -6575.4395, -0.00787384, 0.0017208816, -962981.3, 4851.8423, 0.0, 5.0177135, 4.956285 
5.9923744e+2, 2.061984e+2, -916021.75, -1009959.1, -6763.39, -0.0031983205, 0.005142628, -915537.3, 3720.0037, 0.0, 5.0170336, 4.9563646 
5.992124e+2, 2.1115534e+2, -868706.94, -961612.56, -6779.323, 0.001865884, 0.008128002, -868214.9, 2467.0593, 0.0, 5.0163527, 4.956365 
5.991874e+2, 2.1611227e+2, -822058.4, -914715.94, -6790.7935, 0.0069132666, 0.011166018, -821563.3, 543.2184, 0.0, 5.015667, 4.955866 
5.991624e+2, 2.2106558e+2, -782627.6, -883611.1, -6836.0796, 0.011980533, 0.018030744, -782166.94, -8602.684, 0.0, 5.014967, 4.949941 
5.991368e+2, 2.2601473e+2, -734602.6, -832895.1, -7088.122, 0.012804032, -0.0005245708, -734094.1, -9038.599, 0.0, 5.0141068, 4.9507937 
5.9911114e+2, 2.309639e+2, -687822.5, -784687.6, -7190.942, 0.012789893, -0.020643573, -687291.56, -10745.228, 0.0, 5.0131993, 4.950809 
5.990854e+2, 2.359131e+2, -641753.3, -737947.5, -7272.2046, 0.012555517, -0.04060394, -641206.6, -13169.778, 0.0, 5.012265, 4.950322 
5.990602e+2, 2.4086002e+2, -604887.44, -711888.06, -6025.5, 0.0108221285, -0.035671946, -604549.25, -24995.838, 0.0, 5.0113573, 4.942651 
5.990358e+2, 2.4580593e+2, -557201.3, -662109.4, -5537.2593, 0.005442154, -0.01176567, -556909.9, -25818.277, 0.0, 5.010508, 4.943117 
5.990115e+2, 2.5075188e+2, -510150.75, -613703.75, -5225.754, -0.00007394834, 0.010852545, -509887.72, -27257.18, 0.0, 5.0096416, 4.943133 
5.9898704e+2, 2.5569785e+2, -463369.53, -565873.56, -4900.626, -0.0057258797, 0.033473544, -463135.78, -28966.516, 0.0, 5.008761, 4.9429502 
5.989634e+2, 2.6063967e+2, -425629.88, -538867.6, -4272.8613, -0.008419198, 0.064105645, -425468.88, -39724.047, 0.0, 5.0079317, 4.9354787 
5.989409e+2, 2.655746e+2, -375382.8, -483172.97, -4961.632, -0.0003984091, 0.031137053, -375154.9, -37779.844, 0.0, 5.007044, 4.9379716 
5.989185e+2, 2.7050906e+2, -328478.53, -434714.88, -5446.7974, 0.008561608, -0.012007247, -328200.0, -39191.26, 0.0, 5.006091, 4.9380007 
5.9889615e+2, 2.7544364e+2, -281674.88, -386424.28, -5895.9326, 0.01728807, -0.0545187, -281344.06, -40702.61, 0.0, 5.0051107, 4.9379826 
5.988743e+2, 2.803743e+2, -250942.53, -375454.97, -4585.8896, 0.021858776, -0.062681295, -250773.84, -58458.938, 0.0, 5.004142, 4.924873 
5.9885275e+2, 2.8530446e+2, -201679.45, -320622.4, -4191.206, 0.01728138, -0.033599105, -201531.94, -57525.9, 0.0, 5.002955, 4.927145 
5.988312e+2, 2.9023492e+2, -155492.56, -272287.13, -3619.4807, 0.012878187, -0.008157922, -155380.5, -59684.957, 0.0, 5.0016775, 4.9271927 
5.988096e+2, 2.9516545e+2, -109294.5, -223950.58, -3067.0544, 0.008525358, 0.017283114, -109212.516, -61827.84, 0.0, 5.0003905, 4.9272413 
5.987882e+2, 3.0011448e+2, -41208.586, -90908.81, -1746.5054, 0.00092170585, 0.058217205, -41147.29, -41147.29, 0.0, 4.99901, 4.966812 
5.987674e+2, 3.0508706e+2, -35237.688, -68462.92, -906.798, -0.027682878, 0.0344575, -35212.957, -35212.957, 0.0, 4.997338, 4.975626 
5.987465e+2, 3.100599e+2, -40192.15, -70745.1, -1216.6449, -0.061060496, -0.005823085, -40143.777, -40143.777, 0.0, 4.9954724, 4.9755993 
5.987253e+2, 3.1503248e+2, -45696.605, -73279.01, -1737.5161, -0.09638293, -0.049089875, -45587.582, -45587.582, 0.0, 4.993398, 4.975574 
6.0466176e+2, 1.2173047e+2, -1669722.1, -1746318.6, 1700.798, 0.0044457447, -0.0014593451, -1669684.4, 77355.984, 0.0, 5.0320225, 4.981992 
6.04641e+2, 1.267101e+2, -1627968.8, -1707786.4, 290.84958, 0.0031792873, 0.0037723368, -1627967.6, 70272.54, 0.0, 5.031108, 4.9790387 
6.0462e+2, 1.3168858e+2, -1581774.8, -1660227.1, 219.40062, 0.0008212015, -0.0018438187, -1581774.1, 67677.414, 0.0, 5.0302014, 4.9790373 
6.04599e+2, 1.3666704e+2, -1537751.4, -1617165.9, 33.304764, -0.0015728924, -0.006167362, -1537751.4, 62911.734, 0.0, 5.0292954, 4.9775395 
6.0457695e+2, 1.4164329e+2, -1496193.5, -1579267.9, -1461.9081, -0.0033002545, 0.0031559803, -1496167.8, 55728.363, 0.0, 5.028392, 4.974245 
6.045539e+2, 1.4661777e+2, -1449396.5, -1530701.4, -1737.525, -0.0026411372, 0.00074307254, -1449359.4, 53786.33, 0.0, 5.0275164, 4.974531 
6.045309e+2, 1.5159224e+2, -1403002.6, -1482987.3, -1810.0654, -0.0019636427, -0.0021189307, -1402961.8, 51433.81, 0.0, 5.026641, 4.9745297 
6.045078e+2, 1.565667e+2, -1357941.3, -1438076.3, -1909.2386, -0.0012819916, -0.004534417, -1357895.8, 47749.64, 0.0, 5.025766, 4.973586 
6.04484e+2, 1.6153798e+2, -1318447.0, -1404929.0, -3080.7798, -0.00093497336, -0.00029472634, -1318337.4, 38589.617, 0.0, 5.0249, 4.9686975 
6.044591e+2, 1.665071e+2, -1271632.6, -1356611.3, -3276.6914, -0.00091936655, 0.00045418818, -1271506.5, 36724.402, 0.0, 5.0240617, 4.9688463 
6.0443413e+2, 1.7147623e+2, -1225014.1, -1308724.4, -3294.458, -0.0008989, 0.0013457916, -1224884.6, 34649.945, 0.0, 5.023224, 4.9688454 
6.044092e+2, 1.7644538e+2, -1179489.0, -1263171.8, -3273.6335, -0.0008859281, 0.0026318992, -1179361.1, 31477.111, 0.0, 5.022386, 4.9680557 
6.0438395e+2, 1.8141122e+2, -1140166.5, -1230782.4, -3844.8164, -0.0012930534, 0.00974302, -1140003.6, 22169.826, 0.0, 5.0215335, 4.9628167 
6.043581e+2, 1.8637404e+2, -1093196.0, -1182001.1, -3994.6626, -0.002772646, 0.004823696, -1093016.6, 20520.184, 0.0, 5.0206428, 4.9631066 
6.0433215e+2, 1.9133686e+2, -1046618.9, -1134065.3, -4060.633, -0.004359574, -0.00044497274, -1046430.75, 18469.373, 0.0, 5.01975, 4.963108 
6.043062e+2, 1.9629967e+2, -1000918.6, -1088034.5, -4116.884, -0.0059671975, -0.005455771, -1000724.5, 15538.793, 0.0, 5.018857, 4.962458 
6.042803e+2, 2.0125951e+2, -962499.1, -1057901.6, -4309.4995, -0.0068019675, 0.00004555084, -962304.8, 5351.8467, 0.0, 5.017999, 4.9563646 
6.042543e+2, 2.0621663e+2, -915238.94, -1009380.1, -4346.4067, -0.004115469, 0.0042997124, -915038.7, 4040.2341, 0.0, 5.0172644, 4.9564533 
6.0422844e+2, 2.1117376e+2, -868060.56, -961104.6, -4250.4688, -0.0011100711, 0.008438679, -867866.8, 2634.4836, 0.0, 5.0165377, 4.9564514 
6.042025e+2, 2.1613087e+2, -821533.9, -914272.8, -4143.7793, 0.001916578, 0.012638432, -821349.06, 574.65814, 0.0, 5.015811, 4.9559507 
6.0417676e+2, 2.2108433e+2, -782428.9, -883844.94, -4095.3289, 0.0058968416, 0.021199446, -782263.75, -8883.607, 0.0, 5.015107, 4.9497933 
6.0415065e+2, 2.2603333e+2, -734134.56, -833248.56, -4486.397, 0.009298279, 0.0037044405, -733931.94, -9057.0625, 0.0, 5.0143886, 4.95054 
6.041244e+2, 2.3098224e+2, -686829.44, -784801.2, -4744.9053, 0.012302259, -0.016058391, -686600.2, -10230.205, 0.0, 5.013661, 4.9505563 
6.0409826e+2, 2.3593116e+2, -640160.2, -737791.4, -4990.624, 0.015218265, -0.036191694, -639905.75, -12040.519, 0.0, 5.012933, 4.9500713 
6.040724e+2, 2.4087778e+2, -602285.94, -709803.0, -3975.7493, 0.015773978, -0.0343135, -602139.1, -22753.727, 0.0, 5.0120955, 4.9430394 
6.040469e+2, 2.458238e+2, -555237.94, -660058.44, -3398.1758, 0.009188611, -0.013543393, -555127.94, -24208.916, 0.0, 5.0109744, 4.9436283 
6.040214e+2, 2.507699e+2, -508955.56, -612037.75, -2999.6714, 0.002249723, 0.0065989955, -508868.34, -26415.852, 0.0, 5.0098405, 4.9436355 
6.0399586e+2, 2.5571603e+2, -462892.16, -564574.2, -2584.9607, -0.004674461, 0.026436178, -462826.47, -28840.375, 0.0, 5.008706, 4.9434447 
6.03971e+2, 2.6065794e+2, -426533.63, -539239.56, -1624.144, -0.008278192, 0.054538004, -426510.22, -40951.367, 0.0, 5.0076065, 4.935496 
6.0394764e+2, 2.6559308e+2, -376957.66, -484995.72, -1966.8486, -0.0011260969, 0.0280465, -376921.84, -39730.59, 0.0, 5.006704, 4.9374886 
6.039243e+2, 2.7052772e+2, -329812.84, -436447.44, -2296.7065, 0.0071012704, -0.0076077445, -329763.4, -40935.52, 0.0, 5.005829, 4.937514 
6.0390097e+2, 2.7546233e+2, -282696.0, -388031.88, -2622.1218, 0.015411351, -0.04366105, -282630.78, -42166.4, 0.0, 5.0049534, 4.9374914 
6.038781e+2, 2.8039303e+2, -251048.97, -374496.25, -1197.13, 0.020549886, -0.04985313, -251037.36, -58896.625, 0.0, 5.0039425, 4.925286 
6.0385543e+2, 2.8532314e+2, -201946.61, -319558.9, -995.8762, 0.016633317, -0.025570026, -201938.17, -58110.125, 0.0, 5.002678, 4.9276385 
6.0383266e+2, 2.9025352e+2, -155689.11, -271343.6, -833.1811, 0.01253854, -0.0048012044, -155683.1, -60169.45, 0.0, 5.0014253, 4.927643 
6.038099e+2, 2.9518384e+2, -109391.03, -223121.06, -655.5032, 0.00859692, 0.015353961, -109387.25, -62187.504, 0.0, 5.000171, 4.9276466 
6.037873e+2, 3.0013248e+2, -41197.758, -90434.625, 389.08023, 0.0017337514, 0.048456386, -41194.684, -41194.684, 0.0, 4.998844, 4.9670916 
6.0376525e+2, 3.0510432e+2, -36501.332, -70560.8, 894.0618, -0.022110783, 0.020323643, -36477.88, -36477.88, 0.0, 4.9970245, 4.9750857 
6.0374314e+2, 3.1007633e+2, -41639.28, -73259.32, 430.84317, -0.04817808, -0.020558372, -41633.41, -41633.41, 0.0, 4.9951053, 4.974964 
6.037209e+2, 3.1504807e+2, -46757.824, -75985.42, 2.2814484, -0.07423473, -0.06293139, -46757.824, -46757.824, 0.0, 4.993179, 4.974842 
6.096938e+2, 1.2175003e+2, -1669944.0, -1746787.0, 874.4082, 0.005624615, -0.013518695, -1669934.1, 76913.31, 0.0, 5.0320234, 4.9818387 
6.0967207e+2, 1.2673126e+2, -1628091.9, -1708055.6, -397.79636, 0.0031878825, 0.008547616, -1628089.9, 69942.04, 0.0, 5.031109, 4.978951 
6.0965014e+2, 1.317094e+2, -1581897.1, -1660496.0, -468.34186, 0.00068804057, 0.0003980468, -1581894.4, 67352.445, 0.0, 5.030203, 4.978949 
6.0962826e+2, 1.3668752e+2, -1537880.3, -1617449.5, -662.64325, -0.0018577797, -0.006456094, -1537874.8, 62587.234, 0.0, 5.029297, 4.977446 
6.0960525e+2, 1.416635e+2, -1496298.4, -1579502.1, -2136.9407, -0.003722711, 0.0013406182, -1496243.5, 55453.94, 0.0, 5.0283933, 4.9741683 
6.095813e+2, 1.4663799e+2, -1449517.3, -1530969.6, -2403.3232, -0.003251127, -0.00047538537, -1449446.4, 53501.12, 0.0, 5.027518, 4.974443 
6.095574e+2, 1.5161243e+2, -1403122.8, -1483254.9, -2475.6785, -0.0027610871, -0.0026659123, -1403046.3, 51151.492, 0.0, 5.0266423, 4.9744415 
6.095334e+2, 1.5658687e+2, -1358066.6, -1438356.3, -2581.5435, -0.0022687388, -0.0044072005, -1357983.6, 47464.445, 0.0, 5.0257673, 4.9734936 
6.0950875e+2, 1.6155812e+2, -1318482.0, -1405020.4, -3727.7283, -0.0017998263, 0.00025071358, -1318321.6, 38408.32, 0.0, 5.0249014, 4.9686675 
6.094831e+2, 1.665272e+2, -1271652.1, -1356669.6, -3915.4768, -0.0011327009, 0.0008406351, -1271472.1, 36561.89, 0.0, 5.024063, 4.9688272 
6.094574e+2, 1.714963e+2, -1225034.0, -1308783.1, -3932.8225, -0.00045527064, 0.0015595632, -1224849.8, 34488.074, 0.0, 5.0232253, 4.9688263 
6.094317e+2, 1.764654e+2, -1179511.0, -1263234.0, -3912.0654, 0.0002094539, 0.002678671, -1179328.6, 31312.969, 0.0, 5.022387, 4.9680357 
6.0940564e+2, 1.8143122e+2, -1140246.9, -1230968.1, -4517.063, 0.0002716641, 0.009724594, -1140022.5, 21954.555, 0.0, 5.0215344, 4.9627557 
6.093789e+2, 1.8639392e+2, -1093300.8, -1182236.8, -4673.4604, -0.00095026393, 0.0045543727, -1093055.9, 20285.99, 0.0, 5.0206437, 4.9630284 
6.0935205e+2, 1.9135663e+2, -1046723.9, -1134299.8, -4738.0845, -0.0022833266, -0.0009891097, -1046468.25, 18238.281, 0.0, 5.01975, 4.9630303 
6.0932523e+2, 1.9631934e+2, -1001024.06, -1088268.3, -4792.7295, -0.0036454324, -0.006258076, -1000761.56, 15309.61, 0.0, 5.018857, 4.9623804 
6.092984e+2, 2.012791e+2, -962357.25, -1057641.8, -4915.822, -0.0049098404, -0.0014363455, -962104.3, 5361.0654, 0.0, 5.018005, 4.9564524 
6.0927147e+2, 2.0623639e+2, -915053.7, -1009019.8, -4898.2217, -0.0047624884, 0.003177183, -914799.06, 4086.2876, 0.0, 5.017269, 4.9565763 
6.092446e+2, 2.111937e+2, -867886.06, -960745.4, -4796.5615, -0.004479175, 0.00800964, -867638.94, 2666.1162, 0.0, 5.0165396, 4.956576 
6.0921764e+2, 2.1615101e+2, -821370.0, -913914.5, -4684.096, -0.004211327, 0.012992072, -821133.56, 591.2585, 0.0, 5.0158095, 4.9560757 
6.09191e+2, 2.2110468e+2, -782638.2, -884331.25, -4636.4214, -0.002027403, 0.023420991, -782427.2, -9247.933, 0.0, 5.015111, 4.949626 
6.091644e+2, 2.2605364e+2, -734547.0, -834161.6, -5032.7725, 0.003866721, 0.0084341, -734293.4, -9616.301, 0.0, 5.0143886, 4.9502263 
6.0913783e+2, 2.3100251e+2, -687258.94, -785716.5, -5278.9624, 0.009699132, -0.0087748, -686976.7, -10801.102, 0.0, 5.013655, 4.9502435 
6.091112e+2, 2.3595136e+2, -640606.75, -738709.0, -5512.3037, 0.0153753925, -0.02613168, -640298.0, -12623.892, 0.0, 5.0129213, 4.949759 
6.090847e+2, 2.4089776e+2, -601794.44, -708784.56, -4805.416, 0.018300151, -0.025678862, -601579.0, -22381.695, 0.0, 5.012106, 4.9433904 
6.0905814e+2, 2.458435e+2, -554504.8, -658497.56, -4272.649, 0.012490078, -0.01272565, -554329.56, -23600.227, 0.0, 5.010984, 4.9441752 
6.0903156e+2, 2.507894e+2, -508276.28, -610500.75, -3843.1206, 0.006001243, 0.00038046544, -508132.0, -25871.918, 0.0, 5.0098367, 4.944182 
6.090049e+2, 2.557353e+2, -462266.4, -563060.6, -3397.3596, -0.0005854008, 0.013590107, -462152.03, -28361.428, 0.0, 5.008688, 4.9439907 
6.089789e+2, 2.6067722e+2, -426376.44, -538858.7, -2418.7407, -0.0045164917, 0.037286036, -426324.44, -40963.684, 0.0, 5.0076017, 4.935632 
6.089544e+2, 2.6561305e+2, -377398.22, -486020.28, -2645.459, 0.00022507274, 0.020547058, -377333.8, -40342.688, 0.0, 5.0067067, 4.9371376 
6.0892993e+2, 2.705485e+2, -330277.75, -437495.53, -2938.7903, 0.0057394966, -0.0027556466, -330197.28, -41572.03, 0.0, 5.0058255, 4.9371567 
6.0890543e+2, 2.754839e+2, -283185.06, -389103.3, -3227.7014, 0.011283273, -0.026247418, -283086.78, -42827.6, 0.0, 5.0049443, 4.937128 
6.0888135e+2, 2.8041512e+2, -250469.58, -373252.56, -2198.8955, 0.014975954, -0.02659755, -250430.2, -58496.086, 0.0, 5.0039544, 4.925718 
6.0885763e+2, 2.8534457e+2, -201526.78, -318713.22, -2002.9358, 0.012464201, -0.012425463, -201492.55, -57869.02, 0.0, 5.0026927, 4.9279447 
6.088337e+2, 2.9027417e+2, -155330.98, -270519.5, -1802.8544, 0.00960672, -0.0013327341, -155302.78, -59991.547, 0.0, 5.001422, 4.9279513 
6.088098e+2, 2.9520375e+2, -109094.37, -222318.3, -1587.8196, 0.0068546594, 0.009298641, -109072.1, -62072.766, 0.0, 5.00015, 4.927958 
6.0878617e+2, 3.0015168e+2, -41179.305, -89910.016, -753.9381, 0.0019093978, 0.032271758, -41167.64, -41167.64, 0.0, 4.9987664, 4.96732 
6.087631e+2, 3.0512315e+2, -37478.77, -72039.484, -518.2897, -0.01497122, 0.0042472524, -37470.996, -37470.996, 0.0, 4.996905, 4.974598 
6.087399e+2, 3.100948e+2, -42574.43, -74562.516, -907.10693, -0.033991974, -0.033778064, -42548.727, -42548.727, 0.0, 4.9949827, 4.9745283 
6.0871655e+2, 3.1506628e+2, -47650.54, -77113.08, -1261.2269, -0.053797178, -0.073867045, -47596.65, -47596.65, 0.0, 4.993053, 4.9744587 
6.1472595e+2, 1.21769786e+2, -1670086.3, -1747092.1, 49.37553, 0.006422423, -0.023625238, -1670086.1, 76566.52, 0.0, 5.0320244, 4.9817386 
6.147031e+2, 1.2675242e+2, -1628215.0, -1708324.9, -1086.3519, 0.0031731138, 0.013344888, -1628200.4, 69623.305, 0.0, 5.0311103, 4.9788623 
6.146803e+2, 1.3173021e+2, -1582019.6, -1660764.9, -1155.9939, 0.0005341948, 0.002645132, -1582002.6, 67039.41, 0.0, 5.0302043, 4.978861 
6.146574e+2, 1.3670798e+2, -1538009.3, -1617733.4, -1358.5751, -0.0021605927, -0.006756336, -1537986.1, 62274.695, 0.0, 5.0292983, 4.9773526 
6.1463356e+2, 1.4168374e+2, -1496407.1, -1579744.9, -2812.0537, -0.004149257, -0.00046430246, -1496312.4, 55186.445, 0.0, 5.0283947, 4.9740887 
6.146087e+2, 1.4665818e+2, -1449637.9, -1531238.0, -3069.0535, -0.0038619977, -0.0016840772, -1449522.6, 53226.72, 0.0, 5.027519, 4.9743547 
6.1458385e+2, 1.516326e+2, -1403242.6, -1483522.6, -3141.2236, -0.0035583824, -0.0032117208, -1403119.9, 50880.15, 0.0, 5.0266438, 4.9743533 
6.1455905e+2, 1.5660703e+2, -1358191.9, -1438636.6, -3253.8333, -0.0032542928, -0.0042873994, -1358060.5, 47190.3, 0.0, 5.0257688, 4.973401 
6.145335e+2, 1.6157827e+2, -1318519.0, -1405116.4, -4374.2637, -0.0026649833, 0.00081533694, -1318298.6, 38234.46, 0.0, 5.0249033, 4.968636 
6.14507e+2, 1.665473e+2, -1271671.4, -1356728.3, -4554.2686, -0.0013457541, 0.0012433637, -1271428.3, 36408.87, 0.0, 5.024065, 4.9688077 
6.144806e+2, 1.7151637e+2, -1225053.9, -1308841.9, -4571.1934, -0.000009658949, 0.0017792454, -1224805.1, 34335.82, 0.0, 5.0232267, 4.968807 
6.144541e+2, 1.7648546e+2, -1179532.9, -1263296.8, -4550.6, 0.0013085053, 0.0027209858, -1179286.4, 31158.383, 0.0, 5.0223885, 4.968015 
6.1442727e+2, 1.8145122e+2, -1140331.0, -1231162.4, -5189.451, 0.00183773, 0.009716604, -1140035.5, 21745.207, 0.0, 5.0215354, 4.9626913 
6.143996e+2, 1.8641382e+2, -1093405.5, -1182472.6, -5352.7954, 0.0008609321, 0.0042637903, -1093085.0, 20061.885, 0.0, 5.020644, 4.96295 
6.1437196e+2, 1.9137642e+2, -1046828.8, -1134534.4, -5416.0728, -0.00022952972, -0.0015937709, -1046495.6, 18017.396, 0.0, 5.0197506, 4.9629526 
6.143443e+2, 1.9633903e+2, -1001129.44, -1088502.1, -5469.0854, -0.001357375, -0.007160148, -1000788.44, 15090.653, 0.0, 5.0188575, 4.962302 
6.143165e+2, 2.012987e+2, -962241.1, -1057437.3, -5515.335, -0.003028268, -0.0027547118, -961922.7, 5351.2866, 0.0, 5.0180106, 4.9565206 
6.142886e+2, 2.0625615e+2, -914869.25, -1008659.2, -5452.892, -0.005447733, 0.002201862, -914553.3, 4138.3506, 0.0, 5.017274, 4.9566984 
6.142607e+2, 2.1121365e+2, -867712.4, -960385.8, -5345.5103, -0.007915536, 0.007598884, -867405.06, 2703.7627, 0.0, 5.016541, 4.956699 
6.142328e+2, 2.1617116e+2, -821206.94, -913555.94, -5227.2705, -0.010435504, 0.013235151, -820912.0, 613.81616, 0.0, 5.0158086, 4.9561996 
6.1420524e+2, 2.2112507e+2, -782895.6, -884922.6, -5165.494, -0.009993764, 0.025912039, -782634.8, -9656.552, 0.0, 5.0151143, 4.9494224 
6.1417824e+2, 2.2607398e+2, -734960.6, -835074.5, -5583.0234, -0.001627243, 0.013319969, -734650.25, -10171.159, 0.0, 5.014389, 4.9499106 
6.141512e+2, 2.3102275e+2, -687689.7, -786631.6, -5816.8945, 0.006997412, -0.0016585215, -687348.9, -11367.675, 0.0, 5.01365, 4.9499283 
6.1412406e+2, 2.3597156e+2, -641054.56, -739626.44, -6037.858, 0.015397768, -0.016562274, -640686.06, -13203.035, 0.0, 5.01291, 4.9494443 
6.14097e+2, 2.4091782e+2, -601469.94, -708138.44, -5593.018, 0.020655269, -0.016334875, -601177.5, -22168.594, 0.0, 5.0121164, 4.94361 
6.140694e+2, 2.4586326e+2, -553774.5, -656936.75, -5153.391, 0.015635636, -0.011189147, -553517.75, -22978.51, 0.0, 5.0109935, 4.944715 
6.140417e+2, 2.5080892e+2, -507599.72, -608963.75, -4692.8574, 0.00967166, -0.0059209974, -507382.94, -25315.494, 0.0, 5.0098324, 4.944721 
6.1401397e+2, 2.5575465e+2, -461643.34, -561546.94, -4216.065, 0.003497313, -0.00014007276, -461465.72, -27870.59, 0.0, 5.0086703, 4.944529 
6.139868e+2, 2.6069656e+2, -426487.44, -539085.8, -3163.4294, -0.0010155672, 0.020844692, -426398.66, -41236.547, 0.0, 5.0075974, 4.9355555 
6.1396116e+2, 2.656331e+2, -377840.1, -487045.75, -3323.4338, 0.0012929463, 0.014323535, -377739.06, -40948.9, 0.0, 5.0067096, 4.9367766 
6.1393553e+2, 2.705693e+2, -330743.9, -438544.5, -3580.237, 0.004308258, 0.0023250387, -330625.13, -42203.027, 0.0, 5.0058227, 4.9367895 
6.139099e+2, 2.7550554e+2, -283675.22, -390175.6, -3832.642, 0.0072993757, -0.009651617, -283537.47, -43483.637, 0.0, 5.0049357, 4.936755 
6.138847e+2, 2.8043726e+2, -250225.78, -372782.03, -3139.9673, 0.0092039965, -0.0030784607, -250145.39, -58418.063, 0.0, 5.003967, 4.925877 
6.138597e+2, 2.85366e+2, -201110.48, -317865.9, -3012.2605, 0.008009095, 0.0014576331, -201032.81, -57613.89, 0.0, 5.0027075, 4.9282403 
6.138348e+2, 2.902948e+2, -154976.28, -269693.75, -2774.8127, 0.006723229, 0.0017794392, -154909.2, -59800.05, 0.0, 5.001419, 4.9282494 
6.138098e+2, 2.9522356e+2, -108800.984, -221513.75, -2522.4412, 0.0054947347, 0.0017931954, -108744.56, -61944.867, 0.0, 5.000129, 4.9282584 
6.13785e+2, 3.001707e+2, -41489.918, -90127.29, -2004.8777, 0.002552959, 0.014623164, -41407.418, -41407.418, 0.0, 4.9986887, 4.9672694 
6.1376077e+2, 3.0514166e+2, -38468.11, -73505.12, -1989.0758, -0.00843177, -0.013807978, -38355.547, -38355.547, 0.0, 4.996786, 4.9740953 
6.137364e+2, 3.10113e+2, -43521.48, -75852.55, -2303.4524, -0.021438459, -0.050220154, -43358.195, -43358.195, 0.0, 4.9948606, 4.9740777 
6.1371183e+2, 3.1508416e+2, -48555.152, -78227.445, -2583.0967, -0.036023725, -0.08926736, -48331.96, -48331.96, 0.0, 4.9929276, 4.9740596 
6.19758e+2, 1.2179024e+2, -1670011.0, -1747285.8, -88.87442, 0.0070130806, -0.027889807, -1670010.9, 76440.31, 0.0, 5.032098, 4.98164 
6.1973417e+2, 1.2677349e+2, -1628230.3, -1708520.5, -1086.0433, 0.003194802, 0.016022366, -1628215.5, 69400.83, 0.0, 5.031144, 4.978782 
6.197104e+2, 1.3175105e+2, -1582172.8, -1661025.1, -1132.5707, 0.00041227214, 0.0038514398, -1582156.5, 66680.72, 0.0, 5.0301914, 4.9787817 
6.1968666e+2, 1.3672858e+2, -1538315.8, -1618077.6, -1318.2335, -0.0024109029, -0.0070633385, -1538294.0, 61764.305, 0.0, 5.029236, 4.977269 
6.196618e+2, 1.4170417e+2, -1496802.6, -1580120.3, -2723.6462, -0.0044788728, -0.0016858393, -1496713.8, 54584.45, 0.0, 5.0282993, 4.974011 
6.196361e+2, 1.4667857e+2, -1450053.1, -1531640.5, -2970.1792, -0.004358748, -0.0025006388, -1449945.1, 52604.31, 0.0, 5.0274205, 4.9742694 
6.196104e+2, 1.5165295e+2, -1403666.8, -1483929.1, -3043.1814, -0.0042247153, -0.0035622108, -1403551.6, 50249.227, 0.0, 5.0265417, 4.974268 
6.195847e+2, 1.5662731e+2, -1358633.0, -1439061.3, -3163.4763, -0.0040896633, -0.0041544084, -1358508.8, 46543.55, 0.0, 5.025663, 4.973311 
6.195582e+2, 1.6159853e+2, -1318868.1, -1405362.0, -4256.445, -0.0034201178, 0.0013001561, -1318659.1, 37675.754, 0.0, 5.0247993, 4.9686036 
6.1953104e+2, 1.6656752e+2, -1271965.4, -1356916.8, -4441.012, -0.0015904338, 0.0015324837, -1271733.9, 35905.305, 0.0, 5.023973, 4.9687886 
6.195038e+2, 1.7153656e+2, -1225316.1, -1309014.3, -4469.8843, 0.00027388195, 0.0018388383, -1225078.1, 33865.043, 0.0, 5.0231457, 4.9687877 
6.194765e+2, 1.7650558e+2, -1179771.0, -1263459.3, -4461.1133, 0.0021277312, 0.0025478601, -1179533.8, 30713.344, 0.0, 5.022316, 4.9679947 
6.194488e+2, 1.8147132e+2, -1140569.4, -1231430.6, -5135.964, 0.003056143, 0.0095270425, -1140280.0, 21303.428, 0.0, 5.021486, 4.962625 
6.1942035e+2, 1.8643382e+2, -1093496.1, -1182705.3, -5329.3535, 0.002371239, 0.004008398, -1093178.9, 19771.895, 0.0, 5.020652, 4.962869 
6.1939186e+2, 1.9139631e+2, -1046764.94, -1134696.6, -5418.8657, 0.0015984988, -0.001985446, -1046432.25, 17886.145, 0.0, 5.019811, 4.96287 
6.193633e+2, 1.9635881e+2, -1000929.5, -1088603.5, -5498.62, 0.0008019809, -0.0077184513, -1000586.0, 15099.901, 0.0, 5.018965, 4.962219 
6.193347e+2, 2.0131846e+2, -961834.1, -1057133.1, -5497.195, -0.001095434, -0.0034767329, -961518.06, 5563.33, 0.0, 5.0181255, 4.956571 
6.193058e+2, 2.06276e+2, -914641.56, -1008272.06, -5427.692, -0.005823919, 0.0014374627, -914328.0, 4169.1494, 0.0, 5.017293, 4.956821 
6.192769e+2, 2.1123365e+2, -867799.94, -960140.25, -5333.5938, -0.010764094, 0.0067791976, -867492.94, 2419.3018, 0.0, 5.016451, 4.9568233 
6.19248e+2, 2.1619128e+2, -821632.5, -913460.1, -5222.607, -0.015778711, 0.012334059, -821336.44, -9.264789, 0.0, 5.0156007, 4.9563265 
6.1921954e+2, 2.2114539e+2, -784048.94, -885918.25, -5065.255, -0.016966278, 0.027165184, -783797.7, -11020.094, 0.0, 5.01481, 4.9492183 
6.19192e+2, 2.2609435e+2, -736112.3, -836270.94, -5433.3945, -0.006734273, 0.017607817, -735818.44, -11537.777, 0.0, 5.014123, 4.949617 
6.191644e+2, 2.310431e+2, -688737.8, -787793.56, -5595.9756, 0.0041850004, 0.005124133, -688422.7, -12637.044, 0.0, 5.013418, 4.94963 
6.191369e+2, 2.3599188e+2, -642053.2, -740776.25, -5749.403, 0.014975497, -0.0073829764, -641719.5, -14428.952, 0.0, 5.0126953, 4.949141 
6.191093e+2, 2.4093801e+2, -601880.56, -708119.3, -5473.765, 0.022406047, -0.006258493, -601599.25, -22780.69, 0.0, 5.011927, 4.9437017 
6.1908054e+2, 2.4588317e+2, -553392.0, -655600.4, -5368.4014, 0.018264147, -0.008736298, -553110.8, -22763.22, 0.0, 5.0108943, 4.945219 
6.1905175e+2, 2.508285e+2, -507020.72, -607523.1, -5088.345, 0.013088746, -0.01216533, -506763.75, -24889.55, 0.0, 5.0098047, 4.94523 
6.1902297e+2, 2.557739e+2, -460946.25, -560031.44, -4761.9595, 0.007699807, -0.015052377, -460717.94, -27317.658, 0.0, 5.008689, 4.945042 
6.189948e+2, 2.607159e+2, -426742.44, -539732.94, -3586.9695, 0.002683323, 0.0041292068, -426628.7, -41664.492, 0.0, 5.0076246, 4.9353123 
6.189679e+2, 2.6565322e+2, -378298.0, -488004.34, -3577.93, 0.002456395, 0.008572294, -378181.44, -41592.574, 0.0, 5.0066996, 4.9364357 
6.189412e+2, 2.7059025e+2, -331319.0, -439579.03, -3676.8674, 0.0030720616, 0.007315642, -331194.25, -42976.16, 0.0, 5.005771, 4.9364414 
6.189144e+2, 2.7552724e+2, -284382.75, -391282.34, -3766.45, 0.003656562, 0.0061456747, -284250.2, -44403.016, 0.0, 5.004839, 4.9363995 
6.18888e+2, 2.8045946e+2, -250669.77, -373165.16, -3188.036, 0.0034420737, 0.020708723, -250586.84, -59068.027, 0.0, 5.003851, 4.9257865 
6.188619e+2, 2.8538752e+2, -200963.86, -317180.28, -3296.2126, 0.003448428, 0.01592845, -200870.44, -57657.176, 0.0, 5.0026436, 4.9284997 
6.188358e+2, 2.9031542e+2, -154684.3, -268960.13, -3217.322, 0.0039789807, 0.004451309, -154593.8, -59686.77, 0.0, 5.001411, 4.928507 
6.1880976e+2, 2.9524332e+2, -108369.87, -220724.31, -3131.6602, 0.004518255, -0.0071657696, -108282.64, -61681.684, 0.0, 5.000178, 4.928514 
6.1878383e+2, 3.0018952e+2, -41646.863, -90963.31, -3168.0376, 0.0036459304, -0.0043885177, -41444.184, -41444.184, 0.0, 4.998801, 4.9669113 
6.187583e+2, 3.0515987e+2, -38784.125, -74895.54, -3570.6045, -0.0017790109, -0.033537894, -38434.46, -38434.46, 0.0, 4.996957, 4.973501 
6.187328e+2, 3.1013077e+2, -44018.16, -77236.54, -4293.328, -0.008293958, -0.06899777, -43472.24, -43472.24, 0.0, 4.994972, 4.973506 
6.187072e+2, 3.1510147e+2, -49588.613, -79747.81, -5147.1978, -0.016478274, -0.1073083, -48734.35, -48734.35, 0.0, 4.992853, 4.9735117 
6.247907e+2, 1.2181608e+2, -1666467.3, -1746071.4, 1603.7765, 0.0070533124, -0.005373867, -1666434.9, 79762.766, 0.0, 5.0334005, 4.9813995 
6.247659e+2, 1.2679571e+2, -1624669.0, -1706719.6, 728.0625, 0.0033280386, 0.0025853463, -1624662.5, 72735.65, 0.0, 5.03233, 4.9787936 
6.247411e+2, 1.3177393e+2, -1578973.8, -1659402.3, 745.7419, 0.0005756724, -0.0029178145, -1578966.8, 69645.516, 0.0, 5.031259, 4.9787946 
6.247163e+2, 1.3675214e+2, -1535472.3, -1616638.1, 617.6393, -0.0021903717, -0.0072194096, -1535467.5, 64359.32, 0.0, 5.030188, 4.9772797 
6.246905e+2, 1.4172807e+2, -1494274.0, -1578931.8, -647.7375, -0.004125818, 0.0017887896, -1494269.0, 56794.313, 0.0, 5.029168, 4.97398 
6.246639e+2, 1.4670229e+2, -1447712.6, -1530596.3, -847.0131, -0.0040831855, -0.00012619607, -1447704.0, 54612.625, 0.0, 5.0282383, 4.9742174 
6.246372e+2, 1.5167648e+2, -1401480.5, -1482964.8, -891.59564, -0.0040347483, -0.0023200298, -1401470.8, 52099.29, 0.0, 5.02731, 4.974216 
6.246106e+2, 1.5665066e+2, -1356604.8, -1438189.6, -987.9006, -0.003984, -0.00401842, -1356592.8, 48230.844, 0.0, 5.0263815, 4.9732537 
6.2458324e+2, 1.6162173e+2, -1316882.5, -1404403.6, -1993.4025, -0.003593013, 0.0007506688, -1316837.1, 39270.406, 0.0, 5.025481, 4.9685936 
6.245551e+2, 1.665907e+2, -1270037.4, -1355982.0, -2149.3457, -0.002456774, 0.00082772714, -1269983.6, 37428.258, 0.0, 5.0246353, 4.968782 
6.24527e+2, 1.7155969e+2, -1223444.3, -1308110.0, -2161.2212, -0.0012826768, 0.00096875784, -1223389.1, 35326.918, 0.0, 5.0237904, 4.968781 
6.2449884e+2, 1.7652869e+2, -1177952.0, -1262587.9, -2136.0935, -0.00010374361, 0.0014996566, -1177898.1, 32122.057, 0.0, 5.0229454, 4.967986 
6.244703e+2, 1.8149439e+2, -1138825.1, -1230709.5, -2766.786, 0.00062613847, 0.00867637, -1138741.9, 22614.805, 0.0, 5.022114, 4.9625683 
6.244411e+2, 1.8645693e+2, -1091685.6, -1182037.6, -2941.521, 0.0009950562, 0.0046185437, -1091589.9, 21134.656, 0.0, 5.021321, 4.962777 
6.2441194e+2, 1.9141947e+2, -1044817.94, -1133972.9, -3024.1638, 0.001348915, 0.00012832474, -1044715.5, 19377.115, 0.0, 5.020529, 4.9627767 
6.243827e+2, 1.9638199e+2, -998828.8, -1087816.9, -3093.1619, 0.0016969928, -0.0041410928, -998721.44, 16739.209, 0.0, 5.0197363, 4.962124 
6.2435335e+2, 2.0134155e+2, -959552.3, -1055908.1, -3158.6484, 0.0008421391, 0.000104477476, -959448.9, 7408.066, 0.0, 5.0188875, 4.95663 
6.2432355e+2, 2.0629887e+2, -912792.9, -1007090.9, -3111.4216, -0.0033681758, 0.0016565055, -912690.3, 5583.568, 0.0, 5.0178742, 4.956951 
6.242937e+2, 2.1125625e+2, -866472.8, -959197.8, -3020.9329, -0.007871228, 0.003383383, -866374.5, 3315.6262, 0.0, 5.016851, 4.9569573 
6.242639e+2, 2.1621364e+2, -820799.3, -912742.75, -2918.0706, -0.012471746, 0.0051909355, -820706.75, 399.61685, 0.0, 5.0158277, 4.9564643 
6.2423444e+2, 2.211677e+2, -783719.94, -885382.75, -2552.3052, -0.014339807, 0.017905718, -783655.94, -11099.159, 0.0, 5.014857, 4.9493785 
6.2420595e+2, 2.2611728e+2, -736174.9, -836268.9, -2608.7903, -0.0069549177, 0.014699897, -736106.94, -12051.902, 0.0, 5.014102, 4.949629 
6.241774e+2, 2.3106667e+2, -688888.2, -787863.5, -2552.6655, 0.0012342611, 0.00912933, -688822.4, -13267.111, 0.0, 5.0133657, 4.949633 
6.2414885e+2, 2.3601605e+2, -642235.56, -740897.44, -2480.0295, 0.009516877, 0.0031600264, -642173.25, -15117.482, 0.0, 5.012629, 4.9491353 
6.241203e+2, 2.4096239e+2, -602042.0, -708096.0, -2176.7344, 0.015807014, 0.006594217, -601997.4, -23414.809, 0.0, 5.011846, 4.943746 
6.2409097e+2, 2.4590684e+2, -553300.9, -655569.2, -2475.522, 0.014129886, -0.0023912552, -553241.0, -23123.268, 0.0, 5.0109296, 4.9452133 
6.2406147e+2, 2.5085142e+2, -506445.94, -607238.5, -2666.164, 0.011777002, -0.013061707, -506375.47, -24724.387, 0.0, 5.010005, 4.945236 
6.2403196e+2, 2.5579602e+2, -459817.28, -559465.2, -2848.931, 0.009362038, -0.023768168, -459735.9, -26551.75, 0.0, 5.009081, 4.945061 
6.2400293e+2, 2.6073754e+2, -424979.38, -538067.5, -1863.5127, 0.006683752, -0.010994683, -424948.7, -40196.703, 0.0, 5.0080924, 4.9356804 
6.23975e+2, 2.6567575e+2, -377132.22, -486795.13, -1327.5914, 0.0053468794, -0.00027704018, -377116.16, -40748.434, 0.0, 5.006995, 4.936732 
6.239471e+2, 2.7061376e+2, -330621.28, -438608.3, -938.8289, 0.0044775344, 0.0066135605, -330613.13, -42626.29, 0.0, 5.0059004, 4.9367304 
6.239192e+2, 2.755518e+2, -284138.4, -390545.38, -551.4847, 0.0036293792, 0.013462848, -284135.56, -44529.6, 0.0, 5.004806, 4.9366813 
6.238916e+2, 2.8048462e+2, -250941.33, -372815.38, 414.77347, 0.0025697665, 0.031618495, -250939.9, -59668.344, 0.0, 5.003672, 4.925983 
6.238643e+2, 2.8541195e+2, -201408.03, -317717.9, 122.98904, 0.0026539797, 0.02099115, -201407.9, -58435.29, 0.0, 5.0025625, 4.928344 
6.238371e+2, 2.903391e+2, -154721.83, -269348.16, -162.40689, 0.0031487471, 0.0040342477, -154721.6, -60047.844, 0.0, 5.001476, 4.9283423 
6.238099e+2, 2.9526627e+2, -108006.84, -220965.58, -439.3187, 0.0036328302, -0.01295934, -108005.13, -61630.195, 0.0, 5.000389, 4.9283404 
6.237829e+2, 3.0021185e+2, -40726.703, -91581.29, -724.66003, 0.0038442833, -0.013432469, -40716.38, -40716.38, 0.0, 4.9993052, 4.966497 
6.2375677e+2, 3.0518222e+2, -36258.555, -75588.945, -876.1495, 0.0060970406, -0.035579536, -36239.047, -36239.047, 0.0, 4.998154, 4.972805 
6.237308e+2, 3.1015313e+2, -39361.3, -77211.87, -1199.2534, 0.00950077, -0.062230688, -39323.34, -39323.34, 0.0, 4.996969, 4.972752 
6.2370473e+2, 3.1512383e+2, -42442.117, -78860.22, -1475.9586, 0.012853621, -0.09106101, -42382.395, -42382.395, 0.0, 4.9957795, 4.972698 
6.2982404e+2, 1.21843055e+2, -1666722.9, -1746612.3, 745.82, 0.006454116, 0.015565669, -1666715.9, 79217.25, 0.0, 5.0334015, 4.981223 
6.297982e+2, 1.2681894e+2, -1624618.9, -1706637.4, -85.49324, 0.003366427, -0.014089393, -1624618.8, 72551.375, 0.0, 5.0323315, 4.9788218 
6.2977237e+2, 1.3179803e+2, -1578923.8, -1659320.6, -67.00879, 0.0007275482, -0.011254516, -1578923.6, 69451.96, 0.0, 5.03126, 4.9788227 
6.2974644e+2, 1.3677709e+2, -1535427.6, -1616568.9, -199.195, -0.0019304901, -0.007221188, -1535427.1, 64154.24, 0.0, 5.0301895, 4.977304 
6.297197e+2, 1.417535e+2, -1494310.9, -1579029.5, -1373.5498, -0.0036835684, 0.006356976, -1494288.5, 56524.83, 0.0, 5.02917, 4.9739485 
6.296921e+2, 1.467275e+2, -1447779.1, -1530755.3, -1552.8369, -0.0037060725, 0.003007476, -1447750.1, 54318.766, 0.0, 5.0282397, 4.974166 
6.296645e+2, 1.517015e+2, -1401547.0, -1483123.3, -1597.0967, -0.003735117, -0.0006886861, -1401515.8, 51808.906, 0.0, 5.0273113, 4.974164 
6.296369e+2, 1.5667549e+2, -1356678.9, -1438364.5, -1699.3348, -0.0037646175, -0.0038856205, -1356643.5, 47936.863, 0.0, 5.026383, 4.9731965 
6.2960863e+2, 1.6164643e+2, -1316891.4, -1404442.0, -2648.0583, -0.0037518174, -0.000023461878, -1316811.4, 39054.38, 0.0, 5.0254827, 4.9685817 
6.295796e+2, 1.6661537e+2, -1270043.1, -1356014.3, -2792.9702, -0.003589454, -0.000031106396, -1269952.5, 37217.445, 0.0, 5.024637, 4.9687715 
6.2955046e+2, 1.7158435e+2, -1223450.1, -1308142.1, -2804.4316, -0.0034085612, 0.000035204048, -1223357.4, 35116.66, 0.0, 5.023792, 4.968771 
6.2952137e+2, 1.7655332e+2, -1177961.4, -1262627.3, -2781.313, -0.003228799, 0.0004962294, -1177870.1, 31907.945, 0.0, 5.022947, 4.9679737 
6.294919e+2, 1.8151903e+2, -1138908.8, -1230914.4, -3387.4268, -0.0028038656, 0.0080094645, -1138784.3, 22330.432, 0.0, 5.0221167, 4.9625 
6.294621e+2, 1.8648164e+2, -1091815.8, -1182335.9, -3545.375, -0.0011536377, 0.0056066774, -1091677.1, 20805.633, 0.0, 5.0213223, 4.9626775 
6.2943226e+2, 1.9144425e+2, -1044951.25, -1134269.8, -3625.2097, 0.0005196564, 0.0028910493, -1044804.4, 19046.55, 0.0, 5.020529, 4.962678 
6.294024e+2, 1.9640686e+2, -998965.5, -1088112.8, -3690.9841, 0.0021668111, 0.00043830814, -998812.94, 16406.125, 0.0, 5.0197353, 4.9620256 
6.2937236e+2, 2.0136641e+2, -959472.44, -1055768.8, -3890.395, 0.0026015118, 0.0049298857, -959315.56, 7300.3193, 0.0, 5.018891, 4.956678 
6.293416e+2, 2.0632342e+2, -912618.56, -1006734.9, -3883.573, -0.00043335624, 0.0023156228, -912458.56, 5575.886, 0.0, 5.017876, 4.957073 
6.293109e+2, 2.1128048e+2, -866309.9, -958842.6, -3786.812, -0.0038276727, -0.00025453808, -866155.2, 3297.2393, 0.0, 5.0168495, 4.957081 
6.2928015e+2, 2.1623756e+2, -820647.6, -912388.44, -3677.604, -0.0073638493, -0.0026318906, -820500.44, 369.74994, 0.0, 5.015823, 4.9565887 
6.292497e+2, 2.2119156e+2, -783418.25, -884791.94, -3220.5894, -0.0095628705, 0.0074919867, -783316.06, -10995.468, 0.0, 5.014866, 4.94958 
6.2922e+2, 2.2614184e+2, -736024.7, -835995.75, -3171.3943, -0.0059541496, 0.010427294, -735924.2, -12111.337, 0.0, 5.0141087, 4.9497266 
6.291904e+2, 2.3109204e+2, -688769.25, -787602.1, -3098.9924, -0.0018220916, 0.012219934, -688672.2, -13365.919, 0.0, 5.013364, 4.949731 
6.291607e+2, 2.3604223e+2, -642147.75, -740647.6, -3010.023, 0.0023140803, 0.013884025, -642055.9, -15256.11, 0.0, 5.012618, 4.9492335 
6.2913114e+2, 2.40989e+2, -602089.75, -708220.0, -2868.9373, 0.006026674, 0.021064887, -602012.25, -23689.072, 0.0, 5.011848, 4.9437027 
6.2910116e+2, 2.4593265e+2, -553545.1, -656141.4, -3190.259, 0.0073680445, 0.0057427003, -553446.0, -23579.25, 0.0, 5.0109324, 4.945015 
6.2907106e+2, 2.5087634e+2, -506716.22, -607830.5, -3358.5925, 0.008390561, -0.011433751, -506604.78, -25195.617, 0.0, 5.0100017, 4.9450345 
6.2904096e+2, 2.558201e+2, -460113.4, -560076.7, -3519.0315, 0.009284341, -0.028405178, -459989.7, -27038.531, 0.0, 5.0090704, 4.9448557 
6.290112e+2, 2.6076108e+2, -424380.0, -536690.6, -2703.824, 0.009293696, -0.021514578, -424314.94, -39790.83, 0.0, 5.008088, 4.936165 
6.289821e+2, 2.657001e+2, -376450.28, -485257.34, -2180.8774, 0.007833213, -0.007893625, -376406.56, -40276.414, 0.0, 5.006995, 4.9372826 
6.2895304e+2, 2.7063903e+2, -329954.2, -437098.13, -1767.6926, 0.0064313873, 0.003825151, -329925.03, -42187.1, 0.0, 5.0059, 4.9372745 
6.289241e+2, 2.75578e+2, -283486.06, -389062.6, -1355.9312, 0.005015949, 0.015553922, -283468.66, -44122.86, 0.0, 5.0048046, 4.9372196 
6.288953e+2, 2.8051138e+2, -250616.78, -372153.16, -482.2848, 0.0036946149, 0.034913212, -250614.88, -59610.395, 0.0, 5.003682, 4.926214 
6.288669e+2, 2.8543824e+2, -201749.48, -318596.4, -729.9136, 0.003248358, 0.021171363, -201744.94, -59032.99, 0.0, 5.002573, 4.928037 
6.288385e+2, 2.9036483e+2, -155084.13, -270222.4, -1000.4408, 0.0029481698, 0.0022580465, -155075.44, -60655.137, 0.0, 5.0014787, 4.9280396 
6.288101e+2, 2.9529142e+2, -108389.9, -221835.56, -1262.4929, 0.0026373465, -0.016712612, -108375.84, -62247.152, 0.0, 5.0003834, 4.9280415 
6.287821e+2, 3.002367e+2, -41224.836, -92513.414, -1537.0837, 0.0034996183, -0.017062977, -41178.813, -41178.813, 0.0, 4.9992676, 4.966176 
6.2875545e+2, 3.0520764e+2, -37030.516, -76865.336, -1693.8477, 0.011453204, -0.028858012, -36958.617, -36958.617, 0.0, 4.9980774, 4.9723644 
6.287289e+2, 3.101793e+2, -40157.313, -78362.55, -1954.7217, 0.020258924, -0.043968104, -40057.563, -40057.563, 0.0, 4.996873, 4.972354 
6.287023e+2, 3.1515074e+2, -43262.105, -79885.22, -2169.1995, 0.028461257, -0.061147682, -43134.074, -43134.074, 0.0, 4.9956627, 4.972343 
6.348573e+2, 1.2186934e+2, -1666870.8, -1746933.8, -109.83076, 0.0055999486, 0.029566117, -1666870.6, 78804.875, 0.0, 5.033402, 4.9811187 
6.348304e+2, 1.268422e+2, -1624568.6, -1706555.3, -898.8501, 0.0033972596, -0.030648062, -1624558.8, 72383.18, 0.0, 5.0323324, 4.97885 
6.3480353e+2, 1.3182214e+2, -1578873.6, -1659239.3, -879.56055, 0.00087542686, -0.019491894, -1578864.0, 69274.79, 0.0, 5.0312614, 4.9788504 
6.347766e+2, 1.3680206e+2, -1535383.3, -1616499.9, -1015.89374, -0.0016708982, -0.007140336, -1535370.5, 63965.434, 0.0, 5.030191, 4.9773273 
6.3474876e+2, 1.4177892e+2, -1494354.3, -1579141.5, -2098.8572, -0.0032400596, 0.010944794, -1494302.3, 56261.137, 0.0, 5.0291715, 4.9739127 
6.3472027e+2, 1.4675273e+2, -1447845.5, -1530914.4, -2258.724, -0.0033280507, 0.0061435546, -1447784.1, 54036.965, 0.0, 5.0282416, 4.974114 
6.346918e+2, 1.5172651e+2, -1401613.3, -1483282.0, -2302.6614, -0.0034339968, 0.0009342827, -1401548.4, 51530.77, 0.0, 5.0273128, 4.9741125 
6.346633e+2, 1.567003e+2, -1356753.0, -1438539.9, -2410.8684, -0.0035431497, -0.0037719707, -1356682.0, 47655.207, 0.0, 5.0263844, 4.9731393 
6.34634e+2, 1.6167112e+2, -1316901.6, -1404483.9, -3301.9973, -0.003923038, -0.00078872265, -1316777.4, 38846.516, 0.0, 5.025484, 4.9685683 
6.34604e+2, 1.6664004e+2, -1270048.9, -1356046.6, -3436.7207, -0.0047425157, -0.00088614394, -1269911.8, 37016.246, 0.0, 5.0246387, 4.9687614 
6.34574e+2, 1.7160901e+2, -1223455.9, -1308174.4, -3447.7683, -0.0055594635, -0.00090660347, -1223315.9, 34916.152, 0.0, 5.0237937, 4.9687605 
6.3454396e+2, 1.7657796e+2, -1177970.8, -1262667.0, -3426.761, -0.0063835215, -0.00052749604, -1177832.4, 31703.576, 0.0, 5.0229483, 4.967961 
6.345137e+2, 1.8154368e+2, -1139003.9, -1231143.6, -4007.112, -0.006211908, 0.00740787, -1138830.0, 22042.621, 0.0, 5.022119, 4.962423 
6.3448316e+2, 1.8650636e+2, -1091946.1, -1182634.1, -4150.6353, -0.0032863547, 0.006625889, -1091756.6, 20484.236, 0.0, 5.021324, 4.9625773 
6.3445264e+2, 1.9146904e+2, -1045084.9, -1134566.5, -4227.6616, -0.00031073688, 0.0056214803, -1044885.56, 18723.666, 0.0, 5.0205293, 4.9625783 
6.344221e+2, 1.9643173e+2, -999102.6, -1088409.0, -4290.145, 0.0026183948, 0.0049220864, -998897.0, 16080.546, 0.0, 5.0197344, 4.9619265 
6.3439137e+2, 2.0139126e+2, -959410.3, -1055667.8, -4616.191, 0.004327281, 0.009915602, -959189.44, 7185.1904, 0.0, 5.0188947, 4.956712 
6.343597e+2, 2.0634796e+2, -912445.0, -1006378.8, -4659.183, 0.0024148438, 0.0030778998, -912214.44, 5580.4834, 0.0, 5.017878, 4.9571943 
6.3432807e+2, 2.1130472e+2, -866147.6, -958487.4, -4556.152, 0.00008734424, -0.003941729, -865923.3, 3291.2173, 0.0, 5.0168486, 4.9572024 
6.3429636e+2, 2.162615e+2, -820496.7, -912033.94, -4440.5996, -0.0024263829, -0.010656315, -820281.75, 352.21835, 0.0, 5.0158186, 4.9567113 
6.3426495e+2, 2.2121544e+2, -783203.06, -884390.0, -3864.9275, -0.0049056024, -0.0024835812, -783055.7, -10971.521, 0.0, 5.0148754, 4.9497156 
6.3423413e+2, 2.2616644e+2, -735876.5, -835722.06, -3737.92, -0.005053347, 0.006525446, -735736.8, -12166.41, 0.0, 5.0141153, 4.949821 
6.342034e+2, 2.3111743e+2, -688652.4, -787340.2, -3649.2444, -0.0049571875, 0.015279994, -688517.6, -13460.475, 0.0, 5.0133615, 4.949825 
6.3417256e+2, 2.3606843e+2, -642061.94, -740397.25, -3543.9443, -0.00494627, 0.024176484, -641934.4, -15390.647, 0.0, 5.0126076, 4.949328 
6.341419e+2, 2.4101564e+2, -602281.5, -708665.56, -3524.9744, -0.0039475905, 0.036123488, -602164.8, -24101.332, 0.0, 5.01185, 4.943547 
6.3411134e+2, 2.4595848e+2, -553790.9, -656714.0, -3904.8892, 0.00044009407, 0.014502626, -553642.94, -24027.531, 0.0, 5.010936, 4.944812 
6.3408065e+2, 2.5090128e+2, -506987.94, -608422.75, -4050.9167, 0.0049648946, -0.00978303, -506826.44, -25659.389, 0.0, 5.0099983, 4.944827 
6.3405e+2, 2.5584415e+2, -460410.9, -560688.5, -4189.0303, 0.009294224, -0.033622194, -460236.22, -27518.115, 0.0, 5.0090604, 4.9446445 
6.340195e+2, 2.6078463e+2, -423980.9, -535768.0, -3518.745, 0.011734952, -0.031500496, -423870.25, -39574.367, 0.0, 5.0080843, 4.9364905 
6.339893e+2, 2.6572445e+2, -375769.1, -483720.75, -3028.9497, 0.010126958, -0.014703428, -375684.16, -39792.082, 0.0, 5.0069957, 4.937826 
6.339591e+2, 2.7066433e+2, -329287.78, -435589.06, -2591.3538, 0.008390241, 0.0011342616, -329224.66, -41735.902, 0.0, 5.0058994, 4.9378123 
6.3392895e+2, 2.756042e+2, -282834.3, -387580.88, -2155.1855, 0.0066049444, 0.017033853, -282790.0, -43704.41, 0.0, 5.0048037, 4.937751 
6.33899e+2, 2.8053814e+2, -250489.84, -371946.56, -1351.5157, 0.0047999113, 0.03818687, -250474.8, -59737.395, 0.0, 5.003692, 4.926285 
6.3386947e+2, 2.8546447e+2, -202092.16, -319474.63, -1587.2179, 0.0036772585, 0.021725938, -202070.7, -59619.336, 0.0, 5.002584, 4.9277253 
6.3383985e+2, 2.903905e+2, -155447.58, -271096.38, -1842.8757, 0.0026963085, 0.00040408815, -155418.22, -61251.11, 0.0, 5.001481, 4.9277315 
6.338103e+2, 2.9531655e+2, -108774.05, -222705.19, -2090.0676, 0.0017046647, -0.020995336, -108735.72, -62852.816, 0.0, 5.000378, 4.9277377 
6.3378125e+2, 3.002614e+2, -41836.78, -93693.23, -2420.0989, 0.003445496, -0.021594377, -41724.082, -41724.082, 0.0, 4.99923, 4.9657564 
6.3375396e+2, 3.052329e+2, -37812.02, -78131.84, -2569.5034, 0.016409596, -0.024109082, -37648.93, -37648.93, 0.0, 4.9980006, 4.971909 
6.3372684e+2, 3.102052e+2, -40962.86, -79503.305, -2768.1038, 0.02978854, -0.028741648, -40765.06, -40765.06, 0.0, 4.996776, 4.971941 
6.3369954e+2, 3.151774e+2, -44091.617, -80900.26, -2920.3132, 0.042012464, -0.03533292, -43861.367, -43861.367, 0.0, 4.9955463, 4.971973 
6.398905e+2, 1.2189461e+2, -1667691.8, -1747409.6, -69.17786, 0.0046609286, 0.03179247, -1667691.6, 77736.03, 0.0, 5.0331445, 4.9810877 
6.3986266e+2, 1.2686604e+2, -1625177.9, -1706815.0, -850.62885, 0.0033247757, -0.04289584, -1625169.0, 71538.94, 0.0, 5.0321207, 4.978867 
6.398347e+2, 1.3184662e+2, -1579349.0, -1659434.6, -880.46423, 0.0009428698, -0.025685625, -1579339.4, 68559.125, 0.0, 5.031094, 4.978867 
6.3980675e+2, 1.3682714e+2, -1535739.0, -1616647.8, -1071.0334, -0.0014531486, -0.007177271, -1535724.9, 63364.414, 0.0, 5.030065, 4.9773397 
6.397779e+2, 1.4180432e+2, -1494690.9, -1579397.1, -2095.021, -0.0028059413, 0.014252822, -1494639.1, 55674.5, 0.0, 5.0290766, 4.973874 
6.3974845e+2, 1.4677799e+2, -1448161.4, -1531180.1, -2234.9255, -0.0029445519, 0.008444919, -1448101.3, 53471.79, 0.0, 5.0281577, 4.9740667 
6.39719e+2, 1.5175162e+2, -1401896.8, -1483530.4, -2276.037, -0.003112032, 0.0021646318, -1401833.3, 50999.563, 0.0, 5.0272393, 4.9740653 
6.3968956e+2, 1.5672526e+2, -1357012.9, -1438788.6, -2387.085, -0.003286068, -0.0036402592, -1356943.3, 47149.594, 0.0, 5.0263214, 4.9730864 
6.396594e+2, 1.6169596e+2, -1317118.6, -1404622.0, -3224.6545, -0.0040009054, -0.00130971, -1317000.0, 38380.62, 0.0, 5.025417, 4.9685545 
6.3962847e+2, 1.6666485e+2, -1270360.1, -1356225.3, -3364.272, -0.005626842, -0.001607861, -1270228.5, 36456.33, 0.0, 5.024537, 4.96875 
6.395975e+2, 1.7163378e+2, -1223871.0, -1308402.9, -3388.2659, -0.007261726, -0.0018509408, -1223735.4, 34253.516, 0.0, 5.0236564, 4.9687495 
6.3956654e+2, 1.7660269e+2, -1178498.1, -1262955.1, -3382.0613, -0.008910638, -0.001705366, -1178362.9, 30930.068, 0.0, 5.0227733, 4.9679465 
6.3953537e+2, 1.815684e+2, -1139677.4, -1231618.5, -3915.1643, -0.008944532, 0.0066026263, -1139511.0, 21118.775, 0.0, 5.0219183, 4.9623575 
6.3950413e+2, 1.8653117e+2, -1092627.5, -1183141.1, -3989.4053, -0.00508981, 0.007376137, -1092452.0, 19546.072, 0.0, 5.0211263, 4.9624987 
6.3947296e+2, 1.9149393e+2, -1045767.4, -1135073.3, -4009.3076, -0.0011350616, 0.007953413, -1045587.75, 17778.719, 0.0, 5.020331, 4.962499 
6.394418e+2, 1.964567e+2, -999801.56, -1088922.4, -4015.3481, 0.0027954816, 0.008831396, -999621.0, 15113.772, 0.0, 5.019531, 4.961847 
6.394102e+2, 2.0141624e+2, -959906.1, -1055870.6, -4426.623, 0.005554396, 0.014620417, -959702.4, 6429.5977, 0.0, 5.0187187, 4.9567246 
6.393778e+2, 2.0637266e+2, -912477.6, -1006179.0, -4653.2505, 0.004720089, 0.0040793116, -912247.06, 5306.8276, 0.0, 5.0178227, 4.957287 
6.3934517e+2, 2.1132909e+2, -865872.9, -958145.3, -4681.669, 0.0035481122, -0.007167988, -865635.94, 3339.6067, 0.0, 5.0168986, 4.9572954 
6.393126e+2, 2.1628554e+2, -819978.0, -911578.9, -4691.517, 0.0022524134, -0.018246599, -819738.3, 658.66565, 0.0, 5.0159535, 4.9568048 
6.3928026e+2, 2.2123942e+2, -782626.06, -883907.56, -4041.8528, -0.0001755538, -0.011663049, -782465.0, -10617.802, 0.0, 5.015031, 4.9498105 
6.392483e+2, 2.261911e+2, -735573.2, -835297.56, -3794.91, -0.0038949754, 0.0028792797, -735429.0, -12101.573, 0.0, 5.014162, 4.9499454 
6.3921636e+2, 2.3114282e+2, -688718.75, -787082.1, -3606.6604, -0.007585434, 0.017572872, -688586.7, -13778.93, 0.0, 5.0132804, 4.9499507 
6.391844e+2, 2.3609456e+2, -642536.3, -740318.56, -3391.7034, -0.011375941, 0.03247892, -642418.8, -16130.9375, 0.0, 5.0123854, 4.949454 
6.3915277e+2, 2.4104226e+2, -603542.0, -709795.2, -3312.1921, -0.013060814, 0.049618427, -603438.9, -25635.053, 0.0, 5.0115232, 4.9433 
6.391215e+2, 2.4598439e+2, -554806.6, -657676.1, -3851.276, -0.006111082, 0.022951948, -554662.6, -25299.4, 0.0, 5.010679, 4.944586 
6.390902e+2, 2.5092638e+2, -507795.1, -609296.25, -4075.167, 0.001594188, -0.007923448, -507631.75, -26708.102, 0.0, 5.0098124, 4.944599 
6.390589e+2, 2.5586838e+2, -461056.25, -561489.3, -4272.4565, 0.009172227, -0.038461167, -460874.8, -28391.2, 0.0, 5.0089316, 4.9444146 
6.3902766e+2, 2.608084e+2, -423984.25, -535359.7, -3731.465, 0.013707735, -0.03993209, -423859.38, -39793.414, 0.0, 5.008003, 4.9366674 
6.389964e+2, 2.65749e+2, -375219.22, -482245.66, -3348.2507, 0.012040795, -0.020293871, -375114.6, -39461.81, 0.0, 5.00695, 4.938362 
6.389651e+2, 2.706897e+2, -328685.34, -434093.1, -2943.872, 0.010274192, -0.0014668019, -328603.2, -41364.176, 0.0, 5.005875, 4.9383483 
6.3893384e+2, 2.756304e+2, -282218.34, -386076.56, -2515.275, 0.008448223, 0.017549818, -282157.47, -43332.184, 0.0, 5.0047884, 4.9382863 
6.389027e+2, 2.8056487e+2, -250587.55, -372139.72, -1709.4963, 0.0060803485, 0.040853158, -250563.5, -60093.117, 0.0, 5.0036902, 4.926215 
6.3887197e+2, 2.8549075e+2, -202408.31, -320333.72, -1916.6539, 0.0041268803, 0.02217929, -202377.16, -60186.402, 0.0, 5.002609, 4.9274073 
6.388413e+2, 2.904162e+2, -155700.14, -271927.72, -2146.047, 0.0025214246, -0.0017605905, -155660.53, -61746.57, 0.0, 5.0015273, 4.9274144 
6.388106e+2, 2.9534167e+2, -108971.46, -223506.72, -2376.8203, 0.00090894307, -0.0257881, -108922.16, -63284.957, 0.0, 5.000444, 4.9274216 
6.387805e+2, 3.002861e+2, -42210.336, -94979.9, -2795.476, 0.003659722, -0.026757473, -42062.66, -42062.66, 0.0, 4.9993176, 4.9652386 
6.3875246e+2, 3.05258e+2, -38278.9, -79377.43, -3012.2366, 0.021131493, -0.020839075, -38059.297, -38059.297, 0.0, 4.9980583, 4.9714007 
6.387246e+2, 3.1023085e+2, -41828.617, -80853.92, -3439.9348, 0.038981836, -0.015825978, -41527.723, -41527.723, 0.0, 4.996698, 4.971444 
6.386967e+2, 3.1520367e+2, -45645.08, -82465.24, -3984.2983, 0.055594437, -0.012630446, -45218.87, -45218.87, 0.0, 4.9952297, 4.9714885 
6.4492375e+2, 1.2191982e+2, -1664760.6, -1745337.6, 1950.5342, 0.0032177416, 0.0010927649, -1664713.4, 80467.58, 0.0, 5.034, 4.9813437 
6.4489496e+2, 1.2689586e+2, -1622727.0, -1705686.3, 1223.7742, 0.002282139, -0.026828658, -1622708.9, 73706.67, 0.0, 5.032969, 4.978819 
6.4486605e+2, 1.3187549e+2, -1576915.4, -1658322.8, 1162.6636, 0.00031520004, -0.018437626, -1576898.8, 70716.5, 0.0, 5.0319386, 4.978818 
6.448371e+2, 1.3685508e+2, -1533315.6, -1615554.0, 943.0604, -0.001649287, -0.008612512, -1533304.9, 65510.266, 0.0, 5.03091, 4.977287 
6.4480734e+2, 1.4183174e+2, -1492213.8, -1578182.3, -21.633127, -0.0025393595, 0.008235445, -1492213.8, 57830.668, 0.0, 5.0299196, 4.9738636 
6.44777e+2, 1.468056e+2, -1445778.8, -1530005.3, -120.35964, -0.002560452, 0.0046526897, -1445778.6, 55523.434, 0.0, 5.028969, 4.9740605 
6.447466e+2, 1.5177944e+2, -1399615.5, -1482408.4, -130.29825, -0.0026200556, 0.0006797365, -1399615.3, 52944.742, 0.0, 5.0280185, 4.974059 
6.4471626e+2, 1.5675327e+2, -1354839.1, -1437735.4, -213.72923, -0.0026903646, -0.002857516, -1354838.5, 48979.49, 0.0, 5.0270686, 4.9730744 
6.4468515e+2, 1.6172405e+2, -1315036.3, -1403533.5, -1004.31226, -0.003199633, 0.0003651461, -1315024.9, 40080.31, 0.0, 5.0261164, 4.9685793 
6.4465326e+2, 1.6669281e+2, -1268532.4, -1355279.1, -1109.7048, -0.004387075, -0.0012775466, -1268518.1, 37892.69, 0.0, 5.0251555, 4.968768 
6.446214e+2, 1.7166157e+2, -1222282.4, -1307575.4, -1100.5968, -0.0055841734, -0.0029036382, -1222268.3, 35448.082, 0.0, 5.0241942, 4.9687676 
6.4458954e+2, 1.7663036e+2, -1177145.9, -1262251.6, -1063.4929, -0.0068039973, -0.0041497317, -1177132.6, 31889.096, 0.0, 5.0232325, 4.967962 
6.445575e+2, 1.8159603e+2, -1138406.9, -1230800.1, -1452.7449, -0.0070877597, 0.0036173617, -1138384.0, 21974.824, 0.0, 5.0223174, 4.96244 
6.4452535e+2, 1.8655904e+2, -1091413.8, -1182334.9, -1396.4583, -0.0049458155, 0.0060964567, -1091392.3, 20332.326, 0.0, 5.021504, 4.962589 
6.4449316e+2, 1.9152203e+2, -1044604.4, -1134295.5, -1310.2308, -0.002729827, 0.008464818, -1044585.2, 18505.213, 0.0, 5.0206933, 4.9625883 
6.44461e+2, 1.9648504e+2, -998674.44, -1088166.6, -1206.3816, -0.0005065723, 0.01110937, -998658.2, 15798.055, 0.0, 5.019882, 4.961935 
6.4442855e+2, 2.0144472e+2, -958967.5, -1055533.8, -1557.5734, 0.0013832912, 0.01800034, -958942.4, 6910.0435, 0.0, 5.019077, 4.9566684 
6.443955e+2, 2.0640092e+2, -911353.4, -1005942.9, -1896.0144, 0.0023421862, 0.006891046, -911315.4, 5962.253, 0.0, 5.0182824, 4.9571514 
6.443623e+2, 2.1135709e+2, -864372.0, -957743.3, -2063.638, 0.0032286483, -0.005247177, -864326.4, 4376.547, 0.0, 5.017487, 4.957159 
6.4432913e+2, 2.1631324e+2, -818040.06, -910986.56, -2217.627, 0.004116591, -0.017506931, -817987.2, 2141.1243, 0.0, 5.0166917, 4.956667 
6.4429605e+2, 2.212669e+2, -780032.8, -882067.56, -1742.2933, 0.0034545788, -0.013246825, -780003.06, -8422.092, 0.0, 5.0158095, 4.950083 
6.442629e+2, 2.2621877e+2, -733493.0, -833429.25, -1374.5957, -0.00088974857, 0.00005909061, -733474.06, -10417.098, 0.0, 5.014713, 4.9503355 
6.4422995e+2, 2.3117074e+2, -687285.9, -785507.06, -1055.8645, -0.0053970907, 0.013755382, -687274.5, -12741.942, 0.0, 5.0136056, 4.950344 
6.4419687e+2, 2.3612273e+2, -641707.0, -739016.25, -721.906, -0.009954363, 0.027497116, -641701.7, -15693.554, 0.0, 5.0124984, 4.949851 
6.441641e+2, 2.4107063e+2, -603761.3, -709759.94, -348.27036, -0.012423055, 0.044073083, -603760.2, -26239.332, 0.0, 5.011432, 4.943351 
6.4413184e+2, 2.4601293e+2, -555462.3, -658590.2, -758.2246, -0.00685542, 0.02171778, -555456.7, -26375.129, 0.0, 5.0105805, 4.944313 
6.440996e+2, 2.5095502e+2, -508327.3, -610156.9, -996.1363, -0.0004447112, -0.0046429476, -508317.56, -27673.6, 0.0, 5.009752, 4.9443264 
6.440674e+2, 2.558971e+2, -461422.7, -562280.25, -1230.6686, 0.006056244, -0.031202992, -461407.7, -29201.443, 0.0, 5.0089226, 4.944142 
6.440353e+2, 2.608371e+2, -423542.5, -534522.3, -756.6919, 0.010411505, -0.03215739, -423537.34, -39746.676, 0.0, 5.0080323, 4.9369435 
6.4400303e+2, 2.6577756e+2, -374534.13, -480990.47, -514.8366, 0.009722241, -0.017047722, -374531.63, -39155.8, 0.0, 5.0070124, 4.9387727 
6.439708e+2, 2.7071822e+2, -327854.03, -432736.28, -286.67725, 0.00890467, -0.00232546, -327853.25, -40893.69, 0.0, 5.0059896, 4.938771 
6.4393854e+2, 2.7565894e+2, -281207.8, -384602.84, -63.872326, 0.008064804, 0.012796546, -281207.75, -42664.785, 0.0, 5.0049667, 4.938721 
6.439065e+2, 2.8059343e+2, -249708.05, -371204.63, 714.9149, 0.00663282, 0.032796614, -249703.84, -59517.93, 0.0, 5.00392, 4.9264326 
6.438747e+2, 2.8551942e+2, -201825.25, -320096.9, 829.2213, 0.0047264, 0.015371421, -201819.42, -59912.324, 0.0, 5.0028367, 4.9273863 
6.438428e+2, 2.90445e+2, -155123.33, -271722.22, 919.4426, 0.0029912821, -0.0064070337, -155116.08, -61484.78, 0.0, 5.001752, 4.9273853 
6.4381105e+2, 2.953706e+2, -108397.3, -223330.28, 1012.8639, 0.0012451647, -0.028249478, -108388.375, -63032.83, 0.0, 5.0006666, 4.9273844 
6.4377993e+2, 3.003154e+2, -41250.91, -94444.375, 1040.7262, 0.00391208, -0.02548869, -41230.555, -41230.555, 0.0, 4.9996233, 4.9653125 
6.4375085e+2, 3.0528805e+2, -36743.734, -78972.766, 1452.8627, 0.021778192, -0.01139911, -36693.81, -36693.81, 0.0, 4.9986057, 4.971356 
6.4372206e+2, 3.1026155e+2, -39481.605, -80334.91, 1730.5635, 0.040967222, 0.0017785204, -39408.43, -39408.43, 0.0, 4.997556, 4.971328 
6.436931e+2, 3.152348e+2, -42202.31, -81717.04, 2040.609, 0.06004042, 0.013049432, -42097.207, -42097.207, 0.0, 4.996503, 4.9712996 
6.4995754e+2, 1.2194696e+2, -1664222.5, -1744262.5, 1099.7822, 0.0012926776, -0.024632161, -1664207.4, 80707.87, 0.0, 5.0340014, 4.9816985 
6.4992774e+2, 1.2692764e+2, -1622822.9, -1705911.9, 440.45096, 0.00092423375, -0.005630551, -1622820.5, 73283.5, 0.0, 5.032971, 4.978746 
6.498978e+2, 1.3190603e+2, -1577009.9, -1658548.0, 380.33914, -0.0005377605, -0.008745096, -1577008.1, 70307.484, 0.0, 5.031941, 4.9787445 
6.4986783e+2, 1.3688442e+2, -1533410.4, -1615782.5, 163.46997, -0.0020046278, -0.01042146, -1533410.0, 65117.258, 0.0, 5.0309124, 4.9772124 
6.4983714e+2, 1.4186043e+2, -1492225.3, -1578233.4, -752.599, -0.0023763033, 0.00044172688, -1492218.6, 57544.25, 0.0, 5.029922, 4.9738474 
6.4980584e+2, 1.4683458e+2, -1445779.8, -1530033.3, -842.1301, -0.002235838, -0.00026960685, -1445771.4, 55246.555, 0.0, 5.028971, 4.974052 
6.4977455e+2, 1.518087e+2, -1399616.6, -1482436.3, -851.75146, -0.0021421711, -0.0012435835, -1399607.9, 52665.15, 0.0, 5.0280204, 4.9740505 
6.4974326e+2, 1.5678282e+2, -1354848.9, -1437780.9, -939.14197, -0.0020638094, -0.0017805153, -1354838.1, 48690.094, 0.0, 5.0270705, 4.97306 
6.4971125e+2, 1.6175373e+2, -1314993.1, -1403464.1, -1737.4327, -0.002238463, 0.0026399498, -1314959.0, 39855.164, 0.0, 5.0261173, 4.968604 
6.496785e+2, 1.6672234e+2, -1268499.3, -1355226.4, -1841.9701, -0.0027653098, -0.00067258335, -1268460.1, 37661.29, 0.0, 5.025156, 4.9687877 
6.4964575e+2, 1.7169096e+2, -1222250.9, -1307522.3, -1831.7915, -0.0033055474, -0.003985473, -1222211.5, 35216.83, 0.0, 5.0241942, 4.9687877 
6.4961296e+2, 1.7665957e+2, -1177120.9, -1262208.8, -1798.4142, -0.003879335, -0.0069003287, -1177082.9, 31652.402, 0.0, 5.023232, 4.9679785 
6.4957994e+2, 1.8162525e+2, -1138257.1, -1230516.6, -2096.2783, -0.0044683595, 0.000316181, -1138209.5, 21862.855, 0.0, 5.0223207, 4.962535 
6.4954674e+2, 1.8658854e+2, -1091244.1, -1182002.3, -2012.6416, -0.004621436, 0.004630432, -1091199.5, 20235.395, 0.0, 5.021507, 4.962701 
6.4951354e+2, 1.9155186e+2, -1044441.94, -1133965.4, -1923.2802, -0.0047916775, 0.0089740325, -1044400.6, 18396.549, 0.0, 5.0206943, 4.962701 
6.494803e+2, 1.965152e+2, -998519.44, -1087839.3, -1815.7052, -0.004984072, 0.013653851, -998482.56, 15676.939, 0.0, 5.0198812, 4.9620476 
6.4944696e+2, 2.0147504e+2, -959087.7, -1055828.8, -2179.933, -0.00437005, 0.021849813, -959038.56, 6515.604, 0.0, 5.0190806, 4.9565687 
6.494132e+2, 2.06431e+2, -911615.06, -1006527.25, -2499.3423, -0.0012964249, 0.010375345, -911549.25, 5434.0176, 0.0, 5.018283, 4.9569545 
6.493795e+2, 2.1138695e+2, -864647.9, -958332.6, -2658.751, 0.0018265912, -0.002024724, -864572.44, 3840.148, 0.0, 5.0174837, 4.9569616 
6.4934576e+2, 2.1634288e+2, -818330.2, -911581.1, -2804.4832, 0.004894374, -0.014393648, -818245.94, 1595.9456, 0.0, 5.016684, 4.9564695 
6.4931196e+2, 2.2129633e+2, -779663.6, -881299.8, -2544.1108, 0.0060390686, -0.011678147, -779600.0, -8303.245, 0.0, 5.0158143, 4.950345 
6.492778e+2, 2.262483e+2, -732911.7, -832183.4, -2220.199, 0.0020247195, -0.0017458041, -732862.06, -10092.962, 0.0, 5.0147157, 4.950765 
6.492437e+2, 2.3120037e+2, -686733.25, -784279.2, -1887.5751, -0.0023620494, 0.008866719, -686696.75, -12456.313, 0.0, 5.0136023, 4.950772 
6.4920956e+2, 2.3615246e+2, -641182.9, -737805.94, -1539.6344, -0.0068662106, 0.019720284, -641158.3, -15446.741, 0.0, 5.0124884, 4.9502773 
6.4917564e+2, 2.4110055e+2, -603652.25, -709530.75, -1094.9911, -0.009706911, 0.034763943, -603640.94, -26419.877, 0.0, 5.0114326, 4.943432 
6.491424e+2, 2.4604322e+2, -555787.5, -659350.9, -1406.6456, -0.0061959773, 0.01831057, -555768.44, -26986.713, 0.0, 5.010584, 4.9440536 
6.491091e+2, 2.5098568e+2, -508666.13, -610937.0, -1628.2534, -0.002086158, -0.0010866605, -508640.22, -28296.197, 0.0, 5.0097523, 4.9440627 
6.490758e+2, 2.5592816e+2, -461775.0, -563079.8, -1846.4655, 0.0020613535, -0.02056517, -461741.38, -29835.135, 0.0, 5.00892, 4.943873 
6.4904267e+2, 2.6086834e+2, -423245.3, -533824.56, -1519.4142, 0.0051365118, -0.018758595, -423224.44, -39733.39, 0.0, 5.008026, 4.9371915 
6.490095e+2, 2.6580846e+2, -374127.47, -480056.4, -1312.5426, 0.0056030005, -0.010174627, -374111.2, -39034.55, 0.0, 5.007009, 4.939106 
6.489764e+2, 2.707488e+2, -327442.78, -431817.6, -1070.1604, 0.005947813, -0.002123174, -327431.8, -40771.12, 0.0, 5.00599, 4.939099 
6.4894325e+2, 2.7568913e+2, -280791.97, -383699.53, -833.13367, 0.0062346947, 0.00625056, -280785.22, -42540.633, 0.0, 5.004971, 4.9390445 
6.489103e+2, 2.8062335e+2, -249320.47, -370382.28, -99.85429, 0.00600321, 0.020757861, -249320.39, -59432.707, 0.0, 5.003927, 4.9267225 
6.488774e+2, 2.8554976e+2, -201639.95, -319720.63, -3.7074692, 0.004634699, 0.006179376, -201639.95, -60033.23, 0.0, 5.0028415, 4.9275236 
6.4884454e+2, 2.9047593e+2, -154947.16, -271344.28, 91.83296, 0.003228246, -0.011521951, -154947.08, -61618.62, 0.0, 5.0017533, 4.927525 
6.488117e+2, 2.9540205e+2, -108230.234, -222950.69, 190.56786, 0.0018083565, -0.029335024, -108229.914, -63179.625, 0.0, 5.000665, 4.927526 
6.487794e+2, 3.0034754e+2, -40848.727, -93375.836, 310.56598, 0.004086121, -0.021720001, -40846.89, -40846.89, 0.0, 4.9996014, 4.965716 
6.487492e+2, 3.0532116e+2, -36468.906, -77990.89, 758.12866, 0.018888643, -0.0009274129, -36455.07, -36455.07, 0.0, 4.998556, 4.971738 
6.48719e+2, 3.102956e+2, -39222.746, -79263.484, 1084.2654, 0.03429932, 0.01882589, -39193.406, -39193.406, 0.0, 4.9974923, 4.97174 
6.4868873e+2, 3.1526992e+2, -41959.395, -80556.07, 1442.6982, 0.049213853, 0.03681385, -41905.543, -41905.543, 0.0, 4.996425, 4.971741 
6.549912e+2, 1.219752e+2, -1663666.5, -1743151.3, 257.16586, -0.00077503326, -0.039325714, -1663665.6, 80973.06, 0.0, 5.034003, 4.9820642 
6.5496045e+2, 1.2695941e+2, -1622918.9, -1706137.5, -342.53333, -0.00043062202, 0.01545124, -1622917.4, 72875.16, 0.0, 5.0329733, 4.9786725 
6.549296e+2, 1.3193658e+2, -1577104.5, -1658773.4, -401.64618, -0.0013854805, 0.00081613974, -1577102.5, 69913.53, 0.0, 5.031944, 4.978671 
6.548987e+2, 1.3691375e+2, -1533505.3, -1616011.1, -615.84436, -0.0023523238, -0.012376628, -1533500.8, 64738.934, 0.0, 5.0309153, 4.9771376 
6.54867e+2, 1.4188911e+2, -1492238.8, -1578288.9, -1483.9655, -0.0022186788, -0.007321638, -1492213.1, 57268.25, 0.0, 5.029924, 4.9738297 
6.548348e+2, 1.4686354e+2, -1445780.6, -1530061.5, -1564.0577, -0.0019183494, -0.0051427176, -1445751.6, 54982.035, 0.0, 5.028973, 4.9740434 
6.5480256e+2, 1.5183796e+2, -1399617.8, -1482464.4, -1573.3618, -0.0016711755, -0.0031252375, -1399587.9, 52398.117, 0.0, 5.028023, 4.974042 
6.547703e+2, 1.5681238e+2, -1354858.5, -1437826.6, -1664.7389, -0.00144389, -0.00066935126, -1354825.1, 48413.32, 0.0, 5.0270724, 4.973046 
6.5473735e+2, 1.617834e+2, -1314954.1, -1403403.5, -2471.4373, -0.00126198, 0.0049207504, -1314885.1, 39638.203, 0.0, 5.0261188, 4.968626 
6.5470374e+2, 1.6675185e+2, -1268466.0, -1355173.9, -2574.9026, -0.0011365456, -0.0000904958, -1268389.6, 37442.324, 0.0, 5.025157, 4.968807 
6.5467006e+2, 1.7172033e+2, -1222219.4, -1307469.3, -2563.6533, -0.0010311048, -0.0051181926, -1222142.3, 34998.2, 0.0, 5.0241942, 4.968807 
6.5463644e+2, 1.7668878e+2, -1177096.0, -1262166.4, -2534.1326, -0.00097004493, -0.009729805, -1177020.6, 31428.398, 0.0, 5.023232, 4.9679947 
6.5460247e+2, 1.8165447e+2, -1138118.5, -1230256.4, -2734.1067, -0.0018958607, -0.002865029, -1138037.4, 21748.527, 0.0, 5.0223246, 4.9626217 
6.545682e+2, 1.8661807e+2, -1091074.9, -1181669.4, -2630.204, -0.0043664314, 0.0032695716, -1090998.6, 20146.361, 0.0, 5.021509, 4.9628124 
6.5453386e+2, 1.915817e+2, -1044280.06, -1133635.0, -2537.7092, -0.006935024, 0.009523799, -1044208.06, 18295.84, 0.0, 5.020695, 4.9628124 
6.5449965e+2, 1.9654535e+2, -998364.9, -1087511.6, -2426.3674, -0.009555183, 0.016174316, -998298.94, 15563.73, 0.0, 5.019881, 4.962159 
6.544653e+2, 2.0150536e+2, -959242.3, -1056197.5, -2793.3613, -0.010157345, 0.025877852, -959161.94, 6093.9746, 0.0, 5.0190845, 4.956443 
6.5443105e+2, 2.064611e+2, -911877.8, -1007111.56, -3104.6418, -0.004947151, 0.013918609, -911776.7, 4912.2334, 0.0, 5.018284, 4.956756 
6.543967e+2, 2.114168e+2, -864924.8, -958921.94, -3255.8364, 0.00042541936, 0.0010589595, -864812.2, 3310.1663, 0.0, 5.0174804, 4.956763 
6.5436244e+2, 2.1637252e+2, -818621.4, -912175.6, -3393.3123, 0.005686037, -0.011616728, -818498.5, 1057.0897, 0.0, 5.016676, 4.95627 
6.543279e+2, 2.213258e+2, -779367.1, -880692.06, -3321.0994, 0.008449007, -0.0096358275, -779258.44, -8246.252, 0.0, 5.0158195, 4.950551 
6.542927e+2, 2.2627783e+2, -732331.9, -830937.75, -3067.3564, 0.0047537317, -0.0030935837, -732236.56, -9755.858, 0.0, 5.014719, 4.951192 
6.5425754e+2, 2.3123e+2, -686182.2, -783051.5, -2720.8477, 0.00056622416, 0.0040798616, -686105.8, -12157.846, 0.0, 5.013599, 4.9511967 
6.5422225e+2, 2.361822e+2, -640660.2, -736595.8, -2358.9329, -0.0038061978, 0.011690204, -640602.25, -15187.356, 0.0, 5.0124784, 4.9507003 
6.5418726e+2, 2.411305e+2, -603679.0, -709604.44, -1810.9043, -0.007203809, 0.025940118, -603648.06, -26727.025, 0.0, 5.0114336, 4.943407 
6.5415287e+2, 2.4607354e+2, -556114.06, -660111.8, -2050.5623, -0.0057039517, 0.015397585, -556073.6, -27592.002, 0.0, 5.010587, 4.943791 
6.541186e+2, 2.5101638e+2, -509006.2, -611717.4, -2255.8682, -0.0037276049, 0.002510602, -508956.7, -28912.66, 0.0, 5.0097528, 4.9437947 
6.5408427e+2, 2.5595924e+2, -462128.5, -563879.5, -2457.762, -0.0017662578, -0.010339247, -462069.2, -30462.87, 0.0, 5.0089173, 4.9436 
6.540501e+2, 2.6089963e+2, -423077.7, -533419.25, -2276.562, -0.00020356225, -0.0050714, -423030.75, -39839.48, 0.0, 5.0080204, 4.937337 
6.540161e+2, 2.6583943e+2, -373721.22, -479122.78, -2103.9817, 0.0013647698, -0.002835282, -373679.22, -38902.043, 0.0, 5.007006, 4.9394355 
6.53982e+2, 2.7077937e+2, -327031.9, -430899.3, -1847.3804, 0.0029974426, -0.0018464669, -326999.06, -40637.387, 0.0, 5.0059905, 4.9394236 
6.5394795e+2, 2.7571926e+2, -280376.47, -382796.56, -1596.135, 0.004536445, -0.0006125194, -280351.6, -42405.418, 0.0, 5.0049753, 4.939364 
6.53914e+2, 2.806533e+2, -249016.97, -369753.3, -912.77637, 0.005410256, 0.008683549, -249010.06, -59420.633, 0.0, 5.0039344, 4.926944 
6.538801e+2, 2.8558016e+2, -201454.94, -319344.4, -839.2572, 0.0044886526, -0.0028544131, -201448.95, -60142.625, 0.0, 5.0028462, 4.927659 
6.538462e+2, 2.905068e+2, -154771.23, -270966.4, -738.3979, 0.0034388155, -0.016656745, -154766.55, -61740.836, 0.0, 5.001755, 4.9276624 
6.538123e+2, 2.9543343e+2, -108063.4, -222571.11, -634.3497, 0.0023730777, -0.030618422, -108059.89, -63314.676, 0.0, 5.000664, 4.927665 
6.537789e+2, 3.003796e+2, -40498.586, -92416.41, -466.89148, 0.004341984, -0.018586002, -40494.387, -40494.387, 0.0, 4.9995785, 4.966073 
6.537473e+2, 3.0535415e+2, -36200.637, -77002.02, 21.988243, 0.015497045, 0.007846584, -36200.625, -36200.625, 0.0, 4.998506, 4.9721084 
6.537157e+2, 3.1032956e+2, -38970.426, -78185.16, 396.57407, 0.026479103, 0.03328237, -38966.418, -38966.418, 0.0, 4.9974284, 4.97214 
6.536841e+2, 3.1530485e+2, -41723.008, -79388.26, 803.40546, 0.036585424, 0.05709509, -41705.88, -41705.88, 0.0, 4.9963474, 4.9721713 
6.6002494e+2, 1.2200502e+2, -1663923.9, -1742785.1, 100.64275, -0.0022598193, -0.03939771, -1663923.8, 80422.875, 0.0, 5.033812, 4.9822774 
6.5999323e+2, 1.2699087e+2, -1623554.6, -1706571.4, -419.98724, -0.0015911353, 0.03225785, -1623552.5, 71931.72, 0.0, 5.0327873, 4.97862 
6.599613e+2, 1.3196705e+2, -1577737.8, -1659210.3, -435.72665, -0.0020664907, 0.00835457, -1577735.4, 68981.836, 0.0, 5.031759, 4.9786167 
6.5992945e+2, 1.3694322e+2, -1534150.4, -1616461.0, -606.55383, -0.002534001, -0.014213341, -1534145.9, 63804.633, 0.0, 5.030727, 4.9770803 
6.5989685e+2, 1.419181e+2, -1492824.5, -1578591.0, -1390.7397, -0.0019458386, -0.013751284, -1492802.0, 56395.168, 0.0, 5.029729, 4.9738245 
6.5986365e+2, 1.4689276e+2, -1446387.4, -1530354.9, -1441.083, -0.0015757744, -0.009192278, -1446362.6, 54084.465, 0.0, 5.0287666, 4.9740458 
6.5983045e+2, 1.5186742e+2, -1400264.9, -1482776.9, -1430.7822, -0.0012416473, -0.004726606, -1400240.0, 51457.023, 0.0, 5.0278015, 4.9740443 
6.597973e+2, 1.5684207e+2, -1355561.9, -1438179.9, -1506.7803, -0.00091087614, 0.00018647002, -1355534.5, 47412.715, 0.0, 5.026835, 4.9730415 
6.5976346e+2, 1.6181318e+2, -1315582.0, -1403679.1, -2311.5747, -0.00038994322, 0.006747766, -1315521.4, 38709.684, 0.0, 5.0258985, 4.96864 
6.597289e+2, 1.6678151e+2, -1268888.5, -1355356.5, -2463.028, 0.00032922262, 0.0004122752, -1268818.4, 36722.773, 0.0, 5.0250072, 4.968818 
6.596943e+2, 1.7174985e+2, -1222447.6, -1307557.1, -2502.4236, 0.0010414277, -0.0059998175, -1222374.1, 34477.004, 0.0, 5.024111, 4.968818 
6.596598e+2, 1.7671819e+2, -1177153.8, -1262180.3, -2527.1965, 0.0017211912, -0.01203168, -1177078.6, 31082.42, 0.0, 5.023208, 4.9680023 
6.5962493e+2, 1.8168385e+2, -1138024.8, -1230023.9, -2664.1343, 0.0005312026, -0.00534668, -1137947.6, 21550.217, 0.0, 5.0223165, 4.9627037 
6.595896e+2, 1.866477e+2, -1091113.9, -1181427.3, -2559.8076, -0.0039581126, 0.002113182, -1091041.4, 19812.703, 0.0, 5.02144, 4.962926 
6.595543e+2, 1.9161159e+2, -1044522.06, -1133487.0, -2472.0168, -0.0085815415, 0.0096420515, -1044453.4, 17756.57, 0.0, 5.0205555, 4.962927 
6.5951896e+2, 1.965755e+2, -998833.44, -1087467.6, -2360.0527, -0.013256884, 0.017535575, -998770.6, 14795.179, 0.0, 5.0196624, 4.9622746 
6.594838e+2, 2.0153564e+2, -960205.94, -1056925.5, -2672.708, -0.014912174, 0.028566644, -960132.1, 4825.651, 0.0, 5.0188084, 4.956323 
6.5944886e+2, 2.0649125e+2, -912833.75, -1007958.7, -2930.5713, -0.0080880085, 0.016729651, -912743.56, 3650.4263, 0.0, 5.018034, 4.9565816 
6.5941393e+2, 2.1144676e+2, -865816.9, -959743.7, -3026.9746, -0.0009188085, 0.0038147683, -865719.44, 2111.348, 0.0, 5.0172524, 4.9565864 
6.59379e+2, 2.1640229e+2, -819479.7, -912984.44, -3108.2556, 0.0061865104, -0.008963168, -819376.5, -109.00038, 0.0, 5.016461, 4.956091 
6.5934384e+2, 2.213555e+2, -779710.25, -880521.06, -3161.6567, 0.010197698, -0.0067984005, -779611.2, -8885.947, 0.0, 5.015635, 4.950693 
6.5930754e+2, 2.2630757e+2, -732033.9, -829904.06, -3179.5503, 0.0068909423, -0.0035701466, -731930.7, -9740.134, 0.0, 5.0146427, 4.951579 
6.5927124e+2, 2.3125976e+2, -685611.1, -781887.94, -3002.0015, 0.003165944, -0.00031740824, -685517.56, -11863.058, 0.0, 5.0136175, 4.9515867 
6.5923494e+2, 2.3621199e+2, -639876.5, -735327.5, -2786.071, -0.0007077569, 0.003280546, -639795.25, -14677.001, 0.0, 5.012573, 4.9510922 
6.591989e+2, 2.4116045e+2, -603454.25, -709711.0, -2139.6821, -0.00452674, 0.016866297, -603411.2, -26789.512, 0.0, 5.011556, 4.943314 
6.591635e+2, 2.4610388e+2, -556255.4, -660695.0, -2202.5535, -0.0049951845, 0.012384163, -556208.94, -28027.371, 0.0, 5.01064, 4.943564 
6.591281e+2, 2.5104713e+2, -509377.7, -612414.6, -2253.6497, -0.0049985065, 0.0057735983, -509328.4, -29584.965, 0.0, 5.0097246, 4.9435644 
6.590927e+2, 2.5599042e+2, -462744.6, -564692.8, -2291.112, -0.0050318697, -0.00075572846, -462693.13, -31387.871, 0.0, 5.008805, 4.9433665 
6.590575e+2, 2.6093104e+2, -423502.16, -533509.0, -2113.4675, -0.0051861703, 0.008658723, -423461.56, -40571.785, 0.0, 5.007851, 4.9373803 
6.590225e+2, 2.6587048e+2, -373744.97, -478461.78, -2126.5574, -0.0027477487, 0.0048106173, -373701.78, -39225.38, 0.0, 5.006865, 4.9397273 
6.589875e+2, 2.7081e+2, -326983.75, -430203.7, -2025.1074, 0.0001255739, -0.001423518, -326944.06, -40882.203, 0.0, 5.0058746, 4.9397173 
6.5895265e+2, 2.757495e+2, -280284.4, -382075.8, -1903.7396, 0.0029239128, -0.0074593443, -280248.8, -42601.543, 0.0, 5.004875, 4.9396596 
6.589178e+2, 2.806833e+2, -249094.28, -369409.63, -1339.7676, 0.004770266, -0.0029264146, -249079.36, -59788.61, 0.0, 5.0038357, 4.927107 
6.588828e+2, 2.8561062e+2, -201631.53, -319094.7, -1250.1974, 0.0042470703, -0.011391028, -201618.22, -60612.734, 0.0, 5.0027204, 4.9278026 
6.5884787e+2, 2.9053774e+2, -155023.89, -270759.1, -1114.8696, 0.0035979624, -0.02158344, -155013.16, -62290.605, 0.0, 5.001602, 4.9278035 
6.588129e+2, 2.9546487e+2, -108385.07, -222399.72, -990.18195, 0.0029171712, -0.031947583, -108376.48, -63936.707, 0.0, 5.0004873, 4.927805 
6.587784e+2, 3.004116e+2, -40742.316, -91824.42, -831.8798, 0.0046236888, -0.01600553, -40728.773, -40728.773, 0.0, 4.99936, 4.9663787 
6.587454e+2, 3.05387e+2, -36751.742, -76480.95, -447.8259, 0.011804591, 0.014847736, -36746.695, -36746.695, 0.0, 4.998175, 4.972429 
6.587124e+2, 3.103632e+2, -40025.695, -77851.29, -309.3221, 0.018384282, 0.044792615, -40023.164, -40023.164, 0.0, 4.99692, 4.972464 
6.586793e+2, 3.1533933e+2, -43473.133, -79312.97, -256.50082, 0.02405653, 0.07316894, -43471.297, -43471.297, 0.0, 4.995594, 4.972501 
6.6505927e+2, 1.220402e+2, -1661745.8, -1742535.5, 1940.5546, -0.0006440238, -0.014025158, -1661699.3, 82302.42, 0.0, 5.03473, 4.981905 
6.6502625e+2, 1.270227e+2, -1620922.6, -1705082.4, 1516.3197, -0.0018088596, 0.023971776, -1620895.3, 74277.164, 0.0, 5.03364, 4.9786882 
6.6499335e+2, 1.3199934e+2, -1575294.6, -1657821.5, 1566.1893, -0.0018142058, 0.0041768523, -1575264.9, 71136.21, 0.0, 5.032551, 4.978684 
6.6496044e+2, 1.3697594e+2, -1531878.8, -1615161.3, 1473.5912, -0.001782914, -0.014403561, -1531852.8, 65777.516, 0.0, 5.031463, 4.977147 
6.649268e+2, 1.419511e+2, -1490632.4, -1577265.5, 808.98694, -0.0010493196, -0.011711814, -1490624.9, 58249.215, 0.0, 5.0304255, 4.9739203 
6.6489255e+2, 1.4692573e+2, -1444365.8, -1529131.3, 822.6068, -0.0012817697, -0.007958952, -1444357.9, 55765.95, 0.0, 5.0294104, 4.9741354 
6.6485834e+2, 1.519004e+2, -1398397.4, -1481632.8, 889.8621, -0.00152506, -0.004337201, -1398387.8, 52985.74, 0.0, 5.0283957, 4.9741335 
6.6482407e+2, 1.5687501e+2, -1353847.1, -1437127.5, 870.3008, -0.0017464745, -0.00025734093, -1353838.1, 48785.395, 0.0, 5.0273814, 4.973125 
6.647893e+2, 1.6184613e+2, -1314054.9, -1402975.5, 191.37743, -0.0012028482, 0.006093863, -1314054.5, 39853.156, 0.0, 5.0264363, 4.968612 
6.6475403e+2, 1.6681448e+2, -1267292.3, -1354673.8, 30.081926, 0.00023732542, 0.00086979615, -1267292.3, 37925.906, 0.0, 5.025581, 4.968768 
6.647187e+2, 1.7178285e+2, -1220733.3, -1306820.8, -37.279743, 0.0016766312, -0.0044265375, -1220733.3, 35795.31, 0.0, 5.024726, 4.968768 
6.6468334e+2, 1.7675121e+2, -1175309.6, -1261394.9, -95.29405, 0.00309349, -0.009379131, -1175309.5, 32529.412, 0.0, 5.0238705, 4.9679484 
6.6464764e+2, 1.8171686e+2, -1135943.3, -1228656.5, -261.54324, 0.0024278024, -0.0030428474, -1135942.5, 23233.453, 0.0, 5.022964, 4.962854 
6.646114e+2, 1.8668057e+2, -1089355.0, -1180150.0, -112.05472, -0.0017561837, 0.0015629871, -1089354.9, 21177.373, 0.0, 5.0219646, 4.9631057 
6.6457516e+2, 1.916443e+2, -1043103.0, -1132372.4, 28.055468, -0.0060564373, 0.006132885, -1043103.0, 18785.25, 0.0, 5.020963, 4.963108 
6.6453886e+2, 1.9660804e+2, -997727.44, -1086503.0, 189.88033, -0.010388178, 0.0109949745, -997727.06, 15517.173, 0.0, 5.0199614, 4.962457 
6.6450274e+2, 2.015682e+2, -959505.6, -1056381.0, 48.485332, -0.012353352, 0.020679718, -959505.56, 5130.2456, 0.0, 5.0190163, 4.9564056 
6.644668e+2, 2.0652425e+2, -912266.2, -1007671.44, -52.60439, -0.007639109, 0.013761846, -912266.2, 3802.82, 0.0, 5.0182376, 4.956581 
6.64431e+2, 2.1148024e+2, -865223.56, -959453.3, -54.831367, -0.002594321, 0.0060300343, -865223.56, 2279.161, 0.0, 5.017466, 4.9565835 
6.643951e+2, 2.1643624e+2, -818831.0, -912679.9, -41.62524, 0.0024842818, -0.0017323263, -818831.0, 105.4581, 0.0, 5.0166945, 4.956086 
6.64359e+2, 2.2138965e+2, -778920.3, -879931.06, -101.65429, 0.0056041926, 0.0023688925, -778920.2, -8527.203, 0.0, 5.015879, 4.9507813 
6.6432196e+2, 2.2634125e+2, -731009.6, -829274.6, -311.05164, 0.0042941007, 0.0008909702, -731008.6, -9146.561, 0.0, 5.014983, 4.9516377 
6.642849e+2, 2.3129292e+2, -684209.94, -781073.56, -362.1702, 0.002830568, -0.0011151108, -684208.56, -10878.331, 0.0, 5.0140853, 4.951651 
6.6424793e+2, 2.3624462e+2, -638042.44, -734306.0, -400.25235, 0.0013550735, -0.003138992, -638040.75, -13242.472, 0.0, 5.0131874, 4.951163 
6.6421103e+2, 2.4119277e+2, -601182.5, -708016.94, 127.32015, -0.00057482306, 0.005986636, -601182.3, -24878.262, 0.0, 5.012232, 4.9435916 
6.6417456e+2, 2.4613686e+2, -554507.6, -659343.9, 361.96777, -0.0020910508, 0.0060635037, -554506.4, -26648.615, 0.0, 5.011157, 4.9437995 
6.64138e+2, 2.5108084e+2, -508099.5, -611273.44, 605.9734, -0.003409018, 0.005052281, -508095.94, -28683.248, 0.0, 5.0100784, 4.943801 
6.641015e+2, 2.5602484e+2, -461918.1, -563754.1, 853.6745, -0.0047265063, 0.0041187196, -461910.94, -30943.352, 0.0, 5.009, 4.9436045 
6.640651e+2, 2.6096594e+2, -423145.94, -533038.6, 1325.8187, -0.0058209733, 0.016401859, -423129.94, -40582.223, 0.0, 5.007925, 4.9375076 
6.640291e+2, 2.6590502e+2, -373656.34, -478488.4, 1176.8821, -0.0040478553, 0.00932898, -373643.13, -39505.14, 0.0, 5.0069184, 4.939691 
6.639931e+2, 2.708441e+2, -326908.8, -430202.63, 1052.2463, -0.0018341972, -0.00022650613, -326898.1, -41170.695, 0.0, 5.00592, 4.939692 
6.639571e+2, 2.7578324e+2, -280199.44, -382034.4, 923.8638, 0.000389632, -0.009553432, -280191.06, -42874.46, 0.0, 5.004921, 4.939646 
6.639212e+2, 2.807169e+2, -248750.81, -368626.28, 1263.3406, 0.0021147795, -0.0072509367, -248737.5, -59775.633, 0.0, 5.0038605, 4.92736 
6.638851e+2, 2.8564468e+2, -201506.89, -318245.16, 1442.5212, 0.0023412846, -0.013725678, -201489.08, -60816.645, 0.0, 5.0026326, 4.928132 
6.6384906e+2, 2.9057235e+2, -155242.86, -270097.16, 1727.914, 0.0024058516, -0.02142393, -155216.86, -62831.934, 0.0, 5.0013933, 4.928123 
6.6381294e+2, 2.955e+2, -108953.78, -221926.98, 2014.3932, 0.0023910836, -0.029230602, -108917.875, -64820.21, 0.0, 5.0001535, 4.9281135 
6.6377723e+2, 3.0044726e+2, -41430.95, -91047.32, 2276.169, 0.0034505583, -0.01153735, -41326.746, -41326.746, 0.0, 4.9988966, 4.966872 
6.6374266e+2, 3.0542275e+2, -37807.79, -76139.57, 2870.633, 0.0073742997, 0.016809639, -37594.004, -37594.004, 0.0, 4.9975963, 4.972846 
6.637082e+2, 3.1039885e+2, -41265.793, -77814.25, 3311.1924, 0.011563081, 0.043383528, -40968.23, -40968.23, 0.0, 4.996286, 4.9728184 
6.6367364e+2, 3.153748e+2, -44704.906, -79511.01, 3778.452, 0.015823882, 0.06807238, -44299.45, -44299.45, 0.0, 4.9949737, 4.9727907 
6.70094e+2, 1.220761e+2, -1662166.6, -1743439.4, 1068.079, 0.00056203164, 0.0048055653, -1662152.6, 81496.91, 0.0, 5.034734, 4.981609 
6.7005974e+2, 1.2705556e+2, -1620795.6, -1704863.5, 689.4814, -0.0019793012, 0.011640357, -1620790.0, 74060.72, 0.0, 5.0336432, 4.978761 
6.700258e+2, 1.3203289e+2, -1575169.5, -1657603.3, 740.5554, -0.0014827037, -0.0018824241, -1575162.8, 70909.88, 0.0, 5.0325537, 4.9787574 
6.699919e+2, 1.3701017e+2, -1531751.9, -1614935.6, 659.41547, -0.0009562564, -0.014184624, -1531746.6, 65548.414, 0.0, 5.031466, 4.977223 
6.699572e+2, 1.4198576e+2, -1490476.1, -1576965.6, 32.196724, -0.00015049704, -0.00810842, -1490476.1, 58058.492, 0.0, 5.0304265, 4.974021 
6.699219e+2, 1.4696038e+2, -1444221.0, -1528853.1, 52.48907, -0.0011192912, -0.005710379, -1444220.9, 55563.38, 0.0, 5.0294113, 4.9742293 
6.698866e+2, 1.5193498e+2, -1398253.5, -1481356.0, 120.00686, -0.0021011583, -0.0034907, -1398253.4, 52780.734, 0.0, 5.0283966, 4.9742274 
6.6985124e+2, 1.5690956e+2, -1353712.1, -1436868.4, 99.30551, -0.0030650892, -0.00080373837, -1353712.0, 48572.07, 0.0, 5.0273824, 4.973213 
6.698155e+2, 1.6188066e+2, -1314121.9, -1403148.5, -478.22357, -0.0025700869, 0.005231059, -1314119.3, 39449.04, 0.0, 5.0264387, 4.9685545 
6.697794e+2, 1.6684909e+2, -1267390.4, -1354907.8, -622.18646, -0.0003018496, 0.001515068, -1267385.9, 37493.098, 0.0, 5.025583, 4.9686904 
6.697433e+2, 1.7181754e+2, -1220834.1, -1307054.6, -687.6436, 0.0019477047, -0.0022120776, -1220828.6, 35360.875, 0.0, 5.024727, 4.968691 
6.6970724e+2, 1.7678598e+2, -1175419.4, -1261641.6, -751.219, 0.0041565625, -0.0055630663, -1175412.8, 32087.28, 0.0, 5.023871, 4.9678664 
6.6967064e+2, 1.8175164e+2, -1135717.9, -1228200.1, -1003.8591, 0.004188234, 0.00044370955, -1135707.0, 23130.3, 0.0, 5.0229654, 4.9630094 
6.696335e+2, 1.8671514e+2, -1089090.6, -1179598.8, -871.5215, 0.00076476176, 0.0011745563, -1089082.3, 21111.664, 0.0, 5.0219646, 4.9632945 
6.695963e+2, 1.9167864e+2, -1042847.3, -1131824.8, -727.5825, -0.0027910767, 0.0018739192, -1042841.3, 18709.09, 0.0, 5.020961, 4.9632974 
6.695591e+2, 1.9664218e+2, -997480.4, -1085959.1, -561.23846, -0.006405553, 0.002938533, -997476.8, 15429.983, 0.0, 5.019957, 4.962646 
6.69522e+2, 2.0160237e+2, -959380.06, -1056168.5, -607.1935, -0.008627577, 0.011252413, -959376.25, 4921.484, 0.0, 5.0190234, 4.956476 
6.6948503e+2, 2.06559e+2, -912229.1, -1007638.06, -643.1347, -0.0067209043, 0.010075015, -912224.8, 3501.7078, 0.0, 5.0182424, 4.9565926 
6.694481e+2, 2.1151562e+2, -865204.06, -959427.7, -636.38293, -0.0046611815, 0.008603777, -865199.75, 1955.7351, 0.0, 5.0174665, 4.956595 
6.694111e+2, 2.1647224e+2, -818829.2, -912662.44, -614.1855, -0.0026188926, 0.007243132, -818825.2, -240.72548, 0.0, 5.01669, 4.9560966 
6.6937405e+2, 2.2142598e+2, -778863.75, -879831.3, -787.20325, -0.000992411, 0.014058571, -778857.6, -8818.797, 0.0, 5.015881, 4.9508166 
6.6933644e+2, 2.2637698e+2, -731051.7, -829384.75, -997.1436, 0.0003109954, 0.0069227885, -731041.56, -9527.999, 0.0, 5.0149837, 4.9516025 
6.6929877e+2, 2.3132803e+2, -684267.6, -781197.6, -1036.6628, 0.0016064517, -0.0008926767, -684256.56, -11268.838, 0.0, 5.014082, 4.9516134 
6.692611e+2, 2.3627907e+2, -638115.7, -734443.9, -1063.0746, 0.0028443453, -0.008589409, -638104.0, -13642.281, 0.0, 5.0131803, 4.9511228 
6.6922355e+2, 2.4122691e+2, -600774.2, -707126.3, -686.5386, 0.0029672147, -0.0037455163, -600769.75, -24799.41, 0.0, 5.012233, 4.9439015 
6.691859e+2, 2.4617168e+2, -554047.75, -658346.9, -478.22885, 0.0008117841, -0.000036855992, -554045.56, -26529.1, 0.0, 5.0111594, 4.94415 
6.691482e+2, 2.5111645e+2, -507652.44, -610294.75, -221.46133, -0.0014238802, 0.0035124833, -507651.94, -28588.928, 0.0, 5.0100794, 4.9441476 
6.691105e+2, 2.5606123e+2, -461483.66, -562793.56, 39.03105, -0.0036913953, 0.007185167, -461483.66, -30874.117, 0.0, 5.008999, 4.9439473 
6.690729e+2, 2.610028e+2, -422996.84, -532692.5, 537.6582, -0.005496033, 0.021724882, -422994.22, -40809.93, 0.0, 5.007921, 4.9376326 
6.6903585e+2, 2.6594162e+2, -373819.88, -478862.88, 404.56946, -0.004688606, 0.012699354, -373818.3, -40040.082, 0.0, 5.0069165, 4.9395647 
6.689987e+2, 2.7088037e+2, -327062.97, -430582.44, 286.38013, -0.0036105548, 0.0012178136, -327062.16, -41690.137, 0.0, 5.0059214, 4.939563 
6.689616e+2, 2.7581915e+2, -280344.2, -382419.63, 164.44667, -0.0025599657, -0.010105439, -280343.9, -43378.23, 0.0, 5.0049257, 4.939513 
6.6892457e+2, 2.8075263e+2, -248417.38, -367919.63, 364.1475, -0.0014555037, -0.009224357, -248416.27, -59802.98, 0.0, 5.0038652, 4.9276104 
6.688873e+2, 2.8568098e+2, -201031.27, -317194.28, 490.91635, -0.0004708488, -0.013791648, -201029.2, -60710.598, 0.0, 5.002636, 4.9285064 
6.688501e+2, 2.9060924e+2, -154772.81, -269047.47, 777.7654, 0.00037507236, -0.019169023, -154767.52, -62742.26, 0.0, 5.001395, 4.9284983 
6.688129e+2, 2.955375e+2, -108489.32, -220878.5, 1065.6991, 0.0011331702, -0.024670558, -108479.21, -64747.063, 0.0, 5.000155, 4.92849 
6.687758e+2, 3.0048528e+2, -40762.68, -89458.31, 1302.3894, 0.0015401663, -0.0064071696, -40727.87, -40727.87, 0.0, 4.998887, 4.967462 
6.687396e+2, 3.0546066e+2, -37194.293, -74528.336, 1945.3268, 0.0015348288, 0.015572039, -37093.203, -37093.203, 0.0, 4.9975667, 4.973456 
6.687035e+2, 3.104366e+2, -40680.52, -76148.31, 2431.8408, 0.0015124499, 0.035242926, -40514.56, -40514.56, 0.0, 4.9962416, 4.9734483 
6.686673e+2, 3.154124e+2, -44147.875, -77790.35, 2945.0034, 0.0013661236, 0.053311173, -43892.02, -43892.02, 0.0, 4.994915, 4.97344 
6.751287e+2, 1.2211103e+2, -1662450.6, -1744063.5, 196.9178, 0.0010614262, 0.013835279, -1662450.1, 80856.96, 0.0, 5.0347376, 4.9814043 
6.7509323e+2, 1.2708841e+2, -1620668.8, -1704644.8, -137.69179, -0.002142165, -0.00055778015, -1620668.5, 73860.27, 0.0, 5.033647, 4.978834 
6.750583e+2, 1.3206646e+2, -1575044.4, -1657385.0, -85.41362, -0.0011453152, -0.007831122, -1575044.3, 70699.83, 0.0, 5.032557, 4.9788303 
6.750233e+2, 1.3704443e+2, -1531625.3, -1614710.4, -155.16864, -0.00012513371, -0.013877741, -1531625.0, 65334.87, 0.0, 5.031469, 4.9772987 
6.749876e+2, 1.4202045e+2, -1490322.0, -1576670.6, -745.1452, 0.0007394677, -0.004503791, -1490315.6, 57879.54, 0.0, 5.030428, 4.97412 
6.749512e+2, 1.4699501e+2, -1444075.9, -1528575.3, -717.5026, -0.0009673518, -0.0034813536, -1444069.9, 55374.977, 0.0, 5.0294123, 4.9743233 
6.749148e+2, 1.5196955e+2, -1398109.6, -1481079.5, -649.7224, -0.0026887269, -0.0026749964, -1398104.5, 52590.15, 0.0, 5.0283976, 4.974321 
6.7487836e+2, 1.569441e+2, -1353576.8, -1436609.5, -671.6168, -0.0043960987, -0.0013921651, -1353571.4, 48373.234, 0.0, 5.027384, 4.973301 
6.748417e+2, 1.619152e+2, -1314199.0, -1403342.8, -1145.3074, -0.0039401385, 0.004448479, -1314184.4, 39044.727, 0.0, 5.0264416, 4.9684896 
6.748048e+2, 1.668837e+2, -1267488.6, -1355141.9, -1275.4067, -0.0008520715, 0.002220786, -1267470.1, 37069.727, 0.0, 5.025585, 4.968612 
6.74768e+2, 1.7185223e+2, -1220935.3, -1307288.5, -1338.9595, 0.0022012887, 0.000023658973, -1220914.5, 34935.98, 0.0, 5.024728, 4.9686127 
6.747311e+2, 1.7682077e+2, -1175529.6, -1261889.3, -1408.2123, 0.0051957048, -0.0017648606, -1175506.6, 31654.525, 0.0, 5.023871, 4.967784 
6.7469364e+2, 1.8178639e+2, -1135500.9, -1227762.0, -1743.8132, 0.0059245904, 0.004007202, -1135468.0, 23030.473, 0.0, 5.022967, 4.963158 
6.7465556e+2, 1.8674968e+2, -1088826.8, -1179047.6, -1632.3809, 0.0032496364, 0.0007887057, -1088797.1, 21058.412, 0.0, 5.021964, 4.963483 
6.7461747e+2, 1.9171299e+2, -1042591.9, -1131277.3, -1484.6144, 0.0004301681, -0.0024819279, -1042567.06, 18645.506, 0.0, 5.0209584, 4.9634857 
6.745793e+2, 1.9667633e+2, -997233.56, -1085415.4, -1313.7156, -0.002475086, -0.0053141806, -997214.0, 15355.332, 0.0, 5.019953, 4.9628344 
6.7454123e+2, 2.0163655e+2, -959308.9, -1056073.4, -1245.6427, -0.005027458, 0.0022063374, -959292.9, 4666.5415, 0.0, 5.0190306, 4.9565063 
6.745032e+2, 2.0659378e+2, -912193.3, -1007604.5, -1235.6036, -0.005930117, 0.006723089, -912177.3, 3206.4487, 0.0, 5.0182476, 4.9566026 
6.7446524e+2, 2.1155103e+2, -865185.8, -959401.9, -1219.8748, -0.0068258196, 0.011296757, -865170.0, 1638.1222, 0.0, 5.0174665, 4.956604 
6.7442715e+2, 2.1650828e+2, -818828.6, -912644.75, -1188.6879, -0.0077902353, 0.016122328, -818813.56, -581.19824, 0.0, 5.0166855, 4.956105 
6.743891e+2, 2.2146232e+2, -778876.2, -879882.9, -1455.0623, -0.00770278, 0.026080547, -778855.2, -9170.707, 0.0, 5.0158834, 4.9507985 
6.7435086e+2, 2.2641271e+2, -731094.7, -829495.2, -1682.1134, -0.0037250638, 0.013145384, -731065.94, -9901.058, 0.0, 5.014984, 4.951565 
6.7431265e+2, 2.3136312e+2, -684326.3, -781321.94, -1710.036, 0.00041958864, -0.0007981542, -684296.2, -11651.018, 0.0, 5.014079, 4.951573 
6.742743e+2, 2.3631352e+2, -638189.9, -734581.94, -1724.7798, 0.004461018, -0.014486206, -638159.06, -14033.895, 0.0, 5.0131736, 4.95108 
6.74236e+2, 2.4126107e+2, -600478.56, -706487.75, -1480.2433, 0.0063503277, -0.013024502, -600457.9, -24821.59, 0.0, 5.0122337, 4.9441233 
6.7419714e+2, 2.4620654e+2, -553588.6, -657350.44, -1314.8082, 0.0035491888, -0.005591517, -553572.0, -26397.17, 0.0, 5.011162, 4.944497 
6.7415833e+2, 2.5115207e+2, -507206.06, -609316.6, -1045.2839, 0.00052494573, 0.0021655087, -507195.34, -28482.262, 0.0, 5.01008, 4.9444914 
6.741195e+2, 2.5609758e+2, -461049.9, -561833.5, -772.0053, -0.0025635804, 0.010091847, -461044.0, -30792.648, 0.0, 5.008998, 4.9442873 
6.740807e+2, 2.610397e+2, -422933.44, -532539.3, -249.01073, -0.005228551, 0.02717746, -422932.88, -41112.1, 0.0, 5.007917, 4.9376903 
6.740425e+2, 2.6597822e+2, -373983.8, -479237.22, -363.25354, -0.0054223742, 0.016291996, -373982.56, -40564.11, 0.0, 5.0069146, 4.939437 
6.740043e+2, 2.7091664e+2, -327217.47, -430962.16, -474.99646, -0.005407323, 0.0027159618, -327215.28, -42198.633, 0.0, 5.005923, 4.939432 
6.739661e+2, 2.7585503e+2, -280489.28, -382804.66, -590.4808, -0.005457429, -0.010771921, -280485.88, -43871.027, 0.0, 5.004931, 4.9393797 
6.739279e+2, 2.807884e+2, -248112.8, -367279.44, -539.42523, -0.0050052134, -0.011248499, -248110.36, -59845.598, 0.0, 5.003871, 4.927837 
6.738896e+2, 2.8571728e+2, -200555.61, -316143.8, -461.96924, -0.003325237, -0.013854846, -200553.75, -60588.926, 0.0, 5.0026393, 4.9288797 
6.7385113e+2, 2.9064614e+2, -154302.7, -267998.16, -173.66396, -0.0017127455, -0.016962642, -154302.44, -62636.77, 0.0, 5.0013976, 4.9288726 
6.7381275e+2, 2.95575e+2, -108024.78, -219830.4, 115.724106, -0.0001965537, -0.020210292, -108024.664, -64657.906, 0.0, 5.000156, 4.928865 
6.737744e+2, 3.0052322e+2, -40136.02, -87960.51, 302.21204, -0.00026340067, -0.0017872467, -40134.11, -40134.11, 0.0, 4.998878, 4.9680123 
6.737365e+2, 3.0549845e+2, -36584.27, -72914.06, 989.69403, -0.0044880267, 0.012685692, -36557.33, -36557.33, 0.0, 4.9975376, 4.974053 
6.736986e+2, 3.1047422e+2, -40098.707, -74479.414, 1522.1539, -0.009154821, 0.024423858, -40031.45, -40031.45, 0.0, 4.9961977, 4.9740653 
6.736607e+2, 3.154499e+2, -43594.29, -76066.8, 2081.2095, -0.014141068, 0.034842834, -43461.445, -43461.445, 0.0, 4.9948564, 4.974077 
6.801632e+2, 1.2214469e+2, -1663351.5, -1744931.5, 269.8382, 0.00027836784, 0.008241746, -1663350.6, 79626.56, 0.0, 5.0345263, 4.9812236 
6.801268e+2, 1.2712175e+2, -1621252.0, -1704790.0, -63.506023, -0.0020809472, -0.009988877, -1621252.0, 72950.46, 0.0, 5.03342, 4.9788976 
6.800908e+2, 1.3210033e+2, -1575681.5, -1657550.4, -57.072037, -0.0007330222, -0.012272044, -1575681.5, 69730.984, 0.0, 5.0323114, 4.978895 
6.8005466e+2, 1.3707888e+2, -1532322.8, -1614893.4, -159.03549, 0.00066332374, -0.01324276, -1532322.5, 64300.33, 0.0, 5.031201, 4.9773684 
6.8001795e+2, 1.4205523e+2, -1490988.8, -1576772.9, -732.41907, 0.0016261945, -0.001316075, -1490982.5, 56872.184, 0.0, 5.0301557, 4.9742184 
6.7998046e+2, 1.4702974e+2, -1444687.1, -1528661.4, -715.89685, -0.000602971, -0.0016359653, -1444681.0, 54423.387, 0.0, 5.0291605, 4.9744163 
6.7994297e+2, 1.5200424e+2, -1398664.4, -1481140.3, -668.0649, -0.002853032, -0.0021909005, -1398658.9, 51695.37, 0.0, 5.0281644, 4.9744134 
6.7990553e+2, 1.5697873e+2, -1354087.8, -1436663.5, -711.42175, -0.0050983015, -0.0022593706, -1354081.6, 47522.74, 0.0, 5.027168, 4.9733877 
6.7986786e+2, 1.6194983e+2, -1314886.0, -1403783.5, -1065.1256, -0.0047102137, 0.003524535, -1314873.3, 38015.527, 0.0, 5.02623, 4.9684434 
6.798302e+2, 1.6691844e+2, -1268230.0, -1355624.5, -1126.6915, -0.0011215521, 0.0027304487, -1268215.4, 35984.008, 0.0, 5.025357, 4.9685583 
6.797925e+2, 1.7188706e+2, -1221738.4, -1307801.8, -1132.2839, 0.0024694009, 0.0019286018, -1221723.5, 33786.543, 0.0, 5.0244784, 4.9685583 
6.797548e+2, 1.7685567e+2, -1176418.0, -1262456.6, -1152.7423, 0.006034454, 0.0015039297, -1176402.6, 30418.135, 0.0, 5.023595, 4.9677234 
6.797165e+2, 1.8182129e+2, -1136097.1, -1227751.6, -1550.8717, 0.0073265308, 0.0071649817, -1136070.9, 22087.12, 0.0, 5.022702, 4.963287 
6.7967755e+2, 1.8678439e+2, -1089094.0, -1178803.8, -1585.8301, 0.005357213, 0.00048972125, -1089066.0, 20449.834, 0.0, 5.0217953, 4.963645 
6.7963856e+2, 1.917475e+2, -1042601.94, -1130912.3, -1559.8301, 0.0032962584, -0.0064219283, -1042574.4, 18299.023, 0.0, 5.020878, 4.963648 
6.795995e+2, 1.9671062e+2, -997019.25, -1084944.9, -1504.0908, 0.0011818587, -0.012981914, -996993.56, 15237.399, 0.0, 5.0199494, 4.962997 
6.795605e+2, 2.0167089e+2, -959232.0, -1056002.9, -1352.2798, -0.0016073597, -0.0058398643, -959213.1, 4407.065, 0.0, 5.019048, 4.9565215 
6.7952144e+2, 2.0662867e+2, -912313.4, -1007576.1, -1243.6211, -0.0050654053, 0.0037651584, -912297.1, 2743.0742, 0.0, 5.018186, 4.9566393 
6.794823e+2, 2.1158648e+2, -865566.0, -959490.4, -1139.363, -0.008578487, 0.0134822875, -865552.2, 908.0051, 0.0, 5.0173144, 4.9566417 
6.7944324e+2, 2.165443e+2, -819496.94, -912860.44, -1011.6923, -0.012157605, 0.023442822, -819485.94, -1605.9589, 0.0, 5.016433, 4.9561443 
6.794042e+2, 2.2149864e+2, -779851.4, -880448.75, -1250.7509, -0.013500816, 0.03648587, -779835.8, -10505.854, 0.0, 5.015569, 4.950746 
6.793653e+2, 2.2644852e+2, -731862.94, -829950.6, -1570.0752, -0.007299165, 0.018691488, -731837.8, -11022.358, 0.0, 5.0147367, 4.951519 
6.793264e+2, 2.3139833e+2, -684909.3, -781701.25, -1660.8535, -0.0006727286, -0.0007133574, -684880.8, -12579.469, 0.0, 5.013896, 4.9515243 
6.7928755e+2, 2.3634817e+2, -638616.2, -734895.7, -1730.2346, 0.0058990135, -0.01994987, -638585.1, -14798.02, 0.0, 5.0130467, 4.951028 
6.792484e+2, 2.4129544e+2, -600516.75, -706185.7, -1614.2272, 0.009134318, -0.02078583, -600492.1, -25191.684, 0.0, 5.012157, 4.9442625 
6.7920846e+2, 2.4624155e+2, -553214.2, -656402.1, -1557.2723, 0.005827496, -0.010071573, -553190.7, -26358.96, 0.0, 5.0111384, 4.944836 
6.791684e+2, 2.5118777e+2, -506708.4, -608311.25, -1321.7184, 0.0023133147, 0.0010287152, -506691.22, -28328.816, 0.0, 5.0101004, 4.944832 
6.791284e+2, 2.56134e+2, -460462.88, -560783.9, -1063.5793, -0.0012629044, 0.012325804, -460451.6, -30558.566, 0.0, 5.009052, 4.9446287 
6.7908865e+2, 2.6107657e+2, -422753.84, -532465.3, -510.4412, -0.0047558383, 0.03185722, -422751.47, -41294.02, 0.0, 5.0079827, 4.937688 
6.7904925e+2, 2.660148e+2, -374098.22, -479586.28, -616.5071, -0.0060152756, 0.019476542, -374094.6, -41035.945, 0.0, 5.006931, 4.9393086 
6.7901e+2, 2.709529e+2, -327504.3, -431388.75, -729.8625, -0.007007636, 0.0040264083, -327499.2, -42838.156, 0.0, 5.0058765, 4.939304 
6.7897063e+2, 2.75891e+2, -280970.66, -383316.97, -836.00995, -0.008057452, -0.011386239, -280963.8, -44700.418, 0.0, 5.004814, 4.9392514 
6.7893136e+2, 2.808242e+2, -248341.05, -366926.34, -928.02795, -0.008259171, -0.012885586, -248333.8, -60418.42, 0.0, 5.0036983, 4.9280376 
6.788917e+2, 2.8575364e+2, -200545.2, -315315.84, -951.0065, -0.0060172277, -0.01367052, -200537.31, -60926.83, 0.0, 5.002482, 4.929242 
6.788522e+2, 2.9068303e+2, -154240.27, -267144.63, -725.90155, -0.0037186735, -0.014736617, -154235.6, -62929.785, 0.0, 5.00126, 4.9292364 
6.7881256e+2, 2.9561245e+2, -107914.22, -218952.1, -498.95462, -0.0015049552, -0.015919792, -107911.98, -64910.645, 0.0, 5.0000367, 4.9292307 
6.787729e+2, 3.005611e+2, -39903.594, -86772.11, -500.4591, -0.0018461007, 0.0022332089, -39898.25, -39898.25, 0.0, 4.998757, 4.9684935 
6.7873335e+2, 3.0553603e+2, -36548.387, -71687.01, -105.71215, -0.010195481, 0.008454137, -36548.07, -36548.07, 0.0, 4.9973335, 4.974576 
6.786937e+2, 3.1051153e+2, -40428.69, -73370.96, 39.03465, -0.019297596, 0.011658682, -40428.65, -40428.65, 0.0, 4.9958687, 4.9745936 
6.7865413e+2, 3.15487e+2, -44399.418, -75113.02, 126.276665, -0.028724814, 0.013835459, -44398.9, -44398.9, 0.0, 4.994364, 4.974612 
6.851976e+2, 1.2217914e+2, -1660769.8, -1743423.1, 2332.009, -0.003666411, -0.022614375, -1660704.0, 81935.65, 0.0, 5.03535, 4.9813104 
6.8516046e+2, 1.2715971e+2, -1618982.9, -1703583.5, 2027.716, -0.0013005218, -0.00560883, -1618934.3, 74896.39, 0.0, 5.0341735, 4.9789205 
6.851232e+2, 1.321382e+2, -1573618.0, -1656442.1, 2022.9067, -0.00012757815, -0.009010411, -1573568.6, 71473.55, 0.0, 5.0329976, 4.9789205 
6.850861e+2, 1.3711666e+2, -1530443.9, -1613860.0, 1925.3315, 0.0011295864, -0.011005964, -1530399.5, 65854.3, 0.0, 5.0318236, 4.9774003 
6.850483e+2, 1.4209291e+2, -1489088.8, -1575550.5, 1449.1711, 0.0025535543, -0.0003917423, -1489064.5, 58422.1, 0.0, 5.0307474, 4.97433 
6.850099e+2, 1.4706737e+2, -1442880.8, -1527501.5, 1490.8561, 0.001092208, -0.0019747664, -1442854.5, 55881.77, 0.0, 5.029725, 4.9745226 
6.849715e+2, 1.5204182e+2, -1396940.4, -1480026.1, 1557.4718, -0.00040477072, -0.0037340506, -1396911.3, 53074.918, 0.0, 5.028703, 4.9745193 
6.8493307e+2, 1.5701626e+2, -1352445.3, -1435603.5, 1536.2516, -0.0019113696, -0.004981663, -1352416.9, 48819.215, 0.0, 5.0276823, 4.973489 
6.848944e+2, 1.6198745e+2, -1313297.0, -1402695.6, 1324.6459, -0.0018344849, 0.0008589255, -1313277.4, 39242.055, 0.0, 5.0267167, 4.968567 
6.8485564e+2, 1.6695632e+2, -1266770.5, -1354609.0, 1372.3867, 0.000085721316, 0.0017121756, -1266749.0, 37078.516, 0.0, 5.0258026, 4.968679 
6.8481696e+2, 1.7192519e+2, -1220389.4, -1306845.6, 1470.8871, 0.0020385152, 0.002522116, -1220364.4, 34771.313, 0.0, 5.0248885, 4.968678 
6.847782e+2, 1.7689402e+2, -1175170.6, -1261569.1, 1549.2651, 0.0040050982, 0.003659432, -1175142.9, 31301.088, 0.0, 5.0239744, 4.967836 
6.8473893e+2, 1.8185973e+2, -1135015.6, -1227195.8, 1227.7366, 0.004813884, 0.009577511, -1134999.3, 22781.496, 0.0, 5.0230803, 4.9632897 
6.846993e+2, 1.8682265e+2, -1087879.1, -1178294.6, 1094.1563, 0.004219068, 0.0018730414, -1087865.9, 21275.299, 0.0, 5.022243, 4.9636016 
6.8465954e+2, 1.9178556e+2, -1041151.0, -1130295.3, 998.50946, 0.0035876562, -0.006138526, -1041139.8, 19361.617, 0.0, 5.0214067, 4.9636045 
6.8461984e+2, 1.9674848e+2, -995301.6, -1084207.8, 929.3686, 0.0029360752, -0.013917198, -995291.9, 16569.79, 0.0, 5.0205703, 4.9629536 
6.8457997e+2, 2.0170866e+2, -957100.1, -1054376.1, 1014.7297, 0.0010898391, -0.007990214, -957089.56, 6161.955, 0.0, 5.019672, 4.9567795 
6.845399e+2, 2.066667e+2, -910540.2, -1005988.3, 1300.0897, -0.002593995, 0.0013593574, -910522.44, 4145.1445, 0.0, 5.018661, 4.9569545 
6.844998e+2, 2.1162474e+2, -864200.4, -958089.56, 1574.9408, -0.0063431193, 0.010792535, -864173.94, 1909.5852, 0.0, 5.0176477, 4.95696 
6.8445975e+2, 2.165828e+2, -818508.0, -911632.4, 1864.626, -0.010116057, 0.020345276, -818470.7, -971.2253, 0.0, 5.0166345, 4.956465 
6.8441975e+2, 2.215373e+2, -779500.06, -880127.6, 1848.3843, -0.011775228, 0.03288437, -779466.1, -10518.711, 0.0, 5.015676, 4.9507995 
6.843799e+2, 2.2648728e+2, -731604.1, -830099.25, 1539.275, -0.00700154, 0.017648667, -731580.06, -11145.959, 0.0, 5.0148973, 4.9513893 
6.8434006e+2, 2.3143716e+2, -684446.7, -781764.56, 1377.1603, -0.0018182272, 0.00097297947, -684427.2, -12505.832, 0.0, 5.014128, 4.9513927 
6.843003e+2, 2.3638706e+2, -637924.56, -734864.7, 1229.356, 0.003417795, -0.015772486, -637908.94, -14500.389, 0.0, 5.013359, 4.950894 
6.8426025e+2, 2.4133438e+2, -599234.7, -705072.75, 1246.3142, 0.006204741, -0.01584213, -599220.0, -24297.547, 0.0, 5.0125184, 4.9444804 
6.842194e+2, 2.4628049e+2, -551697.0, -654970.4, 1274.7333, 0.0042208224, -0.0078045777, -551681.3, -25229.125, 0.0, 5.0115438, 4.945146 
6.841786e+2, 2.512267e+2, -505018.78, -606783.0, 1477.1863, 0.002138435, 0.00049521006, -504997.34, -27016.3, 0.0, 5.0105658, 4.9451485 
6.8413776e+2, 2.5617293e+2, -458571.66, -559145.6, 1682.4183, 0.000048105983, 0.008980031, -458543.53, -29033.736, 0.0, 5.0095873, 4.944953 
6.84097e+2, 2.6111552e+2, -421031.22, -531407.3, 2191.005, -0.0023647125, 0.026430702, -420987.75, -39914.797, 0.0, 5.0085535, 4.9377966 
6.840564e+2, 2.6605386e+2, -372927.38, -479142.47, 2126.1313, -0.0045428253, 0.015908647, -372884.8, -40210.64, 0.0, 5.007378, 4.939262 
6.8401587e+2, 2.709921e+2, -326699.13, -431095.53, 2076.9382, -0.00658588, 0.0028152408, -326657.8, -42381.305, 0.0, 5.006193, 4.9392614 
6.839753e+2, 2.7593035e+2, -280506.75, -383161.7, 2025.2173, -0.008616738, -0.010200376, -280466.8, -44588.047, 0.0, 5.005008, 4.9392138 
6.839347e+2, 2.8086376e+2, -247849.6, -366229.38, 1940.4172, -0.009470822, -0.009795214, -247817.8, -60288.027, 0.0, 5.003801, 4.928228 
6.838939e+2, 2.8579342e+2, -200017.61, -314422.44, 1864.2925, -0.007111651, -0.010263094, -199987.23, -60765.473, 0.0, 5.0025625, 4.9295125 
6.8385315e+2, 2.9072312e+2, -153762.89, -266275.44, 2032.334, -0.0046132905, -0.011026114, -153726.2, -62812.438, 0.0, 5.001324, 4.9295077 
6.838124e+2, 2.956528e+2, -107484.59, -218105.06, 2200.5352, -0.0021560097, -0.011811137, -107440.836, -64834.97, 0.0, 5.0000854, 4.929503 
6.8377143e+2, 3.0060148e+2, -39791.25, -86527.73, 1874.9243, -0.0025101104, 0.0050517973, -39716.156, -39716.156, 0.0, 4.998778, 4.9685717 
6.837304e+2, 3.055756e+2, -36898.188, -72144.18, 1813.1692, -0.010792125, 0.004674258, -36805.16, -36805.16, 0.0, 4.997272, 4.9744506 
6.836894e+2, 3.105502e+2, -40982.434, -74032.09, 1587.9933, -0.019260962, 0.0011615609, -40906.305, -40906.305, 0.0, 4.9957485, 4.97443 
6.8364835e+2, 3.155247e+2, -45056.227, -75934.23, 1384.5833, -0.027489841, -0.0031302061, -44994.266, -44994.266, 0.0, 4.9942236, 4.9744086 
6.902325e+2, 1.2221684e+2, -1660387.9, -1742689.4, 1409.801, -0.0060645766, -0.035911217, -1660363.8, 81906.69, 0.0, 5.0353537, 4.9815526 
6.901946e+2, 1.2719941e+2, -1618957.5, -1703578.6, 1135.2191, -0.000609298, 0.0007593914, -1618942.4, 74499.97, 0.0, 5.0341773, 4.9789233 
6.901561e+2, 1.321777e+2, -1573592.6, -1656436.9, 1131.7976, 0.00037423839, -0.0045757415, -1573577.1, 71078.8, 0.0, 5.0330014, 4.9789233 
6.901177e+2, 1.3715596e+2, -1530409.8, -1613834.8, 1055.629, 0.0014323358, -0.008501395, -1530396.5, 65473.344, 0.0, 5.0318274, 4.97741 
6.90079e+2, 1.4213207e+2, -1488932.6, -1575264.5, 667.1251, 0.0034055556, 0.00023530808, -1488927.4, 58176.383, 0.0, 5.0307503, 4.9744263 
6.9003963e+2, 1.4710651e+2, -1442731.0, -1527223.9, 715.57733, 0.0029315858, -0.0026208959, -1442725.0, 55628.426, 0.0, 5.0297275, 4.974617 
6.900003e+2, 1.5208094e+2, -1396793.6, -1479749.9, 783.21356, 0.0024094926, -0.0056001847, -1396786.3, 52816.766, 0.0, 5.0287046, 4.9746137 
6.89961e+2, 1.5705535e+2, -1352305.5, -1435337.0, 764.59393, 0.001866559, -0.008049397, -1352298.4, 48554.37, 0.0, 5.0276833, 4.9735804 
6.899213e+2, 1.6202666e+2, -1313092.6, -1402293.9, 623.7473, 0.0015440879, -0.002048335, -1313088.3, 39046.246, 0.0, 5.0267186, 4.968702 
6.8988144e+2, 1.6699584e+2, -1266569.1, -1354205.9, 676.9173, 0.0013613817, 0.00056185224, -1266563.9, 36875.535, 0.0, 5.0258036, 4.9688153 
6.8984157e+2, 1.7196502e+2, -1220193.1, -1306445.0, 777.22406, 0.0011839619, 0.0031725238, -1220186.1, 34558.15, 0.0, 5.024888, 4.9688144 
6.898017e+2, 1.7693418e+2, -1174987.8, -1261189.4, 847.8586, 0.0009968745, 0.006153185, -1174979.4, 31069.787, 0.0, 5.023973, 4.967966 
6.897615e+2, 1.819e+2, -1135084.1, -1227378.8, 570.3987, 0.0011444078, 0.012596807, -1135080.6, 22304.68, 0.0, 5.0230837, 4.963228 
6.897211e+2, 1.868627e+2, -1088020.6, -1178622.4, 455.09067, 0.0022252535, 0.0039769295, -1088018.3, 20730.457, 0.0, 5.0222445, 4.9634924 
6.896808e+2, 1.9182542e+2, -1041301.7, -1130626.6, 364.797, 0.0032583992, -0.004836094, -1041300.2, 18811.94, 0.0, 5.0214057, 4.963495 
6.8964046e+2, 1.9678815e+2, -995461.5, -1084543.0, 301.48117, 0.0042335866, -0.013325403, -995460.5, 16014.891, 0.0, 5.0205665, 4.9628434 
6.8959975e+2, 2.017483e+2, -956696.9, -1053533.9, 255.74431, 0.0034667775, -0.008433631, -956696.2, 6169.5415, 0.0, 5.019674, 4.957067 
6.895586e+2, 2.067065e+2, -910042.1, -1004925.0, 530.3152, 0.0001147133, -0.0007139844, -910039.2, 4238.5034, 0.0, 5.018661, 4.9573197 
6.895176e+2, 2.1166477e+2, -863718.3, -957037.56, 812.21674, -0.0033506588, 0.0071850526, -863711.25, 1978.1217, 0.0, 5.0176444, 4.9573236 
6.8947655e+2, 2.1662304e+2, -818042.2, -910592.44, 1108.9329, -0.0068759653, 0.015305396, -818028.94, -927.9675, 0.0, 5.016628, 4.956827 
6.8943554e+2, 2.215777e+2, -779472.5, -880118.4, 1183.8655, -0.008788354, 0.027089017, -779458.56, -10911.941, 0.0, 5.0156817, 4.9508023 
6.893947e+2, 2.265279e+2, -731819.0, -830625.56, 943.0575, -0.006121856, 0.01570518, -731810.0, -11776.184, 0.0, 5.014903, 4.9512095 
6.8935394e+2, 2.3147802e+2, -684673.7, -782301.3, 789.9038, -0.0032201172, 0.0034040234, -684667.3, -13145.876, 0.0, 5.0141306, 4.9512105 
6.893131e+2, 2.3642816e+2, -638163.7, -735411.9, 651.12036, -0.00030669416, -0.008872514, -638159.3, -15150.328, 0.0, 5.013358, 4.9507103 
6.8927217e+2, 2.4137564e+2, -598959.6, -704473.0, 519.1149, 0.0014446969, -0.007094012, -598957.06, -24434.408, 0.0, 5.012518, 4.94469 
6.892305e+2, 2.4632157e+2, -551326.94, -654163.94, 523.35986, 0.0013703089, -0.0034389778, -551324.3, -25272.35, 0.0, 5.011544, 4.945429 
6.891889e+2, 2.5126758e+2, -504652.0, -605988.0, 732.19293, 0.0012788872, 0.00023099504, -504646.72, -27066.21, 0.0, 5.0105667, 4.9454284 
6.891473e+2, 2.562136e+2, -458208.13, -558361.9, 943.83374, 0.0011541205, 0.0040752348, -458199.22, -29090.23, 0.0, 5.0095887, 4.94523 
6.8910563e+2, 2.611561e+2, -420893.6, -531105.5, 1331.6742, 0.00016037656, 0.018350925, -420877.5, -40205.715, 0.0, 5.0085516, 4.9379053 
6.890638e+2, 2.6609474e+2, -372965.16, -479243.97, 1212.5013, -0.0027969978, 0.010747135, -372951.34, -40679.688, 0.0, 5.0073767, 4.939231 
6.8902194e+2, 2.710333e+2, -326730.72, -431202.34, 1167.1295, -0.0058527854, 0.0011111719, -326717.7, -42845.16, 0.0, 5.0061946, 4.939228 
6.889801e+2, 2.7597183e+2, -280532.16, -383273.8, 1119.2377, -0.008939542, -0.008495811, -280519.94, -45046.566, 0.0, 5.005012, 4.939178 
6.8893826e+2, 2.8090551e+2, -247619.98, -365766.53, 993.1586, -0.010571331, -0.0055618663, -247611.64, -60489.086, 0.0, 5.0038056, 4.928393 
6.8889624e+2, 2.8583542e+2, -199717.02, -313789.78, 913.72174, -0.008139259, -0.0059213685, -199709.7, -60898.293, 0.0, 5.002567, 4.929739 
6.888543e+2, 2.9076532e+2, -153464.95, -265643.97, 1082.0851, -0.0055308407, -0.0067187794, -153454.53, -62954.316, 0.0, 5.001328, 4.9297347 
6.888122e+2, 2.9569525e+2, -107189.32, -217474.78, 1250.6079, -0.0029744233, -0.007534594, -107175.14, -64986.023, 0.0, 5.0000887, 4.92973 
6.8876994e+2, 3.0064386e+2, -39868.094, -86753.55, 787.4759, -0.0032161856, 0.0074598663, -39854.87, -39854.87, 0.0, 4.998778, 4.9684963 
6.8872756e+2, 3.05617e+2, -37271.52, -72961.43, 712.87714, -0.01058963, -0.00022746812, -37257.285, -37257.285, 0.0, 4.997258, 4.974165 
6.886851e+2, 3.1059048e+2, -41385.676, -74816.164, 518.9317, -0.018267091, -0.0111987805, -41377.62, -41377.62, 0.0, 4.9957223, 4.974158 
6.886427e+2, 3.1556395e+2, -45489.387, -76685.125, 346.74246, -0.025894355, -0.022695277, -45485.53, -45485.53, 0.0, 4.9941845, 4.97415 
6.9526774e+2, 1.22256406e+2, -1660042.5, -1742030.5, 477.19495, -0.0062861987, -0.030570058, -1660039.8, 81843.234, 0.0, 5.0353575, 4.98177 
6.952287e+2, 1.272391e+2, -1618932.4, -1703573.9, 242.42175, 0.00006827258, 0.007136955, -1618931.8, 74122.195, 0.0, 5.0341816, 4.9789257 
6.9518906e+2, 1.322172e+2, -1573567.4, -1656431.6, 240.38858, 0.0008603506, -0.0001560341, -1573566.8, 70703.04, 0.0, 5.033005, 4.9789257 
6.951495e+2, 1.3719526e+2, -1530385.6, -1613829.8, 185.45308, 0.0017175798, -0.006036163, -1530385.3, 65100.547, 0.0, 5.0318313, 4.977412 
6.951096e+2, 1.4217126e+2, -1488777.1, -1574980.1, -114.96349, 0.0042639594, 0.0008918445, -1488777.0, 57944.02, 0.0, 5.030753, 4.9745216 
6.950694e+2, 1.4714566e+2, -1442581.4, -1526946.4, -60.038437, 0.0047786324, -0.0032519791, -1442581.3, 55389.17, 0.0, 5.02973, 4.9747105 
6.950292e+2, 1.5212004e+2, -1396647.0, -1479473.9, 8.618008, 0.0052326377, -0.007475893, -1396647.0, 52572.92, 0.0, 5.0287066, 4.9747076 
6.949889e+2, 1.5709442e+2, -1352167.5, -1435074.3, -7.4987426, 0.005654573, -0.011151286, -1352167.5, 48301.984, 0.0, 5.027684, 4.97367 
6.9494826e+2, 1.6206588e+2, -1312890.9, -1401897.3, -74.44546, 0.0048774835, -0.0048791156, -1312890.8, 38858.777, 0.0, 5.0267205, 4.968835 
6.9490725e+2, 1.6703537e+2, -1266368.0, -1353802.8, -19.27562, 0.0025768853, -0.0005380018, -1266368.0, 36683.2, 0.0, 5.0258045, 4.968951 
6.9486624e+2, 1.7200485e+2, -1219997.1, -1306044.3, 82.83717, 0.0002591415, 0.0038360136, -1219997.0, 34355.746, 0.0, 5.024888, 4.9689503 
6.948252e+2, 1.7697436e+2, -1174804.5, -1260808.6, 145.59605, -0.002091694, 0.008622682, -1174804.3, 30850.018, 0.0, 5.023972, 4.9680963 
6.9478405e+2, 1.8194026e+2, -1135179.4, -1227618.6, -79.62808, -0.0025450392, 0.015768502, -1135179.4, 21810.395, 0.0, 5.0230875, 4.963147 
6.9474304e+2, 1.8690278e+2, -1088162.8, -1178950.1, -185.12775, 0.00022691743, 0.0061449716, -1088162.4, 20193.896, 0.0, 5.022246, 4.963382 
6.94702e+2, 1.918653e+2, -1041453.1, -1130958.1, -270.06918, 0.0029373895, -0.0035928434, -1041452.3, 18270.564, 0.0, 5.0214043, 4.963384 
6.9466096e+2, 1.9682783e+2, -995622.4, -1084878.6, -327.6023, 0.0055521014, -0.012916032, -995621.2, 15468.017, 0.0, 5.0205626, 4.9627323 
6.9461954e+2, 2.0178795e+2, -956322.6, -1052755.0, -492.3304, 0.005734673, -0.00858785, -956320.1, 6159.498, 0.0, 5.0196757, 4.9573317 
6.9457746e+2, 2.0674635e+2, -909544.9, -1003862.06, -240.16269, 0.0027295847, -0.0025857089, -909544.25, 4343.2485, 0.0, 5.018661, 4.957683 
6.945354e+2, 2.117048e+2, -863236.94, -955985.94, 48.785866, -0.00040535405, 0.0035894043, -863236.94, 2058.0376, 0.0, 5.017641, 4.957686 
6.9449335e+2, 2.1666327e+2, -817577.06, -909552.9, 352.52884, -0.0036363846, 0.010087707, -817575.75, -873.4475, 0.0, 5.016621, 4.9571877 
6.9445133e+2, 2.2161812e+2, -779529.56, -880295.3, 542.08356, -0.0059722755, 0.021667205, -779526.7, -11381.043, 0.0, 5.0156875, 4.9507403 
6.9440955e+2, 2.2656852e+2, -732034.94, -831151.9, 348.1396, -0.005382158, 0.014094171, -732033.7, -12400.359, 0.0, 5.014909, 4.9510274 
6.9436777e+2, 2.315189e+2, -684901.75, -782838.06, 203.94557, -0.0046705934, 0.005932968, -684901.3, -13779.916, 0.0, 5.014133, 4.9510264 
6.943259e+2, 2.3646927e+2, -638403.8, -735959.0, 74.18185, -0.0039884443, -0.0021090342, -638403.75, -15794.364, 0.0, 5.013357, 4.9505243 
6.94284e+2, 2.4141692e+2, -598734.25, -703984.1, -200.37534, -0.0033910123, 0.0018448659, -598733.9, -24611.133, 0.0, 5.0125175, 4.9448614 
6.9424164e+2, 2.4636267e+2, -550957.1, -653358.0, -224.76697, -0.0015231697, 0.0010854058, -550956.6, -25305.094, 0.0, 5.0115447, 4.9457097 
6.941992e+2, 2.513085e+2, -504285.47, -605193.4, -9.555947, 0.0004606296, -0.000051574418, -504285.47, -27105.602, 0.0, 5.0105677, 4.945707 
6.941568e+2, 2.5625432e+2, -457844.78, -557578.5, 208.4917, 0.0023856165, -0.0010249241, -457844.34, -29136.207, 0.0, 5.0095906, 4.945506 
6.9411427e+2, 2.611967e+2, -420805.4, -530914.9, 468.82632, 0.0026316657, 0.010354813, -420803.4, -40532.86, 0.0, 5.00855, 4.9379754 
6.940712e+2, 2.6613566e+2, -373003.3, -479345.28, 302.69266, -0.0011457698, 0.0057596522, -373002.44, -41133.4, 0.0, 5.0073757, 4.939199 
6.94028e+2, 2.710745e+2, -326762.66, -431308.97, 261.14255, -0.0051647644, -0.00049949373, -326762.0, -43293.508, 0.0, 5.006196, 4.939194 
6.939849e+2, 2.7601334e+2, -280557.88, -383385.72, 217.08, -0.009257938, -0.0067784055, -280557.4, -45489.41, 0.0, 5.0050163, 4.9391413 
6.939418e+2, 2.809473e+2, -247400.08, -365326.03, 44.500294, -0.011666723, -0.0013508908, -247400.06, -60684.72, 0.0, 5.003811, 4.9285502 
6.938985e+2, 2.858774e+2, -199416.39, -313157.3, -37.25198, -0.009194339, -0.0016049331, -199416.38, -61015.313, 0.0, 5.002571, 4.929965 
6.938553e+2, 2.9080752e+2, -153166.98, -265012.66, 131.43358, -0.006491877, -0.00245014, -153166.83, -63080.152, 0.0, 5.001332, 4.9299607 
6.93812e+2, 2.9573768e+2, -106894.0, -216844.63, 300.2782, -0.0038523234, -0.0033101405, -106893.18, -65120.785, 0.0, 5.0000925, 4.929957 
6.937685e+2, 3.006862e+2, -39981.668, -87060.266, -315.03256, -0.0037859753, 0.009682135, -39979.56, -39979.56, 0.0, 4.9987783, 4.968387 
6.937247e+2, 3.0565828e+2, -37648.12, -73775.664, -409.78876, -0.010399452, -0.0059428005, -37643.473, -37643.473, 0.0, 4.997245, 4.9738717 
6.9368076e+2, 3.106307e+2, -41792.195, -75597.23, -572.50323, -0.017542902, -0.02502478, -41782.5, -41782.5, 0.0, 4.995696, 4.973878 
6.936369e+2, 3.156031e+2, -45925.82, -77433.01, -713.4717, -0.024825633, -0.044377413, -45909.67, -45909.67, 0.0, 4.9941454, 4.973884 
7.0030284e+2, 1.22297816e+2, -1661162.5, -1742403.8, 336.19815, -0.006905368, -0.009051169, -1661161.1, 80316.21, 0.0, 5.034946, 4.9818487 
7.0026267e+2, 1.272788e+2, -1619935.3, -1704054.9, 286.52026, 0.00051505683, 0.011658053, -1619934.3, 72730.85, 0.0, 5.033843, 4.978933 
7.002219e+2, 1.3225679e+2, -1574338.6, -1656799.3, 273.6841, 0.0011567931, 0.0032540683, -1574337.8, 69544.61, 0.0, 5.032743, 4.9789324 
7.001811e+2, 1.3723475e+2, -1530967.6, -1614125.3, 228.62825, 0.0018911876, -0.0038516026, -1530967.0, 64132.883, 0.0, 5.0316358, 4.97741 
7.001403e+2, 1.4221063e+2, -1489099.9, -1574940.6, -22.481733, 0.005008929, 0.0017544482, -1489099.9, 57236.18, 0.0, 5.0306005, 4.9746094 
7.000991e+2, 1.47185e+2, -1442907.1, -1526921.9, -27.222778, 0.0063609323, -0.003513375, -1442907.1, 54678.47, 0.0, 5.0295796, 4.974792 
7.000579e+2, 1.5215935e+2, -1396973.1, -1479443.3, -16.77061, 0.0076578287, -0.008866337, -1396973.1, 51861.98, 0.0, 5.0285554, 4.9747906 
7.0001674e+2, 1.571337e+2, -1352507.6, -1435053.9, -84.91758, 0.00892883, -0.013693922, -1352507.5, 47577.19, 0.0, 5.02753, 4.973751 
6.99975e+2, 1.6210526e+2, -1313194.9, -1401725.3, -93.41093, 0.007763169, -0.007223912, -1313194.8, 38168.543, 0.0, 5.02655, 4.968974 
6.9993293e+2, 1.6707501e+2, -1266742.1, -1353653.8, -28.366444, 0.0036973055, -0.0015592513, -1266742.1, 35919.81, 0.0, 5.0256066, 4.969095 
6.9989085e+2, 1.7204478e+2, -1220463.8, -1305938.9, 86.824196, -0.0003864858, 0.004118839, -1220463.6, 33496.813, 0.0, 5.024658, 4.9690948 
6.998488e+2, 1.7701456e+2, -1175388.3, -1260772.0, 154.94139, -0.00450853, 0.01020703, -1175388.0, 29871.016, 0.0, 5.023704, 4.9682345 
6.9980663e+2, 1.8198057e+2, -1136123.6, -1228244.9, 32.92024, -0.0054212515, 0.01809726, -1136123.6, 20470.088, 0.0, 5.0227985, 4.963071 
6.997649e+2, 1.8694293e+2, -1089079.0, -1179594.8, -38.164963, -0.0013177533, 0.0079262685, -1089079.0, 18883.871, 0.0, 5.0219727, 4.963291 
6.997232e+2, 1.919053e+2, -1042345.75, -1131590.1, -87.05006, 0.0027820421, -0.0024480226, -1042345.7, 16986.41, 0.0, 5.0211387, 4.963293 
6.9968146e+2, 1.9686767e+2, -996518.4, -1085510.5, -105.33193, 0.0068258615, -0.012468206, -996518.25, 14182.869, 0.0, 5.020296, 4.9626403 
6.9963914e+2, 2.0182781e+2, -956715.75, -1052399.1, -359.92963, 0.0077253836, -0.008254789, -956714.44, 5377.039, 0.0, 5.019432, 4.9575653 
6.995961e+2, 2.0678636e+2, -909526.7, -1003083.1, -277.14835, 0.0050359615, -0.003998281, -909525.9, 3969.8333, 0.0, 5.0185103, 4.9580173 
6.9955313e+2, 2.1174495e+2, -862969.9, -955093.06, -119.21988, 0.002295847, 0.0001975153, -862969.75, 1929.8741, 0.0, 5.0175767, 4.9580207 
6.9951016e+2, 2.1670356e+2, -817095.3, -908561.75, 64.87201, -0.00050457433, 0.004653857, -817095.25, -791.8766, 0.0, 5.016632, 4.957522 
6.994672e+2, 2.2165856e+2, -779543.7, -880522.2, 358.8274, -0.0032671217, 0.016246365, -779542.44, -11797.649, 0.0, 5.0157247, 4.9506454 
6.994244e+2, 2.266092e+2, -732322.75, -831629.1, 291.081, -0.0046167425, 0.012446357, -732321.94, -13089.354, 0.0, 5.0148745, 4.9508786 
6.9938153e+2, 2.3155981e+2, -685416.44, -783415.7, 266.5009, -0.0058791228, 0.0081653735, -685415.7, -14694.9795, 0.0, 5.014019, 4.950878 
6.9933873e+2, 2.3651044e+2, -639160.7, -736641.44, 266.31998, -0.0071766507, 0.004013307, -639159.94, -16951.133, 0.0, 5.013158, 4.9503765 
6.992959e+2, 2.4145827e+2, -599256.8, -703922.0, -44.05511, -0.0077594384, 0.010322733, -599256.8, -25535.27, 0.0, 5.0122743, 4.9449916 
6.9925267e+2, 2.4640386e+2, -551164.06, -652873.56, -238.38055, -0.004185721, 0.0054426976, -551163.5, -25913.408, 0.0, 5.011356, 4.9459624 
6.992095e+2, 2.5134945e+2, -504347.06, -604645.25, -161.87885, -0.00030001655, -0.00030976135, -504346.8, -27568.383, 0.0, 5.01043, 4.9459596 
6.991663e+2, 2.5629508e+2, -457782.84, -556975.4, -68.69729, 0.0035470454, -0.005943628, -457782.78, -29476.084, 0.0, 5.0094967, 4.945759 
6.9912285e+2, 2.612374e+2, -420895.9, -530878.2, -3.201998, 0.0047746594, 0.0029355516, -420895.9, -41027.066, 0.0, 5.0085006, 4.9380116 
6.990785e+2, 2.661766e+2, -373027.25, -479411.66, -177.54622, 0.00027624363, 0.0011753123, -373026.94, -41560.914, 0.0, 5.0073757, 4.939178 
6.990341e+2, 2.7111572e+2, -326682.34, -431330.0, -177.39412, -0.004485533, -0.001979578, -326682.06, -43617.98, 0.0, 5.006233, 4.9391723 
6.9898975e+2, 2.7605483e+2, -280409.66, -383377.78, -174.69649, -0.009330377, -0.005142672, -280409.34, -45747.176, 0.0, 5.0050783, 4.9391193 
6.989453e+2, 2.8098908e+2, -246994.08, -364814.84, -371.9468, -0.012375123, 0.0026751151, -246992.89, -60685.21, 0.0, 5.0038886, 4.928699 
6.989008e+2, 2.859194e+2, -198885.98, -312434.1, -512.05286, -0.010007275, 0.0024924092, -198883.67, -60893.19, 0.0, 5.002664, 4.930183 
6.988564e+2, 2.9084975e+2, -152607.19, -264273.38, -401.22128, -0.0073265494, 0.0015573634, -152605.75, -62932.664, 0.0, 5.0014358, 4.9301805 
6.988119e+2, 2.9578006e+2, -106315.11, -216093.78, -285.27353, -0.004687765, 0.0006103066, -106314.37, -64958.61, 0.0, 5.000204, 4.930178 
6.9876707e+2, 3.0072853e+2, -39817.156, -87331.586, -1133.0417, -0.0041441545, 0.011598059, -39790.152, -39790.152, 0.0, 4.9989023, 4.9682326 
6.987218e+2, 3.0569956e+2, -37637.33, -74470.9, -1415.4407, -0.010008809, -0.012001395, -37583.016, -37583.016, 0.0, 4.9973907, 4.9735456 
6.9867647e+2, 3.1067088e+2, -41802.277, -76258.75, -1740.94, -0.01663314, -0.03938289, -41714.54, -41714.54, 0.0, 4.9958377, 4.973561 
6.986311e+2, 3.1564218e+2, -46035.94, -78088.2, -2067.7307, -0.023521634, -0.06693575, -45903.1, -45903.1, 0.0, 4.994256, 4.973576 
7.0533735e+2, 1.22342594e+2, -1659087.5, -1740752.4, 1765.876, -0.011010549, 0.013804537, -1659049.4, 81989.15, 0.0, 5.035523, 4.982102 
7.052965e+2, 1.2732115e+2, -1618116.5, -1702997.0, 2413.9507, -0.00017316637, 0.01000858, -1618047.9, 74201.93, 0.0, 5.0344343, 4.978985 
7.052546e+2, 1.3229929e+2, -1572453.6, -1655714.9, 2436.8267, 0.0005805798, 0.0029114706, -1572382.4, 71083.12, 0.0, 5.0333586, 4.978984 
7.0521283e+2, 1.3727738e+2, -1529004.9, -1613035.3, 2453.8604, 0.0014584542, -0.0029773416, -1528933.3, 65748.2, 0.0, 5.0322843, 4.977448 
7.05171e+2, 1.4225332e+2, -1487065.8, -1573824.6, 2238.9458, 0.0047987257, 0.003071154, -1487008.0, 58909.453, 0.0, 5.0312757, 4.974645 
7.051287e+2, 1.4722769e+2, -1440995.6, -1525900.4, 2207.9229, 0.006126501, -0.0019692539, -1440938.3, 56229.387, 0.0, 5.030223, 4.9748135 
7.050865e+2, 1.5220205e+2, -1395154.6, -1478464.1, 2196.0173, 0.007411427, -0.007093188, -1395096.9, 53320.93, 0.0, 5.0291686, 4.9748144 
7.050443e+2, 1.571764e+2, -1350776.0, -1434118.3, 2106.3162, 0.008683194, -0.0117312055, -1350722.8, 48945.22, 0.0, 5.0281157, 4.973775 
7.0500165e+2, 1.62148e+2, -1311288.3, -1400194.8, 2159.5728, 0.007893293, -0.006098387, -1311235.9, 39710.484, 0.0, 5.0270863, 4.969223 
7.049586e+2, 1.6711777e+2, -1265059.5, -1352227.4, 2304.8484, 0.004602142, -0.0024138775, -1264998.5, 37244.938, 0.0, 5.0260677, 4.9693475 
7.049156e+2, 1.7208755e+2, -1218990.1, -1304616.3, 2496.5088, 0.0012839531, 0.001301155, -1218917.5, 34623.15, 0.0, 5.025049, 4.969347 
7.048726e+2, 1.7705733e+2, -1174112.9, -1259562.1, 2631.338, -0.0020747073, 0.0054373397, -1174032.0, 30805.758, 0.0, 5.0240307, 4.968481 
7.048296e+2, 1.8202347e+2, -1135203.1, -1227591.4, 2730.5764, -0.0029749777, 0.013260387, -1135122.5, 21048.293, 0.0, 5.023086, 4.9631467 
7.0478684e+2, 1.8698621e+2, -1088192.5, -1179046.5, 2749.5588, -0.00014097137, 0.006711914, -1088109.4, 19428.291, 0.0, 5.0222683, 4.9633293 
7.047442e+2, 1.9194894e+2, -1041412.3, -1131021.0, 2768.4773, 0.0027428374, -0.00007212056, -1041326.9, 17577.709, 0.0, 5.0214515, 4.963331 
7.0470154e+2, 1.9691165e+2, -995513.94, -1084911.5, 2816.2417, 0.0056521907, -0.006629487, -995425.3, 14846.173, 0.0, 5.020634, 4.9626784 
7.046584e+2, 2.0187187e+2, -955484.2, -1051417.9, 2566.4653, 0.0062879757, -0.002089252, -955415.56, 6245.5835, 0.0, 5.0197983, 4.9577208 
7.0461464e+2, 2.0683011e+2, -908108.06, -1002116.5, 2541.3499, 0.004663645, -0.0018002593, -908039.4, 5028.433, 0.0, 5.018963, 4.958131 
7.045709e+2, 2.1178834e+2, -861263.1, -953997.25, 2556.7615, 0.0030618233, -0.0016943422, -861192.7, 3281.6223, 0.0, 5.018129, 4.9581347 
7.045271e+2, 2.167466e+2, -815069.94, -907326.9, 2586.2717, 0.0014655294, -0.001455314, -814997.5, 883.1855, 0.0, 5.0172944, 4.9576364 
7.0448333e+2, 2.2170147e+2, -777349.2, -878991.94, 2831.4495, -0.00045062482, 0.007750098, -777270.4, -9947.713, 0.0, 5.0164046, 4.950853 
7.044395e+2, 2.2665264e+2, -730544.7, -830292.2, 2983.7065, -0.0025016307, 0.0074963495, -730455.5, -11649.892, 0.0, 5.0154133, 4.9510856 
7.043957e+2, 2.3160377e+2, -684036.0, -782250.8, 3177.1294, -0.0045219786, 0.007003372, -683933.3, -13644.622, 0.0, 5.014419, 4.9510894 
7.0435184e+2, 2.3655494e+2, -638159.2, -735639.75, 3385.4119, -0.006541109, 0.006564569, -638041.8, -16269.99, 0.0, 5.0134244, 4.9505916 
7.04308e+2, 2.4150304e+2, -598600.7, -703300.25, 3269.028, -0.0075486316, 0.014244976, -598498.75, -25216.98, 0.0, 5.012463, 4.945112 
7.0426387e+2, 2.4644843e+2, -550535.6, -652579.0, 2945.7432, -0.004677856, 0.007599054, -550450.7, -25637.695, 0.0, 5.011598, 4.945948 
7.042197e+2, 2.513938e+2, -503533.56, -604260.2, 2834.8481, -0.0015219983, 0.00012316322, -503453.84, -27109.805, 0.0, 5.0107374, 4.945948 
7.041756e+2, 2.5633916e+2, -456765.2, -556492.56, 2727.8694, 0.0016571537, -0.0072604367, -456690.66, -28815.656, 0.0, 5.0098763, 4.94575 
7.0413125e+2, 2.6128137e+2, -419503.53, -529921.94, 2594.0642, 0.0028520192, 0.00043899345, -419442.63, -40004.14, 0.0, 5.008951, 4.9381375 
7.040859e+2, 2.6622078e+2, -371469.28, -478316.3, 2493.149, -0.00026600814, -0.0005243398, -371411.16, -40377.44, 0.0, 5.0078745, 4.939333 
7.040405e+2, 2.7116013e+2, -324967.9, -430158.3, 2614.407, -0.0035436596, -0.0026209007, -324902.97, -42273.44, 0.0, 5.0067897, 4.93933 
7.0399517e+2, 2.7609944e+2, -278504.56, -382114.63, 2734.6648, -0.0068557854, -0.0046107755, -278432.44, -44207.145, 0.0, 5.005705, 4.939279 
7.039497e+2, 2.810339e+2, -244893.66, -363465.53, 2578.434, -0.009005934, 0.0040926365, -244837.61, -58969.004, 0.0, 5.0045853, 4.9288588 
7.039039e+2, 2.859643e+2, -196728.92, -311112.03, 2382.2559, -0.007739314, 0.0036669034, -196679.33, -59129.133, 0.0, 5.0033927, 4.930323 
7.038581e+2, 2.9089472e+2, -150367.83, -262912.03, 2435.136, -0.0062296786, 0.002422424, -150315.16, -61083.5, 0.0, 5.0021963, 4.9303236 
7.038123e+2, 2.958251e+2, -103984.1, -214689.42, 2487.321, -0.0046918155, 0.0011693321, -103928.24, -63015.094, 0.0, 5.0009995, 4.930324 
7.037662e+2, 3.0077353e+2, -37846.563, -87101.516, 1388.7465, -0.00434782, 0.012216528, -37807.438, -37807.438, 0.0, 4.999767, 4.967938 
7.0371985e+2, 3.0574402e+2, -35487.168, -74810.43, 853.3616, -0.007383363, -0.010785074, -35468.66, -35468.66, 0.0, 4.9984393, 4.9729714 
7.036734e+2, 3.1071466e+2, -39052.473, -76367.18, 295.8607, -0.010838722, -0.038058337, -39050.125, -39050.125, 0.0, 4.9971037, 4.972983 
7.03627e+2, 3.156853e+2, -42608.504, -77936.31, -249.91153, -0.014420744, -0.06598625, -42606.734, -42606.734, 0.0, 4.995767, 4.972994 
7.1037304e+2, 1.2238701e+2, -1658519.3, -1739605.3, 652.52576, -0.0076456717, 0.018323056, -1658514.0, 82089.17, 0.0, 5.0355196, 4.982484 
7.103306e+2, 1.2736498e+2, -1618033.0, -1702873.0, 1595.6439, -0.0011216338, 0.008046335, -1618003.0, 73817.05, 0.0, 5.034438, 4.9790273 
7.102878e+2, 1.3234328e+2, -1572370.9, -1655592.1, 1619.767, -0.00021128851, 0.0022885443, -1572339.4, 70694.47, 0.0, 5.033362, 4.979026 
7.102449e+2, 1.3732153e+2, -1528940.0, -1612947.0, 1667.656, 0.000815559, -0.002249442, -1528906.9, 65340.92, 0.0, 5.0322876, 4.977479 
7.1020204e+2, 1.4229758e+2, -1487036.9, -1573800.4, 1447.4187, 0.0042487015, 0.004504379, -1487012.8, 58470.395, 0.0, 5.031278, 4.974654 
7.1015877e+2, 1.4727199e+2, -1440989.0, -1525918.8, 1407.8978, 0.00542924, -0.00006317386, -1440965.8, 55768.156, 0.0, 5.030225, 4.9748087 
7.1011543e+2, 1.5224642e+2, -1395149.4, -1478482.8, 1396.8527, 0.00656464, -0.00467128, -1395126.0, 52858.53, 0.0, 5.02917, 4.974809 
7.1007216e+2, 1.5722081e+2, -1350774.5, -1434142.0, 1312.5206, 0.0076814233, -0.00878389, -1350753.9, 48481.336, 0.0, 5.0281167, 4.973768 
7.100285e+2, 1.6219243e+2, -1310915.4, -1399444.0, 1381.808, 0.0074111787, -0.0040843603, -1310893.9, 39619.316, 0.0, 5.027088, 4.9694757 
7.099846e+2, 1.6716217e+2, -1264684.8, -1351461.6, 1530.4291, 0.0053831413, -0.003139549, -1264657.8, 37151.2, 0.0, 5.026068, 4.969607 
7.099407e+2, 1.7213194e+2, -1218623.6, -1303855.6, 1724.7012, 0.0033005776, -0.0021182478, -1218588.8, 34516.016, 0.0, 5.025048, 4.969606 
7.098968e+2, 1.771017e+2, -1173763.4, -1258826.5, 1851.5826, 0.0011537597, -0.0006237281, -1173723.1, 30677.44, 0.0, 5.0240283, 4.9687333 
7.0985276e+2, 1.8206802e+2, -1135094.6, -1227397.4, 2089.91, 0.00025390313, 0.0072659547, -1135047.4, 20684.225, 0.0, 5.0230894, 4.963212 
7.098091e+2, 1.8703125e+2, -1088130.8, -1178943.4, 2125.3945, 0.0013180805, 0.0052070636, -1088081.0, 19013.838, 0.0, 5.02227, 4.9633646 
7.0976543e+2, 1.9199446e+2, -1041358.4, -1130922.0, 2148.377, 0.0023891728, 0.0030411943, -1041306.9, 17151.316, 0.0, 5.021451, 4.9633665 
7.0972174e+2, 1.9695769e+2, -995468.7, -1084818.6, 2199.9805, 0.0034589504, 0.0011667059, -995414.56, 14406.817, 0.0, 5.0206323, 4.9627123 
7.096777e+2, 2.0191807e+2, -955349.7, -1051162.6, 1903.4054, 0.0035858415, 0.0063815024, -955311.9, 5898.209, 0.0, 5.019801, 4.9578085 
7.0963323e+2, 2.0687583e+2, -908048.44, -1002016.3, 1902.0815, 0.0034447897, 0.0016229961, -908009.94, 4610.824, 0.0, 5.0189643, 4.9581676 
7.095888e+2, 2.1183358e+2, -861213.06, -953906.5, 1924.891, 0.003313976, -0.003267957, -861173.06, 2858.188, 0.0, 5.0181284, 4.9581695 
7.0954436e+2, 2.1679136e+2, -815030.25, -907247.56, 1961.6647, 0.003161337, -0.007950762, -814988.56, 453.12228, 0.0, 5.017292, 4.9576683 
7.0949984e+2, 2.217461e+2, -777031.0, -878319.94, 2083.462, 0.0022041402, -0.0010754176, -776988.2, -10103.779, 0.0, 5.0164056, 4.951085 
7.0945495e+2, 2.2669788e+2, -730183.8, -829517.9, 2222.84, -0.00019087445, 0.002127662, -730134.1, -11773.122, 0.0, 5.0154133, 4.951355 
7.094101e+2, 2.3164964e+2, -683685.5, -781487.56, 2423.5127, -0.0026323393, 0.005335497, -683625.5, -13787.994, 0.0, 5.014417, 4.951357 
7.0936525e+2, 2.3660143e+2, -637818.94, -734887.4, 2639.1243, -0.005093926, 0.008637169, -637747.25, -16433.262, 0.0, 5.0134215, 4.950857 
7.0932037e+2, 2.415499e+2, -598515.44, -703144.9, 2572.176, -0.0065083904, 0.017669184, -598452.25, -25631.734, 0.0, 5.0124655, 4.945168 
7.0927525e+2, 2.4649502e+2, -550661.8, -652908.75, 2279.432, -0.0048937397, 0.009653924, -550611.0, -26255.936, 0.0, 5.0116024, 4.9458356 
7.092301e+2, 2.5144014e+2, -503659.6, -604595.94, 2173.4507, -0.0031166258, 0.0009210865, -503612.8, -27723.145, 0.0, 5.0107417, 4.9458337 
7.09185e+2, 2.5638527e+2, -456891.1, -556834.4, 2071.4102, -0.0013396605, -0.007724071, -456848.2, -29423.977, 0.0, 5.009881, 4.945634 
7.0913965e+2, 2.6132736e+2, -419338.94, -529580.56, 1808.9731, -0.00047912545, -0.0008152577, -419309.25, -40319.836, 0.0, 5.008952, 4.9382596 
7.0909345e+2, 2.66267e+2, -371230.8, -477807.53, 1665.4209, -0.0015028472, -0.0012992087, -371204.8, -40622.813, 0.0, 5.0078754, 4.939514 
7.0904726e+2, 2.712066e+2, -324727.03, -429653.72, 1788.8804, -0.0026267634, -0.0028602718, -324696.56, -42521.56, 0.0, 5.0067925, 4.93951 
7.09001e+2, 2.7614614e+2, -278261.34, -381614.25, 1911.3477, -0.0038163525, -0.004345293, -278226.0, -44457.99, 0.0, 5.005709, 4.939458 
7.089545e+2, 2.8108078e+2, -244706.66, -363102.16, 1674.6389, -0.0047634714, 0.0046078986, -244682.98, -59274.027, 0.0, 5.0045905, 4.928989 
7.089074e+2, 2.8601125e+2, -196596.47, -310873.4, 1461.693, -0.004834544, 0.003874563, -196577.78, -59488.203, 0.0, 5.0033975, 4.930411 
7.088602e+2, 2.9094172e+2, -150236.67, -262675.72, 1515.1222, -0.00483763, 0.0023144959, -150216.25, -61446.066, 0.0, 5.0022006, 4.9304104 
7.0881313e+2, 2.9587215e+2, -103854.22, -214455.36, 1567.8561, -0.004831327, 0.000763511, -103832.0, -63381.188, 0.0, 5.0010037, 4.9304104 
7.0876575e+2, 3.008206e+2, -38270.137, -88165.18, 397.065, -0.004947316, 0.012574655, -38266.977, -38266.977, 0.0, 4.999772, 4.967559 
7.087183e+2, 3.0579072e+2, -36269.85, -76660.875, -121.79861, -0.0045661684, -0.007341172, -36269.484, -36269.484, 0.0, 4.9984384, 4.9723086 
7.0867103e+2, 3.1076095e+2, -39845.0, -78189.0, -653.49866, -0.0044087055, -0.03142593, -39833.863, -39833.863, 0.0, 4.9970965, 4.97233 
7.0862365e+2, 3.157312e+2, -43410.855, -79729.5, -1173.4789, -0.0044744182, -0.056065697, -43372.977, -43372.977, 0.0, 4.995754, 4.972351 
7.1540904e+2, 1.22429915e+2, -1658060.1, -1738694.5, -18.013088, -0.00086622615, 0.007677963, -1658060.1, 82122.36, 0.0, 5.035519, 4.982787 
7.153648e+2, 1.2740879e+2, -1617949.6, -1702748.9, 777.5612, -0.002061012, 0.0061346893, -1617942.5, 73447.75, 0.0, 5.034442, 4.9790697 
7.153209e+2, 1.3238727e+2, -1572288.1, -1655469.5, 802.9313, -0.0009922761, 0.0016888679, -1572280.4, 70321.664, 0.0, 5.0333657, 4.979068 
7.152769e+2, 1.3736571e+2, -1528865.3, -1612837.9, 882.3682, 0.00018569695, -0.0015250938, -1528856.0, 64958.254, 0.0, 5.0322914, 4.9775167 
7.152331e+2, 1.4234184e+2, -1487024.0, -1573809.1, 654.4705, 0.003675852, 0.0059961546, -1487019.1, 58029.848, 0.0, 5.0312805, 4.9746523 
7.1518874e+2, 1.473163e+2, -1440982.5, -1525937.5, 607.3447, 0.0047098296, 0.0018845437, -1440978.1, 55321.984, 0.0, 5.0302267, 4.9748034 
7.1514434e+2, 1.5229078e+2, -1395144.0, -1478501.5, 597.16003, 0.0056980257, -0.002233653, -1395139.8, 52411.46, 0.0, 5.0291715, 4.974804 
7.151e+2, 1.5726523e+2, -1350774.0, -1434168.3, 518.13336, 0.0066621336, -0.0058467053, -1350770.9, 48031.54, 0.0, 5.028118, 4.9737606 
7.1505535e+2, 1.6223687e+2, -1310548.0, -1398704.8, 605.7983, 0.0069151986, -0.0020057338, -1310543.9, 39535.99, 0.0, 5.02709, 4.969724 
7.150106e+2, 1.6720659e+2, -1264310.5, -1350696.1, 755.3378, 0.0061562248, -0.0038552557, -1264303.9, 37070.59, 0.0, 5.0260687, 4.969866 
7.1496576e+2, 1.7217633e+2, -1218257.5, -1303095.1, 952.22046, 0.005317695, -0.0055898367, -1218246.8, 34422.137, 0.0, 5.025047, 4.969865 
7.1492094e+2, 1.7714609e+2, -1173413.5, -1258089.3, 1071.4319, 0.0043912116, -0.006799033, -1173399.9, 30563.469, 0.0, 5.024026, 4.968985 
7.1487606e+2, 1.8211259e+2, -1135010.9, -1227255.6, 1458.4524, 0.0033999493, 0.0015242095, -1134987.8, 20304.443, 0.0, 5.0230927, 4.963259 
7.1483135e+2, 1.8707632e+2, -1088069.5, -1178840.3, 1500.5164, 0.0026927376, 0.00389596, -1088044.8, 18607.184, 0.0, 5.0222716, 4.9633994 
7.147867e+2, 1.9204003e+2, -1041304.94, -1130823.0, 1527.5621, 0.0019616613, 0.0062470394, -1041278.9, 16732.764, 0.0, 5.021451, 4.963401 
7.14742e+2, 1.9700374e+2, -995423.94, -1084725.8, 1582.8475, 0.0012023919, 0.008954297, -995395.94, 13975.246, 0.0, 5.02063, 4.9627457 
7.14697e+2, 2.0196424e+2, -955257.44, -1050998.9, 1250.1937, 0.00081699016, 0.015041571, -955241.1, 5517.8213, 0.0, 5.019804, 4.9578643 
7.1465194e+2, 2.0692153e+2, -907989.44, -1001916.44, 1263.8447, 0.0022134413, 0.0050780512, -907972.44, 4201.2227, 0.0, 5.018966, 4.9582024 
7.146068e+2, 2.1187882e+2, -861163.6, -953816.1, 1294.05, 0.0036144105, -0.00501075, -861145.56, 2442.7625, 0.0, 5.018128, 4.9582024 
7.1456164e+2, 2.1683612e+2, -814991.25, -907168.56, 1338.0825, 0.00496616, -0.014816233, -814971.8, 30.99769, 0.0, 5.0172896, 4.957699 
7.145163e+2, 2.2179079e+2, -776767.44, -877768.06, 1344.9012, 0.004738952, -0.0094903065, -776749.5, -10303.72, 0.0, 5.016407, 4.951275 
7.144704e+2, 2.2674316e+2, -729823.44, -828744.1, 1463.218, 0.0020241647, -0.0028634372, -729801.8, -11885.82, 0.0, 5.0154133, 4.951622 
7.144245e+2, 2.3169556e+2, -683335.44, -780724.9, 1671.1378, -0.0007627036, 0.0038387852, -683306.75, -13920.819, 0.0, 5.0144157, 4.9516225 
7.143786e+2, 2.3664795e+2, -637479.06, -734135.56, 1894.0757, -0.0035910888, 0.010674666, -637442.0, -16586.066, 0.0, 5.013418, 4.951121 
7.143327e+2, 2.4159676e+2, -598498.25, -703141.4, 1887.3339, -0.005585147, 0.02126381, -598464.25, -26105.037, 0.0, 5.012468, 4.9451704 
7.142866e+2, 2.4654163e+2, -550788.3, -653238.56, 1615.9027, -0.0052181967, 0.011848127, -550762.8, -26865.652, 0.0, 5.011606, 4.945722 
7.142405e+2, 2.514865e+2, -503785.97, -604931.8, 1514.8342, -0.004752751, 0.0017239903, -503763.28, -28327.916, 0.0, 5.0107465, 4.9457183 
7.1419436e+2, 2.5643137e+2, -457017.3, -557176.25, 1417.7311, -0.0043109497, -0.008316977, -456997.25, -30023.719, 0.0, 5.0098863, 4.945516 
7.14148e+2, 2.6137337e+2, -419191.66, -529277.6, 1019.1204, -0.0038050818, -0.0020230596, -419182.22, -40641.89, 0.0, 5.008953, 4.938368 
7.14101e+2, 2.663132e+2, -370992.56, -477298.63, 839.8379, -0.0027304578, -0.0019851995, -370985.94, -40855.734, 0.0, 5.0078764, 4.939695 
7.1405387e+2, 2.7125302e+2, -324486.38, -429149.03, 965.4988, -0.0016790039, -0.0030518621, -324477.47, -42757.086, 0.0, 5.006795, 4.939689 
7.1400684e+2, 2.761928e+2, -278018.28, -381113.75, 1090.1758, -0.00072444114, -0.004073097, -278006.75, -44696.11, 0.0, 5.0057135, 4.939636 
7.1395934e+2, 2.8112766e+2, -244529.55, -362761.53, 769.574, -0.00053050835, 0.005114659, -244524.53, -59575.242, 0.0, 5.004596, 4.929111 
7.139109e+2, 2.8605816e+2, -196464.14, -310634.75, 541.3649, -0.0019835748, 0.004071913, -196461.56, -59832.6, 0.0, 5.0034027, 4.9304976 
7.1386236e+2, 2.9098868e+2, -150105.63, -262439.34, 595.3433, -0.0035122412, 0.002189243, -150102.47, -61793.734, 0.0, 5.002206, 4.930497 
7.1381384e+2, 2.9591918e+2, -103724.45, -214221.27, 648.62616, -0.0050503495, 0.000333357, -103720.64, -63732.15, 0.0, 5.0010085, 4.9304967 
7.137652e+2, 3.0086762e+2, -38726.344, -89301.86, -601.54236, -0.005469913, 0.012882234, -38719.188, -38719.188, 0.0, 4.999777, 4.9671493 
7.1371686e+2, 3.0583733e+2, -37054.38, -78509.96, -1112.1669, -0.0018183358, -0.00450238, -37024.563, -37024.563, 0.0, 4.9984374, 4.9716387 
7.136686e+2, 3.108072e+2, -40639.363, -80009.44, -1618.055, 0.0017237371, -0.026014786, -40572.977, -40572.977, 0.0, 4.99709, 4.97167 
7.1362025e+2, 3.15777e+2, -44215.04, -81521.31, -2112.2327, 0.0049463585, -0.047981977, -44095.83, -44095.83, 0.0, 4.9957414, 4.971701 
7.204446e+2, 1.224716e+2, -1658824.5, -1738472.3, -48.004524, 0.0026893897, -0.014940518, -1658824.4, 80949.73, 0.0, 5.0351353, 4.983047 
7.203989e+2, 1.2745279e+2, -1618993.6, -1703034.0, 316.49475, -0.0029105444, 0.005819794, -1618992.4, 71966.63, 0.0, 5.0340433, 4.9791694 
7.203539e+2, 1.3243137e+2, -1573393.5, -1655792.8, 485.81696, -0.001668337, 0.0014331628, -1573390.6, 68778.85, 0.0, 5.0329475, 4.9791646 
7.203089e+2, 1.3740991e+2, -1530042.8, -1613203.8, 735.61835, -0.00028886803, -0.0015888795, -1530036.3, 63344.047, 0.0, 5.0318503, 4.9776096 
7.20264e+2, 1.4238615e+2, -1488299.8, -1574364.5, 622.54913, 0.003214321, 0.006441395, -1488295.3, 56319.055, 0.0, 5.0308356, 4.9746833 
7.2021854e+2, 1.4736071e+2, -1442182.6, -1526469.0, 636.2783, 0.004066411, 0.0031990285, -1442177.9, 53687.297, 0.0, 5.0298076, 4.9748287 
7.201732e+2, 1.5233529e+2, -1396275.1, -1479004.3, 687.6352, 0.0049054157, -0.00010367448, -1396269.4, 50846.723, 0.0, 5.0287757, 4.9748273 
7.2012776e+2, 1.5730983e+2, -1351856.8, -1434665.0, 672.6748, 0.005745961, -0.0029692654, -1351851.3, 46515.973, 0.0, 5.0277405, 4.973776 
7.2008216e+2, 1.6228151e+2, -1311177.9, -1398498.5, 771.2422, 0.0064869025, 0.00027705554, -1311171.1, 38473.05, 0.0, 5.0267673, 4.9699483 
7.2003645e+2, 1.672512e+2, -1264643.9, -1350328.8, 793.9519, 0.0068760407, -0.00418876, -1264636.5, 36301.426, 0.0, 5.0258427, 4.9700975 
7.199908e+2, 1.722209e+2, -1218338.0, -1302602.4, 870.62573, 0.0072213975, -0.008616858, -1218329.0, 33902.74, 0.0, 5.024907, 4.970098 
7.199451e+2, 1.771906e+2, -1173283.9, -1257506.1, 866.92053, 0.0075126328, -0.012577605, -1173275.0, 30250.367, 0.0, 5.0239606, 4.969214 
7.1989924e+2, 1.8215731e+2, -1135076.3, -1227154.9, 1382.3317, 0.006406856, -0.0037401346, -1135055.5, 19796.6, 0.0, 5.023043, 4.9633164 
7.198536e+2, 1.8712147e+2, -1088253.3, -1178792.8, 1487.6395, 0.0040310356, 0.0026344105, -1088228.9, 17979.334, 0.0, 5.0221796, 4.963458 
7.1980786e+2, 1.9208564e+2, -1041628.5, -1130843.6, 1583.2465, 0.0016502698, 0.008947004, -1041600.44, 15963.813, 0.0, 5.0213103, 4.963459 
7.197622e+2, 1.9704983e+2, -995906.5, -1084823.6, 1707.6066, -0.0007450211, 0.015581817, -995873.75, 13046.537, 0.0, 5.0204344, 4.9628024 
7.1971637e+2, 2.0201045e+2, -955876.44, -1051216.4, 1394.8739, -0.0015946825, 0.022550968, -955856.0, 4451.124, 0.0, 5.0195746, 4.9578953 
7.1967053e+2, 2.0696731e+2, -908560.5, -1002115.44, 1350.5392, 0.001145985, 0.0080544045, -908541.0, 3184.6748, 0.0, 5.0187526, 4.9582314 
7.196247e+2, 2.1192417e+2, -861696.25, -953997.5, 1325.3956, 0.003926987, -0.0067016724, -861677.25, 1466.9655, 0.0, 5.017928, 4.9582314 
7.195789e+2, 2.1688102e+2, -815500.94, -907339.0, 1322.48, 0.006674414, -0.02123455, -815481.9, -919.2454, 0.0, 5.017099, 4.957727 
7.195327e+2, 2.2183567e+2, -777058.94, -877541.7, 1221.5564, 0.006922285, -0.016641866, -777044.1, -11038.599, 0.0, 5.0162344, 4.9514303 
7.1948576e+2, 2.267886e+2, -729823.4, -828145.9, 1264.7849, 0.0039874194, -0.007056027, -729807.06, -12337.411, 0.0, 5.0152926, 4.951882 
7.194389e+2, 2.3174153e+2, -683199.0, -780067.4, 1432.8165, 0.0010240073, 0.0024924097, -683177.8, -14244.123, 0.0, 5.014343, 4.951882 
7.1939194e+2, 2.3669448e+2, -637226.5, -733426.2, 1624.4811, -0.0019720169, 0.012162166, -637199.06, -16801.404, 0.0, 5.0133862, 4.95138 
7.193451e+2, 2.4164356e+2, -598576.6, -703260.25, 1688.5073, -0.004593757, 0.024204865, -598549.4, -26651.238, 0.0, 5.012455, 4.9451356 
7.1929795e+2, 2.4658826e+2, -551046.56, -653591.25, 1457.8682, -0.0054483656, 0.013658523, -551025.8, -27586.627, 0.0, 5.011559, 4.945622 
7.1925086e+2, 2.515329e+2, -504156.9, -605336.8, 1394.7919, -0.006204638, 0.0023374255, -504137.7, -29157.031, 0.0, 5.0106587, 4.9456177 
7.192037e+2, 2.5647753e+2, -457511.22, -557636.8, 1341.0466, -0.0069867275, -0.008925559, -457493.25, -30971.184, 0.0, 5.0097547, 4.945415 
7.1915644e+2, 2.6141948e+2, -419457.56, -529187.94, 835.4666, -0.006863601, -0.0029228332, -419451.2, -41361.055, 0.0, 5.0088153, 4.9384623 
7.191085e+2, 2.6635954e+2, -370938.34, -476884.8, 571.0614, -0.0038668558, -0.002428986, -370935.25, -41257.715, 0.0, 5.0078173, 4.939868 
7.1906054e+2, 2.7129954e+2, -324233.88, -428645.75, 642.54, -0.00075973116, -0.003128625, -324229.94, -42964.723, 0.0, 5.0068064, 4.939863 
7.190126e+2, 2.7623954e+2, -277600.06, -380536.16, 721.11444, 0.0022709777, -0.0038020231, -277595.0, -44742.1, 0.0, 5.005785, 4.9398103 
7.189641e+2, 2.8117454e+2, -244061.38, -362287.72, 289.0226, 0.0035335505, 0.005549122, -244060.67, -59571.266, 0.0, 5.00471, 4.9292307 
7.1891433e+2, 2.8610513e+2, -195983.48, -310215.72, 59.516552, 0.0007397319, 0.004166059, -195983.45, -59815.273, 0.0, 5.0035334, 4.930592 
7.188645e+2, 2.910357e+2, -149602.63, -262013.61, 126.93881, -0.0022390168, 0.0019221245, -149602.47, -61755.36, 0.0, 5.0023456, 4.930591 
7.188146e+2, 2.9596624e+2, -103217.07, -213796.63, 191.46579, -0.0052440157, -0.00028228195, -103216.74, -63690.695, 0.0, 5.001151, 4.9305897 
7.187647e+2, 3.0091467e+2, -38833.58, -90315.305, -1135.3865, -0.005784453, 0.013016895, -38808.55, -38808.55, 0.0, 4.9999223, 4.96672 
7.1871537e+2, 3.05884e+2, -37445.445, -80191.13, -1656.9857, 0.00095971965, -0.0021035306, -37381.313, -37381.313, 0.0, 4.998587, 4.9709597 
7.186661e+2, 3.1085336e+2, -41130.45, -81724.15, -2194.1035, 0.0077589746, -0.021488188, -41012.203, -41012.203, 0.0, 4.997206, 4.970991 
7.186168e+2, 3.1582275e+2, -44922.477, -83313.25, -2762.9587, 0.014252005, -0.041362464, -44724.65, -44724.65, 0.0, 4.9957824, 4.9710236 
7.254797e+2, 1.2251395e+2, -1656768.3, -1736985.9, 1733.9401, 0.0026095624, -0.051378384, -1656730.9, 82629.805, 0.0, 5.035736, 4.9832335 
7.254329e+2, 1.2749943e+2, -1616873.1, -1701005.1, 1991.0493, -0.003429489, 0.008802958, -1616826.0, 73676.85, 0.0, 5.0345592, 4.979577 
7.2538674e+2, 1.3247804e+2, -1571532.4, -1653898.5, 2316.0132, -0.0018916873, 0.001150214, -1571467.4, 70245.02, 0.0, 5.033381, 4.9795704 
7.253406e+2, 1.3745664e+2, -1528426.1, -1611428.9, 2771.163, -0.00020037932, -0.0050141565, -1528333.6, 64588.387, 0.0, 5.032204, 4.978017 
7.2529465e+2, 1.4243314e+2, -1487053.1, -1573156.4, 2858.7126, 0.0031440072, 0.0026018093, -1486958.3, 57194.918, 0.0, 5.0311475, 4.974924 
7.2524816e+2, 1.4740813e+2, -1441015.6, -1525387.9, 2973.6777, 0.003565959, 0.0018943358, -1440911.0, 54489.215, 0.0, 5.030112, 4.9750333 
7.2520167e+2, 1.523831e+2, -1395124.3, -1477940.1, 3125.9614, 0.004002441, 0.001087723, -1395006.4, 51640.82, 0.0, 5.0290756, 4.9750295 
7.251552e+2, 1.5735807e+2, -1350730.4, -1433655.5, 3228.674, 0.0044656806, 0.00067119347, -1350604.9, 47289.664, 0.0, 5.0280414, 4.9739614 
7.251086e+2, 1.6232988e+2, -1310099.3, -1397755.1, 3460.6946, 0.0054846127, 0.004336178, -1309962.8, 39207.605, 0.0, 5.027107, 4.970026 
7.250622e+2, 1.672994e+2, -1263368.3, -1349566.3, 3404.3118, 0.0067483517, -0.001678822, -1263234.0, 37232.25, 0.0, 5.0262666, 4.970143 
7.2501576e+2, 1.7226896e+2, -1216784.9, -1301706.8, 3377.1665, 0.007992324, -0.0077143037, -1216650.8, 35111.137, 0.0, 5.0254264, 4.9701447 
7.249693e+2, 1.772385e+2, -1171427.4, -1256478.1, 3254.0054, 0.00921305, -0.013353062, -1171303.1, 31754.494, 0.0, 5.0245867, 4.9692564 
7.2492254e+2, 1.822052e+2, -1132803.1, -1225322.9, 3768.4768, 0.00843173, -0.005753567, -1132649.9, 21734.045, 0.0, 5.02369, 4.9636216 
7.248759e+2, 1.8716961e+2, -1086227.5, -1177098.4, 4023.2493, 0.0055918233, 0.00049701164, -1086049.6, 19686.584, 0.0, 5.022747, 4.963757 
7.2482926e+2, 1.9213402e+2, -1039821.44, -1129260.3, 4268.1396, 0.002757669, 0.006682718, -1039618.25, 17470.389, 0.0, 5.0218043, 4.963757 
7.2478265e+2, 1.9709842e+2, -994298.7, -1083344.4, 4540.911, -0.00007215348, 0.013152289, -994067.7, 14373.32, 0.0, 5.020861, 4.9630985 
7.2473586e+2, 2.020592e+2, -954762.9, -1050575.8, 4380.2295, -0.0011883198, 0.01996738, -954563.06, 5263.4185, 0.0, 5.019959, 4.957924 
7.246892e+2, 2.0701614e+2, -907489.4, -1001669.6, 4309.5605, 0.0009748863, 0.0073920856, -907292.56, 3953.1438, 0.0, 5.0191607, 4.9581842 
7.246425e+2, 2.119731e+2, -860543.5, -953509.25, 4215.2944, 0.0031882576, -0.005444826, -860352.75, 2312.2388, 0.0, 5.018365, 4.958186 
7.2459584e+2, 2.1693003e+2, -814254.94, -906806.3, 4136.108, 0.0054107457, -0.018191598, -814070.5, 13.742772, 0.0, 5.017569, 4.9576826 
7.2454876e+2, 2.2188476e+2, -775381.0, -876150.3, 3979.16, 0.005724719, -0.013426037, -775224.1, -9697.216, 0.0, 5.016726, 4.951672 
7.245011e+2, 2.2683764e+2, -728013.8, -826695.75, 4022.2075, 0.003826212, -0.00622811, -727850.1, -10860.063, 0.0, 5.015831, 4.9521255 
7.244534e+2, 2.3179053e+2, -681234.56, -778550.5, 4174.339, 0.0019355668, 0.00088954763, -681055.8, -12602.736, 0.0, 5.014936, 4.952126 
7.2440565e+2, 2.3674342e+2, -635089.5, -731835.5, 4341.663, 0.00004098415, 0.008107783, -634895.06, -14978.945, 0.0, 5.014041, 4.951625 
7.243579e+2, 2.4169251e+2, -596587.6, -702025.25, 4422.0464, -0.0019853844, 0.018650167, -596402.5, -24986.68, 0.0, 5.0131183, 4.9452534 
7.2430974e+2, 2.4663742e+2, -549396.9, -652655.8, 4275.1074, -0.0037768371, 0.010188303, -549220.2, -26264.584, 0.0, 5.012134, 4.9456778 
7.242616e+2, 2.515823e+2, -502756.9, -604512.44, 4298.986, -0.005510112, 0.0011488692, -502575.6, -28079.889, 0.0, 5.011147, 4.945675 
7.2421336e+2, 2.5652716e+2, -456348.94, -556917.3, 4328.2983, -0.0072356677, -0.00786015, -456163.0, -30127.172, 0.0, 5.0101595, 4.9454737 
7.241651e+2, 2.6146927e+2, -418272.06, -528349.44, 3919.3086, -0.0075575784, -0.00047130533, -418132.7, -40529.867, 0.0, 5.009206, 4.93857 
7.2411627e+2, 2.664093e+2, -369435.47, -475917.25, 3618.9268, -0.0043165316, -0.0007070645, -369312.63, -40122.332, 0.0, 5.008325, 4.9399714 
7.2406745e+2, 2.7134928e+2, -322369.03, -427510.5, 3629.6443, -0.0008994553, -0.0021873442, -322243.88, -41465.855, 0.0, 5.007446, 4.9399695 
7.2401863e+2, 2.7628928e+2, -275344.6, -379221.5, 3641.1685, 0.0025255354, -0.0036181293, -275217.13, -42851.367, 0.0, 5.0065656, 4.93992 
7.239691e+2, 2.812243e+2, -241357.19, -360543.78, 3064.2712, 0.0041468632, 0.004936808, -241278.45, -57276.64, 0.0, 5.0056095, 4.929438 
7.239182e+2, 2.86155e+2, -193161.98, -308395.47, 2882.349, 0.001541781, 0.0027513492, -193089.94, -57410.496, 0.0, 5.004473, 4.930814 
7.238672e+2, 2.9108563e+2, -146676.9, -260159.02, 3038.7722, -0.0012539917, -0.00026558302, -146595.6, -59238.355, 0.0, 5.0033274, 4.930811 
7.238162e+2, 2.960163e+2, -100170.17, -211900.69, 3194.6829, -0.0040780297, -0.0032291748, -100078.9, -61043.863, 0.0, 5.0021815, 4.930808 
7.2376513e+2, 3.0096483e+2, -36049.457, -89427.94, 1901.8126, -0.0044593764, 0.011080651, -35981.78, -35981.78, 0.0, 5.001039, 4.9665527 
7.2371465e+2, 3.059343e+2, -34279.27, -79725.35, 1619.4476, 0.0031331968, 0.0015501258, -34221.633, -34221.633, 0.0, 4.9999495, 4.9705424 
7.236643e+2, 3.109037e+2, -37161.832, -81003.04, 1346.4698, 0.011237999, -0.012356446, -37120.52, -37120.52, 0.0, 4.9988685, 4.9705453 
7.23614e+2, 3.1587303e+2, -40036.58, -82290.29, 1081.9084, 0.019432738, -0.027178388, -40008.895, -40008.895, 0.0, 4.997787, 4.9705477 
7.30515e+2, 1.2256126e+2, -1657440.6, -1738438.4, 867.42334, -0.00044737724, -0.051727884, -1657431.4, 81467.266, 0.0, 5.035744, 4.9827557 
7.304671e+2, 1.2754744e+2, -1616199.9, -1699692.6, 1097.2273, -0.00409007, 0.011517395, -1616185.5, 73847.72, 0.0, 5.034566, 4.98001 
7.304199e+2, 1.3252617e+2, -1570867.3, -1652592.4, 1424.7035, -0.002213999, 0.00058691285, -1570842.4, 70398.68, 0.0, 5.0333867, 4.9800034 
7.3037255e+2, 1.3750486e+2, -1527774.1, -1610136.1, 1921.8151, -0.00021807566, -0.008812561, -1527729.4, 64719.75, 0.0, 5.032208, 4.9784465 
7.303256e+2, 1.424817e+2, -1486676.4, -1572413.8, 2071.2573, 0.0029207738, -0.0014505835, -1486626.4, 57050.375, 0.0, 5.0311494, 4.9751725 
7.30278e+2, 1.4745717e+2, -1440696.1, -1524760.1, 2187.812, 0.0028903119, 0.0005129994, -1440639.3, 54279.86, 0.0, 5.0301137, 4.975244 
7.302304e+2, 1.5243262e+2, -1394807.8, -1477316.1, 2341.32, 0.002867642, 0.002393171, -1394741.4, 51420.2, 0.0, 5.0290775, 4.97524 
7.301829e+2, 1.5740804e+2, -1350438.0, -1433078.1, 2459.6077, 0.0028634567, 0.0046824017, -1350364.9, 47039.38, 0.0, 5.028043, 4.974157 
7.3013544e+2, 1.6238005e+2, -1310062.9, -1397716.1, 2800.661, 0.004082673, 0.009020833, -1309973.5, 38705.266, 0.0, 5.02711, 4.97004 
7.300882e+2, 1.6734943e+2, -1263378.5, -1349619.1, 2763.8289, 0.006257535, 0.0015470083, -1263290.0, 36686.816, 0.0, 5.0262685, 4.970126 
7.30041e+2, 1.723188e+2, -1216800.0, -1301763.8, 2739.9297, 0.008382833, -0.0058991993, -1216711.8, 34563.133, 0.0, 5.0254273, 4.970127 
7.2999376e+2, 1.7728819e+2, -1171452.9, -1256552.3, 2611.0999, 0.01045635, -0.0129029285, -1171372.9, 31199.98, 0.0, 5.0245867, 4.969234 
7.2994626e+2, 1.8225491e+2, -1132340.9, -1224364.5, 3050.2063, 0.010040627, -0.006665453, -1132239.9, 21658.732, 0.0, 5.023691, 4.9639463 
7.2989863e+2, 1.8721952e+2, -1085773.5, -1176142.8, 3305.7246, 0.0070562246, -0.0016445974, -1085652.8, 19594.443, 0.0, 5.022746, 4.964083 
7.29851e+2, 1.921841e+2, -1039377.9, -1128311.4, 3555.0625, 0.004048298, 0.003386112, -1039236.0, 17359.771, 0.0, 5.0218015, 4.9640827 
7.298034e+2, 1.9714873e+2, -993866.6, -1082405.0, 3829.7114, 0.0010158779, 0.008764632, -993701.3, 14242.978, 0.0, 5.020856, 4.9634233 
7.297557e+2, 2.0210968e+2, -954801.5, -1050702.9, 3734.599, -0.00042936468, 0.015690863, -954656.25, 4671.5356, 0.0, 5.019963, 4.9578805 
7.2970814e+2, 2.0706686e+2, -907617.44, -1001985.3, 3696.8298, 0.0007551433, 0.0063881567, -907472.8, 3274.1501, 0.0, 5.0191636, 4.958077 
7.296605e+2, 2.1202403e+2, -860677.56, -953828.6, 3607.6277, 0.0019485143, -0.003035206, -860538.06, 1628.0697, 0.0, 5.018366, 4.9580784 
7.2961295e+2, 2.1698122e+2, -814396.6, -907132.9, 3533.1892, 0.003135041, -0.012320554, -814262.2, -677.0062, 0.0, 5.017568, 4.957573 
7.295651e+2, 2.2193603e+2, -775073.44, -875510.44, 3288.808, 0.0033747638, -0.0070729735, -774965.8, -9938.375, 0.0, 5.016728, 4.951894 
7.295166e+2, 2.268887e+2, -727724.6, -826095.5, 3339.284, 0.0029536213, -0.0038821083, -727611.4, -11120.505, 0.0, 5.0158334, 4.952335 
7.2946817e+2, 2.318414e+2, -680950.9, -777959.2, 3496.0615, 0.002535307, -0.000779008, -680825.0, -12870.859, 0.0, 5.0149374, 4.9523335 
7.2941965e+2, 2.3679408e+2, -634811.2, -731252.94, 3668.1035, 0.002093568, 0.0024483604, -634671.9, -15254.4375, 0.0, 5.014042, 4.9518304 
7.293711e+2, 2.4174316e+2, -596446.44, -701743.3, 3678.1567, 0.00085219456, 0.011070692, -596318.1, -25401.453, 0.0, 5.0131197, 4.9453526 
7.2932184e+2, 2.4668841e+2, -549314.5, -652505.5, 3519.1453, -0.0017603298, 0.0056317584, -549194.6, -26740.803, 0.0, 5.012136, 4.945732 
7.292726e+2, 2.5163367e+2, -502675.94, -604367.06, 3545.9026, -0.0043881754, -0.00019057101, -502552.47, -28561.277, 0.0, 5.0111485, 4.945728 
7.292233e+2, 2.565789e+2, -456269.4, -556776.75, 3578.124, -0.007024954, -0.0059868437, -456142.2, -30613.604, 0.0, 5.0101614, 4.9455256 
7.291741e+2, 2.6152125e+2, -418159.4, -528156.0, 3227.7275, -0.007865358, 0.0031690556, -418064.75, -40970.92, 0.0, 5.009211, 4.938639 
7.291243e+2, 2.6646122e+2, -369350.66, -475794.84, 2946.8105, -0.00477492, 0.0018097234, -369269.16, -40587.207, 0.0, 5.008332, 4.9400163 
7.290746e+2, 2.7140114e+2, -322284.34, -427390.56, 2959.0032, -0.0015668593, -0.00085582386, -322201.13, -41930.703, 0.0, 5.0074525, 4.9400134 
7.290248e+2, 2.7634102e+2, -275260.03, -379104.03, 2972.0093, 0.0016172818, -0.0034751715, -275175.03, -43316.164, 0.0, 5.0065727, 4.9399633 
7.289744e+2, 2.8127605e+2, -241083.47, -359995.13, 2224.6465, 0.003246106, 0.0039084665, -241041.88, -57546.89, 0.0, 5.0056167, 4.929633 
7.289224e+2, 2.8620684e+2, -192857.53, -307773.2, 2004.6715, 0.0013870908, 0.0007656988, -192822.56, -57651.38, 0.0, 5.00448, 4.9310355 
7.288703e+2, 2.9113764e+2, -146374.61, -259539.83, 2161.9011, -0.00064795493, -0.003162643, -146333.31, -59485.816, 0.0, 5.003334, 4.931032 
7.2881824e+2, 2.9606846e+2, -99870.03, -211284.61, 2318.6187, -0.0027348697, -0.007016039, -99821.8, -61297.992, 0.0, 5.0021887, 4.931029 
7.28766e+2, 3.0101722e+2, -36135.996, -89746.63, 1038.4918, -0.0028995215, 0.008289897, -36115.887, -36115.887, 0.0, 5.00105, 4.966441 
7.2871447e+2, 3.0598697e+2, -34601.023, -80564.59, 819.78143, 0.004314111, 0.0049978658, -34586.406, -34586.406, 0.0, 4.9999566, 4.970244 
7.28663e+2, 3.109567e+2, -37497.848, -81832.65, 567.7607, 0.011984997, -0.002194341, -37490.574, -37490.574, 0.0, 4.9988704, 4.970251 
7.286116e+2, 3.1592637e+2, -40386.844, -83110.28, 324.14133, 0.019656017, -0.010163222, -40384.383, -40384.383, 0.0, 4.9977837, 4.970258 
7.355502e+2, 1.22611046e+2, -1658204.0, -1740075.1, -23.649302, -0.0035688754, -0.02727487, -1658204.0, 80208.26, 0.0, 5.035752, 4.9822173 
7.355014e+2, 1.2759548e+2, -1615527.4, -1698380.1, 203.21902, -0.0047827596, 0.01423493, -1615526.9, 74036.62, 0.0, 5.0345726, 4.980443 
7.3545295e+2, 1.325743e+2, -1570202.8, -1651286.4, 533.2067, -0.0025645397, -0.000012910208, -1570199.3, 70570.55, 0.0, 5.033392, 4.980436 
7.3540455e+2, 1.3755311e+2, -1527110.0, -1608816.5, 1078.2778, -0.00026222187, -0.012683415, -1527095.8, 64880.39, 0.0, 5.0322123, 4.9788847 
7.3535645e+2, 1.4253029e+2, -1486326.8, -1571727.3, 1279.0436, 0.0026786583, -0.0054019485, -1486307.6, 56892.656, 0.0, 5.031152, 4.975402 
7.353078e+2, 1.4750622e+2, -1440376.8, -1524132.8, 1402.2695, 0.002201487, -0.00080162793, -1440353.3, 54084.75, 0.0, 5.0301156, 4.975455 
7.352592e+2, 1.5248215e+2, -1394491.3, -1476692.4, 1557.0011, 0.0017254455, 0.0037261748, -1394461.8, 51214.03, 0.0, 5.0290794, 4.97545 
7.3521054e+2, 1.5745805e+2, -1350130.0, -1432468.5, 1688.7799, 0.0012594977, 0.008682217, -1350095.4, 46818.54, 0.0, 5.028044, 4.974363 
7.351622e+2, 1.6243023e+2, -1310061.1, -1397748.5, 2147.7253, 0.0026302908, 0.01383494, -1310008.5, 38178.49, 0.0, 5.027113, 4.9700284 
7.351142e+2, 1.6739945e+2, -1263389.4, -1349672.0, 2123.5432, 0.0057348493, 0.004834894, -1263337.1, 36150.313, 0.0, 5.0262704, 4.970109 
7.3506624e+2, 1.7236866e+2, -1216815.6, -1301820.9, 2102.8896, 0.008760905, -0.0040914076, -1216763.8, 34024.133, 0.0, 5.025428, 4.970109 
7.350183e+2, 1.7733788e+2, -1171478.5, -1256625.6, 1968.8942, 0.011706775, -0.012529381, -1171433.0, 30655.033, 0.0, 5.0245867, 4.9692106 
7.3496985e+2, 1.8230464e+2, -1131893.0, -1223436.3, 2334.2769, 0.011598242, -0.007416605, -1131833.5, 21579.727, 0.0, 5.023692, 4.9642606 
7.349213e+2, 1.8726943e+2, -1085320.1, -1175187.5, 2587.444, 0.008480642, -0.00372707, -1085245.8, 19512.281, 0.0, 5.022745, 4.9644084 
7.348727e+2, 1.9223423e+2, -1038934.9, -1127362.6, 2841.2278, 0.0053142267, 0.00003194276, -1038843.6, 17259.137, 0.0, 5.0217986, 4.964408 
7.348242e+2, 1.9719905e+2, -993436.2, -1081468.0, 3117.4343, 0.0020944597, 0.0042028297, -993325.94, 14121.565, 0.0, 5.020851, 4.9637456 
7.347755e+2, 2.0216018e+2, -954893.25, -1050945.5, 3101.9338, 0.00023747042, 0.011756358, -954793.2, 4035.828, 0.0, 5.0199666, 4.957797 
7.3472697e+2, 2.0711759e+2, -907745.94, -1002301.25, 3084.0334, 0.0004640574, 0.0056459066, -907645.44, 2602.6719, 0.0, 5.0191665, 4.957969 
7.346785e+2, 2.1207498e+2, -860812.0, -954148.2, 2999.8945, 0.00067146757, -0.0005066597, -860715.7, 951.44507, 0.0, 5.018367, 4.9579697 
7.3463005e+2, 2.1703239e+2, -814538.6, -907459.75, 2930.1956, 0.00085604656, -0.0064732283, -814446.3, -1360.2461, 0.0, 5.0175676, 4.9574623 
7.345813e+2, 2.2198732e+2, -774793.25, -874930.8, 2605.0146, 0.0009744155, -0.0006030774, -774725.5, -10197.557, 0.0, 5.0167303, 4.9520936 
7.345321e+2, 2.2693978e+2, -727435.7, -825495.56, 2658.1606, 0.002077355, -0.0015213097, -727363.7, -11372.08, 0.0, 5.0158353, 4.9525433 
7.344829e+2, 2.3189227e+2, -680667.44, -777368.2, 2819.5828, 0.0031870948, -0.0025634083, -680585.25, -13130.071, 0.0, 5.0149393, 4.95254 
7.344337e+2, 2.3684476e+2, -634533.2, -730670.7, 2996.3413, 0.004253885, -0.0034574606, -634439.9, -15521.053, 0.0, 5.0140433, 4.952035 
7.343843e+2, 2.4179383e+2, -596344.6, -701549.4, 2937.4949, 0.003604114, 0.003680727, -596262.7, -25845.287, 0.0, 5.013121, 4.945421 
7.3433393e+2, 2.4673945e+2, -549232.1, -652355.4, 2764.724, 0.00017099889, 0.0012947243, -549158.06, -27206.232, 0.0, 5.0121374, 4.9457855 
7.342836e+2, 2.5168505e+2, -502595.06, -604221.8, 2794.3599, -0.0033100776, -0.00138626, -502518.28, -29031.768, 0.0, 5.0111504, 4.9457803 
7.3423326e+2, 2.5663066e+2, -456189.94, -556636.44, 2829.49, -0.0068167695, -0.00404549, -456110.28, -31089.06, 0.0, 5.0101633, 4.9455767 
7.3418295e+2, 2.6157326e+2, -418058.4, -527988.75, 2541.1829, -0.008208891, 0.006826638, -417999.7, -41414.89, 0.0, 5.009217, 4.938699 
7.341324e+2, 2.665131e+2, -369266.22, -475672.1, 2275.665, -0.005270375, 0.004330213, -369217.56, -41044.01, 0.0, 5.008338, 4.9400606 
7.3408175e+2, 2.7145296e+2, -322200.03, -427270.3, 2289.332, -0.0022542018, 0.00046342905, -322150.2, -42387.402, 0.0, 5.007459, 4.9400573 
7.340311e+2, 2.763928e+2, -275175.84, -378986.28, 2303.82, 0.00070620194, -0.0033604405, -275124.72, -43772.74, 0.0, 5.00658, 4.9400063 
7.339797e+2, 2.8132778e+2, -240811.3, -359450.16, 1382.9955, 0.0023437275, 0.0028731425, -240795.17, -57807.05, 0.0, 5.0056243, 4.9298263 
7.339266e+2, 2.8625873e+2, -192553.11, -307150.94, 1127.3475, 0.0012114097, -0.0012267723, -192542.02, -57879.117, 0.0, 5.004487, 4.9312572 
7.338735e+2, 2.9118967e+2, -146072.36, -258920.72, 1285.3839, -0.000077607314, -0.0060791536, -146057.72, -59719.97, 0.0, 5.003341, 4.9312534 
7.338203e+2, 2.9612058e+2, -99569.94, -210668.6, 1442.9084, -0.001442088, -0.010834972, -99551.2, -61538.64, 0.0, 5.0021954, 4.93125 
7.33767e+2, 3.0106956e+2, -36256.88, -90143.68, 176.7769, -0.0012578656, 0.005532425, -36256.297, -36256.297, 0.0, 5.001061, 4.9662976 
7.337143e+2, 3.060396e+2, -34924.336, -81402.63, 11.834812, 0.0055460245, 0.008085578, -34924.332, -34924.332, 0.0, 4.999964, 4.9699397 
7.336618e+2, 3.1100968e+2, -37835.41, -82661.07, -219.22491, 0.012693117, 0.0071217115, -37834.336, -37834.336, 0.0, 4.9988723, 4.9699516 
7.336092e+2, 3.159797e+2, -40738.65, -83929.08, -441.89807, 0.019750645, 0.0055203047, -40734.13, -40734.13, 0.0, 4.9977803, 4.969963 
7.405854e+2, 1.2266144e+2, -1660807.8, -1742476.8, 148.2241, -0.005831328, 0.00040414403, -1660807.5, 77112.55, 0.0, 5.035116, 4.981741 
7.4053556e+2, 1.2764363e+2, -1616612.9, -1698035.9, 245.55602, -0.0053985943, 0.015892452, -1616612.1, 72480.66, 0.0, 5.034015, 4.9808292 
7.40486e+2, 1.3262261e+2, -1571091.3, -1650828.8, 434.2451, -0.0027645968, -0.00047304906, -1571088.9, 69208.02, 0.0, 5.032899, 4.980827 
7.4043643e+2, 1.3760161e+2, -1527838.9, -1608244.6, 889.5783, -0.000052644158, -0.015368545, -1527829.0, 63672.14, 0.0, 5.031767, 4.979289 
7.403873e+2, 1.425791e+2, -1487190.5, -1571613.0, 1102.082, 0.0028244003, -0.008093252, -1487176.1, 55545.758, 0.0, 5.0307465, 4.975636 
7.4033767e+2, 1.4755543e+2, -1441082.1, -1523962.8, 1240.5776, 0.0019608228, -0.0017930696, -1441063.5, 52892.09, 0.0, 5.0297685, 4.9756794 
7.402879e+2, 1.5253174e+2, -1395036.6, -1476445.4, 1406.8888, 0.0010865328, 0.0045352615, -1395012.3, 50177.133, 0.0, 5.0287867, 4.975674 
7.4023825e+2, 1.5750806e+2, -1350561.1, -1432221.1, 1553.3453, 0.00020869753, 0.01139797, -1350531.6, 45891.79, 0.0, 5.0278025, 4.9745626 
7.401889e+2, 1.6248041e+2, -1310684.5, -1398015.1, 2179.3672, 0.0015382251, 0.017430082, -1310630.1, 37064.832, 0.0, 5.026894, 4.9700437 
7.401402e+2, 1.6744952e+2, -1264040.9, -1349993.9, 2169.6882, 0.005251872, 0.0075333375, -1263986.1, 35011.008, 0.0, 5.0260496, 4.9701056 
7.4009144e+2, 1.7241865e+2, -1217490.6, -1302153.0, 2170.0984, 0.008934289, -0.0023665465, -1217435.0, 32864.297, 0.0, 5.025198, 4.9701056 
7.400427e+2, 1.7738777e+2, -1172202.9, -1256988.8, 2052.5583, 0.012582318, -0.011854219, -1172153.3, 29448.201, 0.0, 5.024341, 4.969204 
7.3999333e+2, 1.8235455e+2, -1132178.3, -1222901.8, 2337.6323, 0.012724623, -0.0075787897, -1132118.0, 20807.736, 0.0, 5.023455, 4.9645524 
7.3994386e+2, 1.873195e+2, -1085430.9, -1174540.5, 2480.688, 0.009592632, -0.005411759, -1085361.9, 18905.584, 0.0, 5.0225616, 4.9647136 
7.3989433e+2, 1.9228444e+2, -1038914.9, -1126653.3, 2636.317, 0.0064252703, -0.003211742, -1038835.75, 16773.385, 0.0, 5.02166, 4.9647136 
7.3984486e+2, 1.972494e+2, -993314.56, -1080713.9, 2817.3877, 0.0032121942, -0.0006246849, -993223.8, 13726.83, 0.0, 5.020749, 4.9640503 
7.3979527e+2, 2.0221074e+2, -955288.44, -1051334.3, 2901.956, 0.000993137, 0.007832627, -955200.8, 3129.3843, 0.0, 5.0198708, 4.957709 
7.397459e+2, 2.0716839e+2, -908208.56, -1002701.7, 2978.1091, 0.00030349608, 0.004899207, -908114.8, 1633.964, 0.0, 5.0190415, 4.957889 
7.3969656e+2, 2.1212602e+2, -861362.9, -954587.4, 2985.2427, -0.0003978341, 0.0018790032, -861267.4, -100.046135, 0.0, 5.0182104, 4.95789 
7.3964715e+2, 2.1708366e+2, -815188.9, -907944.0, 3008.685, -0.0011119379, -0.000991023, -815091.4, -2505.5254, 0.0, 5.0173764, 4.9573817 
7.3959756e+2, 2.2203869e+2, -775119.3, -874677.3, 2656.059, -0.0011519019, 0.005521361, -775048.5, -11021.331, 0.0, 5.0165343, 4.9522696 
7.395476e+2, 2.2699095e+2, -727628.2, -825146.5, 2603.453, 0.0013063912, 0.0007067442, -727558.75, -12067.39, 0.0, 5.0156784, 4.952735 
7.3949766e+2, 2.3194322e+2, -680763.7, -776977.06, 2669.9463, 0.0038125478, -0.004311728, -680689.7, -13734.187, 0.0, 5.0148163, 4.9527316 
7.394477e+2, 2.3689549e+2, -634550.1, -730244.44, 2761.5234, 0.006293223, -0.009205148, -634470.5, -16050.884, 0.0, 5.013949, 4.9522266 
7.3939735e+2, 2.4184458e+2, -596471.56, -701497.8, 2612.7751, 0.006037818, -0.0031016993, -596406.6, -26489.143, 0.0, 5.0130534, 4.9454703 
7.39346e+2, 2.4679054e+2, -549243.56, -652219.0, 2446.8442, 0.0019087563, -0.0026509098, -549185.44, -27736.104, 0.0, 5.012104, 4.9458485 
7.392946e+2, 2.517365e+2, -502527.72, -604048.25, 2504.5906, -0.002252007, -0.0024763974, -502465.97, -29484.607, 0.0, 5.0111446, 4.9458437 
7.392432e+2, 2.5668243e+2, -456064.97, -556435.1, 2573.6802, -0.0064378525, -0.0022701349, -455999.03, -31485.594, 0.0, 5.010178, 4.9456406 
7.3919195e+2, 2.6162523e+2, -417920.03, -527808.06, 2369.635, -0.00835086, 0.010180152, -417868.97, -41793.547, 0.0, 5.00924, 4.9387536 
7.391404e+2, 2.6656505e+2, -369209.22, -475549.94, 2095.8691, -0.005680161, 0.0066661015, -369167.94, -41503.145, 0.0, 5.0083365, 4.9401064 
7.390889e+2, 2.7150485e+2, -322236.7, -427189.8, 2094.6624, -0.0029151947, 0.0017185281, -322194.88, -42940.18, 0.0, 5.0074244, 4.940103 
7.390373e+2, 2.764446e+2, -275323.5, -378954.9, 2097.5242, -0.00019338209, -0.0031965177, -275281.06, -44436.453, 0.0, 5.006505, 4.9400525 
7.3898494e+2, 2.813796e+2, -240817.08, -359017.78, 1000.395, 0.0014441919, 0.001991727, -240808.61, -58327.887, 0.0, 5.0055337, 4.930021 
7.3893076e+2, 2.8631067e+2, -192399.58, -306580.9, 694.948, 0.0009965164, -0.0030826891, -192395.34, -58241.184, 0.0, 5.0044417, 4.931481 
7.388765e+2, 2.912417e+2, -145818.42, -258305.77, 837.3781, 0.00044287115, -0.008912753, -145812.19, -59984.56, 0.0, 5.003333, 4.9314775 
7.3882234e+2, 2.9617277e+2, -99245.92, -210022.6, 982.15784, -0.00018325352, -0.014644425, -99237.21, -61736.145, 0.0, 5.0022135, 4.9314747 
7.387679e+2, 3.011219e+2, -36373.793, -90562.65, -271.72638, 0.0005055249, 0.0027822552, -36372.43, -36372.43, 0.0, 5.0010853, 4.9661355 
7.3871416e+2, 3.0609226e+2, -35334.81, -82253.74, -368.3788, 0.0068724104, 0.010809996, -35331.918, -35331.918, 0.0, 4.999943, 4.969637 
7.3866045e+2, 3.110626e+2, -38444.664, -83595.19, -588.823, 0.013488365, 0.015639298, -38436.99, -38436.99, 0.0, 4.9987826, 4.9696465 
7.3860675e+2, 3.1603292e+2, -41601.867, -84964.695, -839.78796, 0.019987399, 0.01997952, -41585.61, -41585.61, 0.0, 4.997603, 4.9696565 
7.4562013e+2, 1.2271404e+2, -1660145.9, -1743026.8, 2366.1357, -0.007942668, 0.015186553, -1660078.4, 77327.37, 0.0, 5.0355453, 4.9813404 
7.4556935e+2, 1.2769468e+2, -1615236.4, -1696807.3, 2441.8887, -0.005950002, 0.013540156, -1615163.3, 73430.71, 0.0, 5.0343785, 4.981046 
7.4551874e+2, 1.3267413e+2, -1569867.3, -1649670.8, 2558.7815, -0.0023897698, -0.000099277495, -1569785.4, 70008.734, 0.0, 5.0332117, 4.981046 
7.4546814e+2, 1.3765356e+2, -1526709.4, -1607108.0, 2963.9636, 0.0012568117, -0.012369165, -1526600.3, 64394.094, 0.0, 5.032045, 4.979519 
7.45418e+2, 1.4263129e+2, -1485942.8, -1570214.1, 3281.8538, 0.004658581, -0.0052562803, -1485815.1, 56397.125, 0.0, 5.031022, 4.9759564 
7.4536735e+2, 1.4760762e+2, -1439775.8, -1522579.8, 3467.1833, 0.0038220398, -0.0014713521, -1439630.9, 53813.93, 0.0, 5.0300756, 4.975981 
7.453167e+2, 1.5258396e+2, -1393633.6, -1475016.8, 3675.9387, 0.0029697604, 0.002422596, -1393468.0, 51209.285, 0.0, 5.0291286, 4.9759765 
7.452661e+2, 1.5756029e+2, -1349057.6, -1430755.8, 3874.1418, 0.002106681, 0.0069478597, -1348874.4, 47035.426, 0.0, 5.028183, 4.9748607 
7.4521583e+2, 1.6253284e+2, -1309358.9, -1396992.9, 4656.868, 0.0027374807, 0.013099868, -1309112.1, 38067.133, 0.0, 5.02729, 4.9701867 
7.4516606e+2, 1.6750233e+2, -1262775.3, -1349065.3, 4715.2007, 0.005000007, 0.006266489, -1262518.4, 35960.37, 0.0, 5.0264397, 4.9702215 
7.4511635e+2, 1.7247182e+2, -1216224.5, -1301224.9, 4784.959, 0.0072986614, -0.00064180436, -1215956.0, 33822.348, 0.0, 5.0255895, 4.970222 
7.450666e+2, 1.774413e+2, -1170917.3, -1256056.9, 4729.7725, 0.00963637, -0.0072154575, -1170655.4, 30422.502, 0.0, 5.0247407, 4.9693184 
7.450164e+2, 1.8240818e+2, -1130715.9, -1221723.0, 5029.511, 0.009819281, -0.0031044686, -1130438.8, 21962.672, 0.0, 5.0238833, 4.964738 
7.449662e+2, 1.8737292e+2, -1083829.6, -1173361.6, 5096.646, 0.0079904, -0.0040124855, -1083540.4, 20204.264, 0.0, 5.023052, 4.964872 
7.44916e+2, 1.9233768e+2, -1037110.7, -1125380.8, 5157.895, 0.006141206, -0.0048960126, -1036810.4, 18277.383, 0.0, 5.0222216, 4.9648724 
7.448658e+2, 1.9730243e+2, -991282.25, -1079336.8, 5233.0557, 0.0042674476, -0.0054194457, -990972.3, 15458.352, 0.0, 5.021391, 4.96421 
7.4481535e+2, 2.0226382e+2, -953124.1, -1049748.8, 5374.33, 0.0026395454, 0.002225174, -952826.1, 4983.141, 0.0, 5.020533, 4.9579296 
7.447651e+2, 2.0722191e+2, -906189.3, -1001210.4, 5633.243, 0.001493359, 0.0021364538, -905856.5, 3366.8628, 0.0, 5.0196614, 4.9581 
7.4471486e+2, 2.1217999e+2, -859463.6, -953156.56, 5813.7217, 0.00034926797, 0.0019495436, -859104.25, 1533.2909, 0.0, 5.0187907, 4.9581003 
7.4466455e+2, 2.1713807e+2, -813400.9, -906573.9, 6007.835, -0.0007858767, 0.0018575424, -813015.1, -963.357, 0.0, 5.0179195, 4.9575906 
7.4461406e+2, 2.2209324e+2, -773490.56, -873596.9, 5762.35, -0.00093657704, 0.008504948, -773159.94, -9668.263, 0.0, 5.0170712, 4.952381 
7.445632e+2, 2.2704533e+2, -725973.6, -824258.94, 5603.343, 0.0011187857, 0.0022167512, -725655.25, -10697.186, 0.0, 5.016268, 4.9527583 
7.4451244e+2, 2.3199743e+2, -678945.5, -776012.5, 5535.6465, 0.0032384307, -0.0042365077, -678630.8, -12206.423, 0.0, 5.0154643, 4.9527564 
7.4446166e+2, 2.3694952e+2, -632552.8, -729197.2, 5484.989, 0.0053844047, -0.010619924, -632242.5, -14351.831, 0.0, 5.014661, 4.9522533 
7.4441046e+2, 2.4189858e+2, -594173.3, -699953.75, 5233.071, 0.005325057, -0.005218037, -593915.06, -24526.287, 0.0, 5.0138016, 4.945654 
7.4435824e+2, 2.4684472e+2, -546897.5, -650619.4, 5143.9204, 0.0020699045, -0.004411094, -546643.0, -25724.676, 0.0, 5.012865, 4.9460483 
7.4430597e+2, 2.5179088e+2, -500128.97, -602420.4, 5276.2637, -0.0011998996, -0.0038444833, -499857.53, -27409.527, 0.0, 5.0119267, 4.9460464 
7.4425375e+2, 2.5673702e+2, -453593.6, -554769.9, 5414.2505, -0.004475186, -0.0032180697, -453304.7, -29326.998, 0.0, 5.0109878, 4.945846 
7.4420154e+2, 2.6167995e+2, -415580.94, -526425.25, 5275.563, -0.0061065536, 0.009564539, -415330.4, -39792.44, 0.0, 5.0100474, 4.938863 
7.441489e+2, 2.6661986e+2, -367150.06, -474395.4, 4987.5225, -0.004738964, 0.006713746, -366918.63, -39791.695, 0.0, 5.009066, 4.9401736 
7.440963e+2, 2.7155975e+2, -320391.22, -426132.5, 4977.9404, -0.003260409, 0.0024879035, -320157.38, -41440.96, 0.0, 5.0080786, 4.9401717 
7.4404365e+2, 2.764996e+2, -273672.22, -377985.44, 4968.636, -0.0017393918, -0.0017102434, -273436.1, -43130.19, 0.0, 5.0070915, 4.940122 
7.4399024e+2, 2.8143468e+2, -239034.7, -357633.56, 3824.936, -0.0006101295, 0.0036099884, -238911.48, -56970.08, 0.0, 5.0060983, 4.9302454 
7.4393505e+2, 2.863658e+2, -190374.5, -305041.88, 3511.8914, -0.00025070857, -0.0026781778, -190267.05, -56652.66, 0.0, 5.005087, 4.931728 
7.4387985e+2, 2.912969e+2, -143537.06, -256654.08, 3643.7246, 0.00010997968, -0.00981553, -143419.81, -58132.36, 0.0, 5.004073, 4.931726 
7.438247e+2, 2.9622802e+2, -96680.31, -208246.97, 3774.8862, 0.0004709441, -0.016908653, -96552.734, -59592.22, 0.0, 5.00306, 4.9317245 
7.437693e+2, 3.011773e+2, -33777.12, -89101.95, 2469.2969, 0.0015002197, 0.0002248525, -33667.13, -33667.13, 0.0, 5.002013, 4.966253 
7.437142e+2, 3.0614796e+2, -32795.22, -81012.336, 2632.2212, 0.0065995585, 0.011261981, -32651.947, -32651.947, 0.0, 5.0008836, 4.9696755 
7.4365926e+2, 3.1111857e+2, -35847.28, -82389.914, 2724.4673, 0.012074373, 0.01947906, -35688.344, -35688.344, 0.0, 4.999752, 4.9696646 
7.436043e+2, 3.1608915e+2, -38894.72, -83774.15, 2824.154, 0.01766637, 0.027379332, -38717.7, -38717.7, 0.0, 4.9986196, 4.9696536 
7.506551e+2, 1.2276736e+2, -1660276.3, -1743342.4, 1439.3759, -0.011340977, 0.021234775, -1660251.4, 76633.055, 0.0, 5.035548, 4.9812384 
7.506034e+2, 1.2774734e+2, -1614960.6, -1696291.1, 1555.7834, -0.006756745, 0.011202949, -1614930.9, 73148.75, 0.0, 5.034382, 4.981218 
7.505517e+2, 1.3272727e+2, -1569593.8, -1649158.6, 1675.0398, -0.0021654312, 0.00065092335, -1569558.5, 69717.02, 0.0, 5.0332155, 4.981217 
7.505001e+2, 1.3770719e+2, -1526426.6, -1606573.6, 2121.9077, 0.0024927894, -0.008524097, -1526370.5, 64101.074, 0.0, 5.032048, 4.9796977 
7.50449e+2, 1.4268513e+2, -1485478.8, -1569305.9, 2548.917, 0.0064696916, -0.0016014385, -1485401.3, 56285.438, 0.0, 5.0310264, 4.976259 
7.503974e+2, 1.4766143e+2, -1439340.9, -1521724.0, 2749.7769, 0.005753309, -0.00089029793, -1439249.1, 53668.895, 0.0, 5.030079, 4.9762673 
7.5034577e+2, 1.5263775e+2, -1393203.5, -1474163.5, 2960.155, 0.00501552, -0.00005902504, -1393095.4, 51053.99, 0.0, 5.029132, 4.976263 
7.502942e+2, 1.5761405e+2, -1348609.9, -1429857.3, 3172.1467, 0.0042590713, 0.0014259343, -1348486.3, 46894.555, 0.0, 5.0281854, 4.9751635 
7.50243e+2, 1.6258685e+2, -1309181.9, -1396657.9, 4008.6543, 0.004076851, 0.007760939, -1308998.5, 37649.305, 0.0, 5.0272923, 4.9702997 
7.501922e+2, 1.6755682e+2, -1262610.4, -1348748.4, 4067.8877, 0.00458526, 0.004565534, -1262418.6, 35525.035, 0.0, 5.026441, 4.9703293 
7.501415e+2, 1.7252678e+2, -1216065.1, -1300912.5, 4139.9434, 0.0051097246, 0.0013308953, -1215863.6, 33375.984, 0.0, 5.02559, 4.9703298 
7.500907e+2, 1.7749673e+2, -1170765.8, -1255754.5, 4081.4167, 0.0056558163, -0.0015320464, -1170570.1, 29965.285, 0.0, 5.0247397, 4.969424 
7.500397e+2, 1.8246375e+2, -1130537.6, -1221377.9, 4381.4673, 0.0057997876, 0.00265157, -1130326.8, 21531.338, 0.0, 5.0238853, 4.964855 
7.499888e+2, 1.8742822e+2, -1083691.5, -1173092.3, 4461.7476, 0.0056340466, -0.0018063253, -1083469.4, 19734.191, 0.0, 5.0230527, 4.964965 
7.499379e+2, 1.9239272e+2, -1036979.75, -1125116.4, 4526.9063, 0.0054233503, -0.006180199, -1036747.9, 17801.053, 0.0, 5.0222206, 4.964965 
7.4988705e+2, 1.9735722e+2, -991158.2, -1079078.0, 4598.0635, 0.005165672, -0.0101416195, -990918.4, 14975.706, 0.0, 5.0213885, 4.9643016 
7.498358e+2, 2.023187e+2, -952783.94, -1049040.5, 4706.4756, 0.004210145, -0.0033472374, -952554.3, 4717.1675, 0.0, 5.0205336, 4.958173 
7.497846e+2, 2.0727727e+2, -905855.3, -1000510.56, 4970.3257, 0.0027730695, -0.00085090264, -905595.0, 3085.264, 0.0, 5.0196614, 4.9583416 
7.4973345e+2, 2.1223584e+2, -859135.4, -952463.9, 5155.466, 0.0013277063, 0.0015954381, -858851.44, 1237.6454, 0.0, 5.0187902, 4.958341 
7.496823e+2, 2.1719441e+2, -813080.94, -905893.8, 5353.624, -0.00012033784, 0.0041630743, -812773.1, -1275.1676, 0.0, 5.0179186, 4.957828 
7.496309e+2, 2.2214977e+2, -773454.6, -873558.2, 5124.492, -0.00047467687, 0.011203104, -773193.0, -10257.016, 0.0, 5.017074, 4.9523954 
7.4957925e+2, 2.2710171e+2, -726051.25, -824468.6, 4984.9937, 0.0008278648, 0.0039395634, -725799.4, -11394.531, 0.0, 5.01627, 4.9526877 
7.495275e+2, 2.3205364e+2, -679026.0, -776226.94, 4921.7993, 0.0021503814, -0.0034092676, -678777.44, -12903.694, 0.0, 5.015466, 4.952685 
7.4947584e+2, 2.3700558e+2, -632636.25, -729416.4, 4875.707, 0.003481267, -0.010675155, -632391.25, -15048.675, 0.0, 5.0146623, 4.95218 
7.4942374e+2, 2.4195461e+2, -593936.94, -699469.7, 4519.9673, 0.0035087059, -0.005765961, -593743.7, -24902.594, 0.0, 5.013804, 4.9458237 
7.493708e+2, 2.4690092e+2, -546632.56, -650076.5, 4429.5615, 0.0016333516, -0.005323718, -546443.25, -26074.941, 0.0, 5.0128684, 4.9462395 
7.4931777e+2, 2.518472e+2, -499865.03, -601882.44, 4564.168, -0.00027029708, -0.00514268, -499661.22, -27765.559, 0.0, 5.0119305, 4.946236 
7.492647e+2, 2.567935e+2, -453330.6, -554236.94, 4704.447, -0.0021991546, -0.004914469, -453111.72, -29688.654, 0.0, 5.010992, 4.946035 
7.4921155e+2, 2.617366e+2, -415475.75, -526247.6, 4534.994, -0.003403754, 0.0078639425, -415290.4, -40308.766, 0.0, 5.010052, 4.938926 
7.4915785e+2, 2.6667663e+2, -367099.8, -474347.16, 4233.43, -0.0035590744, 0.006222884, -366932.97, -40363.273, 0.0, 5.0090714, 4.940192 
7.49104e+2, 2.7161664e+2, -320339.94, -426087.84, 4225.6514, -0.003690222, 0.0032727302, -320171.38, -42013.04, 0.0, 5.008085, 4.9401894 
7.4905026e+2, 2.7655664e+2, -273619.97, -377944.4, 4218.1587, -0.0038070804, 0.00034264775, -273449.7, -43702.71, 0.0, 5.007098, 4.9401383 
7.489957e+2, 2.8149185e+2, -238771.1, -357129.88, 3038.0085, -0.0034627598, 0.006121411, -238693.16, -57311.496, 0.0, 5.006108, 4.9304237 
7.489397e+2, 2.8642303e+2, -190086.13, -304485.13, 2735.8882, -0.0021561105, -0.0015275598, -190020.72, -56966.305, 0.0, 5.0050974, 4.931926 
7.488836e+2, 2.913542e+2, -143249.94, -256100.05, 2868.8396, -0.0008222908, -0.01007725, -143177.05, -58449.72, 0.0, 5.004084, 4.931924 
7.488275e+2, 2.9628536e+2, -96394.414, -207695.66, 3001.1196, 0.00048979034, -0.018576303, -96313.55, -59913.34, 0.0, 5.0030704, 4.931922 
7.48771e+2, 3.0123478e+2, -33514.973, -88627.055, 1628.1444, 0.0015914697, -0.0022764895, -33466.914, -33466.914, 0.0, 5.0020266, 4.9664283 
7.487146e+2, 3.062057e+2, -32571.986, -80597.34, 1798.0883, 0.004807445, 0.010186499, -32504.76, -32504.76, 0.0, 5.0008926, 4.969832 
7.486583e+2, 3.111766e+2, -35636.117, -81964.76, 1904.9373, 0.008238945, 0.020099651, -35557.92, -35557.92, 0.0, 4.999756, 4.9698257 
7.4860203e+2, 3.161475e+2, -38695.63, -83338.83, 2019.2148, 0.011717379, 0.02978696, -38604.484, -38604.484, 0.0, 4.998619, 4.969819 
7.5569016e+2, 1.22819595e+2, -1660028.3, -1742882.6, 548.0958, -0.013327323, 0.016561786, -1660024.6, 76349.01, 0.0, 5.0355515, 4.9813905 
7.5563747e+2, 1.2780002e+2, -1614685.4, -1695775.3, 670.1041, -0.0075790747, 0.009029694, -1614679.8, 72885.42, 0.0, 5.034385, 4.981389 
7.5558466e+2, 1.3278043e+2, -1569320.5, -1648646.8, 791.7238, -0.0019473371, 0.0015150573, -1569312.5, 69444.25, 0.0, 5.033219, 4.9813876 
7.5553197e+2, 1.377608e+2, -1526142.5, -1606036.8, 1272.5138, 0.0037341667, -0.004616136, -1526122.3, 63826.383, 0.0, 5.0320516, 4.9798765 
7.5547993e+2, 1.42739e+2, -1485027.8, -1568424.3, 1825.3375, 0.00826897, 0.0021140408, -1484987.9, 56173.18, 0.0, 5.031031, 4.9765525 
7.5542736e+2, 1.4771527e+2, -1438906.1, -1520868.5, 2031.5426, 0.007673237, -0.00029694464, -1438855.8, 53535.457, 0.0, 5.0300827, 4.9765534 
7.553748e+2, 1.5269156e+2, -1392773.5, -1473310.4, 2243.5432, 0.0070505817, -0.002576191, -1392711.0, 50910.402, 0.0, 5.0291348, 4.976549 
7.5532234e+2, 1.5766785e+2, -1348186.8, -1429010.3, 2476.124, 0.0063992585, -0.0041740914, -1348111.0, 46740.72, 0.0, 5.0281873, 4.975448 
7.552701e+2, 1.6264088e+2, -1309000.9, -1396314.4, 3356.261, 0.005336078, 0.0026071996, -1308872.1, 37244.137, 0.0, 5.027295, 4.970415 
7.552183e+2, 1.6761133e+2, -1262445.8, -1348431.6, 3420.674, 0.00411055, 0.0029936072, -1262309.9, 35098.63, 0.0, 5.0264425, 4.970437 
7.551666e+2, 1.7258176e+2, -1215906.1, -1300600.3, 3495.026, 0.0028810145, 0.0033760567, -1215762.1, 32938.63, 0.0, 5.02559, 4.9704366 
7.551148e+2, 1.7755216e+2, -1170666.5, -1255563.4, 3429.6528, 0.001654805, 0.0041706488, -1170528.1, 29464.89, 0.0, 5.0247393, 4.9694905 
7.550629e+2, 1.8251932e+2, -1130329.0, -1220966.6, 3741.7764, 0.0017630083, 0.008502596, -1130174.8, 21140.033, 0.0, 5.0238876, 4.964994 
7.550114e+2, 1.8748352e+2, -1083553.9, -1172823.0, 3826.7214, 0.0032804476, 0.0004010817, -1083390.1, 19272.332, 0.0, 5.0230536, 4.965057 
7.5495976e+2, 1.9244775e+2, -1036849.25, -1124852.3, 3895.7888, 0.0047299694, -0.007562421, -1036677.1, 17332.975, 0.0, 5.0222197, 4.9650564 
7.549082e+2, 1.9741198e+2, -991029.4, -1078808.5, 3960.5884, 0.0061100265, -0.015060927, -990851.06, 14506.46, 0.0, 5.021386, 4.964396 
7.548563e+2, 2.0237358e+2, -952474.56, -1048399.06, 4046.541, 0.0057135425, -0.008626091, -952304.2, 4429.3374, 0.0, 5.0205345, 4.958392 
7.5480413e+2, 2.0733264e+2, -905521.56, -999811.2, 4308.255, 0.00401884, -0.0036675094, -905325.1, 2811.8706, 0.0, 5.019662, 4.958582 
7.547521e+2, 2.122917e+2, -858807.4, -951771.6, 4498.0557, 0.0023088355, 0.0012718912, -858590.25, 950.22675, 0.0, 5.01879, 4.9585805 
7.547e+2, 2.1725076e+2, -812761.1, -905214.25, 4700.239, 0.00058449846, 0.006359072, -812522.8, -1578.7869, 0.0, 5.0179176, 4.958064 
7.546478e+2, 2.2220632e+2, -773472.25, -873636.9, 4493.8477, -0.00011646045, 0.014107577, -773271.0, -10890.813, 0.0, 5.017077, 4.9523683 
7.545952e+2, 2.271581e+2, -726129.2, -824678.5, 4367.964, 0.00046721761, 0.0057923608, -725936.0, -12084.323, 0.0, 5.016273, 4.9526157 
7.545426e+2, 2.3210984e+2, -679106.9, -776441.5, 4309.271, 0.0010435425, -0.0025753116, -678916.44, -13593.373, 0.0, 5.015468, 4.952612 
7.544901e+2, 2.3706162e+2, -632720.06, -729635.75, 4267.7437, 0.0016102412, -0.010846858, -632532.5, -15737.952, 0.0, 5.014663, 4.952106 
7.5443715e+2, 2.4201064e+2, -593715.2, -699018.25, 3809.5881, 0.0016724743, -0.006212444, -593577.5, -25284.246, 0.0, 5.0138063, 4.945982 
7.543833e+2, 2.469571e+2, -546367.75, -649533.7, 3716.7678, 0.0011995827, -0.006164702, -546234.06, -26415.875, 0.0, 5.0128717, 4.9464297 
7.5432944e+2, 2.5190353e+2, -499601.16, -601344.7, 3853.6362, 0.0006941676, -0.0064270427, -499455.4, -28112.172, 0.0, 5.0119343, 4.9464254 
7.542756e+2, 2.5684997e+2, -453067.66, -553704.1, 3996.2068, 0.00014379347, -0.0066548013, -452909.22, -30040.84, 0.0, 5.010997, 4.9462233 
7.542216e+2, 2.6179323e+2, -415388.7, -526110.4, 3795.1995, -0.00075801375, 0.0062288437, -415258.75, -40833.54, 0.0, 5.010057, 4.938976 
7.5416666e+2, 2.667334e+2, -367049.84, -474298.7, 3481.128, -0.0024386214, 0.0058012204, -366936.97, -40924.56, 0.0, 5.0090766, 4.940211 
7.5411177e+2, 2.7167356e+2, -320288.97, -426043.03, 3475.1526, -0.0041566533, 0.004098628, -320174.9, -42574.707, 0.0, 5.008091, 4.9402065 
7.540568e+2, 2.7661368e+2, -273567.97, -377903.2, 3469.471, -0.0058885883, 0.0024085022, -273452.72, -44264.715, 0.0, 5.0071054, 4.9401546 
7.540012e+2, 2.8154904e+2, -238510.05, -356632.1, 2253.4768, -0.006322023, 0.008629002, -238467.08, -57645.17, 0.0, 5.006118, 4.9306 
7.539443e+2, 2.8648028e+2, -189797.92, -303928.28, 1960.3167, -0.004073602, -0.00039773094, -189764.27, -57269.816, 0.0, 5.005108, 4.9321237 
7.538873e+2, 2.914115e+2, -142962.98, -255545.94, 2094.3865, -0.0017682354, -0.010378809, -142924.03, -58756.836, 0.0, 5.0040946, 4.9321213 
7.5383025e+2, 2.9634273e+2, -96108.7, -207144.27, 2227.7852, 0.000493377, -0.02030283, -96064.02, -60224.11, 0.0, 5.003082, 4.932119 
7.537727e+2, 3.0129224e+2, -33269.133, -88187.66, 784.84625, 0.0017171121, -0.00475214, -33257.92, -33257.92, 0.0, 5.00204, 4.9665885 
7.5371504e+2, 3.0626342e+2, -32350.047, -80181.21, 956.5165, 0.0029929995, 0.008879121, -32330.928, -32330.928, 0.0, 5.000902, 4.969985 
7.536574e+2, 3.1123462e+2, -35426.242, -81538.47, 1077.9668, 0.0043082773, 0.020155232, -35401.06, -35401.06, 0.0, 4.99976, 4.969983 
7.5359976e+2, 3.1620583e+2, -38497.82, -82902.375, 1206.8339, 0.0056003244, 0.031296737, -38465.047, -38465.047, 0.0, 4.998618, 4.969981 
7.607254e+2, 1.2287209e+2, -1661541.1, -1743260.9, 682.98444, -0.012842284, 0.011404941, -1661535.4, 74324.42, 0.0, 5.034967, 4.981555 
7.606715e+2, 1.2785296e+2, -1615865.5, -1695988.5, 746.1082, -0.0071466435, 0.006939415, -1615858.6, 71188.83, 0.0, 5.033909, 4.981554 
7.606176e+2, 1.3283382e+2, -1570216.6, -1648719.4, 815.70026, -0.0013963842, 0.0023872629, -1570208.1, 68027.0, 0.0, 5.0328355, 4.981553 
7.605638e+2, 1.3781466e+2, -1526793.6, -1605968.0, 1287.7803, 0.0045733936, -0.00088115135, -1526772.8, 62650.367, 0.0, 5.031745, 4.980051 
7.6051074e+2, 1.4279303e+2, -1485457.6, -1568055.5, 1878.2916, 0.009360349, 0.0057516447, -1485414.9, 55218.246, 0.0, 5.030761, 4.9768066 
7.604573e+2, 1.4776927e+2, -1439290.3, -1520479.4, 1967.9883, 0.008975197, 0.00052047294, -1439242.5, 52620.227, 0.0, 5.029829, 4.976806 
7.604038e+2, 1.5274553e+2, -1393116.3, -1472891.5, 2064.6572, 0.008563872, -0.0046522487, -1393062.9, 50029.453, 0.0, 5.0288935, 4.976805 
7.6035035e+2, 1.5772177e+2, -1348517.8, -1428604.1, 2210.242, 0.008118247, -0.00919134, -1348456.9, 45865.1, 0.0, 5.027955, 4.975695 
7.6029724e+2, 1.6269504e+2, -1309485.6, -1396205.4, 3127.9158, 0.0063415477, -0.0020166584, -1309372.9, 36211.168, 0.0, 5.027057, 4.970566 
7.602444e+2, 1.6766591e+2, -1263014.4, -1348392.4, 3264.165, 0.0036605422, 0.0014753364, -1262889.8, 33982.93, 0.0, 5.026182, 4.970575 
7.601917e+2, 1.7263678e+2, -1216560.8, -1300602.1, 3406.2048, 0.00096802664, 0.0049760593, -1216422.9, 31738.336, 0.0, 5.0253, 4.970574 
7.6013887e+2, 1.7760766e+2, -1171448.9, -1255663.1, 3396.634, -0.001729234, 0.008913512, -1171312.1, 28137.645, 0.0, 5.024413, 4.9696116 
7.600861e+2, 1.8257493e+2, -1131126.3, -1221126.0, 3769.1118, -0.0016562437, 0.013554743, -1130968.6, 19801.846, 0.0, 5.0235677, 4.96509 
7.6003385e+2, 1.875389e+2, -1084207.9, -1172949.6, 3789.0945, 0.00124684, 0.0024732559, -1084046.4, 18073.89, 0.0, 5.022789, 4.9651375 
7.5998163e+2, 1.9250292e+2, -1037362.9, -1124910.8, 3803.2622, 0.004115846, -0.008558225, -1037197.94, 16272.084, 0.0, 5.022003, 4.9651375 
7.5992936e+2, 1.9746694e+2, -991428.9, -1078815.9, 3804.397, 0.006946137, -0.019205647, -991263.56, 13556.074, 0.0, 5.0212097, 4.964475 
7.5987667e+2, 2.0242864e+2, -952607.8, -1047942.2, 3870.9675, 0.006964507, -0.012844585, -952450.9, 3743.2217, 0.0, 5.020383, 4.958617 
7.598237e+2, 2.0738813e+2, -905548.4, -999266.5, 4098.709, 0.005100331, -0.0060397703, -905369.5, 2223.2783, 0.0, 5.019538, 4.958825 
7.597707e+2, 2.1234763e+2, -858765.06, -951198.6, 4270.6675, 0.0032262967, 0.00076159474, -858568.1, 423.3, 0.0, 5.01869, 4.9588227 
7.597177e+2, 2.1730712e+2, -812664.06, -904622.94, 4458.7046, 0.0013392345, 0.007721828, -812448.4, -2058.213, 0.0, 5.017839, 4.9583035 
7.596646e+2, 2.2226286e+2, -773750.9, -873892.9, 4291.7485, 0.00021408146, 0.016342347, -773567.25, -11742.626, 0.0, 5.017003, 4.952314 
7.596111e+2, 2.2721449e+2, -726467.6, -824980.4, 4188.802, 0.00011567091, 0.007305131, -726289.9, -12991.591, 0.0, 5.0161815, 4.9525533 
7.5955766e+2, 2.3216611e+2, -679500.0, -776764.3, 4155.089, 0.000013273059, -0.0018183057, -679322.8, -14550.898, 0.0, 5.0153565, 4.95255 
7.5950426e+2, 2.3711774e+2, -633174.94, -729981.44, 4144.765, -0.0000972828, -0.010872775, -632997.8, -16752.213, 0.0, 5.01453, 4.952045 
7.5945044e+2, 2.4206679e+2, -593878.44, -698755.5, 3610.9248, -0.00004342008, -0.006257391, -593754.25, -26009.902, 0.0, 5.013681, 4.94613 
7.593959e+2, 2.4701336e+2, -546364.8, -649113.4, 3462.4028, 0.0007940637, -0.0067369663, -546248.25, -26981.066, 0.0, 5.0127883, 4.9466143 
7.593412e+2, 2.5195992e+2, -499495.75, -600879.9, 3552.1423, 0.0016246145, -0.007566056, -499371.47, -28581.201, 0.0, 5.011887, 4.94661 
7.592866e+2, 2.5690648e+2, -452875.28, -553201.6, 3652.9492, 0.002416991, -0.008357404, -452742.47, -30429.104, 0.0, 5.010981, 4.9464073 
7.592316e+2, 2.6184985e+2, -415321.4, -525980.75, 3410.2605, 0.0017046307, 0.004677749, -415216.4, -41347.813, 0.0, 5.01006, 4.939021 
7.591756e+2, 2.6679018e+2, -366988.13, -474208.53, 3113.3691, -0.0014025726, 0.0053718556, -366897.78, -41442.9, 0.0, 5.0090847, 4.9402404 
7.591195e+2, 2.7173048e+2, -320236.25, -425958.06, 3141.6565, -0.0045672683, 0.0047994154, -320142.97, -43101.168, 0.0, 5.0080957, 4.9402356 
7.590634e+2, 2.7667075e+2, -273547.84, -377833.84, 3173.984, -0.007755244, 0.0042315377, -273451.34, -44822.574, 0.0, 5.0070987, 4.940183 
7.590068e+2, 2.8160623e+2, -238328.61, -356150.84, 1946.9712, -0.008907534, 0.0108926, -238296.45, -58034.598, 0.0, 5.006102, 4.930779 
7.5894886e+2, 2.8653756e+2, -189589.53, -303386.84, 1639.6685, -0.005846499, 0.0006749177, -189565.92, -57631.84, 0.0, 5.005093, 4.9323235 
7.588909e+2, 2.9146883e+2, -142775.78, -255013.5, 1755.5586, -0.0026609695, -0.010590764, -142748.33, -59141.758, 0.0, 5.0040727, 4.932322 
7.58833e+2, 2.9640016e+2, -95965.06, -206630.56, 1874.3352, 0.0004958378, -0.021835683, -95933.33, -60654.258, 0.0, 5.003044, 4.93232 
7.587744e+2, 3.0134973e+2, -33252.47, -87863.336, 324.70074, 0.0018854295, -0.0069362763, -33250.54, -33250.54, 0.0, 5.0019813, 4.966732 
7.587154e+2, 3.0632117e+2, -32449.285, -79903.0, 413.41644, 0.0012490836, 0.007467634, -32445.686, -32445.686, 0.0, 5.000802, 4.9701276 
7.5865644e+2, 3.1129262e+2, -35715.52, -81327.39, 462.5809, 0.00050730305, 0.019630613, -35710.83, -35710.83, 0.0, 4.9995923, 4.970129 
7.585975e+2, 3.162641e+2, -39053.973, -82788.87, 513.69965, -0.00029705433, 0.031744964, -39047.938, -39047.938, 0.0, 4.998354, 4.97013 
7.6576066e+2, 1.2292822e+2, -1660588.6, -1742327.0, 2876.586, -0.0062714145, 0.0095935585, -1660487.5, 74821.09, 0.0, 5.0352054, 4.981736 
7.657055e+2, 1.2790936e+2, -1614918.0, -1695054.8, 2981.2185, -0.0030833776, 0.0066230097, -1614807.3, 71686.57, 0.0, 5.0341477, 4.981736 
7.6565033e+2, 1.328905e+2, -1569227.9, -1647763.4, 3085.284, 0.0001967756, 0.0035669154, -1569106.9, 68572.39, 0.0, 5.0330896, 4.9817367 
7.6559514e+2, 1.378716e+2, -1525693.9, -1604912.6, 3611.205, 0.0037356433, 0.0017952358, -1525529.6, 63335.332, 0.0, 5.0320287, 4.9802537 
7.655411e+2, 1.4285012e+2, -1484460.3, -1567254.5, 4277.7373, 0.00737704, 0.008570084, -1484239.9, 55834.266, 0.0, 5.0310583, 4.9769163 
7.654867e+2, 1.4782631e+2, -1438268.6, -1519663.5, 4307.6855, 0.0073408643, 0.0022435444, -1438041.3, 53263.426, 0.0, 5.030135, 4.9769173 
7.6543236e+2, 1.5280251e+2, -1392059.3, -1472055.9, 4337.1274, 0.007282696, -0.00408401, -1391824.8, 50710.41, 0.0, 5.0292115, 4.976918 
7.65378e+2, 1.577787e+2, -1347375.6, -1427663.0, 4423.6777, 0.007197085, -0.009843483, -1347132.6, 46633.11, 0.0, 5.0282893, 4.975837 
7.6532406e+2, 1.6275209e+2, -1308069.9, -1394668.8, 5385.037, 0.005846264, -0.0035732165, -1307736.3, 37290.082, 0.0, 5.02739, 4.970909 
7.652704e+2, 1.6772327e+2, -1261651.5, -1346903.9, 5620.024, 0.0034500856, -0.0000071606746, -1261282.6, 35028.414, 0.0, 5.026503, 4.9709096 
7.652167e+2, 1.7269443e+2, -1215219.6, -1299131.5, 5857.6455, 0.0010195763, 0.003591167, -1214812.8, 32782.984, 0.0, 5.025616, 4.9709067 
7.6516306e+2, 1.7766559e+2, -1170090.1, -1254163.6, 5927.72, -0.0014330628, 0.0076510645, -1169674.3, 29206.174, 0.0, 5.024731, 4.9699554 
7.651095e+2, 1.8263307e+2, -1130075.3, -1220425.9, 6506.9873, -0.001335569, 0.012864861, -1129609.0, 20590.104, 0.0, 5.0239205, 4.9651465 
7.650565e+2, 1.8759722e+2, -1082958.0, -1172172.3, 6506.1504, 0.0011221572, 0.0033728492, -1082486.1, 19062.559, 0.0, 5.023214, 4.965188 
7.650035e+2, 1.9256136e+2, -1035885.2, -1124030.9, 6503.1055, 0.0035833232, -0.0061668456, -1035408.0, 17490.104, 0.0, 5.0225077, 4.965187 
7.649505e+2, 1.9752552e+2, -989785.06, -1078005.1, 6480.1177, 0.0060439464, -0.015425051, -989311.6, 14935.908, 0.0, 5.0218015, 4.9644628 
7.648969e+2, 2.0248728e+2, -950287.75, -1045941.1, 6518.419, 0.0060970066, -0.009951836, -949845.6, 5775.8525, 0.0, 5.0210357, 4.958982 
7.648432e+2, 2.0744671e+2, -903218.44, -997506.6, 6752.812, 0.004642395, -0.0056999354, -902737.25, 4282.0273, 0.0, 5.0202465, 4.9590845 
7.647894e+2, 2.1240616e+2, -856271.56, -949367.0, 6911.921, 0.0031828545, -0.0014220285, -855761.2, 2655.9846, 0.0, 5.0194583, 4.959082 
7.647357e+2, 2.1736561e+2, -809999.75, -902723.1, 7083.2505, 0.0017193992, 0.0030217788, -809461.8, 353.267, 0.0, 5.01867, 4.958561 
7.6468176e+2, 2.2232142e+2, -771281.75, -872489.0, 6930.764, 0.0007388572, 0.01118589, -770809.3, -9560.822, 0.0, 5.0178504, 4.952393 
7.6462746e+2, 2.2727333e+2, -724110.0, -823659.7, 6904.402, 0.00017671681, 0.00476313, -723633.44, -10913.081, 0.0, 5.0169997, 4.952619 
7.6457304e+2, 2.3222522e+2, -677224.5, -775476.44, 6936.5825, -0.0003736285, -0.0017612765, -676737.2, -12544.965, 0.0, 5.016148, 4.952619 
7.6451874e+2, 2.3717712e+2, -630973.94, -728722.94, 6986.758, -0.0009074121, -0.008256096, -630477.1, -14812.999, 0.0, 5.0152965, 4.952117 
7.6446414e+2, 2.421263e+2, -591556.94, -697232.75, 6489.42, -0.00078259263, -0.0031278916, -591159.9, -23997.902, 0.0, 5.0144534, 4.9462905 
7.644087e+2, 2.4707282e+2, -543984.3, -647656.56, 6275.4614, 0.00038424265, -0.004990454, -543605.8, -24920.508, 0.0, 5.0136027, 4.9467363 
7.643532e+2, 2.5201932e+2, -496988.72, -599367.0, 6291.0757, 0.0015683357, -0.0071006687, -496603.6, -26394.885, 0.0, 5.0127497, 4.9467335 
7.642977e+2, 2.5696582e+2, -450227.7, -551627.2, 6313.4375, 0.0027567847, -0.009115706, -449836.13, -28104.04, 0.0, 5.011896, 4.9465322 
7.642419e+2, 2.6190922e+2, -412590.5, -524274.94, 5982.4976, 0.0022483186, 0.0031886843, -412270.97, -38984.098, 0.0, 5.010988, 4.939185 
7.6418483e+2, 2.6684964e+2, -364364.78, -472571.28, 5719.346, -0.00085129077, 0.0038683042, -364063.3, -39191.414, 0.0, 5.0099816, 4.9403977 
7.641278e+2, 2.7179003e+2, -317683.25, -424351.0, 5791.063, -0.0039655874, 0.003312388, -317369.78, -40912.27, 0.0, 5.0089703, 4.940395 
7.6407075e+2, 2.7673042e+2, -271041.25, -376245.97, 5863.959, -0.0070565003, 0.0027627728, -270715.4, -42672.242, 0.0, 5.007959, 4.9403443 
7.64013e+2, 2.8166607e+2, -235800.64, -354448.88, 4644.055, -0.0082008215, 0.009968085, -235619.14, -55944.62, 0.0, 5.00695, 4.9309864 
7.6395404e+2, 2.8659773e+2, -187115.81, -301741.16, 4302.656, -0.0055879075, 0.0012692423, -186954.53, -55609.87, 0.0, 5.00593, 4.9325204 
7.6389503e+2, 2.915293e+2, -140315.28, -253374.22, 4366.485, -0.0027877968, -0.008518651, -140146.89, -57131.766, 0.0, 5.0049076, 4.9325204 
7.638361e+2, 2.9646084e+2, -93495.12, -204988.0, 4429.9487, 0.00008199577, -0.01837617, -93319.38, -58633.734, 0.0, 5.0038853, 4.9325204 
7.637763e+2, 3.0141053e+2, -30965.006, -86632.09, 2651.681, 0.001064662, -0.003724632, -30838.98, -30838.98, 0.0, 5.0028214, 4.9667993 
7.637161e+2, 3.0638152e+2, -30241.494, -78894.52, 2519.0417, 0.000032003856, 0.0072382754, -30111.416, -30111.416, 0.0, 5.001646, 4.970116 
7.6365596e+2, 3.1135258e+2, -33417.137, -80291.67, 2362.5852, -0.00094037905, 0.015832165, -33298.355, -33298.355, 0.0, 5.0004673, 4.970115 
7.6359576e+2, 3.163236e+2, -36589.29, -81694.555, 2213.071, -0.0018375025, 0.02434808, -36480.97, -36480.97, 0.0, 4.9992876, 4.9701138 
7.707962e+2, 1.22986026e+2, -1660312.0, -1741828.8, 2061.365, 0.00010201033, 0.008910909, -1660260.0, 74480.664, 0.0, 5.0352116, 4.9819016 
7.7073973e+2, 1.2796743e+2, -1614646.3, -1694563.4, 2169.594, 0.0008175362, 0.007022541, -1614587.5, 71336.266, 0.0, 5.0341535, 4.9819007 
7.706832e+2, 1.3294883e+2, -1568960.9, -1647278.8, 2277.2563, 0.0015558894, 0.0050869696, -1568894.8, 68212.14, 0.0, 5.0330944, 4.9818993 
7.706268e+2, 1.3793021e+2, -1525413.8, -1604395.8, 2829.8608, 0.0024730342, 0.0044877823, -1525312.5, 62977.66, 0.0, 5.032033, 4.9804277 
7.705716e+2, 1.4290887e+2, -1484350.6, -1567076.5, 3575.7764, 0.0048686895, 0.011419262, -1484196.3, 55302.26, 0.0, 5.031062, 4.976977 
7.7051634e+2, 1.4788504e+2, -1438158.4, -1519487.0, 3607.3474, 0.00517997, 0.004191342, -1437998.8, 52731.33, 0.0, 5.030139, 4.9769773 
7.7046114e+2, 1.5286121e+2, -1391948.5, -1471880.8, 3638.4104, 0.0054653967, -0.00303501, -1391783.3, 50178.188, 0.0, 5.0292163, 4.9769773 
7.704059e+2, 1.5783738e+2, -1347224.0, -1427403.1, 3738.7576, 0.0057208757, -0.009689409, -1347050.1, 46142.875, 0.0, 5.028294, 4.975925 
7.7035105e+2, 1.6281089e+2, -1307583.6, -1393681.9, 4706.4756, 0.004885577, -0.0042871353, -1307327.1, 37124.684, 0.0, 5.027392, 4.971241 
7.702966e+2, 1.6778234e+2, -1261175.3, -1345932.6, 4947.5522, 0.0030905763, -0.001271858, -1260887.4, 34845.133, 0.0, 5.0265045, 4.971237 
7.7024215e+2, 1.7275377e+2, -1214749.4, -1298167.4, 5188.4365, 0.001231388, 0.0017941844, -1214427.9, 32585.43, 0.0, 5.025617, 4.971234 
7.701876e+2, 1.7772521e+2, -1169636.4, -1253230.8, 5255.905, -0.0006745886, 0.0053450502, -1169307.3, 28986.924, 0.0, 5.024732, 4.970273 
7.7013326e+2, 1.8269293e+2, -1130033.5, -1220364.6, 5962.9473, -0.00062108744, 0.0113234455, -1129641.6, 19968.965, 0.0, 5.023922, 4.9651685 
7.7007943e+2, 1.8765731e+2, -1082939.0, -1172154.4, 5966.1396, 0.0011072218, 0.004175815, -1082541.9, 18417.31, 0.0, 5.023215, 4.9651957 
7.700256e+2, 1.9262171e+2, -1035869.8, -1124015.8, 5965.9736, 0.002818849, -0.0029895022, -1035467.9, 16839.818, 0.0, 5.022507, 4.965194 
7.6997185e+2, 1.9758609e+2, -989756.4, -1077958.6, 5919.1675, 0.00450672, -0.009835559, -989360.9, 14295.239, 0.0, 5.0218005, 4.9644814 
7.699175e+2, 2.0254792e+2, -949932.94, -1045203.0, 5919.0957, 0.00451249, -0.0052494975, -949566.56, 5462.736, 0.0, 5.0210366, 4.959235 
7.69863e+2, 2.0750722e+2, -902921.25, -996888.6, 6151.3174, 0.0036225286, -0.0046221907, -902520.25, 3906.9612, 0.0, 5.020247, 4.959298 
7.698086e+2, 2.1246651e+2, -855979.3, -948754.25, 6314.211, 0.0027156486, -0.003939281, -855551.5, 2273.6094, 0.0, 5.0194583, 4.9592953 
7.697541e+2, 2.174258e+2, -809716.2, -902123.94, 6488.2163, 0.0017939198, -0.0030668117, -809262.9, -39.775394, 0.0, 5.0186696, 4.9587703 
7.6969934e+2, 2.223817e+2, -771201.44, -872346.44, 6275.621, 0.0010260487, 0.004677551, -770813.56, -10158.152, 0.0, 5.017852, 4.952444 
7.696441e+2, 2.2733398e+2, -724027.25, -823513.0, 6256.625, 0.00011909936, 0.001554103, -723635.3, -11510.878, 0.0, 5.017001, 4.952672 
7.695889e+2, 2.3228627e+2, -677142.7, -775333.75, 6291.9746, -0.00079428527, -0.0016618697, -676741.2, -13147.686, 0.0, 5.0161495, 4.9526706 
7.695337e+2, 2.3723854e+2, -630893.2, -728584.2, 6345.387, -0.0017050824, -0.0048504206, -630482.75, -15420.151, 0.0, 5.0152984, 4.952168 
7.694782e+2, 2.4218789e+2, -591413.8, -696961.6, 5836.128, -0.0015442827, 0.00096704916, -591092.06, -24532.736, 0.0, 5.0144567, 4.946387 
7.694219e+2, 2.4713428e+2, -543909.3, -647539.2, 5624.4697, -0.0002234043, -0.002425833, -543604.94, -25521.309, 0.0, 5.0136065, 4.9467797 
7.693656e+2, 2.5208065e+2, -496914.53, -599253.06, 5642.053, 0.0010843073, -0.0060134027, -496604.44, -26996.436, 0.0, 5.0127535, 4.946776 
7.693093e+2, 2.5702703e+2, -450154.3, -551516.6, 5666.4106, 0.0023784463, -0.0095025385, -449838.53, -28706.182, 0.0, 5.0119, 4.9465737 
7.692525e+2, 2.6197043e+2, -412395.25, -523905.88, 5224.13, 0.002044635, 0.001794259, -412151.03, -39463.96, 0.0, 5.0109944, 4.939316 
7.6919454e+2, 2.6691094e+2, -364178.94, -472227.1, 4950.6187, -0.0005718329, 0.002115887, -363952.6, -39681.83, 0.0, 5.009988, 4.94052 
7.691365e+2, 2.7185145e+2, -317498.63, -424010.25, 5023.8857, -0.0032217815, 0.0012299332, -317262.2, -41407.145, 0.0, 5.008977, 4.9405165 
7.690785e+2, 2.767919e+2, -270857.8, -375908.66, 5098.3403, -0.005877625, 0.00035488268, -270610.97, -43171.574, 0.0, 5.0079656, 4.9404655 
7.690197e+2, 2.817278e+2, -235582.8, -354065.25, 3844.4084, -0.006880327, 0.008189379, -235458.2, -56389.35, 0.0, 5.0069613, 4.9311223 
7.6895964e+2, 2.8665975e+2, -186917.77, -301407.88, 3520.444, -0.0049858447, 0.0018156653, -186809.63, -56073.227, 0.0, 5.0059423, 4.9326386 
7.688996e+2, 2.9159167e+2, -140118.89, -253043.47, 3586.6753, -0.0029835445, -0.0055704946, -140005.08, -57600.816, 0.0, 5.00492, 4.9326386 
7.688395e+2, 2.9652363e+2, -93300.37, -204659.77, 3652.5415, -0.0009502446, -0.013003387, -93180.695, -59108.52, 0.0, 5.003897, 4.932638 
7.687786e+2, 3.0147332e+2, -30945.254, -86763.51, 1776.3263, -0.00067872845, 0.0014328382, -30888.783, -30888.783, 0.0, 5.00284, 4.9667544 
7.687172e+2, 3.0644363e+2, -30338.713, -79280.87, 1640.4348, -0.0016094955, 0.0067785266, -30283.791, -30283.791, 0.0, 5.0016623, 4.9699802 
7.686559e+2, 3.1141394e+2, -33525.01, -80667.2, 1498.6833, -0.0025056496, 0.009671284, -33477.414, -33477.414, 0.0, 5.0004787, 4.969984 
7.6859456e+2, 3.1638426e+2, -36707.82, -82059.27, 1363.8687, -0.0034427638, 0.012582115, -36666.844, -36666.844, 0.0, 4.9992948, 4.9699874 
7.7583176e+2, 1.23043835e+2, -1660036.8, -1741329.8, 1247.477, 0.0063868314, 0.0083680935, -1660017.6, 74154.984, 0.0, 5.0352173, 4.9820666 
7.7577394e+2, 1.2802552e+2, -1614375.8, -1694071.3, 1359.3018, 0.0046433844, 0.007522806, -1614352.6, 71000.875, 0.0, 5.0341587, 4.9820642 
7.757161e+2, 1.3300718e+2, -1568695.0, -1646793.5, 1470.5599, 0.0028534555, 0.0066686934, -1568667.4, 67866.984, 0.0, 5.0330997, 4.982062 
7.7565837e+2, 1.3798885e+2, -1525146.3, -1603902.3, 2051.064, 0.001161451, 0.007211541, -1525092.9, 62622.492, 0.0, 5.0320373, 4.9805937 
7.756021e+2, 1.4296764e+2, -1484241.0, -1566898.6, 2874.0134, 0.0023623772, 0.014323556, -1484141.1, 54781.83, 0.0, 5.031066, 4.977037 
7.7554595e+2, 1.4794376e+2, -1438048.3, -1519310.6, 2907.2068, 0.0030233925, 0.006143559, -1437944.4, 52210.96, 0.0, 5.0301433, 4.9770365 
7.7548987e+2, 1.529199e+2, -1391838.0, -1471705.8, 2939.8914, 0.0036546907, -0.0020322506, -1391729.9, 49657.86, 0.0, 5.029221, 4.9770365 
7.754337e+2, 1.5789603e+2, -1347082.5, -1427164.3, 3049.8857, 0.0042488035, -0.009615599, -1346966.5, 45653.63, 0.0, 5.028299, 4.976005 
7.7537805e+2, 1.6286972e+2, -1307102.1, -1392703.4, 4031.53, 0.0038688818, -0.004849155, -1306912.6, 36964.484, 0.0, 5.027394, 4.971569 
7.7532274e+2, 1.6784143e+2, -1260699.6, -1344961.4, 4275.868, 0.0027056464, -0.002456932, -1260483.3, 34670.72, 0.0, 5.026506, 4.971565 
7.752675e+2, 1.7281313e+2, -1214279.8, -1297203.3, 4520.014, 0.0014483834, 0.0000045081097, -1214034.1, 32396.756, 0.0, 5.025618, 4.97156 
7.752121e+2, 1.7778482e+2, -1169216.6, -1252369.4, 4585.8506, 0.00011609895, 0.002984722, -1168964.5, 28743.242, 0.0, 5.0247326, 4.970566 
7.751569e+2, 1.827528e+2, -1129987.6, -1220293.1, 5421.8604, 0.000032606607, 0.009965697, -1129663.3, 19358.676, 0.0, 5.0239234, 4.9651933 
7.751024e+2, 1.8771744e+2, -1082920.4, -1172136.5, 5426.205, 0.0010489078, 0.0050913338, -1082591.6, 17777.955, 0.0, 5.0232153, 4.965203 
7.750478e+2, 1.9268206e+2, -1035854.8, -1124000.8, 5428.9175, 0.002027782, 0.00022850679, -1035521.75, 16195.455, 0.0, 5.022507, 4.9652014 
7.7499324e+2, 1.9764668e+2, -989737.9, -1077933.8, 5361.235, 0.0029595296, -0.0042776642, -989413.2, 13651.506, 0.0, 5.0217996, 4.9644923 
7.7493805e+2, 2.026086e+2, -949587.44, -1044485.0, 5320.17, 0.0029092543, -0.00044698938, -949290.1, 5146.9663, 0.0, 5.0210376, 4.9594812 
7.7488285e+2, 2.0756774e+2, -902624.25, -996270.94, 5550.3433, 0.0026047193, -0.0035482147, -902296.44, 3538.619, 0.0, 5.0202475, 4.959511 
7.748277e+2, 2.1252686e+2, -855687.3, -948141.8, 5717.02, 0.0022721775, -0.0065679024, -855335.1, 1897.9697, 0.0, 5.0194583, 4.959507 
7.747725e+2, 2.17486e+2, -809432.9, -901525.0, 5893.6616, 0.0019138409, -0.009374301, -809057.2, -426.10193, 0.0, 5.0186687, 4.9589787 
7.747169e+2, 2.22442e+2, -771152.4, -872272.44, 5623.681, 0.0012555334, -0.0015715673, -770840.56, -10778.463, 0.0, 5.0178533, 4.952471 
7.746608e+2, 2.2739467e+2, -723944.56, -823366.56, 5610.029, 0.000031507396, -0.0014754015, -723629.0, -12100.68, 0.0, 5.0170026, 4.952724 
7.746047e+2, 2.3234732e+2, -677061.06, -775191.25, 5648.547, -0.0012142881, -0.0014714561, -676737.0, -13742.348, 0.0, 5.0161514, 4.9527216 
7.745486e+2, 2.3729996e+2, -630812.5, -728445.56, 5705.1963, -0.0024714896, -0.0014421971, -630480.25, -16019.249, 0.0, 5.0153003, 4.9522176 
7.7449226e+2, 2.4224946e+2, -591292.0, -696737.8, 5185.6235, -0.0023446777, 0.005122228, -591037.6, -25080.988, 0.0, 5.01446, 4.9464664 
7.744351e+2, 2.4719574e+2, -543834.5, -647421.9, 4974.697, -0.00085694774, 0.00017520755, -543596.1, -26114.252, 0.0, 5.01361, 4.946823 
7.74378e+2, 2.52142e+2, -496840.53, -599139.1, 4994.2485, 0.0005965795, -0.00493533, -496597.3, -27590.053, 0.0, 5.0127573, 4.9468184 
7.743208e+2, 2.5708827e+2, -450081.1, -551406.06, 5020.602, 0.0020185893, -0.009944147, -449832.94, -29300.344, 0.0, 5.0119042, 4.946615 
7.7426314e+2, 2.6203164e+2, -412205.7, -523549.5, 4467.473, 0.0018271047, 0.0004272407, -412026.72, -39939.516, 0.0, 5.011, 4.9394417 
7.742042e+2, 2.669723e+2, -363993.34, -471882.8, 4182.7905, -0.00030050406, 0.00038307867, -363831.4, -40161.863, 0.0, 5.0099945, 4.9406424 
7.741452e+2, 2.7191284e+2, -317314.22, -423669.4, 4257.608, -0.0024756764, -0.00085445977, -317144.06, -41891.527, 0.0, 5.0089836, 4.940638 
7.7408624e+2, 2.7685338e+2, -270674.6, -375571.22, 4333.621, -0.0046860306, -0.0020764798, -270495.84, -43660.31, 0.0, 5.0079727, 4.940586 
7.740265e+2, 2.8178945e+2, -235375.08, -353704.72, 3049.143, -0.005579537, 0.0064983256, -235296.56, -56833.477, 0.0, 5.006973, 4.9312496 
7.739653e+2, 2.867218e+2, -186720.16, -301074.28, 2738.6484, -0.004421881, 0.0024371329, -186654.61, -56526.543, 0.0, 5.0059547, 4.932757 
7.739041e+2, 2.9165408e+2, -139922.9, -252712.39, 2807.2817, -0.003225294, -0.0025871121, -139853.08, -58059.74, 0.0, 5.0049324, 4.9327564 
7.738429e+2, 2.9658636e+2, -93106.02, -204331.2, 2875.5498, -0.0020363876, -0.0076351636, -93031.73, -59573.08, 0.0, 5.0039096, 4.932756 
7.737809e+2, 3.0153614e+2, -30951.617, -86952.41, 902.60175, -0.002345651, 0.006537696, -30937.072, -30937.072, 0.0, 5.0028586, 4.9666867 
7.7371836e+2, 3.065057e+2, -30437.832, -79665.336, 754.3463, -0.0032232488, 0.00599285, -30426.275, -30426.275, 0.0, 5.0016785, 4.9698415 
7.736559e+2, 3.1147525e+2, -33634.785, -81040.86, 627.2998, -0.004133352, 0.0028903561, -33626.484, -33626.484, 0.0, 5.00049, 4.9698496 
7.735933e+2, 3.1644484e+2, -36828.25, -82422.125, 507.18417, -0.0052005327, -0.000097794524, -36822.61, -36822.61, 0.0, 4.9993014, 4.9698577 
7.8086704e+2, 1.2310157e+2, -1661295.1, -1741449.1, 575.1725, 0.011089432, 0.007530542, -1661290.9, 72314.734, 0.0, 5.03469, 4.9822845 
7.80808e+2, 1.2808353e+2, -1615592.5, -1694177.1, 805.13275, 0.00747976, 0.0073258155, -1615584.3, 69199.734, 0.0, 5.0336456, 4.982279 
7.807489e+2, 1.3306549e+2, -1569911.3, -1646906.4, 1026.1058, 0.0037568016, 0.0071954117, -1569897.5, 66064.695, 0.0, 5.032587, 4.982273 
7.806899e+2, 1.3804743e+2, -1526405.3, -1604039.0, 1734.6998, 0.000050220824, 0.008571841, -1526366.5, 60774.15, 0.0, 5.0315113, 4.9808035 
7.8063256e+2, 1.4302641e+2, -1485654.5, -1567379.8, 2735.3687, 0.0002805772, 0.016161706, -1485563.1, 52783.734, 0.0, 5.0305467, 4.977127 
7.805755e+2, 1.4800261e+2, -1439325.6, -1519734.1, 2817.565, 0.0011705027, 0.007731233, -1439227.0, 50352.367, 0.0, 5.02967, 4.9771237 
7.805185e+2, 1.529788e+2, -1392992.9, -1472077.9, 2895.5532, 0.002051204, -0.0007494108, -1392887.0, 47924.957, 0.0, 5.0287886, 4.9771204 
7.804615e+2, 1.5795496e+2, -1348105.0, -1427438.0, 3055.2222, 0.002905657, -0.008659092, -1347987.5, 44057.094, 0.0, 5.0279036, 4.9761043 
7.80405e+2, 1.629288e+2, -1307657.3, -1392265.9, 4044.0396, 0.0028991299, -0.004387254, -1307464.4, 35835.35, 0.0, 5.027059, 4.9718747 
7.803489e+2, 1.679007e+2, -1261004.6, -1344399.3, 4196.624, 0.0023830123, -0.003086406, -1260794.0, 33779.58, 0.0, 5.026255, 4.971872 
7.802928e+2, 1.7287259e+2, -1214362.1, -1296530.1, 4356.898, 0.0018023349, -0.0017280267, -1214131.8, 31715.666, 0.0, 5.0254426, 4.971869 
7.8023666e+2, 1.7784448e+2, -1169155.0, -1251707.5, 4343.0474, 0.001169076, 0.00016916107, -1168927.1, 28194.229, 0.0, 5.024624, 4.97084 
7.801807e+2, 1.8281272e+2, -1130217.8, -1220299.8, 5309.8477, 0.0008864461, 0.008153425, -1129905.9, 18527.367, 0.0, 5.0238237, 4.965238 
7.8012526e+2, 1.8777761e+2, -1083258.6, -1172221.1, 5374.269, 0.0010828373, 0.0056143883, -1082935.1, 16844.375, 0.0, 5.023083, 4.965236 
7.800699e+2, 1.9274248e+2, -1036294.7, -1124133.4, 5439.299, 0.0012686949, 0.0030380327, -1035959.2, 15166.557, 0.0, 5.0223393, 4.9652343 
7.800145e+2, 1.9770737e+2, -990286.0, -1078113.8, 5413.7227, 0.0014290106, 0.0007844925, -989953.56, 12518.368, 0.0, 5.0215936, 4.9645267 
7.799586e+2, 2.0266934e+2, -949925.06, -1044174.0, 5312.6196, 0.0013195856, 0.00406132, -949626.56, 4216.996, 0.0, 5.020824, 4.9596853 
7.799027e+2, 2.0762831e+2, -902920.5, -995993.94, 5412.37, 0.0015868713, -0.00246841, -902606.8, 2635.2163, 0.0, 5.020058, 4.9596925 
7.798468e+2, 2.1258728e+2, -855923.1, -947834.25, 5460.7734, 0.0018331134, -0.0089431405, -855599.8, 1040.6284, 0.0, 5.0192895, 4.95969 
7.797909e+2, 2.1754625e+2, -809726.06, -901421.4, 5535.971, 0.0020575922, -0.015224216, -809393.06, -1354.2146, 0.0, 5.0185165, 4.959084 
7.797345e+2, 2.2250238e+2, -771398.44, -872140.5, 5189.8877, 0.0014583264, -0.0070379646, -771131.8, -11663.305, 0.0, 5.017717, 4.952578 
7.796775e+2, 2.2745539e+2, -724178.1, -823315.94, 5234.237, -0.00001274237, -0.0041258824, -723902.5, -12970.595, 0.0, 5.0168877, 4.952794 
7.7962047e+2, 2.324084e+2, -677251.3, -775123.06, 5319.989, -0.0014982881, -0.0012950471, -676962.94, -14567.486, 0.0, 5.0160513, 4.9527907 
7.7956355e+2, 2.373614e+2, -630977.6, -728367.5, 5426.0815, -0.0029891976, 0.001566716, -630676.25, -16817.148, 0.0, 5.0152097, 4.9522862 
7.7950627e+2, 2.4231105e+2, -591442.1, -696672.75, 4913.4365, -0.0029631932, 0.008864398, -591213.25, -25859.574, 0.0, 5.0143785, 4.946527 
7.7944833e+2, 2.4725722e+2, -543986.0, -647405.3, 4670.915, -0.001408628, 0.0025521242, -543775.5, -26895.602, 0.0, 5.0135374, 4.9468627 
7.7939034e+2, 2.522034e+2, -496980.5, -599115.06, 4667.3647, 0.0001311847, -0.003931601, -496767.66, -28361.42, 0.0, 5.012688, 4.946859 
7.7933234e+2, 2.5714958e+2, -450224.5, -551381.2, 4676.5967, 0.0016546606, -0.010334078, -450008.75, -30076.203, 0.0, 5.0118337, 4.9466567 
7.7927375e+2, 2.6209292e+2, -412190.78, -523258.06, 4015.239, 0.0015626558, -0.00074264244, -412045.8, -40558.855, 0.0, 5.010948, 4.939567 
7.7921385e+2, 2.6703364e+2, -363860.5, -471537.38, 3717.089, -0.00007652903, -0.0011882439, -363732.34, -40664.313, 0.0, 5.0099845, 4.9407687 
7.7915394e+2, 2.7197427e+2, -317096.75, -423285.97, 3795.91, -0.0017450128, -0.0028245011, -316961.22, -42311.51, 0.0, 5.009004, 4.940765 
7.79094e+2, 2.7691492e+2, -270404.94, -375164.5, 3880.9702, -0.0034503576, -0.0044440147, -270261.34, -44029.902, 0.0, 5.008013, 4.9407134 
7.790332e+2, 2.818512e+2, -235048.88, -353268.16, 2592.7397, -0.004229672, 0.0049316506, -234992.03, -57134.977, 0.0, 5.007032, 4.9313793 
7.7897096e+2, 2.8678387e+2, -186337.73, -300616.94, 2318.7832, -0.0038242945, 0.0030969775, -186290.7, -56771.27, 0.0, 5.006035, 4.932885 
7.789086e+2, 2.9171652e+2, -139519.52, -252248.3, 2414.5454, -0.003414685, 0.00032889674, -139467.83, -58285.695, 0.0, 5.005021, 4.932884 
7.788463e+2, 2.9664916e+2, -92717.91, -203876.28, 2508.1736, -0.0030292743, -0.0024362756, -92661.34, -59816.5, 0.0, 5.003994, 4.932883 
7.7878326e+2, 3.015989e+2, -30811.402, -87118.76, 421.11334, -0.003756942, 0.011473013, -30808.254, -30808.254, 0.0, 5.0029497, 4.9665895 
7.7871954e+2, 3.0656776e+2, -30326.713, -79969.31, 148.18466, -0.004609541, 0.004949951, -30326.27, -30326.27, 0.0, 5.001784, 4.969687 
7.786558e+2, 3.1153655e+2, -33590.063, -81360.58, -72.0102, -0.0055344, -0.004359771, -33589.957, -33589.957, 0.0, 5.0005713, 4.9696984 
7.7859217e+2, 3.1650537e+2, -36956.91, -82801.266, -285.85654, -0.0066816583, -0.013559745, -36955.13, -36955.13, 0.0, 4.9993196, 4.96971 
7.8590125e+2, 1.2316111e+2, -1660284.1, -1739857.8, 2417.0544, 0.010329771, 0.0036542704, -1660210.8, 72811.26, 0.0, 5.034824, 4.9827237 
7.858411e+2, 1.2814346e+2, -1614787.9, -1692702.6, 2720.1138, 0.006874059, 0.003468921, -1614693.1, 69502.72, 0.0, 5.033716, 4.9827127 
7.8578097e+2, 1.3312583e+2, -1569270.3, -1645528.0, 3022.2612, 0.0032842204, 0.0034289942, -1569150.6, 66218.99, 0.0, 5.0326085, 4.982702 
7.857208e+2, 1.3810815e+2, -1525880.1, -1602717.1, 3837.2815, -0.00032107867, 0.004985156, -1525689.0, 60854.707, 0.0, 5.031495, 4.9812326 
7.8566253e+2, 1.4308757e+2, -1485447.5, -1566663.6, 5095.122, -0.00021078537, 0.014037581, -1485129.1, 52616.848, 0.0, 5.0305243, 4.9773583 
7.8560466e+2, 1.4806418e+2, -1438994.8, -1518964.0, 5236.683, 0.00050531403, 0.007982946, -1438653.3, 50322.063, 0.0, 5.029691, 4.9773526 
7.8554684e+2, 1.5304077e+2, -1392525.6, -1471249.1, 5378.383, 0.0012364828, 0.0018541688, -1392159.9, 48044.91, 0.0, 5.0288577, 4.9773474 
7.854889e+2, 1.5801735e+2, -1347439.4, -1426439.4, 5614.1377, 0.0019689102, -0.003742973, -1347042.4, 44391.992, 0.0, 5.028024, 4.9763646 
7.854316e+2, 1.6299132e+2, -1306847.8, -1391307.5, 6706.9756, 0.0022691628, -0.00014540686, -1306318.4, 36369.906, 0.0, 5.0272584, 4.9720826 
7.853749e+2, 1.679631e+2, -1259893.6, -1343294.6, 6799.433, 0.0023121913, -0.0014287799, -1259342.9, 34619.95, 0.0, 5.026558, 4.972081 
7.8531814e+2, 1.7293489e+2, -1212925.5, -1295269.3, 6891.9307, 0.0023561583, -0.002672718, -1212352.6, 32884.71, 0.0, 5.0258574, 4.9720793 
7.852613e+2, 1.7790668e+2, -1167336.8, -1250212.4, 6792.36, 0.0024218212, -0.0033877098, -1166783.8, 29728.074, 0.0, 5.0251594, 4.9710736 
7.852045e+2, 1.8287505e+2, -1128231.1, -1218749.5, 7802.3286, 0.0021299236, 0.004183881, -1127563.6, 20258.387, 0.0, 5.0244207, 4.965465 
7.851483e+2, 1.878403e+2, -1081268.6, -1170674.9, 7958.187, 0.0014052955, 0.0035268941, -1080565.8, 18598.604, 0.0, 5.023684, 4.965462 
7.850921e+2, 1.9280553e+2, -1034291.3, -1122586.9, 8114.7, 0.0006997601, 0.0028174757, -1033551.75, 16955.246, 0.0, 5.022948, 4.9654593 
7.850359e+2, 1.9777077e+2, -988244.4, -1076534.0, 8158.694, 0.0000053656668, 0.0023983347, -987496.75, 14352.7705, 0.0, 5.022213, 4.9647603 
7.849792e+2, 2.0273283e+2, -948073.94, -1043165.06, 8103.371, -0.00015319143, 0.0057678693, -947388.3, 5832.176, 0.0, 5.021477, 4.959709 
7.849226e+2, 2.076917e+2, -900906.4, -994936.94, 8101.9863, 0.0004483556, -0.0014375612, -900213.4, 4407.3726, 0.0, 5.020776, 4.959706 
7.8486603e+2, 2.1265055e+2, -853719.5, -946690.9, 8047.173, 0.001045861, -0.008596518, -853028.1, 2992.8633, 0.0, 5.0200744, 4.9597044 
7.848094e+2, 2.1760942e+2, -807305.94, -900153.06, 8008.479, 0.0016371211, -0.0155631285, -806620.25, 800.8716, 0.0, 5.019373, 4.959111 
7.8475225e+2, 2.2256559e+2, -768564.8, -870167.1, 7639.2505, 0.0013639113, -0.007936534, -767993.6, -9143.465, 0.0, 5.018619, 4.952826 
7.8469443e+2, 2.2751878e+2, -721292.44, -821374.8, 7756.917, 0.00016500807, -0.0049648085, -720694.8, -10383.717, 0.0, 5.0178223, 4.953019 
7.8463674e+2, 2.3247197e+2, -674264.25, -773139.7, 7906.3315, -0.0010117564, -0.0020420125, -673636.06, -11863.955, 0.0, 5.0170255, 4.9530163 
7.84579e+2, 2.3742513e+2, -627871.75, -726334.44, 8074.9854, -0.002156215, 0.00092570577, -627213.94, -13980.727, 0.0, 5.0162287, 4.9525113 
7.845209e+2, 2.4237488e+2, -588539.56, -695136.3, 7556.261, -0.0020716432, 0.008328022, -588006.56, -23279.902, 0.0, 5.01541, 4.9465747 
7.8446203e+2, 2.4732108e+2, -541170.25, -645960.3, 7274.7944, -0.001208119, 0.002520712, -540667.6, -24414.215, 0.0, 5.014551, 4.94689 
7.844031e+2, 2.5226727e+2, -494204.66, -597687.0, 7224.0645, -0.00032576875, -0.0035021133, -493702.78, -25922.541, 0.0, 5.0136895, 4.9468884 
7.843442e+2, 2.5721347e+2, -447473.38, -549963.06, 7180.3105, 0.00058897445, -0.009494349, -446972.78, -27665.703, 0.0, 5.0128284, 4.9466887 
7.842847e+2, 2.6215687e+2, -409261.16, -521425.34, 6440.188, 0.00047904786, -0.000038835537, -408892.56, -38031.293, 0.0, 5.0119467, 4.939741 
7.842239e+2, 2.6709762e+2, -360872.06, -469709.2, 6106.7607, -0.00044409616, -0.0011344443, -360530.47, -38088.938, 0.0, 5.011015, 4.940931 
7.841631e+2, 2.7203834e+2, -313995.78, -421404.9, 6147.125, -0.0013249147, -0.0033558044, -313645.13, -39622.78, 0.0, 5.0100784, 4.94093 
7.841023e+2, 2.7697903e+2, -267160.0, -373217.56, 6188.388, -0.00216996, -0.005537609, -266800.13, -41197.016, 0.0, 5.009142, 4.9408813 
7.840406e+2, 2.8191543e+2, -231621.19, -351096.1, 4870.2183, -0.0024829968, 0.003919943, -231422.98, -54195.98, 0.0, 5.0081997, 4.931608 
7.8397727e+2, 2.8684843e+2, -182881.83, -298454.13, 4606.199, -0.00245181, 0.00314289, -182698.55, -53811.902, 0.0, 5.0072193, 4.9331098 
7.83914e+2, 2.9178134e+2, -135991.5, -250067.61, 4702.2563, -0.002354634, 0.001478337, -135798.0, -55251.39, 0.0, 5.0062366, 4.933107 
7.8385067e+2, 2.9671428e+2, -89082.33, -201662.39, 4797.43, -0.0021916574, -0.00015222021, -88878.266, -56671.664, 0.0, 5.0052533, 4.933104 
7.8378654e+2, 3.0166402e+2, -27583.494, -86242.71, 2560.213, -0.0030475368, 0.013950661, -27471.965, -27471.965, 0.0, 5.004294, 4.9663067 
7.837218e+2, 3.0663213e+2, -26692.066, -79261.33, 1976.8568, -0.003631859, 0.005031189, -26617.832, -26617.832, 0.0, 5.003338, 4.969256 
7.8365713e+2, 3.1160015e+2, -29250.223, -80376.86, 1445.4834, -0.004000432, -0.0071749506, -29209.389, -29209.389, 0.0, 5.0023813, 4.9692616 
7.8359234e+2, 3.1656817e+2, -31804.873, -81497.164, 917.9477, -0.004331959, -0.01970521, -31787.922, -31787.922, 0.0, 5.0014243, 4.9692674 
7.909356e+2, 1.2322218e+2, -1659627.9, -1738569.0, 1567.4032, 0.008510301, -0.0005207445, -1659596.8, 72826.445, 0.0, 5.034828, 4.983148 
7.908743e+2, 1.2820497e+2, -1614137.6, -1691424.3, 1874.7257, 0.0054905517, -0.00062049465, -1614092.1, 69500.06, 0.0, 5.033721, 4.983135 
7.908131e+2, 1.3318776e+2, -1568625.8, -1644259.9, 2181.1365, 0.0022850586, -0.0005523858, -1568563.0, 66198.35, 0.0, 5.0326133, 4.9831223 
7.907519e+2, 1.3817053e+2, -1525248.5, -1601474.8, 3012.3716, -0.0009898413, 0.0011562794, -1525129.8, 60800.855, 0.0, 5.0315003, 4.981646 
7.906927e+2, 1.431504e+2, -1485123.4, -1566047.4, 4460.6733, -0.00082923676, 0.011840813, -1484878.3, 52250.31, 0.0, 5.030529, 4.977564 
7.906339e+2, 1.4812748e+2, -1438673.6, -1518350.3, 4603.9194, -0.00030465142, 0.008354591, -1438408.4, 49945.832, 0.0, 5.0296955, 4.977558 
7.905752e+2, 1.5310454e+2, -1392207.5, -1470638.0, 4747.303, 0.00022880736, 0.004806593, -1391921.1, 47658.906, 0.0, 5.028862, 4.9775524 
7.905165e+2, 1.5808158e+2, -1347086.6, -1425750.4, 4991.6733, 0.0007612844, 0.0017867, -1346771.1, 44034.855, 0.0, 5.028028, 4.9765964 
7.904585e+2, 1.6305567e+2, -1306632.8, -1390890.0, 6172.3906, 0.0014059636, 0.004687946, -1306183.0, 35875.77, 0.0, 5.027261, 4.9722238 
7.9040104e+2, 1.6802731e+2, -1259682.4, -1342881.0, 6267.3394, 0.0020783222, 0.0006154997, -1259212.9, 34121.492, 0.0, 5.02656, 4.9722214 
7.903437e+2, 1.7299896e+2, -1212717.8, -1294859.4, 6362.3267, 0.0027361515, -0.0034074916, -1212227.9, 32381.932, 0.0, 5.025859, 4.972219 
7.9028624e+2, 1.7797062e+2, -1167098.6, -1249735.3, 6252.451, 0.00340161, -0.0068676933, -1166628.3, 29257.139, 0.0, 5.02516, 4.971237 
7.902287e+2, 1.8293914e+2, -1127928.6, -1218126.3, 7240.567, 0.0030392532, 0.00028173116, -1127351.0, 19842.59, 0.0, 5.0244207, 4.965678 
7.901717e+2, 1.8790476e+2, -1080972.4, -1170056.6, 7399.2246, 0.0014895416, 0.0011947451, -1080362.0, 18170.086, 0.0, 5.023683, 4.965675 
7.901147e+2, 1.9287036e+2, -1034001.25, -1121973.6, 7558.5366, -0.000056824996, 0.0020828254, -1033356.56, 16513.992, 0.0, 5.022946, 4.9656715 
7.900576e+2, 1.9783597e+2, -987973.8, -1075959.5, 7568.7476, -0.0016008369, 0.0032714212, -987327.44, 13881.649, 0.0, 5.02221, 4.96496 
7.9000026e+2, 2.0279814e+2, -948135.44, -1043321.8, 7589.2446, -0.0018470299, 0.007032406, -947534.2, 5045.1167, 0.0, 5.021478, 4.9596577 
7.899429e+2, 2.077569e+2, -900979.94, -995120.75, 7568.9883, -0.00095800066, -0.0003300048, -900375.25, 3606.0967, 0.0, 5.0207763, 4.9596453 
7.8988564e+2, 2.127157e+2, -853794.9, -946877.25, 7517.443, -0.00008720472, -0.007622311, -853191.6, 2191.722, 0.0, 5.0200744, 4.9596434 
7.8982836e+2, 2.1767448e+2, -807357.9, -900287.06, 7475.6704, 0.0007606736, -0.014687802, -806760.4, 24.933025, 0.0, 5.019373, 4.9590683 
7.897705e+2, 2.2263071e+2, -768244.75, -869494.2, 7024.7085, 0.0008153636, -0.0077048484, -767759.7, -9545.902, 0.0, 5.0186195, 4.9530606 
7.8971195e+2, 2.2758405e+2, -721017.06, -820800.56, 7152.262, 0.000111823276, -0.005306406, -720507.0, -10834.797, 0.0, 5.017823, 4.9532204 
7.896534e+2, 2.3253736e+2, -673990.8, -772570.5, 7304.775, -0.00058634963, -0.0029400866, -673452.5, -12321.765, 0.0, 5.0170264, 4.9532166 
7.8959495e+2, 2.3749068e+2, -627600.2, -725770.2, 7476.5913, -0.0012721599, -0.0005289691, -627034.06, -14444.718, 0.0, 5.01623, 4.9527106 
7.8953606e+2, 2.4244052e+2, -588561.4, -695240.56, 6895.4717, -0.0011572718, 0.0070400033, -588117.5, -24035.809, 0.0, 5.0154138, 4.9465404 
7.894763e+2, 2.4738677e+2, -541200.75, -646090.3, 6620.242, -0.0010756082, 0.0021399779, -540784.56, -25175.748, 0.0, 5.0145555, 4.946846 
7.894164e+2, 2.5233302e+2, -494233.72, -597819.0, 6571.54, -0.0010079568, -0.0029967695, -493818.5, -26682.348, 0.0, 5.013695, 4.9468436 
7.893565e+2, 2.5727925e+2, -447500.97, -550097.1, 6529.842, -0.00092869235, -0.008117204, -447087.03, -28423.588, 0.0, 5.012834, 4.9466434 
7.8929615e+2, 2.6222268e+2, -409086.75, -521114.9, 5724.364, -0.0010760932, 0.001396867, -408795.0, -38577.43, 0.0, 5.0119543, 4.9398518 
7.892345e+2, 2.6716346e+2, -360723.44, -469459.34, 5394.126, -0.0010905294, -0.00044856017, -360456.5, -38659.18, 0.0, 5.0110226, 4.941021 
7.891728e+2, 2.7210414e+2, -313848.8, -421160.22, 5436.973, -0.001093802, -0.0033608403, -313574.06, -40196.48, 0.0, 5.0100865, 4.941019 
7.891112e+2, 2.7704486e+2, -267014.7, -372978.0, 5480.727, -0.0010971567, -0.0062259953, -266731.97, -41774.125, 0.0, 5.0091496, 4.940969 
7.890486e+2, 2.819814e+2, -231349.72, -350618.6, 4114.574, -0.0009874188, 0.0030511518, -231207.94, -54627.52, 0.0, 5.008215, 4.931777 
7.8898424e+2, 2.8691462e+2, -182609.78, -297985.4, 3857.802, -0.001077173, 0.0029681586, -182480.94, -54243.465, 0.0, 5.007236, 4.9332757 
7.889199e+2, 2.9184777e+2, -135720.63, -249602.05, 3955.3315, -0.0011345822, 0.0020132244, -135583.4, -55688.555, 0.0, 5.0062532, 4.9332724 
7.888556e+2, 2.9678094e+2, -88812.625, -201199.97, 4051.9778, -0.001154687, 0.0010984688, -88666.72, -57114.457, 0.0, 5.0052705, 4.9332685 
7.8879046e+2, 3.0173066e+2, -28028.895, -87481.0, 1830.0623, -0.0022244295, 0.015439054, -27972.613, -27972.613, 0.0, 5.004316, 4.965857 
7.8872484e+2, 3.0669805e+2, -27329.658, -80934.1, 1266.1903, -0.002572074, 0.005441665, -27299.766, -27299.766, 0.0, 5.003358, 4.9686484 
7.8865916e+2, 3.1166536e+2, -29896.016, -82047.21, 746.437, -0.0027112134, -0.007818816, -29885.334, -29885.334, 0.0, 5.0023985, 4.968656 
7.885936e+2, 3.166326e+2, -32458.865, -83165.1, 230.51765, -0.0028822627, -0.02134936, -32457.816, -32457.816, 0.0, 5.0014386, 4.968663 
7.9596984e+2, 1.2328328e+2, -1658972.9, -1737280.3, 719.5067, 0.0065625105, -0.004418554, -1658966.3, 72857.95, 0.0, 5.034833, 4.9835715 
7.959076e+2, 1.2826651e+2, -1613488.5, -1690145.9, 1031.0913, 0.004008144, -0.0045022895, -1613474.6, 69513.836, 0.0, 5.0337257, 4.9835567 
7.9584527e+2, 1.3324973e+2, -1567982.5, -1642991.8, 1341.7645, 0.0012163845, -0.004395674, -1567958.5, 66194.23, 0.0, 5.032618, 4.983542 
7.95783e+2, 1.3823293e+2, -1524636.6, -1600271.9, 2191.352, -0.0016916641, -0.0025936598, -1524573.1, 60744.01, 0.0, 5.0315056, 4.9820457 
7.957228e+2, 1.4321327e+2, -1484799.4, -1565431.4, 3826.1914, -0.001452719, 0.009795709, -1484618.3, 51892.688, 0.0, 5.030534, 4.9777684 
7.9566324e+2, 1.481908e+2, -1438352.6, -1517736.8, 3971.122, -0.0011206444, 0.008829452, -1438154.5, 49578.594, 0.0, 5.0297, 4.977763 
7.9560363e+2, 1.5316832e+2, -1391889.5, -1470027.0, 4116.1895, -0.0007858923, 0.007813818, -1391673.3, 47281.97, 0.0, 5.028866, 4.9777575 
7.955441e+2, 1.5814582e+2, -1346752.6, -1425100.5, 4370.3384, -0.0004568805, 0.0073328316, -1346509.6, 43667.902, 0.0, 5.028032, 4.9768147 
7.954854e+2, 1.6312005e+2, -1306418.3, -1390472.6, 5638.1006, 0.0005203356, 0.009557677, -1306041.8, 35387.46, 0.0, 5.027263, 4.972364 
7.954273e+2, 1.6809154e+2, -1259471.4, -1342467.4, 5735.5396, 0.001844775, 0.0026343018, -1259077.0, 33628.89, 0.0, 5.0265617, 4.972361 
7.9536927e+2, 1.7306304e+2, -1212510.5, -1294449.5, 5833.0156, 0.0031392027, -0.004229564, -1212097.4, 31885.027, 0.0, 5.02586, 4.972358 
7.9531115e+2, 1.7803456e+2, -1166875.5, -1249289.8, 5713.8276, 0.004417513, -0.010467992, -1166481.3, 28777.688, 0.0, 5.025161, 4.9713893 
7.952529e+2, 1.8300326e+2, -1127626.4, -1217503.1, 6678.7793, 0.0038838987, -0.0034367577, -1127132.8, 19432.342, 0.0, 5.0244207, 4.9658904 
7.9519504e+2, 1.8796924e+2, -1080676.4, -1169438.5, 6840.2354, 0.0015319464, -0.001026737, -1080152.4, 17747.123, 0.0, 5.023682, 4.9658866 
7.951372e+2, 1.929352e+2, -1033711.6, -1121360.5, 7002.3447, -0.00083242287, 0.0013858889, -1033155.75, 16078.295, 0.0, 5.022944, 4.965883 
7.9507935e+2, 1.9790117e+2, -987718.8, -1075418.6, 6981.483, -0.0032033976, 0.0041175587, -987166.56, 13401.996, 0.0, 5.0222077, 4.965148 
7.950212e+2, 2.0286345e+2, -948211.56, -1043509.75, 7078.3994, -0.0035679648, 0.008440686, -947688.7, 4249.331, 0.0, 5.021479, 4.959595 
7.9496324e+2, 2.0782214e+2, -901053.8, -995304.6, 7036.6157, -0.002372312, 0.00083431375, -900531.4, 2810.5906, 0.0, 5.0207767, 4.959584 
7.9490525e+2, 2.1278083e+2, -853870.5, -947063.75, 6988.338, -0.0012093547, -0.0066785607, -853349.4, 1396.3827, 0.0, 5.020075, 4.9595814 
7.9484737e+2, 2.1773955e+2, -807417.2, -900436.7, 6944.168, -0.00008714881, -0.013920645, -806901.6, -752.14874, 0.0, 5.0193725, 4.9590197 
7.947887e+2, 2.2269584e+2, -767931.94, -868836.94, 6411.306, 0.00025194365, -0.007346986, -767526.25, -9948.996, 0.0, 5.01862, 4.9532886 
7.947294e+2, 2.276493e+2, -720741.94, -820226.44, 6548.9067, 0.00006861751, -0.0055924277, -720312.7, -11279.487, 0.0, 5.0178237, 4.9534206 
7.9467016e+2, 2.3260278e+2, -673717.6, -772001.44, 6704.517, -0.0001260181, -0.0038602804, -673262.4, -12773.16, 0.0, 5.017028, 4.953416 
7.946109e+2, 2.3755622e+2, -627355.9, -725266.0, 6882.07, -0.0003286956, -0.0020839856, -626874.5, -14929.103, 0.0, 5.0162315, 4.9528885 
7.945512e+2, 2.4250615e+2, -588579.1, -695335.44, 6234.9023, -0.0003162666, 0.005864594, -588216.2, -24779.559, 0.0, 5.0154176, 4.9465084 
7.944904e+2, 2.4745245e+2, -541231.44, -646220.3, 5966.9023, -0.0009965975, 0.001826842, -540893.4, -25929.191, 0.0, 5.01456, 4.946802 
7.944296e+2, 2.5239873e+2, -494262.94, -597951.06, 5920.2285, -0.0017200266, -0.0024693254, -493926.0, -27433.988, 0.0, 5.0137, 4.946799 
7.9436886e+2, 2.57345e+2, -447528.7, -550231.2, 5880.5864, -0.0024526382, -0.006763427, -447193.06, -29173.252, 0.0, 5.01284, 4.9465976 
7.9430753e+2, 2.6228848e+2, -408919.7, -520820.13, 5010.414, -0.0026455764, 0.0028732193, -408695.78, -39122.008, 0.0, 5.0119615, 4.9399567 
7.9424506e+2, 2.672293e+2, -360575.25, -469209.2, 4683.126, -0.0017264157, 0.00025148236, -360373.75, -39220.723, 0.0, 5.0110307, 4.941111 
7.9418254e+2, 2.7217e+2, -313702.3, -420915.25, 4728.456, -0.0008245907, -0.00339067, -313494.2, -40761.41, 0.0, 5.010094, 4.9411077 
7.941201e+2, 2.7711073e+2, -266869.84, -372738.2, 4774.7, 0.000041279414, -0.006978105, -266654.94, -42342.4, 0.0, 5.0091577, 4.9410567 
7.9405653e+2, 2.8204736e+2, -231087.11, -350161.38, 3366.5486, 0.00048510803, 0.0022215503, -230992.0, -55058.26, 0.0, 5.00823, 4.931938 
7.939912e+2, 2.869808e+2, -182338.03, -297516.5, 3110.1145, 0.00025955393, 0.002831882, -182254.11, -54665.9, 0.0, 5.0072527, 4.933441 
7.939259e+2, 2.9191425e+2, -135450.03, -249136.28, 3209.1162, 0.000049160895, 0.0025676577, -135359.52, -56116.5, 0.0, 5.0062704, 4.9334373 
7.9386055e+2, 2.9684764e+2, -88543.2, -200737.36, 3307.235, -0.00015242813, 0.0023498079, -88445.8, -57547.938, 0.0, 5.0052876, 4.9334335 
7.9379445e+2, 3.0179724e+2, -28502.768, -88782.93, 1101.8973, -0.0013552213, 0.016888259, -28482.63, -28482.63, 0.0, 5.0043373, 4.9653826 
7.937278e+2, 3.0676392e+2, -27968.598, -82606.28, 552.0986, -0.0014534618, 0.005564036, -27963.02, -27963.02, 0.0, 5.0033774, 4.9680386 
7.936613e+2, 3.1173047e+2, -30543.156, -83716.96, 43.967484, -0.0013714227, -0.009007885, -30543.121, -30543.121, 0.0, 5.0024157, 4.9680476 
7.935948e+2, 3.1669703e+2, -33114.207, -84832.44, -460.33347, -0.0013902262, -0.023795633, -33110.11, -33110.11, 0.0, 5.0014534, 4.9680567 
8.010039e+2, 1.2334476e+2, -1662321.8, -1738093.4, 448.31372, 0.0047758413, -0.00627466, -1662319.1, 68903.07, 0.0, 5.033526, 4.983949 
8.009406e+2, 1.2832832e+2, -1615970.5, -1690507.1, 655.2568, 0.0025947634, -0.0066226874, -1615964.8, 66417.76, 0.0, 5.032702, 4.9839416 
8.008773e+2, 1.3331188e+2, -1569718.3, -1642963.0, 877.4222, 0.0002982164, -0.006877531, -1569707.8, 63835.047, 0.0, 5.031839, 4.983934 
8.00814e+2, 1.3829546e+2, -1525780.4, -1599973.9, 1669.2013, -0.0019945423, -0.0054900264, -1525742.9, 58960.34, 0.0, 5.030931, 4.9824247 
8.007529e+2, 1.4327621e+2, -1485856.8, -1565384.5, 3509.021, -0.0015931171, 0.008017587, -1485702.3, 50190.89, 0.0, 5.0300565, 4.978014 
8.0069244e+2, 1.4825417e+2, -1439247.0, -1517604.5, 3738.0923, -0.0015293335, 0.008913092, -1439069.0, 48042.395, 0.0, 5.029278, 4.9780097 
8.00632e+2, 1.5323211e+2, -1392634.3, -1469816.0, 3966.273, -0.0014677278, 0.009817199, -1392431.0, 45898.914, 0.0, 5.028495, 4.978005 
8.005716e+2, 1.5821005e+2, -1347356.3, -1424809.5, 4314.939, -0.00141726, 0.011312073, -1347116.6, 42431.797, 0.0, 5.027707, 4.977066 
8.0051214e+2, 1.6318442e+2, -1307075.0, -1390500.5, 5684.477, -0.00028734957, 0.01312958, -1306689.5, 34109.44, 0.0, 5.0269804, 4.9724884 
8.004534e+2, 1.6815583e+2, -1260031.4, -1342448.6, 5725.817, 0.0014668799, 0.004188049, -1259635.4, 32440.814, 0.0, 5.0263114, 4.972486 
8.003947e+2, 1.7312725e+2, -1212999.1, -1294396.0, 5767.583, 0.0032031103, -0.0047409087, -1212592.5, 30761.14, 0.0, 5.0256333, 4.972483 
8.00336e+2, 1.7809868e+2, -1167304.5, -1249184.4, 5583.078, 0.004919848, -0.013017479, -1166925.5, 27705.28, 0.0, 5.0249496, 4.9715247 
8.0027705e+2, 1.8306755e+2, -1127902.0, -1217135.0, 6510.1284, 0.0042665964, -0.0060019544, -1127429.5, 18505.521, 0.0, 5.0242248, 4.966106 
8.002184e+2, 1.8803383e+2, -1080890.1, -1169045.1, 6659.4604, 0.0014375056, -0.0027952243, -1080389.9, 16876.223, 0.0, 5.0235076, 4.966101 
8.0015975e+2, 1.930001e+2, -1033878.8, -1120948.9, 6807.9346, -0.0014144552, 0.00045030136, -1033349.7, 15247.448, 0.0, 5.0227857, 4.9660964 
8.0010116e+2, 1.9796634e+2, -987899.75, -1075094.8, 6761.65, -0.0042806305, 0.0040615797, -987378.56, 12549.73, 0.0, 5.0220613, 4.965327 
8.000422e+2, 2.0292874e+2, -948679.56, -1043861.4, 6918.8706, -0.004772889, 0.009146127, -948179.25, 3117.6833, 0.0, 5.0213437, 4.9595385 
7.9998356e+2, 2.0788741e+2, -901477.2, -995617.9, 6890.3184, -0.0034472172, 0.0017596479, -900975.56, 1726.548, 0.0, 5.020653, 4.959535 
7.999249e+2, 2.1284607e+2, -854277.0, -947367.7, 6864.0273, -0.0021260614, -0.005615278, -853773.56, 333.7023, 0.0, 5.0199556, 4.9595323 
7.9986626e+2, 2.1780472e+2, -807808.5, -900705.25, 6839.6484, -0.0008244141, -0.012765521, -807307.6, -1795.2509, 0.0, 5.019253, 4.958982 
7.998069e+2, 2.2276108e+2, -767983.75, -868409.0, 6195.9116, -0.00028395807, -0.0064975326, -767602.94, -10663.528, 0.0, 5.0185094, 4.9534864 
7.997469e+2, 2.2771463e+2, -720775.5, -819836.1, 6245.15, 0.000028658786, -0.0056516863, -720383.3, -11989.841, 0.0, 5.0177283, 4.9535995 
7.996869e+2, 2.3266818e+2, -673715.4, -771593.25, 6313.861, 0.0003296374, -0.0047916686, -673309.75, -13462.138, 0.0, 5.0169444, 4.9535956 
7.996269e+2, 2.3762174e+2, -627365.25, -724928.1, 6414.672, 0.000614151, -0.0038539376, -626945.3, -15643.494, 0.0, 5.0161576, 4.9530396 
7.995663e+2, 2.4257177e+2, -588792.1, -695498.3, 5697.2603, 0.00043783124, 0.004614076, -588488.8, -25696.836, 0.0, 5.015353, 4.946482 
7.9950464e+2, 2.4751812e+2, -541430.06, -646387.2, 5465.3623, -0.00093148823, 0.0014475982, -541146.2, -26826.43, 0.0, 5.0145025, 4.9467707 
7.994429e+2, 2.5246447e+2, -494455.75, -598112.6, 5458.55, -0.0023443564, -0.0020038954, -494169.1, -28321.273, 0.0, 5.013644, 4.946768 
7.9938114e+2, 2.574108e+2, -447731.4, -550394.25, 5465.4707, -0.0037643637, -0.005475635, -447441.28, -30065.338, 0.0, 5.01278, 4.946567 
7.9931897e+2, 2.6235434e+2, -408954.97, -520628.47, 4543.5137, -0.004006704, 0.0043801703, -408770.44, -39840.76, 0.0, 5.011906, 4.940049 
7.9925567e+2, 2.6729512e+2, -360583.06, -469027.0, 4176.898, -0.0022512728, 0.0010157827, -360422.4, -39913.887, 0.0, 5.010989, 4.9411945 
7.991923e+2, 2.7223587e+2, -313692.25, -420723.3, 4191.6826, -0.00049471116, -0.0033498541, -313528.34, -41440.49, 0.0, 5.010059, 4.941192 
7.991289e+2, 2.7717662e+2, -266864.8, -372546.63, 4216.998, 0.0012321399, -0.007670254, -266696.8, -43029.598, 0.0, 5.009121, 4.9411416 
7.9906446e+2, 2.8211334e+2, -230886.42, -349685.38, 2812.808, 0.0019141377, 0.0015055591, -230819.86, -55532.855, 0.0, 5.008224, 4.9321103 
7.989982e+2, 2.8704706e+2, -181948.5, -296929.53, 2627.373, 0.0015306424, 0.0027109052, -181888.5, -54949.68, 0.0, 5.0073104, 4.9336257 
7.9893184e+2, 2.919807e+2, -134937.22, -248495.95, 2804.3389, 0.0011830512, 0.003024982, -134868.02, -56277.016, 0.0, 5.006374, 4.9336214 
7.988655e+2, 2.9691437e+2, -87955.21, -200065.31, 2980.5698, 0.000837584, 0.0033898004, -87876.02, -57632.816, 0.0, 5.00542, 4.933617 
7.9879844e+2, 3.0186388e+2, -28575.457, -89908.0, 850.6127, -0.00039087833, 0.018138375, -28563.662, -28563.662, 0.0, 5.004519, 4.9648957 
7.9873097e+2, 3.0682984e+2, -27981.51, -83964.195, 320.45795, -0.00019350779, 0.005547214, -27979.674, -27979.674, 0.0, 5.003633, 4.967434 
7.986635e+2, 3.1179565e+2, -30511.965, -85052.586, -173.78139, 0.00019135544, -0.010351094, -30511.41, -30511.41, 0.0, 5.0026894, 4.9674425 
7.98596e+2, 3.1676143e+2, -33193.414, -86209.78, -671.10986, 0.00044855382, -0.026476897, -33184.918, -33184.918, 0.0, 5.0016885, 4.9674516 
8.0603606e+2, 1.23409234e+2, -1662983.6, -1737469.4, 2568.7664, 0.0006624491, -0.0026331646, -1662895.1, 67697.42, 0.0, 5.0331273, 4.9843364 
8.0597216e+2, 1.2839302e+2, -1616620.5, -1689860.9, 2820.93, 0.00029761042, -0.0041290773, -1616512.0, 65238.293, 0.0, 5.0323076, 4.984333 
8.059082e+2, 1.333768e+2, -1570241.8, -1642238.0, 3071.6438, -0.00023843996, -0.005635737, -1570111.0, 62797.22, 0.0, 5.0314865, 4.98433 
8.058443e+2, 1.3836056e+2, -1526031.0, -1599038.4, 3872.9163, -0.0008397473, -0.005616108, -1525826.1, 58240.133, 0.0, 5.0306573, 4.982851 
8.0578244e+2, 1.433416e+2, -1485873.6, -1564314.5, 5871.9517, -0.00018101472, 0.0068850303, -1485436.5, 49816.06, 0.0, 5.029867, 4.9784393 
8.057212e+2, 1.4831989e+2, -1438996.3, -1516401.3, 6156.026, -0.00059113867, 0.0073185377, -1438509.8, 47957.113, 0.0, 5.02918, 4.9784355 
8.0566e+2, 1.5329817e+2, -1392105.3, -1468475.6, 6440.404, -0.0010115117, 0.007796445, -1391565.9, 46115.316, 0.0, 5.028493, 4.978431 
8.055988e+2, 1.5827644e+2, -1346526.3, -1423304.3, 6867.1836, -0.0014471408, 0.008884082, -1345916.9, 42978.72, 0.0, 5.027806, 4.977501 
8.055387e+2, 1.6325107e+2, -1306438.4, -1389828.5, 8335.585, -0.00076215476, 0.011120866, -1305613.3, 34530.55, 0.0, 5.0271697, 4.9726024 
8.0547935e+2, 1.6822268e+2, -1259162.4, -1341671.9, 8361.718, 0.00045528094, 0.00370107, -1258323.5, 33096.78, 0.0, 5.026582, 4.9725976 
8.0542e+2, 1.731943e+2, -1211874.5, -1293504.6, 8387.576, 0.0016476429, -0.0036888134, -1211021.6, 31675.068, 0.0, 5.0259933, 4.9725933 
8.0536056e+2, 1.7816594e+2, -1165844.5, -1248046.3, 8182.294, 0.002829319, -0.0104174325, -1165038.0, 28934.975, 0.0, 5.025407, 4.9716735 
8.053009e+2, 1.8313491e+2, -1126067.4, -1215610.4, 9087.286, 0.0025891056, -0.004053053, -1125154.5, 20121.715, 0.0, 5.024771, 4.9663415 
8.052417e+2, 1.8810117e+2, -1078838.5, -1167434.1, 9213.835, 0.00070960104, -0.0027494584, -1077890.4, 18716.184, 0.0, 5.0241323, 4.966333 
8.051825e+2, 1.9306742e+2, -1031596.5, -1119246.1, 9339.746, -0.0012033577, -0.0013737697, -1030612.3, 17324.668, 0.0, 5.023494, 4.9663243 
8.0512327e+2, 1.9803366e+2, -985371.44, -1073291.8, 9261.11, -0.003140886, 0.0004170162, -984406.56, 14860.928, 0.0, 5.022857, 4.9655523 
8.050637e+2, 2.029962e+2, -946187.94, -1042458.75, 9481.985, -0.003552293, 0.006001983, -945262.9, 5371.96, 0.0, 5.022206, 4.959599 
8.0500436e+2, 2.0795509e+2, -898845.25, -994150.9, 9499.721, -0.0028492813, 0.0010352532, -897907.56, 4130.6606, 0.0, 5.021566, 4.9595966 
8.0494493e+2, 2.1291399e+2, -851489.44, -945831.56, 9517.51, -0.0021066037, -0.0040276395, -850538.9, 2902.8398, 0.0, 5.0209255, 4.959594 
8.048856e+2, 2.1787287e+2, -804820.56, -899031.56, 9531.846, -0.0013315644, -0.008999912, -803865.9, 979.41974, 0.0, 5.0202856, 4.959065 
8.048255e+2, 2.2282921e+2, -764855.8, -866718.3, 8806.234, -0.00079744065, -0.003364951, -764100.1, -7827.4785, 0.0, 5.019601, 4.9535494 
8.0476475e+2, 2.2778255e+2, -717553.6, -818141.9, 8768.685, -0.00027108873, -0.0045093023, -716794.94, -9066.501, 0.0, 5.0188646, 4.9536467 
8.0470407e+2, 2.3273589e+2, -670366.3, -769837.5, 8735.135, 0.00026036202, -0.0055897874, -669605.0, -10420.819, 0.0, 5.018128, 4.953646 
8.0464333e+2, 2.3768924e+2, -623880.5, -723107.3, 8727.13, 0.00078967895, -0.0065390854, -623118.8, -12478.871, 0.0, 5.017391, 4.953094 
8.045819e+2, 2.426393e+2, -585227.4, -693559.7, 7920.898, 0.0006875315, 0.0017078221, -584651.25, -22521.36, 0.0, 5.0166025, 4.94657 
8.0451936e+2, 2.4758582e+2, -537903.7, -644470.75, 7724.4805, -0.0007689534, -0.00017823087, -537346.75, -23690.582, 0.0, 5.0157447, 4.946857 
8.044568e+2, 2.525323e+2, -490941.44, -596191.3, 7739.958, -0.0022057525, -0.0023342546, -490375.28, -25192.736, 0.0, 5.0148845, 4.9468594 
8.043942e+2, 2.5747883e+2, -444213.38, -548461.2, 7762.961, -0.0035859675, -0.0045105866, -443638.47, -26929.49, 0.0, 5.0140247, 4.946664 
8.043311e+2, 2.624224e+2, -405576.53, -518898.2, 6748.203, -0.0036740832, 0.005878037, -405176.1, -36913.973, 0.0, 5.013131, 4.9400845 
8.0426687e+2, 2.6736316e+2, -357374.66, -467447.2, 6273.216, -0.0018957759, 0.0023736514, -357018.3, -37176.246, 0.0, 5.0121703, 4.9412003 
8.042025e+2, 2.7230382e+2, -310585.03, -419186.72, 6162.6724, -0.00004431673, -0.0021511607, -310236.44, -38814.01, 0.0, 5.011205, 4.941201 
8.0413824e+2, 2.772445e+2, -263835.3, -371042.72, 6052.857, 0.001862573, -0.006676529, -263494.66, -40491.89, 0.0, 5.01024, 4.9411545 
8.0407286e+2, 2.8218135e+2, -227358.42, -347075.56, 4703.6616, 0.0026043016, 0.0017564195, -227173.89, -52552.2, 0.0, 5.0093584, 4.9325047 
8.040057e+2, 2.8711534e+2, -178204.63, -294226.6, 4589.6714, 0.0021190636, 0.0022174644, -178023.34, -51753.27, 0.0, 5.00853, 4.9340215 
8.0393845e+2, 2.9204926e+2, -130923.33, -245679.03, 4829.729, 0.0017270759, 0.0018129178, -130720.42, -52801.58, 0.0, 5.007697, 4.9340177 
8.038713e+2, 2.9698318e+2, -83625.62, -197115.83, 5069.4614, 0.0013998224, 0.0014313724, -83399.62, -53831.938, 0.0, 5.0068636, 4.9340143 
8.038034e+2, 3.0193278e+2, -24698.38, -88923.16, 3068.3574, 0.0003731843, 0.016741378, -24552.123, -24552.123, 0.0, 5.0061436, 4.9645267 
8.037354e+2, 3.068985e+2, -23374.371, -82968.76, 2543.881, 0.001499569, 0.0073031285, -23265.979, -23265.979, 0.0, 5.005585, 4.9669304 
8.036673e+2, 3.1186408e+2, -24847.89, -83604.37, 2031.198, 0.0030472737, -0.0054855607, -24777.756, -24777.756, 0.0, 5.0050306, 4.966937 
8.035992e+2, 3.168296e+2, -26318.758, -84243.01, 1526.881, 0.0046760007, -0.018648105, -26278.537, -26278.537, 0.0, 5.004474, 4.9669437 
8.110683e+2, 1.2347538e+2, -1662388.9, -1736326.8, 1926.8335, -0.004589629, 0.0017784208, -1662338.6, 67607.91, 0.0, 5.033135, 4.984713 
8.110038e+2, 1.2845941e+2, -1616027.3, -1688723.3, 2183.6682, -0.0027336015, -0.0010763549, -1615961.6, 65140.0, 0.0, 5.0323157, 4.9847093 
8.109392e+2, 1.3344342e+2, -1569650.0, -1641105.1, 2439.0535, -0.001141538, -0.0039474596, -1569566.8, 62690.105, 0.0, 5.0314956, 4.9847054 
8.108747e+2, 1.3842744e+2, -1525398.8, -1597825.4, 3236.6206, 0.00025034678, -0.0053040944, -1525254.5, 58157.85, 0.0, 5.0306673, 4.9832535 
8.1081206e+2, 1.4340875e+2, -1485274.3, -1563136.9, 5349.998, 0.0011571341, 0.0060218703, -1484908.4, 49686.71, 0.0, 5.0298734, 4.9788303 
8.107501e+2, 1.4838736e+2, -1438401.1, -1515227.3, 5636.0967, 0.00027056143, 0.005682727, -1437989.9, 47815.375, 0.0, 5.0291862, 4.978826 
8.106882e+2, 1.5336595e+2, -1391514.4, -1467305.3, 5922.4985, -0.0006348472, 0.0053919754, -1391054.3, 45961.156, 0.0, 5.028499, 4.9788218 
8.1062627e+2, 1.5834454e+2, -1345954.8, -1422167.3, 6371.445, -0.0015634411, 0.005726518, -1345425.8, 42800.098, 0.0, 5.027811, 4.9778814 
8.105655e+2, 1.6331944e+2, -1306339.0, -1389659.0, 7886.9727, -0.0014130467, 0.0086402325, -1305599.0, 33872.68, 0.0, 5.027173, 4.9726596 
8.1050545e+2, 1.682913e+2, -1259065.5, -1341505.4, 7915.712, -0.0008331279, 0.0030894391, -1258312.3, 32434.604, 0.0, 5.0265846, 4.9726543 
8.1044537e+2, 1.7326316e+2, -1211780.1, -1293341.1, 7944.177, -0.00030372848, -0.0024247733, -1211013.5, 31008.598, 0.0, 5.025996, 4.9726496 
8.103853e+2, 1.7823504e+2, -1165693.9, -1247759.0, 7736.251, 0.00020845243, -0.0072914893, -1164971.0, 28326.227, 0.0, 5.0254087, 4.971772 
8.1032515e+2, 1.8320408e+2, -1125828.8, -1215107.4, 8604.72, 0.00040157713, -0.0016653468, -1125006.9, 19592.62, 0.0, 5.0247693, 4.9665146 
8.1026536e+2, 1.8817028e+2, -1078603.0, -1166936.4, 8733.801, -0.00035038442, -0.0025104815, -1077747.8, 18181.873, 0.0, 5.0241303, 4.966505 
8.1020564e+2, 1.9313648e+2, -1031364.2, -1118753.9, 8862.244, -0.0011533916, -0.0032738266, -1030474.56, 16785.164, 0.0, 5.0234914, 4.9664955 
8.101459e+2, 1.981027e+2, -985149.3, -1072822.0, 8773.958, -0.0020082267, -0.0035734442, -984279.9, 14309.937, 0.0, 5.0228553, 4.9657164 
8.100857e+2, 2.0306538e+2, -946144.7, -1042375.0, 8994.732, -0.0023764127, 0.0026316384, -945311.2, 4644.5337, 0.0, 5.0222044, 4.959631 
8.1002563e+2, 2.0802456e+2, -898804.06, -994069.44, 9015.4375, -0.002314419, 0.00020018453, -897958.4, 3398.5383, 0.0, 5.021564, 4.9596276 
8.099655e+2, 2.1298373e+2, -851450.25, -945752.44, 9036.195, -0.0022333136, -0.0023150304, -850592.2, 2166.029, 0.0, 5.0209236, 4.9596243 
8.0990547e+2, 2.1794291e+2, -804745.06, -898871.7, 9049.75, -0.0021321515, -0.0047675595, -803882.9, 276.73822, 0.0, 5.020283, 4.9591236 
8.098447e+2, 2.228992e+2, -764879.25, -866802.56, 8239.304, -0.0016397338, 0.00031888974, -764217.5, -8630.1875, 0.0, 5.0196023, 4.9535236 
8.097832e+2, 2.2785228e+2, -717583.4, -818241.9, 8211.153, -0.00091697834, -0.0030141915, -716917.94, -9872.494, 0.0, 5.018866, 4.9536157 
8.0972177e+2, 2.3280537e+2, -670395.5, -769939.06, 8180.0693, -0.00020938192, -0.006280002, -669727.8, -11224.227, 0.0, 5.01813, 4.953614 
8.0966026e+2, 2.3775847e+2, -623903.9, -723198.4, 8174.397, 0.00047346027, -0.00940414, -623235.44, -13273.841, 0.0, 5.017393, 4.953066 
8.0959815e+2, 2.4270849e+2, -585143.56, -693419.2, 7257.116, 0.00051310135, -0.0014674941, -584659.3, -23207.674, 0.0, 5.0166044, 4.946622 
8.095347e+2, 2.476552e+2, -537830.75, -644357.25, 7073.5264, -0.0007835563, -0.0019784565, -537363.1, -24387.23, 0.0, 5.015747, 4.9469 
8.0947125e+2, 2.526019e+2, -490868.22, -596080.44, 7091.2036, -0.0020802096, -0.0027446663, -490392.44, -25892.066, 0.0, 5.0148873, 4.9469013 
8.0940783e+2, 2.5754854e+2, -444137.03, -548346.6, 7114.725, -0.0033459791, -0.0035378297, -443653.53, -27628.666, 0.0, 5.014028, 4.9467072 
8.093439e+2, 2.6249224e+2, -405624.03, -519107.4, 6006.291, -0.0033302025, 0.007522595, -405307.03, -37729.414, 0.0, 5.01314, 4.940013 
8.092786e+2, 2.6743287e+2, -357455.03, -467740.78, 5538.626, -0.0015692145, 0.0040704235, -357177.6, -38018.426, 0.0, 5.012181, 4.9410987 
8.0921334e+2, 2.7237344e+2, -310663.63, -419483.2, 5431.456, 0.00020937338, -0.000395942, -310393.2, -39651.96, 0.0, 5.0112166, 4.941098 
8.091481e+2, 2.7731404e+2, -263912.1, -371342.03, 5325.022, 0.001990021, -0.00486669, -263648.8, -41325.527, 0.0, 5.010252, 4.94105 
8.090818e+2, 2.822509e+2, -226831.13, -346027.28, 4054.9514, 0.0027114116, 0.0026511075, -226693.33, -52751.563, 0.0, 5.0093765, 4.9328756 
8.090138e+2, 2.871851e+2, -177695.05, -293218.22, 3955.9307, 0.0022228202, 0.0018085056, -177559.73, -51972.73, 0.0, 5.0085483, 4.93438 
8.089457e+2, 2.9211926e+2, -130417.37, -244675.17, 4199.7744, 0.0017577829, 0.00018988244, -130263.2, -53030.63, 0.0, 5.0077157, 4.9343762 
8.088777e+2, 2.970534e+2, -83123.27, -196116.48, 4443.293, 0.001297238, -0.001387043, -82948.81, -54070.61, 0.0, 5.006882, 4.9343724 
8.0880916e+2, 3.020031e+2, -25091.123, -90150.91, 2608.5027, 0.00046662896, 0.01465288, -24986.705, -24986.705, 0.0, 5.0061812, 4.964077 
8.087406e+2, 3.069687e+2, -23898.334, -84484.49, 2129.401, 0.0026274696, 0.009624483, -23823.584, -23823.584, 0.0, 5.0056205, 4.9663763 
8.086721e+2, 3.1193414e+2, -25390.521, -85112.664, 1629.7552, 0.005084521, 0.0014613004, -25346.08, -25346.08, 0.0, 5.005059, 4.9663877 
8.086035e+2, 3.168996e+2, -26880.047, -85743.87, 1138.4742, 0.0074552656, -0.0069425004, -26858.035, -26858.035, 0.0, 5.004495, 4.9663987 
8.1610054e+2, 1.2354154e+2, -1661795.8, -1735183.1, 1285.9895, -0.009719633, 0.0063236034, -1661773.3, 67527.22, 0.0, 5.033143, 4.98509 
8.160354e+2, 1.2852581e+2, -1615435.6, -1687584.5, 1547.4948, -0.0056458665, 0.002064842, -1615402.4, 65050.484, 0.0, 5.0323243, 4.985085 
8.1597024e+2, 1.3351005e+2, -1569059.8, -1639971.4, 1807.5509, -0.001928836, -0.0022157982, -1569013.8, 62591.723, 0.0, 5.031505, 4.9850807 
8.159051e+2, 1.384943e+2, -1524776.9, -1596630.6, 2600.7852, 0.0014339957, -0.0049772304, -1524682.9, 58075.383, 0.0, 5.030678, 4.9836493 
8.158417e+2, 1.4347592e+2, -1484675.3, -1561959.4, 4827.4775, 0.002471565, 0.005233408, -1484374.9, 49562.46, 0.0, 5.02988, 4.9792204 
8.15779e+2, 1.4845483e+2, -1437806.4, -1514053.4, 5115.6006, 0.0011081869, 0.004070422, -1437464.8, 47678.695, 0.0, 5.0291924, 4.979216 
8.157164e+2, 1.5343374e+2, -1390923.9, -1466135.0, 5404.026, -0.00028261376, 0.0029598488, -1390537.6, 45812.004, 0.0, 5.028505, 4.979212 
8.156537e+2, 1.5841265e+2, -1345417.0, -1421100.5, 5875.3423, -0.0017092304, 0.002530378, -1344963.6, 42592.207, 0.0, 5.027817, 4.9782386 
8.155922e+2, 1.6338784e+2, -1306240.3, -1389489.1, 7438.964, -0.0021217128, 0.0063167242, -1305580.8, 33218.66, 0.0, 5.027177, 4.9727163 
8.1553155e+2, 1.6835992e+2, -1258969.1, -1341338.5, 7470.309, -0.0021563917, 0.0025818013, -1258297.1, 31776.29, 0.0, 5.026588, 4.9727106 
8.154708e+2, 1.7333204e+2, -1211686.3, -1293177.3, 7501.3794, -0.002267046, -0.0011098468, -1211001.5, 30346.0, 0.0, 5.0259986, 4.9727054 
8.154101e+2, 1.7830415e+2, -1165549.0, -1247482.5, 7287.976, -0.0024037426, -0.004162703, -1164905.8, 27715.643, 0.0, 5.0254107, 4.9718666 
8.153493e+2, 1.8327327e+2, -1125590.4, -1214604.4, 8123.2236, -0.0017829053, 0.0007385871, -1124855.1, 19067.71, 0.0, 5.0247674, 4.9666867 
8.152891e+2, 1.8823943e+2, -1078367.9, -1166438.9, 8254.837, -0.0013800722, -0.0023142614, -1077600.9, 17651.756, 0.0, 5.0241284, 4.966676 
8.152288e+2, 1.9320558e+2, -1031132.25, -1118261.5, 8385.812, -0.0010458868, -0.0052756025, -1030332.5, 16249.858, 0.0, 5.0234895, 4.966666 
8.151685e+2, 1.9817173e+2, -984952.7, -1072406.8, 8289.544, -0.00080364343, -0.0076875673, -984173.9, 13738.271, 0.0, 5.0228534, 4.9658613 
8.1510764e+2, 2.031346e+2, -946101.94, -1042291.25, 8507.746, -0.0012343018, -0.0005206333, -945355.25, 3921.1934, 0.0, 5.022203, 4.959662 
8.1504685e+2, 2.0809406e+2, -898763.25, -993987.94, 8531.421, -0.0017999248, -0.0004856987, -898004.94, 2670.5151, 0.0, 5.0215626, 4.959658 
8.149861e+2, 2.130535e+2, -851411.44, -945673.25, 8555.146, -0.0023669973, -0.000522093, -850641.25, 1433.3302, 0.0, 5.0209217, 4.9596543 
8.149253e+2, 2.1801294e+2, -804697.5, -898772.1, 8572.845, -0.0029265739, -0.0005272735, -803922.7, -448.87708, 0.0, 5.020281, 4.959161 
8.148638e+2, 2.2296919e+2, -764896.8, -866873.75, 7670.691, -0.0025091344, 0.0040365146, -764323.06, -9421.037, 0.0, 5.0196037, 4.9535017 
8.1480163e+2, 2.2792202e+2, -717613.4, -818341.9, 7654.5107, -0.0015774335, -0.0015421847, -717035.0, -10672.523, 0.0, 5.0188675, 4.9535837 
8.1473947e+2, 2.3287484e+2, -670424.94, -770040.56, 7625.894, -0.0006811176, -0.0070504965, -669844.56, -12021.628, 0.0, 5.0181313, 4.953582 
8.1467724e+2, 2.378277e+2, -623931.94, -723299.1, 7620.589, 0.0001666547, -0.012392878, -623350.9, -14067.568, 0.0, 5.017395, 4.9530334 
8.146143e+2, 2.4277772e+2, -585062.94, -693285.25, 6594.5537, 0.00035323174, -0.004531568, -584662.56, -23889.406, 0.0, 5.016607, 4.946671 
8.1455004e+2, 2.477246e+2, -537758.0, -644243.7, 6423.7783, -0.00076514855, -0.0037068091, -537371.9, -25076.398, 0.0, 5.0157495, 4.946942 
8.144858e+2, 2.5267145e+2, -490795.22, -595969.56, 6443.655, -0.0019046599, -0.0031266734, -490401.9, -26583.857, 0.0, 5.0148907, 4.946943 
8.1442153e+2, 2.576183e+2, -444068.03, -548248.2, 6468.2085, -0.0030384033, -0.0025815368, -443667.97, -28327.35, 0.0, 5.0140314, 4.9467444 
8.1435657e+2, 2.6256204e+2, -405686.22, -519348.3, 5270.3306, -0.0030693305, 0.009235944, -405442.34, -38549.285, 0.0, 5.0131497, 4.9399295 
8.142904e+2, 2.6750258e+2, -357536.06, -468033.9, 4805.6553, -0.0013098485, 0.005794353, -357327.47, -38851.19, 0.0, 5.0121913, 4.940996 
8.142241e+2, 2.7244306e+2, -310742.84, -419779.16, 4701.86, 0.00042078854, 0.0013381443, -310540.47, -40480.434, 0.0, 5.011228, 4.9409947 
8.141579e+2, 2.773835e+2, -263989.53, -371640.88, 4598.808, 0.002100099, -0.0031262431, -263793.4, -42149.62, 0.0, 5.010264, 4.9409456 
8.1409067e+2, 2.8232047e+2, -226305.03, -344980.22, 3411.6602, 0.0028176773, 0.0035886578, -226207.05, -52945.336, 0.0, 5.0093946, 4.933246 
8.140219e+2, 2.8725487e+2, -177186.39, -292209.28, 3322.414, 0.0023178735, 0.0014058537, -177090.5, -52186.703, 0.0, 5.008567, 4.9347386 
8.13953e+2, 2.9218927e+2, -129912.33, -243670.72, 3570.0432, 0.0017730366, -0.0014836817, -129800.41, -53254.21, 0.0, 5.0077343, 4.9347343 
8.138841e+2, 2.9712367e+2, -82621.85, -195116.52, 3817.3472, 0.0011724452, -0.0043127844, -82492.46, -54303.824, 0.0, 5.006901, 4.93473 
8.138148e+2, 3.020734e+2, -25535.03, -91491.76, 2167.5735, 0.0006568164, 0.0127358725, -25463.871, -25463.871, 0.0, 5.0062194, 4.963584 
8.1374586e+2, 3.0703887e+2, -24425.621, -85997.51, 1707.2682, 0.0038102574, 0.011990218, -24378.318, -24378.318, 0.0, 5.005656, 4.965821 
8.136769e+2, 3.120042e+2, -25936.477, -86618.24, 1220.6632, 0.007110808, 0.008256473, -25911.932, -25911.932, 0.0, 5.005087, 4.9658365 
8.136079e+2, 3.1696957e+2, -27444.662, -87242.0, 742.42175, 0.0101578, 0.0044154357, -27435.445, -27435.445, 0.0, 5.0045166, 4.9658523 
8.21133e+2, 1.2360804e+2, -1663411.5, -1735227.8, 1527.5577, -0.011411011, 0.010587177, -1663379.0, 65271.26, 0.0, 5.0324445, 4.985417 
8.2106715e+2, 1.285925e+2, -1616681.8, -1687442.1, 1683.2684, -0.0065858066, 0.005130761, -1616641.8, 63158.953, 0.0, 5.0317473, 4.985414 
8.2100123e+2, 1.3357694e+2, -1570007.1, -1639678.3, 1834.9729, -0.0019702183, -0.00031795743, -1569958.9, 60992.32, 0.0, 5.031026, 4.985411 
8.2093537e+2, 1.385614e+2, -1525474.1, -1596165.1, 2507.4392, 0.0023599674, -0.0041999104, -1525385.4, 56716.273, 0.0, 5.030271, 4.984001 
8.2087123e+2, 1.4354327e+2, -1485293.9, -1561452.3, 4745.4937, 0.003272651, 0.004965628, -1484999.3, 48278.383, 0.0, 5.0295014, 4.9795704 
8.208078e+2, 1.4852244e+2, -1438352.1, -1513513.5, 4926.612, 0.0016200957, 0.0027581882, -1438030.5, 46450.055, 0.0, 5.028837, 4.979566 
8.2074445e+2, 1.5350159e+2, -1391406.8, -1465566.6, 5110.734, -0.000060862654, 0.0005540584, -1391056.3, 44627.313, 0.0, 5.02817, 4.979562 
8.2068104e+2, 1.5848073e+2, -1345897.0, -1420603.6, 5504.333, -0.0017877792, -0.000932943, -1345493.6, 41393.05, 0.0, 5.0274982, 4.9785566 
8.2061887e+2, 1.634562e+2, -1307041.8, -1389621.9, 7168.6685, -0.0026859262, 0.0038078092, -1306424.1, 31703.563, 0.0, 5.0268564, 4.9728217 
8.205576e+2, 1.684286e+2, -1259786.4, -1341482.3, 7312.441, -0.0032583363, 0.0019613567, -1259137.0, 30262.74, 0.0, 5.026262, 4.9728146 
8.204962e+2, 1.7340098e+2, -1212526.9, -1293335.4, 7452.5425, -0.003890689, 0.00009423171, -1211845.4, 28826.67, 0.0, 5.0256643, 4.9728074 
8.2043487e+2, 1.7837337e+2, -1166377.5, -1247573.5, 7335.8643, -0.0045217657, -0.0012129153, -1165720.1, 26224.008, 0.0, 5.025067, 4.971996 
8.2037354e+2, 1.8334258e+2, -1126242.9, -1214579.6, 8147.108, -0.0035555894, 0.0030836805, -1125497.8, 17746.992, 0.0, 5.024478, 4.9668307 
8.2031274e+2, 1.8830867e+2, -1078765.5, -1166288.0, 8191.2827, -0.0022207499, -0.00192031, -1078005.5, 16568.982, 0.0, 5.023925, 4.9668217 
8.2025194e+2, 1.9327477e+2, -1031299.5, -1117996.8, 8242.669, -0.0009239284, -0.006883005, -1030522.8, 15381.376, 0.0, 5.0233645, 4.966813 
8.2019114e+2, 1.9824086e+2, -984959.0, -1072134.0, 8065.8447, 0.00027704917, -0.011238284, -984219.0, 13014.869, 0.0, 5.0227985, 4.9659786 
8.201296e+2, 2.0320389e+2, -946142.0, -1042197.44, 8276.509, -0.00027211933, -0.0030987607, -945434.1, 3162.4783, 0.0, 5.0221677, 4.9597096 
8.200681e+2, 2.0816359e+2, -898836.75, -993914.7, 8330.27, -0.0013441127, -0.0010908188, -898112.44, 1881.1588, 0.0, 5.0215154, 4.959705 
8.2000667e+2, 2.1312328e+2, -851533.75, -945626.8, 8382.961, -0.0024180429, 0.00088484335, -850792.7, 597.9718, 0.0, 5.0208583, 4.9597 
8.199452e+2, 2.1808296e+2, -804888.1, -898768.6, 8448.749, -0.0034814938, 0.0028924888, -804133.9, -1345.9534, 0.0, 5.020196, 4.959202 
8.198829e+2, 2.2303918e+2, -765180.3, -867103.94, 7404.5063, -0.0031749748, 0.007135722, -764645.2, -10428.646, 0.0, 5.0195227, 4.953461 
8.1982005e+2, 2.2799177e+2, -717849.06, -818562.1, 7346.489, -0.0021298584, -0.00022436243, -717316.0, -11636.714, 0.0, 5.0188055, 4.9535375 
8.1975716e+2, 2.3294438e+2, -670624.9, -770239.9, 7257.5986, -0.0010905094, -0.0075667347, -670098.94, -12956.994, 0.0, 5.0180807, 4.9535375 
8.196943e+2, 2.37897e+2, -624117.56, -723484.9, 7198.3574, -0.0000788565, -0.014758491, -623598.75, -14994.262, 0.0, 5.0173483, 4.9529915 
8.196305e+2, 2.4284701e+2, -585101.75, -693198.9, 6045.4995, 0.0002841099, -0.006867545, -584764.7, -24670.494, 0.0, 5.01657, 4.946718 
8.1956536e+2, 2.4779403e+2, -537774.75, -644156.0, 5885.654, -0.0006272097, -0.005084623, -537450.06, -25835.236, 0.0, 5.0157223, 4.9469857 
8.195003e+2, 2.5274104e+2, -490809.8, -595881.44, 5906.773, -0.0015583967, -0.003485302, -490478.8, -27343.12, 0.0, 5.014864, 4.9469867 
8.194352e+2, 2.5768805e+2, -444118.1, -548200.5, 5936.605, -0.0024890758, -0.0018792041, -443780.6, -29124.049, 0.0, 5.0139976, 4.946778 
8.193693e+2, 2.6263183e+2, -405799.88, -519610.7, 4664.7046, -0.0027448456, 0.010734427, -405609.0, -39400.258, 0.0, 5.0131464, 4.9398413 
8.193022e+2, 2.6757225e+2, -357492.5, -468245.78, 4198.9487, -0.0010760605, 0.0073471647, -357333.53, -39540.008, 0.0, 5.012248, 4.9408994 
8.1923497e+2, 2.7251264e+2, -310582.97, -419935.78, 4109.452, 0.00059147854, 0.0029172457, -310428.75, -41049.86, 0.0, 5.011326, 4.9408984 
8.191678e+2, 2.7745304e+2, -263765.97, -371766.03, 4033.3147, 0.0022158897, -0.0015468186, -263615.56, -42651.266, 0.0, 5.0103855, 4.94085 
8.1909966e+2, 2.8239003e+2, -225657.16, -343893.5, 2894.809, 0.0029641506, 0.0045450525, -225586.33, -53004.86, 0.0, 5.0094695, 4.9336 
8.1903e+2, 2.8732467e+2, -176811.9, -291269.72, 2721.2546, 0.0024279952, 0.0010709992, -176747.23, -52526.688, 0.0, 5.0085487, 4.9350824 
8.1896025e+2, 2.9225928e+2, -129799.336, -242843.27, 2894.3208, 0.0018265538, -0.0030823476, -129725.28, -53865.383, 0.0, 5.007621, 4.9350805 
8.188905e+2, 2.9719388e+2, -82776.12, -194402.66, 3079.0461, 0.001150217, -0.007179228, -82691.25, -55191.99, 0.0, 5.00669, 4.935078 
8.188206e+2, 3.0214366e+2, -26513.074, -93053.55, 1736.7069, 0.0010588457, 0.011034106, -26467.777, -26467.777, 0.0, 5.006072, 4.963082 
8.1875116e+2, 3.0710903e+2, -24837.428, -87371.484, 1459.7985, 0.005064141, 0.014158668, -24803.37, -24803.37, 0.0, 5.0057297, 4.9652915 
8.186818e+2, 3.1207424e+2, -25908.578, -87804.73, 1125.9181, 0.0091405455, 0.014390724, -25888.104, -25888.104, 0.0, 5.0053253, 4.9653044 
8.186122e+2, 3.170395e+2, -27127.342, -88304.445, 753.2441, 0.012875289, 0.014654869, -27118.068, -27118.068, 0.0, 5.0048647, 4.965318 
8.26165e+2, 1.2367726e+2, -1665041.0, -1735267.4, 3912.8508, -0.0057918425, 0.013407807, -1664823.6, 63147.734, 0.0, 5.031782, 4.9857 
8.2609826e+2, 1.2866192e+2, -1618230.5, -1687451.8, 4059.6814, -0.0031125543, 0.007492932, -1617993.3, 61127.0, 0.0, 5.031115, 4.9856925 
8.260315e+2, 1.3364656e+2, -1571406.5, -1639624.6, 4202.9585, -0.00048225909, 0.0017735095, -1571148.5, 59120.56, 0.0, 5.030447, 4.985685 
8.259648e+2, 1.3863122e+2, -1526588.3, -1595870.3, 4852.154, 0.0020597475, -0.0021826832, -1526250.1, 55167.67, 0.0, 5.029768, 4.9843187 
8.258999e+2, 1.4361326e+2, -1486150.4, -1561123.4, 7206.784, 0.0026973695, 0.0060145417, -1485463.9, 47128.434, 0.0, 5.029109, 4.979844 
8.2583594e+2, 1.4859249e+2, -1438862.4, -1513018.9, 7361.3687, 0.001218554, 0.002341581, -1438138.6, 45655.68, 0.0, 5.0285616, 4.979839 
8.25772e+2, 1.535717e+2, -1391563.3, -1464904.5, 7515.474, -0.00026694126, -0.0013556718, -1390801.1, 44195.44, 0.0, 5.028014, 4.9798336 
8.2570803e+2, 1.5855092e+2, -1345639.0, -1419648.9, 7885.223, -0.0017767423, -0.004344696, -1344808.3, 41390.555, 0.0, 5.027464, 4.9788685 
8.256453e+2, 1.6352671e+2, -1306471.9, -1388471.6, 9632.945, -0.0027798065, 0.00085364137, -1305355.4, 32081.094, 0.0, 5.0269313, 4.9731417 
8.2558346e+2, 1.6849956e+2, -1258921.0, -1340204.0, 9830.23, -0.0035412093, 0.00082138577, -1257749.1, 30955.057, 0.0, 5.0264397, 4.97313 
8.255215e+2, 1.7347236e+2, -1211359.8, -1291927.8, 10027.296, -0.0042861346, 0.00066324126, -1210130.5, 29841.533, 0.0, 5.025948, 4.9731193 
8.254596e+2, 1.7844518e+2, -1164893.1, -1246025.4, 9971.813, -0.0049227625, 0.00089206715, -1163685.5, 27554.545, 0.0, 5.0254602, 4.972306 
8.253978e+2, 1.8341449e+2, -1124679.5, -1213540.1, 10854.518, -0.0037518044, 0.005025376, -1123372.8, 19166.93, 0.0, 5.025012, 4.9669065 
8.253365e+2, 1.8838054e+2, -1076807.3, -1165059.4, 10858.072, -0.0024663778, -0.00062712684, -1075490.9, 18379.43, 0.0, 5.024596, 4.966899 
8.2527524e+2, 1.9334657e+2, -1028926.1, -1116571.4, 10861.961, -0.0011753138, -0.0062956475, -1027600.0, 17601.016, 0.0, 5.024181, 4.966892 
8.2521397e+2, 1.9831263e+2, -982115.25, -1070426.9, 10613.331, 0.000063999134, -0.011394838, -980857.6, 15674.0, 0.0, 5.0237665, 4.9660854 
8.2515186e+2, 2.0327568e+2, -942915.0, -1040226.4, 10755.042, -0.00041819963, -0.0038399636, -941740.5, 6153.262, 0.0, 5.0232434, 4.9598613 
8.250898e+2, 2.0823546e+2, -895432.0, -991870.2, 10838.613, -0.0013891767, -0.0020650404, -894228.9, 5060.544, 0.0, 5.0226574, 4.9598556 
8.250277e+2, 2.1319522e+2, -847936.94, -943503.4, 10921.824, -0.0023397347, -0.0002602982, -846704.6, 3980.44, 0.0, 5.022072, 4.95985 
8.2496566e+2, 2.1815498e+2, -801095.6, -896586.06, 11008.135, -0.0032512157, 0.001629185, -799843.06, 2237.8303, 0.0, 5.0214863, 4.9593415 
8.249028e+2, 2.2311123e+2, -761567.94, -865599.3, 9931.894, -0.0029778501, 0.00647497, -760628.25, -7118.519, 0.0, 5.0208707, 4.953344 
8.248391e+2, 2.2806375e+2, -714080.56, -816968.75, 9817.267, -0.0021663334, 0.00024465614, -713152.2, -8178.3003, 0.0, 5.020209, 4.9534287 
8.247755e+2, 2.3301628e+2, -666686.6, -768565.2, 9671.934, -0.0012781327, -0.0060034934, -665776.5, -9338.524, 0.0, 5.0195475, 4.9534316 
8.247119e+2, 2.3796883e+2, -619946.75, -721629.8, 9545.663, -0.0003274638, -0.012148312, -619058.4, -11156.365, 0.0, 5.018885, 4.95292 
8.246474e+2, 2.4291876e+2, -580609.06, -690880.0, 8252.617, 0.0002677953, -0.0050086435, -579994.9, -20602.203, 0.0, 5.01816, 4.9467835 
8.245815e+2, 2.4786566e+2, -533324.8, -641892.1, 8031.5923, -0.00017239637, -0.004466275, -532733.9, -21820.152, 0.0, 5.0173078, 4.9470396 
8.245156e+2, 2.5281253e+2, -486362.88, -593625.8, 7988.839, -0.0005845601, -0.0039653615, -485771.13, -23336.316, 0.0, 5.0164533, 4.947042 
8.2444966e+2, 2.5775945e+2, -439665.34, -545978.44, 7954.2163, -0.00095417775, -0.0033379672, -439073.5, -25117.734, 0.0, 5.0155983, 4.9468217 
8.2438296e+2, 2.6270318e+2, -401472.1, -517701.28, 6623.5674, -0.0012813427, 0.009414012, -401095.84, -35587.473, 0.0, 5.0147514, 4.9397764 
8.2431483e+2, 2.6764357e+2, -353167.8, -466347.9, 6109.622, -0.00044833016, 0.006693412, -352838.94, -35744.805, 0.0, 5.0138607, 4.94083 
8.2424664e+2, 2.7258393e+2, -306189.47, -417985.94, 5955.9746, 0.00056247436, 0.0029138923, -305873.06, -37192.625, 0.0, 5.012966, 4.9408383 
8.241785e+2, 2.7752426e+2, -259254.64, -369747.03, 5806.0464, 0.0017298049, -0.0009238476, -258950.39, -38683.723, 0.0, 5.012071, 4.940797 
8.241094e+2, 2.824613e+2, -221434.78, -341720.06, 4288.585, 0.0025458182, 0.005470094, -221282.06, -49398.15, 0.0, 5.010999, 4.933671 
8.2403857e+2, 2.873959e+2, -173596.48, -289612.75, 3804.596, 0.0023767522, 0.001802906, -173471.86, -49948.785, 0.0, 5.0097294, 4.935128 
8.2396775e+2, 2.9233047e+2, -127532.53, -241601.61, 3632.6646, 0.002292769, -0.0025785505, -127416.96, -52254.523, 0.0, 5.008457, 4.9351315 
8.2389694e+2, 2.972651e+2, -81444.45, -193566.9, 3458.5527, 0.002305173, -0.0069456575, -81337.875, -54536.14, 0.0, 5.0071845, 4.935135 
8.238265e+2, 3.022148e+2, -25028.209, -91960.055, 3015.1956, 0.002133797, 0.009887314, -24892.654, -24892.654, 0.0, 5.006603, 4.9632154 
8.2375693e+2, 3.0718014e+2, -21634.818, -85680.34, 3199.9805, 0.0048135677, 0.012152043, -21475.332, -21475.332, 0.0, 5.0069137, 4.9653697 
8.236875e+2, 3.121453e+2, -20765.738, -85391.016, 3304.9712, 0.00794241, 0.01164229, -20597.16, -20597.16, 0.0, 5.0072336, 4.9653454 
8.2361794e+2, 3.1711042e+2, -19893.088, -85105.38, 3411.236, 0.01114904, 0.0110507505, -19715.133, -19715.133, 0.0, 5.0075526, 4.965321 
8.3119684e+2, 1.237481e+2, -1664638.9, -1734512.4, 3384.8052, -0.0012466381, 0.015659062, -1664475.4, 62801.184, 0.0, 5.0317903, 4.9859486 
8.3112925e+2, 1.2873298e+2, -1617829.4, -1686708.8, 3536.5571, -0.00037080466, 0.0096440585, -1617648.3, 60775.16, 0.0, 5.0311246, 4.9859376 
8.310616e+2, 1.3371786e+2, -1571006.3, -1638893.6, 3684.755, 0.00038714247, 0.0038380385, -1570806.9, 58763.52, 0.0, 5.030458, 4.9859266 
8.3099395e+2, 1.3870277e+2, -1526112.6, -1594990.6, 4319.019, 0.0010648819, -0.00018010935, -1525842.9, 54874.234, 0.0, 5.02978, 4.9846106 
8.3092844e+2, 1.4368497e+2, -1485803.8, -1560461.8, 6787.816, 0.0016361907, 0.0069988267, -1485191.6, 46698.387, 0.0, 5.0291142, 4.9800644 
8.30864e+2, 1.4866428e+2, -1438517.4, -1512360.3, 6944.2637, 0.0003730411, 0.0018895058, -1437870.0, 45221.234, 0.0, 5.0285673, 4.9800587 
8.307995e+2, 1.5364355e+2, -1391219.9, -1464249.0, 7100.232, -0.00090518204, -0.0032348107, -1390536.0, 43756.582, 0.0, 5.02802, 4.980053 
8.30735e+2, 1.5862286e+2, -1345251.0, -1418891.5, 7472.5337, -0.0022212698, -0.0075803427, -1344500.4, 40993.582, 0.0, 5.0274687, 4.979123 
8.306718e+2, 1.6359898e+2, -1306087.9, -1387672.6, 9260.359, -0.0032362037, -0.0018698632, -1305050.0, 31678.225, 0.0, 5.02693, 4.973411 
8.3060944e+2, 1.6857225e+2, -1258539.6, -1339408.4, 9460.537, -0.00400859, -0.00028038304, -1257447.6, 30543.879, 0.0, 5.0264387, 4.9733996 
8.3054703e+2, 1.735455e+2, -1210980.8, -1291135.5, 9660.496, -0.0047795414, 0.0011753509, -1209832.9, 29422.088, 0.0, 5.025947, 4.9733877 
8.304846e+2, 1.7851873e+2, -1164539.5, -1245286.4, 9609.475, -0.0054290444, 0.0029606684, -1163411.6, 27107.018, 0.0, 5.02546, 4.9725575 
8.3042234e+2, 1.8348816e+2, -1124660.1, -1213501.9, 10539.164, -0.004075056, 0.0071215485, -1123427.0, 18390.307, 0.0, 5.0250106, 4.9669228 
8.303607e+2, 1.8845417e+2, -1076790.5, -1165023.0, 10545.068, -0.0028947706, 0.0008336152, -1075547.8, 17601.28, 0.0, 5.0245943, 4.9669147 
8.30299e+2, 1.9342014e+2, -1028912.06, -1116536.9, 10551.306, -0.0017232029, -0.0054591475, -1027659.44, 16821.354, 0.0, 5.024178, 4.966907 
8.302373e+2, 1.9838613e+2, -982052.9, -1070284.8, 10283.443, -0.0006180568, -0.0111564, -980870.2, 14942.229, 0.0, 5.023763, 4.966138 
8.301747e+2, 2.0334922e+2, -942768.3, -1039899.4, 10316.739, -0.0010376453, -0.004371612, -941684.6, 5489.465, 0.0, 5.0232396, 4.9599767 
8.30112e+2, 2.0830904e+2, -895287.6, -991546.8, 10402.78, -0.001823692, -0.0031274033, -894176.25, 4392.066, 0.0, 5.0226536, 4.95997 
8.300494e+2, 2.1326888e+2, -847794.94, -943183.6, 10488.46, -0.0026105074, -0.001835734, -846655.3, 3307.2883, 0.0, 5.0220675, 4.959964 
8.299867e+2, 2.1822868e+2, -800997.56, -896364.2, 10559.004, -0.003377123, -0.00042433004, -799842.44, 1514.5895, 0.0, 5.0214825, 4.959422 
8.299232e+2, 2.2318496e+2, -761795.8, -866117.44, 9438.456, -0.0031065138, 0.005351007, -760948.75, -8162.8613, 0.0, 5.0208697, 4.9531693 
8.298589e+2, 2.2813746e+2, -714303.7, -817483.4, 9317.961, -0.0024189698, 0.00067994924, -713468.94, -9217.592, 0.0, 5.0202084, 4.9532547 
8.2979465e+2, 2.3308997e+2, -666906.94, -769079.44, 9175.122, -0.001677919, -0.0040117204, -666089.56, -10372.776, 0.0, 5.0195475, 4.953257 
8.2973033e+2, 2.3804249e+2, -620122.25, -722050.44, 9049.633, -0.0008909445, -0.008627162, -619325.0, -12142.894, 0.0, 5.018886, 4.9527774 
8.296651e+2, 2.4299228e+2, -580579.94, -690892.4, 7607.915, -0.000127762, -0.0024211216, -580057.7, -21383.63, 0.0, 5.018166, 4.946782 
8.2959837e+2, 2.4793899e+2, -533321.94, -641971.25, 7385.308, 0.000062312916, -0.0034078618, -532822.25, -22626.209, 0.0, 5.017315, 4.9470153 
8.2953167e+2, 2.528857e+2, -486358.84, -593708.4, 7345.7524, 0.00024726155, -0.00441274, -485858.53, -24140.537, 0.0, 5.016461, 4.9470167 
8.29465e+2, 2.5783244e+2, -439682.94, -546116.06, 7318.808, 0.0004296381, -0.005288157, -439182.03, -25942.125, 0.0, 5.015607, 4.946777 
8.293974e+2, 2.6277608e+2, -401600.5, -518114.63, 5934.7505, 0.00017270159, 0.0075768726, -401299.0, -36505.76, 0.0, 5.0147634, 4.939632 
8.2932824e+2, 2.677164e+2, -353306.9, -466789.25, 5431.0156, 0.00016711955, 0.005631475, -353047.6, -36667.555, 0.0, 5.0138726, 4.9406753 
8.2925916e+2, 2.7265665e+2, -306328.38, -418429.3, 5280.4453, 0.0002773491, 0.002631251, -306080.2, -38112.78, 0.0, 5.012978, 4.9406824 
8.2919e+2, 2.7759692e+2, -259396.9, -370200.47, 5132.1035, 0.0005002591, -0.00042186797, -259159.7, -39604.996, 0.0, 5.012083, 4.940637 
8.2911974e+2, 2.8253388e+2, -221520.97, -342099.3, 3291.6902, 0.0011796763, 0.006589143, -221431.17, -50258.26, 0.0, 5.011017, 4.9335413 
8.2904774e+2, 2.8746834e+2, -173704.7, -290062.34, 2831.6091, 0.0017836749, 0.0031711517, -173635.83, -50822.24, 0.0, 5.009749, 4.9349732 
8.2897574e+2, 2.924028e+2, -127637.05, -242052.47, 2662.5837, 0.0024237814, -0.0009814258, -127575.12, -53120.56, 0.0, 5.0084777, 4.9349756 
8.2890373e+2, 2.9733726e+2, -81545.266, -194019.03, 2491.378, 0.0031135022, -0.005124015, -81490.11, -55394.652, 0.0, 5.007206, 4.934978 
8.288326e+2, 3.022868e+2, -24511.197, -91110.03, 3219.1348, 0.0023769243, 0.009230506, -24355.959, -24355.959, 0.0, 5.0066504, 4.9635196 
8.2876325e+2, 3.072521e+2, -21179.03, -84975.49, 3482.8865, 0.002865617, 0.0088936975, -20989.45, -20989.45, 0.0, 5.0069623, 4.965621 
8.2869387e+2, 3.1221727e+2, -20312.094, -84685.08, 3599.1196, 0.003698362, 0.0061483234, -20111.49, -20111.49, 0.0, 5.007282, 4.965597 
8.2862437e+2, 3.171824e+2, -19441.596, -84398.34, 3716.6206, 0.004520147, 0.003321639, -19229.635, -19229.635, 0.0, 5.0076003, 4.965573 
8.362287e+2, 1.23818964e+2, -1664238.6, -1733756.6, 2861.077, 0.0031280785, 0.01815643, -1664121.0, 62460.46, 0.0, 5.0317984, 4.9861956 
8.3616024e+2, 1.2880407e+2, -1617430.0, -1685965.0, 3017.749, 0.0022370426, 0.0119748, -1617297.4, 60429.137, 0.0, 5.031134, 4.9861817 
8.360917e+2, 1.3378918e+2, -1570607.8, -1638161.9, 3170.8665, 0.0011591827, 0.0060157315, -1570459.3, 58412.28, 0.0, 5.0304694, 4.9861674 
8.360232e+2, 1.387743e+2, -1525648.1, -1594130.9, 3785.2285, 0.00003284978, 0.0018701273, -1525439.5, 54576.844, 0.0, 5.0297923, 4.9848948 
8.359571e+2, 1.4375669e+2, -1485457.5, -1559800.3, 6369.238, 0.0005873834, 0.008008663, -1484915.8, 46271.83, 0.0, 5.02912, 4.980284 
8.358921e+2, 1.4873606e+2, -1438172.8, -1511701.8, 6527.549, -0.00046326444, 0.0014159556, -1437597.8, 44790.273, 0.0, 5.028573, 4.980278 
8.358271e+2, 1.5371542e+2, -1390876.9, -1463593.5, 6685.38, -0.0015373793, -0.005182428, -1390267.4, 43321.207, 0.0, 5.028026, 4.9802723 
8.35762e+2, 1.586948e+2, -1344880.3, -1418169.8, 7054.8843, -0.0026729503, -0.010861782, -1344207.4, 40581.688, 0.0, 5.027474, 4.9793653 
8.356983e+2, 1.6367127e+2, -1305704.6, -1386873.5, 8887.961, -0.0037202833, -0.0044429353, -1304742.8, 31277.08, 0.0, 5.0269284, 4.97368 
8.356354e+2, 1.6864498e+2, -1258158.8, -1338612.8, 9091.031, -0.0044898437, -0.0013018218, -1257144.3, 30134.404, 0.0, 5.0264373, 4.973668 
8.355726e+2, 1.7361864e+2, -1210602.4, -1290343.3, 9293.881, -0.0052730194, 0.0016977104, -1209533.5, 29004.322, 0.0, 5.025946, 4.973656 
8.3550966e+2, 1.7859226e+2, -1164215.1, -1244609.4, 9247.379, -0.005927275, 0.004996308, -1163165.1, 26631.994, 0.0, 5.0254593, 4.9727874 
8.3544695e+2, 1.8356185e+2, -1124641.3, -1213463.5, 10223.782, -0.004422062, 0.009317498, -1123479.6, 17615.262, 0.0, 5.025009, 4.966938 
8.353849e+2, 1.885278e+2, -1076774.3, -1164986.6, 10232.035, -0.0033292482, 0.0023382667, -1075603.0, 16824.709, 0.0, 5.0245924, 4.96693 
8.3532274e+2, 1.934937e+2, -1028898.5, -1116502.3, 10240.621, -0.0022595136, -0.004634591, -1027717.3, 16043.275, 0.0, 5.0241756, 4.966922 
8.352606e+2, 1.9845966e+2, -981993.2, -1070147.6, 9952.628, -0.0012786065, -0.010966361, -980883.5, 14209.697, 0.0, 5.02376, 4.966188 
8.3519745e+2, 2.0342276e+2, -942622.06, -1039572.4, 9879.163, -0.001668561, -0.0048419125, -941625.6, 4828.637, 0.0, 5.023236, 4.960091 
8.351342e+2, 2.0838265e+2, -895143.75, -991223.4, 9967.673, -0.0022598535, -0.0041813958, -894120.56, 3726.5613, 0.0, 5.02265, 4.960084 
8.35071e+2, 2.1334253e+2, -847653.4, -942863.75, 10055.821, -0.002873108, -0.0034557579, -846602.9, 2637.1145, 0.0, 5.0220633, 4.9600773 
8.350078e+2, 2.183024e+2, -800935.25, -896219.44, 10116.383, -0.0034896398, -0.002540401, -799873.0, 760.06396, 0.0, 5.0214787, 4.959476 
8.3494365e+2, 2.232587e+2, -762016.25, -866618.9, 8942.836, -0.003234709, 0.0043713856, -761257.25, -9195.202, 0.0, 5.0208693, 4.9529996 
8.348787e+2, 2.2821118e+2, -714527.2, -817998.0, 8819.495, -0.0026627176, 0.0012088269, -713780.8, -10252.011, 0.0, 5.0202084, 4.95308 
8.348137e+2, 2.3316367e+2, -667127.56, -769593.56, 8679.149, -0.002060562, -0.0019778651, -666397.6, -11402.127, 0.0, 5.019548, 4.9530816 
8.347488e+2, 2.3811616e+2, -620300.44, -722476.4, 8553.604, -0.0014295729, -0.0051167468, -619589.3, -13127.169, 0.0, 5.018887, 4.952632 
8.346828e+2, 2.4306579e+2, -580556.06, -690915.2, 6968.685, -0.00054311426, 0.00015761604, -580117.75, -22162.314, 0.0, 5.0181723, 4.946777 
8.346153e+2, 2.4801232e+2, -533319.56, -642050.1, 6740.744, 0.0003031064, -0.0024062824, -532903.25, -23424.96, 0.0, 5.017322, 4.946991 
8.345478e+2, 2.5295883e+2, -486355.34, -593790.6, 6704.387, 0.0011089597, -0.0049709245, -485938.6, -24937.408, 0.0, 5.016469, 4.9469905 
8.344803e+2, 2.579054e+2, -439709.1, -546271.7, 6686.912, 0.001862352, -0.007392624, -439291.13, -26767.107, 0.0, 5.0156155, 4.946725 
8.344118e+2, 2.6284894e+2, -401739.22, -518550.16, 5247.9697, 0.0015654779, 0.0058744987, -401503.9, -37425.94, 0.0, 5.0147753, 4.9394784 
8.3434176e+2, 2.677892e+2, -353446.53, -467230.3, 4753.528, 0.0007409715, 0.00465971, -353248.28, -37582.44, 0.0, 5.0138845, 4.94052 
8.342716e+2, 2.727294e+2, -306467.75, -418872.4, 4606.034, -0.000023618659, 0.0023885588, -306279.3, -39025.027, 0.0, 5.01299, 4.940526 
8.3420146e+2, 2.7766958e+2, -259540.36, -370654.66, 4447.9844, -0.0007195569, 0.00007137983, -259362.6, -40519.895, 0.0, 5.0120945, 4.940477 
8.341301e+2, 2.8260645e+2, -221624.98, -342519.75, 2308.986, -0.00020473536, 0.007727232, -221580.9, -51118.97, 0.0, 5.0110345, 4.9333963 
8.340569e+2, 2.8754076e+2, -173813.23, -290511.72, 1860.5609, 0.0011733585, 0.0045254244, -173783.58, -51679.41, 0.0, 5.009769, 4.9348183 
8.339837e+2, 2.924751e+2, -127741.88, -242503.1, 1694.4427, 0.0025441982, 0.0005592327, -127716.87, -53970.125, 0.0, 5.008498, 4.934819 
8.3391047e+2, 2.974094e+2, -81646.4, -194470.89, 1526.1443, 0.003917869, -0.0034013048, -81625.76, -56236.5, 0.0, 5.0072274, 4.9348207 
8.338388e+2, 3.023588e+2, -23987.979, -90242.12, 3459.836, 0.00259683, 0.008543461, -23807.795, -23807.795, 0.0, 5.006698, 4.9638276 
8.3376956e+2, 3.0732405e+2, -20725.018, -84269.11, 3764.2295, 0.0009144659, 0.005434089, -20502.81, -20502.81, 0.0, 5.007011, 4.96587 
8.3370024e+2, 3.1228924e+2, -19860.223, -83977.61, 3891.7021, -0.0005330604, 0.00023054029, -19624.873, -19624.873, 0.0, 5.00733, 4.9658465 
8.3363086e+2, 3.1725436e+2, -18991.87, -83689.79, 4020.437, -0.002080306, -0.0050537563, -18742.99, -18742.99, 0.0, 5.007648, 4.9658227 
8.412605e+2, 1.2388965e+2, -1664554.6, -1733335.5, 2510.4531, 0.007482911, 0.01826418, -1664463.1, 61424.137, 0.0, 5.0315657, 4.986451 
8.411912e+2, 1.2887505e+2, -1617750.1, -1685544.4, 2688.5337, 0.0047963704, 0.012427024, -1617643.8, 59386.27, 0.0, 5.030899, 4.9864383 
8.411218e+2, 1.3386042e+2, -1571069.9, -1637809.5, 2864.6936, 0.001911436, 0.0067395736, -1570947.1, 57225.586, 0.0, 5.030185, 4.9864254 
8.4105235e+2, 1.3884585e+2, -1526328.5, -1593796.8, 3485.7817, -0.0009204173, 0.002813472, -1526148.9, 53166.242, 0.0, 5.0294156, 4.9851904 
8.409856e+2, 1.4382845e+2, -1486332.6, -1559714.0, 6239.624, -0.0003471837, 0.008542485, -1485805.8, 44678.613, 0.0, 5.0287156, 4.9805064 
8.409201e+2, 1.4880797e+2, -1438988.1, -1511579.3, 6408.821, -0.0011743946, 0.0012257519, -1438426.8, 43256.844, 0.0, 5.0281887, 4.9805017 
8.408545e+2, 1.5378748e+2, -1391652.4, -1463444.3, 6579.698, -0.0020229984, -0.006106453, -1391054.4, 41828.375, 0.0, 5.027655, 4.9804974 
8.40789e+2, 1.5876703e+2, -1345600.8, -1417935.8, 6964.8057, -0.0029535622, -0.012404741, -1344936.3, 39145.39, 0.0, 5.0271106, 4.979615 
8.4072477e+2, 1.637438e+2, -1306285.4, -1386531.3, 8877.924, -0.003979606, -0.0056794295, -1305314.9, 29994.533, 0.0, 5.026603, 4.973949 
8.4066147e+2, 1.687178e+2, -1258589.4, -1338188.5, 9066.279, -0.0046969266, -0.0019234081, -1257569.9, 28994.867, 0.0, 5.0261626, 4.97394 
8.405981e+2, 1.7369182e+2, -1210908.6, -1289849.3, 9261.18, -0.0054439604, 0.0017954288, -1209836.8, 27983.363, 0.0, 5.0257134, 4.973931 
8.4053475e+2, 1.786658e+2, -1164496.9, -1244215.1, 9216.995, -0.006065367, 0.0059391893, -1163445.0, 25630.674, 0.0, 5.0252595, 4.9730124 
8.4047157e+2, 1.8363552e+2, -1125167.0, -1213658.0, 10254.223, -0.0045343474, 0.010691772, -1123994.3, 16378.141, 0.0, 5.024821, 4.9669595 
8.40409e+2, 1.8860143e+2, -1077292.1, -1165178.6, 10270.998, -0.003652805, 0.0034845127, -1076107.8, 15598.131, 0.0, 5.024406, 4.966951 
8.403465e+2, 1.9356737e+2, -1029412.5, -1116693.4, 10285.3125, -0.0027797665, -0.0037422958, -1028216.9, 14822.541, 0.0, 5.02399, 4.9669423 
8.402839e+2, 1.9853331e+2, -982462.06, -1070248.6, 9979.038, -0.0019912354, -0.010318463, -981342.0, 13030.598, 0.0, 5.023576, 4.9662385 
8.402202e+2, 2.0349643e+2, -942911.9, -1039496.1, 9758.65, -0.0023398767, -0.004756653, -941935.75, 3797.404, 0.0, 5.0230937, 4.9601827 
8.4015644e+2, 2.0845632e+2, -895281.5, -991075.3, 9767.566, -0.0026652704, -0.004861581, -894295.7, 2829.5034, 0.0, 5.0225596, 4.960176 
8.400927e+2, 2.1341623e+2, -847668.0, -942657.5, 9779.201, -0.0030149377, -0.004902046, -846671.7, 1845.5452, 0.0, 5.0220165, 4.960169 
8.4002894e+2, 2.1837611e+2, -800956.75, -896189.56, 9759.508, -0.0033808332, -0.0046646767, -799966.9, -57.523254, 0.0, 5.0214643, 4.9594927 
8.399641e+2, 2.2333243e+2, -762209.7, -867042.6, 8540.565, -0.003137001, 0.0034284056, -761518.44, -10180.031, 0.0, 5.0208673, 4.9528565 
8.398985e+2, 2.282849e+2, -714739.2, -818465.2, 8450.823, -0.0026946592, 0.0016977675, -714055.2, -11248.938, 0.0, 5.0202055, 4.952922 
8.398329e+2, 2.3323737e+2, -667356.0, -770071.94, 8347.841, -0.002229036, -0.00006754161, -666682.0, -12407.919, 0.0, 5.019539, 4.9529223 
8.397673e+2, 2.3818983e+2, -620528.2, -722902.2, 8261.069, -0.001738459, -0.0018195185, -619865.8, -14124.016, 0.0, 5.0188675, 4.9524956 
8.397005e+2, 2.4313931e+2, -580621.56, -691015.7, 6502.903, -0.00085070584, 0.002586309, -580239.9, -23003.37, 0.0, 5.018159, 4.946751 
8.396322e+2, 2.4808565e+2, -533349.75, -642167.9, 6203.6, 0.00053807965, -0.0014650839, -532997.25, -24236.783, 0.0, 5.017327, 4.946951 
8.395639e+2, 2.5303197e+2, -486345.2, -593887.7, 6109.8374, 0.0019055888, -0.0055389213, -485999.16, -25714.713, 0.0, 5.0164876, 4.9469514 
8.394956e+2, 2.5797832e+2, -439700.75, -546417.44, 6053.1147, 0.0032174753, -0.009475668, -439358.5, -27550.104, 0.0, 5.015643, 4.946665 
8.394263e+2, 2.6292184e+2, -401854.88, -518934.88, 4595.403, 0.0028326265, 0.0044028927, -401674.78, -38311.996, 0.0, 5.014794, 4.939336 
8.393552e+2, 2.6786202e+2, -353610.56, -467618.06, 4196.315, 0.0012929707, 0.0038173068, -353456.34, -38504.83, 0.0, 5.0138817, 4.940386 
8.3928406e+2, 2.7280217e+2, -306718.8, -419303.8, 4132.971, -0.00021462922, 0.0021989478, -306567.28, -40026.477, 0.0, 5.0129557, 4.94039 
8.3921295e+2, 2.777423e+2, -259911.4, -371158.1, 4036.245, -0.0016788353, 0.00056495046, -259765.16, -41635.047, 0.0, 5.01202, 4.9403324 
8.391405e+2, 2.8267908e+2, -221795.86, -342916.25, 1738.0237, -0.0013885049, 0.008823558, -221770.92, -52020.566, 0.0, 5.011024, 4.933268 
8.390661e+2, 2.8761327e+2, -173600.44, -290738.06, 1401.0034, 0.00060558313, 0.005696292, -173583.69, -52189.56, 0.0, 5.0098977, 4.9346895 
8.389917e+2, 2.9254746e+2, -127214.266, -242591.7, 1342.865, 0.002618701, 0.00179006, -127198.63, -54160.37, 0.0, 5.0087423, 4.9346895 
8.389173e+2, 2.974816e+2, -80868.95, -194451.92, 1280.6826, 0.004645716, -0.0020958239, -80854.516, -56172.152, 0.0, 5.007564, 4.93469 
8.3884513e+2, 3.024308e+2, -22872.205, -89347.07, 4075.8289, 0.0028145176, 0.0077282386, -22623.234, -22623.234, 0.0, 5.0070214, 4.9640193 
8.3877593e+2, 3.0739602e+2, -20079.553, -83689.91, 3653.784, -0.0007914245, 0.0021234655, -19870.367, -19870.367, 0.0, 5.0071845, 4.9660096 
8.3870673e+2, 3.1236112e+2, -19763.975, -83594.77, 3174.3516, -0.0042287554, -0.0053981924, -19606.5, -19606.5, 0.0, 5.007295, 4.9660015 
8.386375e+2, 3.173262e+2, -19607.834, -83573.61, 2809.1853, -0.007823123, -0.013080891, -19484.7, -19484.7, 0.0, 5.0073457, 4.965993 
8.462913e+2, 1.2396137e+2, -1666718.5, -1733334.4, 4280.684, 0.01046134, 0.011438793, -1666444.6, 58736.25, 0.0, 5.0306573, 4.986876 
8.462212e+2, 1.2894729e+2, -1620052.6, -1685616.9, 4530.9927, 0.00676305, 0.0072737173, -1619741.0, 56577.945, 0.0, 5.029946, 4.98686 
8.4615093e+2, 1.3393319e+2, -1573372.9, -1637887.1, 4778.4395, 0.0026782006, 0.0030765994, -1573020.9, 54436.527, 0.0, 5.0292325, 4.986844 
8.4608066e+2, 1.3891909e+2, -1528463.3, -1593756.1, 5497.8423, -0.0014621936, 0.00047307325, -1528003.5, 50592.1, 0.0, 5.0285115, 4.9856224 
8.460133e+2, 1.4390215e+2, -1488227.9, -1559830.6, 8532.1045, -0.0009374795, 0.0076006106, -1487225.3, 42535.848, 0.0, 5.027958, 4.9808064 
8.459474e+2, 1.4888208e+2, -1440363.8, -1511431.6, 8716.41, -0.0014839276, 0.0018388089, -1439310.3, 41646.78, 0.0, 5.027606, 4.980804 
8.4588146e+2, 1.53862e+2, -1392491.9, -1463026.9, 8901.263, -0.0020639028, -0.0039182547, -1391385.9, 40767.133, 0.0, 5.0272536, 4.980801 
8.458155e+2, 1.5884197e+2, -1345783.6, -1417035.9, 9316.898, -0.0027212747, -0.008746799, -1344585.5, 38763.133, 0.0, 5.026898, 4.97999 
8.457509e+2, 1.6381893e+2, -1305976.1, -1385510.0, 11354.698, -0.0033855285, -0.0033044228, -1304386.9, 30187.36, 0.0, 5.02658, 4.9742794 
8.456872e+2, 1.6879301e+2, -1257806.0, -1336917.4, 11566.205, -0.0039790664, -0.0014863379, -1256149.8, 29678.158, 0.0, 5.026302, 4.9742765 
8.4562355e+2, 1.7376712e+2, -1209629.9, -1288320.3, 11778.28, -0.004646776, 0.000457032, -1207904.8, 29176.816, 0.0, 5.0260234, 4.9742737 
8.4555984e+2, 1.7874123e+2, -1162742.5, -1242509.6, 11767.238, -0.0052227224, 0.0030505252, -1161042.8, 27292.475, 0.0, 5.025748, 4.9733315 
8.454963e+2, 1.8371113e+2, -1123254.6, -1212408.4, 12829.265, -0.003918754, 0.008263937, -1121445.3, 18185.17, 0.0, 5.0254636, 4.9670525 
8.4543335e+2, 1.8867727e+2, -1075052.3, -1163784.8, 12865.965, -0.0036802008, 0.0027836098, -1073224.4, 17738.107, 0.0, 5.0251665, 4.9670415 
8.4537035e+2, 1.9364339e+2, -1026843.0, -1115156.0, 12902.136, -0.0034642017, -0.0026866046, -1024996.7, 17297.963, 0.0, 5.024869, 4.96703 
8.4530735e+2, 1.9860953e+2, -979529.0, -1068506.6, 12615.276, -0.003306757, -0.00755327, -977775.0, 15851.504, 0.0, 5.0245748, 4.966344 
8.4524333e+2, 2.0357263e+2, -939665.25, -1037797.7, 12318.752, -0.0033908312, -0.0024050586, -938142.44, 6844.8677, 0.0, 5.024237, 4.960211 
8.451792e+2, 2.0853236e+2, -891644.7, -989201.44, 12290.284, -0.003000308, -0.0037638927, -890120.2, 6260.4688, 0.0, 5.0238433, 4.960203 
8.4511507e+2, 2.1349211e+2, -843615.8, -940598.2, 12261.936, -0.0026103633, -0.005074377, -842089.5, 5684.5127, 0.0, 5.0234485, 4.960196 
8.450509e+2, 2.1845184e+2, -796485.0, -893980.4, 12185.908, -0.0022323357, -0.006081276, -794985.0, 4182.486, 0.0, 5.0230546, 4.9595037 
8.4498554e+2, 2.2340812e+2, -757451.06, -864780.25, 10906.069, -0.0020995892, 0.002056987, -756354.06, -5757.156, 0.0, 5.022572, 4.9528375 
8.449192e+2, 2.283606e+2, -709833.4, -816184.06, 10848.254, -0.0019357866, 0.001406005, -708738.06, -6673.491, 0.0, 5.0219755, 4.952885 
8.448529e+2, 2.3331308e+2, -662265.75, -767714.75, 10782.498, -0.0017310886, 0.00071701914, -661174.5, -7642.301, 0.0, 5.0213795, 4.9528856 
8.447867e+2, 2.3826554e+2, -615227.3, -720435.56, 10749.025, -0.0014772173, -0.0000046285186, -614140.3, -9140.431, 0.0, 5.0207834, 4.9524684 
8.447192e+2, 2.4321489e+2, -575396.7, -688816.56, 8790.201, -0.00052461633, 0.0041948366, -574719.5, -18223.408, 0.0, 5.0201025, 4.946617 
8.4465003e+2, 2.4816094e+2, -528053.3, -639978.44, 8404.986, 0.0006145182, -0.0005133887, -527425.6, -19402.6, 0.0, 5.0193086, 4.946801 
8.4458095e+2, 2.5310698e+2, -480937.06, -591647.3, 8190.549, 0.001820926, -0.0053269262, -480334.4, -20784.375, 0.0, 5.0185122, 4.946805 
8.445118e+2, 2.5805306e+2, -434138.53, -544053.8, 8018.282, 0.0030742246, -0.010090062, -433556.66, -22479.727, 0.0, 5.017716, 4.946545 
8.4444153e+2, 2.629965e+2, -396164.63, -516025.6, 6395.3228, 0.0027815746, 0.0033813063, -395824.38, -33192.402, 0.0, 5.0168195, 4.939429 
8.4436953e+2, 2.6793674e+2, -348345.56, -464926.0, 6076.3306, 0.001689429, 0.0030844542, -348029.7, -33810.348, 0.0, 5.015763, 4.940475 
8.442974e+2, 2.7287698e+2, -301851.28, -416815.56, 6077.7144, 0.00067743286, 0.001908526, -301530.84, -35723.57, 0.0, 5.0147004, 4.940475 
8.442254e+2, 2.778172e+2, -255402.48, -368838.13, 6040.9497, -0.00025259698, 0.0008168933, -255081.67, -37686.508, 0.0, 5.0136375, 4.940421 
8.4415185e+2, 2.8275403e+2, -217213.31, -340339.78, 3867.2412, -0.00030771937, 0.008756907, -217091.97, -48077.05, 0.0, 5.012627, 4.933451 
8.440763e+2, 2.8768826e+2, -168880.06, -288124.44, 3657.5222, 0.00061550376, 0.0050182855, -168767.98, -48109.16, 0.0, 5.011564, 4.9348636 
8.4400076e+2, 2.926225e+2, -122276.875, -239881.73, 3739.4636, 0.0017253321, 0.0005554212, -122158.09, -49855.023, 0.0, 5.010494, 4.9348655 
8.439252e+2, 2.975567e+2, -75683.22, -191691.11, 3839.2778, 0.0030213848, -0.003845712, -75556.3, -51609.074, 0.0, 5.009424, 4.934842 
8.4385246e+2, 3.0250475e+2, -21327.35, -94141.234, 6187.491, 0.0018302262, 0.0064933375, -20805.3, -20805.3, 0.0, 5.008706, 4.961521 
8.4378344e+2, 3.0746758e+2, -19644.762, -89017.5, 3297.3667, 0.0008593749, 0.002832619, -19488.387, -19488.387, 0.0, 5.0084743, 4.9634786 
8.437145e+2, 3.1243038e+2, -20157.256, -89120.664, 212.59077, 0.00038181857, -0.0030151804, -20156.602, -20156.602, 0.0, 5.0082517, 4.9635344 
8.436454e+2, 3.1739327e+2, -20672.172, -89221.31, -2864.7852, 0.00005447342, -0.009393968, -20552.654, -20552.654, 0.0, 5.008025, 4.963593 
8.513217e+2, 1.2403454e+2, -1666067.1, -1732087.8, 3711.3333, 0.011832699, 0.0047165295, -1665859.1, 58600.934, 0.0, 5.030667, 4.9872875 
8.512507e+2, 1.2902099e+2, -1619397.1, -1684372.5, 3968.915, 0.007562506, 0.0019516515, -1619155.5, 56437.89, 0.0, 5.029958, 4.987271 
8.5117966e+2, 1.3400742e+2, -1572713.1, -1636645.1, 4223.636, 0.0027596545, -0.00090187945, -1572435.4, 54291.82, 0.0, 5.0292473, 4.987254 
8.511087e+2, 1.3899386e+2, -1527798.6, -1592512.6, 4985.9434, -0.0021781279, -0.0021844222, -1527416.6, 50444.074, 0.0, 5.0285277, 4.9860334 
8.510408e+2, 1.4397743e+2, -1487826.8, -1559056.0, 8257.064, -0.001602005, 0.0065217516, -1486882.1, 42140.094, 0.0, 5.027964, 4.9810624 
8.5097456e+2, 1.4895777e+2, -1439968.0, -1510661.3, 8444.189, -0.0018867308, 0.00241344, -1438973.4, 41241.535, 0.0, 5.0276113, 4.9810596 
8.509083e+2, 1.5393814e+2, -1392101.5, -1462260.6, 8631.863, -0.0022269543, -0.0016814552, -1391055.1, 40352.445, 0.0, 5.0272584, 4.9810567 
8.50842e+2, 1.5891851e+2, -1345299.4, -1416064.6, 9066.73, -0.0026448509, -0.004980401, -1344156.1, 38443.63, 0.0, 5.0269017, 4.9803157 
8.507771e+2, 1.6389568e+2, -1305551.0, -1384641.6, 11138.25, -0.002954461, -0.00084999844, -1304012.4, 29810.63, 0.0, 5.0265827, 4.9745717 
8.507132e+2, 1.6886985e+2, -1257388.1, -1336054.4, 11352.871, -0.003412092, -0.0011130515, -1255782.5, 29292.592, 0.0, 5.0263033, 4.9745684 
8.5064924e+2, 1.7384404e+2, -1209219.3, -1287462.5, 11568.061, -0.0039786207, -0.001227716, -1207544.8, 28782.467, 0.0, 5.0260234, 4.9745655 
8.505852e+2, 1.7881823e+2, -1162390.1, -1241760.8, 11587.178, -0.0044907373, -0.0005659308, -1160733.1, 26846.191, 0.0, 5.0257463, 4.973588 
8.5052145e+2, 1.8378831e+2, -1123201.0, -1212259.3, 12606.836, -0.0034996616, 0.0051930877, -1121450.9, 17421.973, 0.0, 5.025458, 4.9671063 
8.504581e+2, 1.887547e+2, -1075000.8, -1163639.5, 12646.327, -0.003983199, 0.0017713527, -1073231.8, 16971.346, 0.0, 5.0251603, 4.9670944 
8.503948e+2, 1.9372109e+2, -1026793.56, -1115014.6, 12685.288, -0.004513436, -0.0016281091, -1025005.75, 16527.672, 0.0, 5.024863, 4.967082 
8.5033137e+2, 1.9868746e+2, -979467.4, -1068338.8, 12401.226, -0.0050796354, -0.004501179, -977769.4, 15094.213, 0.0, 5.024569, 4.966405 
8.5026705e+2, 2.0365056e+2, -939713.9, -1037880.75, 12024.12, -0.0048093214, 0.00032190778, -938262.5, 5962.0854, 0.0, 5.0242324, 4.9601865 
8.5020256e+2, 2.0861012e+2, -891694.3, -989285.25, 11997.962, -0.0035407268, -0.0023656136, -890240.9, 5378.514, 0.0, 5.023838, 4.960179 
8.501381e+2, 2.135697e+2, -843666.3, -940682.7, 11971.922, -0.002297223, -0.0049899295, -842210.8, 4803.3887, 0.0, 5.023443, 4.960171 
8.5007364e+2, 2.1852927e+2, -796545.9, -894089.9, 11880.672, -0.0011250358, -0.007251336, -795119.7, 3289.3574, 0.0, 5.0230494, 4.9594703 
8.500078e+2, 2.2348548e+2, -757508.5, -864928.5, 10465.449, -0.0012226334, 0.0007285469, -756498.4, -6659.463, 0.0, 5.022572, 4.95279 
8.499408e+2, 2.2843799e+2, -709921.2, -816405.9, 10406.455, -0.0014092106, 0.0010638556, -708913.75, -7607.595, 0.0, 5.0219765, 4.9528117 
8.498739e+2, 2.3339048e+2, -662351.06, -767937.06, 10342.961, -0.0015812169, 0.0013552605, -661347.44, -8574.021, 0.0, 5.021381, 4.9528112 
8.49807e+2, 2.3834299e+2, -615318.5, -720676.8, 10310.769, -0.0017225234, 0.001567039, -614318.94, -10078.245, 0.0, 5.020786, 4.952387 
8.4973884e+2, 2.4329218e+2, -575666.56, -689472.5, 8167.3755, -0.00044925988, 0.00589526, -575083.44, -19344.99, 0.0, 5.0201054, 4.946393 
8.4966886e+2, 2.4823794e+2, -528352.0, -640707.25, 7807.081, 0.00043637172, 0.00057750696, -527812.1, -20543.121, 0.0, 5.0193124, 4.9465504 
8.495989e+2, 2.5318366e+2, -481231.63, -592376.25, 7596.0884, 0.0013366132, -0.004860413, -480714.88, -21915.313, 0.0, 5.0185175, 4.946553 
8.495289e+2, 2.581294e+2, -434376.9, -544665.3, 7413.9077, 0.0022477915, -0.010264133, -433880.75, -23550.664, 0.0, 5.0177217, 4.946334 
8.4945774e+2, 2.630727e+2, -396024.22, -515856.88, 5603.431, 0.0018534024, 0.0025177677, -395762.78, -33876.656, 0.0, 5.016834, 4.9394913 
8.493848e+2, 2.6801303e+2, -348198.7, -464760.16, 5280.26, 0.0016965548, 0.0025451314, -347959.97, -34488.125, 0.0, 5.0157795, 4.940537 
8.493117e+2, 2.7295333e+2, -301700.6, -416654.3, 5286.8276, 0.0015535546, 0.0017447252, -301457.97, -36399.88, 0.0, 5.014719, 4.940535 
8.492387e+2, 2.7789363e+2, -255241.77, -368667.34, 5253.7954, 0.0013986876, 0.0009889262, -254998.94, -38354.58, 0.0, 5.0136585, 4.9404845 
8.4916407e+2, 2.8283057e+2, -216912.92, -339856.0, 3054.8445, 0.0009526456, 0.00846177, -216837.06, -48573.664, 0.0, 5.0126486, 4.933624 
8.490873e+2, 2.8776494e+2, -168597.92, -287692.7, 2840.2024, 0.00046523672, 0.004206667, -168530.23, -48623.215, 0.0, 5.0115867, 4.9350176 
8.490105e+2, 2.9269922e+2, -121992.89, -239451.42, 2928.7346, 0.00006858044, -0.0007611901, -121919.91, -50368.938, 0.0, 5.0105186, 4.9350195 
8.489337e+2, 2.9763356e+2, -75518.59, -191544.98, 3085.428, -0.00023987323, -0.0056702653, -75436.6, -52241.754, 0.0, 5.0094495, 4.934895 
8.4886056e+2, 3.025799e+2, -25504.14, -104374.766, 5926.0845, -0.00036259368, 0.00611724, -25061.36, -25061.36, 0.0, 5.008763, 4.957798 
8.4879166e+2, 3.075392e+2, -23878.195, -99370.37, 3094.0823, 0.0030201615, 0.00487024, -23751.596, -23751.596, 0.0, 5.0085297, 4.9597087 
8.487229e+2, 3.1249848e+2, -24406.664, -99467.516, 26.7498, 0.0066732788, 0.0014969221, -24406.654, -24406.654, 0.0, 5.0083013, 4.959769 
8.4865403e+2, 3.1745782e+2, -24937.486, -99562.19, -3033.1616, 0.010200207, -0.0022989835, -24814.406, -24814.406, 0.0, 5.0080695, 4.9598308 
8.5635203e+2, 1.2410773e+2, -1665418.4, -1730839.0, 3143.6233, 0.013305961, -0.0017508771, -1665267.6, 58471.36, 0.0, 5.030677, 4.987698 
8.5628027e+2, 1.2909473e+2, -1618744.3, -1683126.1, 3408.4795, 0.008454561, -0.003173305, -1618564.3, 56303.418, 0.0, 5.02997, 4.987681 
8.5620844e+2, 1.340817e+2, -1572056.3, -1635400.9, 3670.4768, 0.0029243603, -0.004740984, -1571844.3, 54152.52, 0.0, 5.0292616, 4.9876637 
8.561366e+2, 1.3906868e+2, -1527155.4, -1591308.5, 4471.865, -0.0028218704, -0.004734911, -1526845.1, 50280.54, 0.0, 5.0285444, 4.98643 
8.5606825e+2, 1.4405271e+2, -1487426.5, -1558281.3, 7981.7544, -0.0022954028, 0.005593208, -1486538.5, 41744.727, 0.0, 5.0279703, 4.981318 
8.560017e+2, 1.490335e+2, -1439573.0, -1509890.6, 8171.6997, -0.0022992666, 0.0030795983, -1438635.9, 40836.652, 0.0, 5.027617, 4.981315 
8.5593504e+2, 1.540143e+2, -1391711.9, -1461494.1, 8362.191, -0.0023806056, 0.00058809685, -1390723.8, 39938.098, 0.0, 5.027263, 4.981312 
8.5586846e+2, 1.589951e+2, -1344833.6, -1415131.0, 8818.3, -0.0025437942, -0.001228288, -1343744.4, 38106.555, 0.0, 5.0269055, 4.9806285 
8.558034e+2, 1.6397244e+2, -1305126.9, -1383772.9, 10921.852, -0.0025277033, 0.0016212158, -1303638.3, 29433.492, 0.0, 5.026585, 4.974863 
8.557391e+2, 1.6894668e+2, -1256971.3, -1335190.9, 11139.585, -0.0028303764, -0.0007776614, -1255415.8, 28906.602, 0.0, 5.0263047, 4.9748597 
8.5567486e+2, 1.7392094e+2, -1208809.5, -1286604.3, 11357.887, -0.0032766776, -0.0030050387, -1207185.1, 28387.684, 0.0, 5.026024, 4.9748564 
8.5561067e+2, 1.7889522e+2, -1162056.9, -1241050.6, 11405.558, -0.0037279178, -0.004257094, -1160443.0, 26380.283, 0.0, 5.0257444, 4.973831 
8.555466e+2, 1.838655e+2, -1123148.0, -1212110.0, 12385.28, -0.0031308795, 0.0022891753, -1121455.9, 16659.182, 0.0, 5.025452, 4.9671597 
8.554829e+2, 1.8883215e+2, -1074949.8, -1163494.0, 12427.5625, -0.0043169954, 0.0008700332, -1073238.6, 16204.996, 0.0, 5.0251546, 4.967147 
8.554191e+2, 1.9379878e+2, -1026744.6, -1114873.0, 12469.314, -0.005573959, -0.0005146662, -1025014.3, 15757.796, 0.0, 5.0248566, 4.9671335 
8.553554e+2, 1.9876543e+2, -979422.9, -1068206.9, 12188.841, -0.006843765, -0.001446075, -977779.94, 14320.594, 0.0, 5.024563, 4.9664536 
8.552907e+2, 2.0372848e+2, -939763.06, -1037963.5, 11729.482, -0.0061961575, 0.0030894177, -938381.44, 5080.367, 0.0, 5.0242276, 4.9601617 
8.55226e+2, 2.0868789e+2, -891744.44, -989368.75, 11705.632, -0.004049303, -0.0009663846, -890360.5, 4497.6226, 0.0, 5.0238333, 4.960154 
8.551612e+2, 2.1364729e+2, -843717.44, -940766.94, 11681.901, -0.0019520521, -0.0049441187, -842331.06, 3923.3274, 0.0, 5.023438, 4.960146 
8.550964e+2, 2.1860671e+2, -796605.1, -894194.8, 11578.047, 0.0000006989583, -0.008476957, -795250.3, 2400.343, 0.0, 5.023044, 4.959438 
8.5502994e+2, 2.2356287e+2, -757573.3, -865092.2, 10025.402, -0.0003495609, -0.00053527305, -756646.5, -7565.694, 0.0, 5.022572, 4.952736 
8.549624e+2, 2.285154e+2, -710009.4, -816627.5, 9965.686, -0.0008846407, 0.0007472917, -709085.9, -8538.27, 0.0, 5.0219774, 4.9527373 
8.548948e+2, 2.3346792e+2, -662436.7, -768159.1, 9904.454, -0.0014313834, 0.0019790642, -661516.75, -9502.296, 0.0, 5.021383, 4.9527364 
8.5482734e+2, 2.3842043e+2, -615444.7, -720995.25, 9864.9795, -0.0019626203, 0.0030972932, -614530.6, -11049.143, 0.0, 5.0207877, 4.952278 
8.547585e+2, 2.4336949e+2, -575926.6, -690104.9, 7551.3335, -0.0003630185, 0.007672382, -575429.4, -20448.592, 0.0, 5.0201087, 4.946176 
8.546877e+2, 2.4831492e+2, -528651.1, -641435.9, 7210.6743, 0.00028710507, 0.0016886063, -528192.0, -21677.123, 0.0, 5.0193167, 4.9462996 
8.546169e+2, 2.532603e+2, -481526.66, -593105.0, 7003.1265, 0.00090206286, -0.004431285, -481088.8, -23039.707, 0.0, 5.0185223, 4.9463015 
8.545461e+2, 2.5820574e+2, -434611.8, -545266.25, 6838.371, 0.0014887678, -0.010519725, -434190.8, -24607.56, 0.0, 5.0177274, 4.9461255 
8.54474e+2, 2.631489e+2, -395896.13, -515714.22, 4789.2793, 0.00083580456, 0.0017025555, -395705.0, -34564.824, 0.0, 5.0168486, 4.9395432 
8.5440004e+2, 2.6808935e+2, -348052.94, -464593.38, 4486.932, 0.0016464778, 0.001999943, -347880.44, -35156.195, 0.0, 5.0157967, 4.940598 
8.54326e+2, 2.730297e+2, -301551.06, -416492.1, 4498.684, 0.0024025708, 0.0015122311, -301375.25, -37066.438, 0.0, 5.014738, 4.9405947 
8.5425204e+2, 2.7797014e+2, -255083.9, -368499.47, 4465.839, 0.0030464272, 0.0010324381, -254908.33, -39014.84, 0.0, 5.013679, 4.940546 
8.541762e+2, 2.829071e+2, -216633.64, -339417.47, 2244.6677, 0.002174255, 0.008303768, -216592.61, -49080.86, 0.0, 5.01267, 4.9337792 
8.5409826e+2, 2.878416e+2, -168316.94, -287259.88, 2023.8317, 0.00027041792, 0.0034603477, -168282.52, -49127.4, 0.0, 5.0116096, 4.935171 
8.5402024e+2, 2.92776e+2, -121710.04, -239020.06, 2118.955, -0.001643192, -0.0021095623, -121671.78, -50872.973, 0.0, 5.0105424, 4.9351726 
8.539423e+2, 2.9771042e+2, -75516.68, -191774.61, 2343.435, -0.0035604604, -0.0076041594, -75469.46, -53026.996, 0.0, 5.0094743, 4.934812 
8.538686e+2, 3.0265495e+2, -29711.268, -114669.1, 5685.995, -0.0023417936, 0.0059421626, -29332.408, -29332.408, 0.0, 5.0088196, 4.9540586 
8.538e+2, 3.076107e+2, -28122.771, -109734.13, 2884.467, 0.005375885, 0.006854353, -28020.951, -28020.951, 0.0, 5.008585, 4.9559402 
8.537314e+2, 3.1256643e+2, -28667.242, -109825.25, -165.38605, 0.013106903, 0.005659536, -28666.904, -28666.904, 0.0, 5.008351, 4.956004 
8.5366243e+2, 3.175475e+2, -10246.448, -65510.086, -2639.3245, 0.017351707, 0.25628835, -10120.684, -10120.684, 0.0, 5.008111, 4.9722495 
8.613821e+2, 1.2418096e+2, -1666964.6, -1730610.8, 2224.903, 0.014196688, -0.0061750296, -1666887.0, 56132.1, 0.0, 5.029938, 4.9881377 
8.6130965e+2, 1.2916848e+2, -1619942.1, -1682702.8, 2617.586, 0.008818983, -0.0069552567, -1619833.1, 54309.76, 0.0, 5.0293446, 4.988127 
8.6123705e+2, 1.3415599e+2, -1572990.0, -1634825.6, 3009.3232, 0.00297958, -0.00779881, -1572843.9, 52423.043, 0.0, 5.028723, 4.988116 
8.611645e+2, 1.3914353e+2, -1527940.0, -1590679.6, 3970.8877, -0.0028641457, -0.006920064, -1527689.6, 48701.145, 0.0, 5.0280633, 4.9868703 
8.610957e+2, 1.4412807e+2, -1488318.6, -1558005.3, 7842.3184, -0.0023686509, 0.004808361, -1487447.0, 40096.88, 0.0, 5.027523, 4.9816236 
8.6102873e+2, 1.491093e+2, -1440391.4, -1509578.8, 8126.274, -0.0023007162, 0.0036392114, -1439449.8, 39279.754, 0.0, 5.027194, 4.9816203 
8.6096185e+2, 1.5409051e+2, -1392463.4, -1461149.1, 8412.561, -0.002283452, 0.0024429774, -1391448.0, 38467.156, 0.0, 5.0268626, 4.9816165 
8.608949e+2, 1.5907174e+2, -1345488.5, -1414680.8, 8981.848, -0.0023123026, 0.0017611616, -1344341.6, 36758.918, 0.0, 5.026526, 4.9809585 
8.6082953e+2, 1.6404927e+2, -1305813.3, -1383496.4, 11087.948, -0.0021459444, 0.0035583642, -1304261.6, 28057.64, 0.0, 5.026231, 4.97512 
8.6076504e+2, 1.690236e+2, -1257569.8, -1334882.1, 11229.087, -0.002353756, -0.0005893126, -1255971.9, 27596.797, 0.0, 5.02598, 4.9751143 
8.607005e+2, 1.7399792e+2, -1209338.6, -1286272.0, 11364.698, -0.0026503843, -0.004610124, -1207695.0, 27122.922, 0.0, 5.025723, 4.9751086 
8.60636e+2, 1.7897227e+2, -1162588.3, -1240810.8, 11356.706, -0.0029382745, -0.0074937786, -1160972.9, 25094.307, 0.0, 5.0254607, 4.9740453 
8.605717e+2, 1.839428e+2, -1123764.9, -1212204.1, 12336.217, -0.0026636538, -0.00014804715, -1122076.4, 15280.672, 0.0, 5.0252066, 4.9672403 
8.6050755e+2, 1.8890968e+2, -1075422.6, -1163522.6, 12435.849, -0.0044109374, 0.000109679655, -1073700.9, 14982.661, 0.0, 5.024958, 4.967226 
8.6044353e+2, 1.9387655e+2, -1027105.5, -1114851.3, 12534.534, -0.0062018093, 0.0003939411, -1025350.0, 14660.213, 0.0, 5.024699, 4.9672117 
8.6037946e+2, 1.9884342e+2, -979729.94, -1068215.9, 12311.34, -0.007948078, 0.0010607755, -978048.94, 13287.897, 0.0, 5.0244346, 4.966508 
8.603144e+2, 2.0380646e+2, -940065.06, -1038202.7, 11747.013, -0.00703078, 0.005485591, -938678.5, 4019.941, 0.0, 5.024146, 4.9601183 
8.602494e+2, 2.087657e+2, -891909.2, -989539.8, 11656.307, -0.0042647747, 0.00038556845, -890536.8, 3559.4512, 0.0, 5.023798, 4.9601116 
8.6018425e+2, 2.1372494e+2, -843774.5, -940884.1, 11570.332, -0.001513592, -0.0046750153, -842414.94, 3079.0752, 0.0, 5.02344, 4.9601054 
8.6011916e+2, 2.1868421e+2, -796570.06, -894242.44, 11398.818, 0.0010702836, -0.00925656, -795257.4, 1634.3286, 0.0, 5.0230727, 4.959409 
8.6005217e+2, 2.2364031e+2, -757559.8, -865264.2, 9673.07, 0.00045126327, -0.0014281665, -756698.0, -8375.664, 0.0, 5.02261, 4.9526606 
8.59984e+2, 2.2859281e+2, -710008.0, -816810.44, 9594.251, -0.00040042956, 0.00046517103, -709153.0, -9363.955, 0.0, 5.022012, 4.95266 
8.5991585e+2, 2.3354533e+2, -662469.6, -768357.44, 9516.9375, -0.0012585263, 0.0023434202, -661621.06, -10365.339, 0.0, 5.021405, 4.952659 
8.5984766e+2, 2.3849782e+2, -615581.8, -721319.2, 9467.8125, -0.0020848361, 0.004137326, -614740.75, -12018.168, 0.0, 5.0207896, 4.9521666 
8.5977817e+2, 2.4344675e+2, -576196.4, -690792.44, 6939.0, -0.0001686865, 0.009181955, -575777.75, -21554.309, 0.0, 5.020121, 4.945934 
8.597065e+2, 2.4839187e+2, -528879.75, -642134.94, 6605.55, 0.00024345152, 0.0027277942, -528495.8, -22734.826, 0.0, 5.0193496, 4.946043 
8.596349e+2, 2.5333697e+2, -481753.88, -593797.06, 6384.924, 0.00063606043, -0.003907942, -481391.22, -24092.547, 0.0, 5.018554, 4.946047 
8.595633e+2, 2.582821e+2, -434862.2, -545896.94, 6228.9307, 0.0010129568, -0.010529004, -434513.84, -25677.648, 0.0, 5.017737, 4.945902 
8.594902e+2, 2.6322514e+2, -395765.38, -515624.75, 3898.692, -0.00009202352, 0.001183479, -395638.7, -35244.504, 0.0, 5.016877, 4.9395704 
8.594153e+2, 2.681656e+2, -347824.84, -464451.94, 3468.6472, 0.0015623689, 0.0015362046, -347721.78, -35744.68, 0.0, 5.0158567, 4.9406304 
8.5934025e+2, 2.73106e+2, -301284.3, -416330.84, 3367.4731, 0.0031929002, 0.0011525771, -301185.84, -37625.375, 0.0, 5.0148115, 4.9406285 
8.592653e+2, 2.7804646e+2, -254831.92, -368350.16, 3246.1367, 0.004694034, 0.00075848645, -254739.17, -39595.293, 0.0, 5.0137486, 4.940578 
8.591885e+2, 2.829835e+2, -215984.9, -338907.53, 878.2179, 0.0034501695, 0.008140969, -215978.64, -49217.21, 0.0, 5.0128493, 4.9338875 
8.5910934e+2, 2.879181e+2, -167132.1, -286482.97, 520.2985, 0.00019518449, 0.0028425497, -167129.83, -48725.387, 0.0, 5.011978, 4.9352927 
8.5903007e+2, 2.9285264e+2, -120115.945, -238056.73, 498.22913, -0.0031025745, -0.0032170657, -120113.84, -50066.074, 0.0, 5.01106, 4.935298 
8.589509e+2, 2.9778716e+2, -74049.695, -191662.5, 701.553, -0.0064304294, -0.009169856, -74045.516, -52354.41, 0.0, 5.010101, 4.9345884 
8.588768e+2, 3.027298e+2, -32735.068, -124193.375, 4917.3276, -0.0038430316, 0.0060529974, -32471.443, -32471.443, 0.0, 5.0092735, 4.9504285 
8.5880834e+2, 3.076821e+2, -32216.074, -119759.734, 2843.5698, 0.0076599973, 0.008426993, -32123.807, -32123.807, 0.0, 5.008654, 4.9522896 
8.5873985e+2, 3.126344e+2, -33773.45, -120314.6, 442.55902, 0.019113112, 0.009146623, -33771.184, -33771.184, 0.0, 5.0080543, 4.952342 
8.5866433e+2, 3.176541e+2, 64395.504, 112399.984, 762.8461, -0.042214155, 0.6698519, 112412.1, 112412.1, 0.0, 5.007467, 5.038981 
8.6641014e+2, 1.2425527e+2, -1672015.8, -1731514.9, 3513.2192, 0.011312362, -0.007645859, -1671809.0, 50481.8, 0.0, 5.027944, 4.98879 
8.6633724e+2, 1.2924345e+2, -1624517.6, -1683344.8, 3971.853, 0.0068806903, -0.008365277, -1624250.6, 49157.418, 0.0, 5.0275073, 4.988784 
8.662642e+2, 1.3423163e+2, -1577010.5, -1635167.5, 4426.613, 0.0023862005, -0.008945738, -1576675.5, 47849.92, 0.0, 5.0270696, 4.9887776 
8.661913e+2, 1.3921985e+2, -1531262.0, -1590583.9, 5493.3115, -0.0017152543, -0.0076667075, -1530757.6, 44884.734, 0.0, 5.02663, 4.9875674 
8.661222e+2, 1.4420497e+2, -1491045.8, -1558052.8, 9709.963, -0.0007231874, 0.0040589115, -1489667.1, 37122.4, 0.0, 5.0263777, 4.9821405 
8.66055e+2, 1.4918672e+2, -1442442.0, -1509285.9, 10099.746, -0.0011641961, 0.0034588405, -1440949.3, 37020.45, 0.0, 5.026275, 4.9821386 
8.659878e+2, 1.5416846e+2, -1393835.3, -1460518.0, 10489.518, -0.0015823683, 0.002783589, -1392224.1, 36926.027, 0.0, 5.026172, 4.982137 
8.6592066e+2, 1.591502e+2, -1346242.0, -1413834.4, 11186.846, -0.0019788214, 0.0024544438, -1344438.6, 35891.72, 0.0, 5.026065, 4.981439 
8.658551e+2, 1.6412798e+2, -1306317.8, -1383120.0, 13356.416, -0.002144038, 0.0038336762, -1304061.3, 27485.885, 0.0, 5.0259843, 4.975334 
8.657905e+2, 1.6910242e+2, -1257463.4, -1334236.1, 13491.003, -0.0023277327, -0.0007200458, -1255161.6, 27634.172, 0.0, 5.0259438, 4.9753213 
8.657258e+2, 1.7407686e+2, -1208607.1, -1285352.0, 13625.845, -0.0024120267, -0.0052374564, -1206259.6, 27784.895, 0.0, 5.025903, 4.975308 
8.656612e+2, 1.7905131e+2, -1161139.6, -1239439.5, 13647.034, -0.0023083268, -0.008657094, -1158829.3, 26464.01, 0.0, 5.0258627, 4.974295 
8.655967e+2, 1.8402207e+2, -1121775.4, -1210592.3, 14699.517, -0.0019836396, -0.0011285372, -1119405.8, 17175.008, 0.0, 5.0258055, 4.9674797 
8.655325e+2, 1.8898919e+2, -1072954.4, -1161688.5, 14875.051, -0.0036156718, -0.00026746266, -1070527.3, 17377.232, 0.0, 5.025726, 4.967465 
8.654683e+2, 1.939563e+2, -1024130.6, -1112784.0, 15050.275, -0.005183164, 0.0005519093, -1021645.3, 17583.098, 0.0, 5.0256453, 4.9674497 
8.654041e+2, 1.9892338e+2, -976283.9, -1066044.1, 14907.371, -0.006597454, 0.0016321436, -973872.8, 16679.666, 0.0, 5.0255704, 4.9666977 
8.653389e+2, 2.0388642e+2, -936443.75, -1036550.56, 14333.047, -0.005758091, 0.006046984, -934432.0, 7482.5645, 0.0, 5.025466, 4.9600506 
8.6527354e+2, 2.0884557e+2, -887795.2, -987651.94, 14250.629, -0.0034136523, 0.0013417416, -885801.25, 7512.565, 0.0, 5.0252934, 4.960047 
8.652082e+2, 2.1380472e+2, -839142.3, -938750.9, 14168.306, -0.0010380084, -0.0033886223, -837166.25, 7546.874, 0.0, 5.0251207, 4.9600434 
8.6514276e+2, 2.1876389e+2, -791333.75, -891721.5, 13974.889, 0.0012292844, -0.007742605, -789424.6, 6687.6704, 0.0, 5.024948, 4.9593964 
8.6507535e+2, 2.2371985e+2, -751947.3, -862637.06, 12102.63, 0.0005834732, -0.00074777455, -750639.5, -3095.4868, 0.0, 5.024627, 4.9526224 
8.650066e+2, 2.2867215e+2, -704069.5, -814033.1, 12038.8, -0.00019739145, 0.00007265279, -702766.94, -3755.0254, 0.0, 5.024151, 4.952624 
8.649379e+2, 2.3362447e+2, -656182.0, -765420.75, 11974.13, -0.0009268718, 0.00095545495, -654884.9, -4405.101, 0.0, 5.023674, 4.9526253 
8.6486924e+2, 2.3857678e+2, -608950.5, -718278.3, 11931.718, -0.0015586023, 0.0018728158, -607663.5, -5715.76, 0.0, 5.0231977, 4.952112 
8.64799e+2, 2.4352556e+2, -569632.0, -688348.1, 9209.513, 0.00010355366, 0.007942663, -568921.8, -15471.676, 0.0, 5.022613, 4.945638 
8.647266e+2, 2.484705e+2, -522304.13, -639637.56, 8827.644, 0.00030784728, 0.002889943, -521643.7, -16653.527, 0.0, 5.021843, 4.945771 
8.6465424e+2, 2.5341544e+2, -475124.84, -591262.56, 8529.122, 0.000659138, -0.002327971, -474501.8, -17971.682, 0.0, 5.02107, 4.9457836 
8.645818e+2, 2.5836042e+2, -428102.8, -543267.25, 8256.327, 0.0011683647, -0.007537883, -427513.9, -19444.066, 0.0, 5.020297, 4.9456587 
8.6450785e+2, 2.6330304e+2, -388956.72, -512960.28, 5667.402, 0.00024744493, 0.0027599619, -388698.22, -29066.54, 0.0, 5.019439, 4.939356 
8.6443174e+2, 2.6824304e+2, -341402.78, -462046.0, 4960.67, 0.0017660552, 0.0016593911, -341199.16, -29980.4, 0.0, 5.0183024, 4.940383 
8.643558e+2, 2.7318302e+2, -295147.1, -414040.9, 4606.244, 0.0035063962, -0.00009577793, -294968.9, -32162.82, 0.0, 5.017157, 4.940389 
8.6427975e+2, 2.7812302e+2, -248936.27, -366191.38, 4259.838, 0.0053861407, -0.0018767266, -248781.72, -34388.39, 0.0, 5.016016, 4.940331 
8.64202e+2, 2.830598e+2, -210012.81, -337018.4, 1715.0466, 0.0044742622, 0.006232837, -209989.66, -43976.203, 0.0, 5.015213, 4.933497 
8.641222e+2, 2.879942e+2, -160627.53, -284331.44, 837.64954, 0.0016742639, 0.0032024982, -160621.86, -42964.07, 0.0, 5.0145345, 4.9349194 
8.640423e+2, 2.929286e+2, -112984.2, -235625.11, 265.10645, -0.0008997365, -0.0005964069, -112983.63, -43681.35, 0.0, 5.013848, 4.9349327 
8.639625e+2, 2.97863e+2, -66441.99, -189484.02, -70.35413, -0.003236934, -0.0042580613, -66441.95, -45495.23, 0.0, 5.0131545, 4.9340267 
8.6388695e+2, 3.0280426e+2, -28763.994, -125805.55, 3984.679, -0.0024981943, 0.008421756, -28600.652, -28600.652, 0.0, 5.01144, 4.948882 
8.6381626e+2, 3.0775422e+2, -32952.066, -123447.92, 3433.2446, 0.0036514483, 0.0030620527, -32822.004, -32822.004, 0.0, 5.0090933, 4.9507337 
8.637457e+2, 3.1270427e+2, -39285.152, -126205.51, 2638.8196, 0.0104877995, -0.0023951489, -39205.113, -39205.113, 0.0, 5.006755, 4.950742 
8.6367047e+2, 3.1761694e+2, 14413.649, 11760.153, 5518.678, -0.031692322, -0.38905135, 18762.82, 18762.82, 0.0, 5.0043283, 5.0023937 
8.7143713e+2, 1.24330625e+2, -1670967.3, -1729478.1, 3159.877, 0.0062616877, -0.010540201, -1670797.0, 50755.6, 0.0, 5.0279574, 4.98946 
8.7136394e+2, 1.2931953e+2, -1623470.9, -1681320.5, 3622.9727, 0.0037028596, -0.010627968, -1623244.9, 49417.668, 0.0, 5.0275226, 4.9894514 
8.712906e+2, 1.3430843e+2, -1575965.6, -1633155.4, 4082.195, 0.001015714, -0.010595923, -1575675.6, 48096.9, 0.0, 5.027087, 4.989443 
8.712175e+2, 1.3929737e+2, -1530170.0, -1588472.3, 5204.421, -0.0013625177, -0.008811589, -1529709.1, 45173.074, 0.0, 5.026648, 4.9882665 
8.711482e+2, 1.4428309e+2, -1490260.5, -1556485.8, 9625.636, 0.00011630828, 0.0026753426, -1488889.9, 37133.418, 0.0, 5.0263844, 4.9826617 
8.710809e+2, 1.492654e+2, -1441662.9, -1507725.0, 10018.009, -0.0007152983, 0.002600988, -1440177.1, 37020.555, 0.0, 5.026282, 4.98266 
8.710135e+2, 1.542477e+2, -1393062.4, -1458963.4, 10410.369, -0.001535054, 0.0024618416, -1391456.9, 36915.33, 0.0, 5.026179, 4.982658 
8.709462e+2, 1.5922998e+2, -1345577.9, -1412488.1, 11136.268, -0.0023488444, 0.0025912256, -1343773.1, 35773.77, 0.0, 5.0260696, 4.981892 
8.708806e+2, 1.6420802e+2, -1306081.0, -1382602.9, 13324.082, -0.0026791722, 0.0037050382, -1303827.4, 26934.098, 0.0, 5.0259805, 4.9755106 
8.70816e+2, 1.6918261e+2, -1257227.8, -1333719.4, 13461.309, -0.0026393102, -0.001160993, -1254927.9, 27081.588, 0.0, 5.02594, 4.975498 
8.707513e+2, 1.741572e+2, -1208372.5, -1284835.8, 13598.789, -0.0025148774, -0.005993015, -1206026.0, 27231.523, 0.0, 5.0258994, 4.9754853 
8.7068665e+2, 1.791318e+2, -1160824.8, -1238744.4, 13633.147, -0.0022366054, -0.009638611, -1158508.3, 25997.008, 0.0, 5.025859, 4.974533 
8.7062216e+2, 1.8410283e+2, -1121488.9, -1209927.3, 14641.254, -0.0018334147, -0.0018361594, -1119128.0, 16661.871, 0.0, 5.0257974, 4.9677086 
8.705579e+2, 1.8907022e+2, -1072670.5, -1161027.1, 14819.689, -0.003011782, -0.00054474606, -1070251.1, 16859.324, 0.0, 5.0257177, 4.9676933 
8.704937e+2, 1.940376e+2, -1023849.3, -1112126.3, 14997.815, -0.0041421736, 0.0007147269, -1021370.9, 17060.45, 0.0, 5.025637, 4.967678 
8.7042946e+2, 1.9900495e+2, -976077.06, -1065543.9, 14858.695, -0.005150469, 0.002204859, -973673.9, 16078.598, 0.0, 5.0255623, 4.9668727 
8.703641e+2, 2.0396797e+2, -936596.25, -1036840.75, 14208.799, -0.004468361, 0.0066059376, -934621.2, 6493.579, 0.0, 5.02546, 4.9599543 
8.702985e+2, 2.0892708e+2, -887947.3, -987941.44, 14129.253, -0.002692255, 0.0023090348, -885989.2, 6526.093, 0.0, 5.0252876, 4.959951 
8.7023294e+2, 2.1388617e+2, -839294.2, -939039.56, 14049.801, -0.0009144785, -0.0020037852, -837352.94, 6562.908, 0.0, 5.0251145, 4.959947 
8.7016726e+2, 2.1884528e+2, -791420.3, -891872.7, 13829.423, 0.00075120915, -0.0059686517, -789551.2, 5765.025, 0.0, 5.024942, 4.9593472 
8.700995e+2, 2.2380112e+2, -752047.25, -862856.5, 11746.196, 0.00023325474, 0.00023894318, -750815.8, -4067.0566, 0.0, 5.024625, 4.952549 
8.7003034e+2, 2.2875321e+2, -704168.4, -814253.56, 11684.856, -0.0002802486, -0.00030826067, -702941.75, -4723.813, 0.0, 5.024149, 4.95255 
8.699612e+2, 2.3370533e+2, -656279.75, -765642.1, 11622.676, -0.00077571924, -0.0007925728, -655058.2, -5371.088, 0.0, 5.023672, 4.952551 
8.69892e+2, 2.3865743e+2, -609109.25, -718640.1, 11573.632, -0.0012088711, -0.0011652256, -607899.7, -6743.3403, 0.0, 5.023196, 4.9519887 
8.6982113e+2, 2.4360605e+2, -570041.2, -689365.2, 8621.098, -0.00003948548, 0.0060366495, -569421.5, -16761.096, 0.0, 5.0226226, 4.9452877 
8.6974794e+2, 2.4855083e+2, -522697.0, -640627.44, 8246.796, 0.00011102212, 0.0028818597, -522123.13, -17920.488, 0.0, 5.021853, 4.945429 
8.6967474e+2, 2.534956e+2, -475513.97, -592252.5, 7952.7046, 0.00035247923, -0.00042743472, -474974.7, -19229.875, 0.0, 5.021081, 4.9454403 
8.6960155e+2, 2.584404e+2, -428454.44, -544184.3, 7675.6177, 0.0006974552, -0.0037584684, -427947.6, -20660.861, 0.0, 5.020309, 4.9453397 
8.6952674e+2, 2.6338255e+2, -389354.03, -514006.4, 4830.4033, 0.00035555026, 0.0049783457, -389167.13, -30313.951, 0.0, 5.0194526, 4.9389935 
8.694495e+2, 2.68322e+2, -341838.84, -463196.63, 4095.4065, 0.0017984565, 0.0020777287, -341700.78, -31255.043, 0.0, 5.018317, 4.939983 
8.693723e+2, 2.7326137e+2, -295578.16, -415189.9, 3745.013, 0.00337455, -0.0014221257, -295461.0, -33422.434, 0.0, 5.0171723, 4.939988 
8.692951e+2, 2.7820078e+2, -249411.77, -367458.13, 3456.4824, 0.005033026, -0.0049892166, -249310.66, -35679.254, 0.0, 5.016033, 4.9398866 
8.692167e+2, 2.8313708e+2, -210637.7, -338809.2, 1193.4763, 0.004456201, 0.004102241, -210626.6, -45370.87, 0.0, 5.0152545, 4.9328594 
8.691362e+2, 2.880712e+2, -161229.3, -286110.1, 312.3513, 0.002990086, 0.004313505, -161228.52, -44325.996, 0.0, 5.0145802, 4.934283 
8.690558e+2, 2.930053e+2, -113570.7, -237397.97, -253.57343, 0.0016851661, 0.003712614, -113570.19, -45020.645, 0.0, 5.0138974, 4.934295 
8.689754e+2, 2.9793936e+2, -67279.2, -191850.89, -645.20026, 0.0005108503, 0.0032973632, -67275.86, -47079.25, 0.0, 5.0132027, 4.933176 
8.68898e+2, 3.0287927e+2, -29852.912, -128530.01, 2167.7695, -0.0019017449, 0.012254219, -29805.313, -29805.313, 0.0, 5.011449, 4.9479094 
8.6882406e+2, 3.0782712e+2, -33937.047, -126009.6, 1679.8843, -0.0040049455, -0.00593072, -33906.406, -33906.406, 0.0, 5.0091176, 4.949814 
8.6875015e+2, 3.12775e+2, -40229.277, -128751.31, 942.29944, -0.0057172272, -0.024465682, -40219.25, -40219.25, 0.0, 5.0067945, 4.949822 
8.686744e+2, 3.17669e+2, 25213.84, 37212.78, 2685.217, -0.031410202, -0.5952704, 37786.29, 37786.29, 0.0, 5.004257, 5.0119457 
8.764641e+2, 1.24406e+2, -1669920.6, -1727440.9, 2810.201, 0.0012619767, -0.013272464, -1669783.6, 51030.54, 0.0, 5.027971, 4.9901295 
8.7639064e+2, 1.2939565e+2, -1622426.1, -1679295.4, 3277.7593, 0.0005969693, -0.012785913, -1622237.8, 49678.914, 0.0, 5.0275383, 4.9901185 
8.7631714e+2, 1.3438526e+2, -1574922.6, -1631142.6, 3741.445, -0.00026189012, -0.0121986875, -1574674.8, 48344.742, 0.0, 5.0271044, 4.9901075 
8.7624365e+2, 1.3937491e+2, -1529103.3, -1586409.5, 4914.14, -0.00093016785, -0.009926318, -1528684.9, 45436.96, 0.0, 5.0266666, 4.988949 
8.761743e+2, 1.4436123e+2, -1489476.3, -1554918.8, 9541.36, 0.0009079495, 0.0014592321, -1488113.5, 37143.363, 0.0, 5.0263915, 4.9831824 
8.7610674e+2, 1.493441e+2, -1440884.8, -1506164.3, 9936.323, -0.00030920538, 0.0018513566, -1439405.8, 37019.62, 0.0, 5.026289, 4.9831805 
8.760393e+2, 1.5432696e+2, -1392290.3, -1457408.8, 10331.273, -0.0015254957, 0.0021890835, -1390690.5, 36903.633, 0.0, 5.0261855, 4.983178 
8.759718e+2, 1.5930979e+2, -1344949.8, -1411215.9, 11077.632, -0.0027465422, 0.0027576345, -1343147.0, 35616.293, 0.0, 5.0260744, 4.9823203 
8.7590617e+2, 1.6428807e+2, -1305845.0, -1382085.4, 13291.309, -0.0031994192, 0.0036442233, -1303594.3, 26381.615, 0.0, 5.0259767, 4.975687 
8.758415e+2, 1.692628e+2, -1256992.6, -1333202.4, 13431.174, -0.0029419714, -0.0015983867, -1254694.8, 26528.334, 0.0, 5.025936, 4.975674 
8.7577677e+2, 1.7423752e+2, -1208138.4, -1284319.4, 13571.294, -0.002614787, -0.0068092924, -1205793.0, 26677.514, 0.0, 5.0258956, 4.9756618 
8.7571216e+2, 1.7921232e+2, -1160527.0, -1238085.0, 13614.116, -0.0021706973, -0.01067064, -1158206.8, 25510.549, 0.0, 5.0258546, 4.9747586 
8.756476e+2, 1.8418361e+2, -1121202.9, -1209262.1, 14583.338, -0.0016601996, -0.0024457835, -1118850.6, 16148.205, 0.0, 5.0257893, 4.967937 
8.755833e+2, 1.8915127e+2, -1072387.1, -1160365.6, 14764.675, -0.002381584, -0.00078616693, -1069975.5, 16340.915, 0.0, 5.0257096, 4.9679213 
8.7551904e+2, 1.9411892e+2, -1023568.56, -1111468.4, 14945.703, -0.0030715612, 0.000851272, -1021096.8, 16537.326, 0.0, 5.025629, 4.9679055 
8.754548e+2, 1.990865e+2, -975886.9, -1065078.4, 14811.179, -0.0036883224, 0.00272634, -973491.6, 15460.73, 0.0, 5.025554, 4.9670353 
8.753893e+2, 2.0404956e+2, -936749.44, -1037130.56, 14084.539, -0.0032140082, 0.007274487, -934810.7, 5504.16, 0.0, 5.025454, 4.9598575 
8.753234e+2, 2.0900859e+2, -888100.25, -988230.44, 14007.865, -0.002008989, 0.0033347253, -886177.5, 5539.1943, 0.0, 5.0252814, 4.959854 
8.7525755e+2, 2.1396762e+2, -839446.75, -939327.9, 13931.285, -0.00083184, -0.0006117476, -837540.0, 5578.5244, 0.0, 5.0251083, 4.9598503 
8.751917e+2, 2.1892668e+2, -791522.25, -892056.3, 13684.107, 0.00022892989, -0.004220865, -789692.94, 4827.1606, 0.0, 5.024936, 4.9592867 
8.751237e+2, 2.2388239e+2, -752147.8, -863075.5, 11390.665, -0.00013512779, 0.0012711942, -750990.25, -5036.8154, 0.0, 5.024623, 4.952475 
8.75054e+2, 2.2883427e+2, -704267.8, -814473.56, 11331.814, -0.00037393844, -0.000681725, -703114.7, -5690.7847, 0.0, 5.0241466, 4.9524755 
8.7498444e+2, 2.3378617e+2, -656378.06, -765863.1, 11272.124, -0.0006280683, -0.0025712252, -655229.56, -6335.254, 0.0, 5.0236707, 4.952476 
8.7491477e+2, 2.3873807e+2, -609304.2, -719083.06, 11210.286, -0.0008602716, -0.004226706, -608171.1, -7806.2803, 0.0, 5.0231953, 4.9518366 
8.748432e+2, 2.4368654e+2, -570432.75, -690339.3, 8042.9883, -0.0001631017, 0.004162868, -569895.6, -18024.898, 0.0, 5.022632, 4.9449506 
8.747692e+2, 2.4863115e+2, -523090.78, -641616.9, 7667.5015, -0.00004682513, 0.002842677, -522596.84, -19181.672, 0.0, 5.021863, 4.945086 
8.7469524e+2, 2.5357577e+2, -475903.9, -593241.94, 7377.84, 0.000102605736, 0.0013757724, -475441.84, -20482.307, 0.0, 5.021092, 4.945096 
8.7462133e+2, 2.5852042e+2, -428846.7, -545189.0, 7120.7856, 0.00029927387, -0.00014095893, -428412.47, -21908.775, 0.0, 5.0203204, 4.9449897 
8.745456e+2, 2.634621e+2, -389733.5, -515012.75, 3969.4033, 0.00043561796, 0.0073136436, -389607.84, -31533.225, 0.0, 5.0194664, 4.938644 
8.7446725e+2, 2.6840094e+2, -342275.5, -464347.03, 3231.3984, 0.0018108264, 0.0025724238, -342190.03, -32517.307, 0.0, 5.018332, 4.939582 
8.743889e+2, 2.7333972e+2, -296009.78, -416338.7, 2885.0378, 0.0032403802, -0.0027338, -295940.66, -34669.613, 0.0, 5.017188, 4.9395866 
8.7431055e+2, 2.7827853e+2, -249898.58, -368750.4, 2667.0403, 0.0047001955, -0.008147608, -249838.77, -36969.273, 0.0, 5.016051, 4.9394326 
8.7423134e+2, 2.8321436e+2, -211283.63, -340645.03, 684.98737, 0.0044489, 0.0019805573, -211280.0, -46781.86, 0.0, 5.015296, 4.932205 
8.7415034e+2, 2.8814816e+2, -161832.31, -287887.94, -210.1643, 0.0043157223, 0.005338516, -161831.97, -45684.51, 0.0, 5.0146265, 4.9336452 
8.7406933e+2, 2.9308194e+2, -114158.43, -239170.0, -769.4702, 0.0042789243, 0.007840408, -114153.695, -46356.688, 0.0, 5.0139465, 4.9336567 
8.7398833e+2, 2.9801568e+2, -68232.984, -194482.02, -1288.0487, 0.0042576734, 0.010696612, -68219.84, -48773.113, 0.0, 5.0132504, 4.93223 
8.7390894e+2, 3.0295423e+2, -30966.836, -131312.0, 355.20718, -0.0015166636, 0.015946647, -30965.578, -30965.578, 0.0, 5.0114594, 4.946914 
8.738318e+2, 3.0789992e+2, -34921.855, -128571.086, -70.04561, -0.011924379, -0.016397731, -34921.805, -34921.805, 0.0, 5.009143, 4.9488916 
8.737547e+2, 3.1284565e+2, -41173.15, -131296.92, -750.68823, -0.022232875, -0.049404573, -41166.895, -41166.895, 0.0, 5.0068355, 4.9489 
8.7368155e+2, 3.177615e+2, 16073.676, 15956.227, -1697.1094, 0.0014978551, -0.3902203, 17713.076, 17713.076, 0.0, 5.0042057, 5.004036 
8.8149095e+2, 1.24481864e+2, -1672212.9, -1727096.8, 3076.403, -0.0019494736, -0.01410098, -1672040.9, 48030.65, 0.0, 5.0268946, 4.990774 
8.814173e+2, 1.2947214e+2, -1623933.4, -1678565.1, 3466.9675, -0.0014154627, -0.013374404, -1623714.3, 47453.285, 0.0, 5.026722, 4.990763 
8.813435e+2, 1.344624e+2, -1575862.3, -1630136.0, 3849.4553, -0.0010132727, -0.012489178, -1575590.6, 46672.94, 0.0, 5.0264764, 4.990752 
8.8126975e+2, 1.3945271e+2, -1529702.6, -1585227.4, 4977.775, -0.00044673588, -0.009908995, -1529260.0, 44099.273, 0.0, 5.0261483, 4.9895983 
8.8120013e+2, 1.4443955e+2, -1490232.6, -1554171.9, 9746.759, 0.001542688, 0.000985684, -1488779.9, 35708.99, 0.0, 5.0258937, 4.9836745 
8.8113254e+2, 1.4942288e+2, -1441607.1, -1505396.0, 10092.478, 0.000027567121, 0.0011873518, -1440048.4, 35604.113, 0.0, 5.025801, 4.983674 
8.8106495e+2, 1.5440623e+2, -1393007.8, -1456632.8, 10441.375, -0.0014609296, 0.0013961336, -1391338.1, 35478.094, 0.0, 5.0256987, 4.9836736 
8.8099736e+2, 1.5938953e+2, -1345826.9, -1410710.1, 11169.498, -0.002929501, 0.0019342613, -1343957.9, 34022.51, 0.0, 5.025578, 4.9827285 
8.809316e+2, 1.6436812e+2, -1306971.8, -1382164.4, 13456.877, -0.0034337547, 0.0030584512, -1304636.0, 24554.63, 0.0, 5.0255046, 4.975883 
8.8086694e+2, 1.6934307e+2, -1257961.6, -1333186.9, 13621.672, -0.003038356, -0.0019605441, -1255571.0, 24865.39, 0.0, 5.0255156, 4.9758754 
8.808023e+2, 1.7431799e+2, -1208974.1, -1284220.6, 13803.782, -0.0025967842, -0.007071212, -1206521.8, 25160.531, 0.0, 5.025518, 4.9758677 
8.8073754e+2, 1.7929298e+2, -1161205.5, -1237831.1, 13908.575, -0.0020794517, -0.010807111, -1158759.0, 24168.479, 0.0, 5.025514, 4.974999 
8.80673e+2, 1.8426454e+2, -1121720.1, -1209025.0, 14836.847, -0.001409235, -0.0024212054, -1119267.5, 14938.794, 0.0, 5.0255136, 4.968147 
8.806087e+2, 1.892324e+2, -1072713.9, -1160032.0, 14954.774, -0.0016328709, -0.00083891884, -1070223.6, 15297.837, 0.0, 5.0254984, 4.968133 
8.805444e+2, 1.9420025e+2, -1023730.7, -1111050.3, 15080.327, -0.0018608165, 0.00077321474, -1021199.6, 15637.075, 0.0, 5.025475, 4.968119 
8.804801e+2, 1.9916803e+2, -975999.2, -1064778.4, 14905.924, -0.0021018286, 0.002722918, -973563.3, 14589.215, 0.0, 5.025448, 4.9671865 
8.804145e+2, 2.0413114e+2, -937075.4, -1037471.3, 14109.481, -0.0019450667, 0.0075927563, -935130.1, 4384.8276, 0.0, 5.0253825, 4.959774 
8.803484e+2, 2.0909013e+2, -888365.6, -988546.25, 14054.837, -0.0013606764, 0.00408896, -886431.1, 4486.676, 0.0, 5.025231, 4.959769 
8.8028234e+2, 2.1404912e+2, -839676.25, -939629.7, 13998.217, -0.0007857603, 0.0005750918, -837752.8, 4567.8755, 0.0, 5.0250707, 4.959764 
8.8021624e+2, 2.1900812e+2, -791711.75, -892296.75, 13739.407, -0.00028872179, -0.0026071435, -789868.8, 3854.466, 0.0, 5.0249043, 4.9592185 
8.801478e+2, 2.239637e+2, -752252.1, -863321.4, 11202.719, -0.00047163916, 0.0023606257, -751133.5, -5975.9595, 0.0, 5.0246315, 4.952385 
8.800778e+2, 2.2891538e+2, -704216.3, -814648.4, 11071.64, -0.00042710386, -0.0008604327, -703117.25, -6487.759, 0.0, 5.02421, 4.9523854 
8.800077e+2, 2.3386705e+2, -656203.5, -765982.3, 10942.431, -0.00039941884, -0.0040342608, -655123.44, -7022.03, 0.0, 5.0237765, 4.952386 
8.799377e+2, 2.3881872e+2, -609152.0, -719421.5, 10788.184, -0.00036681982, -0.006837013, -608106.44, -8533.053, 0.0, 5.023333, 4.9516573 
8.7986535e+2, 2.4376702e+2, -570393.0, -691093.9, 7462.9224, -0.0000947457, 0.002661468, -569933.3, -18852.227, 0.0, 5.0227885, 4.9446235 
8.797906e+2, 2.4871148e+2, -523097.47, -642420.75, 7095.057, 0.000014291437, 0.0029825747, -522677.1, -20049.463, 0.0, 5.0220065, 4.944748 
8.7971586e+2, 2.5365594e+2, -475976.7, -594085.75, 6828.405, 0.00013458889, 0.003200008, -475583.22, -21409.078, 0.0, 5.021212, 4.944754 
8.796412e+2, 2.586004e+2, -429026.4, -546119.56, 6607.1143, 0.00027379204, 0.0033645236, -428654.78, -22934.307, 0.0, 5.0204096, 4.944631 
8.795645e+2, 2.6354164e+2, -389813.53, -515905.97, 3135.0847, 0.0006888174, 0.009553673, -389735.63, -32439.576, 0.0, 5.0195966, 4.9382796 
8.79485e+2, 2.6847982e+2, -342149.13, -465244.3, 2365.393, 0.0018738749, 0.002650444, -342103.7, -33203.63, 0.0, 5.0185537, 4.939176 
8.794055e+2, 2.73418e+2, -295702.3, -417153.9, 1993.4335, 0.0031392227, -0.0047216974, -295669.6, -35165.387, 0.0, 5.0174747, 4.939181 
8.7932605e+2, 2.783562e+2, -249569.42, -369705.22, 1817.3315, 0.004473228, -0.012142221, -249541.94, -37433.445, 0.0, 5.016374, 4.938962 
8.7924606e+2, 2.832916e+2, -211211.97, -342101.47, 228.05884, 0.0045275358, -0.00028413627, -211211.58, -47470.793, 0.0, 5.0155873, 4.931576 
8.791645e+2, 2.8822523e+2, -162001.63, -289411.63, -590.85754, 0.005659949, 0.007078652, -161998.88, -46607.418, 0.0, 5.0148206, 4.933033 
8.7908286e+2, 2.9315877e+2, -114647.87, -240841.22, -1041.6644, 0.006913044, 0.013503503, -114639.266, -47596.754, 0.0, 5.014024, 4.933041 
8.790013e+2, 2.980923e+2, -69571.11, -197419.19, -1627.4218, 0.008128089, 0.020477863, -69550.4, -50856.363, 0.0, 5.013188, 4.931221 
8.789198e+2, 3.0302924e+2, -32310.955, -134126.67, -909.5584, -0.0010931125, 0.019856071, -32302.83, -32302.83, 0.0, 5.0113816, 4.9459386 
8.7883955e+2, 3.0797255e+2, -35807.285, -131019.98, -1093.837, -0.019643564, -0.030475684, -35794.72, -35794.72, 0.0, 5.0092015, 4.94799 
8.787593e+2, 3.1291598e+2, -41955.055, -133723.06, -1612.8093, -0.038231887, -0.08066735, -41926.72, -41926.72, 0.0, 5.006936, 4.9479895 
8.7869316e+2, 3.1790614e+2, 23829.1, 33753.22, -3370.4626, 0.077542126, 0.32667038, 34789.664, 34789.664, 0.0, 5.0042553, 5.0106535 
8.865158e+2, 1.2455942e+2, -1679087.3, -1728858.0, 3958.3877, -0.002142573, -0.009802321, -1678774.4, 40539.26, 0.0, 5.024282, 4.991461 
8.86442e+2, 1.2955025e+2, -1630365.0, -1680116.0, 4383.3657, -0.0012501299, -0.009831106, -1629981.8, 40421.88, 0.0, 5.024257, 4.991444 
8.8636816e+2, 1.3454108e+2, -1581641.8, -1631374.9, 4802.941, -0.00058367354, -0.009562897, -1581182.1, 40311.47, 0.0, 5.02423, 4.991427 
8.8629425e+2, 1.3953194e+2, -1534609.5, -1586033.5, 6048.2344, 0.000051766932, -0.007565112, -1533907.8, 38675.62, 0.0, 5.0241885, 4.990274 
8.862247e+2, 1.4451917e+2, -1494413.9, -1555032.8, 10987.802, 0.0018271613, 0.0017117999, -1492483.6, 31224.984, 0.0, 5.0242457, 4.9841805 
8.861571e+2, 1.4950287e+2, -1444973.9, -1505844.0, 11382.426, 0.00032203266, 0.0006022383, -1442915.0, 31953.447, 0.0, 5.0244246, 4.984182 
8.8608956e+2, 1.5448655e+2, -1395536.6, -1456659.9, 11777.338, -0.0011382372, -0.00045727566, -1393345.8, 32682.482, 0.0, 5.024603, 4.9841833 
8.86022e+2, 1.5947023e+2, -1347532.3, -1410369.9, 12548.996, -0.0024940087, -0.00100119, -1345118.8, 32069.771, 0.0, 5.0247707, 4.9832196 
8.8595635e+2, 1.6444929e+2, -1308166.0, -1381955.9, 15046.686, -0.0027614154, 0.0012589608, -1305215.8, 23178.686, 0.0, 5.0249567, 4.976205 
8.8589185e+2, 1.6942471e+2, -1258449.3, -1332581.1, 15326.171, -0.0024973075, -0.0018476625, -1255405.8, 24230.414, 0.0, 5.025204, 4.976212 
8.8582724e+2, 1.7440012e+2, -1208736.3, -1283212.9, 15608.316, -0.0022733517, -0.005193032, -1205597.5, 25280.479, 0.0, 5.025451, 4.9762197 
8.8576263e+2, 1.7937557e+2, -1160154.5, -1236318.5, 15830.827, -0.0019994085, -0.0075947135, -1156995.0, 25124.06, 0.0, 5.025704, 4.975399 
8.856983e+2, 1.8434729e+2, -1120076.6, -1207624.3, 16878.332, -0.00088502193, -0.00063107687, -1116935.4, 16460.84, 0.0, 5.025968, 4.968399 
8.856342e+2, 1.8931523e+2, -1070471.0, -1158312.9, 17126.105, -0.00056494446, -0.00042808204, -1067250.1, 17459.904, 0.0, 5.026163, 4.9683948 
8.8557e+2, 1.9428314e+2, -1020868.56, -1109006.1, 17373.324, -0.0003514272, -0.00016359346, -1017567.6, 18456.389, 0.0, 5.026357, 4.9683905 
8.855058e+2, 1.9925104e+2, -972530.25, -1062468.8, 17314.28, -0.00031260907, 0.00061130885, -969312.2, 18026.217, 0.0, 5.026555, 4.967445 
8.854402e+2, 2.042143e+2, -933242.3, -1035392.06, 16572.037, -0.0007008982, 0.0059805405, -930621.06, 8078.252, 0.0, 5.0267057, 4.959853 
8.85374e+2, 2.0917341e+2, -883907.06, -986172.9, 16654.088, -0.000774957, 0.0034478062, -881263.3, 8837.961, 0.0, 5.026778, 4.9598503 
8.853078e+2, 2.1413253e+2, -834572.4, -936955.94, 16734.918, -0.00078822445, 0.0009608848, -831906.44, 9596.758, 0.0, 5.0268497, 4.959848 
8.852416e+2, 2.1909165e+2, -785961.0, -889337.2, 16584.875, -0.00077792, -0.0012144536, -783365.4, 9539.385, 0.0, 5.0269217, 4.9592967 
8.85173e+2, 2.2404715e+2, -746145.25, -860592.7, 13972.725, -0.00088801206, 0.0036779034, -744464.0, -123.907745, 0.0, 5.026868, 4.9522796 
8.851027e+2, 2.289986e+2, -697535.75, -811662.25, 13860.48, -0.00044393123, 0.0000031403736, -695876.56, -62.10202, 0.0, 5.0266557, 4.9522805 
8.8503236e+2, 2.3395005e+2, -648921.3, -762728.6, 13746.829, 0.0000059640265, -0.0036395674, -647284.4, 4.3052835, 0.0, 5.026443, 4.9522815 
8.84962e+2, 2.3890151e+2, -601229.44, -715876.06, 13601.246, 0.0004888201, -0.0068886983, -599637.94, -875.0134, 0.0, 5.026231, 4.9515586 
8.848893e+2, 2.4384962e+2, -562071.3, -687546.94, 10108.279, 0.00092925015, 0.00257441, -561262.2, -10990.007, 0.0, 5.025848, 4.944457 
8.848138e+2, 2.4879393e+2, -514654.06, -638903.7, 9778.187, 0.0011881846, 0.0040171305, -513889.25, -12069.564, 0.0, 5.0251317, 4.9445515 
8.8473827e+2, 2.5373822e+2, -467357.9, -590521.75, 9585.962, 0.0014862771, 0.0054328395, -466616.28, -13249.091, 0.0, 5.024411, 4.9445515 
8.8466287e+2, 2.5868252e+2, -420241.2, -542573.3, 9451.326, 0.0018205519, 0.006693641, -419515.28, -14600.498, 0.0, 5.023693, 4.944394 
8.8458526e+2, 2.6362306e+2, -381276.8, -512883.97, 5755.0796, 0.0018788528, 0.009934212, -381025.63, -24528.371, 0.0, 5.0228825, 4.9378543 
8.845046e+2, 2.685603e+2, -333809.03, -462380.38, 4870.9966, 0.0021616784, -0.0014179964, -333624.75, -25513.73, 0.0, 5.0217896, 4.9387283 
8.8442403e+2, 2.7349755e+2, -287450.7, -414338.25, 4393.547, 0.002722855, -0.013027263, -287298.75, -27574.04, 0.0, 5.0206857, 4.9387364 
8.843434e+2, 2.7843487e+2, -241310.05, -366831.56, 4202.2534, 0.0035911244, -0.02417388, -241169.52, -29831.621, 0.0, 5.0195804, 4.938549 
8.842625e+2, 2.8337076e+2, -203393.53, -338982.63, 2686.436, 0.0043196417, -0.0040578106, -203340.33, -40374.92, 0.0, 5.018536, 4.9313774 
8.8418e+2, 2.8830552e+2, -155556.36, -286916.7, 2096.4211, 0.006644565, 0.017774047, -155522.92, -40918.7, 0.0, 5.0172825, 4.9328322 
8.8409746e+2, 2.9324025e+2, -109516.5, -238938.16, 1899.7236, 0.009292255, 0.038650382, -109488.62, -43245.086, 0.0, 5.016015, 4.9328375 
8.8401496e+2, 2.981748e+2, -65830.86, -196351.39, 1440.4845, 0.012067001, 0.059355617, -65814.96, -47930.62, 0.0, 5.014717, 4.9309196 
8.839313e+2, 3.0310833e+2, -29731.766, -132585.48, 1762.3094, 0.0015250548, 0.026697291, -29701.58, -29701.58, 0.0, 5.01232, 4.9460535 
8.8384813e+2, 3.0804604e+2, -34792.918, -130094.66, 2338.5815, -0.019852547, -0.0802979, -34735.566, -34735.566, 0.0, 5.009551, 4.9481354 
8.837651e+2, 3.129841e+2, -42316.75, -133477.97, 2611.338, -0.040760778, -0.18478587, -42242.008, -42242.008, 0.0, 5.006788, 4.9481034 
8.836956e+2, 3.1799215e+2, 44341.305, 86903.88, 2704.1934, 0.06710009, 0.37781343, 87075.01, 87075.01, 0.0, 5.003327, 5.030983 
8.915394e+2, 1.2463753e+2, -1677980.4, -1726787.4, 3900.5745, -0.004452416, -0.0055003986, -1677670.6, 40879.71, 0.0, 5.0243087, 4.9921384 
8.9146566e+2, 1.2962894e+2, -1629254.5, -1678055.0, 4334.8477, -0.0024218697, -0.0064021167, -1628872.4, 40761.62, 0.0, 5.024287, 4.9921193 
8.913918e+2, 1.3462034e+2, -1580527.6, -1629323.6, 4763.7188, -0.00080893404, -0.007076306, -1580066.9, 40650.953, 0.0, 5.024264, 4.9921002 
8.913179e+2, 1.3961177e+2, -1533512.9, -1583994.3, 6099.3677, 0.00041841553, -0.006151924, -1532786.4, 39015.14, 0.0, 5.0242205, 4.990945 
8.9124846e+2, 1.4459941e+2, -1493624.6, -1553458.3, 11112.8, 0.0019633241, 0.0014956779, -1491627.4, 31294.934, 0.0, 5.024254, 4.984704 
8.911811e+2, 1.4958353e+2, -1444191.6, -1504276.5, 11510.979, 0.000458635, -0.0007674425, -1442061.9, 32015.875, 0.0, 5.0244327, 4.984705 
8.911137e+2, 1.5456763e+2, -1394761.4, -1455099.3, 11909.445, -0.0010329925, -0.0029879725, -1392495.9, 32737.477, 0.0, 5.0246105, 4.984706 
8.9104635e+2, 1.595517e+2, -1346812.1, -1408913.3, 12666.641, -0.0023632841, -0.004471347, -1344327.9, 32061.309, 0.0, 5.0247784, 4.983709 
8.9098096e+2, 1.6453129e+2, -1307641.8, -1380862.1, 15212.332, -0.0023837255, -0.00094726606, -1304607.0, 22983.227, 0.0, 5.024959, 4.9765725 
8.9091665e+2, 1.6950728e+2, -1257935.5, -1331489.8, 15496.541, -0.0022245022, -0.0021046603, -1254804.0, 24023.047, 0.0, 5.025204, 4.976581 
8.9085233e+2, 1.7448324e+2, -1208232.9, -1282123.8, 15783.411, -0.0021487665, -0.0034614676, -1205002.6, 25061.24, 0.0, 5.025449, 4.97659 
8.90788e+2, 1.7945924e+2, -1159598.4, -1235094.1, 16046.125, -0.0019913139, -0.0041611507, -1156329.4, 24970.926, 0.0, 5.0256987, 4.9758167 
8.9072394e+2, 1.844312e+2, -1119664.0, -1206682.9, 17021.877, -0.0004121907, 0.0013805408, -1116452.8, 16121.949, 0.0, 5.025962, 4.9687185 
8.9066005e+2, 1.8939927e+2, -1070061.4, -1157376.1, 17272.969, 0.0002782996, -0.0000013069453, -1066768.5, 17118.055, 0.0, 5.026157, 4.9687138 
8.9059615e+2, 1.9436735e+2, -1020461.8, -1108074.0, 17523.504, 0.0008152072, -0.0013088324, -1017086.94, 18111.592, 0.0, 5.026351, 4.9687095 
8.905321e+2, 1.9933544e+2, -972164.9, -1061622.8, 17458.238, 0.0010588997, -0.0018960395, -968878.5, 17632.283, 0.0, 5.026549, 4.9677353 
8.904666e+2, 2.0429893e+2, -933131.44, -1035080.4, 16626.682, 0.00023346917, 0.004075761, -930488.4, 7380.9746, 0.0, 5.0266967, 4.959962 
8.904004e+2, 2.0925827e+2, -883795.56, -985863.7, 16711.271, -0.00033641793, 0.0026122206, -881129.1, 8140.2344, 0.0, 5.026769, 4.9599586 
8.9033425e+2, 2.1421759e+2, -834460.25, -936649.25, 16794.645, -0.0008684927, 0.0012015108, -831770.8, 8898.583, 0.0, 5.0268416, 4.959955 
8.902681e+2, 2.1917692e+2, -785869.1, -889076.8, 16612.254, -0.0013647937, 0.00001969623, -783261.1, 8808.13, 0.0, 5.026914, 4.9593887 
8.9019936e+2, 2.2413239e+2, -746341.0, -860992.9, 13824.6, -0.0014638626, 0.0048730397, -744697.6, -1192.4677, 0.0, 5.026863, 4.952145 
8.9012885e+2, 2.2908364e+2, -697728.25, -812063.2, 13715.737, -0.0006237094, 0.00080205395, -696105.94, -1124.3853, 0.0, 5.026652, 4.9521456 
8.9005834e+2, 2.3403491e+2, -649110.56, -763130.4, 13605.471, 0.00018185067, -0.0032456056, -647509.56, -1051.682, 0.0, 5.02644, 4.9521456 
8.899878e+2, 2.389862e+2, -601409.0, -716267.3, 13458.504, 0.0009787743, -0.0068702963, -599853.06, -1918.9401, 0.0, 5.026229, 4.951425 
8.899147e+2, 2.4393414e+2, -562297.7, -688081.44, 9595.964, 0.0016782819, 0.002453629, -561569.9, -12125.286, 0.0, 5.025849, 4.944275 
8.8983846e+2, 2.4887834e+2, -514917.56, -639535.8, 9241.688, 0.002130704, 0.0050424663, -514235.9, -13243.429, 0.0, 5.0251336, 4.944335 
8.897623e+2, 2.5382254e+2, -467618.2, -591156.4, 9054.185, 0.0025571147, 0.007594845, -466958.13, -14417.642, 0.0, 5.0244145, 4.944333 
8.896861e+2, 2.5876665e+2, -420549.88, -543332.6, 8916.669, 0.0029265948, 0.009752845, -419905.72, -15816.833, 0.0, 5.023698, 4.9441314 
8.896076e+2, 2.6370648e+2, -381840.88, -514404.75, 4946.4683, 0.0025427118, 0.009872198, -381656.56, -25977.953, 0.0, 5.0229073, 4.937321 
8.895258e+2, 2.6864272e+2, -334371.25, -463932.34, 4040.2312, 0.0020410356, -0.0061798193, -334245.38, -26942.545, 0.0, 5.021818, 4.938182 
8.89444e+2, 2.7357894e+2, -288000.94, -415889.8, 3569.7405, 0.0016853773, -0.022523453, -287901.38, -28974.352, 0.0, 5.0207176, 4.938188 
8.8936216e+2, 2.7851528e+2, -241777.78, -368215.63, 3426.2822, 0.0015580333, -0.037957672, -241685.0, -31134.75, 0.0, 5.0196147, 4.938058 
8.8928026e+2, 2.8345194e+2, -203477.06, -339479.97, 1755.3315, 0.0031615891, -0.0073571317, -203454.4, -41284.05, 0.0, 5.018569, 4.931204 
8.8919663e+2, 2.8838822e+2, -155610.64, -287386.53, 1131.1871, 0.0069757854, 0.031690396, -155600.94, -41807.37, 0.0, 5.017322, 4.932666 
8.8911295e+2, 2.9332447e+2, -109551.24, -239392.95, 951.04156, 0.010898843, 0.06963942, -109544.27, -44126.906, 0.0, 5.0160604, 4.9326725 
8.890293e+2, 2.9826042e+2, -66042.734, -197181.03, 276.1001, 0.014677269, 0.106271066, -66042.16, -48998.055, 0.0, 5.014755, 4.930624 
8.889432e+2, 3.0319002e+2, -29039.361, -131350.45, -524.7247, 0.0037483228, 0.03339969, -29036.67, -29036.67, 0.0, 5.0123515, 4.9465117 
8.888571e+2, 3.0812132e+2, -33869.664, -128577.766, 225.18001, -0.01792728, -0.14469832, -33869.13, -33869.13, 0.0, 5.0096307, 4.948676 
8.887712e+2, 3.1305286e+2, -41269.957, -131895.89, 643.25464, -0.039697938, -0.32098168, -41265.39, -41265.39, 0.0, 5.006911, 4.948648 
8.886933e+2, 3.1807175e+2, 31602.184, 57007.684, 2195.3818, 0.0153603675, 0.34538996, 57196.0, 57196.0, 0.0, 5.0033236, 5.0197086 
8.96563e+2, 1.2471566e+2, -1676877.6, -1724713.9, 3847.0564, -0.006649652, -0.0011015557, -1676570.3, 41216.52, 0.0, 5.0243354, 4.9928155 
8.964893e+2, 1.2970766e+2, -1628148.1, -1675991.1, 4290.628, -0.0034593362, -0.0029387597, -1627766.4, 41097.867, 0.0, 5.0243177, 4.9927945 
8.9641553e+2, 1.3469963e+2, -1579417.8, -1627269.4, 4728.7983, -0.00087832974, -0.004617926, -1578954.9, 40987.105, 0.0, 5.024297, 4.992773 
8.963417e+2, 1.396916e+2, -1532446.6, -1582008.9, 6133.107, 0.0009120398, -0.004777354, -1531699.0, 39320.723, 0.0, 5.024252, 4.991597 
8.962723e+2, 1.4467968e+2, -1492836.8, -1551883.4, 11237.8, 0.0020441406, 0.0013497969, -1490770.3, 31365.46, 0.0, 5.0242624, 4.985227 
8.9620507e+2, 1.4966418e+2, -1443410.9, -1502708.5, 11639.532, 0.0005697444, -0.0021405728, -1441208.0, 32079.008, 0.0, 5.0244403, 4.9852276 
8.961379e+2, 1.5464868e+2, -1393987.6, -1453538.3, 12041.555, -0.0009233909, -0.0055958265, -1391644.9, 32793.3, 0.0, 5.024618, 4.985228 
8.960707e+2, 1.5963317e+2, -1346133.4, -1407541.5, 12782.238, -0.0021948677, -0.007971013, -1343579.0, 32010.775, 0.0, 5.024786, 4.984169 
8.960056e+2, 1.646133e+2, -1307118.6, -1379768.1, 15375.894, -0.0019606173, -0.0029995476, -1303998.4, 22787.572, 0.0, 5.0249615, 4.976939 
8.9594156e+2, 1.6958985e+2, -1257422.8, -1330398.1, 15664.826, -0.0019138668, -0.002298705, -1254202.3, 23815.594, 0.0, 5.025204, 4.976949 
8.958774e+2, 1.7456637e+2, -1207730.6, -1281034.4, 15956.421, -0.0019939523, -0.0017579553, -1204407.9, 24842.02, 0.0, 5.0254464, 4.976959 
8.9581335e+2, 1.7954291e+2, -1159060.0, -1233906.1, 16261.2, -0.001967129, -0.00081224076, -1155679.6, 24801.799, 0.0, 5.0256934, 4.9762216 
8.9574957e+2, 1.845151e+2, -1119252.3, -1205741.1, 17166.139, 0.00006269341, 0.0035046805, -1115969.8, 15783.364, 0.0, 5.025955, 4.969038 
8.956859e+2, 1.8948336e+2, -1069652.6, -1156438.9, 17420.547, 0.001113098, 0.0004909323, -1066286.4, 16776.564, 0.0, 5.0261507, 4.969033 
8.956222e+2, 1.9445159e+2, -1020056.1, -1107141.3, 17674.4, 0.0019628848, -0.0024356784, -1016605.7, 17767.207, 0.0, 5.0263453, 4.9690275 
8.955584e+2, 1.9941981e+2, -971817.2, -1060813.1, 17597.969, 0.0023874901, -0.0043814788, -968463.75, 17219.324, 0.0, 5.0265427, 4.968013 
8.95493e+2, 2.0438358e+2, -933021.25, -1034768.25, 16682.43, 0.001159154, 0.0022300135, -930355.8, 6683.4976, 0.0, 5.026687, 4.9600706 
8.954268e+2, 2.0934312e+2, -883684.7, -985554.06, 16769.563, 0.00008551891, 0.0017911533, -880995.1, 7442.3335, 0.0, 5.0267606, 4.9600663 
8.9536065e+2, 2.1430266e+2, -834348.75, -936342.1, 16855.477, -0.0009732848, 0.0014121368, -831635.4, 8200.261, 0.0, 5.026834, 4.960062 
8.952945e+2, 2.1926221e+2, -785787.9, -888838.4, 16636.986, -0.0019737836, 0.0011922462, -783168.5, 8065.187, 0.0, 5.0269065, 4.9594727 
8.9522564e+2, 2.2421762e+2, -746537.56, -861392.56, 13677.947, -0.0019901043, 0.00609524, -744931.1, -2260.994, 0.0, 5.0268583, 4.95201 
8.9515495e+2, 2.2916868e+2, -697921.5, -812463.7, 13572.47, -0.00074377004, 0.0015780698, -696335.25, -2186.6328, 0.0, 5.0266476, 4.9520097 
8.950843e+2, 2.3411977e+2, -649300.56, -763531.6, 13465.587, 0.00042756178, -0.002924501, -647734.7, -2107.6318, 0.0, 5.026437, 4.9520087 
8.950137e+2, 2.3907088e+2, -601614.5, -716714.2, 13319.892, 0.0015298852, -0.0069331303, -600093.1, -2987.8564, 0.0, 5.0262265, 4.951272 
8.9494e+2, 2.4401867e+2, -562525.8, -688618.1, 9080.31, 0.0023583036, 0.0025408498, -561875.3, -13258.517, 0.0, 5.02585, 4.9440913 
8.948632e+2, 2.4896277e+2, -515181.9, -640167.4, 8707.383, 0.0030392935, 0.006201158, -514578.22, -14413.038, 0.0, 5.025136, 4.9441175 
8.9478624e+2, 2.5390682e+2, -467879.3, -591790.44, 8524.601, 0.0036294789, 0.009813427, -467295.63, -15581.943, 0.0, 5.024418, 4.944114 
8.947094e+2, 2.5885084e+2, -420896.4, -544176.94, 8389.076, 0.004051122, 0.012776276, -420328.16, -17065.182, 0.0, 5.0237026, 4.9438376 
8.9462996e+2, 2.637899e+2, -382397.38, -515903.1, 4144.8125, 0.0031262112, 0.009691958, -382268.8, -27408.6, 0.0, 5.0229325, 4.936795 
8.945469e+2, 2.687251e+2, -334935.13, -465483.2, 3213.1194, 0.0018706578, -0.01113416, -334856.06, -28361.17, 0.0, 5.0218472, 4.937635 
8.9446396e+2, 2.7366033e+2, -288552.84, -417440.22, 2749.5889, 0.0006278845, -0.032286275, -288494.2, -30364.57, 0.0, 5.0207496, 4.9376388 
8.94381e+2, 2.7859572e+2, -242270.64, -369649.9, 2666.7593, -0.00044646254, -0.051945087, -242214.83, -32452.035, 0.0, 5.0196486, 4.937548 
8.94298e+2, 2.8353316e+2, -203568.67, -339989.2, 800.51685, 0.0020457592, -0.010126099, -203563.98, -42189.113, 0.0, 5.018603, 4.931024 
8.942133e+2, 2.8847098e+2, -155666.89, -287853.6, 165.04993, 0.0073034437, 0.0459033, -155666.69, -42684.176, 0.0, 5.017362, 4.932498 
8.9412856e+2, 2.9340875e+2, -109587.93, -239844.97, 1.4624671, 0.012461024, 0.100668795, -109587.93, -44997.086, 0.0, 5.016106, 4.932507 
8.940436e+2, 2.9834604e+2, -66561.35, -198709.86, -1018.73596, 0.0171739, 0.15311444, -66553.5, -50349.684, 0.0, 5.0147905, 4.9300776 
8.9395505e+2, 3.032716e+2, -28346.23, -130110.1, -2774.0042, 0.006177208, 0.038848195, -28270.67, -28270.67, 0.0, 5.012386, 4.946967 
8.938662e+2, 3.0819646e+2, -32947.28, -127054.46, -1886.3749, -0.015614461, -0.21364076, -32909.484, -32909.484, 0.0, 5.009713, 4.9492135 
8.937775e+2, 3.1312144e+2, -40224.082, -130307.42, -1323.0563, -0.038109258, -0.4650541, -40204.656, -40204.656, 0.0, 5.0070367, 4.949189 
8.936938e+2, 3.1817618e+2, 4608.3774, -6662.875, 2996.5396, -0.008625993, 0.5790573, 5355.504, 5355.504, 0.0, 5.003421, 4.995873 
9.015868e+2, 1.2479402e+2, -1676959.8, -1723296.1, 4483.6704, -0.006646931, 0.0025212832, -1676529.9, 40489.965, 0.0, 5.023995, 4.9934473 
9.0151304e+2, 1.2978658e+2, -1628197.6, -1674553.3, 4893.323, -0.0033833983, -0.00016705296, -1627686.8, 40404.98, 0.0, 5.023987, 4.993428 
9.014392e+2, 1.347791e+2, -1579492.5, -1625839.8, 5300.944, -0.0005793483, -0.0027473196, -1578894.0, 40269.816, 0.0, 5.023958, 4.9934087 
9.0136534e+2, 1.3977161e+2, -1532654.5, -1580709.4, 6719.73, 0.0013983697, -0.0038265018, -1531732.6, 38503.37, 0.0, 5.0238853, 4.9922037 
9.012961e+2, 1.4476012e+2, -1493328.0, -1550991.8, 11854.589, 0.0021133276, 0.0012925842, -1490986.0, 30361.668, 0.0, 5.023864, 4.9857144 
9.012291e+2, 1.4974503e+2, -1443932.3, -1501827.1, 12155.315, 0.00081479334, -0.0029803552, -1441483.8, 31011.033, 0.0, 5.0240307, 4.9857173 
9.01162e+2, 1.5472992e+2, -1394539.1, -1452665.8, 12467.346, -0.00050674775, -0.0072753103, -1391977.9, 31663.957, 0.0, 5.0241976, 4.98572 
9.010951e+2, 1.5971483e+2, -1346771.5, -1406829.4, 13133.633, -0.0015495408, -0.010209329, -1344025.0, 30764.229, 0.0, 5.0243597, 4.984611 
9.010301e+2, 1.6469549e+2, -1307773.4, -1379185.8, 15826.891, -0.0011371581, -0.0041949353, -1304422.9, 21557.709, 0.0, 5.024548, 4.9773316 
9.009663e+2, 1.6967253e+2, -1258023.1, -1329806.3, 16153.099, -0.0012280818, -0.0022909038, -1254555.8, 22651.95, 0.0, 5.024811, 4.977337 
9.009025e+2, 1.7464958e+2, -1208273.9, -1280431.5, 16463.457, -0.0013711731, -0.0003895051, -1204695.0, 23739.865, 0.0, 5.025075, 4.977342 
9.008387e+2, 1.7962661e+2, -1159547.0, -1233272.5, 16796.17, -0.001307541, 0.0018649916, -1155900.9, 23760.906, 0.0, 5.0253425, 4.976606 
9.007752e+2, 1.8459907e+2, -1119815.3, -1205309.0, 17542.19, 0.0008616475, 0.0053741764, -1116355.8, 14574.895, 0.0, 5.025629, 4.969332 
9.007117e+2, 1.8956748e+2, -1070076.9, -1155936.8, 17718.168, 0.0018867092, 0.0010080631, -1066564.3, 15674.559, 0.0, 5.025871, 4.969329 
9.0064824e+2, 1.9453587e+2, -1020368.56, -1106581.9, 17899.984, 0.002823096, -0.0032629557, -1016799.8, 16747.107, 0.0, 5.0261035, 4.969326 
9.0058464e+2, 1.9950427e+2, -972084.6, -1060307.5, 17750.787, 0.003371711, -0.0063160295, -968647.06, 16208.063, 0.0, 5.026332, 4.968279 
9.005194e+2, 2.0446828e+2, -933353.44, -1034595.75, 16795.902, 0.001964224, 0.0007902693, -930639.75, 5569.274, 0.0, 5.026517, 4.960202 
9.0045327e+2, 2.0942803e+2, -883921.3, -985334.7, 16942.771, 0.00058468746, 0.0011378557, -881165.6, 6439.53, 0.0, 5.026624, 4.9601984 
9.0038717e+2, 2.1438779e+2, -834535.44, -936097.4, 17088.313, -0.0007791582, 0.0015599546, -831737.3, 7264.003, 0.0, 5.0267153, 4.960194 
9.00321e+2, 2.1934752e+2, -786003.25, -888691.6, 16890.113, -0.0020522412, 0.0021093304, -783296.5, 7100.9805, 0.0, 5.026794, 4.9595695 
9.002521e+2, 2.2430292e+2, -746907.6, -861884.9, 13783.08, -0.0020341105, 0.00719771, -745278.44, -3444.1125, 0.0, 5.026792, 4.951872 
9.0018123e+2, 2.2925381e+2, -698160.8, -812895.25, 13680.531, -0.00054780283, 0.002285213, -696552.2, -3237.3013, 0.0, 5.026627, 4.951871 
9.0011036e+2, 2.3420471e+2, -649456.4, -763924.25, 13580.027, 0.0009193177, -0.0026601816, -647867.3, -3071.9172, 0.0, 5.0264454, 4.9518695 
9.0003955e+2, 2.3915564e+2, -601751.56, -717113.2, 13449.692, 0.0023205024, -0.007060027, -600204.25, -3928.6375, 0.0, 5.0262465, 4.951124 
8.9996547e+2, 2.4410327e+2, -562646.06, -689155.7, 8811.727, 0.003045272, 0.0025582584, -562035.25, -14246.856, 0.0, 5.0259056, 4.943882 
8.998878e+2, 2.4904719e+2, -515167.84, -640669.8, 8377.916, 0.0038575465, 0.0069548683, -514611.06, -15273.332, 0.0, 5.0252423, 4.9438987 
8.9981025e+2, 2.539911e+2, -467773.7, -592255.3, 8158.1587, 0.0046236124, 0.011296688, -467241.3, -16354.169, 0.0, 5.0245557, 4.9438944 
8.9973265e+2, 2.5893492e+2, -420829.1, -544815.7, 8002.6514, 0.0051882956, 0.014790132, -420314.72, -17877.03, 0.0, 5.023855, 4.943551 
8.9965236e+2, 2.6387328e+2, -382579.28, -517265.1, 3503.927, 0.0036870257, 0.009300966, -382488.2, -28446.428, 0.0, 5.023097, 4.9362564 
8.9956814e+2, 2.6880762e+2, -335181.16, -466877.94, 2569.951, 0.0017524016, -0.015181662, -335131.03, -29445.33, 0.0, 5.021986, 4.9370956 
8.994839e+2, 2.7374193e+2, -288929.8, -418902.75, 2136.1648, -0.00021012481, -0.040191047, -288894.72, -31564.818, 0.0, 5.02084, 4.937096 
8.993998e+2, 2.7867645e+2, -242765.78, -371029.56, 2068.4387, -0.0019697314, -0.06324771, -242732.44, -33760.35, 0.0, 5.019668, 4.9370656 
8.9931583e+2, 2.8361452e+2, -204076.72, -340763.2, 122.85943, 0.0012614657, -0.011756757, -204076.61, -43498.87, 0.0, 5.018503, 4.930808 
8.9922994e+2, 2.885536e+2, -156441.52, -288642.1, -606.75104, 0.0077042733, 0.058177635, -156438.73, -44265.977, 0.0, 5.0171413, 4.9323287 
8.9914405e+2, 2.9349265e+2, -110786.94, -240823.66, -794.56335, 0.014074234, 0.12744445, -110782.08, -47014.24, 0.0, 5.015729, 4.9323373 
8.9905787e+2, 2.9843113e+2, -68861.94, -201331.17, -2301.319, 0.019860707, 0.19432233, -68821.97, -53453.223, 0.0, 5.0142317, 4.929399 
8.9896697e+2, 3.03353e+2, -28238.676, -129221.93, -4725.3945, 0.009135461, 0.042058475, -28018.037, -28018.037, 0.0, 5.0122304, 4.9473734 
8.988755e+2, 3.0827206e+2, -31127.965, -125143.516, -4030.9543, -0.012772182, -0.2796614, -30955.453, -30955.453, 0.0, 5.0101337, 4.949742 
8.9878404e+2, 3.1319126e+2, -37318.227, -127915.49, -3590.2063, -0.035709932, -0.6016376, -37176.176, -37176.176, 0.0, 5.007858, 4.949718 
8.987042e+2, 3.182607e+2, 23472.36, 30940.867, 6395.186, 0.059620835, 0.57540023, 34612.223, 34612.223, 0.0, 5.0046697, 5.009305 
9.066088e+2, 1.2487286e+2, -1686180.4, -1726473.3, 4363.0117, -0.003462652, 0.0041001984, -1685713.4, 30532.775, 0.0, 5.020638, 4.9940333 
9.065351e+2, 1.2986602e+2, -1636453.6, -1677226.8, 4761.5605, -0.0014452012, 0.0012521966, -1635904.9, 31407.523, 0.0, 5.020944, 4.994017 
9.0646124e+2, 1.3485913e+2, -1586732.1, -1627987.8, 5157.132, 0.00029300907, -0.0015222146, -1586097.3, 32281.793, 0.0, 5.0212483, 4.9940014 
9.063874e+2, 1.3985224e+2, -1538861.9, -1582415.9, 6586.5947, 0.0015116151, -0.002866772, -1537887.6, 31558.219, 0.0, 5.0215297, 4.992767 
9.0631837e+2, 1.4484121e+2, -1498704.0, -1552675.8, 11888.983, 0.0020368795, 0.002027074, -1496201.1, 24352.229, 0.0, 5.0218363, 4.9861445 
9.062517e+2, 1.4982656e+2, -1448477.6, -1503068.0, 12276.669, 0.0012765449, -0.0020888257, -1445843.9, 25852.498, 0.0, 5.0222774, 4.9861555 
9.0618503e+2, 1.548119e+2, -1398259.3, -1453470.6, 12664.9795, 0.00056727347, -0.0062497384, -1395492.6, 27346.809, 0.0, 5.0227184, 4.9861665 
9.0611845e+2, 1.5979727e+2, -1349517.1, -1406918.4, 13443.758, 0.00016265176, -0.009135943, -1346524.5, 27457.906, 0.0, 5.0231566, 4.985161 
9.060539e+2, 1.6477846e+2, -1309663.1, -1378897.0, 16378.5625, 0.00053496676, -0.0036462566, -1305984.0, 19184.184, 0.0, 5.0236197, 4.977882 
9.059905e+2, 1.6975604e+2, -1259207.1, -1329194.4, 16938.428, 0.00034337706, -0.0017364442, -1255323.3, 21066.268, 0.0, 5.0241275, 4.9778805 
9.05927e+2, 1.7473364e+2, -1208760.5, -1279502.9, 17499.057, 0.00031536713, 0.0003968517, -1204668.5, 22942.14, 0.0, 5.024635, 4.9778795 
9.0586364e+2, 1.7971122e+2, -1159468.4, -1232213.1, 18096.428, 0.0006581861, 0.003035639, -1155215.3, 23616.422, 0.0, 5.025134, 4.977077 
9.0580046e+2, 1.8468401e+2, -1119464.0, -1204360.9, 19002.639, 0.0021303515, 0.006285731, -1115404.6, 14693.183, 0.0, 5.0256042, 4.969659 
9.057373e+2, 1.8965267e+2, -1068990.5, -1154601.1, 19356.143, 0.0022510265, 0.0015614153, -1064817.5, 16586.436, 0.0, 5.026101, 4.9696665 
9.056741e+2, 1.9462134e+2, -1018525.94, -1104852.8, 19708.275, 0.002554446, -0.0029647434, -1014239.44, 18470.55, 0.0, 5.026597, 4.969674 
9.056109e+2, 1.9959004e+2, -969365.06, -1057961.0, 19719.38, 0.0028230727, -0.006210565, -965174.2, 18841.518, 0.0, 5.0270977, 4.968712 
9.0554583e+2, 2.0455441e+2, -929930.8, -1031962.44, 18945.502, 0.0017807703, 0.0005470342, -926526.56, 8839.236, 0.0, 5.0275507, 4.9606023 
9.0548e+2, 2.0951451e+2, -879747.7, -982327.1, 19325.236, 0.0010689041, 0.0009213824, -876227.75, 10530.123, 0.0, 5.0279264, 4.960604 
9.054142e+2, 2.1447462e+2, -829571.2, -932700.4, 19704.916, 0.00039608608, 0.0012911722, -825934.4, 12215.676, 0.0, 5.028302, 4.960606 
9.053484e+2, 2.194347e+2, -780296.2, -885120.44, 19721.256, -0.00019677919, 0.0017606528, -776708.7, 12833.765, 0.0, 5.028683, 4.9599085 
9.052796e+2, 2.2439027e+2, -740723.06, -858780.56, 16677.514, -0.00015111984, 0.007479811, -738412.3, 2565.4854, 0.0, 5.0289717, 4.9519253 
9.052087e+2, 2.2934122e+2, -691201.1, -809421.1, 16781.605, 0.0008143953, 0.0030150877, -688865.1, 3593.1877, 0.0, 5.0290885, 4.951929 
9.051378e+2, 2.3429215e+2, -641680.56, -760065.1, 16884.28, 0.0018900615, -0.0015553943, -639319.56, 4619.281, 0.0, 5.029205, 4.9519334 
9.050669e+2, 2.392431e+2, -593057.5, -712667.6, 16922.936, 0.0030259206, -0.005802913, -590709.25, 4709.904, 0.0, 5.0293145, 4.951259 
9.0499246e+2, 2.4419045e+2, -553622.75, -685055.94, 12196.036, 0.0033415412, 0.0013924488, -552500.6, -5566.2686, 0.0, 5.0291944, 4.9438076 
9.0491426e+2, 2.4913403e+2, -505735.94, -636360.4, 11965.84, 0.003878234, 0.0041640433, -504648.84, -6162.2017, 0.0, 5.0286856, 4.943835 
9.0483606e+2, 2.540776e+2, -457884.44, -587721.3, 11941.595, 0.0045555066, 0.006829206, -456795.28, -6756.3276, 0.0, 5.028171, 4.94384 
9.047579e+2, 2.5902107e+2, -410465.72, -540120.94, 11977.424, 0.0052228104, 0.008868514, -409368.53, -7776.402, 0.0, 5.0276604, 4.9434786 
9.046767e+2, 2.6395962e+2, -372418.66, -513153.66, 7263.583, 0.0038202521, 0.007623078, -372044.78, -18849.904, 0.0, 5.0269146, 4.935978 
9.045913e+2, 2.6889426e+2, -325562.53, -463039.06, 6461.809, 0.0020578995, -0.010286373, -325259.47, -20423.197, 0.0, 5.025619, 4.936814 
9.045059e+2, 2.738288e+2, -279792.34, -415301.34, 6210.6704, 0.00047971745, -0.028944487, -279508.28, -23030.06, 0.0, 5.024309, 4.9368124 
9.044206e+2, 2.7876353e+2, -233949.38, -367365.2, 6288.489, -0.0006672628, -0.046407156, -233653.64, -25534.852, 0.0, 5.0229855, 4.9368796 
9.04335e+2, 2.837001e+2, -196647.48, -337339.97, 4121.6406, 0.002165602, -0.007477075, -196526.84, -36788.094, 0.0, 5.021252, 4.9307895 
9.0424716e+2, 2.8863698e+2, -151339.94, -286225.88, 3397.5127, 0.0080182785, 0.042006362, -151254.42, -39899.336, 0.0, 5.0190334, 4.9323378 
9.0415937e+2, 2.93574e+2, -107950.02, -239462.31, 3277.357, 0.01454336, 0.092373304, -107868.4, -44898.37, 0.0, 5.0167985, 4.932335 
9.040714e+2, 2.9851067e+2, -67371.25, -199354.33, 1911.9789, 0.021220902, 0.14201349, -67343.56, -52755.05, 0.0, 5.0145693, 4.929937 
9.0397894e+2, 3.034368e+2, -25680.506, -126151.75, -141.3547, 0.012304923, 0.029179685, -25680.307, -25680.307, 0.0, 5.012881, 4.9481564 
9.038858e+2, 3.083638e+2, -26915.367, -121422.11, 54.14561, -0.008682807, -0.21285358, -26915.336, -26915.336, 0.0, 5.0114107, 4.9504933 
9.0379274e+2, 3.1329075e+2, -30937.467, -123302.65, 59.226036, -0.029775377, -0.4565674, -30937.428, -30937.428, 0.0, 5.0099363, 4.9504523 
9.037103e+2, 3.18305e+2, 41821.508, 61521.84, 6035.786, 0.06361126, 0.13248408, 63224.01, 63224.01, 0.0, 5.007142, 5.0197206 
9.116292e+2, 1.24951296e+2, -1685149.6, -1724597.1, 4561.5015, -0.0016874992, 0.0038927516, -1684629.0, 30847.473, 0.0, 5.0206738, 4.9946423 
9.1155565e+2, 1.2994504e+2, -1635424.5, -1675361.0, 4968.1304, -0.00047383056, 0.00108856, -1634815.6, 31721.531, 0.0, 5.0209823, 4.994624 
9.11482e+2, 1.3493876e+2, -1585704.5, -1626132.4, 5371.782, 0.00031089084, -0.0016766454, -1585003.0, 32595.287, 0.0, 5.0212884, 4.994606 
9.114083e+2, 1.3993245e+2, -1537904.6, -1580685.4, 6815.9644, 0.0005334286, -0.0030273828, -1536844.9, 31814.645, 0.0, 5.021568, 4.9933324 
9.1133964e+2, 1.4492196e+2, -1497914.3, -1551134.6, 12202.89, 0.0007907953, 0.0018534756, -1495249.6, 24512.738, 0.0, 5.021851, 4.9866548 
9.1127354e+2, 1.4990781e+2, -1447697.9, -1501534.6, 12594.577, 0.00087229244, -0.002112466, -1444897.3, 26003.488, 0.0, 5.022291, 4.9866657 
9.112074e+2, 1.5489368e+2, -1397489.4, -1451945.0, 12986.892, 0.000981005, -0.0061051548, -1394550.8, 27488.273, 0.0, 5.022731, 4.9866767 
9.111413e+2, 1.598796e+2, -1348593.1, -1405037.0, 13810.854, 0.0012972265, -0.0088688405, -1345395.1, 27781.89, 0.0, 5.023165, 4.985793 
9.1107726e+2, 1.6486144e+2, -1308698.6, -1376829.0, 16751.951, 0.0016627782, -0.0037855103, -1304802.5, 19553.338, 0.0, 5.0236154, 4.9785795 
9.110143e+2, 1.6983971e+2, -1258250.5, -1327132.6, 17314.955, 0.0013539873, -0.0017518962, -1254143.0, 21426.658, 0.0, 5.0241227, 4.9785786 
9.109514e+2, 1.7481801e+2, -1207811.6, -1277447.3, 17878.727, 0.0011768873, 0.0005140714, -1203489.6, 23293.691, 0.0, 5.0246296, 4.9785776 
9.1088843e+2, 1.7979626e+2, -1158658.1, -1230434.0, 18468.658, 0.0012806791, 0.003271693, -1154184.8, 23812.533, 0.0, 5.0251284, 4.977683 
9.108257e+2, 1.8476953e+2, -1118905.0, -1203083.5, 19359.682, 0.002241069, 0.0064398902, -1114666.1, 14592.962, 0.0, 5.0255947, 4.970093 
9.10763e+2, 1.8973863e+2, -1068432.8, -1153328.0, 19717.549, 0.0020136482, 0.0017402399, -1064076.8, 16484.834, 0.0, 5.0260925, 4.9701004 
9.1070026e+2, 1.9470774e+2, -1017969.44, -1103584.0, 20074.047, 0.0019238354, -0.002760978, -1013496.4, 18367.53, 0.0, 5.02659, 4.9701076 
9.106375e+2, 1.996769e+2, -968688.56, -1056428.6, 20072.922, 0.0018623194, -0.0059967563, -964314.4, 18851.453, 0.0, 5.0270905, 4.969237 
9.1057295e+2, 2.0464176e+2, -929298.56, -1030518.75, 19224.244, 0.0012188718, 0.0003342743, -925770.4, 8740.245, 0.0, 5.0275426, 4.9610987 
9.105076e+2, 2.0960234e+2, -879117.94, -980885.44, 19608.328, 0.0012967419, 0.0005153254, -875470.56, 10426.979, 0.0, 5.0279193, 4.961101 
9.1044223e+2, 2.1456291e+2, -828943.9, -931260.8, 19992.357, 0.0013600364, 0.0006760639, -825176.2, 12108.372, 0.0, 5.028295, 4.9611034 
9.103769e+2, 2.1952346e+2, -779815.75, -884000.9, 19986.367, 0.001397086, 0.0010373066, -776113.25, 12558.603, 0.0, 5.0286765, 4.9602966 
9.103083e+2, 2.2447933e+2, -740587.7, -858412.6, 16766.7, 0.0016315894, 0.007710785, -738248.2, 1856.1508, 0.0, 5.0289626, 4.9520545 
9.1023743e+2, 2.2943048e+2, -691065.4, -809056.94, 16874.566, 0.002061723, 0.004046996, -688699.5, 2883.745, 0.0, 5.0290804, 4.952058 
9.1016656e+2, 2.3438162e+2, -641544.4, -759704.75, 16981.016, 0.002559893, 0.00026657397, -639152.44, 3909.761, 0.0, 5.0291977, 4.9520607 
9.1009575e+2, 2.3933277e+2, -592817.44, -712074.44, 16974.572, 0.0030790446, -0.0034201103, -590448.4, 4092.662, 0.0, 5.0293074, 4.9514675 
9.10021e+2, 2.4427994e+2, -553625.6, -685102.3, 11816.112, 0.0030021905, 0.00059623027, -552572.1, -6514.206, 0.0, 5.0291977, 4.9437943 
9.0994227e+2, 2.4922323e+2, -505739.44, -636418.25, 11592.661, 0.003354021, 0.00092102867, -504719.0, -7106.529, 0.0, 5.0286894, 4.9438176 
9.098636e+2, 2.5416654e+2, -457885.7, -587784.06, 11575.461, 0.0037782234, 0.0011293915, -456862.22, -7695.1187, 0.0, 5.028177, 4.943821 
9.097849e+2, 2.5910977e+2, -410499.56, -540266.94, 11608.339, 0.004173532, 0.0012102535, -409469.3, -8747.075, 0.0, 5.0276666, 4.9434304 
9.097029e+2, 2.6404876e+2, -372699.6, -513955.34, 6334.145, 0.0029492488, 0.0061982847, -372416.13, -20095.414, 0.0, 5.0269294, 4.9357 
9.0961623e+2, 2.6898402e+2, -325825.0, -463821.1, 5483.0884, 0.0017742157, -0.0026970105, -325607.47, -21651.348, 0.0, 5.0256367, 4.936542 
9.0952957e+2, 2.739192e+2, -280050.06, -416082.63, 5236.424, 0.0006989998, -0.012352712, -279848.78, -24256.707, 0.0, 5.0243278, 4.9365396 
9.09443e+2, 2.788544e+2, -234089.2, -367872.6, 5307.7983, -0.000073204596, -0.022033216, -233878.95, -26651.258, 0.0, 5.0230026, 4.9367037 
9.093555e+2, 2.8378892e+2, -196545.38, -337527.16, 2430.808, 0.0020664886, -0.00298808, -196503.47, -37635.348, 0.0, 5.021295, 4.9307275 
9.092654e+2, 2.8872263e+2, -151182.33, -286346.56, 1730.9274, 0.0072711757, 0.015637783, -151160.17, -40644.918, 0.0, 5.0190854, 4.932297 
9.091752e+2, 2.936565e+2, -107772.32, -239584.61, 1631.596, 0.0130169755, 0.035084598, -107752.125, -45591.07, 0.0, 5.0168576, 4.9322915 
9.090849e+2, 2.985903e+2, -66544.71, -197994.34, 521.60156, 0.01878797, 0.055806912, -66542.64, -52734.98, 0.0, 5.014634, 4.930421 
9.089911e+2, 3.0352417e+2, -24547.809, -124051.62, -1389.0951, 0.012647279, 0.015903242, -24528.42, -24528.42, 0.0, 5.012944, 4.9489155 
9.0889657e+2, 3.084642e+2, -25827.754, -119469.23, -878.032, -0.005007271, -0.095912375, -25819.521, -25819.521, 0.0, 5.011481, 4.951196 
9.088021e+2, 3.1340414e+2, -29823.773, -121313.93, -577.96533, -0.02313966, -0.20958993, -29820.121, -29820.121, 0.0, 5.010012, 4.9511647 
9.0870935e+2, 3.1838062e+2, 9552.574, -13901.024, 85.482635, -0.009687554, 0.021162145, 9552.886, 9552.886, 0.0, 5.007102, 4.991629 
9.166496e+2, 1.2502973e+2, -1684122.6, -1722718.4, 4762.511, 0.00015890125, 0.00378421, -1683543.6, 31163.15, 0.0, 5.02071, 4.9952507 
9.165762e+2, 1.3002408e+2, -1634399.0, -1673492.6, 5177.2246, 0.0006003006, 0.00095593015, -1633725.0, 32036.904, 0.0, 5.0210204, 4.9952307 
9.1650283e+2, 1.3501841e+2, -1584680.8, -1624274.3, 5588.9614, 0.0004629993, -0.0018680084, -1583906.9, 32910.52, 0.0, 5.021329, 4.9952106 
9.1642934e+2, 1.4001268e+2, -1536978.3, -1579012.3, 7030.21, -0.0003242006, -0.0031976334, -1535833.6, 32039.613, 0.0, 5.021606, 4.993878 
9.16361e+2, 1.4500271e+2, -1497125.9, -1549593.3, 12516.891, -0.000500077, 0.0018605813, -1494292.8, 24678.498, 0.0, 5.0218663, 4.9871645 
9.1629535e+2, 1.4998908e+2, -1446919.5, -1500000.9, 12912.581, 0.00044686496, -0.0020369466, -1443945.0, 26159.834, 0.0, 5.022305, 4.9871755 
9.162298e+2, 1.5497547e+2, -1396720.9, -1450419.0, 13308.9, 0.0013971763, -0.0059429747, -1393603.3, 27635.193, 0.0, 5.022743, 4.9871864 
9.1616416e+2, 1.5996192e+2, -1347689.8, -1403196.4, 14167.956, 0.0024494408, -0.008597231, -1344282.6, 28088.793, 0.0, 5.023174, 4.986411 
9.161007e+2, 1.6494441e+2, -1307735.0, -1374761.3, 17124.63, 0.0028127127, -0.0038076052, -1303613.4, 19929.969, 0.0, 5.0236106, 4.9792767 
9.160382e+2, 1.699234e+2, -1257294.8, -1325071.1, 17690.775, 0.0023786444, -0.0017128917, -1252955.0, 21794.598, 0.0, 5.024118, 4.9792757 
9.1597575e+2, 1.749024e+2, -1206863.8, -1275391.9, 18257.686, 0.00204436, 0.0006230137, -1202303.0, 23652.855, 0.0, 5.024625, 4.979275 
9.159133e+2, 1.798813e+2, -1157879.5, -1228721.6, 18836.564, 0.0018859564, 0.0035065184, -1153182.4, 23980.365, 0.0, 5.025122, 4.9782667 
9.15851e+2, 1.8485506e+2, -1118347.1, -1201805.6, 19717.98, 0.0023075587, 0.006656826, -1113923.1, 14497.184, 0.0, 5.0255857, 4.970526 
9.157887e+2, 1.8982458e+2, -1067876.1, -1152054.5, 20080.213, 0.001715104, 0.0019043467, -1063331.5, 16387.744, 0.0, 5.0260844, 4.970533 
9.157264e+2, 1.9479415e+2, -1017414.0, -1102314.9, 20441.074, 0.0012150966, -0.0026494614, -1012748.9, 18269.086, 0.0, 5.0265822, 4.97054 
9.1566414e+2, 1.9976375e+2, -968029.6, -1054932.4, 20422.496, 0.0008363495, -0.0058632954, -963469.56, 18846.406, 0.0, 5.027083, 4.9697485 
9.1560006e+2, 2.0472912e+2, -928667.5, -1029074.56, 19502.842, 0.00073548785, 0.0002884137, -925012.4, 8642.943, 0.0, 5.0275345, 4.9615936 
9.1553515e+2, 2.0969018e+2, -878489.25, -979443.3, 19891.275, 0.0015837719, 0.00020566577, -874711.44, 10325.61, 0.0, 5.0279117, 4.961597 
9.154703e+2, 2.1465121e+2, -828317.7, -929820.7, 20279.654, 0.0023638243, 0.00008681964, -824415.94, 12002.934, 0.0, 5.0282884, 4.9616003 
9.1540533e+2, 2.1961221e+2, -779365.9, -882946.56, 20245.318, 0.002983157, 0.00033108797, -775549.44, 12251.683, 0.0, 5.0286703, 4.960662 
9.153369e+2, 2.2456843e+2, -740453.06, -858044.25, 16857.49, 0.0033811964, 0.008032953, -738084.2, 1146.6766, 0.0, 5.028954, 4.9521832 
9.1526616e+2, 2.2951975e+2, -690930.4, -808692.3, 16969.133, 0.0032918812, 0.0051034954, -688533.94, 2174.2068, 0.0, 5.0290723, 4.952185 
9.1519535e+2, 2.344711e+2, -641409.0, -759343.9, 17079.357, 0.0032284851, 0.0020465255, -638985.4, 3200.1897, 0.0, 5.0291905, 4.9521875 
9.151246e+2, 2.3942243e+2, -592606.25, -711543.7, 17029.432, 0.0031250373, -0.0011445995, -590216.0, 3446.964, 0.0, 5.0293, 4.951654 
9.1504955e+2, 2.4436942e+2, -553624.06, -685136.06, 11436.64, 0.0025808162, -0.00018922299, -552636.9, -7455.4727, 0.0, 5.0292006, 4.9437838 
9.1497034e+2, 2.4931243e+2, -505744.0, -636475.3, 11222.564, 0.0027808258, -0.002433718, -504787.63, -8049.27, 0.0, 5.0286937, 4.943799 
9.148911e+2, 2.5425544e+2, -457887.97, -587846.06, 11212.41, 0.002984851, -0.004804713, -456927.7, -8632.336, 0.0, 5.028182, 4.9438004 
9.148119e+2, 2.591985e+2, -410580.53, -540516.6, 11236.096, 0.0031732316, -0.006622777, -409616.03, -9763.736, 0.0, 5.027673, 4.943345 
9.14729e+2, 2.6413795e+2, -372973.8, -514739.0, 5407.2637, 0.0020572958, 0.00531961, -372767.84, -21321.805, 0.0, 5.026945, 4.935427 
9.1464114e+2, 2.6907378e+2, -326088.3, -464602.38, 4505.7393, 0.0014994212, 0.005390772, -325941.9, -22866.389, 0.0, 5.0256543, 4.9362693 
9.1455317e+2, 2.7400962e+2, -280308.66, -416863.2, 4263.55, 0.0009540619, 0.0046894387, -280175.66, -25470.146, 0.0, 5.0243464, 4.936266 
9.144653e+2, 2.7894527e+2, -234271.16, -368476.75, 4299.7056, 0.0005632219, 0.0022706802, -234133.55, -27796.861, 0.0, 5.0230203, 4.936493 
9.14376e+2, 2.8387752e+2, -196425.05, -337667.9, 776.0375, 0.0018125114, -0.00024305521, -196420.8, -38421.64, 0.0, 5.0213385, 4.93068 
9.142835e+2, 2.888081e+2, -151025.34, -286466.2, 70.7726, 0.0063959234, -0.012872219, -151025.31, -41348.215, 0.0, 5.019138, 4.932255 
9.1419107e+2, 2.937388e+2, -107595.23, -239705.86, -7.7263474, 0.01137836, -0.024749609, -107595.23, -46241.418, 0.0, 5.0169177, 4.932246 
9.1409844e+2, 2.986699e+2, -66391.195, -198206.55, -969.13165, 0.016278058, -0.030726083, -66384.07, -53357.016, 0.0, 5.0146995, 4.930342 
9.1400325e+2, 3.0361208e+2, -23428.113, -121966.516, -2538.09, 0.013225595, 0.008759812, -23362.783, -23362.783, 0.0, 5.0130076, 4.9496627 
9.1390735e+2, 3.085652e+2, -24742.025, -117513.65, -1802.1833, -0.00096709776, 0.019996615, -24707.03, -24707.03, 0.0, 5.0115523, 4.951894 
9.1381145e+2, 3.1351814e+2, -28711.568, -119323.04, -1207.129, -0.01602407, 0.029076401, -28695.49, -28695.49, 0.0, 5.010089, 4.9518714 
9.1371053e+2, 3.1847253e+2, -17274.598, -76998.66, -3933.7913, -0.06636012, 0.07478167, -17016.61, -17016.61, 0.0, 5.007143, 4.9684243 
9.216699e+2, 1.2510793e+2, -1685225.9, -1721716.9, 5051.1675, 0.0023147697, 0.0019303759, -1684539.6, 29399.777, 0.0, 5.02004, 4.9959054 
9.215968e+2, 1.3010296e+2, -1634816.3, -1672138.5, 5546.677, 0.0018592493, -0.00044621513, -1634009.4, 30978.828, 0.0, 5.020577, 4.9958897 
9.2152363e+2, 1.3509798e+2, -1584772.5, -1622746.3, 6049.248, 0.0009864159, -0.0027985743, -1583832.1, 32205.068, 0.0, 5.020993, 4.9958744 
9.214504e+2, 1.4009295e+2, -1537145.5, -1577666.8, 7592.8223, -0.00047697788, -0.003502071, -1535769.5, 31317.107, 0.0, 5.021272, 4.9944816 
9.213823e+2, 1.4508358e+2, -1497340.4, -1548413.1, 13301.262, -0.0013955841, 0.0021521861, -1494083.9, 24095.11, 0.0, 5.021529, 4.9877214 
9.213172e+2, 1.5007053e+2, -1447121.6, -1498827.4, 13749.261, 0.0001892961, -0.0015641524, -1443692.9, 25614.453, 0.0, 5.0219736, 4.987729 
9.2125213e+2, 1.5505746e+2, -1396925.9, -1449258.8, 14189.733, 0.0018117387, -0.0053079636, -1393326.0, 27109.785, 0.0, 5.0224123, 4.9877367 
9.2118704e+2, 1.6004449e+2, -1347831.1, -1401847.3, 15092.408, 0.0034868147, -0.007850044, -1343900.4, 27662.975, 0.0, 5.022832, 4.98703 
9.2112404e+2, 1.6502759e+2, -1307872.8, -1373284.0, 17991.988, 0.0038593307, -0.00345046, -1303250.5, 19478.229, 0.0, 5.0232472, 4.979946 
9.21062e+2, 1.700072e+2, -1257462.0, -1323616.0, 18441.215, 0.003305652, -0.0016229572, -1252668.6, 21259.791, 0.0, 5.023744, 4.979944 
9.2100006e+2, 1.749868e+2, -1207096.8, -1273975.0, 18898.256, 0.0028163106, 0.00032006463, -1202126.0, 23001.992, 0.0, 5.024228, 4.979943 
9.209381e+2, 1.7996633e+2, -1158345.9, -1227668.0, 19382.074, 0.002386934, 0.002826291, -1153294.9, 23033.877, 0.0, 5.0246987, 4.978825 
9.208762e+2, 1.8494056e+2, -1118859.5, -1201010.0, 20263.686, 0.0023720248, 0.0062343157, -1114133.1, 13448.685, 0.0, 5.025203, 4.9709735 
9.2081445e+2, 1.899106e+2, -1068245.9, -1151191.8, 20612.78, 0.001591366, 0.0018983114, -1063405.8, 15470.643, 0.0, 5.02575, 4.9709806 
9.2075264e+2, 1.9488063e+2, -1017718.25, -1101419.5, 20973.453, 0.0008828454, -0.0023312485, -1012756.94, 17414.12, 0.0, 5.026271, 4.9709883 
9.206908e+2, 1.9985074e+2, -968256.0, -1053853.6, 20944.121, 0.00038647707, -0.0052159377, -963406.2, 18058.516, 0.0, 5.026769, 4.970261 
9.206272e+2, 2.0481664e+2, -928862.9, -1028022.5, 19957.332, 0.0006836752, 0.00080391736, -924996.94, 7801.7056, 0.0, 5.0272408, 4.9620867 
9.2056274e+2, 2.0977812e+2, -878545.8, -978321.2, 20334.945, 0.0019571646, 0.0002045372, -874560.6, 9614.887, 0.0, 5.0276666, 4.962092 
9.204983e+2, 2.147396e+2, -828255.94, -928637.3, 20716.021, 0.0032056405, -0.00038494953, -824148.75, 11403.653, 0.0, 5.0280857, 4.962097 
9.2043376e+2, 2.1970105e+2, -779395.2, -882120.25, 20647.857, 0.004241327, -0.00034847247, -775400.3, 11529.496, 0.0, 5.0285025, 4.96102 
9.203656e+2, 2.2465755e+2, -740650.75, -857760.5, 17163.34, 0.004789973, 0.008308189, -738187.1, 169.62979, 0.0, 5.028822, 4.952334 
9.2029494e+2, 2.2960913e+2, -691075.44, -808378.75, 17338.268, 0.0042974125, 0.006043232, -688566.4, 1265.8414, 0.0, 5.0289593, 4.9523373 
9.202242e+2, 2.345607e+2, -641544.56, -759020.4, 17512.973, 0.0038535448, 0.0037217655, -638989.4, 2318.3772, 0.0, 5.029082, 4.95234 
9.201535e+2, 2.3951222e+2, -592710.9, -711139.2, 17487.258, 0.0033353174, 0.0011289075, -590182.7, 2600.6736, 0.0, 5.0291877, 4.951839 
9.2007816e+2, 2.4445903e+2, -553771.6, -685319.5, 11425.512, 0.002263736, -0.00065317214, -552786.7, -8483.214, 0.0, 5.0291576, 4.9437475 
9.199984e+2, 2.4940175e+2, -505769.06, -636615.3, 11141.81, 0.0022950808, -0.0054300935, -504827.1, -8964.0625, 0.0, 5.0286975, 4.943757 
9.1991866e+2, 2.5434446e+2, -457853.03, -587955.44, 11062.318, 0.0023846133, -0.010303485, -456919.13, -9496.498, 0.0, 5.0282073, 4.9437594 
9.198389e+2, 2.592873e+2, -410670.8, -540855.3, 11011.302, 0.0026005376, -0.013803154, -409746.0, -10764.569, 0.0, 5.02769, 4.9432263 
9.1975516e+2, 2.642272e+2, -373212.78, -515477.78, 4633.666, 0.0014863028, 0.004977441, -373062.0, -22491.277, 0.0, 5.026968, 4.9351683 
9.19666e+2, 2.691636e+2, -326314.22, -465353.06, 3679.5063, 0.0014967119, 0.013155197, -326216.9, -24021.975, 0.0, 5.025683, 4.936004 
9.195768e+2, 2.7409998e+2, -280626.8, -417658.25, 3441.2158, 0.0015649993, 0.020717025, -280540.47, -26720.932, 0.0, 5.0243416, 4.9359994 
9.194877e+2, 2.7903602e+2, -234717.08, -369255.3, 3388.7651, 0.0017089262, 0.024663413, -234631.78, -29184.707, 0.0, 5.0229526, 4.9362593 
9.1939646e+2, 2.83966e+2, -196383.5, -337887.16, -717.98193, 0.0015810383, 0.00074275036, -196379.86, -39248.23, 0.0, 5.0213656, 4.9306107 
9.193017e+2, 2.8889358e+2, -150716.45, -286570.25, -1665.3734, 0.0051857796, -0.041528612, -150696.05, -41857.152, 0.0, 5.0192614, 4.932186 
9.192069e+2, 2.9382125e+2, -107218.81, -239783.33, -1885.7041, 0.009259322, -0.08350305, -107191.99, -46646.676, 0.0, 5.017066, 4.9321766 
9.191121e+2, 2.9874983e+2, -66666.33, -199536.45, -2776.6113, 0.013368138, -0.112789854, -66608.33, -54365.34, 0.0, 5.0147953, 4.9298487 
9.1901547e+2, 3.0370057e+2, -22956.031, -120268.83, -4041.9297, 0.014072367, 0.0073591676, -22788.436, -22788.436, 0.0, 5.0128713, 4.9503407 
9.1891825e+2, 3.086662e+2, -25102.607, -116129.375, -3153.2998, 0.00397025, 0.13055749, -24993.504, -24993.504, 0.0, 5.0110974, 4.952594 
9.1882104e+2, 3.136318e+2, -30322.47, -118477.03, -2415.026, -0.0071503967, 0.25236684, -30256.36, -30256.36, 0.0, 5.009175, 4.952572 
9.187219e+2, 3.1854546e+2, 24408.256, 24872.387, -4486.3657, -0.03013406, -0.1630877, 29132.684, 29132.684, 0.0, 5.006263, 5.0063624 
9.2668784e+2, 1.25185e+2, -1694279.3, -1724422.4, 3543.1917, 0.004849786, -0.0012192251, -1693868.4, 19314.78, 0.0, 5.016691, 4.996642 
9.266153e+2, 1.3018088e+2, -1643448.3, -1674606.9, 3947.7349, 0.0035192599, -0.002621358, -1642955.8, 21268.254, 0.0, 5.017362, 4.996632 
9.265426e+2, 1.3517675e+2, -1592630.5, -1624806.8, 4345.2725, 0.0021303592, -0.0037972226, -1592054.0, 23211.045, 0.0, 5.018029, 4.9966216 
9.264698e+2, 1.4017259e+2, -1543827.1, -1579176.3, 5857.9805, 0.00031882364, -0.003289595, -1542881.6, 23424.57, 0.0, 5.0186887, 4.9952283 
9.2640215e+2, 1.4516394e+2, -1502972.4, -1549845.6, 11645.584, -0.0014857173, 0.0027223893, -1500238.5, 17152.96, 0.0, 5.0192986, 4.9883614 
9.2633766e+2, 1.5015164e+2, -1452143.8, -1499964.4, 12216.128, 0.00038290964, -0.0000881633, -1449203.8, 19308.84, 0.0, 5.0199437, 4.9883647 
9.262731e+2, 1.5513931e+2, -1401327.4, -1450097.5, 12788.634, 0.0023056397, -0.0029761728, -1398177.4, 21456.58, 0.0, 5.020588, 4.988368 
9.262086e+2, 1.6012704e+2, -1351592.1, -1402360.3, 13817.05, 0.0042972355, -0.005003908, -1348075.3, 22679.39, 0.0, 5.0212145, 4.987668 
9.2614615e+2, 1.651107e+2, -1311121.5, -1373627.1, 16936.271, 0.00476218, -0.0014141767, -1306827.5, 15086.874, 0.0, 5.021805, 4.980561 
9.260847e+2, 1.7009082e+2, -1260211.8, -1323684.6, 17586.021, 0.004013327, -0.0008172929, -1255665.0, 17443.764, 0.0, 5.0224667, 4.980567 
9.260233e+2, 1.7507091e+2, -1209313.3, -1273757.8, 18236.934, 0.0032319091, -0.0004868349, -1204510.4, 19792.973, 0.0, 5.023128, 4.980573 
9.2596185e+2, 1.800509e+2, -1159992.4, -1227131.5, 18888.135, 0.0024065746, 0.00019393333, -1155043.4, 20455.914, 0.0, 5.023788, 4.97947 
9.259006e+2, 1.8502587e+2, -1120030.3, -1200212.3, 20195.973, 0.0022976783, 0.004183093, -1115230.6, 11515.078, 0.0, 5.024476, 4.9716134 
9.258395e+2, 1.8999672e+2, -1068794.1, -1150026.5, 20880.781, 0.0020161879, 0.0017600604, -1063741.0, 14291.595, 0.0, 5.025235, 4.971639 
9.257784e+2, 1.9496757e+2, -1017573.3, -1099857.3, 21565.627, 0.0017551219, -0.00079014455, -1012263.9, 17055.693, 0.0, 5.025994, 4.9716654 
9.2571723e+2, 1.9993848e+2, -967329.44, -1051790.0, 21801.87, 0.0016212832, -0.0024393825, -962033.75, 18571.93, 0.0, 5.026748, 4.9709845 
9.256541e+2, 2.0490502e+2, -927298.5, -1025602.25, 21170.455, 0.001763554, 0.002955502, -922933.1, 8999.85, 0.0, 5.0274467, 4.9628177 
9.255902e+2, 2.0986712e+2, -876112.06, -975435.6, 21928.18, 0.0024334101, 0.0015178301, -871486.25, 11817.17, 0.0, 5.0281806, 4.9628396 
9.255263e+2, 2.1482925e+2, -824939.6, -925285.5, 22683.627, 0.0032190226, 0.00022021754, -820050.1, 14623.623, 0.0, 5.028914, 4.962862 
9.2546237e+2, 2.1979137e+2, -775194.56, -878312.6, 22988.908, 0.00388868, -0.00031153293, -770301.6, 15742.876, 0.0, 5.0296497, 4.9617963 
9.2539454e+2, 2.2474839e+2, -735663.9, -853960.1, 19859.156, 0.0038655067, 0.007212067, -732419.0, 5047.18, 0.0, 5.0303288, 4.9529357 
9.2532414e+2, 2.2970058e+2, -685224.0, -804127.56, 20542.97, 0.0037230202, 0.0056515913, -681774.8, 7160.6567, 0.0, 5.0307827, 4.952953 
9.2525387e+2, 2.3465279e+2, -634792.2, -754305.94, 21224.656, 0.0036899147, 0.004171583, -631134.75, 9269.938, 0.0, 5.0312357, 4.95297 
9.251834e+2, 2.3960495e+2, -585035.06, -706050.0, 21743.34, 0.003684416, 0.00245966, -581246.9, 10627.178, 0.0, 5.031694, 4.9524484 
9.2510813e+2, 2.4455206e+2, -545445.4, -680880.25, 15678.584, 0.0027731755, 0.0008302327, -543654.06, -262.7903, 0.0, 5.03206, 4.943969 
9.250281e+2, 2.4949479e+2, -496598.53, -631762.2, 15796.068, 0.0023459743, -0.0049823336, -494777.03, 174.03897, 0.0, 5.0319166, 4.943987 
9.24948e+2, 2.5443754e+2, -447769.88, -582656.6, 16099.12, 0.0021921967, -0.01071379, -445875.0, 635.7305, 0.0, 5.031768, 4.9440002 
9.24868e+2, 2.5938043e+2, -399577.3, -534941.4, 16376.105, 0.0024438358, -0.014761343, -397624.34, 444.71835, 0.0, 5.0316052, 4.943531 
9.247834e+2, 2.6432043e+2, -362166.4, -509982.66, 9805.444, 0.001972167, 0.003974376, -361518.78, -11861.652, 0.0, 5.0309515, 4.9352975 
9.246929e+2, 2.6925695e+2, -315792.44, -460060.97, 9191.557, 0.0028014344, 0.013570829, -315209.2, -13929.542, 0.0, 5.029488, 4.936149 
9.2460245e+2, 2.7419347e+2, -270521.94, -412528.84, 9329.17, 0.0039237794, 0.022729442, -269911.66, -17009.342, 0.0, 5.0280056, 4.936156 
9.24512e+2, 2.7912962e+2, -224887.5, -364226.22, 9682.5, 0.0050940188, 0.027912514, -224217.89, -19689.611, 0.0, 5.0265236, 4.9364285 
9.244187e+2, 2.8405908e+2, -187774.03, -333984.7, 4957.3467, 0.0023680588, 0.00043928198, -187606.14, -31387.72, 0.0, 5.024621, 4.9305124 
9.243211e+2, 2.889859e+2, -143424.81, -283202.22, 3958.265, 0.0016742776, -0.046229772, -143312.81, -35379.06, 0.0, 5.022041, 4.9321074 
9.242235e+2, 2.9391277e+2, -101038.96, -236874.75, 3669.8455, 0.0019018397, -0.093250975, -100939.89, -41291.07, 0.0, 5.019442, 4.93211 
9.2412597e+2, 2.9884064e+2, -60770.246, -195427.39, 2893.4614, 0.00330247, -0.1277346, -60708.1, -49353.98, 0.0, 5.0168176, 4.9303594 
9.2402756e+2, 3.0379343e+2, -19259.36, -115833.67, 1129.7568, 0.011575964, 0.007843893, -19246.145, -19246.145, 0.0, 5.0138836, 4.9513893 
9.239289e+2, 3.0876246e+2, -25363.53, -113522.84, 1365.5234, 0.014287077, 0.15948565, -25342.383, -25342.383, 0.0, 5.01066, 4.9536095 
9.2383015e+2, 3.1373182e+2, -34182.73, -117587.92, 1509.1086, 0.016647292, 0.31412432, -34155.434, -34155.434, 0.0, 5.0074205, 4.953537 
9.237309e+2, 3.186232e+2, 39319.895, 70425.164, -4049.4011, 0.012995369, -0.38150308, 70943.69, 70943.69, 0.0, 5.004199, 5.0243 
9.3170404e+2, 1.2526079e+2, -1693080.4, -1722258.9, 3998.292, 0.0039593363, -0.0036281215, -1692542.4, 19896.938, 0.0, 5.016735, 4.997345 
9.3163216e+2, 1.3025741e+2, -1642248.4, -1672461.8, 4415.328, 0.0034484565, -0.0043829167, -1641616.3, 21856.932, 0.0, 5.01741, 4.99733 
9.315601e+2, 1.3525404e+2, -1591429.6, -1622680.0, 4825.3584, 0.0026319579, -0.0049584354, -1590701.5, 23805.791, 0.0, 5.018081, 4.9973154 
9.3148804e+2, 1.4025062e+2, -1542623.5, -1577005.8, 6425.2954, 0.0009284535, -0.004061053, -1541462.0, 24079.604, 0.0, 5.018737, 4.9959393 
9.3142104e+2, 1.4524269e+2, -1501830.4, -1547587.0, 12122.797, -0.001853839, 0.0018128668, -1498817.0, 17803.006, 0.0, 5.0193167, 4.989114 
9.313572e+2, 1.5023121e+2, -1451008.1, -1497706.5, 12697.454, 0.00018035847, 0.000008793073, -1447779.0, 19954.129, 0.0, 5.0199614, 4.989119 
9.312933e+2, 1.552197e+2, -1400198.3, -1447840.4, 13274.074, 0.0022277306, -0.0019214419, -1396749.5, 22096.896, 0.0, 5.0206056, 4.989124 
9.312295e+2, 1.6020824e+2, -1350488.6, -1400132.5, 14271.374, 0.0043306476, -0.0032840052, -1346678.4, 23280.938, 0.0, 5.0212297, 4.988416 
9.3116766e+2, 1.6519259e+2, -1309973.6, -1371205.6, 17406.688, 0.0049044867, -0.0004357941, -1305371.3, 15740.7, 0.0, 5.0218062, 4.9813747 
9.3110687e+2, 1.7017342e+2, -1259071.3, -1321264.8, 18062.455, 0.004040884, -0.0010093297, -1254206.1, 18093.094, 0.0, 5.0224676, 4.981383 
9.3104607e+2, 1.7515421e+2, -1208180.4, -1271339.5, 18719.383, 0.003108466, -0.0018542556, -1203049.1, 20437.62, 0.0, 5.0231285, 4.9813914 
9.309853e+2, 1.8013492e+2, -1158843.5, -1224663.8, 19318.37, 0.0021270686, -0.00210546, -1153592.4, 21083.041, 0.0, 5.023788, 4.9803066 
9.3092465e+2, 1.851108e+2, -1118845.3, -1197613.0, 20743.762, 0.0020215726, 0.002547004, -1113716.4, 12196.679, 0.0, 5.0244703, 4.972497 
9.308644e+2, 1.9008267e+2, -1067617.1, -1147436.5, 21431.76, 0.0020945058, 0.0013991145, -1062226.6, 14963.896, 0.0, 5.02523, 4.9725227 
9.308041e+2, 1.9505452e+2, -1016404.2, -1097276.4, 22119.795, 0.0021228986, 0.0001202711, -1010749.5, 17718.537, 0.0, 5.0259895, 4.9725485 
9.307437e+2, 2.0002638e+2, -966147.8, -1049173.6, 22286.232, 0.0021681723, -0.0005480589, -960543.8, 19201.072, 0.0, 5.0267434, 4.971883 
9.306813e+2, 2.0499378e+2, -926060.6, -1022812.4, 21701.268, 0.002310632, 0.0041873124, -921416.06, 9647.519, 0.0, 5.027435, 4.963776 
9.3061805e+2, 2.099568e+2, -874876.0, -972652.06, 22463.674, 0.002640758, 0.0022491396, -869962.06, 12462.93, 0.0, 5.028171, 4.9637985 
9.305548e+2, 2.1491984e+2, -823705.44, -922508.44, 23223.8, 0.00303336, 0.00041240425, -818518.94, 15267.297, 0.0, 5.028907, 4.9638214 
9.304915e+2, 2.1988282e+2, -773904.4, -875401.94, 23539.678, 0.0032004588, -0.00070852553, -768710.7, 16437.314, 0.0, 5.029643, 4.962804 
9.304243e+2, 2.2484064e+2, -734571.1, -851465.25, 20204.074, 0.002260153, 0.0051110904, -731177.56, 5384.2354, 0.0, 5.0303197, 4.9537992 
9.303544e+2, 2.2979371e+2, -684131.6, -801637.2, 20894.54, 0.0024370598, 0.004104503, -680526.8, 7495.352, 0.0, 5.030776, 4.953817 
9.3028456e+2, 2.3474683e+2, -633700.25, -751820.1, 21582.873, 0.0026414248, 0.00311542, -629880.1, 9602.292, 0.0, 5.0312314, 4.9538345 
9.302146e+2, 2.3969987e+2, -584083.06, -703843.0, 22155.572, 0.0028845463, 0.0018630394, -580115.75, 10827.256, 0.0, 5.0316877, 4.9532185 
9.301396e+2, 2.4464771e+2, -545008.75, -679801.6, 15528.072, 0.0023298303, 0.0019425802, -543243.06, -789.452, 0.0, 5.032046, 4.944349 
9.300593e+2, 2.4959081e+2, -496161.97, -630689.3, 15674.294, 0.0016380427, -0.003926441, -494359.84, -349.66266, 0.0, 5.0319033, 4.9443655 
9.299791e+2, 2.5453395e+2, -447333.0, -581592.6, 15984.878, 0.0011096216, -0.009746072, -445456.1, 110.55671, 0.0, 5.031757, 4.9443765 
9.2989886e+2, 2.594772e+2, -399033.63, -533652.75, 16195.591, 0.00093771616, -0.013938839, -397112.6, 9.019729, 0.0, 5.0315967, 4.9439874 
9.2981356e+2, 2.644174e+2, -361769.06, -509250.13, 8731.442, 0.0014265571, 0.0028538276, -361253.94, -12546.69, 0.0, 5.030967, 4.935561 
9.2972165e+2, 2.6935413e+2, -315400.94, -459386.53, 8083.5107, 0.0033943187, 0.012105274, -314948.56, -14621.43, 0.0, 5.02951, 4.936393 
9.296298e+2, 2.742908e+2, -270122.22, -411869.16, 8234.167, 0.0054116324, 0.020873327, -269645.5, -17698.217, 0.0, 5.028032, 4.9363947 
9.29538e+2, 2.792271e+2, -224523.89, -363671.44, 8634.656, 0.0069113187, 0.02557009, -223990.13, -20419.11, 0.0, 5.0265536, 4.9366302 
9.2944235e+2, 2.8415668e+2, -187942.58, -334771.16, 2901.4573, 0.0015916484, 0.000012259946, -187885.27, -32624.582, 0.0, 5.0246572, 4.9302435 
9.293416e+2, 2.8908363e+2, -143535.3, -283850.34, 1977.945, -0.003832486, -0.04317684, -143507.42, -36531.543, 0.0, 5.0220757, 4.9318876 
9.292409e+2, 2.9401058e+2, -101151.484, -237513.5, 1719.9028, -0.008756721, -0.086667314, -101129.8, -42439.09, 0.0, 5.0194745, 4.931893 
9.291404e+2, 2.989386e+2, -60163.82, -194388.27, 855.35626, -0.011908492, -0.11861597, -60158.37, -49762.984, 0.0, 5.01685, 4.9307413 
9.290399e+2, 3.0389115e+2, -17924.176, -113564.51, -1264.1338, 0.0049905754, 0.009139515, -17907.47, -17907.47, 0.0, 5.0139813, 4.9522233 
9.289394e+2, 3.0885947e+2, -24058.895, -111285.266, -932.3077, 0.023705745, 0.1501975, -24048.93, -24048.93, 0.0, 5.0107474, 4.9544396 
9.288388e+2, 3.1382817e+2, -32917.727, -115358.57, -515.3356, 0.0413943, 0.2946774, -32914.504, -32914.504, 0.0, 5.007493, 4.9543686 
9.28731e+2, 3.1872946e+2, 3041.0872, -15901.326, -1696.9779, -0.017767968, -0.25704253, 3191.9119, 3191.9119, 0.0, 5.0044427, 4.9920235 
9.3672025e+2, 1.2533659e+2, -1691887.9, -1720090.6, 4460.1147, 0.0031006378, -0.005925221, -1691199.3, 20496.148, 0.0, 5.016779, 4.998047 
9.366491e+2, 1.3033399e+2, -1641054.8, -1670311.9, 4889.647, 0.0034767226, -0.006110319, -1640259.1, 22463.098, 0.0, 5.017458, 4.998028 
9.3657774e+2, 1.3533135e+2, -1590235.0, -1620548.4, 5312.174, 0.0032998824, -0.0061632036, -1589331.0, 24418.367, 0.0, 5.018133, 4.9980087 
9.365063e+2, 1.4032868e+2, -1541455.0, -1574896.1, 6964.7236, 0.0017278937, -0.0048401975, -1540062.4, 24714.385, 0.0, 5.0187845, 4.996629 
9.3643993e+2, 1.4532144e+2, -1500690.3, -1545327.9, 12597.081, -0.002221563, 0.0010707119, -1497380.6, 18467.771, 0.0, 5.0193343, 4.9898653 
9.363767e+2, 1.5031078e+2, -1449874.4, -1495448.3, 13175.85, -0.000024947167, 0.0001944659, -1446339.4, 20614.088, 0.0, 5.0199795, 4.989872 
9.363135e+2, 1.5530013e+2, -1399070.9, -1445582.9, 13756.581, 0.0021438913, -0.0008567149, -1395306.9, 22751.828, 0.0, 5.020623, 4.989879 
9.362504e+2, 1.6028944e+2, -1349431.5, -1398001.0, 14708.347, 0.0043660323, -0.0015593515, -1345324.6, 23839.18, 0.0, 5.021245, 4.9891315 
9.361892e+2, 1.6527449e+2, -1308826.9, -1368784.8, 17875.516, 0.0050626583, 0.0006099278, -1303902.0, 16407.441, 0.0, 5.0218077, 4.9821873 
9.3612903e+2, 1.70256e+2, -1257932.0, -1318845.6, 18537.297, 0.0040398785, -0.0012754288, -1252734.3, 18755.46, 0.0, 5.0224686, 4.9821978 
9.360689e+2, 1.7523749e+2, -1207048.6, -1268922.0, 19200.238, 0.0029120028, -0.003437213, -1201574.8, 21095.418, 0.0, 5.023129, 4.9822083 
9.3600875e+2, 1.8021892e+2, -1157724.8, -1222259.5, 19743.646, 0.0017781856, -0.0045946105, -1152163.6, 21688.08, 0.0, 5.023788, 4.981121 
9.359488e+2, 1.8519579e+2, -1117661.6, -1195014.0, 21291.95, 0.0018681649, 0.0011235597, -1112188.1, 12891.927, 0.0, 5.0244646, 4.9733796 
9.3588936e+2, 1.9016863e+2, -1066441.4, -1144846.6, 21983.139, 0.002289947, 0.0012177578, -1060698.4, 15649.807, 0.0, 5.025225, 4.9734054 
9.358298e+2, 1.9514148e+2, -1015236.4, -1094695.8, 22674.365, 0.0026021767, 0.0011771924, -1009221.4, 18394.943, 0.0, 5.025985, 4.973431 
9.357702e+2, 2.0011432e+2, -964978.06, -1046581.8, 22762.621, 0.002792535, 0.0014133303, -959058.1, 19825.912, 0.0, 5.0267386, 4.972772 
9.357084e+2, 2.0508255e+2, -924824.1, -1020022.8, 22233.53, 0.002747713, 0.005287577, -919887.56, 10306.74, 0.0, 5.0274234, 4.9647336 
9.356459e+2, 2.1004647e+2, -873641.3, -969868.94, 23000.615, 0.0027075536, 0.0027707182, -868426.25, 13120.342, 0.0, 5.0281615, 4.9647565 
9.3558335e+2, 2.1501037e+2, -822472.56, -919731.7, 23765.424, 0.0026765345, 0.00031659947, -816976.1, 15922.714, 0.0, 5.0288997, 4.9647794 
9.3552077e+2, 2.1997426e+2, -772623.25, -872509.7, 24081.402, 0.00233043, -0.0013819446, -767120.7, 17130.93, 0.0, 5.0296364, 4.9638042 
9.35454e+2, 2.2493292e+2, -733479.94, -848970.06, 20550.688, 0.0007469302, 0.0032747483, -729932.06, 5724.927, 0.0, 5.030311, 4.9546614 
9.3538463e+2, 2.298869e+2, -683040.75, -799146.56, 21247.803, 0.0012223932, 0.0027091368, -679274.5, 7833.886, 0.0, 5.03077, 4.95468 
9.3531525e+2, 2.348409e+2, -632609.75, -749334.06, 21942.787, 0.0016433252, 0.0020979696, -628621.1, 9938.684, 0.0, 5.0312276, 4.954698 
9.352458e+2, 2.3979485e+2, -583210.1, -701807.4, 22549.064, 0.002112502, 0.0013033171, -579067.56, 10944.017, 0.0, 5.0316806, 4.953928 
9.35171e+2, 2.4474335e+2, -544577.75, -678730.8, 15378.085, 0.0018211068, 0.0032990421, -542837.56, -1321.6194, 0.0, 5.0320315, 4.944724 
9.3509054e+2, 2.4968682e+2, -495727.2, -629615.06, 15555.812, 0.00091706007, -0.0027383587, -493943.6, -874.3004, 0.0, 5.0318904, 4.944743 
9.3501014e+2, 2.5463033e+2, -446897.9, -580527.25, 15873.931, 0.00006543582, -0.008759264, -445038.13, -415.49625, 0.0, 5.031746, 4.944752 
9.349297e+2, 2.5957397e+2, -398467.6, -532311.8, 16019.729, -0.00048076673, -0.013197935, -396576.9, -402.6857, 0.0, 5.0315886, 4.944461 
9.348436e+2, 2.645144e+2, -361394.53, -508560.53, 7662.8745, 0.00072721083, 0.0017959791, -360996.6, -13239.397, 0.0, 5.030983, 4.935807 
9.3475044e+2, 2.694513e+2, -315012.47, -458709.3, 6983.4976, 0.0039052689, 0.010570021, -314673.88, -15299.379, 0.0, 5.029532, 4.936635 
9.3465716e+2, 2.7438816e+2, -269725.53, -411206.7, 7147.2007, 0.0068873307, 0.018817974, -269365.4, -18373.215, 0.0, 5.028059, 4.9366317 
9.34564e+2, 2.7932462e+2, -224241.5, -363299.44, 7518.612, 0.008769733, 0.022932133, -223836.16, -21222.281, 0.0, 5.0265837, 4.9367657 
9.344659e+2, 2.8425425e+2, -188146.89, -335620.3, 898.5305, 0.00059151504, -0.0005035093, -188141.42, -33838.07, 0.0, 5.024694, 4.9299493 
9.3436205e+2, 2.8918126e+2, -143650.33, -284493.94, -4.1986413, -0.009638909, -0.04067728, -143650.33, -37631.844, 0.0, 5.022112, 4.931666 
9.342583e+2, 2.9410836e+2, -101268.54, -238147.72, -231.85365, -0.019774554, -0.08109988, -101268.15, -43535.01, 0.0, 5.019508, 4.931674 
9.3415475e+2, 2.9903656e+2, -60062.03, -194521.98, -1175.011, -0.02729566, -0.10916389, -60051.76, -50615.074, 0.0, 5.0168843, 4.9307017 
9.340524e+2, 3.03989e+2, -16620.402, -111334.93, -3617.6184, -0.0006368925, 0.011402036, -16482.428, -16482.428, 0.0, 5.01408, 4.953034 
9.3395e+2, 3.0895653e+2, -22766.264, -109038.93, -3224.58, 0.034238577, 0.13530225, -22645.908, -22645.908, 0.0, 5.010836, 4.955263 
9.3384755e+2, 3.1392446e+2, -31664.26, -113120.766, -2534.3042, 0.06730281, 0.26308256, -31585.486, -31585.486, 0.0, 5.0075665, 4.9551935 
9.3373036e+2, 3.1884074e+2, -19992.451, -71885.24, 1806.4996, -0.059006013, -0.10020064, -19929.639, -19929.639, 0.0, 5.004812, 4.971288 
9.417362e+2, 1.2541251e+2, -1693575.6, -1719190.3, 4959.6343, 0.0018134514, -0.0061744666, -1692648.9, 18302.621, 0.0, 5.015854, 4.9988003 
9.416658e+2, 1.3041063e+2, -1642142.4, -1669075.5, 5549.687, 0.0034430078, -0.006613234, -1641043.8, 20927.51, 0.0, 5.0167284, 4.9987917 
9.4159526e+2, 1.3540874e+2, -1590931.5, -1619078.8, 6172.224, 0.004230911, -0.0068302914, -1589637.5, 23353.543, 0.0, 5.0175314, 4.998784 
9.415246e+2, 1.4040682e+2, -1542056.8, -1573459.4, 8060.505, 0.0029772, -0.005540291, -1540108.6, 23902.531, 0.0, 5.0182366, 4.997365 
9.4145876e+2, 1.4540029e+2, -1501166.0, -1543776.4, 13729.989, -0.0024150473, 0.00028550372, -1497125.1, 17950.646, 0.0, 5.0188146, 4.9906316 
9.4139624e+2, 1.5039046e+2, -1450169.1, -1493802.9, 14284.374, -0.0001884115, 0.00011782515, -1445908.9, 20264.018, 0.0, 5.019521, 4.9906406 
9.4133365e+2, 1.553806e+2, -1399216.8, -1443859.5, 14838.607, 0.0019962394, -0.00015659694, -1394734.6, 22535.38, 0.0, 5.0202165, 4.990649 
9.412712e+2, 1.6037071e+2, -1349555.4, -1396437.8, 15705.431, 0.0042901803, -0.00012469858, -1344780.4, 23587.027, 0.0, 5.0208807, 4.98983 
9.412106e+2, 1.6535644e+2, -1308736.4, -1366915.0, 18827.014, 0.005185163, 0.0016128875, -1303175.4, 16331.081, 0.0, 5.0214653, 4.98298 
9.411512e+2, 1.7033866e+2, -1257855.1, -1316966.4, 19354.314, 0.004065733, -0.0013283871, -1252082.0, 18597.803, 0.0, 5.0221214, 4.9829965 
9.410917e+2, 1.7532086e+2, -1207014.0, -1267043.8, 19893.512, 0.0028339995, -0.0044067167, -1201020.0, 20833.285, 0.0, 5.022768, 4.9830136 
9.4103223e+2, 1.8030307e+2, -1157737.8, -1220369.8, 20285.055, 0.0016983388, -0.005927043, -1151741.9, 21285.188, 0.0, 5.023406, 4.9819403 
9.40973e+2, 1.852809e+2, -1117616.5, -1192874.1, 21980.139, 0.002090356, 0.0007631298, -1111667.3, 12578.899, 0.0, 5.0240517, 4.974296 
9.409143e+2, 1.9025472e+2, -1066499.5, -1142748.5, 22740.045, 0.0027405012, 0.0014459, -1060232.8, 15272.039, 0.0, 5.0247774, 4.9743247 
9.408555e+2, 1.9522853e+2, -1015420.06, -1092647.1, 23518.7, 0.0032811898, 0.0020730775, -1008821.5, 17941.883, 0.0, 5.025495, 4.974354 
9.407966e+2, 2.0020232e+2, -965313.06, -1044654.25, 23622.139, 0.003590381, 0.002743204, -958812.7, 19209.186, 0.0, 5.0262094, 4.973672 
9.4073546e+2, 2.0517138e+2, -924964.94, -1017905.8, 23176.223, 0.00314413, 0.005684689, -919506.25, 9817.81, 0.0, 5.026943, 4.9656725 
9.406737e+2, 2.1013618e+2, -873650.75, -967692.9, 23889.303, 0.0027672339, 0.0027312753, -867930.2, 12737.318, 0.0, 5.0277286, 4.965696 
9.406119e+2, 2.1510099e+2, -822425.94, -917531.56, 24601.303, 0.0024507088, -0.0001936046, -816439.06, 15571.771, 0.0, 5.028487, 4.9657187 
9.4054997e+2, 2.2006579e+2, -772527.06, -870163.1, 24859.986, 0.0018368189, -0.0022746809, -766561.7, 16793.0, 0.0, 5.0292172, 4.9648 
9.404838e+2, 2.2502531e+2, -733459.7, -846939.1, 21154.02, -0.0001908333, 0.0016201196, -729644.56, 5106.71, 0.0, 5.0299215, 4.9555383 
9.404149e+2, 2.299802e+2, -682856.0, -797052.7, 21839.088, 0.00033348595, 0.001287063, -678822.0, 7371.8486, 0.0, 5.0304418, 4.955553 
9.40346e+2, 2.3493508e+2, -632344.4, -747216.44, 22505.164, 0.0008528832, 0.0009709423, -628092.6, 9543.731, 0.0, 5.0309324, 4.9555674 
9.4027704e+2, 2.3988988e+2, -583180.6, -700243.06, 23091.861, 0.0015019714, 0.00073529, -578790.1, 10289.354, 0.0, 5.0313945, 4.9546003 
9.402024e+2, 2.4483904e+2, -544648.3, -677840.75, 15454.912, 0.0013161979, 0.0047043124, -542878.5, -2300.7437, 0.0, 5.0318346, 4.945115 
9.401218e+2, 2.4978292e+2, -495557.38, -628602.3, 15711.642, 0.00035031675, -0.0015128318, -493727.13, -1599.4458, 0.0, 5.031778, 4.945141 
9.4004124e+2, 2.547268e+2, -446601.6, -579461.3, 16089.156, -0.0005980902, -0.007716011, -444680.97, -1003.41644, 0.0, 5.0316806, 4.945149 
9.399607e+2, 2.5967085e+2, -398010.1, -530913.4, 16215.617, -0.0012598189, -0.01237953, -396060.22, -834.73425, 0.0, 5.031531, 4.9449735 
9.3987375e+2, 2.6461145e+2, -361094.38, -508044.97, 6910.7773, 0.00019262587, 0.0006618011, -360770.1, -13963.734, 0.0, 5.0310097, 4.9359856 
9.397792e+2, 2.6954845e+2, -314350.44, -457955.1, 6095.0244, 0.004331115, 0.008479961, -314092.22, -15670.251, 0.0, 5.0296736, 4.9368486 
9.396846e+2, 2.744854e+2, -268921.5, -410390.66, 6175.3906, 0.008322318, 0.015901681, -268652.47, -18614.633, 0.0, 5.0282536, 4.9368453 
9.3959e+2, 2.79422e+2, -223622.7, -362859.38, 6387.1816, 0.010885208, 0.019389967, -223330.31, -21672.396, 0.0, 5.026768, 4.9368534 
9.394895e+2, 2.8435177e+2, -187996.64, -336312.94, -947.5845, -0.0002628679, -0.000974411, -187990.6, -34644.06, 0.0, 5.0248756, 4.929639 
9.3938255e+2, 2.8927895e+2, -143558.83, -285001.34, -1884.0386, -0.015108921, -0.038019177, -143533.73, -38472.793, 0.0, 5.022226, 4.9314528 
9.392757e+2, 2.9420617e+2, -101615.79, -238852.38, -2080.782, -0.03004432, -0.075616166, -101584.24, -44809.117, 0.0, 5.01946, 4.9314613 
9.3916917e+2, 2.991346e+2, -61313.273, -196069.42, -2918.1436, -0.041160412, -0.0985556, -61250.113, -52773.0, 0.0, 5.0165925, 4.930294 
9.3906504e+2, 3.0408692e+2, -16042.08, -109472.055, -6099.595, -0.004457974, 0.014049622, -15645.549, -15645.549, 0.0, 5.0139475, 4.9538016 
9.389607e+2, 3.090535e+2, -21701.238, -106885.92, -5938.495, 0.04558403, 0.113586806, -21289.24, -21289.24, 0.0, 5.0108643, 4.956069 
9.388563e+2, 3.1402043e+2, -30755.127, -111009.945, -5225.309, 0.093629874, 0.21647795, -30416.342, -30416.342, 0.0, 5.007534, 4.956009 
9.387322e+2, 3.1893754e+2, 2744.6426, -18628.97, 5963.376, -0.07968971, -0.18286078, 4295.8784, 4295.8784, 0.0, 5.004777, 4.9908 
9.467495e+2, 1.2548675e+2, -1702813.3, -1721991.4, 1967.754, 0.00031322296, -0.0027157012, -1702613.4, 7612.1846, 0.0, 5.0123916, 4.9995832 
9.4668025e+2, 1.304856e+2, -1650564.8, -1671351.4, 2433.9204, 0.0032156971, -0.004499544, -1650283.5, 10953.996, 0.0, 5.0135193, 4.9996066 
9.466108e+2, 1.3548452e+2, -1598338.6, -1620738.0, 2900.115, 0.0049915016, -0.0057753315, -1597969.3, 14279.67, 0.0, 5.0146437, 4.99963 
9.46541e+2, 1.4048344e+2, -1548343.6, -1574671.5, 4617.704, 0.004179757, -0.0052288026, -1547557.3, 15702.969, 0.0, 5.015736, 4.9981666 
9.464759e+2, 1.4547767e+2, -1506855.4, -1545212.0, 10152.055, -0.0017832454, 0.00009999135, -1504334.1, 9983.36, 0.0, 5.0165315, 4.9913063 
9.464141e+2, 1.5046859e+2, -1455687.1, -1495136.8, 10745.292, 0.00020980055, 0.00041326007, -1452950.1, 12456.751, 0.0, 5.017293, 4.991316 
9.4635236e+2, 1.5545952e+2, -1404532.1, -1445079.8, 11338.297, 0.0021009408, 0.0008168639, -1401576.9, 14919.408, 0.0, 5.0180535, 4.9913254 
9.462905e+2, 1.6045038e+2, -1354612.3, -1397577.5, 12245.935, 0.004179639, 0.001398719, -1351367.1, 16219.229, 0.0, 5.0188017, 4.990493 
9.4623065e+2, 1.6543677e+2, -1313269.8, -1367883.0, 15477.775, 0.005290366, 0.0026416963, -1309188.3, 9530.923, 0.0, 5.0195293, 4.9836593 
9.4617194e+2, 1.7041972e+2, -1262141.4, -1317705.5, 16193.73, 0.0043851673, -0.000062642415, -1257766.3, 12119.521, 0.0, 5.0202646, 4.983703 
9.461132e+2, 1.7540273e+2, -1211025.3, -1267547.3, 16909.205, 0.003455311, -0.0024920383, -1206352.9, 14699.061, 0.0, 5.021, 4.9837465 
9.460544e+2, 1.803858e+2, -1161257.8, -1220259.6, 17454.652, 0.0027311163, -0.0031662653, -1156480.9, 15736.772, 0.0, 5.0217347, 4.982825 
9.4599587e+2, 1.853646e+2, -1120481.0, -1191903.8, 19488.826, 0.0030709682, 0.0026479766, -1115509.3, 7917.125, 0.0, 5.0224786, 4.9754086 
9.4593793e+2, 1.9033954e+2, -1069006.1, -1141512.4, 20585.754, 0.003553093, 0.002545271, -1063569.3, 11104.156, 0.0, 5.0233207, 4.9754643 
9.4587994e+2, 1.953145e+2, -1017547.9, -1091141.0, 21681.656, 0.004111018, 0.0025479535, -1011635.2, 14284.823, 0.0, 5.024162, 4.97552 
9.458218e+2, 2.0028943e+2, -967055.9, -1042974.1, 22084.71, 0.004411604, 0.0026546784, -961098.8, 16067.777, 0.0, 5.02502, 4.9748254 
9.4576144e+2, 2.0525958e+2, -926147.8, -1016027.7, 22168.844, 0.0029797677, 0.004569591, -920977.3, 7481.3047, 0.0, 5.025953, 4.966806 
9.4570047e+2, 2.1022555e+2, -874472.06, -965600.3, 23347.738, 0.002514085, 0.0017517613, -868838.44, 10952.77, 0.0, 5.026866, 4.966839 
9.4563955e+2, 2.1519156e+2, -822814.44, -915193.4, 24525.021, 0.0022727812, -0.0010009408, -816707.2, 14416.444, 0.0, 5.027778, 4.966872 
9.4557846e+2, 2.2015755e+2, -772259.06, -867180.94, 25198.04, 0.002126809, -0.0028137544, -765984.7, 16471.469, 0.0, 5.02868, 4.966096 
9.455131e+2, 2.2511853e+2, -732450.2, -843268.2, 22180.08, 0.0011283568, 0.0012667585, -728175.75, 5662.775, 0.0, 5.029587, 4.9569855 
9.454448e+2, 2.300748e+2, -680968.4, -792925.0, 23746.44, 0.00083417585, 0.0008789925, -676139.9, 9127.11, 0.0, 5.030428, 4.957013 
9.453765e+2, 2.3503108e+2, -629503.5, -742600.44, 25309.752, 0.000685778, 0.00075098744, -624097.8, 12597.525, 0.0, 5.031267, 4.9570417 
9.4530815e+2, 2.3998727e+2, -579350.3, -695199.44, 26915.818, 0.000654041, 0.0006376426, -573402.25, 14722.484, 0.0, 5.0321083, 4.956052 
9.45234e+2, 2.4493751e+2, -539698.8, -672609.75, 20012.45, -0.000053605494, 0.0031665347, -536750.9, 2861.4995, 0.0, 5.0330677, 4.946366 
9.451538e+2, 2.4988264e+2, -489063.53, -622506.75, 21356.824, -0.00013795347, -0.0018833852, -485728.8, 5421.371, 0.0, 5.0335803, 4.94643 
9.450735e+2, 2.5482777e+2, -438469.2, -572482.9, 22782.916, -0.00034393862, -0.0070869573, -434701.9, 7986.1187, 0.0, 5.0340896, 4.9464726 
9.4499314e+2, 2.5977305e+2, -388179.94, -522999.6, 23818.775, -0.00026118552, -0.011110591, -384095.56, 10128.639, 0.0, 5.034564, 4.9463477 
9.4490564e+2, 2.6471418e+2, -351445.13, -501673.4, 14424.519, 0.0012746092, -0.00074032845, -350072.66, -4272.9717, 0.0, 5.034289, 4.936695 
9.4480973e+2, 2.6965132e+2, -304397.97, -451274.3, 14272.081, 0.0048556444, 0.0038869563, -303024.0, -5610.4067, 0.0, 5.0330663, 4.9376187 
9.447139e+2, 2.7458853e+2, -258522.16, -403416.56, 14983.987, 0.009033846, 0.008710256, -256988.84, -7961.7715, 0.0, 5.0318246, 4.9376435 
9.44618e+2, 2.7952552e+2, -212549.52, -355379.63, 15691.304, 0.012184456, 0.010774448, -210845.98, -10202.659, 0.0, 5.030573, 4.9377337 
9.4451505e+2, 2.844563e+2, -178098.31, -330323.03, 8143.135, -0.00086577924, -0.0029869121, -177663.94, -25341.898, 0.0, 5.0284376, 4.9300776 
9.44405e+2, 2.893845e+2, -135744.03, -280100.6, 7424.217, -0.016190201, -0.030340122, -135363.22, -31336.559, 0.0, 5.025068, 4.9318275 
9.44295e+2, 2.9431272e+2, -95522.43, -234702.25, 7539.3765, -0.03100334, -0.059049144, -95115.22, -39383.418, 0.0, 5.0216765, 4.9318466 
9.441855e+2, 2.992418e+2, -56449.668, -191877.1, 7036.1177, -0.04017019, -0.07659958, -56085.09, -48657.67, 0.0, 5.018252, 4.9309382 
9.440786e+2, 3.04192e+2, -13194.075, -106502.664, 3040.2463, -0.00013058998, 0.014402924, -13095.121, -13095.121, 0.0, 5.0150137, 4.9542627 
9.4397116e+2, 3.0915567e+2, -19147.572, -103895.305, 2090.6382, 0.05049406, 0.08573874, -19096.03, -19096.03, 0.0, 5.011789, 4.956601 
9.438637e+2, 3.141195e+2, -27909.088, -107868.52, 1595.6282, 0.101673864, 0.1576938, -27877.26, -27877.26, 0.0, 5.008545, 4.9565673 
9.437355e+2, 3.190377e+2, 15594.993, 16006.397, 10026.476, -0.080865875, -0.26939982, 25829.281, 25829.281, 0.0, 5.0042176, 5.0037374 
9.5176125e+2, 1.2555827e+2, -1701477.6, -1719557.9, 2752.6108, -0.0022692431, -0.0015497042, -1701067.9, 8458.419, 0.0, 5.012441, 5.0003724 
9.516932e+2, 1.3055782e+2, -1649242.8, -1668932.3, 3233.6155, 0.0019072888, -0.004196213, -1648725.4, 11805.567, 0.0, 5.0135684, 5.0003943 
9.516249e+2, 1.3555741e+2, -1597030.4, -1618333.3, 3714.6487, 0.0047000893, -0.0062819463, -1596401.3, 15133.777, 0.0, 5.0146923, 5.0004168 
9.5155627e+2, 1.4055704e+2, -1547129.9, -1572419.9, 5431.4224, 0.0043837903, -0.0063367207, -1546012.8, 16526.379, 0.0, 5.0157785, 4.9989076 
9.5149213e+2, 1.4555201e+2, -1505664.5, -1542862.4, 10688.467, -0.0018849536, -0.0010173487, -1502812.0, 10776.814, 0.0, 5.016551, 4.9920883 
9.5143104e+2, 1.5054376e+2, -1454512.1, -1492805.8, 11289.269, -0.000096285425, 0.00011339, -1451431.8, 13238.091, 0.0, 5.0173116, 4.992096 
9.5136994e+2, 1.5553553e+2, -1403373.0, -1442767.3, 11889.843, 0.0015246492, 0.0013525506, -1400062.6, 15688.261, 0.0, 5.0180707, 4.992103 
9.5130885e+2, 1.605272e+2, -1353491.1, -1395288.9, 12815.343, 0.0033515526, 0.0025070687, -1349874.8, 16958.176, 0.0, 5.018812, 4.9912667 
9.5124984e+2, 1.6551441e+2, -1311971.5, -1365125.1, 15973.887, 0.0044331374, 0.0033734918, -1307540.4, 10418.117, 0.0, 5.0195274, 4.984593 
9.5119184e+2, 1.7049827e+2, -1260851.8, -1314956.4, 16696.709, 0.0036800995, 0.0006805198, -1256114.0, 13002.69, 0.0, 5.020263, 4.984637 
9.5113385e+2, 1.7548218e+2, -1209744.4, -1264806.9, 17419.057, 0.0028698163, -0.0017507859, -1204696.6, 15577.88, 0.0, 5.0209985, 4.984681 
9.5107573e+2, 1.8046616e+2, -1159766.1, -1217066.0, 17973.598, 0.0022164788, -0.0026831545, -1154594.9, 16836.674, 0.0, 5.0217338, 4.983914 
9.51018e+2, 1.8544614e+2, -1118561.1, -1187777.6, 20083.393, 0.0025894663, 0.0019363477, -1113156.0, 9472.166, 0.0, 5.022477, 4.9768105 
9.5096093e+2, 1.9042243e+2, -1067096.8, -1137397.9, 21185.373, 0.0033401782, 0.0015850125, -1061206.1, 12654.763, 0.0, 5.02332, 4.976867 
9.509039e+2, 1.9539878e+2, -1015648.94, -1087038.1, 22286.326, 0.0041140364, 0.0013172419, -1009262.8, 15830.356, 0.0, 5.024163, 4.976924 
9.508466e+2, 2.0037505e+2, -965218.9, -1038984.3, 22702.504, 0.004406061, 0.0011622795, -958791.8, 17534.24, 0.0, 5.0250206, 4.976195 
9.50787e+2, 2.0534655e+2, -924165.5, -1011649.44, 22803.463, 0.0021724086, 0.002401142, -918578.4, 9026.856, 0.0, 5.0259457, 4.9683113 
9.507269e+2, 2.1031404e+2, -872498.9, -961236.3, 23988.951, 0.001460107, -0.000021791717, -866428.94, 12494.736, 0.0, 5.026861, 4.968344 
9.5066684e+2, 2.1528156e+2, -820850.44, -910843.6, 25172.832, 0.0008538524, -0.0024230357, -814287.7, 15954.367, 0.0, 5.027776, 4.968377 
9.506067e+2, 2.2024909e+2, -770143.7, -862474.94, 25769.186, 0.0005270743, -0.003780023, -763438.56, 18121.508, 0.0, 5.028676, 4.9677286 
9.505423e+2, 2.2521204e+2, -729906.75, -837551.5, 22749.197, 0.0009789516, 0.0014603153, -725296.5, 7626.3677, 0.0, 5.029575, 4.9589624 
9.504748e+2, 2.3017038e+2, -678431.8, -787222.6, 24325.908, 0.00065405184, 0.0018779439, -673240.2, 11090.505, 0.0, 5.0304203, 4.9589906 
9.504073e+2, 2.3512875e+2, -626973.8, -736912.56, 25899.566, 0.00029318733, 0.0024486147, -621177.94, 14560.57, 0.0, 5.0312634, 4.9590197 
9.503398e+2, 2.4008693e+2, -576824.1, -689514.2, 27624.912, -0.00027435352, 0.0025706813, -570416.5, 16731.438, 0.0, 5.0321083, 4.9580345 
9.5026636e+2, 2.4503885e+2, -537413.0, -667369.2, 20294.742, -0.0016743834, 0.0027981354, -534317.4, 4301.6934, 0.0, 5.0330577, 4.948198 
9.5018667e+2, 2.4998584e+2, -486800.84, -617316.44, 21706.8, -0.0014733259, -0.0015246075, -483285.34, 6853.4297, 0.0, 5.033574, 4.9482493 
9.501069e+2, 2.549328e+2, -436206.88, -567300.0, 23152.701, -0.0016074291, -0.0061119827, -432237.97, 9420.567, 0.0, 5.034088, 4.948294 
9.500271e+2, 2.598799e+2, -386086.28, -518148.78, 24021.195, -0.001318185, -0.0097846165, -381852.72, 11324.343, 0.0, 5.034558, 4.94806 
9.499391e+2, 2.6482213e+2, -350261.25, -498970.97, 13389.824, 0.0011379551, -0.0012785614, -349065.25, -4323.4634, 0.0, 5.0342813, 4.93766 
9.498419e+2, 2.6975995e+2, -303225.56, -448610.94, 13303.325, 0.0049345745, 0.000635123, -302018.28, -5668.9453, 0.0, 5.033062, 4.9385734 
9.497448e+2, 2.746978e+2, -257345.39, -400762.1, 14028.826, 0.009133343, 0.0027572962, -255986.0, -8029.551, 0.0, 5.031824, 4.938597 
9.496476e+2, 2.7963555e+2, -211288.44, -352593.88, 14616.447, 0.011729398, 0.0030448001, -209792.38, -10227.334, 0.0, 5.0305815, 4.938736 
9.495421e+2, 2.845678e+2, -177209.86, -328797.53, 5653.2085, -0.003291209, -0.004367792, -176999.33, -25769.518, 0.0, 5.0284877, 4.9306326 
9.494288e+2, 2.8949744e+2, -135069.61, -279138.6, 4862.0703, -0.017545383, -0.020999804, -134905.7, -31984.826, 0.0, 5.0251236, 4.932186 
9.493155e+2, 2.9442698e+2, -94841.96, -233770.39, 5008.8755, -0.031704254, -0.0389316, -94661.61, -40049.008, 0.0, 5.021737, 4.9321966 
9.492028e+2, 2.993571e+2, -55601.6, -190704.42, 4643.3784, -0.03939803, -0.050063442, -55442.2, -49143.586, 0.0, 5.0183377, 4.931367 
9.490925e+2, 3.0430448e+2, -13254.054, -107146.914, 75.01646, 0.0029749188, 0.014159721, -13253.993, -13253.993, 0.0, 5.0150585, 4.9540453 
9.4898146e+2, 3.0926457e+2, -19365.916, -104600.66, -399.8784, 0.050880734, 0.05561326, -19364.04, -19364.04, 0.0, 5.011777, 4.9563847 
9.4887036e+2, 3.1422493e+2, -28288.803, -108708.38, -676.67883, 0.098196924, 0.09931986, -28283.11, -28283.11, 0.0, 5.008485, 4.956325 
9.487376e+2, 3.1915614e+2, 1485.2036, -16722.785, 7807.139, -0.09216603, -0.16736366, 4374.2964, 4374.2964, 0.0, 5.0041223, 4.9916835 
9.5677304e+2, 1.256298e+2, -1700147.6, -1717121.1, 3537.9734, -0.004448435, -0.00004117436, -1699439.8, 9387.084, 0.0, 5.012491, 5.0011606 
9.5670617e+2, 1.3063003e+2, -1647926.5, -1666509.9, 4033.8135, 0.0010344458, -0.003721631, -1647088.6, 12735.548, 0.0, 5.0136175, 5.001181 
9.566391e+2, 1.3563032e+2, -1595727.6, -1615925.3, 4529.682, 0.004876442, -0.0067887325, -1594758.4, 16062.708, 0.0, 5.014741, 5.001202 
9.5657164e+2, 1.4063063e+2, -1545963.9, -1570258.6, 6227.0215, 0.0049314727, -0.0074527287, -1544460.8, 17357.076, 0.0, 5.015821, 4.999616 
9.565083e+2, 1.4562634e+2, -1504476.0, -1540512.9, 11227.077, -0.002066267, -0.001965652, -1501264.5, 11595.688, 0.0, 5.016571, 4.992869 
9.5644796e+2, 1.5061896e+2, -1453339.5, -1490474.8, 11835.44, -0.00039368396, -0.00015440876, -1449888.1, 14044.587, 0.0, 5.01733, 4.992874 
9.5638764e+2, 1.5561157e+2, -1402216.3, -1440454.6, 12443.58, 0.0010453443, 0.0017832828, -1398523.4, 16482.004, 0.0, 5.0180883, 4.9928794 
9.5632726e+2, 1.6060401e+2, -1352436.8, -1393136.0, 13376.754, 0.0026558111, 0.003529672, -1348433.9, 17645.834, 0.0, 5.018823, 4.9919934 
9.562689e+2, 1.6559204e+2, -1310674.6, -1362368.5, 16470.49, 0.0035321733, 0.0043146634, -1305872.9, 11324.859, 0.0, 5.019526, 4.9855247 
9.562117e+2, 1.705768e+2, -1259563.6, -1312208.6, 17200.18, 0.002939054, 0.0014913995, -1254442.3, 13905.474, 0.0, 5.020262, 4.9855685 
9.5615447e+2, 1.755616e+2, -1208465.0, -1262067.9, 17929.398, 0.0022560842, -0.0010835857, -1203020.9, 16476.361, 0.0, 5.020997, 4.985613 
9.560972e+2, 1.805465e+2, -1158276.3, -1213875.6, 18494.498, 0.0016576885, -0.0023175925, -1152686.3, 17959.316, 0.0, 5.0217333, 4.985001 
9.5604014e+2, 1.8552767e+2, -1116643.3, -1183653.4, 20678.951, 0.0019866442, 0.0012324761, -1110775.6, 11054.1455, 0.0, 5.022476, 4.978212 
9.5598394e+2, 1.9050534e+2, -1065189.3, -1133285.3, 21785.98, 0.0029835727, 0.0005299102, -1058815.9, 14232.427, 0.0, 5.02332, 4.978269 
9.559277e+2, 1.9548304e+2, -1013751.9, -1082937.3, 22891.984, 0.0039509437, -0.000110997185, -1006863.25, 17403.018, 0.0, 5.0241637, 4.978327 
9.5587134e+2, 2.0046066e+2, -963449.56, -1035140.1, 23309.07, 0.004312749, -0.00046289404, -956537.4, 18948.021, 0.0, 5.0250216, 4.9775143 
9.5581263e+2, 2.0543355e+2, -922185.75, -1007272.56, 23439.818, 0.0018365337, 0.00047929242, -916155.8, 10595.874, 0.0, 5.025939, 4.9698157 
9.5575345e+2, 2.1040256e+2, -870528.25, -956873.7, 24631.904, 0.0008685781, -0.0016381918, -863995.7, 14060.3955, 0.0, 5.026857, 4.969848 
9.5569426e+2, 2.1537156e+2, -818889.0, -906495.3, 25822.383, -0.000111810004, -0.003777526, -811844.2, 17516.166, 0.0, 5.0277734, 4.9698815 
9.5563495e+2, 2.2034064e+2, -768058.1, -857830.6, 26333.25, -0.00071902934, -0.004706893, -760903.9, 19759.994, 0.0, 5.028672, 4.9693403 
9.555714e+2, 2.2530551e+2, -727368.25, -831836.3, 23320.576, 0.00040426615, 0.0014006274, -722398.75, 9608.766, 0.0, 5.0295634, 4.9609385 
9.5550483e+2, 2.3026593e+2, -675900.06, -781521.75, 24907.646, 0.000033037886, 0.0025005653, -670321.06, 13073.675, 0.0, 5.0304127, 4.9609675 
9.554382e+2, 2.3522635e+2, -624449.0, -731226.06, 26491.656, -0.0005561657, 0.0036465607, -618237.7, 16544.281, 0.0, 5.0312605, 4.9609976 
9.5537144e+2, 2.4018656e+2, -574343.75, -683929.8, 28309.125, -0.0015968754, 0.004084895, -567462.75, 18708.637, 0.0, 5.0321093, 4.959983 
9.552987e+2, 2.4514027e+2, -535143.4, -662152.3, 20590.563, -0.0032659944, 0.0033602496, -531888.7, 5736.24, 0.0, 5.033047, 4.950019 
9.5521957e+2, 2.500891e+2, -484543.06, -612126.6, 22060.33, -0.0028582956, -0.0005693295, -480836.34, 8290.254, 0.0, 5.0335684, 4.9500656 
9.551403e+2, 2.550379e+2, -433949.47, -562117.6, 23526.037, -0.002999283, -0.0048771207, -429767.56, 10860.833, 0.0, 5.034087, 4.9501123 
9.55061e+2, 2.599868e+2, -384147.94, -513639.7, 24173.754, -0.0024326735, -0.008480367, -379782.3, 12347.098, 0.0, 5.0345507, 4.94965 
9.549724e+2, 2.6493004e+2, -349041.88, -496178.6, 12365.467, 0.0010837787, -0.0016412345, -348009.9, -4326.0835, 0.0, 5.034273, 4.938655 
9.5487404e+2, 2.6986852e+2, -302056.38, -445945.63, 12340.524, 0.005084564, -0.0025842288, -301005.7, -5720.634, 0.0, 5.0330577, 4.939526 
9.547757e+2, 2.7480707e+2, -256171.84, -398105.7, 13079.625, 0.009276721, -0.0033329895, -254976.58, -8090.73, 0.0, 5.031824, 4.9395485 
9.5467716e+2, 2.7974564e+2, -210087.03, -349929.72, 13654.613, 0.011283581, -0.0046125767, -208766.22, -10279.686, 0.0, 5.030589, 4.9396925 
9.5456916e+2, 2.8467932e+2, -176324.14, -327285.88, 3072.6091, -0.005674437, -0.005363788, -176261.63, -26124.38, 0.0, 5.02854, 4.9311786 
9.544525e+2, 2.8961036e+2, -134398.84, -278174.34, 2317.4272, -0.018867873, -0.01173194, -134361.52, -32546.66, 0.0, 5.0251813, 4.932541 
9.5433587e+2, 2.945413e+2, -94165.164, -232836.22, 2495.892, -0.032376718, -0.019384433, -94120.25, -40627.004, 0.0, 5.021799, 4.9325423 
9.5422006e+2, 2.994723e+2, -55197.62, -190569.03, 2440.3418, -0.038443893, -0.02413611, -55153.64, -49983.035, 0.0, 5.018427, 4.931419 
9.541065e+2, 3.0441678e+2, -13364.824, -107895.9, -3008.6553, 0.0063621914, 0.012333595, -13269.165, -13269.165, 0.0, 5.0151033, 4.953779 
9.5399165e+2, 3.0937323e+2, -19595.76, -105308.28, -2871.6704, 0.05188795, 0.018975263, -19499.658, -19499.658, 0.0, 5.0117645, 4.9561543 
9.5387685e+2, 3.1433004e+2, -28679.453, -109550.89, -2930.338, 0.095765494, 0.029418126, -28573.412, -28573.412, 0.0, 5.0084248, 4.956069 
9.53742e+2, 3.1927592e+2, -5251.6377, -31421.197, 4571.3125, -0.07672509, -0.0678629, -4476.101, -4476.101, 0.0, 5.0038853, 4.9863353 
9.6178496e+2, 1.257012e+2, -1702262.6, -1716301.9, 4454.439, -0.0032896628, 0.0005038349, -1700968.5, 7159.7764, 0.0, 5.0114384, 5.001924 
9.617192e+2, 1.3070224e+2, -1649233.6, -1665317.8, 5045.5825, 0.0017035487, -0.0030967416, -1647781.9, 11335.721, 0.0, 5.0128336, 5.0019374 
9.6165323e+2, 1.3570333e+2, -1596608.4, -1614549.1, 5598.629, 0.0055496516, -0.0060058157, -1595004.6, 15101.803, 0.0, 5.014102, 5.0019507 
9.615869e+2, 1.4070438e+2, -1546857.0, -1569021.0, 7310.767, 0.005696014, -0.006549552, -1544662.8, 16432.758, 0.0, 5.015199, 5.000318 
9.6152437e+2, 1.4570075e+2, -1505140.8, -1538934.8, 12150.769, -0.0022279674, -0.0016565932, -1501225.5, 10905.377, 0.0, 5.015971, 4.993681 
9.6146476e+2, 1.5069413e+2, -1453869.1, -1488841.0, 12768.549, -0.000495737, -0.00025151696, -1449703.4, 13492.501, 0.0, 5.016776, 4.993684 
9.614052e+2, 1.5568751e+2, -1402705.5, -1438809.9, 13398.213, 0.0010558504, 0.0013161442, -1398276.8, 15984.08, 0.0, 5.0175486, 4.993687 
9.6134555e+2, 1.6068074e+2, -1353012.1, -1391710.4, 14394.839, 0.0026805024, 0.002954802, -1348244.9, 17082.697, 0.0, 5.018291, 4.9927254 
9.6128803e+2, 1.6566962e+2, -1310772.8, -1360172.8, 17480.975, 0.0030151175, 0.0042367326, -1305212.6, 11224.834, 0.0, 5.0190434, 4.9864907 
9.612316e+2, 1.7065534e+2, -1259610.3, -1310008.1, 18229.219, 0.0024503015, 0.0015386482, -1253707.9, 13870.581, 0.0, 5.0197988, 4.9865303 
9.61175e+2, 1.7564109e+2, -1208539.8, -1259898.5, 18980.4, 0.0018639403, -0.0010214311, -1202286.6, 16432.424, 0.0, 5.0205264, 4.9865704 
9.6111846e+2, 1.8062694e+2, -1158305.8, -1211408.1, 19550.707, 0.0012745865, -0.0024168016, -1151884.3, 17974.05, 0.0, 5.0212216, 4.9860797 
9.6106225e+2, 1.856093e+2, -1116428.4, -1180385.9, 21706.158, 0.0012343038, 0.00059984456, -1109757.5, 11272.778, 0.0, 5.0219145, 4.979581 
9.610069e+2, 1.9058836e+2, -1065124.3, -1130107.4, 22678.695, 0.0022948147, 0.000014383348, -1057992.3, 14242.423, 0.0, 5.02271, 4.9796343 
9.6095157e+2, 1.9556741e+2, -1013891.56, -1079873.6, 23642.313, 0.0033586936, -0.00052082486, -1006294.8, 17143.906, 0.0, 5.023486, 4.9796877 
9.60896e+2, 2.0054637e+2, -963944.06, -1032398.6, 23945.826, 0.00393307, -0.0006388349, -956399.2, 18245.105, 0.0, 5.0242505, 4.9788113 
9.6083814e+2, 2.0552067e+2, -922507.75, -1003827.75, 24230.43, 0.0018444484, 0.00008567223, -915835.44, 10061.735, 0.0, 5.0251064, 4.9713793 
9.6077985e+2, 2.1049121e+2, -870909.5, -953456.75, 25549.33, 0.000680097, -0.0020986523, -863641.56, 13545.331, 0.0, 5.026006, 4.9714127 
9.6072155e+2, 2.1546178e+2, -819416.06, -903143.94, 26874.156, -0.0005262969, -0.004296448, -811532.56, 16944.027, 0.0, 5.0268755, 4.9714475 
9.6066314e+2, 2.204324e+2, -768616.56, -854345.4, 27450.982, -0.0013614971, -0.005123351, -760580.0, 19185.172, 0.0, 5.0277367, 4.9709716 
9.606004e+2, 2.2539912e+2, -726925.2, -827063.2, 24473.576, -0.00043026725, 0.0011436001, -721263.94, 9826.631, 0.0, 5.028818, 4.96292 
9.6053475e+2, 2.3036157e+2, -674971.06, -776538.94, 26010.063, -0.00060498435, 0.0025889045, -668697.75, 13759.83, 0.0, 5.0298443, 4.962947 
9.60469e+2, 2.3532403e+2, -623166.2, -726092.9, 27554.555, -0.00087776565, 0.004011984, -616253.75, 17570.93, 0.0, 5.0308237, 4.962975 
9.6040326e+2, 2.4028625e+2, -572932.1, -678835.9, 29368.693, -0.0015539681, 0.0048333053, -565333.06, 19861.178, 0.0, 5.031747, 4.961919 
9.603312e+2, 2.4524191e+2, -533805.3, -657286.56, 21356.59, -0.0035667103, 0.0045933053, -530215.94, 6412.8013, 0.0, 5.032715, 4.9518533 
9.602525e+2, 2.5019255e+2, -483116.16, -607269.7, 22774.217, -0.0038275148, 0.00089009607, -479070.4, 9042.032, 0.0, 5.0332737, 4.95189 
9.601738e+2, 2.5514323e+2, -432673.22, -557375.6, 24146.889, -0.0043053986, -0.0030657202, -428160.8, 11435.44, 0.0, 5.0337453, 4.9519267 
9.600949e+2, 2.6009387e+2, -383494.84, -509930.34, 24446.96, -0.0032856893, -0.0063673374, -378932.5, 12147.355, 0.0, 5.034129, 4.9511423 
9.600058e+2, 2.6503822e+2, -347761.44, -493230.75, 11708.803, 0.0012960454, -0.001010944, -346825.03, -4200.946, 0.0, 5.0342593, 4.939706 
9.5990634e+2, 2.699774e+2, -299858.53, -442756.0, 11860.503, 0.005803685, -0.0049172323, -298880.8, -4662.2944, 0.0, 5.0334144, 4.9405046 
9.598068e+2, 2.749166e+2, -253404.92, -394689.63, 12699.792, 0.010495512, -0.008615331, -252272.44, -6459.7036, 0.0, 5.0323977, 4.9405174 
9.597071e+2, 2.79856e+2, -207379.83, -346786.2, 13290.475, 0.012440713, -0.0111566745, -206124.08, -8718.886, 0.0, 5.0311923, 4.9405603 
9.5959646e+2, 2.8479108e+2, -174112.98, -325161.6, 912.0168, -0.0072007636, -0.005455193, -174107.48, -25064.744, 0.0, 5.029097, 4.93172 
9.5947635e+2, 2.8972334e+2, -132616.81, -276681.63, 231.548, -0.020137418, -0.002664125, -132616.44, -31908.283, 0.0, 5.0256715, 4.932887 
9.593563e+2, 2.9465556e+2, -93018.63, -231618.25, 417.69882, -0.033043724, -0.00087176316, -93017.375, -40643.227, 0.0, 5.0220594, 4.932889 
9.5923734e+2, 2.995873e+2, -55770.164, -191167.7, 838.5883, -0.036913868, 0.0006428901, -55764.973, -51720.824, 0.0, 5.0182915, 4.931266 
9.5912033e+2, 3.0452904e+2, -14990.458, -109269.555, -5265.9097, 0.010362447, 0.009344427, -14697.245, -14697.245, 0.0, 5.0146375, 4.9534535 
9.590017e+2, 3.0948207e+2, -23358.06, -107408.88, -4587.4404, 0.055074934, -0.022305394, -23108.422, -23108.422, 0.0, 5.010458, 4.9559293 
9.5888317e+2, 3.1443545e+2, -36430.008, -113485.06, -4425.915, 0.09847063, -0.04906657, -36176.62, -36176.62, 0.0, 5.005658, 4.9558153 
9.587502e+2, 3.1938934e+2, 9013.074, 17790.217, -2580.4263, -0.010727222, -0.108724035, 18492.633, 18492.633, 0.0, 5.0008087, 5.0057526 
9.667954e+2, 1.2576978e+2, -1707273.4, -1717308.0, 648.7423, 0.0020432489, -0.00007692039, -1707231.6, 225.45438, 0.0, 5.0094914, 5.002513 
9.667306e+2, 1.3077176e+2, -1654645.9, -1666638.8, 812.7349, 0.0035049703, -0.0011838243, -1654591.0, 3846.139, 0.0, 5.010762, 5.0024915 
9.666657e+2, 1.3577375e+2, -1602044.1, -1615997.9, 972.5218, 0.0055142534, -0.0016134911, -1601976.6, 7440.3896, 0.0, 5.012028, 5.0024695 
9.6660054e+2, 1.407756e+2, -1551816.3, -1570136.0, 2268.7117, 0.0055973707, -0.0008685989, -1551539.4, 8858.947, 0.0, 5.013236, 5.000907 
9.6653885e+2, 1.4577246e+2, -1509778.8, -1539943.4, 6702.4326, -0.002573818, 0.001548506, -1508356.5, 3072.4417, 0.0, 5.014059, 4.9943275 
9.664801e+2, 1.507663e+2, -1458652.4, -1489909.9, 7217.318, -0.00040038413, 0.00047029066, -1457066.4, 5422.698, 0.0, 5.014806, 4.9943337 
9.664213e+2, 1.5576015e+2, -1407539.1, -1439894.1, 7737.8105, 0.0017429785, -0.0005144974, -1405783.9, 7765.194, 0.0, 5.015551, 4.99434 
9.6636254e+2, 1.6075392e+2, -1357773.0, -1392755.6, 8685.309, 0.0038922965, -0.00074910966, -1355735.3, 8874.901, 0.0, 5.016305, 4.993384 
9.6630573e+2, 1.6574372e+2, -1315236.6, -1360770.8, 11604.171, 0.003911119, 0.0016020434, -1312449.9, 3261.1206, 0.0, 5.017073, 4.9872975 
9.6624994e+2, 1.7073046e+2, -1264031.0, -1310581.9, 12273.2705, 0.0031656835, 0.000066660716, -1260993.4, 5848.7876, 0.0, 5.0178347, 4.9873376 
9.661942e+2, 1.7571719e+2, -1212838.8, -1260412.1, 12945.887, 0.002394754, -0.001537818, -1209544.1, 8429.003, 0.0, 5.0185957, 4.9873776 
9.661383e+2, 1.8070403e+2, -1162357.1, -1211667.4, 13397.148, 0.0013233654, -0.0023073782, -1158952.4, 10150.522, 0.0, 5.0193405, 4.9869447 
9.660827e+2, 1.8568757e+2, -1120202.5, -1179919.1, 15557.267, 0.00017320507, 0.0013411302, -1116392.6, 3870.6497, 0.0, 5.019992, 4.980715 
9.6602803e+2, 1.90668e+2, -1069129.6, -1129748.1, 16580.53, 0.0009954318, 0.0023177513, -1064890.9, 6563.5093, 0.0, 5.0207067, 4.9807644 
9.659733e+2, 1.9564845e+2, -1018070.7, -1079594.1, 17605.168, 0.001868723, 0.0033815813, -1013389.1, 9255.981, 0.0, 5.0214205, 4.9808145 
9.6591854e+2, 2.0062877e+2, -968010.9, -1031674.6, 17975.559, 0.00261958, 0.0043984447, -963286.1, 10551.344, 0.0, 5.022136, 4.9801097 
9.658615e+2, 2.0560475e+2, -926329.06, -1001735.2, 18655.643, 0.0013987046, 0.004602879, -921966.06, 3107.3438, 0.0, 5.022808, 4.9732337 
9.65804e+2, 2.1057723e+2, -875464.56, -951624.94, 20433.482, 0.00021992813, 0.0018786682, -870328.7, 6015.1714, 0.0, 5.023449, 4.973288 
9.6574646e+2, 2.1554972e+2, -824613.4, -901529.6, 22210.725, -0.00090253307, -0.0008433258, -818660.44, 8953.665, 0.0, 5.024089, 4.9733424 
9.6568877e+2, 2.2052228e+2, -774293.6, -852896.9, 23361.674, -0.0018391017, -0.0025430513, -767874.5, 11009.102, 0.0, 5.024779, 4.9728785 
9.656271e+2, 2.2549106e+2, -731870.0, -824035.44, 21158.652, -0.0017155178, 0.0015959754, -727244.6, 2944.4236, 0.0, 5.0258684, 4.965382 
9.655625e+2, 2.3045595e+2, -680075.7, -773438.7, 23689.3, -0.00044515354, 0.0023595146, -674408.9, 7123.429, 0.0, 5.0268364, 4.965444 
9.65498e+2, 2.3542085e+2, -628301.9, -722863.9, 26214.086, 0.0011090295, 0.0030089198, -621521.1, 11354.466, 0.0, 5.0278015, 4.965507 
9.654334e+2, 2.4038559e+2, -578007.9, -675246.4, 28836.365, 0.0026314275, 0.003619053, -570099.56, 14121.001, 0.0, 5.028712, 4.9645615 
9.6536213e+2, 2.4534436e+2, -538384.56, -652146.9, 22262.012, 0.0005406753, 0.0051776855, -534183.3, 1441.3704, 0.0, 5.029654, 4.955013 
9.652839e+2, 2.5029826e+2, -486739.84, -601503.5, 25804.969, -0.0021178445, 0.0026854477, -481204.5, 5872.2183, 0.0, 5.030566, 4.9550977 
9.652057e+2, 2.5525215e+2, -435118.0, -550878.7, 29345.361, -0.0038375198, 0.0005798359, -428103.94, 10424.606, 0.0, 5.031473, 4.9551854 
9.651276e+2, 2.6020595e+2, -384461.16, -502667.06, 32077.973, -0.0031806575, -0.001309258, -376317.16, 13663.894, 0.0, 5.032419, 4.9544077 
9.6503866e+2, 2.6515317e+2, -346085.47, -484079.5, 21190.404, 0.00022201825, 0.00053679995, -342904.78, -1407.341, 0.0, 5.0334263, 4.943193 
9.649388e+2, 2.7009538e+2, -296967.03, -433070.13, 24318.848, 0.0074296445, -0.0041466234, -292752.28, 310.60547, 0.0, 5.033127, 4.943909 
9.6483904e+2, 2.750375e+2, -248670.8, -383821.88, 28105.873, 0.014645518, -0.008948229, -243058.95, 1569.6547, 0.0, 5.0328097, 4.9440064 
9.647387e+2, 2.7997988e+2, -201142.53, -335576.06, 31110.232, 0.018100275, -0.011191647, -194292.16, 1900.3351, 0.0, 5.032325, 4.943826 
9.646254e+2, 2.8491703e+2, -169831.94, -318415.5, 19187.242, -0.0019353331, -0.0008423312, -167394.2, -19584.83, 0.0, 5.030415, 4.9331975 
9.645019e+2, 2.8985038e+2, -125401.45, -268368.47, 19320.67, -0.020187616, 0.0054222085, -122836.47, -23372.598, 0.0, 5.028048, 4.9344554 
9.643785e+2, 2.9478374e+2, -82467.29, -221789.52, 20140.809, -0.03697112, 0.011577478, -79614.11, -28495.957, 0.0, 5.025667, 4.934465 
9.642562e+2, 2.9971653e+2, -41606.277, -178609.86, 21310.012, -0.04285867, 0.014398867, -38368.176, -35590.12, 0.0, 5.02305, 4.933295 
9.641354e+2, 3.0465686e+2, -4274.1797, -106709.07, 12967.03, 0.007452681, 0.01166564, -2658.202, -2658.202, 0.0, 5.019444, 4.951991 
9.6401286e+2, 3.0960676e+2, -14929.035, -106443.836, 10118.828, 0.064587735, -0.032962017, -13823.547, -13823.547, 0.0, 5.014395, 4.954323 
9.638904e+2, 3.145571e+2, -28610.418, -113207.695, 6884.386, 0.12449965, -0.07335627, -28053.84, -28053.84, 0.0, 5.009305, 4.954134 
9.637473e+2, 3.195197e+2, 19201.914, 21075.854, 3359.1843, -0.049222905, -0.020673506, 23626.295, 23626.295, 0.0, 5.005053, 5.004863 
9.7180456e+2, 1.2583531e+2, -1706497.3, -1716073.8, 1545.5652, 0.0008119247, 0.00045812535, -1706254.0, 561.6553, 0.0, 5.009537, 5.00292 
9.7174096e+2, 1.3083787e+2, -1653860.5, -1665407.4, 1729.9159, 0.0028839428, 0.001543462, -1653606.9, 4183.0776, 0.0, 5.010813, 5.002897 
9.716773e+2, 1.3584046e+2, -1601249.6, -1614769.8, 1910.0576, 0.0051160823, 0.003181224, -1600984.9, 7779.279, 0.0, 5.012084, 5.0028734 
9.716133e+2, 1.408428e+2, -1550909.5, -1568590.1, 3118.2432, 0.0050199004, 0.004746071, -1550375.8, 9365.083, 0.0, 5.013283, 5.0014167 
9.715524e+2, 1.4583994e+2, -1508732.1, -1537863.9, 7240.935, -0.003958992, 0.004157312, -1507031.5, 3736.5852, 0.0, 5.0140743, 4.995018 
9.7149444e+2, 1.5083417e+2, -1457618.0, -1487827.5, 7761.4014, -0.0011206572, 0.000025288313, -1455740.6, 6083.6606, 0.0, 5.014818, 4.995028 
9.714365e+2, 1.558284e+2, -1406517.1, -1437809.0, 8287.478, 0.0016342672, -0.004013634, -1404457.8, 8422.539, 0.0, 5.015561, 4.995038 
9.7137856e+2, 1.6082263e+2, -1356745.6, -1390625.1, 9291.133, 0.0042839805, -0.0063956496, -1354364.9, 9571.696, 0.0, 5.016312, 4.994099 
9.713226e+2, 1.6581334e+2, -1314008.9, -1358223.5, 12137.099, 0.0044137193, -0.0030667922, -1310896.4, 4132.4087, 0.0, 5.017079, 4.988152 
9.712676e+2, 1.7080103e+2, -1262812.0, -1308032.1, 12813.399, 0.003619377, -0.0033392985, -1259433.6, 6716.6865, 0.0, 5.0178394, 4.9881954 
9.712125e+2, 1.7578876e+2, -1211628.5, -1257860.0, 13493.219, 0.0027498014, -0.0037189727, -1207978.5, 9293.183, 0.0, 5.0185995, 4.9882393 
9.711574e+2, 1.8077655e+2, -1161096.0, -1208974.4, 13899.534, 0.0012460252, -0.0032827763, -1157353.4, 11038.528, 0.0, 5.0193415, 4.987856 
9.711023e+2, 1.8576135e+2, -1118448.9, -1176100.9, 16047.595, -0.0011948242, 0.0014103651, -1114283.0, 5257.35, 0.0, 5.0199833, 4.982012 
9.710483e+2, 1.9074321e+2, -1067391.3, -1125941.3, 17075.12, -0.0009805262, 0.00376643, -1062775.5, 7942.201, 0.0, 5.020697, 4.9820623 
9.7099423e+2, 1.957251e+2, -1016347.5, -1075798.5, 18104.021, -0.0007639602, 0.0062038847, -1011268.44, 10626.152, 0.0, 5.0214105, 4.982113 
9.709401e+2, 2.0070684e+2, -966021.5, -1027307.94, 18452.205, -0.00040192757, 0.008096861, -960894.75, 12178.307, 0.0, 5.022128, 4.9816084 
9.7088385e+2, 2.0568474e+2, -923234.1, -995119.44, 19055.727, -0.0006893465, 0.007971062, -918495.1, 5794.764, 0.0, 5.022822, 4.975503 
9.7082704e+2, 2.1065947e+2, -872388.7, -945028.5, 20842.195, -0.001038816, 0.0050724884, -866833.4, 8704.355, 0.0, 5.023464, 4.9755583 
9.7077024e+2, 2.1563423e+2, -821556.7, -894952.56, 22628.06, -0.0014983832, 0.0021297908, -815141.2, 11644.258, 0.0, 5.0241046, 4.975614 
9.707133e+2, 2.2060898e+2, -771254.25, -846325.7, 23956.342, -0.0021577156, -0.00021660348, -764260.94, 13772.1875, 0.0, 5.024796, 4.9751554 
9.706525e+2, 2.2558023e+2, -727641.3, -814782.44, 21807.174, -0.0025125477, 0.0012591765, -722488.7, 6825.835, 0.0, 5.025883, 4.968598 
9.70589e+2, 2.305481e+2, -675861.06, -764215.1, 24353.914, -0.0011478198, 0.000017969069, -669592.9, 11036.135, 0.0, 5.026858, 4.9686594 
9.7052544e+2, 2.3551595e+2, -624101.4, -713669.94, 26894.783, 0.0001504025, -0.0015050328, -616646.2, 15297.427, 0.0, 5.027829, 4.968722 
9.704618e+2, 2.4048369e+2, -573775.94, -665933.3, 29252.697, 0.0011081069, -0.0023746702, -565274.75, 17984.545, 0.0, 5.0287375, 4.967828 
9.7039115e+2, 2.4544661e+2, -532823.7, -639331.4, 22751.273, -0.00057064, 0.0015367523, -528167.3, 6455.4053, 0.0, 5.0296063, 4.959513 
9.703139e+2, 2.504053e+2, -481187.75, -588698.7, 26314.54, -0.0023928606, 0.0020835781, -475092.5, 10935.06, 0.0, 5.030528, 4.9596057 
9.702368e+2, 2.55364e+2, -429574.97, -538084.94, 29875.201, -0.0036840602, 0.0027555483, -421893.44, 15538.827, 0.0, 5.031445, 4.959701 
9.7015953e+2, 2.6032248e+2, -378838.47, -489691.28, 32972.555, -0.003195857, 0.002220524, -369772.4, 19066.793, 0.0, 5.032404, 4.9589987 
9.70071e+2, 2.6527432e+2, -339610.1, -469500.22, 20588.06, -0.0012211286, 0.00046358907, -336424.94, 3885.5293, 0.0, 5.033449, 4.948359 
9.6997106e+2, 2.702213e+2, -290741.38, -419049.88, 23888.213, 0.0069775362, -0.0056086243, -286438.25, 5391.1934, 0.0, 5.0331607, 4.9488897 
9.6987104e+2, 2.751682e+2, -242439.45, -369806.88, 27703.13, 0.014588428, -0.012121794, -236674.78, 6674.074, 0.0, 5.0328574, 4.9489956 
9.697702e+2, 2.8011534e+2, -195620.16, -322941.84, 29794.572, 0.017400512, -0.01445646, -188992.88, 5873.828, 0.0, 5.0323377, 4.948346 
9.696545e+2, 2.8505555e+2, -169301.42, -316199.72, 16950.795, -0.0009372343, 0.00086669077, -167370.81, -20917.578, 0.0, 5.030264, 4.9340215 
9.6952796e+2, 2.8999037e+2, -124533.234, -265521.0, 17461.297, -0.024868054, 0.011063396, -122402.84, -24309.906, 0.0, 5.02793, 4.935491 
9.6940154e+2, 2.9492515e+2, -81498.45, -218905.64, 18372.203, -0.048498582, 0.020703955, -79084.39, -29351.69, 0.0, 5.0255837, 4.935501 
9.692764e+2, 2.9985946e+2, -40322.47, -175348.17, 18799.832, -0.061027437, 0.026880573, -37753.805, -36376.508, 0.0, 5.0229964, 4.934481 
9.691523e+2, 3.047986e+2, -8178.063, -116460.95, 9669.773, -0.0047308723, 0.021547021, -7321.321, -7321.321, 0.0, 5.019471, 4.948482 
9.6902615e+2, 3.0974436e+2, -18812.574, -116634.83, 6581.469, 0.06958315, -0.02948233, -18371.76, -18371.76, 0.0, 5.0145144, 4.950617 
9.689e+2, 3.146904e+2, -32192.99, -123146.43, 3719.6465, 0.14277774, -0.078180455, -32041.125, -32041.125, 0.0, 5.0095196, 4.9504795 
9.6874005e+2, 3.19669e+2, -3297.279, -28869.94, 9167.843, -0.16294405, 0.22114739, -350.2187, -350.2187, 0.0, 5.0046215, 4.9863563 
9.7681385e+2, 1.2590086e+2, -1705728.6, -1714833.0, 2444.8271, 0.0002968219, 0.0014438229, -1705113.6, 1060.2787, 0.0, 5.009584, 5.0033264 
9.767515e+2, 1.3090402e+2, -1653082.6, -1664169.8, 2649.5247, 0.0030135068, 0.004547408, -1652482.0, 4660.5347, 0.0, 5.0108643, 5.003301 
9.7668904e+2, 1.3590719e+2, -1600462.6, -1613535.3, 2850.01, 0.0055028577, 0.00807843, -1599868.3, 8242.944, 0.0, 5.0121403, 5.0032763 
9.7662616e+2, 1.4090998e+2, -1550061.6, -1567151.9, 3934.463, 0.005070049, 0.010398311, -1549199.4, 9883.751, 0.0, 5.01333, 5.0018888 
9.7656596e+2, 1.4590745e+2, -1507687.4, -1535784.3, 7774.3677, -0.005434207, 0.0068866936, -1505679.6, 4427.702, 0.0, 5.014089, 4.995707 
9.7650886e+2, 1.5090202e+2, -1456585.5, -1485745.1, 8300.413, -0.0019637984, -0.00039937193, -1454388.4, 6771.242, 0.0, 5.014831, 4.995721 
9.764517e+2, 1.5589663e+2, -1405496.9, -1435723.9, 8832.07, 0.0013698238, -0.007592733, -1403105.5, 9106.167, 0.0, 5.0155716, 4.9957347 
9.763946e+2, 1.6089134e+2, -1355752.1, -1388564.6, 9888.1045, 0.0045967805, -0.011992923, -1353002.6, 10260.393, 0.0, 5.016319, 4.9947896 
9.7633946e+2, 1.6588295e+2, -1312782.5, -1355677.1, 12665.837, 0.0050168587, -0.007549684, -1309321.8, 5024.6646, 0.0, 5.017085, 4.989004 
9.7628516e+2, 1.7087162e+2, -1261594.1, -1305483.4, 13349.337, 0.0041366504, -0.0067273793, -1257852.8, 7605.6636, 0.0, 5.017844, 4.9890513 
9.762309e+2, 1.758603e+2, -1210419.3, -1255309.0, 14036.356, 0.003131426, -0.0060504223, -1206391.8, 10178.535, 0.0, 5.0186033, 4.9890985 
9.761764e+2, 1.8084909e+2, -1159879.1, -1206375.6, 14387.679, 0.0011736046, -0.004369769, -1155787.1, 11893.822, 0.0, 5.019343, 4.9887342 
9.7612196e+2, 1.8583514e+2, -1116697.0, -1172284.4, 16536.455, -0.0024883747, 0.0017375463, -1112149.6, 6667.6924, 0.0, 5.0199747, 4.983308 
9.760686e+2, 1.9081843e+2, -1065654.5, -1122136.0, 17568.24, -0.0028746002, 0.005394285, -1060636.0, 9344.84, 0.0, 5.0206876, 4.983359 
9.760152e+2, 1.9580175e+2, -1014626.0, -1072004.6, 18601.408, -0.0033073928, 0.0091265505, -1009123.4, 12020.51, 0.0, 5.0214005, 4.9834104 
9.7596174e+2, 2.007849e+2, -964056.3, -1022989.6, 18950.213, -0.0033643972, 0.011878947, -958488.8, 13819.747, 0.0, 5.02212, 4.983091 
9.759062e+2, 2.0576473e+2, -920144.2, -988507.6, 19456.398, -0.0031836198, 0.0113756, -914994.75, 8511.614, 0.0, 5.0228357, 4.9777713 
9.7585016e+2, 2.1074171e+2, -869317.9, -938436.06, 21251.496, -0.002698778, 0.008201159, -863306.56, 11425.09, 0.0, 5.023479, 4.9778275 
9.757941e+2, 2.1571873e+2, -818504.94, -888379.5, 23045.986, -0.0024906376, 0.0049361484, -811588.56, 14368.248, 0.0, 5.024121, 4.977885 
9.7573787e+2, 2.2069567e+2, -768224.0, -839772.6, 24537.35, -0.0027390292, 0.00195092, -760617.6, 16564.994, 0.0, 5.0248137, 4.9774275 
9.756781e+2, 2.2566946e+2, -723422.7, -805536.8, 22460.672, -0.002494907, 0.0012580187, -717680.56, 10758.828, 0.0, 5.025898, 4.971813 
9.7561556e+2, 2.3064029e+2, -671656.5, -754999.0, 25023.523, -0.0010356818, -0.002157909, -664720.44, 15004.679, 0.0, 5.0268793, 4.971874 
9.7555304e+2, 2.3561108e+2, -619910.8, -704483.4, 27580.502, 0.0000058376067, -0.0060237343, -611711.3, 19299.756, 0.0, 5.027858, 4.971936 
9.754902e+2, 2.4058186e+2, -569662.8, -656879.4, 29603.586, 0.00025255338, -0.008356607, -560563.9, 21733.605, 0.0, 5.028763, 4.971006 
9.754201e+2, 2.455488e+2, -527277.94, -626532.1, 23238.605, -0.0025556036, -0.0025643255, -522106.5, 11514.832, 0.0, 5.0295587, 4.964015 
9.753439e+2, 2.5051227e+2, -475650.72, -575910.2, 26822.203, -0.0037204844, 0.0007389563, -468926.06, 16052.911, 0.0, 5.0304904, 4.964115 
9.7526765e+2, 2.554758e+2, -424046.97, -525307.5, 30403.158, -0.0047636693, 0.0039048316, -415619.84, 20716.73, 0.0, 5.031417, 4.9642186 
9.751915e+2, 2.604389e+2, -373239.88, -476761.7, 33874.5, -0.0042465045, 0.0046561733, -363140.7, 24557.314, 0.0, 5.03239, 4.963582 
9.7510356e+2, 2.653956e+2, -333225.4, -455115.03, 19943.922, -0.0017057954, 0.0014527683, -330045.1, 9077.222, 0.0, 5.033473, 4.9534655 
9.750034e+2, 2.7034733e+2, -284532.88, -405050.06, 23458.834, 0.0071720523, -0.006387886, -280127.6, 10467.31, 0.0, 5.033195, 4.953871 
9.7490317e+2, 2.75299e+2, -236225.22, -355812.38, 27301.684, 0.014875479, -0.014998045, -230287.13, 11780.982, 0.0, 5.032906, 4.9539847 
9.748017e+2, 2.802508e+2, -190435.97, -311062.56, 28132.578, 0.01716952, -0.017477289, -184197.52, 9342.934, 0.0, 5.0323462, 4.952603 
9.746831e+2, 2.851939e+2, -168775.89, -313931.9, 14806.439, -0.0011457199, 0.0018554478, -167280.98, -22182.398, 0.0, 5.030113, 4.934851 
9.745537e+2, 2.9013014e+2, -123679.164, -262654.38, 15615.31, -0.031012509, 0.014737865, -121946.23, -25222.506, 0.0, 5.0278125, 4.93652 
9.7442436e+2, 2.9506636e+2, -80543.76, -216002.5, 16617.068, -0.06179529, 0.026604842, -78535.086, -30185.809, 0.0, 5.025502, 4.936531 
9.742964e+2, 3.0000252e+2, -39920.195, -174168.75, 16041.694, -0.07989079, 0.04113367, -38029.95, -38029.95, 0.0, 5.0229483, 4.934913 
9.741692e+2, 3.0494076e+2, -11954.144, -125823.75, 6417.7485, -0.014398814, 0.035020363, -11593.577, -11593.577, 0.0, 5.019505, 4.9450946 
9.740396e+2, 3.0988222e+2, -22713.465, -126797.14, 3044.9363, 0.07626802, -0.029644758, -22624.46, -22624.46, 0.0, 5.014643, 4.946901 
9.739099e+2, 3.148239e+2, -35792.363, -133055.33, 556.2056, 0.16173743, -0.09397697, -35789.184, -35789.184, 0.0, 5.0097427, 4.9468155 
9.737398e+2, 3.198121e+2, -4806.142, -26653.98, 14571.338, -0.18290438, 0.3332409, 2481.361, 2481.361, 0.0, 5.0036697, 4.9871826 
9.8182327e+2, 1.2596634e+2, -1706309.3, -1714040.9, 3110.6465, 0.0016103552, 0.0040768594, -1705213.1, 319.56168, 0.0, 5.009154, 5.003824 
9.8176205e+2, 1.3096981e+2, -1654149.9, -1663559.9, 3446.1863, 0.0043635564, 0.0056268745, -1653022.8, 3475.347, 0.0, 5.010261, 5.003818 
9.8170066e+2, 1.359733e+2, -1602062.3, -1613121.6, 3874.3992, 0.006906531, 0.007685861, -1600840.0, 6623.1665, 0.0, 5.0113473, 5.0038133 
9.816389e+2, 1.4097652e+2, -1552055.5, -1567086.6, 5131.5376, 0.006073091, 0.008988461, -1550470.8, 7960.359, 0.0, 5.0124445, 5.0023446 
9.815795e+2, 1.4597452e+2, -1508894.9, -1534906.9, 8662.804, -0.0068800426, 0.0059485594, -1506273.9, 3176.085, 0.0, 5.0134, 4.996325 
9.815232e+2, 1.5096974e+2, -1457356.3, -1484643.0, 9043.195, -0.0030346783, -0.0009752564, -1454631.4, 5864.675, 0.0, 5.014289, 4.996341 
9.814669e+2, 1.5596497e+2, -1406040.0, -1434497.6, 9437.068, 0.000806972, -0.008090027, -1403194.9, 8347.275, 0.0, 5.0151067, 4.9963584 
9.8141056e+2, 1.6096032e+2, -1356343.4, -1387207.1, 10432.458, 0.0046414565, -0.012496808, -1353147.9, 9439.622, 0.0, 5.0158095, 4.9954753 
9.8135626e+2, 1.6595276e+2, -1313559.3, -1353868.8, 13256.775, 0.005589192, -0.0077913348, -1309590.3, 4072.0085, 0.0, 5.0164022, 4.989918 
9.8130274e+2, 1.7094237e+2, -1262875.5, -1303885.0, 14114.274, 0.0048047183, -0.007016176, -1258487.4, 6277.6387, 0.0, 5.0169883, 4.9899745 
9.8124915e+2, 1.75932e+2, -1212305.0, -1253964.6, 14985.074, 0.0039915713, -0.0063304612, -1207474.9, 8392.514, 0.0, 5.017539, 4.990031 
9.811954e+2, 1.8092173e+2, -1162299.8, -1205246.0, 15528.352, 0.002154037, -0.0045648213, -1157273.4, 9695.34, 0.0, 5.018087, 4.9896836 
9.8114157e+2, 1.8590891e+2, -1118489.9, -1170049.8, 17805.45, -0.002017195, 0.001496054, -1112938.6, 5155.422, 0.0, 5.018746, 4.9846363 
9.8108894e+2, 1.9089347e+2, -1067391.3, -1119884.0, 18837.184, -0.0024874574, 0.0046851235, -1061331.0, 7914.327, 0.0, 5.019478, 4.984686 
9.8103625e+2, 1.9587806e+2, -1016378.4, -1069768.1, 19876.451, -0.0030001015, 0.007906549, -1009791.25, 10605.037, 0.0, 5.0201845, 4.9847355 
9.809835e+2, 2.008625e+2, -965708.25, -1020419.56, 20236.375, -0.0031753648, 0.0101854475, -959036.8, 12511.613, 0.0, 5.020881, 4.984541 
9.8092866e+2, 2.0584418e+2, -920619.4, -983666.5, 20428.299, -0.0035385622, 0.009782304, -914579.0, 8148.708, 0.0, 5.021658, 4.9799776 
9.808733e+2, 2.1082343e+2, -869654.94, -933550.5, 21960.938, -0.0025927795, 0.007073721, -862834.9, 11095.903, 0.0, 5.0223513, 4.9800315 
9.808179e+2, 2.1580268e+2, -818873.9, -883526.0, 23510.121, -0.001780687, 0.0042421613, -811228.7, 13904.995, 0.0, 5.022984, 4.9800873 
9.8076254e+2, 2.2078185e+2, -768816.25, -834895.5, 24945.46, -0.0012148984, 0.0014981902, -760456.7, 15880.954, 0.0, 5.0235724, 4.979691 
9.807038e+2, 2.2575834e+2, -723313.1, -798051.7, 22957.658, -0.00017619749, 0.00019032681, -716824.5, 10743.429, 0.0, 5.0244813, 4.97505 
9.80642e+2, 2.3073226e+2, -671945.44, -747667.2, 25585.152, 0.0002562395, -0.004339194, -664111.2, 14712.272, 0.0, 5.0253267, 4.975122 
9.805804e+2, 2.3570618e+2, -620944.3, -697455.8, 28248.264, 0.00055827695, -0.009296284, -611645.1, 18434.002, 0.0, 5.026046, 4.9751973 
9.805184e+2, 2.406801e+2, -571433.5, -650287.0, 30181.834, 0.00005263604, -0.012176909, -561207.4, 20127.355, 0.0, 5.0267076, 4.974231 
9.804487e+2, 2.4565092e+2, -525834.94, -615496.7, 24388.61, -0.0047984025, -0.006419482, -519630.44, 12989.984, 0.0, 5.02801, 4.9685993 
9.803737e+2, 2.506191e+2, -472822.03, -564225.9, 28097.656, -0.0046191476, -0.0022631008, -464875.63, 19056.295, 0.0, 5.029451, 4.96871 
9.8029864e+2, 2.555873e+2, -420284.88, -513174.4, 31841.389, -0.0044349246, 0.001592536, -410418.1, 24825.326, 0.0, 5.03073, 4.9688253 
9.8022366e+2, 2.6055506e+2, -369127.44, -464219.06, 35830.223, -0.0027430372, 0.0026996392, -357138.3, 29421.225, 0.0, 5.031815, 4.9682927 
9.801362e+2, 2.6551688e+2, -329071.8, -441382.78, 20589.611, -0.0005262311, 0.00075495563, -325416.2, 12517.581, 0.0, 5.032695, 4.9586782 
9.800355e+2, 2.7047357e+2, -280734.84, -391678.88, 24522.287, 0.0060521346, -0.0080977995, -275556.34, 13802.161, 0.0, 5.0323467, 4.9589996 
9.7993475e+2, 2.7543017e+2, -233127.97, -342757.56, 28556.31, 0.012611067, -0.017597752, -226135.61, 14648.184, 0.0, 5.031821, 4.9591174 
9.798327e+2, 2.8038678e+2, -189010.63, -300646.84, 28402.172, 0.015323492, -0.019117812, -182200.11, 10009.155, 0.0, 5.0310254, 4.956895 
9.797113e+2, 2.8533265e+2, -168740.5, -310937.1, 16102.477, -0.0018559446, 0.0015680009, -166939.84, -23200.21, 0.0, 5.0296297, 4.9360633 
9.7957945e+2, 2.9027048e+2, -123453.195, -259383.6, 17740.8, -0.033753004, 0.015495732, -121175.92, -25826.998, 0.0, 5.0273743, 4.937813 
9.794476e+2, 2.952083e+2, -82252.03, -213538.63, 19691.928, -0.0675525, 0.029622508, -79362.02, -32404.094, 0.0, 5.0243716, 4.9378257 
9.7931784e+2, 3.0014557e+2, -45722.19, -175075.8, 19736.828, -0.07697231, 0.044109274, -42777.758, -42777.758, 0.0, 5.020629, 4.9354997 
9.791939e+2, 3.050829e+2, -5957.515, -131018.65, 11537.894, 0.051783405, 0.030540844, -4901.961, -4901.961, 0.0, 5.0232205, 4.9415917 
9.7906613e+2, 3.100213e+2, 18669.53, -118507.445, 6488.4385, 0.18917462, -0.035850104, 18975.746, 18975.746, 0.0, 5.0317097, 4.9426346 
9.789352e+2, 3.1496102e+2, 37607.613, -111553.445, 1195.118, 0.29498175, -0.08654156, 37617.188, 37617.188, 0.0, 5.0387187, 4.9422975 
9.7873163e+2, 3.1990737e+2, 9163.978, 5719.362, -5215.48, -0.2579089, -0.121055245, 12934.172, 12934.172, 0.0, 5.0038376, 4.998312 
9.868321e+2, 1.2602893e+2, -1706156.9, -1713302.8, -1384.1487, 0.0045100222, 0.007825219, -1705898.1, -979.2384, 0.0, 5.0089183, 5.004277 
9.8677164e+2, 1.310322e+2, -1654831.1, -1663075.0, -1090.5173, 0.0064375657, 0.0022316237, -1654689.4, 1196.3026, 0.0, 5.009728, 5.004315 
9.867112e+2, 1.3603553e+2, -1603517.4, -1612869.9, -793.10767, 0.00843084, -0.0030745312, -1603450.6, 3401.016, 0.0, 5.0105343, 5.0043526 
9.8665035e+2, 1.4103886e+2, -1554705.3, -1568267.6, 319.81503, 0.007118376, -0.0058204113, -1554697.8, 3120.4785, 0.0, 5.0114217, 5.0024943 
9.865918e+2, 1.4603773e+2, -1511405.6, -1536110.0, 3151.3755, -0.007051667, -0.0013357145, -1511009.9, -2180.5896, 0.0, 5.0124526, 4.9964495 
9.8653644e+2, 1.5103392e+2, -1459581.4, -1485668.3, 2983.8472, -0.0036112717, -0.0005469107, -1459244.4, 622.49194, 0.0, 5.0134273, 4.9964786 
9.86481e+2, 1.560301e+2, -1407774.8, -1435252.1, 2819.7397, -0.0003779883, 0.000030187099, -1407488.4, 3416.0806, 0.0, 5.0143995, 4.996507 
9.864254e+2, 1.6102624e+2, -1357263.5, -1387036.4, 3031.6274, 0.0029094678, 0.0007936123, -1356957.9, 4984.496, 0.0, 5.0152593, 4.995855 
9.863717e+2, 1.6601925e+2, -1314475.4, -1353014.4, 5115.684, 0.004657926, 0.0042720838, -1313807.9, -796.5856, 0.0, 5.0157146, 4.990585 
9.863187e+2, 1.7100953e+2, -1264106.9, -1303233.6, 5390.369, 0.004228349, 0.004102061, -1263377.9, 729.063, 0.0, 5.016193, 4.990626 
9.862656e+2, 1.7599985e+2, -1213734.6, -1253478.3, 5648.2446, 0.0037409903, 0.004066547, -1212947.5, 2254.4844, 0.0, 5.016669, 4.9906664 
9.862125e+2, 1.8099014e+2, -1163534.5, -1204515.8, 5654.91, 0.0028324875, 0.0038946227, -1162768.5, 3528.6555, 0.0, 5.017204, 4.9904275 
9.861595e+2, 1.8597779e+2, -1119421.9, -1168888.0, 7513.173, 0.0009148099, 0.0037823552, -1118305.9, -887.62445, 0.0, 5.0177875, 4.9856253 
9.861076e+2, 1.9096293e+2, -1069145.5, -1119167.4, 8298.83, 0.0020284185, 0.0012674943, -1067804.6, 759.2293, 0.0, 5.0182314, 4.9856634 
9.860557e+2, 1.9594808e+2, -1018871.5, -1069464.3, 9073.342, 0.0029277457, -0.0013322394, -1017293.5, 2415.65, 0.0, 5.018674, 4.9857016 
9.860035e+2, 2.0093326e+2, -968980.06, -1020543.2, 9072.49, 0.0034758688, -0.0031744423, -967430.4, 3423.9578, 0.0, 5.0190973, 4.9854927 
9.859491e+2, 2.059165e+2, -924312.0, -982482.25, 9021.547, 0.0024707105, -0.0024084535, -922945.0, -926.3378, 0.0, 5.019437, 4.981605 
9.8589414e+2, 2.1089761e+2, -874480.3, -932852.1, 10422.795, 0.002435046, -0.0033951942, -872675.06, 528.53076, 0.0, 5.0197296, 4.98167 
9.858392e+2, 2.158788e+2, -824648.94, -883237.25, 11815.68, 0.002685526, -0.0043936186, -822355.8, 2032.264, 0.0, 5.020018, 4.981735 
9.8578423e+2, 2.2086005e+2, -775176.4, -834251.1, 12962.708, 0.0032984924, -0.0045336215, -772457.1, 3114.704, 0.0, 5.020264, 4.9816093 
9.857256e+2, 2.2583985e+2, -730590.3, -794793.5, 10862.448, 0.0025843403, -0.00037534643, -728802.3, -2032.5823, 0.0, 5.0202627, 4.9782753 
9.8566383e+2, 2.308177e+2, -682072.94, -745545.8, 13588.621, -0.000040860847, 0.0003408947, -679286.1, -1299.2969, 0.0, 5.020082, 4.978399 
9.8560226e+2, 2.3579569e+2, -633549.8, -696303.1, 16292.583, -0.0012724893, 0.0015626969, -629571.94, -369.2585, 0.0, 5.0198956, 4.9785237 
9.8554057e+2, 2.4077365e+2, -585144.75, -648466.44, 18822.213, -0.0014954136, 0.0030134541, -579972.4, 446.1967, 0.0, 5.019896, 4.9780955 
9.854722e+2, 2.4574874e+2, -537089.4, -609522.25, 14156.412, -0.006017029, 0.0013927968, -534420.94, -2758.9932, 0.0, 5.0211062, 4.9741774 
9.853985e+2, 2.5072196e+2, -486814.66, -559013.5, 19478.178, -0.0032624812, -0.0018271954, -481894.97, 1028.7467, 0.0, 5.021571, 4.9743953 
9.853247e+2, 2.5569534e+2, -436554.53, -508517.72, 24815.85, -0.0006800474, -0.0044691777, -428826.84, 5357.3374, 0.0, 5.022029, 4.97462 
9.852506e+2, 2.606686e+2, -387671.56, -459746.75, 29742.643, 0.0020470454, -0.0068497863, -376983.03, 8462.702, 0.0, 5.0222383, 4.974333 
9.8516226e+2, 2.656386e+2, -347841.88, -429604.22, 17285.174, -0.0000736165, -0.0036811682, -344337.84, -7597.327, 0.0, 5.021727, 4.9678006 
9.850601e+2, 2.7060473e+2, -299093.94, -378984.34, 27024.613, -0.004125528, -0.007990805, -290811.03, -2738.0874, 0.0, 5.0215836, 4.9682703 
9.849584e+2, 2.7557102e+2, -250532.1, -328679.06, 36724.086, -0.0042670565, -0.011219688, -235982.86, 3420.9932, 0.0, 5.02142, 4.9686403 
9.8485607e+2, 2.8053758e+2, -203388.6, -282397.47, 42634.35, -0.00052908796, -0.007892335, -184769.98, 5962.1987, 0.0, 5.021373, 4.9675107 
9.847327e+2, 2.854945e+2, -184759.92, -280717.63, 38055.6, -0.005553723, -0.00033377818, -171499.9, -29346.385, 0.0, 5.017056, 4.952114 
9.8459584e+2, 2.904449e+2, -174504.73, -241495.38, 57494.008, -0.005817731, 0.0017285806, -141460.61, -47822.074, 0.0, 5.0023804, 4.9544325 
9.9184054e+2, 1.2608801e+2, -1705254.6, -1711728.8, -869.74976, 0.0028969713, 0.011323736, -1705139.9, -800.4788, 0.0, 5.0089736, 5.0047684 
9.9178094e+2, 1.3109097e+2, -1654023.0, -1661579.3, -534.75134, 0.0057651526, -0.00245217, -1653985.3, 1323.2385, 0.0, 5.009762, 5.004794 
9.917213e+2, 1.36094e+2, -1602802.6, -1611451.6, -195.96387, 0.008085402, -0.015509237, -1602798.1, 3478.6904, 0.0, 5.010546, 5.00482 
9.916613e+2, 1.4109732e+2, -1554887.4, -1568675.3, 1130.0386, 0.006375413, -0.02110533, -1554795.4, 2448.0022, 0.0, 5.0114284, 5.002358 
9.916038e+2, 1.4609678e+2, -1511410.6, -1536524.3, 3797.1482, -0.008153765, -0.008384004, -1510849.1, -2599.5195, 0.0, 5.0125175, 4.9962845 
9.915494e+2, 1.5109354e+2, -1459580.5, -1486069.0, 3652.3408, -0.005134172, -0.0005430444, -1459086.1, 196.34442, 0.0, 5.013493, 4.9963174 
9.914949e+2, 1.5609032e+2, -1407767.9, -1435639.6, 3510.9517, -0.002686566, 0.007094517, -1407332.5, 2982.7104, 0.0, 5.0144663, 4.99635 
9.914402e+2, 1.6108684e+2, -1357144.0, -1387112.9, 3424.7563, 0.00019964157, 0.012961644, -1356757.5, 4592.3286, 0.0, 5.0153112, 4.995806 
9.9138695e+2, 1.6607995e+2, -1313923.5, -1352001.6, 5357.55, 0.0021691793, 0.015344534, -1313184.1, -767.0924, 0.0, 5.0157394, 4.9909 
9.9133444e+2, 1.7107047e+2, -1263556.4, -1302280.5, 5675.7437, 0.0016422829, 0.013806828, -1262741.6, 768.0879, 0.0, 5.0162253, 4.9909225 
9.912818e+2, 1.76061e+2, -1213185.3, -1252584.5, 5977.1396, 0.00067704596, 0.0124832075, -1212298.4, 2303.636, 0.0, 5.0167093, 4.990945 
9.912292e+2, 1.8105139e+2, -1162853.6, -1203363.5, 6128.731, -0.00047669592, 0.010170363, -1161946.8, 3749.2202, 0.0, 5.0172496, 4.9907923 
9.9117696e+2, 1.860392e+2, -1117993.1, -1166035.4, 7744.344, -0.00092152116, 0.0039378842, -1116775.5, 39.747334, 0.0, 5.0178213, 4.9865637 
9.9112564e+2, 1.9102474e+2, -1067717.3, -1116345.9, 8556.673, 0.0017989567, -0.004766115, -1066255.6, 1701.4812, 0.0, 5.0182705, 4.9865937 
9.910743e+2, 1.9601026e+2, -1017443.8, -1066673.9, 9357.853, 0.0039824806, -0.013512958, -1015725.0, 3373.561, 0.0, 5.0187182, 4.9866242 
9.9102265e+2, 2.0099603e+2, -967756.4, -1018100.0, 9190.279, 0.0050904257, -0.018673122, -966131.2, 4106.969, 0.0, 5.019129, 4.986305 
9.909684e+2, 2.0598087e+2, -922218.94, -977570.25, 9115.958, 0.0038126395, -0.015127832, -920756.25, 631.04297, 0.0, 5.0193877, 4.983294 
9.909135e+2, 2.109639e+2, -872395.3, -927979.6, 10550.405, 0.001642115, -0.014238107, -870460.1, 2093.854, 0.0, 5.0196867, 4.9833503 
9.9085855e+2, 2.1594696e+2, -822571.94, -878404.2, 11976.474, -0.0007409401, -0.013461773, -820111.4, 3609.0566, 0.0, 5.0199814, 4.9834065 
9.908036e+2, 2.2093023e+2, -772857.1, -829020.6, 13002.0, -0.0034325195, -0.010519357, -769993.2, 4891.4023, 0.0, 5.020245, 4.983424 
9.907448e+2, 2.259135e+2, -725865.9, -784818.2, 10488.615, -0.004854287, 0.000831077, -724055.4, 1993.3707, 0.0, 5.020312, 4.9817333 
9.906831e+2, 2.3089552e+2, -677326.0, -735607.2, 13252.697, -0.005394903, 0.007911514, -674453.94, 2770.9993, 0.0, 5.0201507, 4.9818506 
9.9062145e+2, 2.3587763e+2, -628780.6, -686401.4, 15994.508, -0.0052052974, 0.015100613, -624638.56, 3761.696, 0.0, 5.0199833, 4.9819694 
9.9056005e+2, 2.4085952e+2, -579734.25, -637132.44, 19325.447, -0.0038614073, 0.019312978, -573834.06, 5743.544, 0.0, 5.019995, 4.9820557 
9.904928e+2, 2.4583972e+2, -528132.7, -590103.94, 14081.716, -0.0068733147, 0.012757686, -525083.0, 5687.707, 0.0, 5.0211873, 4.9810414 
9.904194e+2, 2.5081912e+2, -477948.47, -539641.8, 19446.143, -0.0056606187, 0.0033524132, -472330.5, 9640.951, 0.0, 5.0216446, 4.9812684 
9.903459e+2, 2.557987e+2, -427778.78, -489192.6, 24826.441, -0.005396175, -0.0052512055, -418998.16, 14172.463, 0.0, 5.0220947, 4.981503 
9.902716e+2, 2.6077852e+2, -378990.78, -440385.38, 28673.277, -0.00665439, -0.010371381, -367682.34, 16685.484, 0.0, 5.022271, 4.981261 
9.9018204e+2, 2.6575896e+2, -332592.84, -394513.88, 16429.969, -0.00924714, -0.00062643626, -328503.44, 7056.5796, 0.0, 5.021661, 4.980377 
9.900798e+2, 2.7073857e+2, -283919.9, -344129.97, 26253.203, -0.013567649, 0.0028712954, -274080.7, 12680.185, 0.0, 5.021553, 4.980794 
9.8997784e+2, 2.7571836e+2, -235337.27, -293849.16, 36006.832, -0.015983649, 0.0069029103, -218199.22, 19760.926, 0.0, 5.0214257, 4.9811873 
9.898761e+2, 2.806984e+2, -186501.16, -243680.36, 42831.66, -0.007201549, 0.011861009, -163594.0, 25562.44, 0.0, 5.0214252, 4.98151 
9.8974895e+2, 2.8567496e+2, -151102.02, -205139.64, 25601.896, 0.007163521, 0.009391347, -140898.88, -514.31903, 0.0, 5.017187, 4.9796214 
9.8959917e+2, 2.9064968e+2, -142552.53, -168326.5, 45045.934, 0.021010548, -0.0012665348, -108586.445, -16955.639, 0.0, 5.002264, 4.981125 
9.9684894e+2, 1.2614714e+2, -1704361.1, -1710151.5, -351.79803, 0.00030270196, 0.016139986, -1704339.9, -580.376, 0.0, 5.0090284, 5.005256 
9.9679023e+2, 1.3114977e+2, -1653223.4, -1660080.0, 24.566677, 0.0045988164, -0.006445497, -1653223.3, 1507.9187, 0.0, 5.0097947, 5.0052695 
9.967314e+2, 1.3615249e+2, -1602096.3, -1610029.9, 404.7327, 0.007733739, -0.027881404, -1602075.6, 3626.2395, 0.0, 5.010558, 5.005283 
9.966724e+2, 1.4115578e+2, -1555284.0, -1569508.6, 2010.7235, 0.0059643136, -0.03614342, -1555005.3, 1663.245, 0.0, 5.0114346, 5.002077 
9.9661595e+2, 1.4615576e+2, -1511419.5, -1536935.5, 4441.74, -0.009010737, -0.015168665, -1510668.5, -2997.9963, 0.0, 5.012583, 4.996117 
9.965625e+2, 1.5115309e+2, -1459583.3, -1486466.6, 4319.6553, -0.006476544, -0.00055843696, -1458906.3, -207.64165, 0.0, 5.013559, 4.9961534 
9.965089e+2, 1.5615043e+2, -1407764.9, -1436023.8, 4200.985, -0.004879281, 0.013856581, -1407153.5, 2573.1003, 0.0, 5.014533, 4.9961896 
9.964551e+2, 1.6114736e+2, -1357249.0, -1387653.8, 3787.2988, -0.002036379, 0.025237678, -1356784.4, 3973.672, 0.0, 5.015363, 4.995599 
9.9640226e+2, 1.6614059e+2, -1313378.8, -1350987.3, 5622.988, -0.0003502, 0.026800977, -1312556.0, -732.46924, 0.0, 5.015764, 4.9912057 
9.963502e+2, 1.7113128e+2, -1263012.9, -1301325.5, 5984.693, -0.00073476566, 0.023114461, -1262099.8, 813.81396, 0.0, 5.016258, 4.99121 
9.962981e+2, 1.7612202e+2, -1212642.9, -1251688.9, 6329.6133, -0.0019382358, 0.019721335, -1211642.4, 2361.0662, 0.0, 5.0167494, 4.9912143 
9.9624604e+2, 1.811125e+2, -1162354.5, -1202587.5, 6635.1563, -0.0033440504, 0.015365897, -1161288.5, 3807.592, 0.0, 5.0172954, 4.991022 
9.961945e+2, 1.8610056e+2, -1116570.3, -1163180.6, 7986.9063, -0.003247903, 0.0040556793, -1115239.8, 973.3221, 0.0, 5.0178547, 4.987498 
9.9614376e+2, 1.9108646e+2, -1066295.0, -1113522.3, 8825.904, 0.0010947087, -0.011237003, -1064699.5, 2651.5366, 0.0, 5.0183096, 4.98752 
9.9609303e+2, 1.9607238e+2, -1016022.0, -1063881.4, 9653.75, 0.0045774896, -0.026530668, -1014148.06, 4340.806, 0.0, 5.0187626, 4.987542 
9.9604183e+2, 2.0105876e+2, -966699.8, -1016014.1, 9236.0205, 0.006246667, -0.03445543, -965026.75, 4595.7637, 0.0, 5.0191603, 4.9869905 
9.959876e+2, 2.0604523e+2, -920134.94, -972655.4, 9221.421, 0.004628908, -0.027201653, -918562.94, 2193.0981, 0.0, 5.019338, 4.984979 
9.959328e+2, 2.1103016e+2, -870319.3, -923104.25, 10689.064, 0.0005131223, -0.02484334, -868236.94, 3667.6216, 0.0, 5.0196433, 4.9850264 
9.95878e+2, 2.1601509e+2, -820503.94, -873568.2, 12148.313, -0.004314415, -0.022700382, -817855.0, 5198.059, 0.0, 5.019944, 4.985074 
9.9582297e+2, 2.2100042e+2, -770710.44, -824151.3, 13112.193, -0.010591952, -0.016430674, -767666.6, 6530.927, 0.0, 5.020226, 4.98511 
9.9576396e+2, 2.2598702e+2, -721157.1, -774848.2, 10135.828, -0.013982146, 0.001695574, -719307.4, 6021.615, 0.0, 5.0203614, 4.9851894 
9.9570227e+2, 2.3097321e+2, -672594.56, -725673.8, 12937.866, -0.012393126, 0.014702703, -669608.94, 6855.3496, 0.0, 5.020219, 4.9853 
9.956407e+2, 2.3595947e+2, -624026.8, -676504.9, 15717.573, -0.010738964, 0.02742021, -619679.44, 7919.7085, 0.0, 5.020071, 4.985412 
9.9557954e+2, 2.409453e+2, -574600.94, -626405.4, 19773.38, -0.007395416, 0.03451889, -567916.2, 10821.604, 0.0, 5.0200953, 4.9858046 
9.955136e+2, 2.4593076e+2, -519208.63, -570732.2, 13991.814, -0.005762048, 0.026371583, -515654.2, 14224.491, 0.0, 5.0212684, 4.987905 
9.954405e+2, 2.5091633e+2, -469114.7, -520316.53, 19398.95, -0.006398867, 0.010041402, -462595.1, 18423.416, 0.0, 5.021718, 4.988142 
9.9536717e+2, 2.5590208e+2, -419035.25, -469913.75, 24821.92, -0.008763956, -0.005262138, -408931.8, 23224.666, 0.0, 5.0221605, 4.988386 
9.9529266e+2, 2.6088846e+2, -370374.8, -421150.88, 27462.262, -0.014352826, -0.013205444, -358363.28, 24925.982, 0.0, 5.0223026, 4.988162 
9.952015e+2, 2.6587933e+2, -317480.03, -359665.44, 15641.247, -0.022526948, 0.0015621274, -312313.44, 22066.586, 0.0, 5.021595, 4.992944 
9.95099e+2, 2.7087244e+2, -268836.78, -309424.9, 25504.258, -0.02825167, 0.0123643745, -256537.66, 28911.506, 0.0, 5.021524, 4.9933405 
9.949968e+2, 2.758657e+2, -220233.28, -259169.06, 35312.777, -0.034105837, 0.023137288, -199377.6, 37139.08, 0.0, 5.021433, 4.9937577 
9.948962e+2, 2.808591e+2, -169352.11, -204251.58, 43497.68, -0.014497099, 0.02773627, -139934.56, 47647.28, 0.0, 5.021478, 4.9958744 
9.947671e+2, 2.858552e+2, -118464.27, -131797.44, 12080.004, 0.04480099, 0.012095935, -111333.4, 27284.602, 0.0, 5.017357, 5.00667 
9.946036e+2, 2.90854e+2, -111013.875, -95860.305, 32411.84, 0.06714578, -0.020922408, -70151.44, 19475.975, 0.0, 5.0021734, 5.007892 
1.0018585e+3, 1.2620454e+2, -1706092.1, -1715616.1, 5224.6255, 0.016366066, -0.033833094, -1703784.9, -598.7122, 0.0, 5.009343, 5.003372 
1.00180015e+3, 1.312116e+2, -1655421.3, -1665406.4, 1526.5258, 0.016249565, 0.007945943, -1655193.1, -1072.385, 0.0, 5.0099273, 5.0034847 
1.0017414e+3, 1.3621686e+2, -1603392.5, -1614616.3, -2078.1882, 0.009198483, 0.02953445, -1603020.1, 2052.27, 0.0, 5.01094, 5.0035996 
1.0016825e+3, 1.4121976e+2, -1553970.0, -1569866.0, -3229.2712, -0.004876704, 0.02769994, -1553339.0, 2707.2148, 0.0, 5.012048, 5.001673 
1.00162715e+3, 1.4621605e+2, -1509638.3, -1535270.0, -376.43192, -0.01887132, 0.009386439, -1509632.8, -2549.682, 0.0, 5.012962, 4.9965 
1.00157514e+3, 1.512105e+2, -1457839.5, -1485011.0, 468.72736, -0.010585961, -0.009569138, -1457831.4, 306.6092, 0.0, 5.013936, 4.9964876 
1.001523e+3, 1.5620576e+2, -1405431.9, -1434529.5, 1259.9443, -0.004624306, -0.019627381, -1405377.5, 3807.4104, 0.0, 5.0151043, 4.996473 
1.0014703e+3, 1.6120176e+2, -1355102.3, -1386778.8, 442.86664, 0.00012556328, -0.020118305, -1355096.0, 5127.9775, 0.0, 5.015958, 4.9956737 
1.0014182e+3, 1.6619538e+2, -1313177.8, -1350152.6, 2074.866, 0.0073242984, -0.018171176, -1313061.8, -1776.9404, 0.0, 5.01556, 4.9916134 
1.00136735e+3, 1.7118673e+2, -1264476.9, -1301472.4, 2581.2905, 0.01479066, -0.021128928, -1264297.6, -1930.0869, 0.0, 5.0155144, 4.9915524 
1.0013161e+3, 1.7617802e+2, -1214893.9, -1252445.6, 3005.8723, 0.017473066, -0.023942875, -1214654.8, -1203.722, 0.0, 5.0157413, 4.9914927 
1.0012643e+3, 1.8116938e+2, -1165781.0, -1205508.1, 2360.9524, 0.012245698, -0.02149524, -1165641.3, -1105.8088, 0.0, 5.016209, 4.990602 
1.0012123e+3, 1.8616006e+2, -1119239.4, -1164584.9, 1728.722, 0.0018843338, -0.006225395, -1119173.5, -3544.0608, 0.0, 5.0168223, 4.987551 
1.0011617e+3, 1.9114885e+2, -1068221.9, -1114700.4, 866.6876, 0.0008446249, 0.004674033, -1068205.6, -1463.5442, 0.0, 5.017534, 4.9875374 
1.0011109e+3, 1.9613758e+2, -1016751.4, -1064663.4, -55.984337, -0.0031192033, 0.014980759, -1016751.3, 1104.0521, 0.0, 5.018387, 4.987525 
1.0010594e+3, 2.0112646e+2, -965481.6, -1013086.9, -2152.143, -0.0097538885, 0.025168976, -965384.5, 3580.712, 0.0, 5.018877, 4.9882116 
1.0010051e+3, 2.0611534e+2, -919079.9, -966403.9, -41.162647, -0.009392637, 0.033335164, -919079.9, 991.43976, 0.0, 5.018355, 4.987656 
1.0009511e+3, 2.1110258e+2, -870555.75, -917690.3, 3519.3108, -0.0077043353, 0.030377751, -870294.4, 899.1352, 0.0, 5.0182395, 4.9876256 
1.000897e+3, 2.1608958e+2, -821488.4, -868760.0, 6877.289, -0.009186332, 0.02612017, -820508.2, 1810.0948, 0.0, 5.0182953, 4.987598 
1.00084245e+3, 2.21076e+2, -773708.94, -823125.3, 8271.904, -0.013340539, 0.02094815, -772361.06, 1089.1506, 0.0, 5.0184293, 4.9863935 
1.00078404e+3, 2.260617e+2, -722756.5, -770639.9, 2450.3958, -0.013168633, 0.012118447, -722631.44, 1961.353, 0.0, 5.0185156, 4.9876156 
1.0007231e+3, 2.3104736e+2, -673847.1, -721455.0, 2720.822, -0.0051149577, -0.006920516, -673692.1, 2043.6271, 0.0, 5.018489, 4.9876933 
1.0006618e+3, 2.3603295e+2, -624362.94, -672051.06, 2902.5864, -0.002412575, -0.027704503, -624186.94, 2692.4546, 0.0, 5.01865, 4.98777 
1.0006003e+3, 2.4101965e+2, -575772.5, -620890.1, 4343.1987, -0.0030618266, -0.041612446, -575358.2, 2652.4932, 0.0, 5.018058, 4.9888225 
1.0005352e+3, 2.4601296e+2, -525580.9, -560058.4, -3159.3198, 0.008476081, -0.023357596, -525293.75, 3780.429, 0.0, 5.015899, 4.9942675 
1.00046225e+3, 2.5100744e+2, -484117.88, -513859.84, 1224.2285, 0.013792929, -0.017919548, -484067.56, -3941.8032, 0.0, 5.013246, 4.9944077 
1.0003888e+3, 2.5600237e+2, -441608.25, -467176.16, 5497.066, 0.010615214, -0.008120491, -440476.5, -9303.561, 0.0, 5.0109386, 4.994558 
1.0003139e+3, 2.6099727e+2, -395407.94, -417548.44, 6901.1157, 0.0010746133, -0.0009578219, -393433.03, -11211.571, 0.0, 5.009734, 4.995243 
1.0002247e+3, 2.659963e+2, -333395.8, -339381.44, -3750.788, 0.017711032, -0.011070155, -331590.16, 1640.1409, 0.0, 5.0098944, 5.005662 
1.00012355e+3, 2.7100018e+2, -281436.97, -288111.8, 6564.258, 0.01811286, -0.025882354, -277410.44, 6781.813, 0.0, 5.0110397, 5.0059185 
1.000021e+3, 2.7600482e+2, -229003.77, -236567.69, 16607.105, 0.0016875148, -0.033898115, -215753.42, 19393.621, 0.0, 5.0123525, 5.006217 
9.9991673e+2, 2.8101012e+2, -180554.84, -182779.25, 23053.066, -0.017120661, -0.042133685, -158587.17, 27508.41, 0.0, 5.0114193, 5.0084047 
9.997739e+2, 2.860339e+2, -116358.8, -77574.836, -23340.309, -0.018897986, 0.016302615, -66621.82, 70240.664, 0.0, 5.0068827, 5.031807 
9.9958736e+2, 2.9106075e+2, -107000.695, -39906.34, 181.18059, -0.07731258, -0.0053919074, -39905.85, 47693.023, 0.0, 4.9923897, 5.033219 
