coord_x,coord_y,stress_xx,stress_yy,tau_xy,velocity_x,velocity_y,stress_1,eps,damage,lx,ly
2.5073123e+0, 1.21508814e+2, -1711572.4, -1747286.9, 932.9325, 0.003820259, 0.00056498434, -1711548.0, 37683.05, 0.0, 5.013842, 4.9905987 
2.5069335e+0, 1.2649891e+2, -1667959.8, -1710016.6, 728.0986, -0.0007924393, 0.032379594, -1667947.1, 32377.18, 0.0, 5.014016, 4.986667 
2.50703e+0, 1.3148421e+2, -1618501.0, -1660789.8, 578.1912, -0.00059258775, 0.017763978, -1618493.1, 32972.32, 0.0, 5.014174, 4.986666 
2.5071257e+0, 1.3646948e+2, -1571249.6, -1616103.0, 427.06033, -0.00042095073, 0.0044080657, -1571245.6, 31361.055, 0.0, 5.0143323, 4.985161 
2.5071785e+0, 1.4145209e+2, -1529280.0, -1582052.6, 232.69244, -0.0004133617, 0.008464988, -1529279.0, 24495.873, 0.0, 5.014436, 4.980079 
2.507144e+0, 1.4643222e+2, -1480103.0, -1532687.9, 87.23462, -0.0007003484, 0.005431826, -1480102.8, 24865.7, 0.0, 5.0144243, 4.9801855 
2.5071067e+0, 1.5141234e+2, -1431091.5, -1483654.4, -46.09197, -0.0010022732, 0.001953714, -1431091.5, 25070.94, 0.0, 5.0144095, 4.9801855 
2.507069e+0, 1.5639246e+2, -1383507.8, -1437598.0, -179.40172, -0.0013092026, -0.001079151, -1383507.1, 23849.219, 0.0, 5.014395, 4.9791903 
2.5070578e+0, 1.6136871e+2, -1343344.4, -1407053.1, -255.9123, -0.0013267167, 0.0024732128, -1343343.4, 15244.83, 0.0, 5.014376, 4.973007 
2.5071067e+0, 1.6634183e+2, -1294313.9, -1357944.9, -213.75677, -0.0006504151, 0.00079397694, -1294313.1, 15538.279, 0.0, 5.0143385, 4.973018 
2.5071573e+0, 1.7131495e+2, -1245301.1, -1308873.5, -166.50618, 0.000048481437, -0.0009264009, -1245300.6, 15813.848, 0.0, 5.014301, 4.973018 
2.507208e+0, 1.7628807e+2, -1197423.3, -1262206.0, -119.11345, 0.00074060005, -0.002256567, -1197423.0, 14954.533, 0.0, 5.0142627, 4.9722104 
2.5072235e+0, 1.8125764e+2, -1157227.3, -1231888.4, -68.10419, 0.0010529686, 0.005127227, -1157227.3, 6448.4814, 0.0, 5.014231, 4.965877 
2.5071657e+0, 1.8622379e+2, -1107713.8, -1181921.1, -59.230145, 0.0005748225, 0.0029018072, -1107713.8, 7293.7456, 0.0, 5.0142117, 4.9661446 
2.5071055e+0, 1.9118993e+2, -1058572.5, -1132751.4, -56.29892, 0.000059200785, 0.000041351694, -1058572.5, 7767.006, 0.0, 5.014193, 4.9661446 
2.5070447e+0, 1.9615607e+2, -1010321.44, -1085497.6, -52.762104, -0.00046923934, -0.00249631, -1010321.4, 7349.9727, 0.0, 5.014175, 4.9654946 
2.5069875e+0, 2.011187e+2, -969846.3, -1054873.9, -91.28922, -0.00081172073, 0.0024182831, -969846.2, -809.7116, 0.0, 5.0141277, 4.9591775 
2.506947e+0, 2.0607819e+2, -920386.44, -1004386.5, -163.69714, -0.00039160225, -0.0019970373, -920386.06, 43.28347, 0.0, 5.013964, 4.9596643 
2.5069073e+0, 2.1103771e+2, -871616.2, -955353.75, -220.40126, 0.0000626864, -0.0069625857, -871615.6, 206.15291, 0.0, 5.0137925, 4.9596653 
2.5068668e+0, 2.1599722e+2, -823505.75, -907772.0, -275.1353, 0.0004885534, -0.011805422, -823504.9, -290.73682, 0.0, 5.0136213, 4.9591665 
2.5068188e+0, 2.2095314e+2, -785849.4, -883518.94, -122.11531, 0.00041004695, -0.0014351713, -785849.25, -11203.724, 0.0, 5.0135374, 4.9505982 
2.5068256e+0, 2.2590452e+2, -735967.9, -833242.8, 93.039566, 0.00024960504, -0.00042235764, -735967.8, -9835.675, 0.0, 5.013587, 4.950871 
2.5068444e+0, 2.3085578e+2, -686470.1, -783821.06, 275.70953, 0.00018522317, -0.00203518, -686469.4, -8848.49, 0.0, 5.0136356, 4.9508724 
2.5068617e+0, 2.3580702e+2, -637618.44, -735848.56, 460.20285, 0.00008288091, -0.0036518644, -637616.3, -8506.617, 0.0, 5.013685, 4.950372 
2.5068653e+0, 2.4075559e+2, -595610.75, -703313.56, 684.9824, -0.00034163758, 0.011578794, -595606.4, -14989.612, 0.0, 5.013768, 4.9445047 
2.507068e+0, 2.4570133e+2, -542535.6, -647799.94, 612.7362, -0.0004206392, 0.002534687, -542532.06, -10407.353, 0.0, 5.0141773, 4.946416 
2.507308e+0, 2.5064674e+2, -491811.97, -597786.25, 436.16257, -0.0003971241, -0.013745097, -491810.16, -8176.817, 0.0, 5.0146346, 4.946421 
2.5075427e+0, 2.555922e+2, -441336.63, -548347.7, 274.45993, -0.00044408208, -0.02988165, -441335.9, -6194.135, 0.0, 5.015088, 4.9462276 
2.507865e+0, 2.6053026e+2, -413525.38, -551823.5, 1281.4731, -0.0012617436, -0.017516796, -413513.53, -26776.186, 0.0, 5.015841, 4.927125 
2.5082463e+0, 2.6546267e+2, -357019.66, -489159.88, 1506.5393, -0.0007605797, -0.035431832, -357002.47, -18555.111, 0.0, 5.0162787, 4.930898 
2.5085747e+0, 2.7039623e+2, -306391.6, -439235.03, 1281.7466, -0.00045420788, -0.06603153, -306379.22, -16226.854, 0.0, 5.016512, 4.930913 
2.5088763e+0, 2.753297e+2, -255701.27, -389493.34, 1020.614, -0.0010072622, -0.0978536, -255693.48, -13835.467, 0.0, 5.0167365, 4.9308805 
2.5089014e+0, 2.8027323e+2, -231090.73, -410545.38, 4231.568, -0.0141702965, 0.14627744, -230991.0, -37535.305, 0.0, 5.019121, 4.9058423 
2.5081462e+0, 2.8521204e+2, -149956.0, -285771.2, 3122.7883, -0.01856725, 0.27940995, -149884.23, -4831.874, 0.0, 5.018973, 4.93195 
2.507369e+0, 2.901394e+2, -107342.055, -239224.06, 1714.8966, -0.012624951, 0.1905927, -107319.76, -10564.663, 0.0, 5.016597, 4.9319377 
2.506571e+0, 2.9506665e+2, -64502.836, -192601.67, 264.12592, -0.0075555984, 0.10067913, -64502.293, -16043.526, 0.0, 5.014224, 4.931926 
2.5059238e+0, 3.0000284e+2, -21799.23, -116555.234, -179.52756, -0.0048825284, 0.018047543, -21798.89, -21715.875, 0.0, 5.0124545, 4.9514146 
2.505905e+0, 3.0497992e+2, -10453.207, -89472.98, -1435.6733, -0.0058077616, 0.11152364, -10427.132, -10427.132, 0.0, 5.0122323, 4.959718 
2.50587e+0, 3.0997044e+2, -10386.59, -89370.086, -2853.065, -0.008134649, 0.26823425, -10283.665, -10283.665, 0.0, 5.011983, 4.9598513 
2.5057715e+0, 3.1496122e+2, -10070.027, -89305.375, -3874.1138, -0.012274184, 0.4262777, -9881.059, -9881.059, 0.0, 5.01173, 4.959984 
7.521887e+0, 1.21509984e+2, -1712335.5, -1748828.1, 1116.6841, 0.010894409, 0.0016220716, -1712301.4, 36912.47, 0.0, 5.0138397, 4.990093 
7.52079e+0, 1.2649827e+2, -1668229.3, -1710562.8, 835.6956, -0.0025266565, 0.017488675, -1668212.9, 32113.525, 0.0, 5.0140157, 4.9864883 
7.5210834e+0, 1.3148393e+2, -1618768.6, -1661340.1, 687.8771, -0.001877789, 0.008394872, -1618757.5, 32707.313, 0.0, 5.0141745, 4.986485 
7.521374e+0, 1.3646957e+2, -1571519.3, -1616659.6, 540.3414, -0.0013135652, 0.00057725934, -1571512.9, 31090.797, 0.0, 5.0143332, 4.9849777 
7.521535e+0, 1.4145239e+2, -1529519.5, -1582541.5, 243.66919, -0.0012457811, 0.008687225, -1529518.4, 24252.248, 0.0, 5.0144343, 4.9799185 
7.5214314e+0, 1.4643246e+2, -1480351.3, -1533196.6, 75.777695, -0.0021068796, 0.0067781424, -1480351.3, 24614.637, 0.0, 5.0144234, 4.9800177 
7.5213194e+0, 1.5141252e+2, -1431337.3, -1484160.1, -55.843666, -0.0030173191, 0.004331581, -1431337.3, 24824.158, 0.0, 5.014409, 4.980018 
7.521207e+0, 1.5639256e+2, -1383751.6, -1438101.1, -187.70201, -0.0039427723, 0.0023185855, -1383751.0, 23606.074, 0.0, 5.0143943, 4.9790235 
7.5211734e+0, 1.6136876e+2, -1343303.6, -1406962.1, -281.21634, -0.003989389, 0.0060123443, -1343302.4, 15287.666, 0.0, 5.0143747, 4.9730387 
7.5213194e+0, 1.6634183e+2, -1294225.0, -1357754.1, -243.52574, -0.0019604487, 0.0033640317, -1294224.1, 15628.923, 0.0, 5.014338, 4.9730835 
7.5214714e+0, 1.7131491e+2, -1245212.5, -1308682.9, -194.34608, 0.00013376177, 0.0007031856, -1245212.0, 15903.871, 0.0, 5.0143, 4.9730835 
7.5216234e+0, 1.76288e+2, -1197335.8, -1262016.0, -145.21797, 0.0022076387, -0.0015689025, -1197335.5, 15043.148, 0.0, 5.0142612, 4.972276 
7.521671e+0, 1.8125749e+2, -1157162.8, -1231747.9, -86.50144, 0.003158079, 0.0045524854, -1157162.6, 6514.2188, 0.0, 5.01423, 4.9659247 
7.5214976e+0, 1.8622358e+2, -1107703.8, -1181897.4, -72.60275, 0.0017165411, 0.0016563532, -1107703.8, 7305.2437, 0.0, 5.014211, 4.9661536 
7.521316e+0, 1.9118968e+2, -1058562.9, -1132726.1, -67.26701, 0.00015723002, -0.0017103156, -1058562.8, 7778.421, 0.0, 5.014192, 4.966154 
7.521132e+0, 1.9615577e+2, -1010313.7, -1085471.9, -61.47443, -0.0014405363, -0.004749982, -1010313.6, 7359.7173, 0.0, 5.014173, 4.9655046 
7.520965e+0, 2.0111838e+2, -969872.6, -1054927.0, -177.46713, -0.0024279421, -0.00016729454, -969872.25, -833.4142, 0.0, 5.0141263, 4.959161 
7.520842e+0, 2.0607792e+2, -920470.4, -1004570.3, -286.42386, -0.0011901003, -0.0033762415, -920469.4, -37.359188, 0.0, 5.0139647, 4.959604 
7.52072e+0, 2.110375e+2, -871698.1, -955531.44, -339.58853, 0.00012955669, -0.006936511, -871696.75, 127.919685, 0.0, 5.0137925, 4.959606 
7.520595e+0, 2.1599708e+2, -823589.0, -907945.2, -392.00302, 0.0013639497, -0.010384093, -823587.2, -369.87796, 0.0, 5.0136194, 4.959109 
7.5204563e+0, 2.2095306e+2, -785450.5, -882600.94, -112.8846, 0.001264871, -0.00062429684, -785450.4, -10802.043, 0.0, 5.013529, 4.950919 
7.5204784e+0, 2.2590467e+2, -735615.6, -832430.8, 150.89616, 0.00077118014, 0.00014885282, -735615.4, -9484.504, 0.0, 5.013581, 4.9511604 
7.520531e+0, 2.3085618e+2, -686107.06, -782997.5, 344.93814, 0.0004870957, -0.0010354255, -686105.9, -8490.8, 0.0, 5.013633, 4.9511642 
7.5205797e+0, 2.3580767e+2, -637249.3, -735015.56, 538.60944, 0.00008912632, -0.0022884388, -637246.4, -8147.06, 0.0, 5.0136833, 4.9506664 
7.520624e+0, 2.4075617e+2, -595376.0, -702834.5, 868.33057, -0.0010195023, 0.009347421, -595368.94, -14762.548, 0.0, 5.013776, 4.944664 
7.5212157e+0, 2.4570161e+2, -542786.56, -648308.2, 922.6763, -0.0012815676, -0.0007208786, -542778.5, -10657.918, 0.0, 5.0141697, 4.9462423 
7.521895e+0, 2.5064692e+2, -492131.6, -598294.5, 760.77997, -0.001368372, -0.015552762, -492126.13, -8491.889, 0.0, 5.0146, 4.9462576 
7.522559e+0, 2.555923e+2, -441733.13, -548859.56, 611.9669, -0.0016665745, -0.029952368, -441729.63, -6582.3047, 0.0, 5.015023, 4.9460745 
7.5234556e+0, 2.605313e+2, -411105.78, -545486.7, 2084.1873, -0.0040783603, -0.019428022, -411073.47, -24338.207, 0.0, 5.015701, 4.9294415 
7.524586e+0, 2.6546523e+2, -356308.25, -486767.38, 2392.0537, -0.0035440472, -0.026165733, -356264.4, -17841.965, 0.0, 5.0161476, 4.9319754 
7.5255823e+0, 2.7039993e+2, -305494.1, -436680.4, 2272.6147, -0.0039108493, -0.043150187, -305454.75, -15347.176, 0.0, 5.0164113, 4.9320197 
7.5264984e+0, 2.753344e+2, -254678.61, -386804.5, 2074.8782, -0.0068563577, -0.06380263, -254646.03, -12851.346, 0.0, 5.016644, 4.9320173 
7.5265205e+0, 2.8027475e+2, -226902.34, -396912.16, 5547.0825, -0.042407088, 0.11962989, -226721.55, -33305.344, 0.0, 5.0184746, 4.9108453 
7.524315e+0, 2.852107e+2, -154196.97, -289891.8, 1071.4968, -0.051994104, 0.21951823, -154188.5, -9147.547, 0.0, 5.018144, 4.9309 
7.522106e+0, 2.9013813e+2, -110784.17, -243061.95, 90.082634, -0.034494642, 0.15366153, -110784.11, -14040.229, 0.0, 5.0160336, 4.9308643 
7.519834e+0, 2.9506525e+2, -67300.08, -196228.42, -1009.24, -0.019613937, 0.084515885, -67292.18, -18842.576, 0.0, 5.0138717, 4.930829 
7.5179034e+0, 3.0000386e+2, -20481.604, -110783.33, -377.02353, -0.011813429, 0.028452117, -20480.03, -20429.582, 0.0, 5.0121346, 4.953626 
7.517387e+0, 3.049778e+2, -13022.263, -90605.37, -963.2167, -0.017027842, 0.10578167, -13010.307, -13010.307, 0.0, 5.011592, 4.959866 
7.5167763e+0, 3.0996174e+2, -13802.743, -90012.89, -2118.2026, -0.027159698, 0.22837207, -13743.915, -13743.915, 0.0, 5.0109797, 4.960263 
7.515976e+0, 3.1494647e+2, -14482.465, -89522.805, -2914.6028, -0.042726334, 0.35495558, -14369.431, -14369.431, 0.0, 5.0103087, 4.96066 
1.2536396e+1, 1.2151117e+2, -1713038.9, -1750267.3, 1298.6152, 0.017213864, 0.0029574968, -1712993.6, 36202.977, 0.0, 5.0138426, 4.989618 
1.2534633e+1, 1.2649764e+2, -1668493.6, -1711104.9, 940.62726, -0.004459992, 0.0028166063, -1668472.9, 31855.434, 0.0, 5.014017, 4.986308 
1.2535128e+1, 1.3148366e+2, -1619035.5, -1661888.4, 798.19214, -0.00329636, -0.0008463542, -1619020.6, 32443.705, 0.0, 5.014176, 4.986303 
1.253562e+1, 1.3646965e+2, -1571788.8, -1617214.5, 656.0002, -0.0022737987, -0.0032166315, -1571779.3, 30821.37, 0.0, 5.014334, 4.9847937 
1.2535891e+1, 1.414527e+2, -1529761.3, -1583039.3, 254.40634, -0.0020857947, 0.0089365095, -1529760.0, 24006.389, 0.0, 5.014435, 4.979754 
1.253572e+1, 1.4643273e+2, -1480596.9, -1533703.8, 64.9113, -0.00352119, 0.008129264, -1480596.8, 24366.373, 0.0, 5.0144234, 4.9798493 
1.2535532e+1, 1.5141271e+2, -1431579.9, -1484664.0, -65.07923, -0.005046364, 0.006679572, -1431579.9, 24580.547, 0.0, 5.014409, 4.9798503 
1.2535344e+1, 1.5639266e+2, -1383991.4, -1438602.0, -195.30338, -0.006596561, 0.0056517646, -1383990.8, 23366.996, 0.0, 5.0143948, 4.978856 
1.2535289e+1, 1.613688e+2, -1343273.1, -1406900.1, -305.93628, -0.0066643804, 0.009596801, -1343271.6, 15320.146, 0.0, 5.014375, 4.973059 
1.2535532e+1, 1.6634183e+2, -1294132.4, -1357561.1, -272.60092, -0.003282752, 0.005977102, -1294131.3, 15723.356, 0.0, 5.0143385, 4.9731483 
1.2535785e+1, 1.7131488e+2, -1245120.3, -1308490.1, -221.45671, 0.00020346635, 0.002332648, -1245119.5, 15997.646, 0.0, 5.0143003, 4.9731483 
1.2536037e+1, 1.7628793e+2, -1197243.9, -1261823.4, -170.35825, 0.003655795, -0.00092450174, -1197243.4, 15136.293, 0.0, 5.014262, 4.972341 
1.253612e+1, 1.8125737e+2, -1157105.3, -1231630.6, -103.87794, 0.005262087, 0.00402213, -1157105.1, 6572.7676, 0.0, 5.0142307, 4.9659643 
1.253583e+1, 1.862234e+2, -1107689.9, -1181870.9, -85.59395, 0.0028476904, 0.00045721827, -1107689.8, 7320.636, 0.0, 5.014212, 4.966162 
1.2535526e+1, 1.9118944e+2, -1058548.8, -1132698.1, -77.87771, 0.00022809563, -0.0034569255, -1058548.6, 7794.222, 0.0, 5.014193, 4.9661636 
1.2535217e+1, 1.9615549e+2, -1010299.44, -1085442.1, -69.70187, -0.0024555908, -0.007039859, -1010299.4, 7375.914, 0.0, 5.014174, 4.965514 
1.2534946e+1, 2.0111807e+2, -969904.1, -1055004.4, -262.7605, -0.004034538, -0.0026765899, -969903.3, -862.23785, 0.0, 5.014128, 4.9591346 
1.2534739e+1, 2.0607767e+2, -920548.5, -1004749.9, -410.0911, -0.0020089836, -0.0046878583, -920546.5, -111.88955, 0.0, 5.013967, 4.9595423 
1.253453e+1, 2.1103731e+2, -871773.0, -955704.25, -458.86075, 0.00011842936, -0.006917462, -871770.5, 57.097427, 0.0, 5.013795, 4.959546 
1.2534317e+1, 2.1599695e+2, -823660.6, -908111.3, -506.86493, 0.0021037378, -0.009044403, -823657.56, -437.08105, 0.0, 5.0136228, 4.9590507 
1.2534094e+1, 2.2095299e+2, -785079.75, -881772.0, -111.00105, 0.0021659841, 0.00037429814, -785079.6, -10428.617, 0.0, 5.0135264, 4.9512057 
1.2534133e+1, 2.2590482e+2, -735252.3, -831611.06, 208.31075, 0.0013225744, 0.0008517638, -735251.9, -9122.327, 0.0, 5.013579, 4.9514475 
1.2534215e+1, 2.3085658e+2, -685733.06, -782166.25, 413.3126, 0.00069752894, -0.00013668071, -685731.3, -8122.06, 0.0, 5.013634, 4.951454 
1.253429e+1, 2.3580833e+2, -636864.6, -734172.75, 617.9408, -0.00011732993, -0.0012587354, -636860.7, -7771.703, 0.0, 5.0136876, 4.9509587 
1.253442e+1, 2.407568e+2, -595190.8, -702493.56, 1078.3613, -0.0016901133, 0.007559075, -595179.94, -14584.344, 0.0, 5.0137925, 4.9447684 
1.2535378e+1, 2.4570198e+2, -543009.75, -648789.2, 1232.0969, -0.0021686542, -0.0034131452, -542995.4, -10879.517, 0.0, 5.014176, 4.9460664 
1.2536445e+1, 2.5064713e+2, -492402.28, -598765.94, 1088.6318, -0.002575552, -0.01725383, -492391.13, -8756.378, 0.0, 5.0145864, 4.9460917 
1.2537484e+1, 2.555924e+2, -442051.16, -549321.25, 958.2396, -0.003334738, -0.030373259, -442042.6, -6889.931, 0.0, 5.0149903, 4.945919 
1.2538859e+1, 2.605322e+2, -409018.38, -540060.56, 2803.9004, -0.007285657, -0.021085184, -408958.4, -22224.023, 0.0, 5.01561, 4.9314 
1.254072e+1, 2.6546752e+2, -355410.56, -484226.06, 3326.5999, -0.008010453, -0.018703094, -355324.72, -16924.656, 0.0, 5.0161023, 4.9330096 
1.25424e+1, 2.7040327e+2, -304254.56, -433907.2, 3398.8242, -0.010765103, -0.025272334, -304165.53, -14099.25, 0.0, 5.016452, 4.9330845 
1.2543947e+1, 2.7533862e+2, -253099.78, -383801.63, 3392.758, -0.01781815, -0.037956115, -253011.78, -11275.989, 0.0, 5.0167713, 4.933111 
1.2543894e+1, 2.8027636e+2, -222723.28, -385434.38, 6527.221, -0.07050797, 0.09438328, -222461.86, -29086.494, 0.0, 5.018249, 4.914916 
1.254032e+1, 2.852099e+2, -157509.9, -293482.78, -341.05237, -0.08047402, 0.16815388, -157509.05, -12485.202, 0.0, 5.0176854, 4.9298286 
1.2536842e+1, 2.901373e+2, -113707.98, -246554.39, -1147.0939, -0.051854756, 0.12246857, -113698.07, -16970.03, 0.0, 5.0156918, 4.9297695 
1.2533258e+1, 2.9506424e+2, -69835.664, -199624.14, -2070.9766, -0.027599677, 0.07130291, -69802.625, -21365.705, 0.0, 5.0136456, 4.9297104 
1.2530059e+1, 3.000046e+2, -19728.207, -106560.74, -758.16754, -0.014965148, 0.037987407, -19721.588, -19701.52, 0.0, 5.0119104, 4.9551973 
1.2528434e+1, 3.049748e+2, -15268.735, -91469.62, -732.75183, -0.02771425, 0.09207766, -15261.689, -15261.689, 0.0, 5.011105, 4.9599476 
1.2526576e+1, 3.0995187e+2, -16582.057, -90251.26, -1522.3289, -0.04984576, 0.17319852, -16550.611, -16550.611, 0.0, 5.0102468, 4.960608 
1.25244e+1, 3.1493032e+2, -17795.143, -89135.05, -1953.091, -0.081028454, 0.26096392, -17741.713, -17741.713, 0.0, 5.0093293, 4.9612694 
1.7550838e+1, 1.21512346e+2, -1713923.9, -1751723.4, 1503.2941, 0.02279702, 0.00456559, -1713864.3, 35315.2, 0.0, 5.0137706, 4.989173 
1.7548464e+1, 1.2649702e+2, -1668829.1, -1711680.1, 1048.3514, -0.006585435, -0.011638804, -1668803.5, 31526.697, 0.0, 5.0139956, 4.986127 
1.7549166e+1, 1.3148338e+2, -1619305.8, -1662436.5, 903.62836, -0.0048468253, -0.009959629, -1619286.8, 32176.928, 0.0, 5.014177, 4.9861197 
1.7549862e+1, 1.3646974e+2, -1572067.5, -1617772.1, 763.9349, -0.0033005965, -0.0069719665, -1572054.8, 30542.86, 0.0, 5.014333, 4.984608 
1.7550248e+1, 1.4145301e+2, -1530055.0, -1583570.0, 257.9302, -0.0029301224, 0.009214592, -1530053.8, 23708.346, 0.0, 5.014419, 4.9795856 
1.7550005e+1, 1.4643297e+2, -1480877.6, -1534227.6, 54.61566, -0.0049408306, 0.009485571, -1480877.5, 24082.963, 0.0, 5.014412, 4.9796805 
1.7549744e+1, 1.5141289e+2, -1431858.1, -1485184.9, -68.724106, -0.0070871315, 0.008997233, -1431858.0, 24301.37, 0.0, 5.0143976, 4.979682 
1.754948e+1, 1.5639278e+2, -1384281.5, -1439127.0, -193.89926, -0.009267663, 0.00891969, -1384280.9, 23077.51, 0.0, 5.0143785, 4.9786882 
1.7549405e+1, 1.6136885e+2, -1343314.8, -1406897.0, -321.1617, -0.00934852, 0.013226112, -1343313.1, 15280.485, 0.0, 5.0143566, 4.973069 
1.7549744e+1, 1.6634184e+2, -1294070.8, -1357382.6, -294.4067, -0.0046155234, 0.0086328825, -1294069.4, 15786.82, 0.0, 5.0143285, 4.9732127 
1.7550099e+1, 1.7131485e+2, -1245051.8, -1308308.4, -243.62068, 0.00025906408, 0.0039617913, -1245050.9, 16067.616, 0.0, 5.0142927, 4.9732127 
1.755045e+1, 1.7628786e+2, -1197189.1, -1261648.3, -192.55742, 0.0050873337, -0.0003234968, -1197188.6, 15192.164, 0.0, 5.0142503, 4.972406 
1.7550571e+1, 1.8125725e+2, -1157108.5, -1231562.0, -119.90167, 0.007367813, 0.0035360786, -1157108.3, 6570.6797, 0.0, 5.0142155, 4.9659944 
1.7550163e+1, 1.8622322e+2, -1107708.5, -1181859.1, -98.470314, 0.003969966, -0.0006955578, -1107708.3, 7303.4644, 0.0, 5.014202, 4.966171 
1.7549734e+1, 1.9118921e+2, -1058584.1, -1132692.8, -88.32678, 0.00027431973, -0.0051984596, -1058584.0, 7760.56, 0.0, 5.0141773, 4.966172 
1.7549302e+1, 1.961552e+2, -1010386.44, -1085459.5, -76.889915, -0.0035089864, -0.009366082, -1010386.3, 7290.9326, 0.0, 5.01414, 4.9655232 
1.7548929e+1, 2.0111778e+2, -970083.2, -1055173.1, -346.43723, -0.0056242263, -0.005109695, -970081.8, -1038.5472, 0.0, 5.014084, 4.9590983 
1.7548639e+1, 2.0607743e+2, -920703.2, -1004963.94, -536.9564, -0.0028440016, -0.0059315953, -920699.75, -262.6106, 0.0, 5.013943, 4.9594803 
1.754834e+1, 2.1103711e+2, -871927.4, -955912.8, -581.3436, 0.00003456728, -0.006905804, -871923.3, -92.930244, 0.0, 5.0137706, 4.9594855 
1.7548032e+1, 2.1599682e+2, -823882.56, -908346.1, -621.24725, 0.0027186135, -0.0077884383, -823878.0, -654.39215, 0.0, 5.0135736, 4.9589915 
1.7547733e+1, 2.2095293e+2, -784966.56, -881138.94, -115.383286, 0.0031286164, 0.001556828, -784966.4, -10312.7295, 0.0, 5.01345, 4.9514585 
1.7547786e+1, 2.2590497e+2, -735007.7, -830843.56, 266.69934, 0.0019123579, 0.0016831348, -735006.94, -8878.755, 0.0, 5.013537, 4.9517326 
1.7547895e+1, 2.3085698e+2, -685450.8, -781374.5, 485.29095, 0.0008227484, 0.0006569023, -685448.3, -7844.9043, 0.0, 5.013604, 4.9517417 
1.7547995e+1, 2.3580897e+2, -636626.7, -733394.5, 709.63043, -0.000527312, -0.0005694368, -636621.5, -7542.7075, 0.0, 5.0136414, 4.951249 
1.7548254e+1, 2.4075747e+2, -595309.94, -702407.7, 1335.845, -0.0023382276, 0.006203818, -595293.3, -14708.897, 0.0, 5.013729, 4.944819 
1.7549561e+1, 2.4570239e+2, -543414.5, -649338.75, 1563.9518, -0.0030607963, -0.005548253, -543391.44, -11280.885, 0.0, 5.014121, 4.945888 
1.755096e+1, 2.506474e+2, -492796.34, -599279.06, 1441.9238, -0.0039821793, -0.018840821, -492776.8, -9141.948, 0.0, 5.0145335, 4.945924 
1.7552324e+1, 2.5559255e+2, -442446.78, -549803.7, 1332.6486, -0.005386919, -0.031113876, -442430.22, -7272.457, 0.0, 5.0149345, 4.9457607 
1.7554085e+1, 2.6053298e+2, -407603.4, -535698.0, 3448.456, -0.010783507, -0.02244212, -407510.66, -20776.012, 0.0, 5.0154486, 4.933 
1.7556666e+1, 2.6546958e+2, -356035.4, -482305.84, 4393.639, -0.0139644705, -0.013082237, -355882.72, -17502.45, 0.0, 5.01553, 4.9340024 
1.7559052e+1, 2.7040622e+2, -306788.63, -432762.84, 5087.4355, -0.020647937, -0.012603625, -306583.5, -16554.898, 0.0, 5.015153, 4.9341083 
1.7561257e+1, 2.7534238e+2, -258453.44, -383834.63, 6016.038, -0.033274427, -0.020760313, -258165.44, -16483.86, 0.0, 5.014411, 4.934167 
1.7561072e+1, 2.8027815e+2, -229351.33, -380938.3, 8616.977, -0.09764072, 0.06988087, -228863.06, -35529.547, 0.0, 5.0145483, 4.9180584 
1.7556195e+1, 2.852097e+2, -167347.9, -299857.75, -246.38387, -0.10340686, 0.124942325, -167347.45, -22346.244, 0.0, 5.014896, 4.928734 
1.7551598e+1, 2.9013696e+2, -120190.99, -251501.98, -1507.792, -0.06433297, 0.09688349, -120173.68, -23466.059, 0.0, 5.014092, 4.928651 
1.7546858e+1, 2.9506356e+2, -74053.66, -203637.03, -2694.9888, -0.03129158, 0.061062668, -73997.63, -25576.986, 0.0, 5.012844, 4.928569 
1.7542402e+1, 3.0000517e+2, -20846.215, -104424.836, -1093.5371, -0.01418108, 0.046697654, -20831.91, -20831.91, 0.0, 5.011305, 4.9561353 
1.7539063e+1, 3.0497095e+2, -21041.254, -93668.51, 854.3012, -0.037585612, 0.07025018, -21031.207, -21031.207, 0.0, 5.009351, 4.9599843 
1.7535296e+1, 3.0994087e+2, -27399.498, -93750.78, 2906.0244, -0.075620465, 0.10240926, -27272.465, -27272.465, 0.0, 5.0065823, 4.96092 
1.7531094e+1, 3.1491283e+2, -35536.41, -94744.41, 6208.8003, -0.12616171, 0.14397061, -34892.336, -34892.336, 0.0, 5.0030675, 4.9618583 
2.25653e+1, 1.2151315e+2, -1709607.8, -1750150.3, 1107.1959, 0.021946717, 0.005726839, -1709577.5, 39591.156, 0.0, 5.0153313, 4.988918 
2.256292e+1, 1.2649722e+2, -1665911.6, -1710630.0, 477.1486, -0.00734701, -0.014281453, -1665906.5, 34419.8, 0.0, 5.0150566, 4.985949 
2.2563586e+1, 1.3148354e+2, -1617891.3, -1662129.0, 332.2789, -0.00532868, -0.0114645315, -1617888.8, 33572.668, 0.0, 5.0147386, 4.9859447 
2.2564262e+1, 1.364698e+2, -1572074.4, -1618160.9, 188.99234, -0.0031129643, -0.0073856995, -1572073.6, 30523.145, 0.0, 5.0144186, 4.984436 
2.2564644e+1, 1.4145301e+2, -1530741.9, -1584036.1, -190.73952, -0.0021104286, 0.009504926, -1530741.3, 23021.193, 0.0, 5.014218, 4.9795284 
2.2564399e+1, 1.4643294e+2, -1481423.0, -1534568.9, -190.93289, -0.0042727464, 0.009599391, -1481422.3, 23538.871, 0.0, 5.0142446, 4.979648 
2.2564134e+1, 1.514128e+2, -1432264.9, -1485458.8, -123.76163, -0.006546179, 0.008941472, -1432264.6, 23895.86, 0.0, 5.014277, 4.9796486 
2.2563869e+1, 1.5639265e+2, -1384536.8, -1439327.1, -56.822403, -0.0087963035, 0.008742843, -1384536.6, 22823.135, 0.0, 5.0143094, 4.9786544 
2.256377e+1, 1.613687e+2, -1343370.5, -1406937.0, -68.10805, -0.009131369, 0.013118238, -1343370.5, 15224.663, 0.0, 5.014341, 4.973064 
2.2564034e+1, 1.6634172e+2, -1293956.8, -1357313.1, -124.40642, -0.005185135, 0.008823329, -1293956.5, 15900.999, 0.0, 5.0143642, 4.97322 
2.256431e+1, 1.7131476e+2, -1244767.4, -1308157.1, -165.34752, -0.0010427216, 0.0044468716, -1244767.0, 16352.446, 0.0, 5.0143867, 4.9732203 
2.2564587e+1, 1.7628781e+2, -1196715.3, -1261406.1, -206.29428, 0.0031349633, 0.0004522912, -1196714.6, 15666.8, 0.0, 5.0144086, 4.9724135 
2.2564656e+1, 1.8125719e+2, -1156574.5, -1231291.6, -226.3421, 0.0051825126, 0.004210615, -1156573.9, 7105.774, 0.0, 5.0143957, 4.9660006 
2.2564241e+1, 1.8622312e+2, -1107449.9, -1181731.4, -233.78192, 0.00227964, -0.0006405987, -1107449.1, 7563.6743, 0.0, 5.0142913, 4.966172 
2.256381e+1, 1.9118902e+2, -1058571.8, -1132682.3, -243.65836, -0.0007482659, -0.005759167, -1058571.0, 7774.8887, 0.0, 5.0141816, 4.966174 
2.256338e+1, 1.9615497e+2, -1010583.8, -1085548.3, -254.21716, -0.0037023395, -0.010556405, -1010583.0, 7095.949, 0.0, 5.014072, 4.9655256 
2.2563013e+1, 2.011175e+2, -970422.7, -1055479.9, -525.8266, -0.005009317, -0.0064103454, -970419.44, -1374.2002, 0.0, 5.013996, 4.959037 
2.2562674e+1, 2.0607714e+2, -920642.6, -1005157.56, -766.5707, -0.002238081, -0.0061504478, -920635.7, -195.67146, 0.0, 5.0140095, 4.9593863 
2.2562326e+1, 2.1103685e+2, -871315.94, -955842.5, -874.0142, 0.00087997253, -0.0060886736, -871306.9, 527.34686, 0.0, 5.0140266, 4.959394 
2.2561985e+1, 2.1599655e+2, -822655.3, -907984.4, -981.95917, 0.004159951, -0.006028534, -822644.06, 584.42065, 0.0, 5.014044, 4.9589024 
2.2561663e+1, 2.2095264e+2, -783047.0, -879765.1, -517.92084, 0.0054196124, 0.002903645, -783044.25, -8385.4375, 0.0, 5.014028, 4.951667 
2.2561637e+1, 2.2590482e+2, -733683.1, -829623.0, -147.43825, 0.0034223886, 0.0018585032, -733682.94, -7552.754, 0.0, 5.0138865, 4.951995 
2.2561663e+1, 2.3085697e+2, -684749.8, -780436.44, 11.445916, 0.0016814029, -0.00021413823, -684749.8, -7147.847, 0.0, 5.013734, 4.952008 
2.2561699e+1, 2.3580909e+2, -636460.75, -732699.3, 166.2721, 0.000105147, -0.002650996, -636460.44, -7386.5444, 0.0, 5.0135803, 4.951519 
2.2562034e+1, 2.4075757e+2, -596288.75, -702878.9, 812.09955, -0.0008583912, 0.0023568445, -596282.56, -15703.83, 0.0, 5.013391, 4.944798 
2.2563472e+1, 2.4570255e+2, -546638.56, -651309.06, 925.66516, -0.00039335637, -0.00696797, -546630.44, -14521.696, 0.0, 5.0130925, 4.9456534 
2.2565043e+1, 2.5064772e+2, -498065.97, -602167.56, 699.65283, 0.00045973068, -0.015967738, -498061.28, -14425.435, 0.0, 5.012787, 4.9456925 
2.2566654e+1, 2.5559318e+2, -449734.56, -553591.75, 471.89108, 0.0017002207, -0.023020014, -449732.44, -14571.827, 0.0, 5.0124803, 4.9455338 
2.256865e+1, 2.605346e+2, -414688.38, -534525.1, 2589.462, 0.000069456335, -0.011925218, -414632.44, -27903.066, 0.0, 5.012169, 4.934895 
2.257161e+1, 2.65472e+2, -364317.16, -481898.75, 4626.1797, 0.00014489854, -0.008729624, -364135.4, -25778.91, 0.0, 5.0118613, 4.9358473 
2.2574718e+1, 2.7040875e+2, -314392.47, -431824.0, 6030.9453, 0.0023008937, -0.022608118, -314083.53, -24091.943, 0.0, 5.0115767, 4.936129 
2.2577968e+1, 2.7534464e+2, -264319.78, -382090.72, 7358.0474, 0.005136041, -0.05374585, -263861.84, -22226.77, 0.0, 5.011288, 4.936364 
2.2578469e+1, 2.802776e+2, -235460.56, -375862.06, 8912.002, -0.03340201, -0.029129444, -234897.13, -41591.734, 0.0, 5.011128, 4.92171 
2.2572553e+1, 2.8520885e+2, -180045.42, -308971.8, 2280.673, -0.051470567, 0.033033483, -180005.1, -35022.934, 0.0, 5.0118804, 4.927148 
2.2567067e+1, 2.9013756e+2, -127630.7, -257682.78, 635.67584, -0.033103187, 0.04980297, -127627.59, -30945.084, 0.0, 5.012842, 4.9271197 
2.2561666e+1, 2.95065e+2, -75120.1, -206529.55, -1064.5948, -0.014300908, 0.049440168, -75111.48, -26715.617, 0.0, 5.0137978, 4.927092 
2.2556603e+1, 3.000085e+2, -11198.402, -94306.95, -578.9386, -0.0037064268, 0.06390525, -11194.369, -11194.369, 0.0, 5.0145893, 4.9581842 
2.2552264e+1, 3.0497277e+2, -4566.3726, -77773.75, 303.14084, -0.022691142, 0.059451774, -4565.117, -4565.117, 0.0, 5.01483, 4.9633727 
2.2548051e+1, 3.0994102e+2, -1798.813, -71158.8, 460.26935, -0.04352125, 0.056410324, -1795.7588, -1795.7588, 0.0, 5.015043, 4.9655175 
2.2544046e+1, 3.1491393e+2, 1377.5475, -64956.074, 646.79047, -0.063517354, 0.07576924, 1383.8535, 1383.8535, 0.0, 5.015248, 4.9676642 
2.7579725e+1, 1.2151364e+2, -1709705.1, -1750378.1, 1164.4478, 0.012370303, 0.0074023907, -1709671.8, 39492.09, 0.0, 5.015335, 4.988843 
2.757795e+1, 1.2649831e+2, -1666168.4, -1711183.4, 222.21532, -0.007850007, -0.005037812, -1666167.4, 34149.08, 0.0, 5.015061, 4.9857664 
2.7578378e+1, 1.314841e+2, -1618146.5, -1662674.0, 82.75889, -0.0048998944, -0.005573347, -1618146.4, 33310.836, 0.0, 5.0147414, 4.985764 
2.7578813e+1, 1.3646986e+2, -1572328.3, -1618697.8, -55.038204, -0.0018772488, -0.0048353216, -1572328.3, 30269.975, 0.0, 5.014421, 4.9842577 
2.7579054e+1, 1.4145273e+2, -1530688.3, -1583923.9, -216.17638, -0.0002747316, 0.00946972, -1530687.4, 23079.877, 0.0, 5.014218, 4.9795656 
2.7578875e+1, 1.4643261e+2, -1481295.1, -1534302.0, -166.29807, -0.002017868, 0.008430311, -1481294.6, 23670.623, 0.0, 5.014244, 4.979737 
2.7578682e+1, 1.5141244e+2, -1432137.6, -1485193.4, -97.95157, -0.0038983568, 0.006669659, -1432137.4, 24026.186, 0.0, 5.014277, 4.9797373 
2.7578488e+1, 1.5639228e+2, -1384409.9, -1439063.3, -29.842182, -0.00578032, 0.005362516, -1384409.9, 22952.098, 0.0, 5.0143094, 4.9787426 
2.7578366e+1, 1.6136834e+2, -1343391.0, -1406984.0, -49.80668, -0.0066742306, 0.009418335, -1343391.0, 15205.697, 0.0, 5.0143414, 4.9730487 
2.7578387e+1, 1.6634145e+2, -1294022.8, -1357457.0, -108.3671, -0.0053605926, 0.0066394364, -1294022.5, 15836.026, 0.0, 5.014365, 4.9731717 
2.757841e+1, 1.7131463e+2, -1244833.3, -1308300.9, -147.54218, -0.003964331, 0.0038548533, -1244832.9, 16287.207, 0.0, 5.014387, 4.973172 
2.7578434e+1, 1.7628777e+2, -1196781.0, -1261549.9, -186.72551, -0.0025677024, 0.0014554148, -1196780.4, 15601.272, 0.0, 5.014409, 4.9723654 
2.7578366e+1, 1.812572e+2, -1156598.6, -1231341.6, -286.71655, -0.001765682, 0.006060262, -1156597.5, 7082.332, 0.0, 5.0143957, 4.965984 
2.757806e+1, 1.8622306e+2, -1107462.0, -1181756.6, -318.15585, -0.0025038696, 0.0005999624, -1107460.8, 7552.6963, 0.0, 5.014291, 4.9661636 
2.7577746e+1, 1.911889e+2, -1058584.1, -1132709.4, -324.92664, -0.0032895994, -0.0051632943, -1058582.6, 7764.232, 0.0, 5.0141816, 4.966165 
2.757743e+1, 1.9615477e+2, -1010596.2, -1085577.1, -332.36746, -0.004046065, -0.01060902, -1010594.7, 7085.6206, 0.0, 5.014072, 4.965516 
2.7577153e+1, 2.0111726e+2, -970542.75, -1055732.6, -548.2484, -0.0036729157, -0.0065427, -970539.2, -1492.058, 0.0, 5.013995, 4.958952 
2.757681e+1, 2.0607688e+2, -920816.1, -1005524.94, -754.1983, -0.0010479282, -0.005392811, -920809.44, -366.1972, 0.0, 5.0140076, 4.959263 
2.7576455e+1, 2.1103655e+2, -871491.94, -956215.0, -855.739, 0.001724447, -0.00443536, -871483.3, 355.69247, 0.0, 5.0140243, 4.959269 
2.7576104e+1, 2.159962e+2, -822833.8, -908362.1, -957.781, 0.004602072, -0.003463198, -822823.06, 411.63635, 0.0, 5.014041, 4.958776 
2.7575764e+1, 2.2095223e+2, -782856.75, -879355.6, -632.268, 0.006070151, 0.005157843, -782852.6, -8186.632, 0.0, 5.0140295, 4.9518065 
2.7575603e+1, 2.259044e+2, -733366.7, -828956.8, -279.78955, 0.0041148663, 0.0019976809, -733365.9, -7230.763, 0.0, 5.01389, 4.9522247 
2.7575478e+1, 2.3085657e+2, -684438.94, -779788.25, -104.16349, 0.0021123672, -0.0020864126, -684438.9, -6834.4966, 0.0, 5.0137377, 4.9522333 
2.7575356e+1, 2.358087e+2, -636155.4, -732068.9, 67.421394, 0.00018958835, -0.006506259, -636155.3, -7081.5396, 0.0, 5.013584, 4.95174 
2.7575627e+1, 2.4075726e+2, -596426.7, -703211.94, 683.99207, -0.00025749303, -0.0018193054, -596422.3, -15845.06, 0.0, 5.0133924, 4.944685 
2.7576873e+1, 2.4570249e+2, -546971.4, -652087.4, 701.29614, 0.0017786756, -0.0061773015, -546966.7, -14857.006, 0.0, 5.013096, 4.945383 
2.7578187e+1, 2.5064793e+2, -498383.9, -602940.25, 496.09506, 0.004019821, -0.010049866, -498381.53, -14741.68, 0.0, 5.012795, 4.9454207 
2.757954e+1, 2.5559357e+2, -450037.72, -554358.94, 289.1615, 0.0065830974, -0.012238086, -450036.9, -14868.963, 0.0, 5.0124927, 4.9452605 
2.7581045e+1, 2.6053575e+2, -412328.03, -529276.8, 1857.8448, 0.0056594135, 0.0011185678, -412298.53, -25567.512, 0.0, 5.012185, 4.9367485 
2.7583423e+1, 2.6547444e+2, -361182.8, -475193.06, 4334.693, -0.0024179071, -0.0027336988, -361018.25, -22686.326, 0.0, 5.011917, 4.938266 
2.7586028e+1, 2.7041224e+2, -311190.4, -425292.2, 6116.171, -0.010231471, -0.025284793, -310863.5, -20921.92, 0.0, 5.011678, 4.938493 
2.7588767e+1, 2.753491e+2, -261050.5, -375731.63, 7820.1904, -0.017593002, -0.06552207, -260519.69, -18959.021, 0.0, 5.0114355, 4.938673 
2.758878e+1, 2.8028125e+2, -232790.69, -369761.63, 5527.1587, -0.040981982, -0.07424202, -232568.02, -39339.47, 0.0, 5.011135, 4.9238367 
2.7583632e+1, 2.8521138e+2, -182552.38, -313799.0, 1895.7603, -0.046216432, -0.016746894, -182525.0, -37596.867, 0.0, 5.0117507, 4.925478 
2.757917e+1, 2.9014012e+2, -130127.15, -262633.75, 532.6298, -0.03446686, 0.020905597, -130125.01, -33482.117, 0.0, 5.0127187, 4.9254117 
2.7574793e+1, 2.9506758e+2, -77604.92, -211604.03, -886.13007, -0.022493856, 0.041912865, -77599.06, -29228.486, 0.0, 5.0136805, 4.925346 
2.75705e+1, 3.0001262e+2, -10192.487, -91287.49, -924.15326, -0.016572943, 0.08106827, -10181.957, -10181.957, 0.0, 5.0144706, 4.9593525 
2.7566043e+1, 3.0497745e+2, -2583.3652, -72527.266, 485.6219, -0.038245484, 0.07619847, -2579.994, -2579.994, 0.0, 5.014729, 4.9655466 
2.756164e+1, 3.0994496e+2, 369.6826, -65574.555, 1554.0973, -0.06333611, 0.061834794, 406.2874, 406.2874, 0.0, 5.014972, 4.967776 
2.7557427e+1, 3.149171e+2, 3730.3115, -59033.402, 2651.0527, -0.088192075, 0.06840898, 3842.0894, 3842.0894, 0.0, 5.0152073, 4.970008 
3.2594195e+1, 1.2151409e+2, -1709757.5, -1750509.6, 1221.137, 0.0032713255, 0.008786716, -1709720.9, 39438.56, 0.0, 5.015339, 4.9887986 
3.2592994e+1, 1.2649938e+2, -1666427.3, -1711735.3, -35.25326, -0.008235709, 0.004310087, -1666427.3, 33879.27, 0.0, 5.0150647, 4.9855833 
3.259318e+1, 1.3148464e+2, -1618403.8, -1663217.4, -169.29668, -0.004404268, 0.0003878555, -1618403.1, 33049.83, 0.0, 5.0147448, 4.985583 
3.2593364e+1, 1.3646992e+2, -1572584.1, -1619233.0, -301.60492, -0.00062514655, -0.0022491636, -1572582.1, 30017.414, 0.0, 5.0144234, 4.984079 
3.259346e+1, 1.4145242e+2, -1530639.9, -1583821.5, -244.02087, 0.0015512075, 0.0094561055, -1530638.8, 23133.408, 0.0, 5.0142174, 4.979599 
3.259335e+1, 1.4643228e+2, -1481167.6, -1534034.8, -141.34547, 0.00023604438, 0.007274236, -1481167.3, 23802.002, 0.0, 5.014244, 4.979825 
3.2593232e+1, 1.514121e+2, -1432010.6, -1484927.8, -71.82383, -0.0012459678, 0.004398797, -1432010.6, 24156.148, 0.0, 5.014277, 4.9798255 
3.259311e+1, 1.563919e+2, -1384283.5, -1438799.0, -2.544315, -0.0027542368, 0.0019710846, -1384283.5, 23080.709, 0.0, 5.0143094, 4.9788303 
3.259296e+1, 1.6136798e+2, -1343416.0, -1407039.6, -30.711569, -0.0042204377, 0.0057338937, -1343416.0, 15182.196, 0.0, 5.0143423, 4.97303 
3.2592738e+1, 1.6634122e+2, -1294089.4, -1357600.5, -92.27644, -0.005543082, 0.0044656503, -1294089.3, 15770.45, 0.0, 5.0143657, 4.973124 
3.2592514e+1, 1.7131446e+2, -1244899.8, -1308444.3, -129.68546, -0.0068912585, 0.0032556287, -1244899.5, 16221.374, 0.0, 5.014388, 4.973124 
3.2592282e+1, 1.7628774e+2, -1196847.3, -1261693.1, -167.10532, -0.008273973, 0.0024340197, -1196846.9, 15535.161, 0.0, 5.01441, 4.972317 
3.2592076e+1, 1.8125722e+2, -1156631.3, -1231408.3, -347.16626, -0.008725047, 0.00795783, -1156629.6, 7050.4673, 0.0, 5.014395, 4.965961 
3.259188e+1, 1.8622299e+2, -1107475.1, -1181781.4, -401.66556, -0.0072845826, 0.001876089, -1107473.0, 7541.0327, 0.0, 5.014291, 4.9661546 
3.2591683e+1, 1.9118878e+2, -1058597.3, -1132735.8, -405.33063, -0.005810745, -0.00457705, -1058595.0, 7752.8945, 0.0, 5.0141816, 4.9661555 
3.2591483e+1, 1.9615456e+2, -1010609.4, -1085605.5, -409.65335, -0.0043522106, -0.010716455, -1010607.1, 7074.6147, 0.0, 5.014072, 4.965506 
3.2591286e+1, 2.0111704e+2, -970681.56, -1056024.5, -570.17065, -0.002362534, -0.0065669436, -970677.75, -1628.8215, 0.0, 5.013994, 4.958853 
3.2590947e+1, 2.060766e+2, -920990.75, -1005891.6, -740.5399, 0.00014584475, -0.0045675077, -920984.3, -537.89166, 0.0, 5.0140057, 4.959139 
3.259059e+1, 2.1103622e+2, -871669.0, -956586.9, -836.1774, 0.0026338454, -0.0028465153, -871660.75, 182.93091, 0.0, 5.0140224, 4.959143 
3.2590228e+1, 2.1599583e+2, -823013.3, -908739.1, -932.316, 0.0051704184, -0.0010944622, -823003.2, 237.80809, 0.0, 5.014038, 4.958648 
3.258986e+1, 2.2095181e+2, -782748.7, -879124.06, -734.4995, 0.006629172, 0.007657724, -782743.06, -8069.975, 0.0, 5.0140305, 4.9518843 
3.2589567e+1, 2.2590397e+2, -733052.3, -828289.75, -406.3713, 0.0047068372, 0.0022626917, -733050.56, -6910.4976, 0.0, 5.013893, 4.9524508 
3.2589296e+1, 2.3085614e+2, -684130.1, -779139.1, -214.00523, 0.0025529852, -0.0042388835, -684129.7, -6522.775, 0.0, 5.013741, 4.952455 
3.2589024e+1, 2.3580828e+2, -635852.0, -731437.56, -25.66303, 0.00039383583, -0.011047722, -635852.0, -6778.058, 0.0, 5.013588, 4.951957 
3.2589218e+1, 2.4075703e+2, -596671.3, -703779.6, 552.94336, 0.00036372556, -0.0051879655, -596668.44, -16093.465, 0.0, 5.013394, 4.94449 
3.2590282e+1, 2.4570255e+2, -547305.94, -652864.8, 476.54984, 0.0040404648, -0.004349127, -547303.8, -15194.19, 0.0, 5.0130997, 4.9451094 
3.2591367e+1, 2.5064817e+2, -498703.56, -603712.06, 292.16412, 0.007835259, -0.0039239842, -498702.75, -15059.533, 0.0, 5.0128026, 4.945146 
3.2592487e+1, 2.5559402e+2, -450342.53, -555125.25, 106.06281, 0.011886916, -0.0020776838, -450342.44, -15167.429, 0.0, 5.012505, 4.9449844 
3.259341e+1, 2.6053643e+2, -411087.4, -526553.1, 1162.0541, 0.010600109, 0.013970293, -411075.72, -24338.56, 0.0, 5.0122013, 4.9376802 
3.259524e+1, 2.6547593e+2, -358066.13, -468501.4, 4132.6147, -0.005588725, -0.004313816, -357911.7, -19595.14, 0.0, 5.011974, 4.9405537 
3.2597458e+1, 2.7041453e+2, -308004.84, -418772.53, 6290.411, -0.022535719, -0.045151655, -307648.75, -17745.104, 0.0, 5.01178, 4.940726 
3.25998e+1, 2.7535203e+2, -257796.61, -369382.8, 8370.993, -0.039258428, -0.10409748, -257172.13, -15670.943, 0.0, 5.0115824, 4.940851 
3.2599127e+1, 2.802852e+2, -234147.4, -372959.66, 2023.6343, -0.048775032, -0.113916844, -234117.9, -40969.336, 0.0, 5.011145, 4.92269 
3.2594544e+1, 2.8521568e+2, -185073.16, -318623.8, 1585.8141, -0.04209482, -0.036799874, -185054.33, -40197.277, 0.0, 5.011622, 4.923735 
3.2591137e+1, 2.9014418e+2, -132636.42, -267582.2, 504.6973, -0.03632861, 0.013629557, -132634.55, -36045.605, 0.0, 5.0125957, 4.9236307 
3.2587805e+1, 2.950714e+2, -80101.63, -216675.81, -632.3765, -0.030550305, 0.04790007, -80098.7, -31765.04, 0.0, 5.0135636, 4.923527 
3.258426e+1, 3.0001596e+2, -10786.874, -91988.47, -1298.7147, -0.029245108, 0.09574375, -10766.108, -10766.108, 0.0, 5.0143514, 4.959119 
3.257953e+1, 3.0497918e+2, -615.7696, -67278.32, 567.1902, -0.056002617, 0.060942464, -610.94403, -610.94403, 0.0, 5.0146275, 4.9674573 
3.25748e+1, 3.099449e+2, 2522.458, -59989.043, 2545.8164, -0.08798956, 0.0075008934, 2625.9663, 2625.9663, 0.0, 5.014901, 4.969771 
3.257024e+1, 3.1491527e+2, 6066.361, -53110.023, 4551.739, -0.12034241, -0.026473938, 6414.4253, 6414.4253, 0.0, 5.0151663, 4.972088 
3.7608722e+1, 1.2151451e+2, -1710098.8, -1750707.1, 1188.8418, -0.00532044, 0.009871059, -1710064.0, 39091.406, 0.0, 5.015232, 4.9887857 
3.7608054e+1, 1.2650047e+2, -1666854.5, -1712365.3, -340.44083, -0.008490196, 0.013758506, -1666851.9, 33444.61, 0.0, 5.0150137, 4.9854 
3.7607992e+1, 1.3148522e+2, -1618728.3, -1663789.8, -438.642, -0.003838209, 0.0064176694, -1618724.0, 32724.658, 0.0, 5.014726, 4.985402 
3.7607926e+1, 1.3646996e+2, -1572866.0, -1619777.8, -546.25354, 0.00064481696, 0.00037265904, -1572859.6, 29741.229, 0.0, 5.0144176, 4.9839 
3.760787e+1, 1.4145213e+2, -1530623.4, -1583742.4, -263.75443, 0.0033713877, 0.009464106, -1530622.0, 23154.898, 0.0, 5.0142083, 4.979629 
3.7607825e+1, 1.4643195e+2, -1481064.5, -1533779.1, -107.745895, 0.0024917691, 0.006130675, -1481064.3, 23909.078, 0.0, 5.0142355, 4.979913 
3.760778e+1, 1.5141174e+2, -1431915.0, -1484677.0, -38.40262, 0.0014139771, 0.0021276784, -1431915.0, 24254.838, 0.0, 5.0142665, 4.979913 
3.760773e+1, 1.5639153e+2, -1384206.0, -1438558.1, 31.81491, 0.00028678143, -0.0014335811, -1384205.9, 23160.568, 0.0, 5.014293, 4.978918 
3.760756e+1, 1.6136762e+2, -1343503.9, -1407131.9, -3.145358, -0.001763843, 0.0020626772, -1343503.9, 15095.692, 0.0, 5.014323, 4.973008 
3.7607095e+1, 1.6634096e+2, -1294202.3, -1357765.4, -69.48943, -0.005727622, 0.0023015118, -1294202.1, 15658.561, 0.0, 5.014351, 4.9730754 
3.7606612e+1, 1.7131433e+2, -1245022.0, -1308613.8, -107.78669, -0.009816874, 0.0026495273, -1245021.9, 16099.706, 0.0, 5.01437, 4.973076 
3.7606132e+1, 1.7628771e+2, -1197002.6, -1261878.4, -147.55534, -0.013972597, 0.0033881303, -1197002.3, 15380.125, 0.0, 5.0143805, 4.9722686 
3.7605786e+1, 1.8125723e+2, -1156784.3, -1231545.3, -410.52826, -0.015681185, 0.009902392, -1156782.0, 6898.319, 0.0, 5.014357, 4.965932 
3.7605703e+1, 1.8622294e+2, -1107566.3, -1181842.1, -485.94397, -0.012052736, 0.003186942, -1107563.0, 7451.5005, 0.0, 5.014264, 4.9661455 
3.7605622e+1, 1.9118865e+2, -1058671.9, -1132790.5, -486.69952, -0.008304121, -0.004000934, -1058668.6, 7680.2065, 0.0, 5.0141606, 4.9661455 
3.7605542e+1, 1.9615436e+2, -1010688.7, -1085664.0, -489.5796, -0.004612513, -0.010878686, -1010685.5, 6997.6636, 0.0, 5.0140495, 4.9654956 
3.760542e+1, 2.011168e+2, -970915.06, -1056390.9, -594.6478, -0.0010685761, -0.0064830002, -970910.94, -1860.2896, 0.0, 5.0139675, 4.95874 
3.7605083e+1, 2.0607635e+2, -921228.2, -1006286.25, -722.9877, 0.0013506785, -0.0036744277, -921222.06, -772.56085, 0.0, 5.0139823, 4.9590135 
3.7604722e+1, 2.110359e+2, -871906.94, -956985.8, -810.221, 0.003615509, -0.0013209663, -871899.2, -50.834076, 0.0, 5.013999, 4.9590163 
3.760436e+1, 2.1599546e+2, -823265.7, -909148.9, -901.3388, 0.005874534, 0.0010809182, -823256.25, -8.938276, 0.0, 5.0140104, 4.95852 
3.760395e+1, 2.2095138e+2, -782809.56, -879110.44, -820.78064, 0.007108665, 0.010406857, -782802.56, -8122.3096, 0.0, 5.0140014, 4.9518995 
3.7603527e+1, 2.2590356e+2, -732841.3, -827668.3, -519.7716, 0.005210655, 0.002653336, -732838.5, -6693.439, 0.0, 5.0138607, 4.9526734 
3.7603116e+1, 2.3085572e+2, -683984.56, -778562.56, -308.3271, 0.003021351, -0.0066719125, -683983.56, -6373.9478, 0.0, 5.013688, 4.9526734 
3.7602702e+1, 2.3580787e+2, -635817.94, -730926.4, -101.90847, 0.00074732676, -0.016271986, -635817.8, -6743.435, 0.0, 5.013498, 4.9521713 
3.760281e+1, 2.4075688e+2, -597411.06, -704756.9, 440.8498, 0.0010488735, -0.007739211, -597409.25, -16837.29, 0.0, 5.013259, 4.944214 
3.7603706e+1, 2.4570271e+2, -548016.94, -653813.0, 281.35126, 0.006444445, -0.0014628706, -548016.2, -15907.8125, 0.0, 5.0129714, 4.9448323 
3.760459e+1, 2.5064853e+2, -499322.22, -604622.7, 71.40354, 0.011969825, 0.0024404207, -499322.2, -15676.341, 0.0, 5.0127063, 4.944866 
3.7605506e+1, 2.5559446e+2, -450818.03, -555975.06, -195.46655, 0.017689943, 0.007500759, -450817.66, -15635.881, 0.0, 5.012459, 4.944702 
3.7605754e+1, 2.6053664e+2, -411174.53, -526435.8, 342.53998, 0.015012237, 0.02665314, -411173.53, -24425.668, 0.0, 5.0121403, 4.937695 
3.7607086e+1, 2.654765e+2, -356840.44, -462623.9, 4192.2896, -0.009017631, -0.013430911, -356674.53, -18364.18, 0.0, 5.0113535, 4.9427276 
3.760905e+1, 2.7041557e+2, -309764.13, -414403.2, 7041.662, -0.033852667, -0.081904575, -309292.38, -19414.975, 0.0, 5.0101066, 4.9428496 
3.7611142e+1, 2.7535355e+2, -263797.9, -367060.88, 9761.228, -0.058527272, -0.16864985, -262883.28, -21427.645, 0.0, 5.008397, 4.9429255 
3.7609604e+1, 2.8028965e+2, -252469.16, -391245.94, -667.80237, -0.0549588, -0.14687252, -252465.94, -59401.98, 0.0, 5.0065126, 4.918267 
3.7605357e+1, 2.852218e+2, -196521.84, -327473.75, 2117.5623, -0.037771866, -0.026336899, -196487.61, -51719.598, 0.0, 5.0082717, 4.9218974 
3.7603015e+1, 2.901497e+2, -140331.33, -274873.5, 1078.3636, -0.0378252, 0.02826831, -140322.69, -43802.438, 0.0, 5.010595, 4.9217596 
3.760075e+1, 2.9507634e+2, -85276.59, -222962.6, 12.936491, -0.037945334, 0.06734876, -85276.59, -36991.477, 0.0, 5.012475, 4.9216223 
3.7597904e+1, 3.0001858e+2, -14736.37, -97215.71, -1668.5847, -0.041364733, 0.107770614, -14702.628, -14702.628, 0.0, 5.0135894, 4.9574704 
3.7592748e+1, 3.0497798e+2, -3600.4111, -64262.06, -779.66266, -0.07533234, 0.013976725, -3590.392, -3590.392, 0.0, 5.012711, 4.969068 
3.7587574e+1, 3.0994087e+2, -6259.4854, -59275.58, -472.37305, -0.11619734, -0.10587466, -6255.277, -6255.277, 0.0, 5.010807, 4.971441 
3.758257e+1, 3.1490842e+2, -10925.378, -55726.336, -1257.1067, -0.15769288, -0.207826, -10890.132, -10890.132, 0.0, 5.008003, 4.9738164 
4.262313e+1, 1.2151375e+2, -1713484.3, -1751854.1, -9.9579115, -0.007007261, 0.008977494, -1713484.3, 35680.465, 0.0, 5.0140004, 4.9890137 
4.262319e+1, 1.2650041e+2, -1669311.1, -1713362.1, -1273.6777, -0.0028671601, 0.018560575, -1669274.3, 31024.236, 0.0, 5.014157, 4.9854894 
4.2622796e+1, 1.3148507e+2, -1619766.8, -1664106.6, -1063.0914, -0.0011207045, 0.009407325, -1619741.3, 31709.938, 0.0, 5.0143433, 4.9854817 
4.2622414e+1, 1.364697e+2, -1572434.0, -1619395.6, -849.089, 0.00079891813, 0.0015049644, -1572418.8, 30185.47, 0.0, 5.014529, 4.9839697 
4.2622167e+1, 1.414518e+2, -1529168.0, -1582836.5, -284.9575, 0.0020423853, 0.009133058, -1529166.5, 24614.125, 0.0, 5.0146546, 4.979712 
4.2622146e+1, 1.4643165e+2, -1479784.0, -1532960.8, -117.361176, 0.0013969422, 0.0051981374, -1479783.8, 25192.232, 0.0, 5.0146246, 4.979997 
4.262213e+1, 1.5141147e+2, -1430841.0, -1483959.8, -54.09541, 0.0006687274, 0.0006094595, -1430841.0, 25330.627, 0.0, 5.014587, 4.979998 
4.2622116e+1, 1.5639128e+2, -1383325.6, -1437936.0, 9.128254, -0.000046183, -0.0035462002, -1383325.6, 24041.66, 0.0, 5.014549, 4.9790034 
4.2621964e+1, 1.613674e+2, -1343031.4, -1407009.0, -44.197426, -0.0017956474, -0.0002656919, -1343031.4, 15568.625, 0.0, 5.014506, 4.9729624 
4.2621493e+1, 1.6634072e+2, -1294041.9, -1357903.0, -179.13365, -0.0057077226, 0.0008859998, -1294041.4, 15820.366, 0.0, 5.0144515, 4.972982 
4.262101e+1, 1.713141e+2, -1245079.6, -1308860.1, -287.7222, -0.00964931, 0.002174411, -1245078.4, 16045.062, 0.0, 5.0143967, 4.972981 
4.2620525e+1, 1.7628746e+2, -1197252.4, -1262221.5, -395.13715, -0.013553029, 0.0038137985, -1197250.0, 15135.062, 0.0, 5.0143414, 4.9721723 
4.2620155e+1, 1.81257e+2, -1156965.6, -1231628.8, -700.58405, -0.0150889745, 0.010823357, -1156959.1, 6724.393, 0.0, 5.014293, 4.9659343 
4.2620006e+1, 1.8622269e+2, -1107563.1, -1181756.0, -726.74493, -0.011453365, 0.0036331594, -1107556.0, 7461.288, 0.0, 5.014247, 4.966182 
4.2619866e+1, 1.9118838e+2, -1058508.8, -1132628.9, -664.3156, -0.0075869295, -0.004050432, -1058502.9, 7848.316, 0.0, 5.0141993, 4.966182 
4.261973e+1, 1.9615409e+2, -1010345.6, -1085417.8, -601.08264, -0.0036700552, -0.011396124, -1010340.8, 7344.0493, 0.0, 5.0141516, 4.9655313 
4.2619532e+1, 2.0111652e+2, -970526.2, -1056360.9, -567.79645, -0.0003287615, -0.0070545794, -970522.44, -1470.1829, 0.0, 5.0141354, 4.9586716 
4.261913e+1, 2.0607603e+2, -920710.4, -1006282.1, -646.4547, 0.0009140259, -0.003842846, -920705.44, -253.09149, 0.0, 5.014212, 4.9589076 
4.261871e+1, 2.1103552e+2, -871201.75, -956901.3, -722.97144, 0.0020329645, -0.0010467414, -871195.7, 656.961, 0.0, 5.0142956, 4.9589076 
4.2618293e+1, 2.1599503e+2, -822361.25, -908977.9, -798.8983, 0.0031981673, 0.0018772472, -822353.9, 898.9662, 0.0, 5.0143785, 4.9584084 
4.2617816e+1, 2.209509e+2, -781708.6, -878645.4, -820.2632, 0.0038055375, 0.011700028, -781701.7, -7015.0273, 0.0, 5.0143933, 4.9518795 
4.2617363e+1, 2.2590303e+2, -731962.4, -826996.5, -785.96783, 0.003722249, 0.0026138774, -731955.9, -5805.106, 0.0, 5.0141134, 4.9527874 
4.261694e+1, 2.308552e+2, -683496.06, -778052.8, -803.39404, 0.0037991414, -0.008125915, -683489.25, -5875.0557, 0.0, 5.0138054, 4.952792 
4.261652e+1, 2.3580736e+2, -635675.0, -730550.9, -822.8705, 0.0039820676, -0.018927677, -635667.9, -6590.114, 0.0, 5.0134964, 4.952295 
4.2616513e+1, 2.4075663e+2, -598103.8, -705372.5, -435.6051, 0.006004781, -0.007898786, -598102.06, -17529.463, 0.0, 5.0131063, 4.944063 
4.261705e+1, 2.4570282e+2, -549066.6, -654846.0, -582.7766, 0.011354653, 0.003642129, -549063.4, -16954.686, 0.0, 5.0127172, 4.9445853 
4.261759e+1, 2.5064883e+2, -500626.78, -605942.56, -711.7183, 0.016914189, 0.011765292, -500621.97, -16974.316, 0.0, 5.012354, 4.944564 
4.261819e+1, 2.5559488e+2, -452429.47, -557600.44, -833.28204, 0.022769239, 0.020873569, -452422.88, -17236.975, 0.0, 5.011985, 4.944344 
4.2617992e+1, 2.6053658e+2, -412417.1, -526984.4, -343.4713, 0.020679092, 0.041029546, -412416.06, -25658.25, 0.0, 5.011531, 4.937745 
4.2619285e+1, 2.654767e+2, -358732.4, -458259.25, 1483.0878, 0.007429231, -0.018007139, -358710.3, -20400.184, 0.0, 5.0096087, 4.9448547 
4.2621678e+1, 2.7041745e+2, -314532.47, -410408.06, 1984.7438, 0.0018351328, -0.09706071, -314491.4, -24638.756, 0.0, 5.007394, 4.945134 
4.2624533e+1, 2.7535814e+2, -270309.06, -362706.72, 2389.2754, 0.0034801317, -0.18182322, -270247.3, -28851.648, 0.0, 5.0051417, 4.9453664 
4.2623726e+1, 2.8029945e+2, -258356.92, -402425.94, -7851.871, 0.03731286, -0.102664664, -257930.25, -64983.33, 0.0, 5.005702, 4.9143677 
4.2619377e+1, 2.8523073e+2, -195675.38, -332187.06, -334.38342, 0.036566008, 0.027810961, -195674.56, -51009.582, 0.0, 5.008329, 4.9201565 
4.2617106e+1, 2.901557e+2, -142961.17, -280703.78, 3.731474, 0.0114795705, 0.054881603, -142961.17, -46508.164, 0.0, 5.0094976, 4.9202313 
4.2615128e+1, 2.9508027e+2, -90227.43, -229296.39, 276.4216, -0.00811168, 0.07521748, -90226.88, -41981.664, 0.0, 5.0106015, 4.920306 
4.261261e+1, 3.0001932e+2, -20234.73, -104522.836, -835.9996, -0.023431743, 0.09416599, -20226.44, -20226.44, 0.0, 5.0117803, 4.955821 
4.2608014e+1, 3.049778e+2, -1248.1869, -65197.355, 207.01294, -0.049674924, -0.017668864, -1247.5167, -1247.5167, 0.0, 5.0130587, 4.9686723 
4.260427e+1, 3.0994007e+2, 3320.8884, -59867.742, 1592.2433, -0.06636302, -0.15192294, 3360.9849, 3360.9849, 0.0, 5.0142193, 4.9698706 
4.2601487e+1, 3.149048e+2, 8025.974, -54679.332, 2644.6567, -0.06879055, -0.2750314, 8137.3174, 8137.3174, 0.0, 5.015308, 4.97107 
4.7637326e+1, 1.21512234e+2, -1712879.1, -1750688.0, -133.43167, -0.005447428, 0.007513761, -1712878.8, 36304.5, 0.0, 5.014009, 4.9893966 
4.7638357e+1, 1.2649941e+2, -1668854.0, -1712487.3, -1142.1967, 0.0070335316, 0.01951686, -1668824.1, 31486.332, 0.0, 5.014165, 4.9857774 
4.7637597e+1, 1.314843e+2, -1619316.6, -1663227.0, -925.7139, 0.003329195, 0.00974073, -1619297.1, 32162.742, 0.0, 5.014349, 4.985772 
4.763685e+1, 1.3646914e+2, -1571990.9, -1618510.9, -705.85956, -0.00025985157, 0.0012601159, -1571980.1, 30629.508, 0.0, 5.0145326, 4.9842634 
4.7636348e+1, 1.4145143e+2, -1528964.0, -1582418.1, -271.4168, -0.0027479506, 0.008490115, -1528962.6, 24820.727, 0.0, 5.0146546, 4.9798512 
4.7636315e+1, 1.4643137e+2, -1479660.1, -1532703.8, -145.8808, -0.0032276048, 0.004523874, -1479659.8, 25317.867, 0.0, 5.014624, 4.9800835 
4.763629e+1, 1.5141127e+2, -1430718.1, -1483704.0, -80.934555, -0.0036623944, -0.0000797291, -1430718.0, 25454.021, 0.0, 5.0145864, 4.980084 
4.7636268e+1, 1.5639116e+2, -1383203.8, -1437681.3, -16.023043, -0.004091258, -0.004250839, -1383203.8, 24162.87, 0.0, 5.014549, 4.9790893 
4.763618e+1, 1.613673e+2, -1343139.4, -1407243.4, -88.92195, -0.0047651976, -0.0010502441, -1343139.3, 15459.986, 0.0, 5.014507, 4.972884 
4.7635922e+1, 1.6634052e+2, -1294228.6, -1358302.1, -223.27808, -0.005973847, 0.0002694435, -1294227.9, 15635.026, 0.0, 5.0144525, 4.9728484 
4.7635654e+1, 1.7131376e+2, -1245266.3, -1309255.3, -328.61703, -0.0071965894, 0.0017954528, -1245264.5, 15861.9375, 0.0, 5.0143967, 4.9728484 
4.7635388e+1, 1.7628704e+2, -1197438.9, -1262612.9, -432.77426, -0.008415091, 0.0036999432, -1197436.0, 14954.0205, 0.0, 5.014341, 4.972041 
4.7635105e+1, 1.812565e+2, -1156920.4, -1231539.4, -731.6887, -0.008642883, 0.010861339, -1156913.3, 6776.206, 0.0, 5.014294, 4.965965 
4.7634742e+1, 1.8622224e+2, -1107443.4, -1181510.4, -762.3771, -0.006649355, 0.0033613567, -1107435.5, 7586.5327, 0.0, 5.014248, 4.9662657 
4.7634375e+1, 1.91188e+2, -1058390.1, -1132381.9, -697.3784, -0.0045580342, -0.004648045, -1058383.6, 7970.9897, 0.0, 5.0142, 4.966266 
4.7634006e+1, 1.9615373e+2, -1010228.2, -1085169.6, -631.57056, -0.002448764, -0.0123081235, -1010222.9, 7464.1567, 0.0, 5.014152, 4.965616 
4.7633603e+1, 2.0111616e+2, -970563.6, -1056453.0, -533.8621, -0.0010959031, -0.008419526, -970560.3, -1506.3799, 0.0, 5.014137, 4.9586396 
4.7633073e+1, 2.060756e+2, -920832.25, -1006559.2, -579.73126, -0.0018908548, -0.005086559, -920828.3, -373.06628, 0.0, 5.0142145, 4.958813 
4.7632533e+1, 2.1103501e+2, -871324.5, -957178.1, -653.4063, -0.0028180424, -0.0020153401, -871319.56, 537.1696, 0.0, 5.014297, 4.958813 
4.7631997e+1, 2.1599446e+2, -822484.94, -909254.56, -726.49817, -0.0037422667, 0.0011948529, -822478.8, 779.3412, 0.0, 5.0143795, 4.958314 
4.763143e+1, 2.2095028e+2, -781732.2, -878710.44, -932.01215, -0.004202371, 0.011112143, -781723.25, -7030.25, 0.0, 5.0143943, 4.951858 
4.763105e+1, 2.2590241e+2, -731958.06, -827015.75, -999.7376, -0.0008309266, 0.0020580338, -731947.56, -5790.263, 0.0, 5.0141163, 4.9527826 
4.7630706e+1, 2.3085457e+2, -683488.4, -778073.4, -1011.2418, 0.003065999, -0.008565884, -683477.56, -5856.658, 0.0, 5.0138097, 4.9527864 
4.7630367e+1, 2.3580672e+2, -635663.8, -730572.8, -1024.77, 0.006995856, -0.01925589, -635652.75, -6568.194, 0.0, 5.0135016, 4.952289 
4.7630197e+1, 2.407561e+2, -598121.25, -705544.2, -759.2895, 0.010883695, -0.007257555, -598115.9, -17536.928, 0.0, 5.0131183, 4.9440084 
4.7630084e+1, 2.4570255e+2, -549193.56, -655328.5, -891.8558, 0.013722118, 0.00858217, -549186.06, -17072.299, 0.0, 5.012736, 4.9444265 
4.7629967e+1, 2.506488e+2, -500740.22, -606401.2, -1013.1996, 0.016538657, 0.02116871, -500730.5, -17078.895, 0.0, 5.012376, 4.9444103 
4.7629905e+1, 2.5559512e+2, -452529.53, -558035.44, -1127.1475, 0.019572802, 0.03451886, -452517.5, -17328.637, 0.0, 5.0120096, 4.944196 
4.762918e+1, 2.605366e+2, -412009.94, -526666.6, -928.5014, 0.016522845, 0.054469682, -412002.4, -25238.79, 0.0, 5.011592, 4.9378414 
4.7630006e+1, 2.6547635e+2, -357339.72, -456356.22, 570.8046, 0.012206397, -0.017316794, -357336.44, -19018.588, 0.0, 5.0097284, 4.945495 
4.7631818e+1, 2.7041677e+2, -313132.06, -408874.22, 1247.7527, 0.01489491, -0.109012, -313115.78, -23254.57, 0.0, 5.007559, 4.945664 
4.7634026e+1, 2.753571e+2, -268899.66, -361540.9, 1827.9258, 0.022524301, -0.20585206, -268863.6, -27457.525, 0.0, 5.005352, 4.9457855 
4.7633034e+1, 2.8029957e+2, -259937.0, -407257.72, -6289.5747, 0.051562056, -0.10848218, -259668.97, -66724.99, 0.0, 5.005847, 4.9126377 
4.762982e+1, 2.852322e+2, -194431.23, -330535.75, 392.61914, 0.048272964, 0.036252785, -194430.1, -49782.09, 0.0, 5.0083947, 4.920667 
4.7628644e+1, 2.9015735e+2, -141813.78, -279330.8, 944.48334, 0.025629187, 0.055659086, -141807.3, -45373.676, 0.0, 5.009554, 4.92068 
4.76277e+1, 2.9508212e+2, -89175.25, -228200.02, 1430.7826, 0.0061756964, 0.06943272, -89160.52, -40937.367, 0.0, 5.0106483, 4.9206924 
4.762621e+1, 3.0001983e+2, -19358.041, -104490.68, 451.67484, -0.011723461, 0.07093872, -19355.646, -19355.646, 0.0, 5.011909, 4.9558206 
4.7623363e+1, 3.0498087e+2, 2144.199, -61364.457, 1796.9417, -0.038188443, -0.042224508, 2195.002, 2195.002, 0.0, 5.0134706, 4.969751 
4.7621438e+1, 3.0994764e+2, 7365.9844, -56410.223, 3646.1543, -0.057544526, -0.1654808, 7573.762, 7573.762, 0.0, 5.014895, 4.9707475 
4.7620308e+1, 3.1491634e+2, 12722.046, -51596.72, 5162.51, -0.06727214, -0.281313, 13133.776, 13133.776, 0.0, 5.0162473, 4.9717455 
5.265156e+1, 1.21510744e+2, -1712231.1, -1749432.0, -255.35164, -0.0035608772, 0.0065606115, -1712229.4, 36972.1, 0.0, 5.0140176, 4.9898076 
5.265355e+1, 1.2649845e+2, -1668398.1, -1711612.1, -1014.797, 0.017108459, 0.02080016, -1668374.4, 31947.871, 0.0, 5.0141726, 4.986064 
5.265242e+1, 1.3148354e+2, -1618867.9, -1662347.3, -792.418, 0.007893651, 0.010293256, -1618853.5, 32615.076, 0.0, 5.014354, 4.986062 
5.2651286e+1, 1.364686e+2, -1571548.9, -1617626.0, -566.7126, -0.0012637458, 0.0011264922, -1571541.9, 31073.121, 0.0, 5.0145354, 4.9845557 
5.265053e+1, 1.4145106e+2, -1528767.9, -1582015.4, -259.73315, -0.0075394567, 0.00789674, -1528766.6, 25019.477, 0.0, 5.014655, 4.9799848 
5.265048e+1, 1.4643109e+2, -1479536.5, -1532446.8, -174.3372, -0.007850515, 0.0038660776, -1479536.0, 25443.23, 0.0, 5.014624, 4.9801693 
5.265045e+1, 1.5141106e+2, -1430595.6, -1483448.3, -107.71054, -0.007988381, -0.00079121743, -1430595.4, 25577.158, 0.0, 5.0145864, 4.98017 
5.265043e+1, 1.5639104e+2, -1383082.1, -1437426.5, -41.11124, -0.0081277, -0.005016545, -1383082.1, 24283.836, 0.0, 5.0145483, 4.979175 
5.26504e+1, 1.613672e+2, -1343268.1, -1407520.4, -133.20767, -0.007679437, -0.0017544411, -1343267.9, 15330.551, 0.0, 5.014508, 4.9727917 
5.265035e+1, 1.663403e+2, -1294416.0, -1358700.9, -268.86734, -0.0062075946, -0.00027606558, -1294414.9, 15449.089, 0.0, 5.014453, 4.9727144 
5.26503e+1, 1.7131345e+2, -1245453.5, -1309650.1, -370.95654, -0.004748258, 0.0014243899, -1245451.4, 15678.235, 0.0, 5.014397, 4.9727154 
5.2650243e+1, 1.762866e+2, -1197626.0, -1263003.9, -471.856, -0.0033183082, 0.0035308315, -1197622.6, 14772.424, 0.0, 5.0143404, 4.9719086 
5.265006e+1, 1.8125601e+2, -1156892.0, -1231485.3, -762.1574, -0.0021771765, 0.010953832, -1156884.3, 6811.041, 0.0, 5.0142946, 4.965983 
5.264948e+1, 1.8622181e+2, -1107324.3, -1181264.1, -799.0673, -0.001821772, 0.0031561037, -1107315.6, 7711.1465, 0.0, 5.0142493, 4.9663486 
5.2648884e+1, 1.9118759e+2, -1058272.1, -1132134.5, -731.49945, -0.0015288872, -0.005222571, -1058264.9, 8093.045, 0.0, 5.014201, 4.96635 
5.264829e+1, 1.961534e+2, -1010111.3, -1084920.9, -663.11694, -0.0012505411, -0.013240497, -1010105.44, 7583.6563, 0.0, 5.0141525, 4.9657006 
5.264767e+1, 2.0111582e+2, -970614.9, -1056573.4, -498.08176, -0.0018826869, -0.009744436, -970612.0, -1556.4525, 0.0, 5.0141387, 4.958598 
5.264701e+1, 2.0607516e+2, -920955.0, -1006835.56, -513.2123, -0.004702748, -0.00628561, -920951.9, -493.82266, 0.0, 5.0142164, 4.958718 
5.2646357e+1, 2.1103454e+2, -871448.1, -957454.3, -584.0454, -0.0076689227, -0.0029752755, -871444.2, 416.6228, 0.0, 5.014299, 4.9587183 
5.26457e+1, 2.159939e+2, -822609.44, -909530.56, -654.3019, -0.010675436, 0.00048512482, -822604.5, 658.986, 0.0, 5.0143805, 4.958219 
5.264505e+1, 2.2094965e+2, -781767.8, -878799.25, -1041.8259, -0.012214118, 0.010550455, -781756.6, -7057.2876, 0.0, 5.0143957, 4.951828 
5.2644736e+1, 2.2590178e+2, -731955.75, -827033.3, -1211.56, -0.005399054, 0.0014951599, -731940.3, -5776.488, 0.0, 5.0141187, 4.9527764 
5.264448e+1, 2.3085393e+2, -683482.6, -778092.25, -1217.142, 0.0023117582, -0.009096219, -683466.94, -5839.342, 0.0, 5.0138135, 4.9527802 
5.2644217e+1, 2.3580608e+2, -635654.56, -730593.06, -1224.7213, 0.009982406, -0.019757798, -635638.8, -6547.375, 0.0, 5.013507, 4.952282 
5.2643895e+1, 2.4075557e+2, -598185.9, -705803.4, -1081.304, 0.01582495, -0.0063302293, -598175.0, -17589.918, 0.0, 5.01313, 4.9439206 
5.264315e+1, 2.4570231e+2, -549329.94, -655801.94, -1206.438, 0.016206423, 0.01399121, -549316.3, -17197.805, 0.0, 5.012754, 4.944266 
5.264239e+1, 2.5064883e+2, -500863.06, -606850.75, -1320.1837, 0.016278004, 0.030927127, -500846.63, -17191.373, 0.0, 5.0123973, 4.944256 
5.264167e+1, 2.555954e+2, -452639.0, -558461.4, -1426.5154, 0.016489273, 0.04840512, -452619.78, -17428.21, 0.0, 5.012035, 4.9440475 
5.264042e+1, 2.6053655e+2, -411775.0, -526632.0, -1404.3549, 0.012027003, 0.067608945, -411757.84, -24987.494, 0.0, 5.011653, 4.9378166 
5.264093e+1, 2.654758e+2, -356007.47, -454398.6, -178.50697, 0.018161159, -0.019065598, -356007.13, -17679.486, 0.0, 5.0098486, 4.946104 
5.264235e+1, 2.7041584e+2, -311791.9, -407284.9, 673.855, 0.031180087, -0.12568305, -311787.13, -21914.564, 0.0, 5.007724, 4.946162 
5.26441e+1, 2.7535564e+2, -267550.38, -360318.78, 1429.8047, 0.04684248, -0.23688105, -267528.34, -26108.361, 0.0, 5.005563, 4.946173 
5.26425e+1, 2.8029975e+2, -262794.9, -414996.47, -4505.0635, 0.06534738, -0.11226961, -262661.7, -69721.47, 0.0, 5.005993, 4.9098883 
5.2639997e+1, 2.85234e+2, -193289.69, -328785.44, 1243.4628, 0.054781884, 0.052763876, -193278.28, -48651.07, 0.0, 5.008461, 4.9211483 
5.263993e+1, 2.9015929e+2, -140768.45, -277858.78, 2008.9309, 0.035754725, 0.06155332, -140739.02, -44327.477, 0.0, 5.0096107, 4.9210987 
5.2640045e+1, 2.9508418e+2, -88224.56, -227004.56, 2708.7124, 0.017611973, 0.065812565, -88171.71, -39972.184, 0.0, 5.010695, 4.9210486 
5.263965e+1, 3.0002007e+2, -19125.57, -105633.77, 2002.8676, -0.0024602374, 0.046644703, -19079.225, -19079.225, 0.0, 5.012038, 4.955337 
5.2639043e+1, 3.049831e+2, 5424.237, -57424.953, 3676.6685, -0.027768489, -0.075278975, 5638.5903, 5638.5903, 0.0, 5.0138826, 4.970741 
5.2639484e+1, 3.0995408e+2, 11299.259, -52846.008, 5989.436, -0.047625754, -0.19686662, 11853.718, 11853.718, 0.0, 5.015571, 4.9715357 
5.264057e+1, 3.149264e+2, 17306.756, -48407.26, 7969.315, -0.06249894, -0.31476277, 18259.406, 18259.406, 0.0, 5.0171876, 4.9723315 
5.766583e+1, 1.2150927e+2, -1711831.3, -1748226.1, -340.66406, -0.0013170708, 0.0060905544, -1711828.1, 37391.508, 0.0, 5.013931, 4.9902472 
5.7668763e+1, 1.2649748e+2, -1668104.6, -1710812.9, -858.24115, 0.027364146, 0.022384599, -1668087.5, 32246.414, 0.0, 5.0141273, 4.9863496 
5.766725e+1, 1.3148278e+2, -1618506.9, -1661507.5, -630.4476, 0.012573752, 0.011051839, -1618497.6, 32979.426, 0.0, 5.0143313, 4.98635 
5.7665735e+1, 1.3646807e+2, -1571170.1, -1616769.9, -401.10727, -0.0022102445, 0.0011002319, -1571166.6, 31453.758, 0.0, 5.0145183, 4.9848466 
5.766471e+1, 1.4145072e+2, -1528649.9, -1581662.6, -223.51913, -0.012324892, 0.007353055, -1528648.9, 25139.879, 0.0, 5.014632, 4.9801126 
5.766465e+1, 1.464308e+2, -1479477.6, -1532222.0, -185.69286, -0.0124639245, 0.0032255084, -1479477.0, 25503.707, 0.0, 5.014602, 4.980254 
5.7664615e+1, 1.5141086e+2, -1430539.1, -1483225.4, -130.40288, -0.012298967, -0.0015221155, -1430538.8, 25634.18, 0.0, 5.014564, 4.980254 
5.766458e+1, 1.5639092e+2, -1383036.1, -1437209.4, -78.59566, -0.012140841, -0.005836726, -1383036.0, 24329.332, 0.0, 5.014523, 4.9792595 
5.7664627e+1, 1.6136707e+2, -1343491.9, -1407875.0, -197.2259, -0.010522928, -0.0023697945, -1343491.3, 15106.314, 0.0, 5.014484, 4.972685 
5.7664794e+1, 1.6634008e+2, -1294655.5, -1359123.3, -322.82498, -0.006401048, -0.00074670877, -1294653.9, 15211.274, 0.0, 5.0144362, 4.9725804 
5.766495e+1, 1.7131312e+2, -1245692.1, -1310068.5, -411.6553, -0.0022994701, 0.0010588063, -1245689.5, 15443.138, 0.0, 5.01438, 4.972582 
5.76651e+1, 1.7628615e+2, -1197887.1, -1263429.5, -503.15112, 0.0017439158, 0.003296434, -1197883.3, 14516.803, 0.0, 5.014315, 4.971776 
5.7665014e+1, 1.8125552e+2, -1156967.8, -1231507.3, -780.15564, 0.0043165814, 0.011087294, -1156959.5, 6741.6064, 0.0, 5.014266, 4.965989 
5.766423e+1, 1.8622136e+2, -1107245.6, -1181036.4, -828.34314, 0.00303312, 0.0030126711, -1107236.4, 7795.05, 0.0, 5.014237, 4.9664316 
5.7663393e+1, 1.9118719e+2, -1058168.4, -1131893.1, -762.8013, 0.0015035501, -0.0057728803, -1058160.5, 8200.854, 0.0, 5.0141973, 4.966433 
5.7662565e+1, 1.9615304e+2, -1010006.94, -1084677.6, -697.01135, -0.00006866515, -0.014189909, -1010000.44, 7690.758, 0.0, 5.014149, 4.9657845 
5.766174e+1, 2.0111547e+2, -970704.5, -1056733.8, -465.68036, -0.00267745, -0.011026938, -970702.0, -1644.8322, 0.0, 5.014132, 4.958546 
5.766096e+1, 2.0607476e+2, -921119.8, -1007130.25, -451.05478, -0.007507575, -0.0074373093, -921117.44, -656.54095, 0.0, 5.014204, 4.9586225 
5.766019e+1, 2.1103404e+2, -871664.1, -957771.8, -512.66406, -0.01249631, -0.003923396, -871661.06, 203.76619, 0.0, 5.0142684, 4.958623 
5.765942e+1, 2.1599333e+2, -822910.7, -909886.6, -568.35, -0.017561443, -0.00024835605, -822907.0, 361.817, 0.0, 5.0143204, 4.958124 
5.765867e+1, 2.2094904e+2, -782053.3, -879022.5, -1125.0808, -0.020179529, 0.010016943, -782040.3, -7334.6846, 0.0, 5.014314, 4.951789 
5.765842e+1, 2.2590114e+2, -732113.9, -827122.0, -1410.7654, -0.00995455, 0.0009213581, -732092.94, -5922.5493, 0.0, 5.0140667, 4.9527698 
5.765825e+1, 2.3085329e+2, -683586.0, -778157.0, -1419.3115, 0.0015509996, -0.009727775, -683564.75, -5930.376, 0.0, 5.01378, 4.952773 
5.765807e+1, 2.3580544e+2, -635743.25, -730652.4, -1421.6417, 0.0129556265, -0.020452207, -635721.94, -6623.586, 0.0, 5.0134783, 4.9522743 
5.7657605e+1, 2.4075507e+2, -598394.1, -706189.25, -1385.2357, 0.020850278, -0.005144194, -598376.3, -17785.277, 0.0, 5.0131083, 4.9438014 
5.7656246e+1, 2.4570212e+2, -549500.8, -656273.4, -1477.01, 0.018831322, 0.019860977, -549480.4, -17357.54, 0.0, 5.012764, 4.944105 
5.765485e+1, 2.506489e+2, -500952.88, -607268.4, -1555.9531, 0.016161721, 0.04108018, -500930.1, -17271.58, 0.0, 5.012435, 4.9441004 
5.7653487e+1, 2.5559568e+2, -452659.0, -558830.5, -1634.0637, 0.013558596, 0.062646024, -452633.84, -17439.97, 0.0, 5.012096, 4.9438972 
5.7651716e+1, 2.6053643e+2, -411623.9, -526822.4, -1630.197, 0.0072579593, 0.080606475, -411600.8, -24823.053, 0.0, 5.011745, 4.9376755 
5.7652074e+1, 2.6547503e+2, -355100.1, -452487.38, -439.36722, 0.025460165, -0.023245743, -355098.13, -16758.76, 0.0, 5.0098367, 4.9466996 
5.765331e+1, 2.7041462e+2, -311766.2, -406089.84, 1078.5334, 0.051033456, -0.14724366, -311753.88, -21867.34, 0.0, 5.007438, 4.946658 
5.765479e+1, 2.7535388e+2, -268817.66, -360012.78, 2817.4067, 0.07702508, -0.27526507, -268730.72, -27293.64, 0.0, 5.0048547, 4.9465704 
5.7652175e+1, 2.8030005e+2, -270568.03, -427259.47, 124.50768, 0.079471305, -0.114554435, -270567.94, -77632.83, 0.0, 5.0048547, 4.906123 
5.764994e+1, 2.852363e+2, -194535.05, -328047.44, 4179.255, 0.05662235, 0.07697112, -194404.34, -49802.152, 0.0, 5.007723, 4.92157 
5.765099e+1, 2.901615e+2, -140936.89, -276844.7, 4385.2646, 0.04213139, 0.07234286, -140795.55, -44409.03, 0.0, 5.0092783, 4.9214673 
5.765217e+1, 2.9508635e+2, -87755.67, -225908.22, 4761.0522, 0.026310088, 0.064182736, -87591.79, -39417.566, 0.0, 5.010614, 4.921365 
5.765294e+1, 3.0002007e+2, -19636.957, -107974.52, 4119.4453, 0.004401051, 0.021100579, -19445.271, -19445.271, 0.0, 5.01214, 4.9543753 
5.765505e+1, 3.0498466e+2, 7934.369, -53639.01, 5438.1494, -0.018266305, -0.116705045, 8410.977, 8410.977, 0.0, 5.014074, 4.971638 
5.765844e+1, 3.099594e+2, 12829.342, -50139.42, 6896.7485, -0.03610211, -0.2451735, 13575.868, 13575.868, 0.0, 5.0154386, 4.9722176 
5.766232e+1, 3.1493503e+2, 16793.021, -47223.285, 7418.5503, -0.053360354, -0.3732419, 17641.477, 17641.477, 0.0, 5.0163393, 4.972797 
6.267965e+1, 1.2150862e+2, -1712747.6, -1748406.9, 786.2423, -0.00055224565, 0.0042000753, -1712730.3, 36494.74, 0.0, 5.0135856, 4.990348 
6.268304e+1, 1.2649629e+2, -1668877.4, -1710773.4, 522.70874, 0.030598613, 0.013577215, -1668870.9, 31472.914, 0.0, 5.0137944, 4.986519 
6.2681586e+1, 1.3148203e+2, -1618997.4, -1661344.8, 537.20294, 0.013896302, 0.0050831866, -1618990.6, 32491.393, 0.0, 5.014091, 4.9865165 
6.2680143e+1, 1.3646775e+2, -1571332.6, -1616460.0, 554.2632, -0.0026189254, -0.002132038, -1571325.9, 31294.648, 0.0, 5.014387, 4.98501 
6.267918e+1, 1.4145069e+2, -1528905.3, -1581933.3, 338.1703, -0.01364746, 0.006194465, -1528903.1, 24882.977, 0.0, 5.0145783, 4.9800487 
6.267914e+1, 1.4643078e+2, -1479866.0, -1532708.1, 27.69374, -0.013173781, 0.0030515678, -1479866.0, 25113.33, 0.0, 5.014535, 4.980126 
6.267913e+1, 1.5141079e+2, -1430968.8, -1483735.8, -218.81644, -0.012296592, -0.0007001006, -1430967.9, 25205.121, 0.0, 5.014483, 4.980124 
6.2679124e+1, 1.563908e+2, -1383498.9, -1437740.1, -465.5305, -0.0113806, -0.0039815013, -1383494.9, 23871.879, 0.0, 5.014431, 4.9791274 
6.267918e+1, 1.6136691e+2, -1343771.4, -1408068.3, -696.937, -0.009354655, -0.00020151184, -1343763.8, 14836.393, 0.0, 5.014402, 4.972658 
6.2679297e+1, 1.6633978e+2, -1294717.8, -1359144.3, -659.4267, -0.0055352086, 0.00004787155, -1294711.0, 15157.566, 0.0, 5.0144134, 4.9725833 
6.267941e+1, 1.7131267e+2, -1245556.0, -1310001.9, -578.3004, -0.0016463079, 0.00037182815, -1245550.9, 15586.238, 0.0, 5.0144253, 4.972583 
6.2679523e+1, 1.7628555e+2, -1197531.1, -1263265.1, -496.37946, 0.0022962089, 0.0010804795, -1197527.4, 14878.173, 0.0, 5.0144367, 4.9717746 
6.267941e+1, 1.8125485e+2, -1156391.8, -1231215.4, -614.7379, 0.0047831517, 0.008111253, -1156386.6, 7320.3677, 0.0, 5.0144625, 4.9659944 
6.267865e+1, 1.862208e+2, -1106342.4, -1180596.9, -764.3569, 0.0033306538, 0.0011468736, -1106334.5, 8701.786, 0.0, 5.014547, 4.9664335 
6.267784e+1, 1.9118674e+2, -1056892.8, -1131286.4, -830.6565, 0.0017385553, -0.006549577, -1056883.4, 9481.838, 0.0, 5.0146356, 4.9664335 
6.267704e+1, 1.9615267e+2, -1008336.4, -1083894.6, -896.5696, 0.00021298001, -0.013978825, -1008325.75, 9368.519, 0.0, 5.0147243, 4.9657826 
6.267622e+1, 2.0111513e+2, -968963.1, -1056003.5, -771.18726, -0.0023172176, -0.0105164675, -968956.3, 103.82934, 0.0, 5.014749, 4.958509 
6.267539e+1, 2.0607431e+2, -920089.1, -1006776.5, -739.6493, -0.007182606, -0.007234219, -920082.8, 381.97006, 0.0, 5.014586, 4.9585676 
6.267457e+1, 2.1103351e+2, -871322.2, -957728.6, -772.8746, -0.012034269, -0.003958534, -871315.3, 554.26215, 0.0, 5.0144105, 4.9585724 
6.2673753e+1, 2.1599273e+2, -823218.2, -910133.7, -806.7315, -0.016774211, -0.0005217425, -823210.7, 63.51444, 0.0, 5.014235, 4.958078 
6.267296e+1, 2.2094838e+2, -782662.75, -879310.0, -1331.8326, -0.019117525, 0.009335214, -782644.4, -7932.651, 0.0, 5.0141068, 4.9517865 
6.26725e+1, 2.2590049e+2, -732190.0, -827275.56, -1701.8685, -0.009753093, 0.00087233493, -732159.56, -5982.253, 0.0, 5.014073, 4.952715 
6.267212e+1, 2.3085262e+2, -682925.3, -777941.56, -1815.097, 0.001050812, -0.008964184, -682890.7, -5248.6914, 0.0, 5.0140414, 4.9527264 
6.267176e+1, 2.3580477e+2, -634309.1, -730056.7, -1936.1458, 0.012064258, -0.018934565, -634270.0, -5163.344, 0.0, 5.014008, 4.952236 
6.267105e+1, 2.407543e+2, -596015.56, -704721.06, -2009.3627, 0.019601613, -0.0047475817, -595978.44, -15377.987, 0.0, 5.013885, 4.9439497 
6.2669295e+1, 2.4570134e+2, -546909.56, -654692.6, -1751.501, 0.0166449, 0.01885878, -546881.1, -14749.803, 0.0, 5.0136156, 4.9442644 
6.266751e+1, 2.5064823e+2, -498208.06, -605624.1, -1430.0916, 0.013085995, 0.040031094, -498189.03, -14524.39, 0.0, 5.013344, 4.9442596 
6.266577e+1, 2.555952e+2, -449749.28, -557120.8, -1097.5192, 0.009675954, 0.062280487, -449738.06, -14541.059, 0.0, 5.0130653, 4.9440565 
6.266382e+1, 2.605363e+2, -408350.94, -524468.25, -753.34796, 0.004722287, 0.079882294, -408346.03, -21568.246, 0.0, 5.012775, 4.938039 
6.266393e+1, 2.6547527e+2, -351602.66, -451166.72, -3376.4968, 0.03432795, -0.015579289, -351488.28, -13146.701, 0.0, 5.0112514, 4.9464984 
6.266485e+1, 2.704155e+2, -306153.0, -402936.1, -6444.799, 0.072884254, -0.1300191, -305725.72, -15836.637, 0.0, 5.0094585, 4.946782 
6.2666047e+1, 2.7535576e+2, -260604.06, -354945.56, -9721.162, 0.112379745, -0.25038138, -259612.8, -18175.664, 0.0, 5.0076323, 4.947019 
6.266319e+1, 2.8030193e+2, -256114.23, -418046.28, -8787.323, 0.10685088, -0.10137248, -255638.78, -62699.938, 0.0, 5.009171, 4.9077625 
6.2661135e+1, 2.8523692e+2, -183839.02, -324349.88, -1253.4136, 0.066926636, 0.07601495, -183827.83, -39216.902, 0.0, 5.0113525, 4.9219027 
6.2662584e+1, 2.9016122e+2, -134698.28, -273934.03, 263.25592, 0.049908094, 0.065535374, -134697.78, -38302.523, 0.0, 5.0112596, 4.922076 
6.2664247e+1, 2.9508507e+2, -85482.63, -223600.05, 1552.5765, 0.032801162, 0.047215488, -85465.18, -37281.297, 0.0, 5.011107, 4.922251 
6.2665963e+1, 3.000181e+2, -21146.967, -106651.75, 1262.8048, 0.010484528, -0.006778212, -21128.32, -21128.32, 0.0, 5.0113273, 4.9552965 
6.26712e+1, 3.0498478e+2, 2757.0332, -55906.676, -2397.194, 0.0015670691, -0.119248696, 2854.8276, 2854.8276, 0.0, 5.0124025, 4.9716496 
6.267827e+1, 3.0996308e+2, 6150.768, -53761.258, -4986.8076, 0.005005548, -0.19904537, 6563.0107, 6563.0107, 0.0, 5.0133615, 4.9720163 
6.268611e+1, 3.1494325e+2, 9680.827, -51754.68, -7283.3037, 0.012991971, -0.26179403, 10532.472, 10532.472, 0.0, 5.014248, 4.972384 
6.7693007e+1, 1.2150889e+2, -1713057.1, -1749096.9, 285.92447, -0.0032723579, 0.0024588897, -1713054.9, 36162.5, 0.0, 5.0135937, 4.9901204 
6.7696464e+1, 1.2649503e+2, -1668803.1, -1710683.6, 741.1775, 0.026637467, -0.003511609, -1668790.0, 31561.074, 0.0, 5.013802, 4.986547 
6.7695487e+1, 1.3148135e+2, -1618925.4, -1661250.6, 760.11273, 0.011893849, -0.006500726, -1618911.8, 32571.822, 0.0, 5.014098, 4.9865465 
6.7694527e+1, 1.3646765e+2, -1571262.8, -1616361.4, 781.5463, -0.0027603235, -0.008197183, -1571249.3, 31366.996, 0.0, 5.014393, 4.9850416 
6.76939e+1, 1.4145094e+2, -1529248.0, -1582650.0, 352.27225, -0.012229029, 0.004472311, -1529245.8, 24533.207, 0.0, 5.01458, 4.979812 
6.7693925e+1, 1.4643091e+2, -1480318.3, -1533648.9, -12.552753, -0.010753279, 0.0033070499, -1480318.3, 24657.28, 0.0, 5.0145354, 4.9798145 
6.769396e+1, 1.5141082e+2, -1431416.3, -1484670.8, -256.64084, -0.008915051, 0.0014548604, -1431415.0, 24757.785, 0.0, 5.014484, 4.9798136 
6.769399e+1, 1.563907e+2, -1383941.6, -1438669.8, -500.92325, -0.0070590135, 0.000057842994, -1383937.1, 23433.0, 0.0, 5.014432, 4.978818 
6.769399e+1, 1.6136667e+2, -1343720.8, -1407968.4, -696.3303, -0.005353768, 0.0041241045, -1343713.1, 14892.916, 0.0, 5.0144024, 4.9726925 
6.7693853e+1, 1.6633938e+2, -1294557.5, -1358812.8, -650.3424, -0.0041880608, 0.001795935, -1294550.9, 15323.598, 0.0, 5.014414, 4.9726954 
6.7693704e+1, 1.7131211e+2, -1245396.3, -1309668.0, -566.4638, -0.0030426926, -0.00049239735, -1245391.3, 15751.513, 0.0, 5.0144253, 4.972696 
6.769355e+1, 1.7628483e+2, -1197371.9, -1262928.8, -481.7913, -0.0018817479, -0.0023809765, -1197368.4, 15042.713, 0.0, 5.0144367, 4.9718885 
6.7693305e+1, 1.8125404e+2, -1156390.1, -1231222.0, -572.7113, -0.0010231654, 0.0030633018, -1156385.8, 7326.675, 0.0, 5.014464, 4.9659915 
6.7692775e+1, 1.8622011e+2, -1106439.6, -1180816.6, -700.068, -0.0009460533, -0.002057423, -1106433.1, 8608.232, 0.0, 5.0145483, 4.96636 
6.769222e+1, 1.9118617e+2, -1056991.6, -1131506.8, -763.16986, -0.0008776936, -0.007642635, -1056983.8, 9386.136, 0.0, 5.0146365, 4.9663596 
6.7691684e+1, 1.9615225e+2, -1008436.9, -1084115.6, -825.894, -0.00077857065, -0.012935609, -1008427.8, 9270.652, 0.0, 5.0147247, 4.9657087 
6.769106e+1, 2.0111474e+2, -968999.7, -1056080.9, -848.6954, -0.0016279502, -0.008415331, -968991.44, 72.912254, 0.0, 5.0147486, 4.958483 
6.769023e+1, 2.0607382e+2, -920129.5, -1006864.25, -873.7375, -0.004812882, -0.005868908, -920120.7, 349.01224, 0.0, 5.0145855, 4.958539 
6.7689395e+1, 2.1103291e+2, -871361.7, -957817.1, -902.86676, -0.008035405, -0.0033416105, -871352.25, 522.8715, 0.0, 5.0144105, 4.958544 
6.7688566e+1, 2.1599202e+2, -823256.8, -910223.06, -932.61237, -0.011183488, -0.0006827966, -823246.8, 33.693985, 0.0, 5.0142355, 4.958049 
6.7687714e+1, 2.209476e+2, -782660.94, -879296.56, -1394.2505, -0.012711314, 0.008371238, -782640.9, -7922.2036, 0.0, 5.014105, 4.9517927 
6.768688e+1, 2.2589976e+2, -732321.8, -827588.94, -1720.5315, -0.006855477, 0.0015170443, -732290.75, -6105.993, 0.0, 5.014075, 4.95261 
6.7686087e+1, 2.3085195e+2, -683042.1, -778261.44, -1820.9724, -0.00015067923, -0.0064030294, -683007.3, -5357.1494, 0.0, 5.0140486, 4.9526176 
6.768531e+1, 2.3580413e+2, -634410.94, -730383.2, -1929.2323, 0.0066594593, -0.0145586375, -634372.2, -5256.496, 0.0, 5.0140204, 4.9521236 
6.7684203e+1, 2.407534e+2, -595538.2, -703818.25, -2171.4521, 0.011011623, -0.0033124057, -595494.6, -14882.487, 0.0, 5.0139074, 4.9442534 
6.768219e+1, 2.4569999e+2, -546327.44, -653498.6, -1980.1547, 0.008326915, 0.012185497, -546290.9, -14146.626, 0.0, 5.0136304, 4.9446745 
6.768015e+1, 2.506465e+2, -497663.97, -604425.7, -1640.2509, 0.0052586105, 0.026140431, -497638.78, -13961.156, 0.0, 5.0133452, 4.944678 
6.767814e+1, 2.5559312e+2, -449243.06, -555917.7, -1289.1744, 0.0022682324, 0.04119882, -449227.47, -14017.596, 0.0, 5.0130534, 4.9444833 
6.767605e+1, 2.605348e+2, -408396.34, -524337.2, -1250.2848, -0.00039849465, 0.05721212, -408382.88, -21598.002, 0.0, 5.0127335, 4.938157 
6.7675513e+1, 2.6547512e+2, -354303.4, -457994.16, -3906.4294, 0.031736523, 0.0011076045, -354156.44, -15807.909, 0.0, 5.0113378, 4.9442496 
6.7675537e+1, 2.7041626e+2, -308322.0, -409755.9, -6655.728, 0.07015809, -0.07029281, -307887.13, -17985.15, 0.0, 5.00971, 4.944468 
6.767578e+1, 2.7535707e+2, -262241.75, -361760.7, -9613.19, 0.10759922, -0.15055612, -261321.66, -19862.828, 0.0, 5.008049, 4.9446397 
6.76727e+1, 2.803002e+2, -250560.66, -403449.9, -7286.9346, 0.09278426, -0.036583465, -250214.14, -57213.945, 0.0, 5.0089417, 4.9128733 
6.76715e+1, 2.8523245e+2, -184151.0, -319353.53, -1730.92, 0.054642826, 0.08436294, -184128.84, -39443.55, 0.0, 5.0106325, 4.923898 
6.767357e+1, 2.9015645e+2, -134577.97, -269070.03, 60.21268, 0.045172896, 0.062049042, -134577.94, -38121.68, 0.0, 5.0106893, 4.923986 
6.767581e+1, 2.9507977e+2, -84931.85, -218869.16, 1624.0662, 0.03381717, 0.029984305, -84912.164, -36678.516, 0.0, 5.0106864, 4.924074 
6.767848e+1, 3.0001435e+2, -20012.22, -101490.77, 2575.9421, 0.016109465, -0.024943255, -19930.865, -19930.865, 0.0, 5.011001, 4.95723 
6.7686135e+1, 3.0498257e+2, -673.7654, -60659.14, -29.511387, 0.019269139, -0.09806421, -673.75085, -673.75085, 0.0, 5.011961, 4.9702773 
6.769557e+1, 3.09961e+2, 2595.9202, -57601.85, -2124.615, 0.032509144, -0.13746332, 2670.813, 2670.813, 0.0, 5.0127797, 4.970948 
6.770561e+1, 3.1494164e+2, 6002.6553, -54684.254, -3925.5557, 0.045669984, -0.16027649, 6255.5273, 6255.5273, 0.0, 5.013527, 4.97162 
7.270641e+1, 1.2150913e+2, -1713306.4, -1749660.8, -212.83778, -0.0056715864, 0.00048228266, -1713305.1, 35904.992, 0.0, 5.013602, 4.989933 
7.27099e+1, 1.2649378e+2, -1668730.5, -1710592.4, 957.1296, 0.02273114, -0.02049516, -1668708.6, 31649.762, 0.0, 5.01381, 4.986575 
7.2709405e+1, 1.3148068e+2, -1618854.9, -1661155.0, 980.5063, 0.009918965, -0.018010097, -1618832.1, 32652.857, 0.0, 5.0141053, 4.986576 
7.2708917e+1, 1.3646756e+2, -1571194.4, -1616261.4, 1006.31323, -0.0029013962, -0.014218518, -1571171.9, 31439.908, 0.0, 5.014399, 4.985073 
7.270863e+1, 1.4145121e+2, -1529602.9, -1583390.8, 360.78305, -0.010789632, 0.0028282441, -1529600.5, 24171.24, 0.0, 5.0145807, 4.9795675 
7.270871e+1, 1.4643106e+2, -1480771.0, -1534589.8, -53.102886, -0.008314135, 0.0036081919, -1480771.0, 24200.75, 0.0, 5.014536, 4.9795027 
7.2708786e+1, 1.5141083e+2, -1431864.1, -1485605.8, -294.76846, -0.0055327667, 0.0036023706, -1431862.6, 24309.984, 0.0, 5.0144844, 4.9795027 
7.270887e+1, 1.5639059e+2, -1384385.0, -1439599.3, -536.6189, -0.0027545837, 0.0040366245, -1384379.8, 22993.67, 0.0, 5.014433, 4.9785075 
7.270881e+1, 1.6136642e+2, -1343687.0, -1407902.9, -697.8743, -0.0013026632, 0.008501967, -1343679.4, 14932.584, 0.0, 5.014403, 4.9727144 
7.270841e+1, 1.6633898e+2, -1294397.9, -1358480.8, -642.5406, -0.0028092645, 0.0035970067, -1294391.5, 15488.908, 0.0, 5.014414, 4.972807 
7.270799e+1, 1.7131154e+2, -1245237.3, -1309333.6, -555.9097, -0.004450412, -0.0013494594, -1245232.5, 15916.085, 0.0, 5.0144258, 4.9728084 
7.2707576e+1, 1.7628412e+2, -1197213.4, -1262591.9, -468.4859, -0.006114021, -0.005881112, -1197210.0, 15206.567, 0.0, 5.0144367, 4.972002 
7.27072e+1, 1.8125325e+2, -1156404.8, -1231261.9, -528.98224, -0.0068358527, -0.0019461778, -1156401.0, 7316.791, 0.0, 5.0144653, 4.9659777 
7.27069e+1, 1.8621942e+2, -1106537.8, -1181035.9, -635.8627, -0.0052064806, -0.00523933, -1106532.4, 8514.023, 0.0, 5.0145497, 4.9662857 
7.270661e+1, 1.9118562e+2, -1057091.3, -1131726.6, -695.7666, -0.0034771839, -0.008770279, -1057084.8, 9289.813, 0.0, 5.0146375, 4.966285 
7.2706324e+1, 1.9615182e+2, -1008538.06, -1084336.3, -755.3016, -0.0017528833, -0.011983951, -1008530.56, 9172.201, 0.0, 5.014725, 4.9656343 
7.270589e+1, 2.011144e+2, -969053.56, -1056194.3, -926.0772, -0.0009471981, -0.006212316, -969043.7, 24.832636, 0.0, 5.014748, 4.9584455 
7.270506e+1, 2.0607334e+2, -920170.6, -1006951.56, -1007.3801, -0.0024298232, -0.0043953448, -920158.9, 315.59705, 0.0, 5.0145855, 4.95851 
7.2704226e+1, 2.1103233e+2, -871401.94, -957905.2, -1032.4133, -0.0039895857, -0.0027085375, -871389.6, 491.039, 0.0, 5.0144105, 4.958514 
7.2703385e+1, 2.159913e+2, -823296.2, -910311.9, -1058.0475, -0.005512194, -0.0009197993, -823283.3, 3.4443803, 0.0, 5.0142355, 4.958019 
7.2702456e+1, 2.2094679e+2, -782711.5, -879393.5, -1457.1715, -0.0063803634, 0.0075199483, -782689.56, -7963.9614, 0.0, 5.0141034, 4.95176 
7.2701263e+1, 2.25899e+2, -732456.7, -827900.0, -1732.4572, -0.0040302863, 0.002152767, -732425.25, -6232.8794, 0.0, 5.0140767, 4.952503 
7.2700065e+1, 2.3085125e+2, -683161.9, -778579.0, -1820.1093, -0.0013474202, -0.0041167876, -683127.2, -5468.659, 0.0, 5.0140557, 4.952507 
7.2698873e+1, 2.3580346e+2, -634515.7, -730707.4, -1915.579, 0.0013365761, -0.010723553, -634477.56, -5352.596, 0.0, 5.0140333, 4.9520087 
7.26974e+1, 2.4075256e+2, -595156.2, -703107.8, -2318.174, 0.0025217808, -0.0012732116, -595106.4, -14483.039, 0.0, 5.0139303, 4.9444876 
7.269511e+1, 2.456987e+2, -545755.7, -652295.2, -2216.267, 0.00005971044, 0.006351857, -545709.6, -13553.191, 0.0, 5.013645, 4.945082 
7.269279e+1, 2.5064483e+2, -497130.2, -603217.75, -1857.8801, -0.002575116, 0.0125469165, -497097.7, -13407.617, 0.0, 5.0133467, 4.9450936 
7.269048e+1, 2.555911e+2, -448747.13, -554705.0, -1488.311, -0.005202951, 0.01987189, -448726.22, -13503.772, 0.0, 5.0130415, 4.944907 
7.26881e+1, 2.6053306e+2, -409106.44, -525610.06, -1765.8114, -0.0065204874, 0.03474788, -409079.7, -22285.527, 0.0, 5.012692, 4.937748 
7.268701e+1, 2.6547447e+2, -357064.4, -464783.5, -4308.1914, 0.027279032, 0.013169523, -356892.38, -18531.924, 0.0, 5.011424, 4.9419155 
7.268634e+1, 2.7041626e+2, -310550.0, -416536.53, -6737.795, 0.06506505, -0.021692006, -310123.38, -20201.557, 0.0, 5.0099616, 4.942068 
7.268583e+1, 2.7535746e+2, -263937.3, -368535.4, -9375.654, 0.09995081, -0.06835815, -263103.56, -21614.123, 0.0, 5.008466, 4.9421744 
7.2681963e+1, 2.8029853e+2, -247914.0, -395502.28, -7099.2114, 0.078151666, 0.030331038, -247573.31, -54512.61, 0.0, 5.008712, 4.9156656 
7.268127e+1, 2.8522885e+2, -184556.9, -314271.38, -2041.772, 0.044225853, 0.10985095, -184524.77, -39773.332, 0.0, 5.009913, 4.925845 
7.26842e+1, 2.9015234e+2, -134551.11, -264119.72, 23.298393, 0.042648405, 0.07046395, -134551.11, -38040.305, 0.0, 5.0101194, 4.925846 
7.268724e+1, 2.9507494e+2, -84474.17, -214051.38, 1861.1755, 0.037387867, 0.019417102, -84447.445, -36168.707, 0.0, 5.0102654, 4.9258485 
7.269089e+1, 3.0001038e+2, -19473.164, -97407.33, 3726.0837, 0.023501277, -0.043901976, -19295.424, -19295.424, 0.0, 5.010675, 4.9587245 
7.2700316e+1, 3.049794e+2, -4217.971, -65305.887, 1933.5419, 0.032798104, -0.08847257, -4156.8325, -4156.8325, 0.0, 5.0115194, 4.9688168 
7.2711444e+1, 3.0995744e+2, -1072.2881, -61335.89, 332.72583, 0.04927017, -0.09828304, -1070.451, -1070.451, 0.0, 5.012199, 4.969791 
7.2723e+1, 3.1493816e+2, 2211.1023, -57506.527, -973.142, 0.06103685, -0.09197878, 2226.956, 2226.956, 0.0, 5.0128064, 4.9707665 
7.7719855e+1, 1.2150933e+2, -1713642.0, -1750165.9, -747.89545, -0.0076738275, -0.0017204011, -1713626.8, 35576.53, 0.0, 5.0135612, 4.9897885 
7.772335e+1, 1.2649253e+2, -1668678.6, -1710506.1, 1151.321, 0.018897938, -0.037344284, -1668647.0, 31718.613, 0.0, 5.013812, 4.9866033 
7.772333e+1, 1.3148001e+2, -1618788.6, -1661057.5, 1183.9945, 0.007974142, -0.02942432, -1618755.5, 32730.96, 0.0, 5.0141115, 4.9866056 
7.772331e+1, 1.3646747e+2, -1571190.0, -1616190.1, 1207.7728, -0.0030363663, -0.020179508, -1571157.6, 31449.84, 0.0, 5.0143843, 4.985104 
7.7723366e+1, 1.4145148e+2, -1530099.9, -1584218.8, 338.3623, -0.009313094, 0.0012742644, -1530097.8, 23666.781, 0.0, 5.014539, 4.979315 
7.77235e+1, 1.4643121e+2, -1481324.3, -1535578.5, -106.192184, -0.0058463058, 0.003956538, -1481324.0, 23643.838, 0.0, 5.014503, 4.979191 
7.7723616e+1, 1.5141086e+2, -1432393.0, -1486579.0, -333.115, -0.0021429434, 0.005737382, -1432391.0, 23781.352, 0.0, 5.014458, 4.979192 
7.772374e+1, 1.5639049e+2, -1384902.9, -1440563.6, -561.23883, 0.0015398046, 0.007947308, -1384897.3, 22479.625, 0.0, 5.0144086, 4.978197 
7.7723634e+1, 1.6136618e+2, -1343732.4, -1407901.5, -683.0353, 0.0028057108, 0.012925842, -1343725.1, 14892.711, 0.0, 5.014383, 4.972725 
7.7722967e+1, 1.6633858e+2, -1294264.4, -1358160.6, -620.9028, -0.0013950419, 0.0054483796, -1294258.4, 15627.816, 0.0, 5.0144057, 4.972918 
7.772228e+1, 1.7131099e+2, -1245086.3, -1309002.4, -536.2502, -0.005862354, -0.002197948, -1245081.8, 16072.467, 0.0, 5.0144234, 4.9729204 
7.772159e+1, 1.762834e+2, -1197065.0, -1262259.1, -451.5495, -0.010383298, -0.009413902, -1197061.9, 15360.277, 0.0, 5.014434, 4.972115 
7.7721095e+1, 1.8125245e+2, -1156457.4, -1231345.3, -483.61725, -0.012629017, -0.0069089597, -1156454.3, 7268.915, 0.0, 5.0144596, 4.965952 
7.772104e+1, 1.8621875e+2, -1106670.3, -1181270.6, -576.2244, -0.009430382, -0.008393364, -1106665.8, 8385.638, 0.0, 5.0145397, 4.966211 
7.7721e+1, 1.9118507e+2, -1057258.4, -1131977.6, -638.2494, -0.006040803, -0.009928541, -1057252.9, 9126.425, 0.0, 5.0146155, 4.9662104 
7.7720964e+1, 1.9615139e+2, -1008761.4, -1084613.5, -700.74396, -0.0026866863, -0.011119944, -1008754.9, 8952.202, 0.0, 5.0146837, 4.9655595 
7.772072e+1, 2.0111403e+2, -969285.44, -1056418.4, -1018.65796, -0.00024830658, -0.0039039035, -969273.5, -200.89113, 0.0, 5.0146923, 4.958395 
7.7719903e+1, 2.060729e+2, -920334.75, -1007094.75, -1141.1498, -0.000015965508, -0.0028123811, -920319.75, 159.45695, 0.0, 5.0145426, 4.958481 
7.7719057e+1, 2.1103173e+2, -871539.5, -958037.25, -1149.4534, 0.00011357591, -0.002059472, -871524.25, 361.86484, 0.0, 5.014377, 4.958484 
7.7718216e+1, 2.159906e+2, -823424.7, -910441.0, -1160.8411, 0.00024588872, -0.001233018, -823409.25, -116.262596, 0.0, 5.0142055, 4.9579883 
7.7717185e+1, 2.20946e+2, -782892.4, -879636.2, -1490.2373, -0.000118872194, 0.006777203, -782869.44, -8136.889, 0.0, 5.0140743, 4.9516883 
7.771563e+1, 2.2589825e+2, -732641.4, -828228.25, -1699.1556, -0.0012618094, 0.0027598436, -732611.2, -6411.155, 0.0, 5.0140624, 4.952395 
7.771405e+1, 2.3085052e+2, -683357.6, -778924.4, -1759.771, -0.0025009487, -0.0021391266, -683325.25, -5658.166, 0.0, 5.0140376, 4.952395 
7.7712476e+1, 2.3580275e+2, -634782.94, -731097.5, -1821.5676, -0.0038308254, -0.007474603, -634748.5, -5614.0005, 0.0, 5.01399, 4.9518933 
7.771065e+1, 2.4075176e+2, -595126.56, -702702.5, -2350.636, -0.005752434, 0.0013196751, -595075.2, -14441.111, 0.0, 5.013864, 4.9446535 
7.770808e+1, 2.456975e+2, -545347.06, -651151.7, -2368.3794, -0.008009292, 0.0013473928, -545294.06, -13126.282, 0.0, 5.0136085, 4.945486 
7.770544e+1, 2.506432e+2, -496572.94, -601988.1, -2030.4828, -0.010231542, -0.00068368495, -496533.8, -12831.946, 0.0, 5.0133643, 4.9455047 
7.7702826e+1, 2.5558907e+2, -447978.84, -553361.2, -1709.7015, -0.012511738, -0.0015260646, -447951.13, -12716.539, 0.0, 5.013137, 4.945325 
7.770001e+1, 2.605311e+2, -410079.6, -528059.2, -2284.698, -0.013318549, 0.0126776, -410035.38, -23229.928, 0.0, 5.0127945, 4.936827 
7.769848e+1, 2.6547334e+2, -360903.4, -471846.5, -3806.2231, 0.021787552, 0.020356137, -360772.97, -22395.887, 0.0, 5.0111413, 4.9395437 
7.7697366e+1, 2.704156e+2, -316800.9, -424832.8, -4617.2744, 0.059389304, 0.015122769, -316603.9, -26655.809, 0.0, 5.008787, 4.939652 
7.7696365e+1, 2.7535704e+2, -274020.88, -378690.9, -5152.2993, 0.09259241, -0.004779623, -273767.88, -32239.975, 0.0, 5.005885, 4.939712 
7.769124e+1, 2.8029713e+2, -260325.2, -399595.84, -2531.3345, 0.06730265, 0.09821649, -260279.22, -67160.54, 0.0, 5.0041556, 4.9161463 
7.7690643e+1, 2.8522623e+2, -192743.86, -312749.9, 2283.309, 0.03870694, 0.15183724, -192700.44, -47892.64, 0.0, 5.0064707, 4.9276714 
7.769457e+1, 2.90149e+2, -138259.66, -260865.66, 3154.8403, 0.04409488, 0.090641625, -138178.53, -41620.973, 0.0, 5.0082736, 4.9276023 
7.7698606e+1, 2.950707e+2, -85207.39, -209744.69, 4064.14, 0.044404685, 0.01572214, -85074.9, -36756.824, 0.0, 5.009485, 4.9275327 
7.770323e+1, 3.000063e+2, -19798.81, -94477.695, 5723.8955, 0.03313552, -0.063393444, -19362.64, -19362.64, 0.0, 5.010272, 4.959792 
7.7713805e+1, 3.0497527e+2, -10729.161, -70883.52, 5132.283, 0.043091457, -0.09085183, -10294.425, -10294.425, 0.0, 5.0100346, 4.96734 
7.772599e+1, 3.0995265e+2, -13095.607, -68264.15, 5376.1113, 0.0575447, -0.08196653, -12576.594, -12576.594, 0.0, 5.0085855, 4.968645 
7.7738494e+1, 3.149331e+2, -17883.865, -66904.17, 6444.309, 0.063485466, -0.056740157, -17050.84, -17050.84, 0.0, 5.006121, 4.9699497 
8.273443e+1, 1.2150964e+2, -1709234.3, -1748290.9, -540.9804, -0.005233277, -0.004710835, -1709226.9, 39970.74, 0.0, 5.0150876, 4.98965 
8.2737e+1, 1.26493e+2, -1665718.4, -1709412.0, 1257.8967, 0.011771618, -0.037127636, -1665682.3, 34676.69, 0.0, 5.014878, 4.9864364 
8.2737374e+1, 1.3148032e+2, -1617464.3, -1660792.8, 959.2809, 0.0045208796, -0.029230988, -1617443.1, 34038.867, 0.0, 5.0146403, 4.9864316 
8.273776e+1, 1.3646762e+2, -1571413.9, -1616708.0, 660.7602, -0.0024487514, -0.019924667, -1571404.3, 31200.895, 0.0, 5.014402, 4.984922 
8.273809e+1, 1.4145145e+2, -1531070.5, -1585003.0, -299.44864, -0.0059630205, 0.0014916477, -1531068.9, 22695.547, 0.0, 5.0142794, 4.9791813 
8.2738173e+1, 1.4643101e+2, -1481916.1, -1536138.4, -486.62048, -0.003225479, 0.0037127172, -1481911.8, 23057.87, 0.0, 5.0143614, 4.979074 
8.2738245e+1, 1.514105e+2, -1432597.3, -1486946.0, -451.96817, -0.00031282878, 0.005091329, -1432593.5, 23582.371, 0.0, 5.0144467, 4.979075 
8.273831e+1, 1.5638998e+2, -1384709.0, -1440734.1, -418.17087, 0.0026449247, 0.0069812858, -1384705.9, 22676.225, 0.0, 5.0145316, 4.978081 
8.2738173e+1, 1.613656e+2, -1343055.4, -1407567.1, -360.69006, 0.0033008135, 0.011792162, -1343053.4, 15570.391, 0.0, 5.0146112, 4.972727 
8.2737505e+1, 1.6633801e+2, -1293441.8, -1357676.4, -394.03568, -0.0014743311, 0.004248006, -1293439.3, 16451.957, 0.0, 5.0146675, 4.972955 
8.273681e+1, 1.7131045e+2, -1244158.0, -1308468.5, -417.93393, -0.0063995835, -0.0034570694, -1244155.4, 17002.969, 0.0, 5.0147214, 4.972957 
8.2736117e+1, 1.7628291e+2, -1196011.5, -1261666.9, -442.53275, -0.011248694, -0.010720222, -1196008.5, 16416.67, 0.0, 5.0147753, 4.972152 
8.273564e+1, 1.8125197e+2, -1155671.0, -1231249.0, -616.8685, -0.013468896, -0.007966834, -1155665.9, 8060.2026, 0.0, 5.0147862, 4.965829 
8.273563e+1, 1.862182e+2, -1106476.1, -1181583.5, -865.92346, -0.009713799, -0.008205407, -1106466.1, 8589.921, 0.0, 5.0146914, 4.9660325 
8.273564e+1, 1.9118449e+2, -1057578.0, -1132532.9, -1078.2094, -0.0056623938, -0.008385533, -1057562.5, 8823.277, 0.0, 5.014591, 4.966032 
8.273565e+1, 1.961508e+2, -1009569.56, -1085397.8, -1291.2542, -0.0015538638, -0.008184203, -1009547.56, 8167.759, 0.0, 5.01449, 4.965381 
8.2735425e+1, 2.0111339e+2, -969958.0, -1056568.1, -1656.2009, 0.0014819114, -0.00037684763, -969926.3, -844.58075, 0.0, 5.014427, 4.9584665 
8.273457e+1, 2.0607218e+2, -920342.44, -1006713.1, -1534.2117, 0.0018032003, -0.0015575314, -920315.2, 172.1601, 0.0, 5.014462, 4.9586473 
8.273368e+1, 2.1103095e+2, -870959.56, -957387.44, -1275.443, 0.0020456323, -0.0032783106, -870940.75, 952.5083, 0.0, 5.014502, 4.9586487 
8.273279e+1, 2.1598971e+2, -822243.2, -909519.0, -1016.2952, 0.0023352092, -0.004903397, -822231.4, 1067.7645, 0.0, 5.014542, 4.958151 
8.27317e+1, 2.2094509e+2, -781563.94, -879200.5, -1137.9271, 0.0018147301, 0.0019233525, -781550.7, -6812.4473, 0.0, 5.014575, 4.951608 
8.273005e+1, 2.258974e+2, -731366.56, -828027.7, -1445.9469, -0.00044612712, 0.00018486181, -731344.94, -5138.128, 0.0, 5.0145917, 4.9522204 
8.272838e+1, 2.3084976e+2, -681971.06, -778653.6, -1661.3871, -0.002657624, -0.002196899, -681942.5, -4267.6323, 0.0, 5.0146074, 4.9522266 
8.272673e+1, 2.358021e+2, -633225.75, -730728.44, -1878.8302, -0.004736305, -0.004968762, -633189.56, -4046.2793, 0.0, 5.014622, 4.9517307 
8.2724863e+1, 2.4075109e+2, -593055.5, -701565.6, -2622.201, -0.006755551, 0.004638304, -592992.2, -12348.389, 0.0, 5.0145917, 4.9447045 
8.272221e+1, 2.4569657e+2, -542474.56, -649375.9, -2995.5688, -0.007995627, 0.00038233603, -542390.7, -10213.762, 0.0, 5.0145726, 4.9456553 
8.271953e+1, 2.5064206e+2, -493069.72, -600010.6, -2961.1838, -0.009074544, -0.0056212074, -492987.78, -9277.962, 0.0, 5.01457, 4.9456477 
8.271689e+1, 2.5558776e+2, -443913.72, -551213.1, -2924.7576, -0.010109047, -0.009753965, -443834.06, -8593.129, 0.0, 5.0145645, 4.9454417 
8.2713926e+1, 2.6052988e+2, -405851.38, -527461.2, -4071.2134, -0.009464995, 0.005778506, -405715.22, -18904.904, 0.0, 5.0146523, 4.9361935 
8.271214e+1, 2.6547208e+2, -352334.53, -469686.63, -6333.7813, 0.027032748, 0.023828166, -351993.7, -13600.827, 0.0, 5.014815, 4.9385715 
8.2711166e+1, 2.704147e+2, -300986.63, -418104.9, -8400.347, 0.073639296, 0.028945433, -300387.2, -10414.635, 0.0, 5.0149693, 4.9391146 
8.271072e+1, 2.75357e+2, -249548.64, -366838.44, -10650.803, 0.12445824, 0.019522049, -248589.31, -7033.7437, 0.0, 5.015104, 4.9396105 
8.2706285e+1, 2.802971e+2, -223687.2, -379311.8, -8906.212, 0.12818155, 0.11126643, -223179.17, -30024.404, 0.0, 5.016863, 4.917943 
8.270501e+1, 2.8522542e+2, -163940.03, -299893.9, -237.1497, 0.08672405, 0.15367016, -163939.61, -19095.854, 0.0, 5.0170083, 4.9282207 
8.270827e+1, 2.9014814e+2, -118413.53, -251153.84, 1530.1775, 0.07165273, 0.09356384, -118395.9, -21811.225, 0.0, 5.015522, 4.928351 
8.2711947e+1, 2.950696e+2, -72755.98, -202494.3, 3104.3608, 0.059490085, 0.01573525, -72681.74, -24344.098, 0.0, 5.0139914, 4.9284825 
8.2716537e+1, 3.0000666e+2, -13625.29, -88500.055, 4391.204, 0.04648475, -0.057248536, -13368.638, -13368.638, 0.0, 5.012397, 4.961213 
8.2727206e+1, 3.0497745e+2, -10272.848, -69881.445, 1039.0055, 0.07209307, -0.05126185, -10254.743, -10254.743, 0.0, 5.0108542, 4.967633 
8.274015e+1, 3.0995756e+2, -11952.186, -64651.195, -2165.5854, 0.117360875, 0.0019196582, -11863.344, -11863.344, 0.0, 5.0093384, 4.9699645 
8.275421e+1, 3.1494328e+2, -13203.1455, -59852.727, -5401.982, 0.1698635, 0.0865499, -12585.7705, -12585.7705, 0.0, 5.00777, 4.9722996 
8.774991e+1, 1.21510245e+2, -1709505.0, -1748877.1, -542.3254, -0.0017674549, -0.0078055393, -1709497.6, 39693.434, 0.0, 5.015091, 4.9894595 
8.7750816e+1, 1.2649503e+2, -1666259.6, -1710558.0, 1070.7646, 0.0008970199, -0.022251727, -1666233.8, 34105.82, 0.0, 5.014882, 4.986062 
8.7751544e+1, 1.314815e+2, -1617996.1, -1661924.1, 778.06555, -0.00035166487, -0.019111613, -1617982.4, 33489.836, 0.0, 5.014645, 4.9860597 
8.775228e+1, 1.3646792e+2, -1571936.6, -1617825.4, 485.5219, -0.0014073654, -0.014607619, -1571931.5, 30673.432, 0.0, 5.014407, 4.9845533 
8.775281e+1, 1.4145112e+2, -1531117.0, -1585101.8, -274.7581, -0.0016615378, 0.002814675, -1531115.6, 22655.031, 0.0, 5.01428, 4.979149 
8.775277e+1, 1.4643052e+2, -1481845.6, -1535991.1, -421.4336, -0.00095935614, 0.002869014, -1481842.3, 23133.871, 0.0, 5.014361, 4.979123 
8.77527e+1, 1.5140985e+2, -1432525.3, -1486799.4, -384.82257, -0.00024747086, 0.0021221277, -1432522.6, 23659.92, 0.0, 5.0144467, 4.979124 
8.7752634e+1, 1.5638916e+2, -1384635.6, -1440588.1, -349.07886, 0.00049275876, 0.0018622244, -1384633.5, 22755.393, 0.0, 5.014532, 4.97813 
8.7752473e+1, 1.6136472e+2, -1343064.6, -1407588.3, -310.86255, 0.00011127518, 0.005802355, -1343063.1, 15567.11, 0.0, 5.0146112, 4.9727206 
8.7752014e+1, 1.6633731e+2, -1293477.0, -1357755.4, -352.56793, -0.0031269637, 0.0003487367, -1293475.0, 16420.91, 0.0, 5.0146675, 4.9729295 
8.775153e+1, 1.7130995e+2, -1244190.1, -1308545.8, -373.71823, -0.0064539737, -0.0051717977, -1244187.9, 16973.27, 0.0, 5.014723, 4.972932 
8.7751055e+1, 1.7628258e+2, -1196040.4, -1261742.4, -395.5751, -0.009735952, -0.010275359, -1196038.0, 16388.32, 0.0, 5.014777, 4.972127 
8.77507e+1, 1.812517e+2, -1155967.4, -1231881.6, -667.4543, -0.010909886, -0.0057869256, -1155961.5, 7765.6055, 0.0, 5.0147867, 4.9656157 
8.775057e+1, 1.8621778e+2, -1106848.5, -1182381.5, -944.94507, -0.007280003, -0.0051568933, -1106836.8, 8223.887, 0.0, 5.014692, 4.9657626 
8.7750465e+1, 1.9118388e+2, -1057944.1, -1133324.8, -1153.4796, -0.0034384984, -0.0045193257, -1057926.4, 8467.505, 0.0, 5.014592, 4.965763 
8.775035e+1, 1.9614999e+2, -1009929.44, -1086183.6, -1362.7616, 0.00042041315, -0.0035286741, -1009905.06, 7822.066, 0.0, 5.014492, 4.9651127 
8.7750024e+1, 2.0111248e+2, -969733.06, -1056090.5, -1658.5337, 0.0030004082, 0.004085901, -969701.25, -605.82367, 0.0, 5.0144277, 4.958629 
8.7749094e+1, 2.0607121e+2, -919893.56, -1005746.25, -1505.0482, 0.002295412, -0.00066711917, -919867.2, 631.6581, 0.0, 5.0144625, 4.9589777 
8.774813e+1, 2.1102993e+2, -870512.8, -956421.2, -1242.0072, 0.0014427981, -0.0062210364, -870494.9, 1407.4413, 0.0, 5.0145025, 4.9589796 
8.774717e+1, 2.1598865e+2, -821798.6, -908553.3, -978.58954, 0.000608006, -0.01167577, -821787.56, 1518.2548, 0.0, 5.0145426, 4.958482 
8.774604e+1, 2.2094402e+2, -781676.6, -879479.44, -1127.16, -0.0005900257, -0.0066280514, -781663.6, -6920.278, 0.0, 5.01458, 4.951511 
8.774449e+1, 2.2589648e+2, -731693.6, -828796.4, -1429.4005, -0.002134241, -0.0045556854, -731672.6, -5459.811, 0.0, 5.014598, 4.9519544 
8.774294e+1, 2.3084898e+2, -682298.44, -779428.06, -1636.4169, -0.0035870029, -0.0027605891, -682270.9, -4588.902, 0.0, 5.0146136, 4.951958 
8.77414e+1, 2.3580147e+2, -633553.4, -731508.75, -1845.4381, -0.0049741096, -0.0013120824, -633518.6, -4367.228, 0.0, 5.0146284, 4.9514604 
8.7739646e+1, 2.407505e+2, -593095.9, -701771.94, -2613.3042, -0.006253493, 0.010664005, -593033.06, -12380.142, 0.0, 5.014606, 4.94463 
8.7736976e+1, 2.4569573e+2, -542386.9, -649326.5, -3013.5056, -0.0070131994, 0.0036688012, -542302.0, -10116.111, 0.0, 5.0145917, 4.945667 
8.7734246e+1, 2.5064093e+2, -492979.16, -599954.8, -2970.1885, -0.0077242143, -0.0054647885, -492896.75, -9178.251, 0.0, 5.0145903, 4.94566 
8.773155e+1, 2.555863e+2, -443820.34, -551150.94, -2924.828, -0.008429461, -0.012902641, -443740.7, -8491.222, 0.0, 5.0145855, 4.9454556 
8.7728304e+1, 2.6052824e+2, -407043.94, -530642.25, -4078.5798, -0.010223182, 0.003888853, -406909.5, -20089.47, 0.0, 5.0147133, 4.935083 
8.772548e+1, 2.6546952e+2, -354093.56, -475157.25, -5844.5283, 0.0066999733, 0.03169248, -353812.06, -15392.035, 0.0, 5.014994, 4.936663 
8.7723386e+1, 2.704108e+2, -302508.7, -423929.56, -7571.5366, 0.03028506, 0.045300066, -302038.34, -12016.042, 0.0, 5.0152597, 4.937066 
8.772179e+1, 2.753515e+2, -250832.77, -373016.94, -9483.028, 0.056801826, 0.043564722, -250101.14, -8470.837, 0.0, 5.0155053, 4.9374213 
8.771704e+1, 2.8028968e+2, -221986.95, -374455.4, -10884.754, 0.059321508, 0.12476995, -221213.8, -27957.805, 0.0, 5.01675, 4.919621 
8.771649e+1, 2.8521895e+2, -163270.06, -294219.25, -2364.3757, 0.042780727, 0.15414102, -163227.38, -18294.21, 0.0, 5.0164485, 4.93028 
8.7720054e+1, 2.9014355e+2, -117693.3, -245894.44, -279.1272, 0.04081959, 0.093661495, -117692.69, -21040.611, 0.0, 5.0150056, 4.9302907 
8.7724006e+1, 2.9506686e+2, -71984.42, -197648.42, 1613.4989, 0.040146567, 0.01619212, -71963.71, -23580.242, 0.0, 5.013518, 4.930302 
8.7728727e+1, 3.0000708e+2, -14546.232, -88464.41, 2680.1443, 0.039682645, -0.03947734, -14449.183, -14449.183, 0.0, 5.012004, 4.9613495 
8.773866e+1, 3.0498096e+2, -13352.035, -76027.914, 248.13559, 0.072725564, 0.024636205, -13351.053, -13351.053, 0.0, 5.0106335, 4.9656143 
8.77506e+1, 3.0996284e+2, -14316.358, -69989.31, -1904.6882, 0.11940953, 0.1292837, -14251.271, -14251.271, 0.0, 5.0092745, 4.9681096 
8.776356e+1, 3.1495008e+2, -14849.374, -64384.805, -4087.9907, 0.17012705, 0.25896904, -14514.272, -14514.272, 0.0, 5.007864, 4.9706078 
9.276545e+1, 1.2151088e+2, -1709732.6, -1749371.5, -549.02136, 0.0023537318, -0.010478291, -1709725.0, 39459.24, 0.0, 5.0150948, 4.989299 
9.276466e+1, 1.2649709e+2, -1666802.8, -1711703.0, 881.31165, -0.009737177, -0.0071036126, -1666785.5, 33534.664, 0.0, 5.0148864, 4.9856863 
9.2765725e+1, 1.3148268e+2, -1618529.9, -1663054.5, 594.5301, -0.005046999, -0.008796609, -1618521.9, 32940.414, 0.0, 5.01465, 4.985687 
9.2766815e+1, 1.3646826e+2, -1572461.3, -1618941.8, 307.96378, -0.0002519653, -0.009171503, -1572459.3, 30145.396, 0.0, 5.0144124, 4.9841833 
9.2767525e+1, 1.4145081e+2, -1531178.3, -1585230.0, -256.24948, 0.0026558267, 0.0042273244, -1531177.0, 22599.828, 0.0, 5.01428, 4.979106 
9.2767364e+1, 1.4643003e+2, -1481775.5, -1535843.6, -355.5474, 0.0013226776, 0.002086962, -1481773.3, 23209.51, 0.0, 5.0143604, 4.9791718 
9.276716e+1, 1.5140918e+2, -1432453.9, -1486652.6, -316.97775, -0.00015670179, -0.0008267146, -1432452.0, 23737.135, 0.0, 5.0144467, 4.979172 
9.276696e+1, 1.5638834e+2, -1384562.8, -1440442.0, -279.2877, -0.0016244951, -0.0032777686, -1384561.4, 22834.254, 0.0, 5.014533, 4.978178 
9.276678e+1, 1.6136383e+2, -1343087.8, -1407637.5, -263.19153, -0.0030396194, -0.00011809694, -1343086.6, 15549.916, 0.0, 5.0146112, 4.972705 
9.2766523e+1, 1.6633661e+2, -1293512.8, -1357834.0, -310.8675, -0.0047428557, -0.0034917952, -1293511.3, 16389.229, 0.0, 5.014668, 4.9729033 
9.276626e+1, 1.7130943e+2, -1244222.8, -1308622.6, -329.2699, -0.006476661, -0.0068801027, -1244221.0, 16942.97, 0.0, 5.014724, 4.972906 
9.2766e+1, 1.7628226e+2, -1196069.9, -1261817.5, -348.38486, -0.008196547, -0.009876387, -1196068.0, 16359.398, 0.0, 5.014779, 4.972101 
9.2765754e+1, 1.8125147e+2, -1156285.8, -1232559.9, -721.86487, -0.008314184, -0.0035219095, -1156278.9, 7449.165, 0.0, 5.014787, 4.9653873 
9.276553e+1, 1.8621737e+2, -1107221.8, -1183179.1, -1024.1554, -0.0048217434, -0.002030775, -1107207.9, 7857.1235, 0.0, 5.0146923, 4.965492 
9.276529e+1, 1.9118327e+2, -1058311.0, -1134116.1, -1228.938, -0.0012130184, -0.00064769475, -1058291.0, 8111.017, 0.0, 5.0145936, 4.965493 
9.276505e+1, 1.961492e+2, -1010290.1, -1086969.1, -1434.4565, 0.0023733957, 0.0010601005, -1010263.25, 7475.67, 0.0, 5.0144944, 4.9648438 
9.2764616e+1, 2.0111156e+2, -969532.9, -1055665.3, -1665.0543, 0.004546346, 0.008644591, -969500.7, -391.63043, 0.0, 5.0144286, 4.958773 
9.276362e+1, 2.0607024e+2, -919445.4, -1004779.2, -1476.7388, 0.0028156533, 0.00031088988, -919419.8, 1090.4114, 0.0, 5.0144625, 4.9593067 
9.276259e+1, 2.1102892e+2, -870066.9, -955454.8, -1209.4261, 0.00084119843, -0.0091775935, -870049.75, 1861.675, 0.0, 5.014503, 4.959309 
9.276155e+1, 2.1598758e+2, -821354.75, -907587.4, -941.73944, -0.0011447568, -0.0185634, -821344.44, 1968.0925, 0.0, 5.014543, 4.958812 
9.276039e+1, 2.2094294e+2, -781827.7, -879839.9, -1108.6119, -0.00304144, -0.015208184, -781815.1, -7066.564, 0.0, 5.0145845, 4.9513845 
9.275895e+1, 2.2589554e+2, -732022.56, -829563.9, -1410.031, -0.0038327817, -0.009417868, -732002.2, -5783.2275, 0.0, 5.014604, 4.951687 
9.275752e+1, 2.308482e+2, -682627.6, -780201.3, -1608.6223, -0.0044862223, -0.003624564, -682601.06, -4911.831, 0.0, 5.01462, 4.9516883 
9.2756087e+1, 2.3580083e+2, -633882.8, -732287.8, -1809.2203, -0.0051411726, 0.0018656829, -633849.56, -4689.7593, 0.0, 5.014634, 4.951188 
9.275444e+1, 2.4074997e+2, -593197.75, -702105.2, -2591.7456, -0.0057620322, 0.017295707, -593136.06, -12474.555, 0.0, 5.01462, 4.9445105 
9.2751765e+1, 2.4569497e+2, -542304.44, -649272.1, -3034.6733, -0.006038728, 0.007900018, -542218.44, -10024.395, 0.0, 5.0146112, 4.945677 
9.2748994e+1, 2.5063986e+2, -492893.84, -599894.06, -2982.4243, -0.006323104, -0.0047019585, -492810.78, -9084.277, 0.0, 5.0146103, 4.9456716 
9.2746264e+1, 2.555849e+2, -443732.22, -551083.75, -2928.1292, -0.006640348, -0.015783245, -443652.4, -8394.852, 0.0, 5.0146065, 4.945468 
9.274264e+1, 2.605262e+2, -408857.03, -535169.0, -3948.1177, -0.012301431, 0.001035239, -408733.75, -21900.383, 0.0, 5.014774, 4.9334617 
9.273897e+1, 2.6546615e+2, -355892.8, -480611.1, -5144.2935, -0.014068585, 0.031671632, -355681.0, -17226.268, 0.0, 5.0151734, 4.93465 
9.273605e+1, 2.704059e+2, -304069.63, -429737.28, -6531.5537, -0.011520693, 0.046192832, -303731.06, -13649.18, 0.0, 5.01555, 4.934912 
9.2733574e+1, 2.753448e+2, -252154.5, -379178.3, -8103.826, -0.0073234434, 0.04457216, -251639.58, -9922.456, 0.0, 5.015907, 4.9351273 
9.2727685e+1, 2.8028262e+2, -223931.86, -378007.94, -13464.089, -0.010561973, 0.1443087, -222764.13, -29410.543, 0.0, 5.0166388, 4.9183397 
9.272717e+1, 2.8521416e+2, -162671.94, -288485.63, -4273.5713, -0.005305692, 0.18235977, -162526.94, -17520.27, 0.0, 5.015889, 4.9322715 
9.273118e+1, 2.9014036e+2, -117044.51, -240574.36, -1870.6345, 0.0077341725, 0.11449902, -117016.19, -20310.32, 0.0, 5.0144897, 4.9321623 
9.273553e+1, 2.9506525e+2, -71283.97, -192740.13, 340.26468, 0.020442385, 0.03038059, -71283.016, -22865.03, 0.0, 5.013045, 4.932054 
9.274028e+1, 3.0000663e+2, -17155.146, -92153.805, 996.6644, 0.031293206, -0.024506273, -17141.904, -17141.904, 0.0, 5.0116115, 4.9600525 
9.2749196e+1, 3.0498123e+2, -16510.574, -82107.2, -727.1653, 0.06527177, 0.06614143, -16502.514, -16502.514, 0.0, 5.0104136, 4.9633164 
9.276004e+1, 3.099638e+2, -16760.332, -75257.45, -1827.9639, 0.10798058, 0.19331859, -16703.268, -16703.268, 0.0, 5.0092115, 4.9659753 
9.277177e+1, 3.1495148e+2, -16576.785, -68843.71, -2958.655, 0.15151878, 0.3391069, -16409.838, -16409.838, 0.0, 5.0079584, 4.9686365 
9.778106e+1, 1.2151152e+2, -1710202.3, -1749905.1, -673.4184, 0.0071529024, -0.0127265975, -1710190.9, 38986.406, 0.0, 5.015004, 4.9891686 
9.7778517e+1, 1.2649915e+2, -1667493.8, -1712911.1, 613.302, -0.020096852, 0.008268826, -1667485.5, 32815.156, 0.0, 5.0148425, 4.9853115 
9.7779936e+1, 1.3148388e+2, -1619120.4, -1664205.5, 363.58017, -0.009550666, 0.0016852274, -1619117.5, 32334.84, 0.0, 5.014636, 4.9853144 
9.7781366e+1, 1.364686e+2, -1572983.5, -1620051.8, 106.34804, 0.0010197633, -0.0036253736, -1572983.3, 29620.799, 0.0, 5.0144186, 4.983814 
9.778225e+1, 1.414505e+2, -1531223.3, -1585371.9, -252.57925, 0.0069877943, 0.0057334546, -1531222.0, 22560.977, 0.0, 5.014291, 4.979053 
9.778196e+1, 1.4642954e+2, -1481669.5, -1535678.4, -297.20743, 0.003621015, 0.0013694301, -1481667.9, 23321.336, 0.0, 5.0143723, 4.97922 
9.778162e+1, 1.5140852e+2, -1432347.9, -1486488.9, -257.6156, -0.000036626767, -0.0037518411, -1432346.6, 23849.088, 0.0, 5.0144587, 4.9792204 
9.7781295e+1, 1.5638751e+2, -1384463.1, -1440282.5, -219.66383, -0.0036977327, -0.008432964, -1384462.3, 22940.156, 0.0, 5.014543, 4.9782257 
9.778108e+1, 1.6136295e+2, -1343109.3, -1407706.3, -228.12367, -0.0061398167, -0.0059637525, -1343108.5, 15534.381, 0.0, 5.0146165, 4.972679 
9.7781044e+1, 1.6633593e+2, -1293560.9, -1357917.5, -280.22327, -0.0063101994, -0.0072693885, -1293559.6, 16345.44, 0.0, 5.0146646, 4.9728765 
9.7780997e+1, 1.7130893e+2, -1244318.1, -1308729.3, -302.63724, -0.0064495592, -0.008571905, -1244316.6, 16850.146, 0.0, 5.014704, 4.972879 
9.7780955e+1, 1.7628194e+2, -1196235.8, -1261958.0, -331.51147, -0.0065994253, -0.009500363, -1196234.1, 16194.458, 0.0, 5.014735, 4.972074 
9.7780824e+1, 1.8125123e+2, -1156801.6, -1233365.6, -812.36176, -0.005644697, -0.0011447363, -1156793.0, 6935.975, 0.0, 5.0147276, 4.9651437 
9.778048e+1, 1.8621695e+2, -1107718.8, -1184032.5, -1113.1233, -0.002318607, 0.001176708, -1107702.5, 7366.972, 0.0, 5.0146503, 4.965222 
9.7780114e+1, 1.9118267e+2, -1058779.0, -1134952.5, -1294.2625, 0.001027476, 0.0032142103, -1058757.0, 7653.0938, 0.0, 5.0145597, 4.9652233 
9.7779757e+1, 1.9614841e+2, -1010763.0, -1087804.4, -1479.1709, 0.0043223286, 0.0055534183, -1010734.6, 7016.1304, 0.0, 5.0144577, 4.964575 
9.7779214e+1, 2.0111065e+2, -969489.75, -1055353.5, -1637.0941, 0.006143364, 0.013265254, -969458.56, -335.9256, 0.0, 5.014384, 4.9589 
9.777815e+1, 2.0606929e+2, -919113.75, -1003866.9, -1421.3412, 0.0033818865, 0.0013605311, -919089.94, 1431.6545, 0.0, 5.0144234, 4.9596343 
9.777704e+1, 2.1102789e+2, -869737.0, -954543.4, -1166.9266, 0.00025858585, -0.012137023, -869720.94, 2199.4854, 0.0, 5.0144634, 4.9596376 
9.777593e+1, 2.159865e+2, -821045.94, -906685.44, -916.5313, -0.0028993557, -0.025521407, -821036.1, 2283.134, 0.0, 5.0144973, 4.9591413 
9.7774744e+1, 2.2094187e+2, -782173.9, -880352.5, -1103.376, -0.005506944, -0.023750577, -782161.44, -7407.6455, 0.0, 5.0145345, 4.951231 
9.7773415e+1, 2.2589457e+2, -732536.25, -830410.2, -1387.8978, -0.0054981043, -0.014360786, -732516.6, -6291.3164, 0.0, 5.014546, 4.9514194 
9.77721e+1, 2.3084739e+2, -683231.5, -781092.7, -1550.0509, -0.0052840495, -0.0047748676, -683206.94, -5510.2227, 0.0, 5.014529, 4.9514194 
9.777078e+1, 2.3580016e+2, -634641.94, -733253.7, -1707.4115, -0.0051217848, 0.0045530414, -634612.4, -5443.908, 0.0, 5.0144887, 4.9509172 
9.7769266e+1, 2.407495e+2, -593947.94, -702826.44, -2454.333, -0.0051134927, 0.024503462, -593892.6, -13223.072, 0.0, 5.0144277, 4.944348 
9.776658e+1, 2.456943e+2, -542729.94, -649439.0, -2938.787, -0.004873155, 0.013080716, -542649.06, -10447.848, 0.0, 5.0144544, 4.945686 
9.776379e+1, 2.5063884e+2, -493178.72, -599993.3, -2877.2021, -0.004631789, -0.003277514, -493101.25, -9367.529, 0.0, 5.0145035, 4.945681 
9.7761023e+1, 2.5558355e+2, -443849.9, -551103.6, -2827.0635, -0.0044502993, -0.018281482, -443775.44, -8510.457, 0.0, 5.0145593, 4.945478 
9.775696e+1, 2.6052383e+2, -411624.84, -541104.4, -3430.209, -0.01523766, -0.0026796714, -411534.03, -24683.99, 0.0, 5.014705, 4.9313674 
9.775267e+1, 2.6546213e+2, -360481.72, -487062.9, -3151.3887, -0.03403166, 0.023835508, -360403.3, -21907.104, 0.0, 5.0143514, 4.9326124 
9.774925e+1, 2.7040017e+2, -312460.34, -438245.38, -3073.7888, -0.04930699, 0.032162186, -312385.25, -22235.92, 0.0, 5.01339, 4.932757 
9.7746253e+1, 2.7533722e+2, -265768.5, -390349.22, -2941.9802, -0.06381021, 0.024069255, -265699.06, -23886.795, 0.0, 5.01189, 4.9328537 
9.7738457e+1, 2.8027645e+2, -246010.34, -397330.94, -11705.321, -0.076011136, 0.17231692, -245110.23, -51668.04, 0.0, 5.0106163, 4.9140973 
9.773723e+1, 2.852113e+2, -173023.03, -287862.75, -2073.1467, -0.05355094, 0.23992118, -172985.61, -27925.25, 0.0, 5.0114083, 4.934086 
9.774176e+1, 2.9013875e+2, -122367.805, -238068.5, -629.392, -0.025085514, 0.1568674, -122364.38, -25620.674, 0.0, 5.0118456, 4.9338856 
9.7746605e+1, 2.9506487e+2, -73177.33, -189064.6, 903.1315, 0.0018489888, 0.058409467, -73170.29, -24730.18, 0.0, 5.011668, 4.933686 
9.7751254e+1, 3.0000535e+2, -22667.92, -100144.26, 254.63596, 0.022280136, -0.012628231, -22667.084, -22660.389, 0.0, 5.010786, 4.95732 
9.775892e+1, 3.0497837e+2, -25262.271, -90622.48, -2084.0903, 0.051685214, 0.07382217, -25195.887, -25195.887, 0.0, 5.008209, 4.960705 
9.77686e+1, 3.099606e+2, -33134.055, -86658.75, -4542.5317, 0.08724936, 0.19649652, -32751.277, -32751.277, 0.0, 5.00414, 4.9634748 
9.7779113e+1, 3.1494763e+2, -44116.79, -84611.47, -8326.422, 0.1215371, 0.33217964, -42471.57, -42471.57, 0.0, 4.9987335, 4.9662523 
1.0279631e+2, 1.21511705e+2, -1711753.3, -1750618.6, -1459.3408, 0.012401365, -0.008977374, -1711698.5, 37477.69, 0.0, 5.014493, 4.9891787 
1.0279303e+2, 1.2649912e+2, -1668185.4, -1713527.9, -459.90747, -0.022498883, 0.0110057425, -1668180.8, 32121.287, 0.0, 5.0146832, 4.9851804 
1.02794535e+2, 1.3148367e+2, -1618943.1, -1664417.3, -447.73795, -0.010561339, 0.0038187006, -1618938.8, 32517.088, 0.0, 5.0147676, 4.9851756 
1.0279605e+2, 1.3646819e+2, -1571911.8, -1619848.3, -434.6189, 0.0014903465, -0.0020758202, -1571907.9, 30702.135, 0.0, 5.0148506, 4.9836674 
1.0279698e+2, 1.4144994e+2, -1529261.5, -1584345.1, -486.7967, 0.008114476, 0.0065545747, -1529257.3, 24533.04, 0.0, 5.014933, 4.9790807 
1.02796674e+2, 1.4642894e+2, -1479732.4, -1534558.6, -466.27466, 0.0039128303, 0.0011154237, -1479728.5, 25267.254, 0.0, 5.0149856, 4.979295 
1.0279632e+2, 1.514079e+2, -1430528.9, -1485428.4, -390.93008, -0.0005725083, -0.0050606276, -1430526.0, 25675.451, 0.0, 5.0150347, 4.9792957 
1.0279598e+2, 1.5638685e+2, -1382754.3, -1439277.4, -316.54294, -0.005037986, -0.010762552, -1382752.5, 24654.85, 0.0, 5.0150833, 4.978301 
1.02795795e+2, 1.6136228e+2, -1341892.4, -1407262.4, -410.88608, -0.0075248615, -0.008689378, -1341889.8, 16757.541, 0.0, 5.0150595, 4.972614 
1.0279586e+2, 1.6633527e+2, -1293137.6, -1357977.1, -623.3366, -0.005801879, -0.008619438, -1293131.6, 16778.363, 0.0, 5.014866, 4.9727597 
1.02795936e+2, 1.7130832e+2, -1244607.5, -1309139.4, -782.3564, -0.0038644772, -0.008332997, -1244598.0, 16574.164, 0.0, 5.014665, 4.9727592 
1.0279601e+2, 1.7628138e+2, -1197209.5, -1262703.5, -941.6112, -0.0018420253, -0.007555648, -1197196.0, 15238.302, 0.0, 5.014464, 4.9719515 
1.0279591e+2, 1.8125065e+2, -1157978.1, -1234040.3, -1334.2903, -0.000012521138, 0.0015809925, -1157954.8, 5780.675, 0.0, 5.014349, 4.965095 
1.02795355e+2, 1.8621619e+2, -1108490.3, -1184475.3, -1340.1548, 0.0013039153, 0.0024783034, -1108466.6, 6610.994, 0.0, 5.0144024, 4.965188 
1.0279478e+2, 1.9118173e+2, -1059119.0, -1135186.0, -1236.2214, 0.0027008457, 0.0030969041, -1059098.9, 7321.091, 0.0, 5.0144606, 4.9651895 
1.0279423e+2, 1.961473e+2, -1010640.44, -1087816.4, -1132.9755, 0.0042096744, 0.0040993555, -1010623.8, 7138.504, 0.0, 5.014518, 4.964541 
1.0279356e+2, 2.0110947e+2, -968870.75, -1054869.3, -1091.7404, 0.004895093, 0.011101138, -968856.9, 277.7852, 0.0, 5.0145597, 4.9589796 
1.02792524e+2, 2.0606832e+2, -918570.56, -1003354.6, -1151.9261, 0.0023893896, 0.0002459552, -918554.9, 1976.1901, 0.0, 5.01456, 4.959743 
1.0279148e+2, 2.1102718e+2, -869322.1, -954099.2, -1221.4059, -0.0003217156, -0.011972728, -869304.5, 2622.6265, 0.0, 5.0145583, 4.959744 
1.0279044e+2, 2.1598604e+2, -820739.2, -906299.56, -1290.8428, -0.0029799656, -0.023965955, -820719.7, 2603.3875, 0.0, 5.0145564, 4.9592447 
1.0278931e+2, 2.2094151e+2, -782213.44, -880413.9, -1619.4083, -0.0049319486, -0.02137496, -782186.7, -7430.5767, 0.0, 5.014529, 4.951214 
1.0278804e+2, 2.2589405e+2, -733060.06, -830770.06, -1705.8425, -0.003849971, -0.013392608, -733030.25, -6800.0894, 0.0, 5.014388, 4.9513674 
1.0278677e+2, 2.3084663e+2, -684133.4, -781598.3, -1660.03, -0.0022835073, -0.00535219, -684105.1, -6400.7715, 0.0, 5.014235, 4.951375 
1.0278552e+2, 2.3579921e+2, -635854.4, -733872.6, -1616.6874, -0.00051580655, 0.0024669508, -635827.7, -6648.984, 0.0, 5.014081, 4.950881 
1.02784105e+2, 2.4074854e+2, -595068.1, -703245.4, -1970.9209, 0.0007554035, 0.022429125, -595032.25, -14352.014, 0.0, 5.014027, 4.944377 
1.0278165e+2, 2.4569365e+2, -542262.06, -649083.94, -2322.537, 0.0005333048, 0.013746772, -542211.6, -10004.565, 0.0, 5.0145984, 4.9457383 
1.02779135e+2, 2.5063854e+2, -491011.34, -598901.6, -2235.1934, 0.00036231906, 0.00008164825, -490965.06, -7230.354, 0.0, 5.0152445, 4.945721 
1.0277666e+2, 2.5558355e+2, -440022.88, -549299.6, -2143.9292, 0.00032017776, -0.012220718, -439980.84, -4719.621, 0.0, 5.015884, 4.945506 
1.0277285e+2, 2.6052356e+2, -406333.94, -539318.06, -2015.369, -0.011698872, 0.00289143, -406303.4, -19455.55, 0.0, 5.0166817, 4.9310694 
1.0276901e+2, 2.6546115e+2, -352560.8, -481822.72, -1891.6316, -0.028298568, 0.018476099, -352533.16, -14030.725, 0.0, 5.0170174, 4.933086 
1.0276635e+2, 2.7039963e+2, -301340.75, -430238.7, -2553.5386, -0.03445784, 0.023016905, -301290.2, -11136.987, 0.0, 5.0171785, 4.93358 
1.0276436e+2, 2.7533814e+2, -250093.17, -378907.4, -3440.3892, -0.033612832, 0.019774742, -250001.34, -8198.073, 0.0, 5.017298, 4.9340267 
1.02757074e+2, 2.8028053e+2, -220493.86, -390554.88, -11131.406, -0.030969849, 0.2010529, -219768.34, -26364.02, 0.0, 5.0202227, 4.912322 
1.0275427e+2, 2.8521496e+2, -147314.75, -281134.22, -152.21312, -0.023068741, 0.27634248, -147314.58, -2287.4915, 0.0, 5.020333, 4.9331226 
1.0275729e+2, 2.9014105e+2, -105414.54, -233948.05, 64.83286, -0.007876254, 0.18202312, -105414.5, -8689.731, 0.0, 5.0176325, 4.9333196 
1.0276083e+2, 2.9506633e+2, -63386.83, -186802.8, 78.298775, 0.011993862, 0.07511388, -63386.777, -14956.724, 0.0, 5.0148573, 4.9335165 
1.0276404e+2, 3.0000508e+2, -19815.822, -103773.84, -2054.9912, 0.030882569, -0.0068304273, -19765.555, -19750.041, 0.0, 5.0122943, 4.955681 
1.02769814e+2, 3.0497774e+2, -20943.27, -94770.31, -3856.9478, 0.0681295, 0.09122183, -20742.318, -20742.318, 0.0, 5.010558, 4.9584227 
1.0277836e+2, 3.099609e+2, -23772.0, -90988.02, -4496.9067, 0.12957425, 0.24684566, -23472.48, -23472.48, 0.0, 5.008804, 4.960229 
1.02788515e+2, 3.149485e+2, -26369.258, -87442.125, -5416.774, 0.2075302, 0.42720392, -25892.547, -25892.547, 0.0, 5.006967, 4.9620357 
1.0781124e+2, 1.21511675e+2, -1711612.4, -1750370.8, -604.8292, 0.016472902, 0.000033097724, -1711602.9, 37575.582, 0.0, 5.014498, 4.9892592 
1.07808076e+2, 1.264975e+2, -1668124.9, -1713445.6, -401.55264, -0.019081214, 0.0039131427, -1668121.3, 32198.104, 0.0, 5.014689, 4.985207 
1.0780946e+2, 1.3148233e+2, -1618885.1, -1664332.9, -385.2578, -0.0090415375, -0.00061718194, -1618881.9, 32588.318, 0.0, 5.0147724, 4.9852033 
1.0781086e+2, 1.3646714e+2, -1571856.3, -1619761.9, -368.03018, 0.001050613, -0.0038417755, -1571853.4, 30767.848, 0.0, 5.0148544, 4.983696 
1.07811734e+2, 1.4144914e+2, -1529115.4, -1584045.3, -438.68033, 0.006321817, 0.006618682, -1529111.9, 24686.846, 0.0, 5.0149336, 4.979181 
1.078115e+2, 1.4642824e+2, -1479581.1, -1534246.3, -428.71365, 0.00232033, 0.001184289, -1479577.8, 25424.688, 0.0, 5.0149856, 4.9793997 
1.07811235e+2, 1.5140729e+2, -1430375.8, -1485115.5, -350.79947, -0.0019045275, -0.0050568255, -1430373.6, 25832.963, 0.0, 5.015035, 4.9794006 
1.0781097e+2, 1.5638632e+2, -1382599.5, -1438964.0, -273.84866, -0.006121472, -0.010840403, -1382598.1, 24812.514, 0.0, 5.0150847, 4.9784064 
1.0781084e+2, 1.6136175e+2, -1342052.5, -1407603.3, -521.5048, -0.00779279, -0.00882637, -1342048.4, 16601.998, 0.0, 5.01506, 4.972501 
1.0781093e+2, 1.6633466e+2, -1293411.4, -1358561.5, -775.29285, -0.00382924, -0.007898645, -1293402.1, 16513.146, 0.0, 5.014867, 4.9725647 
1.07811034e+2, 1.7130761e+2, -1244873.8, -1309714.4, -930.1388, 0.00037423894, -0.006675701, -1244860.4, 16319.432, 0.0, 5.014667, 4.972566 
1.0781114e+2, 1.7628054e+2, -1197468.4, -1263269.5, -1085.1921, 0.0046185423, -0.004997478, -1197450.5, 14993.802, 0.0, 5.014467, 4.97176 
1.0781097e+2, 1.812497e+2, -1157840.8, -1233751.5, -1328.1145, 0.006988344, 0.0036976982, -1157817.5, 5929.5645, 0.0, 5.0143485, 4.9651933 
1.07810155e+2, 1.8621512e+2, -1108284.5, -1184042.5, -1293.3872, 0.00523075, 0.0019533837, -1108262.5, 6826.6245, 0.0, 5.0144024, 4.9653363 
1.0780933e+2, 1.9118053e+2, -1058909.4, -1134749.1, -1184.2765, 0.00338051, -0.00010315631, -1058890.9, 7540.3433, 0.0, 5.0144615, 4.965339 
1.0780849e+2, 1.9614595e+2, -1010426.94, -1087375.5, -1075.8574, 0.0015931737, -0.001809459, -1010411.9, 7361.441, 0.0, 5.01452, 4.964692 
1.07807666e+2, 2.0110811e+2, -968836.0, -1054804.4, -1082.247, 0.000198196, 0.0039722305, -968822.4, 322.6361, 0.0, 5.0145607, 4.9590025 
1.07806794e+2, 2.0606738e+2, -918666.75, -1003573.7, -1154.1938, -0.00068910077, -0.0022151296, -918651.06, 1887.812, 0.0, 5.014561, 4.95967 
1.0780593e+2, 2.1102665e+2, -869414.8, -954313.9, -1219.2404, -0.0015756493, -0.009274896, -869397.3, 2534.9065, 0.0, 5.0145597, 4.9596715 
1.0780506e+2, 2.1598595e+2, -820828.44, -906509.94, -1284.243, -0.0024394745, -0.016129086, -820809.2, 2516.2761, 0.0, 5.0145583, 4.959173 
1.0780407e+2, 2.2094165e+2, -782102.06, -880189.1, -1689.9464, -0.0027769431, -0.011271226, -782073.0, -7315.665, 0.0, 5.014531, 4.9512916 
1.0780276e+2, 2.2589374e+2, -732944.9, -830547.56, -1809.7816, -0.0007054882, -0.0083951065, -732911.3, -6676.3623, 0.0, 5.0143905, 4.9514465 
1.0780145e+2, 2.3084584e+2, -684018.3, -781383.06, -1755.9324, 0.0017291324, -0.005824998, -683986.6, -6273.531, 0.0, 5.014239, 4.9514523 
1.07800156e+2, 2.3579794e+2, -635739.25, -733664.56, -1704.5392, 0.004290393, -0.0034574505, -635709.56, -6518.187, 0.0, 5.0140853, 4.9509563 
1.07798755e+2, 2.40747e+2, -594850.1, -702891.1, -1724.6913, 0.005626477, 0.012970531, -594822.6, -14127.975, 0.0, 5.0140395, 4.944503 
1.0779662e+2, 2.4569279e+2, -542085.2, -648871.7, -1860.8909, 0.0030002783, 0.010150388, -542052.75, -9838.34, 0.0, 5.014615, 4.9458184 
1.0779443e+2, 2.5063843e+2, -490831.9, -598680.7, -1765.3376, 0.00016685897, 0.0033172204, -490803.03, -7068.716, 0.0, 5.0152626, 4.945804 
1.0779228e+2, 2.5558418e+2, -439840.94, -549070.1, -1665.8839, -0.0025910428, -0.0023107582, -439815.56, -4562.4224, 0.0, 5.015903, 4.9455914 
1.0778895e+2, 2.605244e+2, -405798.44, -538676.25, -1199.8977, -0.017824503, 0.013288569, -405787.6, -18951.281, 0.0, 5.0167375, 4.931312 
1.077855e+2, 2.6546046e+2, -351843.8, -482004.66, -834.57965, -0.041679524, 0.014330362, -351838.44, -13336.817, 0.0, 5.017218, 4.9330573 
1.0778307e+2, 2.7039704e+2, -300303.66, -430790.28, -1222.4177, -0.05788143, 0.003067004, -300292.2, -10125.8545, 0.0, 5.017523, 4.933402 
1.0778124e+2, 2.7533337e+2, -248736.22, -379828.34, -1835.3098, -0.069602266, -0.01712791, -248710.53, -6877.524, 0.0, 5.017786, 4.9336996 
1.0777446e+2, 2.8027385e+2, -219741.34, -388972.4, -10490.91, -0.08053703, 0.14614946, -219093.48, -25643.947, 0.0, 5.0202336, 4.9128475 
1.0777095e+2, 2.852098e+2, -148265.77, -280970.9, -2700.3413, -0.06252495, 0.23361158, -148210.84, -3149.836, 0.0, 5.019943, 4.933253 
1.0777258e+2, 2.9013792e+2, -106211.555, -234140.47, -2170.1829, -0.033617023, 0.1597321, -106174.75, -9431.546, 0.0, 5.017315, 4.9333344 
1.0777467e+2, 2.9506513e+2, -64028.426, -187350.72, -1843.4619, -0.002627453, 0.07326675, -64000.875, -15566.882, 0.0, 5.014612, 4.9334154 
1.0777627e+2, 3.0000475e+2, -20312.947, -105325.94, -3459.9177, 0.022592895, 0.0033494835, -20172.365, -20157.611, 0.0, 5.0122013, 4.955144 
1.0777934e+2, 3.049783e+2, -20595.256, -96598.63, -4380.474, 0.046653938, 0.10471807, -20343.62, -20343.62, 0.0, 5.010764, 4.957548 
1.0778481e+2, 3.0996248e+2, -22629.893, -92822.19, -4327.172, 0.08690645, 0.26431626, -22364.14, -22364.14, 0.0, 5.009279, 4.95925 
1.0779169e+2, 3.1495053e+2, -24431.184, -89283.28, -4553.6997, 0.13856281, 0.4431984, -24113.0, -24113.0, 0.0, 5.007712, 4.9609528 
1.1282615e+2, 1.21511646e+2, -1711422.0, -1750020.5, 255.30779, 0.02037277, 0.009241073, -1711420.4, 37760.313, 0.0, 5.0145035, 4.9893727 
1.1282312e+2, 1.264959e+2, -1668065.8, -1713362.6, -344.55664, -0.015630107, -0.002989521, -1668063.1, 32273.598, 0.0, 5.0146947, 4.985233 
1.128244e+2, 1.3148102e+2, -1618828.5, -1664247.8, -324.13657, -0.007499853, -0.004912193, -1618826.3, 32658.264, 0.0, 5.0147767, 4.9852304 
1.1282568e+2, 1.3646612e+2, -1571802.0, -1619674.4, -302.80054, 0.00062120927, -0.005515926, -1571800.1, 30832.305, 0.0, 5.0148582, 4.983724 
1.128265e+2, 1.4144833e+2, -1528981.6, -1583769.8, -394.11945, 0.0045471485, 0.006785634, -1528978.9, 24828.365, 0.0, 5.0149336, 4.979272 
1.1282634e+2, 1.4642754e+2, -1479430.3, -1533933.8, -390.6367, 0.000742358, 0.0013119602, -1479427.5, 25581.66, 0.0, 5.0149856, 4.9795036 
1.1282614e+2, 1.5140666e+2, -1430223.3, -1484802.5, -310.1531, -0.003234642, -0.0050594937, -1430221.5, 25990.055, 0.0, 5.0150356, 4.9795046 
1.1282595e+2, 1.5638581e+2, -1382445.1, -1438650.5, -230.63882, -0.0072156773, -0.010989999, -1382444.3, 24969.791, 0.0, 5.0150857, 4.978511 
1.12825885e+2, 1.6136126e+2, -1342237.5, -1407995.0, -636.7297, -0.007969993, -0.008838611, -1342231.4, 16421.857, 0.0, 5.01506, 4.9723706 
1.1282601e+2, 1.6633405e+2, -1293686.0, -1359145.4, -928.5348, -0.0017820911, -0.007054363, -1293672.9, 16247.656, 0.0, 5.014868, 4.972369 
1.1282613e+2, 1.7130688e+2, -1245140.9, -1310289.0, -1079.2064, 0.004633202, -0.0049761767, -1245123.0, 16064.421, 0.0, 5.014669, 4.972372 
1.1282626e+2, 1.7627972e+2, -1197728.1, -1263834.9, -1230.058, 0.011045093, -0.002478335, -1197705.3, 14749.014, 0.0, 5.0144696, 4.971568 
1.12826034e+2, 1.8124877e+2, -1157731.0, -1233520.4, -1329.559, 0.014047682, 0.0059319264, -1157707.6, 6051.029, 0.0, 5.0143485, 4.965272 
1.1282498e+2, 1.8621404e+2, -1108079.9, -1183609.1, -1246.933, 0.009223067, 0.0015257616, -1108059.3, 7041.238, 0.0, 5.0144024, 4.965484 
1.1282387e+2, 1.9117932e+2, -1058700.9, -1134311.9, -1132.6453, 0.004083465, -0.0033129829, -1058683.9, 7758.6357, 0.0, 5.0144625, 4.965488 
1.1282277e+2, 1.9614463e+2, -1010214.4, -1086934.3, -1019.0539, -0.0010422241, -0.007835097, -1010200.9, 7583.4746, 0.0, 5.014522, 4.964842 
1.1282178e+2, 2.0110679e+2, -968839.75, -1054821.5, -1078.1002, -0.0044745477, -0.0030067544, -968826.25, 329.0723, 0.0, 5.0145617, 4.958997 
1.12821065e+2, 2.0606643e+2, -918763.8, -1003792.3, -1157.2662, -0.0037364296, -0.004484478, -918748.06, 1798.545, 0.0, 5.014562, 4.9595957 
1.1282038e+2, 2.1102615e+2, -869508.3, -954528.2, -1217.8792, -0.0028234315, -0.0064891744, -869490.9, 2446.3442, 0.0, 5.0145617, 4.959598 
1.1281969e+2, 2.1598586e+2, -820918.44, -906719.94, -1278.4474, -0.0019178424, -0.008308168, -820899.4, 2428.3694, 0.0, 5.0145607, 4.9591007 
1.1281882e+2, 2.2094178e+2, -782022.25, -880030.1, -1760.7262, -0.00062140106, -0.0011316676, -781990.7, -7232.151, 0.0, 5.0145335, 4.951346 
1.12817496e+2, 2.2589344e+2, -732831.75, -830323.44, -1910.5958, 0.002485589, -0.003441674, -732794.3, -6554.5347, 0.0, 5.0143933, 4.9515247 
1.1281615e+2, 2.3084505e+2, -683905.2, -781166.1, -1848.7102, 0.0058208215, -0.0064980523, -683870.06, -6148.155, 0.0, 5.014242, 4.951528 
1.12814814e+2, 2.3579665e+2, -635626.2, -733454.9, -1789.2668, 0.0092081, -0.009738269, -635593.44, -6389.2188, 0.0, 5.0140896, 4.9510303 
1.1281342e+2, 2.4074553e+2, -594691.94, -702651.2, -1469.1459, 0.010556254, 0.003896167, -594671.94, -13963.242, 0.0, 5.014052, 4.9445868 
1.12811595e+2, 2.4569198e+2, -541918.9, -648649.06, -1401.2384, 0.0054993844, 0.007228753, -541900.5, -9679.223, 0.0, 5.014632, 4.945897 
1.1280974e+2, 2.5063837e+2, -490663.03, -598449.44, -1297.4741, 0.000008743485, 0.0070464327, -490647.4, -6913.9736, 0.0, 5.0152802, 4.945886 
1.1280792e+2, 2.555848e+2, -439669.56, -548830.3, -1189.8293, -0.0054597044, 0.007911695, -439656.6, -4411.919, 0.0, 5.0159216, 4.9456763 
1.1280502e+2, 2.6052502e+2, -405557.16, -538580.1, -256.71957, -0.02473833, 0.022877548, -405556.66, -18729.89, 0.0, 5.0167933, 4.9313297 
1.12802185e+2, 2.6545933e+2, -351195.3, -482129.34, 461.64975, -0.054859906, 0.0049899695, -351193.7, -12688.567, 0.0, 5.017419, 4.9329643 
1.1280029e+2, 2.7039382e+2, -299334.28, -431284.25, 347.51526, -0.07948895, -0.026621195, -299333.38, -9148.23, 0.0, 5.0178676, 4.93316 
1.1279892e+2, 2.7532792e+2, -247446.22, -380691.25, 8.222588, -0.1021599, -0.06831022, -247446.22, -5576.4565, 0.0, 5.0182743, 4.933308 
1.1279188e+2, 2.8026742e+2, -221444.19, -393046.75, -10467.033, -0.13074616, 0.09561027, -220808.11, -27315.719, 0.0, 5.020247, 4.9113836 
1.12787016e+2, 2.8520563e+2, -149335.36, -280695.75, -5022.1016, -0.10538037, 0.20828575, -149143.63, -4058.1377, 0.0, 5.019554, 4.933329 
1.1278742e+2, 2.9013556e+2, -107126.945, -234219.98, -4178.211, -0.061222456, 0.14956549, -106989.734, -10235.714, 0.0, 5.016998, 4.9332943 
1.127882e+2, 2.950645e+2, -64788.19, -187784.72, -3537.6018, -0.017579803, 0.07826318, -64686.527, -16254.401, 0.0, 5.014367, 4.9332595 
1.1278823e+2, 3.0000407e+2, -22046.42, -109390.75, -4645.235, 0.013441111, 0.012530852, -21800.068, -21781.959, 0.0, 5.0121093, 4.953621 
1.12788856e+2, 3.0497727e+2, -20371.852, -98304.84, -4738.5205, 0.02263331, 0.10219492, -20084.795, -20084.795, 0.0, 5.0109706, 4.9565215 
1.1279162e+2, 3.0996186e+2, -21612.152, -94532.62, -3990.4526, 0.041160315, 0.24953336, -21394.432, -21394.432, 0.0, 5.0097556, 4.9581194 
1.1279561e+2, 3.1494975e+2, -22617.516, -90998.89, -3522.1572, 0.06596976, 0.410688, -22436.576, -22436.576, 0.0, 5.0084586, 4.9597173 
1.17841065e+2, 1.2151161e+2, -1711421.0, -1749682.5, 1090.0226, 0.024124796, 0.018597893, -1711390.0, 37792.83, 0.0, 5.014431, 4.9895196 
1.1783818e+2, 1.264943e+2, -1668150.5, -1713344.5, -301.13657, -0.012118295, -0.009710521, -1668148.5, 32205.38, 0.0, 5.014653, 4.985259 
1.17839344e+2, 1.3147971e+2, -1618850.6, -1664196.1, -260.25314, -0.0059262724, -0.009074811, -1618849.1, 32649.523, 0.0, 5.0147557, 4.985257 
1.17840506e+2, 1.3646509e+2, -1571815.5, -1619616.0, -221.57748, 0.00020942732, -0.0071076723, -1571814.5, 30829.002, 0.0, 5.0148396, 4.983752 
1.1784126e+2, 1.4144754e+2, -1528951.5, -1583564.3, -331.28806, 0.0028048207, 0.0070448783, -1528949.5, 24866.078, 0.0, 5.0149035, 4.9793544 
1.1784117e+2, 1.4642683e+2, -1479382.8, -1533673.4, -345.9757, -0.0008030558, 0.0014925047, -1479380.5, 25635.246, 0.0, 5.014951, 4.979606 
1.1784106e+2, 1.5140605e+2, -1430196.3, -1484552.6, -282.9893, -0.004537024, -0.005064423, -1430194.9, 26021.707, 0.0, 5.014995, 4.979607 
1.17840946e+2, 1.5638527e+2, -1382450.6, -1438416.3, -224.38628, -0.008282511, -0.011191699, -1382449.8, 24967.645, 0.0, 5.015034, 4.9786134 
1.17840946e+2, 1.6136079e+2, -1342607.5, -1408512.9, -804.3393, -0.008018244, -0.008699869, -1342597.6, 16058.414, 0.0, 5.0150065, 4.9722233 
1.17841095e+2, 1.6633345e+2, -1294054.8, -1359771.6, -1115.2389, 0.0003535482, -0.006073803, -1294035.9, 15889.754, 0.0, 5.014837, 4.9721737 
1.1784124e+2, 1.7130616e+2, -1245465.6, -1310889.1, -1252.0626, 0.008914085, -0.0032281955, -1245441.6, 15753.357, 0.0, 5.014652, 4.972178 
1.17841385e+2, 1.762789e+2, -1198041.3, -1264424.6, -1395.5896, 0.01743988, 0.000008982459, -1198011.9, 14452.335, 0.0, 5.014455, 4.971375 
1.1784111e+2, 1.8124783e+2, -1157701.1, -1233369.8, -1354.5924, 0.02117158, 0.0082899975, -1157676.9, 6093.262, 0.0, 5.014331, 4.965331 
1.1783979e+2, 1.8621299e+2, -1107897.6, -1183183.6, -1206.9662, 0.013281331, 0.0011909086, -1107878.4, 7233.5757, 0.0, 5.014395, 4.965631 
1.1783842e+2, 1.9117813e+2, -1058512.1, -1133881.3, -1081.8019, 0.004816551, -0.0065379823, -1058496.5, 7957.1313, 0.0, 5.014457, 4.9656363 
1.1783705e+2, 1.9614328e+2, -1010048.94, -1086512.3, -961.4613, -0.0036707243, -0.013973412, -1010036.9, 7758.453, 0.0, 5.0145087, 4.964991 
1.17835894e+2, 2.0110546e+2, -968972.5, -1054961.5, -1077.8658, -0.009079573, -0.009824237, -968959.0, 206.46362, 0.0, 5.014532, 4.958963 
1.1783534e+2, 2.0606552e+2, -918999.5, -1004075.0, -1163.9752, -0.0067152185, -0.006557779, -918983.56, 1570.5919, 0.0, 5.0145154, 4.959521 
1.1783483e+2, 2.1102566e+2, -869806.7, -954837.75, -1228.6136, -0.004026367, -0.003612167, -869788.94, 2153.153, 0.0, 5.0144925, 4.9595237 
1.17834315e+2, 2.1598579e+2, -821298.2, -907064.7, -1296.6619, -0.0013661359, -0.0004940931, -821278.6, 2051.4045, 0.0, 5.0144625, 4.959027 
1.17833585e+2, 2.2094193e+2, -782316.1, -880093.8, -1857.1927, 0.0015911207, 0.009058187, -782280.9, -7521.1533, 0.0, 5.0144157, 4.951378 
1.17832236e+2, 2.2589311e+2, -733012.4, -830229.06, -2014.1798, 0.005764907, 0.0014742819, -732970.7, -6725.969, 0.0, 5.0142937, 4.9516025 
1.1783085e+2, 2.3084424e+2, -684073.7, -781071.44, -1922.6621, 0.010027084, -0.007377953, -684035.56, -6304.688, 0.0, 5.0141473, 4.9516044 
1.17829464e+2, 2.3579535e+2, -635827.94, -733380.6, -1831.3268, 0.014276996, -0.01640046, -635793.6, -6576.3706, 0.0, 5.0139837, 4.9511046 
1.178281e+2, 2.4074407e+2, -594989.44, -702694.56, -1135.0596, 0.015597292, -0.004844611, -594977.44, -14255.018, 0.0, 5.013925, 4.944632 
1.1782659e+2, 2.4569124e+2, -542209.3, -648604.9, -843.2804, 0.0081011355, 0.0049616555, -542202.6, -9975.085, 0.0, 5.0144925, 4.9459786 
1.1782508e+2, 2.5063834e+2, -490954.7, -598396.2, -695.83734, -0.00001293645, 0.011329221, -490950.2, -7218.204, 0.0, 5.0151396, 4.9459705 
1.178236e+2, 2.5558552e+2, -439925.56, -548751.06, -538.13446, -0.008147745, 0.018628752, -439922.9, -4687.3057, 0.0, 5.015794, 4.9457645 
1.1782109e+2, 2.605255e+2, -406221.16, -539214.06, 1136.9901, -0.03216024, 0.031933296, -406211.44, -19392.746, 0.0, 5.016625, 4.9311547 
1.1781912e+2, 2.6545784e+2, -353120.06, -483092.97, 2925.0095, -0.06686236, -0.009367145, -353054.25, -14542.273, 0.0, 5.0167103, 4.9328823 
1.1781812e+2, 2.7039027e+2, -304184.13, -433947.0, 4161.8394, -0.09711575, -0.06584605, -304050.78, -13842.916, 0.0, 5.0161324, 4.932961 
1.1781755e+2, 2.7532202e+2, -256453.02, -385585.28, 5632.7217, -0.12747706, -0.13339913, -256207.8, -14297.348, 0.0, 5.015064, 4.9329925 
1.1780956e+2, 2.8026167e+2, -239165.19, -408883.44, -5747.7744, -0.17643574, 0.049798407, -238970.75, -45442.074, 0.0, 5.0154, 4.9079347 
1.1780262e+2, 2.8520268e+2, -158890.98, -284409.5, -3080.2617, -0.14820515, 0.2003858, -158815.44, -13717.721, 0.0, 5.016161, 4.9332414 
1.17801875e+2, 2.9013413e+2, -112044.52, -236176.75, -3404.145, -0.08890309, 0.15124257, -111951.24, -15195.51, 0.0, 5.015291, 4.933127 
1.17801465e+2, 2.950645e+2, -66590.555, -188660.95, -3531.3096, -0.032151777, 0.08946222, -66488.484, -18064.41, 0.0, 5.013803, 4.933013 
1.1779997e+2, 3.000029e+2, -24668.107, -115769.82, -4826.856, 0.003688465, 0.019819835, -24413.078, -24387.229, 0.0, 5.0121565, 4.9511385 
1.1779842e+2, 3.0497465e+2, -21730.258, -100496.72, -5152.7266, -0.002999359, 0.08389833, -21394.607, -21394.607, 0.0, 5.0106907, 4.955344 
1.17798924e+2, 3.0995914e+2, -26663.578, -98719.54, -5713.1577, -0.004979666, 0.20553228, -26213.406, -26213.406, 0.0, 5.0081434, 4.9567986 
1.1780054e+2, 3.1494644e+2, -33907.023, -98242.266, -7595.032, -0.0047557866, 0.33708307, -33022.56, -33022.56, 0.0, 5.0045924, 4.9582567 
1.2285527e+2, 1.2151065e+2, -1710348.4, -1749067.3, 1281.6038, 0.020327484, 0.019844675, -1710306.0, 38886.67, 0.0, 5.0147734, 4.989549 
1.22853294e+2, 1.2649275e+2, -1667530.8, -1712708.1, -264.1098, -0.008148803, -0.015623731, -1667529.3, 32839.563, 0.0, 5.0147934, 4.985396 
1.22854345e+2, 1.3147844e+2, -1618409.9, -1663657.0, -109.51637, -0.003817817, -0.0135111455, -1618409.6, 33100.37, 0.0, 5.0148377, 4.985392 
1.228554e+2, 1.3646409e+2, -1571499.1, -1619146.3, 43.898563, 0.0006324508, -0.010087857, -1571499.0, 31152.465, 0.0, 5.014881, 4.983885 
1.22856125e+2, 1.4144677e+2, -1529025.1, -1583680.6, -85.89986, 0.0025530944, 0.005465049, -1529025.0, 24796.232, 0.0, 5.014896, 4.9793186 
1.2285613e+2, 1.464261e+2, -1479843.6, -1534092.3, -345.0226, -0.000040338324, 0.0011659592, -1479841.5, 25180.24, 0.0, 5.0148387, 4.9795213 
1.2285612e+2, 1.5140536e+2, -1430968.6, -1485124.3, -524.27185, -0.0026651048, -0.0040853405, -1430963.5, 25259.195, 0.0, 5.0147777, 4.979521 
1.228561e+2, 1.5638463e+2, -1383520.9, -1439133.1, -704.40924, -0.005248059, -0.0088399695, -1383511.9, 23911.885, 0.0, 5.0147166, 4.978526 
1.2285612e+2, 1.6136011e+2, -1343678.8, -1409225.4, -1427.8185, -0.004600444, -0.005640504, -1343647.8, 15015.583, 0.0, 5.014688, 4.9721355 
1.2285607e+2, 1.6633262e+2, -1294509.0, -1360183.8, -1629.049, 0.0023934892, -0.003955201, -1294468.6, 15466.314, 0.0, 5.0147266, 4.9720855 
1.2285602e+2, 1.7130516e+2, -1245260.5, -1310992.5, -1639.888, 0.009665155, -0.0020341834, -1245219.5, 15986.755, 0.0, 5.014767, 4.9720864 
1.22855976e+2, 1.7627771e+2, -1197149.4, -1264207.6, -1651.7811, 0.01705925, 0.00036483246, -1197108.6, 15368.936, 0.0, 5.014807, 4.97128 
1.22855596e+2, 1.8124655e+2, -1156074.6, -1232331.5, -1440.5522, 0.02022284, 0.0078622755, -1156047.5, 7736.86, 0.0, 5.0148354, 4.9654417 
1.2285432e+2, 1.8621176e+2, -1106415.6, -1182065.3, -1253.2662, 0.012537466, -0.00025757108, -1106394.9, 8729.202, 0.0, 5.014821, 4.9658074 
1.2285302e+2, 1.9117698e+2, -1057269.0, -1132880.5, -1114.075, 0.004429681, -0.008927077, -1057252.6, 9211.047, 0.0, 5.0148044, 4.9658117 
1.22851714e+2, 1.9614223e+2, -1009013.44, -1085613.5, -977.8534, -0.003549754, -0.017181665, -1009001.0, 8802.09, 0.0, 5.0147867, 4.9651656 
1.228506e+2, 2.0110449e+2, -968613.44, -1054947.6, -1208.2151, -0.0082026785, -0.012962456, -968596.56, 575.30444, 0.0, 5.0146904, 4.9588923 
1.22849986e+2, 2.060647e+2, -919702.3, -1004775.5, -1456.4963, -0.00451221, -0.0067949346, -919677.4, 883.818, 0.0, 5.01435, 4.959357 
1.2284942e+2, 2.1102498e+2, -871465.0, -955983.94, -1649.4607, -0.00035379454, -0.0006609317, -871432.8, 517.01215, 0.0, 5.013993, 4.95936 
1.2284885e+2, 2.1598528e+2, -823885.75, -908643.06, -1842.8491, 0.0038709147, 0.005711305, -823845.7, -507.3598, 0.0, 5.013635, 4.9588633 
1.2284805e+2, 2.2094148e+2, -784909.94, -880876.5, -2270.2441, 0.0074116574, 0.01645294, -784856.25, -10088.013, 0.0, 5.01342, 4.951566 
1.2284649e+2, 2.2589253e+2, -734697.8, -830354.44, -2142.278, 0.009258994, 0.0047635147, -734649.8, -8397.18, 0.0, 5.01357, 4.9518895 
1.228449e+2, 2.308435e+2, -684859.0, -780761.06, -1822.0125, 0.011100685, -0.008487104, -684824.4, -7086.167, 0.0, 5.0137386, 4.9518957 
1.228433e+2, 2.3579444e+2, -635671.6, -732622.3, -1502.7946, 0.013017826, -0.021963067, -635648.3, -6424.3677, 0.0, 5.013906, 4.9514 
1.2284184e+2, 2.4074312e+2, -594658.5, -702152.8, -493.90466, 0.012841957, -0.013352575, -594656.25, -13927.922, 0.0, 5.0139804, 4.944785 
1.2284085e+2, 2.4569087e+2, -543225.25, -648912.44, -228.73946, 0.0072668064, 0.002008835, -543224.75, -10995.2295, 0.0, 5.0141234, 4.9460216 
1.2283995e+2, 2.506387e+2, -493239.06, -599238.75, -260.4137, 0.0014985742, 0.01548927, -493238.4, -9509.388, 0.0, 5.0143065, 4.9460273 
1.2283911e+2, 2.5558668e+2, -443506.03, -550137.7, -281.5346, -0.0042251525, 0.030430922, -443505.28, -8278.22, 0.0, 5.014479, 4.9458346 
1.2283742e+2, 2.605274e+2, -409980.84, -537308.44, 1832.8824, -0.024169454, 0.0453371, -409954.47, -23151.725, 0.0, 5.014634, 4.9326463 
1.2283654e+2, 2.6545998e+2, -358325.6, -480112.44, 3470.279, -0.048996974, -0.0101704635, -358226.78, -19742.328, 0.0, 5.013992, 4.934977 
1.2283678e+2, 2.7039313e+2, -309581.44, -429877.56, 3818.6638, -0.06422385, -0.08064566, -309460.34, -19296.938, 0.0, 5.0131807, 4.9354415 
1.2283771e+2, 2.7532613e+2, -260732.86, -379930.9, 3895.0256, -0.074228354, -0.16151091, -260605.72, -18762.219, 0.0, 5.0123296, 4.935859 
1.22831136e+2, 2.802665e+2, -237598.13, -408025.34, -4167.8228, -0.11150822, 0.0032854963, -237496.27, -44049.156, 0.0, 5.0153584, 4.9085703 
1.228223e+2, 2.8520572e+2, -157079.05, -291387.75, 57.87023, -0.109672956, 0.15677126, -157079.03, -12041.367, 0.0, 5.017355, 4.931022 
1.2281917e+2, 2.9013568e+2, -110797.92, -241640.92, -632.69464, -0.071716994, 0.11934451, -110794.87, -14079.378, 0.0, 5.0162497, 4.931366 
1.2281668e+2, 2.950649e+2, -64408.875, -191978.39, -1636.7533, -0.02959079, 0.067876235, -64387.875, -15987.112, 0.0, 5.0150533, 4.9317093 
1.22813515e+2, 3.0000216e+2, -19205.404, -113757.805, -3553.0808, -0.0029825931, 0.0020037806, -19072.074, -19054.992, 0.0, 5.014183, 4.9512024 
1.2281103e+2, 3.0497295e+2, -12043.857, -95769.33, -5427.968, -0.011291794, 0.06116713, -11693.427, -11693.427, 0.0, 5.0141826, 4.955841 
1.22811176e+2, 3.099578e+2, -10809.682, -92728.36, -6188.5034, -0.003092847, 0.19942296, -10344.8125, -10344.8125, 0.0, 5.0140753, 4.956897 
1.22813016e+2, 3.1494665e+2, -9333.448, -89927.13, -6872.4478, 0.018594397, 0.36984175, -8751.616, -8751.616, 0.0, 5.0138636, 4.9579544 
1.2786895e+2, 1.2150907e+2, -1710451.1, -1749278.8, 1107.5538, 0.009170475, 0.015337057, -1710419.5, 38788.09, 0.0, 5.0147734, 4.989481 
1.2786847e+2, 1.264913e+2, -1667220.4, -1712088.4, -232.90468, -0.004532813, -0.020605125, -1667219.3, 33162.22, 0.0, 5.014795, 4.9856 
1.2786943e+2, 1.3147722e+2, -1618096.6, -1663034.3, -74.40092, -0.0015068224, -0.017980037, -1618096.5, 33422.645, 0.0, 5.01484, 4.985597 
1.278704e+2, 1.3646314e+2, -1571182.8, -1618520.1, 82.91829, 0.0015753213, -0.014085134, -1571182.6, 31474.56, 0.0, 5.0148845, 4.984091 
1.2787108e+2, 1.4144598e+2, -1529213.4, -1584073.4, -116.6891, 0.0031597698, 0.0025319592, -1529213.1, 24611.904, 0.0, 5.014897, 4.979189 
1.278712e+2, 1.4642534e+2, -1480171.3, -1534773.1, -391.16336, 0.0022136974, 0.00056951516, -1480168.5, 24858.584, 0.0, 5.0148387, 4.9792957 
1.2787129e+2, 1.5140462e+2, -1431292.1, -1485801.4, -567.9388, 0.0012576617, -0.002323577, -1431286.1, 24943.752, 0.0, 5.0147786, 4.9792957 
1.2787138e+2, 1.5638389e+2, -1383840.3, -1439807.0, -745.5917, 0.0003197596, -0.004737592, -1383830.4, 23602.477, 0.0, 5.014718, 4.978301 
1.2787135e+2, 1.6135928e+2, -1343744.3, -1409366.6, -1412.5826, 0.0007699901, -0.00073015684, -1343713.9, 14960.316, 0.0, 5.014688, 4.972089 
1.2787096e+2, 1.6633157e+2, -1294515.9, -1360207.4, -1596.5837, 0.003931424, -0.001179985, -1294477.1, 15470.472, 0.0, 5.0147276, 4.9720783 
1.2787054e+2, 1.7130388e+2, -1245263.0, -1311012.3, -1604.3329, 0.0072264113, -0.0014934975, -1245223.9, 15996.958, 0.0, 5.014769, 4.9720798 
1.2787014e+2, 1.7627619e+2, -1197147.5, -1264223.9, -1613.1407, 0.010591863, -0.0013646297, -1197108.8, 15385.205, 0.0, 5.01481, 4.971274 
1.278696e+2, 1.8124495e+2, -1155873.5, -1231903.0, -1443.5521, 0.011855259, 0.0047656866, -1155846.1, 7954.6377, 0.0, 5.0148344, 4.965587 
1.2786864e+2, 1.8621042e+2, -1106152.8, -1181513.1, -1263.3599, 0.007455719, -0.002579612, -1106131.5, 9005.258, 0.0, 5.0148215, 4.965995 
1.2786767e+2, 1.9117591e+2, -1056998.9, -1132327.6, -1118.7609, 0.0028122237, -0.0104551185, -1056982.3, 9490.286, 0.0, 5.014807, 4.965999 
1.278667e+2, 1.961414e+2, -1008736.1, -1085059.5, -977.1282, -0.0017610446, -0.017991245, -1008723.56, 9084.629, 0.0, 5.0147924, 4.965353 
1.2786575e+2, 2.011038e+2, -968763.7, -1055285.3, -1408.247, -0.0037266675, -0.013168985, -968740.8, 434.59167, 0.0, 5.014692, 4.9587793 
1.2786493e+2, 2.0606396e+2, -920015.06, -1005463.9, -1728.282, 0.001173935, -0.005496308, -919980.1, 587.80707, 0.0, 5.0143514, 4.9591236 
1.2786411e+2, 2.1102415e+2, -871764.75, -956657.5, -1912.5215, 0.0064424626, 0.0022329104, -871721.7, 238.29402, 0.0, 5.0139966, 4.9591293 
1.278633e+2, 2.1598436e+2, -824172.56, -909302.1, -2097.1526, 0.011715318, 0.010119719, -824120.94, -769.08057, 0.0, 5.013641, 4.9586353 
1.2786222e+2, 2.2094055e+2, -784547.3, -880095.25, -2267.5488, 0.014778935, 0.02112968, -784493.56, -9710.384, 0.0, 5.0134215, 4.951834 
1.2786032e+2, 2.2589172e+2, -734124.6, -829105.0, -2005.7362, 0.01169325, 0.0066177226, -734082.25, -7818.904, 0.0, 5.013571, 4.952321 
1.2785839e+2, 2.308428e+2, -684282.6, -779509.4, -1670.6761, 0.008215193, -0.009589812, -684253.3, -6508.9463, 0.0, 5.013741, 4.952328 
1.2785645e+2, 2.3579387e+2, -635092.06, -731368.25, -1336.677, 0.0047281897, -0.02599784, -635073.5, -5847.9595, 0.0, 5.01391, 4.9518337 
1.2785484e+2, 2.4074262e+2, -594394.3, -701740.75, -397.85678, 0.001538697, -0.020085808, -594392.8, -13665.46, 0.0, 5.014002, 4.9449234 
1.2785451e+2, 2.4569072e+2, -543234.8, -649152.9, -106.19949, 0.0012307783, -0.00081689534, -543234.7, -11005.497, 0.0, 5.014148, 4.9459352 
1.2785432e+2, 2.5063893e+2, -493261.7, -599459.6, -117.82897, 0.0012436149, 0.017793853, -493261.53, -9532.502, 0.0, 5.014325, 4.9459486 
1.2785418e+2, 2.5558734e+2, -443541.72, -550339.06, -118.90691, 0.0011390679, 0.03782486, -443541.6, -8314.215, 0.0, 5.014491, 4.945763 
1.2785333e+2, 2.6052895e+2, -407691.7, -532432.75, 1786.8638, -0.011565274, 0.055038646, -407666.13, -20870.98, 0.0, 5.0146646, 4.9343767 
1.2785296e+2, 2.6546237e+2, -355488.63, -475274.97, 3687.0042, -0.03384674, -0.00575676, -355375.25, -16919.566, 0.0, 5.0141883, 4.9367414 
1.2785353e+2, 2.7039582e+2, -306335.44, -425445.72, 4401.413, -0.050480068, -0.08391083, -306173.0, -16055.51, 0.0, 5.0135574, 4.937035 
1.2785469e+2, 2.7532876e+2, -257078.33, -375904.44, 4844.369, -0.06424294, -0.17441009, -256881.16, -15097.126, 0.0, 5.0128865, 4.9372816 
1.2784941e+2, 2.8026685e+2, -234646.36, -399552.53, -2883.2483, -0.10478915, -0.05462475, -234595.95, -41197.453, 0.0, 5.0151477, 4.9115114 
1.278404e+2, 2.8520486e+2, -161142.05, -294904.25, -1498.3547, -0.103074774, 0.08673714, -161125.27, -16120.1045, 0.0, 5.0165486, 4.9299235 
1.278359e+2, 2.9013515e+2, -114501.31, -245578.27, -1822.25, -0.068164095, 0.069686115, -114475.984, -17789.596, 0.0, 5.0155816, 4.9301023 
1.2783197e+2, 2.9506442e+2, -67751.62, -196336.52, -2460.5383, -0.03205415, 0.037836954, -67704.555, -19327.482, 0.0, 5.014523, 4.9302807 
1.2782757e+2, 3.000025e+2, -18537.275, -110300.26, -2882.2097, -0.014093008, -0.013465179, -18446.836, -18446.836, 0.0, 5.013819, 4.9525394 
1.2782405e+2, 3.049708e+2, -11157.672, -92821.73, -3258.7988, -0.036115546, 0.019992387, -11027.836, -11027.836, 0.0, 5.013965, 4.9571433 
1.2782274e+2, 3.0995148e+2, -9283.354, -88650.56, -3237.9883, -0.04882266, 0.12002936, -9151.471, -9151.471, 0.0, 5.0139565, 4.9584727 
1.2782289e+2, 3.14936e+2, -7167.642, -84719.41, -3140.0674, -0.0546944, 0.24577577, -7040.7085, -7040.7085, 0.0, 5.0138435, 4.959804 
1.3288264e+2, 1.2150747e+2, -1710494.3, -1749366.6, 935.898, -0.0019338955, 0.010890992, -1710471.8, 38750.84, 0.0, 5.0147734, 4.989453 
1.3288365e+2, 1.2648983e+2, -1666911.3, -1711467.9, -202.01505, -0.0008194297, -0.025467362, -1666910.4, 33483.633, 0.0, 5.0147967, 4.9858036 
1.3288452e+2, 1.3147603e+2, -1617784.5, -1662410.8, -39.601463, 0.00087895954, -0.022378165, -1617784.5, 33743.703, 0.0, 5.0148425, 4.985802 
1.328854e+2, 1.3646218e+2, -1570867.5, -1617893.3, 121.62139, 0.0025703756, -0.018060038, -1570867.3, 31795.467, 0.0, 5.014888, 4.984297 
1.3288605e+2, 1.4144522e+2, -1529416.8, -1584496.6, -152.42657, 0.0037922154, -0.00031695195, -1529416.4, 24412.295, 0.0, 5.0148973, 4.9790487 
1.3288628e+2, 1.4642458e+2, -1480499.5, -1535453.8, -437.1729, 0.004488332, 0.000037759473, -1480496.0, 24536.395, 0.0, 5.014839, 4.9790697 
1.3288647e+2, 1.5140387e+2, -1431616.1, -1486478.5, -611.47424, 0.005193784, -0.0005480929, -1431609.3, 24627.791, 0.0, 5.014779, 4.97907 
1.3288668e+2, 1.5638313e+2, -1384160.3, -1440480.8, -786.64233, 0.00589369, -0.0006724624, -1384149.3, 23292.56, 0.0, 5.014719, 4.9780755 
1.328866e+2, 1.6135848e+2, -1343823.9, -1409536.1, -1400.3845, 0.0062061604, 0.0042473264, -1343794.0, 14890.9795, 0.0, 5.0146885, 4.9720325 
1.3288586e+2, 1.6633053e+2, -1294523.8, -1360230.3, -1564.2177, 0.005540386, 0.0016684888, -1294486.5, 15473.726, 0.0, 5.014728, 4.9720707 
1.3288508e+2, 1.7130262e+2, -1245266.4, -1311031.5, -1568.877, 0.0048394725, -0.0009202828, -1245229.0, 16006.283, 0.0, 5.0147705, 4.9720726 
1.3288434e+2, 1.7627469e+2, -1197146.5, -1264239.4, -1574.5995, 0.004157062, -0.0031022886, -1197109.6, 15400.619, 0.0, 5.0148125, 4.9712677 
1.3288362e+2, 1.8124336e+2, -1155690.8, -1231512.1, -1453.1168, 0.0035224876, 0.0017773686, -1155663.0, 8154.2104, 0.0, 5.014834, 4.965719 
1.3288298e+2, 1.862091e+2, -1105891.0, -1180960.4, -1271.6691, 0.0024197153, -0.00483204, -1105869.5, 9279.966, 0.0, 5.014822, 4.9661813 
1.3288233e+2, 1.9117483e+2, -1056730.0, -1131773.9, -1121.6632, 0.0012350478, -0.0120158065, -1056713.3, 9768.223, 0.0, 5.01481, 4.9661856 
1.328817e+2, 1.9614059e+2, -1008459.94, -1084504.8, -974.6198, 0.00006248116, -0.018935725, -1008447.44, 9365.913, 0.0, 5.0147977, 4.9655395 
1.3288091e+2, 2.0110315e+2, -968960.56, -1055721.5, -1621.4368, 0.0008707762, -0.013138318, -968930.25, 248.51193, 0.0, 5.014693, 4.9586315 
1.3287987e+2, 2.060632e+2, -920329.25, -1006151.6, -2002.227, 0.0069473996, -0.0039692954, -920282.56, 291.9292, 0.0, 5.0143523, 4.9588885 
1.3287881e+2, 2.1102333e+2, -872065.9, -957330.44, -2177.7402, 0.013239191, 0.005147567, -872010.3, -40.30025, 0.0, 5.014, 4.958897 
1.3287777e+2, 2.1598345e+2, -824460.8, -909960.44, -2353.6123, 0.019473348, 0.014341389, -824396.06, -1030.6975, 0.0, 5.0136466, 4.9584055 
1.3287641e+2, 2.2093964e+2, -784271.1, -879499.8, -2276.876, 0.022224447, 0.026052857, -784216.75, -9418.767, 0.0, 5.013423, 4.9520373 
1.3287418e+2, 2.2589092e+2, -733554.06, -827854.2, -1869.4801, 0.014203944, 0.008674924, -733517.0, -7242.9736, 0.0, 5.0135717, 4.9527493 
1.3287188e+2, 2.308421e+2, -683708.9, -778256.4, -1519.629, 0.005293236, -0.010840426, -683684.44, -5933.8394, 0.0, 5.013744, 4.952758 
1.3286959e+2, 2.3579329e+2, -634515.06, -730112.8, -1170.8524, -0.003710807, -0.030531399, -634500.7, -5273.4243, 0.0, 5.013914, 4.952265 
1.3286787e+2, 2.407422e+2, -594225.6, -701514.44, -285.37537, -0.009737845, -0.0262669, -594224.9, -13499.024, 0.0, 5.0140233, 4.944994 
1.328682e+2, 2.4569064e+2, -543260.44, -649377.56, 4.4572277, -0.0048105204, -0.0028148887, -543260.44, -11032.321, 0.0, 5.0141735, 4.9458475 
1.3286869e+2, 2.5063926e+2, -493300.3, -599664.75, 12.877881, 0.00080245564, 0.020440737, -493300.3, -9571.801, 0.0, 5.0143437, 4.945868 
1.3286924e+2, 2.5558802e+2, -443593.44, -550524.7, 31.84779, 0.0061361403, 0.045075666, -443593.4, -8366.013, 0.0, 5.0145035, 4.9456897 
1.3286911e+2, 2.6053014e+2, -406145.3, -529110.06, 1862.9664, -0.0007821361, 0.064220026, -406117.1, -19326.164, 0.0, 5.0146956, 4.9355206 
1.3286951e+2, 2.6546407e+2, -352722.2, -470389.7, 4164.5806, -0.019701982, -0.007841225, -352574.97, -14141.031, 0.0, 5.0143847, 4.9384065 
1.3287076e+2, 2.7039757e+2, -303159.25, -420964.25, 5244.713, -0.035927314, -0.1008023, -302926.22, -12845.496, 0.0, 5.013934, 4.938529 
1.328725e+2, 2.7533025e+2, -253493.05, -371826.44, 6054.0493, -0.051634476, -0.2080625, -253184.13, -11448.3125, 0.0, 5.0134435, 4.9386044 
1.3286744e+2, 2.802673e+2, -234968.27, -398610.6, -2689.226, -0.09959225, -0.10928618, -234924.08, -41575.24, 0.0, 5.0149403, 4.9118114 
1.3285747e+2, 2.8520507e+2, -165353.78, -298282.16, -2751.5203, -0.10040966, 0.0379762, -165296.84, -20334.777, 0.0, 5.0157423, 4.928767 
1.3285188e+2, 2.9013544e+2, -118352.484, -249377.39, -2708.532, -0.06642913, 0.035342507, -118296.52, -21647.902, 0.0, 5.014913, 4.9287806 
1.3284679e+2, 2.9506463e+2, -71241.23, -200556.72, -2980.775, -0.03422152, 0.017156355, -71172.555, -22825.947, 0.0, 5.0139923, 4.928794 
1.3284123e+2, 3.0000237e+2, -18722.246, -108364.05, -2232.1384, -0.025566837, -0.030529298, -18666.7, -18666.7, 0.0, 5.0134554, 4.9532447 
1.3283622e+2, 3.04967e+2, -10431.875, -89720.7, -1423.0107, -0.069236465, -0.041016616, -10406.345, -10406.345, 0.0, 5.0137477, 4.958291 
1.3283308e+2, 3.099428e+2, -7918.8037, -84420.82, -622.5567, -0.11081736, 0.0034984625, -7913.738, -7913.738, 0.0, 5.013838, 4.959894 
1.3283114e+2, 3.1492236e+2, -5165.5566, -79361.34, 254.99939, -0.1522132, 0.067274615, -5164.68, -5164.68, 0.0, 5.013824, 4.9614997 
1.3789634e+2, 1.2150588e+2, -1710519.3, -1749352.1, 807.19745, -0.012884884, 0.006521116, -1710502.4, 38735.08, 0.0, 5.0147605, 4.9894633 
1.3789883e+2, 1.264884e+2, -1666594.8, -1710845.1, -158.316, 0.0029840153, -0.030157408, -1666594.3, 33812.19, 0.0, 5.0148025, 4.986005 
1.378996e+2, 1.3147484e+2, -1617460.0, -1661782.1, -17.810848, 0.0033286123, -0.02666549, -1617460.0, 34077.188, 0.0, 5.0148506, 4.986005 
1.379004e+2, 1.3646124e+2, -1570577.4, -1617279.0, 121.54749, 0.0036212807, -0.021975605, -1570577.0, 32091.234, 0.0, 5.0148845, 4.9845004 
1.3790102e+2, 1.4144446e+2, -1529701.8, -1584981.6, -242.23915, 0.0044715344, -0.003050326, -1529700.8, 24131.566, 0.0, 5.014876, 4.9788985 
1.3790135e+2, 1.4642383e+2, -1480895.9, -1536165.4, -517.5987, 0.0067989836, -0.00042135324, -1480891.0, 24146.705, 0.0, 5.0148163, 4.978844 
1.3790166e+2, 1.514031e+2, -1432021.8, -1487192.6, -674.69293, 0.009157471, 0.0012286516, -1432013.5, 24230.748, 0.0, 5.0147524, 4.9788446 
1.3790196e+2, 1.5638238e+2, -1384588.1, -1441203.9, -832.8051, 0.011492168, 0.0033260093, -1384575.9, 22874.92, 0.0, 5.014684, 4.977851 
1.3790186e+2, 1.6135767e+2, -1344025.0, -1409784.5, -1382.0826, 0.011728468, 0.0092530595, -1343996.0, 14699.77, 0.0, 5.0146527, 4.9719667 
1.3790075e+2, 1.663295e+2, -1294584.8, -1360277.6, -1520.3207, 0.0072369915, 0.0045649633, -1294549.6, 15423.181, 0.0, 5.014712, 4.972062 
1.3789964e+2, 1.7130134e+2, -1245304.6, -1311066.5, -1524.2156, 0.002531458, -0.00031409977, -1245269.3, 15980.342, 0.0, 5.0147614, 4.972065 
1.3789853e+2, 1.7627318e+2, -1197201.1, -1264280.8, -1532.956, -0.0021928262, -0.0048110043, -1197166.1, 15360.303, 0.0, 5.0147977, 4.97126 
1.3789763e+2, 1.8124178e+2, -1155607.4, -1231197.4, -1472.2349, -0.0047071343, -0.0010497753, -1155578.8, 8254.721, 0.0, 5.0148063, 4.965838 
1.3789731e+2, 1.8620776e+2, -1105723.1, -1180451.1, -1293.8224, -0.0025263757, -0.006994411, -1105700.8, 9461.284, 0.0, 5.0147915, 4.966367 
1.37897e+2, 1.9117376e+2, -1056613.8, -1131291.0, -1157.6265, -0.00026658276, -0.013597953, -1056595.8, 9894.569, 0.0, 5.014762, 4.966371 
1.378967e+2, 1.9613977e+2, -1008442.2, -1084069.9, -1030.3098, 0.0019642764, -0.019988272, -1008428.2, 9390.369, 0.0, 5.0147157, 4.9657245 
1.3789609e+2, 2.011025e+2, -969517.6, -1056399.0, -1910.0245, 0.005635459, -0.012837494, -969475.6, -293.62616, 0.0, 5.014586, 4.958451 
1.3789481e+2, 2.0606248e+2, -920849.75, -1006932.44, -2306.6628, 0.0128239505, -0.002213626, -920788.0, -207.06853, 0.0, 5.0142827, 4.9586525 
1.3789351e+2, 2.1102251e+2, -872509.4, -958068.25, -2455.678, 0.020050285, 0.0080849305, -872439.0, -459.06863, 0.0, 5.013955, 4.9586625 
1.3789222e+2, 2.1598254e+2, -824879.7, -910679.3, -2621.0105, 0.027187174, 0.018415194, -824799.7, -1420.8479, 0.0, 5.0136085, 4.9581733 
1.378906e+2, 2.2093873e+2, -784223.56, -879152.94, -2307.1775, 0.029822715, 0.03128943, -784167.56, -9354.91, 0.0, 5.0133753, 4.952177 
1.3788803e+2, 2.258901e+2, -733154.8, -826676.3, -1730.7766, 0.0168599, 0.010943317, -733122.75, -6838.162, 0.0, 5.0135136, 4.953176 
1.3788539e+2, 2.308414e+2, -683392.6, -777115.1, -1360.5239, 0.002425531, -0.01228003, -683372.9, -5615.9644, 0.0, 5.013657, 4.953186 
1.3788274e+2, 2.3579268e+2, -634339.6, -729033.56, -997.07806, -0.012156459, -0.035640042, -634329.1, -5099.894, 0.0, 5.0137787, 4.952694 
1.3788094e+2, 2.4074182e+2, -594734.9, -701723.75, -134.18198, -0.020793386, -0.0320033, -594734.7, -14010.796, 0.0, 5.0138407, 4.945001 
1.378819e+2, 2.4569064e+2, -543966.6, -649874.6, 165.20172, -0.010655638, -0.0040501375, -543966.4, -11740.17, 0.0, 5.013967, 4.9457607 
1.378831e+2, 2.5063965e+2, -494064.38, -600166.56, 213.303, 0.00044403854, 0.023494149, -494063.94, -10336.623, 0.0, 5.0141163, 4.945787 
1.3788432e+2, 2.5558877e+2, -444395.2, -551021.5, 253.03076, 0.011168218, 0.052454107, -444394.6, -9167.78, 0.0, 5.014263, 4.945615 
1.378848e+2, 2.605311e+2, -406395.38, -527680.9, 2284.3013, 0.008900652, 0.073249295, -406352.34, -19562.81, 0.0, 5.0143437, 4.936129 
1.3788626e+2, 2.6546514e+2, -353619.03, -466696.53, 6120.1035, -0.0047594057, -0.01653404, -353288.75, -14870.587, 0.0, 5.013276, 4.9401007 
1.3788863e+2, 2.7039862e+2, -307794.22, -419322.2, 9239.809, -0.017046995, -0.13168246, -307033.9, -16983.107, 0.0, 5.011517, 4.9401064 
1.3789144e+2, 2.75331e+2, -263288.25, -372833.66, 12714.338, -0.030583346, -0.26277643, -261831.94, -20137.465, 0.0, 5.0092044, 4.940068 
1.3788559e+2, 2.8026855e+2, -256050.14, -412830.06, 4209.3296, -0.0881915, -0.16102071, -255937.2, -62645.41, 0.0, 5.008525, 4.909531 
1.3787374e+2, 2.852069e+2, -180471.5, -306765.53, 2694.2344, -0.0964306, 0.010383687, -180414.06, -35510.785, 0.0, 5.011138, 4.9274116 
1.3786727e+2, 2.9013705e+2, -127316.11, -255612.94, 1234.1334, -0.0635726, 0.016558042, -127304.24, -30705.945, 0.0, 5.01252, 4.9272885 
1.3786125e+2, 2.9506582e+2, -76094.164, -205453.9, -230.99161, -0.034668595, 0.006363563, -76093.75, -27787.2, 0.0, 5.013088, 4.927167 
1.3785455e+2, 3.000021e+2, -19601.217, -107827.055, 224.718, -0.036548786, -0.04847913, -19600.645, -19600.645, 0.0, 5.0131936, 4.9533505 
1.3784769e+2, 3.0496174e+2, -13073.448, -87529.47, 1869.9879, -0.108442135, -0.12093563, -13026.513, -13026.513, 0.0, 5.0123963, 4.959409 
1.3784242e+2, 3.0993226e+2, -16957.072, -84063.81, 3606.3132, -0.18390237, -0.14760002, -16763.826, -16763.826, 0.0, 5.0100274, 4.961303 
1.3783818e+2, 3.149065e+2, -23943.703, -82277.516, 5401.899, -0.26430836, -0.15981472, -23447.688, -23447.688, 0.0, 5.0063334, 4.9631977 
1.4291126e+2, 1.2150464e+2, -1708498.6, -1748782.9, 1046.5199, -0.015358599, 0.0018718189, -1708471.5, 40777.867, 0.0, 5.0155168, 4.9892817 
1.4291379e+2, 1.2648797e+2, -1664906.4, -1710117.5, -11.035586, 0.0014565133, -0.026015986, -1664906.4, 35504.023, 0.0, 5.015383, 4.9859614 
1.4291462e+2, 1.3147424e+2, -1616250.8, -1661281.4, -191.8592, 0.0026769831, -0.023756318, -1616249.9, 35293.04, 0.0, 5.0152736, 4.9859633 
1.4291546e+2, 1.364605e+2, -1569801.0, -1616981.4, -374.37247, 0.00403114, -0.020188333, -1569798.0, 32877.58, 0.0, 5.0151644, 4.9844613 
1.4291613e+2, 1.4144358e+2, -1529239.3, -1584950.0, -906.3483, 0.005810641, -0.0020506259, -1529224.5, 24616.664, 0.0, 5.0150733, 4.978812 
1.429164e+2, 1.464228e+2, -1480459.5, -1536162.1, -1027.9222, 0.008254169, 0.0000074849186, -1480440.6, 24607.549, 0.0, 5.0150084, 4.978751 
1.4291665e+2, 1.5140194e+2, -1431589.3, -1487188.0, -1027.857, 0.01073598, 0.001106633, -1431570.3, 24685.902, 0.0, 5.0149436, 4.9787526 
1.4291692e+2, 1.5638107e+2, -1384146.5, -1441191.4, -1028.9417, 0.013250764, 0.002692421, -1384128.0, 23336.201, 0.0, 5.0148787, 4.97776 
1.4291675e+2, 1.6135624e+2, -1343386.0, -1409451.3, -1345.3834, 0.013260647, 0.008156377, -1343358.6, 15351.483, 0.0, 5.0148664, 4.9719744 
1.4291564e+2, 1.6632809e+2, -1293819.9, -1359839.5, -1408.7412, 0.00764853, 0.0033874304, -1293789.9, 16196.631, 0.0, 5.01496, 4.9720893 
1.4291449e+2, 1.7129998e+2, -1244408.3, -1310568.6, -1368.9948, 0.0019404654, -0.0014209809, -1244379.9, 16882.691, 0.0, 5.0150566, 4.9720907 
1.4291334e+2, 1.7627187e+2, -1196134.6, -1263705.5, -1331.1096, -0.003635009, -0.0057323873, -1196108.4, 16430.244, 0.0, 5.0151525, 4.9712853 
1.4291245e+2, 1.8124051e+2, -1154626.9, -1230753.0, -1434.7126, -0.006352941, -0.0015855252, -1154599.9, 9245.211, 0.0, 5.0151467, 4.965826 
1.4291209e+2, 1.8620658e+2, -1105612.6, -1180468.0, -1607.3899, -0.0027885009, -0.006420844, -1105578.1, 9595.276, 0.0, 5.014846, 4.966334 
1.4291178e+2, 1.9117269e+2, -1057348.0, -1131705.0, -1788.1646, 0.0011166625, -0.011592015, -1057305.1, 9196.185, 0.0, 5.014528, 4.966338 
1.4291145e+2, 1.9613881e+2, -1009968.5, -1084854.0, -1972.5398, 0.005164169, -0.016286233, -1009916.56, 7912.2334, 0.0, 5.014209, 4.9656916 
1.4291073e+2, 2.0110157e+2, -971197.1, -1057141.8, -2903.1008, 0.009589301, -0.008627604, -971099.2, -1906.7668, 0.0, 5.013996, 4.958468 
1.4290911e+2, 2.0606135e+2, -921731.7, -1007315.6, -3007.7349, 0.014729802, -0.00035624974, -921626.1, -1032.7461, 0.0, 5.0139713, 4.9586625 
1.4290746e+2, 2.110212e+2, -872530.3, -958062.44, -2852.55, 0.0200972, 0.007878125, -872435.25, -440.96942, 0.0, 5.013948, 4.958666 
1.4290582e+2, 2.1598105e+2, -823994.2, -910266.06, -2698.8594, 0.025699243, 0.016521305, -823909.9, -514.9064, 0.0, 5.013924, 4.9581695 
1.4290401e+2, 2.2093722e+2, -782524.5, -877919.5, -2054.8801, 0.027608505, 0.028968522, -782480.25, -7651.8613, 0.0, 5.0138807, 4.952368 
1.4290148e+2, 2.2588898e+2, -732235.8, -825527.44, -1645.0668, 0.01532635, 0.009171156, -732206.8, -5911.448, 0.0, 5.013692, 4.953489 
1.428989e+2, 2.3084065e+2, -683478.25, -776426.5, -1530.1741, 0.0019311601, -0.013531573, -683453.06, -5690.596, 0.0, 5.013486, 4.9535003 
1.4289632e+2, 2.3579232e+2, -635364.9, -728772.1, -1422.0515, -0.011301469, -0.036250446, -635343.2, -6113.744, 0.0, 5.013279, 4.9530096 
1.4289461e+2, 2.4074176e+2, -597422.94, -702772.2, -851.92596, -0.01810629, -0.031984422, -597416.06, -16695.074, 0.0, 5.012885, 4.945051 
1.4289545e+2, 2.4569072e+2, -549004.56, -652291.75, -710.623, -0.0062650805, -0.0023165706, -548999.6, -16773.68, 0.0, 5.012244, 4.9456687 
1.4289655e+2, 2.506399e+2, -501274.16, -603608.75, -762.5928, 0.007048063, 0.027930215, -501268.47, -17538.992, 0.0, 5.0116215, 4.9456816 
1.4289775e+2, 2.555893e+2, -453782.34, -555483.2, -813.1677, 0.020670686, 0.060401298, -453775.84, -18545.137, 0.0, 5.0109897, 4.945496 
1.4289835e+2, 2.605323e+2, -416118.06, -528775.2, 870.08813, 0.024163142, 0.085041, -416111.34, -29322.79, 0.0, 5.010312, 4.937488 
1.4290057e+2, 2.6546812e+2, -362424.63, -462605.2, 2678.4238, 0.027308825, -0.013980363, -362353.06, -23962.475, 0.0, 5.008868, 4.9432917 
1.4290401e+2, 2.7040416e+2, -315730.9, -413029.3, 2927.1243, 0.038583245, -0.13943504, -315642.9, -25655.566, 0.0, 5.0072885, 4.943858 
1.4290813e+2, 2.7533996e+2, -268915.75, -363732.25, 2915.822, 0.054644182, -0.27866593, -268826.2, -27239.426, 0.0, 5.0056763, 4.944377 
1.4290345e+2, 2.802803e+2, -256507.81, -410382.56, -4201.0615, 0.021262161, -0.1900621, -256393.2, -63244.0, 0.0, 5.007888, 4.910949 
1.4289078e+2, 2.852171e+2, -183195.27, -316271.3, -644.79803, -0.018454196, -0.012387503, -183192.14, -38408.707, 0.0, 5.0112944, 4.9248443 
1.4288335e+2, 2.9014567e+2, -131114.9, -264428.94, -459.37967, -0.017998196, 0.009817156, -131113.33, -34610.105, 0.0, 5.012243, 4.9250183 
1.428766e+2, 2.9507303e+2, -78958.81, -212715.22, -541.5988, -0.013636181, 0.014699142, -78956.62, -30722.197, 0.0, 5.013105, 4.9251924 
1.4286953e+2, 3.0000907e+2, -16653.385, -103669.29, 186.21785, -0.029750697, -0.027360678, -16652.986, -16652.986, 0.0, 5.014003, 4.9549584 
1.4286318e+2, 3.0496764e+2, -2926.7473, -75317.984, -248.03374, -0.09543091, -0.11843573, -2925.8975, -2925.8975, 0.0, 5.0153623, 4.96312 
1.4285909e+2, 3.099381e+2, 3636.5566, -65953.414, -275.46655, -0.1492706, -0.15699016, 3637.647, 3637.647, 0.0, 5.0167546, 4.965644 
1.4285661e+2, 3.149145e+2, 10643.5, -57040.168, -293.10907, -0.19341613, -0.16345243, 10644.77, 10644.77, 0.0, 5.0180616, 4.9681716 
1.4792703e+2, 1.21503614e+2, -1708972.1, -1749740.8, 723.06616, -0.012875771, -0.003425572, -1708959.3, 40299.75, 0.0, 5.0155153, 4.9889693 
1.4792858e+2, 1.264883e+2, -1665237.3, -1710800.5, -96.829895, -0.004590329, -0.015392879, -1665237.1, 35171.145, 0.0, 5.0153832, 4.9857383 
1.479296e+2, 1.3147411e+2, -1616576.6, -1661960.6, -273.7834, -0.00044542478, -0.015483078, -1616575.0, 34971.258, 0.0, 5.015275, 4.9857407 
1.479306e+2, 1.364599e+2, -1570122.1, -1617657.3, -452.39386, 0.0037860519, -0.014288259, -1570117.9, 32566.605, 0.0, 5.0151663, 4.984239 
1.4793135e+2, 1.4144258e+2, -1529299.5, -1585076.8, -961.5497, 0.0072120004, 0.0014517884, -1529282.9, 24571.281, 0.0, 5.0150733, 4.9787703 
1.4793144e+2, 1.4642155e+2, -1480450.8, -1536146.0, -1076.8094, 0.008593367, 0.0010251743, -1480429.9, 24632.555, 0.0, 5.015009, 4.978757 
1.4793152e+2, 1.5140045e+2, -1431578.5, -1487171.1, -1075.0325, 0.009901892, -0.00037986995, -1431557.8, 24713.924, 0.0, 5.0149446, 4.9787583 
1.4793159e+2, 1.5637933e+2, -1384133.9, -1441173.9, -1074.3933, 0.011231467, -0.0013129798, -1384113.8, 23367.201, 0.0, 5.0148797, 4.977765 
1.4793138e+2, 1.613544e+2, -1343300.1, -1409267.8, -1300.3079, 0.010829298, 0.0026418068, -1343274.5, 15452.509, 0.0, 5.0148654, 4.972037 
1.479305e+2, 1.6632643e+2, -1293731.3, -1359656.0, -1335.1221, 0.0065324153, -0.0007394187, -1293704.3, 16296.93, 0.0, 5.01496, 4.972152 
1.4792958e+2, 1.7129852e+2, -1244313.9, -1310382.4, -1291.4365, 0.0021551135, -0.004044464, -1244288.6, 16986.26, 0.0, 5.0150576, 4.972154 
1.4792867e+2, 1.762706e+2, -1196034.5, -1263516.5, -1249.6246, -0.0021464725, -0.0069060978, -1196011.4, 16537.174, 0.0, 5.0151553, 4.971349 
1.4792784e+2, 1.8123938e+2, -1154803.4, -1231124.5, -1587.1956, -0.00401608, -0.0014030518, -1154770.4, 9083.52, 0.0, 5.0151453, 4.9657025 
1.4792721e+2, 1.8620546e+2, -1105905.0, -1181098.4, -1845.6487, -0.00010387879, -0.0039389944, -1105859.8, 9324.292, 0.0, 5.0148463, 4.966123 
1.479266e+2, 1.9117159e+2, -1057626.3, -1132327.6, -2019.9855, 0.004111332, -0.006754749, -1057571.8, 8941.934, 0.0, 5.014531, 4.9661274 
1.47926e+2, 1.9613773e+2, -1010232.8, -1085469.0, -2197.888, 0.008393983, -0.009195602, -1010168.7, 7674.449, 0.0, 5.0142155, 4.9654818 
1.4792497e+2, 2.011004e+2, -970978.7, -1056685.8, -2953.5222, 0.011712402, -0.0019182718, -970877.0, -1668.3773, 0.0, 5.0139976, 4.9586244 
1.4792292e+2, 2.0605989e+2, -921439.56, -1006699.0, -3021.4326, 0.012810145, 0.0015877857, -921332.6, -721.94214, 0.0, 5.0139728, 4.9588757 
1.4792082e+2, 2.1101944e+2, -872229.0, -957438.06, -2859.1074, 0.013959646, 0.004988905, -872133.2, -120.61392, 0.0, 5.013952, 4.9588804 
1.4791873e+2, 2.1597901e+2, -823683.8, -909633.94, -2698.2747, 0.015264386, 0.008700816, -823599.2, -184.93008, 0.0, 5.01393, 4.9583864 
1.4791666e+2, 2.2093515e+2, -782244.3, -877293.06, -2154.9907, 0.015083714, 0.018574383, -782195.44, -7348.8193, 0.0, 5.0138783, 4.9525843 
1.479145e+2, 2.2588755e+2, -732004.3, -825017.7, -1782.593, 0.0085156, 0.0036555997, -731970.1, -5663.303, 0.0, 5.0136905, 4.9536667 
1.4791237e+2, 2.3083994e+2, -683227.9, -775913.1, -1653.7627, 0.0013777564, -0.013758309, -683198.4, -5431.427, 0.0, 5.0134907, 4.9536777 
1.4791024e+2, 2.357923e+2, -635095.7, -728255.06, -1531.6815, -0.0056892843, -0.03130971, -635070.5, -5843.4634, 0.0, 5.0132895, 4.9531865 
1.4790866e+2, 2.4074213e+2, -597312.2, -702751.4, -1240.3704, -0.008090363, -0.024377318, -597297.6, -16582.15, 0.0, 5.012913, 4.945052 
1.4790867e+2, 2.4569082e+2, -549041.06, -652687.06, -1220.1195, 0.0023299323, 0.0038187706, -549026.7, -16799.63, 0.0, 5.012284, 4.9455214 
1.479089e+2, 2.506397e+2, -501295.22, -603985.44, -1255.8435, 0.013553956, 0.032494932, -501279.84, -17542.053, 0.0, 5.0116644, 4.945537 
1.4790918e+2, 2.5558883e+2, -453788.06, -555841.4, -1290.1428, 0.024896825, 0.0631227, -453771.78, -18525.268, 0.0, 5.0110364, 4.9453545 
1.4790894e+2, 2.6053214e+2, -414845.16, -526609.0, 115.47498, 0.02726908, 0.090162925, -414845.03, -28042.047, 0.0, 5.0104036, 4.938244 
1.4791077e+2, 2.6546967e+2, -359811.94, -458695.94, 2132.7488, 0.03147501, -0.0014959017, -359765.97, -21384.725, 0.0, 5.0091224, 4.944681 
1.4791381e+2, 2.7040717e+2, -312769.97, -409558.94, 2735.0186, 0.042143382, -0.12221079, -312692.75, -22736.607, 0.0, 5.0077047, 4.945073 
1.479175e+2, 2.7534407e+2, -265606.44, -360700.1, 3078.0356, 0.055598747, -0.2580699, -265506.9, -23970.059, 0.0, 5.006254, 4.945418 
1.4791353e+2, 2.8028423e+2, -253573.7, -401798.94, -3774.4956, 0.026856484, -0.19195075, -253477.66, -60381.188, 0.0, 5.0076585, 4.9139204 
1.4790243e+2, 2.8522104e+2, -186569.39, -317307.2, -653.61224, -0.00632952, -0.022874277, -186566.13, -41825.676, 0.0, 5.0103927, 4.9245973 
1.4789586e+2, 2.9015034e+2, -134291.94, -265910.34, -98.63979, -0.008135374, 0.012744522, -134291.86, -37827.258, 0.0, 5.0114255, 4.92462 
1.4788988e+2, 2.9507834e+2, -81937.43, -214640.58, 188.0767, -0.009118502, 0.031388123, -81937.164, -33736.008, 0.0, 5.0123725, 4.9246426 
1.478837e+2, 3.0001616e+2, -17274.283, -101490.68, 839.294, -0.029723397, 0.009558097, -17265.92, -17265.92, 0.0, 5.01342, 4.9558764 
1.4787923e+2, 3.0497503e+2, -1606.3353, -69889.17, 1449.5679, -0.09368518, -0.083486855, -1575.5764, -1575.5764, 0.0, 5.014979, 4.9653363 
1.4787702e+2, 3.0994424e+2, 5691.4507, -59490.336, 2554.6118, -0.1508505, -0.14185914, 5791.418, 5791.418, 0.0, 5.016513, 4.9680915 
1.4787626e+2, 3.1491917e+2, 13428.819, -49542.574, 3668.647, -0.20358731, -0.17551851, 13641.83, 13641.83, 0.0, 5.0179625, 4.9708514 
1.5294284e+2, 1.2150258e+2, -1709382.8, -1750568.6, 406.55508, -0.010147466, -0.008807131, -1709378.8, 39890.234, 0.0, 5.015514, 4.988699 
1.5294337e+2, 1.2648866e+2, -1665569.3, -1711483.1, -182.35258, -0.0105606755, -0.0046104556, -1665568.5, 34837.434, 0.0, 5.0153837, 4.985515 
1.5294456e+2, 1.3147399e+2, -1616903.6, -1662639.4, -355.43558, -0.0034952175, -0.007109894, -1616900.9, 34648.63, 0.0, 5.015276, 4.9855175 
1.5294577e+2, 1.364593e+2, -1570444.4, -1618332.5, -530.1429, 0.0036096992, -0.008347609, -1570438.5, 32254.758, 0.0, 5.015168, 4.9840164 
1.5294656e+2, 1.4144158e+2, -1529374.5, -1585233.5, -1019.08795, 0.008646743, 0.005022355, -1529356.0, 24511.146, 0.0, 5.015074, 4.9787188 
1.529465e+2, 1.4642031e+2, -1480442.1, -1536129.9, -1125.3612, 0.008955852, 0.002096455, -1480419.5, 24657.242, 0.0, 5.015009, 4.978762 
1.529464e+2, 1.5139896e+2, -1431568.1, -1487154.3, -1121.8726, 0.009086205, -0.0018518119, -1431545.5, 24741.639, 0.0, 5.014945, 4.9787636 
1.529463e+2, 1.563776e+2, -1384121.6, -1441156.3, -1119.5094, 0.009225683, -0.005342848, -1384099.8, 23397.904, 0.0, 5.014881, 4.9777703 
1.5294601e+2, 1.6135255e+2, -1343231.0, -1409117.9, -1259.5076, 0.008452532, -0.002778977, -1343206.9, 15536.915, 0.0, 5.014864, 4.972088 
1.5294535e+2, 1.6632478e+2, -1293643.5, -1359471.8, -1260.8163, 0.0054768696, -0.0047811237, -1293619.4, 16396.291, 0.0, 5.0149593, 4.9722147 
1.5294467e+2, 1.7129706e+2, -1244220.5, -1310195.5, -1213.192, 0.0024178668, -0.0066426657, -1244198.1, 17088.938, 0.0, 5.015059, 4.972217 
1.5294398e+2, 1.7626935e+2, -1195935.4, -1263326.8, -1167.4537, -0.0006222938, -0.008114387, -1195915.1, 16643.252, 0.0, 5.015158, 4.971412 
1.5294324e+2, 1.8123826e+2, -1155003.5, -1231544.1, -1749.0072, -0.0016270122, -0.0010949664, -1154963.5, 8899.207, 0.0, 5.0151443, 4.9655623 
1.5294236e+2, 1.8620437e+2, -1106198.8, -1181727.9, -2082.5027, 0.002634798, -0.0013628595, -1106141.4, 9053.104, 0.0, 5.0148463, 4.965911 
1.5294147e+2, 1.911705e+2, -1057906.0, -1132949.3, -2250.4, 0.0071404725, -0.0019392655, -1057838.6, 8687.4375, 0.0, 5.014535, 4.965916 
1.5294059e+2, 1.9613664e+2, -1010498.56, -1086083.3, -2421.8281, 0.011638687, -0.0022428161, -1010421.06, 7436.367, 0.0, 5.014222, 4.9652705 
1.5293923e+2, 2.0109923e+2, -970804.2, -1056322.6, -3019.3352, 0.01397537, 0.005018842, -970697.7, -1473.0458, 0.0, 5.013999, 4.9587483 
1.5293673e+2, 2.0605846e+2, -921148.8, -1006081.44, -3035.7175, 0.011048413, 0.0038153664, -921040.44, -412.74545, 0.0, 5.0139737, 4.9590874 
1.529342e+2, 2.1101771e+2, -871929.1, -956812.8, -2866.2532, 0.007927126, 0.0022419, -871832.5, 198.1828, 0.0, 5.013955, 4.9590945 
1.5293166e+2, 2.1597698e+2, -823374.8, -909000.8, -2698.2788, 0.004881682, 0.00088123267, -823289.9, 143.53827, 0.0, 5.013936, 4.958602 
1.529293e+2, 2.2093308e+2, -782021.5, -876790.0, -2273.538, 0.002647401, 0.008381815, -781966.94, -7102.179, 0.0, 5.0138755, 4.9527574 
1.5292755e+2, 2.2588615e+2, -731775.4, -824506.25, -1916.3962, 0.0018053313, -0.001762856, -731735.8, -5417.506, 0.0, 5.013689, 4.953842 
1.5292585e+2, 2.3083921e+2, -682980.06, -775398.06, -1773.628, 0.00088027644, -0.014184153, -682946.06, -5174.5596, 0.0, 5.013495, 4.953852 
1.5292415e+2, 2.3579223e+2, -634829.06, -727736.3, -1637.5881, -0.0000657478, -0.026864275, -634800.2, -5575.4336, 0.0, 5.0132995, 4.9533606 
1.5292275e+2, 2.4074256e+2, -597281.8, -702885.56, -1617.3512, 0.001999111, -0.016090475, -597257.0, -16547.848, 0.0, 5.012942, 4.944996 
1.5292196e+2, 2.4569106e+2, -549091.4, -653068.94, -1735.7952, 0.010980582, 0.011060261, -549062.44, -16835.4, 0.0, 5.012324, 4.9453726 
1.5292127e+2, 2.5063962e+2, -501330.1, -604348.7, -1755.2706, 0.020014921, 0.03777645, -501300.2, -17554.943, 0.0, 5.011708, 4.945391 
1.5292065e+2, 2.5558838e+2, -453807.63, -556186.06, -1773.2919, 0.02897751, 0.066171564, -453776.9, -18515.252, 0.0, 5.011083, 4.9452114 
1.5291949e+2, 2.6053154e+2, -414258.2, -525887.2, -480.91437, 0.028512897, 0.09377971, -414256.13, -27434.432, 0.0, 5.0104947, 4.938449 
1.5292113e+2, 2.6547036e+2, -357258.06, -454748.13, 1850.537, 0.034499392, 0.002578281, -357222.97, -18842.447, 0.0, 5.009377, 4.9459677 
1.5292415e+2, 2.7040908e+2, -309867.28, -406047.9, 2806.4026, 0.04649471, -0.12044647, -309785.47, -19849.818, 0.0, 5.008121, 4.9461856 
1.5292773e+2, 2.7534693e+2, -262354.75, -357625.13, 3503.827, 0.05927597, -0.2599812, -262226.06, -20726.371, 0.0, 5.0068326, 4.946357 
1.5292335e+2, 2.8028846e+2, -253967.75, -400861.53, -4435.515, 0.03070104, -0.18918058, -253833.94, -60792.773, 0.0, 5.007432, 4.9142127 
1.529129e+2, 2.8522646e+2, -190080.72, -318212.06, -389.62445, 0.0010685525, -0.008048726, -190079.53, -45396.563, 0.0, 5.009491, 4.9242883 
1.5290736e+2, 2.9015628e+2, -137605.27, -267261.03, 534.6166, -0.0010191757, 0.034728765, -137603.06, -41189.434, 0.0, 5.010608, 4.9241595 
1.5290233e+2, 2.950847e+2, -85051.44, -216435.44, 1190.0353, -0.005367607, 0.060879286, -85040.664, -36883.02, 0.0, 5.0116396, 4.924031 
1.5289696e+2, 3.0002216e+2, -19817.387, -103389.34, 1554.6395, -0.0324086, 0.042576436, -19788.477, -19788.477, 0.0, 5.0128365, 4.9552107 
1.5289399e+2, 3.049788e+2, -422.37274, -64344.15, 2861.473, -0.10289965, -0.08487996, -294.53394, -294.53394, 0.0, 5.0145946, 4.967267 
1.5289347e+2, 3.0994573e+2, 7608.4795, -52915.76, 5095.724, -0.17017458, -0.19193657, 8034.506, 8034.506, 0.0, 5.01627, 4.970253 
1.528942e+2, 3.1491807e+2, 16073.928, -41937.996, 7337.14, -0.23828365, -0.28165656, 16987.516, 16987.516, 0.0, 5.017862, 4.9732447 
1.5795866e+2, 1.2150151e+2, -1709922.3, -1751352.1, 14.280212, -0.007132198, -0.014204758, -1709922.3, 39356.863, 0.0, 5.0154486, 4.988473 
1.5795818e+2, 1.2648898e+2, -1665974.3, -1712195.3, -336.59045, -0.016399942, 0.0062432927, -1665971.9, 34431.79, 0.0, 5.0153604, 4.985292 
1.5795955e+2, 1.3147387e+2, -1617231.4, -1663313.1, -493.27682, -0.0064467383, 0.0013013354, -1617226.0, 34326.63, 0.0, 5.0152774, 4.9852943 
1.5796092e+2, 1.3645871e+2, -1570715.3, -1618978.4, -654.5384, 0.0035050034, -0.0023981798, -1570706.4, 31995.662, 0.0, 5.0151873, 4.9837933 
1.5796179e+2, 1.414406e+2, -1529378.3, -1585375.8, -1115.8838, 0.010107014, 0.008653613, -1529356.0, 24523.988, 0.0, 5.015103, 4.9786572 
1.5796155e+2, 1.4641908e+2, -1480324.4, -1536059.1, -1202.9008, 0.0093392115, 0.0032266467, -1480298.4, 24792.479, 0.0, 5.015046, 4.978767 
1.5796128e+2, 1.5139748e+2, -1431434.6, -1487076.8, -1193.7343, 0.008296766, -0.003287782, -1431409.0, 24893.506, 0.0, 5.0149875, 4.9787683 
1.5796098e+2, 1.5637587e+2, -1383982.3, -1441076.5, -1188.8315, 0.0072559165, -0.0093563, -1383957.5, 23556.752, 0.0, 5.014926, 4.977775 
1.5796067e+2, 1.613507e+2, -1343064.9, -1408945.4, -1247.3102, 0.0061585633, -0.008059758, -1343041.4, 15719.29, 0.0, 5.0149016, 4.972127 
1.5796022e+2, 1.6632314e+2, -1293511.8, -1359264.6, -1211.5371, 0.004500472, -0.008710481, -1293489.4, 16540.75, 0.0, 5.0149746, 4.972276 
1.5795976e+2, 1.7129561e+2, -1244190.4, -1310037.8, -1166.2041, 0.0027532126, -0.009195239, -1244169.8, 17129.506, 0.0, 5.01504, 4.9722786 
1.5795933e+2, 1.762681e+2, -1196043.8, -1263235.5, -1127.5337, 0.000984038, -0.00933084, -1196024.8, 16543.47, 0.0, 5.0150914, 4.971474 
1.5795863e+2, 1.8123716e+2, -1155518.1, -1232148.6, -1962.7814, 0.0008750352, -0.00063863647, -1155467.9, 8403.571, 0.0, 5.0150437, 4.965406 
1.5795748e+2, 1.8620327e+2, -1106698.6, -1182450.5, -2340.3337, 0.005462791, 0.0012982971, -1106626.4, 8578.529, 0.0, 5.014776, 4.965699 
1.5795632e+2, 1.9116941e+2, -1058343.6, -1133640.5, -2485.0776, 0.010234932, 0.002836243, -1058261.8, 8276.623, 0.0, 5.0144844, 4.9657044 
1.5795515e+2, 1.9613557e+2, -1010919.1, -1086764.1, -2636.6555, 0.01494806, 0.004569131, -1010827.56, 7044.1035, 0.0, 5.0141764, 4.9650598 
1.5795349e+2, 2.0109808e+2, -970831.9, -1056124.6, -3081.4546, 0.016451992, 0.01219898, -970720.75, -1480.2732, 0.0, 5.0139465, 4.9588404 
1.5795057e+2, 2.0605704e+2, -920976.94, -1005520.06, -3037.8074, 0.009519085, 0.0063464493, -920867.9, -223.40544, 0.0, 5.013935, 4.9592967 
1.5794757e+2, 2.11016e+2, -871750.75, -956246.94, -2881.5674, 0.0020950197, -0.0003111205, -871652.56, 395.93182, 0.0, 5.013919, 4.959305 
1.5794459e+2, 2.1597497e+2, -823237.4, -908452.1, -2739.416, -0.0053107752, -0.006826507, -823149.44, 302.9723, 0.0, 5.0138855, 4.958813 
1.5794195e+2, 2.2093102e+2, -782068.7, -876506.75, -2474.9636, -0.009538363, -0.0014761164, -782003.8, -7121.0586, 0.0, 5.013799, 4.9528875 
1.579406e+2, 2.2588475e+2, -731783.25, -824094.06, -2104.9453, -0.0047047804, -0.0070496327, -731735.3, -5405.577, 0.0, 5.0136046, 4.954017 
1.5793934e+2, 2.3083848e+2, -683058.94, -775019.25, -1943.7402, 0.00050773245, -0.014835375, -683017.9, -5241.748, 0.0, 5.0133853, 4.9540277 
1.5793808e+2, 2.3579217e+2, -635043.2, -727419.5, -1791.0189, 0.0056450907, -0.022958407, -635008.44, -5785.741, 0.0, 5.0131416, 4.9535365 
1.5793686e+2, 2.4074309e+2, -597974.7, -703436.4, -2000.1992, 0.012276791, -0.0071935053, -597936.8, -17234.592, 0.0, 5.012745, 4.944891 
1.5793532e+2, 2.4569139e+2, -549834.4, -653727.6, -2204.464, 0.019912023, 0.019364204, -549787.6, -17561.785, 0.0, 5.012129, 4.945225 
1.5793374e+2, 2.5063965e+2, -502132.4, -605037.6, -2189.9712, 0.0268718, 0.04394297, -502085.8, -18334.273, 0.0, 5.011493, 4.9452415 
1.5793225e+2, 2.5558808e+2, -454728.44, -556931.1, -2227.0955, 0.03366905, 0.07010201, -454679.94, -19404.404, 0.0, 5.0108285, 4.9450603 
1.5793003e+2, 2.6053065e+2, -415863.25, -527133.5, -760.0269, 0.029241752, 0.09673386, -415858.06, -29014.453, 0.0, 5.0100374, 4.9381704 
1.579318e+2, 2.6547036e+2, -360026.16, -452684.9, 2908.4749, 0.039328814, -0.0013394827, -359934.97, -21548.145, 0.0, 5.0077195, 4.9473124 
1.5793522e+2, 2.7041024e+2, -317994.13, -406717.3, 5783.4224, 0.056938656, -0.13381699, -317618.72, -27696.045, 0.0, 5.004577, 4.94742 
1.5793912e+2, 2.7534902e+2, -277493.22, -361716.88, 9027.704, 0.07401812, -0.28375268, -276536.44, -35066.836, 0.0, 5.000807, 4.947483 
1.579333e+2, 2.8029373e+2, -281533.6, -418117.34, 1119.6671, 0.043617994, -0.1808543, -281524.4, -88549.14, 0.0, 4.9987535, 4.911866 
1.5792248e+2, 2.85234e+2, -209170.38, -326549.7, 5748.4604, 0.011325493, 0.033115722, -208889.52, -64284.844, 0.0, 5.003131, 4.92371 
1.5791808e+2, 2.901639e+2, -149156.52, -272602.03, 4931.707, 0.007871936, 0.076695144, -148959.8, -52613.785, 0.0, 5.0069356, 4.923479 
1.5791413e+2, 2.9509234e+2, -91592.88, -219909.23, 4370.889, 0.00010812051, 0.10340355, -91444.17, -43342.43, 0.0, 5.00977, 4.9232492 
1.5790945e+2, 3.0002707e+2, -25861.03, -110049.83, 3352.9326, -0.03603012, 0.07097837, -25727.705, -25727.705, 0.0, 5.0117006, 4.952983 
1.579077e+2, 3.0497906e+2, -6769.783, -61877.035, 4190.6357, -0.11892408, -0.121820055, -6452.9277, -6452.9277, 0.0, 5.011551, 4.9689217 
1.5790878e+2, 3.099429e+2, -9146.421, -54334.57, 5492.823, -0.19826777, -0.30187157, -8488.328, -8488.328, 0.0, 5.00932, 4.9720736 
1.5791102e+2, 3.14912e+2, -15775.436, -49213.535, 5600.509, -0.28148723, -0.4690793, -14862.347, -14862.347, 0.0, 5.0052853, 4.9752283 
1.6297445e+2, 1.2150086e+2, -1710142.5, -1751516.3, -270.7087, -0.0035421327, -0.010113884, -1710140.8, 39145.42, 0.0, 5.015391, 4.988443 
1.6297352e+2, 1.264878e+2, -1665671.1, -1712433.0, -882.13, -0.017384546, 0.006546786, -1665654.5, 34761.996, 0.0, 5.015549, 4.985117 
1.6297492e+2, 1.314726e+2, -1616480.1, -1663338.5, -1007.78644, -0.0072329906, 0.002593031, -1616458.5, 35108.445, 0.0, 5.0156164, 4.9851174 
1.6297632e+2, 1.3645737e+2, -1569499.0, -1618783.6, -1134.5054, 0.002960261, -0.00007889887, -1569472.9, 33244.66, 0.0, 5.015683, 4.983614 
1.6297719e+2, 1.414392e+2, -1527479.3, -1584423.9, -1537.0325, 0.009623153, 0.011285317, -1527437.9, 26458.56, 0.0, 5.015735, 4.978664 
1.6297689e+2, 1.464176e+2, -1478094.4, -1534836.5, -1557.7036, 0.0084442375, 0.0046732975, -1478051.6, 27055.375, 0.0, 5.0157676, 4.9788227 
1.6297656e+2, 1.5139592e+2, -1428944.9, -1485736.0, -1488.4169, 0.0070090005, -0.003037672, -1428905.9, 27412.393, 0.0, 5.0158, 4.9788227 
1.6297622e+2, 1.5637425e+2, -1381224.3, -1439613.9, -1420.0052, 0.005614043, -0.010268652, -1381189.8, 26340.006, 0.0, 5.015832, 4.9778275 
1.6297586e+2, 1.6134904e+2, -1340501.8, -1407674.6, -1526.05, 0.004629957, -0.009645124, -1340467.1, 18308.643, 0.0, 5.015763, 4.9721375 
1.6297542e+2, 1.6632155e+2, -1292093.4, -1358585.0, -1603.1416, 0.0042328374, -0.009739264, -1292054.8, 17990.018, 0.0, 5.0154586, 4.9722714 
1.6297497e+2, 1.712941e+2, -1243896.3, -1309904.1, -1654.0583, 0.003938161, -0.009493831, -1243854.9, 17458.33, 0.0, 5.015144, 4.9722724 
1.6297454e+2, 1.7626666e+2, -1196829.5, -1263622.8, -1706.6038, 0.0037637574, -0.008782444, -1196786.0, 15795.542, 0.0, 5.014829, 4.971466 
1.6297376e+2, 1.8123573e+2, -1156955.4, -1233000.0, -2565.8564, 0.0044282633, 0.00043636552, -1156868.9, 7015.931, 0.0, 5.014586, 4.9653335 
1.629723e+2, 1.8620175e+2, -1107701.1, -1183145.0, -2836.1191, 0.007664476, 0.0022199184, -1107594.6, 7625.3857, 0.0, 5.0144777, 4.9656024 
1.6297083e+2, 1.911678e+2, -1058805.0, -1134070.1, -2861.4119, 0.011209438, 0.0038171648, -1058696.4, 7858.73, 0.0, 5.014372, 4.9656086 
1.6296938e+2, 1.9613387e+2, -1010798.7, -1086911.4, -2889.3855, 0.014913325, 0.0058360873, -1010689.1, 7200.821, 0.0, 5.0142655, 4.9649644 
1.6296749e+2, 2.0109637e+2, -969936.94, -1055453.5, -3117.0464, 0.015554524, 0.013348693, -969823.44, -564.1081, 0.0, 5.0142083, 4.9589424 
1.6296443e+2, 2.0605534e+2, -919887.25, -1004642.06, -3084.7422, 0.007389263, 0.0062021944, -919775.1, 886.9312, 0.0, 5.0142407, 4.959451 
1.6296135e+2, 2.1101435e+2, -870529.5, -955325.1, -2984.9858, -0.0011379955, -0.0015476213, -870424.56, 1639.9319, 0.0, 5.014275, 4.9594536 
1.6295828e+2, 2.1597336e+2, -821837.5, -907465.8, -2886.4124, -0.0094531905, -0.008909018, -821740.3, 1726.3331, 0.0, 5.014308, 4.9589567 
1.6295554e+2, 2.2092949e+2, -780763.0, -875799.2, -2894.907, -0.013819182, -0.003927029, -780674.9, -5779.134, 0.0, 5.0142293, 4.952934 
1.6295406e+2, 2.2588344e+2, -731739.0, -824117.6, -2979.3845, -0.0061116414, -0.0070663444, -731643.0, -5301.2817, 0.0, 5.013629, 4.9539957 
1.6295272e+2, 2.3083745e+2, -684240.3, -775569.25, -3208.0269, 0.0026198141, -0.011669769, -684127.8, -6341.008, 0.0, 5.0129776, 4.954017 
1.6295141e+2, 2.3579147e+2, -637375.9, -728461.44, -3448.2122, 0.011615015, -0.016250126, -637245.5, -8013.8916, 0.0, 5.012324, 4.953536 
1.6294993e+2, 2.4074253e+2, -600888.8, -704248.0, -3888.339, 0.020379437, 0.000511508, -600742.75, -20032.207, 0.0, 5.011646, 4.9450746 
1.6294754e+2, 2.4569055e+2, -552503.8, -654569.8, -3964.904, 0.02549528, 0.022650842, -552350.0, -20113.023, 0.0, 5.0111427, 4.9453444 
1.6294515e+2, 2.506386e+2, -504336.66, -605792.94, -3682.7136, 0.030675355, 0.04439274, -504203.16, -20438.553, 0.0, 5.0106792, 4.9453225 
1.629429e+2, 2.5558695e+2, -456408.13, -557578.2, -3381.458, 0.036660317, 0.06937218, -456295.25, -21005.895, 0.0, 5.0102077, 4.9451017 
1.6294007e+2, 2.605298e+2, -415532.47, -524646.8, -1598.7147, 0.034446463, 0.09562237, -415509.06, -28653.889, 0.0, 5.009696, 4.9391904 
1.6294175e+2, 2.6547164e+2, -358025.06, -446599.22, -1295.8313, 0.063775234, 0.0037309148, -358006.1, -19626.328, 0.0, 5.0076356, 4.9493694 
1.6294537e+2, 2.7041483e+2, -313459.0, -397611.34, -2889.275, 0.109121375, -0.11805002, -313359.9, -23473.912, 0.0, 5.0052557, 4.950058 
1.6294968e+2, 2.7535778e+2, -268741.2, -348909.3, -4769.165, 0.16036691, -0.25439903, -268458.47, -27064.344, 0.0, 5.002842, 4.950699 
1.6294421e+2, 2.8030628e+2, -264667.6, -409745.5, -13064.683, 0.16253656, -0.14114064, -263500.47, -70635.59, 0.0, 5.0042553, 4.9127154 
1.6293368e+2, 2.852444e+2, -198052.42, -328441.94, -1545.5631, 0.10104342, 0.06689343, -198034.1, -53518.96, 0.0, 5.007377, 4.9221005 
1.6292979e+2, 2.9017138e+2, -146120.77, -276356.0, -8.9748535, 0.06439437, 0.099356614, -146120.77, -49835.676, 0.0, 5.0081887, 4.9223127 
1.6292661e+2, 2.950967e+2, -94084.63, -224422.94, 1265.3049, 0.032924995, 0.10864764, -94072.35, -46001.742, 0.0, 5.008916, 4.922526 
1.6292302e+2, 3.0002868e+2, -29859.71, -110983.95, 2195.65, -0.013347294, 0.05466216, -29800.328, -29800.328, 0.0, 5.0097613, 4.9537992 
1.6292375e+2, 3.04983e+2, -6801.779, -59148.414, 2076.268, -0.06892783, -0.12558056, -6719.555, -6719.555, 0.0, 5.0109305, 4.9705358 
1.6292834e+2, 3.0995175e+2, -1298.5747, -49543.965, 1971.3373, -0.095886864, -0.2588708, -1218.1586, -1218.1586, 0.0, 5.0120053, 4.9731817 
1.629349e+2, 3.149274e+2, 4568.1885, -40309.4, 1629.4487, -0.105304874, -0.3508758, 4627.274, 4627.274, 0.0, 5.01299, 4.9758315 
1.6799018e+2, 1.2150052e+2, -1709980.9, -1751197.6, 442.519, -0.00032923536, 0.0005317198, -1709976.1, 39314.46, 0.0, 5.0153923, 4.9885473 
1.6798928e+2, 1.2648557e+2, -1665897.8, -1712914.5, -833.78107, -0.015429382, -0.00041456067, -1665882.9, 34556.78, 0.0, 5.0155516, 4.984958 
1.679906e+2, 1.3147055e+2, -1616704.8, -1663816.9, -956.41846, -0.00675532, -0.0009688774, -1616685.4, 34903.258, 0.0, 5.015619, 4.984959 
1.679919e+2, 1.364555e+2, -1569721.9, -1619259.3, -1080.1194, 0.0019148915, -0.00024506057, -1569698.3, 33039.496, 0.0, 5.0156856, 4.983456 
1.6799273e+2, 1.4143746e+2, -1527402.5, -1584271.1, -1512.3224, 0.0075932336, 0.013205164, -1527362.3, 26553.055, 0.0, 5.0157356, 4.978715 
1.6799246e+2, 1.4641592e+2, -1477954.6, -1534552.1, -1532.5016, 0.0064558983, 0.0062912554, -1477913.1, 27211.459, 0.0, 5.015768, 4.978918 
1.6799217e+2, 1.5139431e+2, -1428804.3, -1485450.6, -1461.5836, 0.0050664567, -0.001776284, -1428766.5, 27568.021, 0.0, 5.0158005, 4.978918 
1.6799188e+2, 1.5637268e+2, -1381082.6, -1439327.3, -1391.5425, 0.0037026615, -0.009375396, -1381049.4, 26495.27, 0.0, 5.015833, 4.977924 
1.6799149e+2, 1.6134752e+2, -1340522.9, -1407723.0, -1706.1854, 0.0031172812, -0.009043393, -1340479.6, 18310.406, 0.0, 5.0157633, 4.972122 
1.6799088e+2, 1.6631998e+2, -1292172.0, -1358760.6, -1842.947, 0.004168466, -0.008857834, -1292121.0, 17938.578, 0.0, 5.0154595, 4.9722133 
1.6799027e+2, 1.712925e+2, -1243969.0, -1310075.1, -1890.4802, 0.0053318134, -0.0083110025, -1243915.0, 17413.65, 0.0, 5.0151463, 4.9722147 
1.6798966e+2, 1.7626503e+2, -1196896.5, -1263789.3, -1939.6011, 0.0065588853, -0.007340279, -1196840.3, 15757.35, 0.0, 5.0148325, 4.9714093 
1.6798867e+2, 1.8123403e+2, -1156974.3, -1233045.8, -2672.8796, 0.0076006604, 0.0014799185, -1156880.5, 7021.38, 0.0, 5.0145864, 4.9653187 
1.679869e+2, 1.8619989e+2, -1107723.4, -1183205.4, -2911.478, 0.008627499, 0.0018164929, -1107611.3, 7627.544, 0.0, 5.0144787, 4.9655833 
1.6798508e+2, 1.9116576e+2, -1058820.4, -1134129.0, -2932.1035, 0.009792848, 0.0019174581, -1058706.4, 7869.1826, 0.0, 5.014375, 4.965589 
1.6798328e+2, 1.9613163e+2, -1010807.2, -1086968.9, -2955.3977, 0.01106766, 0.002381682, -1010692.6, 7219.5103, 0.0, 5.014271, 4.964945 
1.6798119e+2, 2.0109409e+2, -969791.94, -1055146.8, -3115.556, 0.010302418, 0.008994576, -969678.4, -396.41473, 0.0, 5.0142083, 4.9590487 
1.6797829e+2, 2.0605333e+2, -919697.44, -1004237.56, -3057.5771, 0.0032605343, 0.0033981984, -919587.0, 1094.2069, 0.0, 5.014241, 4.9595914 
1.6797535e+2, 2.1101262e+2, -870328.6, -954909.6, -2949.7986, -0.004096925, -0.0027018795, -870225.9, 1854.1477, 0.0, 5.014278, 4.9595966 
1.6797245e+2, 2.1597192e+2, -821625.6, -907039.3, -2843.2058, -0.01132489, -0.008528772, -821531.06, 1947.5428, 0.0, 5.0143137, 4.9591017 
1.6796969e+2, 2.2092824e+2, -780844.9, -875967.6, -3186.9277, -0.014743946, -0.0027473434, -780738.25, -5832.2827, 0.0, 5.014226, 4.9528794 
1.6796781e+2, 2.258822e+2, -732044.7, -824826.25, -3440.8909, -0.005211971, -0.0032793765, -731917.3, -5563.1963, 0.0, 5.0136323, 4.953757 
1.6796604e+2, 2.3083623e+2, -684505.0, -776261.9, -3646.916, 0.0053928928, -0.0049364376, -684360.3, -6558.9, 0.0, 5.0129914, 4.9537783 
1.6796428e+2, 2.3579027e+2, -637599.8, -729138.44, -3864.4224, 0.016088653, -0.0068272804, -637436.94, -8188.227, 0.0, 5.0123487, 4.9532976 
1.6796222e+2, 2.4074115e+2, -600464.1, -703617.44, -4243.164, 0.024332758, 0.00862843, -600289.9, -19559.111, 0.0, 5.0116825, 4.945291 
1.679587e+2, 2.4568863e+2, -551961.9, -653712.6, -4323.0034, 0.023911035, 0.02310327, -551778.56, -19519.094, 0.0, 5.0111814, 4.9456472 
1.6795518e+2, 2.5063616e+2, -503791.72, -604883.5, -4017.277, 0.023222117, 0.037153695, -503632.3, -19843.383, 0.0, 5.010716, 4.945642 
1.6795175e+2, 2.5558394e+2, -455860.4, -556616.75, -3692.4666, 0.023140864, 0.054032587, -455725.28, -20409.537, 0.0, 5.010242, 4.945438 
1.6794787e+2, 2.605269e+2, -414627.44, -523023.44, -2428.185, 0.01646559, 0.07477203, -414573.06, -27693.281, 0.0, 5.009736, 4.9397917 
1.6794844e+2, 2.6547042e+2, -358189.9, -448734.6, -2286.3, 0.045318585, 0.0068277717, -358132.22, -19735.55, 0.0, 5.007836, 4.9487023 
1.679508e+2, 2.7041507e+2, -313188.5, -400169.72, -3478.7327, 0.08852017, -0.08712968, -313049.6, -23151.232, 0.0, 5.00564, 4.949209 
1.6795377e+2, 2.7535915e+2, -268034.56, -351891.2, -4957.5483, 0.13560277, -0.19717659, -267742.5, -26337.25, 0.0, 5.00341, 4.9496684 
1.6794837e+2, 2.8030685e+2, -262298.0, -404128.53, -13345.302, 0.14537449, -0.089305155, -261053.22, -68162.67, 0.0, 5.0042286, 4.914617 
1.6794008e+2, 2.852433e+2, -197615.56, -323782.66, -1800.3802, 0.099033535, 0.08155781, -197589.88, -53039.535, 0.0, 5.006819, 4.9238153 
1.6793798e+2, 2.9016948e+2, -145627.69, -272315.16, 159.30643, 0.0674717, 0.09120957, -145627.48, -49308.156, 0.0, 5.0076923, 4.9238534 
1.6793649e+2, 2.9509395e+2, -93533.34, -220997.44, 1856.5664, 0.0384148, 0.07902217, -93506.31, -45401.93, 0.0, 5.0084815, 4.923892 
1.6793485e+2, 3.0002683e+2, -27563.451, -104735.4, 3052.89, -0.0031407562, 0.015988626, -27442.87, -27442.87, 0.0, 5.0094576, 4.9561834 
1.6793829e+2, 3.0498785e+2, -5012.574, -56307.28, 3896.5818, -0.045638286, -0.11670967, -4718.2607, -4718.2607, 0.0, 5.01094, 4.9715657 
1.679454e+2, 3.0996284e+2, 1483.5756, -46333.637, 4796.213, -0.065510534, -0.20122407, 1959.9054, 1959.9054, 0.0, 5.0123186, 4.9742 
1.6795427e+2, 3.1494412e+2, 8341.176, -36731.797, 5457.4775, -0.0734501, -0.25195938, 8992.559, 8992.559, 0.0, 5.0136065, 4.976837 
1.7300594e+2, 1.2150015e+2, -1709751.3, -1750739.1, 1160.8423, 0.0031658122, 0.010943903, -1709718.4, 39576.973, 0.0, 5.0153937, 4.988697 
1.7300504e+2, 1.2648335e+2, -1666125.3, -1713395.3, -785.90436, -0.013454291, -0.007290968, -1666112.1, 34350.684, 0.0, 5.0155544, 4.984799 
1.7300627e+2, 1.3146852e+2, -1616930.4, -1664294.6, -905.5225, -0.006264042, -0.004484993, -1616913.1, 34697.215, 0.0, 5.0156217, 4.9848003 
1.7300749e+2, 1.3645364e+2, -1569945.6, -1619734.3, -1026.2053, 0.00087681034, -0.00040457383, -1569924.5, 32833.5, 0.0, 5.015688, 4.9832983 
1.7300825e+2, 1.4143573e+2, -1527339.9, -1584147.1, -1490.5122, 0.0055970848, 0.015183201, -1527300.8, 26633.389, 0.0, 5.0157366, 4.9787564 
1.7300804e+2, 1.4641427e+2, -1477815.3, -1534267.8, -1507.4951, 0.00449676, 0.00795696, -1477775.0, 27367.182, 0.0, 5.0157685, 4.979013 
1.7300779e+2, 1.513927e+2, -1428664.0, -1485165.0, -1434.946, 0.0031370728, -0.0005026796, -1428627.5, 27723.307, 0.0, 5.0158014, 4.9790134 
1.7300753e+2, 1.5637113e+2, -1380941.4, -1439040.4, -1363.2758, 0.0017883986, -0.008505453, -1380909.4, 26650.209, 0.0, 5.0158343, 4.978019 
1.7300712e+2, 1.6134597e+2, -1340555.4, -1407793.8, -1889.6656, 0.0016612441, -0.008382643, -1340502.3, 18301.91, 0.0, 5.0157633, 4.9720984 
1.7300634e+2, 1.6631842e+2, -1292251.5, -1358935.6, -2082.6855, 0.0041647726, -0.007920896, -1292186.6, 17887.78, 0.0, 5.0154605, 4.972154 
1.7300555e+2, 1.712909e+2, -1244042.6, -1310245.5, -2126.8347, 0.0067643295, -0.007114611, -1243974.4, 17369.592, 0.0, 5.015148, 4.9721565 
1.7300478e+2, 1.762634e+2, -1196964.3, -1263955.1, -2172.5308, 0.009371065, -0.005926492, -1196893.9, 15719.727, 0.0, 5.014836, 4.9713516 
1.730036e+2, 1.8123235e+2, -1157007.5, -1233120.6, -2786.6394, 0.010818912, 0.0026271995, -1156905.6, 7013.1313, 0.0, 5.014587, 4.965294 
1.7300148e+2, 1.8619803e+2, -1107746.6, -1183265.0, -2985.2874, 0.009664179, 0.0014983407, -1107628.9, 7628.5415, 0.0, 5.01448, 4.9655633 
1.7299934e+2, 1.9116372e+2, -1058836.8, -1134187.1, -3001.2458, 0.008453509, 0.00001572783, -1058717.4, 7878.493, 0.0, 5.014378, 4.965569 
1.729972e+2, 1.9612943e+2, -1010816.7, -1087025.5, -3019.86, 0.007302843, -0.0011620345, -1010697.25, 7237.0767, 0.0, 5.0142756, 4.9649243 
1.7299491e+2, 2.0109181e+2, -969691.9, -1054934.5, -3126.5298, 0.005205115, 0.0048923874, -969577.4, -272.9734, 0.0, 5.014208, 4.9591227 
1.7299215e+2, 2.0605135e+2, -919509.2, -1003832.2, -3031.7634, -0.0007260746, 0.0008668336, -919400.3, 1299.8784, 0.0, 5.014241, 4.9597306 
1.7298938e+2, 2.110109e+2, -870129.25, -954493.2, -2915.963, -0.006973099, -0.003746546, -870028.56, 2066.8313, 0.0, 5.014281, 4.959738 
1.729866e+2, 2.159705e+2, -821415.2, -906611.8, -2801.3513, -0.013173201, -0.008201967, -821323.2, 2167.2944, 0.0, 5.0143194, 4.9592457 
1.7298386e+2, 2.20927e+2, -780995.25, -876281.56, -3501.177, -0.01555517, -0.0012493617, -780866.75, -5950.7505, 0.0, 5.014223, 4.9527736 
1.7298156e+2, 2.2588098e+2, -732354.75, -825532.06, -3896.4177, -0.004194882, 0.0006522819, -732192.06, -5825.792, 0.0, 5.013635, 4.9535136 
1.7297937e+2, 2.3083502e+2, -684774.0, -776951.7, -4079.8164, 0.0081876, 0.0014622177, -684593.75, -6777.7275, 0.0, 5.0130053, 4.953535 
1.729772e+2, 2.3578905e+2, -637827.94, -729812.56, -4274.6343, 0.020488143, 0.0017815876, -637629.75, -8363.764, 0.0, 5.0123734, 4.9530544 
1.7297457e+2, 2.4073987e+2, -600215.9, -703354.4, -4612.2856, 0.02863937, 0.017851857, -600010.0, -19260.033, 0.0, 5.011719, 4.945377 
1.7296997e+2, 2.4568687e+2, -551432.9, -652843.4, -4700.4644, 0.022758119, 0.025326628, -551215.5, -18935.072, 0.0, 5.0112205, 4.945947 
1.7296526e+2, 2.5063384e+2, -503259.63, -603962.06, -4371.21, 0.015949685, 0.031011282, -503070.22, -19258.186, 0.0, 5.0107527, 4.9459586 
1.7296067e+2, 2.5558105e+2, -455325.5, -555643.3, -4022.8542, 0.009551765, 0.03911539, -455164.44, -19823.23, 0.0, 5.010277, 4.9457717 
1.7295559e+2, 2.605236e+2, -414504.5, -523061.88, -3166.6165, -0.0029212406, 0.05311039, -414412.22, -27504.037, 0.0, 5.0097766, 4.9397635 
1.7295526e+2, 2.654684e+2, -358416.7, -450826.75, -2988.91, 0.026366023, 0.0017102758, -358320.13, -19898.408, 0.0, 5.0080366, 4.9479184 
1.7295672e+2, 2.704142e+2, -312979.13, -402683.47, -3779.7944, 0.06921521, -0.0727937, -312820.16, -22898.709, 0.0, 5.006025, 4.9482436 
1.7295875e+2, 2.7535918e+2, -267388.28, -354827.06, -4856.9497, 0.1139262, -0.16490203, -267119.3, -25689.736, 0.0, 5.0039783, 4.948521 
1.7295243e+2, 2.8030786e+2, -263925.5, -407668.63, -14384.574, 0.12600534, -0.031101549, -262500.16, -69587.84, 0.0, 5.0042057, 4.9133143 
1.7294559e+2, 2.85244e+2, -197312.66, -318999.7, -1725.9165, 0.09185397, 0.12588055, -197288.17, -52719.863, 0.0, 5.0062604, 4.92545 
1.7294542e+2, 2.9016906e+2, -145267.36, -268149.78, 656.32874, 0.06803599, 0.10469956, -145263.84, -48924.98, 0.0, 5.0071964, 4.925313 
1.7294581e+2, 2.9509246e+2, -93113.66, -217446.63, 2776.106, 0.044047818, 0.063010395, -93051.7, -44925.703, 0.0, 5.0080476, 4.925177 
1.7294616e+2, 3.0002433e+2, -27296.96, -102801.414, 4087.9998, 0.007002494, -0.024142317, -27076.271, -27076.271, 0.0, 5.0091543, 4.956912 
1.7295244e+2, 3.0498984e+2, -3366.7332, -53332.074, 5754.6245, -0.026418358, -0.13578835, -2712.5251, -2712.5251, 0.0, 5.010949, 4.9723597 
1.7296234e+2, 3.0997008e+2, 4123.0356, -42989.965, 7658.6064, -0.042060334, -0.1968021, 5336.7383, 5336.7383, 0.0, 5.0126314, 4.9749813 
1.7297381e+2, 3.1495607e+2, 11971.41, -33021.227, 9322.661, -0.05139837, -0.2315763, 13826.607, 13826.607, 0.0, 5.014224, 4.977606 
1.7802173e+2, 1.2149973e+2, -1709454.3, -1750139.5, 1753.6104, 0.006964499, 0.02106185, -1709378.9, 39921.797, 0.0, 5.015396, 4.988892 
1.7802083e+2, 1.2648115e+2, -1666334.4, -1713853.4, -818.40674, -0.011398722, -0.013989758, -1666320.4, 34165.51, 0.0, 5.015562, 4.984644 
1.7802195e+2, 1.3146648e+2, -1617127.8, -1664747.4, -888.24524, -0.0057321317, -0.007918447, -1617111.1, 34520.74, 0.0, 5.0156326, 4.984645 
1.7802308e+2, 1.364518e+2, -1570169.9, -1620200.6, -966.5353, -0.00013616364, -0.00057182694, -1570151.3, 32626.955, 0.0, 5.01569, 4.9831424 
1.780238e+2, 1.4143401e+2, -1527345.6, -1584079.0, -1446.0685, 0.003662195, 0.017177213, -1527308.8, 26644.203, 0.0, 5.0157194, 4.978787 
1.7802362e+2, 1.464126e+2, -1477774.5, -1534034.9, -1476.6683, 0.002606312, 0.009647626, -1477735.8, 27423.908, 0.0, 5.0157366, 4.9791055 
1.7802341e+2, 1.5139109e+2, -1428675.1, -1484957.0, -1425.877, 0.0012769763, 0.00078550575, -1428639.0, 27728.05, 0.0, 5.0157523, 4.9791064 
1.7802319e+2, 1.5636955e+2, -1381014.4, -1438861.5, -1378.1438, -0.000051312243, -0.0076271524, -1380981.5, 26593.06, 0.0, 5.015764, 4.9781127 
1.7802276e+2, 1.6134445e+2, -1340816.6, -1407990.4, -2131.5952, 0.00033648452, -0.0076202317, -1340749.1, 18069.307, 0.0, 5.01569, 4.972068 
1.7802182e+2, 1.6631685e+2, -1292435.0, -1359156.5, -2367.9363, 0.0042454815, -0.0069114906, -1292351.0, 17738.063, 0.0, 5.015426, 4.9720955 
1.7802086e+2, 1.7128932e+2, -1244136.0, -1310421.1, -2401.8774, 0.008226011, -0.0059029777, -1244049.0, 17310.385, 0.0, 5.0151443, 4.972099 
1.7801991e+2, 1.7626178e+2, -1197001.9, -1264102.0, -2440.0469, 0.012176551, -0.004543033, -1196913.3, 15716.49, 0.0, 5.01485, 4.9712944 
1.7801853e+2, 1.8123065e+2, -1156991.6, -1233190.8, -2934.4727, 0.014062388, 0.0038764286, -1156878.8, 7056.9336, 0.0, 5.014609, 4.965259 
1.780161e+2, 1.8619618e+2, -1107675.6, -1183276.8, -3075.0947, 0.010769216, 0.0012704198, -1107550.8, 7725.1597, 0.0, 5.014514, 4.965543 
1.7801361e+2, 1.9116169e+2, -1058762.3, -1134200.0, -3083.9812, 0.0072143395, -0.001855338, -1058636.4, 7979.8267, 0.0, 5.0144134, 4.965548 
1.7801113e+2, 1.961272e+2, -1010774.5, -1087056.1, -3102.831, 0.0036823228, -0.004714183, -1010648.5, 7307.869, 0.0, 5.0143, 4.9649024 
1.7800865e+2, 2.0108958e+2, -969628.6, -1054808.8, -3169.455, 0.0003498793, 0.0011437363, -969510.9, -184.27122, 0.0, 5.014211, 4.9591637 
1.7800602e+2, 2.0604938e+2, -919370.4, -1003448.06, -3026.3909, -0.004502101, -0.0013417103, -919261.56, 1457.3579, 0.0, 5.0142255, 4.9598675 
1.780034e+2, 2.1100923e+2, -870103.2, -954159.06, -2919.335, -0.009688971, -0.0046571945, -870001.94, 2108.6743, 0.0, 5.014225, 4.9598765 
1.780008e+2, 2.1596909e+2, -821568.4, -906357.44, -2829.3867, -0.014882005, -0.007902243, -821474.06, 2028.1853, 0.0, 5.0142007, 4.959386 
1.7799802e+2, 2.2092576e+2, -781661.2, -876940.75, -3918.8958, -0.016124018, 0.00057812233, -781500.25, -6574.3115, 0.0, 5.014064, 4.952618 
1.7799532e+2, 2.2587977e+2, -732857.25, -826307.06, -4385.904, -0.0030199108, 0.004671471, -732651.9, -6273.47, 0.0, 5.0135713, 4.9532704 
1.7799272e+2, 2.3083381e+2, -685100.25, -777644.9, -4517.2393, 0.011040323, 0.007487125, -684880.25, -7049.574, 0.0, 5.013001, 4.953292 
1.7799012e+2, 2.3578782e+2, -638123.44, -730490.4, -4672.546, 0.02493811, 0.009646032, -637887.7, -8604.403, 0.0, 5.012378, 4.952812 
1.7798701e+2, 2.407387e+2, -600289.1, -703485.6, -4955.244, 0.033571325, 0.028350914, -600051.75, -19283.836, 0.0, 5.011709, 4.9453406 
1.7798135e+2, 2.456853e+2, -550966.25, -651965.4, -5013.448, 0.022435373, 0.029494237, -550718.0, -18418.543, 0.0, 5.0112495, 4.9462447 
1.7797546e+2, 2.5063166e+2, -502735.1, -603030.06, -4689.5825, 0.009434389, 0.026251864, -502516.3, -18682.77, 0.0, 5.010802, 4.946266 
1.779697e+2, 2.5557828e+2, -454813.75, -554688.4, -4416.7715, -0.0032988847, 0.025128447, -454618.8, -19253.55, 0.0, 5.0103216, 4.9460893 
1.779633e+2, 2.6051998e+2, -415534.38, -524797.25, -3870.5237, -0.022503568, 0.0312379, -415397.44, -28457.758, 0.0, 5.0096736, 4.939161 
1.7796235e+2, 2.6546562e+2, -361779.94, -453837.75, -2851.0764, 0.009232907, -0.011430259, -361691.72, -23237.816, 0.0, 5.0071125, 4.947162 
1.7796332e+2, 2.7041256e+2, -320269.72, -407813.66, -2106.3628, 0.055421177, -0.07459053, -320219.06, -30266.555, 0.0, 5.003721, 4.9473677 
1.779648e+2, 2.7535847e+2, -280056.44, -362690.3, -1152.0302, 0.10221321, -0.15612847, -280040.4, -38578.887, 0.0, 4.9997735, 4.9475245 
1.7795675e+2, 2.803101e+2, -286751.97, -428099.25, -10759.228, 0.11353015, 0.035710216, -285937.7, -93015.62, 0.0, 4.9980845, 4.908814 
1.7795047e+2, 2.8524697e+2, -207355.7, -319428.13, 2644.461, 0.085719705, 0.20126446, -207293.33, -62729.855, 0.0, 5.0020933, 4.926778 
1.7795236e+2, 2.9017043e+2, -149634.9, -266460.3, 3644.2952, 0.069601625, 0.14036681, -149521.33, -53180.484, 0.0, 5.005083, 4.926538 
1.7795476e+2, 2.9509223e+2, -94060.22, -214638.81, 4939.832, 0.051598378, 0.060015, -93858.18, -45723.24, 0.0, 5.007194, 4.926298 
1.7795703e+2, 3.00021e+2, -29513.941, -105340.625, 5505.971, 0.018221885, -0.06731014, -29116.225, -29116.225, 0.0, 5.00869, 4.956019 
1.7796628e+2, 3.0498892e+2, -6982.817, -52529.95, 6504.0415, -0.008468739, -0.18240048, -6072.256, -6072.256, 0.0, 5.009142, 4.9728837 
1.7797938e+2, 3.0997372e+2, -7329.6665, -45758.855, 6690.1016, -0.018816607, -0.2404204, -6198.301, -6198.301, 0.0, 5.0079403, 4.975407 
1.7799395e+2, 3.1496364e+2, -11144.233, -40931.402, 5262.0225, -0.026358726, -0.27728695, -10242.004, -10242.004, 0.0, 5.0052447, 4.9779377 
1.8303725e+2, 1.2149781e+2, -1706967.5, -1749277.0, 1169.6637, 0.0033391567, 0.022752129, -1706935.3, 42386.3, 0.0, 5.0163016, 4.9887266 
1.8303718e+2, 1.2647943e+2, -1664326.4, -1712626.8, -1330.466, -0.006829037, -0.01098628, -1664289.8, 36214.33, 0.0, 5.0161834, 4.9847383 
1.8303807e+2, 1.3146465e+2, -1615591.3, -1663773.3, -1156.8297, -0.003394486, -0.0071942876, -1615563.5, 36087.066, 0.0, 5.0161023, 4.9847336 
1.8303898e+2, 1.3644981e+2, -1569062.3, -1619456.9, -984.07806, 0.0001631501, -0.0020901565, -1569043.0, 33754.4, 0.0, 5.0160203, 4.983225 
1.8303955e+2, 1.4143197e+2, -1526739.1, -1583831.1, -1339.2134, 0.0029263396, 0.014588303, -1526707.6, 27264.768, 0.0, 5.015934, 4.978764 
1.830394e+2, 1.4641063e+2, -1477538.8, -1534049.1, -1527.1691, 0.0024978162, 0.008484653, -1477497.5, 27681.01, 0.0, 5.0158443, 4.979048 
1.830392e+2, 1.5138923e+2, -1428753.9, -1485127.1, -1650.0166, 0.0018676433, 0.001167364, -1428705.6, 27679.732, 0.0, 5.015755, 4.979048 
1.8303901e+2, 1.563678e+2, -1381395.5, -1439180.8, -1773.9958, 0.0012714932, -0.0056670383, -1381341.0, 26251.232, 0.0, 5.0156655, 4.978053 
1.830385e+2, 1.6134271e+2, -1341196.5, -1408250.8, -2703.554, 0.0017696687, -0.0048714387, -1341087.8, 17748.383, 0.0, 5.0155797, 4.9720316 
1.830373e+2, 1.66315e+2, -1292258.0, -1359135.9, -2952.2625, 0.0044241785, -0.005114623, -1292128.0, 17980.02, 0.0, 5.015503, 4.972064 
1.8303606e+2, 1.7128734e+2, -1243358.6, -1310112.8, -2976.4788, 0.0072467336, -0.0050316895, -1243226.3, 18153.26, 0.0, 5.0154257, 4.972066 
1.8303482e+2, 1.762597e+2, -1195594.3, -1263493.4, -3002.8574, 0.010188692, -0.0045080436, -1195461.8, 17189.146, 0.0, 5.0153484, 4.971261 
1.8303321e+2, 1.812285e+2, -1155011.0, -1232146.1, -3403.998, 0.01149509, 0.0033150911, -1154861.0, 9096.304, 0.0, 5.015269, 4.965297 
1.8303071e+2, 1.8619405e+2, -1105664.3, -1182181.9, -3443.5728, 0.008227072, 0.00051493465, -1105509.5, 9787.277, 0.0, 5.0151787, 4.965598 
1.8302815e+2, 1.911596e+2, -1056737.1, -1133110.8, -3363.879, 0.0047915857, -0.0026374245, -1056589.3, 10047.033, 0.0, 5.0150876, 4.9655995 
1.830256e+2, 1.961252e+2, -1008699.9, -1085955.4, -3285.9978, 0.0014659268, -0.005358815, -1008560.4, 9415.144, 0.0, 5.014996, 4.9649506 
1.8302304e+2, 2.0108758e+2, -967758.8, -1053867.0, -3327.5618, -0.0013372492, 0.00064735813, -967630.44, 1714.5642, 0.0, 5.014847, 4.959185 
1.8302041e+2, 2.0604745e+2, -918592.56, -1003059.0, -3380.6455, -0.004404984, -0.0016361452, -918457.5, 2279.4568, 0.0, 5.014491, 4.9598746 
1.8301779e+2, 2.1100736e+2, -870410.5, -954299.9, -3460.2632, -0.0074618715, -0.0045036664, -870268.0, 1860.24, 0.0, 5.0141187, 4.9598765 
1.830152e+2, 2.1596727e+2, -822887.25, -906989.56, -3540.905, -0.010291243, -0.0070822313, -822738.44, 780.9359, 0.0, 5.0137453, 4.9593782 
1.8301229e+2, 2.2092395e+2, -783404.0, -877897.3, -4697.389, -0.0105969515, 0.0018596738, -783171.06, -8227.744, 0.0, 5.013488, 4.952547 
1.8300903e+2, 2.2587787e+2, -733472.56, -826789.5, -5133.3257, -0.0010014874, 0.0057316395, -733191.06, -6792.9897, 0.0, 5.0134053, 4.953169 
1.8300584e+2, 2.3083185e+2, -684349.25, -777483.4, -5212.391, 0.010009952, 0.009003957, -684058.44, -6206.2676, 0.0, 5.0133185, 4.9531913 
1.830027e+2, 2.3578586e+2, -635873.8, -729626.0, -5305.2056, 0.021624474, 0.012351922, -635574.56, -6268.5234, 0.0, 5.0132284, 4.9527116 
1.8299915e+2, 2.407368e+2, -596420.7, -701358.56, -5497.4507, 0.029275702, 0.032370843, -596133.44, -15343.096, 0.0, 5.0130568, 4.945443 
1.8299319e+2, 2.4568328e+2, -546022.1, -649060.94, -5694.9995, 0.018416962, 0.030092198, -545708.3, -13388.812, 0.0, 5.012909, 4.9464846 
1.8298703e+2, 2.506295e+2, -496883.25, -599891.2, -5513.071, 0.006064693, 0.023237444, -496589.03, -12737.889, 0.0, 5.0127883, 4.946453 
1.8298101e+2, 2.5557598e+2, -447989.5, -551289.3, -5312.4634, -0.0055956673, 0.019157043, -447717.0, -12336.554, 0.0, 5.0126567, 4.9462233 
1.8297438e+2, 2.6051757e+2, -407637.13, -521332.25, -5243.8135, -0.021282857, 0.022960154, -407395.78, -20440.545, 0.0, 5.0124664, 4.9391074 
1.8297243e+2, 2.6546392e+2, -352411.44, -449580.22, -7187.0806, 0.0178062, -0.009288572, -351882.72, -13408.447, 0.0, 5.0106025, 4.9469576 
1.8297246e+2, 2.7041268e+2, -307226.4, -400332.06, -10011.159, 0.07636693, -0.053998705, -306162.13, -16193.721, 0.0, 5.008402, 4.947639 
1.8297328e+2, 2.7536142e+2, -261890.31, -351377.78, -13165.914, 0.14141443, -0.111442216, -259993.47, -18530.568, 0.0, 5.0061536, 4.9482737 
1.8296514e+2, 2.8031597e+2, -256861.83, -417409.88, -20743.586, 0.16890728, 0.10918472, -254224.97, -61321.24, 0.0, 5.008691, 4.908079 
1.8295938e+2, 2.852505e+2, -180260.28, -310253.84, -2261.1416, 0.12401045, 0.2569048, -180220.97, -35663.637, 0.0, 5.011093, 4.926796 
1.8296176e+2, 2.901711e+2, -134001.48, -260440.72, 73.64469, 0.09286411, 0.16384912, -134001.44, -37650.973, 0.0, 5.0099487, 4.9270964 
1.829648e+2, 2.9509023e+2, -87597.98, -210745.55, 2085.164, 0.06699394, 0.04954113, -87562.68, -39405.67, 0.0, 5.008687, 4.927398 
1.8296815e+2, 3.0001715e+2, -30812.578, -104875.555, 2452.0427, 0.036246136, -0.10696946, -30731.484, -30731.484, 0.0, 5.0076485, 4.956854 
1.8298012e+2, 3.0498946e+2, -13667.839, -58199.703, -1049.627, 0.043208305, -0.17202373, -13643.113, -13643.113, 0.0, 5.0068607, 4.9720783 
1.8299678e+2, 3.099808e+2, -14258.884, -53545.805, -4254.708, 0.08536326, -0.14300567, -13803.387, -13803.387, 0.0, 5.0058193, 4.973933 
1.8301563e+2, 3.1497803e+2, -14534.466, -49208.918, -7569.424, 0.14609517, -0.072476596, -12954.092, -12954.092, 0.0, 5.00464, 4.9757905 
1.8805256e+2, 1.2149496e+2, -1707616.8, -1750613.8, 792.07983, -0.0067571816, 0.018697798, -1707602.1, 41749.96, 0.0, 5.0163035, 4.988288 
1.8805394e+2, 1.264781e+2, -1663968.4, -1711920.5, -1396.8722, -0.0011909279, -0.0013702817, -1663927.8, 36590.844, 0.0, 5.016186, 4.984971 
1.8805452e+2, 1.3146293e+2, -1615235.3, -1663066.8, -1219.6178, -0.000014628241, -0.003567893, -1615204.1, 36463.09, 0.0, 5.0161047, 4.9849668 
1.8805511e+2, 1.3644774e+2, -1568707.8, -1618749.6, -1043.2006, 0.0012517073, -0.0044628, -1568686.0, 34130.1, 0.0, 5.016023, 4.9834595 
1.8805547e+2, 1.4142969e+2, -1526821.5, -1584007.6, -1409.6519, 0.0027090395, 0.00890181, -1526786.8, 27205.66, 0.0, 5.015935, 4.9787054 
1.880553e+2, 1.4640847e+2, -1477759.9, -1534511.5, -1594.8484, 0.0031941046, 0.0053446824, -1477715.1, 27483.422, 0.0, 5.015845, 4.978894 
1.8805513e+2, 1.5138717e+2, -1428972.3, -1485586.6, -1716.3593, 0.0035431604, 0.00077109796, -1428920.3, 27485.092, 0.0, 5.015756, 4.9788947 
1.8805495e+2, 1.5636587e+2, -1381611.0, -1439637.6, -1838.9813, 0.003912023, -0.0033284088, -1381552.9, 26059.373, 0.0, 5.0156665, 4.9779005 
1.8805434e+2, 1.613408e+2, -1341261.5, -1408390.3, -2763.6357, 0.004221094, -0.0011923037, -1341147.9, 17708.58, 0.0, 5.0155797, 4.9719853 
1.8805277e+2, 1.6631292e+2, -1292288.1, -1359210.8, -3008.9016, 0.0042800023, -0.0029467307, -1292153.1, 17976.754, 0.0, 5.015504, 4.972039 
1.8805121e+2, 1.7128506e+2, -1243384.5, -1310187.0, -3030.5508, 0.0043876036, -0.004485247, -1243247.4, 18155.627, 0.0, 5.015428, 4.972041 
1.8804961e+2, 1.7625722e+2, -1195616.0, -1263567.0, -3054.3525, 0.004566257, -0.005614566, -1195479.0, 17197.068, 0.0, 5.015352, 4.9712358 
1.880478e+2, 1.8122596e+2, -1154894.4, -1231900.0, -3472.23, 0.0043500173, 0.0012078565, -1154738.1, 9244.821, 0.0, 5.0152683, 4.965381 
1.8804535e+2, 1.8619168e+2, -1105505.3, -1181846.5, -3510.509, 0.0026700231, -0.00077174057, -1105344.3, 9975.719, 0.0, 5.0151787, 4.9657135 
1.8804286e+2, 1.9115745e+2, -1056572.4, -1132772.1, -3426.707, 0.00092099665, -0.0030567648, -1056418.6, 10238.225, 0.0, 5.0150895, 4.9657154 
1.8804039e+2, 1.9612321e+2, -1008529.3, -1085613.6, -3344.7083, -0.0007739916, -0.0049710157, -1008384.5, 9609.063, 0.0, 5.0149994, 4.965067 
1.8803784e+2, 2.0108569e+2, -967754.5, -1053866.0, -3533.6572, -0.001991553, 0.0010169485, -967609.75, 1752.1649, 0.0, 5.0148478, 4.9591866 
1.8803515e+2, 2.0604545e+2, -918710.0, -1003323.7, -3662.1763, -0.0023396788, -0.0012604012, -918551.8, 2203.4487, 0.0, 5.0144916, 4.9597864 
1.8803242e+2, 2.110053e+2, -870519.6, -954555.25, -3736.1553, -0.0025665273, -0.003945909, -870353.9, 1794.096, 0.0, 5.0141206, 4.95979 
1.8802972e+2, 2.1596514e+2, -822988.2, -907235.7, -3811.1277, -0.0026558926, -0.0064074947, -822816.2, 724.36365, 0.0, 5.0137486, 4.959294 
1.8802662e+2, 2.2092173e+2, -783445.1, -877995.94, -4772.5117, -0.002509019, 0.0022078354, -783204.8, -8238.817, 0.0, 5.0134873, 4.9525156 
1.8802267e+2, 2.2587547e+2, -733517.4, -826962.7, -5158.6553, 0.00094493467, 0.0051801475, -733233.44, -6810.7227, 0.0, 5.013412, 4.9531126 
1.8801877e+2, 2.3082928e+2, -684365.6, -777663.44, -5220.335, 0.0052066906, 0.007427944, -684074.44, -6195.3037, 0.0, 5.0133348, 4.95313 
1.880149e+2, 2.3578312e+2, -635861.75, -729813.06, -5295.7583, 0.009842115, 0.0095564965, -635564.2, -6228.791, 0.0, 5.013254, 4.952645 
1.8801075e+2, 2.4073386e+2, -596165.56, -701098.5, -5598.1675, 0.012363568, 0.027872814, -595867.75, -15046.619, 0.0, 5.0130916, 4.94553 
1.880049e+2, 2.4568039e+2, -545654.4, -648543.75, -5793.4805, 0.004281357, 0.0246915, -545329.2, -12983.319, 0.0, 5.012943, 4.946662 
1.879989e+2, 2.5062668e+2, -496516.75, -599325.44, -5589.55, -0.004614874, 0.016788373, -496213.75, -12341.042, 0.0, 5.0128183, 4.9466467 
1.8799302e+2, 2.5557318e+2, -447624.4, -550675.2, -5366.9355, -0.012979937, 0.0111019835, -447345.63, -11948.133, 0.0, 5.0126834, 4.9464326 
1.8798651e+2, 2.60515e+2, -408372.4, -523347.56, -5781.182, -0.02461931, 0.016116092, -408082.44, -21113.035, 0.0, 5.012498, 4.9384217 
1.8798295e+2, 2.6546106e+2, -354577.6, -456405.06, -7728.1406, 0.005949101, 0.0017889672, -353994.4, -15488.997, 0.0, 5.010823, 4.9445815 
1.8798089e+2, 2.7040893e+2, -308862.66, -407618.1, -10106.676, 0.0501711, -0.024790082, -307838.94, -17814.873, 0.0, 5.008837, 4.945057 
1.8797955e+2, 2.7535635e+2, -262995.16, -359126.66, -12816.512, 0.09807498, -0.06614999, -261315.77, -19768.738, 0.0, 5.0068045, 4.9454856 
1.8797082e+2, 2.8030872e+2, -255623.48, -414328.56, -19701.87, 0.11173719, 0.14999682, -253214.23, -60194.492, 0.0, 5.0086613, 4.9090605 
1.8796644e+2, 2.8524354e+2, -178782.92, -302630.3, -3844.7786, 0.08242325, 0.27550784, -178663.67, -34006.008, 0.0, 5.0104666, 4.929524 
1.879695e+2, 2.9016533e+2, -132406.45, -253511.67, -1033.5837, 0.06832785, 0.16964127, -132397.63, -35975.195, 0.0, 5.0094075, 4.929624 
1.8797317e+2, 2.950857e+2, -85884.15, -204507.64, 1454.717, 0.056109514, 0.043999504, -85866.31, -37665.242, 0.0, 5.0082316, 4.9297256 
1.8797748e+2, 3.000148e+2, -29742.111, -101604.14, 2772.8687, 0.038780775, -0.114061594, -29635.275, -29635.275, 0.0, 5.007335, 4.958171 
1.8799129e+2, 3.0499116e+2, -15456.714, -63649.082, 468.0069, 0.06728682, -0.12337585, -15452.17, -15452.17, 0.0, 5.0068393, 4.9701996 
1.8800944e+2, 3.0998597e+2, -14904.302, -57943.21, -1714.3512, 0.12397786, -0.034890026, -14836.123, -14836.123, 0.0, 5.0060735, 4.9722385 
1.8802948e+2, 3.1498614e+2, -14033.311, -52557.97, -4004.8557, 0.19094576, 0.08591181, -13621.388, -13621.388, 0.0, 5.005171, 4.97428 
1.9306791e+2, 1.21492065e+2, -1708213.8, -1751842.8, 411.44135, -0.01661586, 0.014486716, -1708209.9, 41173.08, 0.0, 5.0163054, 4.9878845 
1.9307071e+2, 1.2647678e+2, -1663611.4, -1711213.9, -1464.1306, 0.004508945, 0.008417025, -1663566.4, 36966.637, 0.0, 5.016189, 4.9852033 
1.9307098e+2, 1.3146125e+2, -1614880.0, -1662359.9, -1283.2585, 0.0034166197, 0.00016299586, -1614845.4, 36838.38, 0.0, 5.0161076, 4.9851995 
1.9307126e+2, 1.3644567e+2, -1568354.1, -1618042.1, -1103.1765, 0.002381284, -0.006797762, -1568329.6, 34505.05, 0.0, 5.0160255, 4.9836926 
1.930714e+2, 1.4142741e+2, -1526914.4, -1584204.9, -1482.3892, 0.0025210304, 0.0032609703, -1526876.1, 27136.285, 0.0, 5.0159354, 4.97864 
1.9307123e+2, 1.464063e+2, -1477981.4, -1534973.8, -1662.6531, 0.0039105895, 0.002242927, -1477933.0, 27285.54, 0.0, 5.0158453, 4.9787407 
1.9307107e+2, 1.5138511e+2, -1429191.0, -1486046.0, -1782.8271, 0.005228957, 0.00038901166, -1429135.1, 27290.162, 0.0, 5.0157566, 4.978741 
1.9307089e+2, 1.5636393e+2, -1381827.0, -1440094.3, -1904.0918, 0.006552917, -0.0009996337, -1381764.9, 25867.229, 0.0, 5.0156674, 4.9777474 
1.9307017e+2, 1.6133891e+2, -1341333.4, -1408542.9, -2825.4446, 0.0067016045, 0.0025200865, -1341214.8, 17662.115, 0.0, 5.01558, 4.9719343 
1.9306828e+2, 1.6631083e+2, -1292319.1, -1359284.8, -3064.4387, 0.004179716, -0.0007498474, -1292179.3, 17972.568, 0.0, 5.015505, 4.972014 
1.9306636e+2, 1.712828e+2, -1243411.4, -1310260.4, -3083.521, 0.0015733996, -0.0039362404, -1243269.4, 18157.08, 0.0, 5.0154305, 4.972016 
1.9306444e+2, 1.7625476e+2, -1195638.5, -1263639.9, -3104.7456, -0.0010102134, -0.006744949, -1195497.0, 17204.076, 0.0, 5.0153556, 4.97121 
1.9306237e+2, 1.812234e+2, -1154792.3, -1231683.0, -3548.053, -0.0027392458, -0.00081673905, -1154628.9, 9379.568, 0.0, 5.0152683, 4.9654555 
1.9305998e+2, 1.8618932e+2, -1105347.5, -1181510.1, -3577.2375, -0.0028353229, -0.0019867313, -1105179.9, 10163.069, 0.0, 5.0151787, 4.965828 
1.9305758e+2, 1.9115527e+2, -1056408.8, -1132432.8, -3489.3274, -0.0029138727, -0.0034669943, -1056249.0, 10428.334, 0.0, 5.015091, 4.9658303 
1.930552e+2, 1.9612123e+2, -1008359.94, -1085271.0, -3403.211, -0.0029941734, -0.004636672, -1008209.7, 9801.91, 0.0, 5.0150027, 4.9651823 
1.9305268e+2, 2.010838e+2, -967772.75, -1053911.6, -3749.1155, -0.0025436569, 0.0014979623, -967609.9, 1768.8834, 0.0, 5.014848, 4.9591713 
1.9304986e+2, 2.0604348e+2, -918828.9, -1003587.4, -3944.565, -0.00017081358, -0.0007557843, -918645.7, 2127.7554, 0.0, 5.0144925, 4.9596972 
1.9304708e+2, 2.1100323e+2, -870630.25, -954809.5, -4012.9045, 0.0023843378, -0.003338849, -870439.4, 1728.2386, 0.0, 5.0141225, 4.959703 
1.9304428e+2, 2.1596299e+2, -823090.6, -907480.75, -4082.2065, 0.004986939, -0.005763017, -822893.56, 668.0357, 0.0, 5.013752, 4.9592085 
1.9304095e+2, 2.2091949e+2, -783524.06, -878170.44, -4856.277, 0.005613943, 0.0027055442, -783275.5, -8286.922, 0.0, 5.013487, 4.9524565 
1.9303635e+2, 2.2587311e+2, -733567.75, -827131.1, -5173.0728, 0.0030568822, 0.0046803406, -733282.56, -6835.2495, 0.0, 5.013418, 4.9530544 
1.9303174e+2, 2.3082674e+2, -684387.44, -777838.7, -5217.3677, 0.00064843806, 0.0056498554, -684097.06, -6191.047, 0.0, 5.013351, 4.953066 
1.9302715e+2, 2.3578034e+2, -635855.25, -729995.3, -5275.4004, -0.0016157577, 0.0063052624, -635560.5, -6195.656, 0.0, 5.01328, 4.9525757 
1.9302243e+2, 2.40731e+2, -596032.3, -701076.25, -5705.3135, -0.004262912, 0.024305502, -595723.3, -14872.215, 0.0, 5.013127, 4.94553 
1.9301668e+2, 2.456776e+2, -545303.4, -648010.56, -5910.972, -0.009552042, 0.020605827, -544964.3, -12593.172, 0.0, 5.012977, 4.946837 
1.9301085e+2, 2.5062397e+2, -496166.88, -598743.6, -5685.0396, -0.014982516, 0.011089181, -495852.78, -11959.417, 0.0, 5.012849, 4.9468374 
1.9300513e+2, 2.5557047e+2, -447275.94, -550044.94, -5440.4194, -0.02004265, 0.0032316926, -446988.75, -11574.8125, 0.0, 5.01271, 4.94664 
1.9299851e+2, 2.6051214e+2, -409938.25, -527095.9, -6213.843, -0.029664416, 0.009386597, -409609.6, -22622.938, 0.0, 5.0125303, 4.937077 
1.929936e+2, 2.6545748e+2, -356829.28, -463172.03, -7933.937, -0.006856703, 0.0059427014, -356240.63, -17697.09, 0.0, 5.0110426, 4.9420857 
1.9298989e+2, 2.7040416e+2, -310583.1, -414845.94, -9865.935, 0.025181986, -0.011401434, -309657.72, -19568.348, 0.0, 5.0092726, 4.942355 
1.9298679e+2, 2.7535e+2, -264183.0, -366816.84, -12129.735, 0.058097444, -0.045570917, -262768.94, -21125.426, 0.0, 5.0074553, 4.942577 
1.9297644e+2, 2.8030178e+2, -258618.92, -420935.7, -19471.064, 0.052173372, 0.19647184, -256315.9, -63183.12, 0.0, 5.008635, 4.9066567 
1.9297257e+2, 2.8523806e+2, -177490.83, -294839.1, -5042.034, 0.03501179, 0.32222134, -177274.6, -32531.467, 0.0, 5.00984, 4.9321685 
1.9297656e+2, 2.9016086e+2, -130995.85, -246412.86, -1755.4435, 0.04067603, 0.19523399, -130969.16, -34487.047, 0.0, 5.008867, 4.9320683 
1.9298103e+2, 2.9508215e+2, -84354.016, -198097.92, 1208.788, 0.04481743, 0.04995144, -84341.17, -36105.73, 0.0, 5.0077763, 4.93197 
1.9298628e+2, 3.0001205e+2, -30316.168, -101550.195, 3158.671, 0.040666807, -0.121553466, -30176.38, -30176.38, 0.0, 5.0070214, 4.9582114 
1.930017e+2, 3.049909e+2, -17459.242, -68893.484, 1776.7396, 0.082834095, -0.09632321, -17397.94, -17397.94, 0.0, 5.0068173, 4.968115 
1.9302125e+2, 3.0998823e+2, -15763.601, -62131.773, 617.73285, 0.14619151, 0.028642712, -15755.372, -15755.372, 0.0, 5.0063286, 4.970338 
1.9304238e+2, 3.1499052e+2, -13747.409, -55694.21, -648.51843, 0.21151182, 0.176698, -13737.385, -13737.385, 0.0, 5.0057025, 4.972563 
1.9808328e+2, 1.21489145e+2, -1708892.0, -1753018.3, 111.68422, -0.026056673, 0.010045439, -1708891.6, 40522.527, 0.0, 5.016263, 4.9875193 
1.9808748e+2, 1.2647547e+2, -1663316.1, -1710539.4, -1481.3148, 0.01022857, 0.01832319, -1663269.8, 37277.688, 0.0, 5.016174, 4.9854326 
1.9808745e+2, 1.3145955e+2, -1614532.0, -1661658.9, -1334.3097, 0.006869527, 0.003990251, -1614494.3, 37205.945, 0.0, 5.0161095, 4.98543 
1.9808741e+2, 1.3644361e+2, -1567981.9, -1617327.9, -1184.7509, 0.0035431816, -0.009067642, -1567953.5, 34899.8, 0.0, 5.0160356, 4.9839234 
1.980873e+2, 1.4142515e+2, -1526986.0, -1584405.5, -1595.5148, 0.0023677303, -0.0022944394, -1526941.8, 27090.6, 0.0, 5.015947, 4.9785676 
1.9808716e+2, 1.4640413e+2, -1478162.1, -1535413.4, -1759.0726, 0.0046403604, -0.0008003793, -1478108.1, 27130.31, 0.0, 5.0158596, 4.978587 
1.9808699e+2, 1.5138307e+2, -1429368.8, -1486483.1, -1868.8025, 0.00690876, 0.000021205906, -1429307.6, 27137.564, 0.0, 5.0157714, 4.978588 
1.9808683e+2, 1.5636201e+2, -1382009.8, -1440532.6, -1980.858, 0.009172356, 0.0012996253, -1381942.9, 25709.21, 0.0, 5.01568, 4.9775944 
1.9808601e+2, 1.61337e+2, -1341373.0, -1408687.6, -2891.8545, 0.00919121, 0.006230062, -1341249.0, 17648.252, 0.0, 5.0155935, 4.9718795 
1.9808379e+2, 1.6630876e+2, -1292286.0, -1359324.3, -3114.589, 0.004124468, 0.001443856, -1292141.6, 18032.115, 0.0, 5.0155277, 4.9719896 
1.9808152e+2, 1.7128053e+2, -1243379.5, -1310301.5, -3124.8364, -0.0011571255, -0.0034004683, -1243234.0, 18215.973, 0.0, 5.015453, 4.971991 
1.9807926e+2, 1.762523e+2, -1195641.0, -1263698.1, -3137.725, -0.0064484896, -0.007886638, -1195496.6, 17229.557, 0.0, 5.0153666, 4.971185 
1.9807695e+2, 1.8122087e+2, -1154730.5, -1231507.9, -3612.3076, -0.009646491, -0.002729675, -1154560.9, 9472.915, 0.0, 5.0152597, 4.965518 
1.9807462e+2, 1.8618698e+2, -1105257.0, -1181207.5, -3639.9128, -0.008196297, -0.0031147022, -1105083.0, 10282.989, 0.0, 5.0151567, 4.96594 
1.9807233e+2, 1.9115312e+2, -1056380.6, -1132159.5, -3567.0676, -0.006639525, -0.0038501988, -1056213.0, 10484.761, 0.0, 5.0150476, 4.965943 
1.9807e+2, 1.9611926e+2, -1008421.0, -1085039.3, -3498.6267, -0.0051229075, -0.0043185027, -1008261.6, 9767.988, 0.0, 5.0149283, 4.9652953 
1.9806749e+2, 2.0108193e+2, -968078.25, -1054125.4, -4015.478, -0.0029315401, 0.0021405688, -967891.25, 1504.2471, 0.0, 5.0147576, 4.959141 
1.9806461e+2, 2.0604153e+2, -919082.8, -1003910.0, -4249.2363, 0.0021085383, -0.000094398456, -918870.5, 1921.0602, 0.0, 5.0144467, 4.9596086 
1.980617e+2, 2.110012e+2, -870791.25, -955084.75, -4302.0737, 0.007372324, -0.0026540586, -870572.25, 1614.8646, 0.0, 5.014108, 4.959615 
1.9805883e+2, 2.1596088e+2, -823214.1, -907734.25, -4365.5835, 0.012627041, -0.0050946465, -822989.2, 593.42554, 0.0, 5.01375, 4.959122 
1.9805528e+2, 2.209173e+2, -783628.9, -878405.25, -4953.6133, 0.013794524, 0.0034081277, -783370.7, -8359.634, 0.0, 5.013491, 4.952372 
1.9805005e+2, 2.2587073e+2, -733515.2, -827226.1, -5146.552, 0.005411807, 0.004206992, -733233.4, -6761.545, 0.0, 5.013463, 4.9529986 
1.9804475e+2, 2.3082417e+2, -684335.8, -777949.0, -5134.618, -0.0034697386, 0.0036168396, -684055.0, -6122.086, 0.0, 5.013396, 4.9530063 
1.980395e+2, 2.3577759e+2, -635938.56, -730181.75, -5133.427, -0.0123744225, 0.0025751144, -635659.75, -6265.4683, 0.0, 5.0132785, 4.952512 
1.9803421e+2, 2.4072823e+2, -596287.4, -701384.1, -5642.094, -0.020036818, 0.021651775, -595985.4, -15105.252, 0.0, 5.013074, 4.94545 
1.9802856e+2, 2.4567498e+2, -545067.9, -647507.2, -5861.158, -0.022485409, 0.017872069, -544733.6, -12338.662, 0.0, 5.012988, 4.9470034 
1.9802293e+2, 2.5062135e+2, -495687.0, -598097.94, -5678.415, -0.024436466, 0.0064013056, -495373.13, -11460.385, 0.0, 5.0129476, 4.947014 
1.9801737e+2, 2.5556785e+2, -446511.6, -549238.1, -5538.4624, -0.02618925, -0.0038202319, -446213.88, -10784.727, 0.0, 5.0129123, 4.9468265 
1.980105e+2, 2.6050907e+2, -411605.44, -532019.25, -6475.4077, -0.03567222, 0.0034339179, -411258.22, -24252.01, 0.0, 5.0128026, 4.935164 
1.980045e+2, 2.6545334e+2, -359820.97, -469531.5, -6583.129, -0.018628655, 0.0025825964, -359427.38, -20839.965, 0.0, 5.0109906, 4.939692 
1.979997e+2, 2.7039877e+2, -316283.2, -422776.22, -6226.3774, 0.005844893, -0.01476367, -315920.38, -25759.322, 0.0, 5.008288, 4.939837 
1.9799547e+2, 2.7534312e+2, -274285.0, -377034.06, -5595.849, 0.029558133, -0.04990201, -273981.16, -32235.941, 0.0, 5.004934, 4.939933 
1.9798268e+2, 2.802962e+2, -278305.94, -442546.53, -11393.495, 0.0015599681, 0.24883169, -277519.34, -84287.05, 0.0, 5.0042543, 4.900944 
1.9797829e+2, 2.8523493e+2, -183266.25, -290858.6, 1097.9993, -0.010254086, 0.39696273, -183255.05, -38449.363, 0.0, 5.0068874, 4.9344373 
1.9798324e+2, 2.9015818e+2, -132255.28, -240905.47, 2552.3892, 0.014554343, 0.2405945, -132195.34, -35671.176, 0.0, 5.007555, 4.934222 
1.979886e+2, 2.950799e+2, -82858.91, -191837.86, 4220.4478, 0.035449196, 0.067130364, -82695.7, -34438.61, 0.0, 5.007486, 4.934006 
1.979947e+2, 3.000091e+2, -31760.924, -104110.914, 5398.6343, 0.043107994, -0.13005996, -31360.305, -31360.305, 0.0, 5.007042, 4.957081 
1.9801153e+2, 3.049889e+2, -23345.965, -74995.12, 4600.346, 0.09271879, -0.090482414, -22939.416, -22939.416, 0.0, 5.005525, 4.9660134 
1.9803251e+2, 3.0998832e+2, -29335.176, -70972.17, 4057.232, 0.1594687, 0.052044377, -28943.512, -28943.512, 0.0, 5.0021467, 4.9683976 
1.9805492e+2, 3.1499237e+2, -39026.8, -68971.02, 2811.9695, 0.22270693, 0.2115579, -38765.023, -38765.023, 0.0, 4.997177, 4.97078 
2.0310007e+2, 1.21486485e+2, -1707829.6, -1752676.1, 281.27637, -0.022797132, 0.003631933, -1707827.9, 41613.473, 0.0, 5.016658, 4.987438 
2.0310391e+2, 1.2647422e+2, -1662086.3, -1709889.0, -1197.2786, 0.0107415, 0.025973562, -1662056.3, 38503.934, 0.0, 5.016577, 4.9854493 
2.031038e+2, 1.3145792e+2, -1613248.4, -1660982.3, -1304.706, 0.0070416983, 0.007832766, -1613212.6, 38503.402, 0.0, 5.0165305, 4.985448 
2.0310366e+2, 1.3644162e+2, -1566616.4, -1616610.4, -1412.4045, 0.0034138744, -0.009094037, -1566576.5, 36295.766, 0.0, 5.016484, 4.983943 
2.0310347e+2, 1.414229e+2, -1525644.1, -1583909.9, -1993.996, 0.0019429204, -0.004625341, -1525576.0, 28477.496, 0.0, 5.0164323, 4.9784956 
2.0310323e+2, 1.4640188e+2, -1476808.0, -1534977.3, -2110.754, 0.0041005416, -0.0022279005, -1476731.5, 28528.584, 0.0, 5.0163636, 4.9784875 
2.0310298e+2, 1.5138082e+2, -1427964.6, -1486026.9, -2167.1501, 0.0062997905, -0.0004145322, -1427883.9, 28583.383, 0.0, 5.0162935, 4.9784875 
2.0310272e+2, 1.5635978e+2, -1380548.0, -1440052.4, -2224.6687, 0.008517131, 0.0018574316, -1380464.9, 27209.592, 0.0, 5.016223, 4.977493 
2.0310183e+2, 1.6133474e+2, -1339783.4, -1407945.1, -3091.4312, 0.008525989, 0.00714274, -1339643.4, 19276.76, 0.0, 5.0161376, 4.9718657 
2.0309952e+2, 1.6630639e+2, -1290806.5, -1358581.0, -3283.7854, 0.0035042982, 0.0014355164, -1290647.8, 19549.28, 0.0, 5.016026, 4.9719996 
2.0309716e+2, 1.7127809e+2, -1242016.4, -1309612.6, -3267.6494, -0.0016352374, -0.0042876275, -1241858.9, 19614.848, 0.0, 5.0159135, 4.972002 
2.0309484e+2, 1.7624979e+2, -1194360.1, -1263047.3, -3253.7869, -0.006684774, -0.0095709115, -1194206.4, 18543.8, 0.0, 5.0158, 4.971197 
2.0309241e+2, 1.8121834e+2, -1153589.0, -1230958.8, -3788.0288, -0.009791025, -0.0047020707, -1153404.0, 10653.807, 0.0, 5.0156507, 4.965517 
2.0308986e+2, 1.8618456e+2, -1104627.6, -1180910.8, -3962.046, -0.008571276, -0.003998395, -1104422.5, 10966.722, 0.0, 5.0153747, 4.965936 
2.0308733e+2, 1.9115081e+2, -1056271.1, -1132111.1, -4023.5183, -0.007124986, -0.0034411794, -1056058.3, 10661.78, 0.0, 5.0150886, 4.9659386 
2.0308481e+2, 1.961171e+2, -1008800.75, -1085223.4, -4086.9238, -0.0056027826, -0.0024986186, -1008582.8, 9468.061, 0.0, 5.014802, 4.9652905 
2.030821e+2, 2.0107986e+2, -968581.6, -1054260.1, -4638.8574, -0.0033844633, 0.004650399, -968331.2, 1084.8518, 0.0, 5.014565, 4.9591837 
2.0307897e+2, 2.0603941e+2, -919090.94, -1003855.8, -4760.5747, 0.0014231624, 0.0014726106, -918824.44, 1988.0685, 0.0, 5.014435, 4.9596324 
2.0307586e+2, 2.1099901e+2, -870201.94, -954763.75, -4687.971, 0.006650677, -0.0018899083, -869942.9, 2265.6418, 0.0, 5.0143075, 4.959634 
2.0307274e+2, 2.1595863e+2, -821976.44, -907125.06, -4617.263, 0.012104076, -0.004948109, -821726.8, 1877.515, 0.0, 5.014179, 4.959136 
2.0306905e+2, 2.2091497e+2, -781863.5, -877531.7, -4934.382, 0.013374718, 0.0028889345, -781609.7, -6576.4785, 0.0, 5.0141034, 4.9523892 
2.0306377e+2, 2.2586837e+2, -731643.3, -826243.5, -5084.4766, 0.004262987, 0.0029397353, -731370.8, -4876.0166, 0.0, 5.014111, 4.9530363 
2.0305842e+2, 2.308218e+2, -682261.56, -776842.44, -5093.8623, -0.0050167167, 0.0020011223, -681988.06, -4031.7886, 0.0, 5.014118, 4.953053 
2.0305313e+2, 2.3577525e+2, -633528.94, -728891.6, -5112.1724, -0.013905196, 0.0009907881, -633255.7, -3838.08, 0.0, 5.014123, 4.952568 
2.0304784e+2, 2.4072589e+2, -593192.7, -699487.75, -5528.105, -0.021063829, 0.01883125, -592906.0, -12002.744, 0.0, 5.014115, 4.9456196 
2.0304237e+2, 2.456727e+2, -541585.2, -645669.44, -5802.896, -0.021738263, 0.014307976, -541262.7, -8847.785, 0.0, 5.0142155, 4.9470763 
2.0303693e+2, 2.5061926e+2, -491833.3, -596228.8, -5702.6206, -0.021796504, 0.0039419755, -491522.72, -7594.5493, 0.0, 5.0143304, 4.9470415 
2.0303158e+2, 2.55566e+2, -442329.8, -547360.5, -5596.63, -0.021765852, -0.0040242057, -442032.44, -6592.9077, 0.0, 5.0144377, 4.9468083 
2.0302483e+2, 2.6050743e+2, -406556.94, -530392.94, -6384.5547, -0.030417256, 0.006218282, -406228.63, -19215.354, 0.0, 5.014792, 4.9348373 
2.0301838e+2, 2.6545095e+2, -350565.78, -465261.06, -8927.348, -0.015117204, 0.0026025635, -349875.1, -11266.297, 0.0, 5.014612, 4.9394426 
2.0301339e+2, 2.7039647e+2, -300257.7, -413438.3, -11991.984, 0.01444331, -0.013166771, -299001.03, -8812.146, 0.0, 5.0142136, 4.940213 
2.0300941e+2, 2.753422e+2, -249841.27, -361940.7, -15447.262, 0.051101428, -0.040322207, -247751.6, -5984.397, 0.0, 5.013755, 4.940938 
2.0299721e+2, 2.802964e+2, -237670.45, -421382.47, -18033.307, 0.027185703, 0.2535917, -235917.03, -42667.5, 0.0, 5.018204, 4.902485 
2.0299177e+2, 2.8523386e+2, -148687.06, -278692.7, -2715.0918, -0.0018368561, 0.39346597, -148630.38, -3799.5293, 0.0, 5.0194993, 4.9341636 
2.0299545e+2, 2.901564e+2, -108228.3, -231449.61, -994.72394, 0.016563578, 0.23855396, -108220.27, -11670.117, 0.0, 5.016313, 4.9344697 
2.0299979e+2, 2.950777e+2, -67580.04, -184298.38, 259.29315, 0.036812533, 0.06341488, -67579.47, -19297.596, 0.0, 5.0130067, 4.9347763 
2.0300516e+2, 3.0000794e+2, -23836.64, -98388.31, -34.52505, 0.050068855, -0.12774676, -23836.625, -23836.625, 0.0, 5.0100284, 4.9580827 
2.0302208e+2, 3.0498973e+2, -19423.63, -74999.96, -6032.0474, 0.1203931, -0.045761902, -18776.47, -18776.47, 0.0, 5.0081987, 4.9651957 
2.03044e+2, 3.0999228e+2, -21537.826, -68780.164, -10904.861, 0.22618386, 0.1630999, -19142.16, -19142.16, 0.0, 5.0062985, 4.96788 
2.0306826e+2, 3.1500176e+2, -23217.904, -63001.51, -15648.385, 0.34605074, 0.4138576, -17800.504, -17800.504, 0.0, 5.0042534, 4.9705696 
2.0811781e+2, 1.21484056e+2, -1707646.5, -1752322.5, -63.664032, -0.01218491, -0.0034138742, -1707646.4, 41819.055, 0.0, 5.0166607, 4.987554 
2.0812017e+2, 1.2647304e+2, -1662264.9, -1710275.1, -1238.5181, 0.007541566, 0.032498986, -1662233.0, 38338.777, 0.0, 5.0165796, 4.9853225 
2.0812011e+2, 1.3145636e+2, -1613429.0, -1661368.1, -1343.0885, 0.004916218, 0.011782758, -1613391.4, 38340.125, 0.0, 5.0165324, 4.985321 
2.0812005e+2, 1.3643967e+2, -1566799.0, -1616996.0, -1447.863, 0.0023194633, -0.0077035083, -1566757.3, 36134.305, 0.0, 5.0164847, 4.983816 
2.0811982e+2, 1.4142065e+2, -1525758.4, -1584149.5, -2041.5332, 0.0011892235, -0.004918763, -1525687.1, 28388.441, 0.0, 5.0164323, 4.9784164 
2.0811945e+2, 1.4639957e+2, -1476906.5, -1535185.8, -2163.1802, 0.00259446, -0.0026372971, -1476826.3, 28456.617, 0.0, 5.016364, 4.9784184 
2.0811905e+2, 1.5137844e+2, -1428061.8, -1486234.4, -2218.6003, 0.004020218, -0.00091492775, -1427977.3, 28513.543, 0.0, 5.016294, 4.9784184 
2.0811865e+2, 1.563573e+2, -1380643.8, -1440258.8, -2275.1172, 0.005451984, 0.0012614852, -1380557.1, 27141.805, 0.0, 5.016224, 4.9774237 
2.0811766e+2, 1.613322e+2, -1339768.9, -1407916.5, -3175.3801, 0.0055005327, 0.006280012, -1339621.3, 19323.764, 0.0, 5.0161376, 4.9718757 
2.0811543e+2, 1.6630383e+2, -1290763.0, -1358498.3, -3369.7935, 0.002352463, 0.00009627409, -1290595.8, 19625.9, 0.0, 5.016027, 4.972028 
2.0811318e+2, 1.712755e+2, -1241968.9, -1309529.6, -3350.7378, -0.0008911288, -0.006129608, -1241803.1, 19694.865, 0.0, 5.0159154, 4.9720297 
2.081109e+2, 1.7624718e+2, -1194308.6, -1262963.9, -3333.9412, -0.00409639, -0.011953166, -1194147.1, 18627.102, 0.0, 5.0158033, 4.971225 
2.0810841e+2, 1.8121572e+2, -1153646.6, -1231090.0, -3961.5288, -0.0063785403, -0.0072150817, -1153444.5, 10637.443, 0.0, 5.0156517, 4.9654727 
2.0810549e+2, 1.8618202e+2, -1104721.5, -1181122.1, -4179.425, -0.0063296976, -0.0049360925, -1104493.5, 10919.709, 0.0, 5.015376, 4.9658647 
2.0810254e+2, 1.9114837e+2, -1056360.0, -1132320.5, -4237.474, -0.0061330427, -0.0026968082, -1056124.3, 10619.837, 0.0, 5.015091, 4.965867 
2.0809959e+2, 1.9611475e+2, -1008884.56, -1085430.8, -4297.4263, -0.0058976826, -0.00011523018, -1008644.0, 9430.874, 0.0, 5.014806, 4.965219 
2.0809653e+2, 2.010776e+2, -968469.5, -1054017.8, -4763.9253, -0.0049048574, 0.007861649, -968205.06, 1234.7666, 0.0, 5.0145645, 4.959268 
2.0809309e+2, 2.060371e+2, -918953.5, -1003557.4, -4856.6104, -0.0018263913, 0.003387151, -918675.6, 2160.337, 0.0, 5.0144334, 4.959737 
2.0808966e+2, 2.1099666e+2, -870057.94, -954461.56, -4778.8916, 0.0015041011, -0.001444536, -869788.2, 2443.4414, 0.0, 5.014308, 4.959739 
2.0808622e+2, 2.1595621e+2, -821825.94, -906819.2, -4703.0586, 0.00498678, -0.0060336967, -821566.5, 2060.7834, 0.0, 5.0141816, 4.959242 
2.0808236e+2, 2.2091252e+2, -781771.25, -877358.6, -4935.8647, 0.005442202, 0.00043498914, -781517.0, -6460.937, 0.0, 5.0141063, 4.952451 
2.0807739e+2, 2.2586599e+2, -731559.75, -826144.25, -5050.921, -0.000996735, 0.0012445681, -731290.8, -4773.787, 0.0, 5.0141206, 4.953074 
2.0807238e+2, 2.3081952e+2, -682153.3, -776740.7, -5044.36, -0.0075230105, 0.0012114855, -681885.06, -3907.2876, 0.0, 5.014136, 4.9530888 
2.080674e+2, 2.3577303e+2, -633396.0, -728787.44, -5046.7266, -0.013855078, 0.0009122034, -633129.75, -3691.179, 0.0, 5.014148, 4.9526014 
2.0806238e+2, 2.4072352e+2, -592718.9, -698702.0, -5459.082, -0.019103734, 0.01579928, -592438.4, -11513.062, 0.0, 5.0141544, 4.9458747 
2.08057e+2, 2.456703e+2, -541345.2, -645363.56, -5773.73, -0.019193651, 0.009746325, -541025.7, -8589.895, 0.0, 5.014249, 4.94717 
2.0805165e+2, 2.5061694e+2, -491625.1, -595922.0, -5657.6357, -0.01868667, -0.0003281321, -491319.1, -7372.6147, 0.0, 5.014352, 4.947142 
2.0804638e+2, 2.555638e+2, -442153.34, -547052.7, -5535.827, -0.01812448, -0.00806175, -441862.0, -6406.771, 0.0, 5.0144467, 4.946916 
2.0803976e+2, 2.6050568e+2, -407000.6, -531752.9, -5852.8765, -0.0281721, 0.005060541, -406726.6, -19703.049, 0.0, 5.0148196, 4.9344234 
2.0803253e+2, 2.6544785e+2, -352251.53, -471469.13, -7857.713, -0.030787405, 0.012182904, -351735.84, -13102.03, 0.0, 5.0148945, 4.9373755 
2.0802645e+2, 2.7039102e+2, -301180.34, -419993.0, -10458.672, -0.02508227, 0.0037662266, -300266.72, -10027.683, 0.0, 5.0147753, 4.9379444 
2.0802125e+2, 2.7533382e+2, -250002.08, -368844.44, -13451.005, -0.016042264, -0.020065663, -248498.67, -6650.7583, 0.0, 5.014596, 4.9384665 
2.0800865e+2, 2.802828e+2, -232607.2, -407421.72, -17014.617, -0.06809567, 0.21824141, -230966.58, -37583.297, 0.0, 5.017922, 4.907328 
2.0800339e+2, 2.8522068e+2, -150708.6, -274404.88, -5972.647, -0.077871315, 0.3338955, -150420.88, -5458.2334, 0.0, 5.018333, 4.93593 
2.0800668e+2, 2.901463e+2, -109676.33, -227726.92, -3744.7495, -0.032266233, 0.20276423, -109557.66, -12904.316, 0.0, 5.0153656, 4.9360104 
2.0801052e+2, 2.950704e+2, -68453.6, -181140.78, -1982.5527, 0.011216866, 0.049973343, -68418.734, -20059.363, 0.0, 5.012278, 4.9360914 
2.0801531e+2, 3.000049e+2, -25041.313, -98102.77, -1488.2991, 0.04244467, -0.10750138, -25011.008, -25011.008, 0.0, 5.009517, 4.9582915 
2.0803082e+2, 3.0498597e+2, -25029.61, -85983.47, -5956.9185, 0.11313763, 0.009838385, -24452.906, -24452.906, 0.0, 5.0078235, 4.961473 
2.0805085e+2, 3.0998492e+2, -26390.234, -78277.81, -9547.574, 0.20807897, 0.23889118, -24689.2, -24689.2, 0.0, 5.0060177, 4.964525 
2.080729e+2, 3.1499076e+2, -27312.102, -71015.625, -13004.018, 0.30812445, 0.50250906, -23735.455, -23735.455, 0.0, 5.004068, 4.9675827 
2.1313553e+2, 1.2148159e+2, -1707403.5, -1751845.1, -403.9557, -0.001755353, -0.010636232, -1707399.9, 42089.94, 0.0, 5.016663, 4.9877095 
2.1313643e+2, 1.2647186e+2, -1662444.6, -1710660.6, -1280.2667, 0.004322889, 0.03910324, -1662410.6, 38172.652, 0.0, 5.016582, 4.985195 
2.1313643e+2, 1.3145481e+2, -1613610.6, -1661753.3, -1381.9801, 0.0027825304, 0.015777169, -1613571.0, 38175.89, 0.0, 5.0165343, 4.9851937 
2.1313642e+2, 1.3643771e+2, -1566982.6, -1617380.8, -1483.8309, 0.0012273835, -0.0063029747, -1566938.9, 35971.887, 0.0, 5.0164857, 4.9836893 
2.131362e+2, 1.4141843e+2, -1525879.9, -1584403.3, -2088.8386, 0.00044662063, -0.0051866374, -1525805.5, 28292.15, 0.0, 5.016433, 4.9783325 
2.1313566e+2, 1.4639726e+2, -1477005.3, -1535394.0, -2215.5378, 0.0010970861, -0.0030248149, -1476921.4, 28384.406, 0.0, 5.0163646, 4.9783487 
2.1313512e+2, 1.5137604e+2, -1428159.3, -1486441.6, -2269.9817, 0.0017461638, -0.0014100905, -1428071.0, 28443.463, 0.0, 5.016295, 4.9783487 
2.1313459e+2, 1.5635481e+2, -1380739.9, -1440464.9, -2325.4973, 0.002389168, 0.00065412675, -1380649.5, 27073.781, 0.0, 5.016225, 4.9773545 
2.131335e+2, 1.6132967e+2, -1339760.8, -1407899.6, -3260.9624, 0.0024784044, 0.0054516396, -1339605.1, 19364.738, 0.0, 5.0161376, 4.9718814 
2.1313137e+2, 1.6630128e+2, -1290720.4, -1358414.6, -3454.7642, 0.0012142936, -0.0012200092, -1290544.5, 19701.678, 0.0, 5.0160275, 4.9720554 
2.1312916e+2, 1.7127292e+2, -1241922.3, -1309445.8, -3432.7886, -0.000126611, -0.007982047, -1241748.3, 19774.037, 0.0, 5.0159173, 4.972057 
2.1312699e+2, 1.7624457e+2, -1194258.1, -1262879.8, -3413.0583, -0.0014808533, -0.014379289, -1194088.8, 18709.557, 0.0, 5.0158067, 4.9712515 
2.1312442e+2, 1.8121311e+2, -1153719.1, -1231252.1, -4139.907, -0.0029497738, -0.009661686, -1153498.8, 10607.199, 0.0, 5.015653, 4.9654174 
2.1312109e+2, 1.8617949e+2, -1104816.0, -1181333.1, -4395.9717, -0.004069449, -0.00581744, -1104564.3, 10872.977, 0.0, 5.015377, 4.9657927 
2.1311775e+2, 1.9114594e+2, -1056449.5, -1132529.5, -4450.5977, -0.0051212404, -0.0019604915, -1056190.0, 10578.164, 0.0, 5.0150933, 4.965795 
2.131144e+2, 1.961124e+2, -1008969.06, -1085637.8, -4507.096, -0.006171534, 0.002195707, -1008705.0, 9393.9375, 0.0, 5.0148096, 4.965147 
2.1311098e+2, 2.0107533e+2, -968382.7, -1053828.1, -4898.1724, -0.006308134, 0.0112130735, -968102.8, 1360.6313, 0.0, 5.0145636, 4.959334 
2.1310723e+2, 2.0603481e+2, -918817.25, -1003257.94, -4952.2554, -0.0049331626, 0.0054810536, -918527.8, 2331.3887, 0.0, 5.0144324, 4.9598403 
2.1310347e+2, 2.109943e+2, -869915.2, -954158.44, -4869.422, -0.0035218222, -0.00089663843, -869634.7, 2620.0322, 0.0, 5.014309, 4.959843 
2.1309973e+2, 2.1595381e+2, -821676.7, -906512.3, -4788.4634, -0.0020319887, -0.007093582, -821407.25, 2242.8503, 0.0, 5.0141845, 4.959347 
2.1309571e+2, 2.2091006e+2, -781708.56, -877244.7, -4942.564, -0.0024226585, -0.0019648361, -781453.5, -6374.554, 0.0, 5.014109, 4.9524913 
2.1309103e+2, 2.258636e+2, -731480.75, -826041.3, -5012.468, -0.0061628716, -0.00057696615, -731215.8, -4676.4814, 0.0, 5.01413, 4.9531093 
2.1308635e+2, 2.308172e+2, -682049.5, -776635.2, -4989.961, -0.009926788, 0.00003112072, -681786.94, -3787.5632, 0.0, 5.0141535, 4.9531217 
2.130817e+2, 2.3577078e+2, -633267.5, -728679.5, -4976.385, -0.013693555, 0.0001785429, -633008.7, -3548.8936, 0.0, 5.014174, 4.9526324 
2.1307698e+2, 2.4072124e+2, -592380.7, -698192.8, -5367.7397, -0.017075121, 0.013725083, -592109.06, -11162.399, 0.0, 5.014194, 4.946031 
2.130717e+2, 2.4566802e+2, -541118.2, -645045.3, -5744.078, -0.016534947, 0.0067387894, -540801.6, -8346.242, 0.0, 5.0142827, 4.9472604 
2.130664e+2, 2.5061473e+2, -491429.9, -595602.9, -5612.166, -0.01542517, -0.0034989498, -491128.44, -7164.6606, 0.0, 5.0143733, 4.94724 
2.1306117e+2, 2.5556165e+2, -441989.8, -546732.5, -5474.539, -0.014293876, -0.011454775, -441704.44, -6234.3496, 0.0, 5.014456, 4.947021 
2.1305451e+2, 2.605036e+2, -408048.1, -534314.2, -5208.418, -0.027695034, 0.0031679817, -407833.63, -20796.729, 0.0, 5.0148473, 4.933534 
2.1304682e+2, 2.6544404e+2, -354038.88, -477601.38, -6452.6133, -0.047897473, 0.013513199, -353702.8, -15036.967, 0.0, 5.0151763, 4.935194 
2.1304013e+2, 2.7038458e+2, -302202.47, -426471.78, -8589.7295, -0.06454518, 0.004052358, -301611.53, -11312.756, 0.0, 5.0153365, 4.93556 
2.1303421e+2, 2.7532423e+2, -250260.34, -375672.06, -11118.96, -0.081622496, -0.024852179, -249282.17, -7341.382, 0.0, 5.015437, 4.93588 
2.1301985e+2, 2.8026956e+2, -232016.92, -403768.38, -17830.732, -0.16443272, 0.18977705, -230185.31, -36671.598, 0.0, 5.017645, 4.9085727 
2.1301374e+2, 2.8520906e+2, -152919.75, -269940.0, -8807.569, -0.15584591, 0.3046402, -152260.56, -7181.5464, 0.0, 5.0171666, 4.937604 
2.1301703e+2, 2.901375e+2, -111314.01, -223824.75, -6071.67, -0.08081336, 0.18880576, -110987.3, -14243.506, 0.0, 5.0144186, 4.9374585 
2.1302079e+2, 2.9506412e+2, -69516.88, -177801.22, -3800.7527, -0.011873632, 0.049880203, -69383.64, -20956.842, 0.0, 5.01155, 4.9373145 
2.1302497e+2, 3.0000108e+2, -28062.33, -101417.59, -3009.3962, 0.035942454, -0.08945808, -27939.076, -27916.594, 0.0, 5.009007, 4.9570603 
2.130384e+2, 3.0497926e+2, -30866.766, -96769.83, -6347.9014, 0.09619978, 0.03353834, -30260.893, -30260.893, 0.0, 5.00745, 4.957468 
2.1305594e+2, 3.099735e+2, -31476.172, -87571.375, -8657.691, 0.16947906, 0.25303674, -30170.348, -30170.348, 0.0, 5.005738, 4.9608874 
2.1307519e+2, 3.1497452e+2, -31643.13, -78818.93, -10829.774, 0.23890397, 0.49976915, -29275.818, -29275.818, 0.0, 5.0038824, 4.964312 
2.1815322e+2, 1.21479094e+2, -1707229.0, -1751304.6, -743.66315, 0.008461181, -0.018027999, -1707216.5, 42297.992, 0.0, 5.016624, 4.987906 
2.1815272e+2, 1.2647067e+2, -1662630.9, -1711047.6, -1339.1729, 0.001163809, 0.045693837, -1662593.9, 38000.945, 0.0, 5.016584, 4.985067 
2.1815276e+2, 1.3145323e+2, -1613734.1, -1662108.6, -1445.616, 0.0006788999, 0.019764142, -1613691.0, 38071.414, 0.0, 5.0165563, 4.985066 
2.181528e+2, 1.3643576e+2, -1567065.1, -1617715.3, -1552.879, 0.00015591935, -0.0049074367, -1567017.6, 35912.52, 0.0, 5.0165215, 4.9835615 
2.1815255e+2, 1.4141619e+2, -1525892.8, -1584612.6, -2172.2422, -0.0002669608, -0.0054229638, -1525812.5, 28307.15, 0.0, 5.016472, 4.9782443 
2.1815188e+2, 1.4639494e+2, -1476997.0, -1535547.6, -2296.3318, -0.00036941364, -0.0033852372, -1476907.1, 28421.518, 0.0, 5.0164013, 4.97828 
2.181512e+2, 1.5137365e+2, -1428166.8, -1486602.5, -2341.893, -0.0004898784, -0.0018937776, -1428073.0, 28465.04, 0.0, 5.016326, 4.97828 
2.1815051e+2, 1.5635234e+2, -1380771.8, -1440637.1, -2388.7402, -0.00062181544, 0.000044955417, -1380676.5, 27071.05, 0.0, 5.0162477, 4.977286 
2.1814935e+2, 1.6132714e+2, -1339715.6, -1407873.5, -3355.6096, -0.0004898503, 0.004670771, -1339550.9, 19443.725, 0.0, 5.0161524, 4.9718823 
2.1814728e+2, 1.6629872e+2, -1290654.1, -1358318.5, -3550.1233, 0.00010709811, -0.0024879132, -1290468.4, 19802.352, 0.0, 5.016037, 4.972082 
2.1814518e+2, 1.7127034e+2, -1241901.3, -1309372.3, -3529.1138, 0.000663539, -0.009795022, -1241717.1, 19829.33, 0.0, 5.0159116, 4.972084 
2.1814306e+2, 1.7624196e+2, -1194313.0, -1262843.3, -3509.5903, 0.0011775435, -0.016763227, -1194133.8, 18688.59, 0.0, 5.015775, 4.971278 
2.1814042e+2, 1.8121049e+2, -1153969.5, -1231520.8, -4337.626, 0.0005340466, -0.011945663, -1153727.8, 10402.141, 0.0, 5.0155993, 4.9653516 
2.1813671e+2, 1.8617697e+2, -1105034.4, -1181601.9, -4625.9736, -0.0017423306, -0.0066049816, -1104755.9, 10705.327, 0.0, 5.015337, 4.9657197 
2.1813296e+2, 1.9114351e+2, -1056647.4, -1132789.0, -4680.7676, -0.0040154513, -0.0012450917, -1056360.8, 10431.453, 0.0, 5.01506, 4.965722 
2.1812922e+2, 1.9611004e+2, -1009176.94, -1085902.1, -4739.381, -0.006306017, 0.004382057, -1008885.3, 9237.766, 0.0, 5.0147724, 4.965074 
2.1812543e+2, 2.0107308e+2, -968452.8, -1053748.3, -5062.468, -0.0074474495, 0.014630873, -968153.4, 1333.7214, 0.0, 5.014518, 4.9593825 
2.1812138e+2, 2.0603253e+2, -918780.3, -1002998.2, -5051.42, -0.007778758, 0.007704146, -918478.4, 2404.0215, 0.0, 5.0143976, 4.9599447 
2.1811731e+2, 2.1099198e+2, -869878.9, -953899.56, -4951.976, -0.0083213495, -0.0002576575, -869588.06, 2689.591, 0.0, 5.014273, 4.959948 
2.1811324e+2, 2.1595143e+2, -821683.6, -906273.7, -4860.348, -0.00884154, -0.008088603, -821405.3, 2267.5266, 0.0, 5.014134, 4.959451 
2.1810906e+2, 2.2090763e+2, -781890.5, -877278.4, -4925.4995, -0.010103889, -0.004248857, -781636.8, -6535.0938, 0.0, 5.014036, 4.9525127 
2.181047e+2, 2.2586122e+2, -731697.06, -826053.06, -4909.021, -0.011114037, -0.0025050465, -731442.4, -4880.7954, 0.0, 5.0140376, 4.953147 
2.1810037e+2, 2.3081489e+2, -682437.2, -776730.4, -4839.4126, -0.012027801, -0.0015168389, -682189.44, -4168.3867, 0.0, 5.0140004, 4.953158 
2.1809605e+2, 2.3576853e+2, -633947.2, -728912.2, -4776.866, -0.013068147, -0.001135809, -633707.5, -4226.492, 0.0, 5.0139184, 4.952667 
2.1809168e+2, 2.4071907e+2, -593320.1, -698451.06, -5084.7407, -0.014430876, 0.012734373, -593074.75, -12107.907, 0.0, 5.013837, 4.9460955 
2.180865e+2, 2.4566592e+2, -541941.6, -645176.4, -5519.998, -0.01308434, 0.005496998, -541647.3, -9173.94, 0.0, 5.013961, 4.9473467 
2.1808125e+2, 2.506127e+2, -492089.22, -595659.8, -5405.989, -0.011165829, -0.00517057, -491807.8, -7828.392, 0.0, 5.014113, 4.9473276 
2.1807607e+2, 2.5555968e+2, -442452.94, -546699.75, -5340.8726, -0.009211449, -0.0135225225, -442180.03, -6696.602, 0.0, 5.01427, 4.9471097 
2.1806918e+2, 2.605013e+2, -410550.53, -538158.2, -4249.501, -0.027229952, 0.0011604783, -410409.2, -23356.799, 0.0, 5.014548, 4.9322886 
2.1806148e+2, 2.654397e+2, -360934.84, -485057.72, -2861.6116, -0.061642665, 0.005894851, -360868.9, -22165.95, 0.0, 5.0136094, 4.9331985 
2.180549e+2, 2.7037767e+2, -315385.1, -437017.97, -1806.2191, -0.094277434, -0.013634488, -315358.28, -24995.174, 0.0, 5.0115185, 4.9334755 
2.1804902e+2, 2.7531436e+2, -272263.5, -390404.94, -200.50853, -0.12946497, -0.05578517, -272263.2, -30227.41, 0.0, 5.0084524, 4.933704 
2.1803181e+2, 2.8025812e+2, -264775.06, -423183.84, -7992.335, -0.24011928, 0.16706389, -264372.84, -70746.555, 0.0, 5.0071263, 4.906297 
2.1802358e+2, 2.852001e+2, -173176.4, -274538.44, -1494.9437, -0.22063108, 0.30478144, -173154.36, -27985.307, 0.0, 5.009747, 4.938784 
2.1802703e+2, 2.9013067e+2, -121390.74, -224284.16, -1640.9789, -0.120431595, 0.19592269, -121364.58, -24550.008, 0.0, 5.0106425, 4.938541 
2.1803088e+2, 2.9505917e+2, -72631.734, -175558.2, -1346.0272, -0.028260553, 0.061676804, -72614.14, -24133.229, 0.0, 5.0102806, 4.9382977 
2.1803442e+2, 2.9999653e+2, -32134.154, -107555.63, -2116.3308, 0.032754555, -0.07632386, -32074.816, -31998.373, 0.0, 5.008833, 4.9545546 
2.1804516e+2, 3.0497e+2, -42644.38, -109102.88, -4521.7056, 0.07532594, 0.024742492, -42338.14, -42338.14, 0.0, 5.0050826, 4.953437 
2.1805994e+2, 3.0995905e+2, -56338.95, -104478.15, -6164.8223, 0.12476888, 0.21283653, -55562.004, -55562.004, 0.0, 4.9985223, 4.9571667 
2.180763e+2, 3.149552e+2, -76290.31, -103135.04, -8858.565, 0.16617483, 0.42644858, -73630.57, -73630.57, 0.0, 4.989422, 4.9609017 
2.2317035e+2, 1.21476695e+2, -1705755.4, -1750259.3, -490.15634, 0.011332098, -0.024418063, -1705750.0, 43786.477, 0.0, 5.0170436, 4.988043 
2.2316958e+2, 1.2646873e+2, -1661210.9, -1710808.5, -1432.6338, 0.001159683, 0.04564951, -1661169.6, 39443.098, 0.0, 5.017155, 4.984865 
2.2316962e+2, 1.3145112e+2, -1612147.6, -1661789.9, -1638.2761, 0.0005724588, 0.019987848, -1612093.6, 39689.01, 0.0, 5.0171847, 4.9848633 
2.2316968e+2, 1.3643347e+2, -1565290.4, -1617306.8, -1844.1296, 0.00006784515, -0.0044321106, -1565225.1, 37727.86, 0.0, 5.017214, 4.983359 
2.2316939e+2, 1.4141376e+2, -1523842.4, -1583765.8, -2576.8774, -0.00045626576, -0.0048110816, -1523731.8, 30412.541, 0.0, 5.0171924, 4.978174 
2.2316857e+2, 1.4639243e+2, -1474992.0, -1534627.3, -2673.7727, -0.0012117034, -0.0031823434, -1474872.4, 30481.307, 0.0, 5.017088, 4.9782524 
2.2316772e+2, 1.5137108e+2, -1426260.5, -1485732.8, -2679.2466, -0.0019749096, -0.0021341222, -1426140.0, 30423.51, 0.0, 5.0169816, 4.978253 
2.2316688e+2, 1.563497e+2, -1378954.3, -1439812.4, -2685.937, -0.002709098, -0.0006228089, -1378836.0, 28937.506, 0.0, 5.0168753, 4.9772587 
2.2316557e+2, 1.6132444e+2, -1338018.0, -1407064.4, -3683.7515, -0.002794085, 0.0039280863, -1337822.0, 21198.479, 0.0, 5.016731, 4.9718747 
2.231634e+2, 1.6629612e+2, -1289291.9, -1357657.0, -3926.7942, -0.0014634618, -0.0024300667, -1289067.0, 21228.754, 0.0, 5.0165005, 4.9720817 
2.2316119e+2, 1.7126784e+2, -1240862.4, -1308864.0, -3947.1743, 0.0000037490504, -0.00882783, -1240634.0, 20936.695, 0.0, 5.016267, 4.9720845 
2.23159e+2, 1.7623955e+2, -1193564.4, -1262471.0, -3969.2886, 0.0015642941, -0.014815263, -1193336.5, 19509.076, 0.0, 5.0160327, 4.97128 
2.2315623e+2, 1.8120809e+2, -1153446.8, -1231369.6, -4831.402, 0.0016925234, -0.009813873, -1153148.3, 11004.819, 0.0, 5.015802, 4.9653053 
2.2315226e+2, 1.8617435e+2, -1104422.8, -1181452.6, -5119.534, -0.0007558852, -0.006073184, -1104084.0, 11402.848, 0.0, 5.0155797, 4.965655 
2.2314826e+2, 1.9114065e+2, -1055880.9, -1132569.6, -5169.7754, -0.0031418442, -0.0022931898, -1055534.0, 11286.17, 0.0, 5.015357, 4.9656563 
2.2314426e+2, 1.96107e+2, -1008226.44, -1085599.4, -5220.873, -0.0054326123, 0.0018287194, -1007875.75, 10277.583, 0.0, 5.015134, 4.965007 
2.2314021e+2, 2.0106997e+2, -967240.4, -1052934.8, -5503.4746, -0.006646765, 0.011751805, -966888.4, 2629.4602, 0.0, 5.0148897, 4.9594846 
2.2313589e+2, 2.0602974e+2, -917961.06, -1002192.44, -5412.569, -0.0076196548, 0.006165447, -917614.7, 3294.8997, 0.0, 5.014598, 4.960125 
2.2313155e+2, 2.1098949e+2, -869555.06, -953336.6, -5245.0005, -0.008754572, -0.00044673219, -869228.0, 3073.1724, 0.0, 5.0143037, 4.960125 
2.2312722e+2, 2.1594925e+2, -821809.1, -905931.0, -5078.819, -0.00976602, -0.006858304, -821503.6, 2189.068, 0.0, 5.014009, 4.9596257 
2.2312282e+2, 2.209056e+2, -782533.0, -877328.5, -4959.108, -0.011254486, -0.0028967028, -782274.3, -7154.71, 0.0, 5.0137625, 4.952617 
2.2311847e+2, 2.2585912e+2, -732967.4, -826492.56, -4972.7007, -0.011334842, -0.0027685005, -732703.7, -6122.9478, 0.0, 5.0135713, 4.953202 
2.2311418e+2, 2.3081273e+2, -684165.8, -777352.4, -4979.653, -0.010707259, -0.0029573839, -683900.5, -5859.1274, 0.0, 5.013375, 4.9532194 
2.2310993e+2, 2.357663e+2, -636010.56, -729657.6, -4991.536, -0.009717032, -0.0034382173, -635745.25, -6243.2314, 0.0, 5.013176, 4.9527354 
2.2310568e+2, 2.4071693e+2, -595466.6, -698905.3, -5153.246, -0.008834996, 0.01016576, -595210.56, -14223.296, 0.0, 5.013026, 4.9462857 
2.2310083e+2, 2.456643e+2, -543448.4, -645460.0, -5488.577, -0.006235146, 0.006039104, -543153.9, -10665.435, 0.0, 5.013393, 4.9474864 
2.2309594e+2, 2.5061157e+2, -492797.6, -595719.3, -5296.998, -0.0028532448, -0.0004043817, -492525.7, -8536.986, 0.0, 5.0138316, 4.94742 
2.2309116e+2, 2.5555912e+2, -442400.88, -546557.2, -5102.4063, 0.00092988764, -0.003916827, -442151.5, -6664.726, 0.0, 5.014261, 4.9471555 
2.2308478e+2, 2.6050115e+2, -408450.3, -535039.1, -3510.534, -0.014367896, 0.011354684, -408353.03, -21303.12, 0.0, 5.0148845, 4.9332094 
2.2307813e+2, 2.65439e+2, -354656.25, -477420.47, -2821.1104, -0.039711144, -0.0006148175, -354591.44, -15890.775, 0.0, 5.015188, 4.9350157 
2.2307311e+2, 2.703774e+2, -302162.22, -423870.88, -3612.3115, -0.051752374, -0.035282392, -302055.1, -11704.733, 0.0, 5.0153484, 4.936088 
2.2306928e+2, 2.753159e+2, -249496.13, -370744.38, -4817.329, -0.054814886, -0.089047976, -249305.03, -7305.3877, 0.0, 5.015459, 4.9371142 
2.2305402e+2, 2.8026044e+2, -225396.0, -399807.13, -12409.387, -0.12490951, 0.09615767, -224517.5, -30939.135, 0.0, 5.019738, 4.909564 
2.2304349e+2, 2.8520054e+2, -145698.84, -272131.0, -1296.1516, -0.13725093, 0.2366404, -145685.55, -542.17377, 0.0, 5.02078, 4.936204 
2.230442e+2, 2.901303e+2, -103932.23, -223065.4, -1348.877, -0.07603461, 0.15714137, -103916.96, -7115.029, 0.0, 5.017906, 4.9367766 
2.2304584e+2, 2.9505807e+2, -61913.17, -174171.2, -1842.6201, -0.009088882, 0.04477882, -61882.934, -13403.133, 0.0, 5.0149245, 4.9373493 
2.2304735e+2, 2.9999557e+2, -23840.953, -102245.09, -4403.371, 0.040686134, -0.07648189, -23594.424, -23515.861, 0.0, 5.0121527, 4.9551406 
2.2305506e+2, 3.0496877e+2, -29206.94, -101821.125, -8615.838, 0.0882009, 0.034488834, -28198.65, -28198.65, 0.0, 5.0107007, 4.953824 
2.23068e+2, 3.099597e+2, -29268.986, -91831.42, -10726.307, 0.1737557, 0.2659825, -27481.06, -27481.06, 0.0, 5.009367, 4.9574876 
2.2308408e+2, 3.1496093e+2, -28831.283, -82343.375, -13086.329, 0.28445622, 0.56367576, -25802.467, -25802.467, 0.0, 5.0079017, 4.9611573 
2.2818713e+2, 1.2147438e+2, -1705587.1, -1749935.1, 100.35523, 0.00868015, -0.029896397, -1705587.0, 43969.586, 0.0, 5.017046, 4.9881496 
2.2818689e+2, 1.2646633e+2, -1661581.8, -1711593.5, -1414.5898, 0.002630943, 0.04158045, -1661541.8, 39092.457, 0.0, 5.017159, 4.984607 
2.2818692e+2, 1.3144866e+2, -1612518.0, -1662571.5, -1617.3356, 0.001537279, 0.017918209, -1612465.8, 39340.25, 0.0, 5.0171876, 4.984606 
2.2818694e+2, 1.3643095e+2, -1565660.1, -1618084.8, -1820.1936, 0.00049529655, -0.0044874456, -1565597.0, 37381.08, 0.0, 5.017216, 4.983102 
2.2818658e+2, 1.414112e+2, -1523934.4, -1583962.3, -2645.1702, -0.00048546973, -0.0035972844, -1523818.1, 30352.615, 0.0, 5.0171933, 4.978109 
2.281856e+2, 1.4638978e+2, -1474996.5, -1534642.9, -2753.8616, -0.0018632244, -0.0025904851, -1474869.6, 30510.695, 0.0, 5.0170884, 4.978247 
2.2818457e+2, 1.5136835e+2, -1426264.1, -1485747.9, -2758.3865, -0.003303719, -0.002259794, -1426136.5, 30454.002, 0.0, 5.0169826, 4.9782476 
2.2818357e+2, 1.5634689e+2, -1378956.9, -1439826.9, -2764.0825, -0.0047290428, -0.0014726174, -1378831.6, 28969.037, 0.0, 5.0168767, 4.977254 
2.2818206e+2, 1.6132164e+2, -1338035.4, -1407104.3, -3841.0042, -0.0052555553, 0.0030240812, -1337822.4, 21225.223, 0.0, 5.016731, 4.971862 
2.281797e+2, 1.6629346e+2, -1289315.9, -1357715.4, -4103.9907, -0.0036400314, -0.0016545311, -1289070.5, 21251.217, 0.0, 5.0165014, 4.9720626 
2.2817728e+2, 1.7126532e+2, -1240884.5, -1308923.4, -4122.4204, -0.0018774114, -0.0063057924, -1240635.6, 20959.9, 0.0, 5.0162683, 4.972065 
2.2817488e+2, 1.7623718e+2, -1193584.5, -1262531.6, -4142.5547, -0.00005586397, -0.010566982, -1193336.5, 19532.676, 0.0, 5.016035, 4.9712596 
2.2817191e+2, 1.8120572e+2, -1153493.6, -1231479.3, -5005.0615, 0.00048713744, -0.0054534157, -1153173.8, 11003.3, 0.0, 5.0158033, 4.9652686 
2.2816779e+2, 1.8617159e+2, -1104494.8, -1181615.9, -5288.792, -0.0014696468, -0.004990404, -1104133.8, 11380.406, 0.0, 5.01558, 4.9656005 
2.281636e+2, 1.9113751e+2, -1055951.3, -1132731.9, -5336.136, -0.003422527, -0.0046006236, -1055582.3, 11268.948, 0.0, 5.015358, 4.965602 
2.2815943e+2, 1.9610344e+2, -1008295.2, -1085760.8, -5384.3135, -0.005312567, -0.0038832428, -1007922.75, 10265.281, 0.0, 5.0151353, 4.9649525 
2.2815515e+2, 2.0106629e+2, -967066.44, -1052566.8, -5719.756, -0.006300991, 0.004736426, -966685.5, 2867.9436, 0.0, 5.0148907, 4.9596105 
2.2815059e+2, 2.0602657e+2, -917655.25, -1001544.4, -5636.308, -0.0067275073, 0.002229699, -917278.25, 3661.3916, 0.0, 5.0145993, 4.9603467 
2.2814602e+2, 2.1098687e+2, -869245.56, -952686.1, -5463.834, -0.007270058, -0.0012391979, -868889.3, 3436.215, 0.0, 5.0143065, 4.9603477 
2.2814143e+2, 2.1594717e+2, -821495.9, -905277.94, -5292.722, -0.0077523896, -0.004554388, -821162.8, 2548.4626, 0.0, 5.014013, 4.959849 
2.2813682e+2, 2.2090383e+2, -782340.75, -876955.1, -5096.9365, -0.009015397, 0.00033576717, -782066.94, -6931.945, 0.0, 5.0137687, 4.9527464 
2.2813226e+2, 2.2585708e+2, -732916.2, -826460.5, -5108.0513, -0.009516357, -0.0020786007, -732638.1, -6039.1006, 0.0, 5.0135803, 4.9532166 
2.2812776e+2, 2.3081043e+2, -684107.7, -777325.1, -5104.3022, -0.0094007375, -0.0047279457, -683829.06, -5766.419, 0.0, 5.0133862, 4.9532323 
2.2812328e+2, 2.3576377e+2, -635945.5, -729635.1, -5105.4688, -0.009030725, -0.00770662, -635668.1, -6141.7188, 0.0, 5.0131903, 4.9527464 
2.2811894e+2, 2.4071434e+2, -595164.2, -698432.75, -5038.7593, -0.008396473, 0.004610946, -594918.94, -13906.168, 0.0, 5.0130467, 4.946452 
2.2811438e+2, 2.4566235e+2, -543099.44, -644931.6, -5200.1416, -0.005850304, 0.0053914604, -542834.6, -10327.088, 0.0, 5.0134177, 4.947675 
2.2810979e+2, 2.5061038e+2, -492439.8, -595173.75, -4990.156, -0.0027633635, 0.004365236, -492198.0, -8197.255, 0.0, 5.0138583, 4.9476147 
2.281053e+2, 2.555586e+2, -442034.3, -545994.5, -4777.1743, 0.00059263787, 0.0059811105, -441815.25, -6323.293, 0.0, 5.01429, 4.9473557 
2.2809936e+2, 2.6050133e+2, -406980.25, -532512.06, -2881.4954, -0.015778678, 0.022300981, -406914.16, -19867.256, 0.0, 5.014971, 4.934147 
2.28093e+2, 2.6543808e+2, -352688.5, -475934.16, -1529.8119, -0.055300396, -0.0010715972, -352669.5, -13971.703, 0.0, 5.015549, 4.9356337 
2.2808813e+2, 2.703747e+2, -299523.8, -422941.94, -1748.5577, -0.08656653, -0.050800487, -299499.03, -9144.735, 0.0, 5.015989, 4.936458 
2.2808431e+2, 2.753108e+2, -246189.22, -370372.63, -2381.5618, -0.11200433, -0.122712746, -246143.56, -4127.8926, 0.0, 5.016379, 4.9372363 
2.2807062e+2, 2.8025135e+2, -220539.14, -388119.47, -14415.489, -0.17472209, 0.0042553456, -219308.16, -25682.967, 0.0, 5.019671, 4.9135885 
2.2806035e+2, 2.8519237e+2, -148881.27, -273543.8, -5565.4063, -0.1600484, 0.14336772, -148633.3, -3447.1992, 0.0, 5.0199, 4.935873 
2.280597e+2, 2.901252e+2, -106699.125, -225144.06, -4988.367, -0.092796594, 0.10531712, -106489.41, -9667.869, 0.0, 5.0171986, 4.9362116 
2.2805987e+2, 2.950558e+2, -64261.402, -176916.34, -4853.049, -0.023489838, 0.034095343, -64052.723, -15574.297, 0.0, 5.01439, 4.93655 
2.2805974e+2, 2.9999644e+2, -23875.871, -101998.0, -5838.06, 0.02480289, -0.049344108, -23442.004, -23390.068, 0.0, 5.0118747, 4.9553347 
2.2806333e+2, 3.0496833e+2, -28599.705, -103218.47, -7700.291, 0.042492926, 0.053951565, -27813.36, -27813.36, 0.0, 5.010853, 4.9533496 
2.2807121e+2, 3.0995572e+2, -27171.621, -92196.836, -8412.089, 0.08328602, 0.25879607, -26101.006, -26101.006, 0.0, 5.00991, 4.957151 
2.2808197e+2, 3.1495276e+2, -25240.676, -81682.305, -9373.501, 0.14068374, 0.5185398, -23724.697, -23724.697, 0.0, 5.0088367, 4.9609575 
2.3320393e+2, 1.2147206e+2, -1705352.3, -1749474.0, 702.31836, 0.0059698373, -0.035307493, -1705341.1, 44235.6, 0.0, 5.017048, 4.9883003 
2.3320422e+2, 1.2646395e+2, -1661953.4, -1712378.3, -1397.4657, 0.0041089817, 0.037634034, -1661914.8, 38741.09, 0.0, 5.0171623, 4.9843483 
2.3320422e+2, 1.3144621e+2, -1612889.1, -1663352.8, -1597.3146, 0.0025031161, 0.01592034, -1612838.5, 38990.8, 0.0, 5.0171905, 4.9843473 
2.3320419e+2, 1.3642843e+2, -1566030.6, -1618862.5, -1797.1769, 0.000918006, -0.004521882, -1565969.5, 37033.645, 0.0, 5.0172186, 4.9828444 
2.3320378e+2, 1.4140862e+2, -1524034.1, -1584173.9, -2714.585, -0.0005068372, -0.0023599586, -1523911.9, 30285.219, 0.0, 5.017194, 4.978039 
2.3320262e+2, 1.4638714e+2, -1475001.4, -1534658.3, -2833.808, -0.0025032957, -0.001976525, -1474867.0, 30539.965, 0.0, 5.0170894, 4.978242 
2.3320143e+2, 1.5136562e+2, -1426268.1, -1485762.9, -2837.3845, -0.004623052, -0.0023768186, -1426133.0, 30484.375, 0.0, 5.0169835, 4.9782424 
2.3320024e+2, 1.5634409e+2, -1378959.9, -1439841.3, -2842.0862, -0.006741484, -0.0023272322, -1378827.5, 29000.445, 0.0, 5.0168777, 4.9772487 
2.3319857e+2, 1.6131882e+2, -1338056.9, -1407152.0, -3999.3916, -0.0077094766, 0.0021399956, -1337826.1, 21248.645, 0.0, 5.0167313, 4.971846 
2.3319599e+2, 1.6629079e+2, -1289340.6, -1357773.3, -4280.213, -0.005791313, -0.0008696993, -1289073.9, 21273.814, 0.0, 5.016502, 4.972043 
2.3319337e+2, 1.712628e+2, -1240907.1, -1308982.4, -4296.692, -0.0037173112, -0.0037987314, -1240637.0, 20983.232, 0.0, 5.0162697, 4.972045 
2.3319076e+2, 1.7623481e+2, -1193605.3, -1262591.6, -4314.846, -0.0016187902, -0.006357946, -1193336.4, 19556.38, 0.0, 5.016037, 4.971239 
2.3318762e+2, 1.8120334e+2, -1153554.0, -1231616.4, -5180.995, -0.00067563896, -0.0010445177, -1153211.6, 10989.212, 0.0, 5.0158043, 4.9652224 
2.3318331e+2, 1.8616882e+2, -1104567.6, -1181778.8, -5457.8447, -0.002143034, -0.003868516, -1104183.8, 11357.861, 0.0, 5.015581, 4.9655457 
2.3317896e+2, 1.9113435e+2, -1056022.4, -1132893.8, -5502.2915, -0.0036601417, -0.0069198697, -1055630.5, 11251.623, 0.0, 5.015359, 4.9655466 
2.3317459e+2, 1.9609988e+2, -1008364.6, -1085921.6, -5547.5483, -0.00514676, -0.009657927, -1007969.8, 10252.867, 0.0, 5.0151367, 4.9648976 
2.331701e+2, 2.0106262e+2, -966912.9, -1052241.4, -5939.101, -0.005920185, -0.002177921, -966501.5, 3087.4897, 0.0, 5.014891, 4.9597216 
2.331653e+2, 2.0602342e+2, -917350.6, -1000895.6, -5860.224, -0.0058203423, -0.0015960097, -916941.56, 4028.1152, 0.0, 5.0146008, 4.9605675 
2.331605e+2, 2.1098426e+2, -868937.2, -952034.94, -5682.8438, -0.005794063, -0.0020057724, -868550.3, 3799.4707, 0.0, 5.014309, 4.960569 
2.3315567e+2, 2.1594508e+2, -821183.75, -904624.2, -5506.8022, -0.0057708146, -0.0023087177, -820821.9, 2908.0374, 0.0, 5.014017, 4.960071 
2.3315087e+2, 2.2090204e+2, -782171.25, -876628.1, -5235.8154, -0.0067012464, 0.0035726829, -781881.9, -6731.4624, 0.0, 5.0137744, 4.9528584 
2.3314609e+2, 2.2585507e+2, -732867.7, -826426.3, -5238.941, -0.0075250985, -0.0015041768, -732575.25, -5957.979, 0.0, 5.0135894, 4.9532294 
2.3314138e+2, 2.3080815e+2, -684052.25, -777295.7, -5224.492, -0.00789437, -0.0068196044, -683760.44, -5676.4106, 0.0, 5.0133977, 4.9532433 
2.3313667e+2, 2.3576121e+2, -635883.1, -729610.5, -5214.9424, -0.008117508, -0.012501682, -635593.9, -6042.874, 0.0, 5.013204, 4.9527555 
2.3313224e+2, 2.4071181e+2, -594995.25, -698233.5, -4922.5186, -0.007715443, 0.0000028797574, -594761.06, -13723.509, 0.0, 5.0130677, 4.946521 
2.3312797e+2, 2.4566054e+2, -542765.25, -644389.44, -4914.252, -0.0052424422, 0.0062409593, -542528.1, -10002.666, 0.0, 5.0134425, 4.947861 
2.3312369e+2, 2.5060928e+2, -492096.63, -594614.3, -4685.8574, -0.0025065606, 0.010240862, -491882.9, -7871.0454, 0.0, 5.0138855, 4.9478064 
2.3311947e+2, 2.555582e+2, -441682.34, -545417.9, -4454.486, 0.00036620648, 0.01659385, -441491.4, -5994.976, 0.0, 5.014319, 4.9475527 
2.3311387e+2, 2.6050103e+2, -406146.4, -531277.2, -2063.4646, -0.018692922, 0.031876378, -406112.4, -19064.39, 0.0, 5.015057, 4.9345613 
2.3310822e+2, 2.6543623e+2, -350809.6, -474389.03, 160.15895, -0.07111157, -0.013774515, -350809.38, -12105.061, 0.0, 5.0159097, 4.9360876 
2.3310399e+2, 2.7037063e+2, -296972.3, -421952.94, 512.71643, -0.1192615, -0.09045898, -296970.2, -6598.914, 0.0, 5.016629, 4.936664 
2.3310074e+2, 2.7530402e+2, -242967.42, -369939.44, 450.61328, -0.16473585, -0.19239895, -242965.83, -917.4105, 0.0, 5.017299, 4.937194 
2.3308717e+2, 2.8024265e+2, -222376.3, -391935.53, -17815.283, -0.22620487, -0.07779184, -220524.7, -26856.537, 0.0, 5.0196133, 4.912177 
2.33076e+2, 2.8518632e+2, -152240.11, -274797.13, -9379.157, -0.18812747, 0.093964614, -151526.48, -6318.092, 0.0, 5.019019, 4.9354086 
2.330743e+2, 2.9012182e+2, -109641.19, -227062.03, -8170.676, -0.11212237, 0.085607305, -109075.37, -12251.274, 0.0, 5.016491, 4.9355125 
2.3307338e+2, 2.9505497e+2, -66783.61, -179499.52, -7404.57, -0.037737772, 0.043768205, -66299.266, -17835.918, 0.0, 5.0138555, 4.935616 
2.3307164e+2, 2.999965e+2, -25388.283, -104622.99, -7120.44, 0.008133736, -0.024250237, -24753.488, -24720.537, 0.0, 5.011597, 4.9543476 
2.3307095e+2, 3.0496457e+2, -28192.2, -104423.68, -6892.5586, -0.012690933, 0.03478908, -27574.014, -27574.014, 0.0, 5.011006, 4.9525504 
2.3307382e+2, 3.0994713e+2, -25274.234, -92366.94, -6204.567, -0.025138913, 0.17828454, -24705.277, -24705.277, 0.0, 5.0104547, 4.9564886 
2.3307925e+2, 3.1493866e+2, -21851.871, -80822.52, -5766.9575, -0.029538017, 0.36534715, -21293.191, -21293.191, 0.0, 5.009774, 4.9604325 
2.3822072e+2, 1.21469736e+2, -1704933.9, -1748828.9, 1260.9666, 0.0032070782, -0.040607497, -1704897.6, 44699.285, 0.0, 5.017094, 4.9884887 
2.3822154e+2, 1.2646158e+2, -1662198.8, -1713088.9, -1412.4784, 0.0056300582, 0.033885274, -1662159.6, 38517.645, 0.0, 5.0172076, 4.984092 
2.382215e+2, 1.3144375e+2, -1613099.6, -1664045.3, -1584.9618, 0.0034795282, 0.01403859, -1613050.4, 38802.188, 0.0, 5.0172467, 4.9840913 
2.3822147e+2, 1.3642593e+2, -1566241.4, -1619553.9, -1758.9315, 0.0013355375, -0.0045264787, -1566183.5, 36844.754, 0.0, 5.0172734, 4.982589 
2.3822097e+2, 1.4140603e+2, -1524014.0, -1584337.1, -2754.4707, -0.000514832, -0.0011192226, -1523888.5, 30334.826, 0.0, 5.0172377, 4.977964 
2.3821965e+2, 1.4638449e+2, -1474920.9, -1534632.9, -2890.3213, -0.003106079, -0.0013610219, -1474781.3, 30652.334, 0.0, 5.0171194, 4.9782357 
2.382183e+2, 1.513629e+2, -1426237.8, -1485762.0, -2901.1858, -0.005880051, -0.0025037306, -1426096.6, 30547.686, 0.0, 5.016997, 4.978236 
2.3821694e+2, 1.563413e+2, -1378989.9, -1439869.5, -2912.7925, -0.0086606145, -0.003202196, -1378850.9, 29004.32, 0.0, 5.0168705, 4.9772425 
2.3821506e+2, 1.61316e+2, -1338148.0, -1407240.9, -4157.086, -0.010056373, 0.0012588338, -1337898.8, 21203.133, 0.0, 5.0167103, 4.971826 
2.3821229e+2, 1.6628812e+2, -1289408.4, -1357853.1, -4464.706, -0.007858857, -0.00009595017, -1289118.4, 21255.348, 0.0, 5.016489, 4.9720225 
2.3820947e+2, 1.7126028e+2, -1240965.1, -1309059.0, -4490.4956, -0.0054916386, -0.0013224806, -1240670.4, 20974.754, 0.0, 5.01626, 4.9720235 
2.3820667e+2, 1.7623246e+2, -1193671.8, -1262673.8, -4516.989, -0.003124889, -0.0021917939, -1193377.3, 19539.158, 0.0, 5.0160246, 4.9712176 
2.3820332e+2, 1.8120095e+2, -1153682.0, -1231801.1, -5386.5244, -0.0018076189, 0.003420031, -1153312.3, 10912.46, 0.0, 5.015786, 4.9651685 
2.3819883e+2, 1.8616608e+2, -1104691.5, -1181958.9, -5632.223, -0.0027831597, -0.0026929043, -1104283.1, 11285.789, 0.0, 5.015564, 4.9654922 
2.381943e+2, 1.911312e+2, -1056158.9, -1133079.1, -5652.529, -0.0038487783, -0.009226712, -1055745.8, 11167.429, 0.0, 5.0153375, 4.9654937 
2.3818976e+2, 1.9609635e+2, -1008531.7, -1086120.8, -5673.813, -0.0049086288, -0.015460062, -1008119.0, 10138.288, 0.0, 5.0151043, 4.9648447 
2.3818505e+2, 2.0105895e+2, -966915.25, -1052022.5, -6112.74, -0.0054596663, -0.008964396, -966478.5, 3145.8992, 0.0, 5.014846, 4.959817 
2.3818001e+2, 2.0602028e+2, -917230.1, -1000337.6, -6067.652, -0.0048460495, -0.0052897325, -916789.44, 4210.1606, 0.0, 5.0145407, 4.960784 
2.3817496e+2, 2.1098162e+2, -868895.5, -951512.7, -5924.0957, -0.0042410553, -0.002705495, -868472.9, 3901.1746, 0.0, 5.0142217, 4.9607863 
2.3816991e+2, 2.15943e+2, -821256.4, -904153.4, -5785.024, -0.0036754, -0.00004185113, -820854.6, 2893.8787, 0.0, 5.0138903, 4.960289 
2.381649e+2, 2.2090025e+2, -782516.6, -876563.9, -5455.3687, -0.0041087316, 0.0069332854, -782201.25, -7035.401, 0.0, 5.0136094, 4.9529567 
2.3815994e+2, 2.2585304e+2, -733352.2, -826619.44, -5404.9033, -0.005152026, -0.00091988564, -733040.0, -6404.496, 0.0, 5.013413, 4.953245 
2.38155e+2, 2.3080586e+2, -684656.4, -777552.6, -5348.805, -0.0059368936, -0.009077018, -684349.44, -6244.0503, 0.0, 5.013179, 4.953256 
2.381501e+2, 2.3575866e+2, -636704.8, -729975.06, -5307.9355, -0.0066429335, -0.017609935, -636403.7, -6828.2295, 0.0, 5.0129094, 4.9527655 
2.381456e+2, 2.4070936e+2, -596098.56, -698795.2, -4759.7095, -0.0063667377, -0.0034592373, -595878.44, -14817.049, 0.0, 5.0126853, 4.9465027 
2.381416e+2, 2.4565884e+2, -543581.8, -644295.1, -4497.2954, -0.0039809067, 0.008630627, -543381.4, -10839.276, 0.0, 5.0130625, 4.948062 
2.3813763e+2, 2.5060827e+2, -492759.16, -594414.4, -4132.224, -0.0016610745, 0.017103009, -492591.47, -8569.613, 0.0, 5.0135574, 4.9480176 
2.3813374e+2, 2.5555786e+2, -442074.28, -545058.94, -3734.3325, 0.0006538004, 0.027626837, -441939.03, -6439.0586, 0.0, 5.0140862, 4.947775 
2.381284e+2, 2.6050043e+2, -407009.6, -531414.3, -316.02655, -0.022224037, 0.03966631, -407008.8, -19956.223, 0.0, 5.014733, 4.93459 
2.3812397e+2, 2.654338e+2, -355203.63, -474728.1, 4146.5225, -0.08285827, -0.038139433, -355059.94, -16343.169, 0.0, 5.0140204, 4.9366446 
2.3812114e+2, 2.7036613e+2, -309366.66, -426364.56, 6746.046, -0.13988726, -0.15090555, -308978.97, -18586.182, 0.0, 5.0119205, 4.937057 
2.3811926e+2, 2.7529714e+2, -266536.6, -379771.3, 9367.52, -0.1953732, -0.29029077, -265766.88, -23684.818, 0.0, 5.0086207, 4.937423 
2.3810467e+2, 2.8023657e+2, -265762.72, -426806.16, -13999.678, -0.2554077, -0.1391504, -264554.75, -70869.09, 0.0, 5.007102, 4.905388 
2.3809119e+2, 2.8518382e+2, -177092.56, -286537.38, -5328.7324, -0.20540392, 0.09414248, -176833.72, -31637.973, 0.0, 5.010458, 4.9345026 
2.380885e+2, 2.90121e+2, -122786.73, -234123.03, -5409.615, -0.12543628, 0.09919339, -122524.5, -25722.629, 0.0, 5.0121613, 4.934487 
2.3808658e+2, 2.9505575e+2, -71933.05, -183512.27, -5449.2983, -0.048334453, 0.071574725, -71667.55, -23235.594, 0.0, 5.0124454, 4.934472 
2.3808321e+2, 2.999958e+2, -27591.47, -109656.42, -5318.6943, -0.008003464, -0.0046514226, -27248.2, -27227.012, 0.0, 5.0116262, 4.952304 
2.3807831e+2, 3.0495805e+2, -33180.14, -107730.03, -5246.076, -0.07184308, -0.020187942, -32812.785, -32812.785, 0.0, 5.0094056, 4.9514494 
2.3807658e+2, 3.0993497e+2, -42467.395, -100925.305, -7174.1094, -0.13594852, 0.03797359, -41599.844, -41599.844, 0.0, 5.004384, 4.955345 
2.3807734e+2, 3.1492013e+2, -58536.324, -97656.1, -11569.044, -0.19502409, 0.13218468, -55371.07, -55371.07, 0.0, 4.996603, 4.959258 
2.4323787e+2, 1.2146771e+2, -1701791.4, -1748023.0, 802.3297, -0.0026673635, -0.04018033, -1701777.5, 47839.188, 0.0, 5.0182996, 4.9881587 
2.4323946e+2, 1.2645957e+2, -1659410.9, -1712000.0, -1652.2759, 0.0074784975, 0.036096696, -1659359.0, 41338.066, 0.0, 5.0182, 4.9839616 
2.4323933e+2, 1.3144155e+2, -1610513.0, -1663066.1, -1716.0084, 0.0043832455, 0.01545622, -1610457.0, 41417.74, 0.0, 5.018175, 4.983959 
2.4323921e+2, 1.364235e+2, -1563818.8, -1618664.6, -1779.6636, 0.0013752404, -0.0039196745, -1563761.1, 39291.58, 0.0, 5.01815, 4.982455 
2.4323861e+2, 1.4140342e+2, -1521683.3, -1583371.0, -2813.0093, -0.0008301574, -0.0011865075, -1521555.3, 32694.35, 0.0, 5.018057, 4.9778852 
2.4323717e+2, 1.4638178e+2, -1472827.4, -1533732.6, -3015.8887, -0.0029469007, -0.0019773527, -1472678.4, 32782.137, 0.0, 5.0178494, 4.9781804 
2.4323569e+2, 1.5136006e+2, -1424407.8, -1484993.8, -3086.7117, -0.005203268, -0.003681559, -1424250.9, 32420.945, 0.0, 5.01764, 4.978181 
2.432342e+2, 1.5633835e+2, -1377410.4, -1439225.8, -3158.7273, -0.007435166, -0.004938412, -1377249.4, 30633.852, 0.0, 5.017431, 4.977187 
2.4323215e+2, 1.61313e+2, -1336823.8, -1406760.5, -4511.225, -0.008738285, -0.0004696491, -1336534.0, 22596.383, 0.0, 5.017193, 4.9717555 
2.43229e+2, 1.6628519e+2, -1288303.0, -1357503.6, -4895.0576, -0.0076145884, -0.00035014842, -1287958.4, 22443.756, 0.0, 5.0169044, 4.9719415 
2.4322583e+2, 1.7125744e+2, -1240043.1, -1308797.9, -4991.9556, -0.0063302736, 0.000009577931, -1239682.5, 21990.943, 0.0, 5.016614, 4.971943 
2.4322265e+2, 1.7622966e+2, -1192913.3, -1262491.1, -5090.1836, -0.0050020954, 0.0007666521, -1192542.9, 20401.836, 0.0, 5.0163236, 4.9711375 
2.4321899e+2, 1.8119818e+2, -1152888.5, -1231327.4, -5952.7773, -0.004124911, 0.006806689, -1152439.3, 11813.85, 0.0, 5.0160394, 4.9652085 
2.4321434e+2, 1.8616314e+2, -1103995.5, -1181485.3, -6081.2065, -0.0043249833, -0.0014299678, -1103521.1, 12076.966, 0.0, 5.0157747, 4.9655533 
2.4320966e+2, 1.9112813e+2, -1055573.0, -1132657.9, -5995.296, -0.0045417445, -0.010159808, -1055109.5, 11833.585, 0.0, 5.015511, 4.9655547 
2.4320495e+2, 1.960931e+2, -1008036.8, -1085742.8, -5910.602, -0.004717759, -0.018586762, -1007589.8, 10698.182, 0.0, 5.015247, 4.9649057 
2.4320003e+2, 2.0105566e+2, -966642.56, -1051851.4, -6393.6465, -0.0045613507, -0.01300698, -966165.44, 3489.767, 0.0, 5.0149317, 4.9598336 
2.4319465e+2, 2.0601723e+2, -917504.75, -1000404.5, -6592.4033, -0.0030227937, -0.007075642, -916983.8, 4044.9736, 0.0, 5.0144334, 4.9608088 
2.431893e+2, 2.1097887e+2, -869730.75, -951839.94, -6670.91, -0.0012614306, -0.0019945095, -869192.3, 3209.0327, 0.0, 5.01392, 4.9608116 
2.4318394e+2, 2.159405e+2, -822613.0, -904721.06, -6751.185, 0.0006087269, 0.0032719246, -822061.56, 1712.3127, 0.0, 5.013406, 4.9603143 
2.4317865e+2, 2.2089797e+2, -784046.06, -876661.94, -6370.7734, 0.0011009801, 0.011146128, -783609.9, -8420.389, 0.0, 5.012958, 4.9532166 
2.4317336e+2, 2.2585069e+2, -735029.5, -826709.4, -6006.6167, -0.0011577304, -0.00022845087, -734637.6, -7979.2915, 0.0, 5.012693, 4.953537 
2.4316806e+2, 2.3080343e+2, -686389.1, -777684.8, -5664.3867, -0.0031802705, -0.011891497, -686039.0, -7911.5845, 0.0, 5.012439, 4.953541 
2.431628e+2, 2.3575616e+2, -638394.2, -730104.5, -5326.0977, -0.0049046776, -0.023717249, -638085.94, -8489.261, 0.0, 5.012182, 4.9530425 
2.4315804e+2, 2.4070702e+2, -598157.0, -699469.8, -4400.458, -0.005130716, -0.009850807, -597966.25, -16885.754, 0.0, 5.011892, 4.9466205 
2.4315426e+2, 2.4565737e+2, -546788.9, -645376.9, -4285.998, -0.0019026311, 0.009395449, -546602.9, -14047.049, 0.0, 5.011837, 4.948211 
2.4315056e+2, 2.506077e+2, -497288.0, -595939.25, -4280.141, 0.0012919967, 0.025043147, -497102.66, -13072.62, 0.0, 5.0118265, 4.9482093 
2.4314697e+2, 2.5555822e+2, -448036.63, -547071.0, -4275.2837, 0.004357756, 0.04241753, -447852.4, -12349.866, 0.0, 5.0118012, 4.9480085 
2.431422e+2, 2.605015e+2, -413235.75, -529683.56, -1261.3518, -0.013940949, 0.05531359, -413222.1, -26173.725, 0.0, 5.0116725, 4.936379 
2.4313967e+2, 2.6543614e+2, -362090.2, -468960.13, 1908.6599, -0.049502123, -0.040504243, -362056.13, -23367.684, 0.0, 5.010104, 4.940027 
2.4313936e+2, 2.7037126e+2, -315263.9, -418616.88, 2723.8396, -0.06710008, -0.16272685, -315192.2, -24866.791, 0.0, 5.0082626, 4.940848 
2.431405e+2, 2.7530634e+2, -268295.5, -368575.94, 3144.323, -0.07018235, -0.30032313, -268197.0, -26234.781, 0.0, 5.006347, 4.9416227 
2.4312936e+2, 2.8025043e+2, -255109.67, -427637.25, -16233.927, -0.07717208, -0.12064118, -253595.44, -60084.95, 0.0, 5.010956, 4.9035015 
2.4311344e+2, 2.8519452e+2, -164538.7, -291478.88, -2884.6577, -0.076859064, 0.108084336, -164473.19, -19416.031, 0.0, 5.0147977, 4.9317737 
2.4310714e+2, 2.901279e+2, -118451.14, -240527.2, -2582.8757, -0.05481133, 0.09534781, -118396.516, -21688.074, 0.0, 5.013681, 4.932421 
2.4310218e+2, 2.950601e+2, -72221.1, -189711.27, -2755.575, -0.020886157, 0.05942566, -72156.51, -23785.357, 0.0, 5.012381, 4.933068 
2.4309638e+2, 2.9999822e+2, -27804.707, -110680.15, -3633.1946, -0.007279574, -0.022335473, -27645.734, -27645.734, 0.0, 5.0112414, 4.9527416 
2.4309036e+2, 3.0496064e+2, -26409.086, -103860.695, -4422.2646, -0.06719221, -0.03690117, -26157.404, -26157.404, 0.0, 5.0113015, 4.9527593 
2.430892e+2, 3.0993846e+2, -22744.035, -95081.11, -4530.774, -0.09313161, 0.04383176, -22461.36, -22461.36, 0.0, 5.0114083, 4.9554567 
2.430922e+2, 3.1492436e+2, -18689.299, -86681.27, -5095.424, -0.08063447, 0.17922528, -18309.56, -18309.56, 0.0, 5.0113053, 4.958161 
2.4825534e+2, 1.21465884e+2, -1702729.3, -1749948.0, 152.68213, -0.011108043, -0.036069445, -1702728.8, 46907.063, 0.0, 5.018302, 4.9875264 
2.4825783e+2, 1.264578e+2, -1659502.6, -1712213.8, -1677.0485, 0.009131069, 0.0420835, -1659449.3, 41266.586, 0.0, 5.0182033, 4.9838905 
2.4825758e+2, 1.3143945e+2, -1610605.5, -1663278.8, -1737.9934, 0.005100002, 0.018943189, -1610548.3, 41348.125, 0.0, 5.018178, 4.9838886 
2.4825734e+2, 1.3642108e+2, -1563911.8, -1618875.1, -1798.665, 0.0011093366, -0.0029182576, -1563853.0, 39224.17, 0.0, 5.018152, 4.9823847 
2.4825661e+2, 1.4140075e+2, -1521804.3, -1583627.0, -2954.6445, -0.0014792421, -0.0020242324, -1521663.4, 32612.945, 0.0, 5.018058, 4.9778 
2.4825506e+2, 1.4637895e+2, -1472951.3, -1533994.9, -3174.2075, -0.0025148767, -0.003314441, -1472786.6, 32701.324, 0.0, 5.0178504, 4.9780927 
2.482535e+2, 1.5135711e+2, -1424530.6, -1485256.0, -3243.8164, -0.0036443002, -0.005481353, -1424357.9, 32342.26, 0.0, 5.017641, 4.978093 
2.4825193e+2, 1.5633526e+2, -1377532.0, -1439487.8, -3314.5283, -0.004759855, -0.0072060446, -1377355.3, 30557.074, 0.0, 5.0174317, 4.9770994 
2.4824965e+2, 1.6130984e+2, -1336972.4, -1407078.3, -4726.233, -0.005753416, -0.0026703686, -1336655.3, 22504.9, 0.0, 5.017194, 4.9716496 
2.4824603e+2, 1.6628204e+2, -1288466.6, -1357856.0, -5118.071, -0.0062841456, -0.0011725678, -1288091.3, 22341.348, 0.0, 5.0169053, 4.9718237 
2.4824241e+2, 1.712543e+2, -1240205.5, -1309150.8, -5213.0127, -0.0067606517, 0.00061728247, -1239813.5, 21890.96, 0.0, 5.0166154, 4.971825 
2.4823876e+2, 1.7622656e+2, -1193074.4, -1262844.5, -5309.249, -0.0072160703, 0.002792532, -1192672.6, 20303.709, 0.0, 5.016325, 4.971019 
2.4823472e+2, 1.811951e+2, -1152765.1, -1231072.1, -6164.2764, -0.0073176953, 0.00926462, -1152282.9, 12002.146, 0.0, 5.0160403, 4.965295 
2.482299e+2, 1.8616004e+2, -1103822.5, -1181124.4, -6282.066, -0.006581246, -0.00028786174, -1103315.3, 12313.802, 0.0, 5.0157757, 4.965676 
2.4822505e+2, 1.91125e+2, -1055399.9, -1132298.4, -6192.821, -0.005803571, -0.010365475, -1054904.4, 12068.775, 0.0, 5.015512, 4.9656773 
2.4822019e+2, 1.9608997e+2, -1007863.5, -1085384.6, -6104.765, -0.005010819, -0.020151779, -1007385.7, 10931.364, 0.0, 5.0152483, 4.965028 
2.4821502e+2, 2.0105252e+2, -966689.8, -1051966.5, -6718.7354, -0.0039439476, -0.015257923, -966163.7, 3520.264, 0.0, 5.0149326, 4.959796 
2.4820928e+2, 2.0601416e+2, -917611.9, -1000662.2, -6980.346, -0.0011981109, -0.007612737, -917029.25, 4028.9214, 0.0, 5.0144362, 4.9607224 
2.4820355e+2, 2.1097589e+2, -869829.25, -952092.2, -7053.6, 0.0017758666, -0.0006732329, -869228.8, 3202.6262, 0.0, 5.013925, 4.9607253 
2.481978e+2, 2.1593764e+2, -822702.9, -904968.06, -7128.5806, 0.0047942493, 0.0063985456, -822089.75, 1714.9406, 0.0, 5.013413, 4.9602284 
2.481921e+2, 2.208952e+2, -783585.25, -875691.75, -6623.217, 0.0058422713, 0.014599387, -783111.4, -7891.5586, 0.0, 5.0129623, 4.9535503 
2.4818636e+2, 2.2584794e+2, -734410.1, -825395.56, -6178.307, 0.0015618115, -0.00087145425, -733992.5, -7306.596, 0.0, 5.0126977, 4.953991 
2.4818061e+2, 2.308007e+2, -685767.94, -776378.2, -5824.359, -0.002887966, -0.016930599, -685395.06, -7242.941, 0.0, 5.0124454, 4.9539933 
2.4817488e+2, 2.3575343e+2, -637771.1, -728804.8, -5474.3315, -0.007185621, -0.033157673, -637443.06, -7824.5664, 0.0, 5.012191, 4.9534936 
2.4816972e+2, 2.4070445e+2, -597884.25, -699121.75, -4487.7896, -0.009465109, -0.021182623, -597685.7, -16586.09, 0.0, 5.01192, 4.9467397 
2.4816601e+2, 2.4565573e+2, -546736.4, -645654.56, -4317.6357, -0.0047888234, 0.008079139, -546548.25, -13977.747, 0.0, 5.01188, 4.948114 
2.4816246e+2, 2.506071e+2, -497217.44, -596204.8, -4297.1436, 0.00023884281, 0.034938864, -497031.25, -12991.26, 0.0, 5.0118747, 4.948114 
2.4815896e+2, 2.555586e+2, -447948.16, -547324.56, -4277.6504, 0.0050198333, 0.06330913, -447764.38, -12256.409, 0.0, 5.0118546, 4.9479156 
2.481546e+2, 2.6050276e+2, -410917.72, -525698.5, -1455.9436, -0.008411879, 0.081411034, -410899.25, -23852.057, 0.0, 5.011812, 4.937773 
2.4815299e+2, 2.6543757e+2, -357851.3, -462770.28, 2005.831, -0.034095507, -0.033565585, -357813.0, -19138.89, 0.0, 5.0104966, 4.9422097 
2.4815348e+2, 2.703722e+2, -310601.0, -413302.9, 3312.989, -0.046097025, -0.17877871, -310494.22, -20192.475, 0.0, 5.0088954, 4.9427123 
2.4815524e+2, 2.753064e+2, -263207.63, -364135.72, 4226.904, -0.04827989, -0.34060836, -263030.9, -21096.621, 0.0, 5.00722, 4.9431696 
2.4814641e+2, 2.8024963e+2, -254437.08, -425123.88, -13920.142, -0.05716943, -0.1815041, -253309.3, -59828.285, 0.0, 5.0108256, 4.904278 
2.481307e+2, 2.8519505e+2, -167545.58, -292643.63, -4857.3555, -0.05603926, 0.058425993, -167357.27, -22336.566, 0.0, 5.0138683, 4.931394 
2.4812262e+2, 2.901298e+2, -121188.38, -242613.28, -3971.306, -0.03773978, 0.062465772, -121058.63, -24392.371, 0.0, 5.012894, 4.9317503 
2.4811572e+2, 2.950633e+2, -74685.664, -192715.88, -3561.4087, -0.013542342, 0.044665825, -74578.305, -26253.662, 0.0, 5.011737, 4.9321055 
2.4810816e+2, 3.0000204e+2, -27073.184, -109429.01, -2719.5322, -0.014996196, -0.028055578, -26983.477, -26983.477, 0.0, 5.010955, 4.953301 
2.4810164e+2, 3.0496377e+2, -21281.334, -97367.91, -1216.4603, -0.091533974, -0.06968995, -21261.89, -21261.89, 0.0, 5.011708, 4.955028 
2.4809976e+2, 3.099401e+2, -15587.057, -87554.29, -25.5242, -0.1451971, -0.031690106, -15587.047, -15587.047, 0.0, 5.0123925, 4.957793 
2.4810155e+2, 3.1492323e+2, -9507.203, -78124.26, 710.03864, -0.17381874, 0.044177998, -9499.856, -9499.856, 0.0, 5.0128675, 4.960565 
2.5327283e+2, 1.21464014e+2, -1703596.3, -1751726.8, -488.3003, -0.019512866, -0.032297477, -1703591.3, 46064.277, 0.0, 5.018304, 4.986942 
2.5327623e+2, 1.2645604e+2, -1659595.3, -1712427.0, -1702.5383, 0.01079665, 0.048169896, -1659540.4, 41194.207, 0.0, 5.0182066, 4.9838195 
2.5327584e+2, 1.3143736e+2, -1610699.0, -1663490.6, -1760.6959, 0.0058244425, 0.022499925, -1610640.4, 41277.62, 0.0, 5.018181, 4.9838176 
2.5327545e+2, 1.3641867e+2, -1564005.5, -1619084.8, -1818.3835, 0.00084579515, -0.0018768909, -1563945.6, 39155.934, 0.0, 5.0181546, 4.9823146 
2.532746e+2, 1.4139809e+2, -1521930.9, -1583894.1, -3097.3596, -0.0021354705, -0.0028302204, -1521776.5, 32526.416, 0.0, 5.018059, 4.9777107 
2.5327295e+2, 1.4637615e+2, -1473075.5, -1534257.0, -3332.0645, -0.00208269, -0.0046371557, -1472894.6, 32620.87, 0.0, 5.017851, 4.978005 
2.5327128e+2, 1.5135418e+2, -1424653.8, -1485518.1, -3400.459, -0.0020767972, -0.0072911656, -1424464.4, 32263.93, 0.0, 5.017642, 4.978005 
2.532696e+2, 1.563322e+2, -1377654.0, -1439749.5, -3469.8672, -0.0020676376, -0.009508084, -1377460.8, 30480.637, 0.0, 5.0174327, 4.977011 
2.5326714e+2, 1.6130668e+2, -1337131.4, -1407417.0, -4940.984, -0.002785774, -0.0048386115, -1336785.8, 22404.11, 0.0, 5.0171947, 4.971536 
2.532631e+2, 1.6627891e+2, -1288630.9, -1358208.3, -5340.528, -0.0049595735, -0.0019725086, -1288223.3, 22239.635, 0.0, 5.0169063, 4.971706 
2.5325897e+2, 1.712512e+2, -1240368.3, -1309503.3, -5433.5137, -0.0071736444, 0.0012091281, -1239943.9, 21791.666, 0.0, 5.016617, 4.9717064 
2.5325486e+2, 1.7622347e+2, -1193235.9, -1263197.6, -5527.759, -0.009389408, 0.0047642244, -1192801.9, 20206.246, 0.0, 5.016327, 4.9709 
2.5325045e+2, 1.81192e+2, -1152657.5, -1230849.1, -6376.569, -0.010498747, 0.011767467, -1152140.9, 12176.052, 0.0, 5.0160413, 4.96537 
2.5324544e+2, 1.8615694e+2, -1103650.1, -1180763.0, -6482.1953, -0.008834261, 0.0008766917, -1103109.1, 12551.013, 0.0, 5.0157766, 4.9657974 
2.5324044e+2, 1.9112188e+2, -1055227.4, -1131938.5, -6389.616, -0.0070586074, -0.0106201675, -1054698.9, 12304.339, 0.0, 5.0155134, 4.965799 
2.5323543e+2, 1.9608682e+2, -1007690.8, -1085026.0, -6298.199, -0.0052935476, -0.021837277, -1007181.25, 11164.904, 0.0, 5.01525, 4.9651494 
2.5323007e+2, 2.0104939e+2, -966761.1, -1052131.5, -7047.5723, -0.0032527763, -0.017402124, -966183.25, 3529.3618, 0.0, 5.014934, 4.959741 
2.5322393e+2, 2.0601112e+2, -917720.3, -1000918.9, -7368.203, 0.0006973814, -0.0080156205, -917072.8, 4014.688, 0.0, 5.0144396, 4.960635 
2.5321782e+2, 2.1097295e+2, -869929.06, -952343.5, -7436.203, 0.0048490535, 0.0006858977, -869263.5, 3198.0076, 0.0, 5.01393, 4.9606385 
2.5321168e+2, 2.1593475e+2, -822794.1, -905214.06, -7505.8877, 0.008980747, 0.009466685, -822116.2, 1719.2999, 0.0, 5.01342, 4.960142 
2.532056e+2, 2.2089244e+2, -783168.5, -874811.9, -6881.2764, 0.010652465, 0.018130923, -782654.7, -7404.469, 0.0, 5.012967, 4.953851 
2.531994e+2, 2.258452e+2, -733794.7, -824078.7, -6346.694, 0.004386793, -0.0015036374, -733350.75, -6637.2627, 0.0, 5.0127025, 4.9544435 
2.5319317e+2, 2.3079795e+2, -685150.7, -775068.44, -5981.0303, -0.0025029683, -0.022145743, -684754.6, -6577.6904, 0.0, 5.012452, 4.9544444 
2.5318697e+2, 2.3575069e+2, -637152.0, -727501.94, -5619.268, -0.0093866205, -0.04296096, -636803.9, -7163.295, 0.0, 5.0122, 4.9539433 
2.5318143e+2, 2.4070191e+2, -597669.94, -698863.2, -4554.2466, -0.013746527, -0.032077864, -597465.44, -16347.106, 0.0, 5.011948, 4.946823 
2.5317782e+2, 2.4565418e+2, -546707.0, -645909.56, -4348.4097, -0.0077230986, 0.0074933236, -546516.75, -13932.208, 0.0, 5.011923, 4.948015 
2.5317436e+2, 2.5060654e+2, -497169.97, -596447.6, -4313.277, -0.0009816185, 0.045315582, -496982.94, -12933.466, 0.0, 5.011923, 4.948017 
2.53171e+2, 2.5555903e+2, -447882.75, -547555.44, -4279.143, 0.005395358, 0.08443219, -447699.38, -12186.3125, 0.0, 5.0119076, 4.94782 
2.5316703e+2, 2.605036e+2, -409228.88, -522911.0, -1368.2662, -0.00446518, 0.10582816, -409212.4, -22162.156, 0.0, 5.0119514, 4.9386845 
2.5316685e+2, 2.6543805e+2, -353740.06, -456481.6, 2557.5166, -0.017091682, -0.03619125, -353676.44, -15007.95, 0.0, 5.0108886, 4.944275 
2.5316873e+2, 2.7037206e+2, -306065.0, -407886.56, 4356.2515, -0.019070443, -0.21251217, -305878.97, -15589.696, 0.0, 5.009528, 4.9444604 
2.5317174e+2, 2.753051e+2, -258246.11, -359589.6, 5763.3813, -0.015926931, -0.4066905, -257919.4, -15999.426, 0.0, 5.0080924, 4.9446 
2.5316337e+2, 2.802489e+2, -258206.58, -432824.25, -12560.837, -0.039900325, -0.23753902, -257307.66, -63856.832, 0.0, 5.0107055, 4.90149 
2.5314623e+2, 2.851968e+2, -170846.63, -293521.56, -6287.8696, -0.047725555, 0.037102368, -170525.17, -25553.176, 0.0, 5.012938, 4.9309325 
2.531367e+2, 2.901328e+2, -124218.36, -244413.6, -4817.781, -0.02938172, 0.050873697, -124025.56, -27411.678, 0.0, 5.0121064, 4.930997 
2.531282e+2, 2.950673e+2, -77441.555, -195435.83, -3825.3633, -0.011125146, 0.044156402, -77317.67, -29047.697, 0.0, 5.0110917, 4.931061 
2.5311896e+2, 3.000049e+2, -27230.008, -109273.68, -1413.19, -0.029078394, -0.038480386, -27205.674, -27205.674, 0.0, 5.0106673, 4.953296 
2.531121e+2, 3.0496395e+2, -16485.75, -90565.83, 1978.0979, -0.13115638, -0.13777983, -16432.969, -16432.969, 0.0, 5.0121145, 4.9570537 
2.5310996e+2, 3.099378e+2, -8765.797, -79719.695, 4465.3804, -0.21985042, -0.1677171, -8485.879, -8485.879, 0.0, 5.013377, 4.9598866 
2.5311098e+2, 3.1491724e+2, -666.6111, -69260.766, 6497.1855, -0.29691038, -0.17659104, -56.627113, -56.627113, 0.0, 5.0144305, 4.9627256 
2.5829038e+2, 1.21462084e+2, -1704273.1, -1753268.9, -1044.6788, -0.027490787, -0.028996639, -1704250.9, 45424.906, 0.0, 5.01834, 4.986418 
2.582946e+2, 1.2645428e+2, -1659491.9, -1712543.3, -1668.4269, 0.0124691315, 0.054340687, -1659439.5, 41313.742, 0.0, 5.018277, 4.983746 
2.582941e+2, 1.3143529e+2, -1610586.1, -1663602.4, -1745.7335, 0.006532841, 0.02610729, -1610528.6, 41410.766, 0.0, 5.0182548, 4.9837446 
2.582936e+2, 1.3641626e+2, -1563916.6, -1619207.5, -1824.5032, 0.00057372043, -0.0008277847, -1563856.5, 39269.336, 0.0, 5.01822, 4.982242 
2.5829262e+2, 1.413954e+2, -1521906.9, -1584095.6, -3241.2847, -0.002789883, -0.0036457279, -1521738.4, 32591.148, 0.0, 5.018112, 4.9776173 
2.5829086e+2, 1.4637333e+2, -1473060.3, -1534449.9, -3492.3472, -0.0016551563, -0.0059579117, -1472862.3, 32680.664, 0.0, 5.017899, 4.977917 
2.582891e+2, 1.5135124e+2, -1424661.6, -1485722.3, -3561.6604, -0.0005157308, -0.009089121, -1424454.5, 32302.045, 0.0, 5.017682, 4.977917 
2.582873e+2, 1.5632913e+2, -1377690.1, -1439966.9, -3630.935, 0.0006209561, -0.011785294, -1377479.1, 30491.201, 0.0, 5.017463, 4.9769235 
2.5828463e+2, 1.6130355e+2, -1337240.6, -1407746.8, -5160.2544, 0.00015212645, -0.006905477, -1336865.0, 22354.537, 0.0, 5.0172167, 4.971416 
2.5828013e+2, 1.6627577e+2, -1288748.9, -1358537.6, -5568.6025, -0.0036240967, -0.0027259572, -1288307.4, 22185.918, 0.0, 5.016924, 4.9715877 
2.5827557e+2, 1.7124806e+2, -1240510.6, -1309845.1, -5659.9805, -0.0075148013, 0.0017641593, -1240051.6, 21714.928, 0.0, 5.0166254, 4.9715877 
2.58271e+2, 1.7622036e+2, -1193416.1, -1263558.1, -5750.7197, -0.01142205, 0.0066169756, -1192947.8, 20092.137, 0.0, 5.0163226, 4.970781 
2.582662e+2, 1.8118891e+2, -1152632.5, -1230689.8, -6590.7495, -0.013539174, 0.014230523, -1152079.9, 12269.036, 0.0, 5.0160193, 4.965434 
2.5826102e+2, 1.8615384e+2, -1103600.8, -1180459.9, -6685.2227, -0.010984438, 0.0020239544, -1103023.6, 12667.451, 0.0, 5.015736, 4.9659185 
2.5825584e+2, 1.9111876e+2, -1055247.1, -1131669.0, -6593.036, -0.008228271, -0.010909778, -1054682.5, 12350.785, 0.0, 5.0154495, 4.9659195 
2.5825068e+2, 1.9608368e+2, -1007793.7, -1084796.4, -6502.392, -0.00549681, -0.023569295, -1007248.44, 11126.836, 0.0, 5.0151577, 4.9652705 
2.5824505e+2, 2.0104626e+2, -967162.6, -1052489.9, -7387.8364, -0.0024395029, -0.019354174, -966527.7, 3213.4446, 0.0, 5.01483, 4.959668 
2.5823858e+2, 2.0600809e+2, -918004.3, -1001257.3, -7771.373, 0.0026563385, -0.008251087, -917285.1, 3831.5693, 0.0, 5.014383, 4.960546 
2.5823206e+2, 2.1096998e+2, -870099.1, -952625.6, -7844.6587, 0.007924932, 0.002092517, -869360.06, 3131.3696, 0.0, 5.0139127, 4.96055 
2.5822553e+2, 2.159319e+2, -822890.2, -905458.7, -7918.27, 0.013141007, 0.012488736, -822137.7, 1728.5219, 0.0, 5.0134277, 4.9600544 
2.582191e+2, 2.2088966e+2, -782789.3, -874016.6, -7185.972, 0.015533193, 0.02177825, -782226.75, -6946.137, 0.0, 5.012976, 4.9541206 
2.5821245e+2, 2.2584243e+2, -733300.8, -822808.2, -6557.268, 0.007371053, -0.0020696865, -732823.0, -6081.8384, 0.0, 5.012668, 4.954895 
2.5820577e+2, 2.3079519e+2, -684840.44, -773885.3, -6176.0913, -0.0018772295, -0.027478948, -684414.06, -6212.2476, 0.0, 5.012355, 4.954896 
2.581991e+2, 2.357479e+2, -637075.94, -726428.44, -5790.227, -0.011225596, -0.05307948, -636702.3, -7039.5723, 0.0, 5.0120215, 4.9543943 
2.581932e+2, 2.4069944e+2, -598347.44, -699027.0, -4581.9297, -0.017550863, -0.042603835, -598139.3, -17002.758, 0.0, 5.0116854, 4.9468822 
2.5818968e+2, 2.4565268e+2, -547753.56, -646561.75, -4263.315, -0.0102035655, 0.007458878, -547569.94, -14972.072, 0.0, 5.011599, 4.9479284 
2.5818637e+2, 2.5060606e+2, -498387.1, -597168.0, -4122.789, -0.0016986246, 0.056108437, -498215.3, -14157.127, 0.0, 5.0115404, 4.9479327 
2.5818312e+2, 2.5555956e+2, -449267.6, -548341.2, -3987.6526, 0.0064265206, 0.10604175, -449107.38, -13590.223, 0.0, 5.011469, 4.9477386 
2.5817958e+2, 2.6050416e+2, -410211.7, -521849.63, -476.91946, -0.0005101998, 0.12914246, -410209.66, -23153.6, 0.0, 5.011342, 4.9392505 
2.5818136e+2, 2.6543805e+2, -355444.94, -451649.16, 5214.94, 0.0052267155, -0.047809377, -355163.1, -16495.035, 0.0, 5.0092063, 4.9465456 
2.581854e+2, 2.7037162e+2, -313041.16, -405913.25, 9620.257, 0.02103258, -0.26255715, -312055.1, -21774.867, 0.0, 5.0060544, 4.9465523 
2.581904e+2, 2.7530387e+2, -272291.97, -361205.03, 14555.409, 0.038380887, -0.49550053, -269969.84, -28064.752, 0.0, 5.00219, 4.946516 
2.5818074e+2, 2.802503e+2, -290063.3, -460733.8, -883.9859, -0.010025776, -0.2854476, -290058.75, -96658.5, 0.0, 5.0022798, 4.895352 
2.5816047e+2, 2.8520146e+2, -188308.64, -301645.72, 2368.2048, -0.04176123, 0.0464224, -188259.19, -43363.56, 0.0, 5.007204, 4.9300017 
2.5814968e+2, 2.9013798e+2, -133633.31, -249721.8, 1533.3, -0.024309287, 0.06257464, -133613.06, -37072.734, 0.0, 5.009268, 4.929871 
2.5813982e+2, 2.950729e+2, -81627.78, -199160.98, 747.0166, -0.01110654, 0.05917481, -81623.04, -33422.78, 0.0, 5.010165, 4.92974 
2.5812894e+2, 3.0000728e+2, -27873.998, -109930.68, 2692.9548, -0.047602136, -0.052584626, -27785.715, -27785.715, 0.0, 5.0106063, 4.952838 
2.5812218e+2, 3.0496195e+2, -17844.73, -85392.1, 6125.8057, -0.18002696, -0.23540221, -17293.682, -17293.682, 0.0, 5.010558, 4.9590673 
2.5812036e+2, 3.0993316e+2, -20160.033, -78686.34, 7785.1963, -0.30302066, -0.3473194, -19142.146, -19142.146, 0.0, 5.008133, 4.961905 
2.5812143e+2, 3.1490916e+2, -27454.666, -74617.37, 7948.0454, -0.42398876, -0.44837523, -26151.25, -26151.25, 0.0, 5.0035634, 4.9647384 
2.633099e+2, 1.2145996e+2, -1700525.8, -1751280.5, -774.5526, -0.021896327, -0.031236764, -1700513.9, 49183.63, 0.0, 5.0195518, 4.9864755 
2.6331338e+2, 1.2645286e+2, -1656195.5, -1711377.4, -1438.7167, 0.011245336, 0.06098438, -1656158.0, 44609.258, 0.0, 5.019473, 4.983543 
2.6331285e+2, 1.3143331e+2, -1607590.8, -1662592.5, -1670.6411, 0.0053473897, 0.029072726, -1607540.0, 44418.85, 0.0, 5.019354, 4.98354 
2.6331225e+2, 1.364137e+2, -1561184.5, -1618332.9, -1901.6003, -0.00044071383, -0.0015868512, -1561121.4, 42029.453, 0.0, 5.0192337, 4.9820375 
2.6331112e+2, 1.4139242e+2, -1519237.6, -1583077.3, -3522.9639, -0.0036030049, -0.0067191203, -1519043.8, 35314.426, 0.0, 5.019068, 4.977491 
2.6330918e+2, 1.4637038e+2, -1470585.0, -1533508.9, -3843.642, -0.0020808396, -0.00779242, -1470351.0, 35220.594, 0.0, 5.0187883, 4.9777994 
2.633072e+2, 1.513483e+2, -1422398.5, -1484884.6, -3961.2844, -0.0004967623, -0.0095142815, -1422148.4, 34636.816, 0.0, 5.018502, 4.9778004 
2.6330525e+2, 1.563262e+2, -1375631.5, -1439227.6, -4079.7878, 0.0011046632, -0.010788014, -1375370.8, 32628.02, 0.0, 5.018216, 4.976808 
2.6330227e+2, 1.6130057e+2, -1335391.4, -1407107.8, -5689.6665, 0.0010048458, -0.0052606985, -1334942.8, 24305.826, 0.0, 5.0178976, 4.9713035 
2.6329747e+2, 1.6627257e+2, -1287143.0, -1358019.9, -6100.38, -0.0026829687, -0.0022274754, -1286621.9, 23902.959, 0.0, 5.0175242, 4.9714746 
2.6329258e+2, 1.7124464e+2, -1239133.0, -1309436.4, -6189.386, -0.006469753, 0.0010619693, -1238592.3, 23208.291, 0.0, 5.0171494, 4.971476 
2.6328766e+2, 1.762167e+2, -1192251.3, -1263250.4, -6278.6147, -0.010241587, 0.0047264816, -1191700.3, 21376.02, 0.0, 5.016774, 4.97067 
2.632825e+2, 1.8118519e+2, -1151492.3, -1229980.1, -7133.613, -0.012272829, 0.011984598, -1150849.3, 13536.796, 0.0, 5.0163755, 4.9655056 
2.6327693e+2, 1.8615034e+2, -1102885.4, -1179844.3, -7236.695, -0.0098783765, 0.0010863983, -1102210.8, 13514.442, 0.0, 5.015925, 4.9660387 
2.632714e+2, 1.9111553e+2, -1055019.4, -1131286.6, -7155.232, -0.0072546755, -0.010469902, -1054353.9, 12710.39, 0.0, 5.0154715, 4.9660397 
2.6326582e+2, 1.960807e+2, -1008036.06, -1084637.4, -7074.9434, -0.004606606, -0.02171572, -1007388.06, 11015.124, 0.0, 5.0150175, 4.96539 
2.632598e+2, 2.0104338e+2, -967956.3, -1053050.4, -7960.1216, -0.0018205252, -0.017008785, -967218.06, 2549.984, 0.0, 5.0145926, 4.959587 
2.6325285e+2, 2.06005e+2, -918612.56, -1001899.25, -8413.954, 0.0025605499, -0.0064914487, -917771.06, 3376.0115, 0.0, 5.0142455, 4.960389 
2.632459e+2, 2.1096672e+2, -870339.56, -953085.8, -8575.081, 0.0072554722, 0.0034859823, -869460.25, 3064.9854, 0.0, 5.0139027, 4.960396 
2.6323897e+2, 2.1592845e+2, -822725.9, -905721.8, -8738.774, 0.012057252, 0.013643109, -821815.75, 2087.5903, 0.0, 5.013559, 4.959903 
2.6323208e+2, 2.2088626e+2, -781968.1, -873066.5, -8131.664, 0.0147735765, 0.023431292, -781248.0, -5929.9844, 0.0, 5.013152, 4.954366 
2.632251e+2, 2.258394e+2, -733239.5, -821760.75, -7554.068, 0.008097898, -0.0009013247, -732599.5, -5826.783, 0.0, 5.0124907, 4.955334 
2.6321808e+2, 2.3079251e+2, -685834.6, -773306.56, -7231.579, 0.00049698405, -0.027285164, -685240.75, -7013.3228, 0.0, 5.011806, 4.955341 
2.632111e+2, 2.3574561e+2, -639065.06, -726289.7, -6916.5044, -0.0070230174, -0.053956512, -638520.0, -8837.634, 0.0, 5.0111203, 4.954846 
2.6320484e+2, 2.4069737e+2, -601856.4, -699710.25, -5698.4155, -0.011562446, -0.04560744, -601525.7, -20372.9, 0.0, 5.010297, 4.947249 
2.6320088e+2, 2.4565089e+2, -553619.44, -648630.94, -5206.3843, -0.0036285066, 0.004904931, -553335.0, -20719.574, 0.0, 5.009451, 4.9481406 
2.6319715e+2, 2.5060472e+2, -506347.97, -600180.94, -4892.51, 0.005818731, 0.055988792, -506093.56, -22017.484, 0.0, 5.0086393, 4.948145 
2.6319355e+2, 2.5555876e+2, -459310.75, -552287.06, -4598.23, 0.015441798, 0.10954816, -459083.88, -23549.602, 0.0, 5.00781, 4.947951 
2.631899e+2, 2.6050436e+2, -420917.5, -522725.53, -1560.9507, 0.014818127, 0.13734752, -420893.56, -33828.004, 0.0, 5.0068493, 4.94086 
2.6319253e+2, 2.6544145e+2, -365673.63, -447244.1, -301.4558, 0.045873947, -0.033962984, -365672.5, -27031.207, 0.0, 5.004193, 4.950065 
2.631975e+2, 2.7037966e+2, -322134.97, -398442.1, -1411.6312, 0.093441986, -0.23988037, -322108.84, -31907.074, 0.0, 5.0012236, 4.9508853 
2.6320362e+2, 2.7531785e+2, -278413.88, -349944.0, -2913.0696, 0.14729764, -0.46063125, -278295.44, -36533.12, 0.0, 4.9981933, 4.9516587 
2.6319507e+2, 2.8026882e+2, -285127.7, -451002.06, -12990.248, 0.10890547, -0.26505843, -284116.53, -90907.41, 0.0, 5.0022836, 4.8992715 
2.631743e+2, 2.852167e+2, -188725.4, -312480.38, -3499.9526, 0.03257357, 0.052635137, -188626.5, -43883.883, 0.0, 5.0080056, 4.9273167 
2.6316276e+2, 2.9014978e+2, -137135.23, -259773.9, -2413.81, 0.019936211, 0.07385728, -137087.73, -40660.027, 0.0, 5.00889, 4.927712 
2.6315233e+2, 2.950814e+2, -85418.55, -207260.5, -1819.4635, 0.010883925, 0.07161412, -85391.38, -37264.473, 0.0, 5.009604, 4.9281073 
2.6314166e+2, 3.00014e+2, -27184.916, -106361.54, -353.5638, -0.036174253, -0.03939617, -27183.338, -27183.338, 0.0, 5.0104337, 4.954876 
2.631379e+2, 3.049703e+2, -11977.933, -73962.15, -1489.508, -0.1431976, -0.20991822, -11942.16, -11942.16, 0.0, 5.0119224, 4.9634247 
2.6314008e+2, 3.0994642e+2, -4552.485, -62711.434, -1937.6111, -0.2205836, -0.27147925, -4488.0034, -4488.0034, 0.0, 5.0133567, 4.966459 
2.6314563e+2, 3.149308e+2, 3339.2078, -51927.15, -2215.5596, -0.27975997, -0.28115216, 3427.8845, 3427.8845, 0.0, 5.0146112, 4.969501 
2.6833072e+2, 1.21457726e+2, -1699916.0, -1750055.6, -605.9702, -0.009502333, -0.03658817, -1699908.8, 49811.6, 0.0, 5.0195537, 4.986878 
2.6833254e+2, 1.2645166e+2, -1656610.9, -1712257.1, -1532.3964, 0.007924419, 0.06818554, -1656568.8, 44209.86, 0.0, 5.0194774, 4.9832535 
2.6833194e+2, 1.3143136e+2, -1608002.0, -1663464.5, -1761.1161, 0.0029721118, 0.031783797, -1607946.1, 44031.125, 0.0, 5.0193577, 4.983252 
2.6833135e+2, 1.3641101e+2, -1561591.1, -1619195.9, -1988.5201, -0.0019258324, -0.0033693851, -1561522.5, 41653.72, 0.0, 5.0192375, 4.9817514 
2.683301e+2, 1.4138927e+2, -1519461.4, -1583550.6, -3712.284, -0.004650348, -0.011076099, -1519247.1, 35141.387, 0.0, 5.0190697, 4.9773345 
2.683279e+2, 1.4636728e+2, -1470791.1, -1533945.8, -4062.2957, -0.0031218424, -0.009887761, -1470531.0, 35070.54, 0.0, 5.01879, 4.9776554 
2.6832563e+2, 1.513453e+2, -1422603.1, -1485320.5, -4178.7573, -0.0015103272, -0.009128226, -1422325.9, 34488.605, 0.0, 5.0185037, 4.9776564 
2.6832336e+2, 1.563233e+2, -1375834.1, -1439661.8, -4295.9316, 0.000110370405, -0.007926819, -1375546.3, 32481.305, 0.0, 5.0182176, 4.976664 
2.6832014e+2, 1.6129762e+2, -1335545.9, -1407444.8, -5970.163, 0.0003980318, -0.0014895282, -1335053.5, 24224.441, 0.0, 5.0179, 4.97119 
2.6831505e+2, 1.6626927e+2, -1287291.4, -1358342.6, -6388.7886, -0.0022161438, -0.0010144038, -1286721.5, 23836.023, 0.0, 5.017526, 4.9713655 
2.6830986e+2, 1.7124096e+2, -1239282.4, -1309758.8, -6475.7744, -0.004933228, -0.0003935543, -1238692.3, 23144.525, 0.0, 5.0171504, 4.971367 
2.683047e+2, 1.7621267e+2, -1192401.6, -1263572.4, -6562.936, -0.007652576, 0.0006168512, -1191801.5, 21314.541, 0.0, 5.0167747, 4.970561 
2.6829922e+2, 1.8118101e+2, -1151391.1, -1229772.1, -7468.0635, -0.00906127, 0.0070162406, -1150685.9, 13740.898, 0.0, 5.0163765, 4.9655766 
2.682931e+2, 1.8614657e+2, -1102713.1, -1179488.6, -7581.4517, -0.0073308405, -0.0010236094, -1101971.6, 13790.225, 0.0, 5.0159264, 4.96616 
2.6828706e+2, 1.9111215e+2, -1054847.5, -1130933.4, -7496.7607, -0.0054757623, -0.009629099, -1054115.9, 12980.655, 0.0, 5.0154734, 4.966161 
2.6828095e+2, 1.9607775e+2, -1007864.56, -1084286.4, -7413.1973, -0.0036209475, -0.017927287, -1007152.1, 11279.058, 0.0, 5.01502, 4.965511 
2.6827443e+2, 2.0104057e+2, -968070.56, -1053305.1, -8251.328, -0.0019065194, -0.012263943, -967279.1, 2515.6597, 0.0, 5.0145936, 4.9595013 
2.6826698e+2, 2.0600183e+2, -918865.94, -1002465.1, -8674.424, 0.00092749856, -0.0035419243, -917975.3, 3203.408, 0.0, 5.0142474, 4.960197 
2.682595e+2, 2.1096317e+2, -870585.25, -953650.7, -8830.447, 0.0040320395, 0.004725737, -869656.9, 2905.2253, 0.0, 5.0139065, 4.9602027 
2.6825204e+2, 2.1592453e+2, -822963.94, -906285.8, -8989.012, 0.0071942895, 0.013114975, -822005.2, 1940.2163, 0.0, 5.013565, 4.9597087 
2.682447e+2, 2.208823e+2, -781681.25, -872461.25, -8570.009, 0.009433405, 0.023091938, -780879.25, -5517.957, 0.0, 5.0131555, 4.9545712 
2.682374e+2, 2.2583605e+2, -732661.25, -820527.3, -8052.801, 0.0062491326, 0.00089556933, -731929.3, -5121.319, 0.0, 5.0124955, 4.9557548 
2.6823014e+2, 2.3078978e+2, -685251.56, -772088.0, -7716.2334, 0.002373791, -0.023742775, -684571.25, -6316.667, 0.0, 5.011815, 4.955757 
2.6822284e+2, 2.3574346e+2, -638477.1, -725085.75, -7387.0215, -0.0014951141, -0.048704434, -637851.56, -8150.1904, 0.0, 5.0111327, 4.955258 
2.6821622e+2, 2.4069554e+2, -601172.4, -698431.7, -6296.5923, -0.0029837221, -0.04197262, -600766.44, -19598.563, 0.0, 5.0103273, 4.947687 
2.682113e+2, 2.456488e+2, -553057.06, -647759.1, -5857.52, 0.0042432947, 0.0028640695, -552696.1, -20059.37, 0.0, 5.0094976, 4.948439 
2.6820657e+2, 2.5060233e+2, -505762.7, -599330.06, -5519.3657, 0.012226689, 0.04862375, -505438.25, -21334.072, 0.0, 5.008694, 4.9484344 
2.6820195e+2, 2.555561e+2, -458702.5, -551457.1, -5200.7695, 0.020128606, 0.09667207, -458411.8, -22842.455, 0.0, 5.0078745, 4.948231 
2.681975e+2, 2.605024e+2, -419533.63, -520788.56, -2439.5986, 0.02011425, 0.12685116, -419474.88, -32378.074, 0.0, 5.006995, 4.9415693 
2.6819927e+2, 2.654426e+2, -363568.56, -445789.56, -1063.917, 0.054581594, -0.01032063, -363554.8, -24913.93, 0.0, 5.004621, 4.9506626 
2.6820326e+2, 2.703836e+2, -319286.34, -397320.4, -1674.2333, 0.10187501, -0.18243529, -319250.47, -29078.156, 0.0, 5.0019264, 4.9512906 
2.6820824e+2, 2.7532408e+2, -274822.13, -349156.84, -2674.7856, 0.1515716, -0.3732067, -274726.03, -33017.156, 0.0, 4.9991703, 4.9518723 
2.682004e+2, 2.8027377e+2, -277057.56, -428460.84, -10619.269, 0.10639502, -0.22761996, -276316.34, -83148.734, 0.0, 5.001769, 4.907104 
2.681821e+2, 2.852195e+2, -194297.48, -312569.88, -3790.7747, 0.03761023, 0.04173585, -194176.11, -49448.3, 0.0, 5.0063305, 4.927681 
2.6817197e+2, 2.901523e+2, -141992.22, -260289.94, -2086.4302, 0.031023398, 0.07047747, -141955.44, -45533.516, 0.0, 5.0074553, 4.927867 
2.6816282e+2, 2.950834e+2, -89561.914, -208203.34, -875.29224, 0.022211164, 0.07370664, -89555.45, -41422.277, 0.0, 5.0084095, 4.928053 
2.6815382e+2, 3.000176e+2, -28627.117, -103804.52, 1137.7518, -0.023851447, -0.016360018, -28609.9, -28609.9, 0.0, 5.009551, 4.9559345 
2.6815325e+2, 3.049749e+2, -11797.78, -69096.61, 1604.4181, -0.11984682, -0.17319496, -11752.891, -11752.891, 0.0, 5.0112524, 4.9655004 
2.6815832e+2, 3.0995008e+2, -3532.4521, -55996.18, 2554.1309, -0.19716124, -0.2427653, -3408.4006, -3408.4006, 0.0, 5.012771, 4.9690075 
2.681664e+2, 3.1493342e+2, 5193.3687, -43362.004, 3673.9614, -0.26757148, -0.26971123, 5469.7866, 5469.7866, 0.0, 5.014111, 4.972524 
2.7335158e+2, 1.21455416e+2, -1699215.9, -1748643.9, -431.28577, 0.0034764775, -0.04254977, -1699212.0, 50531.81, 0.0, 5.0195556, 4.987341 
2.7335173e+2, 1.2645046e+2, -1657027.4, -1713136.3, -1627.5798, 0.0046813753, 0.07550393, -1656980.1, 43809.707, 0.0, 5.019481, 4.9829636 
2.7335107e+2, 1.3142942e+2, -1608414.4, -1664336.0, -1853.0948, 0.00064149447, 0.034577332, -1608353.0, 43642.645, 0.0, 5.0193615, 4.982964 
2.7335045e+2, 1.3640834e+2, -1561998.6, -1620058.3, -2076.943, -0.0033994913, -0.0051042307, -1561924.5, 41277.215, 0.0, 5.0192413, 4.9814653 
2.7334905e+2, 1.4138609e+2, -1519694.1, -1584042.0, -3904.3154, -0.005705595, -0.015390942, -1519458.1, 34960.54, 0.0, 5.019071, 4.977172 
2.7334654e+2, 1.4636418e+2, -1470997.6, -1534382.6, -4280.6953, -0.004162244, -0.011960255, -1470709.9, 34921.484, 0.0, 5.0187907, 4.977511 
2.73344e+2, 1.513423e+2, -1422807.9, -1485756.1, -4395.976, -0.0025173416, -0.008748035, -1422502.4, 34341.39, 0.0, 5.018505, 4.977512 
2.7334148e+2, 1.5632041e+2, -1376037.0, -1440095.9, -4511.822, -0.00087142293, -0.0051001958, -1375720.8, 32335.553, 0.0, 5.018219, 4.97652 
2.73338e+2, 1.6129468e+2, -1335712.4, -1407806.1, -6250.0405, -0.00020716764, 0.0023264326, -1335174.5, 24132.836, 0.0, 5.017902, 4.9710684 
2.7333263e+2, 1.6626596e+2, -1287440.3, -1358665.1, -6677.6343, -0.0017482943, 0.00023469984, -1286819.5, 23770.77, 0.0, 5.0175276, 4.9712563 
2.7332717e+2, 1.7123729e+2, -1239432.1, -1310080.9, -6762.5996, -0.0033920265, -0.0018568942, -1238790.6, 23082.438, 0.0, 5.0171514, 4.9712577 
2.7332175e+2, 1.762086e+2, -1192552.4, -1263894.1, -6847.6943, -0.0050552385, -0.0035444328, -1191901.1, 21254.713, 0.0, 5.016775, 4.970452 
2.733159e+2, 1.8117684e+2, -1151307.8, -1229601.0, -7800.9175, -0.0058552143, 0.0021014384, -1150538.0, 13929.5205, 0.0, 5.0163774, 4.965635 
2.7330932e+2, 1.861428e+2, -1102541.5, -1179132.6, -7925.4604, -0.004789035, -0.003091643, -1101730.0, 14068.456, 0.0, 5.015928, 4.966281 
2.733027e+2, 1.911088e+2, -1054676.3, -1130579.8, -7837.5415, -0.0036967988, -0.0088141365, -1053875.5, 13253.366, 0.0, 5.0154753, 4.966281 
2.732961e+2, 1.9607478e+2, -1007693.75, -1083935.0, -7750.703, -0.0026294603, -0.014232489, -1006913.75, 11545.391, 0.0, 5.0150223, 4.9656305 
2.73289e+2, 2.0103776e+2, -968206.25, -1053604.9, -8545.31, -0.0019722865, -0.0073969667, -967359.56, 2461.7698, 0.0, 5.0145946, 4.9593997 
2.7328107e+2, 2.0599867e+2, -919120.3, -1003030.44, -8933.285, -0.0006586814, -0.0004623266, -918179.75, 3030.5396, 0.0, 5.0142493, 4.9600043 
2.732731e+2, 2.1095966e+2, -870831.94, -954215.0, -9084.206, 0.0008770304, 0.0059810258, -869853.7, 2745.1824, 0.0, 5.013911, 4.9600086 
2.7326515e+2, 2.1592063e+2, -823203.0, -906849.2, -9237.64, 0.0024212962, 0.012487875, -822194.94, 1792.5388, 0.0, 5.0135713, 4.9595137 
2.7325734e+2, 2.2087833e+2, -781459.06, -871994.4, -9009.31, 0.0040512844, 0.02287599, -780571.2, -5166.58, 0.0, 5.0131593, 4.9547276 
2.7324978e+2, 2.258327e+2, -732085.9, -819292.25, -8544.01, 0.004351993, 0.002682668, -731256.7, -4413.268, 0.0, 5.012501, 4.956172 
2.732422e+2, 2.3078702e+2, -684671.4, -770867.8, -8193.364, 0.0042644013, -0.02053592, -683899.44, -5617.5796, 0.0, 5.011824, 4.9561706 
2.7323464e+2, 2.3574129e+2, -637892.0, -723880.2, -7850.0146, 0.004108734, -0.044113535, -637181.25, -7460.5186, 0.0, 5.0111456, 4.955667 
2.732276e+2, 2.406938e+2, -600590.1, -697335.5, -6872.2197, 0.0056467117, -0.03765195, -600104.44, -18922.086, 0.0, 5.0103574, 4.9480567 
2.7322176e+2, 2.4564683e+2, -552521.2, -646861.6, -6496.389, 0.012103005, 0.002057482, -552075.94, -19418.938, 0.0, 5.009544, 4.9487357 
2.7321607e+2, 2.5060007e+2, -505203.9, -598453.5, -6133.946, 0.018567977, 0.042118005, -504802.16, -20670.768, 0.0, 5.0087495, 4.948722 
2.732104e+2, 2.555535e+2, -458120.78, -550601.44, -5791.0225, 0.024694221, 0.084280446, -457759.56, -22155.75, 0.0, 5.0079384, 4.9485097 
2.7320504e+2, 2.605e+2, -418784.8, -520080.75, -3118.5342, 0.023319129, 0.114112556, -418688.9, -31556.143, 0.0, 5.0071416, 4.9417815 
2.732063e+2, 2.6544276e+2, -361569.94, -444250.38, -1516.4723, 0.06087544, 0.00190742, -361542.16, -22891.738, 0.0, 5.0050497, 4.951128 
2.7320966e+2, 2.7038622e+2, -316543.56, -396111.53, -1626.3925, 0.10870648, -0.14550237, -316510.3, -26354.816, 0.0, 5.0026298, 4.951565 
2.7321392e+2, 2.7532867e+2, -271335.72, -348279.88, -2125.5288, 0.15505269, -0.31539035, -271277.06, -29606.213, 0.0, 5.000148, 4.951955 
2.7320522e+2, 2.80279e+2, -274017.38, -417485.22, -10764.038, 0.10256688, -0.18312633, -273214.28, -80091.14, 0.0, 5.0012655, 4.9109282 
2.7318814e+2, 2.8522408e+2, -200142.58, -312396.13, -3697.0955, 0.041624945, 0.06618407, -200020.94, -55325.906, 0.0, 5.004656, 4.9279475 
2.7317977e+2, 2.9015642e+2, -147120.05, -260543.23, -1375.1832, 0.042302042, 0.09402111, -147103.38, -50702.746, 0.0, 5.006021, 4.927924 
2.7317223e+2, 2.950867e+2, -93973.96, -208883.94, 452.06912, 0.03494137, 0.09429969, -93972.18, -45845.766, 0.0, 5.0072155, 4.927901 
2.731648e+2, 3.0002004e+2, -31993.518, -104875.49, 2629.868, -0.01468325, 0.0026480735, -31898.746, -31898.746, 0.0, 5.008668, 4.9555163 
2.7316657e+2, 3.0497545e+2, -11902.776, -63972.8, 4084.211, -0.114367664, -0.17771688, -11584.371, -11584.371, 0.0, 5.010581, 4.967279 
2.7317378e+2, 3.0994847e+2, -2801.0007, -49032.23, 6425.2183, -0.20461115, -0.28602508, -1924.636, -1924.636, 0.0, 5.012184, 4.971257 
2.7318355e+2, 3.1492963e+2, 6754.477, -34558.387, 8934.5, -0.29922938, -0.36094546, 8603.899, 8603.899, 0.0, 5.013609, 4.9752464 
2.783725e+2, 1.21453024e+2, -1698517.4, -1747103.1, -324.22018, 0.01681403, -0.048974123, -1698515.3, 51252.848, 0.0, 5.019532, 4.987858 
2.7837092e+2, 1.2644923e+2, -1657390.0, -1713973.1, -1773.2959, 0.0017043023, 0.08252355, -1657334.5, 43467.01, 0.0, 5.0195026, 4.982678 
2.7837023e+2, 1.3142744e+2, -1608673.0, -1665118.4, -1964.1694, -0.0015434456, 0.03723209, -1608604.8, 43409.39, 0.0, 5.019416, 4.982679 
2.7836958e+2, 1.3640566e+2, -1562194.0, -1620805.3, -2157.479, -0.004810281, -0.0068143294, -1562114.8, 41112.36, 0.0, 5.0193152, 4.981182 
2.7836806e+2, 1.4138293e+2, -1519720.0, -1584445.6, -4076.879, -0.0067257513, -0.019557275, -1519464.3, 34984.49, 0.0, 5.0191455, 4.977003 
2.7836525e+2, 1.463611e+2, -1471019.3, -1534731.4, -4487.6416, -0.005161949, -0.013937865, -1470704.6, 34956.46, 0.0, 5.018855, 4.977365 
2.7836242e+2, 1.5133929e+2, -1422863.6, -1486121.4, -4613.4854, -0.0034784328, -0.008338422, -1422528.9, 34344.14, 0.0, 5.0185575, 4.977366 
2.7835962e+2, 1.5631749e+2, -1376132.6, -1440479.5, -4739.5767, -0.001798395, -0.002305535, -1375785.4, 32299.662, 0.0, 5.0182576, 4.976374 
2.7835584e+2, 1.6129173e+2, -1335805.8, -1408145.5, -6540.148, -0.00077756844, 0.006166635, -1335219.3, 24117.537, 0.0, 5.0179324, 4.9709406 
2.7835017e+2, 1.6626267e+2, -1287484.4, -1358932.3, -6962.4233, -0.0012798144, 0.0015146211, -1286812.3, 23810.838, 0.0, 5.0175643, 4.971148 
2.7834448e+2, 1.7123361e+2, -1239465.9, -1310343.3, -7032.6123, -0.0018686177, -0.003316118, -1238774.8, 23134.553, 0.0, 5.017192, 4.9711494 
2.783388e+2, 1.7620456e+2, -1192586.4, -1264156.8, -7104.858, -0.002481874, -0.0077297622, -1191888.0, 21307.598, 0.0, 5.016815, 4.970343 
2.7833262e+2, 1.8117268e+2, -1151148.4, -1229425.4, -8105.1694, -0.0026809333, -0.0027322338, -1150317.9, 14190.381, 0.0, 5.016412, 4.965678 
2.783255e+2, 1.8613902e+2, -1102320.8, -1178758.4, -8271.039, -0.0022482935, -0.005098785, -1101436.0, 14399.02, 0.0, 5.0159483, 4.9663982 
2.7831835e+2, 1.9110543e+2, -1054512.0, -1130233.9, -8210.281, -0.0018663964, -0.008014139, -1053632.0, 13529.199, 0.0, 5.0154767, 4.9663982 
2.7831122e+2, 1.9607182e+2, -1007600.0, -1083623.6, -8150.1396, -0.0015195752, -0.01062968, -1006736.06, 11751.197, 0.0, 5.0150003, 4.9657474 
2.7830362e+2, 2.0103498e+2, -968472.1, -1053993.1, -8907.759, -0.0018574268, -0.002441055, -967554.1, 2293.8572, 0.0, 5.0145574, 4.9592853 
2.782952e+2, 2.0599551e+2, -919471.5, -1003632.25, -9221.527, -0.0020475844, 0.0026996608, -918472.94, 2768.8882, 0.0, 5.014218, 4.9598136 
2.7828676e+2, 2.1095613e+2, -871192.4, -954822.5, -9332.674, -0.0020455995, 0.0072377347, -870163.56, 2471.9958, 0.0, 5.0138755, 4.959817 
2.782783e+2, 2.1591674e+2, -823600.75, -907474.94, -9445.787, -0.0020570196, 0.011822361, -822550.1, 1479.2073, 0.0, 5.0135226, 4.9593215 
2.7826998e+2, 2.2087437e+2, -781501.6, -871761.0, -9389.14, -0.0011315899, 0.022892611, -780535.3, -5087.556, 0.0, 5.013096, 4.954834 
2.782621e+2, 2.2582933e+2, -731730.56, -818160.94, -9032.908, 0.0025959245, 0.0045109047, -730796.6, -3917.7773, 0.0, 5.0124345, 4.956583 
2.7825427e+2, 2.3078422e+2, -684373.9, -769767.5, -8723.928, 0.0063346266, -0.017708804, -683491.75, -5182.2144, 0.0, 5.011739, 4.956581 
2.7824646e+2, 2.3573908e+2, -637703.3, -722833.06, -8401.755, 0.009966827, -0.04036177, -636882.06, -7141.416, 0.0, 5.0110235, 4.9560766 
2.7823904e+2, 2.4069205e+2, -600648.06, -696588.6, -7507.048, 0.014558846, -0.033048667, -600064.2, -18867.65, 0.0, 5.0102024, 4.948374 
2.7823234e+2, 2.4564496e+2, -552466.7, -646061.2, -7125.5864, 0.020379491, 0.0021639895, -551927.3, -19251.035, 0.0, 5.009443, 4.9490447 
2.7822566e+2, 2.5059792e+2, -504926.78, -597592.6, -6671.667, 0.025629371, 0.03659647, -504448.9, -20291.639, 0.0, 5.008738, 4.9490194 
2.7821904e+2, 2.5555113e+2, -457553.47, -549648.4, -6249.683, 0.030427238, 0.0732435, -457131.28, -21495.041, 0.0, 5.0080442, 4.948796 
2.7821276e+2, 2.604973e+2, -419133.22, -520388.88, -3194.411, 0.026986238, 0.1006436, -419032.53, -31861.686, 0.0, 5.007124, 4.9416475 
2.7821395e+2, 2.6544228e+2, -366096.6, -444534.7, 17.84794, 0.07207217, 0.0035082854, -366096.6, -27430.863, 0.0, 5.003171, 4.9517894 
2.7821743e+2, 2.7038833e+2, -330096.0, -400612.22, 2634.117, 0.12850982, -0.12886205, -329997.75, -39853.637, 0.0, 4.997542, 4.9521637 
2.7822173e+2, 2.7533302e+2, -297304.47, -358452.53, 5793.0713, 0.18177551, -0.2871922, -296760.47, -55124.438, 0.0, 4.9906425, 4.952491 
2.7821082e+2, 2.8028625e+2, -315634.66, -435620.78, -2379.8086, 0.1292682, -0.13247722, -315587.5, -122528.06, 0.0, 4.9868913, 4.9108343 
2.7819338e+2, 2.8523183e+2, -230858.16, -324452.1, 5451.517, 0.065774836, 0.12538004, -230541.69, -85909.61, 0.0, 4.99444, 4.927688 
2.7818677e+2, 2.901629e+2, -163983.58, -266663.72, 5244.6763, 0.06482283, 0.14392334, -163716.39, -67360.266, 0.0, 5.0006475, 4.927601 
2.7818096e+2, 2.950916e+2, -101663.82, -211172.3, 5477.003, 0.053596143, 0.13137163, -101390.57, -53287.17, 0.0, 5.005071, 4.9275126 
2.7817488e+2, 3.000213e+2, -37270.832, -109012.336, 6526.733, -0.006430218, 0.01353753, -36681.89, -36681.89, 0.0, 5.007825, 4.953868 
2.7817824e+2, 3.049724e+2, -21457.746, -61715.598, 8492.828, -0.11804384, -0.2233942, -19739.434, -19739.434, 0.0, 5.006661, 4.9690895 
2.7818736e+2, 3.099433e+2, -30252.467, -53079.707, 11199.178, -0.22008215, -0.38832843, -25675.705, -25675.705, 0.0, 5.0016108, 4.9734883 
2.7819902e+2, 3.1492278e+2, -47414.746, -48636.61, 12870.525, -0.33063596, -0.5206573, -35140.66, -35140.66, 0.0, 4.9931836, 4.977893 
2.833924e+2, 1.2145109e+2, -1695134.3, -1745175.0, -319.2909, 0.014935127, -0.048265073, -1695132.1, 54653.39, 0.0, 5.0206003, 4.987965 
2.8339127e+2, 1.2644611e+2, -1654391.1, -1712902.0, -2028.1328, 0.004562125, 0.072963536, -1654320.9, 46509.05, 0.0, 5.0205903, 4.9824953 
2.8339037e+2, 1.314245e+2, -1605573.4, -1664007.3, -2150.6035, 0.00004684864, 0.03108794, -1605494.3, 46546.914, 0.0, 5.0205417, 4.9824944 
2.8338957e+2, 1.3640286e+2, -1558951.1, -1619631.6, -2271.0837, -0.004333364, -0.009533746, -1558866.3, 44386.383, 0.0, 5.020492, 4.9809957 
2.833878e+2, 1.4138022e+2, -1516462.4, -1583301.0, -4325.737, -0.0068381694, -0.019600898, -1516183.5, 38290.355, 0.0, 5.0203342, 4.9768057 
2.8338468e+2, 1.4635828e+2, -1468044.3, -1533757.8, -4840.317, -0.005307795, -0.012898951, -1467689.6, 37998.56, 0.0, 5.0199575, 4.9771557 
2.833815e+2, 1.5133637e+2, -1420153.3, -1485279.5, -5036.671, -0.003648363, -0.0062536397, -1419766.0, 37136.023, 0.0, 5.019573, 4.977157 
2.8337836e+2, 1.5631445e+2, -1373677.5, -1439763.6, -5233.2026, -0.001979381, 0.0008408673, -1373265.6, 34850.344, 0.0, 5.0191894, 4.9761662 
2.833742e+2, 1.6128854e+2, -1333387.9, -1407143.6, -7088.7334, -0.0009712288, 0.009359271, -1332712.8, 26656.783, 0.0, 5.0187874, 4.9708652 
2.8336817e+2, 1.6625923e+2, -1285176.6, -1357911.6, -7459.547, -0.0013828628, 0.0026385102, -1284419.5, 26238.139, 0.0, 5.0183687, 4.971106 
2.833621e+2, 1.7122991e+2, -1237301.0, -1309398.6, -7475.284, -0.0018236019, -0.004328674, -1236534.0, 25411.56, 0.0, 5.01795, 4.971106 
2.83356e+2, 1.7620063e+2, -1190552.3, -1263282.0, -7490.951, -0.002241628, -0.010881822, -1189788.8, 23444.8, 0.0, 5.0175314, 4.970299 
2.8334942e+2, 1.8116863e+2, -1149376.6, -1228729.0, -8587.931, -0.002157239, -0.0064191995, -1148457.9, 16089.147, 0.0, 5.01705, 4.965614 
2.8334183e+2, 1.8613517e+2, -1100968.0, -1178233.8, -8957.883, -0.0012574611, -0.006144495, -1099943.0, 15929.27, 0.0, 5.016438, 4.966347 
2.8333417e+2, 1.9110179e+2, -1053579.9, -1129908.8, -9088.646, -0.00033687497, -0.0063687856, -1052512.6, 14684.454, 0.0, 5.015823, 4.966348 
2.8332654e+2, 1.960684e+2, -1007070.9, -1083489.1, -9220.687, 0.00061296986, -0.006306421, -1005974.06, 12547.595, 0.0, 5.0152073, 4.9656987 
2.8331846e+2, 2.0103157e+2, -968096.94, -1053742.3, -9925.729, 0.0003637478, 0.0021982703, -966961.6, 2920.8179, 0.0, 5.0146704, 4.95932 
2.8330952e+2, 2.0599183e+2, -919320.56, -1003565.3, -10019.662, -0.0011742589, 0.004297972, -918145.3, 3133.5742, 0.0, 5.014271, 4.9598136 
2.8330058e+2, 2.1095216e+2, -871209.4, -954826.94, -9941.499, -0.0024725965, 0.00611443, -870043.7, 2631.2983, 0.0, 5.0138707, 4.959819 
2.8329164e+2, 2.159125e+2, -823756.6, -907537.0, -9865.039, -0.0036567736, 0.008169522, -822610.75, 1460.158, 0.0, 5.01347, 4.959325 
2.832828e+2, 2.2087015e+2, -781719.44, -871824.2, -9878.742, -0.0034280822, 0.01925884, -780649.06, -5159.742, 0.0, 5.0130153, 4.9548507 
2.8327435e+2, 2.2582565e+2, -732093.44, -818126.6, -9973.059, 0.0016347461, 0.0056621777, -730952.5, -4036.2783, 0.0, 5.0122733, 4.9566655 
2.8326598e+2, 2.307811e+2, -684934.4, -769773.25, -10117.673, 0.007104519, -0.012013812, -683744.44, -5401.7407, 0.0, 5.0115013, 4.95668 
2.8325763e+2, 2.3573647e+2, -638406.6, -722857.44, -10272.974, 0.012632083, -0.030399717, -637174.94, -7405.3374, 0.0, 5.010728, 4.956192 
2.8324962e+2, 2.4068967e+2, -601576.1, -696183.6, -9929.708, 0.01862332, -0.023208957, -600545.2, -19320.795, 0.0, 5.009759, 4.9486704 
2.8324196e+2, 2.4564214e+2, -554314.9, -646111.6, -9912.593, 0.024887081, 0.0051325047, -553256.7, -20548.43, 0.0, 5.00871, 4.949303 
2.8323445e+2, 2.5059482e+2, -507620.47, -598051.6, -9710.241, 0.031284634, 0.034685887, -506589.56, -22397.762, 0.0, 5.007718, 4.9492717 
2.8322712e+2, 2.555479e+2, -461156.0, -550543.5, -9488.646, 0.03797291, 0.068234585, -460159.88, -24488.133, 0.0, 5.0067124, 4.949042 
2.8322005e+2, 2.6049492e+2, -421899.56, -517935.2, -6860.2583, 0.039467767, 0.09601168, -421411.97, -34212.188, 0.0, 5.005591, 4.943134 
2.8322068e+2, 2.654432e+2, -364493.47, -438107.0, -6672.6377, 0.10627382, 0.017267039, -363893.53, -25226.787, 0.0, 5.003055, 4.9539547 
2.8322387e+2, 2.7039364e+2, -320057.38, -388427.13, -8171.82, 0.19874986, -0.094045736, -319094.22, -28986.172, 0.0, 5.0002584, 4.9549956 
2.8322828e+2, 2.7534348e+2, -275379.78, -339119.97, -10007.26, 0.3012191, -0.23180856, -273845.56, -32290.605, 0.0, 4.997422, 4.955989 
2.8321812e+2, 2.802999e+2, -277140.3, -413272.03, -19076.332, 0.31270638, -0.08724669, -274517.63, -81566.336, 0.0, 4.9994307, 4.913722 
2.8320083e+2, 2.8524134e+2, -208144.63, -321063.8, -1395.1023, 0.20466796, 0.142041, -208127.39, -63567.76, 0.0, 5.003179, 4.926357 
2.8319448e+2, 2.901681e+2, -156128.98, -267135.13, 1137.7881, 0.14295311, 0.14144076, -156117.33, -59797.633, 0.0, 5.0038724, 4.926964 
2.8318962e+2, 2.950923e+2, -103936.37, -213446.17, 3174.3125, 0.09058378, 0.09977336, -103844.43, -55739.44, 0.0, 5.004439, 4.9275727 
2.831852e+2, 3.000197e+2, -42449.047, -103722.055, 5409.5493, 0.015741337, -0.043827973, -41975.125, -41975.125, 0.0, 5.004884, 4.957279 
2.8319138e+2, 3.049776e+2, -23828.29, -54176.83, 3817.4895, -0.050314907, -0.2285879, -23355.459, -23355.459, 0.0, 5.005053, 4.9729424 
2.8320494e+2, 3.0995953e+2, -19562.932, -40022.87, 2263.394, -0.060977597, -0.28538904, -19315.533, -19315.533, 0.0, 5.005115, 4.9774275 
2.8322276e+2, 3.1495404e+2, -14737.961, -26426.4, 279.7235, -0.03852969, -0.2619107, -14731.2705, -14731.2705, 0.0, 5.005041, 4.9819226 
2.884119e+2, 1.2144944e+2, -1695273.1, -1745479.0, -102.84579, 0.0037052727, -0.04364556, -1695273.0, 54526.06, 0.0, 5.020603, 4.9878654 
2.8841242e+2, 1.2644204e+2, -1654598.3, -1713357.5, -2067.4365, 0.010061864, 0.054845918, -1654525.6, 46341.477, 0.0, 5.0205946, 4.9823456 
2.884113e+2, 1.3142101e+2, -1605777.8, -1664457.6, -2186.6501, 0.0035476615, 0.020400783, -1605696.4, 46376.38, 0.0, 5.0205455, 4.9823456 
2.884102e+2, 1.3639997e+2, -1559151.8, -1620074.3, -2303.3618, -0.0028965084, -0.012805645, -1559064.8, 44213.95, 0.0, 5.0204964, 4.9808493 
2.8840816e+2, 1.4137769e+2, -1516780.1, -1583970.3, -4574.024, -0.0066792862, -0.017523523, -1516470.1, 38026.81, 0.0, 5.020336, 4.9765844 
2.8840464e+2, 1.4635554e+2, -1468400.6, -1534506.3, -5133.9243, -0.005199804, -0.010258013, -1468004.4, 37709.9, 0.0, 5.019959, 4.9769077 
2.884011e+2, 1.5133342e+2, -1420507.0, -1486025.4, -5328.536, -0.0036010668, -0.0032496173, -1420076.5, 36854.855, 0.0, 5.019575, 4.976909 
2.8839755e+2, 1.5631129e+2, -1374028.1, -1440505.8, -5523.0864, -0.00200032, 0.004201925, -1373572.4, 34576.133, 0.0, 5.019191, 4.9759192 
2.8839293e+2, 1.6128518e+2, -1333462.8, -1407319.4, -7411.422, -0.0011602946, 0.012291568, -1332726.4, 26678.385, 0.0, 5.01879, 4.970806 
2.8838646e+2, 1.6625567e+2, -1285180.9, -1357941.1, -7780.9395, -0.0019027859, 0.0037252195, -1284358.1, 26335.66, 0.0, 5.0183716, 4.971096 
2.8837994e+2, 1.7122614e+2, -1237304.6, -1309425.3, -7794.3726, -0.0026979994, -0.005109, -1236471.9, 25510.656, 0.0, 5.017953, 4.9710965 
2.883734e+2, 1.7619665e+2, -1190555.5, -1263305.6, -7807.6826, -0.0034924594, -0.013521135, -1189727.0, 23544.357, 0.0, 5.017534, 4.9702907 
2.8836635e+2, 1.8116456e+2, -1149560.4, -1229132.8, -9032.796, -0.003377567, -0.009490383, -1148547.9, 16037.452, 0.0, 5.0170517, 4.9654784 
2.8835824e+2, 1.8613121e+2, -1101171.9, -1178685.8, -9426.912, -0.0014713518, -0.0066649904, -1100042.0, 15868.889, 0.0, 5.0164404, 4.9661956 
2.883501e+2, 1.9109792e+2, -1053779.6, -1130358.1, -9553.975, 0.00047164367, -0.004270755, -1052605.6, 14629.993, 0.0, 5.0158257, 4.9661965 
2.8834194e+2, 1.9606464e+2, -1007266.6, -1083935.8, -9682.249, 0.0024235654, -0.0016066901, -1006062.75, 12497.68, 0.0, 5.015211, 4.965547 
2.883334e+2, 2.0102777e+2, -967945.44, -1053420.6, -10260.522, 0.00261772, 0.0069011194, -966731.06, 3191.0232, 0.0, 5.0146713, 4.9594307 
2.883239e+2, 2.0598777e+2, -919164.56, -1003234.44, -10323.528, -0.000047106234, 0.005246043, -917915.44, 3404.36, 0.0, 5.0142717, 4.959929 
2.8831443e+2, 2.1094783e+2, -871048.6, -954495.44, -10240.338, -0.0026064306, 0.003391141, -869810.4, 2906.732, 0.0, 5.0138736, 4.959934 
2.8830495e+2, 2.159079e+2, -823591.2, -907204.8, -10158.82, -0.0050927997, 0.0016970328, -822374.6, 1739.6577, 0.0, 5.0134745, 4.9594398 
2.8829554e+2, 2.2086549e+2, -781787.1, -871992.8, -10374.136, -0.005964095, 0.011790915, -780609.44, -5076.581, 0.0, 5.013018, 4.9547925 
2.8828645e+2, 2.258216e+2, -732238.4, -818507.75, -10538.978, -0.00065606507, 0.0055943257, -730969.56, -4012.9495, 0.0, 5.0122814, 4.9565334 
2.8827736e+2, 2.307777e+2, -685059.06, -770161.9, -10663.322, 0.005158249, -0.004201118, -683743.25, -5363.505, 0.0, 5.011516, 4.956543 
2.882683e+2, 2.3573372e+2, -638511.2, -723253.7, -10798.293, 0.010946428, -0.014766411, -637156.9, -7353.3623, 0.0, 5.0107493, 4.9560504 
2.8825948e+2, 2.4068712e+2, -601235.6, -695970.8, -10601.476, 0.016752696, -0.0050321072, -600063.75, -18805.625, 0.0, 5.0098257, 4.948738 
2.8825065e+2, 2.4563871e+2, -553884.0, -645877.75, -10675.428, 0.02212059, 0.01443855, -552661.44, -19913.29, 0.0, 5.008797, 4.9493814 
2.882419e+2, 2.5059053e+2, -507195.0, -597777.7, -10446.086, 0.027373916, 0.034899138, -506005.94, -21768.213, 0.0, 5.007801, 4.9493628 
2.8823328e+2, 2.5554273e+2, -460736.1, -550229.6, -10197.454, 0.03264317, 0.05918739, -459588.84, -23865.076, 0.0, 5.006792, 4.949146 
2.8822467e+2, 2.6048967e+2, -420475.28, -515785.06, -8168.1064, 0.030821059, 0.08146181, -419780.34, -32528.65, 0.0, 5.0057154, 4.9439034 
2.882225e+2, 2.6544005e+2, -363806.06, -439274.0, -7832.632, 0.08016929, 0.026308607, -363001.7, -24293.781, 0.0, 5.0033755, 4.953619 
2.8822273e+2, 2.7039215e+2, -318986.9, -390307.13, -8766.878, 0.15081742, -0.057572998, -317925.06, -27782.352, 0.0, 5.0007806, 4.9543905 
2.8822404e+2, 2.7534327e+2, -273924.25, -341712.0, -10037.437, 0.22898577, -0.16868833, -272469.22, -30882.158, 0.0, 4.998146, 4.9551153 
2.882131e+2, 2.8029865e+2, -274916.5, -407212.34, -21795.39, 0.25251365, -0.03147446, -271418.25, -78418.586, 0.0, 4.9993067, 4.9157376 
2.881995e+2, 2.852379e+2, -207740.23, -314767.1, -2880.3875, 0.18162131, 0.14959688, -207662.77, -63044.57, 0.0, 5.002339, 4.928609 
2.8819627e+2, 2.9016358e+2, -155595.08, -261990.0, 303.8418, 0.13220696, 0.11602877, -155594.2, -59218.258, 0.0, 5.0031543, 4.9288836 
2.881944e+2, 2.950866e+2, -103269.445, -209446.64, 2991.272, 0.08800793, 0.043972354, -103185.24, -55025.375, 0.0, 5.003843, 4.92916 
2.88193e+2, 3.0001596e+2, -38285.773, -94139.54, 5742.3335, 0.023515692, -0.1079033, -37701.516, -37701.516, 0.0, 5.0045547, 4.960959 
2.8820124e+2, 3.0498275e+2, -20972.006, -52032.54, 5540.895, -0.026884276, -0.21796276, -20013.164, -20013.164, 0.0, 5.005339, 4.973859 
2.882163e+2, 3.0997172e+2, -14721.883, -36948.277, 5498.497, -0.0313387, -0.20574851, -13436.022, -13436.022, 0.0, 5.0059795, 4.978381 
2.8823522e+2, 3.1497195e+2, -7913.9395, -22430.086, 5024.1343, -0.010995173, -0.12965073, -6344.694, -6344.694, 0.0, 5.0064836, 4.982914 
2.9343143e+2, 1.2144774e+2, -1695315.1, -1745582.6, 113.44292, -0.0074786684, -0.039385352, -1695314.9, 54498.105, 0.0, 5.020606, 4.987831 
2.9343358e+2, 1.2643796e+2, -1654806.5, -1713812.1, -2107.8018, 0.015648693, 0.036802556, -1654731.3, 46172.84, 0.0, 5.0205984, 4.982196 
2.9343218e+2, 1.3141753e+2, -1605983.4, -1664907.1, -2223.7585, 0.0071215415, 0.009761521, -1605899.5, 46204.777, 0.0, 5.02055, 4.9821973 
2.9343084e+2, 1.3639708e+2, -1559353.4, -1620516.0, -2336.7007, -0.0014005968, -0.016056007, -1559264.3, 44040.457, 0.0, 5.0205, 4.980703 
2.9342854e+2, 1.4137515e+2, -1517108.1, -1584660.3, -4825.1084, -0.006513644, -0.015388438, -1516765.3, 37754.74, 0.0, 5.020338, 4.9763565 
2.9342464e+2, 1.4635281e+2, -1468757.4, -1535255.0, -5427.513, -0.005092012, -0.007582331, -1468317.4, 37422.94, 0.0, 5.0199604, 4.9766593 
2.9342067e+2, 1.5133049e+2, -1420861.1, -1486771.3, -5620.3823, -0.0035539693, -0.0002555513, -1420385.3, 36575.367, 0.0, 5.0195765, 4.976661 
2.9341674e+2, 1.5630813e+2, -1374379.1, -1441247.8, -5812.951, -0.0020214566, 0.007508337, -1373877.5, 34303.55, 0.0, 5.019192, 4.9756713 
2.9341173e+2, 1.612818e+2, -1333554.4, -1407529.9, -7734.007, -0.001311405, 0.01529361, -1332754.5, 26685.426, 0.0, 5.0187926, 4.9707355 
2.9340482e+2, 1.6625209e+2, -1285185.5, -1357970.4, -8103.362, -0.0024020318, 0.0048847725, -1284294.3, 26435.568, 0.0, 5.0183744, 4.9710855 
2.933978e+2, 1.712224e+2, -1237308.9, -1309451.6, -8114.4917, -0.0035833493, -0.0058677704, -1236407.4, 25612.148, 0.0, 5.017956, 4.971087 
2.933908e+2, 1.761927e+2, -1190559.1, -1263329.1, -8125.4443, -0.0047858595, -0.016190162, -1189662.9, 23646.277, 0.0, 5.0175366, 4.9702816 
2.9338327e+2, 1.8116051e+2, -1149764.4, -1229578.9, -9479.394, -0.0046022716, -0.0125120105, -1148653.9, 15969.781, 0.0, 5.0170536, 4.9653287 
2.9337466e+2, 1.8612725e+2, -1101376.4, -1179137.8, -9895.591, -0.001678602, -0.007172484, -1100136.9, 15812.516, 0.0, 5.016443, 4.966043 
2.93366e+2, 1.9109406e+2, -1053979.9, -1130807.4, -10018.951, 0.0012775292, -0.0022486034, -1052694.9, 14579.516, 0.0, 5.015829, 4.9660444 
2.9335737e+2, 1.9606087e+2, -1007462.75, -1084382.5, -10143.46, 0.004222258, 0.0029283178, -1006147.6, 12451.678, 0.0, 5.015215, 4.965395 
2.9334825e+2, 2.0102398e+2, -967824.5, -1053164.1, -10601.406, 0.004875352, 0.011773043, -966527.25, 3434.2727, 0.0, 5.014672, 4.959519 
2.933383e+2, 2.0598371e+2, -919009.3, -1002903.2, -10626.72, 0.0011200045, 0.00641219, -917684.1, 3676.3545, 0.0, 5.0142727, 4.960044 
2.9332832e+2, 2.109435e+2, -870888.6, -954163.5, -10538.503, -0.0026736464, 0.00075874507, -869575.7, 3183.37, 0.0, 5.013876, 4.9600487 
2.9331833e+2, 2.1590331e+2, -823426.5, -906872.25, -10451.927, -0.00643556, -0.004811696, -822137.25, 2020.3392, 0.0, 5.0134788, 4.959554 
2.933083e+2, 2.2086081e+2, -781928.4, -872319.5, -10871.665, -0.008517484, 0.0043925815, -780639.2, -5062.695, 0.0, 5.013021, 4.954678 
2.9329848e+2, 2.258175e+2, -732386.3, -818887.25, -11095.41, -0.002999779, 0.0052518905, -730985.75, -3988.4927, 0.0, 5.0122895, 4.9563966 
2.9328874e+2, 2.3077422e+2, -685186.75, -770548.9, -11199.482, 0.0031739548, 0.0028324665, -683741.8, -5324.473, 0.0, 5.011531, 4.956402 
2.93279e+2, 2.3573089e+2, -638618.75, -723648.25, -11314.118, 0.009237619, -0.00041650195, -637139.0, -7300.93, 0.0, 5.0107713, 4.9559045 
2.9326946e+2, 2.4068466e+2, -601062.75, -696094.0, -11232.334, 0.015180612, 0.014312038, -599753.2, -18462.395, 0.0, 5.0098925, 4.948684 
2.9325944e+2, 2.456355e+2, -553473.9, -645623.94, -11457.59, 0.01949222, 0.025940277, -552070.6, -19284.533, 0.0, 5.0088844, 4.9494567 
2.932494e+2, 2.5058642e+2, -506790.22, -597483.75, -11201.263, 0.023213746, 0.036681857, -505427.28, -21145.17, 0.0, 5.0078845, 4.949451 
2.9323947e+2, 2.555377e+2, -460336.84, -549895.7, -10925.599, 0.026676457, 0.05108371, -459023.28, -23248.701, 0.0, 5.0068717, 4.949247 
2.9322928e+2, 2.6048386e+2, -419972.63, -515574.44, -9266.709, 0.020411728, 0.064548865, -419082.7, -31772.97, 0.0, 5.00584, 4.9439225 
2.932247e+2, 2.654355e+2, -363194.47, -440391.88, -8613.436, 0.054802254, 0.02093811, -362245.1, -23482.773, 0.0, 5.0036964, 4.9531093 
2.9322246e+2, 2.703889e+2, -317991.0, -392135.97, -8982.19, 0.10719105, -0.04776826, -316918.4, -26724.059, 0.0, 5.001303, 4.9536123 
2.9322124e+2, 2.7534094e+2, -272542.13, -344250.78, -9687.172, 0.1646223, -0.14447522, -271256.53, -29616.7, 0.0, 4.9988704, 4.9540677 
2.9320785e+2, 2.8029767e+2, -279365.7, -416448.56, -25322.668, 0.1885311, 0.032696523, -274837.53, -81791.97, 0.0, 4.99919, 4.91241 
2.9319665e+2, 2.8523663e+2, -207538.05, -308284.75, -3755.9958, 0.14742664, 0.20139286, -207398.22, -62742.36, 0.0, 5.0014987, 4.93073 
2.931968e+2, 2.9016083e+2, -155261.27, -256657.73, 78.48035, 0.11515622, 0.1230822, -155261.22, -58846.543, 0.0, 5.0024366, 4.930671 
2.931983e+2, 2.9508227e+2, -102800.586, -205258.64, 3415.9666, 0.08397191, 0.008856335, -102686.82, -54486.234, 0.0, 5.0032473, 4.930615 
2.932e+2, 3.0001107e+2, -36015.043, -88317.82, 6354.022, 0.030150205, -0.17610426, -35254.19, -35254.19, 0.0, 5.004226, 4.963128 
2.9321054e+2, 3.0498382e+2, -18330.8, -49686.17, 7261.2217, -0.012095916, -0.25339237, -16730.895, -16730.895, 0.0, 5.0056252, 4.974411 
2.9322755e+2, 3.0997834e+2, -10096.469, -33672.055, 8730.332, -0.016809437, -0.21028401, -7215.562, -7215.562, 0.0, 5.0068445, 4.9789705 
2.9324818e+2, 3.149829e+2, -1308.5793, -18231.975, 9764.451, -0.005069532, -0.119757235, 3150.4365, 3150.4365, 0.0, 5.007929, 4.98354 
2.9845098e+2, 1.2144599e+2, -1694772.8, -1745275.1, 301.69318, -0.018297927, -0.0353812, -1694770.9, 55056.473, 0.0, 5.0207796, 4.987847 
2.9845473e+2, 1.2643392e+2, -1654582.6, -1714041.1, -2165.5183, 0.021164227, 0.019084945, -1654503.9, 46437.09, 0.0, 5.020747, 4.9820485 
2.9845312e+2, 1.3141407e+2, -1605817.5, -1665163.8, -2267.94, 0.010656184, -0.0006440851, -1605731.0, 46404.68, 0.0, 5.020678, 4.98205 
2.984515e+2, 1.363942e+2, -1559283.0, -1620816.5, -2370.7117, 0.00012928908, -0.019150315, -1559191.8, 44138.914, 0.0, 5.020596, 4.980557 
2.984489e+2, 1.4137262e+2, -1517263.1, -1585275.5, -5065.606, -0.00628285, -0.013117854, -1516887.9, 37655.152, 0.0, 5.0204005, 4.976123 
2.984446e+2, 1.463501e+2, -1468946.1, -1535916.9, -5689.841, -0.004923145, -0.004875237, -1468466.3, 37300.086, 0.0, 5.0200176, 4.9764123 
2.9844028e+2, 1.5132755e+2, -1421065.5, -1487440.1, -5866.101, -0.0034388793, 0.0026554428, -1420551.0, 36438.96, 0.0, 5.019628, 4.9764137 
2.9843596e+2, 1.5630497e+2, -1374604.0, -1441925.0, -6043.9766, -0.0019607237, 0.010628991, -1374065.8, 34147.99, 0.0, 5.019236, 4.975425 
2.9843053e+2, 1.6127843e+2, -1333553.6, -1407717.4, -7985.778, -0.0013428621, 0.01821095, -1332703.5, 26771.484, 0.0, 5.018832, 4.9706545 
2.984231e+2, 1.6624852e+2, -1285084.8, -1357948.4, -8360.8955, -0.0028199514, 0.0060371873, -1284137.6, 26628.164, 0.0, 5.018414, 4.9710736 
2.984157e+2, 1.7121865e+2, -1237224.5, -1309437.3, -8381.151, -0.004416913, -0.0065986817, -1236264.6, 25791.791, 0.0, 5.017989, 4.9710755 
2.9840824e+2, 1.7618877e+2, -1190507.8, -1263330.0, -8406.094, -0.006033879, -0.018791517, -1189550.0, 23796.816, 0.0, 5.017559, 4.97027 
2.984002e+2, 1.8115644e+2, -1149943.3, -1230047.1, -9900.109, -0.0057316804, -0.015360741, -1148737.9, 15924.136, 0.0, 5.0170712, 4.9651637 
2.9839107e+2, 1.8612328e+2, -1101500.5, -1179553.3, -10349.334, -0.001819137, -0.0076135844, -1100151.5, 15836.306, 0.0, 5.016474, 4.965889 
2.9838192e+2, 1.9109018e+2, -1054075.6, -1131206.1, -10482.325, 0.0021137053, -0.00030212008, -1052676.5, 14636.611, 0.0, 5.015869, 4.965891 
2.9837278e+2, 1.9605708e+2, -1007543.5, -1084770.9, -10614.48, 0.0060277465, 0.0072601885, -1006111.1, 12527.127, 0.0, 5.0152597, 4.9652424 
2.9836318e+2, 2.010202e+2, -967619.1, -1052912.3, -10956.897, 0.007156516, 0.016754765, -966234.06, 3766.893, 0.0, 5.014712, 4.9595866 
2.983527e+2, 2.0597969e+2, -918763.5, -1002523.75, -10919.714, 0.0023480179, 0.007762067, -917363.3, 4037.7546, 0.0, 5.0143046, 4.9601593 
2.983422e+2, 2.1093921e+2, -870684.06, -953804.56, -10807.507, -0.0026447796, -0.0017564578, -869301.8, 3499.019, 0.0, 5.0138936, 4.9601645 
2.983317e+2, 2.1589872e+2, -823285.06, -906543.56, -10695.676, -0.007637969, -0.0112360045, -821933.0, 2267.6128, 0.0, 5.013475, 4.9596696 
2.9832104e+2, 2.2085615e+2, -782172.44, -872813.94, -11295.185, -0.0110213505, -0.0027846256, -780786.1, -5166.085, 0.0, 5.0130134, 4.9545097 
2.9831058e+2, 2.258134e+2, -732419.3, -819201.06, -11591.854, -0.0053286133, 0.0046687573, -730897.6, -3859.4182, 0.0, 5.01234, 4.956258 
2.9830015e+2, 2.3077072e+2, -685125.4, -770818.0, -11689.91, 0.0012992959, 0.009037834, -683559.25, -5103.854, 0.0, 5.0116143, 4.956263 
2.9828978e+2, 2.3572798e+2, -638550.56, -723912.8, -11775.274, 0.0078172535, 0.012551916, -636956.0, -7082.718, 0.0, 5.010857, 4.9557657 
2.982796e+2, 2.4068235e+2, -600966.94, -696404.8, -11706.592, 0.014455186, 0.034608956, -599552.0, -18229.744, 0.0, 5.009994, 4.948535 
2.9826844e+2, 2.4563253e+2, -552967.4, -645195.3, -12006.961, 0.017953921, 0.03945826, -551429.9, -18608.107, 0.0, 5.0090237, 4.94955 
2.9825708e+2, 2.5058252e+2, -506354.4, -597063.56, -11622.561, 0.020365667, 0.040069874, -504888.9, -20564.813, 0.0, 5.0080023, 4.949552 
2.982459e+2, 2.5553286e+2, -460119.38, -549548.94, -11251.289, 0.022435203, 0.044304337, -458725.53, -22902.682, 0.0, 5.006917, 4.9493556 
2.982341e+2, 2.6047763e+2, -421422.2, -517341.03, -9542.132, 0.011938056, 0.046044927, -420482.16, -33110.465, 0.0, 5.0055733, 4.9433494 
2.9822767e+2, 2.654301e+2, -368627.9, -443183.06, -7610.5264, 0.037087977, 0.002770341, -367858.97, -29033.814, 0.0, 5.0018525, 4.952744 
2.9822356e+2, 2.703849e+2, -330447.94, -398479.3, -6147.8916, 0.07953342, -0.060421523, -329896.84, -39643.684, 0.0, 4.997034, 4.9530773 
2.982204e+2, 2.7533826e+2, -294117.16, -355003.06, -4598.473, 0.12594055, -0.15061098, -293771.8, -52075.656, 0.0, 4.99143, 4.9533615 
2.982032e+2, 2.8029928e+2, -318763.2, -453539.38, -22244.434, 0.14327644, 0.11653184, -315186.72, -122120.69, 0.0, 4.9890947, 4.9038277 
2.981929e+2, 2.852391e+2, -223410.67, -310261.25, 2352.0999, 0.11728288, 0.30409235, -223347.02, -78690.43, 0.0, 4.995031, 4.9323096 
2.9819664e+2, 2.9016083e+2, -161912.84, -255355.2, 4773.643, 0.10041883, 0.16547123, -161669.61, -65242.977, 0.0, 4.999312, 4.932052 
2.9820165e+2, 2.950798e+2, -104340.016, -202472.36, 7253.5605, 0.083066165, -0.006065126, -103806.76, -55583.3, 0.0, 5.0020256, 4.9317956 
2.9820648e+2, 3.0000517e+2, -37313.863, -87153.484, 8673.272, 0.03919897, -0.25043634, -35847.64, -35847.64, 0.0, 5.003318, 4.96383 
2.9821965e+2, 3.049812e+2, -27231.734, -52571.504, 7294.9565, 0.0023705678, -0.32923, -25281.688, -25281.688, 0.0, 5.001964, 4.9744554 
2.982393e+2, 3.099803e+2, -33860.87, -43351.188, 4839.551, 0.0006504975, -0.28004545, -31828.287, -31828.287, 0.0, 4.997762, 4.9787936 
2.982624e+2, 3.149882e+2, -46659.7, -37404.742, -604.06854, 0.011721487, -0.19520164, -37365.48, -37365.48, 0.0, 4.9909863, 4.9831543 
3.034725e+2, 1.214446e+2, -1689391.3, -1744052.4, 80.89543, -0.022278344, -0.028589124, -1689391.1, 60448.973, 0.0, 5.0228796, 4.987215 
3.034762e+2, 1.2643081e+2, -1649386.8, -1711812.1, -2276.805, 0.018956618, 0.010780793, -1649303.9, 51667.508, 0.0, 5.022553, 4.981894 
3.0347458e+2, 1.314113e+2, -1601239.1, -1663253.0, -2419.0261, 0.009704978, -0.0040260656, -1601144.9, 51017.89, 0.0, 5.0222845, 4.9818935 
3.034729e+2, 1.3639177e+2, -1555275.9, -1619196.1, -2557.9692, 0.0005905062, -0.017562969, -1555173.6, 48180.832, 0.0, 5.022015, 4.9804 
3.0347013e+2, 1.4137033e+2, -1513715.3, -1583942.3, -5401.7017, -0.0047059907, -0.008585629, -1513302.3, 41263.42, 0.0, 5.021677, 4.9759445 
3.034654e+2, 1.4634743e+2, -1465615.3, -1534684.6, -5987.3047, -0.0034640734, -0.0024230797, -1465100.1, 40692.516, 0.0, 5.021222, 4.976239 
3.0346063e+2, 1.5132447e+2, -1417947.0, -1486319.3, -6100.083, -0.0021399974, 0.0028428042, -1417407.0, 39613.04, 0.0, 5.020764, 4.9762397 
3.0345583e+2, 1.563015e+2, -1371689.5, -1440909.6, -6212.517, -0.00079587364, 0.008596611, -1371136.4, 37111.29, 0.0, 5.020306, 4.97525 
3.0345e+2, 1.612747e+2, -1330739.6, -1406552.3, -8142.7144, -0.0004131225, 0.01490903, -1329874.9, 29636.46, 0.0, 5.0198274, 4.970568 
3.034421e+2, 1.6624485e+2, -1282535.6, -1356886.6, -8595.844, -0.0022213007, 0.003988098, -1281554.8, 29246.795, 0.0, 5.0193157, 4.9710007 
3.0343413e+2, 1.7121501e+2, -1234944.4, -1308515.9, -8695.42, -0.004056153, -0.007239262, -1233930.6, 28160.64, 0.0, 5.018803, 4.971 
3.034262e+2, 1.7618519e+2, -1188477.6, -1262539.1, -8794.791, -0.005823109, -0.018005706, -1187447.6, 25933.24, 0.0, 5.01829, 4.970193 
3.0341762e+2, 1.8115284e+2, -1148217.4, -1229680.5, -10413.309, -0.005709458, -0.013814723, -1146907.4, 17789.207, 0.0, 5.017754, 4.964967 
3.034079e+2, 1.8611944e+2, -1099856.0, -1179311.3, -10967.034, -0.0018915756, -0.006033346, -1098370.0, 17655.766, 0.0, 5.017149, 4.965654 
3.0339813e+2, 1.9108611e+2, -1052447.6, -1130962.4, -11198.049, 0.002037316, 0.0014469894, -1050881.8, 16472.496, 0.0, 5.016539, 4.9656596 
3.033884e+2, 1.960528e+2, -1005917.94, -1084519.6, -11430.899, 0.0059956857, 0.009242194, -1004289.3, 14393.226, 0.0, 5.015929, 4.9650145 
3.0337822e+2, 2.0101584e+2, -965672.1, -1051714.3, -11769.271, 0.0074555827, 0.018593103, -964091.3, 5955.254, 0.0, 5.015325, 4.95971 
3.0336726e+2, 2.0597534e+2, -917303.5, -1001344.9, -11623.821, 0.0026772616, 0.0077236095, -915725.44, 5718.9985, 0.0, 5.014707, 4.9603767 
3.0335623e+2, 2.1093489e+2, -869837.7, -952910.3, -11413.769, -0.0023879944, -0.0036877037, -868298.0, 4543.7695, 0.0, 5.014085, 4.9603834 
3.0334517e+2, 2.1589445e+2, -823025.3, -905920.3, -11203.23, -0.0074300664, -0.014903741, -821537.9, 2701.0515, 0.0, 5.0134625, 4.9598904 
3.03334e+2, 2.2085187e+2, -782665.56, -873376.7, -11723.53, -0.011127752, -0.0074212267, -781174.94, -5517.3325, 0.0, 5.0129046, 4.954369 
3.0332282e+2, 2.2580916e+2, -732697.94, -819918.75, -12200.292, -0.006607456, 0.0029524823, -731023.5, -3944.9136, 0.0, 5.0123625, 4.9559984 
3.0331174e+2, 2.3076658e+2, -684909.6, -771240.94, -12540.046, -0.0008457458, 0.010897404, -683125.0, -4626.68, 0.0, 5.0118027, 4.9560223 
3.0330068e+2, 2.3572399e+2, -637756.2, -724005.75, -12893.4, 0.005196447, 0.01817851, -635870.0, -5951.6997, 0.0, 5.0112405, 4.9555435 
3.0328992e+2, 2.406786e+2, -599337.75, -695371.06, -13040.344, 0.011846673, 0.04415016, -597598.5, -16231.598, 0.0, 5.0105567, 4.948602 
3.03278e+2, 2.4562879e+2, -549956.3, -642940.44, -13503.055, 0.015779618, 0.046304952, -548035.1, -15172.543, 0.0, 5.0099564, 4.9498672 
3.0326587e+2, 2.505787e+2, -501974.3, -594247.0, -13165.492, 0.019560065, 0.043063544, -500132.63, -15771.32, 0.0, 5.0094085, 4.949853 
3.0325398e+2, 2.55529e+2, -454231.2, -546113.5, -12815.55, 0.024022743, 0.043745194, -452477.2, -16620.76, 0.0, 5.008843, 4.94964 
3.0324155e+2, 2.6047364e+2, -413594.06, -513240.63, -11753.951, 0.019311536, 0.04192773, -412226.38, -24821.25, 0.0, 5.008244, 4.9435067 
3.032338e+2, 2.6542732e+2, -356789.38, -436674.47, -13709.544, 0.054376483, 0.008890482, -354502.1, -15643.323, 0.0, 5.0060763, 4.9529243 
3.032284e+2, 2.7038476e+2, -312010.2, -387427.78, -16732.775, 0.112232774, -0.031704623, -308464.4, -18189.963, 0.0, 5.003567, 4.953688 
3.0322418e+2, 2.7534196e+2, -267079.44, -338469.4, -20121.955, 0.1807487, -0.089260474, -261798.53, -20105.756, 0.0, 5.0009913, 4.954406 
3.032064e+2, 2.8030786e+2, -274269.3, -439110.9, -33787.973, 0.21250498, 0.23382872, -267612.53, -74588.266, 0.0, 5.0050983, 4.901918 
3.031964e+2, 2.8524533e+2, -183301.11, -295376.2, -2783.7046, 0.16087513, 0.3981297, -183232.02, -38603.445, 0.0, 5.007737, 4.932949 
3.032006e+2, 2.901635e+2, -141719.4, -247488.6, 878.0378, 0.12673622, 0.20829168, -141712.13, -45290.313, 0.0, 5.004978, 4.933265 
3.032062e+2, 2.9507977e+2, -99964.75, -199692.83, 4179.6553, 0.10387978, -0.008994962, -99789.88, -51556.82, 0.0, 5.0020256, 4.933584 
3.0321217e+2, 3.000032e+2, -46468.06, -92503.55, 3595.7139, 0.071444035, -0.28662604, -46188.9, -46188.9, 0.0, 4.99929, 4.9643674 
3.0322766e+2, 3.0498537e+2, -39368.645, -64163.08, -2116.5564, 0.08090254, -0.28941885, -39189.26, -39189.26, 0.0, 4.997833, 4.9728556 
3.032503e+2, 3.0999252e+2, -40172.87, -56756.652, -4740.813, 0.14768973, -0.120535605, -38913.28, -38913.28, 0.0, 4.99637, 4.975636 
3.032771e+2, 3.150078e+2, -40647.918, -49682.99, -7766.521, 0.24833266, 0.1030703, -36180.633, -36180.633, 0.0, 4.9946933, 4.9784193 
3.0849522e+2, 1.2144341e+2, -1690794.1, -1746923.9, -576.8238, -0.02411917, -0.020537782, -1690788.1, 59063.477, 0.0, 5.0228815, 4.9862723 
3.0849814e+2, 1.2642822e+2, -1649640.9, -1712357.9, -2482.3408, 0.012439877, 0.0072895824, -1649542.8, 51455.26, 0.0, 5.0225563, 4.9817142 
3.0849653e+2, 1.3140889e+2, -1601489.4, -1663794.8, -2621.9587, 0.006422045, -0.0038142547, -1601379.3, 50808.41, 0.0, 5.022288, 4.9817147 
3.0849493e+2, 1.3638954e+2, -1555520.6, -1619730.4, -2757.5313, 0.0004942384, -0.013678096, -1555402.4, 47975.176, 0.0, 5.0220194, 4.980223 
3.08492e+2, 1.4136809e+2, -1513945.5, -1584428.8, -5737.8584, -0.0026233334, -0.003008139, -1513481.4, 41107.17, 0.0, 5.021679, 4.975783 
3.0848682e+2, 1.4634472e+2, -1465809.9, -1535097.5, -6336.8677, -0.0015597994, -0.00010193407, -1465235.0, 40584.38, 0.0, 5.0212235, 4.9761014 
3.0848157e+2, 1.5132129e+2, -1418138.0, -1486729.9, -6447.418, -0.00051958585, 0.0016540284, -1417537.3, 39513.727, 0.0, 5.0207663, 4.976102 
3.084763e+2, 1.5629783e+2, -1371876.1, -1441316.3, -6557.2666, 0.00053193787, 0.00388282, -1371262.4, 37020.266, 0.0, 5.0203085, 4.975113 
3.0846992e+2, 1.6127074e+2, -1330884.4, -1406876.8, -8530.129, 0.0006196161, 0.008406791, -1329938.6, 29610.275, 0.0, 5.0198298, 4.970461 
3.084615e+2, 1.6624105e+2, -1282690.1, -1357235.1, -8985.643, -0.0013277293, 0.0003206565, -1281622.3, 29215.324, 0.0, 5.0193186, 4.970886 
3.0845302e+2, 1.7121139e+2, -1235094.9, -1308857.9, -9082.285, -0.003315163, -0.007849434, -1233993.1, 28132.582, 0.0, 5.0188065, 4.970887 
3.0844456e+2, 1.7618175e+2, -1188624.4, -1262874.9, -9178.65, -0.005267563, -0.0155799715, -1187506.5, 25907.164, 0.0, 5.018294, 4.970081 
3.0843538e+2, 1.8114936e+2, -1148522.3, -1230343.6, -10861.678, -0.005672197, -0.010058137, -1147104.9, 17625.148, 0.0, 5.0177565, 4.964743 
3.08425e+2, 1.861156e+2, -1100242.0, -1180155.0, -11429.429, -0.002418894, -0.0033915297, -1098639.5, 17424.535, 0.0, 5.017152, 4.9653683 
3.0841458e+2, 1.9108188e+2, -1052827.0, -1131802.4, -11655.5, 0.0010038035, 0.0030335342, -1051142.8, 16254.744, 0.0, 5.016543, 4.9653735 
3.0840418e+2, 1.9604819e+2, -1006290.6, -1085356.1, -11883.345, 0.004437496, 0.009753661, -1004543.25, 14187.473, 0.0, 5.0159345, 4.964729 
3.0839345e+2, 2.0101106e+2, -965478.5, -1051328.1, -12242.951, 0.0060738153, 0.018721158, -963766.6, 6329.891, 0.0, 5.01533, 4.9598417 
3.083819e+2, 2.0597073e+2, -916915.0, -1000530.8, -12102.511, 0.002082593, 0.0070885248, -915198.5, 6291.709, 0.0, 5.014711, 4.960655 
3.0837032e+2, 2.1093045e+2, -869453.06, -952099.25, -11886.13, -0.002325491, -0.0053798957, -867777.56, 5105.743, 0.0, 5.0140886, 4.9606614 
3.0835873e+2, 2.1589018e+2, -822644.56, -905112.1, -11669.215, -0.0067315395, -0.017661236, -821025.2, 3251.1072, 0.0, 5.013466, 4.9601684 
3.0834696e+2, 2.2084758e+2, -782868.44, -873855.56, -12138.128, -0.01029086, -0.011485586, -781277.0, -5583.1533, 0.0, 5.0129094, 4.954204 
3.0833507e+2, 2.2580467e+2, -733142.0, -820989.06, -12588.369, -0.007840374, 0.000104367784, -731373.7, -4253.3193, 0.0, 5.012373, 4.9556303 
3.0832326e+2, 2.307619e+2, -685341.8, -772339.75, -12904.273, -0.0044872393, 0.009822706, -683468.06, -4922.2427, 0.0, 5.0118194, 4.9556437 
3.0831146e+2, 2.357191e+2, -638176.5, -725133.2, -13233.746, -0.0009884781, 0.018901363, -636207.1, -6235.3945, 0.0, 5.011263, 4.955155 
3.0829993e+2, 2.4067368e+2, -599180.6, -695511.8, -13428.625, 0.0027699922, 0.047719926, -597343.7, -15921.141, 0.0, 5.010609, 4.9485598 
3.082871e+2, 2.4562411e+2, -549284.94, -642117.56, -13940.797, 0.004261332, 0.050204396, -547236.6, -14325.487, 0.0, 5.0100303, 4.950158 
3.0827412e+2, 2.5057423e+2, -501281.16, -593383.3, -13576.976, 0.005643297, 0.045693506, -499321.44, -14918.559, 0.0, 5.0094886, 4.9501534 
3.0826133e+2, 2.5552464e+2, -453516.5, -545209.2, -13200.764, 0.0075075384, 0.044472538, -451653.84, -15762.334, 0.0, 5.0089297, 4.9499497 
3.0824816e+2, 2.6046923e+2, -414228.13, -516001.66, -12285.401, 0.0015545229, 0.04168377, -412766.13, -25327.023, 0.0, 5.008396, 4.942549 
3.0823877e+2, 2.6542148e+2, -358664.75, -444198.44, -14021.297, 0.026963748, 0.017100353, -356424.9, -17504.617, 0.0, 5.0064597, 4.9502764 
3.082313e+2, 2.7037686e+2, -313383.66, -395589.97, -16559.146, 0.068801485, -0.014993452, -310173.44, -19801.9, 0.0, 5.004176, 4.950781 
3.082249e+2, 2.7533156e+2, -267948.75, -347270.8, -19463.732, 0.117343605, -0.065458454, -263430.22, -21600.623, 0.0, 5.0018253, 4.9512386 
3.0820647e+2, 2.8029573e+2, -272518.06, -434992.25, -31753.234, 0.12321615, 0.25920582, -266532.84, -73343.375, 0.0, 5.0050635, 4.9032245 
3.0819738e+2, 2.8523612e+2, -180771.81, -284844.72, -5482.0493, 0.09150618, 0.4171986, -180483.84, -35727.383, 0.0, 5.006938, 4.9367228 
3.0820164e+2, 2.9015756e+2, -139164.06, -237822.67, -1223.0267, 0.08720935, 0.22214246, -139148.9, -42642.594, 0.0, 5.0042453, 4.9368 
3.0820715e+2, 2.9507723e+2, -97382.06, -190888.06, 2676.831, 0.08814466, 0.0025535123, -97305.49, -49031.72, 0.0, 5.001359, 4.936881 
3.0821335e+2, 3.0000308e+2, -47305.797, -93976.4, 3330.7944, 0.07707839, -0.27320507, -47069.28, -47069.28, 0.0, 4.9988837, 4.963969 
3.0823028e+2, 3.049891e+2, -39754.12, -68782.47, -505.5225, 0.10680628, -0.22642036, -39745.32, -39745.32, 0.0, 4.998026, 4.9710264 
3.0825397e+2, 3.1000087e+2, -38736.03, -60433.156, -1939.0043, 0.18067308, -0.0035617403, -38564.11, -38564.11, 0.0, 4.997069, 4.9738655 
3.0828133e+2, 3.1501976e+2, -37384.875, -52422.7, -3773.4355, 0.2759454, 0.2603815, -36491.13, -36491.13, 0.0, 4.9958982, 4.9767065 
3.1351793e+2, 1.2144219e+2, -1692096.3, -1749588.8, -1232.0618, -0.026172021, -0.012732227, -1692069.9, 57793.668, 0.0, 5.022883, 4.9853973 
3.1352007e+2, 1.2642562e+2, -1649895.9, -1712903.1, -2688.0105, 0.0059837885, 0.0038630725, -1649781.4, 51243.406, 0.0, 5.0225596, 4.981535 
3.135185e+2, 1.314065e+2, -1601740.5, -1664336.0, -2825.0254, 0.0032027382, -0.0035662896, -1601613.3, 50599.285, 0.0, 5.0222917, 4.9815354 
3.1351694e+2, 1.3638733e+2, -1555766.1, -1620264.0, -2957.2263, 0.0004645743, -0.0097856065, -1555630.8, 47769.813, 0.0, 5.0220237, 4.980046 
3.1351388e+2, 1.4136587e+2, -1514191.0, -1584946.9, -6077.664, -0.00051475316, 0.0026559655, -1513672.8, 40938.65, 0.0, 5.0216804, 4.9756107 
3.1350824e+2, 1.4634204e+2, -1466004.8, -1535510.5, -6685.98, 0.00035724932, 0.002283658, -1465367.4, 40478.81, 0.0, 5.021225, 4.975963 
3.1350246e+2, 1.5131812e+2, -1418329.4, -1487140.5, -6794.302, 0.0011066925, 0.000470943, -1417665.0, 39416.965, 0.0, 5.020768, 4.9759636 
3.1349674e+2, 1.5629417e+2, -1372063.1, -1441723.0, -6901.5635, 0.0018587118, -0.00088401325, -1371385.9, 36931.734, 0.0, 5.0203114, 4.9749756 
3.1348985e+2, 1.6126679e+2, -1331048.9, -1407242.0, -8920.009, 0.0017175867, 0.0019938971, -1330018.5, 29567.79, 0.0, 5.0198326, 4.9703403 
3.1348088e+2, 1.6623725e+2, -1282845.3, -1357583.3, -9376.713, -0.00037870253, -0.003247912, -1281686.8, 29186.838, 0.0, 5.019322, 4.970771 
3.1347188e+2, 1.7120777e+2, -1235246.1, -1309199.8, -9470.421, -0.0025556367, -0.008418383, -1234052.6, 28107.506, 0.0, 5.01881, 4.970773 
3.1346288e+2, 1.761783e+2, -1188771.6, -1263210.4, -9563.782, -0.004730379, -0.013170638, -1187562.5, 25884.02, 0.0, 5.0182977, 4.9699683 
3.1345317e+2, 1.811459e+2, -1148849.6, -1231054.6, -11313.721, -0.00563394, -0.006192539, -1147321.0, 17442.422, 0.0, 5.017759, 4.964503 
3.134421e+2, 1.8611173e+2, -1100628.8, -1180998.9, -11890.823, -0.0029383157, -0.0006866283, -1098906.4, 17195.871, 0.0, 5.0171547, 4.965081 
3.1343102e+2, 1.9107765e+2, -1053206.9, -1132642.5, -12111.951, -0.00003432506, 0.0045564137, -1051401.1, 16039.485, 0.0, 5.016547, 4.9650865 
3.1342e+2, 1.9604357e+2, -1006663.94, -1086192.6, -12334.788, 0.0028621843, 0.010074778, -1004794.75, 13984.128, 0.0, 5.015939, 4.964442 
3.1340867e+2, 2.010063e+2, -965335.56, -1051051.0, -12719.203, 0.004655461, 0.019103184, -963488.0, 6658.34, 0.0, 5.015334, 4.9599357 
3.1339657e+2, 2.0596616e+2, -916527.06, -999716.75, -12581.942, 0.0014681586, 0.0067746756, -914665.75, 6869.9805, 0.0, 5.0147147, 4.9609323 
3.1338444e+2, 2.1092603e+2, -869069.06, -951288.25, -12359.233, -0.0022620698, -0.0069394065, -867251.4, 5673.289, 0.0, 5.014092, 4.9609385 
3.1337228e+2, 2.1588592e+2, -822264.4, -904303.94, -12135.942, -0.0060114237, -0.020474507, -820506.75, 3806.684, 0.0, 5.013469, 4.960445 
3.133599e+2, 2.208433e+2, -783167.25, -874537.8, -12542.3545, -0.009596309, -0.01538579, -781476.8, -5746.695, 0.0, 5.012914, 4.9539676 
3.133473e+2, 2.2580016e+2, -733591.1, -822056.0, -12960.217, -0.009134896, -0.0028785162, -731731.56, -4569.1064, 0.0, 5.012384, 4.9552574 
3.1333482e+2, 2.3075719e+2, -685779.0, -773435.2, -13252.27, -0.008008346, 0.008067613, -683819.25, -5225.457, 0.0, 5.011836, 4.9552603 
3.133223e+2, 2.3571414e+2, -638601.75, -726257.25, -13557.857, -0.006871117, 0.018398454, -636552.6, -6526.9414, 0.0, 5.0112853, 4.954761 
3.1331e+2, 2.4066885e+2, -599201.7, -695998.4, -13795.109, -0.006002931, 0.052285634, -597274.06, -15796.79, 0.0, 5.0106616, 4.9483914 
3.1329635e+2, 2.4561962e+2, -548640.25, -641268.8, -14394.057, -0.007025039, 0.056052495, -546455.0, -13497.019, 0.0, 5.0101037, 4.950447 
3.1328246e+2, 2.5056988e+2, -500614.63, -592493.6, -14003.973, -0.008063741, 0.04963824, -498527.6, -14084.526, 0.0, 5.0095687, 4.950452 
3.132688e+2, 2.555204e+2, -452828.44, -544278.9, -13601.484, -0.008820193, 0.045880944, -450848.34, -14922.806, 0.0, 5.0090165, 4.9502583 
3.1325483e+2, 2.6046443e+2, -415692.8, -520422.03, -12596.904, -0.017870508, 0.040230256, -414198.94, -26721.586, 0.0, 5.0085483, 4.9409523 
3.132441e+2, 2.654147e+2, -360656.66, -451634.44, -13937.266, -0.000615468, 0.015912754, -358569.44, -19578.262, 0.0, 5.006842, 4.9475093 
3.1323507e+2, 2.7036774e+2, -314872.5, -403664.3, -15988.697, 0.028226862, -0.016433598, -312081.16, -21600.555, 0.0, 5.0047846, 4.9477544 
3.1322697e+2, 2.7531964e+2, -268932.25, -355984.47, -18407.502, 0.0598188, -0.068556815, -265199.94, -23218.951, 0.0, 5.0026593, 4.9479527 
3.132065e+2, 2.802837e+2, -275211.56, -441029.5, -30585.89, 0.030242348, 0.28933033, -269749.78, -76396.48, 0.0, 5.0050373, 4.9009943 
3.1319693e+2, 2.8522837e+2, -178549.45, -274033.6, -7736.926, 0.01100198, 0.4654712, -177926.61, -33056.477, 0.0, 5.0061393, 4.9404106 
3.1320137e+2, 2.901529e+2, -136915.1, -227874.02, -2881.8367, 0.039137725, 0.25747153, -136823.88, -40245.027, 0.0, 5.003513, 4.9402485 
3.1320688e+2, 2.9507568e+2, -95105.25, -181797.5, 1615.2673, 0.06645151, 0.027861387, -95075.164, -46770.4, 0.0, 5.0006924, 4.940091 
3.132132e+2, 3.0000228e+2, -49486.594, -97558.09, 3455.0857, 0.073954724, -0.26260573, -49239.535, -49239.535, 0.0, 4.9984784, 4.962648 
3.1323165e+2, 3.0499017e+2, -40472.277, -73077.35, 1066.266, 0.11423129, -0.1927621, -40437.445, -40437.445, 0.0, 4.9982195, 4.9689803 
3.1325665e+2, 3.1000564e+2, -37631.656, -63781.047, 824.9935, 0.1879264, 0.061121345, -37605.652, -37605.652, 0.0, 4.9977684, 4.9718776 
3.1328493e+2, 3.150273e+2, -34455.883, -54829.47, 182.60106, 0.27055126, 0.342404, -34454.246, -34454.246, 0.0, 4.9971046, 4.9747763 
3.1854063e+2, 1.2144091e+2, -1692625.8, -1751699.5, -1797.1727, -0.028251419, -0.005427034, -1692571.1, 57304.926, 0.0, 5.0231066, 4.9845943 
3.1854206e+2, 1.2642306e+2, -1649480.1, -1713110.1, -2830.281, -0.00012994118, 0.0008344616, -1649354.5, 51696.547, 0.0, 5.022787, 4.9813557 
3.1854048e+2, 1.314041e+2, -1601455.8, -1664608.6, -2967.0752, 0.00016847486, -0.0031658253, -1601316.6, 50920.52, 0.0, 5.0224752, 4.9813566 
3.1853896e+2, 1.363851e+2, -1555648.5, -1620616.8, -3101.4302, 0.0004853587, -0.00596411, -1555500.8, 47922.79, 0.0, 5.02215, 4.979868 
3.185358e+2, 1.4136364e+2, -1514195.1, -1585367.0, -6356.8994, 0.001524208, 0.008212468, -1513631.9, 41002.598, 0.0, 5.021768, 4.975429 
3.1852964e+2, 1.4633934e+2, -1465898.3, -1535775.8, -6966.238, 0.002204208, 0.004615555, -1465210.5, 40662.51, 0.0, 5.021328, 4.9758244 
3.1852344e+2, 1.5131494e+2, -1418179.0, -1487384.6, -7072.9, 0.00267801, -0.0007307044, -1417463.6, 39649.18, 0.0, 5.0208855, 4.975825 
3.185172e+2, 1.5629053e+2, -1371875.6, -1441947.5, -7180.377, 0.0031510915, -0.005627939, -1371147.5, 37205.117, 0.0, 5.020441, 4.9748373 
3.1850982e+2, 1.6126285e+2, -1330857.8, -1407463.8, -9251.54, 0.0028664453, -0.004203968, -1329756.3, 29867.217, 0.0, 5.0199633, 4.9702053 
3.1850034e+2, 1.6623348e+2, -1282714.5, -1357795.1, -9720.884, 0.00063581095, -0.006621301, -1281476.4, 29433.055, 0.0, 5.0194235, 4.9706535 
3.184908e+2, 1.7120416e+2, -1235225.6, -1309463.3, -9830.654, -0.0017145735, -0.0088617, -1233946.0, 28248.447, 0.0, 5.0188737, 4.9706564 
3.1848127e+2, 1.7617486e+2, -1188883.8, -1263535.1, -9945.989, -0.0040692072, -0.010688017, -1187581.4, 25897.898, 0.0, 5.0183163, 4.969852 
3.1847095e+2, 1.8114245e+2, -1149227.3, -1231811.5, -11760.45, -0.0054041985, -0.0021580514, -1147585.1, 17211.674, 0.0, 5.01775, 4.964252 
3.1845924e+2, 1.8610789e+2, -1100999.4, -1181817.1, -12292.669, -0.0033266859, 0.0020399273, -1099171.0, 16969.47, 0.0, 5.0171604, 4.9648004 
3.184475e+2, 1.910734e+2, -1053548.8, -1133446.4, -12465.16, -0.0009992026, 0.00590655, -1051649.3, 15834.609, 0.0, 5.0165625, 4.964805 
3.184358e+2, 1.9603895e+2, -1006997.8, -1086991.4, -12645.192, 0.0013296744, 0.010063062, -1005046.5, 13780.48, 0.0, 5.015957, 4.96416 
3.1842387e+2, 2.0100154e+2, -965216.75, -1050860.8, -13030.152, 0.003247966, 0.019572565, -963278.2, 6917.6426, 0.0, 5.015349, 4.9599934 
3.1841123e+2, 2.0596161e+2, -916089.3, -998884.8, -12922.804, 0.00086946, 0.0067008245, -914119.2, 7461.7285, 0.0, 5.0147386, 4.961204 
3.1839854e+2, 2.1092165e+2, -868613.44, -950454.7, -12737.6875, -0.00214393, -0.00832138, -866676.75, 6288.9297, 0.0, 5.0141234, 4.961209 
3.1838584e+2, 2.158817e+2, -821803.75, -903473.5, -12561.182, -0.0051711053, -0.02315243, -819915.5, 4434.9155, 0.0, 5.013504, 4.960714 
3.183729e+2, 2.2083904e+2, -783451.3, -875353.3, -12906.86, -0.008886971, -0.018882176, -781673.06, -5906.7134, 0.0, 5.0129533, 4.9536676 
3.183596e+2, 2.2579564e+2, -733957.2, -823042.5, -13232.181, -0.010288694, -0.0059043015, -732033.3, -4828.73, 0.0, 5.01242, 4.954894 
3.183464e+2, 2.3075242e+2, -686202.9, -774458.6, -13417.55, -0.011132064, 0.0055865133, -684208.1, -5566.108, 0.0, 5.0118537, 4.9548926 
3.1833318e+2, 2.3570916e+2, -639126.8, -727335.6, -13583.64, -0.012070106, 0.016495252, -637082.4, -7002.4443, 0.0, 5.0112705, 4.9543886 
3.1832016e+2, 2.4066415e+2, -599643.0, -696802.2, -13670.533, -0.013954777, 0.057362795, -597756.1, -16225.588, 0.0, 5.010633, 4.9481306 
3.1830573e+2, 2.4561538e+2, -547985.2, -640302.06, -14310.993, -0.017453536, 0.063431874, -545817.56, -12815.035, 0.0, 5.0102115, 4.950739 
3.1829104e+2, 2.5056577e+2, -499498.94, -591335.6, -13920.406, -0.02083914, 0.054894086, -497435.28, -12954.338, 0.0, 5.0098443, 4.950739 
3.1827652e+2, 2.555164e+2, -451209.06, -542908.5, -13586.813, -0.024147002, 0.048589397, -449238.3, -13281.09, 0.0, 5.009478, 4.9505415 
3.1826162e+2, 2.6045936e+2, -416712.1, -525444.44, -12091.269, -0.03762988, 0.038585767, -415383.75, -27865.996, 0.0, 5.009107, 4.9389052 
3.182501e+2, 2.6540738e+2, -363991.7, -458319.6, -11415.617, -0.024389153, 0.005540339, -362629.8, -23562.768, 0.0, 5.006703, 4.945049 
3.1824014e+2, 2.703583e+2, -322374.44, -412479.44, -10578.422, -0.0011444497, -0.035477992, -321149.2, -30556.82, 0.0, 5.003214, 4.9451833 
3.182311e+2, 2.7530792e+2, -282493.34, -367725.34, -9231.02, 0.022488749, -0.096321315, -281505.06, -39375.023, 0.0, 4.9989877, 4.9452662 
3.1820735e+2, 2.8027412e+2, -299167.28, -464376.56, -17927.363, -0.046813868, 0.32643384, -297244.28, -103751.516, 0.0, 4.9991384, 4.8953934 
3.181958e+2, 2.8522384e+2, -185629.55, -268975.13, 155.10146, -0.06714959, 0.54499054, -185629.25, -40677.566, 0.0, 5.002352, 4.9434214 
3.1820026e+2, 2.9015067e+2, -137923.19, -220470.5, 1980.3494, -0.0099019315, 0.31661052, -137875.7, -41248.605, 0.0, 5.001906, 4.943186 
3.1820574e+2, 2.9507577e+2, -92540.22, -173162.2, 4251.0293, 0.04249052, 0.06800498, -92316.69, -43997.332, 0.0, 5.0003896, 4.942948 
3.1821197e+2, 3.0000103e+2, -51693.26, -102462.68, 5572.348, 0.06427034, -0.25524616, -51088.848, -51068.125, 0.0, 4.998575, 4.9605856 
3.1823203e+2, 3.0498922e+2, -46948.867, -78991.45, 3286.15, 0.10901229, -0.18459094, -46615.324, -46615.324, 0.0, 4.9965596, 4.966948 
3.1825894e+2, 3.100083e+2, -55125.293, -74408.64, 2090.7039, 0.18432462, 0.08883429, -54901.223, -54901.223, 0.0, 4.992108, 4.9698033 
3.1828895e+2, 3.15033e+2, -68630.49, -72526.3, -797.59845, 0.26148123, 0.38329193, -68473.516, -68473.516, 0.0, 4.9854255, 4.9726543 
3.2356527e+2, 1.2143911e+2, -1686444.1, -1750361.8, -1242.5, -0.025938664, -0.0070644347, -1686420.0, 63474.19, 0.0, 5.025536, 4.9838395 
3.2356626e+2, 1.2642191e+2, -1642955.4, -1710363.9, -2823.2869, 0.001617273, 0.008317648, -1642837.4, 58226.285, 0.0, 5.025067, 4.9811416 
3.235641e+2, 1.3140242e+2, -1595817.6, -1662316.6, -3021.145, 0.00069372816, 0.0011085346, -1595680.6, 56574.32, 0.0, 5.024466, 4.9811406 
3.2356197e+2, 1.3638291e+2, -1550848.5, -1618748.0, -3212.6968, -0.00014007287, -0.004824518, -1550696.9, 52749.582, 0.0, 5.023865, 4.9796515 
3.2355824e+2, 1.41361e+2, -1509807.5, -1583571.5, -6459.4897, 0.00015254832, 0.007001074, -1509246.1, 45415.13, 0.0, 5.0233154, 4.975273 
3.2355165e+2, 1.4633651e+2, -1461515.5, -1533940.1, -7056.9136, 0.0010609548, 0.0029380694, -1460834.3, 45066.65, 0.0, 5.022867, 4.9756904 
3.2354504e+2, 1.5131195e+2, -1413826.5, -1485572.6, -7172.0015, 0.0018388188, -0.0027709715, -1413116.6, 44025.066, 0.0, 5.022419, 4.9756904 
3.2353842e+2, 1.5628736e+2, -1367544.0, -1440152.1, -7285.1494, 0.002631089, -0.008014807, -1366820.3, 41562.316, 0.0, 5.021971, 4.974703 
3.2353058e+2, 1.6125956e+2, -1326807.9, -1405925.0, -9523.389, 0.0028425148, -0.0063061784, -1325677.6, 33976.797, 0.0, 5.021425, 4.970021 
3.2352054e+2, 1.6623016e+2, -1279410.6, -1356687.5, -10133.991, 0.0017147858, -0.0067109237, -1278103.8, 32837.31, 0.0, 5.020649, 4.970442 
3.2351044e+2, 1.7120087e+2, -1232628.3, -1308706.8, -10348.023, 0.00059906545, -0.0067809774, -1231245.9, 30980.98, 0.0, 5.019863, 4.9704423 
3.2350034e+2, 1.7617157e+2, -1186965.1, -1263114.4, -10562.535, -0.00043178318, -0.006380361, -1185527.1, 27985.33, 0.0, 5.019077, 4.969636 
3.2348937e+2, 1.8113904e+2, -1147554.9, -1231175.6, -12315.216, -0.00141512, 0.0024083091, -1145778.9, 19052.717, 0.0, 5.018356, 4.964181 
3.234769e+2, 1.8610406e+2, -1099516.6, -1181263.0, -12672.823, -0.0010953876, 0.0031366902, -1097597.0, 18581.623, 0.0, 5.0177016, 4.9647336 
3.2346436e+2, 1.9106917e+2, -1052252.6, -1132984.9, -12665.928, -0.00049618824, 0.003595444, -1050312.1, 17213.203, 0.0, 5.0170417, 4.964738 
3.2345185e+2, 1.960343e+2, -1005866.7, -1086612.5, -12662.539, 0.00019010097, 0.0044560554, -1003927.5, 14944.265, 0.0, 5.0163803, 4.9640913 
3.234392e+2, 2.0099676e+2, -964159.5, -1050306.3, -12952.814, 0.0012188272, 0.012982549, -962254.1, 7987.4053, 0.0, 5.0157022, 4.9600167 
3.2342604e+2, 2.0595722e+2, -915163.3, -998241.94, -13024.686, -0.000040485014, 0.0033026175, -913169.25, 8453.135, 0.0, 5.0150156, 4.961294 
3.234128e+2, 2.1091768e+2, -867886.6, -949920.44, -13040.299, -0.0017337733, -0.008454784, -865863.56, 7139.212, 0.0, 5.0143337, 4.961295 
3.233996e+2, 2.1587814e+2, -821262.06, -903041.7, -13053.657, -0.0033541892, -0.019947834, -819228.94, 5154.103, 0.0, 5.013651, 4.960796 
3.233861e+2, 2.208356e+2, -783192.7, -875297.9, -13306.977, -0.0065949643, -0.015126851, -781308.7, -5510.9907, 0.0, 5.0130434, 4.9536505 
3.233722e+2, 2.2579174e+2, -734129.3, -823466.06, -13555.974, -0.00915485, -0.005194133, -732117.6, -4876.416, 0.0, 5.0124245, 4.954749 
3.2335827e+2, 2.3074807e+2, -686576.5, -774879.5, -13724.561, -0.011033771, 0.0036222148, -684492.56, -5808.7363, 0.0, 5.0117793, 4.9547772 
3.233444e+2, 2.357044e+2, -639657.0, -727735.2, -13904.846, -0.012926331, 0.011856222, -637514.0, -7387.3975, 0.0, 5.011132, 4.9543033 
3.2333073e+2, 2.406591e+2, -599922.75, -696095.25, -13715.227, -0.01600475, 0.04926535, -598005.06, -16424.768, 0.0, 5.0104456, 4.9484105 
3.233159e+2, 2.456107e+2, -547026.2, -638904.2, -14195.392, -0.02145993, 0.055585522, -544882.94, -11837.26, 0.0, 5.0104485, 4.9510617 
3.2330087e+2, 2.5056168e+2, -497140.66, -589507.9, -13839.807, -0.0269792, 0.049505405, -495111.56, -10595.964, 0.0, 5.010595, 4.9509993 
3.23286e+2, 2.5551292e+2, -447503.03, -540685.56, -13459.091, -0.03257785, 0.0468382, -445598.0, -9615.185, 0.0, 5.0107255, 4.9507384 
3.2327107e+2, 2.6045686e+2, -411328.25, -522267.4, -11564.012, -0.04599337, 0.042580485, -410135.66, -22603.201, 0.0, 5.0109367, 4.939206 
3.2325923e+2, 2.654048e+2, -354929.22, -453335.34, -13892.614, -0.028284263, 0.013948544, -353005.5, -13916.174, 0.0, 5.010122, 4.94519 
3.232491e+2, 2.7035633e+2, -306085.9, -401793.66, -17446.47, 0.004920081, -0.020068502, -303004.78, -12389.173, 0.0, 5.0090303, 4.946121 
3.2324016e+2, 2.7530795e+2, -257090.1, -350601.97, -21384.947, 0.045154937, -0.069499336, -252431.69, -10290.459, 0.0, 5.007874, 4.9470067 
3.2321724e+2, 2.8027424e+2, -254631.22, -437197.78, -26258.963, -0.022900362, 0.32319683, -250929.4, -57421.055, 0.0, 5.013311, 4.8991966 
3.232038e+2, 2.852222e+2, -151511.73, -259884.33, -6373.451, -0.06786898, 0.5273693, -151138.19, -6158.056, 0.0, 5.0147414, 4.9427667 
3.2320556e+2, 2.9014876e+2, -115211.56, -213950.55, -4141.998, -0.01996152, 0.31489268, -115038.12, -18386.664, 0.0, 5.0100603, 4.9431458 
3.2320857e+2, 2.9507333e+2, -78668.44, -168120.38, -2567.0933, 0.030189276, 0.07175905, -78594.83, -30252.209, 0.0, 5.0052166, 4.9435267 
3.2321304e+2, 3.0000058e+2, -43545.12, -95051.69, -1214.0466, 0.058662288, -0.23723459, -43516.52, -43494.695, 0.0, 5.00088, 4.9628205 
3.2323322e+2, 3.0499095e+2, -45290.39, -81878.08, -7423.455, 0.13189287, -0.11757972, -43841.582, -43841.582, 0.0, 4.998513, 4.965824 
3.2326123e+2, 3.1001237e+2, -48913.855, -75466.21, -12438.839, 0.257927, 0.23464544, -43997.133, -43997.133, 0.0, 4.996118, 4.9686527 
3.2329333e+2, 3.1504253e+2, -52162.156, -69440.07, -17304.957, 0.407362, 0.6479506, -41459.625, -41459.625, 0.0, 4.993524, 4.9714875 
3.2859123e+2, 1.2143709e+2, -1687533.3, -1752567.0, -784.35034, -0.022102645, -0.013288939, -1687523.9, 62390.95, 0.0, 5.0255327, 4.983117 
3.2859182e+2, 1.2642147e+2, -1643321.1, -1711120.9, -3278.9622, 0.00687857, 0.020834425, -1643163.0, 57906.336, 0.0, 5.025068, 4.9808936 
3.285888e+2, 1.3140109e+2, -1596178.6, -1663070.4, -3474.6414, 0.0028662973, 0.0072894874, -1595998.6, 56270.51, 0.0, 5.024468, 4.980892 
3.2858574e+2, 1.3638069e+2, -1551202.8, -1619494.0, -3663.0027, -0.0010935639, -0.0050010355, -1551006.8, 52462.445, 0.0, 5.023867, 4.979405 
3.2858124e+2, 1.4135814e+2, -1510024.3, -1584029.8, -6824.8267, -0.002943583, 0.0024169316, -1509400.1, 45289.914, 0.0, 5.023317, 4.9751225 
3.2857427e+2, 1.4633362e+2, -1461706.1, -1534348.3, -7396.356, -0.0016080664, -0.00072157016, -1460960.6, 44968.99, 0.0, 5.0228686, 4.9755564 
3.2856727e+2, 1.5130903e+2, -1414012.9, -1485978.1, -7509.7915, -0.000281159, -0.0052490826, -1413237.6, 43932.344, 0.0, 5.022422, 4.9755564 
3.2856023e+2, 1.562844e+2, -1367725.0, -1440552.5, -7620.799, 0.0010460686, -0.0093326215, -1366936.0, 41474.297, 0.0, 5.0219746, 4.9745693 
3.2855192e+2, 1.6125657e+2, -1327115.0, -1406592.8, -10068.389, 0.0020943538, -0.006455358, -1325859.3, 33823.227, 0.0, 5.021428, 4.9697986 
3.2854128e+2, 1.6622707e+2, -1279777.8, -1357487.9, -10734.716, 0.0027812556, -0.0051784962, -1278322.1, 32649.027, 0.0, 5.0206532, 4.9701743 
3.2853058e+2, 1.7119767e+2, -1232988.3, -1309499.6, -10946.008, 0.00350793, -0.0035252369, -1231453.1, 30805.775, 0.0, 5.019868, 4.9701757 
3.285199e+2, 1.7616828e+2, -1187318.1, -1263899.8, -11157.659, 0.0042744977, -0.0014410786, -1185725.6, 27820.92, 0.0, 5.0190825, 4.969371 
3.2850826e+2, 1.8113555e+2, -1147541.1, -1231161.4, -12817.42, 0.0038390183, 0.0069280844, -1145620.5, 19247.252, 0.0, 5.0183578, 4.964186 
3.284949e+2, 1.8610018e+2, -1099461.0, -1181174.1, -13165.1, 0.0020766777, 0.00339967, -1097392.4, 18824.994, 0.0, 5.017706, 4.9647646 
3.284815e+2, 1.9106488e+2, -1052184.4, -1132891.3, -13151.829, 0.00044723204, -0.0005139527, -1050095.3, 17471.197, 0.0, 5.017049, 4.964769 
3.284681e+2, 1.9602959e+2, -1005785.9, -1086514.1, -13141.998, -0.0011566428, -0.004105948, -1003700.4, 15215.167, 0.0, 5.0163913, 4.9641223 
3.2845464e+2, 2.0099187e+2, -964164.94, -1050375.3, -13494.474, -0.001528059, 0.0027051654, -962102.0, 8183.9434, 0.0, 5.0157104, 4.959993 
3.284409e+2, 2.0595284e+2, -915151.25, -998257.94, -13554.458, -0.0013878302, -0.0017438045, -912996.44, 8666.256, 0.0, 5.0150213, 4.96129 
3.284272e+2, 2.1091382e+2, -867871.2, -949926.2, -13563.288, -0.0015557571, -0.008002169, -865687.4, 7351.25, 0.0, 5.0143394, 4.9612937 
3.2841346e+2, 2.1587484e+2, -821243.44, -903037.25, -13569.812, -0.0017027678, -0.014036573, -819050.94, 5363.5586, 0.0, 5.013657, 4.9607973 
3.283994e+2, 2.208325e+2, -783044.1, -874989.0, -13745.537, -0.004432125, -0.008045714, -781033.2, -5205.7266, 0.0, 5.0130453, 4.953762 
3.2838473e+2, 2.2578806e+2, -734247.0, -823797.25, -13993.268, -0.008097316, -0.0026285858, -732111.3, -4835.2813, 0.0, 5.012434, 4.9546466 
3.2837015e+2, 2.307438e+2, -686662.7, -775212.44, -14139.29, -0.011122806, 0.002084912, -684459.75, -5735.919, 0.0, 5.011799, 4.95467 
3.2835555e+2, 2.3569949e+2, -639711.8, -728070.1, -14296.969, -0.014233223, 0.00611275, -637456.06, -7284.0254, 0.0, 5.011162, 4.9541907 
3.2834122e+2, 2.4065349e+2, -599200.56, -695117.56, -13926.449, -0.01860928, 0.036054995, -597219.44, -15587.627, 0.0, 5.0105343, 4.9487205 
3.2832608e+2, 2.456053e+2, -546286.0, -637927.5, -14188.328, -0.026639178, 0.041159455, -544139.56, -11046.292, 0.0, 5.0105405, 4.951373 
3.2831082e+2, 2.5055677e+2, -496490.5, -588532.44, -13801.894, -0.035132144, 0.03694119, -494465.44, -9909.136, 0.0, 5.0106564, 4.9513245 
3.2829568e+2, 2.5550857e+2, -446942.5, -539710.94, -13390.343, -0.043851964, 0.036373116, -445048.38, -9032.107, 0.0, 5.0107555, 4.951078 
3.282807e+2, 2.60454e+2, -411127.0, -522287.22, -11270.11, -0.059347343, 0.040646266, -409995.88, -22445.61, 0.0, 5.0109763, 4.939299 
3.2826802e+2, 2.6540098e+2, -356851.38, -460136.94, -13061.37, -0.056872178, 0.0306497, -355225.25, -16106.382, 0.0, 5.0104156, 4.9429975 
3.2825673e+2, 2.7035004e+2, -307222.22, -408885.47, -16078.257, -0.045802444, 0.009687625, -304740.0, -14067.595, 0.0, 5.009604, 4.9437356 
3.2824638e+2, 2.7529863e+2, -257441.53, -357987.03, -19480.752, -0.031465188, -0.030916508, -253799.08, -11568.305, 0.0, 5.008728, 4.9444284 
3.282239e+2, 2.802572e+2, -247457.66, -417445.84, -24686.482, -0.12204656, 0.27516446, -243945.16, -50269.7, 0.0, 5.012907, 4.906023 
3.282102e+2, 2.8520405e+2, -154037.36, -255523.28, -10760.522, -0.14614068, 0.43185768, -152908.97, -7753.928, 0.0, 5.0133953, 4.9446273 
3.2821e+2, 2.9013446e+2, -117023.086, -210544.83, -7882.8213, -0.074340686, 0.25250977, -116363.31, -19577.95, 0.0, 5.009011, 4.944648 
3.282109e+2, 2.950625e+2, -79763.445, -165669.47, -5660.8906, -0.0053641377, 0.04200465, -79392.016, -30953.072, 0.0, 5.0044637, 4.9446716 
3.282137e+2, 2.999976e+2, -42548.79, -90055.44, -3090.0293, 0.04098159, -0.20426688, -42348.645, -42308.297, 0.0, 5.0003505, 4.9648237 
3.2823187e+2, 3.0498663e+2, -51117.18, -93696.74, -7315.8066, 0.116522476, -0.05484312, -49895.277, -49895.277, 0.0, 4.998114, 4.9619713 
3.2825702e+2, 3.099996e+2, -53697.953, -85380.13, -11023.037, 0.22664014, 0.2797508, -50240.145, -50240.145, 0.0, 4.9958663, 4.965258 
3.2828587e+2, 3.150211e+2, -55898.02, -77451.64, -14574.895, 0.34843814, 0.6654295, -48548.406, -48548.406, 0.0, 4.993421, 4.9685507 
3.3361712e+2, 1.21435024e+2, -1688523.3, -1754568.0, -309.2032, -0.018516285, -0.019863196, -1688521.8, 61414.13, 0.0, 5.02553, 4.982462 
3.3361742e+2, 1.2642103e+2, -1643687.6, -1711877.6, -3734.2197, 0.012186732, 0.033419877, -1643483.8, 57591.25, 0.0, 5.0250688, 4.980645 
3.3361349e+2, 1.3139977e+2, -1596540.4, -1663823.6, -3927.72, 0.005090746, 0.013514842, -1596311.9, 55971.527, 0.0, 5.0244694, 4.9806437 
3.3360952e+2, 1.3637848e+2, -1551557.5, -1620239.6, -4112.891, -0.0019901532, -0.0051574125, -1551312.1, 52179.92, 0.0, 5.0238695, 4.9791584 
3.3360425e+2, 1.4135529e+2, -1510251.3, -1584508.6, -7192.109, -0.006016917, -0.0021186606, -1509561.1, 45157.816, 0.0, 5.0233183, 4.974965 
3.335969e+2, 1.4633071e+2, -1461897.0, -1534756.4, -7735.4717, -0.0042692814, -0.0043514734, -1461084.8, 44873.54, 0.0, 5.0228705, 4.9754214 
3.3358946e+2, 1.513061e+2, -1414199.6, -1486383.5, -7847.2563, -0.002401751, -0.007733983, -1413356.4, 43841.82, 0.0, 5.022424, 4.9754214 
3.3358207e+2, 1.5628144e+2, -1367906.3, -1440952.8, -7956.121, -0.0005479805, -0.010693733, -1367049.8, 41388.434, 0.0, 5.021978, 4.974436 
3.335733e+2, 1.6125357e+2, -1327435.0, -1407287.1, -10616.944, 0.0014098659, -0.0065323696, -1326047.5, 33663.047, 0.0, 5.0214314, 4.9695673 
3.3356205e+2, 1.6622399e+2, -1280145.4, -1358288.1, -11335.921, 0.0039159744, -0.0035641675, -1278534.1, 32467.041, 0.0, 5.020657, 4.9699063 
3.3355075e+2, 1.7119448e+2, -1233348.9, -1310292.3, -11544.472, 0.006458464, -0.00023096733, -1231654.1, 30636.818, 0.0, 5.019873, 4.969909 
3.3353946e+2, 1.7616498e+2, -1187671.8, -1264684.8, -11753.262, 0.008995887, 0.0034933884, -1185917.9, 27662.646, 0.0, 5.0190883, 4.9691057 
3.3352715e+2, 1.8113206e+2, -1147547.9, -1231189.6, -13327.521, 0.009130614, 0.011551118, -1145475.6, 19428.375, 0.0, 5.0183597, 4.964177 
3.3351293e+2, 1.8609631e+2, -1099406.9, -1181084.4, -13655.652, 0.0052752425, 0.0037133112, -1097184.3, 19071.707, 0.0, 5.0177097, 4.9647946 
3.3349866e+2, 1.9106059e+2, -1052117.6, -1132796.8, -13636.008, 0.0013783908, -0.0046966886, -1049875.3, 17732.469, 0.0, 5.0170565, 4.9647985 
3.3348438e+2, 1.9602486e+2, -1005706.44, -1086414.9, -13619.732, -0.0025543787, -0.012865204, -1003470.06, 15489.24, 0.0, 5.0164022, 4.9641523 
3.3347014e+2, 2.0098701e+2, -964225.3, -1050561.8, -14048.912, -0.004181378, -0.007335571, -961996.75, 8333.519, 0.0, 5.0157185, 4.959929 
3.3345583e+2, 2.0594847e+2, -915140.06, -998273.5, -14087.347, -0.0026254042, -0.0064700996, -912817.8, 8884.951, 0.0, 5.015027, 4.9612846 
3.3344156e+2, 2.1090999e+2, -867856.75, -949931.44, -14089.394, -0.0013357103, -0.0073929327, -865505.44, 7568.868, 0.0, 5.014345, 4.961291 
3.3342728e+2, 2.1587153e+2, -821225.75, -903032.25, -14089.081, -0.000077015015, -0.008132099, -818867.25, 5578.554, 0.0, 5.0136633, 4.9607973 
3.3341262e+2, 2.2082941e+2, -782961.0, -874819.44, -14192.165, -0.0023056716, -0.0008141061, -780818.3, -4961.099, 0.0, 5.013047, 4.953824 
3.333973e+2, 2.2578436e+2, -734368.44, -824126.4, -14422.951, -0.0070910715, -0.00026485653, -732107.75, -4796.7813, 0.0, 5.0124435, 4.9545393 
3.33382e+2, 2.3073947e+2, -686752.56, -775543.3, -14546.405, -0.011299871, -0.00022757788, -684430.2, -5665.9395, 0.0, 5.011819, 4.9545574 
3.3336672e+2, 2.3569453e+2, -639770.3, -728402.94, -14681.474, -0.01566488, -0.0009789503, -637401.7, -7183.669, 0.0, 5.0111923, 4.9540734 
3.3335185e+2, 2.4064797e+2, -598729.9, -694652.2, -14052.174, -0.021300504, 0.024161628, -596713.6, -15031.399, 0.0, 5.010623, 4.948848 
3.333364e+2, 2.456001e+2, -545570.94, -636926.5, -14195.2705, -0.031927045, 0.029190285, -543416.06, -10277.134, 0.0, 5.010633, 4.9516807 
3.333208e+2, 2.5055206e+2, -495865.44, -587532.7, -13777.977, -0.043460377, 0.026096608, -493839.3, -9243.926, 0.0, 5.0107174, 4.9516463 
3.3330533e+2, 2.5550437e+2, -446406.97, -538711.94, -13335.582, -0.05536796, 0.026890665, -444518.97, -8470.472, 0.0, 5.010786, 4.9514136 
3.332901e+2, 2.6045075e+2, -411692.16, -523835.13, -10867.964, -0.07479263, 0.037595626, -410648.66, -23076.621, 0.0, 5.0110154, 4.938794 
3.3327696e+2, 2.6539624e+2, -358884.03, -466859.1, -11930.36, -0.08742065, 0.036734708, -357581.56, -18423.898, 0.0, 5.010709, 4.9406667 
3.332649e+2, 2.703425e+2, -308466.44, -415897.63, -14409.842, -0.09713666, 0.018438864, -306567.22, -15825.6045, 0.0, 5.010178, 4.9412117 
3.332537e+2, 2.752877e+2, -257898.47, -365292.13, -17275.926, -0.10735188, -0.023723345, -255187.8, -12851.934, 0.0, 5.0095825, 4.9417114 
3.3323017e+2, 2.8024068e+2, -245703.8, -410168.06, -25173.014, -0.22341675, 0.23619802, -241937.06, -48099.95, 0.0, 5.012513, 4.908514 
3.332151e+2, 2.8518823e+2, -156821.23, -250920.03, -14511.753, -0.22665025, 0.37634316, -154634.1, -9326.814, 0.0, 5.01205, 4.9463706 
3.3321345e+2, 2.9012212e+2, -119093.32, -206893.36, -10986.605, -0.12752528, 0.21970092, -117739.42, -20839.81, 0.0, 5.0079618, 4.9460335 
3.3321276e+2, 2.9505333e+2, -81117.65, -162969.27, -8116.279, -0.03629457, 0.031410396, -80320.62, -31801.992, 0.0, 5.0037107, 4.945699 
3.3321398e+2, 2.9999393e+2, -44164.043, -90256.17, -5147.6055, 0.028269788, -0.17067565, -43596.152, -43531.273, 0.0, 4.999823, 4.9647894 
3.3322942e+2, 3.0497915e+2, -57258.688, -105237.336, -7804.321, 0.09353388, -0.021215893, -56021.14, -56021.14, 0.0, 4.997717, 4.9578714 
3.3325094e+2, 3.0998254e+2, -58800.875, -95009.16, -10206.002, 0.17353411, 0.26802272, -56122.273, -56122.273, 0.0, 4.995615, 4.961615 
3.3327574e+2, 3.1499436e+2, -59957.813, -85172.51, -12447.786, 0.25353885, 0.59839594, -54848.15, -54848.15, 0.0, 4.993318, 4.965365 
3.3864298e+2, 1.2143295e+2, -1688854.0, -1756018.6, 398.64194, -0.015365744, -0.02657084, -1688851.6, 61105.285, 0.0, 5.0256977, 4.9819036 
3.3864304e+2, 1.2642057e+2, -1643587.9, -1712414.9, -3947.3433, 0.017376168, 0.045603313, -1643362.3, 57718.38, 0.0, 5.025228, 4.980391 
3.386382e+2, 1.3139845e+2, -1596333.6, -1664307.4, -4172.1665, 0.0073027057, 0.019524971, -1596078.5, 56218.926, 0.0, 5.0246634, 4.98039 
3.3863336e+2, 1.3637629e+2, -1551262.5, -1620675.5, -4387.0854, -0.002776955, -0.0053329035, -1550986.3, 52528.242, 0.0, 5.0240917, 4.9789066 
3.3862728e+2, 1.4135246e+2, -1509845.1, -1584702.4, -7419.3745, -0.008914329, -0.0064877598, -1509116.9, 45630.51, 0.0, 5.0235376, 4.974796 
3.386195e+2, 1.4632784e+2, -1461610.3, -1534941.8, -7964.077, -0.0067557604, -0.007821635, -1460755.3, 45231.473, 0.0, 5.023036, 4.9752817 
3.3861172e+2, 1.5130317e+2, -1414083.9, -1486651.0, -8105.5776, -0.0043339934, -0.01007271, -1413189.5, 44036.73, 0.0, 5.022532, 4.975282 
3.386039e+2, 1.5627852e+2, -1367966.8, -1441302.3, -8243.523, -0.0019263164, -0.011906216, -1367051.6, 41414.313, 0.0, 5.022025, 4.974298 
3.3859468e+2, 1.6125059e+2, -1327731.9, -1407982.3, -11124.51, 0.0009960621, -0.006363471, -1326218.4, 33520.14, 0.0, 5.021446, 4.96933 
3.385828e+2, 1.662209e+2, -1280394.8, -1359021.4, -11862.537, 0.00518963, -0.0018216014, -1278644.1, 32386.95, 0.0, 5.0207005, 4.9696417 
3.3857092e+2, 1.7119129e+2, -1233540.4, -1310995.5, -12043.9795, 0.009418022, 0.003054752, -1231710.8, 30612.014, 0.0, 5.0199347, 4.969645 
3.3855903e+2, 1.7616168e+2, -1187841.0, -1265375.0, -12231.149, 0.013633069, 0.00831804, -1185957.3, 27657.229, 0.0, 5.019157, 4.968842 
3.38546e+2, 1.811286e+2, -1147399.4, -1231170.0, -13709.816, 0.014343463, 0.016155817, -1145212.8, 19727.314, 0.0, 5.018421, 4.9641547 
3.3853096e+2, 1.8609244e+2, -1099178.9, -1180900.4, -13990.841, 0.0084136315, 0.0039978228, -1096850.0, 19444.467, 0.0, 5.017772, 4.9648266 
3.3851582e+2, 1.9105633e+2, -1051915.1, -1132622.4, -13946.295, 0.0022934214, -0.008933828, -1049573.3, 18075.463, 0.0, 5.01711, 4.964832 
3.3850068e+2, 1.9602019e+2, -1005571.4, -1086269.1, -13904.28, -0.0038717845, -0.021650543, -1003242.8, 15759.928, 0.0, 5.016433, 4.964186 
3.384856e+2, 2.0098221e+2, -964353.56, -1050865.9, -14398.433, -0.0065125534, -0.016931668, -962020.1, 8353.811, 0.0, 5.015723, 4.959825 
3.3847076e+2, 2.0594417e+2, -915221.7, -998350.25, -14449.911, -0.0035732232, -0.010787907, -912781.56, 8960.762, 0.0, 5.015006, 4.9612684 
3.3845598e+2, 2.109062e+2, -868049.25, -950055.4, -14509.638, -0.0008965782, -0.0065677236, -865557.75, 7552.0127, 0.0, 5.0142856, 4.9612765 
3.3844113e+2, 2.1586823e+2, -821561.25, -903217.25, -14577.577, 0.0017452412, -0.002130724, -819036.9, 5440.081, 0.0, 5.013553, 4.960785 
3.384259e+2, 2.2082631e+2, -783373.7, -874964.1, -14640.018, 0.000072877, 0.0066988007, -781090.5, -5203.5293, 0.0, 5.012895, 4.953847 
3.384099e+2, 2.2578065e+2, -734867.5, -824565.94, -14719.681, -0.0058672978, 0.0018131654, -732513.7, -5167.6606, 0.0, 5.012315, 4.954449 
3.3839393e+2, 2.3073512e+2, -687218.94, -775963.94, -14673.292, -0.01124819, -0.0035745045, -684855.75, -6050.886, 0.0, 5.0117006, 4.954468 
3.3837798e+2, 2.3568954e+2, -640261.25, -728830.9, -14617.021, -0.016776057, -0.009791674, -637911.3, -7647.122, 0.0, 5.0110655, 4.953984 
3.3836263e+2, 2.406426e+2, -599136.8, -694854.5, -13454.331, -0.023415241, 0.013029537, -597281.6, -15550.619, 0.0, 5.010497, 4.948822 
3.3834693e+2, 2.4559516e+2, -545622.56, -636187.44, -13570.953, -0.03624672, 0.019305553, -543632.75, -10450.833, 0.0, 5.01049, 4.951979 
3.3833098e+2, 2.505476e+2, -496026.63, -586856.4, -13239.962, -0.050349183, 0.016978849, -494136.03, -9504.013, 0.0, 5.010547, 4.9519424 
3.3831516e+2, 2.5550038e+2, -446673.0, -538091.6, -12968.605, -0.06487201, 0.018862346, -444868.88, -8790.384, 0.0, 5.0105925, 4.951708 
3.3829957e+2, 2.6044723e+2, -414378.06, -527086.75, -10035.005, -0.0887613, 0.033925492, -413491.56, -25895.03, 0.0, 5.010553, 4.937855 
3.382864e+2, 2.6539087e+2, -367633.28, -475340.2, -8522.052, -0.111749165, 0.031149834, -366963.16, -27760.572, 0.0, 5.0085807, 4.9386005 
3.3827436e+2, 2.703344e+2, -324866.47, -427979.5, -7826.6514, -0.13394526, 0.004518042, -324275.78, -33459.95, 0.0, 5.0053225, 4.9390774 
3.3826315e+2, 2.7527654e+2, -284663.06, -382147.97, -6744.695, -0.15839112, -0.04906131, -284198.63, -41756.125, 0.0, 5.0010242, 4.9395027 
3.3823732e+2, 2.8022665e+2, -283968.6, -430755.16, -15277.0205, -0.29539034, 0.20455326, -282395.47, -88421.16, 0.0, 4.999963, 4.9067345 
3.3821955e+2, 2.851759e+2, -180647.72, -257016.53, -8274.35, -0.28778416, 0.35810637, -179761.5, -34336.566, 0.0, 5.0035543, 4.947416 
3.3821663e+2, 2.9011232e+2, -129965.35, -207610.55, -7740.3096, -0.16749829, 0.2125282, -129201.26, -32211.828, 0.0, 5.0040855, 4.946994 
3.3821473e+2, 2.9504573e+2, -83308.82, -160226.23, -6359.161, -0.056839876, 0.03325526, -82786.625, -34203.703, 0.0, 5.002949, 4.946566 
3.382144e+2, 2.999892e+2, -45928.246, -93070.33, -4364.228, 0.02380225, -0.14686707, -45527.63, -45427.51, 0.0, 5.000249, 4.9631786 
3.382264e+2, 3.0496877e+2, -70060.99, -117356.1, -3758.8225, 0.07198988, -0.02362346, -69764.125, -69764.125, 0.0, 4.995088, 4.9541354 
3.3824396e+2, 3.099631e+2, -88787.31, -113311.74, -3247.197, 0.121208385, 0.20504986, -88364.65, -88364.65, 0.0, 4.9866657, 4.958261 
3.3826464e+2, 3.1496617e+2, -115612.39, -113273.5, -3850.565, 0.16599691, 0.47322482, -110418.71, -110418.71, 0.0, 4.975045, 4.9623904 
3.4366968e+2, 1.21432476e+2, -1681545.3, -1751982.6, 997.8923, -0.017932685, -0.02866463, -1681531.1, 68430.82, 0.0, 5.028038, 4.9820795 
3.4366947e+2, 1.2641995e+2, -1637561.0, -1710347.0, -3322.365, 0.017776797, 0.045286424, -1637409.8, 63676.47, 0.0, 5.0274315, 4.979993 
3.4366408e+2, 1.3139737e+2, -1590275.9, -1662231.3, -3690.6167, 0.0076869857, 0.018742578, -1590087.0, 62220.33, 0.0, 5.0268826, 4.979993 
3.436587e+2, 1.3637479e+2, -1545148.8, -1618574.0, -4047.4072, -0.0023701468, -0.0065494822, -1544926.3, 58602.49, 0.0, 5.026334, 4.9785113 
3.4365207e+2, 1.413506e+2, -1503783.4, -1582396.1, -7274.8125, -0.00823644, -0.0077907178, -1503115.8, 51649.543, 0.0, 5.025713, 4.9745064 
3.436437e+2, 1.4632583e+2, -1456334.1, -1532989.0, -7953.827, -0.0054635135, -0.007830022, -1455517.5, 50488.984, 0.0, 5.0249443, 4.9750104 
3.4363532e+2, 1.5130104e+2, -1409625.6, -1485101.0, -8221.833, -0.0023790323, -0.008635078, -1408740.4, 48507.45, 0.0, 5.024169, 4.975012 
3.4362692e+2, 1.5627624e+2, -1364311.6, -1440142.6, -8485.698, 0.0007362218, -0.008972066, -1363373.6, 45115.44, 0.0, 5.023394, 4.97403 
3.43617e+2, 1.6124815e+2, -1324522.0, -1406825.8, -11488.515, 0.0038571877, -0.0028325925, -1322948.5, 36815.2, 0.0, 5.022619, 4.9691563 
3.436043e+2, 1.6621818e+2, -1277281.8, -1357876.5, -12160.589, 0.0069864905, 0.00033163975, -1275486.9, 35572.12, 0.0, 5.021834, 4.9694853 
3.435915e+2, 1.7118828e+2, -1230503.0, -1309898.4, -12253.934, 0.010212623, 0.0038823378, -1228654.8, 33698.77, 0.0, 5.021047, 4.969486 
3.4357873e+2, 1.7615838e+2, -1184842.4, -1264307.9, -12348.341, 0.013546745, 0.007936749, -1182967.8, 30680.078, 0.0, 5.02026, 4.968681 
3.4356493e+2, 1.8112512e+2, -1144311.8, -1229611.6, -13731.503, 0.014002691, 0.014741861, -1142155.8, 22819.021, 0.0, 5.0194573, 4.9641933 
3.4354916e+2, 1.8608896e+2, -1096601.5, -1179477.1, -13985.57, 0.008338972, 0.0017368149, -1094305.1, 22022.97, 0.0, 5.018615, 4.9649134 
3.435333e+2, 1.9105284e+2, -1049873.3, -1131444.6, -13925.279, 0.0025999446, -0.011886452, -1047561.5, 20119.271, 0.0, 5.0177703, 4.964922 
3.4351745e+2, 1.9601676e+2, -1004019.2, -1085314.0, -13868.758, -0.0030025726, -0.025129747, -1001718.3, 17314.955, 0.0, 5.0169253, 4.9642806 
3.4350166e+2, 2.0097876e+2, -963532.44, -1050809.8, -14406.728, -0.0051373253, -0.020559203, -961215.9, 9188.188, 0.0, 5.016071, 4.959682 
3.4348598e+2, 2.0594075e+2, -915300.56, -998956.8, -14682.43, -0.0018007407, -0.011778785, -912798.5, 8975.206, 0.0, 5.015091, 4.961024 
3.4347036e+2, 2.1090287e+2, -868931.8, -951044.3, -14966.261, 0.0015069336, -0.004243743, -866289.06, 6853.068, 0.0, 5.0140934, 4.9610286 
3.4345475e+2, 2.1586502e+2, -823208.9, -904570.06, -15249.584, 0.004972027, 0.0037996941, -820444.56, 4065.499, 0.0, 5.013096, 4.960534 
3.4343877e+2, 2.2082314e+2, -784885.6, -875006.25, -15194.851, 0.0043013613, 0.013195184, -782392.6, -6472.2773, 0.0, 5.0122304, 4.954143 
3.4342214e+2, 2.2577706e+2, -736518.25, -824506.94, -14927.138, -0.0022526379, 0.00090446044, -734054.8, -6674.5522, 0.0, 5.0115757, 4.9548106 
3.4340554e+2, 2.3073108e+2, -688981.7, -775885.7, -14585.296, -0.008258821, -0.012055953, -686599.1, -7759.2593, 0.0, 5.0109158, 4.9548497 
3.4338897e+2, 2.3568508e+2, -642076.1, -728709.8, -14262.489, -0.014097705, -0.025726063, -639788.5, -9488.863, 0.0, 5.0102525, 4.954387 
3.4337318e+2, 2.4063787e+2, -601649.8, -695221.75, -12591.569, -0.02049031, -0.009407371, -599985.0, -18218.014, 0.0, 5.0095305, 4.949075 
3.4335747e+2, 2.4559122e+2, -549097.3, -637623.0, -13001.167, -0.031271856, 0.0041644904, -547227.44, -14015.48, 0.0, 5.009312, 4.951941 
3.4334162e+2, 2.505446e+2, -499970.66, -588742.5, -13103.055, -0.042595267, 0.01218884, -498077.0, -13422.286, 0.0, 5.0092144, 4.951828 
3.4332588e+2, 2.554984e+2, -451084.66, -540430.9, -13181.508, -0.053800736, 0.024961445, -449180.53, -13086.601, 0.0, 5.009107, 4.951516 
3.4331045e+2, 2.6044646e+2, -417133.06, -525960.25, -10432.434, -0.07354536, 0.048760142, -416142.03, -28541.41, 0.0, 5.00914, 4.938867 
3.4329766e+2, 2.6538956e+2, -364644.78, -469859.6, -9617.841, -0.088614106, 0.031530663, -363772.84, -24567.377, 0.0, 5.0090775, 4.9402523 
3.4328637e+2, 2.703329e+2, -312735.6, -416653.1, -10465.39, -0.09265833, -0.011914315, -311692.13, -20878.695, 0.0, 5.0089393, 4.9413295 
3.4327632e+2, 2.7527592e+2, -260628.58, -363882.8, -11685.301, -0.08827952, -0.079791695, -259322.66, -16897.584, 0.0, 5.008757, 4.9423604 
3.4325212e+2, 2.8022504e+2, -243077.66, -403659.97, -18974.002, -0.17953855, 0.11724575, -240866.2, -46904.965, 0.0, 5.0128083, 4.9111676 
3.4323233e+2, 2.851719e+2, -156838.34, -254833.66, -6051.493, -0.20234162, 0.2657867, -156466.06, -11026.778, 0.0, 5.0137086, 4.9448323 
3.4322655e+2, 2.901079e+2, -115271.22, -204891.48, -5844.931, -0.1260376, 0.15480064, -114891.63, -17879.035, 0.0, 5.0106297, 4.9456377 
3.4322217e+2, 2.950414e+2, -73408.31, -155164.05, -6237.474, -0.04364506, 0.00094044843, -72935.17, -24324.584, 0.0, 5.007426, 4.9464436 
3.4321946e+2, 2.9998636e+2, -36287.496, -83223.73, -8978.722, 0.02655963, -0.15654644, -34628.54, -34510.895, 0.0, 5.0041537, 4.9644866 
3.4322765e+2, 3.0496615e+2, -53906.563, -103355.59, -13534.301, 0.089739084, -0.032341514, -50444.574, -50444.574, 0.0, 5.0012965, 4.9561634 
3.4324247e+2, 3.0996245e+2, -57734.215, -93407.82, -15772.941, 0.18872744, 0.22379357, -51760.574, -51760.574, 0.0, 4.998482, 4.960316 
3.4326193e+2, 3.149709e+2, -61101.66, -83922.76, -18354.287, 0.31960055, 0.56110543, -50900.164, -50900.164, 0.0, 4.995507, 4.964478 
3.4869722e+2, 1.2143272e+2, -1680792.6, -1750427.3, 68.70853, -0.023071047, -0.029197913, -1680792.5, 69167.01, 0.0, 5.028035, 4.9825907 
3.486967e+2, 1.2641929e+2, -1638254.0, -1711773.4, -3739.638, 0.015922824, 0.03940038, -1638064.3, 63026.758, 0.0, 5.0274324, 4.979524 
3.4869093e+2, 1.3139647e+2, -1590963.8, -1663653.9, -4106.281, 0.007212267, 0.014951493, -1590732.6, 61582.26, 0.0, 5.026884, 4.9795237 
3.4868512e+2, 1.3637361e+2, -1545829.5, -1619988.5, -4460.459, -0.0014922025, -0.008247675, -1545562.3, 57976.742, 0.0, 5.0263352, 4.978044 
3.4867802e+2, 1.413492e+2, -1504286.3, -1583453.3, -7834.3667, -0.0060790014, -0.0077440487, -1503518.4, 51259.766, 0.0, 5.0257154, 4.974158 
3.486689e+2, 1.4632422e+2, -1456811.0, -1534000.9, -8543.457, -0.0026284987, -0.006292611, -1455876.8, 50145.477, 0.0, 5.024947, 4.9746757 
3.486598e+2, 1.5129925e+2, -1410097.1, -1486109.3, -8810.183, 0.0010636465, -0.0055903224, -1409089.3, 48176.973, 0.0, 5.024173, 4.974677 
3.4865072e+2, 1.5627426e+2, -1364776.3, -1441144.5, -9072.096, 0.004774367, -0.004436349, -1363713.4, 44796.99, 0.0, 5.0233984, 4.973696 
3.4864002e+2, 1.6124593e+2, -1324739.1, -1407296.3, -12091.909, 0.007670131, 0.0019199292, -1323004.5, 36783.324, 0.0, 5.0226207, 4.9689994 
3.4862632e+2, 1.6621557e+2, -1277427.6, -1358201.1, -12759.636, 0.008725599, 0.0025144576, -1275460.0, 35626.22, 0.0, 5.0218363, 4.969377 
3.4861252e+2, 1.711853e+2, -1230643.3, -1310220.5, -12850.193, 0.009774481, 0.0033598926, -1228619.6, 33764.16, 0.0, 5.0210505, 4.9693775 
3.4859872e+2, 1.7615505e+2, -1184976.9, -1264627.1, -12941.659, 0.010897075, 0.0046665175, -1182926.9, 30754.42, 0.0, 5.0202646, 4.9685726 
3.485841e+2, 1.811216e+2, -1144216.4, -1229437.9, -14365.537, 0.010579124, 0.01001141, -1141860.0, 23149.3, 0.0, 5.019461, 4.9642544 
3.485676e+2, 1.8608563e+2, -1096439.6, -1179183.3, -14619.003, 0.0066175405, -0.0017522031, -1093932.8, 22426.646, 0.0, 5.0186214, 4.9650154 
3.485511e+2, 1.9104972e+2, -1049699.9, -1131151.1, -14551.884, 0.0025308141, -0.01416346, -1047178.1, 20530.797, 0.0, 5.0177813, 4.965023 
3.4853458e+2, 1.9601384e+2, -1003834.3, -1085020.9, -14488.445, -0.0014806173, -0.02629236, -1001326.25, 17732.037, 0.0, 5.01694, 4.9643803 
3.4851798e+2, 2.0097588e+2, -963781.0, -1051398.0, -15127.103, -0.0027796137, -0.02138128, -961242.8, 9185.603, 0.0, 5.0160785, 4.959482 
3.4850135e+2, 2.0593771e+2, -915751.3, -999962.7, -15456.77, 0.00061745185, -0.010836142, -913003.94, 8797.845, 0.0, 5.015095, 4.960682 
3.4848472e+2, 2.1089971e+2, -869373.06, -952037.25, -15731.747, 0.0040562954, -0.0011369735, -866480.4, 6693.356, 0.0, 5.0140986, 4.9606895 
3.4846807e+2, 2.1586172e+2, -823640.8, -905550.3, -16006.141, 0.007609912, 0.008975198, -820624.1, 3921.2595, 0.0, 5.013102, 4.9601974 
3.4845132e+2, 2.2081974e+2, -784385.0, -873926.3, -15747.403, 0.0076313014, 0.018081808, -781696.3, -5739.2114, 0.0, 5.0122313, 4.9545193 
3.4843406e+2, 2.257734e+2, -735813.9, -823068.3, -15386.455, 0.00095669995, -0.0015844184, -733180.1, -5764.9966, 0.0, 5.0115886, 4.955314 
3.484168e+2, 2.3072706e+2, -688237.8, -774463.8, -15012.991, -0.0056692483, -0.02260878, -685698.6, -6825.4346, 0.0, 5.010944, 4.9553437 
3.483996e+2, 2.356807e+2, -641292.75, -727304.56, -14658.515, -0.012257162, -0.044550728, -638863.2, -8531.464, 0.0, 5.010297, 4.9548717 
3.4838325e+2, 2.4063316e+2, -601204.2, -694911.5, -12852.994, -0.019376328, -0.034931634, -599473.25, -17674.287, 0.0, 5.0096197, 4.9491673 
3.483674e+2, 2.4558744e+2, -549054.56, -638280.5, -13180.384, -0.02857721, -0.010423855, -547148.25, -13909.596, 0.0, 5.009407, 4.9517007 
3.4835145e+2, 2.50542e+2, -499972.72, -589378.56, -13254.143, -0.037961874, 0.011495097, -498049.22, -13374.645, 0.0, 5.009292, 4.9516025 
3.4833562e+2, 2.5549692e+2, -451131.53, -541045.44, -13304.464, -0.04732135, 0.038123444, -449204.22, -13097.331, 0.0, 5.009167, 4.9513054 
3.4831992e+2, 2.6044625e+2, -415742.4, -523736.22, -10217.164, -0.06857934, 0.0722732, -414784.28, -27181.594, 0.0, 5.0092387, 4.93971 
3.4830654e+2, 2.6538795e+2, -362701.2, -468337.53, -8468.841, -0.10456075, 0.040465098, -362026.56, -22816.107, 0.0, 5.009424, 4.940903 
3.4829462e+2, 2.7032876e+2, -310178.47, -415634.56, -8720.003, -0.13428156, -0.024488151, -309462.28, -18631.576, 0.0, 5.009543, 4.9417515 
3.4828383e+2, 2.7526873e+2, -257459.94, -363367.63, -9344.265, -0.15813302, -0.116649404, -256641.8, -14182.229, 0.0, 5.0096173, 4.942554 
3.4826055e+2, 2.802132e+2, -236811.95, -388560.4, -22433.258, -0.23885836, 0.010049664, -233565.06, -39533.03, 0.0, 5.012717, 4.916342 
3.4824106e+2, 2.851621e+2, -159627.69, -255920.94, -11057.41, -0.23038782, 0.16246557, -158374.28, -12876.0625, 0.0, 5.012866, 4.9445863 
3.482341e+2, 2.9010275e+2, -117548.46, -207028.34, -10140.172, -0.15018082, 0.109973684, -116413.73, -19377.92, 0.0, 5.0100265, 4.9450316 
3.4822837e+2, 2.950407e+2, -75169.234, -158350.34, -9823.807, -0.067599654, 0.016066661, -74024.77, -25424.834, 0.0, 5.007063, 4.9454775 
3.4822384e+2, 2.9998976e+2, -36295.19, -85331.164, -10703.756, -0.002221432, -0.08758343, -34060.57, -33985.76, 0.0, 5.0041175, 4.9638066 
3.482273e+2, 3.0496585e+2, -52138.3, -105125.59, -13051.185, 0.03826816, 0.01414004, -49098.12, -49098.12, 0.0, 5.001788, 4.955562 
3.4823653e+2, 3.099559e+2, -54094.406, -93966.62, -13930.356, 0.10337487, 0.22178496, -49709.67, -49709.67, 0.0, 4.999467, 4.9598556 
3.4825012e+2, 3.1495726e+2, -55584.28, -83277.59, -15151.752, 0.19068356, 0.4971271, -48905.21, -48905.21, 0.0, 4.996985, 4.9641566 
3.5372475e+2, 1.21432915e+2, -1679951.3, -1748690.5, -844.4725, -0.028061539, -0.030109106, -1679940.9, 70016.805, 0.0, 5.0280323, 4.9831614 
3.5372397e+2, 1.2641864e+2, -1638947.4, -1713199.5, -4156.359, 0.014072405, 0.033552922, -1638715.5, 62380.29, 0.0, 5.027434, 4.9790554 
3.5371777e+2, 1.3139555e+2, -1591652.4, -1665076.4, -4521.3926, 0.0067461752, 0.011176998, -1591375.0, 60947.35, 0.0, 5.0268855, 4.979055 
3.5371155e+2, 1.3637245e+2, -1546510.9, -1621402.9, -4872.963, -0.0006005537, -0.009951258, -1546195.1, 57353.957, 0.0, 5.0263367, 4.9775767 
3.5370395e+2, 1.413478e+2, -1504796.3, -1584524.5, -8393.927, -0.0039059804, -0.007657429, -1503922.0, 50868.996, 0.0, 5.0257177, 4.9738045 
3.5369414e+2, 1.4632264e+2, -1457288.1, -1535012.9, -9132.55, 0.00022232436, -0.0047246353, -1456229.5, 49808.406, 0.0, 5.0249505, 4.974341 
3.5368437e+2, 1.5129745e+2, -1410568.8, -1487117.8, -9397.995, 0.0045206845, -0.002545656, -1409431.9, 47852.895, 0.0, 5.0241766, 4.9743423 
3.5367453e+2, 1.5627229e+2, -1365241.1, -1442146.4, -9657.954, 0.008825425, 0.000068646725, -1364046.9, 44484.797, 0.0, 5.023403, 4.9733624 
3.53663e+2, 1.612437e+2, -1324971.3, -1407798.3, -12699.739, 0.011518158, 0.0067582205, -1323067.8, 36744.227, 0.0, 5.022623, 4.968832 
3.536483e+2, 1.6621299e+2, -1277574.1, -1358525.8, -13357.6045, 0.010515524, 0.0047892905, -1275426.9, 35686.45, 0.0, 5.0218387, 4.969268 
3.5363352e+2, 1.7118236e+2, -1230784.0, -1310542.5, -13445.375, 0.009390753, 0.002881962, -1228578.4, 33835.66, 0.0, 5.0210543, 4.969269 
3.5361874e+2, 1.7615172e+2, -1185111.9, -1264946.3, -13533.898, 0.008305418, 0.0013933409, -1182880.0, 30834.78, 0.0, 5.0202694, 4.968464 
3.5360318e+2, 1.8111807e+2, -1144137.6, -1229298.4, -15004.205, 0.0071865367, 0.0053908564, -1141571.4, 23472.268, 0.0, 5.019465, 4.964303 
3.5358605e+2, 1.8608233e+2, -1096279.0, -1178888.6, -15249.345, 0.004941401, -0.0051960736, -1093553.9, 22836.705, 0.0, 5.018628, 4.9651165 
3.5356888e+2, 1.9104663e+2, -1049527.6, -1130856.9, -15175.397, 0.0025188082, -0.016543306, -1046788.3, 20948.63, 0.0, 5.0177917, 4.965122 
3.535517e+2, 1.9601093e+2, -1003650.7, -1084727.1, -15105.044, 0.00011029007, -0.02770568, -1000928.0, 18155.283, 0.0, 5.016955, 4.964478 
3.5353434e+2, 2.0097302e+2, -964109.25, -1052158.8, -15863.846, -0.00030516845, -0.021776913, -961338.25, 9114.234, 0.0, 5.016086, 4.9592233 
3.535167e+2, 2.0593472e+2, -916202.7, -1000968.94, -16232.339, 0.003160913, -0.009328601, -913200.6, 8628.792, 0.0, 5.0150995, 4.960338 
3.5349908e+2, 2.1089657e+2, -869814.94, -953030.5, -16498.46, 0.0067054085, 0.0022949069, -866663.25, 6541.7944, 0.0, 5.014104, 4.9603486 
3.5348147e+2, 2.1585844e+2, -824073.3, -906530.9, -16763.922, 0.01032205, 0.0142362, -820795.44, 3784.9814, 0.0, 5.0131083, 4.9598594 
3.5346383e+2, 2.2081637e+2, -783979.44, -873049.9, -16310.025, 0.010932031, 0.02321307, -781086.8, -5092.9897, 0.0, 5.012233, 4.9548235 
3.5344598e+2, 2.2576971e+2, -735114.75, -821627.1, -15830.292, 0.004159224, -0.004310593, -732309.06, -4858.87, 0.0, 5.011601, 4.95581 
3.534281e+2, 2.3072301e+2, -687499.06, -773039.4, -15425.223, -0.0030423666, -0.034192286, -684802.5, -5895.484, 0.0, 5.0109725, 4.955831 
3.5341024e+2, 2.3567623e+2, -640514.44, -725896.7, -15039.091, -0.010335224, -0.06519882, -637942.9, -7578.3496, 0.0, 5.010341, 4.95535 
3.5339344e+2, 2.406286e+2, -601101.5, -695329.5, -13063.4, -0.018168215, -0.058905303, -599324.0, -17494.363, 0.0, 5.0097084, 4.9490023 
3.5337743e+2, 2.4558389e+2, -549027.75, -638922.94, -13371.154, -0.025843024, -0.021857426, -547081.06, -13817.956, 0.0, 5.009502, 4.9514565 
3.5336134e+2, 2.5053957e+2, -499990.78, -589999.44, -13416.762, -0.033355363, 0.013145565, -498033.44, -13340.895, 0.0, 5.00937, 4.9513726 
3.5334536e+2, 2.5549564e+2, -451194.34, -541644.8, -13438.93, -0.040935256, 0.052819386, -449239.88, -13121.609, 0.0, 5.0092273, 4.95109 
3.533293e+2, 2.604456e+2, -415114.75, -523099.2, -9840.44, -0.06479829, 0.09402646, -414225.34, -26615.701, 0.0, 5.009337, 4.93993 
3.5331577e+2, 2.6538512e+2, -360838.13, -466767.9, -6974.0566, -0.12031267, 0.035039134, -360380.97, -21153.902, 0.0, 5.0097704, 4.9413767 
3.533037e+2, 2.7032304e+2, -307699.75, -414567.3, -6629.8276, -0.17345332, -0.06470826, -307290.03, -16426.25, 0.0, 5.010146, 4.9419956 
3.5329267e+2, 2.7525952e+2, -254367.77, -362802.47, -6659.3716, -0.22328174, -0.1944191, -253960.31, -11446.303, 0.0, 5.010477, 4.942569 
3.5326886e+2, 2.8020132e+2, -238377.84, -391551.7, -27074.402, -0.3014126, -0.0897172, -233733.13, -39629.555, 0.0, 5.0126386, 4.9151745 
3.5324854e+2, 2.8515378e+2, -162620.5, -256820.86, -15408.264, -0.26652795, 0.103061415, -160164.23, -14622.013, 0.0, 5.012024, 4.944178 
3.532407e+2, 2.9009873e+2, -120027.14, -208977.36, -13778.376, -0.17918707, 0.095705785, -117941.76, -20893.99, 0.0, 5.009424, 4.944263 
3.5323408e+2, 2.950408e+2, -77129.67, -161348.27, -12750.931, -0.09318819, 0.04839758, -75241.484, -26659.75, 0.0, 5.0067005, 4.9443483 
3.5322794e+2, 2.9999253e+2, -36578.57, -87371.26, -12187.166, -0.032175135, -0.022159444, -33805.758, -33767.844, 0.0, 5.0040827, 4.962996 
3.532266e+2, 3.0496338e+2, -50615.98, -106655.695, -12691.37, -0.023794137, 0.025643192, -47875.746, -47875.746, 0.0, 5.0022817, 4.9546556 
3.532303e+2, 3.0994588e+2, -50702.715, -94281.555, -12209.739, -0.0032824106, 0.15273511, -47515.016, -47515.016, 0.0, 5.000454, 4.959089 
3.53238e+2, 3.1493887e+2, -50319.113, -82384.73, -12070.729, 0.029742593, 0.33403325, -46283.203, -46283.203, 0.0, 4.9984665, 4.9635296 
3.5875237e+2, 1.2143313e+2, -1678461.6, -1746591.8, -1631.2552, -0.032496754, -0.030804213, -1678422.6, 71533.05, 0.0, 5.0282345, 4.983751 
3.5875124e+2, 1.2641798e+2, -1638892.5, -1714243.3, -4503.1416, 0.01224278, 0.027587995, -1638624.4, 62476.46, 0.0, 5.027682, 4.9785914 
3.5874462e+2, 1.3139465e+2, -1591617.9, -1666129.1, -4835.043, 0.006277959, 0.0073994687, -1591305.5, 61024.344, 0.0, 5.027126, 4.978591 
3.58738e+2, 1.3637131e+2, -1546517.1, -1622470.8, -5151.958, 0.00029304647, -0.011544072, -1546169.3, 57389.85, 0.0, 5.026562, 4.9771147 
3.587299e+2, 1.4134642e+2, -1504702.5, -1585300.5, -8790.258, -0.0017359923, -0.007353877, -1503755.0, 51048.68, 0.0, 5.0259237, 4.9734497 
3.5871938e+2, 1.4632106e+2, -1457209.1, -1535746.4, -9540.456, 0.0030183, -0.0030469254, -1456066.8, 49986.46, 0.0, 5.0251403, 4.974008 
3.5870886e+2, 1.512957e+2, -1410545.8, -1487880.1, -9790.554, 0.007880925, 0.00048964773, -1409325.5, 47977.406, 0.0, 5.0243473, 4.974009 
3.5869834e+2, 1.5627033e+2, -1365282.1, -1442938.6, -10036.869, 0.012750219, 0.0044607176, -1364005.9, 44546.88, 0.0, 5.023551, 4.97303 
3.58686e+2, 1.612415e+2, -1324840.5, -1408143.1, -13091.506, 0.015259706, 0.011552914, -1322831.5, 37004.426, 0.0, 5.022753, 4.968656 
3.5867032e+2, 1.6621043e+2, -1277363.8, -1358675.0, -13732.788, 0.012266968, 0.007059998, -1275107.0, 36033.29, 0.0, 5.021962, 4.969159 
3.5865453e+2, 1.7117941e+2, -1230606.1, -1310708.0, -13819.92, 0.009039278, 0.002404755, -1228288.9, 34155.27, 0.0, 5.0211663, 4.96916 
3.5863876e+2, 1.761484e+2, -1184983.8, -1265135.4, -13909.655, 0.0058273254, -0.0018628781, -1182638.5, 31109.387, 0.0, 5.0203643, 4.968355 
3.586223e+2, 1.811146e+2, -1143891.9, -1229104.3, -15443.325, 0.0039253137, 0.00093159167, -1141179.4, 23898.443, 0.0, 5.019533, 4.9643373 
3.5860452e+2, 1.8607906e+2, -1096062.1, -1178568.8, -15707.496, 0.0034284429, -0.00849422, -1093173.0, 23248.592, 0.0, 5.0186577, 4.965212 
3.5858667e+2, 1.9104357e+2, -1049463.3, -1130615.3, -15667.696, 0.002756647, -0.018795302, -1046543.4, 21221.383, 0.0, 5.01777, 4.965216 
3.5856885e+2, 1.9600807e+2, -1003775.9, -1084579.4, -15637.052, 0.0020888045, -0.028940035, -1000855.4, 18252.54, 0.0, 5.016869, 4.9645705 
3.5855073e+2, 2.0097026e+2, -964917.6, -1053246.0, -16517.994, 0.0026851809, -0.02127307, -961929.75, 8546.165, 0.0, 5.015953, 4.9589167 
3.5853207e+2, 2.059318e+2, -917018.8, -1002133.8, -16845.88, 0.006115958, -0.00708527, -913806.0, 8050.3706, 0.0, 5.014977, 4.959997 
3.5851344e+2, 2.1089348e+2, -870633.8, -954201.1, -17072.822, 0.00966036, 0.0059736185, -867280.4, 5955.5625, 0.0, 5.0139785, 4.9600058 
3.5849485e+2, 2.1585518e+2, -824941.4, -907726.6, -17325.674, 0.013274191, 0.019306945, -821461.7, 3153.5845, 0.0, 5.0129642, 4.959515 
3.5847634e+2, 2.2081296e+2, -784193.44, -872591.94, -16691.793, 0.014344771, 0.028156936, -781146.7, -5115.9424, 0.0, 5.012045, 4.9550653 
3.584579e+2, 2.2576602e+2, -735063.25, -820413.2, -16010.074, 0.007486828, -0.0076409155, -732158.9, -4673.431, 0.0, 5.01138, 4.956322 
3.5843942e+2, 2.3071896e+2, -687585.7, -771899.75, -15488.77, -0.00014226542, -0.046831362, -684830.4, -5889.605, 0.0, 5.0107064, 4.95634 
3.58421e+2, 2.3567183e+2, -640800.5, -724855.6, -14970.218, -0.0078869825, -0.08711222, -638213.9, -7817.009, 0.0, 5.0100093, 4.955855 
3.5840374e+2, 2.4062437e+2, -602749.7, -696946.44, -12606.7295, -0.016128998, -0.08040904, -601091.7, -19234.484, 0.0, 5.0093083, 4.9486256 
3.5838765e+2, 2.4558078e+2, -550546.7, -640155.94, -12871.196, -0.022027602, -0.029567452, -548734.56, -15451.021, 0.0, 5.009081, 4.9512167 
3.5837144e+2, 2.5053748e+2, -501506.72, -591230.4, -12915.726, -0.027345842, 0.017101703, -499684.5, -14977.011, 0.0, 5.0089483, 4.951133 
3.5835534e+2, 2.5549453e+2, -452652.72, -542845.2, -12997.563, -0.032737225, 0.068123, -450817.0, -14689.019, 0.0, 5.0088267, 4.9508514 
3.5833892e+2, 2.6044437e+2, -417113.44, -524308.94, -8588.621, -0.058995325, 0.1121173, -416429.66, -28807.832, 0.0, 5.008708, 4.9397426 
3.5832578e+2, 2.653816e+2, -366886.06, -467352.28, -2810.6155, -0.12736888, 0.014799526, -366807.5, -27556.547, 0.0, 5.007227, 4.942131 
3.583144e+2, 2.70317e+2, -322533.38, -419347.2, 332.0481, -0.1939182, -0.128195, -322532.25, -31632.7, 0.0, 5.0045285, 4.942633 
3.58304e+2, 2.7525085e+2, -280814.4, -372950.5, 3468.7136, -0.25767082, -0.3008329, -280684.0, -38120.99, 0.0, 5.000768, 4.943088 
3.5827854e+2, 2.8019297e+2, -284966.03, -429013.0, -22054.277, -0.33354443, -0.16395448, -281665.06, -87524.77, 0.0, 4.999306, 4.907824 
3.582558e+2, 2.8514957e+2, -188799.03, -269499.0, -9446.466, -0.28761283, 0.09821929, -187708.0, -42162.023, 0.0, 5.0029387, 4.943156 
3.5824716e+2, 2.9009742e+2, -133962.89, -217006.2, -9277.62, -0.19992284, 0.11580407, -132939.02, -35905.656, 0.0, 5.004778, 4.9430556 
3.5823968e+2, 2.950424e+2, -82495.08, -166332.25, -9083.536, -0.11413575, 0.096302696, -81522.195, -32973.605, 0.0, 5.005204, 4.9429536 
3.5823202e+2, 2.9999506e+2, -36689.95, -89042.79, -8832.691, -0.06019778, 0.03582277, -35239.91, -35236.707, 0.0, 5.004252, 4.962225 
3.5822606e+2, 3.0495977e+2, -55556.273, -110629.74, -10167.545, -0.0879512, 0.008550932, -53739.12, -53739.12, 0.0, 5.0007114, 4.953538 
3.5822475e+2, 3.0993432e+2, -69503.63, -104380.56, -12813.651, -0.108904876, 0.039007094, -65302.094, -65302.094, 0.0, 4.9938626, 4.9578586 
3.5822746e+2, 3.149185e+2, -91542.91, -102167.2, -18335.805, -0.11893637, 0.11449455, -77765.25, -77765.25, 0.0, 4.9837956, 4.962199 
3.6378238e+2, 1.2143508e+2, -1670535.4, -1743251.5, -997.8155, -0.029663127, -0.019720938, -1670521.6, 79415.88, 0.0, 5.0309963, 4.983497 
3.6378017e+2, 1.2641755e+2, -1631237.8, -1711297.6, -4322.804, 0.0100658275, 0.01828841, -1631005.0, 70100.58, 0.0, 5.030416, 4.978224 
3.6377308e+2, 1.3139436e+2, -1584437.4, -1663426.9, -4591.3555, 0.005416381, 0.0031862238, -1584171.5, 68161.79, 0.0, 5.029709, 4.978224 
3.6376593e+2, 1.3637115e+2, -1539780.3, -1619990.4, -4844.124, 0.00081469986, -0.010669417, -1539488.8, 64072.418, 0.0, 5.029001, 4.97675 
3.6375716e+2, 1.4134625e+2, -1498296.1, -1582837.9, -8564.432, -0.00039708518, -0.0032324072, -1497437.3, 57368.637, 0.0, 5.028221, 4.9731526 
3.6374575e+2, 1.4632052e+2, -1451222.5, -1533475.6, -9311.785, 0.0035861551, 0.00021453331, -1450181.5, 55877.75, 0.0, 5.0272965, 4.973722 
3.6373425e+2, 1.5129477e+2, -1404984.3, -1485830.9, -9530.6875, 0.0076340283, 0.0027767627, -1403876.0, 53436.945, 0.0, 5.0263658, 4.9737215 
3.6372277e+2, 1.5626901e+2, -1360130.6, -1441099.1, -9741.372, 0.0117227575, 0.00582257, -1358975.1, 49591.39, 0.0, 5.0254345, 4.972742 
3.637095e+2, 1.6123988e+2, -1319901.0, -1406108.1, -12777.751, 0.013658207, 0.012013404, -1318046.9, 41805.992, 0.0, 5.024501, 4.968502 
3.6369297e+2, 1.6620861e+2, -1272897.1, -1356791.9, -13442.298, 0.010822979, 0.0067685037, -1270795.9, 40362.934, 0.0, 5.0235367, 4.9690423 
3.636763e+2, 1.711774e+2, -1226658.8, -1309082.4, -13557.901, 0.007828817, 0.0014122174, -1224485.9, 37978.266, 0.0, 5.022568, 4.969043 
3.6365968e+2, 1.761462e+2, -1181533.9, -1263754.8, -13673.29, 0.0048680915, -0.003527796, -1179319.8, 34449.605, 0.0, 5.0216, 4.968238 
3.6364233e+2, 1.8111227e+2, -1140979.0, -1227920.5, -15364.089, 0.0035533444, -0.0007280547, -1138343.8, 26756.35, 0.0, 5.020572, 4.9642467 
3.6362368e+2, 1.8607685e+2, -1093997.0, -1177772.8, -15838.029, 0.0048635653, -0.008280846, -1091102.8, 25340.334, 0.0, 5.0194054, 4.96513 
3.6360502e+2, 1.9104148e+2, -1048235.8, -1130218.8, -15986.7705, 0.006252185, -0.016366689, -1045228.7, 22556.568, 0.0, 5.018233, 4.965134 
3.6358637e+2, 1.9600613e+2, -1003344.4, -1084559.3, -16134.933, 0.0078042313, -0.024049647, -1000256.3, 18870.893, 0.0, 5.01706, 4.964488 
3.6356726e+2, 2.0096833e+2, -964915.06, -1053247.9, -16970.86, 0.009088512, -0.016039647, -961766.75, 8728.554, 0.0, 5.0159554, 4.958913 
3.6354735e+2, 2.0592949e+2, -917515.8, -1002580.8, -17096.574, 0.010554577, -0.0050445856, -914208.3, 7671.0522, 0.0, 5.014844, 4.9599075 
3.635275e+2, 2.1089076e+2, -871529.9, -954880.0, -17084.887, 0.0123315435, 0.0051093465, -868163.8, 5098.8633, 0.0, 5.0137105, 4.959901 
3.6350766e+2, 2.1585207e+2, -826187.3, -908616.25, -17073.393, 0.014308343, 0.0156995, -822790.9, 1854.9617, 0.0, 5.0125766, 4.959395 
3.6348808e+2, 2.2080965e+2, -785485.06, -872644.75, -16180.5625, 0.014814213, 0.022603821, -782578.2, -6515.5405, 0.0, 5.0114603, 4.9553127 
3.6346892e+2, 2.2576304e+2, -737296.5, -820429.3, -15775.074, 0.009361906, -0.014084415, -734403.75, -6891.736, 0.0, 5.0103865, 4.9567585 
3.6344978e+2, 2.3071644e+2, -690935.06, -772328.94, -15621.96, 0.0035061408, -0.05330806, -688039.7, -9079.182, 0.0, 5.0093193, 4.9568048 
3.634307e+2, 2.3566988e+2, -645202.94, -725661.44, -15484.099, -0.0020790913, -0.09264786, -642325.94, -11917.2295, 0.0, 5.008249, 4.9563484 
3.634128e+2, 2.40623e+2, -609075.5, -699305.06, -13100.854, -0.008031929, -0.08421327, -607211.8, -25349.627, 0.0, 5.0070653, 4.948789 
3.633964e+2, 2.4557962e+2, -558761.7, -644242.94, -13241.087, -0.011549053, -0.029422889, -556757.6, -23467.963, 0.0, 5.00632, 4.9509983 
3.6338e+2, 2.5053632e+2, -511000.66, -596050.3, -13405.113, -0.014016608, 0.020375682, -508937.84, -24220.69, 0.0, 5.005697, 4.950857 
3.633638e+2, 2.554932e+2, -463466.38, -548422.3, -13538.099, -0.016131628, 0.073052876, -461361.2, -25218.021, 0.0, 5.005057, 4.9505167 
3.6334762e+2, 2.604426e+2, -426590.78, -524331.75, -9257.821, -0.035117522, 0.111110404, -425721.63, -38080.313, 0.0, 5.0044074, 4.9415274 
3.63336e+2, 2.6538143e+2, -374600.3, -461005.0, -5420.434, -0.07826751, -0.0047985767, -374261.6, -35018.98, 0.0, 5.002755, 4.946057 
3.6332664e+2, 2.703205e+2, -327915.53, -410064.34, -4691.3174, -0.10782966, -0.15121433, -327648.5, -36807.383, 0.0, 5.000871, 4.947055 
3.6331865e+2, 2.752599e+2, -281094.97, -359423.28, -4304.794, -0.123964615, -0.31088156, -280859.1, -38422.76, 0.0, 4.9989223, 4.9480085 
3.6329615e+2, 2.8020823e+2, -272280.94, -427027.03, -25954.033, -0.14971456, -0.13739571, -268043.94, -74101.445, 0.0, 5.003561, 4.906852 
3.632711e+2, 2.8516155e+2, -176863.03, -276752.97, -8231.777, -0.14972004, 0.1185993, -176189.2, -30799.697, 0.0, 5.0071354, 4.9399085 
3.6325884e+2, 2.901053e+2, -131990.77, -226338.13, -8022.6606, -0.118975155, 0.12007044, -131313.42, -34384.766, 0.0, 5.005529, 4.9405165 
3.6324835e+2, 2.950476e+2, -86939.76, -176076.25, -8329.286, -0.07665632, 0.09458995, -86168.12, -37685.96, 0.0, 5.0037274, 4.941124 
3.6323822e+2, 2.9999864e+2, -42016.527, -93170.0, -10454.199, -0.05013427, 0.034590814, -39962.49, -39962.49, 0.0, 5.0020247, 4.962592 
3.6323047e+2, 3.0496433e+2, -50521.49, -107676.77, -12561.112, -0.07432353, 0.020156853, -47882.734, -47882.734, 0.0, 5.001982, 4.955077 
3.6322916e+2, 3.0993983e+2, -46729.766, -97666.8, -11858.936, -0.053982265, 0.079692446, -44104.16, -44104.16, 0.0, 5.0021644, 4.9579883 
3.632338e+2, 3.1492388e+2, -42637.977, -87945.81, -11742.871, 0.015286461, 0.19752556, -39775.332, -39775.332, 0.0, 5.002115, 4.960906 
3.6881396e+2, 1.2143784e+2, -1671406.8, -1745018.1, -751.08673, -0.023961525, -0.00448986, -1671399.1, 78512.75, 0.0, 5.0309944, 4.982918 
3.6881036e+2, 1.2641735e+2, -1631734.9, -1712327.8, -4861.24, 0.007584381, 0.0076593165, -1631442.8, 69666.01, 0.0, 5.0304174, 4.9778857 
3.6880267e+2, 1.3139446e+2, -1584930.4, -1664455.1, -5128.0815, 0.0043661976, -0.001191194, -1584601.0, 67732.59, 0.0, 5.029711, 4.9778852 
3.6879498e+2, 1.3637152e+2, -1540266.8, -1621012.5, -5378.4346, 0.0011662708, -0.008794914, -1539910.1, 63648.613, 0.0, 5.0290036, 4.976413 
3.687855e+2, 1.413467e+2, -1498700.0, -1583699.9, -9243.749, 0.00051273534, 0.0024418232, -1497706.4, 57096.445, 0.0, 5.028225, 4.972868 
3.6877298e+2, 1.463205e+2, -1451605.0, -1534299.1, -10018.018, 0.0030908766, 0.0040991157, -1450408.6, 55651.8, 0.0, 5.027301, 4.973449 
3.6876044e+2, 1.5129428e+2, -1405363.0, -1486650.9, -10236.074, 0.0056357724, 0.0046390765, -1404093.9, 53224.68, 0.0, 5.02637, 4.9734488 
3.6874786e+2, 1.5626805e+2, -1360504.0, -1441912.1, -10445.15, 0.008205638, 0.0056557194, -1359185.3, 49391.47, 0.0, 5.0254393, 4.9724708 
3.6873358e+2, 1.6123854e+2, -1320106.0, -1406569.6, -13508.872, 0.009319286, 0.010325981, -1318044.6, 41821.875, 0.0, 5.024505, 4.9683495 
3.6871618e+2, 1.6620715e+2, -1273066.1, -1357186.4, -14177.291, 0.007760733, 0.0052979034, -1270741.0, 40432.26, 0.0, 5.0235424, 4.968912 
3.686987e+2, 1.7117584e+2, -1226821.8, -1309474.0, -14290.481, 0.0061397436, 0.00026120484, -1224420.8, 38058.43, 0.0, 5.022575, 4.968913 
3.6868122e+2, 1.7614453e+2, -1181690.9, -1264142.9, -14403.216, 0.0045140143, -0.004385576, -1179247.3, 34537.758, 0.0, 5.0216074, 4.968108 
3.6866298e+2, 1.8111053e+2, -1141169.5, -1228399.9, -16216.268, 0.0044963234, -0.0009562234, -1138252.5, 26864.145, 0.0, 5.020582, 4.964087 
3.6864337e+2, 1.8607514e+2, -1094200.1, -1178296.3, -16721.02, 0.007583384, -0.006346414, -1090997.4, 25462.771, 0.0, 5.019418, 4.964954 
3.686237e+2, 1.9103982e+2, -1048430.2, -1130735.1, -16865.428, 0.010763879, -0.012165972, -1045108.3, 22694.516, 0.0, 5.018247, 4.964959 
3.6860406e+2, 1.960045e+2, -1003530.2, -1085068.5, -17009.135, 0.014022501, -0.01764499, -1000124.3, 19021.047, 0.0, 5.017076, 4.964314 
3.6858386e+2, 2.0096657e+2, -964736.1, -1052898.5, -17805.938, 0.015270548, -0.010589116, -961275.75, 9239.265, 0.0, 5.015961, 4.959033 
3.6856258e+2, 2.0592733e+2, -917447.5, -1002447.8, -17972.13, 0.014164489, -0.0042371955, -913803.75, 8098.128, 0.0, 5.0148463, 4.9599576 
3.6854133e+2, 2.1088819e+2, -871452.1, -954734.5, -17951.576, 0.013414973, 0.0015909205, -867747.5, 5540.4106, 0.0, 5.013714, 4.9599547 
3.6852005e+2, 2.1584909e+2, -826100.2, -908458.2, -17931.129, 0.012796384, 0.007778985, -822365.56, 2308.147, 0.0, 5.012582, 4.959452 
3.6849928e+2, 2.2080658e+2, -785175.25, -872061.2, -16963.277, 0.012268839, 0.012626814, -781980.9, -5890.6094, 0.0, 5.0114713, 4.955517 
3.6847934e+2, 2.2576058e+2, -736885.0, -819761.1, -16506.688, 0.009367372, -0.02006294, -733718.3, -6185.701, 0.0, 5.010415, 4.956991 
3.6845943e+2, 2.3071459e+2, -690473.5, -771657.94, -16330.731, 0.0059834206, -0.05526671, -687311.6, -8337.428, 0.0, 5.009365, 4.9570317 
3.6843958e+2, 2.3566861e+2, -644691.5, -724987.7, -16169.939, 0.0026956045, -0.090896696, -641557.56, -11141.821, 0.0, 5.0083117, 4.9565706 
3.6842084e+2, 2.4062198e+2, -608525.3, -698979.6, -13888.786, -0.0013950063, -0.08241986, -606440.8, -24574.223, 0.0, 5.007182, 4.9488835 
3.6840367e+2, 2.4557833e+2, -558697.0, -645092.56, -13849.932, -0.004619319, -0.027687034, -556531.06, -23231.418, 0.0, 5.006441, 4.950702 
3.6838663e+2, 2.5053486e+2, -511004.0, -596886.06, -13972.434, -0.0071763466, 0.023875136, -508787.97, -24055.691, 0.0, 5.005794, 4.9505773 
3.6836973e+2, 2.5549152e+2, -463537.56, -549244.2, -14063.877, -0.009579635, 0.07853323, -461288.78, -25125.709, 0.0, 5.0051303, 4.9502535 
3.683533e+2, 2.6044092e+2, -424326.75, -520387.97, -9459.579, -0.025651181, 0.11347317, -423404.1, -35741.887, 0.0, 5.004518, 4.942958 
3.6834222e+2, 2.6537988e+2, -370638.66, -455089.72, -5111.4185, -0.06223581, -0.018898165, -370330.4, -31082.031, 0.0, 5.0030866, 4.9482102 
3.6833325e+2, 2.703188e+2, -323489.06, -404750.25, -3903.223, -0.08939558, -0.18361253, -323302.0, -32468.63, 0.0, 5.001425, 4.9489684 
3.6832553e+2, 2.7525762e+2, -276204.2, -354709.3, -3036.5698, -0.10708114, -0.36351982, -276086.9, -33667.3, 0.0, 4.999698, 4.9496827 
3.6830506e+2, 2.8020552e+2, -270721.56, -422558.97, -23943.238, -0.13376985, -0.21086828, -267035.44, -73116.12, 0.0, 5.0034323, 4.9082794 
3.6828026e+2, 2.8516003e+2, -180107.38, -279598.44, -10567.28, -0.12816988, 0.056012936, -178997.38, -33632.723, 0.0, 5.00631, 4.938933 
3.6826628e+2, 2.9010487e+2, -134926.4, -230246.2, -9721.581, -0.09796167, 0.07699039, -133945.02, -37038.51, 0.0, 5.004877, 4.9392014 
3.6825392e+2, 2.950481e+2, -89563.164, -181044.02, -9394.092, -0.06235213, 0.07343924, -88608.46, -40144.723, 0.0, 5.003249, 4.9394693 
3.682419e+2, 2.9999882e+2, -42464.04, -96351.81, -9761.442, -0.04838104, 0.026307873, -40750.313, -40750.313, 0.0, 5.0019145, 4.9615455 
3.6823282e+2, 3.0496332e+2, -44683.84, -101520.56, -9377.209, -0.09702763, -0.01612208, -43176.707, -43176.707, 0.0, 5.002599, 4.9571495 
3.6822987e+2, 3.0993754e+2, -38678.56, -90598.41, -7528.9805, -0.11639379, -0.0001555677, -37608.81, -37608.81, 0.0, 5.00342, 4.960068 
3.682323e+2, 3.1491905e+2, -32378.275, -79969.54, -6266.5977, -0.10159468, 0.057550672, -31566.95, -31566.95, 0.0, 5.0040097, 4.9629936 
3.7384558e+2, 1.2144054e+2, -1672208.8, -1746641.1, -501.4296, -0.017857766, 0.01018974, -1672205.4, 77681.37, 0.0, 5.0309925, 4.982385 
3.7384054e+2, 1.2641716e+2, -1632232.6, -1713357.6, -5398.8687, 0.0051179156, -0.0029196015, -1631874.9, 69236.95, 0.0, 5.030419, 4.9775476 
3.738323e+2, 1.3139455e+2, -1585423.8, -1665483.0, -5664.0, 0.0033309748, -0.0055386964, -1585025.0, 67308.88, 0.0, 5.0297127, 4.977546 
3.73824e+2, 1.363719e+2, -1540754.0, -1622034.3, -5911.9507, 0.0015327866, -0.0069107465, -1540326.3, 63230.086, 0.0, 5.029006, 4.976075 
3.7381378e+2, 1.4134714e+2, -1499110.1, -1584574.8, -9923.149, 0.0014426995, 0.0081461985, -1497973.1, 56826.543, 0.0, 5.0282288, 4.972579 
3.7380022e+2, 1.4632049e+2, -1451987.5, -1535122.8, -10724.367, 0.0026118706, 0.008011733, -1450626.4, 55435.19, 0.0, 5.027305, 4.973176 
3.737866e+2, 1.512938e+2, -1405741.9, -1487470.9, -10941.577, 0.0036472229, 0.006515276, -1404302.4, 53021.777, 0.0, 5.026375, 4.9731755 
3.7377295e+2, 1.5626709e+2, -1360877.5, -1442725.1, -11149.047, 0.004691668, 0.0054886164, -1359386.0, 49200.805, 0.0, 5.0254445, 4.972199 
3.7375763e+2, 1.6123721e+2, -1320317.1, -1407043.6, -14241.953, 0.0049890126, 0.0086701205, -1318038.3, 41841.773, 0.0, 5.02451, 4.968193 
3.7373942e+2, 1.662057e+2, -1273235.5, -1357580.6, -14911.432, 0.0046997885, 0.0038455173, -1270676.9, 40510.62, 0.0, 5.0235476, 4.968782 
3.737211e+2, 1.7117429e+2, -1226985.4, -1309865.4, -15022.209, 0.004437196, -0.0009040036, -1224346.6, 38147.61, 0.0, 5.022582, 4.9687824 
3.737028e+2, 1.7614287e+2, -1181848.4, -1264530.9, -15132.287, 0.0041317064, -0.005289932, -1179166.0, 34634.836, 0.0, 5.0216155, 4.967978 
3.7368366e+2, 1.811088e+2, -1141368.3, -1228894.9, -17071.04, 0.005508172, -0.0011280437, -1138156.6, 26976.467, 0.0, 5.0205927, 4.963921 
3.7366307e+2, 1.8607342e+2, -1094404.4, -1178818.9, -17604.582, 0.010392513, -0.004352065, -1090880.1, 25597.016, 0.0, 5.0194306, 4.964778 
3.736424e+2, 1.9103815e+2, -1048625.9, -1131250.5, -17744.654, 0.015335405, -0.007961199, -1044976.1, 22844.21, 0.0, 5.018262, 4.9647837 
3.736218e+2, 1.9600287e+2, -1003717.2, -1085576.9, -17883.904, 0.02027116, -0.011292086, -999980.6, 19182.81, 0.0, 5.017092, 4.9641395 
3.7360045e+2, 2.0096482e+2, -964612.5, -1052668.9, -18659.266, 0.021570077, -0.004858919, -960821.75, 9712.864, 0.0, 5.015967, 4.959112 
3.735778e+2, 2.0592517e+2, -917380.06, -1002314.94, -18848.17, 0.01788305, -0.0031427676, -913385.25, 8539.022, 0.0, 5.0148487, 4.9600058 
3.7355515e+2, 2.1088563e+2, -871375.2, -954589.0, -18818.744, 0.014530594, -0.0018264621, -867317.25, 5995.76, 0.0, 5.0137177, 4.960006 
3.7353247e+2, 2.1584612e+2, -826013.9, -908300.25, -18789.342, 0.011240235, -0.00022629803, -821926.5, 2775.0327, 0.0, 5.0125866, 4.959507 
3.7351048e+2, 2.2080354e+2, -784895.6, -871537.75, -17752.457, 0.009791307, 0.0028376866, -781399.3, -5281.676, 0.0, 5.0114822, 4.9556985 
3.734898e+2, 2.2575815e+2, -736479.56, -819088.4, -17228.75, 0.009522378, -0.026027137, -733030.4, -5477.354, 0.0, 5.010444, 4.9572196 
3.7346914e+2, 2.3071276e+2, -690017.94, -770982.3, -17029.951, 0.008564971, -0.057703808, -686581.75, -7593.939, 0.0, 5.0094113, 4.9572554 
3.7344855e+2, 2.3566733e+2, -644186.0, -724309.25, -16846.227, 0.007529349, -0.09011633, -640788.1, -10365.302, 0.0, 5.0083747, 4.9567885 
3.7342903e+2, 2.4062105e+2, -608333.6, -699396.25, -14613.429, 0.005370394, -0.07909988, -606046.0, -24175.895, 0.0, 5.0072985, 4.948714 
3.7341115e+2, 2.455772e+2, -558659.25, -645917.0, -14468.071, 0.0024243523, -0.023364374, -556322.9, -23014.764, 0.0, 5.006562, 4.9503984 
3.7339333e+2, 2.505335e+2, -511034.2, -597696.6, -14549.032, -0.00032630347, 0.029171083, -508656.9, -23910.746, 0.0, 5.0058913, 4.9502897 
3.733757e+2, 2.5549e+2, -463635.56, -550040.75, -14598.917, -0.0031220003, 0.08502061, -461235.6, -25053.602, 0.0, 5.0052037, 4.9499826 
3.73359e+2, 2.6043898e+2, -422483.72, -517185.13, -9490.184, -0.016609978, 0.11536035, -421542.03, -33857.06, 0.0, 5.0046287, 4.944073 
3.7334895e+2, 2.6537782e+2, -366788.63, -449091.1, -4459.593, -0.04411703, -0.04110119, -366547.7, -27288.326, 0.0, 5.003417, 4.9502487 
3.7334085e+2, 2.703163e+2, -319173.8, -399349.9, -2772.942, -0.06585008, -0.23304492, -319078.0, -28244.36, 0.0, 5.0019774, 4.9507675 
3.7333393e+2, 2.7525428e+2, -271424.38, -349906.06, -1426.6439, -0.082061835, -0.44211516, -271398.44, -28984.707, 0.0, 5.000473, 4.9512415 
3.7331378e+2, 2.802029e+2, -274386.2, -430083.44, -22795.768, -0.12192499, -0.27970052, -271117.28, -77221.984, 0.0, 5.0033164, 4.905527 
3.7328777e+2, 2.8515965e+2, -183667.23, -282137.5, -12289.367, -0.119725406, 0.022503264, -182156.66, -36827.57, 0.0, 5.005483, 4.937859 
3.7327236e+2, 2.9010525e+2, -138175.55, -233849.9, -10807.165, -0.08666513, 0.05496096, -136969.98, -40094.016, 0.0, 5.004224, 4.937787 
3.7325838e+2, 2.950492e+2, -92498.08, -185709.53, -9845.381, -0.054384235, 0.06532371, -91469.52, -43030.242, 0.0, 5.0027695, 4.937715 
3.7324455e+2, 2.9999834e+2, -43441.492, -99679.03, -8580.105, -0.05487142, 0.015138223, -42161.566, -42161.566, 0.0, 5.001803, 4.960278 
3.7323436e+2, 3.0496034e+2, -39218.914, -95016.33, -6113.6807, -0.13758963, -0.077348284, -38556.9, -38556.9, 0.0, 5.003215, 4.9590373 
3.7323016e+2, 3.0993253e+2, -31003.844, -83184.516, -3122.8188, -0.2045301, -0.12382901, -30817.62, -30817.62, 0.0, 5.004676, 4.961963 
3.7323084e+2, 3.1491077e+2, -22500.816, -71650.4, -718.43835, -0.2520724, -0.1451299, -22490.316, -22490.316, 0.0, 5.0059056, 4.964896 
3.7887725e+2, 1.2144317e+2, -1672078.9, -1747719.0, -26.598965, -0.011594494, 0.024007414, -1672078.9, 77783.42, 0.0, 5.0312834, 4.9818883 
3.7887076e+2, 1.2641703e+2, -1631952.0, -1714003.5, -5678.1772, 0.0029387893, -0.013198005, -1631561.0, 69553.43, 0.0, 5.0306816, 4.9772077 
3.788619e+2, 1.3139467e+2, -1585085.1, -1666100.8, -5952.295, 0.0023991861, -0.009734585, -1584650.1, 67683.73, 0.0, 5.0299945, 4.977206 
3.7885308e+2, 1.363723e+2, -1540365.6, -1622624.8, -6206.1523, 0.001851216, -0.0050342097, -1539900.0, 63653.55, 0.0, 5.029303, 4.9757366 
3.7884215e+2, 1.4134759e+2, -1498621.8, -1585011.6, -10362.951, 0.0022697845, 0.013762902, -1497396.0, 57400.348, 0.0, 5.028536, 4.9722877 
3.788275e+2, 1.4632049e+2, -1451492.9, -1535512.3, -11182.678, 0.0021309499, 0.0118605, -1450030.0, 56032.605, 0.0, 5.0276046, 4.972904 
3.7881282e+2, 1.5129334e+2, -1405282.4, -1487878.6, -11391.713, 0.0017694915, 0.008346089, -1403740.1, 53589.47, 0.0, 5.0266623, 4.9729037 
3.787981e+2, 1.5626615e+2, -1360459.8, -1443151.0, -11591.46, 0.0014083685, 0.00529453, -1358865.5, 49731.055, 0.0, 5.0257177, 4.971928 
3.7878177e+2, 1.612359e+2, -1319836.4, -1407196.4, -14719.836, 0.00096273504, 0.0070504956, -1317422.8, 42470.445, 0.0, 5.024753, 4.968029 
3.7876266e+2, 1.6620429e+2, -1272886.5, -1357729.1, -15413.792, 0.001850908, 0.002452713, -1270172.9, 41028.695, 0.0, 5.023732, 4.9686475 
3.787435e+2, 1.7117275e+2, -1226830.6, -1310106.0, -15547.749, 0.0028835856, -0.0019945013, -1224022.5, 38486.453, 0.0, 5.0226994, 4.968649 
3.7872437e+2, 1.7614123e+2, -1181908.4, -1264872.1, -15679.438, 0.003879114, -0.0060945298, -1179044.0, 34772.375, 0.0, 5.0216594, 4.9678454 
3.7870434e+2, 1.811071e+2, -1141631.4, -1229419.4, -17748.47, 0.0067201536, -0.0010835719, -1138178.9, 26970.377, 0.0, 5.020584, 4.963752 
3.7868276e+2, 1.8607177e+2, -1094691.6, -1179369.5, -18296.434, 0.013319965, -0.002199477, -1090907.5, 25586.387, 0.0, 5.0194154, 4.9646025 
3.7866113e+2, 1.9103651e+2, -1048989.4, -1131839.6, -18428.414, 0.019967893, -0.0036780003, -1045075.25, 22762.316, 0.0, 5.01822, 4.9646077 
3.7863952e+2, 1.9600126e+2, -1004220.6, -1086233.6, -18566.133, 0.02659729, -0.004903422, -1000213.44, 18967.824, 0.0, 5.017002, 4.963963 
3.7861708e+2, 2.0096312e+2, -964957.94, -1052744.3, -19322.504, 0.028121887, 0.0012353078, -960893.1, 9660.6875, 0.0, 5.0158286, 4.9591537 
3.7859303e+2, 2.0592305e+2, -917578.8, -1002296.0, -19493.01, 0.02177136, -0.001798492, -913308.75, 8637.609, 0.0, 5.0147567, 4.9600563 
3.7856895e+2, 2.1088308e+2, -871461.3, -954509.8, -19448.432, 0.015681747, -0.0052747885, -867132.5, 6205.471, 0.0, 5.013664, 4.960059 
3.785449e+2, 2.1584316e+2, -826050.44, -908189.0, -19416.314, 0.00962383, -0.008508184, -821692.0, 3037.365, 0.0, 5.012549, 4.9595623 
3.7852168e+2, 2.208005e+2, -784815.25, -871109.1, -18329.629, 0.007316748, -0.0070339013, -781083.25, -4938.4033, 0.0, 5.0114326, 4.9558663 
3.7850028e+2, 2.2575577e+2, -736438.2, -818519.44, -17709.867, 0.009771008, -0.032119844, -732780.1, -5207.187, 0.0, 5.0103474, 4.957455 
3.7847894e+2, 2.30711e+2, -690243.3, -770555.25, -17480.729, 0.011450717, -0.06031674, -686603.44, -7602.7744, 0.0, 5.009223, 4.957485 
3.7845764e+2, 2.356662e+2, -644806.5, -724079.0, -17281.273, 0.0130933225, -0.0892913, -641203.0, -10774.297, 0.0, 5.00805, 4.957013 
3.7843743e+2, 2.4062043e+2, -610095.75, -701135.25, -14937.716, 0.01348049, -0.07281919, -607707.44, -25836.576, 0.0, 5.0068517, 4.9483247 
3.7841883e+2, 2.4557638e+2, -560714.1, -647539.06, -14545.788, 0.011095296, -0.015815618, -558342.06, -25028.38, 0.0, 5.00596, 4.950118 
3.7840024e+2, 2.5053233e+2, -513730.97, -599577.6, -14439.972, 0.008374796, 0.03574354, -511367.2, -26609.045, 0.0, 5.005064, 4.950019 
3.7838182e+2, 2.5548849e+2, -467103.8, -552232.44, -14339.445, 0.005455257, 0.090503104, -464753.3, -28552.824, 0.0, 5.004107, 4.949721 
3.7836483e+2, 2.6043677e+2, -425535.5, -516094.06, -8298.941, -0.0050620288, 0.11339361, -424781.25, -37070.652, 0.0, 5.003088, 4.945107 
3.783562e+2, 2.6537564e+2, -371967.44, -445690.16, -951.2262, -0.018445168, -0.07296768, -371955.16, -32683.738, 0.0, 5.0004873, 4.9526267 
3.783496e+2, 2.7031434e+2, -330384.0, -398973.6, 3310.9602, -0.027945304, -0.29645443, -330224.56, -39395.258, 0.0, 4.996992, 4.9530087 
3.78344e+2, 2.7525228e+2, -290322.4, -353212.75, 7646.673, -0.03483886, -0.53659225, -289406.0, -47011.445, 0.0, 4.9928484, 4.9533453 
3.7832266e+2, 2.802038e+2, -311963.78, -462101.66, -11478.374, -0.09612734, -0.32917285, -311091.3, -117254.14, 0.0, 4.993155, 4.8987627 
3.7829393e+2, 2.851629e+2, -205400.19, -294291.9, -4331.8335, -0.11222658, 0.029001797, -205189.6, -59931.73, 0.0, 4.998427, 4.93613 
3.7827733e+2, 2.9010817e+2, -150851.86, -242596.3, -5238.019, -0.07812962, 0.06109237, -150553.77, -53732.89, 0.0, 5.0003977, 4.935917 
3.7826204e+2, 2.9505178e+2, -99254.055, -192426.33, -5705.1353, -0.048841458, 0.07275471, -98906.016, -50505.65, 0.0, 5.001091, 4.9356995 
3.782465e+2, 2.9999766e+2, -46563.355, -103512.6, -4068.5981, -0.06605509, -0.00012829577, -46274.152, -46274.152, 0.0, 5.001096, 4.9590335 
3.7823558e+2, 3.049563e+2, -43597.316, -91590.61, -601.60205, -0.18668723, -0.15865028, -43589.777, -43589.777, 0.0, 5.000482, 4.961078 
3.7823084e+2, 3.0992684e+2, -49049.113, -85804.76, 1834.8469, -0.29784447, -0.2718098, -48957.742, -48957.742, 0.0, 4.996973, 4.963924 
3.782306e+2, 3.1490272e+2, -61560.023, -83438.56, 2368.4495, -0.39907947, -0.36830544, -61306.566, -61306.566, 0.0, 4.990588, 4.966766 
3.839103e+2, 1.2144653e+2, -1663380.4, -1744872.4, 767.89185, -0.0111703845, 0.03118357, -1663373.1, 86456.46, 0.0, 5.0345006, 4.9812503 
3.8390326e+2, 1.2641874e+2, -1623543.0, -1710713.9, -4824.626, 0.004931651, -0.01826466, -1623276.8, 77821.65, 0.0, 5.0336804, 4.9768243 
3.8389352e+2, 1.3139634e+2, -1576939.8, -1662952.9, -5149.452, 0.0028578104, -0.011477982, -1576632.6, 75685.94, 0.0, 5.032912, 4.976824 
3.8388383e+2, 1.3637392e+2, -1532467.3, -1619605.5, -5454.3086, 0.0008501743, -0.0034844761, -1532127.1, 71411.77, 0.0, 5.0321426, 4.975356 
3.8387197e+2, 1.4134903e+2, -1490832.8, -1581813.0, -9804.635, 0.0003986876, 0.017119879, -1489788.1, 64995.15, 0.0, 5.0312896, 4.972014 
3.8385642e+2, 1.4632156e+2, -1444079.3, -1532466.6, -10664.955, 0.00074265717, 0.013858409, -1442810.6, 63242.367, 0.0, 5.0302286, 4.9726505 
3.8384074e+2, 1.51294e+2, -1398274.3, -1485046.0, -10871.664, 0.0009416293, 0.008867022, -1396932.9, 60390.746, 0.0, 5.0291567, 4.972649 
3.8382506e+2, 1.5626642e+2, -1353842.8, -1440519.9, -11066.273, 0.0011559682, 0.004338286, -1352452.1, 56142.18, 0.0, 5.0280843, 4.971674 
3.8380772e+2, 1.6123584e+2, -1313732.1, -1404758.6, -14331.572, 0.0013033939, 0.0053810175, -1311529.0, 48364.887, 0.0, 5.0269346, 4.967804 
3.8378745e+2, 1.6620411e+2, -1267734.1, -1355760.1, -15137.825, 0.0026564968, 0.002061782, -1265203.6, 45999.938, 0.0, 5.025594, 4.9684234 
3.8376716e+2, 1.711725e+2, -1222618.6, -1308595.9, -15360.607, 0.0042324513, -0.0009812186, -1219956.8, 42555.363, 0.0, 5.0242443, 4.9684258 
3.8374683e+2, 1.761409e+2, -1178608.8, -1263803.1, -15582.004, 0.005876619, -0.0036530595, -1175848.3, 37972.45, 0.0, 5.0228934, 4.967623 
3.837256e+2, 1.8110666e+2, -1139028.0, -1228572.6, -17726.902, 0.00875048, 0.0023498095, -1135646.4, 29508.553, 0.0, 5.0215573, 4.963577 
3.8370264e+2, 1.8607117e+2, -1092561.8, -1178752.0, -18311.2, 0.01396606, 0.0014101712, -1088832.9, 27668.58, 0.0, 5.020227, 4.9644284 
3.836796e+2, 1.9103576e+2, -1047271.1, -1131436.8, -18466.19, 0.01941327, 0.00020990323, -1043397.8, 24449.203, 0.0, 5.0188932, 4.964429 
3.8365662e+2, 1.9600038e+2, -1002847.5, -1086012.8, -18618.982, 0.025079222, -0.00062315195, -998869.4, 20323.115, 0.0, 5.0175595, 4.963779 
3.836329e+2, 2.0096208e+2, -963554.94, -1051856.8, -19293.184, 0.026713816, 0.004583189, -959523.6, 11042.964, 0.0, 5.0162597, 4.9592576 
3.8360775e+2, 2.0592178e+2, -916642.4, -1001552.9, -19384.592, 0.021017026, -0.0020649147, -912426.3, 9533.701, 0.0, 5.0150113, 4.960196 
3.835826e+2, 2.1088159e+2, -870985.0, -953997.75, -19280.234, 0.015457029, -0.009115611, -866725.56, 6626.981, 0.0, 5.013761, 4.9601936 
3.835574e+2, 2.1584141e+2, -825970.06, -907876.6, -19183.53, 0.009985331, -0.015868017, -821699.7, 3045.2607, 0.0, 5.01251, 4.9596915 
3.8353303e+2, 2.2079875e+2, -785604.56, -871344.44, -18273.615, 0.008410849, -0.015478328, -781872.4, -5712.514, 0.0, 5.0111275, 4.955913 
3.8351044e+2, 2.257547e+2, -739150.2, -819662.3, -18117.457, 0.012891453, -0.03383587, -735261.1, -7678.959, 0.0, 5.009383, 4.9574833 
3.8348797e+2, 2.3071077e+2, -694766.56, -772511.2, -18295.086, 0.017565738, -0.05383397, -690676.5, -11673.602, 0.0, 5.0076222, 4.957517 
3.8346562e+2, 2.3566689e+2, -651004.4, -726778.1, -18480.295, 0.023007985, -0.073629566, -646737.5, -16314.42, 0.0, 5.005856, 4.9570484 
3.8344428e+2, 2.406216e+2, -617309.9, -703320.2, -15965.865, 0.026307695, -0.054408327, -614441.8, -32580.371, 0.0, 5.0041313, 4.948764 
3.8342443e+2, 2.4557666e+2, -569648.44, -650830.1, -15124.893, 0.024263635, -0.009164763, -566922.1, -33609.234, 0.0, 5.0026894, 4.950405 
3.8340467e+2, 2.5053152e+2, -524098.78, -603584.06, -14759.078, 0.022348957, 0.029454248, -521446.75, -36678.824, 0.0, 5.0012765, 4.9502735 
3.83385e+2, 2.554864e+2, -478761.1, -556888.9, -14396.651, 0.020535268, 0.06960729, -476192.66, -39969.965, 0.0, 4.9998565, 4.9499435 
3.833673e+2, 2.604343e+2, -435960.97, -515508.56, -8988.799, 0.016471613, 0.07931074, -434957.9, -47222.336, 0.0, 4.998409, 4.9473295 
3.8335907e+2, 2.6537752e+2, -382240.56, -441591.53, -6945.6094, 0.03040729, -0.0901188, -381438.56, -42189.484, 0.0, 4.995532, 4.95617 
3.8335294e+2, 2.7032262e+2, -339713.34, -392488.13, -8380.71, 0.053480808, -0.28158173, -338414.44, -47675.094, 0.0, 4.992349, 4.9571557 
3.8334787e+2, 2.7526852e+2, -297036.0, -343659.47, -10087.265, 0.08265888, -0.47923955, -294947.13, -52725.527, 0.0, 4.989113, 4.9580946 
3.833275e+2, 2.802257e+2, -309223.2, -454501.7, -22473.91, 0.034232233, -0.2651209, -305826.03, -112220.56, 0.0, 4.992503, 4.902439 
3.832986e+2, 2.851793e+2, -211582.17, -310579.72, -8652.683, -0.024298403, 0.06119977, -210831.6, -65744.9, 0.0, 4.9972377, 4.9324822 
3.8328123e+2, 2.9011902e+2, -161728.77, -257684.28, -7892.2183, -0.02103353, 0.08167193, -161083.97, -64372.363, 0.0, 4.9973025, 4.933141 
3.832652e+2, 2.950574e+2, -111726.016, -204980.72, -7716.3267, -0.014518296, 0.07603997, -111091.84, -62741.71, 0.0, 4.9972286, 4.933801 
3.8324943e+2, 3.0000016e+2, -53903.016, -102675.92, -6339.258, -0.04405339, -0.011655995, -53092.535, -53092.535, 0.0, 4.9975624, 4.9614367 
3.832407e+2, 3.0496147e+2, -41695.254, -81652.89, -6637.325, -0.14592014, -0.15786211, -40621.586, -40621.586, 0.0, 5.0000024, 4.965654 
3.8323894e+2, 3.0993772e+2, -31833.168, -69449.695, -6510.6655, -0.21422835, -0.2190926, -30738.176, -30738.176, 0.0, 5.002598, 4.968432 
3.832422e+2, 3.1492242e+2, -21649.592, -57570.64, -6527.171, -0.25170764, -0.22201703, -20500.318, -20500.318, 0.0, 5.0050154, 4.9712176 
3.889446e+2, 1.2145039e+2, -1664370.1, -1746901.5, -257.9755, -0.013379825, 0.035533287, -1664369.3, 85422.34, 0.0, 5.0345016, 4.980584 
3.889373e+2, 1.2642144e+2, -1624141.8, -1711967.1, -5406.9907, 0.008274599, -0.021212183, -1623810.1, 77262.65, 0.0, 5.0336843, 4.9764123 
3.8892654e+2, 1.3139883e+2, -1577534.9, -1664203.6, -5730.55, 0.0037735081, -0.012237919, -1577157.6, 75137.336, 0.0, 5.0329156, 4.9764113 
3.889158e+2, 1.363762e+2, -1533057.8, -1620851.8, -6034.277, -0.0006820771, -0.0020539812, -1532644.9, 70872.54, 0.0, 5.0321465, 4.974944 
3.8890296e+2, 1.4135107e+2, -1491224.4, -1582658.3, -10568.675, -0.002576169, 0.019612364, -1490018.8, 64745.535, 0.0, 5.0312943, 4.971735 
3.8888645e+2, 1.4632323e+2, -1444433.6, -1533239.0, -11478.164, -0.001107445, 0.015129983, -1442974.0, 63063.313, 0.0, 5.030234, 4.9723954 
3.8886982e+2, 1.5129527e+2, -1398626.1, -1485815.9, -11684.538, 0.00032669224, 0.008847376, -1397087.4, 60224.016, 0.0, 5.0291615, 4.972394 
3.8885322e+2, 1.562673e+2, -1354190.5, -1441283.9, -11878.129, 0.0017677542, 0.0030286142, -1352599.5, 55986.01, 0.0, 5.0280895, 4.9714203 
3.8883477e+2, 1.6123645e+2, -1314075.3, -1405529.9, -15316.576, 0.0029917005, 0.00365595, -1311578.3, 48309.71, 0.0, 5.0269423, 4.967548 
3.8881323e+2, 1.6620462e+2, -1268087.0, -1356568.4, -16165.584, 0.004751748, 0.002100824, -1265226.0, 45973.05, 0.0, 5.025604, 4.9681544 
3.887916e+2, 1.7117293e+2, -1222966.5, -1309405.5, -16386.275, 0.006631195, 0.00091795635, -1219964.4, 42544.625, 0.0, 5.0242543, 4.9681554 
3.8876998e+2, 1.7614122e+2, -1178951.1, -1264613.3, -16605.182, 0.008529371, 0.000095554286, -1175845.0, 37974.035, 0.0, 5.0229053, 4.967352 
3.8874733e+2, 1.8110684e+2, -1139270.0, -1229156.9, -18742.834, 0.01064684, 0.007111616, -1135518.5, 29636.646, 0.0, 5.021567, 4.963382 
3.8872275e+2, 1.860711e+2, -1092787.5, -1179297.1, -19328.0, 0.013032233, 0.005439245, -1088665.6, 27838.777, 0.0, 5.020236, 4.9642467 
3.8869813e+2, 1.9103543e+2, -1047494.44, -1131979.9, -19481.162, 0.015548224, 0.003436877, -1043218.75, 24634.037, 0.0, 5.0189023, 4.964247 
3.8867348e+2, 1.9599977e+2, -1003068.5, -1086554.0, -19631.988, 0.018235603, 0.0017750897, -998682.44, 20518.7, 0.0, 5.017569, 4.9635973 
3.8864842e+2, 2.0096128e+2, -963381.06, -1051516.9, -20273.145, 0.019097814, 0.0055807848, -958941.4, 11635.553, 0.0, 5.016265, 4.959374 
3.886223e+2, 2.0592093e+2, -916386.5, -1001061.1, -20341.393, 0.016606238, -0.0032508369, -911753.44, 10216.203, 0.0, 5.0150194, 4.960364 
3.8859618e+2, 2.1088068e+2, -870714.56, -953512.8, -20227.512, 0.014118509, -0.012540551, -866037.25, 7324.0225, 0.0, 5.0137744, 4.9603586 
3.8857004e+2, 2.1584044e+2, -825685.1, -907398.4, -20121.182, 0.011594593, -0.021636358, -820999.2, 3753.7083, 0.0, 5.0125284, 4.9598536 
3.8854456e+2, 2.2079785e+2, -785624.1, -871599.75, -19447.117, 0.012322687, -0.021346413, -781429.9, -5263.411, 0.0, 5.0111537, 4.9558296 
3.8852045e+2, 2.257544e+2, -739252.1, -820211.2, -19373.027, 0.018526487, -0.031552546, -734855.1, -7270.0503, 0.0, 5.0094247, 4.9573 
3.8849646e+2, 2.3071106e+2, -694817.0, -773035.3, -19528.346, 0.024760112, -0.043083232, -690212.5, -11210.42, 0.0, 5.007678, 4.9573345 
3.8847253e+2, 2.3566774e+2, -651003.5, -727277.9, -19691.098, 0.031389903, -0.0548756, -646220.0, -15801.051, 0.0, 5.005927, 4.9568663 
3.884495e+2, 2.406224e+2, -616226.44, -701482.8, -17163.162, 0.033569068, -0.037960842, -612901.0, -31041.72, 0.0, 5.0042124, 4.949379 
3.8842794e+2, 2.4557638e+2, -568848.75, -649556.56, -16268.426, 0.029102813, -0.007922573, -565692.9, -32373.092, 0.0, 5.002757, 4.9508443 
3.8840654e+2, 2.505303e+2, -523352.13, -602348.5, -15874.394, 0.025528718, 0.017908672, -520281.5, -35499.188, 0.0, 5.0013275, 4.9507146 
3.8838527e+2, 2.554843e+2, -478067.28, -555691.0, -15483.72, 0.022111489, 0.045707747, -475092.72, -38848.59, 0.0, 4.999891, 4.950387 
3.8836643e+2, 2.6043254e+2, -434364.94, -512697.44, -9908.535, 0.020588746, 0.050852887, -433131.0, -45378.996, 0.0, 4.9984765, 4.9484196 
3.8835767e+2, 2.6537853e+2, -381086.7, -441477.3, -7634.659, 0.046484914, -0.0832373, -380136.47, -40897.77, 0.0, 4.995825, 4.956415 
3.8835078e+2, 2.7032605e+2, -337820.38, -392287.03, -8618.132, 0.07872754, -0.23774658, -336489.25, -45783.887, 0.0, 4.99287, 4.957335 
3.8834488e+2, 2.7527392e+2, -294405.88, -343374.84, -9872.495, 0.11389815, -0.4031028, -292490.44, -50322.137, 0.0, 4.9898615, 4.9582076 
3.8832557e+2, 2.802289e+2, -300262.88, -430470.16, -19973.666, 0.06739936, -0.24842213, -297267.84, -103693.13, 0.0, 4.9920435, 4.910742 
3.8829833e+2, 2.8517944e+2, -216320.69, -311794.16, -9445.541, 0.00816794, 0.019815136, -215395.17, -70304.99, 0.0, 4.995892, 4.932461 
3.882811e+2, 2.9011872e+2, -165705.83, -259636.64, -8138.365, 0.0076120486, 0.050802603, -165005.92, -68281.61, 0.0, 4.9962482, 4.9328136 
3.8826513e+2, 2.9505634e+2, -114942.3, -207669.9, -7417.8086, 0.006517702, 0.05522512, -114352.65, -65977.77, 0.0, 4.9964643, 4.933168 
3.8825002e+2, 3.0000106e+2, -53325.17, -99243.12, -4367.586, -0.029471062, -0.0055616675, -52913.434, -52913.434, 0.0, 4.9970927, 4.9628563 
3.8824376e+2, 3.0496305e+2, -39505.86, -76805.5, -2362.9978, -0.13580413, -0.14874616, -39356.758, -39356.758, 0.0, 4.9998546, 4.9676633 
3.8824415e+2, 3.099369e+2, -28255.334, -63142.82, -1146.4583, -0.22137612, -0.23671597, -28217.701, -28217.701, 0.0, 5.0027537, 4.970725 
3.8824913e+2, 3.1491876e+2, -16690.963, -49807.652, -73.73002, -0.28757814, -0.27801058, -16690.799, -16690.799, 0.0, 5.0054765, 4.9737954 
3.9397892e+2, 1.2145422e+2, -1665285.1, -1748778.1, -1282.658, -0.015555544, 0.039573073, -1665265.4, 84488.6, 0.0, 5.0345025, 4.9799676 
3.939713e+2, 1.2642412e+2, -1624740.9, -1713220.4, -5988.9316, 0.011598251, -0.024112955, -1624337.4, 76709.766, 0.0, 5.0336876, 4.9760003 
3.9395952e+2, 1.3140132e+2, -1578130.4, -1665454.3, -6311.2246, 0.004676222, -0.012969976, -1577676.6, 74594.81, 0.0, 5.032919, 4.975999 
3.939478e+2, 1.363785e+2, -1533648.6, -1622098.0, -6613.8486, -0.0022210083, -0.00061447, -1533156.8, 70339.195, 0.0, 5.0321503, 4.974532 
3.9393392e+2, 1.4135312e+2, -1491621.0, -1583514.4, -11332.723, -0.0055457195, 0.022121446, -1490244.0, 64501.168, 0.0, 5.0312996, 4.9714527 
3.939165e+2, 1.4632489e+2, -1444787.8, -1534011.6, -12291.319, -0.0029498853, 0.016415492, -1443125.5, 62896.164, 0.0, 5.030239, 4.97214 
3.938989e+2, 1.5129654e+2, -1398977.9, -1486586.1, -12497.357, -0.00028054608, 0.008831972, -1397230.0, 60069.258, 0.0, 5.029167, 4.9721384 
3.9388135e+2, 1.562682e+2, -1354538.1, -1442048.3, -12689.936, 0.0023872775, 0.0017134993, -1352735.1, 55841.74, 0.0, 5.028095, 4.971166 
3.938619e+2, 1.6123705e+2, -1314421.8, -1406308.3, -16299.607, 0.0046602283, 0.0019394777, -1311616.1, 48265.836, 0.0, 5.0269494, 4.9672894 
3.9383903e+2, 1.6620512e+2, -1268440.3, -1357376.5, -17191.17, 0.006833895, 0.002138148, -1265233.0, 45961.6, 0.0, 5.025613, 4.967885 
3.9381608e+2, 1.7117333e+2, -1223314.9, -1310214.9, -17409.771, 0.009032433, 0.002795342, -1219956.8, 42549.25, 0.0, 5.0242653, 4.9678845 
3.9379317e+2, 1.7614156e+2, -1179294.1, -1265423.3, -17626.186, 0.011200212, 0.0038023284, -1175826.6, 37990.785, 0.0, 5.0229173, 4.96708 
3.9376912e+2, 1.8110704e+2, -1139519.9, -1229758.0, -19763.004, 0.012619562, 0.011898718, -1135381.4, 29773.916, 0.0, 5.021577, 4.963181 
3.937429e+2, 1.8607102e+2, -1093013.4, -1179842.3, -20344.916, 0.012215633, 0.009502904, -1088482.8, 28024.61, 0.0, 5.020245, 4.9640646 
3.9371663e+2, 1.9103509e+2, -1047717.94, -1132523.1, -20496.248, 0.011823923, 0.006671722, -1043024.06, 24834.494, 0.0, 5.018912, 4.964065 
3.936904e+2, 1.9599918e+2, -1003289.7, -1087095.5, -20645.107, 0.011556234, 0.0041545206, -998479.94, 20729.82, 0.0, 5.0175786, 4.963415 
3.9366388e+2, 2.0096046e+2, -963239.75, -1051246.0, -21253.691, 0.011387265, 0.0066988915, -958375.8, 12211.58, 0.0, 5.0162706, 4.959466 
3.9363685e+2, 2.0592007e+2, -916132.94, -1000567.8, -21289.69, 0.012029324, -0.0043605585, -911068.7, 10910.56, 0.0, 5.015028, 4.96053 
3.9360976e+2, 2.1087976e+2, -870446.5, -953026.25, -21166.287, 0.012646735, -0.016024888, -865337.4, 8032.67, 0.0, 5.013788, 4.9605217 
3.935827e+2, 2.1583946e+2, -825402.5, -906918.56, -21050.334, 0.013103448, -0.027599532, -820287.5, 4473.4365, 0.0, 5.012547, 4.960014 
3.9355612e+2, 2.2079697e+2, -785663.8, -871888.25, -20633.94, 0.016485002, -0.027066628, -780980.44, -4807.5005, 0.0, 5.0111804, 4.955733 
3.9353055e+2, 2.2575411e+2, -739361.8, -820753.1, -20627.584, 0.024591316, -0.029150886, -734432.5, -6844.8857, 0.0, 5.009466, 4.9571147 
3.9350504e+2, 2.3071139e+2, -694875.06, -773552.5, -20760.574, 0.032349993, -0.03253598, -689733.06, -10731.971, 0.0, 5.007735, 4.957149 
3.9347962e+2, 2.3566861e+2, -651010.3, -727770.7, -20900.85, 0.04013304, -0.036646686, -645688.25, -15273.499, 0.0, 5.005998, 4.9566817 
3.9345485e+2, 2.4062327e+2, -615438.1, -700270.9, -18339.303, 0.04109148, -0.020285333, -611643.25, -29786.588, 0.0, 5.004294, 4.9497733 
3.9343154e+2, 2.455762e+2, -568061.2, -648273.1, -17389.475, 0.034108482, -0.0049505564, -564453.5, -31127.564, 0.0, 5.002825, 4.951275 
3.9340848e+2, 2.5052914e+2, -522617.56, -601103.0, -16967.254, 0.028766809, 0.0072580995, -519106.6, -34310.363, 0.0, 5.0013785, 4.9511476 
3.9338547e+2, 2.554822e+2, -477385.44, -554483.06, -16548.361, 0.023637986, 0.021869147, -473983.56, -37718.293, 0.0, 4.999925, 4.950822 
3.9336547e+2, 2.6043072e+2, -433060.47, -510395.0, -10793.153, 0.024916267, 0.022420144, -431582.38, -43813.25, 0.0, 4.9985447, 4.9492826 
3.9335647e+2, 2.6537928e+2, -380025.2, -441290.03, -8203.011, 0.06232455, -0.08284372, -378945.88, -39715.02, 0.0, 4.9961176, 4.956546 
3.933491e+2, 2.7032888e+2, -336019.2, -392011.0, -8734.618, 0.10260483, -0.20922104, -334688.25, -44011.484, 0.0, 4.993391, 4.9573994 
3.933426e+2, 2.752785e+2, -291867.2, -343013.3, -9536.658, 0.14263551, -0.3510909, -290146.88, -48023.77, 0.0, 4.99061, 4.9582067 
3.9332306e+2, 2.8023258e+2, -296527.38, -418438.25, -19643.758, 0.0973827, -0.22457418, -293440.28, -99900.81, 0.0, 4.9915996, 4.9148974 
3.932965e+2, 2.8518113e+2, -221284.7, -312793.44, -9701.751, 0.039108474, 0.010430279, -220267.42, -75188.99, 0.0, 4.994546, 4.932335 
3.9327988e+2, 2.901197e+2, -169905.97, -261374.92, -7848.904, 0.03630166, 0.043192916, -169237.34, -72512.97, 0.0, 4.995193, 4.9323816 
3.9326435e+2, 2.950563e+2, -118379.234, -210146.11, -6584.6743, 0.029163012, 0.0489371, -117909.164, -69519.61, 0.0, 4.9956994, 4.93243 
3.9324993e+2, 3.000015e+2, -54128.027, -98227.62, -2344.6643, -0.015419886, 0.00054204924, -54003.72, -54003.72, 0.0, 4.996623, 4.9632564 
3.932457e+2, 3.0496255e+2, -37602.832, -71693.24, 1583.9713, -0.13775602, -0.16134289, -37529.39, -37529.39, 0.0, 4.9997067, 4.9694676 
3.9324778e+2, 3.099332e+2, -24967.656, -56580.02, 3885.2246, -0.25232932, -0.29743767, -24497.156, -24497.156, 0.0, 5.0029097, 4.972813 
3.9325413e+2, 3.1491134e+2, -12027.252, -41798.516, 6040.952, -0.35895768, -0.39844447, -10848.167, -10848.167, 0.0, 5.0059366, 4.976167 
3.990133e+2, 1.21457994e+2, -1664489.9, -1749753.1, -1843.141, -0.017183712, 0.042751916, -1664450.1, 85266.7, 0.0, 5.0350637, 4.9793735 
3.9900535e+2, 1.264269e+2, -1623776.6, -1713686.1, -6151.5537, 0.014622662, -0.026576465, -1623357.8, 77662.695, 0.0, 5.034211, 4.975593 
3.989926e+2, 1.3140388e+2, -1577416.8, -1666044.5, -6447.7256, 0.0054663923, -0.013562305, -1576950.1, 75296.84, 0.0, 5.0333586, 4.9755917 
3.9897984e+2, 1.3638085e+2, -1533194.9, -1622814.8, -6721.9316, -0.0036875813, 0.0006814479, -1532693.5, 70780.38, 0.0, 5.0325017, 4.974126 
3.9896494e+2, 1.4135522e+2, -1491212.8, -1583992.3, -11609.161, -0.008341202, 0.024359236, -1489782.3, 64943.48, 0.0, 5.0315785, 4.9711623 
3.989465e+2, 1.463266e+2, -1444416.6, -1534447.6, -12659.353, -0.004743473, 0.017574564, -1442670.4, 63335.19, 0.0, 5.030493, 4.9718757 
3.98928e+2, 1.5129787e+2, -1398676.9, -1487055.8, -12911.681, -0.00097053515, 0.008835713, -1396829.1, 60457.426, 0.0, 5.0293965, 4.9718747 
3.9890945e+2, 1.5626913e+2, -1354307.8, -1442548.6, -13148.368, 0.0027986865, 0.0005582297, -1352390.3, 56177.348, 0.0, 5.0283, 4.970904 
3.9888892e+2, 1.612377e+2, -1314202.3, -1406820.5, -16952.484, 0.0060011796, 0.00045513595, -1311196.9, 48678.676, 0.0, 5.027151, 4.967026 
3.9886478e+2, 1.6620567e+2, -1268101.1, -1357845.0, -17889.209, 0.008601159, 0.0022555098, -1264666.6, 46523.086, 0.0, 5.025858, 4.9676156 
3.9884055e+2, 1.711738e+2, -1222873.5, -1310635.5, -18105.09, 0.011180064, 0.004598437, -1219285.1, 43217.44, 0.0, 5.024545, 4.9676147 
3.9881632e+2, 1.761419e+2, -1178781.5, -1265810.5, -18313.762, 0.013712175, 0.0072961138, -1175084.8, 38730.824, 0.0, 5.023222, 4.96681 
3.9879087e+2, 1.8110725e+2, -1138925.3, -1229957.1, -20447.82, 0.014621521, 0.016473548, -1134543.3, 30612.055, 0.0, 5.0218797, 4.962977 
3.9876306e+2, 1.86071e+2, -1092521.0, -1180041.6, -21016.186, 0.011624188, 0.01343106, -1087736.1, 28773.883, 0.0, 5.020502, 4.963882 
3.987352e+2, 1.910348e+2, -1047375.44, -1132798.6, -21163.941, 0.008476713, 0.0098311305, -1042419.5, 25444.475, 0.0, 5.019118, 4.963881 
3.9870736e+2, 1.9599861e+2, -1003110.4, -1087452.5, -21314.115, 0.0053805034, 0.0065277084, -998030.06, 21187.824, 0.0, 5.0177283, 4.9632297 
3.986794e+2, 2.009597e+2, -962903.0, -1050952.6, -21911.701, 0.0039044842, 0.008020185, -957751.5, 12845.85, 0.0, 5.01636, 4.9595256 
3.9865136e+2, 2.0591924e+2, -915759.1, -1000019.3, -21977.992, 0.0073643103, -0.0053176316, -910371.06, 11617.554, 0.0, 5.015082, 4.960689 
3.9862335e+2, 2.1087886e+2, -870184.0, -952526.7, -21903.795, 0.01097809, -0.019486051, -864720.0, 8658.761, 0.0, 5.0138025, 4.960683 
3.9859533e+2, 2.1583849e+2, -825283.7, -906482.3, -21819.057, 0.014416989, -0.033655178, -819792.06, 4977.003, 0.0, 5.0125113, 4.9601765 
3.985677e+2, 2.2079612e+2, -785938.2, -872253.8, -21668.502, 0.02086503, -0.03263027, -780804.0, -4624.8433, 0.0, 5.011132, 4.9556317 
3.9854074e+2, 2.2575389e+2, -739627.75, -821317.9, -21652.023, 0.031355668, -0.026740782, -734243.75, -6653.937, 0.0, 5.00946, 4.956929 
3.9851376e+2, 2.3071176e+2, -695308.5, -774209.1, -21721.44, 0.04115615, -0.02210121, -689723.9, -10724.445, 0.0, 5.007672, 4.95696 
3.984869e+2, 2.3566958e+2, -651897.4, -728647.5, -21823.764, 0.050815307, -0.018369593, -646125.8, -15716.344, 0.0, 5.00578, 4.956489 
3.9846048e+2, 2.4062432e+2, -616478.75, -700329.5, -19181.918, 0.05123935, -0.00041516084, -612299.0, -30447.074, 0.0, 5.00385, 4.949963 
3.9843535e+2, 2.4557619e+2, -569107.44, -647730.06, -18127.223, 0.04148956, 0.00006203004, -565129.3, -31799.01, 0.0, 5.0022674, 4.9517198 
3.984105e+2, 2.5052804e+2, -523871.25, -600636.75, -17627.285, 0.033804473, -0.0031807928, -520017.1, -35207.688, 0.0, 5.0007515, 4.951599 
3.983857e+2, 2.5548008e+2, -478773.4, -554058.5, -17116.373, 0.026216874, -0.0038387785, -475064.63, -38777.633, 0.0, 4.999255, 4.951279 
3.983645e+2, 2.604287e+2, -434762.56, -509395.38, -11042.872, 0.030317789, -0.009123874, -433162.94, -45374.65, 0.0, 4.997644, 4.950049 
3.9835554e+2, 2.653799e+2, -386577.56, -443663.34, -7182.839, 0.08206591, -0.09087442, -385687.66, -46463.836, 0.0, 4.99374, 4.9567904 
3.9834815e+2, 2.7033204e+2, -349717.97, -397627.63, -6133.335, 0.1349911, -0.19434842, -348945.25, -58299.26, 0.0, 4.98848, 4.9576154 
3.9834154e+2, 2.7528384e+2, -315452.6, -353036.53, -5278.985, 0.18644881, -0.31592053, -314725.2, -72654.29, 0.0, 4.9821944, 4.958392 
3.9832062e+2, 2.8023887e+2, -332120.22, -433792.94, -15730.58, 0.14840719, -0.18198828, -329742.06, -136263.31, 0.0, 4.979276, 4.914881 
3.9829373e+2, 2.8518584e+2, -248625.5, -324748.0, -4994.8594, 0.08538933, 0.04060053, -248299.16, -103261.76, 0.0, 4.985472, 4.931736 
3.9827788e+2, 2.9012272e+2, -186085.58, -268820.34, -4384.0215, 0.07481658, 0.061945025, -185853.92, -89149.17, 0.0, 4.990027, 4.9316635 
3.9826316e+2, 2.9505745e+2, -127078.2, -214744.1, -3440.5122, 0.058566034, 0.055487145, -126943.38, -78550.445, 0.0, 4.9931808, 4.9315853 
3.9824942e+2, 3.000013e+2, -59080.02, -99925.17, 1637.8693, 0.0016054698, 0.00072665873, -59014.445, -59014.445, 0.0, 4.9951205, 4.962993 
3.982468e+2, 3.0496043e+2, -49055.72, -70800.914, 8202.753, -0.14217602, -0.19755879, -46308.53, -46308.53, 0.0, 4.994827, 4.9715157 
3.9825058e+2, 3.099283e+2, -55761.906, -63265.863, 11776.864, -0.2841735, -0.3908029, -47153.793, -47153.793, 0.0, 4.9908876, 4.975094 
3.982584e+2, 3.1490365e+2, -71647.38, -60082.117, 13986.296, -0.4228928, -0.5529215, -50730.176, -50730.176, 0.0, 4.983336, 4.97868 
4.0405127e+2, 1.2146283e+2, -1653706.1, -1746636.4, -108.58113, -0.010913302, 0.03628791, -1653706.0, 95962.36, 0.0, 5.039151, 4.9783974 
4.0404153e+2, 1.264323e+2, -1612754.9, -1708985.5, -4866.744, 0.013161804, -0.02333214, -1612509.4, 88457.78, 0.0, 5.038064, 4.9752584 
4.0402776e+2, 1.3140874e+2, -1567454.6, -1661882.9, -5122.8823, 0.004540529, -0.012447773, -1567177.5, 85021.4, 0.0, 5.0368648, 4.975258 
4.0401402e+2, 1.3638514e+2, -1524270.8, -1619175.9, -5358.216, -0.0040986915, -0.00030462522, -1523969.3, 79461.76, 0.0, 5.035666, 4.9737935 
4.0399802e+2, 1.4135905e+2, -1483250.9, -1580934.9, -10331.197, -0.008559179, 0.022141136, -1482170.1, 72517.266, 0.0, 5.0344415, 4.97079 
4.0397832e+2, 1.4633012e+2, -1437103.0, -1531810.0, -11507.315, -0.0056614927, 0.016509218, -1435724.9, 70245.79, 0.0, 5.033162, 4.971465 
4.0395853e+2, 1.5130112e+2, -1391932.4, -1484707.9, -11883.445, -0.0026415156, 0.009042474, -1390434.5, 66820.43, 0.0, 5.0318785, 4.9714646 
4.039387e+2, 1.562721e+2, -1348123.4, -1440481.5, -12244.276, 0.00038019998, 0.0020299854, -1346527.8, 62011.504, 0.0, 5.030595, 4.970495 
4.039169e+2, 1.6124035e+2, -1308331.0, -1404693.5, -16211.354, 0.0029853869, 0.0026964126, -1305676.8, 54173.582, 0.0, 5.029294, 4.966714 
4.0389144e+2, 1.6620801e+2, -1262366.8, -1355729.6, -17191.656, 0.005491275, 0.0040204623, -1259301.8, 51866.3, 0.0, 5.027946, 4.967331 
4.0386587e+2, 1.7117578e+2, -1217264.3, -1308582.1, -17439.316, 0.008085494, 0.0058680363, -1214047.1, 48437.34, 0.0, 5.0265946, 4.9673324 
4.0384033e+2, 1.7614357e+2, -1173264.0, -1263801.0, -17680.814, 0.010716041, 0.008114731, -1169933.8, 43867.055, 0.0, 5.0252433, 4.966531 
4.0381354e+2, 1.8110865e+2, -1133455.1, -1227726.1, -19924.89, 0.011996301, 0.016912026, -1129416.9, 35726.316, 0.0, 5.0238347, 4.9628086 
4.037843e+2, 1.8607223e+2, -1087596.4, -1178032.0, -20487.668, 0.009626404, 0.013788103, -1083171.5, 33327.7, 0.0, 5.022263, 4.963737 
4.03755e+2, 1.9103588e+2, -1043038.6, -1131092.6, -20599.004, 0.0069956654, 0.010183009, -1038458.06, 29396.45, 0.0, 5.020682, 4.963731 
4.0372568e+2, 1.9599956e+2, -999342.75, -1086039.9, -20708.174, 0.004312327, 0.0069195395, -994650.44, 24559.291, 0.0, 5.019101, 4.9630747 
4.0369624e+2, 2.0096055e+2, -959905.9, -1049875.8, -21376.613, 0.003101143, 0.008958934, -955085.1, 15505.045, 0.0, 5.0174584, 4.959386 
4.0366668e+2, 2.059201e+2, -914153.06, -999534.5, -21715.803, 0.0067739543, -0.0028816334, -908947.3, 13034.449, 0.0, 5.015689, 4.960573 
4.0363717e+2, 2.1087977e+2, -869974.0, -952654.4, -21949.955, 0.0109101655, -0.015531641, -864508.06, 8864.049, 0.0, 5.013917, 4.9605803 
4.0360773e+2, 2.1583945e+2, -826430.06, -907197.7, -22188.299, 0.015199767, -0.028178485, -820736.0, 4026.4548, 0.0, 5.0121446, 4.9600883 
4.035786e+2, 2.2079708e+2, -788043.6, -873448.9, -22300.107, 0.022214321, -0.02655277, -782571.44, -6398.102, 0.0, 5.0104384, 4.9555144 
4.0355006e+2, 2.2575468e+2, -741627.9, -822562.1, -22442.504, 0.032825664, -0.020808367, -735821.3, -8235.211, 0.0, 5.008828, 4.9567666 
4.035215e+2, 2.3071252e+2, -696865.94, -775285.44, -22593.28, 0.043746646, -0.015057778, -690822.4, -11825.415, 0.0, 5.0072107, 4.9567833 
4.0349308e+2, 2.3567039e+2, -652727.44, -729428.2, -22741.049, 0.05548108, -0.009057124, -646491.8, -16084.446, 0.0, 5.0055923, 4.956298 
4.0346515e+2, 2.4062505e+2, -616155.5, -699318.8, -20226.285, 0.059698224, 0.007895848, -611497.1, -29646.482, 0.0, 5.003832, 4.950323 
4.0343833e+2, 2.4557652e+2, -570221.7, -647191.25, -19397.508, 0.051902026, 0.000082492435, -565609.56, -32278.75, 0.0, 5.0017247, 4.952143 
4.0341157e+2, 2.505279e+2, -526711.1, -600796.2, -19193.363, 0.0444843, -0.012122249, -522033.97, -37221.695, 0.0, 4.9995985, 4.9520373 
4.0338483e+2, 2.554793e+2, -483402.0, -554939.5, -19012.12, 0.036166053, -0.023111245, -478663.2, -42369.723, 0.0, 4.9974666, 4.951733 
4.033618e+2, 2.6042822e+2, -440992.7, -510359.3, -14394.428, 0.042488437, -0.03210083, -438124.28, -50332.95, 0.0, 4.9952207, 4.9507236 
4.0335107e+2, 2.6538235e+2, -391511.34, -444522.7, -14139.454, 0.108926594, -0.086110346, -387975.78, -48769.5, 0.0, 4.99207, 4.95719 
4.033422e+2, 2.7033833e+2, -349324.1, -395429.72, -16328.875, 0.18767165, -0.15064614, -344126.88, -53527.707, 0.0, 4.988784, 4.958226 
4.033345e+2, 2.7529502e+2, -306992.06, -346600.84, -18746.602, 0.2763422, -0.22423317, -299526.53, -57541.5, 0.0, 4.9854655, 4.9592166 
4.0331408e+2, 2.8025243e+2, -307383.03, -415945.38, -26099.578, 0.28870973, -0.08804363, -301434.38, -108058.66, 0.0, 4.98663, 4.9183726 
4.032885e+2, 2.8519398e+2, -237411.36, -324376.72, -7700.196, 0.19975923, 0.07837783, -236734.81, -91753.98, 0.0, 4.989642, 4.930956 
4.0327328e+2, 2.9012626e+2, -186639.19, -270751.53, -5305.3135, 0.14817598, 0.06643383, -186305.89, -89621.02, 0.0, 4.989792, 4.9316816 
4.0325928e+2, 2.9505685e+2, -135696.17, -217339.56, -3425.4343, 0.10205653, 0.023863964, -135552.7, -87147.42, 0.0, 4.9898434, 4.9324107 
4.032468e+2, 2.9999936e+2, -70017.64, -96049.58, 1077.1796, 0.033991765, -0.0545611, -69973.15, -69973.15, 0.0, 4.9898486, 4.966648 
4.0324676e+2, 3.0496538e+2, -59567.21, -64335.387, 2681.5818, -0.068241306, -0.21342695, -58363.156, -58363.156, 0.0, 4.9895873, 4.976297 
4.032542e+2, 3.0994308e+2, -57442.688, -53315.03, 1813.9282, -0.12917322, -0.32672656, -52631.184, -52631.184, 0.0, 4.989199, 4.9798217 
4.0326682e+2, 3.1493115e+2, -54935.918, -42664.434, 366.18198, -0.15021469, -0.37142792, -42653.516, -42653.516, 0.0, 4.9886785, 4.983355 
4.090912e+2, 1.2146845e+2, -1655291.8, -1749895.9, -277.93628, -0.0029084354, 0.02661033, -1655291.0, 94320.88, 0.0, 5.039153, 4.9773273 
4.0907928e+2, 1.26439e+2, -1613218.1, -1709964.3, -5772.606, 0.010090777, -0.018183287, -1612874.9, 88025.78, 0.0, 5.038068, 4.9749365 
4.0906444e+2, 1.3141477e+2, -1567914.6, -1662859.5, -6027.6865, 0.0029681937, -0.010741521, -1567533.5, 84605.34, 0.0, 5.036869, 4.9749355 
4.0904966e+2, 1.363905e+2, -1524728.3, -1620152.3, -6263.4844, -0.0041942606, -0.0020464608, -1524318.9, 79058.33, 0.0, 5.0356703, 4.9734707 
4.090325e+2, 1.4136384e+2, -1483836.1, -1582192.0, -11304.404, -0.007918301, 0.01844142, -1482553.6, 72085.336, 0.0, 5.0344477, 4.970374 
4.0901142e+2, 1.4633466e+2, -1437764.1, -1533233.8, -12479.604, -0.0062341983, 0.014711046, -1436159.9, 69765.76, 0.0, 5.033169, 4.9709935 
4.089902e+2, 1.5130539e+2, -1392589.0, -1486129.5, -12854.917, -0.004547872, 0.009330545, -1390854.5, 66358.57, 0.0, 5.0318856, 4.970992 
4.0896896e+2, 1.562761e+2, -1348774.3, -1441898.6, -13214.608, -0.0028703331, 0.0044056345, -1346935.4, 61565.36, 0.0, 5.0306025, 4.970023 
4.089457e+2, 1.6124406e+2, -1308784.0, -1405706.8, -17234.314, -0.0013913619, 0.0062588057, -1305810.8, 54004.664, 0.0, 5.029303, 4.966377 
4.0891886e+2, 1.6621129e+2, -1262765.3, -1356631.0, -18217.326, 0.00070075336, 0.0064355535, -1259353.6, 51783.6, 0.0, 5.027955, 4.96703 
4.0889192e+2, 1.7117865e+2, -1217660.6, -1309481.9, -18464.55, 0.0029161617, 0.0070194323, -1214086.6, 48371.203, 0.0, 5.026603, 4.9670315 
4.08865e+2, 1.7614602e+2, -1173657.9, -1264697.9, -18705.059, 0.005156262, 0.008004066, -1169964.5, 43813.832, 0.0, 5.0252523, 4.9662304 
4.0883678e+2, 1.8111075e+2, -1133662.4, -1228229.6, -21093.662, 0.0066950265, 0.01585476, -1129170.6, 35953.477, 0.0, 5.023844, 4.9626403 
4.0880617e+2, 1.860742e+2, -1087740.1, -1178406.0, -21696.375, 0.006179468, 0.0127334725, -1082815.6, 33665.492, 0.0, 5.022273, 4.9636116 
4.0877545e+2, 1.9103773e+2, -1043179.56, -1131466.8, -21806.393, 0.0054564197, 0.009191371, -1038087.25, 29749.943, 0.0, 5.0206923, 4.9636054 
4.0874475e+2, 1.9600128e+2, -999481.0, -1086414.4, -21914.084, 0.0046639396, 0.005988893, -994269.4, 24923.883, 0.0, 5.019112, 4.962949 
4.0871382e+2, 2.0096223e+2, -960137.7, -1050527.3, -22692.404, 0.0048431675, 0.009131085, -954760.6, 15813.572, 0.0, 5.0174794, 4.9591646 
4.0868253e+2, 2.0592192e+2, -914415.0, -1000314.06, -23057.068, 0.008403904, 0.0012187633, -908617.3, 13348.493, 0.0, 5.015717, 4.9603076 
4.0865123e+2, 2.1088172e+2, -870225.4, -953444.4, -23285.229, 0.012243904, -0.0073661776, -864153.1, 9203.155, 0.0, 5.0139494, 4.96031 
4.0862e+2, 2.1584152e+2, -826671.0, -907998.25, -23517.44, 0.01612979, -0.015974551, -820360.2, 4386.5933, 0.0, 5.012181, 4.959813 
4.085891e+2, 2.2079904e+2, -788213.06, -874016.25, -23519.201, 0.021676281, -0.012979068, -782189.2, -6029.261, 0.0, 5.010464, 4.955324 
4.085586e+2, 2.2575597e+2, -741784.2, -823062.06, -23665.541, 0.029148346, -0.011816312, -735395.7, -7816.121, 0.0, 5.0088477, 4.9566035 
4.0852815e+2, 2.3071313e+2, -697015.5, -775777.06, -23806.977, 0.036937043, -0.010866025, -690378.75, -11381.382, 0.0, 5.0072317, 4.9566216 
4.084978e+2, 2.356703e+2, -652870.44, -729911.7, -23945.283, 0.04541368, -0.009803177, -646034.5, -15619.663, 0.0, 5.0056143, 4.956137 
4.0846813e+2, 2.4062444e+2, -615597.94, -698402.2, -21754.477, 0.04947444, 0.001414059, -610230.5, -28367.459, 0.0, 5.0038786, 4.9506307 
4.084397e+2, 2.4557628e+2, -569721.4, -646516.75, -21039.707, 0.047316756, -0.0054709082, -564334.9, -30998.205, 0.0, 5.0017834, 4.9523716 
4.0841135e+2, 2.505282e+2, -526223.75, -600180.2, -20804.652, 0.045295943, -0.014708317, -520772.94, -35962.88, 0.0, 4.9996552, 4.952255 
4.0838298e+2, 2.5548014e+2, -482927.28, -554381.75, -20592.436, 0.042335942, -0.022614786, -477417.6, -41134.484, 0.0, 4.997522, 4.9519396 
4.0835816e+2, 2.6043007e+2, -441258.72, -511852.84, -16090.403, 0.052569155, -0.023073973, -437764.25, -49992.766, 0.0, 4.9953084, 4.950277 
4.0834403e+2, 2.6538432e+2, -392584.1, -449194.3, -15612.21, 0.10622308, -0.056676064, -388563.97, -49366.848, 0.0, 4.9923224, 4.9556727 
4.083314e+2, 2.703397e+2, -349912.4, -400262.44, -17402.78, 0.16741349, -0.10363586, -344482.88, -53873.656, 0.0, 4.9892073, 4.956596 
4.083199e+2, 2.7529538e+2, -307095.75, -351596.56, -19422.06, 0.23629154, -0.16265568, -299811.47, -57793.45, 0.0, 4.98606, 4.957473 
4.0829834e+2, 2.8024974e+2, -302030.06, -402695.5, -27178.252, 0.2543054, -0.062739685, -295161.03, -101713.414, 0.0, 4.986488, 4.9229326 
4.0827566e+2, 2.8519005e+2, -236529.02, -318155.8, -9149.911, 0.1891575, 0.057564043, -235515.94, -90463.516, 0.0, 4.9889393, 4.9333534 
4.082623e+2, 2.9012287e+2, -185320.63, -265418.38, -6218.702, 0.14352876, 0.035183646, -184840.69, -88105.19, 0.0, 4.989293, 4.9337864 
4.082501e+2, 2.950539e+2, -133941.08, -212890.55, -3802.9187, 0.1006891, -0.016661245, -133758.31, -85321.87, 0.0, 4.9895487, 4.934223 
4.0823984e+2, 2.9999888e+2, -66138.72, -89526.34, 1790.7656, 0.04059693, -0.088413276, -66002.4, -66002.4, 0.0, 4.989853, 4.9692016 
4.0824243e+2, 3.049712e+2, -54693.56, -60313.742, 4856.366, -0.039332252, -0.1960416, -51892.863, -51892.863, 0.0, 4.99023, 4.9778934 
4.0825197e+2, 3.0995372e+2, -50380.22, -48457.473, 5088.9824, -0.08623616, -0.26875743, -44239.85, -44239.85, 0.0, 4.9904785, 4.981415 
4.082664e+2, 3.149453e+2, -45687.938, -36976.86, 4740.997, -0.102035746, -0.28884047, -34894.406, -34894.406, 0.0, 4.9905953, 4.984944 
4.1413108e+2, 1.21474095e+2, -1656775.8, -1752945.6, -447.43146, 0.004002838, 0.017363153, -1656773.6, 92781.445, 0.0, 5.0391545, 4.9763265 
4.14117e+2, 1.264457e+2, -1613681.5, -1710943.1, -6678.003, 0.006965823, -0.0130072525, -1613225.1, 87609.15, 0.0, 5.0380716, 4.974614 
4.1410115e+2, 1.3142079e+2, -1568374.6, -1663836.4, -6932.0264, 0.0013516236, -0.009024701, -1567873.9, 84204.79, 0.0, 5.0368733, 4.974613 
4.1408533e+2, 1.3639586e+2, -1525185.6, -1621128.9, -7168.3296, -0.0043243906, -0.0037943344, -1524653.0, 78670.24, 0.0, 5.035675, 4.9731474 
4.14067e+2, 1.4136866e+2, -1484430.4, -1583468.3, -12276.606, -0.0073116287, 0.014778425, -1482931.3, 71659.19, 0.0, 5.034454, 4.9699526 
4.140445e+2, 1.4633921e+2, -1438425.4, -1534658.1, -13450.891, -0.0068333577, 0.012947463, -1436580.6, 69299.89, 0.0, 5.033176, 4.970521 
4.1402185e+2, 1.5130967e+2, -1393245.6, -1487551.8, -13825.39, -0.00646929, 0.009632922, -1391260.5, 65910.805, 0.0, 5.0318933, 4.970519 
4.1399923e+2, 1.5628012e+2, -1349425.1, -1443316.4, -14183.952, -0.0061245435, 0.0067753294, -1347329.1, 61133.12, 0.0, 5.0306106, 4.9695506 
4.1397455e+2, 1.6124777e+2, -1309239.0, -1406725.1, -18257.232, -0.005766013, 0.009828325, -1305931.9, 53848.484, 0.0, 5.029312, 4.9660378 
4.139463e+2, 1.6621459e+2, -1263163.5, -1357533.0, -19242.926, -0.004075858, 0.008852627, -1259390.5, 51715.977, 0.0, 5.027964, 4.966729 
4.1391796e+2, 1.711815e+2, -1218056.8, -1310382.1, -19489.715, -0.0022249236, 0.008155676, -1214111.1, 48320.125, 0.0, 5.0266123, 4.96673 
4.1388965e+2, 1.7614844e+2, -1174051.4, -1265595.3, -19729.23, -0.00036094637, 0.007861131, -1169980.5, 43775.58, 0.0, 5.0252614, 4.9659295 
4.1386005e+2, 1.8111284e+2, -1133886.0, -1228769.6, -22261.51, 0.001372179, 0.014835147, -1128922.6, 36182.46, 0.0, 5.023854, 4.962459 
4.1382805e+2, 1.8607615e+2, -1087883.6, -1178780.4, -22903.652, 0.0026850114, 0.011724421, -1082438.6, 34024.363, 0.0, 5.0222836, 4.963486 
4.1379592e+2, 1.9103958e+2, -1043320.3, -1131841.4, -23012.355, 0.003870922, 0.008218139, -1037695.4, 30124.55, 0.0, 5.0207033, 4.963479 
4.1376382e+2, 1.96003e+2, -999619.06, -1086789.3, -23118.564, 0.004970571, 0.0050495137, -993867.25, 25309.527, 0.0, 5.0191236, 4.9628224 
4.137314e+2, 2.0096391e+2, -960374.0, -1051186.3, -23995.756, 0.0065179183, 0.009269339, -954423.4, 16134.869, 0.0, 5.0175004, 4.95894 
4.1369838e+2, 2.0592374e+2, -914678.6, -1001092.44, -24390.947, 0.01000842, 0.0052240836, -908269.44, 13680.53, 0.0, 5.0157456, 4.9600406 
4.1366532e+2, 2.1088366e+2, -870478.5, -954233.2, -24613.113, 0.01360493, 0.0006310495, -863780.94, 9559.578, 0.0, 5.0139823, 4.9600387 
4.136323e+2, 2.158436e+2, -826913.6, -908797.6, -24839.19, 0.017139774, -0.0040119225, -819967.94, 4763.327, 0.0, 5.012218, 4.9595366 
4.1359958e+2, 2.2080101e+2, -788411.6, -874646.1, -24759.88, 0.021478992, 0.00074604613, -781808.1, -5661.749, 0.0, 5.0104904, 4.955112 
4.135672e+2, 2.2575732e+2, -741941.8, -823561.25, -24890.787, 0.026004473, -0.0026025113, -734950.0, -7377.295, 0.0, 5.0088677, 4.956439 
4.1353485e+2, 2.3071375e+2, -697166.44, -776267.94, -25022.885, 0.030737154, -0.0066516977, -689915.44, -10917.894, 0.0, 5.0072527, 4.956458 
4.135026e+2, 2.3567022e+2, -653014.75, -730394.3, -25151.725, 0.036032192, -0.0107255485, -645557.94, -15135.747, 0.0, 5.0056367, 4.955975 
4.1347113e+2, 2.4062385e+2, -615256.94, -697954.0, -23229.773, 0.038965125, -0.0040179314, -609178.44, -27303.42, 0.0, 5.0039253, 4.950773 
4.134411e+2, 2.455761e+2, -569230.2, -645835.3, -22645.934, 0.04212913, -0.009710434, -563036.44, -29694.348, 0.0, 5.001842, 4.9525914 
4.134111e+2, 2.5052854e+2, -525745.44, -599557.1, -22379.977, 0.045782156, -0.016683286, -519489.88, -34682.36, 0.0, 4.9997125, 4.9524636 
4.1338113e+2, 2.55481e+2, -482461.56, -553816.8, -22136.787, 0.048457056, -0.022209262, -476151.9, -39879.29, 0.0, 4.9975777, 4.9521375 
4.1335455e+2, 2.6043186e+2, -441700.4, -513653.88, -17731.316, 0.06345183, -0.014058481, -437568.22, -49816.355, 0.0, 4.995397, 4.949678 
4.1333738e+2, 2.6538607e+2, -393715.5, -453829.8, -16913.455, 0.105905764, -0.03362597, -389283.56, -50093.813, 0.0, 4.992575, 4.954044 
4.1332135e+2, 2.7034056e+2, -350558.38, -405057.97, -18304.611, 0.15053408, -0.071761295, -344981.2, -54357.355, 0.0, 4.989631, 4.9548535 
4.1330636e+2, 2.7529502e+2, -307256.25, -356554.06, -19924.875, 0.20061138, -0.12494959, -300210.22, -58151.773, 0.0, 4.986655, 4.955617 
4.132825e+2, 2.8024748e+2, -302357.75, -402420.56, -29313.982, 0.21840607, -0.029022546, -294402.53, -100886.97, 0.0, 4.986354, 4.9229627 
4.1326177e+2, 2.8518748e+2, -235805.4, -311794.03, -10046.259, 0.17385507, 0.06936867, -234499.66, -89388.95, 0.0, 4.9882364, 4.935629 
4.1325063e+2, 2.9012054e+2, -184158.88, -259943.22, -6580.193, 0.13656503, 0.026193365, -183591.77, -86815.86, 0.0, 4.9887943, 4.9357686 
4.132405e+2, 2.9505163e+2, -132340.92, -208298.39, -3629.8157, 0.09938696, -0.045281738, -132167.86, -83707.42, 0.0, 4.9892535, 4.9359126 
4.132326e+2, 2.999981e+2, -63215.566, -84653.234, 2750.2935, 0.046878304, -0.12244825, -62868.348, -62868.348, 0.0, 4.9898577, 4.9710264 
4.132381e+2, 3.0497563e+2, -50031.813, -56093.477, 7148.671, -0.01786936, -0.1991062, -45298.016, -45298.016, 0.0, 4.9908733, 4.9792457 
4.1325015e+2, 3.0996192e+2, -43532.777, -43403.875, 8479.363, -0.058560777, -0.25630307, -34988.72, -34988.72, 0.0, 4.99176, 4.9827633 
4.1326675e+2, 3.149561e+2, -36660.113, -31095.824, 9228.288, -0.07694792, -0.27685422, -24239.42, -24239.42, 0.0, 4.9925146, 4.986288 
4.1917083e+2, 1.2147994e+2, -1657064.8, -1755126.4, 54.307068, 0.009760704, 0.009057687, -1657064.6, 92431.875, 0.0, 5.039499, 4.9754434 
4.1915482e+2, 1.2645248e+2, -1613213.8, -1711484.9, -6872.1016, 0.004199553, -0.008040735, -1612735.5, 88031.555, 0.0, 5.0383945, 4.97428 
4.191379e+2, 1.314269e+2, -1567785.9, -1664319.1, -7189.547, -0.00014030053, -0.0074085197, -1567253.3, 84764.49, 0.0, 5.037236, 4.974279 
4.19121e+2, 1.364013e+2, -1524492.0, -1621562.0, -7488.318, -0.004494309, -0.0055356137, -1523917.6, 79351.055, 0.0, 5.0360727, 4.972813 
4.191015e+2, 1.4137353e+2, -1483806.6, -1584148.0, -12698.109, -0.006797426, 0.011210803, -1482224.6, 72316.74, 0.0, 5.034872, 4.969528 
4.190776e+2, 1.4634381e+2, -1437879.1, -1535469.4, -13843.642, -0.0074156253, 0.011166203, -1435953.4, 69881.37, 0.0, 5.033587, 4.9700565 
4.1905355e+2, 1.5131399e+2, -1392723.8, -1488376.1, -14185.418, -0.008244281, 0.009779676, -1390664.4, 66464.57, 0.0, 5.0322957, 4.970054 
4.1902953e+2, 1.5628418e+2, -1348927.6, -1444151.6, -14509.672, -0.009091725, 0.008848835, -1346765.8, 61657.43, 0.0, 5.031004, 4.969086 
4.1900346e+2, 1.6125154e+2, -1308610.6, -1407218.3, -18622.281, -0.009767131, 0.013065257, -1305211.0, 54533.76, 0.0, 5.0296903, 4.965697 
4.1897377e+2, 1.6621794e+2, -1262586.9, -1357969.9, -19636.057, -0.008536892, 0.011082079, -1258702.8, 52372.15, 0.0, 5.028307, 4.966424 
4.1894406e+2, 1.7118445e+2, -1217584.9, -1310871.4, -19908.822, -0.007105863, 0.009237231, -1213513.6, 48890.17, 0.0, 5.02692, 4.9664245 
4.1891435e+2, 1.7615095e+2, -1173681.5, -1266134.3, -20173.635, -0.005665194, 0.007784322, -1169471.3, 44261.563, 0.0, 5.025533, 4.965624 
4.1888335e+2, 1.81115e+2, -1133442.8, -1229036.9, -22878.373, -0.0038756053, 0.014026772, -1128249.4, 36835.813, 0.0, 5.0241013, 4.9622574 
4.1884992e+2, 1.8607819e+2, -1087352.5, -1178852.3, -23622.234, -0.0008736915, 0.010885423, -1081614.0, 34830.36, 0.0, 5.02253, 4.96335 
4.1881645e+2, 1.9104147e+2, -1042788.06, -1131908.0, -23787.1, 0.0021428613, 0.0073115495, -1036836.5, 30965.775, 0.0, 5.0209494, 4.963345 
4.1878292e+2, 1.9600476e+2, -999085.9, -1086850.9, -23939.889, 0.0050925286, 0.004050228, -992980.44, 26179.664, 0.0, 5.0193696, 4.96269 
4.1874903e+2, 2.009656e+2, -959927.5, -1051496.0, -24925.684, 0.008000728, 0.009192332, -953582.25, 16960.1, 0.0, 5.0177574, 4.9587197 
4.1871423e+2, 2.0592555e+2, -914228.4, -1001481.44, -25316.738, 0.011598139, 0.008816989, -907414.7, 14519.388, 0.0, 5.0160193, 4.959787 
4.1867948e+2, 2.1088561e+2, -870045.25, -954640.7, -25481.338, 0.015201212, 0.008041028, -862962.9, 10361.871, 0.0, 5.0142527, 4.959781 
4.1864473e+2, 2.1584567e+2, -826554.6, -909250.25, -25641.45, 0.01868609, 0.007220309, -819249.4, 5466.1865, 0.0, 5.012465, 4.9592757 
4.1861022e+2, 2.2080305e+2, -788175.25, -875091.3, -25456.32, 0.022313904, 0.014172685, -781268.4, -5136.161, 0.0, 5.010688, 4.954878 
4.1857597e+2, 2.2575875e+2, -741776.4, -823934.1, -25601.639, 0.024148779, 0.006839973, -734451.56, -6886.7134, 0.0, 5.0090184, 4.956253 
4.185417e+2, 2.3071451e+2, -697187.06, -776750.5, -25820.945, 0.025910994, -0.001880369, -689541.94, -10545.453, 0.0, 5.007339, 4.9562654 
4.1850752e+2, 2.3567028e+2, -653291.06, -731013.8, -26074.639, 0.028068371, -0.01074476, -645354.0, -14925.888, 0.0, 5.005635, 4.955777 
4.1847414e+2, 2.4062341e+2, -615442.06, -698087.6, -24478.432, 0.028831458, -0.0071370727, -608736.06, -26850.703, 0.0, 5.00386, 4.9507647 
4.184425e+2, 2.4557601e+2, -568732.4, -644954.3, -23907.404, 0.03680441, -0.012691886, -561854.4, -28507.762, 0.0, 5.001886, 4.9528728 
4.1841093e+2, 2.5052884e+2, -524890.06, -598460.8, -23323.791, 0.046312477, -0.019853229, -518119.03, -33313.67, 0.0, 4.9998837, 4.95276 
4.1837934e+2, 2.5548172e+2, -481249.66, -552511.4, -22624.803, 0.054925475, -0.025722813, -474673.4, -38409.633, 0.0, 4.997879, 4.952447 
4.1835117e+2, 2.6043344e+2, -441842.1, -515013.06, -17810.672, 0.07611423, -0.01026369, -437737.06, -50002.67, 0.0, 4.9956446, 4.9490714 
4.1833138e+2, 2.6538804e+2, -398512.1, -459578.56, -16111.253, 0.112736195, -0.01765257, -394522.13, -55341.61, 0.0, 4.9916043, 4.952405 
4.1831246e+2, 2.7034214e+2, -361667.53, -414049.97, -17153.428, 0.14727947, -0.047920927, -356550.28, -65918.41, 0.0, 4.986491, 4.9530554 
4.1829452e+2, 2.7529585e+2, -327145.25, -369790.88, -19034.785, 0.18621723, -0.09389252, -319885.1, -77798.72, 0.0, 4.980473, 4.9536657 
4.1826737e+2, 2.8024817e+2, -334569.1, -426920.53, -31264.586, 0.2028417, 0.037504673, -324980.38, -131426.38, 0.0, 4.9770536, 4.9184294 
4.182475e+2, 2.851878e+2, -252335.45, -313526.4, -8813.932, 0.16877218, 0.12765494, -251091.2, -105950.93, 0.0, 4.981389, 4.9376583 
4.1823855e+2, 2.901199e+2, -193038.94, -258989.36, -4818.12, 0.13582593, 0.04364002, -192688.81, -95889.07, 0.0, 4.984689, 4.937641 
4.1823065e+2, 2.9505017e+2, -136416.92, -205894.61, -937.35455, 0.102393515, -0.065040946, -136404.28, -87927.2, 0.0, 4.9869127, 4.9376225 
4.1822514e+2, 2.999969e+2, -66048.11, -82850.8, 6452.3887, 0.055297937, -0.16332561, -63856.25, -63856.25, 0.0, 4.988079, 4.97244 
4.1823384e+2, 3.049793e+2, -59895.523, -57372.8, 11582.405, 0.0032693336, -0.22151275, -46983.277, -46983.277, 0.0, 4.986405, 4.980564 
4.18249e+2, 3.099694e+2, -69101.766, -51882.08, 11746.933, -0.02904968, -0.27464494, -45927.586, -45927.586, 0.0, 4.9815598, 4.983907 
4.182685e+2, 3.1496623e+2, -85718.55, -50006.266, 9330.431, -0.04304044, -0.30276728, -47715.477, -47715.477, 0.0, 4.973779, 4.9872584 
4.2421246e+2, 1.2148967e+2, -1645858.5, -1749961.6, 1811.923, 0.010334607, 0.008148979, -1645827.0, 103574.25, 0.0, 5.0433426, 4.9752603 
4.2419532e+2, 1.2646198e+2, -1603151.9, -1707652.0, -4802.202, 0.005792465, -0.0062126787, -1602931.6, 97741.84, 0.0, 5.0420213, 4.9737725 
4.2417708e+2, 1.3143569e+2, -1558019.8, -1660649.0, -5260.0, 0.0004249333, -0.007318015, -1557750.9, 94179.96, 0.0, 5.040771, 4.973771 
4.241589e+2, 1.364094e+2, -1515003.4, -1618045.9, -5701.575, -0.004829143, -0.007185353, -1514688.9, 88499.56, 0.0, 5.0395203, 4.9723043 
4.241381e+2, 1.4138107e+2, -1474480.4, -1580464.3, -11101.643, -0.0076664886, 0.008436129, -1473330.0, 81136.62, 0.0, 5.0382104, 4.9691334 
4.241128e+2, 1.4635101e+2, -1429022.8, -1531993.8, -12217.094, -0.008409772, 0.008977646, -1427593.0, 78170.125, 0.0, 5.036765, 4.969678 
4.2408738e+2, 1.5132089e+2, -1384361.0, -1485155.6, -12512.255, -0.009350877, 0.008260066, -1382831.0, 74229.47, 0.0, 5.035313, 4.9696755 
4.2406195e+2, 1.5629075e+2, -1341051.8, -1441178.5, -12788.731, -0.0102845, 0.007991227, -1339444.1, 68913.87, 0.0, 5.0338607, 4.9687085 
4.240344e+2, 1.612578e+2, -1301211.8, -1404445.9, -16959.686, -0.011191294, 0.012741049, -1298496.9, 61185.81, 0.0, 5.032377, 4.9653397 
4.240032e+2, 1.6622387e+2, -1255808.0, -1355531.5, -18026.9, -0.01065614, 0.011100083, -1252649.4, 58367.105, 0.0, 5.030792, 4.966059 
4.239719e+2, 1.7119004e+2, -1211419.6, -1308744.1, -18345.639, -0.009948178, 0.009589227, -1208076.4, 54272.68, 0.0, 5.0292, 4.9660583 
4.239406e+2, 1.7615621e+2, -1168126.1, -1264312.5, -18654.729, -0.0092293, 0.0084588835, -1164634.9, 49046.805, 0.0, 5.0276084, 4.965257 
4.23908e+2, 1.811199e+2, -1128408.0, -1227401.4, -21513.236, -0.007881726, 0.014972373, -1123934.9, 41102.824, 0.0, 5.0259833, 4.9619236 
4.2387298e+2, 1.8608278e+2, -1082797.5, -1177408.8, -22420.213, -0.0043171397, 0.011944681, -1077753.4, 38646.965, 0.0, 5.024241, 4.963035 
4.238379e+2, 1.9104575e+2, -1038725.7, -1130690.8, -22736.982, -0.00058296893, 0.008406191, -1033411.4, 34350.496, 0.0, 5.0224905, 4.963036 
4.238028e+2, 1.9600873e+2, -995512.44, -1085856.4, -23049.896, 0.0031704966, 0.005104691, -989971.44, 29151.838, 0.0, 5.02074, 4.9623866 
4.2376724e+2, 2.009693e+2, -956732.56, -1050553.1, -24223.275, 0.006438925, 0.010473438, -950847.56, 19660.955, 0.0, 5.0189734, 4.9584703 
4.237306e+2, 2.0592916e+2, -911202.5, -1000519.3, -24688.35, 0.009265828, 0.011229409, -904832.56, 17069.08, 0.0, 5.017163, 4.9595785 
4.23694e+2, 2.1088915e+2, -867155.5, -953723.5, -24899.736, 0.0122400755, 0.011746785, -860504.5, 12788.873, 0.0, 5.015351, 4.959579 
4.2365745e+2, 2.1584913e+2, -823743.5, -908349.2, -25107.436, 0.01529602, 0.012340789, -816853.7, 7831.4067, 0.0, 5.013539, 4.95908 
4.2362112e+2, 2.2080639e+2, -785404.5, -874227.56, -24883.037, 0.018642789, 0.019893577, -778908.75, -2805.3086, 0.0, 5.0117617, 4.9546695 
4.2358518e+2, 2.2576177e+2, -739063.4, -823272.56, -24974.771, 0.020335253, 0.011889712, -732213.5, -4674.006, 0.0, 5.0101013, 4.9559803 
4.2354923e+2, 2.3071721e+2, -694424.7, -776178.5, -25149.73, 0.021789398, 0.00285165, -687307.5, -8332.802, 0.0, 5.008451, 4.9559603 
4.2351326e+2, 2.3567265e+2, -650407.6, -730502.8, -25315.646, 0.023405433, -0.006059496, -643077.06, -12667.065, 0.0, 5.0068007, 4.9554377 
4.2347816e+2, 2.4062553e+2, -612337.44, -697189.44, -23917.945, 0.02389249, -0.0017545559, -606059.9, -24190.18, 0.0, 5.0050106, 4.9505863 
4.234446e+2, 2.4557793e+2, -565680.06, -643342.7, -24248.96, 0.033038244, -0.009326313, -558730.56, -25398.492, 0.0, 5.002908, 4.952973 
4.2341122e+2, 2.5053048e+2, -522062.44, -596452.0, -24652.402, 0.04435178, -0.021036504, -514634.44, -29841.783, 0.0, 5.0007906, 4.953004 
4.233779e+2, 2.5548303e+2, -478658.4, -550092.9, -25082.012, 0.055358358, -0.033418417, -470731.28, -34477.816, 0.0, 4.998664, 4.952837 
4.2334777e+2, 2.6043454e+2, -440038.75, -514235.44, -22142.342, 0.07850149, -0.022508917, -433933.25, -46206.496, 0.0, 4.996515, 4.9487753 
4.233259e+2, 2.6539046e+2, -393041.2, -459154.1, -22431.12, 0.1231235, -0.0074401395, -386149.13, -46981.156, 0.0, 4.9943137, 4.951209 
4.2330512e+2, 2.7034685e+2, -348736.28, -410845.4, -24455.582, 0.1744174, 0.0030527746, -340262.84, -49657.703, 0.0, 4.992117, 4.951605 
4.2328542e+2, 2.7530387e+2, -304403.5, -362699.88, -26572.85, 0.23758857, 0.013642351, -294108.9, -52072.09, 0.0, 4.9898787, 4.9519534 
4.2325756e+2, 2.8025883e+2, -292890.78, -411023.6, -31691.127, 0.27527565, 0.1963113, -284926.1, -91442.05, 0.0, 4.991688, 4.9176803 
4.2323712e+2, 2.8519374e+2, -218840.27, -299253.13, -8087.17, 0.21841133, 0.22615014, -218035.0, -72927.78, 0.0, 4.99169, 4.9387364 
4.2322707e+2, 2.901215e+2, -179109.1, -251389.27, -6365.23, 0.1655411, 0.07741601, -178552.83, -81754.68, 0.0, 4.9881034, 4.939398 
4.232183e+2, 2.9504904e+2, -139258.63, -203548.28, -5009.888, 0.12107458, -0.0818659, -138870.56, -90379.53, 0.0, 4.9844, 4.9400625 
4.232125e+2, 2.999957e+2, -82665.73, -84565.984, -1278.4938, 0.076845706, -0.20558307, -82022.97, -82022.97, 0.0, 4.9807577, 4.9754295 
4.232227e+2, 3.0498648e+2, -82662.05, -64465.805, -1271.6979, 0.07053978, -0.1923086, -64377.36, -64377.36, 0.0, 4.977561, 4.982374 
4.2324013e+2, 3.0998626e+2, -88934.125, -60755.375, -3415.893, 0.11328453, -0.13977745, -60347.203, -60347.203, 0.0, 4.9743614, 4.98462 
4.2326245e+2, 3.149925e+2, -94977.586, -57284.547, -6191.6597, 0.19901176, -0.04468089, -56293.527, -56293.527, 0.0, 4.971007, 4.9868674 
4.2925566e+2, 1.2150118e+2, -1645797.1, -1749838.8, 213.50607, 0.008783407, 0.00921955, -1645796.6, 103492.36, 0.0, 5.04334, 4.975303 
4.2923757e+2, 1.2647294e+2, -1603984.4, -1709420.5, -5745.712, 0.00852972, -0.0053303717, -1603672.3, 96893.51, 0.0, 5.0420284, 4.9731913 
4.2921796e+2, 1.3144596e+2, -1558846.4, -1662412.9, -6202.3643, 0.0016201138, -0.0076851863, -1558476.3, 93353.69, 0.0, 5.040778, 4.97319 
4.2919835e+2, 1.3641894e+2, -1515827.3, -1619812.3, -6646.3325, -0.0052004787, -0.008805732, -1515404.1, 87690.12, 0.0, 5.039528, 4.9717207 
4.2917612e+2, 1.4139e+2, -1475034.4, -1581682.9, -12180.756, -0.009061602, 0.005926398, -1473660.9, 80717.31, 0.0, 5.0382195, 4.9687304 
4.291494e+2, 1.4635961e+2, -1429521.5, -1533102.9, -13313.122, -0.009717634, 0.006740021, -1427837.8, 77840.19, 0.0, 5.036775, 4.9693103 
4.2912254e+2, 1.5132914e+2, -1384856.3, -1486261.5, -13608.245, -0.01055833, 0.006365677, -1383061.9, 73916.54, 0.0, 5.0353227, 4.969308 
4.290957e+2, 1.562987e+2, -1341542.9, -1442280.3, -13885.116, -0.011396563, 0.006440752, -1339664.1, 68614.8, 0.0, 5.0338707, 4.9683414 
4.290666e+2, 1.6126542e+2, -1301706.0, -1405571.8, -18154.717, -0.01240018, 0.011569903, -1298624.1, 60982.645, 0.0, 5.032389, 4.9649644 
4.2903373e+2, 1.6623114e+2, -1256320.9, -1356705.8, -19234.06, -0.01249662, 0.010551833, -1252761.8, 58182.324, 0.0, 5.0308046, 4.9656663 
4.2900077e+2, 1.71197e+2, -1211929.3, -1309916.8, -19552.324, -0.012465938, 0.009698421, -1208171.9, 54108.313, 0.0, 5.0292134, 4.9656653 
4.289678e+2, 1.7616282e+2, -1168631.9, -1265482.3, -19860.18, -0.01243627, 0.009233289, -1164717.5, 48898.91, 0.0, 5.0276217, 4.9648643 
4.2893353e+2, 1.811262e+2, -1128889.1, -1228537.5, -22817.502, -0.011531303, 0.01627679, -1123912.9, 41063.36, 0.0, 5.0259986, 4.961542 
4.2889678e+2, 1.8608873e+2, -1083276.0, -1178554.3, -23748.75, -0.0076195477, 0.013601572, -1077684.6, 38658.434, 0.0, 5.024258, 4.9626493 
4.2886e+2, 1.9105136e+2, -1039198.6, -1131835.5, -24063.992, -0.00350301, 0.010432562, -1033320.56, 34388.152, 0.0, 5.0225086, 4.962649 
4.2882323e+2, 1.9601399e+2, -995980.0, -1087000.5, -24375.2, 0.0006141463, 0.0075052786, -989863.4, 29211.01, 0.0, 5.0207596, 4.961999 
4.2878586e+2, 2.0097424e+2, -957070.94, -1051457.9, -25585.322, 0.003588821, 0.013350041, -950581.7, 19881.602, 0.0, 5.018997, 4.9581637 
4.2874727e+2, 2.0593387e+2, -911453.75, -1001254.44, -26062.74, 0.0044225305, 0.014414535, -904437.75, 17420.922, 0.0, 5.017189, 4.9593287 
4.2870864e+2, 2.1089363e+2, -867404.3, -954458.06, -26272.549, 0.005280125, 0.0151970405, -860089.94, 13162.605, 0.0, 5.0153775, 4.9593287 
4.2867005e+2, 2.1585341e+2, -823990.0, -909083.3, -26478.523, 0.006181895, 0.016072184, -816423.44, 8222.948, 0.0, 5.0135665, 4.9588294 
4.286318e+2, 2.2081037e+2, -785619.1, -874884.75, -26204.268, 0.007978191, 0.023071025, -778495.25, -2427.596, 0.0, 5.0117874, 4.954444 
4.2859426e+2, 2.257654e+2, -739283.5, -823916.7, -26251.344, 0.010559581, 0.014045555, -731802.2, -4294.9404, 0.0, 5.010123, 4.95576 
4.2855677e+2, 2.3072056e+2, -694651.7, -776813.5, -26420.527, 0.013096019, 0.0042808396, -686889.1, -7943.437, 0.0, 5.008469, 4.9557433 
4.2851928e+2, 2.3567572e+2, -650641.7, -731128.75, -26580.545, 0.015746243, -0.0053178384, -642655.9, -12271.727, 0.0, 5.006815, 4.9552245 
4.2848253e+2, 2.406285e+2, -612589.56, -698125.94, -25381.143, 0.017733626, 0.000024967905, -605625.25, -23779.98, 0.0, 5.0050573, 4.950271 
4.28447e+2, 2.4558094e+2, -566080.6, -644891.9, -25844.084, 0.027014134, -0.002002522, -558361.7, -25054.574, 0.0, 5.0029845, 4.9524546 
4.2841157e+2, 2.5053352e+2, -522432.94, -598038.6, -26228.242, 0.037797112, -0.007851035, -514225.16, -29457.648, 0.0, 5.000878, 4.952472 
4.2837617e+2, 2.5548607e+2, -478998.8, -551717.0, -26638.512, 0.048083514, -0.014272712, -470284.7, -34056.55, 0.0, 4.998762, 4.9522915 
4.283436e+2, 2.6043686e+2, -441180.66, -518041.56, -23397.264, 0.066078275, -0.0027495604, -434618.53, -46908.77, 0.0, 4.99664, 4.9475136 
4.2831862e+2, 2.6539e+2, -394615.6, -464653.84, -23172.955, 0.09568759, 0.0068292925, -387642.75, -48458.97, 0.0, 4.994512, 4.949397 
4.2829484e+2, 2.7034357e+2, -350078.25, -416352.16, -24984.705, 0.12992848, 0.012525696, -341714.7, -51059.227, 0.0, 4.9923873, 4.949757 
4.28272e+2, 2.752975e+2, -305513.3, -368214.75, -26889.227, 0.1730247, 0.016699808, -295561.53, -53438.21, 0.0, 4.9902215, 4.950071 
4.2824313e+2, 2.802496e+2, -289402.03, -402001.97, -29871.666, 0.1884807, 0.17113894, -281968.16, -88365.71, 0.0, 4.9915304, 4.920825 
4.2822292e+2, 2.8518647e+2, -218211.55, -295668.4, -11298.367, 0.1500021, 0.19811626, -216597.14, -71397.516, 0.0, 4.991233, 4.940241 
4.282118e+2, 2.9011714e+2, -178047.67, -248285.28, -9225.269, 0.12453514, 0.069618136, -176856.2, -80003.14, 0.0, 4.9878154, 4.940718 
4.2820188e+2, 2.9504746e+2, -137764.36, -200924.6, -7518.326, 0.10346606, -0.069912866, -136881.73, -88371.46, 0.0, 4.9842815, 4.941198 
4.281951e+2, 2.9999658e+2, -80595.836, -83187.45, -2439.0916, 0.07942548, -0.17668492, -79129.7, -79129.7, 0.0, 4.980929, 4.9760695 
4.2820492e+2, 3.0498976e+2, -79740.91, -65926.16, -849.4494, 0.0899268, -0.13679531, -65874.12, -65874.12, 0.0, 4.9783554, 4.981811 
4.282217e+2, 3.0999145e+2, -84005.83, -61683.6, -2151.0662, 0.14029661, -0.06062265, -61478.207, -61478.207, 0.0, 4.9757457, 4.9839826 
4.28243e+2, 3.149984e+2, -88037.05, -57683.11, -4082.483, 0.22265732, 0.0435611, -57143.617, -57143.617, 0.0, 4.972982, 4.986155 
4.342988e+2, 1.21512644e+2, -1645658.9, -1749562.6, -1340.0874, 0.007089324, 0.0100965155, -1645641.6, 103535.45, 0.0, 5.0433393, 4.975396 
4.3427986e+2, 1.2648389e+2, -1604817.3, -1711189.5, -6688.7607, 0.011254298, -0.0044189594, -1604398.3, 96059.766, 0.0, 5.0420356, 4.97261 
4.3425885e+2, 1.314562e+2, -1559673.1, -1664177.4, -7144.268, 0.0028100412, -0.008043273, -1559187.0, 92542.0, 0.0, 5.040786, 4.972608 
4.3423784e+2, 1.3642848e+2, -1516651.4, -1621579.1, -7590.684, -0.0055696643, -0.010437032, -1516105.1, 86895.08, 0.0, 5.039536, 4.9711375 
4.3421414e+2, 1.4139894e+2, -1475593.5, -1582913.3, -13260.137, -0.010453697, 0.0034249686, -1473979.4, 80310.4, 0.0, 5.038229, 4.9683237 
4.3418598e+2, 1.463682e+2, -1430020.0, -1534212.6, -14409.002, -0.01102398, 0.0045116376, -1428064.0, 77528.71, 0.0, 5.0367846, 4.968942 
4.3415767e+2, 1.5133741e+2, -1385351.1, -1487368.0, -14704.088, -0.011763969, 0.0044712326, -1383274.0, 73622.18, 0.0, 5.0353327, 4.96894 
4.3412936e+2, 1.5630661e+2, -1342033.8, -1443382.6, -14981.37, -0.012506513, 0.0048809354, -1339865.5, 68334.25, 0.0, 5.033881, 4.9679737 
4.3409878e+2, 1.6127302e+2, -1302206.4, -1406712.0, -19348.41, -0.013631626, 0.010425879, -1298739.1, 60791.715, 0.0, 5.0324016, 4.964584 
4.3406427e+2, 1.6623841e+2, -1256833.5, -1357880.6, -20440.389, -0.014362443, 0.010032877, -1252855.3, 58016.426, 0.0, 5.030818, 4.9652734 
4.3402964e+2, 1.7120394e+2, -1212438.6, -1311090.0, -20758.178, -0.015002772, 0.009823189, -1208248.6, 53962.76, 0.0, 5.029227, 4.965272 
4.3399504e+2, 1.7616947e+2, -1169137.3, -1266652.5, -21064.793, -0.015656052, 0.010009564, -1164781.5, 48769.656, 0.0, 5.0276356, 4.9644713 
4.3395907e+2, 1.8113251e+2, -1129375.9, -1229687.3, -24119.809, -0.0151883615, 0.017572116, -1123877.6, 41037.09, 0.0, 5.0260143, 4.9611554 
4.3392062e+2, 1.8609469e+2, -1083754.5, -1179700.6, -25075.64, -0.010927833, 0.015216831, -1077596.1, 38689.625, 0.0, 5.0242753, 4.962262 
4.3388215e+2, 1.9105697e+2, -1039671.5, -1132980.9, -25389.355, -0.0064262697, 0.012378185, -1033210.44, 34445.246, 0.0, 5.022527, 4.962261 
4.3384367e+2, 1.9601925e+2, -996447.4, -1088145.3, -25698.854, -0.0019427629, 0.0097860545, -989736.3, 29289.28, 0.0, 5.020779, 4.9616103 
4.338045e+2, 2.0097919e+2, -957417.9, -1052381.9, -26941.96, 0.0007557889, 0.0162078, -950306.75, 20111.344, 0.0, 5.019022, 4.9578495 
4.3376392e+2, 2.0593858e+2, -911705.1, -1001989.6, -27436.377, -0.0004039821, 0.017611867, -904021.5, 17794.19, 0.0, 5.017216, 4.959078 
4.3372327e+2, 2.1089812e+2, -867653.3, -955192.7, -27644.605, -0.0016690751, 0.018629296, -859654.2, 13557.511, 0.0, 5.015405, 4.959078 
4.3368268e+2, 2.1585767e+2, -824236.56, -909817.5, -27848.855, -0.0029274975, 0.019755406, -815972.3, 8635.38, 0.0, 5.013594, 4.9585776 
4.336425e+2, 2.2081433e+2, -785888.9, -875663.4, -27528.197, -0.0025868164, 0.026435124, -778120.0, -2088.0894, 0.0, 5.0118136, 4.954176 
4.336034e+2, 2.2576904e+2, -739504.1, -824561.0, -27531.936, 0.000904113, 0.016414044, -731370.2, -3895.1006, 0.0, 5.0101447, 4.955538 
4.3356434e+2, 2.307239e+2, -694879.3, -777448.56, -27695.344, 0.0044936547, 0.0057966765, -686450.2, -7533.3906, 0.0, 5.0084877, 4.955525 
4.335253e+2, 2.3567878e+2, -650876.25, -731754.7, -27849.463, 0.00814893, -0.0046153767, -642214.3, -11855.806, 0.0, 5.0068297, 4.95501 
4.33487e+2, 2.4063146e+2, -612835.94, -699029.9, -26802.016, 0.0114550125, 0.001749612, -605181.56, -23360.693, 0.0, 5.005104, 4.9499645 
4.3344948e+2, 2.4558397e+2, -566495.5, -646427.6, -27410.074, 0.020830112, 0.005156062, -557999.25, -24717.06, 0.0, 5.003062, 4.951934 
4.3341193e+2, 2.5053656e+2, -522817.8, -599611.75, -27774.943, 0.031128075, 0.004967591, -513825.16, -29082.727, 0.0, 5.000966, 4.9519377 
4.3337446e+2, 2.5548914e+2, -479353.6, -553327.56, -28165.867, 0.040739805, 0.0043048006, -469850.22, -33647.293, 0.0, 4.9988613, 4.951743 
4.3333963e+2, 2.6043925e+2, -442402.47, -521911.6, -24645.703, 0.055625338, 0.01728808, -435382.75, -47690.508, 0.0, 4.996767, 4.946204 
4.3331185e+2, 2.6538965e+2, -396257.9, -470097.5, -23862.979, 0.07192657, 0.01987364, -389217.34, -50018.41, 0.0, 4.994711, 4.947546 
4.3328515e+2, 2.703402e+2, -351487.78, -421802.4, -25461.854, 0.089269474, 0.017951094, -343236.1, -52530.098, 0.0, 4.992658, 4.947871 
4.3325937e+2, 2.7529103e+2, -306690.4, -373672.66, -27153.479, 0.11244792, 0.012891802, -297065.78, -54854.85, 0.0, 4.9905643, 4.948149 
4.3322858e+2, 2.8024048e+2, -287974.88, -397671.56, -28768.791, 0.10117207, 0.14858195, -280887.88, -87167.68, 0.0, 4.9913783, 4.9223256 
4.3320802e+2, 2.8517932e+2, -217765.95, -291908.72, -14169.76, 0.07848326, 0.17876819, -215150.19, -69859.66, 0.0, 4.990776, 4.9416947 
4.3319604e+2, 2.901128e+2, -177169.47, -245004.86, -11745.535, 0.08149343, 0.066220865, -175193.33, -78285.31, 0.0, 4.987529, 4.941987 
4.331852e+2, 2.9504567e+2, -136453.42, -198122.97, -9687.0, 0.08489289, -0.057838615, -134967.6, -86436.48, 0.0, 4.9841638, 4.9422827 
4.331776e+2, 2.9999724e+2, -78774.945, -81718.76, -3346.997, 0.08040944, -0.14997339, -76590.5, -76590.5, 0.0, 4.981101, 4.9766154 
4.331875e+2, 3.049927e+2, -77063.01, -67147.34, -204.93112, 0.103075854, -0.09207568, -67143.11, -67143.11, 0.0, 4.9791503, 4.98109 
4.3320414e+2, 3.099957e+2, -79323.41, -62370.89, -663.43677, 0.15540564, -0.0066709756, -62344.965, -62344.965, 0.0, 4.9771314, 4.983187 
4.332249e+2, 3.150027e+2, -81346.414, -57838.945, -1750.5034, 0.22873117, 0.09218551, -57709.31, -57709.31, 0.0, 4.974958, 4.9852853 
4.3934208e+2, 1.21524185e+2, -1644189.9, -1748720.8, -1917.3555, 0.005763655, 0.010492268, -1644154.6, 104909.53, 0.0, 5.0438066, 4.9754453 
4.3932214e+2, 1.2649497e+2, -1604205.9, -1712196.8, -6779.5073, 0.013808214, -0.0034734758, -1603782.0, 96567.05, 0.0, 5.0425205, 4.9720435 
4.3929973e+2, 1.3146658e+2, -1559201.4, -1665254.4, -7184.17, 0.00395694, -0.008353925, -1558716.9, 92909.71, 0.0, 5.041224, 4.9720416 
4.3927735e+2, 1.3643818e+2, -1516324.9, -1622733.4, -7583.393, -0.005871258, -0.011991227, -1515787.1, 87117.35, 0.0, 5.039926, 4.9705687 
4.392522e+2, 1.4140806e+2, -1475125.6, -1583641.8, -13357.723, -0.011726181, 0.0010383957, -1473505.6, 80694.18, 0.0, 5.0385876, 4.967912 
4.392226e+2, 1.4637694e+2, -1429491.0, -1534825.6, -14557.137, -0.012239261, 0.002318349, -1427516.3, 77989.82, 0.0, 5.0371447, 4.968568 
4.3919286e+2, 1.513458e+2, -1384814.5, -1487978.8, -14890.015, -0.012900908, 0.002514537, -1382708.4, 74104.445, 0.0, 5.035695, 4.9685655 
4.3916312e+2, 1.5631466e+2, -1341488.6, -1443989.8, -15204.929, -0.013563375, 0.0031576913, -1339280.6, 68839.01, 0.0, 5.034246, 4.9675994 
4.3913102e+2, 1.6128072e+2, -1301691.6, -1407368.8, -19699.262, -0.014823045, 0.009091377, -1298138.9, 61315.15, 0.0, 5.032761, 4.9641976 
4.3909484e+2, 1.6624579e+2, -1256421.3, -1358603.4, -20816.236, -0.01612341, 0.00933683, -1252343.4, 58454.98, 0.0, 5.031145, 4.96488 
4.3905857e+2, 1.7121099e+2, -1212131.3, -1311864.3, -21142.264, -0.017351557, 0.0097606545, -1207834.4, 54307.293, 0.0, 5.029518, 4.9648786 
4.390223e+2, 1.7617618e+2, -1168939.9, -1267479.1, -21454.965, -0.018597787, 0.010576663, -1164471.1, 49013.86, 0.0, 5.027889, 4.964078 
4.389847e+2, 1.8113889e+2, -1129216.9, -1230525.8, -24605.826, -0.018533451, 0.018637791, -1123556.8, 41295.574, 0.0, 5.0262527, 4.9607663 
4.3894452e+2, 1.8610069e+2, -1083467.4, -1180465.5, -25601.078, -0.01404724, 0.01658137, -1077125.1, 39102.617, 0.0, 5.024555, 4.9618773 
4.3890432e+2, 1.9106264e+2, -1039270.0, -1133690.6, -25927.469, -0.009258625, 0.014056028, -1032618.94, 34982.875, 0.0, 5.0228467, 4.9618764 
4.3886414e+2, 1.9602457e+2, -995947.1, -1088807.5, -26245.332, -0.004473931, 0.011791345, -989042.7, 29933.215, 0.0, 5.021133, 4.961225 
4.3882325e+2, 2.0098422e+2, -956757.0, -1052817.9, -27522.686, -0.0020118447, 0.018912451, -949430.25, 20941.705, 0.0, 5.0194, 4.957533 
4.3878064e+2, 2.0594339e+2, -910965.0, -1002237.8, -28058.26, -0.0049307137, 0.020706734, -903029.5, 18742.229, 0.0, 5.01759, 4.958828 
4.3873805e+2, 2.1090269e+2, -866976.3, -955474.56, -28285.559, -0.008054094, 0.021921184, -858708.2, 14461.751, 0.0, 5.0157576, 4.9588265 
4.386954e+2, 2.15862e+2, -823669.1, -910154.5, -28506.832, -0.011190041, 0.023227181, -815118.25, 9449.939, 0.0, 5.0139093, 4.9583263 
4.3865338e+2, 2.2081836e+2, -785533.1, -876226.94, -28150.293, -0.012054272, 0.029799687, -777506.06, -1510.5842, 0.0, 5.01208, 4.953868 
4.386126e+2, 2.2577275e+2, -739163.1, -824929.06, -28134.432, -0.0079560205, 0.018911319, -730757.75, -3315.5518, 0.0, 5.0103664, 4.955314 
4.3857196e+2, 2.3072733e+2, -694646.44, -777851.7, -28312.676, -0.003695802, 0.007376689, -685926.25, -7039.032, 0.0, 5.008669, 4.955306 
4.3853134e+2, 2.356819e+2, -650734.6, -732184.4, -28474.178, 0.0005914513, -0.0039645396, -641767.5, -11435.353, 0.0, 5.006978, 4.9547954 
4.3849143e+2, 2.4063449e+2, -612782.44, -699672.56, -27516.305, 0.0048372154, 0.003269075, -604801.6, -23005.834, 0.0, 5.0052476, 4.9496913 
4.3845198e+2, 2.4558705e+2, -566631.5, -647649.94, -28138.441, 0.0147559615, 0.011548605, -557817.6, -24561.016, 0.0, 5.0032325, 4.9514585 
4.3841243e+2, 2.5053966e+2, -523202.28, -600965.44, -28277.486, 0.025409847, 0.016288789, -514006.9, -29290.03, 0.0, 5.0010533, 4.9514565 
4.383729e+2, 2.554922e+2, -480319.56, -554966.1, -28390.457, 0.035399247, 0.020597199, -470748.88, -34571.473, 0.0, 4.998748, 4.9512553 
4.383361e+2, 2.604418e+2, -445544.94, -526370.6, -24313.643, 0.05034, 0.035717, -438794.75, -51121.59, 0.0, 4.99624, 4.944936 
4.383057e+2, 2.6538977e+2, -403483.97, -477589.5, -22392.76, 0.056316387, 0.032260932, -397243.03, -58034.063, 0.0, 4.9929695, 4.9457636 
4.3827608e+2, 2.7033773e+2, -363792.1, -431626.34, -23147.725, 0.05844619, 0.02339624, -356646.0, -65898.17, 0.0, 4.989131, 4.946057 
4.3824726e+2, 2.752858e+2, -325464.34, -386421.2, -23992.79, 0.06356263, 0.010435076, -317153.72, -74867.93, 0.0, 4.9847555, 4.946302 
4.382136e+2, 2.8023311e+2, -310999.06, -408014.6, -23654.78, 0.022081213, 0.13932492, -305538.78, -111718.68, 0.0, 4.983322, 4.9222417 
4.3819213e+2, 2.851736e+2, -231297.56, -294620.38, -11926.731, 0.008971595, 0.17417721, -229125.69, -83758.05, 0.0, 4.9853745, 4.943036 
4.3817967e+2, 2.9010925e+2, -183083.19, -244796.75, -9698.143, 0.038758725, 0.06942893, -181595.03, -84639.88, 0.0, 4.9848495, 4.9432087 
4.3816817e+2, 2.9504427e+2, -137872.1, -196383.55, -7602.303, 0.06654935, -0.046078585, -136900.48, -88351.81, 0.0, 4.9831185, 4.9433794 
4.381601e+2, 2.9999816e+2, -79788.87, -80924.44, -397.1211, 0.08186321, -0.12648208, -79663.766, -79663.766, 0.0, 4.98035, 4.977266 
4.381707e+2, 3.0499637e+2, -87454.125, -73064.6, 3801.0112, 0.11759668, -0.052206796, -72122.266, -72122.266, 0.0, 4.975415, 4.9804497 
4.3818772e+2, 3.1000108e+2, -105626.26, -75512.26, 2919.1523, 0.17442052, 0.040009927, -75231.89, -75231.89, 0.0, 4.9676566, 4.982404 
4.3820834e+2, 3.150088e+2, -130606.0, -81163.81, 343.63596, 0.24343456, 0.13528164, -81161.42, -81161.42, 0.0, 4.9572663, 4.9843597 
4.4438857e+2, 1.21539086e+2, -1632824.8, -1745100.0, 1071.675, 0.009632809, 0.0076479265, -1632814.5, 116102.26, 0.0, 5.0480638, 4.9745536 
4.4436696e+2, 1.2650977e+2, -1592648.4, -1707450.9, -4249.8037, 0.014601464, -0.0023414248, -1592491.3, 107711.56, 0.0, 5.0466237, 4.9716015 
4.443431e+2, 1.3148084e+2, -1548431.3, -1660915.3, -4594.5205, 0.0045282026, -0.007953582, -1548243.9, 103241.7, 0.0, 5.045071, 4.9715996 
4.4431922e+2, 1.364519e+2, -1506334.8, -1618799.9, -4933.982, -0.0055752383, -0.012286227, -1506118.8, 96649.9, 0.0, 5.0435185, 4.9701242 
4.4429258e+2, 1.4142124e+2, -1465790.5, -1580052.3, -10728.879, -0.011644725, -0.000009542301, -1464791.9, 89277.195, 0.0, 5.04196, 4.967468 
4.442614e+2, 1.463896e+2, -1420648.4, -1531513.0, -11983.084, -0.01229734, 0.00047756007, -1419368.0, 86012.625, 0.0, 5.0403595, 4.9681163 
4.4423014e+2, 1.5135792e+2, -1376448.3, -1484917.3, -12376.516, -0.013110347, -0.000107930224, -1375054.0, 81638.5, 0.0, 5.0387545, 4.9681125 
4.4419885e+2, 1.5632623e+2, -1333594.4, -1441175.0, -12751.161, -0.013917861, -0.00024880562, -1332103.8, 75900.89, 0.0, 5.037149, 4.967146 
4.4416514e+2, 1.6129182e+2, -1294213.8, -1404638.5, -17406.951, -0.015326488, 0.0054281536, -1291534.8, 67808.75, 0.0, 5.0354943, 4.9638023 
4.4412723e+2, 1.6625659e+2, -1249536.4, -1356145.9, -18542.855, -0.01668144, 0.006531971, -1246403.3, 64287.72, 0.0, 5.033675, 4.964497 
4.440892e+2, 1.7122148e+2, -1205850.8, -1309710.3, -18861.787, -0.017940076, 0.007827567, -1202531.4, 59506.125, 0.0, 5.031845, 4.9644957 
4.440512e+2, 1.7618635e+2, -1163252.0, -1265618.9, -19165.654, -0.019202352, 0.009490081, -1159781.4, 53602.586, 0.0, 5.0300155, 4.9636955 
4.4401178e+2, 1.8114874e+2, -1124026.6, -1228980.1, -22302.37, -0.019476054, 0.018278819, -1119484.1, 45270.684, 0.0, 5.028224, 4.960355 
4.439698e+2, 1.8611017e+2, -1078478.0, -1179059.5, -23337.063, -0.016320806, 0.01677531, -1073327.1, 42807.51, 0.0, 5.02647, 4.9614496 
4.4392774e+2, 1.9107172e+2, -1034427.5, -1132354.3, -23720.809, -0.012877289, 0.0148281, -1028984.2, 38529.047, 0.0, 5.024713, 4.961451 
4.438857e+2, 1.9603328e+2, -991235.56, -1087531.9, -24097.797, -0.0093760975, 0.013173557, -985541.8, 33349.91, 0.0, 5.0229564, 4.9608026 
4.4384295e+2, 2.0099257e+2, -952078.06, -1051342.0, -25468.305, -0.007704653, 0.020640226, -945925.0, 24366.91, 0.0, 5.021172, 4.9572043 
4.4379863e+2, 2.0595133e+2, -906369.94, -1000710.94, -26060.709, -0.009812307, 0.021733463, -899649.6, 22045.758, 0.0, 5.0193167, 4.9585423 
4.437543e+2, 2.1091026e+2, -862461.94, -953997.5, -26332.297, -0.011918772, 0.022101877, -855427.44, 17669.879, 0.0, 5.017459, 4.95854 
4.4370994e+2, 2.1586919e+2, -819187.25, -908704.7, -26597.785, -0.013951391, 0.022494184, -811880.8, 12618.528, 0.0, 5.0156007, 4.958039 
4.436661e+2, 2.2082521e+2, -781260.4, -875013.2, -26282.031, -0.014013954, 0.02905672, -774395.3, 1534.5802, 0.0, 5.0137224, 4.9535255 
4.436234e+2, 2.2577955e+2, -735731.6, -824030.6, -26379.63, -0.01085499, 0.020840473, -728450.94, -1072.98, 0.0, 5.0116997, 4.9550076 
4.4358072e+2, 2.3073407e+2, -692196.0, -777391.06, -26679.73, -0.0078393, 0.011958951, -684530.6, -5706.469, 0.0, 5.009657, 4.955006 
4.4353807e+2, 2.356886e+2, -649277.06, -732162.56, -26972.904, -0.004912782, 0.0030694064, -641272.44, -11002.053, 0.0, 5.0076137, 4.9545026 
4.4349617e+2, 2.4064106e+2, -611985.6, -699638.3, -26070.088, -0.0020991906, 0.011120748, -604817.9, -23081.95, 0.0, 5.0056, 4.949526 
4.4345495e+2, 2.4559309e+2, -564333.6, -647048.4, -26770.715, 0.0065747797, 0.01668792, -556425.4, -23223.27, 0.0, 5.0041666, 4.9512177 
4.4341373e+2, 2.5054508e+2, -518503.72, -599112.25, -27126.463, 0.017211152, 0.01838865, -510225.28, -25557.256, 0.0, 5.002833, 4.9512625 
4.4337258e+2, 2.5549707e+2, -472898.88, -551722.25, -27500.252, 0.028561153, 0.01936876, -464252.8, -28118.717, 0.0, 5.0014915, 4.951109 
4.4333404e+2, 2.6044604e+2, -435242.56, -522606.94, -23915.285, 0.046168018, 0.03162362, -429124.4, -41488.883, 0.0, 5.0001955, 4.94444 
4.4330114e+2, 2.653941e+2, -388511.22, -471656.56, -22622.88, 0.05242314, 0.03799017, -382754.38, -43584.48, 0.0, 4.998698, 4.9453135 
4.4326866e+2, 2.7034286e+2, -342754.9, -422707.03, -23825.6, 0.054914802, 0.045570295, -336193.4, -45492.98, 0.0, 4.997114, 4.945713 
4.4323656e+2, 2.7529222e+2, -296954.94, -373953.63, -25080.76, 0.061102007, 0.05337104, -289506.0, -47280.785, 0.0, 4.9955173, 4.9460654 
4.4320127e+2, 2.8024e+2, -271536.72, -384034.72, -19530.12, 0.020079412, 0.17298193, -268242.66, -74487.914, 0.0, 4.9959545, 4.9255857 
4.431792e+2, 2.8517804e+2, -207372.44, -287313.34, -9619.732, -0.00055595674, 0.174928, -206231.14, -60903.27, 0.0, 4.9937744, 4.9428988 
4.431649e+2, 2.901121e+2, -170289.25, -241233.31, -10120.322, 0.027368147, 0.062984444, -168873.81, -71941.26, 0.0, 4.9892044, 4.943424 
4.431516e+2, 2.950464e+2, -133095.92, -195135.0, -10823.723, 0.06145582, -0.053160384, -131261.78, -82726.375, 0.0, 4.9845686, 4.943951 
4.4314167e+2, 3.0000117e+2, -81425.03, -81008.72, -7535.088, 0.09402601, -0.117686875, -73678.914, -73678.914, 0.0, 4.9797187, 4.9780426 
4.4315025e+2, 3.0500424e+2, -89581.5, -71702.695, -7715.473, 0.16677335, 0.017540434, -68833.56, -68833.56, 0.0, 4.9748054, 4.981811 
4.4316456e+2, 3.1001565e+2, -100775.7, -72240.2, -10821.874, 0.27411285, 0.19915581, -68600.37, -68600.37, 0.0, 4.970047, 4.983379 
4.431818e+2, 3.1503147e+2, -111805.945, -72969.96, -14316.594, 0.40607643, 0.4091035, -68262.79, -68262.79, 0.0, 4.965212, 4.984948 
4.494372e+2, 1.2155572e+2, -1634437.1, -1748459.9, 603.03625, 0.015229288, 0.0035173194, -1634434.0, 114317.94, 0.0, 5.04807, 4.973449 
4.4941357e+2, 1.2652645e+2, -1593254.0, -1708774.8, -5417.1177, 0.014897807, -0.001072488, -1593000.6, 107037.41, 0.0, 5.0466337, 4.9711657 
4.4938815e+2, 1.3149704e+2, -1549032.8, -1662234.9, -5760.669, 0.0048994035, -0.007243936, -1548740.4, 102585.164, 0.0, 5.045081, 4.9711637 
4.4936273e+2, 1.364676e+2, -1506937.5, -1620126.6, -6104.7007, -0.005155465, -0.012129187, -1506609.1, 96004.12, 0.0, 5.0435286, 4.969685 
4.493345e+2, 1.4143641e+2, -1466440.1, -1581496.6, -11944.434, -0.011160359, -0.0006147199, -1465213.3, 88705.65, 0.0, 5.041972, 4.9669895 
4.4930172e+2, 1.4640418e+2, -1421310.8, -1532991.6, -13192.497, -0.011972737, -0.0012216476, -1419773.5, 85462.62, 0.0, 5.0403724, 4.967625 
4.4926882e+2, 1.513719e+2, -1377106.8, -1486392.9, -13585.61, -0.01299111, -0.002887619, -1375443.3, 81110.64, 0.0, 5.0387673, 4.9676213 
4.4923595e+2, 1.5633962e+2, -1334249.6, -1442649.0, -13961.528, -0.014011928, -0.0040994463, -1332480.3, 75391.37, 0.0, 5.0371623, 4.9666543 
4.492005e+2, 1.6130471e+2, -1294745.5, -1405862.0, -18764.61, -0.015612421, 0.0011927106, -1291662.3, 67553.08, 0.0, 5.035508, 4.9633946 
4.4916072e+2, 1.662692e+2, -1250037.8, -1357309.5, -19927.088, -0.016956117, 0.0032497477, -1246455.8, 64110.074, 0.0, 5.033689, 4.9641085 
4.491209e+2, 1.7123379e+2, -1206348.6, -1310870.9, -20246.041, -0.018192643, 0.005537378, -1202564.0, 59351.07, 0.0, 5.0318594, 4.9641066 
4.490811e+2, 1.761984e+2, -1163745.8, -1266775.0, -20548.996, -0.019440724, 0.008196912, -1159798.5, 53465.836, 0.0, 5.03003, 4.963308 
4.490398e+2, 1.8116046e+2, -1124568.1, -1230283.1, -23648.553, -0.020152636, 0.01790503, -1119519.0, 45119.348, 0.0, 5.028244, 4.959916 
4.489959e+2, 1.8612151e+2, -1079047.9, -1180447.3, -24664.719, -0.018816862, 0.017088722, -1073366.6, 42656.11, 0.0, 5.0264926, 4.9609814 
4.4895187e+2, 1.9108266e+2, -1034992.25, -1133740.9, -25047.387, -0.017317893, 0.01581891, -1029002.3, 38403.676, 0.0, 5.024737, 4.9609814 
4.489079e+2, 1.9604382e+2, -991795.3, -1088917.8, -25423.117, -0.015790027, 0.014848745, -985542.94, 33246.23, 0.0, 5.0229807, 4.960332 
4.4886324e+2, 2.0100269e+2, -952487.2, -1052407.5, -26871.334, -0.015330486, 0.02236773, -945719.2, 24474.822, 0.0, 5.0211964, 4.956844 
4.4881722e+2, 2.0596099e+2, -906722.25, -1001650.94, -27476.473, -0.016119376, 0.021997606, -899343.0, 22258.957, 0.0, 5.01934, 4.9582243 
4.4877115e+2, 2.1091945e+2, -862815.2, -954938.2, -27746.36, -0.016754102, 0.020887747, -855103.8, 17904.498, 0.0, 5.0174813, 4.958222 
4.4872513e+2, 2.158779e+2, -819541.5, -909646.2, -28010.004, -0.017345993, 0.019844588, -811544.1, 12870.58, 0.0, 5.0156226, 4.95772 
4.486795e+2, 2.208336e+2, -781665.44, -876133.44, -27766.9, -0.016495474, 0.026679603, -774108.5, 1740.0474, 0.0, 5.013754, 4.953141 
4.486347e+2, 2.2578801e+2, -736103.06, -825112.75, -27932.66, -0.013817203, 0.022923104, -728063.5, -766.7243, 0.0, 5.0117354, 4.954633 
4.4858992e+2, 2.3074265e+2, -692567.75, -778471.6, -28227.623, -0.011410975, 0.018697014, -684122.5, -5379.6025, 0.0, 5.009692, 4.954632 
4.485452e+2, 2.3569728e+2, -649649.2, -733241.75, -28515.504, -0.009132133, 0.014484224, -640848.4, -10659.305, 0.0, 5.007648, 4.9541287 
4.4850117e+2, 2.4064961e+2, -612210.8, -700459.75, -27385.107, -0.007767311, 0.02432975, -604403.44, -22746.947, 0.0, 5.0056405, 4.9492517 
4.4845808e+2, 2.4560075e+2, -564717.2, -648320.8, -27782.291, -0.0047229156, 0.025067504, -556326.9, -23195.535, 0.0, 5.0042124, 4.950798 
4.4841498e+2, 2.505518e+2, -518884.44, -600428.4, -28116.605, -0.00047972202, 0.022093184, -510129.7, -25523.273, 0.0, 5.002881, 4.9508295 
4.4837198e+2, 2.5550285e+2, -473276.56, -553081.94, -28468.934, 0.0042320704, 0.01868019, -464161.88, -28080.41, 0.0, 5.0015426, 4.950662 
4.4833162e+2, 2.604508e+2, -436034.94, -524979.06, -24762.986, 0.015062356, 0.027526136, -429605.44, -42013.71, 0.0, 5.0002556, 4.943665 
4.4829687e+2, 2.6539758e+2, -389007.38, -473660.25, -23357.23, 0.015296047, 0.034019716, -382990.38, -43855.793, 0.0, 4.998799, 4.944711 
4.4826254e+2, 2.70345e+2, -343094.78, -424672.13, -24387.422, 0.011462623, 0.04121195, -336360.2, -45686.566, 0.0, 4.9972596, 4.945098 
4.4822857e+2, 2.7529287e+2, -297139.13, -375881.0, -25470.248, 0.01044218, 0.047388867, -289618.66, -47410.547, 0.0, 4.9957075, 4.945437 
4.4819358e+2, 2.8023845e+2, -267069.94, -371728.6, -19971.033, -0.02328651, 0.12739815, -263388.56, -69631.66, 0.0, 4.995669, 4.9299445 
4.4817007e+2, 2.8517598e+2, -210682.86, -290899.22, -13834.924, -0.025294004, 0.11642843, -208363.8, -63021.93, 0.0, 4.9931507, 4.941903 
4.4815207e+2, 2.901105e+2, -173265.61, -244965.5, -14118.634, 0.010806391, 0.027179437, -170585.64, -73635.43, 0.0, 4.988692, 4.942341 
4.4813496e+2, 2.950451e+2, -135737.8, -199014.36, -14605.115, 0.050631445, -0.06707709, -132529.4, -83971.42, 0.0, 4.9841666, 4.94278 
4.4812095e+2, 2.9999977e+2, -84408.61, -87659.17, -10612.745, 0.08470648, -0.10948304, -75297.414, -75297.414, 0.0, 4.9795613, 4.9757204 
4.4812357e+2, 3.0500004e+2, -89595.58, -74785.85, -9544.8545, 0.13762754, 0.025427695, -70110.305, -70110.305, 0.0, 4.975082, 4.9808254 
4.4813156e+2, 3.1000787e+2, -99609.8, -75039.51, -12110.504, 0.21714863, 0.19516625, -70073.88, -70073.88, 0.0, 4.97067, 4.982336 
4.4814226e+2, 3.150193e+2, -109455.38, -75486.37, -15063.662, 0.3156944, 0.38373926, -69768.734, -69768.734, 0.0, 4.9661813, 4.983847 
4.5448583e+2, 1.2157232e+2, -1635925.5, -1751565.0, 135.11835, 0.020907696, -0.00090540707, -1635925.4, 112662.07, 0.0, 5.0480766, 4.972429 
4.544602e+2, 1.2654313e+2, -1593859.8, -1710098.9, -6584.516, 0.015157015, 0.00024398879, -1593488.0, 106385.14, 0.0, 5.0466437, 4.9707294 
4.5443323e+2, 1.3151322e+2, -1549634.3, -1663554.8, -6926.9023, 0.0052231187, -0.006506718, -1549214.6, 101950.75, 0.0, 5.0450916, 4.970728 
4.5440626e+2, 1.3648331e+2, -1507540.3, -1621454.0, -7275.569, -0.0047935364, -0.011964523, -1507077.4, 95380.484, 0.0, 5.043539, 4.969246 
4.5437643e+2, 1.4145158e+2, -1467101.0, -1582966.1, -13159.456, -0.010698474, -0.0012115468, -1465625.3, 88143.45, 0.0, 5.0419846, 4.966503 
4.5434204e+2, 1.4641875e+2, -1421972.9, -1534471.0, -14401.358, -0.011655533, -0.0029251894, -1420158.5, 84933.234, 0.0, 5.0403857, 4.9671335 
4.5430753e+2, 1.5138586e+2, -1377765.0, -1487869.1, -14794.155, -0.01287282, -0.0056890105, -1375811.8, 80603.47, 0.0, 5.0387807, 4.9671297 
4.5427302e+2, 1.5635298e+2, -1334904.6, -1444123.8, -15171.367, -0.014100497, -0.007989138, -1332836.4, 74902.484, 0.0, 5.0371757, 4.966162 
4.5423585e+2, 1.613176e+2, -1295280.9, -1407095.1, -20122.941, -0.01590375, -0.0030326748, -1291769.6, 67317.58, 0.0, 5.0355225, 4.9629836 
4.5419428e+2, 1.6628179e+2, -1250538.5, -1358474.3, -21310.912, -0.017241335, -0.000014899516, -1246483.3, 63957.32, 0.0, 5.033704, 4.9637194 
4.541526e+2, 1.7124611e+2, -1206845.9, -1312032.6, -21629.89, -0.018456109, 0.0032535233, -1202571.6, 59220.95, 0.0, 5.0318737, 4.9637175 
4.5411095e+2, 1.7621042e+2, -1164238.8, -1267932.3, -21931.93, -0.019690348, 0.0068988497, -1159790.9, 53353.906, 0.0, 5.0300446, 4.962919 
4.5406783e+2, 1.8117219e+2, -1125114.1, -1231597.1, -24988.164, -0.02085317, 0.017544279, -1119541.9, 44980.18, 0.0, 5.0282645, 4.959474 
4.5402196e+2, 1.8613285e+2, -1079617.9, -1181835.1, -25990.84, -0.021335604, 0.017411316, -1073388.9, 42522.113, 0.0, 5.026516, 4.960512 
4.53976e+2, 1.910936e+2, -1035557.1, -1135127.8, -26372.434, -0.021772768, 0.016803563, -1029003.44, 38295.383, 0.0, 5.0247607, 4.9605117 
4.539301e+2, 1.9605435e+2, -992355.2, -1090303.9, -26746.908, -0.022209814, 0.01650246, -985527.4, 33159.277, 0.0, 5.0230055, 4.9598613 
4.538836e+2, 2.010128e+2, -952905.56, -1053493.9, -28274.553, -0.022915, 0.024079943, -945502.6, 24593.502, 0.0, 5.0212216, 4.9564757 
4.5383582e+2, 2.0597063e+2, -907074.56, -1002591.4, -28891.424, -0.022359325, 0.022219421, -899015.6, 22493.031, 0.0, 5.019364, 4.957906 
4.5378804e+2, 2.1092862e+2, -863168.44, -955879.25, -29159.613, -0.021509308, 0.019589642, -854759.7, 18159.693, 0.0, 5.017504, 4.957903 
4.5374033e+2, 2.158866e+2, -819895.7, -910588.06, -29421.414, -0.020647472, 0.01706942, -811187.3, 13142.89, 0.0, 5.015645, 4.957401 
4.5369294e+2, 2.2084199e+2, -782100.75, -877319.75, -29236.916, -0.019048108, 0.024435304, -773840.2, 1926.9655, 0.0, 5.013786, 4.9527335 
4.5364606e+2, 2.2579649e+2, -736475.25, -826194.6, -29485.762, -0.01693094, 0.025183525, -727652.56, -437.03214, 0.0, 5.011772, 4.9542575 
4.5359918e+2, 2.3075122e+2, -692940.25, -779552.0, -29775.592, -0.0151264565, 0.025503764, -683691.56, -5029.901, 0.0, 5.009728, 4.9542565 
4.535523e+2, 2.3570594e+2, -650022.1, -734320.75, -30058.182, -0.013487577, 0.02585878, -640402.1, -10294.324, 0.0, 5.0076833, 4.953753 
4.5350623e+2, 2.4065818e+2, -612449.2, -701293.75, -28688.066, -0.013303917, 0.037517607, -603991.0, -22413.941, 0.0, 5.0056815, 4.9489703 
4.5346123e+2, 2.456084e+2, -565112.6, -649582.44, -28772.213, -0.01570486, 0.03325738, -556243.44, -23182.826, 0.0, 5.004258, 4.9503756 
4.534163e+2, 2.505585e+2, -519277.03, -601733.7, -29085.12, -0.01780626, 0.025315616, -510050.22, -25505.354, 0.0, 5.0029297, 4.950393 
4.5337147e+2, 2.555086e+2, -473666.13, -554430.8, -29416.008, -0.019684069, 0.017217426, -464088.13, -28059.129, 0.0, 5.001594, 4.9502125 
4.5332932e+2, 2.6045573e+2, -436944.4, -527567.8, -25600.79, -0.015084659, 0.024457093, -430212.38, -42665.63, 0.0, 5.000316, 4.942793 
4.5329282e+2, 2.654012e+2, -389526.6, -475650.13, -24087.873, -0.020649454, 0.029498192, -383247.28, -44149.58, 0.0, 4.9989004, 4.9440556 
4.532567e+2, 2.7034718e+2, -343457.13, -426623.06, -24945.494, -0.031026538, 0.032551873, -336548.66, -45902.17, 0.0, 4.9974055, 4.944429 
4.5322087e+2, 2.752935e+2, -297345.2, -377793.8, -25855.955, -0.039472625, 0.033360887, -289751.84, -47559.984, 0.0, 4.9958982, 4.944755 
4.5318556e+2, 2.8023687e+2, -264787.88, -364387.22, -21249.006, -0.06769054, 0.08199077, -260443.95, -66684.63, 0.0, 4.995385, 4.9325595 
4.5316005e+2, 2.8517392e+2, -214095.98, -294389.94, -17912.063, -0.05261373, 0.06488369, -210281.36, -64925.563, 0.0, 4.9925303, 4.9408712 
4.5313847e+2, 2.9010877e+2, -176344.69, -248601.64, -17978.275, -0.008445627, -0.004710126, -172118.67, -75149.71, 0.0, 4.988182, 4.941221 
4.5311764e+2, 2.9504356e+2, -138482.39, -202796.8, -18247.25, 0.037009507, -0.08011247, -133665.98, -85083.18, 0.0, 4.983768, 4.9415727 
4.5309955e+2, 2.9999772e+2, -87623.46, -94501.766, -13398.025, 0.069524564, -0.106289774, -77230.23, -77213.22, 0.0, 4.9794064, 4.9732456 
4.530965e+2, 3.0499452e+2, -89729.9, -77751.17, -11250.291, 0.098630965, 0.01732601, -70995.28, -70995.28, 0.0, 4.975361, 4.9797153 
4.5309857e+2, 3.099984e+2, -98565.23, -77720.22, -13274.333, 0.14802553, 0.164419, -71265.62, -71265.62, 0.0, 4.9712954, 4.981168 
4.5310315e+2, 3.1500503e+2, -107227.75, -77883.38, -15685.283, 0.21085809, 0.32087395, -71077.65, -71077.65, 0.0, 4.967153, 4.9826207 
4.5953453e+2, 1.2158914e+2, -1635685.4, -1753473.1, 833.4136, 0.026513359, -0.005250686, -1635679.5, 112741.266, 0.0, 5.0485916, 4.971553 
4.5950684e+2, 1.2655996e+2, -1593198.4, -1710805.1, -6486.736, 0.015340309, 0.00085857534, -1592841.6, 106864.97, 0.0, 5.047085, 4.9702845 
4.594783e+2, 1.3152957e+2, -1549011.1, -1664278.4, -6879.042, 0.0054788133, -0.0062241633, -1548602.0, 102401.66, 0.0, 5.045519, 4.9702835 
4.594498e+2, 1.3649917e+2, -1506980.9, -1622216.1, -7281.6543, -0.004421927, -0.012023154, -1506522.6, 95778.266, 0.0, 5.0439463, 4.9687986 
4.594184e+2, 1.4146692e+2, -1466700.8, -1583913.5, -13241.19, -0.01010114, -0.0018366105, -1465223.6, 88393.23, 0.0, 5.042358, 4.966013 
4.5938239e+2, 1.4643349e+2, -1421721.4, -1535477.5, -14476.931, -0.011170471, -0.004551084, -1419908.0, 85037.68, 0.0, 5.040705, 4.966649 
4.5934626e+2, 1.5140004e+2, -1377668.6, -1488948.3, -14865.565, -0.012551561, -0.008326041, -1375717.0, 80557.79, 0.0, 5.0390463, 4.9666457 
4.5931008e+2, 1.5636656e+2, -1334960.4, -1445274.6, -15236.767, -0.013939941, -0.011641642, -1332894.5, 74709.484, 0.0, 5.0373893, 4.9656787 
4.5927125e+2, 1.6133069e+2, -1295292.4, -1408068.0, -20322.354, -0.015927713, -0.0069896, -1291742.0, 67215.18, 0.0, 5.035715, 4.9625716 
4.5922783e+2, 1.6629457e+2, -1250423.1, -1359336.9, -21556.365, -0.017296918, -0.0031807385, -1246311.9, 64001.664, 0.0, 5.033928, 4.9633284 
4.5918435e+2, 1.7125857e+2, -1206640.1, -1312850.0, -21899.775, -0.01851023, 0.0008825188, -1202301.8, 59367.023, 0.0, 5.0321283, 4.963327 
4.591409e+2, 1.7622258e+2, -1163951.1, -1268707.5, -22223.145, -0.019733747, 0.0053307274, -1159431.8, 53592.156, 0.0, 5.030326, 4.9625297 
4.5909593e+2, 1.8118402e+2, -1124859.4, -1232509.1, -25243.303, -0.021330068, 0.016818097, -1119234.0, 45170.527, 0.0, 5.0285573, 4.959035 
4.5904812e+2, 1.8614429e+2, -1079475.6, -1182849.0, -26226.8, -0.023515657, 0.01737834, -1073202.3, 42595.61, 0.0, 5.026779, 4.960052 
4.590003e+2, 1.9110465e+2, -1035519.5, -1136191.0, -26591.115, -0.02574576, 0.01742707, -1028927.44, 38262.934, 0.0, 5.0249877, 4.960051 
4.589524e+2, 1.9606502e+2, -992436.06, -1091423.1, -26944.102, -0.027991496, 0.017780028, -985577.2, 33005.566, 0.0, 5.023191, 4.9594007 
4.5890397e+2, 2.0102303e+2, -952955.4, -1054410.1, -28540.973, -0.029737145, 0.025443051, -945477.5, 24519.44, 0.0, 5.021379, 4.9560986 
4.588545e+2, 2.0598038e+2, -907049.0, -1003358.5, -29237.293, -0.027967777, 0.022220023, -898868.2, 22545.87, 0.0, 5.0195246, 4.9575777 
4.5880502e+2, 2.109379e+2, -863139.06, -956644.44, -29576.787, -0.025773313, 0.018160667, -854569.06, 18260.293, 0.0, 5.017666, 4.957575 
4.5875555e+2, 2.1589541e+2, -819869.94, -911354.8, -29906.025, -0.023579089, 0.014215283, -810961.3, 13283.317, 0.0, 5.015805, 4.9570727 
4.5870638e+2, 2.208505e+2, -782180.4, -878351.0, -29788.754, -0.021475311, 0.022327716, -773701.0, 1983.7222, 0.0, 5.013951, 4.9523115 
4.5865744e+2, 2.2580506e+2, -736368.2, -827001.75, -30109.303, -0.019951768, 0.027265783, -727277.4, -144.00133, 0.0, 5.011974, 4.9538927 
4.5860845e+2, 2.3075984e+2, -692759.3, -780318.8, -30363.816, -0.018646875, 0.03161945, -683260.25, -4680.419, 0.0, 5.009955, 4.953893 
4.585595e+2, 2.3571464e+2, -649812.0, -735068.2, -30598.195, -0.017508265, 0.036007103, -639967.2, -9940.868, 0.0, 5.0079207, 4.953391 
4.5851138e+2, 2.4066673e+2, -612239.9, -701853.75, -28950.664, -0.018045627, 0.04922017, -603700.75, -22203.229, 0.0, 5.0058837, 4.9486966 
4.584645e+2, 2.4561611e+2, -565748.0, -650854.9, -28674.232, -0.025304206, 0.040273856, -556988.56, -23999.316, 0.0, 5.0042267, 4.949967 
4.584177e+2, 2.505653e+2, -520801.6, -603457.3, -28898.889, -0.03325451, 0.027605802, -511699.9, -27217.668, 0.0, 5.002592, 4.9499707 
4.58371e+2, 2.555145e+2, -476225.47, -556666.8, -29136.674, -0.04122269, 0.015017154, -466780.78, -30805.777, 0.0, 5.000898, 4.949776 
4.583271e+2, 2.6046094e+2, -441585.72, -531968.5, -25147.006, -0.04190596, 0.023019759, -435060.25, -47561.965, 0.0, 4.999136, 4.9418144 
4.582889e+2, 2.6540533e+2, -396471.1, -480595.78, -23721.441, -0.052587267, 0.026426962, -390243.2, -51187.008, 0.0, 4.9968038, 4.9432864 
4.5825094e+2, 2.7034977e+2, -353852.78, -433187.53, -24888.459, -0.06911561, 0.023256922, -346691.38, -56076.125, 0.0, 4.994091, 4.9436245 
4.582133e+2, 2.752944e+2, -311960.5, -386270.88, -26380.734, -0.084508084, 0.016688839, -303547.6, -61375.188, 0.0, 4.9910893, 4.9439206 
4.581768e+2, 2.802357e+2, -282040.94, -369769.5, -24030.33, -0.10872019, 0.04359703, -275889.9, -82132.22, 0.0, 4.9889708, 4.9334083 
4.5814893e+2, 2.8517234e+2, -228845.56, -302854.16, -22067.848, -0.07967934, 0.026761357, -222764.97, -77400.07, 0.0, 4.9878635, 4.939815 
4.5812398e+2, 2.9010743e+2, -185606.45, -255036.33, -21739.854, -0.028537417, -0.026672829, -179361.06, -82377.16, 0.0, 4.9854727, 4.9400454 
4.5809975e+2, 2.9504225e+2, -144404.36, -208137.3, -21872.906, 0.02226846, -0.08666901, -137619.88, -89014.625, 0.0, 4.982262, 4.940282 
4.5807767e+2, 2.9999536e+2, -93901.305, -102904.53, -16113.605, 0.051076755, -0.10265909, -81672.32, -81614.59, 0.0, 4.9782214, 4.970651 
4.5806926e+2, 3.049883e+2, -99796.35, -84845.21, -13531.974, 0.05574382, 0.0009183789, -76861.2, -76861.2, 0.0, 4.972145, 4.978545 
4.580658e+2, 3.0998808e+2, -119243.36, -89540.28, -16210.545, 0.07709805, 0.11951962, -82406.6, -82406.6, 0.0, 4.964263, 4.97993 
4.5806453e+2, 3.1498998e+2, -142738.98, -96212.195, -19764.658, 0.10712495, 0.24049127, -88949.75, -88949.75, 0.0, 4.9548254, 4.981319 
4.6458587e+2, 1.21611215e+2, -1622420.3, -1747278.4, 3729.4438, 0.029504504, -0.0068471455, -1622309.0, 125892.766, 0.0, 5.0531473, 4.9713635 
4.6455604e+2, 1.2658101e+2, -1581468.3, -1706187.8, -3137.279, 0.014175158, -0.005607354, -1581389.4, 118108.12, 0.0, 5.051302, 4.9697475 
4.645259e+2, 1.3155028e+2, -1537979.6, -1660023.9, -3606.981, 0.005278085, -0.01057818, -1537873.1, 112925.14, 0.0, 5.049509, 4.9697475 
4.644958e+2, 1.3651952e+2, -1496625.4, -1618319.1, -4090.7822, -0.0035710263, -0.014290616, -1496488.0, 105611.17, 0.0, 5.047716, 4.968259 
4.6446273e+2, 1.4148687e+2, -1456911.8, -1580159.9, -10150.919, -0.0084694475, -0.0027258408, -1456081.4, 97338.05, 0.0, 5.0459027, 4.9655404 
4.644249e+2, 1.4645298e+2, -1412640.6, -1532033.3, -11375.277, -0.00973518, -0.005217721, -1411566.5, 93186.414, 0.0, 5.044005, 4.9661994 
4.6438694e+2, 1.5141907e+2, -1369327.0, -1485874.6, -11756.838, -0.011351104, -0.008797887, -1368152.9, 87934.01, 0.0, 5.0421004, 4.966198 
4.6434897e+2, 1.5638515e+2, -1327356.4, -1442569.4, -12123.48, -0.0129552055, -0.011941293, -1326094.5, 81326.42, 0.0, 5.0401964, 4.965232 
4.643083e+2, 1.6134882e+2, -1288173.0, -1405456.5, -17216.232, -0.014976613, -0.0075551113, -1285698.0, 73080.64, 0.0, 5.038321, 4.962195 
4.6426305e+2, 1.6631216e+2, -1243661.1, -1356912.6, -18421.615, -0.016095223, -0.0048955185, -1240740.0, 69399.63, 0.0, 5.036415, 4.9629517 
4.6421778e+2, 1.7127565e+2, -1200222.3, -1310604.0, -18742.842, -0.01704666, -0.001994292, -1197126.5, 64372.953, 0.0, 5.034501, 4.96295 
4.6417245e+2, 1.7623915e+2, -1157864.6, -1266631.0, -19043.059, -0.017993947, 0.0013056584, -1154627.0, 58232.313, 0.0, 5.032587, 4.962153 
4.6412563e+2, 1.8120016e+2, -1119146.3, -1230577.3, -22029.783, -0.019679787, 0.012340276, -1114949.1, 49294.773, 0.0, 5.0306807, 4.958678 
4.6407586e+2, 1.8616013e+2, -1074336.1, -1181222.0, -22957.754, -0.022649705, 0.0138286175, -1069613.8, 46026.594, 0.0, 5.028713, 4.959685 
4.6402603e+2, 1.9112018e+2, -1030920.7, -1134824.5, -23263.045, -0.025642952, 0.014817381, -1025950.1, 41085.74, 0.0, 5.026737, 4.959686 
4.6397623e+2, 1.9608025e+2, -988360.1, -1090306.3, -23558.727, -0.02861358, 0.016084086, -983179.25, 35252.063, 0.0, 5.024761, 4.959037 
4.639258e+2, 2.010379e+2, -949350.1, -1053639.0, -25117.254, -0.030872116, 0.024096163, -943616.06, 26233.33, 0.0, 5.0228114, 4.955684 
4.6387443e+2, 2.0599481e+2, -903743.9, -1002826.5, -25874.459, -0.02942591, 0.02108222, -897394.0, 23877.717, 0.0, 5.0208745, 4.9571238 
4.6382302e+2, 2.1095188e+2, -860075.6, -956230.5, -26291.69, -0.027573012, 0.017338792, -853356.2, 19335.965, 0.0, 5.0189333, 4.9571214 
4.6377164e+2, 2.1590893e+2, -817038.75, -911054.25, -26701.15, -0.025709031, 0.013656143, -809984.7, 14127.971, 0.0, 5.016992, 4.9566197 
4.6372053e+2, 2.208637e+2, -779445.75, -877769.25, -26577.947, -0.024297064, 0.02269577, -772721.3, 2835.2354, 0.0, 5.015042, 4.9519987 
4.6366957e+2, 2.2581795e+2, -733588.2, -826320.5, -26911.469, -0.023370443, 0.027895357, -726344.2, 663.8744, 0.0, 5.0130663, 4.9536133 
4.6361855e+2, 2.3077242e+2, -689851.1, -779559.06, -27183.738, -0.022372143, 0.03195861, -682256.7, -3798.8823, 0.0, 5.011088, 4.953622 
4.635676e+2, 2.3572686e+2, -646732.0, -734209.7, -27449.896, -0.02137568, 0.035852548, -638831.9, -8924.316, 0.0, 5.009109, 4.953129 
4.6351755e+2, 2.4067849e+2, -608869.4, -700683.56, -25772.607, -0.02161831, 0.046621878, -602129.6, -20746.004, 0.0, 5.0071445, 4.9484997 
4.63469e+2, 2.4562758e+2, -562513.4, -649712.0, -25326.73, -0.028732587, 0.03710274, -555691.0, -22812.86, 0.0, 5.0054626, 4.949773 
4.634205e+2, 2.5057665e+2, -517632.25, -602307.06, -25446.633, -0.036625665, 0.025350131, -510573.4, -26200.887, 0.0, 5.003831, 4.949786 
4.6337205e+2, 2.5552577e+2, -472969.72, -555443.1, -25554.188, -0.04443218, 0.013957297, -465693.72, -29827.27, 0.0, 5.0021973, 4.9496007 
4.6332622e+2, 2.6047245e+2, -438249.4, -530692.0, -21220.783, -0.045806583, 0.026982095, -433610.8, -46224.027, 0.0, 5.0005355, 4.9416075 
4.6328577e+2, 2.6541707e+2, -392284.34, -478953.0, -18700.012, -0.05510851, 0.035702445, -388421.7, -49483.35, 0.0, 4.998548, 4.9431114 
4.6324548e+2, 2.7036145e+2, -348228.7, -431464.06, -18287.002, -0.0683568, 0.03696455, -344388.22, -53894.33, 0.0, 4.996491, 4.9432545 
4.632053e+2, 2.753058e+2, -304163.53, -384107.72, -17880.969, -0.07963287, 0.036234494, -300346.38, -58297.18, 0.0, 4.994431, 4.943351 
4.6316686e+2, 2.8024626e+2, -271465.28, -364920.22, -13141.903, -0.09456154, 0.059006944, -269652.38, -76012.53, 0.0, 4.9926972, 4.933642 
4.631371e+2, 2.8518265e+2, -221476.98, -302708.56, -11411.614, -0.071345, 0.041471705, -219904.3, -74653.586, 0.0, 4.990531, 4.9390197 
4.631096e+2, 2.9011786e+2, -179016.6, -256310.39, -11691.0625, -0.029797694, -0.0022634761, -177286.97, -80416.24, 0.0, 4.98789, 4.938982 
4.6308267e+2, 2.9505256e+2, -136491.64, -209879.34, -11959.723, 0.016004467, -0.051593814, -134591.78, -86095.82, 0.0, 4.985216, 4.938945 
4.6305776e+2, 3.0000597e+2, -81272.23, -99103.164, -4595.3936, 0.04829553, -0.055122398, -80157.58, -80157.58, 0.0, 4.9823036, 4.9709935 
4.6304494e+2, 3.0499804e+2, -82914.07, -79556.414, -238.41101, 0.064911515, 0.057510473, -79539.57, -79539.57, 0.0, 4.978268, 4.9787836 
4.6303606e+2, 3.0999696e+2, -93068.16, -80198.16, -2462.3057, 0.10221179, 0.19653338, -79743.15, -79743.15, 0.0, 4.97407, 4.980076 
4.6302888e+2, 3.1499907e+2, -103041.85, -81041.02, -5070.125, 0.15459615, 0.35414898, -79928.836, -79928.836, 0.0, 4.9698296, 4.9813695 
4.6963924e+2, 1.21635556e+2, -1622450.0, -1747391.5, 1684.4695, 0.031993855, -0.009287587, -1622427.3, 125532.875, 0.0, 5.05315, 4.9713287 
4.696071e+2, 1.2660424e+2, -1582286.4, -1707988.8, -4483.275, 0.012545107, -0.013708226, -1582126.6, 117139.96, 0.0, 5.0513153, 4.969156 
4.6957532e+2, 1.3157319e+2, -1538792.1, -1661819.0, -4951.8735, 0.0049789315, -0.015992755, -1538593.1, 111977.72, 0.0, 5.0495224, 4.969156 
4.6954355e+2, 1.365421e+2, -1497439.3, -1620123.0, -5442.2603, -0.002567378, -0.017020358, -1497198.4, 104677.09, 0.0, 5.04773, 4.967664 
4.695087e+2, 1.4150907e+2, -1457574.5, -1581661.3, -11583.389, -0.0066248146, -0.0035925186, -1456502.5, 96697.14, 0.0, 5.045918, 4.9650445 
4.6946892e+2, 1.4647476e+2, -1413260.0, -1533449.3, -12806.101, -0.008176862, -0.0055443975, -1411910.6, 92627.086, 0.0, 5.0440207, 4.9657307 
4.6942902e+2, 1.5144044e+2, -1369941.9, -1487286.5, -13187.949, -0.010136993, -0.008586844, -1368478.0, 87398.06, 0.0, 5.042116, 4.965729 
4.6938914e+2, 1.5640612e+2, -1327968.8, -1443981.4, -13557.879, -0.012090989, -0.011192317, -1326405.4, 80809.16, 0.0, 5.040212, 4.964762 
4.693465e+2, 1.6136932e+2, -1288654.5, -1406610.1, -18668.469, -0.014182581, -0.007005293, -1285770.5, 72806.3, 0.0, 5.038339, 4.9618106 
4.6929944e+2, 1.6633214e+2, -1244134.0, -1358056.0, -19865.213, -0.014852811, -0.0060339347, -1240769.4, 69173.25, 0.0, 5.0364337, 4.9625697 
4.6925226e+2, 1.7129508e+2, -1200692.3, -1311747.4, -20185.756, -0.015367703, -0.0048475116, -1197137.0, 64170.234, 0.0, 5.03452, 4.9625673 
4.692051e+2, 1.7625803e+2, -1158331.4, -1267773.3, -20484.328, -0.015897045, -0.003247853, -1154623.0, 58048.957, 0.0, 5.0326066, 4.96177 
4.6915635e+2, 1.8121861e+2, -1119550.4, -1231607.5, -23510.496, -0.017602095, 0.007020659, -1114817.5, 49242.816, 0.0, 5.0307026, 4.958333 
4.6910456e+2, 1.8617831e+2, -1074748.4, -1182282.8, -24448.973, -0.021245355, 0.009552278, -1069450.6, 46008.56, 0.0, 5.0287366, 4.959329 
4.6905267e+2, 1.9113812e+2, -1031327.7, -1135883.9, -24753.87, -0.024919597, 0.01162565, -1025763.3, 41093.75, 0.0, 5.0267615, 4.959329 
4.690008e+2, 1.9609794e+2, -988762.06, -1091364.5, -25048.951, -0.028583735, 0.013975453, -982973.3, 35281.58, 0.0, 5.024787, 4.9586797 
4.689484e+2, 2.0105527e+2, -949865.25, -1054970.1, -26599.736, -0.031470843, 0.022551637, -943516.9, 26159.518, 0.0, 5.0228405, 4.9552317 
4.68895e+2, 2.0601174e+2, -904320.8, -1004302.1, -27351.957, -0.030768946, 0.020127507, -897327.25, 23776.664, 0.0, 5.020904, 4.9566207 
4.6884155e+2, 2.109684e+2, -860651.25, -957705.8, -27766.533, -0.02972868, 0.017180795, -853269.0, 19260.61, 0.0, 5.0189624, 4.956618 
4.6878818e+2, 2.1592505e+2, -817613.3, -912529.56, -28173.188, -0.028699756, 0.014334656, -809880.8, 14074.439, 0.0, 5.0170207, 4.9561152 
4.68735e+2, 2.2087952e+2, -779723.94, -878624.2, -28063.748, -0.028342338, 0.024545178, -772315.56, 3087.1174, 0.0, 5.015074, 4.95171 
4.6868202e+2, 2.2583343e+2, -733866.5, -827202.0, -28407.447, -0.028308943, 0.029308049, -725900.4, 956.8993, 0.0, 5.0131016, 4.9533157 
4.6862897e+2, 2.3078749e+2, -690121.75, -780439.2, -28674.742, -0.028135102, 0.032560766, -681787.0, -3476.5818, 0.0, 5.011125, 4.9533234 
4.6857598e+2, 2.3574154e+2, -646995.1, -735088.7, -28935.773, -0.027996168, 0.03566623, -638340.9, -8577.205, 0.0, 5.009148, 4.952829 
4.6852395e+2, 2.406926e+2, -609093.75, -701520.06, -27137.73, -0.028605232, 0.044092435, -601714.8, -20469.871, 0.0, 5.007189, 4.9482093 
4.684738e+2, 2.4564148e+2, -562599.25, -650217.4, -26570.373, -0.03532654, 0.034333497, -555171.44, -22429.564, 0.0, 5.005502, 4.9495974 
4.684237e+2, 2.5059047e+2, -517737.1, -602798.5, -26674.08, -0.04301217, 0.023699604, -510064.53, -25827.559, 0.0, 5.0038624, 4.9496164 
4.6837366e+2, 2.555396e+2, -473093.5, -555920.6, -26765.404, -0.05074822, 0.01360626, -465197.13, -29465.707, 0.0, 5.00222, 4.949437 
4.68326e+2, 2.6048648e+2, -437679.38, -529657.2, -22595.176, -0.05420607, 0.029103076, -432428.44, -45179.438, 0.0, 5.0005646, 4.9419775 
4.6828368e+2, 2.6543146e+2, -391130.6, -476666.84, -20221.92, -0.06324945, 0.034792133, -386590.8, -47797.258, 0.0, 4.998582, 4.943936 
4.682416e+2, 2.7037606e+2, -347106.22, -429237.44, -19742.875, -0.07470464, 0.031395566, -342606.88, -52264.22, 0.0, 4.996522, 4.944063 
4.6819967e+2, 2.753207e+2, -303072.03, -381940.16, -19270.863, -0.084560975, 0.026292311, -298615.2, -56723.637, 0.0, 4.994459, 4.9441433 
4.6815974e+2, 2.8026077e+2, -270931.47, -363017.56, -14872.145, -0.09378003, 0.0369821, -268589.16, -75107.305, 0.0, 4.9926014, 4.934328 
4.6812716e+2, 2.8519654e+2, -223134.67, -305000.34, -13498.916, -0.07298787, 0.015972227, -220966.27, -75868.73, 0.0, 4.9902635, 4.938316 
4.6809617e+2, 2.9013157e+2, -180895.1, -258723.9, -13673.215, -0.040969174, -0.021364788, -178562.83, -81844.78, 0.0, 4.9875493, 4.93827 
4.680657e+2, 2.9506618e+2, -138589.58, -212413.11, -13836.71, -0.0060094916, -0.06257382, -136081.39, -87739.05, 0.0, 4.9848022, 4.9382243 
4.6803734e+2, 3.0002102e+2, -81261.664, -96861.66, -7401.5444, 0.019247616, -0.0521169, -78308.85, -78308.85, 0.0, 4.9818897, 4.9720135 
4.680197e+2, 3.050117e+2, -83156.22, -80227.07, -3081.7876, 0.022541175, 0.052392717, -78279.555, -78279.555, 0.0, 4.9781747, 4.978813 
4.680054e+2, 3.1000632e+2, -92235.4, -80796.664, -4784.926, 0.03780751, 0.16319789, -79059.05, -79059.05, 0.0, 4.9743214, 4.979993 
4.6799263e+2, 3.1500334e+2, -101132.33, -81568.305, -6872.7085, 0.06482978, 0.28367877, -79395.32, -79395.32, 0.0, 4.970424, 4.981174 
4.7469264e+2, 1.2165974e+2, -1622447.6, -1747443.4, -312.54074, 0.034843884, -0.013312898, -1622446.8, 125273.234, 0.0, 5.0531545, 4.971314 
4.746582e+2, 1.2662748e+2, -1583104.5, -1709790.5, -5829.6387, 0.010946472, -0.021716567, -1582836.8, 116198.875, 0.0, 5.051329, 4.968564 
4.7462475e+2, 1.315961e+2, -1539604.8, -1663614.6, -6297.133, 0.0047012945, -0.02133834, -1539285.9, 111057.68, 0.0, 5.0495367, 4.9685645 
4.745913e+2, 1.3656469e+2, -1498253.3, -1621927.8, -6794.18, -0.0015521173, -0.019704618, -1497881.1, 103770.5, 0.0, 5.047744, 4.9670677 
4.745547e+2, 1.4153127e+2, -1458242.5, -1583175.8, -13016.891, -0.004779062, -0.0044396073, -1456900.6, 96079.28, 0.0, 5.0459337, 4.964545 
4.7451296e+2, 1.4649655e+2, -1413878.6, -1534866.3, -14236.814, -0.006618777, -0.005862114, -1412225.9, 92096.53, 0.0, 5.0440364, 4.965262 
4.7447112e+2, 1.5146182e+2, -1370556.1, -1488699.5, -14618.952, -0.008922304, -0.008375918, -1368774.1, 86891.19, 0.0, 5.0421324, 4.9652605 
4.7442928e+2, 1.5642706e+2, -1328580.5, -1445394.5, -14992.195, -0.011225384, -0.010452518, -1326687.0, 80321.1, 0.0, 5.040229, 4.9642925 
4.7438473e+2, 1.6138983e+2, -1289144.0, -1407782.6, -20119.213, -0.01341071, -0.0064478084, -1285825.0, 72549.96, 0.0, 5.0383573, 4.9614196 
4.7433582e+2, 1.6635211e+2, -1244606.4, -1359200.3, -21307.475, -0.013628304, -0.0071754786, -1240772.8, 68972.85, 0.0, 5.036453, 4.962187 
4.7428676e+2, 1.713145e+2, -1201161.9, -1312891.6, -21627.334, -0.01369338, -0.0077242916, -1197121.5, 63993.547, 0.0, 5.034539, 4.9621835 
4.7423774e+2, 1.7627689e+2, -1158797.6, -1268916.4, -21924.258, -0.013791523, -0.00784533, -1154593.1, 57891.516, 0.0, 5.032626, 4.961386 
4.7418705e+2, 1.8123704e+2, -1119956.6, -1232644.6, -24988.43, -0.015534221, 0.0017062824, -1114664.1, 49212.77, 0.0, 5.030725, 4.957986 
4.7413322e+2, 1.8619652e+2, -1075160.0, -1183344.3, -25939.02, -0.019856168, 0.0052803173, -1069262.3, 46015.78, 0.0, 5.028761, 4.9589725 
4.740793e+2, 1.9115606e+2, -1031734.2, -1136944.1, -26243.523, -0.024207791, 0.008414847, -1025551.4, 41126.9, 0.0, 5.026787, 4.9589715 
4.740254e+2, 1.9611564e+2, -989163.5, -1092423.6, -26538.008, -0.028561823, 0.011824331, -982742.44, 35336.02, 0.0, 5.0248127, 4.9583216 
4.7397098e+2, 2.0107263e+2, -950406.75, -1056359.4, -28076.75, -0.032106902, 0.021080771, -943426.5, 26076.959, 0.0, 5.02287, 4.954759 
4.7391552e+2, 2.0602868e+2, -904897.9, -1005778.3, -28827.824, -0.032158136, 0.019247487, -897241.1, 23695.115, 0.0, 5.0209346, 4.9561167 
4.738601e+2, 2.1098493e+2, -861227.1, -959181.75, -29239.748, -0.03192312, 0.017031634, -853162.9, 19204.242, 0.0, 5.018992, 4.956113 
4.738047e+2, 2.1594116e+2, -818188.0, -914005.44, -29643.602, -0.031721868, 0.014956244, -809758.56, 14039.373, 0.0, 5.01705, 4.9556103 
4.7374952e+2, 2.2089535e+2, -780005.75, -879487.6, -29543.354, -0.032395132, 0.026370658, -771893.7, 3355.1409, 0.0, 5.0151057, 4.9514184 
4.7369444e+2, 2.2584891e+2, -734145.06, -828083.6, -29902.152, -0.033273287, 0.030610356, -725434.44, 1272.0076, 0.0, 5.0131373, 4.9530168 
4.736394e+2, 2.3080257e+2, -690392.7, -781319.5, -30164.473, -0.033952173, 0.032914057, -681295.94, -3132.728, 0.0, 5.011163, 4.9530234 
4.7358435e+2, 2.357562e+2, -647258.5, -735967.9, -30420.375, -0.034698986, 0.035092797, -637829.06, -8209.082, 0.0, 5.009188, 4.952528 
4.735304e+2, 2.4070673e+2, -609397.5, -702528.44, -28504.842, -0.035412144, 0.041968305, -601365.6, -20259.633, 0.0, 5.0072336, 4.947858 
4.7347865e+2, 2.4565542e+2, -562689.1, -650719.5, -27825.809, -0.041743662, 0.032198533, -554631.2, -22026.113, 0.0, 5.0055423, 4.949419 
4.7342694e+2, 2.5060436e+2, -517845.94, -603286.7, -27913.316, -0.049381882, 0.022329716, -509535.13, -25434.02, 0.0, 5.003894, 4.949444 
4.7337526e+2, 2.5555342e+2, -473221.25, -556394.8, -27988.404, -0.05720723, 0.01318273, -464680.06, -29083.895, 0.0, 5.002243, 4.9492707 
4.7332582e+2, 2.6050055e+2, -437246.0, -528922.06, -23939.531, -0.06260424, 0.031441927, -431371.1, -44259.89, 0.0, 5.000594, 4.942235 
4.7328165e+2, 2.6544583e+2, -389983.88, -474379.06, -21736.998, -0.07102241, 0.03327237, -384714.28, -46065.17, 0.0, 4.998616, 4.944738 
4.732378e+2, 2.7039063e+2, -345990.5, -427008.97, -21191.965, -0.080478236, 0.023842108, -340782.16, -50589.973, 0.0, 4.996554, 4.9448495 
4.7319412e+2, 2.7533546e+2, -301987.03, -379770.56, -20654.023, -0.088708825, 0.012992885, -296842.9, -55107.875, 0.0, 4.9944882, 4.944914 
4.7315246e+2, 2.8027537e+2, -270916.53, -362269.5, -16749.084, -0.093440734, 0.014984499, -267942.5, -74619.27, 0.0, 4.9925056, 4.934602 
4.731168e+2, 2.8521058e+2, -224847.39, -307241.63, -15573.276, -0.0759323, -0.007162435, -222002.16, -77059.63, 0.0, 4.989997, 4.937601 
4.7308218e+2, 2.9014537e+2, -182828.64, -261086.8, -15642.515, -0.052933406, -0.03981116, -179817.8, -83253.46, 0.0, 4.9872093, 4.937547 
4.7304806e+2, 2.950799e+2, -140742.63, -214896.17, -15700.922, -0.028308263, -0.074605875, -137555.2, -89366.7, 0.0, 4.9843893, 4.937493 
4.7301584e+2, 3.0003527e+2, -83164.56, -98875.95, -10056.872, -0.014439499, -0.050797738, -78258.88, -78258.88, 0.0, 4.9814787, 4.9714403 
4.7299352e+2, 3.0502346e+2, -83461.96, -80831.91, -5729.8506, -0.028500617, 0.036388423, -76268.12, -76268.12, 0.0, 4.9780846, 4.9787126 
4.729744e+2, 3.100134e+2, -91465.99, -81330.28, -6911.902, -0.034915525, 0.10682104, -77827.4, -77827.4, 0.0, 4.9745755, 4.9797792 
4.7295672e+2, 3.150049e+2, -99286.34, -82031.46, -8479.364, -0.03290146, 0.17804512, -78562.12, -78562.12, 0.0, 4.971022, 4.9808474 
4.7974592e+2, 1.2168397e+2, -1621064.4, -1747027.1, -853.1072, 0.03587576, -0.018893637, -1621058.6, 126421.1, 0.0, 5.053685, 4.9711895 
4.797094e+2, 1.2665103e+2, -1582443.5, -1710762.3, -5871.4536, 0.009889129, -0.028589878, -1582175.4, 116626.53, 0.0, 5.051835, 4.9679985 
4.7967422e+2, 1.3161929e+2, -1539181.9, -1664712.8, -6292.8896, 0.00468461, -0.026047051, -1538867.3, 111246.4, 0.0, 5.0499616, 4.9679966 
4.7963908e+2, 1.3658753e+2, -1498069.4, -1623162.9, -6753.865, -0.00050121703, -0.022227772, -1497705.9, 103719.766, 0.0, 5.04809, 4.9664936 
4.7960064e+2, 1.4155371e+2, -1458112.1, -1584245.5, -13009.385, -0.0029907553, -0.0054413998, -1456784.4, 95973.766, 0.0, 5.0462146, 4.964059 
4.7955704e+2, 1.4651859e+2, -1413799.1, -1535892.6, -14200.673, -0.005004742, -0.0063422844, -1412169.3, 91935.82, 0.0, 5.0442834, 4.964806 
4.7951326e+2, 1.5148343e+2, -1370563.9, -1489773.3, -14565.107, -0.0075344425, -0.008333215, -1368810.1, 86642.11, 0.0, 5.042349, 4.964803 
4.7946948e+2, 1.5644826e+2, -1328670.6, -1446516.0, -14926.193, -0.010074542, -0.0098946085, -1326809.5, 79990.02, 0.0, 5.0404167, 4.9638324 
4.7942302e+2, 1.6141057e+2, -1289217.4, -1408755.4, -20072.727, -0.012319871, -0.006032927, -1285936.8, 72233.98, 0.0, 5.0385184, 4.9610224 
4.793722e+2, 1.663723e+2, -1244762.8, -1360186.3, -21300.152, -0.012109155, -0.008386438, -1240957.5, 68588.88, 0.0, 5.0365787, 4.961801 
4.793213e+2, 1.7133413e+2, -1201424.3, -1313928.3, -21664.783, -0.011720327, -0.010625799, -1197396.5, 63524.37, 0.0, 5.0346284, 4.9617977 
4.792704e+2, 1.7629598e+2, -1159170.4, -1270004.0, -22001.82, -0.011362003, -0.012444214, -1154962.5, 57332.758, 0.0, 5.0326767, 4.961001 
4.7921777e+2, 1.812557e+2, -1120370.5, -1233663.4, -25125.26, -0.013099459, -0.0035919477, -1115048.5, 48643.05, 0.0, 5.030743, 4.9576406 
4.7916192e+2, 1.862149e+2, -1075599.5, -1184394.9, -26103.438, -0.01800997, 0.00094938633, -1069660.6, 45434.473, 0.0, 5.028773, 4.9586186 
4.7910598e+2, 1.911742e+2, -1032192.9, -1138007.9, -26425.525, -0.022932813, 0.005058642, -1025960.56, 40537.22, 0.0, 5.0267916, 4.9586163 
4.7905004e+2, 1.9613348e+2, -989653.6, -1093506.3, -26738.314, -0.027860953, 0.009444176, -983173.75, 34726.727, 0.0, 5.0248065, 4.957965 
4.7899362e+2, 2.0109013e+2, -951082.06, -1057813.6, -28258.035, -0.03202945, 0.019451985, -944062.25, 25266.76, 0.0, 5.022856, 4.9542785 
4.7893617e+2, 2.0604575e+2, -905595.3, -1007261.5, -28995.215, -0.032938622, 0.01809209, -897907.25, 22859.887, 0.0, 5.020916, 4.9556255 
4.7887874e+2, 2.1100156e+2, -861938.5, -960667.2, -29385.525, -0.033589136, 0.01638425, -853854.2, 18349.12, 0.0, 5.018968, 4.955622 
4.7882128e+2, 2.1595737e+2, -818914.44, -915493.9, -29762.844, -0.034275886, 0.014832131, -810479.2, 13160.26, 0.0, 5.0170197, 4.9551196 
4.7876406e+2, 2.2091128e+2, -780484.56, -880395.56, -29642.055, -0.035982624, 0.02733937, -772352.1, 2741.699, 0.0, 5.01507, 4.9511323 
4.7870696e+2, 2.258645e+2, -734567.7, -829000.9, -30051.273, -0.037690427, 0.031254385, -725815.6, 738.7462, 0.0, 5.0131264, 4.952717 
4.7864988e+2, 2.3081776e+2, -690777.56, -782232.5, -30355.537, -0.039083738, 0.03277557, -681619.1, -3604.6174, 0.0, 5.011165, 4.9527197 
4.7859284e+2, 2.35771e+2, -647660.0, -736900.25, -30660.9, -0.04052971, 0.034150947, -638141.0, -8666.199, 0.0, 5.009185, 4.952221 
4.7853702e+2, 2.4072105e+2, -610093.2, -703847.25, -28695.557, -0.040881056, 0.040430855, -602007.56, -21042.436, 0.0, 5.007175, 4.947439 
4.784836e+2, 2.4566951e+2, -563936.9, -651766.1, -28030.598, -0.046643198, 0.030618563, -555753.44, -23286.729, 0.0, 5.0051856, 4.949222 
4.784302e+2, 2.5061834e+2, -520171.94, -604808.44, -28222.148, -0.05415748, 0.020691104, -511624.47, -27660.006, 0.0, 5.003155, 4.9492517 
4.7837687e+2, 2.5556725e+2, -476773.72, -558451.94, -28405.861, -0.06197061, 0.01150951, -467866.2, -32405.033, 0.0, 5.001069, 4.949083 
4.783256e+2, 2.605145e+2, -441720.47, -530746.3, -24567.768, -0.06905302, 0.032387294, -435390.72, -48416.137, 0.0, 4.9989653, 4.942332 
4.7827953e+2, 2.6546004e+2, -394475.9, -474839.66, -23048.371, -0.07715578, 0.030776119, -388334.9, -49829.016, 0.0, 4.996703, 4.9454255 
4.7823384e+2, 2.7040505e+2, -351280.2, -427880.38, -23129.287, -0.08516142, 0.015424025, -344838.1, -54795.156, 0.0, 4.994368, 4.9455137 
4.7818834e+2, 2.7535006e+2, -308125.38, -381051.44, -23354.389, -0.09229137, -0.0011100696, -301287.34, -59707.406, 0.0, 4.992013, 4.945557 
4.781447e+2, 2.8028998e+2, -278821.2, -366103.16, -20849.133, -0.094289295, -0.0035506587, -274096.66, -80932.375, 0.0, 4.9898105, 4.9343977 
4.781058e+2, 2.8522465e+2, -231859.4, -311800.78, -19866.0, -0.08029995, -0.026189344, -227194.75, -82407.13, 0.0, 4.98786, 4.936846 
4.7806764e+2, 2.901589e+2, -188878.53, -265203.66, -19892.232, -0.06492532, -0.057759207, -184005.27, -87592.086, 0.0, 4.9854198, 4.936795 
4.7802988e+2, 2.950931e+2, -147085.77, -219127.48, -19836.926, -0.049153566, -0.08970148, -141984.78, -93945.266, 0.0, 4.9825025, 4.9367433 
4.7799337e+2, 3.0004814e+2, -92849.31, -107611.47, -14605.99, -0.049909465, -0.054642715, -83865.33, -83865.33, 0.0, 4.9789414, 4.9693074 
4.7796652e+2, 3.050331e+2, -96372.03, -86801.16, -10033.552, -0.08342901, 0.007552063, -80470.27, -80470.27, 0.0, 4.973475, 4.97849 
4.7794312e+2, 3.100182e+2, -112968.45, -91427.195, -10963.544, -0.10935613, 0.02868052, -86828.84, -86828.84, 0.0, 4.966861, 4.9794264 
4.7792095e+2, 3.1500405e+2, -131870.69, -97297.56, -12679.861, -0.13029714, 0.04267776, -93145.75, -93145.75, 0.0, 4.9593287, 4.9803677 
4.848007e+2, 1.2171365e+2, -1608778.1, -1743109.1, 3005.5771, 0.021768631, -0.02280453, -1608710.9, 138476.81, 0.0, 5.0583267, 4.9702053 
4.8476368e+2, 1.266808e+2, -1570073.9, -1705563.5, -2353.8735, 0.011658935, -0.026493844, -1570033.0, 128476.87, 0.0, 5.0562363, 4.967559 
4.8472643e+2, 1.316484e+2, -1527739.0, -1660001.1, -2722.7544, 0.0061324714, -0.025615338, -1527683.0, 122144.984, 0.0, 5.054059, 4.9675546 
4.846892e+2, 1.3661598e+2, -1487555.5, -1618946.1, -3130.523, 0.00063352834, -0.023426186, -1487481.0, 113665.4, 0.0, 5.0518813, 4.9660444 
4.8464867e+2, 1.4158162e+2, -1448287.6, -1580169.8, -9320.606, -0.0017472771, -0.0077061416, -1447632.1, 104852.11, 0.0, 5.0497217, 4.963708 
4.8460308e+2, 1.4654616e+2, -1404653.6, -1532144.3, -10410.871, -0.0029709504, -0.008153328, -1403809.1, 100024.945, 0.0, 5.0475593, 4.964466 
4.8455733e+2, 1.5151067e+2, -1362111.1, -1486388.4, -10699.318, -0.0047101583, -0.009609832, -1361196.8, 93987.21, 0.0, 5.045395, 4.96446 
4.8451158e+2, 1.5647517e+2, -1320913.8, -1443497.8, -10982.215, -0.006473966, -0.010644284, -1319937.6, 86596.37, 0.0, 5.043231, 4.9634843 
4.8446307e+2, 1.6143711e+2, -1282171.9, -1406179.5, -16066.601, -0.008349372, -0.0065497286, -1280124.1, 77784.64, 0.0, 5.041104, 4.96064 
4.8441017e+2, 1.6639833e+2, -1238378.1, -1357998.5, -17283.01, -0.008425238, -0.009377025, -1235931.1, 73358.23, 0.0, 5.038954, 4.961394 
4.8435715e+2, 1.7135966e+2, -1195652.1, -1312044.9, -17654.025, -0.008295324, -0.012153198, -1193033.4, 67635.586, 0.0, 5.0367966, 4.9613914 
4.8430416e+2, 1.7632101e+2, -1154000.9, -1268416.8, -17996.719, -0.008153633, -0.014546527, -1151237.0, 60811.477, 0.0, 5.03464, 4.960596 
4.8424947e+2, 1.8128027e+2, -1115598.9, -1231972.3, -21091.828, -0.009818729, -0.006441597, -1111894.1, 51554.87, 0.0, 5.0325074, 4.957366 
4.8419166e+2, 1.862391e+2, -1071308.5, -1182953.4, -21976.36, -0.014181502, -0.002602647, -1067138.4, 47717.324, 0.0, 5.030376, 4.9583397 
4.841337e+2, 1.9119799e+2, -1028350.2, -1136796.4, -22216.51, -0.018538298, 0.0008811957, -1023975.4, 42286.313, 0.0, 5.0282416, 4.9583344 
4.8407578e+2, 1.961569e+2, -986243.8, -1092516.1, -22443.13, -0.022880964, 0.0046725404, -981698.56, 35968.992, 0.0, 5.0261083, 4.9576797 
4.840173e+2, 2.0111324e+2, -948129.6, -1057121.8, -23799.271, -0.02686018, 0.014852614, -943159.5, 25939.38, 0.0, 5.024014, 4.953961 
4.839577e+2, 2.0606856e+2, -903179.6, -1006865.4, -24426.94, -0.02907795, 0.014313576, -897713.1, 22827.2, 0.0, 5.0218973, 4.95529 
4.8389804e+2, 2.1102405e+2, -860041.4, -960506.44, -24705.953, -0.03115666, 0.013225774, -854294.56, 17685.56, 0.0, 5.0197678, 4.95529 
4.8383844e+2, 2.1597953e+2, -817532.8, -915564.2, -24975.223, -0.033256292, 0.012172939, -811536.7, 11883.162, 0.0, 5.017638, 4.9547906 
4.8377904e+2, 2.2093311e+2, -779472.2, -880246.44, -24735.75, -0.03624829, 0.024027055, -773728.06, 1149.9315, 0.0, 5.0154896, 4.950968 
4.8371997e+2, 2.2588597e+2, -733952.6, -829262.2, -25035.563, -0.03821736, 0.02732471, -727776.56, -1434.7164, 0.0, 5.013453, 4.952456 
4.8366094e+2, 2.3083887e+2, -690310.06, -782595.5, -25272.426, -0.039554358, 0.028680537, -683842.44, -6037.1685, 0.0, 5.0114408, 4.952448 
4.8360196e+2, 2.3579174e+2, -647284.1, -737340.9, -25495.807, -0.040727254, 0.029942956, -640567.06, -11298.247, 0.0, 5.009428, 4.951938 
4.8354423e+2, 2.4074152e+2, -609836.0, -704406.5, -23428.775, -0.040346205, 0.037255533, -604350.06, -23588.03, 0.0, 5.0073924, 4.9471197 
4.8348877e+2, 2.4568981e+2, -564454.0, -652450.9, -22812.41, -0.04356981, 0.028513266, -558891.7, -26625.361, 0.0, 5.005086, 4.949003 
4.8343337e+2, 2.5063837e+2, -521628.44, -605965.25, -22970.703, -0.04807294, 0.018253185, -515777.8, -32009.867, 0.0, 5.002731, 4.9490204 
4.8337796e+2, 2.555869e+2, -479011.66, -560006.6, -23124.182, -0.05263387, 0.0076391757, -472874.7, -37605.02, 0.0, 5.0003767, 4.948839 
4.8332444e+2, 2.6053372e+2, -444624.66, -531932.3, -19055.977, -0.05806333, 0.02577663, -440646.72, -53859.15, 0.0, 4.9979224, 4.942388 
4.8327565e+2, 2.6547953e+2, -398298.88, -476770.4, -17371.266, -0.06836659, 0.027388128, -394625.34, -56310.56, 0.0, 4.995393, 4.945375 
4.8322722e+2, 2.704249e+2, -355713.06, -430398.38, -17269.316, -0.079120114, 0.018331688, -351913.22, -62066.938, 0.0, 4.992892, 4.945357 
4.8317882e+2, 2.7537024e+2, -313125.38, -384132.3, -17152.053, -0.08970471, 0.009505276, -309199.28, -67821.555, 0.0, 4.9903913, 4.945291 
4.831325e+2, 2.8031024e+2, -284261.63, -369876.3, -13593.469, -0.09528986, 0.01289593, -282155.16, -89195.47, 0.0, 4.9879904, 4.9339266 
4.830917e+2, 2.85244e+2, -237238.97, -315945.5, -12007.287, -0.08295296, -0.014996318, -235447.92, -90854.11, 0.0, 4.985988, 4.936189 
4.830515e+2, 2.9017714e+2, -192932.78, -268511.3, -11961.969, -0.067628, -0.053905655, -191084.73, -94852.57, 0.0, 4.9839783, 4.9362082 
4.830115e+2, 2.9511014e+2, -148582.64, -221047.22, -11918.725, -0.050338935, -0.094753034, -146672.63, -98800.62, 0.0, 4.9819546, 4.9362273 
4.8297235e+2, 3.000637e+2, -90062.03, -107520.48, -6375.3906, -0.047294334, -0.071146235, -87981.77, -87981.77, 0.0, 4.979889, 4.9689293 
4.8294193e+2, 3.0504748e+2, -85717.69, -81486.2, -1133.5267, -0.06839372, -0.02241819, -81201.68, -81201.68, 0.0, 4.9769692, 4.979085 
4.8291415e+2, 3.1003258e+2, -93644.55, -82968.21, -1290.1333, -0.07963362, -0.0028559777, -82814.52, -82814.52, 0.0, 4.9737887, 4.9797482 
4.828869e+2, 3.1501898e+2, -101483.13, -84549.34, -1656.4664, -0.085492976, 0.021789085, -84388.83, -84388.83, 0.0, 4.97059, 4.980413 
4.8985752e+2, 1.217461e+2, -1610306.1, -1746422.0, 1827.9989, 0.0073024007, -0.024777835, -1610281.6, 136587.47, 0.0, 5.0583477, 4.969113 
4.8982e+2, 1.2671335e+2, -1570673.6, -1706974.5, -3988.7417, 0.013776375, -0.02223176, -1570557.0, 127633.85, 0.0, 5.0562572, 4.9670925 
4.8978055e+2, 1.3168025e+2, -1528336.4, -1661407.3, -4354.7646, 0.0077787973, -0.023875808, -1528194.0, 121322.055, 0.0, 5.0540795, 4.967089 
4.897411e+2, 1.366471e+2, -1488157.1, -1620362.5, -4768.4917, 0.0017294281, -0.024197763, -1487985.4, 112856.086, 0.0, 5.051902, 4.965575 
4.8969835e+2, 1.4161217e+2, -1448730.0, -1581251.6, -10977.542, -0.0005934078, -0.010130108, -1447826.8, 104358.13, 0.0, 5.049741, 4.963351 
4.8965067e+2, 1.465764e+2, -1405074.3, -1533183.1, -12034.228, -0.00079718634, -0.0101541625, -1403953.6, 99583.39, 0.0, 5.047579, 4.964123 
4.8960286e+2, 1.5154062e+2, -1362528.3, -1487425.9, -12322.86, -0.0015137057, -0.0110838795, -1361324.1, 93565.09, 0.0, 5.0454144, 4.9641166 
4.8955506e+2, 1.5650484e+2, -1321330.6, -1444541.0, -12610.376, -0.0022636915, -0.011585035, -1320053.3, 86188.266, 0.0, 5.043251, 4.963138 
4.895044e+2, 1.6146645e+2, -1282668.6, -1407392.0, -17709.895, -0.0037077258, -0.007107266, -1280202.8, 77416.305, 0.0, 5.041124, 4.960238 
4.894493e+2, 1.6642724e+2, -1238918.8, -1359305.5, -18910.086, -0.0043640635, -0.010036209, -1236018.3, 72985.984, 0.0, 5.038974, 4.9609594 
4.8939404e+2, 1.7138812e+2, -1196188.6, -1313349.1, -19281.477, -0.004840138, -0.012933989, -1193097.0, 67291.42, 0.0, 5.036817, 4.9609566 
4.8933887e+2, 1.7634901e+2, -1154533.4, -1269717.8, -19623.78, -0.0053100493, -0.015442694, -1151281.9, 60490.746, 0.0, 5.034661, 4.960161 
4.89282e+2, 1.8130787e+2, -1115885.5, -1232784.1, -22726.055, -0.007053116, -0.008002204, -1111622.8, 51554.516, 0.0, 5.032532, 4.957095 
4.892221e+2, 1.8626629e+2, -1071583.3, -1183753.8, -23591.225, -0.0105951475, -0.0055031097, -1066823.6, 47763.523, 0.0, 5.030402, 4.9580717 
4.8916212e+2, 1.9122481e+2, -1028622.8, -1137597.6, -23830.88, -0.014148827, -0.0033006878, -1023639.3, 42356.883, 0.0, 5.028269, 4.958066 
4.8910215e+2, 1.9618334e+2, -986514.3, -1093318.5, -24056.787, -0.017705621, -0.00077136996, -981345.8, 36059.305, 0.0, 5.026136, 4.9574103 
4.890416e+2, 2.0113939e+2, -948395.75, -1057952.1, -25385.662, -0.02142002, 0.009441818, -942799.44, 26039.11, 0.0, 5.0240464, 4.9536805 
4.8897973e+2, 2.0609456e+2, -903480.06, -1007791.4, -26034.857, -0.025020113, 0.010355641, -897343.1, 22938.62, 0.0, 5.0219326, 4.9549756 
4.8891783e+2, 2.1104987e+2, -860336.6, -961431.1, -26311.764, -0.02864136, 0.010618925, -853898.5, 17824.979, 0.0, 5.019804, 4.954975 
4.8885593e+2, 2.1600518e+2, -817822.9, -916487.8, -26578.758, -0.032320444, 0.010926792, -811118.56, 12046.639, 0.0, 5.017676, 4.9544754 
4.8879427e+2, 2.2095846e+2, -779554.5, -880757.94, -26350.758, -0.036622144, 0.022016002, -773104.5, 1521.9204, 0.0, 5.0155325, 4.950794 
4.887331e+2, 2.2591087e+2, -734149.2, -830026.2, -26573.996, -0.039040636, 0.023363318, -727276.44, -1181.9907, 0.0, 5.013495, 4.9521976 
4.8867208e+2, 2.3086336e+2, -690515.7, -783363.5, -26804.684, -0.040855385, 0.023408376, -683332.94, -5771.331, 0.0, 5.01148, 4.9521894 
4.8861104e+2, 2.3581584e+2, -647498.8, -738112.94, -27021.734, -0.042578947, 0.023474038, -640052.6, -11023.759, 0.0, 5.0094643, 4.951679 
4.8855123e+2, 2.4076544e+2, -610049.25, -705055.2, -25071.848, -0.043081574, 0.0318421, -603838.8, -23314.914, 0.0, 5.0074134, 4.9469023 
4.8849368e+2, 2.4571392e+2, -564603.75, -652894.1, -24622.191, -0.044355977, 0.026471071, -558201.44, -26173.516, 0.0, 5.0050974, 4.9488573 
4.8843616e+2, 2.5066262e+2, -521786.5, -606415.8, -24771.6, -0.046286985, 0.01932025, -515068.9, -31539.385, 0.0, 5.00274, 4.9488726 
4.8837864e+2, 2.5561133e+2, -479177.97, -560464.44, -24916.133, -0.04834202, 0.011958675, -472148.5, -37117.418, 0.0, 5.0003834, 4.9486895 
4.8832285e+2, 2.605582e+2, -444029.22, -530796.9, -21000.041, -0.051876932, 0.028939389, -439213.9, -52663.77, 0.0, 4.9979453, 4.9427986 
4.8827162e+2, 2.6550394e+2, -397857.13, -475997.2, -19267.676, -0.0614102, 0.027742716, -393364.44, -55287.355, 0.0, 4.995417, 4.945682 
4.8822075e+2, 2.704494e+2, -355302.75, -429612.78, -19134.16, -0.071485214, 0.018245384, -350665.28, -61058.56, 0.0, 4.992905, 4.945671 
4.881699e+2, 2.753949e+2, -312746.44, -383334.3, -18985.361, -0.0814724, 0.009115723, -307964.13, -66827.98, 0.0, 4.9903936, 4.9456124 
4.8812115e+2, 2.8033504e+2, -283795.28, -368718.2, -15121.634, -0.0882881, 0.0113092465, -281183.03, -88466.58, 0.0, 4.9879665, 4.9343605 
4.8807785e+2, 2.8526986e+2, -237266.77, -315857.97, -13549.661, -0.08219609, -0.0072160377, -234996.3, -90652.336, 0.0, 4.98593, 4.936283 
4.8803508e+2, 2.9020438e+2, -193028.48, -268473.28, -13462.241, -0.07367541, -0.032288346, -190698.27, -94724.96, 0.0, 4.9838986, 4.9362965 
4.8799253e+2, 2.951388e+2, -148745.7, -221058.08, -13376.926, -0.063705154, -0.058710054, -146350.47, -98746.77, 0.0, 4.981854, 4.93631 
4.8795113e+2, 3.0009314e+2, -88781.37, -104142.39, -8052.3213, -0.06444121, -0.031777043, -85333.98, -85333.98, 0.0, 4.97978, 4.9702353 
4.8791814e+2, 3.0507547e+2, -84167.41, -78442.336, -3141.8352, -0.085632764, -0.008835955, -77054.55, -77054.55, 0.0, 4.976989, 4.980289 
4.8788738e+2, 3.1005874e+2, -91668.76, -80130.74, -3074.2827, -0.10027069, -0.014501641, -79362.73, -79362.73, 0.0, 4.973971, 4.9808292 
4.8785707e+2, 3.15043e+2, -99082.31, -81918.086, -3216.8193, -0.1107642, -0.017710783, -81335.016, -81335.016, 0.0, 4.970935, 4.981372 
4.949147e+2, 1.2177863e+2, -1611689.4, -1749429.5, 609.4552, -0.003885218, -0.025690347, -1611686.8, 134862.97, 0.0, 5.0583687, 4.968121 
4.9487638e+2, 1.2674592e+2, -1571274.1, -1708385.1, -5624.423, 0.015804505, -0.017948372, -1571043.9, 126827.93, 0.0, 5.0562787, 4.966626 
4.9483466e+2, 1.3171208e+2, -1528934.5, -1662813.0, -5987.5884, 0.009328661, -0.022133611, -1528667.3, 120536.836, 0.0, 5.0541005, 4.9666233 
4.9479294e+2, 1.3667823e+2, -1488759.6, -1621778.5, -6407.3633, 0.002721733, -0.024985263, -1488451.8, 112084.82, 0.0, 5.0519223, 4.965105 
4.9474803e+2, 1.4164272e+2, -1449179.3, -1582350.0, -12637.099, 0.000545846, -0.0125452075, -1447990.8, 103894.89, 0.0, 5.049761, 4.9629884 
4.946983e+2, 1.4660664e+2, -1405494.3, -1534223.0, -13656.555, 0.001381618, -0.012148348, -1404061.4, 99178.64, 0.0, 5.0475984, 4.963779 
4.946484e+2, 1.5157057e+2, -1362944.6, -1488464.3, -13945.373, 0.0016910653, -0.012564161, -1361414.0, 93180.37, 0.0, 5.045435, 4.9637723 
4.9459854e+2, 1.565345e+2, -1321746.6, -1445585.3, -14237.535, 0.0019581758, -0.012544887, -1320130.9, 85817.99, 0.0, 5.043272, 4.9627914 
4.9454576e+2, 1.6149579e+2, -1283171.9, -1408621.8, -19354.395, 0.0009253556, -0.0076557267, -1280253.8, 77075.55, 0.0, 5.041145, 4.9598303 
4.9448842e+2, 1.6645615e+2, -1239458.1, -1360614.0, -20536.537, -0.00031487326, -0.010689292, -1236071.8, 72647.305, 0.0, 5.0389943, 4.960524 
4.9443096e+2, 1.7141658e+2, -1196724.1, -1314654.8, -20908.305, -0.001395096, -0.013721113, -1193126.9, 66981.04, 0.0, 5.036838, 4.9605217 
4.9437353e+2, 1.7637703e+2, -1155064.6, -1271020.3, -21250.201, -0.0024747702, -0.016357606, -1151293.0, 60203.793, 0.0, 5.034682, 4.9597263 
4.9431452e+2, 1.8133545e+2, -1116176.5, -1233609.0, -24355.475, -0.0042753024, -0.009568024, -1111325.5, 51580.06, 0.0, 5.032558, 4.95682 
4.9425256e+2, 1.8629347e+2, -1071857.4, -1184555.3, -25204.678, -0.0069895256, -0.00841783, -1066477.3, 47841.42, 0.0, 5.0304294, 4.9578032 
4.941905e+2, 1.912516e+2, -1028894.7, -1138400.0, -25443.84, -0.009734677, -0.0075191557, -1023271.5, 42459.242, 0.0, 5.0282965, 4.9577966 
4.941285e+2, 1.9620973e+2, -986784.1, -1094121.9, -25669.033, -0.012500194, -0.0062741577, -980961.44, 36181.367, 0.0, 5.026164, 4.9571404 
4.9406588e+2, 2.0116554e+2, -948666.3, -1058793.3, -26964.063, -0.016041342, 0.0040518153, -942418.75, 26159.432, 0.0, 5.02408, 4.9533963 
4.9400178e+2, 2.0612055e+2, -903780.7, -1008717.44, -27641.568, -0.021079173, 0.0064031826, -896944.9, 23078.293, 0.0, 5.0219684, 4.954661 
4.9393758e+2, 2.1107568e+2, -860631.94, -962355.94, -27916.367, -0.02626156, 0.007974211, -853474.44, 17992.418, 0.0, 5.019841, 4.9546595 
4.9387342e+2, 2.160308e+2, -818113.1, -917411.56, -28181.088, -0.031538654, 0.009599514, -810672.75, 12237.831, 0.0, 5.017714, 4.9541593 
4.9380952e+2, 2.2098376e+2, -779677.4, -881358.8, -27959.37, -0.036972642, 0.020067455, -772496.5, 1878.4335, 0.0, 5.015576, 4.950589 
4.9374634e+2, 2.2593576e+2, -734346.56, -830790.06, -28112.615, -0.039759565, 0.01946029, -726750.25, -903.1696, 0.0, 5.0135374, 4.951938 
4.9368322e+2, 2.3088783e+2, -690722.06, -784131.4, -28337.13, -0.04204038, 0.018067956, -682797.8, -5479.703, 0.0, 5.0115194, 4.9519296 
4.936202e+2, 2.3583992e+2, -647714.3, -738884.94, -28547.855, -0.044302937, 0.016810445, -639513.0, -10723.823, 0.0, 5.0095015, 4.951419 
4.9355826e+2, 2.4078938e+2, -610290.6, -705768.6, -26726.941, -0.045854025, 0.02661068, -603318.2, -23032.463, 0.0, 5.0074344, 4.946662 
4.9349853e+2, 2.4573806e+2, -564753.06, -653338.7, -26431.846, -0.04526784, 0.024610296, -557465.9, -25676.438, 0.0, 5.0051093, 4.9487085 
4.934389e+2, 2.506869e+2, -521944.03, -606867.7, -26572.373, -0.044636697, 0.020313662, -514314.97, -31023.926, 0.0, 5.00275, 4.9487224 
4.9337927e+2, 2.556358e+2, -479343.72, -560923.56, -26707.963, -0.044195782, 0.015949907, -471377.78, -36585.234, 0.0, 5.000391, 4.9485373 
4.933213e+2, 2.6058266e+2, -443590.34, -530018.75, -22919.412, -0.045712322, 0.03263661, -437888.63, -51576.117, 0.0, 4.997969, 4.943082 
4.932676e+2, 2.6552838e+2, -397416.8, -475224.75, -21180.89, -0.05446854, 0.028752385, -392024.66, -54185.57, 0.0, 4.995443, 4.945978 
4.932143e+2, 2.7047393e+2, -354893.78, -428827.94, -21015.813, -0.06392287, 0.018024113, -349337.56, -59970.434, 0.0, 4.9929194, 4.9459743 
4.93161e+2, 2.7541953e+2, -312368.72, -382536.97, -20835.482, -0.07337035, 0.007802611, -306648.28, -65753.46, 0.0, 4.990397, 4.9459224 
4.9310973e+2, 2.8035986e+2, -283537.53, -368016.72, -16690.744, -0.08131864, 0.009460569, -280359.44, -87886.1, 0.0, 4.987943, 4.9346313 
4.930639e+2, 2.8529575e+2, -237317.11, -315749.66, -15083.159, -0.081303835, 0.0007991954, -234516.5, -90422.336, 0.0, 4.9858723, 4.936372 
4.9301857e+2, 2.902316e+2, -193146.69, -268414.38, -14953.646, -0.07951371, -0.011086526, -190284.63, -94569.836, 0.0, 4.9838195, 4.9363794 
4.9297336e+2, 2.951674e+2, -148931.23, -221048.06, -14826.2705, -0.07678905, -0.023731166, -146002.13, -98666.13, 0.0, 4.981754, 4.9363875 
4.9292967e+2, 3.0012256e+2, -88046.51, -101956.89, -9666.263, -0.082181625, 0.008717242, -83093.24, -83093.24, 0.0, 4.979673, 4.971083 
4.928943e+2, 3.0510333e+2, -82640.57, -75377.016, -4987.3228, -0.10342234, 0.0043796203, -72839.26, -72839.26, 0.0, 4.9770107, 4.981427 
4.928609e+2, 3.1008464e+2, -89716.38, -77272.08, -4695.95, -0.120265454, -0.031905208, -75698.9, -75698.9, 0.0, 4.974156, 4.981845 
4.928279e+2, 3.1506652e+2, -96704.94, -79265.836, -4615.0024, -0.13420397, -0.0683431, -78119.85, -78119.85, 0.0, 4.9712825, 4.9822645 
4.9997246e+2, 1.2181148e+2, -1610994.1, -1751117.3, 977.61084, -0.009779948, -0.026186625, -1610987.3, 135240.39, 0.0, 5.0590496, 4.967232 
4.9993265e+2, 1.2677872e+2, -1570236.8, -1708900.8, -5621.7637, 0.016813396, -0.013984089, -1570009.1, 127541.36, 0.0, 5.0568533, 4.9661756 
4.9988872e+2, 1.3174422e+2, -1528236.9, -1663505.3, -5986.737, 0.010287123, -0.020334486, -1527972.4, 120917.09, 0.0, 5.05456, 4.966171 
4.9984482e+2, 1.367097e+2, -1488442.1, -1622677.4, -6420.2134, 0.0036797535, -0.02535131, -1488135.8, 112092.91, 0.0, 5.0522556, 4.9646463 
4.997977e+2, 1.416736e+2, -1448991.4, -1583095.9, -12663.48, 0.0020950295, -0.014356845, -1447806.1, 103777.07, 0.0, 5.0499973, 4.9626303 
4.9974588e+2, 1.4663719e+2, -1405426.4, -1534982.5, -13663.989, 0.003879971, -0.013802264, -1404000.9, 98939.305, 0.0, 5.0477834, 4.9634414 
4.9969393e+2, 1.516008e+2, -1363021.6, -1489297.6, -13976.899, 0.0051339585, -0.013957428, -1361493.1, 92803.945, 0.0, 5.0455704, 4.963434 
4.9964198e+2, 1.5656441e+2, -1321963.8, -1446495.1, -14297.178, 0.0063640526, -0.013640137, -1320343.4, 85310.73, 0.0, 5.0433607, 4.96245 
4.9958706e+2, 1.6152534e+2, -1283568.5, -1409752.9, -19432.928, 0.00572415, -0.00842256, -1280643.5, 76394.01, 0.0, 5.0411963, 4.9594345 
4.9952748e+2, 1.6648528e+2, -1239995.4, -1361864.3, -20577.559, 0.0039492184, -0.011496311, -1236614.6, 71817.1, 0.0, 5.039007, 4.9601064 
4.9946782e+2, 1.7144528e+2, -1197368.8, -1315957.1, -20932.586, 0.00231803, -0.014624344, -1193782.4, 66042.875, 0.0, 5.0368123, 4.960103 
4.9940822e+2, 1.7640528e+2, -1155811.1, -1272371.3, -21257.637, 0.00068116956, -0.017375866, -1152055.3, 59163.4, 0.0, 5.03462, 4.959307 
4.9934703e+2, 1.8136328e+2, -1116790.9, -1234564.3, -24362.422, -0.0011467049, -0.011225978, -1111950.3, 50681.457, 0.0, 5.03247, 4.9565463 
4.9928302e+2, 1.8632089e+2, -1072487.5, -1185498.3, -25240.607, -0.0030909043, -0.011410176, -1067106.4, 46941.613, 0.0, 5.0303316, 4.9575377 
4.9921894e+2, 1.912786e+2, -1029551.56, -1139356.3, -25521.03, -0.005072076, -0.011812236, -1023909.8, 41553.477, 0.0, 5.0281887, 4.9575305 
4.9915487e+2, 1.9623634e+2, -987467.56, -1095091.3, -25785.445, -0.007074716, -0.011853082, -981608.56, 35269.94, 0.0, 5.0260463, 4.9568734 
4.9909016e+2, 2.0119192e+2, -949427.5, -1059822.6, -27058.148, -0.010494601, -0.0013719733, -943152.2, 25163.744, 0.0, 5.0239406, 4.9531193 
4.9902382e+2, 2.0614673e+2, -904670.56, -1009880.0, -27783.924, -0.016726764, 0.0023063584, -897784.06, 21978.746, 0.0, 5.021797, 4.954352 
4.989574e+2, 2.1110165e+2, -861639.9, -963579.4, -28076.207, -0.0231383, 0.004992594, -854418.6, 16790.059, 0.0, 5.0196276, 4.954349 
4.98891e+2, 2.1605657e+2, -819276.8, -918712.9, -28358.85, -0.029654192, 0.0076864157, -811757.56, 10897.149, 0.0, 5.017445, 4.9538465 
4.988249e+2, 2.210092e+2, -780886.9, -882486.7, -28161.262, -0.03576038, 0.017538445, -773603.3, 519.0971, 0.0, 5.015249, 4.9503655 
4.9875963e+2, 2.2596076e+2, -735860.44, -832098.2, -28248.81, -0.038913608, 0.01509731, -728181.3, -2582.7095, 0.0, 5.013113, 4.951697 
4.9869445e+2, 2.3091245e+2, -692554.94, -785581.3, -28446.988, -0.041748207, 0.01224398, -684545.56, -7472.2246, 0.0, 5.010984, 4.951688 
4.9862933e+2, 2.3586413e+2, -649880.0, -740482.5, -28622.469, -0.0446368, 0.009598771, -641595.4, -13047.327, 0.0, 5.0088496, 4.951177 
4.9856526e+2, 2.408135e+2, -612803.06, -707567.1, -26910.887, -0.047571875, 0.021239094, -605694.25, -25648.365, 0.0, 5.0066795, 4.9463906 
4.9850336e+2, 2.4576232e+2, -566960.4, -654787.7, -26952.645, -0.045639154, 0.022791384, -559348.75, -27799.283, 0.0, 5.0044174, 4.948522 
4.9844158e+2, 2.507113e+2, -523901.44, -608212.25, -27321.725, -0.042793922, 0.021176063, -515821.84, -32770.21, 0.0, 5.0021415, 4.9485335 
4.9837983e+2, 2.5566027e+2, -481068.1, -562168.3, -27689.49, -0.040091127, 0.019498736, -472516.06, -37962.4, 0.0, 4.9998617, 4.9483466 
4.9831966e+2, 2.6060712e+2, -444703.0, -530261.56, -24216.668, -0.03954476, 0.036605682, -438324.22, -52249.387, 0.0, 4.997505, 4.9432206 
4.9826354e+2, 2.6555282e+2, -398525.88, -475173.06, -22665.521, -0.047398195, 0.03003264, -392325.06, -54723.875, 0.0, 4.994922, 4.9462514 
4.9820778e+2, 2.704984e+2, -356271.78, -428866.94, -22620.41, -0.056137424, 0.017204424, -349800.25, -60672.086, 0.0, 4.992303, 4.9462547 
4.9815202e+2, 2.7544403e+2, -314068.38, -382685.75, -22560.588, -0.06494623, 0.005006044, -307315.34, -66660.76, 0.0, 4.989665, 4.94621 
4.9809825e+2, 2.8038454e+2, -285936.3, -368846.38, -18280.053, -0.07374525, 0.0067023034, -282084.84, -89853.414, 0.0, 4.987051, 4.934739 
4.9804983e+2, 2.853215e+2, -240405.53, -316933.03, -16629.965, -0.07939896, 0.008147526, -236947.95, -93102.28, 0.0, 4.984739, 4.93646 
4.9800187e+2, 2.9025865e+2, -197066.44, -269983.13, -16494.215, -0.08406758, 0.008564565, -193508.92, -98050.89, 0.0, 4.982391, 4.9364614 
4.9795404e+2, 2.951958e+2, -153865.95, -223077.13, -16356.741, -0.088374786, 0.008825895, -150195.05, -103124.58, 0.0, 4.9799633, 4.9364634 
4.9790788e+2, 3.0015177e+2, -93794.41, -103467.016, -11223.73, -0.09921613, 0.049069252, -86409.336, -86409.336, 0.0, 4.977411, 4.9715004 
4.978703e+2, 3.051311e+2, -89695.97, -75925.38, -6402.282, -0.12018576, 0.017129637, -73408.734, -73408.734, 0.0, 4.9739304, 4.982526 
4.978346e+2, 3.101104e+2, -99861.53, -79553.55, -5836.5566, -0.13782892, -0.053634964, -77995.625, -77995.625, 0.0, 4.9699807, 4.982811 
4.977992e+2, 3.1508988e+2, -110668.03, -83579.29, -5718.721, -0.15387425, -0.12728228, -82421.49, -82421.49, 0.0, 4.965753, 4.9831014 
5.050345e+2, 1.2185052e+2, -1597219.8, -1745667.4, 5239.6157, -0.0067433026, -0.027942041, -1597035.0, 148811.39, 0.0, 5.064041, 4.9665804 
5.0499123e+2, 1.2681767e+2, -1557296.3, -1703345.3, -1625.2996, 0.010675503, -0.011800101, -1557278.3, 139892.02, 0.0, 5.0614486, 4.9657583 
5.0494516e+2, 1.3178273e+2, -1516435.6, -1658539.8, -2004.5875, 0.0077667376, -0.017763594, -1516407.4, 132106.19, 0.0, 5.058778, 4.965752 
5.048991e+2, 1.3674778e+2, -1477740.1, -1618287.5, -2451.0198, 0.0048722383, -0.022389865, -1477697.4, 122159.69, 0.0, 5.056108, 4.9642215 
5.048497e+2, 1.417112e+2, -1439001.9, -1578812.3, -8572.174, 0.0057698917, -0.01169761, -1438478.3, 112737.66, 0.0, 5.053547, 4.962324 
5.047955e+2, 1.4667429e+2, -1396185.3, -1531073.9, -9501.215, 0.007436926, -0.012777346, -1395519.3, 107058.164, 0.0, 5.051082, 4.96314 
5.047412e+2, 1.5163739e+2, -1354540.6, -1485778.6, -9788.4, 0.008557224, -0.014539179, -1353814.6, 100124.27, 0.0, 5.0486155, 4.963132 
5.046869e+2, 1.5660048e+2, -1314248.0, -1443371.4, -10083.098, 0.009691026, -0.015779218, -1313465.4, 91835.01, 0.0, 5.0461497, 4.9621444 
5.0462955e+2, 1.6156104e+2, -1276432.9, -1406744.0, -15123.746, 0.009096568, -0.011254803, -1274700.8, 81986.41, 0.0, 5.043744, 4.9592113 
5.0456774e+2, 1.6652073e+2, -1233583.0, -1359256.4, -16117.314, 0.007642434, -0.013351793, -1231548.9, 76534.35, 0.0, 5.0413184, 4.9598675 
5.0450575e+2, 1.7148054e+2, -1191664.1, -1313706.1, -16334.786, 0.0063274363, -0.015499878, -1189515.5, 69963.125, 0.0, 5.0388837, 4.9598627 
5.044438e+2, 1.7644033e+2, -1150814.6, -1270474.4, -16518.256, 0.004993884, -0.017324362, -1148576.3, 62297.92, 0.0, 5.0364504, 4.9590654 
5.043804e+2, 1.8139802e+2, -1112405.8, -1232880.8, -19467.459, 0.0035965089, -0.011175399, -1109338.1, 52951.574, 0.0, 5.03407, 4.9563413 
5.043142e+2, 1.8635525e+2, -1068722.4, -1184162.4, -20260.863, 0.0020341708, -0.012537993, -1065269.6, 48439.977, 0.0, 5.031729, 4.957313 
5.042479e+2, 1.9131258e+2, -1026370.44, -1138304.0, -20483.01, 0.0004081669, -0.014072933, -1022739.94, 42388.555, 0.0, 5.029386, 4.9573054 
5.041816e+2, 1.962699e+2, -984867.5, -1094318.9, -20686.838, -0.0012304883, -0.015233819, -981088.06, 35459.234, 0.0, 5.0270433, 4.9566483 
5.041147e+2, 2.0122519e+2, -947320.7, -1058932.0, -21839.332, -0.004610701, -0.0054576728, -943199.5, 24787.535, 0.0, 5.0246973, 4.953047 
5.040461e+2, 2.0617977e+2, -903332.1, -1009507.5, -22393.744, -0.010135417, -0.0020813278, -898802.3, 20633.402, 0.0, 5.022316, 4.954214 
5.0397754e+2, 2.1113443e+2, -860911.4, -963511.25, -22508.588, -0.01554834, 0.00017064171, -856190.56, 14693.154, 0.0, 5.019932, 4.9542065 
5.0390893e+2, 2.1608907e+2, -819115.44, -918928.7, -22609.676, -0.020919219, 0.0022849697, -814232.75, 8099.3228, 0.0, 5.017548, 4.9536996 
5.038407e+2, 2.2104135e+2, -781192.56, -882902.8, -22279.063, -0.025664842, 0.011002388, -776526.5, -2723.6738, 0.0, 5.015183, 4.950226 
5.0377303e+2, 2.2599272e+2, -736861.06, -832726.44, -22311.902, -0.029226182, 0.008506956, -731922.56, -6641.714, 0.0, 5.01279, 4.9516 
5.037055e+2, 2.3094428e+2, -694343.06, -786538.25, -22450.57, -0.032857787, 0.0058836956, -689166.7, -12409.661, 0.0, 5.0103884, 4.9516 
5.0363797e+2, 2.3589584e+2, -652437.1, -741756.2, -22571.375, -0.03660727, 0.0034235558, -647057.25, -18824.145, 0.0, 5.0079865, 4.9510984 
5.035714e+2, 2.4084519e+2, -616149.8, -709021.56, -20681.121, -0.04100822, 0.015692823, -611752.6, -32021.268, 0.0, 5.005521, 4.9463882 
5.035071e+2, 2.4579392e+2, -571078.1, -657169.8, -20423.088, -0.04061414, 0.019621711, -566478.94, -35242.348, 0.0, 5.003087, 4.948278 
5.034429e+2, 2.5074273e+2, -528363.8, -610825.06, -20545.549, -0.038892258, 0.020254904, -523528.38, -40786.926, 0.0, 5.00068, 4.948266 
5.033788e+2, 2.5569147e+2, -485855.1, -565008.3, -20657.584, -0.037011977, 0.02037768, -480788.2, -46541.465, 0.0, 4.998273, 4.9480557 
5.033163e+2, 2.6063794e+2, -449407.06, -532227.56, -17059.234, -0.036229968, 0.03589436, -446030.88, -60258.176, 0.0, 4.9957743, 4.943292 
5.032577e+2, 2.6558337e+2, -403669.06, -477260.03, -15641.711, -0.041684795, 0.026781498, -400482.4, -63180.656, 0.0, 4.9930196, 4.9463577 
5.0319946e+2, 2.7052873e+2, -361835.72, -431131.88, -15676.424, -0.047741573, 0.012405696, -358454.34, -69623.74, 0.0, 4.990246, 4.94636 
5.031412e+2, 2.754742e+2, -320003.44, -385099.16, -15709.178, -0.053658757, -0.0017298873, -316410.72, -76051.57, 0.0, 4.9874725, 4.946315 
5.030851e+2, 2.8041464e+2, -292388.97, -371019.97, -11242.135, -0.059686568, -0.0013127829, -290813.25, -98876.055, 0.0, 4.9846244, 4.9350123 
5.0303406e+2, 2.853522e+2, -248250.33, -319618.94, -9314.292, -0.064652935, 0.004497915, -247054.75, -103506.83, 0.0, 4.981803, 4.9367642 
5.029835e+2, 2.9029003e+2, -206145.23, -273219.03, -8994.009, -0.06907568, 0.009915453, -204960.16, -109803.56, 0.0, 4.9790087, 4.936761 
5.0293297e+2, 2.952278e+2, -163985.23, -226773.53, -8665.894, -0.07330776, 0.014739583, -162811.14, -116045.35, 0.0, 4.976211, 4.936758 
5.0288415e+2, 3.001845e+2, -102931.92, -103797.61, -3059.4512, -0.082823426, 0.055438526, -100274.84, -100274.84, 0.0, 4.973436, 4.973086 
5.028439e+2, 3.051654e+2, -98112.266, -75833.1, 1332.8066, -0.0963876, 0.023675527, -75753.65, -75753.65, 0.0, 4.970212, 4.9842277 
5.028052e+2, 3.1014666e+2, -107059.51, -79327.766, 1467.9689, -0.105701, -0.03951581, -79250.27, -79250.27, 0.0, 4.9668255, 4.984362 
5.027666e+2, 3.1512827e+2, -115970.33, -82880.586, 1496.1278, -0.11302892, -0.10123113, -82813.08, -82813.08, 0.0, 4.963425, 4.9844966 
5.100984e+2, 1.2189264e+2, -1597941.9, -1747354.3, 3458.1755, -0.0070866677, -0.02825516, -1597861.9, 147573.33, 0.0, 5.0640635, 4.966024 
5.100518e+2, 1.2685956e+2, -1557885.0, -1704783.9, -3619.8337, 0.00315871, -0.009697106, -1557795.9, 138965.5, 0.0, 5.061474, 4.9652843 
5.1000345e+2, 1.3182424e+2, -1517022.4, -1659972.8, -3997.8972, 0.0046950807, -0.014808714, -1516910.6, 131197.9, 0.0, 5.058802, 4.965279 
5.0995517e+2, 1.3678889e+2, -1478330.4, -1619727.5, -4451.897, 0.0061919135, -0.018580627, -1478190.4, 121265.63, 0.0, 5.056132, 4.963746 
5.099034e+2, 1.417519e+2, -1439402.8, -1579854.0, -10468.126, 0.00976276, -0.007993919, -1438626.8, 112191.97, 0.0, 5.0535703, 4.961981 
5.098467e+2, 1.4671445e+2, -1396577.8, -1532096.5, -11349.466, 0.011013516, -0.011057822, -1395633.9, 106551.1, 0.0, 5.0511055, 4.9628024 
5.097899e+2, 1.5167701e+2, -1354930.9, -1486798.5, -11637.131, 0.011665959, -0.014827474, -1353911.8, 99639.3, 0.0, 5.048639, 4.9627943 
5.09733e+2, 1.5663958e+2, -1314640.1, -1444398.5, -11937.817, 0.012323602, -0.018069003, -1313551.0, 91366.18, 0.0, 5.046173, 4.9618044 
5.0967324e+2, 1.6159976e+2, -1276646.8, -1407398.4, -16971.91, 0.011582337, -0.014470423, -1274479.6, 81827.45, 0.0, 5.0437675, 4.958998 
5.09609e+2, 1.6655937e+2, -1233810.1, -1359945.3, -17950.293, 0.010694698, -0.015272673, -1231305.4, 76398.62, 0.0, 5.0413423, 4.9596424 
5.095447e+2, 1.7151907e+2, -1191887.3, -1314395.3, -18167.953, 0.009955983, -0.016059456, -1189249.6, 69850.46, 0.0, 5.038909, 4.9596367 
5.0948036e+2, 1.7647877e+2, -1151034.0, -1271164.4, -18351.373, 0.009189317, -0.016525842, -1148293.1, 62203.152, 0.0, 5.036476, 4.9588385 
5.0941455e+2, 1.8143632e+2, -1112594.3, -1233541.9, -21264.799, 0.008364072, -0.00996907, -1108964.4, 52949.004, 0.0, 5.0341015, 4.956121 
5.0934607e+2, 1.8639319e+2, -1068934.8, -1184884.1, -22030.654, 0.007092188, -0.01243195, -1064890.0, 48446.43, 0.0, 5.0317616, 4.9570713 
5.0927746e+2, 1.9135016e+2, -1026581.7, -1139026.0, -22252.268, 0.005698762, -0.0150473965, -1022338.2, 42420.156, 0.0, 5.029419, 4.957063 
5.0920886e+2, 1.9630715e+2, -985077.75, -1095041.4, -22455.318, 0.0042679696, -0.017268142, -980668.94, 35511.297, 0.0, 5.0270762, 4.9564056 
5.0913954e+2, 2.012622e+2, -947238.94, -1059031.4, -23652.582, 0.00080219115, -0.008576319, -942440.6, 25181.23, 0.0, 5.02473, 4.953019 
5.0906867e+2, 2.0621662e+2, -903339.25, -1009801.44, -24203.111, -0.0039518285, -0.0061505446, -898095.25, 20976.299, 0.0, 5.0223494, 4.9541216 
5.089978e+2, 2.1117108e+2, -860919.9, -963809.1, -24314.924, -0.008447469, -0.004730153, -855463.1, 15057.551, 0.0, 5.0199647, 4.954113 
5.08927e+2, 2.1612553e+2, -819125.4, -919230.56, -24412.795, -0.012923866, -0.00338401, -813489.1, 8480.968, 0.0, 5.017581, 4.9536047 
5.088564e+2, 2.2107764e+2, -781289.75, -883435.25, -24082.809, -0.016777942, 0.0050529297, -775896.56, -2454.3772, 0.0, 5.0152225, 4.950044 
5.087863e+2, 2.2602896e+2, -736886.7, -833099.1, -24141.867, -0.0210102, 0.0033431202, -731168.75, -6247.901, 0.0, 5.01283, 4.951472 
5.087163e+2, 2.309805e+2, -694377.8, -786911.6, -24275.232, -0.025607144, 0.0016396444, -688396.1, -11998.68, 0.0, 5.0104246, 4.9514723 
5.0864625e+2, 2.3593205e+2, -652481.06, -742130.25, -24390.55, -0.030360682, 0.00018675663, -646274.8, -18400.955, 0.0, 5.00802, 4.950971 
5.085771e+2, 2.4088144e+2, -615828.75, -708630.06, -22593.87, -0.03568461, 0.012260379, -610620.25, -31248.137, 0.0, 5.0055594, 4.9465313 
5.0851023e+2, 2.4583015e+2, -571058.7, -657441.8, -22284.564, -0.036380325, 0.016475214, -565648.7, -34770.41, 0.0, 5.0031238, 4.9481997 
5.084436e+2, 2.507789e+2, -528368.25, -611110.2, -22393.313, -0.035933644, 0.018226098, -522696.53, -40312.41, 0.0, 5.00071, 4.948187 
5.0837696e+2, 2.5572762e+2, -485883.3, -565306.4, -22491.582, -0.03539779, 0.019654095, -479956.28, -46066.01, 0.0, 4.9982967, 4.947975 
5.083119e+2, 2.6067394e+2, -449174.94, -531878.0, -19104.035, -0.035217397, 0.034060817, -444975.25, -59557.07, 0.0, 4.9957905, 4.9434295 
5.0825083e+2, 2.6561937e+2, -403521.5, -477077.13, -17794.469, -0.038505316, 0.023989646, -399442.88, -62494.832, 0.0, 4.9930325, 4.946441 
5.081901e+2, 2.7056485e+2, -361691.03, -430946.53, -17807.787, -0.04223031, 0.00995543, -357380.4, -68903.63, 0.0, 4.9902573, 4.9464445 
5.0812936e+2, 2.7551034e+2, -319861.63, -384911.3, -17819.166, -0.045881055, -0.0038700658, -315300.22, -75294.99, 0.0, 4.987483, 4.9463997 
5.080706e+2, 2.8045106e+2, -291807.34, -369807.84, -13404.276, -0.049672298, -0.002864063, -289568.13, -97986.53, 0.0, 4.9846334, 4.9354515 
5.080169e+2, 2.853894e+2, -247700.52, -318389.47, -11445.117, -0.05363785, 0.0066637457, -245893.64, -102707.33, 0.0, 4.981797, 4.937224 
5.0796366e+2, 2.9032806e+2, -205650.13, -272006.72, -11105.843, -0.05742324, 0.01665767, -203840.72, -109052.19, 0.0, 4.9789853, 4.9372234 
5.079105e+2, 2.9526666e+2, -163544.58, -225578.1, -10758.766, -0.06109984, 0.026237393, -161731.63, -115340.49, 0.0, 4.9761696, 4.937223 
5.0785905e+2, 3.002241e+2, -100840.234, -98554.46, -5118.211, -0.07000169, 0.06386054, -94453.086, -94453.086, 0.0, 4.9733577, 4.975047 
5.07816e+2, 3.052054e+2, -96657.85, -72460.18, -933.5549, -0.08242311, 0.023635235, -72424.21, -72424.21, 0.0, 4.970185, 4.985569 
5.077744e+2, 3.1018686e+2, -105310.56, -75930.11, -662.85986, -0.0915787, -0.04459631, -75915.164, -75915.164, 0.0, 4.96689, 4.985676 
5.0773287e+2, 3.1516847e+2, -113926.76, -79458.04, -499.2429, -0.099807024, -0.113261916, -79450.805, -79450.805, 0.0, 4.963581, 4.985783 
5.15162e+2, 1.2193488e+2, -1598566.1, -1748839.1, 1656.3151, -0.010626522, -0.027285801, -1598547.9, 146475.03, 0.0, 5.0640864, 4.9655337 
5.151123e+2, 1.2690146e+2, -1558473.3, -1706223.5, -5615.413, -0.0043008444, -0.0075040753, -1558260.1, 138092.27, 0.0, 5.0615, 4.96481 
5.150618e+2, 1.3186575e+2, -1517608.6, -1661406.8, -5992.252, 0.0016789999, -0.011786259, -1517359.4, 130344.086, 0.0, 5.058828, 4.9648056 
5.1501125e+2, 1.3683002e+2, -1478920.3, -1621168.5, -6453.931, 0.0075655016, -0.014726222, -1478628.0, 120426.8, 0.0, 5.056157, 4.9632697 
5.14957e+2, 1.417926e+2, -1439809.4, -1580911.1, -12365.17, 0.013754069, -0.004276134, -1438734.0, 111687.69, 0.0, 5.0535946, 4.9616327 
5.148978e+2, 1.4675461e+2, -1396969.3, -1533120.4, -13197.429, 0.014581832, -0.0093388185, -1395701.9, 106090.695, 0.0, 5.0511293, 4.9624643 
5.148385e+2, 1.5171665e+2, -1355320.0, -1487819.6, -13485.572, 0.014768866, -0.015126758, -1353961.4, 99201.9, 0.0, 5.0486627, 4.9624567 
5.1477915e+2, 1.5667866e+2, -1315031.3, -1445427.0, -13792.285, 0.014952788, -0.020380227, -1313588.4, 90945.68, 0.0, 5.046197, 4.961464 
5.147169e+2, 1.6163848e+2, -1276862.4, -1408061.0, -18820.342, 0.014054799, -0.01768398, -1274216.0, 81711.16, 0.0, 5.043792, 4.9587817 
5.146503e+2, 1.66598e+2, -1234035.9, -1360635.9, -19781.723, 0.013735539, -0.017204177, -1231017.0, 76307.84, 0.0, 5.041367, 4.9594164 
5.1458365e+2, 1.7155762e+2, -1192108.9, -1315086.0, -19999.572, 0.01357743, -0.0166525, -1188938.1, 69783.45, 0.0, 5.0389347, 4.95941 
5.145169e+2, 1.7651722e+2, -1151252.0, -1271856.0, -20182.91, 0.013381967, -0.015783586, -1147964.1, 62154.45, 0.0, 5.0365033, 4.958611 
5.144487e+2, 1.8147458e+2, -1112794.5, -1234231.9, -23056.367, 0.013112759, -0.008723621, -1108564.3, 52972.816, 0.0, 5.0341334, 4.955891 
5.1437795e+2, 1.8643112e+2, -1069146.4, -1185606.9, -23799.56, 0.012121696, -0.012272163, -1064470.5, 48492.69, 0.0, 5.031795, 4.9568286 
5.14307e+2, 1.9138776e+2, -1026792.2, -1139749.1, -24020.643, 0.01095929, -0.015987057, -1021896.3, 42491.914, 0.0, 5.0294523, 4.9568205 
5.142361e+2, 1.963444e+2, -985287.2, -1095765.0, -24222.914, 0.00973481, -0.01928657, -980209.56, 35603.63, 0.0, 5.02711, 4.9561625 
5.1416445e+2, 2.0129922e+2, -947166.0, -1059153.4, -25464.328, 0.0062543782, -0.0117468955, -941647.7, 25609.068, 0.0, 5.0247645, 4.952983 
5.140913e+2, 2.0625345e+2, -903345.5, -1010096.75, -26010.965, 0.0022971013, -0.01037575, -897344.94, 21362.576, 0.0, 5.022383, 4.9540277 
5.140181e+2, 2.1120772e+2, -860927.56, -964108.44, -26119.746, -0.0012836242, -0.009889746, -854692.25, 15465.629, 0.0, 5.0199986, 4.9540176 
5.13945e+2, 2.1616197e+2, -819134.44, -919533.9, -26214.406, -0.0048678983, -0.009414406, -812702.0, 8906.443, 0.0, 5.017615, 4.953509 
5.138722e+2, 2.2111394e+2, -781423.5, -884051.1, -25874.02, -0.008009339, -0.00059209985, -775269.3, -2188.009, 0.0, 5.015263, 4.9498334 
5.137996e+2, 2.2606525e+2, -736911.94, -833472.75, -25974.182, -0.013010524, -0.0013700032, -730368.5, -5808.002, 0.0, 5.01287, 4.951341 
5.1372707e+2, 2.3101676e+2, -694412.2, -787285.9, -26102.25, -0.018582707, -0.0022998403, -687578.94, -11541.376, 0.0, 5.010462, 4.9513426 
5.136545e+2, 2.359683e+2, -652524.56, -742505.25, -26212.08, -0.024350177, -0.0028913326, -645445.7, -17931.36, 0.0, 5.008054, 4.950842 
5.135828e+2, 2.4091768e+2, -615596.94, -708440.8, -24492.313, -0.03049797, 0.009041616, -609532.06, -30519.15, 0.0, 5.0055995, 4.9466033 
5.135135e+2, 2.4586633e+2, -571039.6, -657714.94, -24146.523, -0.032176882, 0.013335433, -564766.7, -34246.49, 0.0, 5.0031614, 4.948118 
5.134443e+2, 2.5081503e+2, -528373.06, -611396.4, -24241.572, -0.03291107, 0.015814032, -521813.16, -39785.953, 0.0, 5.000741, 4.948104 
5.1337516e+2, 2.557637e+2, -485911.78, -565605.56, -24326.084, -0.033625506, 0.018158067, -479073.2, -45538.79, 0.0, 4.998321, 4.947891 
5.1330763e+2, 2.6070997e+2, -449094.63, -531873.9, -21151.434, -0.034173526, 0.032642294, -444003.25, -58939.563, 0.0, 4.9958076, 4.9434443 
5.1324403e+2, 2.656554e+2, -403373.56, -476895.94, -19951.002, -0.03536515, 0.022049049, -398308.6, -61714.613, 0.0, 4.9930463, 4.946517 
5.1318073e+2, 2.7060091e+2, -361545.84, -430762.8, -19942.924, -0.036710016, 0.007818133, -356211.03, -68088.28, 0.0, 4.99027, 4.946521 
5.1311743e+2, 2.755465e+2, -319719.2, -384725.13, -19932.924, -0.03804608, -0.006234418, -314093.9, -74442.586, 0.0, 4.9874945, 4.946477 
5.130561e+2, 2.8048748e+2, -291338.0, -368847.44, -15562.883, -0.039669525, -0.004331747, -288329.94, -97103.98, 0.0, 4.984644, 4.9358 
5.129998e+2, 2.8542662e+2, -247157.7, -317154.8, -13580.031, -0.04258507, 0.008945754, -244615.39, -101790.68, 0.0, 4.981792, 4.9376793 
5.129438e+2, 2.9036605e+2, -205161.97, -270789.2, -13221.782, -0.045578644, 0.022938764, -202598.34, -108177.55, 0.0, 4.9789624, 4.937681 
5.128879e+2, 2.9530552e+2, -163110.83, -224377.38, -12855.759, -0.048545673, 0.036698136, -160522.61, -114505.55, 0.0, 4.9761295, 4.9376836 
5.128338e+2, 3.002636e+2, -99170.6, -94243.23, -7212.141, -0.05742607, 0.07210402, -89085.58, -89085.58, 0.0, 4.9732804, 4.976659 
5.12788e+2, 3.052452e+2, -95220.3, -69069.1, -3140.2778, -0.069557674, 0.022391345, -68697.305, -68697.305, 0.0, 4.97016, 4.986876 
5.127436e+2, 3.102267e+2, -103578.61, -72514.47, -2734.076, -0.07896745, -0.053828917, -72275.664, -72275.664, 0.0, 4.966957, 4.986955 
5.1269925e+2, 3.1520823e+2, -111900.34, -76017.66, -2435.0322, -0.08850712, -0.13238536, -75853.164, -75853.164, 0.0, 4.9637403, 4.987035 
5.20226e+2, 1.219781e+2, -1597359.6, -1749123.3, 1780.086, -0.010683672, -0.021045335, -1597338.8, 147262.39, 0.0, 5.064698, 4.965139 
5.201729e+2, 1.2694368e+2, -1557651.3, -1706887.3, -5454.5273, -0.011587782, -0.0063902005, -1557452.1, 138488.25, 0.0, 5.0620165, 4.964339 
5.201201e+2, 1.319076e+2, -1516857.3, -1662109.0, -5905.258, -0.001363581, -0.009427783, -1516617.6, 130677.63, 0.0, 5.059319, 4.9643345 
5.200673e+2, 1.3687149e+2, -1478255.9, -1621926.8, -6446.648, 0.0087993, -0.011166302, -1477967.1, 120683.1, 0.0, 5.056619, 4.9627953 
5.2001077e+2, 1.4183365e+2, -1439094.3, -1581357.5, -12310.654, 0.017542033, -0.0005932231, -1438036.8, 111984.37, 0.0, 5.0540037, 4.961291 
5.1994896e+2, 1.4679514e+2, -1396560.9, -1533696.5, -13140.193, 0.018043146, -0.00745997, -1395313.1, 106083.555, 0.0, 5.0514274, 4.9621334 
5.1988715e+2, 1.5175663e+2, -1355219.3, -1488550.9, -13474.324, 0.017852131, -0.015122144, -1353871.1, 98901.08, 0.0, 5.048855, 4.9621243 
5.1982534e+2, 1.5671809e+2, -1315219.6, -1446310.6, -13832.863, 0.017628586, -0.022298275, -1313775.9, 90372.016, 0.0, 5.0462914, 4.9611273 
5.197605e+2, 1.6167754e+2, -1277060.3, -1408660.1, -18882.193, 0.016598992, -0.020545226, -1274404.5, 81139.766, 0.0, 5.0438185, 4.958576 
5.196915e+2, 1.6663694e+2, -1234314.8, -1361291.1, -19836.781, 0.016870031, -0.019007677, -1231287.9, 75654.914, 0.0, 5.041368, 4.9592047 
5.196225e+2, 1.7159642e+2, -1192462.1, -1315784.0, -20070.416, 0.01734015, -0.01730876, -1189277.9, 69062.63, 0.0, 5.0389104, 4.9591956 
5.195535e+2, 1.765559e+2, -1151682.5, -1272597.9, -20271.363, 0.017786149, -0.01525574, -1148374.5, 61363.87, 0.0, 5.0364523, 4.9583945 
5.194829e+2, 1.8151307e+2, -1113349.9, -1235069.1, -23129.195, 0.018146161, -0.0076141655, -1109103.0, 52055.45, 0.0, 5.0340447, 4.9556594 
5.194098e+2, 1.8646927e+2, -1069931.0, -1186563.5, -23901.316, 0.017593589, -0.012192988, -1065222.9, 47364.74, 0.0, 5.0316286, 4.956592 
5.193365e+2, 1.9142555e+2, -1027820.75, -1140820.3, -24164.643, 0.01685177, -0.017066095, -1022870.06, 41145.98, 0.0, 5.0292006, 4.956584 
5.192633e+2, 1.9638184e+2, -986576.25, -1096957.9, -24405.105, 0.016038718, -0.021577872, -981421.06, 34023.3, 0.0, 5.0267677, 4.9559264 
5.191893e+2, 2.013364e+2, -948394.56, -1059837.3, -25720.443, 0.012726046, -0.015396794, -942744.8, 24145.39, 0.0, 5.0243464, 4.952956 
5.1911384e+2, 2.0629044e+2, -904600.06, -1010903.6, -26284.893, 0.009313154, -0.015046984, -898455.9, 19886.154, 0.0, 5.021979, 4.9539523 
5.190384e+2, 2.1124452e+2, -862124.1, -964893.25, -26416.658, 0.006383996, -0.015432326, -855731.4, 14062.069, 0.0, 5.0196157, 4.9539394 
5.1896304e+2, 2.161986e+2, -820274.8, -920296.94, -26536.043, 0.0034727065, -0.015765995, -813670.8, 7574.271, 0.0, 5.017252, 4.953428 
5.188879e+2, 2.2115049e+2, -782732.1, -885231.9, -26189.38, 0.00073924084, -0.0057615642, -776428.3, -3710.0176, 0.0, 5.0149097, 4.9496007 
5.188129e+2, 2.2610174e+2, -738114.75, -834385.1, -26433.22, -0.004912783, -0.005474791, -731334.44, -7136.414, 0.0, 5.012505, 4.951202 
5.187378e+2, 2.3105319e+2, -695680.9, -788229.2, -26655.621, -0.0111712, -0.0059387875, -688552.56, -12876.579, 0.0, 5.010071, 4.9512033 
5.186627e+2, 2.3600465e+2, -653905.06, -743498.56, -26856.826, -0.0176175, -0.006129139, -646471.2, -19317.434, 0.0, 5.007622, 4.950703 
5.1858854e+2, 2.4095395e+2, -616917.6, -709070.7, -25265.611, -0.024222374, 0.005396171, -610445.1, -31791.74, 0.0, 5.005119, 4.9466205 
5.185167e+2, 2.4590254e+2, -572691.0, -658679.7, -24879.555, -0.026853828, 0.009594924, -566011.4, -35849.38, 0.0, 5.0026016, 4.9480567 
5.18445e+2, 2.5085118e+2, -530281.56, -612479.4, -24928.293, -0.028759701, 0.012463306, -523312.38, -41642.277, 0.0, 5.000093, 4.94804 
5.1837337e+2, 2.5579983e+2, -488083.53, -566808.06, -24961.8, -0.030703457, 0.015360805, -480835.94, -47657.6, 0.0, 4.9975824, 4.947824 
5.183033e+2, 2.6074603e+2, -451555.7, -533296.4, -21991.756, -0.03221851, 0.031206777, -446014.6, -61306.18, 0.0, 4.9949884, 4.9433274 
5.182371e+2, 2.656915e+2, -405683.47, -477872.56, -21130.004, -0.031613674, 0.020691754, -399953.47, -63714.42, 0.0, 4.9922047, 4.9465575 
5.1817125e+2, 2.706371e+2, -363916.84, -431754.2, -21356.578, -0.030739343, 0.00591369, -357753.34, -69985.15, 0.0, 4.989403, 4.9465647 
5.181054e+2, 2.7558267e+2, -322182.56, -385741.16, -21578.926, -0.02988078, -0.008776653, -315548.66, -76251.49, 0.0, 4.9865913, 4.9465246 
5.180415e+2, 2.805239e+2, -293751.03, -369356.7, -17439.96, -0.029487886, -0.005632543, -289922.06, -99051.85, 0.0, 4.9836745, 4.9360595 
5.179825e+2, 2.8546378e+2, -249819.28, -317300.8, -15430.832, -0.031177226, 0.011169445, -246458.16, -103994.84, 0.0, 4.9806495, 4.9381394 
5.1792383e+2, 2.9040402e+2, -208336.58, -271155.9, -15029.216, -0.033125322, 0.028400172, -204926.08, -110872.42, 0.0, 4.977638, 4.938142 
5.1786524e+2, 2.9534423e+2, -166784.25, -224954.86, -14625.884, -0.035174347, 0.045644395, -163313.89, -117669.93, 0.0, 4.974627, 4.9381447 
5.178084e+2, 3.0030298e+2, -102589.66, -92841.555, -8960.6875, -0.04462084, 0.07973955, -87515.1, -87515.1, 0.0, 4.9715137, 4.9779344 
5.1775986e+2, 3.052847e+2, -100143.29, -68346.59, -4653.317, -0.057128154, 0.019730164, -67679.59, -67679.59, 0.0, 4.9678373, 4.988166 
5.177127e+2, 3.102663e+2, -110378.84, -72704.99, -3757.5857, -0.067106195, -0.06712157, -72333.87, -72333.87, 0.0, 4.963946, 4.9882154 
5.1766557e+2, 3.1524763e+2, -120862.79, -77248.49, -2931.993, -0.07843668, -0.15831132, -77052.27, -77052.27, 0.0, 4.959938, 4.988264 
5.2529466e+2, 1.2203078e+2, -1583295.3, -1741953.8, 4933.8486, 0.0045439345, 0.0038058339, -1583142.0, 160945.36, 0.0, 5.0694823, 4.965148 
5.2523625e+2, 1.2699282e+2, -1545228.0, -1701801.6, -863.92584, -0.019686773, -0.011034943, -1545223.3, 150237.45, 0.0, 5.066514, 4.96381 
5.2518106e+2, 1.3195647e+2, -1505163.8, -1657409.3, -1359.1018, -0.0054519344, -0.010665688, -1505151.5, 141666.64, 0.0, 5.0635743, 4.9638047 
5.251258e+2, 1.369201e+2, -1467276.0, -1617608.9, -1949.2129, 0.008735429, -0.009043532, -1467250.8, 130925.27, 0.0, 5.060637, 4.9622617 
5.250667e+2, 1.4188191e+2, -1428486.5, -1576721.6, -7773.8164, 0.019879809, 0.0033385828, -1428080.0, 121470.125, 0.0, 5.057775, 4.9609904 
5.250021e+2, 1.46843e+2, -1386853.5, -1529519.9, -8550.865, 0.02053665, -0.0037865648, -1386342.8, 114587.016, 0.0, 5.054896, 4.9618354 
5.2493757e+2, 1.5180407e+2, -1346436.9, -1484849.9, -8856.318, 0.020488389, -0.011751635, -1345872.5, 106437.09, 0.0, 5.0520124, 4.9618244 
5.2487296e+2, 1.5676512e+2, -1307381.9, -1443099.6, -9187.987, 0.020374846, -0.019301018, -1306762.8, 96926.72, 0.0, 5.0491304, 4.960822 
5.248055e+2, 1.617242e+2, -1269772.3, -1405254.8, -14088.742, 0.019524595, -0.018331237, -1268322.8, 86766.61, 0.0, 5.046365, 4.9584804 
5.2473396e+2, 1.6668332e+2, -1227701.3, -1358186.5, -14890.952, 0.02018778, -0.01787926, -1226023.5, 80466.14, 0.0, 5.043679, 4.9591255 
5.246624e+2, 1.7164253e+2, -1186536.5, -1313027.6, -15008.69, 0.021082755, -0.017174557, -1184780.1, 73109.02, 0.0, 5.0409894, 4.9591146 
5.2459085e+2, 1.7660177e+2, -1146437.8, -1270184.6, -15085.99, 0.021990579, -0.016032318, -1144625.3, 64663.375, 0.0, 5.0383005, 4.9583106 
5.245177e+2, 1.8155873e+2, -1108793.8, -1233008.9, -17785.078, 0.022592671, -0.008620357, -1106297.4, 54412.613, 0.0, 5.035657, 4.9555707 
5.24442e+2, 1.8651474e+2, -1066141.9, -1184936.8, -18424.832, 0.02218063, -0.013003718, -1063349.9, 48791.28, 0.0, 5.03299, 4.956477 
5.243662e+2, 1.9147082e+2, -1024740.06, -1139534.9, -18566.111, 0.021672372, -0.017864248, -1021812.0, 41759.613, 0.0, 5.0303173, 4.9564695 
5.2429044e+2, 1.9642687e+2, -984182.6, -1096001.1, -18684.54, 0.021169174, -0.022524985, -981143.06, 33859.05, 0.0, 5.027646, 4.955813 
5.242139e+2, 2.0138115e+2, -946472.94, -1058739.1, -19896.482, 0.01869804, -0.017697455, -943051.06, 23399.307, 0.0, 5.0249877, 4.9530015 
5.2413607e+2, 2.0633502e+2, -903300.25, -1010161.25, -20344.273, 0.015712868, -0.01819132, -899558.2, 18345.088, 0.0, 5.022422, 4.953971 
5.2405816e+2, 2.1128899e+2, -861386.56, -964412.4, -20409.865, 0.013010111, -0.019006705, -857490.6, 11864.778, 0.0, 5.019866, 4.953958 
5.239803e+2, 2.1624294e+2, -820096.1, -920073.9, -20455.068, 0.010296097, -0.0196494, -816073.0, 4734.6084, 0.0, 5.0173106, 4.953446 
5.239028e+2, 2.2119485e+2, -783253.25, -885259.44, -19938.246, 0.0073320186, -0.008677197, -779494.6, -7214.399, 0.0, 5.0147147, 4.9496474 
5.238253e+2, 2.2614604e+2, -739520.4, -834942.44, -19976.926, 0.0028616528, -0.007923523, -735506.94, -11746.34, 0.0, 5.0120153, 4.951199 
5.237478e+2, 2.3109733e+2, -697833.06, -789152.06, -19978.545, -0.0016764589, -0.008703683, -693653.5, -18413.322, 0.0, 5.0093102, 4.9511943 
5.2367043e+2, 2.3604858e+2, -656754.4, -744762.8, -19961.432, -0.0061380505, -0.009753814, -652438.56, -25718.523, 0.0, 5.006606, 4.9506884 
5.235938e+2, 2.4099758e+2, -620118.4, -709980.25, -18239.24, -0.010786675, -0.00082912605, -616557.44, -38335.047, 0.0, 5.0038776, 4.94683 
5.2351916e+2, 2.4594618e+2, -576613.2, -659877.75, -17725.879, -0.014195629, 0.002433238, -572996.7, -43265.926, 0.0, 5.0011096, 4.9482784 
5.234447e+2, 2.508949e+2, -534954.75, -613983.75, -17628.205, -0.017284116, 0.0051057935, -531200.94, -49963.016, 0.0, 4.99834, 4.9482675 
5.233703e+2, 2.558436e+2, -493499.16, -568610.2, -17521.482, -0.020398801, 0.007830781, -489612.9, -56867.734, 0.0, 4.995572, 4.948058 
5.2329737e+2, 2.6078993e+2, -457971.22, -535958.56, -14356.133, -0.022969276, 0.02441252, -455412.47, -71138.23, 0.0, 4.9927177, 4.9433727 
5.232283e+2, 2.657355e+2, -412743.2, -481118.97, -13300.543, -0.02244433, 0.01677118, -410247.1, -74441.88, 0.0, 4.9897547, 4.9464746 
5.2315956e+2, 2.7068114e+2, -371403.94, -435201.84, -13322.551, -0.02145923, 0.0048350627, -368733.63, -81398.51, 0.0, 4.9867983, 4.9464755 
5.230909e+2, 2.7562678e+2, -330071.06, -389369.0, -13342.73, -0.02042753, -0.0072406563, -327207.13, -88342.04, 0.0, 4.9838433, 4.946429 
5.230241e+2, 2.8056818e+2, -301470.88, -371643.88, -9058.489, -0.019194609, -0.0022923623, -300320.38, -109882.336, 0.0, 4.9807696, 4.9365034 
5.229621e+2, 2.855083e+2, -258142.63, -319204.1, -7041.156, -0.017987251, 0.011807644, -257341.2, -115312.17, 0.0, 4.977416, 4.938859 
5.229005e+2, 2.9044876e+2, -217699.1, -273508.6, -6566.6167, -0.016781427, 0.02572369, -216936.86, -123319.445, 0.0, 4.974042, 4.9388566 
5.22839e+2, 2.9538926e+2, -177196.48, -227754.72, -6095.2573, -0.015564855, 0.03975763, -176472.03, -131266.23, 0.0, 4.970668, 4.9388547 
5.227791e+2, 3.003484e+2, -113247.164, -94022.805, -905.69073, -0.02148406, 0.06892173, -93980.23, -93980.23, 0.0, 4.9671173, 4.9794164 
5.2272755e+2, 3.0533186e+2, -112416.95, -70223.26, 2337.0425, -0.024696207, 0.014344806, -70094.2, -70094.2, 0.0, 4.9628944, 4.989684 
5.226774e+2, 3.103156e+2, -123861.18, -74879.516, 2198.034, -0.022139149, -0.062288295, -74781.08, -74781.08, 0.0, 4.958583, 4.989829 
5.226275e+2, 3.152993e+2, -135378.73, -79662.31, 2034.2783, -0.018524485, -0.1427029, -79588.14, -79588.14, 0.0, 4.954225, 4.9899745 
5.3036433e+2, 1.2208584e+2, -1583291.5, -1742064.6, 1425.1895, 0.008161638, 0.019673295, -1583278.8, 160271.27, 0.0, 5.069483, 4.965121 
5.303017e+2, 1.270452e+2, -1546012.9, -1703689.6, -3053.8203, -0.028097834, -0.016182078, -1545953.8, 148995.52, 0.0, 5.066543, 4.963188 
5.302439e+2, 1.320086e+2, -1505943.4, -1659291.4, -3547.7498, -0.009744732, -0.012132606, -1505861.4, 140447.92, 0.0, 5.0636034, 4.963184 
5.301861e+2, 1.3697197e+2, -1468053.8, -1619493.5, -4144.186, 0.008492612, -0.0068342397, -1467940.4, 129729.16, 0.0, 5.060666, 4.961639 
5.3012425e+2, 1.419335e+2, -1428889.3, -1577807.1, -9955.063, 0.021979228, 0.007566953, -1428226.6, 120819.98, 0.0, 5.0578017, 4.9606347 
5.300569e+2, 1.4689425e+2, -1387245.5, -1530585.1, -10706.993, 0.02283961, 0.0004857368, -1386450.1, 113979.86, 0.0, 5.0549226, 4.9614854 
5.299894e+2, 1.5185498e+2, -1346824.0, -1485914.1, -11013.144, 0.02301309, -0.0073959148, -1345957.4, 105855.88, 0.0, 5.05204, 4.9614744 
5.29922e+2, 1.568157e+2, -1307769.6, -1444175.0, -11351.413, 0.02311248, -0.014858469, -1306831.4, 96365.43, 0.0, 5.0491595, 4.9604673 
5.298517e+2, 1.6177446e+2, -1269828.4, -1405632.0, -16166.001, 0.022546126, -0.014440158, -1267930.5, 86669.0, 0.0, 5.0463934, 4.9583597 
5.2977747e+2, 1.6673332e+2, -1227723.0, -1358487.9, -16918.17, 0.023482718, -0.015597782, -1225569.6, 80431.61, 0.0, 5.0437074, 4.95903 
5.2970326e+2, 1.716923e+2, -1186558.5, -1313329.0, -17036.094, 0.024624987, -0.016506441, -1184309.0, 73093.125, 0.0, 5.041017, 4.959019 
5.2962905e+2, 1.7665125e+2, -1146460.8, -1270487.6, -17114.207, 0.02576878, -0.016964152, -1144142.5, 64660.613, 0.0, 5.038328, 4.9582148 
5.2955323e+2, 1.8160811e+2, -1108797.9, -1233281.3, -19810.008, 0.026207503, -0.0101129385, -1105721.4, 54503.86, 0.0, 5.035686, 4.955487 
5.294748e+2, 1.8656406e+2, -1066189.0, -1185302.6, -20443.322, 0.025380418, -0.013853581, -1062778.0, 48878.797, 0.0, 5.033019, 4.956362 
5.293963e+2, 1.9152007e+2, -1024786.44, -1139900.5, -20584.719, 0.02447579, -0.018064678, -1021216.2, 41871.766, 0.0, 5.030347, 4.956354 
5.293178e+2, 1.9647607e+2, -984228.1, -1096366.3, -20702.984, 0.023567447, -0.022053204, -980528.06, 33991.066, 0.0, 5.0276756, 4.9556975 
5.292387e+2, 2.0143022e+2, -946327.0, -1058801.1, -21894.979, 0.021749081, -0.017909016, -942215.06, 23753.426, 0.0, 5.0250325, 4.952983 
5.2915835e+2, 2.0638399e+2, -903168.44, -1010271.6, -22279.162, 0.019633388, -0.01934979, -898718.9, 18703.197, 0.0, 5.022469, 4.9539356 
5.29078e+2, 2.1133786e+2, -861263.2, -964526.25, -22340.969, 0.01754823, -0.020800117, -856636.94, 12237.63, 0.0, 5.0199113, 4.9539227 
5.289976e+2, 2.1629171e+2, -819981.2, -920191.2, -22382.188, 0.015382277, -0.021999184, -815209.3, 5117.852, 0.0, 5.017353, 4.953411 
5.289175e+2, 2.2124371e+2, -782926.25, -884886.06, -21966.746, 0.012328662, -0.010806022, -778395.0, -6596.458, 0.0, 5.014754, 4.9497833 
5.2883744e+2, 2.2619498e+2, -739297.94, -834781.75, -22035.395, 0.009238052, -0.010157886, -734458.0, -11179.738, 0.0, 5.0120516, 4.951265 
5.287575e+2, 2.3114629e+2, -697618.94, -788999.06, -22032.977, 0.0063714893, -0.011094995, -692583.94, -17826.438, 0.0, 5.009345, 4.951259 
5.286775e+2, 2.3609757e+2, -656548.56, -744617.56, -22011.617, 0.0035375284, -0.012208374, -651353.5, -25116.59, 0.0, 5.006639, 4.950752 
5.2859837e+2, 2.4104655e+2, -619743.56, -709476.56, -20357.951, 0.00014912318, -0.0047778515, -615340.94, -37601.363, 0.0, 5.003915, 4.94701 
5.285209e+2, 2.4599521e+2, -576217.94, -659323.56, -19866.443, -0.004264915, -0.0027126276, -571713.06, -42466.57, 0.0, 5.001146, 4.948478 
5.2844346e+2, 2.5094405e+2, -534573.75, -613441.56, -19760.715, -0.008692955, -0.00064640865, -529899.6, -49147.945, 0.0, 4.9983735, 4.9484653 
5.2836615e+2, 2.558929e+2, -493132.22, -568080.0, -19645.863, -0.013182415, 0.001560418, -488294.75, -56037.84, 0.0, 4.9956026, 4.948254 
5.282903e+2, 2.6083943e+2, -457596.88, -535395.6, -16599.78, -0.016786145, 0.01814915, -454203.06, -70419.445, 0.0, 4.9927464, 4.94358 
5.2821827e+2, 2.6578543e+2, -412552.5, -480966.5, -15591.342, -0.016226593, 0.013562614, -409166.84, -73854.375, 0.0, 4.989783, 4.9465413 
5.281466e+2, 2.7073148e+2, -371217.22, -435054.25, -15606.965, -0.0151950475, 0.0052458304, -367605.9, -80765.59, 0.0, 4.9868255, 4.9465413 
5.28075e+2, 2.756775e+2, -329888.34, -389226.3, -15620.754, -0.014141884, -0.0032044717, -326027.38, -87659.13, 0.0, 4.98387, 4.946493 
5.280052e+2, 2.806193e+2, -300697.22, -370127.2, -11540.037, -0.012519918, 0.0036258784, -298829.38, -108890.7, 0.0, 4.980793, 4.9370446 
5.2794e+2, 2.855597e+2, -257229.64, -317348.44, -9670.209, -0.010020186, 0.014254055, -255712.47, -114186.016, 0.0, 4.977435, 4.9395266 
5.278752e+2, 2.905005e+2, -216801.95, -271669.1, -9189.598, -0.007588622, 0.024495551, -215303.7, -122192.07, 0.0, 4.974057, 4.9395223 
5.2781045e+2, 2.954412e+2, -176315.08, -225931.22, -8712.174, -0.0052175457, 0.034936048, -174829.77, -130133.01, 0.0, 4.970679, 4.939518 
5.2774733e+2, 3.0040073e+2, -111895.266, -91100.49, -3907.2231, -0.009368835, 0.05889442, -90390.58, -90390.58, 0.0, 4.967123, 4.9805126 
5.2769226e+2, 3.053857e+2, -111411.266, -68536.29, -875.74207, -0.008293792, 0.014169529, -68518.41, -68518.41, 0.0, 4.9629593, 4.990361 
5.276386e+2, 3.103712e+2, -122608.82, -73198.43, -883.43005, -0.0018861932, -0.0479878, -73182.64, -73182.64, 0.0, 4.958734, 4.990474 
5.2758515e+2, 3.153565e+2, -133760.31, -77935.77, -967.9218, 0.00510021, -0.11470164, -77918.99, -77918.99, 0.0, 4.9545045, 4.990587 
5.354329e+2, 1.22139744e+2, -1583473.9, -1742586.9, -1730.1987, 0.0015406929, 0.023897784, -1583455.1, 159568.77, 0.0, 5.0694895, 4.9649577 
5.353671e+2, 1.2709759e+2, -1546797.5, -1705578.6, -5243.877, -0.036508556, -0.021219978, -1546624.5, 147813.39, 0.0, 5.066573, 4.962566 
5.353067e+2, 1.3206074e+2, -1506722.8, -1661174.5, -5736.56, -0.014042011, -0.013505415, -1506510.0, 139290.33, 0.0, 5.063634, 4.962562 
5.352464e+2, 1.3702385e+2, -1468831.1, -1621379.1, -6339.47, 0.008240508, -0.004545919, -1468568.1, 128594.914, 0.0, 5.060697, 4.9610157 
5.351818e+2, 1.4198509e+2, -1429297.1, -1578908.3, -12139.98, 0.02403766, 0.011800254, -1428318.5, 120224.68, 0.0, 5.0578294, 4.9602737 
5.351116e+2, 1.4694549e+2, -1387635.9, -1531652.3, -12861.358, 0.025103746, 0.004743009, -1386496.4, 113433.83, 0.0, 5.05495, 4.9611354 
5.3504133e+2, 1.5190588e+2, -1347209.8, -1486980.3, -13168.207, 0.025501445, -0.00307237, -1345979.9, 105337.2, 0.0, 5.0520687, 4.9611235 
5.34971e+2, 1.5686624e+2, -1308155.6, -1445252.3, -13513.131, 0.025816234, -0.010465211, -1306836.4, 95867.836, 0.0, 5.0491896, 4.960112 
5.3489786e+2, 1.618247e+2, -1269887.5, -1406021.3, -18244.316, 0.025585184, -0.010527322, -1267484.8, 86624.875, 0.0, 5.046423, 4.958235 
5.34821e+2, 1.6678332e+2, -1227743.1, -1358791.4, -18945.074, 0.026801407, -0.013302342, -1225059.3, 80453.67, 0.0, 5.0437365, 4.958934 
5.347441e+2, 1.7174205e+2, -1186578.8, -1313632.5, -19063.184, 0.028192012, -0.015846517, -1183780.1, 73135.055, 0.0, 5.041046, 4.958923 
5.3466725e+2, 1.7670076e+2, -1146481.9, -1270792.6, -19142.043, 0.029572815, -0.017926289, -1143601.0, 64716.613, 0.0, 5.0383573, 4.958118 
5.3458875e+2, 1.8165746e+2, -1108803.0, -1233561.9, -21833.58, 0.029822808, -0.011610465, -1105092.4, 54648.02, 0.0, 5.035716, 4.9553995 
5.345076e+2, 1.8661337e+2, -1066234.4, -1185670.6, -22461.445, 0.028569171, -0.014742015, -1062149.9, 49022.695, 0.0, 5.0330496, 4.9562454 
5.344264e+2, 1.9156931e+2, -1024831.0, -1140268.1, -22602.957, 0.027258305, -0.018340457, -1020563.06, 42041.332, 0.0, 5.0303774, 4.956238 
5.343452e+2, 1.9652528e+2, -984271.9, -1096733.5, -22721.06, 0.025934964, -0.02169348, -979854.94, 34181.227, 0.0, 5.027706, 4.955581 
5.342635e+2, 2.0147932e+2, -946204.25, -1058918.0, -23874.645, 0.024767088, -0.017987678, -941355.75, 24130.84, 0.0, 5.025079, 4.952945 
5.3418064e+2, 2.0643295e+2, -903036.6, -1010382.4, -24214.783, 0.023490671, -0.020339692, -897827.1, 19113.602, 0.0, 5.022517, 4.9538994 
5.340978e+2, 2.1138674e+2, -861139.9, -964640.5, -24272.807, 0.022020074, -0.022492256, -855730.2, 12663.525, 0.0, 5.019957, 4.9538865 
5.3401494e+2, 2.1634051e+2, -819866.3, -920308.94, -24310.043, 0.020399153, -0.024314845, -814291.94, 5554.6914, 0.0, 5.017397, 4.953375 
5.3393227e+2, 2.2129259e+2, -782613.7, -884548.3, -23995.615, 0.017351223, -0.012895613, -777247.56, -5930.6987, 0.0, 5.014794, 4.9499073 
5.3384966e+2, 2.262439e+2, -739074.4, -834622.75, -24092.98, 0.015716342, -0.012479376, -733343.0, -10546.9795, 0.0, 5.012089, 4.951329 
5.3376716e+2, 2.3119526e+2, -697403.7, -788847.94, -24086.531, 0.014548939, -0.013713748, -691447.25, -17172.326, 0.0, 5.0093803, 4.951322 
5.336847e+2, 2.3614657e+2, -656341.56, -744474.0, -24060.932, 0.013370162, -0.015030385, -650200.6, -24446.617, 0.0, 5.006673, 4.950814 
5.3360295e+2, 2.4109551e+2, -619438.7, -709134.3, -22461.945, 0.010944795, -0.008474804, -614128.1, -36871.438, 0.0, 5.003953, 4.9471335 
5.3352255e+2, 2.4604426e+2, -575821.6, -658771.5, -22006.193, 0.005447773, -0.0074903215, -570345.1, -41583.082, 0.0, 5.0011835, 4.948675 
5.3344226e+2, 2.5099325e+2, -534191.6, -612901.6, -21892.416, -0.00024812118, -0.0062677907, -528512.25, -48246.977, 0.0, 4.9984083, 4.9486604 
5.333619e+2, 2.559422e+2, -492764.22, -567552.0, -21769.443, -0.0060408222, -0.004815939, -486889.03, -55120.45, 0.0, 4.995634, 4.948447 
5.332832e+2, 2.6088896e+2, -457285.6, -534981.9, -18840.852, -0.010667507, 0.012151562, -452957.84, -69665.0, 0.0, 4.992776, 4.9437346 
5.3320825e+2, 2.6583534e+2, -412359.8, -480816.6, -17881.893, -0.010049558, 0.010714465, -407970.25, -73150.73, 0.0, 4.989812, 4.9466057 
5.331336e+2, 2.707818e+2, -371028.5, -434909.28, -17891.135, -0.008916947, 0.0057980446, -366359.03, -80013.61, 0.0, 4.986854, 4.9466043 
5.3305906e+2, 2.757282e+2, -329703.56, -389086.2, -17898.533, -0.007787826, 0.0007547016, -324725.97, -86854.57, 0.0, 4.983898, 4.946555 
5.3298634e+2, 2.806704e+2, -299975.9, -368733.53, -14021.971, -0.0058118566, 0.009460938, -297226.3, -107786.87, 0.0, 4.980818, 4.9375424 
5.329179e+2, 2.8561115e+2, -256317.8, -315493.13, -12296.396, -0.0020929947, 0.016519416, -253864.38, -112840.21, 0.0, 4.9774556, 4.940191 
5.3284985e+2, 2.905521e+2, -215905.89, -269829.88, -11809.718, 0.001536227, 0.022857811, -213432.9, -120826.6, 0.0, 4.974074, 4.9401846 
5.3278184e+2, 2.9549313e+2, -175434.75, -224108.0, -11326.236, 0.005033774, 0.029476918, -172928.22, -128739.914, 0.0, 4.970692, 4.940179 
5.327154e+2, 3.004529e+2, -110827.64, -88820.484, -6899.6294, 0.002516149, 0.04846779, -86836.234, -86836.234, 0.0, 4.9671297, 4.9813585 
5.3265697e+2, 3.0543926e+2, -110458.52, -66867.04, -4019.4014, 0.007782785, 0.011251736, -66499.52, -66499.52, 0.0, 4.9630103, 4.990993 
5.325999e+2, 3.1042635e+2, -121490.67, -71569.914, -3888.6785, 0.018036505, -0.039921585, -71268.81, -71268.81, 0.0, 4.958842, 4.9910736 
5.3254294e+2, 3.1541318e+2, -132476.63, -76347.91, -3834.985, 0.028386192, -0.09642318, -76087.09, -76087.09, 0.0, 4.9546685, 4.9911547 
5.4050124e+2, 1.2219215e+2, -1582730.8, -1742929.4, -2535.5615, -0.0068360604, 0.011322661, -1582690.6, 159822.11, 0.0, 5.069905, 4.9646373 
5.404326e+2, 1.2715046e+2, -1546232.3, -1706551.5, -5764.231, -0.044152945, -0.023539634, -1546025.3, 147896.81, 0.0, 5.0670414, 4.962015 
5.4036963e+2, 1.3211326e+2, -1506313.4, -1662232.6, -6158.3286, -0.018071068, -0.013554, -1506070.5, 139217.36, 0.0, 5.0640492, 4.962009 
5.4030675e+2, 1.3707605e+2, -1468600.1, -1622539.5, -6673.741, 0.007892677, -0.0022146925, -1468311.4, 128342.57, 0.0, 5.0610533, 4.9604573 
5.402394e+2, 1.4203694e+2, -1428839.6, -1579413.5, -12371.194, 0.025871862, 0.015352335, -1427829.9, 120207.49, 0.0, 5.058139, 4.95996 
5.401663e+2, 1.4699702e+2, -1387228.5, -1532168.8, -13010.862, 0.027231742, 0.008510697, -1386069.9, 113357.68, 0.0, 5.055238, 4.960829 
5.400931e+2, 1.5195711e+2, -1346858.9, -1487534.6, -13277.859, 0.028006021, 0.0009457454, -1345616.5, 105201.16, 0.0, 5.0523376, 4.960814 
5.400201e+2, 1.5691715e+2, -1307858.5, -1445852.0, -13591.853, 0.028748088, -0.006213859, -1306532.5, 95675.664, 0.0, 5.0494423, 4.9597955 
5.399442e+2, 1.6187534e+2, -1269343.8, -1406064.3, -18253.135, 0.029016824, -0.0066016917, -1266948.9, 86667.37, 0.0, 5.0466604, 4.9581156 
5.3986454e+2, 1.6683367e+2, -1227336.3, -1358842.6, -18987.703, 0.03047946, -0.01107927, -1224649.5, 80371.8, 0.0, 5.043915, 4.958841 
5.3978497e+2, 1.717921e+2, -1186349.5, -1313768.0, -19186.592, 0.032086797, -0.015371433, -1183523.0, 72902.49, 0.0, 5.041164, 4.9588304 
5.397054e+2, 1.7675053e+2, -1146428.0, -1271011.4, -19343.324, 0.033677295, -0.019197721, -1143493.9, 64335.957, 0.0, 5.0384145, 4.9580264 
5.396242e+2, 1.8170708e+2, -1108892.0, -1233815.8, -22083.338, 0.0336697, -0.01345312, -1105103.1, 54150.355, 0.0, 5.0357184, 4.9553246 
5.3954035e+2, 1.8666293e+2, -1066431.3, -1186050.6, -22747.848, 0.031862758, -0.015815571, -1062251.5, 48434.81, 0.0, 5.033028, 4.956139 
5.394564e+2, 1.9161882e+2, -1025084.25, -1140683.1, -22938.025, 0.030054837, -0.018678801, -1020699.06, 41419.582, 0.0, 5.0303354, 4.9561296 
5.3937256e+2, 1.9657469e+2, -984578.0, -1097181.1, -23108.027, 0.028263161, -0.021322155, -980020.3, 33530.76, 0.0, 5.027645, 4.9554706 
5.392883e+2, 2.0152861e+2, -946485.9, -1059217.5, -24274.912, 0.02776338, -0.017762758, -941480.9, 23521.734, 0.0, 5.0249925, 4.9528966 
5.392029e+2, 2.0648211e+2, -903589.5, -1010753.8, -24657.701, 0.027605122, -0.021200161, -898188.2, 18269.469, 0.0, 5.022325, 4.9538746 
5.391176e+2, 2.1143577e+2, -862058.8, -965174.56, -24762.834, 0.027120264, -0.02441979, -856420.44, 11491.039, 0.0, 5.019637, 4.953864 
5.390323e+2, 2.163894e+2, -821197.25, -921026.44, -24834.709, 0.02644953, -0.027300686, -815360.3, 4004.832, 0.0, 5.016934, 4.9533544 
5.38947e+2, 2.2134154e+2, -784105.44, -885003.0, -24633.63, 0.023754863, -0.015895916, -778412.44, -7577.88, 0.0, 5.0142093, 4.9500356 
5.388618e+2, 2.2629292e+2, -740645.75, -835244.06, -24815.756, 0.023335949, -0.015397536, -734531.1, -12218.237, 0.0, 5.0115023, 4.951402 
5.387768e+2, 2.3124433e+2, -698972.44, -789477.9, -24874.36, 0.023598911, -0.016655682, -692586.6, -18795.332, 0.0, 5.0087953, 4.9513917 
5.386918e+2, 2.361957e+2, -657919.0, -745116.44, -24916.07, 0.023857249, -0.017984742, -651301.6, -26031.773, 0.0, 5.0060854, 4.9508796 
5.386075e+2, 2.4114464e+2, -620984.7, -709744.7, -23419.139, 0.021933163, -0.011516934, -615184.56, -38412.34, 0.0, 5.0033727, 4.9472027 
5.3852415e+2, 2.4609345e+2, -577061.56, -658952.0, -23128.416, 0.015278824, -0.011716274, -570980.94, -42704.563, 0.0, 5.000651, 4.9488683 
5.3844094e+2, 2.510425e+2, -535310.7, -613022.94, -23112.547, 0.008421857, -0.011793589, -528956.3, -49178.117, 0.0, 4.9979167, 4.948855 
5.3835773e+2, 2.5599155e+2, -493793.97, -567629.3, -23066.346, 0.001462146, -0.011560392, -487180.38, -55900.453, 0.0, 4.9951735, 4.9486423 
5.382761e+2, 2.6093856e+2, -458411.88, -535318.06, -20314.297, -0.004120173, 0.006038793, -453375.78, -70573.92, 0.0, 4.992323, 4.943838 
5.381982e+2, 2.6588535e+2, -413722.72, -481364.53, -19499.68, -0.0034365407, 0.007985734, -408504.03, -74177.71, 0.0, 4.989294, 4.9466634 
5.381206e+2, 2.7083215e+2, -372616.78, -435559.53, -19601.29, -0.0021745856, 0.0064254943, -367011.78, -81161.53, 0.0, 4.986256, 4.946661 
5.380431e+2, 2.7577898e+2, -331540.25, -389847.25, -19703.916, -0.00094434264, 0.0047152517, -325506.1, -88131.82, 0.0, 4.9832115, 4.9466114 
5.379674e+2, 2.8072155e+2, -301602.72, -368477.78, -16128.513, 0.0013067707, 0.015355581, -297916.16, -108976.09, 0.0, 4.9800315, 4.9379954 
5.3789574e+2, 2.856625e+2, -257960.72, -314759.94, -14633.3125, 0.006127064, 0.018610306, -254412.38, -113890.27, 0.0, 4.976571, 4.9408536 
5.3782445e+2, 2.9060373e+2, -217790.58, -269206.03, -14215.047, 0.010877992, 0.020725649, -214122.22, -122020.76, 0.0, 4.973103, 4.9408464 
5.377532e+2, 2.9554498e+2, -177495.73, -223564.64, -13784.521, 0.0154187055, 0.023254713, -173686.22, -130005.67, 0.0, 4.969658, 4.940839 
5.376835e+2, 3.0050492e+2, -113239.47, -88537.016, -9757.873, 0.014345319, 0.037550677, -85147.56, -85147.56, 0.0, 4.9659824, 4.981961 
5.376217e+2, 3.0549255e+2, -113647.41, -66957.05, -6956.3296, 0.02367396, 0.0055158464, -65942.67, -65942.67, 0.0, 4.9615674, 4.9915833 
5.3756124e+2, 3.104811e+2, -122434.62, -70816.63, -6443.9224, 0.037648566, -0.03819751, -70024.336, -70024.336, 0.0, 4.9582086, 4.9916286 
5.3750086e+2, 3.154693e+2, -131355.81, -74819.016, -6550.2666, 0.051343057, -0.087974384, -74070.03, -74070.03, 0.0, 4.9547787, 4.991678 
5.455738e+2, 1.2225041e+2, -1569229.3, -1736483.5, 3363.9282, -0.0028019103, -0.01144146, -1569161.6, 172784.28, 0.0, 5.074615, 4.964442 
5.45501e+2, 1.2721184e+2, -1533624.6, -1700870.6, -1391.1521, -0.050593648, -0.010900801, -1533613.0, 159711.58, 0.0, 5.0715117, 4.9616914 
5.454352e+2, 1.321737e+2, -1494513.8, -1656973.1, -1712.9994, -0.021774136, -0.006091694, -1494495.6, 150203.89, 0.0, 5.0682516, 4.9616847 
5.453694e+2, 1.3713557e+2, -1457580.3, -1617687.4, -2150.9353, 0.0069654975, 0.00018151043, -1457551.4, 138523.2, 0.0, 5.064995, 4.960131 
5.4529905e+2, 1.4209583e+2, -1418144.4, -1574198.6, -7676.717, 0.026538039, 0.014792556, -1417767.6, 129696.07, 0.0, 5.0618467, 4.959878 
5.4522294e+2, 1.4705586e+2, -1377229.1, -1527346.4, -8162.0093, 0.027806593, 0.00937605, -1376786.6, 122067.445, 0.0, 5.0587206, 4.960733 
5.4514676e+2, 1.5201588e+2, -1337539.5, -1483066.3, -8310.417, 0.028591646, 0.0033427821, -1337066.5, 113177.95, 0.0, 5.0555935, 4.9607162 
5.450707e+2, 1.5697588e+2, -1299226.3, -1441747.5, -8501.629, 0.029415514, -0.0022969253, -1298720.9, 102914.24, 0.0, 5.052469, 4.959692 
5.4499173e+2, 1.6193393e+2, -1261232.1, -1402119.8, -12965.2, 0.029735863, -0.0019869911, -1260048.9, 92995.125, 0.0, 5.0494795, 4.958063 
5.449093e+2, 1.6689195e+2, -1219877.0, -1355255.8, -13621.593, 0.031202793, -0.007812818, -1218520.0, 85932.02, 0.0, 5.04652, 4.9587765 
5.4482687e+2, 1.7185006e+2, -1179526.5, -1310496.0, -13774.788, 0.032807898, -0.013538386, -1178093.5, 77765.79, 0.0, 5.043555, 4.958768 
5.447444e+2, 1.7680816e+2, -1140240.5, -1268051.5, -13886.498, 0.03439641, -0.01882795, -1138749.3, 68517.23, 0.0, 5.0405903, 4.9579644 
5.4466033e+2, 1.8176451e+2, -1103185.6, -1230751.3, -16530.744, 0.03458508, -0.014214702, -1101078.3, 57613.69, 0.0, 5.0376563, 4.955415 
5.4457366e+2, 1.8672033e+2, -1061506.9, -1183445.6, -17001.336, 0.033243224, -0.016175542, -1059180.8, 50943.715, 0.0, 5.0347137, 4.9561973 
5.44487e+2, 1.916762e+2, -1020894.8, -1138448.6, -17020.264, 0.031886194, -0.018527802, -1018480.06, 43076.62, 0.0, 5.03177, 4.956183 
5.4440033e+2, 1.9663203e+2, -981121.8, -1095314.5, -17011.027, 0.030540269, -0.020655941, -978641.6, 34347.445, 0.0, 5.028827, 4.9555197 
5.443133e+2, 2.0158589e+2, -943749.56, -1057610.6, -18007.645, 0.030448046, -0.01668934, -940969.5, 23471.186, 0.0, 5.025907, 4.9529796 
5.4422516e+2, 2.0653929e+2, -901711.6, -1009476.56, -18282.242, 0.03110033, -0.02105827, -898694.5, 17202.2, 0.0, 5.022928, 4.953989 
5.4413706e+2, 2.1149278e+2, -861027.6, -964273.06, -18275.004, 0.031658683, -0.025534267, -857888.3, 9463.402, 0.0, 5.0199428, 4.953986 
5.44049e+2, 2.1644628e+2, -820961.94, -920472.5, -18245.668, 0.03223241, -0.029911004, -817722.0, 1084.7332, 0.0, 5.0169587, 4.953485 
5.439609e+2, 2.213983e+2, -784379.7, -884298.94, -17912.416, 0.030877598, -0.020634687, -781265.56, -10988.617, 0.0, 5.0139837, 4.950336 
5.43873e+2, 2.2634985e+2, -741525.4, -835072.3, -17938.033, 0.030299477, -0.019250179, -738203.6, -16449.943, 0.0, 5.0111194, 4.951595 
5.4378515e+2, 2.313014e+2, -700280.25, -789511.2, -17885.68, 0.030209444, -0.01902735, -696828.7, -23598.5, 0.0, 5.0082674, 4.95158 
5.436973e+2, 2.3625295e+2, -659641.4, -745349.3, -17808.969, 0.030136507, -0.018825073, -656088.2, -31381.299, 0.0, 5.0054164, 4.9510636 
5.4361016e+2, 2.4120204e+2, -623305.56, -710183.5, -16150.416, 0.028047474, -0.011148061, -620400.4, -44192.64, 0.0, 5.002484, 4.9474134 
5.435241e+2, 2.4615076e+2, -580181.5, -659671.56, -15774.9, 0.02229065, -0.012869202, -577165.4, -49452.914, 0.0, 4.9994617, 4.9491115 
5.4343814e+2, 2.5109968e+2, -539205.2, -614045.3, -15691.804, 0.016567107, -0.0150084505, -536048.2, -56832.984, 0.0, 4.9964433, 4.949112 
5.4335225e+2, 2.5604862e+2, -498431.1, -568933.7, -15601.184, 0.010895614, -0.0170972, -495133.06, -64415.117, 0.0, 4.9934263, 4.948914 
5.432678e+2, 2.6099563e+2, -463596.28, -536720.56, -12788.607, 0.0065731485, -0.0012299597, -461424.22, -79184.38, 0.0, 4.990355, 4.9441724 
5.431867e+2, 2.6594278e+2, -419499.56, -483254.0, -11819.833, 0.007199334, 0.003537901, -417378.78, -83617.54, 0.0, 4.9871597, 4.9469013 
5.4310596e+2, 2.7089003e+2, -378868.7, -437657.22, -11677.628, 0.008277692, 0.0056175115, -376634.03, -91352.26, 0.0, 4.983956, 4.9468956 
5.4302526e+2, 2.7583727e+2, -338241.4, -392140.25, -11538.344, 0.009389051, 0.00775975, -335875.22, -99072.88, 0.0, 4.9807534, 4.946842 
5.429463e+2, 2.807802e+2, -308448.34, -370181.0, -7890.7617, 0.011652165, 0.020392833, -307455.7, -119090.28, 0.0, 4.9774117, 4.9384995 
5.428712e+2, 2.8572112e+2, -265166.34, -316385.1, -6637.1235, 0.016835732, 0.019388732, -264320.25, -124372.42, 0.0, 4.973783, 4.9414515 
5.4279625e+2, 2.9066232e+2, -225493.3, -270992.13, -6369.041, 0.022171734, 0.016743474, -224618.56, -133090.81, 0.0, 4.9701366, 4.9414597 
5.427215e+2, 2.9560354e+2, -185796.75, -225550.52, -6104.5576, 0.02751269, 0.0143417, -184880.47, -141773.1, 0.0, 4.9664774, 4.941468 
5.426483e+2, 3.005636e+2, -122006.29, -90987.266, -2698.5142, 0.0295268, 0.02627434, -90754.26, -90754.26, 0.0, 4.962691, 4.9824343 
5.425833e+2, 3.0555323e+2, -122295.33, -69361.03, -732.9021, 0.049886886, 0.010783158, -69350.88, -69350.88, 0.0, 4.958403, 4.991995 
5.425197e+2, 3.105443e+2, -137193.14, -75550.12, -1329.1573, 0.07752763, -0.010125677, -75521.47, -75521.47, 0.0, 4.9528975, 4.9920917 
5.424564e+2, 3.1553528e+2, -152603.17, -82009.88, -1350.5999, 0.106820405, -0.034114968, -81984.055, -81984.055, 0.0, 4.947209, 4.9921846 
5.50648e+2, 1.2231482e+2, -1569597.1, -1737617.6, 2154.7888, -0.0040382436, -0.0061215814, -1569569.5, 171749.34, 0.0, 5.074664, 4.9640584 
5.505714e+2, 1.2727684e+2, -1534046.3, -1702068.0, -3810.4136, -0.057029866, 0.004239894, -1533959.9, 158731.84, 0.0, 5.0715466, 4.961298 
5.505026e+2, 1.3223769e+2, -1494932.0, -1658166.3, -4131.753, -0.025446882, 0.0027402316, -1494827.5, 149249.05, 0.0, 5.0682864, 4.961292 
5.504338e+2, 1.3719852e+2, -1457995.5, -1618878.1, -4574.471, 0.006003194, 0.0027125354, -1457865.5, 137596.0, 0.0, 5.0650296, 4.9597383 
5.5036044e+2, 1.4215821e+2, -1418186.8, -1574610.6, -10051.225, 0.027050473, 0.013774439, -1417543.6, 129312.836, 0.0, 5.061881, 4.9597464 
5.502811e+2, 1.4711824e+2, -1377291.1, -1527795.0, -10492.829, 0.028027937, 0.009991964, -1376563.1, 121682.94, 0.0, 5.0587544, 4.9605894 
5.5020183e+2, 1.5207829e+2, -1337601.9, -1483515.4, -10641.926, 0.02855215, 0.005706128, -1336829.8, 112805.88, 0.0, 5.055627, 4.9605727 
5.5012256e+2, 1.5703832e+2, -1299294.0, -1442209.6, -10839.293, 0.029096467, 0.0018299777, -1298476.6, 102548.94, 0.0, 5.052502, 4.9595447 
5.5004054e+2, 1.6199633e+2, -1261257.3, -1402466.8, -15221.306, 0.029082045, 0.003097703, -1259635.1, 92799.29, 0.0, 5.0495105, 4.9579544 
5.4995507e+2, 1.6695413e+2, -1219928.6, -1355656.4, -15849.407, 0.030413778, -0.0038585116, -1218102.4, 85742.24, 0.0, 5.0465508, 4.958649 
5.4986966e+2, 1.71912e+2, -1179576.6, -1310896.3, -16003.866, 0.031875767, -0.010757063, -1177654.4, 77599.75, 0.0, 5.0435853, 4.9586406 
5.4978424e+2, 1.7686985e+2, -1140290.0, -1268453.8, -16118.476, 0.0333131, -0.01721193, -1138294.0, 68369.66, 0.0, 5.040621, 4.9578366 
5.496973e+2, 1.8182608e+2, -1102946.6, -1230582.1, -18784.691, 0.03388567, -0.013747133, -1100239.5, 57850.797, 0.0, 5.0376935, 4.955479 
5.4960775e+2, 1.8678194e+2, -1061297.3, -1183341.3, -19224.44, 0.03359704, -0.015764585, -1058340.6, 51181.203, 0.0, 5.034751, 4.956241 
5.4951817e+2, 1.9173786e+2, -1020690.5, -1138351.3, -19241.514, 0.03325713, -0.018038394, -1017623.8, 43329.12, 0.0, 5.0318065, 4.9562254 
5.494287e+2, 1.9669376e+2, -980922.75, -1095223.6, -19230.145, 0.032896023, -0.020039737, -977774.2, 34610.04, 0.0, 5.028863, 4.955561 
5.4933876e+2, 2.0164771e+2, -943521.0, -1057448.0, -20246.682, 0.03296005, -0.015411773, -940029.8, 23804.58, 0.0, 5.025942, 4.9530454 
5.492477e+2, 2.0660117e+2, -901458.2, -1009251.5, -20540.07, 0.03343039, -0.020164208, -897676.9, 17612.979, 0.0, 5.022962, 4.9540763 
5.4915655e+2, 2.1155469e+2, -860778.25, -964051.9, -20531.926, 0.033866085, -0.02513496, -856846.0, 9898.412, 0.0, 5.0199757, 4.954073 
5.490655e+2, 2.1650822e+2, -820716.6, -920255.1, -20501.455, 0.034296874, -0.02996528, -816659.4, 1539.5535, 0.0, 5.016991, 4.953571 
5.489745e+2, 2.2146024e+2, -783892.9, -883641.5, -20153.291, 0.033422682, -0.022593152, -779975.0, -10305.885, 0.0, 5.0140295, 4.9505677 
5.488836e+2, 2.2641194e+2, -741154.5, -834674.7, -20122.285, 0.032507375, -0.021210486, -737008.7, -15864.6045, 0.0, 5.0111656, 4.95174 
5.4879284e+2, 2.313637e+2, -699923.9, -789122.8, -20064.48, 0.031800516, -0.020356663, -695618.4, -22999.932, 0.0, 5.0083103, 4.9517245 
5.487021e+2, 2.3631544e+2, -659299.4, -744970.0, -19982.102, 0.031070275, -0.019429814, -654867.94, -30774.994, 0.0, 5.0054555, 4.9512076 
5.486121e+2, 2.412648e+2, -622874.8, -709594.56, -18438.773, 0.028984644, -0.010740796, -619117.1, -43526.18, 0.0, 5.0025215, 4.9476275 
5.4852325e+2, 2.4621366e+2, -579773.06, -659135.8, -18088.014, 0.02528493, -0.013196938, -575844.94, -48750.473, 0.0, 4.9994993, 4.949308 
5.4843444e+2, 2.5116268e+2, -538800.0, -613516.75, -18000.777, 0.021687338, -0.016330628, -534689.4, -56092.977, 0.0, 4.996481, 4.949307 
5.4834574e+2, 2.5611168e+2, -498029.16, -568412.25, -17905.932, 0.018102126, -0.01940691, -493735.7, -63637.336, 0.0, 4.9934645, 4.9491076 
5.482584e+2, 2.6105884e+2, -462996.6, -535677.25, -15196.961, 0.015343119, -0.005035722, -459946.97, -78328.07, 0.0, 4.990383, 4.9445496 
5.4817414e+2, 2.660064e+2, -419005.38, -482436.63, -14317.511, 0.0151932165, 0.00080228504, -415923.4, -82787.125, 0.0, 4.987186, 4.947205 
5.4809004e+2, 2.709541e+2, -378370.84, -436850.9, -14169.835, 0.015224673, 0.004583112, -375118.34, -90465.85, 0.0, 4.983985, 4.9471955 
5.4800606e+2, 2.759018e+2, -337739.88, -391344.97, -14025.07, 0.01525628, 0.008384757, -334292.13, -98123.305, 0.0, 4.9807854, 4.947139 
5.479236e+2, 2.8084508e+2, -307767.56, -368969.34, -10595.678, 0.016457772, 0.021316143, -305985.1, -118256.664, 0.0, 4.9774413, 4.9389358 
5.4784477e+2, 2.857862e+2, -264526.5, -315277.97, -9489.206, 0.020634586, 0.01839805, -262810.28, -123501.06, 0.0, 4.973813, 4.9418535 
5.477662e+2, 2.9072765e+2, -224845.8, -269892.47, -9221.429, 0.024941564, 0.01397522, -223031.2, -132143.53, 0.0, 4.9701705, 4.941859 
5.476877e+2, 2.9566908e+2, -185105.16, -224442.31, -8958.272, 0.029234717, 0.009782335, -183161.16, -140695.3, 0.0, 4.9665284, 4.9418645 
5.476109e+2, 3.0062953e+2, -121466.15, -90487.42, -5662.762, 0.03147651, 0.022038134, -89484.75, -89484.75, 0.0, 4.962782, 4.9826016 
5.4754215e+2, 3.056201e+2, -121572.73, -69606.445, -3700.3657, 0.05323579, 0.016948305, -69344.27, -69344.27, 0.0, 4.9586964, 4.9918184 
5.474748e+2, 3.1061214e+2, -132639.7, -74263.08, -3982.5986, 0.08112992, 0.0076386966, -73992.625, -73992.625, 0.0, 4.954577, 4.991881 
5.4740757e+2, 3.1560406e+2, -143700.22, -78951.81, -4312.781, 0.110465504, -0.004430419, -78665.805, -78665.805, 0.0, 4.950451, 4.9919443 
5.557217e+2, 1.2238052e+2, -1570355.5, -1739525.8, 154.87675, -0.010180833, 0.011977985, -1570355.4, 170323.72, 0.0, 5.0747075, 4.9634233 
5.5564183e+2, 1.2734184e+2, -1534466.9, -1703266.9, -6229.986, -0.06347742, 0.019262595, -1534237.3, 157821.8, 0.0, 5.071583, 4.960904 
5.5557e+2, 1.3230166e+2, -1495349.3, -1659360.8, -6550.817, -0.02913859, 0.011442434, -1495088.0, 148365.7, 0.0, 5.0683227, 4.9608984 
5.554983e+2, 1.3726148e+2, -1458409.6, -1620070.6, -6998.5137, 0.0050143413, 0.0051021543, -1458107.3, 136741.33, 0.0, 5.0650663, 4.9593453 
5.5542177e+2, 1.4222056e+2, -1418235.4, -1575041.4, -12427.599, 0.027567873, 0.012794516, -1417256.6, 128992.49, 0.0, 5.061917, 4.9596086 
5.5533934e+2, 1.4718062e+2, -1377351.4, -1528245.8, -12822.78, 0.028254671, 0.010660683, -1376269.5, 121368.5, 0.0, 5.0587897, 4.9604454 
5.552569e+2, 1.521407e+2, -1337662.4, -1483966.6, -12972.566, 0.028524294, 0.008104966, -1336521.0, 112505.805, 0.0, 5.0556617, 4.960428 
5.551744e+2, 1.5710075e+2, -1299360.1, -1442673.8, -13176.177, 0.028795293, 0.005975092, -1298158.8, 102257.21, 0.0, 5.052537, 4.9593964 
5.550893e+2, 1.6205874e+2, -1261285.4, -1402826.5, -17478.719, 0.028399773, 0.008192839, -1259158.9, 92666.0, 0.0, 5.0495424, 4.9578414 
5.5500084e+2, 1.6701631e+2, -1219977.9, -1356059.4, -18076.586, 0.029590301, 0.0000860405, -1217617.6, 85619.63, 0.0, 5.046582, 4.958522 
5.5491245e+2, 1.7197394e+2, -1179624.4, -1311299.0, -18232.31, 0.030904284, -0.007995288, -1177146.5, 77502.56, 0.0, 5.0436172, 4.958513 
5.5482405e+2, 1.7693156e+2, -1140337.3, -1268858.8, -18349.807, 0.03218555, -0.015625237, -1137768.6, 68292.16, 0.0, 5.040653, 4.957708 
5.547341e+2, 1.8188764e+2, -1102716.9, -1230439.6, -21032.46, 0.033178113, -0.013233447, -1099342.5, 58146.07, 0.0, 5.0377316, 4.9555345 
5.546418e+2, 1.8684354e+2, -1061086.1, -1183239.3, -21445.955, 0.03397005, -0.015345795, -1057430.3, 51488.797, 0.0, 5.034789, 4.956283 
5.5454946e+2, 1.9179952e+2, -1020484.75, -1138256.1, -21461.182, 0.0346753, -0.017608456, -1016695.8, 43653.387, 0.0, 5.0318437, 4.9562664 
5.5445707e+2, 1.9675547e+2, -980722.1, -1095135.0, -21447.674, 0.035326984, -0.019550152, -976833.75, 34945.688, 0.0, 5.0288997, 4.9556007 
5.543642e+2, 2.0170957e+2, -943295.5, -1057299.0, -22483.977, 0.035447218, -0.01403502, -939021.44, 24206.53, 0.0, 5.025978, 4.953106 
5.542701e+2, 2.0666304e+2, -901202.56, -1009029.0, -22797.79, 0.03573986, -0.019218247, -896580.56, 18102.328, 0.0, 5.022997, 4.9541626 
5.5417603e+2, 2.116166e+2, -860526.7, -963833.25, -22788.738, 0.03606679, -0.024760343, -855723.0, 10413.967, 0.0, 5.0200105, 4.954159 
5.54082e+2, 2.1657017e+2, -820469.1, -920040.3, -22757.135, 0.036368504, -0.030120654, -815514.5, 2076.595, 0.0, 5.017025, 4.9536557 
5.5398804e+2, 2.2152218e+2, -783461.5, -883113.06, -22373.709, 0.03587193, -0.024313614, -778668.7, -9607.514, 0.0, 5.0140767, 4.950755 
5.538943e+2, 2.2647405e+2, -740782.9, -834278.94, -22306.252, 0.034604136, -0.022919867, -735733.7, -15199.36, 0.0, 5.011213, 4.9518833 
5.538006e+2, 2.31426e+2, -699566.7, -788736.3, -22243.002, 0.03333008, -0.021601208, -694326.25, -22319.623, 0.0, 5.0083537, 4.951867 
5.5370694e+2, 2.3637792e+2, -658956.56, -744592.56, -22154.96, 0.031992048, -0.020115549, -653564.4, -30085.434, 0.0, 5.0054955, 4.9513497 
5.53614e+2, 2.4132758e+2, -622472.06, -709074.4, -20723.27, 0.029942665, -0.010175617, -617768.6, -42794.563, 0.0, 5.00256, 4.947818 
5.5352235e+2, 2.4627657e+2, -579362.8, -658602.44, -20399.373, 0.028353734, -0.01342826, -574419.6, -47943.188, 0.0, 4.9995384, 4.949503 
5.534308e+2, 2.5122565e+2, -538393.0, -612990.6, -20308.0, 0.02693804, -0.017710038, -533222.8, -55245.215, 0.0, 4.9965205, 4.9495 
5.533393e+2, 2.5617477e+2, -497625.34, -567893.25, -20208.932, 0.025494918, -0.021927131, -492227.88, -62749.125, 0.0, 4.9935036, 4.9492993 
5.53249e+2, 2.6112208e+2, -462460.06, -534783.0, -17615.186, 0.0240742, -0.0086437985, -458397.84, -77399.96, 0.0, 4.9904127, 4.9448743 
5.5316144e+2, 2.6607007e+2, -418508.63, -481622.44, -16810.328, 0.023087634, -0.0016412933, -414310.44, -81799.28, 0.0, 4.987214, 4.9475055 
5.530741e+2, 2.7101818e+2, -377870.4, -436047.75, -16657.18, 0.02212454, 0.0036505118, -373438.75, -89415.61, 0.0, 4.984016, 4.9474926 
5.5298674e+2, 2.759663e+2, -337235.75, -390552.8, -16506.938, 0.021128612, 0.008921782, -332538.94, -97003.64, 0.0, 4.980819, 4.9474325 
5.52901e+2, 2.8090996e+2, -307124.53, -367849.53, -13302.464, 0.021240795, 0.022165328, -304338.3, -117246.82, 0.0, 4.9774733, 4.9393396 
5.528184e+2, 2.8585133e+2, -263886.13, -314171.84, -12337.145, 0.024366809, 0.017352965, -261022.4, -122351.62, 0.0, 4.9738455, 4.9422536 
5.527361e+2, 2.9079294e+2, -224203.8, -268796.47, -12068.602, 0.027632965, 0.011063706, -221147.08, -130899.26, 0.0, 4.9702044, 4.942256 
5.5265385e+2, 2.9573455e+2, -184461.5, -223356.38, -11804.689, 0.03086632, 0.004990928, -181159.14, -139334.53, 0.0, 4.966564, 4.942259 
5.5257344e+2, 3.006953e+2, -121184.87, -90318.84, -8603.508, 0.033052202, 0.017599981, -88082.72, -88082.72, 0.0, 4.9628267, 4.9826593 
5.52501e+2, 3.0568686e+2, -121477.766, -70110.87, -6719.4653, 0.056232296, 0.021965137, -69246.42, -69246.42, 0.0, 4.9587693, 4.991623 
5.5242985e+2, 3.1067982e+2, -132477.25, -74850.66, -6934.198, 0.08449824, 0.022896042, -74028.01, -74028.01, 0.0, 4.954681, 4.9916515 
5.523589e+2, 3.1567258e+2, -143470.25, -79622.555, -7196.9526, 0.11350375, 0.020899111, -78821.36, -78821.36, 0.0, 4.9505854, 4.9916816 
5.607952e+2, 1.22445196e+2, -1570260.8, -1741377.1, -910.58875, -0.0182817, 0.016355237, -1570255.9, 169793.58, 0.0, 5.075153, 4.962591 
5.607125e+2, 1.2740706e+2, -1533731.8, -1703650.3, -6478.07, -0.067414455, 0.03279126, -1533485.1, 157938.9, 0.0, 5.0719943, 4.960574 
5.606376e+2, 1.32366e+2, -1494774.5, -1659816.9, -6713.011, -0.031650025, 0.019512426, -1494501.9, 148325.48, 0.0, 5.068681, 4.96057 
5.6056273e+2, 1.373249e+2, -1458017.0, -1620612.5, -7082.2764, 0.004165135, 0.007723015, -1457709.0, 136521.81, 0.0, 5.0653634, 4.9590178 
5.6048304e+2, 1.4228345e+2, -1417562.5, -1574981.0, -12409.727, 0.027675347, 0.012557863, -1416590.3, 129046.18, 0.0, 5.062201, 4.959494 
5.6039745e+2, 1.4724347e+2, -1376649.5, -1528188.3, -12825.677, 0.028070353, 0.011574724, -1375571.6, 121453.6, 0.0, 5.0590887, 4.960323 
5.603119e+2, 1.5220352e+2, -1336912.1, -1483879.1, -13037.355, 0.028075637, 0.010267994, -1335764.5, 112649.43, 0.0, 5.0559773, 4.9603086 
5.602263e+2, 1.5716355e+2, -1298561.8, -1442566.9, -13301.104, 0.028039584, 0.009457811, -1297343.5, 102459.41, 0.0, 5.052871, 4.9592743 
5.6013805e+2, 1.6212147e+2, -1260415.8, -1402675.4, -17570.14, 0.027313229, 0.012487419, -1258277.9, 92934.33, 0.0, 5.0498867, 4.9577365 
5.600466e+2, 1.670788e+2, -1219204.5, -1356007.3, -18216.621, 0.02858492, 0.003658344, -1216820.4, 85806.44, 0.0, 5.046902, 4.958397 
5.5995524e+2, 1.720362e+2, -1178930.9, -1311292.5, -18453.652, 0.029983908, -0.005254394, -1176406.3, 77634.69, 0.0, 5.043909, 4.958387 
5.5986387e+2, 1.7699358e+2, -1139732.4, -1268903.5, -18654.105, 0.031353638, -0.01380337, -1137092.4, 68362.72, 0.0, 5.0409145, 4.95758 
5.5977106e+2, 1.8194948e+2, -1101947.6, -1229957.0, -21429.865, 0.032967824, -0.012462178, -1098455.4, 58428.86, 0.0, 5.0379534, 4.9556046 
5.596758e+2, 1.869054e+2, -1060516.0, -1182852.5, -21869.771, 0.03491103, -0.015107002, -1056723.9, 51590.273, 0.0, 5.0349445, 4.9563537 
5.595807e+2, 1.9186136e+2, -1020126.8, -1137970.9, -21922.746, 0.036747795, -0.017790742, -1016180.6, 43563.027, 0.0, 5.031928, 4.9563365 
5.5948555e+2, 1.9681734e+2, -980587.1, -1094955.3, -21940.477, 0.038511798, -0.020072343, -976522.5, 34650.7, 0.0, 5.028909, 4.955671 
5.5938965e+2, 2.0177157e+2, -943361.5, -1057219.8, -23026.742, 0.038584087, -0.013493194, -938880.9, 23739.092, 0.0, 5.025923, 4.9531736 
5.5929255e+2, 2.067251e+2, -901234.5, -1008909.2, -23478.492, 0.03849396, -0.0185537, -896337.75, 17736.402, 0.0, 5.0229445, 4.954244 
5.5919546e+2, 2.1167873e+2, -860546.9, -963722.56, -23596.467, 0.038568653, -0.02426474, -855406.44, 10121.316, 0.0, 5.019961, 4.9542375 
5.5909836e+2, 2.1663232e+2, -820489.94, -919942.6, -23693.666, 0.038658414, -0.029902687, -815133.6, 1847.854, 0.0, 5.0169744, 4.9537315 
5.590015e+2, 2.215843e+2, -783418.7, -882815.9, -23373.701, 0.038425736, -0.025259983, -778196.6, -9744.963, 0.0, 5.0140095, 4.950907 
5.589049e+2, 2.2653627e+2, -740968.5, -834075.0, -23363.654, 0.036941905, -0.024229703, -735434.6, -15511.154, 0.0, 5.0110636, 4.9520416 
5.5880827e+2, 2.3148838e+2, -700013.0, -788646.3, -23349.256, 0.03530976, -0.022996875, -694238.2, -22844.137, 0.0, 5.0081134, 4.9520273 
5.587117e+2, 2.3644046e+2, -659677.2, -744622.8, -23293.322, 0.033574406, -0.021497384, -653709.1, -30844.479, 0.0, 5.0051603, 4.951511 
5.586159e+2, 2.4139039e+2, -623375.8, -709155.44, -21990.541, 0.031671207, -0.01023274, -618066.9, -43709.945, 0.0, 5.0021544, 4.9479938 
5.5852145e+2, 2.4633951e+2, -580275.56, -658650.44, -21799.686, 0.032124355, -0.0139992265, -574620.2, -48762.18, 0.0, 4.9991193, 4.9496965 
5.584271e+2, 2.512887e+2, -539352.94, -613069.06, -21815.396, 0.032833975, -0.019267404, -533380.8, -56022.49, 0.0, 4.996084, 4.949692 
5.583328e+2, 2.562379e+2, -498646.2, -568006.56, -21822.037, 0.033496182, -0.024542447, -492351.8, -63493.125, 0.0, 4.9930463, 4.9494886 
5.5823964e+2, 2.6118538e+2, -463413.66, -534670.25, -19450.734, 0.03308546, -0.011815964, -458450.0, -78073.734, 0.0, 4.989945, 4.945146 
5.5814874e+2, 2.6613376e+2, -419267.25, -481367.84, -18819.459, 0.031105226, -0.00365654, -414009.25, -82123.63, 0.0, 4.986803, 4.947802 
5.580581e+2, 2.710823e+2, -378477.3, -435734.25, -18768.074, 0.029117461, 0.0029073115, -372873.78, -89480.266, 0.0, 4.983658, 4.947787 
5.579675e+2, 2.760308e+2, -337721.78, -390195.25, -18709.049, 0.027089138, 0.009429577, -331734.38, -96832.72, 0.0, 4.980504, 4.947724 
5.578783e+2, 2.809748e+2, -307489.1, -367239.13, -15813.531, 0.026055716, 0.022986015, -303561.97, -117107.37, 0.0, 4.977164, 4.939713 
5.57792e+2, 2.859164e+2, -264375.0, -313553.34, -15023.742, 0.028103229, 0.016237576, -260148.55, -122116.016, 0.0, 4.9734783, 4.9426546 
5.5770594e+2, 2.908582e+2, -224828.3, -268249.66, -14813.036, 0.03031258, 0.007969155, -220256.28, -130648.08, 0.0, 4.9697895, 4.9426537 
5.5762e+2, 2.9580006e+2, -185151.86, -222849.81, -14553.42, 0.03244481, -0.000064159736, -180187.27, -139003.6, 0.0, 4.9661255, 4.9426527 
5.575359e+2, 3.0076104e+2, -121426.266, -90582.54, -11449.496, 0.034239624, 0.012933537, -86796.984, -86796.984, 0.0, 4.962729, 4.98261 
5.574599e+2, 3.0575344e+2, -121514.086, -70653.84, -9622.419, 0.05890169, 0.02577949, -68894.22, -68894.22, 0.0, 4.9588013, 4.9914093 
5.573851e+2, 3.107473e+2, -132450.3, -75478.914, -9774.126, 0.08782397, 0.035727456, -73848.695, -73848.695, 0.0, 4.9547424, 4.991405 
5.5731034e+2, 3.1574088e+2, -143387.33, -80339.195, -9972.922, 0.1167832, 0.04258282, -78799.29, -78799.29, 0.0, 4.950674, 4.991401 
5.65874e+2, 1.2251604e+2, -1557139.4, -1735346.3, 5116.7476, -0.0026254342, 0.0038577542, -1556992.5, 182367.55, 0.0, 5.079798, 4.9622917 
5.657873e+2, 1.2747923e+2, -1521042.9, -1697259.9, -1696.1443, -0.057539422, 0.035398606, -1521026.5, 169694.77, 0.0, 5.076368, 4.960528 
5.6570834e+2, 1.324381e+2, -1482878.1, -1653829.6, -1812.804, -0.027374478, 0.023203745, -1482859.0, 159265.98, 0.0, 5.072791, 4.960526 
5.656295e+2, 1.3739695e+2, -1446879.8, -1615006.1, -2055.4812, 0.0030293483, 0.012439275, -1446854.6, 146674.13, 0.0, 5.0692186, 4.9589763 
5.6554604e+2, 1.4235535e+2, -1407002.9, -1569691.5, -7114.6978, 0.023181662, 0.017609872, -1406692.4, 138242.72, 0.0, 5.065858, 4.959453 
5.654573e+2, 1.47315e+2, -1366693.0, -1523316.3, -7471.0493, 0.023878375, 0.015161973, -1366337.5, 129989.7, 0.0, 5.0625696, 4.960235 
5.6536853e+2, 1.5227468e+2, -1327486.4, -1479269.3, -7663.882, 0.024266189, 0.012381673, -1327100.4, 120618.766, 0.0, 5.0592804, 4.960225 
5.652798e+2, 1.5723434e+2, -1289671.5, -1438227.1, -7913.627, 0.024555814, 0.01016133, -1289251.1, 109860.14, 0.0, 5.0559945, 4.959192 
5.6518835e+2, 1.6219205e+2, -1251839.3, -1398190.8, -12047.447, 0.024177423, 0.012377385, -1250854.1, 99668.4, 0.0, 5.052827, 4.957803 
5.6509393e+2, 1.6714936e+2, -1211317.4, -1351970.1, -12529.938, 0.025611913, 0.0047031315, -1210209.9, 91727.516, 0.0, 5.049629, 4.9584203 
5.6499946e+2, 1.7210671e+2, -1171662.9, -1307570.5, -12619.69, 0.027167872, -0.0030437487, -1170501.0, 82850.984, 0.0, 5.0464263, 4.958409 
5.6490505e+2, 1.7706406e+2, -1133071.3, -1265491.3, -12668.996, 0.02873195, -0.010501878, -1131870.1, 72896.52, 0.0, 5.0432253, 4.9575996 
5.64809e+2, 1.8201992e+2, -1095591.4, -1226310.1, -15330.937, 0.030651255, -0.009149209, -1093817.4, 62378.85, 0.0, 5.0400753, 4.9557924 
5.6471074e+2, 1.8697573e+2, -1054673.3, -1179423.8, -15672.234, 0.032860953, -0.0130515015, -1052734.5, 54892.0, 0.0, 5.0368876, 4.9565554 
5.646125e+2, 1.9193162e+2, -1014796.1, -1134777.5, -15644.467, 0.035005312, -0.01698585, -1012789.75, 46266.465, 0.0, 5.0336976, 4.9565434 
5.645142e+2, 1.9688752e+2, -975754.75, -1091986.5, -15583.16, 0.03712406, -0.020507947, -973701.8, 36784.145, 0.0, 5.030509, 4.955883 
5.644153e+2, 2.018418e+2, -939086.1, -1054448.4, -16540.084, 0.03745914, -0.01455919, -936761.56, 25170.666, 0.0, 5.0273194, 4.953419 
5.6431514e+2, 2.0679541e+2, -897629.25, -1006650.56, -16820.492, 0.037705958, -0.018780803, -895093.06, 18292.586, 0.0, 5.0241475, 4.9544096 
5.6421494e+2, 2.1174906e+2, -857480.56, -961743.5, -16798.043, 0.038130183, -0.023624016, -854841.0, 9997.794, 0.0, 5.0209785, 4.9543967 
5.6411487e+2, 2.1670271e+2, -817946.44, -918236.56, -16748.365, 0.03859578, -0.028490111, -815223.44, 1068.7042, 0.0, 5.0178103, 4.9538846 
5.6401503e+2, 2.2165471e+2, -781359.6, -881062.0, -16302.784, 0.03890268, -0.023843763, -778761.56, -10999.438, 0.0, 5.014621, 4.9511776 
5.639153e+2, 2.266067e+2, -739765.56, -832603.1, -16207.389, 0.038029958, -0.023813032, -737017.44, -17784.002, 0.0, 5.011358, 4.9523582 
5.638156e+2, 2.3155881e+2, -699700.94, -787542.56, -16102.206, 0.03707281, -0.023732703, -696842.3, -26138.773, 0.0, 5.0080924, 4.952358 
5.63716e+2, 2.3651093e+2, -660239.1, -743873.1, -15970.65, 0.036098935, -0.023549289, -657293.1, -35119.55, 0.0, 5.004829, 4.9518557 
5.636171e+2, 2.4146095e+2, -624626.56, -708633.6, -14500.692, 0.03515724, -0.013220644, -622194.0, -48529.34, 0.0, 5.00157, 4.948376 
5.635196e+2, 2.464103e+2, -582044.1, -658601.6, -14199.982, 0.03611397, -0.015856115, -579495.2, -54331.367, 0.0, 4.998402, 4.9499774 
5.634222e+2, 2.513597e+2, -541486.56, -613189.9, -14122.545, 0.03728736, -0.01979564, -538805.25, -62142.98, 0.0, 4.9952416, 4.94997 
5.6332487e+2, 2.563091e+2, -501129.7, -568289.8, -14034.937, 0.03847734, -0.023785932, -498314.7, -70153.766, 0.0, 4.992083, 4.949764 
5.6322855e+2, 2.6125672e+2, -466161.66, -534830.94, -11527.836, 0.038190853, -0.010493583, -464278.06, -84601.195, 0.0, 4.9888487, 4.9455214 
5.6313443e+2, 2.6620522e+2, -422347.9, -481671.1, -10818.902, 0.035630617, -0.0028236033, -420436.44, -89251.61, 0.0, 4.985588, 4.948178 
5.6304055e+2, 2.711539e+2, -381844.8, -436136.03, -10678.951, 0.033079196, 0.0033841014, -379819.8, -97128.67, 0.0, 4.982337, 4.94817 
5.629467e+2, 2.7610257e+2, -341346.8, -390677.88, -10537.951, 0.030517781, 0.009658879, -339190.03, -104992.47, 0.0, 4.9790883, 4.948115 
5.628541e+2, 2.8104672e+2, -311156.53, -367336.2, -7747.6567, 0.029161189, 0.02239105, -310107.66, -124358.87, 0.0, 4.975673, 4.9402647 
5.6276417e+2, 2.859885e+2, -267949.53, -313503.63, -7017.12, 0.031365976, 0.013792592, -266893.13, -129568.12, 0.0, 4.9720078, 4.9432425 
5.6267446e+2, 2.909305e+2, -228377.77, -268140.66, -6699.58, 0.03385058, 0.0035788307, -227279.31, -138380.27, 0.0, 4.9683247, 4.9432535 
5.6258476e+2, 2.9587254e+2, -188819.94, -222745.69, -6432.731, 0.03636512, -0.0065748906, -187641.17, -147168.19, 0.0, 4.9646144, 4.943264 
5.62497e+2, 3.008341e+2, -127738.375, -92040.0, -3415.5342, 0.038946997, 0.008070263, -91716.15, -91716.15, 0.0, 4.960362, 4.983007 
5.624171e+2, 3.0582777e+2, -129646.49, -73089.97, -1926.1547, 0.065077126, 0.033653565, -73024.445, -73024.445, 0.0, 4.9558835, 4.991654 
5.623383e+2, 3.1082308e+2, -141757.19, -77966.42, -2198.3057, 0.096360125, 0.057940535, -77890.76, -77890.76, 0.0, 4.9513855, 4.9917846 
5.622598e+2, 3.1581843e+2, -154161.39, -83013.81, -2351.9478, 0.12886049, 0.08028013, -82936.15, -82936.15, 0.0, 4.9467797, 4.9919095 
5.7095176e+2, 1.22591466e+2, -1558327.5, -1738268.6, 4066.5957, -0.0183638, 0.0013519785, -1558235.6, 180390.27, 0.0, 5.0798516, 4.9613266 
5.7086426e+2, 1.2755485e+2, -1521017.8, -1697636.8, -4341.947, -0.045587417, 0.036095373, -1520911.1, 169073.73, 0.0, 5.0764136, 4.960406 
5.7078105e+2, 1.3251382e+2, -1482852.1, -1654200.8, -4457.4204, -0.022088442, 0.026253672, -1482736.3, 158650.61, 0.0, 5.0728364, 4.9604053 
5.7069796e+2, 1.374728e+2, -1446849.6, -1615366.3, -4701.251, 0.001598235, 0.017827865, -1446718.6, 146070.52, 0.0, 5.069264, 4.9588594 
5.706106e+2, 1.424312e+2, -1407032.8, -1570153.9, -9593.365, 0.017660286, 0.024072105, -1406470.5, 137724.6, 0.0, 5.065901, 4.9593034 
5.7051855e+2, 1.4739048e+2, -1366789.4, -1523908.5, -9913.994, 0.0188266, 0.019735187, -1366166.4, 129424.016, 0.0, 5.062611, 4.960042 
5.704266e+2, 1.5234977e+2, -1327583.0, -1479859.0, -10107.586, 0.019793114, 0.014998015, -1326915.0, 120070.65, 0.0, 5.0593214, 4.960033 
5.703347e+2, 1.5730907e+2, -1289772.5, -1438824.3, -10362.243, 0.0206431, 0.010824032, -1289055.6, 109325.51, 0.0, 5.0560355, 4.958997 
5.7023996e+2, 1.6226657e+2, -1251674.4, -1398195.4, -14477.358, 0.020842087, 0.011883381, -1250257.6, 99536.52, 0.0, 5.052862, 4.9578123 
5.701423e+2, 1.6722399e+2, -1211206.0, -1352077.9, -14936.644, 0.022214714, 0.0055270204, -1209639.8, 91568.516, 0.0, 5.0496635, 4.958396 
5.700447e+2, 1.7218146e+2, -1171554.4, -1307678.5, -15026.021, 0.023647644, -0.0008025545, -1169915.5, 82706.37, 0.0, 5.0464597, 4.958385 
5.69947e+2, 1.7713891e+2, -1132966.6, -1265602.1, -15077.746, 0.025074238, -0.0068101576, -1131274.3, 72761.29, 0.0, 5.043257, 4.957576 
5.698478e+2, 1.8209484e+2, -1095283.8, -1226019.1, -17745.31, 0.026801059, -0.004829511, -1092918.0, 62546.156, 0.0, 5.0401125, 4.9558997 
5.6974626e+2, 1.8705072e+2, -1054353.6, -1179104.6, -18075.133, 0.02870331, -0.009672844, -1051787.5, 55106.086, 0.0, 5.036925, 4.9566727 
5.6964475e+2, 1.9200663e+2, -1014479.2, -1134460.5, -18048.004, 0.030535286, -0.014552117, -1011823.1, 46499.31, 0.0, 5.0337343, 4.9566603 
5.6954336e+2, 1.9696257e+2, -975440.44, -1091671.5, -17987.074, 0.032330684, -0.018994682, -972720.56, 37030.777, 0.0, 5.0305457, 4.956 
5.6944114e+2, 2.0191692e+2, -938648.56, -1053914.9, -18981.637, 0.032907743, -0.0141520575, -935603.2, 25593.37, 0.0, 5.0273623, 4.953612 
5.6933796e+2, 2.0687065e+2, -897301.8, -1006349.5, -19222.57, 0.034095317, -0.018470699, -894012.5, 18636.502, 0.0, 5.0241895, 4.954525 
5.692347e+2, 2.1182443e+2, -857163.25, -961450.1, -19197.096, 0.035397798, -0.023205992, -853741.75, 10359.304, 0.0, 5.0210176, 4.954511 
5.691316e+2, 2.1677819e+2, -817639.44, -917950.8, -19144.162, 0.03670067, -0.027884735, -814110.0, 1443.2589, 0.0, 5.0178475, 4.953998 
5.690286e+2, 2.2173038e+2, -780929.1, -880511.94, -18760.158, 0.037515506, -0.022689534, -777512.2, -10490.818, 0.0, 5.01466, 4.951379 
5.689257e+2, 2.2668259e+2, -739290.44, -831950.06, -18692.205, 0.037033856, -0.022784578, -735661.8, -17171.652, 0.0, 5.011396, 4.952596 
5.6882274e+2, 2.3163491e+2, -699231.6, -786895.5, -18585.123, 0.036473174, -0.022891602, -695454.25, -25496.535, 0.0, 5.0081296, 4.9525948 
5.687199e+2, 2.3658726e+2, -659775.44, -743231.8, -18451.414, 0.035876162, -0.022861974, -655878.06, -34452.754, 0.0, 5.004865, 4.9520917 
5.686179e+2, 2.4153751e+2, -624042.25, -707753.1, -16952.932, 0.035403673, -0.013454415, -620739.3, -47825.203, 0.0, 5.0016117, 4.948692 
5.685171e+2, 2.4648711e+2, -581602.75, -658042.3, -16640.342, 0.035954043, -0.01555577, -578137.4, -53726.453, 0.0, 4.998444, 4.950185 
5.684165e+2, 2.514368e+2, -541051.2, -612638.2, -16560.576, 0.03657548, -0.018585883, -537405.8, -61498.86, 0.0, 4.9952826, 4.950176 
5.683159e+2, 2.563865e+2, -500700.3, -567745.6, -16470.547, 0.037191626, -0.021645373, -496872.63, -69469.53, 0.0, 4.9921236, 4.9499683 
5.6821644e+2, 2.613344e+2, -465582.34, -533920.94, -14028.721, 0.036587235, -0.008278191, -462814.6, -83898.06, 0.0, 4.988885, 4.9458528 
5.681191e+2, 2.6628307e+2, -421809.0, -480852.22, -13341.791, 0.03441143, -0.0017987342, -418934.2, -88511.91, 0.0, 4.9856243, 4.9484787 
5.6802195e+2, 2.712319e+2, -381306.06, -435320.97, -13200.867, 0.032240123, 0.0032537305, -378252.5, -96326.01, 0.0, 4.982374, 4.9484706 
5.6792486e+2, 2.7618074e+2, -340808.22, -389866.66, -13058.876, 0.030038903, 0.008351107, -337548.66, -104117.84, 0.0, 4.979126, 4.9484143 
5.67829e+2, 2.8112516e+2, -310414.94, -366063.72, -10531.263, 0.029054841, 0.019764444, -308488.63, -123509.24, 0.0, 4.9757113, 4.940722 
5.6773543e+2, 2.860674e+2, -267211.78, -312290.16, -9891.156, 0.031220865, 0.0109681375, -265136.94, -128585.734, 0.0, 4.97205, 4.943681 
5.6764203e+2, 2.910098e+2, -227592.33, -266927.7, -9603.314, 0.033532985, 0.00083062355, -225372.98, -137252.25, 0.0, 4.9683857, 4.943686 
5.675487e+2, 2.959523e+2, -187913.22, -221499.2, -9324.365, 0.03582069, -0.009194643, -185498.19, -145808.03, 0.0, 4.9647207, 4.943691 
5.6745714e+2, 3.0091453e+2, -125897.055, -91106.67, -6467.72, 0.03710976, 0.007994058, -89943.195, -89943.195, 0.0, 4.9609346, 4.9831486 
5.6737274e+2, 3.059083e+2, -127333.2, -73403.07, -5288.0474, 0.056300458, 0.03959974, -72889.445, -72889.445, 0.0, 4.9568844, 4.991186 
5.672893e+2, 3.109034e+2, -138179.45, -77773.47, -5956.555, 0.07940961, 0.06914893, -77191.7, -77191.7, 0.0, 4.9528284, 4.991311 
5.672062e+2, 3.1589854e+2, -149023.42, -82174.75, -6684.2505, 0.103442736, 0.096466094, -81512.94, -81512.94, 0.0, 4.9487634, 4.9914365 
5.760297e+2, 1.22669145e+2, -1559669.3, -1741499.4, 2088.036, -0.032768045, 0.02145575, -1559645.3, 178224.34, 0.0, 5.0799036, 4.9602604 
5.759412e+2, 1.2763049e+2, -1520991.3, -1698015.0, -6989.961, -0.033827778, 0.036865864, -1520715.8, 168532.44, 0.0, 5.076462, 4.9602833 
5.758537e+2, 1.3258958e+2, -1482824.8, -1654573.4, -7104.244, -0.017018342, 0.029352447, -1482531.4, 158117.27, 0.0, 5.0728836, 4.960284 
5.757664e+2, 1.3754866e+2, -1447105.3, -1616330.4, -7516.143, -0.000059568905, 0.02323798, -1446772.1, 145277.23, 0.0, 5.069311, 4.9585423 
5.7567513e+2, 1.4250705e+2, -1406799.0, -1570065.3, -11908.396, 0.012037162, 0.03056532, -1405935.0, 137519.97, 0.0, 5.065944, 4.9593363 
5.755799e+2, 1.4746597e+2, -1366884.1, -1524502.8, -12357.703, 0.013708791, 0.02430943, -1365921.1, 128932.39, 0.0, 5.0626545, 4.9598484 
5.754847e+2, 1.5242489e+2, -1327678.0, -1480450.6, -12552.054, 0.015256449, 0.017603504, -1326653.5, 119598.68, 0.0, 5.0593643, 4.95984 
5.753895e+2, 1.5738378e+2, -1289870.1, -1439419.6, -12811.774, 0.01666924, 0.011464016, -1288780.5, 108870.52, 0.0, 5.056078, 4.9588027 
5.7529163e+2, 1.6234109e+2, -1251522.5, -1398234.4, -16913.303, 0.017558955, 0.011463686, -1249598.0, 99467.84, 0.0, 5.0528994, 4.95781 
5.751907e+2, 1.6729861e+2, -1211092.1, -1352188.5, -17343.57, 0.018856654, 0.006390574, -1208991.6, 91487.45, 0.0, 5.0496993, 4.9583707 
5.750899e+2, 1.722562e+2, -1171443.4, -1307789.5, -17432.574, 0.020159727, 0.0014186623, -1169249.9, 82641.86, 0.0, 5.0464945, 4.95836 
5.74989e+2, 1.7721376e+2, -1132859.5, -1265715.8, -17486.578, 0.021442024, -0.0031979142, -1130596.4, 72708.05, 0.0, 5.043291, 4.95755 
5.748866e+2, 1.8216981e+2, -1094979.1, -1225743.8, -20154.48, 0.022910573, -0.00040688194, -1091943.3, 62788.582, 0.0, 5.0401516, 4.9560018 
5.7478184e+2, 1.8712571e+2, -1054031.3, -1178788.3, -20477.94, 0.024494601, -0.0062154764, -1050756.0, 55404.465, 0.0, 5.0369635, 4.956789 
5.7467705e+2, 1.9208166e+2, -1014159.6, -1134146.5, -20451.447, 0.02600991, -0.012075032, -1010769.5, 46819.0, 0.0, 5.0337725, 4.9567766 
5.745724e+2, 1.9703762e+2, -975123.56, -1091359.3, -20390.895, 0.027477683, -0.017473338, -971650.2, 37366.387, 0.0, 5.0305834, 4.956116 
5.7446706e+2, 2.0199203e+2, -938234.25, -1053440.1, -21415.072, 0.028370088, -0.013655659, -934382.3, 26078.596, 0.0, 5.027407, 4.9537835 
5.743608e+2, 2.069459e+2, -896972.7, -1006051.0, -21624.023, 0.0305313, -0.018142404, -892842.25, 19070.092, 0.0, 5.0242324, 4.954639 
5.742545e+2, 2.1189979e+2, -856844.4, -961159.25, -21595.525, 0.032743532, -0.022879412, -852550.4, 10812.976, 0.0, 5.0210586, 4.954624 
5.7414824e+2, 2.1685365e+2, -817330.75, -917667.7, -21539.346, 0.03491509, -0.027480159, -812902.4, 1912.1306, 0.0, 5.017886, 4.95411 
5.740422e+2, 2.2180608e+2, -780513.8, -880004.25, -21211.826, 0.03610088, -0.021308491, -776180.1, -9899.814, 0.0, 5.0147004, 4.9515653 
5.73936e+2, 2.267585e+2, -738812.8, -831300.2, -21176.723, 0.036015023, -0.021577055, -734194.6, -16448.057, 0.0, 5.0114355, 4.952832 
5.738298e+2, 2.3171104e+2, -698759.7, -786251.56, -21067.744, 0.035876904, -0.021985209, -693950.94, -24739.293, 0.0, 5.0081687, 4.95283 
5.737238e+2, 2.3666361e+2, -659309.25, -742593.7, -20931.883, 0.0356828, -0.02222286, -654344.4, -33667.61, 0.0, 5.0049033, 4.952326 
5.7361853e+2, 2.4161406e+2, -623508.75, -706994.8, -19394.352, 0.035561346, -0.013544175, -619223.3, -47059.813, 0.0, 5.001655, 4.948965 
5.735146e+2, 2.4656394e+2, -581159.1, -657485.94, -19079.12, 0.03570505, -0.01510381, -576655.7, -52997.746, 0.0, 4.9984875, 4.9503903 
5.7341075e+2, 2.515139e+2, -540613.56, -612089.44, -18997.027, 0.035825342, -0.017341606, -535878.25, -60726.688, 0.0, 4.9953256, 4.95038 
5.733069e+2, 2.5646383e+2, -500268.7, -567204.4, -18904.582, 0.035918318, -0.019587085, -495298.53, -68653.22, 0.0, 4.992165, 4.9501715 
5.732042e+2, 2.6141202e+2, -465025.1, -533069.06, -16531.973, 0.034987636, -0.006018478, -461221.13, -83064.95, 0.0, 4.988923, 4.9461637 
5.731037e+2, 2.663609e+2, -421267.22, -480036.53, -15863.487, 0.033199225, -0.000727391, -417258.63, -87598.92, 0.0, 4.9856625, 4.9487786 
5.7300335e+2, 2.7130994e+2, -380764.4, -434509.13, -15721.589, 0.031421967, 0.0030920308, -376503.3, -95341.49, 0.0, 4.9824133, 4.9487696 
5.729031e+2, 2.7625895e+2, -340266.7, -389058.66, -15578.605, 0.029594846, 0.0069343965, -335716.9, -103052.84, 0.0, 4.9791656, 4.948713 
5.728039e+2, 2.8120357e+2, -309690.03, -364833.75, -13311.883, 0.028939225, 0.01713377, -306644.7, -122434.67, 0.0, 4.975751, 4.9411635 
5.7270664e+2, 2.8614625e+2, -266482.03, -311079.94, -12758.907, 0.031009372, 0.00820852, -263089.88, -127312.46, 0.0, 4.9720926, 4.944117 
5.7260954e+2, 2.9108918e+2, -226862.2, -265737.94, -12471.039, 0.033117063, -0.0018593041, -223205.55, -135863.11, 0.0, 4.96843, 4.9441166 
5.7251257e+2, 2.9603207e+2, -187182.7, -220329.86, -12192.066, 0.035144202, -0.0117611755, -183181.3, -144273.94, 0.0, 4.9647665, 4.944116 
5.724172e+2, 3.0099487e+2, -125588.71, -90993.61, -9397.21, 0.034634534, 0.0074756383, -88605.82, -88605.82, 0.0, 4.9609914, 4.9832063 
5.723283e+2, 3.0598858e+2, -127550.85, -74823.05, -8253.824, 0.04629903, 0.04365393, -73561.22, -73561.22, 0.0, 4.9569836, 4.9906883 
5.722403e+2, 3.1098342e+2, -138261.4, -79214.39, -8857.456, 0.060649097, 0.07688564, -77914.336, -77914.336, 0.0, 4.9529734, 4.990792 
5.721526e+2, 3.1597817e+2, -148969.48, -83636.62, -9520.37, 0.07531521, 0.10728525, -82277.57, -82277.57, 0.0, 4.9489546, 4.9908957 
5.8110857e+2, 1.2274808e+2, -1561074.9, -1743542.3, 2311.5315, -0.036694605, 0.049393795, -1561045.6, 176054.77, 0.0, 5.0797515, 4.9596395 
5.810182e+2, 1.2770641e+2, -1521017.0, -1698040.5, -6877.505, -0.020473124, 0.035168927, -1520750.3, 167757.73, 0.0, 5.0764866, 4.960245 
5.809264e+2, 1.3266568e+2, -1482411.0, -1654431.3, -7039.2944, -0.01146898, 0.030466257, -1482123.5, 157782.73, 0.0, 5.073064, 4.960232 
5.8083475e+2, 1.3762492e+2, -1446337.6, -1616068.8, -7513.6875, -0.0018031222, 0.027253242, -1446005.8, 145299.06, 0.0, 5.0696177, 4.958474 
5.807396e+2, 1.4258334e+2, -1405847.5, -1569873.9, -11785.378, 0.0062805326, 0.036175206, -1405005.1, 137704.73, 0.0, 5.0663342, 4.959212 
5.8064115e+2, 1.4754191e+2, -1365974.4, -1524423.9, -12259.927, 0.008745449, 0.02835476, -1365031.4, 129080.35, 0.0, 5.0630455, 4.9596877 
5.805428e+2, 1.5250044e+2, -1326780.6, -1480397.5, -12516.683, 0.011237057, 0.019930683, -1325767.5, 119746.49, 0.0, 5.0597515, 4.9596744 
5.8044446e+2, 1.5745896e+2, -1289000.0, -1439403.3, -12847.244, 0.013676276, 0.011957792, -1287910.5, 109005.96, 0.0, 5.056457, 4.9586306 
5.8034337e+2, 1.6241604e+2, -1250321.8, -1397642.0, -16986.76, 0.015428631, 0.011017244, -1248388.5, 99944.79, 0.0, 5.053294, 4.9578323 
5.8023924e+2, 1.6737364e+2, -1209945.3, -1351656.5, -17445.156, 0.016298847, 0.00703955, -1207829.4, 91916.57, 0.0, 5.050083, 4.958379 
5.801351e+2, 1.7233129e+2, -1170342.6, -1307283.6, -17591.555, 0.017168732, 0.0032000802, -1168118.9, 83039.02, 0.0, 5.046864, 4.958368 
5.80031e+2, 1.7728892e+2, -1131815.9, -1265242.5, -17704.611, 0.018039955, -0.00026254114, -1129506.6, 73063.516, 0.0, 5.0436435, 4.9575562 
5.7992536e+2, 1.8224508e+2, -1093876.3, -1225046.3, -20448.898, 0.01905044, 0.0035308374, -1090762.3, 63234.19, 0.0, 5.0404825, 4.9560943 
5.7981735e+2, 1.8720098e+2, -1052944.9, -1178078.5, -20927.564, 0.020369036, -0.002946288, -1049537.6, 55886.863, 0.0, 5.0372825, 4.956893 
5.797094e+2, 1.9215693e+2, -1013123.0, -1133463.0, -21056.19, 0.021676995, -0.009637577, -1009545.1, 47307.2, 0.0, 5.0340724, 4.956882 
5.796015e+2, 1.9711287e+2, -974158.2, -1090711.5, -21143.918, 0.022971328, -0.0159794, -970441.06, 37838.996, 0.0, 5.0308566, 4.9562225 
5.7949305e+2, 2.020673e+2, -937271.0, -1052641.5, -22311.002, 0.024393719, -0.013230759, -933106.7, 26617.266, 0.0, 5.0276465, 4.953961 
5.793836e+2, 2.0702124e+2, -896251.94, -1005455.75, -22560.26, 0.027590176, -0.018057348, -891774.8, 19399.752, 0.0, 5.024408, 4.9547787 
5.792743e+2, 2.1197523e+2, -856340.94, -960670.44, -22587.133, 0.03078253, -0.023015713, -851660.8, 10963.838, 0.0, 5.021161, 4.954763 
5.79165e+2, 2.1692921e+2, -817065.75, -917294.2, -22581.344, 0.033901248, -0.027774785, -812213.1, 1861.7329, 0.0, 5.0179086, 4.954248 
5.790557e+2, 2.2188188e+2, -780365.2, -879582.0, -22352.72, 0.03528613, -0.02019844, -775561.9, -10023.668, 0.0, 5.0146627, 4.951748 
5.789463e+2, 2.2683454e+2, -738548.25, -830708.6, -22489.887, 0.03543528, -0.020442063, -733352.9, -16350.983, 0.0, 5.0114117, 4.9530683 
5.788369e+2, 2.3178728e+2, -698468.94, -785658.3, -22516.396, 0.035623126, -0.021078004, -692997.5, -24532.791, 0.0, 5.0081534, 4.9530644 
5.7872766e+2, 2.3674002e+2, -659017.06, -742008.5, -22510.92, 0.035783216, -0.021594672, -653304.3, -33376.78, 0.0, 5.0048885, 4.952559 
5.786192e+2, 2.4169068e+2, -623240.9, -706405.5, -21026.723, 0.035873663, -0.01342786, -618226.94, -46814.598, 0.0, 5.001627, 4.9492073 
5.78512e+2, 2.4664079e+2, -581045.2, -657034.94, -20790.059, 0.03566063, -0.0144920135, -575729.1, -52824.543, 0.0, 4.998417, 4.950605 
5.7840496e+2, 2.5159103e+2, -540639.8, -611710.2, -20773.94, 0.0353726, -0.016077466, -535013.06, -60617.21, 0.0, 4.9952064, 4.950593 
5.7829803e+2, 2.5654125e+2, -500450.5, -566903.6, -20744.016, 0.035028726, -0.017639453, -494506.7, -68619.41, 0.0, 4.9919915, 4.950382 
5.78192e+2, 2.614897e+2, -465211.66, -532580.25, -18512.957, 0.033727713, -0.0037399658, -460459.47, -83063.88, 0.0, 4.98871, 4.946457 
5.7808834e+2, 2.6643875e+2, -421439.2, -479531.25, -17972.285, 0.032204796, 0.00034501214, -416328.6, -87431.57, 0.0, 4.9854517, 4.9490776 
5.7798475e+2, 2.7138793e+2, -380947.63, -434012.6, -17937.832, 0.030745225, 0.0028594458, -375452.94, -95055.81, 0.0, 4.982198, 4.949068 
5.778812e+2, 2.763371e+2, -340480.6, -388580.2, -17894.799, 0.029248305, 0.005379979, -334553.44, -102656.08, 0.0, 4.9789395, 4.949011 
5.7777876e+2, 2.8128198e+2, -309761.88, -363984.28, -15989.654, 0.028846063, 0.014496626, -305397.9, -121957.27, 0.0, 4.9755173, 4.941591 
5.776778e+2, 2.862251e+2, -266583.94, -310228.97, -15559.596, 0.030758524, 0.0055118944, -261604.9, -126601.32, 0.0, 4.971842, 4.9445534 
5.7757705e+2, 2.9116848e+2, -226884.75, -264873.16, -15275.174, 0.032610968, -0.0044932226, -221504.58, -134940.42, 0.0, 4.968208, 4.9445467 
5.774764e+2, 2.9611185e+2, -186553.42, -219200.31, -15006.576, 0.034337748, -0.014277228, -180703.64, -142579.03, 0.0, 4.964779, 4.94454 
5.773772e+2, 3.0107513e+2, -125473.305, -91106.92, -12262.679, 0.031525057, 0.0064344313, -87180.04, -87180.04, 0.0, 4.9610133, 4.983186 
5.772838e+2, 3.0606872e+2, -127890.164, -76278.05, -11150.172, 0.03526613, 0.04582104, -73972.2, -73972.2, 0.0, 4.957046, 4.9901743 
5.7719135e+2, 3.110632e+2, -138474.23, -80694.484, -11690.326, 0.040658936, 0.08147695, -78418.85, -78418.85, 0.0, 4.9530783, 4.990256 
5.770991e+2, 3.1605753e+2, -149061.9, -85144.52, -12290.374, 0.045760624, 0.11370426, -82862.73, -82862.73, 0.0, 4.949099, 4.9903383 
5.8618945e+2, 1.22836724e+2, -1548336.5, -1736740.9, 7639.5425, -0.04240248, 0.07885886, -1548027.1, 188207.13, 0.0, 5.0840874, 4.959739 
5.8609736e+2, 1.2779121e+2, -1509147.1, -1692082.4, -1207.8225, -0.0071846945, 0.028283317, -1509139.1, 178539.5, 0.0, 5.0806236, 4.9601636 
5.8600134e+2, 1.3275057e+2, -1470995.8, -1648718.8, -1449.8398, -0.0056588054, 0.0269297, -1470984.0, 168091.45, 0.0, 5.077053, 4.96015 
5.859054e+2, 1.3770989e+2, -1435217.9, -1610420.4, -1956.0825, -0.0033545548, 0.027128007, -1435196.1, 155276.39, 0.0, 5.073488, 4.958436 
5.858064e+2, 1.4266828e+2, -1395060.5, -1564395.9, -6153.229, 0.00019490352, 0.037807852, -1394837.3, 147040.28, 0.0, 5.070086, 4.9591827 
5.857046e+2, 1.4762661e+2, -1355778.4, -1519278.9, -6545.766, 0.0031150437, 0.02977056, -1355516.8, 137765.61, 0.0, 5.0666037, 4.9596486 
5.856029e+2, 1.5258488e+2, -1317151.9, -1475552.9, -6726.69, 0.006185815, 0.02110914, -1316866.8, 127820.78, 0.0, 5.0631194, 4.9596334 
5.8550125e+2, 1.5754314e+2, -1279970.6, -1434959.9, -7151.834, 0.009311484, 0.012813825, -1279641.3, 116451.63, 0.0, 5.0596395, 4.9585505 
5.853969e+2, 1.625001e+2, -1241395.4, -1392657.9, -10810.334, 0.011660272, 0.011814364, -1240626.8, 106884.66, 0.0, 5.0563107, 4.9580164 
5.852894e+2, 1.6745767e+2, -1201630.5, -1347081.9, -11332.079, 0.012285668, 0.008142957, -1200752.9, 98171.12, 0.0, 5.0529165, 4.9585195 
5.8518195e+2, 1.7241532e+2, -1162561.4, -1302974.6, -11391.116, 0.0128691355, 0.0046109953, -1161643.3, 88692.99, 0.0, 5.0495186, 4.95851 
5.850745e+2, 1.7737292e+2, -1124555.1, -1261191.1, -11416.151, 0.013429824, 0.0014638697, -1123607.9, 78140.66, 0.0, 5.046122, 4.9576993 
5.8496547e+2, 1.8232909e+2, -1087065.9, -1221023.0, -14033.752, 0.014045752, 0.0053780284, -1085611.5, 67563.13, 0.0, 5.0427656, 4.956326 
5.848541e+2, 1.8728496e+2, -1046765.94, -1174449.9, -14349.844, 0.0153196715, -0.0012474809, -1045173.06, 59430.004, 0.0, 5.0393667, 4.9570885 
5.847429e+2, 1.9224086e+2, -1007494.9, -1130104.5, -14344.078, 0.016651217, -0.008171027, -1005839.1, 50192.16, 0.0, 5.035967, 4.9570785 
5.8463174e+2, 1.9719675e+2, -969055.1, -1087608.9, -14299.053, 0.018037254, -0.014870002, -967354.9, 40104.734, 0.0, 5.0325685, 4.95642 
5.845199e+2, 2.0215115e+2, -932391.1, -1049326.5, -15356.616, 0.019889994, -0.013039197, -930408.06, 28495.703, 0.0, 5.0292144, 4.9542966 
5.844072e+2, 2.0710522e+2, -891762.3, -1002364.3, -15484.67, 0.023104372, -0.017587021, -889635.3, 20717.566, 0.0, 5.025854, 4.9550977 
5.8429456e+2, 2.1205935e+2, -852191.25, -957727.4, -15406.341, 0.026326664, -0.0222337, -849988.2, 11813.32, 0.0, 5.0224934, 4.9550867 
5.841819e+2, 2.1701346e+2, -813233.4, -914486.25, -15297.668, 0.029531566, -0.026735296, -810972.6, 2277.6, 0.0, 5.0191345, 4.9545765 
5.840693e+2, 2.219663e+2, -777003.9, -876985.6, -14935.5, 0.031084228, -0.018660577, -774820.44, -10108.568, 0.0, 5.0157294, 4.952081 
5.839566e+2, 2.2691897e+2, -735668.2, -828447.4, -14989.146, 0.031778526, -0.019260019, -733306.7, -17131.29, 0.0, 5.0123324, 4.9533577 
5.83844e+2, 2.3187172e+2, -695973.06, -783583.1, -14954.12, 0.0325579, -0.020342816, -693490.9, -25852.691, 0.0, 5.00894, 4.9533534 
5.837315e+2, 2.3682447e+2, -656879.3, -740106.2, -14888.649, 0.03336482, -0.021409035, -654296.06, -35195.016, 0.0, 5.00555, 4.9528475 
5.836198e+2, 2.4177516e+2, -621407.7, -704297.94, -13275.552, 0.0339371, -0.013916516, -619333.4, -48748.18, 0.0, 5.0021167, 4.949644 
5.8350927e+2, 2.4672554e+2, -579907.0, -655232.2, -12902.728, 0.03392674, -0.014527728, -577758.1, -55683.473, 0.0, 4.998663, 4.9510474 
5.8339894e+2, 2.5167602e+2, -540181.3, -610201.0, -12732.007, 0.033911686, -0.015540068, -537938.06, -64374.918, 0.0, 4.995213, 4.95104 
5.8328855e+2, 2.566265e+2, -500653.53, -565675.9, -12550.282, 0.0339173, -0.016496569, -498315.25, -73263.46, 0.0, 4.991765, 4.9508343 
5.831793e+2, 2.6157516e+2, -465967.97, -531577.0, -10098.007, 0.032957286, -0.0025224725, -464448.94, -87891.19, 0.0, 4.9882865, 4.946918 
5.830722e+2, 2.6652429e+2, -422690.8, -478842.66, -9470.333, 0.03129909, 0.00046969406, -421136.6, -93078.055, 0.0, 4.984876, 4.949498 
5.829653e+2, 2.7147353e+2, -382621.7, -433486.06, -9346.152, 0.029724794, 0.0019288532, -380958.72, -101400.664, 0.0, 4.981476, 4.9494953 
5.8285844e+2, 2.7642277e+2, -342557.84, -388203.53, -9219.964, 0.028202489, 0.0034420062, -340765.84, -109708.26, 0.0, 4.9780765, 4.9494452 
5.827525e+2, 2.813679e+2, -311729.88, -363011.1, -7228.8364, 0.02784231, 0.01202731, -310730.34, -128131.81, 0.0, 4.974607, 4.9422503 
5.8264804e+2, 2.863115e+2, -267876.84, -308851.03, -6740.9683, 0.02969019, 0.003725158, -266796.34, -132640.42, 0.0, 4.971169, 4.94525 
5.825436e+2, 2.9125538e+2, -227830.17, -263272.75, -6413.0854, 0.0315461, -0.005536663, -226705.47, -140994.69, 0.0, 4.9676657, 4.9452624 
5.8243936e+2, 2.961993e+2, -188404.95, -217932.05, -6064.3022, 0.033317674, -0.014609505, -187207.98, -149942.53, 0.0, 4.96392, 4.945274 
5.8233637e+2, 3.0116308e+2, -127911.484, -90834.98, -3554.9854, 0.029531268, 0.0071814177, -90497.195, -90497.195, 0.0, 4.9601374, 4.983567 
5.822388e+2, 3.0615643e+2, -131700.83, -77536.14, -2513.4238, 0.03053711, 0.047855202, -77419.766, -77419.766, 0.0, 4.9558997, 4.9901175 
5.8214206e+2, 3.1115055e+2, -143478.05, -82345.41, -2986.1516, 0.034795333, 0.08442006, -82199.88, -82199.88, 0.0, 4.951514, 4.990236 
5.820456e+2, 3.161446e+2, -155737.08, -87404.1, -3434.243, 0.04048097, 0.11735739, -87231.94, -87231.94, 0.0, 4.946951, 4.9903526 
5.912728e+2, 1.2292745e+2, -1547597.5, -1735846.9, 4303.793, -0.044179145, 0.08939922, -1547499.1, 187848.42, 0.0, 5.084157, 4.9600325 
5.911784e+2, 1.2788008e+2, -1509253.8, -1692892.8, -3846.705, 0.0053158123, 0.022273166, -1509173.1, 177636.22, 0.0, 5.0806875, 4.9599 
5.9107804e+2, 1.3283947e+2, -1471104.1, -1649516.4, -4084.1243, -0.00019165709, 0.02400875, -1471010.8, 167194.19, 0.0, 5.077114, 4.95989 
5.9097785e+2, 1.3779885e+2, -1435271.1, -1611087.1, -4573.635, -0.0050511225, 0.027269043, -1435152.3, 154448.48, 0.0, 5.073547, 4.95822 
5.908749e+2, 1.427572e+2, -1395061.1, -1564869.3, -8741.294, -0.00581833, 0.039226856, -1394612.4, 146393.63, 0.0, 5.070134, 4.959034 
5.9076965e+2, 1.4771536e+2, -1355791.1, -1519773.1, -9128.592, -0.0026730595, 0.03109811, -1355284.5, 137128.34, 0.0, 5.0666513, 4.959493 
5.906645e+2, 1.526735e+2, -1317165.9, -1476046.1, -9310.837, 0.00062023464, 0.02243763, -1316622.1, 127198.03, 0.0, 5.063166, 4.9594784 
5.9055936e+2, 1.5763159e+2, -1280003.0, -1435493.8, -9726.3955, 0.003955881, 0.014163616, -1279397.0, 115830.67, 0.0, 5.059686, 4.958382 
5.904516e+2, 1.6258854e+2, -1241147.3, -1392535.8, -13379.856, 0.0065647396, 0.013498519, -1239973.9, 106672.64, 0.0, 5.0563498, 4.958067 
5.903407e+2, 1.6754617e+2, -1201419.9, -1347034.1, -13873.284, 0.007149184, 0.010011966, -1200109.9, 97948.58, 0.0, 5.052955, 4.9585457 
5.902298e+2, 1.7250386e+2, -1162353.0, -1302929.8, -13933.1045, 0.007664557, 0.0066677597, -1160985.4, 88484.69, 0.0, 5.0495567, 4.9585357 
5.9011894e+2, 1.7746153e+2, -1124349.3, -1261150.4, -13962.474, 0.008140545, 0.003729488, -1122938.8, 77942.95, 0.0, 5.04616, 4.957724 
5.900064e+2, 1.8241778e+2, -1086673.3, -1220601.3, -16619.674, 0.008539471, 0.007445036, -1084641.6, 67665.22, 0.0, 5.0428057, 4.956483 
5.898918e+2, 1.8737373e+2, -1046434.6, -1174150.3, -16909.186, 0.009756341, 0.00042360672, -1044233.8, 59500.88, 0.0, 5.039406, 4.9572053 
5.897771e+2, 1.9232969e+2, -1007169.7, -1129809.3, -16902.854, 0.011008696, -0.006819767, -1004882.75, 50279.477, 0.0, 5.0360045, 4.957195 
5.8966255e+2, 1.9728567e+2, -968735.9, -1087317.5, -16857.043, 0.012289223, -0.01378932, -966386.1, 40203.66, 0.0, 5.0326047, 4.9565363 
5.8954734e+2, 2.022402e+2, -931912.3, -1048726.3, -17912.97, 0.014017846, -0.012297755, -929227.1, 28805.492, 0.0, 5.0292573, 4.954513 
5.894312e+2, 2.0719458e+2, -891301.94, -1001796.9, -18033.383, 0.016535686, -0.016023777, -888433.25, 21045.32, 0.0, 5.025896, 4.955304 
5.8931506e+2, 2.1214901e+2, -851737.1, -957165.9, -17954.625, 0.019020949, -0.019780805, -848763.3, 12160.708, 0.0, 5.022534, 4.9552927 
5.89199e+2, 2.1710342e+2, -812785.7, -913930.9, -17845.299, 0.021471202, -0.023358831, -809729.56, 2640.0327, 0.0, 5.019174, 4.9547815 
5.89083e+2, 2.2205651e+2, -776516.8, -876371.2, -17546.523, 0.02300139, -0.015131057, -773523.25, -9694.584, 0.0, 5.0157723, 4.952307 
5.88967e+2, 2.2700922e+2, -735268.44, -828024.75, -17576.285, 0.024684671, -0.017082686, -732049.6, -16757.611, 0.0, 5.0123754, 4.9535193 
5.8885115e+2, 2.31962e+2, -695579.3, -783167.1, -17540.344, 0.02640853, -0.019436449, -692197.25, -25442.602, 0.0, 5.008982, 4.953514 
5.887353e+2, 2.3691477e+2, -656491.56, -739696.6, -17473.69, 0.028125754, -0.021741264, -652970.94, -34753.516, 0.0, 5.0055904, 4.953007 
5.886202e+2, 2.4186563e+2, -620788.9, -703361.3, -15907.932, 0.029079273, -0.01497233, -617830.1, -48130.266, 0.0, 5.0021563, 4.949984 
5.885063e+2, 2.4681643e+2, -579279.3, -654276.4, -15558.258, 0.029047903, -0.014956871, -576179.8, -54995.07, 0.0, 4.998703, 4.9513955 
5.8839244e+2, 2.517673e+2, -539556.06, -609250.4, -15387.313, 0.029013122, -0.015318021, -536310.0, -63641.387, 0.0, 4.9952526, 4.9513874 
5.882787e+2, 2.567182e+2, -500030.66, -564730.4, -15205.264, 0.02898317, -0.015639072, -496635.38, -72482.79, 0.0, 4.9918046, 4.9511805 
5.88166e+2, 2.6166722e+2, -465323.66, -530591.1, -12731.426, 0.028415216, -0.0017114889, -462928.13, -87273.445, 0.0, 4.988328, 4.947277 
5.8805555e+2, 2.6661658e+2, -422128.03, -478046.47, -12119.383, 0.02719374, 0.00042050914, -419614.38, -92460.81, 0.0, 4.984918, 4.949793 
5.8794534e+2, 2.7156603e+2, -382061.1, -432694.28, -11994.803, 0.025951069, 0.0010636934, -379363.3, -100712.04, 0.0, 4.9815183, 4.9497895 
5.878351e+2, 2.7651548e+2, -341998.34, -387415.63, -11867.714, 0.024708498, 0.0017552341, -339084.25, -108935.21, 0.0, 4.97812, 4.949739 
5.877257e+2, 2.8146097e+2, -310755.75, -361394.8, -9910.968, 0.024295213, 0.009950788, -308885.1, -127199.01, 0.0, 4.97467, 4.9428253 
5.876177e+2, 2.8640524e+2, -266826.72, -307200.13, -9391.294, 0.025327384, 0.0024673003, -264749.13, -131513.48, 0.0, 4.971255, 4.9458313 
5.875098e+2, 2.913498e+2, -226514.2, -261515.86, -9007.701, 0.02627833, -0.005894278, -224332.1, -139549.44, 0.0, 4.9678483, 4.9458413 
5.8740205e+2, 2.9629436e+2, -186145.95, -215769.78, -8630.314, 0.027143957, -0.014057333, -183815.08, -147485.56, 0.0, 4.9644413, 4.9458513 
5.872953e+2, 3.0125856e+2, -125782.99, -90039.59, -6341.1016, 0.020837793, 0.007206691, -88947.984, -88947.984, 0.0, 4.960856, 4.9835935 
5.871935e+2, 3.06251e+2, -128801.28, -77754.016, -5405.26, 0.014636138, 0.04366073, -77187.945, -77187.945, 0.0, 4.9571323, 4.989574 
5.870925e+2, 3.1124398e+2, -138647.03, -81820.66, -6039.815, 0.011281022, 0.0755709, -81185.805, -81185.805, 0.0, 4.9534397, 4.9896684 
5.869919e+2, 3.1623688e+2, -148481.84, -85918.79, -6733.5537, 0.009515633, 0.10376356, -85202.27, -85202.27, 0.0, 4.9497404, 4.9897647 
5.963571e+2, 1.230166e+2, -1546686.9, -1734601.4, 869.16016, -0.035893943, 0.08392586, -1546682.9, 187793.5, 0.0, 5.084229, 4.9604406 
5.962595e+2, 1.2796898e+2, -1509360.8, -1693703.0, -6490.9346, 0.017661829, 0.016542114, -1509132.5, 176807.33, 0.0, 5.0807533, 4.959635 
5.961548e+2, 1.3292842e+2, -1471213.0, -1650313.9, -6723.7495, 0.005062038, 0.021326018, -1470960.9, 166373.19, 0.0, 5.0771775, 4.959629 
5.960502e+2, 1.3788784e+2, -1435344.0, -1611791.5, -7206.3184, -0.00702771, 0.027592473, -1435050.1, 153678.39, 0.0, 5.0736074, 4.95799 
5.9594333e+2, 1.4284614e+2, -1395058.5, -1565342.8, -11327.305, -0.011822008, 0.04064025, -1394308.4, 145826.03, 0.0, 5.0701847, 4.9588847 
5.958347e+2, 1.4780413e+2, -1355801.9, -1520269.5, -11711.419, -0.008436513, 0.032403298, -1354972.1, 136571.33, 0.0, 5.0667005, 4.9593363 
5.95726e+2, 1.5276209e+2, -1317177.8, -1476541.8, -11894.986, -0.0049164603, 0.023728207, -1316294.9, 126657.92, 0.0, 5.063215, 4.959322 
5.956175e+2, 1.5772003e+2, -1280033.5, -1436027.8, -12305.169, -0.0013690795, 0.015475597, -1279068.9, 115293.49, 0.0, 5.0597343, 4.958214 
5.9550625e+2, 1.6267698e+2, -1240900.0, -1392425.0, -15949.504, 0.0014047676, 0.015287122, -1239239.4, 106542.06, 0.0, 5.0563903, 4.958114 
5.953919e+2, 1.6763468e+2, -1201206.4, -1346989.6, -16413.918, 0.0019479925, 0.011961681, -1199381.1, 97811.59, 0.0, 5.052995, 4.958571 
5.952776e+2, 1.725924e+2, -1162141.8, -1302888.1, -16474.523, 0.0023996239, 0.00877888, -1160239.1, 88364.555, 0.0, 5.0495963, 4.9585605 
5.951634e+2, 1.7755015e+2, -1124150.0, -1261132.4, -16490.54, 0.0027938175, 0.006028546, -1122192.8, 77821.914, 0.0, 5.0461993, 4.9577417 
5.950474e+2, 1.8250649e+2, -1086274.9, -1220178.0, -19221.344, 0.0030371144, 0.009535975, -1083570.4, 67868.805, 0.0, 5.042848, 4.9566402 
5.9492934e+2, 1.874625e+2, -1046100.7, -1173853.9, -19468.365, 0.004215879, 0.0020589922, -1043199.75, 59666.54, 0.0, 5.0394464, 4.957321 
5.9481126e+2, 1.9241855e+2, -1006841.94, -1129517.3, -19461.467, 0.005405512, -0.0055728606, -1003828.56, 50464.605, 0.0, 5.0360436, 4.95731 
5.946933e+2, 1.9737458e+2, -968413.9, -1087029.1, -19414.855, 0.0065969555, -0.012881462, -965316.94, 40403.105, 0.0, 5.032643, 4.9566517 
5.9457475e+2, 2.0232926e+2, -931452.06, -1048176.75, -20460.287, 0.00803644, -0.011349464, -927969.5, 29191.805, 0.0, 5.0293016, 4.954712 
5.944551e+2, 2.0728394e+2, -890838.9, -1001232.9, -20581.484, 0.009864079, -0.014283055, -887126.56, 21477.576, 0.0, 5.0259395, 4.9555097 
5.9433556e+2, 2.1223868e+2, -851280.3, -956607.75, -20502.299, 0.011634793, -0.017219575, -847430.2, 12616.196, 0.0, 5.0225763, 4.9554973 
5.9421605e+2, 2.171934e+2, -812335.25, -913378.8, -20392.324, 0.01335282, -0.019942984, -808374.94, 3113.8186, 0.0, 5.019215, 4.954985 
5.9409666e+2, 2.2214673e+2, -776047.56, -875806.1, -20151.375, 0.014923891, -0.01155354, -772130.75, -9185.335, 0.0, 5.0158176, 4.952516 
5.939774e+2, 2.2709946e+2, -734866.2, -827605.25, -20162.314, 0.017637877, -0.014932164, -730672.4, -16263.712, 0.0, 5.01242, 4.9536796 
5.9385824e+2, 2.3205228e+2, -695183.06, -782754.2, -20125.459, 0.02034721, -0.018633496, -690779.3, -24908.096, 0.0, 5.009026, 4.9536734 
5.937391e+2, 2.3700507e+2, -656101.25, -739290.1, -20057.625, 0.023015615, -0.0222533, -651517.75, -34183.867, 0.0, 5.005633, 4.953165 
5.936206e+2, 2.4195611e+2, -620187.9, -702474.5, -18538.307, 0.024200547, -0.015882932, -616204.2, -47389.8, 0.0, 5.0021977, 4.950307 
5.9350324e+2, 2.4690734e+2, -578648.3, -653324.25, -18212.42, 0.024159411, -0.015251192, -574443.3, -54148.727, 0.0, 4.9987445, 4.951742 
5.93386e+2, 2.5185862e+2, -538927.5, -608303.44, -18041.252, 0.02412936, -0.015036045, -534516.3, -62742.457, 0.0, 4.9952946, 4.951733 
5.932688e+2, 2.5680992e+2, -499404.47, -563788.56, -17858.877, 0.02408824, -0.014796345, -494782.56, -71529.26, 0.0, 4.9918466, 4.9515257 
5.931527e+2, 2.617593e+2, -464696.03, -529652.5, -15361.962, 0.02388719, -0.0008852172, -461246.2, -86494.63, 0.0, 4.9883714, 4.94762 
5.9303886e+2, 2.6670885e+2, -421562.75, -477253.06, -14767.446, 0.023091651, 0.00037671434, -417889.2, -91640.62, 0.0, 4.9849625, 4.9500866 
5.9292525e+2, 2.7165854e+2, -381497.97, -431905.3, -14642.469, 0.022192659, 0.00016691833, -377553.28, -99808.79, 0.0, 4.9815626, 4.950083 
5.9281164e+2, 2.766082e+2, -341437.4, -386631.03, -14514.957, 0.021241836, -0.00000006467878, -337177.2, -107936.695, 0.0, 4.978164, 4.9500313 
5.926989e+2, 2.8155404e+2, -309818.9, -359802.97, -12568.707, 0.020727025, 0.007892806, -306836.44, -126062.91, 0.0, 4.974722, 4.943397 
5.9258735e+2, 2.8649902e+2, -265861.53, -305589.56, -12057.821, 0.020866686, 0.0012347434, -262488.28, -130173.03, 0.0, 4.9713125, 4.9464116 
5.92476e+2, 2.9144424e+2, -225544.53, -259917.2, -11674.876, 0.020853732, -0.0062492434, -221954.14, -138099.67, 0.0, 4.967909, 4.946418 
5.9236467e+2, 2.9638946e+2, -185171.84, -214183.06, -11298.139, 0.020718204, -0.013537255, -181291.03, -145897.47, 0.0, 4.964505, 4.9464245 
5.922542e+2, 3.013539e+2, -125550.76, -90345.31, -9160.082, 0.011321089, 0.006325814, -88104.58, -88104.58, 0.0, 4.9609437, 4.983484 
5.9214824e+2, 3.0634528e+2, -128991.0, -79355.695, -8190.7095, -0.002399833, 0.036997113, -78039.01, -78039.01, 0.0, 4.957259, 4.988991 
5.9204304e+2, 3.1133702e+2, -138752.55, -83508.79, -8761.636, -0.013976487, 0.06273355, -82152.49, -82152.49, 0.0, 4.9536023, 4.9890494 
5.919382e+2, 3.1632864e+2, -148503.13, -87693.39, -9391.904, -0.024424253, 0.08457745, -86275.875, -86275.875, 0.0, 4.949939, 4.98911 
6.014414e+2, 1.2310567e+2, -1548847.6, -1734384.8, 507.73108, -0.022363966, 0.07176616, -1548846.3, 184758.67, 0.0, 5.0832467, 4.9609632 
6.0134006e+2, 1.2805864e+2, -1511268.1, -1694919.4, -6014.197, 0.028679457, 0.012188405, -1511071.4, 173990.53, 0.0, 5.080196, 4.95948 
6.012312e+2, 1.3301803e+2, -1472021.3, -1651021.0, -6260.582, 0.009711593, 0.018794917, -1471802.5, 164653.44, 0.0, 5.0769997, 4.9594626 
6.0112256e+2, 1.3797742e+2, -1435184.8, -1612011.0, -6768.3506, -0.008745169, 0.02705945, -1434926.1, 152924.14, 0.0, 5.073754, 4.9578342 
6.010119e+2, 1.4293559e+2, -1394213.0, -1565091.3, -10891.707, -0.016747389, 0.040717665, -1393521.6, 145735.69, 0.0, 5.0705223, 4.9588027 
6.0089976e+2, 1.4789344e+2, -1354866.5, -1520027.0, -11326.633, -0.0132657895, 0.032822, -1354093.4, 136574.81, 0.0, 5.067077, 4.959236 
6.0078764e+2, 1.5285128e+2, -1316140.1, -1476274.9, -11569.009, -0.00967248, 0.024589926, -1315308.6, 126770.62, 0.0, 5.063628, 4.9592156 
6.0067564e+2, 1.5780908e+2, -1278900.5, -1435752.8, -12034.606, -0.0060721054, 0.016836796, -1277982.5, 115508.17, 0.0, 5.060184, 4.9580965 
6.0056096e+2, 1.62766e+2, -1239476.4, -1391632.0, -15763.184, -0.0032874017, 0.017248306, -1237860.5, 107049.73, 0.0, 5.056847, 4.95817 
6.0044324e+2, 1.6772367e+2, -1199866.1, -1346289.6, -16342.033, -0.0026956245, 0.013711129, -1198064.4, 98257.516, 0.0, 5.053432, 4.958607 
6.003256e+2, 1.7268136e+2, -1160869.1, -1302227.5, -16543.59, -0.0021656125, 0.010289524, -1158958.8, 88774.51, 0.0, 5.0500097, 4.9585967 
6.0020787e+2, 1.7763907e+2, -1122950.3, -1260498.8, -16703.754, -0.0016707935, 0.0073112673, -1120950.9, 78193.75, 0.0, 5.0465846, 4.9577837 
6.000885e+2, 1.8259543e+2, -1084957.3, -1219245.4, -19591.88, -0.0014190793, 0.010590156, -1082157.3, 68411.45, 0.0, 5.0432215, 4.956795 
5.9996706e+2, 1.8755153e+2, -1044839.44, -1173007.1, -19951.209, -0.00027783855, 0.003053655, -1041805.56, 60189.656, 0.0, 5.0398135, 4.957453 
5.998456e+2, 1.9250764e+2, -1005628.1, -1128700.5, -20073.285, 0.0008624139, -0.0046611433, -1002436.9, 50984.61, 0.0, 5.0363965, 4.957441 
5.997242e+2, 1.9746377e+2, -967270.56, -1086252.1, -20150.764, 0.0019885197, -0.012080282, -963950.5, 40897.324, 0.0, 5.0329733, 4.9567814 
5.9960216e+2, 2.024186e+2, -930334.7, -1047299.6, -21301.268, 0.0028750072, -0.010035821, -926576.2, 29711.443, 0.0, 5.029598, 4.9548926 
5.9947914e+2, 2.073735e+2, -889776.6, -1000337.06, -21590.93, 0.0038400544, -0.012364163, -885709.75, 22018.057, 0.0, 5.0262055, 4.955712 
5.9935606e+2, 2.1232848e+2, -850309.44, -955752.6, -21661.389, 0.0047980603, -0.014737734, -846032.94, 13134.59, 0.0, 5.0228086, 4.9557023 
5.9923315e+2, 2.1728343e+2, -811468.6, -912570.8, -21688.63, 0.005743827, -0.016904883, -807012.3, 3594.9673, 0.0, 5.0194097, 4.9551926 
5.9911036e+2, 2.2223698e+2, -775237.8, -875014.75, -21599.324, 0.0073951962, -0.008474753, -770762.8, -8700.858, 0.0, 5.0159874, 4.9527335 
5.989878e+2, 2.2718975e+2, -734210.75, -826976.56, -21681.174, 0.011118765, -0.013137322, -729393.6, -15868.654, 0.0, 5.0125537, 4.9538603 
5.988653e+2, 2.321426e+2, -694659.06, -782198.7, -21724.506, 0.014815447, -0.018069495, -689564.25, -24576.918, 0.0, 5.009115, 4.953851 
5.9874284e+2, 2.3709543e+2, -655727.2, -738815.44, -21733.637, 0.018455502, -0.022923505, -650385.7, -33935.86, 0.0, 5.0056715, 4.9533405 
5.98621e+2, 2.4204668e+2, -619747.7, -701655.7, -20339.658, 0.019685088, -0.016563224, -614974.94, -47046.703, 0.0, 5.0021963, 4.950619 
5.985002e+2, 2.4699828e+2, -578192.6, -652420.9, -20167.719, 0.019569974, -0.015394523, -573067.0, -53663.047, 0.0, 4.9987307, 4.9520917 
5.9837943e+2, 2.5195e+2, -538518.7, -607427.94, -20120.059, 0.019497354, -0.014707238, -533074.2, -62195.383, 0.0, 4.9952645, 4.952082 
5.9825885e+2, 2.5690165e+2, -499056.7, -562947.44, -20053.62, 0.01941047, -0.01399788, -493283.97, -70930.17, 0.0, 4.991795, 4.9518743 
5.981394e+2, 2.6185137e+2, -464409.06, -528879.25, -17630.068, 0.01949736, -0.000065155626, -459902.9, -86054.49, 0.0, 4.988305, 4.9479513 
5.980222e+2, 2.6680118e+2, -421335.16, -476593.72, -17145.44, 0.019089032, 0.00032477968, -416447.63, -91104.086, 0.0, 4.9848895, 4.950383 
5.9790516e+2, 2.7175105e+2, -381310.03, -431272.22, -17109.395, 0.018524433, -0.00076329865, -376012.66, -99174.93, 0.0, 4.981476, 4.950378 
5.9778816e+2, 2.7670088e+2, -341265.88, -386013.13, -17060.799, 0.017858483, -0.001819691, -335503.25, -107171.266, 0.0, 4.9780717, 4.950325 
5.97672e+2, 2.8164715e+2, -309326.4, -358408.78, -15161.155, 0.017162241, 0.0058633382, -305020.9, -125160.07, 0.0, 4.974619, 4.943967 
5.97557e+2, 2.8659278e+2, -265312.06, -304158.28, -14688.8955, 0.016311184, 0.00002844436, -260383.16, -128988.4, 0.0, 4.971224, 4.9469914 
5.9744215e+2, 2.9153866e+2, -224665.88, -258356.34, -14306.079, 0.0152747175, -0.0066010593, -219410.75, -136484.55, 0.0, 4.967939, 4.946994 
5.9732735e+2, 2.9648456e+2, -184297.75, -212639.52, -13945.616, 0.014082252, -0.013035865, -178586.63, -144129.06, 0.0, 4.964535, 4.9469967 
5.972131e+2, 3.0144906e+2, -125559.07, -90995.72, -11909.076, 0.0011216113, 0.0044961516, -87289.73, -87289.73, 0.0, 4.9609966, 4.9832506 
5.9710294e+2, 3.0643928e+2, -129308.53, -81004.31, -10909.4, -0.019986564, 0.027954526, -78654.734, -78654.734, 0.0, 4.9573455, 4.988387 
5.969936e+2, 3.1142977e+2, -139001.61, -85250.78, -11416.831, -0.039522335, 0.04619356, -82926.33, -82926.33, 0.0, 4.9537187, 4.98841 
5.9688467e+2, 3.1642005e+2, -148684.4, -89529.05, -11983.647, -0.058390826, 0.060368896, -87193.62, -87193.62, 0.0, 4.9500847, 4.9884343 
6.065259e+2, 1.23205334e+2, -1536195.6, -1726685.1, 5835.007, -0.022437513, 0.065193824, -1536017.0, 196610.03, 0.0, 5.0873756, 4.961456 
6.064214e+2, 1.2815928e+2, -1499969.4, -1689127.8, 235.03525, 0.031048615, 0.017924262, -1499969.1, 184105.3, 0.0, 5.0841427, 4.959427 
6.063092e+2, 1.3311796e+2, -1461063.8, -1645403.9, -9.321219, 0.010689201, 0.019968698, -1461063.8, 174411.58, 0.0, 5.0808363, 4.959412 
6.061971e+2, 1.3807663e+2, -1424340.8, -1606372.5, -470.23376, -0.009209344, 0.023758175, -1424339.5, 162536.94, 0.0, 5.0775375, 4.957822 
6.060831e+2, 1.4303441e+2, -1383474.0, -1559323.6, -4745.2847, -0.017662397, 0.034989532, -1383346.0, 154941.53, 0.0, 5.0742245, 4.9588842 
6.059673e+2, 1.4799228e+2, -1344782.1, -1514663.9, -5107.528, -0.014844641, 0.0290353, -1344628.8, 145069.8, 0.0, 5.0705757, 4.9592886 
6.0585165e+2, 1.5295014e+2, -1306661.4, -1471222.1, -5260.313, -0.01195926, 0.022863587, -1306493.4, 134616.3, 0.0, 5.0669236, 4.959268 
6.0573596e+2, 1.5790798e+2, -1269973.9, -1430914.3, -5605.8184, -0.009099508, 0.017233266, -1269778.8, 122742.25, 0.0, 5.063278, 4.958179 
6.0561764e+2, 1.6286488e+2, -1230991.0, -1386855.1, -9239.614, -0.0071804784, 0.018697636, -1230445.1, 113495.6, 0.0, 5.05975, 4.958328 
6.0549635e+2, 1.6782238e+2, -1191929.1, -1341842.5, -9684.741, -0.0071268147, 0.014456206, -1191306.0, 104048.29, 0.0, 5.056161, 4.958742 
6.0537505e+2, 1.7277989e+2, -1153424.8, -1298026.1, -9792.815, -0.007071011, 0.010268423, -1152764.5, 94003.03, 0.0, 5.0525703, 4.958733 
6.0525393e+2, 1.7773741e+2, -1115968.9, -1256507.6, -9868.05, -0.0069827405, 0.006477577, -1115279.4, 82901.53, 0.0, 5.048982, 4.9579306 
6.05131e+2, 1.8269368e+2, -1078190.3, -1215154.8, -12630.81, -0.0067457175, 0.009322678, -1077035.1, 72570.984, 0.0, 5.0455008, 4.957034 
6.0500604e+2, 1.8764985e+2, -1038376.06, -1169125.5, -12902.51, -0.0054952004, 0.0027334765, -1037115.0, 63917.51, 0.0, 5.0420055, 4.957667 
6.0488117e+2, 1.9260602e+2, -999402.94, -1124934.0, -12960.942, -0.004241933, -0.0040219408, -998078.7, 54379.99, 0.0, 5.03851, 4.957658 
6.0475636e+2, 1.9756219e+2, -961311.0, -1082699.6, -12922.29, -0.0029954799, -0.01049389, -959950.6, 43934.293, 0.0, 5.035016, 4.9569626 
6.046309e+2, 2.0251714e+2, -924557.94, -1043373.56, -14095.707, -0.0020979133, -0.007748923, -922908.6, 32415.244, 0.0, 5.031482, 4.955281 
6.045043e+2, 2.0747206e+2, -884709.8, -996860.44, -14170.275, -0.0012331738, -0.010488255, -882947.06, 23816.44, 0.0, 5.0278683, 4.956052 
6.043777e+2, 2.1242705e+2, -845864.3, -952559.56, -14098.458, -0.00034910612, -0.013357539, -844032.8, 14169.974, 0.0, 5.0242543, 4.956047 
6.042512e+2, 2.1738201e+2, -807629.6, -909650.9, -13993.506, 0.00056088815, -0.016113188, -805745.06, 3897.1067, 0.0, 5.0206423, 4.9555426 
6.0412496e+2, 2.2233556e+2, -771742.1, -872104.2, -13763.699, 0.0024110617, -0.008805023, -769888.75, -8792.114, 0.0, 5.0170712, 4.95315 
6.0399884e+2, 2.272885e+2, -731126.3, -824372.6, -13765.578, 0.0058075665, -0.012795287, -729136.56, -16578.174, 0.0, 5.0135217, 4.954227 
6.038728e+2, 2.322415e+2, -691897.7, -779736.44, -13729.306, 0.009243846, -0.016961956, -689801.75, -25782.256, 0.0, 5.009973, 4.9542212 
6.037469e+2, 2.371945e+2, -653268.2, -736484.06, -13658.025, 0.012721728, -0.021065308, -651083.9, -35603.152, 0.0, 5.006427, 4.953714 
6.0362154e+2, 2.4214594e+2, -617481.8, -699154.2, -12116.411, 0.014040993, -0.014275198, -615722.2, -48764.938, 0.0, 5.0028358, 4.9511075 
6.034972e+2, 2.4709763e+2, -576265.6, -650121.0, -11883.261, 0.01438568, -0.013947202, -574400.7, -55969.188, 0.0, 4.9992642, 4.952561 
6.03373e+2, 2.5204942e+2, -536881.9, -605245.0, -11768.743, 0.014738183, -0.014056007, -534912.6, -65007.754, 0.0, 4.9956975, 4.952557 
6.0324883e+2, 2.570012e+2, -497695.3, -560872.1, -11641.325, 0.015055896, -0.014070807, -495618.47, -74240.25, 0.0, 4.9921327, 4.952355 
6.03126e+2, 2.6195112e+2, -463402.88, -526821.75, -9083.403, 0.015587385, -0.00063342886, -462127.5, -89256.62, 0.0, 4.9884963, 4.94849 
6.030053e+2, 2.669011e+2, -421009.2, -474912.06, -8520.698, 0.015653936, -0.00028992974, -419694.38, -95330.35, 0.0, 4.984855, 4.9508924 
6.0288477e+2, 2.7185118e+2, -381598.88, -429856.63, -8372.539, 0.015649393, -0.0013919295, -380187.53, -104331.27, 0.0, 4.981223, 4.9508896 
6.027643e+2, 2.7680123e+2, -342233.72, -384890.75, -8231.597, 0.015627334, -0.0024651433, -340700.38, -113351.734, 0.0, 4.977578, 4.950838 
6.026447e+2, 2.817479e+2, -310286.9, -356498.38, -6086.8477, 0.015020594, 0.0054849223, -309498.6, -130625.195, 0.0, 4.9739904, 4.9448166 
6.025262e+2, 2.866941e+2, -266135.13, -302122.22, -5563.315, 0.013309859, 0.000098468816, -265294.72, -134894.42, 0.0, 4.970643, 4.9478664 
6.024078e+2, 2.9164058e+2, -226024.13, -256509.1, -5177.3286, 0.011647757, -0.0062233964, -225168.84, -143244.02, 0.0, 4.9671707, 4.9478827 
6.0228956e+2, 2.9658708e+2, -185580.44, -210715.13, -4770.337, 0.010096465, -0.012494761, -184705.53, -151256.22, 0.0, 4.963797, 4.947898 
6.021718e+2, 3.015516e+2, -128007.35, -91363.1, -2985.5283, -0.0036113253, 0.0029685318, -91121.45, -91121.45, 0.0, 4.96023, 4.983324 
6.02058e+2, 3.06541e+2, -132403.52, -81999.1, -2120.888, -0.024533419, 0.022903718, -81910.016, -81910.016, 0.0, 4.956493, 4.98825 
6.01945e+2, 3.1153086e+2, -142925.52, -86339.9, -2658.0366, -0.04253643, 0.039700415, -86215.31, -86215.31, 0.0, 4.952599, 4.98833 
6.018324e+2, 3.1652066e+2, -154009.95, -90954.42, -3167.5605, -0.058626615, 0.05440896, -90795.7, -90795.7, 0.0, 4.9485006, 4.9884067 
6.116128e+2, 1.23308904e+2, -1535770.3, -1726588.0, 2515.598, -0.018204356, 0.056700073, -1535737.1, 195873.81, 0.0, 5.0874643, 4.961485 
6.115045e+2, 1.2826425e+2, -1499963.4, -1689816.6, -2210.0603, 0.032086596, 0.025720248, -1499937.6, 183106.81, 0.0, 5.0842223, 4.9591985 
6.113889e+2, 1.3322218e+2, -1461061.5, -1646078.3, -2449.791, 0.01102546, 0.022394052, -1461029.1, 173423.55, 0.0, 5.080912, 4.9591885 
6.112735e+2, 1.3818008e+2, -1424313.1, -1606970.4, -2896.5356, -0.0096050585, 0.020703888, -1424267.3, 161593.78, 0.0, 5.07761, 4.9576244 
6.111559e+2, 1.4313748e+2, -1383300.9, -1559546.9, -7438.154, -0.018086934, 0.029153712, -1382987.5, 154288.5, 0.0, 5.074286, 4.958817 
6.110364e+2, 1.4809546e+2, -1344673.4, -1515001.1, -7806.952, -0.016062789, 0.025269361, -1344316.3, 144369.95, 0.0, 5.0706334, 4.9591846 
6.10917e+2, 1.5305343e+2, -1306560.6, -1471557.8, -7959.3936, -0.014026027, 0.021270473, -1306177.5, 133918.94, 0.0, 5.0669785, 4.959166 
6.107976e+2, 1.5801139e+2, -1269836.4, -1431151.6, -8295.634, -0.012064746, 0.017877935, -1269410.9, 122095.99, 0.0, 5.0633287, 4.9581113 
6.106755e+2, 1.6296841e+2, -1230773.1, -1386849.3, -11955.809, -0.011202, 0.020405382, -1229862.5, 113063.16, 0.0, 5.0597916, 4.958345 
6.105506e+2, 1.6792582e+2, -1191753.1, -1341919.4, -12364.443, -0.011931892, 0.015496452, -1190741.9, 103598.23, 0.0, 5.056202, 4.9587317 
6.1042565e+2, 1.7288327e+2, -1153250.4, -1298104.3, -12474.191, -0.012667648, 0.010634719, -1152184.0, 93570.29, 0.0, 5.052611, 4.9587226 
6.103008e+2, 1.778407e+2, -1115798.5, -1256594.1, -12555.75, -0.013379787, 0.0061787255, -1114687.6, 82480.91, 0.0, 5.0490227, 4.9579177 
6.101743e+2, 1.8279701e+2, -1077875.3, -1214951.3, -15283.84, -0.013407115, 0.008810731, -1076191.8, 72402.05, 0.0, 5.045545, 4.9571166 
6.100459e+2, 1.877533e+2, -1038107.56, -1169014.8, -15533.744, -0.01214598, 0.0030664562, -1036289.5, 63729.7, 0.0, 5.0420485, 4.957719 
6.0991746e+2, 1.9270964e+2, -999137.9, -1124826.5, -15591.999, -0.01089901, -0.002799305, -997232.56, 54211.89, 0.0, 5.0385523, 4.9577093 
6.097892e+2, 1.9766597e+2, -961055.1, -1082606.6, -15561.239, -0.009674759, -0.008336394, -959094.56, 43775.11, 0.0, 5.0350575, 4.9570103 
6.096601e+2, 2.0262112e+2, -924027.9, -1042693.75, -16838.803, -0.008587883, -0.0049786703, -921684.75, 32621.875, 0.0, 5.031524, 4.9555316 
6.095299e+2, 2.075762e+2, -884220.75, -996268.0, -16901.701, -0.0073136813, -0.008409525, -881726.75, 24017.684, 0.0, 5.0279098, 4.956274 
6.0939986e+2, 2.1253133e+2, -845378.94, -951975.2, -16829.623, -0.00604219, -0.011949963, -842784.94, 14396.968, 0.0, 5.024296, 4.956268 
6.092698e+2, 2.1748646e+2, -807148.25, -909075.25, -16724.207, -0.0047686715, -0.015356136, -804474.25, 4145.272, 0.0, 5.020684, 4.955761 
6.0914e+2, 2.2244014e+2, -771227.2, -871474.25, -16470.307, -0.0029291494, -0.008989172, -768590.5, -8517.87, 0.0, 5.017117, 4.953383 
6.090102e+2, 2.2739339e+2, -730670.44, -823866.9, -16479.32, -0.0005884335, -0.011779048, -727842.3, -16310.716, 0.0, 5.0135665, 4.954419 
6.088805e+2, 2.3234671e+2, -691446.7, -779235.9, -16442.686, 0.0017697673, -0.014679383, -688468.06, -25478.145, 0.0, 5.0100174, 4.9544125 
6.087509e+2, 2.3730002e+2, -652822.0, -735988.5, -16370.7705, 0.0041582244, -0.01750625, -649715.56, -35267.24, 0.0, 5.00647, 4.9539046 
6.0862195e+2, 2.4225177e+2, -616836.6, -698227.4, -14851.903, 0.0054117995, -0.010378325, -614211.2, -48289.45, 0.0, 5.00288, 4.9514465 
6.084942e+2, 2.4720363e+2, -575682.1, -649337.2, -14630.237, 0.0066642296, -0.011536704, -572882.56, -55488.51, 0.0, 4.9993095, 4.952852 
6.083665e+2, 2.5215554e+2, -536299.94, -604465.7, -14516.774, 0.007885576, -0.013127571, -533337.2, -64471.707, 0.0, 4.9957433, 4.9528475 
6.082389e+2, 2.571075e+2, -497114.9, -560097.25, -14390.301, 0.009054641, -0.014635063, -493982.75, -73645.75, 0.0, 4.9921784, 4.9526443 
6.081125e+2, 2.6205766e+2, -462715.56, -525794.8, -11870.77, 0.010280403, -0.0020125725, -460555.6, -88728.664, 0.0, 4.988541, 4.948867 
6.0798824e+2, 2.6700804e+2, -420367.1, -473988.3, -11340.704, 0.0109459935, -0.0011987198, -418067.22, -94751.09, 0.0, 4.9849, 4.951235 
6.0786414e+2, 2.7195853e+2, -380959.47, -428937.3, -11193.815, 0.0115340045, -0.0018031133, -378476.3, -103671.76, 0.0, 4.981268, 4.951231 
6.077401e+2, 2.7690896e+2, -341553.53, -383955.66, -11044.378, 0.012084074, -0.0023895376, -338849.28, -112556.17, 0.0, 4.9776382, 4.95118 
6.0761696e+2, 2.8185618e+2, -309047.78, -354448.84, -8665.033, 0.01158522, 0.0060492167, -307450.22, -129638.35, 0.0, 4.9740734, 4.9455433 
6.074951e+2, 2.868032e+2, -264720.88, -300023.2, -8026.4272, 0.009242711, 0.0011356447, -262981.66, -133651.61, 0.0, 4.9707885, 4.9485908 
6.073734e+2, 2.917504e+2, -224055.55, -254180.72, -7566.3525, 0.0069265026, -0.004719925, -222261.94, -141415.89, 0.0, 4.9675164, 4.948603 
6.072518e+2, 2.9669765e+2, -183336.61, -208278.5, -7114.274, 0.0047175125, -0.010564952, -181450.06, -149087.97, 0.0, 4.9642434, 4.9486156 
6.0713065e+2, 3.0166224e+2, -126313.59, -91564.56, -5164.4204, -0.009734975, 0.002714408, -90813.266, -90813.266, 0.0, 4.9609265, 4.983001 
6.070138e+2, 3.066503e+2, -129466.85, -82357.12, -4275.7866, -0.032152183, 0.015372595, -81972.18, -81972.18, 0.0, 4.957759, 4.987632 
6.0689765e+2, 3.116388e+2, -137853.33, -85786.4, -4903.1323, -0.051862173, 0.02517598, -85328.695, -85328.695, 0.0, 4.954631, 4.9877105 
6.0678184e+2, 3.1662732e+2, -146239.55, -89230.12, -5563.52, -0.06948921, 0.033632115, -88692.25, -88692.25, 0.0, 4.9514937, 4.98779 
6.1670023e+2, 1.2341294e+2, -1535672.0, -1727169.9, -693.9143, -0.0080662975, 0.052603085, -1535669.5, 194920.88, 0.0, 5.0875545, 4.961289 
6.1658764e+2, 1.2836924e+2, -1499957.9, -1690505.1, -4662.1064, 0.033090774, 0.033640888, -1499843.9, 182170.42, 0.0, 5.084303, 4.9589686 
6.1646867e+2, 1.3332641e+2, -1461059.9, -1646752.5, -4897.2065, 0.011274937, 0.024882112, -1460930.8, 172498.97, 0.0, 5.08099, 4.9589634 
6.163498e+2, 1.3828355e+2, -1424311.8, -1607619.5, -5328.2603, -0.010118015, 0.017628862, -1424157.0, 160688.56, 0.0, 5.077684, 4.957409 
6.162288e+2, 1.4324057e+2, -1383127.8, -1559775.6, -10148.569, -0.018605687, 0.0235104, -1382546.6, 153717.75, 0.0, 5.074349, 4.9587474 
6.1610556e+2, 1.4819865e+2, -1344563.3, -1515340.4, -10508.453, -0.017364765, 0.021677913, -1343919.0, 143754.69, 0.0, 5.070693, 4.9590797 
6.1598235e+2, 1.5315676e+2, -1306458.5, -1471895.3, -10660.552, -0.016160876, 0.019812405, -1305774.4, 133308.69, 0.0, 5.0670347, 4.9590626 
6.1585927e+2, 1.5811484e+2, -1269702.5, -1431400.0, -10995.612, -0.015086681, 0.018619783, -1268958.3, 121534.29, 0.0, 5.063381, 4.95804 
6.157334e+2, 1.6307195e+2, -1230552.1, -1386848.0, -14670.911, -0.015243035, 0.022104373, -1229187.0, 112723.63, 0.0, 5.0598354, 4.9583607 
6.156048e+2, 1.6802928e+2, -1191573.8, -1341999.9, -15043.872, -0.016754622, 0.016498797, -1190084.0, 103241.87, 0.0, 5.056245, 4.95872 
6.154762e+2, 1.7298663e+2, -1153072.5, -1298186.0, -15155.295, -0.018281082, 0.010939635, -1151506.6, 93234.29, 0.0, 5.0526533, 4.9587116 
6.153477e+2, 1.7794399e+2, -1115637.8, -1256712.8, -15241.379, -0.019791711, 0.0058066635, -1114009.9, 82146.21, 0.0, 5.049065, 4.957894 
6.1521757e+2, 1.8290034e+2, -1077561.1, -1214760.1, -17933.734, -0.02008808, 0.008474905, -1075255.6, 72325.625, 0.0, 5.045591, 4.9571943 
6.1508566e+2, 1.878568e+2, -1037835.9, -1168907.6, -18164.37, -0.018805834, 0.0035167644, -1035365.2, 63640.6, 0.0, 5.0420933, 4.957769 
6.1495376e+2, 1.9281328e+2, -998869.75, -1124722.6, -18222.447, -0.017554859, -0.0015220233, -996284.44, 54145.69, 0.0, 5.0385966, 4.9577594 
6.14822e+2, 1.9776975e+2, -960798.75, -1082523.4, -18202.143, -0.016345017, -0.006157913, -958135.2, 43719.215, 0.0, 5.035101, 4.9570546 
6.1468935e+2, 2.0272513e+2, -923498.2, -1042025.8, -19578.86, -0.015085119, -0.0021414666, -920347.8, 32941.406, 0.0, 5.031568, 4.9557786 
6.145556e+2, 2.0768036e+2, -883728.44, -995679.56, -19630.988, -0.01336015, -0.006345027, -880385.9, 24339.36, 0.0, 5.027953, 4.9564953 
6.1442196e+2, 2.1263562e+2, -844890.25, -951394.8, -19558.65, -0.01165987, -0.0106380945, -841412.06, 14748.939, 0.0, 5.024339, 4.9564867 
6.1428833e+2, 2.1759088e+2, -806698.4, -908580.5, -19437.484, -0.00997899, -0.014774056, -803116.0, 4480.8657, 0.0, 5.0207276, 4.9559517 
6.141549e+2, 2.2254474e+2, -770709.9, -870849.9, -19184.965, -0.008368915, -0.0089294, -767160.2, -8111.703, 0.0, 5.0171647, 4.953614 
6.140214e+2, 2.2749831e+2, -730211.3, -823365.06, -19192.24, -0.0070610684, -0.010551251, -726412.1, -15907.49, 0.0, 5.013613, 4.95461 
6.1388814e+2, 2.3245195e+2, -690992.4, -778739.25, -19155.246, -0.00574895, -0.012270012, -686993.06, -25032.88, 0.0, 5.010063, 4.9546027 
6.137548e+2, 2.3740557e+2, -652372.56, -735496.8, -19082.697, -0.004418012, -0.013904918, -648201.06, -34785.258, 0.0, 5.006515, 4.954094 
6.1362237e+2, 2.4235763e+2, -616200.75, -697332.7, -17583.99, -0.0032048721, -0.0064649954, -612553.6, -47667.426, 0.0, 5.002927, 4.9517746 
6.134911e+2, 2.4730961e+2, -575095.25, -648557.06, -17375.904, -0.0010325013, -0.009158607, -571192.7, -54836.152, 0.0, 4.999357, 4.9531417 
6.133599e+2, 2.522617e+2, -535714.6, -603690.1, -17263.494, 0.0010781299, -0.012273609, -531581.56, -63755.43, 0.0, 4.995791, 4.9531364 
6.132288e+2, 2.5721374e+2, -496531.06, -559326.1, -17137.967, 0.0031189302, -0.015315756, -492158.28, -72862.49, 0.0, 4.9922266, 4.952933 
6.130989e+2, 2.6216418e+2, -462035.1, -524794.6, -14659.333, 0.0050031818, -0.003343835, -458779.8, -87996.97, 0.0, 4.9885874, 4.9492345 
6.129711e+2, 2.67115e+2, -419721.38, -473068.44, -14159.677, 0.0062711937, -0.0020489497, -416196.0, -93927.87, 0.0, 4.9849467, 4.951576 
6.1284345e+2, 2.7206585e+2, -380315.4, -428021.4, -14014.401, 0.0074555296, -0.002177372, -376503.13, -102750.336, 0.0, 4.981315, 4.951572 
6.1271584e+2, 2.770167e+2, -340911.16, -383043.7, -13866.553, 0.008580562, -0.0022988268, -336757.0, -111519.484, 0.0, 4.9776855, 4.95152 
6.125892e+2, 2.8196448e+2, -307869.63, -352423.53, -11270.956, 0.008122074, 0.0066254465, -305180.7, -128430.51, 0.0, 4.974135, 4.9462724 
6.12464e+2, 2.8691226e+2, -263524.9, -298028.7, -10598.139, 0.0051180576, 0.0021558031, -260529.61, -132269.98, 0.0, 4.970858, 4.9493117 
6.1233896e+2, 2.9186025e+2, -222851.63, -252203.44, -10137.757, 0.0021024272, -0.0032532604, -219690.6, -139923.5, 0.0, 4.967592, 4.949319 
6.12214e+2, 2.968082e+2, -182124.77, -206318.44, -9685.378, -0.00084510876, -0.0086671235, -178725.16, -147450.48, 0.0, 4.964324, 4.9493265 
6.1208963e+2, 3.017728e+2, -126345.14, -92735.82, -7528.906, -0.01634783, 0.0019035563, -91126.33, -91126.33, 0.0, 4.961041, 4.9825764 
6.1196965e+2, 3.067594e+2, -129690.12, -84178.6, -6577.614, -0.040819045, 0.0062093735, -83247.03, -83247.03, 0.0, 4.957898, 4.98697 
6.118504e+2, 3.117464e+2, -138036.2, -87669.37, -7163.963, -0.06332085, 0.0074607055, -86670.22, -86670.22, 0.0, 4.954789, 4.9870257 
6.117314e+2, 3.1673336e+2, -146382.05, -91174.56, -7783.3994, -0.084308214, 0.0073867403, -90098.21, -90098.21, 0.0, 4.9516716, 4.9870825 
6.217877e+2, 1.2351791e+2, -1537482.8, -1728536.0, -131.0319, 0.006078531, 0.04824882, -1537482.6, 192076.67, 0.0, 5.0870867, 4.9610496 
6.216706e+2, 1.2847483e+2, -1500982.8, -1691171.9, -3437.1323, 0.03475616, 0.03790357, -1500920.6, 180056.55, 0.0, 5.0840297, 4.958866 
6.215483e+2, 1.3343145e+2, -1461640.3, -1647263.0, -3700.4143, 0.011826021, 0.025837317, -1461566.5, 170831.66, 0.0, 5.0808687, 4.958843 
6.214261e+2, 1.3838795e+2, -1424590.0, -1608056.5, -4162.861, -0.010176794, 0.014733891, -1424495.5, 159324.64, 0.0, 5.0776696, 4.9572663 
6.213016e+2, 1.4334464e+2, -1382923.8, -1559709.1, -9321.686, -0.01860598, 0.018781908, -1382433.6, 152809.06, 0.0, 5.0744314, 4.958728 
6.2117463e+2, 1.483027e+2, -1344149.4, -1515248.8, -9797.177, -0.018068139, 0.018207794, -1343590.3, 143062.36, 0.0, 5.0708647, 4.9590254 
6.210478e+2, 1.5326077e+2, -1305816.3, -1471676.5, -10067.969, -0.017489824, 0.017557058, -1305207.3, 132855.13, 0.0, 5.0672817, 4.959014 
6.2092096e+2, 1.5821885e+2, -1268825.0, -1431010.1, -10512.2295, -0.016977094, 0.017537713, -1268146.4, 121325.79, 0.0, 5.0636954, 4.958019 
6.207914e+2, 1.6317597e+2, -1229401.6, -1386268.0, -14322.497, -0.017957378, 0.021825505, -1228104.6, 112785.71, 0.0, 5.0602164, 4.9583845 
6.206591e+2, 1.6813323e+2, -1190420.6, -1341481.6, -14830.718, -0.020352537, 0.016342057, -1188978.4, 103328.164, 0.0, 5.0566387, 4.958719 
6.2052685e+2, 1.730905e+2, -1151892.5, -1297660.9, -15107.0205, -0.022764781, 0.010808609, -1150343.4, 93379.195, 0.0, 5.0530562, 4.9587097 
6.2039465e+2, 1.7804778e+2, -1114469.3, -1256240.8, -15350.849, -0.02516307, 0.005642413, -1112826.1, 82312.48, 0.0, 5.049472, 4.9578743 
6.2026095e+2, 1.8300414e+2, -1076352.1, -1214033.1, -18174.945, -0.025798814, 0.0086251795, -1073993.3, 72570.93, 0.0, 5.0459585, 4.9572806 
6.201255e+2, 1.8796065e+2, -1036855.4, -1168358.9, -18552.658, -0.024528246, 0.0041326876, -1034288.06, 63700.605, 0.0, 5.0423946, 4.957828 
6.199901e+2, 1.929172e+2, -998078.9, -1124267.8, -18772.56, -0.023284389, -0.0004384036, -995345.4, 54067.516, 0.0, 5.0388317, 4.957819 
6.1985475e+2, 1.9787373e+2, -960203.6, -1082169.6, -18918.744, -0.022085402, -0.004531548, -957336.44, 43500.563, 0.0, 5.035269, 4.957113 
6.1971855e+2, 2.0282929e+2, -922683.0, -1041120.2, -20527.844, -0.02069098, 0.000024814584, -919225.94, 33044.297, 0.0, 5.03172, 4.956037 
6.195812e+2, 2.0778464e+2, -882885.44, -994826.25, -20745.695, -0.01855033, -0.0047940533, -879164.44, 24540.367, 0.0, 5.028127, 4.9567294 
6.19444e+2, 2.1274003e+2, -844016.8, -950539.4, -20839.318, -0.016434934, -0.009728119, -840085.06, 15053.904, 0.0, 5.024525, 4.9567194 
6.1930686e+2, 2.1769542e+2, -805884.7, -907870.25, -20856.04, -0.01434714, -0.014534363, -801784.5, 4788.87, 0.0, 5.0209155, 4.956136 
6.191698e+2, 2.2264944e+2, -769892.06, -870039.06, -20727.828, -0.013209847, -0.008636591, -765771.5, -7748.12, 0.0, 5.017332, 4.953843 
6.1903274e+2, 2.2760332e+2, -729525.0, -822693.06, -20866.64, -0.012934445, -0.009126181, -725065.0, -15588.159, 0.0, 5.0137477, 4.954808 
6.188957e+2, 2.3255724e+2, -690407.4, -778121.75, -20954.105, -0.01266575, -0.00974019, -685658.7, -24728.873, 0.0, 5.010162, 4.9548006 
6.187588e+2, 2.3751116e+2, -651935.1, -735019.25, -20997.871, -0.012391671, -0.01028287, -646929.8, -34546.926, 0.0, 5.0065746, 4.9542623 
6.186227e+2, 2.4246348e+2, -615608.25, -696355.1, -19632.371, -0.011286619, -0.0025892025, -611087.94, -47237.53, 0.0, 5.002953, 4.9521337 
6.18488e+2, 2.4741562e+2, -574645.6, -647788.06, -19552.344, -0.008323047, -0.006858197, -569747.0, -54428.12, 0.0, 4.999359, 4.9534416 
6.183533e+2, 2.5236782e+2, -535338.25, -602965.9, -19548.85, -0.005411939, -0.011528934, -530094.0, -63307.316, 0.0, 4.9957676, 4.9534345 
6.182188e+2, 2.5732005e+2, -496231.13, -558648.0, -19524.852, -0.0025607545, -0.01613958, -490626.7, -72372.1, 0.0, 4.9921765, 4.9532285 
6.180853e+2, 2.6227075e+2, -461675.34, -523929.3, -17172.45, -0.0001293163, -0.0046302355, -457252.63, -87513.93, 0.0, 4.988526, 4.949601 
6.1795396e+2, 2.6722196e+2, -419365.7, -472261.22, -16782.055, 0.0016891741, -0.0028395436, -414490.6, -93270.52, 0.0, 4.984892, 4.9519215 
6.178227e+2, 2.721732e+2, -379935.44, -427214.13, -16707.414, 0.0034410951, -0.0025062298, -374627.3, -101926.44, 0.0, 4.9812694, 4.9519153 
6.176915e+2, 2.7712446e+2, -340523.9, -382241.34, -16605.07, 0.0051282877, -0.0021850846, -334721.53, -110539.67, 0.0, 4.977643, 4.9518614 
6.175614e+2, 2.8207278e+2, -306933.56, -350491.63, -13803.778, 0.0046326458, 0.007216381, -302927.5, -127239.22, 0.0, 4.9741096, 4.9470057 
6.1743295e+2, 2.8702137e+2, -262417.0, -296069.3, -13132.001, 0.00094187784, 0.0031593647, -257899.11, -130710.06, 0.0, 4.9708986, 4.9500327 
6.1730456e+2, 2.919701e+2, -221743.44, -250265.89, -12682.941, -0.0027863872, -0.0018352228, -216919.6, -138231.6, 0.0, 4.9676347, 4.950034 
6.171763e+2, 2.969188e+2, -181013.88, -204401.11, -12237.374, -0.0064856615, -0.006849864, -175781.36, -145594.22, 0.0, 4.9643707, 4.9500365 
6.170487e+2, 3.0188325e+2, -126578.57, -94153.05, -9817.25, -0.023152484, 0.00045850198, -91412.39, -91412.39, 0.0, 4.9611206, 4.9820666 
6.169256e+2, 3.0686837e+2, -130042.766, -86040.44, -8834.964, -0.049583815, -0.004200967, -84332.79, -84332.79, 0.0, 4.9579964, 4.9862986 
6.1680317e+2, 3.1185383e+2, -138361.58, -89598.375, -9380.512, -0.0747512, -0.012065038, -87856.11, -87856.11, 0.0, 4.9549026, 4.9863315 
6.1668104e+2, 3.1683925e+2, -146680.38, -93170.8, -9959.139, -0.09897283, -0.021230888, -91377.32, -91377.32, 0.0, 4.9518, 4.9863653 
6.268766e+2, 1.2363232e+2, -1524683.5, -1722218.6, 5554.729, 0.01264449, 0.03248745, -1524527.4, 203906.44, 0.0, 5.091617, 4.96089 
6.2675524e+2, 1.285901e+2, -1488892.1, -1684546.1, 2993.0002, 0.0329964, 0.032467984, -1488846.4, 190997.3, 0.0, 5.0881853, 4.958987 
6.266297e+2, 1.3354672e+2, -1450486.0, -1641115.1, 2843.2173, 0.011497716, 0.022147544, -1450443.6, 180821.16, 0.0, 5.08471, 4.9589653 
6.265043e+2, 1.3850325e+2, -1414180.1, -1602227.1, 2545.937, -0.009132788, 0.012692253, -1414145.6, 168541.33, 0.0, 5.081247, 4.9574146 
6.2637633e+2, 1.4345986e+2, -1373121.4, -1554313.0, -2708.5105, -0.017361583, 0.017296698, -1373080.9, 161029.72, 0.0, 5.0778284, 4.958822 
6.262456e+2, 1.4841764e+2, -1334809.8, -1510173.1, -3081.9568, -0.018285971, 0.016086241, -1334755.6, 150767.92, 0.0, 5.074125, 4.959083 
6.2611496e+2, 1.5337543e+2, -1296835.6, -1466774.3, -3286.7437, -0.019128213, 0.014751962, -1296772.1, 140164.31, 0.0, 5.0704203, 4.959077 
6.2598443e+2, 1.5833321e+2, -1260133.1, -1426207.5, -3663.8257, -0.019908415, 0.013897534, -1260052.3, 128297.12, 0.0, 5.066726, 4.9581037 
6.2585115e+2, 1.6329013e+2, -1220994.5, -1381414.5, -7455.308, -0.021061517, 0.017672954, -1220648.8, 119120.89, 0.0, 5.063106, 4.958561 
6.257152e+2, 1.6824731e+2, -1182617.9, -1337013.3, -7797.8716, -0.023207953, 0.01292539, -1182225.0, 108961.84, 0.0, 5.059343, 4.958859 
6.255793e+2, 1.7320451e+2, -1144621.8, -1293456.1, -7949.7847, -0.025415782, 0.008171805, -1144198.4, 98405.57, 0.0, 5.0555797, 4.958851 
6.254434e+2, 1.781617e+2, -1107695.5, -1252251.4, -8071.765, -0.02766796, 0.0038396185, -1107246.1, 86774.92, 0.0, 5.0518203, 4.9580293 
6.25306e+2, 1.8311806e+2, -1069961.5, -1210035.9, -10751.79, -0.0284013, 0.0076609775, -1069141.0, 76306.07, 0.0, 5.0481315, 4.957523 
6.251669e+2, 1.8807456e+2, -1031023.75, -1164703.8, -10976.326, -0.027422905, 0.003988204, -1030128.5, 66743.61, 0.0, 5.0443916, 4.95804 
6.250278e+2, 1.9303107e+2, -992755.2, -1120854.6, -11068.944, -0.026445445, 0.00017464421, -991805.8, 56491.25, 0.0, 5.0406537, 4.958034 
6.248887e+2, 1.9798759e+2, -955343.94, -1078906.9, -11101.531, -0.025478585, -0.0032460622, -954354.44, 45367.426, 0.0, 5.036917, 4.9573607 
6.247489e+2, 2.0294307e+2, -918077.5, -1037849.94, -12582.556, -0.024079027, 0.000991279, -916769.94, 34386.11, 0.0, 5.033255, 4.9563413 
6.24608e+2, 2.0789838e+2, -878505.5, -991736.7, -12786.681, -0.021872468, -0.0039121252, -877079.5, 25512.006, 0.0, 5.029603, 4.9570026 
6.244671e+2, 2.1285371e+2, -839784.75, -947510.7, -12885.656, -0.019658, -0.008919232, -838264.9, 15761.859, 0.0, 5.025951, 4.9569983 
6.2432635e+2, 2.1780904e+2, -801798.0, -904945.0, -12907.568, -0.017446471, -0.013792232, -800207.3, 5254.635, 0.0, 5.022301, 4.9564013 
6.241857e+2, 2.2276312e+2, -765903.94, -866741.44, -12704.882, -0.016410084, -0.00758902, -764327.8, -7416.5073, 0.0, 5.018601, 4.9542923 
6.2404484e+2, 2.2771712e+2, -726062.25, -819715.25, -12689.877, -0.016145518, -0.007778114, -724373.25, -16010.033, 0.0, 5.014849, 4.955226 
6.2390417e+2, 2.3267116e+2, -687415.4, -775356.3, -12622.022, -0.015908202, -0.008118073, -685639.6, -25824.887, 0.0, 5.0110984, 4.955221 
6.2376356e+2, 2.3762517e+2, -649401.3, -732452.9, -12501.196, -0.015688814, -0.008385033, -647560.44, -36294.008, 0.0, 5.00735, 4.9546876 
6.236239e+2, 2.4257761e+2, -613489.06, -693831.0, -11043.083, -0.014422241, -0.0010555903, -611998.8, -49265.91, 0.0, 5.003558, 4.9526234 
6.234854e+2, 2.4752982e+2, -573077.75, -645614.7, -10960.515, -0.011733695, -0.0055944156, -571457.75, -57257.055, 0.0, 4.999794, 4.953889 
6.2334704e+2, 2.524821e+2, -534249.4, -600992.75, -10960.461, -0.009029435, -0.010555688, -532495.56, -66827.66, 0.0, 4.9960346, 4.9538884 
6.2320876e+2, 2.5743437e+2, -495615.94, -556870.4, -10944.287, -0.006309342, -0.015512167, -493719.28, -76584.16, 0.0, 4.992277, 4.953689 
6.230717e+2, 2.6238525e+2, -461257.9, -521794.78, -8484.672, -0.003956222, -0.00431487, -460091.22, -91473.914, 0.0, 4.9884763, 4.950254 
6.229366e+2, 2.673367e+2, -419296.03, -470345.97, -8014.9243, -0.0019508183, -0.0029498509, -418067.25, -97971.42, 0.0, 4.984733, 4.952549 
6.228017e+2, 2.7228817e+2, -380216.28, -425457.1, -7854.7847, 0.000067173045, -0.0029833834, -378891.3, -107317.42, 0.0, 4.980988, 4.952542 
6.226669e+2, 2.7723965e+2, -341145.03, -380642.0, -7718.625, 0.0021088247, -0.00296522, -339690.22, -116638.055, 0.0, 4.9772425, 4.9524865 
6.2253314e+2, 2.8218842e+2, -307936.28, -348402.0, -4768.523, 0.0018202029, 0.006252932, -307381.97, -132827.66, 0.0, 4.9734635, 4.9479055 
6.2240124e+2, 2.8713754e+2, -264685.25, -294602.72, -4344.789, -0.001562894, 0.0026925437, -264067.06, -138018.03, 0.0, 4.969816, 4.9509087 
6.222695e+2, 2.9208687e+2, -224883.3, -249166.25, -4134.9478, -0.00497752, -0.0015782843, -224198.5, -146656.81, 0.0, 4.9662414, 4.950918 
6.2213784e+2, 2.9703626e+2, -185035.4, -203671.38, -3919.8179, -0.008374152, -0.005697705, -184244.5, -155210.3, 0.0, 4.9626613, 4.950927 
6.2200713e+2, 3.0200085e+2, -131982.45, -95223.01, -1082.1328, -0.024051653, 0.0013258831, -95191.18, -95191.18, 0.0, 4.959174, 4.9823956 
6.218811e+2, 3.069856e+2, -135690.44, -87137.94, 531.1509, -0.048430406, -0.006309293, -87132.13, -87132.13, 0.0, 4.9559965, 4.9866185 
6.217558e+2, 3.1197062e+2, -144560.69, -90696.555, 700.87854, -0.07118483, -0.01758058, -90687.44, -90687.44, 0.0, 4.952706, 4.9867125 
6.2163067e+2, 3.1695563e+2, -153882.92, -94482.67, 917.5156, -0.09261997, -0.03039211, -94468.5, -94468.5, 0.0, 4.9492474, 4.9868007 
6.319677e+2, 1.23751424e+2, -1524932.8, -1723596.4, 2355.796, 0.02094854, 0.021924006, -1524904.8, 202357.6, 0.0, 5.091711, 4.9604373 
6.318417e+2, 1.2870958e+2, -1488632.0, -1684766.8, 421.85565, 0.030680202, 0.026743358, -1488631.1, 190037.69, 0.0, 5.0882673, 4.9589186 
6.317129e+2, 1.3366635e+2, -1450232.6, -1641328.8, 276.84912, 0.01103076, 0.01863578, -1450232.3, 179856.56, 0.0, 5.0847893, 4.9589 
6.315841e+2, 1.3862303e+2, -1413907.1, -1602370.0, 3.5894558, -0.007937398, 0.01141296, -1413907.1, 167602.7, 0.0, 5.0813217, 4.9573736 
6.314526e+2, 1.4357966e+2, -1372958.8, -1554622.9, -5467.7583, -0.01598289, 0.016745232, -1372794.3, 160139.06, 0.0, 5.0778937, 4.9587283 
6.3131803e+2, 1.4853725e+2, -1334713.3, -1510621.6, -5813.179, -0.018566303, 0.014739404, -1334521.4, 149827.28, 0.0, 5.07419, 4.958943 
6.311835e+2, 1.534948e+2, -1296736.8, -1467221.6, -6018.7144, -0.021103688, 0.012605328, -1296524.5, 139239.47, 0.0, 5.070486, 4.9589367 
6.3104916e+2, 1.5845236e+2, -1260019.0, -1426613.5, -6409.114, -0.023532169, 0.010877555, -1259772.9, 127406.61, 0.0, 5.0667906, 4.9579782 
6.3091207e+2, 1.634092e+2, -1220772.1, -1381487.3, -10294.541, -0.024923926, 0.014182083, -1220115.4, 118485.33, 0.0, 5.0631557, 4.958553 
6.307724e+2, 1.6836639e+2, -1182451.0, -1337190.9, -10602.781, -0.026580459, 0.009897958, -1181727.9, 108290.27, 0.0, 5.0593905, 4.958816 
6.3063276e+2, 1.7332359e+2, -1144460.0, -1293636.3, -10754.815, -0.028315932, 0.005641384, -1143688.6, 97746.8, 0.0, 5.0556264, 4.958808 
6.304932e+2, 1.782808e+2, -1107520.5, -1252395.4, -10886.161, -0.030135255, 0.0018680723, -1106707.0, 86145.72, 0.0, 5.051865, 4.9579997 
6.3035196e+2, 1.8323728e+2, -1069655.1, -1209890.9, -13578.966, -0.030920116, 0.0065981545, -1068352.4, 75925.445, 0.0, 5.048176, 4.9575915 
6.30209e+2, 1.8819392e+2, -1030769.9, -1164667.0, -13785.01, -0.030352183, 0.0040168953, -1029365.44, 66336.445, 0.0, 5.0444355, 4.958073 
6.3006616e+2, 1.9315058e+2, -992503.0, -1120819.5, -13879.234, -0.029794613, 0.0013228601, -991018.94, 56106.86, 0.0, 5.040697, 4.9580665 
6.299234e+2, 1.9810723e+2, -955060.3, -1078803.6, -13923.597, -0.029246716, -0.0010002583, -953513.0, 45036.68, 0.0, 5.03696, 4.9574165 
6.2977976e+2, 2.0306279e+2, -917764.56, -1037711.1, -15359.801, -0.027986895, 0.0029843803, -915828.9, 34154.754, 0.0, 5.0333033, 4.956407 
6.296352e+2, 2.0801811e+2, -878247.3, -991713.5, -15555.526, -0.025880458, -0.0020840343, -876153.4, 25266.07, 0.0, 5.02965, 4.95703 
6.294907e+2, 2.1297346e+2, -839528.9, -947491.25, -15655.016, -0.023777893, -0.0072248993, -837304.6, 15550.352, 0.0, 5.025998, 4.9570246 
6.2934625e+2, 2.1792881e+2, -801550.25, -904940.6, -15679.092, -0.021711435, -0.012181454, -799224.8, 5065.763, 0.0, 5.0223475, 4.956423 
6.292018e+2, 2.2288309e+2, -765315.6, -865985.75, -15560.824, -0.020728547, -0.005801507, -762965.25, -7227.1475, 0.0, 5.0186462, 4.9545736 
6.2905735e+2, 2.278373e+2, -725522.3, -819065.7, -15550.226, -0.020096716, -0.006253572, -723005.06, -15817.893, 0.0, 5.0148945, 4.955472 
6.28913e+2, 2.3279154e+2, -686878.3, -774711.56, -15483.764, -0.019504042, -0.006860904, -684228.7, -25592.723, 0.0, 5.0111437, 4.9554663 
6.287686e+2, 2.3774579e+2, -648867.7, -731814.0, -15366.1875, -0.018930988, -0.0073767235, -646112.5, -36027.637, 0.0, 5.007395, 4.954932 
6.286253e+2, 2.4269843e+2, -612965.0, -693247.94, -13930.993, -0.017374089, -0.00048708363, -610616.4, -49067.16, 0.0, 5.003608, 4.9528465 
6.28483e+2, 2.4765086e+2, -572623.44, -645184.9, -13859.853, -0.015195983, -0.004551711, -570066.2, -57051.047, 0.0, 4.999844, 4.95406 
6.283408e+2, 2.5260335e+2, -533798.0, -600565.1, -13861.475, -0.013019604, -0.008997714, -531034.6, -66554.055, 0.0, 4.9960837, 4.954059 
6.281987e+2, 2.5755584e+2, -495191.38, -556497.94, -13840.022, -0.010842953, -0.013438076, -492211.8, -76265.836, 0.0, 4.992326, 4.9538417 
6.280578e+2, 2.6250702e+2, -460436.38, -520547.72, -11360.498, -0.008592698, -0.0026753887, -458361.0, -90935.66, 0.0, 4.9885273, 4.9507117 
6.279191e+2, 2.6745874e+2, -418544.88, -469256.22, -10909.305, -0.006137061, -0.00273516, -416297.6, -97397.17, 0.0, 4.9847836, 4.9529533 
6.2778044e+2, 2.7241048e+2, -379438.5, -424355.25, -10735.956, -0.003702169, -0.0041829525, -377004.3, -106629.16, 0.0, 4.981049, 4.9529467 
6.27642e+2, 2.7736223e+2, -340332.3, -379522.06, -10558.665, -0.0012717281, -0.005566378, -337668.63, -115818.58, 0.0, 4.977317, 4.952893 
6.2750465e+2, 2.8231138e+2, -306814.38, -346871.72, -7453.6157, -0.0010280747, 0.0029496993, -305472.4, -132124.63, 0.0, 4.9735866, 4.9484367 
6.273693e+2, 2.8726107e+2, -263357.94, -293103.75, -6973.589, -0.0033730343, 0.00022585609, -261804.22, -136967.1, 0.0, 4.9700346, 4.9513907 
6.2723404e+2, 2.92211e+2, -223471.28, -247628.16, -6714.3525, -0.0057992167, -0.0031597505, -221730.48, -145405.94, 0.0, 4.9664907, 4.951401 
6.270989e+2, 2.9716092e+2, -183527.73, -202088.06, -6457.3843, -0.008262322, -0.0063664787, -181502.19, -153690.4, 0.0, 4.9629464, 4.9514112 
6.269653e+2, 3.021263e+2, -129949.195, -93461.0, -2904.2053, -0.02217984, 0.0030599022, -93231.29, -93231.29, 0.0, 4.9596457, 4.982893 
6.2683696e+2, 3.0711156e+2, -132460.97, -85156.15, -1273.293, -0.044862192, -0.002125891, -85121.91, -85121.91, 0.0, 4.95694, 4.9870014 
6.267092e+2, 3.12097e+2, -139562.17, -87959.76, -1263.3765, -0.06621171, -0.01138282, -87928.84, -87928.84, 0.0, 4.954273, 4.9870963 
6.265817e+2, 3.170825e+2, -146659.7, -90779.375, -1309.4674, -0.086296506, -0.022400076, -90748.7, -90748.7, 0.0, 4.9515953, 4.987193 
6.370589e+2, 1.2387111e+2, -1525261.1, -1725139.6, -792.66974, 0.029712116, 0.017174507, -1525258.0, 200827.22, 0.0, 5.091808, 4.9599304 
6.3692826e+2, 1.2882909e+2, -1488372.8, -1684987.0, -2153.3687, 0.028542245, 0.021276612, -1488349.1, 189144.53, 0.0, 5.0883512, 4.958849 
6.3679606e+2, 1.3378601e+2, -1449980.0, -1641541.8, -2293.5955, 0.010692351, 0.015336703, -1449952.5, 178959.94, 0.0, 5.08487, 4.9588337 
6.36664e+2, 1.3874285e+2, -1413636.9, -1602515.8, -2550.487, -0.006692147, 0.010262926, -1413602.4, 166729.92, 0.0, 5.081398, 4.95733 
6.3652885e+2, 1.4369948e+2, -1372804.9, -1554957.9, -8231.328, -0.014667251, 0.016127868, -1372433.8, 159322.42, 0.0, 5.077961, 4.958626 
6.3639045e+2, 1.4865685e+2, -1334614.9, -1511072.3, -8544.281, -0.018908214, 0.013303074, -1334202.1, 148971.75, 0.0, 5.074258, 4.9588017 
6.3625205e+2, 1.536142e+2, -1296635.9, -1467671.0, -8750.5625, -0.02313182, 0.010345068, -1296189.4, 138402.27, 0.0, 5.0705543, 4.9587955 
6.361138e+2, 1.5857151e+2, -1259922.9, -1427060.5, -9173.012, -0.027195606, 0.0077694147, -1259421.0, 126588.53, 0.0, 5.0668564, 4.957839 
6.359729e+2, 1.635283e+2, -1220550.5, -1381572.0, -13131.443, -0.028834699, 0.010890834, -1219486.6, 117945.12, 0.0, 5.063207, 4.9585404 
6.358295e+2, 1.6848549e+2, -1182281.0, -1337372.5, -13407.833, -0.029982584, 0.0070152082, -1181130.4, 107718.98, 0.0, 5.0594406, 4.9587717 
6.3568616e+2, 1.734427e+2, -1144295.1, -1293820.4, -13559.989, -0.031228688, 0.0032003769, -1143075.3, 97191.586, 0.0, 5.0556746, 4.9587636 
6.355429e+2, 1.7839992e+2, -1107350.4, -1252561.4, -13703.522, -0.03260508, -0.000049027578, -1106068.5, 85615.77, 0.0, 5.0519123, 4.9579625 
6.353979e+2, 1.8335652e+2, -1069345.9, -1209751.9, -16403.377, -0.033460457, 0.0056395466, -1067454.9, 75653.6, 0.0, 5.048222, 4.957659 
6.3525116e+2, 1.883133e+2, -1030512.2, -1164634.4, -16593.246, -0.03330619, 0.0041130767, -1028489.8, 66041.75, 0.0, 5.0444813, 4.9581046 
6.351045e+2, 1.932701e+2, -992246.94, -1120788.6, -16689.078, -0.03317116, 0.002500612, -990115.5, 55839.0, 0.0, 5.0407424, 4.958098 
6.3495797e+2, 1.9822688e+2, -954795.2, -1078754.3, -16741.92, -0.033040963, 0.0012279928, -952573.9, 44803.535, 0.0, 5.037006, 4.9574547 
6.348106e+2, 2.031825e+2, -917447.3, -1037574.56, -18134.041, -0.03192153, 0.0050715604, -914769.5, 34041.707, 0.0, 5.0333533, 4.9564724 
6.3466233e+2, 2.0813785e+2, -877985.56, -991694.44, -18323.25, -0.029896643, -0.00021911722, -875105.8, 25141.56, 0.0, 5.0297, 4.957055 
6.345142e+2, 2.1309322e+2, -839269.44, -947475.9, -18423.254, -0.027887832, -0.0055529834, -836218.7, 15464.626, 0.0, 5.026047, 4.95705 
6.343661e+2, 2.1804859e+2, -801299.94, -904942.3, -18453.152, -0.025961779, -0.010619875, -798112.5, 5006.776, 0.0, 5.022396, 4.956443 
6.3421804e+2, 2.2300304e+2, -764723.75, -865235.06, -18414.428, -0.025042754, -0.003948385, -761456.3, -6891.541, 0.0, 5.018694, 4.954854 
6.340698e+2, 2.2795749e+2, -724978.44, -818420.44, -18409.484, -0.024026377, -0.004708043, -721482.3, -15471.293, 0.0, 5.014942, 4.955717 
6.339217e+2, 2.3291196e+2, -686337.3, -774071.2, -18344.416, -0.023061503, -0.00562909, -682656.1, -25199.01, 0.0, 5.011191, 4.955711 
6.337737e+2, 2.3786642e+2, -648346.9, -731218.06, -18227.215, -0.022107335, -0.0064483676, -644515.06, -35611.78, 0.0, 5.007442, 4.9551616 
6.336265e+2, 2.4281926e+2, -612441.4, -692678.3, -16816.844, -0.02037774, 0.00017483211, -609059.3, -48693.855, 0.0, 5.00366, 4.9530654 
6.334804e+2, 2.4777193e+2, -572165.25, -644759.1, -16759.102, -0.01869927, -0.0034370227, -568483.0, -56653.438, 0.0, 4.999896, 4.95423 
6.333344e+2, 2.5272465e+2, -533342.75, -600141.6, -16762.4, -0.017038679, -0.0073969546, -529372.4, -66079.25, 0.0, 4.996135, 4.9542294 
6.331885e+2, 2.5767738e+2, -494729.84, -556055.44, -16745.93, -0.015397218, -0.011347588, -490455.06, -75698.29, 0.0, 4.992377, 4.9540186 
6.330439e+2, 2.626288e+2, -459634.06, -519356.44, -14225.344, -0.013197932, -0.0010864352, -456418.8, -90185.49, 0.0, 4.98858, 4.95115 
6.329015e+2, 2.6758078e+2, -417789.47, -468170.16, -13803.505, -0.010306169, -0.0025871354, -414255.44, -96550.484, 0.0, 4.9848366, 4.9533567 
6.327592e+2, 2.7253276e+2, -378687.4, -423272.28, -13631.352, -0.0074662673, -0.0054808375, -374850.03, -105673.695, 0.0, 4.981101, 4.95335 
6.3261694e+2, 2.7748477e+2, -339585.53, -378442.16, -13455.232, -0.004659693, -0.008297517, -335381.2, -114733.33, 0.0, 4.9773684, 4.953296 
6.324761e+2, 2.8243434e+2, -305858.25, -345451.28, -10220.359, -0.0037869988, -0.00024022287, -303375.7, -131234.61, 0.0, 4.973657, 4.9489536 
6.3233733e+2, 2.8738463e+2, -262442.94, -291803.1, -9759.896, -0.00516837, -0.0021451165, -259494.61, -135869.53, 0.0, 4.970108, 4.951868 
6.321987e+2, 2.9233512e+2, -222556.97, -246334.23, -9499.065, -0.0067003807, -0.0046907836, -219228.11, -144120.84, 0.0, 4.9665656, 4.951877 
6.3206005e+2, 2.9728562e+2, -182614.13, -200800.88, -9240.504, -0.008348694, -0.007052567, -178743.08, -152153.78, 0.0, 4.9630218, 4.951886 
6.3192344e+2, 3.0225164e+2, -128951.19, -92289.35, -4883.0, -0.020855352, 0.0043233857, -91650.13, -91650.13, 0.0, 4.9597673, 4.983325 
6.3179284e+2, 3.0723736e+2, -131455.39, -84293.945, -3177.0518, -0.042255614, 0.00050017796, -84080.88, -84080.88, 0.0, 4.9571023, 4.9873176 
6.3166285e+2, 3.1222317e+2, -138461.88, -87157.164, -3115.5625, -0.062988676, -0.00783218, -86968.66, -86968.66, 0.0, 4.954471, 4.987383 
6.3153297e+2, 3.172089e+2, -145464.69, -90036.36, -3110.0835, -0.08304475, -0.018221844, -89862.4, -89862.4, 0.0, 4.9518285, 4.98745 
6.4214957e+2, 1.2399203e+2, -1525197.3, -1725867.0, 434.84418, 0.03486349, 0.013146109, -1525196.3, 199699.05, 0.0, 5.092054, 4.9595437 
6.420147e+2, 1.2894963e+2, -1487822.9, -1684534.6, -570.7767, 0.026131023, 0.014500897, -1487821.3, 188486.77, 0.0, 5.0885572, 4.9588723 
6.418792e+2, 1.3390666e+2, -1449591.1, -1641236.6, -874.7247, 0.010235562, 0.010850435, -1449587.1, 178139.02, 0.0, 5.0850244, 4.958839 
6.417438e+2, 1.388636e+2, -1413467.4, -1602356.4, -1311.3325, -0.0054545216, 0.00804533, -1413458.3, 165687.19, 0.0, 5.0814743, 4.9573307 
6.41605e+2, 1.4382021e+2, -1372774.1, -1554906.4, -7263.954, -0.013220629, 0.014588204, -1372484.9, 158085.0, 0.0, 5.077985, 4.9586215 
6.4146274e+2, 1.4877734e+2, -1334646.3, -1511219.6, -7651.4917, -0.018794287, 0.011188409, -1334315.3, 147674.83, 0.0, 5.074289, 4.958731 
6.4132065e+2, 1.5373442e+2, -1296675.4, -1467864.3, -7968.9365, -0.02434434, 0.007664285, -1296305.3, 137105.33, 0.0, 5.070585, 4.958714 
6.411785e+2, 1.586915e+2, -1259985.0, -1427308.3, -8539.502, -0.029671976, 0.004569036, -1259550.4, 125280.89, 0.0, 5.06688, 4.957748 
6.4103377e+2, 1.6364816e+2, -1220379.4, -1381503.4, -12685.555, -0.031354405, 0.007821623, -1219386.8, 116868.29, 0.0, 5.06326, 4.9585447 
6.4088666e+2, 1.6860527e+2, -1182057.8, -1337340.1, -13115.302, -0.03178718, 0.004230035, -1180957.8, 106716.055, 0.0, 5.059522, 4.958752 
6.407397e+2, 1.735624e+2, -1144015.9, -1293768.8, -13449.101, -0.032280713, 0.00065103656, -1142817.6, 96274.96, 0.0, 5.0557756, 4.9587436 
6.405927e+2, 1.7851953e+2, -1107038.6, -1252491.1, -13772.9, -0.032916013, -0.0023351158, -1105746.0, 84765.13, 0.0, 5.052022, 4.9579473 
6.404439e+2, 1.834762e+2, -1068866.3, -1209397.4, -16652.178, -0.034001697, 0.0042971037, -1066920.1, 75015.03, 0.0, 5.0483446, 4.9577384 
6.402934e+2, 1.8843307e+2, -1030036.0, -1164365.6, -17003.799, -0.034622923, 0.003896699, -1027917.06, 65440.63, 0.0, 5.044617, 4.9581504 
6.4014286e+2, 1.9338992e+2, -991739.06, -1120512.1, -17280.918, -0.03521811, 0.003394563, -989460.4, 55319.777, 0.0, 5.040888, 4.9581437 
6.3999254e+2, 1.9834681e+2, -954270.1, -1078482.1, -17507.998, -0.035758372, 0.0031624918, -951849.5, 44353.08, 0.0, 5.037157, 4.9574976 
6.398415e+2, 2.0330243e+2, -916906.3, -1037214.8, -19032.023, -0.03491407, 0.0070204153, -913967.4, 33669.336, 0.0, 5.03349, 4.9565525 
6.3968956e+2, 2.0825776e+2, -877586.0, -991487.75, -19370.848, -0.033038016, 0.0015491401, -874381.8, 24691.762, 0.0, 5.0298033, 4.957101 
6.395377e+2, 2.1321312e+2, -838969.4, -947323.8, -19624.984, -0.031169806, -0.0039815046, -835524.44, 14985.757, 0.0, 5.0261154, 4.9570947 
6.39386e+2, 2.1816847e+2, -801105.7, -904846.6, -19811.938, -0.029425893, -0.009160942, -797450.9, 4495.8745, 0.0, 5.022427, 4.9564877 
6.392341e+2, 2.231231e+2, -764276.75, -864483.06, -20000.074, -0.028621178, -0.0021064791, -760432.44, -7042.0645, 0.0, 5.0187025, 4.955138 
6.390822e+2, 2.2807774e+2, -724594.06, -817776.4, -20190.596, -0.027299799, -0.0031797788, -720407.3, -15573.113, 0.0, 5.0149426, 4.955971 
6.389304e+2, 2.330324e+2, -685989.6, -773452.5, -20300.652, -0.026029035, -0.0044356165, -681507.44, -25229.697, 0.0, 5.0111785, 4.955964 
6.387786e+2, 2.3798706e+2, -648080.9, -730703.06, -20337.908, -0.024746358, -0.0055906186, -643345.94, -35624.492, 0.0, 5.007412, 4.955389 
6.3862777e+2, 2.4294011e+2, -612167.56, -692162.9, -19072.94, -0.02306772, 0.00091896334, -607852.8, -48671.195, 0.0, 5.0036297, 4.953295 
6.3847786e+2, 2.47893e+2, -571940.0, -644381.1, -19129.143, -0.021980688, -0.0022732762, -567199.0, -56555.094, 0.0, 4.999868, 4.9544125 
6.38328e+2, 2.5284594e+2, -533124.7, -599778.9, -19233.178, -0.020898985, -0.005776679, -527973.06, -65867.39, 0.0, 4.9961042, 4.9544096 
6.381783e+2, 2.5779885e+2, -494513.34, -555668.1, -19314.316, -0.019834725, -0.009267884, -488924.2, -75356.61, 0.0, 4.992338, 4.954213 
6.3803e+2, 2.6275057e+2, -459135.28, -518292.72, -16862.027, -0.017681018, 0.00046531353, -454666.56, -89625.35, 0.0, 4.98853, 4.951587 
6.3788384e+2, 2.6770282e+2, -417344.9, -467209.78, -16555.867, -0.014395981, -0.0024913955, -412348.7, -95839.29, 0.0, 4.984781, 4.9537625 
6.377379e+2, 2.7265507e+2, -378249.3, -422321.13, -16440.766, -0.011189652, -0.0068671936, -372791.94, -104814.46, 0.0, 4.981044, 4.9537554 
6.3759196e+2, 2.7760732e+2, -339151.25, -377488.84, -16214.267, -0.008043485, -0.011146394, -333213.38, -113767.73, 0.0, 4.977308, 4.953705 
6.374476e+2, 2.8255734e+2, -304996.3, -344100.72, -12998.078, -0.0064527867, -0.0033049292, -301070.03, -130135.805, 0.0, 4.9737024, 4.9494567 
6.373053e+2, 2.8750822e+2, -261615.44, -290535.3, -12515.646, -0.006938561, -0.004415774, -256951.28, -134538.36, 0.0, 4.970153, 4.9523454 
6.371632e+2, 2.9245925e+2, -221735.94, -245076.73, -12261.409, -0.0076417057, -0.006159062, -216478.84, -142588.92, 0.0, 4.966609, 4.952353 
6.370211e+2, 2.974103e+2, -181799.25, -199553.1, -12006.891, -0.0085403565, -0.0077133514, -175744.16, -150377.39, 0.0, 4.963064, 4.9523606 
6.368817e+2, 3.0237696e+2, -128091.43, -91211.78, -6744.721, -0.01983638, 0.0051724985, -90016.984, -90016.984, 0.0, 4.959855, 4.983723 
6.367489e+2, 3.0736306e+2, -130576.97, -83468.016, -5020.8926, -0.039866667, 0.0018033106, -82938.836, -82938.836, 0.0, 4.9572253, 4.987622 
6.366166e+2, 3.1234917e+2, -137501.17, -86396.21, -4908.311, -0.0598719, -0.006461485, -85929.06, -85929.06, 0.0, 4.954625, 4.9876575 
6.3648444e+2, 3.173352e+2, -144421.4, -89340.21, -4851.6987, -0.079788245, -0.017078761, -88916.125, -88916.125, 0.0, 4.9520135, 4.987695 
6.4724284e+2, 1.2412466e+2, -1512764.3, -1720129.0, 6738.3784, 0.039253797, 0.007962494, -1512545.5, 211044.44, 0.0, 5.0965905, 4.959173 
6.4710367e+2, 1.2908168e+2, -1475957.4, -1678142.9, 6184.9536, 0.025181301, 0.0066349283, -1475768.4, 199240.44, 0.0, 5.0927086, 4.9589043 
6.4696443e+2, 1.3403863e+2, -1438770.3, -1635369.4, 5886.2886, 0.010085113, 0.004870419, -1438594.1, 187834.34, 0.0, 5.088822, 4.9588747 
6.468253e+2, 1.3899547e+2, -1403547.3, -1596811.0, 5449.985, -0.00488268, 0.003988858, -1403393.6, 174455.61, 0.0, 5.0849376, 4.9574246 
6.4668274e+2, 1.4395198e+2, -1363421.1, -1549438.1, -419.03732, -0.012370058, 0.011055225, -1363420.3, 165854.64, 0.0, 5.0812087, 4.9588075 
6.465367e+2, 1.4890887e+2, -1325868.4, -1506159.4, -666.07, -0.018217642, 0.0072844783, -1325865.9, 154831.53, 0.0, 5.0773444, 4.9588675 
6.463907e+2, 1.5386574e+2, -1288370.9, -1463048.9, -859.5476, -0.024057338, 0.0034302883, -1288366.6, 143753.63, 0.0, 5.0734816, 4.9588504 
6.462448e+2, 1.5882258e+2, -1252150.1, -1422773.5, -1317.6451, -0.029665437, 0.00015524855, -1252140.0, 131403.28, 0.0, 5.069627, 4.957866 
6.460962e+2, 1.6377914e+2, -1212850.5, -1376979.8, -5330.5815, -0.03128742, 0.0041540004, -1212677.6, 122290.96, 0.0, 5.0658736, 4.9587216 
6.4594537e+2, 1.6873613e+2, -1174976.4, -1333165.6, -5626.694, -0.031425465, 0.0015613661, -1174776.5, 111612.766, 0.0, 5.062011, 4.958875 
6.4579463e+2, 1.7369312e+2, -1137269.5, -1289758.9, -5856.307, -0.031558376, -0.0010939717, -1137044.9, 100765.18, 0.0, 5.0581503, 4.9588695 
6.4564395e+2, 1.786501e+2, -1100552.4, -1248529.8, -6096.422, -0.0317466, -0.003280388, -1100301.6, 88929.14, 0.0, 5.0542912, 4.9581103 
6.4549124e+2, 1.8360664e+2, -1062664.1, -1205365.1, -8847.722, -0.032609973, 0.0033597476, -1062117.8, 78538.53, 0.0, 5.050472, 4.957996 
6.453369e+2, 1.8856336e+2, -1024364.1, -1160676.1, -9045.308, -0.033310216, 0.002884149, -1023766.5, 68313.89, 0.0, 5.0465817, 4.9583716 
6.451826e+2, 1.9352007e+2, -986528.75, -1117044.8, -9195.1045, -0.034016274, 0.002361742, -985884.06, 57620.418, 0.0, 5.042694, 4.9583664 
6.450285e+2, 1.9847676e+2, -949503.0, -1075224.3, -9296.155, -0.03468494, 0.0020973282, -948819.3, 46109.31, 0.0, 5.0388103, 4.9577227 
6.4487356e+2, 2.0343232e+2, -912490.25, -1033978.0, -10659.67, -0.03414055, 0.0063691256, -911562.0, 34801.777, 0.0, 5.034992, 4.95684 
6.4471775e+2, 2.0838763e+2, -873667.44, -988577.4, -10870.925, -0.03277758, 0.0019574596, -872648.0, 25153.46, 0.0, 5.031153, 4.9573493 
6.445621e+2, 2.1334293e+2, -835482.6, -944607.0, -11010.725, -0.03139067, -0.0025915904, -834382.7, 14856.333, 0.0, 5.027315, 4.957347 
6.4440656e+2, 2.1829826e+2, -798012.7, -902245.2, -11090.818, -0.030072652, -0.0068273055, -796845.6, 3830.9087, 0.0, 5.023478, 4.95677 
6.442509e+2, 2.2325286e+2, -761412.44, -861777.44, -11210.3545, -0.028942706, 0.00033679325, -760175.5, -8054.867, 0.0, 5.019634, 4.955514 
6.440953e+2, 2.282074e+2, -722033.0, -815295.0, -11405.455, -0.027165871, -0.001123819, -720658.44, -17093.086, 0.0, 5.015788, 4.956311 
6.439396e+2, 2.3316196e+2, -683660.75, -771060.5, -11532.773, -0.025440725, -0.002748066, -682164.56, -27154.807, 0.0, 5.011943, 4.956312 
6.4378417e+2, 2.3811652e+2, -645988.6, -728429.7, -11592.04, -0.023709916, -0.004272919, -644389.7, -37935.496, 0.0, 5.008099, 4.955733 
6.4362943e+2, 2.4306954e+2, -610297.44, -689660.1, -10300.455, -0.022300784, 0.0018091911, -608982.3, -51067.895, 0.0, 5.004177, 4.953782 
6.434756e+2, 2.4802247e+2, -570642.75, -642254.06, -10314.362, -0.021781107, -0.0015486551, -569186.75, -59810.348, 0.0, 5.000238, 4.9548507 
6.433219e+2, 2.5297543e+2, -532315.9, -597864.6, -10360.154, -0.021242145, -0.0051453253, -530717.4, -69879.44, 0.0, 4.9963017, 4.954851 
6.431682e+2, 2.579284e+2, -494164.53, -553931.4, -10381.531, -0.020681173, -0.008661707, -492412.63, -80113.11, 0.0, 4.992368, 4.954667 
6.430161e+2, 2.6288027e+2, -459147.44, -516330.84, -7898.9717, -0.018516818, 0.0015577322, -458076.38, -94305.375, 0.0, 4.9883623, 4.952209 
6.428661e+2, 2.678328e+2, -418135.16, -465676.75, -7737.2065, -0.015128017, -0.00068752526, -416907.66, -101671.42, 0.0, 4.9843554, 4.95435 
6.427162e+2, 2.7278528e+2, -379785.28, -421098.94, -7774.9146, -0.011759819, -0.004532776, -378370.53, -111669.086, 0.0, 4.9803514, 4.954352 
6.4256644e+2, 2.7773777e+2, -341451.63, -376610.78, -7704.8506, -0.008376188, -0.008480793, -339837.28, -121670.484, 0.0, 4.976347, 4.954298 
6.424184e+2, 2.8268796e+2, -307836.56, -342624.06, -4251.5337, -0.006747833, -0.002787222, -307324.5, -137670.89, 0.0, 4.9724, 4.950412 
6.422726e+2, 2.8763902e+2, -264740.75, -289318.16, -3711.931, -0.007210757, -0.0074439915, -264192.38, -143061.28, 0.0, 4.9687753, 4.9532447 
6.421269e+2, 2.9259023e+2, -225165.56, -244013.84, -3380.5225, -0.0076129027, -0.012120742, -224577.6, -151971.0, 0.0, 4.96513, 4.9532437 
6.4198124e+2, 2.9754153e+2, -185669.42, -198800.67, -2886.5442, -0.007974962, -0.0160395, -185062.9, -160981.42, 0.0, 4.961456, 4.953199 
6.41839e+2, 3.0250883e+2, -133997.23, -93352.914, 1977.1525, -0.016370138, 0.002936504, -93256.96, -93256.96, 0.0, 4.9579277, 4.983653 
6.417041e+2, 3.0749565e+2, -137616.69, -85999.93, 2165.6824, -0.030736718, 0.011240187, -85909.23, -85909.23, 0.0, 4.954903, 4.9875836 
6.4156955e+2, 3.1248257e+2, -146049.0, -89376.36, 828.6496, -0.044611074, 0.014171841, -89364.25, -89364.25, 0.0, 4.9517627, 4.9876924 
6.414353e+2, 3.1746945e+2, -155797.11, -94982.89, -360.20587, -0.058071848, 0.014771664, -94980.76, -94980.76, 0.0, 4.948462, 4.987065 
6.5233773e+2, 1.242615e+2, -1512942.8, -1721401.5, 3652.2954, 0.039273396, 0.0008203469, -1512878.8, 209364.56, 0.0, 5.0966873, 4.9587536 
6.521945e+2, 1.2921837e+2, -1475889.8, -1678827.9, 3318.5242, 0.024766184, 0.00017621682, -1475835.5, 197828.84, 0.0, 5.0927954, 4.9586806 
6.520514e+2, 1.3417524e+2, -1438714.8, -1636051.5, 3024.2522, 0.010111005, 0.000009895169, -1438668.5, 186416.81, 0.0, 5.088904, 4.9586535 
6.519084e+2, 1.3913204e+2, -1403395.8, -1597256.8, 2565.0007, -0.0044964184, 0.00066640857, -1403361.8, 173145.34, 0.0, 5.085014, 4.957285 
6.517619e+2, 1.440885e+2, -1363200.0, -1549684.4, -3297.7014, -0.011802897, 0.00786789, -1363141.6, 164791.81, 0.0, 5.081278, 4.9587383 
6.51612e+2, 1.4904526e+2, -1325694.4, -1506495.3, -3510.8567, -0.017785603, 0.0037223897, -1325626.3, 153731.28, 0.0, 5.077412, 4.9587693 
6.5146214e+2, 1.5400198e+2, -1288199.4, -1463385.0, -3705.2034, -0.02378323, -0.00048179206, -1288121.0, 142660.67, 0.0, 5.073548, 4.958752 
6.513123e+2, 1.589587e+2, -1252001.3, -1423131.1, -4203.8687, -0.029554341, -0.003897376, -1251898.0, 130307.97, 0.0, 5.069689, 4.9577627 
6.511599e+2, 1.6391529e+2, -1212705.9, -1377261.6, -8227.889, -0.03115921, 0.0010473422, -1212295.5, 121335.95, 0.0, 5.0659246, 4.958646 
6.510052e+2, 1.6887228e+2, -1174892.8, -1333572.8, -8499.971, -0.031236831, -0.00041992837, -1174438.8, 110614.2, 0.0, 5.0620613, 4.9587574 
6.5085053e+2, 1.7382927e+2, -1137185.8, -1290165.5, -8731.175, -0.03132913, -0.0019429125, -1136689.1, 99785.414, 0.0, 5.0582004, 4.958752 
6.50696e+2, 1.7878625e+2, -1100422.3, -1248837.3, -9019.641, -0.031475008, -0.0030618727, -1099876.0, 88019.82, 0.0, 5.054341, 4.958027 
6.5053946e+2, 1.8374278e+2, -1062388.0, -1205347.1, -11770.611, -0.03212751, 0.0034243802, -1061425.4, 77896.336, 0.0, 5.0505195, 4.9580245 
6.5038115e+2, 1.8869942e+2, -1024152.5, -1160794.4, -11963.826, -0.03258598, 0.0024388158, -1023112.94, 67633.625, 0.0, 5.046629, 4.958355 
6.50223e+2, 1.9365607e+2, -986319.44, -1117166.3, -12114.654, -0.033066083, 0.0014348379, -985207.25, 56964.117, 0.0, 5.0427413, 4.958349 
6.50065e+2, 1.986127e+2, -949301.8, -1075363.0, -12208.892, -0.033534728, 0.000691256, -948130.3, 45465.895, 0.0, 5.038857, 4.9576993 
6.499062e+2, 2.0356835e+2, -912193.4, -1033918.56, -13582.461, -0.033298764, 0.0055962573, -910696.25, 34334.55, 0.0, 5.035041, 4.956883 
6.4974654e+2, 2.0852381e+2, -873432.5, -988649.2, -13777.279, -0.032576766, 0.0025490269, -871807.94, 24659.654, 0.0, 5.0312014, 4.9573474 
6.49587e+2, 2.1347925e+2, -835248.6, -944680.56, -13918.867, -0.03184233, -0.0006378785, -833506.0, 14398.34, 0.0, 5.0273633, 4.957345 
6.494275e+2, 2.184347e+2, -797747.4, -902250.94, -14014.6045, -0.031130655, -0.003499997, -795900.56, 3440.3547, 0.0, 5.023526, 4.956792 
6.492681e+2, 2.2338939e+2, -761066.25, -861631.5, -14145.177, -0.029564949, 0.0036184744, -759114.5, -8330.019, 0.0, 5.0196853, 4.955588 
6.491086e+2, 2.2834389e+2, -721755.94, -815304.1, -14345.638, -0.027194083, 0.0016155709, -719605.44, -17375.973, 0.0, 5.0158396, 4.956332 
6.489492e+2, 2.3329842e+2, -683384.1, -771073.06, -14474.624, -0.024890598, -0.00052095484, -681056.6, -27382.396, 0.0, 5.0119944, 4.9563327 
6.4878994e+2, 2.3825294e+2, -645719.8, -728458.3, -14537.697, -0.02263487, -0.0025564001, -643239.75, -38120.69, 0.0, 5.0081506, 4.955748 
6.4863133e+2, 2.4320605e+2, -609801.3, -689179.56, -13312.102, -0.021367386, 0.0029644463, -607628.3, -51049.8, 0.0, 5.0042276, 4.9539742 
6.484735e+2, 2.4815905e+2, -570219.3, -641937.44, -13342.449, -0.021053072, -0.00089076813, -567817.5, -59778.164, 0.0, 5.0002885, 4.9549866 
6.4831585e+2, 2.531121e+2, -531893.56, -597550.4, -13390.6045, -0.020733077, -0.0049922518, -529267.6, -69767.78, 0.0, 4.996352, 4.954987 
6.4815825e+2, 2.5806516e+2, -493736.56, -553604.56, -13407.775, -0.020382538, -0.008997677, -490870.97, -79910.68, 0.0, 4.992419, 4.9548078 
6.480022e+2, 2.6301736e+2, -458565.03, -515674.78, -10966.358, -0.018052774, 0.0022802472, -456531.66, -94103.266, 0.0, 4.988415, 4.952464 
6.478482e+2, 2.679703e+2, -417592.25, -465158.25, -10818.928, -0.014678869, 0.0022162215, -415247.1, -101357.914, 0.0, 4.9844174, 4.954554 
6.476944e+2, 2.7292323e+2, -379206.4, -420562.16, -10820.584, -0.011355809, 0.00059788226, -376546.34, -111196.336, 0.0, 4.9804273, 4.954556 
6.4754057e+2, 2.7787614e+2, -340816.88, -376024.72, -10662.392, -0.008037405, -0.0011411144, -337839.63, -121028.62, 0.0, 4.9764395, 4.954512 
6.473888e+2, 2.8282645e+2, -306184.34, -340311.88, -6880.86, -0.0066112573, 0.00055849017, -304849.22, -136552.28, 0.0, 4.972601, 4.9511876 
6.472394e+2, 2.877774e+2, -263133.22, -287162.22, -6303.327, -0.0071289716, -0.0120133795, -261580.1, -141804.44, 0.0, 4.9689884, 4.953963 
6.4709e+2, 2.9272857e+2, -223449.9, -241808.03, -5890.421, -0.0076050353, -0.024591403, -221722.44, -150469.94, 0.0, 4.965384, 4.953963 
6.469407e+2, 2.976798e+2, -183723.63, -196407.66, -5347.969, -0.008045391, -0.036351632, -181769.75, -159041.03, 0.0, 4.961779, 4.9539557 
6.4679575e+2, 3.0264783e+2, -135047.42, -98723.4, 285.8102, -0.013082639, -0.0033909453, -98721.15, -98721.15, 0.0, 4.958415, 4.9815497 
6.4665896e+2, 3.0763528e+2, -137721.95, -91125.24, -46.74693, -0.021567395, 0.032972883, -91125.195, -91125.195, 0.0, 4.955758, 4.9854083 
6.4652246e+2, 3.126228e+2, -144694.23, -93838.805, -1989.8206, -0.029485486, 0.063801944, -93761.07, -93761.07, 0.0, 4.953135, 4.9855347 
6.463863e+2, 3.1757388e+2, -177562.2, -155425.88, 184.16537, -0.036041647, -0.27038166, -155424.34, -155424.34, 0.0, 4.950414, 4.964467 
6.574324e+2, 1.24398276e+2, -1512924.0, -1722227.8, 743.98193, 0.038175404, -0.006710711, -1512921.4, 207976.02, 0.0, 5.0967817, 4.958481 
6.5728533e+2, 1.2935509e+2, -1475821.8, -1679514.5, 448.1987, 0.024192875, -0.005821208, -1475820.8, 196498.84, 0.0, 5.0928845, 4.9584556 
6.5713835e+2, 1.343119e+2, -1438658.9, -1636735.5, 158.31937, 0.00998298, -0.0044691428, -1438658.8, 185082.9, 0.0, 5.0889883, 4.9584303 
6.569915e+2, 1.3926864e+2, -1403247.9, -1597716.4, -351.60272, -0.004202358, -0.002451347, -1403247.3, 171917.56, 0.0, 5.0850925, 4.9571395 
6.5684104e+2, 1.4422502e+2, -1362979.9, -1549938.5, -6156.6025, -0.011264805, 0.0046764202, -1362777.4, 163814.7, 0.0, 5.0813484, 4.9586663 
6.5668726e+2, 1.4918162e+2, -1325518.0, -1506833.9, -6355.5244, -0.017365104, 0.00012800175, -1325295.5, 152722.05, 0.0, 5.0774813, 4.95867 
6.565335e+2, 1.5413822e+2, -1288025.5, -1463724.0, -6550.7407, -0.023505311, -0.0044561396, -1287781.6, 141661.56, 0.0, 5.0736165, 4.9586535 
6.563798e+2, 1.5909484e+2, -1251855.6, -1423502.6, -7109.5806, -0.029426187, -0.0079471, -1251561.6, 129306.99, 0.0, 5.069752, 4.9576554 
6.562235e+2, 1.6405146e+2, -1212565.0, -1377563.1, -11119.543, -0.03099794, -0.0019229229, -1211819.0, 120475.34, 0.0, 5.0659776, 4.958564 
6.5606487e+2, 1.6900843e+2, -1174805.3, -1333984.0, -11373.072, -0.031013869, -0.002288874, -1173996.9, 109719.78, 0.0, 5.062114, 4.9586387 
6.559064e+2, 1.7396542e+2, -1137098.3, -1290576.1, -11605.864, -0.03106401, -0.0027060017, -1136225.5, 98913.3, 0.0, 5.0582523, 4.9586334 
6.5574795e+2, 1.7892241e+2, -1100308.1, -1249191.1, -11932.009, -0.031181082, -0.0027905072, -1099357.9, 87203.07, 0.0, 5.054393, 4.957928 
6.5558743e+2, 1.8387893e+2, -1062096.6, -1205310.6, -14705.817, -0.031650692, 0.0035281333, -1060602.1, 77385.03, 0.0, 5.0505695, 4.9580603 
6.554254e+2, 1.888355e+2, -1023937.0, -1160917.1, -14881.505, -0.031849388, 0.0019876603, -1022338.94, 67073.78, 0.0, 5.0466785, 4.958337 
6.5526336e+2, 1.9379207e+2, -986106.2, -1117292.1, -15033.366, -0.03208578, 0.00045499366, -984405.5, 56432.707, 0.0, 5.0427904, 4.9583306 
6.551015e+2, 1.9874863e+2, -949102.8, -1075520.9, -15127.236, -0.032358967, -0.0007622784, -947317.9, 44945.9, 0.0, 5.038906, 4.9576697 
6.5493876e+2, 2.0370439e+2, -911901.7, -1033882.75, -16495.906, -0.03250294, 0.0049846084, -909710.25, 33987.457, 0.0, 5.0350914, 4.9569182 
6.547752e+2, 2.0865998e+2, -873193.4, -988725.5, -16682.951, -0.032413464, 0.0032626404, -870832.6, 24301.037, 0.0, 5.0312514, 4.957345 
6.5461177e+2, 2.1361557e+2, -835010.44, -944758.5, -16826.328, -0.032322254, 0.0014008658, -832488.56, 14080.946, 0.0, 5.0274134, 4.957342 
6.5444845e+2, 2.1857116e+2, -797488.1, -902284.44, -16936.215, -0.032189444, -0.00013561037, -794819.06, 3186.2368, 0.0, 5.0235763, 4.9568048 
6.5428513e+2, 2.2352591e+2, -760718.75, -861495.94, -17077.285, -0.030185094, 0.0069004726, -757903.5, -8455.166, 0.0, 5.0197387, 4.9556584 
6.541219e+2, 2.2848038e+2, -721474.75, -815317.6, -17284.258, -0.02720205, 0.004325465, -718392.5, -17498.81, 0.0, 5.0158935, 4.956352 
6.5395874e+2, 2.3343487e+2, -683103.4, -771090.06, -17414.912, -0.024301847, 0.0016409815, -679781.94, -27443.127, 0.0, 5.0120487, 4.9563518 
6.5379566e+2, 2.3838936e+2, -645452.44, -728503.0, -17482.29, -0.021526195, -0.000923345, -641922.44, -38138.42, 0.0, 5.008204, 4.955758 
6.536331e+2, 2.4334255e+2, -609299.56, -688701.1, -16325.382, -0.020435419, 0.004143667, -606074.0, -50831.445, 0.0, 5.00428, 4.9541664 
6.5347135e+2, 2.4829565e+2, -569791.3, -641625.5, -16369.691, -0.020318545, -0.00022987292, -566236.9, -59534.613, 0.0, 5.000341, 4.955122 
6.5330976e+2, 2.5324878e+2, -531466.8, -597240.75, -16420.21, -0.020209065, -0.004858881, -527595.44, -69433.72, 0.0, 4.9964046, 4.955122 
6.531482e+2, 2.5820193e+2, -493302.8, -553280.2, -16434.621, -0.020051971, -0.009352994, -489094.75, -79473.69, 0.0, 4.9924717, 4.9549484 
6.529882e+2, 2.6315448e+2, -457986.03, -515039.78, -14029.254, -0.017587868, 0.0031617736, -454722.94, -93637.32, 0.0, 4.988469, 4.952712 
6.5283024e+2, 2.6810786e+2, -417072.97, -464658.13, -13918.582, -0.014215787, 0.005256977, -413300.84, -100758.89, 0.0, 4.984472, 4.9547563 
6.526724e+2, 2.730612e+2, -378691.6, -420065.47, -13921.892, -0.010922623, 0.0058314777, -374443.25, -110444.836, 0.0, 4.9804807, 4.954758 
6.525147e+2, 2.7801448e+2, -340274.16, -375462.9, -13697.018, -0.0076662386, 0.0061933855, -335571.22, -120116.09, 0.0, 4.976493, 4.9547377 
6.523591e+2, 2.829649e+2, -304907.28, -338201.25, -9680.431, -0.006537863, 0.0034498542, -302297.25, -135356.7, 0.0, 4.972672, 4.9519525 
6.5220606e+2, 2.879158e+2, -261920.39, -285209.9, -9129.269, -0.007145234, -0.017095927, -258768.39, -140347.9, 0.0, 4.969062, 4.9546742 
6.520531e+2, 2.928669e+2, -222239.08, -239861.0, -8716.136, -0.007735195, -0.03765448, -218656.33, -148757.63, 0.0, 4.9654584, 4.9546742 
6.5190023e+2, 2.9781806e+2, -182691.17, -194859.55, -8212.407, -0.00829497, -0.057134207, -178554.75, -157178.7, 0.0, 4.9618535, 4.9545255 
6.5175265e+2, 3.0278683e+2, -137268.53, -104901.67, -1631.8751, -0.009890589, -0.008326067, -104819.61, -104819.61, 0.0, 4.9585276, 4.9793153 
6.5161383e+2, 3.0777475e+2, -139884.36, -97415.2, -2012.8396, -0.013079142, 0.054908562, -97320.02, -97320.02, 0.0, 4.9559073, 4.98312 
6.514755e+2, 3.1276268e+2, -146776.61, -100159.31, -3899.6624, -0.016148934, 0.112299696, -99835.34, -99835.34, 0.0, 4.9533157, 4.9832287 
6.5133786e+2, 3.1767803e+2, -114108.82, -10556.899, -1664.4454, -0.014094351, -0.5849213, -10530.153, -10530.153, 0.0, 4.950366, 5.0173182 
6.625271e+2, 1.2453664e+2, -1512172.8, -1722173.3, 2576.3367, 0.037992507, -0.013421884, -1512141.1, 207394.86, 0.0, 5.0971375, 4.958317 
6.6237617e+2, 1.2949327e+2, -1474963.4, -1679408.5, 2092.007, 0.023527587, -0.011122316, -1474942.0, 196018.77, 0.0, 5.093271, 4.9582944 
6.622253e+2, 1.3444988e+2, -1437839.4, -1636651.4, 1618.3545, 0.009424837, -0.008614049, -1437826.3, 184559.22, 0.0, 5.0893564, 4.9582715 
6.620745e+2, 1.3940638e+2, -1402498.6, -1597517.5, 865.491, -0.0039651734, -0.005868717, -1402494.8, 171316.55, 0.0, 5.0853987, 4.9570503 
6.619202e+2, 1.4436263e+2, -1362301.0, -1549564.0, -5023.637, -0.010256745, 0.0011586092, -1362166.3, 163074.13, 0.0, 5.0815854, 4.9586706 
6.6176254e+2, 1.4931908e+2, -1325101.5, -1506627.0, -5351.9976, -0.01605027, -0.0034183622, -1324943.9, 151723.63, 0.0, 5.0776405, 4.958656 
6.6160494e+2, 1.5427552e+2, -1287844.0, -1463614.1, -5677.6753, -0.021904415, -0.007902555, -1287660.8, 140433.78, 0.0, 5.0736947, 4.958647 
6.6144735e+2, 1.5923202e+2, -1251864.8, -1423485.0, -6377.9775, -0.027560635, -0.010996036, -1251628.0, 127893.14, 0.0, 5.069759, 4.957657 
6.61287e+2, 1.6418856e+2, -1212713.9, -1377807.9, -10499.723, -0.029151186, -0.0041634026, -1212048.8, 118899.336, 0.0, 5.065958, 4.9584956 
6.611246e+2, 1.6914544e+2, -1175076.1, -1334352.1, -10908.706, -0.029334296, -0.003734208, -1174332.5, 108039.734, 0.0, 5.0620604, 4.9585466 
6.6096216e+2, 1.7410228e+2, -1137459.9, -1291005.0, -11327.504, -0.029523069, -0.0033331404, -1136628.8, 97167.58, 0.0, 5.058166, 4.9585385 
6.6079986e+2, 1.7905915e+2, -1100700.6, -1249564.3, -11877.494, -0.029752238, -0.0026560887, -1099758.9, 85461.48, 0.0, 5.054276, 4.9578686 
6.606355e+2, 1.8401554e+2, -1062262.9, -1205336.0, -14835.112, -0.030064357, 0.0033648643, -1060740.9, 75906.94, 0.0, 5.050478, 4.958109 
6.6046953e+2, 1.8897197e+2, -1024039.56, -1161006.1, -15203.717, -0.029965265, 0.0011619339, -1022372.2, 65702.61, 0.0, 5.0466266, 4.958348 
6.603037e+2, 1.939284e+2, -986120.75, -1117349.0, -15554.375, -0.029899511, -0.0010249905, -984302.3, 55199.48, 0.0, 5.0427685, 4.9583406 
6.6013795e+2, 1.9888484e+2, -949097.94, -1075641.9, -15846.834, -0.029928626, -0.0027734179, -947143.6, 43785.06, 0.0, 5.038904, 4.9576507 
6.5997136e+2, 2.0384069e+2, -911813.6, -1033805.06, -17377.979, -0.030532332, 0.0041733813, -909386.4, 32975.88, 0.0, 5.035083, 4.956972 
6.5980387e+2, 2.0879637e+2, -873198.9, -988800.1, -17770.223, -0.031132696, 0.00397773, -870528.94, 23268.727, 0.0, 5.0312295, 4.957355 
6.5963656e+2, 2.1375206e+2, -835055.7, -944859.06, -18110.424, -0.031741295, 0.0035873558, -832145.8, 13087.234, 0.0, 5.0273757, 4.957352 
6.5946925e+2, 2.1870776e+2, -797562.56, -902383.1, -18406.922, -0.032236587, 0.0034414595, -794424.2, 2244.0627, 0.0, 5.0235224, 4.956825 
6.593022e+2, 2.2366251e+2, -760696.6, -861404.1, -18750.043, -0.030010134, 0.010265158, -757319.0, -9207.618, 0.0, 5.0196853, 4.955747 
6.591351e+2, 2.2861692e+2, -721512.7, -815375.94, -19121.43, -0.026629955, 0.0069984226, -717766.8, -18209.477, 0.0, 5.015841, 4.956391 
6.5896815e+2, 2.3357137e+2, -683147.56, -771163.5, -19414.256, -0.023289427, 0.0036670011, -679055.5, -28052.422, 0.0, 5.0119934, 4.9563885 
6.5880126e+2, 2.385258e+2, -645523.4, -728619.5, -19645.672, -0.020125043, 0.00052485964, -641112.8, -38663.94, 0.0, 5.008143, 4.9557843 
6.586349e+2, 2.4347906e+2, -609108.0, -688291.56, -18671.057, -0.019297943, 0.005275815, -604926.3, -51019.8, 0.0, 5.0042267, 4.9543734 
6.584692e+2, 2.4843226e+2, -569639.6, -641377.5, -18867.479, -0.019407576, 0.0004193491, -564980.0, -59614.945, 0.0, 5.0002985, 4.9552703 
6.583036e+2, 2.5338548e+2, -531307.7, -597004.3, -19041.969, -0.019533487, -0.0047295047, -526187.5, -69364.02, 0.0, 4.9963646, 4.9552674 
6.5813804e+2, 2.5833872e+2, -493151.97, -553050.3, -19159.48, -0.019586252, -0.0096943015, -487547.8, -79266.06, 0.0, 4.9924264, 4.955096 
6.5797424e+2, 2.6329163e+2, -457710.56, -514529.2, -16902.4, -0.017056663, 0.0042141825, -453062.66, -93320.04, 0.0, 4.98842, 4.9529605 
6.5781224e+2, 2.682454e+2, -416801.13, -464255.28, -16879.28, -0.013705886, 0.008436848, -411409.75, -100215.2, 0.0, 4.98444, 4.9549613 
6.576504e+2, 2.7319917e+2, -378373.16, -419648.84, -16932.727, -0.010448761, 0.011170976, -372315.72, -109669.08, 0.0, 4.980466, 4.9549623 
6.574887e+2, 2.7815288e+2, -339785.25, -374891.9, -16646.498, -0.0072615785, 0.013520047, -333147.16, -119047.945, 0.0, 4.9765224, 4.954977 
6.5732944e+2, 2.831033e+2, -303709.97, -336130.4, -12428.609, -0.006506207, 0.0058862544, -299493.7, -133909.25, 0.0, 4.9727182, 4.952714 
6.5717274e+2, 2.8805417e+2, -260787.78, -283290.2, -11919.531, -0.0072273044, -0.022698397, -255647.98, -138582.33, 0.0, 4.9691086, 4.955386 
6.5701616e+2, 2.930052e+2, -221115.73, -237950.81, -11513.815, -0.007957093, -0.051305525, -215270.63, -146725.36, 0.0, 4.965503, 4.955385 
6.568597e+2, 2.9795632e+2, -182058.66, -194049.94, -11035.313, -0.008623626, -0.078130186, -175495.4, -155471.94, 0.0, 4.9618945, 4.954847 
6.5670955e+2, 3.0292583e+2, -139571.0, -111054.3, -3481.79, -0.006479161, -0.011932302, -110635.34, -110635.34, 0.0, 4.958606, 4.977096 
6.565689e+2, 3.0791423e+2, -142172.19, -103751.7, -3931.3726, -0.004319873, 0.07700904, -103353.555, -103353.555, 0.0, 4.956016, 4.9808235 
6.5642864e+2, 3.1290254e+2, -148997.36, -106532.24, -5763.305, -0.002491317, 0.15975699, -105763.95, -105763.95, 0.0, 4.9534516, 4.980914 
6.562835e+2, 3.1790257e+2, -149670.44, -93422.21, -5306.38, -0.051572364, 0.3491928, -92925.99, -92925.99, 0.0, 4.950506, 4.9869447 
6.6762406e+2, 1.24687105e+2, -1500005.0, -1715641.8, 9092.425, 0.034180705, -0.018760506, -1499622.4, 218433.94, 0.0, 5.1014304, 4.958317 
6.674691e+2, 1.296434e+2, -1463851.0, -1673403.9, 8718.748, 0.021038301, -0.016026475, -1463488.9, 205996.3, 0.0, 5.0972037, 4.958299 
6.6731423e+2, 1.345997e+2, -1427634.5, -1631096.5, 8347.348, 0.008159859, -0.013070844, -1427292.6, 193621.3, 0.0, 5.092979, 4.9582815 
6.671595e+2, 1.3955587e+2, -1392910.4, -1592042.8, 7645.2573, -0.0038531087, -0.01000009, -1392617.3, 179726.52, 0.0, 5.0887628, 4.9571605 
6.670011e+2, 1.4451195e+2, -1353144.3, -1544096.6, 2007.3052, -0.0090874545, -0.00272178, -1353123.1, 170651.42, 0.0, 5.0847607, 4.958868 
6.668394e+2, 1.4946824e+2, -1316470.8, -1501433.8, 1811.8011, -0.014166474, -0.006759381, -1316453.0, 158750.14, 0.0, 5.080643, 4.958848 
6.666779e+2, 1.5442456e+2, -1279707.0, -1458647.0, 1603.1921, -0.019308005, -0.01068825, -1279692.6, 146938.92, 0.0, 5.0765285, 4.9588466 
6.6651636e+2, 1.5938094e+2, -1244115.9, -1418541.9, 978.16254, -0.0242103, -0.013338853, -1244110.4, 133949.2, 0.0, 5.0724273, 4.95793 
6.66352e+2, 1.6433735e+2, -1205557.5, -1373295.0, -2891.2458, -0.025552312, -0.0064452323, -1205507.8, 123980.266, 0.0, 5.068454, 4.958708 
6.6618556e+2, 1.6929401e+2, -1168465.4, -1330178.0, -3107.0574, -0.02591094, -0.0055524586, -1168405.6, 112508.695, 0.0, 5.0643854, 4.958729 
6.6601914e+2, 1.7425068e+2, -1131349.3, -1287076.1, -3331.4219, -0.026271747, -0.004669358, -1131278.0, 101062.65, 0.0, 5.060321, 4.958721 
6.6585284e+2, 1.7920734e+2, -1095040.5, -1245786.5, -3701.244, -0.026647154, -0.0035604374, -1094949.8, 88817.27, 0.0, 5.056263, 4.958081 
6.656845e+2, 1.8416356e+2, -1056927.0, -1201670.5, -6429.3823, -0.026829174, 0.0023856354, -1056641.9, 78554.71, 0.0, 5.0523453, 4.9583383 
6.6551465e+2, 1.8911971e+2, -1019025.25, -1157579.4, -6672.5747, -0.026591597, -0.00001277477, -1018704.7, 67921.92, 0.0, 5.0484023, 4.958542 
6.6534495e+2, 1.9407587e+2, -981345.5, -1114029.9, -6919.6006, -0.026351329, -0.0024207677, -980985.6, 57070.887, 0.0, 5.0444627, 4.958539 
6.651753e+2, 1.9903204e+2, -944512.6, -1072350.5, -7124.6465, -0.02616415, -0.004325575, -944116.8, 45369.492, 0.0, 5.0405216, 4.957878 
6.650048e+2, 2.0398778e+2, -907503.3, -1030552.9, -8510.341, -0.026534108, 0.0033600733, -906917.5, 34003.633, 0.0, 5.0365887, 4.9572396 
6.648334e+2, 2.0894332e+2, -869289.0, -985820.75, -8764.71, -0.026906462, 0.0042314925, -868633.5, 23724.479, 0.0, 5.032615, 4.957587 
6.646622e+2, 2.138989e+2, -831485.9, -942034.2, -8983.17, -0.027316192, 0.00495475, -830760.7, 13034.075, 0.0, 5.0286436, 4.9575877 
6.6449094e+2, 2.1885444e+2, -794315.3, -899688.8, -9173.198, -0.027615597, 0.005795677, -793522.7, 1708.8308, 0.0, 5.024675, 4.95707 
6.6432e+2, 2.23809e+2, -757745.25, -858715.94, -9402.057, -0.025664372, 0.01219293, -756877.25, -10200.261, 0.0, 5.0207124, 4.9560466 
6.64149e+2, 2.2876313e+2, -719006.2, -813023.1, -9745.493, -0.0228294, 0.008560061, -718006.6, -19880.732, 0.0, 5.0167413, 4.9566345 
6.6397804e+2, 2.3371732e+2, -680993.5, -768958.3, -10005.914, -0.019963194, 0.004858325, -679869.7, -30295.215, 0.0, 5.012769, 4.9566383 
6.638072e+2, 2.386715e+2, -643670.75, -726473.7, -10197.335, -0.017235683, 0.0013632582, -642433.44, -41410.38, 0.0, 5.0088, 4.9560685 
6.6363686e+2, 2.4362467e+2, -607324.6, -685890.2, -9224.791, -0.016643748, 0.0063875234, -606256.06, -53774.625, 0.0, 5.0048084, 4.954782 
6.6346717e+2, 2.485778e+2, -568074.0, -639180.3, -9482.574, -0.01681114, 0.002043125, -566831.1, -62890.773, 0.0, 5.0008254, 4.9556355 
6.632976e+2, 2.5353095e+2, -529871.1, -594854.06, -9711.26, -0.016998367, -0.0026873867, -528450.9, -73051.625, 0.0, 4.9968452, 4.955639 
6.6312814e+2, 2.5848413e+2, -491849.2, -550997.75, -9884.411, -0.017069874, -0.0072976137, -490241.13, -83383.12, 0.0, 4.9928675, 4.955452 
6.6296035e+2, 2.6343688e+2, -456545.66, -512455.72, -7819.8906, -0.014217485, 0.0060180076, -455472.53, -97152.48, 0.0, 4.9888, 4.953353 
6.6279435e+2, 2.6839045e+2, -416050.3, -462489.7, -8175.949, -0.010564675, 0.009158327, -414652.94, -104879.05, 0.0, 4.984696, 4.9553046 
6.6262853e+2, 2.73344e+2, -377984.0, -418023.63, -8556.54, -0.007043017, 0.011163935, -376232.1, -115004.68, 0.0, 4.980588, 4.955317 
6.624628e+2, 2.7829763e+2, -339950.56, -373452.47, -8541.709, -0.0037123172, 0.012996824, -337898.44, -125217.49, 0.0, 4.9764376, 4.955359 
6.622996e+2, 2.8324816e+2, -304597.2, -334789.0, -4943.7856, -0.0046842154, 0.0061524413, -303808.28, -139642.67, 0.0, 4.972353, 4.953182 
6.6213894e+2, 2.8819928e+2, -262523.5, -282388.06, -5644.331, -0.0073645967, -0.020528797, -261031.75, -145386.64, 0.0, 4.9684496, 4.9558315 
6.619783e+2, 2.9315048e+2, -223639.11, -237316.88, -6331.9883, -0.009696177, -0.048622515, -221157.89, -154034.19, 0.0, 4.9645467, 4.9558682 
6.618179e+2, 2.981018e+2, -185776.38, -194531.6, -6788.6934, -0.011479347, -0.07559268, -182076.25, -163475.34, 0.0, 4.9606295, 4.9550653 
6.6166514e+2, 3.0307084e+2, -147872.45, -115227.29, 2011.6754, -0.0018677394, -0.009263334, -115103.8, -115103.8, 0.0, 4.9560604, 4.9765167 
6.615224e+2, 3.0805823e+2, -156318.7, -110612.28, 3715.2358, 0.012402121, 0.07862868, -110312.26, -110312.26, 0.0, 4.951453, 4.9801474 
6.6138e+2, 3.1304607e+2, -169072.28, -116021.62, 4015.7083, 0.026344905, 0.16755068, -115719.37, -115719.37, 0.0, 4.946837, 4.9801826 
6.6123796e+2, 3.17992e+2, -134423.83, -10459.312, 8391.975, 0.038193583, -0.17291686, -9893.783, -9893.783, 0.0, 4.9416976, 5.020986 
6.727229e+2, 1.2484216e+2, -1500002.1, -1716520.9, 5985.4307, 0.030735433, -0.023013026, -1499836.8, 216694.75, 0.0, 5.1015162, 4.958039 
6.725638e+2, 1.297982e+2, -1463850.0, -1674275.4, 5613.498, 0.018871857, -0.019970752, -1463700.4, 204263.33, 0.0, 5.097287, 4.958024 
6.7240477e+2, 1.3475426e+2, -1427635.6, -1631960.5, 5243.841, 0.0071830186, -0.01669899, -1427501.1, 191894.7, 0.0, 5.0930605, 4.958009 
6.722459e+2, 1.3971019e+2, -1392716.0, -1592486.6, 4471.502, -0.0035693431, -0.013403403, -1392616.0, 178212.9, 0.0, 5.0888424, 4.957027 
6.720834e+2, 1.4466621e+2, -1352952.6, -1544466.0, -1001.92865, -0.007944302, -0.005883074, -1352947.4, 169312.84, 0.0, 5.084831, 4.9587617 
6.719177e+2, 1.4962249e+2, -1316253.1, -1501744.9, -1211.5598, -0.012341127, -0.009402526, -1316245.1, 157444.03, 0.0, 5.0807133, 4.9587607 
6.717521e+2, 1.5457876e+2, -1279490.3, -1458952.4, -1420.37, -0.016822562, -0.01283226, -1279479.0, 145639.03, 0.0, 5.0765977, 4.958761 
6.715865e+2, 1.595351e+2, -1243826.4, -1418661.0, -2083.6409, -0.021036858, -0.015145566, -1243801.5, 132745.03, 0.0, 5.072491, 4.9579096 
6.71418e+2, 1.6449152e+2, -1205370.5, -1373554.8, -5938.526, -0.022129856, -0.008158556, -1205161.1, 122814.13, 0.0, 5.068508, 4.958644 
6.712474e+2, 1.6944812e+2, -1168317.6, -1330511.6, -6131.2456, -0.02264856, -0.006847975, -1168086.3, 111316.22, 0.0, 5.0644383, 4.9586406 
6.71077e+2, 1.7440474e+2, -1131203.9, -1287410.5, -6357.313, -0.023185713, -0.0055274335, -1130945.5, 99884.07, 0.0, 5.060373, 4.9586334 
6.709066e+2, 1.7936134e+2, -1094864.4, -1246054.4, -6761.8223, -0.0237473, -0.0040100687, -1094562.6, 87694.055, 0.0, 5.0563145, 4.958015 
6.707342e+2, 1.8431751e+2, -1056773.8, -1201971.0, -9384.152, -0.023876004, 0.0020085722, -1056169.8, 77517.164, 0.0, 5.052396, 4.958261 
6.705605e+2, 1.8927357e+2, -1018923.5, -1157992.3, -9629.585, -0.023630925, -0.0004258101, -1018259.9, 66858.54, 0.0, 5.048453, 4.9584265 
6.7038685e+2, 1.9422962e+2, -981243.4, -1114443.8, -9878.64, -0.023399403, -0.0028581622, -980514.75, 56035.035, 0.0, 5.044513, 4.9584236 
6.702133e+2, 1.9918568e+2, -944378.2, -1072693.3, -10103.215, -0.02321189, -0.0046740985, -943587.56, 44393.348, 0.0, 5.0405717, 4.9577875 
6.7003876e+2, 2.0414144e+2, -907281.75, -1030709.06, -11534.656, -0.023264186, 0.0034675696, -906213.06, 33202.723, 0.0, 5.0366387, 4.957214 
6.6986346e+2, 2.0909698e+2, -869138.25, -986129.75, -11769.396, -0.023158044, 0.0049514673, -867966.0, 22886.908, 0.0, 5.032665, 4.957509 
6.696883e+2, 2.1405253e+2, -831334.56, -942344.4, -11989.161, -0.023094757, 0.0063116318, -830054.44, 12235.52, 0.0, 5.0286937, 4.9575095 
6.6951317e+2, 2.1900804e+2, -794172.7, -900025.1, -12188.658, -0.022934845, 0.0076447953, -792787.4, 939.85175, 0.0, 5.0247254, 4.956982 
6.6933817e+2, 2.2396252e+2, -757547.94, -858957.06, -12426.909, -0.021264438, 0.013735726, -756047.3, -10873.706, 0.0, 5.0207667, 4.9559903 
6.6916317e+2, 2.2891654e+2, -718898.2, -813461.7, -12778.51, -0.019040499, 0.009992414, -717201.8, -20577.75, 0.0, 5.016795, 4.95651 
6.6898817e+2, 2.3387058e+2, -680885.2, -769396.75, -13041.082, -0.016791044, 0.006190816, -679003.75, -30929.406, 0.0, 5.0128236, 4.956514 
6.688133e+2, 2.3882462e+2, -643522.8, -726824.8, -13228.747, -0.014695499, 0.0026133028, -641472.5, -41948.047, 0.0, 5.008854, 4.9559746 
6.68639e+2, 2.4377783e+2, -607063.5, -686009.9, -12272.811, -0.01423436, 0.008159802, -605199.56, -54217.17, 0.0, 5.004864, 4.954769 
6.684653e+2, 2.4873099e+2, -567881.7, -639455.3, -12547.017, -0.0143245645, 0.0046488233, -565745.9, -63304.95, 0.0, 5.0008817, 4.955569 
6.682918e+2, 2.5368416e+2, -529679.06, -595128.7, -12777.958, -0.014449777, 0.0007468825, -527272.9, -73373.37, 0.0, 4.996901, 4.9555726 
6.6811836e+2, 2.5863734e+2, -491698.66, -551366.25, -12944.647, -0.01441172, -0.003073544, -489011.38, -83653.47, 0.0, 4.9929233, 4.955353 
6.6794664e+2, 2.635897e+2, -456453.9, -512988.13, -10941.302, -0.010798446, 0.007924085, -454410.25, -97587.09, 0.0, 4.9888597, 4.953194 
6.677767e+2, 2.685427e+2, -415957.97, -463168.34, -11295.238, -0.0062291636, 0.007148662, -413394.72, -105112.0, 0.0, 4.984784, 4.955082 
6.676069e+2, 2.7349567e+2, -377785.2, -418647.4, -11654.383, -0.0018069171, 0.005287563, -374694.94, -114952.91, 0.0, 4.9807134, 4.9550962 
6.6743714e+2, 2.7844867e+2, -339623.8, -374146.75, -11579.056, 0.002242605, 0.0033853326, -336099.88, -124898.64, 0.0, 4.9766345, 4.95508 
6.6726977e+2, 2.8339937e+2, -304806.16, -336972.13, -7942.3535, -0.0016653268, 0.004050089, -302951.94, -140267.1, 0.0, 4.972597, 4.9523573 
6.671048e+2, 2.8835115e+2, -262668.38, -284666.78, -8797.25, -0.008715556, -0.007627698, -259583.05, -145423.66, 0.0, 4.968741, 4.954949 
6.669399e+2, 2.9330292e+2, -223619.39, -239496.33, -9692.248, -0.015410845, -0.020909525, -219029.53, -153396.33, 0.0, 4.9648924, 4.954995 
6.6677535e+2, 2.9825482e+2, -185406.4, -196201.7, -10360.353, -0.021164127, -0.03367537, -179121.95, -162016.0, 0.0, 4.961032, 4.954346 
6.666195e+2, 3.0322137e+2, -145215.9, -111161.34, -2114.785, -0.0002491996, 0.003419953, -111030.516, -111030.516, 0.0, 4.956355, 4.977923 
6.6647387e+2, 3.0820414e+2, -154130.02, -106915.51, -8.931482, 0.033429578, 0.031974096, -106915.5, -106915.5, 0.0, 4.951611, 4.981479 
6.6632867e+2, 3.1318748e+2, -167174.61, -112474.34, 887.57513, 0.06671829, 0.063168325, -112459.945, -112459.945, 0.0, 4.9468985, 4.9814982 
6.661725e+2, 3.181244e+2, -113469.37, 37952.63, 3828.9675, -0.01720925, -0.40121087, 38049.39, 38049.39, 0.0, 4.9415417, 5.0390744 
6.778217e+2, 1.2499722e+2, -1500094.9, -1717427.6, 2859.0183, 0.027683768, -0.027094733, -1500057.3, 214949.63, 0.0, 5.1015725, 4.9577646 
6.776585e+2, 1.2995301e+2, -1463888.1, -1675160.0, 2496.235, 0.017003922, -0.023697361, -1463858.6, 202583.63, 0.0, 5.0973597, 4.9577494 
6.7749536e+2, 1.3490883e+2, -1427644.3, -1632831.8, 2127.2827, 0.0064575006, -0.020131657, -1427622.1, 190255.52, 0.0, 5.093141, 4.957735 
6.7733234e+2, 1.3986452e+2, -1392536.9, -1592968.3, 1302.3855, -0.00310934, -0.016649393, -1392528.5, 176785.42, 0.0, 5.0889244, 4.956881 
6.771656e+2, 1.4482051e+2, -1352732.8, -1544789.3, -4026.8896, -0.0067636324, -0.008876142, -1352648.4, 168097.42, 0.0, 5.084905, 4.95867 
6.7699593e+2, 1.4977674e+2, -1316032.4, -1502059.3, -4237.922, -0.010487475, -0.011929136, -1315935.9, 156239.25, 0.0, 5.080786, 4.958672 
6.7682624e+2, 1.5473299e+2, -1279270.4, -1459261.1, -4446.927, -0.01431754, -0.014911821, -1279160.6, 144443.75, 0.0, 5.076669, 4.958674 
6.7665654e+2, 1.5968925e+2, -1243530.1, -1418782.3, -5194.9253, -0.017845402, -0.016924223, -1243376.3, 131657.14, 0.0, 5.072558, 4.9578886 
6.764839e+2, 1.6464567e+2, -1205216.6, -1373889.9, -8950.733, -0.018710114, -0.009766631, -1204743.0, 121719.555, 0.0, 5.068564, 4.958555 
6.7630935e+2, 1.6960223e+2, -1168165.9, -1330849.9, -9155.228, -0.019382544, -0.0080749355, -1167652.3, 110238.266, 0.0, 5.0644937, 4.958551 
6.761348e+2, 1.7455879e+2, -1131054.3, -1287749.4, -9382.998, -0.020090489, -0.006355048, -1130494.4, 98824.14, 0.0, 5.060427, 4.9585443 
6.759603e+2, 1.7951535e+2, -1094684.8, -1246328.1, -9814.501, -0.020842534, -0.004441707, -1094052.3, 86694.11, 0.0, 5.0563684, 4.9579477 
6.7578393e+2, 1.844715e+2, -1056625.6, -1202296.9, -12344.664, -0.020920701, 0.0016763948, -1055586.9, 76590.47, 0.0, 5.052449, 4.9581757 
6.756062e+2, 1.8942744e+2, -1018817.44, -1158409.6, -12585.719, -0.020665076, -0.00082031294, -1017691.75, 65918.48, 0.0, 5.048506, 4.95831 
6.754286e+2, 1.9438335e+2, -981137.06, -1114862.1, -12836.801, -0.020437581, -0.0033024692, -979915.94, 55127.19, 0.0, 5.044566, 4.958307 
6.752511e+2, 1.9933933e+2, -944224.7, -1073012.0, -13107.828, -0.020239456, -0.0050055156, -942904.1, 43571.45, 0.0, 5.040624, 4.9577055 
6.750726e+2, 2.042951e+2, -907080.06, -1030919.75, -14533.707, -0.019961283, 0.0036477766, -905397.25, 32513.123, 0.0, 5.0366907, 4.9571695 
6.7489344e+2, 2.0925063e+2, -868983.0, -986443.44, -14773.063, -0.019371027, 0.0056915865, -867153.5, 22194.33, 0.0, 5.0327168, 4.95743 
6.7471427e+2, 2.1420614e+2, -831178.7, -942659.3, -14994.131, -0.018830547, 0.0076347953, -829197.25, 11588.001, 0.0, 5.0287457, 4.95743 
6.7453533e+2, 2.1916163e+2, -794034.0, -900384.2, -15188.818, -0.018232258, 0.00943674, -791907.25, 315.67767, 0.0, 5.024779, 4.956887 
6.7435634e+2, 2.2411603e+2, -757360.3, -859235.4, -15462.998, -0.016900793, 0.015367233, -755065.0, -11394.699, 0.0, 5.0208235, 4.9559216 
6.7417717e+2, 2.2906992e+2, -718785.7, -813904.94, -15811.061, -0.015282825, 0.011484603, -716226.4, -21104.025, 0.0, 5.0168514, 4.956385 
6.7399824e+2, 2.3402382e+2, -680772.3, -769839.94, -16075.782, -0.0136469295, 0.007551488, -677959.6, -31385.41, 0.0, 5.01288, 4.956389 
6.738193e+2, 2.3897773e+2, -643378.94, -727201.0, -16264.768, -0.012169753, 0.0038713384, -640333.56, -42307.69, 0.0, 5.0089107, 4.9558725 
6.73641e+2, 2.43931e+2, -606799.0, -686135.8, -15313.933, -0.011810242, 0.010025013, -603945.7, -54462.266, 0.0, 5.004923, 4.9547544 
6.7346346e+2, 2.4888417e+2, -567684.8, -639735.0, -15611.217, -0.011822747, 0.00732049, -564447.75, -63506.17, 0.0, 5.0009403, 4.955501 
6.732859e+2, 2.5383735e+2, -529482.44, -595408.0, -15844.415, -0.011885144, 0.004218933, -525872.1, -73472.38, 0.0, 4.996959, 4.955505 
6.731085e+2, 2.587905e+2, -491556.28, -551768.6, -16000.561, -0.0117214555, 0.0011174459, -487568.47, -83710.51, 0.0, 4.9929814, 4.955242 
6.729329e+2, 2.6374254e+2, -456365.88, -513542.34, -14073.11, -0.0073207943, 0.009601128, -453089.72, -97763.016, 0.0, 4.988921, 4.953029 
6.7275906e+2, 2.6869488e+2, -415940.66, -463891.34, -14459.301, -0.0018394548, 0.0048970664, -411917.97, -105125.984, 0.0, 4.9848466, 4.9548573 
6.725852e+2, 2.7364725e+2, -377765.78, -419368.03, -14821.116, 0.0034780717, -0.0008507376, -373025.72, -114768.64, 0.0, 4.980776, 4.954872 
6.7241144e+2, 2.7859968e+2, -339761.03, -375219.56, -14697.359, 0.008178954, -0.006348372, -334461.22, -124739.31, 0.0, 4.976696, 4.954731 
6.7223984e+2, 2.835506e+2, -305511.2, -339431.38, -10972.464, 0.0011616655, 0.002719365, -302271.28, -141067.08, 0.0, 4.972671, 4.951514 
6.720706e+2, 2.8850293e+2, -263433.44, -287284.4, -11853.34, -0.01028182, 0.0059447894, -258544.67, -145870.72, 0.0, 4.968817, 4.9540453 
6.7190146e+2, 2.9345533e+2, -224374.73, -242103.2, -12744.655, -0.021412967, 0.0075133797, -217714.77, -153571.64, 0.0, 4.9649696, 4.9540935 
6.717326e+2, 2.9840773e+2, -185996.69, -198401.2, -13424.627, -0.03109795, 0.009011679, -177410.81, -161799.08, 0.0, 4.9611015, 4.9535913 
6.715738e+2, 3.0337155e+2, -143127.14, -107338.78, -5674.484, 0.001964258, 0.013134775, -106460.61, -106460.61, 0.0, 4.956426, 4.979349 
6.7142546e+2, 3.0834952e+2, -151958.86, -103250.445, -3554.6355, 0.054869086, -0.022180589, -102992.41, -102992.41, 0.0, 4.9517355, 4.982831 
6.7127746e+2, 3.1332788e+2, -164864.39, -108806.85, -2551.879, 0.10688611, -0.05562918, -108690.93, -108690.93, 0.0, 4.947071, 4.9828315 
6.7110574e+2, 3.1830096e+2, -132832.42, -6758.6646, -2298.374, -0.08446018, -0.15926607, -6716.7783, -6716.7783, 0.0, 4.941516, 5.022508 
6.829208e+2, 1.2515382e+2, -1497670.9, -1716282.1, 4611.1865, 0.024444427, -0.032097854, -1497573.6, 215894.95, 0.0, 5.1025033, 4.957674 
6.827534e+2, 1.301094e+2, -1462058.5, -1674355.6, 4122.122, 0.015014913, -0.027450433, -1461978.5, 202928.23, 0.0, 5.098086, 4.957649 
6.825861e+2, 1.3506497e+2, -1426393.3, -1632361.8, 3637.4907, 0.0058453428, -0.022849414, -1426329.0, 190015.98, 0.0, 5.093667, 4.9576244 
6.824188e+2, 1.400204e+2, -1391681.3, -1592502.1, 2626.8547, -0.0023068178, -0.01867263, -1391647.0, 176137.25, 0.0, 5.089258, 4.956864 
6.822479e+2, 1.4497624e+2, -1352152.4, -1544456.5, -2703.104, -0.005313797, -0.010677156, -1352114.4, 167103.33, 0.0, 5.08513, 4.9586616 
6.82074e+2, 1.499323e+2, -1315701.8, -1501912.1, -3108.0474, -0.008205486, -0.013541595, -1315649.9, 154999.06, 0.0, 5.0809236, 4.9586487 
6.819003e+2, 1.5488835e+2, -1279194.1, -1459295.8, -3520.3596, -0.011141211, -0.016431056, -1279125.4, 142954.7, 0.0, 5.0767183, 4.958637 
6.817266e+2, 1.5984444e+2, -1243557.3, -1418742.9, -4547.359, -0.01372386, -0.018488523, -1243439.4, 130071.87, 0.0, 5.072531, 4.9579186 
6.815498e+2, 1.6480073e+2, -1205339.4, -1374005.9, -8312.259, -0.014374853, -0.011255681, -1204930.8, 120010.82, 0.0, 5.0685263, 4.9585385 
6.813711e+2, 1.6975716e+2, -1168277.9, -1330954.9, -8680.349, -0.015181592, -0.009343153, -1167816.0, 108554.89, 0.0, 5.0644555, 4.958541 
6.811925e+2, 1.747136e+2, -1131190.6, -1287881.4, -9059.798, -0.016006133, -0.0073758652, -1130668.5, 97131.766, 0.0, 5.060381, 4.958531 
6.8101394e+2, 1.7967004e+2, -1094832.9, -1246444.1, -9680.95, -0.01685956, -0.005157444, -1094217.3, 85012.29, 0.0, 5.0563097, 4.9579487 
6.808335e+2, 1.8462607e+2, -1056885.5, -1202641.0, -12277.794, -0.01686482, 0.0013469823, -1055858.5, 74803.4, 0.0, 5.0523844, 4.958103 
6.8065184e+2, 1.8958181e+2, -1019095.0, -1158806.4, -12751.467, -0.01661277, -0.0009314917, -1017940.7, 64156.21, 0.0, 5.048439, 4.958223 
6.8047035e+2, 1.9453757e+2, -981423.6, -1115274.6, -13220.132, -0.016387852, -0.0032658183, -980130.4, 53401.496, 0.0, 5.044494, 4.958218 
6.8028885e+2, 1.9949338e+2, -944493.7, -1073375.5, -13741.542, -0.016174613, -0.0047415267, -943044.8, 41921.434, 0.0, 5.0405464, 4.957639 
6.8010646e+2, 2.0444909e+2, -907186.5, -1031074.1, -15351.894, -0.015718361, 0.0041289693, -905312.5, 31089.451, 0.0, 5.0366387, 4.957165 
6.7992336e+2, 2.094045e+2, -869058.7, -986701.3, -15803.192, -0.014813369, 0.0063787526, -866972.75, 20867.738, 0.0, 5.0326967, 4.9573774 
6.797403e+2, 2.1435992e+2, -831185.94, -942899.94, -16229.701, -0.013928248, 0.008613758, -828875.9, 10403.121, 0.0, 5.028749, 4.9573755 
6.795574e+2, 2.193153e+2, -794025.56, -900684.56, -16603.564, -0.013026349, 0.010726917, -791500.6, -782.8745, 0.0, 5.024798, 4.9568067 
6.7937434e+2, 2.2426963e+2, -757241.75, -859411.06, -17098.547, -0.01219465, 0.016776726, -754456.2, -12289.9795, 0.0, 5.0208616, 4.9558787 
6.7919123e+2, 2.2922337e+2, -718701.06, -814232.9, -17604.35, -0.011271161, 0.012903378, -715560.25, -21940.303, 0.0, 5.0169015, 4.956286 
6.790082e+2, 2.3417713e+2, -680673.8, -770176.7, -18035.264, -0.010313527, 0.008922057, -677176.25, -32102.717, 0.0, 5.0129337, 4.956287 
6.788252e+2, 2.391309e+2, -643254.8, -727477.9, -18374.31, -0.009481575, 0.0051820916, -639420.75, -42893.91, 0.0, 5.0089602, 4.955796 
6.78643e+2, 2.4408418e+2, -606646.8, -686270.56, -17621.014, -0.009197954, 0.0120112505, -602921.56, -54937.406, 0.0, 5.0049515, 4.95474 
6.7846143e+2, 2.4903736e+2, -567669.8, -640036.1, -18102.96, -0.009135304, 0.010069056, -563393.9, -63951.797, 0.0, 5.000938, 4.955445 
6.7827994e+2, 2.5399053e+2, -529560.7, -595763.0, -18499.834, -0.009149883, 0.0077355593, -524741.8, -73841.79, 0.0, 4.996923, 4.955447 
6.7809856e+2, 2.589437e+2, -491804.47, -552347.56, -18803.863, -0.00887032, 0.005274735, -486439.63, -84081.51, 0.0, 4.9929113, 4.9551234 
6.7791915e+2, 2.638953e+2, -456622.56, -514221.94, -17033.363, -0.0037266582, 0.011073261, -451962.47, -98131.83, 0.0, 4.988862, 4.952871 
6.777412e+2, 2.6884705e+2, -416172.4, -464709.1, -17520.658, 0.0026276903, 0.00242102, -410508.72, -105207.03, 0.0, 4.984822, 4.9546366 
6.775634e+2, 2.737988e+2, -377876.72, -420136.7, -17906.773, 0.008815511, -0.0072478447, -371309.6, -114537.055, 0.0, 4.980793, 4.954651 
6.773857e+2, 2.7875063e+2, -340045.66, -376496.88, -17740.469, 0.014101903, -0.016142542, -332837.1, -124594.15, 0.0, 4.9767346, 4.95432 
6.7721e+2, 2.837018e+2, -306291.78, -341930.22, -13935.953, 0.0038140097, 0.0021646328, -301489.44, -141765.8, 0.0, 4.9727216, 4.950666 
6.770364e+2, 2.8865474e+2, -264274.3, -289931.84, -14864.014, -0.012016491, 0.020138446, -257468.52, -146279.88, 0.0, 4.9688683, 4.9531426 
6.7686296e+2, 2.9360774e+2, -225215.58, -244745.58, -15760.336, -0.027577437, 0.036399506, -216440.27, -153787.05, 0.0, 4.9650183, 4.9531918 
6.7668986e+2, 2.9856062e+2, -186694.28, -200666.13, -16554.104, -0.04096993, 0.051809732, -175712.4, -161594.39, 0.0, 4.961138, 4.9528284 
6.7652816e+2, 3.0352148e+2, -141141.48, -103556.875, -9142.799, 0.005306896, 0.0191113, -101450.81, -101450.81, 0.0, 4.9564652, 4.9807677 
6.763772e+2, 3.0849457e+2, -149907.73, -99635.445, -7046.949, 0.07770522, -0.0826925, -98666.31, -98666.31, 0.0, 4.951821, 4.9841747 
6.762265e+2, 3.1346795e+2, -162689.72, -105196.77, -5940.5576, 0.14870802, -0.1834227, -104589.37, -104589.37, 0.0, 4.9472, 4.9841566 
6.760468e+2, 3.1848553e+2, -161259.77, -72150.57, -11478.068, -0.06774882, 0.17994884, -70695.836, -70695.836, 0.0, 4.9414783, 4.9985294 
6.880219e+2, 1.2532286e+2, -1486826.0, -1710015.0, 10967.353, 0.018275551, -0.034638938, -1486288.4, 225521.25, 0.0, 5.1063, 4.9578123 
6.878502e+2, 1.302782e+2, -1451888.9, -1668424.3, 10651.411, 0.011473713, -0.029558254, -1451366.1, 211884.31, 0.0, 5.1016526, 4.957792 
6.876785e+2, 1.3523352e+2, -1416885.8, -1626757.5, 10336.911, 0.0048010903, -0.02446083, -1416377.9, 198313.63, 0.0, 5.097008, 4.9577713 
6.87507e+2, 1.4018872e+2, -1382678.0, -1586910.3, 9481.142, -0.0013839361, -0.01981244, -1382238.8, 183894.53, 0.0, 5.092381, 4.957112 
6.873317e+2, 1.451444e+2, -1343708.1, -1539187.5, 4540.4507, -0.0038269053, -0.011626023, -1343602.8, 173965.88, 0.0, 5.0880766, 4.9588847 
6.8715364e+2, 1.5010026e+2, -1307715.5, -1496865.9, 4303.8794, -0.005975685, -0.014346791, -1307617.6, 161384.56, 0.0, 5.083715, 4.958875 
6.869757e+2, 1.5505609e+2, -1271659.5, -1454471.4, 4067.621, -0.008165755, -0.017109068, -1271569.1, 148866.83, 0.0, 5.079356, 4.9588656 
6.8679774e+2, 1.6001195e+2, -1236367.6, -1413894.4, 3164.4849, -0.009993011, -0.01912521, -1236311.3, 135558.3, 0.0, 5.075014, 4.95823 
6.866168e+2, 1.6496809e+2, -1198563.0, -1369338.5, -224.29309, -0.010295249, -0.012257557, -1198562.8, 124738.52, 0.0, 5.0708723, 4.95885 
6.86434e+2, 1.6992429e+2, -1161841.4, -1326476.8, -431.18704, -0.01093498, -0.010730909, -1161840.3, 112892.375, 0.0, 5.0666924, 4.9588437 
6.862512e+2, 1.7488049e+2, -1125057.4, -1283544.1, -638.40625, -0.011586024, -0.009120999, -1125054.8, 101109.21, 0.0, 5.0625157, 4.958837 
6.8606853e+2, 1.7983672e+2, -1089013.5, -1242295.4, -1116.9886, -0.012202346, -0.0071295896, -1089005.4, 88589.74, 0.0, 5.0583463, 4.95824 
6.858841e+2, 1.8479262e+2, -1051484.1, -1198782.0, -3388.0957, -0.011934784, 0.0001986007, -1051406.3, 77623.0, 0.0, 5.0543, 4.958351 
6.8569845e+2, 1.8974815e+2, -1014092.5, -1155251.8, -3688.291, -0.0115192, -0.00093786063, -1013996.2, 66470.625, 0.0, 5.050242, 4.9584227 
6.8551296e+2, 1.9470368e+2, -976739.56, -1111865.9, -3985.0017, -0.011126249, -0.0021617208, -976622.1, 55282.234, 0.0, 5.0461874, 4.9584217 
6.853275e+2, 1.9965927e+2, -940024.6, -1069913.0, -4343.5244, -0.01073522, -0.0027237656, -939879.56, 43461.805, 0.0, 5.042135, 4.95791 
6.85141e+2, 2.0461465e+2, -902946.06, -1027738.3, -5757.293, -0.010289765, 0.0052950815, -902681.06, 32099.16, 0.0, 5.038157, 4.9574246 
6.849539e+2, 2.0956965e+2, -865021.8, -983540.7, -6069.4077, -0.009400272, 0.006596213, -864711.8, 21510.951, 0.0, 5.034163, 4.957604 
6.847669e+2, 2.1452466e+2, -827278.4, -939795.06, -6376.406, -0.008502994, 0.007942766, -826918.2, 10747.024, 0.0, 5.030172, 4.957605 
6.8458e+2, 2.1947964e+2, -790220.1, -897598.56, -6646.4067, -0.0076109115, 0.009317396, -789810.3, -702.42737, 0.0, 5.026182, 4.9570494 
6.84393e+2, 2.2443376e+2, -753571.56, -856301.6, -6979.935, -0.007121775, 0.016162267, -753099.5, -12541.103, 0.0, 5.0221877, 4.956155 
6.8420583e+2, 2.2938727e+2, -715238.4, -811327.2, -7403.601, -0.006650837, 0.013322394, -714671.3, -22656.67, 0.0, 5.018179, 4.9565167 
6.8401873e+2, 2.3434077e+2, -677328.94, -767317.1, -7736.351, -0.0061456794, 0.010289788, -676668.7, -33197.832, 0.0, 5.0141697, 4.9565225 
6.838318e+2, 2.392943e+2, -639980.1, -724602.06, -7946.892, -0.0056779697, 0.0073226923, -639240.3, -44313.41, 0.0, 5.0101633, 4.9560533 
6.8364555e+2, 2.4424729e+2, -603525.44, -683453.44, -7215.7324, -0.005056167, 0.014073772, -602879.25, -56492.082, 0.0, 5.0061, 4.9550056 
6.8345994e+2, 2.4920009e+2, -564847.94, -637448.2, -7672.979, -0.0045751478, 0.012048638, -564045.8, -66197.2, 0.0, 5.0020013, 4.955672 
6.832744e+2, 2.541529e+2, -526971.56, -593264.6, -8060.825, -0.0041861045, 0.009757532, -526005.5, -76695.516, 0.0, 4.997903, 4.955682 
6.830891e+2, 2.5910574e+2, -489456.03, -549975.5, -8302.987, -0.0035725948, 0.0073964116, -488337.56, -87566.19, 0.0, 4.9938126, 4.955349 
6.829055e+2, 2.6405698e+2, -454202.03, -511720.72, -6463.0386, 0.00072661403, 0.012665144, -453484.75, -101237.375, 0.0, 4.9897747, 4.9531403 
6.827235e+2, 2.6900825e+2, -413808.13, -462404.9, -7012.717, 0.0060336795, 0.003049477, -412816.4, -109093.48, 0.0, 4.985748, 4.954836 
6.8254155e+2, 2.7395952e+2, -375610.0, -417898.8, -7508.009, 0.01152793, -0.007920004, -374316.6, -119117.9, 0.0, 4.9816866, 4.9548454 
6.823597e+2, 2.789108e+2, -338013.25, -374625.4, -7424.3413, 0.016306387, -0.018165858, -336565.0, -129890.766, 0.0, 4.9775925, 4.9544077 
6.8217987e+2, 2.838618e+2, -305628.2, -340834.34, -3197.6284, 0.005961101, 0.003366271, -305340.13, -147183.06, 0.0, 4.9731164, 4.950697 
6.820022e+2, 2.888147e+2, -265485.75, -289925.84, -3556.6348, -0.009771799, 0.027726384, -264978.7, -155356.38, 0.0, 4.96864, 4.953064 
6.8182456e+2, 2.9376778e+2, -228163.69, -245594.66, -3905.95, -0.025835548, 0.05204753, -227328.45, -166242.17, 0.0, 4.964184, 4.9530745 
6.816473e+2, 2.9872078e+2, -191026.5, -201712.53, -4247.056, -0.039667632, 0.07594385, -189544.17, -176993.61, 0.0, 4.959727, 4.9528937 
6.814818e+2, 3.036796e+2, -144765.81, -102229.47, 1355.4485, 0.011710526, 0.021448018, -102186.32, -102186.32, 0.0, 4.9549136, 4.981774 
6.813268e+2, 3.0864966e+2, -154017.9, -98413.52, 1162.4971, 0.0922127, -0.116820194, -98389.23, -98389.23, 0.0, 4.9500976, 4.985216 
6.811723e+2, 3.1362003e+2, -167955.75, -104272.734, 296.49985, 0.17452344, -0.2557183, -104271.35, -104271.35, 0.0, 4.945049, 4.985274 
6.8099385e+2, 3.1864032e+2, -162325.78, -63769.688, -11947.169, 0.03288056, 0.119856074, -62342.105, -62342.105, 0.0, 4.939675, 5.0022025 
6.931248e+2, 1.2549661e+2, -1486643.8, -1710585.8, 7553.795, 0.01219134, -0.036399946, -1486389.3, 223715.38, 0.0, 5.1063867, 4.95764 
6.929486e+2, 1.3045181e+2, -1451712.4, -1668996.3, 7240.4097, 0.008074112, -0.030889368, -1451471.4, 210075.72, 0.0, 5.1017375, 4.95762 
6.9277257e+2, 1.35407e+2, -1416715.0, -1627330.8, 6928.471, 0.003930521, -0.025319578, -1416487.4, 196502.33, 0.0, 5.0970907, 4.9576006 
6.925965e+2, 1.4036205e+2, -1382380.4, -1587191.6, 6050.592, -0.00038049647, -0.02027351, -1382201.8, 182231.33, 0.0, 5.09246, 4.957038 
6.9241667e+2, 1.4531772e+2, -1343491.3, -1539552.1, 1336.6564, -0.0023190165, -0.011902928, -1343482.3, 172386.9, 0.0, 5.0881467, 4.9587846 
6.9223446e+2, 1.5027349e+2, -1307499.8, -1497230.6, 1098.4949, -0.0037430322, -0.014494719, -1307493.4, 159810.55, 0.0, 5.0837846, 4.9587755 
6.9205225e+2, 1.5522923e+2, -1271444.8, -1454836.1, 860.6429, -0.005236927, -0.017120294, -1271440.8, 147298.08, 0.0, 5.079425, 4.958766 
6.918699e+2, 1.6018501e+2, -1236052.8, -1414004.8, -108.773315, -0.00641714, -0.018999638, -1236052.6, 134120.81, 0.0, 5.075077, 4.9582176 
6.9168466e+2, 1.6514114e+2, -1198332.6, -1369538.0, -3324.8198, -0.006416862, -0.01244851, -1198268.1, 123337.21, 0.0, 5.070925, 4.95881 
6.914977e+2, 1.7009725e+2, -1161611.4, -1326677.1, -3533.5605, -0.006907754, -0.0113833565, -1161535.8, 111501.45, 0.0, 5.0667453, 4.958803 
6.9131076e+2, 1.7505336e+2, -1124827.8, -1283745.4, -3742.6309, -0.007428525, -0.010233033, -1124739.6, 99729.51, 0.0, 5.062568, 4.958797 
6.9112396e+2, 1.800095e+2, -1088719.6, -1242368.5, -4272.2817, -0.007882381, -0.008536236, -1088601.0, 87299.95, 0.0, 5.0583997, 4.9582434 
6.909354e+2, 1.8496542e+2, -1051441.9, -1199362.9, -6417.7827, -0.007421583, -0.00036788848, -1051163.9, 76171.305, 0.0, 5.0543504, 4.958183 
6.9074565e+2, 1.8992093e+2, -1014033.9, -1155801.1, -6727.799, -0.0068530324, -0.00032595292, -1013715.3, 65058.324, 0.0, 5.0502925, 4.9582653 
6.9055617e+2, 1.9487642e+2, -976680.1, -1112414.5, -7026.691, -0.0063270614, -0.0003663321, -976317.4, 53894.742, 0.0, 5.046238, 4.9582644 
6.903666e+2, 1.9983195e+2, -939861.25, -1070249.9, -7422.0405, -0.0058172224, 0.00002482034, -939440.1, 42209.934, 0.0, 5.042187, 4.9578247 
6.901761e+2, 2.0478716e+2, -902842.56, -1028213.06, -8765.989, -0.005421417, 0.0070521594, -902232.6, 30857.82, 0.0, 5.038211, 4.9572916 
6.8998504e+2, 2.0974188e+2, -864962.94, -984116.25, -9087.965, -0.00461101, 0.0072442344, -864273.75, 20261.828, 0.0, 5.0342174, 4.9574366 
6.8979406e+2, 2.1469663e+2, -827218.1, -940370.8, -9396.914, -0.0038049486, 0.0075012194, -826443.06, 9537.529, 0.0, 5.030226, 4.957437 
6.8960315e+2, 2.1965134e+2, -790128.4, -898105.7, -9659.351, -0.0030578424, 0.007973338, -789271.06, -1845.3657, 0.0, 5.0262365, 4.9569054 
6.894121e+2, 2.2460543e+2, -753481.44, -856839.7, -10053.462, -0.0027457878, 0.015738113, -752512.7, -13636.104, 0.0, 5.022245, 4.9559994 
6.892209e+2, 2.2955887e+2, -715198.7, -811971.7, -10459.381, -0.0025264712, 0.014003143, -714081.1, -23747.387, 0.0, 5.018235, 4.9563246 
6.8902975e+2, 2.345123e+2, -677288.4, -767960.75, -10794.539, -0.0022893483, 0.012078827, -676021.0, -34230.105, 0.0, 5.014226, 4.9563303 
6.888387e+2, 2.3946573e+2, -639939.44, -725251.2, -11001.544, -0.00200904, 0.010059944, -638543.56, -45295.563, 0.0, 5.0102205, 4.955858 
6.8864864e+2, 2.4441847e+2, -603454.4, -684072.9, -10349.234, -0.0009762787, 0.016188769, -602147.0, -57436.57, 0.0, 5.0061607, 4.9548216 
6.884589e+2, 2.4937098e+2, -564858.25, -638252.56, -10825.579, -0.000029434987, 0.013469149, -563294.75, -67119.65, 0.0, 5.0020623, 4.9554234 
6.882694e+2, 2.5432348e+2, -526981.2, -594067.4, -11215.859, 0.0008090825, 0.010519031, -525155.75, -77516.13, 0.0, 4.997964, 4.9554334 
6.880799e+2, 2.59276e+2, -489447.1, -550743.75, -11399.064, 0.0017004918, 0.007573252, -487395.9, -88291.805, 0.0, 4.9938745, 4.9551125 
6.8789226e+2, 2.6422718e+2, -454003.5, -512220.25, -9480.242, 0.004196062, 0.01383859, -452498.6, -101917.86, 0.0, 4.989865, 4.952985 
6.87706e+2, 2.6917836e+2, -413537.78, -463032.2, -9997.445, 0.0070135486, 0.005843728, -411594.66, -109537.76, 0.0, 4.985895, 4.95461 
6.8751985e+2, 2.7412957e+2, -375078.16, -418397.6, -10385.133, 0.009992581, -0.0034644813, -372717.2, -119183.87, 0.0, 4.9819264, 4.9546223 
6.873338e+2, 2.790808e+2, -337117.1, -374717.3, -10239.737, 0.012511582, -0.012174072, -334509.34, -129499.78, 0.0, 4.9779162, 4.9542894 
6.8715006e+2, 2.8403142e+2, -304169.34, -339756.6, -6189.575, 0.006187826, 0.0046398705, -303123.53, -146628.44, 0.0, 4.973455, 4.9509854 
6.8696856e+2, 2.8898385e+2, -264172.6, -289064.22, -6300.181, -0.002892222, 0.021861907, -262668.84, -154704.44, 0.0, 4.968958, 4.953286 
6.8678707e+2, 2.939364e+2, -226958.81, -244787.03, -6319.4326, -0.01245272, 0.03931954, -224946.05, -165513.64, 0.0, 4.964466, 4.9532933 
6.8660593e+2, 2.9888886e+2, -189880.72, -200807.02, -6153.738, -0.020215524, 0.05628637, -187114.98, -176214.38, 0.0, 4.959964, 4.953169 
6.8643475e+2, 3.0384877e+2, -144840.5, -104885.83, -711.71234, 0.017480673, 0.019173376, -104873.16, -104873.16, 0.0, 4.9552875, 4.9807196 
6.862728e+2, 3.0882055e+2, -152942.45, -100694.29, -1218.1863, 0.07356544, -0.08640417, -100665.9, -100665.9, 0.0, 4.950905, 4.9841104 
6.8611133e+2, 3.1379265e+2, -164914.7, -105675.39, -2526.0676, 0.13244574, -0.19249134, -105567.87, -105567.87, 0.0, 4.946549, 4.9841843 
6.859268e+2, 3.1881112e+2, -142427.6, -32268.568, -12910.324, -0.025889305, 0.14740236, -30775.746, -30775.746, 0.0, 4.94222, 5.012737 
6.982275e+2, 1.2567034e+2, -1486725.8, -1711264.1, 4014.2344, 0.0063870675, -0.037916422, -1486654.0, 221745.66, 0.0, 5.1063857, 4.9574733 
6.98047e+2, 1.3062541e+2, -1451635.9, -1669603.0, 3751.0896, 0.0048956103, -0.03204209, -1451571.4, 208272.39, 0.0, 5.1017904, 4.957452 
6.978665e+2, 1.3558048e+2, -1416559.5, -1627904.3, 3483.4612, 0.0032614407, -0.026055189, -1416502.1, 194785.84, 0.0, 5.0971704, 4.957431 
6.9768596e+2, 1.4053541e+2, -1382093.1, -1587487.0, 2617.263, 0.00071590085, -0.020680971, -1382059.8, 180673.06, 0.0, 5.09254, 4.9569607 
6.975017e+2, 1.4549105e+2, -1343293.4, -1539931.6, -1852.8159, -0.0007649766, -0.012143711, -1343275.9, 170893.7, 0.0, 5.0882115, 4.958683 
6.973151e+2, 1.5044671e+2, -1307280.3, -1497599.3, -2106.7288, -0.0014574833, -0.01463715, -1307257.0, 158348.64, 0.0, 5.0838566, 4.9586744 
6.9712865e+2, 1.5540238e+2, -1271226.4, -1455204.8, -2346.1733, -0.0022482765, -0.017156271, -1271196.4, 145845.28, 0.0, 5.0794964, 4.9586654 
6.9694203e+2, 1.6035807e+2, -1235747.3, -1414145.0, -3391.1006, -0.0028058991, -0.018853571, -1235682.9, 132794.56, 0.0, 5.0751424, 4.958196 
6.967525e+2, 1.6531418e+2, -1198097.6, -1369742.4, -6424.7876, -0.002512903, -0.012581556, -1197857.5, 122051.734, 0.0, 5.0709805, 4.958768 
6.9656134e+2, 1.702702e+2, -1161376.9, -1326882.4, -6635.373, -0.002850156, -0.012012114, -1161111.3, 110230.555, 0.0, 5.0668006, 4.9587617 
6.963703e+2, 1.7522623e+2, -1124593.6, -1283951.5, -6846.293, -0.0032358714, -0.011355489, -1124300.0, 98474.305, 0.0, 5.0626235, 4.958755 
6.961793e+2, 1.8018231e+2, -1088493.9, -1242598.4, -7411.1987, -0.0035329477, -0.009911085, -1088138.3, 86068.4, 0.0, 5.058455, 4.9581943 
6.959865e+2, 1.8513824e+2, -1051342.6, -1199840.5, -9461.663, -0.0028897077, -0.0008249245, -1050742.3, 74898.94, 0.0, 5.054404, 4.9580503 
6.9579285e+2, 1.9009371e+2, -1013970.9, -1156355.1, -9766.934, -0.0021674251, 0.00037496106, -1013304.0, 63776.5, 0.0, 5.050346, 4.9581065 
6.9559926e+2, 1.9504917e+2, -976616.3, -1112967.8, -10068.005, -0.001506954, 0.001495622, -975876.9, 52642.953, 0.0, 5.046291, 4.9581056 
6.954057e+2, 2.0000464e+2, -939720.2, -1070647.4, -10481.303, -0.00088132796, 0.0027692995, -938886.4, 41072.355, 0.0, 5.042241, 4.9577193 
6.952112e+2, 2.0495968e+2, -902719.2, -1028662.94, -11789.509, -0.00054291694, 0.008769626, -901625.1, 29775.705, 0.0, 5.038267, 4.957168 
6.95016e+2, 2.099141e+2, -864899.56, -984696.56, -12105.638, 0.0001883087, 0.007823534, -863688.5, 19160.031, 0.0, 5.0342736, 4.9572678 
6.9482106e+2, 2.1486856e+2, -827153.44, -940951.2, -12416.536, 0.0009019784, 0.006958411, -825814.44, 8481.732, 0.0, 5.0302825, 4.957268 
6.9462615e+2, 2.1982303e+2, -790038.8, -898635.2, -12681.229, 0.0014967042, 0.006600792, -788577.6, -2834.0183, 0.0, 5.0262933, 4.956754 
6.9443107e+2, 2.247771e+2, -753392.56, -857392.56, -13116.5, 0.0016390583, 0.015425785, -751763.8, -14569.003, 0.0, 5.0223045, 4.955839 
6.9423586e+2, 2.2973046e+2, -715154.44, -812620.9, -13514.722, 0.0016024146, 0.014767879, -713315.2, -24662.268, 0.0, 5.018294, 4.956131 
6.9404066e+2, 2.3468381e+2, -677243.25, -768609.06, -13852.289, 0.0015686403, 0.013927195, -675189.25, -35078.23, 0.0, 5.0142846, 4.956137 
6.938456e+2, 2.3963714e+2, -639885.5, -725888.9, -14064.783, 0.001664541, 0.012794288, -637643.8, -46074.645, 0.0, 5.01028, 4.9556684 
6.936515e+2, 2.4458966e+2, -603403.4, -684750.25, -13471.692, 0.0031158205, 0.018301317, -601230.44, -58196.44, 0.0, 5.006224, 4.9546175 
6.934578e+2, 2.4954183e+2, -564863.9, -639061.8, -13978.036, 0.0045270096, 0.014869981, -562317.94, -67816.1, 0.0, 5.0021257, 4.9551735 
6.932642e+2, 2.5449404e+2, -526986.2, -594875.0, -14370.75, 0.005814098, 0.0112375375, -524069.5, -78100.01, 0.0, 4.998027, 4.9551845 
6.9307065e+2, 2.5944623e+2, -489433.72, -551514.2, -14447.268, 0.0069345254, 0.007746421, -486236.25, -88799.28, 0.0, 4.9939384, 4.9548755 
6.9287896e+2, 2.6439738e+2, -453871.28, -512779.53, -12563.667, 0.0075664073, 0.015157549, -451303.66, -102389.49, 0.0, 4.9899364, 4.952819 
6.9268847e+2, 2.693485e+2, -413485.53, -463770.53, -13078.009, 0.007876151, 0.0087589165, -410287.6, -109896.66, 0.0, 4.9859657, 4.954381 
6.92498e+2, 2.7429962e+2, -375026.66, -419132.03, -13467.187, 0.008325297, 0.0010864052, -371239.72, -119371.76, 0.0, 4.981996, 4.954395 
6.9230783e+2, 2.792508e+2, -336952.44, -375154.22, -13406.806, 0.008719232, -0.0062809573, -332716.97, -129371.984, 0.0, 4.9779778, 4.9541698 
6.9212025e+2, 2.8420103e+2, -303496.34, -339068.34, -9695.395, 0.0068107676, 0.005205059, -301025.44, -146191.94, 0.0, 4.973516, 4.9512644 
6.919349e+2, 2.8915292e+2, -263563.94, -288536.0, -9817.275, 0.004392985, 0.014772185, -260166.64, -153859.78, 0.0, 4.9690213, 4.9535084 
6.917495e+2, 2.9410496e+2, -226347.56, -244256.58, -9828.229, 0.0014131799, 0.02455103, -222006.31, -164227.27, 0.0, 4.964531, 4.9535165 
6.915645e+2, 2.9905695e+2, -189784.73, -201441.42, -9551.765, -0.00064142677, 0.0352362, -184423.53, -175172.69, 0.0, 4.960023, 4.952981 
6.9138753e+2, 3.0401826e+2, -145786.31, -108087.56, -4179.6694, 0.021164024, 0.018823931, -107629.73, -107629.73, 0.0, 4.955364, 4.979597 
6.912185e+2, 3.0899188e+2, -153894.7, -104159.375, -4554.364, 0.050996345, -0.056432378, -103745.766, -103745.766, 0.0, 4.951018, 4.982883 
6.9105e+2, 3.1396577e+2, -165797.23, -109196.16, -5662.6724, 0.08301778, -0.13206601, -108635.19, -108635.19, 0.0, 4.9466934, 4.9829307 
6.908622e+2, 3.1899396e+2, -148828.84, -49234.188, -11974.638, -0.06818162, 0.33371693, -47814.664, -47814.664, 0.0, 4.942521, 5.006448 
7.0333064e+2, 1.258458e+2, -1484443.4, -1709914.0, 5535.368, 0.0019489593, -0.03688192, -1484307.6, 222372.72, 0.0, 5.1071696, 4.957528 
7.0314556e+2, 1.3080065e+2, -1449786.6, -1668504.0, 5149.1636, 0.0021938947, -0.03158986, -1449665.4, 208461.1, 0.0, 5.1024275, 4.957496 
7.0296055e+2, 1.3575548e+2, -1415089.5, -1627029.8, 4756.4097, 0.0024402428, -0.026095325, -1414982.8, 194590.03, 0.0, 5.097679, 4.957464 
7.027755e+2, 1.4071019e+2, -1380883.4, -1586611.6, 3721.4094, 0.0015191901, -0.021157103, -1380816.1, 180203.73, 0.0, 5.0929284, 4.9570537 
7.0258665e+2, 1.4566572e+2, -1342426.6, -1539330.9, -631.69385, 0.00063293835, -0.012327497, -1342424.5, 170032.94, 0.0, 5.088504, 4.958732 
7.0239574e+2, 1.5062128e+2, -1306744.5, -1497211.5, -979.2583, 0.0008313663, -0.014382843, -1306739.5, 157155.36, 0.0, 5.0840383, 4.9587097 
7.0220494e+2, 1.5557681e+2, -1270990.5, -1455012.9, -1350.0605, 0.0010070311, -0.016402679, -1270980.6, 144351.64, 0.0, 5.079578, 4.9586883 
7.0201397e+2, 1.605324e+2, -1235607.4, -1413874.6, -2549.305, 0.0013567217, -0.017594086, -1235570.9, 131198.4, 0.0, 5.075153, 4.958283 
7.018202e+2, 1.6548836e+2, -1197920.4, -1369570.9, -5549.4644, 0.001983742, -0.011870304, -1197741.1, 120461.266, 0.0, 5.071025, 4.9588056 
7.016249e+2, 1.7044415e+2, -1161080.8, -1326676.6, -5968.037, 0.0018298967, -0.012128192, -1160865.9, 108771.05, 0.0, 5.0668845, 4.958795 
7.0142967e+2, 1.7539996e+2, -1124199.6, -1283720.9, -6385.786, 0.0016285948, -0.012315942, -1123944.5, 97127.016, 0.0, 5.0627403, 4.9587846 
7.012345e+2, 1.8035585e+2, -1088085.1, -1242492.6, -7186.2446, 0.0014989906, -0.011373367, -1087751.5, 84754.08, 0.0, 5.0585976, 4.9581738 
7.0103765e+2, 1.8531172e+2, -1050919.8, -1199770.9, -9309.037, 0.002161135, -0.0013276318, -1050339.9, 73601.13, 0.0, 5.0545583, 4.9580145 
7.008399e+2, 1.9026706e+2, -1013612.3, -1156466.8, -9794.248, 0.0029211354, 0.0010649369, -1012943.94, 62437.867, 0.0, 5.0505056, 4.9580097 
7.006423e+2, 1.9522241e+2, -976265.4, -1113103.1, -10281.801, 0.0036650319, 0.0033902416, -975497.1, 51325.438, 0.0, 5.0464487, 4.958005 
7.004447e+2, 2.0017774e+2, -939300.44, -1070648.6, -10897.794, 0.0043988046, 0.0055191126, -938402.44, 39860.656, 0.0, 5.0423975, 4.9576683 
7.002461e+2, 2.0513253e+2, -902315.56, -1028822.25, -12386.385, 0.0046406034, 0.010490635, -901114.25, 28593.438, 0.0, 5.0384445, 4.957056 
7.00047e+2, 2.1008661e+2, -864479.6, -984920.9, -12942.612, 0.0052582184, 0.008406733, -863104.5, 18054.25, 0.0, 5.0344667, 4.9571295 
6.99848e+2, 2.1504071e+2, -826709.56, -941179.4, -13489.413, 0.005861875, 0.0063950308, -825141.4, 7468.228, 0.0, 5.0304832, 4.957128 
6.996491e+2, 2.1999489e+2, -789553.6, -898789.8, -13993.732, 0.0062983744, 0.0052611525, -787789.5, -3729.522, 0.0, 5.0264926, 4.956643 
6.9945e+2, 2.249489e+2, -752943.4, -857629.9, -14605.968, 0.0062774164, 0.015180128, -750943.75, -15431.98, 0.0, 5.0224996, 4.9557037 
6.9925076e+2, 2.2990213e+2, -714765.5, -812959.06, -15207.579, 0.0059777494, 0.015527673, -712464.2, -25493.037, 0.0, 5.018477, 4.9559693 
6.990515e+2, 2.3485538e+2, -676907.0, -768993.1, -15735.176, 0.00566442, 0.015718248, -674292.5, -35862.01, 0.0, 5.0144486, 4.9559712 
6.988525e+2, 2.3980857e+2, -639603.4, -726289.5, -16092.034, 0.005553066, 0.015409527, -636712.56, -46822.438, 0.0, 5.010419, 4.95551 
6.9865435e+2, 2.4476084e+2, -603205.8, -685322.94, -15834.192, 0.0073369765, 0.020356938, -600258.4, -58900.953, 0.0, 5.006352, 4.95441 
6.984565e+2, 2.4971269e+2, -564760.56, -639746.6, -16505.404, 0.009144234, 0.01623931, -561288.3, -68459.74, 0.0, 5.0022306, 4.9549394 
6.982589e+2, 2.5466457e+2, -526984.0, -595621.06, -17081.912, 0.010852007, 0.011928427, -522967.75, -78668.266, 0.0, 4.998095, 4.9549475 
6.9806135e+2, 2.5961646e+2, -489562.16, -552336.56, -17262.465, 0.012155569, 0.00795477, -485128.28, -89358.33, 0.0, 4.9939594, 4.954635 
6.9786555e+2, 2.6456752e+2, -453898.34, -513372.78, -15448.318, 0.010848151, 0.016640017, -450125.06, -102877.4, 0.0, 4.9899516, 4.9526625 
6.9767076e+2, 2.695186e+2, -413563.84, -464547.0, -16045.173, 0.008630357, 0.011798693, -408934.53, -110209.46, 0.0, 4.985992, 4.954157 
6.974762e+2, 2.744697e+2, -375046.94, -419882.2, -16441.43, 0.006528594, 0.005724533, -369664.03, -119461.29, 0.0, 4.9820414, 4.954171 
6.972817e+2, 2.7942073e+2, -336846.5, -375592.66, -16500.58, 0.005002999, -0.0005304025, -330771.88, -129091.21, 0.0, 4.9780173, 4.9540586 
6.970904e+2, 2.8437057e+2, -302897.84, -338425.3, -13130.453, 0.007893519, 0.0050499006, -298571.78, -145399.2, 0.0, 4.9735565, 4.9515357 
6.9690114e+2, 2.8932193e+2, -263027.63, -288033.66, -13273.293, 0.012123497, 0.0066561517, -257295.9, -152645.86, 0.0, 4.9690604, 4.953732 
6.9671196e+2, 2.942734e+2, -225820.52, -243759.38, -13287.838, 0.015708128, 0.008457179, -218758.19, -162631.75, 0.0, 4.9645667, 4.95374 
6.96523e+2, 2.9922503e+2, -190301.03, -203294.83, -12981.869, 0.018719288, 0.014981301, -182281.1, -174679.89, 0.0, 4.9600487, 4.952374 
6.9633996e+2, 3.0418783e+2, -146887.3, -111417.0, -7525.1104, 0.023106808, 0.020501308, -109886.56, -109886.56, 0.0, 4.9554048, 4.978433 
6.96164e+2, 3.0916327e+2, -154983.38, -107677.36, -7819.887, 0.02683922, -0.02948368, -106418.21, -106418.21, 0.0, 4.9510875, 4.981645 
6.959885e+2, 3.1413886e+2, -166834.97, -112779.57, -8733.22, 0.03215211, -0.079730295, -111403.66, -111403.66, 0.0, 4.9467883, 4.9816666 
6.9580585e+2, 3.1915593e+2, -144172.66, -40517.277, -10079.893, -0.02768521, 0.2985712, -39546.164, -39546.164, 0.0, 4.9427366, 5.009554 
7.084356e+2, 1.2603381e+2, -1474512.3, -1703420.1, 11931.782, -0.0027745967, -0.034491517, -1473892.0, 230947.39, 0.0, 5.1105595, 4.957917 
7.082459e+2, 1.3098846e+2, -1440501.0, -1662328.1, 11737.171, -0.0007179461, -0.03024599, -1439881.8, 216405.47, 0.0, 5.105597, 4.95789 
7.080562e+2, 1.3594308e+2, -1406420.8, -1621155.6, 11543.051, 0.0012923215, -0.025784783, -1405802.0, 201933.16, 0.0, 5.1006384, 4.957863 
7.078663e+2, 1.4089762e+2, -1372714.4, -1580836.6, 10688.991, 0.0019222276, -0.021830978, -1372166.9, 187017.02, 0.0, 5.095688, 4.957516 
7.076729e+2, 1.458531e+2, -1334782.1, -1533925.9, 6838.3345, 0.0015685624, -0.012818899, -1334547.5, 176074.33, 0.0, 5.091114, 4.959141 
7.074776e+2, 1.5080859e+2, -1299407.3, -1491938.9, 6684.9634, 0.0025031464, -0.014407769, -1299175.4, 162884.4, 0.0, 5.086545, 4.9591255 
7.072824e+2, 1.5576407e+2, -1263966.1, -1449876.6, 6533.557, 0.0034129617, -0.015930004, -1263736.9, 149761.02, 0.0, 5.0819793, 4.9591107 
7.07087e+2, 1.6071959e+2, -1228801.0, -1408654.0, 5562.662, 0.0044728, -0.016629245, -1228629.1, 136306.3, 0.0, 5.077447, 4.9587827 
7.068889e+2, 1.6567542e+2, -1191631.8, -1364882.3, 3019.707, 0.0055691316, -0.011197859, -1191579.1, 124790.64, 0.0, 5.0732117, 4.959173 
7.066895e+2, 1.7063099e+2, -1155028.4, -1322091.6, 2797.1748, 0.005757389, -0.011804758, -1154981.6, 112825.09, 0.0, 5.0689917, 4.9591675 
7.064901e+2, 1.7558657e+2, -1118362.8, -1279229.3, 2573.7256, 0.005898046, -0.012395246, -1118321.6, 100921.94, 0.0, 5.0647745, 4.9591618 
7.062908e+2, 1.805422e+2, -1082348.9, -1237886.6, 1935.0355, 0.006027835, -0.011760805, -1082324.9, 88355.04, 0.0, 5.060567, 4.958622 
7.0608974e+2, 1.8549791e+2, -1045494.56, -1195574.1, 182.84233, 0.0065412335, -0.0015777388, -1045494.3, 76622.6, 0.0, 5.056484, 4.958342 
7.058879e+2, 1.9045301e+2, -1008268.8, -1152301.6, -83.70204, 0.007185375, 0.0011883763, -1008268.75, 65291.29, 0.0, 5.0524063, 4.95834 
7.056862e+2, 1.954081e+2, -970981.4, -1108959.5, -351.40256, 0.00784605, 0.003950279, -970980.5, 54022.66, 0.0, 5.048332, 4.9583387 
7.0548457e+2, 2.0036317e+2, -934007.5, -1066414.4, -761.2947, 0.008565948, 0.0063026254, -934003.1, 42443.14, 0.0, 5.04427, 4.95804 
7.05282e+2, 2.053176e+2, -897344.94, -1025090.56, -1978.0963, 0.008806271, 0.011139617, -897314.3, 30580.027, 0.0, 5.040286, 4.957269 
7.0507884e+2, 2.1027122e+2, -859557.0, -981221.0, -2387.8284, 0.009321513, 0.008860828, -859510.1, 19839.963, 0.0, 5.0362973, 4.9573393 
7.048758e+2, 2.1522486e+2, -821797.4, -937474.44, -2788.1367, 0.009840254, 0.006607698, -821730.25, 9075.437, 0.0, 5.032311, 4.957343 
7.04673e+2, 2.2017857e+2, -784531.1, -894846.44, -3140.0378, 0.010210649, 0.005211852, -784441.8, -2181.3203, 0.0, 5.0283246, 4.95694 
7.0446986e+2, 2.2513223e+2, -747984.1, -853736.44, -3633.8418, 0.010261054, 0.014963811, -747859.44, -14143.772, 0.0, 5.0243177, 4.9559903 
7.0426655e+2, 2.3008505e+2, -709930.2, -809231.56, -4113.8564, 0.0100891115, 0.015426267, -709760.06, -24581.023, 0.0, 5.0202746, 4.956212 
7.040633e+2, 2.3503788e+2, -672113.94, -765293.06, -4529.6436, 0.009903597, 0.015809635, -671894.25, -35251.86, 0.0, 5.016233, 4.9562144 
7.038602e+2, 2.3999065e+2, -634814.94, -722577.56, -4741.5864, 0.009862054, 0.01572671, -634559.5, -46453.46, 0.0, 5.012199, 4.9557633 
7.0365804e+2, 2.4494247e+2, -598369.5, -681611.6, -4378.255, 0.011145706, 0.020507457, -598139.9, -58562.31, 0.0, 5.008158, 4.954652 
7.0345604e+2, 2.4989381e+2, -559882.4, -636128.94, -4953.1313, 0.012373483, 0.016141819, -559561.94, -68508.11, 0.0, 5.004074, 4.955137 
7.032542e+2, 2.5484514e+2, -521968.0, -591948.7, -5414.3354, 0.013648414, 0.011585016, -521551.56, -79021.6, 0.0, 4.999989, 4.9551454 
7.0305246e+2, 2.5979653e+2, -484439.03, -548595.75, -5433.103, 0.014638014, 0.00747562, -483982.16, -89976.57, 0.0, 4.995887, 4.9548483 
7.0285255e+2, 2.6474732e+2, -449647.1, -509985.0, -3746.666, 0.012883421, 0.017615428, -449415.34, -103928.93, 0.0, 4.991557, 4.9529033 
7.026536e+2, 2.6969808e+2, -410609.78, -461884.72, -4564.722, 0.010039147, 0.014596979, -410206.6, -113239.45, 0.0, 4.987161, 4.9543443 
7.024546e+2, 2.7464885e+2, -373345.78, -417807.94, -5230.215, 0.0070856176, 0.010401708, -372738.8, -124290.836, 0.0, 4.982766, 4.9543543 
7.0225596e+2, 2.7959955e+2, -335951.84, -373681.78, -5505.9277, 0.0048393267, 0.005378575, -335164.78, -135235.36, 0.0, 4.978412, 4.954335 
7.020605e+2, 2.8454858e+2, -300980.16, -335495.94, -2752.958, 0.009717386, 0.0050889556, -300761.94, -149333.95, 0.0, 4.974199, 4.952074 
7.018672e+2, 2.8949907e+2, -260290.7, -284875.4, -3455.643, 0.017284455, -0.0009289086, -259814.2, -156901.19, 0.0, 4.970016, 4.954222 
7.0167404e+2, 2.9444972e+2, -222392.39, -240288.55, -3995.5835, 0.024983112, -0.0067913015, -221540.83, -167144.16, 0.0, 4.965764, 4.9542427 
7.01481e+2, 2.994007e+2, -187590.28, -201679.89, -4063.033, 0.031338766, -0.0039858455, -186502.6, -180625.73, 0.0, 4.9612885, 4.952201 
7.01292e+2, 3.043648e+2, -147669.36, -112340.29, 676.2879, 0.023278449, 0.022742577, -112327.34, -112327.34, 0.0, 4.9555883, 4.9778223 
7.0110923e+2, 3.0934182e+2, -159831.97, -110615.68, -102.93244, 0.009479017, -0.0023800358, -110615.46, -110615.46, 0.0, 4.9498563, 4.9809313 
7.0092696e+2, 3.1431907e+2, -175937.72, -117610.984, -1322.9991, -0.0032701953, -0.027975887, -117580.99, -117580.99, 0.0, 4.9440503, 4.9809346 
7.00758e+2, 3.192865e+2, -116963.734, 44549.777, -1962.8748, 0.119760096, -0.20673905, 44573.63, 44573.63, 0.0, 4.938625, 5.0425763 
7.1354216e+2, 1.2622672e+2, -1474042.1, -1703406.0, 8310.854, -0.0073494674, -0.031241365, -1473741.4, 229209.02, 0.0, 5.11064, 4.9579463 
7.133476e+2, 1.3118127e+2, -1440034.4, -1662314.8, 8115.7354, -0.003434414, -0.028078618, -1439738.4, 214660.39, 0.0, 5.105676, 4.9579196 
7.131532e+2, 1.3613582e+2, -1405957.4, -1621143.1, 7921.1064, 0.00035567067, -0.024690477, -1405666.3, 200181.1, 0.0, 5.100716, 4.957893 
7.129585e+2, 1.4109027e+2, -1372174.3, -1580661.5, 7040.4897, 0.0024420377, -0.021684121, -1371936.8, 185359.58, 0.0, 5.095766, 4.9576006 
7.127603e+2, 1.4604586e+2, -1334361.8, -1533894.1, 3485.5183, 0.0024990411, -0.012436368, -1334300.9, 174432.5, 0.0, 5.0911813, 4.959179 
7.125605e+2, 1.5100145e+2, -1298992.1, -1491906.0, 3330.9238, 0.00416003, -0.0136026675, -1298934.6, 161235.86, 0.0, 5.08661, 4.959165 
7.123608e+2, 1.55957e+2, -1263556.4, -1449842.5, 3178.289, 0.005765938, -0.014689105, -1263502.1, 148105.61, 0.0, 5.082042, 4.9591517 
7.121608e+2, 1.6091262e+2, -1228309.6, -1408426.8, 2201.2405, 0.007444384, -0.014984319, -1228282.6, 134761.73, 0.0, 5.0775084, 4.958888 
7.1195847e+2, 1.6586848e+2, -1191377.9, -1365084.8, -105.00179, 0.009000351, -0.009874469, -1191377.8, 123100.77, 0.0, 5.0732665, 4.959134 
7.117548e+2, 1.7082398e+2, -1154773.8, -1322295.3, -329.81393, 0.00950195, -0.010789063, -1154773.1, 111143.01, 0.0, 5.0690465, 4.9591284 
7.115513e+2, 1.7577946e+2, -1118107.5, -1279433.9, -555.54474, 0.009930852, -0.011687266, -1118105.6, 99248.17, 0.0, 5.0648293, 4.959122 
7.1134776e+2, 1.8073508e+2, -1082001.3, -1237891.9, -1243.9171, 0.010206073, -0.011167348, -1081991.4, 86799.28, 0.0, 5.0606213, 4.958651 
7.1114254e+2, 1.8569076e+2, -1045345.1, -1195960.1, -2864.86, 0.010509208, -0.000942649, -1045290.7, 74936.945, 0.0, 5.056534, 4.958243 
7.109366e+2, 1.9064578e+2, -1008117.9, -1152689.0, -3132.968, 0.011009965, 0.001960317, -1008050.0, 63621.453, 0.0, 5.052457, 4.9582405 
7.1073085e+2, 1.9560078e+2, -970828.94, -1109348.0, -3402.2366, 0.011510055, 0.004858109, -970745.44, 52369.902, 0.0, 5.0483828, 4.9582386 
7.105251e+2, 2.0055574e+2, -933854.2, -1066818.9, -3818.1833, 0.012089409, 0.0071550687, -933744.6, 40814.805, 0.0, 5.044323, 4.9579344 
7.1031845e+2, 2.0551002e+2, -897363.44, -1025872.75, -4997.159, 0.012327353, 0.012140446, -897169.4, 28839.582, 0.0, 5.0403404, 4.9570336 
7.101113e+2, 2.1046337e+2, -859616.3, -982088.2, -5395.614, 0.012695599, 0.009850138, -859379.06, 18088.455, 0.0, 5.0363507, 4.957074 
7.099044e+2, 2.1541674e+2, -821855.1, -938339.44, -5797.76, 0.013052628, 0.007598506, -821567.25, 7358.6035, 0.0, 5.0323644, 4.957079 
7.096974e+2, 2.2037022e+2, -784424.75, -895353.1, -6136.973, 0.0132740885, 0.006103982, -784086.25, -3703.0903, 0.0, 5.0283785, 4.9567986 
7.094903e+2, 2.2532363e+2, -748012.06, -854592.5, -6735.602, 0.013397665, 0.015207186, -747588.06, -15747.625, 0.0, 5.0243773, 4.9557285 
7.0928293e+2, 2.3027615e+2, -709971.7, -810110.8, -7184.634, 0.0134307835, 0.015402514, -709458.9, -26152.33, 0.0, 5.0203333, 4.9559417 
7.090757e+2, 2.3522869e+2, -672153.06, -766171.1, -7602.51, 0.013440106, 0.015544318, -671542.3, -36769.746, 0.0, 5.0162916, 4.9559445 
7.088686e+2, 2.4018116e+2, -634812.1, -723376.0, -7792.483, 0.013449454, 0.0153111825, -634131.7, -47892.89, 0.0, 5.0122595, 4.9555197 
7.086623e+2, 2.4513274e+2, -598393.7, -682506.44, -7480.2637, 0.013912726, 0.019873956, -597733.6, -60020.926, 0.0, 5.0082226, 4.9543734 
7.0845616e+2, 2.5008374e+2, -559956.4, -637143.94, -8080.753, 0.014108182, 0.015194984, -559119.5, -69927.15, 0.0, 5.0041394, 4.9548163 
7.082501e+2, 2.5503474e+2, -522039.75, -592961.2, -8544.029, 0.014334997, 0.010338022, -521024.97, -80353.07, 0.0, 5.0000544, 4.9548254 
7.0804423e+2, 2.5998577e+2, -484450.72, -549472.3, -8537.985, 0.014454419, 0.0060288906, -483348.28, -91197.47, 0.0, 4.9959517, 4.954575 
7.0784014e+2, 2.6493642e+2, -449534.3, -510899.22, -7017.783, 0.013298368, 0.01755565, -448742.0, -105108.95, 0.0, 4.9916787, 4.952594 
7.0763695e+2, 2.6988706e+2, -410341.56, -462771.94, -7689.9927, 0.011417344, 0.016261786, -409236.94, -114121.33, 0.0, 4.9873476, 4.9540143 
7.0743376e+2, 2.748376e+2, -372899.13, -418601.56, -8178.606, 0.009413051, 0.013852994, -371479.63, -124881.266, 0.0, 4.983015, 4.9540277 
7.072309e+2, 2.797881e+2, -335320.97, -374247.56, -8124.533, 0.007920605, 0.009971243, -333693.34, -135611.25, 0.0, 4.978701, 4.954068 
7.070313e+2, 2.8473642e+2, -300109.34, -335846.44, -5237.181, 0.0113231, 0.004820944, -299357.66, -149770.69, 0.0, 4.9745502, 4.951855 
7.0683366e+2, 2.8968596e+2, -259165.48, -285224.13, -5856.2417, 0.016782485, -0.007111752, -257909.89, -156830.1, 0.0, 4.9704804, 4.9539537 
7.066362e+2, 2.9463568e+2, -220746.81, -240394.77, -6324.775, 0.02245391, -0.018854517, -218886.9, -166315.61, 0.0, 4.9664125, 4.953979 
7.0643866e+2, 2.9958588e+2, -185121.66, -200839.92, -6793.8022, 0.026990555, -0.02180554, -182592.25, -178533.72, 0.0, 4.9621177, 4.952195 
7.062443e+2, 3.0455086e+2, -146716.8, -114063.09, -3031.0637, 0.019629056, 0.022331512, -113784.12, -113784.12, 0.0, 4.9562345, 4.976984 
7.0605564e+2, 3.0952916e+2, -159504.44, -112725.77, -3641.5244, 0.0068323296, 0.026268424, -112443.99, -112443.99, 0.0, 4.9502997, 4.9800415 
7.0586735e+2, 3.1450775e+2, -175891.61, -119855.87, -4753.412, -0.0053769005, 0.030813158, -119455.5, -119455.5, 0.0, 4.944391, 4.9800434 
7.056949e+2, 3.194733e+2, -118440.95, 42290.953, -5776.004, 0.13747142, -0.17824401, 42498.25, 42498.25, 0.0, 4.9383025, 5.041998 
7.186487e+2, 1.2641963e+2, -1473849.9, -1703538.9, 4688.5527, -0.011500935, -0.02795441, -1473754.1, 227307.31, 0.0, 5.110631, 4.9579716 
7.184493e+2, 1.3137412e+2, -1439698.4, -1662372.3, 4465.1724, -0.0058659967, -0.025849868, -1439608.9, 212901.45, 0.0, 5.105715, 4.9579473 
7.1825004e+2, 1.3632856e+2, -1405551.8, -1621163.0, 4264.787, -0.00034999262, -0.023549968, -1405467.5, 198491.92, 0.0, 5.100777, 4.9579225 
7.180505e+2, 1.4128296e+2, -1371685.0, -1580538.5, 3359.3716, 0.00310586, -0.021426525, -1371631.0, 183777.73, 0.0, 5.0958343, 4.9576745 
7.178476e+2, 1.4623867e+2, -1333986.3, -1533885.9, 116.99209, 0.0034906983, -0.011888502, -1333986.3, 172858.42, 0.0, 5.0912337, 4.959217 
7.1764326e+2, 1.511943e+2, -1298635.6, -1491905.9, -9.635846, 0.005877423, -0.012686958, -1298635.6, 159645.33, 0.0, 5.0866556, 4.959204 
7.174391e+2, 1.5614995e+2, -1263142.4, -1449813.0, -178.3907, 0.008177504, -0.013383959, -1263142.1, 146575.3, 0.0, 5.082108, 4.9591913 
7.172346e+2, 1.6110565e+2, -1227831.4, -1408242.4, -1156.777, 0.010448778, -0.013332762, -1227824.0, 133329.28, 0.0, 5.077573, 4.958979 
7.1702796e+2, 1.660615e+2, -1191119.4, -1365291.9, -3228.7085, 0.012475643, -0.008560745, -1191059.5, 121527.85, 0.0, 5.0733237, 4.959094 
7.168201e+2, 1.7101693e+2, -1154514.6, -1322503.5, -3455.7983, 0.013292483, -0.009803259, -1154443.5, 109582.14, 0.0, 5.0691037, 4.959088 
7.166124e+2, 1.7597237e+2, -1117847.6, -1279643.4, -3683.8083, 0.01401152, -0.011029339, -1117763.8, 97700.22, 0.0, 5.064887, 4.9590816 
7.164047e+2, 1.8092793e+2, -1081663.3, -1237932.3, -4424.2495, 0.014393502, -0.010538394, -1081538.1, 85363.21, 0.0, 5.0606785, 4.958669 
7.1619517e+2, 1.8588364e+2, -1045191.2, -1196351.0, -5911.1987, 0.014481383, -0.00024508755, -1044960.4, 73377.86, 0.0, 5.0565863, 4.9581423 
7.159852e+2, 1.9083855e+2, -1007962.44, -1153081.1, -6180.8677, 0.014844165, 0.0027543826, -1007699.6, 62083.223, 0.0, 5.0525093, 4.95814 
7.157753e+2, 1.9579348e+2, -970671.94, -1109741.5, -6451.7026, 0.015189061, 0.0057478393, -970373.25, 50854.2, 0.0, 5.0484357, 4.958137 
7.155655e+2, 2.0074831e+2, -933744.06, -1067333.5, -6871.4, 0.0156278, 0.008016108, -933391.56, 39281.105, 0.0, 5.0443788, 4.9577913 
7.153548e+2, 2.0570244e+2, -897354.5, -1026607.94, -8014.37, 0.015855242, 0.0132063115, -896859.5, 27264.27, 0.0, 5.0403967, 4.9568152 
7.151437e+2, 2.1065554e+2, -859671.3, -982959.9, -8403.157, 0.016065158, 0.01087133, -859101.2, 16483.865, 0.0, 5.0364065, 4.9568086 
7.149327e+2, 2.1560863e+2, -821908.5, -939209.0, -8807.139, 0.016250122, 0.00858669, -821250.9, 5795.2607, 0.0, 5.03242, 4.956814 
7.147218e+2, 2.2056185e+2, -784347.0, -895952.4, -9174.219, 0.016343044, 0.0069549074, -783597.9, -5091.8706, 0.0, 5.0284357, 4.9566255 
7.145107e+2, 2.2551502e+2, -748014.4, -855393.6, -9794.887, 0.016574075, 0.015457555, -747128.2, -17162.85, 0.0, 5.0244374, 4.9554863 
7.1429926e+2, 2.3046726e+2, -710008.56, -810994.8, -10254.574, 0.016811145, 0.015358735, -708977.8, -27543.66, 0.0, 5.0203943, 4.955671 
7.14088e+2, 2.3541948e+2, -672187.6, -767054.0, -10674.538, 0.017011587, 0.01522607, -671001.3, -38098.47, 0.0, 5.0163527, 4.955673 
7.1387696e+2, 2.4037169e+2, -634808.9, -724181.6, -10812.791, 0.017013613, 0.014874675, -633519.25, -49147.566, 0.0, 5.0123215, 4.9552746 
7.136665e+2, 2.4532302e+2, -598422.3, -683434.06, -10609.025, 0.016609127, 0.019256128, -597118.4, -61270.37, 0.0, 5.0082903, 4.954084 
7.1345615e+2, 2.5027364e+2, -560025.75, -638163.75, -11208.135, 0.015767148, 0.014228781, -558449.8, -71118.75, 0.0, 5.0042067, 4.9544945 
7.132459e+2, 2.5522432e+2, -522106.78, -593978.5, -11673.482, 0.014942223, 0.009035085, -520258.3, -81444.31, 0.0, 5.000122, 4.954504 
7.130359e+2, 2.6017502e+2, -484522.22, -550494.75, -11680.127, 0.014282799, 0.004631226, -482515.34, -92219.2, 0.0, 4.9960175, 4.9542527 
7.128277e+2, 2.6512554e+2, -449529.1, -511800.3, -10345.032, 0.013813716, 0.017741608, -447855.47, -106075.77, 0.0, 4.991749, 4.952314 
7.1262026e+2, 2.70076e+2, -410401.22, -463825.53, -11041.457, 0.012879213, 0.01812014, -408209.16, -114945.086, 0.0, 4.9874177, 4.9536805 
7.1241283e+2, 2.7502644e+2, -372958.28, -419650.4, -11531.644, 0.011798737, 0.01742688, -370265.6, -125516.96, 0.0, 4.9830847, 4.9536953 
7.1220577e+2, 2.799767e+2, -335333.44, -375189.03, -11302.135, 0.010982803, 0.014380693, -332351.5, -136116.7, 0.0, 4.978771, 4.953772 
7.1200204e+2, 2.849242e+2, -300034.06, -336655.34, -8415.406, 0.012798081, 0.0037585392, -298192.8, -150446.45, 0.0, 4.9746294, 4.9516 
7.1180004e+2, 2.8987285e+2, -259118.7, -286114.94, -9040.711, 0.01602355, -0.014440156, -256370.8, -157124.0, 0.0, 4.970562, 4.953668 
7.115983e+2, 2.9482165e+2, -220695.81, -241280.45, -9494.141, 0.01936665, -0.032391008, -216985.61, -166239.72, 0.0, 4.966495, 4.9536943 
7.113963e+2, 2.997712e+2, -185453.1, -202459.25, -10589.989, 0.021733055, -0.03853481, -180374.94, -178135.77, 0.0, 4.9621696, 4.951664 
7.111964e+2, 3.047371e+2, -147452.19, -116553.12, -7754.307, 0.01551252, 0.023419578, -114716.31, -114716.31, 0.0, 4.956264, 4.9761434 
7.110019e+2, 3.0971655e+2, -160304.14, -115419.87, -8141.092, 0.0040778066, 0.049810007, -113988.86, -113988.86, 0.0, 4.950336, 4.979126 
7.108077e+2, 3.1469628e+2, -176695.23, -122589.25, -9002.174, -0.0076187747, 0.07759034, -121130.77, -121130.77, 0.0, 4.94443, 4.979115 
7.106278e+2, 3.196745e+2, -138276.34, -3892.2256, -6778.9683, 0.11312914, 0.046217036, -3551.1282, -3551.1282, 0.0, 4.938353, 5.0249066 
7.237552e+2, 1.266146e+2, -1473095.9, -1702693.5, 6547.041, -0.013518065, -0.024775641, -1472909.3, 226244.08, 0.0, 5.110825, 4.9581523 
7.2355103e+2, 1.3156888e+2, -1438852.9, -1661487.5, 6197.8145, -0.007143726, -0.023319965, -1438680.5, 211923.31, 0.0, 5.1059375, 4.958129 
7.23347e+2, 1.3652316e+2, -1404570.3, -1620216.0, 5833.3022, -0.0006474871, -0.021774933, -1404412.6, 197641.73, 0.0, 5.1010437, 4.958105 
7.2314245e+2, 1.4147742e+2, -1370492.0, -1579335.8, 4756.785, 0.0036126706, -0.020235196, -1370383.8, 183121.02, 0.0, 5.096139, 4.9579244 
7.229349e+2, 1.464331e+2, -1332748.8, -1532746.1, 1652.7653, 0.00419918, -0.010703473, -1332735.0, 172205.42, 0.0, 5.091574, 4.9594274 
7.22726e+2, 1.513887e+2, -1297287.4, -1490712.8, 1333.956, 0.007325432, -0.011608045, -1297278.1, 159098.9, 0.0, 5.0870323, 4.959416 
7.225173e+2, 1.563443e+2, -1261881.1, -1448664.6, 1066.9723, 0.010403271, -0.012514224, -1261875.0, 145938.73, 0.0, 5.0824523, 4.959404 
7.223083e+2, 1.6129996e+2, -1226545.5, -1407149.6, -44.40317, 0.013358437, -0.012631942, -1226545.5, 132704.42, 0.0, 5.077927, 4.959177 
7.220973e+2, 1.6625576e+2, -1190069.3, -1364659.1, -2083.5654, 0.015727935, -0.0075682476, -1190044.4, 120640.32, 0.0, 5.0736685, 4.9591436 
7.2188526e+2, 1.7121106e+2, -1153493.3, -1321909.9, -2526.6653, 0.01677847, -0.008468314, -1153455.4, 108669.01, 0.0, 5.069439, 4.9591327 
7.216734e+2, 1.7616636e+2, -1116875.3, -1279098.6, -2970.7698, 0.017813232, -0.009432262, -1116820.9, 96743.14, 0.0, 5.0652056, 4.9591217 
7.2146136e+2, 1.8112178e+2, -1080607.6, -1237247.5, -3944.689, 0.018386377, -0.008722212, -1080508.4, 84494.21, 0.0, 5.0609984, 4.9587603 
7.2124773e+2, 1.860773e+2, -1044135.1, -1195950.3, -5501.282, 0.018389534, 0.001016882, -1043936.06, 72505.086, 0.0, 5.056964, 4.958112 
7.210337e+2, 1.9103196e+2, -1006750.6, -1152634.6, -6000.785, 0.0187403, 0.003537273, -1006504.2, 61383.742, 0.0, 5.0529413, 4.958104 
7.208198e+2, 1.9598666e+2, -969345.56, -1109268.5, -6501.5513, 0.019063057, 0.006157087, -969044.1, 50290.48, 0.0, 5.048908, 4.958096 
7.206059e+2, 2.0094128e+2, -932335.94, -1066837.1, -7138.057, 0.019410146, 0.008227532, -931958.2, 38823.598, 0.0, 5.044877, 4.957751 
7.203911e+2, 2.0589523e+2, -896108.5, -1026534.2, -8388.622, 0.019478401, 0.013884219, -895571.2, 26663.656, 0.0, 5.040907, 4.956628 
7.2017604e+2, 2.10848e+2, -858424.7, -982920.44, -8957.601, 0.019426119, 0.011664702, -857783.44, 15915.797, 0.0, 5.0369177, 4.956613 
7.19961e+2, 2.1580079e+2, -820698.75, -939219.4, -9548.236, 0.019380119, 0.0094359275, -819934.44, 5229.105, 0.0, 5.032919, 4.9566107 
7.197461e+2, 2.2075371e+2, -783079.1, -895763.75, -10151.06, 0.019366715, 0.0077146287, -782172.0, -5545.605, 0.0, 5.028913, 4.9565053 
7.1953094e+2, 2.257066e+2, -746957.7, -855577.8, -11022.425, 0.019745667, 0.015730787, -745850.44, -17762.016, 0.0, 5.024891, 4.955252 
7.1931547e+2, 2.3065847e+2, -709053.25, -811259.25, -11746.392, 0.02019965, 0.015363011, -707720.6, -28160.176, 0.0, 5.020813, 4.9554286 
7.1910024e+2, 2.3561037e+2, -671355.1, -767393.0, -12408.658, 0.020613454, 0.014967071, -669777.75, -38745.438, 0.0, 5.016727, 4.9554286 
7.188851e+2, 2.4056226e+2, -634085.56, -724496.1, -12691.825, 0.020575278, 0.014546058, -632337.6, -49833.625, 0.0, 5.0126386, 4.9550667 
7.186706e+2, 2.455133e+2, -597958.44, -684070.8, -12871.495, 0.019293483, 0.018736316, -596075.7, -62092.613, 0.0, 5.0085454, 4.9537983 
7.1845603e+2, 2.5046358e+2, -559786.56, -638954.5, -13663.671, 0.01743025, 0.013297741, -557494.7, -72024.94, 0.0, 5.0043874, 4.9541907 
7.1824163e+2, 2.5541386e+2, -522082.63, -594887.8, -14354.428, 0.015559018, 0.0077019227, -519354.7, -82398.49, 0.0, 5.000225, 4.9541965 
7.180275e+2, 2.6036426e+2, -484671.47, -551499.4, -14584.508, 0.014207966, 0.0033132283, -481627.22, -93185.64, 0.0, 4.9960566, 4.9539437 
7.178151e+2, 2.653147e+2, -449619.13, -512749.03, -13483.303, 0.014457074, 0.018179355, -446859.94, -106933.59, 0.0, 4.991795, 4.952024 
7.176034e+2, 2.7026495e+2, -410551.03, -464892.56, -14237.845, 0.014429001, 0.020174019, -407046.63, -115634.03, 0.0, 4.9874578, 4.9533534 
7.173918e+2, 2.7521524e+2, -373091.25, -420708.8, -14749.091, 0.014250412, 0.021144137, -368893.0, -125994.055, 0.0, 4.9831295, 4.9533687 
7.171805e+2, 2.801652e+2, -335467.1, -376267.84, -14354.338, 0.014050208, 0.018617313, -330923.1, -136535.1, 0.0, 4.9788194, 4.9534345 
7.169726e+2, 2.8511187e+2, -300017.3, -337464.5, -11486.402, 0.014162568, 0.001871182, -296774.8, -150868.06, 0.0, 4.9746885, 4.9513516 
7.1676636e+2, 2.900596e+2, -259145.13, -287024.84, -12143.797, 0.0151253585, -0.023037221, -254597.39, -157182.53, 0.0, 4.970619, 4.9533854 
7.165602e+2, 2.950075e+2, -220732.98, -242195.38, -12599.019, 0.016109394, -0.047640517, -214914.44, -165992.81, 0.0, 4.9665475, 4.9534116 
7.163538e+2, 2.9995644e+2, -186481.89, -205478.8, -14520.26, 0.01641357, -0.053628623, -178629.31, -178209.28, 0.0, 4.9621854, 4.9506493 
7.161483e+2, 3.049235e+2, -148363.05, -119174.08, -12346.68, 0.011347591, 0.025643686, -114652.09, -114652.09, 0.0, 4.9562526, 4.9752636 
7.1594787e+2, 3.0990395e+2, -161264.67, -118173.79, -12585.629, 0.0011351379, 0.067975946, -114767.195, -114767.195, 0.0, 4.950322, 4.978202 
7.157478e+2, 3.1488475e+2, -177686.4, -125396.05, -13203.21, -0.010202902, 0.11249871, -122251.375, -122251.375, 0.0, 4.94441, 4.978178 
7.155577e+2, 3.1986186e+2, -147337.89, -24100.643, -6829.199, 0.0611108, 0.10917074, -23723.357, -23723.357, 0.0, 4.938134, 5.017523 
7.2886306e+2, 1.2682237e+2, -1464440.3, -1696341.3, 12989.138, -0.01568365, -0.021197518, -1463715.0, 233405.28, 0.0, 5.113715, 4.9587173 
7.286539e+2, 1.317766e+2, -1430824.9, -1655428.8, 12866.906, -0.0083046155, -0.020515814, -1430090.1, 218480.83, 0.0, 5.1086125, 4.958702 
7.2844493e+2, 1.367308e+2, -1397140.3, -1614433.8, 12742.791, -0.00088551675, -0.019756803, -1396395.6, 203626.36, 0.0, 5.103514, 4.9586864 
7.282355e+2, 1.4168504e+2, -1363464.5, -1573475.5, 11884.915, 0.0037429184, -0.018784892, -1362794.0, 188678.2, 0.0, 5.0984197, 4.9586205 
7.280231e+2, 1.4664079e+2, -1326201.9, -1527254.5, 9386.536, 0.0044801263, -0.00966897, -1325764.6, 177142.38, 0.0, 5.0937314, 4.9600563 
7.278098e+2, 1.5159641e+2, -1290961.9, -1485309.3, 9337.114, 0.008303955, -0.010809245, -1290514.4, 163828.77, 0.0, 5.089116, 4.960052 
7.2759664e+2, 1.5655202e+2, -1255656.3, -1443287.6, 9286.245, 0.012070873, -0.011963373, -1255197.9, 150581.66, 0.0, 5.084504, 4.9600472 
7.2738314e+2, 1.6150767e+2, -1220489.3, -1401827.5, 8413.554, 0.01556124, -0.012337565, -1220099.8, 137115.8, 0.0, 5.079926, 4.959826 
7.271677e+2, 1.6646345e+2, -1184394.3, -1359832.8, 6907.9316, 0.01781583, -0.0066335117, -1184122.6, 124527.875, 0.0, 5.07562, 4.9596415 
7.269514e+2, 1.7141868e+2, -1147853.9, -1317077.6, 6726.454, 0.01853958, -0.0066978005, -1147586.9, 112504.15, 0.0, 5.0713816, 4.9596376 
7.267353e+2, 1.763739e+2, -1111251.0, -1274250.9, 6544.467, 0.019289406, -0.006803451, -1110988.6, 100543.06, 0.0, 5.0671463, 4.9596343 
7.2651905e+2, 1.813292e+2, -1074871.4, -1232157.6, 5846.8228, 0.019663343, -0.005778792, -1074654.3, 88317.26, 0.0, 5.0629478, 4.9593506 
7.263014e+2, 1.8628441e+2, -1038585.06, -1191282.9, 4730.041, 0.019808605, 0.002451139, -1038438.7, 75974.09, 0.0, 5.058934, 4.9585443 
7.2608334e+2, 1.9123864e+2, -1001063.0, -1147890.1, 4458.9497, 0.02034886, 0.0034828554, -1000927.7, 64935.668, 0.0, 5.054963, 4.958541 
7.258654e+2, 1.9619292e+2, -963480.6, -1104429.0, 4186.681, 0.02087011, 0.0046598813, -963356.4, 53957.477, 0.0, 5.0509953, 4.9585376 
7.2564757e+2, 2.0114715e+2, -926192.4, -1061704.8, 3759.347, 0.02128456, 0.0058681555, -926088.1, 42676.145, 0.0, 5.0470343, 4.9582624 
7.2542876e+2, 2.0610091e+2, -890087.3, -1021793.94, 2820.2634, 0.021223694, 0.012556175, -890026.94, 30192.225, 0.0, 5.0431046, 4.956982 
7.252097e+2, 2.1105339e+2, -852234.0, -978093.25, 2465.2422, 0.021018248, 0.011290784, -852185.7, 19500.848, 0.0, 5.039177, 4.956973 
7.249907e+2, 2.1600586e+2, -814307.6, -934302.4, 2097.5164, 0.020830818, 0.009960941, -814271.0, 8882.968, 0.0, 5.035253, 4.956971 
7.2477186e+2, 2.2095841e+2, -776443.4, -890732.7, 1714.6913, 0.020759001, 0.008775941, -776417.7, -1797.3287, 0.0, 5.0313363, 4.9568686 
7.2455263e+2, 2.2591077e+2, -740249.75, -850756.25, 998.15344, 0.02104246, 0.016165983, -740240.7, -14153.182, 0.0, 5.027394, 4.9555078 
7.2433317e+2, 2.3086202e+2, -702215.3, -806478.2, 419.0712, 0.021415891, 0.015460051, -702213.6, -24647.943, 0.0, 5.023385, 4.955643 
7.241138e+2, 2.3581327e+2, -664299.4, -762510.2, -107.99829, 0.021804448, 0.014762424, -664299.25, -35255.574, 0.0, 5.0193777, 4.9556475 
7.2389466e+2, 2.4076456e+2, -626680.44, -719200.25, -212.4716, 0.021692745, 0.01404487, -626679.94, -46158.766, 0.0, 5.0153637, 4.955401 
7.23676e+2, 2.4571508e+2, -590680.8, -679142.6, -335.31448, 0.020191405, 0.018088963, -590679.56, -58674.254, 0.0, 5.0112824, 4.954006 
7.234572e+2, 2.506647e+2, -552573.0, -634080.75, -986.25586, 0.0180916, 0.0125212, -552561.06, -69063.01, 0.0, 5.0071054, 4.954396 
7.232386e+2, 2.5561434e+2, -514918.56, -590059.94, -1535.0917, 0.015982931, 0.0067097186, -514887.22, -79896.484, 0.0, 5.0029283, 4.954399 
7.230202e+2, 2.6056412e+2, -477465.53, -546554.25, -1599.3519, 0.014492216, 0.0022326529, -477428.5, -90946.2, 0.0, 4.998752, 4.9541984 
7.2280365e+2, 2.6551405e+2, -442471.47, -507913.28, -763.4763, 0.014838198, 0.01753644, -442462.56, -104490.375, 0.0, 4.994477, 4.952258 
7.225876e+2, 2.7046373e+2, -403534.3, -460250.03, -1771.7377, 0.015153705, 0.019920046, -403479.03, -114014.805, 0.0, 4.990107, 4.9535475 
7.223716e+2, 2.7541342e+2, -366314.97, -416252.6, -2539.4321, 0.015463404, 0.021442499, -366186.2, -125229.875, 0.0, 4.985696, 4.953547 
7.221559e+2, 2.8036273e+2, -329206.3, -372156.47, -2281.0303, 0.015626045, 0.018910987, -329085.5, -136633.86, 0.0, 4.981216, 4.9535775 
7.219436e+2, 2.8530866e+2, -295447.78, -334193.56, 41.266865, 0.014378108, 0.0006632272, -295447.72, -151470.13, 0.0, 4.9764957, 4.951469 
7.217328e+2, 2.9025558e+2, -256436.64, -284686.25, -1107.7114, 0.013806489, -0.026059464, -256393.28, -160900.0, 0.0, 4.971774, 4.9534707 
7.215221e+2, 2.952026e+2, -219827.05, -240688.8, -2032.6036, 0.013336468, -0.05338946, -219630.86, -172622.73, 0.0, 4.9670577, 4.953492 
7.213109e+2, 3.001509e+2, -187133.4, -205409.42, -4490.643, 0.012334786, -0.057655476, -186089.61, -186089.61, 0.0, 4.9622893, 4.9503927 
7.2110015e+2, 3.0511805e+2, -146439.16, -117277.305, -2788.251, 0.008365849, 0.027671255, -117013.11, -117013.11, 0.0, 4.957156, 4.9753203 
7.2089404e+2, 3.1009844e+2, -157721.69, -115699.516, -3031.2852, 0.0007236158, 0.072417386, -115481.984, -115481.984, 0.0, 4.9518323, 4.978207 
7.206882e+2, 3.1507924e+2, -173512.31, -122714.78, -3494.335, -0.0074854568, 0.11996283, -122475.54, -122475.54, 0.0, 4.9461656, 4.9781523 
7.204859e+2, 3.200293e+2, -118547.28, 34097.754, 2496.9202, -0.00028977325, -0.21759334, 34138.59, 34138.59, 0.0, 4.9400725, 5.037851 
7.339722e+2, 1.2703519e+2, -1463763.0, -1695943.6, 9272.63, -0.017668093, -0.01680036, -1463393.3, 231644.31, 0.0, 5.113795, 4.9588804 
7.3375803e+2, 1.319895e+2, -1430146.9, -1655033.9, 9149.797, -0.009268444, -0.016913224, -1429775.3, 216712.08, 0.0, 5.1086926, 4.958864 
7.3354405e+2, 1.3694377e+2, -1396461.6, -1614041.5, 9025.082, -0.0009377295, -0.016960142, -1396088.0, 201849.39, 0.0, 5.1035943, 4.9588485 
7.333295e+2, 1.4189814e+2, -1362636.6, -1572757.5, 8147.072, 0.0038673552, -0.016495394, -1362321.1, 187064.83, 0.0, 5.0984993, 4.95889 
7.331124e+2, 1.4685412e+2, -1325544.1, -1526748.5, 6002.4272, 0.0047089974, -0.007813061, -1325365.3, 175453.16, 0.0, 5.093796, 4.9602566 
7.328945e+2, 1.518099e+2, -1290304.1, -1484806.6, 5951.1304, 0.009226069, -0.009226928, -1290122.3, 162130.23, 0.0, 5.089181, 4.960252 
7.326767e+2, 1.5676567e+2, -1254998.5, -1442788.5, 5898.3804, 0.013659164, -0.010656055, -1254813.5, 148873.34, 0.0, 5.084569, 4.9602466 
7.324586e+2, 1.6172148e+2, -1219877.3, -1401403.6, 5010.6987, 0.01762637, -0.01112296, -1219739.0, 135382.1, 0.0, 5.079989, 4.9600015 
7.322388e+2, 1.6667746e+2, -1184036.8, -1359845.5, 3768.2466, 0.019755771, -0.004720798, -1183956.0, 122598.53, 0.0, 5.075673, 4.95967 
7.320183e+2, 1.7163278e+2, -1147496.9, -1317091.4, 3584.827, 0.020120462, -0.0040155654, -1147421.1, 110573.13, 0.0, 5.0714345, 4.9596667 
7.317979e+2, 1.765881e+2, -1110894.5, -1274265.5, 3400.8958, 0.02048502, -0.0033501547, -1110823.8, 98610.37, 0.0, 5.067199, 4.959663 
7.3157734e+2, 1.8154345e+2, -1074418.9, -1231978.0, 2709.7432, 0.020520752, -0.0022223347, -1074372.3, 86501.24, 0.0, 5.0630026, 4.959444 
7.313556e+2, 1.8649852e+2, -1038406.1, -1191636.0, 1768.379, 0.020787423, 0.004452137, -1038385.7, 73929.93, 0.0, 5.0589843, 4.9584575 
7.311336e+2, 1.9145253e+2, -1000882.5, -1148244.3, 1495.6144, 0.021478495, 0.0039317296, -1000867.3, 62900.926, 0.0, 5.0550137, 4.9584537 
7.3091173e+2, 1.9640654e+2, -963298.56, -1104784.3, 1221.6699, 0.022130715, 0.0035577612, -963288.0, 51932.7, 0.0, 5.0510464, 4.95845 
7.3068994e+2, 2.0136063e+2, -925927.1, -1061898.3, 750.0567, 0.022522593, 0.0039540026, -925923.0, 40749.39, 0.0, 5.047087, 4.958231 
7.3046714e+2, 2.0631437e+2, -890063.5, -1022496.25, -123.204254, 0.02234017, 0.011675642, -890063.44, 28063.787, 0.0, 5.0431557, 4.9567757 
7.3024416e+2, 2.1126674e+2, -852202.94, -978785.25, -482.94754, 0.022024952, 0.011397669, -852201.06, 17394.48, 0.0, 5.039229, 4.95677 
7.300212e+2, 2.162191e+2, -814274.56, -934994.1, -852.3402, 0.021707762, 0.011059495, -814268.56, 6795.3535, 0.0, 5.035305, 4.956768 
7.297984e+2, 2.211715e+2, -776363.06, -891332.4, -1223.0416, 0.021498878, 0.01040677, -776350.06, -3818.363, 0.0, 5.0313897, 4.956696 
7.295752e+2, 2.2612354e+2, -740430.75, -851988.1, -2058.708, 0.021539813, 0.016984867, -740392.75, -16390.52, 0.0, 5.0274534, 4.955118 
7.293517e+2, 2.310743e+2, -702407.75, -807726.5, -2611.3718, 0.02160548, 0.015733568, -702343.06, -26858.12, 0.0, 5.023443, 4.9552474 
7.291283e+2, 2.3602512e+2, -664488.2, -763755.0, -3140.2512, 0.021671122, 0.014494568, -664388.94, -37421.59, 0.0, 5.019436, 4.9552526 
7.289051e+2, 2.4097598e+2, -626750.2, -720197.4, -3254.7104, 0.021245899, 0.0132334, -626636.94, -48187.96, 0.0, 5.015424, 4.955091 
7.286824e+2, 2.4592617e+2, -590784.56, -680275.8, -3497.7505, 0.019629523, 0.017078599, -590648.06, -60712.023, 0.0, 5.0113482, 4.953648 
7.284594e+2, 2.508754e+2, -552728.0, -635338.9, -4169.461, 0.017459158, 0.011506535, -552518.1, -71085.555, 0.0, 5.007172, 4.9539943 
7.2823656e+2, 2.5582466e+2, -515071.28, -591315.3, -4720.2666, 0.015262344, 0.005725088, -514780.16, -81851.17, 0.0, 5.0029945, 4.9539976 
7.2801405e+2, 2.6077402e+2, -477458.75, -547508.4, -4681.049, 0.013616254, 0.0012470387, -477147.3, -92723.08, 0.0, 4.998831, 4.953895 
7.2779334e+2, 2.6572353e+2, -442377.38, -509024.34, -3893.5205, 0.013721092, 0.0156943, -442150.7, -106232.766, 0.0, 4.99462, 4.951874 
7.2757286e+2, 2.7067274e+2, -403257.2, -461271.16, -4716.434, 0.013939169, 0.016977895, -402876.25, -115461.36, 0.0, 4.9903154, 4.953164 
7.273526e+2, 2.7562192e+2, -365748.72, -417128.94, -5277.065, 0.014139337, 0.01745347, -365212.34, -126300.43, 0.0, 4.9860063, 4.953167 
7.271326e+2, 2.8057075e+2, -328381.28, -372987.0, -4834.9883, 0.014020304, 0.014369551, -327863.22, -137451.2, 0.0, 4.9816346, 4.9531636 
7.269157e+2, 2.8551668e+2, -294522.72, -335165.28, -2572.003, 0.011991771, 0.0017622963, -294360.6, -152422.22, 0.0, 4.9769807, 4.9509783 
7.2670007e+2, 2.904637e+2, -255461.88, -285747.66, -3520.8313, 0.010694336, -0.017839098, -255057.95, -161603.64, 0.0, 4.972298, 4.9529314 
7.2648454e+2, 2.954107e+2, -218756.89, -241705.7, -4231.8022, 0.009460405, -0.038168285, -218001.4, -173031.73, 0.0, 4.9676156, 4.952953 
7.262686e+2, 3.0035883e+2, -184330.38, -202794.64, -6260.005, 0.0074537676, -0.042901643, -182408.14, -182408.14, 0.0, 4.9629216, 4.9511113 
7.260535e+2, 3.0532414e+2, -142704.08, -114689.45, -4455.486, 0.005389356, 0.024528464, -113997.914, -113997.914, 0.0, 4.958213, 4.975874 
7.258428e+2, 3.1030253e+2, -151928.8, -112274.49, -4368.715, 0.0005053229, 0.05388095, -111798.89, -111798.89, 0.0, 4.9536357, 4.978738 
7.256322e+2, 3.1528136e+2, -164585.45, -117964.2, -4575.6514, -0.0045104087, 0.08648462, -117519.37, -117519.37, 0.0, 4.9490843, 4.9786754 
7.254222e+2, 3.2024238e+2, -115948.05, 21308.518, -2416.9026, -0.026943447, -0.13917026, 21351.063, 21351.063, 0.0, 4.9436755, 5.031731 
7.3908126e+2, 1.2724799e+2, -1463060.1, -1695508.6, 5505.1807, -0.019297637, -0.012549974, -1462929.8, 230025.17, 0.0, 5.113887, 4.9590487 
7.3886204e+2, 1.3220237e+2, -1429395.8, -1654584.1, 5394.406, -0.009967718, -0.013383204, -1429266.6, 215137.02, 0.0, 5.108801, 4.959031 
7.386431e+2, 1.3715674e+2, -1395749.4, -1613619.5, 5292.3945, -0.0007459192, -0.014213866, -1395620.9, 200231.78, 0.0, 5.103689, 4.9590135 
7.3842335e+2, 1.4211127e+2, -1361849.6, -1572069.9, 4408.157, 0.0040693814, -0.014189277, -1361757.3, 185542.31, 0.0, 5.0985713, 4.9591537 
7.3820144e+2, 1.4706744e+2, -1324933.5, -1526265.0, 2612.3428, 0.0049848226, -0.0059329863, -1324899.6, 173829.9, 0.0, 5.0938463, 4.960457 
7.3797894e+2, 1.520234e+2, -1289712.1, -1484340.9, 2559.7996, 0.010199884, -0.007662211, -1289678.5, 160483.16, 0.0, 5.0892253, 4.96045 
7.377567e+2, 1.5697935e+2, -1254442.9, -1442346.8, 2509.2817, 0.015305387, -0.009409296, -1254409.4, 147184.53, 0.0, 5.084601, 4.960444 
7.37534e+2, 1.6193533e+2, -1219420.0, -1401121.0, 1615.6215, 0.019726764, -0.009824144, -1219405.6, 133621.0, 0.0, 5.0800123, 4.960151 
7.373098e+2, 1.6689149e+2, -1183674.8, -1359863.1, 629.2199, 0.021716263, -0.00268059, -1183672.5, 120785.97, 0.0, 5.0757284, 4.9596977 
7.3708504e+2, 1.7184691e+2, -1147135.4, -1317109.9, 443.86108, 0.021717126, -0.0012337883, -1147134.3, 108763.17, 0.0, 5.07149, 4.959694 
7.368603e+2, 1.7680232e+2, -1110533.6, -1274284.9, 257.9886, 0.021691648, 0.00017481438, -1110533.1, 96803.33, 0.0, 5.067254, 4.9596906 
7.3663557e+2, 1.817577e+2, -1073976.1, -1231833.9, -421.30292, 0.021399502, 0.0012595636, -1073975.0, 84800.55, 0.0, 5.0630603, 4.959526 
7.364097e+2, 1.8671264e+2, -1038222.94, -1191993.5, -1191.9435, 0.02180143, 0.0063536637, -1038213.7, 72004.89, 0.0, 5.0590363, 4.9583697 
7.3618376e+2, 1.916664e+2, -1000697.75, -1148602.9, -1466.3793, 0.022644442, 0.004252413, -1000683.2, 60989.973, 0.0, 5.055066, 4.9583654 
7.359579e+2, 1.9662017e+2, -963112.25, -1105143.9, -1741.9974, 0.023428757, 0.0022988103, -963090.9, 50036.773, 0.0, 5.0510993, 4.9583616 
7.357322e+2, 2.0157412e+2, -925677.0, -1062138.9, -2257.031, 0.02377786, 0.002089636, -925639.7, 38940.703, 0.0, 5.047142, 4.958184 
7.3550546e+2, 2.0652784e+2, -890034.56, -1023200.56, -3065.829, 0.023480114, 0.01091612, -889964.0, 26071.191, 0.0, 5.0432096, 4.956569 
7.352784e+2, 2.114801e+2, -852167.75, -979481.56, -3430.1597, 0.02305059, 0.011595801, -852075.4, 15429.15, 0.0, 5.039283, 4.9565654 
7.350516e+2, 2.1643236e+2, -814237.4, -935690.2, -3801.2175, 0.022599129, 0.012219585, -814118.5, 4855.3286, 0.0, 5.0353594, 4.9565635 
7.3482484e+2, 2.2138458e+2, -776295.2, -891972.44, -4153.475, 0.022230089, 0.011997135, -776146.25, -5703.044, 0.0, 5.031446, 4.95651 
7.345977e+2, 2.2633626e+2, -740610.56, -853234.1, -5120.626, 0.022022227, 0.017794708, -740378.25, -18461.055, 0.0, 5.027516, 4.954725 
7.3437005e+2, 2.3128659e+2, -702595.75, -808979.3, -5641.372, 0.02176871, 0.015963322, -702297.44, -28893.074, 0.0, 5.0235043, 4.9548507 
7.3414266e+2, 2.3623696e+2, -664672.6, -765004.44, -6172.0596, 0.021500485, 0.014148576, -664294.4, -39403.063, 0.0, 5.019497, 4.9548564 
7.3391545e+2, 2.411874e+2, -626819.44, -721210.56, -6299.699, 0.02080319, 0.012411572, -626400.9, -50023.965, 0.0, 5.0154862, 4.954777 
7.336886e+2, 2.4613726e+2, -590888.6, -681423.7, -6656.717, 0.019090038, 0.016127689, -590401.8, -62534.816, 0.0, 5.011417, 4.9532857 
7.334615e+2, 2.510861e+2, -552878.4, -636601.94, -7352.2715, 0.016842479, 0.010523915, -552237.6, -72870.42, 0.0, 5.0072412, 4.9535913 
7.3323447e+2, 2.5603494e+2, -515219.3, -592575.6, -7905.0464, 0.014550377, 0.004737644, -514419.78, -83552.37, 0.0, 5.0030637, 4.953595 
7.330078e+2, 2.609839e+2, -477551.2, -548629.6, -7755.9067, 0.012734366, 0.00021320538, -476714.72, -94348.35, 0.0, 4.9988985, 4.95354 
7.327829e+2, 2.65933e+2, -442419.3, -510124.38, -7216.106, 0.012610604, 0.013793105, -441658.75, -107794.836, 0.0, 4.9946966, 4.9515257 
7.325582e+2, 2.708817e+2, -403351.34, -462486.8, -8021.535, 0.012720986, 0.013911665, -402282.56, -116916.89, 0.0, 4.9903917, 4.9527755 
7.323335e+2, 2.7583042e+2, -365841.63, -418341.75, -8582.81, 0.012782127, 0.013262748, -364474.1, -127606.59, 0.0, 4.986082, 4.952779 
7.321092e+2, 2.807788e+2, -328615.94, -374478.7, -8164.9673, 0.0123272175, 0.010092432, -327205.7, -138833.78, 0.0, 4.9817023, 4.9526787 
7.3188764e+2, 2.8572482e+2, -294743.34, -336717.06, -6223.9536, 0.009515229, 0.0031646031, -293839.88, -153941.58, 0.0, 4.977056, 4.950473 
7.316672e+2, 2.9067194e+2, -255732.84, -287417.94, -7150.9644, 0.00745806, -0.009726146, -254193.72, -162779.73, 0.0, 4.972373, 4.952383 
7.31447e+2, 2.9561907e+2, -219027.63, -243372.08, -7842.93, 0.0053447476, -0.02327291, -216719.7, -173790.61, 0.0, 4.967689, 4.952406 
7.3122627e+2, 3.0056703e+2, -183655.2, -202332.98, -9756.72, 0.0020106318, -0.026977569, -179488.23, -179488.23, 0.0, 4.9630075, 4.951314 
7.310068e+2, 3.0553037e+2, -141550.83, -113200.74, -8053.202, 0.002200983, 0.018669697, -111072.84, -111072.84, 0.0, 4.9583035, 4.976459 
7.307915e+2, 3.1050658e+2, -150889.95, -111061.055, -7683.37, -0.00028048802, 0.024926467, -109630.266, -109630.266, 0.0, 4.953721, 4.9792275 
7.3057646e+2, 3.1548324e+2, -163577.16, -116820.62, -7613.4126, -0.0035409615, 0.03540751, -115612.15, -115612.15, 0.0, 4.9491625, 4.9791436 
7.3035944e+2, 3.2046774e+2, -138577.52, -30219.16, -5230.001, -0.050114006, 0.110898964, -29967.314, -29967.314, 0.0, 4.943511, 5.0129304 
7.441904e+2, 1.274632e+2, -1462380.3, -1694213.0, 7962.0996, -0.019966261, -0.009900066, -1462107.0, 228741.58, 0.0, 5.1139607, 4.959424 
7.4396616e+2, 1.3241763e+2, -1428632.5, -1653270.5, 7673.1265, -0.010123178, -0.010670505, -1428370.8, 213926.08, 0.0, 5.108906, 4.9594 
7.437421e+2, 1.3737203e+2, -1394812.9, -1612245.4, 7368.0015, -0.00027246255, -0.011422577, -1394563.5, 199181.78, 0.0, 5.1038556, 4.9593763 
7.435172e+2, 1.4232658e+2, -1360677.8, -1570473.6, 6280.291, 0.0043334574, -0.011504157, -1360489.9, 184701.67, 0.0, 5.0987954, 4.9595647 
7.432904e+2, 1.472828e+2, -1323624.3, -1524791.1, 4630.8994, 0.005012742, -0.0036622144, -1323517.6, 173103.53, 0.0, 5.094159, 4.960787 
7.4306345e+2, 1.5223876e+2, -1288147.5, -1482789.1, 4328.6763, 0.010675812, -0.005687018, -1288051.3, 160002.0, 0.0, 5.089629, 4.9607687 
7.428366e+2, 1.5719469e+2, -1252641.0, -1440729.0, 4018.0344, 0.016372725, -0.007688188, -1252555.3, 146930.19, 0.0, 5.08509, 4.9607506 
7.426094e+2, 1.621507e+2, -1217371.8, -1399412.9, 2932.9143, 0.021207867, -0.008020328, -1217324.5, 133593.25, 0.0, 5.080588, 4.960451 
7.423808e+2, 1.6710685e+2, -1181775.0, -1358473.6, 2074.5334, 0.023106242, -0.0006727257, -1181750.6, 120598.59, 0.0, 5.0763106, 4.9598856 
7.4215174e+2, 1.7206225e+2, -1144999.8, -1315646.1, 1715.2936, 0.022894712, 0.0010413323, -1144982.5, 108806.1, 0.0, 5.0721564, 4.9598727 
7.419228e+2, 1.7701763e+2, -1108229.8, -1272780.0, 1349.7084, 0.022714337, 0.0028080107, -1108218.6, 97009.266, 0.0, 5.0679817, 4.95986 
7.416938e+2, 1.8197294e+2, -1071536.1, -1230278.5, 501.4481, 0.022261716, 0.0037038864, -1071534.6, 85133.125, 0.0, 5.0638294, 4.9597 
7.4146384e+2, 1.8692763e+2, -1035966.06, -1190929.1, -334.78613, 0.022620559, 0.007789906, -1035965.3, 72147.42, 0.0, 5.059827, 4.958369 
7.4123394e+2, 1.9188106e+2, -998389.6, -1147546.0, -850.3798, 0.023483044, 0.004572573, -998384.8, 61185.348, 0.0, 5.055875, 4.958359 
7.4100417e+2, 1.968345e+2, -960796.8, -1104114.8, -1367.1661, 0.024344476, 0.0014025382, -960783.8, 50243.684, 0.0, 5.051911, 4.958349 
7.407744e+2, 2.0178822e+2, -923333.1, -1061032.1, -2149.5383, 0.024734545, 0.00079899566, -923299.56, 39182.53, 0.0, 5.047944, 4.9582086 
7.4054366e+2, 2.0674184e+2, -887966.9, -1022586.8, -3122.0151, 0.024478493, 0.01040181, -887894.5, 26043.639, 0.0, 5.0439863, 4.956439 
7.403127e+2, 2.1169387e+2, -850202.4, -978947.3, -3726.397, 0.024077566, 0.011732825, -850094.6, 15314.857, 0.0, 5.040023, 4.9564304 
7.400819e+2, 2.1664593e+2, -812407.5, -935250.9, -4334.5405, 0.023635495, 0.013077713, -812254.75, 4625.956, 0.0, 5.0360518, 4.9564223 
7.3985124e+2, 2.215979e+2, -774627.6, -891667.1, -4890.0044, 0.02314764, 0.01315983, -774423.6, -6071.21, 0.0, 5.0320873, 4.9563503 
7.3962003e+2, 2.2654918e+2, -739229.7, -853456.75, -6189.711, 0.022626108, 0.018384615, -738895.3, -19064.977, 0.0, 5.028125, 4.9544053 
7.393884e+2, 2.31499e+2, -701385.3, -809358.25, -6905.6826, 0.022018798, 0.016081488, -700945.4, -29623.025, 0.0, 5.024063, 4.9545035 
7.391569e+2, 2.3644887e+2, -663636.4, -765493.5, -7668.5454, 0.021411993, 0.01376242, -663062.25, -40248.07, 0.0, 5.0199943, 4.954503 
7.389257e+2, 2.4139889e+2, -625854.4, -721539.2, -8033.068, 0.020490034, 0.011661038, -625184.7, -50880.684, 0.0, 5.0159116, 4.9545155 
7.386948e+2, 2.463484e+2, -590244.7, -682164.94, -8793.4, 0.018659392, 0.015285004, -589411.06, -63613.598, 0.0, 5.011769, 4.952921 
7.3846346e+2, 2.512968e+2, -552498.3, -637515.9, -9761.764, 0.016303904, 0.009599433, -551391.9, -74090.13, 0.0, 5.007503, 4.9532104 
7.3823225e+2, 2.562452e+2, -515116.56, -593640.2, -10581.313, 0.013891278, 0.003766364, -513715.7, -84909.836, 0.0, 5.003226, 4.9532094 
7.3800147e+2, 2.6119378e+2, -477661.0, -549757.3, -10540.376, 0.011878713, -0.0008545042, -476151.63, -95842.99, 0.0, 4.998974, 4.9531727 
7.3777235e+2, 2.661425e+2, -442545.9, -511178.1, -10311.092, 0.011524983, 0.011839592, -441030.25, -109220.13, 0.0, 4.9947386, 4.9512043 
7.375433e+2, 2.7109066e+2, -403579.22, -463723.66, -11138.697, 0.011506422, 0.01071487, -401582.63, -118265.9, 0.0, 4.9904222, 4.952395 
7.3731434e+2, 2.7603886e+2, -366012.56, -419554.47, -11716.9795, 0.011418982, 0.008870285, -363560.72, -128737.34, 0.0, 4.986132, 4.9523983 
7.370857e+2, 2.8098685e+2, -328926.47, -375999.38, -11400.607, 0.0106129665, 0.0061505386, -326310.7, -139978.77, 0.0, 4.981748, 4.952191 
7.368595e+2, 2.8593296e+2, -295101.3, -338424.44, -9692.363, 0.0070175817, 0.0047586514, -293031.78, -155173.39, 0.0, 4.977109, 4.9499183 
7.3663425e+2, 2.9088014e+2, -256076.17, -289101.2, -10670.462, 0.0041999235, -0.002036236, -252928.52, -163554.56, 0.0, 4.9724245, 4.9518385 
7.364092e+2, 2.958274e+2, -219390.27, -245065.8, -11368.452, 0.0012028214, -0.009410004, -215080.16, -174191.2, 0.0, 4.967732, 4.951861 
7.3618376e+2, 3.007751e+2, -183611.3, -203103.77, -13237.519, -0.0036407728, -0.0100288885, -176919.14, -176919.14, 0.0, 4.9630556, 4.9510913 
7.359599e+2, 3.0573648e+2, -140623.42, -111911.83, -11513.851, -0.0008242021, 0.009505114, -107864.97, -107864.97, 0.0, 4.958341, 4.9769807 
7.3574024e+2, 3.1071037e+2, -150044.47, -109924.48, -10928.793, -0.0005995771, -0.015136401, -107140.61, -107140.61, 0.0, 4.9537416, 4.9797044 
7.355207e+2, 3.156847e+2, -162798.75, -115772.805, -10591.346, -0.0018117455, -0.034552913, -113497.48, -113497.48, 0.0, 4.949163, 4.9795985 
7.3529667e+2, 3.2067913e+2, -151246.86, -57215.348, -7462.362, -0.06407348, 0.17851198, -56626.816, -56626.816, 0.0, 4.943009, 5.0032177 
7.493002e+2, 1.2769149e+2, -1455378.0, -1688039.4, 14318.384, -0.02078812, -0.0075608916, -1454500.1, 234114.17, 0.0, 5.1161876, 4.960228 
7.4907094e+2, 1.3264613e+2, -1422163.3, -1647334.4, 14310.448, -0.010315337, -0.008175499, -1421257.4, 218802.72, 0.0, 5.110951, 4.960213 
7.488418e+2, 1.3760075e+2, -1388829.1, -1606441.5, 14321.528, 0.000046087833, -0.008740213, -1387890.6, 203615.56, 0.0, 5.1057186, 4.9602327 
7.486116e+2, 1.4255548e+2, -1355249.5, -1564979.3, 13505.859, 0.0042611794, -0.009021744, -1354383.4, 188567.3, 0.0, 5.100486, 4.9603977 
7.483801e+2, 1.4751182e+2, -1318598.1, -1519556.9, 12600.4, 0.004706409, -0.0015626772, -1317811.1, 176567.73, 0.0, 5.095748, 4.9615755 
7.481486e+2, 1.5246786e+2, -1283220.1, -1477566.9, 12606.983, 0.010524928, -0.003891856, -1282405.8, 163404.39, 0.0, 5.0911875, 4.9615674 
7.479173e+2, 1.5742388e+2, -1247776.5, -1435501.4, 12613.267, 0.01634675, -0.0061772875, -1246932.9, 150308.58, 0.0, 5.086631, 4.9615593 
7.476855e+2, 1.6237998e+2, -1212482.6, -1394030.4, 11886.26, 0.021039328, -0.00663861, -1211707.8, 136965.1, 0.0, 5.0821238, 4.961309 
7.474527e+2, 1.6733618e+2, -1176933.4, -1353349.0, 11609.531, 0.02273576, 0.00019157934, -1176172.6, 123931.12, 0.0, 5.0779085, 4.960617 
7.472195e+2, 1.722915e+2, -1139942.8, -1310385.6, 11531.459, 0.02220212, 0.0014694541, -1139166.1, 112377.21, 0.0, 5.0738335, 4.9606133 
7.4698645e+2, 1.7724681e+2, -1102891.4, -1267352.9, 11452.076, 0.021728091, 0.00281879, -1102097.8, 100885.18, 0.0, 5.0697618, 4.9606094 
7.467533e+2, 1.8220204e+2, -1065894.8, -1224670.0, 10903.174, 0.021112172, 0.003365381, -1065149.5, 89273.52, 0.0, 5.065718, 4.96046 
7.4651945e+2, 1.8715665e+2, -1030376.5, -1185718.1, 10557.52, 0.021498624, 0.007900444, -1029662.25, 76206.62, 0.0, 5.0618, 4.958947 
7.462856e+2, 1.9210988e+2, -992461.7, -1142151.0, 10325.961, 0.022347026, 0.0050532324, -991752.75, 65575.45, 0.0, 5.0579715, 4.9589443 
7.4605197e+2, 1.970631e+2, -954488.4, -1098517.8, 10093.295, 0.023204412, 0.002206684, -953784.5, 55003.074, 0.0, 5.054146, 4.958942 
7.458183e+2, 2.0201659e+2, -916532.25, -1055045.0, 9545.203, 0.023706848, 0.0014839517, -915877.56, 44366.9, 0.0, 5.0503283, 4.9588675 
7.455836e+2, 2.0696978e+2, -881092.6, -1017015.9, 8912.017, 0.023533158, 0.010186285, -880510.75, 31193.352, 0.0, 5.046505, 4.9568877 
7.453488e+2, 2.1192132e+2, -842928.25, -973176.9, 8522.365, 0.02326029, 0.010863925, -842373.0, 20807.072, 0.0, 5.0426855, 4.9568853 
7.4511415e+2, 2.1687289e+2, -804705.06, -929271.9, 8130.469, 0.022985682, 0.011609715, -804176.6, 10479.327, 0.0, 5.0388684, 4.9568825 
7.448796e+2, 2.218244e+2, -766417.94, -885361.8, 7828.798, 0.022400206, 0.011399448, -765904.8, 227.0763, 0.0, 5.03507, 4.956851 
7.4464434e+2, 2.2677521e+2, -730800.2, -847420.94, 6729.533, 0.02140914, 0.016725438, -730413.2, -12798.938, 0.0, 5.0312595, 4.954747 
7.4440867e+2, 2.3172443e+2, -692590.1, -803210.1, 6271.9517, 0.020339226, 0.014459217, -692235.6, -23123.525, 0.0, 5.027342, 4.954825 
7.4417317e+2, 2.3667368e+2, -654410.25, -759161.75, 5763.828, 0.019340327, 0.012175005, -654094.06, -33484.16, 0.0, 5.023431, 4.954823 
7.439379e+2, 2.4162304e+2, -616105.7, -714817.4, 5670.807, 0.01830139, 0.009952163, -615780.94, -43675.188, 0.0, 5.0195055, 4.9549084 
7.437029e+2, 2.4657193e+2, -580391.5, -675803.9, 4933.5664, 0.016749458, 0.013530068, -580137.06, -56531.57, 0.0, 5.01547, 4.953151 
7.434673e+2, 2.5151962e+2, -542500.6, -631134.56, 4158.2813, 0.014757599, 0.00819783, -542306.0, -67189.086, 0.0, 5.0112653, 4.953429 
7.4323183e+2, 2.5646728e+2, -504928.78, -587195.44, 3511.0603, 0.012716993, 0.0027518857, -504779.22, -78151.05, 0.0, 5.0070586, 4.953428 
7.429968e+2, 2.6141512e+2, -467318.84, -543019.0, 3660.883, 0.0109325405, -0.001568478, -467142.22, -89004.195, 0.0, 5.002814, 4.953502 
7.427633e+2, 2.663631e+2, -432876.03, -505101.22, 3559.9773, 0.010321319, 0.010957064, -432701.0, -103054.336, 0.0, 4.9983892, 4.951403 
7.4252975e+2, 2.7131045e+2, -394773.2, -458101.97, 2340.5742, 0.0101187015, 0.008996647, -394686.8, -113525.125, 0.0, 4.993764, 4.9525867 
7.422963e+2, 2.7625778e+2, -358241.56, -414456.5, 1404.713, 0.009934453, 0.0060822787, -358206.5, -125529.67, 0.0, 4.989104, 4.9525824 
7.420631e+2, 2.81205e+2, -322003.94, -371391.53, 1431.9988, 0.009029142, 0.0030080285, -321962.47, -137769.25, 0.0, 4.9844246, 4.9523473 
7.418322e+2, 2.8615066e+2, -288729.38, -333992.4, 2913.5547, 0.005210079, 0.004450938, -288542.6, -152818.89, 0.0, 4.9795604, 4.950131 
7.416021e+2, 2.9109752e+2, -250620.05, -285297.72, 1759.9911, 0.0024410195, 0.0015927193, -250530.95, -163288.0, 0.0, 4.9745765, 4.9519744 
7.413721e+2, 2.960445e+2, -214876.94, -241762.39, 938.4837, -0.00040865442, -0.001537169, -214844.22, -176082.73, 0.0, 4.969551, 4.9519753 
7.411418e+2, 3.0099162e+2, -180093.72, -200285.81, -874.9232, -0.0057616476, 0.0016958653, -180055.88, -180055.88, 0.0, 4.964538, 4.951186 
7.4091333e+2, 3.0595115e+2, -136952.44, -107626.98, -916.4467, -0.0015896417, 0.0018145762, -107598.36, -107598.36, 0.0, 4.959614, 4.9777155 
7.406889e+2, 3.109225e+2, -147642.0, -106011.73, -1639.8536, 0.0017307949, -0.053129885, -105947.23, -105947.23, 0.0, 4.9545207, 4.9805174 
7.404647e+2, 3.158941e+2, -162547.33, -112625.35, -2201.6143, 0.005013666, -0.107777916, -112528.45, -112528.45, 0.0, 4.949144, 4.980479 
7.40234e+2, 3.208758e+2, -133505.23, -14003.287, -2648.2773, -0.05657127, -0.09705583, -13944.627, -13944.627, 0.0, 4.9429097, 5.018644 
7.54411e+2, 1.2792502e+2, -1454387.8, -1687086.4, 10499.926, -0.02160918, -0.004288876, -1453914.9, 232413.61, 0.0, 5.116274, 4.9605775 
7.5417656e+2, 1.3288003e+2, -1421175.6, -1646388.9, 10492.831, -0.010475217, -0.0047169793, -1420687.9, 217082.73, 0.0, 5.1110377, 4.9605618 
7.5394225e+2, 1.3783501e+2, -1387854.6, -1605523.6, 10493.311, 0.00036567563, -0.005118901, -1387350.0, 201862.94, 0.0, 5.105805, 4.960573 
7.537068e+2, 1.4279005e+2, -1354223.8, -1563935.9, 9730.359, 0.0040524825, -0.005576077, -1353773.3, 186880.88, 0.0, 5.100571, 4.9607806 
7.534704e+2, 1.477467e+2, -1317788.8, -1518769.3, 9250.9, 0.004251712, 0.001506181, -1317363.9, 174715.42, 0.0, 5.0958123, 4.961874 
7.5323445e+2, 1.52703e+2, -1282415.3, -1476784.3, 9256.048, 0.010240821, -0.0011661189, -1281975.4, 161532.45, 0.0, 5.0912514, 4.9618654 
7.5299853e+2, 1.5765929e+2, -1247003.0, -1434782.5, 9188.767, 0.016195202, -0.0037680878, -1246554.5, 148382.22, 0.0, 5.086694, 4.961837 
7.5276214e+2, 1.6261566e+2, -1211624.9, -1393108.8, 8643.588, 0.020720365, -0.004321196, -1211214.1, 135150.95, 0.0, 5.082186, 4.961654 
7.525251e+2, 1.6757207e+2, -1176363.8, -1352914.9, 8593.893, 0.022253288, 0.001927677, -1175946.5, 121847.21, 0.0, 5.0779586, 4.960798 
7.522878e+2, 1.7252752e+2, -1139373.4, -1309954.5, 8514.504, 0.021367168, 0.0026787564, -1138949.4, 110282.25, 0.0, 5.073884, 4.960793 
7.520506e+2, 1.7748296e+2, -1102322.1, -1266925.0, 8433.804, 0.02050248, 0.0034972013, -1101891.1, 98778.55, 0.0, 5.0698123, 4.9607887 
7.5181335e+2, 1.8243833e+2, -1065341.6, -1224285.0, 7869.314, 0.019576764, 0.00373067, -1064952.9, 87155.35, 0.0, 5.06577, 4.960626 
7.515756e+2, 1.8739305e+2, -1030125.2, -1185904.6, 7705.9824, 0.020026442, 0.008781946, -1029744.94, 73807.87, 0.0, 5.061845, 4.9589195 
7.5133795e+2, 1.9234629e+2, -992209.7, -1142339.6, 7473.196, 0.020897362, 0.0063328207, -991838.56, 63173.383, 0.0, 5.058017, 4.9589157 
7.511005e+2, 1.972995e+2, -954235.6, -1098708.5, 7239.3013, 0.02174994, 0.0038810067, -953873.75, 52597.44, 0.0, 5.054191, 4.9589124 
7.5086296e+2, 2.0225294e+2, -916204.5, -1055096.9, 6633.0996, 0.022310393, 0.0029171952, -915888.44, 42039.816, 0.0, 5.050376, 4.958885 
7.506244e+2, 2.0720592e+2, -881097.44, -1017775.6, 6058.002, 0.022151811, 0.010411615, -880829.44, 28560.436, 0.0, 5.046551, 4.956663 
7.503858e+2, 2.1215715e+2, -842929.75, -973935.5, 5666.0356, 0.021910999, 0.010200189, -842685.1, 18183.527, 0.0, 5.0427322, 4.9566603 
7.501473e+2, 2.1710838e+2, -804703.3, -930029.0, 5273.086, 0.021638611, 0.010056242, -804481.8, 7865.494, 0.0, 5.038916, 4.956658 
7.499089e+2, 2.2205965e+2, -766296.2, -885892.3, 4954.1743, 0.020729085, 0.009462398, -766091.3, -2265.8313, 0.0, 5.035122, 4.956704 
7.4966973e+2, 2.2701022e+2, -730960.4, -848607.2, 3808.2253, 0.01917671, 0.014858871, -730837.25, -15527.256, 0.0, 5.0313153, 4.954374 
7.494301e+2, 2.3195906e+2, -692724.1, -804355.9, 3335.0706, 0.017494878, 0.0124581475, -692624.56, -25813.174, 0.0, 5.0273995, 4.9544644 
7.491907e+2, 2.3690793e+2, -654538.5, -760304.56, 2826.0894, 0.01586068, 0.010034775, -654463.06, -36150.39, 0.0, 5.0234895, 4.954463 
7.489515e+2, 2.4185693e+2, -616135.4, -715714.6, 2745.4783, 0.014573955, 0.007560366, -616059.75, -46247.684, 0.0, 5.01956, 4.954634 
7.487124e+2, 2.4680543e+2, -580672.9, -677383.1, 1719.861, 0.013444472, 0.011146678, -580642.25, -59326.88, 0.0, 5.015536, 4.9526415 
7.4847263e+2, 2.5175267e+2, -542776.3, -632688.06, 979.1524, 0.0120061645, 0.0064412984, -542765.6, -69934.41, 0.0, 5.011329, 4.9529276 
7.48233e+2, 2.5669992e+2, -505201.2, -588744.1, 331.27704, 0.010502961, 0.0016508477, -505199.88, -80852.984, 0.0, 5.0071225, 4.9529276 
7.479938e+2, 2.6164734e+2, -467396.63, -544247.44, 549.1372, 0.008998593, -0.0021654807, -467392.72, -91531.71, 0.0, 5.0029006, 4.953102 
7.47756e+2, 2.6659492e+2, -432876.88, -506553.38, 342.094, 0.00800564, 0.010552635, -432875.3, -105501.26, 0.0, 4.998544, 4.950897 
7.4751776e+2, 2.7154168e+2, -394540.03, -459462.84, -651.4327, 0.007237174, 0.008405074, -394533.5, -115638.76, 0.0, 4.994008, 4.952071 
7.472797e+2, 2.7648842e+2, -357678.44, -415645.1, -1343.3192, 0.006484231, 0.005357829, -357647.3, -127231.72, 0.0, 4.989465, 4.952072 
7.4704206e+2, 2.8143507e+2, -320744.8, -371485.88, -1025.3092, 0.005510662, 0.0010344045, -320724.13, -138786.7, 0.0, 4.984884, 4.952179 
7.4680656e+2, 2.8638038e+2, -287148.66, -333921.22, 450.31854, 0.0027966364, 0.00061280176, -287144.34, -153673.34, 0.0, 4.98012, 4.9499846 
7.4657166e+2, 2.9132685e+2, -248753.89, -285134.1, -352.81128, 0.0011814047, -0.0030507524, -248750.47, -163757.3, 0.0, 4.975247, 4.9518123 
7.463369e+2, 2.9627338e+2, -212606.75, -241417.7, -808.50085, -0.00055168505, -0.0067979963, -212584.08, -176069.33, 0.0, 4.970366, 4.951814 
7.461016e+2, 3.012201e+2, -177367.94, -199636.58, -2215.1409, -0.0045140353, -0.0062990473, -177149.73, -177149.73, 0.0, 4.9655004, 4.95107 
7.4586844e+2, 3.0617955e+2, -134290.64, -108352.79, -2250.529, -0.0030768951, 0.005962472, -108158.97, -108158.97, 0.0, 4.9608026, 4.977022 
7.45639e+2, 3.111508e+2, -143577.81, -106098.72, -3381.2512, -0.0026904428, -0.036368813, -105796.12, -105796.12, 0.0, 4.956205, 4.979837 
7.4540985e+2, 3.1612197e+2, -156116.92, -111551.86, -4673.8174, -0.001123648, -0.08187199, -111066.97, -111066.97, 0.0, 4.9516377, 4.9798617 
7.451737e+2, 3.2111025e+2, -121709.73, -9660.268, -8222.805, -0.063848, 0.002414687, -9060.048, -9060.048, 0.0, 4.947145, 5.018702 
7.595217e+2, 1.2815858e+2, -1453383.6, -1686109.4, 6728.645, -0.021593103, -0.0007311602, -1453189.3, 230853.23, 0.0, 5.1163664, 4.9609327 
7.592821e+2, 1.3311394e+2, -1420129.5, -1645405.6, 6657.078, -0.010301592, -0.0012064943, -1419932.9, 215547.92, 0.0, 5.111146, 4.960913 
7.590426e+2, 1.3806926e+2, -1386815.1, -1604569.3, 6626.2715, 0.0008323343, -0.0015950424, -1386613.6, 200305.84, 0.0, 5.1059155, 4.9609156 
7.5880176e+2, 1.4302464e+2, -1353151.4, -1562896.4, 5975.6016, 0.0038802589, -0.00219232, -1352981.3, 185376.14, 0.0, 5.1006823, 4.961151 
7.585606e+2, 1.479816e+2, -1316895.3, -1517933.9, 5917.1226, 0.0037972615, 0.0045736693, -1316721.3, 173058.25, 0.0, 5.0959077, 4.962174 
7.5832003e+2, 1.5293817e+2, -1281571.6, -1475979.9, 5922.6196, 0.009978351, 0.0015576475, -1281391.4, 159814.1, 0.0, 5.09133, 4.962164 
7.5807965e+2, 1.5789472e+2, -1246266.1, -1434067.8, 5849.5493, 0.016083615, -0.0013496793, -1246084.1, 146547.56, 0.0, 5.0867424, 4.9621215 
7.5783867e+2, 1.6285138e+2, -1210888.9, -1392295.4, 5356.6646, 0.020447854, -0.001996531, -1210730.9, 133326.28, 0.0, 5.0822167, 4.9619794 
7.575973e+2, 1.6780798e+2, -1175914.8, -1352546.0, 5597.2163, 0.02181319, 0.0036514087, -1175737.5, 119745.875, 0.0, 5.077967, 4.9609766 
7.573559e+2, 1.7276356e+2, -1138799.9, -1309527.9, 5498.8936, 0.020564977, 0.0038457662, -1138622.9, 108296.95, 0.0, 5.0739365, 4.960972 
7.571147e+2, 1.7771912e+2, -1101762.0, -1266530.5, 5413.576, 0.019306153, 0.0041040126, -1101584.4, 96772.05, 0.0, 5.069865, 4.9609575 
7.5687337e+2, 1.8267462e+2, -1064797.4, -1223931.5, 4842.1504, 0.018049194, 0.004182456, -1064650.1, 85143.18, 0.0, 5.065825, 4.960782 
7.566316e+2, 1.8762946e+2, -1029870.2, -1186095.0, 4855.895, 0.018569889, 0.009742786, -1029719.4, 71517.25, 0.0, 5.0618916, 4.9588904 
7.5639015e+2, 1.9258268e+2, -991953.94, -1142532.1, 4621.8833, 0.01947153, 0.007660293, -991812.2, 60883.484, 0.0, 5.0580635, 4.958886 
7.561488e+2, 1.975359e+2, -953974.7, -1098893.6, 4390.115, 0.020327661, 0.0055715763, -953841.8, 50312.93, 0.0, 5.054239, 4.9588857 
7.559075e+2, 2.024893e+2, -915896.6, -1055205.1, 3719.407, 0.020944498, 0.0042534433, -915797.4, 39814.746, 0.0, 5.0504265, 4.9588842 
7.556651e+2, 2.0744205e+2, -881098.25, -1018539.6, 3203.747, 0.020803042, 0.010585021, -881023.6, 26052.1, 0.0, 5.0466003, 4.9564376 
7.554226e+2, 2.1239294e+2, -842927.4, -974698.0, 2810.73, 0.020583939, 0.009453498, -842867.44, 15689.889, 0.0, 5.042782, 4.9564347 
7.5518036e+2, 2.1734387e+2, -804697.8, -930790.0, 2416.7275, 0.020303454, 0.008388861, -804651.5, 5387.378, 0.0, 5.0389657, 4.956432 
7.549381e+2, 2.2229491e+2, -766167.25, -886418.7, 2084.6228, 0.0190332, 0.007563626, -766131.1, -4612.1265, 0.0, 5.0351763, 4.9565587 
7.5469506e+2, 2.2724523e+2, -731132.5, -849835.9, 883.6926, 0.016926082, 0.013009621, -731125.94, -18120.125, 0.0, 5.0313735, 4.9539857 
7.544514e+2, 2.321937e+2, -692853.94, -805505.8, 399.33316, 0.014620594, 0.010424975, -692852.5, -28341.766, 0.0, 5.027459, 4.954103 
7.54208e+2, 2.3714218e+2, -654662.56, -761451.6, -110.50338, 0.012339205, 0.007813389, -654662.5, -38646.95, 0.0, 5.02355, 4.9541016 
7.539649e+2, 2.420908e+2, -616263.7, -716845.2, -188.36067, 0.010918802, 0.005243498, -616263.3, -48744.953, 0.0, 5.019616, 4.954279 
7.537218e+2, 2.4703895e+2, -580877.75, -678806.06, -1493.4814, 0.010218615, 0.008930439, -580855.0, -61829.582, 0.0, 5.015604, 4.952187 
7.534779e+2, 2.5198573e+2, -543047.25, -634246.56, -2199.8206, 0.009319386, 0.004789929, -542994.25, -72448.6, 0.0, 5.011396, 4.952425 
7.532341e+2, 2.5693253e+2, -505468.9, -590297.8, -2848.3481, 0.008337037, 0.00058003713, -505373.38, -83307.65, 0.0, 5.007189, 4.9524255 
7.529908e+2, 2.618795e+2, -467468.3, -545369.56, -2635.114, 0.0070550707, -0.0027302282, -467379.28, -93795.17, 0.0, 5.0029664, 4.9527507 
7.527485e+2, 2.6682666e+2, -433192.22, -508333.84, -3092.2896, 0.0056590023, 0.01023943, -433065.2, -107963.62, 0.0, 4.998621, 4.950315 
7.5250566e+2, 2.717729e+2, -394775.13, -461076.6, -4116.74, 0.0043046526, 0.0077985344, -394520.5, -117892.69, 0.0, 4.9940853, 4.951547 
7.52263e+2, 2.7671912e+2, -357913.16, -417255.0, -4808.9253, 0.0029216246, 0.0045332154, -357525.97, -129371.79, 0.0, 4.989541, 4.9515495 
7.520209e+2, 2.816652e+2, -320664.56, -372355.9, -4425.735, 0.0019976902, -0.0009234295, -320288.38, -140607.48, 0.0, 4.984956, 4.951917 
7.517808e+2, 2.8661013e+2, -286817.03, -334364.56, -3345.5964, 0.00046733906, -0.0038522664, -286582.78, -155365.45, 0.0, 4.980205, 4.9498773 
7.515411e+2, 2.9155624e+2, -248523.19, -285784.1, -4085.1663, -0.00005228931, -0.009155336, -248080.56, -165338.45, 0.0, 4.9753275, 4.9516335 
7.513015e+2, 2.9650244e+2, -212384.9, -242069.5, -4518.0913, -0.0008493655, -0.014427759, -211712.47, -177446.22, 0.0, 4.9704432, 4.9516354 
7.5106144e+2, 3.014489e+2, -177577.52, -201555.11, -5945.2886, -0.0041586366, -0.012881652, -176184.33, -176184.33, 0.0, 4.9656253, 4.9504185 
7.508236e+2, 3.0640864e+2, -134644.2, -110741.12, -5844.555, -0.005634641, 0.0116866985, -109388.59, -109388.59, 0.0, 4.960927, 4.9762053 
7.5058925e+2, 3.1137997e+2, -144097.42, -108703.54, -6779.412, -0.009322973, -0.017974436, -107449.44, -107449.44, 0.0, 4.956294, 4.9789615 
7.5035506e+2, 3.1635138e+2, -156766.06, -114276.086, -7845.672, -0.012528462, -0.04928714, -112873.69, -112873.69, 0.0, 4.9516897, 4.9789653 
7.501138e+2, 3.2134667e+2, -131513.75, -32514.857, -9114.344, -0.08423115, 0.16132012, -31682.738, -31682.738, 0.0, 4.9470644, 5.01058 
7.646327e+2, 1.2839513e+2, -1453471.6, -1684692.5, 9297.806, -0.018095315, 0.0028223107, -1453098.3, 228628.75, 0.0, 5.1160607, 4.96153 
7.6438767e+2, 1.3335057e+2, -1419796.9, -1643816.0, 9195.636, -0.008459773, 0.0013763707, -1419420.0, 213744.1, 0.0, 5.1109915, 4.9614987 
7.641429e+2, 1.38306e+2, -1386205.8, -1602921.4, 8967.814, 0.0014195816, 0.000080746875, -1385835.4, 198766.13, 0.0, 5.1058693, 4.961473 
7.6389664e+2, 1.4326154e+2, -1352131.0, -1560972.8, 8274.081, 0.0032266243, -0.00070012745, -1351803.8, 184233.86, 0.0, 5.1007643, 4.961741 
7.636508e+2, 1.482187e+2, -1315574.1, -1516023.4, 8392.5205, 0.0026268025, 0.006280303, -1315223.4, 172234.33, 0.0, 5.0961447, 4.962682 
7.634057e+2, 1.5317543e+2, -1279710.9, -1473837.5, 8200.416, 0.0089227855, 0.0034431044, -1279365.1, 159516.97, 0.0, 5.0917583, 4.962664 
7.6316077e+2, 1.5813215e+2, -1243869.5, -1431703.3, 7932.5728, 0.015281844, 0.00075349014, -1243535.1, 146771.4, 0.0, 5.0873604, 4.9626126 
7.629154e+2, 1.6308893e+2, -1208045.0, -1389784.3, 7324.0664, 0.019737408, -0.000064642394, -1207750.4, 133980.3, 0.0, 5.0829964, 4.962449 
7.6266974e+2, 1.6804557e+2, -1172974.6, -1350327.8, 7608.5127, 0.02105412, 0.004990226, -1172648.8, 120507.66, 0.0, 5.0788603, 4.9612937 
7.6242423e+2, 1.7300108e+2, -1135872.8, -1307360.9, 7297.7603, 0.019577736, 0.0045961617, -1135562.8, 109030.33, 0.0, 5.0748267, 4.9612794 
7.621789e+2, 1.779566e+2, -1098681.9, -1264354.4, 6960.5645, 0.018089699, 0.0042528734, -1098389.9, 97639.85, 0.0, 5.0708156, 4.9612465 
7.619334e+2, 1.829121e+2, -1061646.5, -1221753.1, 6157.424, 0.016588094, 0.004306966, -1061410.0, 86056.484, 0.0, 5.066801, 4.9610662 
7.6168776e+2, 1.8786691e+2, -1026943.1, -1184438.3, 6135.041, 0.01709937, 0.01035416, -1026704.5, 72205.49, 0.0, 5.0628786, 4.9589925 
7.614424e+2, 1.9282003e+2, -989020.0, -1140912.9, 5673.372, 0.018038174, 0.008607291, -988808.4, 61561.75, 0.0, 5.0590544, 4.95898 
7.6119727e+2, 1.9777313e+2, -951071.75, -1097305.1, 5212.856, 0.018983891, 0.0068332506, -950886.2, 50944.117, 0.0, 5.055215, 4.9589815 
7.609521e+2, 2.0272635e+2, -913049.4, -1053741.6, 4258.252, 0.019675288, 0.005235807, -912920.6, 40368.492, 0.0, 5.0513945, 4.9589477 
7.6070577e+2, 2.0767875e+2, -878532.06, -1017683.9, 3555.8328, 0.019449964, 0.010657481, -878441.3, 26314.38, 0.0, 5.0475636, 4.9562974 
7.6045954e+2, 2.1262926e+2, -840422.2, -973902.06, 2909.4702, 0.01921047, 0.00876548, -840358.8, 15882.212, 0.0, 5.0437236, 4.9562893 
7.602134e+2, 2.1757978e+2, -802345.7, -930153.4, 2284.057, 0.018948704, 0.006931979, -802304.9, 5421.2563, 0.0, 5.0398655, 4.9562564 
7.599673e+2, 2.225305e+2, -763864.06, -885570.8, 1641.99, 0.017374493, 0.005943655, -763841.94, -4632.864, 0.0, 5.0360036, 4.956495 
7.5972027e+2, 2.2748047e+2, -729358.44, -849840.0, 153.87405, 0.014799234, 0.011317823, -729358.25, -18659.146, 0.0, 5.032125, 4.953669 
7.594727e+2, 2.3242849e+2, -691309.8, -805615.56, -612.58673, 0.011943159, 0.008433066, -691306.56, -29098.268, 0.0, 5.0281205, 4.9537964 
7.592253e+2, 2.3737654e+2, -653411.25, -761732.6, -1399.0049, 0.009083161, 0.00553873, -653393.2, -39675.953, 0.0, 5.0241075, 4.9537873 
7.5897825e+2, 2.4232477e+2, -615318.8, -717337.0, -1750.1205, 0.007621806, 0.0030584827, -615288.8, -50064.934, 0.0, 5.020072, 4.953942 
7.5873107e+2, 2.4727249e+2, -580223.75, -679641.25, -3583.2595, 0.00724144, 0.006907647, -580094.75, -63359.82, 0.0, 5.015978, 4.9517784 
7.58483e+2, 2.522188e+2, -542759.06, -635410.3, -4547.1914, 0.006804348, 0.003246136, -542536.44, -74276.586, 0.0, 5.011665, 4.951953 
7.5823504e+2, 2.5716513e+2, -505502.03, -591638.7, -5480.915, 0.0062894034, -0.00048090352, -505154.7, -85370.15, 0.0, 5.007342, 4.951947 
7.5798756e+2, 2.6211172e+2, -467687.78, -546691.9, -5479.391, 0.0051439246, -0.0032545086, -467309.56, -96002.266, 0.0, 5.0030246, 4.952325 
7.5774086e+2, 2.670584e+2, -433540.56, -509912.22, -6286.4165, 0.0033005131, 0.009999653, -433026.56, -110197.31, 0.0, 4.998657, 4.9498153 
7.574935e+2, 2.720041e+2, -395109.1, -462682.56, -7358.5654, 0.0013259145, 0.0071707624, -394317.06, -119955.97, 0.0, 4.99413, 4.951035 
7.572462e+2, 2.7694976e+2, -358239.78, -418858.6, -8068.484, -0.0007039187, 0.0035913656, -357184.25, -131291.22, 0.0, 4.989587, 4.9510374 
7.5699955e+2, 2.8189534e+2, -320590.28, -373071.47, -7689.945, -0.001364371, -0.002907596, -319486.72, -142062.22, 0.0, 4.9850044, 4.9517164 
7.567549e+2, 2.8683984e+2, -286658.66, -335010.03, -6918.0454, -0.0016596601, -0.008979965, -285688.3, -156724.3, 0.0, 4.9802647, 4.949703 
7.5651044e+2, 2.917856e+2, -248374.0, -286439.28, -7675.074, -0.0010819329, -0.016625138, -246884.75, -166393.16, 0.0, 4.975382, 4.9514594 
7.5626606e+2, 2.967314e+2, -212266.13, -242743.78, -8115.9326, -0.0009395827, -0.024116201, -210239.66, -178221.22, 0.0, 4.9704857, 4.9514604 
7.5602126e+2, 3.016778e+2, -178503.9, -204855.45, -9439.986, -0.0043265773, -0.016019918, -175471.22, -175471.22, 0.0, 4.965706, 4.949286 
7.5577855e+2, 3.066378e+2, -135224.27, -113298.6, -9395.587, -0.008382101, 0.017572535, -109823.266, -109823.266, 0.0, 4.96099, 4.9753413 
7.5553924e+2, 3.1160912e+2, -144860.05, -111404.08, -10096.2295, -0.015575136, -0.0058397297, -108593.4, -108593.4, 0.0, 4.9563007, 4.978075 
7.5530005e+2, 3.165806e+2, -157711.27, -117122.49, -10946.705, -0.022974398, -0.02936555, -114358.42, -114358.42, 0.0, 4.9516406, 4.9780564 
7.550549e+2, 3.2156736e+2, -133235.66, -34933.746, -8781.911, -0.09268789, 0.11489177, -34155.367, -34155.367, 0.0, 4.9466133, 5.009912 
7.697437e+2, 1.2864476e+2, -1448396.5, -1678754.4, 15617.517, -0.014722858, 0.006102037, -1447342.5, 231940.84, 0.0, 5.117507, 4.9626136 
7.694933e+2, 1.3360049e+2, -1415323.3, -1638134.3, 15762.212, -0.0064897086, 0.0033846209, -1414213.8, 216503.45, 0.0, 5.112232, 4.962594 
7.692431e+2, 1.385562e+2, -1382192.8, -1597455.9, 15822.573, 0.0016959496, 0.0008044339, -1381036.0, 201115.44, 0.0, 5.1069613, 4.9625654 
7.689916e+2, 1.4351209e+2, -1348445.6, -1555515.3, 15657.744, 0.0018552184, -0.0002882934, -1347268.4, 186315.5, 0.0, 5.101728, 4.962887 
7.68741e+2, 1.4846966e+2, -1312265.3, -1510866.8, 16579.732, 0.0007610322, 0.0069206757, -1310890.6, 174109.33, 0.0, 5.0970445, 4.9637446 
7.6849157e+2, 1.5342672e+2, -1276363.3, -1468609.0, 16725.383, 0.007017923, 0.004307973, -1274919.0, 161501.94, 0.0, 5.092676, 4.96374 
7.682423e+2, 1.5838377e+2, -1240423.4, -1426362.9, 16799.49, 0.013246567, 0.0018434933, -1238917.8, 148924.36, 0.0, 5.0883145, 4.9637065 
7.6799256e+2, 1.6334082e+2, -1204501.9, -1384368.3, 16596.709, 0.017758904, 0.0006703917, -1202983.3, 136280.11, 0.0, 5.0839996, 4.963539 
7.67743e+2, 1.6829756e+2, -1169500.8, -1345232.6, 17552.348, 0.019166758, 0.0051869457, -1167764.8, 122922.83, 0.0, 5.079939, 4.962228 
7.674936e+2, 1.7325313e+2, -1131839.1, -1301946.0, 17564.215, 0.017574348, 0.004326612, -1130044.5, 112078.984, 0.0, 5.076106, 4.962226 
7.6724434e+2, 1.7820868e+2, -1094151.9, -1258663.4, 17564.443, 0.015957994, 0.0035173106, -1092297.5, 101262.11, 0.0, 5.0722756, 4.962201 
7.669949e+2, 1.8316425e+2, -1056614.8, -1215799.8, 17080.63, 0.014202985, 0.003600942, -1054802.6, 90192.96, 0.0, 5.0684476, 4.9620204 
7.667454e+2, 1.8811905e+2, -1021724.44, -1178749.0, 17589.525, 0.014553064, 0.010001058, -1019778.25, 76660.92, 0.0, 5.0646963, 4.9597664 
7.664964e+2, 1.9307204e+2, -983223.0, -1134910.8, 17432.793, 0.015382876, 0.00859026, -981245.3, 66655.1, 0.0, 5.0610795, 4.959765 
7.662475e+2, 1.9802502e+2, -944636.6, -1090949.5, 17277.383, 0.016265126, 0.007143936, -942624.1, 56737.676, 0.0, 5.0574656, 4.9597836 
7.659986e+2, 2.0297806e+2, -905941.94, -1047045.75, 16619.621, 0.016898017, 0.0052800155, -904010.9, 46811.355, 0.0, 5.0538883, 4.9597554 
7.6574856e+2, 2.079301e+2, -871094.1, -1011305.56, 16326.58, 0.016406737, 0.009892824, -869218.1, 33073.98, 0.0, 5.0502877, 4.956885 
7.654985e+2, 2.128801e+2, -832297.9, -967181.9, 15980.106, 0.01593245, 0.0074265795, -830430.5, 23351.322, 0.0, 5.046695, 4.9568834 
7.6524866e+2, 2.1783017e+2, -793457.6, -923018.44, 15652.075, 0.015514861, 0.005120238, -791593.5, 13677.829, 0.0, 5.043104, 4.9568753 
7.649989e+2, 2.2278042e+2, -754227.5, -878045.7, 15274.835, 0.013962737, 0.003656753, -752370.94, 4387.491, 0.0, 5.039506, 4.957134 
7.64748e+2, 2.2772987e+2, -719376.7, -842648.25, 14029.402, 0.011612455, 0.009017909, -717800.1, -9546.726, 0.0, 5.0358467, 4.9540954 
7.644965e+2, 2.3267725e+2, -680822.6, -798207.5, 13505.537, 0.009085098, 0.0060855444, -679288.8, -19519.947, 0.0, 5.0320306, 4.95422 
7.6424515e+2, 2.3762462e+2, -642433.94, -754207.2, 12967.985, 0.006583876, 0.0031744689, -640949.1, -29664.96, 0.0, 5.0282183, 4.9541683 
7.639943e+2, 2.4257223e+2, -603646.0, -709267.06, 12880.328, 0.005258357, 0.0011270188, -602097.94, -39301.074, 0.0, 5.0243893, 4.9544277 
7.6374286e+2, 2.4751927e+2, -568424.5, -672095.75, 11022.04, 0.004858964, 0.005582504, -567265.6, -52950.75, 0.0, 5.0204377, 4.9520316 
7.634905e+2, 2.5246474e+2, -530732.8, -627839.7, 10248.056, 0.00442819, 0.0025096317, -529663.1, -63814.875, 0.0, 5.01622, 4.952182 
7.632382e+2, 2.5741023e+2, -493183.4, -583959.4, 9494.499, 0.0040390333, -0.00071410503, -492200.97, -74819.53, 0.0, 5.0120044, 4.952176 
7.629864e+2, 2.623559e+2, -455329.66, -539004.7, 9542.445, 0.002839819, -0.0037713575, -454255.22, -85342.055, 0.0, 5.007701, 4.952563 
7.627352e+2, 2.6730168e+2, -421607.56, -502370.34, 8307.103, 0.0007203089, 0.008558092, -420761.97, -100317.695, 0.0, 5.0031424, 4.950107 
7.62483e+2, 2.7224633e+2, -384272.2, -455977.72, 6838.1064, -0.001445318, 0.0050194776, -383625.9, -111639.98, 0.0, 4.9982743, 4.9512053 
7.6223093e+2, 2.7719104e+2, -348377.6, -412684.63, 5735.6543, -0.0036068407, 0.0009866342, -347870.03, -124342.625, 0.0, 4.9933844, 4.9511914 
7.619797e+2, 2.8213584e+2, -311368.44, -366773.22, 5643.6836, -0.00353078, -0.0050168424, -310799.38, -135733.06, 0.0, 4.988479, 4.9520755 
7.6173025e+2, 2.870797e+2, -278163.4, -329087.38, 5612.5474, -0.0027750968, -0.011840295, -277552.16, -150940.17, 0.0, 4.983468, 4.9500647 
7.6148075e+2, 2.9202464e+2, -240882.75, -281065.63, 4165.7725, -0.0008632479, -0.021347819, -240455.42, -162308.64, 0.0, 4.978229, 4.9518013 
7.612314e+2, 2.969696e+2, -205852.86, -237879.63, 3155.8728, 0.00091686676, -0.031570576, -205544.84, -175863.67, 0.0, 4.9729424, 4.951804 
7.609816e+2, 3.0191544e+2, -174062.63, -202768.1, 2194.5732, -0.0030266081, -0.017055104, -173895.83, -173895.83, 0.0, 4.967818, 4.9487915 
7.6073396e+2, 3.0687538e+2, -131109.02, -110361.55, 1482.2697, -0.00986464, 0.021243839, -110256.18, -110256.18, 0.0, 4.962777, 4.975322 
7.604894e+2, 3.1184646e+2, -142340.0, -109241.86, 648.7899, -0.019185781, 0.00020781765, -109229.15, -109229.15, 0.0, 4.957523, 4.9780207 
7.602451e+2, 3.1681773e+2, -157357.27, -115976.02, -281.4425, -0.028130382, -0.02090743, -115974.11, -115974.11, 0.0, 4.9520974, 4.9779663 
7.599976e+2, 3.2178083e+2, -116554.26, 8619.591, 983.79376, -0.06931273, -0.1947836, 8627.323, 8627.323, 0.0, 4.9460506, 5.025651 
7.748552e+2, 1.2889978e+2, -1447045.1, -1677119.0, 11762.973, -0.011423829, 0.0105037205, -1446445.3, 230341.31, 0.0, 5.1175966, 4.9631968 
7.7459943e+2, 1.3385595e+2, -1413973.6, -1636503.9, 11913.534, -0.004621104, 0.0064590843, -1413337.6, 214878.1, 0.0, 5.1123223, 4.9631767 
7.743438e+2, 1.3881211e+2, -1380872.5, -1595896.3, 11939.923, 0.0018534096, 0.0025987085, -1380211.6, 199433.75, 0.0, 5.107052, 4.9631257 
7.7408683e+2, 1.4376855e+2, -1347072.4, -1553830.0, 11987.912, 0.00029183787, 0.0013730644, -1346379.6, 184692.52, 0.0, 5.101821, 4.963487 
7.738316e+2, 1.4872669e+2, -1311158.8, -1509475.9, 13363.217, -0.0012854207, 0.00878968, -1310262.4, 172220.28, 0.0, 5.097109, 4.9642463 
7.735778e+2, 1.5368426e+2, -1275261.3, -1467221.6, 13509.3125, 0.0049173366, 0.0063161743, -1274315.3, 159583.22, 0.0, 5.0927396, 4.964242 
7.7332413e+2, 1.5864183e+2, -1239325.6, -1424982.4, 13579.32, 0.010984132, 0.0039796084, -1238337.6, 146976.84, 0.0, 5.0883784, 4.964207 
7.730701e+2, 1.6359931e+2, -1203455.0, -1383056.3, 13439.622, 0.015608871, 0.0023837478, -1202454.9, 134276.31, 0.0, 5.0840597, 4.9640183 
7.728165e+2, 1.6855639e+2, -1168779.9, -1344447.1, 14708.614, 0.01713482, 0.0063011833, -1167556.8, 120595.164, 0.0, 5.0799823, 4.9625287 
7.725632e+2, 1.7351219e+2, -1131119.3, -1301163.8, 14719.798, 0.015422932, 0.0048943935, -1129854.5, 109730.76, 0.0, 5.07615, 4.962527 
7.7231014e+2, 1.7846799e+2, -1093451.8, -1257924.6, 14713.5625, 0.0136269685, 0.0035708726, -1092145.9, 98872.89, 0.0, 5.0723195, 4.9624877 
7.720568e+2, 1.8342385e+2, -1055926.5, -1215095.3, 14190.56, 0.011539837, 0.0037338585, -1054671.3, 87780.445, 0.0, 5.068493, 4.962297 
7.718035e+2, 1.8837881e+2, -1021365.2, -1178660.9, 14899.359, 0.011760143, 0.010386964, -1019966.4, 73927.195, 0.0, 5.064732, 4.959832 
7.715509e+2, 1.933319e+2, -982863.94, -1134824.8, 14742.014, 0.012475186, 0.009227287, -981447.0, 63906.98, 0.0, 5.061116, 4.95983 
7.712984e+2, 1.9828495e+2, -944268.1, -1090847.1, 14587.457, 0.0132159665, 0.008010432, -942830.44, 53984.0, 0.0, 5.0575027, 4.9598546 
7.710459e+2, 2.0323801e+2, -905567.06, -1046952.9, 13893.675, 0.013697751, 0.0056983996, -904214.7, 44059.76, 0.0, 5.0539284, 4.959823 
7.707922e+2, 2.0818989e+2, -871048.25, -1011918.0, 13651.713, 0.012970925, 0.009410945, -869737.44, 30008.082, 0.0, 5.0503263, 4.956711 
7.7053857e+2, 2.1313967e+2, -832248.56, -967791.7, 13305.334, 0.0121975755, 0.0062376806, -830954.8, 20282.596, 0.0, 5.046735, 4.95671 
7.70285e+2, 2.1808946e+2, -793382.1, -923573.7, 12970.828, 0.01144242, 0.0032419804, -792102.44, 10626.573, 0.0, 5.0431437, 4.9567204 
7.700317e+2, 2.2303952e+2, -754161.9, -878671.06, 12543.271, 0.0098947985, 0.0012486029, -752910.8, 1307.1174, 0.0, 5.0395513, 4.956954 
7.697771e+2, 2.279887e+2, -719515.44, -843788.94, 11186.034, 0.00785179, 0.006634353, -718516.6, -12801.235, 0.0, 5.035898, 4.9537377 
7.6952183e+2, 2.3293568e+2, -680993.8, -799427.94, 10657.576, 0.0057738596, 0.0037924906, -680042.4, -22808.066, 0.0, 5.0320826, 4.9538336 
7.692667e+2, 2.3788269e+2, -642574.2, -755365.2, 10130.324, 0.0036666805, 0.0010023527, -641671.56, -32918.42, 0.0, 5.0282707, 4.953803 
7.69012e+2, 2.4282995e+2, -603870.0, -710590.9, 9958.999, 0.0023364834, -0.00055246655, -602948.56, -42679.316, 0.0, 5.024437, 4.9540057 
7.687565e+2, 2.477766e+2, -568823.3, -673932.9, 7869.364, 0.0019517235, 0.004847678, -568237.44, -56445.914, 0.0, 5.020497, 4.951434 
7.684999e+2, 2.5272152e+2, -531148.7, -629733.7, 7081.1377, 0.001295959, 0.0025225615, -530642.7, -67312.12, 0.0, 5.016281, 4.9515634 
7.6824343e+2, 2.5766644e+2, -493560.66, -585775.5, 6315.606, 0.000637825, 0.000038643975, -493130.13, -78260.69, 0.0, 5.012066, 4.951584 
7.6798743e+2, 2.6261142e+2, -455507.9, -540497.1, 6406.016, -0.0009446359, -0.004256497, -455027.78, -88619.86, 0.0, 5.0077868, 4.9520717 
7.6773155e+2, 2.675564e+2, -421634.9, -504067.44, 4998.556, -0.003207038, 0.0054367925, -421332.9, -103386.32, 0.0, 5.003321, 4.9495106 
7.674746e+2, 2.7250025e+2, -384000.78, -457582.63, 3797.8433, -0.0054087993, -0.00006784705, -383805.28, -114308.87, 0.0, 4.998572, 4.950586 
7.6721776e+2, 2.774441e+2, -347752.63, -414104.2, 2982.7002, -0.0076177153, -0.0059090853, -347618.8, -126572.766, 0.0, 4.9938083, 4.950578 
7.6696193e+2, 2.8238845e+2, -310282.84, -367688.16, 3182.8938, -0.006327056, -0.009752091, -310106.9, -137517.81, 0.0, 4.9890175, 4.951584 
7.667078e+2, 2.873322e+2, -276982.53, -330309.47, 3039.0203, -0.0037478276, -0.010600371, -276809.9, -152673.8, 0.0, 4.9840975, 4.9494305 
7.664533e+2, 2.9227695e+2, -239398.33, -282109.6, 1740.3219, 0.000029738781, -0.014904763, -239327.53, -163653.83, 0.0, 4.978959, 4.9511847 
7.66199e+2, 2.9722166e+2, -203991.47, -238729.13, 881.44586, 0.003692978, -0.020401612, -203969.11, -176757.75, 0.0, 4.9738026, 4.951198 
7.65944e+2, 3.021664e+2, -171245.67, -202116.39, 694.4157, -0.0010836036, -0.012185566, -171230.06, -171230.06, 0.0, 4.9688053, 4.9486694 
7.6569134e+2, 3.0712497e+2, -127838.945, -109482.445, -153.84842, -0.010805858, 0.018855676, -109481.16, -109481.16, 0.0, 4.963901, 4.9752526 
7.654415e+2, 3.120951e+2, -138404.78, -108353.1, -814.1802, -0.022705074, -0.0043315026, -108331.055, -108331.055, 0.0, 4.9589386, 4.9778247 
7.6519185e+2, 3.1706542e+2, -151998.78, -114436.73, -1701.6946, -0.033769373, -0.027349558, -114359.8, -114359.8, 0.0, 4.9540057, 4.9777875 
7.649415e+2, 3.2203788e+2, -110640.12, 8689.447, -5206.5273, -0.04738602, -0.10021707, 8916.186, 8916.186, 0.0, 4.9485006, 5.0248704 
7.799666e+2, 1.2915486e+2, -1445793.8, -1675512.3, 8234.905, -0.008094999, 0.0145203285, -1445498.9, 228790.38, 0.0, 5.1176577, 4.9637837 
7.797054e+2, 1.3411146e+2, -1412425.3, -1634758.9, 8304.235, -0.002790819, 0.0092032775, -1412115.5, 213598.28, 0.0, 5.1124864, 4.9637623 
7.7944434e+2, 1.3906805e+2, -1379480.9, -1594261.1, 8228.768, 0.0023249732, 0.0041900054, -1379166.0, 197972.69, 0.0, 5.1071653, 4.9637017 
7.79182e+2, 1.4402506e+2, -1345690.8, -1552197.1, 8379.249, -0.001014081, 0.003079979, -1345351.3, 183208.64, 0.0, 5.1019344, 4.9640613 
7.789221e+2, 1.4898375e+2, -1309909.0, -1508009.6, 10200.881, -0.0032342183, 0.010714077, -1309385.1, 170579.73, 0.0, 5.0972257, 4.9647493 
7.786639e+2, 1.5394185e+2, -1274036.4, -1465772.9, 10356.662, 0.002845083, 0.008327769, -1273478.6, 157897.0, 0.0, 5.092849, 4.964744 
7.7840585e+2, 1.5889992e+2, -1238183.0, -1423607.4, 10399.119, 0.008735225, 0.00603709, -1237601.6, 145184.92, 0.0, 5.088465, 4.9646964 
7.781474e+2, 1.6385783e+2, -1202436.6, -1381787.6, 10319.329, 0.01352162, 0.0040250868, -1201844.9, 132353.94, 0.0, 5.084117, 4.9644856 
7.7788985e+2, 1.6881523e+2, -1168105.6, -1343689.6, 11876.617, 0.015166084, 0.0073696976, -1167306.0, 118310.21, 0.0, 5.080011, 4.9628286 
7.776328e+2, 1.7377128e+2, -1130474.6, -1300423.1, 11885.398, 0.013319057, 0.0054035275, -1129647.4, 107399.44, 0.0, 5.0761685, 4.9628263 
7.773758e+2, 1.787273e+2, -1092751.4, -1257196.8, 11845.286, 0.011325843, 0.0035808731, -1091902.5, 96575.09, 0.0, 5.0723658, 4.9627714 
7.7711856e+2, 1.8368344e+2, -1055254.9, -1214437.8, 11323.161, 0.008875482, 0.0039262995, -1054453.4, 85454.336, 0.0, 5.06854, 4.962558 
7.7686155e+2, 1.886386e+2, -1021002.8, -1178576.3, 12210.249, 0.008984916, 0.010825619, -1020062.25, 71285.56, 0.0, 5.06477, 4.9598966 
7.7660537e+2, 1.9359174e+2, -982501.6, -1134742.1, 12052.291, 0.009585143, 0.009889449, -981553.44, 61253.95, 0.0, 5.0611544, 4.959894 
7.763492e+2, 1.985449e+2, -943898.4, -1090753.4, 11902.048, 0.010186809, 0.008863755, -942940.0, 51327.035, 0.0, 5.057542, 4.959923 
7.76093e+2, 2.0349796e+2, -905209.6, -1046907.8, 11165.85, 0.010512065, 0.0060549905, -904335.1, 41391.543, 0.0, 5.053971, 4.9598746 
7.7583563e+2, 2.0844969e+2, -870999.1, -1012533.44, 10977.368, 0.009532426, 0.008872218, -870152.75, 27046.164, 0.0, 5.050368, 4.956536 
7.7557844e+2, 2.1339922e+2, -832196.0, -968404.5, 10631.086, 0.008437002, 0.004952097, -831371.25, 17321.734, 0.0, 5.0467763, 4.9565353 
7.753213e+2, 2.1834876e+2, -793309.25, -924146.75, 10297.133, 0.007338725, 0.001226064, -792503.8, 7682.9634, 0.0, 5.0431857, 4.956559 
7.7506435e+2, 2.2329862e+2, -754121.94, -879363.06, 9806.35, 0.0059235333, -0.0010922743, -753358.75, -1681.3898, 0.0, 5.0395985, 4.956752 
7.74806e+2, 2.2824752e+2, -719643.75, -844918.25, 8340.629, 0.0041915276, 0.0043547144, -719090.9, -15913.544, 0.0, 5.0359516, 4.953384 
7.74547e+2, 2.3319414e+2, -681161.7, -800651.8, 7809.9067, 0.0025350282, 0.0015549407, -680653.4, -25953.541, 0.0, 5.032137, 4.9534464 
7.7428806e+2, 2.3814076e+2, -642725.75, -756558.06, 7295.9385, 0.0007758698, -0.0011502556, -642260.06, -36037.87, 0.0, 5.0283256, 4.9534254 
7.7402955e+2, 2.4308768e+2, -604030.2, -711793.94, 7000.019, -0.00053945364, -0.002123914, -603577.4, -45835.598, 0.0, 5.0244875, 4.953627 
7.737701e+2, 2.4803391e+2, -569297.5, -675944.75, 4736.278, -0.0009326205, 0.0042535663, -569087.56, -59819.22, 0.0, 5.0205584, 4.950776 
7.735092e+2, 2.5297827e+2, -531560.06, -631632.4, 3914.657, -0.0018406801, 0.0026013476, -531407.2, -70594.09, 0.0, 5.0163445, 4.9509435 
7.732485e+2, 2.5792265e+2, -493949.44, -587632.2, 3152.9517, -0.00279475, 0.0007479454, -493843.44, -81485.734, 0.0, 5.0121303, 4.9509773 
7.7298814e+2, 2.6286694e+2, -455611.94, -541697.3, 3154.7397, -0.0046986598, -0.0049615297, -455496.47, -91593.46, 0.0, 5.0078454, 4.951698 
7.727278e+2, 2.6781112e+2, -422103.06, -506268.53, 1415.6948, -0.0071421866, 0.0021662454, -422079.25, -106630.04, 0.0, 5.0033975, 4.948787 
7.7246606e+2, 2.7275413e+2, -384345.16, -459521.38, 200.13791, -0.009407547, -0.0054358914, -384344.63, -117337.56, 0.0, 4.998649, 4.9499545 
7.7220446e+2, 2.7769715e+2, -348127.63, -416116.06, -634.1589, -0.011708889, -0.013168191, -348121.72, -129557.12, 0.0, 4.993885, 4.9499207 
7.7194405e+2, 2.826412e+2, -310641.66, -369629.88, -405.66327, -0.009014892, -0.013865332, -310638.84, -140528.11, 0.0, 4.9890904, 4.950948 
7.716851e+2, 2.8758493e+2, -277246.2, -332171.03, -892.03937, -0.0045595244, -0.008880376, -277231.72, -155573.06, 0.0, 4.9841805, 4.9488273 
7.7142566e+2, 2.9252955e+2, -239721.08, -284128.25, -2209.0024, 0.0010438643, -0.007843883, -239611.47, -166413.36, 0.0, 4.979042, 4.9505253 
7.7116644e+2, 2.9747412e+2, -204315.19, -240741.53, -3050.2454, 0.0063623204, -0.007939311, -204061.53, -179323.92, 0.0, 4.973883, 4.95054 
7.709064e+2, 3.0241778e+2, -170817.05, -202855.94, -2863.7961, 0.00003343974, -0.00547408, -170563.08, -170563.08, 0.0, 4.968955, 4.948439 
7.7064866e+2, 3.0737484e+2, -127392.99, -110382.086, -3885.0964, -0.012264181, 0.014048447, -109536.78, -109536.78, 0.0, 4.964059, 4.974982 
7.703936e+2, 3.1234366e+2, -138045.92, -109375.945, -4382.3584, -0.027335884, -0.017016133, -108721.04, -108721.04, 0.0, 4.959077, 4.9775214 
7.701387e+2, 3.1731275e+2, -151708.75, -115528.836, -5099.8584, -0.042453177, -0.046782695, -114823.71, -114823.71, 0.0, 4.954123, 4.977472 
7.698857e+2, 3.2229543e+2, -119294.65, -12071.607, -7775.095, -0.031794626, 0.035226855, -11510.744, -11510.744, 0.0, 4.9484987, 5.017449 
7.850773e+2, 1.2941322e+2, -1446973.4, -1674139.1, 10874.068, -0.007862587, 0.016118554, -1446454.1, 225304.75, 0.0, 5.116865, 4.964602 
7.8481096e+2, 1.3437009e+2, -1413328.3, -1633250.6, 10855.611, -0.0017444455, 0.009682619, -1412793.6, 210386.83, 0.0, 5.111791, 4.9645805 
7.845448e+2, 1.3932696e+2, -1379644.3, -1592465.5, 10702.95, 0.0043690596, 0.0037837182, -1379107.4, 195494.83, 0.0, 5.106746, 4.9644847 
7.8427714e+2, 1.4428438e+2, -1345107.4, -1549852.5, 11146.151, -0.0004548362, 0.0028848706, -1344502.4, 181517.02, 0.0, 5.101741, 4.9649215 
7.840126e+2, 1.4924347e+2, -1308961.3, -1505737.5, 13236.212, -0.0039238962, 0.011084511, -1308075.0, 169345.38, 0.0, 5.0972357, 4.965482 
7.837501e+2, 1.5420191e+2, -1272334.4, -1463174.4, 13152.223, 0.00151393, 0.0090586245, -1271432.3, 157395.4, 0.0, 5.093124, 4.9654665 
7.8348774e+2, 1.5916029e+2, -1235813.4, -1420794.8, 13019.093, 0.0069968607, 0.0069156433, -1234901.6, 145333.86, 0.0, 5.08899, 4.965379 
7.83225e+2, 1.6411848e+2, -1199577.1, -1378849.0, 12766.228, 0.011906213, 0.004742395, -1198672.6, 132972.39, 0.0, 5.0848308, 4.965128 
7.829634e+2, 1.6907603e+2, -1165210.1, -1341097.8, 14443.082, 0.013313349, 0.007880396, -1164032.0, 119028.836, 0.0, 5.080829, 4.963301 
7.8270245e+2, 1.7403215e+2, -1127312.9, -1297739.4, 14208.655, 0.011212487, 0.005773451, -1126136.4, 108354.1, 0.0, 5.0770826, 4.963291 
7.824417e+2, 1.7898828e+2, -1089633.8, -1254608.6, 13942.376, 0.009093234, 0.00387162, -1088463.8, 97456.41, 0.0, 5.073274, 4.963213 
7.8218055e+2, 1.8394452e+2, -1051982.9, -1211831.3, 13175.585, 0.006482138, 0.004174423, -1050904.3, 86445.0, 0.0, 5.0695086, 4.9629827 
7.819198e+2, 1.8889964e+2, -1017844.5, -1176477.6, 14045.094, 0.0065289508, 0.010887677, -1016610.56, 72178.83, 0.0, 5.065798, 4.9601192 
7.816599e+2, 1.9385271e+2, -979224.56, -1132629.3, 13656.805, 0.0071108253, 0.009803845, -978018.25, 62231.496, 0.0, 5.0622253, 4.960108 
7.8140014e+2, 1.9880576e+2, -940592.8, -1088684.6, 13275.78, 0.007713901, 0.008687246, -939412.1, 52297.996, 0.0, 5.0586276, 4.9601207 
7.811403e+2, 2.0375873e+2, -901969.0, -1044977.8, 12260.295, 0.007827457, 0.005663937, -900925.56, 42245.082, 0.0, 5.055047, 4.9600368 
7.8087926e+2, 2.0871021e+2, -868104.5, -1011304.1, 11873.934, 0.006469235, 0.00805124, -867126.6, 27518.533, 0.0, 5.051427, 4.9564695 
7.8061837e+2, 2.1365938e+2, -829420.5, -967276.06, 11254.5205, 0.0050413534, 0.0037198686, -828507.7, 17634.66, 0.0, 5.047795, 4.95646 
7.803576e+2, 2.1860859e+2, -790708.44, -923115.9, 10628.046, 0.0036953215, -0.00048708115, -789860.75, 7778.5356, 0.0, 5.0441375, 4.956487 
7.8009707e+2, 2.2355817e+2, -751842.3, -878664.8, 9814.456, 0.0024765027, -0.0029653907, -751087.3, -1954.8212, 0.0, 5.040465, 4.9566107 
7.79835e+2, 2.2850668e+2, -717722.6, -844714.5, 7934.9043, 0.0008720041, 0.0024220182, -717228.75, -16592.686, 0.0, 5.0367403, 4.953114 
7.795721e+2, 2.3345281e+2, -679567.56, -800740.44, 7095.266, -0.00049257523, -0.00049028907, -679153.56, -26990.441, 0.0, 5.032828, 4.953126 
7.7930945e+2, 2.3839898e+2, -641462.0, -756839.9, 6281.027, -0.0019841474, -0.0032147455, -641121.06, -37431.387, 0.0, 5.028898, 4.953097 
7.790471e+2, 2.433455e+2, -603128.3, -712323.8, 5580.167, -0.00326527, -0.003559848, -602843.94, -47630.51, 0.0, 5.024937, 4.953273 
7.7878344e+2, 2.4829125e+2, -568927.75, -677342.1, 2859.912, -0.0037269436, 0.003776115, -568852.4, -62107.605, 0.0, 5.0209227, 4.950171 
7.785183e+2, 2.5323504e+2, -531444.3, -633118.56, 1706.47, -0.00492364, 0.0027086525, -531415.7, -73120.164, 0.0, 5.016601, 4.9503617 
7.782534e+2, 2.5817883e+2, -494156.75, -589264.1, 641.0609, -0.0061986204, 0.0013658, -494152.44, -84306.35, 0.0, 5.0122604, 4.950405 
7.7798885e+2, 2.631224e+2, -455931.88, -543170.4, 299.16605, -0.00837162, -0.0058474853, -455930.88, -94532.48, 0.0, 5.007885, 4.9512258 
7.777238e+2, 2.680658e+2, -422573.66, -508179.44, -1895.941, -0.011062084, -0.0012737539, -422531.7, -109579.49, 0.0, 5.003433, 4.948176 
7.7745736e+2, 2.7300793e+2, -384804.8, -461447.34, -3150.0044, -0.013420147, -0.011074764, -384675.56, -120157.45, 0.0, 4.9986887, 4.9493375 
7.77191e+2, 2.7795017e+2, -348582.2, -418072.06, -3990.8337, -0.015771879, -0.020646092, -348353.75, -132270.33, 0.0, 4.9939303, 4.9492903 
7.76926e+2, 2.82894e+2, -311170.47, -371706.1, -3838.6663, -0.01146126, -0.017162075, -310928.03, -143295.97, 0.0, 4.9891276, 4.950274 
7.766623e+2, 2.8783768e+2, -277630.88, -334068.44, -4598.396, -0.005149407, -0.006794361, -277258.66, -158077.58, 0.0, 4.9842305, 4.948218 
7.7639794e+2, 2.927821e+2, -240134.83, -286141.3, -5973.8296, 0.0022542214, -0.0009479817, -239371.8, -168649.23, 0.0, 4.979096, 4.9498744 
7.7613366e+2, 2.9772657e+2, -205839.52, -245271.31, -7044.564, 0.00914714, 0.0041073794, -204618.78, -182354.67, 0.0, 4.973928, 4.9490004 
7.7586865e+2, 3.0266908e+2, -169980.16, -202327.36, -6042.5005, 0.00070384634, 0.001526366, -168888.27, -168888.27, 0.0, 4.969051, 4.948677 
7.75606e+2, 3.0762458e+2, -127191.47, -111389.71, -7488.214, -0.013931727, 0.0064509385, -108404.945, -108404.945, 0.0, 4.9641438, 4.97469 
7.7534556e+2, 3.12592e+2, -137977.36, -110495.8, -7856.788, -0.032028023, -0.037053864, -108408.18, -108408.18, 0.0, 4.959118, 4.977212 
7.750854e+2, 3.175598e+2, -154106.3, -122114.42, -8493.771, -0.050759804, -0.07671029, -119999.2, -119999.2, 0.0, 4.954121, 4.975214 
7.748303e+2, 3.2254416e+2, -124416.766, -23381.672, -9676.399, -0.013552017, 0.039781123, -22463.285, -22463.285, 0.0, 4.9482656, 5.013364 
7.9018694e+2, 1.2968442e+2, -1444561.8, -1668797.4, 17058.314, -0.009255564, 0.016956612, -1443271.5, 225830.92, 0.0, 5.117265, 4.9659715 
7.899156e+2, 1.3464183e+2, -1411246.6, -1628003.6, 17368.102, -0.0010447635, 0.009432035, -1409863.8, 210654.61, 0.0, 5.1120806, 4.965967 
7.896445e+2, 1.3959926e+2, -1377997.5, -1587416.5, 17533.898, 0.006364218, 0.0026815906, -1376539.6, 195394.73, 0.0, 5.1068993, 4.965865 
7.893718e+2, 1.4455734e+2, -1343591.5, -1544570.0, 18496.457, 0.00018218301, 0.0019011652, -1341903.4, 181441.36, 0.0, 5.1018114, 4.9664125 
7.891028e+2, 1.4951707e+2, -1307756.9, -1500804.0, 21508.39, -0.0043653185, 0.010376164, -1305389.6, 169349.8, 0.0, 5.0973015, 4.9668403 
7.888361e+2, 1.5447609e+2, -1270905.9, -1458059.8, 21821.209, 0.00023250749, 0.008779601, -1268395.3, 157745.66, 0.0, 5.0932727, 4.9668407 
7.885696e+2, 1.5943505e+2, -1234164.9, -1415635.8, 22059.514, 0.0048849476, 0.006972005, -1231521.9, 146021.34, 0.0, 5.08925, 4.9667115 
7.8830284e+2, 1.6439366e+2, -1197610.3, -1373435.8, 22184.465, 0.009813072, 0.0046905675, -1194854.4, 134093.92, 0.0, 5.085205, 4.966486 
7.880374e+2, 1.6935153e+2, -1163175.9, -1335980.1, 24589.273, 0.011116159, 0.0076577994, -1159745.0, 120615.875, 0.0, 5.081348, 4.964474 
7.877729e+2, 1.743079e+2, -1124684.3, -1292271.9, 24729.223, 0.008807783, 0.0055008275, -1121111.4, 110676.93, 0.0, 5.0778155, 4.964479 
7.875084e+2, 1.7926423e+2, -1086222.9, -1248689.3, 24826.809, 0.0065002213, 0.0035759935, -1082513.8, 100701.89, 0.0, 5.074285, 4.9644213 
7.8724366e+2, 1.8422067e+2, -1047851.2, -1205520.0, 24463.309, 0.003668515, 0.003370489, -1044142.75, 90499.836, 0.0, 5.0707827, 4.9641967 
7.8697944e+2, 1.8917581e+2, -1013288.4, -1170335.9, 25940.676, 0.0035660893, 0.009225528, -1009114.5, 76967.81, 0.0, 5.067337, 4.961137 
7.8671616e+2, 1.941288e+2, -973810.8, -1126026.3, 25914.527, 0.0040536877, 0.0074115205, -969519.9, 68023.32, 0.0, 5.0640726, 4.961139 
7.86453e+2, 1.9908178e+2, -934275.8, -1081648.3, 25893.635, 0.0045875264, 0.0056277756, -929858.6, 59145.445, 0.0, 5.0608096, 4.961146 
7.861897e+2, 2.040347e+2, -894736.5, -1037505.6, 25214.969, 0.0045139985, 0.002945107, -890414.06, 50050.637, 0.0, 5.0575666, 4.961056 
7.8592515e+2, 2.0898606e+2, -860313.3, -1004096.94, 25291.676, 0.00291333, 0.006129829, -855994.25, 35946.402, 0.0, 5.054266, 4.957247 
7.856608e+2, 2.1393494e+2, -820720.94, -959624.44, 25033.867, 0.0013380157, 0.0025661257, -816346.94, 27093.66, 0.0, 5.0509644, 4.957242 
7.8539664e+2, 2.1888386e+2, -781021.25, -914972.44, 24785.316, -0.000023398696, -0.00096063147, -776582.25, 18358.172, 0.0, 5.047663, 4.9572806 
7.851325e+2, 2.2383302e+2, -741380.1, -870298.1, 24202.998, -0.00084159966, -0.0035006213, -736986.06, 9451.651, 0.0, 5.04431, 4.9573364 
7.848667e+2, 2.2878093e+2, -706821.25, -836616.9, 22593.156, -0.0020835483, 0.0014814688, -703001.0, -5053.62, 0.0, 5.0408325, 4.9536386 
7.846001e+2, 2.3372632e+2, -668091.2, -792430.6, 22044.416, -0.0029396315, -0.0017218938, -664298.56, -14816.874, 0.0, 5.0371437, 4.9536295 
7.8433365e+2, 2.3867175e+2, -629307.1, -748182.25, 21541.473, -0.0038363119, -0.0046301414, -625524.0, -24508.398, 0.0, 5.033457, 4.95362 
7.840674e+2, 2.4361755e+2, -590234.06, -703268.8, 21083.475, -0.0049645505, -0.005028592, -586429.56, -33883.45, 0.0, 5.0297575, 4.953823 
7.837997e+2, 2.4856251e+2, -555689.1, -668641.06, 18552.906, -0.0058027846, 0.00249907, -552719.8, -48634.62, 0.0, 5.025951, 4.950515 
7.8353024e+2, 2.5350535e+2, -517786.53, -624278.75, 17682.123, -0.007347669, 0.0014380225, -514927.34, -59282.02, 0.0, 5.0217905, 4.9506927 
7.8326094e+2, 2.5844815e+2, -480023.84, -580220.75, 16935.81, -0.00880091, 0.00006948422, -477238.7, -70033.18, 0.0, 5.017624, 4.95074 
7.8299206e+2, 2.633907e+2, -441672.16, -534295.6, 16584.398, -0.010682362, -0.0075239167, -438792.22, -80024.15, 0.0, 5.0133414, 4.9514723 
7.827224e+2, 2.68333e+2, -408403.75, -499315.8, 13837.473, -0.013014644, -0.0037363863, -406344.25, -96011.36, 0.0, 5.0088186, 4.948472 
7.8245103e+2, 2.7327392e+2, -371473.53, -453373.97, 12090.131, -0.014886546, -0.013830262, -369726.06, -107815.59, 0.0, 5.0038357, 4.949483 
7.8217983e+2, 2.78215e+2, -335986.5, -410412.2, 10743.53, -0.016674818, -0.02376998, -334466.7, -120979.36, 0.0, 4.9988112, 4.949426 
7.819099e+2, 2.83158e+2, -299194.47, -364205.8, 10488.153, -0.012078231, -0.017958978, -297544.3, -132500.16, 0.0, 4.9937425, 4.9504895 
7.8164107e+2, 2.88101e+2, -266867.5, -327411.88, 9041.589, -0.0058607482, -0.004783747, -265546.1, -148945.72, 0.0, 4.9884334, 4.9483385 
7.813713e+2, 2.9304475e+2, -230970.34, -280338.53, 7101.856, 0.0023730455, 0.004463727, -229969.02, -161820.05, 0.0, 4.9827275, 4.949967 
7.8110164e+2, 2.979886e+2, -198756.98, -241200.0, 5691.2666, 0.010644818, 0.01409912, -198007.08, -178310.0, 0.0, 4.976953, 4.9487605 
7.808316e+2, 3.0292967e+2, -163599.55, -197180.83, 6886.0347, 0.0011354679, 0.00801333, -162242.38, -162242.38, 0.0, 4.9715433, 4.949065 
7.8056383e+2, 3.0788344e+2, -121890.86, -106849.664, 3891.8154, -0.013388939, -0.0007345671, -105902.34, -105902.34, 0.0, 4.9662423, 4.975076 
7.802981e+2, 3.1284907e+2, -134645.73, -106625.93, 2802.1843, -0.031580422, -0.05980296, -106348.44, -106348.44, 0.0, 4.9604764, 4.977675 
7.8003263e+2, 3.17816e+2, -158498.14, -130850.43, 1390.29, -0.047786765, -0.1039373, -130780.69, -130780.69, 0.0, 4.9545083, 4.971557 
7.797744e+2, 3.2279652e+2, -119106.3, -10232.862, -504.53738, 0.010375652, -0.09208165, -10230.523, -10230.523, 0.0, 4.9486585, 5.017392 
7.952967e+2, 1.2996112e+2, -1442835.6, -1666435.6, 13240.493, -0.010509633, 0.018891595, -1442054.3, 224337.8, 0.0, 5.1173587, 4.9667997 
7.9502046e+2, 1.3491924e+2, -1409526.0, -1625651.6, 13564.665, -0.00022806156, 0.010304187, -1408678.0, 209122.69, 0.0, 5.112173, 4.966794 
7.947442e+2, 1.3987741e+2, -1376288.6, -1585103.3, 13713.564, 0.008283866, 0.002810199, -1375391.9, 193817.19, 0.0, 5.1069937, 4.966681 
7.9446626e+2, 1.4483637e+2, -1341801.8, -1542060.6, 15018.135, 0.00035051344, 0.0023064965, -1340681.8, 179929.13, 0.0, 5.101909, 4.9672904 
7.9419285e+2, 1.4979689e+2, -1306336.5, -1498732.0, 18526.154, -0.0052047903, 0.010943529, -1304568.8, 167428.7, 0.0, 5.0973625, 4.967572 
7.939221e+2, 1.5475667e+2, -1269492.1, -1455995.0, 18839.969, -0.0014234091, 0.009682648, -1267608.0, 155783.56, 0.0, 5.0933332, 4.9675727 
7.9365146e+2, 1.5971635e+2, -1232864.0, -1413799.0, 19040.78, 0.0024491732, 0.008114167, -1230882.0, 143904.56, 0.0, 5.089309, 4.9673686 
7.933807e+2, 1.6467562e+2, -1196312.5, -1371557.3, 19236.88, 0.00750552, 0.0057093557, -1194225.8, 131959.58, 0.0, 5.0852585, 4.96716 
7.931115e+2, 1.6963398e+2, -1162275.6, -1334746.4, 21957.129, 0.008778786, 0.008465246, -1159524.1, 118068.71, 0.0, 5.081381, 4.9649296 
7.9284346e+2, 1.7459078e+2, -1123787.4, -1291041.4, 22097.293, 0.0062922407, 0.0061792894, -1120917.3, 108098.734, 0.0, 5.077848, 4.9649343 
7.925754e+2, 1.7954755e+2, -1085368.5, -1247548.9, 22176.275, 0.0037232947, 0.0040824115, -1082390.9, 98048.305, 0.0, 5.074318, 4.9648466 
7.923071e+2, 1.8450436e+2, -1046911.3, -1204210.4, 21850.064, 0.00054069224, 0.0031715427, -1043932.6, 87929.5, 0.0, 5.070819, 4.9646792 
7.920395e+2, 1.8945971e+2, -1012749.5, -1169784.6, 23510.004, 0.00029585086, 0.008015331, -1009305.3, 73994.0, 0.0, 5.0673633, 4.961359 
7.9177296e+2, 1.9441284e+2, -973273.2, -1125477.6, 23483.594, 0.0006923193, 0.005392217, -969732.25, 65026.22, 0.0, 5.064099, 4.961361 
7.915065e+2, 1.9936597e+2, -933762.25, -1081151.5, 23448.895, 0.0010853529, 0.0029232437, -930121.56, 56096.1, 0.0, 5.0608354, 4.9613514 
7.912399e+2, 2.0431913e+2, -894274.5, -1037132.2, 22729.1, 0.00082726654, 0.0007134743, -890745.44, 46930.54, 0.0, 5.0575933, 4.961221 
7.9097205e+2, 2.0927058e+2, -860172.3, -1004430.6, 22836.072, -0.0009287693, 0.0047382303, -856643.7, 32507.219, 0.0, 5.0542936, 4.9571676 
7.9070437e+2, 2.1421947e+2, -820576.7, -959955.56, 22579.21, -0.0027088642, 0.0019219505, -817010.2, 23640.813, 0.0, 5.0509925, 4.9571633 
7.904368e+2, 2.1916835e+2, -780897.0, -915345.5, 22317.13, -0.004298029, -0.0009611278, -777289.4, 14861.695, 0.0, 5.047691, 4.9571877 
7.9016936e+2, 2.2411738e+2, -741333.7, -870821.3, 21601.182, -0.004810321, -0.0036547068, -737825.25, 5824.609, 0.0, 5.0443325, 4.9571943 
7.8990006e+2, 2.2906496e+2, -707081.25, -837935.06, 19850.377, -0.005287841, 0.001005254, -704136.25, -8973.456, 0.0, 5.0408673, 4.9532223 
7.896298e+2, 2.3400992e+2, -668344.4, -793744.2, 19302.146, -0.0053755054, -0.002385999, -665440.5, -18739.012, 0.0, 5.0371795, 4.9532137 
7.8935975e+2, 2.3895492e+2, -629511.25, -749400.7, 18804.4, -0.005574186, -0.0054592793, -626631.0, -28391.275, 0.0, 5.033494, 4.9532356 
7.8908986e+2, 2.4390033e+2, -590480.9, -704616.6, 18252.926, -0.0067786053, -0.0061714277, -587632.9, -37858.8, 0.0, 5.0297976, 4.9533935 
7.8881806e+2, 2.4884479e+2, -556009.7, -670324.3, 15467.693, -0.008039098, 0.0011990058, -553953.75, -52635.87, 0.0, 5.026007, 4.9499717 
7.8854436e+2, 2.5378695e+2, -518168.56, -626124.6, 14576.187, -0.010011196, -0.00018084925, -516235.1, -63351.043, 0.0, 5.021849, 4.9500914 
7.882709e+2, 2.5872913e+2, -480424.9, -582116.1, 13828.469, -0.011908161, -0.0019292345, -478577.97, -74127.58, 0.0, 5.0176826, 4.9501204 
7.8799784e+2, 2.6367104e+2, -442224.22, -536684.25, 13449.102, -0.013274477, -0.009122887, -440346.7, -84327.43, 0.0, 5.0134315, 4.950664 
7.877238e+2, 2.6861265e+2, -408363.47, -501103.63, 10474.778, -0.014518071, -0.0050520324, -407195.1, -99603.82, 0.0, 5.009033, 4.9478345 
7.874476e+2, 2.7355286e+2, -371324.16, -455591.16, 9033.466, -0.015271049, -0.013706917, -370366.66, -111189.77, 0.0, 5.004189, 4.9486294 
7.8717154e+2, 2.7849314e+2, -335334.1, -412242.63, 8025.279, -0.015978474, -0.021985255, -334505.6, -123744.02, 0.0, 4.9993196, 4.9486356 
7.868967e+2, 2.8343534e+2, -297942.22, -365232.03, 7890.868, -0.012334446, -0.016579825, -297029.25, -134702.66, 0.0, 4.994364, 4.9499307 
7.866223e+2, 2.883775e+2, -265377.38, -328684.9, 6429.2344, -0.008661129, -0.003890421, -264731.06, -150839.97, 0.0, 4.9891963, 4.947635 
7.863467e+2, 2.9332045e+2, -228984.33, -281404.16, 4712.648, -0.0028519614, 0.005514087, -228564.02, -163115.69, 0.0, 4.9836707, 4.9492583 
7.860712e+2, 2.982634e+2, -195876.33, -241359.36, 3792.3462, 0.0029966792, 0.015540289, -195562.3, -178556.9, 0.0, 4.978121, 4.9482756 
7.8579634e+2, 3.032034e+2, -161021.66, -198081.03, 5349.415, -0.0022972655, 0.005699523, -160264.94, -160264.94, 0.0, 4.972726, 4.9483166 
7.8552425e+2, 3.081563e+2, -119660.18, -108289.086, 1909.0057, -0.00739907, 0.0023594412, -107977.16, -107977.16, 0.0, 4.967363, 4.974172 
7.852536e+2, 3.1312084e+2, -131829.27, -107484.98, 365.7574, -0.01671699, -0.054362327, -107479.484, -107479.484, 0.0, 4.961746, 4.976916 
7.8498334e+2, 3.180872e+2, -152097.02, -125424.336, -861.78674, -0.024095882, -0.09127933, -125396.52, -125396.52, 0.0, 4.956157, 4.9729 
7.847185e+2, 3.2307726e+2, -109633.25, -3847.31, -4961.9277, 0.020855924, 0.009451741, -3615.0789, -3615.0789, 0.0, 4.9513803, 5.018879 
8.004065e+2, 1.3023794e+2, -1441392.5, -1664180.4, 9991.922, -0.009712941, 0.020471381, -1440945.4, 222735.05, 0.0, 5.11736, 4.967634 
8.001251e+2, 1.3519676e+2, -1407587.3, -1623170.1, 10198.323, 0.0011660426, 0.011055286, -1407105.9, 207975.81, 0.0, 5.112348, 4.967624 
7.998437e+2, 1.4015567e+2, -1374439.4, -1582679.4, 10277.561, 0.010336732, 0.0030108448, -1373933.4, 192549.19, 0.0, 5.107136, 4.9675107 
7.995606e+2, 1.4511548e+2, -1339934.5, -1539573.0, 11767.288, 0.0004634491, 0.002862628, -1339243.4, 178632.61, 0.0, 5.1020536, 4.9681377 
7.992828e+2, 1.5007679e+2, -1304715.0, -1496554.9, 15683.744, -0.0061261873, 0.011579408, -1303441.3, 165813.63, 0.0, 5.097497, 4.968305 
7.9900795e+2, 1.5503731e+2, -1267924.6, -1453854.5, 15936.708, -0.0031178868, 0.010582031, -1266568.5, 154072.95, 0.0, 5.0934505, 4.9683037 
7.9873323e+2, 1.5999772e+2, -1231486.4, -1411901.3, 16053.401, 0.00009113705, 0.009229267, -1230069.1, 141960.22, 0.0, 5.0893917, 4.9680367 
7.9845834e+2, 1.6495761e+2, -1195042.4, -1369781.4, 16380.071, 0.0053193453, 0.0067360415, -1193520.1, 129901.7, 0.0, 5.085323, 4.967796 
7.9818547e+2, 1.6991648e+2, -1161377.6, -1333515.3, 19363.127, 0.0065427343, 0.009272148, -1159226.5, 115598.07, 0.0, 5.0814137, 4.9653845 
7.979138e+2, 1.748737e+2, -1122930.4, -1289833.1, 19489.682, 0.0038495183, 0.0068320185, -1120684.8, 105558.66, 0.0, 5.0778675, 4.9653893 
7.976423e+2, 1.798309e+2, -1084547.4, -1246373.4, 19535.637, 0.00097511336, 0.004519641, -1082222.5, 95439.93, 0.0, 5.074328, 4.965296 
7.973704e+2, 1.8478808e+2, -1046023.4, -1203019.4, 19250.172, -0.0025890106, 0.0028823882, -1043697.44, 85383.94, 0.0, 5.0708566, 4.9651213 
7.9709935e+2, 1.8974365e+2, -1012208.06, -1169236.1, 21080.256, -0.0029663506, 0.006723047, -1009427.44, 71088.73, 0.0, 5.0673904, 4.9615803 
7.968295e+2, 1.946969e+2, -972733.06, -1124931.9, 21053.584, -0.0026654003, 0.003265142, -969874.4, 62099.285, 0.0, 5.064126, 4.961582 
7.965599e+2, 1.9965018e+2, -933283.9, -1080739.0, 21020.506, -0.0024169493, 0.00019399919, -930345.8, 53085.19, 0.0, 5.060863, 4.961528 
7.9629e+2, 2.0460358e+2, -893802.7, -1036745.8, 20224.746, -0.0028074991, -0.0013849452, -890996.25, 43890.746, 0.0, 5.0576215, 4.961391 
7.960187e+2, 2.0955513e+2, -860028.8, -1004766.56, 20380.813, -0.004724195, 0.003475131, -857213.7, 29147.303, 0.0, 5.054323, 4.957088 
7.9574776e+2, 2.14504e+2, -820430.0, -960289.0, 20124.9, -0.0067319716, 0.0013651429, -817591.75, 20269.48, 0.0, 5.0510225, 4.957084 
7.9547685e+2, 2.1945284e+2, -780794.8, -915772.0, 19843.818, -0.008545073, -0.0009510435, -777937.94, 11423.76, 0.0, 5.04772, 4.957076 
7.952061e+2, 2.2440173e+2, -741303.44, -871390.56, 18990.418, -0.008640268, -0.0037957642, -738587.8, 2274.2222, 0.0, 5.0443563, 4.957037 
7.949332e+2, 2.2934899e+2, -707337.94, -839256.44, 17108.617, -0.008339252, 0.0005568482, -705155.25, -12776.868, 0.0, 5.0409036, 4.952805 
7.946594e+2, 2.342935e+2, -668594.3, -795060.9, 16560.896, -0.0076750484, -0.0030729412, -666461.56, -22540.068, 0.0, 5.037217, 4.952797 
7.943857e+2, 2.3923807e+2, -629746.4, -750702.56, 16076.171, -0.007240685, -0.0063406373, -627646.2, -32182.104, 0.0, 5.0335336, 4.952822 
7.941121e+2, 2.4418308e+2, -590743.5, -706005.75, 15415.695, -0.008611162, -0.007267645, -588717.4, -41715.168, 0.0, 5.0298386, 4.95295 
7.9383624e+2, 2.4912703e+2, -556302.44, -671962.5, 12376.37, -0.010325436, -0.000054472857, -554992.94, -56442.133, 0.0, 5.0260663, 4.9494443 
7.9355836e+2, 2.5406855e+2, -518546.53, -627975.0, 11471.332, -0.012741134, -0.0018412101, -517356.9, -67233.88, 0.0, 5.02191, 4.949489 
7.932807e+2, 2.5901008e+2, -480852.44, -584082.1, 10743.35, -0.015049721, -0.004007231, -479746.22, -78050.64, 0.0, 5.0177436, 4.949477 
7.9300356e+2, 2.639514e+2, -442749.9, -538863.1, 10132.934, -0.015706033, -0.010577663, -441693.22, -88422.52, 0.0, 5.0134873, 4.949949 
7.927249e+2, 2.6889232e+2, -408885.16, -503487.22, 6867.045, -0.015867487, -0.006125114, -408389.28, -103539.47, 0.0, 5.009109, 4.947053 
7.92444e+2, 2.7383175e+2, -371933.44, -458222.4, 5378.748, -0.015539206, -0.013479574, -371599.44, -115156.15, 0.0, 5.0042696, 4.947759 
7.921632e+2, 2.7877134e+2, -335822.44, -414596.22, 4420.3354, -0.015300946, -0.020257069, -335575.16, -127539.664, 0.0, 4.9993978, 4.947863 
7.9188335e+2, 2.8371277e+2, -298315.7, -367320.8, 4046.7698, -0.0129044335, -0.014935486, -298079.16, -138471.13, 0.0, 4.9944396, 4.949252 
7.9160345e+2, 2.886542e+2, -265730.44, -330917.44, 2283.248, -0.011827591, -0.0030996134, -265650.56, -154470.13, 0.0, 4.9892874, 4.946908 
7.9132193e+2, 2.9359633e+2, -229339.83, -283700.16, 503.1181, -0.008767865, 0.0057636155, -229335.17, -166589.19, 0.0, 4.983767, 4.948508 
7.910406e+2, 2.985384e+2, -196180.31, -243549.05, -222.20847, -0.0059193834, 0.015157178, -196179.27, -181867.44, 0.0, 4.9782195, 4.947561 
7.907612e+2, 3.0347738e+2, -161593.84, -201137.31, 1307.9086, -0.0055805054, 0.003719874, -161550.63, -161550.63, 0.0, 4.9728584, 4.947286 
7.904847e+2, 3.0842963e+2, -120126.055, -111413.81, -2269.6724, -0.00032850038, 0.0056049363, -110857.99, -110857.99, 0.0, 4.967529, 4.9731054 
7.902094e+2, 3.133932e+2, -132173.44, -110477.12, -3800.1191, -0.0005518887, -0.048221264, -109830.78, -109830.78, 0.0, 4.961926, 4.9758997 
7.899342e+2, 3.1835884e+2, -149324.52, -121503.15, -4238.9355, -0.0019575718, -0.08109665, -120871.63, -120871.63, 0.0, 4.956366, 4.9743814 
7.896615e+2, 3.233551e+2, -108869.945, -4225.604, -6045.0605, 0.008074556, 0.10665833, -3877.5525, -3877.5525, 0.0, 4.9515905, 5.0189033 
8.0551606e+2, 1.3051842e+2, -1443589.8, -1662720.5, 12617.358, -0.004117839, 0.019625165, -1442865.6, 218066.27, 0.0, 5.116092, 4.9687047 
8.0522937e+2, 1.354779e+2, -1409503.9, -1621609.3, 12741.304, 0.003589278, 0.010884329, -1408741.3, 203585.4, 0.0, 5.1111827, 4.968683 
8.0494267e+2, 1.4043744e+2, -1375380.5, -1580666.4, 12658.342, 0.01049794, 0.0035212839, -1374603.0, 189118.2, 0.0, 5.106313, 4.96856 
8.0465454e+2, 1.4539786e+2, -1340066.4, -1537106.9, 14542.074, -0.00089699787, 0.0033449333, -1338998.9, 176109.83, 0.0, 5.1015115, 4.9692035 
8.0437255e+2, 1.5035965e+2, -1304461.6, -1494078.1, 18871.227, -0.0073799514, 0.011433462, -1302601.8, 163881.06, 0.0, 5.0971665, 4.9692616 
8.0409384e+2, 1.5532061e+2, -1266882.1, -1451032.0, 18998.191, -0.0039202655, 0.010006436, -1264942.6, 152922.31, 0.0, 5.0934005, 4.9692492 
8.038152e+2, 1.6028146e+2, -1229766.3, -1408884.0, 18927.848, -0.00022899371, 0.008358017, -1227788.0, 141460.31, 0.0, 5.089601, 4.968932 
8.0353624e+2, 1.6524184e+2, -1192764.1, -1366582.5, 19080.365, 0.0047829584, 0.006042797, -1190694.3, 129941.836, 0.0, 5.085747, 4.968654 
8.032597e+2, 1.7020106e+2, -1158869.9, -1330564.5, 22285.266, 0.00518236, 0.008757643, -1156024.5, 116010.734, 0.0, 5.0820155, 4.9660687 
8.029844e+2, 1.7515856e+2, -1119954.1, -1286706.5, 22231.992, 0.0017332401, 0.0064895437, -1117041.0, 106410.28, 0.0, 5.078637, 4.966061 
8.027092e+2, 1.8011601e+2, -1081261.9, -1243198.3, 22095.203, -0.0017313346, 0.004200475, -1078301.3, 96566.375, 0.0, 5.07522, 4.9659343 
8.0243385e+2, 1.8507342e+2, -1042740.56, -1199948.6, 21574.83, -0.005440388, 0.002265397, -1039833.5, 86450.836, 0.0, 5.0717635, 4.965723 
8.021594e+2, 1.9002905e+2, -1009125.2, -1166724.4, 23393.896, -0.005711614, 0.0055194185, -1005725.94, 71992.32, 0.0, 5.0683336, 4.9619713 
8.018864e+2, 1.9498232e+2, -969595.75, -1122428.8, 23128.21, -0.005224113, 0.0015813916, -966172.44, 63003.125, 0.0, 5.0650907, 4.961966 
8.016134e+2, 1.9993562e+2, -930187.2, -1078329.9, 22841.994, -0.0048444266, -0.0018171052, -926745.2, 53887.332, 0.0, 5.061823, 4.961889 
8.0134016e+2, 2.0488907e+2, -890925.1, -1034685.06, 21754.969, -0.00530846, -0.0029387246, -887705.06, 44382.8, 0.0, 5.058544, 4.961657 
8.0106556e+2, 2.0984054e+2, -857553.5, -1003410.8, 21683.443, -0.0074881944, 0.0024565742, -854398.25, 29164.543, 0.0, 5.0551996, 4.957137 
8.007912e+2, 2.1478923e+2, -818134.6, -959061.5, 21143.455, -0.009787895, 0.0007943951, -815030.8, 20033.996, 0.0, 5.0518355, 4.957124 
8.0051696e+2, 2.1973792e+2, -778753.2, -914766.6, 20563.96, -0.011851458, -0.0011614163, -775712.1, 10854.901, 0.0, 5.048455, 4.9570813 
8.002428e+2, 2.246865e+2, -739406.94, -870670.06, 19305.26, -0.011734847, -0.004115126, -736626.56, 1443.5837, 0.0, 5.0450726, 4.9569597 
7.999664e+2, 2.2963333e+2, -705683.75, -839246.25, 17024.994, -0.0110027315, -0.000046245535, -703547.75, -13956.962, 0.0, 5.041632, 4.952487 
7.996889e+2, 2.3457731e+2, -667020.75, -795134.9, 16168.942, -0.009808114, -0.003963512, -665011.6, -23872.39, 0.0, 5.0379148, 4.952469 
7.9941154e+2, 2.395214e+2, -628310.56, -750803.44, 15368.535, -0.008884751, -0.0074746376, -626411.8, -33725.027, 0.0, 5.0341635, 4.952522 
7.9913414e+2, 2.4446595e+2, -589779.5, -706633.9, 14294.44, -0.010433806, -0.008345723, -588056.3, -43827.145, 0.0, 5.0303507, 4.9525256 
7.988543e+2, 2.4940932e+2, -555671.06, -672979.5, 10646.614, -0.01254794, -0.0012171842, -554712.6, -58929.547, 0.0, 5.026475, 4.948948 
7.985722e+2, 2.543502e+2, -518381.5, -629380.25, 9381.272, -0.015384454, -0.0034521986, -517594.22, -70232.445, 0.0, 5.0221744, 4.948928 
7.982904e+2, 2.5929102e+2, -481243.3, -585953.6, 8252.237, -0.018013632, -0.006063414, -480596.94, -81656.164, 0.0, 5.0178385, 4.9488344 
7.98009e+2, 2.6423168e+2, -443416.84, -540922.2, 7250.3203, -0.017936816, -0.011787035, -442880.7, -92358.37, 0.0, 5.0134816, 4.949291 
7.977259e+2, 2.6917192e+2, -409659.78, -505987.72, 3554.7515, -0.017035555, -0.0069766613, -409528.78, -107420.19, 0.0, 5.009116, 4.946251 
7.974402e+2, 2.7411062e+2, -372641.44, -460823.7, 1979.9373, -0.015669748, -0.013188008, -372597.0, -118887.016, 0.0, 5.0043187, 4.946905 
7.9715466e+2, 2.790495e+2, -336457.84, -417046.16, 966.6113, -0.01457332, -0.018494708, -336446.25, -131136.63, 0.0, 4.999446, 4.9470625 
7.9686975e+2, 2.8399023e+2, -298787.1, -369382.0, 508.2341, -0.013703616, -0.013063105, -298783.44, -141893.88, 0.0, 4.994484, 4.9485884 
7.965843e+2, 2.8893083e+2, -266194.5, -333140.84, -1645.3845, -0.015250866, -0.002416114, -266154.1, -157684.06, 0.0, 4.989344, 4.9461913 
7.9629695e+2, 2.9387212e+2, -229810.9, -285984.2, -3480.8562, -0.014980226, 0.005398532, -229596.03, -169552.02, 0.0, 4.9838257, 4.9477706 
7.960099e+2, 2.9881334e+2, -196969.92, -246557.75, -4149.3823, -0.014755172, 0.014075294, -196625.11, -185006.27, 0.0, 4.978276, 4.946567 
7.9572594e+2, 3.0375132e+2, -162517.67, -204629.38, -2400.8289, -0.0079217795, 0.0031146181, -162381.25, -162381.25, 0.0, 4.972935, 4.946111 
7.9544526e+2, 3.0870277e+2, -120748.16, -114436.76, -6289.542, 0.007571377, 0.0068433736, -110555.64, -110555.64, 0.0, 4.967621, 4.972093 
7.951652e+2, 3.136653e+2, -132829.4, -113571.59, -7839.023, 0.01634981, -0.04801592, -110784.14, -110784.14, 0.0, 4.962, 4.974879 
7.948853e+2, 3.1863034e+2, -149522.98, -123694.48, -8219.579, 0.022388464, -0.076135464, -121300.58, -121300.58, 0.0, 4.9564414, 4.973705 
7.946038e+2, 3.2362327e+2, -107520.99, -1850.2074, -6199.12, -0.016400307, 0.06729303, -1487.7823, -1487.7823, 0.0, 4.9515967, 5.019771 
8.106237e+2, 1.308113e+2, -1444550.5, -1658374.1, 18493.764, 0.0009814372, 0.018674329, -1442962.8, 215098.98, 0.0, 5.1151953, 4.970355 
8.103318e+2, 1.3577172e+2, -1410501.4, -1617197.3, 18976.11, 0.005588918, 0.010485719, -1408773.8, 200673.4, 0.0, 5.110278, 4.970351 
8.1003994e+2, 1.407322e+2, -1376487.3, -1576155.0, 19312.328, 0.009308665, 0.0036690908, -1374636.5, 186196.06, 0.0, 5.105364, 4.9702744 
8.09747e+2, 1.4569344e+2, -1341279.9, -1532577.8, 21837.623, -0.0032801984, 0.0030926778, -1338818.6, 173393.14, 0.0, 5.1005454, 4.970922 
8.094612e+2, 1.5065598e+2, -1305740.0, -1489629.5, 27059.625, -0.008922919, 0.010305425, -1301840.8, 161737.64, 0.0, 5.09627, 4.970894 
8.091789e+2, 1.5561767e+2, -1267701.5, -1446275.4, 27539.008, -0.0044950554, 0.008271829, -1263551.0, 151402.53, 0.0, 5.092669, 4.9709 
8.088966e+2, 1.605792e+2, -1230075.9, -1403867.3, 27771.113, -0.000084277264, 0.006175885, -1225746.1, 140583.98, 0.0, 5.089069, 4.970569 
8.0861396e+2, 1.6554031e+2, -1192587.3, -1361291.1, 28510.943, 0.0045654243, 0.0041831587, -1187899.1, 129811.4, 0.0, 5.0854096, 4.9702826 
8.0833393e+2, 1.7050014e+2, -1158454.1, -1325385.0, 32395.629, 0.0039100302, 0.007173828, -1152387.6, 116715.99, 0.0, 5.0818744, 4.967544 
8.080553e+2, 1.7545816e+2, -1118786.8, -1281086.5, 32731.36, -0.0008281876, 0.0052332645, -1112434.4, 108080.07, 0.0, 5.0787663, 4.967554 
8.077768e+2, 1.804161e+2, -1079279.8, -1237196.0, 32938.7, -0.0054051233, 0.003122182, -1072684.8, 99241.19, 0.0, 5.07566, 4.967407 
8.0749816e+2, 1.8537392e+2, -1039764.06, -1193380.3, 32940.4, -0.008987427, 0.00097413076, -1032998.5, 90339.94, 0.0, 5.0725613, 4.9672165 
8.0722076e+2, 1.9032982e+2, -1005523.25, -1160232.9, 35368.73, -0.008489305, 0.003910349, -997820.94, 76948.766, 0.0, 5.069472, 4.9632654 
8.069447e+2, 1.9528325e+2, -964952.9, -1115375.6, 35531.402, -0.0071738507, -0.00017363971, -956982.4, 69242.85, 0.0, 5.0666056, 4.9632754 
8.066688e+2, 2.002367e+2, -924518.6, -1070836.3, 35634.617, -0.0060005463, -0.0036253224, -916301.5, 61378.98, 0.0, 5.0637326, 4.9631643 
8.0639243e+2, 2.0519027e+2, -884266.94, -1026762.9, 34948.777, -0.0061326493, -0.0045341407, -876156.94, 52977.906, 0.0, 5.060832, 4.9629035 
8.061147e+2, 2.1014166e+2, -850244.7, -995701.44, 35409.36, -0.0081923865, 0.0010591189, -842082.75, 38527.785, 0.0, 5.0578427, 4.9581404 
8.0583715e+2, 2.1509016e+2, -809846.8, -950834.7, 35308.97, -0.010452103, -0.00045738916, -801498.44, 30616.219, 0.0, 5.0548363, 4.9581423 
8.0555975e+2, 2.2003861e+2, -769465.94, -906094.44, 35172.32, -0.012480092, -0.0023314375, -760943.1, 22676.06, 0.0, 5.0518374, 4.95808 
8.052823e+2, 2.249869e+2, -728996.06, -861483.44, 34328.33, -0.012959145, -0.0055243224, -720629.7, 14495.873, 0.0, 5.048873, 4.957949 
8.050024e+2, 2.299332e+2, -694498.5, -830360.3, 32427.803, -0.01288501, -0.0015723541, -687155.44, -504.0657, 0.0, 5.045841, 4.9531894 
8.047213e+2, 2.3487651e+2, -654783.4, -785709.2, 31992.402, -0.012173261, -0.005605449, -647384.06, -9177.645, 0.0, 5.0425086, 4.953187 
8.044404e+2, 2.3981991e+2, -614982.56, -740876.2, 31626.754, -0.0115155475, -0.009190739, -607483.94, -17723.37, 0.0, 5.0391665, 4.9532332 
8.041594e+2, 2.4476384e+2, -575384.0, -696079.56, 30759.434, -0.012359626, -0.00961793, -567997.06, -26687.791, 0.0, 5.0357246, 4.9532957 
8.038756e+2, 2.4970633e+2, -540789.9, -663015.8, 27336.498, -0.013829477, -0.0026206577, -534954.5, -42082.676, 0.0, 5.032168, 4.949377 
8.035893e+2, 2.5464618e+2, -502830.94, -619021.6, 26398.43, -0.015946385, -0.004470816, -497114.5, -52654.43, 0.0, 5.028102, 4.949397 
8.0330324e+2, 2.5958604e+2, -465059.44, -575344.56, 25668.617, -0.01778169, -0.006788481, -459377.8, -63328.95, 0.0, 5.0240154, 4.9492865 
8.030175e+2, 2.6452568e+2, -426930.7, -530114.5, 24599.229, -0.01747389, -0.011984953, -421366.28, -73725.53, 0.0, 5.0197606, 4.949782 
8.0272967e+2, 2.6946482e+2, -393792.84, -496230.38, 20569.838, -0.016472626, -0.0066721677, -389816.66, -90578.38, 0.0, 5.0152845, 4.946442 
8.02439e+2, 2.7440223e+2, -357653.5, -451563.44, 18538.955, -0.014741391, -0.012442084, -354126.2, -103273.664, 0.0, 5.01017, 4.9470835 
8.0214846e+2, 2.7933988e+2, -322212.4, -408159.16, 17233.803, -0.0130281765, -0.0169733, -318885.53, -116421.266, 0.0, 5.0050235, 4.9472466 
8.0185837e+2, 2.8427944e+2, -285015.56, -360487.97, 15994.067, -0.013003877, -0.011360125, -281766.0, -127710.23, 0.0, 4.999833, 4.948898 
8.0156726e+2, 2.8921884e+2, -253334.77, -325077.0, 12887.375, -0.016225636, -0.0015249973, -251090.0, -145441.3, 0.0, 4.9943824, 4.9463778 
8.012739e+2, 2.9415882e+2, -218413.9, -278806.22, 10312.633, -0.01751495, 0.005050881, -216701.47, -159465.38, 0.0, 4.9883494, 4.947893 
8.009809e+2, 2.990986e+2, -187475.47, -240858.08, 9394.365, -0.01824489, 0.012478682, -185870.48, -177045.33, 0.0, 4.9822197, 4.94643 
8.00692e+2, 3.0403522e+2, -154825.56, -200163.84, 10885.107, -0.007424429, 0.0026688667, -152347.63, -152347.63, 0.0, 4.9763393, 4.9457626 
8.0040646e+2, 3.0898544e+2, -113956.586, -109637.75, 6098.4414, 0.015403457, 0.0049538603, -105327.695, -105327.695, 0.0, 4.9705315, 4.9721217 
8.0012125e+2, 3.1394666e+2, -128311.52, -110039.57, 4000.314, 0.033459324, -0.053357527, -109202.16, -109202.16, 0.0, 4.964107, 4.974814 
7.998365e+2, 3.1891152e+2, -149254.5, -124727.2, 3878.2349, 0.049951985, -0.06772327, -124128.586, -124128.586, 0.0, 4.9575357, 4.9724345 
7.9954594e+2, 3.2389674e+2, -105138.99, 11444.818, 4437.9775, -0.03737906, -0.073346615, 11613.515, 11613.515, 0.0, 4.950816, 5.024386 
8.157308e+2, 1.3110967e+2, -1442456.6, -1655259.1, 14852.516, 0.00525429, 0.01914985, -1441425.0, 213713.06, 0.0, 5.1152873, 4.971439 
8.1543374e+2, 1.3607122e+2, -1408406.5, -1614094.9, 15350.634, 0.006860282, 0.011516399, -1407267.1, 199244.95, 0.0, 5.110373, 4.9714327 
8.151366e+2, 1.4103279e+2, -1374411.5, -1573116.0, 15696.73, 0.007789539, 0.005202914, -1373179.3, 184707.38, 0.0, 5.105462, 4.971336 
8.1483895e+2, 1.4599507e+2, -1339155.8, -1529355.3, 18619.004, -0.005932898, 0.0041812374, -1337350.3, 171905.39, 0.0, 5.1006403, 4.972042 
8.1454927e+2, 1.5095854e+2, -1304047.0, -1486913.6, 24367.59, -0.010638301, 0.010422428, -1300855.6, 159757.48, 0.0, 5.096322, 4.9718447 
8.1426346e+2, 1.559211e+2, -1266014.9, -1443566.9, 24848.809, -0.0052627674, 0.0076764286, -1262602.8, 149376.92, 0.0, 5.092721, 4.971851 
8.1397766e+2, 1.608835e+2, -1228425.4, -1401229.8, 25001.883, -0.00027787953, 0.005149108, -1224880.8, 138466.83, 0.0, 5.089121, 4.9714985 
8.136913e+2, 1.6584553e+2, -1191071.9, -1358873.3, 25875.832, 0.003957036, 0.0034705077, -1187172.3, 127546.664, 0.0, 5.085453, 4.971141 
8.1340784e+2, 1.7080615e+2, -1157269.4, -1323439.4, 30058.32, 0.0022282812, 0.006603724, -1151999.4, 114104.89, 0.0, 5.0818944, 4.96824 
8.13126e+2, 1.7576487e+2, -1117605.9, -1279145.1, 30395.125, -0.003753612, 0.0048811305, -1112076.0, 105431.96, 0.0, 5.0787864, 4.96825 
8.128443e+2, 1.8072349e+2, -1078125.4, -1235301.1, 30633.979, -0.009333483, 0.002821366, -1072365.8, 96546.945, 0.0, 5.07568, 4.968089 
8.125626e+2, 1.8568192e+2, -1038692.06, -1191657.1, 30550.67, -0.012547678, 0.00044315206, -1032816.1, 87502.9, 0.0, 5.072581, 4.967842 
8.1228226e+2, 1.906383e+2, -1004758.8, -1159054.6, 33211.227, -0.01128228, 0.0029819806, -997913.94, 73831.44, 0.0, 5.06948, 4.963703 
8.120035e+2, 1.9559214e+2, -964191.3, -1114201.3, 33374.543, -0.009148867, -0.0013476998, -957101.1, 66095.7, 0.0, 5.0666137, 4.963713 
8.117247e+2, 2.00546e+2, -923823.0, -1069790.4, 33452.99, -0.0072765145, -0.004946915, -916521.44, 58126.766, 0.0, 5.0637383, 4.963559 
8.114455e+2, 2.0549992e+2, -883673.2, -1025933.3, 32658.607, -0.0070818258, -0.005670106, -876534.0, 49564.98, 0.0, 5.0608354, 4.9632273 
8.1116474e+2, 2.1045153e+2, -849952.1, -995545.6, 33154.715, -0.008933859, 0.00008293089, -842757.6, 34815.13, 0.0, 5.0578485, 4.9582295 
8.1088424e+2, 2.1540013e+2, -809555.44, -950676.44, 33056.06, -0.011144319, -0.0012327575, -802196.2, 26879.65, 0.0, 5.0548415, 4.9582334 
8.1060374e+2, 2.2034866e+2, -769234.6, -906076.75, 32901.465, -0.0132979145, -0.002995276, -761735.0, 18844.596, 0.0, 5.0518446, 4.9581213 
8.1032324e+2, 2.2529696e+2, -728775.1, -861522.7, 32027.906, -0.014473854, -0.006301976, -721451.8, 10634.098, 0.0, 5.0488834, 4.957973 
8.1004006e+2, 2.3024313e+2, -694598.3, -831272.3, 29943.938, -0.015089379, -0.0023674928, -688325.75, -4712.4707, 0.0, 5.0458694, 4.952912 
8.097556e+2, 2.3518616e+2, -654880.94, -786613.94, 29511.705, -0.015060176, -0.0064677084, -648571.7, -13400.321, 0.0, 5.0425363, 4.9529114 
8.0947125e+2, 2.4012928e+2, -615120.1, -741867.4, 29083.154, -0.014934344, -0.009968576, -608765.4, -22036.992, 0.0, 5.0391927, 4.9529276 
8.091869e+2, 2.450729e+2, -575465.3, -696937.4, 28093.217, -0.014891044, -0.010183641, -569282.8, -31002.92, 0.0, 5.035745, 4.9530406 
8.0889934e+2, 2.5001487e+2, -541235.94, -664957.8, 24317.11, -0.01533632, -0.0037546423, -536628.1, -46780.453, 0.0, 5.032215, 4.9487476 
8.086091e+2, 2.549542e+2, -503244.28, -620901.75, 23372.074, -0.01635775, -0.0050064903, -498771.56, -57330.01, 0.0, 5.0281496, 4.9487877 
8.0831903e+2, 2.5989345e+2, -465561.22, -577412.1, 22572.645, -0.01726768, -0.006875109, -461177.63, -68141.36, 0.0, 5.02406, 4.948612 
8.0802906e+2, 2.6483247e+2, -427061.75, -531683.1, 21398.434, -0.01725134, -0.011860033, -422854.28, -78219.62, 0.0, 5.0198665, 4.949258 
8.077366e+2, 2.6977083e+2, -394047.72, -498988.44, 17205.408, -0.016344447, -0.005667075, -391298.84, -95059.48, 0.0, 5.015546, 4.945444 
8.074409e+2, 2.7470735e+2, -357254.28, -453842.06, 15443.549, -0.015149782, -0.010945345, -354845.06, -106982.23, 0.0, 5.010634, 4.9461613 
8.071453e+2, 2.7964407e+2, -321165.53, -409877.47, 14352.212, -0.013922732, -0.014996561, -318901.38, -119417.58, 0.0, 5.0056753, 4.9464335 
8.0685025e+2, 2.8458267e+2, -283855.0, -362603.06, 13472.829, -0.012887333, -0.009262428, -281613.75, -130528.44, 0.0, 5.0006227, 4.947882 
8.065538e+2, 2.8952095e+2, -251683.84, -327003.4, 9977.85, -0.014482409, 0.00041776738, -250384.45, -147694.53, 0.0, 4.995323, 4.9453826 
8.0625457e+2, 2.9445964e+2, -216371.5, -280713.0, 7657.5635, -0.014411795, 0.0072998405, -215472.7, -161182.67, 0.0, 4.9894614, 4.9468284 
8.059558e+2, 2.9939812e+2, -184628.73, -241957.55, 7147.1357, -0.014191699, 0.014008775, -183751.14, -177858.48, 0.0, 4.9835386, 4.9455557 
8.056609e+2, 3.0433342e+2, -152186.77, -201478.2, 9003.556, -0.007065208, 0.0013379221, -150593.67, -150593.67, 0.0, 4.9776254, 4.944823 
8.053691e+2, 3.0928257e+2, -111240.945, -110932.26, 4005.9302, 0.011925437, 0.0075770873, -107077.7, -107077.7, 0.0, 4.9718366, 4.971189 
8.0507725e+2, 3.1424272e+2, -125072.555, -111178.29, 1683.0913, 0.028233994, -0.0467802, -110977.32, -110977.32, 0.0, 4.9656057, 4.973858 
8.0478597e+2, 3.1920666e+2, -143621.89, -121150.13, 2122.011, 0.043440387, -0.060473587, -120951.51, -120951.51, 0.0, 4.9592133, 4.9730754 
8.0449134e+2, 3.2420012e+2, -100143.56, 16708.613, -3439.5945, -0.011581419, 0.028694253, 16809.771, 16809.771, 0.0, 4.9516587, 5.0263767 
8.2083774e+2, 1.3140823e+2, -1440387.6, -1652150.0, 11975.708, 0.00842053, 0.01913973, -1439712.5, 212499.19, 0.0, 5.115377, 4.972523 
8.205354e+2, 1.363709e+2, -1406142.3, -1610894.3, 12318.861, 0.007804841, 0.012245724, -1405403.8, 198171.22, 0.0, 5.110531, 4.9725165 
8.2023317e+2, 1.4133355e+2, -1372257.6, -1569884.5, 12628.405, 0.007073115, 0.0065834643, -1371453.9, 183484.98, 0.0, 5.1055617, 4.9724617 
8.1993073e+2, 1.4629681e+2, -1337073.5, -1526319.4, 15864.84, -0.008086826, 0.005173572, -1335752.6, 170545.6, 0.0, 5.100764, 4.973085 
8.1963724e+2, 1.512612e+2, -1302246.8, -1484123.1, 22009.76, -0.012117057, 0.010470737, -1299621.1, 158025.66, 0.0, 5.096414, 4.972801 
8.193479e+2, 1.5622461e+2, -1264302.9, -1440828.6, 22364.072, -0.005917293, 0.0070352657, -1261513.6, 147491.34, 0.0, 5.0927835, 4.972807 
8.1905854e+2, 1.611879e+2, -1226825.0, -1398638.9, 22490.992, -0.00051147776, 0.00419458, -1223929.6, 136434.47, 0.0, 5.0891643, 4.9724164 
8.1876856e+2, 1.6615082e+2, -1189581.4, -1356489.6, 23230.428, 0.0034091233, 0.002832014, -1186408.5, 125318.13, 0.0, 5.085493, 4.9719906 
8.184816e+2, 1.711122e+2, -1156148.3, -1321527.4, 27809.234, 0.00057159655, 0.0060758227, -1151597.3, 111506.93, 0.0, 5.0818944, 4.9689336 
8.181966e+2, 1.7607163e+2, -1116549.6, -1277267.9, 28099.717, -0.0066768825, 0.004537767, -1111778.4, 102722.7, 0.0, 5.078765, 4.968944 
8.179117e+2, 1.8103091e+2, -1077043.4, -1233344.3, 28207.14, -0.013139352, 0.0024855398, -1072108.8, 93790.33, 0.0, 5.075652, 4.968816 
8.1762683e+2, 1.8598998e+2, -1037841.6, -1190195.5, 28301.63, -0.01598852, -0.0000534567, -1032754.1, 84545.1, 0.0, 5.0725565, 4.9683995 
8.173437e+2, 1.9094682e+2, -1003992.75, -1157878.5, 31054.355, -0.013931529, 0.002058242, -997962.25, 70758.57, 0.0, 5.0694895, 4.9641404 
8.1706214e+2, 1.9590105e+2, -963428.06, -1113028.8, 31218.32, -0.010990352, -0.0025491468, -957174.9, 62993.406, 0.0, 5.066623, 4.96415 
8.1678057e+2, 2.008553e+2, -923119.25, -1068726.6, 31281.994, -0.008468517, -0.0062645352, -916683.2, 54932.45, 0.0, 5.0637445, 4.963961 
8.1649834e+2, 2.0580958e+2, -883124.25, -1025210.2, 30355.857, -0.007924204, -0.0067547914, -876910.6, 46152.406, 0.0, 5.0608406, 4.963514 
8.162146e+2, 2.107614e+2, -849658.1, -995391.06, 30899.195, -0.009603108, -0.00084455905, -843377.4, 31157.436, 0.0, 5.057856, 4.9583187 
8.159311e+2, 2.1571012e+2, -809262.6, -950519.44, 30802.27, -0.011802492, -0.0019882622, -802838.1, 23198.846, 0.0, 5.0548487, 4.9583235 
8.1564766e+2, 2.2065873e+2, -768962.2, -905964.94, 30770.842, -0.014232896, -0.0036865, -762368.4, 15171.601, 0.0, 5.0518527, 4.958195 
8.15364e+2, 2.2560705e+2, -728634.1, -861756.3, 29590.578, -0.016004866, -0.007022772, -722353.06, 6693.1997, 0.0, 5.048896, 4.9579287 
8.1507754e+2, 2.3055305e+2, -694696.25, -832186.0, 27459.178, -0.017373882, -0.003134786, -689415.0, -8839.61, 0.0, 5.0458994, 4.952633 
8.1478965e+2, 2.3549578e+2, -654976.56, -787520.4, 27030.117, -0.01806321, -0.0073749204, -649676.1, -17539.654, 0.0, 5.0425653, 4.952635 
8.14502e+2, 2.4043861e+2, -615177.0, -742684.4, 26582.877, -0.018356968, -0.010796521, -609856.94, -26160.65, 0.0, 5.039221, 4.952682 
8.142142e+2, 2.4538197e+2, -575674.7, -698094.06, 25359.807, -0.017205402, -0.010619949, -570629.25, -35378.625, 0.0, 5.035768, 4.952681 
8.1392294e+2, 2.503234e+2, -541667.8, -666879.56, 21295.676, -0.016631428, -0.004734218, -538145.0, -51321.363, 0.0, 5.0322647, 4.9481244 
8.1362873e+2, 2.5526214e+2, -503654.34, -622785.44, 20345.666, -0.016593555, -0.005516145, -500275.47, -61852.25, 0.0, 5.0282, 4.948177 
8.1333464e+2, 2.6020077e+2, -465997.7, -579348.75, 19497.754, -0.016722733, -0.0070243212, -462737.6, -72713.586, 0.0, 5.0241075, 4.9479837 
8.130404e+2, 2.651392e+2, -427578.84, -533829.94, 18099.102, -0.01699069, -0.011387746, -424580.4, -82951.65, 0.0, 5.0199127, 4.948558 
8.1274325e+2, 2.7007684e+2, -394741.38, -501846.94, 13532.684, -0.016320536, -0.0044532814, -393057.97, -99817.195, 0.0, 5.0156226, 4.9444966 
8.124425e+2, 2.7501246e+2, -357920.47, -456683.88, 11728.015, -0.01572761, -0.009421788, -356546.88, -111673.53, 0.0, 5.0107145, 4.9452195 
8.1214195e+2, 2.799483e+2, -321868.13, -412798.4, 10757.544, -0.015132263, -0.0128930025, -320612.78, -124109.72, 0.0, 5.0057554, 4.9454618 
8.11842e+2, 2.8488594e+2, -284555.5, -365475.56, 9434.817, -0.01243607, -0.0070133973, -283470.0, -135355.55, 0.0, 5.000691, 4.9469333 
8.1154025e+2, 2.898231e+2, -252425.55, -330355.63, 5520.4175, -0.012491916, 0.0022543524, -252036.44, -152306.2, 0.0, 4.9954286, 4.944271 
8.1123525e+2, 2.9476067e+2, -217114.17, -284100.84, 3200.8418, -0.011156193, 0.009037038, -216961.58, -165619.19, 0.0, 4.989569, 4.945702 
8.109306e+2, 2.9969794e+2, -185441.3, -245493.97, 3002.6377, -0.010720953, 0.015441688, -185291.55, -182334.06, 0.0, 4.983646, 4.944372 
8.106296e+2, 3.0463198e+2, -152478.1, -204110.86, 4415.9014, -0.007883709, 0.00066502515, -152103.14, -152103.14, 0.0, 4.9777694, 4.9439545 
8.103314e+2, 3.0958024e+2, -111761.23, -114465.62, -575.1699, 0.005921779, 0.01068537, -111643.984, -111643.984, 0.0, 4.9720182, 4.9699855 
8.100328e+2, 3.1453955e+2, -125472.32, -114544.2, -2951.772, 0.016282192, -0.03890853, -113797.875, -113797.875, 0.0, 4.965795, 4.9727216 
8.0973476e+2, 3.1950238e+2, -140353.55, -116137.79, -3214.0264, 0.026723191, -0.05522075, -115718.47, -115718.47, 0.0, 4.959394, 4.9749722 
8.0943763e+2, 3.2449985e+2, -103286.08, 8146.1167, -7179.8657, 0.017877534, 0.11560062, 8606.829, 8606.829, 0.0, 4.951633, 5.0235467 
8.2594323e+2, 1.3171045e+2, -1443328.9, -1650475.0, 14033.437, 0.0069348, 0.016146041, -1442382.4, 206865.84, 0.0, 5.1137114, 4.973864 
8.2563627e+2, 1.366741e+2, -1408918.0, -1609132.0, 14430.073, 0.008624525, 0.010734379, -1407883.4, 192718.89, 0.0, 5.1089263, 4.973857 
8.253294e+2, 1.4163774e+2, -1374184.6, -1567753.8, 14806.164, 0.009160271, 0.006334135, -1373058.8, 178898.23, 0.0, 5.104265, 4.9737787 
8.2502234e+2, 1.4660186e+2, -1338107.5, -1523601.8, 18464.053, -0.007886131, 0.00466763, -1336287.4, 167020.75, 0.0, 5.099763, 4.9744554 
8.2472503e+2, 1.5156701e+2, -1302853.6, -1481481.3, 25106.582, -0.012235606, 0.009665249, -1299392.0, 155257.22, 0.0, 5.0956764, 4.9740033 
8.2443225e+2, 1.5653113e+2, -1263936.1, -1437722.4, 25503.34, -0.006076235, 0.006082352, -1260270.9, 145729.52, 0.0, 5.0923905, 4.9740047 
8.2413936e+2, 1.6149509e+2, -1225708.1, -1395292.0, 25454.99, -0.00036379485, 0.003037733, -1221969.8, 135383.06, 0.0, 5.089053, 4.9735675 
8.2384574e+2, 1.6645865e+2, -1187957.9, -1353104.0, 26230.477, 0.003810047, 0.0016258811, -1183891.8, 124817.234, 0.0, 5.0856066, 4.9730525 
8.235556e+2, 1.7142056e+2, -1154256.1, -1318275.3, 30929.22, 0.0005312131, 0.0046404726, -1148617.6, 111463.766, 0.0, 5.0821886, 4.969854 
8.232674e+2, 1.7638046e+2, -1114127.1, -1273782.0, 31112.727, -0.0071890643, 0.0030448344, -1108278.3, 103195.15, 0.0, 5.0792484, 4.9698596 
8.229794e+2, 1.8134023e+2, -1074419.1, -1230055.8, 31052.973, -0.0139762005, 0.0010805852, -1068452.1, 94414.64, 0.0, 5.076267, 4.969608 
8.226914e+2, 1.8629973e+2, -1034870.8, -1186598.9, 30979.674, -0.01702767, -0.001028249, -1028789.2, 85473.336, 0.0, 5.0732546, 4.9692664 
8.224053e+2, 1.9125691e+2, -1001467.3, -1155054.4, 33673.145, -0.0149557935, 0.0012469332, -994409.0, 71271.95, 0.0, 5.0701537, 4.9647565 
8.2212085e+2, 1.9621138e+2, -960785.0, -1110187.5, 33590.92, -0.011827393, -0.0032534092, -953580.06, 63545.95, 0.0, 5.06733, 4.964759 
8.218364e+2, 2.0116587e+2, -920471.6, -1066052.8, 33302.395, -0.00906145, -0.0069498257, -913215.2, 55355.914, 0.0, 5.064481, 4.9645047 
8.215512e+2, 2.0612031e+2, -880416.2, -1022657.5, 32238.51, -0.008483357, -0.0075927717, -873450.56, 46566.355, 0.0, 5.061624, 4.9639993 
8.2126445e+2, 2.1107216e+2, -847093.06, -993448.2, 32522.922, -0.010188986, -0.0018323225, -840191.3, 31297.072, 0.0, 5.0586886, 4.958576 
8.20978e+2, 2.1602081e+2, -806676.8, -948622.1, 32169.168, -0.012390449, -0.0030498207, -799726.6, 23264.438, 0.0, 5.055691, 4.9585676 
8.206915e+2, 2.209694e+2, -766576.25, -904372.25, 31732.969, -0.014879263, -0.0047697853, -759619.6, 14874.997, 0.0, 5.0526567, 4.9583592 
8.2040477e+2, 2.2591764e+2, -726523.06, -860399.6, 30484.926, -0.016978884, -0.007860061, -719908.2, 6093.63, 0.0, 5.049619, 4.958052 
8.20115e+2, 2.3086336e+2, -692998.1, -831722.56, 27813.908, -0.018942434, -0.0038901668, -687629.3, -10095.755, 0.0, 5.046587, 4.9524784 
8.1982374e+2, 2.358057e+2, -653518.4, -787226.7, 27085.285, -0.020233564, -0.008177856, -648240.06, -19141.602, 0.0, 5.0431676, 4.952467 
8.1953263e+2, 2.4074821e+2, -614136.44, -742843.4, 26212.594, -0.020744104, -0.011309921, -609002.7, -28341.0, 0.0, 5.0397124, 4.952414 
8.192414e+2, 2.4569118e+2, -574786.0, -698280.25, 24519.52, -0.018663246, -0.010748866, -570095.8, -37875.94, 0.0, 5.036178, 4.952448 
8.1894636e+2, 2.5063202e+2, -541278.25, -668129.1, 19719.023, -0.017313464, -0.0054535577, -538283.6, -54484.72, 0.0, 5.0326214, 4.9475656 
8.186482e+2, 2.555701e+2, -503624.5, -624248.25, 18365.055, -0.016371002, -0.005949486, -500890.38, -65485.64, 0.0, 5.0284224, 4.94761 
8.1835e+2, 2.6050812e+2, -466607.4, -581457.06, 17105.574, -0.01595096, -0.0069932677, -464113.88, -77102.055, 0.0, 5.0241547, 4.9472756 
8.180516e+2, 2.654459e+2, -428281.9, -535892.44, 15150.351, -0.01661396, -0.0106979115, -426189.6, -87566.43, 0.0, 5.019889, 4.9479055 
8.177497e+2, 2.7038282e+2, -395658.22, -504665.25, 10107.282, -0.016369848, -0.0030591814, -394728.97, -104486.36, 0.0, 5.015614, 4.943591 
8.174439e+2, 2.753175e+2, -358678.84, -459484.53, 8259.75, -0.016431456, -0.007919327, -358006.56, -116122.24, 0.0, 5.0107665, 4.9442945 
8.1713843e+2, 2.802525e+2, -322739.66, -415898.88, 7212.8477, -0.016225182, -0.010779348, -322184.53, -128661.586, 0.0, 5.005814, 4.944427 
8.168336e+2, 2.8518915e+2, -285283.97, -368167.0, 5789.835, -0.01162492, -0.00463564, -284881.47, -139737.22, 0.0, 5.000732, 4.94605 
8.1652635e+2, 2.9012525e+2, -253360.72, -333827.3, 1326.6702, -0.010182648, 0.0038576599, -253338.84, -156567.47, 0.0, 4.995493, 4.9431243 
8.162156e+2, 2.950616e+2, -217995.77, -287468.38, -999.4065, -0.007692136, 0.009969311, -217981.39, -169585.67, 0.0, 4.989633, 4.944592 
8.159052e+2, 2.999976e+2, -186436.38, -249100.9, -1313.6156, -0.00736912, 0.016070902, -186408.84, -186385.25, 0.0, 4.9837027, 4.943178 
8.15598e+2, 3.0493054e+2, -153301.61, -207465.94, 622.111, -0.009604304, 0.0013354218, -153294.47, -153294.47, 0.0, 4.9778447, 4.9428377 
8.1529355e+2, 3.098778e+2, -112595.01, -118167.57, -5010.432, -0.0006590933, 0.011761831, -109648.24, -109648.24, 0.0, 4.97211, 4.9687448 
8.14988e+2, 3.1483617e+2, -126248.92, -118024.17, -7423.482, 0.0036355145, -0.036877826, -113650.1, -113650.1, 0.0, 4.9658556, 4.9715843 
8.1468356e+2, 3.1979874e+2, -141374.28, -120156.79, -8191.5127, 0.012968214, -0.044632588, -117362.31, -117362.31, 0.0, 4.9594345, 4.973648 
8.143842e+2, 3.24792e+2, -103689.64, 7377.122, -11041.125, 0.050874878, 0.09326899, 8464.081, 8464.081, 0.0, 4.9513717, 5.0234833 
8.310457e+2, 1.3202399e+2, -1448366.1, -1647458.5, 19209.871, 0.0044023735, 0.012190443, -1446529.5, 199644.44, 0.0, 5.1112423, 4.975827 
8.3073443e+2, 1.3698901e+2, -1413587.5, -1605827.0, 19950.648, 0.009485463, 0.008713186, -1411538.9, 185976.03, 0.0, 5.10659, 4.9758425 
8.304231e+2, 1.4195396e+2, -1378677.8, -1564363.1, 20943.795, 0.011202785, 0.005523414, -1376344.8, 172512.38, 0.0, 5.1020207, 4.975737 
8.3011174e+2, 1.4691925e+2, -1342124.0, -1519516.1, 25337.611, -0.0073284893, 0.0035891617, -1338575.9, 161621.05, 0.0, 5.097631, 4.9765797 
8.29811e+2, 1.5188548e+2, -1306933.3, -1477729.0, 32894.234, -0.011938718, 0.008280675, -1300817.0, 150710.34, 0.0, 5.0936866, 4.9759135 
8.29515e+2, 1.568506e+2, -1267370.9, -1433560.9, 33588.88, -0.006155264, 0.004534007, -1260838.9, 142029.73, 0.0, 5.0906305, 4.975935 
8.2921886e+2, 1.6181555e+2, -1228471.6, -1390900.6, 33753.16, -0.00039620136, 0.00117937, -1221736.9, 132474.63, 0.0, 5.0875745, 4.975433 
8.289221e+2, 1.6678001e+2, -1189874.8, -1348093.1, 35191.844, 0.004159521, -0.0005158301, -1182400.4, 123158.26, 0.0, 5.084419, 4.974979 
8.28629e+2, 1.7174274e+2, -1155743.0, -1313262.5, 40558.715, 0.00091013545, 0.0021625785, -1145913.3, 111009.59, 0.0, 5.081268, 4.971629 
8.2833815e+2, 1.767034e+2, -1114758.3, -1268262.0, 41135.082, -0.0067865183, 0.0004718393, -1104430.0, 103877.28, 0.0, 5.078635, 4.971656 
8.280473e+2, 1.8166392e+2, -1074139.3, -1224061.1, 41527.38, -0.013646317, -0.0013169439, -1063405.0, 96288.32, 0.0, 5.0759964, 4.971398 
8.277565e+2, 1.8662415e+2, -1033696.7, -1180327.0, 41782.777, -0.01690539, -0.0026591138, -1022626.3, 88455.7, 0.0, 5.073355, 4.9709725 
8.2746774e+2, 1.9158195e+2, -999386.44, -1148529.1, 45264.758, -0.01503681, 0.00027861167, -986723.7, 75771.03, 0.0, 5.070659, 4.966345 
8.271807e+2, 1.9653694e+2, -957614.7, -1103049.4, 45689.82, -0.012187381, -0.0035522007, -944452.06, 69482.875, 0.0, 5.0682316, 4.9663677 
8.268936e+2, 2.0149186e+2, -916160.1, -1058270.8, 45778.484, -0.009574356, -0.0070115984, -902690.1, 62685.71, 0.0, 5.065795, 4.966139 
8.266057e+2, 2.064466e+2, -875096.3, -1014527.44, 45398.47, -0.009265643, -0.00834413, -861617.6, 55201.094, 0.0, 5.063354, 4.9655557 
8.2631624e+2, 2.1139859e+2, -840783.06, -985188.6, 46239.613, -0.011067333, -0.0034423766, -827245.9, 41042.945, 0.0, 5.060865, 4.959965 
8.260269e+2, 2.1634729e+2, -799131.9, -939691.94, 46457.563, -0.013099298, -0.005070831, -785164.75, 34626.3, 0.0, 5.0583224, 4.9599776 
8.257377e+2, 2.2129588e+2, -757684.2, -894620.06, 46623.973, -0.015072426, -0.006956183, -743317.06, 27977.277, 0.0, 5.0557647, 4.9598336 
8.254482e+2, 2.2624417e+2, -716662.2, -850504.56, 45836.375, -0.016360201, -0.009432914, -702469.75, 20331.186, 0.0, 5.053175, 4.959364 
8.2515544e+2, 2.3118971e+2, -682103.06, -821750.5, 43753.24, -0.017908907, -0.005212945, -669527.1, 4807.319, 0.0, 5.0506067, 4.953602 
8.24861e+2, 2.3613173e+2, -641443.4, -776619.0, 43650.406, -0.01874524, -0.008943843, -628573.3, -2670.7952, 0.0, 5.0476284, 4.9536114 
8.245667e+2, 2.4107386e+2, -600855.94, -731688.1, 43491.902, -0.01868699, -0.011166497, -587717.5, -10248.073, 0.0, 5.0446453, 4.953537 
8.242721e+2, 2.4601626e+2, -560372.94, -686987.7, 42084.164, -0.016525764, -0.010321997, -547661.2, -18627.316, 0.0, 5.041623, 4.953385 
8.239733e+2, 2.5095624e+2, -525814.75, -657004.56, 37625.125, -0.015372526, -0.005400372, -515789.97, -35167.97, 0.0, 5.0385637, 4.9482226 
8.236711e+2, 2.5589335e+2, -486943.7, -612496.75, 36717.016, -0.014093131, -0.0053864093, -476994.47, -44756.496, 0.0, 5.0348134, 4.9482894 
8.233689e+2, 2.608303e+2, -448469.47, -568799.56, 35879.625, -0.01314919, -0.006109558, -438583.25, -54727.8, 0.0, 5.031044, 4.948056 
8.230661e+2, 2.657671e+2, -409592.5, -523243.75, 34155.64, -0.014036388, -0.009320733, -400117.6, -64641.242, 0.0, 5.027051, 4.9485645 
8.2275945e+2, 2.707028e+2, -377094.47, -492637.3, 28693.646, -0.014498086, -0.0017804549, -370361.16, -83253.78, 0.0, 5.022796, 4.9440346 
8.224485e+2, 2.7563617e+2, -340870.2, -447833.9, 26513.65, -0.015087755, -0.0069230585, -334658.8, -95896.8, 0.0, 5.0176687, 4.9447484 
8.2213783e+2, 2.8056982e+2, -305477.5, -404451.6, 25148.305, -0.014935535, -0.009724641, -299454.16, -109040.72, 0.0, 5.0125003, 4.9449224 
8.218278e+2, 2.855052e+2, -268646.38, -357579.66, 23331.568, -0.010136138, -0.0030393032, -262897.03, -120849.21, 0.0, 5.0073023, 4.9463058 
8.215149e+2, 2.9043987e+2, -237283.89, -323957.03, 17904.39, -0.008208597, 0.005153159, -233730.95, -140041.4, 0.0, 5.001884, 4.9432387 
8.211981e+2, 2.9537466e+2, -203012.78, -278285.94, 14937.3955, -0.004122267, 0.011152716, -200156.92, -154827.1, 0.0, 4.9956303, 4.944665 
8.208818e+2, 3.0030912e+2, -173246.69, -241517.13, 14657.218, -0.0027571234, 0.018252485, -170232.92, -170232.92, 0.0, 4.98918, 4.942933 
8.205684e+2, 3.0524048e+2, -141272.89, -199911.72, 15693.384, -0.008532832, 0.0037307672, -137337.06, -137337.06, 0.0, 4.982782, 4.942827 
8.202572e+2, 3.1018618e+2, -102502.62, -111863.8, 8667.311, -0.0051690573, 0.011005957, -97332.82, -97332.82, 0.0, 4.976348, 4.968652 
8.199443e+2, 3.1514302e+2, -119085.59, -113077.49, 5411.966, -0.0060205725, -0.04079915, -109891.734, -109891.734, 0.0, 4.9690094, 4.9714756 
8.196334e+2, 3.2010555e+2, -139840.36, -123347.34, 4168.3003, 0.0060983305, -0.028332591, -122353.74, -122353.74, 0.0, 4.9616394, 4.9709964 
8.193307e+2, 3.250923e+2, -94805.164, 24277.297, -947.84766, 0.08593597, -0.003945331, 24284.84, 24284.84, 0.0, 4.9529347, 5.028371 
8.36147e+2, 1.3234274e+2, -1445878.9, -1643435.3, 15715.49, 0.0017111935, 0.009897618, -1444636.5, 198411.98, 0.0, 5.1113186, 4.9772234 
8.358314e+2, 1.3730933e+2, -1411097.3, -1601813.8, 16471.967, 0.01026083, 0.008199914, -1409685.0, 184689.55, 0.0, 5.1066694, 4.9772367 
8.3551556e+2, 1.4227575e+2, -1376114.4, -1560259.0, 17695.307, 0.012678061, 0.0059586973, -1374429.4, 171273.31, 0.0, 5.102114, 4.9771595 
8.352e+2, 1.4724243e+2, -1339643.0, -1515489.8, 22469.166, -0.0073376177, 0.003913044, -1336817.4, 160211.47, 0.0, 5.0977216, 4.977971 
8.348958e+2, 1.522099e+2, -1304931.9, -1474244.8, 30567.275, -0.012104191, 0.008146553, -1299582.4, 148764.8, 0.0, 5.0937266, 4.977124 
8.3459675e+2, 1.571762e+2, -1265377.5, -1430086.5, 31263.56, -0.0066064782, 0.0041212747, -1259643.0, 140034.1, 0.0, 5.0906706, 4.977145 
8.342976e+2, 1.6214228e+2, -1226606.6, -1387676.4, 31439.803, -0.00067868386, 0.00041017495, -1220687.4, 130321.38, 0.0, 5.087612, 4.976562 
8.339978e+2, 1.6710782e+2, -1188029.8, -1344865.3, 32788.047, 0.0044452436, -0.001589588, -1181451.0, 120894.1, 0.0, 5.08445, 4.976114 
8.337019e+2, 1.7207153e+2, -1154237.3, -1310499.1, 38535.348, 0.0011900302, 0.00062338315, -1145250.9, 108448.58, 0.0, 5.0812726, 4.9726048 
8.334084e+2, 1.7703313e+2, -1113259.6, -1265506.8, 39112.797, -0.0064969272, -0.0012604621, -1103799.3, 101275.35, 0.0, 5.07864, 4.9726315 
8.3311486e+2, 1.8199459e+2, -1072772.3, -1221579.4, 39376.277, -0.013538854, -0.0028724174, -1062995.1, 93456.305, 0.0, 5.0759993, 4.972283 
8.3282137e+2, 1.8695576e+2, -1032351.06, -1177833.6, 39837.836, -0.017240264, -0.0034865024, -1022156.5, 85674.71, 0.0, 5.073354, 4.971864 
8.325301e+2, 1.9191442e+2, -998301.0, -1146490.9, 43391.313, -0.015419245, 0.00006921515, -986530.56, 72705.12, 0.0, 5.0706472, 4.967078 
8.322406e+2, 1.9687021e+2, -956534.44, -1101016.1, 43817.832, -0.012832759, -0.0030883676, -944284.25, 66384.14, 0.0, 5.068219, 4.967101 
8.31951e+2, 2.0182586e+2, -915182.44, -1056436.3, 43977.05, -0.010454123, -0.006337248, -902609.94, 59492.406, 0.0, 5.06578, 4.9668064 
8.3166057e+2, 2.067812e+2, -874072.9, -1012626.44, 43331.934, -0.010181239, -0.008344581, -861637.1, 51902.242, 0.0, 5.063341, 4.9662485 
8.3136857e+2, 2.1173364e+2, -840050.7, -983932.3, 44294.535, -0.012217203, -0.0043858476, -827507.8, 37496.938, 0.0, 5.0608554, 4.960436 
8.310768e+2, 2.1668276e+2, -798406.0, -938437.5, 44514.996, -0.014215547, -0.00644465, -785453.2, 31049.738, 0.0, 5.0583115, 4.960449 
8.307851e+2, 2.216318e+2, -757087.4, -893633.25, 44677.074, -0.015929913, -0.008419414, -743768.44, 24233.479, 0.0, 5.055751, 4.960215 
8.30493e+2, 2.2658052e+2, -715988.06, -849368.8, 43731.47, -0.016556684, -0.010347475, -702928.56, 16575.508, 0.0, 5.0531626, 4.9597993 
8.301974e+2, 2.315263e+2, -681761.9, -821540.25, 41506.457, -0.017208198, -0.0058816914, -670365.9, 669.14, 0.0, 5.050615, 4.9537163 
8.299001e+2, 2.364685e+2, -641101.7, -776410.3, 41407.89, -0.017334266, -0.009018418, -629435.7, -6834.215, 0.0, 5.0476365, 4.9537253 
8.2960284e+2, 2.4141075e+2, -600756.4, -732039.06, 41059.91, -0.016747992, -0.010470365, -588972.25, -14804.882, 0.0, 5.044655, 4.953456 
8.293051e+2, 2.4635305e+2, -560311.25, -687369.5, 39801.758, -0.014918095, -0.0093745, -548872.9, -23139.445, 0.0, 5.0416245, 4.953296 
8.290028e+2, 2.512927e+2, -526146.0, -658647.75, 34789.242, -0.013888786, -0.0042081815, -517567.25, -40241.785, 0.0, 5.0386024, 4.947698 
8.2869685e+2, 2.5622934e+2, -487281.38, -614157.1, 33892.676, -0.012786731, -0.003345542, -478795.13, -49848.29, 0.0, 5.0348516, 4.947758 
8.283909e+2, 2.611658e+2, -448841.1, -570537.56, 32971.496, -0.012029896, -0.0037616126, -440482.22, -59912.375, 0.0, 5.0310817, 4.9474974 
8.2808405e+2, 2.66102e+2, -409565.06, -524408.0, 31096.928, -0.012488162, -0.0074975877, -401685.34, -69489.54, 0.0, 5.027149, 4.94818 
8.277729e+2, 2.7103692e+2, -377124.4, -495101.84, 25337.816, -0.012600219, -0.00060486724, -371912.84, -88078.66, 0.0, 5.0230894, 4.943128 
8.27457e+2, 2.7596936e+2, -340007.63, -449613.66, 23507.96, -0.012929334, -0.006347366, -335178.47, -99681.09, 0.0, 5.018237, 4.9439573 
8.271414e+2, 2.8090212e+2, -304045.84, -406124.84, 22509.883, -0.012908171, -0.0091686435, -299302.5, -112145.38, 0.0, 5.0133176, 4.9440513 
8.2682604e+2, 2.8583655e+2, -266547.47, -358381.13, 20672.63, -0.010315038, -0.0030450725, -262108.44, -123306.66, 0.0, 5.0082498, 4.945687 
8.265073e+2, 2.9077014e+2, -235415.0, -326556.44, 15182.897, -0.0103155, 0.0064493553, -232952.28, -142497.89, 0.0, 5.003049, 4.941908 
8.261842e+2, 2.9570362e+2, -200140.77, -280089.88, 12516.243, -0.00774691, 0.013395898, -198227.13, -156119.22, 0.0, 4.997091, 4.9434853 
8.2586175e+2, 3.0063668e+2, -169365.17, -242518.86, 12464.246, -0.0063907467, 0.01998042, -167299.78, -167299.78, 0.0, 4.9909444, 4.9419003 
8.255426e+2, 3.0556682e+2, -137780.53, -201153.28, 14051.204, -0.007924128, 0.005612656, -134804.78, -134804.78, 0.0, 4.984436, 4.9417562 
8.2522494e+2, 3.1051072e+2, -99786.96, -114453.55, 5974.7793, -0.0022458087, 0.015019663, -97661.125, -97661.125, 0.0, 4.9778438, 4.9671974 
8.2490474e+2, 3.1546557e+2, -116675.4, -116125.22, 2506.3748, -0.00092101353, -0.035064954, -113878.88, -113878.88, 0.0, 4.9704313, 4.9698963 
8.245866e+2, 3.204254e+2, -132184.52, -114141.52, 1320.1697, 0.0130040515, -0.037362766, -114045.445, -114045.445, 0.0, 4.9630585, 4.973827 
8.2427496e+2, 3.2541776e+2, -88653.4, 19313.537, -6318.42, 0.078932256, 0.067685366, 19682.045, 19682.045, 0.0, 4.9562774, 5.0254574 
8.412482e+2, 1.3266164e+2, -1444698.3, -1640002.0, 13043.232, 0.001977818, 0.0064914525, -1443831.0, 196090.13, 0.0, 5.1109376, 4.9786386 
8.4092814e+2, 1.3762982e+2, -1408947.0, -1597932.6, 13607.647, 0.011300558, 0.0071809855, -1407972.3, 183260.06, 0.0, 5.106631, 4.978643 
8.406078e+2, 1.4259773e+2, -1373654.3, -1556214.4, 15083.194, 0.013564264, 0.006141504, -1372416.5, 170129.86, 0.0, 5.102183, 4.978573 
8.4028816e+2, 1.4756575e+2, -1337076.4, -1511424.5, 19978.494, -0.0076113814, 0.00409291, -1334816.4, 159043.0, 0.0, 5.097848, 4.979359 
8.399806e+2, 1.5253446e+2, -1302866.4, -1470703.9, 28622.96, -0.012410838, 0.0079326285, -1298119.3, 147046.45, 0.0, 5.09379, 4.978343 
8.396784e+2, 1.575019e+2, -1263375.9, -1426591.6, 29197.748, -0.00700125, 0.0036354624, -1258310.0, 138174.4, 0.0, 5.090714, 4.978362 
8.3937615e+2, 1.6246909e+2, -1224741.6, -1384575.0, 29168.885, -0.0007165806, -0.0003375657, -1219584.8, 128220.22, 0.0, 5.0876765, 4.9776387 
8.3907336e+2, 1.674357e+2, -1186168.1, -1341575.8, 30616.162, 0.0047678165, -0.0026086622, -1180354.0, 118776.83, 0.0, 5.0844803, 4.9772706 
8.387747e+2, 1.7240039e+2, -1152805.3, -1307772.9, 36581.38, 0.0015175649, -0.00085701287, -1144603.9, 105871.664, 0.0, 5.0812535, 4.97358 
8.3847845e+2, 1.7736292e+2, -1111876.8, -1262808.4, 37135.44, -0.006174252, -0.002968939, -1103234.8, 98606.71, 0.0, 5.078606, 4.9736066 
8.381823e+2, 1.8232532e+2, -1071626.3, -1219320.8, 37300.31, -0.013475437, -0.004275548, -1062740.6, 90468.48, 0.0, 5.0759516, 4.973116 
8.378861e+2, 1.8728742e+2, -1031095.8, -1175313.5, 37832.89, -0.01753278, -0.004213553, -1021773.6, 82806.35, 0.0, 5.073305, 4.9727874 
8.375923e+2, 1.9224693e+2, -997318.9, -1144504.1, 41517.406, -0.015801972, -0.000035975525, -986415.56, 69560.734, 0.0, 5.070599, 4.9678106 
8.3730036e+2, 1.972035e+2, -955453.44, -1098984.6, 41946.08, -0.013499727, -0.002555817, -944094.0, 63307.47, 0.0, 5.068208, 4.967834 
8.370083e+2, 2.0215987e+2, -914204.44, -1054619.6, 42105.383, -0.011316088, -0.005731436, -902546.5, 56282.14, 0.0, 5.065768, 4.9674673 
8.3671534e+2, 2.0711578e+2, -873080.9, -1010782.94, 41324.17, -0.011056323, -0.008397927, -861631.56, 48628.355, 0.0, 5.0633283, 4.9669223 
8.3642083e+2, 2.120687e+2, -839317.75, -982677.1, 42348.652, -0.013336638, -0.0053743096, -827742.5, 33978.152, 0.0, 5.060847, 4.960906 
8.3612645e+2, 2.1701822e+2, -797679.6, -937184.2, 42571.617, -0.015333905, -0.007904283, -785714.56, 27500.107, 0.0, 5.0583014, 4.9609203 
8.3583224e+2, 2.219677e+2, -756386.75, -892441.8, 42599.098, -0.016623558, -0.00985102, -744149.5, 20559.814, 0.0, 5.0557404, 4.960666 
8.3553755e+2, 2.2691686e+2, -715444.3, -848504.56, 41760.805, -0.016646128, -0.011122068, -703423.7, 12783.337, 0.0, 5.053149, 4.96014 
8.3523923e+2, 2.3186292e+2, -681419.6, -821331.4, 39261.668, -0.016293064, -0.0064373664, -671155.1, -3419.75, 0.0, 5.050624, 4.9538293 
8.3493894e+2, 2.3680523e+2, -640758.94, -776203.0, 39167.367, -0.01571136, -0.009067135, -630248.25, -10948.001, 0.0, 5.047646, 4.9538383 
8.346388e+2, 2.417476e+2, -600588.8, -732234.1, 38731.805, -0.014760903, -0.009721317, -590038.9, -19173.438, 0.0, 5.0446653, 4.9534287 
8.3433795e+2, 2.4668983e+2, -560419.1, -688143.4, 37420.797, -0.013303293, -0.008115331, -550263.1, -27829.904, 0.0, 5.0416274, 4.9530697 
8.340322e+2, 2.516291e+2, -526475.2, -660293.5, 31956.492, -0.012427895, -0.0027517644, -519235.5, -45206.137, 0.0, 5.038643, 4.947171 
8.3372235e+2, 2.5656527e+2, -487617.22, -615820.56, 31071.021, -0.011486072, -0.0012070679, -480483.84, -54827.668, 0.0, 5.034892, 4.9472246 
8.334125e+2, 2.6150122e+2, -449054.53, -571918.7, 30117.404, -0.01095031, -0.0014189974, -442069.1, -64784.457, 0.0, 5.0311203, 4.947063 
8.331018e+2, 2.6643685e+2, -409892.03, -526050.1, 27867.877, -0.010769807, -0.0057122167, -403552.2, -74636.38, 0.0, 5.0271792, 4.9476604 
8.327861e+2, 2.71371e+2, -377802.34, -497964.72, 21689.205, -0.010573726, 0.00060184527, -374007.3, -93445.88, 0.0, 5.023162, 4.9421835 
8.3246535e+2, 2.7630252e+2, -340506.88, -452105.3, 19837.85, -0.010680972, -0.005991156, -337085.38, -104852.36, 0.0, 5.0183125, 4.9431424 
8.321448e+2, 2.8123444e+2, -304645.53, -408813.75, 18699.838, -0.011071275, -0.008896336, -301390.34, -117489.37, 0.0, 5.013387, 4.9431663 
8.3182406e+2, 2.8616795e+2, -267043.03, -360897.38, 16697.139, -0.011017512, -0.0026603146, -264161.03, -128606.02, 0.0, 5.0083213, 4.9448667 
8.314994e+2, 2.911005e+2, -236415.84, -330678.03, 10731.43, -0.012986023, 0.0076207663, -235209.55, -147991.27, 0.0, 5.0031643, 4.940527 
8.311701e+2, 2.9603276e+2, -200944.34, -283867.0, 8008.4473, -0.012692455, 0.014939007, -200177.98, -161293.64, 0.0, 4.997217, 4.942224 
8.3084154e+2, 3.0096447e+2, -169954.66, -245615.42, 7749.6675, -0.012277622, 0.020548241, -169169.03, -169169.03, 0.0, 4.9910355, 4.9408927 
8.305167e+2, 3.058935e+2, -139086.83, -205959.13, 9263.019, -0.008175092, 0.008197562, -137827.45, -137827.45, 0.0, 4.9845343, 4.94014 
8.301927e+2, 3.1083572e+2, -100760.45, -119334.19, 372.22928, 0.0018539296, 0.017969577, -100753.0, -100753.0, 0.0, 4.978028, 4.9655385 
8.2986534e+2, 3.157888e+2, -117704.76, -121362.016, -3030.6777, 0.006214413, -0.030045016, -115993.77, -115993.77, 0.0, 4.970642, 4.9681106 
8.2953954e+2, 3.2074684e+2, -131474.56, -115190.72, -4327.2217, 0.017401377, -0.038604945, -114112.24, -114112.24, 0.0, 4.9632573, 4.973554 
8.2921904e+2, 3.2574e+2, -89481.18, 14632.303, -9065.152, 0.05421725, 0.12215809, 15415.71, 15415.71, 0.0, 4.9564896, 5.0239773 
8.4634846e+2, 1.3298362e+2, -1449044.8, -1638277.3, 14575.322, 0.0063966587, -0.0010576942, -1447928.8, 188833.55, 0.0, 5.108611, 4.98032 
8.460236e+2, 1.3795343e+2, -1412630.4, -1595868.9, 15312.141, 0.011057813, 0.0036558197, -1411359.6, 176699.31, 0.0, 5.1045394, 4.980324 
8.456989e+2, 1.4292279e+2, -1376261.0, -1553615.0, 16967.555, 0.0112375645, 0.0048302924, -1374652.4, 164707.11, 0.0, 5.1004667, 4.980255 
8.453754e+2, 1.4789206e+2, -1338948.0, -1508572.8, 22060.498, -0.009884495, 0.0031891249, -1336125.9, 154534.5, 0.0, 5.096429, 4.98098 
8.4506476e+2, 1.5286186e+2, -1304035.8, -1467687.4, 31276.69, -0.013408851, 0.0069244867, -1298262.0, 143693.94, 0.0, 5.092716, 4.9798346 
8.447598e+2, 1.5783039e+2, -1263569.6, -1423105.3, 31974.97, -0.006566851, 0.0027663365, -1257399.6, 135864.48, 0.0, 5.0899873, 4.97985 
8.4445465e+2, 1.6279855e+2, -1224494.8, -1381154.1, 31786.35, 0.00057450373, -0.0010862551, -1218290.9, 126284.31, 0.0, 5.087167, 4.979003 
8.4414876e+2, 1.6776606e+2, -1185245.8, -1337898.9, 33501.402, 0.005701305, -0.0032757982, -1178217.1, 117675.266, 0.0, 5.084231, 4.9785986 
8.438472e+2, 1.7273156e+2, -1151539.4, -1304161.1, 39571.535, 0.0019308396, -0.0016576059, -1141889.5, 105339.75, 0.0, 5.081203, 4.9747815 
8.435484e+2, 1.7769487e+2, -1110159.6, -1259026.6, 39997.727, -0.0061874753, -0.003618981, -1100093.6, 98493.914, 0.0, 5.0787215, 4.9747934 
8.4324956e+2, 1.8265802e+2, -1069592.8, -1215515.6, 40120.992, -0.013554315, -0.004738166, -1059289.1, 90658.67, 0.0, 5.076206, 4.9742494 
8.429508e+2, 1.8762083e+2, -1028716.75, -1171380.5, 40479.44, -0.01722242, -0.0046882513, -1018031.44, 83280.375, 0.0, 5.0736847, 4.9739122 
8.426545e+2, 1.92581e+2, -994937.25, -1140873.5, 44270.516, -0.015076184, -0.00059706444, -982557.75, 70144.11, 0.0, 5.0710573, 4.96879 
8.4236014e+2, 1.9753817e+2, -953078.1, -1095410.5, 44557.54, -0.012424378, -0.0030321986, -940280.0, 63841.227, 0.0, 5.0686727, 4.968797 
8.4206575e+2, 2.0249505e+2, -911754.94, -1051241.3, 44349.195, -0.010021721, -0.0061242464, -898848.44, 56694.664, 0.0, 5.0663023, 4.968336 
8.417703e+2, 2.0745148e+2, -870391.2, -1007395.56, 43627.54, -0.0101736905, -0.008718447, -857678.2, 49291.49, 0.0, 5.063963, 4.9677553 
8.414732e+2, 2.1240474e+2, -836599.94, -979748.56, 44278.05, -0.012864178, -0.00619047, -824011.2, 34415.805, 0.0, 5.061573, 4.961546 
8.411762e+2, 2.1735454e+2, -794833.1, -934245.0, 44235.54, -0.015082282, -0.009024435, -781981.8, 27936.424, 0.0, 5.059075, 4.9615498 
8.4087944e+2, 2.223043e+2, -753670.75, -889753.25, 43965.195, -0.01617413, -0.0108907, -740702.4, 20707.578, 0.0, 5.0564985, 4.961223 
8.405821e+2, 2.2725378e+2, -712919.44, -846162.9, 42655.09, -0.015762154, -0.011469276, -700434.2, 12470.459, 0.0, 5.0538783, 4.9606 
8.40281e+2, 2.3219997e+2, -679149.3, -819701.44, 39727.99, -0.014641725, -0.0065926337, -668697.2, -4265.4077, 0.0, 5.051351, 4.954056 
8.3997786e+2, 2.3714232e+2, -638640.5, -774699.94, 39316.395, -0.013444395, -0.008856564, -628096.5, -12100.334, 0.0, 5.048318, 4.954053 
8.396747e+2, 2.4208467e+2, -598983.25, -731521.06, 38744.05, -0.012375562, -0.008774533, -588488.44, -20926.668, 0.0, 5.0452585, 4.9534087 
8.393706e+2, 2.4702668e+2, -559139.0, -687812.06, 36634.594, -0.011315499, -0.0067640017, -549439.9, -30307.777, 0.0, 5.042132, 4.9529634 
8.3906126e+2, 2.5196558e+2, -525751.06, -661121.44, 30668.342, -0.010749277, -0.001225823, -519127.2, -48394.254, 0.0, 5.0390778, 4.946718 
8.387477e+2, 2.569012e+2, -487299.56, -616920.75, 29433.56, -0.010016555, 0.00079022243, -480929.06, -58563.367, 0.0, 5.0351806, 4.9467487 
8.384341e+2, 2.6183662e+2, -449245.53, -573388.6, 28016.13, -0.009715083, 0.00070422346, -443215.84, -69216.02, 0.0, 5.031235, 4.9465413 
8.381193e+2, 2.6677164e+2, -410278.6, -527434.06, 25059.152, -0.008858111, -0.003967631, -405143.6, -79507.23, 0.0, 5.027163, 4.947237 
8.377991e+2, 2.7170497e+2, -378621.97, -500783.34, 18295.758, -0.008366066, 0.0017733871, -375940.72, -98651.45, 0.0, 5.023185, 4.941265 
8.3747345e+2, 2.766356e+2, -341034.94, -454536.84, 16363.295, -0.008288912, -0.005888905, -338722.97, -109753.7, 0.0, 5.0183816, 4.9423423 
8.371479e+2, 2.8156665e+2, -305549.38, -411801.75, 15250.338, -0.009461158, -0.008903137, -303403.8, -122758.055, 0.0, 5.0134025, 4.9421887 
8.368218e+2, 2.864993e+2, -267827.4, -363631.44, 12804.405, -0.011991037, -0.0017424431, -266145.6, -133836.89, 0.0, 5.0083275, 4.943988 
8.364913e+2, 2.914307e+2, -237451.22, -334541.44, 6535.769, -0.015908973, 0.008554575, -237013.23, -153030.06, 0.0, 5.003239, 4.9392433 
8.361557e+2, 2.9636174e+2, -201953.13, -287644.1, 3753.4678, -0.017854286, 0.015672155, -201789.03, -166127.11, 0.0, 4.997276, 4.9409804 
8.3582103e+2, 3.0129224e+2, -171293.55, -249870.33, 3647.1555, -0.0182433, 0.022099791, -171124.63, -171124.63, 0.0, 4.9910483, 4.93949 
8.3549064e+2, 3.0622002e+2, -140370.1, -210260.88, 4334.0396, -0.007442919, 0.010632448, -140102.36, -140102.36, 0.0, 4.9845653, 4.9387155 
8.3516026e+2, 3.111605e+2, -102186.21, -124649.125, -4816.8164, 0.0068803597, 0.017672794, -101196.9, -101196.9, 0.0, 4.9781275, 4.9637346 
8.348259e+2, 3.1611174e+2, -119187.3, -126732.234, -8335.111, 0.014486954, -0.032352537, -113810.69, -113810.69, 0.0, 4.970698, 4.966326 
8.344921e+2, 3.2106864e+2, -133717.7, -121822.83, -9872.987, 0.020972159, -0.033053655, -116244.305, -116244.305, 0.0, 4.9632516, 4.971321 
8.341637e+2, 3.260561e+2, -89529.65, 13281.9795, -10963.463, 0.03063623, 0.07983858, 14438.084, 14438.084, 0.0, 4.9564595, 5.0235996 
8.5144454e+2, 1.3331555e+2, -1458287.6, -1636727.3, 18906.814, 0.010361792, -0.008041765, -1456306.3, 177199.81, 0.0, 5.1045017, 4.9826035 
8.511153e+2, 1.3828729e+2, -1421061.9, -1593744.9, 19965.486, 0.010292527, 0.00024545155, -1418783.5, 166001.78, 0.0, 5.1007047, 4.9826536 
8.507866e+2, 1.4325835e+2, -1383888.0, -1550906.3, 22178.625, 0.008608395, 0.0026804418, -1380993.0, 155076.7, 0.0, 5.096904, 4.982638 
8.5045964e+2, 1.4822914e+2, -1345977.3, -1505743.3, 28080.861, -0.012580539, 0.0013756045, -1341185.4, 146170.14, 0.0, 5.0931664, 4.98324 
8.501463e+2, 1.5320039e+2, -1310681.1, -1464624.8, 38129.152, -0.014380239, 0.0048444495, -1301754.8, 136882.27, 0.0, 5.0896792, 4.982031 
8.49839e+2, 1.5817031e+2, -1269397.4, -1419575.3, 39098.242, -0.0057985107, 0.0010741908, -1259828.1, 130103.484, 0.0, 5.0872455, 4.982054 
8.4953123e+2, 1.631398e+2, -1229459.6, -1377335.6, 39164.113, 0.0020517157, -0.0024461758, -1219727.6, 121502.25, 0.0, 5.0847864, 4.9811187 
8.4922266e+2, 1.6810857e+2, -1189347.5, -1333624.0, 41220.71, 0.007047303, -0.0042736847, -1178401.0, 114134.04, 0.0, 5.082175, 4.980706 
8.489187e+2, 1.7307524e+2, -1155059.3, -1299590.8, 48043.277, 0.0025026312, -0.0025027902, -1140546.6, 103313.945, 0.0, 5.079423, 4.976832 
8.486175e+2, 1.7803967e+2, -1112750.0, -1253897.9, 48904.55, -0.0065463353, -0.004243077, -1097461.6, 97746.41, 0.0, 5.0772743, 4.9768686 
8.483163e+2, 1.8300389e+2, -1071178.4, -1209766.5, 49378.652, -0.014020523, -0.0054701474, -1055384.8, 91173.305, 0.0, 5.0751143, 4.97636 
8.480153e+2, 1.8796773e+2, -1029396.44, -1165229.0, 50337.66, -0.016927544, -0.0057797367, -1012775.75, 85136.125, 0.0, 5.0729527, 4.9759836 
8.47717e+2, 1.9292885e+2, -994737.56, -1134265.9, 54813.074, -0.013919788, -0.002247833, -975780.2, 73512.125, 0.0, 5.07068, 4.970837 
8.474206e+2, 1.9788694e+2, -951812.25, -1088174.3, 55676.188, -0.010084656, -0.0048081535, -931967.75, 68734.695, 0.0, 5.0686884, 4.970869 
8.471241e+2, 2.0284471e+2, -909676.4, -1043845.75, 56010.164, -0.006948999, -0.007622412, -889368.3, 62747.5, 0.0, 5.0666957, 4.9702783 
8.468264e+2, 2.0780194e+2, -867180.94, -999274.44, 55949.195, -0.00711922, -0.009565437, -846668.56, 56866.07, 0.0, 5.064753, 4.96976 
8.465271e+2, 2.1275589e+2, -832408.6, -971365.8, 57355.01, -0.010080628, -0.0069444915, -811793.5, 43191.973, 0.0, 5.0628004, 4.9634247 
8.462279e+2, 2.1770626e+2, -789385.56, -925100.5, 58051.953, -0.012756839, -0.00944035, -767942.06, 38529.168, 0.0, 5.060767, 4.963468 
8.459288e+2, 2.2265652e+2, -747132.1, -880211.3, 58536.785, -0.0141175715, -0.011155118, -725048.56, 32909.82, 0.0, 5.0586634, 4.963052 
8.456289e+2, 2.2760639e+2, -705029.3, -835730.4, 57684.82, -0.0135302, -0.011668538, -683212.0, 26237.457, 0.0, 5.0565243, 4.962508 
8.453253e+2, 2.3255281e+2, -670060.75, -809100.3, 55647.273, -0.012014873, -0.0068032844, -650532.1, 10442.222, 0.0, 5.054545, 4.9557524 
8.4501946e+2, 2.3749532e+2, -628053.25, -763217.06, 56053.582, -0.0100694625, -0.008621307, -607832.44, 4705.025, 0.0, 5.0520687, 4.955796 
8.447135e+2, 2.4243772e+2, -586923.7, -719229.25, 56334.137, -0.008617821, -0.008597886, -566187.3, -2084.5488, 0.0, 5.049579, 4.9551625 
8.444065e+2, 2.4737969e+2, -545549.8, -674805.94, 55026.504, -0.0076034353, -0.0068769646, -525297.4, -9624.032, 0.0, 5.047081, 4.9546676 
8.4409374e+2, 2.523182e+2, -510504.3, -648054.8, 49778.797, -0.007847165, -0.0014567167, -494379.84, -27102.076, 0.0, 5.044772, 4.9480968 
8.4377646e+2, 2.572532e+2, -470230.66, -602883.44, 49533.23, -0.0078608, 0.00005643401, -453775.84, -34859.168, 0.0, 5.0415597, 4.948157 
8.434592e+2, 2.6218796e+2, -430070.16, -558055.7, 49041.125, -0.0077196057, -0.0005786806, -413439.7, -42882.38, 0.0, 5.038364, 4.9480643 
8.431405e+2, 2.6712236e+2, -389482.7, -511897.78, 46677.09, -0.006521839, -0.0040160134, -373715.47, -51515.29, 0.0, 5.035036, 4.9484925 
8.428157e+2, 2.7205473e+2, -357575.6, -485950.78, 39616.957, -0.0054992996, 0.0023972716, -346334.06, -72471.195, 0.0, 5.0312715, 4.942176 
8.4248513e+2, 2.7698418e+2, -320292.47, -439714.06, 37479.934, -0.0043595955, -0.0045328722, -309504.16, -83950.41, 0.0, 5.026332, 4.943327 
8.421545e+2, 2.819141e+2, -284997.03, -397340.9, 35883.66, -0.0053927866, -0.006756206, -274513.72, -97271.9, 0.0, 5.0213156, 4.943087 
8.418227e+2, 2.868453e+2, -248644.17, -350397.3, 32797.168, -0.009409811, -0.00008563538, -238989.1, -110070.37, 0.0, 5.015852, 4.944642 
8.414861e+2, 2.917752e+2, -219865.1, -322324.4, 25978.1, -0.014398099, 0.008857543, -213654.88, -133046.3, 0.0, 5.0102105, 4.939769 
8.4114414e+2, 2.967046e+2, -185466.28, -275945.06, 22899.4, -0.01788581, 0.015148259, -180000.78, -147697.38, 0.0, 5.0038524, 4.941503 
8.4080315e+2, 3.0163354e+2, -156613.23, -240623.36, 22442.18, -0.018580073, 0.022472775, -150993.97, -150993.97, 0.0, 4.997271, 4.939315 
8.404668e+2, 3.065598e+2, -124920.51, -198635.8, 22993.576, -0.004546558, 0.011676191, -118336.35, -118336.35, 0.0, 4.9906507, 4.9394703 
8.401298e+2, 3.114987e+2, -88480.93, -116110.055, 12259.578, 0.013570682, 0.01901834, -83825.54, -83825.54, 0.0, 4.9839444, 4.963579 
8.397883e+2, 3.1644797e+2, -107219.81, -119176.81, 7989.8774, 0.029026551, -0.032145813, -103219.305, -103219.305, 0.0, 4.9758716, 4.966099 
8.394466e+2, 3.214036e+2, -121746.516, -112449.12, 6327.1904, 0.03366939, -0.01700715, -109246.46, -109246.46, 0.0, 4.9680095, 4.9719095 
8.391103e+2, 3.2638496e+2, -84283.21, 19904.773, 5935.2534, 0.019350713, -0.009533107, 20241.795, 20241.795, 0.0, 4.9587646, 5.024142 
8.565385e+2, 1.3365214e+2, -1455271.6, -1631566.5, 15977.01, 0.0128895035, -0.0132079115, -1453835.4, 176369.16, 0.0, 5.1045847, 4.984373 
8.562049e+2, 1.3862598e+2, -1418028.8, -1588523.9, 17081.76, 0.008364022, -0.0016471957, -1416334.1, 165130.48, 0.0, 5.1007843, 4.98445 
8.558725e+2, 1.4359888e+2, -1380928.8, -1545900.8, 19392.457, 0.0056291055, 0.0017928755, -1378679.9, 154051.2, 0.0, 5.0969934, 4.9843626 
8.555423e+2, 1.4857142e+2, -1343095.9, -1500718.3, 25807.344, -0.015499698, 0.00067952566, -1338978.0, 145022.14, 0.0, 5.0932436, 4.9849677 
8.552264e+2, 1.5354425e+2, -1308284.5, -1460192.0, 36221.824, -0.015485154, 0.0038139343, -1300089.6, 135176.45, 0.0, 5.08971, 4.9835625 
8.549168e+2, 1.585157e+2, -1267056.4, -1415246.0, 37194.07, -0.005218623, 0.00031415414, -1258245.0, 128300.555, 0.0, 5.0872755, 4.983555 
8.5460657e+2, 1.6348663e+2, -1227196.6, -1373072.8, 37297.594, 0.003127874, -0.0029318298, -1218213.5, 119616.4, 0.0, 5.0848045, 4.9826035 
8.542955e+2, 1.684568e+2, -1187348.0, -1329934.9, 39108.258, 0.00805237, -0.004348483, -1177326.0, 111795.57, 0.0, 5.0821924, 4.9819994 
8.539891e+2, 1.7342484e+2, -1153158.3, -1295836.3, 46326.563, 0.002708389, -0.0025029723, -1139436.1, 100997.945, 0.0, 5.079412, 4.978147 
8.5368574e+2, 1.7839058e+2, -1110856.5, -1250150.1, 47171.473, -0.0072134365, -0.004074472, -1096385.4, 95383.6, 0.0, 5.0772634, 4.978184 
8.5338235e+2, 1.8335605e+2, -1069325.5, -1206102.3, 47579.098, -0.014596428, -0.005472787, -1054402.8, 88703.85, 0.0, 5.0751038, 4.9776497 
8.5307926e+2, 1.8832113e+2, -1027556.0, -1161519.5, 48683.715, -0.01670445, -0.006147604, -1011732.8, 82715.39, 0.0, 5.0729337, 4.977295 
8.52779e+2, 1.9328348e+2, -992985.94, -1130675.1, 53199.83, -0.012886524, -0.0032374144, -974825.94, 70990.46, 0.0, 5.070655, 4.9721065 
8.5248077e+2, 1.9824281e+2, -950097.75, -1084655.9, 54064.133, -0.007931979, -0.0058697714, -931066.9, 66147.29, 0.0, 5.068663, 4.972117 
8.5218227e+2, 2.0320179e+2, -908208.75, -1040840.44, 54453.76, -0.004438369, -0.00826783, -888716.7, 59899.336, 0.0, 5.06667, 4.971352 
8.518825e+2, 2.0816016e+2, -865565.9, -995968.94, 54220.16, -0.004575203, -0.009682615, -845967.25, 54056.387, 0.0, 5.0647297, 4.9709406 
8.515812e+2, 2.131152e+2, -830977.44, -968440.3, 55701.203, -0.0077338987, -0.0068740295, -811240.6, 40223.18, 0.0, 5.062776, 4.9644737 
8.5128e+2, 2.1806668e+2, -787983.0, -922223.75, 56388.613, -0.010835823, -0.008768523, -767440.3, 35498.785, 0.0, 5.060742, 4.964504 
8.509787e+2, 2.2301795e+2, -745903.9, -877676.6, 56605.04, -0.012340502, -0.010023942, -724927.44, 29489.227, 0.0, 5.058629, 4.9639745 
8.506766e+2, 2.2796872e+2, -703786.6, -833112.75, 55997.426, -0.01169897, -0.010380151, -682910.1, 22988.936, 0.0, 5.0564866, 4.9634624 
8.503707e+2, 2.3291592e+2, -669029.0, -807160.5, 53685.023, -0.009889626, -0.005884106, -650618.1, 6798.257, 0.0, 5.05453, 4.956468 
8.5006243e+2, 2.3785916e+2, -627057.25, -761351.44, 54084.305, -0.007438522, -0.007322838, -607984.6, 987.9766, 0.0, 5.0520544, 4.9564877 
8.4975404e+2, 2.4280222e+2, -585783.44, -717047.7, 54110.164, -0.005993135, -0.0075336015, -566353.9, -5822.3965, 0.0, 5.0495634, 4.9559674 
8.4944427e+2, 2.4774483e+2, -544838.56, -673468.6, 53148.313, -0.0054708957, -0.0061357277, -525720.0, -13624.312, 0.0, 5.047054, 4.9551816 
8.491286e+2, 2.5268367e+2, -509951.06, -647536.1, 47281.42, -0.006291722, -0.0010837505, -495269.38, -31572.766, 0.0, 5.04479, 4.948327 
8.48808e+2, 2.5761884e+2, -469692.1, -602385.25, 47052.64, -0.0070951898, -0.00030718575, -454700.97, -39367.07, 0.0, 5.0415764, 4.9483805 
8.4848744e+2, 2.6255375e+2, -429486.97, -557505.5, 46656.54, -0.0073066624, -0.0013559524, -414287.53, -47314.773, 0.0, 5.0383897, 4.948303 
8.481652e+2, 2.674882e+2, -389354.84, -512666.53, 43724.24, -0.006232959, -0.003561466, -375424.66, -56809.7, 0.0, 5.0351, 4.948259 
8.4783626e+2, 2.724203e+2, -356977.3, -487296.03, 36360.113, -0.004888378, 0.0040255687, -347518.97, -77238.16, 0.0, 5.031607, 4.9416537 
8.4750104e+2, 2.7734932e+2, -318753.8, -440590.22, 34610.16, -0.0035010513, -0.0012890227, -309608.53, -87632.266, 0.0, 5.027013, 4.942814 
8.4716564e+2, 2.8227866e+2, -283049.28, -398614.38, 33279.273, -0.004069207, -0.0025100035, -274151.0, -100480.86, 0.0, 5.022278, 4.942303 
8.468286e+2, 2.872088e+2, -245770.73, -350559.72, 29969.438, -0.006918937, 0.0014191255, -237805.06, -112447.61, 0.0, 5.017019, 4.944163 
8.4648615e+2, 2.921376e+2, -216614.63, -323124.9, 23332.773, -0.010013932, 0.008896407, -211727.45, -134669.72, 0.0, 5.011653, 4.9389505 
8.46138e+2, 2.9706582e+2, -181630.19, -276540.9, 20704.557, -0.012916984, 0.014974539, -177310.16, -148546.4, 0.0, 5.0055346, 4.940642 
8.457907e+2, 3.019934e+2, -151348.17, -238806.7, 20532.723, -0.012548994, 0.017992381, -146767.58, -146767.58, 0.0, 4.99914, 4.9392257 
8.454472e+2, 3.069192e+2, -120697.04, -199014.36, 21818.75, -0.004943461, 0.011992538, -115028.72, -115028.72, 0.0, 4.992487, 4.938628 
8.451028e+2, 3.1185737e+2, -83804.26, -117446.86, 10795.83, 0.008860417, 0.02889659, -80637.91, -80637.91, 0.0, 4.9860964, 4.9623127 
8.447537e+2, 3.168056e+2, -101125.17, -120091.35, 6819.035, 0.027498698, -0.011905309, -98928.016, -98928.016, 0.0, 4.978553, 4.9647655 
8.4440506e+2, 3.2175982e+2, -112390.72, -107008.46, 7275.5283, 0.038119357, -0.005508908, -101942.305, -101942.305, 0.0, 4.9708786, 4.9728055 
8.4405833e+2, 3.2674578e+2, -79912.19, 19052.521, -1575.9054, 0.022622362, 0.07064587, 19077.611, 19077.611, 0.0, 4.960529, 5.023455 
8.6163163e+2, 1.3398911e+2, -1453169.1, -1626776.9, 13780.297, 0.010623588, -0.01808449, -1452082.1, 174817.86, 0.0, 5.1043434, 4.986172 
8.612943e+2, 1.3896509e+2, -1416407.8, -1583913.9, 14859.481, 0.0063648475, -0.0025924274, -1415099.8, 163040.42, 0.0, 5.100357, 4.9862847 
8.609583e+2, 1.4393975e+2, -1379341.4, -1541586.9, 17335.574, 0.0040731765, 0.0013262461, -1377509.8, 151879.78, 0.0, 5.0966225, 4.986072 
8.606248e+2, 1.489139e+2, -1341017.0, -1496152.8, 23979.303, -0.017524285, 0.00011825089, -1337395.1, 143247.45, 0.0, 5.0930634, 4.9866633 
8.603064e+2, 1.5388827e+2, -1306158.0, -1455871.6, 34785.94, -0.01614129, 0.0028337273, -1298470.3, 133423.2, 0.0, 5.089652, 4.9850974 
8.599946e+2, 1.5886123e+2, -1264747.8, -1410936.9, 35607.996, -0.0043861764, -0.00053851283, -1256535.8, 126622.414, 0.0, 5.0873027, 4.98505 
8.5968184e+2, 1.6383357e+2, -1225043.9, -1369115.6, 35596.617, 0.0042855116, -0.0034147527, -1216728.8, 117700.16, 0.0, 5.0848393, 4.9839783 
8.5936815e+2, 1.6880511e+2, -1185358.9, -1326077.3, 37248.598, 0.009153198, -0.004360384, -1176107.3, 109600.05, 0.0, 5.0821757, 4.9833665 
8.5905945e+2, 1.737745e+2, -1151375.4, -1292139.9, 44699.42, 0.0030056923, -0.00244148, -1138380.9, 98626.086, 0.0, 5.0793614, 4.9794617 
8.587538e+2, 1.7874153e+2, -1109107.3, -1246457.1, 45528.76, -0.007776883, -0.003895694, -1095386.1, 92943.19, 0.0, 5.0772, 4.9795074 
8.5844827e+2, 1.8370825e+2, -1067641.0, -1202544.5, 45827.52, -0.014981328, -0.005494111, -1053545.9, 86108.75, 0.0, 5.0750413, 4.9789286 
8.5814315e+2, 1.8867455e+2, -1025835.0, -1157897.0, 46994.03, -0.016299097, -0.006550677, -1010819.56, 80164.46, 0.0, 5.0728784, 4.9785943 
8.578409e+2, 1.9363815e+2, -991318.2, -1127126.6, 51573.633, -0.011705924, -0.0042457217, -973953.25, 68386.7, 0.0, 5.0706005, 4.973376 
8.575408e+2, 1.9859874e+2, -948458.44, -1081211.1, 52448.707, -0.0056772092, -0.006962083, -930237.56, 63487.89, 0.0, 5.0686197, 4.973349 
8.5724026e+2, 2.0355886e+2, -906627.75, -1037628.9, 52705.98, -0.0018043092, -0.008867695, -888055.44, 57060.402, 0.0, 5.0666475, 4.9724975 
8.5693854e+2, 2.085184e+2, -864090.94, -992932.5, 52680.082, -0.0020112647, -0.009679418, -845293.75, 51218.62, 0.0, 5.064704, 4.9720283 
8.566353e+2, 2.1347456e+2, -829546.9, -965516.0, 54047.53, -0.0053236107, -0.0067074103, -810680.75, 37261.066, 0.0, 5.0627522, 4.9655223 
8.563319e+2, 2.1842712e+2, -786596.44, -919377.75, 54709.84, -0.008872056, -0.008036197, -766958.7, 32448.03, 0.0, 5.060716, 4.9655285 
8.5602844e+2, 2.2337936e+2, -744608.44, -875007.6, 54570.363, -0.010345215, -0.008859995, -724785.0, 26089.816, 0.0, 5.0585957, 4.9649434 
8.557241e+2, 2.2833106e+2, -702656.6, -830726.8, 54427.668, -0.009907684, -0.0089514395, -682650.8, 19697.645, 0.0, 5.0564485, 4.9643345 
8.5541594e+2, 2.3327905e+2, -667997.94, -805221.44, 51725.684, -0.0076810652, -0.0048872833, -650684.6, 3173.827, 0.0, 5.054517, 4.9571824 
8.551053e+2, 2.3822302e+2, -626066.56, -759498.7, 52121.254, -0.0047182455, -0.006070394, -608120.6, -2712.9412, 0.0, 5.0520406, 4.9571743 
8.547943e+2, 2.4316674e+2, -584934.4, -715463.8, 52121.758, -0.0034523876, -0.0063913204, -566675.7, -9715.613, 0.0, 5.0495443, 4.956562 
8.544819e+2, 2.4810995e+2, -543895.8, -671658.4, 51026.56, -0.0032542306, -0.0053370832, -526018.1, -17500.09, 0.0, 5.0470304, 4.9558606 
8.541632e+2, 2.5304914e+2, -509402.34, -647029.4, 44786.105, -0.0047725043, -0.00067150686, -496111.7, -35996.152, 0.0, 5.0448093, 4.948552 
8.5383934e+2, 2.579844e+2, -469124.75, -601825.1, 44569.516, -0.0063841376, -0.0007731704, -455545.03, -43793.75, 0.0, 5.041595, 4.9486246 
8.5351557e+2, 2.6291952e+2, -429205.88, -557640.8, 44326.95, -0.0067819683, -0.0017339914, -415392.8, -52004.63, 0.0, 5.038417, 4.9482994 
8.531898e+2, 2.6785406e+2, -389215.72, -513228.13, 40658.43, -0.005887422, -0.002964378, -377074.25, -62043.99, 0.0, 5.0351257, 4.9481153 
8.5285664e+2, 2.7278584e+2, -357026.25, -488902.66, 32820.12, -0.0041956166, 0.005810735, -349309.8, -82610.52, 0.0, 5.031694, 4.9411526 
8.525168e+2, 2.777145e+2, -318856.8, -442334.38, 31074.406, -0.0026462106, 0.0018576834, -311477.63, -93078.44, 0.0, 5.027101, 4.9422626 
8.521766e+2, 2.8264317e+2, -283387.2, -400798.7, 29541.838, -0.0028869268, 0.0010705965, -276373.2, -106273.79, 0.0, 5.0223484, 4.941604 
8.518342e+2, 2.8757232e+2, -246245.72, -353017.16, 25433.69, -0.0041303234, 0.0031503914, -240496.78, -118701.28, 0.0, 5.017066, 4.943384 
8.51486e+2, 2.9250008e+2, -217091.38, -325921.84, 18579.17, -0.005335656, 0.008519094, -214007.02, -140501.3, 0.0, 5.0117307, 4.938057 
8.5113174e+2, 2.9742724e+2, -182212.42, -279567.63, 16016.168, -0.007928783, 0.014025335, -179645.25, -154423.36, 0.0, 5.00561, 4.939666 
8.5077816e+2, 3.023538e+2, -151216.52, -240043.1, 15648.955, -0.007961336, 0.014494274, -148540.22, -148540.22, 0.0, 4.999188, 4.9388943 
8.504275e+2, 3.072792e+2, -121167.37, -201975.0, 16699.246, -0.007188098, 0.012726214, -117852.38, -117852.38, 0.0, 4.992576, 4.937679 
8.500755e+2, 3.1221676e+2, -84394.45, -121558.8, 5303.8037, 0.001115085, 0.035721954, -83652.36, -83652.36, 0.0, 4.9862795, 4.960952 
8.4971863e+2, 3.1716388e+2, -101663.55, -124359.09, 1233.595, 0.017957464, 0.000114179216, -101596.695, -101596.695, 0.0, 4.9787626, 4.963358 
8.4936285e+2, 3.221172e+2, -113717.586, -111426.234, 1557.8638, 0.032952845, 0.000563423, -110638.125, -110638.125, 0.0, 4.9708433, 4.971439 
8.490059e+2, 3.2710344e+2, -76340.51, 23303.982, -12182.171, 0.019007333, 0.11818622, 24771.71, 24771.71, 0.0, 4.960715, 5.0255 
8.6672235e+2, 1.3432917e+2, -1458116.0, -1624454.8, 14377.602, -0.0019328106, -0.021811184, -1456882.4, 166684.0, 0.0, 5.1016054, 4.988255 
8.663821e+2, 1.3930741e+2, -1420945.5, -1581378.8, 15593.451, 0.005594913, -0.0010492258, -1419444.0, 155341.44, 0.0, 5.0977592, 4.9883747 
8.6604285e+2, 1.4428362e+2, -1383162.8, -1538947.0, 19180.627, 0.005003453, 0.001815366, -1380835.9, 145183.38, 0.0, 5.094356, 4.988028 
8.657065e+2, 1.492592e+2, -1343708.3, -1492950.0, 25792.764, -0.01723084, -0.0005070436, -1339376.4, 137881.7, 0.0, 5.0912056, 4.988612 
8.653858e+2, 1.5423495e+2, -1308325.1, -1452787.9, 37119.086, -0.015375337, 0.0014852424, -1299345.6, 129149.82, 0.0, 5.0881124, 4.986838 
8.6507183e+2, 1.5920918e+2, -1265687.0, -1407371.8, 37956.875, -0.002942551, -0.0022840726, -1256159.3, 123588.2, 0.0, 5.0862164, 4.9867415 
8.6475676e+2, 1.6418278e+2, -1225316.3, -1365730.6, 37589.418, 0.0063591055, -0.0045584315, -1215886.6, 115119.195, 0.0, 5.084089, 4.985452 
8.644406e+2, 1.6915558e+2, -1184669.9, -1321708.5, 39700.125, 0.0111009, -0.0047847116, -1173999.6, 108272.75, 0.0, 5.081674, 4.9850507 
8.6412966e+2, 1.7412618e+2, -1150529.1, -1287949.3, 47268.816, 0.0045905607, -0.0024885423, -1135840.0, 97720.234, 0.0, 5.0789976, 4.98101 
8.6382186e+2, 1.790944e+2, -1107875.4, -1242113.3, 48024.438, -0.00648082, -0.0035581782, -1092463.8, 92407.53, 0.0, 5.076981, 4.981044 
8.635142e+2, 1.8406226e+2, -1065857.4, -1197921.4, 48378.637, -0.013738735, -0.005270224, -1050031.4, 86154.17, 0.0, 5.075018, 4.980473 
8.63207e+2, 1.8902965e+2, -1023514.1, -1153183.4, 49479.133, -0.014873482, -0.0065126894, -1006790.7, 80713.52, 0.0, 5.0730777, 4.980072 
8.6290276e+2, 1.9399431e+2, -988526.5, -1122180.0, 54056.49, -0.009977793, -0.0047506797, -969400.25, 69449.21, 0.0, 5.070975, 4.974851 
8.626008e+2, 1.98956e+2, -945369.94, -1076274.1, 54718.242, -0.0031783397, -0.0074976785, -925510.44, 64713.64, 0.0, 5.069128, 4.9747667 
8.6229825e+2, 2.0391715e+2, -903563.94, -1032938.0, 54638.164, 0.0011321928, -0.009068271, -883576.7, 58027.902, 0.0, 5.0671873, 4.973824 
8.619945e+2, 2.0887768e+2, -861000.44, -988286.6, 54802.156, 0.00072503235, -0.009419811, -840657.06, 52334.16, 0.0, 5.0652742, 4.973328 
8.6168927e+2, 2.1383482e+2, -826393.5, -960980.75, 55846.457, -0.002522679, -0.006389253, -806238.56, 38172.703, 0.0, 5.063365, 4.9667687 
8.6138386e+2, 2.1878834e+2, -783506.94, -915010.6, 56314.82, -0.0061442596, -0.007274576, -762687.06, 33179.77, 0.0, 5.061331, 4.9667234 
8.6107826e+2, 2.2374147e+2, -741607.06, -871129.6, 55984.51, -0.007520531, -0.007577251, -720762.9, 26563.654, 0.0, 5.059269, 4.965947 
8.6077166e+2, 2.2869395e+2, -699153.3, -826365.56, 55455.863, -0.0073238583, -0.007581745, -678372.9, 20419.746, 0.0, 5.057229, 4.9654694 
8.604612e+2, 2.3364262e+2, -664600.7, -801602.6, 52450.44, -0.00512299, -0.0039063534, -646826.4, 3469.7427, 0.0, 5.0553765, 4.9580317 
8.601481e+2, 2.3858722e+2, -622748.25, -755994.94, 52584.418, -0.0017174105, -0.0049598445, -604496.44, -2657.0283, 0.0, 5.0528803, 4.958001 
8.598345e+2, 2.4353154e+2, -581961.0, -712321.94, 52347.336, -0.0006740869, -0.0052799447, -563542.8, -10156.778, 0.0, 5.0502925, 4.9573126 
8.5951936e+2, 2.4847528e+2, -541170.2, -668875.6, 50669.105, -0.0007385819, -0.0044446923, -523508.97, -18570.43, 0.0, 5.047712, 4.9565296 
8.591977e+2, 2.534147e+2, -507086.53, -645384.8, 43816.66, -0.003147685, -0.00026360166, -494372.94, -37839.44, 0.0, 5.04548, 4.9488516 
8.588705e+2, 2.5835004e+2, -467244.66, -600471.3, 43270.023, -0.0055011613, -0.0013285009, -454424.78, -46256.574, 0.0, 5.042115, 4.9488955 
8.585435e+2, 2.632853e+2, -427904.03, -556710.06, 42549.582, -0.005851642, -0.0019833385, -415117.56, -55313.945, 0.0, 5.0387397, 4.9485183 
8.5821414e+2, 2.6821986e+2, -389169.72, -514267.6, 38296.8, -0.0054310956, -0.0019331988, -378376.88, -66931.0, 0.0, 5.0352454, 4.9477434 
8.578768e+2, 2.731513e+2, -357043.8, -490385.97, 29464.105, -0.0033143957, 0.007737269, -350823.4, -87704.98, 0.0, 5.0317903, 4.94068 
8.5753226e+2, 2.780795e+2, -319066.34, -444184.8, 27589.232, -0.0016744183, 0.004949219, -313252.9, -98430.09, 0.0, 5.0271745, 4.9416747 
8.5718733e+2, 2.8300747e+2, -283777.44, -402985.06, 25666.611, -0.0016080997, 0.0042332513, -278486.03, -111955.99, 0.0, 5.022404, 4.940906 
8.568395e+2, 2.8793576e+2, -246843.95, -355556.66, 21196.967, -0.00078608637, 0.0050050532, -242857.14, -124622.516, 0.0, 5.0170946, 4.942574 
8.564856e+2, 2.9286245e+2, -217798.8, -328837.25, 14021.827, -0.00020300344, 0.0076913005, -216055.52, -146100.55, 0.0, 5.01175, 4.9371357 
8.561251e+2, 2.977885e+2, -183030.11, -282737.5, 11528.5, -0.0025331504, 0.012048645, -181714.5, -160033.02, 0.0, 5.0056343, 4.9386477 
8.557651e+2, 3.027142e+2, -151914.4, -242772.44, 10985.426, -0.0043448983, 0.012945547, -150605.05, -150605.05, 0.0, 4.999177, 4.938041 
8.5540724e+2, 3.07639e+2, -121572.94, -203991.14, 11935.997, -0.010523455, 0.012083623, -119879.15, -119879.15, 0.0, 4.9925437, 4.9370966 
8.5504794e+2, 3.12576e+2, -85397.5, -125754.16, 169.13649, -0.0065923193, 0.0394141, -85396.79, -85396.79, 0.0, 4.9863286, 4.959592 
8.546832e+2, 3.175219e+2, -102896.305, -129509.81, -4183.1904, 0.008932596, 0.0055765924, -102254.266, -102254.266, 0.0, 4.978864, 4.961655 
8.5432005e+2, 3.2247397e+2, -113587.38, -111692.875, -4654.8413, 0.028769735, 0.0052992497, -107889.88, -107889.88, 0.0, 4.9706974, 4.971563 
8.5395384e+2, 3.2745135e+2, -74373.66, 24090.35, -22090.223, 0.018803747, 0.042926405, 28819.148, 28819.148, 0.0, 4.9608884, 5.0260878 
8.7180805e+2, 1.3467714e+2, -1471297.0, -1624408.0, 16779.254, -0.012795061, -0.025175164, -1469479.8, 150675.66, 0.0, 5.095929, 4.9908404 
8.714653e+2, 1.3965791e+2, -1432945.1, -1580661.1, 18780.666, 0.0058940058, 0.00056501565, -1430594.8, 140755.69, 0.0, 5.0925055, 4.9909663 
8.7112325e+2, 1.4463595e+2, -1394026.5, -1537910.6, 23093.041, 0.005507496, 0.002271639, -1390411.0, 132155.33, 0.0, 5.0895877, 4.9904766 
8.7078446e+2, 1.4961325e+2, -1353149.1, -1490906.8, 30164.377, -0.016813256, -0.0010332603, -1346833.6, 126954.17, 0.0, 5.0869026, 4.9911633 
8.7046194e+2, 1.5459059e+2, -1317216.6, -1450813.8, 42428.2, -0.014295997, -0.00016601506, -1304881.1, 120128.164, 0.0, 5.084171, 4.989157 
8.701463e+2, 1.595664e+2, -1273737.6, -1405050.0, 43404.54, -0.0012620211, -0.0044610365, -1260687.5, 115558.31, 0.0, 5.082606, 4.9890075 
8.6982924e+2, 1.6454157e+2, -1232490.5, -1363121.3, 42972.95, 0.008594697, -0.006064951, -1219621.6, 107867.5, 0.0, 5.080833, 4.987634 
8.69511e+2, 1.6951591e+2, -1190777.5, -1318145.8, 45830.508, 0.0130296, -0.005674335, -1176000.8, 102740.06, 0.0, 5.0787435, 4.9873834 
8.69198e+2, 1.7448811e+2, -1155890.0, -1283955.4, 53735.668, 0.0062080114, -0.0029588286, -1136330.1, 93683.27, 0.0, 5.0763674, 4.9833283 
8.688883e+2, 1.7945795e+2, -1112519.9, -1237674.5, 54939.023, -0.005028088, -0.0033938864, -1091825.3, 89483.83, 0.0, 5.0746117, 4.983381 
8.6857885e+2, 1.8442726e+2, -1069842.5, -1193189.3, 55796.254, -0.012294838, -0.0051201223, -1048348.4, 84260.484, 0.0, 5.072919, 4.9827724 
8.6827e+2, 1.8939611e+2, -1026537.2, -1147655.0, 57295.45, -0.013079604, -0.006437989, -1003728.56, 80184.59, 0.0, 5.0712767, 4.982498 
8.6796415e+2, 1.9436225e+2, -990820.4, -1116130.4, 62588.617, -0.007881295, -0.005183234, -964914.75, 70329.055, 0.0, 5.069451, 4.9773116 
8.676606e+2, 1.9932541e+2, -946969.4, -1069890.0, 63867.008, -0.00091700745, -0.0079993, -919793.56, 66810.39, 0.0, 5.067898, 4.977192 
8.6735624e+2, 2.0428793e+2, -904464.06, -1026271.4, 64422.387, 0.0034572568, -0.009465768, -876713.9, 61257.145, 0.0, 5.06627, 4.9761853 
8.670507e+2, 2.0924984e+2, -860969.9, -980621.2, 65131.3, 0.0030913204, -0.009713552, -832358.0, 56986.51, 0.0, 5.064618, 4.9759026 
8.667437e+2, 2.1420838e+2, -825580.0, -952748.6, 67081.2, -0.00001729646, -0.0066723092, -796736.75, 44014.117, 0.0, 5.0630207, 4.9693685 
8.6643654e+2, 2.1916328e+2, -781826.4, -906236.7, 68414.86, -0.003052504, -0.007068301, -751564.94, 40627.785, 0.0, 5.061344, 4.969327 
8.661291e+2, 2.241177e+2, -739014.7, -861882.2, 69105.87, -0.0038285474, -0.006933375, -707983.75, 35656.387, 0.0, 5.0596776, 4.968512 
8.658207e+2, 2.290714e+2, -695263.9, -816069.5, 69227.08, -0.003146199, -0.006861147, -663792.4, 31301.973, 0.0, 5.0580707, 4.9681892 
8.655082e+2, 2.3402116e+2, -659508.1, -790629.75, 67421.2, -0.0016518226, -0.0036342002, -631027.25, 15559.863, 0.0, 5.0567255, 4.96071 
8.6519283e+2, 2.3896681e+2, -615993.44, -743957.75, 68753.28, 0.0011891, -0.00488121, -586056.8, 12063.488, 0.0, 5.054873, 4.960731 
8.648769e+2, 2.4391209e+2, -573288.94, -698849.5, 69338.21, 0.0023289528, -0.005868026, -542532.3, 7125.082, 0.0, 5.052956, 4.960221 
8.645594e+2, 2.4885672e+2, -530934.7, -654875.3, 69501.64, 0.001895241, -0.0053496365, -499787.88, 1412.9813, 0.0, 5.0510855, 4.9592834 
8.6423516e+2, 2.537968e+2, -494688.75, -630376.9, 63615.387, -0.00037579652, -0.0015494755, -469528.88, -16740.041, 0.0, 5.049712, 4.951518 
8.6390513e+2, 2.587327e+2, -452308.66, -583857.0, 64566.188, -0.0017394113, -0.0027417755, -425914.34, -21496.264, 0.0, 5.047297, 4.951672 
8.635752e+2, 2.636685e+2, -410882.97, -539011.44, 64891.824, -0.00083342346, -0.0025531612, -383759.63, -27711.586, 0.0, 5.04478, 4.951258 
8.6324245e+2, 2.6860335e+2, -369804.66, -495965.66, 62712.387, -0.000040716335, -0.0016470616, -343935.78, -36247.914, 0.0, 5.0423527, 4.950191 
8.629009e+2, 2.7353442e+2, -335855.8, -472110.78, 54079.645, 0.0012588733, 0.008181894, -317000.75, -57635.977, 0.0, 5.0397286, 4.9427185 
8.625518e+2, 2.78462e+2, -296992.84, -425770.22, 52573.953, 0.0029747684, 0.007226119, -278255.56, -67180.164, 0.0, 5.035527, 4.943585 
8.622021e+2, 2.8338918e+2, -260306.83, -384149.25, 50786.72, 0.0031043729, 0.0067815, -242143.53, -79353.336, 0.0, 5.031338, 4.9427085 
8.6184865e+2, 2.883164e+2, -222879.44, -336791.97, 45485.41, 0.004801257, 0.006805802, -206945.8, -92441.016, 0.0, 5.0262394, 4.9442873 
8.614883e+2, 2.9324153e+2, -196057.47, -312516.7, 37247.26, 0.006217018, 0.0071990998, -185163.67, -118923.5, 0.0, 5.0202947, 4.938242 
8.6112124e+2, 2.981658e+2, -163679.58, -267672.97, 33973.695, 0.0050511714, 0.009134816, -153564.53, -135580.97, 0.0, 5.0133257, 4.9397006 
8.6075413e+2, 3.0309004e+2, -135004.61, -229233.56, 32698.209, 0.0012560096, 0.010515314, -124769.75, -124769.75, 0.0, 5.006038, 4.938924 
8.603888e+2, 3.0801362e+2, -106524.74, -189112.28, 32102.86, -0.010481269, 0.007853924, -95513.94, -95513.94, 0.0, 4.9982767, 4.938966 
8.6002207e+2, 3.1294978e+2, -73086.84, -114085.93, 20585.26, -0.011166003, 0.03521633, -64534.984, -64534.984, 0.0, 4.9915123, 4.9605513 
8.5964996e+2, 3.1789413e+2, -90732.35, -119626.68, 15880.202, 0.0028308083, 0.00062171894, -83710.91, -83710.91, 0.0, 4.984319, 4.9618297 
8.592797e+2, 3.2284454e+2, -94903.5, -93085.83, 15383.485, 0.025122505, 0.001791214, -78584.35, -78584.35, 0.0, 4.977325, 4.9743733 
8.589069e+2, 3.2781366e+2, -46538.27, 41025.9, -6711.907, 0.02903545, -0.06626104, 41537.387, 41537.387, 0.0, 4.97174, 5.0266647 
8.768912e+2, 1.3502878e+2, -1467896.6, -1618083.3, 14034.29, -0.022404568, -0.026594099, -1466596.5, 150112.27, 0.0, 5.0959597, 4.9930143 
8.765461e+2, 1.4001215e+2, -1429522.0, -1574336.3, 16259.456, 0.0064966185, 0.0031056793, -1427718.9, 140159.98, 0.0, 5.0925455, 4.993145 
8.762012e+2, 1.449921e+2, -1390759.6, -1532127.1, 21423.422, 0.004959238, 0.0032944318, -1387584.4, 131491.27, 0.0, 5.0896807, 4.9924507 
8.758604e+2, 1.499713e+2, -1349920.4, -1485024.6, 28521.018, -0.016925054, -0.00083782856, -1344146.3, 126132.016, 0.0, 5.086979, 4.9931736 
8.7553614e+2, 1.5495038e+2, -1314496.5, -1445624.5, 41129.242, -0.01358453, -0.0012309427, -1302663.8, 118818.88, 0.0, 5.084206, 4.9909387 
8.7521905e+2, 1.5992789e+2, -1271193.5, -1400176.1, 41995.777, 0.00011799211, -0.0060289744, -1258725.3, 113977.16, 0.0, 5.082633, 4.990689 
8.7490016e+2, 1.6490476e+2, -1230175.3, -1358610.4, 41312.902, 0.010697986, -0.0068467483, -1218034.1, 105895.4, 0.0, 5.080837, 4.989205 
8.745799e+2, 1.6988078e+2, -1188229.4, -1313082.3, 44251.02, 0.014857928, -0.005928309, -1174136.5, 101028.46, 0.0, 5.0787406, 4.989148 
8.742651e+2, 1.7485474e+2, -1153461.5, -1278987.8, 52246.29, 0.0076903105, -0.0028249454, -1134561.4, 91859.38, 0.0, 5.076347, 4.9850607 
8.7395364e+2, 1.7982633e+2, -1110145.3, -1232820.9, 53437.477, -0.0037084937, -0.00263504, -1090132.6, 87566.65, 0.0, 5.074594, 4.985078 
8.736424e+2, 1.8479735e+2, -1067512.0, -1188423.3, 54466.8, -0.011072165, -0.004350292, -1046594.94, 82387.51, 0.0, 5.0729046, 4.984443 
8.7333196e+2, 1.8976788e+2, -1024034.6, -1142502.3, 55843.98, -0.011476694, -0.005695502, -1001860.9, 78409.25, 0.0, 5.0712605, 4.9843063 
8.7302464e+2, 1.9473581e+2, -988283.2, -1110807.9, 61210.03, -0.0059398683, -0.0048104464, -962944.5, 68638.71, 0.0, 5.0694246, 4.97918 
8.727195e+2, 1.997008e+2, -944567.8, -1064829.0, 62432.08, 0.001144002, -0.007598156, -918018.25, 64907.09, 0.0, 5.0678687, 4.9789762 
8.724136e+2, 2.0466506e+2, -902179.56, -1021378.1, 63080.766, 0.0055429637, -0.0088309, -874996.06, 59279.316, 0.0, 5.0662313, 4.9779177 
8.721063e+2, 2.0962873e+2, -858534.56, -975466.1, 63479.06, 0.005258121, -0.008915563, -830699.5, 54932.137, 0.0, 5.0645843, 4.9777317 
8.717976e+2, 2.1458915e+2, -822994.7, -947223.2, 65558.305, 0.0019994173, -0.005986187, -794798.0, 42221.645, 0.0, 5.062985, 4.971326 
8.7148875e+2, 2.1954602e+2, -779368.9, -900970.0, 66874.766, -0.0009825047, -0.005979187, -749787.2, 38655.086, 0.0, 5.0613084, 4.9711995 
8.7117964e+2, 2.2450224e+2, -736580.7, -856677.94, 67503.91, -0.0017683693, -0.0056094686, -706282.1, 33589.867, 0.0, 5.059644, 4.970367 
8.708695e+2, 2.2945781e+2, -692816.1, -810810.75, 67692.24, -0.00088811474, -0.005498181, -662019.6, 29288.553, 0.0, 5.058037, 4.97007 
8.705553e+2, 2.3440945e+2, -656996.8, -785256.2, 65738.48, 0.0008444898, -0.0025803428, -629288.75, 13493.986, 0.0, 5.0566926, 4.962633 
8.7023807e+2, 2.3935698e+2, -613536.0, -738672.44, 67034.69, 0.0032278087, -0.0039066817, -584406.7, 9890.908, 0.0, 5.0548377, 4.9626293 
8.6992025e+2, 2.4430405e+2, -571095.4, -694121.06, 67374.51, 0.004317632, -0.005458738, -541376.9, 4440.0137, 0.0, 5.052915, 4.96193 
8.6960065e+2, 2.4925049e+2, -528360.0, -649141.56, 67909.54, 0.0037344603, -0.0053594722, -497873.1, -530.9447, 0.0, 5.0510325, 4.9613514 
8.692743e+2, 2.5419232e+2, -492420.8, -625779.5, 61509.082, 0.002130407, -0.0018498291, -468383.53, -19470.814, 0.0, 5.049707, 4.953183 
8.689419e+2, 2.5912982e+2, -450147.5, -579445.06, 62511.04, 0.0013630075, -0.0030663474, -424868.03, -24342.059, 0.0, 5.047288, 4.9532757 
8.686094e+2, 2.6406732e+2, -408983.97, -535142.8, 62724.336, 0.0023172642, -0.001905357, -383106.34, -30966.555, 0.0, 5.044764, 4.9526763 
8.6827403e+2, 2.690036e+2, -367950.72, -492389.56, 60308.477, 0.0042042094, -0.00076600513, -343519.28, -39753.4, 0.0, 5.042361, 4.951506 
8.6792904e+2, 2.739353e+2, -334201.34, -470784.56, 51218.01, 0.004415951, 0.008752345, -317128.88, -61692.05, 0.0, 5.0400095, 4.943163 
8.6757594e+2, 2.7886328e+2, -294561.72, -424271.03, 50244.594, 0.005529775, 0.009084757, -277375.84, -70231.7, 0.0, 5.0361457, 4.9439387 
8.672222e+2, 2.8379086e+2, -256345.67, -381063.84, 49031.473, 0.0048869406, 0.0076907068, -239377.95, -80523.28, 0.0, 5.032372, 4.9434347 
8.6686337e+2, 2.8871813e+2, -218850.53, -335803.2, 42762.727, 0.0056098313, 0.0082908375, -204882.88, -94315.25, 0.0, 5.027694, 4.944096 
8.664965e+2, 2.936421e+2, -191734.13, -313362.9, 34884.21, 0.005297945, 0.006817091, -182439.33, -120125.75, 0.0, 5.022216, 4.937208 
8.661227e+2, 2.9856467e+2, -157451.19, -267173.5, 32357.084, 0.0027796086, 0.0040875985, -148619.9, -134546.95, 0.0, 5.0158606, 4.938871 
8.6574864e+2, 3.0348682e+2, -128753.625, -230151.75, 30588.195, -0.0009398182, 0.0016739836, -120240.92, -120240.92, 0.0, 5.008872, 4.937448 
8.653758e+2, 3.084088e+2, -99843.875, -187497.28, 29432.422, -0.007363851, -0.0017420227, -90878.086, -90878.086, 0.0, 5.0008135, 4.9385242 
8.65001e+2, 3.1334487e+2, -67721.88, -113012.88, 18901.059, -0.010168024, 0.030710083, -60870.457, -60870.457, 0.0, 4.9936485, 4.960053 
8.64621e+2, 3.1828904e+2, -85636.76, -118599.41, 14508.613, 0.00045165286, 0.005856702, -80160.53, -80160.53, 0.0, 4.986374, 4.961315 
8.642432e+2, 3.232389e+2, -92322.49, -95380.73, 15365.264, 0.018968316, 0.0056475503, -78410.445, -78410.445, 0.0, 4.978725, 4.973038 
8.638641e+2, 3.2821688e+2, -39267.76, 31016.373, -3941.006, 0.012185425, 0.06770936, 31236.664, 31236.664, 0.0, 4.9770417, 5.020616 
8.819747e+2, 1.3538083e+2, -1467833.4, -1613412.1, 12217.255, -0.021135801, -0.026238766, -1466815.3, 146443.64, 0.0, 5.0948415, 4.995183 
8.816266e+2, 1.403667e+2, -1426997.6, -1568478.1, 14700.176, 0.0067431848, 0.0062661897, -1425486.4, 138918.63, 0.0, 5.09229, 4.995305 
8.812792e+2, 1.4534849e+2, -1388079.3, -1526592.5, 19467.912, 0.0042091417, 0.0046420437, -1385395.1, 130187.97, 0.0, 5.0895567, 4.9944487 
8.809362e+2, 1.5032957e+2, -1347377.5, -1479579.6, 27349.658, -0.01756818, -0.00042214466, -1341942.9, 124824.29, 0.0, 5.086851, 4.99513 
8.806102e+2, 1.5531032e+2, -1312437.1, -1440721.4, 40126.63, -0.013021047, -0.0022229133, -1300919.8, 117035.0, 0.0, 5.0840106, 4.992731 
8.802917e+2, 1.602895e+2, -1269399.0, -1395687.0, 40658.113, 0.0018367033, -0.007503553, -1257441.5, 111716.39, 0.0, 5.0824084, 4.9923577 
8.7997085e+2, 1.6526805e+2, -1228388.0, -1354310.9, 40227.75, 0.012663171, -0.007488026, -1216633.9, 103734.836, 0.0, 5.0806584, 4.9907885 
8.796487e+2, 1.7024575e+2, -1185912.8, -1308118.8, 42648.41, 0.016679099, -0.0061046244, -1172500.9, 99087.15, 0.0, 5.0786495, 4.9909244 
8.7933195e+2, 1.7522146e+2, -1151178.8, -1274077.6, 50888.145, 0.009096882, -0.002607596, -1132843.3, 89983.89, 0.0, 5.076275, 4.9867997 
8.790188e+2, 1.8019482e+2, -1107828.0, -1227940.3, 52053.55, -0.002437663, -0.0018924488, -1088409.0, 85679.6, 0.0, 5.0745463, 4.9868 
8.7870586e+2, 1.851675e+2, -1065274.9, -1183765.3, 53149.22, -0.009769413, -0.0035394854, -1044928.4, 80426.92, 0.0, 5.0728703, 4.986088 
8.783939e+2, 1.9013973e+2, -1021647.5, -1137448.3, 54495.516, -0.009792783, -0.004924895, -1000035.5, 76590.84, 0.0, 5.071216, 4.986094 
8.78085e+2, 1.9510944e+2, -985809.75, -1105518.8, 59834.027, -0.0039603435, -0.0044318256, -961031.7, 66890.32, 0.0, 5.0693774, 4.9810486 
8.777783e+2, 2.0007625e+2, -942260.3, -1059906.6, 60932.816, 0.0032444193, -0.007205567, -916390.1, 62856.094, 0.0, 5.0678263, 4.9807196 
8.7747073e+2, 2.0504226e+2, -899808.6, -1016323.8, 61645.133, 0.007820297, -0.008201227, -873248.4, 57330.867, 0.0, 5.0661936, 4.979708 
8.7716174e+2, 2.100077e+2, -856188.25, -970476.75, 61957.566, 0.0073437155, -0.008015282, -829046.0, 52872.145, 0.0, 5.064549, 4.9795036 
8.768514e+2, 2.1496998e+2, -820411.7, -941701.5, 64035.38, 0.0039931806, -0.005264866, -792861.75, 40426.17, 0.0, 5.0629497, 4.973283 
8.765409e+2, 2.199288e+2, -777015.94, -895936.3, 65292.06, 0.0010231615, -0.0048453268, -748166.6, 36524.883, 0.0, 5.0612736, 4.972991 
8.7623006e+2, 2.2488683e+2, -734082.1, -851348.7, 65910.195, 0.00028354453, -0.0041972916, -704499.7, 31603.8, 0.0, 5.0596137, 4.9722667 
8.759182e+2, 2.2984424e+2, -690388.94, -805579.8, 66191.78, 0.0015120533, -0.004171709, -660242.75, 27279.04, 0.0, 5.058001, 4.9719424 
8.7560225e+2, 2.3479776e+2, -654488.1, -779885.75, 64057.168, 0.0034560645, -0.0015494833, -627551.75, 11426.354, 0.0, 5.05666, 4.9645553 
8.752831e+2, 2.3974717e+2, -611142.94, -733522.44, 65264.99, 0.005427724, -0.0030542915, -582869.25, 7605.434, 0.0, 5.054802, 4.96448 
8.749633e+2, 2.4469602e+2, -568762.5, -688995.94, 65747.086, 0.006482004, -0.0051024845, -539791.06, 2185.1587, 0.0, 5.052868, 4.9637794 
8.7464166e+2, 2.4964432e+2, -525894.44, -643749.5, 65996.27, 0.0057372493, -0.0051997406, -496346.22, -2863.3462, 0.0, 5.050988, 4.963298 
8.743133e+2, 2.545879e+2, -490172.94, -621201.25, 59432.64, 0.00472621, -0.002129949, -467231.78, -22195.582, 0.0, 5.049701, 4.9548397 
8.7397856e+2, 2.5952697e+2, -448041.16, -575149.0, 60391.027, 0.0045057107, -0.0034506381, -423924.25, -27290.777, 0.0, 5.047279, 4.954837 
8.7364346e+2, 2.6446617e+2, -406735.88, -530479.94, 60597.273, 0.005522309, -0.0013040697, -382004.34, -33773.2, 0.0, 5.0447497, 4.954374 
8.733055e+2, 2.694039e+2, -366546.13, -489772.2, 57869.79, 0.0087648295, 0.00056544377, -343630.6, -43787.086, 0.0, 5.042356, 4.952486 
8.7295693e+2, 2.7433625e+2, -333092.13, -469787.78, 48191.2, 0.007652769, 0.009676973, -317810.9, -66302.33, 0.0, 5.040107, 4.94357 
8.7259984e+2, 2.792646e+2, -293544.97, -423499.06, 47267.79, 0.007927794, 0.010827998, -278171.16, -74958.55, 0.0, 5.0362477, 4.944266 
8.7224215e+2, 2.8419262e+2, -255181.77, -380043.3, 45487.54, 0.00672163, 0.008507734, -240368.0, -85450.37, 0.0, 5.032482, 4.943853 
8.7187773e+2, 2.8912e+2, -218570.03, -336664.75, 38437.016, 0.005665142, 0.009777482, -207161.77, -100532.49, 0.0, 5.027744, 4.9438844 
8.715044e+2, 2.9404286e+2, -192389.23, -316882.4, 29934.115, 0.004013732, 0.005822671, -185565.64, -127180.55, 0.0, 5.022308, 4.936062 
8.7112415e+2, 2.989639e+2, -157870.06, -270022.94, 27433.213, -0.0008435347, -0.0020941764, -151519.36, -141360.73, 0.0, 5.0159373, 4.9379625 
8.707429e+2, 3.0388406e+2, -130906.83, -236591.7, 24254.793, -0.0051226974, -0.0074165342, -125606.18, -125606.18, 0.0, 5.008861, 4.935296 
8.703627e+2, 3.0880466e+2, -100102.016, -189303.8, 23302.28, -0.0046311645, -0.011221088, -94381.586, -94381.586, 0.0, 5.0007653, 4.9380374 
8.6998e+2, 3.137409e+2, -68144.79, -115334.8, 13147.563, -0.009974591, 0.02596697, -64729.004, -64729.004, 0.0, 4.993639, 4.9593515 
8.695919e+2, 3.1868476e+2, -85940.96, -120661.336, 9092.956, -0.0051707528, 0.008058821, -83703.75, -83703.75, 0.0, 4.9863563, 4.960724 
8.6920655e+2, 3.2363462e+2, -94652.17, -101307.89, 10043.566, 0.011101255, 0.011667995, -87399.49, -87399.49, 0.0, 4.9786043, 4.971083 
8.688242e+2, 3.2861128e+2, -46617.176, 10858.31, 435.9527, -0.006912441, 0.11569651, 10861.616, 10861.616, 0.0, 4.9776793, 5.0128093 
8.8705677e+2, 1.3573508e+2, -1474236.9, -1611246.9, 12862.306, -0.0106554935, -0.024474228, -1473039.8, 136749.22, 0.0, 5.091462, 4.9975343 
8.867053e+2, 1.4072326e+2, -1431612.5, -1565587.1, 15259.056, 0.0044307625, 0.009845119, -1429896.5, 131016.664, 0.0, 5.0895724, 4.997581 
8.8635546e+2, 1.4570688e+2, -1391625.1, -1523244.5, 20505.93, 0.0001660272, 0.0065392577, -1388504.3, 123568.13, 0.0, 5.087243, 4.99668 
8.8601077e+2, 1.5068974e+2, -1350276.5, -1476025.5, 28640.555, -0.020256104, 0.0007231112, -1344060.6, 119177.8, 0.0, 5.0848145, 4.9972887 
8.8568336e+2, 1.5567207e+2, -1314881.8, -1437248.4, 41546.965, -0.013386695, -0.0027566096, -1302108.6, 112301.03, 0.0, 5.082234, 4.9947257 
8.853634e+2, 1.6065286e+2, -1271242.8, -1392021.0, 42132.125, 0.003647157, -0.008889373, -1257997.9, 107598.836, 0.0, 5.0808706, 4.9943013 
8.850408e+2, 1.6563308e+2, -1229485.4, -1350316.5, 41737.805, 0.014826365, -0.008396654, -1216470.1, 100321.3, 0.0, 5.079394, 4.9927144 
8.8471687e+2, 1.7061245e+2, -1186244.5, -1303821.4, 44176.598, 0.018170936, -0.006526547, -1171496.1, 96498.33, 0.0, 5.077657, 4.992838 
8.843984e+2, 1.7558986e+2, -1150673.9, -1269131.1, 52790.88, 0.009601666, -0.0025427074, -1130562.1, 88654.89, 0.0, 5.075555, 4.988798 
8.8408357e+2, 1.8056493e+2, -1106653.6, -1222858.5, 54009.375, -0.0024087946, -0.0012652234, -1085428.3, 85033.53, 0.0, 5.074108, 4.9887156 
8.837691e+2, 1.8553917e+2, -1063634.1, -1178825.1, 54977.39, -0.0092379, -0.002648205, -1041607.0, 80106.36, 0.0, 5.072676, 4.9878445 
8.8345563e+2, 1.9051293e+2, -1019129.0, -1131549.6, 56446.125, -0.008407757, -0.0039816243, -995679.0, 77290.414, 0.0, 5.071229, 4.988087 
8.8314533e+2, 1.9548427e+2, -982757.94, -1099292.8, 61667.25, -0.0016503305, -0.0037424148, -956184.7, 68064.45, 0.0, 5.069568, 4.9830728 
8.8283724e+2, 2.0045277e+2, -938907.3, -1053716.5, 62572.1, 0.0063187876, -0.0064717303, -911396.94, 64159.94, 0.0, 5.068164, 4.9826694 
8.8252795e+2, 2.0542042e+2, -896090.2, -1010180.8, 63093.7, 0.0108259395, -0.007330688, -868076.8, 58797.145, 0.0, 5.06671, 4.9815636 
8.822172e+2, 2.1038751e+2, -851697.06, -963668.6, 63392.727, 0.009758611, -0.0069027217, -823107.2, 55089.31, 0.0, 5.065276, 4.9815044 
8.8190526e+2, 2.1535157e+2, -815403.3, -934417.1, 65237.246, 0.0060892766, -0.004419106, -786609.75, 42939.23, 0.0, 5.063807, 4.9753942 
8.81593e+2, 2.2031222e+2, -771952.56, -888817.7, 66254.53, 0.002936551, -0.0037570957, -742044.7, 38889.977, 0.0, 5.0621886, 4.975029 
8.812804e+2, 2.2527198e+2, -729302.5, -844802.25, 66951.086, 0.0020591964, -0.0028503723, -698635.75, 33693.953, 0.0, 5.0605197, 4.974118 
8.8096696e+2, 2.3023112e+2, -685215.6, -798331.1, 66816.81, 0.0039167083, -0.003192719, -654233.25, 29497.684, 0.0, 5.05893, 4.974043 
8.806492e+2, 2.3518646e+2, -649273.8, -772736.2, 64543.492, 0.006143933, -0.0007119369, -621693.2, 13476.447, 0.0, 5.057622, 4.96661 
8.803282e+2, 2.4013767e+2, -606205.44, -726723.94, 65458.35, 0.00806058, -0.0023209802, -577492.94, 9155.584, 0.0, 5.0557065, 4.9664474 
8.800064e+2, 2.4508823e+2, -563815.25, -681979.8, 65925.46, 0.009309033, -0.0046852427, -534371.4, 3761.5227, 0.0, 5.0537353, 4.9658475 
8.7968266e+2, 2.5003842e+2, -521226.22, -637270.25, 65647.06, 0.008215446, -0.0046093594, -491634.94, -2013.8022, 0.0, 5.051822, 4.965202 
8.7935215e+2, 2.549836e+2, -486043.16, -615479.0, 58753.05, 0.007893751, -0.0023030648, -463352.1, -22194.154, 0.0, 5.0504107, 4.956546 
8.790151e+2, 2.5992426e+2, -444699.3, -570094.56, 59309.184, 0.008177516, -0.0037004799, -421091.84, -28352.023, 0.0, 5.0477476, 4.956429 
8.786773e+2, 2.648651e+2, -404150.94, -526293.4, 58970.906, 0.009194974, -0.00033990742, -380326.56, -36004.99, 0.0, 5.045025, 4.955758 
8.7833667e+2, 2.6980418e+2, -364487.16, -486161.13, 56007.703, 0.013384478, 0.0019188693, -342631.94, -46710.73, 0.0, 5.0424843, 4.9537463 
8.7798464e+2, 2.7473718e+2, -331722.8, -468682.7, 45330.246, 0.010942749, 0.010857191, -318078.84, -70498.5, 0.0, 5.040316, 4.9439583 
8.776236e+2, 2.7966586e+2, -292249.16, -422538.8, 44247.293, 0.010256296, 0.012352961, -278643.28, -79362.02, 0.0, 5.0364366, 4.9446216 
8.7726176e+2, 2.8459445e+2, -254025.66, -379988.63, 41495.918, 0.008992985, 0.009419118, -241584.48, -90604.17, 0.0, 5.032765, 4.943856 
8.7689173e+2, 2.8952175e+2, -217775.28, -337062.56, 34088.953, 0.005506351, 0.011246289, -208720.88, -106029.32, 0.0, 5.02793, 4.943779 
8.765121e+2, 2.9444343e+2, -193119.89, -320397.2, 24927.473, 0.0031017158, 0.004161116, -188411.95, -133953.75, 0.0, 5.022365, 4.9349327 
8.761251e+2, 2.99363e+2, -158799.36, -273655.94, 22454.443, -0.0043453705, -0.008932717, -154565.58, -148319.83, 0.0, 5.0159435, 4.9368014 
8.757366e+2, 3.04281e+2, -132692.14, -241637.64, 17916.59, -0.009208049, -0.016922124, -129821.32, -129821.32, 0.0, 5.0087543, 4.933682 
8.753489e+2, 3.0920047e+2, -101419.836, -192787.55, 17055.348, -0.0013899717, -0.019763565, -98339.984, -98339.984, 0.0, 5.00057, 4.9370127 
8.7495834e+2, 3.1413692e+2, -68925.2, -117680.05, 7347.444, -0.010053424, 0.020976888, -67842.0, -67842.0, 0.0, 4.993476, 4.9586997 
8.745624e+2, 3.1908032e+2, -87516.45, -124294.84, 3364.084, -0.01033284, 0.00880243, -87211.27, -87211.27, 0.0, 4.9860806, 4.9596663 
8.741689e+2, 3.240299e+2, -98772.39, -109966.375, 5232.7065, -0.00071263034, 0.016105361, -96707.3, -96707.3, 0.0, 4.978256, 4.968168 
8.737888e+2, 3.289938e+2, -55403.17, -11558.312, 5582.5244, -0.0024835982, 0.033174787, -10858.683, -10858.683, 0.0, 4.9781556, 5.0041385 
8.9213306e+2, 1.3609484e+2, -1489713.5, -1612576.0, 14104.541, -0.0022720587, -0.02089417, -1488115.1, 118150.28, 0.0, 5.084882, 5.000185 
8.9177877e+2, 1.4108533e+2, -1445869.8, -1566030.4, 16823.555, 0.0017036919, 0.013600615, -1443558.8, 113808.21, 0.0, 5.0833735, 5.0003276 
8.9142716e+2, 1.4607097e+2, -1404512.5, -1523525.5, 22310.174, -0.0039446494, 0.008611888, -1400467.8, 108037.945, 0.0, 5.0816593, 4.999166 
8.9108115e+2, 1.5105577e+2, -1361548.0, -1475626.4, 30934.611, -0.022745987, 0.0013668679, -1353699.5, 105952.72, 0.0, 5.0798535, 4.9996853 
8.9075273e+2, 1.5603992e+2, -1325112.8, -1436277.4, 44366.168, -0.013476617, -0.0039485595, -1309577.1, 101227.984, 0.0, 5.0776825, 4.9970946 
8.9043176e+2, 1.6102259e+2, -1280545.0, -1390675.9, 44944.453, 0.00537209, -0.01044151, -1264531.6, 97442.04, 0.0, 5.076677, 4.9966116 
8.901078e+2, 1.660047e+2, -1237656.5, -1348194.0, 44780.58, 0.016852077, -0.0093130395, -1221792.0, 91357.734, 0.0, 5.07556, 4.9951077 
8.8978237e+2, 1.7098606e+2, -1193440.9, -1301235.3, 47533.285, 0.019585397, -0.0066987877, -1175474.9, 88858.54, 0.0, 5.0741863, 4.995208 
8.894624e+2, 1.7596552e+2, -1157067.9, -1265648.3, 56459.703, 0.0098334085, -0.0021862425, -1133031.0, 82504.75, 0.0, 5.072293, 4.9913626 
8.891462e+2, 1.8094264e+2, -1112761.1, -1219372.9, 58003.125, -0.0030877977, -0.00049763225, -1087289.6, 79470.89, 0.0, 5.0710044, 4.9911942 
8.888304e+2, 1.8591872e+2, -1069396.6, -1175276.6, 59378.707, -0.009343211, -0.0019046288, -1042784.94, 75209.305, 0.0, 5.0697417, 4.9902544 
8.8851583e+2, 1.9089432e+2, -1024405.94, -1127471.6, 61377.164, -0.0072435085, -0.0033564875, -995796.5, 73436.055, 0.0, 5.068439, 4.9905987 
8.882044e+2, 1.9586763e+2, -987386.4, -1094289.0, 66976.836, 0.000773237, -0.0033268754, -955146.75, 65346.383, 0.0, 5.0669165, 4.9858274 
8.8789517e+2, 2.0083821e+2, -943409.06, -1048716.5, 68342.39, 0.010005485, -0.0057675764, -909789.4, 61991.43, 0.0, 5.0656166, 4.9853573 
8.8758445e+2, 2.0580782e+2, -900366.06, -1004976.3, 69478.06, 0.014591306, -0.006510792, -865705.5, 57373.17, 0.0, 5.06427, 4.9842567 
8.8727236e+2, 2.107769e+2, -855286.8, -957449.56, 70291.01, 0.013305234, -0.0061149234, -819476.7, 54904.99, 0.0, 5.0629787, 4.9844723 
8.869589e+2, 2.1574311e+2, -818392.2, -927107.94, 72834.81, 0.008952168, -0.0039526387, -781867.25, 43845.65, 0.0, 5.0616326, 4.978658 
8.866451e+2, 2.2070603e+2, -774649.75, -881314.6, 74744.445, 0.004700053, -0.0034665181, -736161.25, 40915.17, 0.0, 5.060185, 4.978257 
8.863308e+2, 2.2566792e+2, -731491.0, -836512.44, 76220.82, 0.0031319421, -0.0032881938, -691443.7, 37006.645, 0.0, 5.0586696, 4.9775205 
8.860157e+2, 2.306293e+2, -687159.06, -789576.8, 76863.445, 0.0045312983, -0.0039218958, -646008.1, 33821.395, 0.0, 5.0571733, 4.977544 
8.8569635e+2, 2.3558706e+2, -650343.8, -762328.25, 75804.14, 0.0075553553, -0.0015047389, -612094.9, 19149.05, 0.0, 5.056052, 4.9705496 
8.853737e+2, 2.4054088e+2, -606518.44, -715485.5, 78030.36, 0.0108857835, -0.0026239373, -565832.7, 16864.469, 0.0, 5.054449, 4.9704924 
8.850502e+2, 2.4549401e+2, -563088.5, -669513.56, 79945.555, 0.013371881, -0.0040881815, -520265.28, 13891.122, 0.0, 5.0528417, 4.970113 
8.847248e+2, 2.5044677e+2, -519907.44, -624216.7, 80955.5, 0.014156581, -0.003734321, -475760.97, 9858.232, 0.0, 5.0512185, 4.9694934 
8.8439196e+2, 2.5539455e+2, -483651.2, -600553.75, 75942.04, 0.013072338, -0.0024738421, -446270.6, -9139.785, 0.0, 5.050136, 4.9612365 
8.8405246e+2, 2.603378e+2, -440486.3, -553477.1, 78790.11, 0.012548281, -0.0037283818, -400030.13, -11342.894, 0.0, 5.0482035, 4.961307 
8.8371205e+2, 2.652811e+2, -398086.38, -508037.94, 80756.57, 0.012319824, -0.0008819273, -355368.97, -15123.929, 0.0, 5.0462346, 4.960792 
8.8336885e+2, 2.7022275e+2, -354979.97, -464721.03, 81241.945, 0.014145191, 0.0009545571, -311814.63, -19995.248, 0.0, 5.04494, 4.959239 
8.8301396e+2, 2.7515823e+2, -318556.75, -445110.88, 73236.21, 0.011621841, 0.0103450045, -285047.8, -41593.74, 0.0, 5.044269, 4.949404 
8.826494e+2, 2.800889e+2, -277731.47, -397474.25, 75558.07, 0.013257494, 0.012841943, -241199.5, -46063.973, 0.0, 5.0410223, 4.9502134 
8.822838e+2, 2.8501907e+2, -237799.6, -353345.66, 74460.76, 0.012509135, 0.009106437, -201327.58, -54508.793, 0.0, 5.0380516, 4.949596 
8.81908e+2, 2.8994778e+2, -202134.88, -310540.22, 68594.53, 0.009195238, 0.008298942, -168912.48, -70396.445, 0.0, 5.0332794, 4.949279 
8.815221e+2, 2.9486936e+2, -179083.86, -298746.88, 63668.39, 0.008059101, -0.00030057048, -151545.61, -101262.445, 0.0, 5.028309, 4.9382 
8.811297e+2, 2.9978773e+2, -139310.36, -251418.53, 61518.39, 0.0019065436, -0.008884952, -112138.414, -110056.41, 0.0, 5.024131, 4.939389 
8.807346e+2, 3.0470335e+2, -109027.195, -219460.88, 57376.57, -0.0021702212, -0.013274356, -84613.83, -84613.83, 0.0, 5.0186954, 4.935541 
8.80341e+2, 3.0961987e+2, -70238.734, -173957.56, 55363.438, 0.0092459805, -0.0073220083, -46239.668, -46239.668, 0.0, 5.014397, 4.9360676 
8.799454e+2, 3.1455058e+2, -21973.336, -99708.89, 36298.016, -0.0011321648, 0.034397, -7659.82, -7659.82, 0.0, 5.0137434, 4.9550986 
8.795441e+2, 3.19487e+2, -27091.871, -105687.375, 22268.2, -0.00033865488, 0.020481454, -21221.205, -21221.205, 0.0, 5.01144, 4.954479 
8.791441e+2, 3.2442987e+2, -25831.752, -91531.97, 18578.215, -0.0037035167, 0.014493545, -20942.23, -20942.23, 0.0, 5.0085273, 4.96115 
8.7876546e+2, 3.2937634e+2, -4985.528, -4665.1084, 19086.322, -0.0040675523, -0.088385515, 14261.676, 14261.676, 0.0, 5.000281, 4.996557 
8.9720595e+2, 1.3645664e+2, -1485846.9, -1605419.8, 12850.473, 0.002616148, -0.016675062, -1484481.5, 118240.47, 0.0, 5.0849757, 5.002598 
8.968492e+2, 1.4144954e+2, -1442192.5, -1559119.8, 15538.164, -0.0027745366, 0.017558424, -1440162.9, 113636.93, 0.0, 5.0834336, 5.002684 
8.9649636e+2, 1.4643726e+2, -1400927.9, -1516645.1, 21417.809, -0.008485659, 0.010528457, -1397090.9, 107826.57, 0.0, 5.081707, 5.001513 
8.9614934e+2, 1.5142411e+2, -1358384.4, -1469631.0, 29727.578, -0.025220094, 0.0019467951, -1350938.9, 105104.47, 0.0, 5.0799074, 5.001733 
8.958201e+2, 1.5641016e+2, -1322117.4, -1430322.6, 43429.758, -0.01355721, -0.0052042524, -1306842.5, 100334.555, 0.0, 5.0776987, 4.9991374 
8.9549816e+2, 1.613948e+2, -1277733.1, -1385071.5, 43888.47, 0.006934722, -0.0117653925, -1262072.9, 96253.02, 0.0, 5.0766897, 4.998542 
8.9517295e+2, 1.6637895e+2, -1234656.1, -1342253.9, 43358.88, 0.018568564, -0.009783688, -1219358.6, 90123.51, 0.0, 5.0755744, 4.997162 
8.948462e+2, 1.713624e+2, -1190600.4, -1295363.3, 46645.56, 0.02044252, -0.0064297672, -1172841.8, 87803.625, 0.0, 5.074173, 4.9972477 
8.945248e+2, 1.7634407e+2, -1153931.4, -1259204.8, 55270.17, 0.0095869, -0.0013235691, -1130243.8, 81582.32, 0.0, 5.072284, 4.9936 
8.942073e+2, 1.8132341e+2, -1109792.9, -1213277.4, 56846.184, -0.0041128993, 0.0007354419, -1084666.8, 78362.39, 0.0, 5.0709977, 4.9933176 
8.938904e+2, 1.8630151e+2, -1066482.3, -1169265.6, 58155.754, -0.0094862, -0.0006369599, -1040264.7, 73978.58, 0.0, 5.0697327, 4.9923544 
8.935746e+2, 1.9127916e+2, -1021623.4, -1121714.3, 60202.83, -0.006121329, -0.0021203384, -993381.4, 72080.28, 0.0, 5.068428, 4.992618 
8.932621e+2, 1.9625473e+2, -984072.3, -1087386.8, 65703.13, 0.0030683887, -0.0023115694, -952151.06, 64549.36, 0.0, 5.0669045, 4.988248 
8.929516e+2, 2.012277e+2, -940258.3, -1042126.5, 67009.52, 0.013398932, -0.004371311, -907022.56, 60942.332, 0.0, 5.0656004, 4.987677 
8.926395e+2, 2.0619962e+2, -897254.9, -998452.4, 68131.945, 0.017751463, -0.004862833, -862987.9, 56252.25, 0.0, 5.0642543, 4.9865594 
8.92326e+2, 2.1117108e+2, -851960.3, -950437.25, 68882.19, 0.016117766, -0.0044750725, -816527.75, 53992.047, 0.0, 5.06296, 4.9869547 
8.920111e+2, 2.1613996e+2, -814511.9, -918860.0, 71336.81, 0.011416447, -0.0024985613, -778305.7, 43519.22, 0.0, 5.06161, 4.981576 
8.916958e+2, 2.2110571e+2, -770940.7, -873391.2, 73057.96, 0.006454096, -0.0022040561, -732938.75, 40221.836, 0.0, 5.0601573, 4.981069 
8.9137995e+2, 2.2607034e+2, -727725.06, -828407.06, 74690.58, 0.004526517, -0.0026550924, -687994.44, 36513.043, 0.0, 5.0586348, 4.98041 
8.910631e+2, 2.3103459e+2, -683310.06, -781335.7, 75202.55, 0.0054633077, -0.003263448, -642558.3, 33299.816, 0.0, 5.057149, 4.9804854 
8.9074224e+2, 2.3599559e+2, -645721.6, -752344.5, 74033.75, 0.008434711, -0.0013075888, -607802.0, 19438.623, 0.0, 5.0560207, 4.9741116 
8.90418e+2, 2.409529e+2, -602141.06, -705996.44, 76226.84, 0.011831407, -0.0022845299, -561835.3, 16824.02, 0.0, 5.054416, 4.973889 
8.900928e+2, 2.4590956e+2, -558562.44, -659679.4, 78085.164, 0.014298723, -0.0029472173, -516096.97, 13987.013, 0.0, 5.0528092, 4.973642 
8.897658e+2, 2.508659e+2, -514937.22, -613464.94, 78843.67, 0.016257323, -0.0029106045, -471232.0, 10279.752, 0.0, 5.0511885, 4.9733644 
8.894309e+2, 2.5581774e+2, -478137.13, -588544.8, 73741.54, 0.015012153, -0.0019196474, -441225.4, -8241.662, 0.0, 5.0500994, 4.9655576 
8.890894e+2, 2.6076528e+2, -435184.28, -541901.75, 76631.336, 0.013917428, -0.002535319, -395164.66, -10666.788, 0.0, 5.0481687, 4.965484 
8.8874686e+2, 2.6571268e+2, -392351.28, -495365.6, 78449.17, 0.01279616, -0.0011402229, -350011.44, -13995.663, 0.0, 5.0461893, 4.965372 
8.8840175e+2, 2.7065906e+2, -348911.16, -451199.16, 79635.05, 0.010908157, 0.0013223309, -305411.34, -17868.096, 0.0, 5.0449147, 4.9641175 
8.8804483e+2, 2.7559948e+2, -311532.3, -431334.88, 70212.49, 0.0074179214, 0.009671202, -279140.8, -40011.516, 0.0, 5.0444956, 4.9543257 
8.876774e+2, 2.8053465e+2, -270530.78, -384994.7, 72901.53, 0.008559114, 0.011173518, -235079.8, -44313.375, 0.0, 5.0416245, 4.9545083 
8.873091e+2, 2.8546876e+2, -228763.66, -339417.4, 72128.625, 0.008467717, 0.008787923, -193186.17, -50774.63, 0.0, 5.0392184, 4.9541764 
8.869285e+2, 2.9040214e+2, -191012.38, -294172.94, 63675.746, 0.012860646, 0.0038141198, -160646.78, -66583.055, 0.0, 5.0348234, 4.95462 
8.865373e+2, 2.9532695e+2, -172877.8, -292932.03, 63631.254, 0.014117617, -0.0038258403, -145428.11, -99628.76, 0.0, 5.030115, 4.939418 
8.8614136e+2, 3.0024683e+2, -130653.68, -244124.27, 62327.69, 0.008302606, -0.0029706487, -103105.91, -103105.91, 0.0, 5.02688, 4.9406724 
8.8574004e+2, 3.0516523e+2, -100967.15, -212279.16, 59558.31, 0.0023357796, 0.00056551624, -75107.62, -75107.62, 0.0, 5.0213447, 4.9367595 
8.8534105e+2, 3.1007868e+2, -73226.57, -193298.23, 65328.156, -0.004896107, 0.022962142, -44537.72, -44537.72, 0.0, 5.0175714, 4.927429 
8.8494647e+2, 3.1499505e+2, -27140.832, -135050.53, 45290.67, -0.0072162496, 0.063376404, -10651.585, -10651.585, 0.0, 5.018844, 4.9398293 
8.845463e+2, 3.1991398e+2, -21669.934, -130214.77, 31625.895, 0.007194554, 0.02827873, -13127.6045, -13127.6045, 0.0, 5.0190554, 4.942136 
8.841466e+2, 3.2484123e+2, -10607.185, -97849.61, 22381.158, 0.018719312, -0.009712719, -5200.5845, -5200.5845, 0.0, 5.0166664, 4.955477 
8.837442e+2, 3.2979956e+2, -15966.843, 12430.027, 10852.268, -0.010704992, 0.035884336, 16102.442, 16102.442, 0.0, 4.9913077, 5.007269 
9.022777e+2, 1.3681872e+2, -1485255.8, -1599680.4, 12057.825, 0.0015203971, -0.012449782, -1483998.9, 115176.59, 0.0, 5.0838947, 5.0051026 
9.0191984e+2, 1.4181381e+2, -1441659.6, -1553803.8, 14631.603, -0.0017962039, 0.019371767, -1439782.0, 110449.2, 0.0, 5.0824175, 5.00502 
9.0156555e+2, 1.4680365e+2, -1399467.0, -1510917.0, 20866.559, -0.009549686, 0.01118595, -1395688.3, 105639.35, 0.0, 5.081048, 5.0038085 
9.012176e+2, 1.5179259e+2, -1356211.5, -1464001.3, 28704.633, -0.026088005, 0.002104914, -1349044.0, 103388.71, 0.0, 5.079589, 5.003838 
9.008873e+2, 1.5678062e+2, -1319557.8, -1424576.0, 42732.49, -0.013362751, -0.0061745723, -1304367.0, 99179.836, 0.0, 5.0775647, 5.001183 
9.005645e+2, 1.6176724e+2, -1275148.9, -1379499.3, 43022.914, 0.008242234, -0.012454694, -1259698.5, 94977.664, 0.0, 5.0766106, 5.000506 
9.00238e+2, 1.6675338e+2, -1231809.9, -1336476.9, 42186.91, 0.020124318, -0.009770998, -1216923.4, 88889.586, 0.0, 5.07556, 4.9991746 
8.999099e+2, 1.717389e+2, -1187847.0, -1289559.5, 45866.848, 0.021150356, -0.005897939, -1170218.8, 86737.3, 0.0, 5.0741363, 4.999276 
8.995872e+2, 1.7672276e+2, -1150890.1, -1252809.5, 54150.957, 0.009363116, -0.0003727826, -1127491.1, 80624.13, 0.0, 5.0722446, 4.995837 
8.9926827e+2, 1.8170428e+2, -1107031.8, -1207506.9, 55673.11, -0.0048555615, 0.0019746812, -1082280.6, 77016.32, 0.0, 5.070968, 4.9953413 
8.989502e+2, 1.8668438e+2, -1063665.6, -1163273.0, 57187.98, -0.009561959, 0.0005975685, -1037634.8, 72856.8, 0.0, 5.0696898, 4.9944644 
8.986333e+2, 1.916641e+2, -1018803.7, -1115812.5, 58997.14, -0.004790834, -0.0008889571, -990931.8, 70758.305, 0.0, 5.068402, 4.9946976 
8.983197e+2, 1.966419e+2, -980835.94, -1080523.4, 64452.207, 0.005514844, -0.0012693434, -949202.75, 63704.26, 0.0, 5.0668664, 4.990669 
8.980079e+2, 2.0161726e+2, -937096.0, -1035464.2, 65625.766, 0.016881894, -0.0029800476, -904269.0, 59879.4, 0.0, 5.065574, 4.9900293 
8.9769447e+2, 2.0659147e+2, -894112.6, -991845.3, 66749.945, 0.021075986, -0.0031491993, -860253.7, 55147.316, 0.0, 5.0642323, 4.9888973 
8.973795e+2, 2.1156532e+2, -848766.8, -943686.6, 67556.64, 0.018871274, -0.002753727, -813665.56, 52991.72, 0.0, 5.0629406, 4.9893475 
8.9706326e+2, 2.1653686e+2, -810637.25, -910619.9, 69838.5, 0.013793377, -0.0010828056, -774741.75, 43194.535, 0.0, 5.061588, 4.984494 
8.9674634e+2, 2.2150543e+2, -767182.56, -865358.75, 71608.81, 0.008099314, -0.0010274962, -729452.06, 39792.137, 0.0, 5.060132, 4.983924 
8.964289e+2, 2.2647281e+2, -724153.1, -820740.44, 72887.88, 0.006010941, -0.0020256515, -685011.56, 35552.484, 0.0, 5.0586004, 4.983146 
8.961104e+2, 2.3143993e+2, -679366.06, -772864.7, 73570.08, 0.006395283, -0.0027073468, -638948.56, 32937.64, 0.0, 5.057122, 4.9835124 
8.9578795e+2, 2.3640417e+2, -641107.4, -742373.56, 72263.56, 0.00928785, -0.0012046391, -603503.7, 19733.129, 0.0, 5.0559897, 4.9776735 
8.954621e+2, 2.4136497e+2, -597624.5, -696179.1, 74332.32, 0.012818595, -0.0020029393, -557719.2, 16901.773, 0.0, 5.05438, 4.977407 
8.951353e+2, 2.4632518e+2, -554340.75, -650552.6, 76242.836, 0.015347327, -0.0016799283, -512295.97, 13714.913, 0.0, 5.0527825, 4.976923 
8.9480656e+2, 2.5128514e+2, -509845.78, -602428.44, 76757.63, 0.018480571, -0.0021870888, -466501.06, 10902.4, 0.0, 5.0511584, 4.977344 
8.9446974e+2, 2.5624096e+2, -472635.94, -576551.7, 71544.305, 0.01691517, -0.001386482, -436173.2, -7337.166, 0.0, 5.050064, 4.9698806 
8.9412624e+2, 2.6119283e+2, -429832.56, -530163.6, 74312.31, 0.015119589, -0.0016392028, -390338.2, -10029.962, 0.0, 5.048127, 4.969727 
8.9378154e+2, 2.6614428e+2, -386672.38, -482823.5, 76332.09, 0.012787648, -0.0018733733, -344537.94, -12751.92, 0.0, 5.0461493, 4.9699144 
8.934346e+2, 2.710955e+2, -342826.5, -437569.38, 78127.42, 0.0074108723, 0.0016523994, -298830.84, -15565.195, 0.0, 5.044888, 4.9690413 
8.930756e+2, 2.7604085e+2, -304891.16, -417903.72, 67040.13, 0.0035358076, 0.008645709, -273719.97, -38916.617, 0.0, 5.0446115, 4.9591866 
8.9270514e+2, 2.8098047e+2, -265021.47, -373912.72, 70264.49, 0.0035803702, 0.009387728, -230577.14, -44180.44, 0.0, 5.0417266, 4.9585376 
8.9233434e+2, 2.8591853e+2, -222641.03, -327191.84, 68370.73, 0.005338251, 0.008950739, -188850.9, -50847.707, 0.0, 5.0393476, 4.9586244 
8.919488e+2, 2.908566e+2, -183535.11, -279274.06, 57425.2, 0.017604899, -0.0023016867, -156644.03, -67033.95, 0.0, 5.034903, 4.960131 
8.9155227e+2, 2.9578486e+2, -171934.44, -290068.34, 61401.324, 0.019341024, -0.0084919995, -145801.45, -104488.97, 0.0, 5.0299487, 4.9405055 
8.9115274e+2, 3.007063e+2, -128996.234, -239040.33, 59368.457, 0.0112574445, -0.00031703117, -103073.62, -103073.62, 0.0, 5.0266256, 4.942571 
8.9074445e+2, 3.056279e+2, -102227.86, -212378.81, 55433.145, -0.00083751493, 0.008835182, -79161.53, -79161.53, 0.0, 5.0208306, 4.9368668 
8.9034116e+2, 3.1053782e+2, -86938.27, -222313.52, 67122.695, -0.024557035, 0.049509205, -59299.77, -59299.77, 0.0, 5.017253, 4.9170814 
8.8994795e+2, 3.1543934e+2, -46743.32, -180117.63, 46786.547, -0.020643614, 0.08036243, -31967.86, -31967.86, 0.0, 5.0188103, 4.9235682 
8.895495e+2, 3.2034e+2, -39413.88, -171389.22, 33010.77, 0.002589541, 0.017799683, -31617.518, -31617.518, 0.0, 5.019108, 4.927211 
8.8914967e+2, 3.2525265e+2, -14238.048, -101069.82, 15095.61, 0.04605461, -0.062342193, -11688.549, -11688.549, 0.0, 5.0158057, 4.954544 
8.887112e+2, 3.3023322e+2, 2360.0237, 63282.48, -17547.818, -0.03288437, 0.11102003, 67975.375, 67975.375, 0.0, 4.9890513, 5.0274887 
9.073466e+2, 1.3718171e+2, -1491401.8, -1596694.1, 11857.401, -0.006360526, -0.009675269, -1490082.9, 105536.93, 0.0, 5.0804515, 5.0077767 
9.069892e+2, 1.4217885e+2, -1446318.9, -1550114.3, 15159.696, 0.006595079, 0.018404128, -1444150.1, 102503.64, 0.0, 5.0795155, 5.0076556 
9.066337e+2, 1.4717095e+2, -1403656.5, -1507732.9, 21876.008, -0.005313117, 0.010189825, -1399245.4, 98482.766, 0.0, 5.078503, 5.006084 
9.0628487e+2, 1.5216209e+2, -1359540.1, -1460336.8, 29235.033, -0.023581684, 0.0013829018, -1351674.6, 97137.3, 0.0, 5.0773144, 5.006156 
9.0595365e+2, 1.5715225e+2, -1322432.4, -1420929.6, 43705.617, -0.013048324, -0.005978915, -1305835.6, 94069.7, 0.0, 5.0755315, 5.003372 
9.0562993e+2, 1.62141e+2, -1277040.8, -1375591.6, 43482.91, 0.00795006, -0.010685012, -1260598.4, 90416.03, 0.0, 5.0749593, 5.002605 
9.0530235e+2, 1.6712905e+2, -1232959.6, -1332096.9, 42831.883, 0.020859957, -0.007932085, -1217017.9, 85114.52, 0.0, 5.074139, 5.0013323 
9.0497327e+2, 1.7211652e+2, -1188252.1, -1284861.6, 46620.348, 0.022014659, -0.0042120204, -1169424.1, 83832.086, 0.0, 5.0729947, 5.001411 
9.046494e+2, 1.7710245e+2, -1150251.1, -1247072.1, 54883.44, 0.010444551, 0.0008578402, -1125478.5, 78916.77, 0.0, 5.07136, 4.9982095 
9.0432924e+2, 1.8208604e+2, -1105855.3, -1201627.1, 56484.125, -0.0036051348, 0.0027562624, -1079690.4, 75866.23, 0.0, 5.0703034, 4.9976635 
9.0400994e+2, 1.8706813e+2, -1061946.8, -1157587.1, 57951.81, -0.008469541, 0.0016288499, -1034632.5, 72099.2, 0.0, 5.0693192, 4.996586 
9.0369195e+2, 1.9204983e+2, -1016306.06, -1109607.6, 59714.56, -0.0033720217, 0.000060597537, -987180.0, 70730.586, 0.0, 5.068269, 4.9968987 
9.033772e+2, 1.9702986e+2, -977272.9, -1073030.0, 65138.953, 0.0072729057, -0.0005388884, -944309.4, 64796.723, 0.0, 5.0669465, 4.993224 
9.0306413e+2, 2.020075e+2, -933342.3, -1028299.75, 66339.61, 0.019167049, -0.0020213402, -899241.8, 61083.16, 0.0, 5.0658193, 4.9923997 
9.027493e+2, 2.0698397e+2, -889325.75, -983554.2, 67042.89, 0.023271471, -0.002061007, -854497.94, 57057.66, 0.0, 5.064708, 4.991562 
9.0243304e+2, 2.1196017e+2, -843870.8, -935980.5, 68228.19, 0.02045634, -0.0014211015, -807608.4, 55180.523, 0.0, 5.0636067, 4.9917283 
9.021154e+2, 2.1693426e+2, -804359.2, -900894.7, 70078.99, 0.015546398, -0.00019295703, -767533.8, 46508.863, 0.0, 5.062448, 4.987504 
9.0179706e+2, 2.2190557e+2, -760760.0, -855951.94, 71617.5, 0.0099355765, -0.00046727026, -722365.0, 42958.684, 0.0, 5.061129, 4.9867697 
9.0147805e+2, 2.2687566e+2, -717251.2, -810957.4, 72793.25, 0.007672038, -0.0016226508, -677536.0, 39080.75, 0.0, 5.059743, 4.9860697 
9.01158e+2, 2.3184562e+2, -672062.44, -762598.2, 73273.77, 0.007943751, -0.002382766, -631201.2, 36709.777, 0.0, 5.0583453, 4.9865866 
9.008338e+2, 2.3681302e+2, -633206.56, -730584.9, 71742.21, 0.01071007, -0.0012327489, -595191.75, 24038.42, 0.0, 5.0571694, 4.981312 
9.0050626e+2, 2.4177727e+2, -590239.44, -684945.1, 73715.2, 0.014259594, -0.0019036023, -549978.2, 20602.264, 0.0, 5.0554433, 4.980915 
9.001778e+2, 2.4674095e+2, -547299.25, -639237.1, 75158.37, 0.016976438, -0.0008338324, -505166.44, 16770.033, 0.0, 5.0536666, 4.980556 
8.9984727e+2, 2.517045e+2, -502955.7, -590865.94, 75689.66, 0.020457236, -0.0014822142, -459383.8, 13909.648, 0.0, 5.0519214, 4.981139 
8.9950836e+2, 2.5666437e+2, -464884.16, -563301.6, 70193.24, 0.01870437, -0.00084785785, -428368.97, -3681.911, 0.0, 5.0508738, 4.9742603 
8.991628e+2, 2.6162046e+2, -422657.66, -517951.6, 72922.64, 0.01619238, -0.0008240794, -383195.8, -7078.07, 0.0, 5.048892, 4.973769 
8.9881605e+2, 2.66576e+2, -378493.22, -468227.28, 74779.086, 0.013014102, -0.002925343, -336153.8, -8598.662, 0.0, 5.046905, 4.974826 
8.9846736e+2, 2.7153215e+2, -334937.7, -422862.56, 77287.87, 0.0043139863, 0.0016869352, -289983.8, -10997.196, 0.0, 5.0455346, 4.974044 
8.981063e+2, 2.7648237e+2, -297402.72, -404084.66, 64373.56, 0.00038267288, 0.007230244, -267142.16, -36665.88, 0.0, 5.0450945, 4.9640136 
8.97733e+2, 2.814263e+2, -259534.81, -363648.03, 67477.266, -0.00076582475, 0.007907594, -226367.77, -44340.844, 0.0, 5.042006, 4.9621897 
8.973595e+2, 2.863684e+2, -216366.4, -314026.78, 64556.754, 0.0033042107, 0.00893162, -184252.4, -50658.016, 0.0, 5.0393734, 4.963459 
8.9696866e+2, 2.9131117e+2, -177133.06, -264529.25, 51209.29, 0.023827894, -0.009608954, -153511.66, -68356.484, 0.0, 5.034545, 4.9657826 
8.965668e+2, 2.9624298e+2, -170933.88, -287067.13, 59546.734, 0.024512175, -0.0143258935, -145828.72, -109005.086, 0.0, 5.02985, 4.941574 
8.9616334e+2, 3.0116612e+2, -127341.01, -232164.34, 55969.984, 0.013567611, -0.00022387136, -103073.984, -103073.984, 0.0, 5.026122, 4.9451556 
8.957473e+2, 3.0609053e+2, -107652.5, -214804.31, 53543.914, -0.0101395175, 0.012091883, -85483.25, -85483.25, 0.0, 5.0190682, 4.9365826 
8.953408e+2, 3.109961e+2, -109643.22, -257900.0, 70568.28, -0.045893814, 0.07392685, -81424.65, -81424.65, 0.0, 5.0144005, 4.9054465 
8.949501e+2, 3.158816e+2, -73574.17, -227824.9, 50351.746, -0.02769308, 0.082340136, -58592.965, -58592.965, 0.0, 5.016305, 4.907439 
8.945548e+2, 3.2076254e+2, -62319.215, -215469.48, 35980.65, 0.016070344, -0.014136914, -54287.27, -54287.27, 0.0, 5.017619, 4.9118934 
8.94153e+2, 3.256615e+2, -24526.316, -115086.516, 4828.222, 0.097384796, -0.15273948, -24269.627, -24269.627, 0.0, 5.0140944, 4.9498625 
8.936687e+2, 3.306643e+2, 26330.842, 127728.27, -46017.19, -0.08606624, 0.037863024, 145498.11, 145498.11, 0.0, 4.986668, 5.0529814 
9.1240996e+2, 1.3754703e+2, -1507896.8, -1598444.1, 10651.925, -0.009685683, -0.007546695, -1506660.5, 85380.79, 0.0, 5.073306, 5.0106745 
9.120533e+2, 1.425464e+2, -1461399.3, -1551831.1, 14520.527, 0.015315955, 0.01743231, -1459124.9, 83926.555, 0.0, 5.0730066, 5.0102367 
9.1169715e+2, 1.4754093e+2, -1416957.6, -1509005.5, 21684.77, -0.001391106, 0.009738127, -1412105.0, 81997.5, 0.0, 5.07273, 5.0084367 
9.113479e+2, 1.5253441e+2, -1370678.6, -1460687.0, 28787.547, -0.021326337, 0.0014258121, -1362259.0, 82904.53, 0.0, 5.072307, 5.008449 
9.1101617e+2, 1.5752682e+2, -1332378.5, -1420844.4, 43587.496, -0.013122793, -0.0050560315, -1314511.4, 81723.8, 0.0, 5.0709825, 5.005583 
9.1069174e+2, 1.6251776e+2, -1286310.3, -1375090.5, 43331.29, 0.007358007, -0.008509379, -1268667.5, 78655.51, 0.0, 5.070639, 5.0048337 
9.1036344e+2, 1.6750786e+2, -1241501.9, -1331263.0, 42861.957, 0.021473547, -0.0058432836, -1224322.8, 74098.3, 0.0, 5.070088, 5.0035357 
9.100336e+2, 1.7249742e+2, -1195909.1, -1283552.5, 46482.83, 0.022976322, -0.0023795501, -1175848.1, 73676.32, 0.0, 5.069234, 5.0036387 
9.0970874e+2, 1.7748556e+2, -1157018.1, -1244645.3, 55002.25, 0.01159739, 0.0022309334, -1130511.9, 70129.86, 0.0, 5.06778, 5.0007267 
9.093877e+2, 1.8247138e+2, -1112501.8, -1199381.0, 56822.77, -0.0024158522, 0.0036526253, -1084416.4, 67364.7, 0.0, 5.066835, 5.0000553 
9.090675e+2, 1.8745561e+2, -1068326.8, -1155014.0, 58538.53, -0.0073718033, 0.0023916878, -1038831.94, 64103.22, 0.0, 5.0659184, 4.9990487 
9.0874857e+2, 1.9243951e+2, -1022619.6, -1107232.3, 60699.93, -0.0022894824, 0.00087385136, -990937.4, 63155.25, 0.0, 5.0649614, 4.999239 
9.0843284e+2, 1.9742195e+2, -982934.7, -1069184.8, 66123.414, 0.008406482, 0.00002398581, -947116.2, 58148.36, 0.0, 5.063636, 4.9960732 
9.0811867e+2, 2.0240211e+2, -939168.3, -1024593.6, 67587.805, 0.019694747, -0.0013838422, -901927.94, 54530.75, 0.0, 5.062492, 4.995195 
9.078027e+2, 2.0738097e+2, -895256.9, -979882.0, 68406.086, 0.023356158, -0.0017503509, -857134.75, 50531.043, 0.0, 5.061359, 4.9943457 
9.074852e+2, 2.1235962e+2, -849971.5, -932183.4, 70280.94, 0.01995278, -0.0013759284, -809658.1, 49216.72, 0.0, 5.0601954, 4.994572 
9.071663e+2, 2.1733654e+2, -809711.25, -895242.2, 72146.45, 0.014863432, -0.00022507716, -768607.75, 41493.22, 0.0, 5.059014, 4.991001 
9.0684676e+2, 2.2231084e+2, -766464.6, -850538.7, 73947.695, 0.00986114, -0.00055668765, -723440.7, 37912.02, 0.0, 5.05763, 4.990191 
9.065265e+2, 2.2728385e+2, -723087.75, -805359.8, 75509.52, 0.0091103995, -0.0014690524, -678236.2, 34380.574, 0.0, 5.0561852, 4.9895687 
9.06205e+2, 2.3225684e+2, -677911.8, -756595.06, 76415.945, 0.011094046, -0.0023672387, -631304.9, 32576.273, 0.0, 5.054749, 4.990228 
9.058792e+2, 2.3722777e+2, -638343.25, -722023.8, 75133.484, 0.013510881, -0.0016546644, -594185.56, 20980.293, 0.0, 5.053429, 4.985898 
9.0554976e+2, 2.4219586e+2, -596120.6, -676933.3, 77675.24, 0.015992792, -0.002253966, -548970.6, 17507.877, 0.0, 5.0515556, 4.985342 
9.052191e+2, 2.4716324e+2, -553466.06, -630200.56, 79509.12, 0.01727411, -0.0018533334, -503551.16, 14247.259, 0.0, 5.0495114, 4.9854393 
9.048863e+2, 2.5213087e+2, -509824.66, -581997.7, 80893.74, 0.018304238, -0.0015196567, -457333.3, 11782.48, 0.0, 5.047563, 4.986029 
9.045454e+2, 2.5709552e+2, -471035.7, -550611.9, 76177.85, 0.018423358, 0.000059415182, -424881.03, -4418.801, 0.0, 5.046185, 4.9806037 
9.04198e+2, 2.6205692e+2, -430113.44, -504684.03, 80258.72, 0.019379945, -0.000027354796, -378902.1, -7060.978, 0.0, 5.0436893, 4.980469 
9.0384936e+2, 2.6701775e+2, -387017.66, -455053.16, 84384.3, 0.01905014, -0.002588977, -330052.34, -6826.7227, 0.0, 5.041442, 4.98154 
9.034986e+2, 2.719795e+2, -346351.75, -407468.28, 86984.46, 0.01375521, -0.0002416628, -284714.0, -10112.514, 0.0, 5.0384445, 4.9822135 
9.031339e+2, 2.7693668e+2, -312462.3, -385359.97, 76687.586, 0.009812873, 0.0023728046, -264002.34, -37979.81, 0.0, 5.036018, 4.974084 
9.0275705e+2, 2.818884e+2, -277362.34, -343458.6, 86688.336, 0.008320611, 0.0028696405, -217636.3, -40139.35, 0.0, 5.032083, 4.972875 
9.023804e+2, 2.8683853e+2, -234434.31, -289616.75, 88641.85, 0.015147251, 0.0039751176, -169188.83, -40202.453, 0.0, 5.0291963, 4.9754705 
9.0198565e+2, 2.9178998e+2, -179158.56, -228535.17, 80593.45, 0.038886838, -0.013992554, -119556.79, -39093.805, 0.0, 5.0300393, 4.9791927 
9.015748e+2, 2.9673302e+2, -181548.56, -241713.98, 91490.94, 0.027006183, -0.014576019, -115321.56, -83299.66, 0.0, 5.020413, 4.9600563 
9.011559e+2, 3.0166784e+2, -183131.69, -192703.61, 98518.18, 0.00068574364, -0.008596868, -89283.29, -89283.29, 0.0, 4.999431, 4.9680963 
9.1747034e+2, 1.379124e+2, -1503929.0, -1590487.3, 10136.024, -0.01052983, -0.0055244104, -1502757.9, 85703.96, 0.0, 5.0733285, 5.01337 
9.171143e+2, 1.4291403e+2, -1457766.4, -1544632.1, 14476.556, 0.02234484, 0.015983004, -1455417.3, 84031.2, 0.0, 5.073044, 5.012677 
9.16758e+2, 1.4791098e+2, -1413307.1, -1501736.8, 21647.174, 0.0017133326, 0.00875524, -1408292.4, 82183.66, 0.0, 5.0727725, 5.0108995 
9.1640866e+2, 1.5290691e+2, -1367475.8, -1454275.5, 28594.885, -0.020119136, 0.001490597, -1358902.4, 82611.05, 0.0, 5.0723405, 5.01063 
9.1607654e+2, 1.5790161e+2, -1329146.4, -1414394.0, 43174.92, -0.014038269, -0.0042692823, -1311100.0, 81462.766, 0.0, 5.071015, 5.007786 
9.157516e+2, 1.6289482e+2, -1283264.0, -1368927.9, 42602.52, 0.0066422555, -0.0066053024, -1265684.4, 77944.42, 0.0, 5.0706534, 5.006952 
9.154227e+2, 1.6788706e+2, -1238422.8, -1324846.0, 42401.434, 0.021700827, -0.00397158, -1221094.0, 73612.01, 0.0, 5.0700774, 5.005755 
9.1509223e+2, 1.7287876e+2, -1192754.5, -1277177.6, 45431.98, 0.023965629, -0.00087005267, -1172950.9, 72837.36, 0.0, 5.0692444, 5.00585 
9.1476655e+2, 1.7786925e+2, -1153513.4, -1237471.5, 54027.39, 0.0127521055, 0.003414823, -1127073.1, 69809.39, 0.0, 5.067783, 5.00322 
9.144445e+2, 1.8285744e+2, -1109177.4, -1192582.8, 55858.945, -0.0014234983, 0.0045376327, -1081171.1, 66827.47, 0.0, 5.0668406, 5.0024242 
9.141234e+2, 1.8784398e+2, -1064980.3, -1148217.6, 57407.867, -0.0064581116, 0.0033649052, -1035692.1, 63438.004, 0.0, 5.065931, 5.0014224 
9.138036e+2, 1.9283023e+2, -1019469.1, -1100676.1, 59891.34, -0.0017422703, 0.0020714349, -987715.06, 62549.445, 0.0, 5.0649576, 5.0015388 
9.1348684e+2, 1.9781528e+2, -979059.4, -1061229.0, 64894.38, 0.009132315, 0.0010528192, -943337.7, 58073.223, 0.0, 5.063645, 4.998867 
9.131714e+2, 2.0279816e+2, -935510.5, -1017133.9, 66158.65, 0.019985711, -0.00022402531, -898588.3, 53990.055, 0.0, 5.0625086, 4.997819 
9.1285414e+2, 2.0777963e+2, -891621.4, -972441.6, 67191.45, 0.023206878, -0.0007039899, -853624.44, 50135.34, 0.0, 5.061373, 4.996975 
9.125355e+2, 2.1276097e+2, -846089.2, -924134.56, 69075.9, 0.019371899, -0.00078524044, -805775.56, 49166.836, 0.0, 5.060203, 4.9974256 
9.1221523e+2, 2.1774097e+2, -805074.2, -885687.25, 70617.61, 0.013489074, 0.00035294108, -764069.8, 42068.402, 0.0, 5.0590334, 4.994392 
9.118942e+2, 2.2271857e+2, -762067.06, -841440.75, 72401.25, 0.008192291, 0.0001740677, -719188.9, 38168.594, 0.0, 5.057644, 4.993431 
9.1157246e+2, 2.276948e+2, -718444.06, -795777.6, 73528.24, 0.008161221, -0.00079964416, -674035.44, 34554.48, 0.0, 5.0562024, 4.99299 
9.112496e+2, 2.3267117e+2, -673384.8, -747168.6, 74787.805, 0.011074069, -0.0015714818, -626884.75, 32936.234, 0.0, 5.054759, 4.993609 
9.1092205e+2, 2.3764606e+2, -632358.25, -709550.1, 73028.95, 0.014446548, -0.0013929344, -588353.5, 22713.215, 0.0, 5.05345, 4.9903727 
9.105907e+2, 2.4261856e+2, -590369.44, -664850.9, 75306.53, 0.017376352, -0.0015914645, -543598.56, 18737.613, 0.0, 5.051559, 4.989694 
9.102578e+2, 2.4759026e+2, -547860.7, -618423.1, 77214.46, 0.017684754, -0.0009538699, -498248.78, 15365.18, 0.0, 5.0495186, 4.989695 
9.099228e+2, 2.525624e+2, -503592.6, -568892.5, 78355.99, 0.017311843, -0.00024820687, -451356.25, 13531.127, 0.0, 5.0475774, 4.9907794 
9.095796e+2, 2.5753275e+2, -462596.06, -532743.5, 73105.34, 0.01763072, 0.0017779537, -416586.16, -407.66852, 0.0, 5.046207, 4.9870806 
9.0922964e+2, 2.6250055e+2, -421617.63, -486658.66, 77474.43, 0.017390683, 0.0012701319, -370115.1, -2621.0671, 0.0, 5.043725, 4.987013 
9.0887886e+2, 2.6746783e+2, -378618.34, -437134.2, 81044.23, 0.018489769, -0.0012628639, -321712.5, -2897.7358, 0.0, 5.0414486, 4.9880857 
9.085252e+2, 2.7243626e+2, -336217.13, -386516.7, 82389.06, 0.016078763, -0.0022840397, -275224.75, -5100.3257, 0.0, 5.038531, 4.989883 
9.081564e+2, 2.7740273e+2, -297338.72, -353900.1, 71641.14, 0.014459842, -0.002995029, -248598.3, -27145.02, 0.0, 5.036226, 4.9855366 
9.0777606e+2, 2.8236663e+2, -260495.23, -308777.28, 81501.7, 0.014358839, -0.00072063314, -199634.39, -26826.396, 0.0, 5.03246, 4.985436 
9.0739536e+2, 2.8732973e+2, -217257.66, -254867.86, 85183.12, 0.015020829, 0.00066796475, -148828.63, -24657.281, 0.0, 5.0297623, 4.9880347 
9.0699965e+2, 2.9229414e+2, -160470.56, -193757.33, 79673.375, 0.028264277, -0.006919019, -95720.77, -20199.383, 0.0, 5.0313883, 4.9915323 
9.0657866e+2, 2.9725632e+2, -137425.83, -172421.58, 71601.31, 0.0073591606, 0.001463746, -81215.336, -54321.66, 0.0, 5.024706, 4.9844446 
9.061401e+2, 3.0221352e+2, -131271.83, -124273.11, 80848.18, -0.03189969, 0.0044278083, -46848.598, -46848.598, 0.0, 5.007333, 4.990669 
9.2253125e+2, 1.3827808e+2, -1501104.4, -1583337.1, 9698.112, -0.00540187, -0.0046477835, -1499976.1, 84902.39, 0.0, 5.0729995, 5.015973 
9.2217463e+2, 1.4328189e+2, -1456055.5, -1538397.8, 14720.817, 0.02415212, 0.013800686, -1453502.9, 82340.09, 0.0, 5.0724225, 5.015112 
9.2181855e+2, 1.4828128e+2, -1411541.5, -1495455.3, 21586.014, 0.002736561, 0.007490485, -1406314.4, 80532.59, 0.0, 5.0721693, 5.0133443 
9.2146915e+2, 1.5327965e+2, -1366049.6, -1448851.1, 28669.186, -0.019855406, 0.0018861602, -1357092.1, 80768.74, 0.0, 5.07179, 5.0127544 
9.211369e+2, 1.5827666e+2, -1327500.6, -1408738.3, 42866.93, -0.014331361, -0.002915314, -1309064.8, 79823.49, 0.0, 5.0705037, 5.0099797 
9.208115e+2, 1.632721e+2, -1281399.3, -1363418.1, 41914.273, 0.007161226, -0.004422296, -1263769.3, 76163.51, 0.0, 5.0702734, 5.0090365 
9.2048186e+2, 1.682664e+2, -1236052.8, -1318722.5, 42270.867, 0.022026123, -0.0020236257, -1218265.8, 72723.586, 0.0, 5.0698137, 5.007995 
9.2015076e+2, 1.7326024e+2, -1190022.5, -1270972.1, 44597.793, 0.025011808, 0.00045478297, -1170271.3, 71779.414, 0.0, 5.069104, 5.0080757 
9.198243e+2, 1.7825305e+2, -1150283.4, -1230447.1, 53177.16, 0.013778384, 0.004370757, -1123774.3, 69347.84, 0.0, 5.067696, 5.0057073 
9.195013e+2, 1.8324359e+2, -1106070.4, -1186182.6, 55142.504, -0.0007239809, 0.0053250417, -1077970.9, 66244.08, 0.0, 5.0668387, 5.0046616 
9.1917926e+2, 1.8823245e+2, -1061573.0, -1141322.0, 56303.492, -0.0054963967, 0.004380457, -1032454.3, 62869.688, 0.0, 5.0659533, 5.003828 
9.188585e+2, 1.9322103e+2, -1016164.9, -1093887.3, 59126.766, -0.0012642853, 0.0032087376, -984271.8, 62163.67, 0.0, 5.0649753, 5.0039115 
9.1854066e+2, 1.9820867e+2, -975190.6, -1053294.0, 63724.37, 0.009724742, 0.0020138728, -939503.9, 58052.48, 0.0, 5.0636587, 5.001655 
9.1822404e+2, 2.0319428e+2, -931956.5, -1009848.5, 64861.62, 0.020326233, 0.00094199204, -895246.56, 53450.723, 0.0, 5.062518, 5.0003896 
9.179055e+2, 2.0817833e+2, -887965.9, -964877.06, 65945.13, 0.023084167, 0.00024389371, -850082.8, 49770.367, 0.0, 5.061373, 4.9996557 
9.175856e+2, 2.1316239e+2, -842298.94, -916173.9, 67813.54, 0.018684784, -0.00011249133, -802015.6, 48993.527, 0.0, 5.060185, 5.000264 
9.1726404e+2, 2.1814547e+2, -800461.3, -876182.4, 69087.3, 0.012013793, 0.0009107773, -759540.6, 42634.035, 0.0, 5.059054, 4.9977703 
9.169416e+2, 2.2312634e+2, -757607.2, -832209.06, 70687.82, 0.0066720024, 0.00080730784, -714982.3, 38379.414, 0.0, 5.0576563, 4.9967237 
9.1661835e+2, 2.2810581e+2, -713977.44, -786577.75, 71696.91, 0.0073343604, 0.0000408915, -669915.0, 34647.285, 0.0, 5.0562215, 4.9962807 
9.1629404e+2, 2.3308559e+2, -668808.4, -737629.3, 73142.234, 0.0112429615, -0.00078844914, -622386.5, 33373.594, 0.0, 5.054769, 4.997035 
9.159648e+2, 2.3806442e+2, -626429.0, -697189.3, 70907.94, 0.015230472, -0.0012048036, -582564.7, 24402.219, 0.0, 5.0534706, 4.994817 
9.1563153e+2, 2.4304134e+2, -584809.06, -653213.8, 72982.21, 0.018394483, -0.00086948567, -538412.44, 19780.867, 0.0, 5.0515685, 4.9938946 
9.152964e+2, 2.4801734e+2, -542148.8, -606394.4, 74831.97, 0.017954184, 0.00005566741, -492836.34, 16592.74, 0.0, 5.049522, 4.994052 
9.149592e+2, 2.52994e+2, -497364.53, -555780.4, 75851.62, 0.016198065, 0.0009223039, -445291.63, 15366.678, 0.0, 5.0475926, 4.995541 
9.1461366e+2, 2.5796998e+2, -454181.53, -514922.3, 70041.29, 0.017086303, 0.0032318586, -408209.66, 3684.6418, 0.0, 5.0462294, 4.9935603 
9.142611e+2, 2.6294425e+2, -413218.25, -468861.28, 74315.99, 0.016078904, 0.002015819, -361686.75, 1459.5408, 0.0, 5.0437593, 4.993496 
9.139081e+2, 2.6791793e+2, -369744.38, -418145.88, 78012.29, 0.018631943, -0.0011126931, -312265.3, 2138.1982, 0.0, 5.041462, 4.9950385 
9.1355157e+2, 2.7289325e+2, -326485.34, -366464.25, 77868.31, 0.018661875, -0.004307294, -266081.7, -436.7694, 0.0, 5.0386186, 4.9972563 
9.131784e+2, 2.7786902e+2, -282733.28, -323008.16, 66760.195, 0.01719466, -0.008367675, -233139.53, -16257.743, 0.0, 5.0363216, 4.9969025 
9.127944e+2, 2.8284547e+2, -244209.22, -273570.34, 76586.98, 0.016546633, -0.0039929072, -180908.47, -12794.482, 0.0, 5.0324984, 4.9984174 
9.1241014e+2, 2.8782144e+2, -201889.22, -222955.1, 82784.39, 0.009529754, -0.001292507, -128970.38, -9618.921, 0.0, 5.0301137, 4.99973 
9.120142e+2, 2.9279855e+2, -143427.86, -158877.33, 77297.97, 0.017022368, -0.0013372628, -73469.6, -2891.786, 0.0, 5.031884, 5.0043993 
9.11583e+2, 2.9777926e+2, -101994.81, -108271.516, 51496.36, -0.007079223, 0.00817841, -53541.266, -31772.313, 0.0, 5.0261235, 5.008577 
9.111268e+2, 3.0276066e+2, -99662.71, -71181.52, 64793.82, -0.052974295, 0.030142473, -19081.83, -19081.83, 0.0, 5.009207, 5.010534 
9.275902e+2, 1.3864382e+2, -1507939.8, -1580710.9, 9249.51, 0.00038313086, -0.005791559, -1506782.5, 74511.48, 0.0, 5.069371, 5.018607 
9.272325e+2, 1.4364971e+2, -1461315.5, -1535094.0, 15196.632, 0.018318148, 0.008601514, -1458308.0, 73929.6, 0.0, 5.0693703, 5.0176907 
9.26877e+2, 1.4865181e+2, -1415721.5, -1491915.4, 21675.637, -0.00075263495, 0.0055522453, -1409986.8, 73228.94, 0.0, 5.069546, 5.0157995 
9.265282e+2, 1.536527e+2, -1369864.1, -1445824.5, 29120.879, -0.020658262, 0.002686991, -1359984.9, 74220.695, 0.0, 5.0694265, 5.0149174 
9.261962e+2, 1.5865202e+2, -1330581.3, -1405266.0, 42873.66, -0.011666336, -0.00049209705, -1311067.6, 74143.1, 0.0, 5.0683455, 5.0122075 
9.2587054e+2, 1.636496e+2, -1284238.4, -1360011.6, 41721.91, 0.011013184, -0.0021662316, -1265767.9, 70466.63, 0.0, 5.06823, 5.011185 
9.2554027e+2, 1.6864593e+2, -1237861.0, -1314331.9, 42156.01, 0.02407357, -0.0014262602, -1219183.5, 68087.57, 0.0, 5.0680423, 5.010347 
9.2520857e+2, 1.7364195e+2, -1190895.4, -1266181.8, 44248.14, 0.025228204, 0.00025423, -1170444.6, 67866.22, 0.0, 5.0676775, 5.010405 
9.248812e+2, 1.7863712e+2, -1149786.6, -1224458.5, 52944.543, 0.011779503, 0.0035728032, -1122337.5, 67021.38, 0.0, 5.066631, 5.0082846 
9.245575e+2, 1.8363006e+2, -1105099.0, -1180507.9, 54892.78, -0.0031942083, 0.0046737744, -1076208.8, 64219.29, 0.0, 5.0660567, 5.007001 
9.242348e+2, 1.886213e+2, -1059458.5, -1135037.9, 56094.0, -0.007266719, 0.004510243, -1029612.44, 61901.48, 0.0, 5.065561, 5.0062037 
9.239134e+2, 1.9361225e+2, -1012897.4, -1086861.3, 58891.934, -0.0022541157, 0.0037652839, -980338.5, 62263.93, 0.0, 5.0649457, 5.0063877 
9.2359465e+2, 1.9860248e+2, -970361.7, -1044884.56, 63149.293, 0.0099763125, 0.002689792, -934300.25, 59397.754, 0.0, 5.064028, 5.004444 
9.23277e+2, 2.0359074e+2, -926617.8, -1001535.75, 64343.375, 0.021139117, 0.0017886654, -889623.8, 55189.055, 0.0, 5.063146, 5.003033 
9.229573e+2, 2.085774e+2, -881740.4, -955881.4, 65256.71, 0.0233434, 0.0011803154, -843759.8, 52183.42, 0.0, 5.0622616, 5.002429 
9.226361e+2, 2.1356416e+2, -835561.0, -907044.56, 67074.47, 0.018178543, 0.0009852115, -795299.75, 51772.77, 0.0, 5.0612826, 5.0030036 
9.223132e+2, 2.1855026e+2, -792802.0, -865247.7, 68010.484, 0.011042305, 0.0017142302, -751969.56, 46238.89, 0.0, 5.060182, 5.0011506 
9.219892e+2, 2.2353435e+2, -750207.06, -821795.75, 69329.37, 0.0056414534, 0.0013982306, -707977.06, 41386.77, 0.0, 5.058783, 4.9999285 
9.216644e+2, 2.2851704e+2, -706554.0, -775978.56, 70533.35, 0.0065278276, 0.0007815347, -662653.94, 37878.727, 0.0, 5.057328, 4.999574 
9.213387e+2, 2.3350015e+2, -661040.06, -726306.75, 71777.77, 0.01139652, -0.000369073, -614825.56, 36872.035, 0.0, 5.055883, 5.0006003 
9.2100763e+2, 2.3848292e+2, -617421.1, -683455.7, 69058.75, 0.015923047, -0.0013855655, -573892.7, 28973.135, 0.0, 5.054631, 4.999245 
9.2067236e+2, 2.434642e+2, -575979.75, -640251.1, 70855.86, 0.019501451, -0.0004554453, -530312.75, 23736.795, 0.0, 5.0528183, 4.9980173 
9.2033505e+2, 2.4844448e+2, -532382.0, -592248.9, 72632.86, 0.018306047, 0.00070126157, -483756.28, 21487.197, 0.0, 5.0509605, 4.9985337 
9.199956e+2, 2.5342572e+2, -487298.34, -541120.94, 73533.484, 0.015237197, 0.0021490685, -435906.44, 20521.656, 0.0, 5.0490665, 5.000217 
9.1964775e+2, 2.584073e+2, -442615.94, -495637.8, 66953.91, 0.017300464, 0.0043139807, -397115.38, 10494.079, 0.0, 5.04741, 5.000074 
9.192926e+2, 2.6338795e+2, -402955.16, -449984.44, 71286.086, 0.015652953, 0.0017487622, -351405.53, 7392.691, 0.0, 5.044445, 5.0000987 
9.1893744e+2, 2.683681e+2, -361002.03, -399618.5, 74809.08, 0.019613707, -0.0018593569, -303049.63, 6941.7734, 0.0, 5.041534, 5.00181 
9.185777e+2, 2.7335042e+2, -317549.22, -346487.9, 73414.35, 0.021977033, -0.00691887, -257191.9, 3971.3813, 0.0, 5.038396, 5.004753 
9.182001e+2, 2.7833557e+2, -268051.38, -291626.56, 62278.14, 0.017895877, -0.0136608705, -216455.11, -4147.531, 0.0, 5.036405, 5.008504 
9.1781217e+2, 2.8332487e+2, -227576.83, -238053.02, 72447.3, 0.014800867, -0.006780222, -160178.52, 3235.5037, 0.0, 5.0326896, 5.011521 
9.174249e+2, 2.8831357e+2, -186270.78, -191985.67, 81224.945, 0.00067766535, -0.002314096, -107853.04, 6674.3706, 0.0, 5.0308213, 5.01098 
9.1702926e+2, 2.9330316e+2, -125061.33, -123215.93, 74359.805, 0.0065343473, 0.0019515351, -49773.094, 15859.11, 0.0, 5.032806, 5.0174766 
9.1658765e+2, 2.9830188e+2, -66974.81, -45788.258, 31671.393, -0.014649574, 0.0057662427, -22985.508, -6337.883, 0.0, 5.0277014, 5.0323973 
9.1611546e+2, 3.0330953e+2, -71701.99, -23837.36, 48154.547, -0.059661586, 0.07259196, 6004.0737, 6004.0737, 0.0, 5.0105186, 5.0287414 
9.326433e+2, 1.3900915e+2, -1522537.9, -1583293.4, 5348.625, 0.003591954, -0.0052318387, -1522070.6, 55642.57, 0.0, 5.0630417, 5.0209517 
9.322856e+2, 1.440172e+2, -1474335.6, -1537472.3, 12039.804, 0.013625872, 0.005547575, -1472117.6, 56517.746, 0.0, 5.0637026, 5.01977 
9.319311e+2, 1.4902192e+2, -1426999.3, -1493506.9, 18508.123, -0.0042263423, 0.0051773144, -1422195.6, 57392.984, 0.0, 5.0644836, 5.017844 
9.3158334e+2, 1.5402524e+2, -1379326.0, -1446782.3, 26169.637, -0.021224337, 0.0044310386, -1370364.1, 60191.19, 0.0, 5.0650277, 5.0168533 
9.31252e+2, 1.5902689e+2, -1338716.0, -1405831.1, 39382.46, -0.008686476, 0.0028229468, -1320533.0, 61005.418, 0.0, 5.064387, 5.014087 
9.3092614e+2, 1.6402654e+2, -1291719.5, -1360350.4, 38337.68, 0.014229956, 0.0008350587, -1274582.8, 57959.008, 0.0, 5.0645237, 5.013012 
9.305956e+2, 1.6902491e+2, -1244463.0, -1313728.0, 38526.156, 0.026019694, 0.000037049787, -1227291.3, 56266.758, 0.0, 5.064527, 5.012399 
9.3026334e+2, 1.7402309e+2, -1197106.4, -1265526.9, 40919.227, 0.02494355, 0.00085017004, -1177980.6, 56595.832, 0.0, 5.0643344, 5.0123863 
9.2993534e+2, 1.7902058e+2, -1155291.9, -1222880.9, 49373.586, 0.008713649, 0.0032213542, -1129254.8, 56346.71, 0.0, 5.0633807, 5.0105453 
9.2961115e+2, 1.8401596e+2, -1110604.8, -1179352.8, 51336.99, -0.006964745, 0.004506854, -1083196.4, 53450.387, 0.0, 5.0629005, 5.0090647 
9.29288e+2, 1.8900952e+2, -1064965.0, -1133973.5, 52875.184, -0.010491141, 0.0048154225, -1036331.94, 51377.887, 0.0, 5.062436, 5.0082135 
9.289662e+2, 1.9400279e+2, -1018141.06, -1085384.8, 55492.4, -0.0040617795, 0.0043825866, -986879.6, 51895.977, 0.0, 5.0618467, 5.0085273 
9.2864704e+2, 1.9899558e+2, -975115.3, -1042533.56, 59575.54, 0.009314696, 0.0037726578, -940373.4, 49472.875, 0.0, 5.060955, 5.00688 
9.283286e+2, 2.0398642e+2, -931573.1, -999604.25, 60673.723, 0.021128612, 0.002944848, -896030.4, 44905.45, 0.0, 5.060073, 5.0053167 
9.2800796e+2, 2.0897564e+2, -886447.75, -953365.9, 61567.234, 0.023606269, 0.0022824781, -849835.1, 42206.027, 0.0, 5.0591817, 5.004916 
9.276859e+2, 2.1396504e+2, -840349.6, -904885.1, 63234.277, 0.0185927, 0.0023929218, -801625.94, 41518.863, 0.0, 5.058241, 5.0053453 
9.2736185e+2, 2.1895407e+2, -796603.9, -861336.9, 63730.492, 0.010981954, 0.0031044362, -757491.94, 36760.105, 0.0, 5.0572, 5.004092 
9.270362e+2, 2.2394124e+2, -754190.56, -818471.3, 64638.043, 0.00473184, 0.0026114695, -714143.1, 31233.994, 0.0, 5.0558167, 5.002663 
9.2670995e+2, 2.2892693e+2, -710477.06, -772693.0, 65633.18, 0.0051163645, 0.0014923845, -668952.94, 27563.547, 0.0, 5.0543756, 5.0022984 
9.263826e+2, 2.3391312e+2, -664558.56, -722323.25, 66396.734, 0.009593854, 0.00009303238, -621034.3, 26616.643, 0.0, 5.052932, 5.003591 
9.2605e+2, 2.388994e+2, -620309.5, -678149.0, 62796.31, 0.015793791, -0.001015454, -580093.7, 18690.848, 0.0, 5.0516105, 5.002783 
9.2571294e+2, 2.4388441e+2, -579171.1, -635454.6, 63792.363, 0.020481927, -0.0005170647, -537588.94, 12342.462, 0.0, 5.049705, 5.0014396 
9.253738e+2, 2.4886836e+2, -535780.44, -588275.7, 65004.83, 0.01957513, 0.00045428853, -491924.13, 9165.149, 0.0, 5.0478578, 5.0016894 
9.2503226e+2, 2.5385338e+2, -490424.6, -536953.6, 64516.04, 0.017411398, 0.0017019163, -445106.63, 7130.01, 0.0, 5.0459437, 5.0034986 
9.246816e+2, 2.588395e+2, -443461.5, -488190.56, 55708.04, 0.017985353, 0.0029325578, -405796.38, -2422.9592, 0.0, 5.044442, 5.0045867 
9.2432326e+2, 2.638252e+2, -403469.44, -443563.72, 57854.824, 0.014217948, -0.00034749974, -362286.94, -7774.392, 0.0, 5.0416265, 5.004264 
9.239648e+2, 2.6881042e+2, -361839.06, -394986.0, 58712.824, 0.017778218, -0.004457838, -317405.38, -11749.321, 0.0, 5.03872, 5.005404 
9.2360175e+2, 2.7379826e+2, -314507.0, -339574.3, 54099.703, 0.020475127, -0.008549913, -271508.03, -14734.181, 0.0, 5.0366325, 5.0088573 
9.232208e+2, 2.7879038e+2, -258996.03, -280131.78, 37833.8, 0.015980437, -0.011450637, -230281.9, -22432.154, 0.0, 5.0358915, 5.0140734 
9.2282975e+2, 2.8378758e+2, -216688.03, -229375.84, 39691.664, 0.014139574, -0.00526969, -182836.5, -23957.94, 0.0, 5.0328627, 5.016085 
9.2243975e+2, 2.887838e+2, -178806.11, -187387.3, 43572.51, -0.0016948475, -0.0045689754, -139313.45, -29395.23, 0.0, 5.0295987, 5.0149345 
9.2204326e+2, 2.9378167e+2, -124746.375, -124450.55, 30179.412, 0.0066299182, -0.0001962359, -94418.69, -33477.0, 0.0, 5.0288935, 5.0208035 
9.215992e+2, 2.9879037e+2, -21053.047, -31584.111, -24192.477, -0.008132381, 0.007886821, -1559.7074, 10299.543, 0.0, 5.040092, 5.035915 
9.2113084e+2, 3.038051e+2, 44837.168, -1452.4978, -17404.94, 0.00833246, 0.06164235, 50651.188, 50651.188, 0.0, 5.051373, 5.0244546 
9.376933e+2, 1.3937227e+2, -1519096.8, -1575792.3, 5658.5767, 0.0030886093, -0.0058466126, -1518537.5, 55616.457, 0.0, 5.0629807, 5.0235095 
9.373362e+2, 1.4438257e+2, -1471221.8, -1530908.0, 12567.799, 0.008996595, 0.0023944688, -1468683.4, 56371.02, 0.0, 5.0636945, 5.021997 
9.36983e+2, 1.4938977e+2, -1423679.0, -1486667.5, 19192.963, -0.00808452, 0.004000947, -1418291.5, 57692.246, 0.0, 5.0645113, 5.0201554 
9.3663675e+2, 1.5439548e+2, -1376219.1, -1440161.6, 26770.885, -0.021521268, 0.0052288966, -1366490.9, 60436.86, 0.0, 5.065022, 5.0191073 
9.363062e+2, 1.5939948e+2, -1335538.5, -1399429.9, 39202.45, -0.0055732615, 0.0052762073, -1316913.9, 60974.523, 0.0, 5.064417, 5.016275 
9.3598014e+2, 1.6440128e+2, -1288528.0, -1353853.9, 37985.434, 0.016991086, 0.00283529, -1271093.5, 57777.29, 0.0, 5.064545, 5.0152416 
9.356493e+2, 1.6940181e+2, -1241222.1, -1307107.8, 38106.88, 0.027194284, 0.0010559327, -1223792.6, 56072.96, 0.0, 5.0645432, 5.0146837 
9.353167e+2, 1.744022e+2, -1193841.1, -1258755.4, 40711.375, 0.023735015, 0.001166904, -1174232.1, 56629.742, 0.0, 5.064342, 5.0147305 
9.349881e+2, 1.794021e+2, -1151586.0, -1215435.1, 48752.92, 0.004921794, 0.0025218416, -1125235.1, 56627.96, 0.0, 5.063415, 5.01313 
9.346634e+2, 1.8439998e+2, -1107199.8, -1172577.0, 50659.586, -0.011073724, 0.004196591, -1079597.9, 53285.895, 0.0, 5.0629435, 5.0114207 
9.343398e+2, 1.8939595e+2, -1061572.9, -1127131.3, 52384.508, -0.013830295, 0.004902458, -1032557.1, 51366.16, 0.0, 5.0624714, 5.010601 
9.340177e+2, 1.9439165e+2, -1014712.56, -1078471.6, 54709.918, -0.006153256, 0.0049118013, -983271.6, 51693.855, 0.0, 5.0618815, 5.01095 
9.3369794e+2, 1.9938704e+2, -971300.06, -1034876.4, 58574.617, 0.008391829, 0.00474661, -936443.8, 49566.79, 0.0, 5.0609965, 5.0095716 
9.333785e+2, 2.043805e+2, -927933.2, -992318.44, 59541.57, 0.02075936, 0.004066369, -892438.56, 44636.063, 0.0, 5.0601163, 5.007883 
9.330569e+2, 2.0937233e+2, -882873.2, -946098.1, 60644.07, 0.02320803, 0.0035710493, -846096.7, 42057.844, 0.0, 5.0592117, 5.0074883 
9.327339e+2, 2.1436433e+2, -836611.75, -897367.56, 61990.945, 0.018262807, 0.0037582817, -797955.6, 41276.992, 0.0, 5.0582805, 5.0080166 
9.324086e+2, 2.1935624e+2, -792373.44, -852846.0, 62233.9, 0.010302382, 0.00453941, -753419.5, 36892.246, 0.0, 5.0572476, 5.0071187 
9.320816e+2, 2.2434632e+2, -750207.1, -810481.4, 63086.96, 0.0041411407, 0.003824778, -710428.5, 30979.438, 0.0, 5.0558577, 5.0055237 
9.3175375e+2, 2.293348e+2, -706366.94, -764447.75, 64043.223, 0.004755895, 0.0019997603, -665087.5, 27432.129, 0.0, 5.0544257, 5.0052547 
9.3142486e+2, 2.343239e+2, -660466.75, -714185.0, 64610.594, 0.009334666, 0.00022985968, -617354.9, 26270.598, 0.0, 5.052986, 5.006527 
9.310904e+2, 2.3931338e+2, -615474.94, -668511.75, 60689.94, 0.016013313, -0.0012034829, -575762.75, 18964.904, 0.0, 5.051676, 5.00627 
9.3075114e+2, 2.4430172e+2, -574504.8, -626247.3, 61798.156, 0.018863425, -0.0009244435, -533381.06, 12460.793, 0.0, 5.049786, 5.004776 
9.3040997e+2, 2.492888e+2, -531384.44, -579661.9, 62885.67, 0.016780542, -0.00030413386, -488163.78, 8804.97, 0.0, 5.0479374, 5.0048246 
9.300662e+2, 2.54277e+2, -485703.63, -527865.8, 61995.516, 0.01407778, -0.00016708994, -441303.0, 6782.045, 0.0, 5.0460434, 5.006826 
9.297128e+2, 2.5926667e+2, -438001.9, -477628.25, 53030.063, 0.012914355, 0.00035651668, -401204.6, -2018.1953, 0.0, 5.0445614, 5.008468 
9.2935157e+2, 2.642562e+2, -398575.2, -433985.38, 54615.492, 0.009482002, -0.0017906729, -358866.7, -8578.618, 0.0, 5.041692, 5.0078173 
9.2899007e+2, 2.6924506e+2, -357221.88, -386288.38, 55876.598, 0.011724464, -0.004426262, -314019.44, -12623.499, 0.0, 5.038836, 5.0086327 
9.286242e+2, 2.742363e+2, -309968.06, -330914.1, 51441.832, 0.013345914, -0.0065531326, -267943.97, -15463.43, 0.0, 5.036745, 5.0120893 
9.282409e+2, 2.7923164e+2, -255163.27, -272636.13, 34903.613, 0.0112471115, -0.007271911, -227919.31, -24393.816, 0.0, 5.035949, 5.0169134 
9.2784727e+2, 2.8423026e+2, -213503.16, -224867.98, 36762.78, 0.009946358, -0.0036121965, -181986.22, -27446.752, 0.0, 5.033226, 5.0176992 
9.274553e+2, 2.8922787e+2, -173588.44, -181897.77, 39330.023, -0.0017873483, -0.003761149, -138194.25, -32629.785, 0.0, 5.0306487, 5.016642 
9.2705667e+2, 2.9422703e+2, -120109.86, -122344.67, 24942.447, 0.00956457, -0.0015547451, -96259.805, -39685.37, 0.0, 5.0301533, 5.021286 
9.2661697e+2, 2.992332e+2, -30546.482, -45935.184, -18154.393, -0.0021266132, 0.0040222933, -18523.203, -11007.23, 0.0, 5.0392833, 5.0303726 
9.261627e+2, 3.0423787e+2, 37724.594, -9761.795, -8934.148, 0.021819571, -0.009327455, 39349.85, 39349.85, 0.0, 5.05055, 5.021151 
9.427441e+2, 1.3973689e+2, -1516022.6, -1568685.3, 5553.1484, 0.01028526, 0.002513781, -1515443.4, 55137.668, 0.0, 5.0628285, 5.0259833 
9.423874e+2, 1.4474854e+2, -1469794.4, -1525328.0, 13680.73, 0.010203761, 0.0010587326, -1466607.0, 54860.9, 0.0, 5.06314, 5.0241547 
9.4203526e+2, 1.4975801e+2, -1421633.4, -1480760.9, 20022.244, -0.008787479, 0.0033986012, -1415491.3, 56884.25, 0.0, 5.0641656, 5.02233 
9.416902e+2, 1.5476592e+2, -1374309.0, -1434403.8, 27266.354, -0.021014066, 0.0058504185, -1363781.8, 59516.574, 0.0, 5.0646524, 5.021247 
9.413602e+2, 1.5977213e+2, -1333525.8, -1393628.8, 38991.77, -0.0035807572, 0.0069602556, -1314348.8, 59888.867, 0.0, 5.06405, 5.018449 
9.41034e+2, 1.6477609e+2, -1286375.0, -1347922.1, 37521.758, 0.018892923, 0.004164426, -1268621.3, 56577.38, 0.0, 5.0642147, 5.0174484 
9.4070286e+2, 1.6977882e+2, -1238772.9, -1300996.5, 37856.42, 0.02764408, 0.0018219488, -1220884.1, 55287.54, 0.0, 5.0643115, 5.0169134 
9.4037e+2, 1.7478147e+2, -1190931.6, -1252001.8, 40620.016, 0.022183692, 0.0014617811, -1170649.6, 56496.035, 0.0, 5.0641956, 5.0171437 
9.400408e+2, 1.7978378e+2, -1148209.1, -1208183.5, 48252.18, 0.001237084, 0.0020031182, -1121385.3, 56737.773, 0.0, 5.0633445, 5.015701 
9.397156e+2, 1.8478414e+2, -1104116.8, -1165878.1, 50119.215, -0.014892933, 0.004071742, -1076128.5, 52990.934, 0.0, 5.0628605, 5.0138116 
9.3939173e+2, 1.8978252e+2, -1058375.4, -1120493.8, 51902.855, -0.01674287, 0.005188458, -1028948.4, 51187.1, 0.0, 5.062463, 5.01294 
9.3906915e+2, 1.9478062e+2, -1011450.0, -1071672.4, 53992.887, -0.008023767, 0.0056098267, -979739.56, 51414.67, 0.0, 5.0618668, 5.0133586 
9.387487e+2, 1.997786e+2, -967718.8, -1027442.4, 57604.766, 0.0076187984, 0.0057437564, -932695.8, 49478.25, 0.0, 5.0609813, 5.012215 
9.3842846e+2, 2.0477468e+2, -924399.2, -985143.3, 58398.66, 0.020617716, 0.005310592, -888946.75, 44265.742, 0.0, 5.060135, 5.010425 
9.381058e+2, 2.0976909e+2, -879418.7, -939036.1, 59819.28, 0.022733785, 0.004960431, -842392.5, 41874.613, 0.0, 5.059235, 5.009993 
9.377819e+2, 2.1476369e+2, -832763.5, -889602.25, 60717.453, 0.017855968, 0.004946273, -794143.56, 41176.28, 0.0, 5.058318, 5.0107794 
9.3745524e+2, 2.1975847e+2, -788145.6, -844349.25, 60710.62, 0.009310829, 0.005839143, -749348.3, 37022.453, 0.0, 5.0572944, 5.0101514 
9.371268e+2, 2.2475144e+2, -746266.8, -802581.25, 61586.715, 0.0034512605, 0.0048959027, -706705.9, 30732.47, 0.0, 5.055899, 5.008355 
9.367975e+2, 2.2974275e+2, -702068.0, -755774.0, 62431.22, 0.00450267, 0.0024515206, -660959.7, 27562.633, 0.0, 5.0544744, 5.0083675 
9.364671e+2, 2.3473477e+2, -656637.4, -706638.7, 62801.305, 0.009041301, 0.00063932914, -614043.4, 25555.922, 0.0, 5.053043, 5.0092525 
9.3613076e+2, 2.397274e+2, -610673.4, -658950.0, 58574.93, 0.016081281, -0.0016143871, -571458.06, 19212.406, 0.0, 5.051743, 5.009734 
9.357893e+2, 2.4471904e+2, -570121.06, -617678.8, 59882.996, 0.016913982, -0.0013337741, -529468.56, 12283.581, 0.0, 5.049872, 5.0078855 
9.35446e+2, 2.4970923e+2, -526897.94, -570813.75, 60775.32, 0.013910334, -0.0010392066, -484235.5, 8612.74, 0.0, 5.048014, 5.008048 
9.351001e+2, 2.5470054e+2, -480933.13, -518676.8, 59401.563, 0.010633517, -0.0022121049, -437477.66, 6455.7583, 0.0, 5.046144, 5.0101943 
9.3474376e+2, 2.5969386e+2, -432706.88, -467405.1, 50263.4, 0.0070439256, -0.0019692294, -396882.7, -1883.5532, 0.0, 5.0446777, 5.0122313 
9.343797e+2, 2.6468718e+2, -393651.88, -424328.47, 51257.926, 0.0041336627, -0.0029588405, -355486.53, -9422.904, 0.0, 5.041753, 5.011408 
9.340152e+2, 2.6967967e+2, -352340.84, -376997.0, 53189.62, 0.0048434353, -0.0039011906, -310069.3, -12932.681, 0.0, 5.038958, 5.012079 
9.336466e+2, 2.7467433e+2, -305875.34, -323275.25, 48782.902, 0.0062947413, -0.0036644621, -265022.7, -16834.861, 0.0, 5.0368614, 5.014945 
9.332609e+2, 2.7967256e+2, -252008.88, -266513.34, 31893.348, 0.0077422615, -0.0043462277, -226553.61, -27349.537, 0.0, 5.035973, 5.019259 
9.328648e+2, 2.8467244e+2, -211414.78, -220992.66, 34419.81, 0.0070310393, -0.0041089985, -181452.36, -31246.793, 0.0, 5.0332403, 5.019215 
9.324709e+2, 2.8967142e+2, -171251.11, -177998.19, 36413.23, -0.00020746737, -0.0054960125, -138055.48, -36839.9, 0.0, 5.0307627, 5.018135 
9.320704e+2, 2.9467165e+2, -117615.93, -119844.93, 22505.42, 0.014807819, -0.005159118, -96197.43, -43983.707, 0.0, 5.03049, 5.0222435 
9.316342e+2, 2.9967573e+2, -39258.03, -58214.43, -8158.8857, -0.005305546, 0.0033227038, -36230.086, -33055.082, 0.0, 5.0385437, 5.025524 
9.3119204e+2, 3.0467182e+2, 32048.52, -14701.177, 5014.6113, 0.0037854586, -0.06738463, 32580.361, 32580.361, 0.0, 5.0498877, 5.0189643 
9.477932e+2, 1.4010109e+2, -1523871.1, -1566702.3, 3976.208, 0.021155488, 0.013671368, -1523505.1, 43507.813, 0.0, 5.0589027, 5.0285363 
9.474377e+2, 1.4511415e+2, -1475196.0, -1522585.3, 14216.946, 0.018413918, 0.0029471947, -1471258.1, 46627.816, 0.0, 5.0601788, 5.026483 
9.470868e+2, 1.5012576e+2, -1427172.6, -1479101.3, 20119.955, -0.003957935, 0.004821599, -1420289.4, 48482.92, 0.0, 5.061374, 5.0242047 
9.467424e+2, 1.5513562e+2, -1378865.3, -1432086.4, 27044.879, -0.02020678, 0.0061434456, -1367534.5, 52141.652, 0.0, 5.06213, 5.0232306 
9.464126e+2, 1.6014384e+2, -1336934.1, -1390578.8, 38133.563, -0.0056090136, 0.00663089, -1317134.5, 53461.293, 0.0, 5.061837, 5.0205593 
9.460864e+2, 1.6515017e+2, -1288905.3, -1344155.0, 36434.746, 0.017320653, 0.0042684115, -1270806.8, 50726.813, 0.0, 5.0622396, 5.019695 
9.457554e+2, 1.7015533e+2, -1240341.0, -1296625.0, 36831.26, 0.026095778, 0.0025014437, -1222130.9, 50351.56, 0.0, 5.0626273, 5.019239 
9.4542265e+2, 1.7516047e+2, -1191575.5, -1246727.1, 39802.152, 0.020755278, 0.0026587206, -1170729.9, 52702.082, 0.0, 5.0627255, 5.019684 
9.450933e+2, 1.8016537e+2, -1147936.8, -1202491.0, 46926.67, -0.00002629493, 0.00324679, -1120935.4, 53448.254, 0.0, 5.0621586, 5.0182734 
9.447678e+2, 1.851682e+2, -1103129.4, -1160273.6, 48951.89, -0.015865723, 0.005102403, -1075021.3, 50334.69, 0.0, 5.0620236, 5.016193 
9.444436e+2, 1.9016898e+2, -1057110.0, -1114970.4, 50722.402, -0.0171683, 0.006131334, -1027647.4, 48701.176, 0.0, 5.0617714, 5.01523 
9.4412065e+2, 1.9516946e+2, -1009159.1, -1065464.4, 52570.035, -0.0076923585, 0.006317423, -977678.0, 49665.973, 0.0, 5.0614867, 5.0157547 
9.437997e+2, 2.0016997e+2, -964324.75, -1020145.3, 55941.39, 0.009196743, 0.0058817044, -929717.7, 48621.523, 0.0, 5.060853, 5.0148916 
9.4347847e+2, 2.0516868e+2, -920730.3, -978100.44, 56767.816, 0.021663452, 0.005356915, -885811.75, 43539.754, 0.0, 5.0601983, 5.0129247 
9.431548e+2, 2.1016583e+2, -874884.25, -931276.7, 58679.55, 0.02167799, 0.005292071, -837978.1, 42401.266, 0.0, 5.059559, 5.01263 
9.4282985e+2, 2.1516313e+2, -827319.1, -881114.9, 59233.78, 0.016183553, 0.005210711, -789162.1, 42243.47, 0.0, 5.0588884, 5.013579 
9.42502e+2, 2.201608e+2, -781938.2, -835223.8, 59105.156, 0.00716166, 0.0061149867, -743748.5, 38679.734, 0.0, 5.0580688, 5.0131016 
9.4217217e+2, 2.2515672e+2, -739160.06, -792834.06, 60093.77, 0.0017646382, 0.0050912253, -700183.06, 33283.965, 0.0, 5.0569687, 5.0113983 
9.4184154e+2, 2.3015094e+2, -694117.6, -745645.9, 60949.137, 0.0037457952, 0.0029995271, -653710.9, 30811.598, 0.0, 5.0558605, 5.0114136 
9.415096e+2, 2.3514587e+2, -648570.0, -697354.2, 61063.934, 0.008463526, 0.0014448441, -607206.6, 28364.096, 0.0, 5.0546484, 5.0119205 
9.411714e+2, 2.401416e+2, -601373.6, -647330.9, 56645.934, 0.016152605, -0.0021248877, -563223.0, 23388.393, 0.0, 5.0534205, 5.0132337 
9.408278e+2, 2.451365e+2, -561822.9, -607418.9, 57997.465, 0.015703797, -0.0022279473, -522303.5, 15357.482, 0.0, 5.051384, 5.0109773 
9.404823e+2, 2.5012985e+2, -518866.94, -560206.2, 59423.457, 0.011042968, -0.0022003758, -476620.9, 12105.065, 0.0, 5.049366, 5.0113416 
9.4013405e+2, 2.5512433e+2, -472739.5, -507878.16, 57398.848, 0.007169878, -0.004566442, -430281.25, 9498.335, 0.0, 5.0475006, 5.013588 
9.3977475e+2, 2.6012126e+2, -424383.78, -456070.13, 48050.6, 0.001015812, -0.0041208914, -389631.8, 1177.9403, 0.0, 5.0459714, 5.01588 
9.3940765e+2, 2.651184e+2, -385743.0, -413322.03, 49058.16, -0.0019412304, -0.003703305, -348573.2, -6735.7847, 0.0, 5.0429306, 5.015002 
9.3904036e+2, 2.701143e+2, -344812.16, -366192.1, 50792.633, -0.0016217254, -0.002855084, -303596.75, -10719.924, 0.0, 5.039995, 5.0156837 
9.38669e+2, 2.7511233e+2, -300427.22, -315546.34, 46382.332, 0.000100396355, 0.00026898048, -260992.44, -17097.44, 0.0, 5.0375743, 5.0175805 
9.382808e+2, 2.8011322e+2, -249575.1, -261820.67, 29271.984, 0.005674668, -0.0027073866, -225792.4, -30906.662, 0.0, 5.035953, 5.0210943 
9.3788236e+2, 2.8511402e+2, -210417.11, -217843.23, 31470.186, 0.0063842232, -0.007213696, -182441.69, -36564.73, 0.0, 5.032887, 5.020617 
9.374866e+2, 2.9011455e+2, -169799.94, -174478.78, 34237.56, 0.0029268328, -0.009905518, -137821.97, -40951.17, 0.0, 5.030573, 5.0196 
9.370844e+2, 2.951159e+2, -115653.43, -116838.22, 20829.47, 0.020631012, -0.01133618, -95407.93, -47550.555, 0.0, 5.03056, 5.023454 
9.3665063e+2, 3.0011874e+2, -47508.332, -68687.33, 2202.3044, -0.020377167, 0.007067984, -47281.75, -47281.75, 0.0, 5.037695, 5.0213985 
9.3622017e+2, 3.051138e+2, 26927.07, -17100.096, 20518.293, -0.033781264, -0.055868547, 35006.645, 35006.645, 0.0, 5.0490484, 5.017784 
9.528375e+2, 1.4046189e+2, -1532898.9, -1568222.4, -791.8492, 0.029704357, 0.019512113, -1532881.1, 30596.74, 0.0, 5.0547037, 5.0302925 
9.524843e+2, 1.4547668e+2, -1483223.0, -1523775.0, 9073.154, 0.028293902, 0.0050488454, -1481285.5, 33048.426, 0.0, 5.0563393, 5.028168 
9.521347e+2, 1.5049031e+2, -1434315.0, -1480804.1, 14519.563, 0.0011641503, 0.006984277, -1430152.9, 35047.938, 0.0, 5.058012, 5.0254865 
9.5179135e+2, 1.5550202e+2, -1384742.9, -1433620.0, 21246.307, -0.020419307, 0.007275864, -1376798.6, 39287.93, 0.0, 5.0592217, 5.024378 
9.5146185e+2, 1.60512e+2, -1341538.5, -1390997.0, 31510.107, -0.00816458, 0.0067115333, -1326212.5, 40776.36, 0.0, 5.0591507, 5.0220265 
9.5113593e+2, 1.6552046e+2, -1293388.9, -1344469.5, 30101.889, 0.015070683, 0.004767987, -1279452.3, 38453.168, 0.0, 5.059578, 5.0211883 
9.508053e+2, 1.7052786e+2, -1244654.8, -1296866.5, 30191.863, 0.024612006, 0.0034482037, -1230847.4, 37984.79, 0.0, 5.060007, 5.0207415 
9.5047283e+2, 1.7553528e+2, -1195159.6, -1245813.9, 33346.074, 0.019730743, 0.003664931, -1178612.9, 41146.223, 0.0, 5.060165, 5.0215592 
9.5014346e+2, 1.805426e+2, -1151075.3, -1201644.9, 40168.25, -0.0013888698, 0.0047467593, -1128896.3, 41790.598, 0.0, 5.0597577, 5.0200706 
9.498179e+2, 1.855477e+2, -1106547.8, -1160067.3, 41982.008, -0.01677087, 0.00639257, -1083522.3, 38114.81, 0.0, 5.0596347, 5.017755 
9.4949365e+2, 1.9055066e+2, -1060251.0, -1114716.0, 43759.297, -0.017315876, 0.007100315, -1035942.44, 36665.965, 0.0, 5.059502, 5.0167465 
9.4917065e+2, 1.9555332e+2, -1011731.06, -1064526.5, 45388.44, -0.006624846, 0.0069691436, -985622.06, 37960.504, 0.0, 5.059329, 5.017455 
9.4884944e+2, 2.0055616e+2, -966150.94, -1018574.75, 48333.082, 0.011221344, 0.0062543717, -937379.7, 37175.176, 0.0, 5.0588818, 5.01673 
9.4852746e+2, 2.0555738e+2, -921651.44, -975835.7, 49077.547, 0.021791337, 0.005376298, -892684.75, 32857.832, 0.0, 5.058472, 5.0149016 
9.4820315e+2, 2.1055709e+2, -875412.5, -929163.75, 50670.207, 0.019979358, 0.0054219947, -844931.6, 31613.523, 0.0, 5.0580235, 5.0144725 
9.4787735e+2, 2.1555696e+2, -827266.3, -878837.3, 50838.36, 0.012455863, 0.005709011, -796048.06, 31497.861, 0.0, 5.0575676, 5.015386 
9.475485e+2, 2.2055733e+2, -780548.2, -831686.75, 50137.574, 0.0022931662, 0.006384678, -749836.4, 28705.594, 0.0, 5.057044, 5.015242 
9.472178e+2, 2.2555605e+2, -737123.1, -789759.0, 50607.453, -0.0026066808, 0.005534822, -706399.4, 23154.129, 0.0, 5.056288, 5.0132403 
9.4688636e+2, 2.3055297e+2, -690928.6, -742178.06, 51458.19, 0.00046299768, 0.0035605067, -659067.94, 21514.678, 0.0, 5.055591, 5.0132303 
9.4655347e+2, 2.355506e+2, -643851.2, -693334.06, 50480.594, 0.0066968948, 0.0019312754, -612374.94, 19229.965, 0.0, 5.0548906, 5.013742 
9.462138e+2, 2.4054928e+2, -594400.6, -642419.5, 45099.996, 0.014439622, -0.0010263148, -567317.4, 15299.432, 0.0, 5.0544033, 5.015106 
9.458685e+2, 2.4554701e+2, -552551.9, -601478.94, 45411.535, 0.014138783, -0.0026454749, -525433.7, 8204.5205, 0.0, 5.053089, 5.0129538 
9.455211e+2, 2.5054312e+2, -507695.8, -553858.3, 46512.668, 0.008159568, -0.0036729933, -478852.38, 5823.1606, 0.0, 5.0517817, 5.0131974 
9.45171e+2, 2.555405e+2, -459943.78, -502782.47, 42936.66, 0.004291404, -0.005292403, -433380.38, 2320.1917, 0.0, 5.0507803, 5.0146914 
9.4481e+2, 2.605401e+2, -407965.2, -449539.06, 32351.523, 0.0006723526, -0.0047075446, -390298.03, -3594.0906, 0.0, 5.050464, 5.017091 
9.444408e+2, 2.6553977e+2, -365189.22, -407239.22, 32025.965, -0.00041578984, -0.0030123522, -347903.47, -10196.718, 0.0, 5.0492268, 5.015369 
9.4407153e+2, 2.7053788e+2, -320074.66, -359164.9, 31807.533, 0.002433135, -0.0009546347, -302287.06, -13561.914, 0.0, 5.0478354, 5.0158453 
9.436977e+2, 2.7553803e+2, -271752.63, -308359.22, 25672.21, 0.003801758, 0.0044505126, -258526.98, -18803.709, 0.0, 5.0469594, 5.017306 
9.4330716e+2, 2.8054002e+2, -214278.3, -255547.25, 8299.973, 0.008432107, -0.0007707446, -212671.56, -21968.361, 0.0, 5.0484314, 5.019288 
9.429068e+2, 2.8554055e+2, -168422.9, -209632.1, 9877.563, 0.010162531, -0.012917399, -166177.66, -24481.154, 0.0, 5.047788, 5.018649 
9.4250953e+2, 2.9054087e+2, -125052.86, -167156.25, 11803.696, 0.008893827, -0.019075392, -121969.5, -29277.656, 0.0, 5.046729, 5.016882 
9.4210654e+2, 2.9554206e+2, -65949.1, -108243.8, -1385.8771, 0.02199514, -0.022157913, -65903.74, -22225.117, 0.0, 5.0489454, 5.0202527 
9.4167715e+2, 3.005442e+2, -2652.3918, -62864.324, -11415.583, -0.028828472, 0.0020715925, -560.76904, -560.76904, 0.0, 5.0552073, 5.0172124 
9.4125855e+2, 3.0554926e+2, 51126.79, -15799.504, 9476.144, -0.027137704, 0.037662204, 52442.652, 52442.652, 0.0, 5.0585694, 5.014933 
9.578803e+2, 1.4081828e+2, -1531003.1, -1562752.8, 156.95895, 0.03914221, 0.020748762, -1531002.4, 28983.885, 0.0, 5.054428, 5.0322523 
9.5752937e+2, 1.4583503e+2, -1480748.9, -1518140.1, 10773.984, 0.03654059, 0.0065117767, -1477866.5, 32956.5, 0.0, 5.056305, 5.0300674 
9.571813e+2, 1.508504e+2, -1431810.0, -1475099.3, 15634.9795, 0.0051158513, 0.008059543, -1426753.6, 34919.188, 0.0, 5.057974, 5.02742 
9.568391e+2, 1.5586384e+2, -1382567.4, -1428670.0, 22008.787, -0.021552553, 0.007792468, -1373747.9, 38793.855, 0.0, 5.059185, 5.026066 
9.565101e+2, 1.6087565e+2, -1338488.6, -1384719.9, 31513.182, -0.011493564, 0.0062998272, -1322522.1, 40904.05, 0.0, 5.0591674, 5.024176 
9.5618445e+2, 1.6588631e+2, -1290253.8, -1338007.1, 30123.758, 0.012729688, 0.00480396, -1275691.8, 38629.188, 0.0, 5.0595975, 5.023408 
9.558541e+2, 1.70896e+2, -1241674.9, -1290818.3, 30063.45, 0.02302601, 0.004133861, -1227419.0, 37806.004, 0.0, 5.060038, 5.0228252 
9.5552206e+2, 1.7590573e+2, -1191736.1, -1238671.4, 33446.76, 0.01831036, 0.0043311873, -1174345.3, 41783.5, 0.0, 5.0601783, 5.0240345 
9.551926e+2, 1.8091553e+2, -1147576.8, -1194616.0, 39794.242, -0.0030330776, 0.0059414343, -1124871.4, 42160.91, 0.0, 5.0597997, 5.0225143 
9.54867e+2, 1.8592292e+2, -1103256.0, -1153442.4, 41811.094, -0.018045338, 0.0073202, -1079586.1, 38373.918, 0.0, 5.059678, 5.020062 
9.5454264e+2, 1.909281e+2, -1057293.8, -1108750.9, 43429.996, -0.017724665, 0.007791403, -1032543.3, 36366.445, 0.0, 5.0595407, 5.01883 
9.5421964e+2, 1.9593295e+2, -1008412.2, -1057831.3, 44914.105, -0.0056987423, 0.007168371, -981859.3, 38003.285, 0.0, 5.059372, 5.0198035 
9.538982e+2, 2.0093808e+2, -962696.0, -1011704.8, 47793.594, 0.012648398, 0.0060571274, -933491.06, 37321.36, 0.0, 5.0589423, 5.019144 
9.5357555e+2, 2.0594169e+2, -918104.5, -968776.2, 48448.94, 0.021578992, 0.004938137, -888766.7, 33009.754, 0.0, 5.058535, 5.01739 
9.532506e+2, 2.1094377e+2, -871960.4, -922321.1, 49924.418, 0.018304244, 0.0045741214, -841225.6, 31529.969, 0.0, 5.0580864, 5.016896 
9.52924e+2, 2.1594606e+2, -823931.56, -872223.1, 50123.67, 0.008519022, 0.0049606296, -792441.0, 31291.557, 0.0, 5.0576305, 5.017737 
9.5259434e+2, 2.2094889e+2, -777050.6, -824823.0, 49107.6, -0.00316168, 0.005518094, -746328.1, 28376.264, 0.0, 5.057117, 5.0176916 
9.5226276e+2, 2.2595009e+2, -733672.8, -783049.56, 49535.87, -0.007984428, 0.005215176, -703013.94, 22677.975, 0.0, 5.05637, 5.01564 
9.519305e+2, 2.3094945e+2, -687679.06, -735814.6, 50833.566, -0.004824813, 0.003877661, -655503.56, 21193.92, 0.0, 5.0556717, 5.0155115 
9.5159674e+2, 2.3594941e+2, -640311.6, -686505.1, 49328.53, 0.0022036105, 0.002231468, -608940.4, 18756.727, 0.0, 5.0549855, 5.0162015 
9.5125604e+2, 2.409505e+2, -591018.94, -635883.25, 43818.32, 0.010523752, 0.000111543544, -564224.6, 14460.876, 0.0, 5.0544896, 5.017474 
9.5090944e+2, 2.4595045e+2, -549414.25, -595498.75, 44066.133, 0.01158031, -0.0022877972, -522729.56, 6955.1846, 0.0, 5.05318, 5.0151234 
9.505609e+2, 2.5094855e+2, -504299.4, -547261.3, 45306.51, 0.00690099, -0.0049785087, -475639.44, 5062.448, 0.0, 5.0518694, 5.0156035 
9.5020956e+2, 2.5594792e+2, -457453.5, -498459.25, 41342.17, 0.0051650074, -0.0061809737, -431809.4, -102.53245, 0.0, 5.050891, 5.016288 
9.498472e+2, 2.6094916e+2, -405987.6, -446005.06, 31075.078, 0.002708738, -0.00614662, -389036.75, -6342.9473, 0.0, 5.0505443, 5.0184035 
9.494765e+2, 2.659501e+2, -363570.94, -404347.8, 30645.934, 0.00044485807, -0.0028321464, -347150.94, -13466.21, 0.0, 5.0492735, 5.016464 
9.4910574e+2, 2.7094918e+2, -318985.44, -357533.38, 30715.875, 0.0027762942, -0.00004595852, -301997.16, -17303.201, 0.0, 5.0479107, 5.0164633 
9.487302e+2, 2.7594998e+2, -270181.16, -305712.72, 24078.648, 0.0026969519, 0.004352081, -258023.64, -22337.498, 0.0, 5.047029, 5.0183167 
9.483392e+2, 2.8095233e+2, -215192.17, -255945.7, 8714.163, 0.006733072, 0.0013683931, -213407.05, -26744.244, 0.0, 5.0482125, 5.019169 
9.4793886e+2, 2.8595287e+2, -168102.75, -209515.39, 9658.448, 0.00814626, -0.009721237, -165960.94, -28305.387, 0.0, 5.0480313, 5.018521 
9.475411e+2, 2.909528e+2, -122822.945, -166251.34, 12207.735, 0.0036469968, -0.016528016, -119626.6, -30971.87, 0.0, 5.047679, 5.016752 
9.4713897e+2, 2.9595286e+2, -66207.39, -111920.6, 975.1332, 0.01802698, -0.022105798, -66186.6, -26534.28, 0.0, 5.049693, 5.018486 
9.4671434e+2, 3.0095297e+2, -4722.563, -63875.91, -7072.4883, -0.028106166, -0.0068861316, -3888.717, -3888.717, 0.0, 5.0548606, 5.016746 
9.4630194e+2, 3.0595443e+2, 45696.21, -16749.012, 11144.12, -0.008692429, 0.0044462974, 47625.418, 47625.418, 0.0, 5.056594, 5.015208 
9.6291715e+2, 1.4117205e+2, -1531483.5, -1555840.4, 2336.801, -0.0019977903, 0.0101840915, -1531261.3, 25259.082, 0.0, 5.0527463, 5.0353994 
9.625734e+2, 1.4619228e+2, -1480961.8, -1514429.5, 10862.6455, 0.036168132, 0.006446011, -1477745.3, 29576.592, 0.0, 5.0554624, 5.0317082 
9.622273e+2, 1.5120974e+2, -1431708.8, -1469822.4, 15559.458, 0.0053709606, 0.0073427893, -1426163.5, 31987.6, 0.0, 5.056941, 5.029685 
9.618866e+2, 1.5622526e+2, -1382835.9, -1424450.1, 21721.916, -0.022783455, 0.0075579593, -1373563.4, 35436.18, 0.0, 5.0581884, 5.027968 
9.615583e+2, 1.6123918e+2, -1337880.1, -1379549.8, 30779.06, -0.013040215, 0.005617825, -1321547.3, 38316.35, 0.0, 5.0583096, 5.0263677 
9.612329e+2, 1.6625208e+2, -1288958.1, -1332376.3, 29743.098, 0.011607492, 0.0044523524, -1273844.1, 36892.176, 0.0, 5.0589566, 5.0256596 
9.609029e+2, 1.7126411e+2, -1239993.9, -1285309.6, 29531.926, 0.021980666, 0.0047096564, -1225429.3, 36188.355, 0.0, 5.0595922, 5.024951 
9.6057117e+2, 1.7627625e+2, -1189399.9, -1232283.6, 33120.188, 0.01673851, 0.0050146948, -1171386.6, 41111.29, 0.0, 5.0598507, 5.0264144 
9.602418e+2, 1.8128851e+2, -1144666.0, -1187970.1, 39293.88, -0.0050831633, 0.007029449, -1121453.5, 41923.652, 0.0, 5.059654, 5.024918 
9.599161e+2, 1.862982e+2, -1100421.1, -1146940.3, 41260.723, -0.01940599, 0.008115006, -1076315.6, 37967.008, 0.0, 5.059538, 5.0224137 
9.5959175e+2, 1.9130561e+2, -1054441.4, -1102897.8, 42972.766, -0.018372932, 0.008479113, -1029337.4, 35873.086, 0.0, 5.059555, 5.020887 
9.5926875e+2, 1.9631267e+2, -1005246.4, -1051261.1, 44394.3, -0.004953217, 0.007256569, -978251.8, 37889.84, 0.0, 5.0593743, 5.022128 
9.5894694e+2, 2.0132008e+2, -959287.8, -1004812.5, 47078.61, 0.013781438, 0.005801234, -929757.5, 37311.543, 0.0, 5.0589776, 5.0215793 
9.5862365e+2, 2.0632614e+2, -914721.7, -962046.3, 47923.414, 0.021184444, 0.0047133197, -884937.2, 33071.816, 0.0, 5.0585938, 5.0197663 
9.582981e+2, 2.1133055e+2, -868452.94, -915422.6, 49147.87, 0.0164847, 0.0036705474, -837467.1, 31498.004, 0.0, 5.058163, 5.0193334 
9.579706e+2, 2.1633527e+2, -820507.06, -865439.44, 49405.76, 0.004270732, 0.004171168, -788699.3, 31218.924, 0.0, 5.057701, 5.0201454 
9.5764005e+2, 2.2134055e+2, -773497.0, -817810.8, 48238.938, -0.009043269, 0.0045987684, -742569.8, 28296.086, 0.0, 5.057187, 5.0201974 
9.573077e+2, 2.2634421e+2, -730303.0, -776444.94, 48535.67, -0.01322896, 0.0049479175, -699634.0, 22195.625, 0.0, 5.056443, 5.018005 
9.569748e+2, 2.3134603e+2, -684545.44, -729769.9, 49934.984, -0.009723473, 0.004539618, -652341.44, 20469.959, 0.0, 5.055756, 5.0176797 
9.5664006e+2, 2.3634832e+2, -636813.8, -679729.9, 48233.54, -0.0024967603, 0.002650652, -605480.56, 18307.855, 0.0, 5.0550785, 5.018642 
9.562983e+2, 2.4135178e+2, -587949.2, -630011.25, 42437.98, 0.006440688, 0.0010500539, -561616.9, 13136.601, 0.0, 5.0545726, 5.0196033 
9.559503e+2, 2.4635395e+2, -546221.0, -589403.56, 42827.72, 0.008702317, -0.0018043735, -519849.84, 5880.436, 0.0, 5.053276, 5.017333 
9.556006e+2, 2.5135404e+2, -500978.13, -540811.2, 44113.414, 0.0057398165, -0.006194057, -472493.63, 4234.0757, 0.0, 5.0519567, 5.017956 
9.552481e+2, 2.5635535e+2, -454824.5, -493830.34, 39672.195, 0.0068568406, -0.0068005305, -430120.56, -2407.707, 0.0, 5.0510015, 5.017995 
9.5488435e+2, 2.6135823e+2, -404057.84, -442571.34, 29799.715, 0.0044732317, -0.007401861, -387834.38, -9150.918, 0.0, 5.050625, 5.0196767 
9.545121e+2, 2.6636034e+2, -361998.1, -401597.84, 28953.084, 0.0013568931, -0.003032982, -346722.1, -17058.611, 0.0, 5.0493207, 5.017507 
9.5414e+2, 2.7136046e+2, -317933.8, -355998.97, 29768.111, 0.0036101125, 0.0012642845, -301633.97, -20970.648, 0.0, 5.0479903, 5.01704 
9.5376253e+2, 2.763619e+2, -268838.94, -303499.3, 22602.031, 0.0012141472, 0.004595959, -257687.78, -26038.291, 0.0, 5.0470934, 5.019159 
9.5337105e+2, 2.813647e+2, -216235.77, -256424.16, 8897.197, 0.0043452084, 0.0038992043, -214354.13, -31732.4, 0.0, 5.047956, 5.0190263 
9.529704e+2, 2.8636536e+2, -169332.67, -210376.94, 10008.84, 0.0034703533, -0.0055274763, -167022.05, -33408.617, 0.0, 5.047771, 5.0182314 
9.5257246e+2, 2.913647e+2, -123587.35, -166767.52, 12373.423, -0.0038980704, -0.014379528, -120293.04, -35675.254, 0.0, 5.0475273, 5.016562 
9.521716e+2, 2.9636368e+2, -69022.85, -117216.12, 2169.021, 0.016787551, -0.020836072, -68925.43, -33299.863, 0.0, 5.0495543, 5.0165024 
9.517512e+2, 3.013615e+2, -8304.747, -66202.26, -3676.3262, -0.028276624, -0.015777396, -8072.244, -8072.244, 0.0, 5.0541406, 5.015904 
9.513436e+2, 3.0635938e+2, 43554.35, -15796.591, 12210.1455, -0.0019946632, -0.031170594, 45968.15, 45968.15, 0.0, 5.055847, 5.0156407 
9.6795416e+2, 1.4152329e+2, -1535573.6, -1550080.5, 5563.517, -0.028061599, 0.0046802238, -1533685.8, 19392.48, 0.0, 5.049736, 5.0387917 
9.676147e+2, 1.4654577e+2, -1486350.4, -1512162.4, 10320.915, 0.022439685, -0.0012185834, -1482731.1, 21125.36, 0.0, 5.052618, 5.0338283 
9.672712e+2, 1.5156573e+2, -1435173.5, -1466137.6, 14855.796, -0.0011230106, 0.0007424728, -1429198.9, 25462.158, 0.0, 5.054679, 5.031992 
9.669326e+2, 1.5658388e+2, -1386168.4, -1420865.6, 20351.33, -0.023476288, 0.0034884242, -1376774.6, 28708.848, 0.0, 5.055955, 5.0302505 
9.6660554e+2, 1.616004e+2, -1341171.9, -1376252.5, 28848.818, -0.008798635, 0.0035528636, -1324949.5, 31372.242, 0.0, 5.05608, 5.028585 
9.6628046e+2, 1.6661568e+2, -1292116.9, -1329100.5, 27941.053, 0.014827874, 0.0027528268, -1277102.6, 30069.195, 0.0, 5.056776, 5.027855 
9.659508e+2, 1.716301e+2, -1242232.9, -1281459.3, 27628.713, 0.022579757, 0.0035274376, -1227963.5, 30066.613, 0.0, 5.0576863, 5.027219 
9.656194e+2, 1.7664474e+2, -1190402.1, -1227845.3, 31089.426, 0.014261341, 0.00415677, -1172832.5, 36053.797, 0.0, 5.0583663, 5.028694 
9.652902e+2, 1.8165958e+2, -1144604.1, -1182857.3, 36807.805, -0.009565033, 0.0063843993, -1122250.1, 37490.816, 0.0, 5.0584674, 5.027311 
9.649645e+2, 1.8667181e+2, -1099281.1, -1141461.1, 38737.973, -0.02373244, 0.007592868, -1076264.3, 34356.92, 0.0, 5.0587573, 5.024749 
9.6464026e+2, 1.9168171e+2, -1053389.8, -1097794.8, 40470.707, -0.021952294, 0.008281735, -1029431.4, 32093.215, 0.0, 5.0588136, 5.0230784 
9.643173e+2, 1.9669126e+2, -1003169.25, -1045430.94, 41882.406, -0.007037718, 0.006793429, -977389.0, 35042.43, 0.0, 5.0589457, 5.024436 
9.639954e+2, 2.0170113e+2, -956453.25, -998201.2, 44461.195, 0.0129717775, 0.0047664456, -928209.8, 35124.668, 0.0, 5.0587163, 5.024096 
9.636718e+2, 2.0670982e+2, -911924.8, -955934.75, 45531.305, 0.020909611, 0.0039076665, -883359.9, 30888.645, 0.0, 5.0584297, 5.0220666 
9.6334565e+2, 2.1171676e+2, -865111.7, -908943.4, 46772.38, 0.015092707, 0.0022443302, -835375.25, 29804.56, 0.0, 5.0581636, 5.021699 
9.630176e+2, 2.16724e+2, -816678.0, -858456.56, 47244.883, 0.0015624922, 0.0024573556, -785910.3, 30197.736, 0.0, 5.0578275, 5.02264 
9.626862e+2, 2.2173184e+2, -769699.2, -811423.8, 46014.52, -0.012343882, 0.0026737943, -740038.5, 26992.146, 0.0, 5.0574155, 5.022448 
9.623529e+2, 2.2673807e+2, -725838.44, -768470.1, 47006.45, -0.016918693, 0.0030091011, -695540.56, 22428.912, 0.0, 5.056679, 5.020815 
9.6201926e+2, 2.3174256e+2, -680578.9, -723305.6, 48200.293, -0.013124527, 0.0043888316, -649219.75, 19705.607, 0.0, 5.0560756, 5.0199213 
9.6168345e+2, 2.367474e+2, -632432.75, -672712.3, 46870.59, -0.006463119, 0.0029102347, -601558.2, 18319.508, 0.0, 5.0554814, 5.0210557 
9.6134055e+2, 2.4175324e+2, -583225.56, -622532.4, 41030.902, 0.0031820037, 0.0011467765, -557384.0, 13435.608, 0.0, 5.0550375, 5.02217 
9.6099144e+2, 2.4675773e+2, -542330.6, -584419.44, 41595.695, 0.0068556378, -0.00094256195, -516758.84, 5014.4497, 0.0, 5.0538883, 5.0189333 
9.6064055e+2, 2.517598e+2, -495933.97, -533792.56, 43319.684, 0.004702478, -0.0066648168, -467588.4, 5162.3857, 0.0, 5.052702, 5.0202365 
9.6028674e+2, 2.56763e+2, -450032.63, -487743.72, 38410.445, 0.009096312, -0.0071863635, -426099.22, -2382.1287, 0.0, 5.051795, 5.0199394 
9.599215e+2, 2.617675e+2, -400730.75, -438777.53, 29319.75, 0.0055835717, -0.008865605, -384803.63, -10131.719, 0.0, 5.051275, 5.0208335 
9.5954764e+2, 2.667706e+2, -359399.94, -397731.7, 28227.457, 0.0016084278, -0.0048775882, -344446.63, -18804.113, 0.0, 5.0496345, 5.018836 
9.5917434e+2, 2.7177167e+2, -316561.8, -354142.44, 29327.42, 0.005505953, 0.0017070498, -300521.5, -23888.525, 0.0, 5.048162, 5.0176907 
9.587947e+2, 2.767739e+2, -267835.5, -301853.44, 22275.2, -0.0008539136, 0.0048381556, -256817.89, -29205.482, 0.0, 5.0471644, 5.0197616 
9.5840245e+2, 2.8177723e+2, -218250.88, -257558.52, 9404.093, 0.001653141, 0.006839649, -216116.86, -37537.418, 0.0, 5.0474076, 5.018748 
9.5800155e+2, 2.8677794e+2, -171129.61, -211927.81, 9992.495, -0.0029498606, -0.0004777995, -168813.67, -39243.734, 0.0, 5.047382, 5.0177374 
9.576034e+2, 2.9177663e+2, -124651.23, -167440.4, 13320.161, -0.013429406, -0.012443879, -120843.53, -40263.324, 0.0, 5.047306, 5.016318 
9.5720446e+2, 2.9677454e+2, -72394.12, -122610.945, 3118.94, 0.018638792, -0.01890166, -72201.14, -40602.61, 0.0, 5.049195, 5.0145617 
9.5678765e+2, 3.0176955e+2, -11668.9, -67579.72, 576.3954, -0.029845884, -0.026530275, -11662.959, -11662.959, 0.0, 5.0534015, 5.015378 
9.563835e+2, 3.0676675e+2, 41713.42, -14614.066, 12039.557, -0.0073878216, -0.046064757, 44178.87, 44178.87, 0.0, 5.055255, 5.0160365 
9.7299236e+2, 1.4187083e+2, -1534071.9, -1546438.9, 2016.1572, -0.01818358, 0.007060797, -1533751.5, 15919.493, 0.0, 5.0491204, 5.040578 
9.726533e+2, 1.4689453e+2, -1486108.4, -1509951.9, 4314.613, 0.008271306, -0.006741521, -1485351.6, 15085.661, 0.0, 5.0516906, 5.035305 
9.723127e+2, 1.5191685e+2, -1435789.1, -1465357.6, 8740.673, -0.008848359, -0.00211796, -1433398.5, 17820.19, 0.0, 5.053651, 5.033038 
9.7197646e+2, 1.5693724e+2, -1385894.3, -1419010.0, 12994.4, -0.02399535, 0.0021495274, -1381404.1, 20614.668, 0.0, 5.05496, 5.031718 
9.716507e+2, 1.6195598e+2, -1341049.3, -1375463.1, 20423.479, -0.003696813, 0.0044405796, -1331550.5, 21284.75, 0.0, 5.0551157, 5.029735 
9.713259e+2, 1.6697322e+2, -1292284.3, -1328421.8, 19680.4, 0.018116953, 0.003731107, -1283636.0, 20030.547, 0.0, 5.055686, 5.029039 
9.7099656e+2, 1.7198962e+2, -1242681.9, -1280582.1, 19459.945, 0.02285777, 0.0042060553, -1234469.6, 20036.441, 0.0, 5.056422, 5.028556 
9.7066563e+2, 1.7700644e+2, -1191118.3, -1227358.9, 22420.67, 0.010789538, 0.0055694594, -1180410.9, 24930.643, 0.0, 5.057024, 5.0299506 
9.7033674e+2, 1.8202336e+2, -1144729.8, -1182154.4, 27680.375, -0.01584865, 0.008055778, -1130030.3, 26145.682, 0.0, 5.0572944, 5.0285854 
9.700116e+2, 1.8703775e+2, -1099222.9, -1140990.1, 29293.393, -0.029544171, 0.009840651, -1084131.1, 22903.955, 0.0, 5.057693, 5.0259 
9.6968764e+2, 1.920497e+2, -1052464.9, -1096729.4, 30651.484, -0.02630407, 0.010370177, -1036790.4, 21127.803, 0.0, 5.057991, 5.024333 
9.69365e+2, 1.9706142e+2, -1001879.5, -1044198.44, 31868.756, -0.009978255, 0.008845259, -984785.3, 24018.342, 0.0, 5.058248, 5.025692 
9.6904325e+2, 2.0207351e+2, -954307.5, -996481.0, 33917.668, 0.011062546, 0.00629261, -935456.06, 24228.69, 0.0, 5.058272, 5.0254164 
9.687194e+2, 2.0708448e+2, -908539.0, -953018.75, 34673.465, 0.019081388, 0.004045382, -889585.94, 20990.465, 0.0, 5.0582824, 5.02368 
9.6839315e+2, 2.1209379e+2, -861304.9, -906789.5, 35475.707, 0.013300327, 0.0021859643, -841907.7, 19576.475, 0.0, 5.058342, 5.022908 
9.680648e+2, 2.171034e+2, -811363.56, -854933.9, 35671.49, -0.00044214152, 0.0015110197, -791351.0, 21037.873, 0.0, 5.058387, 5.0241723 
9.677329e+2, 2.2211383e+2, -762667.2, -806735.6, 33924.27, -0.015059022, 0.0020693769, -744249.44, 19036.797, 0.0, 5.0584745, 5.0241923 
9.6739894e+2, 2.2712289e+2, -717872.44, -764588.4, 35168.793, -0.02107604, 0.0038365773, -699011.44, 15186.229, 0.0, 5.0583086, 5.022031 
9.670649e+2, 2.3213007e+2, -670864.9, -718057.75, 35577.66, -0.017159684, 0.0057811528, -651769.9, 13357.604, 0.0, 5.058185, 5.021437 
9.667286e+2, 2.3713769e+2, -621351.44, -667284.0, 34062.258, -0.009889719, 0.0062667434, -603236.25, 12816.589, 0.0, 5.058154, 5.0224137 
9.663852e+2, 2.4214606e+2, -570522.94, -617343.2, 28337.863, 0.0012465462, 0.0043501924, -557176.2, 9793.848, 0.0, 5.058467, 5.0231514 
9.660354e+2, 2.471528e+2, -526376.5, -576812.5, 28537.555, 0.0060518896, 0.00027732336, -513511.2, 4390.8545, 0.0, 5.0582705, 5.0204024 
9.656839e+2, 2.5215736e+2, -478146.78, -527362.06, 30477.209, 0.0035298984, -0.00434061, -463583.06, 5272.3965, 0.0, 5.058145, 5.0208445 
9.653291e+2, 2.571625e+2, -428372.3, -478448.7, 25599.52, 0.00707245, -0.0070921592, -417602.03, 2200.9397, 0.0, 5.0584087, 5.0211267 
9.649628e+2, 2.6216888e+2, -376416.1, -429962.3, 16616.38, 0.002119656, -0.010302948, -371678.84, -939.44525, 0.0, 5.059182, 5.0213413 
9.645877e+2, 2.6717344e+2, -331298.9, -388159.75, 16344.098, -0.0029872928, -0.009256193, -326935.75, -5240.4717, 0.0, 5.0590925, 5.018994 
9.642135e+2, 2.721756e+2, -284635.44, -342475.38, 17670.877, 0.0005371994, -0.0052279197, -279664.06, -6989.659, 0.0, 5.0589757, 5.0180526 
9.6383274e+2, 2.7717897e+2, -233435.02, -292246.2, 11717.143, -0.007370706, -0.0007257594, -231186.53, -7544.609, 0.0, 5.059513, 5.0187697 
9.6344054e+2, 2.8218263e+2, -180173.39, -246365.84, 878.7161, 0.00038619142, 0.0022112848, -180161.72, -5556.262, 0.0, 5.0613246, 5.017643 
9.630396e+2, 2.8718328e+2, -137083.92, -204745.31, 1391.7521, 0.002085425, -0.0020223297, -137055.3, -11457.984, 0.0, 5.0602736, 5.015628 
9.6264094e+2, 2.921817e+2, -96062.45, -161828.89, 6414.5244, -0.005918114, -0.009841568, -95442.65, -18831.826, 0.0, 5.0581856, 5.0144434 
9.622422e+2, 2.9717866e+2, -48939.97, -119437.52, -3463.62, 0.027564725, -0.013779094, -48770.207, -21131.717, 0.0, 5.058379, 5.012462 
9.61827e+2, 3.0217156e+2, 739.88214, -69399.44, -4077.8875, -0.027463235, -0.026831793, 976.1737, 976.1737, 0.0, 5.0586967, 5.0129757 
9.614247e+2, 3.0716968e+2, 44632.04, -18492.783, -154.1582, 0.0048483494, -0.027000034, 44632.414, 44632.414, 0.0, 5.056429, 5.014733 
9.780318e+2, 1.4221306e+2, -1532568.0, -1542758.4, 2868.7493, -0.0011326933, 0.004809958, -1531815.9, 14499.572, 0.0, 5.0491047, 5.0417867 
9.7769237e+2, 1.472381e+2, -1483658.8, -1504232.0, 5533.021, -0.003235706, -0.01269889, -1482265.1, 14804.107, 0.0, 5.0516315, 5.0372477 
9.773544e+2, 1.522625e+2, -1433992.1, -1461014.3, 10186.359, -0.015338711, -0.0047209035, -1430582.5, 17247.154, 0.0, 5.053602, 5.03451 
9.770203e+2, 1.5728487e+2, -1383323.0, -1413135.0, 13848.346, -0.024189191, 0.0006169443, -1377882.9, 20727.215, 0.0, 5.0549064, 5.0337334 
9.766957e+2, 1.6230564e+2, -1338284.4, -1369861.5, 20377.732, 0.0013924487, 0.0044269883, -1328294.5, 21112.303, 0.0, 5.0551424, 5.031656 
9.7637105e+2, 1.6732481e+2, -1289497.1, -1322847.5, 19932.154, 0.020730117, 0.003451809, -1280184.8, 20034.998, 0.0, 5.0557337, 5.0309463 
9.760421e+2, 1.7234312e+2, -1239908.5, -1274801.3, 20086.111, 0.022369921, 0.003442786, -1230749.9, 20291.229, 0.0, 5.0564456, 5.030543 
9.757115e+2, 1.7736202e+2, -1188198.3, -1221351.1, 22732.273, 0.0067634927, 0.0053391187, -1176640.4, 25216.164, 0.0, 5.057055, 5.032029 
9.75383e+2, 1.8238097e+2, -1141990.4, -1176646.5, 27872.271, -0.02252726, 0.008169859, -1126498.9, 26172.492, 0.0, 5.0573425, 5.0304947 
9.750583e+2, 1.8739738e+2, -1096354.9, -1135156.5, 29334.79, -0.035373405, 0.010029485, -1080585.9, 22924.955, 0.0, 5.05773, 5.0279326 
9.7473466e+2, 1.9241129e+2, -1049498.3, -1090736.9, 30595.033, -0.030917505, 0.01022011, -1033222.94, 21151.537, 0.0, 5.0580373, 5.0264254 
9.744125e+2, 1.9742505e+2, -999006.8, -1038318.3, 31963.113, -0.013271763, 0.008538339, -981139.4, 24100.404, 0.0, 5.0582886, 5.027752 
9.7409093e+2, 2.0243922e+2, -951093.25, -989987.5, 33511.613, 0.009012507, 0.005176649, -931794.8, 24305.611, 0.0, 5.0583205, 5.027705 
9.73767e+2, 2.0745234e+2, -905455.06, -946760.3, 34683.938, 0.01651072, 0.0021194587, -885740.56, 21229.967, 0.0, 5.0583367, 5.0258865 
9.7344065e+2, 2.1246386e+2, -858296.44, -900610.7, 35247.824, 0.010866029, 0.00015587975, -838343.56, 19513.174, 0.0, 5.058382, 5.0251 
9.7311217e+2, 2.1747571e+2, -808134.56, -848357.2, 35327.105, -0.00323658, -0.00115432, -787595.3, 21144.135, 0.0, 5.058439, 5.026515 
9.7278005e+2, 2.2248857e+2, -759428.4, -800150.56, 33714.11, -0.01894594, 0.00032352615, -740404.0, 19209.057, 0.0, 5.058535, 5.026542 
9.724459e+2, 2.2750013e+2, -714659.56, -758076.9, 34687.18, -0.024772754, 0.0032869156, -695447.94, 15052.284, 0.0, 5.058366, 5.0243654 
9.721117e+2, 2.3250969e+2, -667582.7, -711402.8, 35145.418, -0.020523299, 0.0052201925, -648077.1, 13329.683, 0.0, 5.0582514, 5.023827 
9.7177523e+2, 2.375197e+2, -617994.6, -660488.94, 33518.33, -0.012198138, 0.006155105, -599556.56, 12752.594, 0.0, 5.058222, 5.024867 
9.714314e+2, 2.4253042e+2, -567407.1, -610941.0, 27885.87, -0.0007632701, 0.004605741, -553798.6, 9404.836, 0.0, 5.0585246, 5.025471 
9.7108114e+2, 2.4753933e+2, -523029.63, -570020.3, 28428.994, 0.002369146, -0.0003080348, -509643.56, 4471.1304, 0.0, 5.0583615, 5.0228534 
9.707294e+2, 2.5254622e+2, -475714.84, -522794.84, 29805.95, -0.00078270276, -0.0031298874, -461274.25, 3771.3157, 0.0, 5.058243, 5.0225077 
9.70374e+2, 2.5755334e+2, -425303.4, -472321.03, 25342.07, -0.00013714907, -0.0069304765, -414245.1, 1729.0533, 0.0, 5.0585055, 5.023361 
9.7000736e+2, 2.6256156e+2, -374128.1, -424950.44, 16554.68, -0.0051180106, -0.010361878, -369211.3, -2318.6724, 0.0, 5.0592074, 5.0231757 
9.696322e+2, 2.675678e+2, -329615.2, -384272.13, 16224.618, -0.009032321, -0.009456786, -325161.84, -7331.143, 0.0, 5.0590773, 5.0204315 
9.692579e+2, 2.7257124e+2, -282297.4, -337488.6, 17277.166, -0.005570953, -0.0098050935, -277335.1, -8538.053, 0.0, 5.059028, 5.019883 
9.6887714e+2, 2.7757546e+2, -232458.13, -289708.53, 11848.867, -0.01170528, -0.007502105, -230102.72, -10347.6, 0.0, 5.0594735, 5.0197253 
9.684854e+2, 2.8258014e+2, -179707.13, -243283.36, 1110.4543, -0.0034936778, -0.006111642, -179687.73, -8978.621, 0.0, 5.061066, 5.0188313 
9.680839e+2, 2.8758198e+2, -134764.69, -200853.9, 277.5916, -0.0009851034, -0.0076270974, -134763.52, -13073.348, 0.0, 5.0606594, 5.016878 
9.676842e+2, 2.925815e+2, -94265.27, -160466.72, 6196.7637, -0.0068543237, -0.00884228, -93690.23, -20996.748, 0.0, 5.0588236, 5.014653 
9.6728396e+2, 2.9757932e+2, -48434.727, -117650.21, -2183.7822, 0.026383383, -0.008392659, -48365.895, -24652.04, 0.0, 5.0583935, 5.0130663 
9.668697e+2, 3.0257273e+2, -1184.2958, -72284.875, -1594.135, -0.020702451, -0.015062592, -1148.5719, -1148.5719, 0.0, 5.058592, 5.0118303 
9.66468e+2, 3.075677e+2, 47170.207, -17881.578, 2566.0999, 0.023550702, -0.030066442, 47271.273, 47271.273, 0.0, 5.0576935, 5.014347 
9.8307866e+2, 1.425566e+2, -1536890.5, -1545458.9, 49.636635, 0.0964607, 0.019020453, -1536890.3, 6056.0654, 0.0, 5.047832, 5.041442 
9.8273176e+2, 1.475815e+2, -1483410.6, -1499940.8, 5630.3457, -0.010050626, -0.016998421, -1481675.1, 12027.119, 0.0, 5.050875, 5.039047 
9.8239625e+2, 1.5260795e+2, -1434490.0, -1457843.3, 10037.658, -0.019125743, -0.005749875, -1430768.6, 13674.172, 0.0, 5.052741, 5.035986 
9.8206395e+2, 1.5763232e+2, -1383493.5, -1409051.8, 13221.396, -0.023492986, 0.0010185137, -1377884.9, 17318.71, 0.0, 5.053982, 5.035559 
9.817405e+2, 1.6265506e+2, -1338193.5, -1365542.4, 19231.652, 0.0057788175, 0.0054631564, -1328270.3, 17710.787, 0.0, 5.0542216, 5.0335965 
9.814161e+2, 1.676762e+2, -1289306.5, -1318499.3, 18810.068, 0.0233843, 0.0035506678, -1280093.9, 16681.33, 0.0, 5.0548472, 5.032887 
9.8108745e+2, 1.7269647e+2, -1239917.9, -1270683.6, 19687.045, 0.022303946, 0.0028110633, -1230316.5, 17261.023, 0.0, 5.0555463, 5.032401 
9.807575e+2, 1.7771748e+2, -1187658.0, -1216508.9, 22295.264, 0.0038588846, 0.0045577483, -1175528.4, 22844.438, 0.0, 5.0562468, 5.0341043 
9.804293e+2, 1.8273848e+2, -1141312.9, -1171899.4, 27328.787, -0.027377287, 0.007635295, -1125289.3, 23878.305, 0.0, 5.0566063, 5.0325127 
9.8010504e+2, 1.8775693e+2, -1095078.8, -1130395.4, 28952.871, -0.04009272, 0.009652332, -1078824.1, 21162.639, 0.0, 5.0572696, 5.029826 
9.7978187e+2, 1.9277288e+2, -1047475.75, -1085127.0, 30180.58, -0.034643855, 0.009608138, -1030730.7, 20100.0, 0.0, 5.0577335, 5.028549 
9.7946006e+2, 1.9778873e+2, -997003.4, -1032957.44, 31757.324, -0.015952444, 0.007915279, -978487.94, 23187.469, 0.0, 5.058042, 5.0297647 
9.791387e+2, 2.0280498e+2, -948505.8, -984003.0, 33065.78, 0.0071717077, 0.003790719, -928726.3, 23789.072, 0.0, 5.0581937, 5.0298967 
9.788147e+2, 2.0782036e+2, -902821.5, -940736.1, 34247.777, 0.014575711, 0.0005017381, -882634.4, 20729.104, 0.0, 5.05823, 5.0280876 
9.784882e+2, 2.1283405e+2, -855465.56, -894201.75, 34971.973, 0.008588368, -0.0017729367, -834856.6, 19371.473, 0.0, 5.058297, 5.02743 
9.7815967e+2, 2.1784817e+2, -805300.94, -842177.7, 34865.637, -0.006059523, -0.003578249, -784298.4, 20790.145, 0.0, 5.058394, 5.0287614 
9.778272e+2, 2.2286348e+2, -756540.4, -793997.75, 33256.055, -0.022923674, -0.00095931656, -737101.94, 18836.314, 0.0, 5.0585237, 5.028772 
9.774929e+2, 2.2787748e+2, -711255.4, -751057.25, 34349.695, -0.028543197, 0.002597289, -691458.1, 15343.497, 0.0, 5.0584083, 5.02689 
9.771584e+2, 2.328895e+2, -664529.8, -705220.5, 34748.277, -0.02354996, 0.005243645, -644608.8, 13075.662, 0.0, 5.058315, 5.0260468 
9.768217e+2, 2.3790182e+2, -614550.75, -653484.9, 32949.652, -0.014554399, 0.005873501, -595747.1, 12817.16, 0.0, 5.0582895, 5.027396 
9.7647756e+2, 2.4291492e+2, -564162.2, -604253.3, 27501.389, -0.0032864455, 0.0044924454, -550176.1, 9259.433, 0.0, 5.0585856, 5.0278935 
9.761269e+2, 2.4792604e+2, -520159.84, -564293.94, 28289.277, -0.001369401, -0.0001173735, -506348.8, 3976.6548, 0.0, 5.0584526, 5.0249186 
9.7577494e+2, 2.5293514e+2, -472966.9, -517490.88, 29148.918, -0.005125105, -0.0021673467, -458551.16, 2683.9697, 0.0, 5.0583405, 5.0244355 
9.754189e+2, 2.5794435e+2, -422387.47, -466527.66, 25033.797, -0.007512535, -0.0064393664, -411084.22, 1059.4539, 0.0, 5.058603, 5.0254707 
9.75052e+2, 2.6295435e+2, -371942.4, -420151.03, 16490.307, -0.01291337, -0.011136935, -366841.44, -3797.046, 0.0, 5.0592346, 5.024926 
9.746766e+2, 2.6796234e+2, -327647.28, -379695.34, 16054.744, -0.015667498, -0.0103972545, -323093.47, -9128.6455, 0.0, 5.059058, 5.022119 
9.7430235e+2, 2.7296707e+2, -280627.53, -334119.9, 16675.568, -0.011070789, -0.013809555, -275854.94, -10937.477, 0.0, 5.0590916, 5.021114 
9.7392166e+2, 2.7797204e+2, -231219.67, -286453.56, 12065.093, -0.015326188, -0.014530161, -228699.23, -12831.505, 0.0, 5.0594244, 5.0209394 
9.735302e+2, 2.8297788e+2, -179518.61, -240755.28, 1121.3834, -0.0071195723, -0.01258757, -179498.08, -12687.986, 0.0, 5.0607953, 5.01981 
9.731281e+2, 2.8798088e+2, -134327.38, -198068.3, -760.1514, -0.0036629112, -0.011911273, -134318.31, -16537.621, 0.0, 5.0603995, 5.0179853 
9.727272e+2, 2.9298145e+2, -94359.55, -159234.89, 4732.7256, -0.0067926263, -0.007899165, -94016.11, -25240.998, 0.0, 5.0585847, 5.015195 
9.723254e+2, 2.979803e+2, -49040.42, -117144.42, -2351.5562, 0.025028802, -0.0026147377, -48959.32, -29173.496, 0.0, 5.058132, 5.013306 
9.719118e+2, 3.0297363e+2, -2809.7805, -73506.81, -2057.549, -0.016564935, -0.007825481, -2749.9487, -2749.9487, 0.0, 5.0582438, 5.011428 
9.7150993e+2, 3.0796644e+2, 44576.043, -22310.475, 2893.7932, 0.029800734, -0.0332994, 44701.008, 44701.008, 0.0, 5.057478, 5.0126977 
9.8811656e+2, 1.4289826e+2, -1540059.8, -1543071.5, 2868.0044, 0.1156997, 0.056224655, -1538326.4, 1269.1235, 0.0, 5.0458856, 5.043227 
9.877719e+2, 1.4792176e+2, -1487054.1, -1498703.0, 3609.5615, 0.000313448, -0.011410073, -1486026.4, 4339.2725, 0.0, 5.048959, 5.0404177 
9.874377e+2, 1.529499e+2, -1438081.5, -1456060.8, 7129.668, -0.013896317, -0.00030882267, -1435597.4, 5492.6714, 0.0, 5.050694, 5.0376134 
9.8710644e+2, 1.5797623e+2, -1387239.8, -1407440.6, 10169.839, -0.021631395, 0.0071738986, -1383006.9, 8825.521, 0.0, 5.051891, 5.03714 
9.867832e+2, 1.6300078e+2, -1340506.3, -1362629.3, 15506.862, 0.003753092, 0.009141334, -1332519.9, 10072.3955, 0.0, 5.0524254, 5.035515 
9.864595e+2, 1.6802397e+2, -1290854.5, -1315362.4, 15048.057, 0.022462578, 0.0058047236, -1283702.3, 9663.592, 0.0, 5.053343, 5.0347457 
9.861318e+2, 1.730463e+2, -1241131.4, -1267725.6, 16010.821, 0.023463782, 0.0044041337, -1233616.0, 10531.628, 0.0, 5.054238, 5.034108 
9.8580265e+2, 1.7806941e+2, -1188714.9, -1213135.9, 18313.967, 0.0068069925, 0.005058146, -1178914.1, 16007.845, 0.0, 5.054912, 5.035976 
9.854755e+2, 1.8309249e+2, -1141963.6, -1168353.0, 22973.916, -0.022614725, 0.007110699, -1128664.9, 17031.568, 0.0, 5.0553937, 5.0343986 
9.8515165e+2, 1.8811317e+2, -1096352.0, -1127453.6, 24682.908, -0.036354568, 0.008936149, -1082729.6, 13764.362, 0.0, 5.055913, 5.0315647 
9.848288e+2, 1.9313137e+2, -1047697.56, -1081017.6, 25589.277, -0.03253339, 0.008682759, -1033822.9, 13492.875, 0.0, 5.0565925, 5.0306015 
9.8450744e+2, 1.981496e+2, -996613.06, -1028777.25, 27422.084, -0.014757603, 0.00710543, -980905.1, 17232.13, 0.0, 5.057178, 5.0317097 
9.841861e+2, 2.0316839e+2, -947788.5, -979452.3, 28834.67, 0.007532118, 0.0037068906, -930725.3, 18227.682, 0.0, 5.0573936, 5.0319505 
9.838621e+2, 2.0818639e+2, -901885.5, -936210.2, 29420.727, 0.015293241, 0.0019898629, -884987.25, 14788.909, 0.0, 5.057515, 5.0301023 
9.8353565e+2, 2.1320261e+2, -854187.56, -889029.25, 30667.398, 0.008436438, 0.0010407884, -836338.4, 14278.024, 0.0, 5.057615, 5.0296597 
9.8320705e+2, 2.1821931e+2, -804290.56, -837566.56, 30337.834, -0.0058175074, 0.000046053778, -786327.9, 15123.976, 0.0, 5.057699, 5.0308065 
9.828745e+2, 2.2323714e+2, -755341.06, -788271.3, 28633.86, -0.021374388, 0.0017074121, -738775.94, 13501.075, 0.0, 5.0576897, 5.0312843 
9.8253995e+2, 2.2825375e+2, -711043.0, -746311.25, 30733.701, -0.02674024, 0.0043021482, -693243.8, 9870.627, 0.0, 5.057366, 5.0291357 
9.822054e+2, 2.3326835e+2, -664634.3, -701010.9, 31276.695, -0.021453466, 0.0064245923, -646641.8, 7329.8833, 0.0, 5.0572386, 5.028117 
9.8186827e+2, 2.3828307e+2, -614031.8, -647845.44, 29744.55, -0.012843531, 0.0043481467, -596724.9, 8103.1616, 0.0, 5.057209, 5.029992 
9.815237e+2, 2.4329878e+2, -564618.1, -600675.7, 25216.818, -0.0029215885, 0.003068895, -551648.1, 4025.6445, 0.0, 5.057517, 5.029734 
9.811728e+2, 2.4831247e+2, -519572.6, -558765.9, 26221.605, -0.0018254847, 0.000011779972, -506433.94, 105.02131, 0.0, 5.0574803, 5.027421 
9.808205e+2, 2.53324e+2, -471937.1, -512046.28, 27621.871, -0.008088037, -0.00087743613, -457857.3, -432.12878, 0.0, 5.057603, 5.0268006 
9.804639e+2, 2.5833562e+2, -421532.4, -461842.03, 23900.389, -0.013098131, -0.0038294734, -410423.1, -2112.7559, 0.0, 5.0579615, 5.027515 
9.800967e+2, 2.6334745e+2, -370909.06, -415510.4, 15652.424, -0.018780755, -0.010389313, -365964.22, -6771.383, 0.0, 5.058741, 5.0268645 
9.797211e+2, 2.683572e+2, -326865.63, -375712.7, 15989.976, -0.020753184, -0.009761979, -322096.9, -12001.137, 0.0, 5.058618, 5.0237784 
9.793471e+2, 2.733633e+2, -280360.53, -332807.44, 15610.05, -0.0136140715, -0.014754048, -276066.06, -15032.017, 0.0, 5.058903, 5.0217104 
9.789662e+2, 2.7836874e+2, -230289.27, -283097.06, 12100.257, -0.017220272, -0.020290453, -227648.69, -15669.957, 0.0, 5.0592175, 5.022259 
9.7857463e+2, 2.8337592e+2, -179790.98, -237987.81, 643.47736, -0.009969143, -0.017313153, -179783.86, -16875.178, 0.0, 5.0602617, 5.0209904 
9.781719e+2, 2.883801e+2, -134853.02, -197057.73, -1966.4175, -0.0051722387, -0.014298834, -134790.9, -20922.29, 0.0, 5.0600576, 5.018456 
9.7776985e+2, 2.9338142e+2, -94377.49, -156889.22, 3046.858, -0.0059689013, -0.007889086, -94229.336, -29372.918, 0.0, 5.0581555, 5.0162296 
9.7736657e+2, 2.9838154e+2, -50394.227, -117551.45, -2151.0168, 0.023411276, 0.0034714108, -50325.4, -34469.438, 0.0, 5.057726, 5.013247 
9.76953e+2, 3.0337438e+2, -5149.0747, -75879.945, -2113.2656, -0.017547138, -0.0017866329, -5085.9917, -5085.9917, 0.0, 5.0578103, 5.010606 
9.765508e+2, 3.0836573e+2, 41947.56, -26331.877, 2765.5413, 0.025778519, -0.03466503, 42059.39, 42059.39, 0.0, 5.0571747, 5.011215 
9.9314517e+2, 1.4322838e+2, -1527742.4, -1533383.4, 2792.5652, 0.041511115, 0.027182398, -1526593.8, 9763.852, 0.0, 5.048877, 5.0453057 
9.928112e+2, 1.4825578e+2, -1480091.5, -1495490.4, -237.19661, 0.010264005, -0.012791774, -1480087.8, 7002.322, 0.0, 5.0509443, 5.040787 
9.924783e+2, 1.5328489e+2, -1432310.4, -1452480.4, 1639.2153, -0.006754045, -0.004263717, -1432178.0, 5627.843, 0.0, 5.0519953, 5.0384755 
9.9214804e+2, 1.5831248e+2, -1382959.3, -1405058.5, 4367.267, -0.01737863, 0.003111297, -1382127.5, 6408.7554, 0.0, 5.0527673, 5.0378113 
9.9182504e+2, 1.6333827e+2, -1336001.3, -1359890.9, 8351.943, 0.002043277, 0.0026952105, -1333371.0, 5913.148, 0.0, 5.0532007, 5.036436 
9.9150205e+2, 1.6836296e+2, -1286629.0, -1313391.0, 7474.4673, 0.021062609, -0.0008327706, -1284683.0, 5359.404, 0.0, 5.0541058, 5.0354424 
9.9117535e+2, 1.7338674e+2, -1236736.6, -1265581.8, 7767.601, 0.023180686, -0.002251044, -1234777.9, 6031.937, 0.0, 5.054981, 5.034912 
9.9084735e+2, 1.7841113e+2, -1184602.1, -1211978.1, 9444.395, 0.009068413, -0.0027715717, -1181660.1, 9911.03, 0.0, 5.0556974, 5.036455 
9.905212e+2, 1.8343553e+2, -1137817.9, -1167219.0, 13292.644, -0.01687582, -0.0007899216, -1132699.3, 9633.252, 0.0, 5.0561304, 5.034933 
9.90198e+2, 1.8845774e+2, -1091773.4, -1126216.1, 13867.686, -0.030162996, 0.001504942, -1086884.0, 6231.275, 0.0, 5.056747, 5.0321283 
9.898758e+2, 1.9347763e+2, -1042779.94, -1079421.5, 14257.742, -0.027122412, 0.002068394, -1037885.75, 6035.014, 0.0, 5.057438, 5.0313225 
9.895547e+2, 1.9849776e+2, -991459.2, -1026891.2, 15401.082, -0.012114546, 0.00085538236, -985700.75, 9023.159, 0.0, 5.058029, 5.0325546 
9.892334e+2, 2.0351885e+2, -941813.4, -977043.3, 15870.485, 0.0071488526, 0.00036081753, -935718.44, 9799.145, 0.0, 5.058456, 5.0329075 
9.889094e+2, 2.0853913e+2, -895665.94, -934071.75, 16285.613, 0.013895909, 0.00088213984, -889690.0, 6629.162, 0.0, 5.0587153, 5.030918 
9.8858315e+2, 2.1355768e+2, -847458.2, -886351.06, 17088.191, 0.0080014905, 0.0026975288, -841017.0, 6120.514, 0.0, 5.058901, 5.030649 
9.882547e+2, 2.1857698e+2, -796965.56, -834362.4, 16276.52, -0.0038474977, 0.004458235, -790873.75, 7074.7666, 0.0, 5.0591173, 5.0319386 
9.8792243e+2, 2.2359723e+2, -746902.4, -783473.8, 14555.604, -0.015495261, 0.004241696, -741816.5, 6933.246, 0.0, 5.059279, 5.032922 
9.875879e+2, 2.286166e+2, -702049.44, -741516.2, 16325.335, -0.018250842, 0.00441962, -696171.8, 3387.871, 0.0, 5.059214, 5.0306563 
9.872531e+2, 2.3363377e+2, -654856.75, -695326.1, 17387.957, -0.013080633, 0.0030673912, -648412.2, 1978.8997, 0.0, 5.059278, 5.0298758 
9.869158e+2, 2.3865147e+2, -603077.0, -641300.94, 15692.494, -0.004250227, -0.000855896, -597460.0, 3757.5112, 0.0, 5.0596156, 5.0319195 
9.8657084e+2, 2.4367058e+2, -552374.4, -593102.44, 12040.301, 0.0029965846, -0.001232785, -549081.2, 2948.639, 0.0, 5.060357, 5.031845 
9.8621964e+2, 2.4868833e+2, -506009.1, -549941.2, 13763.211, 0.0010424338, 0.0009256177, -502053.47, 802.0197, 0.0, 5.0607505, 5.029776 
9.858673e+2, 2.5370342e+2, -457746.9, -502751.94, 15880.141, -0.0076200766, 0.0016152937, -452707.78, 999.09344, 0.0, 5.0611386, 5.029196 
9.855109e+2, 2.58719e+2, -406973.4, -452822.4, 13287.345, -0.011223965, 0.004231714, -403401.0, 1152.5978, 0.0, 5.061849, 5.0296307 
9.8514414e+2, 2.6373425e+2, -354503.16, -405609.3, 6298.0737, -0.013895482, 0.0010739317, -353738.47, 1664.2029, 0.0, 5.063411, 5.0289536 
9.847692e+2, 2.6874667e+2, -307908.84, -363587.84, 8945.358, -0.011931311, -0.0020902024, -306507.0, -227.69768, 0.0, 5.0641418, 5.026285 
9.8439574e+2, 2.737562e+2, -260352.06, -321866.63, 9845.542, -0.003575205, -0.0033821736, -258814.69, -1630.6294, 0.0, 5.0652018, 5.0234556 
9.8401505e+2, 2.7876413e+2, -207158.58, -269154.66, 9322.015, -0.00979599, -0.011051191, -205787.22, 2317.2336, 0.0, 5.0665116, 5.0246487 
9.836228e+2, 2.8377286e+2, -158230.27, -226782.17, -1398.2024, -0.0048304303, -0.011143309, -158201.75, 816.2681, 0.0, 5.06749, 5.022383 
9.8321867e+2, 2.8877848e+2, -116688.0, -187184.13, -3281.4456, -0.00041983722, -0.008576959, -116535.586, -6573.2144, 0.0, 5.0660934, 5.0197964 
9.8281497e+2, 2.9378107e+2, -76188.836, -146208.1, 1362.4878, -0.0014790779, -0.006597432, -76162.336, -15225.097, 0.0, 5.0640144, 5.017987 
9.8240936e+2, 2.9878235e+2, -38083.81, -111592.16, -908.7027, 0.025146544, 0.0057756063, -38072.58, -26147.422, 0.0, 5.0619197, 5.0139074 
9.8199457e+2, 3.0377623e+2, -868.11786, -75217.12, 638.6929, -0.016944531, 0.008945797, -862.6316, -862.6316, 0.0, 5.05956, 5.0102096 
9.8158926e+2, 3.0876863e+2, 26766.176, -30792.467, 3313.4468, 0.026991785, -0.013743866, 26956.291, 26956.291, 0.0, 5.050903, 5.0122833 
9.981761e+2, 1.4355218e+2, -1524823.0, -1526776.9, 5458.125, -0.03284133, -0.025029223, -1520255.1, 12926.641, 0.0, 5.048799, 5.0475736 
9.978515e+2, 1.485862e+2, -1479388.4, -1493208.1, 1005.54504, 0.013713929, -0.0076492457, -1479315.6, 4534.568, 0.0, 5.0508256, 5.0415897 
9.975197e+2, 1.5361615e+2, -1430942.9, -1449236.8, 2093.8809, -0.0043375595, -0.0011819936, -1430706.3, 3851.9934, 0.0, 5.051941, 5.0395927 
9.971902e+2, 1.5864474e+2, -1381801.9, -1402058.5, 5154.6436, -0.016378937, 0.0056835464, -1380565.8, 4713.9097, 0.0, 5.0527034, 5.0388403 
9.9686724e+2, 1.6367146e+2, -1334378.8, -1356533.6, 8800.488, -0.002889681, 0.0033748467, -1331308.5, 4709.49, 0.0, 5.053221, 5.0375752 
9.965451e+2, 1.6869736e+2, -1285245.0, -1310489.4, 8076.424, 0.017027142, 0.0005155214, -1282882.3, 3881.7942, 0.0, 5.054124, 5.036427 
9.962192e+2, 1.7372216e+2, -1235053.9, -1262089.0, 8273.498, 0.020011803, -0.00091821764, -1232722.9, 4798.0596, 0.0, 5.0550036, 5.036108 
9.9589235e+2, 1.7874745e+2, -1183506.6, -1209647.4, 10118.391, 0.008772695, -0.0024881316, -1180047.8, 8225.48, 0.0, 5.055714, 5.0372496 
9.955672e+2, 1.837727e+2, -1136226.0, -1164032.9, 13870.152, -0.013250282, -0.0011996067, -1130490.5, 8535.632, 0.0, 5.056172, 5.036027 
9.952447e+2, 1.8879592e+2, -1090201.0, -1123133.6, 14151.398, -0.025800373, 0.00022892466, -1084955.6, 4843.545, 0.0, 5.0567966, 5.033187 
9.9492306e+2, 1.9381699e+2, -1040925.1, -1075735.4, 14633.74, -0.023082923, 0.0002731076, -1035590.75, 5002.6304, 0.0, 5.057489, 5.032596 
9.9460226e+2, 1.9883853e+2, -989192.94, -1022259.44, 15744.75, -0.011361226, -0.0019231449, -982895.4, 8487.452, 0.0, 5.0580735, 5.03417 
9.9428105e+2, 2.0386153e+2, -939269.56, -971903.0, 15629.238, 0.004980772, -0.0004674729, -932991.8, 9166.589, 0.0, 5.058501, 5.034718 
9.939571e+2, 2.0888384e+2, -893083.3, -928762.6, 16428.879, 0.010148775, 0.0012642143, -886670.94, 6270.298, 0.0, 5.0587535, 5.0327945 
9.9363106e+2, 2.139044e+2, -844809.25, -880834.25, 17190.625, 0.005160293, 0.0042407117, -837922.56, 5818.234, 0.0, 5.0589304, 5.0326085 
9.9330294e+2, 2.1892606e+2, -793706.4, -827781.3, 15941.738, -0.0048, 0.0081793815, -787411.1, 7118.134, 0.0, 5.0591803, 5.0342817 
9.929707e+2, 2.2394867e+2, -743193.1, -775767.1, 14430.846, -0.014038159, 0.005825967, -737719.7, 7587.551, 0.0, 5.059323, 5.0356865 
9.926363e+2, 2.2897086e+2, -698059.1, -733341.56, 15645.36, -0.014820438, 0.0043148617, -692120.94, 3967.832, 0.0, 5.059279, 5.033595 
9.9230134e+2, 2.3399062e+2, -650654.8, -686431.2, 17334.104, -0.011309937, -0.0006731402, -643634.0, 3260.159, 0.0, 5.0593224, 5.033084 
9.91964e+2, 2.3901157e+2, -598881.6, -632409.06, 15314.3955, -0.0028059918, -0.004158944, -592939.5, 4748.703, 0.0, 5.059657, 5.0351477 
9.9161893e+2, 2.4403447e+2, -547126.06, -581799.4, 11839.885, 0.002316805, -0.00258042, -543468.9, 4994.6396, 0.0, 5.060402, 5.035959 
9.9126774e+2, 2.4905656e+2, -501412.78, -540052.7, 13908.325, -0.002564304, 0.0046059666, -496927.22, 2319.4358, 0.0, 5.0607996, 5.0333786 
9.9091583e+2, 2.540755e+2, -452768.25, -492188.84, 15381.728, -0.010007976, 0.0051045343, -447476.7, 2584.0398, 0.0, 5.0612, 5.033069 
9.9055976e+2, 2.590952e+2, -402217.2, -442625.8, 13454.357, -0.0120945675, 0.010113886, -398147.38, 2719.9626, 0.0, 5.0619245, 5.0333624 
9.901937e+2, 2.641146e+2, -350073.53, -395901.63, 6702.5957, -0.013671776, 0.011063209, -349113.34, 2562.6423, 0.0, 5.063469, 5.0325108 
9.898196e+2, 2.6913023e+2, -302473.7, -351578.0, 9050.232, -0.010537747, -0.0012846296, -300858.78, 1662.3484, 0.0, 5.064194, 5.0307145 
9.894467e+2, 2.741441e+2, -254804.03, -309786.84, 10335.226, -0.0037504607, -0.0019775508, -252925.48, 457.992, 0.0, 5.0652957, 5.0279083 
9.890669e+2, 2.791567e+2, -202878.89, -259278.44, 9600.952, -0.009586175, -0.005164482, -201289.31, 2968.8472, 0.0, 5.0665174, 5.02832 
9.886739e+2, 2.8416818e+2, -154933.92, -218237.19, -2352.067, -0.0055624465, -0.009022033, -154846.64, 296.06693, 0.0, 5.0673466, 5.0256085 
9.882678e+2, 2.8917715e+2, -112004.75, -176259.64, -2963.988, -0.007361512, -0.008191685, -111868.31, -5816.5723, 0.0, 5.066175, 5.023792 
9.8786217e+2, 2.9418296e+2, -72535.305, -137692.86, -520.1569, -0.004970735, -0.011163968, -72531.15, -15538.855, 0.0, 5.0640025, 5.021201 
9.874539e+2, 2.991863e+2, -33430.813, -100235.484, 425.83353, 0.018889463, -0.009679682, -33428.098, -25470.143, 0.0, 5.0619965, 5.018049 
9.870369e+2, 3.04185e+2, 1876.9229, -66250.91, 87.113106, -0.015647754, 0.003852715, 1877.0343, 1877.0343, 0.0, 5.0592704, 5.0136127 
9.866206e+2, 3.0918196e+2, 24678.992, -22153.06, -4360.9683, 0.029761836, 0.0036675395, 25081.621, 25081.621, 0.0, 5.0481663, 5.0167813 
1.0032127e+3, 1.4387685e+2, -1530498.1, -1527706.4, 3251.5293, -0.04124975, -0.05124851, -1525563.8, 4434.7383, 0.0, 5.046511, 5.0483346 
1.0028915e+3, 1.4891438e+2, -1483765.4, -1492283.3, -502.6758, 0.023800148, -0.011904111, -1483735.9, -3103.0662, 0.0, 5.048703, 5.0429068 
1.0025604e+3, 1.5394565e+2, -1432620.6, -1447179.5, 677.3174, -0.0022371027, -0.0075951316, -1432589.3, -1260.8329, 0.0, 5.0507574, 5.040856 
1.0022317e+3, 1.5897548e+2, -1381633.0, -1399276.8, 4498.415, -0.019656066, -0.0025158941, -1380552.3, 1485.559, 0.0, 5.0522137, 5.04001 
1.00190915e+3, 1.6400336e+2, -1333198.0, -1353491.5, 7994.744, -0.011402182, -0.006307984, -1330426.9, 2337.988, 0.0, 5.0530934, 5.0386825 
1.0015878e+3, 1.6903058e+2, -1284279.6, -1308256.4, 7233.2373, 0.009442087, -0.006271163, -1282266.5, 1230.9664, 0.0, 5.0540857, 5.0372105 
1.0012628e+3, 1.7405652e+2, -1233428.3, -1259229.9, 7090.1626, 0.012533191, -0.00628689, -1231608.3, 2634.5432, 0.0, 5.0551167, 5.037049 
1.0009369e+3, 1.790829e+2, -1182582.8, -1207506.6, 9071.07, 0.0045114295, -0.006882012, -1179630.9, 5353.0625, 0.0, 5.0556726, 5.038012 
1.000613e+3, 1.8410939e+2, -1134937.3, -1161170.8, 12554.659, -0.01350894, -0.003946114, -1129897.3, 5827.554, 0.0, 5.056118, 5.037061 
1.0002911e+3, 1.8913378e+2, -1088355.8, -1120066.3, 13257.455, -0.025385706, -0.0027685273, -1083543.5, 2942.9722, 0.0, 5.0569615, 5.034188 
9.999702e+2, 1.9415615e+2, -1039066.3, -1072162.8, 14004.065, -0.021723565, -0.00267168, -1033936.06, 3331.7795, 0.0, 5.0575576, 5.033823 
9.996497e+2, 1.9917928e+2, -986271.2, -1017226.75, 15255.125, -0.0128020095, -0.0049836407, -980016.94, 8025.09, 0.0, 5.058324, 5.0358324 
9.9932855e+2, 2.0420426e+2, -936288.44, -966869.94, 14960.402, 0.00052719755, -0.0010313018, -930187.1, 8612.147, 0.0, 5.058767, 5.0363874 
9.990047e+2, 2.092286e+2, -890050.0, -923204.75, 15880.856, 0.0048515354, 0.0021815915, -883670.7, 5892.0864, 0.0, 5.058936, 5.034695 
9.986789e+2, 2.1425116e+2, -841831.5, -875342.44, 17084.518, 0.00079907896, 0.005994425, -834657.4, 5686.297, 0.0, 5.059123, 5.0344787 
9.9835104e+2, 2.192753e+2, -790139.0, -821135.2, 15302.756, -0.006794793, 0.012468387, -783857.2, 7251.548, 0.0, 5.059372, 5.0365887 
9.9801904e+2, 2.2430016e+2, -738912.0, -767447.0, 13809.676, -0.013127543, 0.0069553046, -733323.3, 8540.815, 0.0, 5.0594954, 5.0386157 
9.976848e+2, 2.2932531e+2, -694010.5, -725429.94, 15381.742, -0.01172337, 0.004598616, -687734.0, 4882.049, 0.0, 5.059438, 5.0363913 
9.973496e+2, 2.3434761e+2, -646416.06, -677495.7, 17141.633, -0.00960277, -0.004798563, -638818.8, 4577.105, 0.0, 5.0593715, 5.036308 
9.9701214e+2, 2.3937182e+2, -594826.1, -623757.0, 14952.021, -0.001897578, -0.0075515904, -588487.44, 5669.7964, 0.0, 5.0596924, 5.038289 
9.96667e+2, 2.4439874e+2, -542138.9, -571101.8, 11778.036, 0.00088997703, -0.00243627, -537953.94, 6939.382, 0.0, 5.0604553, 5.039851 
9.963159e+2, 2.4942502e+2, -496630.75, -529748.44, 13978.743, -0.006648714, 0.008643953, -491519.34, 4116.418, 0.0, 5.0608478, 5.0371366 
9.959644e+2, 2.544479e+2, -447780.25, -481561.6, 14876.558, -0.012015367, 0.009733843, -442163.0, 4248.343, 0.0, 5.0612593, 5.0369673 
9.9560875e+2, 2.594716e+2, -397420.4, -432317.78, 13658.099, -0.013451626, 0.01573557, -392710.56, 4468.437, 0.0, 5.0620017, 5.0371327 
9.9524343e+2, 2.6449507e+2, -345654.1, -386140.5, 7224.8887, -0.014111729, 0.020019466, -344403.44, 3544.098, 0.0, 5.0635185, 5.036089 
9.948701e+2, 2.6951405e+2, -297413.0, -340478.0, 8929.696, -0.008342572, -0.0011619893, -295634.8, 3125.3628, 0.0, 5.0642557, 5.0348105 
9.944978e+2, 2.7453217e+2, -248821.83, -296627.38, 10931.755, -0.0042497194, -0.0027863446, -246440.66, 3140.674, 0.0, 5.065385, 5.032763 
9.9411875e+2, 2.7954963e+2, -199285.84, -250983.22, 9591.438, -0.009282436, 0.0013612796, -197563.72, 2844.5022, 0.0, 5.066525, 5.0313945 
9.9372464e+2, 2.8456375e+2, -151354.95, -209026.45, -3701.481, -0.0069737127, -0.008388051, -151118.36, 146.11775, 0.0, 5.067199, 5.029077 
9.9331635e+2, 2.895761e+2, -108009.97, -165466.13, -3318.36, -0.015825137, -0.010835896, -107818.95, -5681.0913, 0.0, 5.0659437, 5.027878 
9.929089e+2, 2.9458535e+2, -70165.69, -130995.86, -3579.9924, -0.0068087773, -0.016976235, -69955.73, -16913.523, 0.0, 5.0637484, 5.0238347 
9.9249786e+2, 2.995908e+2, -30109.596, -89779.26, -704.83954, 0.013260012, -0.026650803, -30101.271, -26116.135, 0.0, 5.061586, 5.0220895 
9.9207824e+2, 3.045936e+2, 5341.036, -54960.742, -4789.675, -0.012391388, -0.012236832, 5719.102, 5719.102, 0.0, 5.0587187, 5.0180616 
9.916488e+2, 3.0959553e+2, 25254.896, -17010.883, -17093.102, 0.029397283, 0.000811828, 31302.389, 31302.389, 0.0, 5.047153, 5.0193334 
1.00825466e+3, 1.4420383e+2, -1525008.3, -1524764.1, 512.2792, 0.014546744, -0.03079946, -1524359.6, 2433.5283, 0.0, 5.0483093, 5.048441 
1.0079289e+3, 1.4924234e+2, -1477836.4, -1486973.6, -1533.674, 0.020022923, 0.0045671943, -1477585.9, -167.67995, 0.0, 5.0501127, 5.04406 
1.0075991e+3, 1.5427446e+2, -1429413.1, -1443956.4, -1538.2385, -0.010533991, 0.0050684004, -1429252.3, -1146.4861, 0.0, 5.05131, 5.0417666 
1.0072713e+3, 1.5930456e+2, -1377368.1, -1396342.5, 1936.5057, -0.038334835, -0.0003233051, -1377172.5, 1640.3112, 0.0, 5.053288, 5.040594 
1.006952e+3, 1.6433264e+2, -1328642.9, -1353219.4, 2664.3457, -0.009937572, -0.008635575, -1328357.3, 1180.1295, 0.0, 5.0547466, 5.0381355 
1.0066321e+3, 1.693596e+2, -1279201.5, -1306590.6, 572.00586, 0.017522838, -0.015856119, -1279189.5, 1083.1166, 0.0, 5.0555964, 5.037262 
1.0063076e+3, 1.7438559e+2, -1229109.5, -1258124.5, -732.95245, 0.018541718, -0.022696836, -1229091.0, 1926.032, 0.0, 5.0563173, 5.037106 
1.0059805e+3, 1.7941336e+2, -1179139.0, -1207275.0, 1041.8982, -0.008449666, -0.015996655, -1179100.4, 2643.89, 0.0, 5.056624, 5.0379033 
1.0056555e+3, 1.844415e+2, -1130969.8, -1160405.8, 3371.5706, -0.043428283, -0.0044891173, -1130588.5, 1880.0322, 0.0, 5.0570936, 5.037171 
1.0053342e+3, 1.8946746e+2, -1084666.6, -1119136.9, 3293.493, -0.056730196, -0.0011995336, -1084354.8, -1140.0656, 0.0, 5.057727, 5.0344825 
1.0050149e+3, 1.9449054e+2, -1033854.2, -1070043.3, 3075.989, -0.044958957, -0.00861588, -1033594.56, 394.19882, 0.0, 5.0587225, 5.0343723 
1.00469716e+3, 1.9951606e+2, -981589.56, -1015733.3, 3367.2554, -0.017754277, -0.0045129345, -981260.7, 3478.821, 0.0, 5.0593143, 5.036276 
1.0043777e+3, 2.0454276e+2, -930605.1, -962407.3, 2173.2266, 0.00956641, -0.0020839877, -930457.3, 5024.1743, 0.0, 5.0595436, 5.0380135 
1.0040535e+3, 2.095696e+2, -885680.94, -921165.3, 2265.023, 0.009798437, 0.0023261248, -885536.94, 685.6084, 0.0, 5.0595813, 5.035553 
1.00372575e+3, 2.1459384e+2, -838381.56, -873341.1, 4702.7974, -0.013859568, -0.0015494108, -837760.0, -771.1682, 0.0, 5.059377, 5.035502 
1.0033961e+3, 2.196215e+2, -785061.75, -816153.5, 2579.5168, -0.04043937, 0.014162181, -784849.2, 2871.533, 0.0, 5.059677, 5.0387053 
1.0030636e+3, 2.2465129e+2, -733186.2, -761412.4, 1632.0698, -0.04922068, 0.021331126, -733092.1, 5333.991, 0.0, 5.0598893, 5.0410852 
1.00272976e+3, 2.2967853e+2, -688334.25, -719383.1, 4628.8315, -0.043037027, 0.005258297, -687658.9, 1496.7603, 0.0, 5.0598326, 5.038864 
1.0023962e+3, 2.3470412e+2, -639650.25, -670368.8, 7202.3037, -0.024409827, -0.008089816, -638045.44, 1856.2761, 0.0, 5.0600452, 5.0390573 
1.0020597e+3, 2.3973258e+2, -588942.3, -617555.44, 5643.691, -0.0048409984, -0.0034377382, -587869.4, 2750.9536, 0.0, 5.0601697, 5.0408053 
1.0017152e+3, 2.4476406e+2, -538760.0, -568176.94, 1851.5142, 0.002814012, 0.016922316, -538643.94, 2668.568, 0.0, 5.060525, 5.0413375 
1.0013644e+3, 2.4978922e+2, -492060.94, -522585.6, 3909.6284, -0.0033583427, -0.017891647, -491568.13, 498.5734, 0.0, 5.060667, 5.0402493 
1.001013e+3, 2.5481883e+2, -444467.16, -475253.53, 5030.912, -0.0075576077, 0.012340218, -443665.88, -888.4814, 0.0, 5.060719, 5.039912 
1.0006559e+3, 2.5984946e+2, -394625.5, -427017.75, 4581.0464, -0.026817841, 0.049477328, -393990.1, -513.0197, 0.0, 5.0615063, 5.039657 
1.0002923e+3, 2.648688e+2, -342370.06, -377990.78, -960.6616, -0.014304146, -0.02756778, -342344.2, 1939.1888, 0.0, 5.0627937, 5.039724 
9.999211e+2, 2.698904e+2, -297262.78, -333502.6, 3375.2817, 0.009144086, -0.06990509, -296951.1, -1882.9536, 0.0, 5.062393, 5.038478 
9.995471e+2, 2.749152e+2, -247897.23, -287135.5, 6149.7285, -0.013135096, -0.04917698, -246955.98, -1132.55, 0.0, 5.063388, 5.0374165 
9.991689e+2, 2.7993783e+2, -195277.7, -240095.45, 6899.467, -0.019226834, -0.03954577, -194239.61, 2359.972, 0.0, 5.065762, 5.0360045 
9.9877834e+2, 2.849655e+2, -138938.7, -191139.77, 10467.148, 0.026125826, 0.027973939, -136918.1, 10403.116, 0.0, 5.0690947, 5.0351048 
9.983665e+2, 2.899788e+2, -92743.0, -149245.92, 15275.562, -0.0062550046, 0.0020387785, -88877.68, 9306.51, 0.0, 5.069603, 5.032509 
9.9795216e+2, 2.9498968e+2, -59518.31, -121971.555, 3451.7856, -0.035250768, -0.008703527, -59328.105, -10256.621, 0.0, 5.0667458, 5.0260215 
9.975433e+2, 2.999982e+2, -24671.918, -79981.836, -2227.01, 0.0275893, -0.015449221, -24582.393, -24582.393, 0.0, 5.0621266, 5.0255685 
9.971163e+2, 3.050026e+2, 10999.143, -42351.914, -12926.587, -0.029181382, -0.02820391, 13966.159, 13966.159, 0.0, 5.058732, 5.022867 
9.966715e+2, 3.1000814e+2, 25527.877, -15522.098, -30870.43, 0.0012883848, -0.024872357, 42073.883, 42073.883, 0.0, 5.046586, 5.020386 
